coord_x,coord_y,stress_xx,stress_yy,tau_xy,velocity_x,velocity_y,stress_1,eps,damage,lx,ly
4.999904e+0, 1.2530577e+2, -1763919.6, -1673927.3, -1992.8179, 0.021105926, 0.3227625, -1673883.1, 38155.01, 0.0013143772, 9.999382, 10.000577 
4.9998456e+0, 1.3530608e+2, -1686441.1, -1724483.1, 990.20404, -0.007581619, 0.41817924, -1686415.4, -72378.21, 0.0008064585, 9.99984, 9.999336 
4.9998936e+0, 1.453054e+2, -1504016.9, -1507362.5, -6509.303, -0.014864808, 0.38104483, -1498968.9, 17072.89, 0.00037918316, 10.000082, 10.000032 
5.000025e+0, 1.5530418e+2, -1399990.1, -1409227.3, -8892.092, -0.004343402, 0.2548994, -1394588.8, 23458.822, 0.00011767186, 10.000135, 10.000008 
5.000134e+0, 1.653037e+2, -1314583.1, -1365455.4, -5540.4854, 0.00045286576, 0.22846906, -1313986.6, 6063.2275, 0.000016018055, 10.000257, 9.999578 
5.0002265e+0, 1.7530368e+2, -1189295.5, -1254148.0, -2059.5144, 0.00039552804, 0.26372552, -1189230.1, 32820.918, 0.00000013955699, 10.000443, 9.999579 
5.000289e+0, 1.8530348e+2, -1077542.8, -1153881.9, -4816.2905, 0.0009843085, 0.28811684, -1077240.0, 46813.375, 0.0, 10.000557, 9.999541 
5.000325e+0, 1.9530322e+2, -973437.2, -1054219.0, -8665.039, 0.0022049518, 0.3043778, -972518.2, 53537.75, 0.0, 10.000605, 9.99953 
5.0003105e+0, 2.0530255e+2, -881848.0, -968850.1, -11144.196, 0.0008876459, 0.290901, -880443.2, 47618.61, 0.0, 10.000602, 9.999444 
5.000249e+0, 2.1530154e+2, -792101.94, -876944.9, -9444.794, -0.0028261545, 0.24142748, -791063.25, 39007.363, 0.0, 10.000555, 9.999425 
5.000292e+0, 2.2530098e+2, -714545.06, -841276.75, -4417.3745, -0.0028197202, 0.26753196, -714391.25, 17686.744, 0.0, 10.00064, 9.998956 
5.000428e+0, 2.3530085e+2, -587562.7, -729898.56, -5355.67, 0.000679591, 0.3554825, -587361.44, 46722.266, 0.0, 10.000842, 9.99895 
5.000513e+0, 2.4529992e+2, -468172.53, -623298.5, -6151.3633, 0.0014778528, 0.36993322, -467929.0, 68165.69, 0.0, 10.000996, 9.998936 
5.0005543e+0, 2.5529832e+2, -353909.2, -518493.38, -3922.3896, -0.00020120617, 0.3115334, -353815.78, 84294.336, 0.0, 10.001112, 9.998926 
5.000632e+0, 2.6529726e+2, -241248.27, -426813.4, -1633.1086, -0.00040572305, 0.32143274, -241233.89, 98888.016, 0.0, 10.00127, 9.998806 
5.0007427e+0, 2.7529678e+2, -115114.51, -316512.13, -2708.1143, 0.00076049566, 0.38919857, -115078.1, 127051.64, 0.0, 10.00147, 9.998795 
5.0008494e+0, 2.852959e+2, -16951.02, -266805.22, 591.40326, 0.00095880264, 0.44317797, -16949.62, 127191.375, 0.000000004221918, 10.001678, 9.998362 
5.0009495e+0, 2.9529455e+2, 112081.23, -155650.83, 7016.0376, -0.00006631277, 0.468958, 112264.96, 158420.9, 0.0000065845143, 10.0019, 9.998346 
5.001074e+0, 3.0529162e+2, 154957.34, -168339.83, 3541.9587, 0.0018171356, 0.3677718, 154996.14, 154996.14, 0.00007539241, 10.0021105, 9.997826 
5.001243e+0, 3.1529024e+2, 319958.6, 126062.65, -6375.9385, 0.008250494, 0.44563866, 320168.03, 320168.03, 0.00026927676, 10.002318, 9.999748 
1.499971e+1, 1.2530597e+2, -1759990.8, -1665229.8, 12714.304, 0.06304987, 0.36811066, -1663553.5, 48483.723, 0.0012897267, 9.99938, 10.000638 
1.4999537e+1, 1.3530551e+2, -1682590.6, -1716096.3, 17562.635, -0.022734415, 0.3820477, -1675072.0, -61029.793, 0.0007892631, 9.999839, 9.999394 
1.499968e+1, 1.4530478e+2, -1508531.9, -1516152.9, -4878.102, -0.04461512, 0.3407233, -1506152.4, 9894.866, 0.00036879338, 10.00008, 9.999973 
1.5000077e+1, 1.553042e+2, -1404304.0, -1417811.3, -6874.6377, -0.013030184, 0.2824676, -1401420.6, 16627.773, 0.00011270428, 10.000134, 9.999949 
1.5000401e+1, 1.653039e+2, -1307963.3, -1351343.4, 1258.7401, 0.0013469623, 0.27227443, -1307926.8, 12122.181, 0.000014709239, 10.000256, 9.999676 
1.500068e+1, 1.7530368e+2, -1183296.9, -1241218.1, 4751.667, 0.001176812, 0.279372, -1182909.6, 39141.19, 0.00000010097208, 10.0004425, 9.999669 
1.5000866e+1, 1.8530318e+2, -1084566.0, -1167974.3, -3154.467, 0.002929095, 0.27455047, -1084446.9, 39608.832, 0.0, 10.000555, 9.999446 
1.5000975e+1, 1.9530252e+2, -979882.06, -1067396.0, -6954.8345, 0.006582245, 0.26096782, -979332.8, 46729.4, 0.0, 10.000605, 9.99944 
1.500093e+1, 2.0530194e+2, -878899.25, -962427.7, -13088.227, 0.002665492, 0.25679883, -876896.5, 51171.082, 0.0, 10.000601, 9.999489 
1.5000747e+1, 2.1530142e+2, -789470.94, -871136.06, -10904.613, -0.008471224, 0.2526605, -788039.94, 42031.86, 0.0, 10.000553, 9.999465 
1.5000877e+1, 2.2530088e+2, -715742.6, -843406.56, 3115.18, -0.008485734, 0.2797634, -715666.6, 16412.2, 0.0, 10.000639, 9.998941 
1.5001285e+1, 2.3530036e+2, -588791.2, -732281.8, 2173.0269, 0.002053976, 0.33104166, -588758.25, 45329.586, 0.0, 10.000841, 9.998935 
1.500154e+1, 2.4529953e+2, -464244.06, -614960.8, -1902.5642, 0.0043830387, 0.35283127, -464220.03, 71878.086, 0.0, 10.000996, 9.998993 
1.5001664e+1, 2.5529844e+2, -349777.8, -509707.9, 543.1028, -0.0006048086, 0.34057403, -349775.97, 88333.38, 0.0, 10.001111, 9.998987 
1.5001895e+1, 2.6529738e+2, -242822.9, -429854.94, 5729.1626, -0.0012481086, 0.34781122, -242647.58, 97473.8, 0.0, 10.001269, 9.998786 
1.5002228e+1, 2.7529645e+2, -116935.445, -319973.6, 4816.5903, 0.0023015633, 0.37214014, -116821.25, 125312.1, 0.0, 10.001468, 9.998772 
1.5002547e+1, 2.8529567e+2, -4999.538, -241640.94, 8853.649, 0.0028627329, 0.42794937, -4668.752, 139474.45, 0.0000000059189293, 10.0016775, 9.998535 
1.5002848e+1, 2.952949e+2, 123137.54, -132418.3, 15360.511, -0.00016736674, 0.49567986, 124057.49, 170209.34, 0.0000065077284, 10.001899, 9.998507 
1.500322e+1, 3.0529192e+2, 132687.42, -214321.83, 11262.716, 0.005440802, 0.39988297, 133052.6, 133052.6, 0.00007423676, 10.00211, 9.99751 
1.5003727e+1, 3.1529e+2, 297816.34, 80492.03, 5843.8022, 0.024663003, 0.45164523, 297973.38, 297973.38, 0.0002657484, 10.002316, 9.999436 
2.4999289e+1, 1.2530579e+2, -1722786.5, -1646023.8, -1046.0267, 0.06995973, 0.40645596, -1646009.5, 66030.445, 0.0012539346, 9.999631, 10.000649 
2.4999386e+1, 1.353049e+2, -1692718.6, -1719751.1, 1642.9454, -0.018307058, 0.37552783, -1692619.3, -78570.914, 0.0007642556, 9.999764, 9.999406 
2.4999747e+1, 1.4530411e+2, -1528419.1, -1523614.5, -25359.871, -0.03883729, 0.32688728, -1500543.5, 15510.439, 0.0003536966, 9.999934, 9.999993 
2.5000304e+1, 1.5530385e+2, -1401447.8, -1414362.4, -21481.498, -0.0045025344, 0.2993876, -1385474.0, 32578.572, 0.00010549485, 10.000145, 9.999969 
2.5000727e+1, 1.6530366e+2, -1299208.5, -1338664.3, -11317.95, 0.007127641, 0.29594585, -1296192.5, 23859.545, 0.000012859098, 10.000279, 9.999752 
2.500106e+1, 1.7530337e+2, -1191640.1, -1237311.0, -9601.068, -0.00021256962, 0.28879496, -1189703.9, 32349.824, 0.00000006033416, 10.000351, 9.999741 
2.5001287e+1, 1.8530273e+2, -1112527.5, -1186287.9, -19584.229, -0.0019579488, 0.26917732, -1107650.1, 16409.486, 0.0, 10.000384, 9.999403 
2.5001416e+1, 1.9530189e+2, -1014292.7, -1088641.6, -19325.994, 0.00096588803, 0.24080385, -1009569.25, 16498.977, 0.0, 10.000388, 9.999398 
2.5001478e+1, 2.0530136e+2, -888900.9, -967382.1, -22400.387, 0.00075471285, 0.24475874, -882957.4, 45115.793, 0.0, 10.000533, 9.999488 
2.500148e+1, 2.1530113e+2, -753854.1, -854273.44, -23912.752, -0.0027503318, 0.2691863, -748450.56, 81624.23, 0.0, 10.000799, 9.999463 
2.5001657e+1, 2.2530052e+2, -684004.56, -826028.06, -12828.738, -0.004813091, 0.28989118, -682855.06, 49227.09, 0.0, 10.000848, 9.998961 
2.5001985e+1, 2.3529966e+2, -607048.94, -738994.25, -11092.976, -0.005316962, 0.30485228, -606122.9, 27971.217, 0.0, 10.000707, 9.998953 
2.5002334e+1, 2.4529894e+2, -497002.5, -626905.56, -9681.317, -0.0037415929, 0.33276013, -496284.94, 39818.773, 0.0, 10.000753, 9.999028 
2.5002706e+1, 2.5529832e+2, -368049.6, -514431.94, -9136.723, -0.00057396333, 0.36395022, -367481.5, 70629.7, 0.0, 10.000968, 9.999023 
2.500315e+1, 2.652973e+2, -254109.23, -431685.9, -1344.278, 0.0019453609, 0.37197733, -254099.05, 86023.76, 0.0, 10.001177, 9.998818 
2.500368e+1, 2.7529603e+2, -126299.87, -321172.78, 2105.07, 0.0044736187, 0.35980582, -126277.13, 115860.125, 0.0, 10.0013895, 9.998801 
2.5004268e+1, 2.852952e+2, -3867.7236, -241013.44, 4823.025, 0.0069437856, 0.41009134, -3769.6743, 140377.52, 0.0000000086392555, 10.001685, 9.998536 
2.50049e+1, 2.9529464e+2, 144853.17, -122171.87, -2067.3264, 0.007413172, 0.50033396, 144869.17, 191022.94, 0.0000063841276, 10.002049, 9.998505 
2.500547e+1, 3.0529165e+2, 145158.64, -220013.92, -9516.252, 0.0123749925, 0.40768924, 145406.47, 145406.47, 0.00007243093, 10.002246, 9.997406 
2.5006095e+1, 3.1528953e+2, 288821.66, 63895.496, 5252.9707, 0.030102668, 0.4502753, 288944.28, 288944.28, 0.00026027678, 10.00231, 9.999326 
3.4998634e+1, 1.2530522e+2, -1725252.1, -1651187.4, 2034.348, 0.040576555, 0.43735576, -1651131.5, 60914.676, 0.0012062672, 9.999632, 10.000613 
3.4999388e+1, 1.3530421e+2, -1694709.5, -1724328.6, 6754.6143, 0.005164937, 0.3988141, -1693241.9, -79186.69, 0.00073077687, 9.999766, 9.999373 
3.5000092e+1, 1.4530335e+2, -1521688.1, -1509810.3, -17602.691, 0.0018443038, 0.33989057, -1497171.6, 18889.826, 0.00033350204, 9.999935, 10.000088 
3.5000703e+1, 1.5530314e+2, -1395297.5, -1401067.5, -13740.2, 0.020741079, 0.30595803, -1384142.6, 33917.53, 0.000095918134, 10.000143, 10.000061 
3.500111e+1, 1.6530298e+2, -1295615.4, -1330575.3, -8755.252, 0.017189141, 0.29944694, -1293545.3, 26513.844, 0.000010539653, 10.000277, 9.999808 
3.5001373e+1, 1.7530274e+2, -1187828.0, -1229292.4, -6861.828, -0.0043026553, 0.29194042, -1186722.0, 35337.79, 0.000000028001644, 10.000351, 9.999796 
3.5001552e+1, 1.8530214e+2, -1111993.4, -1185010.5, -19545.645, -0.014245171, 0.2720738, -1107090.5, 16974.803, 0.0, 10.000384, 9.999412 
3.5001644e+1, 1.953013e+2, -1014182.3, -1087842.3, -18760.66, -0.014935551, 0.24403559, -1009679.4, 16394.604, 0.0, 10.000386, 9.999405 
3.5001954e+1, 2.0530082e+2, -892471.6, -974431.0, -12273.822, -0.005367956, 0.2547822, -890673.06, 37405.58, 0.0, 10.000531, 9.99944 
3.500245e+1, 2.1530066e+2, -756950.8, -860673.44, -14215.335, 0.013903755, 0.2910449, -755037.9, 75041.74, 0.0, 10.000799, 9.999419 
3.5002628e+1, 2.2529992e+2, -680329.5, -818304.06, -18188.756, 0.0074846256, 0.2979326, -677972.0, 54116.023, 0.0, 10.000847, 9.999015 
3.500253e+1, 2.3529877e+2, -603436.5, -731438.75, -15908.245, -0.021817645, 0.2768375, -601489.06, 32613.314, 0.0, 10.000707, 9.999005 
3.500289e+1, 2.452981e+2, -496152.38, -625006.7, -1688.9095, -0.02336013, 0.3094652, -496130.22, 39981.23, 0.0, 10.000753, 9.999041 
3.5003674e+1, 2.552979e+2, -367271.03, -512538.25, -1089.5182, -0.00038745895, 0.38179463, -367262.84, 70852.84, 0.0, 10.000967, 9.999037 
3.5004395e+1, 2.65297e+2, -248279.95, -419452.53, 6532.812, 0.008666818, 0.39406475, -248030.98, 92095.2, 0.0, 10.001177, 9.998902 
3.5005093e+1, 2.752955e+2, -120760.44, -309441.0, 10421.965, 0.0067325043, 0.35220152, -120186.516, 121954.96, 0.0, 10.0013895, 9.998882 
3.500601e+1, 2.852945e+2, -16102.805, -266002.38, 18470.299, 0.012509645, 0.38950217, -14745.025, 129407.945, 0.000000011844628, 10.001684, 9.998365 
3.5007095e+1, 2.9529384e+2, 132980.9, -146317.78, 11200.931, 0.022261254, 0.48291975, 133429.38, 179591.06, 0.0000061783935, 10.002048, 9.998339 
3.5007817e+1, 3.052908e+2, 152590.69, -204389.6, -7422.4526, 0.022352438, 0.39125523, 152744.95, 152744.95, 0.00006978909, 10.002246, 9.997513 
3.5008338e+1, 3.1528884e+2, 295283.28, 77211.63, 11905.127, 0.023330536, 0.44149384, 295931.28, 295931.28, 0.00025241746, 10.002311, 9.999417 
4.499802e+1, 1.253038e+2, -1697386.5, -1627065.4, -22470.336, 0.008845963, 0.41655794, -1620498.5, 91561.016, 0.0011480161, 9.999778, 10.00071 
4.499934e+1, 1.3530305e+2, -1695169.9, -1713227.5, -5933.84, 0.025808603, 0.39238474, -1693394.5, -79328.73, 0.0006895071, 9.999716, 9.999475 
4.5000243e+1, 1.4530231e+2, -1535850.9, -1508254.0, -19549.43, 0.030213092, 0.33576086, -1498123.9, 17947.22, 0.00030865482, 9.999803, 10.000163 
4.5000735e+1, 1.5530214e+2, -1406419.9, -1398202.8, -17185.338, 0.015547395, 0.30149806, -1384641.6, 33427.82, 0.00008435172, 10.000031, 10.000135 
4.500122e+1, 1.6530205e+2, -1310459.4, -1330808.3, -18782.123, 0.007245323, 0.2930159, -1299273.0, 20795.06, 0.000007991499, 10.000146, 9.99987 
4.500174e+1, 1.7530185e+2, -1211317.9, -1233903.6, -16525.285, 0.0067081642, 0.2817967, -1202595.4, 19472.824, 0.000000008983813, 10.000161, 9.999856 
4.5002034e+1, 1.8530133e+2, -1126903.5, -1192895.3, -27140.016, 0.0003330666, 0.26825222, -1117175.8, 6897.2104, 0.0, 10.000285, 9.999405 
4.5002115e+1, 1.9530062e+2, -997047.1, -1080468.4, -27630.979, -0.01261846, 0.25570095, -988725.3, 37355.215, 0.0, 10.000507, 9.999397 
4.5002452e+1, 2.0530012e+2, -889339.4, -976630.6, -21496.346, -0.01017213, 0.2654362, -884332.9, 43752.67, 0.0, 10.000569, 9.999408 
4.500302e+1, 2.1529977e+2, -804496.7, -887004.06, -22622.95, 0.0067101466, 0.2861388, -798700.8, 31387.445, 0.0, 10.000487, 9.999389 
4.500328e+1, 2.2529899e+2, -726574.94, -844021.2, -32099.543, 0.003182003, 0.29077414, -718374.3, 13722.983, 0.0, 10.000545, 9.998984 
4.5003274e+1, 2.3529789e+2, -602934.2, -734292.6, -35918.477, -0.018836709, 0.27907017, -593754.25, 40357.074, 0.0, 10.000723, 9.998979 
4.5003787e+1, 2.4529728e+2, -470382.2, -606686.4, -16296.4795, -0.016778817, 0.31650183, -468460.88, 67659.05, 0.0, 10.000905, 9.999094 
4.5004776e+1, 2.5529715e+2, -345117.3, -496227.16, -13041.014, 0.006398428, 0.3904587, -344000.1, 94123.336, 0.0, 10.001096, 9.999087 
4.500566e+1, 2.6529622e+2, -234407.84, -410369.84, -7139.0635, 0.013434619, 0.39839894, -234118.67, 106015.0, 0.0, 10.001262, 9.998924 
4.5006502e+1, 2.7529466e+2, -116703.33, -305255.47, -8024.801, 0.0076487586, 0.3462357, -116362.41, 125786.695, 0.0, 10.001408, 9.998902 
4.500764e+1, 2.8529358e+2, -32439.813, -283684.94, 6052.8228, 0.0105249025, 0.3794099, -32294.076, 111867.125, 0.000000014278152, 10.001615, 9.998278 
4.5009017e+1, 2.9529282e+2, 103127.61, -170012.58, 4804.796, 0.018004492, 0.47442636, 103212.1, 149383.05, 0.0000058442592, 10.0018835, 9.998256 
4.5010006e+1, 3.0528975e+2, 144625.2, -198047.97, -17049.041, 0.0217183, 0.37459996, 145471.36, 145471.36, 0.0000661976, 10.002148, 9.997605 
4.5010808e+1, 3.1528777e+2, 313990.2, 94224.34, 5019.928, 0.034398384, 0.41617545, 314104.78, 314104.78, 0.00024196846, 10.002403, 9.99949 
5.499744e+1, 1.2530158e+2, -1681191.1, -1594585.0, -27310.816, -0.027371608, 0.34598732, -1586692.0, 125387.68, 0.0010818627, 9.999783, 10.000931 
5.4999226e+1, 1.3530141e+2, -1679398.9, -1680204.4, -8157.873, 0.042904295, 0.35641602, -1671633.9, -57553.754, 0.0006423977, 9.999715, 9.999702 
5.5000204e+1, 1.4530095e+2, -1531986.3, -1499564.3, -10839.091, 0.045354534, 0.31417426, -1496274.4, 19808.354, 0.00028050644, 9.9998, 10.000224 
5.5000407e+1, 1.553009e+2, -1402015.6, -1389438.9, -8525.339, -0.021179006, 0.28588948, -1385133.6, 32946.926, 0.00007169208, 10.000033, 10.000195 
5.500106e+1, 1.6530088e+2, -1305838.3, -1321298.5, -18210.857, -0.023574533, 0.27676407, -1293784.8, 26293.96, 0.0000055425044, 10.000147, 9.999935 
5.500216e+1, 1.7530066e+2, -1207503.1, -1225037.3, -15640.488, 0.032497507, 0.25883827, -1198340.1, 23738.877, 0.00000000116644, 10.000157, 9.999919 
5.5002725e+1, 1.8530028e+2, -1128902.6, -1196186.6, -18636.672, 0.041040167, 0.2579228, -1124085.4, -2.8244364, 0.0, 10.000281, 9.999384 
5.500282e+1, 1.9529986e+2, -998535.9, -1083580.4, -19424.79, 0.007073769, 0.2756943, -994309.2, 31778.664, 0.0, 10.000508, 9.999375 
5.500298e+1, 2.0529926e+2, -890499.3, -979018.8, -24580.725, -0.014499415, 0.2766515, -884131.6, 43962.297, 0.0, 10.000569, 9.999391 
5.500319e+1, 2.1529844e+2, -806011.2, -889979.0, -25227.277, -0.024869062, 0.2542605, -799014.8, 31085.877, 0.0, 10.000487, 9.999369 
5.5003613e+1, 2.252977e+2, -734607.44, -860490.75, -25332.824, -0.018304251, 0.2681501, -729700.7, 2409.2756, 0.0, 10.000544, 9.998871 
5.500422e+1, 2.3529702e+2, -610340.5, -749620.75, -29078.2, 0.003179611, 0.3115557, -604513.5, 29607.408, 0.0, 10.000723, 9.998874 
5.5005014e+1, 2.4529648e+2, -464066.34, -593554.2, -9149.339, 0.015121263, 0.354091, -463423.06, 72705.984, 0.0, 10.000905, 9.999185 
5.5006e+1, 2.5529605e+2, -339283.9, -484008.63, -5843.963, 0.018852502, 0.3898365, -339048.3, 99086.18, 0.0, 10.001095, 9.999172 
5.5006945e+1, 2.65295e+2, -237354.98, -416249.06, -1727.797, 0.015580017, 0.38470644, -237338.3, 102807.0, 0.0, 10.001261, 9.998884 
5.50079e+1, 2.752935e+2, -119677.98, -311167.66, -2485.4607, 0.006793675, 0.34191543, -119645.72, 122514.414, 0.0, 10.001407, 9.998862 
5.5009156e+1, 2.8529242e+2, -32978.777, -284641.56, 16028.031, 0.0005073307, 0.37983894, -31962.084, 112209.83, 0.000000014996283, 10.001615, 9.998271 
5.5010664e+1, 2.952917e+2, 102857.18, -170253.45, 14918.615, -0.0059306147, 0.4747759, 103669.69, 149851.25, 0.0000053587105, 10.001882, 9.998255 
5.501203e+1, 3.0528846e+2, 149697.69, -187181.84, -7593.632, 0.00971821, 0.3571006, 149868.77, 149868.77, 0.00006167391, 10.002147, 9.997681 
5.5013484e+1, 3.152863e+2, 317787.75, 102164.99, 18633.336, 0.061760973, 0.3731561, 319386.13, 319386.13, 0.00022898198, 10.002404, 9.999544 
6.499708e+1, 1.2529993e+2, -1732095.4, -1613122.3, -3638.9895, -0.022479327, 0.30322638, -1613011.1, 99083.13, 0.0010116006, 9.999407, 10.000984 
6.499882e+1, 1.3530006e+2, -1672589.8, -1670070.0, 4987.712, 0.02985673, 0.33671185, -1666185.5, -52093.43, 0.00059264415, 9.999732, 9.9997635 
6.499991e+1, 1.4529969e+2, -1518814.9, -1491101.8, -5342.3257, 0.032333963, 0.3018554, -1490107.6, 25986.297, 0.0002512883, 9.999882, 10.000243 
6.500038e+1, 1.5529972e+2, -1422017.9, -1397037.9, -6516.5146, -0.019643972, 0.27896294, -1395440.1, 22651.033, 0.000059186506, 9.999887, 10.000213 
6.5001166e+1, 1.6529968e+2, -1331749.4, -1332010.0, -21287.162, -0.018056637, 0.26875263, -1310592.1, 9497.392, 0.0000034805446, 9.999962, 9.999951 
6.500228e+1, 1.7529942e+2, -1214819.6, -1226601.5, -22193.852, 0.03225063, 0.24435477, -1197748.3, 24342.14, 0.00000000000024211628, 10.000099, 9.999935 
6.5002966e+1, 1.8529908e+2, -1138437.9, -1198648.1, -21945.11, 0.041209914, 0.24531336, -1131288.4, -7194.9063, 0.0, 10.000208, 9.999403 
6.500328e+1, 1.9529879e+2, -1028583.75, -1096057.8, -19955.627, 0.013257601, 0.2723993, -1023123.7, 2974.0168, 0.0, 10.000294, 9.999393 
6.5003484e+1, 2.0529816e+2, -919905.3, -996186.1, -29664.678, -0.011430312, 0.27198327, -909727.1, 18377.002, 0.0, 10.0003805, 9.999364 
6.5003586e+1, 2.1529722e+2, -810598.25, -895157.44, -30816.396, -0.03343583, 0.23899426, -800559.44, 29553.135, 0.0, 10.000468, 9.999342 
6.5004176e+1, 2.2529651e+2, -716253.1, -852453.44, -18169.35, -0.023099765, 0.25947994, -713870.94, 18250.596, 0.0, 10.000673, 9.998864 
6.5005195e+1, 2.3529607e+2, -573234.3, -732440.6, -14387.397, 0.016070439, 0.32451677, -571944.6, 62185.84, 0.0, 10.000981, 9.998867 
6.5006137e+1, 2.4529544e+2, -439202.84, -588129.44, -2572.123, 0.02690606, 0.3632525, -439158.44, 96980.77, 0.0, 10.001104, 9.9991255 
6.5007013e+1, 2.5529468e+2, -347555.7, -494492.16, -10153.792, 0.012665057, 0.37239483, -346857.34, 91290.23, 0.0, 10.001066, 9.999114 
6.500813e+1, 2.652936e+2, -236313.13, -420749.22, -2983.7385, 0.0059141344, 0.36909428, -236264.88, 103893.89, 0.0, 10.001289, 9.998839 
6.5009475e+1, 2.7529234e+2, -72621.54, -293794.78, -4395.94, 0.006741199, 0.35365847, -72534.195, 169637.52, 0.0, 10.001753, 9.998816 
6.5010947e+1, 2.8529122e+2, 5696.718, -274141.66, 3269.487, 0.00390673, 0.39361656, 5734.9116, 149918.8, 0.000000013847158, 10.001915, 9.9981985 
6.5012515e+1, 2.952902e+2, 86522.49, -185598.16, -2661.1838, -0.005309617, 0.46761808, 86548.51, 132744.5, 0.0000047556837, 10.0018015, 9.998188 
6.501405e+1, 3.0528688e+2, 127304.234, -196136.64, -19224.047, 0.005922351, 0.34491327, 128442.83, 128442.83, 0.00005639522, 10.001985, 9.997696 
6.5015864e+1, 3.1528497e+2, 322960.56, 103249.875, 6147.329, 0.056697555, 0.38151234, 323132.44, 323132.44, 0.00021376522, 10.002446, 9.999531 
7.499693e+1, 1.252988e+2, -1739593.3, -1628810.9, 6713.2637, 0.021135962, 0.28618893, -1628405.5, 83697.84, 0.00094218313, 9.999407, 10.000876 
7.49981e+1, 1.3529895e+2, -1679073.8, -1684451.9, 17151.07, -0.015081158, 0.33282503, -1664402.3, -50300.465, 0.0005443152, 9.999735, 9.999663 
7.499937e+1, 1.4529854e+2, -1520484.9, -1494962.3, -4966.4297, -0.010226206, 0.2987499, -1494029.9, 22074.623, 0.00022371147, 9.999884, 10.000216 
7.500066e+1, 1.552986e+2, -1424547.5, -1401388.1, -5969.774, 0.019431515, 0.28091332, -1399939.9, 18161.71, 0.00004811655, 9.999884, 10.000185 
7.5001544e+1, 1.6529852e+2, -1334354.5, -1336527.1, -15950.257, 0.022780184, 0.26914218, -1319453.6, 646.7664, 0.0000019773436, 9.999958, 9.999922 
7.5002116e+1, 1.7529815e+2, -1216473.4, -1230294.1, -16802.172, 0.004872605, 0.23796695, -1205216.0, 16886.164, 0.0, 10.0001, 9.999909 
7.500277e+1, 1.8529776e+2, -1134136.5, -1189887.9, -18647.91, -0.00008801704, 0.23013665, -1128474.3, -4368.3765, 0.0, 10.000209, 9.999462 
7.5003505e+1, 1.952974e+2, -1024920.25, -1087896.6, -16522.629, 0.005722999, 0.24610774, -1020848.56, 5261.4785, 0.0, 10.000292, 9.99945 
7.500397e+1, 2.0529683e+2, -922857.2, -1001859.6, -26260.617, -0.0012983992, 0.2516494, -914924.6, 13191.563, 0.0, 10.000379, 9.999326 
7.500419e+1, 2.1529607e+2, -813002.44, -900096.25, -27132.314, -0.019726984, 0.24034262, -805241.5, 24882.36, 0.0, 10.000468, 9.999309 
7.500496e+1, 2.2529544e+2, -709413.2, -838208.75, -6529.411, -0.012141481, 0.26478717, -709083.0, 23049.008, 0.0, 10.000673, 9.998962 
7.500621e+1, 2.3529497e+2, -566984.9, -719382.25, -3115.4265, 0.019165479, 0.31801814, -566921.2, 67218.86, 0.0, 10.00098, 9.998957 
7.5007147e+1, 2.4529415e+2, -453559.94, -617836.2, -4074.7883, 0.018110465, 0.34367532, -453458.94, 82691.51, 0.0, 10.001103, 9.998922 
7.5007826e+1, 2.5529307e+2, -361547.56, -523479.6, -11026.128, -0.01249437, 0.33822742, -360800.25, 77362.45, 0.0, 10.001065, 9.998915 
7.500919e+1, 2.6529202e+2, -239790.39, -427863.7, 14347.536, -0.016027771, 0.3516847, -238702.16, 101471.9, 0.0, 10.001289, 9.998791 
7.501123e+1, 2.7529114e+2, -76582.44, -301688.47, 12539.161, 0.0068197013, 0.38126406, -75886.12, 166297.72, 0.0, 10.001752, 9.998761 
7.501303e+1, 2.852899e+2, -3935.8967, -293970.22, -1066.723, 0.01991285, 0.42049932, -3931.9736, 140265.19, 0.000000011324871, 10.001914, 9.998063 
7.5014555e+1, 2.9528835e+2, 77563.42, -204321.47, -6456.635, 0.019025218, 0.4529029, 77711.234, 123925.44, 0.000004098041, 10.001802, 9.998059 
7.501608e+1, 3.0528507e+2, 124210.375, -202152.06, -2192.743, 0.009683347, 0.33839855, 124225.1, 124225.1, 0.000050636227, 10.001984, 9.997655 
7.5017923e+1, 3.1528375e+2, 317032.56, 92002.805, 27007.922, 0.018358143, 0.44165114, 320228.66, 320228.66, 0.00019685416, 10.002442, 9.9994545 
8.499657e+1, 1.2529767e+2, -1736380.0, -1632887.0, -24194.248, 0.041993994, 0.31678405, -1627510.3, 84605.01, 0.00087835814, 9.999453, 10.000827 
8.499762e+1, 1.3529767e+2, -1706272.0, -1700992.5, -7527.255, -0.028607275, 0.35250205, -1695655.5, -81540.48, 0.0005011039, 9.999563, 9.999632 
8.4999e+1, 1.4529711e+2, -1549044.5, -1503461.1, -30134.094, -0.024659038, 0.3016271, -1488470.3, 27648.773, 0.00020010647, 9.999664, 10.000262 
8.500061e+1, 1.5529713e+2, -1438448.1, -1403150.1, -25258.19, 0.032225292, 0.27695233, -1389985.8, 28130.146, 0.000039437622, 9.999768, 10.000229 
8.5001594e+1, 1.652971e+2, -1341189.3, -1339768.0, -26923.926, 0.03498307, 0.26819754, -1313545.4, 6568.781, 0.0000010481418, 9.999911, 9.999922 
8.500208e+1, 1.7529686e+2, -1217129.6, -1230436.1, -26039.988, -0.0075922795, 0.24824001, -1196906.4, 25208.717, 0.0, 10.000095, 9.999911 
8.5002756e+1, 1.8529642e+2, -1141178.6, -1185479.5, -32832.914, -0.017947119, 0.2335358, -1123723.0, 395.88272, 0.0, 10.000127, 9.999533 
8.5003585e+1, 1.9529592e+2, -1059401.8, -1096594.9, -29389.59, -0.0010324768, 0.22672048, -1043219.3, -17095.37, 0.0, 10.000021, 9.99952 
8.5004294e+1, 2.0529543e+2, -951745.8, -1018009.2, -28099.85, 0.0027937407, 0.23771898, -941434.3, -13304.891, 0.0, 10.000191, 9.999306 
8.500488e+1, 2.1529496e+2, -794349.56, -893161.7, -27874.545, -0.0047889417, 0.25707424, -787028.7, 43106.508, 0.0, 10.000606, 9.9992895 
8.5005784e+1, 2.2529432e+2, -689379.25, -825180.44, -12896.59, -0.0035424174, 0.28124455, -688165.4, 43977.934, 0.0, 10.000796, 9.998992 
8.5006964e+1, 2.3529361e+2, -592775.9, -728793.5, -14807.072, 0.0059002303, 0.30710512, -591182.6, 42970.25, 0.0, 10.000791, 9.998983 
8.5008097e+1, 2.4529268e+2, -466546.13, -634271.8, -10564.535, 0.004171431, 0.3245823, -465883.34, 70280.77, 0.0, 10.001058, 9.998832 
8.500919e+1, 2.5529158e+2, -294756.75, -501491.78, -9174.656, -0.008521619, 0.32804927, -294350.4, 143826.11, 0.0, 10.001568, 9.998824 
8.501072e+1, 2.6529056e+2, -187162.0, -414023.72, 14222.022, -0.013033167, 0.3523813, -186273.89, 153914.23, 0.0, 10.0017, 9.998689 
8.501271e+1, 2.752897e+2, -121240.35, -334570.44, 8472.057, -0.007762709, 0.39423352, -120904.43, 121293.85, 0.0, 10.001493, 9.998661 
8.5014725e+1, 2.8528836e+2, -38651.04, -314121.06, 1204.3113, 0.009972281, 0.42810598, -38645.777, 105566.86, 0.000000007967864, 10.001689, 9.998034 
8.5016716e+1, 2.9528657e+2, 141029.95, -177137.3, 3422.3943, 0.03251442, 0.440668, 141066.77, 187297.92, 0.0000034232567, 10.002253, 9.99803 
8.5018325e+1, 3.052832e+2, 178638.73, -182762.3, 6174.5996, 0.0156365, 0.32629415, 178744.2, 178744.2, 0.00004462947, 10.002386, 9.997595 
8.501996e+1, 3.152822e+2, 263167.88, 54386.99, 37468.383, -0.005810858, 0.46296576, 269688.4, 269688.4, 0.00017880679, 10.002121, 9.9993515 
9.499598e+1, 1.252965e+2, -1735918.0, -1631828.8, -21826.422, 0.037372254, 0.39477086, -1627437.3, 84692.91, 0.00082284986, 9.999453, 10.000834 
9.499735e+1, 1.352962e+2, -1703811.3, -1695881.9, -3302.5337, -0.011811311, 0.39540225, -1694686.6, -80554.484, 0.00046510532, 9.999563, 9.999667 
9.499879e+1, 1.4529537e+2, -1540193.6, -1484982.0, -26026.703, -0.012284755, 0.3103176, -1474647.4, 41490.242, 0.00018171112, 9.999664, 10.00039 
9.500023e+1, 1.5529531e+2, -1429656.4, -1385311.5, -20987.973, 0.017151868, 0.26656, -1376953.4, 41180.742, 0.000033543416, 9.999769, 10.00035 
9.5001334e+1, 1.6529544e+2, -1339061.9, -1335586.9, -19763.426, 0.01725775, 0.26520526, -1317484.8, 2646.006, 0.00000057940093, 9.999912, 9.99995 
9.50022e+1, 1.7529553e+2, -1215430.0, -1226546.1, -19209.344, -0.0057252543, 0.27527788, -1200990.9, 21138.271, 0.0, 10.000093, 9.999938 
9.500293e+1, 1.852951e+2, -1135516.4, -1173384.9, -36717.777, -0.01317456, 0.25586691, -1113138.4, 10994.171, 0.0, 10.000125, 9.999616 
9.5003545e+1, 1.9529432e+2, -1053364.4, -1084199.9, -32659.828, -0.0077778595, 0.21414708, -1032666.06, -6526.6387, 0.0, 10.000022, 9.999605 
9.500446e+1, 2.0529392e+2, -951830.9, -1018277.9, -12429.396, 0.00019547725, 0.23006022, -949582.0, -21437.99, 0.0, 10.000191, 9.999304 
9.500564e+1, 2.1529385e+2, -794579.7, -893602.06, -12556.114, 0.010879973, 0.28921747, -793012.3, 37134.24, 0.0, 10.000606, 9.999287 
9.500663e+1, 2.2529314e+2, -692284.94, -831101.44, -13171.339, 0.0020893961, 0.30892488, -691046.25, 41109.125, 0.0, 10.000796, 9.998952 
9.500746e+1, 2.3529196e+2, -595629.2, -734559.4, -14405.522, -0.023899512, 0.29139715, -594151.2, 40017.86, 0.0, 10.000791, 9.998944 
9.500896e+1, 2.4529098e+2, -465115.97, -631182.6, 8568.558, -0.0154150715, 0.3058862, -464675.03, 71505.25, 0.0, 10.001058, 9.998853 
9.501108e+1, 2.5529024e+2, -293699.16, -499085.16, 9280.602, 0.023731748, 0.34183264, -293280.66, 144908.4, 0.0, 10.001567, 9.998841 
9.5012695e+1, 2.6528922e+2, -198172.58, -436748.97, 6358.7056, 0.014148856, 0.3711785, -198003.22, 142197.8, 0.0, 10.001699, 9.998532 
9.501391e+1, 2.75288e+2, -131442.92, -355775.06, 1437.7131, -0.03738806, 0.39262214, -131433.72, 110781.34, 0.0, 10.001493, 9.998515 
9.501605e+1, 2.8528652e+2, -33090.125, -302572.2, 22114.947, -0.026437707, 0.41647106, -31287.332, 112942.96, 0.0000000042394483, 10.00169, 9.998113 
9.501899e+1, 2.952848e+2, 145801.39, -166878.25, 23597.55, 0.034845386, 0.43026298, 147572.23, 193819.14, 0.000002739973, 10.002252, 9.998101 
9.502078e+1, 3.0528137e+2, 173125.61, -193481.67, -3737.484, 0.023175154, 0.307928, 173163.7, 173163.7, 0.000038513957, 10.002383, 9.997522 
9.5021963e+1, 3.1528032e+2, 253982.34, 36032.74, 31077.34, -0.018002855, 0.44586492, 258327.03, 258327.03, 0.00016003304, 10.002118, 9.999227 
1.0499524e+2, 1.2529466e+2, -1771713.6, -1631783.6, -31114.404, 0.03472426, 0.42198288, -1625177.0, 86973.02, 0.0007762847, 9.999133, 10.000987 
1.0499694e+2, 1.3529441e+2, -1726953.1, -1687085.4, -219.93434, 0.0029146408, 0.40952837, -1687084.1, -72933.55, 0.00043669788, 9.999319, 9.9998455 
1.04998454e+2, 1.4529356e+2, -1567975.8, -1489437.9, -21809.693, -0.0011789796, 0.3113529, -1483787.9, 32367.822, 0.00016867174, 9.999434, 10.00047 
1.0499973e+2, 1.5529363e+2, -1464494.5, -1393747.3, -20451.74, 0.003503527, 0.26987708, -1388260.5, 29890.582, 0.000030278157, 9.999494, 10.000425 
1.0500092e+2, 1.6529384e+2, -1385217.6, -1353843.9, -18190.14, 0.0019138671, 0.271456, -1345510.8, -25363.89, 0.0000004316036, 9.9995775, 9.999987 
1.0500211e+2, 1.7529401e+2, -1273420.1, -1250390.3, -16671.434, -0.0024999194, 0.28540373, -1241643.6, -19499.168, 0.0, 9.999678, 9.999975 
1.0500303e+2, 1.8529356e+2, -1171458.9, -1190189.5, -38277.41, -0.0034074192, 0.26294607, -1141417.6, -17269.654, 0.0, 9.999876, 9.99962 
1.0500369e+2, 1.952927e+2, -1031661.25, -1073185.4, -40364.99, -0.002020138, 0.2115508, -1007031.75, 19123.803, 0.0, 10.000168, 9.999611 
1.05004735e+2, 2.0529231e+2, -926046.25, -1003591.2, -16184.167, 0.0008109839, 0.22824436, -922804.06, 5355.763, 0.0, 10.000358, 9.999324 
1.0500611e+2, 2.1529236e+2, -815468.4, -901249.6, -14639.124, 0.0052032527, 0.29765746, -813038.9, 17122.342, 0.0, 10.000452, 9.999308 
1.0500731e+2, 2.2529162e+2, -711818.25, -848759.6, -18059.234, -0.004558347, 0.31678966, -709476.7, 22693.723, 0.0, 10.000698, 9.998878 
1.0500836e+2, 2.3529027e+2, -558793.7, -724966.1, -21736.56, -0.026971104, 0.28886393, -555997.44, 78188.44, 0.0, 10.001079, 9.998871 
1.050101e+2, 2.4528928e+2, -437013.9, -618731.5, 1295.8589, -0.01663224, 0.30543932, -437004.7, 99192.52, 0.0, 10.001255, 9.998843 
1.0501248e+2, 2.5528863e+2, -340623.88, -522989.72, -728.1835, 0.022713607, 0.35427576, -340620.97, 97583.586, 0.0, 10.00125, 9.99883 
1.0501429e+2, 2.6528746e+2, -240002.17, -470244.1, -8412.568, 0.015720084, 0.3749162, -239695.2, 100522.64, 0.0, 10.001469, 9.998415 
1.0501566e+2, 2.7528584e+2, -82614.695, -344960.66, -10554.335, -0.031144973, 0.36889204, -82190.77, 160044.92, 0.0, 10.001883, 9.998403 
1.050179e+2, 2.8528437e+2, 19491.398, -269319.0, 15375.687, -0.02735296, 0.3925459, 20307.662, 164558.44, 0.0000000012344323, 10.002015, 9.998185 
1.0502087e+2, 2.9528296e+2, 98151.83, -182137.48, 16473.387, 0.015881032, 0.43035817, 99116.695, 145380.39, 0.0000020653147, 10.001888, 9.998173 
1.0502282e+2, 3.052795e+2, 116347.27, -218797.39, -14044.847, 0.008835862, 0.29966885, 116934.81, 116934.81, 0.00003243676, 10.001982, 9.997543 
1.0502433e+2, 3.152782e+2, 275384.97, 41688.8, 30342.094, -0.0012841499, 0.41523254, 279260.22, 279260.22, 0.00014091349, 10.002283, 9.9991865 
1.1499436e+2, 1.2529214e+2, -1751261.8, -1589510.6, -25965.307, 0.0323043, 0.3976898, -1585444.8, 126730.23, 0.0007384457, 9.999134, 10.001278 
1.14996366e+2, 1.3529228e+2, -1705293.1, -1641377.0, 6596.3257, 0.013556846, 0.39413646, -1640703.4, -26532.648, 0.00041537013, 9.999316, 10.00016 
1.1499796e+2, 1.452917e+2, -1566118.8, -1485021.3, -19313.695, 0.0065483893, 0.30385053, -1480656.5, 35516.727, 0.00016046493, 9.999432, 10.000502 
1.14999086e+2, 1.5529203e+2, -1462248.3, -1389590.5, -17798.637, -0.0100643365, 0.2868313, -1385464.8, 32701.992, 0.000029173738, 9.9994955, 10.000453 
1.1500037e+2, 1.6529226e+2, -1381265.5, -1346066.4, -14356.308, -0.012077554, 0.28742394, -1340953.6, -20791.258, 0.0000005105562, 9.999579, 10.000039 
1.1500183e+2, 1.7529227e+2, -1269732.1, -1242813.9, -12573.76, 0.0012143773, 0.27865458, -1237854.3, -15692.937, 0.0, 9.999678, 10.000028 
1.1500304e+2, 1.8529178e+2, -1176817.0, -1201243.0, -27221.33, 0.010611067, 0.25432444, -1159194.5, -35029.266, 0.0, 9.999876, 9.999545 
1.1500404e+2, 1.95291e+2, -1036867.2, -1084016.8, -29449.953, 0.015846504, 0.21869586, -1022718.4, 3454.0237, 0.0, 10.000168, 9.9995365 
1.1500513e+2, 2.0529057e+2, -923008.4, -997143.2, -12581.914, 0.004135425, 0.23221835, -920931.2, 7245.7974, 0.0, 10.000357, 9.999369 
1.150063e+2, 2.1529049e+2, -812388.8, -894852.75, -10661.257, -0.02208597, 0.28244486, -811032.8, 19146.377, 0.0, 10.000452, 9.999352 
1.1500782e+2, 2.2528975e+2, -719335.3, -864321.56, -3777.5164, -0.02383213, 0.3048125, -719236.94, 12951.467, 0.0, 10.000697, 9.998771 
1.1500967e+2, 2.352885e+2, -566330.56, -740500.8, -7765.4985, -0.003887737, 0.29973036, -565985.0, 68218.43, 0.0, 10.001078, 9.998765 
1.1501152e+2, 2.4528751e+2, -440028.8, -624833.6, 1089.7067, -0.0001741813, 0.3233342, -440022.38, 96192.54, 0.0, 10.001254, 9.998802 
1.1501338e+2, 2.5528675e+2, -343604.2, -529057.3, -402.78516, -0.01159333, 0.36520404, -343603.3, 94619.67, 0.0, 10.00125, 9.998789 
1.1501552e+2, 2.6528528e+2, -245412.44, -481577.88, 7018.856, -0.008417667, 0.3634053, -245204.02, 95034.625, 0.0, 10.001469, 9.998337 
1.1501795e+2, 2.7528328e+2, -88120.87, -356412.88, 4407.8525, 0.010226441, 0.32292238, -88048.47, 154211.75, 0.0, 10.001883, 9.998324 
1.15020245e+2, 2.8528187e+2, 24270.648, -258941.38, 10599.404, 0.006355449, 0.3561731, 24666.785, 168940.88, 0.00000000006210851, 10.002014, 9.998258 
1.15022354e+2, 2.95281e+2, 103338.305, -170816.27, 12152.56, -0.024688412, 0.44125223, 103875.94, 150157.42, 0.0000014487281, 10.001886, 9.998251 
1.1502444e+2, 3.0527756e+2, 124308.94, -201926.67, -2968.4292, -0.027993377, 0.30192754, 124335.945, 124335.945, 0.000026628812, 10.001981, 9.99766 
1.15027055e+2, 3.152759e+2, 278289.22, 47975.492, 44615.547, 0.04271732, 0.3706065, 286629.94, 286629.94, 0.00012196141, 10.002282, 9.99923 
1.249933e+2, 1.2528975e+2, -1779417.6, -1595903.1, -3051.5925, 0.024037717, 0.35722828, -1595852.4, 116344.305, 0.000709113, 9.998911, 10.001342 
1.24995455e+2, 1.3529024e+2, -1768126.1, -1660701.1, 13793.187, 0.014927357, 0.37793216, -1658958.4, -44768.918, 0.00040043768, 9.998838, 10.000258 
1.2499722e+2, 1.452898e+2, -1626153.4, -1512106.0, -14095.776, 0.011024148, 0.29659528, -1510389.6, 5801.5083, 0.0001562618, 9.999012, 10.000519 
1.24998525e+2, 1.5529026e+2, -1475004.0, -1394066.9, -13849.322, -0.0108169345, 0.2917232, -1391762.8, 26420.969, 0.000029665673, 9.9994, 10.000469 
1.2499995e+2, 1.6529046e+2, -1375861.1, -1342819.0, -18017.387, -0.013199388, 0.28719637, -1334894.8, -14714.957, 0.0000007617598, 9.999613, 10.000046 
1.2500153e+2, 1.7529027e+2, -1270546.5, -1242564.5, -19735.094, 0.0040822863, 0.2583214, -1232364.1, -10183.762, 0.0, 9.999669, 10.000034 
1.2500295e+2, 1.8528984e+2, -1174676.3, -1198647.6, -23347.201, 0.0134032145, 0.23824324, -1160417.9, -36234.14, 0.0, 9.999883, 9.999559 
1.2500423e+2, 1.9528934e+2, -1026423.8, -1077600.5, -18789.246, 0.014877196, 0.22864825, -1020266.3, 5922.1816, 0.0, 10.000234, 9.999549 
1.2500551e+2, 2.0528886e+2, -913426.06, -997577.0, -10404.1045, 0.0017040941, 0.23908734, -912158.8, 16034.849, 0.0, 10.000444, 9.999324 
1.2500677e+2, 2.1528842e+2, -803257.7, -895396.7, -15385.41, -0.024288416, 0.26005897, -800756.5, 29442.475, 0.0, 10.000535, 9.999309 
1.2500855e+2, 2.2528768e+2, -715061.8, -860922.4, 1438.0748, -0.021425229, 0.2823624, -715047.6, 17160.625, 0.0, 10.000721, 9.998783 
1.2501082e+2, 2.352867e+2, -578477.75, -745253.5, 6207.9404, 0.006967658, 0.30315393, -578247.0, 55973.59, 0.0, 10.00099, 9.998775 
1.250128e+2, 2.4528569e+2, -457455.38, -650163.56, 6401.484, 0.0037857355, 0.33166692, -457242.97, 78989.42, 0.0, 10.001207, 9.998651 
1.2501453e+2, 2.5528467e+2, -335750.44, -542053.25, -3142.7256, -0.028355103, 0.36033, -335702.56, 102540.98, 0.0, 10.001376, 9.998639 
1.2501691e+2, 2.6528302e+2, -240740.36, -487815.06, 7862.2954, -0.019306961, 0.35365236, -240490.42, 99770.375, 0.0, 10.001537, 9.998261 
1.2501992e+2, 2.7528092e+2, -121354.95, -380962.7, 5316.05, 0.029154109, 0.31505832, -121246.14, 121036.57, 0.0, 10.00169, 9.998249 
1.2502241e+2, 2.852795e+2, 284.25824, -273999.06, -1257.9558, 0.028606901, 0.3510461, 290.02753, 144586.7, 0.0, 10.001863, 9.998227 
1.2502433e+2, 2.952787e+2, 125466.234, -162737.78, -7809.8306, -0.023377607, 0.44052258, 125677.71, 171981.48, 0.00000094519226, 10.002049, 9.998228 
1.250264e+2, 3.052751e+2, 143120.25, -189294.5, -26740.56, -0.034588985, 0.29158986, 145257.61, 145257.61, 0.000021325412, 10.002095, 9.997692 
1.2502924e+2, 3.152734e+2, 235788.33, 21894.309, 17776.049, 0.04685856, 0.35051534, 237255.56, 237255.56, 0.00010374891, 10.002014, 9.999181 
1.3499205e+2, 1.252875e+2, -1791942.9, -1620395.3, -6196.415, 0.008210873, 0.3019367, -1620171.6, 92043.67, 0.0006877832, 9.998904, 10.001177 
1.3499421e+2, 1.3528824e+2, -1775912.0, -1677961.0, 11836.408, 0.005469109, 0.36161992, -1676551.0, -62343.953, 0.0003909241, 9.998843, 10.000138 
1.3499625e+2, 1.4528784e+2, -1625363.8, -1511455.1, 476.85284, 0.010689373, 0.28999755, -1511453.1, 4756.086, 0.00015498626, 9.999016, 10.000522 
1.3499804e+2, 1.5528832e+2, -1475150.6, -1393635.8, 352.05728, 0.000031802785, 0.284485, -1393634.3, 24567.922, 0.000031126136, 9.999397, 10.000473 
1.3499966e+2, 1.652884e+2, -1379050.8, -1348792.0, -15882.266, -0.0025346102, 0.27032092, -1341986.4, -21787.008, 0.0000011270397, 9.999609, 10.000007 
1.3500123e+2, 1.7528798e+2, -1272910.0, -1247918.8, -17124.68, 0.0051681637, 0.22395043, -1239215.4, -17013.633, 0.0, 9.99967, 9.999996 
1.3500275e+2, 1.852877e+2, -1166727.5, -1182509.5, -10096.224, 0.004220058, 0.21470284, -1161804.4, -37600.645, 0.0, 9.999885, 9.99967 
1.3500427e+2, 1.9528767e+2, -1019185.8, -1062751.6, -5764.186, -0.005344883, 0.24168652, -1018436.06, 7767.8354, 0.0, 10.000234, 9.999651 
1.3500586e+2, 2.0528716e+2, -923104.2, -1017668.44, -7062.5537, -0.007104416, 0.24890113, -922579.6, 5630.174, 0.0, 10.000444, 9.999186 
1.3500752e+2, 2.1528618e+2, -812619.1, -914633.0, -11706.453, -0.0019588815, 0.23046055, -811293.0, 18927.658, 0.0, 10.000534, 9.999177 
1.3500951e+2, 2.252854e+2, -706017.4, -842047.7, 11584.159, 0.0019938622, 0.24945365, -705037.94, 27192.031, 0.0, 10.00072, 9.998913 
1.3501178e+2, 2.3528485e+2, -569876.5, -727389.06, 16306.881, 0.005216357, 0.29903376, -568206.0, 66031.38, 0.0, 10.00099, 9.998898 
1.3501392e+2, 2.4528378e+2, -475498.5, -687766.06, 12629.76, -0.005055896, 0.33047456, -474749.7, 61500.02, 0.0, 10.001208, 9.998392 
1.3501592e+2, 2.552823e+2, -353626.78, -579361.44, 3205.53, -0.028190855, 0.33985436, -353581.28, 84684.94, 0.0, 10.001377, 9.998383 
1.3501847e+2, 2.6528063e+2, -245823.17, -498295.53, 13579.606, -0.017668862, 0.34549096, -245094.88, 95189.42, 0.0, 10.001537, 9.998189 
1.3502158e+2, 2.7527884e+2, -126510.35, -391387.28, 11285.7295, 0.025447985, 0.3450908, -126030.37, 116272.84, 0.0, 10.001689, 9.998178 
1.3502437e+2, 2.8527728e+2, -8881.937, -293026.22, 5714.7397, 0.03901693, 0.37708178, -8767.048, 135551.48, 0.0, 10.001863, 9.998096 
1.350268e+2, 2.9527593e+2, 116658.72, -181226.5, -1133.0458, 0.018419087, 0.4278681, 116663.02, 162993.66, 0.0000005800232, 10.00205, 9.998101 
1.3502872e+2, 3.052722e+2, 139839.06, -195682.17, -29891.283, -0.012077, 0.26799843, 142481.25, 142481.25, 0.000016654767, 10.002094, 9.997648 
1.350309e+2, 3.1527072e+2, 225757.42, 2298.0593, 17425.477, 0.010306958, 0.35417697, 227108.11, 227108.11, 0.00008670888, 10.00201, 9.999048 
1.4499068e+2, 1.2528537e+2, -1854283.5, -1658019.4, -26904.023, 0.00051994005, 0.29329196, -1654398.1, 57836.945, 0.0006728006, 9.9985075, 10.00111 
1.44993e+2, 1.3528611e+2, -1769769.6, -1676944.1, -724.7336, -0.0009838042, 0.3539538, -1676938.5, -62711.258, 0.00038500954, 9.998893, 10.000121 
1.4499524e+2, 1.4528565e+2, -1614638.1, -1510388.9, -7711.1245, 0.004203416, 0.27817333, -1509821.5, 6408.8267, 0.00015511648, 9.999106, 10.000485 
1.449972e+2, 1.5528613e+2, -1512794.5, -1415910.1, -10902.723, -0.011167575, 0.278705, -1414698.4, 3524.9446, 0.00003278088, 9.999156, 10.000437 
1.4499909e+2, 1.6528624e+2, -1407881.1, -1358691.5, -24956.73, -0.011032448, 0.2662113, -1348247.1, -28026.738, 0.0000015078091, 9.999394, 10.000042 
1.4500096e+2, 1.7528583e+2, -1252376.4, -1234211.3, -20801.924, 0.006042646, 0.21782526, -1220595.5, 1626.9584, 0.0, 9.999795, 10.000031 
1.450027e+2, 1.8528558e+2, -1151577.8, -1171284.9, -16479.648, 0.0062890262, 0.20848693, -1142230.5, -18006.48, 0.0, 9.99997, 9.999706 
1.4500432e+2, 1.9528562e+2, -1058638.3, -1078039.1, -17834.402, -0.009693229, 0.23681559, -1048036.8, -21813.018, 0.0, 9.999947, 9.999684 
1.4500615e+2, 2.0528512e+2, -962942.8, -1040016.94, -12921.0205, -0.009968679, 0.24740845, -960834.3, -32604.77, 0.0, 10.000184, 9.999158 
1.4500818e+2, 2.1528418e+2, -796782.75, -909980.5, -9312.965, 0.0038922445, 0.23430915, -796021.7, 34218.746, 0.0, 10.000656, 9.99915 
1.4501037e+2, 2.2528337e+2, -679659.9, -828795.5, 8597.459, 0.006334289, 0.2526884, -679165.9, 53083.9, 0.0, 10.000899, 9.998918 
1.4501269e+2, 2.3528276e+2, -577053.3, -730869.5, 3865.0786, -0.001136681, 0.29628804, -576956.25, 57300.887, 0.0, 10.00094, 9.998898 
1.4501508e+2, 2.4528158e+2, -494039.84, -713439.4, 4050.5374, -0.0060753976, 0.32235032, -493965.1, 42305.617, 0.0, 10.001153, 9.998243 
1.4501753e+2, 2.552799e+2, -343441.6, -590904.9, 2623.2676, -0.009837232, 0.327201, -343413.78, 94875.84, 0.0, 10.001517, 9.998236 
1.450202e+2, 2.652782e+2, -223849.56, -492319.78, 11731.523, -0.006754021, 0.3407291, -223337.9, 116970.05, 0.0, 10.001708, 9.998148 
1.450231e+2, 2.7527657e+2, -123058.2, -394231.63, 11673.577, 0.0050012814, 0.35890156, -122556.6, 119768.586, 0.0, 10.001733, 9.9981365 
1.4502607e+2, 2.852749e+2, -22233.97, -316101.94, 10284.351, 0.024544165, 0.388236, -21874.494, 122467.41, 0.0, 10.001843, 9.997948 
1.4502908e+2, 2.9527318e+2, 103951.95, -203452.28, 1958.6904, 0.042884752, 0.41826546, 103964.44, 150322.48, 0.00000034163278, 10.002031, 9.997957 
1.4503103e+2, 3.0526942e+2, 146483.4, -187584.4, -32825.56, 0.009825488, 0.26178586, 149678.3, 149678.3, 0.000012640429, 10.002118, 9.997692 
1.4503284e+2, 3.1526834e+2, 234305.2, -100.77847, 22677.496, 0.000095498, 0.38310724, 236478.97, 236478.97, 0.000071064576, 10.002097, 9.99899 
1.5498917e+2, 1.2528333e+2, -1852004.1, -1653255.4, -13169.663, -0.0015582814, 0.3308853, -1652386.5, 59869.598, 0.0006609735, 9.998508, 10.0011425 
1.5499185e+2, 1.3528378e+2, -1764416.6, -1664697.1, 13310.589, -0.0056925337, 0.3548425, -1662951.0, -48700.742, 0.00037997565, 9.998887, 10.000208 
1.549942e+2, 1.4528316e+2, -1620086.6, -1520811.4, -5906.28, -0.009541097, 0.26114893, -1520461.3, -4206.514, 0.00015479715, 9.999103, 10.000416 
1.5499602e+2, 1.552837e+2, -1517584.0, -1426283.4, -8499.984, -0.04549064, 0.27452165, -1425498.8, -7251.424, 0.000033834087, 9.999158, 10.000364 
1.549982e+2, 1.6528395e+2, -1399927.0, -1342655.0, -9932.351, -0.039736208, 0.27510184, -1340981.4, -20738.4, 0.0000017896223, 9.999396, 10.000152 
1.5500075e+2, 1.752838e+2, -1245078.5, -1218848.1, -6163.015, 0.005963072, 0.24021202, -1217472.3, 4770.134, 0.0, 9.999793, 10.000137 
1.5500279e+2, 1.8528347e+2, -1154604.4, -1177173.3, -17427.982, 0.01877065, 0.2196004, -1145126.5, -20881.887, 0.0, 9.999969, 9.999666 
1.5500437e+2, 1.9528311e+2, -1061019.1, -1083026.1, -18160.912, 0.0012378539, 0.2137967, -1050788.4, -24540.127, 0.0, 9.999947, 9.999651 
1.5500636e+2, 2.0528275e+2, -957161.1, -1028000.4, 4789.779, -0.007257697, 0.23439509, -956838.7, -28585.754, 0.0, 10.000184, 9.999241 
1.5500873e+2, 2.152824e+2, -791343.7, -898680.9, 8104.214, -0.0071043703, 0.27164114, -790735.25, 39523.15, 0.0, 10.000656, 9.9992285 
1.550111e+2, 2.2528158e+2, -687976.94, -846098.1, 10049.628, -0.008912544, 0.2921319, -687340.8, 44926.88, 0.0, 10.000899, 9.998799 
1.5501352e+2, 2.3528045e+2, -585409.8, -748228.25, 5809.246, -0.012414091, 0.29495564, -585202.8, 49077.035, 0.0, 10.00094, 9.998778 
1.550163e+2, 2.4527904e+2, -497099.47, -719847.5, 17746.93, 0.00009709987, 0.30734378, -495694.38, 40601.055, 0.0, 10.001153, 9.9981985 
1.550194e+2, 2.5527743e+2, -346377.25, -596898.0, 16130.535, 0.02607095, 0.32222843, -345342.9, 92970.9, 0.0, 10.001517, 9.998195 
1.5502211e+2, 2.6527575e+2, -224653.56, -493805.94, 12686.122, 0.0129649015, 0.339472, -224056.94, 116274.83, 0.0, 10.001707, 9.998138 
1.5502444e+2, 2.7527407e+2, -123902.57, -396038.97, 12775.156, -0.03276047, 0.35665601, -123304.17, 119044.53, 0.0, 10.001733, 9.998124 
1.5502752e+2, 2.852723e+2, -33664.67, -340175.25, 17333.283, -0.015244761, 0.38430217, -32687.582, 111679.28, 0.0, 10.001844, 9.997782 
1.5503119e+2, 2.9527038e+2, 92902.266, -226483.53, 9168.8, 0.050383765, 0.41166133, 93165.266, 139551.36, 0.00000019535571, 10.002031, 9.9978 
1.5503336e+2, 3.0526683e+2, 155266.25, -168829.06, -33360.42, 0.030914938, 0.27287152, 158664.55, 158664.55, 0.000009261703, 10.002116, 9.997822 
1.5503506e+2, 3.1526625e+2, 235080.86, 1712.5454, 24401.883, 0.012961657, 0.4364798, 237605.11, 237605.11, 0.000056915687, 10.002096, 9.999002 
1.6498768e+2, 1.2528096e+2, -1877552.5, -1667917.6, -16272.807, 0.0076252846, 0.35803834, -1666662.0, 45618.53, 0.000647907, 9.998342, 10.0011215 
1.6499037e+2, 1.3528126e+2, -1784732.3, -1670014.1, 6499.953, -0.033649765, 0.3625775, -1669647.0, -55371.22, 0.00037279638, 9.998728, 10.000248 
1.64993e+2, 1.4528055e+2, -1633474.4, -1526032.6, -21373.953, -0.036368202, 0.25791222, -1521936.8, -5655.8457, 0.0001524271, 9.999005, 10.000426 
1.6499521e+2, 1.5528119e+2, -1514537.5, -1423906.1, -18109.783, -0.043282855, 0.27960694, -1420421.5, -2148.9812, 0.000033788867, 9.999175, 10.000373 
1.6499761e+2, 1.6528149e+2, -1408259.1, -1341769.0, -13742.551, -0.03373777, 0.2836549, -1339040.6, -18773.234, 0.0000018950186, 9.999317, 10.0001955 
1.6500023e+2, 1.7528138e+2, -1294495.3, -1237987.3, -15224.69, -0.007267581, 0.24860752, -1234146.4, -11879.994, 0.0, 9.999434, 10.000178 
1.650025e+2, 1.8528102e+2, -1191338.3, -1196731.4, -29537.305, 0.0050955885, 0.22348543, -1164374.6, -40105.742, 0.0, 9.999724, 9.99965 
1.6500446e+2, 1.9528057e+2, -1029755.8, -1069771.6, -28690.332, 0.0039404333, 0.20937239, -1014785.8, 11487.701, 0.0, 10.000169, 9.999635 
1.6500673e+2, 2.0528024e+2, -922147.6, -1009392.4, -5262.3857, -0.0007020694, 0.23473911, -921831.4, 6446.3975, 0.0, 10.000417, 9.999257 
1.6500929e+2, 2.1528006e+2, -814394.44, -908522.06, -7232.1196, -0.00811026, 0.28841963, -813842.0, 16439.346, 0.0, 10.000491, 9.99924 
1.6501193e+2, 2.2527921e+2, -721691.5, -875060.4, -9827.257, -0.008125605, 0.308278, -721064.4, 11226.975, 0.0, 10.000722, 9.998686 
1.6501464e+2, 2.352778e+2, -570695.6, -753385.9, -13614.037, -0.001598463, 0.2952933, -569686.7, 64619.82, 0.0, 10.001094, 9.998669 
1.6501762e+2, 2.4527633e+2, -475212.88, -703872.75, 1826.3303, 0.011262242, 0.30562356, -475198.28, 61124.145, 0.0, 10.00128, 9.998247 
1.6502084e+2, 2.5527486e+2, -374890.72, -604994.2, 7198.5747, 0.028780745, 0.3307577, -374665.75, 63672.996, 0.0, 10.001297, 9.998244 
1.650237e+2, 2.6527315e+2, -256116.47, -509040.6, 7370.715, 0.011959377, 0.34157914, -255901.86, 84454.8, 0.0, 10.0014925, 9.9981365 
1.6502622e+2, 2.7527127e+2, -108237.16, -388744.13, 7894.4365, -0.03304361, 0.33738804, -108015.16, 134360.17, 0.0, 10.0018425, 9.998121 
1.650294e+2, 2.8526947e+2, -14916.203, -338229.8, 12832.11, -0.018899333, 0.36726683, -14407.705, 129986.18, 0.0, 10.002005, 9.997717 
1.650331e+2, 2.9526776e+2, 82924.414, -237367.63, 12145.605, 0.039632715, 0.41870457, 83384.32, 129796.55, 0.00000010392393, 10.00199, 9.997744 
1.6503535e+2, 3.052643e+2, 161839.58, -151522.31, -26506.771, 0.019530924, 0.28699717, 164065.92, 164065.92, 0.0000064948904, 10.0021, 9.997948 
1.6503727e+2, 3.152638e+2, 265999.13, 17003.91, 32300.086, 0.014236735, 0.44324735, 270120.9, 270120.9, 0.00004432351, 10.002307, 9.999004 
1.7498623e+2, 1.2527825e+2, -1882696.0, -1677962.4, -1244.876, 0.02714198, 0.3753443, -1677954.9, 34353.46, 0.0006289189, 9.99834, 10.001054 
1.7498858e+2, 1.3527852e+2, -1784732.4, -1670082.0, 21170.035, -0.0859462, 0.37758937, -1666297.9, -51994.0, 0.00036083558, 9.998729, 10.000247 
1.749916e+2, 1.452778e+2, -1627383.0, -1513565.8, -15148.49, -0.07750802, 0.26864868, -1511584.1, 4724.687, 0.00014701553, 9.999006, 10.000511 
1.7499477e+2, 1.5527858e+2, -1508807.0, -1411833.3, -11795.697, -0.005531685, 0.29421052, -1410419.1, 7879.6147, 0.00003249045, 9.999174, 10.000456 
1.7499733e+2, 1.6527885e+2, -1409845.5, -1344776.0, -9415.619, 0.0062366845, 0.29220992, -1343440.9, -23147.174, 0.0000018022155, 9.999316, 10.000175 
1.749994e+2, 1.7527856e+2, -1296007.8, -1241101.1, -10312.753, -0.034130953, 0.24290974, -1239228.0, -16933.531, 0.0, 9.9994335, 10.000157 
1.7500181e+2, 1.8527822e+2, -1190997.3, -1195950.3, -12892.636, -0.035414517, 0.22010656, -1180345.4, -56048.465, 0.0, 9.999724, 9.999656 
1.7500456e+2, 1.9527796e+2, -1029617.0, -1069342.6, -12307.512, -0.0019752076, 0.22371113, -1026113.0, 186.66861, 0.0, 10.000168, 9.999639 
1.7500725e+2, 2.052776e+2, -925923.7, -1017072.1, -2413.6016, 0.009105924, 0.24853213, -925859.8, 2444.1565, 0.0, 10.000416, 9.999205 
1.7500986e+2, 2.152772e+2, -818232.9, -916348.25, -4020.1145, 0.00035705464, 0.28474095, -818068.44, 12240.98, 0.0, 10.000491, 9.9991865 
1.7501281e+2, 2.2527623e+2, -729352.75, -890934.5, 4154.7495, 0.008119936, 0.30116823, -729246.0, 3074.8362, 0.0, 10.000722, 9.998577 
1.7501606e+2, 2.3527479e+2, -577778.3, -768118.1, 129.91983, 0.030895356, 0.29725048, -577778.25, 56558.895, 0.0, 10.001094, 9.998568 
1.7501906e+2, 2.4527346e+2, -465286.06, -683290.94, 2450.2485, 0.027009282, 0.31707448, -465258.5, 71093.2, 0.0, 10.001281, 9.998388 
1.7502184e+2, 2.5527224e+2, -365069.66, -584759.75, 8264.456, -0.0019570545, 0.35265782, -364759.2, 73605.305, 0.0, 10.001298, 9.9983835 
1.7502496e+2, 2.652704e+2, -255451.58, -507977.44, 20522.576, -0.009964023, 0.3468796, -253794.6, 86588.08, 0.0, 10.001493, 9.998143 
1.7502843e+2, 2.7526814e+2, -107828.02, -387793.94, 20912.979, 0.003600652, 0.30102566, -106274.48, 136130.64, 0.0, 10.001842, 9.998128 
1.7503174e+2, 2.8526643e+2, -13007.967, -333765.75, 12312.902, 0.012787665, 0.33734754, -12536.008, 131887.0, 0.0, 10.002003, 9.997748 
1.7503479e+2, 2.9526523e+2, 85512.85, -231728.98, 12081.488, 0.009653294, 0.43972045, 85972.28, 132408.83, 0.00000004563321, 10.00199, 9.997783 
1.7503701e+2, 3.0526182e+2, 170772.27, -133279.73, -18606.596, -0.025089512, 0.30455723, 171906.67, 171906.67, 0.000004309572, 10.002101, 9.998073 
1.7503947e+2, 3.1526086e+2, 265834.1, 16052.937, 41124.926, 0.0035870483, 0.40395537, 272430.84, 272430.84, 0.000033325945, 10.002309, 9.998998 
1.8498446e+2, 1.2527527e+2, -1843257.5, -1662040.8, -2414.7463, 0.0022164504, 0.37780818, -1662008.6, 50328.95, 0.0006001509, 9.998622, 10.001026 
1.8498716e+2, 1.352757e+2, -1809267.6, -1677516.0, 21901.01, -0.092091225, 0.39237574, -1673970.8, -59638.9, 0.00034227368, 9.998541, 10.000286 
1.8499047e+2, 1.4527501e+2, -1676442.1, -1531158.5, -12126.15, -0.0728061, 0.28001282, -1530153.4, -13816.749, 0.00013807035, 9.998643, 10.000566 
1.8499382e+2, 1.5527575e+2, -1544848.4, -1423448.0, -11203.13, -0.0034664287, 0.29596087, -1422422.8, -4096.2837, 0.000029920388, 9.998902, 10.000507 
1.8499656e+2, 1.6527598e+2, -1431515.4, -1361291.8, -11250.233, 0.004997025, 0.29082304, -1359533.4, -39211.473, 0.0000015280342, 9.999194, 10.000121 
1.8499883e+2, 1.7527568e+2, -1288578.8, -1243411.0, -14771.031, -0.039273463, 0.24506035, -1239009.5, -16686.213, 0.0, 9.99951, 10.000105 
1.8500152e+2, 1.8527535e+2, -1176570.8, -1184836.6, -12049.39, -0.04123247, 0.22497109, -1167965.3, -43639.62, 0.0, 9.999805, 9.999693 
1.8500465e+2, 1.9527513e+2, -1039841.25, -1070288.8, -9352.591, -0.0058064535, 0.23069765, -1037197.9, -10870.403, 0.0, 10.00008, 9.999674 
1.8500763e+2, 2.052747e+2, -932125.0, -1024142.6, -2991.7466, 0.008268196, 0.24879041, -932027.8, -3695.8167, 0.0, 10.000391, 9.999167 
1.850105e+2, 2.1527413e+2, -785472.44, -904889.75, -3647.2046, 0.0032740023, 0.2705559, -785361.1, 44977.543, 0.0, 10.000734, 9.999148 
1.8501365e+2, 2.252731e+2, -708183.3, -890681.1, 5621.1563, 0.010892792, 0.28723553, -708010.4, 24340.604, 0.0, 10.00091, 9.998487 
1.8501706e+2, 2.352717e+2, -606392.7, -791178.4, 3167.0999, 0.03003796, 0.29679647, -606338.44, 28029.373, 0.0, 10.000937, 9.998485 
1.8502025e+2, 2.4527042e+2, -476219.4, -678689.8, 4536.23, 0.023573164, 0.32118315, -476117.84, 60264.047, 0.0, 10.0011635, 9.998476 
1.8502322e+2, 2.5526926e+2, -320487.0, -553983.94, 6132.5615, -0.007130001, 0.35396972, -320326.06, 118067.14, 0.0, 10.001565, 9.9984665 
1.8502659e+2, 2.652674e+2, -231847.66, -504308.66, 9673.195, -0.0069644735, 0.3434911, -231504.66, 108906.91, 0.0, 10.001689, 9.998074 
1.8503034e+2, 2.7526498e+2, -153383.61, -416772.34, 4215.8857, 0.023799008, 0.29016235, -153316.14, 89119.63, 0.0, 10.00156, 9.998064 
1.8503374e+2, 2.8526327e+2, -50917.383, -343675.34, -2246.8364, 0.02856701, 0.32785296, -50900.14, 93553.26, 0.0, 10.001706, 9.997823 
1.8503675e+2, 2.952623e+2, 106364.49, -213315.13, 616.40497, 0.0010696666, 0.4417857, 106365.68, 152830.31, 0.000000013949684, 10.002097, 9.997856 
1.8503903e+2, 3.052588e+2, 195433.53, -122966.64, -37793.074, -0.0419331, 0.2985585, 199857.97, 199857.97, 0.0000026617806, 10.002278, 9.998057 
1.8504176e+2, 3.152575e+2, 248333.03, -8851.985, 12171.577, 0.0012309233, 0.35872376, 248907.78, 248907.78, 0.00002394661, 10.00226, 9.998849 
1.9498238e+2, 1.2527204e+2, -1842743.3, -1661001.8, -4403.05, -0.06871323, 0.36510047, -1660895.1, 51473.227, 0.000559594, 9.998622, 10.001034 
1.949861e+2, 1.3527283e+2, -1803855.1, -1666443.8, 19291.293, -0.052459713, 0.40718088, -1663786.9, -49427.0, 0.00031629903, 9.998541, 10.000362 
1.949896e+2, 1.4527214e+2, -1674793.8, -1527683.6, -2266.1445, -0.022698155, 0.29238442, -1527648.6, -11284.36, 0.00012542125, 9.998643, 10.000589 
1.949924e+2, 1.5527266e+2, -1543496.3, -1420509.5, -1128.3053, -0.037523452, 0.28485012, -1420499.1, -2143.2512, 0.000026112697, 9.998901, 10.000527 
1.9499533e+2, 1.6527286e+2, -1438125.8, -1374674.1, 637.24176, -0.038102467, 0.2794253, -1374667.8, -54315.87, 0.0000011234973, 9.999192, 10.0000305 
1.9499849e+2, 1.7527269e+2, -1294634.5, -1255891.5, -2748.317, -0.023145245, 0.25516692, -1255697.5, -33344.824, 0.0, 9.99951, 10.00002 
1.9500162e+2, 1.8527238e+2, -1171918.4, -1174957.0, -1624.4574, -0.012941425, 0.23825246, -1171213.5, -46858.617, 0.0, 9.9998045, 9.999762 
1.9500472e+2, 1.952721e+2, -1035284.2, -1060654.4, 1182.9089, -0.007903344, 0.23037125, -1035229.2, -8872.153, 0.0, 10.00008, 9.999741 
1.950079e+2, 2.0527157e+2, -933678.75, -1027164.2, 9889.07, -0.0036622349, 0.23564251, -932644.06, -4282.1167, 0.0, 10.00039, 9.999147 
1.950112e+2, 2.1527086e+2, -787145.75, -908166.94, 9086.037, 0.00018116775, 0.24586427, -786467.4, 43901.867, 0.0, 10.000733, 9.9991255 
1.9501445e+2, 2.2526982e+2, -713196.7, -900970.06, 6638.8345, -0.0003024005, 0.26652768, -712962.3, 19419.523, 0.0, 10.00091, 9.998418 
1.9501765e+2, 2.3526853e+2, -611073.1, -800803.6, 4672.951, -0.0043197987, 0.2938152, -610958.06, 23440.477, 0.0, 10.000937, 9.998419 
1.9502118e+2, 2.4526723e+2, -473841.25, -673792.9, 19619.408, 0.0006331483, 0.3180274, -471934.38, 64478.58, 0.0, 10.0011635, 9.998509 
1.9502498e+2, 2.5526595e+2, -318659.56, -550020.5, 20838.773, 0.0127176745, 0.3347534, -316797.6, 121627.27, 0.0, 10.001564, 9.998493 
1.9502854e+2, 2.652641e+2, -242189.27, -525898.94, 4732.8154, 0.020376282, 0.3313866, -242110.33, 98333.04, 0.0, 10.00169, 9.997926 
1.9503193e+2, 2.752618e+2, -162866.19, -436974.56, -145.79134, 0.027038077, 0.30477348, -162866.11, 79601.26, 0.0, 10.001561, 9.997925 
1.9503544e+2, 2.8526005e+2, -42552.44, -326499.9, 12542.682, 0.027733972, 0.33890635, -41999.473, 102485.68, 0.0, 10.001708, 9.99794 
1.9503896e+2, 2.9525888e+2, 113936.055, -197435.67, 15317.387, 0.01361264, 0.42478418, 114687.75, 161184.38, 0.0000000023315327, 10.002097, 9.997966 
1.9504143e+2, 3.0525523e+2, 184504.53, -145635.98, -38659.387, -0.031345267, 0.26888573, 188971.11, 188971.11, 0.0000014940416, 10.002277, 9.997902 
1.9504404e+2, 3.1525353e+2, 227829.77, -51354.688, 12570.964, 0.0050106286, 0.30826333, 228394.66, 228394.66, 0.000016254342, 10.00226, 9.998557 
2.0498048e+2, 1.2526834e+2, -1879009.9, -1679345.5, -18530.535, -0.109368175, 0.32850683, -1677640.3, 34763.137, 0.0005079089, 9.998379, 10.001024 
2.049848e+2, 1.3526951e+2, -1798672.3, -1657083.5, 2416.2202, -0.037365086, 0.40272874, -1657042.3, -42650.387, 0.00028337847, 9.9985485, 10.0004225 
2.0498852e+2, 1.4526892e+2, -1654835.1, -1516415.1, -12057.204, -0.0020191872, 0.29361337, -1515372.8, 1022.7876, 0.00010934245, 9.998773, 10.000605 
2.0499109e+2, 1.5526928e+2, -1521674.0, -1408330.3, -11707.147, -0.06412731, 0.27004826, -1407133.6, 11254.535, 0.000021261263, 9.999044, 10.000543 
2.0499426e+2, 1.6526948e+2, -1433275.3, -1374127.9, -9056.988, -0.06633558, 0.26422074, -1372772.1, -52387.883, 0.00000067965186, 9.999233, 10.000015 
2.0499802e+2, 1.7526944e+2, -1319986.4, -1269836.1, -6951.1187, -0.012531686, 0.25461563, -1268890.5, -46506.16, 0.0, 9.999343, 10.000005 
2.050015e+2, 1.8526916e+2, -1204517.4, -1196373.8, -3145.6418, 0.006562508, 0.24358857, -1195300.1, -70913.625, 0.0, 9.999605, 9.99971 
2.0500477e+2, 1.952688e+2, -1049583.4, -1072781.6, -9540.477, -0.0063099833, 0.23315504, -1046163.9, -19774.273, 0.0, 10.000004, 9.999694 
2.050082e+2, 2.052682e+2, -937544.0, -1018590.9, -2026.1136, -0.009831061, 0.22886127, -937493.4, -9098.525, 0.0, 10.000319, 9.999241 
2.050118e+2, 2.1526742e+2, -806030.4, -907027.44, 5605.7236, -0.0049562324, 0.22347355, -805720.2, 24681.648, 0.0, 10.00056, 9.999217 
2.0501527e+2, 2.2526647e+2, -730144.2, -913817.25, 3300.0942, -0.0044172057, 0.25016773, -730084.94, 2328.6113, 0.0, 10.0008135, 9.998376 
2.0501862e+2, 2.3526539e+2, -593259.94, -796926.8, 3523.4946, -0.0074920105, 0.3027942, -593199.0, 41229.96, 0.0, 10.0010805, 9.998377 
2.050224e+2, 2.4526404e+2, -467128.4, -677980.44, 18713.916, 0.00233499, 0.32610717, -465480.38, 70963.914, 0.0, 10.001242, 9.998443 
2.0502652e+2, 2.5526243e+2, -360607.28, -577501.6, 12254.572, 0.022869566, 0.31811148, -359917.1, 78542.05, 0.0, 10.0013075, 9.998428 
2.0503028e+2, 2.6526055e+2, -256493.92, -534034.1, -3821.38, 0.028741615, 0.31645828, -256441.33, 84036.55, 0.0, 10.001596, 9.997915 
2.0503372e+2, 2.752585e+2, -87861.78, -402192.78, 1292.4949, 0.024398418, 0.315753, -87856.47, 154643.23, 0.0, 10.002083, 9.997913 
2.0503739e+2, 2.8525674e+2, 25962.928, -298074.6, 8928.619, 0.026631344, 0.34977856, 26208.764, 170726.61, 0.0, 10.002198, 9.9979 
2.0504111e+2, 2.952553e+2, 93748.586, -211130.94, -178.89659, 0.025267119, 0.41313514, 93748.69, 140280.52, 0.000000000097020676, 10.001975, 9.997931 
2.0504364e+2, 3.052518e+2, 151654.52, -146953.11, -47776.285, -0.022318704, 0.26381227, 159112.31, 159112.31, 0.00000072960836, 10.001988, 9.998033 
2.0504628e+2, 3.1525028e+2, 219173.28, -56052.773, 25078.117, 0.005554541, 0.30874798, 221439.69, 221439.69, 0.000010315381, 10.002202, 9.998554 
2.1497874e+2, 1.2526415e+2, -1881366.5, -1683956.4, -10531.541, -0.120660275, 0.26808017, -1683396.0, 29046.625, 0.0004482875, 9.998378, 10.000994 
2.1498324e+2, 1.3526574e+2, -1796023.5, -1651342.8, 9144.882, -0.047288645, 0.37887663, -1650767.0, -36338.977, 0.00024549337, 9.998548, 10.000463 
2.1498722e+2, 1.4526531e+2, -1654595.0, -1515664.0, -1887.7568, -0.0115016885, 0.28354022, -1515638.4, 792.00134, 0.00009091261, 9.998772, 10.00061 
2.1498995e+2, 1.552656e+2, -1521061.8, -1406920.8, -1405.3938, -0.08369012, 0.2516061, -1406903.4, 11520.077, 0.000015871614, 9.999043, 10.000553 
2.1499336e+2, 1.6526583e+2, -1429069.6, -1365566.4, -4843.322, -0.080289185, 0.2452909, -1365199.1, -44779.883, 0.00000031009594, 9.999233, 10.000073 
2.1499741e+2, 1.7526591e+2, -1316137.0, -1261994.6, -2453.938, -0.0079546785, 0.2434234, -1261883.6, -39465.508, 0.0, 9.999344, 10.000058 
2.1500123e+2, 1.8526568e+2, -1216363.9, -1220970.6, 11895.396, 0.016679589, 0.24090989, -1206550.9, -82130.28, 0.0, 9.999605, 9.999541 
2.1500482e+2, 1.9526523e+2, -1060649.8, -1095780.6, 5481.6245, -0.0013663144, 0.23907621, -1059814.4, -33389.06, 0.0, 10.000005, 9.999536 
2.1500851e+2, 2.0526458e+2, -923053.6, -988436.75, 7127.0503, -0.010735974, 0.22839098, -922285.75, 6144.8687, 0.0, 10.000319, 9.999448 
2.1501228e+2, 2.1526383e+2, -791867.0, -877503.56, 14831.087, -0.012499345, 0.20340666, -789371.2, 41065.18, 0.0, 10.00056, 9.99942 
2.1501611e+2, 2.2526303e+2, -731122.25, -915606.75, 13286.538, -0.002104515, 0.23802227, -730170.25, 2275.8901, 0.0, 10.000813, 9.9983635 
2.1501999e+2, 2.3526229e+2, -594611.6, -799568.56, 13377.888, 0.019932952, 0.3237512, -593742.1, 40716.92, 0.0, 10.00108, 9.998359 
2.150239e+2, 2.452608e+2, -478806.28, -702389.56, 21121.328, 0.028179951, 0.34546152, -476828.5, 59647.414, 0.0, 10.001243, 9.998276 
2.1502784e+2, 2.552587e+2, -371698.0, -600584.8, 15181.1045, 0.02292664, 0.30413634, -370695.47, 67800.51, 0.0, 10.0013075, 9.99827 
2.1503176e+2, 2.652568e+2, -247955.58, -516097.9, 14530.101, 0.017675852, 0.29906148, -247170.52, 93344.6, 0.0, 10.0015955, 9.998038 
2.1503572e+2, 2.7525508e+2, -80266.89, -386015.0, 19120.455, 0.015598107, 0.32275188, -79075.805, 163457.13, 0.0, 10.002081, 9.998025 
2.1503957e+2, 2.8525332e+2, 12067.63, -327013.4, 297.21298, 0.024932774, 0.36001727, 12067.891, 156619.5, 0.0, 10.002198, 9.997702 
2.1504319e+2, 2.9525152e+2, 81394.12, -237413.64, -8044.969, 0.03504982, 0.40717277, 81597.0, 128167.27, 0.0, 10.001977, 9.99775 
2.150457e+2, 3.0524838e+2, 180754.61, -86230.61, -39571.72, -0.015936932, 0.28366154, 186496.33, 186496.33, 0.0000002906552, 10.001988, 9.99845 
2.1504845e+2, 3.152476e+2, 239010.69, -14561.3545, 33405.61, 0.0017827243, 0.35930496, 243337.72, 243337.72, 0.0000060416633, 10.002201, 9.998839 
2.2497736e+2, 1.2526059e+2, -1875883.1, -1694638.5, 5328.763, -0.102865, 0.2621196, -1694482.0, 17994.855, 0.0003850475, 9.998474, 10.000874 
2.2498159e+2, 1.3526209e+2, -1771314.1, -1644958.8, 15536.522, -0.07702833, 0.3698579, -1643076.5, -28613.03, 0.00020561775, 9.998742, 10.000413 
2.2498576e+2, 1.4526166e+2, -1633784.5, -1502994.1, -208.13171, -0.039150663, 0.2753566, -1502993.9, 13472.142, 0.00007189719, 9.998903, 10.000634 
2.2498904e+2, 1.55262e+2, -1530176.4, -1408916.9, 1082.4111, -0.073462, 0.24617824, -1408907.3, 9551.135, 0.000010694928, 9.998971, 10.000575 
2.249927e+2, 1.6526224e+2, -1440507.5, -1378824.1, -4312.58, -0.06663788, 0.24306615, -1378524.1, -58069.918, 0.000000092361944, 9.999188, 10.000004 
2.249967e+2, 1.752623e+2, -1291542.6, -1257698.1, -11539.741, -0.022674877, 0.24581453, -1254138.0, -31684.285, 0.0, 9.999545, 9.999991 
2.2500072e+2, 1.8526201e+2, -1191653.0, -1213742.4, 4910.27, -0.0033077446, 0.2449558, -1190610.6, -66153.945, 0.0, 9.999795, 9.9995 
2.2500475e+2, 1.9526151e+2, -1071467.5, -1105341.8, 7825.7993, -0.005811324, 0.24160582, -1069747.0, -43285.06, 0.0, 9.9999485, 9.999497 
2.2500882e+2, 2.0526087e+2, -940412.06, -995382.5, 6817.402, -0.0049085747, 0.23158619, -939579.2, -11111.842, 0.0, 10.000193, 9.999461 
2.2501294e+2, 2.1526015e+2, -796556.94, -878218.9, -195.35909, -0.0013741382, 0.20956816, -796556.44, 33916.305, 0.0, 10.000521, 9.999434 
2.2501704e+2, 2.2525938e+2, -730632.5, -909253.06, -7526.4185, 0.010698836, 0.24255008, -730315.94, 2166.2637, 0.0, 10.00079, 9.998419 
2.2502115e+2, 2.3525862e+2, -601930.9, -797253.3, -2574.9932, 0.031060345, 0.32274267, -601896.94, 32597.908, 0.0, 10.001004, 9.998411 
2.2502519e+2, 2.4525718e+2, -479361.03, -700644.7, 11710.815, 0.033808224, 0.34436482, -478743.0, 57768.305, 0.0, 10.001229, 9.998294 
2.2502917e+2, 2.5525513e+2, -347742.28, -586916.8, 19661.605, 0.019417854, 0.30813888, -346136.75, 92394.1, 0.0, 10.001463, 9.998289 
2.2503328e+2, 2.6525328e+2, -249029.86, -513810.7, 25206.611, 0.010745215, 0.30508587, -246651.61, 93897.93, 0.0, 10.001576, 9.998064 
2.2503749e+2, 2.752516e+2, -151945.48, -417802.3, 22248.389, 0.010464827, 0.32739398, -150096.47, 92470.55, 0.0, 10.001576, 9.99805 
2.2504154e+2, 2.8524977e+2, -56667.484, -361325.22, -74.525154, 0.025245707, 0.35814667, -56667.465, 87918.97, 0.0, 10.00173, 9.997691 
2.2504528e+2, 2.9524785e+2, 86755.016, -235792.84, 5576.1416, 0.044264097, 0.39619783, 86851.39, 133457.94, 0.0, 10.002018, 9.997743 
2.2504783e+2, 3.052451e+2, 212390.2, -55999.727, -28335.33, -0.010341727, 0.30049393, 215349.1, 215349.1, 0.000000085825576, 10.00214, 9.998585 
2.2505058e+2, 3.152446e+2, 227131.64, -18647.955, 23405.965, -0.00072259584, 0.39507964, 229340.77, 229340.77, 0.0000031779714, 10.002112, 9.998855 
2.3497629e+2, 1.2525766e+2, -1891774.0, -1726587.5, 17985.643, -0.05698147, 0.31286964, -1724651.9, -12146.176, 0.00032214387, 9.99847, 10.000656 
2.3497982e+2, 1.3525856e+2, -1782046.4, -1666084.5, 25491.44, -0.12717348, 0.37608752, -1660728.3, -46230.145, 0.00016659255, 9.998737, 10.00027 
2.349842e+2, 1.4525796e+2, -1631494.3, -1498050.8, 2353.6777, -0.08559529, 0.26918685, -1498009.3, 18493.12, 0.00005400246, 9.998902, 10.0006695 
2.3498842e+2, 1.5525846e+2, -1527902.4, -1404668.1, 3863.6335, -0.034136377, 0.253992, -1404547.0, 13945.892, 0.000006396683, 9.998972, 10.000604 
2.3499231e+2, 1.6525869e+2, -1453988.5, -1406848.9, 9041.518, -0.026115818, 0.25779754, -1405174.1, -84685.01, 0.000000013163342, 9.999188, 9.999811 
2.3499592e+2, 1.7525858e+2, -1304575.9, -1284609.4, 1871.3378, -0.05696081, 0.2618226, -1284435.5, -61944.5, 0.0, 9.999544, 9.999806 
2.3500001e+2, 1.852582e+2, -1185903.9, -1201737.0, 10728.098, -0.053985417, 0.2556847, -1180487.6, -55992.8, 0.0, 9.999795, 9.999582 
2.3500456e+2, 1.9525766e+2, -1065895.4, -1093927.5, 13816.101, -0.020071866, 0.24076495, -1060230.6, -33731.047, 0.0, 9.999949, 9.999575 
2.3500913e+2, 2.0525704e+2, -953012.9, -1021510.2, 19182.762, 0.0070967963, 0.23839678, -948006.6, -19501.566, 0.0, 10.000193, 9.999282 
2.3501375e+2, 2.152564e+2, -808716.5, -903383.8, 12208.653, 0.027925314, 0.24182554, -807167.4, 23343.611, 0.0, 10.000521, 9.999262 
2.3501804e+2, 2.2525549e+2, -722500.06, -892033.1, 609.1449, 0.03349468, 0.26390094, -722497.9, 10023.802, 0.0, 10.000789, 9.998537 
2.350221e+2, 2.3525442e+2, -593502.06, -779558.9, 5608.064, 0.025725273, 0.29993397, -593333.2, 41203.06, 0.0, 10.001003, 9.998533 
2.3502627e+2, 2.4525315e+2, -465334.75, -671516.56, 20445.232, 0.01879102, 0.32274625, -463326.9, 73223.56, 0.0, 10.001229, 9.998494 
2.3503056e+2, 2.5525174e+2, -334311.97, -559026.5, 28198.488, 0.011895847, 0.329641, -330827.5, 107736.37, 0.0, 10.001463, 9.998481 
2.3503482e+2, 2.6525e+2, -253873.89, -524019.84, 24995.46, 0.007604001, 0.33423507, -251580.63, 89000.61, 0.0, 10.001576, 9.997994 
2.3503904e+2, 2.75248e+2, -156225.11, -426685.5, 22462.852, 0.008423633, 0.33004153, -154372.17, 88229.84, 0.0, 10.001576, 9.99799 
2.3504327e+2, 2.8524604e+2, -44541.39, -336050.84, 10780.972, 0.026886975, 0.34467724, -44143.22, 100479.09, 0.0, 10.00173, 9.997866 
2.3504739e+2, 2.952443e+2, 98254.31, -212280.19, 16214.772, 0.05244846, 0.37980717, 99098.68, 145739.53, 0.0, 10.002019, 9.997904 
2.3505001e+2, 3.0524182e+2, 202684.03, -76351.125, -29792.031, -0.0060069514, 0.31345904, 205829.42, 205829.42, 0.000000016806371, 10.002141, 9.998445 
2.3505266e+2, 3.1524128e+2, 209893.11, -54458.34, 22038.121, -0.0040979297, 0.4161778, 211717.77, 211717.77, 0.0000014346882, 10.002112, 9.998609 
2.449752e+2, 1.2525415e+2, -1829515.1, -1707427.5, 375.6633, -0.036440782, 0.33490646, -1707426.3, 5113.9404, 0.00026278105, 9.998941, 10.000561 
2.4497849e+2, 1.3525479e+2, -1775726.1, -1666532.5, 13761.945, -0.13813396, 0.3751849, -1664824.8, -50289.95, 0.00013053669, 9.998795, 10.000239 
2.4498297e+2, 1.4525414e+2, -1639112.5, -1510197.4, -3876.852, -0.098933175, 0.2683468, -1510080.9, 6458.7925, 0.000038366878, 9.998887, 10.000594 
2.4498752e+2, 1.5525474e+2, -1497676.0, -1398149.6, -10552.475, -0.032478422, 0.26807946, -1397043.0, 21487.26, 0.000003303544, 9.999215, 10.000532 
2.4499168e+2, 1.6525489e+2, -1416834.8, -1390146.6, -172.0241, -0.02221061, 0.2718609, -1390145.5, -69618.695, 0.00000000018007511, 9.99945, 9.999801 
2.4499542e+2, 1.7525466e+2, -1297991.4, -1282539.1, 5934.5845, -0.06275181, 0.2634238, -1280523.0, -57993.613, 0.0, 9.999595, 9.999797 
2.4499974e+2, 1.852542e+2, -1187105.0, -1205370.9, 15664.796, -0.060670596, 0.2515669, -1178105.1, -53571.47, 0.0, 9.9998, 9.999556 
2.4500456e+2, 1.9525363e+2, -1051152.8, -1089892.4, 10461.118, -0.019771842, 0.23650347, -1048508.4, -21969.594, 0.0, 10.000064, 9.999548 
2.450094e+2, 2.0525302e+2, -947557.75, -1029636.94, 16711.889, 0.012163562, 0.24065916, -944285.5, -15740.936, 0.0, 10.0002775, 9.999186 
2.4501431e+2, 2.152524e+2, -826374.56, -922082.9, 15828.069, 0.035688076, 0.25714704, -823824.8, 6725.913, 0.0, 10.000443, 9.99917 
2.4501885e+2, 2.2525142e+2, -732158.25, -887349.9, 6498.773, 0.039852697, 0.27173603, -731886.56, 675.44275, 0.0, 10.000682, 9.998621 
2.450231e+2, 2.3525017e+2, -590512.44, -768717.4, 8927.813, 0.026921075, 0.2809472, -590066.25, 44511.188, 0.0, 10.000983, 9.998617 
2.4502748e+2, 2.4524897e+2, -466580.1, -667918.9, 13786.729, 0.01853639, 0.30640882, -465640.44, 70950.29, 0.0, 10.001203, 9.998531 
2.4503198e+2, 2.5524792e+2, -348467.28, -561601.94, 9266.398, 0.013472156, 0.34326425, -348065.16, 90536.35, 0.0, 10.001347, 9.998519 
2.4503635e+2, 2.6524624e+2, -269852.34, -522683.56, -264.49673, 0.0102479085, 0.3478688, -269852.06, 70766.19, 0.0, 10.001428, 9.998075 
2.450406e+2, 2.7524403e+2, -169612.69, -424261.63, 8426.687, 0.011511709, 0.31586498, -169334.14, 73306.03, 0.0, 10.001446, 9.998069 
2.450449e+2, 2.8524205e+2, -61269.418, -341331.5, 6587.377, 0.024238613, 0.32271683, -61114.56, 83545.96, 0.0, 10.001603, 9.99789 
2.450492e+2, 2.9524046e+2, 80926.65, -218286.17, 702.6929, 0.038454562, 0.36984128, 80928.305, 127606.31, 0.0, 10.001891, 9.997924 
2.4505201e+2, 3.0523816e+2, 196882.88, -85306.03, -55058.59, -0.018037176, 0.32523236, 207245.0, 207245.0, 0.0000000018495133, 10.002129, 9.998389 
2.4505495e+2, 3.1523728e+2, 229316.53, -59905.094, 2323.65, 0.0037214055, 0.4002314, 229335.2, 229335.2, 0.00000052479436, 10.00231, 9.998475 
2.5497407e+2, 1.2525003e+2, -1827222.3, -1701838.1, -2523.64, -0.04249123, 0.3272834, -1701787.4, 10793.503, 0.00020966213, 9.998938, 10.000602 
2.5497755e+2, 1.3525076e+2, -1769330.9, -1653662.0, 8081.839, -0.111257024, 0.36708617, -1653100.0, -38526.383, 0.00009902935, 9.9987955, 10.000328 
2.5498205e+2, 1.4525019e+2, -1651831.9, -1536792.9, 7988.214, -0.08054691, 0.27317432, -1536240.9, -19662.742, 0.000025643241, 9.998888, 10.000411 
2.5498638e+2, 1.5525074e+2, -1510005.3, -1423108.5, 1509.735, -0.06909757, 0.28862426, -1423082.3, -4511.777, 0.0000014046367, 9.999212, 10.000362 
2.549908e+2, 1.6525085e+2, -1405340.9, -1365875.4, 5109.7964, -0.0556463, 0.28540808, -1365224.5, -44657.098, 0.0, 9.999448, 9.999969 
2.5499523e+2, 1.7525052e+2, -1286490.9, -1259026.8, 11411.523, -0.040947184, 0.250945, -1254904.1, -32335.076, 0.0, 9.999597, 9.999957 
2.549999e+2, 1.8525e+2, -1196303.4, -1224651.6, 25527.684, -0.024306888, 0.23291333, -1181278.8, -56705.32, 0.0, 9.999801, 9.999422 
2.5500476e+2, 1.9524942e+2, -1060271.9, -1108790.1, 20431.154, -0.0052872426, 0.22900024, -1052814.5, -26234.924, 0.0, 10.000064, 9.999417 
2.5500968e+2, 2.0524879e+2, -948715.5, -1031866.75, 23012.256, 0.009967372, 0.23839377, -942771.7, -14185.736, 0.0, 10.000277, 9.99917 
2.550146e+2, 2.1524817e+2, -827288.25, -923873.5, 22337.367, 0.021547988, 0.25545567, -822372.44, 8219.75, 0.0, 10.000443, 9.999159 
2.5501943e+2, 2.2524716e+2, -728548.5, -879812.2, 17867.371, 0.029281171, 0.26568818, -726466.6, 6136.684, 0.0, 10.000682, 9.998673 
2.5502416e+2, 2.3524587e+2, -587208.44, -761787.7, 20195.748, 0.034141112, 0.2658739, -584902.56, 49715.863, 0.0, 10.000983, 9.998665 
2.550288e+2, 2.452447e+2, -475077.4, -685565.25, 19091.656, 0.032407477, 0.29574338, -473359.75, 63272.305, 0.0, 10.001203, 9.99841 
2.5503343e+2, 2.5524366e+2, -356374.8, -577822.56, 14667.506, 0.02361126, 0.3492407, -355407.53, 83236.266, 0.0, 10.001346, 9.998408 
2.5503784e+2, 2.6524198e+2, -253965.55, -489798.63, 413.02844, 0.01811911, 0.34599692, -253964.83, 86695.7, 0.0, 10.001429, 9.998301 
2.550421e+2, 2.7523968e+2, -154078.56, -392641.75, 9316.144, 0.018983787, 0.28484002, -153715.31, 88966.195, 0.0, 10.001449, 9.998285 
2.5504646e+2, 2.8523776e+2, -69536.53, -358892.56, 17111.969, 0.016781181, 0.2923294, -68528.08, 76173.01, 0.0, 10.001605, 9.997769 
2.5505072e+2, 2.9523632e+2, 72267.88, -235875.05, 11465.937, 0.0022100594, 0.36643276, 72693.94, 119411.945, 0.0, 10.001889, 9.997804 
2.5505385e+2, 3.052341e+2, 198700.95, -81655.54, -47977.492, -0.046408903, 0.335735, 206684.05, 206684.05, 0.000000000039700524, 10.002129, 9.998415 
2.5505742e+2, 3.1523263e+2, 228237.88, -63278.035, 8801.512, 0.021517029, 0.34798953, 228503.38, 228503.38, 0.00000015406697, 10.002315, 9.99845 
2.649729e+2, 1.2524563e+2, -1813759.3, -1694015.0, -14321.799, -0.059484325, 0.31071287, -1692325.9, 20297.816, 0.00016490842, 9.999024, 10.000613 
2.6497665e+2, 1.3524641e+2, -1721006.9, -1623708.6, -10131.644, -0.09472737, 0.34958234, -1622664.8, -8049.5747, 0.000073287774, 9.999099, 10.000387 
2.649813e+2, 1.4524592e+2, -1616099.1, -1532909.8, 836.5066, -0.05975304, 0.26808771, -1532901.4, -16282.306, 0.000016155976, 9.999191, 10.000292 
2.649855e+2, 1.5524653e+2, -1503880.1, -1432515.3, -947.9775, -0.08092783, 0.2983846, -1432502.6, -13890.428, 0.00000046134082, 9.999309, 10.000252 
2.6499012e+2, 1.6524656e+2, -1392946.4, -1352148.8, 697.42834, -0.07058012, 0.29005387, -1352136.9, -31526.934, 0.0, 9.9995, 10.000037 
2.64995e+2, 1.7524606e+2, -1257248.3, -1237527.4, -910.30347, -0.03309198, 0.23352258, -1237485.5, -14873.474, 0.0, 9.999765, 10.000024 
2.6499993e+2, 1.8524556e+2, -1174818.6, -1221863.6, 12595.616, -0.010518749, 0.21668197, -1171658.6, -47042.477, 0.0, 9.999981, 9.999354 
2.650049e+2, 1.9524513e+2, -1052483.6, -1112568.5, 12174.15, -0.0008653182, 0.23457633, -1050110.6, -23489.324, 0.0, 10.000151, 9.999351 
2.6500997e+2, 2.0524448e+2, -941376.44, -1029030.8, 16091.675, 0.00930871, 0.24447684, -938515.7, -9887.443, 0.0, 10.00033, 9.999165 
2.6501507e+2, 2.1524365e+2, -816253.3, -919111.25, 16123.876, 0.019435449, 0.24269468, -813785.0, 16851.25, 0.0, 10.000521, 9.999154 
2.6502013e+2, 2.2524264e+2, -720087.9, -872256.06, 14359.199, 0.029018447, 0.25147566, -718744.7, 13902.433, 0.0, 10.000725, 9.998705 
2.6502514e+2, 2.3524153e+2, -591326.0, -760348.5, 15014.5625, 0.03853286, 0.26623806, -590002.56, 44657.684, 0.0, 10.000939, 9.998696 
2.6503e+2, 2.4524039e+2, -495683.63, -698188.9, 11277.875, 0.036911197, 0.2991893, -495057.47, 41616.25, 0.0, 10.001073, 9.998386 
2.6503468e+2, 2.5523925e+2, -389508.94, -596120.06, 14157.427, 0.024127878, 0.3451536, -388543.38, 50143.707, 0.0, 10.001128, 9.998387 
2.650392e+2, 2.6523754e+2, -266777.78, -487934.22, -436.0502, 0.018681852, 0.33892474, -266776.9, 73927.055, 0.0, 10.001306, 9.998372 
2.6504368e+2, 2.7523538e+2, -127572.78, -371692.75, -3127.5178, 0.023112476, 0.2789964, -127532.72, 115191.11, 0.0, 10.001596, 9.998358 
2.6504815e+2, 2.8523353e+2, -45024.926, -340779.5, 5877.844, 0.020815892, 0.28872713, -44908.152, 99834.23, 0.0, 10.001747, 9.997825 
2.6505256e+2, 2.9523218e+2, 57271.48, -237564.63, 13395.397, 0.0028588348, 0.36705077, 57878.83, 104637.09, 0.0, 10.001763, 9.997852 
2.650558e+2, 3.052301e+2, 171097.36, -104745.39, -38391.04, -0.055379618, 0.35059786, 176340.84, 176340.84, 0.0, 10.001983, 9.998325 
2.650596e+2, 3.1522807e+2, 233181.3, -73139.07, 8657.61, 0.0020915011, 0.31740656, 233425.78, 233425.78, 0.000000038019415, 10.002403, 9.998339 
2.749716e+2, 1.2524094e+2, -1815140.8, -1696542.5, -7862.8384, -0.09004949, 0.28510347, -1696023.5, 16645.379, 0.00012966055, 9.999024, 10.000596 
2.7497584e+2, 1.3524175e+2, -1719271.8, -1619178.9, -8060.957, -0.08901831, 0.32331693, -1618533.8, -3874.2444, 0.00005392466, 9.999095, 10.00042 
2.7498072e+2, 1.4524136e+2, -1620573.3, -1541432.8, 4817.0596, -0.036936402, 0.25372508, -1541140.6, -24478.121, 0.0000098627, 9.999187, 10.000235 
2.7498493e+2, 1.5524206e+2, -1507485.9, -1439974.1, 3296.4402, -0.06954101, 0.297689, -1439813.5, -21157.94, 0.00000011248763, 9.999308, 10.0002 
2.7498963e+2, 1.6524202e+2, -1395197.0, -1356843.4, 10431.606, -0.06871244, 0.28599674, -1354189.8, -33535.41, 0.0, 9.9995, 10.000006 
2.749947e+2, 1.752413e+2, -1259479.5, -1241889.1, 8947.257, -0.039630145, 0.21144935, -1238138.1, -15479.694, 0.0, 9.999764, 9.999994 
2.7499983e+2, 1.8524088e+2, -1175419.0, -1222766.5, 18880.678, -0.01973028, 0.20299093, -1168811.9, -44150.05, 0.0, 9.99998, 9.99935 
2.75005e+2, 1.9524075e+2, -1052939.3, -1113535.5, 18584.049, -0.007018448, 0.25328746, -1047693.8, -21029.63, 0.0, 10.000151, 9.999344 
2.750103e+2, 2.0524006e+2, -941069.06, -1028396.9, 23295.75, 0.009569984, 0.25892735, -935243.25, -6571.833, 0.0, 10.00033, 9.999169 
2.7501568e+2, 2.1523884e+2, -815863.44, -918310.9, 23524.055, 0.028939279, 0.21913321, -810720.0, 19962.85, 0.0, 10.000521, 9.99916 
2.7502093e+2, 2.2523788e+2, -719354.9, -870702.3, 22491.826, 0.03851601, 0.22929262, -716083.1, 16610.389, 0.0, 10.000724, 9.998715 
2.7502608e+2, 2.3523714e+2, -590382.06, -758350.44, 23069.775, 0.03980962, 0.2817198, -587271.2, 47431.746, 0.0, 10.000939, 9.998711 
2.7503103e+2, 2.4523605e+2, -490584.66, -687669.3, 13301.501, 0.03176756, 0.31624335, -489690.97, 47024.844, 0.0, 10.001073, 9.998459 
2.750357e+2, 2.552347e+2, -384593.72, -586104.5, 16432.865, 0.014549037, 0.33115628, -383262.44, 55468.926, 0.0, 10.001129, 9.998456 
2.7504048e+2, 2.65233e+2, -272226.9, -499413.5, 10323.54, 0.011403124, 0.32703945, -271758.75, 68989.81, 0.0, 10.001307, 9.998293 
2.7504525e+2, 2.7523106e+2, -132686.9, -382109.75, 7736.0845, 0.023660922, 0.29784656, -132447.2, 110319.96, 0.0, 10.0015955, 9.998286 
2.7505004e+2, 2.8522933e+2, -29288.355, -307808.03, 6541.6226, 0.03568084, 0.31108186, -29134.797, 115649.69, 0.0, 10.001746, 9.998052 
2.750547e+2, 2.9522803e+2, 72346.336, -206377.58, 14340.233, 0.03912097, 0.37159377, 73082.195, 119881.04, 0.0, 10.001763, 9.998067 
2.7505788e+2, 3.052261e+2, 156732.55, -134864.88, -22734.898, -0.045880865, 0.3698944, 158494.45, 158494.45, 0.0, 10.001983, 9.998118 
2.7506143e+2, 3.152236e+2, 218715.56, -103043.266, 23669.135, -0.055376645, 0.3089883, 220447.39, 220447.39, 0.00000000643165, 10.002401, 9.998135 
2.8497064e+2, 1.252364e+2, -1789577.0, -1688034.8, -2366.9858, -0.10030921, 0.27853283, -1687979.5, 24733.166, 0.00010364884, 9.999215, 10.000563 
2.8497502e+2, 1.3523717e+2, -1696692.4, -1606984.4, -9549.143, -0.08418383, 0.31024063, -1605979.1, 8724.318, 0.000040612387, 9.999245, 10.000432 
2.8498006e+2, 1.4523676e+2, -1604264.0, -1537701.8, 6486.555, -0.025124418, 0.23997276, -1537075.5, -20369.074, 0.0000062724685, 9.999318, 10.000197 
2.8498435e+2, 1.5523735e+2, -1488733.0, -1434887.0, 5776.927, -0.067086555, 0.2776971, -1434274.3, -15573.712, 0.000000028346124, 9.9994545, 10.000165 
2.849892e+2, 1.6523731e+2, -1374697.5, -1358408.0, 16901.602, -0.0696555, 0.2723209, -1347791.1, -27091.354, 0.0, 9.999691, 9.999903 
2.849946e+2, 1.7523667e+2, -1229497.3, -1238380.0, 9672.136, -0.0390011, 0.21616277, -1223295.5, -591.55554, 0.0, 10.000018, 9.999896 
2.849999e+2, 1.8523625e+2, -1133760.1, -1197358.9, 13822.968, -0.020685932, 0.21044086, -1130885.6, -6178.18, 0.0, 10.000244, 9.999396 
2.850052e+2, 1.9523607e+2, -1016381.0, -1090936.3, 17107.863, -0.01231398, 0.24957184, -1012642.75, 14067.036, 0.0, 10.0003805, 9.999388 
2.850107e+2, 2.0523533e+2, -918657.4, -1024515.6, 21443.857, 0.005013233, 0.25333333, -914478.44, 14238.852, 0.0, 10.000513, 9.999107 
2.8501627e+2, 2.1523413e+2, -802131.25, -918136.6, 16709.973, 0.029491153, 0.21975012, -799772.25, 30956.953, 0.0, 10.000643, 9.999103 
2.850217e+2, 2.2523318e+2, -707300.2, -855743.1, 16427.334, 0.038659934, 0.23103756, -705504.0, 27235.506, 0.0, 10.000768, 9.998797 
2.8502697e+2, 2.352325e+2, -592551.2, -750491.3, 22327.184, 0.034687657, 0.28033432, -589455.56, 45292.383, 0.0, 10.000886, 9.998791 
2.85032e+2, 2.452314e+2, -494060.38, -687548.0, 11445.669, 0.025897555, 0.30801222, -493385.66, 43375.22, 0.0, 10.001041, 9.998475 
2.8503686e+2, 2.5522995e+2, -368251.38, -576280.6, 10410.709, 0.011835951, 0.312978, -367731.7, 71045.66, 0.0, 10.001233, 9.998473 
2.8504175e+2, 2.6522842e+2, -257804.47, -486771.0, 9972.776, 0.007047736, 0.321306, -257370.92, 83422.47, 0.0, 10.001382, 9.998343 
2.850467e+2, 2.7522683e+2, -144692.38, -381864.38, 16796.363, 0.0134080695, 0.32448044, -143508.78, 99300.266, 0.0, 10.001488, 9.99834 
2.8505167e+2, 2.8522512e+2, -52824.535, -310672.88, 8088.5957, 0.03206909, 0.3328711, -52571.047, 92255.336, 0.0, 10.001549, 9.998126 
2.850565e+2, 2.952235e+2, 49917.234, -209417.61, 4464.4263, 0.05355201, 0.3557897, 49994.066, 96837.484, 0.0, 10.001577, 9.998135 
2.850598e+2, 3.052219e+2, 133183.94, -139729.56, -14406.995, -0.04118723, 0.38014886, 133942.38, 133942.38, 0.0, 10.001794, 9.998176 
2.8506345e+2, 3.1521964e+2, 191377.48, -105302.766, 50672.51, -0.08107863, 0.33410683, 199793.52, 199793.52, 0.00000000043435586, 10.002167, 9.998232 
2.9496995e+2, 1.2523206e+2, -1792438.8, -1694565.0, 4075.2034, -0.09105421, 0.2921165, -1694395.6, 18359.295, 0.000085497144, 9.999218, 10.000517 
2.949743e+2, 1.3523269e+2, -1697143.5, -1608003.3, -8889.777, -0.08263815, 0.31039914, -1607125.3, 7621.593, 0.000032281903, 9.999245, 10.000425 
2.9497936e+2, 1.4523211e+2, -1606346.3, -1541676.8, 11370.993, -0.026983175, 0.22675529, -1539735.6, -22984.783, 0.0000046245973, 9.999317, 10.000171 
2.9498374e+2, 1.5523241e+2, -1491023.0, -1439190.8, 11016.174, -0.074319586, 0.23929095, -1436946.5, -18199.676, 0.00000001715619, 9.999453, 10.000136 
2.9498887e+2, 1.6523245e+2, -1387358.0, -1384063.5, 28998.564, -0.07373865, 0.24990028, -1356665.5, -35919.277, 0.0, 9.999688, 9.999728 
2.9499465e+2, 1.7523217e+2, -1241719.5, -1263119.6, 21756.658, -0.032309216, 0.24754651, -1228174.0, -5425.321, 0.0, 10.000016, 9.999727 
2.9500023e+2, 1.8523169e+2, -1127462.9, -1183743.4, 18968.844, -0.0145215895, 0.2389205, -1121666.6, 3086.405, 0.0, 10.000241, 9.999491 
2.9500556e+2, 1.9523105e+2, -1010008.2, -1077574.4, 22398.207, -0.017117616, 0.22378178, -1003257.6, 23500.574, 0.0, 10.00038, 9.99948 
2.9501107e+2, 2.052303e+2, -927700.75, -1043182.5, 26349.682, -0.0046115457, 0.22780259, -921972.56, 6793.174, 0.0, 10.000513, 9.99898 
2.9501683e+2, 2.1522948e+2, -810620.0, -935720.9, 21766.438, 0.020792414, 0.2442741, -806941.0, 23834.246, 0.0, 10.000643, 9.998981 
2.9502237e+2, 2.2522856e+2, -696594.0, -833409.5, 20869.578, 0.029128429, 0.25654712, -693481.4, 39303.91, 0.0, 10.000767, 9.998952 
2.9502773e+2, 2.352276e+2, -582124.8, -728829.8, 26861.383, 0.0227512, 0.26239687, -577361.25, 57434.16, 0.0, 10.000886, 9.9989395 
2.9503298e+2, 2.452264e+2, -496836.9, -693424.8, 18580.271, 0.018701756, 0.27492982, -495096.22, 41712.668, 0.0, 10.001042, 9.998434 
2.950381e+2, 2.55225e+2, -370648.88, -581272.8, 17684.459, 0.015531981, 0.2904664, -369174.38, 69650.625, 0.0, 10.001233, 9.998439 
2.950431e+2, 2.6522377e+2, -245573.14, -461161.9, 13847.38, 0.005325837, 0.32138747, -244687.36, 96151.164, 0.0, 10.001382, 9.99852 
2.9504797e+2, 2.7522272e+2, -132736.67, -356686.28, 20575.342, -0.007851524, 0.3588279, -130862.0, 111987.555, 0.0, 10.001487, 9.998513 
2.9505298e+2, 2.8522092e+2, -58354.777, -322105.72, 8923.662, 0.009755582, 0.35418922, -58053.203, 86814.95, 0.0, 10.001549, 9.998048 
2.9505798e+2, 2.9521865e+2, 44668.03, -220716.77, 5939.197, 0.045933675, 0.3200547, 44800.883, 91692.89, 0.0, 10.001579, 9.998056 
2.9506162e+2, 3.0521753e+2, 155431.55, -93838.27, -290.40506, -0.041856747, 0.38183782, 155431.89, 155431.89, 0.0, 10.001796, 9.99849 
2.9506567e+2, 3.1521612e+2, 219164.45, -47967.855, 63920.555, -0.07667077, 0.39144725, 233671.77, 233671.77, 0.0, 10.002169, 9.998626 
3.0496955e+2, 1.2522748e+2, -1778513.0, -1702259.4, 2034.109, -0.061374575, 0.2974983, -1702205.3, 10593.998, 0.000073591786, 9.999377, 10.000387 
3.0497354e+2, 1.3522792e+2, -1672515.6, -1606329.9, -24557.404, -0.093125604, 0.30774543, -1598213.5, 16579.596, 0.000027638554, 9.999458, 10.000334 
3.0497867e+2, 1.452273e+2, -1564463.9, -1523390.8, -1895.0969, -0.043068442, 0.22148764, -1523303.5, -6505.7944, 0.000004191702, 9.999614, 10.000154 
3.049834e+2, 1.5522751e+2, -1434710.6, -1414052.8, -1448.6617, -0.071209244, 0.22667824, -1413951.6, 4842.5234, 0.000000032166714, 9.999848, 10.000117 
3.0498877e+2, 1.6522753e+2, -1349587.5, -1374300.0, 20856.643, -0.065236226, 0.24327523, -1337701.8, -16908.057, 0.0, 9.999986, 9.999651 
3.049947e+2, 1.7522739e+2, -1243456.1, -1272349.6, 20409.64, -0.032240603, 0.2596944, -1232897.6, -10101.629, 0.0, 10.000041, 9.999652 
3.050004e+2, 1.8522686e+2, -1133407.8, -1183850.1, 18224.693, -0.016858835, 0.25000158, -1127512.3, -2711.5376, 0.0, 10.000189, 9.999516 
3.0500594e+2, 1.9522604e+2, -1001691.3, -1070587.3, 16129.999, -0.016258173, 0.21518105, -998101.94, 28704.857, 0.0, 10.000425, 9.999506 
3.0501163e+2, 2.0522526e+2, -920215.94, -1042447.4, 18435.324, -0.0041458067, 0.21596257, -917495.94, 11318.604, 0.0, 10.000577, 9.998954 
3.050174e+2, 2.1522453e+2, -810784.94, -938780.4, 21400.84, 0.017572628, 0.2449569, -807301.56, 23521.975, 0.0, 10.000654, 9.998956 
3.0502307e+2, 2.2522365e+2, -696039.6, -834196.6, 19286.97, 0.02212628, 0.26257113, -693397.6, 39435.832, 0.0, 10.000775, 9.998942 
3.0502853e+2, 2.3522265e+2, -575100.75, -726239.3, 13099.837, 0.011630105, 0.26680738, -573973.75, 60870.242, 0.0, 10.000937, 9.998932 
3.0503395e+2, 2.4522142e+2, -485773.06, -679058.06, 4429.713, 0.010443746, 0.2726283, -485671.6, 51185.9, 0.0, 10.00108, 9.998515 
3.0503935e+2, 2.5522003e+2, -369177.0, -571411.9, 12439.299, 0.016418021, 0.27686617, -368414.75, 70458.49, 0.0, 10.0012045, 9.998521 
3.0504444e+2, 2.652189e+2, -256987.78, -460082.78, 5089.5303, 0.0038315987, 0.3120919, -256860.31, 84025.37, 0.0, 10.001276, 9.998578 
3.050492e+2, 2.7521807e+2, -155636.69, -361188.5, 2901.1082, -0.02231327, 0.3683517, -155595.75, 87299.234, 0.0, 10.001302, 9.99857 
3.050543e+2, 2.852163e+2, -66221.37, -327981.6, -6126.4175, -0.009498499, 0.3636444, -66078.055, 78835.85, 0.0, 10.001505, 9.998029 
3.0505955e+2, 2.9521388e+2, 84406.7, -203971.4, -4737.108, 0.029493334, 0.3123709, 84484.5, 131424.47, 0.0, 10.0018635, 9.9980345 
3.0506343e+2, 3.05213e+2, 185293.92, -67975.68, -19893.26, -0.04828921, 0.39933115, 186846.94, 186846.94, 0.0, 10.001952, 9.998593 
3.0506778e+2, 3.1521174e+2, 179425.53, -43108.64, 27240.143, -0.06328718, 0.41041273, 182711.44, 182711.44, 0.0, 10.001793, 9.99884 
3.149694e+2, 1.2522268e+2, -1794252.4, -1734636.0, 12253.932, -0.013828218, 0.2940653, -1732215.5, -19370.143, 0.00006650563, 9.999376, 10.000165 
3.1497276e+2, 1.3522293e+2, -1685250.5, -1632995.0, -21438.613, -0.11690915, 0.3034451, -1625325.1, -10483.207, 0.000025576577, 9.99946, 10.00015 
3.1497797e+2, 1.4522229e+2, -1564900.8, -1524335.4, 6714.7217, -0.0743079, 0.22554384, -1523252.8, -6405.909, 0.000004447986, 9.999614, 10.000147 
3.1498337e+2, 1.5522258e+2, -1435418.6, -1414945.0, 7305.0015, -0.059523772, 0.2393307, -1412605.8, 6236.562, 0.00000006594377, 9.999846, 10.000113 
3.1498894e+2, 1.6522259e+2, -1349255.5, -1372978.9, 22969.22, -0.04591547, 0.2517131, -1335266.0, -14423.875, 0.0, 9.999983, 9.999661 
3.1499466e+2, 1.7522229e+2, -1242943.9, -1270943.6, 22808.813, -0.039260317, 0.25329277, -1230181.1, -7335.3223, 0.0, 10.000039, 9.999662 
3.1500047e+2, 1.8522175e+2, -1136911.8, -1190949.0, 27083.328, -0.028098177, 0.24437813, -1125674.4, -823.89374, 0.0, 10.000188, 9.999468 
3.1500643e+2, 1.9522102e+2, -1004970.25, -1077061.1, 24996.73, -0.010297362, 0.22346787, -997151.0, 29704.725, 0.0, 10.000423, 9.999463 
3.150123e+2, 2.052202e+2, -915182.94, -1031650.3, 21416.133, 0.005703741, 0.2175445, -911369.75, 17493.97, 0.0, 10.000575, 9.999029 
3.150181e+2, 2.152193e+2, -806041.44, -928773.06, 24533.236, 0.019245762, 0.22200638, -801319.1, 29554.86, 0.0, 10.000653, 9.999024 
3.1502378e+2, 2.2521846e+2, -708031.2, -859242.1, 25551.223, 0.01705955, 0.24923758, -703830.4, 29053.736, 0.0, 10.000775, 9.998771 
3.1502935e+2, 2.3521769e+2, -586435.5, -749875.8, 19313.81, 0.0011050262, 0.29327518, -584184.2, 50709.58, 0.0, 10.000938, 9.99877 
3.1503496e+2, 2.4521649e+2, -471746.2, -649934.6, 8999.785, 0.000849759, 0.30072752, -471292.78, 65613.94, 0.0, 10.00108, 9.998715 
3.1504053e+2, 2.5521496e+2, -355554.63, -542902.1, 16958.43, 0.014030361, 0.27208215, -354031.94, 84890.16, 0.0, 10.001204, 9.998717 
3.1504568e+2, 2.652138e+2, -261207.81, -468767.56, 5962.9126, 0.0018437076, 0.29355142, -261036.66, 79898.25, 0.0, 10.001275, 9.998518 
3.1505045e+2, 2.752129e+2, -159577.77, -369495.38, 4251.376, -0.030682068, 0.3536064, -159491.7, 83453.58, 0.0, 10.001303, 9.998513 
3.1505567e+2, 2.8521127e+2, -63653.14, -322762.22, 7276.742, -0.026096266, 0.36172023, -63448.945, 81514.66, 0.0, 10.001505, 9.998064 
3.1506115e+2, 2.9520908e+2, 86671.35, -199395.81, 8347.0, 0.004139858, 0.33154884, 86914.695, 133902.19, 0.0, 10.0018635, 9.998066 
3.1506523e+2, 3.0520833e+2, 177905.11, -83627.43, -26090.262, -0.060987897, 0.43137822, 180482.45, 180482.45, 0.0, 10.001953, 9.998485 
3.1506976e+2, 3.1520644e+2, 182447.73, -37625.793, 20296.055, -0.043665085, 0.3922976, 184303.86, 184303.86, 0.0, 10.001797, 9.998876 
3.2496884e+2, 1.2521748e+2, -1782102.9, -1734890.3, -132.9553, -0.010920167, 0.28331932, -1734889.9, -21994.057, 0.00006287029, 9.999488, 10.000109 
3.2497233e+2, 1.352177e+2, -1658906.3, -1623102.5, -29813.639, -0.11740925, 0.2933931, -1606228.9, 8663.545, 0.000025189593, 9.999654, 10.000124 
3.249777e+2, 1.4521708e+2, -1549647.0, -1527227.4, 1657.4679, -0.07243256, 0.22272734, -1527105.5, -10208.04, 0.0000050024137, 9.9997635, 10.000054 
3.2498324e+2, 1.5521732e+2, -1442696.1, -1428284.3, -4637.0527, -0.05389302, 0.24119937, -1426921.3, -8027.1465, 0.000000115129794, 9.999839, 10.000024 
3.24989e+2, 1.6521727e+2, -1341425.6, -1367753.9, 9027.436, -0.04404524, 0.25303707, -1338627.6, -17733.396, 0.0, 10.0000305, 9.999675 
3.2499474e+2, 1.7521694e+2, -1199418.0, -1248317.3, 9011.191, -0.04915675, 0.2498332, -1197810.4, 25087.676, 0.0, 10.000332, 9.999676 
3.2500073e+2, 1.8521641e+2, -1095125.1, -1167828.9, 13606.571, -0.03662159, 0.24059118, -1092662.0, 32240.404, 0.0, 10.0004635, 9.999493 
3.2500693e+2, 1.9521578e+2, -1000680.3, -1072283.5, 16717.117, -0.0052297, 0.22358596, -996969.7, 29937.371, 0.0, 10.000442, 9.999487 
3.2501295e+2, 2.0521493e+2, -921668.7, -1033553.06, 14115.874, 0.013073924, 0.21590029, -919915.25, 8999.708, 0.0, 10.000525, 9.99904 
3.2501876e+2, 2.1521397e+2, -797537.06, -923434.94, 12189.621, 0.018266544, 0.21333379, -796367.7, 34557.848, 0.0, 10.000707, 9.999035 
3.2502457e+2, 2.2521316e+2, -703890.7, -862440.56, 15300.019, 0.014543513, 0.24323417, -702427.75, 30508.033, 0.0, 10.000827, 9.998724 
3.250303e+2, 2.3521245e+2, -595982.5, -759034.8, 18495.54, 0.0031124288, 0.29878864, -593910.8, 41034.582, 0.0, 10.000892, 9.99873 
3.25036e+2, 2.452113e+2, -474122.16, -637363.7, 10826.116, -0.0010833988, 0.30667952, -473407.3, 63550.44, 0.0, 10.001004, 9.998837 
3.2504156e+2, 2.552098e+2, -353151.47, -528503.94, 12802.37, 0.00048380578, 0.26880196, -352221.7, 86750.32, 0.0, 10.0011635, 9.998836 
3.2504687e+2, 2.6520854e+2, -260669.39, -477615.94, -3748.9841, -0.007903635, 0.28414127, -260604.63, 80380.55, 0.0, 10.001318, 9.998437 
3.250519e+2, 2.752076e+2, -140529.56, -368668.4, -7069.7666, -0.022771081, 0.34091517, -140310.69, 102686.58, 0.0, 10.00147, 9.998439 
3.2505724e+2, 2.85206e+2, -48585.496, -303580.53, 2190.5706, -0.019596746, 0.3524709, -48566.68, 96448.54, 0.0, 10.001557, 9.998171 
3.2506275e+2, 2.9520398e+2, 53841.656, -204558.83, 8181.865, -0.008158786, 0.33154058, 54100.465, 101137.36, 0.0, 10.001593, 9.99816 
3.2506704e+2, 3.0520326e+2, 150537.22, -122072.42, -29488.771, -0.07225795, 0.43917376, 153690.6, 153690.6, 0.0, 10.001875, 9.998259 
3.2507196e+2, 3.1520078e+2, 262794.44, -4120.6587, 7194.7065, -0.033091124, 0.36288455, 262988.22, 262988.22, 0.0, 10.002372, 9.998828 
3.3496788e+2, 1.2521188e+2, -1774314.9, -1719232.6, 15306.574, -0.05575779, 0.26700798, -1715264.9, -2314.7407, 0.000061273975, 9.99949, 10.000216 
3.3497217e+2, 1.3521224e+2, -1649828.3, -1603587.0, -23362.049, -0.096003495, 0.2766956, -1593838.9, 21105.637, 0.000025556885, 9.999651, 10.000259 
3.3497778e+2, 1.4521164e+2, -1563617.5, -1555388.9, 4814.6206, -0.038400955, 0.21179664, -1553170.1, -36220.453, 0.0000055599335, 9.99976, 9.999863 
3.3498308e+2, 1.5521173e+2, -1455604.8, -1454876.6, -1242.2924, -0.055412505, 0.23323284, -1453946.1, -34997.055, 0.00000016881297, 9.999839, 9.999842 
3.3498883e+2, 1.6521163e+2, -1340358.0, -1365541.0, 20464.826, -0.06075865, 0.2483112, -1328921.3, -7971.167, 0.0, 10.00003, 9.99969 
3.3499494e+2, 1.7521136e+2, -1198392.5, -1245884.9, 20339.313, -0.06270714, 0.2487003, -1190872.5, 32080.164, 0.0, 10.00033, 9.999694 
3.3500114e+2, 1.8521088e+2, -1088755.8, -1154217.5, 12865.873, -0.043307487, 0.2378919, -1086317.9, 38638.508, 0.0, 10.000461, 9.999588 
3.350074e+2, 1.9521026e+2, -994526.5, -1059361.5, 16259.813, -0.0013308547, 0.21561696, -990677.3, 36283.406, 0.0, 10.000441, 9.999577 
3.3501348e+2, 2.052095e+2, -925608.8, -1041549.06, 21080.807, 0.017630273, 0.21133113, -921894.8, 7073.3516, 0.0, 10.0005245, 9.998985 
3.3501944e+2, 2.1520858e+2, -801165.0, -930892.8, 19171.887, 0.014204269, 0.21884382, -798391.0, 32587.297, 0.0, 10.000707, 9.998984 
3.350254e+2, 2.252077e+2, -698395.94, -851052.6, 17721.59, 0.013859077, 0.24461764, -696365.7, 36622.99, 0.0, 10.000827, 9.998802 
3.350313e+2, 2.3520693e+2, -590322.2, -747275.2, 21056.912, 0.017007625, 0.28369087, -587546.25, 47452.684, 0.0, 10.000892, 9.99881 
3.3503702e+2, 2.4520583e+2, -470998.22, -630899.2, 16809.91, 0.0040455586, 0.2908148, -469250.16, 67760.45, 0.0, 10.001004, 9.998881 
3.3504248e+2, 2.552045e+2, -350366.22, -522551.47, 18812.492, -0.024393117, 0.2668941, -348334.78, 90688.25, 0.0, 10.001163, 9.998877 
3.3504802e+2, 2.6520327e+2, -267985.63, -492653.75, 1759.2554, -0.02563938, 0.28369576, -267971.84, 73064.68, 0.0, 10.001318, 9.998334 
3.3505362e+2, 2.752021e+2, -147108.89, -382277.88, -1605.5485, 0.0005981303, 0.329762, -147097.92, 95953.1, 0.0, 10.00147, 9.998345 
3.3505908e+2, 2.8520048e+2, -36341.15, -278183.66, 3258.92, 0.008663151, 0.33549246, -36297.24, 108771.6, 0.0, 10.001558, 9.998345 
3.3506432e+2, 2.9519865e+2, 64971.55, -181597.66, 9856.679, -0.008264161, 0.31350425, 65364.945, 112453.09, 0.0, 10.001594, 9.998318 
3.3506882e+2, 3.051978e+2, 126697.03, -172167.39, -10804.854, -0.082394406, 0.4241969, 127087.15, 127087.15, 0.0, 10.001876, 9.997913 
3.3507434e+2, 3.1519473e+2, 254000.73, -23415.68, 24967.502, -0.033080474, 0.32023776, 256229.9, 256229.9, 0.0, 10.002375, 9.998694 
3.4496742e+2, 1.2520641e+2, -1758455.3, -1711712.1, 25910.996, -0.056807835, 0.26431486, -1700189.4, 12813.882, 0.000060228966, 9.999598, 10.000216 
3.4497193e+2, 1.3520665e+2, -1652909.0, -1601087.8, -30342.123, -0.08289866, 0.2592115, -1587098.4, 27899.988, 0.000025763518, 9.999611, 10.000296 
3.4497762e+2, 1.4520606e+2, -1567760.8, -1568348.0, 2561.6035, -0.030555222, 0.19951962, -1565476.0, -48472.516, 0.000005876301, 9.999778, 9.999764 
3.4498292e+2, 1.5520622e+2, -1423079.4, -1449420.9, 3708.8418, -0.06811323, 0.23693006, -1422567.1, -3563.936, 0.0000002059256, 10.000106, 9.99975 
3.4498885e+2, 1.652061e+2, -1306915.9, -1341795.0, 27842.984, -0.070828795, 0.25091052, -1291501.6, 29502.697, 0.0, 10.000227, 9.999758 
3.449953e+2, 1.7520574e+2, -1217690.0, -1247908.8, 31401.623, -0.050161988, 0.23536251, -1197951.8, 25055.162, 0.0, 10.000166, 9.999759 
3.450016e+2, 1.8520525e+2, -1120531.5, -1178438.4, 19411.762, -0.029054599, 0.22370197, -1114626.5, 10384.394, 0.0, 10.00028, 9.999508 
3.4500787e+2, 1.9520468e+2, -982604.3, -1061988.9, 9721.674, -0.004264555, 0.21428318, -981431.1, 45584.4, 0.0, 10.000559, 9.999501 
3.45014e+2, 2.0520394e+2, -899082.1, -1022610.94, 10906.412, 0.0074755694, 0.21419103, -898126.56, 30896.223, 0.0, 10.00068, 9.99904 
3.4502003e+2, 2.1520303e+2, -804292.25, -926316.25, 17262.145, 0.005711622, 0.21767451, -801897.3, 29134.973, 0.0, 10.000659, 9.999039 
3.450261e+2, 2.2520213e+2, -710691.9, -854422.1, 18820.56, 0.0085821375, 0.23560818, -708268.3, 24774.361, 0.0, 10.000731, 9.998825 
3.450322e+2, 2.3520127e+2, -588850.5, -744126.94, 17704.596, 0.01651788, 0.2638061, -586857.4, 48196.156, 0.0, 10.000892, 9.998832 
3.4503806e+2, 2.4520023e+2, -473542.34, -635851.5, 8330.25, 0.0049497425, 0.27648872, -473115.94, 63949.05, 0.0, 10.001002, 9.998849 
3.4504357e+2, 2.5519907e+2, -366103.63, -533411.25, 4571.5796, -0.025425041, 0.2729305, -365978.8, 73097.555, 0.0, 10.001068, 9.998847 
3.450493e+2, 2.6519784e+2, -277684.7, -489599.06, -5317.344, -0.025731973, 0.28990972, -277551.34, 63538.33, 0.0, 10.001217, 9.998404 
3.450551e+2, 2.7519655e+2, -145228.42, -373798.56, 3960.9148, 0.004220882, 0.31775114, -145159.81, 97945.055, 0.0, 10.001449, 9.998414 
3.4506074e+2, 2.8519496e+2, -22356.012, -269188.28, 5496.975, 0.012319557, 0.32346743, -22233.654, 122888.5, 0.0, 10.001643, 9.998366 
3.4506604e+2, 2.951933e+2, 96387.41, -164717.78, 1174.9, -0.0078619225, 0.317505, 96392.695, 143532.61, 0.0, 10.0018015, 9.998335 
3.4507075e+2, 3.051925e+2, 134530.06, -179519.45, -5713.2305, -0.0811624, 0.4313294, 134633.95, 134633.95, 0.0, 10.001978, 9.997814 
3.4507668e+2, 3.151891e+2, 233245.75, -20493.576, 46603.887, -0.023774264, 0.30363587, 241534.64, 241534.64, 0.0, 10.002176, 9.99881 
3.5496745e+2, 1.2520102e+2, -1766479.0, -1726661.3, 36422.813, -0.014871392, 0.27331683, -1705061.3, 7994.1177, 0.00005843651, 9.99959, 10.000116 
3.549716e+2, 1.3520093e+2, -1657393.4, -1610294.9, -29409.367, -0.08000948, 0.24156433, -1596168.3, 18885.768, 0.000025162195, 9.99961, 10.000234 
3.549772e+2, 1.4520037e+2, -1567402.1, -1567934.5, 14915.1455, -0.05114809, 0.18662192, -1552750.8, -35691.668, 0.0000057861466, 9.999779, 9.999767 
3.549828e+2, 1.552008e+2, -1422920.3, -1448818.8, 16071.018, -0.092726834, 0.25141817, -1415230.8, 3825.6042, 0.00000020730299, 10.000104, 9.999755 
3.5498905e+2, 1.6520068e+2, -1299030.4, -1325237.9, 25673.709, -0.07473688, 0.25999552, -1283309.8, 37747.258, 0.0, 10.000226, 9.999872 
3.5499585e+2, 1.7520009e+2, -1210116.9, -1232224.4, 29615.943, -0.012159551, 0.21006007, -1189559.1, 33501.6, 0.0, 10.000166, 9.9998665 
3.5500225e+2, 1.8519951e+2, -1138230.3, -1215192.0, 29958.865, 0.005312336, 0.19837761, -1127943.1, -2877.4604, 0.0, 10.00028, 9.999256 
3.5500833e+2, 1.95199e+2, -999587.06, -1097207.6, 20196.844, -0.014615315, 0.2194785, -995573.5, 31498.078, 0.0, 10.000558, 9.99926 
3.5501444e+2, 2.0519827e+2, -887719.3, -998922.2, 10118.498, -0.017884944, 0.2243597, -886806.1, 42272.85, 0.0, 10.00068, 9.999203 
3.5502058e+2, 2.1519735e+2, -792970.7, -902786.1, 16756.45, -0.007490708, 0.20989381, -790470.75, 40616.77, 0.0, 10.000658, 9.999201 
3.5502672e+2, 2.2519639e+2, -713178.1, -859662.8, 24932.201, -0.0015897551, 0.21623722, -709050.9, 24046.984, 0.0, 10.000731, 9.998789 
3.5503295e+2, 2.3519544e+2, -591600.5, -749883.0, 23724.166, 0.001405878, 0.23914589, -588121.06, 46988.277, 0.0, 10.000892, 9.998793 
3.55039e+2, 2.4519445e+2, -481178.78, -651641.5, 10639.615, 0.0010956282, 0.2636192, -480517.28, 56603.625, 0.0, 10.001002, 9.99874 
3.5504487e+2, 2.5519344e+2, -373047.75, -547725.9, 6997.081, -0.003573515, 0.28670368, -372767.9, 66364.08, 0.0, 10.001068, 9.99875 
3.5505065e+2, 2.651923e+2, -260798.9, -454522.84, 3243.4277, -0.008916236, 0.3026368, -260744.61, 80400.05, 0.0, 10.001217, 9.998644 
3.550564e+2, 2.7519098e+2, -129139.96, -340241.4, 12585.511, -0.011857281, 0.3053746, -128392.28, 114766.5, 0.0, 10.001448, 9.998645 
3.5506216e+2, 2.8518954e+2, -31339.428, -287712.44, 11081.502, -0.008474543, 0.31647003, -30861.332, 114313.82, 0.0, 10.001642, 9.9982395 
3.5506785e+2, 2.9518804e+2, 88067.65, -182166.38, 6808.5015, -0.0077799754, 0.34184194, 88239.08, 135431.38, 0.0, 10.0018015, 9.998215 
3.5507286e+2, 3.0518728e+2, 144337.44, -159380.0, 1363.3741, -0.07004302, 0.45933178, 144343.56, 144343.56, 0.0, 10.001979, 9.997952 
3.5507905e+2, 3.1518382e+2, 258153.42, 31322.428, 53255.51, -0.0075602485, 0.31084815, 270034.47, 270034.47, 0.0, 10.002176, 9.9991665 
3.649672e+2, 1.2519525e+2, -1767830.4, -1740144.3, 33133.586, 0.0011122848, 0.26776704, -1718078.1, -4967.284, 0.000055122826, 9.999636, 10.000002 
3.6497128e+2, 1.3519517e+2, -1631713.4, -1606153.0, -43834.215, -0.07921307, 0.2424404, -1573273.9, 41836.582, 0.000023501116, 9.999822, 10.000159 
3.6497703e+2, 1.4519462e+2, -1538429.3, -1544307.9, 6676.261, -0.05601454, 0.18941778, -1534073.9, -16958.432, 0.00000526637, 9.999936, 9.999854 
3.6498287e+2, 1.5519507e+2, -1432881.4, -1444195.6, 13882.999, -0.08625209, 0.24683438, -1423547.3, -4435.1313, 0.00000017249042, 9.999994, 9.99984 
3.6498934e+2, 1.6519497e+2, -1313617.3, -1337177.5, 17010.498, -0.0616141, 0.25596642, -1304706.1, 16406.154, 0.0, 10.000146, 9.999828 
3.6499628e+2, 1.7519441e+2, -1179904.0, -1222395.6, 9209.471, 0.0016036996, 0.21384583, -1177993.9, 45121.92, 0.0, 10.000393, 9.999825 
3.650027e+2, 1.8519379e+2, -1115055.8, -1211271.6, 11593.348, 0.0125125935, 0.20236382, -1113678.5, 11443.112, 0.0, 10.00047, 9.999191 
3.6500874e+2, 1.9519314e+2, -1028171.2, -1117905.1, 15771.607, -0.020656662, 0.21671477, -1025479.9, 1649.4158, 0.0, 10.000391, 9.999198 
3.650149e+2, 2.0519245e+2, -912271.2, -1004749.5, 8972.745, -0.02486421, 0.22523823, -911408.6, 17727.887, 0.0, 10.000484, 9.999257 
3.650213e+2, 2.1519172e+2, -777299.3, -889046.8, 7132.2734, -0.0041246256, 0.22410268, -776845.94, 54297.082, 0.0, 10.000739, 9.999256 
3.6502752e+2, 2.2519076e+2, -694155.06, -850773.4, 11555.951, -0.0005653295, 0.22779144, -693307.0, 39846.01, 0.0, 10.000864, 9.998786 
3.650337e+2, 2.3518963e+2, -595310.8, -752049.8, 12839.831, -0.011715557, 0.23326129, -594265.94, 40899.984, 0.0, 10.000868, 9.998789 
3.6503989e+2, 2.4518858e+2, -487845.2, -656526.44, 6412.4185, -0.007809371, 0.2531713, -487601.78, 49576.273, 0.0, 10.000964, 9.998726 
3.650461e+2, 2.5518763e+2, -362374.72, -544037.06, 9545.982, 0.008478365, 0.2832999, -361874.47, 77314.555, 0.0, 10.001147, 9.998737 
3.65052e+2, 2.6518655e+2, -247287.72, -441451.1, 3524.8425, 0.00061308895, 0.30451483, -247223.75, 93977.27, 0.0, 10.001281, 9.998704 
3.6505765e+2, 2.7518538e+2, -135896.53, -336907.28, -430.1316, -0.026648398, 0.31165206, -135895.61, 107318.26, 0.0, 10.001372, 9.998705 
3.6506364e+2, 2.851839e+2, -42193.605, -293438.7, -785.23035, -0.020604411, 0.32146072, -42191.152, 103038.98, 0.0, 10.001569, 9.998237 
3.6506984e+2, 2.9518235e+2, 96176.58, -179138.38, 3891.182, 0.007981142, 0.33861274, 96231.56, 143479.98, 0.0, 10.00186, 9.998208 
3.65075e+2, 3.0518162e+2, 146883.64, -160546.52, -7487.872, -0.054850474, 0.46010232, 147065.92, 147065.92, 0.0, 10.002005, 9.997932 
3.6508104e+2, 3.1517842e+2, 249759.27, 48631.938, 32144.701, -0.016444216, 0.34580347, 254771.8, 254771.8, 0.0, 10.002025, 9.999359 
3.7496674e+2, 1.2518911e+2, -1777770.5, -1759049.9, 50957.727, -0.011018573, 0.24825823, -1716600.0, -3430.0564, 0.00005010573, 9.999629, 9.999875 
3.749711e+2, 1.3518931e+2, -1638213.4, -1618502.1, -36967.402, -0.08058408, 0.26127836, -1590099.1, 25068.916, 0.000020857056, 9.999816, 10.000077 
3.7497705e+2, 1.4518882e+2, -1526932.4, -1519971.9, 8792.364, -0.04505462, 0.20745736, -1513996.0, 3176.6328, 0.000004428325, 9.999933, 10.000022 
3.7498325e+2, 1.5518901e+2, -1421536.5, -1420723.0, 16260.301, -0.049642906, 0.22354795, -1404864.4, 14306.034, 0.00000011962439, 9.999994, 10.000001 
3.749898e+2, 1.6518898e+2, -1327296.9, -1365830.5, 26213.635, -0.03265001, 0.23909299, -1314031.3, 7139.09, 0.0, 10.000147, 9.999632 
3.7499654e+2, 1.751887e+2, -1193187.1, -1250081.4, 18460.273, -0.00916325, 0.24642973, -1187722.4, 35450.0, 0.0, 10.000393, 9.999635 
3.7500295e+2, 1.8518807e+2, -1106542.3, -1193690.6, 8669.337, -0.00799147, 0.2355272, -1105688.3, 19490.47, 0.0, 10.00047, 9.999312 
3.750091e+2, 1.951871e+2, -1019815.75, -1100656.1, 13182.631, -0.022784088, 0.20598732, -1017720.4, 9468.38, 0.0, 10.000391, 9.999317 
3.7501553e+2, 2.0518646e+2, -916113.94, -1012809.4, 18630.555, -0.014007696, 0.2166878, -912648.56, 16546.873, 0.0, 10.000484, 9.999202 
3.750222e+2, 2.1518613e+2, -780964.4, -896677.3, 16681.107, 0.015124566, 0.2602092, -778607.6, 52591.137, 0.0, 10.000739, 9.999204 
3.750285e+2, 2.2518523e+2, -692015.06, -846320.94, 11717.54, 0.010929566, 0.27024746, -691130.4, 42077.98, 0.0, 10.000863, 9.9988165 
3.7503445e+2, 2.3518382e+2, -592889.9, -747050.3, 13109.687, -0.023172757, 0.24586865, -591783.0, 43440.344, 0.0, 10.000868, 9.998823 
3.750407e+2, 2.4518262e+2, -482445.47, -645370.2, 13264.531, -0.022098204, 0.24498996, -481372.6, 55863.875, 0.0, 10.000964, 9.998802 
3.7504727e+2, 2.551816e+2, -357196.66, -533364.44, 16337.359, 0.010469853, 0.2631871, -355694.4, 83553.09, 0.0, 10.001147, 9.99881 
3.7505332e+2, 2.6518065e+2, -255457.2, -458500.63, 6664.0874, 0.002648013, 0.29571086, -255238.72, 86020.055, 0.0, 10.001281, 9.998587 
3.7505886e+2, 2.7517965e+2, -143524.83, -352708.53, 2970.6094, -0.04057156, 0.33565032, -143482.64, 99787.55, 0.0, 10.001372, 9.998596 
3.7506515e+2, 2.8517812e+2, -33680.133, -275618.63, 9952.016, -0.02501026, 0.33809274, -33271.45, 112015.62, 0.0, 10.001568, 9.998359 
3.75072e+2, 2.9517624e+2, 104036.76, -162826.97, 14388.838, 0.03834497, 0.3097164, 104810.336, 152118.34, 0.0, 10.00186, 9.998321 
3.750772e+2, 3.051755e+2, 134732.53, -185866.83, -7170.847, -0.036208674, 0.4351632, 134892.84, 134892.84, 0.0, 10.002006, 9.997758 
3.750827e+2, 3.15173e+2, 252246.2, 53789.566, 31738.264, -0.051562868, 0.40212524, 257198.39, 257198.39, 0.0, 10.002026, 9.999394 
3.8496634e+2, 1.2518263e+2, -1761681.0, -1754945.9, 37091.617, -0.019340077, 0.22900105, -1721069.3, -7836.4277, 0.00004363311, 9.999754, 9.999843 
3.8497096e+2, 1.3518304e+2, -1654390.8, -1624955.6, -54783.637, -0.07020685, 0.26133576, -1582947.1, 32282.738, 0.000017489165, 9.999699, 10.00009 
3.8497707e+2, 1.4518267e+2, -1534252.4, -1519398.4, -4400.191, -0.032007206, 0.21660532, -1518192.8, -959.3356, 0.0000034194288, 9.999865, 10.000059 
3.8498354e+2, 1.551828e+2, -1381177.3, -1397168.9, -6921.202, -0.030862467, 0.22468156, -1378597.8, 40633.32, 0.00000006772674, 10.000253, 10.000038 
3.849902e+2, 1.6518272e+2, -1296693.3, -1354467.1, -1129.4331, -0.020316271, 0.23550437, -1296671.1, 24560.193, 0.0, 10.00037, 9.999602 
3.849968e+2, 1.751824e+2, -1216791.5, -1264417.1, 3754.6768, -0.016416563, 0.24157575, -1216497.3, 6736.849, 0.0, 10.000243, 9.999609 
3.8500327e+2, 1.8518181e+2, -1125544.1, -1198036.8, -1617.6138, -0.015894933, 0.23478945, -1125508.0, -267.89133, 0.0, 10.000319, 9.999356 
3.8500968e+2, 1.9518098e+2, -988528.8, -1080694.6, -2955.7554, -0.013077123, 0.21412295, -988434.1, 38814.684, 0.0, 10.000585, 9.999361 
3.850162e+2, 2.0518035e+2, -885881.2, -998587.2, 2478.8818, -0.00396504, 0.2232347, -885826.7, 43428.76, 0.0, 10.000694, 9.999199 
3.8502285e+2, 2.151799e+2, -792985.9, -902656.6, 4191.893, 0.009078006, 0.25604567, -792825.9, 38434.07, 0.0, 10.000657, 9.999202 
3.8502923e+2, 2.2517903e+2, -705571.06, -844824.6, 2132.7212, 0.0044617485, 0.26615176, -705538.44, 27730.658, 0.0, 10.000735, 9.998889 
3.850354e+2, 2.351778e+2, -580087.9, -732803.44, 6585.4834, -0.015562378, 0.2514439, -579804.44, 55477.89, 0.0, 10.000921, 9.998896 
3.8504177e+2, 2.4517666e+2, -469288.2, -638554.2, 6830.6885, -0.017061085, 0.25213915, -469012.97, 68281.91, 0.0, 10.001052, 9.998807 
3.8504827e+2, 2.5517562e+2, -358700.97, -533667.6, 4416.9106, -0.002535269, 0.2644205, -358589.53, 80716.93, 0.0, 10.001135, 9.998815 
3.8505447e+2, 2.651746e+2, -253534.63, -458677.06, -2272.9326, -0.010360025, 0.2933914, -253509.45, 87808.664, 0.0, 10.001298, 9.998578 
3.8506037e+2, 2.7517357e+2, -120010.29, -342479.78, 2023.7211, -0.03663745, 0.3323781, -119991.88, 123337.8, 0.0, 10.001537, 9.998588 
3.8506687e+2, 2.8517205e+2, -16886.277, -268243.0, 8643.785, -0.01748022, 0.33544278, -16589.38, 128756.97, 0.0, 10.001685, 9.998354 
3.8507378e+2, 2.9517016e+2, 88055.6, -171592.0, 3539.4773, 0.036855005, 0.30781177, 88103.836, 135470.77, 0.0, 10.001754, 9.998312 
3.8507903e+2, 3.051692e+2, 115790.234, -206179.48, -20640.59, -0.044112843, 0.41543594, 117108.05, 117108.05, 0.0, 10.001924, 9.997658 
3.8508475e+2, 3.151667e+2, 281722.03, 76789.21, 22628.186, -0.058895145, 0.39568546, 284190.84, 284190.84, 0.000000000002787424, 10.00219, 9.999474 
3.9496604e+2, 1.2517576e+2, -1757913.4, -1746020.6, 45668.35, -0.023862967, 0.20926094, -1705913.1, 7386.8213, 0.0000362571, 9.999749, 9.999907 
3.949709e+2, 1.3517629e+2, -1646842.9, -1609069.8, -56985.07, -0.049056225, 0.24300945, -1567923.0, 47372.84, 0.000013744367, 9.999697, 10.0002 
3.949771e+2, 1.4517611e+2, -1540942.9, -1533036.5, 9837.821, -0.017992076, 0.2170024, -1526387.4, -9089.497, 0.0000023661473, 9.999863, 9.999967 
3.9498383e+2, 1.551764e+2, -1387462.3, -1409934.6, 7216.739, -0.0303027, 0.2498211, -1385344.3, 33950.08, 0.000000028035489, 10.000252, 9.999951 
3.949905e+2, 1.651762e+2, -1287067.6, -1334275.3, -6067.241, -0.025027724, 0.24513017, -1286300.3, 34995.316, 0.0, 10.000369, 9.999742 
3.94997e+2, 1.751755e+2, -1207136.3, -1244248.0, -698.38696, -0.020502236, 0.19951119, -1207123.1, 16178.159, 0.0, 10.000242, 9.999748 
3.9500362e+2, 1.8517503e+2, -1128112.4, -1203221.0, 8383.646, -0.0116415685, 0.20010705, -1127188.0, -1882.0265, 0.0, 10.000318, 9.999321 
3.9501047e+2, 1.9517478e+2, -990734.94, -1085229.3, 7042.8193, 0.008106072, 0.24096268, -990212.9, 37096.64, 0.0, 10.000584, 9.99933 
3.95017e+2, 2.0517412e+2, -882736.3, -991781.8, 1179.3882, 0.0048647895, 0.24524088, -882723.5, 46593.01, 0.0, 10.000693, 9.999247 
3.950232e+2, 2.1517305e+2, -789589.7, -895557.9, 3137.1533, -0.022439457, 0.21186192, -789496.94, 41829.563, 0.0, 10.000657, 9.999251 
3.9502972e+2, 2.251722e+2, -697823.7, -828696.5, 9140.965, -0.020354437, 0.21556246, -697188.3, 36147.027, 0.0, 10.000735, 9.999 
3.9503658e+2, 2.3517159e+2, -572411.06, -716836.6, 13491.44, 0.010548449, 0.2502021, -571161.56, 64181.363, 0.0, 10.000921, 9.999005 
3.9504308e+2, 2.4517068e+2, -474006.47, -648264.5, 9799.385, 0.006816179, 0.2746047, -473457.13, 63896.203, 0.0, 10.001051, 9.99874 
3.9504912e+2, 2.5516957e+2, -363170.22, -542781.1, 7578.062, -0.030579405, 0.28641292, -362851.06, 76514.96, 0.0, 10.001134, 9.998752 
3.9505547e+2, 2.651684e+2, -246700.66, -444238.84, 6551.5854, -0.03870568, 0.29741028, -246483.6, 94895.46, 0.0, 10.001297, 9.998677 
3.950621e+2, 2.7516714e+2, -113420.086, -328879.38, 10659.277, -0.016121726, 0.3030698, -112894.03, 130498.164, 0.0, 10.001538, 9.998681 
3.9506873e+2, 2.851657e+2, -25645.969, -286841.84, 10807.69, 0.0010576772, 0.3143336, -25199.533, 120208.33, 0.0, 10.001687, 9.998225 
3.950752e+2, 2.9516414e+2, 79475.58, -189544.31, 5985.9663, 0.004060448, 0.3316409, 79608.7, 127033.94, 0.0, 10.001754, 9.998188 
3.9508063e+2, 3.051627e+2, 113699.766, -210221.78, -10930.898, -0.07833958, 0.40080395, 114068.21, 114068.21, 0.0, 10.001923, 9.99763 
3.950871e+2, 3.1515965e+2, 290425.03, 94747.88, 31866.545, -0.042035863, 0.32450837, 295483.8, 295483.8, 0.000000001718879, 10.002191, 9.999596 
4.0496585e+2, 1.2516902e+2, -1780587.0, -1758859.4, 52688.844, -0.008748757, 0.21661976, -1715926.0, -2559.662, 0.000028702449, 9.999602, 9.999889 
4.0497085e+2, 1.3516952e+2, -1607299.4, -1586116.0, -67434.49, -0.0338983, 0.24309108, -1528446.5, 86916.27, 0.000010028613, 9.999951, 10.000236 
4.0497708e+2, 1.4516944e+2, -1500712.3, -1505022.9, 4707.878, -0.016937805, 0.22004166, -1497689.8, 19673.832, 0.0000013962007, 10.000102, 10.000045 
4.0498397e+2, 1.5516983e+2, -1407325.4, -1410899.5, 14596.714, -0.030100914, 0.25578338, -1394406.8, 24951.758, 0.000000006286357, 10.000078, 10.000029 
4.0499082e+2, 1.651696e+2, -1314345.5, -1349047.6, -2984.6033, -0.022048239, 0.24548696, -1314090.6, 7269.292, 0.0, 10.000189, 9.999727 
4.049974e+2, 1.7516877e+2, -1180070.8, -1232716.5, -9428.208, -0.013048777, 0.18681823, -1178433.3, 44934.24, 0.0, 10.000435, 9.999735 
4.050041e+2, 1.8516834e+2, -1095311.5, -1178815.1, -452.3698, -0.0034386364, 0.18850131, -1095309.0, 30062.639, 0.0, 10.000506, 9.999397 
4.0501103e+2, 1.951683e+2, -1010092.6, -1086009.6, 6305.2915, 0.013976786, 0.24353008, -1009572.5, 17799.95, 0.0, 10.000415, 9.999406 
4.050176e+2, 2.0516764e+2, -912928.06, -1011092.4, 1924.7609, 0.0059028273, 0.24633127, -912890.3, 16489.082, 0.0, 10.000506, 9.999204 
4.0502384e+2, 2.1516636e+2, -776251.5, -893637.6, -2970.7595, -0.029082367, 0.19630577, -776176.4, 55215.418, 0.0, 10.000769, 9.99921 
4.050305e+2, 2.2516552e+2, -670655.9, -810250.75, -3101.528, -0.026940739, 0.20030208, -670587.0, 62813.816, 0.0, 10.000899, 9.999047 
4.050375e+2, 2.3516512e+2, -570661.5, -710448.7, -3717.4043, 0.011262672, 0.2513929, -570562.7, 64843.664, 0.0, 10.000909, 9.999055 
4.050441e+2, 2.4516432e+2, -476582.72, -644235.2, -3708.4424, 0.0074260584, 0.28221646, -476500.72, 60914.89, 0.0, 10.001011, 9.998788 
4.0505022e+2, 2.5516322e+2, -350294.97, -531383.1, 2603.0618, -0.037070855, 0.29064777, -350257.56, 89170.445, 0.0, 10.0012, 9.998799 
4.0505677e+2, 2.65162e+2, -236894.75, -448318.72, 2540.4038, -0.04590767, 0.29738545, -236864.22, 104577.52, 0.0, 10.001402, 9.998599 
4.0506366e+2, 2.751606e+2, -106197.945, -334055.72, -6613.348, -0.018111642, 0.29841432, -106006.164, 137450.4, 0.0, 10.001624, 9.998604 
4.0507045e+2, 2.8515917e+2, 1049.412, -269934.06, -9170.83, -0.0027188791, 0.31378135, 1359.4236, 146831.06, 0.0, 10.001853, 9.998261 
4.05077e+2, 2.9515773e+2, 130463.26, -160857.4, -1753.5237, -0.0082909325, 0.3417519, 130473.81, 177960.2, 0.0, 10.002086, 9.998225 
4.0508264e+2, 3.0515587e+2, 143799.06, -217063.63, -18319.68, -0.08406009, 0.37334672, 144726.7, 144726.7, 0.0, 10.002221, 9.997439 
4.0508953e+2, 3.151525e+2, 295821.03, 88032.516, 11101.859, -0.020684358, 0.2846016, 296412.5, 296412.5, 0.00000001196501, 10.002268, 9.999512 
4.1496578e+2, 1.2516244e+2, -1788180.9, -1773248.6, 77046.19, 0.025068598, 0.2512665, -1703307.8, 10124.38, 0.000021697306, 9.999597, 9.999793 
4.1497087e+2, 1.3516273e+2, -1610368.6, -1592216.1, -54901.45, -0.025117854, 0.2610649, -1545645.8, 69784.8, 0.000006740833, 9.999949, 10.000195 
4.1497704e+2, 1.4516261e+2, -1483402.8, -1468754.5, 3631.9028, -0.029543303, 0.22562963, -1467903.5, 49527.336, 0.0000006540361, 10.0001, 10.000295 
4.1498408e+2, 1.5516308e+2, -1390335.6, -1375335.1, 13906.017, -0.030388832, 0.24310754, -1367035.6, 52387.81, 0.0000000002364484, 10.000076, 10.000274 
4.1499108e+2, 1.6516292e+2, -1326897.1, -1374503.1, 6071.562, -0.011552929, 0.23675877, -1326135.0, -4710.667, 0.0, 10.000187, 9.999554 
4.1499802e+2, 1.7516215e+2, -1192078.3, -1257159.4, -271.5624, 0.0052889516, 0.20312044, -1192077.0, 31355.611, 0.0, 10.000433, 9.999568 
4.1500473e+2, 1.851617e+2, -1082366.8, -1151541.9, -3848.7163, 0.00784573, 0.19989915, -1082153.3, 43283.85, 0.0, 10.0005045, 9.999585 
4.1501135e+2, 1.9516154e+2, -997534.94, -1059745.4, 3282.7102, 0.0043639373, 0.22209267, -997362.2, 30075.373, 0.0, 10.000414, 9.999586 
4.1501802e+2, 2.0516089e+2, -922341.56, -1030464.06, 11813.322, -0.0011820192, 0.22626488, -921065.94, 8378.157, 0.0, 10.000505, 9.999071 
4.150248e+2, 2.1515982e+2, -785387.5, -912517.7, 6943.3433, -0.011396283, 0.20913137, -785009.44, 46446.543, 0.0, 10.000768, 9.999082 
4.150315e+2, 2.2515896e+2, -671925.56, -812633.8, -2724.5266, -0.015912157, 0.22014819, -671872.8, 61592.758, 0.0, 10.000898, 9.999031 
4.1503817e+2, 2.3515838e+2, -571577.25, -712262.75, -3168.4675, -0.013524011, 0.25480852, -571505.94, 63966.773, 0.0, 10.000909, 9.9990425 
4.1504487e+2, 2.4515757e+2, -465388.56, -620858.44, 3278.8704, -0.015582643, 0.2749778, -465319.44, 72162.336, 0.0, 10.00101, 9.998949 
4.1505158e+2, 2.5515658e+2, -339590.47, -509032.4, 9526.682, -0.022990914, 0.27772647, -339056.53, 100435.84, 0.0, 10.001199, 9.998953 
4.1505828e+2, 2.6515538e+2, -254542.73, -484844.25, 10634.449, -0.032907125, 0.29360545, -254052.72, 87453.48, 0.0, 10.001402, 9.998348 
4.1506502e+2, 2.75154e+2, -123378.8, -369409.38, 1802.1925, -0.042336885, 0.3175694, -123365.6, 120157.234, 0.0, 10.001623, 9.998362 
4.1507205e+2, 2.8515252e+2, 14547.028, -241298.86, -616.1174, -0.028749457, 0.3332151, 14548.512, 160086.17, 0.0, 10.001851, 9.998459 
4.1507915e+2, 2.9515108e+2, 143928.36, -132622.64, 6508.709, -0.0018292203, 0.33907184, 144081.45, 191631.78, 0.0, 10.002086, 9.99842 
4.1508508e+2, 3.0514875e+2, 119580.93, -267942.28, -16715.768, -0.06330123, 0.3337422, 120300.625, 120300.625, 0.0, 10.002224, 9.997089 
4.1509205e+2, 3.1514525e+2, 276633.47, 47540.98, 11747.76, 0.002793755, 0.2688485, 277234.3, 277234.3, 0.000000036873733, 10.002271, 9.999232 
4.2496547e+2, 1.251554e+2, -1769133.4, -1760628.8, 78292.91, 0.029516064, 0.2652719, -1686472.8, 27028.875, 0.000015823704, 9.999717, 9.999821 
4.2497098e+2, 1.3515574e+2, -1634279.3, -1595374.8, -56624.117, -0.0023802884, 0.27269617, -1554954.8, 60544.55, 0.0000041887733, 9.999752, 10.000268 
4.2497718e+2, 1.4515561e+2, -1508505.1, -1474572.8, -4219.468, -0.018541604, 0.22988756, -1474055.9, 43443.313, 0.00000021832761, 9.999902, 10.00035 
4.2498428e+2, 1.5515588e+2, -1373737.3, -1361220.5, -9016.274, -0.020592345, 0.22169858, -1356503.4, 62990.08, 0.0, 10.000165, 10.000328 
4.2499146e+2, 1.6515583e+2, -1312090.6, -1367321.8, -16990.217, -0.000485882, 0.22314456, -1307282.6, 14210.867, 0.0, 10.000288, 9.999554 
4.249985e+2, 1.7515546e+2, -1212912.3, -1266891.9, -10404.215, 0.017486734, 0.22899076, -1210976.4, 12522.465, 0.0, 10.000289, 9.99957 
4.2500526e+2, 1.85155e+2, -1094301.5, -1149675.6, -14866.729, 0.013946881, 0.22184725, -1090562.5, 34940.613, 0.0, 10.00039, 9.999653 
4.2501178e+2, 1.9515444e+2, -967557.94, -1038027.06, -16834.553, -0.0018965823, 0.19930425, -963742.8, 63763.598, 0.0, 10.000588, 9.999651 
4.2501858e+2, 2.0515381e+2, -897979.6, -1021272.3, -5406.533, -0.005233486, 0.20195559, -897743.0, 31769.807, 0.0, 10.000685, 9.999047 
4.250256e+2, 2.1515311e+2, -799220.5, -921432.0, -2348.1296, 0.00033003849, 0.22388357, -799175.44, 32346.453, 0.0, 10.000684, 9.999061 
4.2503244e+2, 2.2515231e+2, -689781.06, -820656.1, -8514.304, -0.004563065, 0.2406708, -689229.44, 44301.75, 0.0, 10.000773, 9.999037 
4.2503905e+2, 2.3515147e+2, -565695.4, -708845.1, -7547.9, -0.017717078, 0.25006756, -565298.5, 70241.96, 0.0, 10.000947, 9.999047 
4.2504585e+2, 2.4515055e+2, -453473.28, -617170.3, -4523.7183, -0.024005776, 0.26197472, -453348.38, 84201.95, 0.0, 10.001101, 9.99893 
4.2505276e+2, 2.5514963e+2, -334838.47, -508782.44, -11849.408, -0.02531189, 0.27203166, -334034.97, 105525.63, 0.0, 10.001241, 9.998934 
4.250597e+2, 2.651485e+2, -249852.5, -482262.75, -4750.179, -0.032915138, 0.29664668, -249755.45, 91818.27, 0.0, 10.001432, 9.998351 
4.2506668e+2, 2.7514723e+2, -115358.07, -364928.53, 5160.0493, -0.043435875, 0.33071554, -115251.43, 128337.875, 0.0, 10.001675, 9.998367 
4.2507392e+2, 2.8514573e+2, 19266.121, -240797.8, 3325.795, -0.027120637, 0.34077117, 19308.646, 164913.0, 0.0, 10.00189, 9.998444 
4.250813e+2, 2.9514405e+2, 142648.88, -134557.97, -5463.916, 0.00612494, 0.32510906, 142756.53, 190375.17, 0.0, 10.002082, 9.998408 
4.250874e+2, 3.0514145e+2, 129789.59, -269472.13, -26659.61, -0.05776176, 0.29847702, 131561.86, 131561.86, 0.0, 10.002321, 9.997032 
4.250945e+2, 3.1513846e+2, 322297.56, 66031.625, 21516.082, 0.0040525156, 0.29058313, 324091.5, 324091.5, 0.00000007454206, 10.002599, 9.999202 
4.3496493e+2, 1.2514794e+2, -1759725.3, -1740702.8, 90774.914, 0.0024892068, 0.25961626, -1658942.1, 54632.633, 0.0000113764345, 9.999715, 9.999959 
4.349711e+2, 1.3514857e+2, -1621277.1, -1568697.6, -54860.11, 0.034295123, 0.27888593, -1534153.4, 81415.5, 0.0000025044064, 9.999752, 10.000451 
4.349774e+2, 1.4514846e+2, -1519226.0, -1496097.4, 5705.674, 0.016248513, 0.23322026, -1494766.5, 22802.467, 0.000000047491298, 9.999899, 10.000203 
4.3498462e+2, 1.5514822e+2, -1384042.4, -1382004.1, 821.9325, -0.0019144358, 0.1906027, -1381714.0, 37854.715, 0.0, 10.000162, 10.000186 
4.349918e+2, 1.651483e+2, -1299987.6, -1341727.0, -16932.52, 0.0097330455, 0.2038378, -1293982.5, 27585.113, 0.0, 10.000286, 9.99973 
4.3499884e+2, 1.7514867e+2, -1201076.9, -1241977.6, -9982.993, 0.023464147, 0.26485658, -1198770.3, 24795.49, 0.0, 10.000287, 9.999742 
4.3500564e+2, 1.8514822e+2, -1098630.9, -1158030.4, -7383.556, 0.014814141, 0.25479823, -1097726.9, 27842.898, 0.0, 10.000388, 9.999597 
4.3501234e+2, 1.9514705e+2, -971448.56, -1045677.4, -9281.418, -0.0054643974, 0.17500204, -970305.7, 57273.355, 0.0, 10.000587, 9.999599 
4.3501925e+2, 2.0514639e+2, -892264.0, -1009101.5, -5362.964, -0.007043263, 0.17321967, -892018.4, 37567.297, 0.0, 10.000683, 9.999131 
4.3502635e+2, 2.1514623e+2, -793377.7, -909209.1, -2105.0193, 0.0055908584, 0.240424, -793339.44, 38250.168, 0.0, 10.000683, 9.999145 
4.3503332e+2, 2.2514552e+2, -688140.75, -817110.6, -2005.523, 0.006486478, 0.26182365, -688109.56, 45488.184, 0.0, 10.000772, 9.999062 
4.3504018e+2, 2.3514438e+2, -564303.6, -705935.8, -1070.6786, -0.0019296661, 0.23742424, -564295.5, 71314.055, 0.0, 10.000947, 9.999068 
4.35047e+2, 2.4514331e+2, -467321.44, -645779.0, 576.81665, -0.018496955, 0.24328625, -467319.56, 70301.73, 0.0, 10.001101, 9.9987335 
4.350538e+2, 2.551424e+2, -348102.34, -536162.3, -6534.49, -0.044293344, 0.2733386, -347875.56, 91757.11, 0.0, 10.00124, 9.998747 
4.35061e+2, 2.651414e+2, -232378.89, -445927.25, 4263.1587, -0.046321627, 0.30630973, -232293.81, 109350.555, 0.0, 10.001432, 9.998601 
4.3506858e+2, 2.7514032e+2, -98273.805, -329341.7, 13983.487, -0.022753749, 0.33819953, -97430.64, 146225.42, 0.0, 10.001675, 9.998612 
4.350761e+2, 2.8513873e+2, 3828.9702, -272724.56, 10317.519, 0.0004192881, 0.33704862, 4213.3564, 149885.19, 0.0, 10.00189, 9.998224 
4.3508348e+2, 2.951366e+2, 128055.13, -165034.94, 1723.5824, 0.015110586, 0.30056712, 128065.266, 175756.53, 0.0, 10.002083, 9.998198 
4.3508962e+2, 3.0513397e+2, 145592.1, -236571.11, -16407.852, -0.067259915, 0.26771834, 146295.27, 146295.27, 0.0, 10.002321, 9.997257 
4.3509686e+2, 3.1513205e+2, 336862.9, 96735.27, 30069.596, -0.018440126, 0.34344682, 340571.06, 340571.06, 0.0000001100893, 10.002598, 9.9994135 
4.449648e+2, 1.2514031e+2, -1755328.1, -1748115.3, 103019.2, 0.013086373, 0.23624855, -1648639.4, 65008.684, 0.000008277144, 9.999785, 9.999874 
4.4497105e+2, 1.3514096e+2, -1611503.0, -1568163.1, -70034.45, 0.052491922, 0.26145318, -1516522.6, 99119.66, 0.0000015575915, 9.999836, 10.000416 
4.4497728e+2, 1.4514095e+2, -1520576.1, -1504051.3, -8925.167, 0.015958063, 0.23220462, -1500151.3, 17490.807, 0.000000013935479, 9.999921, 10.000138 
4.449848e+2, 1.5514073e+2, -1406622.3, -1399871.1, -7960.4326, 0.0072211768, 0.19664097, -1394600.1, 25042.592, 0.0, 10.000038, 10.000123 
4.4499213e+2, 1.6514085e+2, -1310685.0, -1329189.3, -29004.508, 0.018786376, 0.20925927, -1289492.8, 32148.654, 0.0, 10.000137, 9.999887 
4.449991e+2, 1.7514129e+2, -1199075.1, -1223743.9, -23255.523, 0.021472469, 0.2629862, -1185085.5, 38552.383, 0.0, 10.000227, 9.999896 
4.4500595e+2, 1.8514094e+2, -1109344.8, -1169392.6, -16523.092, 0.010597578, 0.2542763, -1105098.4, 20542.82, 0.0, 10.000341, 9.99954 
4.4501287e+2, 1.9513978e+2, -990923.5, -1060796.1, -18641.643, -0.0028752848, 0.18360193, -986261.1, 41389.754, 0.0, 10.000479, 9.999547 
4.4501993e+2, 2.0513915e+2, -899397.9, -1000350.2, -18657.7, -0.001914915, 0.18198904, -896059.94, 33597.316, 0.0, 10.000583, 9.99924 
4.4502705e+2, 2.15139e+2, -790492.3, -895825.75, -13631.5625, 0.008675263, 0.24116771, -788756.8, 42903.57, 0.0, 10.000651, 9.999251 
4.450341e+2, 2.2513835e+2, -687411.9, -818366.75, -8666.94, 0.0075949533, 0.26124722, -686840.75, 46827.273, 0.0, 10.000785, 9.999046 
4.4504112e+2, 2.3513722e+2, -560820.25, -706007.2, -10828.76, -0.0027235185, 0.24139766, -560017.06, 75662.59, 0.0, 10.000978, 9.999052 
4.4504812e+2, 2.4513616e+2, -465963.75, -655050.25, -7690.715, -0.017021151, 0.25114888, -465651.47, 72040.4, 0.0, 10.001152, 9.998645 
4.4505516e+2, 2.5513515e+2, -343637.4, -543147.5, -6935.062, -0.036759656, 0.28429788, -343396.63, 96307.72, 0.0, 10.00131, 9.998664 
4.450625e+2, 2.651341e+2, -212773.3, -421812.34, 6708.9688, -0.041183125, 0.3094081, -212558.2, 129157.836, 0.0, 10.001504, 9.998733 
4.450702e+2, 2.7513298e+2, -80639.61, -306662.97, 7454.833, -0.02778094, 0.3236257, -80394.0, 163332.69, 0.0, 10.001735, 9.998738 
4.4507796e+2, 2.8513137e+2, 10538.527, -286845.66, 2779.8625, -0.007544012, 0.32303914, 10564.511, 156306.9, 0.0, 10.00201, 9.99807 
4.4508564e+2, 2.951293e+2, 152616.06, -169699.05, -1369.0052, 0.0109075075, 0.30364287, 152621.88, 200384.69, 0.0, 10.002322, 9.998051 
4.4509202e+2, 3.051265e+2, 180166.72, -208704.8, -24618.727, -0.070213065, 0.25566813, 181719.1, 181719.1, 0.00000000000009396187, 10.00251, 9.997358 
4.4509944e+2, 3.1512493e+2, 336178.16, 101830.69, 10435.117, -0.017336687, 0.36082664, 336641.88, 336641.88, 0.00000013361628, 10.002569, 9.999462 
4.5496505e+2, 1.2513249e+2, -1777229.0, -1792550.5, 115364.74, 0.060517944, 0.19369239, -1669270.9, 44450.754, 0.0000061456926, 9.999782, 9.999571 
4.549709e+2, 1.3513288e+2, -1629331.6, -1605294.3, -67671.12, 0.050745007, 0.21871613, -1548582.9, 67137.21, 0.0000010596042, 9.999835, 10.000161 
4.5497686e+2, 1.4513311e+2, -1519593.3, -1501758.8, -4217.215, -0.021506503, 0.22563681, -1500811.9, 16906.854, 0.000000007555667, 9.99992, 10.0001545 
4.5498484e+2, 1.5513341e+2, -1405651.4, -1397706.9, -3152.152, 0.0064718537, 0.24081963, -1396608.3, 23107.396, 0.0, 10.000037, 10.000138 
4.5499235e+2, 1.6513349e+2, -1301323.1, -1309273.0, -25549.873, 0.0267327, 0.24056922, -1279440.9, 42273.668, 0.0, 10.000136, 10.000026 
4.549992e+2, 1.7513336e+2, -1189678.6, -1203798.5, -19495.223, 0.010575679, 0.2229319, -1176004.4, 47710.754, 0.0, 10.000226, 10.000033 
4.5500618e+2, 1.8513307e+2, -1113560.3, -1177669.1, -11167.783, 0.000052378316, 0.21934496, -1111670.5, 14047.145, 0.0, 10.0003395, 9.999485 
4.5501345e+2, 1.9513263e+2, -994911.4, -1068744.9, -13263.975, 0.0054805484, 0.22492097, -992600.9, 35121.203, 0.0, 10.000478, 9.999494 
4.5502064e+2, 2.051321e+2, -890197.5, -980983.3, -16053.883, 0.009864347, 0.22831134, -887442.25, 42285.41, 0.0, 10.000581, 9.999373 
4.550277e+2, 2.1513148e+2, -781328.6, -876779.8, -10850.66, 0.009301318, 0.22643839, -780110.7, 51623.527, 0.0, 10.000651, 9.999382 
4.550348e+2, 2.2513077e+2, -691442.3, -826753.75, -1449.1211, -0.0014186447, 0.23906776, -691426.8, 42315.207, 0.0, 10.000785, 9.998989 
4.5504192e+2, 2.3513003e+2, -564809.4, -714081.8, -3638.2207, -0.02022197, 0.26165256, -564720.75, 71030.0, 0.0, 10.0009775, 9.998997 
4.5504925e+2, 2.4512906e+2, -464983.63, -652836.94, -1934.3236, -0.020152804, 0.28504512, -464963.72, 72798.42, 0.0, 10.001151, 9.998661 
4.550568e+2, 2.5512797e+2, -342470.13, -540532.1, -1215.7429, -0.00372137, 0.30474463, -342462.66, 97313.08, 0.0, 10.001309, 9.998683 
4.5506424e+2, 2.6512668e+2, -211728.11, -419611.16, 15124.521, -0.018133776, 0.30628157, -210633.5, 131155.31, 0.0, 10.001503, 9.998748 
4.5507166e+2, 2.7512527e+2, -79568.24, -304713.44, 16027.776, -0.058252305, 0.28774083, -78432.97, 165368.19, 0.0, 10.001736, 9.998752 
4.5507953e+2, 2.851237e+2, 3862.384, -300545.06, 14178.351, -0.050750077, 0.29906768, 4521.341, 150337.45, 0.0, 10.00201, 9.997975 
4.5508778e+2, 2.9512206e+2, 145921.95, -182750.02, 9908.781, -0.0068980856, 0.33318827, 146220.42, 194053.9, 0.0, 10.002319, 9.997963 
4.5509455e+2, 3.0511898e+2, 178427.56, -211498.48, -22439.49, -0.06769432, 0.2614256, 179714.66, 179714.66, 0.00000000000087855477, 10.002507, 9.99734 
4.5510226e+2, 3.1511715e+2, 328868.63, 86275.48, 10589.776, 0.0050645983, 0.33982584, 329330.0, 329330.0, 0.00000014519496, 10.002572, 9.999353 
4.6496472e+2, 1.2512442e+2, -1765617.8, -1785612.5, 84713.59, 0.046582475, 0.17842402, -1690313.6, 23486.303, 0.000004581255, 9.999856, 9.999582 
4.6497074e+2, 1.3512483e+2, -1637894.4, -1604236.1, -84022.945, 0.058933143, 0.20100848, -1535373.5, 80424.54, 0.0000007444035, 9.999754, 10.000208 
4.6497658e+2, 1.4512527e+2, -1547542.8, -1513574.0, -6160.099, -0.029702784, 0.22534652, -1512491.4, 5303.66, 0.0000000034677494, 9.999722, 10.00017 
4.6498477e+2, 1.5512574e+2, -1448263.0, -1416768.4, -5370.5703, 0.011606272, 0.25368464, -1415877.8, 3913.4675, 0.0, 9.999739, 10.000152 
4.6499243e+2, 1.6512577e+2, -1339094.8, -1323553.4, -28103.127, 0.035639044, 0.24987543, -1302166.4, 19623.986, 0.0, 9.99986, 10.000061 
4.6499935e+2, 1.7512551e+2, -1207799.1, -1208494.6, -29805.266, 0.012384709, 0.2133856, -1178339.5, 45452.35, 0.0, 10.000084, 10.00007 
4.6500647e+2, 1.8512528e+2, -1127876.3, -1178766.3, -23547.988, -0.0012673225, 0.21081112, -1118652.0, 7141.8354, 0.0, 10.0002165, 9.9995365 
4.650138e+2, 1.9512507e+2, -1022916.56, -1076530.1, -17206.303, 0.0049820254, 0.23585707, -1017869.6, 9926.64, 0.0, 10.00026, 9.999544 
4.6502116e+2, 2.0512456e+2, -911390.9, -992027.7, -17732.658, 0.011980671, 0.23898497, -907663.6, 22138.148, 0.0, 10.00044, 9.999366 
4.6502846e+2, 2.1512374e+2, -768404.94, -871421.3, -23353.275, 0.01557893, 0.21827178, -763358.1, 68451.87, 0.0, 10.000744, 9.999374 
4.6503568e+2, 2.2512303e+2, -672906.7, -815318.3, -19026.137, 0.0026496984, 0.22979069, -670408.6, 63409.223, 0.0, 10.000901, 9.999011 
4.6504283e+2, 2.3512247e+2, -571156.75, -714315.2, -15259.597, -0.024642713, 0.26800627, -569548.3, 66276.75, 0.0, 10.000922, 9.999022 
4.6505034e+2, 2.4512157e+2, -476784.9, -660025.7, -7360.0884, -0.022166634, 0.29694214, -476489.75, 61346.05, 0.0, 10.001078, 9.998647 
4.6505824e+2, 2.551204e+2, -336026.75, -539355.0, -9137.276, 0.0073750354, 0.31296983, -335616.97, 104232.73, 0.0, 10.001362, 9.998666 
4.650659e+2, 2.65119e+2, -199163.06, -422299.0, 3153.2317, -0.007937792, 0.30471137, -199118.52, 142745.5, 0.0, 10.001627, 9.99867 
4.650734e+2, 2.7511734e+2, -65003.406, -306202.0, -3139.4749, -0.062511, 0.27039844, -64962.55, 178915.94, 0.0, 10.001873, 9.998676 
4.650815e+2, 2.8511584e+2, 9184.759, -296115.0, -5379.118, -0.055406313, 0.28895342, 9279.505, 155172.44, 0.0, 10.002038, 9.9979925 
4.650901e+2, 2.951145e+2, 119559.195, -193061.34, -1362.5319, 0.001524141, 0.35214376, 119565.13, 167472.47, 0.0, 10.002128, 9.997985 
4.6509704e+2, 3.0511114e+2, 167558.77, -220035.86, -26294.252, -0.06416123, 0.25568712, 169334.42, 169334.42, 0.00000000000042122027, 10.002445, 9.997312 
4.6510485e+2, 3.1510916e+2, 374724.1, 91229.875, 3309.2341, -0.009659241, 0.31996933, 374762.72, 374762.72, 0.00000014428599, 10.002959, 9.999202 
4.7496378e+2, 1.2511611e+2, -1743692.8, -1738183.8, 88597.04, -0.032821603, 0.19060317, -1652298.4, 61584.79, 0.0000033199578, 9.999848, 9.999911 
4.7497067e+2, 1.3511685e+2, -1613452.9, -1553492.4, -87231.6, 0.07677006, 0.20967145, -1491232.9, 124643.555, 0.00000048107097, 9.999753, 10.000557 
4.749765e+2, 1.4511745e+2, -1546739.1, -1511614.5, -5242.098, -0.009057374, 0.23258552, -1510848.9, 7022.196, 0.000000000765976, 9.99972, 10.000183 
4.7498462e+2, 1.5511765e+2, -1447274.5, -1414593.0, -4344.6484, 0.021310123, 0.23441795, -1414025.3, 5844.5537, 0.0, 9.999739, 10.000167 
4.7499236e+2, 1.6511774e+2, -1343776.8, -1333228.6, -19582.201, 0.04411455, 0.2358427, -1318222.6, 3646.372, 0.0, 9.99986, 9.999994 
4.749996e+2, 1.7511773e+2, -1212398.0, -1217945.1, -21122.98, 0.026279671, 0.23465914, -1193867.3, 30000.986, 0.0, 10.000083, 10.000005 
4.7500676e+2, 1.8511754e+2, -1116481.4, -1155037.3, -21819.557, 0.005965717, 0.22952418, -1106643.5, 19226.355, 0.0, 10.000216, 9.9997 
4.7501397e+2, 1.9511713e+2, -1011606.75, -1053084.8, -15249.232, -0.0048057833, 0.2165976, -1006603.9, 21269.611, 0.0, 10.00026, 9.999705 
4.750215e+2, 2.0511654e+2, -922015.25, -1013922.7, -6253.089, 0.0039788787, 0.21375404, -921591.75, 8287.822, 0.0, 10.000439, 9.999216 
4.7502932e+2, 2.1511582e+2, -778929.75, -892994.5, -11941.116, 0.026884299, 0.21657038, -777693.06, 54194.715, 0.0, 10.000743, 9.999228 
4.7503674e+2, 2.2511515e+2, -665879.25, -800669.0, -18441.797, 0.018960357, 0.23344989, -663401.6, 70493.92, 0.0, 10.000901, 9.999112 
4.7504383e+2, 2.3511456e+2, -563954.6, -699333.0, -14491.471, -0.01656309, 0.26063243, -562420.75, 73481.76, 0.0, 10.000921, 9.9991255 
4.750514e+2, 2.4511367e+2, -479958.97, -666833.75, 3039.7375, -0.023295913, 0.28741688, -479909.53, 58003.332, 0.0, 10.001078, 9.9986 
4.7505948e+2, 2.5511253e+2, -339576.03, -546913.56, 1351.7263, -0.0035025657, 0.30945578, -339567.22, 100359.02, 0.0, 10.001362, 9.998613 
4.750675e+2, 2.6511103e+2, -211281.3, -447388.1, 12164.528, -0.011056488, 0.3046842, -210656.22, 131285.42, 0.0, 10.001627, 9.998498 
4.7507548e+2, 2.7510923e+2, -77003.01, -330671.75, 5834.272, -0.041960225, 0.27085522, -76868.89, 167089.83, 0.0, 10.001871, 9.998508 
4.7508386e+2, 2.8510773e+2, 18097.342, -277516.28, -2332.53, -0.02309276, 0.29215315, 18115.746, 164088.69, 0.0, 10.002038, 9.998121 
4.7509253e+2, 2.9510656e+2, 129009.69, -174093.48, 2124.838, 0.034848392, 0.3609684, 129024.586, 177008.98, 0.0, 10.00213, 9.998114 
4.750995e+2, 3.0510303e+2, 165011.03, -225173.3, -7015.154, -0.060175896, 0.23883413, 165137.13, 165137.13, 0.0, 10.002445, 9.997276 
4.751073e+2, 3.1510088e+2, 361278.8, 64283.14, 20051.652, -0.06236044, 0.29699433, 362626.47, 362626.47, 0.00000012581201, 10.002955, 9.999019 
4.8496318e+2, 1.2510806e+2, -1795218.3, -1743595.0, 85011.17, -0.057578243, 0.23712984, -1680563.3, 33401.1, 0.0000022837717, 9.999413, 10.000084 
4.849704e+2, 1.3510865e+2, -1663182.3, -1556530.4, -109777.125, 0.09635909, 0.22118938, -1487812.5, 128145.39, 0.0000002759338, 9.999322, 10.000745 
4.849761e+2, 1.451093e+2, -1583297.0, -1523323.0, -23086.62, -0.00790243, 0.23753011, -1515465.5, 2485.7368, 0.000000000009128432, 9.999443, 10.000237 
4.8498437e+2, 1.5510947e+2, -1443994.9, -1407194.5, -19410.244, 0.024726598, 0.23083349, -1398849.1, 21100.723, 0.0, 9.999735, 10.00022 
4.8499227e+2, 1.6510956e+2, -1341009.1, -1331692.0, -32212.758, 0.048710346, 0.2299444, -1303802.6, 18146.271, 0.0, 9.999877, 9.999997 
4.849996e+2, 1.7510961e+2, -1242400.0, -1232166.9, -28486.84, 0.028741635, 0.23281546, -1208340.8, 15607.297, 0.0, 9.999875, 10.000009 
4.8500687e+2, 1.8510942e+2, -1143199.5, -1162705.6, -29160.242, 0.009073476, 0.22759838, -1122204.5, 3744.9158, 0.0, 10.000009, 9.999747 
4.8501432e+2, 1.9510902e+2, -1006784.8, -1045402.9, -31323.582, 0.0023363158, 0.21058036, -989297.06, 38655.89, 0.0, 10.00027, 9.999754 
4.85022e+2, 2.051085e+2, -920248.2, -1012493.06, -18711.16, 0.008609802, 0.20967701, -916597.3, 13361.3125, 0.0, 10.000447, 9.999222 
4.850299e+2, 2.1510784e+2, -807196.7, -905885.3, -12596.794, 0.022336256, 0.22011761, -805614.2, 26352.0, 0.0, 10.0005455, 9.999234 
4.8503754e+2, 2.2510716e+2, -694023.94, -820477.44, -21151.264, 0.018394094, 0.23855165, -690579.9, 43394.32, 0.0, 10.000734, 9.999057 
4.8504493e+2, 2.3510648e+2, -555053.0, -701243.0, -29175.385, -0.00053092587, 0.26197672, -549445.5, 86536.805, 0.0, 10.00101, 9.999069 
4.8505268e+2, 2.4510553e+2, -455721.1, -653961.56, -11972.532, -0.01224745, 0.284868, -455000.66, 82992.27, 0.0, 10.00124, 9.9986105 
4.8506072e+2, 2.5510436e+2, -329214.47, -540767.5, -9503.663, -0.018514898, 0.30231798, -328788.4, 111217.46, 0.0, 10.001429, 9.998624 
4.85069e+2, 2.6510277e+2, -221960.16, -465410.97, 4656.611, -0.022861056, 0.29775885, -221871.11, 120150.69, 0.0, 10.001609, 9.998383 
4.8507747e+2, 2.7510092e+2, -98615.04, -353804.22, 2504.1265, -0.02249161, 0.26884016, -98590.47, 145449.98, 0.0, 10.001778, 9.998395 
4.8508614e+2, 2.8509942e+2, 24223.629, -267378.8, -5111.9443, 0.0017141957, 0.29296735, 24313.217, 170367.77, 0.0, 10.0020485, 9.998185 
4.8509485e+2, 2.9509836e+2, 175106.38, -144300.89, -5186.431, 0.040095482, 0.36296615, 175190.58, 223254.83, 0.0, 10.002414, 9.998182 
4.8510203e+2, 3.0509466e+2, 197542.33, -211562.39, -12070.561, -0.06560741, 0.22390006, 197898.16, 197898.16, 0.0, 10.002677, 9.997259 
4.851101e+2, 3.150926e+2, 329087.13, 27923.79, 13411.058, -0.06950469, 0.28897965, 329683.13, 329683.13, 0.00000009052117, 10.002824, 9.998833 
4.9496284e+2, 1.2510027e+2, -1796029.8, -1742764.4, 86342.21, -0.029765146, 0.31873417, -1679040.6, 35002.914, 0.0000015131136, 9.999402, 10.000094 
4.9496993e+2, 1.3510017e+2, -1661753.1, -1553568.3, -112662.86, 0.1165304, 0.23479858, -1482685.0, 133358.0, 0.00000014199817, 9.99932, 10.000767 
4.9497533e+2, 1.4510079e+2, -1576624.3, -1509392.1, -12118.045, -0.02801043, 0.23946412, -1507274.6, 10761.263, 0.0, 9.999442, 10.000334 
4.9498406e+2, 1.5510117e+2, -1437390.9, -1393563.6, -8618.956, 0.020751048, 0.24391097, -1391929.6, 28101.719, 0.0, 9.999736, 10.000314 
4.9499217e+2, 1.6510123e+2, -1335481.0, -1320462.6, -32412.268, 0.048403904, 0.2332801, -1294701.1, 27328.986, 0.0, 9.999878, 10.000074 
4.9499935e+2, 1.7510107e+2, -1236919.5, -1220961.8, -28272.242, 0.018976055, 0.20775989, -1199564.1, 24467.29, 0.0, 9.999876, 10.000085 
4.9500686e+2, 1.8510093e+2, -1147903.4, -1172270.4, -19301.492, 0.0073633255, 0.2045302, -1137261.8, -11228.815, 0.0, 10.000009, 9.999682 
4.950148e+2, 1.9510075e+2, -1011333.9, -1054685.0, -21412.496, 0.025839314, 0.21778244, -1002541.0, 25493.672, 0.0, 10.000269, 9.999691 
4.9502262e+2, 2.0510037e+2, -908854.75, -988810.9, -15134.109, 0.025261698, 0.22700705, -906086.0, 23952.889, 0.0, 10.000447, 9.999385 
4.9503025e+2, 2.1509981e+2, -795798.8, -882322.9, -8793.15, 0.0017751065, 0.22876953, -794914.25, 37130.938, 0.0, 10.0005455, 9.999396 
4.950381e+2, 2.2509907e+2, -708958.1, -851523.8, -10877.695, 0.0006493747, 0.24487174, -708132.94, 25920.904, 0.0, 10.000734, 9.998843 
4.9504617e+2, 2.3509823e+2, -569996.6, -732359.9, -18960.424, 0.02298303, 0.27219868, -567811.9, 68252.484, 0.0, 10.00101, 9.998857 
4.9505413e+2, 2.4509713e+2, -451089.97, -644414.8, -5052.3105, 0.01029409, 0.28932744, -450958.0, 87117.98, 0.0, 10.00124, 9.998676 
4.9506196e+2, 2.5509587e+2, -324550.44, -531092.5, -2443.0444, -0.037997607, 0.29153258, -324521.53, 115566.99, 0.0, 10.001429, 9.998691 
4.9507037e+2, 2.650943e+2, -226098.13, -474198.56, 10753.186, -0.043588087, 0.28408933, -225632.94, 116471.61, 0.0, 10.00161, 9.998322 
4.9507943e+2, 2.7509242e+2, -102753.95, -362697.7, 8780.526, -0.0045241388, 0.26438084, -102457.695, 141666.0, 0.0, 10.001779, 9.998333 
4.9508834e+2, 2.8509098e+2, 24208.967, -267073.34, 8373.118, 0.01885474, 0.2914205, 24449.459, 170587.25, 0.0, 10.002048, 9.998188 
4.9509704e+2, 2.9508984e+2, 175335.94, -143029.1, 8457.079, 0.018027607, 0.35849327, 175560.42, 223707.31, 0.0, 10.00241, 9.998192 
4.9510455e+2, 3.0508608e+2, 196793.47, -211953.27, -6614.131, -0.08050044, 0.21081185, 196900.47, 196900.47, 0.0, 10.002672, 9.997258 
4.9511328e+2, 3.1508416e+2, 315114.47, 295.5199, 16999.063, -0.0348471, 0.29249188, 316029.7, 316029.7, 0.000000050936965, 10.002818, 9.998646 
5.0496215e+2, 1.2509175e+2, -1858855.5, -1775067.9, 108613.21, -0.014385696, 0.31339076, -1700549.0, 13578.113, 0.0000009949754, 9.9989805, 10.000076 
5.049695e+2, 1.3509168e+2, -1629672.9, -1540869.3, -96133.586, 0.12918322, 0.2348758, -1479378.8, 136748.03, 0.000000065122016, 9.999552, 10.000743 
5.049747e+2, 1.450924e+2, -1529975.5, -1477223.4, -6861.0103, -0.05008417, 0.24729957, -1476345.6, 41772.727, 0.0, 9.99972, 10.000421 
5.0498366e+2, 1.5509266e+2, -1473652.3, -1401561.9, -4575.954, 0.02292447, 0.23159808, -1401272.6, 18841.533, 0.0, 9.999445, 10.000399 
5.049919e+2, 1.6509274e+2, -1392665.3, -1349871.3, -25608.738, 0.057807118, 0.21989933, -1337897.0, -15784.302, 0.0, 9.999492, 10.000059 
5.049992e+2, 1.7509276e+2, -1241859.4, -1225090.6, -28466.832, 0.018284917, 0.21275246, -1203799.1, 20314.03, 0.0, 9.999848, 10.000071 
5.050069e+2, 1.8509267e+2, -1139401.4, -1168213.1, -20645.104, 0.005597634, 0.2163535, -1128632.9, -2518.2644, 0.0, 10.000066, 9.999683 
5.050151e+2, 1.9509247e+2, -1029340.06, -1063337.9, -17846.234, 0.0316799, 0.22505376, -1021692.5, 6424.294, 0.0, 10.000144, 9.999692 
5.0502306e+2, 2.0509212e+2, -928664.0, -996473.25, -14528.433, 0.03241341, 0.23767054, -925682.3, 4438.282, 0.0, 10.000302, 9.999403 
5.050308e+2, 2.1509168e+2, -795900.8, -880391.3, -19169.111, 0.0040859557, 0.25039312, -791755.1, 40370.555, 0.0, 10.000536, 9.999414 
5.0503886e+2, 2.2509089e+2, -706685.6, -860737.94, -17699.28, 0.000027468317, 0.26554134, -704678.3, 29456.525, 0.0, 10.000794, 9.998752 
5.050472e+2, 2.3508982e+2, -566684.4, -741184.1, -16854.598, 0.021097248, 0.28027073, -565071.3, 71076.195, 0.0, 10.001078, 9.998763 
5.050554e+2, 2.4508862e+2, -445231.5, -640510.7, -5207.652, 0.013855725, 0.28944397, -445092.72, 93067.305, 0.0, 10.001275, 9.998686 
5.0506353e+2, 2.5508735e+2, -329364.94, -532396.44, -6831.955, -0.022489175, 0.28874195, -329135.3, 111036.87, 0.0, 10.001391, 9.998699 
5.050721e+2, 2.6508576e+2, -229436.34, -481528.34, 8010.19, -0.028228765, 0.2846019, -229182.08, 113005.89, 0.0, 10.001612, 9.99827 
5.0508136e+2, 2.7508396e+2, -84436.52, -359831.97, 6497.516, -0.0011212021, 0.27370158, -84283.31, 159923.84, 0.0, 10.00193, 9.99828 
5.050904e+2, 2.850824e+2, 33705.637, -270191.94, 3570.552, 0.016879821, 0.2984538, 33747.582, 179969.75, 0.0, 10.002146, 9.998119 
5.0509936e+2, 2.9508108e+2, 148416.95, -163047.3, -1889.1447, 0.017711157, 0.35362828, 148428.4, 196661.34, 0.0, 10.002256, 9.998129 
5.0510716e+2, 3.0507737e+2, 171501.78, -210359.67, -16787.129, -0.07738832, 0.20742762, 172238.34, 172238.34, 0.0, 10.0024395, 9.997381 
5.0511605e+2, 3.150759e+2, 289175.53, -20430.791, 13296.605, -0.029648729, 0.3194213, 289745.53, 289745.53, 0.000000020855737, 10.002675, 9.998572 
5.149611e+2, 1.2508246e+2, -1863301.8, -1782566.1, 130369.03, -0.015499237, 0.22087783, -1686458.1, 27756.883, 0.00000067894854, 9.998974, 10.000028 
5.1496905e+2, 1.3508312e+2, -1634756.1, -1551480.9, -74703.14, 0.13299093, 0.22234412, -1507595.1, 108614.16, 0.000000029496794, 9.999551, 10.000671 
5.149742e+2, 1.4508413e+2, -1524562.1, -1465737.8, -17366.346, -0.07623885, 0.2620312, -1460993.4, 57205.414, 0.0, 9.999719, 10.0005 
5.1498324e+2, 1.5508392e+2, -1467993.6, -1389743.8, -15084.634, 0.030279944, 0.19378129, -1386936.5, 33261.867, 0.0, 9.999445, 10.00048 
5.149916e+2, 1.650841e+2, -1400059.3, -1365083.4, -12552.908, 0.076439686, 0.189638, -1361044.5, -38847.688, 0.0, 9.999491, 9.999955 
5.1499915e+2, 1.7508465e+2, -1249009.4, -1239938.8, -15114.756, 0.025839189, 0.24803503, -1228693.6, -4500.037, 0.0, 9.999848, 9.999969 
5.150069e+2, 1.8508466e+2, -1134663.9, -1158365.5, -17751.936, 0.002728601, 0.26347506, -1125170.5, 1023.9272, 0.0, 10.000066, 9.999751 
5.1501507e+2, 1.9508412e+2, -1024699.56, -1053627.0, -14830.665, 0.019545296, 0.23251405, -1018447.4, 9751.851, 0.0, 10.000144, 9.999759 
5.150233e+2, 2.0508373e+2, -937544.4, -1014666.3, -5839.3613, 0.029664489, 0.24144249, -937104.75, -6900.998, 0.0, 10.000301, 9.999278 
5.150316e+2, 2.1508346e+2, -804624.3, -898351.9, -10402.517, 0.028594574, 0.28498858, -803483.7, 28723.957, 0.0, 10.000535, 9.999291 
5.150398e+2, 2.2508264e+2, -704993.2, -857207.44, -7135.3457, 0.015895603, 0.30077848, -704659.44, 29557.672, 0.0, 10.000794, 9.998776 
5.1504797e+2, 2.350813e+2, -564964.25, -737642.5, -6257.5894, -0.0061532916, 0.28608146, -564737.75, 71494.01, 0.0, 10.001078, 9.998788 
5.150565e+2, 2.4507998e+2, -448466.22, -647417.94, -1087.3823, -0.0018531514, 0.285025, -448460.25, 89784.83, 0.0, 10.001276, 9.998638 
5.150654e+2, 2.5507873e+2, -332450.0, -539283.8, -2591.2935, 0.026794586, 0.29371572, -332417.53, 107839.305, 0.0, 10.001393, 9.9986515 
5.1507425e+2, 2.650772e+2, -232438.58, -488093.0, 19734.123, 0.022202702, 0.2989236, -230924.25, 111347.914, 0.0, 10.001614, 9.998225 
5.1508313e+2, 2.7507544e+2, -87814.79, -366637.3, 18268.924, -0.012219926, 0.29654896, -86622.87, 157668.02, 0.0, 10.001929, 9.998234 
5.150924e+2, 2.850737e+2, 23423.102, -290972.44, 7497.4233, -0.004420438, 0.31400287, 23601.793, 169909.5, 0.0, 10.002144, 9.997977 
5.151018e+2, 2.9507205e+2, 138424.63, -183316.47, 2372.9976, 0.037306324, 0.3480508, 138442.14, 186764.53, 0.0, 10.0022545, 9.997991 
5.151097e+2, 3.050685e+2, 188374.08, -174983.72, -8045.057, -0.05770464, 0.21263702, 188552.11, 188552.11, 0.0, 10.002438, 9.997625 
5.1511854e+2, 3.1506768e+2, 291782.25, -14657.32, 19565.428, -0.05360417, 0.36763838, 293026.4, 293026.4, 0.0000000053166334, 10.002673, 9.998612 
5.2496034e+2, 1.2507361e+2, -1777495.0, -1736125.9, 117812.76, -0.019544305, 0.18861836, -1637195.6, 77104.84, 0.0000005002885, 9.999542, 10.000071 
5.2496845e+2, 1.3507454e+2, -1718584.5, -1591648.1, -79969.266, 0.14634454, 0.21540724, -1553021.8, 63270.97, 0.000000016983103, 9.998975, 10.000673 
5.2497333e+2, 1.4507571e+2, -1628825.4, -1514911.3, -17924.361, -0.09488397, 0.27281645, -1512157.5, 6123.3857, 0.0, 9.998999, 10.00051 
5.249827e+2, 1.5507534e+2, -1453772.9, -1381815.0, -21649.004, 0.027171053, 0.18565178, -1375803.9, 44478.336, 0.0, 9.999537, 10.000489 
5.249913e+2, 1.6507548e+2, -1358405.1, -1350908.0, -18373.955, 0.079475716, 0.18170325, -1335904.1, -13622.88, 0.0, 9.999802, 9.999903 
5.2499896e+2, 1.7507619e+2, -1260324.1, -1251190.1, -17479.566, 0.024213908, 0.25913674, -1237690.8, -13413.735, 0.0, 9.999796, 9.999917 
5.2500683e+2, 1.8507625e+2, -1155076.0, -1166323.6, -20608.434, -0.0012261707, 0.2813238, -1139337.8, -13060.209, 0.0, 9.999917, 9.999768 
5.250152e+2, 1.9507566e+2, -1021458.94, -1050276.0, -21700.604, 0.015816012, 0.24484548, -1009819.06, 18463.447, 0.0, 10.000158, 9.999775 
5.2502364e+2, 2.0507514e+2, -936630.0, -1026251.44, -12318.371, 0.030366717, 0.24718149, -934967.7, -4679.667, 0.0, 10.000359, 9.999171 
5.2503216e+2, 2.1507472e+2, -814275.75, -914967.94, -15884.56, 0.037490137, 0.28368917, -811829.3, 20464.557, 0.0, 10.00052, 9.999185 
5.2504057e+2, 2.2507386e+2, -717865.94, -861791.9, -10566.812, 0.023552561, 0.2994244, -717094.25, 17209.443, 0.0, 10.000699, 9.998791 
5.25049e+2, 2.3507258e+2, -589484.56, -747778.2, -10482.506, -0.008900152, 0.2908269, -588793.44, 47523.836, 0.0, 10.000902, 9.998802 
5.2505773e+2, 2.4507125e+2, -465389.75, -669597.1, -7226.866, -0.0035664728, 0.29213873, -465134.3, 73196.68, 0.0, 10.001221, 9.998512 
5.2506703e+2, 2.5506985e+2, -304028.6, -539613.7, -14778.51, 0.03707951, 0.3000195, -303105.13, 137239.48, 0.0, 10.00165, 9.998526 
5.250761e+2, 2.650683e+2, -204043.17, -477137.72, -325.3309, 0.03463338, 0.309057, -204042.78, 138317.64, 0.0, 10.001821, 9.998199 
5.2508503e+2, 2.7506658e+2, -117407.195, -383535.22, -407.2518, -0.007350731, 0.31464124, -117406.57, 126971.67, 0.0, 10.001739, 9.998209 
5.2509445e+2, 2.8506476e+2, -17885.668, -320494.7, -3151.0928, -0.001840904, 0.32852492, -17852.857, 128543.11, 0.0, 10.001902, 9.99789 
5.251041e+2, 2.9506287e+2, 139231.5, -192149.9, -4130.6064, 0.042751223, 0.34884048, 139282.98, 187696.17, 0.0, 10.002299, 9.997908 
5.2511233e+2, 3.0505934e+2, 215557.02, -143769.34, -19029.258, -0.051146213, 0.21447816, 216561.95, 216561.95, 0.0, 10.002547, 9.9977865 
5.2512115e+2, 3.150587e+2, 283686.03, -22203.193, -66.040695, -0.051373444, 0.36953893, 283686.06, 283686.06, 0.00000000056215, 10.002634, 9.998579 
5.349598e+2, 1.2506522e+2, -1768599.4, -1717240.0, 91628.375, -0.032207947, 0.21729292, -1647760.9, 66622.71, 0.00000041209, 9.999541, 10.000199 
5.3496766e+2, 1.3506591e+2, -1713040.1, -1580644.3, -101046.67, 0.16876645, 0.21461911, -1526042.4, 90334.914, 0.000000018082496, 9.998975, 10.000749 
5.349722e+2, 1.4506719e+2, -1633688.0, -1524490.4, 2317.2844, -0.10653198, 0.28025725, -1524441.3, -6076.725, 0.0, 9.998996, 10.000445 
5.349821e+2, 1.550669e+2, -1458344.4, -1391088.1, -1838.2594, 0.012273068, 0.20782913, -1391037.9, 29327.854, 0.0, 9.9995365, 10.000426 
5.349909e+2, 1.6506694e+2, -1358581.6, -1351048.1, -19048.578, 0.065179326, 0.19642568, -1335397.5, -13031.629, 0.0, 9.999801, 9.999902 
5.349986e+2, 1.7506737e+2, -1260451.9, -1251313.6, -17740.75, 0.01296618, 0.24627317, -1237563.0, -13199.265, 0.0, 9.999795, 9.999917 
5.350067e+2, 1.8506742e+2, -1157670.1, -1171397.3, -11664.251, -0.006629, 0.2699377, -1150999.9, -24635.85, 0.0, 9.999915, 9.999734 
5.350154e+2, 1.950671e+2, -1023832.0, -1055112.8, -12736.37, 0.019903893, 0.26206312, -1019302.2, 9064.367, 0.0, 10.000157, 9.9997425 
5.3502405e+2, 2.0506644e+2, -943173.4, -1039635.5, -6383.5527, 0.033890557, 0.25533047, -942752.8, -12379.276, 0.0, 10.000358, 9.99908 
5.3503263e+2, 2.1506545e+2, -820776.9, -928418.6, -9870.191, 0.030531358, 0.24680528, -819879.3, 12505.099, 0.0, 10.00052, 9.999092 
5.3504133e+2, 2.2506453e+2, -717363.9, -860978.4, -3131.048, 0.022501212, 0.2613966, -717295.6, 17099.008, 0.0, 10.0007, 9.9987955 
5.3505003e+2, 2.3506367e+2, -588942.44, -747042.5, -2898.4343, 0.012173811, 0.29449087, -588889.3, 47514.6, 0.0, 10.000903, 9.998807 
5.350591e+2, 2.450624e+2, -479526.28, -699122.3, 8830.266, 0.00816696, 0.31082642, -479171.78, 59245.89, 0.0, 10.001222, 9.99831 
5.3506833e+2, 2.550607e+2, -318490.3, -569423.4, 1229.714, 0.008874652, 0.30784783, -318484.28, 121951.19, 0.0, 10.001648, 9.998322 
5.3507763e+2, 2.6505902e+2, -204742.1, -478322.53, -3575.1216, 0.009401953, 0.31508154, -204695.38, 137757.31, 0.0, 10.00182, 9.998192 
5.35087e+2, 2.7505735e+2, -117849.016, -384756.44, -3432.237, 0.012289007, 0.32765922, -117804.89, 126664.37, 0.0, 10.0017395, 9.9982 
5.350966e+2, 2.8505552e+2, -20284.768, -325508.2, 11738.61, 0.023294654, 0.34179345, -19833.977, 126653.01, 0.0, 10.001902, 9.997856 
5.351063e+2, 2.9505357e+2, 136531.3, -196828.81, 10924.904, 0.034571487, 0.35675013, 136888.95, 185394.22, 0.0, 10.0022955, 9.997877 
5.351148e+2, 3.0505e+2, 220585.42, -132207.13, -15825.84, -0.05770931, 0.21420915, 221293.92, 221293.92, 0.0, 10.0025425, 9.997869 
5.35124e+2, 3.15049e+2, 276199.44, -37112.188, 1470.6527, -0.026581563, 0.32760867, 276206.34, 276206.34, 0.0000000000003731001, 10.00263, 9.998479 
5.449589e+2, 1.2505683e+2, -1880196.6, -1755574.1, 74494.375, -0.03054472, 0.2613908, -1720766.3, -6299.0063, 0.00000036785775, 9.99871, 10.000338 
5.449668e+2, 1.3505712e+2, -1683652.3, -1558558.6, -111826.19, 0.17943569, 0.20897675, -1492975.8, 123487.96, 0.000000024396927, 9.999142, 10.00082 
5.449711e+2, 1.4505836e+2, -1581574.6, -1508870.4, 3169.0894, -0.1318055, 0.27396157, -1508732.5, 9718.441, 0.0, 9.999394, 10.00036 
5.4498136e+2, 1.5505825e+2, -1483013.6, -1412096.0, -3704.6814, 0.0008575298, 0.22480272, -1411903.0, 8548.529, 0.0, 9.999407, 10.000344 
5.4499054e+2, 1.6505823e+2, -1390944.9, -1363145.3, -25407.063, 0.061196204, 0.21175711, -1348084.4, -25632.414, 0.0, 9.999565, 9.999932 
5.449984e+2, 1.7505842e+2, -1248730.8, -1242303.4, -22127.355, 0.009908441, 0.23591548, -1223157.5, 1293.6804, 0.0, 9.999862, 9.999946 
5.450067e+2, 1.8505841e+2, -1139111.9, -1172339.9, -15129.292, -0.0071130595, 0.2551849, -1133255.5, -6803.495, 0.0, 10.000086, 9.999645 
5.4501563e+2, 1.9505817e+2, -1018369.44, -1062236.6, -20669.133, 0.02356513, 0.26403546, -1010165.06, 18289.053, 0.0, 10.000237, 9.999655 
5.450244e+2, 2.0505743e+2, -940070.8, -1047332.94, -16320.047, 0.034734014, 0.25917175, -937642.7, -7180.7583, 0.0, 10.00042, 9.998998 
5.4503316e+2, 2.1505624e+2, -810147.44, -932563.8, -19273.57, 0.021655636, 0.23752482, -807184.7, 25290.295, 0.0, 10.000632, 9.999009 
5.4504204e+2, 2.2505525e+2, -694828.6, -852640.4, -11635.071, 0.016751483, 0.2513532, -693975.44, 40510.22, 0.0, 10.000865, 9.998774 
5.4505116e+2, 2.3505451e+2, -559527.5, -735351.0, -13541.844, 0.022152508, 0.2961972, -558490.7, 78003.07, 0.0, 10.001116, 9.998785 
5.450605e+2, 2.4505317e+2, -477727.13, -710040.8, 2158.8862, 0.020440055, 0.31617022, -477707.1, 60800.758, 0.0, 10.001286, 9.998203 
5.450699e+2, 2.5505134e+2, -365637.56, -603962.2, 1659.6274, 0.010214996, 0.3087305, -365626.03, 74901.58, 0.0, 10.001376, 9.998215 
5.4507935e+2, 2.6504952e+2, -238096.72, -494508.03, -4238.366, 0.008068325, 0.31034115, -238026.69, 104519.086, 0.0, 10.001592, 9.99819 
5.450888e+2, 2.750478e+2, -91380.13, -372162.9, -3853.385, 0.016204767, 0.31562316, -91327.26, 153235.1, 0.0, 10.001923, 9.998198 
5.4509854e+2, 2.8504595e+2, 3481.6482, -321769.13, 13343.977, 0.02637942, 0.33331954, 4028.1895, 150608.33, 0.0, 10.002099, 9.9977865 
5.451085e+2, 2.950441e+2, 106649.984, -218488.66, 9839.268, 0.031210067, 0.36396685, 106947.46, 155545.84, 0.0, 10.002123, 9.997811 
5.4511726e+2, 3.050406e+2, 196797.78, -129288.26, -16197.722, -0.051906615, 0.2257116, 197600.39, 197600.39, 0.0, 10.002317, 9.997996 
5.45127e+2, 3.1503925e+2, 279144.34, -39367.727, 2217.456, -0.002292208, 0.29115376, 279159.78, 279159.78, 0.000000000015387011, 10.002667, 9.998445 
5.549577e+2, 1.250485e+2, -1869826.6, -1733666.3, 82010.19, -0.017740943, 0.32193515, -1695160.5, 19391.053, 0.0000003291145, 9.998709, 10.000488 
5.549659e+2, 1.3504815e+2, -1678509.5, -1548920.8, -95163.2, 0.17696126, 0.19858395, -1498587.6, 117964.59, 0.000000025104656, 9.9991455, 10.000886 
5.549701e+2, 1.4504927e+2, -1589021.8, -1524495.4, 3586.4233, -0.17303877, 0.25358328, -1524296.6, -5756.5737, 0.0, 9.999395, 10.000253 
5.549807e+2, 1.5504937e+2, -1490609.0, -1427525.0, -3483.7307, -0.0076441388, 0.23706213, -1427333.1, -6793.6934, 0.0, 9.999406, 10.000239 
5.549902e+2, 1.6504937e+2, -1387235.0, -1354871.3, -14392.795, 0.06755076, 0.22830814, -1349396.6, -26857.084, 0.0, 9.999562, 9.99999 
5.549983e+2, 1.750494e+2, -1244946.3, -1234105.0, -10986.104, 0.01436343, 0.22797751, -1227275.0, -2735.6904, 0.0, 9.99986, 10.000003 
5.5500686e+2, 1.8504922e+2, -1149421.3, -1193500.3, -9584.802, -0.0036691942, 0.23698594, -1147427.3, -20885.963, 0.0, 10.000084, 9.999501 
5.5501586e+2, 1.9504888e+2, -1028553.06, -1083228.9, -14979.153, 0.026511373, 0.2506691, -1024718.25, 3826.8862, 0.0, 10.0002365, 9.999512 
5.5502486e+2, 2.0504816e+2, -945489.75, -1058455.1, -8412.714, 0.032654397, 0.25823542, -944866.7, -14313.316, 0.0, 10.000419, 9.998921 
5.550336e+2, 2.1504709e+2, -815412.5, -943481.56, -11217.53, 0.010461688, 0.25563228, -814437.4, 18128.14, 0.0, 10.000632, 9.998935 
5.550428e+2, 2.2504604e+2, -698325.0, -859916.9, -2277.5144, 0.0058594914, 0.26934358, -698292.9, 36283.824, 0.0, 10.000865, 9.998723 
5.550522e+2, 2.3504505e+2, -562922.9, -742626.8, -4187.946, 0.020795912, 0.29604292, -562825.3, 73761.27, 0.0, 10.001117, 9.998734 
5.550619e+2, 2.4504362e+2, -478319.94, -711728.25, 5378.086, 0.03268075, 0.30814043, -478196.1, 60405.387, 0.0, 10.0012865, 9.998191 
5.550716e+2, 2.5504178e+2, -366206.2, -605707.5, 5132.5957, 0.039790113, 0.30250347, -366096.25, 74524.805, 0.0, 10.001378, 9.998201 
5.550812e+2, 2.650399e+2, -237923.03, -494467.44, 8143.3896, 0.02957192, 0.29509968, -237664.8, 104974.93, 0.0, 10.001593, 9.99819 
5.5509067e+2, 2.7503797e+2, -91524.414, -372285.4, 8469.055, 0.0046434905, 0.27995542, -91269.19, 153388.34, 0.0, 10.001922, 9.998198 
5.5510044e+2, 2.8503615e+2, -4409.3027, -337583.94, 13904.967, 0.0075372206, 0.30427834, -3829.9893, 142845.5, 0.0, 10.002097, 9.997679 
5.5511063e+2, 2.950345e+2, 98734.09, -234110.98, 10768.704, 0.031215634, 0.37017792, 99082.13, 147774.8, 0.0, 10.002119, 9.997705 
5.5511975e+2, 3.0503118e+2, 207822.67, -105298.89, -3061.8608, -0.03541055, 0.24828577, 207852.61, 207852.61, 0.0, 10.002313, 9.998163 
5.551298e+2, 3.150295e+2, 280193.22, -35907.844, 13387.759, 0.020583501, 0.2620891, 280759.22, 280759.22, 0.0000000020600701, 10.002662, 9.998471 
5.649562e+2, 1.2503956e+2, -1891501.8, -1729329.3, 87476.5, -0.029667847, 0.32373992, -1691138.0, 23501.348, 0.00000027083397, 9.998497, 10.000619 
5.649651e+2, 1.3503915e+2, -1707094.6, -1558833.4, -81141.42, 0.19259103, 0.19197041, -1523058.3, 93581.81, 0.000000017878008, 9.998932, 10.00092 
5.649693e+2, 1.4504029e+2, -1620897.6, -1554090.4, 1470.3204, -0.1838398, 0.2522197, -1554058.0, -35430.01, 0.0, 9.999239, 10.000124 
5.6498003e+2, 1.550403e+2, -1505861.0, -1448899.8, -8125.59, -0.013428422, 0.24125321, -1447763.4, -27134.37, 0.0, 9.999362, 10.000113 
5.6498975e+2, 1.6504027e+2, -1386531.3, -1352499.8, -13526.411, 0.06709243, 0.23338443, -1347778.4, -25149.035, 0.0, 9.999558, 10.000008 
5.649982e+2, 1.7504027e+2, -1249050.5, -1234073.5, -13633.099, 0.0194065, 0.22969586, -1226007.6, -1379.0315, 0.0, 9.999825, 10.00002 
5.650069e+2, 1.8504001e+2, -1162315.9, -1214937.4, -17127.744, -0.0034198207, 0.23605458, -1157232.1, -30600.793, 0.0, 10.000063, 9.999364 
5.65016e+2, 1.9503951e+2, -1032251.75, -1100250.4, -22239.559, 0.011606278, 0.24746007, -1025624.06, 3013.4624, 0.0, 10.0002775, 9.999374 
5.6502515e+2, 2.050388e+2, -936929.3, -1055671.3, -12122.857, 0.019981645, 0.26340473, -935704.25, -5058.3247, 0.0, 10.0004835, 9.998909 
5.650344e+2, 2.150379e+2, -809078.1, -941795.56, -10321.051, 0.01727155, 0.2800339, -808280.25, 24375.895, 0.0, 10.000682, 9.998922 
5.6504375e+2, 2.2503676e+2, -695264.56, -869871.7, 1959.7437, 0.016448162, 0.2904609, -695242.56, 39425.527, 0.0, 10.0009365, 9.998621 
5.650534e+2, 2.3503542e+2, -551234.44, -748468.4, -4064.8103, 0.019417364, 0.29172906, -551150.7, 85530.734, 0.0, 10.001247, 9.9986315 
5.650632e+2, 2.450339e+2, -451842.94, -697721.94, -2145.4026, 0.027694173, 0.29984432, -451824.22, 86872.8, 0.0, 10.001464, 9.998201 
5.650731e+2, 2.5503224e+2, -335442.63, -589570.4, -736.12366, 0.03949678, 0.31134373, -335440.47, 105274.086, 0.0, 10.001585, 9.998213 
5.6508285e+2, 2.6503032e+2, -222785.63, -491100.06, 6633.5645, 0.030237434, 0.3037051, -222621.73, 120111.44, 0.0, 10.001715, 9.998154 
5.6509244e+2, 2.750282e+2, -104052.05, -381960.03, 4128.1665, 0.002470508, 0.27059534, -103990.734, 140762.11, 0.0, 10.001852, 9.998164 
5.6510246e+2, 2.8502628e+2, -25344.271, -350663.78, 4510.538, 0.0068031736, 0.28995326, -25281.746, 121490.016, 0.0, 10.001966, 9.997652 
5.6511277e+2, 2.9502472e+2, 86496.55, -243161.23, 6891.4185, 0.036552235, 0.36581567, 86640.55, 135429.34, 0.0, 10.002049, 9.997677 
5.6512207e+2, 3.0502176e+2, 202879.92, -95907.734, 3577.5845, -0.028155848, 0.27270144, 202922.77, 202922.77, 0.0, 10.002228, 9.998269 
5.651324e+2, 3.1502002e+2, 255755.2, -48960.938, 13328.544, 0.01903106, 0.27254447, 256337.1, 256337.1, 0.000000017271022, 10.002499, 9.998461 
5.749543e+2, 1.2503e+2, -1883303.5, -1712945.4, 90312.93, -0.072922654, 0.2646618, -1673979.8, 40751.016, 0.00000019303324, 9.998501, 10.00073 
5.749644e+2, 1.3503018e+2, -1706754.5, -1558725.3, -64266.063, 0.22637454, 0.18995059, -1534718.0, 82009.055, 0.000000007774616, 9.998933, 10.000921 
5.7496876e+2, 1.4503144e+2, -1632320.5, -1577228.5, 6572.286, -0.16397294, 0.27091107, -1576455.4, -57740.66, 0.0, 9.999236, 9.999967 
5.749793e+2, 1.5503107e+2, -1516786.4, -1471292.8, -3388.6345, -0.017212596, 0.2368384, -1471041.6, -50321.82, 0.0, 9.999361, 9.99996 
5.749892e+2, 1.6503091e+2, -1388533.0, -1356470.5, -3735.0195, 0.058745272, 0.22641723, -1356041.1, -33319.652, 0.0, 9.9995575, 9.999982 
5.74998e+2, 1.7503107e+2, -1251004.5, -1238009.1, -3677.5166, 0.024685139, 0.2412976, -1237040.6, -12321.904, 0.0, 9.999824, 9.999994 
5.7500696e+2, 1.8503077e+2, -1171806.5, -1234468.1, -9085.779, -0.0066450634, 0.25249082, -1170515.6, -43793.645, 0.0, 10.000061, 9.99923 
5.750159e+2, 1.9503006e+2, -1041663.56, -1119635.4, -14128.137, -0.02137881, 0.25439903, -1039182.56, -10451.246, 0.0, 10.000277, 9.999243 
5.750254e+2, 2.0502934e+2, -933566.5, -1048511.4, -4877.189, -0.0037915467, 0.2748394, -933359.94, -2620.25, 0.0, 10.000483, 9.998959 
5.750353e+2, 2.1502869e+2, -805473.44, -934498.3, -2934.925, 0.04137658, 0.31047526, -805406.75, 27340.123, 0.0, 10.000683, 9.998972 
5.7504505e+2, 2.2502744e+2, -706143.9, -892627.44, 13532.447, 0.04774073, 0.31435382, -705166.94, 29592.828, 0.0, 10.0009365, 9.998464 
5.7505465e+2, 2.350256e+2, -562246.9, -771294.44, 7623.0337, 0.017791497, 0.28314272, -561969.25, 74808.99, 0.0, 10.001246, 9.998475 
5.750645e+2, 2.4502403e+2, -449701.8, -693215.94, 2238.0671, 0.005578954, 0.29107276, -449681.25, 89113.23, 0.0, 10.001463, 9.998233 
5.750743e+2, 2.5502273e+2, -333163.75, -585012.06, 3693.5654, 0.00979228, 0.33497584, -333109.6, 107698.61, 0.0, 10.001585, 9.998244 
5.7508427e+2, 2.6502088e+2, -227635.73, -501451.3, 11511.068, 0.010129618, 0.3357071, -227152.66, 115673.516, 0.0, 10.001716, 9.998082 
5.7509434e+2, 2.7501848e+2, -109224.664, -392282.75, 9194.956, 0.008575896, 0.28640854, -108926.29, 135922.16, 0.0, 10.00185, 9.998095 
5.751046e+2, 2.8501642e+2, -22701.22, -344382.3, 7561.643, 0.022638002, 0.2897243, -22523.57, 124345.53, 0.0, 10.001963, 9.997697 
5.751149e+2, 2.9501477e+2, 89317.914, -237164.9, 10058.142, 0.04639487, 0.35156628, 89627.49, 138514.39, 0.0, 10.0020485, 9.997719 
5.7512426e+2, 3.0501223e+2, 205931.95, -88800.266, 13396.132, -0.030607248, 0.2987086, 206539.58, 206539.58, 0.00000000021282408, 10.002224, 9.99832 
5.751346e+2, 3.1501082e+2, 251102.27, -55460.92, 21565.648, -0.007978044, 0.32208434, 252611.9, 252611.9, 0.0000000699572, 10.002484, 9.998423 
5.849527e+2, 1.2502041e+2, -1900340.5, -1733695.8, 73963.79, -0.078683265, 0.22804987, -1705603.4, 9219.17, 0.00000011738098, 9.998439, 10.000616 
5.8496326e+2, 1.3502076e+2, -1734211.8, -1596661.9, -82639.11, 0.22479232, 0.19263577, -1557923.1, 58896.438, 0.0000000014227642, 9.998852, 10.0007 
5.849678e+2, 1.4502208e+2, -1627977.9, -1569983.0, -20221.797, -0.18673159, 0.28808746, -1563628.4, -44820.97, 0.0, 9.999245, 10.000012 
5.849788e+2, 1.5502167e+2, -1484134.5, -1449894.5, -15761.741, -0.015407347, 0.24435242, -1443743.8, -22931.525, 0.0, 9.999562, 10.00001 
5.849889e+2, 1.6502143e+2, -1365373.9, -1359582.3, -13453.729, 0.06258847, 0.2311066, -1348716.3, -25901.814, 0.0, 9.999779, 9.999853 
5.849977e+2, 1.750215e+2, -1248955.4, -1251323.5, -21523.11, 0.008338738, 0.2491301, -1228583.8, -3770.6877, 0.0, 9.9999, 9.999866 
5.850068e+2, 1.8502113e+2, -1175168.8, -1241699.1, -27057.326, -0.025164675, 0.26161906, -1165554.3, -38736.85, 0.0, 10.000063, 9.99918 
5.850162e+2, 1.9502035e+2, -1046519.56, -1127355.1, -25989.125, -0.02435193, 0.26345375, -1038884.94, -10057.905, 0.0, 10.000267, 9.999193 
5.850259e+2, 2.0501961e+2, -922783.06, -1044044.2, -12401.85, -0.0036193947, 0.28175977, -921527.7, 9307.992, 0.0, 10.00056, 9.998952 
5.8503604e+2, 2.1501888e+2, -768134.8, -917192.7, -14881.872, 0.03235154, 0.3131265, -766663.56, 66179.48, 0.0, 10.000942, 9.998966 
5.8504593e+2, 2.2501759e+2, -683832.25, -890512.4, -2919.0522, 0.039162327, 0.31666523, -683791.06, 51065.406, 0.0, 10.001127, 9.998387 
5.850558e+2, 2.3501572e+2, -586720.4, -791667.25, -2953.4463, 0.019001467, 0.2883803, -586677.9, 50197.934, 0.0, 10.001116, 9.998398 
5.8506584e+2, 2.4501412e+2, -472511.44, -700737.94, -1665.6733, 0.008673632, 0.29582742, -472499.28, 66392.984, 0.0, 10.001292, 9.998264 
5.850759e+2, 2.550128e+2, -321177.06, -575633.75, -367.2844, 0.006837718, 0.3362065, -321176.53, 119729.03, 0.0, 10.001653, 9.998276 
5.85086e+2, 2.65011e+2, -221582.03, -505804.06, -592.50806, 0.007243185, 0.34267253, -221580.8, 121342.47, 0.0, 10.001788, 9.998017 
5.850962e+2, 2.750087e+2, -136394.81, -412580.03, -2839.5566, 0.011935897, 0.307784, -136365.63, 108579.85, 0.0, 10.001695, 9.99803 
5.851065e+2, 2.8500658e+2, -41244.586, -341879.44, 4083.5366, 0.026823167, 0.30558088, -41189.13, 105777.35, 0.0, 10.001786, 9.997799 
5.851169e+2, 2.9500479e+2, 98520.17, -221480.13, 10886.246, 0.04580377, 0.34288675, 98890.09, 147875.02, 0.0, 10.002063, 9.997819 
5.851264e+2, 3.0500257e+2, 195136.9, -83906.305, 12005.333, -0.031608835, 0.310341, 195652.45, 195652.45, 0.000000006848287, 10.002108, 9.998409 
5.851368e+2, 3.1500113e+2, 170843.58, -89160.48, 20916.16, -0.01122785, 0.3266184, 172515.44, 172515.44, 0.00000018333391, 10.001913, 9.9984665 
5.949514e+2, 1.2501082e+2, -1924542.9, -1783631.1, 72644.4, -0.04947251, 0.21261849, -1752888.0, -37973.426, 0.000000058921596, 9.998438, 10.000274 
5.949617e+2, 1.3501094e+2, -1765605.6, -1662544.0, -66408.18, 0.18683448, 0.19945756, -1630018.5, -13101.172, 0.000000000010343272, 9.998854, 10.000248 
5.949663e+2, 1.4501223e+2, -1610523.6, -1533815.1, -7938.731, -0.2538023, 0.30309007, -1533002.1, -14096.006, 0.0, 9.999245, 10.00026 
5.9497845e+2, 1.5501212e+2, -1466393.6, -1413214.9, -3846.6106, -0.008588663, 0.2642707, -1412938.1, 7967.8794, 0.0, 9.999562, 10.000261 
5.949888e+2, 1.6501187e+2, -1381950.0, -1394129.1, -9066.205, 0.07829677, 0.2476814, -1377118.0, -54209.945, 0.0, 9.999779, 9.999616 
5.949972e+2, 1.7501156e+2, -1265338.5, -1285500.9, -16920.314, -0.029970791, 0.2530194, -1255723.9, -30812.152, 0.0, 9.9999, 9.999631 
5.950065e+2, 1.8501107e+2, -1172903.8, -1237077.4, -19470.213, -0.059645716, 0.26344734, -1167458.5, -40541.15, 0.0, 10.000063, 9.999211 
5.9501666e+2, 1.9501042e+2, -1044063.4, -1122638.4, -18404.4, 0.0020226485, 0.27451944, -1039966.2, -11041.414, 0.0, 10.000268, 9.999226 
5.950267e+2, 2.0500956e+2, -927072.75, -1053063.0, 1907.0414, 0.02000588, 0.2839495, -927043.9, 3890.0671, 0.0, 10.00056, 9.99889 
5.950365e+2, 2.1500853e+2, -772663.3, -926411.44, -502.822, -0.009636546, 0.2883474, -772661.6, 60282.926, 0.0, 10.000941, 9.998903 
5.950466e+2, 2.2500725e+2, -683968.06, -890555.44, -3501.9065, -0.009338556, 0.29757437, -683908.75, 51049.23, 0.0, 10.001126, 9.998387 
5.95057e+2, 2.3500575e+2, -586641.8, -791755.1, -3410.1191, 0.02250388, 0.30725414, -586585.2, 50388.86, 0.0, 10.001117, 9.998397 
5.950674e+2, 2.4500415e+2, -470124.0, -696112.1, 11832.963, 0.035925254, 0.3139754, -469506.1, 69484.25, 0.0, 10.001293, 9.998296 
5.9507775e+2, 2.550025e+2, -319187.0, -571119.8, 13220.515, 0.029478641, 0.31580457, -318495.16, 122511.375, 0.0, 10.00165, 9.998308 
5.9508795e+2, 2.650007e+2, -226262.16, -515118.38, -4069.7808, 0.020637406, 0.32510218, -226204.83, 116819.54, 0.0, 10.001786, 9.997955 
5.9509784e+2, 2.7499878e+2, -140672.19, -422048.0, -6308.7876, 0.011701891, 0.33400837, -140530.81, 104513.24, 0.0, 10.001697, 9.997964 
5.951082e+2, 2.8499675e+2, -30145.309, -318951.6, 14190.342, 0.01835558, 0.33669356, -29449.748, 117614.305, 0.0, 10.001786, 9.997956 
5.951189e+2, 2.9499477e+2, 108112.555, -199245.5, 21101.693, 0.03462544, 0.34030402, 109554.53, 158637.44, 0.0, 10.002053, 9.997977 
5.9512854e+2, 3.049927e+2, 202034.9, -66716.05, 4647.713, -0.031468827, 0.30936643, 202115.27, 202115.27, 0.000000033052434, 10.002095, 9.998533 
5.9513885e+2, 3.1499106e+2, 178492.6, -72564.1, 12102.605, 0.0065606395, 0.29026675, 179074.67, 179074.67, 0.00000037488923, 10.001909, 9.998582 
6.0494965e+2, 1.2500067e+2, -1946355.1, -1788630.8, 29949.62, -0.05690791, 0.20323852, -1783135.3, -68121.17, 0.000000021349177, 9.998266, 10.000321 
6.0496056e+2, 1.3500103e+2, -1758202.4, -1665190.9, -60929.723, 0.17949922, 0.22024167, -1635046.6, -18031.318, 0.0, 9.998932, 10.000192 
6.049653e+2, 1.4500229e+2, -1592372.3, -1520366.5, -7204.1304, -0.28060344, 0.32102603, -1519652.9, -648.22766, 0.0, 9.99935, 10.000302 
6.049778e+2, 1.5500204e+2, -1474920.1, -1412250.3, -19630.0, -0.024855468, 0.26424408, -1406609.3, 14395.618, 0.0, 9.999482, 10.000306 
6.0498846e+2, 1.6500174e+2, -1403787.6, -1416377.9, -29160.715, 0.06734494, 0.24561824, -1380250.3, -57242.81, 0.0, 9.9996805, 9.999511 
6.049971e+2, 1.7500147e+2, -1267304.6, -1298088.1, -27388.67, -0.039148603, 0.26436016, -1251279.1, -26267.545, 0.0, 9.999937, 9.999526 
6.0500664e+2, 1.8500094e+2, -1148949.0, -1222367.1, -22632.643, -0.061480388, 0.27480993, -1142532.8, -15515.277, 0.0, 10.000214, 9.99924 
6.050171e+2, 1.9500019e+2, -1005901.9, -1101122.9, -22025.73, 0.012301172, 0.272459, -1001053.9, 27971.26, 0.0, 10.000517, 9.999253 
6.050273e+2, 2.0499925e+2, -911691.3, -1050106.4, -2726.623, 0.02637964, 0.27471974, -911637.6, 19397.125, 0.0, 10.000685, 9.99885 
6.0503715e+2, 2.1499816e+2, -807897.6, -947844.06, -3489.9421, -0.02298166, 0.27831712, -807810.6, 25235.514, 0.0, 10.000719, 9.998863 
6.0504746e+2, 2.2499697e+2, -710116.0, -896667.4, -4438.099, -0.025395371, 0.29482055, -710010.44, 25048.428, 0.0, 10.000918, 9.9984455 
6.050582e+2, 2.3499568e+2, -558203.5, -771587.5, -88.695816, 0.020808542, 0.319912, -558203.44, 78869.484, 0.0, 10.001285, 9.998455 
6.050688e+2, 2.4499407e+2, -448475.6, -684880.1, 15354.404, 0.041269913, 0.32251015, -447482.5, 91606.69, 0.0, 10.001438, 9.998302 
6.0507935e+2, 2.549922e+2, -358676.63, -589478.8, 14596.705, 0.034591507, 0.3011143, -357757.16, 83350.04, 0.0, 10.001376, 9.998315 
6.050896e+2, 2.6499042e+2, -263091.3, -529639.2, -814.20953, 0.02312195, 0.31033948, -263088.84, 80036.08, 0.0, 10.001519, 9.997984 
6.050996e+2, 2.7498874e+2, -114016.945, -405959.2, 3781.9312, 0.008649306, 0.34174553, -113967.96, 131174.66, 0.0, 10.001865, 9.997993 
6.0511e+2, 2.8498673e+2, -8735.02, -303367.25, 19031.719, 0.01222857, 0.3436504, -7510.756, 139651.48, 0.0, 10.00191, 9.998004 
6.0512066e+2, 2.9498458e+2, 51893.68, -221618.7, 17282.836, 0.02899214, 0.32502517, 52981.434, 102163.625, 0.00000000003092486, 10.001646, 9.99802 
6.0513043e+2, 3.049827e+2, 135924.88, -92714.69, -5298.259, -0.028946387, 0.30810314, 136047.6, 136047.6, 0.00000008707832, 10.001616, 9.998586 
6.051408e+2, 3.1498086e+2, 172623.48, -66136.38, -4347.6294, 0.0177098, 0.26500592, 172702.63, 172702.63, 0.0000006525611, 10.001829, 9.998665 
6.1494744e+2, 1.2498996e+2, -1915581.1, -1724156.1, 34620.27, -0.106314994, 0.19823608, -1718087.3, -2965.9146, 0.0000000039655865, 9.998263, 10.000765 
6.149597e+2, 1.349911e+2, -1734065.8, -1615428.1, -35547.668, 0.20258747, 0.25563142, -1605592.4, 11521.043, 0.0, 9.998932, 10.000533 
6.1496484e+2, 1.4499226e+2, -1604336.4, -1545185.5, -2026.8607, -0.26723716, 0.34205914, -1545116.1, -26013.625, 0.0, 9.999349, 10.000133 
6.149769e+2, 1.5499143e+2, -1486622.5, -1436565.6, -14665.006, -0.064702556, 0.24400872, -1432585.8, -11476.682, 0.0, 9.999481, 10.00014 
6.1498773e+2, 1.6499108e+2, -1401956.4, -1412731.4, -19647.7, 0.029098546, 0.22473294, -1386970.9, -63858.285, 0.0, 9.99968, 9.9995365 
6.1499727e+2, 1.749912e+2, -1265279.1, -1294257.4, -17839.914, -0.019744378, 0.28307807, -1256785.8, -31673.045, 0.0, 9.999938, 9.999552 
6.1500716e+2, 1.8499073e+2, -1147273.1, -1219191.5, -11522.889, -0.031269338, 0.2956535, -1145472.0, -18354.031, 0.0, 10.000215, 9.999262 
6.1501765e+2, 1.9498964e+2, -1004340.1, -1097938.8, -10685.175, 0.006233238, 0.25750265, -1003135.75, 25992.36, 0.0, 10.000517, 9.999275 
6.1502796e+2, 2.0498864e+2, -912956.06, -1052680.6, -1720.7236, 0.01512542, 0.25433233, -912934.9, 18203.266, 0.0, 10.000685, 9.998833 
6.150381e+2, 2.149878e+2, -808952.06, -950254.7, -2325.5576, -0.008588625, 0.28275338, -808913.8, 24233.912, 0.0, 10.000719, 9.998846 
6.150485e+2, 2.2498675e+2, -702202.25, -880193.9, 9188.509, -0.0098155495, 0.30815277, -701729.2, 33430.035, 0.0, 10.000918, 9.998559 
6.150594e+2, 2.349855e+2, -550273.56, -754758.75, 13667.107, 0.013788927, 0.3264038, -549364.1, 87808.43, 0.0, 10.001283, 9.998571 
6.1507004e+2, 2.4498387e+2, -450075.94, -687928.7, 12850.195, 0.024817111, 0.3214748, -449383.72, 89805.086, 0.0, 10.001436, 9.998282 
6.150806e+2, 2.5498188e+2, -360218.3, -592902.2, 12224.933, 0.021948794, 0.29157022, -359577.78, 81629.86, 0.0, 10.001377, 9.998291 
6.150911e+2, 2.6498014e+2, -254662.48, -512197.1, 12047.094, 0.014163749, 0.2983187, -254100.16, 89124.82, 0.0, 10.001518, 9.998104 
6.1510146e+2, 2.749786e+2, -106258.09, -388380.6, 16752.088, 0.0028244294, 0.3326321, -105266.86, 139974.2, 0.0, 10.001859, 9.998117 
6.151119e+2, 2.8497657e+2, -14030.23, -312725.3, 9146.452, 0.008473585, 0.32817248, -13750.416, 133510.55, 0.0, 10.001903, 9.997944 
6.151223e+2, 2.949742e+2, 47061.91, -231926.02, 7490.6196, 0.026697975, 0.29633266, 47262.883, 96545.79, 0.0000000010306047, 10.001646, 9.997949 
6.1513203e+2, 3.0497253e+2, 134776.38, -95410.19, 2346.5205, -0.026782513, 0.30483758, 134800.3, 134800.3, 0.00000016756015, 10.0016165, 9.998567 
6.151427e+2, 3.149706e+2, 174760.13, -59971.438, 2059.8557, 0.021170469, 0.25325894, 174778.2, 174778.2, 0.000001002472, 10.0018215, 9.998711 
6.249457e+2, 1.24979794e+2, -1843052.6, -1682757.3, 45449.555, -0.13107498, 0.22714968, -1670767.5, 44454.848, 0.00000000008306351, 9.9987335, 10.000822 
6.2495875e+2, 1.349806e+2, -1744054.5, -1623175.9, -32082.838, 0.21707238, 0.25530824, -1615188.5, 2027.876, 0.0, 9.998876, 10.000507 
6.249642e+2, 1.4498156e+2, -1630929.0, -1565096.0, -12165.556, -0.25751528, 0.323733, -1562919.9, -43712.535, 0.0, 9.999197, 10.000069 
6.249763e+2, 1.5498093e+2, -1464564.6, -1432909.5, -17569.941, -0.080264546, 0.25142506, -1425089.4, -3876.9697, 0.0, 9.999663, 10.000077 
6.2498736e+2, 1.6498058e+2, -1368712.3, -1398724.9, -25803.367, 0.012104819, 0.23749764, -1353868.9, -30652.908, 0.0, 9.999917, 9.999518 
6.2499726e+2, 1.7498054e+2, -1263564.4, -1295637.8, -27638.102, -0.013120985, 0.2792534, -1247647.4, -22429.768, 0.0, 9.999959, 9.999533 
6.250074e+2, 1.8498002e+2, -1161162.6, -1222473.0, -17868.908, -0.023459502, 0.2886498, -1156334.9, -29112.008, 0.0, 10.000105, 9.999291 
6.2501794e+2, 1.9497907e+2, -1025518.56, -1104674.8, -16609.973, -0.007834596, 0.2613042, -1022174.44, 7057.336, 0.0, 10.000357, 9.999307 
6.2502843e+2, 2.0497815e+2, -923957.7, -1053560.3, -10689.334, 0.0015353279, 0.26108545, -923082.0, 8159.0947, 0.0, 10.00059, 9.998873 
6.2503886e+2, 2.1497726e+2, -792946.3, -938062.6, -7057.7124, 0.0006634053, 0.28416637, -792603.9, 40646.813, 0.0, 10.000811, 9.998886 
6.2504953e+2, 2.2497621e+2, -696865.6, -873201.5, 6369.329, 0.0022597304, 0.30507058, -696635.9, 38626.254, 0.0, 10.000936, 9.998598 
6.2506044e+2, 2.3497498e+2, -594110.1, -771388.44, 5199.9814, 0.008245346, 0.31999576, -593957.7, 43317.656, 0.0, 10.000962, 9.998611 
6.250712e+2, 2.4497342e+2, -487195.97, -693401.1, 3826.0776, 0.0143869985, 0.31450996, -487125.0, 52165.813, 0.0, 10.001128, 9.998394 
6.2508196e+2, 2.5497153e+2, -344394.9, -572789.7, 13043.189, 0.019374495, 0.28610846, -343652.47, 97655.7, 0.0, 10.001431, 9.998403 
6.250925e+2, 2.649699e+2, -255465.34, -509929.66, 13004.854, 0.015323077, 0.29301643, -254802.44, 88522.34, 0.0, 10.001501, 9.998128 
6.2510306e+2, 2.7496836e+2, -181085.27, -421687.9, 10126.28, 0.003974074, 0.3266096, -180659.83, 64681.02, 0.0, 10.001332, 9.998142 
6.2511355e+2, 2.8496635e+2, -81924.15, -337370.94, 1807.4778, 0.008510174, 0.3170509, -81911.36, 65449.418, 0.0, 10.001401, 9.998015 
6.25124e+2, 2.9496396e+2, 61829.363, -217257.89, 10014.634, 0.023902724, 0.2756566, 62188.26, 111571.016, 0.000000004235602, 10.001716, 9.998016 
6.251338e+2, 3.0496246e+2, 157732.27, -102244.24, 6831.0728, -0.024928788, 0.3089797, 157911.64, 157911.64, 0.000000262113, 10.001851, 9.998406 
6.251446e+2, 3.1496036e+2, 167449.1, -70610.984, -5972.785, 0.030376798, 0.25325626, 167598.84, 167598.84, 0.0000013873902, 10.001802, 9.998647 
6.349444e+2, 1.2497017e+2, -1865996.8, -1730924.8, 28823.873, -0.13487239, 0.288087, -1725031.0, -9713.908, 0.0, 9.998736, 10.00049 
6.3495773e+2, 1.349696e+2, -1771980.4, -1681275.1, -26799.033, 0.22251928, 0.21905495, -1673949.0, -56625.027, 0.0, 9.998876, 10.00011 
6.3496345e+2, 1.4497016e+2, -1628231.6, -1559322.9, 5380.625, -0.252143, 0.26535782, -1558905.3, -39586.375, 0.0, 9.999195, 10.00011 
6.34976e+2, 1.5497051e+2, -1461480.4, -1426784.3, -330.37152, -0.07222735, 0.28654677, -1426781.1, -5466.074, 0.0, 9.999663, 10.00012 
6.349873e+2, 1.6497026e+2, -1373021.0, -1407997.5, -24664.285, 0.015441964, 0.28429073, -1360274.0, -36956.62, 0.0, 9.999918, 9.9994545 
6.349971e+2, 1.7496942e+2, -1267975.3, -1304920.8, -26245.627, -0.019729838, 0.25320852, -1254353.3, -29027.166, 0.0, 9.999959, 9.999469 
6.350073e+2, 1.8496881e+2, -1158639.0, -1217297.3, -8713.516, -0.038485438, 0.25397417, -1157372.0, -30039.605, 0.0, 10.000105, 9.999328 
6.3501805e+2, 1.9496848e+2, -1022697.5, -1099115.4, -7294.9785, -0.030347792, 0.28365648, -1022007.3, 7328.7393, 0.0, 10.000358, 9.999344 
6.350289e+2, 2.0496772e+2, -917251.5, -1039760.9, -2805.4978, -0.015060615, 0.29472727, -917187.3, 14156.312, 0.0, 10.00059, 9.998967 
6.3503975e+2, 2.1496658e+2, -786420.06, -924418.8, 1053.0103, 0.0043975827, 0.2825567, -786412.06, 46942.906, 0.0, 10.00081, 9.9989805 
6.350506e+2, 2.2496538e+2, -699331.0, -878043.25, 7151.135, 0.010356448, 0.2857412, -699045.3, 36322.22, 0.0, 10.000934, 9.998566 
6.350613e+2, 2.3496413e+2, -596497.9, -776412.94, 6137.247, 0.0037727961, 0.30103028, -596288.75, 41092.523, 0.0, 10.000962, 9.998577 
6.3507235e+2, 2.4496272e+2, -470441.1, -658558.94, 15058.414, 0.009267774, 0.3017741, -469243.34, 70151.78, 0.0, 10.001127, 9.998633 
6.3508344e+2, 2.5496122e+2, -327753.56, -537469.1, 24311.873, 0.026302697, 0.2850642, -324972.03, 116436.66, 0.0, 10.001428, 9.998648 
6.3509417e+2, 2.6495966e+2, -260871.4, -520487.63, 6494.122, 0.026038026, 0.29449514, -260709.06, 82715.2, 0.0, 10.001498, 9.998057 
6.3510436e+2, 2.74958e+2, -186175.28, -432461.56, 3734.27, 0.01028281, 0.32259235, -186118.67, 59323.348, 0.0, 10.001332, 9.998069 
6.351149e+2, 2.84956e+2, -67985.984, -308232.0, 13318.561, 0.010329046, 0.30917758, -67249.9, 80211.836, 0.0, 10.0014, 9.998217 
6.3512564e+2, 2.949538e+2, 74760.5, -188517.27, 21543.813, 0.021092858, 0.26404524, 76511.766, 125993.4, 0.000000008608103, 10.001707, 9.998218 
6.351356e+2, 3.049525e+2, 135637.47, -146099.34, 4964.0723, -0.022483593, 0.32197803, 135724.9, 135724.9, 0.00000035003856, 10.0018425, 9.99811 
6.351465e+2, 3.149501e+2, 154664.22, -96406.56, -8622.307, 0.042004086, 0.26598203, 154959.98, 154959.98, 0.0000017531552, 10.001798, 9.998472 
6.4494306e+2, 1.2495956e+2, -1915951.0, -1760664.8, -8194.85, -0.1223919, 0.30269435, -1760233.5, -44811.875, 0.0, 9.998418, 10.00044 
6.449568e+2, 1.3495879e+2, -1684898.9, -1649817.9, -19249.61, 0.219261, 0.222065, -1641315.9, -23886.12, 0.0, 9.999518, 10.000015 
6.4496297e+2, 1.4495902e+2, -1533981.8, -1534529.9, -4032.7131, -0.25812575, 0.2508589, -1530213.9, -10785.983, 0.0, 9.999931, 9.999925 
6.4497566e+2, 1.5495938e+2, -1480066.6, -1456668.0, -27551.578, -0.07025666, 0.29256475, -1438434.8, -17009.908, 0.0, 9.999626, 9.999933 
6.4498717e+2, 1.6495915e+2, -1391446.8, -1402634.9, -45967.555, 0.0168525, 0.29581356, -1350734.1, -27307.068, 0.0, 9.99973, 9.999581 
6.449972e+2, 1.7495835e+2, -1217145.0, -1266222.9, -33578.27, -0.024606245, 0.2543722, -1200094.8, 25339.705, 0.0, 10.000247, 9.999596 
6.4500755e+2, 1.8495774e+2, -1110197.6, -1199462.1, -19404.23, -0.04351712, 0.25251228, -1106162.0, 21278.496, 0.0, 10.000462, 9.999278 
6.450184e+2, 1.949574e+2, -1023960.94, -1105503.3, -24750.393, -0.030845694, 0.28768373, -1017036.5, 12408.289, 0.0, 10.000374, 9.999292 
6.4502937e+2, 2.049567e+2, -932200.44, -1035010.56, -18106.785, -0.015412221, 0.29984498, -929104.7, 2347.3945, 0.0, 10.000437, 9.999074 
6.450404e+2, 2.1495564e+2, -801950.94, -920025.9, -13404.467, 0.00032361405, 0.2842145, -800448.3, 33013.957, 0.0, 10.000651, 9.999086 
6.450514e+2, 2.2495447e+2, -710895.25, -874428.7, -8053.289, 0.008280505, 0.28169638, -710499.6, 24974.523, 0.0, 10.000815, 9.998648 
6.450623e+2, 2.349532e+2, -595674.56, -766928.0, -630.82367, 0.009064839, 0.28876278, -595672.25, 41815.44, 0.0, 10.000929, 9.998658 
6.450734e+2, 2.449519e+2, -488809.25, -660450.1, 8569.047, 0.017343696, 0.29251516, -488382.53, 51118.203, 0.0, 10.000971, 9.998695 
6.450847e+2, 2.549506e+2, -394109.94, -562346.25, 4364.9243, 0.03260845, 0.29047853, -393996.75, 47516.113, 0.0, 10.000941, 9.998711 
6.4509547e+2, 2.649492e+2, -311876.72, -532193.0, -15088.282, 0.028791748, 0.3046167, -310848.2, 32678.979, 0.0, 10.001093, 9.998172 
6.451057e+2, 2.749476e+2, -164346.19, -408865.94, -4147.867, 0.00742806, 0.3269599, -164275.84, 81267.99, 0.0, 10.001427, 9.998185 
6.451163e+2, 2.849456e+2, -54454.707, -303612.34, 3508.4216, 0.0044330237, 0.30978194, -54405.313, 93158.3, 0.0, 10.001502, 9.998199 
6.4512706e+2, 2.9494336e+2, 15532.527, -219504.88, -4713.0493, 0.0156375, 0.26316833, 15626.997, 65211.758, 0.000000011710588, 10.00131, 9.998196 
6.4513725e+2, 3.049423e+2, 77458.02, -162459.73, -10981.38, -0.02144583, 0.34102282, 77959.61, 77959.61, 0.00000040808163, 10.001392, 9.998214 
6.4514834e+2, 3.1494e+2, 167187.22, -62207.293, 3537.3052, 0.049540415, 0.2826671, 167241.77, 167241.77, 0.0000020409286, 10.001763, 9.998724 
6.549418e+2, 1.2494793e+2, -1899846.0, -1726822.1, 10617.925, -0.09642623, 0.26780945, -1726173.0, -10636.875, 0.0, 9.998416, 10.000672 
6.549562e+2, 1.3494815e+2, -1669684.8, -1618792.4, 22102.594, 0.20625319, 0.26465914, -1610533.5, 6999.843, 0.0, 9.99952, 10.000227 
6.549627e+2, 1.4494817e+2, -1562545.4, -1594558.9, -15740.11, -0.276831, 0.2810353, -1556102.9, -36569.15, 0.0, 9.999934, 9.999512 
6.549753e+2, 1.5494756e+2, -1509222.6, -1517312.4, -39423.453, -0.07501685, 0.26975065, -1473637.1, -52095.523, 0.0, 9.999626, 9.9995165 
6.5498686e+2, 1.6494729e+2, -1369777.5, -1357400.1, -26948.816, 0.015865987, 0.272029, -1335938.6, -12393.899, 0.0, 9.999728, 9.999893 
6.5499735e+2, 1.749473e+2, -1195075.8, -1220291.5, -14274.885, -0.028449103, 0.28251827, -1188638.1, 36904.555, 0.0, 10.000246, 9.999912 
6.550081e+2, 1.8494684e+2, -1119947.3, -1219679.4, -23047.922, -0.039635904, 0.28425607, -1114878.5, 12668.657, 0.0, 10.000461, 9.99914 
6.55019e+2, 1.9494589e+2, -1033951.2, -1126353.1, -28288.28, -0.009809227, 0.27374575, -1025978.75, 3579.096, 0.0, 10.000374, 9.999149 
6.5502995e+2, 2.0494509e+2, -924037.5, -1018150.44, -10315.225, 0.00025196534, 0.27668452, -922920.1, 8646.223, 0.0, 10.000437, 9.999189 
6.55041e+2, 2.1494442e+2, -793814.2, -903029.9, -5426.7485, -0.011873263, 0.28902897, -793545.2, 40027.28, 0.0, 10.000651, 9.999204 
6.550521e+2, 2.2494346e+2, -697496.0, -846425.1, -4012.1829, -0.0044904244, 0.2927352, -697388.0, 38193.844, 0.0, 10.000814, 9.99884 
6.550634e+2, 2.3494223e+2, -582174.2, -738870.94, 3503.3652, 0.023588346, 0.28312853, -582095.9, 55498.61, 0.0, 10.000928, 9.998851 
6.550746e+2, 2.4494098e+2, -496614.84, -676803.44, 7312.856, 0.037929665, 0.28659648, -496318.53, 43289.004, 0.0, 10.000972, 9.998584 
6.550857e+2, 2.5493973e+2, -402036.78, -578894.6, 3221.4526, 0.037505887, 0.30179858, -401978.1, 39642.492, 0.0, 10.000941, 9.998597 
6.550965e+2, 2.6493844e+2, -291612.3, -489630.03, -2579.48, 0.02305266, 0.32280838, -291578.72, 52054.664, 0.0, 10.00109, 9.998466 
6.551071e+2, 2.7493712e+2, -144362.72, -365808.88, 8436.2, -0.0041737375, 0.34018344, -144041.8, 101604.375, 0.0, 10.00142, 9.998484 
6.551177e+2, 2.8493515e+2, -71208.27, -337126.78, -3620.8667, -0.008889176, 0.3195308, -71158.98, 76507.266, 0.0, 10.001495, 9.9979725 
6.551283e+2, 2.9493263e+2, -1362.7609, -254289.44, -11623.656, 0.0058898902, 0.27161917, -829.7003, 48862.297, 0.000000011654482, 10.001308, 9.997958 
6.551386e+2, 3.0493188e+2, 110561.266, -92973.56, 2842.8848, -0.023594098, 0.36457148, 110600.97, 110600.97, 0.00000041978168, 10.0013895, 9.998692 
6.551502e+2, 3.1493002e+2, 211252.66, 31230.35, 16347.143, 0.052661702, 0.3053513, 212725.03, 212725.03, 0.000002202322, 10.001755, 9.999369 
6.649407e+2, 1.2493619e+2, -1737443.6, -1649252.6, -1297.3739, -0.09448861, 0.23661008, -1649233.5, 66417.66, 0.0, 9.999534, 10.000666 
6.6495556e+2, 1.349369e+2, -1683854.8, -1626377.9, 14233.075, 0.19282752, 0.28504184, -1623046.4, -5402.9624, 0.0, 9.999426, 10.000221 
6.649624e+2, 1.4493683e+2, -1622253.8, -1626353.8, -35389.938, -0.27733934, 0.29352754, -1588854.5, -69209.65, 0.0, 9.999538, 9.999484 
6.649751e+2, 1.54936e+2, -1474979.8, -1503887.5, -30382.928, -0.064486355, 0.26064315, -1455787.9, -34132.973, 0.0, 9.999875, 9.999489 
6.649868e+2, 1.6493565e+2, -1328668.4, -1341010.5, -7720.5093, 0.02612928, 0.25938034, -1324955.8, -1297.0745, 0.0, 10.000027, 9.999861 
6.649975e+2, 1.7493579e+2, -1235425.3, -1243285.8, -21554.488, -0.028231457, 0.28436387, -1217445.6, 8210.3955, 0.0, 9.999986, 9.999879 
6.6500837e+2, 1.849354e+2, -1157839.1, -1225850.8, -37715.957, -0.03852062, 0.29147565, -1141062.1, -13402.564, 0.0, 10.00015, 9.999247 
6.650195e+2, 1.9493455e+2, -1003850.3, -1099875.0, -24564.883, 0.002773841, 0.277413, -997931.06, 31738.178, 0.0, 10.00053, 9.999255 
6.650306e+2, 2.0493373e+2, -892260.8, -1001716.4, -5289.5576, 0.013119668, 0.27533284, -892005.8, 39671.773, 0.0, 10.00065, 9.999199 
6.6504157e+2, 2.1493301e+2, -813773.0, -911627.3, -8790.721, -0.010443637, 0.28126886, -812989.56, 20694.873, 0.0, 10.00051, 9.999211 
6.650527e+2, 2.2493215e+2, -725799.25, -843001.7, -8080.736, -0.0073063127, 0.28617334, -725244.75, 10448.001, 0.0, 10.000546, 9.998993 
6.650643e+2, 2.3493116e+2, -595242.56, -728023.1, -3562.961, 0.02398217, 0.2854493, -595147.0, 42555.54, 0.0, 10.000765, 9.999004 
6.6507554e+2, 2.4493e+2, -505115.34, -681519.4, -2570.4773, 0.03809975, 0.29203343, -505077.9, 34636.832, 0.0, 10.0009165, 9.998577 
6.650866e+2, 2.5492874e+2, -394356.8, -576001.8, 1007.29645, 0.03376804, 0.3045543, -394351.22, 47377.72, 0.0, 10.000998, 9.9985895 
6.650975e+2, 2.6492748e+2, -297024.7, -476360.25, -3281.128, 0.0177294, 0.3224054, -296964.66, 46776.81, 0.0, 10.000985, 9.998607 
6.6510814e+2, 2.7492628e+2, -213624.92, -383124.0, -3860.735, -0.00877262, 0.33625224, -213537.03, 32215.465, 0.0, 10.000875, 9.998627 
6.651189e+2, 2.849244e+2, -143531.03, -366310.66, -13042.351, -0.010079801, 0.3163744, -142770.1, 5001.396, 0.0, 10.000976, 9.998021 
6.6512966e+2, 2.94922e+2, -170.99591, -248828.6, -964.4257, 0.010586405, 0.27309784, -167.2554, 49629.67, 0.000000008469742, 10.001297, 9.998 
6.651401e+2, 3.0492127e+2, 125906.09, -89252.98, 11318.329, -0.023875149, 0.37327465, 126499.85, 126499.85, 0.00000038345433, 10.001511, 9.998658 
6.651516e+2, 3.149193e+2, 199786.58, 42040.063, -13698.5625, 0.032094385, 0.30286977, 200967.31, 200967.31, 0.0000022156387, 10.001606, 9.999515 
6.7494e+2, 1.2492435e+2, -1753858.4, -1685718.5, -26516.107, -0.12115942, 0.20625731, -1676615.9, 39150.58, 0.0, 9.999544, 10.000411 
6.7495483e+2, 1.3492513e+2, -1699435.0, -1659290.1, 9685.692, 0.17799371, 0.28334045, -1657075.4, -39315.625, 0.0, 9.999429, 9.999994 
6.749621e+2, 1.4492506e+2, -1597449.9, -1574667.4, -23012.943, -0.26033214, 0.28830224, -1560380.6, -40619.883, 0.0, 9.9995365, 9.99984 
6.749752e+2, 1.5492469e+2, -1450045.4, -1451686.3, -17623.887, -0.03946154, 0.26537195, -1433222.9, -11458.487, 0.0, 9.999873, 9.999848 
6.749871e+2, 1.6492428e+2, -1355597.3, -1396540.8, -9338.693, 0.046643525, 0.25830477, -1353567.9, -29799.074, 0.0, 10.000025, 9.999481 
6.749975e+2, 1.7492379e+2, -1262571.0, -1299578.6, -23213.037, -0.024210842, 0.26004183, -1251389.3, -25615.13, 0.0, 9.999986, 9.999493 
6.750085e+2, 1.8492346e+2, -1133682.0, -1175723.6, -23781.006, -0.040515315, 0.27407148, -1122963.1, 4814.478, 0.0, 10.00015, 9.999591 
6.750201e+2, 1.9492333e+2, -979425.1, -1048926.8, -10453.916, 0.0061878595, 0.29832578, -977886.75, 51892.06, 0.0, 10.000528, 9.999606 
6.7503136e+2, 2.0492263e+2, -899312.2, -1016252.9, -10806.696, 0.022277147, 0.2957287, -898321.94, 33463.69, 0.0, 10.000649, 9.9991 
6.7504215e+2, 2.1492141e+2, -820746.7, -926403.8, -14313.846, 0.0040755756, 0.26140764, -818841.9, 14956.107, 0.0, 10.000511, 9.99911 
6.7505336e+2, 2.2492051e+2, -717837.2, -826773.06, -136.27689, -0.00055868644, 0.26240525, -717837.0, 17969.74, 0.0, 10.000547, 9.999104 
6.7506486e+2, 2.3491997e+2, -587302.3, -711484.8, 4658.288, 0.010261514, 0.29533282, -587127.8, 50683.99, 0.0, 10.000764, 9.999118 
6.7507625e+2, 2.4491899e+2, -498642.97, -667796.6, 510.44833, 0.017800946, 0.30855227, -498641.44, 41180.8, 0.0, 10.000915, 9.9986725 
6.7508745e+2, 2.549176e+2, -388103.6, -562499.3, 4078.1787, 0.021310858, 0.2993841, -388008.28, 53829.55, 0.0, 10.000996, 9.998683 
6.7509836e+2, 2.6491627e+2, -297786.3, -477525.97, -7448.2495, 0.012347997, 0.30459556, -297478.2, 46373.074, 0.0, 10.000983, 9.9986 
6.75109e+2, 2.74915e+2, -214344.25, -384314.72, -7910.321, -0.007598881, 0.31560156, -213976.89, 31885.775, 0.0, 10.000874, 9.99862 
6.7511994e+2, 2.8491333e+2, -122329.305, -321442.78, -1110.5369, -0.0006500205, 0.30031273, -122323.11, 25556.178, 0.0, 10.000972, 9.998331 
6.751311e+2, 2.9491135e+2, 20447.396, -204679.98, 11136.441, 0.029017096, 0.26824278, 20996.943, 70896.61, 0.0000000040864183, 10.001292, 9.998305 
6.751416e+2, 3.0491054e+2, 89149.02, -164657.17, 14975.244, -0.022343377, 0.36884603, 90029.55, 90029.55, 0.0000003121116, 10.001507, 9.998143 
6.751528e+2, 3.1490788e+2, 175968.03, -6630.312, -10422.03, -0.013090454, 0.2795166, 176560.95, 176560.95, 0.0000020914758, 10.001602, 9.999183 
6.8493956e+2, 1.24913156e+2, -1753888.6, -1704525.0, -31324.684, -0.120337754, 0.22390847, -1689326.6, 26550.068, 0.0, 9.999625, 10.000243 
6.8495417e+2, 1.3491364e+2, -1668096.0, -1657638.0, 31642.871, 0.1577641, 0.28495038, -1630795.0, -12922.039, 0.0, 9.999702, 9.999873 
6.849618e+2, 1.4491336e+2, -1552110.4, -1546433.3, 1856.4386, -0.26109558, 0.27062738, -1545880.1, -26004.22, 0.0, 9.999823, 9.999895 
6.849752e+2, 1.5491328e+2, -1428578.1, -1435333.3, -16082.69, -0.033615187, 0.26967514, -1415522.1, 6353.8047, 0.0, 9.999996, 9.999901 
6.849872e+2, 1.6491283e+2, -1351333.0, -1407129.5, -18796.72, 0.055170074, 0.26558807, -1345591.5, -21711.283, 0.0, 10.000111, 9.999366 
6.849977e+2, 1.7491207e+2, -1244058.8, -1303428.9, -12728.718, -0.014220183, 0.24934141, -1241444.8, -15555.793, 0.0, 10.000169, 9.999377 
6.850087e+2, 1.8491171e+2, -1111312.0, -1155559.6, -3381.0044, -0.035888888, 0.2627912, -1111055.1, 16837.756, 0.0, 10.000264, 9.999673 
6.8502045e+2, 1.9491184e+2, -991258.8, -1044968.1, -10056.698, -0.0031020807, 0.3048682, -989437.5, 40453.867, 0.0, 10.000407, 9.999691 
6.8503183e+2, 2.0491125e+2, -914778.7, -1023551.6, -26560.242, 0.014676984, 0.30689275, -908639.6, 23257.715, 0.0, 10.000544, 9.9991 
6.850429e+2, 2.1490993e+2, -796720.2, -914894.9, -22700.451, 0.014612105, 0.2635915, -792509.6, 41401.36, 0.0, 10.000677, 9.999108 
6.8505406e+2, 2.2490902e+2, -683802.56, -795000.06, -794.95044, 0.011333264, 0.2582436, -683796.94, 52122.633, 0.0, 10.000715, 9.999241 
6.850655e+2, 2.3490858e+2, -593290.3, -698706.1, 5624.609, 0.0057932884, 0.2877261, -592991.06, 44931.63, 0.0, 10.000656, 9.999258 
6.850769e+2, 2.449077e+2, -539594.75, -686003.1, -1801.0634, 0.009133414, 0.3028073, -539572.6, 359.57227, 0.0, 10.0006275, 9.998686 
6.850883e+2, 2.549064e+2, -440281.44, -586166.6, -4423.0615, 0.02109777, 0.30025387, -440147.47, 1800.4391, 0.0, 10.000631, 9.998695 
6.850993e+2, 2.6490512e+2, -331363.06, -482988.47, -15938.738, 0.017821504, 0.3061893, -329705.72, 14255.254, 0.0, 10.000708, 9.998694 
6.8511e+2, 2.749039e+2, -209537.44, -371171.53, -9150.728, 0.0007136928, 0.31222934, -209021.03, 36950.414, 0.0, 10.000861, 9.998715 
6.8512106e+2, 2.8490227e+2, -113901.44, -310611.13, -275.52765, 0.006282164, 0.29506466, -113901.055, 34086.16, 0.0, 10.001001, 9.998391 
6.851323e+2, 2.9490036e+2, 607.335, -207759.77, -6506.22, 0.030544436, 0.2632049, 810.2928, 50817.242, 0.0000000009738006, 10.001128, 9.998363 
6.8514293e+2, 3.0489954e+2, 45565.203, -203179.88, -1603.0344, -0.025095811, 0.36493146, 45575.53, 45575.53, 0.00000022618863, 10.001283, 9.997986 
6.851542e+2, 3.148968e+2, 158791.86, -12186.725, -1884.5773, -0.023509912, 0.28521103, 158812.64, 158812.64, 0.0000018666766, 10.001473, 9.999207 
6.9493943e+2, 1.2490268e+2, -1758827.5, -1715987.8, -46104.785, -0.0947937, 0.29214248, -1686570.0, 29411.008, 0.0, 9.99963, 10.000162 
6.949536e+2, 1.3490252e+2, -1669318.8, -1659615.6, 34722.582, 0.13146226, 0.2902214, -1629407.3, -11424.917, 0.0, 9.999701, 9.999861 
6.9496137e+2, 1.4490177e+2, -1570383.9, -1583878.6, 8568.828, -0.2803041, 0.2403209, -1566224.8, -46235.133, 0.0, 9.999821, 9.9996395 
6.94975e+2, 1.5490173e+2, -1446794.0, -1473476.6, -9242.609, -0.04804035, 0.2733578, -1443905.3, -21915.738, 0.0, 9.999997, 9.999639 
6.949873e+2, 1.6490136e+2, -1341102.8, -1386304.9, -16627.318, 0.05052791, 0.28102404, -1335645.4, -11652.3955, 0.0, 10.000113, 9.999508 
6.9499797e+2, 1.7490062e+2, -1233993.9, -1281929.1, -10560.906, 0.0008999231, 0.25252357, -1231770.3, -5769.774, 0.0, 10.000166, 9.999526 
6.950091e+2, 1.8490018e+2, -1124394.5, -1182159.3, 1670.2197, -0.025486488, 0.25817397, -1124346.3, 3658.8953, 0.0, 10.000261, 9.999492 
6.950206e+2, 1.9490008e+2, -1004166.9, -1071765.1, -4792.5293, -0.025069447, 0.2971229, -1003828.8, 26177.883, 0.0, 10.000407, 9.999507 
6.950322e+2, 2.0489953e+2, -908031.8, -1009676.44, -21775.697, -0.009636906, 0.30856547, -903563.2, 28449.566, 0.0, 10.000544, 9.999195 
6.950436e+2, 2.1489853e+2, -789974.9, -900814.7, -17793.18, 0.020639304, 0.2872965, -787188.56, 46834.906, 0.0, 10.000676, 9.999207 
6.95055e+2, 2.2489768e+2, -672537.4, -771699.06, -3119.052, 0.027464889, 0.27345482, -672439.4, 63591.66, 0.0, 10.000715, 9.999401 
6.950662e+2, 2.3489702e+2, -581870.5, -675275.25, 3267.901, 0.009987218, 0.26344544, -581756.3, 56278.797, 0.0, 10.000657, 9.999418 
6.950776e+2, 2.4489614e+2, -544057.0, -695471.5, -1847.2968, 0.011406642, 0.27548003, -544034.44, -3990.0056, 0.0, 10.0006275, 9.99862 
6.95089e+2, 2.548951e+2, -444989.03, -595922.5, -4280.9424, 0.03225874, 0.30688083, -444867.72, -2808.634, 0.0, 10.000631, 9.99863 
6.951002e+2, 2.6489404e+2, -318200.5, -455413.63, -10316.487, 0.033368807, 0.32635954, -317429.2, 26641.373, 0.0, 10.000707, 9.998884 
6.95111e+2, 2.7489296e+2, -196474.2, -343618.16, -3446.0303, 0.015518968, 0.3253617, -196393.55, 49685.348, 0.0, 10.000859, 9.998905 
6.9512206e+2, 2.8489125e+2, -126549.89, -336575.38, 4318.034, 0.010425063, 0.30021098, -126461.15, 21634.1, 0.0, 10.000999, 9.998214 
6.951333e+2, 2.9488903e+2, -12530.017, -234582.66, -1686.6545, 0.015271762, 0.2581268, -12517.205, 37601.363, 0.000000000021633938, 10.001126, 9.99818 
6.951442e+2, 3.0488822e+2, 57287.246, -177648.06, 5335.4824, -0.032819994, 0.36159185, 57408.355, 57408.355, 0.00000014519733, 10.001278, 9.998163 
6.951558e+2, 3.14886e+2, 182002.4, 38089.395, 4698.075, -0.0034718467, 0.31776473, 182155.63, 182155.63, 0.0000015881137, 10.001465, 9.999556 
7.049389e+2, 1.2489158e+2, -1787227.0, -1740546.8, -63816.176, -0.103667244, 0.3173065, -1695936.4, 20154.396, 0.0, 9.999482, 10.000065 
7.0495355e+2, 1.3489138e+2, -1617385.6, -1636583.1, 31719.898, 0.13811071, 0.31324756, -1593844.0, 24248.227, 0.0, 10.000066, 9.999842 
7.049617e+2, 1.4489034e+2, -1517743.3, -1575237.1, -2737.318, -0.24992673, 0.24345388, -1517613.3, 2488.8296, 0.0, 10.000256, 9.999488 
7.0497495e+2, 1.548901e+2, -1446363.8, -1490441.4, -12464.648, -0.05967902, 0.27235603, -1443083.1, -20979.205, 0.0, 10.000075, 9.999483 
7.0498717e+2, 1.648897e+2, -1334399.4, -1376766.1, -12379.676, 0.028178524, 0.28014502, -1331047.3, -6939.6123, 0.0, 10.000133, 9.999563 
7.049983e+2, 1.7488906e+2, -1190652.1, -1254467.9, -13276.779, 0.002514107, 0.25692979, -1188000.1, 38113.34, 0.0, 10.000437, 9.999583 
7.050096e+2, 1.8488857e+2, -1090775.3, -1175476.8, -6934.137, -0.013210837, 0.25976944, -1090211.4, 37907.063, 0.0, 10.000535, 9.999406 
7.0502114e+2, 1.9488828e+2, -1008303.7, -1083601.5, -6535.5723, -0.016803494, 0.28737578, -1007740.6, 22381.79, 0.0, 10.000422, 9.999418 
7.0503265e+2, 2.0488778e+2, -921198.56, -1006444.6, -16455.049, -0.0053553153, 0.3034526, -918132.5, 13995.761, 0.0, 10.000413, 9.999281 
7.050442e+2, 2.1488707e+2, -807496.9, -899549.25, -13438.989, 0.021316158, 0.3030841, -805575.0, 28561.037, 0.0, 10.000515, 9.999292 
7.050556e+2, 2.2488624e+2, -693426.8, -779367.1, -9930.97, 0.03071717, 0.2870978, -692294.2, 43849.0, 0.0, 10.000562, 9.999422 
7.05067e+2, 2.3488533e+2, -595533.3, -679632.7, -14253.823, 0.021936134, 0.2512094, -593183.1, 44966.395, 0.0, 10.000553, 9.999438 
7.0507824e+2, 2.448845e+2, -544824.6, -687988.5, -16852.563, 0.021394113, 0.2621734, -542867.56, -2709.0244, 0.0, 10.000589, 9.998691 
7.050896e+2, 2.5488377e+2, -434069.0, -582825.94, -9444.851, 0.029061263, 0.31870222, -433471.72, 8698.3955, 0.0, 10.000672, 9.998699 
7.0510083e+2, 2.648828e+2, -312036.47, -454854.4, -15170.125, 0.02577136, 0.344487, -310442.88, 33738.1, 0.0, 10.00076, 9.998863 
7.051118e+2, 2.7488154e+2, -199088.9, -347150.47, -24152.217, 0.012709708, 0.33027956, -195248.72, 50942.496, 0.0, 10.000852, 9.998885 
7.05123e+2, 2.8487983e+2, -132009.56, -334668.3, -16718.4, 0.00880817, 0.3033109, -130639.625, 17568.15, 0.0, 10.000943, 9.998254 
7.0513433e+2, 2.9487777e+2, -22926.89, -235361.48, -6789.0024, 0.011064288, 0.27022272, -22710.148, 27519.531, 0.0, 10.001037, 9.998218 
7.051453e+2, 3.0487695e+2, 37466.453, -188375.7, 3477.9119, -0.035371028, 0.37241262, 37520.0, 37520.0, 0.00000008201181, 10.001147, 9.998153 
7.051572e+2, 3.1487492e+2, 164817.72, 45852.063, -12117.191, -0.0045410683, 0.347186, 166039.36, 166039.36, 0.0000012936833, 10.001277, 9.999701 
7.149379e+2, 1.2487985e+2, -1796156.8, -1758285.3, -55693.715, -0.15068229, 0.29722738, -1718396.3, -2190.376, 0.0, 9.999478, 9.999946 
7.1495396e+2, 1.3488023e+2, -1618566.1, -1640118.0, 53985.316, 0.17596096, 0.35415563, -1574291.8, 43910.223, 0.0, 10.000071, 9.999815 
7.149628e+2, 1.448791e+2, -1520456.6, -1582295.4, -9666.224, -0.17096119, 0.28060803, -1518980.9, 1231.7885, 0.0, 10.000261, 9.999436 
7.1497494e+2, 1.5487842e+2, -1450350.1, -1498209.6, -18987.227, -0.068632446, 0.26704043, -1443732.5, -21513.502, 0.0, 10.000073, 9.999431 
7.1498686e+2, 1.6487783e+2, -1337347.0, -1382273.8, -882.3005, -0.012426742, 0.26326457, -1337329.6, -13105.768, 0.0, 10.00013, 9.999527 
7.149986e+2, 1.7487738e+2, -1193099.0, -1259834.0, -1616.8722, -0.010201205, 0.26212615, -1193059.9, 33167.73, 0.0, 10.000438, 9.999546 
7.150102e+2, 1.8487689e+2, -1090450.9, -1175183.8, -11215.56, 0.00010748297, 0.26710814, -1088991.4, 39241.11, 0.0, 10.000536, 9.999408 
7.150219e+2, 1.9487642e+2, -1008095.9, -1083210.9, -10894.437, 0.020874988, 0.27590102, -1006547.75, 23690.73, 0.0, 10.000422, 9.999421 
7.150334e+2, 2.0487595e+2, -916082.9, -996010.1, -13011.318, 0.026714234, 0.2919566, -914018.1, 18225.701, 0.0, 10.000413, 9.999352 
7.150447e+2, 2.1487552e+2, -802168.1, -888916.9, -9781.821, 0.016472163, 0.31104973, -801078.8, 33169.805, 0.0, 10.000516, 9.999365 
7.1505606e+2, 2.2487472e+2, -701227.5, -796052.3, -10468.389, 0.020926327, 0.2991363, -700085.56, 36170.383, 0.0, 10.000564, 9.999308 
7.150677e+2, 2.3487356e+2, -603604.6, -696728.6, -14627.207, 0.0410646, 0.25061506, -601361.1, 36904.664, 0.0, 10.000555, 9.999321 
7.1507907e+2, 2.4487278e+2, -530912.9, -659322.25, -13946.263, 0.03852846, 0.26257846, -529415.6, 10858.657, 0.0, 10.00059, 9.998887 
7.150901e+2, 2.548724e+2, -420128.25, -553983.0, -6437.144, 0.011642533, 0.33546957, -419819.38, 22461.592, 0.0, 10.000673, 9.998898 
7.1510124e+2, 2.648714e+2, -327810.6, -487596.72, -11861.719, -0.0045481278, 0.36046836, -326934.84, 17357.314, 0.0, 10.000759, 9.998638 
7.1511245e+2, 2.7486974e+2, -215189.88, -380357.44, -20734.125, -0.0075137117, 0.32740578, -212626.81, 33681.39, 0.0, 10.000851, 9.998657 
7.1512383e+2, 2.8486806e+2, -115237.76, -299084.75, -13514.926, 0.0009731485, 0.3045312, -114249.56, 34075.05, 0.0, 10.00094, 9.9985 
7.1513546e+2, 2.9486653e+2, -6481.7446, -199924.17, -3481.0962, 0.01709792, 0.2981527, -6419.1206, 43921.254, 0.0, 10.001031, 9.998464 
7.151465e+2, 3.048657e+2, 23885.18, -215763.92, 8298.631, -0.033188075, 0.39612326, 24172.203, 24172.203, 0.00000004119849, 10.0011425, 9.997968 
7.151583e+2, 3.148635e+2, 160819.11, 37492.05, -7374.142, -0.027571796, 0.37388402, 161258.47, 161258.47, 0.0000010048329, 10.001276, 9.999643 
7.2493774e+2, 1.2486801e+2, -1731851.3, -1740306.9, -67079.11, -0.13905272, 0.27943036, -1668866.9, 47454.29, 0.0, 9.999975, 9.999829 
7.2495383e+2, 1.3486841e+2, -1637547.8, -1650596.9, 55379.65, 0.16256809, 0.34062117, -1588309.6, 30007.818, 0.0, 9.999947, 9.999803 
7.2496307e+2, 1.4486732e+2, -1548964.3, -1591917.4, -13251.17, -0.15545473, 0.2681168, -1545205.3, -24877.19, 0.0, 10.000049, 9.999473 
7.249753e+2, 1.5486683e+2, -1410675.5, -1475395.8, -16066.298, -0.052823782, 0.27280885, -1406906.6, 15425.365, 0.0, 10.00033, 9.999463 
7.2498727e+2, 1.6486624e+2, -1299776.0, -1377036.9, 5360.3604, -0.006023038, 0.2700528, -1299405.9, 24931.24, 0.0, 10.000443, 9.999412 
7.249989e+2, 1.7486548e+2, -1209084.4, -1280699.3, -1544.9248, -0.021970704, 0.25172606, -1209051.0, 17292.904, 0.0, 10.000385, 9.999428 
7.2501063e+2, 1.8486491e+2, -1107436.0, -1181352.8, -18105.25, -0.0096908705, 0.25341263, -1103239.5, 25110.24, 0.0, 10.000411, 9.999425 
7.250225e+2, 1.9486456e+2, -991345.9, -1072996.8, -16548.617, 0.03344329, 0.27375972, -988119.4, 42235.047, 0.0, 10.000527, 9.999439 
7.2503406e+2, 2.0486413e+2, -885549.3, -977293.6, -16753.633, 0.04382297, 0.2907067, -882585.7, 49773.508, 0.0, 10.000606, 9.999388 
7.2504526e+2, 2.1486363e+2, -781344.3, -874762.6, -16402.807, 0.019400572, 0.29925707, -778547.94, 55816.098, 0.0, 10.000641, 9.999402 
7.2505665e+2, 2.2486281e+2, -698947.1, -812936.06, -23071.537, 0.018191475, 0.2906429, -694454.5, 41917.582, 0.0, 10.000657, 9.999146 
7.250683e+2, 2.3486166e+2, -600643.94, -713559.5, -30863.25, 0.04164292, 0.25976342, -592758.7, 45624.656, 0.0, 10.000654, 9.999157 
7.2507966e+2, 2.4486089e+2, -510326.5, -631839.3, -31414.12, 0.03888964, 0.27310732, -502685.63, 37706.12, 0.0, 10.000656, 9.999044 
7.250907e+2, 2.5486052e+2, -410246.6, -531022.44, -26803.197, 0.008000161, 0.33019567, -404565.5, 37831.305, 0.0, 10.000663, 9.99906 
7.2510195e+2, 2.6485953e+2, -343985.6, -511378.06, -28509.795, -0.011294794, 0.35366356, -339263.13, 5144.8906, 0.0, 10.000717, 9.998495 
7.2511315e+2, 2.7485785e+2, -229338.63, -403807.1, -31600.39, -0.016885895, 0.3348367, -223791.42, 22634.354, 0.0, 10.000825, 9.998509 
7.251247e+2, 2.8485626e+2, -118188.49, -285706.25, -28357.93, -0.0050396677, 0.319896, -113518.18, 34923.656, 0.0, 10.000856, 9.998632 
7.2513634e+2, 2.9485482e+2, -28912.754, -195199.25, -26956.0, 0.021249302, 0.31291276, -24652.195, 25803.035, 0.0, 10.000811, 9.998602 
7.251476e+2, 3.0485383e+2, -8816.609, -242554.6, -7113.1934, -0.029744443, 0.38959962, -8600.339, -8600.339, 0.000000018939705, 10.000967, 9.997869 
7.251594e+2, 3.1485155e+2, 171211.17, 43542.52, -16705.79, -0.04116804, 0.37238234, 173360.97, 173360.97, 0.0000007295325, 10.001346, 9.999651 
7.3493844e+2, 1.2485607e+2, -1739370.6, -1756423.9, -78635.65, -0.07054178, 0.2643961, -1668800.6, 47635.883, 0.0, 9.999977, 9.999719 
7.349531e+2, 1.3485594e+2, -1638093.0, -1650189.1, 53846.406, 0.097156525, 0.27197132, -1589956.0, 28482.496, 0.0, 9.999941, 9.999808 
7.3496264e+2, 1.4485496e+2, -1541164.5, -1574726.3, -2728.2717, -0.20484771, 0.20521821, -1540944.3, -20496.184, 0.0, 10.000044, 9.999593 
7.34976e+2, 1.5485539e+2, -1402041.6, -1458197.6, -4961.4893, -0.013915337, 0.2893649, -1401606.8, 20836.121, 0.0, 10.000333, 9.999579 
7.349882e+2, 1.6485488e+2, -1313171.6, -1405892.5, 3165.9397, 0.04638757, 0.30049556, -1313063.6, 11383.567, 0.0, 10.000447, 9.999211 
7.349991e+2, 1.7485338e+2, -1223237.6, -1310258.0, -3768.6216, -0.03270688, 0.22616662, -1223074.8, 3387.4333, 0.0, 10.000385, 9.999226 
7.350107e+2, 1.8485263e+2, -1105174.3, -1176620.4, -13967.619, -0.042808596, 0.21897332, -1102540.6, 25929.342, 0.0, 10.00041, 9.999458 
7.350229e+2, 1.9485274e+2, -988750.56, -1067907.9, -12259.644, 0.020528408, 0.28066227, -986895.3, 43574.883, 0.0, 10.000528, 9.999475 
7.3503464e+2, 2.0485234e+2, -885520.0, -977618.6, -15680.191, 0.045480568, 0.29954892, -882923.56, 49550.652, 0.0, 10.000607, 9.999386 
7.35046e+2, 2.1485144e+2, -781243.44, -874935.2, -15319.053, 0.029543163, 0.2681335, -778802.3, 55679.87, 0.0, 10.000642, 9.999401 
7.3505735e+2, 2.2485054e+2, -713207.5, -842973.06, -23416.363, 0.021994585, 0.26193422, -709111.25, 27380.182, 0.0, 10.000659, 9.9989395 
7.3506874e+2, 2.3484966e+2, -615083.25, -744050.75, -30963.775, 0.023809826, 0.27838442, -608034.44, 30467.592, 0.0, 10.000655, 9.998947 
7.350801e+2, 2.4484885e+2, -501834.53, -614476.4, -31155.846, 0.022322152, 0.2934403, -493791.38, 46719.418, 0.0, 10.000657, 9.999163 
7.350915e+2, 2.5484812e+2, -401596.44, -512878.06, -26595.127, 0.017016323, 0.30365762, -395567.16, 46950.25, 0.0, 10.000662, 9.999185 
7.351028e+2, 2.6484713e+2, -348760.88, -520918.75, -24654.121, 0.0041432795, 0.32496136, -345299.84, -771.5288, 0.0, 10.000715, 9.998431 
7.3511404e+2, 2.7484587e+2, -234466.84, -414299.5, -27417.715, -0.015988449, 0.3520345, -230379.58, 16164.3, 0.0, 10.000824, 9.998438 
7.351255e+2, 2.8484437e+2, -116257.375, -281928.66, -29842.367, -0.009623517, 0.34860748, -111045.805, 37513.555, 0.0, 10.000856, 9.998658 
7.3513716e+2, 2.9484272e+2, -26164.496, -190280.8, -28629.416, 0.022334998, 0.3153358, -21313.594, 29260.385, 0.0, 10.0008135, 9.998635 
7.3514855e+2, 3.048413e+2, -10696.841, -246077.94, 6557.9536, -0.026874362, 0.3550328, -10514.2705, -10514.2705, 0.0000000073965225, 10.000965, 9.997845 
7.351607e+2, 3.1483912e+2, 173444.83, 50938.01, -2619.3818, -0.04761445, 0.34314808, 173500.8, 173500.8, 0.0000004773962, 10.001333, 9.999707 
7.449386e+2, 1.24844104e+2, -1769062.3, -1776992.4, -66603.71, -0.04380486, 0.23111711, -1706305.6, 10246.83, 0.0, 9.9998, 9.999662 
7.449529e+2, 1.3484436e+2, -1588050.9, -1620321.6, 76420.72, 0.066554226, 0.2733366, -1526080.8, 92470.3, 0.0, 10.00026, 9.999859 
7.4496275e+2, 1.4484337e+2, -1483455.3, -1559717.0, 11513.759, -0.21402389, 0.20848751, -1481754.9, 38805.895, 0.0, 10.000495, 9.999478 
7.449765e+2, 1.5484342e+2, -1378662.8, -1460315.4, -7928.939, -0.007588849, 0.26463848, -1377900.0, 44659.45, 0.0, 10.000551, 9.99946 
7.4498886e+2, 1.6484283e+2, -1299399.4, -1404463.9, -11067.384, 0.05897799, 0.27588013, -1298246.3, 26318.576, 0.0, 10.000565, 9.999166 
7.449997e+2, 1.7484157e+2, -1205194.5, -1307108.5, -6514.801, -0.021761607, 0.23248844, -1204779.8, 21797.701, 0.0, 10.000533, 9.999176 
7.450112e+2, 1.8484081e+2, -1087336.9, -1182576.3, -9728.177, -0.03812371, 0.23351693, -1086353.4, 42232.266, 0.0, 10.000594, 9.999329 
7.450235e+2, 1.9484062e+2, -964363.1, -1070927.5, -20505.459, 0.013151401, 0.27877045, -960553.6, 70035.336, 0.0, 10.000759, 9.999343 
7.450353e+2, 2.0484011e+2, -852301.2, -959636.44, -34653.773, 0.03684713, 0.29008797, -842085.4, 90508.88, 0.0, 10.000827, 9.999403 
7.4504673e+2, 2.1483923e+2, -758117.1, -861523.06, -32856.195, 0.03109139, 0.26067105, -748560.56, 86040.99, 0.0, 10.000792, 9.99942 
7.450581e+2, 2.2483842e+2, -699034.2, -837855.75, -33710.832, 0.02614446, 0.26307458, -691281.0, 45329.01, 0.0, 10.000763, 9.998924 
7.450694e+2, 2.3483768e+2, -604218.9, -740566.3, -27202.076, 0.022345157, 0.29553455, -598992.25, 39627.363, 0.0, 10.000738, 9.998932 
7.4508077e+2, 2.4483676e+2, -502374.13, -623588.06, -28067.06, 0.018970255, 0.3039498, -496190.63, 44438.793, 0.0, 10.000691, 9.9990835 
7.450921e+2, 2.5483567e+2, -412978.75, -527644.0, -38889.14, 0.015481089, 0.28311163, -401033.72, 41605.66, 0.0, 10.000624, 9.999102 
7.451035e+2, 2.648346e+2, -354684.8, -516631.94, -34625.82, 0.0040064715, 0.30085778, -347592.13, -2941.531, 0.0, 10.000644, 9.998495 
7.451148e+2, 2.7483368e+2, -238302.83, -408617.13, -27586.98, -0.014822328, 0.35434395, -233945.84, 12717.266, 0.0, 10.000766, 9.998505 
7.4512637e+2, 2.8483224e+2, -115378.33, -293433.3, -31197.178, -0.011102336, 0.3607791, -110070.47, 38607.51, 0.0, 10.000915, 9.998551 
7.4513805e+2, 2.9483038e+2, 6356.5938, -186977.17, -40202.664, 0.013947402, 0.3178163, 14383.266, 65078.074, 0.0, 10.00109, 9.998525 
7.4514955e+2, 3.048287e+2, 8989.771, -230561.89, -7011.888, -0.029227508, 0.33020976, 9194.84, 9194.84, 0.0000000015345106, 10.001075, 9.997899 
7.4516195e+2, 3.1482667e+2, 114418.06, 35573.785, -10851.198, -0.034551673, 0.33015615, 115884.23, 115884.23, 0.00000026410652, 10.000872, 9.999824 
7.549382e+2, 1.2483215e+2, -1771230.1, -1779744.5, -56071.51, -0.06379758, 0.18181925, -1719254.5, -2585.8848, 0.0, 9.999791, 9.999648 
7.549532e+2, 1.3483372e+2, -1582224.6, -1607842.0, 93432.74, 0.069284186, 0.3457145, -1500726.6, 117927.99, 0.0, 10.000258, 9.999945 
7.549636e+2, 1.4483258e+2, -1507230.4, -1610061.9, 13123.417, -0.18364964, 0.27920786, -1505582.0, 15084.074, 0.0, 10.000499, 9.999132 
7.549768e+2, 1.548309e+2, -1403177.5, -1511716.1, -5803.3335, -0.03407295, 0.19906108, -1402868.1, 19813.5, 0.0, 10.000552, 9.999107 
7.549891e+2, 1.6483004e+2, -1291971.4, -1389388.4, -12353.914, 0.031144751, 0.1960364, -1290429.1, 34260.598, 0.0, 10.000566, 9.999269 
7.5500053e+2, 1.7483008e+2, -1197521.8, -1291482.1, -7725.2363, 0.0099505335, 0.27019578, -1196890.9, 29798.955, 0.0, 10.000534, 9.999283 
7.550123e+2, 1.848295e+2, -1107814.6, -1225306.1, -3879.3835, 0.0033720925, 0.2968004, -1107686.8, 21009.838, 0.0, 10.000595, 9.999036 
7.5502425e+2, 1.9482826e+2, -985342.7, -1114598.1, -14441.775, 0.01113591, 0.268374, -983748.75, 46961.68, 0.0, 10.000759, 9.999043 
7.5503594e+2, 2.0482744e+2, -849877.8, -954683.9, -36149.41, 0.01784501, 0.26251838, -838618.75, 94100.3, 0.0, 10.000826, 9.999437 
7.5504744e+2, 2.1482703e+2, -755183.9, -855728.3, -34371.19, 0.023717197, 0.2762116, -744557.2, 90164.92, 0.0, 10.0007925, 9.99946 
7.550589e+2, 2.2482647e+2, -687015.0, -813159.0, -34850.38, 0.0298846, 0.29344487, -678027.1, 58700.598, 0.0, 10.000764, 9.999094 
7.550703e+2, 2.3482576e+2, -592270.3, -715810.56, -28310.42, 0.036436975, 0.3111222, -586091.75, 52644.246, 0.0, 10.000738, 9.999102 
7.5508153e+2, 2.4482465e+2, -521349.13, -663215.75, -30672.139, 0.02816415, 0.30493736, -515001.7, 25745.875, 0.0, 10.000692, 9.998811 
7.5509256e+2, 2.5482312e+2, -432185.72, -568369.25, -41285.355, 0.003546841, 0.2686134, -420647.28, 22115.338, 0.0, 10.000627, 9.99882 
7.5510395e+2, 2.6482195e+2, -341078.6, -489278.66, -30103.63, -0.011457979, 0.28135404, -335197.1, 9577.575, 0.0, 10.000648, 9.998682 
7.5511557e+2, 2.7482128e+2, -224521.7, -379934.9, -22843.611, -0.0146707045, 0.34200585, -221233.58, 25549.848, 0.0, 10.000765, 9.998703 
7.5512725e+2, 2.8481996e+2, -132066.08, -327338.4, -24525.77, -0.01103142, 0.35700738, -129032.805, 19764.803, 0.0, 10.000911, 9.998321 
7.5513893e+2, 2.948179e+2, -10762.452, -222439.11, -33238.023, -0.0035313047, 0.3211214, -5666.034, 45151.418, 0.0, 10.001089, 9.9982815 
7.551505e+2, 3.0481598e+2, 18192.861, -211979.84, -14164.846, -0.036614556, 0.31529015, 19061.291, 19061.291, 0.00000000001992495, 10.001076, 9.998026 
7.55163e+2, 3.148142e+2, 126584.08, 60569.957, -17920.64, -0.006584956, 0.3308099, 131135.17, 131135.17, 0.000000109993245, 10.000873, 9.999996 
7.649379e+2, 1.24820516e+2, -1711799.3, -1771564.0, -78260.95, -0.09547607, 0.19924562, -1657909.8, 58872.887, 0.0, 10.000287, 9.999466 
7.649536e+2, 1.3482179e+2, -1579104.5, -1616507.0, 62318.945, 0.0801743, 0.344349, -1532741.4, 86029.93, 0.0, 10.000324, 9.999854 
7.649645e+2, 1.448206e+2, -1521050.6, -1619458.5, -16719.68, -0.1344808, 0.27693266, -1518287.5, 2495.735, 0.0, 10.000415, 9.999107 
7.649773e+2, 1.5481897e+2, -1393507.5, -1510197.9, -10733.452, -0.040244956, 0.2049386, -1392528.5, 30270.082, 0.0, 10.000631, 9.999081 
7.6498955e+2, 1.6481808e+2, -1263959.8, -1384659.8, -14891.649, 0.011875949, 0.20275497, -1262149.6, 62657.41, 0.0, 10.000793, 9.999191 
7.650014e+2, 1.7481796e+2, -1148925.0, -1276663.0, -24328.848, 0.02332748, 0.27007928, -1144448.3, 82360.15, 0.0, 10.000904, 9.999207 
7.6501316e+2, 1.8481727e+2, -1068263.8, -1208333.3, -18777.34, 0.024302498, 0.2917606, -1065790.3, 63025.613, 0.0, 10.000875, 9.999017 
7.6502496e+2, 1.9481601e+2, -995187.94, -1121466.3, -8256.376, 0.012537908, 0.26076245, -994650.44, 36179.48, 0.0, 10.0007, 9.999024 
7.6503664e+2, 2.0481515e+2, -880870.75, -979135.25, -22188.94, 0.013456918, 0.25845245, -876092.6, 56746.313, 0.0, 10.000654, 9.999352 
7.6504827e+2, 2.1481477e+2, -768354.4, -871846.1, -30118.344, 0.028419035, 0.28206554, -760227.44, 74615.17, 0.0, 10.000745, 9.9993725 
7.650597e+2, 2.2481419e+2, -681576.94, -802481.7, -41569.055, 0.03658701, 0.29863048, -668663.94, 68184.47, 0.0, 10.000768, 9.999166 
7.6507103e+2, 2.3481344e+2, -589764.5, -706530.2, -42696.004, 0.037161395, 0.30456805, -575818.2, 63038.15, 0.0, 10.000721, 9.999173 
7.6508224e+2, 2.4481231e+2, -515166.16, -669053.06, -38605.38, 0.024265427, 0.2990278, -506024.34, 34843.39, 0.0, 10.000773, 9.998732 
7.650933e+2, 2.5481084e+2, -392910.25, -558428.4, -34775.96, -0.0035061224, 0.27632323, -385900.56, 56982.316, 0.0, 10.000936, 9.99874 
7.6510465e+2, 2.6480964e+2, -294480.1, -466370.28, -24455.229, -0.016787676, 0.28595868, -291068.5, 53827.09, 0.0, 10.000965, 9.998685 
7.651164e+2, 2.7480873e+2, -211730.22, -373630.8, -31425.516, -0.013195153, 0.3260721, -205844.39, 41061.227, 0.0, 10.000852, 9.998704 
7.6512814e+2, 2.848074e+2, -137947.34, -333401.22, -26115.635, -0.010793715, 0.34372914, -134518.06, 14401.591, 0.0, 10.000883, 9.998292 
7.6513994e+2, 2.9480562e+2, -13790.298, -227163.36, -19655.553, -0.013032806, 0.3337731, -11994.772, 38943.19, 0.0, 10.001081, 9.998253 
7.6515156e+2, 3.0480352e+2, 27566.902, -209296.25, -9744.706, -0.04356125, 0.31706375, 27967.129, 27967.129, 0.0, 10.001148, 9.99801 
7.651641e+2, 3.1480184e+2, 154977.4, 72559.27, -24805.227, -0.001817212, 0.34169787, 161867.06, 161867.06, 0.000000028836135, 10.001073, 9.999982 
7.749377e+2, 1.2480924e+2, -1736329.0, -1822010.1, -80556.695, -0.14339109, 0.28783736, -1687929.8, 28964.361, 0.00000000003061157, 10.000284, 9.999122 
7.749541e+2, 1.3480861e+2, -1597846.1, -1654831.8, 62635.863, 0.09859758, 0.2687684, -1557526.9, 61373.797, 0.0, 10.000322, 9.999591 
7.7496564e+2, 1.4480741e+2, -1500041.4, -1576346.8, -9711.282, -0.06647898, 0.20031977, -1498824.9, 22087.55, 0.0, 10.000417, 9.999403 
7.749781e+2, 1.5480763e+2, -1372235.1, -1466297.3, -2721.4414, -0.026536146, 0.28243482, -1372156.5, 50753.58, 0.0, 10.000631, 9.999382 
7.7499026e+2, 1.6480693e+2, -1281558.5, -1421368.0, -10962.669, 0.0003382888, 0.29696834, -1280704.1, 44212.4, 0.0, 10.000794, 9.9989395 
7.7500224e+2, 1.7480524e+2, -1167164.0, -1314529.6, -20298.467, 0.01793544, 0.23280962, -1164419.1, 62513.754, 0.0, 10.000903, 9.998947 
7.7501404e+2, 1.848042e+2, -1050617.3, -1171747.8, -25485.365, 0.024356237, 0.21876255, -1045473.7, 83469.64, 0.0, 10.000875, 9.999269 
7.750257e+2, 1.9480385e+2, -976870.56, -1083639.3, -15098.067, 0.016961731, 0.25567004, -974776.6, 56170.695, 0.0, 10.000701, 9.999285 
7.7503735e+2, 2.0480329e+2, -895198.9, -1008962.7, -19328.703, 0.022946794, 0.2775765, -892004.6, 40949.168, 0.0, 10.000654, 9.999147 
7.7504915e+2, 2.1480244e+2, -783464.44, -903263.25, -27029.918, 0.044622596, 0.27841276, -777648.1, 57314.8, 0.0, 10.000745, 9.999157 
7.7506053e+2, 2.2480159e+2, -683439.2, -806640.4, -43539.14, 0.045919444, 0.27919418, -669605.75, 67366.1, 0.0, 10.000769, 9.999136 
7.750716e+2, 2.3480073e+2, -591110.8, -709912.8, -44512.09, 0.024668397, 0.27658933, -576283.75, 62696.633, 0.0, 10.000723, 9.999149 
7.750828e+2, 2.4479981e+2, -507475.1, -653479.5, -32762.166, 0.007178324, 0.28631046, -500460.53, 40529.316, 0.0, 10.000774, 9.998838 
7.7509415e+2, 2.5479883e+2, -385501.25, -542706.5, -28691.463, -0.006643886, 0.30485705, -380428.47, 62571.777, 0.0, 10.000934, 9.998849 
7.7510566e+2, 2.647976e+2, -306859.66, -491455.03, -28578.693, -0.013127652, 0.31370717, -302536.4, 42476.957, 0.0, 10.000962, 9.998515 
7.751173e+2, 2.7479607e+2, -224045.8, -399799.06, -35391.406, -0.010582676, 0.3079316, -217186.72, 29842.664, 0.0, 10.000854, 9.998524 
7.75129e+2, 2.8479472e+2, -125859.336, -309178.44, -18644.082, -0.010842506, 0.32230034, -123982.4, 25061.4, 0.0, 10.000886, 9.998458 
7.75141e+2, 2.947935e+2, -1937.1478, -201749.73, -11845.684, -0.01684633, 0.35432, -1237.3396, 49819.113, 0.0, 10.001078, 9.99843 
7.751526e+2, 3.0479142e+2, 15840.375, -232051.81, -12069.367, -0.051908508, 0.33406883, 16426.621, 16426.621, 0.0, 10.001141, 9.997857 
7.751649e+2, 3.1478962e+2, 142263.39, 46047.566, -27029.264, -0.02096558, 0.36245656, 149336.56, 149336.56, 0.0000000029769756, 10.001073, 9.9998 
7.8493804e+2, 1.2479682e+2, -1742462.3, -1821307.0, -109640.15, -0.1326833, 0.31373018, -1665372.4, 51644.258, 0.0000000009851104, 10.000225, 9.999156 
7.849545e+2, 1.3479573e+2, -1527982.3, -1608946.8, 62343.49, 0.08278064, 0.23815152, -1494130.6, 124895.695, 0.0, 10.00075, 9.999701 
7.8496635e+2, 1.4479461e+2, -1431556.1, -1546100.5, -17304.252, -0.052392934, 0.17269072, -1428999.0, 92038.07, 0.0, 10.000897, 9.99938 
7.849789e+2, 1.5479526e+2, -1363966.0, -1465436.6, -34763.414, -0.004655466, 0.30040345, -1353198.8, 69832.59, 0.0, 10.000702, 9.999354 
7.8499115e+2, 1.6479462e+2, -1290152.3, -1412697.6, -37213.08, 0.016324293, 0.31748253, -1279737.1, 45300.113, 0.0, 10.00068, 9.999054 
7.8500307e+2, 1.7479262e+2, -1166882.0, -1301711.8, -18202.943, 0.013979139, 0.21126164, -1164467.8, 62587.742, 0.0, 10.00085, 9.999062 
7.8501487e+2, 1.8479152e+2, -1048057.6, -1173969.6, -28661.988, 0.018474665, 0.18778445, -1041840.1, 87225.945, 0.0, 10.000908, 9.999238 
7.8502655e+2, 1.9479139e+2, -957759.56, -1078243.9, -40810.88, 0.027937, 0.25000256, -945237.4, 85831.09, 0.0, 10.000849, 9.99925 
7.8503823e+2, 2.0479089e+2, -874178.6, -1001258.9, -43906.71, 0.03678749, 0.28135574, -860484.4, 72590.195, 0.0, 10.000811, 9.9991255 
7.850499e+2, 2.1478997e+2, -777857.1, -903151.1, -37270.945, 0.04634297, 0.2752352, -767608.5, 67476.24, 0.0, 10.000794, 9.999133 
7.8506136e+2, 2.2478904e+2, -678195.2, -808484.44, -47607.277, 0.042568702, 0.2706259, -662653.5, 74441.0, 0.0, 10.000824, 9.999096 
7.850724e+2, 2.3478808e+2, -567373.3, -702874.06, -50239.816, 0.023670822, 0.26392338, -550778.25, 88325.58, 0.0, 10.000906, 9.999109 
7.850836e+2, 2.4478719e+2, -487852.94, -643181.6, -42249.766, 0.005746032, 0.27810934, -477104.66, 64008.55, 0.0, 10.000906, 9.998845 
7.8509504e+2, 2.5478637e+2, -402338.1, -550255.1, -45997.6, -0.01152112, 0.3106838, -389201.03, 53921.668, 0.0, 10.000815, 9.998854 
7.8510654e+2, 2.647852e+2, -316683.47, -489047.06, -40744.414, -0.015965506, 0.3200905, -307537.38, 37597.92, 0.0, 10.000864, 9.998579 
7.851182e+2, 2.7478358e+2, -188236.3, -375373.56, -29980.902, -0.005495274, 0.30077928, -183550.45, 63600.723, 0.0, 10.001069, 9.998588 
7.851301e+2, 2.847822e+2, -98015.2, -298975.1, -12643.721, -0.0054558003, 0.31365559, -97222.83, 51942.563, 0.0, 10.001092, 9.998428 
7.851419e+2, 2.9478106e+2, -27847.574, -217717.3, -20933.021, -0.018940534, 0.3557011, -25567.111, 25610.895, 0.0, 10.000915, 9.998399 
7.851536e+2, 3.0477887e+2, -10834.353, -232257.33, -17313.74, -0.05627862, 0.31979647, -9488.716, -9488.716, 0.0, 10.000904, 9.99797 
7.8516597e+2, 3.1477728e+2, 149348.83, 57467.785, -12950.523, -0.027048094, 0.36025122, 151139.3, 151139.3, 0.0, 10.001088, 9.999871 
7.94939e+2, 1.2478327e+2, -1713245.8, -1760751.6, -91597.08, -0.06461666, 0.27780613, -1642371.9, 74778.14, 0.0000000034592607, 10.000225, 9.999572 
7.949547e+2, 1.347832e+2, -1494109.6, -1538446.1, 81199.625, 0.031995196, 0.25347808, -1432106.6, 187041.42, 0.0, 10.000749, 10.000185 
7.949669e+2, 1.4478222e+2, -1455359.6, -1595674.5, -25066.37, -0.09376084, 0.19559872, -1451016.1, 70140.664, 0.0, 10.000898, 9.99904 
7.9497993e+2, 1.5478186e+2, -1389016.4, -1517351.9, -42261.965, 0.024368862, 0.25887775, -1376349.5, 46812.836, 0.0, 10.000701, 9.998999 
7.9499227e+2, 1.6478115e+2, -1256708.0, -1343314.3, -31283.215, 0.059380945, 0.2639413, -1246590.1, 78578.6, 0.0, 10.000679, 9.999531 
7.950039e+2, 1.7478013e+2, -1132239.5, -1229986.6, -11818.381, 0.01145441, 0.20517918, -1130830.9, 96345.08, 0.0, 10.00085, 9.999555 
7.9501563e+2, 1.847793e+2, -1070226.1, -1219869.5, -31004.729, 0.0061016036, 0.19865698, -1064056.5, 65127.438, 0.0, 10.000907, 9.998923 
7.950276e+2, 1.9477867e+2, -981260.7, -1126772.3, -43277.69, 0.044800397, 0.24381168, -969362.06, 61831.047, 0.0, 10.000848, 9.998918 
7.950392e+2, 2.0477803e+2, -863327.8, -978796.7, -44940.508, 0.054527286, 0.27016473, -847898.6, 85302.516, 0.0, 10.00081, 9.99928 
7.950506e+2, 2.1477735e+2, -766180.44, -879103.56, -38181.332, 0.033563327, 0.27251032, -754482.44, 80725.37, 0.0, 10.000795, 9.999299 
7.95062e+2, 2.2477652e+2, -681905.6, -816482.44, -44905.504, 0.026216343, 0.2725882, -668297.56, 68918.66, 0.0, 10.000825, 9.999042 
7.9507345e+2, 2.347755e+2, -571690.8, -711791.0, -47204.16, 0.033344965, 0.26595682, -557270.56, 81955.945, 0.0, 10.000905, 9.999048 
7.9508466e+2, 2.4477448e+2, -494472.38, -656666.7, -45496.31, 0.01921004, 0.27444002, -482582.1, 58655.59, 0.0, 10.000904, 9.998754 
7.9509574e+2, 2.5477344e+2, -408881.7, -563927.9, -49122.465, -0.018444374, 0.295344, -394628.7, 48621.168, 0.0, 10.000815, 9.99876 
7.951073e+2, 2.6477236e+2, -296509.0, -447237.06, -33166.05, -0.025796438, 0.30620408, -289533.94, 55727.137, 0.0, 10.000864, 9.998866 
7.951194e+2, 2.747712e+2, -167951.88, -332520.6, -22055.1, 0.0007497565, 0.30308643, -165047.36, 82223.734, 0.0, 10.001064, 9.998884 
7.951312e+2, 2.847699e+2, -113787.53, -330838.8, -18865.629, 0.0040409546, 0.3168772, -112159.98, 37124.563, 0.0, 10.001087, 9.998212 
7.951428e+2, 2.9476833e+2, -43398.94, -250790.94, -27210.63, -0.020237489, 0.3412374, -39888.23, 11413.983, 0.0, 10.000917, 9.99817 
7.9515445e+2, 3.0476594e+2, 15335.203, -179355.38, -10353.756, -0.05808175, 0.27786592, 15884.273, 15884.273, 0.0, 10.000909, 9.998331 
7.95167e+2, 3.1476486e+2, 171029.03, 102978.75, -5409.2637, -0.02367385, 0.33231297, 171456.33, 171456.33, 0.0, 10.001085, 10.000185 
8.0493957e+2, 1.2477005e+2, -1626593.1, -1733385.9, -56380.31, -0.058488417, 0.23808067, -1602337.0, 114940.805, 0.0000000057252847, 10.000879, 9.999445 
8.0495524e+2, 1.3477029e+2, -1507725.9, -1554621.0, 71943.6, 0.01793396, 0.25600284, -1455505.4, 163768.23, 0.0, 10.000697, 10.000099 
8.0496776e+2, 1.4476943e+2, -1482482.3, -1600826.4, -47008.98, -0.080818586, 0.20947722, -1466082.0, 55199.566, 0.0, 10.000678, 9.999109 
8.049808e+2, 1.5476865e+2, -1354600.1, -1492635.9, -31542.809, 0.037862208, 0.22236359, -1347733.8, 75556.52, 0.0, 10.000902, 9.999071 
8.0499315e+2, 1.6476794e+2, -1218706.6, -1323162.9, -21296.465, 0.07089956, 0.22149855, -1214531.6, 110765.234, 0.0, 10.000933, 9.999548 
8.050048e+2, 1.7476733e+2, -1144606.6, -1234291.5, -38079.49, 0.018034954, 0.20566383, -1130619.8, 96680.75, 0.0, 10.000759, 9.999568 
8.0501646e+2, 1.8476665e+2, -1093372.5, -1227531.8, -61392.688, 0.010172043, 0.21128534, -1069519.5, 59787.91, 0.0, 10.000733, 9.998954 
8.0502844e+2, 1.9476585e+2, -976176.56, -1121180.8, -46382.977, 0.04915093, 0.2352746, -962609.3, 68708.92, 0.0, 10.000869, 9.998945 
8.050401e+2, 2.0476514e+2, -845974.9, -968506.1, -41473.52, 0.05704964, 0.25313225, -833257.2, 100069.57, 0.0, 10.000921, 9.999296 
8.050514e+2, 2.1476452e+2, -751726.0, -870223.94, -46261.285, 0.031383365, 0.26041776, -735804.8, 99527.984, 0.0, 10.000887, 9.999314 
8.050628e+2, 2.2476377e+2, -677183.7, -810620.06, -54330.87, 0.021148726, 0.26647022, -657860.25, 79480.3, 0.0, 10.000843, 9.999072 
8.0507416e+2, 2.3476286e+2, -586409.06, -715354.06, -50059.61, 0.027684502, 0.2675007, -569256.4, 70093.555, 0.0, 10.00079, 9.99908 
8.0508554e+2, 2.4476188e+2, -511023.9, -663651.3, -42500.47, 0.018034924, 0.2782296, -499987.34, 41373.555, 0.0, 10.000787, 9.998762 
8.050967e+2, 2.5476083e+2, -404401.2, -560890.9, -39119.645, -0.009766757, 0.2951217, -395166.9, 48206.613, 0.0, 10.000843, 9.998768 
8.051082e+2, 2.6475972e+2, -289068.28, -433103.8, -22193.04, -0.018657716, 0.2975624, -285726.3, 59658.523, 0.0, 10.00087, 9.99896 
8.051202e+2, 2.7475852e+2, -190129.72, -332597.44, -25866.799, -0.0059451777, 0.28152388, -185578.66, 61815.957, 0.0, 10.000867, 9.998979 
8.051322e+2, 2.8475732e+2, -128495.09, -334466.0, -23836.217, -0.00053328526, 0.3004374, -125772.6, 23634.07, 0.0, 10.000972, 9.998242 
8.051441e+2, 2.9475605e+2, -968.70306, -226917.86, -13862.186, -0.0052920026, 0.3487688, -121.42264, 51300.387, 0.0, 10.001195, 9.9982 
8.051557e+2, 3.0475342e+2, 58784.277, -156060.22, -1774.9049, -0.040089186, 0.2630556, 58798.938, 58798.938, 0.0, 10.001198, 9.998351 
8.051681e+2, 3.147521e+2, 147630.67, 84800.54, -22705.402, -0.025144951, 0.29046774, 154976.95, 154976.95, 0.0, 10.000955, 10.000123 
8.149398e+2, 1.247572e+2, -1673370.9, -1831255.5, -61455.1, -0.12090411, 0.19737887, -1652270.1, 65129.145, 0.000000004999778, 10.000883, 9.998773 
8.149562e+2, 1.3475709e+2, -1554673.4, -1651387.5, 64067.105, 0.03980915, 0.24524872, -1522762.1, 96640.66, 0.0, 10.000695, 9.999435 
8.149691e+2, 1.4475627e+2, -1448802.3, -1531086.8, -39411.66, -0.013511038, 0.21403614, -1432971.1, 88439.83, 0.0, 10.000678, 9.999589 
8.1498176e+2, 1.5475564e+2, -1318598.3, -1418632.5, -22855.455, 0.03583764, 0.19116072, -1313623.8, 109791.43, 0.0, 10.000904, 9.999579 
8.149939e+2, 1.6475496e+2, -1249741.4, -1387859.5, -27698.81, 0.050195526, 0.19024898, -1244393.6, 81027.445, 0.0, 10.000934, 9.999103 
8.1500566e+2, 1.7475429e+2, -1177663.9, -1302466.5, -44613.523, 0.032920606, 0.21251798, -1163356.1, 64072.715, 0.0, 10.000757, 9.999101 
8.1501746e+2, 1.8475361e+2, -1067725.9, -1173868.9, -56637.094, 0.029875949, 0.2258706, -1043180.75, 86255.45, 0.0, 10.000731, 9.999323 
8.1502926e+2, 1.9475295e+2, -948922.5, -1064575.4, -41437.52, 0.040931236, 0.22458999, -935608.5, 95835.0, 0.0, 10.000869, 9.999334 
8.150409e+2, 2.0475224e+2, -854832.8, -986853.75, -43044.98, 0.044085026, 0.23017098, -842038.1, 91413.08, 0.0, 10.000921, 9.99917 
8.150524e+2, 2.1475151e+2, -761467.6, -890255.25, -47883.965, 0.03904316, 0.23925336, -745615.3, 89844.195, 0.0, 10.000886, 9.999178 
8.1506366e+2, 2.2475082e+2, -669048.6, -793820.9, -56650.645, 0.026862204, 0.2527987, -647165.4, 90301.82, 0.0, 10.000843, 9.999188 
8.1507474e+2, 2.3475018e+2, -577873.8, -697752.0, -52125.426, 0.006815007, 0.2686097, -558378.94, 81095.086, 0.0, 10.00079, 9.999201 
8.150861e+2, 2.4474943e+2, -504005.38, -649226.75, -40546.266, 0.0018274287, 0.2891413, -493451.7, 48031.055, 0.0, 10.000787, 9.998861 
8.150977e+2, 2.547485e+2, -397584.3, -546650.25, -36964.945, 0.01330158, 0.30910727, -388921.3, 54572.37, 0.0, 10.000842, 9.998866 
8.151093e+2, 2.647472e+2, -295811.06, -446931.6, -22330.85, 0.0045688907, 0.29413933, -292580.34, 52926.227, 0.0, 10.000869, 9.998866 
8.1512094e+2, 2.7474552e+2, -197048.11, -347187.8, -25766.69, -0.02586019, 0.2385793, -192749.17, 54772.254, 0.0, 10.000868, 9.9988785 
8.15133e+2, 2.8474447e+2, -109793.73, -295758.75, -15638.396, -0.020184543, 0.2659462, -108487.82, 41043.766, 0.0, 10.000972, 9.998508 
8.151455e+2, 2.9474407e+2, 17740.584, -187025.0, -5301.7104, 0.023419006, 0.3756981, 17877.762, 69414.94, 0.0, 10.001189, 9.998478 
8.1515723e+2, 3.047413e+2, 36808.633, -200777.6, -10284.061, -0.0043625324, 0.27294055, 37252.953, 37252.953, 0.0, 10.001194, 9.998046 
8.151689e+2, 3.1473902e+2, 119762.38, 25198.023, -31419.844, -0.03290694, 0.23520522, 129250.01, 129250.01, 0.0000000016901937, 10.000962, 9.99971 
8.249406e+2, 1.247441e+2, -1644124.6, -1831018.5, -101787.96, -0.14160264, 0.1820396, -1599393.6, 118132.3, 0.0000000017683296, 10.001143, 9.998648 
8.2495695e+2, 1.3474388e+2, -1521803.3, -1648710.3, 60972.06, 0.037985194, 0.23128946, -1497257.1, 122274.31, 0.0, 10.000978, 9.999316 
8.249701e+2, 1.4474316e+2, -1407675.8, -1502379.1, -22645.74, 0.012889161, 0.21171056, -1402539.3, 118999.56, 0.0, 10.000922, 9.999668 
8.2498264e+2, 1.5474252e+2, -1290811.5, -1395544.0, -37260.17, 0.03470664, 0.1805908, -1278908.5, 144633.64, 0.0, 10.001054, 9.999664 
8.2499474e+2, 1.6474187e+2, -1232029.5, -1385450.4, -55635.742, 0.040615834, 0.1786198, -1213978.0, 111570.08, 0.0, 10.001082, 9.999047 
8.2500654e+2, 1.7474121e+2, -1147549.8, -1294981.1, -42292.695, 0.036134373, 0.20914677, -1136279.1, 91277.61, 0.0, 10.000994, 9.999039 
8.250182e+2, 1.847406e+2, -1038057.7, -1144212.4, -42358.66, 0.034030594, 0.22428927, -1023227.25, 106336.48, 0.0, 10.000869, 9.99946 
8.250299e+2, 1.9474001e+2, -961948.94, -1054799.5, -45706.31, 0.032399897, 0.21685264, -943225.4, 88343.97, 0.0, 10.0007105, 9.999477 
8.250416e+2, 2.0473935e+2, -893096.4, -1004770.3, -51155.695, 0.036592297, 0.2191734, -873205.75, 60370.766, 0.0, 10.000656, 9.999175 
8.250532e+2, 2.1473862e+2, -786490.7, -902273.3, -45658.215, 0.048026085, 0.22863899, -770652.25, 64933.055, 0.0, 10.000714, 9.999178 
8.250646e+2, 2.2473799e+2, -677938.5, -788343.1, -51909.074, 0.038813364, 0.24376911, -657365.8, 80226.79, 0.0, 10.00074, 9.999275 
8.250755e+2, 2.3473747e+2, -580262.4, -688950.75, -50302.773, 0.0063544842, 0.26241913, -560554.8, 79043.25, 0.0, 10.0007305, 9.999289 
8.2508683e+2, 2.4473679e+2, -506340.84, -648199.56, -39490.047, -0.0031749008, 0.28589916, -496088.7, 45517.195, 0.0, 10.000762, 9.998879 
8.250986e+2, 2.547359e+2, -396206.13, -543913.0, -42085.21, 0.012639675, 0.30861342, -385056.66, 58559.863, 0.0, 10.000843, 9.998884 
8.2511026e+2, 2.647346e+2, -293150.44, -451070.2, -30587.352, 0.008883601, 0.29224393, -287433.0, 58196.867, 0.0, 10.000911, 9.9988165 
8.2512194e+2, 2.747328e+2, -187102.55, -348028.2, -30772.643, -0.016107151, 0.2309577, -181418.86, 66227.195, 0.0, 10.00096, 9.998827 
8.2513404e+2, 2.847318e+2, -100415.13, -274936.66, -20868.283, -0.012838087, 0.25888166, -97954.516, 51701.04, 0.0, 10.000967, 9.998653 
8.251465e+2, 2.9473162e+2, -10305.12, -183336.56, -19833.234, 0.019950883, 0.375695, -8060.8994, 43597.46, 0.0, 10.000923, 9.998631 
8.2515836e+2, 3.047288e+2, 15408.354, -221416.77, -21824.574, -0.0043882676, 0.2671248, 17402.797, 17402.797, 0.0, 10.001091, 9.997953 
8.251703e+2, 3.1472656e+2, 179646.4, 30650.363, -27722.584, -0.018089814, 0.24365388, 184637.36, 184637.36, 0.000000023716037, 10.001474, 9.9995 
8.34942e+2, 1.247308e+2, -1613394.8, -1767869.9, -105207.85, -0.123826705, 0.19357868, -1560116.6, 157541.02, 0.000000000051048894, 10.001144, 9.999081 
8.349577e+2, 1.3473073e+2, -1491056.3, -1585796.1, 54320.85, 0.011535684, 0.2145353, -1466352.1, 153307.14, 0.0, 10.000981, 9.999746 
8.3497095e+2, 1.4473015e+2, -1429920.1, -1549418.6, -18681.959, -0.0024964986, 0.20255817, -1427067.6, 94597.164, 0.0, 10.000926, 9.999344 
8.349837e+2, 1.5472935e+2, -1315056.6, -1445524.5, -32177.857, 0.033858526, 0.19044153, -1307552.1, 116118.914, 0.0, 10.001053, 9.999323 
8.3499587e+2, 1.6472867e+2, -1208952.5, -1337409.9, -58653.465, 0.041497044, 0.18697421, -1186201.0, 139476.61, 0.0, 10.001081, 9.999378 
8.350074e+2, 1.7472816e+2, -1123124.4, -1244757.4, -45522.035, 0.027226152, 0.1959295, -1107974.5, 119709.414, 0.0, 10.000996, 9.999383 
8.35019e+2, 1.8472761e+2, -1044505.9, -1157929.6, -48528.83, 0.02194724, 0.2064784, -1026576.7, 103113.09, 0.0, 10.00087, 9.999366 
8.3503056e+2, 1.9472705e+2, -969350.5, -1070125.4, -51888.316, 0.023099927, 0.2121158, -947410.25, 84285.33, 0.0, 10.00071, 9.9993725 
8.3504224e+2, 2.0472647e+2, -883829.75, -985622.44, -49547.938, 0.034062214, 0.22034976, -863694.9, 70007.46, 0.0, 10.000656, 9.999307 
8.3505404e+2, 2.1472587e+2, -776722.6, -882334.3, -43888.777, 0.057956044, 0.22816338, -760864.94, 74845.08, 0.0, 10.000715, 9.999314 
8.350655e+2, 2.2472528e+2, -673962.56, -780514.25, -52544.324, 0.056300543, 0.23891754, -652410.44, 85306.17, 0.0, 10.000741, 9.999329 
8.350764e+2, 2.3472473e+2, -576360.7, -681372.25, -50910.58, 0.025360446, 0.24941455, -555731.4, 83990.54, 0.0, 10.000732, 9.99934 
8.3508766e+2, 2.44724e+2, -510466.44, -657135.9, -36777.45, 0.0024962723, 0.2693973, -501761.16, 39968.98, 0.0, 10.000763, 9.998818 
8.350991e+2, 2.5472307e+2, -400904.13, -553546.75, -38954.85, -0.011492491, 0.29438147, -391537.5, 52204.3, 0.0, 10.000842, 9.998818 
8.35111e+2, 2.6472187e+2, -293988.22, -452438.7, -28644.484, -0.00627555, 0.29160574, -288968.9, 56785.74, 0.0, 10.000909, 9.998809 
8.3512324e+2, 2.747203e+2, -187784.69, -349395.63, -28690.037, 0.021095634, 0.25623137, -182842.6, 64926.066, 0.0, 10.000959, 9.998818 
8.3513534e+2, 2.8471926e+2, -98583.59, -271286.0, -22211.541, 0.01989078, 0.27773845, -95772.68, 54005.973, 0.0, 10.000967, 9.998679 
8.351471e+2, 2.9471868e+2, -8259.214, -179310.84, -21245.123, -0.014697555, 0.35144603, -5660.002, 46124.99, 0.0, 10.000924, 9.998658 
8.351591e+2, 3.04716e+2, 22770.705, -205572.92, -7488.265, -0.039572787, 0.24687588, 23016.01, 23016.01, 0.0, 10.001088, 9.998064 
8.351721e+2, 3.147147e+2, 177700.08, 28610.695, -12627.59, 0.015143431, 0.3072851, 178762.05, 178762.05, 0.00000010288848, 10.001465, 9.999491 
8.4494317e+2, 1.2471755e+2, -1646882.1, -1772357.3, -88366.61, -0.09935498, 0.20260069, -1601246.9, 116541.37, 0.0, 10.000864, 9.999185 
8.4495866e+2, 1.3471743e+2, -1438806.0, -1551016.9, 39655.36, 0.001653468, 0.20975858, -1426206.5, 193582.86, 0.0, 10.001301, 9.999829 
8.449721e+2, 1.4471692e+2, -1373378.3, -1525906.5, -46098.773, -0.006680315, 0.20186941, -1360528.4, 161265.53, 0.0, 10.001331, 9.999309 
8.449846e+2, 1.5471604e+2, -1331951.9, -1457552.0, -36322.02, 0.02330359, 0.18597758, -1322204.5, 101596.87, 0.0, 10.000954, 9.999288 
8.4499663e+2, 1.6471541e+2, -1244952.3, -1339593.6, -53857.97, 0.029577104, 0.18315917, -1220579.6, 105227.805, 0.0, 10.000769, 9.999514 
8.4500825e+2, 1.7471509e+2, -1140985.8, -1237476.8, -56329.92, 0.019191664, 0.19770318, -1115064.6, 112747.1, 0.0, 10.000804, 9.999524 
8.4501976e+2, 1.8471463e+2, -1049819.0, -1154991.1, -64421.008, 0.017837234, 0.20595065, -1019246.44, 110570.24, 0.0, 10.00081, 9.999415 
8.450313e+2, 1.9471401e+2, -956492.0, -1058483.8, -56155.23, 0.022944124, 0.20076092, -931632.8, 100190.04, 0.0, 10.000774, 9.999422 
8.450429e+2, 2.047135e+2, -864346.75, -967330.2, -45059.266, 0.03195227, 0.21027955, -847415.25, 86413.51, 0.0, 10.0007515, 9.999387 
8.450546e+2, 2.1471313e+2, -767038.75, -868741.0, -43734.383, 0.047071345, 0.23281853, -750818.75, 85015.67, 0.0, 10.000743, 9.999394 
8.450662e+2, 2.2471258e+2, -668491.75, -779197.44, -56279.914, 0.048217446, 0.24444117, -644905.6, 92935.055, 0.0, 10.000785, 9.999316 
8.450773e+2, 2.3471187e+2, -555168.75, -672710.1, -59814.14, 0.032936487, 0.23990957, -530084.06, 109763.47, 0.0, 10.000885, 9.999326 
8.4508854e+2, 2.447111e+2, -495278.78, -649743.25, -49231.887, 0.013650419, 0.2566092, -480921.72, 60934.492, 0.0, 10.000868, 9.998818 
8.450999e+2, 2.547103e+2, -419062.6, -562477.75, -47175.063, -0.010372522, 0.29217368, -404936.22, 38930.85, 0.0, 10.000719, 9.9988165 
8.451118e+2, 2.6470914e+2, -316923.66, -460686.38, -27349.787, -0.007955143, 0.29658344, -311896.38, 33982.85, 0.0, 10.00074, 9.998833 
8.451242e+2, 2.7470767e+2, -187482.02, -346426.34, -25121.531, 0.024839928, 0.26450366, -183606.02, 64286.637, 0.0, 10.000951, 9.998842 
8.4513634e+2, 2.8470653e+2, -90295.04, -274518.03, -26766.818, 0.024418581, 0.28110117, -86484.74, 63418.605, 0.0, 10.001056, 9.998613 
8.451481e+2, 2.9470575e+2, 2740.7349, -181466.58, -33173.895, -0.014448816, 0.34006405, 8532.895, 60444.895, 0.0, 10.001033, 9.99859 
8.451601e+2, 3.0470315e+2, 31111.338, -178788.7, -10760.842, -0.03938807, 0.23817012, 31661.566, 31661.566, 0.00000000024035085, 10.001048, 9.998266 
8.4517336e+2, 3.1470248e+2, 129068.1, 14641.277, -9172.8125, 0.015151436, 0.34149468, 129798.76, 129798.76, 0.00000026211356, 10.001091, 9.999575 
8.549443e+2, 1.24704406e+2, -1663687.6, -1807877.3, -67304.02, -0.07334583, 0.21040356, -1637154.4, 80762.805, 0.0, 10.000866, 9.998941 
8.549601e+2, 1.3470401e+2, -1458817.3, -1592270.9, 55555.1, 0.008506099, 0.21712655, -1438717.5, 181203.86, 0.0, 10.001299, 9.999548 
8.5497344e+2, 1.4470348e+2, -1355001.8, -1488166.0, -59899.348, 0.00019037793, 0.20994508, -1332023.1, 189902.84, 0.0, 10.001332, 9.999568 
8.5498536e+2, 1.5470262e+2, -1312066.5, -1417297.1, -50326.336, 0.0018785008, 0.16779348, -1291873.1, 132059.56, 0.0, 10.0009575, 9.999562 
8.5499716e+2, 1.6470212e+2, -1248507.3, -1347902.0, -53038.27, 0.0037160455, 0.167204, -1225521.1, 100416.375, 0.0, 10.000772, 9.9994545 
8.5500896e+2, 1.7470206e+2, -1145557.9, -1247097.8, -54968.664, 0.011691423, 0.21441504, -1121500.4, 106439.49, 0.0, 10.000804, 9.999458 
8.5502064e+2, 1.8470167e+2, -1036058.44, -1126379.1, -65793.82, 0.02126569, 0.2231062, -1001417.25, 128526.94, 0.0, 10.000809, 9.999613 
8.550321e+2, 1.947009e+2, -942021.0, -1028908.25, -57741.574, 0.031424932, 0.18280604, -913205.1, 118745.79, 0.0, 10.000775, 9.999624 
8.550436e+2, 2.0470047e+2, -862123.6, -963162.1, -45943.67, 0.029845225, 0.18860188, -844356.56, 89599.14, 0.0, 10.000752, 9.999414 
8.5505503e+2, 2.1470043e+2, -765374.06, -865289.1, -44510.453, 0.015412605, 0.24279284, -748421.7, 87536.586, 0.0, 10.000742, 9.999419 
8.550666e+2, 2.2469993e+2, -674176.0, -790852.2, -53094.637, 0.014612433, 0.26083168, -653632.06, 84332.37, 0.0, 10.000783, 9.999237 
8.550781e+2, 2.346989e+2, -560828.5, -684415.5, -56109.406, 0.029006831, 0.23355655, -539155.25, 100819.47, 0.0, 10.000884, 9.999247 
8.550896e+2, 2.446981e+2, -491698.5, -642299.44, -54673.633, 0.029574353, 0.24694657, -473943.25, 68040.74, 0.0, 10.000867, 9.998871 
8.5510087e+2, 2.546975e+2, -415069.47, -554742.7, -52778.25, 0.0145448325, 0.30146775, -397369.25, 46623.066, 0.0, 10.000721, 9.998869 
8.551127e+2, 2.6469645e+2, -313193.56, -453327.63, -19815.918, 0.0030531615, 0.30722487, -310445.38, 35558.18, 0.0, 10.000741, 9.998883 
8.551249e+2, 2.7469483e+2, -184112.92, -339125.63, -17032.44, -0.0037603208, 0.256881, -182263.5, 65754.375, 0.0, 10.000949, 9.998894 
8.5513717e+2, 2.8469363e+2, -101520.37, -297359.78, -27127.65, 0.0010844829, 0.2696959, -97832.11, 52197.477, 0.0, 10.001053, 9.998458 
8.551494e+2, 2.946928e+2, -8472.556, -204824.8, -33426.0, 0.01749649, 0.3404461, -2938.2708, 49101.168, 0.0, 10.001032, 9.99843 
8.5516155e+2, 3.0469024e+2, 50937.08, -137464.13, -8536.815, -0.006753735, 0.23995334, 51323.105, 51323.105, 0.0000000059514194, 10.001047, 9.99855 
8.551741e+2, 3.1468987e+2, 140423.47, 38749.914, -6947.845, -0.017352708, 0.34433535, 140896.05, 140896.05, 0.0000005093443, 10.001089, 9.999742 
8.6494595e+2, 1.2469144e+2, -1528297.9, -1744641.8, -52816.914, -0.044577885, 0.21817648, -1516092.0, 201951.69, 0.00000000000000000000885557, 10.001805, 9.998921 
8.649612e+2, 1.3469075e+2, -1495647.9, -1616732.3, 80597.45, 0.0057074875, 0.20044862, -1455386.8, 164663.73, 0.0, 10.001078, 9.999486 
8.649745e+2, 1.4469025e+2, -1433536.6, -1523636.5, -31668.95, 0.00027619163, 0.19875467, -1423519.3, 98535.71, 0.0, 10.000783, 9.999589 
8.6498624e+2, 1.5468958e+2, -1301652.0, -1409477.6, -40922.453, -0.0019410251, 0.17146567, -1287880.0, 136180.63, 0.0, 10.001017, 9.999587 
8.64998e+2, 1.6468912e+2, -1209125.8, -1328226.3, -51878.32, -0.0014928849, 0.17394814, -1189697.5, 136367.8, 0.0, 10.001039, 9.999462 
8.650098e+2, 1.7468897e+2, -1142407.5, -1244621.9, -48034.04, 0.0066415095, 0.21174306, -1123377.5, 104690.72, 0.0, 10.000822, 9.999467 
8.6502135e+2, 1.846886e+2, -1038780.9, -1118973.6, -55408.5, 0.016533634, 0.21897224, -1010482.6, 119589.58, 0.0, 10.000752, 9.99969 
8.650329e+2, 1.9468798e+2, -926133.56, -1012410.1, -56684.85, 0.027812332, 0.18597485, -898039.25, 134038.3, 0.0, 10.000846, 9.999704 
8.6504436e+2, 2.046876e+2, -851604.0, -958875.1, -54762.35, 0.027390564, 0.19155897, -828586.56, 105495.36, 0.0, 10.000828, 9.999408 
8.650558e+2, 2.1468745e+2, -774973.4, -870788.5, -55947.273, 0.01359265, 0.23740885, -749224.75, 86860.27, 0.0, 10.00068, 9.999411 
8.650672e+2, 2.2468695e+2, -700487.0, -804382.8, -58351.848, 0.0090423925, 0.25610277, -674309.9, 63781.465, 0.0, 10.000607, 9.999229 
8.6507875e+2, 2.3468603e+2, -600625.9, -704394.7, -56469.887, 0.014980952, 0.23962805, -575823.6, 64277.547, 0.0, 10.000615, 9.999239 
8.6509025e+2, 2.4468526e+2, -517326.06, -653831.5, -55972.63, 0.021615114, 0.256069, -497310.06, 44800.23, 0.0, 10.000689, 9.998878 
8.651018e+2, 2.5468463e+2, -397727.3, -545542.2, -57828.492, 0.028955383, 0.30485934, -377792.1, 66326.58, 0.0, 10.000837, 9.998876 
8.651136e+2, 2.6468349e+2, -290788.25, -442969.22, -25719.63, 0.016847057, 0.30423513, -286558.97, 59571.37, 0.0, 10.000897, 9.998878 
8.6512566e+2, 2.746818e+2, -198130.58, -346534.2, -27333.885, -0.016505135, 0.24650234, -193256.16, 54889.367, 0.0, 10.000856, 9.998887 
8.65138e+2, 2.8468066e+2, -119913.51, -300273.22, -33027.96, -0.013968758, 0.26233545, -114055.59, 36101.03, 0.0, 10.000901, 9.99851 
8.651505e+2, 2.9468003e+2, -3269.287, -195659.83, -24053.385, 0.027233219, 0.3484115, -307.6348, 51856.51, 0.0, 10.00104, 9.998488 
8.651628e+2, 3.0467743e+2, 62642.168, -131022.31, -2156.5044, 0.009256078, 0.24041927, 62666.176, 62666.176, 0.000000027135602, 10.001124, 9.998557 
8.651752e+2, 3.146768e+2, 136259.25, 22721.902, -21929.746, -0.01998025, 0.31667504, 140347.75, 140347.75, 0.00000083365, 10.001121, 9.999616 
8.74948e+2, 1.2467871e+2, -1513143.4, -1714062.5, -75188.836, -0.016202105, 0.2274298, -1488122.0, 230045.48, 0.0000000055054987, 10.001807, 9.999131 
8.7496215e+2, 1.3467768e+2, -1484015.0, -1593092.5, 52493.734, -0.0087851565, 0.15977515, -1462856.5, 157319.73, 0.0, 10.00108, 9.999647 
8.7497514e+2, 1.4467725e+2, -1448765.1, -1556111.3, -24222.111, -0.008503602, 0.16805725, -1443552.6, 78627.695, 0.0, 10.000786, 9.999366 
8.749874e+2, 1.546769e+2, -1317890.3, -1443427.3, -32085.027, 0.0118475, 0.19716562, -1310165.3, 114019.72, 0.0, 10.001017, 9.999354 
8.749992e+2, 1.6467641e+2, -1203598.6, -1317258.9, -59850.508, 0.01424198, 0.20431392, -1177895.4, 148295.23, 0.0, 10.00104, 9.999537 
8.750105e+2, 1.746758e+2, -1135973.9, -1232095.6, -56358.54, 0.0033630459, 0.18998858, -1109966.3, 118230.39, 0.0, 10.000825, 9.999552 
8.75022e+2, 1.8467544e+2, -1041183.44, -1124653.3, -52498.035, 0.0027877914, 0.19336627, -1015852.4, 114348.27, 0.0, 10.000754, 9.999651 
8.7503356e+2, 1.9467528e+2, -929096.44, -1018719.3, -53434.81, 0.011681832, 0.21014327, -904170.2, 128032.31, 0.0, 10.000846, 9.999661 
8.750452e+2, 2.0467488e+2, -854368.2, -964743.6, -60555.387, 0.023857202, 0.21943726, -827625.2, 106581.87, 0.0, 10.000828, 9.999368 
8.750567e+2, 2.1467422e+2, -777356.4, -876521.06, -61930.164, 0.040447775, 0.2168856, -747605.56, 88608.984, 0.0, 10.000683, 9.999371 
8.7506807e+2, 2.2467367e+2, -695956.2, -795935.8, -58558.4, 0.030589016, 0.23015301, -668952.06, 69269.13, 0.0, 10.00061, 9.999286 
8.750791e+2, 2.3467325e+2, -596347.2, -695959.9, -56296.848, -0.00903405, 0.25776774, -570987.0, 69239.86, 0.0, 10.000616, 9.999296 
8.7509066e+2, 2.4467258e+2, -519946.56, -659378.7, -50623.97, -0.0099960165, 0.2838105, -503505.13, 38729.832, 0.0, 10.000688, 9.998839 
8.7510264e+2, 2.546716e+2, -400364.94, -551401.4, -51947.41, 0.032677528, 0.30257455, -384223.25, 60022.766, 0.0, 10.000838, 9.998836 
8.751146e+2, 2.6467028e+2, -294888.25, -452013.13, -26810.766, 0.03284942, 0.287886, -290439.4, 55820.03, 0.0, 10.000899, 9.998816 
8.7512654e+2, 2.7466854e+2, -202481.16, -355946.0, -28468.488, -0.01489407, 0.23343553, -197370.31, 50905.14, 0.0, 10.000856, 9.998823 
8.751388e+2, 2.846676e+2, -103000.32, -264803.44, -27801.416, -0.021943426, 0.25876683, -98356.68, 51927.77, 0.0, 10.0009, 9.998755 
8.7515146e+2, 2.946674e+2, 14500.704, -158160.48, -18685.809, 0.01599295, 0.36306688, 16499.783, 68786.14, 0.0, 10.001038, 9.998748 
8.7516385e+2, 3.0466467e+2, 44601.457, -167822.81, -1683.3859, 0.009471066, 0.23953639, 44614.797, 44614.797, 0.00000006425192, 10.0011215, 9.998306 
8.751765e+2, 3.1466317e+2, 108123.875, -34984.527, -20879.307, 0.0027034406, 0.25721988, 111107.91, 111107.91, 0.0000011924308, 10.001117, 9.999221 
8.8494974e+2, 1.2466553e+2, -1577754.9, -1730041.8, -78609.836, 0.008076718, 0.18757033, -1544457.3, 173837.75, 0.00000006865042, 10.0013, 9.999267 
8.849633e+2, 1.3466486e+2, -1446432.1, -1565658.9, 37080.684, -0.015237149, 0.14854479, -1435840.6, 184459.77, 0.0, 10.001299, 9.99973 
8.849761e+2, 1.4466459e+2, -1398765.5, -1542552.8, -24829.348, -0.014122716, 0.1728316, -1394598.8, 127704.62, 0.0, 10.001175, 9.999271 
8.849884e+2, 1.5466402e+2, -1335454.6, -1462755.9, -21750.855, 0.009329049, 0.1898815, -1331840.9, 92470.03, 0.0, 10.000944, 9.999257 
8.850001e+2, 1.6466348e+2, -1225299.5, -1320416.4, -46720.24, 0.011821846, 0.1945058, -1206190.3, 120126.93, 0.0, 10.00086, 9.999601 
8.850114e+2, 1.7466305e+2, -1115239.1, -1214676.6, -45010.47, -0.0017587994, 0.1885443, -1097891.5, 130429.75, 0.0, 10.000935, 9.9996195 
8.850227e+2, 1.8466268e+2, -1032978.4, -1138171.9, -45116.23, -0.002889044, 0.19791828, -1016279.44, 114045.77, 0.0, 10.000886, 9.999495 
8.850343e+2, 1.9466239e+2, -962034.6, -1052525.4, -55119.71, 0.00654707, 0.21808895, -935968.5, 96360.74, 0.0, 10.000698, 9.9995 
8.850458e+2, 2.0466192e+2, -866500.1, -959051.6, -58525.8, 0.019550513, 0.2221566, -838165.44, 96169.195, 0.0, 10.000695, 9.999471 
8.8505745e+2, 2.1466123e+2, -737714.06, -844813.0, -48665.07, 0.037760343, 0.20457794, -718904.44, 117436.95, 0.0, 10.000901, 9.999483 
8.850688e+2, 2.2466072e+2, -656348.9, -785099.44, -48866.21, 0.030235827, 0.21898551, -639902.8, 98444.68, 0.0, 10.000918, 9.999212 
8.850798e+2, 2.346604e+2, -586729.6, -700379.0, -57613.6, -0.0066682724, 0.26660293, -562632.3, 77720.51, 0.0, 10.000722, 9.999215 
8.850913e+2, 2.4465969e+2, -518167.53, -656763.8, -46254.387, -0.009487291, 0.292727, -504148.78, 38212.5, 0.0, 10.000693, 9.998855 
8.8510346e+2, 2.5465852e+2, -395961.22, -547087.94, -43291.17, 0.02615894, 0.28855965, -384438.72, 59934.9, 0.0, 10.000859, 9.998855 
8.8511556e+2, 2.6465714e+2, -298092.5, -462008.22, -24404.1, 0.02971359, 0.27160522, -294536.34, 51851.105, 0.0, 10.000914, 9.99874 
8.851275e+2, 2.7465555e+2, -210611.3, -368575.94, -27581.77, -0.0031748526, 0.23873559, -205933.83, 42469.02, 0.0, 10.000839, 9.998744 
8.8513976e+2, 2.846546e+2, -108009.94, -266504.8, -28848.549, -0.010193372, 0.2681937, -102922.35, 47489.613, 0.0, 10.000863, 9.99876 
8.851524e+2, 2.9465428e+2, 7857.59, -160380.06, -37666.41, 0.011718529, 0.3568423, 15905.653, 68320.46, 0.0, 10.000987, 9.998756 
8.85165e+2, 3.0465153e+2, 36803.58, -165787.94, -24859.504, 0.010295955, 0.2289346, 39809.43, 39809.43, 0.00000010587227, 10.001042, 9.998359 
8.8517785e+2, 3.146501e+2, 87414.32, -52374.07, -21598.387, 0.027726837, 0.24848403, 90675.37, 90675.37, 0.0000015115112, 10.001006, 9.999155 
8.949512e+2, 1.24651946e+2, -1574442.3, -1722839.5, -73778.8, 0.021563256, 0.10001973, -1544004.6, 174421.39, 0.00000033535434, 10.001297, 9.999318 
8.949645e+2, 1.3465235e+2, -1446731.8, -1566282.4, 36476.35, -0.01302866, 0.16735186, -1436481.3, 183941.2, 0.00000000007521531, 10.001299, 9.999725 
8.949772e+2, 1.446523e+2, -1395748.9, -1537331.8, -34110.168, -0.015472647, 0.2143693, -1387959.6, 134464.0, 0.0, 10.001178, 9.999306 
8.9498913e+2, 1.5465097e+2, -1331948.5, -1456337.5, -30713.99, -0.010990837, 0.14998968, -1324778.0, 99660.0, 0.0, 10.000947, 9.9993 
8.9500076e+2, 1.6465038e+2, -1221612.8, -1313317.1, -44386.88, -0.010735104, 0.14404373, -1203647.9, 122796.76, 0.0, 10.000862, 9.99965 
8.950122e+2, 1.7465068e+2, -1111655.0, -1207571.6, -42435.19, -0.009157832, 0.20730937, -1095576.3, 132865.48, 0.0, 10.000936, 9.999668 
8.9502364e+2, 1.8465039e+2, -1051771.3, -1177684.9, -52394.61, -0.0010736345, 0.23316295, -1032821.0, 97624.65, 0.0, 10.000888, 9.999224 
8.95035e+2, 1.9464938e+2, -981478.3, -1093545.3, -62656.445, 0.011973123, 0.21011958, -953454.75, 79002.81, 0.0, 10.0007, 9.999218 
8.9504653e+2, 2.0464873e+2, -849272.25, -923656.44, -51812.125, 0.014347431, 0.19974664, -822685.44, 111779.086, 0.0, 10.000696, 9.999714 
8.9505804e+2, 2.1464847e+2, -719529.2, -806847.1, -41503.105, 0.0057861255, 0.20026053, -702950.2, 133515.34, 0.0, 10.000899, 9.999744 
8.950695e+2, 2.2464807e+2, -670720.0, -814760.6, -56282.625, 0.0076002483, 0.22259931, -651336.5, 87133.66, 0.0, 10.0009165, 9.999009 
8.9508075e+2, 2.3464751e+2, -601800.9, -732456.56, -65143.27, 0.02055372, 0.2664175, -574871.6, 65607.18, 0.0, 10.000725, 9.998994 
8.9509237e+2, 2.4464662e+2, -513192.5, -647483.1, -40534.4, 0.021731315, 0.2832858, -501906.13, 40582.957, 0.0, 10.000697, 9.998918 
8.951041e+2, 2.5464535e+2, -390826.94, -536717.8, -36858.234, 0.009527464, 0.2632626, -382043.78, 62457.555, 0.0, 10.000859, 9.998926 
8.951162e+2, 2.646441e+2, -304497.7, -475085.28, -26854.88, 0.007699274, 0.2555345, -300369.9, 46144.363, 0.0, 10.000913, 9.9986515 
8.9512855e+2, 2.7464277e+2, -217144.42, -382269.5, -30083.99, 0.017931344, 0.26125485, -211834.22, 36693.566, 0.0, 10.000839, 9.99865 
8.9514095e+2, 2.8464165e+2, -123528.234, -298936.97, -23796.434, 0.020168066, 0.28982967, -120357.266, 30181.861, 0.0, 10.000863, 9.998538 
8.951534e+2, 2.9464063e+2, -8556.636, -193751.72, -31980.793, 0.012642678, 0.33130568, -3189.5112, 49359.516, 0.0, 10.000983, 9.99853 
8.9516604e+2, 3.0463797e+2, 58340.617, -118701.11, -25166.29, 0.01015412, 0.20907067, 61848.477, 61848.477, 0.00000013409642, 10.001032, 9.998687 
8.951791e+2, 3.1463742e+2, 102352.05, -18906.14, -21994.795, 0.053959597, 0.28251398, 106218.36, 106218.36, 0.0000016978646, 10.000997, 9.99939 
9.049524e+2, 1.2463917e+2, -1579022.4, -1732186.9, -63423.215, 0.0117602, 0.08507062, -1556169.5, 162380.81, 0.0000010631732, 10.001294, 9.999256 
9.049659e+2, 1.3463953e+2, -1478863.9, -1594948.3, 32607.215, -0.0031125008, 0.15902448, -1470331.9, 150216.36, 0.000000007369457, 10.001135, 9.999608 
9.049785e+2, 1.4463957e+2, -1405187.9, -1529597.5, -39712.313, 0.0012948462, 0.21527609, -1393592.3, 128956.58, 0.0, 10.001061, 9.999414 
9.0499e+2, 1.5463841e+2, -1302515.6, -1429217.5, -31149.742, -0.026510203, 0.15620859, -1295271.6, 129289.35, 0.0, 10.001093, 9.999416 
9.0500146e+2, 1.646378e+2, -1201477.9, -1319221.9, -45385.844, -0.032581285, 0.14959484, -1186014.3, 140553.44, 0.0, 10.001068, 9.99951 
9.0501314e+2, 1.7463788e+2, -1114805.5, -1225373.9, -58445.188, -0.009670224, 0.20473202, -1089639.9, 138927.72, 0.0, 10.000986, 9.99952 
9.050246e+2, 1.846375e+2, -1041466.2, -1164512.5, -67463.72, 0.0053238967, 0.2275415, -1011685.2, 118887.01, 0.0, 10.000924, 9.999295 
9.0503585e+2, 1.9463661e+2, -949882.9, -1069567.1, -50950.324, 0.009850527, 0.20800015, -931131.0, 101451.29, 0.0, 10.00088, 9.999295 
9.050471e+2, 2.04636e+2, -844101.3, -933455.5, -33749.62, 0.004993435, 0.20214112, -832786.6, 101802.14, 0.0, 10.000786, 9.999603 
9.050587e+2, 2.1463567e+2, -766311.1, -842532.94, -51843.82, -0.009970209, 0.20805655, -740077.44, 96513.44, 0.0, 10.000636, 9.999626 
9.050701e+2, 2.2463514e+2, -712223.7, -838050.3, -76279.54, -0.00271828, 0.22405414, -676260.06, 62336.9, 0.0, 10.000647, 9.99898 
9.050817e+2, 2.3463434e+2, -586426.8, -728099.6, -71147.734, 0.029413812, 0.24802986, -556865.06, 83742.41, 0.0, 10.000844, 9.998966 
9.0509325e+2, 2.4463344e+2, -480314.2, -628257.7, -39338.0, 0.03386255, 0.26264283, -470504.7, 72112.89, 0.0, 10.000909, 9.998947 
9.0510494e+2, 2.5463238e+2, -394403.88, -534933.0, -38782.895, 0.006548649, 0.26098284, -384411.22, 60216.26, 0.0, 10.00082, 9.998957 
9.05117e+2, 2.646311e+2, -327833.72, -497999.78, -32410.967, 0.002178628, 0.25947905, -321869.56, 24770.729, 0.0, 10.000803, 9.998546 
9.0512943e+2, 2.7462965e+2, -221860.13, -397063.3, -37248.56, 0.024585098, 0.2569489, -214269.83, 34386.465, 0.0, 10.000861, 9.998538 
9.051419e+2, 2.8462842e+2, -127075.6, -299295.25, -23378.965, 0.03218398, 0.2807148, -123958.31, 26710.568, 0.0, 10.000833, 9.99855 
9.051543e+2, 2.9462737e+2, -47774.66, -210153.47, -14437.6, 0.021715553, 0.322238, -46500.957, 6177.468, 0.0, 10.000704, 9.998551 
9.05167e+2, 3.0462494e+2, 12904.507, -131211.14, -5570.214, 0.022383647, 0.21421148, 13119.48, 13119.48, 0.0000001316986, 10.00068, 9.99877 
9.0518016e+2, 3.146246e+2, 66000.48, -39187.61, -20891.713, 0.072743684, 0.30127493, 69997.92, 69997.92, 0.0000016698094, 10.000758, 9.999365 
9.149533e+2, 1.24627285e+2, -1589571.1, -1755817.3, -65116.13, -0.026339715, 0.1455847, -1567102.8, 151564.6, 0.0000026057617, 10.0013, 9.999092 
9.149672e+2, 1.3462645e+2, -1494733.4, -1627979.0, 25848.297, 0.012239259, 0.12343885, -1489894.8, 130782.34, 0.00000007607973, 10.001134, 9.999382 
9.1497993e+2, 1.4462642e+2, -1393052.9, -1504499.5, -38857.07, 0.033921037, 0.1747669, -1380842.8, 141835.72, 0.0, 10.001061, 9.999588 
9.1499096e+2, 1.5462637e+2, -1289401.3, -1402385.4, -30112.434, -0.03715281, 0.2088288, -1281876.9, 142802.45, 0.0, 10.001094, 9.9996 
9.1500235e+2, 1.646258e+2, -1224285.9, -1367398.4, -48898.715, -0.05351765, 0.21224587, -1209173.9, 117512.0, 0.0, 10.001071, 9.999179 
9.1501415e+2, 1.7462465e+2, -1138928.1, -1275878.0, -61837.867, -0.004043911, 0.18128432, -1115138.5, 113559.82, 0.0, 10.000987, 9.999174 
9.1502565e+2, 1.8462408e+2, -1012843.94, -1105205.5, -69538.67, 0.015614657, 0.18108697, -975548.44, 155156.0, 0.0, 10.000924, 9.999703 
9.1503656e+2, 1.9462411e+2, -919244.5, -1006213.5, -53148.27, -0.00013435425, 0.21140641, -894058.44, 138644.77, 0.0, 10.00088, 9.999731 
9.1504776e+2, 2.0462371e+2, -876386.0, -1000840.56, -39939.297, -0.009201092, 0.22905302, -864671.56, 70035.65, 0.0, 10.000787, 9.999141 
9.1505927e+2, 2.1462286e+2, -800987.8, -914911.0, -58036.277, -0.010373574, 0.227806, -776630.06, 60087.133, 0.0, 10.000637, 9.999129 
9.150708e+2, 2.2462192e+2, -702599.8, -818354.4, -69682.39, -0.0011679422, 0.22352433, -669893.3, 68834.266, 0.0, 10.000647, 9.999115 
9.150824e+2, 2.3462093e+2, -575188.6, -704946.56, -63815.0, 0.02047211, 0.21203454, -549064.1, 91674.32, 0.0, 10.000844, 9.9991255 
9.150941e+2, 2.4462014e+2, -480392.22, -628682.7, -42231.08, 0.027081925, 0.23104735, -469208.8, 73537.87, 0.0, 10.000909, 9.998944 
9.151058e+2, 2.5461957e+2, -394791.53, -536336.56, -41870.24, 0.016089877, 0.28062597, -383333.5, 61418.477, 0.0, 10.000822, 9.998947 
9.151179e+2, 2.6461828e+2, -336173.8, -515865.88, -30019.678, 0.012028312, 0.2826124, -331291.34, 15474.042, 0.0, 10.000804, 9.998424 
9.151302e+2, 2.7461615e+2, -231085.42, -416043.03, -34378.14, 0.016611889, 0.22714694, -224902.25, 23885.844, 0.0, 10.000859, 9.998409 
9.1514266e+2, 2.846149e+2, -111937.914, -266773.6, -27620.115, 0.02583625, 0.24250615, -107158.48, 43642.523, 0.0, 10.000828, 9.998776 
9.1515523e+2, 2.9461455e+2, -31543.773, -175191.2, -18974.133, 0.038847916, 0.3288463, -29079.78, 23723.494, 0.0, 10.000698, 9.998795 
9.151679e+2, 3.046124e+2, 2494.7092, -151294.9, -2184.5017, 0.04665103, 0.24294119, 2525.7327, 2525.7327, 0.00000009563079, 10.000672, 9.998636 
9.1518104e+2, 3.1461164e+2, 47365.63, -75998.75, -16106.085, 0.081165604, 0.3015048, 49433.723, 49433.723, 0.0000014046396, 10.000749, 9.999117 
9.2495465e+2, 1.2461508e+2, -1589761.9, -1749100.8, -64319.996, -0.019873964, 0.17986037, -1567038.5, 151749.34, 0.000005355975, 10.00127, 9.99915 
9.2496806e+2, 1.3461393e+2, -1472816.9, -1616124.1, 39849.91, -0.010248441, 0.12577453, -1462481.1, 158318.9, 0.00000033393198, 10.001281, 9.999391 
9.249809e+2, 1.446138e+2, -1376394.4, -1507946.3, -24066.316, 0.018318588, 0.16989271, -1372129.9, 150672.42, 0.0, 10.001226, 9.999483 
9.249922e+2, 1.5461382e+2, -1294780.0, -1416615.8, -37695.934, -0.020724447, 0.22130297, -1284060.0, 140742.7, 0.0, 10.001109, 9.999494 
9.250036e+2, 1.6461319e+2, -1231818.0, -1370800.3, -56887.03, -0.033117887, 0.22492214, -1211502.9, 115306.836, 0.0, 10.00102, 9.999178 
9.250151e+2, 1.7461187e+2, -1142823.0, -1277494.1, -43891.254, -0.012414662, 0.17470999, -1129781.3, 99042.484, 0.0, 10.00096, 9.999175 
9.2502636e+2, 1.8461122e+2, -1016763.2, -1109536.3, -52225.59, -0.00022253985, 0.16953138, -993298.25, 137531.75, 0.0, 10.000909, 9.9996805 
9.250375e+2, 1.9461134e+2, -922336.6, -1009907.75, -70514.59, 0.0008547288, 0.21089135, -883119.25, 149708.45, 0.0, 10.000871, 9.999709 
9.2504865e+2, 2.0461088e+2, -884472.4, -1021322.0, -66896.83, -0.0009983763, 0.23021579, -857204.25, 77628.19, 0.0, 10.000804, 9.998991 
9.2506e+2, 2.1460977e+2, -802337.44, -932821.7, -59804.637, -0.006218588, 0.22021411, -779074.6, 57770.637, 0.0, 10.000703, 9.998974 
9.250715e+2, 2.2460876e+2, -693339.4, -809174.3, -51900.887, -0.002418393, 0.21462713, -673487.06, 65369.28, 0.0, 10.000691, 9.999156 
9.250831e+2, 2.3460789e+2, -580898.9, -702176.8, -54261.68, 0.012475013, 0.21031581, -560165.75, 80699.75, 0.0, 10.000781, 9.999174 
9.2509484e+2, 2.4460714e+2, -491383.56, -634406.6, -43722.734, 0.020536387, 0.22890343, -479076.38, 63796.867, 0.0, 10.000835, 9.99894 
9.2510676e+2, 2.546065e+2, -391260.47, -535517.5, -43760.4, 0.02027125, 0.2691491, -379023.75, 65855.7, 0.0, 10.000851, 9.9989395 
9.251188e+2, 2.6460516e+2, -334418.25, -514318.1, -26741.299, 0.0194694, 0.26900926, -330527.44, 16365.719, 0.0, 10.0008135, 9.998429 
9.2513096e+2, 2.746031e+2, -251456.36, -424867.38, -21653.307, 0.01818201, 0.2197568, -248793.47, 122.00257, 0.0, 10.000716, 9.998417 
9.2514336e+2, 2.8460187e+2, -141065.38, -277411.5, -20039.611, 0.026684755, 0.2381886, -138181.05, 12746.959, 0.0, 10.000614, 9.998806 
9.251558e+2, 2.9460156e+2, -58670.082, -184653.2, -26877.188, 0.045645393, 0.32488802, -53175.734, -245.93109, 0.0, 10.000497, 9.998827 
9.251686e+2, 3.0459955e+2, -25838.303, -148176.23, -3274.5605, 0.06024399, 0.24305162, -25750.717, -25750.717, 0.00000004550982, 10.000407, 9.998785 
9.251817e+2, 3.1459877e+2, -5194.185, -93597.66, 4432.5103, 0.098220795, 0.2852732, -4972.4966, -4972.4966, 0.0000009683944, 10.000356, 9.999185 
9.349564e+2, 1.2460264e+2, -1570192.4, -1708507.5, -61046.83, 0.025799869, 0.18592882, -1547103.1, 171808.22, 0.000009813605, 10.00127, 9.99943 
9.3496877e+2, 1.3460208e+2, -1455394.4, -1580959.5, 40037.832, -0.07064016, 0.16689314, -1443714.4, 177201.67, 0.0000009955157, 10.001286, 9.99963 
9.3498147e+2, 1.4460179e+2, -1402370.1, -1563396.9, -28664.105, -0.04594922, 0.20199223, -1397419.9, 125499.52, 0.00000000002439963, 10.001232, 9.999101 
9.349937e+2, 1.5460081e+2, -1322920.3, -1475234.3, -42246.76, 0.021297587, 0.19374913, -1311987.3, 112943.53, 0.0, 10.001109, 9.999092 
9.350052e+2, 1.6460001e+2, -1209444.3, -1324351.0, -59371.543, 0.027553009, 0.18733095, -1184278.8, 142660.3, 0.0, 10.0010195, 9.999497 
9.350158e+2, 1.7459951e+2, -1118394.9, -1227151.4, -46405.074, -0.03480171, 0.18467385, -1101285.9, 127657.36, 0.0, 10.00096, 9.99952 
9.350269e+2, 1.8459897e+2, -1048262.3, -1175343.3, -54179.082, -0.042699236, 0.19273931, -1028299.7, 102648.914, 0.0, 10.00091, 9.9992285 
9.3503845e+2, 1.9459835e+2, -955883.25, -1079955.3, -72411.695, 0.012128608, 0.20682289, -922567.7, 110387.72, 0.0, 10.000872, 9.9992285 
9.350498e+2, 2.0459752e+2, -873385.3, -998655.1, -71182.14, 0.029037198, 0.20625207, -841204.44, 93759.64, 0.0, 10.000805, 9.999146 
9.3506074e+2, 2.1459647e+2, -789399.44, -906498.25, -64109.797, 0.002139136, 0.18572506, -761126.6, 75848.12, 0.0, 10.000705, 9.999155 
9.3507206e+2, 2.245957e+2, -696592.3, -816597.0, -49114.832, -0.007040615, 0.19711845, -679054.06, 59928.973, 0.0, 10.000693, 9.9991045 
9.350838e+2, 2.3459525e+2, -584998.5, -711093.25, -50971.27, 0.0048749633, 0.24170618, -566971.56, 74016.98, 0.0, 10.000782, 9.999113 
9.3509567e+2, 2.4459442e+2, -491992.7, -635770.4, -43067.523, 0.013704462, 0.25549757, -480079.28, 62917.945, 0.0, 10.000835, 9.998931 
9.351075e+2, 2.5459307e+2, -391913.13, -536626.44, -42824.777, 0.018845728, 0.22781819, -380189.78, 64819.813, 0.0, 10.000849, 9.998933 
9.351196e+2, 2.6459172e+2, -326055.44, -496337.1, -30044.469, 0.024067512, 0.21991418, -320909.88, 26113.494, 0.0, 10.000811, 9.998555 
9.3513185e+2, 2.7459043e+2, -242721.8, -406130.38, -24996.783, 0.028765978, 0.23366854, -238983.53, 10055.043, 0.0, 10.000713, 9.998548 
9.3514407e+2, 2.8458935e+2, -152149.5, -299842.9, -23947.674, 0.033995032, 0.26615214, -148363.56, 2686.5134, 0.0, 10.00061, 9.998654 
9.351563e+2, 2.9458848e+2, -70309.875, -208469.22, -30582.541, 0.040842462, 0.3102419, -63842.92, -10785.032, 0.0, 10.000494, 9.998665 
9.35169e+2, 3.0458644e+2, 947.7628, -90755.93, -4942.007, 0.061946675, 0.21564277, 1213.3237, 1213.3237, 0.000000010385675, 10.0004, 9.999184 
9.3518233e+2, 3.1458595e+2, 16440.887, -44225.426, 3407.9568, 0.12258683, 0.25104076, 16631.73, 16631.73, 0.00000050425, 10.000337, 9.999534 
9.449576e+2, 1.2458992e+2, -1565050.5, -1706355.8, -63260.54, 0.025457399, 0.17617205, -1540868.0, 178167.77, 0.000016619406, 10.001308, 9.999426 
9.4496995e+2, 1.3458955e+2, -1459947.8, -1588175.1, 12093.254, -0.077155925, 0.17940015, -1458817.3, 162221.88, 0.0000023427797, 10.001277, 9.999584 
9.4498265e+2, 1.445892e+2, -1398321.4, -1562650.9, -56062.688, -0.04993067, 0.21307279, -1381017.1, 142025.77, 0.0000000053592455, 10.001268, 9.999087 
9.4499487e+2, 1.5458794e+2, -1297950.1, -1464172.6, -40805.688, 0.017351918, 0.17810751, -1288473.1, 136583.47, 0.0, 10.001287, 9.999082 
9.450063e+2, 1.6458713e+2, -1178608.5, -1305077.1, -55111.418, 0.023920137, 0.16795339, -1157962.9, 169101.9, 0.0, 10.001214, 9.999536 
9.4501674e+2, 1.7458689e+2, -1105069.0, -1215722.1, -65561.305, -0.039098848, 0.1877816, -1074609.1, 154457.13, 0.0, 10.001033, 9.999563 
9.450277e+2, 1.8458636e+2, -1055974.4, -1192946.9, -70482.016, -0.04821093, 0.20108122, -1026185.06, 104886.46, 0.0, 10.000918, 9.999103 
9.450393e+2, 1.9458546e+2, -964147.44, -1098867.1, -62663.33, 0.005107061, 0.20125481, -939507.06, 93574.31, 0.0, 10.00088, 9.999094 
9.4505054e+2, 2.0458448e+2, -863536.94, -992352.56, -53212.293, 0.026912069, 0.19168319, -844398.9, 90692.52, 0.0, 10.000866, 9.99916 
9.450616e+2, 2.1458343e+2, -762900.75, -891530.44, -58402.426, 0.012317763, 0.16749217, -740340.7, 96760.86, 0.0, 10.000878, 9.999173 
9.4507295e+2, 2.2458267e+2, -675168.4, -809957.1, -47222.305, 0.0040511126, 0.1824973, -660270.94, 78838.41, 0.0, 10.000856, 9.999071 
9.450846e+2, 2.3458232e+2, -585008.2, -715250.44, -47366.652, 0.0032122822, 0.23965928, -569603.8, 71510.41, 0.0, 10.000801, 9.999076 
9.450964e+2, 2.4458143e+2, -509306.5, -641961.4, -40646.918, 0.0087184105, 0.2501262, -497842.53, 45280.79, 0.0, 10.000708, 9.99895 
9.451083e+2, 2.545799e+2, -431435.6, -553178.5, -38928.996, 0.021486796, 0.20053503, -420051.94, 25085.656, 0.0, 10.000567, 9.998954 
9.4512033e+2, 2.6457864e+2, -368051.47, -508533.53, -26731.428, 0.031166831, 0.19599277, -363136.84, -15986.237, 0.0, 10.000488, 9.998626 
9.451325e+2, 2.7457774e+2, -271950.47, -412153.97, -26057.188, 0.036827028, 0.24306396, -267264.3, -18102.357, 0.0, 10.000478, 9.99862 
9.4514465e+2, 2.8457665e+2, -178259.19, -317682.56, -24397.873, 0.042832717, 0.27615458, -174113.06, -22939.703, 0.0, 10.000455, 9.998607 
9.451568e+2, 2.9457533e+2, -85738.93, -221340.81, -23746.926, 0.05000522, 0.28287828, -81700.57, -28515.156, 0.0, 10.000413, 9.998615 
9.451694e+2, 3.0457336e+2, -22041.953, -84001.92, -9372.218, 0.07200575, 0.18839377, -20655.32, -20655.32, 0.00000000032400083, 10.000165, 9.999343 
9.451824e+2, 3.1457326e+2, -73659.74, -75875.15, -19339.621, 0.13137442, 0.24117626, -55396.125, -55396.125, 0.00000016973306, 9.999668, 9.999638 
9.5495844e+2, 1.24577016e+2, -1584384.5, -1749240.5, -61625.816, -0.029448606, 0.15249701, -1563894.5, 155265.83, 0.000026449812, 10.001318, 9.999128 
9.5497173e+2, 1.3457638e+2, -1483823.3, -1637819.5, 10694.717, -0.030691538, 0.16280623, -1483084.1, 138084.44, 0.0000047469885, 10.001277, 9.999244 
9.549845e+2, 1.4457609e+2, -1374529.5, -1513029.1, -55197.938, 0.0061437427, 0.2026008, -1355222.3, 167950.0, 0.000000046136613, 10.0012665, 9.999429 
9.549957e+2, 1.5457527e+2, -1271640.0, -1410183.0, -40016.53, -0.032502633, 0.17448804, -1260912.4, 164267.33, 0.0, 10.001289, 9.999452 
9.550068e+2, 1.6457455e+2, -1195229.5, -1340307.8, -61830.066, -0.044720583, 0.16706733, -1172454.0, 154732.58, 0.0, 10.001216, 9.999293 
9.5501786e+2, 1.7457402e+2, -1123540.0, -1254533.6, -72593.695, -0.026168363, 0.18410775, -1091263.3, 137929.02, 0.0, 10.001034, 9.999296 
9.5502895e+2, 1.8457343e+2, -1042430.3, -1165337.1, -72612.34, -0.017490251, 0.19498831, -1008757.06, 122441.39, 0.0, 10.00092, 9.999291 
9.5503986e+2, 1.945727e+2, -949382.3, -1068675.8, -64582.65, -0.020095343, 0.19393726, -921116.3, 112088.945, 0.0, 10.000881, 9.999301 
9.5505106e+2, 2.045718e+2, -872528.2, -1011241.25, -53498.13, -0.007426165, 0.18589719, -854292.6, 80921.555, 0.0, 10.000866, 9.999031 
9.550626e+2, 2.1457061e+2, -772926.4, -912457.1, -58553.066, 0.02362208, 0.16533482, -751611.2, 85614.31, 0.0, 10.000877, 9.99903 
9.550741e+2, 2.2456972e+2, -676503.2, -812762.44, -49814.234, 0.029990086, 0.17130208, -660234.3, 79000.63, 0.0, 10.000856, 9.999052 
9.550854e+2, 2.3456912e+2, -585886.56, -717072.94, -49450.12, 0.0070713814, 0.20499454, -569334.9, 71907.21, 0.0, 10.0008, 9.9990635 
9.5509696e+2, 2.4456823e+2, -506643.38, -636333.94, -45570.195, 0.0050370963, 0.21334355, -492232.4, 51018.97, 0.0, 10.000707, 9.99899 
9.551089e+2, 2.5456697e+2, -428358.06, -546981.8, -43816.367, 0.027638057, 0.18675499, -413928.7, 31334.637, 0.0, 10.000568, 9.998997 
9.551209e+2, 2.6456586e+2, -366761.6, -506099.97, -26915.414, 0.040237818, 0.19646592, -361743.22, -14468.409, 0.0, 10.000488, 9.998643 
9.55133e+2, 2.74565e+2, -271105.53, -409967.13, -25722.76, 0.04131395, 0.24743724, -266493.8, -17208.271, 0.0, 10.000475, 9.998636 
9.551452e+2, 2.8456384e+2, -176226.2, -311979.72, -25254.45, 0.051728696, 0.26821533, -171680.3, -20382.498, 0.0, 10.000447, 9.99865 
9.5515746e+2, 2.9456228e+2, -84085.0, -215764.4, -24475.656, 0.07202703, 0.24424711, -79682.805, -26370.459, 0.0, 10.000402, 9.998658 
9.551697e+2, 3.0456042e+2, -27501.97, -93005.15, -26545.691, 0.08949006, 0.1622619, -18095.047, -18095.047, 0.0, 10.0001545, 9.999287 
9.5518196e+2, 3.145606e+2, -82224.914, -93139.37, -36050.605, 0.12212722, 0.24844067, -51220.824, -51220.824, 0.000000027453995, 9.999665, 9.999521 
9.649597e+2, 1.24564044e+2, -1518249.4, -1731707.3, -60947.938, -0.061908495, 0.11788609, -1502073.0, 217212.88, 0.00003990401, 10.001836, 9.998998 
9.649732e+2, 1.3456349e+2, -1458069.6, -1643799.6, 21542.479, -0.019839182, 0.15295012, -1455603.8, 165690.67, 0.000008636752, 10.001535, 9.999077 
9.6498597e+2, 1.4456321e+2, -1359406.6, -1499866.3, -41915.395, 0.025680473, 0.20225354, -1347849.4, 175448.7, 0.00000019058375, 10.001347, 9.999479 
9.649967e+2, 1.5456243e+2, -1267017.8, -1400587.0, -50213.07, -0.05355066, 0.16971563, -1250246.9, 175057.84, 0.0, 10.00129, 9.999515 
9.6500766e+2, 1.6456167e+2, -1200551.4, -1350035.6, -82309.41, -0.07304414, 0.15876651, -1164112.5, 163199.34, 0.0, 10.001213, 9.999228 
9.65019e+2, 1.7456107e+2, -1117889.8, -1259668.5, -78815.984, -0.023433514, 0.17389046, -1082773.1, 146545.8, 0.0, 10.001108, 9.999225 
9.6502995e+2, 1.845605e+2, -1023889.0, -1146434.1, -72006.24, -0.0056694727, 0.18717337, -990614.06, 140710.8, 0.0, 10.001005, 9.99938 
9.650407e+2, 1.9455993e+2, -939852.06, -1053128.9, -72546.46, -0.02472087, 0.19326113, -904453.0, 128876.33, 0.0, 10.0009, 9.999398 
9.6505183e+2, 2.0455903e+2, -884060.5, -1024577.44, -61697.406, -0.016818563, 0.18390337, -860815.94, 74522.016, 0.0, 10.000821, 9.9989605 
9.650634e+2, 2.1455766e+2, -793874.7, -931268.06, -61840.957, 0.022949291, 0.1519402, -770140.1, 67211.38, 0.0, 10.0007715, 9.998952 
9.650749e+2, 2.2455667e+2, -698964.2, -813401.75, -50610.594, 0.035155665, 0.15019938, -679793.0, 59568.57, 0.0, 10.000658, 9.999144 
9.650861e+2, 2.3455615e+2, -627471.06, -725851.0, -42819.34, 0.014611328, 0.18094265, -611444.9, 29922.598, 0.0, 10.000466, 9.999164 
9.650976e+2, 2.4455537e+2, -548035.75, -652108.2, -31401.871, 0.0110439835, 0.19386488, -539294.94, 4080.581, 0.0, 10.000405, 9.999026 
9.651094e+2, 2.5455427e+2, -436069.22, -546882.06, -30364.205, 0.02769527, 0.18044779, -428294.5, 17091.85, 0.0, 10.0005, 9.99903 
9.651214e+2, 2.6455322e+2, -366919.1, -498333.84, -15438.048, 0.042702153, 0.18784532, -365129.84, -17732.268, 0.0, 10.000455, 9.998713 
9.651335e+2, 2.7455223e+2, -300410.0, -415916.84, -11023.537, 0.055899207, 0.21780422, -299367.38, -49958.316, 0.0, 10.00024, 9.998708 
9.6514565e+2, 2.8455108e+2, -229232.98, -336321.03, -8092.7734, 0.065594345, 0.23761956, -228624.86, -77203.85, 0.0, 10.000079, 9.998659 
9.6515757e+2, 2.9454976e+2, -144452.75, -243815.92, -10334.694, 0.07016264, 0.23784727, -143389.23, -89955.43, 0.0, 9.999986, 9.998667 
9.6516967e+2, 3.0454805e+2, -59377.953, -103563.36, -17373.348, 0.08755416, 0.16935924, -53365.13, -53365.13, 0.0, 9.999915, 9.999329 
9.651818e+2, 3.1454802e+2, -52459.777, -78960.43, -19561.31, 0.13577479, 0.22772461, -42083.508, -42083.508, 0.00000000015790982, 9.999871, 9.999519 
9.7496134e+2, 1.2455104e+2, -1515743.5, -1726629.8, -70127.91, -0.077507444, 0.07080001, -1494552.6, 224859.33, 0.000057479218, 10.001836, 9.999033 
9.749745e+2, 1.3455093e+2, -1457634.4, -1643817.9, 10387.994, -0.045905482, 0.15012848, -1457056.6, 164359.39, 0.000014404859, 10.001539, 9.999076 
9.7498715e+2, 1.4455068e+2, -1375785.5, -1534923.9, -44286.4, 0.007145285, 0.21253099, -1364291.3, 159128.5, 0.0000005546723, 10.00135, 9.999238 
9.749981e+2, 1.5454946e+2, -1284359.6, -1436869.9, -52274.01, -0.04632239, 0.16342671, -1268162.5, 157268.52, 0.0, 10.001291, 9.999267 
9.75009e+2, 1.6454853e+2, -1193248.6, -1335173.6, -86251.51, -0.061363477, 0.14287873, -1152519.6, 174920.52, 0.0, 10.001213, 9.99933 
9.7502e+2, 1.7454803e+2, -1109480.6, -1242659.8, -82946.07, -0.031156229, 0.15722388, -1069701.8, 159744.13, 0.0, 10.001109, 9.999342 
9.750309e+2, 1.8454757e+2, -1024492.56, -1148261.6, -76483.44, -0.013243916, 0.17737523, -987993.1, 143457.28, 0.0, 10.001006, 9.999368 
9.7504175e+2, 1.9454718e+2, -940763.0, -1055697.8, -77015.85, -0.009661503, 0.19918087, -902137.0, 131316.2, 0.0, 10.000902, 9.99938 
9.750528e+2, 2.0454621e+2, -884652.2, -1026353.25, -64416.023, -0.0020592704, 0.18621229, -859746.6, 75715.75, 0.0, 10.000823, 9.998948 
9.750641e+2, 2.1454456e+2, -794622.94, -933037.75, -64139.785, 0.010392356, 0.12722725, -769471.56, 68007.62, 0.0, 10.0007715, 9.99894 
9.7507536e+2, 2.245436e+2, -685479.56, -785590.5, -57990.633, 0.019641852, 0.11874321, -658929.1, 80559.78, 0.0, 10.000658, 9.999334 
9.750867e+2, 2.3454346e+2, -613235.25, -696630.7, -50174.387, 0.025295101, 0.16744259, -589693.6, 51796.5, 0.0, 10.000467, 9.999364 
9.7509813e+2, 2.445429e+2, -545702.3, -647531.5, -28384.375, 0.026082454, 0.19151425, -538324.8, 5170.971, 0.0, 10.000406, 9.999058 
9.751099e+2, 2.5454184e+2, -434757.6, -543603.1, -26469.438, 0.021249076, 0.18078282, -428662.03, 16844.697, 0.0, 10.000496, 9.999055 
9.7512174e+2, 2.6454067e+2, -359848.3, -482519.4, -22539.322, 0.037901178, 0.16981842, -355838.1, -8319.153, 0.0, 10.000449, 9.998824 
9.7513396e+2, 2.7453938e+2, -292610.84, -399259.0, -18443.03, 0.07940766, 0.15626305, -289511.5, -39979.105, 0.0, 10.000237, 9.998824 
9.751459e+2, 2.845384e+2, -231279.89, -340282.56, -11354.08, 0.08347699, 0.1862282, -230109.78, -78566.836, 0.0, 10.000077, 9.998633 
9.751573e+2, 2.9453778e+2, -147225.92, -248516.66, -13065.477, 0.04422479, 0.26046312, -145567.75, -92017.48, 0.0, 9.99998, 9.998638 
9.7516936e+2, 3.0453625e+2, -52057.473, -85734.52, -18107.813, 0.06540628, 0.20595531, -44168.91, -44168.91, 0.0, 9.999904, 9.999457 
9.7518206e+2, 3.1453547e+2, -48260.203, -66109.08, -19400.6, 0.16815314, 0.17697576, -35829.81, -35829.81, 0.0, 9.999853, 9.999617 
9.8496294e+2, 1.2453852e+2, -1547485.3, -1738522.5, -78380.36, -0.088893235, 0.08936794, -1519443.0, 200092.11, 0.00007951568, 10.001604, 9.999063 
9.849759e+2, 1.345382e+2, -1396105.4, -1613473.3, 458.11804, -0.07806283, 0.14829652, -1396104.4, 225435.78, 0.000022398126, 10.00196, 9.999081 
9.8498845e+2, 1.4453779e+2, -1300346.8, -1506546.6, -59679.816, -0.01784775, 0.1982998, -1284319.5, 239225.5, 0.0000013019285, 10.001904, 9.999166 
9.8499954e+2, 1.5453655e+2, -1280645.6, -1443086.1, -55263.04, -0.037840366, 0.15219814, -1263627.8, 161929.11, 0.0, 10.001352, 9.999194 
9.850104e+2, 1.6453564e+2, -1207824.1, -1337820.6, -73646.86, -0.045521993, 0.1351317, -1174594.9, 152970.75, 0.0, 10.001094, 9.999369 
9.8502105e+2, 1.745352e+2, -1095295.4, -1230591.6, -75480.78, -0.03912675, 0.15264677, -1061584.8, 167985.94, 0.0, 10.001184, 9.999388 
9.8503184e+2, 1.8453468e+2, -1007484.3, -1141620.9, -77178.89, -0.025514826, 0.16507718, -972304.2, 159271.27, 0.0, 10.00113, 9.999352 
9.8504275e+2, 1.9453408e+2, -941362.7, -1057844.0, -78045.87, -0.0034677973, 0.1666598, -902222.0, 131358.05, 0.0, 10.000907, 9.999363 
9.8505366e+2, 2.0453316e+2, -891063.25, -1020189.6, -58697.617, 0.008728926, 0.15640101, -868369.25, 67219.48, 0.0, 10.000739, 9.99903 
9.8506474e+2, 2.1453191e+2, -807893.56, -929489.8, -51322.535, 0.009279115, 0.12745085, -789127.75, 48474.465, 0.0, 10.000639, 9.999028 
9.8507595e+2, 2.2453108e+2, -694982.25, -780052.3, -47008.227, 0.01642483, 0.12405733, -674121.7, 65488.914, 0.0, 10.00055, 9.999424 
9.850872e+2, 2.3453078e+2, -605829.1, -683026.75, -47924.344, 0.031712748, 0.1477269, -582892.5, 58720.242, 0.0, 10.000476, 9.999454 
9.8509866e+2, 2.4453023e+2, -554338.56, -646187.56, -28038.805, 0.037595592, 0.16572689, -546455.7, -2837.498, 0.0, 10.000324, 9.999106 
9.851102e+2, 2.5452942e+2, -492596.22, -566112.5, -25136.018, 0.032058682, 0.17187725, -484823.7, -39196.105, 0.0, 10.000077, 9.999102 
9.851221e+2, 2.6452836e+2, -423881.66, -500587.25, -20853.467, 0.04753549, 0.16584323, -418578.94, -70940.336, 0.0, 9.999956, 9.998937 
9.851342e+2, 2.7452707e+2, -321127.28, -399826.78, -17282.395, 0.087391585, 0.1427969, -317499.3, -67848.055, 0.0, 9.999987, 9.99894 
9.8514587e+2, 2.8452608e+2, -247609.17, -341181.78, -8736.703, 0.08782599, 0.16484696, -246800.42, -95138.89, 0.0, 9.999936, 9.998695 
9.851572e+2, 2.9452547e+2, -172150.47, -253759.72, -4405.005, 0.04296397, 0.23296644, -171913.39, -118244.19, 0.0, 9.999781, 9.998697 
9.8516905e+2, 3.0452418e+2, -88546.03, -89777.195, -6591.371, 0.06270699, 0.19103506, -82541.56, -82541.56, 0.0, 9.999596, 9.9995775 
9.851816e+2, 3.1452358e+2, -110554.36, -85538.586, -9231.394, 0.1666033, 0.17088297, -82500.87, -82500.87, 0.0, 9.999379, 9.99971 
9.949644e+2, 1.24526575e+2, -1546148.9, -1736071.3, -63836.477, -0.10391317, 0.17658065, -1526686.6, 192967.86, 0.00010622788, 10.001605, 9.99908 
9.949775e+2, 1.3452539e+2, -1395738.4, -1612745.5, 14127.723, -0.11595088, 0.14748429, -1394822.4, 226843.95, 0.00003292342, 10.001959, 9.999086 
9.9499005e+2, 1.4452465e+2, -1293534.1, -1492806.5, -78813.65, -0.049143914, 0.15887609, -1266131.1, 257542.23, 0.0000026281716, 10.0019045, 9.99926 
9.950009e+2, 1.5452372e+2, -1273494.0, -1428686.6, -76110.17, -0.029255405, 0.13620165, -1242398.4, 183283.02, 0.00000000019976186, 10.001353, 9.999292 
9.950117e+2, 1.64523e+2, -1209253.0, -1341566.0, -71612.375, -0.02651906, 0.13563728, -1177915.9, 149772.17, 0.0, 10.001096, 9.999342 
9.950222e+2, 1.7452262e+2, -1096799.3, -1234451.3, -72403.625, -0.04771716, 0.16008243, -1065728.9, 163963.78, 0.0, 10.001186, 9.999361 
9.950328e+2, 1.8452187e+2, -1008386.7, -1144157.8, -85721.56, -0.043069635, 0.15082306, -966925.8, 164773.77, 0.0, 10.001133, 9.999334 
9.950436e+2, 1.9452068e+2, -942273.2, -1060291.6, -87068.164, -0.0062252437, 0.09603099, -896101.8, 137607.64, 0.0, 10.000909, 9.999346 
9.950544e+2, 2.0451991e+2, -878734.9, -995136.4, -63437.957, 0.015393345, 0.09421523, -850844.4, 84872.26, 0.0, 10.000741, 9.999202 
9.950655e+2, 2.1451971e+2, -795137.06, -903183.5, -55762.516, 0.01874178, 0.1520935, -771520.3, 66200.12, 0.0, 10.000639, 9.999209 
9.9507654e+2, 2.2451915e+2, -695870.94, -781855.4, -50450.2, 0.024576098, 0.1659792, -672579.25, 67147.14, 0.0, 10.00055, 9.999413 
9.950877e+2, 2.3451814e+2, -607221.0, -685865.3, -50880.375, 0.033628684, 0.12183945, -582238.8, 59496.15, 0.0, 10.000475, 9.999434 
9.9509907e+2, 2.4451739e+2, -550319.2, -637727.44, -36953.938, 0.04507511, 0.11669925, -536790.06, 6952.4204, 0.0, 10.000322, 9.999166 
9.951106e+2, 2.5451693e+2, -487990.88, -556935.75, -33977.56, 0.058866456, 0.15420333, -474060.56, -28311.867, 0.0, 10.000078, 9.999165 
9.9512225e+2, 2.6451623e+2, -416371.94, -485300.78, -19837.996, 0.07038417, 0.17572036, -411070.25, -63313.8, 0.0, 9.999956, 9.999042 
9.9513406e+2, 2.745153e+2, -314491.38, -384450.84, -15581.544, 0.07958559, 0.17461339, -311177.94, -61412.07, 0.0, 9.999979, 9.99905 
9.9514574e+2, 2.845142e+2, -239632.7, -321765.22, -13399.235, 0.077941686, 0.1713005, -237502.0, -85724.97, 0.0, 9.999924, 9.998835 
9.951572e+2, 2.945129e+2, -163275.2, -233637.36, -8997.273, 0.063487954, 0.15899073, -162142.94, -108352.555, 0.0, 9.999772, 9.998839 
9.951688e+2, 3.0451185e+2, -81988.4, -74993.18, -13706.824, 0.076842695, 0.12856983, -64344.754, -64344.754, 0.0, 9.999589, 9.999682 
9.9518067e+2, 3.1451228e+2, -106412.33, -74589.34, -15813.167, 0.13083725, 0.20106012, -68068.01, -68068.01, 0.0, 9.999369, 9.999791 
1.0049664e+3, 1.24514304e+2, -1388460.0, -1667174.5, -47144.188, -0.1135692, 0.19814484, -1380701.6, 339073.3, 0.00013782152, 10.002717, 9.999018 
1.00497924e+3, 1.3451277e+2, -1424817.6, -1634750.9, 24413.828, -0.12300194, 0.1412703, -1422015.9, 199773.75, 0.000046236724, 10.001793, 9.999016 
1.0049917e+3, 1.445119e+2, -1360355.3, -1515679.6, -66656.9, -0.052261885, 0.13960965, -1335672.1, 188125.25, 0.00000474816, 10.001405, 9.999344 
1.0050024e+3, 1.5451111e+2, -1224083.0, -1394576.6, -64545.168, -0.035031263, 0.122439824, -1202404.1, 223399.45, 0.000000004412824, 10.001647, 9.999385 
1.0050129e+3, 1.6451046e+2, -1148768.3, -1320834.0, -63614.145, -0.028161185, 0.12421832, -1127803.9, 200005.89, 0.0, 10.001548, 9.999267 
1.00502335e+3, 1.7450996e+2, -1123363.4, -1256426.5, -68791.91, -0.03862573, 0.14778243, -1094193.5, 135621.88, 0.0, 10.001043, 9.999279 
1.00503385e+3, 1.8450917e+2, -1050254.5, -1159856.5, -76303.414, -0.034221612, 0.13652682, -1011112.1, 120710.67, 0.0, 10.000826, 9.999374 
1.0050444e+3, 1.9450799e+2, -932296.7, -1050152.4, -72753.22, -0.010113344, 0.07788981, -897600.2, 136232.34, 0.0, 10.000955, 9.9993925 
1.00505516e+3, 2.0450728e+2, -857344.4, -978734.3, -57203.137, 0.0092279045, 0.076631024, -834636.25, 101202.84, 0.0, 10.000863, 9.999255 
1.0050661e+3, 2.1450719e+2, -810417.44, -904652.2, -59641.625, 0.022667846, 0.14096376, -781527.06, 56314.56, 0.0, 10.000509, 9.999261 
1.005077e+3, 2.2450666e+2, -734319.75, -797615.5, -52882.695, 0.031818483, 0.15586634, -704338.4, 35508.816, 0.0, 10.000275, 9.999436 
1.0050881e+3, 2.3450562e+2, -647723.4, -702415.5, -50535.47, 0.03578099, 0.10578986, -617609.56, 24246.742, 0.0, 10.000185, 9.999459 
1.00509934e+3, 2.4450493e+2, -581182.7, -645147.06, -38789.17, 0.050278615, 0.10074742, -562891.06, -19027.553, 0.0, 10.00008, 9.99923 
1.0051108e+3, 2.5450462e+2, -501281.8, -555606.4, -36084.887, 0.07708012, 0.14590478, -483278.75, -37410.37, 0.0, 9.999955, 9.999231 
1.0051223e+3, 2.64504e+2, -437957.4, -483635.2, -20265.424, 0.08699525, 0.16755742, -430262.66, -82387.45, 0.0, 9.999757, 9.999148 
1.0051338e+3, 2.7450305e+2, -381676.47, -404491.16, -16290.227, 0.077068456, 0.15670572, -373196.66, -123312.34, 0.0, 9.999465, 9.999159 
1.0051452e+3, 2.8450212e+2, -318054.75, -338679.28, -10661.628, 0.07402223, 0.15122484, -313534.2, -161640.02, 0.0, 9.999296, 9.99902 
1.00515686e+3, 2.945011e+2, -221471.7, -240056.63, -3752.766, 0.07932454, 0.14779907, -220742.53, -166837.73, 0.0, 9.999282, 9.999031 
1.0051683e+3, 3.0450025e+2, -129304.664, -96047.49, -11784.627, 0.08705401, 0.12781031, -92295.03, -92295.03, 0.0, 9.999258, 9.999697 
1.00517966e+3, 3.1450054e+2, -129716.01, -86851.46, -20541.193, 0.103339486, 0.18788074, -78597.33, -78597.33, 0.0, 9.999214, 9.999781 
1.01496905e+3, 1.2450173e+2, -1397996.9, -1687051.8, -80999.78, -0.12515321, 0.1512987, -1376846.5, 343049.4, 0.00017450533, 10.002717, 9.998881 
1.0149813e+3, 1.345004e+2, -1434952.8, -1655686.5, -10431.191, -0.10073407, 0.12987117, -1434460.9, 187448.48, 0.000062540406, 10.001793, 9.998872 
1.01499334e+3, 1.4449961e+2, -1355135.3, -1505266.9, -59442.61, -0.028547239, 0.14116952, -1334449.9, 189466.73, 0.000007860604, 10.001405, 9.999415 
1.0150038e+3, 1.544988e+2, -1217656.9, -1381710.8, -55498.668, -0.05527502, 0.110960595, -1200645.9, 225276.98, 0.000000028517778, 10.001648, 9.999474 
1.0150142e+3, 1.64498e+2, -1157309.6, -1339354.4, -81800.305, -0.050908867, 0.101007655, -1125954.1, 201976.17, 0.0, 10.001551, 9.999139 
1.0150246e+3, 1.7449728e+2, -1132720.0, -1276602.8, -88155.09, -0.012424532, 0.115638904, -1090877.1, 139061.31, 0.0, 10.001046, 9.99914 
1.0150351e+3, 1.8449663e+2, -1043227.9, -1146102.4, -73219.66, 0.0005573304, 0.12167659, -1005183.8, 126760.93, 0.0, 10.000829, 9.999468 
1.01504534e+3, 1.9449604e+2, -924475.44, -1034304.5, -68446.54, -0.015818166, 0.11162818, -891637.3, 142311.56, 0.0, 10.000956, 9.999501 
1.01505585e+3, 2.044953e+2, -861906.25, -988518.5, -70444.92, -0.0105086295, 0.10390865, -830501.5, 105454.14, 0.0, 10.000863, 9.999187 
1.0150666e+3, 2.144944e+2, -815506.3, -915763.8, -73513.195, 0.020849837, 0.09478681, -776657.06, 61308.37, 0.0, 10.000511, 9.999185 
1.0150774e+3, 2.2449371e+2, -730190.3, -789557.75, -57224.926, 0.037912246, 0.09421158, -695408.4, 44564.176, 0.0, 10.000276, 9.999491 
1.01508826e+3, 2.3449329e+2, -643261.6, -693401.5, -53939.13, 0.03784712, 0.09924522, -608851.06, 33125.336, 0.0, 10.000185, 9.999521 
1.01509936e+3, 2.4449287e+2, -576577.06, -635603.94, -43392.55, 0.05278663, 0.11741207, -553612.4, -9631.401, 0.0, 10.000079, 9.999296 
1.0151108e+3, 2.544925e+2, -496872.28, -546001.25, -40391.74, 0.08636786, 0.14700809, -474161.97, -28175.55, 0.0, 9.999952, 9.999299 
1.01512216e+3, 2.644917e+2, -430935.5, -468546.06, -30197.604, 0.09694514, 0.1422421, -414166.44, -66171.73, 0.0, 9.999754, 9.999254 
1.0151332e+3, 2.7449045e+2, -373750.66, -388485.78, -26233.533, 0.07849376, 0.09150859, -353869.75, -103863.445, 0.0, 9.999466, 9.9992695 
1.0151446e+3, 2.8448984e+2, -303092.63, -307654.53, -11174.251, 0.074269734, 0.10600282, -293968.9, -141956.11, 0.0, 9.999295, 9.999234 
1.0151563e+3, 2.9448998e+2, -207851.11, -208929.25, -3741.703, 0.0896213, 0.19561443, -204609.84, -150596.94, 0.0, 9.999268, 9.999251 
1.0151676e+3, 3.044893e+2, -136564.94, -106857.586, -12208.562, 0.092600405, 0.1853488, -102484.18, -102484.18, 0.0, 9.999239, 9.999632 
1.0151786e+3, 3.144884e+2, -137516.92, -100983.63, -19882.752, 0.07997288, 0.13030975, -92250.38, -92250.38, 0.0, 9.999205, 9.999688 
1.0249717e+3, 1.2448955e+2, -1449176.1, -1719970.3, -67438.97, -0.12290613, 0.10509295, -1433310.6, 286702.25, 0.0002164286, 10.002401, 9.998807 
1.0249833e+3, 1.344883e+2, -1365760.6, -1632667.8, 6507.545, -0.10104569, 0.10015457, -1365602.0, 256423.83, 0.00008198819, 10.002313, 9.998779 
1.02499515e+3, 1.4448754e+2, -1267545.8, -1474201.8, -31895.256, -0.02765037, 0.124737345, -1262735.0, 261298.13, 0.000012107449, 10.002054, 9.999316 
1.02500536e+3, 1.5448673e+2, -1233635.4, -1400362.6, -41652.87, -0.059258435, 0.10394462, -1223808.6, 202231.47, 0.00000009714164, 10.001586, 9.999375 
1.02501564e+3, 1.6448589e+2, -1179188.6, -1347497.1, -72401.84, -0.056495544, 0.09324989, -1152329.5, 175718.47, 0.0, 10.00139, 9.99916 
1.02502584e+3, 1.7448506e+2, -1061648.3, -1239524.4, -66598.71, -0.014517446, 0.09427921, -1039476.6, 190579.98, 0.0, 10.001522, 9.999166 
1.0250361e+3, 1.8448439e+2, -971950.2, -1123753.8, -51809.254, 0.0011761041, 0.103042394, -955953.75, 176109.39, 0.0, 10.00137, 9.99936 
1.02504626e+3, 1.9448392e+2, -942310.2, -1055499.1, -63983.48, -0.014447986, 0.11613475, -913483.25, 120583.85, 0.0, 10.000888, 9.999388 
1.0250566e+3, 2.0448318e+2, -895964.56, -996555.7, -70666.54, -0.008983015, 0.11040426, -859522.56, 76551.44, 0.0, 10.000594, 9.999262 
1.0250671e+3, 2.1448211e+2, -806249.3, -901670.5, -61821.203, 0.021605227, 0.07694565, -775869.2, 62215.38, 0.0, 10.000533, 9.9992695 
1.0250776e+3, 2.244814e+2, -722135.0, -788131.56, -42691.906, 0.04013253, 0.069676705, -701175.1, 38916.656, 0.0, 10.000343, 9.999467 
1.02508835e+3, 2.3448111e+2, -672820.94, -710823.3, -46736.44, 0.044176012, 0.09037543, -641370.75, 724.08685, 0.0, 9.999998, 9.999492 
1.0250994e+3, 2.4448077e+2, -615430.4, -644422.1, -35283.016, 0.05846816, 0.11356383, -591781.5, -47682.695, 0.0, 9.999771, 9.999384 
1.0251106e+3, 2.544804e+2, -529246.9, -550991.9, -30644.848, 0.085714236, 0.13489078, -507602.94, -61499.105, 0.0, 9.999684, 9.999393 
1.0251217e+3, 2.6447964e+2, -459096.03, -474983.8, -26629.197, 0.09465638, 0.12789938, -439251.1, -91139.54, 0.0, 9.999531, 9.999316 
1.0251325e+3, 2.7447855e+2, -394279.2, -391035.56, -27050.424, 0.07995484, 0.08222308, -365558.38, -115436.01, 0.0, 9.999295, 9.999332 
1.0251438e+3, 2.8447804e+2, -333589.66, -311017.13, -14336.174, 0.07591735, 0.09998545, -304057.7, -151929.7, 0.0, 9.999039, 9.999333 
1.0251552e+3, 2.944783e+2, -275920.16, -230423.55, -15206.431, 0.08750154, 0.19014558, -225809.1, -171681.9, 0.0, 9.998752, 9.9993515 
1.0251665e+3, 3.0447784e+2, -208080.3, -125219.2, -12404.023, 0.08664157, 0.18982533, -123402.2, -123402.2, 0.0, 9.998678, 9.999775 
1.0251775e+3, 3.1447712e+2, -177740.64, -105392.016, -4305.1875, 0.06818617, 0.13881782, -105136.734, -105136.734, 0.0, 9.998864, 9.999822 
1.03497416e+3, 1.2447787e+2, -1451485.0, -1723474.3, -71265.87, -0.115018696, 0.0612541, -1433943.4, 286181.4, 0.0002637313, 10.002397, 9.998785 
1.0349853e+3, 1.3447653e+2, -1368726.8, -1638768.6, 3282.5142, -0.124094844, 0.051576283, -1368686.9, 253451.63, 0.00010469639, 10.002312, 9.998737 
1.03499696e+3, 1.4447576e+2, -1286280.8, -1513687.8, -49143.582, -0.049710285, 0.08972724, -1276115.0, 248031.48, 0.000017566988, 10.002056, 9.999044 
1.0350071e+3, 1.5447497e+2, -1253364.6, -1441802.9, -59453.2, -0.04754337, 0.10163404, -1236175.0, 189979.69, 0.00000023822265, 10.001587, 9.999091 
1.0350172e+3, 1.6447416e+2, -1167483.0, -1323602.0, -68856.91, -0.045491304, 0.10113467, -1141453.4, 186709.14, 0.0, 10.001391, 9.999324 
1.0350271e+3, 1.7447335e+2, -1048163.25, -1211712.9, -61948.0, -0.04543808, 0.08381424, -1027348.25, 202821.31, 0.0, 10.001522, 9.999356 
1.0350371e+3, 1.8447252e+2, -993704.75, -1169375.1, -69643.44, -0.03345454, 0.08122974, -969445.2, 162732.38, 0.0, 10.001371, 9.999046 
1.03504725e+3, 1.9447169e+2, -965811.3, -1104990.4, -82706.77, -0.0062136897, 0.091778375, -927312.4, 106874.35, 0.0, 10.00089, 9.999047 
1.0350574e+3, 2.0447096e+2, -880751.25, -965580.56, -74393.86, 0.0136333145, 0.09586256, -837530.3, 98663.586, 0.0, 10.000596, 9.999474 
1.03506766e+3, 2.1447039e+2, -789140.8, -866315.8, -64567.285, 0.024417643, 0.08682848, -752509.06, 85689.664, 0.0, 10.000533, 9.999513 
1.035078e+3, 2.2446977e+2, -729364.3, -803423.56, -55649.6, 0.03776723, 0.082173824, -699550.3, 40654.246, 0.0, 10.000344, 9.999363 
1.0350885e+3, 2.3446912e+2, -681092.4, -728895.4, -59813.297, 0.054101817, 0.07936483, -640581.8, 1629.5765, 0.0, 10.000001, 9.999367 
1.03509925e+3, 2.4446863e+2, -607555.6, -628964.4, -38722.87, 0.0666935, 0.08935249, -578084.9, -33868.016, 0.0, 9.999773, 9.999489 
1.0351102e+3, 2.5446835e+2, -520693.88, -533701.2, -33288.863, 0.074797265, 0.10970451, -493279.3, -47058.895, 0.0, 9.999685, 9.999513 
1.0351211e+3, 2.644679e+2, -458436.7, -473290.13, -34812.785, 0.07968944, 0.12405775, -430267.25, -82041.61, 0.0, 9.999529, 9.99933 
1.0351318e+3, 2.744673e+2, -394523.7, -390202.34, -35384.273, 0.08091818, 0.12696555, -356912.84, -106680.234, 0.0, 9.999289, 9.999342 
1.03514284e+3, 2.8446668e+2, -334730.5, -312000.34, -24062.758, 0.078540616, 0.13222848, -296753.75, -144514.0, 0.0, 9.999031, 9.9993305 
1.0351538e+3, 2.9446605e+2, -275830.66, -230578.34, -24423.922, 0.072114974, 0.13455734, -219910.8, -165663.69, 0.0, 9.998753, 9.9993515 
1.03516504e+3, 3.0446583e+2, -185817.5, -78934.99, -5273.8115, 0.067756355, 0.14374238, -78675.4, -78675.4, 0.0, 9.998677, 10.000094 
1.0351764e+3, 3.144666e+2, -156916.3, -58873.44, 3776.0002, 0.06538896, 0.20742299, -58728.23, -58728.23, 0.0, 9.998849, 10.00015 
1.04497656e+3, 1.2446673e+2, -1396465.5, -1694804.3, -64767.324, -0.123307176, 0.059653074, -1383011.6, 337221.88, 0.00031664252, 10.002764, 9.998805 
1.0449878e+3, 1.3446535e+2, -1337334.5, -1623377.8, 13304.772, -0.12857755, 0.0449432, -1336717.0, 285530.22, 0.00013079311, 10.002526, 9.99874 
1.044999e+3, 1.4446451e+2, -1263537.8, -1514845.0, -39410.094, -0.05038186, 0.08090943, -1257502.4, 266753.3, 0.000024312307, 10.002265, 9.998936 
1.0450087e+3, 1.5446357e+2, -1208261.3, -1432975.4, -38020.008, -0.05799816, 0.0892062, -1202002.9, 224262.73, 0.0000004785213, 10.001952, 9.998976 
1.0450186e+3, 1.6446269e+2, -1132205.9, -1309031.3, -35989.336, -0.056838013, 0.08970689, -1125161.6, 203112.42, 0.0, 10.001644, 9.999302 
1.0450286e+3, 1.7446195e+2, -1073493.8, -1225180.4, -44184.656, -0.047485642, 0.07926291, -1061561.8, 168718.45, 0.0, 10.001354, 9.999344 
1.0450385e+3, 1.8446103e+2, -1032462.2, -1197776.9, -59303.773, -0.029662406, 0.073365524, -1013388.6, 118900.3, 0.0, 10.001149, 9.998958 
1.0450482e+3, 1.9445994e+2, -948906.3, -1107271.8, -54364.86, -0.0009915851, 0.06786809, -932039.9, 102260.81, 0.0, 10.001052, 9.998954 
1.0450581e+3, 2.0445918e+2, -850372.44, -952711.44, -42520.133, 0.017794926, 0.07420588, -835011.7, 101296.74, 0.0, 10.0008135, 9.999456 
1.0450681e+3, 2.1445887e+2, -808449.1, -876772.7, -52024.92, 0.024591671, 0.09071972, -780372.5, 57938.62, 0.0, 10.000407, 9.9995 
1.04507826e+3, 2.2445828e+2, -756426.94, -819198.9, -48677.57, 0.037409108, 0.09120616, -729894.1, 10422.422, 0.0, 10.000171, 9.999337 
1.0450886e+3, 2.344574e+2, -662375.94, -722733.44, -45799.176, 0.05738619, 0.067987815, -637706.56, 4618.8667, 0.0, 10.000141, 9.999341 
1.0450991e+3, 2.444568e+2, -587055.06, -620717.56, -28322.8, 0.06951109, 0.06947745, -570939.8, -26608.063, 0.0, 9.999922, 9.999474 
1.0451097e+3, 2.5445658e+2, -553149.06, -550799.5, -33395.473, 0.07162905, 0.09649658, -518558.16, -72223.26, 0.0, 9.99947, 9.999497 
1.04512036e+3, 2.6445624e+2, -514159.7, -499918.2, -38363.42, 0.073595166, 0.120750524, -468020.25, -119680.77, 0.0, 9.9991455, 9.9993305 
1.045131e+3, 2.7445573e+2, -440114.5, -412155.75, -39572.96, 0.07631304, 0.13693373, -384165.6, -133819.97, 0.0, 9.998975, 9.999343 
1.04514174e+3, 2.8445512e+2, -364696.66, -321064.47, -27553.836, 0.07497086, 0.1411304, -307735.78, -155382.92, 0.0, 9.998802, 9.999378 
1.0451525e+3, 2.9445437e+2, -288890.9, -230595.92, -24874.844, 0.06839284, 0.12554356, -221424.56, -167063.33, 0.0, 9.998637, 9.999405 
1.0451636e+3, 3.0445424e+2, -216258.89, -86173.64, -5890.0996, 0.06404661, 0.13564603, -85907.49, -85907.49, 0.0, 9.998438, 10.000159 
1.0451748e+3, 3.1445524e+2, -248468.11, -96810.07, -15548.898, 0.062022302, 0.21756972, -95232.32, -95232.32, 0.0, 9.998195, 10.000203 
1.054979e+3, 1.2445621e+2, -1391577.4, -1685163.8, -73747.52, -0.15479843, 0.0989349, -1374093.5, 346244.84, 0.0003754383, 10.002766, 9.998871 
1.0549905e+3, 1.3445483e+2, -1333704.0, -1616287.6, 4451.622, -0.1152277, 0.08093232, -1333633.9, 288717.16, 0.00016041061, 10.002527, 9.998789 
1.0550015e+3, 1.4445387e+2, -1260219.8, -1508112.1, -50882.063, -0.030720314, 0.0988266, -1250182.3, 274177.75, 0.000032450233, 10.002265, 9.998982 
1.0550104e+3, 1.5445258e+2, -1204903.0, -1425910.4, -50053.42, -0.091290615, 0.066473454, -1194095.5, 232276.83, 0.0000008393984, 10.001951, 9.999024 
1.0550199e+3, 1.6445155e+2, -1146622.9, -1339405.5, -47433.047, -0.09159366, 0.058980282, -1135584.3, 192797.78, 0.0, 10.001645, 9.999093 
1.05503015e+3, 1.744509e+2, -1088631.3, -1257397.5, -55353.313, -0.021118386, 0.08075907, -1072096.0, 158292.13, 0.0, 10.001357, 9.999122 
1.05504006e+3, 1.8444999e+2, -1022847.44, -1178593.8, -63982.62, 0.012171355, 0.07935881, -999933.7, 132463.14, 0.0, 10.001151, 9.999089 
1.0550493e+3, 1.9444874e+2, -938125.3, -1085368.1, -58482.684, 0.0006766158, 0.04432975, -917723.7, 116684.98, 0.0, 10.001053, 9.999104 
1.0550588e+3, 2.044479e+2, -867473.3, -988919.6, -57809.54, 0.0027980632, 0.045934107, -844355.9, 92061.195, 0.0, 10.000815, 9.9992075 
1.05506845e+3, 2.1444756e+2, -826912.8, -916040.75, -67795.55, 0.021635164, 0.08850116, -790346.1, 48075.19, 0.0, 10.00041, 9.99923 
1.0550785e+3, 2.2444692e+2, -752284.06, -811460.44, -50931.93, 0.03867812, 0.096300356, -722969.6, 17458.055, 0.0, 10.000173, 9.99939 
1.0550887e+3, 2.3444596e+2, -656959.8, -712065.3, -46869.457, 0.054028016, 0.056258243, -630144.4, 12292.204, 0.0, 10.000143, 9.9994135 
1.055099e+3, 2.444453e+2, -596320.6, -640545.1, -44371.57, 0.06666178, 0.054292686, -568856.8, -24413.506, 0.0, 9.999924, 9.999337 
1.0551093e+3, 2.5444508e+2, -562998.1, -572173.5, -49877.848, 0.07547113, 0.09549057, -517497.44, -71050.42, 0.0, 9.999473, 9.999351 
1.0551195e+3, 2.6444462e+2, -514403.2, -501443.1, -44483.38, 0.075640775, 0.11836032, -462970.25, -114517.41, 0.0, 9.999148, 9.999319 
1.0551299e+3, 2.744439e+2, -439893.8, -412413.44, -44739.676, 0.06510792, 0.11320757, -379351.56, -128890.46, 0.0, 9.998977, 9.999341 
1.05514035e+3, 2.844434e+2, -359219.7, -309468.44, -32998.438, 0.06383055, 0.12717234, -293019.8, -140552.75, 0.0, 9.998801, 9.999459 
1.05515115e+3, 2.9444328e+2, -283660.28, -218250.39, -30181.928, 0.07555151, 0.1614181, -206451.83, -151982.06, 0.0, 9.99863, 9.999495 
1.0551621e+3, 3.0444306e+2, -228724.73, -110450.85, -13784.921, 0.074850805, 0.16491105, -108865.46, -108865.46, 0.0, 9.99843, 9.999996 
1.055173e+3, 3.1444317e+2, -261170.44, -123183.0, -22744.574, 0.055102807, 0.17591101, -119530.67, -119530.67, 0.0, 9.998194, 10.000023 
1.0649822e+3, 1.24446146e+2, -1356468.0, -1676318.8, -36446.98, -0.1300483, 0.116439216, -1352367.5, 368069.72, 0.00044023, 10.003043, 9.998797 
1.0649928e+3, 1.3444449e+2, -1342795.8, -1631957.0, 31148.988, -0.124066256, 0.08122175, -1339478.5, 282973.9, 0.0001936281, 10.002514, 9.998687 
1.0650036e+3, 1.4444342e+2, -1272775.9, -1513444.8, -24988.703, -0.042136643, 0.093286455, -1270208.8, 254253.34, 0.00004209593, 10.002177, 9.998987 
1.06501244e+3, 1.5444213e+2, -1187085.0, -1415874.1, -27107.318, -0.08383177, 0.061470944, -1183917.1, 242556.66, 0.0000013547506, 10.002069, 9.999036 
1.06502175e+3, 1.6444102e+2, -1119185.5, -1344149.9, -25673.648, -0.07986588, 0.052671216, -1116292.8, 212191.52, 0.0, 10.001913, 9.998931 
1.0650316e+3, 1.7444016e+2, -1050496.4, -1258512.1, -30246.344, -0.022994878, 0.07060713, -1046187.7, 184304.94, 0.0, 10.001703, 9.998947 
1.0650413e+3, 1.8443914e+2, -976609.8, -1157051.6, -39192.383, 0.0060622534, 0.06744658, -968464.8, 164037.52, 0.0, 10.001473, 9.999082 
1.06505044e+3, 1.944379e+2, -913184.9, -1072736.9, -44860.652, 0.0017771395, 0.033430375, -901436.6, 133077.0, 0.0, 10.001224, 9.999107 
1.0650597e+3, 2.0443702e+2, -859781.75, -1000912.7, -52968.516, 0.0055716173, 0.036365755, -842113.75, 94408.84, 0.0, 10.000937, 9.999066 
1.065069e+3, 2.1443655e+2, -807944.3, -923741.06, -54357.867, 0.018795835, 0.08059609, -786426.06, 52102.406, 0.0, 10.000613, 9.999079 
1.0650786e+3, 2.244358e+2, -738263.0, -813955.56, -30103.78, 0.032718968, 0.08938091, -727750.44, 12785.638, 0.0, 10.00031, 9.999307 
1.0650887e+3, 2.3443475e+2, -678607.25, -731138.0, -37368.84, 0.048041303, 0.049570914, -659196.6, -16650.99, 0.0, 10.000032, 9.999336 
1.0650987e+3, 2.4443403e+2, -617714.9, -658224.8, -44060.395, 0.06117165, 0.048519198, -589476.75, -44923.82, 0.0, 9.999808, 9.99927 
1.0651088e+3, 2.5443375e+2, -541803.06, -569100.75, -44219.223, 0.071455754, 0.09110385, -509174.16, -62616.82, 0.0, 9.999649, 9.999287 
1.06511876e+3, 2.6443326e+2, -477362.94, -477548.78, -33015.18, 0.0721155, 0.109301604, -444440.56, -95876.97, 0.0, 9.999377, 9.999373 
1.0651288e+3, 2.7443248e+2, -436475.84, -403490.34, -28926.28, 0.06017939, 0.09229374, -386685.34, -136113.42, 0.0, 9.99897, 9.999404 
1.065139e+3, 2.8443205e+2, -389975.2, -331376.7, -17233.398, 0.055612337, 0.11135353, -326684.22, -174106.86, 0.0, 9.998621, 9.999394 
1.0651495e+3, 2.944321e+2, -329933.2, -248762.45, -25896.35, 0.061958168, 0.17152137, -241204.36, -186625.4, 0.0, 9.998347, 9.99942 
1.06516026e+3, 3.044318e+2, -270744.6, -127169.23, -8318.656, 0.066926114, 0.16988464, -126688.86, -126688.86, 0.0, 9.998127, 10.000028 
1.06517114e+3, 3.1443167e+2, -289107.28, -131506.08, -3011.8, 0.066002406, 0.15234427, -131448.55, -131448.55, 0.0, 9.997981, 10.000068 
1.0749859e+3, 1.2443661e+2, -1372426.6, -1708720.8, -57519.508, -0.05438964, 0.11404907, -1362860.6, 357668.28, 0.00051082077, 10.00304, 9.998576 
1.074995e+3, 1.3443437e+2, -1360923.4, -1669280.1, 11185.303, -0.1553474, 0.04560166, -1360518.1, 262032.31, 0.00023041679, 10.002513, 9.998431 
1.0750054e+3, 1.444332e+2, -1275327.1, -1519013.1, -29885.473, -0.085382074, 0.06418854, -1271715.5, 252845.9, 0.000053336094, 10.002177, 9.998949 
1.075015e+3, 1.5443233e+2, -1188800.0, -1419941.6, -31224.047, -0.036549646, 0.07444193, -1184656.4, 241913.2, 0.0000020676762, 10.00207, 9.999007 
1.07502416e+3, 1.6443118e+2, -1127651.0, -1362258.9, -33803.72, -0.022237344, 0.07083783, -1122877.5, 205702.58, 0.0000000000166348, 10.001915, 9.998806 
1.0750331e+3, 1.7442979e+2, -1059481.3, -1277536.3, -38394.496, -0.05315247, 0.048713222, -1052918.4, 177674.81, 0.0, 10.001704, 9.998816 
1.07504226e+3, 1.8442854e+2, -986834.94, -1178831.8, -49122.38, -0.048518028, 0.03772666, -974996.9, 157608.17, 0.0, 10.001474, 9.998932 
1.07505165e+3, 1.9442748e+2, -923336.3, -1094426.0, -54771.816, 0.0018134936, 0.03503489, -907304.2, 127311.164, 0.0, 10.001225, 9.998959 
1.0750608e+3, 2.0442656e+2, -861743.44, -1006057.5, -65815.11, 0.025672292, 0.04514368, -836236.44, 100388.16, 0.0, 10.00094, 9.99903 
1.0750696e+3, 2.1442585e+2, -809406.7, -928090.0, -67030.97, 0.015824083, 0.06731697, -779224.1, 59408.164, 0.0, 10.000618, 9.999047 
1.0750788e+3, 2.2442494e+2, -752889.6, -845600.5, -40986.105, 0.019176817, 0.07105, -737368.7, 3272.7554, 0.0, 10.000315, 9.999087 
1.0750886e+3, 2.3442382e+2, -694326.75, -764682.75, -47666.535, 0.039068166, 0.04763096, -670262.94, -27610.693, 0.0, 10.000035, 9.9991045 
1.0750985e+3, 2.4442302e+2, -617539.3, -658408.44, -49913.215, 0.05268953, 0.05149916, -584039.6, -39379.063, 0.0, 9.99981, 9.9992695 
1.0751083e+3, 2.5442266e+2, -540726.4, -566978.5, -49472.316, 0.05915441, 0.08326569, -502668.4, -56002.664, 0.0, 9.999649, 9.999302 
1.075118e+3, 2.6442212e+2, -469581.84, -461255.53, -47174.813, 0.062499594, 0.093900986, -418060.53, -69388.9, 0.0, 9.999376, 9.999486 
1.0751277e+3, 2.7442145e+2, -428152.78, -386199.8, -43334.36, 0.061211556, 0.0746428, -359031.94, -108353.93, 0.0, 9.998969, 9.999524 
1.07513756e+3, 2.8442103e+2, -403906.4, -360304.44, -26966.209, 0.05010412, 0.0943167, -347428.9, -194745.17, 0.0, 9.99862, 9.999197 
1.0751475e+3, 2.9442084e+2, -345273.8, -280877.4, -34576.707, 0.027696565, 0.15662882, -265828.7, -211140.05, 0.0, 9.998347, 9.999201 
1.07515804e+3, 3.0442047e+2, -257410.63, -99128.63, -12405.759, 0.039945852, 0.1506194, -98162.2, -98162.2, 0.0, 9.998124, 10.000221 
1.07516944e+3, 3.1442076e+2, -273781.34, -97894.086, -6824.5547, 0.09265377, 0.15115349, -97629.69, -97629.69, 0.0, 9.9979725, 10.000303 
1.084989e+3, 1.2442682e+2, -1400453.1, -1718578.5, -72260.5, -0.044630904, 0.09344275, -1384808.9, 335814.84, 0.0005868495, 10.002834, 9.998607 
1.08499765e+3, 1.3442461e+2, -1320683.3, -1649864.8, 17599.018, -0.15585457, 0.028222822, -1319745.1, 302899.72, 0.00027068684, 10.002791, 9.99843 
1.0850078e+3, 1.4442345e+2, -1223239.1, -1516060.4, -16102.859, -0.08256998, 0.057427663, -1222356.3, 302299.66, 0.00006622561, 10.002633, 9.998749 
1.08501725e+3, 1.5442243e+2, -1166267.6, -1433338.1, -32193.426, -0.027549975, 0.07539779, -1162441.8, 264224.66, 0.000003027, 10.002332, 9.998789 
1.0850263e+3, 1.644212e+2, -1100024.3, -1346862.6, -36521.17, -0.015336755, 0.072078876, -1094734.1, 233943.94, 0.000000000186287, 10.002096, 9.998823 
1.08503476e+3, 1.7441976e+2, -1022525.0, -1255813.9, -29046.502, -0.057949595, 0.041087184, -1018962.9, 211727.9, 0.0, 10.001944, 9.998849 
1.0850437e+3, 1.8441842e+2, -966251.94, -1187438.6, -38024.45, -0.057269685, 0.029378295, -959897.6, 172805.48, 0.0, 10.001698, 9.998764 
1.085053e+3, 1.9441728e+2, -918878.9, -1112665.1, -46394.594, -0.0017760164, 0.03622844, -908344.2, 126370.96, 0.0, 10.001344, 9.9987755 
1.0850619e+3, 2.0441626e+2, -841707.9, -999979.1, -55682.426, 0.027455471, 0.046359994, -824081.0, 112644.55, 0.0, 10.001094, 9.998998 
1.08507045e+3, 2.1441539e+2, -759180.6, -906194.4, -56554.96, 0.023196522, 0.056875605, -739942.06, 98791.76, 0.0, 10.000974, 9.999026 
1.0850793e+3, 2.244144e+2, -706488.7, -835472.8, -32600.568, 0.025366334, 0.057066895, -698717.2, 42026.36, 0.0, 10.000686, 9.998978 
1.0850888e+3, 2.3441322e+2, -680099.0, -770517.3, -31451.213, 0.03520165, 0.040354032, -670235.0, -27479.957, 0.0, 10.000188, 9.998991 
1.08509816e+3, 2.4441233e+2, -626772.7, -669110.0, -25706.03, 0.04154182, 0.043825414, -614641.06, -69876.7, 0.0, 9.999774, 9.999213 
1.0851077e+3, 2.5441182e+2, -571129.6, -587337.4, -30375.979, 0.04408511, 0.06619403, -547795.1, -101024.34, 0.0, 9.999465, 9.99925 
1.08511716e+3, 2.6441127e+2, -496948.4, -469813.2, -37240.895, 0.047774, 0.07555778, -443745.4, -94968.69, 0.0, 9.999169, 9.999526 
1.0851266e+3, 2.7441075e+2, -436496.88, -385103.7, -39339.727, 0.05242112, 0.065972455, -363811.66, -113029.945, 0.0, 9.99889, 9.999569 
1.0851361e+3, 2.8441036e+2, -402782.94, -355830.16, -15776.231, 0.045476407, 0.08670406, -351021.72, -198234.8, 0.0, 9.998611, 9.999231 
1.0851458e+3, 2.9441014e+2, -343955.8, -276120.44, -5300.8574, 0.024965482, 0.13785486, -275708.72, -220916.22, 0.0, 9.998341, 9.999236 
1.0851561e+3, 3.0440974e+2, -274842.03, -98666.82, 20740.7, 0.040141754, 0.124863274, -96258.0, -96258.0, 0.0, 9.997967, 10.0003 
1.0851671e+3, 3.1441042e+2, -339269.47, -117955.11, 15597.533, 0.09764147, 0.15835294, -116861.25, -116861.25, 0.0, 9.997474, 10.000405 
1.0949912e+3, 1.2441685e+2, -1381100.1, -1677442.6, -76693.53, -0.10484579, 0.05272011, -1362428.3, 358292.88, 0.00066827383, 10.0028305, 9.998891 
1.0950007e+3, 1.3441531e+2, -1302969.8, -1613011.1, 16260.539, -0.12702765, 0.029392201, -1302119.4, 320615.4, 0.00031450897, 10.00279, 9.998684 
1.09501086e+3, 1.4441426e+2, -1249250.3, -1570410.4, -27035.268, -0.03442476, 0.07308382, -1246990.3, 277754.78, 0.000080840386, 10.002634, 9.998376 
1.0950193e+3, 1.5441257e+2, -1195287.5, -1493941.4, -43680.547, -0.056686454, 0.06442525, -1189030.0, 237733.78, 0.0000043066148, 10.002333, 9.998373 
1.0950279e+3, 1.6441113e+2, -1088891.9, -1324208.1, -42897.723, -0.059561625, 0.056636885, -1081315.6, 247461.89, 0.0000000006358386, 10.002098, 9.998979 
1.095037e+3, 1.7441007e+2, -1008989.25, -1228187.0, -35138.367, -0.0384131, 0.04779543, -1003494.2, 227290.69, 0.0, 10.0019455, 9.999038 
1.0950458e+3, 1.8440884e+2, -979024.2, -1214861.6, -51708.563, -0.021207236, 0.042366017, -968185.0, 164611.2, 0.0, 10.0017, 9.998575 
1.0950542e+3, 1.9440736e+2, -933358.75, -1143696.6, -60175.645, -0.009129512, 0.036885183, -917360.0, 117452.555, 0.0, 10.001348, 9.998562 
1.0950627e+3, 2.0440613e+2, -843752.7, -1005029.1, -61182.754, 0.010585934, 0.040035814, -823169.06, 113655.97, 0.0, 10.001097, 9.998962 
1.0950715e+3, 2.1440522e+2, -760570.75, -909477.94, -61466.64, 0.040060095, 0.048907973, -738476.5, 100356.18, 0.0, 10.000975, 9.999003 
1.0950803e+3, 2.2440419e+2, -706363.94, -835871.3, -51078.152, 0.050255176, 0.04724128, -688643.3, 52198.867, 0.0, 10.000688, 9.998975 
1.0950889e+3, 2.34403e+2, -679423.44, -770384.1, -50231.438, 0.035882313, 0.028155036, -657142.0, -14288.117, 0.0, 10.000193, 9.99899 
1.0950978e+3, 2.44402e+2, -633943.8, -685256.0, -37488.93, 0.027312092, 0.026119757, -614172.44, -69308.375, 0.0, 9.999779, 9.999101 
1.0951069e+3, 2.544013e+2, -579133.9, -604636.1, -41255.836, 0.025963143, 0.040191762, -548703.56, -101831.31, 0.0, 9.999467, 9.999131 
1.0951161e+3, 2.6440072e+2, -499230.28, -474734.8, -46979.168, 0.027741773, 0.054317784, -438433.1, -89554.266, 0.0, 9.999169, 9.999493 
1.0951252e+3, 2.7440038e+2, -438426.44, -389113.38, -48685.08, 0.03363303, 0.065589294, -359197.2, -108314.18, 0.0, 9.998889, 9.999542 
1.0951346e+3, 2.8440008e+2, -385657.5, -319906.1, -25040.236, 0.04102284, 0.08802354, -311455.97, -158569.03, 0.0, 9.99861, 9.999479 
1.0951444e+3, 2.9439992e+2, -325660.3, -237368.63, -14246.209, 0.051321752, 0.115907535, -235126.88, -180236.14, 0.0, 9.998336, 9.999505 
1.0951543e+3, 3.0439955e+2, -277305.22, -102965.95, 3394.9282, 0.0651978, 0.093166456, -102899.87, -102899.87, 0.0, 9.997962, 10.000274 
1.0951644e+3, 3.1440067e+2, -340871.66, -120765.984, -1620.2479, 0.08033538, 0.1757382, -120754.06, -120754.06, 0.0, 9.99747, 10.000388 
1.1049939e+3, 1.2440741e+2, -1381775.1, -1671347.4, -61623.67, -0.11978004, 0.042267174, -1369206.5, 351607.1, 0.00075577793, 10.002797, 9.998949 
1.10500365e+3, 1.3440602e+2, -1313053.9, -1615057.3, 16686.78, -0.11151513, 0.031054694, -1312134.6, 310690.9, 0.00036234639, 10.002708, 9.99871 
1.10501364e+3, 1.4440499e+2, -1252049.0, -1583016.8, -28746.31, -0.015677257, 0.08109342, -1249570.8, 275264.75, 0.00009737699, 10.002665, 9.998274 
1.1050216e+3, 1.5440306e+2, -1154910.5, -1486709.5, -23050.549, -0.0720732, 0.060054597, -1153316.9, 273539.72, 0.0000060098255, 10.002664, 9.998262 
1.10503e+3, 1.6440149e+2, -1040598.1, -1308069.5, -23018.588, -0.08104217, 0.04715922, -1038631.6, 290240.13, 0.0000000015512864, 10.002462, 9.998913 
1.10503905e+3, 1.7440042e+2, -1002606.5, -1232349.9, -34808.977, -0.030464318, 0.04233415, -997448.3, 233430.97, 0.0, 10.002021, 9.998973 
1.1050476e+3, 1.843992e+2, -976916.2, -1216011.6, -53009.74, -0.0027732349, 0.042170983, -965690.44, 167200.03, 0.0, 10.001724, 9.998555 
1.1050558e+3, 1.9439776e+2, -895633.2, -1127101.8, -46948.395, -0.004499462, 0.043720346, -886473.2, 148433.13, 0.0, 10.001615, 9.998546 
1.1050639e+3, 2.0439647e+2, -810268.4, -992941.9, -42540.465, 0.010379029, 0.042219475, -800847.5, 136071.75, 0.0, 10.001345, 9.998925 
1.1050725e+3, 2.1439533e+2, -777739.9, -922060.9, -44182.316, 0.04637594, 0.031607542, -765288.25, 73640.375, 0.0, 10.000875, 9.998965 
1.1050809e+3, 2.243942e+2, -733653.75, -859035.56, -38585.3, 0.057997447, 0.026537804, -722730.94, 18207.979, 0.0, 10.000545, 9.998884 
1.10508926e+3, 2.3439308e+2, -657598.9, -770426.94, -45350.652, 0.038737535, 0.024408028, -641630.44, 1319.9336, 0.0, 10.000388, 9.998895 
1.1050977e+3, 2.4439205e+2, -590604.1, -664179.8, -35959.375, 0.024949342, 0.024544919, -575948.56, -30987.775, 0.0, 10.000076, 9.999102 
1.1051063e+3, 2.543912e+2, -564061.56, -596406.0, -31165.137, 0.017562283, 0.022217441, -545122.44, -98152.6, 0.0, 9.999568, 9.999139 
1.1051151e+3, 2.6439056e+2, -507886.0, -484377.5, -29140.484, 0.016593883, 0.033558313, -464709.94, -115733.05, 0.0, 9.999134, 9.999443 
1.10512406e+3, 2.743903e+2, -455628.38, -403190.28, -32862.375, 0.024121437, 0.059423722, -387369.2, -136388.17, 0.0, 9.998797, 9.999489 
1.10513315e+3, 2.8439015e+2, -401752.53, -310531.66, -14861.524, 0.03510642, 0.08682413, -308171.5, -155187.4, 0.0, 9.9984255, 9.999632 
1.1051426e+3, 2.9439002e+2, -361031.84, -236023.53, -11751.532, 0.051446725, 0.106791906, -234928.42, -179942.31, 0.0, 9.998014, 9.999668 
1.1051522e+3, 3.0438963e+2, -323247.3, -117639.72, 1330.1268, 0.06787998, 0.06835988, -117631.12, -117631.12, 0.0, 9.997617, 10.000339 
1.1051618e+3, 3.1439096e+2, -365460.84, -120621.39, 2934.4133, 0.08240299, 0.16615349, -120586.23, -120586.23, 0.0, 9.9972515, 10.000493 
1.114997e+3, 1.2439852e+2, -1393750.3, -1695401.5, -68219.04, -0.09254549, 0.056582473, -1379039.8, 341861.28, 0.00085057894, 10.002793, 9.998786 
1.11500636e+3, 1.343968e+2, -1327473.6, -1645023.1, 13513.665, -0.109666884, 0.033914153, -1326899.6, 296016.97, 0.00041499882, 10.0027075, 9.998505 
1.1150163e+3, 1.4439575e+2, -1239946.3, -1558178.6, -29144.385, -0.026350204, 0.08210982, -1237299.3, 287627.38, 0.00011616446, 10.002665, 9.998445 
1.1150243e+3, 1.5439402e+2, -1141646.3, -1459100.1, -23339.111, -0.07464718, 0.06231661, -1139939.5, 287004.78, 0.000008247579, 10.002664, 9.998452 
1.1150324e+3, 1.6439235e+2, -1060618.4, -1350194.9, -39206.42, -0.08087678, 0.043701008, -1055404.0, 273556.2, 0.0000000033697685, 10.002464, 9.998623 
1.115041e+3, 1.7439082e+2, -1024501.44, -1278633.5, -51759.133, -0.034413837, 0.024850117, -1014364.06, 216609.48, 0.0, 10.002024, 9.998654 
1.11504935e+3, 1.8438953e+2, -966550.2, -1195390.4, -58454.098, -0.002330207, 0.028920354, -952483.56, 180502.06, 0.0, 10.001727, 9.998696 
1.1150575e+3, 1.9438854e+2, -883241.94, -1102138.5, -51663.895, 0.01142, 0.056660768, -871661.0, 163335.17, 0.0, 10.0016165, 9.998716 
1.1150655e+3, 2.0438728e+2, -812378.25, -998387.0, -60182.48, 0.026160944, 0.053037304, -794604.75, 142403.2, 0.0, 10.0013485, 9.998887 
1.11507334e+3, 2.1438573e+2, -780722.5, -929312.1, -62377.004, 0.042094078, 0.005351229, -758009.0, 81012.24, 0.0, 10.000879, 9.998914 
1.1150814e+3, 2.2438443e+2, -746176.75, -885841.8, -45493.113, 0.048481025, -0.0048265336, -732665.4, 8368.146, 0.0, 10.000547, 9.998699 
1.1150896e+3, 2.3438346e+2, -671060.44, -798588.2, -51003.703, 0.043230247, 0.028566841, -653171.3, -10127.01, 0.0, 10.000389, 9.998702 
1.1150979e+3, 2.443825e+2, -583162.75, -648781.4, -53860.535, 0.033500563, 0.038392104, -552905.4, -7850.9775, 0.0, 10.000075, 9.999208 
1.115106e+3, 2.543815e+2, -554992.3, -578135.9, -49488.836, 0.01805022, 0.012085038, -515740.38, -68676.87, 0.0, 9.99957, 9.999264 
1.11511424e+3, 2.6438084e+2, -512204.6, -494070.7, -41438.754, 0.013676438, 0.013191635, -460718.53, -111647.59, 0.0, 9.999137, 9.999375 
1.1151228e+3, 2.743806e+2, -461242.9, -415083.3, -44322.805, 0.022550087, 0.047411714, -388191.25, -137115.4, 0.0, 9.998798, 9.999408 
1.11513145e+3, 2.8438047e+2, -397458.88, -301752.06, -29059.068, 0.026687624, 0.083287336, -293619.97, -140541.52, 0.0, 9.9984255, 9.999693 
1.1151404e+3, 2.943805e+2, -356135.75, -226251.13, -25631.984, 0.026403459, 0.110567056, -221375.8, -166297.2, 0.0, 9.998015, 9.999736 
1.11514956e+3, 3.0437997e+2, -313146.4, -97482.88, -11139.022, 0.049277104, 0.050643764, -96909.08, -96909.08, 0.0, 9.997619, 10.000477 
1.1151593e+3, 3.1438136e+2, -350393.3, -89885.78, -9287.16, 0.10068401, 0.13688613, -89555.11, -89555.11, 0.0, 9.997252, 10.000705 
1.1249999e+3, 1.2438987e+2, -1399647.1, -1708100.0, -52966.016, -0.07605063, 0.078576215, -1390805.5, 330180.25, 0.00095378526, 10.002798, 9.998696 
1.1250091e+3, 1.3438779e+2, -1280752.3, -1635976.6, 38614.63, -0.12049698, 0.031331114, -1276603.1, 346402.03, 0.00047316175, 10.003088, 9.9983835 
1.1250189e+3, 1.4438662e+2, -1185378.8, -1528867.0, -18618.686, -0.041531514, 0.07258895, -1184372.5, 340643.47, 0.00013752929, 10.003028, 9.99847 
1.12502694e+3, 1.5438496e+2, -1160778.3, -1465017.0, -26101.86, -0.060128216, 0.057060745, -1158555.1, 268477.16, 0.00001111389, 10.002518, 9.998482 
1.12503506e+3, 1.6438328e+2, -1098817.8, -1378007.0, -39173.637, -0.05917382, 0.03973657, -1093425.4, 235622.73, 0.0000000061074554, 10.002242, 9.998539 
1.1250432e+3, 1.7438163e+2, -995150.6, -1274497.9, -34857.82, -0.033238094, 0.01774993, -990866.7, 240196.42, 0.0, 10.00227, 9.998564 
1.12505116e+3, 1.8438025e+2, -912778.9, -1166462.1, -38951.336, -0.007796814, 0.01766172, -906932.9, 226143.08, 0.0, 10.002085, 9.998722 
1.1250592e+3, 1.9437924e+2, -878135.3, -1096074.9, -42763.18, 0.016557774, 0.04024591, -870044.8, 165041.19, 0.0, 10.0016365, 9.998749 
1.1250669e+3, 2.0437801e+2, -822862.0, -1007305.06, -58465.652, 0.033846382, 0.03760132, -805890.8, 131206.75, 0.0, 10.001293, 9.998852 
1.1250743e+3, 2.143765e+2, -752833.2, -920061.75, -60435.66, 0.041892268, -0.0009855388, -733278.56, 105832.29, 0.0, 10.00109, 9.998876 
1.125082e+3, 2.2437522e+2, -711314.0, -862710.2, -34580.71, 0.044435285, -0.010482747, -703789.4, 37333.684, 0.0, 10.00076, 9.998755 
1.12509e+3, 2.3437423e+2, -684072.2, -797442.1, -21819.104, 0.040123943, 0.013116307, -680017.9, -36884.27, 0.0, 10.000269, 9.998767 
1.1250978e+3, 2.4437325e+2, -616474.2, -667165.9, -22155.984, 0.0306532, 0.019951565, -608155.5, -63011.97, 0.0, 9.999859, 9.999186 
1.1251055e+3, 2.5437227e+2, -559664.1, -583557.75, -29837.48, 0.014852922, -0.0007928773, -539470.56, -92317.88, 0.0, 9.999552, 9.999234 
1.1251134e+3, 2.643716e+2, -503444.13, -492665.4, -25237.18, 0.011578321, 0.003775106, -472248.56, -123088.2, 0.0, 9.999209, 9.99935 
1.1251216e+3, 2.7437133e+2, -459085.63, -416823.06, -24425.729, 0.023450362, 0.039578132, -405656.56, -154490.94, 0.0, 9.998825, 9.999382 
1.1251299e+3, 2.8437126e+2, -395815.34, -294578.13, -9789.099, 0.025010638, 0.07563188, -293640.28, -140472.31, 0.0, 9.99841, 9.999749 
1.1251382e+3, 2.943713e+2, -359510.22, -220814.53, -7468.833, 0.014812551, 0.0993141, -220413.5, -165246.23, 0.0, 9.997963, 9.999798 
1.125147e+3, 3.0437064e+2, -324404.28, -104778.61, 3428.474, 0.03491083, 0.022822443, -104725.1, -104725.1, 0.0, 9.99755, 10.00046 
1.1251565e+3, 3.143721e+2, -355884.53, -85733.24, -6840.515, 0.09544026, 0.119067736, -85560.14, -85560.14, 0.0, 9.997186, 10.000766 
1.1350028e+3, 1.2438152e+2, -1401563.8, -1711152.6, -46241.813, -0.07001102, 0.10761852, -1394804.4, 326262.94, 0.0010657869, 10.002794, 9.998677 
1.135012e+3, 1.3437903e+2, -1284151.0, -1642470.9, 49439.84, -0.14489818, 0.023381952, -1277454.6, 345635.84, 0.00053702114, 10.003085, 9.998341 
1.13502175e+3, 1.4437763e+2, -1194145.3, -1546958.3, -36261.31, -0.06293137, 0.05211763, -1190457.0, 334646.16, 0.00016162105, 10.003026, 9.998347 
1.1350298e+3, 1.5437593e+2, -1169585.3, -1483906.6, -45666.76, -0.029542781, 0.044689406, -1163084.9, 264034.9, 0.000014669085, 10.00252, 9.998352 
1.1350377e+3, 1.6437432e+2, -1090270.1, -1361364.6, -39920.707, -0.016413415, 0.03583565, -1084513.8, 244621.06, 0.000000009421829, 10.002246, 9.998652 
1.1350455e+3, 1.7437288e+2, -985709.5, -1255483.3, -34408.22, -0.027067352, 0.021150043, -981390.06, 249757.53, 0.0, 10.002272, 9.998693 
1.1350532e+3, 1.8437141e+2, -918732.06, -1179411.6, -55610.242, -0.01953464, 0.00872293, -907364.56, 225796.58, 0.0, 10.002087, 9.998633 
1.1350608e+3, 1.9436993e+2, -885158.6, -1111022.4, -60234.06, 0.0106169, -0.005029881, -870099.25, 165076.25, 0.0, 10.001637, 9.998647 
1.13506824e+3, 2.0436865e+2, -825563.4, -1013325.3, -67331.41, 0.032962974, -0.0036978163, -803914.5, 133273.28, 0.0, 10.001294, 9.99881 
1.1350755e+3, 2.1436766e+2, -755108.8, -925305.6, -68550.734, 0.04512214, 0.012006576, -730932.56, 108264.65, 0.0, 10.001091, 9.998839 
1.1350828e+3, 2.2436656e+2, -690888.2, -820756.44, -52948.496, 0.04517268, 0.009191342, -672036.94, 69170.39, 0.0, 10.000761, 9.999043 
1.1350901e+3, 2.3436534e+2, -661994.8, -752128.94, -40425.996, 0.029583545, -0.021267755, -646520.1, -3301.9985, 0.0, 10.00027, 9.999078 
1.1350975e+3, 2.443643e+2, -626888.2, -689207.8, -34050.28, 0.016612496, -0.02998566, -611892.25, -66664.02, 0.0, 9.99986, 9.999034 
1.135105e+3, 2.543635e+2, -572612.94, -610127.4, -40706.926, 0.007296149, -0.016468227, -546549.5, -99312.125, 0.0, 9.99955, 9.999053 
1.1351126e+3, 2.6436287e+2, -502882.78, -491126.13, -38570.297, 0.0093187, 0.0053422987, -457988.78, -108743.69, 0.0, 9.9992075, 9.999362 
1.1351205e+3, 2.7436262e+2, -457094.44, -412998.22, -37481.305, 0.0261547, 0.036464155, -391561.06, -140310.7, 0.0, 9.998826, 9.999409 
1.1351283e+3, 2.843625e+2, -392239.22, -288013.66, -25523.79, 0.02927942, 0.06414736, -282098.78, -128846.02, 0.0, 9.998413, 9.999793 
1.13513626e+3, 2.9436243e+2, -356188.6, -214332.48, -23085.455, 0.0147469025, 0.07302196, -210670.14, -155417.78, 0.0, 9.997964, 9.999843 
1.1351444e+3, 3.043616e+2, -335073.5, -127382.61, -9149.806, 0.023183784, -0.014435445, -126980.3, -126980.3, 0.0, 9.997551, 10.000304 
1.1351533e+3, 3.143633e+2, -360017.06, -95408.14, -18552.715, 0.06624574, 0.12225189, -94113.67, -94113.67, 0.0, 9.9971895, 10.000698 
1.1450058e+3, 1.2437272e+2, -1320800.0, -1687954.1, -48686.727, -0.07423764, 0.09281578, -1314453.6, 406698.38, 0.001186206, 10.003418, 9.998536 
1.1450151e+3, 1.3437013e+2, -1294745.1, -1665704.5, 41122.434, -0.13770881, 0.016556783, -1290241.3, 332935.47, 0.00060623896, 10.003091, 9.998179 
1.14502475e+3, 1.4436871e+2, -1205132.6, -1549439.5, -51130.37, -0.05673762, 0.04791782, -1197700.1, 327490.0, 0.00018835878, 10.002939, 9.998373 
1.1450326e+3, 1.5436693e+2, -1098802.8, -1445859.0, -49228.69, -0.028638473, 0.030654853, -1091954.9, 335252.0, 0.000018936791, 10.00299, 9.998386 
1.1450402e+3, 1.6436535e+2, -1018152.4, -1326791.9, -43279.742, -0.015265957, 0.022376724, -1012198.25, 317023.47, 0.000000013934886, 10.002742, 9.998651 
1.1450477e+3, 1.7436403e+2, -1007126.8, -1266346.5, -47910.527, -0.017450629, 0.021163838, -998555.2, 232678.45, 0.0, 10.002126, 9.99869 
1.14505515e+3, 1.843626e+2, -967163.3, -1193925.5, -68277.52, -0.008407288, 0.008956003, -948192.25, 185054.55, 0.0, 10.001717, 9.998712 
1.1450624e+3, 1.9436103e+2, -888002.6, -1102705.9, -59575.215, 0.013705992, -0.021295466, -872579.75, 162681.67, 0.0, 10.001577, 9.998732 
1.14506945e+3, 2.0435978e+2, -817863.7, -1006794.94, -56852.113, 0.03334776, -0.024062261, -802075.44, 135197.97, 0.0, 10.001336, 9.998834 
1.1450765e+3, 2.1435891e+2, -772325.4, -931032.9, -53984.73, 0.049704503, 0.0033602507, -755703.25, 83578.7, 0.0, 10.000963, 9.998861 
1.1450835e+3, 2.2435793e+2, -704762.25, -809202.7, -45792.906, 0.04881499, 0.001939513, -687527.9, 53763.16, 0.0, 10.000589, 9.999205 
1.1450903e+3, 2.3435676e+2, -657840.44, -731055.5, -44361.83, 0.025393499, -0.039756462, -636932.06, 6368.5947, 0.0, 10.000217, 9.999248 
1.1450973e+3, 2.4435581e+2, -632195.94, -690917.8, -36374.35, 0.010772438, -0.048445422, -614811.2, -69501.48, 0.0, 9.99982, 9.999041 
1.1451044e+3, 2.5435516e+2, -596116.9, -621663.94, -30492.219, 0.007853145, -0.020699147, -575830.75, -128512.67, 0.0, 9.999391, 9.99905 
1.1451117e+3, 2.643546e+2, -532375.94, -502646.4, -21216.174, 0.010579283, 0.0028000048, -491605.8, -142280.05, 0.0, 9.998995, 9.999385 
1.14511915e+3, 2.743542e+2, -481750.34, -422019.38, -20563.004, 0.020426285, 0.01953516, -415624.9, -164292.92, 0.0, 9.998645, 9.9994335 
1.1451266e+3, 2.8435406e+2, -402857.0, -287610.1, -9035.4795, 0.023269486, 0.044888202, -286906.0, -133571.92, 0.0, 9.998317, 9.999842 
1.1451341e+3, 2.9435417e+2, -344747.7, -203519.73, -6211.5156, 0.01748656, 0.06620094, -203247.06, -147915.23, 0.0, 9.998019, 9.999889 
1.1451421e+3, 3.0435324e+2, -329792.75, -135823.06, 7397.9023, 0.022996435, -0.031490378, -135541.31, -135541.31, 0.0, 9.997637, 10.000204 
1.1451504e+3, 3.143548e+2, -364943.7, -95503.77, 709.40265, 0.050765526, 0.103108056, -95501.91, -95501.91, 0.0, 9.997149, 10.000715 
1.15500905e+3, 1.2436349e+2, -1340372.0, -1726377.8, -64389.023, -0.092320636, 0.030872118, -1329914.6, 391324.8, 0.0013141764, 10.003409, 9.998277 
1.1550186e+3, 1.343612e+2, -1314402.1, -1706411.4, 28889.91, -0.09988938, 0.011442387, -1312284.5, 310978.75, 0.0006802459, 10.00309, 9.9979 
1.15502805e+3, 1.4435987e+2, -1192750.9, -1524906.9, -50353.68, -0.02299462, 0.06098385, -1185285.3, 339990.94, 0.00021757523, 10.002943, 9.99854 
1.1550353e+3, 1.5435801e+2, -1084880.8, -1417464.9, -47808.188, -0.057223633, 0.015373045, -1078144.9, 349148.2, 0.000023929451, 10.002991, 9.998582 
1.1550425e+3, 1.643564e+2, -1026151.94, -1343684.8, -65661.5, -0.0562353, -0.00044188765, -1013109.7, 316198.4, 0.000000023716384, 10.002743, 9.998534 
1.15505e+3, 1.7435515e+2, -1016483.56, -1286126.0, -71618.08, -0.0054160883, 0.017574878, -998642.06, 232678.53, 0.0, 10.002127, 9.998553 
1.15505725e+3, 1.8435389e+2, -950406.56, -1159945.6, -75247.36, 0.024419285, 0.018154785, -926184.56, 207147.86, 0.0, 10.0017185, 9.998944 
1.1550641e+3, 1.943526e+2, -869323.94, -1064699.5, -65415.02, 0.025325544, -0.008883657, -849444.56, 185898.73, 0.0, 10.001579, 9.998992 
1.1550708e+3, 2.0435141e+2, -811571.25, -994243.7, -71047.53, 0.034566134, -0.023375504, -787192.06, 150162.02, 0.0, 10.001338, 9.9989195 
1.1550775e+3, 2.1435033e+2, -767063.56, -920138.8, -68550.6, 0.055402827, -0.02670414, -740852.94, 98511.69, 0.0, 10.000962, 9.998937 
1.1550841e+3, 2.2434933e+2, -702564.5, -804643.25, -60253.406, 0.05492244, -0.032055177, -674638.75, 66735.03, 0.0, 10.000588, 9.999237 
1.15509056e+3, 2.343485e+2, -655799.94, -726849.8, -58412.12, 0.026687808, -0.04278314, -622958.25, 20422.658, 0.0, 10.0002165, 9.999277 
1.1550972e+3, 2.4434781e+2, -621323.0, -668298.4, -52250.406, 0.012139556, -0.036111504, -587523.9, -42136.043, 0.0, 9.999819, 9.999198 
1.1551039e+3, 2.5434726e+2, -584292.1, -597582.4, -46093.824, 0.015743531, -0.013760387, -544366.9, -96972.18, 0.0, 9.999392, 9.999216 
1.15511075e+3, 2.6434666e+2, -530175.06, -498712.56, -34000.266, 0.014633153, -0.004088554, -476980.63, -127578.234, 0.0, 9.998996, 9.999412 
1.1551177e+3, 2.7434605e+2, -480784.7, -419873.7, -32906.773, 0.0060522687, -0.010977553, -405491.78, -154081.25, 0.0, 9.998644, 9.99945 
1.15512475e+3, 2.8434598e+2, -398765.75, -278528.25, -19248.246, 0.006551643, 0.018675238, -275522.03, -122110.16, 0.0, 9.998314, 9.999907 
1.1551322e+3, 2.9434657e+2, -340182.9, -194366.6, -15686.697, 0.020912431, 0.07886286, -192698.13, -137292.48, 0.0, 9.99802, 9.999953 
1.1551398e+3, 3.0434552e+2, -334513.2, -147040.23, -9494.436, 0.03186272, -0.028925622, -146560.63, -146560.63, 0.0, 9.997641, 10.000126 
1.1551475e+3, 3.143466e+2, -359114.3, -85786.33, -16649.11, 0.047308505, 0.067366995, -84775.92, -84775.92, 0.0, 9.997158, 10.000779 
1.1650126e+3, 1.24354504e+2, -1297025.0, -1705606.0, -79915.016, -0.09904445, 0.002772556, -1281950.5, 439375.47, 0.0014487082, 10.003709, 9.998275 
1.16502196e+3, 1.3435225e+2, -1255229.1, -1678667.4, 36444.49, -0.09355215, -0.012698459, -1252115.3, 371233.9, 0.0007585872, 10.0035, 9.997893 
1.1650311e+3, 1.4435098e+2, -1153402.4, -1502451.5, -34213.97, -0.019864328, 0.041003253, -1150080.3, 375281.34, 0.00024917058, 10.003198, 9.998571 
1.16503805e+3, 1.5434925e+2, -1115600.0, -1428695.0, -44201.363, -0.05741703, 0.0053073927, -1109479.5, 317898.22, 0.000029664654, 10.002764, 9.998613 
1.16504505e+3, 1.6434772e+2, -1064085.1, -1353418.5, -68560.37, -0.05909524, -0.008046059, -1048661.3, 280730.97, 0.00000004774233, 10.002446, 9.9986105 
1.1650523e+3, 1.7434645e+2, -988932.0, -1264119.4, -59650.5, -0.008763292, 0.0018328631, -976558.4, 254846.36, 0.0, 10.002279, 9.998631 
1.16505906e+3, 1.8434529e+2, -907125.06, -1129610.6, -56670.086, 0.026012164, 0.0037635206, -893522.1, 239893.5, 0.0, 10.001976, 9.999028 
1.1650658e+3, 1.9434424e+2, -873931.06, -1057335.8, -59652.555, 0.03776637, -0.008912036, -856236.2, 179188.23, 0.0, 10.001507, 9.999077 
1.1650722e+3, 2.0434316e+2, -838824.1, -990540.1, -72463.11, 0.045939364, -0.024125312, -809775.75, 127658.234, 0.0, 10.00108, 9.999069 
1.16507836e+3, 2.1434201e+2, -793112.4, -915443.06, -64897.914, 0.050549157, -0.048187427, -765098.44, 74346.125, 0.0, 10.0007105, 9.99909 
1.1650845e+3, 2.243411e+2, -735429.5, -816733.6, -53372.824, 0.046864316, -0.055989385, -708990.25, 32462.918, 0.0, 10.000347, 9.9992695 
1.1650907e+3, 2.3434052e+2, -686963.94, -738729.3, -52307.98, 0.03254532, -0.045681316, -654485.4, -11026.442, 0.0, 9.99999, 9.999304 
1.1650969e+3, 2.4433999e+2, -639207.0, -658705.0, -47960.582, 0.024698999, -0.030457806, -600014.6, -54550.168, 0.0, 9.9996195, 9.999359 
1.16510324e+3, 2.5433952e+2, -595822.3, -584164.2, -42039.2, 0.024894934, -0.015915351, -547551.9, -100082.125, 0.0, 9.999231, 9.999384 
1.1651097e+3, 2.6433897e+2, -546402.3, -501936.75, -27413.89, 0.018483445, -0.0146682095, -488873.38, -139396.61, 0.0, 9.998865, 9.999453 
1.1651162e+3, 2.7433828e+2, -495380.38, -423409.72, -25342.338, 0.0029687677, -0.029725973, -415381.66, -163896.28, 0.0, 9.9985285, 9.999481 
1.1651229e+3, 2.8433833e+2, -420334.72, -291202.0, -13863.693, 0.0007041984, 0.0065715536, -289730.34, -136244.03, 0.0, 9.998176, 9.999886 
1.16513014e+3, 2.943391e+2, -373908.13, -213199.27, -17618.14, 0.017193478, 0.09021012, -211290.5, -155811.66, 0.0, 9.997801, 9.999928 
1.1651374e+3, 3.0433795e+2, -349981.6, -153129.11, -10914.955, 0.027389765, -0.02524726, -152525.75, -152525.75, 0.0, 9.99753, 10.000137 
1.1651447e+3, 3.1433886e+2, -312039.28, -42998.67, -9987.72, 0.04229551, 0.048653983, -42628.402, -42628.402, 0.0, 9.997395, 10.000959 
1.1750164e+3, 1.2434586e+2, -1279252.9, -1668993.8, -91353.945, -0.094307944, 0.008927312, -1258902.4, 462508.25, 0.001589209, 10.003709, 9.998528 
1.1750252e+3, 1.3434337e+2, -1237106.9, -1641198.0, 28411.457, -0.11926214, -0.055609856, -1235119.0, 388314.8, 0.00084116485, 10.0035, 9.998151 
1.17503405e+3, 1.443421e+2, -1160897.0, -1517931.5, -50552.09, -0.048323266, -0.011947999, -1153877.4, 371568.6, 0.0002831922, 10.003197, 9.998466 
1.1750411e+3, 1.5434071e+2, -1124234.9, -1446852.1, -60904.45, -0.030384665, 0.0003585733, -1113120.1, 314340.16, 0.000036181405, 10.002765, 9.998488 
1.1750478e+3, 1.6433936e+2, -1045772.0, -1316371.6, -75898.266, -0.024850551, -0.00036746397, -1025937.75, 303535.72, 0.00000010132158, 10.002449, 9.998864 
1.1750543e+3, 1.7433804e+2, -968743.44, -1222918.1, -66319.32, -0.027385645, -0.025206232, -952480.0, 279005.47, 0.0, 10.002281, 9.998914 
1.1750608e+3, 1.8433689e+2, -911280.0, -1138714.0, -74359.766, -0.003767382, -0.03300746, -889126.0, 244369.95, 0.0, 10.001977, 9.998965 
1.17506735e+3, 1.94336e+2, -880013.06, -1070068.6, -77709.49, 0.050713826, -0.02145438, -852284.75, 183219.55, 0.0, 10.001507, 9.99899 
1.17507346e+3, 2.0433505e+2, -824638.44, -961388.8, -87128.48, 0.066907525, -0.026873298, -782259.25, 155253.52, 0.0, 10.00108, 9.9992695 
1.1750788e+3, 2.1433404e+2, -777302.4, -883048.0, -79220.58, 0.03471252, -0.060907055, -734931.06, 104590.27, 0.0, 10.0007105, 9.999312 
1.17508456e+3, 2.2433326e+2, -733041.75, -812279.44, -67281.84, 0.024345176, -0.06945505, -694580.5, 46948.285, 0.0, 10.000348, 9.9993 
1.1750908e+3, 2.343328e+2, -685328.4, -735774.6, -65714.125, 0.042614784, -0.048714258, -640162.94, 3371.6294, 0.0, 9.999991, 9.999324 
1.1750968e+3, 2.4433237e+2, -627872.44, -635546.6, -62411.246, 0.04763235, -0.03176916, -569180.44, -23641.074, 0.0, 9.99962, 9.999517 
1.1751027e+3, 2.5433198e+2, -583852.4, -559445.3, -56121.5, 0.034848902, -0.026834512, -514215.84, -66672.79, 0.0, 9.999231, 9.999555 
1.1751086e+3, 2.643315e+2, -542234.56, -493505.88, -39424.715, 0.021768453, -0.028444411, -471524.47, -121975.73, 0.0, 9.998865, 9.999512 
1.1751147e+3, 2.7433094e+2, -491411.9, -416083.9, -36731.086, 0.008484576, -0.037210032, -401138.5, -149582.16, 0.0, 9.99853, 9.999531 
1.1751211e+3, 2.8433102e+2, -428177.44, -308596.75, -26978.172, 0.0025711332, 0.0074645975, -302792.06, -149234.66, 0.0, 9.998179, 9.999765 
1.1751278e+3, 2.9433176e+2, -382648.34, -232195.64, -30925.373, 0.0066898707, 0.10009914, -226087.0, -170535.45, 0.0, 9.997804, 9.999798 
1.1751346e+3, 3.0433056e+2, -340968.3, -135211.88, -15447.56, 0.010575405, -0.019984359, -134058.58, -134058.58, 0.0, 9.997533, 10.00026 
1.1751419e+3, 3.1433156e+2, -288769.28, 3601.202, -12975.607, 0.032000113, 0.05043188, 4175.9385, 4175.9385, 0.0, 9.997401, 10.001278 
1.1850201e+3, 1.24337696e+2, -1215832.4, -1631574.3, -51604.58, -0.10670995, -0.0033247995, -1209522.6, 511967.06, 0.0017359592, 10.004118, 9.998587 
1.1850288e+3, 1.3433525e+2, -1190678.5, -1611074.3, 56595.234, -0.123546526, -0.068913534, -1183192.8, 440318.56, 0.00092825014, 10.003787, 9.998219 
1.18503734e+3, 1.4433394e+2, -1134741.0, -1510214.9, -34708.438, -0.054193612, -0.030963358, -1131559.6, 393964.13, 0.0003198089, 10.0034, 9.99842 
1.18504405e+3, 1.5433252e+2, -1108861.8, -1445391.1, -40991.715, -0.023703448, -0.017752167, -1103940.6, 323598.47, 0.0000435681, 10.002896, 9.998434 
1.1850504e+3, 1.6433121e+2, -1034542.6, -1296600.4, -49783.824, -0.014128942, -0.01660046, -1025403.75, 304148.4, 0.00000019883093, 10.002465, 9.998992 
1.1850565e+3, 1.7433004e+2, -978727.0, -1211555.9, -50243.957, -0.02289344, -0.03866636, -968347.2, 263215.0, 0.0, 10.002144, 9.999057 
1.1850626e+3, 1.84329e+2, -935981.25, -1142856.4, -66573.0, -0.006153688, -0.04619836, -916409.5, 217162.05, 0.0, 10.001775, 9.999034 
1.1850687e+3, 1.9432816e+2, -899610.56, -1072334.3, -59759.54, 0.04060232, -0.03780624, -880950.6, 154629.17, 0.0, 10.001342, 9.999054 
1.1850744e+3, 2.043273e+2, -836445.6, -954632.6, -62858.418, 0.05718815, -0.044069078, -809265.0, 128322.59, 0.0, 10.000945, 9.99938 
1.1850796e+3, 2.1432641e+2, -785472.25, -873772.06, -62721.605, 0.035658523, -0.075465724, -752920.0, 86674.836, 0.0, 10.000599, 9.99943 
1.18508495e+3, 2.2432579e+2, -747008.06, -809606.2, -54780.363, 0.03045293, -0.07785169, -715215.75, 26385.201, 0.0, 10.000214, 9.999383 
1.1850907e+3, 2.3432551e+2, -710965.5, -739131.2, -49420.07, 0.046079326, -0.046673838, -673660.94, -30055.533, 0.0, 9.999777, 9.999404 
1.1850963e+3, 2.4432518e+2, -651182.94, -635658.94, -43731.25, 0.049781617, -0.03087482, -599006.2, -53396.715, 0.0, 9.999413, 9.999617 
1.1851018e+3, 2.5432473e+2, -589386.8, -550730.6, -42943.965, 0.038249902, -0.04224142, -522965.66, -75352.41, 0.0, 9.999145, 9.999656 
1.1851075e+3, 2.6432428e+2, -542720.6, -491630.28, -30833.723, 0.027329177, -0.04607988, -477134.53, -127516.15, 0.0, 9.998854, 9.999529 
1.1851134e+3, 2.7432388e+2, -490737.66, -414259.94, -31693.479, 0.016657107, -0.03903403, -402833.06, -151208.34, 0.0, 9.998531, 9.999542 
1.1851194e+3, 2.8432405e+2, -427588.06, -311543.47, -21226.53, 0.01085553, 0.011953161, -307782.66, -154157.11, 0.0, 9.9981985, 9.999735 
1.1851257e+3, 2.9432467e+2, -376348.94, -232915.03, -17794.014, 0.012228267, 0.0990587, -230740.52, -175119.7, 0.0, 9.997863, 9.9997635 
1.1851322e+3, 3.043234e+2, -340347.03, -146703.33, -124.3179, 0.009844235, -0.022540132, -146703.25, -146703.25, 0.0, 9.997588, 10.000154 
1.1851393e+3, 3.1432435e+2, -286950.8, 13894.589, -16925.453, 0.025755754, 0.04981441, 14843.814, 14843.814, 0.0, 9.997374, 10.00136 
1.19502395e+3, 1.24330066e+2, -1224893.3, -1649942.4, -67348.9, -0.13649221, -0.033240315, -1214477.1, 507085.0, 0.0018898682, 10.004116, 9.998462 
1.19503275e+3, 1.3432796e+2, -1199207.4, -1629078.6, 44223.26, -0.10719091, -0.05298847, -1194705.0, 428876.03, 0.0010202378, 10.003788, 9.9980955 
1.1950409e+3, 1.4432657e+2, -1133855.5, -1509256.6, -53228.598, -0.038400587, -0.016191645, -1126454.1, 399140.22, 0.00035921202, 10.003402, 9.998426 
1.19504675e+3, 1.5432471e+2, -1107498.5, -1443378.9, -60496.047, -0.037497103, -0.04842885, -1096934.6, 330679.13, 0.00005194898, 10.002898, 9.998448 
1.1950527e+3, 1.6432332e+2, -1034277.5, -1296924.6, -62903.53, -0.027351575, -0.05582913, -1019989.5, 309638.2, 0.00000035173326, 10.002467, 9.998989 
1.195059e+3, 1.7432256e+2, -978338.4, -1211311.0, -62701.64, 0.0038726812, -0.0391716, -962535.0, 269099.5, 0.0, 10.002145, 9.999059 
1.19506456e+3, 1.843217e+2, -922358.5, -1115104.9, -83109.625, 0.017842337, -0.03676717, -891472.1, 242169.97, 0.0, 10.001776, 9.999224 
1.1950697e+3, 1.9432077e+2, -884792.2, -1042175.44, -76588.68, 0.0074290675, -0.057425447, -853674.0, 181976.5, 0.0, 10.001344, 9.999261 
1.1950749e+3, 2.0431991e+2, -834588.06, -951381.94, -76625.28, 0.016769076, -0.07444293, -796643.75, 141014.4, 0.0, 10.000947, 9.999403 
1.19508035e+3, 2.1431918e+2, -784429.1, -872196.2, -76214.17, 0.052773472, -0.09214292, -740367.44, 99297.41, 0.0, 10.0006, 9.99944 
1.1950856e+3, 2.2431876e+2, -737806.25, -791112.94, -71338.7, 0.06412858, -0.08193675, -688304.4, 53365.07, 0.0, 10.000215, 9.99951 
1.1950905e+3, 2.3431872e+2, -701071.6, -719331.4, -65877.31, 0.042846505, -0.03936526, -643694.56, -23.336937, 0.0, 9.999779, 9.999539 
1.19509555e+3, 2.4431844e+2, -648114.75, -630200.8, -54149.94, 0.031480614, -0.02731754, -584272.06, -38597.453, 0.0, 9.999415, 9.999654 
1.1951009e+3, 2.543178e+2, -586709.25, -546031.9, -52475.527, 0.03389384, -0.062307537, -510091.4, -62411.19, 0.0, 9.999147, 9.999688 
1.1951064e+3, 2.6431733e+2, -544984.3, -496936.44, -42216.414, 0.033236865, -0.06794065, -472386.97, -122701.3, 0.0, 9.998856, 9.999493 
1.1951121e+3, 2.7431715e+2, -493444.56, -420188.7, -43152.504, 0.027918166, -0.035114463, -400215.0, -148524.53, 0.0, 9.998531, 9.999502 
1.1951178e+3, 2.8431734e+2, -422240.66, -300937.22, -33019.605, 0.025930993, 0.020210015, -292531.53, -138840.73, 0.0, 9.998199, 9.999807 
1.1951238e+3, 2.9431787e+2, -370785.6, -222375.81, -28804.188, 0.028748492, 0.086423494, -216981.4, -161294.66, 0.0, 9.997867, 9.999835 
1.1951299e+3, 3.0431646e+2, -365009.13, -198869.9, -7114.0933, 0.019604493, -0.033485632, -198565.84, -198565.84, 0.0, 9.997592, 9.999794 
1.19513676e+3, 3.1431717e+2, -299796.88, -13554.98, -23238.842, 0.02459747, 0.05408557, -11680.586, -11680.586, 0.0, 9.9973755, 10.001171 
1.2050283e+3, 1.2432288e+2, -1126273.0, -1619973.0, -54025.06, -0.14674148, -0.065486975, -1120430.3, 601199.56, 0.002051811, 10.004872, 9.998302 
1.2050367e+3, 1.3432078e+2, -1187115.4, -1641244.4, 56293.434, -0.09829528, -0.06749635, -1180241.3, 443408.16, 0.0011174419, 10.003949, 9.997933 
1.2050442e+3, 1.4431931e+2, -1143831.3, -1509969.5, -33334.758, -0.036618393, -0.03279354, -1140821.0, 384842.8, 0.00040150605, 10.003317, 9.998461 
1.2050497e+3, 1.5431744e+2, -1081960.9, -1425025.0, -37998.297, -0.04283089, -0.069973886, -1077802.6, 349880.22, 0.000061428385, 10.00305, 9.998499 
1.2050553e+3, 1.6431609e+2, -1009999.75, -1287352.6, -41964.168, -0.031013109, -0.077502966, -1003789.5, 325907.1, 0.00000057087306, 10.0026455, 9.998967 
1.20506115e+3, 1.7431535e+2, -993046.9, -1221720.8, -44380.66, 0.015344012, -0.05419699, -984735.6, 246968.22, 0.0, 10.00206, 9.999027 
1.20506644e+3, 1.843146e+2, -936270.0, -1101504.9, -63268.06, 0.03052398, -0.050074957, -914827.44, 218883.28, 0.0, 10.001594, 9.999405 
1.2050709e+3, 1.943138e+2, -879599.9, -1017348.3, -57619.816, 0.0020557805, -0.07574721, -858675.94, 177041.05, 0.0, 10.001284, 9.999458 
1.2050758e+3, 2.0431307e+2, -838363.9, -953510.7, -59645.785, 0.006962452, -0.09072212, -813037.9, 124685.67, 0.0, 10.000923, 9.999398 
1.2050809e+3, 2.1431243e+2, -801290.44, -882354.0, -61636.047, 0.05628789, -0.09727831, -768053.5, 71676.79, 0.0, 10.000494, 9.999421 
1.2050858e+3, 2.2431207e+2, -743240.4, -781807.25, -57911.363, 0.07236368, -0.08418137, -701486.3, 40248.203, 0.0, 10.000127, 9.999616 
1.2050902e+3, 2.3431209e+2, -683792.8, -697669.06, -54264.453, 0.04483884, -0.04914938, -636024.75, 7710.5835, 0.0, 9.999842, 9.999658 
1.205095e+3, 2.4431181e+2, -636298.9, -630930.6, -45259.344, 0.030634115, -0.03812389, -588275.94, -42537.492, 0.0, 9.999525, 9.999595 
1.2051001e+3, 2.5431114e+2, -588668.75, -554521.2, -51487.934, 0.03389913, -0.06604963, -517349.94, -69605.27, 0.0, 9.999167, 9.999619 
1.20510526e+3, 2.643107e+2, -550148.5, -493559.47, -43927.19, 0.036190838, -0.07003022, -469602.88, -119852.54, 0.0, 9.998796, 9.999543 
1.2051106e+3, 2.7431056e+2, -506311.9, -419269.3, -37755.117, 0.037317812, -0.042894322, -405175.03, -153420.34, 0.0, 9.998414, 9.999564 
1.2051161e+3, 2.8431076e+2, -431246.4, -304803.84, -22513.252, 0.037519224, 0.011758805, -300914.94, -147160.3, 0.0, 9.998137, 9.99981 
1.2051217e+3, 2.9431134e+2, -353602.06, -214220.84, -24879.338, 0.036377, 0.08421591, -209913.06, -154162.88, 0.0, 9.997987, 9.999831 
1.2051275e+3, 3.0430993e+2, -359954.72, -219424.36, -3280.5483, 0.022625713, -0.026042458, -219347.83, -219347.83, 0.0, 9.997726, 9.999587 
1.205134e+3, 3.143103e+2, -309123.34, -20240.182, -6341.473, 0.028735101, 0.04662001, -20101.043, -20101.043, 0.0, 9.997323, 10.001149 
1.2150333e+3, 1.2431623e+2, -1140943.1, -1650523.0, -91457.4, -0.13723883, -0.09788249, -1125025.9, 596665.9, 0.002221908, 10.004872, 9.998094 
1.2150407e+3, 1.343138e+2, -1201409.9, -1671838.1, 21187.357, -0.09740419, -0.11189548, -1200457.6, 423258.06, 0.0012199002, 10.003952, 9.997723 
1.2150475e+3, 1.4431223e+2, -1138805.0, -1500953.9, -45395.33, -0.049607694, -0.07977147, -1133201.4, 392530.06, 0.0004465886, 10.003322, 9.998522 
1.2150528e+3, 1.543108e+2, -1075467.5, -1412250.0, -48261.16, -0.040353473, -0.08277392, -1068688.1, 359057.7, 0.00007201624, 10.003052, 9.998587 
1.215058e+3, 1.6430955e+2, -1013270.2, -1294699.8, -63758.723, -0.025739418, -0.08220883, -999499.3, 330259.3, 0.0000008702971, 10.002646, 9.998917 
1.21506326e+3, 1.7430851e+2, -997053.9, -1230926.8, -66746.8, 0.0114667835, -0.083153605, -979345.3, 252424.27, 0.0, 10.002062, 9.998963 
1.215068e+3, 1.8430771e+2, -924108.94, -1077202.6, -76107.086, 0.03131954, -0.08490008, -892712.7, 241064.16, 0.0, 10.001596, 9.999571 
1.2150725e+3, 1.9430728e+2, -866062.5, -990211.3, -69600.836, 0.023507716, -0.09312354, -834876.44, 200902.6, 0.0, 10.0012865, 9.999644 
1.2150769e+3, 2.0430678e+2, -840396.56, -958599.75, -76136.36, 0.02663456, -0.093947195, -803114.9, 134668.69, 0.0, 10.000926, 9.999363 
1.2150813e+3, 2.143062e+2, -804474.44, -889564.56, -78220.26, 0.046066765, -0.09082382, -757977.44, 81813.484, 0.0, 10.000495, 9.999372 
1.2150857e+3, 2.2430576e+2, -737137.9, -769805.44, -69323.414, 0.05534026, -0.0840142, -682250.0, 59545.918, 0.0, 10.000128, 9.999698 
1.2150902e+3, 2.3430562e+2, -676808.06, -684019.3, -64976.684, 0.051245093, -0.07576015, -615337.06, 28460.457, 0.0, 9.999844, 9.999751 
1.2150947e+3, 2.4430534e+2, -646894.2, -653649.3, -58403.727, 0.045850188, -0.06343231, -591770.44, -45969.613, 0.0, 9.999527, 9.999438 
1.2150994e+3, 2.543049e+2, -600403.4, -579640.25, -64272.62, 0.038318474, -0.05367622, -524916.1, -77109.6, 0.0, 9.999169, 9.999446 
1.21510416e+3, 2.6430443e+2, -540179.94, -473849.94, -57449.445, 0.036541436, -0.052720338, -440679.75, -90867.484, 0.0, 9.998799, 9.999678 
1.215109e+3, 2.743041e+2, -494664.22, -396158.88, -50886.67, 0.04198485, -0.062870234, -374592.9, -122775.46, 0.0, 9.998417, 9.9997225 
1.2151142e+3, 2.843043e+2, -436895.4, -317171.9, -27453.225, 0.042361107, -0.013841324, -311176.94, -157359.73, 0.0, 9.998138, 9.999725 
1.2151197e+3, 2.9430512e+2, -360734.2, -229296.95, -29607.16, 0.036725238, 0.092546776, -222935.61, -167124.22, 0.0, 9.997987, 9.999728 
1.21512525e+3, 3.043038e+2, -362505.8, -225119.4, -16567.613, 0.020710796, 0.00008299487, -223149.73, -223149.73, 0.0, 9.997727, 9.999548 
1.2151315e+3, 3.143037e+2, -298036.16, 2043.0033, -18759.008, 0.03213569, 0.031688668, 3211.1477, 3211.1477, 0.0, 9.997325, 10.001302 
1.2250381e+3, 1.24310024e+2, -1179672.9, -1676032.6, -84628.1, -0.12909351, -0.123981155, -1165640.8, 556110.1, 0.0023990062, 10.004639, 9.998029 
1.2250448e+3, 1.3430764e+2, -1149614.5, -1653035.1, 40803.42, -0.09629159, -0.12788977, -1146328.8, 477446.0, 0.0013270588, 10.004338, 9.9976635 
1.2250509e+3, 1.4430597e+2, -1064408.3, -1463229.5, -18963.215, -0.060740665, -0.102061816, -1063508.6, 462282.88, 0.0004940867, 10.003829, 9.998534 
1.2250559e+3, 1.5430458e+2, -1079211.1, -1412081.0, -27784.738, -0.031656157, -0.10173442, -1076907.9, 350897.03, 0.000083587045, 10.003019, 9.998603 
1.2250607e+3, 1.6430335e+2, -1044585.6, -1309311.3, -40964.547, -0.016868116, -0.09931139, -1038391.56, 291425.78, 0.0000012652538, 10.002431, 9.9989195 
1.2250651e+3, 1.7430232e+2, -986579.2, -1224877.8, -39226.094, -0.0036694696, -0.10003225, -980288.25, 251540.34, 0.0, 10.002131, 9.998971 
1.2250696e+3, 1.8430157e+2, -902243.44, -1063136.9, -49742.242, 0.01478903, -0.10081044, -888107.06, 245728.72, 0.0, 10.001733, 9.9996 
1.22507386e+3, 1.9430119e+2, -875704.9, -991016.56, -54545.445, 0.03419521, -0.106729336, -853992.0, 181845.48, 0.0, 10.001205, 9.999678 
1.2250779e+3, 2.0430075e+2, -857951.44, -962135.9, -62235.035, 0.04302513, -0.10523212, -828884.56, 108956.85, 0.0, 10.000785, 9.999406 
1.22508176e+3, 2.1430023e+2, -800416.3, -882340.5, -57624.684, 0.040373232, -0.099453926, -770678.3, 69169.984, 0.0, 10.000502, 9.999417 
1.2250858e+3, 2.2429985e+2, -731366.6, -771468.9, -48238.06, 0.043386623, -0.09108396, -699178.3, 42674.918, 0.0, 10.000188, 9.999657 
1.2250901e+3, 2.3429963e+2, -681597.4, -691260.3, -54594.773, 0.053302843, -0.08283494, -631620.7, 12234.714, 0.0, 9.999833, 9.999705 
1.2250943e+3, 2.4429935e+2, -656731.56, -662287.3, -50992.047, 0.05479155, -0.06758889, -608441.75, -62582.62, 0.0, 9.999477, 9.999402 
1.2250985e+3, 2.5429893e+2, -608769.75, -587178.0, -47417.027, 0.044869054, -0.050697815, -549343.4, -101478.25, 0.0, 9.999128, 9.999413 
1.2251029e+3, 2.6429853e+2, -532558.56, -464149.1, -37032.2, 0.041147158, -0.0472798, -447942.03, -98071.414, 0.0, 9.998827, 9.99973 
1.2251075e+3, 2.7429816e+2, -466986.44, -375992.16, -38511.105, 0.045240562, -0.061779212, -361881.47, -110006.36, 0.0, 9.998579, 9.999782 
1.22511245e+3, 2.8429833e+2, -424436.34, -310216.5, -16161.14, 0.046035193, -0.018984612, -307973.88, -154099.05, 0.0, 9.998222, 9.999732 
1.2251177e+3, 2.942991e+2, -398785.2, -247401.63, -10618.918, 0.042927492, 0.08084149, -246660.38, -190790.66, 0.0, 9.997726, 9.999728 
1.22512296e+3, 3.0429795e+2, -407271.3, -242906.47, 11260.952, 0.023378124, 0.0026331986, -242138.55, -242138.55, 0.0, 9.997405, 9.99958 
1.2251287e+3, 3.1429774e+2, -288148.53, 28977.025, 13621.345, 0.031105194, 0.014353907, 29561.021, 29561.021, 0.0, 9.997298, 10.001499 
1.2350428e+3, 1.24304354e+2, -1174329.9, -1665531.6, -98613.586, -0.12238461, -0.1407906, -1155271.6, 566534.25, 0.0025810793, 10.004641, 9.998101 
1.2350492e+3, 1.3430232e+2, -1143526.4, -1640623.6, 29552.96, -0.09548379, -0.1163946, -1141775.5, 482050.44, 0.0014378258, 10.004338, 9.99775 
1.23505466e+3, 1.443006e+2, -1067514.8, -1470288.9, -48484.94, -0.07055121, -0.100146174, -1061760.4, 464082.75, 0.0005434548, 10.003829, 9.9984865 
1.23505905e+3, 1.5429887e+2, -1082849.5, -1421031.3, -58670.582, -0.017466666, -0.12632537, -1072960.0, 354899.6, 0.00009593835, 10.003024, 9.99854 
1.2350631e+3, 1.642976e+2, -1040053.3, -1301693.1, -53881.023, -0.005410904, -0.1279129, -1029391.7, 300480.7, 0.0000017602412, 10.002437, 9.99897 
1.235067e+3, 1.7429686e+2, -981369.9, -1215249.6, -50740.453, -0.030313663, -0.10545379, -970836.1, 261044.36, 0.0, 10.002135, 9.999036 
1.2350709e+3, 1.8429618e+2, -908924.9, -1078127.6, -69669.4, -0.019248022, -0.09861317, -883930.56, 249956.64, 0.0, 10.001737, 9.999497 
1.2350751e+3, 1.9429556e+2, -883067.0, -1007602.7, -74823.375, 0.033938453, -0.116312735, -847991.0, 187900.83, 0.0, 10.001209, 9.999562 
1.2350789e+3, 2.0429502e+2, -849470.75, -945709.0, -73926.766, 0.055763092, -0.123782285, -809382.06, 128514.81, 0.0, 10.000789, 9.999517 
1.2350823e+3, 2.1429458e+2, -790637.75, -863299.3, -68701.98, 0.038459744, -0.123168625, -749251.8, 90650.484, 0.0, 10.000505, 9.999547 
1.23508595e+3, 2.2429428e+2, -742149.25, -794997.1, -61733.16, 0.035656314, -0.10574651, -701422.56, 40483.94, 0.0, 10.000192, 9.999495 
1.2350898e+3, 2.3429416e+2, -694199.0, -718123.4, -67761.97, 0.0510385, -0.07069562, -637351.44, 6557.4175, 0.0, 9.999835, 9.999521 
1.2350938e+3, 2.4429385e+2, -651293.1, -651650.3, -63858.492, 0.0574511, -0.050768387, -587612.94, -41699.664, 0.0, 9.999479, 9.9994755 
1.23509765e+3, 2.542933e+2, -601979.0, -573850.4, -59754.746, 0.051926438, -0.057270367, -526527.1, -78606.72, 0.0, 9.99913, 9.999504 
1.2351018e+3, 2.642929e+2, -534914.5, -469695.97, -45580.54, 0.048300967, -0.053829543, -446261.06, -96335.51, 0.0, 9.998828, 9.999692 
1.2351062e+3, 2.742928e+2, -469960.66, -382829.9, -46642.492, 0.047627196, -0.039720092, -362571.6, -110643.73, 0.0, 9.99858, 9.999735 
1.2351107e+3, 2.8429294e+2, -417244.2, -296211.94, -33169.047, 0.048812374, -0.003776823, -287718.0, -133790.19, 0.0, 9.998224, 9.999827 
1.23511545e+3, 2.942933e+2, -391046.78, -232271.0, -27851.676, 0.051288985, 0.04828087, -227527.13, -171601.6, 0.0, 9.997729, 9.999832 
1.2351204e+3, 3.0429235e+2, -401801.88, -231609.48, 7705.1484, 0.027034998, -0.018742817, -231261.36, -231261.36, 0.0, 9.997403, 9.99966 
1.23512596e+3, 3.142923e+2, -274558.1, 58510.477, 12484.374, 0.026261054, 0.0021032933, 58977.77, 58977.77, 0.0, 9.997291, 10.001706 
1.2450476e+3, 1.24299616e+2, -1134614.9, -1646875.5, -59054.887, -0.12422351, -0.14090788, -1127895.1, 593956.5, 0.0027664257, 10.004919, 9.998094 
1.24505356e+3, 1.3429756e+2, -1175398.9, -1656308.8, 63745.906, -0.07871439, -0.11940465, -1167092.6, 456779.06, 0.0015512079, 10.004122, 9.997746 
1.2450583e+3, 1.4429568e+2, -1105994.9, -1493928.1, -16785.08, -0.0653749, -0.11543419, -1105270.0, 420620.3, 0.00059427, 10.003589, 9.99844 
1.2450623e+3, 1.5429398e+2, -1036261.06, -1403630.0, -26869.611, -0.019531257, -0.13424587, -1034306.2, 393600.38, 0.00010892868, 10.003367, 9.998492 
1.2450658e+3, 1.6429268e+2, -971273.94, -1271868.5, -24382.21, -0.007698678, -0.13538392, -969309.06, 360610.53, 0.0000023447426, 10.002926, 9.998938 
1.2450692e+3, 1.7429183e+2, -974251.7, -1215204.8, -28589.264, -0.022141831, -0.12005906, -970906.0, 261022.3, 0.0, 10.0022, 9.999003 
1.2450728e+3, 1.8429108e+2, -923169.44, -1093169.9, -46393.184, -0.012629268, -0.11521693, -911332.9, 222602.86, 0.0, 10.001675, 9.999423 
1.2450761e+3, 1.9429043e+2, -860775.75, -1005265.5, -48964.28, 0.02250889, -0.12809592, -845746.25, 190195.1, 0.0, 10.0014, 9.999486 
1.24507956e+3, 2.042899e+2, -809691.2, -925716.1, -48791.6, 0.041532896, -0.1315594, -791900.9, 146045.7, 0.0, 10.00106, 9.999524 
1.2450828e+3, 2.142895e+2, -771544.4, -852286.2, -52396.74, 0.041154433, -0.12777156, -745769.8, 94181.445, 0.0, 10.00063, 9.999561 
1.2450862e+3, 2.2428916e+2, -740350.25, -797906.7, -46382.35, 0.043894887, -0.11147202, -714543.6, 27411.893, 0.0, 10.000221, 9.999459 
1.2450897e+3, 2.3428895e+2, -695795.94, -722525.0, -42225.06, 0.04991757, -0.08363103, -664870.9, -20911.848, 0.0, 9.999841, 9.999487 
1.2450933e+3, 2.4428861e+2, -649768.5, -652029.75, -34215.98, 0.05266821, -0.064244434, -616664.44, -70700.53, 0.0, 9.9994955, 9.999464 
1.2450969e+3, 2.5428814e+2, -593369.0, -570497.75, -38199.19, 0.05102235, -0.061850037, -542059.2, -94088.68, 0.0, 9.999194, 9.9994955 
1.2451007e+3, 2.642878e+2, -534268.4, -471162.66, -27928.533, 0.051028665, -0.051576324, -460577.8, -110602.59, 0.0, 9.998842, 9.999675 
1.24510475e+3, 2.742877e+2, -493820.53, -395846.66, -27045.566, 0.053659458, -0.035270456, -388876.63, -136899.25, 0.0, 9.998425, 9.999719 
1.2451089e+3, 2.8428775e+2, -434561.34, -301292.7, -15991.151, 0.0560555, -0.007154816, -299400.75, -145422.95, 0.0, 9.998093, 9.999854 
1.2451133e+3, 2.9428804e+2, -369668.16, -218275.39, -17612.299, 0.056706157, 0.028335525, -216253.47, -160277.05, 0.0, 9.997862, 9.999863 
1.2451178e+3, 3.0428725e+2, -400336.25, -226652.94, 10974.391, 0.033135436, -0.022560818, -225962.25, -225962.25, 0.0, 9.997396, 9.999695 
1.2451231e+3, 3.1428692e+2, -361740.6, 31958.598, 14539.07, 0.044176325, -0.03331097, 32494.787, 32494.787, 0.0, 9.996627, 10.0018425 
1.2550524e+3, 1.2429592e+2, -1141684.8, -1662044.3, -90971.35, -0.13296539, -0.12156757, -1126239.3, 595647.5, 0.0029544896, 10.004921, 9.997991 
1.255058e+3, 1.342934e+2, -1181883.9, -1671027.5, 33497.734, -0.046807393, -0.13584863, -1179600.5, 444310.66, 0.0016668866, 10.004126, 9.997644 
1.255062e+3, 1.442913e+2, -1108850.9, -1501240.9, -26829.033, -0.046623826, -0.1472384, -1107025.0, 418907.16, 0.0006464973, 10.0035925, 9.998388 
1.2550655e+3, 1.5428996e+2, -1038601.44, -1409089.8, -35544.73, -0.037942503, -0.1265557, -1035222.1, 392723.34, 0.00012257921, 10.003369, 9.998455 
1.2550686e+3, 1.6428863e+2, -979406.4, -1289805.9, -51263.223, -0.02383687, -0.122243814, -971159.25, 358799.4, 0.0000030126384, 10.002928, 9.998815 
1.2550719e+3, 1.7428729e+2, -982390.0, -1233939.9, -56282.4, 0.019457797, -0.14316656, -970371.5, 261600.1, 0.0, 10.002206, 9.998874 
1.2550749e+3, 1.8428631e+2, -925989.94, -1100688.9, -58213.953, 0.032873526, -0.14962432, -908368.94, 225612.02, 0.0, 10.001681, 9.999369 
1.2550774e+3, 1.9428584e+2, -863284.56, -1011675.94, -59689.523, -0.00023789048, -0.14261904, -842255.06, 193730.63, 0.0, 10.001404, 9.999441 
1.2550803e+3, 2.0428538e+2, -816292.44, -940383.94, -65041.652, 0.0004982517, -0.12953122, -788448.9, 149541.5, 0.0, 10.001062, 9.999422 
1.2550835e+3, 2.1428502e+2, -778400.7, -867416.75, -68746.195, 0.047960848, -0.113310605, -741012.44, 98982.51, 0.0, 10.000632, 9.999457 
1.2550867e+3, 2.2428456e+2, -733983.8, -785444.5, -61046.754, 0.06734374, -0.107806265, -693466.44, 48533.664, 0.0, 10.000223, 9.999545 
1.2550895e+3, 2.3428403e+2, -688010.94, -707516.25, -56426.88, 0.04918097, -0.12118547, -640500.1, 3505.7622, 0.0, 9.999845, 9.999589 
1.2550926e+3, 2.4428363e+2, -655993.56, -666234.06, -45386.47, 0.03980561, -0.10770054, -615439.44, -69428.37, 0.0, 9.999499, 9.999366 
1.2550959e+3, 2.5428346e+2, -600748.2, -586913.8, -48703.51, 0.042412322, -0.06410562, -544638.7, -96623.234, 0.0, 9.999198, 9.999382 
1.2550995e+3, 2.642832e+2, -533767.1, -471321.63, -42416.234, 0.049349267, -0.04027391, -449875.63, -99855.88, 0.0, 9.998845, 9.999672 
1.2551032e+3, 2.7428287e+2, -492491.22, -394296.22, -41460.953, 0.06147025, -0.048306406, -379131.94, -127108.11, 0.0, 9.998428, 9.999729 
1.2551072e+3, 2.842828e+2, -437820.63, -309109.78, -23858.102, 0.06597421, -0.029132655, -304829.72, -150804.6, 0.0, 9.9980955, 9.999801 
1.2551112e+3, 2.9428315e+2, -373554.34, -226934.23, -25058.26, 0.05958781, 0.021244192, -222769.9, -166747.1, 0.0, 9.997862, 9.999804 
1.2551153e+3, 3.0428258e+2, -399823.72, -225751.0, -15557.577, 0.041412648, -0.008536676, -224371.48, -224371.48, 0.0, 9.997396, 9.999702 
1.2551202e+3, 3.1428158e+2, -357047.78, 41443.65, -11461.494, 0.080067925, -0.08583753, 41773.03, 41773.03, 0.0, 9.996627, 10.001908 
1.2650573e+3, 1.2429224e+2, -1165654.4, -1675438.3, -81796.75, -0.12185397, -0.13896242, -1152851.3, 569070.56, 0.0031457073, 10.004765, 9.9979725 
1.2650622e+3, 1.3428985e+2, -1143087.0, -1653945.5, 49779.41, -0.04035126, -0.13920704, -1138281.6, 485663.44, 0.0017851569, 10.0044, 9.997628 
1.2650658e+3, 1.442876e+2, -1071597.8, -1497684.4, -4903.466, -0.058400914, -0.1563214, -1071541.4, 454426.03, 0.0007004372, 10.003913, 9.998257 
1.2650688e+3, 1.5428618e+2, -1066184.4, -1438261.0, -21417.645, -0.038165998, -0.13069504, -1064955.6, 363026.53, 0.0001370497, 10.003249, 9.998312 
1.2650715e+3, 1.6428478e+2, -1004724.44, -1300123.4, -38940.94, -0.018347748, -0.12595513, -999677.25, 330318.75, 0.0000037895563, 10.002748, 9.99883 
1.2650742e+3, 1.7428342e+2, -944269.7, -1212168.8, -33012.285, 0.024653768, -0.15233581, -940261.7, 291746.72, 0.0, 10.002456, 9.998901 
1.2650768e+3, 1.8428239e+2, -884294.4, -1096027.5, -29148.0, 0.038113248, -0.15961373, -880355.0, 253663.25, 0.0, 10.002036, 9.999229 
1.2650788e+3, 1.9428182e+2, -867587.8, -1030597.0, -38527.4, 0.0044151833, -0.14700222, -858940.56, 177084.16, 0.0, 10.001449, 9.999289 
1.2650813e+3, 2.0428132e+2, -826529.56, -940884.4, -41778.926, 0.0035787912, -0.13329227, -812892.2, 125137.945, 0.0, 10.000975, 9.99946 
1.2650841e+3, 2.1428093e+2, -773457.8, -858932.0, -34422.78, 0.048576467, -0.1229351, -761318.8, 78715.195, 0.0, 10.000642, 9.99951 
1.265087e+3, 2.2428046e+2, -725671.3, -787192.7, -24784.795, 0.066420965, -0.120152265, -716928.75, 25110.332, 0.0, 10.000306, 9.999492 
1.2650894e+3, 2.3427986e+2, -675018.56, -707935.7, -32528.291, 0.04769333, -0.13205366, -655022.0, -10976.55, 0.0, 9.999964, 9.999528 
1.2650922e+3, 2.4427941e+2, -644135.0, -667050.0, -26165.982, 0.039841786, -0.11877872, -627028.0, -80976.586, 0.0, 9.99961, 9.999306 
1.2650952e+3, 2.5427917e+2, -597874.2, -591859.4, -26111.115, 0.04647374, -0.07763975, -568583.0, -120526.414, 0.0, 9.999246, 9.999325 
1.2650985e+3, 2.6427886e+2, -528827.0, -475022.94, -20873.54, 0.053693064, -0.050896373, -467874.66, -117813.51, 0.0, 9.998906, 9.999617 
1.2651019e+3, 2.7427855e+2, -471662.38, -390060.72, -25320.25, 0.061681636, -0.049677778, -382842.56, -130777.71, 0.0, 9.998597, 9.999676 
1.2651052e+3, 2.842784e+2, -432128.34, -313031.22, -12329.575, 0.06691431, -0.038744878, -311768.2, -157700.77, 0.0, 9.998164, 9.99974 
1.265109e+3, 2.9427838e+2, -421671.06, -256738.81, -14124.903, 0.06694911, -0.015949233, -255537.89, -199469.72, 0.0, 9.997561, 9.999743 
1.2651126e+3, 3.0427808e+2, -448516.1, -249037.6, -9853.997, 0.049508583, -0.0147569245, -248552.0, -248552.0, 0.0, 9.997063, 9.999702 
1.2651168e+3, 3.1427717e+2, -343546.0, 48302.184, -5677.359, 0.08775222, -0.08718896, 48384.42, 48384.42, 0.0, 9.996718, 10.00191 
1.2750626e+3, 1.2428866e+2, -1161679.4, -1666719.9, -97445.64, -0.09040085, -0.18961048, -1143529.9, 578425.9, 0.0033409367, 10.004762, 9.9980345 
1.2750666e+3, 1.3428693e+2, -1138112.0, -1644067.4, 35868.03, -0.059032995, -0.13049334, -1135581.9, 488390.72, 0.0019064862, 10.004402, 9.997696 
1.2750693e+3, 1.4428468e+2, -1086013.6, -1529405.1, -29775.521, -0.100572236, -0.14304574, -1084023.0, 441972.34, 0.00075642625, 10.003919, 9.998038 
1.2750721e+3, 1.5428273e+2, -1082729.1, -1474455.1, -46822.05, -0.021457838, -0.14553414, -1077210.3, 350805.7, 0.00015251894, 10.003255, 9.998062 
1.2750745e+3, 1.6428119e+2, -994077.2, -1279614.1, -51294.117, 0.0073404834, -0.14576052, -985142.25, 344888.78, 0.000004722807, 10.002753, 9.998969 
1.2750764e+3, 1.7428024e+2, -931470.06, -1186702.9, -44493.55, -0.0058931885, -0.14842576, -923936.06, 308102.4, 0.0, 10.002459, 9.999076 
1.2750784e+3, 1.8427931e+2, -899637.3, -1129046.0, -51215.684, 0.0036143688, -0.14593257, -888722.7, 245324.73, 0.0, 10.002039, 9.9990015 
1.2750806e+3, 1.9427839e+2, -884856.3, -1067857.5, -60932.22, 0.0352807, -0.14113307, -866424.7, 169633.44, 0.0, 10.001453, 9.999031 
1.2750828e+3, 2.0427768e+2, -814498.25, -917260.25, -55293.086, 0.049181927, -0.14226416, -790398.56, 147666.95, 0.0, 10.000979, 9.999621 
1.2750848e+3, 2.1427725e+2, -758989.1, -830219.8, -47390.56, 0.04251615, -0.15645681, -735322.8, 104745.58, 0.0, 10.000647, 9.999706 
1.2750868e+3, 2.2427684e+2, -738382.5, -814688.6, -38099.496, 0.04106772, -0.14870402, -722616.9, 19455.559, 0.0, 10.000309, 9.999303 
1.2750894e+3, 2.3427647e+2, -690064.2, -739858.06, -45313.688, 0.045360073, -0.11676806, -663258.25, -19180.45, 0.0, 9.999965, 9.999309 
1.2750919e+3, 2.4427594e+2, -646082.75, -671845.2, -39467.67, 0.052244708, -0.098004155, -617447.44, -71362.555, 0.0, 9.999612, 9.999273 
1.2750946e+3, 2.5427523e+2, -598189.2, -593666.5, -38993.953, 0.061875634, -0.10224409, -556868.4, -108774.38, 0.0, 9.999249, 9.999311 
1.2750974e+3, 2.642748e+2, -535985.1, -491303.22, -31572.613, 0.06310891, -0.08286669, -474966.7, -124867.12, 0.0, 9.99891, 9.999504 
1.2751004e+3, 2.742748e+2, -479410.75, -407340.72, -35458.188, 0.054490663, -0.039492518, -392820.75, -140720.1, 0.0, 9.9986, 9.999557 
1.2751034e+3, 2.8427446e+2, -436596.22, -323273.8, -32830.992, 0.058824588, -0.03615287, -314449.4, -160344.45, 0.0, 9.998167, 9.999669 
1.2751067e+3, 2.9427367e+2, -426026.66, -266354.56, -35365.402, 0.07753248, -0.08238023, -258872.2, -202759.45, 0.0, 9.997562, 9.999678 
1.2751098e+3, 3.0427375e+2, -449302.38, -250905.02, -21716.924, 0.05644451, -0.040848482, -248555.66, -248555.66, 0.0, 9.997062, 9.999691 
1.2751134e+3, 3.1427363e+2, -349034.75, 37098.047, -13820.378, 0.06709982, -0.03221616, 37592.07, 37592.07, 0.0, 9.9967165, 10.001835 
1.2850672e+3, 1.2428592e+2, -1188322.4, -1681419.6, -75029.32, -0.09071605, -0.19870028, -1177158.8, 544823.44, 0.003541106, 10.004589, 9.998015 
1.2850711e+3, 1.342842e+2, -1143695.3, -1649445.1, 52520.46, -0.0466152, -0.13598521, -1138298.8, 485700.34, 0.0020311666, 10.004376, 9.997671 
1.2850733e+3, 1.4428183e+2, -1068386.4, -1523046.8, -21001.674, -0.10061429, -0.15681164, -1067418.4, 458604.4, 0.00081457064, 10.004051, 9.998016 
1.2850755e+3, 1.5427993e+2, -1042528.56, -1457554.4, -23361.693, -0.019581174, -0.15040378, -1041217.7, 386824.8, 0.00016905463, 10.003544, 9.998037 
1.2850773e+3, 1.6427839e+2, -959342.0, -1272754.5, -20052.36, 0.0045939144, -0.14889729, -958064.25, 371993.63, 0.00000585612, 10.003036, 9.998879 
1.2850787e+3, 1.7427728e+2, -926915.3, -1194865.4, -32630.807, -0.021198954, -0.15747273, -922998.8, 309068.22, 0.0, 10.002536, 9.998982 
1.2850803e+3, 1.842763e+2, -898910.94, -1130215.9, -47438.805, -0.009125417, -0.15441656, -889559.7, 244516.84, 0.0, 10.002052, 9.998986 
1.2850823e+3, 1.9427545e+2, -866643.25, -1059811.8, -39855.87, 0.044926107, -0.14071907, -858743.0, 177343.22, 0.0, 10.001584, 9.9990225 
1.285084e+3, 2.0427468e+2, -793051.06, -914599.44, -26274.938, 0.06382719, -0.14241724, -787614.44, 150479.48, 0.0, 10.001161, 9.999551 
1.2850854e+3, 2.1427405e+2, -742399.25, -830261.94, -37911.152, 0.038913205, -0.16989702, -728302.9, 111795.805, 0.0, 10.000796, 9.999633 
1.2850872e+3, 2.2427356e+2, -727658.25, -811626.9, -35707.016, 0.032392412, -0.16534892, -714527.44, 27575.973, 0.0, 10.000394, 9.999282 
1.2850894e+3, 2.3427328e+2, -694623.9, -743716.44, -28913.281, 0.048943248, -0.12372946, -681242.6, -37134.57, 0.0, 9.999942, 9.999293 
1.2850915e+3, 2.4427274e+2, -652001.0, -675728.9, -11304.316, 0.05891386, -0.10487302, -647477.75, -101362.63, 0.0, 9.999577, 9.999263 
1.2850939e+3, 2.542719e+2, -587613.6, -589441.0, -10757.767, 0.05958016, -0.12049641, -577730.8, -129605.805, 0.0, 9.999326, 9.999303 
1.2850963e+3, 2.6427144e+2, -532404.8, -496359.5, -5466.4683, 0.06049501, -0.10405384, -495548.72, -145417.66, 0.0, 9.998965, 9.999442 
1.285099e+3, 2.742714e+2, -504913.38, -426729.1, -6155.699, 0.06298804, -0.05471786, -426247.4, -174115.03, 0.0, 9.998456, 9.999493 
1.2851016e+3, 2.8427097e+2, -451870.44, -323973.88, 1360.3103, 0.06655949, -0.056866556, -323959.4, -169822.14, 0.0, 9.9980345, 9.999727 
1.2851043e+3, 2.9427013e+2, -397433.0, -244480.73, 7782.178, 0.06870553, -0.11861088, -244085.8, -187940.22, 0.0, 9.997725, 9.999749 
1.2851067e+3, 3.042706e+2, -434865.63, -238700.13, 22310.47, 0.047891695, -0.044433348, -236194.69, -236194.69, 0.0, 9.99714, 9.999736 
1.28511e+3, 3.1427047e+2, -428891.38, -9809.503, 35456.21, 0.08529738, -0.038171634, -6830.9185, -6830.9185, 0.0, 9.996206, 10.001759 
1.2950714e+3, 1.24284066e+2, -1195077.9, -1697228.0, -84775.68, -0.12152962, -0.16617128, -1181151.9, 540848.3, 0.0037466574, 10.004596, 9.997905 
1.2950759e+3, 1.3428171e+2, -1152078.5, -1667469.6, 44301.03, -0.004528242, -0.15457189, -1148298.3, 475725.3, 0.0021591517, 10.004377, 9.997547 
1.2950778e+3, 1.4427914e+2, -1056777.9, -1499560.5, -39611.848, -0.06074811, -0.1964037, -1053262.0, 472786.94, 0.0008746577, 10.004052, 9.9981785 
1.295079e+3, 1.5427788e+2, -1028682.6, -1430038.5, -43000.09, -0.03224772, -0.14594097, -1024127.44, 403933.9, 0.0001865619, 10.003548, 9.998225 
1.29508e+3, 1.6427635e+2, -980665.6, -1318850.1, -39724.344, -0.026112666, -0.13556089, -976062.1, 354013.97, 0.0000072252774, 10.003041, 9.998561 
1.2950812e+3, 1.7427455e+2, -951249.3, -1246809.3, -51803.54, -0.022217724, -0.17906214, -942432.56, 289660.94, 0.0, 10.00254, 9.998624 
1.2950826e+3, 1.8427336e+2, -885668.2, -1103952.4, -65616.96, -0.0013911371, -0.18444893, -867462.06, 266643.06, 0.0, 10.002056, 9.999166 
1.2950838e+3, 1.9427301e+2, -850265.9, -1027213.0, -57980.438, 0.033490304, -0.14564727, -832959.94, 203148.94, 0.0, 10.001588, 9.999245 
1.295085e+3, 2.0427236e+2, -813216.7, -957673.44, -40826.55, 0.047878847, -0.13409185, -802476.7, 135638.55, 0.0, 10.001164, 9.999254 
1.2950861e+3, 2.1427137e+2, -765705.0, -879264.75, -51843.2, 0.037574578, -0.163677, -745597.5, 94527.16, 0.0, 10.000797, 9.999296 
1.2950876e+3, 2.2427064e+2, -718070.3, -792316.1, -52593.813, 0.039720085, -0.17028971, -690817.56, 51314.332, 0.0, 10.000395, 9.999415 
1.2950894e+3, 2.3427029e+2, -681827.0, -718252.5, -45718.074, 0.057390563, -0.15235633, -650827.5, -6691.3115, 0.0, 9.999946, 9.999467 
1.2950912e+3, 2.4426979e+2, -650861.56, -674667.94, -20933.799, 0.059265062, -0.13851216, -638683.44, -92541.36, 0.0, 9.99958, 9.9992695 
1.295093e+3, 2.5426915e+2, -587733.06, -590444.8, -19373.654, 0.04024834, -0.13233648, -569667.9, -121518.11, 0.0, 9.999328, 9.999296 
1.2950952e+3, 2.6426867e+2, -533485.6, -499403.66, -22845.154, 0.04624346, -0.11481964, -487943.84, -137788.02, 0.0, 9.998966, 9.999422 
1.2950975e+3, 2.7426836e+2, -505923.63, -429232.78, -23875.83, 0.08559827, -0.094579734, -422407.13, -170246.89, 0.0, 9.998456, 9.999476 
1.2950997e+3, 2.8426796e+2, -439387.56, -298461.28, -9224.234, 0.08852414, -0.09980412, -297860.06, -143695.44, 0.0, 9.9980345, 9.999904 
1.2951016e+3, 2.942677e+2, -383359.44, -216031.9, -2312.398, 0.04089039, -0.12505329, -215999.95, -159832.78, 0.0, 9.9977255, 9.999945 
1.2951036e+3, 3.0426857e+2, -428044.53, -224713.8, -9986.108, 0.024339637, -0.026121158, -224224.53, -224224.53, 0.0, 9.997139, 9.999833 
1.2951069e+3, 3.1426775e+2, -436441.84, -24178.852, 4354.915, 0.13963994, -0.095821045, -24132.854, -24132.854, 0.0, 9.9962, 10.001663 
1.3050763e+3, 1.2428235e+2, -1133519.9, -1675606.8, -66502.484, -0.11772428, -0.16028032, -1125480.8, 596536.06, 0.003956676, 10.005059, 9.9978285 
1.3050804e+3, 1.3427994e+2, -1154281.1, -1678441.6, 64320.043, 0.006563829, -0.14485818, -1146503.8, 477537.1, 0.0022898773, 10.004407, 9.9974575 
1.3050817e+3, 1.4427722e+2, -1071710.8, -1502660.4, -20201.736, -0.06729462, -0.19933909, -1070765.9, 455301.75, 0.00093625893, 10.003934, 9.998214 
1.3050826e+3, 1.5427594e+2, -1005563.94, -1413512.3, -34405.125, -0.040397648, -0.15515055, -1002682.7, 425396.72, 0.00020485741, 10.003685, 9.998272 
1.3050832e+3, 1.6427435e+2, -958280.9, -1323154.8, -37961.15, -0.031467803, -0.14736934, -954373.3, 375721.3, 0.000008878654, 10.0032625, 9.998424 
1.305084e+3, 1.7427242e+2, -951963.2, -1263519.6, -35660.6, -0.017629767, -0.18828525, -947933.6, 284180.16, 0.0, 10.002607, 9.998476 
1.3050845e+3, 1.8427116e+2, -878521.2, -1098603.6, -40395.867, 0.0034880533, -0.19304882, -871340.9, 262785.25, 0.0, 10.002099, 9.999181 
1.3050853e+3, 1.9427082e+2, -820267.25, -1009109.44, -46764.52, 0.024809223, -0.15637887, -809321.06, 226808.03, 0.0, 10.00178, 9.999276 
1.305086e+3, 2.0427012e+2, -798619.56, -961235.06, -34926.06, 0.038226727, -0.14703609, -791435.6, 146700.08, 0.0, 10.001312, 9.999158 
1.305087e+3, 2.1426901e+2, -795484.94, -905347.9, -30029.012, 0.043774296, -0.1784058, -787812.9, 52333.89, 0.0, 10.000645, 9.99919 
1.3050881e+3, 2.2426823e+2, -746777.25, -801890.7, -18359.83, 0.05177602, -0.18506098, -741221.2, 933.3381, 0.0, 10.00018, 9.999453 
1.3050893e+3, 2.3426796e+2, -672993.6, -708277.75, -20476.867, 0.062176652, -0.16536723, -663607.1, -19449.32, 0.0, 9.999983, 9.999517 
1.3050908e+3, 2.4426751e+2, -637565.94, -664501.06, -2043.3105, 0.061568685, -0.15215103, -637411.8, -91248.66, 0.0, 9.999657, 9.999302 
1.3050923e+3, 2.5426686e+2, -610233.56, -598081.06, 1367.6875, 0.046303004, -0.14974797, -597929.06, -149758.19, 0.0, 9.99916, 9.999325 
1.305094e+3, 2.6426643e+2, -563634.2, -501766.47, 846.5014, 0.04995403, -0.13529204, -501754.88, -151578.52, 0.0, 9.998709, 9.99953 
1.305096e+3, 2.7426618e+2, -517344.72, -421739.72, 8606.881, 0.07898947, -0.11785624, -420971.06, -168791.56, 0.0, 9.998323, 9.999591 
1.3050976e+3, 2.8426588e+2, -457988.22, -301717.7, 25221.13, 0.08332445, -0.12517129, -297748.0, -143564.83, 0.0, 9.997883, 9.999954 
1.3050993e+3, 2.9426566e+2, -433178.84, -234312.53, 20817.604, 0.052652076, -0.14897655, -232156.69, -175971.25, 0.0, 9.99736, 9.999995 
1.3051008e+3, 3.0426678e+2, -462830.56, -208993.5, 60.64051, 0.0407111, -0.03652548, -208993.5, -208993.5, 0.0, 9.996762, 10.000122 
1.3051029e+3, 3.1426597e+2, -446671.44, -20687.537, 31343.986, 0.14386599, -0.14185408, -18393.594, -18393.594, 0.0, 9.996093, 10.001739 
1.3150817e+3, 1.242809e+2, -1137838.9, -1683970.8, -91768.85, -0.07931816, -0.17814527, -1122831.0, 599200.0, 0.00416924, 10.005056, 9.997774 
1.3150845e+3, 1.3427897e+2, -1158332.1, -1688484.5, 39391.313, -0.012499188, -0.10808316, -1155421.3, 468629.1, 0.0024222864, 10.004414, 9.997386 
1.3150851e+3, 1.4427611e+2, -1076865.8, -1515444.0, -31278.14, -0.119324364, -0.16709624, -1074646.3, 451431.88, 0.0009989107, 10.003942, 9.998123 
1.3150862e+3, 1.5427418e+2, -1012365.25, -1427909.6, -44221.496, -0.044721246, -0.17743194, -1007711.4, 420384.72, 0.0002237852, 10.003684, 9.998175 
1.3150866e+3, 1.6427243e+2, -955983.8, -1318712.3, -62180.668, -0.01307416, -0.18333353, -945620.56, 384492.28, 0.000010883257, 10.0032625, 9.998455 
1.3150865e+3, 1.7427093e+2, -948126.2, -1256911.5, -60756.277, -0.0080602905, -0.18538354, -936601.94, 295525.63, 0.0, 10.002612, 9.99852 
1.3150866e+3, 1.8426973e+2, -887825.56, -1119493.1, -53816.21, 0.005026905, -0.18061264, -875934.44, 258204.73, 0.0, 10.002104, 9.999036 
1.3150871e+3, 1.9426894e+2, -830887.3, -1032062.75, -59009.363, 0.018565373, -0.17283407, -814856.06, 221290.5, 0.0, 10.001782, 9.999119 
1.3150874e+3, 2.0426802e+2, -792020.06, -948388.94, -59526.207, 0.034266457, -0.18074964, -771938.6, 166216.44, 0.0, 10.001314, 9.999246 
1.3150878e+3, 2.14267e+2, -787136.8, -889379.06, -55443.996, 0.056416795, -0.21340744, -762843.0, 77321.77, 0.0, 10.000649, 9.999298 
1.3150884e+3, 2.2426638e+2, -750131.06, -810496.7, -27330.205, 0.06766773, -0.20921724, -739596.06, 2575.1213, 0.0, 10.000185, 9.999392 
1.3150893e+3, 2.3426628e+2, -677758.8, -718921.9, -27685.68, 0.0635867, -0.16302654, -663842.6, -19669.623, 0.0, 9.999985, 9.999444 
1.3150905e+3, 2.4426584e+2, -633992.3, -657659.8, -19448.555, 0.06572678, -0.14666225, -623060.25, -76881.78, 0.0, 9.999658, 9.99935 
1.3150918e+3, 2.5426498e+2, -605698.1, -589233.75, -16397.75, 0.07570135, -0.17259112, -579117.75, -130929.45, 0.0, 9.999161, 9.999386 
1.315093e+3, 2.6426458e+2, -547899.0, -469772.53, -12871.358, 0.06988599, -0.16486415, -467706.6, -117513.836, 0.0, 9.99871, 9.99975 
1.315094e+3, 2.742648e+2, -500457.6, -387853.1, -4449.0664, 0.044096403, -0.12490837, -387677.56, -135487.03, 0.0, 9.998326, 9.999824 
1.3150953e+3, 2.8426456e+2, -462964.63, -313158.72, 7224.5117, 0.051866647, -0.13353881, -312811.13, -158617.75, 0.0, 9.997886, 9.999875 
1.3150972e+3, 2.9426393e+2, -440505.44, -248822.0, 2606.1577, 0.10130121, -0.18998834, -248786.56, -192585.86, 0.0, 9.997355, 9.999899 
1.315098e+3, 3.042653e+2, -430292.75, -140583.98, -23258.953, 0.093962684, -0.075496145, -138728.55, -138728.55, 0.0, 9.996757, 10.000595 
1.3150987e+3, 3.1426504e+2, -428794.72, 14955.435, 10796.264, 0.09798431, -0.16885892, 15217.948, 15217.948, 0.0, 9.996098, 10.001983 
1.3250867e+3, 1.242797e+2, -1164247.8, -1685318.1, -91738.79, -0.07774776, -0.18324484, -1148568.3, 573474.44, 0.004382918, 10.0048275, 9.997873 
1.325089e+3, 1.3427787e+2, -1108882.6, -1654518.0, 50490.727, -0.009813904, -0.11118472, -1104249.8, 519810.44, 0.0025553044, 10.004713, 9.997475 
1.325089e+3, 1.4427495e+2, -1032266.06, -1507047.6, -20675.385, -0.13025798, -0.17590785, -1031367.4, 494721.0, 0.0010621279, 10.004307, 9.998003 
1.3250898e+3, 1.5427293e+2, -1048206.75, -1460557.8, -37534.477, -0.04340211, -0.18177544, -1044818.0, 383290.1, 0.00024322074, 10.003507, 9.998035 
1.3250898e+3, 1.6427116e+2, -992832.06, -1324678.5, -50923.59, -0.0055774613, -0.18636851, -985193.44, 344931.72, 0.000013283229, 10.002959, 9.998559 
1.3250893e+3, 1.7426978e+2, -918985.2, -1228683.6, -43987.19, -0.0017494338, -0.19001406, -912858.75, 319279.2, 0.0, 10.002752, 9.998646 
1.325089e+3, 1.8426855e+2, -860305.9, -1116162.8, -34959.145, 0.008661375, -0.18916802, -855615.2, 278534.13, 0.0, 10.002337, 9.998946 
1.3250887e+3, 1.9426757e+2, -858636.06, -1056938.8, -36742.227, 0.01718787, -0.18872705, -852047.25, 184111.31, 0.0, 10.001642, 9.999014 
1.3250884e+3, 2.042666e+2, -817484.9, -961571.44, -36739.773, 0.029206777, -0.19833457, -808657.56, 129510.445, 0.0, 10.001144, 9.999237 
1.3250884e+3, 2.1426563e+2, -750474.25, -871618.5, -40973.992, 0.049599078, -0.22506663, -737917.4, 102260.016, 0.0, 10.000902, 9.999298 
1.3250887e+3, 2.2426504e+2, -702861.1, -783576.06, -12963.263, 0.06309445, -0.21741553, -700830.25, 41352.996, 0.0, 10.000495, 9.999427 
1.3250893e+3, 2.34265e+2, -691929.75, -721436.75, -5830.58, 0.066174224, -0.17090538, -690819.4, -46634.973, 0.0, 9.999869, 9.999481 
1.3250901e+3, 2.4426459e+2, -673677.5, -668941.5, 6393.662, 0.07236147, -0.15658942, -664491.4, -118301.875, 0.0, 9.999352, 9.999418 
1.325091e+3, 2.5426373e+2, -626708.5, -590572.75, 9638.18, 0.08210117, -0.1875571, -588162.8, -139963.5, 0.0, 9.998981, 9.999462 
1.3250917e+3, 2.6426345e+2, -558844.3, -461387.97, 10377.916, 0.076618694, -0.17922851, -460295.1, -110092.38, 0.0, 9.998578, 9.999869 
1.3250922e+3, 2.742639e+2, -521146.44, -383904.38, 10311.478, 0.052153204, -0.1314582, -383133.97, -130935.734, 0.0, 9.998127, 9.999946 
1.3250932e+3, 2.842637e+2, -495218.06, -320752.9, 18349.162, 0.06215202, -0.14332582, -318843.94, -164643.64, 0.0, 9.997633, 9.999944 
1.3250946e+3, 2.9426298e+2, -474494.94, -256752.66, 24729.447, 0.11479673, -0.21684225, -253979.4, -197770.77, 0.0, 9.997088, 9.999972 
1.3250948e+3, 3.0426446e+2, -441148.53, -132296.64, -5498.9834, 0.102864504, -0.098596945, -132198.77, -132198.77, 0.0, 9.996626, 10.000714 
1.3250946e+3, 3.142646e+2, -415281.0, 3116.3562, 2088.647, 0.08745981, -0.16860214, 3126.7825, 3126.7825, 0.0, 9.996272, 10.001816 
1.3350911e+3, 1.24278836e+2, -1146328.4, -1650053.5, -96556.58, -0.11158737, -0.1765752, -1128454.1, 593597.06, 0.004597706, 10.004836, 9.998114 
1.3350941e+3, 1.3427675e+2, -1092798.4, -1620848.0, 45781.08, 0.013751851, -0.15198591, -1088858.6, 535210.7, 0.0026884524, 10.004711, 9.997707 
1.3350937e+3, 1.4427382e+2, -1043289.94, -1529744.4, -49626.324, -0.1023613, -0.2237174, -1038278.9, 487818.66, 0.0011254048, 10.004305, 9.997849 
1.3350934e+3, 1.5427223e+2, -1060121.4, -1486933.6, -68129.24, -0.037343618, -0.16900429, -1049510.1, 378604.72, 0.0002629614, 10.003512, 9.997852 
1.3350928e+3, 1.642706e+2, -980213.4, -1300438.6, -60755.61, -0.009150293, -0.15761305, -969073.8, 361057.2, 0.000016032998, 10.002967, 9.998723 
1.3350922e+3, 1.7426899e+2, -905109.9, -1200544.6, -52121.344, 0.0011162629, -0.201895, -896184.1, 335960.38, 0.00000000003443261, 10.002753, 9.998839 
1.3350913e+3, 1.8426768e+2, -862840.5, -1121975.6, -60504.766, 0.013706596, -0.21808802, -849409.5, 284746.56, 0.0, 10.002337, 9.998906 
1.3350904e+3, 1.942668e+2, -862132.44, -1065492.5, -63332.82, 0.020046545, -0.2040889, -844021.5, 192143.48, 0.0, 10.001647, 9.998955 
1.3350897e+3, 2.0426585e+2, -824387.06, -977223.4, -47488.516, 0.022608668, -0.20016477, -810833.6, 127340.875, 0.0, 10.001148, 9.999128 
1.335089e+3, 2.1426491e+2, -758037.75, -887945.9, -50253.227, 0.023705821, -0.21400046, -740867.44, 99316.94, 0.0, 10.000903, 9.9991865 
1.335089e+3, 2.2426428e+2, -694244.4, -766247.6, -35542.895, 0.038344245, -0.21021865, -679655.4, 62535.336, 0.0, 10.000495, 9.999546 
1.3350892e+3, 2.3426414e+2, -681969.44, -701408.75, -29066.652, 0.06916391, -0.18881395, -661040.4, -16848.291, 0.0, 9.999871, 9.9996195 
1.3350895e+3, 2.4426375e+2, -667593.0, -657182.75, -7783.5356, 0.08059449, -0.18130909, -653024.25, -106827.875, 0.0, 9.999354, 9.999499 
1.3350897e+3, 2.5426316e+2, -621140.75, -579790.3, -3448.8645, 0.06619795, -0.1944876, -579504.6, -131300.61, 0.0, 9.998983, 9.999536 
1.3350902e+3, 2.64263e+2, -557208.1, -458736.75, -5320.9106, 0.07050388, -0.17874296, -458450.06, -108243.5, 0.0, 9.99858, 9.999888 
1.3350908e+3, 2.7426335e+2, -520241.5, -381680.66, -5173.487, 0.100518286, -0.13844661, -381487.75, -129284.805, 0.0, 9.998123, 9.999964 
1.3350913e+3, 2.8426325e+2, -481754.13, -292419.97, -412.1425, 0.111239105, -0.15503995, -292419.06, -138214.78, 0.0, 9.997629, 10.000141 
1.3350914e+3, 2.9426274e+2, -458447.2, -224756.72, 5777.9644, 0.09376575, -0.2281883, -224613.94, -168404.27, 0.0, 9.997092, 10.000191 
1.335091e+3, 3.0426428e+2, -456217.75, -165299.22, -17598.898, 0.06852051, -0.1055839, -164238.45, -164238.45, 0.0, 9.996632, 10.000485 
1.3350911e+3, 3.142645e+2, -455511.2, -79459.21, -6609.9966, 0.10920301, -0.1386101, -79343.055, -79343.055, 0.0, 9.996266, 10.001252 
1.3450961e+3, 1.2427832e+2, -1069039.9, -1609714.5, -61583.066, -0.12693213, -0.19869728, -1062114.3, 659940.94, 0.004815081, 10.00536, 9.998139 
1.3450989e+3, 1.3427632e+2, -1111449.0, -1629281.3, 62592.71, 0.028766276, -0.16627483, -1103990.5, 520081.8, 0.0028221004, 10.004581, 9.997711 
1.3450979e+3, 1.4427339e+2, -1081490.5, -1546446.8, -37925.7, -0.0938861, -0.23826063, -1078417.3, 447683.3, 0.0011884081, 10.004036, 9.997864 
1.345097e+3, 1.5427186e+2, -1017574.06, -1464407.5, -42836.344, -0.04176528, -0.18111444, -1013504.56, 414613.16, 0.0002826939, 10.003798, 9.997869 
1.3450958e+3, 1.6427025e+2, -926866.5, -1272504.5, -32154.94, -0.01815748, -0.1673559, -923900.56, 406233.0, 0.000018979208, 10.0033245, 9.998742 
1.3450947e+3, 1.742687e+2, -934257.56, -1212013.0, -36242.99, -0.0011293833, -0.20902035, -929606.25, 302540.25, 0.0000000014653116, 10.002543, 9.99886 
1.3450935e+3, 1.842674e+2, -911800.25, -1143459.6, -48515.742, 0.014303343, -0.22687237, -902050.1, 232107.88, 0.0, 10.001993, 9.998924 
1.345092e+3, 1.9426645e+2, -846958.7, -1055884.8, -46353.45, 0.018015336, -0.21984218, -837136.25, 199030.98, 0.0, 10.001742, 9.998974 
1.3450909e+3, 2.0426553e+2, -801602.8, -971322.7, -24214.191, 0.02025409, -0.21243508, -798215.75, 139960.98, 0.0, 10.001328, 9.999082 
1.34509e+3, 2.1426469e+2, -791323.56, -909375.0, -22937.355, 0.023708628, -0.20971882, -787023.5, 53162.59, 0.0, 10.000699, 9.999137 
1.3450894e+3, 2.2426409e+2, -736467.94, -778730.94, -10273.699, 0.03992687, -0.20507738, -734102.8, 8089.595, 0.0, 10.000173, 9.999615 
1.3450891e+3, 2.3426381e+2, -689151.56, -695289.6, -8998.401, 0.07125502, -0.20303316, -682713.2, -38518.76, 0.0, 9.9997835, 9.999702 
1.345089e+3, 2.442635e+2, -665111.94, -646048.06, 11782.709, 0.082939, -0.1975199, -640424.44, -94226.49, 0.0, 9.999332, 9.999584 
1.3450886e+3, 2.542632e+2, -641624.0, -579920.94, 16202.61, 0.06864167, -0.18996084, -575925.06, -127722.22, 0.0, 9.998803, 9.99962 
1.3450886e+3, 2.6426315e+2, -596540.75, -472131.6, 14672.542, 0.07630064, -0.17160784, -470424.56, -120219.9, 0.0, 9.998288, 9.999935 
1.345089e+3, 2.7426332e+2, -564248.1, -397202.9, 15935.14, 0.11360573, -0.15203331, -395696.38, -143493.55, 0.0, 9.997801, 10.000011 
1.345089e+3, 2.842633e+2, -510033.53, -294577.28, 19751.7, 0.124934785, -0.16742814, -292781.53, -138578.13, 0.0, 9.99739, 10.00024 
1.3450885e+3, 2.9426315e+2, -453538.94, -209548.39, 17789.38, 0.099929385, -0.21284497, -208258.19, -152053.3, 0.0, 9.997074, 10.000302 
1.3450877e+3, 3.0426472e+2, -446852.88, -153046.94, -1247.8262, 0.07301796, -0.10029963, -153041.64, -153041.64, 0.0, 9.996666, 10.000552 
1.3450874e+3, 3.1426498e+2, -490152.13, -118885.375, 35312.844, 0.10958443, -0.13147014, -115556.46, -115556.46, 0.0, 9.99613, 10.001046 
1.3551016e+3, 1.2427824e+2, -1082780.3, -1637891.8, -89860.21, -0.12348274, -0.24810258, -1068596.3, 653457.8, 0.005037671, 10.005358, 9.997947 
1.3551036e+3, 1.3427661e+2, -1126104.8, -1661240.5, 32849.082, 0.034847874, -0.15540461, -1124095.9, 499973.06, 0.002957393, 10.004587, 9.99749 
1.3551018e+3, 1.4427371e+2, -1068806.1, -1521879.4, -48713.35, -0.10518011, -0.22117263, -1063627.8, 462469.38, 0.0012511326, 10.004043, 9.998031 
1.3551006e+3, 1.5427183e+2, -1003521.8, -1435613.5, -52083.043, -0.0566111, -0.21672912, -997332.5, 430783.56, 0.0003021306, 10.003798, 9.998067 
1.355099e+3, 1.6427018e+2, -935388.1, -1290604.4, -60845.168, -0.032969683, -0.21396087, -925255.0, 404877.22, 0.00002192539, 10.003325, 9.998618 
1.3550971e+3, 1.742689e+2, -943840.4, -1233616.0, -66072.46, -0.008751572, -0.21202715, -929486.06, 302657.56, 0.0000000068048798, 10.002549, 9.998711 
1.3550955e+3, 1.8426768e+2, -906044.44, -1133267.9, -59870.664, 0.010081562, -0.21621515, -891234.5, 242920.22, 0.0, 10.001999, 9.998992 
1.3550937e+3, 1.9426656e+2, -840215.1, -1042775.8, -56094.652, 0.010733309, -0.23572722, -825718.44, 210446.69, 0.0, 10.001744, 9.9990635 
1.3550922e+3, 2.0426562e+2, -800961.0, -970675.56, -47354.395, 0.02127255, -0.23497787, -788642.2, 149532.47, 0.0, 10.001329, 9.999086 
1.3550909e+3, 2.14265e+2, -790809.44, -909205.0, -46951.92, 0.048309706, -0.21202536, -774450.2, 65732.25, 0.0, 10.000702, 9.999138 
1.3550897e+3, 2.2426444e+2, -734846.6, -776352.7, -25705.168, 0.06655047, -0.20182547, -722562.6, 19625.773, 0.0, 10.000175, 9.999631 
1.3550888e+3, 2.3426408e+2, -687859.1, -693152.75, -23473.838, 0.07219516, -0.21333925, -666883.3, -22691.824, 0.0, 9.999784, 9.999718 
1.3550882e+3, 2.4426383e+2, -659013.75, -633838.25, -7353.6997, 0.079169534, -0.20514992, -631847.6, -85653.36, 0.0, 9.999333, 9.999668 
1.3550876e+3, 2.5426385e+2, -635020.3, -566322.3, -2819.968, 0.08804801, -0.17484424, -566206.75, -118010.68, 0.0, 9.998802, 9.999715 
1.3550872e+3, 2.6426387e+2, -592585.25, -464148.97, -2754.1345, 0.092671156, -0.15871035, -464089.94, -113892.53, 0.0, 9.998288, 9.999991 
1.3550864e+3, 2.742638e+2, -560151.8, -389570.1, -1099.8906, 0.09144966, -0.17064199, -389563.0, -137364.75, 0.0, 9.997803, 10.000063 
1.3550861e+3, 2.8426385e+2, -509499.28, -294424.5, 8804.768, 0.1031915, -0.17887472, -294064.63, -139866.48, 0.0, 9.997392, 10.000241 
1.355086e+3, 2.942642e+2, -454068.22, -209842.13, 7669.7915, 0.13154036, -0.17340805, -209601.5, -153406.31, 0.0, 9.997069, 10.000304 
1.3550848e+3, 3.0426565e+2, -423340.6, -103863.94, -19264.959, 0.114057936, -0.08561903, -102706.42, -102706.42, 0.0, 9.996662, 10.000894 
1.3550833e+3, 3.1426603e+2, -478931.53, -96862.61, 19121.102, 0.08652717, -0.14413275, -95908.055, -95908.055, 0.0, 9.996134, 10.001197 
1.365107e+3, 1.2427932e+2, -1086815.8, -1660505.1, -57590.055, -0.107533745, -0.24749474, -1081091.8, 640950.4, 0.0052684876, 10.005422, 9.997759 
1.3651082e+3, 1.3427742e+2, -1086587.1, -1666151.0, 63494.77, 0.026369788, -0.16110635, -1079712.5, 544348.2, 0.0030959914, 10.004965, 9.997273 
1.3651058e+3, 1.4427438e+2, -1013013.6, -1484067.1, -16152.691, -0.13029724, -0.2338029, -1012460.44, 513629.88, 0.0013139558, 10.004381, 9.998126 
1.3651043e+3, 1.5427259e+2, -1015758.3, -1427837.1, -24872.781, -0.052693408, -0.23218754, -1014262.44, 413844.75, 0.0003211468, 10.003655, 9.998188 
1.3651022e+3, 1.6427095e+2, -973695.2, -1319199.1, -37934.395, -0.021512626, -0.22937876, -969579.25, 360543.6, 0.00002472805, 10.003106, 9.998528 
1.3650997e+3, 1.7426962e+2, -917964.94, -1232950.0, -40643.84, -0.017395392, -0.22331932, -912805.0, 319330.6, 0.000000016360648, 10.002779, 9.998604 
1.3650975e+3, 1.8426837e+2, -863733.06, -1112545.5, -32539.32, -0.002643497, -0.22456047, -859548.0, 274599.38, 0.0, 10.00229, 9.998994 
1.3650955e+3, 1.9426727e+2, -861665.3, -1051756.1, -34558.69, 0.014339744, -0.24350727, -855577.5, 180580.13, 0.0, 10.001593, 9.999074 
1.3650934e+3, 2.0426637e+2, -839977.44, -985166.44, -28476.006, 0.030697409, -0.24177039, -834592.1, 103574.54, 0.0, 10.001045, 9.999123 
1.3650915e+3, 2.1426581e+2, -789044.5, -903703.44, -25726.72, 0.049794268, -0.21642856, -783536.6, 56637.055, 0.0, 10.000695, 9.999178 
1.36509e+3, 2.2426526e+2, -728482.8, -777624.9, -5602.2837, 0.06440944, -0.20666341, -727852.25, 14327.524, 0.0, 10.000241, 9.999589 
1.3650885e+3, 2.3426478e+2, -711649.3, -710140.0, -9083.151, 0.0721413, -0.2221863, -701780.2, -57596.043, 0.0, 9.999646, 9.999666 
1.3650873e+3, 2.4426456e+2, -688788.75, -633869.06, 3733.331, 0.0814779, -0.21418442, -633616.44, -87429.8, 0.0, 9.999069, 9.999794 
1.3650864e+3, 2.5426474e+2, -666415.94, -565139.0, 10809.007, 0.09296069, -0.18040402, -563998.25, -115812.09, 0.0, 9.99852, 9.999857 
1.3650854e+3, 2.6426482e+2, -625839.5, -479032.84, 14806.404, 0.094222285, -0.1651239, -477554.44, -127367.65, 0.0, 9.998058, 9.999997 
1.365084e+3, 2.7426475e+2, -574240.3, -396524.03, 11622.901, 0.08121865, -0.18061788, -395767.1, -143578.53, 0.0, 9.997711, 10.000058 
1.3650833e+3, 2.842649e+2, -526573.25, -293532.6, 19404.135, 0.09337196, -0.18181346, -291927.97, -137740.2, 0.0, 9.997238, 10.0003195 
1.3650829e+3, 2.9426548e+2, -515938.47, -229015.4, 23970.545, 0.13953543, -0.16203058, -227026.61, -170844.23, 0.0, 9.996602, 10.000396 
1.3650814e+3, 3.0426675e+2, -476067.28, -108543.35, 1338.08, 0.12788269, -0.107532896, -108538.48, -108538.48, 0.0, 9.996213, 10.001077 
1.3650793e+3, 3.142675e+2, -475742.1, -90387.766, 28253.535, 0.074328564, -0.14535554, -88327.28, -88327.28, 0.0, 9.996134, 10.001241 
1.3751128e+3, 1.24281615e+2, -1099771.4, -1687499.1, -74211.055, -0.080264285, -0.199364, -1090545.8, 631473.2, 0.0055096783, 10.005422, 9.997574 
1.375113e+3, 1.342788e+2, -1101777.3, -1697417.1, 45689.227, 0.003817499, -0.1818848, -1098293.0, 525753.7, 0.0032393208, 10.004963, 9.997062 
1.3751099e+3, 1.4427547e+2, -1011629.94, -1481452.6, -43618.742, -0.16883346, -0.274578, -1007614.6, 518464.66, 0.0013774218, 10.004381, 9.998145 
1.3751082e+3, 1.5427415e+2, -1012124.56, -1422019.8, -52578.13, -0.031297214, -0.22886865, -1005487.7, 422603.16, 0.00033977267, 10.003662, 9.998226 
1.3751057e+3, 1.642726e+2, -976861.25, -1327814.0, -51786.676, 0.014590479, -0.2150448, -969379.1, 360726.03, 0.000027345353, 10.003113, 9.998466 
1.3751024e+3, 1.7427088e+2, -921981.94, -1242341.3, -53259.188, -0.02765007, -0.24214993, -913359.75, 318762.22, 0.000000027808229, 10.002782, 9.998539 
1.3750996e+3, 1.842695e+2, -868531.94, -1123306.3, -58455.98, -0.02455025, -0.25131145, -855759.94, 278375.53, 0.0, 10.002292, 9.99892 
1.3750972e+3, 1.9426857e+2, -865975.56, -1062217.5, -61212.332, 0.028212078, -0.24387194, -848447.6, 187696.84, 0.0, 10.001597, 9.9990015 
1.3750947e+3, 2.0426776e+2, -834737.75, -975812.2, -43023.234, 0.048221625, -0.23333319, -822652.3, 115500.445, 0.0, 10.00105, 9.999186 
1.375092e+3, 2.1426712e+2, -783529.1, -893018.56, -38985.402, 0.02850365, -0.22272344, -771066.4, 69093.29, 0.0, 10.000697, 9.99925 
1.3750899e+3, 2.242665e+2, -736015.8, -793912.0, -27393.77, 0.033710126, -0.21918087, -725109.06, 17057.314, 0.0, 10.000242, 9.999477 
1.3750881e+3, 2.3426592e+2, -719962.0, -728077.7, -31179.69, 0.07072599, -0.22957031, -692577.2, -48404.805, 0.0, 9.999648, 9.999543 
1.3750866e+3, 2.442657e+2, -677528.1, -611515.1, -16687.553, 0.089126274, -0.22483619, -607536.44, -61361.188, 0.0, 9.999072, 9.999948 
1.3750848e+3, 2.5426593e+2, -653864.75, -539836.75, -9208.952, 0.08287609, -0.20494209, -539097.8, -90924.53, 0.0, 9.998522, 10.0000305 
1.3750832e+3, 2.6426607e+2, -629166.1, -486696.3, 2079.1604, 0.080377415, -0.18897325, -486665.97, -136493.0, 0.0, 9.99806, 9.999945 
1.3750818e+3, 2.7426612e+2, -578787.9, -406610.47, 8.579763, 0.08228651, -0.18403195, -406610.47, -154435.98, 0.0, 9.997712, 9.999989 
1.3750805e+3, 2.8426635e+2, -516126.0, -272588.75, -2633.6897, 0.09444569, -0.17815611, -272560.28, -118387.35, 0.0, 9.997239, 10.000464 
1.3750792e+3, 2.9426697e+2, -504015.5, -204599.42, 1339.8961, 0.12161272, -0.17385615, -204593.42, -148426.84, 0.0, 9.996601, 10.000566 
1.3750775e+3, 3.042679e+2, -474876.75, -106679.57, -1197.5919, 0.11225721, -0.1616491, -106675.67, -106675.67, 0.0, 9.996214, 10.00109 
1.3750754e+3, 3.142692e+2, -479889.38, -99147.37, 28784.387, 0.07195228, -0.14176688, -96983.54, -96983.54, 0.0, 9.996134, 10.001182 
1.3851182e+3, 1.2428378e+2, -1094838.0, -1683410.3, -62200.89, -0.082509816, -0.20105678, -1088336.4, 633660.7, 0.005761939, 10.005452, 9.997586 
1.3851179e+3, 1.3428096e+2, -1130066.4, -1710569.9, 71004.0, 0.016661827, -0.18674928, -1121507.8, 502517.34, 0.003388059, 10.004766, 9.997066 
1.3851142e+3, 1.4427756e+2, -1035632.25, -1500580.6, -10406.388, -0.16328005, -0.2806897, -1035399.5, 490658.5, 0.0014419432, 10.00425, 9.998077 
1.3851121e+3, 1.5427613e+2, -973925.4, -1411381.1, -27415.39, -0.032620292, -0.23871553, -972213.94, 455856.4, 0.0003580958, 10.003959, 9.998156 
1.385109e+3, 1.6427454e+2, -927944.9, -1305247.6, -30875.086, 0.011105124, -0.22718301, -925435.0, 404650.13, 0.00002981328, 10.003455, 9.998455 
1.3851053e+3, 1.7427279e+2, -936489.56, -1249892.9, -28343.047, -0.028022451, -0.25447193, -933946.94, 298155.0, 0.000000039188958, 10.002686, 9.998533 
1.3851018e+3, 1.8427138e+2, -904233.2, -1154103.4, -31716.088, -0.024561172, -0.26100716, -900270.3, 233845.72, 0.0, 10.002106, 9.998797 
1.3850988e+3, 1.942704e+2, -850009.9, -1069107.6, -39229.773, 0.025353841, -0.24662834, -843197.56, 192928.64, 0.0, 10.001771, 9.99887 
1.3850959e+3, 2.0426951e+2, -798694.75, -955162.5, -24965.24, 0.046712015, -0.23638847, -794808.0, 143327.19, 0.0, 10.001286, 9.999213 
1.3850927e+3, 2.1426882e+2, -794621.7, -893761.44, -24017.152, 0.033716146, -0.23628283, -789109.8, 51032.156, 0.0, 10.000603, 9.99929 
1.38509e+3, 2.2426815e+2, -774617.56, -820428.94, -13211.12, 0.03808033, -0.2340041, -771080.8, -28931.922, 0.0, 10.000013, 9.999405 
1.3850878e+3, 2.3426764e+2, -739893.5, -745929.3, -14349.431, 0.06386317, -0.23357722, -728248.06, -84092.73, 0.0, 9.999549, 9.999467 
1.3850854e+3, 2.4426737e+2, -675669.0, -610634.3, -2929.8464, 0.07672921, -0.22646432, -610502.56, -64343.957, 0.0, 9.999088, 9.999944 
1.3850832e+3, 2.5426754e+2, -637554.25, -531499.3, -8775.82, 0.07225719, -0.21518007, -530778.0, -82620.79, 0.0, 9.998634, 10.000032 
1.3850813e+3, 2.6426768e+2, -621805.06, -475921.66, -1272.703, 0.077068076, -0.20248555, -475910.53, -125753.68, 0.0, 9.998082, 10.000007 
1.3850795e+3, 2.7426782e+2, -619229.44, -418182.2, 5872.049, 0.09412548, -0.19250537, -418010.8, -165853.5, 0.0, 9.997402, 10.000057 
1.3850777e+3, 2.8426826e+2, -565749.9, -290760.56, 6632.067, 0.10339235, -0.17588818, -290600.7, -136446.52, 0.0, 9.996877, 10.000512 
1.3850757e+3, 2.9426903e+2, -505189.94, -199123.34, 1537.0657, 0.10364936, -0.15966152, -199115.63, -142969.47, 0.0, 9.996571, 10.000616 
1.3850735e+3, 3.0426955e+2, -484957.56, -111228.31, -2276.1243, 0.09600747, -0.19052897, -111214.445, -111214.445, 0.0, 9.996146, 10.00109 
1.3850713e+3, 3.142711e+2, -567084.94, -136225.72, 28944.592, 0.07671635, -0.14878258, -134289.95, -134289.95, 0.0, 9.995518, 10.001222 
1.3951233e+3, 1.24285914e+2, -1081176.3, -1654786.1, -86523.5, -0.11178981, -0.25143585, -1068409.1, 653566.4, 0.006025644, 10.005451, 9.997786 
1.3951232e+3, 1.3428389e+2, -1115786.9, -1681587.5, 44499.62, 0.06239522, -0.17645162, -1112308.4, 511686.78, 0.0035429504, 10.004769, 9.997264 
1.3951188e+3, 1.442807e+2, -1045575.1, -1522600.0, -23245.838, -0.11696994, -0.2537219, -1044445.0, 481581.06, 0.0015081605, 10.004253, 9.997925 
1.3951157e+3, 1.542786e+2, -985923.0, -1436892.4, -38890.902, -0.056154255, -0.26068103, -982593.7, 445451.56, 0.00037630822, 10.00396, 9.997981 
1.3951121e+3, 1.6427676e+2, -925667.0, -1301287.3, -59324.242, -0.030879451, -0.264395, -916520.25, 413542.13, 0.00003219319, 10.003457, 9.998483 
1.395108e+3, 1.7427538e+2, -932257.06, -1243126.6, -57820.098, -0.019102009, -0.261035, -921851.2, 310224.16, 0.00000005013657, 10.002693, 9.998577 
1.3951041e+3, 1.8427403e+2, -915429.2, -1179414.4, -46096.035, -0.0037110252, -0.25460774, -907611.6, 226477.19, 0.0, 10.002113, 9.998621 
1.3951004e+3, 1.9427276e+2, -862926.8, -1097154.9, -52022.426, 0.0058344975, -0.25144762, -851892.4, 184210.22, 0.0, 10.001775, 9.998676 
1.395097e+3, 2.0427167e+2, -799514.1, -957740.06, -49975.074, 0.02585965, -0.25050172, -785051.6, 153062.02, 0.0, 10.001287, 9.999195 
1.3950936e+3, 2.1427089e+2, -794354.8, -894303.1, -49869.598, 0.064056225, -0.25668213, -773728.7, 66391.89, 0.0, 10.000606, 9.999286 
1.3950905e+3, 2.2427025e+2, -776697.56, -826078.75, -31369.895, 0.07595443, -0.2509584, -761467.0, -19339.758, 0.0, 10.000016, 9.999365 
1.3950871e+3, 2.3426986e+2, -742418.6, -752104.5, -31436.527, 0.051246967, -0.23416331, -715454.2, -71321.23, 0.0, 9.999551, 9.999424 
1.3950843e+3, 2.4426958e+2, -686524.8, -633922.8, -19580.627, 0.044306837, -0.21911483, -627434.44, -81297.5, 0.0, 9.999089, 9.999784 
1.3950817e+3, 2.542695e+2, -649106.8, -556181.06, -24990.139, 0.060896628, -0.2121796, -549886.9, -101748.67, 0.0, 9.998635, 9.999864 
1.3950795e+3, 2.6426956e+2, -609828.1, -452162.56, -25177.785, 0.08347744, -0.20654717, -448239.5, -98100.79, 0.0, 9.998084, 10.00017 
1.3950771e+3, 2.7426985e+2, -605492.6, -390046.38, -18461.45, 0.1140023, -0.20323415, -388475.88, -136338.75, 0.0, 9.997401, 10.000252 
1.3950747e+3, 2.8427047e+2, -569902.94, -299589.8, -4647.631, 0.117373094, -0.17267595, -299509.94, -145378.2, 0.0, 9.996877, 10.000453 
1.395072e+3, 2.9427153e+2, -510866.6, -211911.5, -8209.652, 0.08616406, -0.123485506, -211686.22, -155564.17, 0.0, 9.996573, 10.000527 
1.3950695e+3, 3.0427155e+2, -484838.72, -112442.04, -23677.541, 0.079476066, -0.19732323, -110942.625, -110942.625, 0.0, 9.99615, 10.001081 
1.3950668e+3, 3.1427297e+2, -556318.56, -114096.336, 7429.4185, 0.08393955, -0.16825968, -113971.555, -113971.555, 0.0, 9.995517, 10.001375 
1.4051288e+3, 1.2428896e+2, -1072741.5, -1647663.1, -51795.75, -0.10889772, -0.27857643, -1068112.4, 653832.44, 0.0063027944, 10.005498, 9.997811 
1.4051282e+3, 1.3428712e+2, -1079907.9, -1660957.3, 63992.242, 0.07396837, -0.18775357, -1072943.8, 551018.56, 0.003706203, 10.005004, 9.997292 
1.4051233e+3, 1.44284e+2, -1023498.0, -1519749.5, -2833.7693, -0.11410704, -0.25629142, -1023481.8, 502510.66, 0.001577621, 10.004441, 9.997853 
1.4051196e+3, 1.5428175e+2, -1008655.9, -1456035.3, -10561.233, -0.063240305, -0.27219957, -1008406.7, 419606.9, 0.00039483435, 10.0038395, 9.997907 
1.4051154e+3, 1.6427979e+2, -951310.9, -1325972.3, -36560.234, -0.041329972, -0.27937713, -947776.56, 382255.6, 0.00003454244, 10.003335, 9.998371 
1.4051107e+3, 1.7427833e+2, -903842.9, -1241968.8, -47495.016, -0.023258286, -0.27188742, -897298.1, 334747.84, 0.00000006103049, 10.002943, 9.998464 
1.4051063e+3, 1.8427695e+2, -869238.1, -1159364.4, -33770.863, -0.004093481, -0.260918, -865359.06, 268700.63, 0.0, 10.002442, 9.998599 
1.4051022e+3, 1.9427569e+2, -858611.4, -1096516.1, -26890.127, 0.0050151027, -0.25278124, -855609.9, 180463.05, 0.0, 10.001812, 9.998661 
1.4050981e+3, 2.0427452e+2, -818439.8, -980959.6, -26258.729, 0.024679895, -0.25358024, -814302.44, 123782.37, 0.0, 10.00122, 9.999067 
1.4050944e+3, 2.1427351e+2, -793259.7, -908847.1, -36492.113, 0.06260513, -0.2706006, -782702.94, 57391.402, 0.0, 10.00068, 9.999149 
1.4050904e+3, 2.2427282e+2, -759655.56, -816010.75, -18573.12, 0.07459829, -0.2644025, -754085.0, -11983.315, 0.0, 10.000128, 9.999379 
1.4050867e+3, 2.342726e+2, -739871.2, -748004.9, -14317.014, 0.050362464, -0.23154125, -729054.6, -84949.04, 0.0, 9.9995575, 9.999448 
1.4050832e+3, 2.4427235e+2, -712023.3, -660813.94, 666.0395, 0.041867614, -0.2089764, -660805.3, -114695.81, 0.0, 9.998979, 9.999653 
1.4050803e+3, 2.542721e+2, -695367.0, -594532.56, -3307.442, 0.05487446, -0.2076875, -594424.2, -146311.03, 0.0, 9.998387, 9.999719 
1.4050773e+3, 2.64272e+2, -639531.3, -460181.16, -8193.485, 0.076788485, -0.20822208, -459807.63, -109692.77, 0.0, 9.997855, 10.000224 
1.4050744e+3, 2.7427235e+2, -599862.2, -378891.94, -11526.08, 0.10927037, -0.20836908, -378292.34, -126179.79, 0.0, 9.997406, 10.000325 
1.4050715e+3, 2.842731e+2, -578027.8, -304098.6, 474.6704, 0.11240293, -0.16927895, -304097.78, -149991.77, 0.0, 9.996824, 10.000446 
1.4050683e+3, 2.942743e+2, -586318.44, -250163.23, 2187.9902, 0.08017975, -0.103152275, -250148.98, -194053.77, 0.0, 9.996063, 10.00051 
1.4050654e+3, 3.0427405e+2, -570317.9, -150106.81, -5034.7383, 0.082379475, -0.2035765, -150046.5, -150046.5, 0.0, 9.995549, 10.001111 
1.4050622e+3, 3.1427577e+2, -560193.5, -86106.88, 27489.16, 0.08558209, -0.1530616, -84518.29, -84518.29, 0.0, 9.995362, 10.001641 
1.4151347e+3, 1.2429298e+2, -1083273.4, -1668576.5, -69593.23, -0.076068096, -0.2840786, -1075112.4, 646792.0, 0.006597628, 10.005494, 9.99767 
1.4151329e+3, 1.3429074e+2, -1089607.5, -1681268.8, 44481.61, 0.053096883, -0.21943963, -1086282.0, 537643.7, 0.0038814906, 10.005004, 9.997152 
1.4151274e+3, 1.4428756e+2, -1022935.7, -1519655.4, -26427.084, -0.15271856, -0.2868497, -1021533.6, 504422.97, 0.0016526609, 10.004444, 9.997854 
1.4151235e+3, 1.5428561e+2, -1006984.75, -1453727.5, -33625.09, -0.05523621, -0.2737904, -1004468.06, 423506.94, 0.00041435476, 10.003842, 9.997923 
1.4151189e+3, 1.6428362e+2, -968187.9, -1362424.9, -52474.836, -0.022317797, -0.2732254, -961322.75, 368671.6, 0.000036936333, 10.003339, 9.99812 
1.4151135e+3, 1.7428167e+2, -922073.2, -1281334.1, -62534.93, -0.040381968, -0.28674334, -911499.2, 320514.25, 0.00000007226826, 10.002948, 9.998193 
1.4151086e+3, 1.8428017e+2, -860148.3, -1141987.0, -57343.96, -0.025637504, -0.27932912, -848927.6, 285100.66, 0.0, 10.002446, 9.998717 
1.4151041e+3, 1.9427927e+2, -847385.2, -1074820.3, -50865.043, 0.021874137, -0.2507043, -836527.75, 199509.4, 0.0, 10.001817, 9.998809 
1.4150995e+3, 2.0427813e+2, -834294.9, -1015567.06, -47244.246, 0.042208403, -0.24610174, -822720.8, 115327.87, 0.0, 10.0012245, 9.998828 
1.4150946e+3, 2.1427667e+2, -811321.25, -947806.75, -56682.086, 0.029980155, -0.2786574, -790851.4, 49211.793, 0.0, 10.000685, 9.99888 
1.4150903e+3, 2.2427583e+2, -755020.6, -807726.2, -39697.086, 0.034662087, -0.27478892, -733725.5, 8346.751, 0.0, 10.000132, 9.999435 
1.4150862e+3, 2.3427586e+2, -733485.06, -736142.1, -35360.773, 0.060467884, -0.22551349, -699427.9, -55354.613, 0.0, 9.999561, 9.999529 
1.4150825e+3, 2.4427567e+2, -718872.06, -676631.9, -20971.451, 0.06795514, -0.19582513, -667988.56, -121912.17, 0.0, 9.998982, 9.999542 
1.4150786e+3, 2.5427523e+2, -703585.44, -612419.2, -24689.91, 0.052839875, -0.20076598, -606162.06, -158080.02, 0.0, 9.998388, 9.999597 
1.4150749e+3, 2.64275e+2, -643410.2, -469203.0, -24318.293, 0.05614955, -0.20696664, -465872.03, -115786.555, 0.0, 9.997857, 10.000163 
1.4150716e+3, 2.7427527e+2, -603223.2, -387682.7, -27028.543, 0.080566764, -0.20964882, -384345.03, -132260.88, 0.0, 9.997412, 10.000263 
1.415068e+3, 2.8427604e+2, -573180.5, -295721.8, -26256.854, 0.08875135, -0.16685502, -293258.9, -139181.45, 0.0, 9.99683, 10.000503 
1.4150645e+3, 2.9427734e+2, -582225.56, -241452.56, -24983.176, 0.082185656, -0.0954112, -239630.7, -183565.14, 0.0, 9.99606, 10.000572 
1.4150612e+3, 3.0427706e+2, -567723.44, -144968.98, -11754.136, 0.100780666, -0.20558761, -144642.42, -144642.42, 0.0, 9.995548, 10.001148 
1.4150576e+3, 3.142792e+2, -534806.5, -35726.53, 21647.95, 0.081889525, -0.11438771, -34789.297, -34789.297, 0.0, 9.995371, 10.001985 
1.4251404e+3, 1.24297544e+2, -1080654.9, -1662473.3, -52765.535, -0.054879107, -0.27344865, -1075908.3, 645951.5, 0.006915026, 10.005494, 9.997711 
1.425138e+3, 1.3429518e+2, -1090065.6, -1675649.3, 72619.31, 0.047724694, -0.22812112, -1081194.4, 542687.25, 0.004072216, 10.004978, 9.997203 
1.4251316e+3, 1.4429195e+2, -1034648.9, -1542671.4, 827.7747, -0.16988939, -0.29515782, -1034647.56, 491265.28, 0.0017354132, 10.004439, 9.997697 
1.4251274e+3, 1.5428995e+2, -1011991.0, -1474865.5, -19965.701, -0.050862227, -0.27109256, -1011131.44, 416801.16, 0.0004356786, 10.003891, 9.997753 
1.4251223e+3, 1.6428787e+2, -961010.06, -1363095.9, -32389.73, -0.010133306, -0.26626232, -958417.6, 371535.25, 0.00003950126, 10.003408, 9.99808 
1.4251165e+3, 1.7428586e+2, -912203.94, -1279559.4, -24879.057, -0.039564345, -0.28479877, -910526.7, 321445.75, 0.00000008454083, 10.003031, 9.998163 
1.4251111e+3, 1.8428424e+2, -851534.06, -1150659.0, -26340.08, -0.03162221, -0.28118593, -849232.3, 284755.84, 0.0, 10.0025625, 9.998601 
1.425106e+3, 1.942832e+2, -832865.56, -1081038.6, -40568.55, 0.015630774, -0.2546135, -826402.2, 209596.19, 0.0, 10.001976, 9.998689 
1.4251009e+3, 2.0428197e+2, -811008.3, -1007009.0, -38375.984, 0.03658429, -0.2510006, -803762.4, 134248.25, 0.0, 10.001398, 9.998802 
1.4250953e+3, 2.1428052e+2, -789706.2, -939071.44, -29888.29, 0.02571672, -0.28352684, -783947.5, 56077.61, 0.0, 10.000842, 9.998864 
1.4250903e+3, 2.2427963e+2, -741256.5, -811908.8, -9440.299, 0.031235756, -0.27800125, -740016.9, 2017.6348, 0.0, 10.000274, 9.999338 
1.425086e+3, 2.342796e+2, -721811.56, -741910.5, -19119.512, 0.057333983, -0.22459936, -710261.3, -66225.04, 0.0, 9.999692, 9.999426 
1.4250815e+3, 2.4427931e+2, -701331.44, -668390.6, -9237.121, 0.065345295, -0.19893041, -665977.25, -119936.99, 0.0, 9.999105, 9.999539 
1.425077e+3, 2.5427872e+2, -684736.5, -602196.7, -4282.201, 0.05061714, -0.21917424, -601975.1, -153928.39, 0.0, 9.998514, 9.999605 
1.4250727e+3, 2.6427844e+2, -644391.94, -479296.7, 1696.5764, 0.050209794, -0.22618523, -479279.25, -129228.664, 0.0, 9.997892, 10.000076 
1.4250687e+3, 2.7427882e+2, -636093.2, -414277.94, -3737.5752, 0.06571704, -0.21002482, -414214.97, -162166.0, 0.0, 9.9972315, 10.000168 
1.4250647e+3, 2.842796e+2, -601067.25, -307235.88, -8597.401, 0.074458696, -0.16130863, -306984.53, -152942.05, 0.0, 9.99663, 10.000519 
1.4250605e+3, 2.942808e+2, -571840.44, -234517.83, -11514.365, 0.08134876, -0.10321177, -234125.23, -178093.69, 0.0, 9.996125, 10.000587 
1.4250568e+3, 3.0428037e+2, -580884.3, -158983.58, 1199.7687, 0.1125756, -0.22254562, -158980.17, -158980.17, 0.0, 9.995492, 10.001078 
1.4250527e+3, 3.142827e+2, -617512.56, -46148.91, 25843.672, 0.08400684, -0.11028944, -44982.344, -44982.344, 0.0, 9.994677, 10.002246 
1.435146e+3, 1.2430274e+2, -1066336.1, -1632807.9, -71220.336, -0.044774063, -0.24907297, -1057519.1, 664290.94, 0.0072583025, 10.005494, 9.997917 
1.4351429e+3, 1.3430049e+2, -1074421.3, -1643318.8, 51878.38, 0.05602594, -0.21461901, -1069729.1, 554100.44, 0.0042801127, 10.004978, 9.997425 
1.435136e+3, 1.4429721e+2, -1056007.8, -1588254.5, -21247.83, -0.16763712, -0.282366, -1055160.9, 470700.06, 0.0018271209, 10.004443, 9.997383 
1.4351313e+3, 1.542948e+2, -1035431.94, -1525540.4, -41235.0, -0.050253555, -0.26444936, -1031986.9, 395899.0, 0.0004595925, 10.003898, 9.997403 
1.4351259e+3, 1.6429263e+2, -948966.44, -1340345.1, -47823.84, -0.0049075554, -0.25841576, -943207.4, 386699.9, 0.00004241332, 10.003416, 9.998234 
1.4351198e+3, 1.7429091e+2, -897980.4, -1251535.3, -39630.51, -0.02208779, -0.2668204, -893592.6, 338330.2, 0.00000010052836, 10.003036, 9.998355 
1.4351137e+3, 1.8428919e+2, -875115.75, -1200868.5, -48532.68, -0.023290275, -0.2675299, -868038.8, 265900.4, 0.0, 10.002566, 9.998256 
1.4351077e+3, 1.9428752e+2, -859150.25, -1137225.3, -62791.383, -0.013377334, -0.2644899, -845629.0, 190327.4, 0.0, 10.001981, 9.9983015 
1.435102e+3, 2.0428608e+2, -797959.3, -981545.94, -59454.395, 0.007953735, -0.26785365, -780387.0, 157583.55, 0.0, 10.001404, 9.998976 
1.4350964e+3, 2.14285e+2, -773844.7, -907606.8, -50815.51, 0.048306108, -0.28494194, -756729.94, 83250.22, 0.0, 10.000846, 9.999079 
1.4350909e+3, 2.2428419e+2, -758040.06, -848136.94, -31251.85, 0.062577255, -0.27410758, -748261.2, -6272.509, 0.0, 10.0002775, 9.999088 
1.4350854e+3, 2.3428379e+2, -741374.25, -783702.8, -40603.61, 0.040833514, -0.22873388, -716750.1, -72755.37, 0.0, 9.999695, 9.999139 
1.4350803e+3, 2.4428323e+2, -693845.2, -654090.06, -30728.668, 0.034217253, -0.21821281, -637370.25, -91369.125, 0.0, 9.999108, 9.999638 
1.4350756e+3, 2.5428253e+2, -675333.25, -584017.1, -25639.475, 0.047655556, -0.26258275, -577310.7, -129303.2, 0.0, 9.998518, 9.99973 
1.4350708e+3, 2.6428232e+2, -651177.25, -494458.16, -21965.82, 0.058062654, -0.2651098, -491437.66, -141427.22, 0.0, 9.997894, 9.999971 
1.4350659e+3, 2.7428296e+2, -644618.06, -431738.66, -27202.297, 0.063216984, -0.2079302, -428317.66, -176310.56, 0.0, 9.997228, 10.000051 
1.4350612e+3, 2.8428376e+2, -603964.56, -313711.0, -26516.59, 0.067625806, -0.15190129, -311308.44, -157307.22, 0.0, 9.99663, 10.000476 
1.4350565e+3, 2.9428455e+2, -574761.3, -242866.38, -28861.059, 0.0768607, -0.1282426, -240375.36, -184381.53, 0.0, 9.996132, 10.000528 
1.4350523e+3, 3.0428398e+2, -590769.6, -181473.05, -27874.861, 0.11752677, -0.2542916, -179583.36, -179583.36, 0.0, 9.995499, 10.00092 
1.4350475e+3, 3.1428614e+2, -604683.1, -18624.133, -5159.437, 0.09007227, -0.14022036, -18578.715, -18578.715, 0.0, 9.994672, 10.002439 
1.4451514e+3, 1.2430827e+2, -1068045.0, -1645356.9, -43520.55, -0.051304497, -0.24388337, -1064782.6, 656973.0, 0.0076280828, 10.005538, 9.9978075 
1.4451481e+3, 1.3430592e+2, -1069757.4, -1650855.6, 54521.305, 0.061616346, -0.21091987, -1064686.1, 559090.44, 0.004505376, 10.005056, 9.9973345 
1.4451407e+3, 1.4430262e+2, -1035511.0, -1579309.3, -19805.418, -0.16003653, -0.27440736, -1034790.6, 491017.56, 0.001928287, 10.004592, 9.997372 
1.4451353e+3, 1.5430014e+2, -991777.25, -1504277.9, -14709.783, -0.047258023, -0.26478583, -991355.44, 436478.16, 0.00048673406, 10.0042, 9.997402 
1.4451294e+3, 1.6429791e+2, -915509.2, -1336144.6, -18601.531, -0.0040477836, -0.25858778, -914688.2, 415167.25, 0.000045834735, 10.0037, 9.998125 
1.4451228e+3, 1.7429619e+2, -903808.7, -1267209.6, -33590.76, -0.02037376, -0.25616473, -900729.8, 331141.5, 0.00000012546444, 10.003053, 9.998237 
1.4451163e+3, 1.8429437e+2, -885913.2, -1208917.6, -43448.44, -0.022475213, -0.25811824, -880170.9, 253717.69, 0.0, 10.002507, 9.998227 
1.4451097e+3, 1.9429253e+2, -842689.9, -1131540.8, -31617.582, -0.016433327, -0.27171755, -839269.5, 196637.6, 0.0, 10.002106, 9.998279 
1.4451034e+3, 2.04291e+2, -776216.25, -980958.44, -27199.977, 0.0039762827, -0.27908522, -772664.4, 165257.58, 0.0, 10.001597, 9.998885 
1.4450973e+3, 2.1428995e+2, -766335.8, -914613.2, -42093.465, 0.04788676, -0.28309458, -755219.56, 84711.7, 0.0, 10.000945, 9.998981 
1.4450914e+3, 2.2428903e+2, -754683.25, -852178.44, -27448.79, 0.06331753, -0.27321273, -747486.56, -5546.1533, 0.0, 10.000326, 9.999036 
1.4450853e+3, 2.3428838e+2, -736663.56, -786789.75, -19951.701, 0.039089825, -0.24854276, -729691.9, -85743.2, 0.0, 9.999752, 9.999089 
1.4450793e+3, 2.4428774e+2, -691240.6, -653547.5, -6514.7104, 0.03147771, -0.24330324, -652453.3, -106497.63, 0.0, 9.99913, 9.999631 
1.445074e+3, 2.542872e+2, -686063.06, -589878.06, -11769.564, 0.04603922, -0.27170897, -588458.9, -140498.28, 0.0, 9.998447, 9.999723 
1.4450686e+3, 2.6428702e+2, -669813.75, -506862.9, -11755.355, 0.060624853, -0.26925236, -506019.22, -156056.03, 0.0, 9.997782, 9.999941 
1.4450632e+3, 2.742875e+2, -659807.0, -442101.72, -11345.351, 0.07376032, -0.22257115, -441512.06, -189551.0, 0.0, 9.997138, 10.000022 
1.4450578e+3, 2.8428823e+2, -626323.8, -326697.47, -3344.2817, 0.07426414, -0.17068638, -326660.13, -172704.16, 0.0, 9.996488, 10.000454 
1.4450525e+3, 2.9428908e+2, -620781.7, -269097.0, -4243.648, 0.064937465, -0.14056717, -269045.8, -213097.22, 0.0, 9.995834, 10.000491 
1.4450476e+3, 3.0428857e+2, -636505.06, -211676.08, -2894.9534, 0.11165881, -0.25123492, -211656.36, -211656.36, 0.0, 9.995223, 10.000845 
1.4450422e+3, 3.142903e+2, -584447.3, 17417.87, 22197.629, 0.10411498, -0.1802331, 18235.438, 18235.438, 0.0, 9.9947, 10.00267 
1.4551568e+3, 1.2431424e+2, -1096899.4, -1705326.4, -61844.63, -0.0740645, -0.25751054, -1090676.8, 631019.1, 0.008022598, 10.005539, 9.997394 
1.4551531e+3, 1.3431159e+2, -1096810.0, -1708100.3, 35159.945, 0.064427085, -0.21698599, -1094794.3, 528927.7, 0.004747439, 10.005059, 9.996942 
1.4551453e+3, 1.4430828e+2, -1016146.3, -1540411.0, -36270.547, -0.14788531, -0.27144688, -1013648.9, 512105.13, 0.002039059, 10.004597, 9.997637 
1.4551397e+3, 1.5430601e+2, -968764.4, -1457479.8, -30203.729, -0.042762216, -0.271733, -966904.75, 460870.56, 0.0005174848, 10.004202, 9.997723 
1.4551331e+3, 1.643038e+2, -940801.9, -1390063.8, -43248.484, -0.008030756, -0.2662924, -936676.44, 393120.56, 0.000049828755, 10.003704, 9.997754 
1.4551257e+3, 1.7430174e+2, -932530.3, -1328699.9, -58297.98, -0.03417258, -0.25242126, -924129.6, 307687.88, 0.00000016567238, 10.003059, 9.997813 
1.4551187e+3, 1.8429987e+2, -866081.8, -1169568.5, -59645.652, -0.029593365, -0.25245017, -854780.25, 279055.6, 0.0, 10.002513, 9.998496 
1.4551121e+3, 1.9429822e+2, -819536.9, -1084893.6, -46952.676, 0.0049923994, -0.2764631, -811473.94, 224376.6, 0.0, 10.0021105, 9.998598 
1.4551051e+3, 2.0429668e+2, -800348.1, -1032406.3, -51542.547, 0.023260385, -0.28529516, -789415.06, 148449.95, 0.0, 10.001601, 9.998531 
1.4550981e+3, 2.1429534e+2, -793805.0, -973210.56, -66592.65, 0.024605926, -0.278303, -771788.6, 68089.75, 0.0, 10.00095, 9.998578 
1.4550912e+3, 2.242942e+2, -744712.6, -832838.06, -48923.1, 0.03373203, -0.27540863, -722934.7, 18955.092, 0.0, 10.00033, 9.999168 
1.4550851e+3, 2.342934e+2, -723929.6, -761352.5, -40949.926, 0.051190387, -0.28335893, -697618.7, -53720.64, 0.0, 9.999754, 9.999264 
1.4550787e+3, 2.4429284e+2, -698938.1, -670340.8, -31278.303, 0.055886883, -0.2737214, -650247.9, -104343.875, 0.0, 9.999131, 9.999516 
1.4550723e+3, 2.542927e+2, -695462.9, -609919.44, -36438.805, 0.045172803, -0.24747653, -596502.1, -148595.84, 0.0, 9.998447, 9.999587 
1.4550664e+3, 2.642925e+2, -667389.9, -502448.5, -34771.824, 0.057178833, -0.23984124, -495417.8, -145508.6, 0.0, 9.997782, 9.999971 
1.4550607e+3, 2.7429244e+2, -656161.25, -435877.13, -34124.277, 0.095795095, -0.25352, -430712.03, -178800.77, 0.0, 9.997142, 10.000064 
1.4550546e+3, 2.8429306e+2, -624736.3, -325013.94, -26801.383, 0.093159564, -0.21691063, -322636.22, -168729.08, 0.0, 9.996492, 10.000464 
1.455048e+3, 2.942944e+2, -621259.56, -270092.63, -27526.154, 0.045470126, -0.1408015, -267948.1, -212051.88, 0.0, 9.9958315, 10.000487 
1.4550427e+3, 3.0429423e+2, -637660.6, -214482.47, -21359.13, 0.094205044, -0.21331233, -213407.14, -213407.14, 0.0, 9.995222, 10.000827 
1.4550371e+3, 3.142951e+2, -568798.5, 47798.62, 1081.1421, 0.12389218, -0.22735226, 47800.516, 47800.516, 0.0, 9.994707, 10.002877 
1.4651622e+3, 1.2432048e+2, -1099916.4, -1715934.1, -62069.926, -0.082760006, -0.25660267, -1093724.4, 627910.06, 0.008438816, 10.005562, 9.997309 
1.4651582e+3, 1.3431764e+2, -1085212.9, -1707417.8, 57077.504, 0.06345434, -0.23047315, -1080020.3, 543642.7, 0.005005243, 10.005164, 9.996894 
1.46515e+3, 1.4431442e+2, -998625.3, -1526189.9, -9553.616, -0.14391956, -0.276852, -998452.4, 527241.94, 0.0021592197, 10.004696, 9.997685 
1.4651439e+3, 1.5431237e+2, -969651.1, -1451079.8, -22203.414, -0.03931015, -0.25991836, -968629.25, 459083.72, 0.0005519096, 10.004169, 9.997781 
1.4651367e+3, 1.6431013e+2, -951117.8, -1401821.5, -38840.52, -0.0033206868, -0.25569683, -947795.1, 381939.38, 0.000054336895, 10.003665, 9.99769 
1.465129e+3, 1.7430776e+2, -917815.6, -1329457.1, -29706.262, -0.027045332, -0.26704532, -915682.94, 316075.34, 0.00000022299002, 10.003197, 9.99774 
1.4651214e+3, 1.843058e+2, -849328.0, -1167980.9, -27662.361, -0.021937115, -0.26881018, -846944.44, 286833.06, 0.0, 10.002659, 9.998435 
1.4651142e+3, 1.9430438e+2, -835764.56, -1099087.9, -42731.438, 0.011115332, -0.26438043, -829003.8, 206786.4, 0.0, 10.002028, 9.998539 
1.4651068e+3, 2.0430282e+2, -821222.75, -1049792.8, -53184.824, 0.026033232, -0.26943812, -809453.44, 128351.5, 0.0, 10.001492, 9.998464 
1.465099e+3, 2.1430114e+2, -779936.4, -974086.9, -44383.14, 0.020837808, -0.29058737, -770271.44, 69549.98, 0.0, 10.0010805, 9.998508 
1.4650917e+3, 2.2429986e+2, -718493.6, -817111.06, -23397.56, 0.027362365, -0.29649258, -713224.0, 28609.674, 0.0, 10.000499, 9.999194 
1.4650847e+3, 2.3429926e+2, -730490.6, -760419.4, -26766.22, 0.047586262, -0.2882452, -714789.6, -70949.87, 0.0, 9.999693, 9.999298 
1.4650777e+3, 2.4429879e+2, -726445.2, -687901.25, -19226.75, 0.055289347, -0.27125838, -679950.5, -134105.45, 0.0, 9.998962, 9.9994755 
1.4650708e+3, 2.5429857e+2, -716147.6, -624541.75, -18186.984, 0.048076537, -0.24894546, -621063.1, -173214.63, 0.0, 9.998327, 9.999543 
1.4650641e+3, 2.6429838e+2, -675327.94, -497202.0, -10666.901, 0.060311742, -0.24425624, -496565.5, -146713.95, 0.0, 9.99769, 10.000051 
1.4650577e+3, 2.7429834e+2, -662540.2, -429242.2, -7293.0337, 0.09446554, -0.26156038, -429014.4, -177162.03, 0.0, 9.997057, 10.00015 
1.4650509e+3, 2.842989e+2, -636743.3, -333012.7, 159.68494, 0.08804649, -0.23445137, -333012.6, -179163.89, 0.0, 9.99642, 10.000443 
1.4650439e+3, 2.9430008e+2, -631387.5, -278896.75, -4208.1113, 0.038101576, -0.16888255, -278846.53, -223006.84, 0.0, 9.995781, 10.00045 
1.4650378e+3, 3.043004e+2, -660852.4, -220330.13, 2341.4946, 0.09298395, -0.19439602, -220317.67, -220317.67, 0.0, 9.995041, 10.000874 
1.4650317e+3, 3.143012e+2, -629809.7, 37725.234, 26238.121, 0.12902606, -0.22339596, 38754.96, 38754.96, 0.0, 9.994206, 10.003048 
1.4751677e+3, 1.2432707e+2, -1084901.1, -1685108.8, -76805.31, -0.07801822, -0.24319273, -1075228.6, 646342.06, 0.008874083, 10.005564, 9.997522 
1.4751634e+3, 1.3432416e+2, -1066103.9, -1668003.8, 40528.625, 0.058220286, -0.25080407, -1063387.1, 560211.6, 0.005277439, 10.005166, 9.997165 
1.4751546e+3, 1.4432107e+2, -1009849.2, -1550531.0, -30694.49, -0.1484804, -0.28978714, -1008112.2, 517516.34, 0.00228816, 10.004699, 9.997518 
1.475148e+3, 1.5431927e+2, -983061.5, -1479946.4, -42670.754, -0.03740133, -0.23050605, -979423.7, 448222.3, 0.00058985426, 10.004172, 9.997582 
1.4751405e+3, 1.64317e+2, -935335.0, -1370291.1, -57627.984, 0.0089694075, -0.22796439, -927829.3, 401838.38, 0.000059266546, 10.003669, 9.997906 
1.4751323e+3, 1.7431429e+2, -899583.0, -1293375.5, -47999.355, -0.00039065955, -0.29949257, -893816.8, 337876.5, 0.0000002932695, 10.003202, 9.997986 
1.4751242e+3, 1.8431221e+2, -874969.06, -1223244.0, -51628.93, -0.0007775829, -0.30652088, -867476.7, 266236.8, 0.0, 10.002665, 9.998054 
1.475116e+3, 1.9431104e+2, -864849.6, -1161416.5, -66556.95, 0.0020505677, -0.2358698, -850597.5, 185128.4, 0.0, 10.002035, 9.998109 
1.475108e+3, 2.0430942e+2, -806552.75, -1020806.5, -69191.96, 0.0123700425, -0.23202996, -786150.44, 151591.08, 0.0, 10.001495, 9.998662 
1.4751002e+3, 2.143073e+2, -762698.5, -938996.3, -59520.367, 0.03544127, -0.31950915, -744485.3, 95275.11, 0.0, 10.001081, 9.998751 
1.4750923e+3, 2.2430603e+2, -724223.1, -829532.8, -52420.6, 0.04291467, -0.33590925, -702578.25, 39194.023, 0.0, 10.000499, 9.99911 
1.4750843e+3, 2.3430595e+2, -737722.25, -776508.44, -56474.34, 0.028448386, -0.26399657, -697404.0, -53629.906, 0.0, 9.999696, 9.999187 
1.4750765e+3, 2.4430552e+2, -723999.44, -683952.7, -42626.715, 0.029886713, -0.23712334, -656880.7, -111101.586, 0.0, 9.998966, 9.999502 
1.4750692e+3, 2.5430474e+2, -713346.8, -619401.94, -40925.57, 0.05376896, -0.2753478, -604074.2, -156286.69, 0.0, 9.998329, 9.999578 
1.4750619e+3, 2.6430452e+2, -666299.6, -479397.53, -33332.285, 0.069284596, -0.2811896, -473630.94, -123840.56, 0.0, 9.997692, 10.000174 
1.4750546e+3, 2.743051e+2, -653463.75, -410808.78, -29683.69, 0.070343, -0.24739833, -407230.38, -155445.5, 0.0, 9.997057, 10.0002775 
1.4750472e+3, 2.8430566e+2, -641236.8, -342793.97, -22494.547, 0.059073225, -0.22426075, -341108.0, -187326.75, 0.0, 9.99642, 10.000378 
1.4750397e+3, 2.9430613e+2, -637334.06, -292338.7, -27027.51, 0.04102519, -0.22374664, -290234.16, -234454.61, 0.0, 9.995784, 10.000357 
1.475033e+3, 3.04307e+2, -651076.2, -201891.44, -27886.057, 0.106418565, -0.19318072, -200166.84, -200166.84, 0.0, 9.995047, 10.0009985 
1.4750257e+3, 3.1430855e+2, -620078.44, 56560.883, -7400.4966, 0.11963659, -0.15910691, 56641.813, 56641.813, 0.0, 9.99421, 10.003178 
1.4851734e+3, 1.2433397e+2, -1083615.6, -1678743.6, -52398.84, -0.07964373, -0.24406415, -1079037.3, 642466.44, 0.009328131, 10.005552, 9.997571 
1.4851685e+3, 1.3433136e+2, -1061318.5, -1654351.4, 51037.59, 0.052143145, -0.23204343, -1056958.1, 566570.75, 0.0055635045, 10.005154, 9.997263 
1.4851594e+3, 1.4432837e+2, -1013862.7, -1553555.5, -27006.678, -0.14778063, -0.26593357, -1012514.6, 513042.94, 0.0024254771, 10.004679, 9.997505 
1.4851524e+3, 1.5432619e+2, -990013.44, -1484738.4, -26667.865, -0.025268892, -0.24252419, -988580.06, 438998.1, 0.0006312576, 10.004133, 9.997567 
1.4851443e+3, 1.6432385e+2, -937001.25, -1366364.0, -37757.05, 0.022807295, -0.24747506, -933706.3, 395893.94, 0.000064595064, 10.00364, 9.997945 
1.4851356e+3, 1.7432146e+2, -895454.06, -1286381.1, -43155.85, 0.0015963409, -0.29081, -890746.6, 340876.22, 0.00000037325287, 10.003212, 9.998028 
1.4851268e+3, 1.8431944e+2, -868630.8, -1224580.3, -48649.89, -0.0023565243, -0.29155037, -862101.3, 271541.2, 0.0, 10.00273, 9.998012 
1.4851183e+3, 1.9431801e+2, -846558.25, -1157738.9, -36906.715, 0.0074509126, -0.24211341, -842240.9, 193416.58, 0.0, 10.002185, 9.99806 
1.4851096e+3, 2.0431635e+2, -791904.0, -1001907.4, -28368.967, 0.018700203, -0.24502578, -788139.2, 149534.22, 0.0, 10.001548, 9.998766 
1.4851011e+3, 2.1431445e+2, -797511.06, -942754.4, -28654.037, 0.034883343, -0.32156888, -792062.5, 47627.277, 0.0, 10.000788, 9.998864 
1.4850926e+3, 2.2431329e+2, -774735.4, -854924.7, -25738.4, 0.041553747, -0.3332272, -767185.0, -25484.436, 0.0, 10.000159, 9.999098 
1.485084e+3, 2.3431316e+2, -738636.94, -779358.1, -24061.926, 0.03402324, -0.26423708, -727477.2, -83774.016, 0.0, 9.999702, 9.999164 
1.4850755e+3, 2.4431267e+2, -701871.4, -666607.44, -9585.607, 0.03441061, -0.24553125, -664170.25, -118461.52, 0.0, 9.999091, 9.999559 
1.4850675e+3, 2.543118e+2, -716418.9, -613925.7, -7216.3984, 0.046814803, -0.2978317, -613420.1, -165702.81, 0.0, 9.998281, 9.999639 
1.4850594e+3, 2.6431164e+2, -689920.2, -491617.03, -787.8668, 0.058208134, -0.2988617, -491613.9, -141894.52, 0.0, 9.997537, 10.000163 
1.4850514e+3, 2.743125e+2, -680335.0, -425055.5, -8089.8354, 0.06451245, -0.23926099, -424799.38, -173087.27, 0.0, 9.9968815, 10.000263 
1.4850433e+3, 2.8431302e+2, -655802.75, -333555.06, 1819.9484, 0.055998445, -0.22430712, -333544.78, -179836.16, 0.0, 9.996253, 10.00052 
1.4850353e+3, 2.9431316e+2, -645396.7, -279885.8, 13736.106, 0.037650913, -0.26712984, -279370.3, -223661.63, 0.0, 9.995661, 10.000501 
1.4850278e+3, 3.0431452e+2, -662697.3, -209286.48, 10962.596, 0.09822543, -0.19923873, -209021.58, -209021.58, 0.0, 9.994977, 10.00098 
1.4850198e+3, 3.1431606e+2, -632286.0, 33566.688, 13705.879, 0.10026758, -0.16017413, 33848.688, 33848.688, 0.0, 9.994203, 10.003021 
1.4951788e+3, 1.2434127e+2, -1090711.5, -1695331.8, -67513.72, -0.08746678, -0.25837162, -1083264.5, 638168.1, 0.0098037, 10.005561, 9.997453 
1.4951734e+3, 1.3433927e+2, -1065847.8, -1664905.6, 35187.14, 0.044887822, -0.17696726, -1063788.0, 559664.8, 0.005864886, 10.005158, 9.9971895 
1.495164e+3, 1.4433633e+2, -1004293.7, -1535002.0, -48440.35, -0.14259882, -0.2081032, -999908.56, 525572.3, 0.0025718445, 10.004683, 9.997632 
1.4951566e+3, 1.543332e+2, -978729.0, -1463303.1, -47809.242, -0.004098484, -0.2938303, -974057.06, 453451.7, 0.0006765002, 10.00414, 9.997712 
1.4951482e+3, 1.6433077e+2, -945599.9, -1386251.1, -54839.87, 0.037364252, -0.31154403, -938877.5, 390654.06, 0.00007046255, 10.003647, 9.997807 
1.4951386e+3, 1.7432933e+2, -906398.2, -1310059.1, -59576.957, -0.020242902, -0.24281359, -897788.75, 333757.72, 0.00000046463128, 10.003214, 9.997866 
1.4951295e+3, 1.8432753e+2, -849329.56, -1184881.9, -69247.21, -0.026057953, -0.22610898, -835600.9, 297963.44, 0.0, 10.002729, 9.998286 
1.4951207e+3, 1.9432534e+2, -824954.3, -1113301.0, -57534.957, 0.026245443, -0.28180805, -813898.06, 221686.66, 0.0, 10.002185, 9.998367 
1.4951114e+3, 2.0432363e+2, -791594.7, -1001834.06, -56503.555, 0.043662682, -0.3066394, -777371.2, 160229.42, 0.0, 10.001548, 9.998767 
1.4951017e+3, 2.1432258e+2, -798178.8, -945351.4, -57089.035, 0.019419884, -0.2974587, -778630.25, 60979.516, 0.0, 10.000791, 9.998847 
1.4950927e+3, 2.2432162e+2, -770572.0, -847417.5, -43288.54, 0.023463607, -0.28983784, -751113.8, -9494.844, 0.0, 10.000162, 9.999149 
1.495084e+3, 2.3432086e+2, -734659.3, -771382.6, -40592.105, 0.062887974, -0.28836948, -708469.06, -64841.9, 0.0, 9.9997015, 9.99922 
1.495075e+3, 2.4432017e+2, -696814.1, -656452.75, -38412.71, 0.06735475, -0.29503688, -633242.25, -87608.11, 0.0, 9.999091, 9.99963 
1.4950655e+3, 2.543197e+2, -711186.56, -603736.8, -36623.652, 0.027298145, -0.3162409, -592441.25, -144802.94, 0.0, 9.9982815, 9.999709 
1.4950566e+3, 2.643197e+2, -699658.94, -512538.72, -24651.994, 0.027171247, -0.29784822, -509345.47, -159706.39, 0.0, 9.997538, 10.00002 
1.4950484e+3, 2.7432042e+2, -691268.0, -448392.3, -31299.4, 0.07575204, -0.2370107, -444423.63, -192789.05, 0.0, 9.996882, 10.000103 
1.4950398e+3, 2.843209e+2, -631661.56, -284601.6, -19327.46, 0.07745677, -0.23403181, -283528.56, -129897.22, 0.0, 9.996256, 10.000856 
1.4950308e+3, 2.943212e+2, -619313.25, -226702.33, -7494.866, 0.027688311, -0.29919094, -226559.3, -170931.48, 0.0, 9.995663, 10.000866 
1.4950226e+3, 3.043228e+2, -673505.06, -232754.61, -16697.701, 0.06823602, -0.21370406, -232122.92, -232122.92, 0.0, 9.99498, 10.000819 
1.4950137e+3, 3.1432378e+2, -663912.5, -33470.293, -17571.467, 0.06955072, -0.21399057, -32980.926, -32980.926, 0.0, 9.994206, 10.00256 
1.5051845e+3, 1.2434938e+2, -1048574.1, -1695881.1, -28235.459, -0.09711788, -0.26591742, -1047344.9, 674007.44, 0.01030497, 10.005948, 9.997262 
1.5051787e+3, 1.3434735e+2, -1054816.8, -1674770.8, 68014.16, 0.048912007, -0.17463864, -1047442.7, 575931.1, 0.006184294, 10.005304, 9.99705 
1.505169e+3, 1.4434445e+2, -994568.3, -1524658.1, -19774.227, -0.13071322, -0.19699672, -993831.7, 531570.1, 0.0027287542, 10.004729, 9.99768 
1.5051608e+3, 1.5434124e+2, -954793.25, -1444718.9, -25091.918, -0.009155384, -0.29722503, -953511.5, 473918.44, 0.0007262588, 10.004276, 9.997773 
1.5051517e+3, 1.6433877e+2, -932213.25, -1379896.6, -32776.043, 0.027495693, -0.31963432, -929826.4, 399626.3, 0.00007713385, 10.00374, 9.997804 
1.5051417e+3, 1.743374e+2, -924235.0, -1319210.4, -27353.22, -0.020632999, -0.24305871, -922349.7, 309117.5, 0.00000057502143, 10.003096, 9.997858 
1.505132e+3, 1.8433568e+2, -883032.0, -1181708.0, -37971.5, -0.020423345, -0.22678337, -878280.2, 255204.06, 0.0, 10.002417, 9.998457 
1.5051226e+3, 1.9433355e+2, -883388.25, -1120780.1, -36077.016, 0.03371527, -0.29408607, -878026.7, 157476.94, 0.0, 10.001697, 9.998549 
1.5051128e+3, 2.0433198e+2, -847963.1, -1017519.5, -34895.24, 0.051585898, -0.31915206, -841062.44, 96455.55, 0.0, 10.001113, 9.998867 
1.5051027e+3, 2.1433118e+2, -803397.75, -936916.8, -27662.275, 0.025626242, -0.29421338, -797893.6, 41631.313, 0.0, 10.0007105, 9.998942 
1.5050928e+3, 2.2433034e+2, -770381.2, -841926.75, -11704.7, 0.02830648, -0.2827551, -768515.0, -26981.766, 0.0, 10.000143, 9.999195 
1.5050834e+3, 2.3432948e+2, -781752.6, -789300.4, -10795.488, 0.067381114, -0.29407626, -774090.4, -130547.97, 0.0, 9.99936, 9.99926 
1.5050739e+3, 2.4432881e+2, -746937.75, -668577.9, -9536.343, 0.07059024, -0.30624294, -667434.0, -121884.945, 0.0, 9.998697, 9.999735 
1.5050638e+3, 2.543285e+2, -716669.8, -593874.94, -6075.356, 0.027456146, -0.32224333, -593575.1, -146023.9, 0.0, 9.998192, 9.999818 
1.5050542e+3, 2.6432854e+2, -695438.1, -509212.25, 10123.667, 0.024976358, -0.3031601, -508663.5, -159112.4, 0.0, 9.997564, 10.000029 
1.5050451e+3, 2.7432922e+2, -706706.9, -455704.72, 14702.775, 0.07271106, -0.2494747, -454846.4, -203298.83, 0.0, 9.9967785, 10.000101 
1.505036e+3, 2.8432965e+2, -651597.44, -287197.38, 28210.123, 0.0745031, -0.25012475, -285026.4, -131481.95, 0.0, 9.996092, 10.0009165 
1.5050265e+3, 2.9433012e+2, -633753.3, -225783.88, 16745.195, 0.025437277, -0.3083921, -225097.72, -169558.47, 0.0, 9.995532, 10.000935 
1.5050173e+3, 3.0433193e+2, -674789.8, -215222.58, 1008.5802, 0.05770245, -0.21200068, -215220.36, -215220.36, 0.0, 9.994895, 10.000979 
1.5050077e+3, 3.143326e+2, -680666.9, -58984.324, 22723.135, 0.048915327, -0.25921473, -58154.875, -58154.875, 0.0, 9.994169, 10.002402 
1.5151903e+3, 1.24358356e+2, -1065332.9, -1733383.8, -52764.656, -0.1087231, -0.26612347, -1061191.1, 660071.3, 0.010835328, 10.0059595, 9.996999 
1.5151842e+3, 1.3435565e+2, -1068296.1, -1704315.8, 42822.01, 0.06286876, -0.22151512, -1065426.0, 557865.2, 0.006523818, 10.00531, 9.996845 
1.5151738e+3, 1.4435276e+2, -996541.9, -1530060.0, -38122.97, -0.1131697, -0.2291988, -993831.56, 531488.1, 0.002897247, 10.004733, 9.997642 
1.5151648e+3, 1.5435027e+2, -956607.4, -1449330.6, -42413.945, -0.039275594, -0.25538775, -952983.0, 474358.6, 0.00078094634, 10.004278, 9.997742 
1.5151551e+3, 1.6434786e+2, -923462.8, -1362478.0, -57186.84, -0.0058635497, -0.27486724, -916135.8, 413227.75, 0.00008483534, 10.003741, 9.997925 
1.515145e+3, 1.7434572e+2, -914567.2, -1300194.9, -51865.668, -0.0014064367, -0.28935665, -907713.25, 323671.22, 0.00000071310234, 10.0030985, 9.997989 
1.5151347e+3, 1.8434392e+2, -878053.94, -1172797.9, -65175.96, 0.01222538, -0.29056096, -864284.94, 269117.03, 0.0, 10.00242, 9.998518 
1.5151243e+3, 1.9434264e+2, -878616.06, -1112812.4, -63270.832, 0.030232219, -0.28018355, -862615.8, 172798.36, 0.0, 10.001702, 9.998603 
1.5151139e+3, 2.0434138e+2, -833853.3, -989877.06, -50894.777, 0.043129776, -0.28448105, -818719.44, 118706.25, 0.0, 10.001118, 9.999056 
1.5151036e+3, 2.1434025e+2, -789510.8, -908728.2, -42610.36, 0.05201543, -0.3110934, -775847.1, 63588.105, 0.0, 10.000711, 9.999136 
1.5150933e+3, 2.2433941e+2, -767998.25, -837613.5, -39870.902, 0.054492224, -0.31061256, -749878.94, -8435.513, 0.0, 10.000143, 9.999226 
1.5150826e+3, 2.34339e+2, -779802.0, -786642.9, -39658.484, 0.048015628, -0.28146344, -743416.75, -99967.56, 0.0, 9.999364, 9.999278 
1.5150724e+3, 2.4433853e+2, -737161.44, -649727.9, -28480.75, 0.04469128, -0.28013515, -641268.94, -95814.94, 0.0, 9.998702, 9.999864 
1.5150622e+3, 2.5433815e+2, -706716.9, -573936.9, -24127.826, 0.04639852, -0.31671524, -569688.5, -122232.15, 0.0, 9.998194, 9.999956 
1.515052e+3, 2.6433817e+2, -684804.0, -487841.97, -17684.418, 0.05043932, -0.3149114, -486266.75, -136810.83, 0.0, 9.997565, 10.000176 
1.5150419e+3, 2.7433884e+2, -696048.4, -434683.53, -13529.582, 0.054618333, -0.27625814, -433985.03, -182533.36, 0.0, 9.996781, 10.000246 
1.5150318e+3, 2.843393e+2, -666091.0, -318645.97, 7650.5, 0.04654409, -0.27227813, -318477.6, -165029.1, 0.0, 9.996095, 10.0007 
1.5150219e+3, 2.9433987e+2, -649580.6, -259878.42, -3234.6511, 0.030455623, -0.29445806, -259851.56, -204408.1, 0.0, 9.995535, 10.0007 
1.5150124e+3, 3.0434182e+2, -640985.06, -146672.69, -24650.797, 0.06570356, -0.19554304, -145446.42, -145446.42, 0.0, 9.994899, 10.00145 
1.5150017e+3, 3.1434256e+2, -669205.8, -37194.066, -5835.814, 0.036301374, -0.28722438, -37140.184, -37140.184, 0.0, 9.994175, 10.00255 
1.5251964e+3, 1.2436766e+2, -1005284.1, -1711740.9, -40746.63, -0.11970411, -0.28011853, -1002941.75, 718227.75, 0.011396209, 10.006416, 9.996927 
1.5251896e+3, 1.343648e+2, -1037037.44, -1690305.6, 66529.375, 0.05704089, -0.2518571, -1030330.9, 592869.0, 0.0068841586, 10.005535, 9.996833 
1.5251786e+3, 1.4436196e+2, -997973.0, -1541745.5, -1157.4631, -0.10860592, -0.24923205, -997970.5, 527257.75, 0.0030773154, 10.004772, 9.997542 
1.525169e+3, 1.5435956e+2, -980103.75, -1472308.8, -10647.589, -0.04194499, -0.25367883, -979873.56, 447376.5, 0.0008403926, 10.0041685, 9.997636 
1.5251587e+3, 1.643572e+2, -941591.94, -1353238.1, -31571.605, -0.0072772703, -0.2703148, -939184.6, 390087.22, 0.00009361161, 10.003542, 9.998083 
1.525148e+3, 1.7435502e+2, -933240.06, -1289555.9, -23883.066, 0.007877098, -0.3075694, -931646.3, 299646.2, 0.0000008739153, 10.002887, 9.998163 
1.5251373e+3, 1.8435326e+2, -888485.2, -1171010.8, -33613.0, 0.022503229, -0.31431583, -884541.2, 248767.97, 0.0, 10.002321, 9.998577 
1.5251261e+3, 1.9435221e+2, -850427.4, -1093256.3, -32179.305, 0.029171659, -0.28630352, -846235.4, 189084.08, 0.0, 10.001872, 9.998654 
1.5251149e+3, 2.043511e+2, -802599.8, -960355.8, -23129.166, 0.041205574, -0.2845277, -799278.7, 138051.06, 0.0, 10.001273, 9.999183 
1.5251042e+3, 2.1435001e+2, -813739.75, -905741.06, -20470.84, 0.06275772, -0.3202295, -809390.5, 29948.484, 0.0, 10.0004835, 9.999266 
1.5250933e+3, 2.2434926e+2, -804479.0, -843513.3, -18470.92, 0.06500145, -0.32195067, -797124.4, -55778.02, 0.0, 9.999845, 9.999328 
1.525082e+3, 2.3434901e+2, -767194.75, -768841.06, -12794.838, 0.04088343, -0.28578967, -755196.6, -111846.195, 0.0, 9.999402, 9.99938 
1.5250711e+3, 2.4434869e+2, -713496.1, -628408.56, -1008.7136, 0.034210403, -0.28025845, -628396.6, -83042.6, 0.0, 9.998825, 9.999949 
1.5250602e+3, 2.5434837e+2, -719081.25, -570502.56, -1031.0945, 0.051710844, -0.31591424, -570495.4, -123139.805, 0.0, 9.998071, 10.000038 
1.5250495e+3, 2.6434848e+2, -705705.2, -489869.0, -1887.3137, 0.05985103, -0.31563482, -489852.5, -140497.97, 0.0, 9.997389, 10.000246 
1.5250386e+3, 2.7434915e+2, -689084.4, -423287.03, -4502.3276, 0.05288655, -0.2826618, -423210.78, -171860.9, 0.0, 9.996797, 10.000316 
1.5250279e+3, 2.8434965e+2, -658244.5, -312172.78, 23758.965, 0.041725885, -0.281019, -310549.28, -157202.97, 0.0, 9.99614, 10.000722 
1.5250175e+3, 2.9435027e+2, -666089.75, -264543.25, 31848.688, 0.03163907, -0.29857418, -262032.88, -206692.2, 0.0, 9.995411, 10.000727 
1.5250072e+3, 3.043522e+2, -637699.25, -134518.83, 12098.1455, 0.061875504, -0.21020365, -134228.11, -134228.11, 0.0, 9.99488, 10.001541 
1.5249962e+3, 3.1435317e+2, -627491.9, -42592.883, -3286.691, 0.032033853, -0.28352693, -42574.414, -42574.414, 0.0, 9.994575, 10.002319 
1.5352026e+3, 1.2437739e+2, -999172.2, -1698963.3, -73550.69, -0.13003682, -0.30652303, -991525.3, 729547.56, 0.0119874505, 10.006417, 9.997017 
1.5351948e+3, 1.3437478e+2, -1025948.06, -1667921.6, 32644.996, 0.032013312, -0.26684284, -1024292.3, 598807.44, 0.007265674, 10.005539, 9.996985 
1.5351833e+3, 1.4437202e+2, -1008651.25, -1565487.9, -25658.496, -0.11706106, -0.25789952, -1007471.44, 517656.13, 0.0032688254, 10.004777, 9.997378 
1.5351734e+3, 1.5436918e+2, -992618.44, -1498873.9, -33428.26, -0.01968026, -0.28978384, -990420.7, 436734.22, 0.00090415665, 10.004169, 9.997455 
1.5351626e+3, 1.6436683e+2, -928378.94, -1326894.8, -56151.23, 0.02051808, -0.3036414, -920618.3, 408558.7, 0.00010335774, 10.003544, 9.998264 
1.535151e+3, 1.7436525e+2, -917856.4, -1259754.0, -48563.88, 0.0077036377, -0.29906836, -911092.1, 320099.2, 0.0000010362653, 10.002893, 9.998365 
1.5351394e+3, 1.8436371e+2, -883731.25, -1163016.1, -51321.54, 0.011390937, -0.29981503, -874599.0, 258606.75, 0.0, 10.002327, 9.998631 
1.5351279e+3, 1.943623e+2, -847184.25, -1087388.5, -48856.605, 0.02944749, -0.31146148, -837627.25, 197591.97, 0.0, 10.001874, 9.998695 
1.5351163e+3, 2.0436114e+2, -798584.56, -952795.1, -51964.855, 0.044421636, -0.31783715, -782708.3, 154521.72, 0.0, 10.001274, 9.999236 
1.5351047e+3, 2.1436045e+2, -809311.2, -898071.9, -49838.02, 0.05830841, -0.3219792, -786957.44, 52278.85, 0.0, 10.000487, 9.999318 
1.5350932e+3, 2.2435987e+2, -791779.1, -818728.7, -35651.926, 0.060310848, -0.31739494, -767140.5, -25898.416, 0.0, 9.999849, 9.999497 
1.5350814e+3, 2.3435953e+2, -754527.25, -743492.3, -28703.918, 0.04538853, -0.30703276, -719780.4, -76533.94, 0.0, 9.999404, 9.999555 
1.5350698e+3, 2.4435927e+2, -710535.1, -623132.56, -27920.47, 0.038374092, -0.30609933, -614974.9, -69725.5, 0.0, 9.998826, 9.999987 
1.5350583e+3, 2.5435922e+2, -717021.6, -567517.1, -28324.71, 0.04256359, -0.31876028, -562330.75, -115081.56, 0.0, 9.998074, 10.000058 
1.5350468e+3, 2.6435947e+2, -705546.7, -491188.25, -23339.89, 0.052307017, -0.30510375, -488676.38, -139429.16, 0.0, 9.997394, 10.0002365 
1.5350355e+3, 2.7436012e+2, -688888.75, -424640.28, -25462.744, 0.06739495, -0.27093053, -422209.1, -170966.36, 0.0, 9.996801, 10.000305 
1.5350242e+3, 2.8436062e+2, -640335.94, -276179.88, -2247.6248, 0.059639968, -0.27762732, -276166.0, -122927.586, 0.0, 9.996142, 10.000969 
1.5350129e+3, 2.943613e+2, -646800.3, -225400.72, 5575.4097, 0.027100004, -0.3192551, -225326.97, -170095.7, 0.0, 9.995412, 10.000997 
1.535002e+3, 3.0436298e+2, -657541.94, -177152.53, 1315.4456, 0.044622008, -0.2564153, -177148.92, -177148.92, 0.0, 9.994883, 10.001248 
1.5349907e+3, 3.1436437e+2, -667100.9, -127351.23, -13848.385, 0.034234907, -0.25151286, -126996.16, -126996.16, 0.0, 9.994582, 10.001735 
1.545209e+3, 1.2438793e+2, -1002527.8, -1703926.5, -55026.426, -0.13538934, -0.31589907, -998237.06, 722732.0, 0.012610272, 10.0064125, 9.9969845 
1.5452003e+3, 1.3438539e+2, -1014478.94, -1657968.4, 41653.188, 0.016713878, -0.27262077, -1011793.94, 611201.25, 0.0076700766, 10.005604, 9.997021 
1.5451881e+3, 1.4438275e+2, -997466.25, -1543657.9, -6434.964, -0.11954594, -0.2586765, -997390.44, 527630.94, 0.0034726444, 10.004787, 9.997521 
1.5451775e+3, 1.5437987e+2, -1010636.06, -1490820.0, 9342.971, -0.010515499, -0.30806923, -1010454.3, 416594.25, 0.00097221014, 10.003975, 9.997603 
1.5451661e+3, 1.6437757e+2, -956322.25, -1343446.4, -637.90826, 0.029378714, -0.32476825, -956321.2, 372749.22, 0.00011401235, 10.003366, 9.998235 
1.5451539e+3, 1.7437612e+2, -902503.94, -1256588.1, -10768.11, -0.0003181006, -0.3047548, -902176.75, 328907.5, 0.0000011877057, 10.003019, 9.998325 
1.5451418e+3, 1.8437462e+2, -853665.25, -1134049.0, -25560.207, 0.0011104628, -0.30253628, -851354.2, 281744.03, 0.0, 10.002474, 9.998757 
1.5451297e+3, 1.9437324e+2, -866676.44, -1081330.0, -17126.107, 0.03569371, -0.32682642, -865318.6, 169792.53, 0.0, 10.001676, 9.998832 
1.5451175e+3, 2.0437214e+2, -835415.3, -968116.4, -18202.045, 0.05311372, -0.33537704, -832963.94, 104157.45, 0.0, 10.001013, 9.999255 
1.5451051e+3, 2.1437155e+2, -802887.75, -893300.3, -19434.53, 0.050850928, -0.3282442, -798887.25, 40239.63, 0.0, 10.000527, 9.9993305 
1.5450929e+3, 2.2437106e+2, -767322.0, -791082.1, -6205.7783, 0.0522476, -0.321375, -765798.75, -24666.889, 0.0, 9.999951, 9.999637 
1.545081e+3, 2.3437077e+2, -765574.9, -732755.44, -1673.661, 0.0576336, -0.3203416, -732670.3, -89535.055, 0.0, 9.999261, 9.999698 
1.5450688e+3, 2.4437061e+2, -735255.8, -630743.8, -5163.826, 0.055868346, -0.3191325, -630489.3, -85352.08, 0.0, 9.998639, 10.000024 
1.5450564e+3, 2.5437072e+2, -710561.0, -560965.9, -6296.6436, 0.04484, -0.31933114, -560701.3, -113565.18, 0.0, 9.998105, 10.000087 
1.5450442e+3, 2.64371e+2, -686821.7, -474451.4, 1345.6132, 0.04750102, -0.30556563, -474442.88, -125308.945, 0.0, 9.997492, 10.000303 
1.5450324e+3, 2.743716e+2, -687317.0, -416456.25, 4571.751, 0.067013584, -0.2854773, -416379.1, -165249.19, 0.0, 9.996783, 10.00037 
1.5450203e+3, 2.8437218e+2, -639110.0, -273111.56, 22860.516, 0.063804254, -0.2852609, -271689.2, -118564.7, 0.0, 9.996143, 10.000989 
1.5450084e+3, 2.9437315e+2, -619633.25, -209141.98, 11411.496, 0.034797512, -0.29776576, -208825.0, -153710.34, 0.0, 9.995587, 10.001023 
1.5449968e+3, 3.0437455e+2, -623430.94, -155749.23, 19530.676, 0.040771604, -0.27125773, -154935.05, -154935.05, 0.0, 9.995098, 10.00129 
1.5449852e+3, 3.143761e+2, -659475.5, -132849.86, 32614.27, 0.020576186, -0.2527288, -130837.734, -130837.734, 0.0, 9.9946785, 10.001649 
1.5552154e+3, 1.2439929e+2, -1012892.0, -1724943.9, -85496.625, -0.13713601, -0.30810517, -1002770.25, 718087.6, 0.013271104, 10.006412, 9.996841 
1.5552059e+3, 1.3439663e+2, -1019886.75, -1669119.5, 11367.882, 0.010085775, -0.27016005, -1019687.75, 603198.0, 0.008101702, 10.005604, 9.996945 
1.5551929e+3, 1.4439417e+2, -967454.6, -1482890.5, -36955.516, -0.11669161, -0.2520427, -964818.5, 560090.94, 0.003691155, 10.004793, 9.997939 
1.5551814e+3, 1.5439168e+2, -977612.06, -1425453.1, -21492.756, -0.01422142, -0.30931175, -976582.94, 450348.25, 0.0010454428, 10.003986, 9.998048 
1.5551694e+3, 1.643894e+2, -971064.7, -1377179.0, -15348.972, 0.019732956, -0.33404675, -970485.4, 358466.78, 0.00012576263, 10.003378, 9.997999 
1.5551566e+3, 1.7438757e+2, -921828.6, -1297682.8, -23612.46, -0.016688338, -0.32410383, -920351.0, 310620.16, 0.0000013544981, 10.003021, 9.998044 
1.555144e+3, 1.8438603e+2, -840296.44, -1107030.6, -54399.563, -0.009532637, -0.32171857, -829628.5, 303357.8, 0.0, 10.002474, 9.998944 
1.5551315e+3, 1.9438498e+2, -850238.06, -1049417.4, -47017.875, 0.047746934, -0.33290425, -839696.94, 195298.38, 0.0, 10.001682, 9.999048 
1.5551187e+3, 2.0438403e+2, -835483.8, -970530.25, -37084.2, 0.06713174, -0.33779928, -825970.56, 111033.44, 0.0, 10.00102, 9.999237 
1.5551056e+3, 2.1438333e+2, -804826.2, -898583.25, -37245.34, 0.039632905, -0.33864787, -791831.44, 47179.527, 0.0, 10.00053, 9.999293 
1.5550928e+3, 2.2438285e+2, -759464.5, -776196.5, -31096.826, 0.040142864, -0.33340254, -735627.94, 5387.8633, 0.0, 9.999955, 9.999738 
1.5550803e+3, 2.3438275e+2, -757110.0, -716908.1, -26826.432, 0.07671512, -0.32549453, -703487.4, -60470.348, 0.0, 9.999266, 9.999805 
1.5550676e+3, 2.443827e+2, -732482.75, -626835.44, -24757.57, 0.08538268, -0.31950998, -621321.5, -76303.65, 0.0, 9.998644, 10.00005 
1.5550546e+3, 2.5438282e+2, -708205.6, -557629.56, -25368.348, 0.05829973, -0.31916103, -553470.5, -106453.57, 0.0, 9.99811, 10.000109 
1.5550418e+3, 2.6438305e+2, -676376.1, -454124.03, -23953.088, 0.04553356, -0.31785905, -451571.8, -102556.64, 0.0, 9.997495, 10.0004425 
1.555029e+3, 2.7438352e+2, -677403.2, -396965.78, -20682.063, 0.04982058, -0.32475874, -395448.72, -144437.0, 0.0, 9.996785, 10.0005045 
1.5550163e+3, 2.8438434e+2, -653277.8, -304033.63, 3115.694, 0.052065894, -0.30286926, -304005.84, -151000.92, 0.0, 9.996147, 10.000776 
1.5550043e+3, 2.9438585e+2, -634125.4, -241835.19, -7945.8203, 0.05405644, -0.23596, -241674.31, -186682.84, 0.0, 9.995595, 10.000796 
1.554992e+3, 3.043868e+2, -597463.4, -104085.9, 4689.022, 0.049456045, -0.2569592, -104041.336, -104041.336, 0.0, 9.995106, 10.001643 
1.5549795e+3, 3.1438813e+2, -629492.1, -71838.47, 19215.28, -0.011902621, -0.29916355, -71177.14, -71177.14, 0.0, 9.99468, 10.0020685 
1.5652218e+3, 1.24411695e+2, -1019314.25, -1719937.4, -36844.113, -0.13808505, -0.3006345, -1017382.0, 703353.75, 0.013981107, 10.00634, 9.996908 
1.5652113e+3, 1.344088e+2, -1027263.9, -1658745.9, 72461.2, 0.010341686, -0.29809693, -1019055.75, 603709.4, 0.008567156, 10.005497, 9.9970665 
1.5651977e+3, 1.4440642e+2, -966156.7, -1483800.6, 23006.193, -0.108119525, -0.27759975, -965136.2, 559651.7, 0.003927899, 10.004811, 9.997922 
1.5651855e+3, 1.544041e+2, -929606.94, -1404638.5, 5270.683, -0.026269233, -0.31432962, -929548.5, 497259.97, 0.0011254781, 10.004331, 9.998023 
1.5651727e+3, 1.6440192e+2, -918947.5, -1342025.8, 5598.1675, 0.0061582695, -0.33333743, -918873.44, 409955.4, 0.000139023, 10.003696, 9.998085 
1.5651597e+3, 1.7440005e+2, -938767.2, -1295701.3, 23147.543, -0.009287422, -0.33667746, -937272.3, 293575.84, 0.0000015912761, 10.002864, 9.998132 
1.5651464e+3, 1.8439853e+2, -874527.6, -1122330.3, 1196.5579, 0.0007320159, -0.33415788, -874521.9, 258341.16, 0.0, 10.002236, 9.998953 
1.5651332e+3, 1.9439766e+2, -822775.8, -1035754.6, -7467.1084, 0.03830425, -0.32780823, -822514.3, 212356.53, 0.0, 10.001871, 9.99905 
1.5651198e+3, 2.0439675e+2, -785180.0, -941985.8, -5437.8726, 0.05684322, -0.3293565, -784991.6, 151887.47, 0.0, 10.001349, 9.999272 
1.5651062e+3, 2.1439596e+2, -788488.6, -886978.2, -1354.9044, 0.052296676, -0.34507677, -788470.0, 50416.83, 0.0, 10.0006275, 9.999326 
1.565093e+3, 2.2439542e+2, -757248.44, -776276.56, 2641.183, 0.056419596, -0.34468347, -756888.6, -15996.65, 0.0, 9.999977, 9.999726 
1.5650795e+3, 2.343954e+2, -736294.3, -708142.44, -3256.9504, 0.07171311, -0.32842812, -707770.56, -64877.926, 0.0, 9.999417, 9.99979 
1.5650663e+3, 2.4439536e+2, -713523.25, -615591.0, -7156.9614, 0.074989796, -0.3203185, -615070.75, -70177.3, 0.0, 9.998769, 10.000065 
1.5650527e+3, 2.5439543e+2, -721021.2, -562236.75, -8716.62, 0.06291149, -0.32682323, -561759.6, -114866.586, 0.0, 9.998016, 10.000121 
1.5650392e+3, 2.6439568e+2, -681062.56, -446317.3, -6902.1245, 0.052246016, -0.32829726, -446114.53, -97223.484, 0.0, 9.997421, 10.000531 
1.5650257e+3, 2.7439627e+2, -637798.3, -367572.06, -8292.738, 0.042895716, -0.33145085, -367317.8, -116431.69, 0.0, 9.997015, 10.000594 
1.5650126e+3, 2.8439718e+2, -615095.4, -296774.2, 14994.242, 0.043593053, -0.29907104, -296069.47, -143190.92, 0.0, 9.996459, 10.000674 
1.5649998e+3, 2.9439878e+2, -622234.6, -247925.39, 12706.714, 0.057495773, -0.21591026, -247494.53, -192629.2, 0.0, 9.995731, 10.000688 
1.5649872e+3, 3.043993e+2, -587944.06, -98902.805, 25828.34, 0.050498083, -0.26960638, -97542.484, -97542.484, 0.0, 9.995171, 10.001646 
1.5649742e+3, 3.1440094e+2, -599247.4, -39163.64, 14242.455, -0.011410185, -0.28549567, -38801.7, -38801.7, 0.0, 9.994812, 10.002229 
1.575228e+3, 1.2442516e+2, -1002628.06, -1686323.3, -69027.63, -0.13925725, -0.2934607, -995728.5, 724873.94, 0.014750819, 10.006346, 9.997141 
1.575217e+3, 1.344219e+2, -1007155.1, -1618193.9, 39836.645, 0.015741555, -0.3538102, -1004568.9, 618064.56, 0.009073121, 10.005505, 9.997343 
1.5752026e+3, 1.4441949e+2, -994648.0, -1544771.1, 2930.8833, -0.095341675, -0.3323884, -994632.4, 530024.44, 0.004186647, 10.004818, 9.997501 
1.5751895e+3, 1.5441716e+2, -962093.3, -1473125.4, -12619.647, -0.046366718, -0.32300428, -961781.8, 464898.28, 0.0012140321, 10.004333, 9.997553 
1.5751763e+3, 1.644151e+2, -891936.1, -1287185.9, -24836.297, -0.011490413, -0.3234917, -890381.6, 438318.63, 0.00015414276, 10.003699, 9.998462 
1.5751629e+3, 1.7441349e+2, -907665.1, -1233417.0, -8407.31, 0.020317368, -0.3427349, -907448.3, 323267.0, 0.0000019351096, 10.0028715, 9.998557 
1.575149e+3, 1.8441212e+2, -885140.56, -1146691.8, -13733.777, 0.030179827, -0.33997637, -884421.4, 248307.11, 0.0, 10.002243, 9.998783 
1.5751347e+3, 1.9441126e+2, -836958.75, -1066583.0, -20908.674, 0.0072447695, -0.3119275, -835070.44, 199667.4, 0.0, 10.001875, 9.998837 
1.5751208e+3, 2.0441033e+2, -779510.1, -931233.0, -31579.982, 0.022449056, -0.31047705, -773199.5, 163547.47, 0.0, 10.001351, 9.999347 
1.5751071e+3, 2.1440938e+2, -781476.75, -873906.1, -28111.342, 0.087714545, -0.34786817, -773598.5, 65156.254, 0.0, 10.000631, 9.999414 
1.5750933e+3, 2.2440876e+2, -765551.75, -795465.1, -18228.89, 0.09949044, -0.35535717, -756928.9, -16168.346, 0.0, 9.999983, 9.999593 
1.5750787e+3, 2.3440869e+2, -745672.06, -729284.56, -23625.057, 0.042986654, -0.3293529, -712472.7, -69710.195, 0.0, 9.999422, 9.999644 
1.5750645e+3, 2.4440856e+2, -712650.56, -615433.44, -34208.938, 0.025691012, -0.32163534, -604602.56, -59838.27, 0.0, 9.998774, 10.000065 
1.5750507e+3, 2.5440854e+2, -720080.1, -561657.4, -35695.582, 0.05737206, -0.34123138, -553986.0, -107221.19, 0.0, 9.99802, 10.000125 
1.5750368e+3, 2.6440886e+2, -678676.25, -443294.3, -21287.621, 0.06564779, -0.33623722, -441384.56, -92622.61, 0.0, 9.997427, 10.00055 
1.5750228e+3, 2.7440977e+2, -634495.8, -363479.5, -22153.125, 0.045697767, -0.3075478, -361680.63, -110926.73, 0.0, 9.997024, 10.00062 
1.5750091e+3, 2.8441072e+2, -613422.7, -295686.47, -10966.852, 0.037889235, -0.27565923, -295308.38, -142562.27, 0.0, 9.996467, 10.00068 
1.5749955e+3, 2.9441184e+2, -622084.0, -248520.52, -13588.566, 0.04278411, -0.2377649, -248026.88, -193289.94, 0.0, 9.995732, 10.000685 
1.5749823e+3, 3.0441204e+2, -612435.0, -150930.48, 13012.095, 0.041991066, -0.30800375, -150563.89, -150563.89, 0.0, 9.995173, 10.001289 
1.5749693e+3, 3.1441423e+2, -604023.0, -51974.938, 6044.038, 0.018332465, -0.22805107, -51908.773, -51908.773, 0.0, 9.994822, 10.002138 
1.5852346e+3, 1.244391e+2, -995567.44, -1689495.5, -34569.28, -0.13210422, -0.3229636, -993849.56, 726614.5, 0.015584838, 10.006432, 9.997076 
1.5852223e+3, 1.3443598e+2, -988093.7, -1611569.9, 52540.35, 0.0051143533, -0.3671797, -983697.1, 638796.8, 0.00962319, 10.005656, 9.997313 
1.5852076e+3, 1.4443363e+2, -984846.56, -1542399.8, 24050.682, -0.09455293, -0.33429912, -983811.0, 540705.7, 0.0044698054, 10.004902, 9.997474 
1.5851939e+3, 1.5443109e+2, -988464.25, -1489642.9, 38601.695, -0.04119383, -0.34388772, -985508.5, 441034.1, 0.0013121498, 10.004171, 9.997516 
1.5851799e+3, 1.6442901e+2, -914354.44, -1294021.9, 28537.986, -0.005449042, -0.34488565, -912221.4, 416341.75, 0.00017116417, 10.0035305, 9.998495 
1.5851657e+3, 1.7442764e+2, -885113.6, -1218185.8, 16173.226, 0.022292601, -0.34232378, -884330.1, 346245.72, 0.0000023797534, 10.003011, 9.998592 
1.5851514e+3, 1.8442638e+2, -857422.5, -1136248.0, 6257.116, 0.028830836, -0.33196178, -857282.1, 275306.25, 0.0, 10.00245, 9.998754 
1.5851367e+3, 1.9442539e+2, -846347.56, -1074940.3, 11332.295, 0.003370092, -0.3135287, -845787.1, 188812.11, 0.0, 10.00183, 9.9988 
1.585122e+3, 2.044244e+2, -795008.75, -936611.56, 14.793476, 0.01793089, -0.3139329, -795008.75, 141600.06, 0.0, 10.001238, 9.999363 
1.5851077e+3, 2.1442355e+2, -773247.3, -867281.25, -2600.288, 0.08476454, -0.3439036, -773175.44, 65440.113, 0.0, 10.00068, 9.999435 
1.5850933e+3, 2.244229e+2, -754758.56, -802770.75, 7468.6177, 0.097760394, -0.3508042, -753623.56, -13001.821, 0.0, 10.0001135, 9.999478 
1.5850782e+3, 2.3442261e+2, -736416.1, -738765.8, 3331.9224, 0.041930627, -0.33277643, -734058.0, -91432.055, 0.0, 9.999547, 9.999518 
1.5850633e+3, 2.4442242e+2, -683735.7, -601790.94, -11093.363, 0.022920888, -0.3244202, -600315.7, -55687.195, 0.0, 9.998976, 10.00006 
1.5850489e+3, 2.544225e+2, -666520.06, -535093.94, -14164.222, 0.04978837, -0.33239323, -533584.75, -86956.89, 0.0, 9.998388, 10.000128 
1.5850343e+3, 2.644228e+2, -637975.44, -433690.88, 554.46484, 0.05929329, -0.32690793, -433689.38, -85063.97, 0.0, 9.997753, 10.000457 
1.5850198e+3, 2.7442348e+2, -635789.75, -374842.0, -9641.902, 0.048485912, -0.31061095, -374486.22, -123866.695, 0.0, 9.997065, 10.00052 
1.5850055e+3, 2.844243e+2, -603923.75, -287722.5, -3376.0193, 0.041285004, -0.28339118, -287686.44, -135073.97, 0.0, 9.996521, 10.000707 
1.5849914e+3, 2.9442552e+2, -560659.6, -215087.73, -4848.032, 0.035475314, -0.24277034, -215019.73, -160417.42, 0.0, 9.9961405, 10.000715 
1.5849775e+3, 3.044256e+2, -569856.75, -155005.52, 27997.492, 0.03381668, -0.31601343, -153124.55, -153124.55, 0.0, 9.995574, 10.001066 
1.5849642e+3, 3.144277e+2, -598601.9, -40085.613, 36029.734, 0.02827067, -0.22186527, -37770.938, -37770.938, 0.0, 9.994822, 10.002217 
1.5952411e+3, 1.244536e+2, -1019104.06, -1737968.9, -65302.445, -0.11852107, -0.38261697, -1013220.06, 707099.6, 0.016481131, 10.006431, 9.996743 
1.5952277e+3, 1.3445102e+2, -1009107.25, -1656843.6, 23062.47, -0.020245053, -0.34232983, -1008287.1, 614059.1, 0.010216809, 10.005662, 9.997 
1.5952122e+3, 1.4444888e+2, -961283.0, -1495668.0, -3932.4255, -0.1047931, -0.28839475, -961254.06, 563113.4, 0.004777623, 10.00491, 9.997793 
1.5951984e+3, 1.5444589e+2, -963006.0, -1438532.4, 10511.071, -0.013398458, -0.37614104, -962773.75, 463622.1, 0.0014199475, 10.004176, 9.997866 
1.5951838e+3, 1.6444369e+2, -934548.75, -1338030.5, 7846.5303, 0.021563223, -0.3949283, -934396.2, 394021.3, 0.00018990267, 10.003537, 9.998191 
1.5951686e+3, 1.7444253e+2, -908158.4, -1268401.4, -3304.7886, -0.0024493583, -0.33569068, -908128.06, 322301.7, 0.0000028938316, 10.003018, 9.998246 
1.5951535e+3, 1.8444127e+2, -849806.25, -1122375.9, -16913.457, -0.0020224953, -0.31092584, -848760.75, 283681.94, 0.0, 10.002456, 9.998847 
1.5951386e+3, 1.9444e+2, -837518.9, -1057931.6, -11794.381, 0.025366921, -0.33212316, -836889.5, 197565.7, 0.0, 10.001833, 9.998917 
1.5951236e+3, 2.04439e+2, -797559.06, -943357.06, -20925.775, 0.041324608, -0.3389129, -794615.1, 141849.67, 0.0, 10.001242, 9.999317 
1.5951082e+3, 2.1443845e+2, -776330.6, -875431.56, -23253.354, 0.044037737, -0.33279637, -771145.7, 67323.695, 0.0, 10.000685, 9.999378 
1.5950929e+3, 2.244378e+2, -761276.44, -818165.1, -13492.004, 0.052413218, -0.3310572, -758238.8, -17762.96, 0.0, 10.000119, 9.999372 
1.595078e+3, 2.3443715e+2, -743744.5, -755278.7, -16900.55, 0.06720272, -0.33866197, -731654.2, -89170.875, 0.0, 9.99955, 9.999405 
1.5950628e+3, 2.444369e+2, -685036.9, -606018.75, -32087.979, 0.06436616, -0.32853588, -594629.8, -50143.383, 0.0, 9.998979, 10.000031 
1.5950471e+3, 2.544373e+2, -666800.94, -537766.06, -35169.76, 0.03972609, -0.30108276, -528802.8, -82319.93, 0.0, 9.998394, 10.000109 
1.5950318e+3, 2.6443744e+2, -651494.25, -463933.75, -24209.81, 0.03341415, -0.30088523, -460859.2, -112377.125, 0.0, 9.99776, 10.000247 
1.5950169e+3, 2.7443734e+2, -651520.0, -408434.6, -34228.516, 0.04987759, -0.3400335, -403706.88, -153223.23, 0.0, 9.9970665, 10.00029 
1.5950021e+3, 2.8443798e+2, -600905.25, -282836.8, -16544.121, 0.052074075, -0.32198986, -281978.6, -129500.336, 0.0, 9.996524, 10.00074 
1.5949874e+3, 2.9443973e+2, -555418.25, -207753.19, -18053.701, 0.033843454, -0.23212801, -206818.2, -152355.77, 0.0, 9.996153, 10.000762 
1.594973e+3, 3.044399e+2, -575552.8, -169700.34, 447.44174, 0.024377331, -0.29289776, -169699.86, -169699.86, 0.0, 9.995584, 10.000962 
1.594959e+3, 3.1444114e+2, -583832.1, -9803.642, 13519.776, 0.014250785, -0.2789628, -9485.394, -9485.394, 0.0, 9.994821, 10.002427 
1.6052474e+3, 1.24469124e+2, -1042982.8, -1740675.1, -63369.883, -0.11157855, -0.3683307, -1037273.8, 682893.94, 0.017435716, 10.006234, 9.996818 
1.6052333e+3, 1.3446623e+2, -1001497.1, -1642344.0, 51415.605, -0.030768445, -0.3686834, -997398.25, 624798.56, 0.010852088, 10.005674, 9.997092 
1.6052173e+3, 1.4446424e+2, -938151.7, -1474227.1, 28524.16, -0.10436845, -0.3101458, -936638.25, 587578.1, 0.005109625, 10.005031, 9.997882 
1.6052026e+3, 1.5446165e+2, -940020.4, -1417014.9, 24053.441, -0.0147240115, -0.36403248, -938810.5, 487430.22, 0.0015373357, 10.004295, 9.997953 
1.6051872e+3, 1.6445948e+2, -925335.1, -1345512.1, 25201.44, 0.01842805, -0.37756404, -923828.94, 404433.03, 0.00021024626, 10.003657, 9.998079 
1.6051716e+3, 1.7445795e+2, -900907.94, -1278859.0, 29087.248, -0.008854457, -0.34659982, -898682.5, 331595.84, 0.0000034510517, 10.003133, 9.998117 
1.6051559e+3, 1.8445648e+2, -842036.94, -1115136.9, 14820.951, -0.0067499937, -0.33531177, -841234.94, 291057.97, 0.0, 10.002498, 9.998876 
1.6051404e+3, 1.9445528e+2, -850656.3, -1060186.9, 12964.986, 0.028898945, -0.3527577, -849857.2, 184446.9, 0.0, 10.001729, 9.99895 
1.6051246e+3, 2.0445429e+2, -819261.0, -970386.4, 5980.88, 0.041675054, -0.3521594, -819024.7, 117288.875, 0.0, 10.001167, 9.999166 
1.6051087e+3, 2.1445371e+2, -762172.25, -886753.6, -4353.6924, 0.026524238, -0.3333242, -762020.25, 76299.26, 0.0, 10.000863, 9.999213 
1.605093e+3, 2.24453e+2, -724995.8, -795079.06, -2828.2058, 0.03624503, -0.33117196, -724881.9, 15444.908, 0.0, 10.000346, 9.999418 
1.6050777e+3, 2.3445226e+2, -738184.94, -745698.56, 4936.958, 0.07666992, -0.3542161, -735737.94, -93403.61, 0.0, 9.999562, 9.999462 
1.6050619e+3, 2.4445197e+2, -702734.8, -629042.56, -1817.9497, 0.080361106, -0.34422627, -628997.75, -84659.984, 0.0, 9.998924, 9.999897 
1.6050455e+3, 2.5445244e+2, -665345.7, -553161.25, -14392.054, 0.03783111, -0.297303, -551344.4, -105009.81, 0.0, 9.998477, 9.999961 
1.6050296e+3, 2.644525e+2, -625709.44, -461485.1, -8934.714, 0.025584603, -0.29135436, -461000.44, -112665.73, 0.0, 9.997984, 10.0001545 
1.6050142e+3, 2.7445218e+2, -605812.8, -396626.4, -10150.723, 0.05135561, -0.34320104, -396135.0, -145796.89, 0.0, 9.997428, 10.000195 
1.6049987e+3, 2.8445265e+2, -554928.4, -267166.47, 14843.124, 0.05559015, -0.33589795, -266402.84, -114068.414, 0.0, 9.996872, 10.000678 
1.6049837e+3, 2.9445425e+2, -539126.94, -206021.84, 4088.2546, 0.030054528, -0.24988534, -205971.67, -151652.13, 0.0, 9.996296, 10.000702 
1.6049686e+3, 3.0445465e+2, -587277.0, -179909.23, 7200.4565, 0.024876397, -0.2848145, -179782.0, -179782.0, 0.0, 9.995526, 10.000917 
1.6049536e+3, 3.1445554e+2, -605435.75, -1638.1283, 29025.738, 0.018933374, -0.3004295, -246.01376, -246.01376, 0.0, 9.994596, 10.00259 
1.6152537e+3, 1.244857e+2, -1015598.25, -1681717.6, -84645.39, -0.11160116, -0.2873525, -1005010.44, 714997.06, 0.018448785, 10.00623, 9.99723 
1.6152391e+3, 1.3448168e+2, -972129.6, -1580090.9, 29567.604, -0.028829098, -0.4412871, -970695.0, 651349.6, 0.011530223, 10.0056715, 9.997525 
1.6152224e+3, 1.4447977e+2, -946630.4, -1492868.8, 11.227226, -0.095384076, -0.39230078, -946630.4, 577432.4, 0.0054671764, 10.0050335, 9.997753 
1.6152066e+3, 1.544784e+2, -949788.75, -1440506.5, -3934.128, -0.043723144, -0.3107006, -949757.25, 476319.88, 0.0016652163, 10.004306, 9.997788 
1.6151907e+3, 1.6447642e+2, -919659.8, -1336933.5, 4697.113, -0.012987771, -0.29819357, -919606.94, 408489.78, 0.00023249662, 10.003668, 9.998135 
1.6151749e+3, 1.7447387e+2, -895949.56, -1269782.0, 9226.217, 0.0017573325, -0.37464896, -895721.94, 334399.56, 0.0000040571285, 10.003135, 9.998179 
1.6151586e+3, 1.8447202e+2, -844644.56, -1121889.4, -13853.145, 0.01226611, -0.4025108, -843954.1, 288184.8, 0.0, 10.002501, 9.998829 
1.615142e+3, 1.9447123e+2, -852896.75, -1067985.3, -15926.383, 0.013999576, -0.37448192, -851723.8, 182421.98, 0.0, 10.0017395, 9.998893 
1.6151255e+3, 2.0447028e+2, -836170.44, -1008574.2, -6442.3516, 0.019551953, -0.353617, -835930.06, 100225.19, 0.0, 10.001178, 9.998899 
1.6151096e+3, 2.1446931e+2, -781186.25, -927440.4, -15126.974, 0.030870765, -0.34568897, -779638.06, 58528.145, 0.0, 10.000865, 9.998934 
1.6150934e+3, 2.2446845e+2, -711620.9, -768280.56, -30885.334, 0.04731168, -0.35096306, -698040.3, 42134.594, 0.0, 10.000348, 9.999603 
1.6150771e+3, 2.3446788e+2, -722383.75, -714673.4, -23953.652, 0.07041837, -0.37839812, -694266.7, -52087.277, 0.0, 9.999567, 9.999675 
1.6150607e+3, 2.4446757e+2, -719081.25, -665094.5, -18628.875, 0.07136759, -0.37057215, -659290.4, -115107.51, 0.0, 9.99893, 9.999648 
1.615044e+3, 2.544678e+2, -684220.7, -593798.75, -29814.742, 0.043194696, -0.32092407, -584853.0, -138669.61, 0.0, 9.998481, 9.999681 
1.6150276e+3, 2.6446787e+2, -624909.75, -461588.38, -28139.66, 0.034394678, -0.2980732, -456875.97, -108692.06, 0.0, 9.997988, 10.000154 
1.6150115e+3, 2.744679e+2, -603417.25, -394327.4, -29688.42, 0.051621832, -0.3194799, -390193.7, -140009.89, 0.0, 9.997437, 10.000208 
1.6149956e+3, 2.8446814e+2, -565561.4, -291639.88, -5992.4014, 0.05062037, -0.32508558, -291508.88, -139326.86, 0.0, 9.996879, 10.000508 
1.6149798e+3, 2.94469e+2, -551181.1, -232452.52, -17694.994, 0.02314179, -0.297911, -231473.14, -177298.2, 0.0, 9.996299, 10.000521 
1.6149643e+3, 3.044697e+2, -585523.56, -177339.42, -26864.988, 0.03458401, -0.29144844, -175578.88, -175578.88, 0.0, 9.995528, 10.000936 
1.6149485e+3, 3.1447086e+2, -598631.94, 10255.951, 190.54486, 0.038261306, -0.28056344, 10256.011, 10256.011, 0.0, 9.994602, 10.00267 
1.6252598e+3, 1.24502406e+2, -1062546.1, -1693258.4, -33906.008, -0.09794419, -0.28541672, -1060728.6, 659115.5, 0.019526215, 10.005862, 9.997326 
1.6252445e+3, 1.3449855e+2, -1000662.56, -1582656.5, 57215.465, -0.028717468, -0.43348598, -995091.1, 626788.6, 0.012256312, 10.005433, 9.997621 
1.6252275e+3, 1.444967e+2, -955393.9, -1499908.6, 14716.029, -0.08462822, -0.3803471, -954996.44, 568900.5, 0.0058537386, 10.0049925, 9.997723 
1.625211e+3, 1.5449512e+2, -919545.3, -1430492.6, 17883.17, -0.046795476, -0.3146898, -918920.1, 506992.94, 0.0018055603, 10.004538, 9.997745 
1.6251944e+3, 1.6449308e+2, -884317.06, -1317039.9, 25335.906, -0.018208526, -0.30697173, -882838.75, 445094.38, 0.00025741154, 10.0039015, 9.998157 
1.6251779e+3, 1.7449063e+2, -907214.75, -1272059.3, 26339.693, 0.008615976, -0.37564224, -905322.94, 324633.66, 0.0000047593935, 10.003048, 9.998204 
1.6251612e+3, 1.8448874e+2, -861426.1, -1145832.3, 4389.33, 0.01877621, -0.4031683, -861358.4, 270616.03, 0.0, 10.002457, 9.998684 
1.6251437e+3, 1.944877e+2, -799754.56, -1059619.4, -5456.053, 0.0049704835, -0.382859, -799640.0, 234343.56, 0.0, 10.002183, 9.998735 
1.6251269e+3, 2.044866e+2, -778469.9, -984417.56, 2808.5288, 0.011717225, -0.36783957, -778431.56, 157562.97, 0.0, 10.001593, 9.998863 
1.6251105e+3, 2.1448557e+2, -820562.1, -949826.8, 11270.875, 0.044521034, -0.36382598, -819586.75, 18419.4, 0.0, 10.000613, 9.9989 
1.6250937e+3, 2.244847e+2, -767952.3, -801397.4, 1997.9391, 0.058367588, -0.36507162, -767833.4, -27818.514, 0.0, 9.99999, 9.999547 
1.6250765e+3, 2.344842e+2, -691407.2, -706057.6, -11438.34, 0.048952702, -0.37894982, -685149.5, -43130.676, 0.0, 9.999809, 9.999616 
1.6250595e+3, 2.4448381e+2, -657052.25, -639808.2, -14271.735, 0.046385102, -0.3737946, -631756.25, -87733.12, 0.0, 9.999379, 9.999604 
1.6250426e+3, 2.5448376e+2, -664309.8, -588905.7, -9292.886, 0.05060173, -0.34554425, -587777.3, -141751.31, 0.0, 9.998641, 9.999636 
1.6250257e+3, 2.6448384e+2, -616905.8, -459806.1, 4537.7495, 0.04947026, -0.31877857, -459675.13, -111648.625, 0.0, 9.998055, 10.00013 
1.625009e+3, 2.7448416e+2, -573962.2, -381950.38, 362.12402, 0.04337121, -0.30787152, -381949.7, -131926.05, 0.0, 9.99765, 10.000187 
1.6249925e+3, 2.8448436e+2, -544915.4, -290426.94, 17315.69, 0.035935964, -0.3137114, -289254.2, -137231.61, 0.0, 9.997062, 10.000426 
1.6249761e+3, 2.9448476e+2, -567361.0, -249154.73, 10408.115, 0.024122234, -0.31990117, -248814.67, -194794.84, 0.0, 9.996229, 10.000438 
1.6249599e+3, 3.0448577e+2, -592092.1, -167996.17, 4724.2954, 0.0589945, -0.28590927, -167943.55, -167943.55, 0.0, 9.995432, 10.001045 
1.6249432e+3, 3.144868e+2, -579479.06, 20227.238, 41193.16, 0.054636132, -0.29757175, 23043.525, 23043.525, 0.0, 9.994733, 10.002675 
1.635266e+3, 1.2451937e+2, -1073955.6, -1718924.3, -51557.676, -0.07511493, -0.34960097, -1069860.1, 649816.25, 0.020676048, 10.005873, 9.997143 
1.6352499e+3, 1.3451676e+2, -1014329.9, -1612881.6, 40409.496, -0.03126799, -0.3532099, -1011614.06, 610088.2, 0.01303621, 10.005442, 9.997408 
1.6352326e+3, 1.4451496e+2, -951977.6, -1494349.9, -3363.6204, -0.072637536, -0.28434432, -951956.75, 571762.5, 0.0062727635, 10.004998, 9.99776 
1.6352156e+3, 1.545119e+2, -916440.44, -1424272.3, 229.73988, -0.026397465, -0.37179765, -916440.3, 509307.63, 0.0019602042, 10.004537, 9.997789 
1.6351983e+3, 1.6450956e+2, -885253.75, -1319858.5, -6763.9165, 0.00006246112, -0.3963021, -885148.5, 442621.8, 0.00028583084, 10.003902, 9.998138 
1.6351809e+3, 1.7450823e+2, -907027.06, -1274873.9, -6157.079, 0.011005602, -0.35040447, -906924.0, 322859.56, 0.000005611926, 10.003058, 9.998181 
1.6351634e+3, 1.8450658e+2, -877311.2, -1181955.4, -7271.17, 0.01283992, -0.3410795, -877137.75, 254661.9, 0.0, 10.002468, 9.998432 
1.635146e+3, 1.9450468e+2, -817936.9, -1098326.9, -15437.585, 0.0011759293, -0.37956443, -817089.44, 216728.03, 0.0, 10.002184, 9.99847 
1.6351286e+3, 2.0450322e+2, -765920.8, -959233.06, -32448.88, 0.016893722, -0.394913, -760619.44, 175212.1, 0.0, 10.001594, 9.999038 
1.6351113e+3, 2.1450242e+2, -805733.6, -921592.56, -25341.154, 0.066813916, -0.38665795, -800433.4, 37406.07, 0.0, 10.000621, 9.999092 
1.6350937e+3, 2.2450168e+2, -787668.94, -845341.4, -5824.3574, 0.06902014, -0.37260175, -787086.6, -47239.49, 0.0, 10.0, 9.999242 
1.6350761e+3, 2.3450112e+2, -713952.06, -754677.8, -17318.291, 0.011940007, -0.35717672, -707583.5, -65730.336, 0.0, 9.999815, 9.999281 
1.6350585e+3, 2.445006e+2, -646476.06, -619145.6, -40001.793, 0.004987835, -0.35507712, -590539.3, -46680.28, 0.0, 9.999381, 9.999746 
1.6350414e+3, 2.5450027e+2, -651850.9, -564898.25, -35783.09, 0.059556726, -0.37047642, -552066.3, -106203.4, 0.0, 9.998646, 9.9998 
1.6350241e+3, 2.6450035e+2, -619623.44, -467584.66, -10322.934, 0.07009552, -0.3526936, -466886.97, -119023.77, 0.0, 9.998062, 10.000075 
1.6350065e+3, 2.745009e+2, -577841.1, -391993.84, -13712.491, 0.026429834, -0.30926314, -390987.53, -141128.94, 0.0, 9.997656, 10.000116 
1.6349892e+3, 2.845012e+2, -544660.2, -291579.03, -12092.215, 0.010960652, -0.302214, -291002.56, -139145.45, 0.0, 9.997066, 10.000418 
1.6349724e+3, 2.9450154e+2, -566232.2, -248988.0, -20561.7, 0.030718429, -0.31404364, -247660.88, -193805.77, 0.0, 9.996235, 10.000438 
1.6349557e+3, 3.045028e+2, -577692.0, -139734.5, -21640.025, 0.09621485, -0.26745537, -138667.84, -138667.84, 0.0, 9.995436, 10.001239 
1.6349381e+3, 3.1450343e+2, -586261.4, 4478.736, 17434.807, 0.0681175, -0.33743593, 4992.85, 4992.85, 0.0, 9.994738, 10.002566 
1.645272e+3, 1.24537125e+2, -1070245.6, -1731787.9, -43662.13, -0.06649191, -0.3610551, -1067376.3, 652125.2, 0.02190535, 10.005974, 9.9970045 
1.6452552e+3, 1.3453454e+2, -1016274.44, -1632382.9, 49506.65, -0.044343438, -0.34551433, -1012321.75, 609206.5, 0.013873846, 10.005516, 9.997236 
1.6452375e+3, 1.4453273e+2, -949131.3, -1483856.9, 3846.2227, -0.07118623, -0.27223226, -949103.6, 574441.94, 0.006726061, 10.004983, 9.997839 
1.64522e+3, 1.5452951e+2, -938163.5, -1424671.6, 9899.489, -0.023374112, -0.385246, -937962.1, 487612.9, 0.002129869, 10.004347, 9.997876 
1.6452023e+3, 1.6452713e+2, -904373.7, -1334804.6, -205.91635, -0.00060758577, -0.41525587, -904373.6, 423223.88, 0.00031820204, 10.003799, 9.998084 
1.645184e+3, 1.7452595e+2, -868439.1, -1263339.6, -3504.755, -0.00025726442, -0.34814802, -868408.06, 361201.7, 0.0000066388466, 10.003357, 9.998116 
1.645166e+3, 1.8452431e+2, -838777.44, -1164396.4, 4107.176, 0.0059399824, -0.33209053, -838725.6, 292900.06, 0.0, 10.00274, 9.99842 
1.6451482e+3, 1.9452229e+2, -859514.4, -1119859.5, 13489.601, 0.016323356, -0.38250268, -858817.25, 174827.48, 0.0, 10.001907, 9.998454 
1.64513e+3, 2.0452073e+2, -807172.0, -986436.7, -4259.266, 0.031899486, -0.40180624, -807070.9, 128588.65, 0.0, 10.001345, 9.998969 
1.6451119e+3, 2.1451993e+2, -740317.7, -898004.25, -17911.354, 0.05512314, -0.38779825, -738308.75, 99358.76, 0.0, 10.001107, 9.999018 
1.6450939e+3, 2.2451913e+2, -708289.9, -814724.7, 1803.0284, 0.05517882, -0.3706546, -708259.3, 31416.37, 0.0, 10.000581, 9.999171 
1.645076e+3, 2.3451853e+2, -734965.25, -772973.4, 8874.198, 0.025119467, -0.35482827, -732995.4, -91312.63, 0.0, 9.999708, 9.999205 
1.6450578e+3, 2.4451792e+2, -692572.94, -638235.7, -9704.808, 0.022073379, -0.3553795, -636554.44, -92865.37, 0.0, 9.999054, 9.999771 
1.6450399e+3, 2.5451756e+2, -648179.25, -559818.25, -16708.29, 0.052856904, -0.37738323, -556764.4, -111071.58, 0.0, 9.998659, 9.999826 
1.645022e+3, 2.645176e+2, -610829.75, -463091.56, 5484.8887, 0.06036969, -0.36293644, -462888.22, -115195.22, 0.0, 9.998124, 10.000074 
1.6450042e+3, 2.745182e+2, -611548.1, -408622.0, 6492.401, 0.0379855, -0.31871837, -408414.5, -158726.02, 0.0, 9.997429, 10.00011 
1.6449863e+3, 2.8451842e+2, -579875.1, -306958.88, 6097.8276, 0.02119248, -0.31385183, -306822.72, -155135.48, 0.0, 9.99682, 10.000428 
1.6449685e+3, 2.9451877e+2, -557019.94, -240884.34, -2415.2285, 0.015595808, -0.32979572, -240865.9, -187180.44, 0.0, 9.996286, 10.000466 
1.6449513e+3, 3.0452016e+2, -535155.9, -103216.734, -5121.7964, 0.1022643, -0.27312505, -103156.016, -103156.016, 0.0, 9.995662, 10.001378 
1.6449332e+3, 3.1452096e+2, -572230.4, -12926.114, 27443.28, 0.090021536, -0.3420361, -11582.786, -11582.786, 0.0, 9.994941, 10.002346 
1.6552778e+3, 1.24555685e+2, -1078917.4, -1749437.1, -61202.656, -0.07297375, -0.3253327, -1073376.8, 645942.25, 0.023219623, 10.005975, 9.996885 
1.6552605e+3, 1.3455202e+2, -1026244.3, -1654278.5, 32269.658, -0.06749187, -0.40263844, -1024590.6, 596765.8, 0.014771694, 10.005523, 9.997085 
1.6552424e+3, 1.4455014e+2, -940635.7, -1468324.8, -20145.967, -0.07996927, -0.33455825, -939867.7, 583506.9, 0.007214548, 10.004991, 9.997944 
1.6552243e+3, 1.5454791e+2, -928329.8, -1407178.5, -14547.381, -0.03747313, -0.35841763, -927888.25, 497506.03, 0.0023146337, 10.004357, 9.997993 
1.6552058e+3, 1.6454573e+2, -910130.56, -1349110.0, -17839.06, -0.019791279, -0.37005103, -909406.8, 418008.06, 0.00035458407, 10.003806, 9.997984 
1.6551872e+3, 1.745438e+2, -876426.8, -1280480.3, -20059.379, -0.024329728, -0.36809552, -875433.4, 354001.28, 0.000007849871, 10.003356, 9.998 
1.6551687e+3, 1.8454197e+2, -824819.6, -1135706.0, -26420.05, -0.0021767796, -0.37277895, -822590.3, 308861.8, 0.0, 10.002738, 9.998619 
1.6551504e+3, 1.945405e+2, -843674.06, -1088957.9, -17668.242, 0.0490215, -0.39035276, -842407.94, 191057.47, 0.0, 10.001913, 9.998665 
1.6551317e+3, 2.0453912e+2, -828001.8, -1032259.2, -14014.036, 0.055462226, -0.38867924, -827044.75, 108434.016, 0.0, 10.001353, 9.998652 
1.6551127e+3, 2.1453802e+2, -763630.9, -948151.56, -26203.623, 0.009764444, -0.3687381, -759981.9, 77508.805, 0.0, 10.001112, 9.998673 
1.6550942e+3, 2.2453703e+2, -697057.9, -792904.0, -29282.24, 0.01708755, -0.36022198, -688819.8, 50681.16, 0.0, 10.000584, 9.999321 
1.6550761e+3, 2.3453633e+2, -722279.56, -748403.0, -22899.809, 0.08737912, -0.37105697, -708978.25, -67470.41, 0.0, 9.999713, 9.999373 
1.6550577e+3, 2.4453574e+2, -699078.56, -653926.6, -24325.89, 0.0956673, -0.37358087, -643314.9, -99801.22, 0.0, 9.999061, 9.999662 
1.6550383e+3, 2.5453556e+2, -655523.06, -577457.5, -30405.002, 0.029877426, -0.36694714, -567012.8, -121496.51, 0.0, 9.998667, 9.999703 
1.6550198e+3, 2.6453555e+2, -606803.94, -457149.38, -19053.3, 0.020394491, -0.35003042, -454761.7, -107245.02, 0.0, 9.998131, 10.000114 
1.655002e+3, 2.745359e+2, -607329.06, -402420.97, -18103.42, 0.07670425, -0.33569852, -400833.84, -151319.88, 0.0, 9.997436, 10.000152 
1.6549835e+3, 2.84536e+2, -577849.4, -304600.8, -13362.669, 0.06498597, -0.3481623, -303948.88, -152435.14, 0.0, 9.996825, 10.000444 
1.6549644e+3, 2.9453632e+2, -553757.9, -235621.95, -22062.914, -0.021411238, -0.36789054, -234099.17, -180587.16, 0.0, 9.996289, 10.000503 
1.6549467e+3, 3.0453786e+2, -528442.8, -90873.164, -31089.887, 0.07704234, -0.30520415, -88675.234, -88675.234, 0.0, 9.995665, 10.001463 
1.6549285e+3, 3.1453952e+2, -594750.9, -62146.082, -3271.688, 0.119655006, -0.29109254, -62125.984, -62125.984, 0.0, 9.994948, 10.002006 
1.6652837e+3, 1.2457405e+2, -1078596.1, -1727609.0, -52510.53, -0.061072517, -0.33326963, -1074375.0, 644764.2, 0.02462177, 10.005894, 9.997072 
1.665266e+3, 1.3457046e+2, -1007931.75, -1627088.9, 60321.74, -0.070250414, -0.41778904, -1002109.56, 619064.94, 0.015731825, 10.00558, 9.997242 
1.6652475e+3, 1.4456864e+2, -929669.44, -1477379.4, 2611.0244, -0.07580472, -0.3454464, -929656.94, 593535.1, 0.0077396934, 10.005134, 9.997811 
1.6652285e+3, 1.5456645e+2, -914283.25, -1416665.3, -11456.438, -0.058940466, -0.3520569, -914022.1, 511190.6, 0.002515099, 10.004527, 9.997845 
1.6652095e+3, 1.6456425e+2, -892746.44, -1324010.9, -16208.427, -0.042249274, -0.363528, -892138.1, 435095.56, 0.00039504629, 10.003856, 9.998132 
1.6651905e+3, 1.7456226e+2, -902289.75, -1275186.6, 436.14264, -0.019001963, -0.3820695, -902289.25, 326963.94, 0.000009278141, 10.003103, 9.998157 
1.6651714e+3, 1.8456054e+2, -857411.56, -1145831.1, -2244.3125, 0.012608921, -0.38891447, -857394.1, 273875.4, 0.0, 10.002492, 9.998667 
1.6651523e+3, 1.9455929e+2, -821642.7, -1073462.6, -6733.7144, 0.05193773, -0.38651493, -821462.8, 211817.73, 0.0, 10.002047, 9.998705 
1.6651332e+3, 2.0455794e+2, -802506.2, -1024416.2, 7849.733, 0.053146925, -0.38321814, -802228.8, 133064.94, 0.0, 10.001551, 9.99861 
1.6651137e+3, 2.1455657e+2, -785002.25, -963804.3, 16953.979, 0.00927822, -0.38327187, -783408.9, 53899.168, 0.0, 10.000991, 9.998623 
1.6650946e+3, 2.2455552e+2, -719862.44, -801278.0, 8173.4775, 0.019788377, -0.37939483, -719050.0, 20269.006, 0.0, 10.000419, 9.999341 
1.665076e+3, 2.3455498e+2, -704039.6, -737079.06, 1847.2595, 0.09542026, -0.37665933, -703936.6, -62612.164, 0.0, 9.999829, 9.999393 
1.665057e+3, 2.4455447e+2, -665726.94, -638877.44, 8879.593, 0.10534331, -0.3722368, -636206.5, -92876.914, 0.0, 9.999295, 9.999651 
1.6650371e+3, 2.5455424e+2, -631636.3, -567571.6, 10769.442, 0.036900874, -0.36640424, -565809.75, -120477.38, 0.0, 9.998839, 9.999687 
1.6650179e+3, 2.6455417e+2, -589486.1, -453131.5, 12966.6, 0.028246654, -0.35640234, -451909.4, -104575.65, 0.0, 9.998271, 10.000073 
1.6649996e+3, 2.745543e+2, -592671.4, -400037.84, 6197.7734, 0.08822255, -0.35470247, -399838.66, -150505.73, 0.0, 9.99756, 10.000107 
1.6649805e+3, 2.8455448e+2, -565590.56, -295136.47, 13092.84, 0.07087323, -0.36155427, -294504.13, -143171.97, 0.0, 9.996897, 10.000473 
1.6649605e+3, 2.94555e+2, -547562.4, -226827.7, 5513.008, -0.028505199, -0.35981485, -226732.98, -173405.31, 0.0, 9.996309, 10.000551 
1.6649425e+3, 3.0455628e+2, -515810.03, -80190.9, -9649.228, 0.0858775, -0.33311003, -79977.266, -79977.266, 0.0, 9.995735, 10.001501 
1.6649233e+3, 3.145582e+2, -591696.75, -86655.33, 5665.1978, 0.117313355, -0.29324204, -86591.79, -86591.79, 0.0, 9.995086, 10.001769 
1.6752899e+3, 1.2459236e+2, -1045782.4, -1660895.3, -62187.46, -0.036379173, -0.3767581, -1039558.25, 679402.1, 0.026109302, 10.005907, 9.997535 
1.6752717e+3, 1.3458987e+2, -977909.7, -1564878.8, 47837.79, -0.055896755, -0.3960601, -974036.5, 646946.4, 0.016754957, 10.005584, 9.997674 
1.6752528e+3, 1.4458822e+2, -955494.75, -1530734.1, -20613.05, -0.06112926, -0.3116786, -954757.06, 568241.5, 0.008303664, 10.005132, 9.997445 
1.6752326e+3, 1.5458514e+2, -942941.2, -1476154.1, -34023.004, -0.087191135, -0.36462364, -940779.0, 484250.9, 0.0027329514, 10.004524, 9.997439 
1.675213e+3, 1.6458276e+2, -866918.5, -1270602.8, -44148.652, -0.067757204, -0.39178893, -862146.6, 464906.6, 0.00043998688, 10.003854, 9.998501 
1.6751939e+3, 1.7458138e+2, -873180.8, -1216508.5, -27982.67, 0.01274208, -0.38999385, -870915.06, 358150.25, 0.000010990718, 10.003108, 9.998559 
1.6751742e+3, 1.8457995e+2, -863821.56, -1161425.6, -19766.365, 0.047432363, -0.38204658, -862514.44, 268563.7, 0.0, 10.002499, 9.998558 
1.6751541e+3, 1.9457866e+2, -830238.7, -1093197.0, -23199.863, 0.026077375, -0.37209338, -828207.56, 204882.73, 0.0, 10.002051, 9.9985695 
1.6751345e+3, 2.0457716e+2, -787057.6, -993515.25, -12856.787, 0.02614846, -0.38531056, -786260.06, 148844.55, 0.0, 10.001553, 9.998822 
1.6751151e+3, 2.1457559e+2, -769224.94, -931551.3, -3509.7827, 0.05211643, -0.42981902, -769149.1, 67970.67, 0.0, 10.00099, 9.998846 
1.6750954e+3, 2.2457458e+2, -728085.44, -819376.8, -13290.028, 0.061106935, -0.42649657, -726190.06, 12940.039, 0.0, 10.000421, 9.999218 
1.6750754e+3, 2.3457442e+2, -712856.06, -757425.94, -19388.295, 0.04936595, -0.37191987, -705602.44, -64469.336, 0.0, 9.999835, 9.999252 
1.6750556e+3, 2.4457404e+2, -659049.3, -627444.1, -7742.9053, 0.05216766, -0.3518008, -625649.2, -82511.72, 0.0, 9.999303, 9.999728 
1.6750364e+3, 2.5457358e+2, -625149.2, -556108.2, -5042.8105, 0.07347789, -0.37550458, -555741.8, -110600.25, 0.0, 9.998844, 9.999765 
1.6750167e+3, 2.6457334e+2, -597984.7, -472750.97, -12160.928, 0.08256417, -0.38192812, -471581.0, -124436.1, 0.0, 9.998276, 9.999938 
1.6749969e+3, 2.7457336e+2, -601647.56, -420864.56, -19579.684, 0.07224272, -0.37642434, -418768.3, -169622.22, 0.0, 9.997565, 9.999963 
1.6749771e+3, 2.8457376e+2, -562269.6, -290223.97, -8413.027, 0.039028697, -0.35365483, -289964.03, -138820.78, 0.0, 9.9969015, 10.000506 
1.6749571e+3, 2.9457483e+2, -543022.8, -219328.52, -14618.524, -0.006925316, -0.30301663, -218669.66, -165536.61, 0.0, 9.996314, 10.000603 
1.6749386e+3, 3.045753e+2, -517165.56, -84975.125, -32145.543, 0.12709391, -0.3578009, -82597.28, -82597.28, 0.0, 9.995741, 10.001467 
1.6749182e+3, 3.1457683e+2, -598692.1, -103623.55, -29438.357, 0.08635684, -0.34792748, -101879.195, -101879.195, 0.0, 9.995093, 10.001651 
1.6852961e+3, 1.2461191e+2, -1004437.75, -1644583.9, -18025.03, -0.029145567, -0.3765733, -1003930.6, 714837.56, 0.027674664, 10.0062275, 9.997496 
1.6852771e+3, 1.3460934e+2, -989576.9, -1579068.4, 53807.344, -0.0693105, -0.39366674, -984705.75, 636085.5, 0.017839229, 10.0055485, 9.997591 
1.6852579e+3, 1.4460762e+2, -988867.75, -1540710.6, -24677.418, -0.05875264, -0.3155398, -987766.44, 535041.3, 0.008907998, 10.004878, 9.997498 
1.685237e+3, 1.5460451e+2, -985984.06, -1490689.9, -6917.411, -0.08247985, -0.37896773, -985889.25, 438950.38, 0.0029703055, 10.004203, 9.997494 
1.6852167e+3, 1.6460222e+2, -898264.3, -1279109.3, -10083.016, -0.06440337, -0.40240583, -897997.5, 428864.66, 0.0004901901, 10.003612, 9.998558 
1.6851969e+3, 1.746011e+2, -868411.7, -1207511.9, -18814.201, 0.010874987, -0.3799215, -867371.06, 361500.8, 0.000013084683, 10.003115, 9.998616 
1.6851768e+3, 1.8459973e+2, -843432.8, -1143049.8, -12872.861, 0.04474868, -0.37221467, -842880.75, 288003.22, 0.0, 10.0026045, 9.9986315 
1.6851561e+3, 1.9459827e+2, -821952.2, -1081104.9, -2031.6119, 0.026545333, -0.3866497, -821936.25, 210961.14, 0.0, 10.002075, 9.99864 
1.6851358e+3, 2.0459677e+2, -796954.75, -984550.8, 5654.414, 0.03172382, -0.4071549, -796784.44, 138126.77, 0.0, 10.001428, 9.998942 
1.685116e+3, 2.1459545e+2, -811803.94, -937948.3, 6157.808, 0.06629514, -0.43956417, -811504.06, 25419.674, 0.0, 10.00064, 9.998969 
1.6850957e+3, 2.2459452e+2, -772325.4, -836826.0, 7022.103, 0.07023694, -0.43697217, -771569.7, -32636.504, 0.0, 10.000103, 9.999249 
1.685075e+3, 2.3459423e+2, -707260.6, -751814.25, 12974.569, 0.036039554, -0.39670223, -703757.7, -62820.35, 0.0, 9.999865, 9.999275 
1.6850547e+3, 2.4459389e+2, -642768.8, -614368.5, 22393.451, 0.03851627, -0.37537092, -602052.44, -59111.047, 0.0, 9.999395, 9.999771 
1.6850352e+3, 2.5459367e+2, -650344.06, -563498.94, 20720.896, 0.08662574, -0.38210478, -558808.4, -113864.48, 0.0, 9.998653, 9.9998045 
1.6850151e+3, 2.6459345e+2, -626845.7, -485878.7, 19034.742, 0.10142242, -0.3848084, -483353.66, -136406.61, 0.0, 9.998076, 9.999942 
1.6849945e+3, 2.745934e+2, -581792.06, -410953.75, 22300.428, 0.07077228, -0.3854667, -408090.72, -159141.55, 0.0, 9.997703, 9.999964 
1.6849738e+3, 2.8459397e+2, -531370.56, -266741.3, 33095.434, 0.033422224, -0.35189188, -262665.06, -111720.125, 0.0, 9.997079, 10.000581 
1.6849534e+3, 2.9459527e+2, -558120.0, -217233.75, 29719.25, 0.006323714, -0.28373677, -214662.16, -161730.36, 0.0, 9.996173, 10.000684 
1.6849345e+3, 3.045951e+2, -536996.3, -106567.47, 21385.182, 0.14578545, -0.39741668, -105507.59, -105507.59, 0.0, 9.995658, 10.001358 
1.6849132e+3, 3.1459698e+2, -539898.06, -70905.0, 3769.6892, 0.062997065, -0.34650585, -70874.7, -70874.7, 0.0, 9.995479, 10.001689 
1.6953021e+3, 1.2463266e+2, -1037934.1, -1714933.6, -40474.918, -0.041165616, -0.33812192, -1035522.9, 683040.4, 0.029310448, 10.006238, 9.996995 
1.6952823e+3, 1.3462901e+2, -1026790.5, -1658578.4, 29382.592, -0.10820512, -0.40854988, -1025426.94, 595171.9, 0.01898148, 10.005559, 9.997037 
1.6952626e+3, 1.4462698e+2, -958373.5, -1479534.8, -49392.668, -0.06784322, -0.3526641, -953733.7, 568884.94, 0.009552894, 10.004889, 9.997917 
1.6952416e+3, 1.5462454e+2, -951682.1, -1422941.3, -32334.717, -0.04895628, -0.3951126, -949473.9, 475168.2, 0.0032288348, 10.004217, 9.997953 
1.6952206e+3, 1.6462258e+2, -912995.7, -1313125.5, -29315.902, -0.036269102, -0.39756697, -910859.2, 415801.88, 0.0005466423, 10.003623, 9.998321 
1.6951998e+3, 1.746214e+2, -886365.2, -1246898.4, -37174.38, -0.0224549, -0.35370347, -882572.06, 346100.8, 0.00001570412, 10.00312, 9.998344 
1.6951789e+3, 1.8461987e+2, -826484.94, -1108759.9, -32417.566, 0.007269265, -0.35967118, -822809.8, 307877.03, 0.0, 10.002605, 9.998869 
1.6951585e+3, 1.9461812e+2, -804051.06, -1044194.9, -21542.06, 0.051528197, -0.4283867, -802133.94, 230567.81, 0.0, 10.002073, 9.998896 
1.6951378e+3, 2.0461679e+2, -795644.0, -982424.2, -23313.668, 0.067095295, -0.44745478, -792778.0, 141935.64, 0.0, 10.001428, 9.99896 
1.6951165e+3, 2.1461613e+2, -810412.5, -936835.44, -22956.73, 0.051729407, -0.41369548, -806372.94, 30347.44, 0.0, 10.000645, 9.998976 
1.6950956e+3, 2.2461528e+2, -758817.56, -810927.3, -2268.535, 0.047839373, -0.41199777, -758719.0, -19990.213, 0.0, 10.000109, 9.999426 
1.695075e+3, 2.3461439e+2, -694550.56, -726536.5, 5104.645, 0.05507358, -0.45082, -693755.7, -53018.215, 0.0, 9.9998665, 9.99945 
1.6950545e+3, 2.44614e+2, -642935.2, -615732.25, -3706.8376, 0.063211866, -0.44217953, -615236.2, -72494.28, 0.0, 9.999396, 9.9997635 
1.6950338e+3, 2.5461438e+2, -650459.2, -565526.9, -6057.463, 0.07546565, -0.38567856, -565097.0, -120357.125, 0.0, 9.998658, 9.999791 
1.695013e+3, 2.6461446e+2, -616175.4, -466058.16, 5454.787, 0.08465204, -0.36449614, -465860.2, -119119.37, 0.0, 9.998083, 10.000077 
1.6949923e+3, 2.7461442e+2, -570926.3, -391209.6, 9387.47, 0.0829154, -0.38185424, -390720.56, -141977.6, 0.0, 9.997711, 10.000096 
1.6949712e+3, 2.8461498e+2, -522951.56, -251480.44, 590.8491, 0.05318927, -0.35682243, -251479.14, -100741.086, 0.0, 9.997086, 10.000685 
1.6949497e+3, 2.9461628e+2, -551267.2, -204029.98, -1895.9502, 0.011344925, -0.30310214, -204019.63, -151294.75, 0.0, 9.996174, 10.000776 
1.69493e+3, 3.046157e+2, -550325.56, -135737.11, 15905.673, 0.14111222, -0.45188737, -135127.78, -135127.78, 0.0, 9.995661, 10.001158 
1.6949086e+3, 3.146184e+2, -522287.2, -37936.063, -19113.469, 0.049849343, -0.296164, -37182.977, -37182.977, 0.0, 9.995491, 10.00191 
1.7053084e+3, 1.2465348e+2, -991989.06, -1706107.9, -21437.078, -0.05307921, -0.35075986, -991346.1, 727011.0, 0.03101163, 10.006637, 9.996864 
1.705288e+3, 1.3464953e+2, -1015524.94, -1672026.8, 69884.14, -0.10627328, -0.43414083, -1008168.25, 612228.06, 0.020178257, 10.005729, 9.996862 
1.7052679e+3, 1.4464742e+2, -933520.2, -1459013.8, 1013.47766, -0.04425882, -0.38007605, -933518.25, 588899.0, 0.010237237, 10.005029, 9.997992 
1.705246e+3, 1.546453e+2, -897730.3, -1387302.0, -8012.8267, -0.04612318, -0.3985997, -897599.2, 526838.25, 0.0035093192, 10.004551, 9.998037 
1.7052244e+3, 1.646434e+2, -870514.3, -1298109.1, -14648.506, -0.043720495, -0.39687464, -870013.06, 456442.9, 0.0006102195, 10.003941, 9.99827 
1.7052028e+3, 1.7464197e+2, -881566.2, -1251260.6, -8537.913, -0.028226158, -0.37077093, -881369.06, 347101.34, 0.000019016989, 10.003183, 9.998283 
1.7051814e+3, 1.8464044e+2, -845383.94, -1106355.5, -1471.8574, 0.0052103023, -0.37895092, -845375.6, 285109.1, 0.0, 10.002428, 9.99897 
1.7051604e+3, 1.9463894e+2, -854941.75, -1056373.5, -2023.129, 0.055794466, -0.43274954, -854921.44, 177575.75, 0.0, 10.001674, 9.999003 
1.705139e+3, 2.0463774e+2, -835361.4, -992164.7, -4092.8696, 0.06976944, -0.44797796, -835254.6, 99253.086, 0.0, 10.001118, 9.99904 
1.7051171e+3, 2.1463709e+2, -784666.06, -915796.9, 736.1141, 0.042850316, -0.42172292, -784661.94, 51852.203, 0.0, 10.000788, 9.99905 
1.7050958e+3, 2.2463627e+2, -736897.3, -786684.75, 21083.568, 0.0449613, -0.4251329, -729168.75, 9353.156, 0.0, 10.000204, 9.999545 
1.7050749e+3, 2.3463546e+2, -764673.6, -746855.25, 22601.29, 0.07911501, -0.46716973, -731470.56, -90941.06, 0.0, 9.99933, 9.999567 
1.7050539e+3, 2.4463515e+2, -735338.06, -659929.2, 14622.175, 0.08619988, -0.45732737, -657193.1, -114659.67, 0.0, 9.998764, 9.999763 
1.7050323e+3, 2.546356e+2, -666127.3, -573295.1, 12588.98, 0.06496075, -0.39462218, -571618.2, -127086.58, 0.0, 9.998556, 9.999784 
1.705011e+3, 2.6463577e+2, -598836.06, -433528.63, 23922.691, 0.06918184, -0.3716754, -430136.25, -83604.625, 0.0, 9.998102, 10.000289 
1.70499e+3, 2.746359e+2, -607004.56, -383920.3, 32905.902, 0.09493391, -0.38985428, -379167.78, -130636.56, 0.0, 9.997361, 10.000314 
1.7049682e+3, 2.8463668e+2, -559169.75, -256090.88, 24296.074, 0.06825739, -0.36196232, -254155.55, -103631.336, 0.0, 9.996784, 10.000796 
1.7049459e+3, 2.9463807e+2, -510189.3, -174377.0, 22957.61, 0.0030357589, -0.3101606, -172814.78, -120304.53, 0.0, 9.996416, 10.000861 
1.7049256e+3, 3.046373e+2, -528917.2, -150845.67, 45531.293, 0.12356278, -0.47220406, -145439.63, -145439.63, 0.0, 9.995921, 10.000928 
1.704904e+3, 3.1464013e+2, -546336.9, -14714.485, -9921.671, 0.06284925, -0.2807199, -14529.382, -14529.382, 0.0, 9.995181, 10.002217 
1.715315e+3, 1.2467447e+2, -980428.9, -1680823.1, -51180.98, -0.068656, -0.4070876, -976708.6, 741440.3, 0.032772943, 10.0066395, 9.997045 
1.7152941e+3, 1.3467088e+2, -1004456.9, -1649785.8, 35766.21, -0.068104394, -0.46938592, -1002480.7, 617703.5, 0.021425664, 10.005738, 9.997011 
1.7152733e+3, 1.4466888e+2, -949980.2, -1494673.3, -17917.32, 0.00765718, -0.3994651, -949391.5, 572812.9, 0.010959307, 10.005036, 9.997742 
1.7152503e+3, 1.5466678e+2, -916606.06, -1426606.3, -25828.373, -0.071996465, -0.3910426, -915301.4, 508924.56, 0.0038120137, 10.004549, 9.997768 
1.7152278e+3, 1.6466469e+2, -862950.6, -1282198.6, -42448.523, -0.08388022, -0.39987805, -858695.9, 467550.72, 0.0006816545, 10.003937, 9.998383 
1.715206e+3, 1.7466284e+2, -872540.94, -1233328.6, -36651.953, -0.009159222, -0.42773354, -868855.1, 359409.06, 0.00002321552, 10.003183, 9.998408 
1.7151842e+3, 1.8466143e+2, -847397.6, -1112098.8, -29487.043, 0.034608074, -0.42773476, -844152.6, 286124.84, 0.0, 10.002431, 9.99893 
1.7151618e+3, 1.946607e+2, -857014.25, -1062957.6, -29807.31, 0.039838724, -0.40176314, -852786.9, 179497.13, 0.0, 10.00168, 9.998957 
1.7151397e+3, 2.046596e+2, -824926.7, -972481.9, -16427.098, 0.041400965, -0.41073373, -823120.0, 111173.72, 0.0, 10.001122, 9.999174 
1.7151178e+3, 2.1465829e+2, -775005.75, -896534.7, -10646.995, 0.03957538, -0.4629026, -774080.06, 62225.145, 0.0, 10.000788, 9.999185 
1.7150961e+3, 2.2465748e+2, -733804.44, -781163.2, -10162.807, 0.060527105, -0.47510198, -731715.7, 6597.0493, 0.0, 10.000205, 9.999584 
1.7150745e+3, 2.346574e+2, -760994.0, -740966.8, -9321.184, 0.10683591, -0.4457301, -737299.9, -96985.94, 0.0, 9.999334, 9.999607 
1.7150527e+3, 2.4465728e+2, -734343.94, -659971.0, 6950.168, 0.106333174, -0.4213604, -659327.06, -117010.34, 0.0, 9.99877, 9.999762 
1.7150307e+3, 2.546572e+2, -665749.6, -574708.44, 6120.443, 0.054901414, -0.40958896, -574298.9, -129979.0, 0.0, 9.998563, 9.999773 
1.7150089e+3, 2.6465732e+2, -578137.8, -392839.53, -2300.8352, 0.055034082, -0.40669948, -392810.97, -46490.766, 0.0, 9.998109, 10.000567 
1.7149875e+3, 2.7465793e+2, -586052.56, -341958.88, 5859.1533, 0.10619206, -0.40911373, -341818.3, -93503.54, 0.0, 9.997364, 10.000603 
1.7149651e+3, 2.8465903e+2, -551341.1, -241034.48, 10969.295, 0.0777352, -0.3669465, -240647.2, -90342.914, 0.0, 9.996787, 10.0009 
1.714942e+3, 2.946606e+2, -504211.44, -165281.69, 11637.288, -0.020219082, -0.30497, -164882.58, -112593.586, 0.0, 9.996428, 10.00092 
1.7149213e+3, 3.0465978e+2, -546264.44, -190526.17, 19201.572, 0.091201924, -0.45589402, -189492.75, -189492.75, 0.0, 9.995933, 10.000651 
1.7148995e+3, 3.1466192e+2, -521347.94, 36971.164, -55102.277, 0.105448574, -0.31088993, 42357.418, 42357.418, 0.0, 9.995178, 10.002576 
1.7253217e+3, 1.2469634e+2, -975590.5, -1673616.9, -27621.38, -0.06289159, -0.44098184, -974499.2, 743433.9, 0.03458956, 10.006668, 9.997081 
1.7252998e+3, 1.3469297e+2, -974886.3, -1634306.9, 44359.37, -0.07363202, -0.48308554, -971915.7, 648050.56, 0.022720331, 10.005954, 9.997013 
1.7252785e+3, 1.4469096e+2, -935678.8, -1491666.0, -3162.9888, 0.018488463, -0.41016096, -935660.8, 586325.75, 0.011717224, 10.005159, 9.997703 
1.7252548e+3, 1.5468885e+2, -958237.94, -1451421.8, 3398.923, -0.05900774, -0.398266, -958214.5, 465794.2, 0.0041366653, 10.004287, 9.997724 
1.7252317e+3, 1.6468677e+2, -912932.0, -1295166.8, -5469.503, -0.07018422, -0.40756077, -912853.75, 413175.72, 0.00076153467, 10.003548, 9.99848 
1.7252092e+3, 1.7468497e+2, -898865.6, -1234496.1, -1582.459, 0.004073009, -0.4411687, -898858.1, 329188.22, 0.000028535813, 10.002956, 9.998508 
1.7251866e+3, 1.8468359e+2, -853070.8, -1115796.1, 6781.923, 0.0390147, -0.44157252, -852895.8, 277163.4, 0.0, 10.002399, 9.998919 
1.7251635e+3, 1.9468291e+2, -829469.4, -1051734.9, 7470.688, 0.025705375, -0.4082102, -829218.56, 202847.08, 0.0, 10.001881, 9.998936 
1.7251408e+3, 2.0468189e+2, -796326.94, -937399.56, 25671.316, 0.02616264, -0.41660815, -791800.7, 142273.8, 0.0, 10.00123, 9.999362 
1.7251185e+3, 2.146807e+2, -813271.75, -893196.44, 34617.58, 0.043084953, -0.47757444, -800362.9, 35721.504, 0.0, 10.000435, 9.999375 
1.7250961e+3, 2.2467993e+2, -790773.75, -820238.44, 30834.377, 0.066853106, -0.487651, -771333.0, -33241.5, 0.0, 9.999868, 9.999476 
1.7250739e+3, 2.3467992e+2, -737064.1, -741962.3, 19463.213, 0.09764912, -0.44233206, -719896.56, -79803.2, 0.0, 9.9995575, 9.99949 
1.7250516e+3, 2.446798e+2, -686184.94, -620460.25, 38379.31, 0.09978729, -0.41538668, -602796.3, -60700.3, 0.0, 9.999035, 9.999903 
1.7250292e+3, 2.5467974e+2, -697517.5, -573625.06, 48402.664, 0.0712922, -0.41709477, -556957.4, -112859.07, 0.0, 9.998278, 9.999916 
1.7250068e+3, 2.646799e+2, -631013.4, -408525.16, 35830.24, 0.06804862, -0.41949648, -402897.3, -56799.53, 0.0, 9.997707, 10.000651 
1.7249845e+3, 2.7468064e+2, -582729.3, -330866.28, 27287.0, 0.08722704, -0.41767198, -327943.9, -79852.58, 0.0, 9.997351, 10.000683 
1.7249618e+3, 2.846818e+2, -536266.4, -224976.36, 24893.666, 0.061684158, -0.37778944, -222998.19, -72917.6, 0.0, 9.996857, 10.000975 
1.7249386e+3, 2.9468334e+2, -534618.5, -175352.83, 24782.27, 0.004098922, -0.3245837, -173651.39, -121585.62, 0.0, 9.996203, 10.0009575 
1.724917e+3, 3.046829e+2, -592808.25, -226980.02, 33606.76, 0.09109901, -0.4303611, -223918.36, -223918.36, 0.0, 9.995677, 10.000523 
1.7248946e+3, 3.1468448e+2, -486825.06, 89039.54, -45818.246, 0.09845567, -0.33318257, 92662.25, 92662.25, 0.0, 9.995266, 10.002891 
1.7353284e+3, 1.24719076e+2, -984207.3, -1689215.4, -49442.023, -0.042237528, -0.45386308, -980756.9, 736952.6, 0.03646072, 10.006668, 9.996972 
1.7353053e+3, 1.3471575e+2, -984683.56, -1654477.8, 17937.572, -0.11969126, -0.47776988, -984203.56, 635538.8, 0.024060242, 10.005956, 9.996875 
1.7352833e+3, 1.4471366e+2, -926417.94, -1472820.3, -35140.74, -0.008288969, -0.41324508, -924167.25, 597596.3, 0.012508581, 10.005161, 9.997834 
1.7352596e+3, 1.547115e+2, -947715.75, -1430950.0, -28983.225, -0.010859047, -0.4187878, -945983.6, 477802.13, 0.0044819424, 10.004291, 9.997864 
1.7352359e+3, 1.6470963e+2, -906493.0, -1283831.0, -27879.627, -0.008443115, -0.41942385, -904444.2, 421360.34, 0.00085002783, 10.003554, 9.998556 
1.7352122e+3, 1.7470828e+2, -892684.0, -1224152.1, -23631.697, 0.011079535, -0.4145796, -891007.7, 336809.66, 0.000035226243, 10.002964, 9.998577 
1.7351887e+3, 1.8470688e+2, -852167.0, -1115768.8, -12505.177, 0.019964287, -0.42308807, -851575.1, 278255.4, 0.0, 10.002404, 9.998919 
1.7351651e+3, 1.9470556e+2, -829474.06, -1052725.4, -11293.77, 0.012908818, -0.45048717, -828904.2, 202938.11, 0.0, 10.001882, 9.99893 
1.735142e+3, 2.0470461e+2, -780501.2, -905467.7, -3514.3933, 0.022483667, -0.46345016, -780402.44, 153447.81, 0.0, 10.001231, 9.999582 
1.735119e+3, 2.1470423e+2, -796661.1, -860173.44, 5143.9917, 0.052214526, -0.4657241, -796247.2, 39604.926, 0.0, 10.000438, 9.999602 
1.735096e+3, 2.2470358e+2, -808068.94, -857874.1, 19240.96, 0.063320644, -0.46331364, -801501.6, -63642.926, 0.0, 9.999872, 9.999217 
1.7350729e+3, 2.347029e+2, -755883.94, -782799.1, 8954.5, 0.052314863, -0.457295, -753177.06, -113308.78, 0.0, 9.999562, 9.999209 
1.7350502e+3, 2.4470267e+2, -666561.7, -581316.3, 11259.354, 0.06744032, -0.4393714, -579854.25, -37982.293, 0.0, 9.999039, 10.000171 
1.7350279e+3, 2.5470313e+2, -676806.4, -531980.56, 21012.049, 0.113428004, -0.41714665, -528993.6, -85125.984, 0.0, 9.998281, 10.000202 
1.735005e+3, 2.6470348e+2, -639972.6, -428749.4, 23015.79, 0.106640644, -0.4098774, -426270.63, -80405.5, 0.0, 9.997711, 10.000512 
1.7349814e+3, 2.7470398e+2, -592126.25, -353309.9, 14856.031, 0.03583462, -0.41437367, -352389.28, -104527.445, 0.0, 9.99736, 10.000525 
1.7349581e+3, 2.847049e+2, -531208.8, -217435.1, 943.5413, 0.019210383, -0.39445898, -217432.25, -67578.03, 0.0, 9.996866, 10.001023 
1.7349355e+3, 2.9470617e+2, -532814.06, -173248.3, 1262.0748, 0.07803423, -0.37163284, -173243.86, -121401.93, 0.0, 9.996207, 10.000972 
1.734913e+3, 3.047066e+2, -592114.2, -226506.8, 19105.861, 0.1228047, -0.39394763, -225511.08, -225511.08, 0.0, 9.995679, 10.000527 
1.7348893e+3, 3.1470788e+2, -471555.88, 117933.54, -70895.64, 0.036268488, -0.3284417, 126340.01, 126340.01, 0.0, 9.9952755, 10.003086 
1.7453352e+3, 1.2474283e+2, -965926.4, -1672220.5, -20711.51, -0.044339888, -0.4373398, -965319.56, 752157.56, 0.03838701, 10.006779, 9.997039 
1.745311e+3, 1.347394e+2, -993851.4, -1653326.1, 53331.805, -0.12733772, -0.47706145, -989566.25, 629944.2, 0.02544184, 10.005878, 9.996919 
1.7452885e+3, 1.4473717e+2, -938631.1, -1470189.3, 4471.681, 0.0031731592, -0.43034744, -938593.56, 582938.9, 0.013328776, 10.005048, 9.997906 
1.7452641e+3, 1.547351e+2, -942777.94, -1420039.3, 5737.4746, 0.0064805304, -0.43347856, -942709.0, 480844.47, 0.004844778, 10.004293, 9.997936 
1.7452395e+3, 1.647333e+2, -899765.56, -1286174.0, 8502.117, 0.005618411, -0.42665556, -899578.56, 425993.03, 0.00094643276, 10.003628, 9.998503 
1.7452152e+3, 1.7473204e+2, -882263.5, -1225657.3, 2521.6997, 0.012039573, -0.40825102, -882244.94, 345339.2, 0.000043436936, 10.003067, 9.998516 
1.745191e+3, 1.8473062e+2, -841144.9, -1093168.0, 11132.911, 0.016645664, -0.42198753, -840654.06, 288943.22, 0.0000000000000006446772, 10.002409, 9.99907 
1.745167e+3, 1.947292e+2, -853390.25, -1046741.56, 23061.2, 0.014477497, -0.47663897, -850677.75, 180931.5, 0.0, 10.001645, 9.9990835 
1.7451431e+3, 2.0472828e+2, -820235.44, -933608.5, 25344.105, 0.024789397, -0.48905182, -814827.8, 118789.016, 0.0, 10.001, 9.999498 
1.7451194e+3, 2.1472812e+2, -796492.0, -869973.4, 9943.901, 0.05091224, -0.4586578, -795170.1, 40447.418, 0.0, 10.000484, 9.999511 
1.7450958e+3, 2.2472754e+2, -790924.6, -840465.7, 31702.545, 0.060281456, -0.45006433, -775462.94, -37839.055, 0.0, 9.999954, 9.999295 
1.7450725e+3, 2.3472667e+2, -772910.25, -782058.5, 47258.2, 0.0492236, -0.4681797, -730005.3, -90370.87, 0.0, 9.99941, 9.999286 
1.745049e+3, 2.447264e+2, -692189.1, -589241.9, 45291.77, 0.066061616, -0.46011126, -572152.56, -30514.32, 0.0, 9.998848, 10.000207 
1.7450261e+3, 2.5472698e+2, -677338.25, -527895.7, 35089.938, 0.11592162, -0.430732, -520066.53, -76433.8, 0.0, 9.998262, 10.0002365 
1.7450027e+3, 2.647274e+2, -642658.3, -436043.97, 39355.688, 0.108431675, -0.41215372, -428801.44, -83171.9, 0.0, 9.997724, 10.000454 
1.7449786e+3, 2.74728e+2, -615181.6, -371274.16, 38325.56, 0.032747194, -0.40409118, -365393.78, -117767.36, 0.0, 9.997236, 10.000461 
1.7449549e+3, 2.847288e+2, -547568.56, -215679.78, 21193.473, 0.026370496, -0.395237, -214331.9, -64711.72, 0.0, 9.9967165, 10.001106 
1.744932e+3, 2.947299e+2, -539006.1, -168914.16, 22496.04, 0.108726285, -0.39871523, -167551.75, -115942.21, 0.0, 9.996138, 10.001033 
1.7449084e+3, 3.0473098e+2, -601169.4, -225860.7, 52052.945, 0.10466401, -0.357747, -218775.06, -218775.06, 0.0, 9.995599, 10.000568 
1.7448844e+3, 3.1473166e+2, -494503.3, 98109.64, -41113.406, 0.026924502, -0.35899094, 100948.34, 100948.34, 0.0, 9.995159, 10.003004 
1.7553417e+3, 1.2476758e+2, -953920.1, -1644967.5, -48318.844, -0.07043632, -0.39523524, -950558.0, 766678.06, 0.040365245, 10.00678, 9.997235 
1.7553173e+3, 1.3476387e+2, -982717.06, -1626733.0, 20435.15, -0.10035486, -0.48037872, -982069.3, 637201.1, 0.026858738, 10.005871, 9.997106 
1.7552939e+3, 1.4476149e+2, -938852.25, -1469613.1, -23556.248, 0.04838938, -0.45968094, -937808.8, 583484.3, 0.014171384, 10.005044, 9.997913 
1.7552681e+3, 1.5475963e+2, -940873.94, -1419194.6, -22361.473, -0.0055284207, -0.44326162, -939830.8, 483481.28, 0.005220917, 10.004305, 9.997938 
1.7552428e+3, 1.647578e+2, -911162.6, -1313435.0, -12489.088, -0.024480142, -0.42991087, -910775.25, 414555.44, 0.0010491475, 10.003641, 9.998311 
1.7552182e+3, 1.7475626e+2, -895157.4, -1254275.0, -17890.252, 0.0071508954, -0.42067778, -894268.3, 333078.38, 0.000053070675, 10.003071, 9.998319 
1.7551936e+3, 1.8475483e+2, -820697.4, -1052063.4, -16711.95, 0.026877388, -0.43715698, -819496.44, 309863.03, 0.0000000010737394, 10.002411, 9.999352 
1.7551687e+3, 1.9475374e+2, -831791.9, -1004157.94, -5227.288, 0.029027289, -0.4869139, -831633.5, 199733.44, 0.0, 10.001652, 9.999374 
1.755144e+3, 2.0475283e+2, -846382.2, -990211.3, 6064.5767, 0.032437094, -0.49390242, -846126.94, 87247.81, 0.0, 10.001007, 9.999107 
1.7551197e+3, 2.1475233e+2, -823935.4, -929364.44, -8502.764, 0.03906683, -0.45736125, -823254.0, 12126.901, 0.0, 10.000492, 9.999101 
1.7550957e+3, 2.2475174e+2, -762059.7, -782773.56, 12248.347, 0.05725645, -0.4486087, -756376.44, -18988.992, 0.0, 9.99996, 9.99969 
1.7550722e+3, 2.3475122e+2, -743189.5, -721907.2, 27848.973, 0.086920835, -0.47466037, -702735.6, -63343.152, 0.0, 9.999413, 9.9997 
1.7550482e+3, 2.4475095e+2, -706775.7, -620850.6, 24066.793, 0.093893275, -0.47691044, -614569.0, -73173.484, 0.0, 9.998851, 9.9999895 
1.7550239e+3, 2.5475118e+2, -692449.75, -561718.6, 14129.737, 0.077367164, -0.4569194, -560208.9, -116814.56, 0.0, 9.99827, 10.000002 
1.755e+3, 2.6475164e+2, -639803.1, -432718.16, 21630.51, 0.072939806, -0.42594182, -430482.9, -85091.125, 0.0, 9.997731, 10.000474 
1.7549764e+3, 2.7475253e+2, -612680.44, -368088.38, 21288.666, 0.079182856, -0.38876477, -366249.3, -118863.23, 0.0, 9.997242, 10.000481 
1.7549522e+3, 2.8475335e+2, -540452.2, -202612.61, 322.5531, 0.083370134, -0.38113764, -202612.3, -53232.77, 0.0, 9.99672, 10.001195 
1.7549278e+3, 2.947544e+2, -531373.3, -156006.9, 396.41693, 0.09112889, -0.402912, -156006.48, -104637.04, 0.0, 9.996147, 10.001119 
1.7549032e+3, 3.04756e+2, -594060.75, -213609.63, 35282.957, 0.031809732, -0.32030857, -210365.16, -210365.16, 0.0, 9.995605, 10.00065 
1.75488e+3, 3.1475613e+2, -522446.56, 39251.84, -53408.758, 0.06931918, -0.38232586, 44285.08, 44285.08, 0.0, 9.995159, 10.002601 
1.7653483e+3, 1.24793075e+2, -965061.6, -1648025.5, 4226.81, -0.063194185, -0.39544138, -965035.44, 751950.56, 0.04239286, 10.006706, 9.997248 
1.7653231e+3, 1.3478938e+2, -1016746.06, -1642411.8, 54966.29, -0.08711296, -0.47951144, -1011953.9, 607066.2, 0.028307, 10.005637, 9.997109 
1.7652991e+3, 1.4478686e+2, -966958.44, -1492168.0, 17970.605, 0.07309569, -0.4681986, -966344.25, 554699.75, 0.015031679, 10.004896, 9.997827 
1.7652726e+3, 1.5478495e+2, -913860.44, -1415481.8, 12759.672, -0.0010102028, -0.44790325, -913536.06, 509527.47, 0.005606357, 10.004539, 9.997849 
1.7652465e+3, 1.6478302e+2, -868629.56, -1291079.8, 19411.445, -0.028195744, -0.4395143, -867739.5, 457343.3, 0.0011561726, 10.00393, 9.998323 
1.7652214e+3, 1.7478132e+2, -897499.06, -1253556.4, 27861.475, 0.008132701, -0.4453734, -895332.06, 331767.63, 0.00006374245, 10.003052, 9.998331 
1.7651959e+3, 1.8477991e+2, -843132.7, -1076178.8, 24403.664, 0.029264456, -0.45591944, -840604.6, 288507.9, 0.000000009428086, 10.002318, 9.99923 
1.7651704e+3, 1.94779e+2, -827379.06, -1015940.8, 4813.6855, 0.029778125, -0.4761145, -827256.25, 203862.88, 0.0, 10.001745, 9.999247 
1.7651452e+3, 2.0477802e+2, -822315.1, -982586.9, 18087.037, 0.03218824, -0.48180574, -820299.3, 112828.63, 0.0, 10.001193, 9.999069 
1.7651202e+3, 2.1477717e+2, -802050.56, -922885.0, 29703.873, 0.037611086, -0.47487888, -795143.5, 39993.723, 0.0, 10.000663, 9.999062 
1.7650957e+3, 2.2477654e+2, -748366.4, -771326.75, 46676.22, 0.05890398, -0.4699994, -711779.3, 25364.643, 0.0, 10.000037, 9.99973 
1.7650716e+3, 2.3477627e+2, -756415.56, -723329.2, 33812.066, 0.09733346, -0.47301966, -702230.2, -63084.23, 0.0, 9.999304, 9.99974 
1.765047e+3, 2.4477601e+2, -729623.6, -637077.5, 27034.248, 0.09972474, -0.4740981, -629759.06, -88610.07, 0.0, 9.998718, 9.999941 
1.7650221e+3, 2.54776e+2, -692629.1, -567806.25, 30105.87, 0.062446482, -0.47401547, -560924.44, -117773.86, 0.0, 9.998298, 9.999946 
1.7649975e+3, 2.6477647e+2, -637964.6, -423968.1, 40748.15, 0.059348464, -0.4438383, -416471.63, -71323.38, 0.0, 9.997713, 10.000542 
1.7649736e+3, 2.7477756e+2, -650633.25, -378183.2, 43284.5, 0.09452048, -0.39146146, -371471.84, -124331.664, 0.0, 9.996949, 10.00055 
1.7649491e+3, 2.8477845e+2, -579315.25, -228355.72, 28150.773, 0.10760685, -0.37787244, -226112.06, -76978.78, 0.0, 9.996488, 10.001129 
1.7649241e+3, 2.9477948e+2, -507715.8, -151428.55, 15372.909, 0.09472454, -0.3932077, -150766.47, -99642.47, 0.0, 9.996342, 10.001055 
1.7648984e+3, 3.047813e+2, -553108.9, -150046.75, 41419.46, -0.009191504, -0.30516985, -145834.42, -145834.42, 0.0, 9.995703, 10.001039 
1.764875e+3, 3.1478134e+2, -613470.0, -20519.871, -13360.131, 0.10366705, -0.41523308, -20218.998, -20218.998, 0.0, 9.994608, 10.002454 
1.7753555e+3, 1.2481936e+2, -979482.8, -1673131.1, -29311.063, -0.030101486, -0.43057302, -978246.44, 738480.5, 0.044477127, 10.006697, 9.997075 
1.7753287e+3, 1.3481589e+2, -1027233.3, -1666893.0, 15098.971, -0.08809758, -0.4750095, -1026877.1, 591882.5, 0.029790966, 10.0056505, 9.996936 
1.7753041e+3, 1.4481325e+2, -977847.5, -1517821.9, 3908.92, 0.077821895, -0.45836183, -977819.2, 542966.1, 0.01591003, 10.0049095, 9.9976425 
1.7752773e+3, 1.5481105e+2, -927327.75, -1443011.5, -279.94296, 0.018573772, -0.4478442, -927327.6, 495480.28, 0.005999118, 10.004534, 9.9976635 
1.7752506e+3, 1.6480897e+2, -856295.7, -1264688.9, -13001.892, -0.008266753, -0.4549883, -855882.1, 468945.97, 0.0012659155, 10.003924, 9.998509 
1.7752244e+3, 1.7480725e+2, -882737.75, -1225382.6, -5058.9434, 0.013785408, -0.48137838, -882663.06, 344180.47, 0.000074936936, 10.003058, 9.998523 
1.7751981e+3, 1.8480583e+2, -877529.0, -1151096.8, 2941.5142, 0.02392249, -0.4776431, -877497.4, 251359.55, 0.000000028818846, 10.00233, 9.998712 
1.775172e+3, 1.9480489e+2, -863047.75, -1093238.0, -15829.121, 0.016969154, -0.44615814, -861964.3, 168901.89, 0.0, 10.001756, 9.998713 
1.7751463e+3, 2.0480374e+2, -800817.6, -940641.44, -774.87103, 0.023527063, -0.4546985, -800813.3, 132063.48, 0.0, 10.001201, 9.999355 
1.775121e+3, 2.148026e+2, -779978.75, -878991.94, 10736.913, 0.045775943, -0.50971305, -778827.8, 56058.957, 0.0, 10.000668, 9.999362 
1.7750958e+3, 2.2480188e+2, -770043.5, -818096.4, 20125.648, 0.06470684, -0.5119944, -762728.1, -25834.338, 0.0, 10.000041, 9.999409 
1.7750707e+3, 2.348018e+2, -778273.5, -771318.94, 7324.123, 0.08014196, -0.463555, -766688.56, -127792.89, 0.0, 9.999311, 9.999409 
1.7750455e+3, 2.4480155e+2, -720655.6, -621084.1, 11922.414, 0.08329916, -0.45310622, -619676.5, -78777.18, 0.0, 9.998727, 10.000049 
1.7750205e+3, 2.5480133e+2, -684099.6, -552182.2, 15394.08, 0.07155944, -0.48390394, -550409.6, -107507.21, 0.0, 9.998303, 10.000052 
1.7749953e+3, 2.6480177e+2, -630077.44, -409579.4, 13119.406, 0.06735335, -0.46657902, -408801.56, -63901.9, 0.0, 9.997719, 10.000639 
1.7749701e+3, 2.74803e+2, -641924.2, -362746.8, 15678.135, 0.0745856, -0.40984243, -361869.13, -114979.805, 0.0, 9.996957, 10.000655 
1.7749454e+3, 2.8480396e+2, -594077.9, -261507.78, 22782.66, 0.0954307, -0.3837796, -259954.31, -111072.12, 0.0, 9.996495, 10.000899 
1.7749207e+3, 2.9480502e+2, -521692.84, -183586.13, 9653.751, 0.12234839, -0.3718985, -183310.7, -132436.3, 0.0, 9.996352, 10.000831 
1.774894e+3, 3.0480674e+2, -503412.1, -49030.855, 212.34122, -0.0154223805, -0.3175908, -49030.758, -49030.758, 0.0, 9.995708, 10.001731 
1.7748699e+3, 3.1480753e+2, -603838.56, -1582.7286, -32665.79, 0.11682192, -0.42141798, 183.85103, 183.85103, 0.0, 9.994608, 10.002586 
1.7853624e+3, 1.2484637e+2, -1001825.3, -1689163.6, -13220.951, -0.0041485373, -0.4446955, -1001571.1, 714890.7, 0.04663406, 10.006578, 9.997015 
1.7853343e+3, 1.3484307e+2, -987365.1, -1651992.6, 32399.527, -0.09800157, -0.46669152, -985789.44, 632703.56, 0.03132037, 10.005968, 9.996883 
1.785309e+3, 1.448403e+2, -946937.56, -1512336.8, 33525.89, 0.07420141, -0.45493588, -944956.56, 575563.5, 0.016810697, 10.005177, 9.99755 
1.7852817e+3, 1.5483789e+2, -979835.56, -1478572.6, 35454.313, 0.03148633, -0.4552721, -977327.75, 445216.78, 0.006399688, 10.00422, 9.997569 
1.7852545e+3, 1.6483575e+2, -914792.06, -1296824.5, 19873.248, 0.008116052, -0.4622438, -913761.06, 410804.28, 0.0013775886, 10.003543, 9.99847 
1.7852275e+3, 1.748341e+2, -870804.6, -1223820.6, 10418.94, 0.021288054, -0.47719562, -870497.4, 356082.47, 0.00008619833, 10.003163, 9.998481 
1.7852007e+3, 1.8483254e+2, -837870.8, -1148556.4, 23652.498, 0.026618114, -0.4766341, -836080.44, 292514.0, 0.0000000562377, 10.002678, 9.99856 
1.7851739e+3, 1.9483127e+2, -826340.0, -1092657.1, 31213.62, 0.017940652, -0.46322128, -822730.56, 207876.6, 0.0, 10.002086, 9.998556 
1.7851476e+3, 2.0483002e+2, -775250.0, -935963.75, 44415.836, 0.027226469, -0.47140327, -763791.9, 168827.08, 0.0, 10.001413, 9.999283 
1.7851217e+3, 2.1482898e+2, -787184.1, -890191.1, 27841.74, 0.05763487, -0.5066716, -780140.44, 54487.33, 0.0, 10.000654, 9.99929 
1.7850958e+3, 2.248282e+2, -773010.2, -825758.25, 34904.887, 0.07052009, -0.5072496, -755635.56, -19000.371, 0.0, 10.00005, 9.999351 
1.78507e+3, 2.348279e+2, -739280.9, -758633.4, 41851.203, 0.06431437, -0.47601694, -706001.9, -67362.555, 0.0, 9.999609, 9.9993515 
1.7850442e+3, 2.4482761e+2, -689279.06, -608262.06, 48833.78, 0.069716, -0.46529788, -585322.3, -44678.83, 0.0, 9.998955, 10.000025 
1.7850187e+3, 2.5482756e+2, -720081.25, -572475.25, 41440.773, 0.08595826, -0.47775465, -561636.56, -118991.09, 0.0, 9.998071, 10.000024 
1.7849931e+3, 2.6482797e+2, -661476.9, -420652.38, 37054.543, 0.07779657, -0.4601457, -415079.9, -70437.36, 0.0, 9.997487, 10.000674 
1.784967e+3, 2.7482906e+2, -600767.1, -339103.53, 34423.887, 0.048151076, -0.42215487, -334650.56, -88017.6, 0.0, 9.997225, 10.000687 
1.7849417e+3, 2.8482994e+2, -583478.2, -265166.6, 41513.61, 0.078790575, -0.39955544, -259841.56, -111215.27, 0.0, 9.996608, 10.000819 
1.784917e+3, 2.948311e+2, -635661.56, -243888.92, 38352.74, 0.161061, -0.37247694, -240169.67, -189551.48, 0.0, 9.995596, 10.00078 
1.7848895e+3, 3.0483246e+2, -589218.4, -58831.434, 19678.922, -0.005369168, -0.36239916, -58102.29, -58102.29, 0.0, 9.994987, 10.00201 
1.7848645e+3, 3.1483415e+2, -556987.06, 20600.082, -16989.934, 0.10621285, -0.40413573, 21099.414, 21099.414, 0.0, 9.994934, 10.00258 
1.795369e+3, 1.2487412e+2, -1004611.75, -1687995.8, -31314.258, 0.00974591, -0.44041413, -1003179.9, 713010.3, 0.048878912, 10.006559, 9.997035 
1.79534e+3, 1.3487095e+2, -987304.94, -1647383.5, 9048.818, -0.11502347, -0.45519698, -987180.94, 631039.2, 0.032904748, 10.005955, 9.996923 
1.7953141e+3, 1.4486803e+2, -949683.5, -1516610.6, -2731.2986, 0.06428728, -0.4574574, -949670.4, 570577.9, 0.017739143, 10.005171, 9.997524 
1.795286e+3, 1.5486547e+2, -980202.4, -1481794.4, -633.0737, 0.037246812, -0.46955836, -980201.56, 442072.16, 0.006810583, 10.004229, 9.997544 
1.7952582e+3, 1.6486335e+2, -931462.75, -1334920.8, 5331.4897, 0.019998834, -0.46169662, -931392.3, 392902.44, 0.0014913244, 10.003555, 9.998204 
1.7952307e+3, 1.7486185e+2, -888885.0, -1263355.3, -3424.8933, 0.03010188, -0.43613783, -888853.7, 337455.22, 0.00009724471, 10.003168, 9.998209 
1.7952034e+3, 1.8486004e+2, -824842.56, -1122835.1, 1936.1698, 0.035965443, -0.4552619, -824830.0, 303495.34, 0.000000085167756, 10.00268, 9.998737 
1.795176e+3, 1.948581e+2, -812656.3, -1065784.0, 9468.673, 0.031332426, -0.52423614, -812302.6, 218039.55, 0.0, 10.002089, 9.998741 
1.795149e+3, 2.0485678e+2, -804608.56, -998828.8, 16562.69, 0.042487893, -0.5283836, -803206.25, 129148.47, 0.0, 10.001417, 9.998851 
1.7951225e+3, 2.1485627e+2, -816754.2, -954351.4, 303.52737, 0.07236741, -0.4677948, -816753.5, 17607.313, 0.0, 10.000663, 9.998847 
1.7950958e+3, 2.2485545e+2, -758210.1, -797751.3, 19170.15, 0.07533178, -0.45905882, -750442.2, -14073.158, 0.0, 10.000058, 9.999541 
1.7950693e+3, 2.3485452e+2, -724645.1, -730186.5, 26300.21, 0.049629338, -0.51048636, -700970.06, -62592.5, 0.0, 9.999614, 9.999546 
1.795043e+3, 2.4485414e+2, -700157.1, -632448.5, 16776.75, 0.058918722, -0.50906056, -628519.56, -88137.36, 0.0, 9.998958, 9.99986 
1.795017e+3, 2.548546e+2, -730416.25, -596088.5, 9374.219, 0.10347925, -0.45375007, -595437.44, -153057.17, 0.0, 9.9980755, 9.999862 
1.7949906e+3, 2.6485503e+2, -662882.5, -426277.84, 27826.988, 0.08875881, -0.42437506, -423049.16, -78671.67, 0.0, 9.997495, 10.000633 
1.794964e+3, 2.7485564e+2, -602876.1, -347063.03, 25923.752, 0.016567303, -0.4323556, -344462.38, -98090.12, 0.0, 9.997237, 10.000628 
1.7949381e+3, 2.8485635e+2, -577160.8, -254571.77, 4295.9272, 0.058901858, -0.4276783, -254514.56, -106148.01, 0.0, 9.996615, 10.00089 
1.7949131e+3, 2.9485762e+2, -627576.25, -227432.92, -563.5109, 0.2056217, -0.39175096, -227432.13, -177076.39, 0.0, 9.995593, 10.0008955 
1.7948847e+3, 3.0485842e+2, -601943.2, -85195.57, 16136.451, 0.016203158, -0.4395001, -84692.164, -84692.164, 0.0, 9.994984, 10.001832 
1.794859e+3, 3.1486103e+2, -561197.4, 6751.2876, 15997.391, 0.06384943, -0.36957034, 7201.5283, 7201.5283, 0.0, 9.994952, 10.002478 
1.8053752e+3, 1.2490229e+2, -1064276.6, -1702401.6, -20450.893, 0.01155003, -0.42506388, -1063621.9, 652293.5, 0.05122044, 10.006082, 9.997159 
1.8053459e+3, 1.348992e+2, -1041795.8, -1657133.6, 19435.924, -0.10484527, -0.44568154, -1041182.56, 576761.3, 0.034551747, 10.005505, 9.997072 
1.8053193e+3, 1.4489625e+2, -983456.4, -1533852.9, 6695.804, 0.08133532, -0.457203, -983374.94, 536597.0, 0.01870133, 10.004947, 9.997511 
1.8052901e+3, 1.5489377e+2, -952865.4, -1469986.4, 8634.187, 0.03233733, -0.4618928, -952721.25, 469275.47, 0.0072356644, 10.004431, 9.997526 
1.8052617e+3, 1.6489154e+2, -899644.25, -1329668.5, 26864.27, 0.010638509, -0.45610654, -897972.5, 426045.88, 0.0016081585, 10.003822, 9.99811 
1.805234e+3, 1.7488983e+2, -901829.0, -1280115.4, 29567.697, 0.03321473, -0.4427198, -899531.9, 326502.7, 0.00010803382, 10.003128, 9.998112 
1.8052061e+3, 1.8488795e+2, -855269.06, -1141598.5, 31636.285, 0.04637399, -0.46231234, -851815.25, 276236.38, 0.000000109468616, 10.002493, 9.998696 
1.8051782e+3, 1.9488609e+2, -840345.2, -1083138.4, 22100.86, 0.044320095, -0.5199337, -838349.8, 191717.67, 0.0, 10.00192, 9.9987 
1.8051505e+3, 2.0488462e+2, -817398.7, -1024918.56, 29283.781, 0.050144266, -0.52724636, -813345.5, 118735.92, 0.0, 10.001419, 9.99867 
1.8051232e+3, 2.1488373e+2, -781733.0, -957693.44, 31146.043, 0.06567709, -0.4843725, -776382.7, 57708.57, 0.0, 10.000995, 9.998663 
1.805096e+3, 2.2488284e+2, -718413.94, -777413.3, 48895.176, 0.06821101, -0.47363666, -690808.7, 45291.637, 0.0, 10.00033, 9.999548 
1.805069e+3, 2.3488215e+2, -753578.44, -743393.94, 41168.977, 0.05713436, -0.5027926, -707003.5, -68896.664, 0.0, 9.9994135, 9.999551 
1.805042e+3, 2.4488176e+2, -727865.1, -653635.4, 31154.793, 0.06539277, -0.49733838, -642292.7, -102181.37, 0.0, 9.998802, 9.999788 
1.8050152e+3, 2.54882e+2, -672735.06, -575785.4, 30575.795, 0.092189424, -0.4565323, -566948.0, -124836.82, 0.0, 9.998507, 9.999792 
1.8049881e+3, 2.648823e+2, -611898.75, -412300.78, 49454.83, 0.07772159, -0.4329842, -400719.28, -56609.383, 0.0, 9.997893, 10.000537 
1.8049611e+3, 2.7488282e+2, -653119.8, -382982.06, 43193.613, 0.026058055, -0.43821925, -376243.72, -130137.94, 0.0, 9.9969425, 10.000524 
1.8049347e+3, 2.8488356e+2, -609273.75, -268320.38, 18192.55, 0.06725109, -0.42707315, -267352.4, -119252.695, 0.0, 9.996388, 10.000904 
1.8049087e+3, 2.9488495e+2, -531713.56, -176710.95, 6730.0786, 0.18767759, -0.3823376, -176583.4, -126496.38, 0.0, 9.996234, 10.000935 
1.8048798e+3, 3.0488515e+2, -562896.25, -92753.45, 11864.113, 0.007808125, -0.47614786, -92454.25, -92454.25, 0.0, 9.995369, 10.001593 
1.8048537e+3, 3.14888e+2, -703706.5, -49783.98, 45183.016, 0.08610606, -0.3571853, -46676.81, -46676.81, 0.0, 9.993925, 10.0025835 
1.8153812e+3, 1.24930926e+2, -1052905.4, -1675663.3, -33810.125, 0.001755482, -0.40033847, -1051075.3, 664561.44, 0.053661805, 10.00608, 9.997355 
1.8153517e+3, 1.3492788e+2, -1027731.44, -1624215.8, -1838.8595, -0.073181674, -0.43833688, -1027725.8, 589938.0, 0.036268085, 10.005499, 9.997302 
1.8153246e+3, 1.44925e+2, -985922.5, -1537566.1, -12975.659, 0.11905702, -0.45443347, -985617.44, 534073.44, 0.019704385, 10.004942, 9.997491 
1.8152945e+3, 1.5492274e+2, -954914.44, -1474666.5, -10834.751, 0.017617438, -0.43458107, -954688.7, 467024.84, 0.007679801, 10.00443, 9.997496 
1.8152651e+3, 1.6492034e+2, -895317.1, -1322466.6, 696.65735, -0.017637521, -0.44642878, -895316.0, 428420.34, 0.0017300264, 10.003826, 9.998159 
1.815237e+3, 1.7491807e+2, -896472.5, -1272023.5, 3540.9714, 0.030588508, -0.4930794, -896439.1, 329317.63, 0.000118796386, 10.003138, 9.998164 
1.8152086e+3, 1.8491626e+2, -871949.3, -1179751.1, 10174.443, 0.057115827, -0.494815, -871613.4, 256159.92, 0.00000012626741, 10.002504, 9.99843 
1.8151802e+3, 1.9491513e+2, -857464.5, -1122066.5, 989.3237, 0.056528013, -0.4542371, -857460.8, 172322.8, 0.0, 10.001931, 9.99843 
1.815152e+3, 2.0491342e+2, -812382.1, -1017235.0, 14028.562, 0.049662445, -0.47231466, -811425.94, 120373.72, 0.0, 10.001428, 9.99872 
1.8151239e+3, 2.1491136e+2, -777107.06, -949945.25, 16180.729, 0.037768193, -0.5543953, -775605.3, 58214.0, 0.0, 10.0009985, 9.998715 
1.8150961e+3, 2.2491035e+2, -731204.5, -805479.1, 15640.553, 0.04953299, -0.5473221, -728045.3, 7784.1255, 0.0, 10.000333, 9.999356 
1.8150686e+3, 2.349107e+2, -765992.7, -771368.25, 7813.27, 0.08578943, -0.45320347, -760417.8, -122590.18, 0.0, 9.999419, 9.999358 
1.8150409e+3, 2.4491039e+2, -725449.7, -651365.56, 20830.713, 0.087713, -0.43232474, -645910.2, -106078.56, 0.0, 9.998811, 9.999802 
1.8150131e+3, 2.5490966e+2, -670617.6, -574323.44, 20550.916, 0.0518233, -0.48799238, -570120.94, -128281.76, 0.0, 9.998516, 9.9998 
1.8149856e+3, 2.6490965e+2, -621978.0, -435140.66, 14758.906, 0.045149174, -0.4862214, -433981.97, -90141.46, 0.0, 9.997898, 10.00038 
1.8149585e+3, 2.7491057e+2, -663547.44, -405682.1, 8796.21, 0.074853934, -0.43700013, -405382.38, -159548.44, 0.0, 9.996944, 10.000369 
1.8149313e+3, 2.849115e+2, -611990.56, -276533.72, 13242.986, 0.100846976, -0.39589855, -276011.75, -128185.375, 0.0, 9.996395, 10.000847 
1.8149042e+3, 2.9491287e+2, -532310.56, -184223.83, 100.79972, 0.105493374, -0.34701267, -184223.8, -134410.52, 0.0, 9.996256, 10.0008745 
1.8148746e+3, 3.049126e+2, -582970.0, -137700.52, -45279.55, -0.028171487, -0.47266632, -133142.67, -133142.67, 0.0, 9.99538, 10.001279 
1.8148483e+3, 3.1491467e+2, -683049.56, -4424.6733, 26776.512, 0.1636501, -0.39707765, -3369.792, -3369.792, 0.0, 9.993912, 10.002903 
1.8253873e+3, 1.2496009e+2, -1058387.8, -1673644.3, 8256.165, 0.016347177, -0.40251827, -1058277.0, 657073.9, 0.056204334, 10.006038, 9.997389 
1.8253571e+3, 1.3495727e+2, -1042083.6, -1622452.1, 22264.717, -0.07621367, -0.42518586, -1041230.75, 576145.4, 0.038060218, 10.005371, 9.997374 
1.8253295e+3, 1.4495438e+2, -1013424.75, -1551169.0, 10343.073, 0.12278462, -0.44609344, -1013225.9, 506177.44, 0.020756029, 10.004758, 9.997483 
1.8252988e+3, 1.5495196e+2, -983600.94, -1489143.3, 13679.49, 0.0297767, -0.4398159, -983231.0, 438196.1, 0.008148441, 10.00424, 9.997486 
1.825269e+3, 1.6494952e+2, -909524.0, -1333963.5, 20293.46, -0.006694196, -0.45339084, -908555.94, 414894.25, 0.0018595444, 10.003754, 9.998113 
1.8252401e+3, 1.7494729e+2, -877380.8, -1267850.3, 15173.068, 0.031915765, -0.49033415, -876792.1, 348678.06, 0.000130009, 10.003295, 9.998115 
1.8252112e+3, 1.849454e+2, -840928.6, -1179009.9, 22489.555, 0.052702975, -0.49064088, -839439.1, 288048.4, 0.00000013249935, 10.002783, 9.9983 
1.8251821e+3, 1.9494408e+2, -825263.25, -1121344.0, 22090.201, 0.049481284, -0.45563167, -823624.2, 205875.77, 0.0, 10.002219, 9.998294 
1.8251534e+3, 2.049423e+2, -789979.1, -1002474.06, 38038.684, 0.045127407, -0.47513372, -783375.06, 148141.39, 0.0, 10.001568, 9.998752 
1.8251248e+3, 2.1494028e+2, -800100.56, -956813.75, 37646.887, 0.041390594, -0.555944, -791525.9, 42009.21, 0.0, 10.000827, 9.99875 
1.8250963e+3, 2.2493923e+2, -761257.44, -837400.06, 32735.553, 0.05334715, -0.54907507, -749118.75, -13572.796, 0.0, 10.000204, 9.999197 
1.825068e+3, 2.349394e+2, -736547.1, -774710.1, 26835.748, 0.081449166, -0.45533887, -722700.5, -85153.914, 0.0, 9.9997015, 9.999197 
1.8250398e+3, 2.4493898e+2, -680381.44, -622928.7, 50007.43, 0.08099582, -0.43770877, -593984.0, -54432.656, 0.0, 9.999095, 9.999858 
1.8250117e+3, 2.5493824e+2, -686191.06, -575959.94, 52441.36, 0.04909013, -0.50052917, -554997.8, -113439.72, 0.0, 9.998385, 9.99985 
1.8249834e+3, 2.649382e+2, -649108.75, -461237.0, 40399.867, 0.04624538, -0.4989558, -452917.8, -109358.2, 0.0, 9.997769, 10.000261 
1.8249555e+3, 2.749391e+2, -629095.7, -401842.0, 36584.332, 0.07841614, -0.44120887, -396097.7, -150543.64, 0.0, 9.997239, 10.000251 
1.8249278e+3, 2.8493991e+2, -583411.94, -265187.78, 54445.613, 0.09249606, -0.40053084, -256130.36, -108582.9, 0.0, 9.996604, 10.000823 
1.8248999e+3, 2.9494116e+2, -594342.75, -216207.48, 42062.117, 0.075779565, -0.36306417, -211585.19, -162049.69, 0.0, 9.995841, 10.000854 
1.8248701e+3, 3.0494103e+2, -652083.94, -193576.19, -23620.861, -0.0029291466, -0.4612666, -192362.53, -192362.53, 0.0, 9.995007, 10.001075 
1.8248422e+3, 3.149426e+2, -616661.44, 55649.92, 85957.945, 0.1584349, -0.41569316, 66466.016, 66466.016, 0.0, 9.994248, 10.003153 
1.8353936e+3, 1.2498983e+2, -1071977.1, -1693211.6, -10329.597, 0.04448835, -0.42757592, -1071805.4, 643252.6, 0.058852497, 10.006012, 9.997261 
1.835362e+3, 1.3498737e+2, -1049216.3, -1635004.0, -3676.152, -0.1089126, -0.40689403, -1049193.1, 567887.9, 0.039935652, 10.005365, 9.997292 
1.8353339e+3, 1.4498438e+2, -1013427.56, -1551727.5, -10328.759, 0.098101914, -0.43329263, -1013229.44, 505880.0, 0.021864397, 10.004761, 9.99748 
1.8353035e+3, 1.5498148e+2, -983133.6, -1489149.9, -6073.0786, 0.064860456, -0.47465146, -983060.75, 438076.44, 0.008647444, 10.004242, 9.997487 
1.8352732e+3, 1.649791e+2, -919584.44, -1356220.1, 2879.3176, 0.0377094, -0.47498775, -919565.44, 403594.38, 0.0019997943, 10.003756, 9.997961 
1.8352434e+3, 1.7497745e+2, -887602.9, -1290901.1, -2167.4521, 0.036161643, -0.43867648, -887591.2, 337584.0, 0.0001423853, 10.0033, 9.997956 
1.8352138e+3, 1.8497533e+2, -841373.44, -1181825.4, 1444.8972, 0.033806067, -0.45326242, -841367.3, 285827.63, 0.00000012564814, 10.002787, 9.998281 
1.8351841e+3, 1.9497296e+2, -825604.2, -1124172.3, 1634.4872, 0.023837164, -0.52050674, -825595.25, 203621.27, 0.0, 10.002225, 9.998274 
1.8351547e+3, 2.0497125e+2, -789412.2, -1003363.1, 10950.896, 0.036664113, -0.53148365, -788853.2, 142378.86, 0.0, 10.001574, 9.998745 
1.8351258e+3, 2.1497042e+2, -799489.1, -957523.6, 10568.8125, 0.07501436, -0.4911568, -798785.44, 34453.895, 0.0, 10.000832, 9.998744 
1.8350968e+3, 2.2496931e+2, -769658.3, -856887.7, 14660.545, 0.0777267, -0.4825484, -767260.25, -32009.426, 0.0, 10.00021, 9.999063 
1.8350674e+3, 2.3496816e+2, -745122.06, -794848.0, 9057.62, 0.04384482, -0.5090071, -743523.6, -106259.375, 0.0, 9.999707, 9.999058 
1.8350385e+3, 2.4496752e+2, -673616.3, -610704.3, 24396.586, 0.045899183, -0.5115174, -602352.4, -63081.42, 0.0, 9.9991, 9.999942 
1.8350102e+3, 2.5496766e+2, -679127.8, -562989.44, 26974.658, 0.08315963, -0.49331984, -557030.0, -115761.44, 0.0, 9.998389, 9.999939 
1.8349816e+3, 2.6496783e+2, -654985.1, -475859.97, 21476.62, 0.07938331, -0.4713583, -473320.97, -130053.016, 0.0, 9.997775, 10.00016 
1.8349522e+3, 2.7496824e+2, -634687.25, -417220.4, 18050.621, 0.035193663, -0.45243943, -415732.3, -170465.16, 0.0, 9.997251, 10.000142 
1.8349238e+3, 2.8496867e+2, -580687.5, -262211.84, 26016.986, 0.041821208, -0.44318143, -260100.45, -112836.34, 0.0, 9.996613, 10.000841 
1.8348959e+3, 2.9496968e+2, -592640.44, -213453.28, 11971.631, 0.09786537, -0.43232352, -213075.69, -163821.05, 0.0, 9.995841, 10.0008745 
1.834866e+3, 3.0497047e+2, -659454.06, -210331.11, -52952.02, 0.083333194, -0.43820882, -204172.47, -204172.47, 0.0, 9.995008, 10.000961 
1.8348356e+3, 3.1497175e+2, -608481.3, 65602.14, 76787.086, 0.066135846, -0.40617535, 74238.56, 74238.56, 0.0, 9.994273, 10.003211 
1.8453993e+3, 1.2501974e+2, -1137368.3, -1724835.1, -8307.806, 0.04353157, -0.4473482, -1137250.8, 577513.2, 0.061612956, 10.005551, 9.997255 
1.8453673e+3, 1.350175e+2, -1081789.6, -1646322.8, -2920.546, -0.10323951, -0.4073409, -1081774.5, 535011.1, 0.041902285, 10.005124, 9.997329 
1.8453386e+3, 1.4501461e+2, -1023159.7, -1550063.3, -2294.4731, 0.10911406, -0.42682344, -1023149.7, 495663.38, 0.023036864, 10.004675, 9.997531 
1.8453076e+3, 1.5501174e+2, -982369.1, -1483078.1, 4312.322, 0.066702425, -0.47110248, -982332.0, 438508.1, 0.009182137, 10.004229, 9.997533 
1.8452768e+3, 1.6500926e+2, -932014.25, -1375566.8, 14527.429, 0.03762051, -0.47745302, -931538.94, 391324.8, 0.0021537591, 10.003732, 9.997838 
1.8452466e+3, 1.750074e+2, -912960.8, -1316916.0, 10973.068, 0.03970077, -0.4495785, -912663.0, 312218.75, 0.0001568468, 10.003188, 9.997829 
1.8452165e+3, 1.8500528e+2, -852625.4, -1173269.5, 18637.367, 0.036381673, -0.46226662, -851545.75, 275355.56, 0.00000011027377, 10.002653, 9.998401 
1.8451862e+3, 1.9500314e+2, -831253.2, -1113119.3, 27695.162, 0.020998428, -0.5188856, -828557.7, 200362.38, 0.0, 10.002131, 9.998393 
1.8451563e+3, 2.0500143e+2, -798606.75, -1015597.06, 33404.785, 0.034159053, -0.5317736, -793580.6, 137354.73, 0.0, 10.001548, 9.998672 
1.8451267e+3, 2.150004e+2, -794662.6, -963542.3, 27488.406, 0.07877011, -0.5034486, -790301.0, 42643.74, 0.0, 10.000904, 9.998667 
1.8450971e+3, 2.2499923e+2, -761761.6, -856618.8, 37370.29, 0.08261253, -0.4958606, -748808.0, -13850.979, 0.0, 10.000283, 9.999027 
1.845067e+3, 2.3499809e+2, -751401.1, -801985.3, 38121.965, 0.044072434, -0.51467294, -730944.2, -93974.016, 0.0, 9.999686, 9.999017 
1.8450375e+3, 2.4499744e+2, -687088.1, -623126.9, 45451.52, 0.042881563, -0.5144126, -599532.3, -60555.12, 0.0, 9.999036, 9.999886 
1.8450086e+3, 2.5499752e+2, -693074.8, -575500.25, 36556.777, 0.080477275, -0.49688607, -565060.8, -124085.3, 0.0, 9.998323, 9.999883 
1.8449792e+3, 2.6499766e+2, -664675.06, -480924.25, 36438.75, 0.08075728, -0.475377, -473962.06, -130986.86, 0.0, 9.997716, 10.000152 
1.8449496e+3, 2.74998e+2, -639923.1, -420672.9, 40066.39, 0.03973131, -0.45697242, -413580.5, -168606.14, 0.0, 9.997222, 10.000131 
1.8449202e+3, 2.849984e+2, -584858.9, -258791.52, 41336.07, 0.029952833, -0.4592324, -253632.89, -106660.77, 0.0, 9.996564, 10.000886 
1.8448913e+3, 2.949992e+2, -606940.5, -214438.31, 26877.883, 0.06336832, -0.4708845, -212606.31, -163641.98, 0.0, 9.995722, 10.000923 
1.8448614e+3, 3.0500057e+2, -653391.7, -203464.55, -24792.137, 0.13057114, -0.41868496, -202102.56, -202102.56, 0.0, 9.995036, 10.000992 
1.8448296e+3, 3.1500134e+2, -581297.06, 66997.766, 117535.59, 0.033949457, -0.43919092, 87649.08, 87649.08, 0.0, 9.994514, 10.003102 
1.8554045e+3, 1.2504987e+2, -1133248.8, -1711634.5, -16089.818, 0.01588148, -0.463559, -1132801.5, 581666.6, 0.06448668, 10.005547, 9.997351 
1.8553726e+3, 1.3504776e+2, -1075146.4, -1627860.9, -19222.674, -0.06632167, -0.4247, -1074478.6, 542010.25, 0.04396352, 10.005114, 9.997462 
1.8553437e+3, 1.4504516e+2, -1019477.56, -1540150.4, -19640.447, 0.14822893, -0.42578012, -1018737.75, 499775.88, 0.024277225, 10.004667, 9.997604 
1.8553115e+3, 1.5504274e+2, -977487.56, -1473970.1, -12861.292, 0.03818167, -0.43303174, -977154.6, 443381.34, 0.0097558005, 10.004231, 9.997596 
1.8552801e+3, 1.6503999e+2, -938227.1, -1390807.3, -6240.6875, -0.0022466278, -0.46300516, -938141.1, 384420.94, 0.0023237388, 10.003738, 9.997732 
1.8552497e+3, 1.750372e+2, -919238.25, -1331980.4, -9019.813, 0.042462844, -0.5180929, -919041.25, 305548.0, 0.00017441528, 10.003193, 9.997726 
1.8552193e+3, 1.8503532e+2, -835676.94, -1139700.5, -476.9876, 0.05800954, -0.51327395, -835676.2, 290930.2, 0.00000010372912, 10.002656, 9.998632 
1.8551885e+3, 1.9503458e+2, -814798.56, -1080103.6, 8474.456, 0.038947772, -0.4540471, -814528.1, 214083.33, 0.0, 10.002132, 9.998621 
1.8551578e+3, 2.0503278e+2, -808303.8, -1037325.4, 9554.592, 0.036471177, -0.47983083, -807905.94, 122721.48, 0.0, 10.001551, 9.998523 
1.8551274e+3, 2.1503021e+2, -804044.2, -985744.94, 4260.7637, 0.05300662, -0.5906719, -803944.4, 28707.16, 0.0, 10.000913, 9.998512 
1.8550971e+3, 2.2502895e+2, -757600.8, -850493.06, 15892.977, 0.06872244, -0.58542234, -754956.94, -20292.223, 0.0, 10.000291, 9.999067 
1.855067e+3, 2.3502918e+2, -747646.25, -796200.3, 16829.023, 0.08138454, -0.4723154, -742383.6, -105718.61, 0.0, 9.999691, 9.999056 
1.8550368e+3, 2.4502867e+2, -701123.06, -654170.4, 19500.697, 0.070256695, -0.4479998, -647127.6, -108456.64, 0.0, 9.999041, 9.999672 
1.8550065e+3, 2.550277e+2, -706872.8, -606694.2, 10593.816, 0.039528176, -0.51195294, -605586.1, -164906.33, 0.0, 9.99833, 9.999667 
1.8549766e+3, 2.6502758e+2, -658274.9, -469837.0, 18560.672, 0.050693553, -0.51087165, -468026.22, -125344.016, 0.0, 9.997722, 10.000227 
1.8549472e+3, 2.7502838e+2, -633252.94, -409124.75, 22615.08, 0.0928104, -0.4547676, -406865.63, -162189.03, 0.0, 9.997229, 10.000209 
1.854917e+3, 2.850289e+2, -580240.25, -251491.55, 10070.332, 0.055553515, -0.44801712, -251183.36, -104510.9, 0.0, 9.99657, 10.000936 
1.854886e+3, 2.950296e+2, -601531.06, -206371.53, -4814.032, -0.0325322, -0.47785884, -206312.89, -157647.2, 0.0, 9.99573, 10.000977 
1.8548565e+3, 3.050313e+2, -638450.3, -175984.34, -44301.902, 0.13780475, -0.40527445, -171778.69, -171778.69, 0.0, 9.9950485, 10.001177 
1.8548246e+3, 3.1503195e+2, -605322.1, 12903.883, 79752.57, 0.079025745, -0.45455572, 23026.408, 23026.408, 0.0, 9.994529, 10.002726 
1.86541e+3, 1.2508063e+2, -1148762.5, -1710652.0, 8796.155, 0.020008152, -0.4610581, -1148624.9, 565541.8, 0.067464165, 10.005414, 9.99742 
1.8653776e+3, 1.3507852e+2, -1098133.3, -1626514.8, -6128.406, -0.07151399, -0.4329553, -1098062.3, 518124.9, 0.0461141, 10.004907, 9.99757 
1.865348e+3, 1.4507599e+2, -1041233.2, -1541056.8, -3742.552, 0.14233239, -0.43656006, -1041205.2, 477005.8, 0.025583478, 10.004481, 9.997686 
1.8653157e+3, 1.5507364e+2, -982791.8, -1467407.4, 4054.7, 0.036553323, -0.44315004, -982757.9, 437474.56, 0.01036863, 10.004162, 9.997673 
1.8652838e+3, 1.6507101e+2, -935397.4, -1377737.0, 11172.915, -0.0031175034, -0.47025776, -935115.4, 387142.06, 0.002510873, 10.003713, 9.997832 
1.865253e+3, 1.7506836e+2, -920846.94, -1321620.0, 21003.393, 0.039237045, -0.52135336, -919749.25, 304534.1, 0.00019592533, 10.003138, 9.997822 
1.8652219e+3, 1.8506648e+2, -853271.1, -1145611.3, 27479.887, 0.058682613, -0.5201346, -850710.44, 275589.78, 0.00000012857653, 10.002527, 9.9986515 
1.8651906e+3, 1.9506566e+2, -849865.6, -1094641.9, 21005.006, 0.049465206, -0.4699969, -848076.2, 180229.55, 0.0, 10.001884, 9.998639 
1.8651593e+3, 2.0506391e+2, -828034.25, -1043790.56, 24478.531, 0.042744596, -0.49425218, -825291.94, 105029.49, 0.0, 10.001406, 9.998547 
1.8651281e+3, 2.1506146e+2, -776889.7, -969988.25, 30339.43, 0.04104681, -0.59508765, -772235.0, 60109.707, 0.0, 10.001091, 9.998531 
1.8650974e+3, 2.2506018e+2, -727521.6, -841936.8, 35609.617, 0.058654465, -0.5879061, -717344.1, 17014.008, 0.0, 10.000526, 9.99901 
1.8650667e+3, 2.350603e+2, -748628.5, -802761.1, 29008.688, 0.092654526, -0.478667, -736020.06, -99660.55, 0.0, 9.999715, 9.998998 
1.8650359e+3, 2.4505979e+2, -703343.2, -656126.1, 38041.31, 0.08064632, -0.45197147, -634963.0, -96597.3, 0.0, 9.999034, 9.999659 
1.8650046e+3, 2.5505888e+2, -686879.75, -598806.1, 43004.813, 0.029280102, -0.5087261, -581290.9, -140916.77, 0.0, 9.99848, 9.999646 
1.8649742e+3, 2.6505873e+2, -648937.6, -466892.03, 53480.285, 0.04679419, -0.5087012, -452343.6, -109966.67, 0.0, 9.997797, 10.000209 
1.8649445e+3, 2.7505946e+2, -670994.8, -427727.28, 49523.68, 0.1171042, -0.45910084, -418031.8, -173659.83, 0.0, 9.996977, 10.000199 
1.8649134e+3, 2.8506e+2, -619514.7, -268635.94, 31635.21, 0.059149407, -0.45034894, -265806.53, -119438.99, 0.0, 9.996298, 10.000946 
1.8648812e+3, 2.950607e+2, -591722.25, -200561.94, 14832.928, -0.082860745, -0.4769367, -200000.28, -151640.08, 0.0, 9.995799, 10.00098 
1.8648519e+3, 3.050623e+2, -582301.25, -138882.34, -26461.465, 0.15949325, -0.4206062, -137308.81, -137308.81, 0.0, 9.995395, 10.001263 
1.8648191e+3, 3.150629e+2, -583404.44, -12917.26, 55987.72, 0.07318249, -0.47939402, -7474.54, -7474.54, 0.0, 9.994841, 10.002395 
1.8754156e+3, 1.2511203e+2, -1148988.8, -1708388.8, -1353.752, 0.046132144, -0.44277528, -1148985.5, 564873.94, 0.07053459, 10.005415, 9.9974375 
1.875382e+3, 1.3510978e+2, -1094552.9, -1618502.6, -25124.059, -0.114046715, -0.43302593, -1093350.9, 522529.22, 0.04834554, 10.004913, 9.997623 
1.8753521e+3, 1.4510712e+2, -1035013.9, -1528175.0, -15738.641, 0.09695183, -0.45736495, -1034512.1, 483392.84, 0.026950683, 10.004485, 9.997775 
1.87532e+3, 1.5510453e+2, -977537.25, -1455143.0, -7633.252, 0.058434367, -0.49637493, -977415.25, 442513.5, 0.0110191535, 10.004155, 9.997763 
1.8752879e+3, 1.6510235e+2, -918220.5, -1340975.1, -10524.953, 0.029767768, -0.4966784, -917958.6, 403990.8, 0.002715594, 10.003704, 9.998091 
1.8752559e+3, 1.7510077e+2, -903417.3, -1285970.0, -873.94904, 0.029466026, -0.46458024, -903415.3, 320549.44, 0.00022189613, 10.003136, 9.99807 
1.8752241e+3, 1.8509871e+2, -864991.0, -1171888.0, 3296.5105, 0.039440103, -0.48681945, -864955.6, 261027.88, 0.00000020880177, 10.002532, 9.998471 
1.8751924e+3, 1.9509645e+2, -860721.75, -1120798.3, -2393.6465, 0.052527755, -0.56231976, -860699.75, 167303.03, 0.0, 10.001896, 9.998456 
1.8751608e+3, 2.0509483e+2, -814812.75, -1019288.5, 13360.772, 0.052310582, -0.5703422, -813943.44, 116073.84, 0.0, 10.001415, 9.998713 
1.8751293e+3, 2.1509409e+2, -765311.2, -946676.5, 19229.086, 0.04213692, -0.5189901, -763294.8, 68730.164, 0.0, 10.001091, 9.998694 
1.8750978e+3, 2.2509286e+2, -738791.3, -865826.5, 5812.4946, 0.051653773, -0.5069682, -738525.94, -4487.687, 0.0, 10.000525, 9.998849 
1.8750663e+3, 2.3509145e+2, -758825.5, -825946.0, -228.8404, 0.077268146, -0.53408253, -758824.7, -122770.53, 0.0, 9.99972, 9.998838 
1.8750347e+3, 2.4509075e+2, -690498.4, -631884.0, 18250.014, 0.07431644, -0.5250132, -626666.25, -88604.45, 0.0, 9.999041, 9.999825 
1.8750033e+3, 2.5509098e+2, -674546.2, -576137.5, 23253.006, 0.04946202, -0.48682007, -570919.7, -130860.51, 0.0, 9.998488, 9.9998 
1.8749723e+3, 2.6509097e+2, -656771.2, -485594.44, 23266.734, 0.06766956, -0.46899036, -482488.34, -140428.16, 0.0, 9.997804, 10.000078 
1.8749414e+3, 2.7509105e+2, -677888.5, -444570.06, 18592.49, 0.11034989, -0.4711073, -443097.78, -199036.06, 0.0, 9.996984, 10.000082 
1.8749095e+3, 2.850915e+2, -621559.75, -274969.66, 12891.489, 0.040646654, -0.46657822, -274490.8, -128432.38, 0.0, 9.996303, 10.000902 
1.8748769e+3, 2.9509243e+2, -594439.2, -209299.63, -406.69592, -0.08560952, -0.4665017, -209299.19, -161250.31, 0.0, 9.995808, 10.000919 
1.8748476e+3, 3.0509335e+2, -582511.6, -144115.84, -44611.42, 0.19349286, -0.46908268, -139622.22, -139622.22, 0.0, 9.995411, 10.001221 
1.8748134e+3, 3.1509468e+2, -598971.6, -52062.387, -12660.144, 0.029281555, -0.45466566, -51769.48, -51769.48, 0.0, 9.994865, 10.002116 
1.8854208e+3, 1.2514393e+2, -1134983.9, -1694710.8, 37037.438, 0.031888865, -0.44024894, -1132543.8, 581002.5, 0.07370166, 10.00551, 9.997492 
1.8853872e+3, 1.3514163e+2, -1077494.5, -1601390.3, 6451.166, -0.10268758, -0.44492063, -1077415.0, 538151.94, 0.050656594, 10.005012, 9.997697 
1.8853568e+3, 1.45139e+2, -1037304.6, -1523042.3, 16830.35, 0.10598778, -0.47077096, -1036722.1, 480869.13, 0.02837634, 10.004453, 9.997824 
1.8853238e+3, 1.5513645e+2, -1016381.6, -1468667.0, 21161.252, 0.048546143, -0.5113216, -1015393.75, 404221.56, 0.011706272, 10.003868, 9.997807 
1.8852912e+3, 1.6513439e+2, -963697.25, -1351312.5, 8803.751, 0.022218667, -0.505658, -963497.44, 358137.5, 0.0029381227, 10.003345, 9.998191 
1.8852589e+3, 1.7513303e+2, -934640.25, -1289578.4, 7270.461, 0.04231512, -0.45932263, -934491.4, 289156.44, 0.00025257785, 10.002876, 9.998168 
1.8852267e+3, 1.8513103e+2, -868957.75, -1167054.3, 15726.047, 0.051318157, -0.48489183, -868130.44, 257535.58, 0.0000003626038, 10.0024805, 9.998528 
1.8851942e+3, 1.951286e+2, -819696.4, -1095253.9, 25378.201, 0.04370666, -0.58179927, -817378.6, 210308.05, 0.0, 10.002156, 9.998504 
1.8851621e+3, 2.0512703e+2, -799592.5, -1011967.6, 36861.906, 0.046857532, -0.5871575, -793376.4, 136324.69, 0.0, 10.001523, 9.998709 
1.8851303e+3, 2.1512654e+2, -837799.4, -981728.94, 29900.13, 0.062851295, -0.50872993, -831835.0, -128.17255, 0.0, 10.000597, 9.99869 
1.8850982e+3, 2.2512539e+2, -806515.8, -886540.06, 23601.504, 0.0684468, -0.49468467, -800073.6, -66354.12, 0.0, 10.000013, 9.998952 
1.8850657e+3, 2.3512384e+2, -747083.1, -808635.4, 35889.297, 0.061734248, -0.5447465, -730581.25, -94844.98, 0.0, 9.999755, 9.998938 
1.8850337e+3, 2.4512315e+2, -664617.25, -618728.9, 51875.742, 0.056633297, -0.54045177, -584949.75, -47206.05, 0.0, 9.99922, 9.999826 
1.8850018e+3, 2.551235e+2, -684730.06, -580581.56, 44485.46, 0.059072476, -0.4899414, -564167.25, -124427.23, 0.0, 9.998421, 9.9998 
1.88497e+3, 2.651235e+2, -655948.9, -486841.53, 44879.707, 0.07962137, -0.47243705, -475669.0, -133927.69, 0.0, 9.997822, 10.000059 
1.8849385e+3, 2.7512345e+2, -619133.8, -417739.38, 46439.22, 0.098455675, -0.48317298, -407546.88, -163802.89, 0.0, 9.997398, 10.000064 
1.8849057e+3, 2.8512397e+2, -575919.56, -253261.81, 40212.0, 0.026087875, -0.46838197, -248325.81, -102585.914, 0.0, 9.996622, 10.0008955 
1.8848726e+3, 2.9512507e+2, -634330.8, -233047.31, 33245.492, -0.07237684, -0.4502917, -230311.64, -182582.88, 0.0, 9.995559, 10.000873 
1.884843e+3, 3.051254e+2, -605888.56, -180811.13, 4892.082, 0.2055666, -0.49739212, -180754.83, -180754.83, 0.0, 9.995364, 10.000989 
1.8848084e+3, 3.151269e+2, -486740.66, -5034.2627, -29242.855, -0.002413618, -0.44360292, -3265.5166, -3265.5166, 0.0, 9.995671, 10.0020485 
1.8954259e+3, 1.2517637e+2, -1132571.1, -1685261.5, 26649.824, -0.020644814, -0.45232522, -1131289.1, 581937.9, 0.07698488, 10.0055065, 9.997565 
1.8953925e+3, 1.3517405e+2, -1074869.3, -1591075.9, -12334.351, -0.044714723, -0.46696952, -1074574.6, 540672.75, 0.053056132, 10.004999, 9.99778 
1.8953615e+3, 1.4517161e+2, -1039849.25, -1525977.8, -5708.1772, 0.16088949, -0.47774938, -1039782.25, 477487.8, 0.029862428, 10.004444, 9.99781 
1.8953273e+3, 1.551693e+2, -1017413.25, -1471961.6, -1112.3488, 0.008523882, -0.49203357, -1017410.56, 401881.88, 0.012429577, 10.003871, 9.997784 
1.895294e+3, 1.6516708e+2, -965426.4, -1357753.1, -8786.73, -0.022312483, -0.49863017, -965229.7, 356084.25, 0.0031781998, 10.003354, 9.998145 
1.8952622e+3, 1.751652e+2, -935869.56, -1295316.0, -9711.909, 0.07563627, -0.5013948, -935607.4, 287724.6, 0.0002879766, 10.002886, 9.998126 
1.8952295e+3, 1.8516345e+2, -850238.8, -1130359.5, 3917.9026, 0.091007896, -0.5115671, -850184.06, 275163.47, 0.0000005824179, 10.002485, 9.998779 
1.8951961e+3, 1.9516203e+2, -802890.75, -1060674.8, 13062.049, 0.02327474, -0.5323938, -802230.6, 225127.55, 0.0, 10.002154, 9.998745 
1.8951634e+3, 2.0516038e+2, -811802.44, -1037899.75, 2374.6362, 0.027271396, -0.5484856, -811777.5, 117595.984, 0.0, 10.001522, 9.998533 
1.8951312e+3, 2.1515879e+2, -848633.56, -1006610.94, -3446.0256, 0.101287015, -0.562698, -848558.4, -17167.871, 0.0, 10.000604, 9.998518 
1.8950985e+3, 2.2515771e+2, -781024.5, -836683.0, 14884.633, 0.10705551, -0.5483736, -777294.0, -43891.742, 0.0, 10.000022, 9.999291 
1.8950655e+3, 2.3515742e+2, -722717.0, -760588.0, 26825.502, 0.04554548, -0.5103293, -708817.1, -73410.71, 0.0, 9.999762, 9.999267 
1.8950325e+3, 2.4515685e+2, -675495.5, -643457.5, 22630.62, 0.027357025, -0.49897322, -631750.06, -94337.75, 0.0, 9.999226, 9.999656 
1.8950002e+3, 2.5515634e+2, -695019.1, -604356.1, 15725.894, 0.05741908, -0.5194997, -601705.9, -162288.27, 0.0, 9.998427, 9.999636 
1.8949679e+3, 2.651561e+2, -649224.6, -475730.28, 29949.693, 0.08241323, -0.519813, -470705.7, -129284.49, 0.0, 9.997829, 10.0001335 
1.8949357e+3, 2.751565e+2, -612388.06, -408320.75, 30106.531, 0.07939213, -0.49521706, -403971.75, -160552.06, 0.0, 9.997414, 10.000124 
1.8949023e+3, 2.851573e+2, -572856.0, -250122.66, -47.478508, 0.014102487, -0.45505363, -250122.64, -104709.81, 0.0, 9.996633, 10.000914 
1.8948685e+3, 2.9515848e+2, -636943.75, -240432.13, -1584.0841, -0.041982513, -0.42869928, -240425.8, -193024.84, 0.0, 9.9955635, 10.000822 
1.894838e+3, 3.0515823e+2, -636229.9, -247930.56, 21425.12, 0.19297509, -0.5054384, -246751.97, -246751.97, 0.0, 9.995378, 10.0005245 
1.894804e+3, 3.1515953e+2, -468099.06, 25075.943, -66921.266, -0.012938087, -0.43149337, 33995.492, 33995.492, 0.0, 9.995703, 10.002243 
1.9054314e+3, 1.2520938e+2, -1140939.5, -1693737.8, 50934.766, -0.0024847651, -0.46227887, -1136285.6, 576616.44, 0.08039653, 10.005487, 9.99751 
1.9053975e+3, 1.3520683e+2, -1116967.8, -1616547.5, -5916.4175, -0.043180726, -0.4928952, -1116897.6, 498027.22, 0.055550195, 10.004733, 9.997722 
1.9053657e+3, 1.4520447e+2, -1071051.1, -1533031.3, 5979.6284, 0.15160891, -0.49671534, -1070973.8, 445973.28, 0.031409662, 10.004196, 9.997879 
1.905331e+3, 1.5520236e+2, -1012468.75, -1461562.1, 16097.99, 0.010965875, -0.4960327, -1011892.44, 407074.94, 0.013186877, 10.003878, 9.99785 
1.9052975e+3, 1.6520019e+2, -939264.1, -1333374.6, 15678.852, -0.021681592, -0.50504154, -938641.4, 382346.8, 0.003434, 10.0034895, 9.998244 
1.9052649e+3, 1.7519823e+2, -907206.5, -1270920.6, 23094.035, 0.06125182, -0.52695584, -905746.0, 317260.75, 0.00032763038, 10.003041, 9.998217 
1.9052318e+3, 1.851965e+2, -859329.9, -1138614.5, 27493.643, 0.08263389, -0.5345414, -856649.06, 268373.06, 0.00000084087617, 10.002443, 9.998741 
1.9051982e+3, 1.951953e+2, -870392.0, -1096714.9, 15389.791, 0.03996853, -0.5310904, -869350.3, 157681.52, 0.0, 10.00171, 9.998709 
1.9051649e+3, 2.0519376e+2, -847241.75, -1034613.44, 4495.6143, 0.040738147, -0.54422647, -847134.0, 81912.375, 0.0, 10.001195, 9.998712 
1.9051318e+3, 2.1519214e+2, -796161.94, -961939.8, 23129.918, 0.08591402, -0.5770755, -792995.25, 38067.63, 0.0, 10.000884, 9.998688 
1.9050986e+3, 2.2519113e+2, -737963.25, -815502.9, 43665.75, 0.08983167, -0.5639949, -718339.56, 14734.261, 0.0, 10.0003195, 9.999291 
1.905065e+3, 2.3519097e+2, -757273.1, -776826.5, 30095.002, 0.050688993, -0.509446, -735406.6, -100329.766, 0.0, 9.999526, 9.999267 
1.9050317e+3, 2.4519049e+2, -712248.6, -654282.1, 19822.29, 0.032009196, -0.49562624, -648151.94, -111069.53, 0.0, 9.998947, 9.999713 
1.9049984e+3, 2.551899e+2, -671899.7, -586633.06, 29035.621, 0.04207651, -0.5269991, -577684.75, -138596.58, 0.0, 9.998562, 9.99969 
1.9049656e+3, 2.651897e+2, -627427.9, -460034.4, 49246.324, 0.06658559, -0.5284522, -446621.2, -105529.88, 0.0, 9.997961, 10.000175 
1.9049329e+3, 2.7519017e+2, -646608.1, -419891.06, 46113.125, 0.08000285, -0.49690837, -410870.78, -167782.2, 0.0, 9.997163, 10.000163 
1.9048989e+3, 2.85191e+2, -575769.0, -253505.27, 10790.09, 0.026229996, -0.457736, -253144.39, -108062.38, 0.0, 9.996626, 10.000892 
1.9048646e+3, 2.9519212e+2, -532269.7, -198985.27, 8896.041, -0.021138657, -0.43521488, -198747.98, -151676.58, 0.0, 9.9963255, 10.000737 
1.9048333e+3, 3.0519205e+2, -575515.3, -230617.16, 62291.5, 0.1481978, -0.48146078, -219711.61, -219711.61, 0.0, 9.995851, 10.000413 
1.9047995e+3, 3.1519294e+2, -544794.3, 21930.588, -39396.64, 0.006748853, -0.44429445, 24656.19, 24656.19, 0.0, 9.995037, 10.00254 
1.9154376e+3, 1.2524292e+2, -1155733.9, -1719916.9, 30474.66, 0.07046846, -0.47254673, -1154092.5, 558478.9, 0.08391664, 10.00548, 9.997326 
1.9154017e+3, 1.3524e+2, -1129467.8, -1644959.1, -33181.004, -0.09294854, -0.5216249, -1127340.8, 487258.06, 0.058126274, 10.004745, 9.997524 
1.9153693e+3, 1.452376e+2, -1060773.4, -1513111.4, -5883.5073, 0.08582349, -0.52525395, -1060696.9, 455924.53, 0.033010073, 10.004208, 9.998013 
1.9153354e+3, 1.5523568e+2, -1003575.0, -1442130.3, 4121.824, 0.051407024, -0.5205986, -1003536.25, 415103.44, 0.013972206, 10.003875, 9.997987 
1.9153012e+3, 1.6523373e+2, -925956.75, -1304683.8, -1287.4426, 0.018268961, -0.52377677, -925952.4, 394705.22, 0.003701848, 10.003482, 9.998447 
1.9152674e+3, 1.7523205e+2, -894553.44, -1244427.9, 5807.592, 0.0023804575, -0.5371255, -894457.06, 328215.5, 0.0003705665, 10.003036, 9.998404 
1.9152336e+3, 1.8523018e+2, -881062.56, -1184631.8, 97.8287, 0.030023197, -0.55362517, -881062.56, 243627.69, 0.0000011196438, 10.002443, 9.998427 
1.9152004e+3, 1.9522841e+2, -890343.2, -1140450.5, -10903.078, 0.090676084, -0.574912, -889868.75, 136838.81, 0.0, 10.001716, 9.998408 
1.9151664e+3, 2.0522712e+2, -811348.56, -962780.94, -6035.4546, 0.0837837, -0.57218206, -811108.4, 117611.266, 0.0, 10.001203, 9.999203 
1.9151318e+3, 2.1522653e+2, -762059.94, -893137.1, 11879.408, 0.018606013, -0.5526415, -760992.0, 69732.484, 0.0, 10.000888, 9.99916 
1.915098e+3, 2.2522555e+2, -760975.94, -865226.1, 14416.341, 0.019533556, -0.54259306, -759019.1, -26283.986, 0.0, 10.000324, 9.99895 
1.9150648e+3, 2.352245e+2, -779155.75, -824497.1, 1611.674, 0.07648409, -0.5427575, -779098.56, -144350.31, 0.0, 9.999532, 9.998939 
1.915031e+3, 2.4522397e+2, -692204.9, -615292.6, 6534.968, 0.06902591, -0.5304546, -614741.3, -77986.76, 0.0, 9.998955, 9.999979 
1.9149967e+3, 2.5522414e+2, -652401.8, -549440.75, 15311.477, 0.010852066, -0.5112151, -547212.0, -108459.75, 0.0, 9.998572, 9.999943 
1.9149631e+3, 2.6522422e+2, -626079.25, -460328.4, 19685.96, 0.031036409, -0.49705097, -458022.4, -117270.08, 0.0, 9.997971, 10.000172 
1.9149302e+3, 2.7522448e+2, -645008.4, -419383.34, 16961.594, 0.10158439, -0.49001116, -418115.38, -175363.61, 0.0, 9.99717, 10.000165 
1.9148959e+3, 2.8522494e+2, -579452.7, -264423.28, 36.965103, 0.06368823, -0.47908378, -264423.28, -119674.58, 0.0, 9.996635, 10.0008135 
1.9148609e+3, 2.9522583e+2, -538134.3, -218193.84, -391.8045, -0.013768627, -0.471578, -218193.36, -171451.89, 0.0, 9.996351, 10.000595 
1.9148283e+3, 3.0522677e+2, -555558.6, -194941.14, 34479.273, 0.065657444, -0.41939038, -191674.11, -191674.11, 0.0, 9.995871, 10.00065 
1.9147947e+3, 3.152271e+2, -518572.97, 75873.33, -86432.63, 0.045661665, -0.47068912, 88185.63, 88185.63, 0.0, 9.995033, 10.002915 
1.9254431e+3, 1.252768e+2, -1171104.4, -1719035.5, 45206.21, 0.07811408, -0.48340043, -1167399.8, 544838.75, 0.087491475, 10.005348, 9.997395 
1.9254063e+3, 1.3527398e+2, -1096198.0, -1622449.9, -10424.21, -0.09511208, -0.52833176, -1095991.6, 518273.47, 0.060750026, 10.004981, 9.997562 
1.9253734e+3, 1.4527163e+2, -1031008.75, -1491238.5, 22197.064, 0.07254275, -0.5313572, -1029940.6, 486346.44, 0.034644246, 10.004398, 9.998074 
1.9253391e+3, 1.5526961e+2, -1031123.8, -1448719.1, 26590.71, 0.056174126, -0.54110235, -1029437.44, 388868.56, 0.014775382, 10.003659, 9.998044 
1.9253045e+3, 1.6526774e+2, -976340.06, -1320271.5, 17942.396, 0.028130675, -0.5443785, -975406.56, 344916.75, 0.0039769937, 10.003101, 9.998522 
1.9252701e+3, 1.7526625e+2, -938916.25, -1257311.9, 15086.191, 0.0022833217, -0.54489523, -938203.0, 284133.44, 0.00041562846, 10.002699, 9.998475 
1.925236e+3, 1.8526447e+2, -900242.5, -1183029.0, 13598.933, 0.024239702, -0.55989945, -899590.06, 224763.27, 0.0000014320457, 10.00227, 9.998519 
1.925202e+3, 1.9526269e+2, -870091.6, -1121241.5, 30036.516, 0.08499119, -0.590358, -866549.3, 159821.5, 0.0, 10.001818, 9.998489 
1.9251674e+3, 2.0526144e+2, -798323.75, -956050.06, 34725.438, 0.07879791, -0.5858502, -791016.94, 137365.64, 0.0, 10.001294, 9.999203 
1.9251326e+3, 2.1526098e+2, -788284.56, -905185.0, 16086.688, 0.013095472, -0.5534607, -786111.25, 44275.254, 0.0, 10.0007105, 9.99916 
1.9250982e+3, 2.2526005e+2, -773909.8, -862091.4, 11091.6875, 0.00945784, -0.5427193, -772536.06, -40139.43, 0.0, 10.000199, 9.999029 
1.9250642e+3, 2.3525895e+2, -742217.3, -798185.3, 28592.674, 0.060466476, -0.55553603, -730193.25, -95783.336, 0.0, 9.999752, 9.999011 
1.9250299e+3, 2.4525842e+2, -659906.4, -605058.44, 39374.645, 0.060612302, -0.5434034, -584498.7, -48082.34, 0.0, 9.999204, 9.9999275 
1.9249952e+3, 2.552587e+2, -657166.7, -556787.8, 23548.023, 0.019595234, -0.5091458, -551538.2, -113124.4, 0.0, 9.998566, 9.999893 
1.924961e+3, 2.6525882e+2, -633593.8, -458092.0, 9989.408, 0.03306916, -0.4895904, -457525.25, -117111.95, 0.0, 9.997898, 10.000219 
1.9249271e+3, 2.7525905e+2, -638161.94, -410442.84, 11158.381, 0.080873124, -0.49237728, -409897.38, -167484.78, 0.0, 9.997197, 10.000212 
1.9248925e+3, 2.8525934e+2, -577116.06, -267918.94, 11553.254, 0.0600829, -0.49843004, -267487.84, -123076.6, 0.0, 9.9966755, 10.000769 
1.9248576e+3, 2.952601e+2, -549599.3, -228442.33, 14404.667, 0.025333619, -0.49591467, -227797.53, -181391.95, 0.0, 9.996298, 10.000548 
1.9248237e+3, 3.052618e+2, -536412.1, -154113.23, 45801.027, 0.020513538, -0.38093626, -148702.66, -148702.66, 0.0, 9.995871, 10.000929 
1.9247898e+3, 3.1526163e+2, -484904.34, 71636.43, -76503.92, 0.052704267, -0.5068548, 81961.36, 81961.36, 0.0, 9.995357, 10.002728 
1.9354479e+3, 1.2531109e+2, -1152516.9, -1680648.6, 38421.82, 0.028682945, -0.4964799, -1149736.3, 562166.5, 0.09105915, 10.005371, 9.997667 
1.9354117e+3, 1.3530873e+2, -1084651.1, -1592354.0, -24362.82, -0.05628429, -0.5160086, -1083484.8, 530439.1, 0.06337843, 10.004966, 9.997787 
1.935378e+3, 1.4530648e+2, -1035843.2, -1496647.1, -5167.5205, 0.10300535, -0.51863194, -1035785.2, 480159.28, 0.036287192, 10.004381, 9.998046 
1.9353424e+3, 1.5530415e+2, -1032478.9, -1453120.1, -255.70445, 0.027693693, -0.5577903, -1032478.75, 385487.66, 0.015584892, 10.003665, 9.998013 
1.9353075e+3, 1.6530219e+2, -978571.6, -1327946.8, 3330.2507, 0.010715721, -0.5656302, -978539.9, 341445.16, 0.004255348, 10.003111, 9.9984665 
1.9352733e+3, 1.7530079e+2, -941642.25, -1263765.0, 663.76074, 0.05513315, -0.5505399, -941640.9, 280357.3, 0.00046201874, 10.002699, 9.998432 
1.9352385e+3, 1.8529934e+2, -869284.4, -1119409.5, -2913.4263, 0.059869647, -0.55481, -869250.44, 254761.08, 0.0000018185868, 10.002268, 9.998959 
1.9352031e+3, 1.9529805e+2, -840205.6, -1061006.4, 13101.001, 0.026148234, -0.5791587, -839431.0, 186591.36, 0.0, 10.0018215, 9.998902 
1.9351684e+3, 2.0529665e+2, -830822.6, -1025658.2, 13101.281, 0.029430145, -0.5859418, -829945.56, 98090.44, 0.0, 10.001299, 9.998725 
1.9351338e+3, 2.1529545e+2, -819464.56, -971462.4, -4493.3477, 0.06615757, -0.578868, -819331.9, 10717.448, 0.0, 10.000713, 9.998706 
1.9350988e+3, 2.2529459e+2, -739946.94, -793768.75, -4485.683, 0.055527397, -0.56369865, -739575.6, -7516.88, 0.0, 10.000204, 9.999498 
1.9350633e+3, 2.3529425e+2, -709656.75, -733366.94, 12737.166, 0.0017902217, -0.5471818, -704111.3, -70048.836, 0.0, 9.99976, 9.9994545 
1.9350284e+3, 2.4529375e+2, -685396.0, -660867.3, 16134.559, 0.007531883, -0.53411984, -652865.0, -116796.375, 0.0, 9.999211, 9.999543 
1.9349943e+3, 2.552934e+2, -681459.5, -610178.4, 270.8546, 0.069312215, -0.5229756, -610177.4, -172103.58, 0.0, 9.998574, 9.999525 
1.9349593e+3, 2.6529336e+2, -626087.2, -444772.78, -15913.054, 0.072658315, -0.50761074, -443386.78, -103311.48, 0.0, 9.997904, 10.00031 
1.9349235e+3, 2.7529374e+2, -631635.25, -399664.47, -13956.245, 0.012563664, -0.50241345, -398827.84, -156755.84, 0.0, 9.997205, 10.000284 
1.9348885e+3, 2.8529397e+2, -577164.06, -271818.53, -2667.5488, 0.011592774, -0.51436925, -271795.22, -127724.52, 0.0, 9.996687, 10.000739 
1.9348547e+3, 2.9529476e+2, -543753.56, -222155.97, 67.782814, 0.09951132, -0.51104933, -222155.95, -176090.64, 0.0, 9.996318, 10.000585 
1.9348194e+3, 3.052969e+2, -511389.47, -106562.305, 27589.623, 0.0165377, -0.36986536, -104690.68, -104690.68, 0.0, 9.995886, 10.00125 
1.9347847e+3, 3.1529683e+2, -536595.94, -41102.844, -69730.33, -0.0051300544, -0.5138089, -31476.764, -31476.764, 0.0, 9.995375, 10.001947 
1.9454534e+3, 1.253464e+2, -1092385.9, -1650091.0, 75292.46, 0.0140688, -0.4968441, -1082399.9, 629156.4, 0.09458199, 10.005845, 9.997669 
1.9454165e+3, 1.35344e+2, -1143434.1, -1625489.6, -9853.811, -0.04059449, -0.51634175, -1143232.8, 470345.56, 0.0659813, 10.004568, 9.99774 
1.945382e+3, 1.4534178e+2, -1099139.8, -1516908.1, 20517.996, 0.1073464, -0.51775116, -1098134.5, 417464.1, 0.037919987, 10.003894, 9.998136 
1.945346e+3, 1.5533954e+2, -1015086.6, -1434083.5, 32547.918, 0.017669689, -0.5559937, -1012573.4, 405045.84, 0.016392693, 10.003749, 9.9981 
1.9453105e+3, 1.6533755e+2, -956795.4, -1317103.5, 35284.98, 0.002106993, -0.56822735, -953372.44, 366265.38, 0.0045348266, 10.003266, 9.998463 
1.9452758e+3, 1.7533608e+2, -971437.7, -1278169.6, 35458.223, 0.06063551, -0.5623439, -967392.1, 254259.98, 0.0005095191, 10.0025, 9.998427 
1.9452406e+3, 1.8533467e+2, -905889.1, -1130587.4, 27205.477, 0.06468298, -0.56162953, -902642.1, 221022.69, 0.0000023367377, 10.001993, 9.999013 
1.9452049e+3, 1.9533361e+2, -852191.5, -1060336.6, 14776.209, 0.016488696, -0.56848603, -851147.75, 174525.75, 0.0, 10.001717, 9.998956 
1.9451694e+3, 2.0533223e+2, -834046.2, -1027642.06, 11015.64, 0.019708138, -0.5772697, -833421.44, 94265.83, 0.0, 10.001284, 9.998715 
1.9451344e+3, 2.1533082e+2, -820524.0, -973052.5, 26319.586, 0.070385605, -0.5896305, -816110.1, 13592.579, 0.0, 10.000714, 9.9986925 
1.945099e+3, 2.2532997e+2, -734594.06, -784836.25, 30939.525, 0.060805626, -0.57372516, -719861.4, 11850.485, 0.0, 10.000218, 9.999551 
1.9450629e+3, 2.3532988e+2, -701980.94, -723466.3, 16397.56, -0.0042304504, -0.53870434, -693120.44, -59407.46, 0.0, 9.999791, 9.999505 
1.9450274e+3, 2.4532937e+2, -687165.0, -666213.0, 10058.923, -0.0021413295, -0.52589273, -662165.6, -126446.54, 0.0, 9.999224, 9.999497 
1.9449927e+3, 2.553288e+2, -691779.9, -620241.94, 19433.596, 0.06325576, -0.53073955, -615303.6, -177577.06, 0.0, 9.998529, 9.9994755 
1.9449571e+3, 2.6532868e+2, -617751.06, -444425.16, 13017.073, 0.063288555, -0.5189868, -443453.0, -103724.03, 0.0, 9.997981, 10.000273 
1.9449207e+3, 2.7532908e+2, -585202.1, -381987.7, 4647.21, -0.003539492, -0.508563, -381881.47, -140155.92, 0.0, 9.997549, 10.0002365 
1.9448853e+3, 2.853293e+2, -541163.75, -266609.8, 10122.253, 0.008141429, -0.5133034, -266237.13, -122512.914, 0.0, 9.996991, 10.000626 
1.9448511e+3, 2.9533014e+2, -544724.06, -224666.92, 6614.601, 0.116171815, -0.4922481, -224530.27, -178812.42, 0.0, 9.996325, 10.000562 
1.9448149e+3, 3.0533183e+2, -496956.3, -69206.89, 33771.902, -0.0074480474, -0.41359705, -66556.93, -66556.93, 0.0, 9.995859, 10.001517 
1.9447802e+3, 3.153326e+2, -543147.2, -94917.375, -35834.895, 0.0028039094, -0.4905989, -92070.55, -92070.55, 0.0, 9.995553, 10.00149 
1.9554593e+3, 1.2538269e+2, -1115192.4, -1685420.8, 35025.563, 0.022936484, -0.48807484, -1113049.1, 598150.75, 0.09806438, 10.005806, 9.997423 
1.955421e+3, 1.3537979e+2, -1161609.1, -1667946.4, -53618.16, -0.045326658, -0.5270042, -1155993.5, 457234.44, 0.068558834, 10.004584, 9.997445 
1.9553858e+3, 1.4537755e+2, -1084287.3, -1490889.9, 15378.679, 0.08939053, -0.5260209, -1083706.5, 431542.34, 0.0395414, 10.003918, 9.998311 
1.9553497e+3, 1.5537575e+2, -1004052.9, -1409768.8, 26004.836, 0.023096297, -0.5379232, -1002392.9, 414871.78, 0.017198281, 10.003743, 9.998273 
1.9553137e+3, 1.6537383e+2, -956036.25, -1314704.0, 6296.2217, -0.00004395507, -0.5548144, -955925.75, 363356.44, 0.0048155324, 10.00326, 9.998485 
1.9552779e+3, 1.7537205e+2, -968761.75, -1276446.9, 7346.192, 0.022890503, -0.5795579, -968586.44, 252712.06, 0.0005582625, 10.002512, 9.998436 
1.9552423e+3, 1.8537049e+2, -925635.0, -1175424.4, 17361.355, 0.041455775, -0.57885545, -924434.06, 198879.38, 0.000003033972, 10.002006, 9.998701 
1.9552068e+3, 1.953694e+2, -872277.2, -1102768.4, 5190.2905, 0.051900025, -0.5584933, -872160.4, 153163.88, 0.0, 10.001716, 9.998667 
1.955171e+3, 2.0536813e+2, -804912.7, -968281.5, -9245.189, 0.04559404, -0.56064886, -804391.2, 122945.32, 0.0, 10.001284, 9.9991255 
1.9551346e+3, 2.15367e+2, -791952.75, -916781.9, 6141.2095, 0.02697913, -0.5860982, -791651.3, 37696.098, 0.0, 10.000723, 9.999077 
1.9550988e+3, 2.2536613e+2, -758619.2, -837996.3, 15642.504, 0.027346423, -0.57287306, -755647.8, -24291.07, 0.0, 10.000228, 9.999184 
1.955063e+3, 2.3536573e+2, -725238.0, -773848.0, 1030.9989, 0.041751686, -0.53069824, -725216.1, -91853.97, 0.0, 9.999796, 9.999159 
1.955027e+3, 2.4536519e+2, -666422.3, -625408.25, -15080.408, 0.029754177, -0.5190908, -620460.3, -85091.695, 0.0, 9.999229, 9.999777 
1.9549905e+3, 2.5536484e+2, -672355.2, -582812.1, -5354.605, -0.0022208348, -0.5317151, -582493.06, -145120.25, 0.0, 9.998537, 9.999731 
1.9549544e+3, 2.653647e+2, -629792.75, -472392.5, -2552.5537, 0.0033538812, -0.5228858, -472351.1, -132975.88, 0.0, 9.99799, 10.000079 
1.9549187e+3, 2.7536488e+2, -596277.8, -410083.78, -11486.049, 0.035532743, -0.5129126, -409377.9, -168003.27, 0.0, 9.997566, 10.000038 
1.9548827e+3, 2.8536513e+2, -553377.6, -296497.88, -16012.746, 0.05112614, -0.495688, -295503.56, -152130.36, 0.0, 9.997007, 10.000415 
1.9548468e+3, 2.9536617e+2, -550444.6, -239105.39, -18202.396, 0.067445055, -0.43577376, -238044.81, -192680.5, 0.0, 9.996331, 10.000462 
1.9548103e+3, 3.0536634e+2, -482270.44, -41620.17, 21040.742, -0.053182814, -0.5180635, -40617.77, -40617.77, 0.0, 9.995867, 10.001705 
1.9547763e+3, 3.153685e+2, -540589.1, -98904.17, -6486.3, 0.06608878, -0.46146378, -98808.94, -98808.94, 0.0, 9.995589, 10.001447 
1.965465e+3, 1.254194e+2, -1209779.9, -1730121.4, 51728.664, 0.058150064, -0.48977566, -1204687.3, 506152.66, 0.101541944, 10.005093, 9.997442 
1.9654256e+3, 1.3541643e+2, -1119060.5, -1648344.6, -23502.125, -0.051396325, -0.52988476, -1118019.0, 494849.78, 0.071137026, 10.004928, 9.99741 
1.9653895e+3, 1.4541413e+2, -1029572.75, -1469116.4, 50058.793, 0.05961985, -0.52901167, -1023943.75, 490946.66, 0.04116572, 10.004344, 9.998258 
1.9653533e+3, 1.5541239e+2, -1052103.1, -1438511.3, 44839.51, 0.02443537, -0.52908427, -1046968.06, 369937.97, 0.01800684, 10.003437, 9.99822 
1.9653168e+3, 1.6541049e+2, -999429.56, -1329404.6, 22550.71, 0.007031374, -0.5429115, -997895.56, 321027.72, 0.0050984747, 10.002938, 9.998537 
1.9652803e+3, 1.7540872e+2, -926107.3, -1249884.3, 24491.86, 0.011574739, -0.5734611, -924265.1, 296674.16, 0.0006082642, 10.002785, 9.998484 
1.9652443e+3, 1.8540706e+2, -889680.4, -1160713.5, 40960.22, 0.030906912, -0.5824593, -883625.5, 239329.42, 0.0000039260876, 10.00227, 9.998672 
1.9652084e+3, 1.9540581e+2, -914128.6, -1126287.3, 47988.137, 0.06017941, -0.57380724, -903779.06, 121188.09, 0.0, 10.001448, 9.998632 
1.965172e+3, 2.0540461e+2, -841847.0, -981830.1, 36502.332, 0.054276515, -0.56980824, -832900.4, 94078.42, 0.0, 10.001017, 9.999159 
1.9651353e+3, 2.1540372e+2, -761185.8, -897989.7, 23117.256, 0.01867227, -0.5752495, -757385.0, 71602.34, 0.0, 10.000922, 9.999107 
1.965099e+3, 2.2540276e+2, -727095.2, -827872.94, 22150.117, 0.018883348, -0.5684622, -722441.7, 8555.716, 0.0, 10.000471, 9.999133 
1.9650629e+3, 2.3540202e+2, -740952.9, -786868.1, 30216.791, 0.049702693, -0.5537468, -725961.75, -92955.87, 0.0, 9.999716, 9.999106 
1.9650263e+3, 2.4540149e+2, -670974.06, -625244.3, 17058.465, 0.034880184, -0.5396464, -619582.1, -84569.89, 0.0, 9.999192, 9.999794 
1.964989e+3, 2.554014e+2, -624760.5, -557862.06, 6156.692, -0.018387077, -0.52614784, -557300.2, -120286.44, 0.0, 9.998862, 9.9997425 
1.9649522e+3, 2.654012e+2, -586287.2, -465584.53, 1426.6493, -0.016600335, -0.5160472, -465567.7, -126550.69, 0.0, 9.998355, 9.999947 
1.9649161e+3, 2.7540112e+2, -588524.44, -420477.38, -3406.3281, 0.031435255, -0.5206487, -420408.38, -179388.58, 0.0, 9.997685, 9.999907 
1.9648796e+3, 2.8540146e+2, -538956.9, -290340.66, 1402.794, 0.050081775, -0.4884809, -290332.75, -147315.44, 0.0, 9.997113, 10.000403 
1.964843e+3, 2.9540274e+2, -502992.63, -212942.88, 14699.458, 0.048366856, -0.4022455, -212199.83, -167194.88, 0.0, 9.996649, 10.000485 
1.9648063e+3, 3.0540165e+2, -486413.63, -89890.516, 31695.11, -0.045653827, -0.590409, -87373.03, -87373.03, 0.0, 9.996042, 10.001287 
1.9647719e+3, 3.154045e+2, -569192.1, -88437.28, -1718.2643, 0.080754496, -0.41714627, -88431.14, -88431.14, 0.0, 9.995293, 10.00166 
1.9754705e+3, 1.2545654e+2, -1195078.9, -1696537.4, 45776.414, 0.1137722, -0.49916703, -1190934.4, 519541.6, 0.10505243, 10.005106, 9.997676 
1.9754304e+3, 1.354539e+2, -1111199.1, -1625208.0, -32306.219, -0.061050326, -0.52590805, -1109176.6, 503324.34, 0.0737428, 10.004912, 9.997579 
1.9753934e+3, 1.454515e+2, -1050369.8, -1508976.1, 16495.55, 0.01732877, -0.5277194, -1049777.3, 464746.56, 0.042807594, 10.004333, 9.997981 
1.9753566e+3, 1.554495e+2, -1068888.0, -1477067.1, 12724.295, 0.022438029, -0.52786756, -1068491.6, 348051.53, 0.01882361, 10.003449, 9.9979515 
1.9753198e+3, 1.6544761e+2, -992778.75, -1319532.6, 16752.838, 0.02243325, -0.5315066, -991922.06, 326638.75, 0.0053845523, 10.002953, 9.9986 
1.9752832e+3, 1.7544603e+2, -921312.3, -1240407.9, 17815.621, 0.022893298, -0.5465555, -920320.75, 300253.94, 0.0006593564, 10.002783, 9.998552 
1.9752465e+3, 1.8544434e+2, -874532.0, -1130718.0, 10193.262, 0.030512536, -0.5742335, -874127.06, 248462.66, 0.000004997438, 10.002272, 9.998879 
1.9752096e+3, 1.9544283e+2, -898156.3, -1098722.6, 18394.424, 0.04288873, -0.61227256, -896483.25, 128119.414, 0.0, 10.001468, 9.998814 
1.9751729e+3, 2.054416e+2, -862494.44, -1029988.06, 33346.934, 0.047077604, -0.6025133, -856099.44, 70515.2, 0.0, 10.001035, 9.998821 
1.9751365e+3, 2.1544085e+2, -782748.44, -944175.9, 19609.133, 0.043471076, -0.5574963, -780400.56, 48222.61, 0.0, 10.000924, 9.998792 
1.9750994e+3, 2.2543977e+2, -709931.06, -793706.0, -5219.1577, 0.033177406, -0.56116724, -709607.1, 21027.166, 0.0, 10.000473, 9.999369 
1.9750622e+3, 2.3543866e+2, -724575.06, -755899.06, 3477.5742, 0.01827018, -0.6075471, -724193.6, -91548.74, 0.0, 9.999724, 9.999316 
1.9750251e+3, 2.4543816e+2, -687867.25, -663447.5, 5270.4, 0.013407182, -0.5865953, -662358.6, -127707.76, 0.0, 9.999202, 9.99953 
1.9749881e+3, 2.554384e+2, -640935.7, -595115.8, -6087.682, 0.015617317, -0.5138716, -594320.8, -157670.42, 0.0, 9.998873, 9.999484 
1.9749509e+3, 2.654381e+2, -589983.75, -476862.34, -23854.828, 0.0030295807, -0.49864438, -472037.66, -133382.2, 0.0, 9.998366, 9.999866 
1.9749132e+3, 2.7543762e+2, -592285.75, -431334.63, -28988.672, -0.020313872, -0.53282267, -426272.72, -185610.48, 0.0, 9.997694, 9.99983 
1.9748762e+3, 2.854381e+2, -525730.8, -265508.06, -16549.238, 0.0018751991, -0.49203193, -264459.8, -121801.95, 0.0, 9.997121, 10.000572 
1.9748397e+3, 2.9543966e+2, -491070.6, -194741.58, -1848.2512, 0.059188444, -0.3934155, -194730.06, -150088.72, 0.0, 9.996672, 10.000602 
1.9748029e+3, 3.054376e+2, -559082.9, -247473.94, -1106.0166, 0.018292356, -0.6288061, -247470.02, -247470.02, 0.0, 9.996066, 10.000196 
1.9747667e+3, 3.1543958e+2, -534886.75, -20288.895, -9854.274, 0.04069138, -0.44025004, -20100.26, -20100.26, 0.0, 9.995301, 10.002126 
1.9854753e+3, 1.2549391e+2, -1182217.8, -1674356.4, 53024.406, 0.08614926, -0.50860137, -1176569.6, 533540.3, 0.108611345, 10.005153, 9.997823 
1.9854353e+3, 1.3549164e+2, -1151041.4, -1632992.9, -32451.293, -0.040725183, -0.5089548, -1148866.3, 463265.28, 0.07638452, 10.004579, 9.997685 
1.9853976e+3, 1.4548925e+2, -1082785.9, -1520540.6, 16002.018, 0.025995994, -0.51815856, -1082201.8, 431952.6, 0.04447065, 10.004091, 9.998014 
1.98536e+3, 1.5548715e+2, -1038988.0, -1459005.3, 31837.299, 0.016374635, -0.5283353, -1036588.44, 379585.84, 0.019649835, 10.003653, 9.997975 
1.9853227e+3, 1.6548523e+2, -973206.8, -1315979.4, 49703.05, 0.017612204, -0.5323881, -966145.2, 352047.13, 0.0056739985, 10.00312, 9.998541 
1.9852859e+3, 1.7548366e+2, -964055.9, -1266812.6, 41381.934, 0.02878703, -0.5412328, -958501.56, 261705.06, 0.00071145245, 10.00252, 9.998495 
1.9852486e+3, 1.8548198e+2, -882024.06, -1130783.8, 21060.299, 0.03234113, -0.5654447, -880253.6, 241967.73, 0.000006217688, 10.00221, 9.998906 
1.9852112e+3, 1.954805e+2, -798712.6, -1047574.56, 15400.788, 0.029030617, -0.6028111, -797763.2, 226470.33, 0.0, 10.002141, 9.998838 
1.9851741e+3, 2.0547917e+2, -783301.25, -995970.8, 31588.229, 0.03662729, -0.6019114, -778708.56, 147537.53, 0.0, 10.001601, 9.99878 
1.9851372e+3, 2.1547823e+2, -822953.1, -968135.9, 38230.445, 0.05275131, -0.5726381, -813501.4, 14754.9795, 0.0, 10.000672, 9.998746 
1.9850999e+3, 2.2547711e+2, -756949.2, -817626.75, 15124.743, 0.04336852, -0.57525694, -753388.1, -23120.424, 0.0, 10.00016, 9.999352 
1.985062e+3, 2.3547614e+2, -687001.44, -739023.1, 4523.4805, 0.013766463, -0.6073495, -686611.06, -54333.973, 0.0, 9.999993, 9.9993 
1.9850244e+3, 2.4547558e+2, -651763.0, -654177.5, 1475.6777, 0.012639275, -0.58755296, -651063.7, -116780.05, 0.0, 9.99949, 9.999451 
1.9849871e+3, 2.554756e+2, -670393.5, -617179.44, 4264.8906, 0.033994388, -0.52902186, -616839.8, -180554.6, 0.0, 9.99871, 9.999409 
1.9849491e+3, 2.654752e+2, -622274.8, -493003.56, -3661.1956, 0.017912855, -0.51668054, -492899.97, -154609.05, 0.0, 9.998152, 9.999856 
1.9849108e+3, 2.7547482e+2, -583721.1, -428358.25, -4613.5547, -0.025422338, -0.5399813, -428221.38, -187924.7, 0.0, 9.997765, 9.999813 
1.9848731e+3, 2.8547525e+2, -510345.6, -268605.8, -409.7307, -0.014406302, -0.49900392, -268605.13, -126312.05, 0.0, 9.997278, 10.000472 
1.984836e+3, 2.954765e+2, -501016.44, -216259.53, -6747.1523, 0.034836054, -0.42165107, -216099.75, -171819.83, 0.0, 9.996681, 10.000446 
1.9847994e+3, 3.0547467e+2, -595434.9, -314482.63, 597.1319, 0.055415228, -0.59867007, -314481.38, -314481.38, 0.0, 9.996033, 9.99975 
1.9847617e+3, 3.1547546e+2, -476549.72, 75920.95, 47710.387, 0.014712817, -0.49140048, 80010.86, 80010.86, 0.0, 9.995414, 10.002729 
1.9954793e+3, 1.255316e+2, -1182294.3, -1669711.9, 33594.496, -0.0146295605, -0.5177447, -1179989.8, 529751.25, 0.11220897, 10.005146, 9.997865 
1.9954401e+3, 1.3552973e+2, -1150159.3, -1629325.0, -51829.34, 0.005810102, -0.47983167, -1144617.3, 467142.25, 0.0790553, 10.004579, 9.997714 
1.9954023e+3, 1.455274e+2, -1063020.9, -1479952.9, -103.03148, 0.07794714, -0.500348, -1063020.9, 450760.6, 0.046152074, 10.004097, 9.998303 
1.9953635e+3, 1.5552537e+2, -1019907.25, -1420731.4, 14357.692, 0.004941186, -0.53047276, -1019393.6, 396405.7, 0.020485152, 10.00366, 9.998236 
1.9953255e+3, 1.6552338e+2, -984774.3, -1343448.4, 26455.322, -0.0063936026, -0.5444693, -982833.5, 334984.5, 0.0059670242, 10.003131, 9.998349 
1.9952883e+3, 1.7552161e+2, -974774.3, -1293744.8, 19793.545, 0.029979236, -0.5549215, -973550.75, 246284.36, 0.0007647542, 10.002535, 9.998305 
1.9952509e+3, 1.8552e+2, -890697.0, -1152209.3, 18779.688, 0.03598628, -0.55565673, -889355.25, 232494.67, 0.0000075719613, 10.00222, 9.998756 
1.9952132e+3, 1.9551879e+2, -808247.44, -1067585.1, 12108.935, 0.017533375, -0.54903924, -807683.25, 216176.7, 0.0, 10.002138, 9.998704 
1.9951755e+3, 2.0551729e+2, -768099.75, -965305.56, -2686.3557, 0.022324491, -0.5708349, -768063.1, 157810.4, 0.0, 10.001601, 9.998993 
1.9951378e+3, 2.1551579e+2, -808182.7, -940927.1, 5655.2295, 0.046122443, -0.6189695, -807942.2, 19945.168, 0.0, 10.000683, 9.99893 
1.9951e+3, 2.2551474e+2, -773700.75, -856318.9, 9630.73, 0.049376644, -0.6087493, -772592.94, -42694.887, 0.0, 10.000173, 9.9990835 
1.9950621e+3, 2.3551437e+2, -703820.94, -776387.9, -1850.2363, 0.035740793, -0.5539275, -703773.8, -71870.47, 0.0, 9.999999, 9.999043 
1.9950241e+3, 2.4551363e+2, -644209.75, -640908.0, -27293.48, 0.03152598, -0.5437005, -615215.5, -81303.97, 0.0, 9.999496, 9.999541 
1.9949858e+3, 2.5551286e+2, -662555.9, -603813.4, -23721.451, 0.034307435, -0.5736609, -595430.44, -159511.05, 0.0, 9.998717, 9.999498 
1.9949472e+3, 2.6551244e+2, -618220.0, -487432.38, -18102.717, 0.02792407, -0.57082254, -484972.97, -147048.52, 0.0, 9.998159, 9.999893 
1.9949089e+3, 2.755126e+2, -580552.44, -426977.66, -19328.102, 0.016700545, -0.5412112, -424582.5, -184658.2, 0.0, 9.997783, 9.999817 
1.9948706e+3, 2.8551272e+2, -535668.2, -325439.03, -24121.355, 0.00018687523, -0.50991553, -322706.9, -180782.4, 0.0, 9.9972925, 10.000076 
1.9948322e+3, 2.95513e+2, -531022.56, -281129.13, -32132.46, -0.028182367, -0.49110964, -277063.53, -233140.64, 0.0, 9.996689, 10.0 
1.9947954e+3, 3.0551282e+2, -578024.5, -281411.2, -25244.613, 0.06427276, -0.49161622, -279277.97, -279277.97, 0.0, 9.99604, 9.999976 
1.9947572e+3, 3.1551245e+2, -435026.94, 156965.48, 1813.2128, 0.027133776, -0.5316792, 156971.05, 156971.05, 0.0, 9.995433, 10.003279 
2.0054844e+3, 1.2557001e+2, -1179583.0, -1667612.4, 56122.914, -0.023374159, -0.52486736, -1173212.1, 536152.6, 0.11583386, 10.005187, 9.99786 
2.0054448e+3, 1.3556826e+2, -1179416.8, -1642916.6, -27409.844, 0.009237198, -0.47246152, -1177801.4, 433580.75, 0.08175115, 10.004371, 9.997716 
2.005406e+3, 1.4556584e+2, -1084804.6, -1486895.3, 28714.285, 0.06966698, -0.50218284, -1082764.4, 430640.7, 0.047853246, 10.003938, 9.998327 
2.0053671e+3, 1.5556389e+2, -998502.0, -1407969.8, 23983.822, 0.007999101, -0.52909195, -997102.0, 418320.38, 0.021332018, 10.003809, 9.998251 
2.0053288e+3, 1.6556193e+2, -942714.2, -1326404.4, 23032.31, -0.0014439088, -0.53683734, -941336.56, 376104.06, 0.006264904, 10.003442, 9.998314 
2.0052908e+3, 1.7556019e+2, -926548.06, -1274275.1, 26222.014, 0.027685571, -0.54025507, -924581.8, 294875.8, 0.00081961654, 10.002889, 9.998266 
2.005253e+3, 1.855585e+2, -880688.9, -1152053.3, 41281.08, 0.035357956, -0.5444269, -874548.0, 246925.34, 0.000009033603, 10.002314, 9.99871 
2.0052151e+3, 1.9555716e+2, -872901.7, -1103194.1, 40494.26, 0.02632613, -0.5483606, -865988.75, 157496.08, 0.0, 10.001718, 9.99866 
2.0051768e+3, 2.0555565e+2, -805450.5, -974858.2, 14259.743, 0.027387688, -0.5709136, -804258.56, 121239.59, 0.0, 10.001312, 9.999064 
2.0051385e+3, 2.1555427e+2, -748776.06, -904480.8, 11335.694, 0.03689014, -0.6134519, -747955.1, 79555.2, 0.0, 10.001061, 9.998996 
2.0051003e+3, 2.2555326e+2, -728719.4, -834629.5, 23789.072, 0.04556054, -0.6026081, -723621.4, 5899.1406, 0.0, 10.000485, 9.99908 
2.005062e+3, 2.3555285e+2, -755080.6, -801545.75, 31361.352, 0.05332294, -0.549793, -739283.9, -107757.82, 0.0, 9.999654, 9.999035 
2.0050235e+3, 2.45552e+2, -689638.5, -663749.56, 11324.89, 0.044753984, -0.5481295, -659494.8, -125959.69, 0.0, 9.999192, 9.999529 
2.0049843e+3, 2.5555107e+2, -619949.7, -584254.56, 6239.9146, 0.02344596, -0.59223086, -583195.2, -147650.86, 0.0, 9.99902, 9.999485 
2.0049456e+3, 2.655507e+2, -562590.3, -468588.22, 1980.1383, 0.02392737, -0.5798613, -468546.53, -130997.71, 0.0, 9.998581, 9.999816 
2.004907e+3, 2.7555105e+2, -563578.56, -426749.56, -7114.832, 0.044029687, -0.5233296, -426380.6, -186833.9, 0.0, 9.997938, 9.999741 
2.004868e+3, 2.855508e+2, -523576.94, -326435.3, -3211.3345, 0.014928553, -0.5194272, -326383.03, -184832.8, 0.0, 9.997411, 10.0000105 
2.0048285e+3, 2.9555038e+2, -505640.6, -279972.25, 10977.08, -0.059856743, -0.5622327, -279439.56, -235884.11, 0.0, 9.996917, 9.999894 
2.0047913e+3, 3.0555135e+2, -539396.75, -241864.81, 25427.127, 0.07068466, -0.44954294, -239707.45, -239707.45, 0.0, 9.996221, 10.000158 
2.0047526e+3, 3.155502e+2, -457169.94, 112881.93, 9649.498, 0.023658486, -0.5919729, 113045.23, 113045.23, 0.0, 9.995434, 10.002972 
2.0154901e+3, 1.2560914e+2, -1188054.9, -1675614.6, 24344.072, 0.039808102, -0.52789944, -1186842.4, 522138.88, 0.11951472, 10.005157, 9.997815 
2.0154487e+3, 1.356073e+2, -1178271.4, -1645186.8, -55351.563, -0.0257692, -0.485, -1171799.4, 439200.13, 0.084493995, 10.004398, 9.997692 
2.0154093e+3, 1.4560467e+2, -1096300.5, -1517793.0, 23724.256, 0.0096144825, -0.52226824, -1094969.4, 418055.44, 0.0495892, 10.00397, 9.998094 
2.015371e+3, 1.5560272e+2, -1012963.56, -1439482.6, 18148.943, 0.02348449, -0.5239615, -1012192.7, 402850.25, 0.022199027, 10.003812, 9.9980345 
2.0153326e+3, 1.6560093e+2, -937173.0, -1314891.1, 2143.245, 0.02790817, -0.51080817, -937160.8, 379899.1, 0.0065712426, 10.003439, 9.998397 
2.0152937e+3, 1.7559941e+2, -920159.56, -1263346.0, 5622.7554, 0.021310436, -0.50012016, -920067.5, 299006.9, 0.00087677274, 10.002894, 9.998341 
2.0152552e+3, 1.8559748e+2, -876798.2, -1147121.9, 19150.102, 0.03042037, -0.5324418, -875448.3, 245643.48, 0.000010560831, 10.002323, 9.998741 
2.0152171e+3, 1.9559556e+2, -869611.8, -1099882.8, 19261.846, 0.053427882, -0.5963277, -868011.75, 155096.39, 0.0, 10.001729, 9.998679 
2.0151784e+3, 2.0559423e+2, -809235.6, -986145.6, 5669.054, 0.04978371, -0.5991888, -809054.1, 116066.016, 0.0, 10.001323, 9.998984 
2.0151395e+3, 2.1559358e+2, -752358.56, -913831.75, 1815.5696, 0.024587637, -0.55873626, -752338.1, 74787.94, 0.0, 10.001065, 9.998932 
2.0151004e+3, 2.2559255e+2, -711237.7, -800490.75, -6712.793, 0.031957638, -0.5593774, -710735.6, 18400.268, 0.0, 10.00049, 9.999314 
2.0150618e+3, 2.355915e+2, -738676.3, -770711.6, 2225.1362, 0.065178156, -0.5943611, -738522.5, -107376.47, 0.0, 9.999662, 9.999245 
2.0150226e+3, 2.4559063e+2, -696673.8, -682103.1, 5667.197, 0.051664703, -0.5993569, -680158.44, -147003.2, 0.0, 9.999204, 9.9994 
2.014983e+3, 2.5559017e+2, -627769.8, -604875.75, -832.11755, 0.0005546089, -0.58363545, -604845.56, -169684.61, 0.0, 9.999033, 9.999339 
2.0149438e+3, 2.655899e+2, -575274.0, -498672.0, -22616.002, 0.004697743, -0.54244846, -492493.22, -155328.22, 0.0, 9.998593, 9.999606 
2.014905e+3, 2.7559003e+2, -573696.5, -451622.75, -30520.338, 0.05494998, -0.4876098, -444417.47, -205252.17, 0.0, 9.997951, 9.999566 
2.0148654e+3, 2.8558943e+2, -503426.34, -288278.8, -22248.623, 0.030440865, -0.5287111, -286002.16, -144830.48, 0.0, 9.997422, 10.000269 
2.0148253e+3, 2.9558858e+2, -486522.84, -245474.08, -10942.277, -0.060024593, -0.6341505, -244978.39, -201799.83, 0.0, 9.996934, 10.000126 
2.0147876e+3, 3.0559015e+2, -529096.94, -225173.28, -4643.604, 0.06897381, -0.47947788, -225102.34, -225102.34, 0.0, 9.996236, 10.000268 
2.0147482e+3, 3.1558993e+2, -545693.7, -72741.336, -69021.63, 0.050252706, -0.532899, -62874.324, -62874.324, 0.0, 9.995439, 10.001696 
2.025495e+3, 1.2564857e+2, -1282898.4, -1716603.3, 37873.984, 0.053616855, -0.5214354, -1279615.9, 428979.94, 0.12333462, 10.00441, 9.997864 
2.0254532e+3, 1.3564695e+2, -1088055.8, -1587717.8, -32958.75, -0.035657417, -0.46594408, -1085891.1, 524720.1, 0.08733884, 10.005045, 9.997785 
2.0254134e+3, 1.4564416e+2, -998963.8, -1486374.6, 33258.84, -0.016066318, -0.5151531, -996704.8, 515933.38, 0.05139042, 10.00476, 9.997935 
2.0253749e+3, 1.5564205e+2, -1035183.44, -1467580.8, 31585.822, 0.030667618, -0.5177712, -1032888.3, 381770.28, 0.023100635, 10.0037365, 9.997875 
2.0253359e+3, 1.6564022e+2, -970861.06, -1322647.1, 24273.824, 0.044666793, -0.5026928, -969194.0, 347481.88, 0.006891832, 10.003175, 9.998468 
2.0252967e+3, 1.756388e+2, -904697.2, -1247672.0, 25809.123, 0.026711222, -0.48952505, -902765.94, 315923.13, 0.00093767035, 10.00297, 9.998409 
2.0252575e+3, 1.8563691e+2, -840772.94, -1124240.9, 31422.32, 0.031571403, -0.5234191, -837331.56, 283374.22, 0.000012160716, 10.002552, 9.998786 
2.0252189e+3, 1.9563498e+2, -832317.2, -1077261.9, 31636.688, 0.05676668, -0.59202385, -828297.06, 194424.95, 0.0, 10.00197, 9.998716 
2.0251797e+3, 2.056336e+2, -794929.1, -977414.75, 28244.64, 0.055421174, -0.60073954, -790657.5, 134076.84, 0.0, 10.001418, 9.998996 
2.0251404e+3, 2.156329e+2, -777510.56, -923887.4, 29358.389, 0.032046076, -0.5662991, -771841.75, 54898.98, 0.0, 10.000888, 9.998946 
2.0251009e+3, 2.2563194e+2, -713479.2, -789296.94, 10247.478, 0.034079812, -0.56555897, -712118.56, 16631.287, 0.0, 10.000426, 9.999419 
2.0250614e+3, 2.3563105e+2, -680965.56, -731686.7, 9415.117, 0.057431903, -0.5952313, -679274.25, -48515.96, 0.0, 10.000015, 9.999341 
2.0250219e+3, 2.4563023e+2, -656876.2, -661690.4, 21572.158, 0.04901304, -0.5983531, -637577.25, -104810.44, 0.0, 9.999476, 9.999407 
2.0249821e+3, 2.5562978e+2, -655904.25, -617805.75, 24634.36, 0.013947048, -0.5800456, -605714.6, -170942.42, 0.0, 9.998842, 9.99934 
2.0249423e+3, 2.6562947e+2, -604649.4, -511940.0, 13853.302, 0.013147306, -0.5452039, -509914.22, -173137.53, 0.0, 9.998393, 9.999609 
2.0249029e+3, 2.7562943e+2, -557194.0, -443156.72, 21387.672, 0.04401076, -0.507464, -439277.44, -200499.11, 0.0, 9.998066, 9.999565 
2.0248628e+3, 2.8562883e+2, -503851.38, -293290.56, 15808.286, 0.03107341, -0.54158366, -292110.34, -151325.95, 0.0, 9.997444, 10.000221 
2.0248224e+3, 2.9562834e+2, -537184.25, -269216.56, 2509.513, -0.025210321, -0.6122203, -269193.06, -226404.33, 0.0, 9.996589, 10.000126 
2.0247835e+3, 3.056295e+2, -527086.2, -190026.72, 17997.473, 0.052506793, -0.5125134, -189068.45, -189068.45, 0.0, 9.996106, 10.00057 
2.0247437e+3, 3.1563005e+2, -510523.47, -107640.04, -64253.42, 0.054737978, -0.51459104, -97640.83, -97640.83, 0.0, 9.995907, 10.001227 
2.035499e+3, 1.2568836e+2, -1271467.3, -1699330.4, 53301.71, 0.026075881, -0.50906277, -1264927.0, 443280.63, 0.1273886, 10.004465, 9.997963 
2.0354582e+3, 1.3568726e+2, -1082031.5, -1567508.8, -15806.009, -0.027201615, -0.4183102, -1081517.4, 528699.7, 0.09035043, 10.005021, 9.997951 
2.0354182e+3, 1.4568435e+2, -1011371.06, -1504671.5, -4306.179, -0.015782744, -0.48277864, -1011333.5, 500911.56, 0.053293627, 10.004729, 9.99782 
2.0353785e+3, 1.5568182e+2, -1041877.94, -1484900.3, -4766.8906, 0.030150265, -0.51178044, -1041826.7, 372442.88, 0.024054218, 10.003749, 9.997753 
2.0353392e+3, 1.6567983e+2, -965103.3, -1315452.9, 16441.547, 0.05069992, -0.51184446, -964333.44, 351955.06, 0.0072334693, 10.003192, 9.998511 
2.0352997e+3, 1.7567837e+2, -901046.8, -1241384.3, 17231.398, 0.04198551, -0.5053035, -900176.56, 318124.78, 0.0010042702, 10.002972, 9.998454 
2.0352602e+3, 1.8567675e+2, -838035.44, -1119206.3, 9520.374, 0.03674884, -0.516292, -837713.44, 282601.97, 0.000013938443, 10.00255, 9.998823 
2.0352206e+3, 1.9567533e+2, -829051.9, -1072154.9, 10333.191, 0.03762941, -0.53913134, -828613.5, 193713.66, 0.0, 10.001973, 9.998753 
2.0351811e+3, 2.056737e+2, -788319.6, -965915.7, 8865.239, 0.045691416, -0.5780062, -787878.2, 136463.19, 0.0, 10.001423, 9.999075 
2.0351413e+3, 2.156722e+2, -771699.8, -913847.06, 10781.375, 0.0574502, -0.63272136, -770886.75, 55468.016, 0.0, 10.000893, 9.999016 
2.0351015e+3, 2.2567138e+2, -714680.6, -794513.9, -4309.358, 0.05007906, -0.61778104, -714448.7, 13913.978, 0.0, 10.000434, 9.999383 
2.035061e+3, 2.3567139e+2, -681279.0, -735452.6, -5714.8867, 0.029874738, -0.5535369, -680682.75, -50318.965, 0.0, 10.000024, 9.999313 
2.0350212e+3, 2.4567072e+2, -646939.1, -643908.94, -1901.3129, 0.03724205, -0.5464196, -642992.9, -110622.14, 0.0, 9.999484, 9.999527 
2.0349813e+3, 2.5566986e+2, -645237.8, -598830.75, 2187.2664, 0.06327556, -0.58262587, -598727.9, -164348.78, 0.0, 9.998851, 9.999469 
2.034941e+3, 2.656693e+2, -588162.9, -481163.34, 1750.7109, 0.048783217, -0.58980256, -481134.72, -144749.77, 0.0, 9.998403, 9.999818 
2.0349003e+3, 2.7566913e+2, -543653.56, -419562.9, 7895.627, 0.007986933, -0.5847728, -419062.53, -180675.8, 0.0, 9.99808, 9.999723 
2.03486e+3, 2.85669e+2, -529940.56, -350498.84, -17241.035, 0.015478986, -0.5560509, -348857.3, -208468.1, 0.0, 9.997453, 9.999826 
2.0348196e+3, 2.956695e+2, -554456.3, -308027.3, -29589.805, 0.048480727, -0.48989218, -304524.16, -262137.28, 0.0, 9.996596, 9.999859 
2.0347792e+3, 3.0566922e+2, -489733.88, -116006.87, 9812.5625, 0.016945515, -0.553127, -115749.41, -115749.41, 0.0, 9.996117, 10.001076 
2.0347396e+3, 3.1567013e+2, -463690.8, -16154.316, -78937.17, 0.05608744, -0.56029314, -2639.3867, -2639.3867, 0.0, 9.995926, 10.00185 
2.0455036e+3, 1.257287e+2, -1160058.5, -1661669.5, 65298.844, -0.011353661, -0.47674513, -1151697.4, 556115.5, 0.13171922, 10.00545, 9.997785 
2.0454632e+3, 1.3572717e+2, -1164744.3, -1612872.4, -13232.326, -0.0027921458, -0.4222739, -1164353.9, 445472.72, 0.093563475, 10.004439, 9.997889 
2.0454225e+3, 1.4572418e+2, -1105494.8, -1542169.6, -9615.92, 0.0012474237, -0.494383, -1105283.0, 406572.03, 0.05532302, 10.004015, 9.997902 
2.0453823e+3, 1.5572205e+2, -1005059.56, -1457941.1, 1511.1168, 0.022382328, -0.49297047, -1005054.5, 408821.4, 0.025073463, 10.003978, 9.997826 
2.0453423e+3, 1.6572005e+2, -909584.75, -1285368.6, 29167.732, 0.04206547, -0.4960812, -907334.3, 408560.06, 0.0076018744, 10.003568, 9.998536 
2.0453025e+3, 1.7571835e+2, -911617.06, -1243478.6, 27439.824, 0.04831155, -0.51800823, -909363.5, 308545.7, 0.0010784217, 10.00289, 9.998476 
2.0452626e+3, 1.8571673e+2, -864056.56, -1126306.6, 16697.947, 0.044815652, -0.53087443, -862997.7, 256925.5, 0.00001608478, 10.002352, 9.998868 
2.0452224e+3, 1.9571553e+2, -834263.1, -1068300.8, 16986.492, 0.038302552, -0.5350079, -833036.7, 188896.5, 0.0, 10.001913, 9.998805 
2.0451823e+3, 2.0571405e+2, -782620.9, -942610.6, 17029.842, 0.046696458, -0.5704983, -780828.2, 143117.63, 0.0, 10.001378, 9.999254 
2.0451422e+3, 2.1571265e+2, -778352.94, -898885.06, 25239.543, 0.06457832, -0.63443625, -773281.2, 52676.61, 0.0, 10.000773, 9.999173 
2.0451018e+3, 2.2571184e+2, -740438.9, -813440.56, 17490.678, 0.05961478, -0.6221677, -736464.6, -8498.803, 0.0, 10.00029, 9.99932 
2.045061e+3, 2.3571183e+2, -703497.3, -751396.94, 13220.336, 0.038876105, -0.55401963, -700090.75, -70122.914, 0.0, 9.999899, 9.999262 
2.0450206e+3, 2.4571122e+2, -641120.2, -625984.75, 10847.659, 0.04729501, -0.54308546, -620325.9, -88351.734, 0.0, 9.999463, 9.999659 
2.0449804e+3, 2.557105e+2, -616434.25, -570360.2, 15423.326, 0.0766787, -0.57720107, -565673.9, -131693.13, 0.0, 9.99899, 9.999596 
2.0449394e+3, 2.6570997e+2, -574913.94, -461660.75, 13757.313, 0.055661116, -0.59354657, -460013.53, -124027.65, 0.0, 9.998441, 9.999932 
2.0448983e+3, 2.7570975e+2, -573396.2, -422172.06, 11971.2, 0.0010929892, -0.603897, -421230.28, -183242.67, 0.0, 9.997831, 9.999824 
2.0448574e+3, 2.8570977e+2, -543742.1, -362483.22, -5128.4004, 0.024341103, -0.5639474, -362338.22, -222349.1, 0.0, 9.997386, 9.999774 
2.0448168e+3, 2.9571047e+2, -488329.94, -276745.63, 7621.6235, 0.092805274, -0.46989352, -276471.44, -234485.89, 0.0, 9.997057, 9.999849 
2.0447749e+3, 3.057098e+2, -454611.63, -92465.14, 36444.156, -0.02554018, -0.5766183, -88834.04, -88834.04, 0.0, 9.996334, 10.00113 
2.0447354e+3, 3.1571144e+2, -507143.94, 17622.645, -63436.48, 0.07661344, -0.51712227, 25182.271, 25182.271, 0.0, 9.995397, 10.002335 
2.0555085e+3, 1.2576964e+2, -1190358.1, -1717515.3, 24713.73, -0.062056627, -0.4252651, -1189202.1, 518209.4, 0.13629311, 10.005432, 9.997366 
2.0554678e+3, 1.3576679e+2, -1178168.6, -1648672.3, -44289.508, 0.035523865, -0.47329992, -1174035.9, 435402.7, 0.09696339, 10.004472, 9.997631 
2.0554267e+3, 1.4576381e+2, -1085261.5, -1505636.4, -10184.294, 0.033119336, -0.5459919, -1085014.9, 426452.38, 0.057477992, 10.004051, 9.99814 
2.055386e+3, 1.5576275e+2, -988775.25, -1425334.1, -1999.9316, 0.0061247703, -0.4619235, -988766.06, 424711.47, 0.026163006, 10.003986, 9.998048 
2.0553455e+3, 1.6576092e+2, -910017.6, -1287020.9, 3175.3752, 0.018219145, -0.45735207, -909990.94, 405502.78, 0.008000639, 10.003568, 9.998528 
2.0553054e+3, 1.7575872e+2, -911416.7, -1245633.9, 2545.4434, 0.04619984, -0.5281852, -911397.3, 306115.34, 0.0011617533, 10.002897, 9.998461 
2.0552649e+3, 1.8575686e+2, -860182.75, -1120802.3, 399.19162, 0.055794027, -0.56566525, -860182.2, 259346.86, 0.000018863731, 10.002358, 9.998905 
2.0552243e+3, 1.9575565e+2, -830029.06, -1060852.5, 613.81775, 0.056639317, -0.5758287, -830027.44, 191512.61, 0.0, 10.001915, 9.998858 
2.0551836e+3, 2.0575467e+2, -763913.94, -905892.1, -5267.9683, 0.056572884, -0.5763124, -763718.75, 159829.16, 0.0, 10.001383, 9.999506 
2.0551428e+3, 2.1575417e+2, -761275.25, -866630.9, 3627.1963, 0.053765338, -0.5746346, -761150.5, 64400.27, 0.0, 10.000783, 9.9993925 
2.055102e+3, 2.2575322e+2, -746085.8, -828373.9, 3406.334, 0.0632142, -0.58155054, -745945.06, -18384.953, 0.0, 10.000299, 9.999215 
2.0550613e+3, 2.3575225e+2, -708507.56, -764418.0, -720.9962, 0.082899876, -0.5960139, -708498.3, -78927.07, 0.0, 9.999905, 9.999171 
2.0550203e+3, 2.4575168e+2, -631188.75, -608184.94, -6389.084, 0.077576414, -0.5869127, -606529.56, -74951.86, 0.0, 9.999471, 9.999779 
2.054979e+3, 2.5575167e+2, -607086.1, -554475.2, -2428.4243, 0.05237898, -0.56382626, -554363.3, -120785.29, 0.0, 9.999001, 9.9997015 
2.0549375e+3, 2.657514e+2, -573560.06, -461830.47, -9600.536, 0.033469606, -0.5552087, -461011.53, -125431.03, 0.0, 9.998449, 9.999929 
2.0548962e+3, 2.7575123e+2, -570033.94, -418241.47, -10928.712, 0.024274603, -0.5622397, -417458.66, -179876.73, 0.0, 9.997839, 9.999849 
2.0548552e+3, 2.85751e+2, -520831.7, -318872.5, -18175.385, 0.05769416, -0.5671396, -317249.84, -177664.34, 0.0, 9.997398, 10.000071 
2.054814e+3, 2.9575107e+2, -467737.9, -240392.48, -6875.45, 0.10375734, -0.562979, -240184.75, -198598.08, 0.0, 9.99708, 10.000091 
2.0547707e+3, 3.057512e+2, -485394.13, -158543.28, -4477.347, -0.07465742, -0.575086, -158481.95, -158481.95, 0.0, 9.99634, 10.000675 
2.0547307e+3, 3.157527e+2, -490623.16, 51545.79, -46819.645, 0.07433264, -0.48220575, 55559.246, 55559.246, 0.0, 9.995392, 10.002573 
2.0655137e+3, 1.2581034e+2, -1229756.4, -1746812.6, 28668.664, -0.06449606, -0.4379255, -1228171.6, 478840.44, 0.14103201, 10.00518, 9.997285 
2.0654725e+3, 1.3580751e+2, -1104714.8, -1604274.4, -12367.354, 0.036427498, -0.4855908, -1104408.8, 504629.8, 0.10050063, 10.005031, 9.997666 
2.0654309e+3, 1.4580454e+2, -1008343.6, -1476413.0, 26348.229, 0.025141712, -0.5550239, -1006865.1, 504202.2, 0.059736334, 10.0046625, 9.998056 
2.0653899e+3, 1.5580341e+2, -976646.4, -1427659.4, 11863.142, 0.0044217077, -0.467126, -976334.56, 436743.88, 0.02731777, 10.004115, 9.997968 
2.065349e+3, 1.6580155e+2, -908750.1, -1280588.3, -755.0442, 0.017333282, -0.46489954, -908748.56, 406346.38, 0.008430717, 10.003555, 9.998576 
2.0653081e+3, 1.7579933e+2, -894897.6, -1230990.6, 2585.6997, 0.04233437, -0.54210705, -894877.7, 322236.1, 0.0012554873, 10.002985, 9.998517 
2.0652673e+3, 1.8579759e+2, -845375.94, -1098076.8, 8976.244, 0.053555038, -0.57853806, -845057.44, 274071.66, 0.000022594933, 10.002398, 9.99904 
2.0652263e+3, 1.9579655e+2, -838575.7, -1050476.4, 14862.018, 0.059002407, -0.58248615, -837538.44, 183599.98, 0.0, 10.001799, 9.998982 
2.065185e+3, 2.0579572e+2, -767393.9, -906587.9, 3583.4177, 0.06018433, -0.5753871, -767301.7, 155843.75, 0.0, 10.00136, 9.99951 
2.0651436e+3, 2.1579531e+2, -723473.5, -845921.7, -6653.277, 0.056633867, -0.5644625, -723113.0, 102035.08, 0.0, 10.001037, 9.99941 
2.0651023e+3, 2.2579445e+2, -706262.44, -783480.5, -5224.1523, 0.06796122, -0.5756353, -705910.6, 21245.799, 0.0, 10.000466, 9.99944 
2.065061e+3, 2.3579356e+2, -721975.06, -747652.7, 13979.592, 0.09195769, -0.6048336, -715833.25, -86667.38, 0.0, 9.999718, 9.999374 
2.0650195e+3, 2.4579309e+2, -672535.94, -626775.7, 18999.9, 0.08542395, -0.59391177, -619915.3, -88743.88, 0.0, 9.999186, 9.999787 
2.0649777e+3, 2.557932e+2, -634457.6, -565831.1, 13498.54, 0.054228082, -0.5565978, -563271.5, -130100.34, 0.0, 9.99881, 9.999713 
2.064936e+3, 2.65793e+2, -586366.1, -458845.0, 619.8375, 0.038330134, -0.54677784, -458841.97, -123668.74, 0.0, 9.998325, 10.000008 
2.064894e+3, 2.7579284e+2, -576461.56, -412323.88, 5644.519, 0.040851194, -0.56008303, -412130.0, -174955.72, 0.0, 9.99776, 9.999927 
2.0648526e+3, 2.857926e+2, -518792.16, -304876.1, 2265.3618, 0.07203528, -0.57181567, -304852.1, -165674.7, 0.0, 9.997359, 10.000184 
2.0648108e+3, 2.9579267e+2, -464112.3, -228397.97, -3092.5347, 0.10307089, -0.5812739, -228357.4, -187178.7, 0.0, 9.997065, 10.000177 
2.064767e+3, 3.057934e+2, -476475.38, -164786.69, -13523.436, -0.06718153, -0.53479254, -164201.05, -164201.05, 0.0, 9.996452, 10.000576 
2.064726e+3, 3.1579393e+2, -457506.94, 47175.98, 19286.871, 0.067281485, -0.5282755, 47911.97, 47911.97, 0.0, 9.99571, 10.002388 
2.0755191e+3, 1.2585092e+2, -1216039.9, -1716609.5, 15364.127, -0.028400417, -0.50483537, -1215568.8, 491044.5, 0.14586301, 10.005218, 9.997476 
2.0754771e+3, 1.358493e+2, -1086475.6, -1568443.6, -19413.17, 0.002015252, -0.4628875, -1085695.0, 522932.2, 0.104123965, 10.005056, 9.997931 
2.075435e+3, 1.4584629e+2, -1032659.9, -1529880.8, 5926.79, -0.019619854, -0.5263773, -1032589.2, 478066.94, 0.062070377, 10.004677, 9.99767 
2.0753941e+3, 1.5584412e+2, -1000563.3, -1479568.8, -8247.788, 0.014729329, -0.50548875, -1000421.4, 412257.03, 0.028527563, 10.004119, 9.997612 
2.0753528e+3, 1.6584204e+2, -901752.56, -1267374.1, -21587.307, 0.03638342, -0.51416695, -900482.4, 414215.13, 0.008890359, 10.003557, 9.99867 
2.0753111e+3, 1.7584023e+2, -886691.2, -1215778.6, -18232.332, 0.036033932, -0.55932075, -885684.1, 331028.34, 0.0013599199, 10.002989, 9.998622 
2.0752692e+3, 1.858389e+2, -830001.25, -1068282.6, -13151.914, 0.03807078, -0.5712617, -829277.5, 289446.2, 0.000027570592, 10.002402, 9.999245 
2.0752278e+3, 1.9583824e+2, -825783.56, -1026754.56, -6431.794, 0.045908805, -0.5572315, -825577.94, 195150.9, 0.0, 10.001806, 9.999145 
2.0751862e+3, 2.0583716e+2, -783156.56, -941436.56, -7955.6313, 0.058057185, -0.56851393, -782757.7, 139981.31, 0.0, 10.001365, 9.99927 
2.0751448e+3, 2.1583606e+2, -736639.9, -873350.25, -18754.484, 0.07178967, -0.6019954, -734113.75, 90636.18, 0.0, 10.001032, 9.999226 
2.0751028e+3, 2.2583552e+2, -669506.8, -708337.75, -32300.766, 0.07263177, -0.6021932, -651235.4, 75519.484, 0.0, 10.000467, 9.999958 
2.0750606e+3, 2.3583564e+2, -688199.5, -680601.1, -12247.89, 0.065797806, -0.5810332, -671576.7, -42824.03, 0.0, 9.999726, 9.999833 
2.0750186e+3, 2.4583536e+2, -679108.7, -643620.0, 5134.8765, 0.07118763, -0.5649957, -642891.94, -112135.68, 0.0, 9.999194, 9.999669 
2.0749769e+3, 2.558351e+2, -639644.9, -579829.8, -1224.3444, 0.081856936, -0.55582833, -579804.75, -147043.66, 0.0, 9.998818, 9.999616 
2.0749345e+3, 2.658347e+2, -575192.44, -438430.75, -21098.652, 0.07006305, -0.56917197, -435249.78, -100484.53, 0.0, 9.998333, 10.000146 
2.0748918e+3, 2.7583447e+2, -566783.94, -395649.88, -15226.314, 0.04969588, -0.60038567, -394305.7, -157539.64, 0.0, 9.997769, 10.000039 
2.0748499e+3, 2.8583458e+2, -524085.3, -319465.4, -10146.958, 0.06561561, -0.5772145, -318963.47, -180197.34, 0.0, 9.99737, 10.000081 
2.0748076e+3, 2.9583526e+2, -468247.66, -241005.86, -18344.822, 0.0873805, -0.5161618, -239534.44, -198771.94, 0.0, 9.997077, 10.000088 
2.0747642e+3, 3.058362e+2, -454957.94, -123133.3, -46851.258, 0.0047559, -0.4561338, -116645.09, -116645.09, 0.0, 9.996461, 10.000859 
2.0747212e+3, 3.1583577e+2, -515753.5, -81225.234, 24372.555, 0.0108890785, -0.5747318, -79862.45, -79862.45, 0.0, 9.995737, 10.001496 
2.0855246e+3, 1.2589252e+2, -1158340.3, -1705800.6, 33579.293, -0.024990676, -0.5185267, -1156288.3, 549915.7, 0.15074624, 10.00581, 9.997265 
2.0854822e+3, 1.3589078e+2, -1033532.1, -1550763.3, -19353.191, -0.004009688, -0.47784048, -1032809.0, 575410.56, 0.10780353, 10.005527, 9.997839 
2.0854397e+3, 1.4588784e+2, -997952.6, -1509426.9, -6838.101, -0.027511235, -0.53240764, -997861.25, 512386.88, 0.06445952, 10.004936, 9.9976845 
2.0853981e+3, 1.5588558e+2, -1002501.56, -1478172.8, 4181.132, 0.02569459, -0.5202274, -1002464.8, 409806.16, 0.029780494, 10.004104, 9.997627 
2.0853563e+3, 1.6588353e+2, -908167.06, -1260445.0, 7865.0073, 0.04516326, -0.5302152, -907991.56, 406298.22, 0.009374601, 10.003474, 9.998755 
2.0853136e+3, 1.7588186e+2, -880852.56, -1204001.4, 9284.266, 0.026414966, -0.5674799, -880586.06, 335717.38, 0.0014738889, 10.002994, 9.998698 
2.0852718e+3, 1.8588059e+2, -820206.1, -1064421.6, 3344.2554, 0.02723262, -0.57627773, -820160.3, 298154.0, 0.000033957902, 10.002477, 9.999233 
2.0852295e+3, 1.958799e+2, -807239.7, -1017414.1, -5596.886, 0.04696318, -0.56323117, -807090.75, 213229.25, 0.0, 10.001935, 9.999145 
2.0851874e+3, 2.0587893e+2, -789297.8, -928268.0, 1737.6707, 0.062293045, -0.5731127, -789276.1, 133053.53, 0.0, 10.001258, 9.99941 
2.0851456e+3, 2.15878e+2, -807363.1, -891435.2, 17086.734, 0.07278032, -0.6039251, -804023.1, 20316.172, 0.0, 10.0004835, 9.999363 
2.0851031e+3, 2.2587757e+2, -721256.75, -718694.1, 1728.1714, 0.07137694, -0.60300106, -717824.06, 8518.815, 0.0, 10.000054, 10.000083 
2.0850603e+3, 2.3587783e+2, -658991.0, -652815.3, -7753.7925, 0.06306122, -0.581327, -647557.1, -19218.035, 0.0, 9.999873, 9.99995 
2.0850179e+3, 2.4587764e+2, -650507.1, -620247.8, 2079.3704, 0.06815068, -0.5648362, -620105.56, -89763.71, 0.0, 9.999354, 9.99975 
2.0849754e+3, 2.5587747e+2, -666825.4, -583521.56, 10617.419, 0.08126137, -0.5547146, -582189.6, -149843.3, 0.0, 9.998596, 9.999695 
2.0849329e+3, 2.6587716e+2, -594246.7, -436105.3, 1155.2427, 0.07755398, -0.56564355, -436096.88, -101747.266, 0.0, 9.998157, 10.000245 
2.0848899e+3, 2.758771e+2, -537281.3, -372368.75, 3440.3562, 0.066855624, -0.5941439, -372297.0, -135947.73, 0.0, 9.997937, 10.000115 
2.0848472e+3, 2.8587726e+2, -520597.03, -325940.88, 4543.2017, 0.06732552, -0.5623386, -325834.9, -187486.17, 0.0, 9.997432, 10.000005 
2.0848042e+3, 2.95878e+2, -527092.94, -277331.66, -2233.3938, 0.06254504, -0.48655143, -277311.7, -236967.11, 0.0, 9.996711, 10.000013 
2.084761e+3, 3.058786e+2, -444817.06, -97169.836, -30846.959, 0.06189431, -0.46419716, -94453.984, -94453.984, 0.0, 9.996444, 10.001044 
2.0847169e+3, 3.1587818e+2, -451211.7, -113830.81, 33556.387, -0.029772576, -0.59920114, -110525.625, -110525.625, 0.0, 9.996457, 10.000924 
2.09553e+3, 1.2593506e+2, -1191312.8, -1786093.6, 15356.133, -0.051119793, -0.48993164, -1190916.5, 514868.53, 0.15567568, 10.005837, 9.9967 
2.0954879e+3, 1.3593207e+2, -1061671.6, -1604295.5, -29477.049, 0.012862821, -0.5257545, -1060075.0, 547739.4, 0.11153318, 10.005522, 9.997431 
2.0954448e+3, 1.4592925e+2, -976904.25, -1463593.8, -34858.773, -0.0053511737, -0.56835824, -974420.2, 535421.7, 0.066893175, 10.004933, 9.998025 
2.0954023e+3, 1.5592775e+2, -979154.06, -1431029.0, -24409.893, 0.03592514, -0.51382303, -977839.3, 434017.13, 0.03106501, 10.004116, 9.997948 
2.0953596e+3, 1.6592596e+2, -902499.8, -1251798.6, -9932.728, 0.043433387, -0.516575, -902217.6, 411654.88, 0.009876261, 10.003485, 9.998814 
2.0953166e+3, 1.7592421e+2, -878431.8, -1200464.5, -8822.137, 0.012504578, -0.56782913, -878190.3, 337696.78, 0.0015950555, 10.0029955, 9.998725 
2.0952739e+3, 1.8592267e+2, -835203.75, -1096429.1, -16402.277, 0.020253787, -0.59294766, -834177.9, 283723.4, 0.000041748957, 10.002476, 9.999017 
2.0952317e+3, 1.9592158e+2, -818779.56, -1041574.06, -25276.494, 0.060718846, -0.59875965, -815947.94, 203963.94, 0.0, 10.001931, 9.998982 
2.0951886e+3, 2.05921e+2, -755378.7, -859423.1, -26367.02, 0.07154963, -0.5879734, -749078.25, 172839.28, 0.0, 10.00126, 9.999884 
2.0951457e+3, 2.1592098e+2, -777034.06, -831993.0, -9162.23, 0.059225067, -0.57086957, -775546.8, 48370.234, 0.0, 10.000494, 9.999768 
2.0951028e+3, 2.2592051e+2, -738077.0, -757024.06, -4421.2754, 0.0645029, -0.57908976, -737096.06, -11174.658, 0.0, 10.000065, 9.999817 
2.09506e+3, 2.3592003e+2, -673953.7, -686036.2, -15626.425, 0.08264344, -0.60648495, -663241.4, -35315.367, 0.0, 9.999878, 9.9997225 
2.0950171e+3, 2.4591984e+2, -631348.7, -582827.7, -26229.701, 0.0752346, -0.59307146, -571359.06, -41430.074, 0.0, 9.99936, 10.000007 
2.0949736e+3, 2.559202e+2, -648639.0, -548934.1, -16118.279, 0.05067341, -0.55281794, -546393.2, -114465.42, 0.0, 9.998605, 9.99993 
2.0949307e+3, 2.6592034e+2, -589513.5, -429809.4, -7662.9478, 0.059931155, -0.53535426, -429442.56, -95515.2, 0.0, 9.998167, 10.000285 
2.094888e+3, 2.7592054e+2, -533137.6, -368467.28, -7037.9844, 0.09230363, -0.53997743, -368167.03, -132241.97, 0.0, 9.997952, 10.000137 
2.0948444e+3, 2.859205e+2, -523484.9, -335033.06, -24540.885, 0.07688748, -0.5265377, -331889.7, -193963.25, 0.0, 9.997441, 9.999941 
2.0948005e+3, 2.9592073e+2, -532198.9, -288784.34, -29188.063, 0.02659802, -0.49461395, -285333.3, -245406.86, 0.0, 9.99671, 9.999938 
2.0947579e+3, 3.0592033e+2, -440458.53, -91822.74, -29809.797, 0.10279775, -0.5723272, -89292.25, -89292.25, 0.0, 9.996455, 10.001079 
2.0947132e+3, 3.1592202e+2, -449101.03, -119194.27, -12116.29, -0.026460098, -0.49870217, -118749.89, -118749.89, 0.0, 9.996494, 10.000872 
2.1055359e+3, 1.2597741e+2, -1136181.1, -1750508.8, 8872.62, -0.066955246, -0.50636435, -1136053.0, 569315.8, 0.16066116, 10.006307, 9.9967165 
2.1054934e+3, 1.3597444e+2, -1067439.4, -1598825.0, 3285.9587, 0.033378664, -0.5456234, -1067419.0, 539979.0, 0.11531184, 10.005464, 9.9974985 
2.1054497e+3, 1.4597185e+2, -984270.7, -1452495.6, 2604.5994, 0.011209627, -0.5754709, -984256.2, 525167.0, 0.06935996, 10.004828, 9.998156 
2.1054062e+3, 1.5597038e+2, -945989.2, -1400808.0, -762.93585, 0.023469172, -0.5308544, -945987.9, 465449.22, 0.03236703, 10.0043, 9.998066 
2.1053629e+3, 1.6596864e+2, -883164.2, -1246311.6, 5699.3174, 0.029762244, -0.5299027, -883074.75, 430378.0, 0.010386398, 10.003641, 9.998775 
2.1053196e+3, 1.7596701e+2, -893201.2, -1210068.4, 120.44675, 0.016889725, -0.566346, -893201.2, 322265.88, 0.0017203175, 10.00291, 9.998698 
2.1052764e+3, 1.8596548e+2, -859883.7, -1095002.1, 4398.0454, 0.028571552, -0.5946856, -859801.5, 257679.73, 0.000050741073, 10.002253, 9.999131 
2.1052334e+3, 1.9596434e+2, -853426.06, -1046368.0, 17689.041, 0.06275972, -0.6172487, -851817.7, 167674.47, 0.0, 10.001647, 9.999084 
2.10519e+3, 2.0596386e+2, -764767.5, -863304.0, 7045.744, 0.06732183, -0.5971208, -764266.25, 157230.64, 0.0, 10.001197, 9.999886 
2.1051462e+3, 2.1596415e+2, -723915.0, -805439.0, -10360.232, 0.049475893, -0.5519639, -722619.0, 100875.266, 0.0, 10.000858, 9.999773 
2.1051028e+3, 2.259637e+2, -709259.25, -736304.2, -4803.744, 0.059436563, -0.5624695, -708431.4, 17067.365, 0.0, 10.000237, 9.999874 
2.1050598e+3, 2.3596302e+2, -736846.94, -709270.9, 7076.6855, 0.089100726, -0.6133537, -707560.8, -80055.66, 0.0, 9.99942, 9.999781 
2.1050161e+3, 2.4596292e+2, -676860.2, -589703.25, 2115.0754, 0.07840913, -0.5998814, -589651.94, -60144.63, 0.0, 9.998987, 10.000136 
2.1049722e+3, 2.559636e+2, -610826.94, -518248.44, 1938.1156, 0.04125937, -0.5429351, -518207.9, -86704.59, 0.0, 9.998816, 10.000037 
2.1049286e+3, 2.6596385e+2, -572686.75, -423639.94, 2840.661, 0.053853806, -0.51265466, -423585.8, -90084.01, 0.0, 9.998296, 10.000264 
2.1048857e+3, 2.759641e+2, -593157.2, -396412.75, -1419.8148, 0.09914126, -0.50818807, -396402.5, -160902.92, 0.0, 9.997541, 10.000141 
2.1048418e+3, 2.8596407e+2, -559053.5, -324081.25, -6949.6353, 0.07816461, -0.51029396, -323875.88, -186375.06, 0.0, 9.997081, 10.000187 
2.104797e+3, 2.9596427e+2, -504200.06, -255513.55, 13288.621, 0.01626452, -0.5052347, -254805.48, -215305.42, 0.0, 9.99682, 10.000111 
2.1047541e+3, 3.0596384e+2, -425489.66, -110688.195, 26362.674, 0.10078464, -0.5771137, -108495.75, -108495.75, 0.0, 9.996675, 10.000841 
2.1047094e+3, 3.1596607e+2, -453027.22, -112636.21, -27865.258, -0.0339801, -0.43003848, -110370.18, -110370.18, 0.0, 9.996438, 10.00094 
2.115542e+3, 1.2601973e+2, -1111311.1, -1684909.9, -23498.191, -0.07655529, -0.5606112, -1110350.1, 594603.5, 0.16570067, 10.006307, 9.997194 
2.1154991e+3, 1.3601786e+2, -1040980.7, -1542108.3, -22298.998, 0.05526543, -0.5411089, -1039990.4, 566980.6, 0.119120255, 10.005474, 9.997937 
2.1154545e+3, 1.4601555e+2, -988000.6, -1461225.5, -15840.969, 0.02115605, -0.5581916, -987470.94, 521522.06, 0.07183483, 10.004841, 9.998089 
2.1154101e+3, 1.5601344e+2, -950391.3, -1411231.4, -20792.094, -0.010064897, -0.5687679, -949455.1, 461557.97, 0.03366685, 10.004307, 9.9979925 
2.1153662e+3, 1.6601162e+2, -891890.4, -1266177.6, -20947.45, 0.0050854897, -0.56699604, -890721.7, 422308.8, 0.010894815, 10.003647, 9.998636 
2.1153225e+3, 1.7601025e+2, -898152.0, -1222566.3, -25385.518, 0.03762885, -0.5629988, -896177.56, 318865.63, 0.0018462922, 10.002914, 9.998612 
2.1152785e+3, 1.8600899e+2, -830473.3, -1036679.6, -17645.451, 0.049689256, -0.5826011, -828974.25, 288080.25, 0.000060592425, 10.00226, 9.999531 
2.1152349e+3, 1.960081e+2, -829607.3, -1000214.56, -3805.4443, 0.052661825, -0.61919755, -829522.5, 189539.31, 0.0, 10.001657, 9.999399 
2.1151909e+3, 2.0600751e+2, -795372.2, -929676.94, -5028.9927, 0.050452374, -0.6008822, -795184.1, 125884.25, 0.0, 10.0012045, 9.999429 
2.115147e+3, 2.1600741e+2, -750519.6, -861505.6, -23190.559, 0.042922657, -0.5478659, -745868.8, 77202.5, 0.0, 10.000857, 9.999392 
2.115103e+3, 2.2600701e+2, -684365.25, -686154.7, -34581.97, 0.055224407, -0.5530331, -650666.44, 74408.96, 0.0, 10.000239, 10.000219 
2.115059e+3, 2.360067e+2, -713235.8, -663543.06, -20604.445, 0.081806675, -0.6010836, -656111.2, -29033.877, 0.0, 9.99943, 10.000092 
2.1150151e+3, 2.4600679e+2, -676125.0, -591655.06, -3984.5054, 0.077687785, -0.5851876, -591467.5, -62389.734, 0.0, 9.998999, 10.00012 
2.114971e+3, 2.5600743e+2, -611713.56, -523790.84, -6706.8887, 0.052429475, -0.5264908, -523282.2, -92208.11, 0.0, 9.998827, 9.999996 
2.114927e+3, 2.6600763e+2, -578311.25, -438518.97, -26801.453, 0.05871213, -0.49797702, -433556.66, -100482.555, 0.0, 9.998304, 10.000159 
2.114883e+3, 2.760077e+2, -593919.1, -400042.72, -29581.234, 0.08518328, -0.49877524, -395629.72, -160555.61, 0.0, 9.997545, 10.000117 
2.1148387e+3, 2.8600785e+2, -518330.56, -241820.45, -17825.064, 0.07031838, -0.51514477, -240676.1, -103602.94, 0.0, 9.997086, 10.000752 
2.114794e+3, 2.9600847e+2, -471677.4, -193450.11, 4355.4224, 0.03366995, -0.52279776, -193381.94, -154315.19, 0.0, 9.996839, 10.000531 
2.1147503e+3, 3.0600923e+2, -463397.03, -194464.31, 20100.291, 0.048283372, -0.45964047, -192970.3, -192970.3, 0.0, 9.996692, 10.000259 
2.1147057e+3, 3.1600887e+2, -429817.1, -65215.14, -90590.72, -0.021943722, -0.51765645, -43947.15, -43947.15, 0.0, 9.996436, 10.001269 
2.1255486e+3, 1.2606376e+2, -1104684.4, -1684659.3, 19949.129, -0.048901875, -0.57217103, -1103999.0, 600521.8, 0.17075558, 10.006417, 9.997142 
2.1255045e+3, 1.3606174e+2, -1026561.9, -1539549.6, -1215.43, 0.0476616, -0.56094414, -1026559.0, 579980.8, 0.12291075, 10.005636, 9.997878 
2.1254592e+3, 1.4605954e+2, -972735.2, -1452033.6, 2143.6106, 0.008962593, -0.5629975, -972725.56, 535835.0, 0.07427743, 10.004964, 9.9980955 
2.1254143e+3, 1.5605739e+2, -942871.1, -1405411.6, 1257.1154, -0.016309287, -0.5795271, -942867.7, 467713.6, 0.034940682, 10.004361, 9.998004 
2.1253696e+3, 1.6605552e+2, -882483.6, -1255500.3, 5417.2573, 0.0014727106, -0.58588904, -882404.94, 430194.2, 0.011391202, 10.003692, 9.998686 
2.1253255e+3, 1.7605412e+2, -887003.7, -1212553.9, 13178.39, 0.036799364, -0.5878702, -886471.06, 328140.88, 0.001969628, 10.002976, 9.998649 
2.1252808e+3, 1.8605296e+2, -819032.9, -1036732.9, 12102.852, 0.04650103, -0.5946428, -818362.06, 298260.47, 0.000070876886, 10.002367, 9.999477 
2.1252364e+3, 1.9605227e+2, -806867.0, -993747.5, -6263.872, 0.04274222, -0.6078298, -806657.25, 211971.4, 0.0, 10.001836, 9.999355 
2.1251918e+3, 2.0605159e+2, -792229.0, -922546.8, 1745.097, 0.04609179, -0.5968861, -792205.6, 128430.336, 0.0, 10.001206, 9.999474 
2.1251474e+3, 2.1605127e+2, -799145.9, -880989.6, 17826.06, 0.052470233, -0.5709064, -795431.8, 27209.201, 0.0, 10.000511, 9.999421 
2.125103e+3, 2.2605094e+2, -719741.6, -705931.4, 2259.2734, 0.055949945, -0.566823, -705571.2, 19073.447, 0.0, 10.000013, 10.000191 
2.1250583e+3, 2.3605093e+2, -683630.1, -651502.3, -11424.869, 0.05938417, -0.5818399, -647853.9, -21209.486, 0.0, 9.999647, 10.000068 
2.1250139e+3, 2.4605106e+2, -659899.3, -576525.1, 2156.209, 0.06402273, -0.5643823, -576469.4, -47824.746, 0.0, 9.999083, 10.000181 
2.1249697e+3, 2.5605157e+2, -671643.0, -545289.4, 4809.6963, 0.06849286, -0.52501905, -545106.56, -114464.57, 0.0, 9.998388, 10.000057 
2.1249251e+3, 2.6605177e+2, -618513.94, -446293.56, -5014.532, 0.065974906, -0.50143534, -446147.66, -113506.14, 0.0, 9.997984, 10.000258 
2.1248801e+3, 2.76052e+2, -557459.44, -372526.53, 6581.849, 0.058418445, -0.49823982, -372292.6, -137652.45, 0.0, 9.997757, 10.000201 
2.1248357e+3, 2.8605205e+2, -486808.7, -225596.53, 304.12958, 0.06142617, -0.5251265, -225596.17, -88955.97, 0.0, 9.997302, 10.000757 
2.124791e+3, 2.9605252e+2, -487305.75, -197112.5, -17483.74, 0.0771355, -0.54743403, -196062.92, -157427.17, 0.0, 9.996721, 10.00056 
2.1247463e+3, 3.0605465e+2, -504581.8, -202520.19, 21974.652, 0.005037177, -0.3599316, -200929.92, -200929.92, 0.0, 9.996364, 10.00036 
2.1247023e+3, 3.1605297e+2, -464674.16, -45575.13, -64371.5, -0.00097212644, -0.5573532, -35910.844, -35910.844, 0.0, 9.996043, 10.001593 
2.1355554e+3, 1.2610927e+2, -1138731.6, -1754887.3, -13362.636, 0.0060715415, -0.55410755, -1138442.0, 565631.3, 0.17575139, 10.006402, 9.996642 
2.1355097e+3, 1.361061e+2, -1057627.0, -1602029.8, -25900.58, 0.014403646, -0.60061115, -1056397.5, 549706.5, 0.12662084, 10.005646, 9.997386 
2.1354638e+3, 1.4610392e+2, -968862.0, -1443978.5, -17898.33, -0.021965932, -0.5853168, -968188.7, 539936.6, 0.07664589, 10.0049715, 9.998155 
2.1354187e+3, 1.5610217e+2, -939168.6, -1396097.5, -20305.762, 0.00053316646, -0.5663838, -938268.0, 471873.94, 0.036167514, 10.004355, 9.9980755 
2.1353735e+3, 1.6610026e+2, -869153.44, -1228237.6, -20741.398, 0.014866321, -0.5891036, -867959.4, 444199.97, 0.011867158, 10.003691, 9.9988785 
2.135328e+3, 1.760986e+2, -876644.8, -1194903.6, -12886.946, 0.015203578, -0.6377292, -876123.8, 338049.97, 0.0020873747, 10.002989, 9.998766 
2.1352829e+3, 1.860974e+2, -850632.06, -1106193.8, -7417.7393, 0.020961085, -0.62825364, -850416.94, 265768.78, 0.000081117694, 10.002379, 9.998997 
2.135238e+3, 1.9609678e+2, -832576.56, -1048711.9, -25271.068, 0.033100676, -0.58462596, -829661.1, 188532.02, 0.0, 10.001839, 9.998979 
2.135193e+3, 2.0609608e+2, -756979.25, -851006.1, -23214.389, 0.052996963, -0.5861112, -751560.2, 168639.9, 0.0, 10.001209, 9.999967 
2.1351482e+3, 2.1609567e+2, -770314.3, -823789.7, -6019.936, 0.07638347, -0.6185831, -769645.0, 52558.82, 0.0, 10.000518, 9.999814 
2.135103e+3, 2.2609542e+2, -747025.4, -765718.7, -10816.425, 0.0608198, -0.6019224, -742076.75, -17869.527, 0.0, 10.000022, 9.999778 
2.1350573e+3, 2.360956e+2, -707798.8, -704307.0, -25733.328, 0.021097193, -0.5565167, -680260.4, -54052.996, 0.0, 9.999654, 9.999704 
2.1350127e+3, 2.4609563e+2, -650133.6, -558935.2, -23988.363, 0.037068043, -0.5382211, -553010.4, -24801.45, 0.0, 9.999089, 10.000301 
2.1349682e+3, 2.5609586e+2, -659837.75, -523814.5, -19522.586, 0.0890529, -0.53848904, -521068.0, -90860.01, 0.0, 9.998397, 10.000203 
2.134923e+3, 2.6609623e+2, -596528.6, -403755.4, -13968.056, 0.074968815, -0.5234395, -402748.56, -70543.46, 0.0, 9.9979925, 10.000549 
2.1348774e+3, 2.7609685e+2, -542985.9, -347093.84, -4531.629, 0.01694627, -0.5078964, -346989.06, -112790.336, 0.0, 9.997772, 10.000371 
2.1348327e+3, 2.8609654e+2, -527793.56, -315105.13, -24073.738, 0.051256575, -0.54119533, -312414.3, -176210.92, 0.0, 9.997316, 10.000137 
2.1347883e+3, 2.9609627e+2, -513794.56, -255185.03, -39523.746, 0.14783795, -0.5807924, -249279.42, -211070.06, 0.0, 9.996729, 10.000159 
2.1347421e+3, 3.060999e+2, -442038.44, -73666.4, 8543.504, -0.02987863, -0.27803892, -73468.36, -73468.36, 0.0, 9.996364, 10.001246 
2.1346982e+3, 3.160982e+2, -458032.03, -33342.176, -58061.906, 0.0042295693, -0.5545337, -25547.252, -25547.252, 0.0, 9.996044, 10.001678 
2.145562e+3, 1.2615497e+2, -1151802.8, -1745733.4, -21502.475, 0.044200335, -0.5321837, -1151025.4, 552600.3, 0.18060286, 10.006259, 9.996773 
2.1455151e+3, 1.3615152e+2, -1034468.56, -1585910.1, 3412.3706, 0.0063455994, -0.613381, -1034447.44, 571211.06, 0.13019426, 10.005831, 9.997421 
2.1454687e+3, 1.461493e+2, -959473.5, -1445027.8, 15789.216, -0.025849447, -0.597747, -958960.6, 548719.25, 0.07890838, 10.005085, 9.99809 
2.1454231e+3, 1.5614751e+2, -974630.9, -1418362.3, 7183.3237, 0.016097663, -0.5766587, -974514.6, 435182.44, 0.037331585, 10.004134, 9.998022 
2.145377e+3, 1.6614561e+2, -890577.7, -1240434.1, 4486.8657, 0.024379646, -0.59431624, -890520.2, 421194.28, 0.012315852, 10.003557, 9.998856 
2.1453308e+3, 1.76144e+2, -844868.1, -1182612.1, -3771.7986, 0.0031353792, -0.635574, -844826.0, 368902.53, 0.0021970863, 10.003226, 9.9987335 
2.1452852e+3, 1.8614267e+2, -822191.06, -1097805.3, 7489.4897, 0.009284289, -0.6315491, -821987.7, 293753.78, 0.00009083706, 10.002603, 9.998943 
2.1452397e+3, 1.9614185e+2, -843651.3, -1059948.6, 18123.938, 0.03586668, -0.60112536, -842143.25, 175607.56, 0.0, 10.001793, 9.998921 
2.1451941e+3, 2.0614117e+2, -771873.06, -862138.4, 9891.025, 0.053964593, -0.5981992, -770801.94, 148956.05, 0.0, 10.001128, 9.999927 
2.1451487e+3, 2.1614085e+2, -767490.25, -826465.5, -11110.701, 0.06585394, -0.6161764, -765466.5, 56294.313, 0.0, 10.000559, 9.999773 
2.1451028e+3, 2.2614057e+2, -746029.06, -766206.2, -6928.9927, 0.054657932, -0.5998896, -743878.75, -20114.342, 0.0, 10.000037, 9.999765 
2.1450569e+3, 2.3614064e+2, -725252.2, -714868.6, 6056.395, 0.028488249, -0.56304646, -712083.25, -86317.7, 0.0, 9.999548, 9.9996805 
2.1450114e+3, 2.4614058e+2, -662739.75, -570687.56, 5293.4077, 0.038263466, -0.5481422, -570384.2, -42616.32, 0.0, 9.999032, 10.000246 
2.1449663e+3, 2.5614074e+2, -649253.3, -523207.16, -3110.1296, 0.07238805, -0.55006737, -523130.47, -93362.66, 0.0, 9.998493, 10.000159 
2.1449208e+3, 2.6614115e+2, -596680.1, -398850.06, -6109.0713, 0.059211757, -0.529865, -398661.6, -66897.06, 0.0, 9.997973, 10.000589 
2.144875e+3, 2.7614197e+2, -585680.9, -364608.8, -15666.998, 0.015694777, -0.50180185, -363504.03, -129747.37, 0.0, 9.997471, 10.000394 
2.1448298e+3, 2.861417e+2, -564189.8, -338220.72, -17833.781, 0.06324003, -0.530566, -336821.9, -201060.72, 0.0, 9.997095, 10.000083 
2.1447854e+3, 2.9614124e+2, -503674.66, -251793.52, 9742.617, 0.16491336, -0.58039004, -251417.25, -213648.42, 0.0, 9.99681, 10.000141 
2.144738e+3, 3.061446e+2, -444281.72, -60589.625, 32129.92, -0.062027156, -0.30709764, -57917.707, -57917.707, 0.0, 9.996292, 10.0013685 
2.1446946e+3, 3.16143e+2, -501916.4, -37958.434, -45617.684, 0.051811676, -0.5853691, -33515.71, -33515.71, 0.0, 9.99568, 10.001818 
2.1555683e+3, 1.2620097e+2, -1122285.5, -1666246.3, -38266.563, 0.06718103, -0.5086034, -1119606.8, 583570.06, 0.1852444, 10.006235, 9.997387 
2.155521e+3, 1.361979e+2, -1014357.4, -1533780.4, -12789.232, 0.01715729, -0.604195, -1014042.6, 591161.25, 0.13359201, 10.005798, 9.997852 
2.1554738e+3, 1.461956e+2, -973433.25, -1470521.6, -17762.098, -0.008889419, -0.6025465, -972799.44, 534425.7, 0.08104373, 10.005075, 9.997908 
2.1554272e+3, 1.5619339e+2, -983149.56, -1443156.0, -24371.48, 0.029726315, -0.60696405, -981861.94, 427384.75, 0.03842107, 10.004161, 9.997842 
2.1553805e+3, 1.6619153e+2, -902816.6, -1272042.3, -7106.4087, 0.030123027, -0.60073096, -902679.9, 408584.63, 0.012731606, 10.003581, 9.998627 
2.155334e+3, 1.7619023e+2, -856321.25, -1207549.6, -17208.863, -0.00073304446, -0.58691484, -855480.06, 357796.47, 0.0022969628, 10.003227, 9.998564 
2.1552876e+3, 1.8618877e+2, -800307.0, -1053520.5, -22033.752, 0.009597258, -0.6081007, -798404.0, 316886.28, 0.0000996374, 10.002603, 9.99925 
2.1552415e+3, 1.9618748e+2, -827428.7, -1029668.25, -10698.211, 0.04891867, -0.65372676, -826864.4, 190437.78, 0.0, 10.001802, 9.999126 
2.155195e+3, 2.0618677e+2, -808778.1, -942797.7, -10956.109, 0.048378732, -0.6305068, -807888.4, 111421.836, 0.0, 10.001141, 9.99937 
2.1551487e+3, 2.1618672e+2, -797767.1, -892222.06, -30779.498, 0.022063203, -0.56663114, -788622.5, 32690.232, 0.0, 10.000567, 9.999321 
2.1551025e+3, 2.261863e+2, -719874.2, -714602.3, -24138.795, 0.038242444, -0.56346726, -692955.94, 30361.115, 0.0, 10.000044, 10.000118 
2.1550569e+3, 2.3618598e+2, -703848.9, -673566.0, -11746.915, 0.08070705, -0.6007513, -669543.56, -44224.04, 0.0, 9.999557, 9.999963 
2.1550107e+3, 2.4618584e+2, -678469.5, -606622.2, -14982.989, 0.06625891, -0.5931086, -603622.9, -76300.46, 0.0, 9.999042, 9.999997 
2.154964e+3, 2.5618613e+2, -665449.1, -560351.44, -23534.32, 0.015783304, -0.55962455, -555322.1, -125999.69, 0.0, 9.998504, 9.999902 
2.1549182e+3, 2.6618648e+2, -610477.94, -430992.97, -26151.895, 0.017939452, -0.52076715, -427260.13, -95939.18, 0.0, 9.997985, 10.000366 
2.1548729e+3, 2.7618715e+2, -593890.7, -384405.63, -35504.43, 0.057116672, -0.480513, -378551.75, -145236.36, 0.0, 9.997478, 10.0002575 
2.1548271e+3, 2.8618732e+2, -526252.7, -261535.22, -30349.494, 0.09736555, -0.49034795, -258100.27, -122785.69, 0.0, 9.9971, 10.000609 
2.1547815e+3, 2.9618737e+2, -476625.53, -198801.39, -2465.9927, 0.12154187, -0.5387905, -198779.52, -161465.36, 0.0, 9.996819, 10.000504 
2.1547341e+3, 3.061884e+2, -494651.97, -168572.88, 2883.84, -0.08952354, -0.47455713, -168547.38, -168547.38, 0.0, 9.996301, 10.000626 
2.1546906e+3, 3.161886e+2, -486742.06, -11928.966, -5453.8745, 0.10714957, -0.507721, -11866.328, -11866.328, 0.0, 9.995697, 10.001991 
2.1655743e+3, 1.2624747e+2, -1157025.4, -1664674.8, -4989.0366, 0.06580181, -0.5274846, -1156976.4, 545745.4, 0.18963361, 10.005879, 9.99757 
2.1655266e+3, 1.3624488e+2, -1083058.1, -1558801.9, 1949.0283, 0.043813206, -0.5830088, -1083050.1, 521694.2, 0.13678446, 10.005236, 9.997924 
2.165479e+3, 1.4624265e+2, -997493.56, -1477189.3, -3957.4856, 0.019784722, -0.5793314, -997460.94, 509303.75, 0.08303283, 10.004889, 9.997945 
2.1654314e+3, 1.5624024e+2, -906364.0, -1402440.5, 1615.728, 0.020959266, -0.60647225, -906358.75, 502428.94, 0.039424777, 10.004709, 9.997856 
2.1653843e+3, 1.6623822e+2, -844508.7, -1259285.4, 23751.281, 0.01902866, -0.60772, -843153.06, 467654.03, 0.0131095005, 10.004061, 9.998482 
2.1653372e+3, 1.7623678e+2, -879978.6, -1233075.3, 18787.242, 0.009921498, -0.5915715, -878981.8, 333839.0, 0.0023856238, 10.003131, 9.998433 
2.16529e+3, 1.8623535e+2, -819731.4, -1063882.3, 2506.6108, 0.01719516, -0.6018187, -819705.6, 295128.7, 0.00010718313, 10.002479, 9.999236 
2.1652432e+3, 1.9623421e+2, -801059.7, -1020513.3, -9228.26, 0.037080932, -0.63221073, -800672.3, 216172.53, 0.0, 10.002005, 9.99909 
2.1651961e+3, 2.0623332e+2, -777574.3, -945677.2, -608.4475, 0.034818377, -0.61483264, -777572.1, 141282.31, 0.0, 10.001437, 9.999205 
2.1651492e+3, 2.1623293e+2, -772331.25, -895921.75, 6306.4453, 0.017853906, -0.5688886, -772010.25, 48850.0, 0.0, 10.000815, 9.999173 
2.1651025e+3, 2.2623238e+2, -705012.8, -707419.75, 7578.485, 0.034005236, -0.5725962, -698542.8, 24322.787, 0.0, 10.000151, 10.000114 
2.1650565e+3, 2.3623203e+2, -719577.44, -683180.8, -5918.2217, 0.0722784, -0.61048055, -682242.7, -57374.973, 0.0, 9.999462, 9.99994 
2.1650095e+3, 2.4623184e+2, -695952.7, -629906.56, -9206.788, 0.062123712, -0.59788775, -628647.1, -101776.25, 0.0, 9.998989, 9.999861 
2.1649626e+3, 2.5623205e+2, -653516.9, -569290.25, -10105.124, 0.018749816, -0.55626327, -568094.9, -139223.16, 0.0, 9.998652, 9.999766 
2.1649162e+3, 2.6623222e+2, -600830.56, -438693.8, -9389.437, 0.018873325, -0.5238984, -438151.88, -107279.45, 0.0, 9.998108, 10.000252 
2.16487e+3, 2.7623266e+2, -607033.56, -399788.4, -9618.699, 0.05508138, -0.49654913, -399342.94, -166473.23, 0.0, 9.99743, 10.000174 
2.1648242e+3, 2.8623307e+2, -526144.06, -241410.06, -7239.4263, 0.08910265, -0.48677725, -241226.13, -106359.96, 0.0, 9.997018, 10.000786 
2.1647781e+3, 2.9623362e+2, -482245.34, -191257.9, -8983.306, 0.09568523, -0.503808, -190980.83, -154120.5, 0.0, 9.996739, 10.000591 
2.1647304e+3, 3.0623358e+2, -562449.4, -234078.28, -13657.627, -0.05624838, -0.5307244, -233511.2, -233511.2, 0.0, 9.995981, 10.000327 
2.164686e+3, 3.162344e+2, -547771.4, 539.8715, 67568.5, 0.12459773, -0.47964048, 8743.608, 8743.608, 0.0, 9.995107, 10.002358 
2.1755798e+3, 1.2629448e+2, -1167447.8, -1685392.8, -27426.258, 0.042563397, -0.5793407, -1165999.6, 536260.75, 0.19373827, 10.005899, 9.997387 
2.1755323e+3, 1.3629244e+2, -1095436.5, -1586473.3, -15759.29, 0.08301587, -0.55138695, -1094931.3, 509348.3, 0.13974594, 10.005259, 9.997695 
2.1754842e+3, 1.4629038e+2, -983648.3, -1450269.8, -9171.53, 0.057311084, -0.5331234, -983468.1, 522830.5, 0.08485876, 10.004902, 9.998143 
2.1754357e+3, 1.5628797e+2, -896605.0, -1380990.5, -7805.8706, -0.008062377, -0.579711, -896479.25, 511841.3, 0.040334377, 10.004704, 9.998014 
2.1753879e+3, 1.6628562e+2, -850737.7, -1272867.5, -10742.529, -0.0071124076, -0.6154599, -850464.5, 459878.13, 0.013446886, 10.00406, 9.99839 
2.1753404e+3, 1.7628364e+2, -885572.3, -1249906.6, -13598.569, 0.033086307, -0.64332026, -885065.44, 327295.88, 0.0024624472, 10.003148, 9.998311 
2.1752927e+3, 1.8628243e+2, -838971.0, -1109373.1, -14554.543, 0.030328857, -0.6099858, -838189.8, 276184.0, 0.00011320597, 10.002499, 9.998917 
2.1752447e+3, 1.9628194e+2, -817763.25, -1058624.0, -26525.771, 0.0019056343, -0.542512, -814876.56, 201503.05, 0.0, 10.002015, 9.998826 
2.1751973e+3, 2.0628074e+2, -763619.0, -919333.4, -22812.492, 0.014307702, -0.55587304, -760345.7, 158045.72, 0.0, 10.001444, 9.999384 
2.1751502e+3, 2.162794e+2, -763678.2, -880326.3, -16141.609, 0.050717577, -0.62046045, -761485.75, 58918.094, 0.0, 10.000821, 9.99928 
2.1751025e+3, 2.2627869e+2, -729252.9, -760692.6, -17678.363, 0.03973392, -0.6239143, -721316.06, 1094.596, 0.0, 10.000159, 9.999746 
2.175055e+3, 2.3627868e+2, -741216.56, -731150.3, -29744.414, 0.002711319, -0.59231555, -706016.2, -81605.24, 0.0, 9.99947, 9.999609 
2.175008e+3, 2.462785e+2, -697039.6, -635318.25, -21659.719, 0.026776725, -0.56355745, -628475.8, -102061.51, 0.0, 9.998998, 9.999822 
2.1749619e+3, 2.5627849e+2, -653909.5, -573666.5, -24499.818, 0.082938, -0.54004496, -566777.6, -138361.05, 0.0, 9.998663, 9.999734 
2.1749145e+3, 2.662783e+2, -600323.56, -440914.97, -35799.867, 0.061833654, -0.53967613, -433244.2, -102824.234, 0.0, 9.9981165, 10.000235 
2.174867e+3, 2.7627832e+2, -608429.44, -406236.0, -33514.293, 0.0041493378, -0.55269396, -400825.66, -168404.92, 0.0, 9.99744, 10.000127 
2.1748206e+3, 2.8627878e+2, -538476.6, -270562.53, -19147.4, 0.03507158, -0.5234115, -269201.03, -134783.61, 0.0, 9.997028, 10.000583 
2.1747747e+3, 2.9627976e+2, -496118.28, -222974.28, -26901.95, 0.09019448, -0.47599554, -220349.92, -183940.97, 0.0, 9.996747, 10.000373 
2.1747273e+3, 3.0628017e+2, -553990.44, -217341.73, -53855.125, 0.043721557, -0.45685807, -208936.17, -208936.17, 0.0, 9.995979, 10.000446 
2.174681e+3, 3.1628025e+2, -499286.75, 100942.46, 61370.77, 0.10053491, -0.49992773, 107153.086, 107153.086, 0.0, 9.995103, 10.003052 
2.1855862e+3, 1.2634297e+2, -1126964.4, -1677989.9, 2804.051, 0.06430607, -0.57335037, -1126950.1, 574834.94, 0.19753295, 10.006343, 9.997234 
2.1855377e+3, 1.3634065e+2, -1060080.5, -1587686.1, 21643.107, 0.07345392, -0.55029386, -1059194.1, 544613.8, 0.1424612, 10.005654, 9.997493 
2.185489e+3, 1.4633842e+2, -964054.9, -1440158.6, 32487.818, 0.058122665, -0.5369164, -961848.25, 543980.4, 0.08651464, 10.00506, 9.998141 
2.1854404e+3, 1.5633616e+2, -921779.25, -1393551.8, 20685.822, 0.0016260911, -0.5695844, -920873.94, 486975.22, 0.04114859, 10.004535, 9.998004 
2.1853918e+3, 1.6633382e+2, -859131.44, -1281373.4, 4832.948, -0.002090537, -0.59795994, -859076.1, 450794.72, 0.013744936, 10.004027, 9.998344 
2.1853435e+3, 1.7633183e+2, -835448.1, -1232985.5, 4639.088, 0.028694678, -0.62475705, -835394.0, 376495.97, 0.0025282586, 10.0035305, 9.998241 
2.1852952e+3, 1.8633038e+2, -793545.4, -1110881.4, 12326.314, 0.025611795, -0.5973691, -793067.3, 320837.4, 0.000117688316, 10.002916, 9.998703 
2.1852468e+3, 1.963296e+2, -798722.9, -1069622.0, 6291.166, 0.00074531586, -0.5386127, -798576.9, 217336.77, 0.0000000000000090331685, 10.002237, 9.99864 
2.1851987e+3, 2.0632827e+2, -753680.94, -912696.0, 1546.4508, 0.013239145, -0.55389285, -753665.9, 164260.11, 0.0, 10.00151, 9.999396 
2.1851508e+3, 2.1632697e+2, -775514.4, -888756.9, -3874.348, 0.048624408, -0.6172324, -775382.0, 44555.473, 0.0, 10.000756, 9.99925 
2.1851029e+3, 2.263261e+2, -738400.1, -797150.06, -1502.3079, 0.038491063, -0.6180352, -738361.75, -16415.809, 0.0, 10.000238, 9.999455 
2.1850544e+3, 2.3632583e+2, -702829.3, -741103.4, -8710.076, 0.0025838788, -0.58247095, -700940.4, -76990.96, 0.0, 9.999861, 9.999351 
2.185007e+3, 2.463254e+2, -666278.5, -621238.2, 1447.4807, 0.026238509, -0.5647586, -621191.75, -95237.01, 0.0, 9.999217, 9.999811 
2.1849602e+3, 2.563252e+2, -692387.3, -593865.06, 219.20268, 0.08285078, -0.56008494, -593864.56, -165906.48, 0.0, 9.998411, 9.999715 
2.1849126e+3, 2.6632506e+2, -639896.44, -463794.88, -10438.528, 0.0651275, -0.5521104, -463178.28, -133217.58, 0.0, 9.997866, 10.000196 
2.1848643e+3, 2.763252e+2, -606861.94, -412674.28, -9217.245, 0.010863278, -0.54762393, -412237.78, -180277.53, 0.0, 9.997486, 10.000058 
2.1848173e+3, 2.863253e+2, -570578.25, -309215.5, 3997.0283, 0.027964735, -0.536263, -309154.38, -175193.88, 0.0, 9.996912, 10.000371 
2.1847706e+3, 2.963259e+2, -589137.0, -282048.72, -8263.374, 0.061121248, -0.5084371, -281826.53, -245870.0, 0.0, 9.996175, 10.00024 
2.1847236e+3, 3.0632684e+2, -577238.0, -185863.58, -21490.346, 0.107908785, -0.44819787, -184687.08, -184687.08, 0.0, 9.99564, 10.000824 
2.1846758e+3, 3.163274e+2, -497934.2, 69661.54, 95995.62, 0.0794234, -0.4783459, 85457.38, 85457.38, 0.0, 9.995254, 10.002763 
2.1955928e+3, 1.2639277e+2, -1142259.0, -1698903.0, -20698.594, 0.11753647, -0.51999843, -1141490.5, 559806.75, 0.20101537, 10.006308, 9.997074 
2.1955425e+3, 1.3638946e+2, -1072786.5, -1614659.5, -670.4818, 0.021877332, -0.5745232, -1072785.8, 530543.9, 0.14493713, 10.005662, 9.997288 
2.1954936e+3, 1.4638686e+2, -974049.1, -1464513.1, 13887.378, 0.027911482, -0.5809862, -973656.2, 531698.3, 0.08801098, 10.005079, 9.9979515 
2.1954453e+3, 1.563848e+2, -931223.9, -1416897.4, 1869.3351, 0.043720137, -0.57307214, -931216.7, 476156.78, 0.04187697, 10.004548, 9.997835 
2.195396e+3, 1.6638283e+2, -859116.94, -1284188.9, -13631.934, 0.02846194, -0.55854034, -858680.25, 450711.88, 0.01400998, 10.004036, 9.9983225 
2.1953467e+3, 1.763812e+2, -837461.1, -1239291.6, -14925.633, -0.0009247097, -0.54414725, -836907.5, 374500.2, 0.0025858115, 10.003535, 9.998198 
2.1952978e+3, 1.8637915e+2, -802169.6, -1131054.1, -12791.57, 0.0050827004, -0.56730527, -801672.9, 311754.8, 0.00012105641, 10.002921, 9.998565 
2.195249e+3, 1.9637719e+2, -807133.44, -1089872.1, -18709.652, 0.030306503, -0.6133874, -805900.7, 209546.27, 0.00000000000007150772, 10.002245, 9.998501 
2.1952002e+3, 2.0637597e+2, -762919.6, -935503.4, -26212.1, 0.028795598, -0.60283923, -759026.3, 158431.97, 0.0, 10.00152, 9.999236 
2.1951512e+3, 2.1637553e+2, -785619.0, -913672.9, -29154.74, 0.012535113, -0.56137276, -779293.6, 40168.23, 0.0, 10.000769, 9.999076 
2.1951027e+3, 2.2637449e+2, -753016.44, -830954.6, -14624.564, 0.031418394, -0.5585303, -750362.6, -28890.273, 0.0, 10.000249, 9.999221 
2.1950549e+3, 2.3637341e+2, -716097.2, -771531.75, -24161.559, 0.070602, -0.58137786, -707044.5, -83560.58, 0.0, 9.999868, 9.999141 
2.1950066e+3, 2.4637252e+2, -665189.7, -621703.6, -29162.508, 0.058341023, -0.6008718, -607070.7, -81577.63, 0.0, 9.999224, 9.999806 
2.194958e+3, 2.563721e+2, -692624.8, -596941.06, -28723.914, 0.0150545845, -0.61717767, -588980.5, -161483.28, 0.0, 9.998417, 9.999693 
2.1949099e+3, 2.6637238e+2, -644025.8, -474959.66, -25706.479, 0.028123053, -0.56047934, -471137.4, -141641.8, 0.0, 9.997872, 10.00012 
2.1948624e+3, 2.7637327e+2, -612958.4, -428025.53, -25215.934, 0.079692416, -0.4755933, -424648.94, -193160.23, 0.0, 9.997493, 9.999952 
2.1948144e+3, 2.863726e+2, -587054.5, -345762.78, -25334.158, 0.0699358, -0.5253127, -343131.53, -209635.02, 0.0, 9.996917, 10.000121 
2.1947661e+3, 2.9637173e+2, -591646.2, -289772.72, -38213.008, 0.0030604529, -0.6154194, -285010.6, -249505.0, 0.0, 9.996181, 10.000188 
2.1947195e+3, 3.063736e+2, -528466.0, -87283.46, -35209.426, 0.13048035, -0.50266665, -84491.17, -84491.17, 0.0, 9.995646, 10.001501 
2.1946712e+3, 3.1637514e+2, -601454.4, -145893.89, 30755.03, 0.10164037, -0.47989154, -143826.98, -143826.98, 0.0, 9.995253, 10.001285 
2.205599e+3, 1.2644224e+2, -1195449.8, -1736698.4, -11236.469, 0.13799568, -0.5210762, -1195216.5, 505596.1, 0.20421703, 10.005903, 9.9970045 
2.2055481e+3, 1.3643906e+2, -1041028.8, -1605603.1, 12779.699, 0.0011716613, -0.55494845, -1040739.6, 562104.94, 0.1472022, 10.005972, 9.9972 
2.2054988e+3, 1.4643623e+2, -927740.3, -1454480.0, 21364.678, 0.018012192, -0.57023144, -926875.2, 577996.44, 0.08937162, 10.0055, 9.997823 
2.2054496e+3, 1.5643404e+2, -916835.6, -1423436.4, 12581.672, 0.050789356, -0.5607819, -916523.3, 490368.28, 0.042536512, 10.004718, 9.997707 
2.2054002e+3, 1.6643198e+2, -858436.0, -1292245.5, 259.7958, 0.03747939, -0.54702294, -858435.8, 450475.53, 0.014251208, 10.004083, 9.998242 
2.2053501e+3, 1.7643024e+2, -841775.9, -1248561.9, -6368.8916, 0.0024387054, -0.5367498, -841676.2, 369252.03, 0.0026386387, 10.003541, 9.998129 
2.2053005e+3, 1.8642813e+2, -798816.7, -1125916.3, -3409.1462, 0.007719407, -0.5631925, -798781.1, 314167.13, 0.00012397267, 10.0029335, 9.998591 
2.2052512e+3, 1.9642614e+2, -801457.7, -1087991.5, 1237.0859, 0.034858275, -0.6123839, -801452.4, 213514.7, 0.00000000000029186663, 10.002292, 9.998488 
2.2052017e+3, 2.0642476e+2, -744553.6, -952828.2, -4359.08, 0.029219614, -0.6049139, -744462.44, 172517.63, 0.0, 10.001764, 9.998998 
2.2051519e+3, 2.1642406e+2, -723519.94, -907031.0, -14206.622, 0.0057059666, -0.56519526, -722426.7, 96559.87, 0.0, 10.001301, 9.998863 
2.205103e+3, 2.2642294e+2, -712723.3, -815047.75, 5301.2256, 0.031832535, -0.5588926, -712449.4, 8548.524, 0.0, 10.000546, 9.999185 
2.2050548e+3, 2.3642187e+2, -754202.75, -793731.56, 10630.009, 0.08673569, -0.5762514, -751525.5, -128516.23, 0.0, 9.999629, 9.999101 
2.2050056e+3, 2.4642089e+2, -689393.2, -637740.7, 11851.522, 0.06814385, -0.5989547, -635151.25, -110132.49, 0.0, 9.999082, 9.999763 
2.2049563e+3, 2.564203e+2, -650093.25, -583528.94, 8678.652, 0.0055730483, -0.6236287, -582416.0, -155392.34, 0.0, 9.998745, 9.999625 
2.2049077e+3, 2.6642042e+2, -620701.94, -483071.4, 4858.849, 0.025365165, -0.5726393, -482900.1, -153876.05, 0.0, 9.998121, 9.999942 
2.2048599e+3, 2.7642107e+2, -649141.25, -460694.75, -2800.543, 0.099276766, -0.48980555, -460653.13, -229633.52, 0.0, 9.997315, 9.999811 
2.2048113e+3, 2.864205e+2, -628914.2, -354690.4, 7493.674, 0.08320486, -0.5284963, -354485.78, -221459.56, 0.0, 9.996586, 10.0002165 
2.204762e+3, 2.964199e+2, -614570.8, -282834.47, 21646.53, -0.0040746816, -0.6064377, -281427.97, -246395.42, 0.0, 9.995952, 10.000343 
2.204715e+3, 3.064214e+2, -522515.47, -69025.164, 19470.332, 0.1358032, -0.5459864, -68190.75, -68190.75, 0.0, 9.995626, 10.001633 
2.2046663e+3, 3.1642315e+2, -621964.44, -199277.98, 2891.9485, 0.09513729, -0.49620074, -199258.2, -199258.2, 0.0, 9.995301, 10.000893 
2.2156048e+3, 1.2649164e+2, -1197956.0, -1740146.5, -9285.366, 0.12795593, -0.55935246, -1197797.1, 502531.8, 0.20719591, 10.005907, 9.996981 
2.215554e+3, 1.364894e+2, -1044948.8, -1608799.5, 9495.042, 0.0040206383, -0.49861154, -1044788.94, 557564.0, 0.14929888, 10.005956, 9.997188 
2.2155042e+3, 1.464865e+2, -935910.94, -1468805.3, -7245.995, 0.022677451, -0.515027, -935812.44, 568568.3, 0.09062688, 10.005488, 9.997723 
2.2154541e+3, 1.5648393e+2, -924478.25, -1440729.4, -15498.792, 0.027140822, -0.53547025, -924013.4, 482390.56, 0.04314656, 10.004718, 9.997591 
2.215404e+3, 1.6648135e+2, -867790.94, -1313384.8, -20188.863, 0.028069837, -0.5591098, -866878.06, 441550.2, 0.014477644, 10.0040865, 9.998096 
2.215354e+3, 1.76479e+2, -848439.0, -1263933.6, -27020.229, 0.03436198, -0.59317255, -846689.2, 363761.5, 0.002689682, 10.003543, 9.998025 
2.2153038e+3, 1.8647733e+2, -786708.9, -1103021.0, -27352.023, 0.02949774, -0.58084875, -784361.1, 328105.2, 0.00012699867, 10.002938, 9.998749 
2.2152534e+3, 1.9647638e+2, -794225.25, -1076007.0, -21775.416, 0.015624099, -0.5416807, -792552.4, 221922.42, 0.0, 10.0023, 9.9985695 
2.2152032e+3, 2.0647453e+2, -766334.7, -1001017.44, -21316.59, 0.016121434, -0.5651386, -764414.2, 152078.13, 0.0, 10.001772, 9.998666 
2.2151533e+3, 2.164725e+2, -741528.06, -946290.1, -32736.955, 0.026096437, -0.62624, -736421.5, 82090.27, 0.0, 10.001304, 9.998594 
2.2151035e+3, 2.264714e+2, -702001.75, -795046.25, -28598.676, 0.03795869, -0.61532, -693914.44, 26608.426, 0.0, 10.000551, 9.999322 
2.2150539e+3, 2.3647112e+2, -745418.1, -778553.3, -20289.055, 0.05097526, -0.5664047, -735791.6, -113265.45, 0.0, 9.999638, 9.999204 
2.2150047e+3, 2.464704e+2, -694917.94, -652264.8, -747.4077, 0.056681506, -0.5592718, -652251.7, -127718.99, 0.0, 9.99909, 9.999661 
2.2149554e+3, 2.564698e+2, -657941.3, -603489.75, -6450.8633, 0.055716984, -0.57836944, -602735.94, -176197.78, 0.0, 9.998755, 9.999485 
2.214906e+3, 2.6646903e+2, -640249.8, -526912.5, -26660.922, 0.05639561, -0.5900144, -520954.16, -192407.02, 0.0, 9.99813, 9.999639 
2.2148567e+3, 2.7646852e+2, -661896.1, -489576.47, -34806.59, 0.06426742, -0.5971145, -482811.53, -252256.8, 0.0, 9.997321, 9.999613 
2.2148076e+3, 2.86469e+2, -597107.5, -290201.06, -18772.75, 0.06568531, -0.544065, -289057.03, -156506.58, 0.0, 9.996588, 10.000662 
2.2147582e+3, 2.964704e+2, -589463.75, -231964.17, 1106.8639, 0.045612853, -0.4643039, -231960.75, -197424.27, 0.0, 9.995952, 10.000695 
2.2147103e+3, 3.0646995e+2, -552527.94, -134903.06, 10142.96, 0.11923003, -0.58953744, -134656.86, -134656.86, 0.0, 9.995637, 10.001179 
2.2146611e+3, 3.1647113e+2, -564658.9, -87379.0, -53206.094, 0.0715488, -0.56002814, -81519.63, -81519.63, 0.0, 9.995325, 10.001654 
2.2256103e+3, 1.2654164e+2, -1177874.6, -1748397.0, 266.19098, 0.10541954, -0.5519997, -1177874.5, 521964.8, 0.21001324, 10.006192, 9.996785 
2.2255595e+3, 1.3653944e+2, -1079390.0, -1638558.4, 7344.99, 0.008815787, -0.4761332, -1079293.5, 522570.53, 0.151273, 10.005737, 9.997087 
2.2255097e+3, 1.4653644e+2, -966710.94, -1478988.3, -19617.814, 0.043404743, -0.5009272, -965960.8, 537932.25, 0.091807574, 10.005245, 9.997761 
2.2254588e+3, 1.5653391e+2, -917567.3, -1433024.0, -21049.68, 0.03758396, -0.5193943, -916709.2, 489206.3, 0.043724127, 10.004757, 9.9976225 
2.225408e+3, 1.6653131e+2, -861811.25, -1307179.6, -15859.414, 0.03435033, -0.54638124, -861247.2, 446692.34, 0.014695906, 10.004119, 9.998121 
2.2253574e+3, 1.7652892e+2, -869492.94, -1273192.5, -11779.635, 0.04226272, -0.5885063, -869149.56, 340812.66, 0.0027407575, 10.003398, 9.99803 
2.2253063e+3, 1.8652718e+2, -805555.5, -1122556.0, -16656.738, 0.03364054, -0.5776841, -804682.7, 307295.8, 0.0001305314, 10.002858, 9.9986515 
2.2252557e+3, 1.9652615e+2, -781733.0, -1077680.3, -29918.656, 0.012049368, -0.5346258, -778738.7, 235248.9, 0.000000000039864764, 10.002424, 9.998496 
2.2252049e+3, 2.065243e+2, -757582.1, -988175.0, -20023.125, 0.0196477, -0.5608898, -755856.4, 160148.67, 0.0, 10.001801, 9.998737 
2.2251545e+3, 2.1652223e+2, -771961.6, -955630.7, -4211.402, 0.045257807, -0.6302869, -771865.1, 46159.22, 0.0, 10.001077, 9.998637 
2.225104e+3, 2.2652107e+2, -703876.5, -805604.5, -1823.8893, 0.045158595, -0.62027335, -703843.8, 16192.048, 0.0, 10.000586, 9.99923 
2.2250535e+3, 2.3652075e+2, -667986.06, -750777.0, -11204.835, 0.0310707, -0.56646115, -666496.4, -44456.742, 0.0, 10.000216, 9.999112 
2.2250037e+3, 2.4652001e+2, -656429.94, -642588.06, 863.25476, 0.048794944, -0.55351, -642534.44, -118487.7, 0.0, 9.999398, 9.999576 
2.224954e+3, 2.5651935e+2, -723784.0, -640826.3, -2368.4836, 0.08238547, -0.56816965, -640758.75, -214705.97, 0.0, 9.998334, 9.999429 
2.224904e+3, 2.6651847e+2, -687701.75, -535752.8, 2799.4065, 0.074597, -0.5942623, -535701.25, -207638.89, 0.0, 9.99775, 9.999758 
2.2248538e+3, 2.7651784e+2, -640269.2, -467744.75, 23867.008, 0.049070675, -0.62173057, -464503.88, -234433.88, 0.0, 9.997427, 9.999708 
2.2248042e+3, 2.8651854e+2, -563108.56, -274808.66, 24965.041, 0.061734587, -0.5520397, -272662.8, -140598.83, 0.0, 9.996831, 10.000647 
2.2247547e+3, 2.965201e+2, -576306.2, -231837.73, 10966.881, 0.07902182, -0.45198026, -231488.94, -197440.02, 0.0, 9.996074, 10.000634 
2.2247054e+3, 3.065193e+2, -621377.5, -176203.05, 22226.64, 0.09880233, -0.6064167, -175096.06, -175096.06, 0.0, 9.995206, 10.0011 
2.224656e+3, 3.1652033e+2, -652603.8, -35267.25, -26648.44, 0.07382194, -0.5939196, -34119.06, -34119.06, 0.0, 9.994325, 10.002489 
2.235616e+3, 1.265923e+2, -1198656.6, -1797232.3, -13679.37, 0.06800734, -0.5051553, -1198344.1, 500999.72, 0.21271564, 10.006182, 9.996457 
2.2355652e+3, 1.3658932e+2, -1093338.4, -1665894.5, -7922.8687, 0.014144747, -0.48101974, -1093228.9, 508147.53, 0.15316948, 10.005715, 9.996911 
2.2355151e+3, 1.4658621e+2, -960558.3, -1462922.5, -35968.742, 0.07669482, -0.51885, -957996.06, 545410.6, 0.09294593, 10.00523, 9.997892 
2.2354639e+3, 1.5658407e+2, -909955.94, -1415121.9, -39784.977, 0.07483631, -0.510348, -906841.8, 498583.66, 0.0442849, 10.004748, 9.997754 
2.2354122e+3, 1.6658187e+2, -850591.06, -1284674.8, -42993.543, 0.051488783, -0.512289, -846373.75, 461071.6, 0.014911066, 10.004118, 9.9982815 
2.2353603e+3, 1.7657986e+2, -862348.0, -1261692.8, -37842.07, 0.027995147, -0.53041667, -858793.7, 350669.9, 0.0027933635, 10.0034075, 9.998107 
2.235309e+3, 1.8657757e+2, -827833.1, -1172299.5, -32802.69, 0.022533072, -0.5567778, -824737.2, 286747.9, 0.00013499039, 10.002869, 9.998307 
2.2352578e+3, 1.9657552e+2, -796910.25, -1110987.4, -46648.426, 0.022446388, -0.5854026, -790128.2, 223376.58, 0.0000000005492505, 10.002427, 9.998268 
2.2352068e+3, 2.0657405e+2, -726458.9, -925353.4, -46417.203, 0.03768943, -0.5876638, -716159.56, 199358.5, 0.0, 10.001803, 9.99917 
2.2351557e+3, 2.1657318e+2, -748984.44, -910250.3, -28620.848, 0.062493727, -0.57965124, -744055.56, 73469.49, 0.0, 10.001082, 9.998949 
2.2351044e+3, 2.2657189e+2, -726271.8, -854580.8, -14855.137, 0.053329997, -0.5769313, -724574.4, -5036.562, 0.0, 10.000591, 9.998894 
2.2350535e+3, 2.3657069e+2, -688005.4, -794670.25, -28459.13, 0.025967231, -0.5771149, -680887.25, -59336.684, 0.0, 10.000221, 9.998811 
2.235003e+3, 2.465696e+2, -661362.94, -654934.56, -39916.473, 0.043657072, -0.5813907, -618103.06, -94541.58, 0.0, 9.999403, 9.999492 
2.2349524e+3, 2.5656888e+2, -721903.06, -638908.6, -39084.23, 0.08413889, -0.5929063, -623400.6, -197832.06, 0.0, 9.998338, 9.999443 
2.2349018e+3, 2.6656866e+2, -649157.6, -457996.1, -10084.799, 0.07948935, -0.5838867, -457465.53, -129895.17, 0.0, 9.997755, 10.000292 
2.2348511e+3, 2.765691e+2, -611920.7, -412690.56, 8852.991, 0.054990675, -0.55997145, -412297.97, -182732.13, 0.0, 9.9974375, 10.000084 
2.234801e+3, 2.8656903e+2, -598291.44, -351254.78, -5209.2314, 0.07180481, -0.5543684, -351144.97, -219577.02, 0.0, 9.996841, 10.000119 
2.2347507e+3, 2.9656878e+2, -612153.75, -308839.1, -20830.637, 0.092801936, -0.5797134, -307415.2, -273842.9, 0.0, 9.996079, 10.000105 
2.2347002e+3, 3.0656925e+2, -603067.75, -138023.75, -16531.586, 0.073392995, -0.59313184, -137436.81, -137436.81, 0.0, 9.995198, 10.001368 
2.2346501e+3, 3.1657177e+2, -592297.5, 89121.09, -44397.586, 0.08723112, -0.47726092, 92001.625, 92001.625, 0.0, 9.994318, 10.003351 
2.2456218e+3, 1.2664278e+2, -1177003.3, -1761261.9, -16306.68, 0.04331901, -0.483342, -1176548.5, 522301.75, 0.21532354, 10.006294, 9.996649 
2.245571e+3, 1.3663979e+2, -1098911.0, -1638595.8, 13256.831, 0.040920097, -0.49146903, -1098585.5, 502295.97, 0.15502064, 10.005553, 9.997175 
2.2455202e+3, 1.4663674e+2, -996932.94, -1481454.9, -4323.7197, 0.10654518, -0.5325292, -996894.4, 506016.8, 0.09406897, 10.004971, 9.997875 
2.2454682e+3, 1.5663475e+2, -947562.75, -1436728.8, -17278.885, 0.069462776, -0.50580984, -946953.2, 457976.06, 0.04484195, 10.004497, 9.997724 
2.245416e+3, 1.6663258e+2, -864826.6, -1295999.8, -35320.734, 0.039929066, -0.49939653, -861952.4, 444996.8, 0.015126642, 10.004044, 9.998236 
2.2453637e+3, 1.7663057e+2, -835267.5, -1249330.4, -44593.176, 0.026956746, -0.51469713, -830519.44, 378448.3, 0.0028487311, 10.003603, 9.9980955 
2.245312e+3, 1.866283e+2, -802638.1, -1140145.0, -23058.256, 0.029548254, -0.5499735, -801070.06, 309918.7, 0.0001407693, 10.00296, 9.998482 
2.2452603e+3, 1.9662622e+2, -820227.8, -1109017.5, -2975.6736, 0.035667196, -0.5945332, -820197.2, 192810.5, 0.0000000024737916, 10.0022135, 9.998383 
2.2452085e+3, 2.0662479e+2, -759882.06, -956608.94, -16926.217, 0.04239682, -0.5880712, -758436.4, 156584.48, 0.0, 10.001643, 9.99903 
2.2451565e+3, 2.1662402e+2, -743614.75, -918178.56, -40129.527, 0.051544122, -0.557324, -734831.56, 82196.33, 0.0, 10.001169, 9.99885 
2.2451049e+3, 2.266227e+2, -737350.3, -846424.4, -20328.344, 0.05274678, -0.5602338, -733684.8, -14644.096, 0.0, 10.000463, 9.999009 
2.2450535e+3, 2.3662138e+2, -767468.75, -822540.2, -1734.3148, 0.049328562, -0.58203495, -767414.2, -146360.48, 0.0, 9.999636, 9.9988985 
2.2450022e+3, 2.4662027e+2, -699508.06, -674779.7, -1270.1412, 0.056579545, -0.5907086, -674714.6, -151649.69, 0.0, 9.999153, 9.999473 
2.2449507e+3, 2.566196e+2, -649166.44, -603473.7, 3803.0913, 0.0690982, -0.59566176, -603159.3, -178087.25, 0.0, 9.998841, 9.99944 
2.2448994e+3, 2.6661953e+2, -596012.06, -423674.88, 12669.819, 0.0697725, -0.575026, -422748.4, -95676.1, 0.0, 9.998089, 10.000363 
2.2448485e+3, 2.7662012e+2, -655466.94, -425466.16, -2432.8503, 0.06819305, -0.54119986, -425440.4, -196374.75, 0.0, 9.997109, 10.000151 
2.2447976e+3, 2.8661987e+2, -652047.2, -373608.47, -2141.859, 0.08373309, -0.55745745, -373592.0, -242522.64, 0.0, 9.996464, 10.000144 
2.2447465e+3, 2.9661942e+2, -629635.94, -316441.8, 21930.893, 0.09241539, -0.60845023, -314913.6, -281837.53, 0.0, 9.995963, 10.000106 
2.2446951e+3, 3.0662024e+2, -576865.8, -106596.695, 34977.855, 0.048734073, -0.5886254, -104009.336, -104009.336, 0.0, 9.995304, 10.001529 
2.2446445e+3, 3.166231e+2, -578532.9, 60073.45, -2800.564, 0.089742854, -0.45852405, 60085.73, 60085.73, 0.0, 9.994573, 10.003026 
2.255628e+3, 1.2669334e+2, -1148413.4, -1682050.0, -33495.246, 0.026534976, -0.47920993, -1146319.3, 552037.06, 0.21782738, 10.006275, 9.997232 
2.2555768e+3, 1.3669086e+2, -1067694.5, -1563123.4, -10465.9, 0.080700286, -0.50592715, -1067473.5, 532906.0, 0.15682968, 10.005536, 9.99775 
2.2555254e+3, 1.46688e+2, -1008003.5, -1503241.0, -22405.656, 0.12868834, -0.54259974, -1006991.9, 495415.2, 0.095185705, 10.004964, 9.997717 
2.2554721e+3, 1.5668596e+2, -958266.6, -1462176.3, -34980.7, 0.027573625, -0.50449514, -955849.9, 448577.1, 0.045402024, 10.004503, 9.997549 
2.2554196e+3, 1.6668352e+2, -880177.9, -1330977.3, -51218.83, 0.0051813233, -0.5042449, -874431.75, 432018.84, 0.015344547, 10.004051, 9.997994 
2.2553675e+3, 1.766811e+2, -842178.2, -1264686.6, -61596.94, 0.036790356, -0.53550047, -833381.25, 375092.5, 0.0029073039, 10.003602, 9.9979925 
2.2553149e+3, 1.866793e+2, -759331.25, -1051050.8, -50581.152, 0.050840087, -0.5546832, -750809.9, 359679.3, 0.0001480046, 10.002959, 9.999097 
2.2552624e+3, 1.9667818e+2, -791461.3, -1051221.3, -29810.766, 0.05039529, -0.56537986, -788084.0, 224413.23, 0.0000000066937957, 10.002217, 9.99878 
2.2552097e+3, 2.0667645e+2, -807379.56, -1057798.1, -34280.258, 0.034557078, -0.56516546, -802771.7, 111742.69, 0.0, 10.00165, 9.998335 
2.2551572e+3, 2.1667473e+2, -777281.56, -989938.44, -58487.7, 0.0132615175, -0.56223255, -762257.0, 54276.086, 0.0, 10.001172, 9.998358 
2.2551052e+3, 2.2667347e+2, -699169.44, -768999.3, -50437.188, 0.043931536, -0.56814754, -672741.4, 45803.395, 0.0, 10.000465, 9.999542 
2.2550535e+3, 2.3667276e+2, -734889.75, -757682.0, -29240.408, 0.10040266, -0.58116734, -714903.2, -94353.37, 0.0, 9.999642, 9.999343 
2.2550015e+3, 2.4667193e+2, -696202.7, -670981.1, -12686.912, 0.08652307, -0.5819013, -665703.6, -143145.77, 0.0, 9.999162, 9.999496 
2.2549489e+3, 2.566714e+2, -650763.5, -610883.75, -12478.765, 0.03544818, -0.5764783, -607300.9, -182736.7, 0.0, 9.998855, 9.999385 
2.2548972e+3, 2.6667094e+2, -624389.4, -485549.56, -26305.328, 0.044903647, -0.5680167, -480732.75, -154163.44, 0.0, 9.998096, 9.999937 
2.2548456e+3, 2.7667078e+2, -674246.5, -465184.84, -38187.11, 0.08871771, -0.5662412, -458428.0, -229856.86, 0.0, 9.9971075, 9.999882 
2.254794e+3, 2.8667095e+2, -609845.7, -287085.34, -22673.031, 0.09640834, -0.5607364, -285500.4, -154930.9, 0.0, 9.996463, 10.000742 
2.2547422e+3, 2.9667187e+2, -589657.56, -237167.58, -425.89752, 0.074210994, -0.5337797, -237167.06, -204606.34, 0.0, 9.995974, 10.000648 
2.2546902e+3, 3.0667225e+2, -574846.1, -106439.29, 6422.4395, 0.02720763, -0.58746403, -106351.25, -106351.25, 0.0, 9.9953165, 10.001527 
2.2546387e+3, 3.1667405e+2, -684348.56, -163935.0, -27705.21, 0.06453474, -0.53991693, -162464.22, -162464.22, 0.0, 9.994586, 10.001484 
2.2656342e+3, 1.2674451e+2, -1161989.3, -1685477.9, 163.41571, 0.05787657, -0.5032887, -1161989.3, 535865.44, 0.22018799, 10.00616, 9.997255 
2.2655821e+3, 1.3674235e+2, -1068669.0, -1551622.3, -7704.1694, 0.06619093, -0.51010704, -1068546.3, 531327.7, 0.15856259, 10.005481, 9.997869 
2.2655301e+3, 1.4673966e+2, -1007483.1, -1503331.9, -16372.233, 0.114122435, -0.5360603, -1006943.1, 494956.9, 0.096277244, 10.004981, 9.997705 
2.2654767e+3, 1.5673749e+2, -941566.75, -1452121.1, -21635.438, 0.031474374, -0.50879836, -940651.56, 463270.22, 0.045959804, 10.004624, 9.997557 
2.2654235e+3, 1.6673505e+2, -870091.3, -1310854.6, -24311.518, 0.01419058, -0.5161866, -868754.44, 437191.03, 0.015563538, 10.004063, 9.998124 
2.2653708e+3, 1.7673272e+2, -866942.2, -1266015.6, -12236.719, 0.044362053, -0.55104995, -866567.3, 341400.34, 0.0029681914, 10.00339, 9.998083 
2.2653176e+3, 1.8673107e+2, -788997.3, -1073193.4, -26571.219, 0.053809416, -0.5532425, -786534.4, 323447.72, 0.0001564385, 10.002794, 9.999022 
2.2652644e+3, 1.9673012e+2, -791228.9, -1054764.5, -52907.555, 0.04745337, -0.5376829, -781003.9, 230985.27, 0.000000012732063, 10.00224, 9.998742 
2.2652115e+3, 2.0672834e+2, -806165.1, -1042180.5, -34522.17, 0.036948867, -0.5487065, -801219.2, 112787.42, 0.0, 10.001598, 9.998464 
2.2651581e+3, 2.1672644e+2, -807036.6, -991282.8, -3236.5476, 0.026332673, -0.5753115, -806979.8, 9046.753, 0.0, 10.000917, 9.998468 
2.2651054e+3, 2.2672525e+2, -714753.1, -768822.3, -838.9244, 0.04754361, -0.58144987, -714740.06, 3297.2224, 0.0, 10.000331, 9.999605 
2.265053e+3, 2.3672475e+2, -710237.44, -738386.6, -12764.061, 0.085488014, -0.5799431, -705311.6, -85271.4, 0.0, 9.999785, 9.999405 
2.2650002e+3, 2.4672402e+2, -704635.25, -668615.1, -2194.7754, 0.079860754, -0.57431346, -668481.9, -146434.52, 0.0, 9.999082, 9.999549 
2.2649474e+3, 2.5672355e+2, -728929.1, -643279.8, -855.5221, 0.05006393, -0.5659413, -643271.25, -219217.98, 0.0, 9.998301, 9.999427 
2.264895e+3, 2.6672304e+2, -669099.56, -502734.94, 3479.834, 0.050591145, -0.5678513, -502662.2, -176603.13, 0.0, 9.997777, 9.99997 
2.2648425e+3, 2.7672273e+2, -636398.6, -442730.97, 24858.021, 0.07136554, -0.5845835, -439591.22, -211528.89, 0.0, 9.997356, 9.999912 
2.2647902e+3, 2.8672308e+2, -577144.4, -261509.17, 27654.125, 0.08388664, -0.5654416, -259104.61, -129045.695, 0.0, 9.996652, 10.000823 
2.2647381e+3, 2.9672444e+2, -601390.44, -228084.83, 10482.399, 0.08055464, -0.50336033, -227790.72, -195744.78, 0.0, 9.995836, 10.000773 
2.264685e+3, 3.0672464e+2, -593705.25, -114910.11, 3390.1265, 0.013284463, -0.5790331, -114886.1, -114886.1, 0.0, 9.995191, 10.001526 
2.264633e+3, 3.1672662e+2, -707919.7, -185365.13, -17865.115, 0.056108903, -0.504754, -184755.06, -184755.06, 0.0, 9.994472, 10.001389 
2.2756408e+3, 1.267963e+2, -1188816.9, -1743509.8, -18699.203, 0.119223915, -0.5494868, -1188187.3, 509158.47, 0.22235009, 10.006128, 9.996853 
2.2755869e+3, 1.3679436e+2, -1080202.3, -1579711.1, -28211.992, 0.006481518, -0.5042923, -1078614.0, 520749.8, 0.16016641, 10.005508, 9.997627 
2.2755344e+3, 1.4679174e+2, -1000155.25, -1491963.6, -28312.787, 0.07069126, -0.5158362, -998530.7, 502858.66, 0.09730686, 10.005, 9.997783 
2.2754817e+3, 1.5678936e+2, -935773.4, -1434942.3, -36141.465, 0.072208606, -0.518673, -933170.2, 470243.03, 0.046498835, 10.0046015, 9.997688 
2.275428e+3, 1.6678713e+2, -843625.06, -1251614.8, -49490.484, 0.05745074, -0.53402144, -837707.5, 467726.47, 0.015778592, 10.00404, 9.998549 
2.2753741e+3, 1.7678529e+2, -851131.5, -1233623.5, -37391.246, 0.04886259, -0.5612342, -847510.5, 359939.88, 0.0030296417, 10.003387, 9.998309 
2.2753203e+3, 1.867835e+2, -837480.8, -1176234.3, -47031.387, 0.04072578, -0.54653555, -831072.4, 278395.66, 0.00016557239, 10.002799, 9.998314 
2.2752663e+3, 1.9678205e+2, -821045.1, -1118563.8, -72678.74, 0.0278259, -0.51172835, -804240.2, 207242.75, 0.00000001851255, 10.002243, 9.998305 
2.2752129e+3, 2.0678046e+2, -744434.56, -915484.06, -58688.98, 0.048635736, -0.53778994, -726234.3, 187263.25, 0.0, 10.001599, 9.999336 
2.2751597e+3, 2.1677908e+2, -761338.25, -897937.4, -26861.871, 0.087330304, -0.5966661, -756245.8, 59263.297, 0.0, 10.000918, 9.999112 
2.275106e+3, 2.2677794e+2, -742474.2, -828454.2, -20579.672, 0.061370164, -0.60034037, -737802.25, -20282.936, 0.0, 10.000335, 9.999196 
2.2750518e+3, 2.3677725e+2, -731598.06, -785606.94, -34200.375, 0.004080674, -0.5780432, -715026.1, -95500.305, 0.0, 9.999793, 9.999079 
2.2749987e+3, 2.4677649e+2, -699181.06, -659907.3, -32261.994, 0.037633363, -0.5675093, -641775.9, -120241.79, 0.0, 9.999087, 9.999608 
2.2749463e+3, 2.56776e+2, -718600.6, -624453.06, -28347.451, 0.113849774, -0.56495255, -616576.75, -193036.45, 0.0, 9.998306, 9.999556 
2.2748931e+3, 2.6677573e+2, -634031.1, -432323.47, -12966.434, 0.086421624, -0.575352, -431493.38, -105950.87, 0.0, 9.997782, 10.000454 
2.2748391e+3, 2.7677584e+2, -612620.56, -397425.72, 5026.845, 0.012141733, -0.59512806, -397308.38, -169768.6, 0.0, 9.997369, 10.00022 
2.2747864e+3, 2.8677613e+2, -610913.5, -334700.03, -5454.2646, 0.04445136, -0.571329, -334592.38, -205053.83, 0.0, 9.996659, 10.0003195 
2.2747341e+3, 2.9677683e+2, -625080.6, -278625.38, -19670.86, 0.11322634, -0.52273315, -277512.1, -245978.1, 0.0, 9.995836, 10.000428 
2.27468e+3, 3.067773e+2, -591354.0, -112369.21, -23304.326, 0.0066862395, -0.5614836, -111238.04, -111238.04, 0.0, 9.995194, 10.001545 
2.2746272e+3, 3.1677917e+2, -602295.06, 32792.18, -46157.46, 0.03693679, -0.50681615, 36129.316, 36129.316, 0.0, 9.994473, 10.002889 
2.285647e+3, 1.2684901e+2, -1198755.0, -1733226.3, -4772.8438, 0.12802884, -0.52474105, -1198712.4, 498116.97, 0.22425368, 10.005986, 9.996988 
2.2855923e+3, 1.368467e+2, -1012766.94, -1531777.3, 3297.1929, -0.014316296, -0.53339636, -1012746.0, 586103.56, 0.16158867, 10.005995, 9.997784 
2.2855394e+3, 1.4684424e+2, -972297.44, -1478514.4, -2132.0837, 0.05642863, -0.53600556, -972288.44, 528585.25, 0.098232865, 10.005224, 9.997773 
2.2854859e+3, 1.5684192e+2, -1001661.8, -1465689.3, -12223.778, 0.08594954, -0.5309896, -1001340.06, 401557.53, 0.046993807, 10.004124, 9.997704 
2.2854316e+3, 1.668399e+2, -903313.75, -1265329.8, -30662.324, 0.07033734, -0.5334233, -900735.06, 404181.53, 0.015979666, 10.003565, 9.998679 
2.2853772e+3, 1.7683837e+2, -860721.0, -1225269.5, -39612.055, 0.045913547, -0.5423139, -856466.4, 350463.72, 0.0030888442, 10.003272, 9.998419 
2.2853227e+3, 1.8683647e+2, -844693.1, -1175591.1, -27701.816, 0.036087655, -0.5437103, -842390.06, 266558.72, 0.00017479192, 10.002738, 9.998344 
2.2852686e+3, 1.9683471e+2, -841132.75, -1123046.8, -5588.332, 0.028310478, -0.5416686, -841022.0, 169944.88, 0.000000023014687, 10.002089, 9.998345 
2.2852144e+3, 2.0683336e+2, -759291.75, -907177.2, -11645.286, 0.048888404, -0.55117387, -758380.4, 154598.83, 0.0, 10.001437, 9.999468 
2.2851604e+3, 2.168325e+2, -773290.94, -890354.4, -31002.756, 0.085454434, -0.570269, -765587.2, 49398.44, 0.0, 10.000784, 9.999226 
2.2851059e+3, 2.2683135e+2, -755704.0, -830803.7, -16901.121, 0.059211127, -0.5822646, -752075.7, -35079.766, 0.0, 10.000232, 9.999228 
2.2850515e+3, 2.3683037e+2, -740167.7, -787164.44, -1051.9712, 0.0020314746, -0.5902654, -740144.2, -121139.17, 0.0, 9.999728, 9.999097 
2.2849979e+3, 2.4682964e+2, -701149.56, -661365.75, 856.9989, 0.031559147, -0.57557, -661347.3, -140333.94, 0.0, 9.999082, 9.9995985 
2.2849447e+3, 2.5682935e+2, -710269.06, -616829.4, 886.33325, 0.102868415, -0.5535729, -616820.94, -193802.63, 0.0, 9.998354, 9.999582 
2.2848906e+3, 2.668292e+2, -642028.5, -417987.28, 4757.783, 0.0778669, -0.5619089, -417886.3, -92867.11, 0.0, 9.997654, 10.000611 
2.2848362e+3, 2.7682945e+2, -663072.94, -408250.66, -2635.1995, 0.012096899, -0.5841464, -408223.44, -181208.73, 0.0, 9.996968, 10.000337 
2.284783e+3, 2.8682965e+2, -643146.25, -356783.44, -934.04865, 0.04930131, -0.56420344, -356780.4, -227766.56, 0.0, 9.996471, 10.000256 
2.2847298e+3, 2.9683012e+2, -598246.6, -270576.2, 16337.362, 0.11058285, -0.53478605, -269763.66, -238751.38, 0.0, 9.996047, 10.00038 
2.2846748e+3, 3.068307e+2, -591251.3, -112402.74, 9930.86, -0.016860994, -0.55927587, -112196.875, -112196.875, 0.0, 9.9952, 10.00154 
2.2846213e+3, 3.1683207e+2, -599164.56, 80485.96, 3241.794, 0.03438855, -0.5576472, 80501.42, 80501.42, 0.0, 9.994304, 10.003293 
2.2956523e+3, 1.2690252e+2, -1166626.8, -1663007.9, -93.70551, 0.09110746, -0.45194563, -1166626.8, 529679.44, 0.22582936, 10.0060215, 9.9975195 
2.2955981e+3, 1.3689946e+2, -992148.06, -1480888.5, -4498.1587, -0.004276389, -0.59126526, -992106.7, 606223.94, 0.162779, 10.005958, 9.99822 
2.2955444e+3, 1.4689718e+2, -981899.6, -1493150.0, -41426.64, 0.064213306, -0.5877233, -978564.6, 521788.2, 0.09901506, 10.005198, 9.997678 
2.2954898e+3, 1.5689516e+2, -1006119.56, -1479769.5, -46639.613, 0.0754744, -0.54417264, -1001570.75, 400804.25, 0.04741578, 10.004138, 9.997603 
2.295435e+3, 1.668933e+2, -910805.9, -1285567.6, -40115.203, 0.056961033, -0.51755077, -906560.0, 397833.47, 0.016153045, 10.00358, 9.998533 
2.2953804e+3, 1.7689191e+2, -861040.8, -1226119.9, -51473.844, 0.035925753, -0.49908304, -853922.1, 352484.47, 0.0031416202, 10.003268, 9.998418 
2.2953254e+3, 1.8688993e+2, -799368.06, -1080774.5, -51388.684, 0.038253743, -0.54494, -790277.44, 318147.06, 0.00018337466, 10.00273, 9.9990015 
2.2952706e+3, 1.9688803e+2, -811023.4, -1060935.9, -29750.979, 0.046648573, -0.62263143, -807530.5, 202911.19, 0.00000002796664, 10.002086, 9.998776 
2.2952156e+3, 2.0688698e+2, -798240.1, -990262.7, -35572.5, 0.03758485, -0.58617145, -791862.06, 120590.27, 0.0, 10.001442, 9.998898 
2.2951604e+3, 2.1688664e+2, -798407.25, -945747.3, -52991.49, 0.022943582, -0.49853018, -781328.3, 33128.574, 0.0, 10.000793, 9.998843 
2.2951059e+3, 2.268854e+2, -724271.25, -768173.2, -34489.957, 0.042686723, -0.5292318, -705339.44, 11128.352, 0.0, 10.000238, 9.999657 
2.2950518e+3, 2.3688403e+2, -716042.3, -739723.06, -21025.213, 0.07776303, -0.6178547, -703752.75, -85273.98, 0.0, 9.999735, 9.999422 
2.2949968e+3, 2.4688342e+2, -706477.06, -674970.25, -27014.893, 0.05936016, -0.5986958, -659451.06, -138965.16, 0.0, 9.999087, 9.999505 
2.2949418e+3, 2.568835e+2, -715954.0, -631458.44, -26967.89, 0.013059228, -0.530176, -623584.94, -201096.8, 0.0, 9.998361, 9.999481 
2.2948875e+3, 2.668833e+2, -654920.5, -447127.4, -22623.203, 0.024124308, -0.5261241, -444692.84, -120202.79, 0.0, 9.997659, 10.000412 
2.2948338e+3, 2.7688333e+2, -668541.44, -421704.0, -28355.227, 0.074309364, -0.5524273, -418488.6, -192000.03, 0.0, 9.996972, 10.000245 
2.2947797e+3, 2.8688362e+2, -614878.8, -300032.1, -18586.717, 0.100682124, -0.54363, -298938.63, -170452.69, 0.0, 9.996475, 10.000647 
2.2947253e+3, 2.9688427e+2, -580129.4, -235345.88, -5632.324, 0.06952437, -0.5319909, -235253.89, -204773.14, 0.0, 9.996053, 10.000622 
2.2946694e+3, 3.0688465e+2, -593661.9, -119038.96, -31377.662, -0.06374763, -0.5838054, -116973.55, -116973.55, 0.0, 9.995201, 10.001497 
2.2946157e+3, 3.1688702e+2, -677459.1, -85987.75, 8151.3335, 0.060107943, -0.4758229, -85875.44, -85875.44, 0.0, 9.994317, 10.002146 
2.3056582e+3, 1.26956e+2, -1099372.4, -1627079.4, 37763.867, 0.053042777, -0.4805043, -1096683.6, 599097.75, 0.22697665, 10.00661, 9.997553 
2.305604e+3, 1.3695322e+2, -1049698.8, -1502944.5, 3898.5935, 0.010222754, -0.5922321, -1049665.3, 548138.4, 0.16366927, 10.005465, 9.998274 
2.3055494e+3, 1.469513e+2, -1020230.75, -1490282.8, -32413.416, 0.071624935, -0.56594336, -1018006.2, 481815.97, 0.09960648, 10.004812, 9.99788 
2.3054937e+3, 1.569493e+2, -954566.44, -1434827.0, -19084.18, 0.056589056, -0.5397401, -953809.25, 448034.63, 0.047733672, 10.0044365, 9.997764 
2.3054385e+3, 1.669473e+2, -881611.0, -1271084.8, 3807.819, 0.04300836, -0.53261524, -881573.75, 422289.94, 0.016283097, 10.00379, 9.99853 
2.3053832e+3, 1.7694575e+2, -896149.25, -1239211.4, 480.20886, 0.04027295, -0.52928936, -896148.56, 309730.0, 0.003182588, 10.003016, 9.9984455 
2.305328e+3, 1.8694411e+2, -834542.94, -1075428.0, -19379.004, 0.046491273, -0.5543722, -832993.9, 274899.56, 0.00019047804, 10.002399, 9.999194 
2.3052725e+3, 1.9694272e+2, -833845.94, -1055457.0, -29814.926, 0.05258237, -0.5978562, -829904.8, 180000.69, 0.000000034904282, 10.0018635, 9.998918 
2.3052168e+3, 2.0694156e+2, -806004.1, -1001223.2, -21103.389, 0.034822218, -0.57297474, -803748.9, 108168.45, 0.0, 10.001425, 9.998828 
2.3051609e+3, 2.1694084e+2, -768232.6, -936118.9, -6765.262, 0.008245408, -0.51545006, -767960.44, 45965.332, 0.0, 10.001028, 9.998794 
2.3051059e+3, 2.2693965e+2, -716568.0, -756479.4, -1372.6158, 0.034300353, -0.54223675, -716520.9, -584.5739, 0.0, 10.000261, 9.999723 
2.3050512e+3, 2.3693852e+2, -771896.94, -758965.7, -11969.261, 0.08586963, -0.6121285, -751827.4, -133882.39, 0.0, 9.999323, 9.999485 
2.3049958e+3, 2.46938e+2, -736619.3, -681216.4, -11276.14, 0.062221047, -0.59014124, -679009.25, -159058.13, 0.0, 9.99885, 9.999574 
2.30494e+3, 2.569381e+2, -681124.56, -610118.75, -2142.8345, -0.0010142414, -0.52484095, -610054.2, -188101.19, 0.0, 9.998585, 9.999517 
2.304885e+3, 2.6693782e+2, -632717.3, -447022.2, 686.4434, 0.010142879, -0.5234223, -447019.66, -123063.73, 0.0, 9.997862, 10.000312 
2.3048306e+3, 2.7693772e+2, -678165.9, -430521.5, 4979.918, 0.07266296, -0.55575913, -430421.38, -204464.86, 0.0, 9.99693, 10.000202 
2.3047759e+3, 2.8693813e+2, -630107.94, -284995.47, 15682.077, 0.101416044, -0.5437854, -284284.3, -156331.88, 0.0, 9.996279, 10.000841 
2.3047209e+3, 2.9693913e+2, -619407.8, -235401.34, 9832.001, 0.060379434, -0.5127435, -235149.77, -205206.83, 0.0, 9.995706, 10.000787 
2.3046646e+3, 3.0693954e+2, -597584.25, -103245.08, -16009.855, -0.06053131, -0.57797176, -102727.12, -102727.12, 0.0, 9.995102, 10.001651 
2.3046102e+3, 3.1694177e+2, -659272.4, -150229.61, 71309.12, 0.03671142, -0.4944861, -140428.97, -140428.97, 0.0, 9.994763, 10.001486 
2.3156643e+3, 1.2700953e+2, -1113637.4, -1664267.5, 8838.241, 0.012181997, -0.59261125, -1113495.5, 581758.94, 0.22755803, 10.006655, 9.997202 
2.3156093e+3, 1.3700794e+2, -1065270.0, -1533865.9, -25412.322, 0.024760844, -0.5469192, -1063896.0, 533372.5, 0.16416024, 10.005457, 9.998026 
2.3155542e+3, 1.470065e+2, -995137.56, -1437612.4, -42793.92, 0.076060735, -0.48656005, -991036.75, 508245.66, 0.09994498, 10.004806, 9.998288 
2.3154978e+3, 1.5700428e+2, -931004.1, -1385526.9, -33464.934, 0.030260734, -0.52139, -928553.44, 472751.34, 0.047914032, 10.004437, 9.99811 
2.315442e+3, 1.670019e+2, -874469.3, -1257407.8, -24007.324, 0.028587205, -0.5738238, -872970.06, 430357.44, 0.016354946, 10.00379, 9.998629 
2.3153862e+3, 1.769999e+2, -894203.8, -1235909.6, -26114.504, 0.056683045, -0.6229187, -892219.56, 313126.38, 0.0032069276, 10.003015, 9.998472 
2.3153304e+3, 1.869989e+2, -850881.8, -1111476.3, -38516.414, 0.05904307, -0.56970716, -845308.25, 262047.61, 0.00019542009, 10.002403, 9.998947 
2.3152742e+3, 1.9699864e+2, -841620.2, -1074392.6, -47560.7, 0.04586084, -0.47733283, -832277.44, 177081.89, 0.000000043907978, 10.001871, 9.998786 
2.315218e+3, 2.06997e+2, -779145.0, -947407.0, -34345.867, 0.040051036, -0.5173054, -772404.3, 138970.52, 0.0, 10.001429, 9.999198 
2.3151621e+3, 2.1699506e+2, -751757.06, -902520.4, -24272.38, 0.038308233, -0.6180325, -747945.7, 65447.04, 0.0, 10.001025, 9.999028 
2.315106e+3, 2.2699405e+2, -737195.25, -801013.6, -36268.293, 0.03212792, -0.6173307, -720797.25, -5395.264, 0.0, 10.000264, 9.999418 
2.3150498e+3, 2.3699377e+2, -784375.6, -788104.9, -42119.69, 0.025550643, -0.57244354, -744079.3, -126674.99, 0.0, 9.999332, 9.999284 
2.3149943e+3, 2.4699332e+2, -720256.75, -650478.4, -20777.35, 0.041295797, -0.5505317, -644760.25, -125350.31, 0.0, 9.998859, 9.999783 
2.3149389e+3, 2.569931e+2, -667869.06, -586791.44, -17645.168, 0.062145773, -0.53885114, -583117.7, -161703.83, 0.0, 9.998598, 9.999674 
2.3148829e+3, 2.669927e+2, -632315.75, -448977.3, -36676.926, 0.035368003, -0.5555018, -441912.34, -118494.54, 0.0, 9.997869, 10.0002985 
2.3148264e+3, 2.7699247e+2, -679006.25, -433482.75, -27807.93, 0.00023020651, -0.5946536, -430372.63, -204953.25, 0.0, 9.99693, 10.000184 
2.3147714e+3, 2.8699306e+2, -631594.25, -289100.16, -6757.451, 0.047714893, -0.5657315, -288966.88, -161552.48, 0.0, 9.996278, 10.000816 
2.3147167e+3, 2.969946e+2, -614309.1, -226928.92, -15695.087, 0.08758166, -0.4797051, -226294.06, -196893.77, 0.0, 9.995709, 10.000846 
2.31466e+3, 3.0699533e+2, -575085.56, -58789.13, -38484.926, -0.0020112565, -0.5316288, -55936.215, -55936.215, 0.0, 9.995106, 10.001957 
2.3146042e+3, 3.1699607e+2, -635909.7, -108329.08, 76649.7, 0.0059624645, -0.62377954, -97418.63, -97418.63, 0.0, 9.994783, 10.001769 
2.3256709e+3, 1.270658e+2, -1047725.0, -1656096.6, 46521.684, -0.018261136, -0.5863956, -1044188.1, 650513.3, 0.22741151, 10.007374, 9.996925 
2.3256147e+3, 1.3706355e+2, -1079873.1, -1567059.4, 21794.646, 0.03480291, -0.56774396, -1078900.0, 517823.1, 0.16412574, 10.005473, 9.997743 
2.3255588e+3, 1.4706217e+2, -1007014.94, -1430812.0, 31992.604, 0.08470418, -0.4969567, -1004613.4, 494123.44, 0.099951155, 10.004661, 9.998406 
2.3255019e+3, 1.5706003e+2, -932755.1, -1375199.1, 23326.3, 0.028894532, -0.53422546, -931528.75, 469229.2, 0.047918264, 10.004381, 9.998208 
2.3254456e+3, 1.6705778e+2, -882479.44, -1259366.0, 9529.74, 0.027823914, -0.57528067, -882238.6, 420540.53, 0.016354565, 10.003733, 9.998638 
2.3253891e+3, 1.7705598e+2, -909674.56, -1244235.5, 3841.245, 0.06109821, -0.6050168, -909630.44, 295165.44, 0.0032114023, 10.002918, 9.998458 
2.3253325e+3, 1.8705477e+2, -865005.4, -1130678.1, 5178.6133, 0.06134754, -0.5664519, -864904.5, 241903.64, 0.00019790434, 10.002366, 9.998831 
2.3252758e+3, 1.9705409e+2, -837286.0, -1079607.9, 2958.1663, 0.04286928, -0.50234276, -837249.9, 171565.75, 0.000000051889515, 10.001939, 9.998714 
2.3252192e+3, 2.0705256e+2, -787448.8, -935671.1, 4389.166, 0.041048896, -0.53637487, -787318.94, 123511.14, 0.0, 10.001309, 9.999332 
2.3251629e+3, 2.1705092e+2, -807926.0, -918237.94, -2556.9114, 0.047682416, -0.6173666, -807866.75, 4977.8975, 0.0, 10.000596, 9.999124 
2.325106e+3, 2.2704996e+2, -745635.9, -810711.8, -7872.334, 0.029249733, -0.61302304, -744697.06, -29843.262, 0.0, 10.000236, 9.999363 
2.325049e+3, 2.370496e+2, -688432.56, -746708.75, 2492.8994, 0.0017311588, -0.5698175, -688326.1, -71468.73, 0.0, 10.000017, 9.999235 
2.3249929e+3, 2.4704903e+2, -675836.94, -626748.2, 15320.172, 0.027925879, -0.55530137, -622359.25, -103495.414, 0.0, 9.999159, 9.999798 
2.3249373e+3, 2.570487e+2, -752363.9, -625093.5, 4604.8374, 0.07535118, -0.5542034, -624927.1, -204058.73, 0.0, 9.9980135, 9.999689 
2.3248807e+3, 2.6704845e+2, -693898.4, -472508.13, -14381.365, 0.04497454, -0.5577405, -471577.8, -148707.11, 0.0, 9.997425, 10.000347 
2.3248233e+3, 2.770485e+2, -657999.56, -419881.5, -1936.5522, -0.01075391, -0.57555133, -419865.75, -194995.77, 0.0, 9.997065, 10.00021 
2.3247676e+3, 2.8704876e+2, -621015.5, -285781.34, 18366.0, 0.02700049, -0.57550645, -284778.16, -157910.16, 0.0, 9.996365, 10.000794 
2.3247121e+3, 2.970499e+2, -639984.7, -239748.44, 8743.532, 0.07426679, -0.5302635, -239557.52, -210699.33, 0.0, 9.995543, 10.000834 
2.324655e+3, 3.0705157e+2, -583439.5, -61425.89, -23596.875, 0.016154027, -0.48564017, -60361.4, -60361.4, 0.0, 9.995049, 10.001963 
2.3245989e+3, 3.1705225e+2, -647990.56, -65160.32, 71044.68, 0.009091436, -0.5846969, -56625.25, -56625.25, 0.0, 9.994492, 10.002204 
2.3356777e+3, 1.2712422e+2, -1067490.5, -1687370.4, -8159.7134, -0.044954, -0.49970618, -1067383.1, 626744.56, 0.22638147, 10.007306, 9.996681 
2.3356201e+3, 1.3712002e+2, -1094355.8, -1607292.8, -27186.648, 0.040190533, -0.6413754, -1092918.9, 503249.53, 0.16343649, 10.005507, 9.997416 
2.3355635e+3, 1.4711834e+2, -1009478.56, -1446960.1, 23671.303, 0.09629674, -0.5780333, -1008201.5, 489983.7, 0.09954123, 10.004704, 9.998264 
2.3355064e+3, 1.571165e+2, -940061.8, -1392939.4, 10264.056, 0.04713975, -0.57195276, -939829.25, 460374.3, 0.047706664, 10.004386, 9.99808 
2.3354492e+3, 1.6711487e+2, -886679.4, -1271390.9, -19938.184, 0.037385445, -0.5426117, -885648.8, 416570.94, 0.016269436, 10.003741, 9.998552 
2.3353918e+3, 1.7711379e+2, -910310.3, -1253130.0, -23053.287, 0.054020073, -0.4910497, -908767.0, 295463.3, 0.0031941037, 10.002946, 9.998386 
2.3353347e+3, 1.8711156e+2, -862974.5, -1132800.9, -9977.616, 0.054384436, -0.5490871, -862606.06, 243645.19, 0.00019783608, 10.002388, 9.998808 
2.3352776e+3, 1.971091e+2, -838828.8, -1085972.6, -14100.4795, 0.043067135, -0.6602883, -838026.94, 170247.22, 0.000000054038466, 10.001946, 9.99867 
2.3352204e+3, 2.0710821e+2, -792908.2, -950300.06, -21800.14, 0.0374247, -0.62150156, -789944.5, 120338.57, 0.0, 10.001319, 9.99923 
2.335163e+3, 2.1710832e+2, -809105.56, -924631.4, -24171.762, 0.035743825, -0.51832944, -804251.94, 8030.686, 0.0, 10.000608, 9.999077 
2.3351061e+3, 2.2710724e+2, -732857.4, -787179.1, -14554.118, 0.02580386, -0.53417534, -729203.75, -14910.83, 0.0, 10.000244, 9.999522 
2.335049e+3, 2.3710589e+2, -681684.1, -735233.25, -12277.1, 0.0130246375, -0.6048372, -679003.56, -62698.375, 0.0, 10.000023, 9.999313 
2.334992e+3, 2.471051e+2, -688748.25, -655473.56, -29290.441, 0.020582933, -0.60399395, -638425.1, -120111.39, 0.0, 9.999163, 9.999601 
2.3349348e+3, 2.571049e+2, -761934.44, -646289.06, -33544.688, 0.035129566, -0.57033306, -637263.4, -216946.0, 0.0, 9.998014, 9.999545 
2.3348777e+3, 2.6710513e+2, -687142.1, -459797.06, -28545.205, 0.03939056, -0.5281564, -456267.75, -133952.33, 0.0, 9.997426, 10.000436 
2.3348208e+3, 2.7710575e+2, -652368.1, -412077.1, -20693.416, 0.044325095, -0.4934687, -410308.03, -185999.22, 0.0, 9.997076, 10.00026 
2.3347639e+3, 2.871052e+2, -623376.56, -294237.25, -15646.527, 0.039426774, -0.574412, -293495.13, -167180.64, 0.0, 9.996374, 10.000735 
2.3347068e+3, 2.971048e+2, -648785.2, -259487.14, -20244.586, 0.009836325, -0.6756233, -258437.19, -230118.11, 0.0, 9.9955435, 10.000702 
2.3346497e+3, 3.071082e+2, -605982.7, -108625.27, -42391.125, -0.0053450065, -0.43396991, -105038.04, -105038.04, 0.0, 9.995048, 10.001641 
2.3345932e+3, 3.1710875e+2, -625739.5, -17251.063, 21451.166, 0.013299664, -0.5197138, -16495.777, -16495.777, 0.0, 9.994477, 10.002543 
2.345685e+3, 1.2718242e+2, -1139076.6, -1727569.5, 3612.1184, -0.0013444353, -0.5132306, -1139054.4, 554501.94, 0.2243533, 10.006644, 9.99671 
2.3456255e+3, 1.3717827e+2, -1034438.5, -1590757.8, 551.42957, 0.018221635, -0.63993645, -1034437.94, 561159.3, 0.16199465, 10.006067, 9.99726 
2.3455681e+3, 1.4717638e+2, -949707.44, -1440775.8, 68367.33, 0.07159619, -0.57249945, -940366.9, 557248.9, 0.09865111, 10.005272, 9.998034 
2.3455107e+3, 1.571742e+2, -952192.3, -1422823.4, 50721.973, 0.059948068, -0.57791376, -946787.9, 452849.6, 0.047248684, 10.004405, 9.997862 
2.3454529e+3, 1.6717228e+2, -877883.8, -1284238.9, 16993.986, 0.04593188, -0.55631936, -877174.3, 424482.03, 0.016089717, 10.003882, 9.998392 
2.3453948e+3, 1.77171e+2, -837189.9, -1231003.6, 7808.815, 0.038602866, -0.50791, -837035.06, 366634.06, 0.0031531577, 10.003512, 9.998261 
2.345337e+3, 1.8716885e+2, -794252.94, -1094256.9, 19863.758, 0.04096652, -0.5560813, -792943.44, 312745.9, 0.0001949189, 10.002843, 9.99885 
2.3452796e+3, 1.9716655e+2, -825135.4, -1079514.6, 19230.111, 0.04389213, -0.65532804, -823689.9, 184020.67, 0.00000004796778, 10.002048, 9.998662 
2.3452216e+3, 2.0716546e+2, -776422.9, -961754.44, 10801.716, 0.03486347, -0.6226856, -775795.44, 133925.9, 0.0, 10.001521, 9.999052 
2.3451638e+3, 2.1716532e+2, -747002.4, -909186.5, 1172.7422, 0.022970736, -0.5285952, -746993.9, 64730.215, 0.0, 10.001103, 9.998941 
2.3451062e+3, 2.2716431e+2, -726578.2, -778394.5, 1137.127, 0.024226408, -0.53303117, -726553.25, -12819.337, 0.0, 10.000268, 9.999569 
2.3450486e+3, 2.3716317e+2, -790346.44, -782337.3, -4771.468, 0.031589217, -0.5864569, -780112.7, -164368.27, 0.0, 9.99926, 9.999354 
2.3449907e+3, 2.4716234e+2, -735077.06, -674038.2, -14204.082, 0.023840927, -0.59273756, -670894.7, -153141.72, 0.0, 9.998834, 9.99963 
2.3449326e+3, 2.5716197e+2, -672460.5, -604047.6, -2606.5, 0.009606243, -0.5758951, -603948.44, -184191.06, 0.0, 9.998637, 9.999533 
2.344875e+3, 2.6716205e+2, -634324.75, -450238.28, -5378.7417, 0.024237486, -0.5388425, -450081.25, -128324.234, 0.0, 9.997863, 10.000288 
2.3448177e+3, 2.7716258e+2, -696269.44, -442997.1, -16547.629, 0.056521807, -0.5018295, -441920.53, -218168.52, 0.0, 9.996823, 10.000167 
2.34476e+3, 2.8716213e+2, -664627.25, -302158.16, -9849.863, 0.050083436, -0.569969, -301890.7, -176134.77, 0.0, 9.996045, 10.000836 
2.3447022e+3, 2.971619e+2, -667217.5, -266172.72, 2571.3645, 0.008224529, -0.66440266, -266156.22, -238397.75, 0.0, 9.995413, 10.000715 
2.3446442e+3, 3.0716464e+2, -612346.5, -118828.8, 4335.9717, -0.031416383, -0.48016736, -118790.7, -118790.7, 0.0, 9.995041, 10.001572 
2.3445879e+3, 3.1716496e+2, -630859.25, -37161.96, 56475.977, 0.03994446, -0.58850414, -31837.389, -31837.389, 0.0, 9.994525, 10.002379 
2.3556924e+3, 1.2724055e+2, -1127515.5, -1696938.3, -14777.109, 0.08987466, -0.6104071, -1127132.3, 565853.9, 0.22130369, 10.006615, 9.996937 
2.3556311e+3, 1.3723806e+2, -1031008.8, -1592138.1, -20810.395, -0.027592266, -0.5778245, -1030238.06, 564773.56, 0.15978104, 10.006091, 9.997239 
2.3555726e+3, 1.4723608e+2, -965771.25, -1484189.4, 37035.316, 0.017883044, -0.4982, -963138.8, 533892.06, 0.09726826, 10.005306, 9.997688 
2.355515e+3, 1.57233e+2, -969588.25, -1467696.6, 22389.805, 0.06784249, -0.55877054, -968583.9, 430476.84, 0.04653734, 10.004428, 9.997544 
2.3554565e+3, 1.6723008e+2, -892623.4, -1319338.4, 3862.6724, 0.05271175, -0.60990363, -892588.4, 408500.56, 0.01581139, 10.003895, 9.998146 
2.355398e+3, 1.772278e+2, -849785.2, -1258461.6, -8242.568, 0.01529099, -0.63765424, -849619.0, 353492.3, 0.0030865178, 10.003512, 9.998076 
2.3553395e+3, 1.8722665e+2, -788268.7, -1083843.3, -9646.453, 0.021575158, -0.5815843, -787954.2, 317168.13, 0.00018864853, 10.002847, 9.998923 
2.3552813e+3, 1.972262e+2, -823231.44, -1079387.0, -7435.9014, 0.04421277, -0.5030444, -823015.75, 184110.88, 0.000000035210917, 10.002059, 9.99866 
2.3552229e+3, 2.0722416e+2, -793637.2, -1000512.0, -3724.6765, 0.032890502, -0.5496739, -793570.2, 115576.336, 0.0, 10.00153, 9.998784 
2.3551646e+3, 2.1722184e+2, -763328.5, -944131.75, -17954.188, 0.008428115, -0.6440778, -761562.9, 49606.414, 0.0, 10.001102, 9.998705 
2.3551062e+3, 2.2722113e+2, -731482.6, -790357.75, -36587.527, 0.023963634, -0.6044933, -713960.44, -783.4195, 0.0, 10.000271, 9.999488 
2.355048e+3, 2.3722136e+2, -789709.6, -784205.25, -36109.043, 0.055481598, -0.5145857, -750743.7, -135567.95, 0.0, 9.999269, 9.99934 
2.3549895e+3, 2.4722065e+2, -716995.25, -639531.75, -20871.512, 0.037281517, -0.5217984, -634266.1, -117083.875, 0.0, 9.998842, 9.999866 
2.354931e+3, 2.5721988e+2, -663232.4, -589642.06, -16881.045, -0.0028345778, -0.5700763, -585954.44, -166765.22, 0.0, 9.998653, 9.999627 
2.3548725e+3, 2.6721913e+2, -662068.3, -511250.63, -46893.43, -0.0024851754, -0.5934441, -497859.2, -176662.38, 0.0, 9.997873, 9.999867 
2.354814e+3, 2.772187e+2, -715075.4, -482879.06, -55497.61, 0.022036755, -0.60975295, -470296.34, -247094.72, 0.0, 9.996822, 9.999896 
2.3547561e+3, 2.8721955e+2, -646511.1, -264124.88, -36364.047, 0.060275003, -0.55701286, -260697.47, -135504.45, 0.0, 9.996039, 10.001102 
2.354698e+3, 2.9722136e+2, -655346.2, -242356.63, -18663.54, 0.07550317, -0.46770296, -241514.92, -214340.33, 0.0, 9.995411, 10.000882 
2.3546389e+3, 3.0722046e+2, -597296.06, -91090.23, -8481.875, -0.0678057, -0.66480535, -90948.15, -90948.15, 0.0, 9.995049, 10.0017605 
2.3545825e+3, 3.1722274e+2, -700026.9, -183318.55, 14168.928, 0.05879656, -0.5895103, -182930.3, -182930.3, 0.0, 9.994533, 10.001374 
2.365699e+3, 1.273001e+2, -1171417.0, -1731100.3, 12954.375, 0.115640745, -0.60998124, -1171117.4, 521285.13, 0.21733266, 10.006229, 9.996886 
2.365637e+3, 1.3729753e+2, -988529.9, -1589733.9, -12508.548, -0.0443156, -0.5675393, -988269.75, 606159.75, 0.15687513, 10.006513, 9.997053 
2.3655778e+3, 1.4729536e+2, -905939.56, -1471897.8, 23884.85, -0.0044602426, -0.49017185, -904933.4, 591517.5, 0.09543979, 10.005836, 9.997523 
2.3655196e+3, 1.5729207e+2, -932251.5, -1462487.8, 22045.646, 0.06952284, -0.5531956, -931336.44, 467145.84, 0.04559079, 10.004758, 9.997417 
2.3654604e+3, 1.6728906e+2, -875640.0, -1307674.3, 32413.871, 0.05721197, -0.6104897, -873221.6, 427289.3, 0.015437005, 10.0040045, 9.99817 
2.3654011e+3, 1.772867e+2, -869952.2, -1272221.3, 35361.223, 0.01193076, -0.64719325, -866867.44, 335666.03, 0.0029929075, 10.003397, 9.9980345 
2.3653421e+3, 1.872854e+2, -806455.44, -1121025.1, 18781.584, 0.012606893, -0.5872677, -805338.06, 299208.28, 0.00017869432, 10.002851, 9.998663 
2.3652832e+3, 1.972848e+2, -798549.7, -1088398.4, -1802.1609, 0.032149933, -0.4955953, -798538.5, 208014.19, 0.000000020158883, 10.002324, 9.998468 
2.3652244e+3, 2.0728275e+2, -782980.9, -990560.4, 9840.119, 0.03353678, -0.5404441, -782515.5, 126057.38, 0.0, 10.001587, 9.998822 
2.3651655e+3, 2.1728037e+2, -812773.4, -968136.5, 15266.297, 0.027556853, -0.6413493, -811287.5, -691.84045, 0.0, 10.000769, 9.998697 
2.3651065e+3, 2.2727951e+2, -745356.3, -813755.9, -2464.798, 0.03099925, -0.6070565, -745267.6, -32662.596, 0.0, 10.000253, 9.999333 
2.3650473e+3, 2.3727956e+2, -713883.06, -759454.0, -6728.685, 0.04028178, -0.5180665, -712910.3, -98304.64, 0.0, 9.9998455, 9.999229 
2.3649883e+3, 2.4727891e+2, -694954.56, -624791.0, -1794.3817, 0.034980893, -0.5171607, -624745.1, -108133.45, 0.0, 9.998981, 9.999897 
2.3649295e+3, 2.5727826e+2, -765962.5, -633671.8, -12162.525, 0.020512752, -0.5559694, -632562.94, -213945.73, 0.0, 9.997931, 9.999669 
2.3648699e+3, 2.6727733e+2, -722535.75, -532648.94, -22626.83, -0.0003003182, -0.59909433, -529990.0, -209364.4, 0.0, 9.997431, 9.99993 
2.3648103e+3, 2.7727664e+2, -667481.25, -457286.8, 2157.511, -0.011049246, -0.64734143, -457264.7, -234632.31, 0.0, 9.997144, 9.999913 
2.364752e+3, 2.8727764e+2, -603707.3, -256323.9, 6310.1587, 0.05222233, -0.573378, -256209.31, -131586.58, 0.0, 9.996394, 10.000982 
2.3646936e+3, 2.972798e+2, -662562.6, -254454.02, -3118.9702, 0.10719133, -0.43710327, -254430.19, -227828.63, 0.0, 9.995404, 10.0008 
2.3646335e+3, 3.0727836e+2, -641111.7, -93104.56, 13334.208, -0.0800662, -0.6952462, -92780.305, -92780.305, 0.0, 9.994672, 10.001927 
2.3645766e+3, 3.1728178e+2, -748069.06, -213182.06, 25938.232, 0.06416825, -0.5239414, -211927.19, -211927.19, 0.0, 9.99424, 10.001307 
2.3757048e+3, 1.2736084e+2, -1181647.9, -1774260.4, 19408.104, 0.09052456, -0.5440778, -1181013.0, 510794.84, 0.21264093, 10.006261, 9.996576 
2.3756433e+3, 1.3735689e+2, -1010472.4, -1641930.0, -13235.38, -0.04184101, -0.5987479, -1010195.1, 583653.7, 0.15342313, 10.006478, 9.996708 
2.3755835e+3, 1.4735441e+2, -909686.56, -1479373.4, -13096.708, -0.0053180116, -0.5336222, -909385.6, 586487.6, 0.0932488, 10.005814, 9.997479 
2.3755242e+3, 1.5735148e+2, -929136.1, -1460304.4, -12380.28, 0.0655123, -0.557625, -928847.7, 469053.63, 0.044443075, 10.004767, 9.997431 
2.3754643e+3, 1.6734912e+2, -856893.06, -1273939.1, 9933.041, 0.06045171, -0.5657611, -856656.6, 443266.47, 0.014976025, 10.004021, 9.998399 
2.3754045e+3, 1.7734744e+2, -864472.0, -1265226.5, 12558.145, 0.025152065, -0.5543159, -864078.9, 337859.1, 0.0028738624, 10.00341, 9.998078 
2.3753448e+3, 1.8734497e+2, -844612.6, -1204051.8, -408.01868, 0.011661292, -0.578221, -844612.2, 259350.14, 0.0001653837, 10.002862, 9.99809 
2.3752852e+3, 1.9734249e+2, -824013.56, -1144094.5, -22252.838, 0.007855131, -0.62009233, -822473.94, 183513.73, 0.0000000080542115, 10.002332, 9.998085 
2.3752259e+3, 2.0734125e+2, -759976.75, -945804.4, -19928.389, 0.036702644, -0.5866058, -757863.6, 150136.38, 0.0, 10.001595, 9.999128 
2.3751666e+3, 2.173408e+2, -798762.5, -942097.1, -10945.648, 0.076474875, -0.5264236, -797931.44, 12072.856, 0.0, 10.000777, 9.998876 
2.3751067e+3, 2.2733931e+2, -760647.0, -848610.44, -16394.371, 0.04363197, -0.5455914, -757690.8, -45671.715, 0.0, 10.000261, 9.999093 
2.3750463e+3, 2.3733771e+2, -728631.5, -793160.4, -27007.598, -0.015029828, -0.59726685, -718819.75, -104784.734, 0.0, 9.999854, 9.998997 
2.374987e+3, 2.4733704e+2, -707481.25, -652687.56, -42963.055, 0.017418219, -0.5783723, -629129.4, -113087.414, 0.0, 9.998985, 9.999705 
2.3749277e+3, 2.5733703e+2, -766932.44, -637046.4, -46911.01, 0.08000279, -0.5323614, -621875.5, -203833.38, 0.0, 9.9979315, 9.999648 
2.3748675e+3, 2.673367e+2, -683287.75, -452465.72, -33735.688, 0.031237924, -0.5519218, -447636.16, -127592.46, 0.0, 9.997432, 10.0004835 
2.3748071e+3, 2.7733645e+2, -644375.25, -413407.13, -13407.288, -0.047029514, -0.60727453, -412631.47, -190587.52, 0.0, 9.997157, 10.000212 
2.3747478e+3, 2.8733626e+2, -641854.7, -339116.16, -32593.252, 0.022464788, -0.62763023, -335646.88, -211600.34, 0.0, 9.996405, 10.000411 
2.3746887e+3, 2.973368e+2, -688608.7, -309836.3, -42139.707, 0.10290333, -0.60186344, -305204.78, -279161.3, 0.0, 9.995405, 10.0004225 
2.3746282e+3, 3.0733868e+2, -634372.6, -76342.92, -8460.581, -0.06721313, -0.520039, -76214.67, -76214.67, 0.0, 9.994655, 10.002053 
2.3745708e+3, 3.1733957e+2, -643542.75, 7658.4673, 7853.481, 0.070821546, -0.6278569, 7753.1665, 7753.1665, 0.0, 9.994221, 10.002834 
2.3857106e+3, 1.2742114e+2, -1131112.6, -1719225.0, 21627.822, 0.0688786, -0.5255162, -1130318.3, 560900.0, 0.20745824, 10.006556, 9.996812 
2.3856497e+3, 1.3741729e+2, -1052226.0, -1656787.1, 15616.424, -0.024965003, -0.5823563, -1051822.9, 541434.6, 0.14957951, 10.006079, 9.996797 
2.3855889e+3, 1.4741473e+2, -946813.7, -1493965.1, 10533.757, 0.001960996, -0.52997994, -946610.94, 548671.56, 0.090780415, 10.005509, 9.997511 
2.3855285e+3, 1.5741184e+2, -914964.44, -1453860.3, 16672.086, 0.055423707, -0.551005, -914449.1, 482861.06, 0.04313274, 10.004871, 9.997422 
2.3854683e+3, 1.6740943e+2, -833001.56, -1278024.3, 30130.787, 0.04967139, -0.55339706, -830970.8, 468361.72, 0.014443636, 10.004259, 9.998253 
2.3854077e+3, 1.7740765e+2, -833477.56, -1260077.4, 9211.05, 0.01977636, -0.5370328, -833278.8, 368069.63, 0.0027342632, 10.003672, 9.997985 
2.3853476e+3, 1.8740505e+2, -809602.7, -1178031.0, 20617.914, 0.011774996, -0.5760395, -808452.5, 294921.22, 0.00014974258, 10.003069, 9.998165 
2.3852873e+3, 1.9740239e+2, -805187.2, -1132915.0, 38589.69, 0.013470608, -0.6411509, -800704.56, 204695.53, 0.0000000017673162, 10.002458, 9.998097 
2.3852272e+3, 2.0740116e+2, -743792.8, -954867.2, 25112.91, 0.037660852, -0.59563345, -740846.06, 166566.52, 0.0, 10.001784, 9.998972 
2.3851672e+3, 2.1740082e+2, -762541.2, -936864.4, 3435.6472, 0.07007693, -0.5073144, -762473.56, 46942.844, 0.0, 10.001083, 9.998761 
2.3851067e+3, 2.2739919e+2, -739704.9, -837396.56, 7531.935, 0.04347969, -0.5377054, -739127.6, -27695.195, 0.0, 10.000405, 9.999098 
2.3850462e+3, 2.3739731e+2, -747513.7, -803379.7, 12029.791, -0.003958315, -0.61724013, -745033.4, -131582.88, 0.0, 9.999735, 9.998981 
2.3849858e+3, 2.4739659e+2, -695465.56, -653801.44, -1021.22516, 0.021962585, -0.596708, -653776.44, -138318.56, 0.0, 9.999103, 9.999639 
2.3849258e+3, 2.5739664e+2, -692182.75, -605369.5, 4633.698, 0.07380212, -0.5368592, -605122.9, -187665.17, 0.0, 9.99847, 9.999603 
2.3848647e+3, 2.6739636e+2, -653495.5, -433191.34, -1112.2594, 0.030700337, -0.55168474, -433185.75, -113726.83, 0.0, 9.997622, 10.000521 
2.3848039e+3, 2.7739617e+2, -712589.6, -443634.4, -19230.824, -0.03611119, -0.6020785, -442266.3, -220808.08, 0.0, 9.996684, 10.000228 
2.3847438e+3, 2.87396e+2, -688147.3, -363718.78, -25538.018, 0.022823738, -0.6190369, -361720.8, -238260.27, 0.0, 9.996105, 10.000383 
2.3846838e+3, 2.9739633e+2, -656244.0, -295593.38, 591.26526, 0.08455274, -0.610839, -295592.4, -270132.94, 0.0, 9.995642, 10.0004015 
2.3846228e+3, 3.073978e+2, -654523.2, -109154.46, 27729.748, -0.04387642, -0.5544988, -107748.14, -107748.14, 0.0, 9.994621, 10.001841 
2.3845644e+3, 3.173988e+2, -695273.44, 65417.26, 6831.7905, 0.061725985, -0.6417141, 65478.613, 65478.613, 0.0, 9.993512, 10.0035715 
2.3957168e+3, 1.2748124e+2, -1089283.1, -1636806.6, 6058.772, 0.043957766, -0.54507226, -1089216.1, 601415.44, 0.2019937, 10.006566, 9.997464 
2.3956558e+3, 1.3747865e+2, -1023234.06, -1595003.3, -632.44366, 0.0034173257, -0.5291373, -1023233.3, 569422.9, 0.1454775, 10.006084, 9.997219 
2.3955944e+3, 1.4747615e+2, -939952.8, -1485837.4, -12490.613, 0.01561769, -0.49137253, -939667.2, 555013.06, 0.08811005, 10.005516, 9.997572 
2.3955332e+3, 1.5747307e+2, -917715.25, -1463554.6, -7237.6763, 0.038142823, -0.5365352, -917619.3, 479090.53, 0.04170005, 10.004875, 9.997356 
2.395472e+3, 1.6747005e+2, -864704.7, -1347304.3, 8453.911, 0.025381807, -0.5684283, -864556.7, 434182.25, 0.013859187, 10.004264, 9.997775 
2.3954111e+3, 1.774675e+2, -847648.3, -1291858.4, -11362.3955, -0.0023762693, -0.58416367, -847357.8, 353405.53, 0.0025810974, 10.003676, 9.9977665 
2.3953503e+3, 1.8746565e+2, -764585.06, -1086489.9, -1387.2098, 0.013138245, -0.57755363, -764579.06, 338201.16, 0.00013311963, 10.003073, 9.998795 
2.39529e+3, 1.9746432e+2, -781790.9, -1085421.5, 14649.917, 0.044957086, -0.56934106, -781085.7, 223706.38, 0.000000000116293294, 10.002458, 9.998426 
2.3952287e+3, 2.0746234e+2, -785158.94, -1042783.7, -1069.1825, 0.035157546, -0.57295334, -785154.5, 121657.6, 0.0, 10.001788, 9.998369 
2.3951675e+3, 2.1746047e+2, -789796.8, -996011.6, -21273.564, 0.01046285, -0.58024895, -787625.06, 21206.984, 0.0, 10.00109, 9.998355 
2.395107e+3, 2.2745912e+2, -722530.9, -804213.6, -16748.938, 0.032177463, -0.5793134, -719229.94, -8384.827, 0.0, 10.000411, 9.999325 
2.3950464e+3, 2.3745829e+2, -733788.3, -777520.25, -12740.033, 0.070499524, -0.57760024, -730347.56, -117494.92, 0.0, 9.999741, 9.999159 
2.3949851e+3, 2.4745749e+2, -691660.9, -648447.6, -24995.883, 0.046358213, -0.5728929, -637014.25, -122154.23, 0.0, 9.999109, 9.999676 
2.3949231e+3, 2.57457e+2, -697452.44, -620275.8, -22170.215, -0.0030096206, -0.5713165, -614360.44, -197495.66, 0.0, 9.998482, 9.999498 
2.394862e+3, 2.6745617e+2, -689786.75, -510731.13, -38923.906, -0.0026766728, -0.60134685, -502635.7, -183763.27, 0.0, 9.997626, 9.999988 
2.3948011e+3, 2.774557e+2, -733315.56, -486426.0, -52849.84, 0.026481302, -0.6324323, -475588.53, -254711.7, 0.0, 9.996678, 9.99994 
2.3947403e+3, 2.8745684e+2, -651768.5, -288162.25, -44149.758, 0.055643037, -0.5377634, -282878.28, -160013.23, 0.0, 9.996099, 10.000907 
2.3946789e+3, 2.974585e+2, -631099.1, -246058.44, -25347.486, 0.045940697, -0.44652584, -244396.97, -219548.3, 0.0, 9.995648, 10.000741 
2.3946175e+3, 3.074553e+2, -693425.44, -189475.56, -20113.078, -0.009562784, -0.84567934, -188674.11, -188674.11, 0.0, 9.994615, 10.001296 
2.3945576e+3, 3.174599e+2, -744787.9, -33394.32, -43308.47, 0.047570575, -0.4972097, -30767.47, -30767.47, 0.0, 9.993487, 10.002909 
2.4057229e+3, 1.2754254e+2, -1057359.9, -1620725.4, 37997.914, 0.001991985, -0.5397885, -1054808.5, 635222.5, 0.19641343, 10.00679, 9.99749 
2.4056618e+3, 1.3753988e+2, -1030248.44, -1598509.5, 6627.1685, 0.039961945, -0.53010875, -1030171.1, 561885.06, 0.14122684, 10.005999, 9.997235 
2.4055998e+3, 1.4753734e+2, -940402.56, -1476931.1, -10888.167, 0.0342902, -0.5019802, -940181.7, 553898.75, 0.085305996, 10.005458, 9.997664 
2.4055377e+3, 1.5753444e+2, -897603.3, -1445318.9, -3892.9907, 0.010398424, -0.536164, -897575.6, 498532.5, 0.040185723, 10.004982, 9.997427 
2.4054761e+3, 1.675314e+2, -847195.06, -1336341.6, 33545.004, 0.0047159847, -0.57336134, -844905.3, 453232.0, 0.0132427905, 10.004378, 9.997792 
2.4054146e+3, 1.7752872e+2, -839336.2, -1287687.3, 43126.035, 0.0038303449, -0.6029271, -835225.7, 364937.34, 0.002421344, 10.003737, 9.997764 
2.4053535e+3, 1.8752699e+2, -768569.6, -1092166.0, 28103.756, 0.021262035, -0.5803137, -766147.0, 336031.97, 0.000116737436, 10.003067, 9.998755 
2.4052922e+3, 1.9752589e+2, -793937.94, -1092793.6, -122.48064, 0.04575337, -0.54337007, -793937.9, 210250.92, 0.000000000004061441, 10.002387, 9.998407 
2.4052304e+3, 2.0752381e+2, -782712.56, -1037993.44, 3311.2227, 0.033443704, -0.5607089, -782669.6, 123540.36, 0.0, 10.001796, 9.998396 
2.4051684e+3, 2.1752164e+2, -768045.44, -983229.7, 24071.467, 0.008365967, -0.5985891, -765385.6, 42846.91, 0.0, 10.001235, 9.998369 
2.4051072e+3, 2.2752036e+2, -707088.8, -795786.9, 26259.27, 0.033550892, -0.5900949, -699897.7, 10347.122, 0.0, 10.000519, 9.999329 
2.4050461e+3, 2.3751974e+2, -734953.9, -777601.1, 15210.336, 0.07866366, -0.5647221, -730084.94, -117834.76, 0.0, 9.999736, 9.999158 
2.404984e+3, 2.4751893e+2, -694846.44, -650106.56, -620.0723, 0.049089804, -0.5629192, -650097.94, -135840.05, 0.0, 9.999092, 9.999669 
2.4049214e+3, 2.5751826e+2, -698338.3, -622937.3, -1985.6643, -0.01050366, -0.57667273, -622885.06, -206620.81, 0.0, 9.99849, 9.999474 
2.4048597e+3, 2.6751733e+2, -661858.2, -503504.4, -92.78733, -0.0036069723, -0.61094195, -503504.34, -185231.47, 0.0, 9.99785, 9.9999275 
2.4047978e+3, 2.7751678e+2, -662885.5, -456220.5, 20212.242, 0.039275013, -0.6389246, -454262.28, -233984.4, 0.0, 9.997185, 9.9999 
2.4047363e+3, 2.87518e+2, -616310.5, -268919.53, 15129.564, 0.053637546, -0.5385199, -268261.84, -145996.19, 0.0, 9.99634, 10.00092 
2.4046741e+3, 2.9751962e+2, -664013.25, -259640.38, -8535.195, 0.025282662, -0.44808736, -259460.3, -235211.11, 0.0, 9.995417, 10.000758 
2.4046123e+3, 3.075165e+2, -697957.2, -189433.81, -292.52908, 0.018186796, -0.8427313, -189433.64, -189433.64, 0.0, 9.99458, 10.001309 
2.4045508e+3, 3.1752032e+2, -731822.8, -55215.156, 20758.633, 0.03346498, -0.56629914, -54578.87, -54578.87, 0.0, 9.99371, 10.0026455 
2.415729e+3, 1.2760477e+2, -1078118.5, -1674329.5, 11010.555, -0.05837304, -0.52721906, -1077915.3, 611504.6, 0.19082482, 10.006799, 9.997026 
2.4156682e+3, 1.3760112e+2, -1047694.7, -1646030.8, -13994.688, 0.08179658, -0.57120365, -1047367.5, 544088.25, 0.13691692, 10.005989, 9.996916 
2.4156055e+3, 1.4759848e+2, -930566.25, -1462188.9, -25102.139, 0.0554671, -0.5482359, -929383.56, 564097.7, 0.082435854, 10.005462, 9.997775 
2.415542e+3, 1.5759605e+2, -881082.94, -1417628.6, -20985.51, -0.027761724, -0.5468507, -880263.4, 515240.88, 0.038631897, 10.005004, 9.99761 
2.41548e+3, 1.6759348e+2, -816440.4, -1276617.8, 10132.294, -0.013230212, -0.5708254, -816217.4, 481310.75, 0.012613836, 10.004391, 9.9982 
2.4154185e+3, 1.7759117e+2, -829895.3, -1268110.5, 18007.65, 0.033997584, -0.5988202, -829156.56, 370392.4, 0.002261174, 10.003732, 9.997903 
2.4153565e+3, 1.87589e+2, -813868.94, -1186998.6, 2470.8203, 0.033847675, -0.58520436, -813852.56, 287718.06, 0.00010154104, 10.003065, 9.998108 
2.4152942e+3, 1.9758719e+2, -816314.44, -1141666.0, -23111.293, 0.017595284, -0.5590168, -814680.94, 188908.78, 0.000000000003904099, 10.002393, 9.998072 
2.4152322e+3, 2.0758554e+2, -740254.6, -952242.8, -16244.187, 0.033064026, -0.5563532, -739017.1, 166588.9, 0.0, 10.0018015, 9.998983 
2.4151702e+3, 2.1758422e+2, -741507.06, -929081.0, 2006.4858, 0.058393415, -0.5650217, -741485.6, 66133.016, 0.0, 10.001234, 9.998744 
2.4151076e+3, 2.275828e+2, -722430.75, -829728.75, -2771.3628, 0.04486789, -0.5720733, -722359.25, -12726.822, 0.0, 10.000523, 9.999096 
2.4150449e+3, 2.3758163e+2, -747301.3, -806465.2, -12425.658, 0.019688236, -0.5789037, -744797.6, -133153.94, 0.0, 9.999745, 9.998958 
2.4149826e+3, 2.4758078e+2, -698493.25, -660030.5, -23900.088, 0.03151287, -0.56648827, -648585.2, -134933.03, 0.0, 9.999098, 9.9996 
2.4149205e+3, 2.5758034e+2, -693366.75, -615311.0, -26212.71, 0.05234843, -0.55060214, -607325.25, -191668.6, 0.0, 9.998497, 9.999525 
2.4148574e+3, 2.675798e+2, -631324.9, -443270.34, -25698.643, 0.027616186, -0.5781368, -439821.72, -122161.15, 0.0, 9.997859, 10.0003395 
2.4147944e+3, 2.775795e+2, -646990.75, -428213.03, -6937.5093, -0.0051082014, -0.62089574, -427993.25, -208331.92, 0.0, 9.997201, 10.000087 
2.414732e+3, 2.8757933e+2, -653790.5, -349034.38, -21212.906, 0.012535004, -0.63357025, -347564.9, -225901.06, 0.0, 9.9963455, 10.00037 
2.4146694e+3, 2.975795e+2, -690089.8, -311865.4, -43574.477, 0.024788244, -0.6342853, -306910.2, -283246.5, 0.0, 9.995404, 10.000408 
2.414607e+3, 3.0758193e+2, -663063.7, -118168.97, -32341.004, 0.041576512, -0.4824159, -116256.16, -116256.16, 0.0, 9.994578, 10.001802 
2.414544e+3, 3.1758174e+2, -680246.2, 43550.848, -8181.4507, 0.0003014263, -0.66795677, 43643.316, 43643.316, 0.0, 9.993736, 10.003316 
2.4257356e+3, 1.2766753e+2, -1039713.56, -1658643.9, 21525.164, -0.066087626, -0.53883654, -1038965.9, 649837.9, 0.18526018, 10.007093, 9.997015 
2.4256739e+3, 1.3766383e+2, -1068986.0, -1663107.4, 30340.982, 0.080442615, -0.58303636, -1067440.6, 523399.28, 0.13260572, 10.005817, 9.9968815 
2.4256106e+3, 1.4766102e+2, -940599.5, -1471394.0, 41476.348, 0.049007453, -0.5722056, -937378.1, 555489.2, 0.079557724, 10.005396, 9.997733 
2.425547e+3, 1.5765859e+2, -844252.3, -1404050.5, 31838.625, -0.03960844, -0.5673738, -842447.3, 552443.44, 0.03707639, 10.005284, 9.997565 
2.425484e+3, 1.6765614e+2, -794945.1, -1271040.8, 24628.244, -0.015673893, -0.5713222, -793674.5, 503239.13, 0.011988553, 10.004563, 9.998154 
2.425422e+3, 1.7765401e+2, -847835.3, -1279546.4, 6887.4375, 0.045745857, -0.5769882, -847725.44, 351207.75, 0.0021054186, 10.003626, 9.997872 
2.4253593e+3, 1.8765162e+2, -818366.8, -1188904.1, 21752.104, 0.040656265, -0.5838943, -817094.25, 283862.7, 0.00008815149, 10.003039, 9.998104 
2.4252965e+3, 1.9764946e+2, -789175.1, -1128422.9, 35304.324, 0.013201318, -0.5912728, -785540.06, 217439.22, 0.0000000000084542815, 10.002583, 9.998068 
2.4252336e+3, 2.07648e+2, -725634.2, -941796.5, 21477.566, 0.030921862, -0.5703608, -723520.9, 181473.23, 0.0, 10.001892, 9.999009 
2.4251711e+3, 2.1764706e+2, -756179.8, -930462.7, 477.57468, 0.06436364, -0.54225, -756178.5, 50824.895, 0.0, 10.001115, 9.998789 
2.425108e+3, 2.2764567e+2, -720307.4, -818509.75, 1664.6014, 0.045327198, -0.5532788, -720279.2, -11262.523, 0.0, 10.000499, 9.999182 
2.4250446e+3, 2.3764436e+2, -716167.6, -784893.1, 14132.119, 0.0102614015, -0.5802591, -713375.06, -102346.305, 0.0, 9.999936, 9.999011 
2.4249817e+3, 2.4764343e+2, -691109.3, -659245.5, 10037.63, 0.031701174, -0.57601213, -656347.1, -143308.89, 0.0, 9.9991665, 9.999571 
2.4249187e+3, 2.5764295e+2, -718601.7, -625650.06, 10530.516, 0.07082947, -0.5605203, -624472.0, -209428.47, 0.0, 9.9983225, 9.999536 
2.4248552e+3, 2.676427e+2, -645460.75, -435424.63, -1193.2872, 0.035702497, -0.56551856, -435417.84, -118373.38, 0.0, 9.997704, 10.000465 
2.4247913e+3, 2.776427e+2, -649949.75, -420141.06, -5829.822, -0.017228102, -0.58718276, -419993.25, -200951.39, 0.0, 9.997143, 10.000169 
2.424728e+3, 2.87642e+2, -638353.75, -343286.28, -4398.0005, 0.004598903, -0.6531629, -343220.75, -222171.45, 0.0, 9.996463, 10.000351 
2.4246648e+3, 2.9764166e+2, -637070.75, -280729.47, 11960.78, 0.02773294, -0.70492274, -280328.47, -257274.14, 0.0, 9.99575, 10.000451 
2.424601e+3, 3.0764583e+2, -631274.5, -90396.266, 12207.083, 0.020205643, -0.39113533, -90120.91, -90120.91, 0.0, 9.994748, 10.001909 
2.4245375e+3, 3.1764472e+2, -686778.8, 55585.203, 21673.53, -0.0024068484, -0.6751425, 56217.43, 56217.43, 0.0, 9.99363, 10.003448 
2.4357429e+3, 1.2773089e+2, -1021790.9, -1624680.9, -19878.373, -0.038355492, -0.5640821, -1021136.2, 667045.7, 0.17969097, 10.007062, 9.997312 
2.4356791e+3, 1.3772778e+2, -1049463.6, -1635446.1, -2471.0437, 0.040348716, -0.5771463, -1049453.3, 540757.8, 0.12831026, 10.005869, 9.997046 
2.4356155e+3, 1.4772473e+2, -945881.25, -1496099.9, 37814.496, 0.018531622, -0.5838298, -943294.56, 548946.25, 0.076704465, 10.005434, 9.997538 
2.435552e+3, 1.5772192e+2, -862181.2, -1442826.9, 19817.688, -0.029859005, -0.59572566, -861505.56, 532763.0, 0.035543453, 10.005271, 9.997308 
2.4354887e+3, 1.677194e+2, -825829.25, -1335540.5, -10286.748, -0.0061308253, -0.572344, -825621.75, 470672.06, 0.011377623, 10.004556, 9.997715 
2.4354255e+3, 1.7771724e+2, -857609.75, -1304196.4, -22101.527, 0.039712563, -0.53920585, -856518.6, 341796.56, 0.0019570931, 10.003639, 9.9977 
2.4353623e+3, 1.8771483e+2, -778914.75, -1110153.1, 6316.1743, 0.042045724, -0.5774029, -778794.3, 321543.53, 0.00007680817, 10.003048, 9.998643 
2.4352989e+3, 1.9771262e+2, -772208.75, -1092878.8, 15795.078, 0.029106567, -0.6394227, -771432.6, 230925.7, 0.00000000002968512, 10.002577, 9.998318 
2.4352354e+3, 2.0771109e+2, -761432.5, -1017017.75, -7424.597, 0.026015388, -0.601208, -761217.0, 143157.89, 0.0, 10.001891, 9.998495 
2.4351716e+3, 2.177101e+2, -774463.9, -970908.0, -25362.344, 0.02725052, -0.53000534, -771242.2, 35144.883, 0.0, 10.001121, 9.998511 
2.4351081e+3, 2.277089e+2, -692872.9, -763813.6, -18131.38, 0.03613207, -0.53369313, -688507.4, 19890.559, 0.0, 10.0005045, 9.9995575 
2.4350446e+3, 2.377079e+2, -696329.44, -745332.8, -9600.503, 0.04772121, -0.56792545, -694515.7, -84109.73, 0.0, 9.999938, 9.999284 
2.4349807e+3, 2.4770679e+2, -690875.56, -660607.8, -22984.25, 0.04787651, -0.591571, -648222.44, -135805.56, 0.0, 9.999169, 9.999562 
2.4349165e+3, 2.57706e+2, -721732.2, -634748.9, -19066.252, 0.04061067, -0.6072802, -630753.2, -216327.67, 0.0, 9.998328, 9.999473 
2.4348526e+3, 2.6770598e+2, -658573.1, -464375.2, -23361.31, 0.0200026, -0.57364875, -461604.44, -145179.02, 0.0, 9.997706, 10.000268 
2.4347883e+3, 2.777064e+2, -651277.7, -424774.13, -30594.701, 0.006429232, -0.53352267, -420714.34, -202294.13, 0.0, 9.997146, 10.000138 
2.4347246e+3, 2.8770614e+2, -599748.44, -266389.44, -32002.967, 0.032638874, -0.5875505, -263344.9, -142923.02, 0.0, 9.996471, 10.000877 
2.4346603e+3, 2.9770622e+2, -602753.8, -215275.33, -17320.5, 0.029146956, -0.65052146, -214502.64, -192082.31, 0.0, 9.99577, 10.000894 
2.434595e+3, 3.0770752e+2, -654575.94, -139705.7, -35395.754, -0.054715104, -0.6239323, -137283.75, -137283.75, 0.0, 9.994748, 10.001573 
2.434531e+3, 3.1770918e+2, -743932.7, -57807.848, 21903.256, -0.0016155108, -0.5792114, -57109.34, -57109.34, 0.0, 9.993604, 10.002683 
2.44575e+3, 1.2779526e+2, -1064290.9, -1662077.6, 15615.508, 0.00478876, -0.583209, -1063883.3, 623666.25, 0.17406471, 10.006751, 9.997145 
2.4456848e+3, 1.3779202e+2, -954186.1, -1601435.6, 12992.989, -0.008147879, -0.595365, -953925.4, 635655.06, 0.12401317, 10.006671, 9.996892 
2.4456206e+3, 1.4778893e+2, -892797.9, -1489645.5, 47816.773, -0.008376851, -0.5885205, -888991.25, 602619.9, 0.07387744, 10.005911, 9.997349 
2.4455574e+3, 1.5778615e+2, -915915.06, -1485961.5, 29439.48, 0.004950085, -0.57708484, -914398.7, 479240.16, 0.03403854, 10.004957, 9.997161 
2.4454932e+3, 1.6778335e+2, -850332.6, -1352048.6, 15706.666, 0.015312483, -0.57089776, -849841.44, 445825.34, 0.010784509, 10.004406, 9.997671 
2.445429e+3, 1.7778087e+2, -807812.3, -1280445.4, 26467.867, 0.022154327, -0.5670775, -806334.7, 391356.94, 0.0018171171, 10.003986, 9.997694 
2.445365e+3, 1.8777873e+2, -747148.06, -1081082.1, 39029.504, 0.02971826, -0.5830726, -742647.06, 357064.5, 0.00006739381, 10.003211, 9.998761 
2.4453013e+3, 1.97777e+2, -803448.6, -1098099.4, 22073.248, 0.03785088, -0.60757554, -801804.25, 199923.02, 0.00000000008671795, 10.002327, 9.998399 
2.445237e+3, 2.077753e+2, -782232.6, -1031606.06, 18200.67, 0.029337622, -0.58645654, -780911.25, 122834.336, 0.0, 10.001774, 9.998449 
2.4451727e+3, 2.1777393e+2, -745464.4, -956935.3, 29409.193, 0.01666943, -0.5496789, -741450.6, 64311.074, 0.0, 10.001326, 9.998506 
2.4451084e+3, 2.2777282e+2, -684037.6, -746444.7, 26464.746, 0.033938807, -0.5505307, -674326.06, 33445.617, 0.0, 10.000514, 9.999669 
2.4450444e+3, 2.3777206e+2, -742004.75, -756899.4, 17951.92, 0.06270783, -0.56832737, -730016.7, -120239.63, 0.0, 9.999585, 9.999372 
2.4449797e+3, 2.4777107e+2, -699311.8, -662077.56, 5324.3906, 0.054622486, -0.58285314, -661331.2, -149544.08, 0.0, 9.999105, 9.999581 
2.4449147e+3, 2.5777033e+2, -658663.3, -600001.6, 9289.1, 0.030748628, -0.5947984, -598565.9, -184770.1, 0.0, 9.998746, 9.999508 
2.44485e+3, 2.6777026e+2, -630912.1, -443457.16, 14271.337, 0.016363632, -0.56913733, -442376.88, -126580.81, 0.0, 9.997868, 10.000332 
2.4447854e+3, 2.777707e+2, -692277.5, -434682.78, 26689.727, 0.019927513, -0.53857136, -431946.5, -214155.23, 0.0, 9.996828, 10.000219 
2.444721e+3, 2.877707e+2, -626961.56, -264139.94, 15014.116, 0.04472104, -0.57355386, -263519.7, -143729.66, 0.0, 9.996223, 10.00101 
2.4446557e+3, 2.977711e+2, -607106.6, -211445.16, -5944.658, 0.02489758, -0.61343205, -211355.86, -189570.86, 0.0, 9.995717, 10.000944 
2.4445893e+3, 3.0777162e+2, -636442.4, -143374.92, -42283.977, -0.07823343, -0.6569138, -139775.05, -139775.05, 0.0, 9.994929, 10.001459 
2.4445245e+3, 3.1777412e+2, -650795.5, -15725.595, 81528.28, -0.025517687, -0.5171847, -5426.2793, -5426.2793, 0.0, 9.994259, 10.002654 
2.4557571e+3, 1.2786049e+2, -1087199.1, -1725940.5, 12318.893, 0.055468664, -0.60305685, -1086961.6, 599946.8, 0.16834167, 10.006753, 9.996671 
2.4556907e+3, 1.3785666e+2, -973694.9, -1658714.5, 2261.663, -0.06661523, -0.6276648, -973687.4, 615259.2, 0.11968678, 10.006683, 9.996494 
2.4556263e+3, 1.4785366e+2, -902492.5, -1520467.1, 14044.892, -0.03411661, -0.5828591, -902173.44, 588803.56, 0.071060285, 10.005927, 9.997131 
2.4555625e+3, 1.5785119e+2, -918913.6, -1496432.3, 489.56833, 0.058216125, -0.5211268, -918913.25, 474088.94, 0.03255417, 10.004962, 9.997088 
2.4554975e+3, 1.6784799e+2, -831932.8, -1314955.0, 1451.4637, 0.044604786, -0.5704232, -831928.44, 463104.75, 0.010206996, 10.004405, 9.99793 
2.4554324e+3, 1.7784488e+2, -801064.4, -1266277.0, 6404.907, -0.0065095834, -0.6520053, -800976.25, 396086.6, 0.0016847731, 10.00398, 9.997796 
2.4553677e+3, 1.8784332e+2, -765751.25, -1120535.1, 5425.002, 0.0052961996, -0.59734166, -765668.4, 333410.06, 0.00005957078, 10.00321, 9.998494 
2.4553035e+3, 1.9784252e+2, -808223.2, -1109981.6, -6089.4756, 0.039004583, -0.5032663, -808100.4, 192986.52, 0.00000000016280782, 10.00233, 9.998319 
2.4552387e+3, 2.0784055e+2, -755624.0, -977897.9, 3002.303, 0.04004205, -0.53120416, -755583.44, 147523.4, 0.0, 10.001776, 9.998819 
2.4551739e+3, 2.1783845e+2, -730310.6, -925576.75, 9024.15, 0.029373541, -0.5999031, -729894.5, 75233.4, 0.0, 10.001321, 9.998726 
2.4551089e+3, 2.2783732e+2, -695137.94, -771268.8, -8411.723, 0.037380315, -0.6017789, -694219.6, 12918.833, 0.0, 10.000517, 9.999499 
2.4550436e+3, 2.378368e+2, -748494.94, -774121.6, -11142.087, 0.053113062, -0.58055586, -744328.06, -135185.31, 0.0, 9.999597, 9.99925 
2.4549785e+3, 2.4783625e+2, -695950.56, -658046.94, -7826.4946, 0.05209023, -0.5492483, -656494.44, -145344.86, 0.0, 9.999113, 9.999607 
2.4549133e+3, 2.5783592e+2, -648304.94, -581814.6, -12184.24, 0.040876683, -0.5188725, -579652.2, -166497.61, 0.0, 9.998755, 9.999631 
2.4548477e+3, 2.6783553e+2, -607873.0, -397294.9, -27419.904, 0.024337577, -0.5533338, -393783.06, -78626.05, 0.0, 9.99787, 10.00065 
2.454782e+3, 2.7783537e+2, -680985.9, -410976.0, -6868.111, 0.018897299, -0.6117845, -410801.4, -193645.27, 0.0, 9.996822, 10.000388 
2.4547169e+3, 2.8783557e+2, -649003.6, -310548.5, -4009.6003, 0.038903628, -0.61444414, -310501.0, -191346.34, 0.0, 9.99622, 10.000696 
2.4546513e+3, 2.9783642e+2, -632208.4, -266387.44, -31365.111, 0.019108687, -0.5781076, -263717.7, -242569.64, 0.0, 9.995724, 10.000567 
2.4545842e+3, 3.0783832e+2, -624326.25, -121143.85, -74706.11, -0.04692845, -0.4713307, -110286.7, -110286.7, 0.0, 9.994937, 10.00161 
2.4545185e+3, 3.178379e+2, -643860.25, -7295.111, 57201.0, -0.02674831, -0.6593984, -2195.9421, -2195.9421, 0.0, 9.99428, 10.002704 
2.4657634e+3, 1.279261e+2, -1089621.0, -1743848.9, 28494.648, 0.055682443, -0.5922193, -1088382.3, 597882.94, 0.16249683, 10.006757, 9.996547 
2.4656972e+3, 1.3792211e+2, -945863.1, -1657230.3, 24028.445, -0.05757159, -0.62073386, -945052.4, 643252.8, 0.11530023, 10.006929, 9.996385 
2.4656321e+3, 1.4791887e+2, -881381.94, -1520502.5, 17552.113, -0.029380599, -0.5900043, -880900.25, 609437.6, 0.06822581, 10.006117, 9.997037 
2.4655674e+3, 1.5791614e+2, -915144.25, -1497732.0, 16293.56, 0.05700651, -0.5450369, -914688.9, 477676.47, 0.031073112, 10.005, 9.99706 
2.4655017e+3, 1.6791318e+2, -834906.2, -1301201.6, 29087.422, 0.045182902, -0.57692385, -833098.7, 461295.3, 0.009637537, 10.004322, 9.998062 
2.465436e+3, 1.7791045e+2, -822636.44, -1267337.1, 22981.658, -0.0028847456, -0.63263506, -821451.94, 374968.2, 0.0015576831, 10.003798, 9.997874 
2.4653709e+3, 1.8790871e+2, -782686.94, -1139572.1, 19743.385, 0.0071754367, -0.5923814, -781598.0, 316839.72, 0.00005281826, 10.003145, 9.998392 
2.4653056e+3, 1.9790758e+2, -790834.1, -1100949.5, 19987.098, 0.038739875, -0.5218094, -789551.25, 210898.5, 0.00000000021615258, 10.002449, 9.998322 
2.4652402e+3, 2.0790587e+2, -745942.06, -941625.06, 31027.785, 0.047048707, -0.5393331, -741140.06, 161326.75, 0.0, 10.001711, 9.999098 
2.4651751e+3, 2.1790424e+2, -767184.0, -920457.25, 28812.785, 0.04652727, -0.5896511, -761946.6, 42536.406, 0.0, 10.000975, 9.998925 
2.4651091e+3, 2.279031e+2, -698423.7, -775980.6, 16004.885, 0.041863102, -0.5960689, -695250.7, 11243.08, 0.0, 10.000512, 9.999467 
2.4650432e+3, 2.379024e+2, -674159.44, -737676.4, 22893.4, 0.039073303, -0.5854894, -666768.06, -58268.24, 0.0, 10.00011, 9.999251 
2.4649775e+3, 2.4790199e+2, -681971.56, -641861.4, 30242.393, 0.0453382, -0.5457827, -625628.6, -115122.664, 0.0, 9.999173, 9.999687 
2.464912e+3, 2.579019e+2, -738007.3, -611178.94, 28838.18, 0.050705705, -0.5018619, -604929.6, -192420.3, 0.0, 9.998086, 9.999749 
2.4648452e+3, 2.679016e+2, -636990.94, -389758.1, 6581.865, 0.031229666, -0.5413201, -389583.0, -75072.484, 0.0, 9.9975815, 10.000839 
2.4647789e+3, 2.779015e+2, -611616.25, -363138.28, 18302.51, 0.014866151, -0.61065894, -361797.38, -145288.69, 0.0, 9.997238, 10.000515 
2.4647129e+3, 2.8790182e+2, -610588.0, -294385.38, 32841.773, 0.024189163, -0.6034531, -291010.38, -172503.88, 0.0, 9.996497, 10.000671 
2.4646465e+3, 2.9790273e+2, -652292.3, -282973.8, 26212.46, 0.005514946, -0.554497, -281122.66, -260622.83, 0.0, 9.995621, 10.0005 
2.4645796e+3, 3.0790463e+2, -590665.5, -113162.93, -7860.8975, -0.0073607536, -0.44085512, -113033.555, -113033.555, 0.0, 9.99521, 10.00153 
2.4645127e+3, 3.179042e+2, -610549.8, -27738.27, 49015.867, -0.03964558, -0.6244819, -23644.668, -23644.668, 0.0, 9.994672, 10.002372 
2.4757698e+3, 1.279922e+2, -1071133.8, -1723022.3, 35430.965, 0.017289763, -0.5560381, -1069213.6, 616405.06, 0.15649736, 10.006817, 9.996662 
2.4757046e+3, 1.3798831e+2, -943240.4, -1648881.6, 17377.914, 0.0006774044, -0.58450115, -942812.7, 644844.1, 0.11080889, 10.006885, 9.996465 
2.4756382e+3, 1.4798453e+2, -883556.75, -1525435.3, -22649.092, -0.004315393, -0.6094032, -882758.56, 606935.44, 0.06533416, 10.006092, 9.997019 
2.4755715e+3, 1.5798111e+2, -912066.6, -1498322.6, -17649.63, 0.010301526, -0.63200366, -911535.8, 480191.75, 0.029569868, 10.005018, 9.997049 
2.4755056e+3, 1.6797894e+2, -831242.0, -1298377.4, 10821.443, 0.022463642, -0.5852623, -830991.5, 462757.72, 0.009064349, 10.004335, 9.998077 
2.4754399e+3, 1.779774e+2, -820295.1, -1262354.1, 1914.9469, 0.02752058, -0.5238565, -820286.8, 375478.0, 0.0014322685, 10.003792, 9.997913 
2.4753737e+3, 1.8797481e+2, -781282.8, -1136480.4, -5325.4805, 0.030536896, -0.5737012, -781203.0, 316587.2, 0.000046539175, 10.003139, 9.99842 
2.4753079e+3, 1.9797221e+2, -786734.1, -1093045.6, -4957.2666, 0.03549498, -0.6519538, -786653.94, 213161.38, 0.00000000023303823, 10.002447, 9.99838 
2.4752417e+3, 2.079713e+2, -733948.0, -918245.06, 3754.3232, 0.050471663, -0.60313386, -733871.56, 167953.64, 0.0, 10.001713, 9.999259 
2.4751757e+3, 2.1797115e+2, -756274.06, -899387.8, 5378.487, 0.06596745, -0.52069587, -756072.25, 47755.777, 0.0, 10.000977, 9.999071 
2.4751094e+3, 2.2797002e+2, -691124.6, -762557.44, 2569.1062, 0.046852093, -0.53646857, -691032.4, 14806.163, 0.0, 10.000515, 9.99956 
2.475043e+3, 2.3796886e+2, -666354.5, -723150.1, 499.403, 0.019502362, -0.5831707, -666350.1, -58501.152, 0.0, 10.000112, 9.999352 
2.4749763e+3, 2.4796824e+2, -673242.6, -625413.7, -12919.281, 0.03407677, -0.5737615, -622147.1, -112290.266, 0.0, 9.999176, 9.999801 
2.4749097e+3, 2.579681e+2, -731579.7, -599177.06, -5156.384, 0.05794897, -0.5465446, -598976.56, -187115.78, 0.0, 9.998087, 9.999833 
2.4748428e+3, 2.6796842e+2, -634435.0, -386078.53, -5964.6665, 0.036553137, -0.5309551, -385935.38, -72078.3, 0.0, 9.997583, 10.000866 
2.4747756e+3, 2.7796912e+2, -603877.25, -351729.1, -387.6966, 0.007249374, -0.5219163, -351728.5, -135880.05, 0.0, 9.997253, 10.000589 
2.4747087e+3, 2.8796938e+2, -590411.4, -255284.66, -3117.6882, -0.0014395094, -0.5385158, -255255.66, -137409.8, 0.0, 9.996504, 10.000939 
2.4746417e+3, 2.9796982e+2, -636101.44, -247770.02, -2930.3113, -0.020471668, -0.56402344, -247747.9, -227905.44, 0.0, 9.995609, 10.00075 
2.4745749e+3, 3.0797052e+2, -613802.56, -163847.25, -13499.712, 0.044498727, -0.56525207, -163442.6, -163442.6, 0.0, 9.995216, 10.001182 
2.4745066e+3, 3.1797236e+2, -577219.3, 32145.256, -43351.363, -0.09210274, -0.47618905, 35213.902, 35213.902, 0.0, 9.9947, 10.002776 
2.4857764e+3, 1.2805837e+2, -979176.94, -1663569.9, 45046.36, 0.0022548577, -0.552361, -976224.75, 708746.5, 0.15028252, 10.007465, 9.996781 
2.4857111e+3, 1.380547e+2, -990260.1, -1657884.3, 25695.736, 0.022402564, -0.57233083, -989272.6, 597734.25, 0.10614926, 10.00642, 9.996625 
2.485644e+3, 1.4805105e+2, -912822.56, -1514804.5, -8610.663, 0.014231892, -0.602495, -912699.4, 576342.6, 0.06233557, 10.005754, 9.9972515 
2.4855767e+3, 1.5804777e+2, -873630.1, -1465501.9, 11084.092, 0.012140718, -0.6343806, -873422.6, 517651.3, 0.028015468, 10.005228, 9.997171 
2.4855098e+3, 1.680455e+2, -824791.2, -1311581.3, 37605.566, 0.021739515, -0.59048545, -821903.25, 471193.72, 0.008475237, 10.004452, 9.997929 
2.4854437e+3, 1.7804384e+2, -847617.25, -1275774.9, 19010.35, 0.0302921, -0.5269884, -846774.8, 348339.6, 0.0013051924, 10.003607, 9.99791 
2.4853767e+3, 1.880415e+2, -790097.3, -1104671.0, 24276.207, 0.035081834, -0.5722214, -788234.9, 308902.13, 0.000040263076, 10.002928, 9.998737 
2.48531e+3, 1.980392e+2, -794834.25, -1076455.1, 41354.92, 0.04049771, -0.6490608, -788887.06, 210271.45, 0.00000000017417703, 10.00231, 9.998556 
2.4852432e+3, 2.0803823e+2, -750161.94, -943978.56, 37128.09, 0.049384415, -0.6012802, -743293.0, 157876.45, 0.0, 10.001683, 9.999094 
2.4851765e+3, 2.1803792e+2, -749548.56, -899108.4, 17519.004, 0.058629163, -0.5171693, -747523.9, 55650.438, 0.0, 10.00104, 9.999041 
2.4851096e+3, 2.2803701e+2, -718395.75, -746046.0, 18781.672, 0.04838918, -0.5270973, -708899.5, -3716.684, 0.0, 10.000205, 9.99982 
2.4850425e+3, 2.3803614e+2, -765781.44, -747149.8, 26278.447, 0.033723526, -0.5683572, -728584.75, -121394.51, 0.0, 9.999331, 9.999561 
2.4849752e+3, 2.480356e+2, -714872.4, -634826.06, 11601.01, 0.038212426, -0.56455433, -633178.6, -123981.336, 0.0, 9.998849, 9.999891 
2.4849077e+3, 2.5803545e+2, -672489.3, -562468.3, 19464.344, 0.047422, -0.546784, -559126.3, -147925.03, 0.0, 9.998462, 9.999903 
2.4848402e+3, 2.6803586e+2, -610096.56, -373492.06, 21796.195, 0.030156754, -0.5231541, -371500.94, -58303.883, 0.0, 9.997751, 10.000869 
2.4847725e+3, 2.780367e+2, -646427.9, -366434.06, 23121.41, 0.009847378, -0.4987191, -364537.56, -149349.97, 0.0, 9.996942, 10.000635 
2.4847052e+3, 2.8803712e+2, -600774.3, -242410.6, 10436.152, -0.003284558, -0.5146218, -242106.94, -124923.27, 0.0, 9.996361, 10.001094 
2.4846372e+3, 2.9803753e+2, -584547.1, -202397.0, 5943.63, -0.025792213, -0.55354196, -202304.58, -183125.0, 0.0, 9.995878, 10.00093 
2.4845703e+3, 3.0803815e+2, -589080.1, -147483.16, 16025.597, 0.06423954, -0.57334197, -146902.34, -146902.34, 0.0, 9.995373, 10.001216 
2.4845015e+3, 3.1803933e+2, -539666.3, 71403.23, -5643.0645, -0.047484368, -0.54174966, 71455.336, 71455.336, 0.0, 9.994873, 10.002958 
2.4957837e+3, 1.2812474e+2, -962609.5, -1644486.0, 13717.835, 0.0020733096, -0.5711159, -962333.7, 721988.06, 0.14377521, 10.007486, 9.996922 
2.4957173e+3, 1.3812138e+2, -973423.25, -1625804.9, -3669.9075, 0.013151553, -0.57542324, -973402.6, 612951.6, 0.101258084, 10.006414, 9.996849 
2.4956496e+3, 1.4811842e+2, -884216.4, -1458742.8, -25574.31, 0.02640301, -0.57209, -883080.25, 605302.1, 0.05918796, 10.005752, 9.997653 
2.4955821e+3, 1.5811583e+2, -859779.7, -1437532.5, -11147.807, 0.052199855, -0.5697145, -859564.6, 530842.25, 0.026389392, 10.005222, 9.997369 
2.4955142e+3, 1.6811274e+2, -845045.8, -1355600.0, 6800.7813, 0.037661094, -0.5959837, -844955.25, 447482.84, 0.007863835, 10.004451, 9.997629 
2.4954468e+3, 1.781099e+2, -849273.0, -1282219.4, -8225.764, 0.0081280405, -0.625069, -849116.8, 345350.72, 0.0011752091, 10.003614, 9.997864 
2.4953794e+3, 1.8810877e+2, -750445.7, -1025298.4, 2003.8281, 0.02319143, -0.58218557, -750431.1, 346046.94, 0.00003377425, 10.002935, 9.999281 
2.4953122e+3, 1.981083e+2, -776930.06, -1040934.6, 17479.281, 0.05203684, -0.5254343, -775777.8, 222703.56, 0.00000000005180779, 10.002312, 9.998802 
2.4952446e+3, 2.0810647e+2, -782670.06, -1012592.3, 13705.081, 0.043540694, -0.54189426, -781856.0, 118644.984, 0.0, 10.001683, 9.998626 
2.495177e+3, 2.1810456e+2, -763565.3, -928914.3, -7698.314, 0.024830934, -0.57771474, -763207.6, 39314.477, 0.0, 10.001039, 9.998839 
2.4951096e+3, 2.2810405e+2, -690485.44, -689836.75, -13979.668, 0.04688569, -0.5654288, -676177.7, 28349.152, 0.0, 10.000208, 10.000207 
2.495042e+3, 2.3810424e+2, -744963.6, -706636.44, -1465.088, 0.07922161, -0.5398196, -706580.56, -100056.36, 0.0, 9.999338, 9.999839 
2.4949738e+3, 2.48104e+2, -709960.9, -627034.8, -2798.2131, 0.05666796, -0.51720434, -626940.5, -118412.56, 0.0, 9.998855, 9.999945 
2.4949056e+3, 2.581039e+2, -668126.6, -557017.9, -312.4877, 0.01666568, -0.49909076, -557017.0, -146485.94, 0.0, 9.998472, 9.999937 
2.4948373e+3, 2.6810384e+2, -611705.2, -379377.8, -10868.252, 0.011372578, -0.5200338, -378870.5, -66339.25, 0.0, 9.997757, 10.000828 
2.4947695e+3, 2.7810413e+2, -646593.94, -367128.16, -6106.207, 0.023705125, -0.5504358, -366994.8, -152467.2, 0.0, 9.996938, 10.000634 
2.4947014e+3, 2.8810486e+2, -600440.6, -242039.05, -9009.36, 0.021064255, -0.5340726, -241812.7, -125291.86, 0.0, 9.996357, 10.001101 
2.494633e+3, 2.9810598e+2, -576987.8, -189133.33, -11635.02, -0.011734378, -0.5076661, -188784.61, -170273.84, 0.0, 9.995884, 10.00102 
2.4945652e+3, 3.0810755e+2, -558729.0, -87213.805, -10236.31, 0.04921784, -0.46027115, -86991.68, -86991.68, 0.0, 9.9953785, 10.001629 
2.4944966e+3, 3.1810814e+2, -610311.5, -84203.734, 29984.975, -0.012368156, -0.5103017, -82500.28, -82500.28, 0.0, 9.994906, 10.001876 
2.5057912e+3, 1.281926e+2, -907710.7, -1631403.9, 42500.797, 0.0054274984, -0.5706533, -905223.25, 778433.6, 0.13692084, 10.007931, 9.996808 
2.5057235e+3, 1.381891e+2, -983630.94, -1633661.5, 21385.84, 0.031233395, -0.5768715, -982928.06, 602763.2, 0.09610452, 10.006313, 9.996843 
2.5056553e+3, 1.4818634e+2, -898440.6, -1445423.9, 10336.597, 0.040357668, -0.5665402, -898245.3, 589472.3, 0.05587756, 10.005542, 9.997847 
2.505587e+3, 1.5818402e+2, -872120.25, -1423636.3, 11521.603, 0.058012456, -0.55559343, -871879.6, 517859.72, 0.024688903, 10.005045, 9.997546 
2.5055185e+3, 1.6818102e+2, -843845.9, -1339992.1, 40519.617, 0.040965296, -0.5881334, -840558.5, 451211.03, 0.007232183, 10.004397, 9.997759 
2.5054502e+3, 1.7817815e+2, -833207.4, -1269769.4, 50647.977, 0.009689802, -0.6289297, -827408.44, 366390.3, 0.0010434855, 10.00371, 9.9979 
2.505382e+3, 1.88177e+2, -750774.06, -1044947.25, 33271.137, 0.018958881, -0.5744317, -747058.0, 348752.03, 0.000027156255, 10.003022, 9.999102 
2.5053144e+3, 1.9817661e+2, -776155.0, -1042633.94, 2984.4478, 0.042537667, -0.49760562, -776121.56, 221692.3, 0.0000000000010010511, 10.00233, 9.998779 
2.505246e+3, 2.081748e+2, -782445.44, -979453.7, 25148.502, 0.041021425, -0.52947456, -779285.8, 120546.555, 0.0, 10.001548, 9.998916 
2.505178e+3, 2.1817285e+2, -793680.3, -923670.7, 51307.305, 0.032011937, -0.59206676, -775869.6, 25982.79, 0.0, 10.000752, 9.99901 
2.5051096e+3, 2.2817242e+2, -707696.3, -708567.7, 30716.775, 0.04668473, -0.5704621, -677412.1, 26444.713, 0.0, 10.00014, 10.000109 
2.5050414e+3, 2.3817271e+2, -711949.44, -690391.44, 12798.09, 0.069239065, -0.52478296, -684437.9, -78583.836, 0.0, 9.999569, 9.999836 
2.5049725e+3, 2.4817257e+2, -693705.5, -597818.2, 15567.779, 0.05252955, -0.50702864, -595354.0, -87497.28, 0.0, 9.998879, 10.000131 
2.5049037e+3, 2.581725e+2, -705650.7, -560422.2, 25157.252, 0.02198731, -0.5006704, -556187.75, -146329.14, 0.0, 9.998157, 10.000063 
2.5048348e+3, 2.6817244e+2, -635368.75, -392814.4, 14234.426, 0.01579977, -0.524057, -391981.9, -80122.83, 0.0, 9.997609, 10.000805 
2.5047663e+3, 2.7817267e+2, -623500.4, -356986.97, 19789.281, 0.027003432, -0.5560145, -355525.6, -141669.08, 0.0, 9.997106, 10.000621 
2.5046977e+3, 2.8817356e+2, -590324.3, -239674.53, 15566.885, 0.028167706, -0.52416, -238984.81, -123136.01, 0.0, 9.996443, 10.001073 
2.5046286e+3, 2.981749e+2, -602212.06, -207399.19, 12822.125, -0.005632648, -0.47171637, -206983.2, -189146.4, 0.0, 9.995742, 10.00096 
2.5045606e+3, 3.0817607e+2, -535600.94, -73940.414, -6948.151, 0.04473358, -0.4599111, -73835.87, -73835.87, 0.0, 9.995534, 10.001642 
2.5044912e+3, 3.181764e+2, -555782.9, -96286.266, 42469.184, -0.044736862, -0.542602, -92394.0, -92394.0, 0.0, 9.995455, 10.001524 
2.515799e+3, 1.2826169e+2, -931349.8, -1675519.1, -12238.402, 0.0068812654, -0.55646825, -931148.6, 751830.8, 0.12972277, 10.007843, 9.996497 
2.51573e+3, 1.3825776e+2, -992998.5, -1662984.6, -20698.215, 0.07078649, -0.5776124, -992359.7, 592659.7, 0.09071122, 10.0063095, 9.996645 
2.5156605e+3, 1.4825481e+2, -891637.94, -1441681.4, -4678.5083, 0.05553674, -0.58064765, -891598.2, 595449.6, 0.052428506, 10.005564, 9.997866 
2.5155917e+3, 1.5825242e+2, -857933.75, -1399744.4, -6971.869, 0.034561746, -0.5806183, -857844.0, 531226.2, 0.022930823, 10.005058, 9.997706 
2.5155228e+3, 1.6825023e+2, -811173.1, -1273600.1, 15243.604, 0.03336062, -0.56732494, -810671.2, 480420.5, 0.0065891803, 10.004398, 9.998218 
2.515454e+3, 1.782483e+2, -829779.0, -1261515.6, 23910.035, 0.031016313, -0.5529531, -828458.9, 364652.03, 0.00091269927, 10.0037, 9.997964 
2.515385e+3, 1.8824612e+2, -808586.56, -1164527.3, 8267.85, 0.020443942, -0.55376893, -808394.6, 286739.38, 0.000020743495, 10.003015, 9.998287 
2.515316e+3, 1.9824417e+2, -793943.0, -1079805.0, -21562.326, 0.012719742, -0.55710024, -792325.75, 204828.92, 0.0, 10.002326, 9.998528 
2.5152472e+3, 2.082432e+2, -715520.6, -841789.75, -3729.0784, 0.041797366, -0.5581079, -715410.56, 183752.48, 0.0, 10.001549, 9.999863 
2.5151786e+3, 2.1824275e+2, -760782.4, -856379.0, 24178.855, 0.076119326, -0.5604281, -755014.9, 46151.113, 0.0, 10.0007515, 9.999475 
2.5151095e+3, 2.2824205e+2, -746800.6, -791753.7, 9978.374, 0.04616128, -0.5436868, -744685.25, -41511.465, 0.0, 10.000144, 9.999538 
2.5150397e+3, 2.3824157e+2, -730247.5, -731614.7, -10321.127, 0.0026500092, -0.52400565, -720587.3, -115406.91, 0.0, 9.999578, 9.999551 
2.514971e+3, 2.482412e+2, -671938.6, -555044.44, -12734.089, 0.026510673, -0.5355765, -553673.3, -46488.934, 0.0, 9.998885, 10.000424 
2.514902e+3, 2.5824118e+2, -691465.0, -532525.1, -733.9897, 0.064013526, -0.55362403, -532521.75, -123337.055, 0.0, 9.998158, 10.000257 
2.5148326e+3, 2.682416e+2, -636848.06, -396806.2, -5404.2285, 0.043835234, -0.5345168, -396684.6, -85503.516, 0.0, 9.997608, 10.00078 
2.514763e+3, 2.7824238e+2, -626072.5, -363972.13, -2060.3376, 0.016439524, -0.5089957, -363955.94, -150781.7, 0.0, 9.997108, 10.000574 
2.5146937e+3, 2.8824314e+2, -595764.0, -252503.16, -13450.327, 0.015725248, -0.4816892, -251976.92, -136809.1, 0.0, 9.996443, 10.000987 
2.514624e+3, 2.9824418e+2, -619123.06, -243979.66, -7806.423, -0.0058266944, -0.4492071, -243817.28, -226658.64, 0.0, 9.995743, 10.000712 
2.5145558e+3, 3.082433e+2, -568862.06, -146417.0, -10959.107, 0.046645124, -0.59612024, -146132.89, -146132.89, 0.0, 9.995544, 10.001142 
2.5144866e+3, 3.1824425e+2, -489373.9, 37431.84, 12908.236, -0.034428686, -0.5924181, 37747.94, 37747.94, 0.0, 9.995467, 10.0024395 
2.5258067e+3, 1.2833145e+2, -1006900.56, -1701043.9, -3597.049, 0.047248133, -0.5493337, -1006881.94, 675414.94, 0.12223538, 10.007118, 9.996665 
2.525736e+3, 1.3832767e+2, -985837.56, -1650346.8, 21335.094, 0.069131956, -0.56920516, -985153.3, 599181.6, 0.08513606, 10.006292, 9.996738 
2.525666e+3, 1.4832467e+2, -875926.1, -1442362.4, 56555.766, 0.050207943, -0.5752817, -870334.5, 616029.44, 0.04888567, 10.005702, 9.997787 
2.5255963e+3, 1.5832214e+2, -844681.5, -1399584.1, 43355.11, 0.035794985, -0.57890105, -841314.56, 547073.06, 0.021140942, 10.005176, 9.997648 
2.525527e+3, 1.6832003e+2, -821720.2, -1280490.8, 33000.414, 0.036811918, -0.5548484, -819358.56, 471050.1, 0.0059458017, 10.004335, 9.998197 
2.525457e+3, 1.7831822e+2, -867882.75, -1276377.6, 16840.44, 0.036837593, -0.526132, -867189.6, 325237.13, 0.0007858948, 10.0034275, 9.99799 
2.5253874e+3, 1.8831594e+2, -841259.06, -1171171.0, 44124.76, 0.026843831, -0.5408096, -835459.5, 258991.0, 0.000014969731, 10.002757, 9.998362 
2.525318e+3, 1.9831383e+2, -815147.9, -1083535.8, 65603.04, 0.017750386, -0.56668156, -799970.56, 196502.03, 0.0, 10.002158, 9.998581 
2.5252485e+3, 2.0831297e+2, -727116.6, -845527.06, 43189.117, 0.041359987, -0.5592583, -713037.75, 185442.1, 0.0, 10.001466, 9.999874 
2.525179e+3, 2.1831268e+2, -759309.75, -851288.4, 12229.457, 0.071428634, -0.54418355, -757711.5, 42769.234, 0.0, 10.000749, 9.999508 
2.525109e+3, 2.2831193e+2, -752536.5, -788769.9, 21254.123, 0.041461527, -0.53935224, -742725.56, -40236.434, 0.0, 10.000086, 9.999584 
2.525039e+3, 2.3831126e+2, -746928.0, -733763.7, 41439.203, -0.001549055, -0.538945, -698387.2, -93889.93, 0.0, 9.999444, 9.999598 
2.5249696e+3, 2.4831097e+2, -675871.4, -552474.8, 32199.813, 0.021822933, -0.5466051, -544577.8, -38077.45, 0.0, 9.998844, 10.000459 
2.5248998e+3, 2.5831106e+2, -677946.5, -526181.2, 27174.506, 0.06067847, -0.55557066, -521462.2, -112962.63, 0.0, 9.998258, 10.000249 
2.52483e+3, 2.6831147e+2, -624995.5, -403358.3, 16544.225, 0.040315002, -0.53173566, -402130.16, -91633.336, 0.0, 9.997747, 10.000665 
2.5247598e+3, 2.783122e+2, -610929.9, -360752.44, 10579.959, 0.011473788, -0.49898693, -360305.8, -147814.75, 0.0, 9.997235, 10.000532 
2.52469e+3, 2.883131e+2, -560700.5, -220687.33, 4565.529, 0.018927349, -0.46319756, -220626.05, -106143.16, 0.0, 9.996626, 10.001115 
2.52462e+3, 2.9831415e+2, -583393.9, -232174.1, 33102.707, 0.01153201, -0.43703464, -229081.38, -212608.5, 0.0, 9.996019, 10.000655 
2.524551e+3, 3.0831248e+2, -575984.9, -196031.05, 53534.645, 0.012862054, -0.6353642, -188632.2, -188632.2, 0.0, 9.995701, 10.000722 
2.524482e+3, 3.1831568e+2, -513952.44, 104466.38, 17531.559, 0.0009884285, -0.38057265, 104962.984, 104962.984, 0.0, 9.994959, 10.003145 
2.5358143e+3, 1.2840189e+2, -975190.0, -1634720.4, -30492.76, 0.112286195, -0.5475795, -973783.2, 707825.7, 0.11453341, 10.007069, 9.997185 
2.5357416e+3, 1.3839872e+2, -960538.3, -1606642.6, -4409.4507, 0.03378409, -0.5533799, -960508.2, 623131.06, 0.07944066, 10.006311, 9.997029 
2.5356713e+3, 1.4839573e+2, -883475.1, -1467018.5, 37460.727, 0.028716248, -0.55442095, -881080.1, 604587.56, 0.045292288, 10.005715, 9.997605 
2.5356016e+3, 1.5839306e+2, -863777.75, -1438894.9, 18763.758, 0.056412358, -0.5560391, -863166.2, 524527.2, 0.019343248, 10.0051565, 9.99739 
2.535531e+3, 1.6839038e+2, -851770.94, -1343247.5, -439.97916, 0.0485712, -0.54998565, -851770.5, 437950.06, 0.0053119804, 10.004329, 9.997771 
2.5354603e+3, 1.7838803e+2, -866125.9, -1276464.8, -11418.865, 0.028560128, -0.5405578, -865808.4, 325936.56, 0.0006660456, 10.003439, 9.997987 
2.5353903e+3, 1.8838651e+2, -782280.8, -1052226.3, 22428.59, 0.037355386, -0.5331218, -780430.0, 313329.5, 0.000010195159, 10.002768, 9.999176 
2.5353202e+3, 1.9838542e+2, -795995.7, -1045331.0, 40426.547, 0.05275784, -0.52999693, -789604.9, 206164.81, 0.0, 10.00216, 9.998844 
2.53525e+3, 2.0838395e+2, -785888.8, -969686.56, 15735.425, 0.03865209, -0.5357847, -784551.4, 113232.695, 0.0, 10.001471, 9.9990225 
2.5351793e+3, 2.1838266e+2, -783294.6, -903662.1, -12776.304, 0.019016953, -0.5444908, -781953.44, 17843.268, 0.0, 10.000755, 9.999148 
2.535109e+3, 2.28382e+2, -708502.94, -699831.25, -2210.7478, 0.03375941, -0.5569007, -699300.2, 2502.701, 0.0, 10.000092, 10.000194 
2.535039e+3, 2.383818e+2, -723130.75, -686251.5, 17561.076, 0.055324856, -0.5682107, -679227.25, -75422.445, 0.0, 9.999448, 9.999925 
2.5349683e+3, 2.4838184e+2, -692052.25, -587847.6, 9237.885, 0.03697924, -0.53861535, -587035.0, -81229.836, 0.0, 9.998847, 10.0002165 
2.5348973e+3, 2.583821e+2, -692889.25, -560092.56, 5679.4927, 0.007689603, -0.50332534, -559850.1, -152046.72, 0.0, 9.998265, 10.000015 
2.5348273e+3, 2.683819e+2, -640621.44, -438548.66, -3472.2117, 0.0035595829, -0.5161173, -438489.0, -128681.945, 0.0, 9.997754, 10.0004225 
2.534757e+3, 2.7838194e+2, -613505.9, -369076.0, -11830.578, 0.012432733, -0.53127956, -368504.72, -156696.47, 0.0, 9.997243, 10.000474 
2.5346866e+3, 2.8838328e+2, -536990.1, -173867.27, -21635.242, 0.03913218, -0.47190562, -172582.75, -58787.67, 0.0, 9.996632, 10.001436 
2.534616e+3, 2.9838473e+2, -573577.56, -213661.17, 13658.081, 0.046926003, -0.43445516, -213143.63, -197363.48, 0.0, 9.996023, 10.000783 
2.5345457e+3, 3.0838376e+2, -593433.4, -234461.86, 43644.19, -0.063202344, -0.55117404, -229231.75, -229231.75, 0.0, 9.995705, 10.00046 
2.5344768e+3, 3.183863e+2, -515402.3, 101755.86, -81842.99, 0.018147612, -0.34006035, 112424.836, 112424.836, 0.0, 9.994945, 10.00314 
2.545821e+3, 1.2847342e+2, -1025961.3, -1665618.4, 15397.84, 0.14030533, -0.5277581, -1025590.9, 655318.6, 0.10668334, 10.00665, 9.997145 
2.5457478e+3, 1.3847023e+2, -919537.2, -1591842.0, 7908.569, 0.016725665, -0.5312053, -919444.2, 663496.1, 0.073672, 10.006606, 9.996988 
2.5456768e+3, 1.4846721e+2, -877097.6, -1472090.5, 36905.816, 0.020639269, -0.5292722, -874817.2, 610151.75, 0.041680172, 10.005783, 9.997532 
2.5456065e+3, 1.5846446e+2, -917816.1, -1467982.6, 26041.195, 0.07135015, -0.52944845, -916586.25, 470408.72, 0.017556079, 10.0047865, 9.997365 
2.5455353e+3, 1.6846159e+2, -873242.7, -1347334.4, 34413.625, 0.06136606, -0.54444015, -870757.7, 418265.9, 0.0046956954, 10.004155, 9.997825 
2.5454637e+3, 1.7845905e+2, -839708.9, -1262288.5, 48916.934, 0.032483567, -0.5588746, -834120.3, 356929.25, 0.00055546756, 10.003618, 9.997995 
2.5453928e+3, 1.8845768e+2, -766866.75, -1052559.3, 42869.152, 0.04045896, -0.5297472, -760572.75, 332489.94, 0.0000065919644, 10.002912, 9.999102 
2.5453222e+3, 1.9845684e+2, -797562.44, -1049755.8, 6512.264, 0.057867534, -0.49548027, -797394.4, 197676.33, 0.0, 10.002171, 9.998806 
2.545251e+3, 2.0845516e+2, -780952.25, -968524.3, 13986.939, 0.03531408, -0.51934755, -779915.0, 117171.89, 0.0, 10.001515, 9.999005 
2.5451797e+3, 2.1845356e+2, -766584.94, -896576.25, 36817.47, 0.0048220474, -0.5568098, -756881.44, 42221.008, 0.0, 10.000879, 9.999134 
2.5451088e+3, 2.2845298e+2, -704044.7, -698751.9, 22925.719, 0.027472954, -0.55799353, -678320.4, 22787.482, 0.0, 10.000133, 10.000178 
2.5450382e+3, 2.3845296e+2, -734532.1, -691824.2, 3803.8086, 0.06268345, -0.549088, -691488.06, -88380.02, 0.0, 9.999375, 9.999919 
2.544967e+3, 2.4845298e+2, -676322.0, -581061.44, 5443.9336, 0.037156537, -0.5222039, -580751.3, -75642.73, 0.0, 9.998964, 10.000204 
2.5448954e+3, 2.5845316e+2, -643100.5, -536687.8, 15851.914, -0.004325212, -0.49449673, -534376.56, -127269.055, 0.0, 9.998615, 10.000005 
2.5448248e+3, 2.6845288e+2, -618456.9, -428336.6, 18799.438, -0.0033161826, -0.51375103, -426495.5, -117383.82, 0.0, 9.997914, 10.000413 
2.5447538e+3, 2.7845278e+2, -631616.25, -382176.0, 27244.043, 0.015531657, -0.5376585, -379235.06, -168121.34, 0.0, 9.997143, 10.000429 
2.5446832e+3, 2.8845394e+2, -532218.9, -185695.23, -1973.8667, 0.039410505, -0.48504877, -185683.98, -72581.72, 0.0, 9.996729, 10.001306 
2.544612e+3, 2.9845533e+2, -527679.56, -194364.8, 26.906614, 0.042297576, -0.4431131, -194364.8, -179276.64, 0.0, 9.996351, 10.000757 
2.544541e+3, 3.0845496e+2, -617516.06, -227790.9, 42454.938, -0.061589703, -0.5077528, -223219.67, -223219.67, 0.0, 9.995465, 10.000618 
2.544472e+3, 3.184541e+2, -536798.2, 49939.44, -48335.95, 0.060883902, -0.6459842, 53894.74, 53894.74, 0.0, 9.99499, 10.002755 
2.5558275e+3, 1.285459e+2, -1049261.5, -1730167.3, 13909.461, 0.13935784, -0.49287364, -1048977.5, 631222.75, 0.09874259, 10.006647, 9.996691 
2.5557542e+3, 1.385422e+2, -940682.3, -1637834.5, -4048.4946, 0.011955987, -0.50421077, -940658.75, 641578.56, 0.06786743, 10.006559, 9.996696 
2.5556824e+3, 1.4853911e+2, -878063.4, -1476007.4, 371.589, 0.021594388, -0.5011139, -878063.2, 606203.75, 0.038074695, 10.005763, 9.997517 
2.555611e+3, 1.5853637e+2, -905301.75, -1446583.4, -4689.519, 0.08055607, -0.4999195, -905261.1, 481031.1, 0.015795067, 10.004795, 9.997511 
2.555539e+3, 1.6853362e+2, -842136.3, -1285511.8, 14677.904, 0.07447986, -0.5377691, -841650.94, 446667.28, 0.0041036992, 10.004162, 9.998248 
2.5554672e+3, 1.7853115e+2, -841250.8, -1266207.3, 24810.21, 0.045959916, -0.5792457, -839807.25, 350534.66, 0.00045537538, 10.003616, 9.997972 
2.5553954e+3, 1.8852942e+2, -825992.9, -1177368.6, 15029.227, 0.036526576, -0.5297335, -825351.25, 267009.16, 0.0000041140547, 10.002916, 9.998245 
2.5553238e+3, 1.9852813e+2, -816871.06, -1092589.6, -18024.508, 0.035026047, -0.46392003, -815697.75, 178677.13, 0.0, 10.002178, 9.99851 
2.5552523e+3, 2.0852663e+2, -729139.25, -863540.5, -8347.678, 0.031774465, -0.5093783, -728622.75, 167765.22, 0.0, 10.001522, 9.999725 
2.5551805e+3, 2.1852534e+2, -748294.44, -859969.6, 11576.884, 0.02619089, -0.5792522, -747106.94, 51291.484, 0.0, 10.00088, 9.999388 
2.5551087e+3, 2.285248e+2, -747419.7, -790964.25, -6335.9434, 0.02116309, -0.5420819, -746516.5, -46111.95, 0.0, 10.000138, 9.999545 
2.5550368e+3, 2.385247e+2, -756625.25, -740880.06, -19562.166, 0.018626738, -0.48247147, -727665.8, -125258.36, 0.0, 9.999385, 9.999579 
2.5549653e+3, 2.4852431e+2, -661027.44, -552191.44, -7048.9863, 0.02313191, -0.49888855, -551736.75, -47325.535, 0.0, 9.998972, 10.0004015 
2.5548944e+3, 2.585241e+2, -627442.8, -507287.16, -3564.0222, 0.02604898, -0.5324194, -507181.53, -100768.8, 0.0, 9.998624, 10.000205 
2.5548226e+3, 2.685243e+2, -602182.44, -396241.06, -12735.186, 0.020636784, -0.52413046, -395456.5, -87045.49, 0.0, 9.997917, 10.000634 
2.5547507e+3, 2.7852476e+2, -635204.06, -390669.06, 3174.756, 0.019893454, -0.5117733, -390627.84, -180220.88, 0.0, 9.997142, 10.000374 
2.5546792e+3, 2.88525e+2, -575735.0, -278435.3, -14869.229, 0.016305868, -0.5042569, -277693.5, -165288.3, 0.0, 9.996734, 10.0006695 
2.5546074e+3, 2.985257e+2, -539415.8, -222464.73, -23475.9, -0.010534637, -0.47526294, -220735.36, -206336.16, 0.0, 9.996362, 10.000562 
2.554537e+3, 3.0852595e+2, -585059.7, -157787.64, -1710.7849, 0.03737855, -0.50614506, -157780.8, -157780.8, 0.0, 9.995449, 10.001109 
2.5544664e+3, 3.1852514e+2, -531501.6, 57099.906, 37069.066, 0.052421737, -0.6765861, 59425.26, 59425.26, 0.0, 9.995004, 10.002799 
2.5658336e+3, 1.286185e+2, -1030821.9, -1716515.8, 10197.995, 0.13067906, -0.45292395, -1030670.25, 648820.75, 0.09078794, 10.006712, 9.996755 
2.5657606e+3, 1.3861465e+2, -1008597.5, -1665940.8, 14726.632, 0.048697665, -0.48482358, -1008267.75, 573261.44, 0.062075473, 10.005997, 9.996774 
2.5656876e+3, 1.4861149e+2, -920631.4, -1487984.9, 22179.855, 0.04250622, -0.49676892, -919765.6, 563793.5, 0.034505315, 10.005406, 9.997602 
2.5656155e+3, 1.5860872e+2, -893218.5, -1435102.8, 22358.682, 0.070884995, -0.505342, -892297.5, 493286.88, 0.014076535, 10.004852, 9.9975605 
2.565543e+3, 1.6860622e+2, -841524.75, -1287779.4, 23287.49, 0.07304721, -0.51825976, -840312.8, 447295.44, 0.0035420808, 10.004179, 9.998222 
2.5654703e+3, 1.7860399e+2, -859213.3, -1274032.0, 8397.971, 0.06168284, -0.5322504, -859043.3, 330586.25, 0.00036613096, 10.003493, 9.997974 
2.5653982e+3, 1.886019e+2, -831148.25, -1176913.8, 37748.793, 0.04279037, -0.5204155, -827075.0, 264575.88, 0.000002561901, 10.002872, 9.998267 
2.5653258e+3, 1.9860011e+2, -804649.7, -1085880.5, 56206.81, 0.02624643, -0.50186867, -793832.25, 199836.98, 0.0, 10.002263, 9.998514 
2.5652534e+3, 2.0859887e+2, -727376.94, -865770.6, 35428.08, 0.030894356, -0.52024144, -718834.75, 176845.58, 0.0, 10.001553, 9.999693 
2.5651813e+3, 2.1859795e+2, -758197.7, -870462.1, 8200.358, 0.038232386, -0.54837716, -757601.8, 40085.793, 0.0, 10.000843, 9.9993305 
2.5651085e+3, 2.2859718e+2, -718482.2, -790656.8, 10879.142, 0.020355362, -0.52432734, -716878.0, -17181.945, 0.0, 10.000401, 9.999418 
2.565036e+3, 2.385967e+2, -673472.4, -708306.44, 30868.244, 0.00015107082, -0.4891755, -655446.5, -53744.145, 0.0, 9.999993, 9.999507 
2.564964e+3, 2.4859625e+2, -633079.8, -536778.7, 37973.715, 0.013419264, -0.5078464, -523606.53, -19900.201, 0.0, 9.999162, 10.000413 
2.5648925e+3, 2.5859603e+2, -683787.75, -537538.6, 27656.94, 0.031834405, -0.5383819, -532483.2, -126775.88, 0.0, 9.998256, 10.000172 
2.5648203e+3, 2.6859623e+2, -615131.1, -415890.38, -3110.135, 0.026498454, -0.52182996, -415841.84, -108136.06, 0.0, 9.997891, 10.000509 
2.564748e+3, 2.7859664e+2, -573515.5, -371249.9, -11419.371, 0.022643734, -0.5018923, -370607.25, -160905.03, 0.0, 9.997616, 10.000277 
2.5646758e+3, 2.885966e+2, -563835.7, -279666.8, -3032.8992, 0.008726234, -0.5180029, -279634.44, -167931.19, 0.0, 9.996852, 10.000601 
2.5646034e+3, 2.9859698e+2, -594638.5, -251686.22, 25954.57, -0.028627733, -0.5109592, -249733.11, -236033.19, 0.0, 9.996003, 10.000529 
2.564533e+3, 3.0859762e+2, -560007.3, -142810.67, 21329.633, 0.08866523, -0.503828, -141723.02, -141723.02, 0.0, 9.995614, 10.00113 
2.5644606e+3, 3.1859955e+2, -532452.1, 99053.92, 51049.902, 0.00022237418, -0.40391305, 103154.09, 103154.09, 0.0, 9.994815, 10.003179 
2.5758398e+3, 1.2869127e+2, -1003761.0, -1656442.8, -11936.106, 0.11411953, -0.41126877, -1003542.75, 675237.8, 0.08293394, 10.006655, 9.997207 
2.5757667e+3, 1.386876e+2, -983057.8, -1618010.6, -7566.3735, 0.115066394, -0.46922418, -982967.7, 597847.94, 0.05637088, 10.005996, 9.997104 
2.5756934e+3, 1.4868434e+2, -907809.2, -1467564.5, 2685.1646, 0.07685962, -0.5088537, -907796.3, 575049.25, 0.031014478, 10.00541, 9.997747 
2.5756198e+3, 1.586815e+2, -897228.56, -1444175.9, -166.13896, 0.045466594, -0.537788, -897228.5, 487642.97, 0.012420663, 10.004843, 9.997505 
2.5755468e+3, 1.6867933e+2, -869765.06, -1348104.5, -1626.9663, 0.05966705, -0.48793328, -869759.56, 417134.06, 0.0030172607, 10.004178, 9.99781 
2.5754738e+3, 1.7867748e+2, -855467.6, -1269134.6, -14298.945, 0.07802008, -0.42968288, -854974.0, 333938.75, 0.00028801512, 10.003501, 9.998008 
2.5754008e+3, 1.8867506e+2, -776777.8, -1065962.5, 16027.305, 0.05731027, -0.50454366, -775892.25, 315042.28, 0.0000016628666, 10.002875, 9.99903 
2.5753278e+3, 1.986728e+2, -789816.1, -1055346.4, 31271.674, 0.029954772, -0.60082954, -786182.94, 206771.3, 0.0, 10.002259, 9.998728 
2.5752547e+3, 2.0867181e+2, -778085.5, -973737.9, 7860.17, 0.031913448, -0.54764485, -777770.25, 117194.195, 0.0, 10.00156, 9.998951 
2.575182e+3, 2.186713e+2, -779933.3, -919492.7, -13358.98, 0.03936222, -0.46777695, -778666.06, 18304.504, 0.0, 10.000855, 9.998991 
2.575109e+3, 2.2867006e+2, -692941.75, -740555.56, -2147.819, 0.024841689, -0.50655514, -692845.06, 6137.452, 0.0, 10.000408, 9.999762 
2.575036e+3, 2.386689e+2, -662062.2, -686478.75, 8976.351, 0.00675649, -0.56945664, -659117.4, -58124.285, 0.0, 9.999997, 9.999659 
2.574963e+3, 2.4866876e+2, -646868.0, -566301.3, 1250.5637, 0.007084914, -0.5477884, -566281.94, -63287.777, 0.0, 9.999162, 10.000212 
2.5748903e+3, 2.5866905e+2, -704635.75, -581842.9, 1055.1935, 0.010070996, -0.5088797, -581833.8, -176842.34, 0.0, 9.998256, 9.999869 
2.5748175e+3, 2.6866865e+2, -650558.25, -491680.75, -12772.552, 0.013118447, -0.5071679, -490660.47, -183663.69, 0.0, 9.997895, 9.9999895 
2.5747454e+3, 2.786683e+2, -581391.56, -391504.2, -31262.588, 0.021962771, -0.5145998, -386489.63, -177488.33, 0.0, 9.997627, 10.000134 
2.5746724e+3, 2.8866863e+2, -526405.4, -203194.67, -39386.996, 0.018724045, -0.5239721, -198464.16, -87467.1, 0.0, 9.996853, 10.001128 
2.5745994e+3, 2.986693e+2, -588205.3, -237322.86, 1185.1814, -0.0038885558, -0.5364363, -237318.84, -224329.66, 0.0, 9.995994, 10.000635 
2.5745282e+3, 3.0866978e+2, -589165.9, -205963.14, 10493.6045, 0.071938656, -0.5183338, -205676.0, -205676.0, 0.0, 9.995621, 10.000696 
2.5744554e+3, 3.1867138e+2, -577027.7, 16757.408, -83486.48, 0.011650381, -0.4095836, 28272.346, 28272.346, 0.0, 9.994764, 10.002642 
2.585846e+3, 1.2876447e+2, -1034648.4, -1664304.4, 42940.07, 0.09568376, -0.44197378, -1031733.5, 646329.2, 0.075302035, 10.006336, 9.997303 
2.585773e+3, 1.3876128e+2, -977190.5, -1607319.0, 26094.908, 0.1389447, -0.4595137, -976111.7, 603981.8, 0.050839443, 10.005975, 9.997188 
2.5856984e+3, 1.4875814e+2, -919645.9, -1471593.0, 23603.512, 0.09553157, -0.4911171, -918638.3, 563484.44, 0.027652701, 10.005306, 9.997766 
2.5856242e+3, 1.5875527e+2, -929696.5, -1456916.8, 15596.409, 0.04719503, -0.52206, -929235.5, 454913.63, 0.010850631, 10.0046015, 9.997533 
2.5855505e+3, 1.6875297e+2, -886188.4, -1352491.5, 36859.47, 0.05918796, -0.48815423, -883292.75, 402879.7, 0.0025360002, 10.004052, 9.99784 
2.5854772e+3, 1.78751e+2, -847964.4, -1258165.4, 45771.06, 0.07992625, -0.44479907, -842919.2, 345273.47, 0.00022139605, 10.003525, 9.99807 
2.5854036e+3, 1.8874884e+2, -783782.8, -1057489.9, 42095.066, 0.06207393, -0.5012247, -777455.06, 312756.8, 0.0000011356803, 10.002782, 9.999131 
2.5853297e+3, 1.9874687e+2, -821265.1, -1066494.6, 20498.578, 0.03677869, -0.5768821, -819563.44, 172665.19, 0.0, 10.00203, 9.998759 
2.585256e+3, 2.0874569e+2, -768117.44, -980546.7, 29351.414, 0.03322525, -0.5387513, -764136.5, 130104.31, 0.0, 10.001683, 9.998842 
2.5851825e+3, 2.1874486e+2, -707499.94, -892043.75, 44278.91, 0.034886174, -0.47769073, -697425.75, 98824.16, 0.0, 10.00139, 9.998919 
2.585109e+3, 2.2874357e+2, -678070.1, -735522.6, 36935.023, 0.027027741, -0.51576835, -660005.44, 38256.703, 0.0, 10.000525, 9.999737 
2.5850353e+3, 2.3874241e+2, -729099.0, -724929.0, 25182.088, 0.017291598, -0.574504, -701745.75, -101473.18, 0.0, 9.999569, 9.999598 
2.584962e+3, 2.4874224e+2, -646114.0, -581402.8, 18340.82, 0.0066559482, -0.5454452, -576566.06, -74291.82, 0.0, 9.999238, 10.000069 
2.5848883e+3, 2.5874242e+2, -605198.1, -547355.06, 23096.676, -0.0032159816, -0.49845588, -539264.25, -134991.88, 0.0, 9.9990015, 9.999744 
2.5848153e+3, 2.687418e+2, -619113.56, -487561.38, 33660.227, 0.008684456, -0.5077917, -479449.0, -173168.98, 0.0, 9.998164, 9.999886 
2.5847423e+3, 2.7874124e+2, -645969.56, -429715.03, 41332.574, 0.02996004, -0.5283864, -422084.4, -213797.52, 0.0, 9.99722, 10.000066 
2.584669e+3, 2.8874168e+2, -533310.44, -207449.47, 4717.1475, 0.025434153, -0.52226496, -207381.19, -97099.914, 0.0, 9.996813, 10.001117 
2.584595e+3, 2.9874244e+2, -519726.1, -205174.97, 9374.179, 0.0027166908, -0.5223099, -204895.84, -192623.77, 0.0, 9.9964695, 10.000626 
2.5845233e+3, 3.0874243e+2, -576879.3, -192796.75, 44062.54, 0.057170592, -0.5521407, -187806.66, -187806.66, 0.0, 9.99568, 10.000755 
2.5844502e+3, 3.1874308e+2, -601628.75, -66768.375, -76433.08, 0.046250124, -0.5409926, -56060.254, -56060.254, 0.0, 9.994916, 10.001988 
2.5958517e+3, 1.2883815e+2, -1042803.4, -1688274.9, 29877.213, 0.07297634, -0.520948, -1041423.44, 635914.3, 0.06797714, 10.00632, 9.997138 
2.5957787e+3, 1.3883565e+2, -987570.56, -1628413.4, 6489.9473, 0.12959526, -0.45575324, -987504.9, 591859.2, 0.04555113, 10.005934, 9.997063 
2.5957036e+3, 1.4883275e+2, -926667.94, -1487758.3, -3551.4268, 0.10223004, -0.45206532, -926645.44, 554746.5, 0.024466267, 10.005289, 9.997664 
2.5956288e+3, 1.5882999e+2, -922385.75, -1444243.5, -7542.872, 0.068713054, -0.46786264, -922276.75, 461141.4, 0.009388729, 10.0046015, 9.9976225 
2.5955546e+3, 1.6882715e+2, -859772.94, -1297927.0, 18186.5, 0.067864776, -0.5142468, -859019.4, 426425.63, 0.0021042249, 10.004048, 9.998219 
2.5954804e+3, 1.7882465e+2, -846094.6, -1252911.5, 22216.66, 0.06991152, -0.5575646, -844884.94, 342584.03, 0.00016634166, 10.003514, 9.998113 
2.595406e+3, 1.8882322e+2, -817711.5, -1130223.9, 12443.915, 0.05807903, -0.5054077, -817216.8, 272266.25, 0.00000077863837, 10.002787, 9.9986315 
2.5953317e+3, 1.988222e+2, -827236.06, -1083551.3, -598.6021, 0.044393998, -0.44381064, -827234.7, 164258.67, 0.0, 10.002046, 9.998637 
2.5952575e+3, 2.0882036e+2, -734843.9, -913747.94, 21013.234, 0.034274593, -0.49986166, -732408.94, 161101.13, 0.0, 10.001689, 9.999301 
2.5951836e+3, 2.1881858e+2, -699127.44, -873562.75, 24600.412, 0.025428055, -0.57462955, -695724.44, 99801.28, 0.0, 10.001381, 9.999053 
2.5951093e+3, 2.2881769e+2, -706425.2, -794654.44, -1035.2533, 0.02698578, -0.5484751, -706413.06, -8877.921, 0.0, 10.000523, 9.999333 
2.5950348e+3, 2.3881719e+2, -747715.6, -765698.4, -997.7257, 0.02984145, -0.503553, -747660.44, -148119.33, 0.0, 9.999574, 9.999318 
2.594961e+3, 2.4881658e+2, -651780.56, -596205.56, 11409.351, 0.011825536, -0.5016785, -593954.44, -92407.484, 0.0, 9.999247, 9.999966 
2.5948873e+3, 2.5881615e+2, -599340.44, -539660.94, 4178.683, -0.009223415, -0.5106355, -539369.75, -135818.89, 0.0, 9.999017, 9.999793 
2.5948134e+3, 2.688157e+2, -596253.56, -441447.38, -4891.9395, 0.013195362, -0.52425355, -441292.94, -135737.42, 0.0, 9.998166, 10.000204 
2.5947398e+3, 2.7881545e+2, -649224.5, -435363.0, 14648.706, 0.04709372, -0.5390674, -434364.28, -226805.95, 0.0, 9.9972105, 10.000034 
2.5946656e+3, 2.8881565e+2, -576959.5, -299198.78, -5838.494, 0.027300207, -0.51243883, -299076.13, -189519.97, 0.0, 9.996813, 10.000489 
2.5945914e+3, 2.9881626e+2, -526606.2, -223009.14, -12080.158, -0.016733328, -0.47531778, -222529.22, -210979.11, 0.0, 9.99648, 10.000501 
2.5945187e+3, 3.0881578e+2, -538163.44, -112561.984, 9108.27, 0.052810024, -0.5911152, -112367.15, -112367.15, 0.0, 9.995674, 10.001312 
2.5944445e+3, 3.1881762e+2, -591636.6, -56166.09, -70551.03, 0.020600375, -0.49668694, -47026.617, -47026.617, 0.0, 9.994951, 10.002049 
2.6058578e+3, 1.2891284e+2, -1034161.75, -1695681.3, 36087.434, 0.071377166, -0.53380877, -1032198.94, 644405.3, 0.061000384, 10.006386, 9.997057 
2.605784e+3, 1.3891022e+2, -1041266.6, -1656359.8, 18616.582, 0.1310653, -0.47235227, -1040703.7, 537928.8, 0.040548973, 10.005528, 9.997066 
2.6057085e+3, 1.4890747e+2, -959859.56, -1492175.3, 21299.465, 0.10426991, -0.46221235, -959008.6, 521650.8, 0.021487232, 10.004996, 9.997771 
2.605633e+3, 1.5890488e+2, -922279.2, -1429848.9, 25301.445, 0.07393299, -0.46944654, -921021.1, 461663.06, 0.008050898, 10.00454, 9.997747 
2.6055583e+3, 1.689022e+2, -877601.06, -1289863.1, 38722.406, 0.075533606, -0.5132203, -873995.5, 410713.72, 0.0017253384, 10.003858, 9.9983635 
2.6054835e+3, 1.788998e+2, -896621.94, -1274329.8, 30602.596, 0.07775666, -0.557795, -894158.5, 292573.4, 0.00012243769, 10.0031595, 9.998135 
2.6054084e+3, 1.8889828e+2, -832480.06, -1157898.1, 37448.805, 0.060403753, -0.5032798, -828226.06, 260521.53, 0.00000050618763, 10.00278, 9.998442 
2.6053336e+3, 1.9889715e+2, -774226.4, -1060807.6, 40188.63, 0.042447347, -0.43571386, -768697.2, 222062.64, 0.0, 10.002429, 9.998606 
2.605259e+3, 2.0889539e+2, -743507.7, -895626.06, 46902.535, 0.039311472, -0.49419072, -730208.9, 162566.31, 0.0, 10.001539, 9.999495 
2.6051846e+3, 2.188937e+2, -809861.2, -920546.94, 35147.25, 0.037569173, -0.5749338, -799643.7, -4854.389, 0.0, 10.000598, 9.999105 
2.6051095e+3, 2.2889277e+2, -735397.94, -828096.6, 22448.69, 0.026247328, -0.54122335, -730247.7, -33448.297, 0.0, 10.000413, 9.999155 
2.6050344e+3, 2.3889223e+2, -647097.9, -729238.56, 35822.633, 0.016405758, -0.4848204, -633670.2, -34863.7, 0.0, 10.000321, 9.999205 
2.60496e+3, 2.4889143e+2, -636295.4, -592202.0, 51180.766, 0.018484566, -0.4946401, -558521.44, -57707.355, 0.0, 9.9993725, 9.99993 
2.6048857e+3, 2.588908e+2, -704497.56, -589997.5, 48787.48, 0.02063501, -0.5195342, -572029.25, -169209.53, 0.0, 9.998299, 9.99979 
2.6048112e+3, 2.6889047e+2, -604343.75, -439308.22, 26684.523, 0.020806953, -0.52293503, -435100.88, -130277.875, 0.0, 9.99809, 10.000253 
2.6047367e+3, 2.788904e+2, -537304.56, -384681.75, 27727.686, 0.028482797, -0.52288014, -379800.47, -172976.55, 0.0, 9.997997, 10.0 
2.6046625e+3, 2.8889042e+2, -534590.7, -298739.88, 28819.627, 0.029350195, -0.50129354, -295269.34, -186445.6, 0.0, 9.997196, 10.000304 
2.6045877e+3, 2.9889074e+2, -560699.4, -241312.44, 49452.426, 0.004927713, -0.4742293, -233830.72, -223010.19, 0.0, 9.996262, 10.000477 
2.604514e+3, 3.0889016e+2, -530482.9, -90542.33, 45630.08, 0.029865788, -0.6073264, -85859.48, -85859.48, 0.0, 9.995653, 10.0014715 
2.604439e+3, 3.1889322e+2, -579044.5, -5129.321, -50941.594, 0.0037256696, -0.40713745, -642.74036, -642.74036, 0.0, 9.994847, 10.002447 
2.615864e+3, 1.2898839e+2, -1034086.7, -1697298.8, 4155.7, 0.084839925, -0.50306076, -1034060.6, 641802.8, 0.054392796, 10.006353, 9.99706 
2.6157892e+3, 1.3898517e+2, -1038480.1, -1645903.8, -6572.186, 0.13529396, -0.5035216, -1038409.06, 539488.4, 0.03585506, 10.005482, 9.997161 
2.6157132e+3, 1.4898244e+2, -945779.3, -1461777.6, 5524.732, 0.10011648, -0.5093587, -945720.2, 534203.9, 0.018731382, 10.004973, 9.997997 
2.6156375e+3, 1.5898007e+2, -914835.2, -1414457.6, 4069.8762, 0.06637823, -0.5147255, -914802.06, 467144.53, 0.0068439366, 10.004532, 9.99786 
2.6155618e+3, 1.689781e+2, -882439.75, -1300750.9, 10715.482, 0.082258865, -0.48826885, -882165.44, 401800.2, 0.0013996031, 10.003855, 9.998293 
2.6154867e+3, 1.7897631e+2, -896659.4, -1275360.0, 9060.259, 0.09857991, -0.4628166, -896442.75, 289540.03, 0.00008883098, 10.0031595, 9.99813 
2.6154113e+3, 1.8897395e+2, -828574.94, -1148622.9, 26487.229, 0.067322895, -0.49882185, -826397.6, 261608.45, 0.0000003029647, 10.00277, 9.998513 
2.6153356e+3, 1.989718e+2, -775898.3, -1060313.4, 18777.502, 0.032491848, -0.5406006, -774663.94, 215363.58, 0.0, 10.002407, 9.998622 
2.6152602e+3, 2.0897081e+2, -749315.4, -907495.75, 8862.405, 0.048060656, -0.5156633, -748820.4, 143215.81, 0.0, 10.001534, 9.999417 
2.615185e+3, 2.189702e+2, -810769.8, -925205.56, 12429.054, 0.06764102, -0.48293373, -809435.44, -15394.251, 0.0, 10.000606, 9.999072 
2.6151097e+3, 2.289688e+2, -732354.7, -824638.94, 22982.445, 0.02353981, -0.49731293, -726947.94, -30892.512, 0.0, 10.000421, 9.999177 
2.615034e+3, 2.3896746e+2, -644052.9, -725481.0, 18393.86, -0.023950139, -0.5206836, -640090.7, -42021.426, 0.0, 10.000328, 9.99923 
2.6149592e+3, 2.4896675e+2, -635474.75, -590933.7, 6446.186, 0.027345851, -0.5244683, -590019.56, -89943.68, 0.0, 9.999371, 9.999942 
2.6148844e+3, 2.5896636e+2, -710959.5, -603017.4, 21967.94, 0.08705441, -0.5226286, -598717.8, -196638.77, 0.0, 9.998293, 9.999706 
2.6148093e+3, 2.689661e+2, -621522.56, -476929.97, 26355.084, 0.030415665, -0.50211334, -472276.0, -168193.28, 0.0, 9.998094, 9.999995 
2.614734e+3, 2.7896604e+2, -535926.0, -387942.72, 11978.449, -0.032184646, -0.4801524, -386979.38, -180894.98, 0.0, 9.998019, 9.99997 
2.6146594e+3, 2.8896594e+2, -512982.5, -256419.25, -9332.525, 0.032433398, -0.48887917, -256080.22, -147996.05, 0.0, 9.997202, 10.000594 
2.6145843e+3, 2.9896596e+2, -559075.4, -236603.86, 20951.162, 0.076392815, -0.515463, -235248.36, -225165.89, 0.0, 9.996251, 10.000517 
2.6145086e+3, 3.0896553e+2, -551060.94, -133472.95, 24827.072, -0.025945842, -0.6119163, -132002.08, -132002.08, 0.0, 9.995649, 10.001181 
2.6144338e+3, 3.1896827e+2, -574428.25, 13113.733, -124391.92, 0.03600466, -0.433158, 38364.285, 38364.285, 0.0, 9.994809, 10.002592 
2.62587e+3, 1.2906435e+2, -1053351.9, -1691801.3, 20689.424, 0.091549374, -0.5016245, -1052682.1, 622437.1, 0.048173465, 10.006107, 9.997216 
2.625794e+3, 1.3906117e+2, -1069567.3, -1649631.1, 23590.492, 0.1304984, -0.5094349, -1068609.4, 508542.7, 0.031479776, 10.00519, 9.997274 
2.6257178e+3, 1.4905852e+2, -982651.94, -1474173.9, 41142.273, 0.09813432, -0.514348, -979231.94, 499946.16, 0.016202489, 10.004688, 9.998044 
2.6256415e+3, 1.5905622e+2, -949540.9, -1429701.3, 24830.28, 0.07164591, -0.51691335, -948260.25, 432940.0, 0.0057669315, 10.004288, 9.9978695 
2.6255655e+3, 1.6905425e+2, -904797.0, -1317186.1, 24193.912, 0.08518364, -0.48424172, -903382.44, 379837.0, 0.0011245296, 10.003733, 9.998235 
2.6254895e+3, 1.790525e+2, -898511.25, -1270251.5, 24211.518, 0.09807291, -0.45212957, -896940.94, 288295.66, 0.00006410776, 10.003128, 9.998177 
2.6254132e+3, 1.8905014e+2, -879544.2, -1153122.6, 47797.043, 0.07347004, -0.5010689, -871434.0, 215825.48, 0.00000016598092, 10.00234, 9.998686 
2.6253375e+3, 1.9904794e+2, -894668.94, -1113338.0, 45089.582, 0.045501187, -0.5588184, -885736.3, 103544.26, 0.0, 10.001578, 9.998655 
2.6252615e+3, 2.0904702e+2, -786707.8, -945860.6, 30966.154, 0.04998477, -0.5168196, -780895.06, 110394.555, 0.0, 10.00137, 9.99923 
2.6251855e+3, 2.1904647e+2, -725088.06, -889251.6, 27962.9, 0.058406316, -0.46026498, -720455.7, 72839.13, 0.0, 10.001224, 9.999018 
2.6251096e+3, 2.2904502e+2, -722544.94, -805707.75, 43838.734, 0.027822439, -0.48639926, -703704.1, -8394.845, 0.0, 10.000432, 9.999299 
2.625034e+3, 2.3904361e+2, -752231.0, -771187.1, 43858.277, -0.0040198667, -0.52805084, -716838.4, -119514.96, 0.0, 9.999563, 9.999283 
2.6249582e+3, 2.4904296e+2, -639306.06, -599899.25, 24760.521, 0.033294808, -0.5210852, -587959.2, -88629.67, 0.0, 9.99938, 9.999873 
2.6248828e+3, 2.5904265e+2, -575636.9, -544775.4, 37098.45, 0.0766071, -0.5035088, -520026.47, -118694.26, 0.0, 9.999256, 9.9996395 
2.624807e+3, 2.6904222e+2, -582429.6, -466394.13, 53043.01, 0.025208523, -0.48804206, -445801.3, -142464.16, 0.0, 9.998403, 9.999916 
2.6247314e+3, 2.79042e+2, -619276.6, -427815.1, 48167.793, -0.026760316, -0.47598782, -416380.03, -211039.58, 0.0, 9.997452, 9.999967 
2.6246566e+3, 2.8904188e+2, -507680.56, -242889.5, 14036.846, 0.050546665, -0.49648395, -242147.47, -134806.67, 0.0, 9.997196, 10.000688 
2.624581e+3, 2.9904193e+2, -453271.75, -181864.8, 25237.85, 0.09914885, -0.52748495, -179537.9, -170199.08, 0.0, 9.996964, 10.000547 
2.6245037e+3, 3.0904233e+2, -546242.44, -133685.14, 32645.049, -0.066177465, -0.54087037, -131117.95, -131117.95, 0.0, 9.995698, 10.001153 
2.6244286e+3, 3.1904364e+2, -574798.75, -24986.28, -79892.74, 0.03475974, -0.49355105, -13612.427, -13612.427, 0.0, 9.99498, 10.002244 
2.635876e+3, 1.2914081e+2, -1043239.25, -1661994.1, -13511.9795, 0.0906901, -0.51910037, -1042944.4, 631426.4, 0.042363502, 10.006037, 9.9974575 
2.6357988e+3, 1.3913818e+2, -1058645.8, -1634616.9, -3607.0393, 0.11541478, -0.4937337, -1058623.3, 517774.03, 0.027431166, 10.005204, 9.997372 
2.6357222e+3, 1.491356e+2, -988019.06, -1490351.0, 26176.21, 0.096382886, -0.485486, -986658.7, 491763.84, 0.0139007205, 10.004692, 9.997933 
2.635646e+3, 1.5913323e+2, -959949.75, -1444782.5, 6718.9517, 0.085751586, -0.48479232, -959856.6, 420589.22, 0.004815963, 10.004251, 9.9977865 
2.635569e+3, 1.6913074e+2, -913120.9, -1328830.4, 3076.5298, 0.08405658, -0.49947932, -913098.1, 369372.13, 0.0008961297, 10.003703, 9.998172 
2.635492e+3, 1.7912848e+2, -895742.75, -1262524.3, -132.76746, 0.07924635, -0.51407236, -895742.7, 288749.53, 0.000046516947, 10.003116, 9.998238 
2.6354155e+3, 1.8912686e+2, -862308.94, -1119718.5, 17483.525, 0.078717805, -0.5064953, -861126.8, 225380.66, 0.00000008213487, 10.002346, 9.998915 
2.6353392e+3, 1.9912551e+2, -890764.1, -1109797.3, 25578.082, 0.077046596, -0.497653, -887816.9, 100703.27, 0.0, 10.001594, 9.998674 
2.6352623e+3, 2.0912394e+2, -806668.2, -989624.06, 28426.197, 0.044427324, -0.501035, -802353.3, 88182.76, 0.0, 10.001376, 9.998929 
2.635186e+3, 2.1912251e+2, -732117.3, -903316.7, 12522.944, 0.011470393, -0.5063002, -731206.1, 61344.32, 0.0, 10.001217, 9.998926 
2.63511e+3, 2.2912143e+2, -708376.44, -776593.4, 8818.104, 0.040088713, -0.5066762, -707255.0, -12693.957, 0.0, 10.000429, 9.999502 
2.635034e+3, 2.3912062e+2, -747654.5, -762967.56, 22538.34, 0.07443359, -0.50525266, -731507.7, -134938.69, 0.0, 9.999564, 9.99934 
2.6349574e+3, 2.4912003e+2, -650112.25, -624630.56, 23449.844, 0.033887554, -0.48355857, -610683.9, -112108.586, 0.0, 9.999386, 9.999702 
2.6348808e+3, 2.5911963e+2, -576722.75, -552542.44, 19962.086, -0.017249528, -0.46201804, -541294.7, -140714.94, 0.0, 9.999275, 9.999579 
2.6348048e+3, 2.691189e+2, -575186.2, -453018.28, 12635.929, 0.0055087786, -0.48221716, -451725.03, -149138.25, 0.0, 9.998405, 10.000009 
2.634729e+3, 2.7911833e+2, -621686.75, -429955.9, 23234.373, 0.05180874, -0.51229155, -427180.47, -222588.08, 0.0, 9.997436, 9.999962 
2.6346534e+3, 2.8911814e+2, -517721.3, -264762.3, 10142.61, 0.08360004, -0.5265396, -264356.28, -157761.84, 0.0, 9.997197, 10.000539 
2.6345772e+3, 2.9911852e+2, -447641.56, -177012.16, -2068.5085, 0.062491473, -0.5120681, -176996.34, -168405.63, 0.0, 9.996989, 10.000571 
2.6344988e+3, 3.091207e+2, -529881.0, -99137.79, -26408.93, -0.08164655, -0.3635029, -97524.695, -97524.695, 0.0, 9.995689, 10.001398 
2.634423e+3, 3.1911993e+2, -613751.6, -118606.58, 10732.506, 0.018581575, -0.5306444, -118374.055, -118374.055, 0.0, 9.995023, 10.001585 
2.6458815e+3, 1.2921828e+2, -1111565.0, -1688078.5, 19149.912, 0.107459694, -0.50035214, -1110929.5, 562682.8, 0.036981657, 10.005482, 9.997542 
2.645804e+3, 1.3921556e+2, -1022096.56, -1613957.9, 16101.221, 0.1050098, -0.49163216, -1021658.9, 553980.2, 0.02371861, 10.005436, 9.9974 
2.6457262e+3, 1.4921297e+2, -1006938.75, -1507680.6, 38257.96, 0.094096564, -0.48117778, -1004032.6, 473632.22, 0.011827039, 10.004595, 9.997857 
2.6456493e+3, 1.5921058e+2, -1042568.25, -1478952.5, 24578.885, 0.09869748, -0.4757718, -1041188.2, 338500.34, 0.0039865607, 10.003658, 9.997834 
2.645572e+3, 1.692081e+2, -977599.6, -1336749.1, 40800.906, 0.09249452, -0.503284, -973022.8, 308689.47, 0.0007096712, 10.003165, 9.998373 
2.6454946e+3, 1.7920585e+2, -939881.25, -1275906.0, 49141.67, 0.07831637, -0.53156066, -932842.06, 250891.48, 0.00003425103, 10.002785, 9.998302 
2.6454175e+3, 1.8920432e+2, -856215.7, -1130672.5, 46933.664, 0.06939721, -0.50780463, -848411.7, 237336.75, 0.000000036221024, 10.002455, 9.998784 
2.6453403e+3, 1.9920306e+2, -822771.0, -1082739.9, 34425.35, 0.06317845, -0.4784417, -818289.6, 169471.16, 0.0, 10.002092, 9.998615 
2.6452637e+3, 2.0920134e+2, -816771.44, -992657.06, 52271.164, 0.043866057, -0.49345604, -802409.75, 87368.38, 0.0, 10.001305, 9.99894 
2.6451868e+3, 2.1919976e+2, -836432.6, -950271.6, 54579.133, 0.02495353, -0.5152329, -814493.3, -22699.111, 0.0, 10.000491, 9.998951 
2.6451102e+3, 2.291988e+2, -731432.25, -783151.8, 43208.594, 0.047848724, -0.5077783, -706936.2, -13132.605, 0.0, 10.000256, 9.999538 
2.6450333e+3, 2.3919812e+2, -672131.5, -727042.06, 48185.34, 0.07534474, -0.49354878, -644128.5, -48318.6, 0.0, 10.00009, 9.999331 
2.6449564e+3, 2.4919744e+2, -645228.2, -632251.44, 55049.984, 0.031583656, -0.4739451, -583308.8, -85491.29, 0.0, 9.999467, 9.999609 
2.6448795e+3, 2.591969e+2, -649387.06, -585610.9, 52149.25, -0.02215968, -0.45781213, -556372.94, -156549.23, 0.0, 9.998774, 9.999591 
2.6448032e+3, 2.6919627e+2, -566991.9, -432677.16, 41180.41, 0.0053616106, -0.47961593, -421056.75, -119227.24, 0.0, 9.998396, 10.000151 
2.644727e+3, 2.7919573e+2, -535874.1, -387794.97, 58461.92, 0.058177087, -0.51064557, -367496.56, -163662.77, 0.0, 9.998025, 9.999966 
2.6446506e+3, 2.891955e+2, -517400.75, -286161.03, 48109.008, 0.07846829, -0.5150536, -276551.38, -170714.19, 0.0, 9.997297, 10.000341 
2.6445735e+3, 2.991959e+2, -517025.03, -213889.44, 22914.637, 0.05050893, -0.4858062, -212167.06, -204332.31, 0.0, 9.996535, 10.000533 
2.6444948e+3, 3.0919826e+2, -441008.16, -37049.21, -19080.252, -0.052792996, -0.3292947, -36149.992, -36149.992, 0.0, 9.996223, 10.001563 
2.644418e+3, 3.1919727e+2, -548622.25, -128201.73, 82960.01, 0.01535014, -0.5226032, -112423.67, -112423.67, 0.0, 9.995652, 10.001213 
2.655887e+3, 1.2929665e+2, -1110379.6, -1689333.9, 19547.49, 0.13151567, -0.45458975, -1109720.4, 563125.06, 0.032037865, 10.005473, 9.997538 
2.655809e+3, 1.3929337e+2, -1031351.06, -1622359.1, 1190.7809, 0.09716473, -0.5014574, -1031348.7, 543528.25, 0.02034742, 10.005367, 9.997376 
2.6557308e+3, 1.4929065e+2, -1016027.6, -1522612.5, 2353.1948, 0.09123241, -0.4966438, -1016016.7, 460887.34, 0.009979716, 10.004564, 9.997772 
2.6556528e+3, 1.5928829e+2, -1031963.3, -1460096.1, -1402.7964, 0.10872538, -0.4848702, -1031958.7, 346969.1, 0.0032725134, 10.003666, 9.997962 
2.655575e+3, 1.692863e+2, -948191.5, -1278776.5, 26569.61, 0.107018754, -0.49530673, -946069.7, 334876.2, 0.0005596382, 10.003174, 9.99877 
2.6554972e+3, 1.7928453e+2, -937552.8, -1271908.3, 34854.246, 0.090777464, -0.50935256, -933958.2, 249003.66, 0.000025614043, 10.002784, 9.998333 
2.6554194e+3, 1.8928246e+2, -889375.44, -1199070.6, 35491.336, 0.046331447, -0.50717276, -885360.1, 199622.75, 0.000000014940245, 10.002449, 9.99832 
2.655342e+3, 1.9928056e+2, -833836.6, -1103981.6, 14822.338, 0.008448472, -0.50094277, -833025.75, 153976.77, 0.0, 10.002081, 9.998478 
2.6552647e+3, 2.0927925e+2, -796545.25, -951811.0, 20011.203, 0.049117904, -0.49306184, -794007.56, 95008.26, 0.0, 10.001306, 9.999222 
2.6551878e+3, 2.1927819e+2, -827926.7, -934800.8, 34609.074, 0.09371022, -0.48752177, -817698.1, -26671.732, 0.0, 10.000497, 9.999057 
2.65511e+3, 2.2927704e+2, -740802.7, -805065.0, 39805.285, 0.04871292, -0.49010366, -721778.44, -28741.15, 0.0, 10.000263, 9.999386 
2.6550326e+3, 2.3927605e+2, -676971.25, -740345.0, 34109.867, -0.0036773905, -0.4939496, -662101.25, -67054.57, 0.0, 10.000099, 9.999237 
2.6549557e+3, 2.4927513e+2, -646104.25, -635570.5, 26603.908, 0.028091498, -0.4936169, -613717.1, -116660.5, 0.0, 9.999469, 9.999587 
2.6548788e+3, 2.5927445e+2, -644550.1, -575461.0, 30913.363, 0.06571895, -0.4916041, -563648.6, -164584.36, 0.0, 9.998769, 9.999664 
2.6548016e+3, 2.692743e+2, -554394.56, -407542.5, 29385.318, 0.024093881, -0.47965753, -401880.72, -100815.234, 0.0, 9.998397, 10.000324 
2.6547238e+3, 2.7927434e+2, -533202.4, -387310.2, 38513.86, -0.017452784, -0.46724766, -377767.2, -174702.72, 0.0, 9.998043, 9.999962 
2.654647e+3, 2.8927407e+2, -536893.4, -327335.34, 15922.098, 0.029665235, -0.45534772, -326132.5, -221063.92, 0.0, 9.997295, 10.000062 
2.6545697e+3, 2.9927406e+2, -530245.7, -236356.98, 1388.2477, 0.062947616, -0.4420743, -236350.42, -229279.95, 0.0, 9.99651, 10.000394 
2.6544917e+3, 3.0927444e+2, -433728.94, -29025.432, -26459.877, 0.034402803, -0.48509178, -27302.795, -27302.795, 0.0, 9.996249, 10.001609 
2.654413e+3, 3.19276e+2, -560483.56, -158990.02, 25333.445, -0.033172477, -0.42045087, -157397.84, -157397.84, 0.0, 9.995674, 10.000994 
2.665892e+3, 1.2937504e+2, -1121289.3, -1669371.3, 32545.309, 0.14376502, -0.43880594, -1119363.4, 552715.06, 0.0275277, 10.005261, 9.997778 
2.6658136e+3, 1.393718e+2, -1121525.3, -1643885.0, 22601.564, 0.087563306, -0.5042365, -1120549.1, 453559.6, 0.01730908, 10.004626, 9.997584 
2.6657346e+3, 1.4936922e+2, -1065450.6, -1530483.4, 31938.59, 0.09149243, -0.4994358, -1063267.4, 412866.8, 0.008347467, 10.00415, 9.997914 
2.6656565e+3, 1.5936702e+2, -1020132.6, -1446799.3, 41097.473, 0.12243587, -0.48357385, -1016210.06, 361946.44, 0.0026633935, 10.003718, 9.998025 
2.6655778e+3, 1.6936511e+2, -945121.5, -1282900.1, 50634.58, 0.1074392, -0.48369706, -937694.44, 342479.78, 0.0004395507, 10.003225, 9.9987135 
2.6654994e+3, 1.7936337e+2, -945450.75, -1271541.4, 34768.438, 0.07687981, -0.4888221, -941784.9, 240405.14, 0.00001925341, 10.002717, 9.9983635 
2.6654214e+3, 1.8936124e+2, -928012.25, -1203411.0, 63562.6, 0.048215043, -0.50150806, -914049.75, 170161.67, 0.0000000057994387, 10.002128, 9.998442 
2.6653436e+3, 1.9935931e+2, -905984.9, -1134607.6, 75878.34, 0.027264737, -0.5099085, -883093.44, 103138.04, 0.0, 10.001573, 9.998509 
2.6652655e+3, 2.0935813e+2, -794428.0, -960473.0, 63486.57, 0.050870407, -0.48097754, -772936.0, 115307.984, 0.0, 10.001367, 9.99913 
2.665188e+3, 2.193572e+2, -731179.0, -890582.0, 54552.168, 0.077492125, -0.45221722, -714297.56, 75956.16, 0.0, 10.001176, 9.99903 
2.6651102e+3, 2.293559e+2, -701211.5, -782732.0, 68182.65, 0.041168284, -0.47172993, -662534.5, 29731.234, 0.0, 10.000525, 9.999411 
2.665032e+3, 2.3935471e+2, -715586.94, -752551.5, 73917.734, 0.0005756544, -0.4970868, -657875.9, -63599.36, 0.0, 9.999812, 9.999289 
2.664955e+3, 2.493539e+2, -653192.25, -629934.2, 71129.31, 0.03272084, -0.49320012, -569489.56, -73204.234, 0.0, 9.999387, 9.999663 
2.6648778e+3, 2.5935334e+2, -613845.9, -560500.1, 81074.805, 0.0703891, -0.4840255, -501823.34, -103531.56, 0.0, 9.998984, 9.999661 
2.6647997e+3, 2.693531e+2, -559599.0, -424099.28, 62471.527, 0.0223275, -0.4697938, -399693.13, -99398.94, 0.0, 9.998426, 10.000195 
2.6647213e+3, 2.7935308e+2, -564732.5, -405729.78, 49525.543, -0.025563417, -0.45395327, -391565.53, -189271.13, 0.0, 9.997846, 9.9999275 
2.664644e+3, 2.89353e+2, -511978.28, -306758.88, 41115.29, 0.022486983, -0.424773, -298828.0, -194531.7, 0.0, 9.997435, 10.0001335 
2.664566e+3, 2.993531e+2, -457915.7, -202696.98, 53018.043, 0.055218875, -0.40617445, -192121.47, -185824.4, 0.0, 9.997015, 10.00038 
2.6644877e+3, 3.093523e+2, -425456.78, -43645.54, 20453.984, 0.043819837, -0.55414397, -42552.926, -42552.926, 0.0, 9.996391, 10.001438 
2.664408e+3, 3.193551e+2, -511785.25, -128573.84, 46423.746, -0.06632061, -0.35097015, -123030.086, -123030.086, 0.0, 9.995985, 10.001049 
2.675897e+3, 1.294536e+2, -1090649.6, -1610309.6, 12068.354, 0.14698061, -0.44419777, -1090369.5, 580940.3, 0.023430115, 10.005262, 9.998191 
2.6758176e+3, 1.3945086e+2, -1096245.6, -1592379.5, 2583.3657, 0.07315899, -0.4980983, -1096232.1, 477101.88, 0.014579219, 10.00462, 9.997943 
2.6757386e+3, 1.4944865e+2, -1044443.0, -1487693.1, 15516.769, 0.09108511, -0.49057668, -1043900.44, 431455.47, 0.006909286, 10.004145, 9.998214 
2.67566e+3, 1.5944667e+2, -1023213.8, -1451401.1, 22911.57, 0.13780479, -0.47390634, -1021991.4, 355384.6, 0.0021450275, 10.003704, 9.998003 
2.6755807e+3, 1.6944447e+2, -977100.25, -1348917.5, 32566.07, 0.09620211, -0.47090963, -974269.44, 305128.3, 0.00034266972, 10.00322, 9.998265 
2.6755017e+3, 1.7944244e+2, -942780.2, -1266888.1, 16120.02, 0.040714618, -0.4726382, -941980.44, 239437.34, 0.000014309305, 10.002717, 9.998398 
2.6754236e+3, 1.894407e+2, -883636.56, -1113236.4, 41923.113, 0.07211478, -0.49102768, -876221.2, 207212.84, 0.000000001728097, 10.002131, 9.999061 
2.6753455e+3, 1.9943923e+2, -895470.7, -1114412.1, 61073.273, 0.1093211, -0.5046777, -879586.75, 105861.555, 0.0, 10.001575, 9.998649 
2.6752666e+3, 2.0943792e+2, -827072.94, -1029333.3, 58759.797, 0.04635398, -0.45783356, -811241.5, 76221.75, 0.0, 10.001368, 9.998659 
2.675188e+3, 2.1943676e+2, -743128.56, -915186.06, 40018.54, -0.021426683, -0.41180333, -734276.2, 55200.547, 0.0, 10.001172, 9.998865 
2.67511e+3, 2.2943535e+2, -687188.75, -754211.06, 40282.867, 0.027664784, -0.453485, -668300.44, 23188.908, 0.0, 10.0005245, 9.999609 
2.6750326e+3, 2.3943411e+2, -702422.0, -726046.1, 52119.48, 0.087245695, -0.50240564, -660792.8, -67293.305, 0.0, 9.999812, 9.999473 
2.6749542e+3, 2.4943373e+2, -642110.06, -608140.3, 57112.55, 0.04308775, -0.4715291, -565540.56, -70036.91, 0.0, 9.999389, 9.999813 
2.6748756e+3, 2.5943357e+2, -619984.1, -576853.25, 63102.37, -0.015858192, -0.43187228, -531733.06, -134226.98, 0.0, 9.998996, 9.999545 
2.6747975e+3, 2.6943263e+2, -592554.56, -493713.6, 38766.523, -0.00081273523, -0.44991776, -480323.03, -180807.16, 0.0, 9.998426, 9.999719 
2.6747194e+3, 2.7943185e+2, -570265.56, -416375.28, 29829.033, 0.038842544, -0.47276464, -410795.72, -209271.42, 0.0, 9.997838, 9.999861 
2.6746416e+3, 2.8943226e+2, -479182.44, -240492.36, 26663.406, 0.06300209, -0.42846242, -237550.14, -134029.2, 0.0, 9.997438, 10.000589 
2.6745626e+3, 2.9943296e+2, -446785.0, -186120.97, 34230.44, 0.030359171, -0.3825984, -181700.77, -176186.3, 0.0, 9.997039, 10.000484 
2.6744828e+3, 3.0943212e+2, -457508.3, -110801.12, -5670.2935, -0.05900057, -0.5059904, -110708.41, -110708.41, 0.0, 9.9963875, 10.00098 
2.6744047e+3, 3.1943393e+2, -476144.88, -58872.47, 52370.348, -0.005178179, -0.3748133, -52400.05, -52400.05, 0.0, 9.995997, 10.001525 
2.685902e+3, 1.295332e+2, -1090769.3, -1622874.8, 54260.887, 0.15239239, -0.45416832, -1085292.4, 585237.06, 0.0197093, 10.005294, 9.998087 
2.685822e+3, 1.3953058e+2, -1112645.4, -1599862.6, 21337.979, 0.083405666, -0.48858428, -1111712.6, 460840.8, 0.012126046, 10.004495, 9.99795 
2.685742e+3, 1.495285e+2, -1069215.0, -1485271.6, 26757.836, 0.08573231, -0.4753821, -1067501.1, 407072.94, 0.0056411973, 10.003911, 9.998341 
2.685663e+3, 1.5952666e+2, -1059322.6, -1454017.6, 28277.252, 0.117448255, -0.45787582, -1057307.0, 319285.9, 0.0017026971, 10.003395, 9.998131 
2.6855835e+3, 1.6952448e+2, -1004442.7, -1349859.9, 67856.28, 0.08898785, -0.46398032, -991590.7, 287023.88, 0.00026316094, 10.002983, 9.99837 
2.6855043e+3, 1.7952244e+2, -956112.0, -1266018.6, 77791.06, 0.048803788, -0.4725713, -937681.44, 242953.13, 0.000010321066, 10.002599, 9.998459 
2.6854253e+3, 1.8952093e+2, -879658.6, -1110780.8, 70271.234, 0.07302624, -0.47190425, -859970.25, 222679.03, 0.0000000002885943, 10.002161, 9.999061 
2.6853466e+3, 1.9951962e+2, -874409.5, -1100036.8, 56734.6, 0.10261144, -0.46746367, -860946.75, 123715.27, 0.0, 10.001707, 9.998681 
2.6852676e+3, 2.095182e+2, -849075.6, -1033986.56, 83516.58, 0.044697814, -0.43782407, -816939.6, 69738.195, 0.0, 10.001196, 9.998707 
2.6851884e+3, 2.1951689e+2, -810190.7, -943766.6, 93508.65, -0.018716557, -0.410364, -762067.8, 26624.69, 0.0, 10.000701, 9.998893 
2.6851103e+3, 2.2951557e+2, -712761.2, -767393.75, 80917.21, 0.023225537, -0.44138348, -654673.9, 36030.64, 0.0, 10.000358, 9.999596 
2.685032e+3, 2.3951444e+2, -675059.06, -715133.5, 78362.95, 0.07833703, -0.476728, -614212.2, -21498.172, 0.0, 10.000014, 9.999448 
2.6849532e+3, 2.4951401e+2, -623322.2, -606335.1, 69141.53, 0.0375277, -0.44405937, -545167.4, -50449.008, 0.0, 9.999553, 9.999744 
2.684874e+3, 2.5951377e+2, -613538.7, -578756.56, 61601.56, -0.01755979, -0.4063379, -532138.25, -135416.88, 0.0, 9.999066, 9.9994955 
2.6847956e+3, 2.6951262e+2, -569579.4, -486196.7, 59969.508, 0.0017554723, -0.43819237, -454850.3, -156117.7, 0.0, 9.998605, 9.999681 
2.6847172e+3, 2.7951166e+2, -533372.5, -404285.38, 78418.086, 0.04683426, -0.4766469, -367264.84, -166521.97, 0.0, 9.998121, 9.9998045 
2.6846388e+3, 2.8951192e+2, -461977.8, -241513.69, 45716.387, 0.064350545, -0.43499008, -232409.69, -129668.89, 0.0, 9.9976015, 10.000501 
2.6845592e+3, 2.9951262e+2, -446682.16, -192401.56, 14455.595, 0.022233456, -0.38121638, -191582.42, -186847.84, 0.0, 9.997072, 10.000422 
2.6844788e+3, 3.095125e+2, -432414.63, -102139.15, -10913.083, -0.07691, -0.4328651, -101778.945, -101778.945, 0.0, 9.99658, 10.000944 
2.6844007e+3, 3.1951302e+2, -447746.7, -35266.527, 93533.945, 0.040835682, -0.42557138, -15047.846, -15047.846, 0.0, 9.996157, 10.001607 
2.695907e+3, 1.2961368e+2, -1123985.5, -1690345.6, 20878.162, 0.15491624, -0.46644974, -1123216.9, 546522.7, 0.016326133, 10.005268, 9.997629 
2.6958263e+3, 1.3961089e+2, -1127782.3, -1635774.6, -3532.1716, 0.11193124, -0.47751722, -1127757.6, 444009.66, 0.009920119, 10.004499, 9.997703 
2.6957455e+3, 1.496088e+2, -1068378.4, -1488089.5, 8469.847, 0.07668325, -0.45657235, -1068207.5, 405581.13, 0.0045222384, 10.0039215, 9.998319 
2.6956657e+3, 1.5960701e+2, -1041007.7, -1417750.6, 12177.897, 0.06789653, -0.43719497, -1040614.44, 335192.6, 0.001323931, 10.003398, 9.998381 
2.695586e+3, 1.6960512e+2, -966444.06, -1271191.8, 53584.063, 0.08492211, -0.4615383, -957296.9, 320527.97, 0.00019687769, 10.002979, 9.998913 
2.6955068e+3, 1.7960338e+2, -954614.94, -1261840.8, 60961.633, 0.09177451, -0.48480138, -942960.6, 236880.63, 0.000007082741, 10.002589, 9.998494 
2.695427e+3, 1.8960184e+2, -919473.5, -1194276.5, 53200.113, 0.05163083, -0.44498876, -909533.8, 172323.9, 0.000000000007316074, 10.002161, 9.998489 
2.6953474e+3, 1.9960044e+2, -877778.9, -1108490.6, 39425.414, 0.016265363, -0.40311378, -871227.6, 112645.234, 0.0, 10.00171, 9.998624 
2.6952687e+3, 2.0959893e+2, -811260.9, -957029.6, 64549.266, 0.048469406, -0.42168412, -786786.44, 99101.55, 0.0, 10.0012, 9.999235 
2.69519e+3, 2.1959755e+2, -797699.6, -917841.0, 78060.56, 0.07829909, -0.44569966, -759271.9, 28629.418, 0.0, 10.000697, 9.999075 
2.6951104e+3, 2.2959651e+2, -729655.0, -803888.1, 69234.016, 0.023703407, -0.43414655, -688215.94, 1695.6224, 0.0, 10.0003605, 9.999345 
2.695031e+3, 2.3959565e+2, -691964.4, -753004.4, 63021.746, -0.029945996, -0.41857785, -652461.44, -60541.3, 0.0, 10.000023, 9.999186 
2.6949522e+3, 2.4959467e+2, -643316.9, -649693.3, 49746.645, 0.017708354, -0.4112447, -596656.4, -102726.46, 0.0, 9.9995575, 9.999447 
2.6948738e+3, 2.5959387e+2, -610972.06, -574892.06, 43163.9, 0.068943225, -0.40823853, -546150.0, -150211.8, 0.0, 9.999069, 9.999523 
2.6947942e+3, 2.6959312e+2, -539615.3, -425432.0, 42226.992, 0.030347917, -0.43493468, -411512.56, -113568.08, 0.0, 9.998608, 10.000098 
2.6947147e+3, 2.7959254e+2, -537948.3, -417203.44, 59821.06, -0.008338721, -0.4629027, -392585.34, -192635.81, 0.0, 9.998132, 9.999713 
2.6946354e+3, 2.89592e+2, -512470.0, -348239.3, 24266.752, 0.01973899, -0.4453964, -344728.7, -242772.16, 0.0, 9.997605, 9.999768 
2.694556e+3, 2.99592e+2, -464808.72, -229814.95, -7247.0093, 0.025471523, -0.40429893, -229591.67, -225632.66, 0.0, 9.9970665, 10.00017 
2.694476e+3, 3.0959332e+2, -401961.6, -41139.605, -31708.988, 0.023376552, -0.32860893, -38374.22, -38374.22, 0.0, 9.996586, 10.001363 
2.694396e+3, 3.1959242e+2, -485603.7, -118376.29, 97791.484, -0.012866518, -0.4905973, -93958.336, -93958.336, 0.0, 9.996166, 10.001037 
2.7059117e+3, 1.2969443e+2, -1145628.0, -1683114.9, 10747.473, 0.13046914, -0.46520543, -1145413.1, 523535.5, 0.013254562, 10.005025, 9.997796 
2.705831e+3, 1.396918e+2, -1132949.3, -1625114.3, 21866.393, 0.12874725, -0.47310388, -1131979.8, 438994.88, 0.007940228, 10.004401, 9.997822 
2.7057493e+3, 1.4968975e+2, -1076730.6, -1487272.8, 45981.992, 0.08356796, -0.45756993, -1071643.5, 401352.3, 0.0035366225, 10.003844, 9.998358 
2.7056685e+3, 1.5968794e+2, -1049055.1, -1416516.0, 50345.145, 0.056756802, -0.4418847, -1042282.3, 332732.22, 0.0009999454, 10.003323, 9.998423 
2.7055886e+3, 1.6968627e+2, -988583.25, -1277467.4, 65085.676, 0.073316835, -0.44612947, -974596.6, 302434.0, 0.00014158584, 10.002812, 9.998947 
2.7055088e+3, 1.7968474e+2, -988918.44, -1272353.6, 48221.375, 0.084906176, -0.4513748, -980939.1, 198106.3, 0.000004518096, 10.002334, 9.998542 
2.7054286e+3, 1.8968306e+2, -938752.8, -1198618.0, 72803.87, 0.049438998, -0.4303011, -919746.25, 161316.72, 0.0, 10.002012, 9.9985285 
2.7053487e+3, 1.996815e+2, -873302.25, -1096217.9, 90058.21, 0.016344873, -0.4091057, -841465.56, 141613.78, 0.0, 10.001701, 9.99871 
2.7052695e+3, 2.0968008e+2, -802572.25, -938157.06, 92258.14, 0.045506462, -0.4279415, -755877.2, 129215.67, 0.0, 10.001201, 9.999362 
2.7051902e+3, 2.1967883e+2, -798621.1, -918834.75, 83739.836, 0.07535261, -0.4485006, -755649.4, 31455.168, 0.0, 10.000697, 9.999064 
2.7051103e+3, 2.2967781e+2, -732122.4, -826083.6, 80114.44, 0.02105786, -0.4213787, -686229.44, 2885.9907, 0.0, 10.000438, 9.999153 
2.7050304e+3, 2.3967691e+2, -674193.94, -752890.5, 75727.78, -0.033700444, -0.39243484, -628201.8, -37076.684, 0.0, 10.000186, 9.9991045 
2.7049515e+3, 2.4967569e+2, -629899.56, -639346.44, 77546.17, 0.01596118, -0.41059348, -556933.1, -63796.246, 0.0, 9.999638, 9.9994755 
2.7048725e+3, 2.5967458e+2, -614387.4, -576239.0, 92056.64, 0.072941564, -0.43405002, -501301.22, -106154.22, 0.0, 9.99905, 9.99952 
2.7047926e+3, 2.696741e+2, -527845.75, -426334.2, 66030.03, 0.03779523, -0.43207973, -393806.63, -96655.414, 0.0, 9.998722, 10.000035 
2.7047127e+3, 2.7967373e+2, -503861.28, -405801.9, 51519.414, -0.0009223532, -0.4301006, -383710.88, -184556.66, 0.0, 9.998392, 9.999663 
2.704633e+3, 2.8967285e+2, -495158.53, -344804.0, 50433.34, 0.0067339404, -0.44495738, -329454.22, -228289.73, 0.0, 9.99775, 9.99972 
2.7045527e+3, 2.996724e+2, -474009.6, -253033.06, 65358.81, 0.00026622284, -0.43676606, -235149.1, -231978.28, 0.0, 9.997089, 9.999996 
2.704473e+3, 3.0967396e+2, -382119.7, -68448.516, 6896.564, 0.0888624, -0.30940723, -68296.95, -68296.95, 0.0, 9.996885, 10.001028 
2.7043918e+3, 3.196726e+2, -451948.5, -81533.02, 89492.71, -0.02232978, -0.49060294, -61044.742, -61044.742, 0.0, 9.996313, 10.001216 
2.715916e+3, 1.2977551e+2, -1106930.8, -1597933.5, -10208.477, 0.086725004, -0.45563436, -1106718.6, 561437.0, 0.010489056, 10.0049925, 9.998401 
2.715835e+3, 1.3977334e+2, -1109609.0, -1574111.8, -478.37823, 0.13490604, -0.47295418, -1109608.5, 460566.97, 0.0061777323, 10.004382, 9.998182 
2.715753e+3, 1.4977127e+2, -1071901.8, -1477905.6, 25633.857, 0.10115735, -0.47296667, -1070289.8, 401906.72, 0.0026764555, 10.0038395, 9.998427 
2.7156717e+3, 1.5976942e+2, -1059103.6, -1438256.0, 30973.27, 0.07402897, -0.46558833, -1056590.1, 317625.84, 0.00072635093, 10.003322, 9.998276 
2.715591e+3, 1.6976792e+2, -1015648.44, -1335025.6, 47430.1, 0.054163422, -0.41941574, -1008753.5, 267478.5, 0.000096515505, 10.002815, 9.998553 
2.7155104e+3, 1.7976654e+2, -983728.44, -1262766.6, 35223.73, 0.03650402, -0.3802878, -979350.75, 198895.98, 0.000002610615, 10.002336, 9.998609 
2.7154306e+3, 1.897646e+2, -899628.25, -1117822.5, 63264.156, 0.06541767, -0.42792967, -882612.2, 197652.6, 0.0, 10.00201, 9.999086 
2.7153507e+3, 1.997628e+2, -862140.8, -1071519.9, 74826.945, 0.09067631, -0.47861293, -838148.7, 144132.73, 0.0, 10.001691, 9.998886 
2.7152702e+3, 2.0976168e+2, -821422.56, -978538.56, 72003.34, 0.032526392, -0.45310265, -793416.8, 90875.87, 0.0, 10.001203, 9.999085 
2.7151898e+3, 2.1976072e+2, -811601.3, -948325.1, 69311.58, -0.024453763, -0.41799963, -782611.0, 3691.3987, 0.0, 10.000705, 9.99886 
2.7151105e+3, 2.2975942e+2, -740041.7, -844871.06, 72261.03, 0.018470407, -0.403158, -703187.4, -14871.15, 0.0, 10.000444, 9.9990225 
2.7150312e+3, 2.3975821e+2, -666827.6, -738558.6, 60992.332, 0.06577535, -0.39900115, -631937.25, -41608.13, 0.0, 10.000187, 9.999205 
2.714951e+3, 2.49757e+2, -605717.2, -589622.3, 54586.69, 0.029143097, -0.44372788, -542493.06, -50153.684, 0.0, 9.999638, 9.999819 
2.7148703e+3, 2.59756e+2, -619020.75, -588374.75, 74764.2, -0.013088219, -0.48258543, -527379.44, -133031.89, 0.0, 9.999057, 9.999435 
2.714791e+3, 2.6975554e+2, -568934.8, -513866.56, 54435.0, 0.024146466, -0.4284959, -480398.25, -184045.16, 0.0, 9.998727, 9.9994335 
2.7147114e+3, 2.7975523e+2, -501347.22, -402372.66, 32477.014, 0.07389655, -0.3754672, -392667.47, -194310.1, 0.0, 9.998396, 9.999687 
2.7146304e+3, 2.8975448e+2, -445189.2, -241485.6, 23553.361, 0.028369825, -0.43196929, -238797.7, -138433.48, 0.0, 9.997748, 10.000432 
2.7145487e+3, 2.9975396e+2, -483470.2, -272899.72, 50451.785, -0.05519098, -0.4801185, -261435.81, -259067.06, 0.0, 9.997087, 9.999864 
2.7144697e+3, 3.097542e+2, -464061.06, -242103.16, 3580.7039, 0.104085915, -0.3983215, -242045.4, -242045.4, 0.0, 9.996895, 9.999833 
2.7143884e+3, 3.1975403e+2, -374124.78, 87086.19, 16206.948, 0.026082516, -0.3959958, 87655.0, 87655.0, 0.0, 9.9962845, 10.002387 
2.7259204e+3, 1.2985738e+2, -1160075.0, -1621257.1, 28767.504, 0.08188448, -0.46171862, -1158287.5, 509066.34, 0.0080406135, 10.004602, 9.998426 
2.7258387e+3, 1.3985544e+2, -1150026.5, -1583438.6, 10390.708, 0.11762853, -0.4578356, -1149777.6, 419594.28, 0.0046379855, 10.004055, 9.998274 
2.7257565e+3, 1.4985348e+2, -1100276.1, -1476161.5, 37401.88, 0.09316348, -0.4579169, -1096590.6, 374800.84, 0.0019431885, 10.00358, 9.998561 
2.7256745e+3, 1.598517e+2, -1079549.3, -1437750.4, 49078.438, 0.0781674, -0.4549853, -1072946.5, 300463.47, 0.00050231, 10.003141, 9.9983635 
2.7255931e+3, 1.6985017e+2, -1030693.1, -1339822.0, 88733.56, 0.059444815, -0.4161856, -1007033.5, 268392.97, 0.000061398336, 10.002706, 9.99857 
2.7255124e+3, 1.7984876e+2, -990545.6, -1261655.3, 97182.77, 0.03945575, -0.38191104, -959308.4, 218133.28, 0.0000013215272, 10.002274, 9.998644 
2.7254322e+3, 1.8984684e+2, -926582.7, -1125344.3, 100173.06, 0.061788317, -0.42844164, -884856.5, 194602.73, 0.0, 10.001807, 9.99913 
2.725352e+3, 1.9984508e+2, -905939.6, -1090953.6, 83530.91, 0.08421995, -0.47901326, -873807.3, 107668.06, 0.0, 10.001389, 9.998895 
2.725271e+3, 2.0984393e+2, -817428.25, -982954.3, 90594.54, 0.0339839, -0.4511625, -777483.94, 106002.695, 0.0, 10.001262, 9.999023 
2.7251905e+3, 2.1984294e+2, -753418.56, -920559.5, 99598.7, -0.016779955, -0.4142597, -706973.94, 78522.73, 0.0, 10.00111, 9.998854 
2.7251107e+3, 2.298415e+2, -735404.0, -837288.44, 111103.336, 0.020874428, -0.41541386, -664120.75, 23390.633, 0.0, 10.000458, 9.999066 
2.725031e+3, 2.3984015e+2, -725725.3, -767772.7, 109882.195, 0.06534983, -0.425809, -634873.6, -45348.37, 0.0, 9.999791, 9.999192 
2.7249503e+3, 2.4983908e+2, -610362.44, -602741.2, 78812.6, 0.027667155, -0.44853133, -527647.1, -36112.445, 0.0, 9.999657, 9.999717 
2.7248693e+3, 2.5983822e+2, -555520.1, -562124.0, 70155.08, -0.016802035, -0.46567202, -488589.3, -95047.18, 0.0, 9.9995165, 9.999392 
2.7247894e+3, 2.698376e+2, -559664.94, -508452.03, 79777.6, 0.01649862, -0.42903605, -450272.1, -154722.84, 0.0, 9.998793, 9.999436 
2.7247092e+3, 2.798371e+2, -551949.1, -419303.28, 94700.63, 0.06819899, -0.39457345, -370010.72, -172455.64, 0.0, 9.998023, 9.999747 
2.7246282e+3, 2.8983665e+2, -437564.5, -226076.66, 51505.46, 0.04493243, -0.42864606, -214200.05, -114641.51, 0.0, 9.997756, 10.000531 
2.7245462e+3, 2.9983634e+2, -426877.75, -254211.25, 44942.113, -0.028976249, -0.46072486, -243214.02, -241653.25, 0.0, 9.997519, 9.999781 
2.7244657e+3, 3.0983558e+2, -476384.44, -278958.34, 52308.176, 0.048777774, -0.45329526, -265955.66, -265955.66, 0.0, 9.996951, 9.99955 
2.724384e+3, 3.1983608e+2, -357149.16, 145819.73, 40140.832, 0.018017564, -0.37000808, 149003.13, 149003.13, 0.0, 9.996192, 10.0028305 
2.7359247e+3, 1.2993993e+2, -1183775.8, -1674642.3, 7996.842, 0.10049481, -0.4753476, -1183645.5, 482898.94, 0.005929623, 10.004614, 9.998051 
2.7358422e+3, 1.3993809e+2, -1160918.6, -1600739.3, -6923.887, 0.081344984, -0.43259352, -1160809.6, 407754.16, 0.0033348242, 10.0040245, 9.998171 
2.7357593e+3, 1.4993633e+2, -1089515.4, -1453517.8, 22234.865, 0.06578381, -0.4212841, -1088162.3, 382419.1, 0.0013426277, 10.003572, 9.998722 
2.7356774e+3, 1.5993473e+2, -1060273.8, -1400056.9, 33785.973, 0.071817346, -0.41904676, -1056946.9, 315650.56, 0.00032761495, 10.003147, 9.998621 
2.735596e+3, 1.6993298e+2, -1006366.4, -1291649.3, 72504.04, 0.08415843, -0.43278426, -988997.1, 285617.4, 0.000035830955, 10.002713, 9.998899 
2.735515e+3, 1.7993136e+2, -991158.1, -1265059.0, 78881.37, 0.08270099, -0.44316334, -970065.25, 206565.3, 0.00000054868656, 10.002279, 9.998619 
2.7354333e+3, 1.8992977e+2, -953049.4, -1184764.0, 82202.24, 0.038933326, -0.4290852, -926849.94, 151796.72, 0.0, 10.001823, 9.998715 
2.7353522e+3, 1.9992828e+2, -913085.3, -1110693.9, 73602.86, 0.005490638, -0.41597015, -888683.8, 91977.75, 0.0, 10.001408, 9.998752 
2.7352723e+3, 2.0992681e+2, -806884.5, -963518.75, 88126.16, 0.051359598, -0.4255329, -767304.25, 115370.836, 0.0, 10.001269, 9.999155 
2.7351922e+3, 2.1992546e+2, -742759.0, -896898.3, 84857.15, 0.089907475, -0.43923134, -705196.75, 79490.766, 0.0, 10.001101, 9.9990225 
2.7351108e+3, 2.2992404e+2, -722634.06, -810774.94, 83312.195, 0.024002396, -0.45834935, -672454.2, 14247.022, 0.0, 10.000456, 9.999251 
2.7350295e+3, 2.3992279e+2, -736527.06, -792200.9, 94310.6, -0.03758928, -0.4685522, -666030.94, -77317.38, 0.0, 9.999796, 9.999023 
2.7349496e+3, 2.4992196e+2, -648589.6, -684656.1, 76465.34, 0.014269538, -0.42105398, -588059.9, -97337.06, 0.0, 9.999664, 9.999153 
2.7348694e+3, 2.5992125e+2, -552575.2, -558527.2, 53610.145, 0.06425271, -0.3794184, -501858.47, -109127.81, 0.0, 9.999524, 9.999414 
2.7347875e+3, 2.6992017e+2, -515548.72, -416276.38, 48060.555, 0.011774128, -0.43748245, -396821.56, -102081.68, 0.0, 9.998788, 10.0000725 
2.734706e+3, 2.7991924e+2, -550486.6, -414498.38, 75952.64, -0.02722508, -0.49480316, -380551.3, -183804.02, 0.0, 9.998013, 9.999787 
2.7346256e+3, 2.8991932e+2, -481356.78, -317750.84, 44415.82, 0.05858838, -0.4334803, -306470.56, -207722.95, 0.0, 9.997755, 9.999905 
2.7345446e+3, 2.999195e+2, -424134.53, -251943.34, 28528.846, 0.08762851, -0.36741996, -247339.72, -246592.84, 0.0, 9.997529, 9.999793 
2.7344608e+3, 3.0991822e+2, -424822.97, -169768.05, 28330.14, -0.09780861, -0.46799746, -166659.19, -166659.19, 0.0, 9.996939, 10.000307 
2.7343804e+3, 3.1991878e+2, -399853.88, 51411.41, -19304.963, 0.056335066, -0.42382315, 52235.76, 52235.76, 0.0, 9.996197, 10.00219 
2.745929e+3, 1.3002336e+2, -1191521.9, -1682965.6, 10323.034, 0.08658935, -0.4518466, -1191305.1, 474422.5, 0.004174162, 10.004569, 9.998016 
2.7458453e+3, 1.4002134e+2, -1233031.4, -1629866.6, 25110.424, 0.07467635, -0.42479545, -1231448.8, 336300.38, 0.002278267, 10.003503, 9.99822 
2.7457625e+3, 1.500196e+2, -1129260.1, -1461067.3, 66369.08, 0.06161404, -0.42055476, -1116477.3, 353288.88, 0.00087591616, 10.003254, 9.998821 
2.7456802e+3, 1.6001804e+2, -1062220.0, -1393871.6, 67790.69, 0.069607854, -0.42165372, -1048898.5, 322882.94, 0.00019949836, 10.003108, 9.998681 
2.7455983e+3, 1.7001636e+2, -1011274.3, -1294292.9, 83624.85, 0.077337116, -0.43015423, -988412.1, 285385.75, 0.000018874509, 10.002685, 9.998893 
2.7455166e+3, 1.8001476e+2, -994942.25, -1269933.6, 76470.38, 0.07225715, -0.43645102, -975107.75, 200705.89, 0.0000001651746, 10.002271, 9.998587 
2.745435e+3, 1.9001316e+2, -918192.5, -1176973.6, 98036.98, 0.03030482, -0.4166224, -885246.5, 192583.69, 0.0, 10.002107, 9.99863 
2.7453536e+3, 2.0001166e+2, -842275.8, -1078603.8, 104913.65, -0.0012044084, -0.39675513, -802422.06, 177423.42, 0.0, 10.001906, 9.998731 
2.745273e+3, 2.1001008e+2, -808608.2, -960868.44, 113091.28, 0.05128792, -0.4168538, -748409.94, 133449.7, 0.0, 10.001246, 9.999183 
2.745193e+3, 2.2000863e+2, -812100.8, -924902.2, 102054.47, 0.09787326, -0.443782, -751899.0, 31973.748, 0.0, 10.000606, 9.999066 
2.745111e+3, 2.3000729e+2, -716432.94, -804113.1, 90003.234, 0.02277882, -0.45745578, -660160.4, 25724.822, 0.0, 10.000486, 9.99928 
2.745029e+3, 2.4000612e+2, -655513.75, -755115.3, 95208.79, -0.048749708, -0.46068826, -597867.6, -9971.107, 0.0, 10.000365, 9.999002 
2.744949e+3, 2.500052e+2, -646747.8, -693611.9, 106077.63, 0.013443848, -0.41799262, -561545.0, -71637.83, 0.0, 9.999723, 9.999061 
2.7448684e+3, 2.6000434e+2, -621461.44, -591031.25, 106160.64, 0.075240545, -0.38229114, -499000.94, -107084.29, 0.0, 9.999054, 9.999415 
2.744786e+3, 2.7000326e+2, -507797.0, -403456.72, 64201.4, 0.007900595, -0.44195548, -372901.16, -78976.01, 0.0, 9.998808, 10.000149 
2.744704e+3, 2.800024e+2, -474228.94, -382384.88, 60260.36, -0.04464369, -0.5010209, -352543.2, -156611.27, 0.0, 9.998562, 9.999741 
2.7446234e+3, 2.900023e+2, -464417.38, -329542.7, 54696.273, 0.06416831, -0.43880752, -310149.84, -212216.03, 0.0, 9.997963, 9.999721 
2.7445418e+3, 3.0000237e+2, -449107.28, -254016.89, 63654.813, 0.10891894, -0.3704397, -235084.61, -235084.61, 0.0, 9.99732, 9.999877 
2.744457e+3, 3.100014e+2, -403407.3, -118201.17, 37797.375, -0.15131667, -0.46893162, -113277.03, -113277.03, 0.0, 9.996913, 10.000671 
2.7443776e+3, 3.20002e+2, -365372.84, 14289.95, -18799.207, 0.14633924, -0.43855563, 15218.532, 15218.532, 0.0, 9.99667, 10.001705 
2.7559325e+3, 1.301075e+2, -1188314.8, -1657580.6, -33875.35, 0.050092187, -0.4061294, -1185882.0, 479022.7, 0.0027769418, 10.004484, 9.998232 
2.7558488e+3, 1.4010519e+2, -1216903.0, -1607082.0, 1847.7836, 0.08813474, -0.42809567, -1216894.3, 350033.8, 0.0014640256, 10.003545, 9.998359 
2.7557653e+3, 1.5010332e+2, -1122243.3, -1454331.4, 62524.01, 0.07330062, -0.44433415, -1110861.6, 358084.22, 0.0005339783, 10.003283, 9.998856 
2.7556828e+3, 1.6010168e+2, -1070168.4, -1410806.5, 56260.93, 0.06885499, -0.45204788, -1061116.6, 309844.88, 0.00011179386, 10.003107, 9.998567 
2.7556002e+3, 1.7010026e+2, -1030057.5, -1335227.0, 66566.46, 0.044581354, -0.41237873, -1016169.44, 256807.22, 0.000008820601, 10.00269, 9.9986105 
2.755518e+3, 1.8009886e+2, -996522.1, -1276091.0, 66810.29, 0.017650273, -0.375492, -981376.56, 193614.84, 0.000000030933013, 10.002281, 9.998542 
2.755437e+3, 1.9009699e+2, -906585.6, -1152223.3, 94152.85, 0.03465948, -0.39470586, -874649.06, 202360.81, 0.0, 10.002102, 9.998804 
2.7553558e+3, 2.000952e+2, -840850.3, -1071682.3, 88539.47, 0.053372283, -0.41755962, -810801.25, 168225.92, 0.0, 10.001887, 9.998789 
2.755274e+3, 2.1009375e+2, -814314.3, -973318.56, 85635.92, 0.03257554, -0.42289576, -776965.7, 104074.65, 0.0, 10.001246, 9.999099 
2.7551922e+3, 2.2009245e+2, -817057.25, -938376.5, 87904.125, 0.011296146, -0.42417997, -770914.6, 12137.364, 0.0, 10.000616, 9.99897 
2.7551112e+3, 2.3009126e+2, -723559.56, -821910.1, 88796.5, 0.020037562, -0.4119724, -671231.06, 13832.431, 0.0, 10.000497, 9.999154 
2.75503e+3, 2.4009013e+2, -646151.3, -736619.9, 80673.08, 0.029889118, -0.40506494, -598896.25, -11821.743, 0.0, 10.000366, 9.99913 
2.754948e+3, 2.500887e+2, -621201.56, -640125.2, 78412.125, 0.022170078, -0.4446225, -551682.44, -62594.26, 0.0, 9.99972, 9.999431 
2.7548665e+3, 2.600874e+2, -626771.9, -602182.0, 89133.08, 0.0107757, -0.4771834, -524499.9, -133399.8, 0.0, 9.999051, 9.999341 
2.7547845e+3, 2.700869e+2, -545862.5, -484003.72, 57081.297, 0.0075778975, -0.4371098, -450010.84, -156905.94, 0.0, 9.99881, 9.999597 
2.7547026e+3, 2.8008652e+2, -480550.84, -398906.94, 43323.402, 0.021045938, -0.40206963, -380202.84, -185094.14, 0.0, 9.998573, 9.999623 
2.754621e+3, 2.9008555e+2, -443479.66, -285558.72, 28297.605, 0.056452334, -0.45017532, -280641.25, -183523.36, 0.0, 9.997958, 10.000026 
2.7545378e+3, 3.0008483e+2, -444440.7, -239531.63, 44080.02, 0.023151938, -0.48796806, -230451.5, -230451.5, 0.0, 9.997296, 9.9999895 
2.754454e+3, 3.100852e+2, -414446.22, -140938.56, 22862.158, -0.08781698, -0.4431441, -139040.72, -139040.72, 0.0, 9.996906, 10.000522 
2.7543736e+3, 3.2008535e+2, -382083.94, -18671.492, 18252.441, 0.13484153, -0.4412587, -17757.063, -17757.063, 0.0, 9.996674, 10.001471 
2.7659363e+3, 1.3019185e+2, -1305121.5, -1690623.9, -1027.3467, 0.049914714, -0.40252924, -1305118.8, 358960.53, 0.0017212156, 10.003574, 9.998444 
2.765852e+3, 1.4018972e+2, -1172770.6, -1581534.6, 29993.303, 0.08660138, -0.4198582, -1170581.5, 395518.66, 0.00087181374, 10.003831, 9.998395 
2.7657682e+3, 1.501878e+2, -1123338.5, -1471900.9, 78184.695, 0.064749785, -0.43049717, -1106604.6, 361514.16, 0.00029899649, 10.003351, 9.9987 
2.7656853e+3, 1.6018607e+2, -1113482.9, -1437910.4, 65078.652, 0.055894937, -0.43543229, -1100915.3, 269220.47, 0.000056233035, 10.002839, 9.998508 
2.7656025e+3, 1.7018452e+2, -1034171.3, -1334930.4, 92167.94, 0.03898937, -0.4059364, -1008173.6, 263977.88, 0.0000035428636, 10.002657, 9.998627 
2.76552e+3, 1.8018305e+2, -969162.5, -1259451.6, 105185.59, 0.018727975, -0.37671325, -935055.94, 239110.64, 0.000000001954365, 10.0024605, 9.998567 
2.7654386e+3, 1.9018126e+2, -941652.5, -1168503.3, 122356.22, 0.035338923, -0.3900181, -888235.56, 187948.86, 0.0, 10.001863, 9.998806 
2.765357e+3, 2.0017949e+2, -926189.8, -1115181.1, 108735.95, 0.053997837, -0.4104058, -876626.7, 101574.9, 0.0, 10.001313, 9.998765 
2.7652746e+3, 2.1017791e+2, -808370.8, -978437.44, 106181.76, 0.024700565, -0.42143646, -757370.2, 122845.62, 0.0, 10.001327, 9.9990225 
2.7651927e+3, 2.2017652e+2, -720714.2, -896691.0, 106782.93, -0.003678186, -0.42524394, -670338.75, 111889.66, 0.0, 10.001304, 9.998923 
2.7651113e+3, 2.3017535e+2, -710612.8, -819691.56, 110310.9, 0.02369237, -0.40713632, -642095.1, 42144.785, 0.0, 10.0006075, 9.999114 
2.76503e+3, 2.401742e+2, -710729.75, -761555.5, 105562.87, 0.052731805, -0.39700335, -627563.94, -41313.004, 0.0, 9.999901, 9.999181 
2.7649477e+3, 2.5017276e+2, -610752.2, -621612.1, 86781.64, 0.025555618, -0.44691664, -529230.75, -40966.81, 0.0, 9.999739, 9.999546 
2.7648652e+3, 2.6017144e+2, -553169.0, -570231.06, 84141.04, -0.0046734735, -0.49005502, -477127.6, -86852.055, 0.0, 9.9995775, 9.999305 
2.7647832e+3, 2.7017087e+2, -529164.1, -499164.84, 72495.4, 0.012918932, -0.44197893, -440133.6, -147851.88, 0.0, 9.999029, 9.999385 
2.7647012e+3, 2.8017038e+2, -503536.0, -414681.5, 76688.88, 0.044734195, -0.39832515, -370480.53, -176193.48, 0.0, 9.99844, 9.999577 
2.764618e+3, 2.901693e+2, -422702.3, -264517.47, 46583.496, 0.040639028, -0.45940784, -251818.64, -155522.13, 0.0, 9.99806, 10.000118 
2.7645347e+3, 3.0016857e+2, -389968.34, -211258.94, 48210.16, -0.01593106, -0.508638, -199082.94, -199082.94, 0.0, 9.997668, 10.000002 
2.7644518e+3, 3.101692e+2, -394203.16, -143238.48, 29271.549, -0.008681633, -0.43042994, -139869.6, -139869.6, 0.0, 9.997102, 10.000409 
2.764369e+3, 3.2016882e+2, -410308.75, -39141.984, 37098.344, 0.038755048, -0.46808925, -35470.305, -35470.305, 0.0, 9.996516, 10.001402 
2.7759397e+3, 1.3027649e+2, -1284723.8, -1658874.6, 12976.747, 0.07263347, -0.4247201, -1284274.1, 378976.34, 0.0009738612, 10.003619, 9.998639 
2.7758554e+3, 1.4027488e+2, -1175682.8, -1589965.3, 23784.809, 0.07062419, -0.4042558, -1174321.8, 390944.63, 0.00047030338, 10.003838, 9.998335 
2.775771e+3, 1.5027295e+2, -1144357.9, -1517693.1, 55823.1, 0.040404316, -0.391275, -1136189.6, 331096.22, 0.00014938685, 10.003357, 9.998386 
2.775688e+3, 1.6027106e+2, -1113041.1, -1439385.0, 52877.5, 0.03451104, -0.3851391, -1104687.3, 264617.34, 0.000024304103, 10.002846, 9.998496 
2.775605e+3, 1.7026919e+2, -1016449.5, -1299251.4, 87952.25, 0.054892436, -0.40782303, -991327.7, 279994.6, 0.0000010959823, 10.00266, 9.998871 
2.7755228e+3, 1.8026747e+2, -966035.75, -1252699.5, 89338.54, 0.06284543, -0.42532945, -940473.0, 232865.67, 0.00000000000031093438, 10.002458, 9.998616 
2.77544e+3, 1.9026595e+2, -950700.9, -1190237.1, 97538.24, 0.031056205, -0.3987405, -916008.3, 159345.7, 0.0, 10.001872, 9.998653 
2.7753574e+3, 2.0026447e+2, -930967.2, -1129591.1, 98953.23, 0.006400458, -0.37756333, -890084.25, 87284.74, 0.0, 10.00133, 9.998659 
2.7752757e+3, 2.1026255e+2, -813172.9, -990355.1, 110072.9, 0.027740354, -0.4135362, -760468.5, 118917.79, 0.0, 10.001333, 9.998939 
2.775194e+3, 2.2026077e+2, -723079.25, -899920.5, 92812.81, 0.046666637, -0.4487258, -683310.9, 98091.43, 0.0, 10.001293, 9.998907 
2.7751115e+3, 2.302595e+2, -708712.3, -815827.7, 80311.19, 0.031359334, -0.44345567, -665738.6, 17676.129, 0.0, 10.000606, 9.999144 
2.775029e+3, 2.402584e+2, -714025.94, -769324.0, 89266.38, 0.017377133, -0.43197426, -648224.7, -62799.137, 0.0, 9.999903, 9.999128 
2.774947e+3, 2.5025743e+2, -620964.75, -644322.8, 83319.22, 0.024879524, -0.4195726, -548510.0, -61075.715, 0.0, 9.9997425, 9.999391 
2.774865e+3, 2.6025647e+2, -551565.4, -569305.3, 70196.516, 0.029356778, -0.4160424, -489680.66, -100237.81, 0.0, 9.999585, 9.999309 
2.774782e+3, 2.7025506e+2, -519450.0, -479062.9, 48714.215, 0.022402287, -0.46228358, -446522.66, -155066.52, 0.0, 9.999027, 9.999525 
2.774699e+3, 2.8025386e+2, -504460.16, -415409.1, 58790.527, 0.022413751, -0.5012555, -386186.06, -192718.48, 0.0, 9.998432, 9.999577 
2.7746156e+3, 2.902537e+2, -435331.25, -291380.2, 33096.402, 0.0157823, -0.46065438, -284135.47, -188666.17, 0.0, 9.998059, 9.999936 
2.7745318e+3, 3.0025372e+2, -394026.84, -223874.72, 29370.53, -0.0077312985, -0.4145055, -218947.66, -218947.66, 0.0, 9.997683, 9.99991 
2.7744496e+3, 3.102532e+2, -397396.06, -148557.52, 5839.8774, 0.09357364, -0.44615784, -148420.55, -148420.55, 0.0, 9.997094, 10.000378 
2.7743644e+3, 3.2025287e+2, -408172.0, -33377.105, -12750.709, -0.045994002, -0.4796147, -32943.82, -32943.82, 0.0, 9.996492, 10.001463 
2.7859432e+3, 1.3036162e+2, -1284397.4, -1667285.1, 36153.957, 0.08087841, -0.41441783, -1281013.5, 381403.5, 0.0004891117, 10.003656, 9.998564 
2.7858585e+3, 1.4035995e+2, -1190634.5, -1596116.1, 20526.746, 0.044039223, -0.39300767, -1189598.1, 374835.6, 0.00022220466, 10.003732, 9.998343 
2.785774e+3, 1.5035811e+2, -1152123.1, -1514974.9, 58054.63, 0.028713537, -0.37682247, -1143061.0, 323391.34, 0.00006336457, 10.003281, 9.998439 
2.78569e+3, 1.603563e+2, -1114948.1, -1434564.9, 78998.234, 0.04194775, -0.3684728, -1096488.6, 271981.8, 0.000008291806, 10.002813, 9.998543 
2.7856073e+3, 1.7035437e+2, -1039387.7, -1309270.5, 107829.98, 0.057543952, -0.3989981, -1001596.7, 268891.56, 0.00000018034233, 10.0025, 9.998879 
2.7855247e+3, 1.8035252e+2, -998739.1, -1269965.9, 92969.766, 0.059564468, -0.42636207, -969931.2, 202573.98, 0.0, 10.002237, 9.998604 
2.7854413e+3, 1.9035095e+2, -923040.7, -1180266.8, 103309.13, 0.027230324, -0.40308332, -886686.8, 187834.2, 0.0, 10.002082, 9.998619 
2.7853587e+3, 2.0034944e+2, -850342.94, -1087974.5, 115081.81, 0.002357535, -0.3815132, -803747.06, 172789.05, 0.0, 10.001881, 9.998676 
2.7852768e+3, 2.1034755e+2, -810748.56, -986843.44, 135292.53, 0.029154407, -0.41736057, -737376.0, 141177.0, 0.0, 10.001344, 9.998956 
2.7851948e+3, 2.2034575e+2, -792207.8, -935697.75, 119441.766, 0.05522444, -0.45444182, -724619.8, 55949.344, 0.0, 10.000833, 9.998882 
2.785112e+3, 2.303444e+2, -703000.2, -821092.5, 97102.805, 0.035127014, -0.4498446, -648400.4, 34182.18, 0.0, 10.000683, 9.999067 
2.785029e+3, 2.4034323e+2, -627960.9, -730154.5, 102466.984, 0.01590535, -0.43839404, -564557.2, 20037.105, 0.0, 10.000508, 9.999104 
2.7849466e+3, 2.5034228e+2, -594058.44, -632612.94, 105931.375, 0.028384566, -0.42347842, -505664.56, -19061.889, 0.0, 9.999936, 9.999376 
2.784864e+3, 2.6034135e+2, -584471.8, -582930.4, 98774.36, 0.0384858, -0.41741437, -484923.72, -96312.82, 0.0, 9.999353, 9.999326 
2.784781e+3, 2.703399e+2, -512476.97, -471269.2, 68807.52, 0.023297401, -0.46834412, -420046.94, -129422.49, 0.0, 9.999063, 9.999558 
2.7846974e+3, 2.8033864e+2, -457382.3, -396138.9, 72953.08, 0.018398644, -0.51181173, -347641.47, -155005.17, 0.0, 9.998778, 9.999538 
2.7846137e+3, 2.9033846e+2, -397177.66, -287924.66, 50028.13, 0.026256718, -0.46092668, -268477.78, -173839.6, 0.0, 9.99839, 9.999799 
2.7845296e+3, 3.0033848e+2, -365750.7, -220883.31, 43191.703, 0.009177891, -0.4049648, -208983.36, -208983.36, 0.0, 9.997926, 9.999811 
2.7844462e+3, 3.1033772e+2, -384425.47, -148239.52, 8728.74, 0.07093795, -0.45350263, -147917.38, -147917.38, 0.0, 9.997214, 10.000319 
2.7843606e+3, 3.203376e+2, -354218.06, 19533.375, 12710.597, -0.03396227, -0.46899387, 19965.14, 19965.14, 0.0, 9.996753, 10.001698 
2.7959466e+3, 1.3044713e+2, -1294925.1, -1698763.9, 42623.754, 0.07781037, -0.38287747, -1290475.4, 371104.28, 0.00020984866, 10.003697, 9.998328 
2.7958614e+3, 1.4044511e+2, -1190047.6, -1587079.6, 14288.733, 0.009260149, -0.38341206, -1189534.1, 374066.56, 0.00008714671, 10.0036955, 9.998424 
2.7957767e+3, 1.5044342e+2, -1128827.4, -1467897.4, 39831.598, 0.025375932, -0.37828785, -1124211.1, 341406.13, 0.000020796237, 10.0032835, 9.998762 
2.795693e+3, 1.604418e+2, -1107237.0, -1425039.5, 64221.992, 0.06748968, -0.3753204, -1094749.5, 272883.2, 0.0000018268473, 10.002839, 9.998597 
2.7956092e+3, 1.7043997e+2, -1051975.1, -1338286.4, 96682.64, 0.048043404, -0.38255432, -1022385.1, 247264.77, 0.0000000041088697, 10.002509, 9.998676 
2.795526e+3, 1.8043816e+2, -1003207.4, -1278502.3, 84829.2, 0.018499348, -0.39164868, -979167.44, 192499.5, 0.0, 10.002233, 9.998549 
2.7954432e+3, 1.9043624e+2, -919274.2, -1172003.4, 98433.75, 0.024241623, -0.40457618, -885460.06, 188225.27, 0.0, 10.002078, 9.998678 
2.7953607e+3, 2.0043448e+2, -844492.5, -1074145.6, 101050.875, 0.034226436, -0.4170349, -806360.2, 169342.23, 0.0, 10.001871, 9.998777 
2.7952778e+3, 2.1043292e+2, -803365.3, -971699.3, 113591.06, 0.027784845, -0.43096477, -746156.9, 131559.03, 0.0, 10.001343, 9.999062 
2.795195e+3, 2.2043146e+2, -795216.8, -942694.4, 107292.08, 0.022356736, -0.44059557, -738767.25, 40961.535, 0.0, 10.0008335, 9.998836 
2.7951124e+3, 2.3043005e+2, -715847.94, -848889.3, 93612.91, 0.035495363, -0.42578185, -667528.0, 14215.413, 0.0, 10.000686, 9.998877 
2.7950296e+3, 2.404287e+2, -628746.3, -732450.8, 88040.266, 0.046720088, -0.41802126, -578423.5, 5333.7754, 0.0, 10.000508, 9.999089 
2.7949464e+3, 2.5042722e+2, -586303.7, -616486.94, 81878.82, 0.035033654, -0.46314618, -518137.28, -32367.705, 0.0, 9.999933, 9.999489 
2.7948627e+3, 2.6042596e+2, -583504.25, -581320.75, 82218.63, 0.019147249, -0.4978046, -500186.63, -112406.52, 0.0, 9.999352, 9.999338 
2.7947792e+3, 2.704254e+2, -519360.53, -486045.66, 58983.94, 0.0146670565, -0.45467538, -441412.2, -151625.92, 0.0, 9.999062, 9.999459 
2.7946958e+3, 2.8042486e+2, -462265.38, -408535.1, 60091.23, 0.030966792, -0.4190024, -369577.06, -177784.69, 0.0, 9.998786, 9.999452 
2.7946123e+3, 2.904236e+2, -403269.97, -301592.03, 34006.47, 0.07862801, -0.46409267, -291266.97, -197463.27, 0.0, 9.998392, 9.999704 
2.7945277e+3, 3.0042264e+2, -376550.8, -241812.63, 20405.479, 0.041695084, -0.49468344, -238790.11, -238790.11, 0.0, 9.997917, 9.999673 
2.794441e+3, 3.1042272e+2, -397978.72, -173683.2, -21896.543, -0.12397866, -0.44369403, -171565.58, -171565.58, 0.0, 9.997198, 10.0001545 
2.7943575e+3, 3.2042277e+2, -324685.72, 79734.586, 53284.66, 0.04216578, -0.4441503, 86637.32, 86637.32, 0.0, 9.99676, 10.002107 
2.80595e+3, 1.3053279e+2, -1250337.0, -1671571.0, 44491.406, 0.08301086, -0.37425083, -1245689.0, 415051.8, 0.00007198371, 10.003978, 9.998381 
2.8058642e+3, 1.4053081e+2, -1301592.6, -1634518.9, 36546.375, 0.0067804623, -0.37333262, -1297628.0, 265133.56, 0.000025492809, 10.002903, 9.99848 
2.8057796e+3, 1.5052913e+2, -1181565.8, -1488679.1, 56612.375, 0.022784257, -0.37151736, -1171462.4, 293315.53, 0.000004397771, 10.002902, 9.998803 
2.8056955e+3, 1.6052751e+2, -1086947.6, -1413279.4, 62357.297, 0.06699897, -0.372451, -1075438.0, 291355.38, 0.00000013286218, 10.002971, 9.998615 
2.8056115e+3, 1.7052567e+2, -1044195.75, -1335939.8, 100750.11, 0.047645, -0.38076884, -1012784.9, 256025.7, 0.0, 10.002575, 9.998659 
2.8055277e+3, 1.8052384e+2, -1010480.25, -1273456.9, 104092.04, 0.016932897, -0.389763, -974265.44, 196561.97, 0.0, 10.002154, 9.998617 
2.805445e+3, 1.9052202e+2, -944771.7, -1174464.0, 122538.805, 0.024864329, -0.4036507, -891673.2, 181171.77, 0.0, 10.001863, 9.998765 
2.8053617e+3, 2.0052029e+2, -880423.56, -1084659.3, 121202.49, 0.039762326, -0.41776603, -824054.5, 150806.97, 0.0, 10.001593, 9.99884 
2.805279e+3, 2.1051879e+2, -805539.8, -968416.6, 124961.09, 0.033721924, -0.42904294, -737822.3, 139052.08, 0.0, 10.001311, 9.999098 
2.8051957e+3, 2.205174e+2, -770042.9, -931110.06, 118968.34, 0.027148113, -0.4344358, -706913.2, 71973.57, 0.0, 10.001014, 9.998825 
2.805113e+3, 2.3051594e+2, -725875.4, -861418.2, 115373.1, 0.04214635, -0.4188314, -659841.3, 21060.834, 0.0, 10.000654, 9.998804 
2.8050295e+3, 2.4051453e+2, -657360.3, -742714.06, 113604.62, 0.057549693, -0.41268283, -578681.0, 4235.8076, 0.0, 10.0003, 9.999118 
2.804946e+3, 2.5051305e+2, -561005.2, -593965.1, 102807.9, 0.045115218, -0.46675456, -473364.78, 11564.094, 0.0, 10.000068, 9.9995775 
2.8048623e+3, 2.6051176e+2, -522019.7, -557385.44, 101884.18, 0.027776217, -0.5070984, -436295.25, -49356.06, 0.0, 9.999805, 9.999282 
2.8047782e+3, 2.7051124e+2, -481313.0, -490147.16, 72615.33, 0.018386338, -0.44342974, -412980.53, -124034.95, 0.0, 9.999421, 9.999257 
2.8046945e+3, 2.805107e+2, -432707.28, -401613.63, 67244.6, 0.030863896, -0.39192173, -348142.06, -157189.78, 0.0, 9.999019, 9.999388 
2.8046104e+3, 2.9050916e+2, -365715.28, -279863.03, 46482.074, 0.07891047, -0.46575522, -259518.02, -166552.36, 0.0, 9.998638, 9.999734 
2.8045252e+3, 3.0050793e+2, -335401.72, -230983.06, 37087.652, 0.036576923, -0.51990396, -219150.94, -219150.94, 0.0, 9.998244, 9.999587 
2.804438e+3, 3.1050816e+2, -308222.5, -153871.61, -8740.242, -0.16389252, -0.4398103, -153378.27, -153378.27, 0.0, 9.997917, 9.999943 
2.8043544e+3, 3.2050803e+2, -267495.6, 59798.504, 60253.12, 0.039732676, -0.42609918, 70538.37, 70538.37, 0.0, 9.997362, 10.0016775 
2.8159535e+3, 1.3061862e+2, -1245229.9, -1645260.9, -3948.7603, 0.08866234, -0.38134384, -1245191.0, 414709.06, 0.000016905276, 10.003912, 9.998591 
2.815867e+3, 1.4061698e+2, -1292928.0, -1630452.8, 17309.33, 0.026064528, -0.36352912, -1292042.6, 269874.7, 0.0000044627095, 10.002962, 9.99848 
2.815782e+3, 1.5061519e+2, -1191541.8, -1514787.6, 62405.293, 0.020637935, -0.35926482, -1179912.3, 284022.78, 0.00000037420037, 10.002922, 9.998616 
2.815698e+3, 1.606134e+2, -1088819.8, -1412698.1, 56274.098, 0.047653813, -0.36235574, -1079320.6, 286631.63, 0.0000000005064632, 10.00295, 9.998631 
2.8156137e+3, 1.706115e+2, -1033354.0, -1314237.8, 84900.89, 0.05335869, -0.39016417, -1009685.9, 258283.75, 0.0, 10.002576, 9.998809 
2.81553e+3, 1.8060967e+2, -999147.4, -1253544.1, 91451.61, 0.04356132, -0.41319114, -969684.25, 200301.8, 0.0, 10.002168, 9.998749 
2.8154463e+3, 1.9060825e+2, -937977.75, -1160899.5, 112620.05, 0.027098063, -0.40001202, -890987.4, 181012.75, 0.0, 10.001862, 9.998858 
2.815363e+3, 2.0060684e+2, -880161.3, -1081774.1, 110606.54, 0.021605847, -0.38909575, -831315.6, 142698.08, 0.0, 10.001581, 9.998867 
2.8152797e+3, 2.1060519e+2, -808886.5, -975290.56, 114346.69, 0.046599317, -0.413815, -750675.1, 125353.336, 0.0, 10.001309, 9.999053 
2.8151968e+3, 2.2060357e+2, -770247.2, -930671.4, 106367.7, 0.06565636, -0.4366888, -717237.4, 60805.74, 0.0, 10.001008, 9.998832 
2.815113e+3, 2.3060209e+2, -722946.75, -856245.6, 101470.2, 0.05375645, -0.42906147, -668194.6, 11864.276, 0.0, 10.000656, 9.998839 
2.8150296e+3, 2.4060072e+2, -651745.8, -733101.3, 102396.75, 0.04479543, -0.42041558, -582242.94, -170.10284, 0.0, 10.000306, 9.999182 
2.814946e+3, 2.5059974e+2, -556443.56, -585613.0, 94228.88, 0.058785114, -0.43084294, -475677.38, 8402.807, 0.0, 10.00007, 9.999635 
2.814862e+3, 2.6059875e+2, -531654.75, -579242.0, 89600.22, 0.06411614, -0.44118908, -462742.72, -76654.914, 0.0, 9.99981, 9.999131 
2.8147772e+3, 2.7059734e+2, -504026.7, -538532.6, 57171.914, 0.034882974, -0.4377126, -461561.22, -173458.34, 0.0, 9.999425, 9.998924 
2.814693e+3, 2.8059602e+2, -434690.63, -407180.5, 51929.266, 0.016409365, -0.4379618, -367215.44, -177098.53, 0.0, 9.9990225, 9.999349 
2.8146082e+3, 2.905951e+2, -354850.6, -258115.03, 31271.406, 0.015388983, -0.4634771, -248886.44, -156762.45, 0.0, 9.998638, 9.999886 
2.8145224e+3, 3.0059442e+2, -335588.22, -234534.19, 23943.258, -0.021393646, -0.47349066, -229148.25, -229148.25, 0.0, 9.998255, 9.999559 
2.8144372e+3, 3.10594e+2, -320649.4, -188164.7, -19451.754, 0.0072754743, -0.43907973, -185367.8, -185367.8, 0.0, 9.9979515, 9.999693 
2.8143504e+3, 3.2059324e+2, -372651.53, -161410.17, -552.9261, -0.06590573, -0.43091163, -161408.72, -161408.72, 0.0, 9.997365, 10.00016 
2.8259566e+3, 1.307048e+2, -1373583.5, -1701738.4, 9710.061, 0.07439675, -0.38190973, -1373296.4, 285759.38, 0.00000202772, 10.003006, 9.998641 
2.8258702e+3, 1.407032e+2, -1208829.0, -1582311.3, 21800.332, 0.049538236, -0.36437595, -1207560.8, 353511.6, 0.00000028941432, 10.0035095, 9.998545 
2.8257847e+3, 1.5070145e+2, -1181984.8, -1504204.4, 77665.4, 0.02958271, -0.3610627, -1164241.9, 298847.7, 0.0000000018666946, 10.002968, 9.998664 
2.8257003e+3, 1.6069971e+2, -1161723.9, -1440336.8, 83698.87, 0.039165594, -0.36526158, -1138513.3, 226593.05, 0.0, 10.00242, 9.998693 
2.825616e+3, 1.7069784e+2, -1070045.3, -1328429.9, 106147.51, 0.048213255, -0.39217755, -1032031.3, 235092.22, 0.0, 10.002309, 9.99884 
2.8255317e+3, 1.8069609e+2, -991257.44, -1244420.3, 102133.62, 0.045671243, -0.41267052, -955191.6, 213948.11, 0.0, 10.002196, 9.9988 
2.8254476e+3, 1.9069475e+2, -945113.06, -1156946.3, 119018.62, 0.031203246, -0.3949623, -891706.8, 179446.08, 0.0, 10.001785, 9.99892 
2.8253642e+3, 2.0069346e+2, -901782.1, -1081868.8, 120889.836, 0.025078582, -0.3795053, -841086.75, 132078.75, 0.0, 10.001396, 9.99895 
2.8252807e+3, 2.1069191e+2, -813660.25, -970843.06, 133150.08, 0.04957133, -0.40044558, -737637.44, 137542.02, 0.0, 10.001252, 9.999109 
2.8251976e+3, 2.2069037e+2, -752693.3, -915534.25, 128455.62, 0.07096914, -0.42115653, -682027.8, 95165.88, 0.0, 10.0011015, 9.99889 
2.8251135e+3, 2.3068886e+2, -703516.6, -841572.3, 121761.11, 0.05838133, -0.41890395, -632578.0, 46631.363, 0.0, 10.00077, 9.998884 
2.8250295e+3, 2.4068752e+2, -634922.5, -724798.75, 123775.07, 0.04920892, -0.41186973, -548180.3, 33042.85, 0.0, 10.000425, 9.99918 
2.8249457e+3, 2.5068668e+2, -548390.44, -588640.75, 107986.65, 0.0661752, -0.4035675, -458669.63, 24560.078, 0.0, 10.000156, 9.999572 
2.8248617e+3, 2.6068574e+2, -521664.0, -578105.5, 97855.26, 0.074220754, -0.40241054, -448041.44, -62804.223, 0.0, 9.999895, 9.999099 
2.8247765e+3, 2.7068397e+2, -470211.47, -523242.1, 85057.03, 0.03953537, -0.43537205, -407632.7, -120377.4, 0.0, 9.999665, 9.998912 
2.8246915e+3, 2.8068233e+2, -384431.63, -382386.13, 94985.23, 0.014566503, -0.46314153, -288418.16, -99146.6, 0.0, 9.999373, 9.999346 
2.8246063e+3, 2.9068178e+2, -320772.03, -246527.97, 60845.086, -0.0066218805, -0.4472046, -212374.7, -121099.48, 0.0, 9.998896, 9.99984 
2.8245202e+3, 3.0068132e+2, -305460.84, -228793.58, 48828.16, -0.04788342, -0.428784, -205049.39, -205049.39, 0.0, 9.998499, 9.999482 
2.8244352e+3, 3.1068012e+2, -240939.63, -164806.3, 14906.125, 0.064061135, -0.45935082, -161991.88, -161991.88, 0.0, 9.998567, 9.999555 
2.824347e+3, 3.2067922e+2, -286152.84, -155813.34, 7397.68, -0.1101558, -0.44146562, -155394.81, -155394.81, 0.0, 9.998121, 9.999831 
2.835959e+3, 1.3079128e+2, -1366170.5, -1700828.5, 36396.652, 0.051577013, -0.37513462, -1362257.8, 295950.6, 0.0000000446266, 10.003069, 9.998616 
2.8358737e+3, 1.4078957e+2, -1208040.9, -1566713.8, 19919.857, 0.06954933, -0.37122566, -1206938.0, 353287.94, 0.000000000017311715, 10.003448, 9.998683 
2.8357872e+3, 1.5078796e+2, -1168342.0, -1473817.9, 54066.69, 0.040480852, -0.3742645, -1159054.9, 303186.2, 0.0, 10.002956, 9.998879 
2.835702e+3, 1.6078638e+2, -1153649.3, -1430807.5, 72479.94, 0.03586049, -0.37966835, -1135839.4, 228416.66, 0.0, 10.00245, 9.998746 
2.8356177e+3, 1.7078464e+2, -1076598.1, -1342010.1, 104251.68, 0.03534563, -0.3875998, -1040546.06, 225726.81, 0.0, 10.002307, 9.99875 
2.8355333e+3, 1.8078297e+2, -995493.0, -1247027.3, 91578.414, 0.029353386, -0.3923126, -965683.8, 202605.23, 0.0, 10.002169, 9.998796 
2.8354493e+3, 1.9078152e+2, -941777.06, -1150719.0, 102870.57, 0.03625831, -0.38949582, -899631.06, 170672.27, 0.0, 10.001787, 9.998963 
2.8353655e+3, 2.0078017e+2, -892288.6, -1064645.9, 111858.55, 0.044547416, -0.3868447, -837261.44, 135055.06, 0.0, 10.001406, 9.999065 
2.8352818e+3, 2.1077898e+2, -802814.06, -949138.7, 129247.29, 0.042199545, -0.3879549, -727458.44, 146868.95, 0.0, 10.001253, 9.999259 
2.835198e+3, 2.2077775e+2, -746744.2, -901738.9, 119011.23, 0.041339647, -0.38944593, -682222.1, 94116.51, 0.0, 10.001094, 9.998989 
2.835114e+3, 2.307763e+2, -700880.94, -835829.75, 108438.23, 0.056646835, -0.38915768, -640638.3, 37715.39, 0.0, 10.000766, 9.998926 
2.8350297e+3, 2.4077488e+2, -642285.1, -739264.8, 112412.18, 0.07060384, -0.3878019, -568350.44, 12017.491, 0.0, 10.00042, 9.9990835 
2.8349456e+3, 2.5077382e+2, -563249.6, -619986.25, 98050.07, 0.065741695, -0.38587317, -489546.5, -7168.7026, 0.0, 10.000157, 9.999356 
2.834861e+3, 2.6077268e+2, -512474.56, -562226.56, 87735.65, 0.05230746, -0.39099047, -446156.47, -61768.777, 0.0, 9.999906, 9.999204 
2.8347757e+3, 2.7077106e+2, -445423.5, -473714.22, 76294.336, 0.0310035, -0.43538007, -381974.28, -95571.805, 0.0, 9.99967, 9.999251 
2.8346908e+3, 2.8076965e+2, -381742.47, -379579.88, 80882.99, 0.02368137, -0.46701723, -299770.97, -111355.516, 0.0, 9.999384, 9.999362 
2.834605e+3, 2.9076928e+2, -340108.16, -287004.9, 42589.82, 0.02026029, -0.41489008, -263368.06, -172949.27, 0.0, 9.998897, 9.999562 
2.8345186e+3, 3.0076873e+2, -315752.2, -249446.88, 44464.086, -0.033831738, -0.38106352, -227136.44, -227136.44, 0.0, 9.998493, 9.999344 
2.8344327e+3, 3.107665e+2, -240888.6, -169156.53, 20249.838, -0.035644908, -0.51175445, -163834.84, -163834.84, 0.0, 9.998583, 9.999518 
2.8343454e+3, 3.207666e+2, -204687.6, 9420.473, -58126.48, -0.055570863, -0.4217224, 24182.914, 24182.914, 0.0, 9.998137, 10.000959 
2.845962e+3, 1.3087793e+2, -1313667.4, -1659016.6, 39821.87, 0.055154804, -0.37344274, -1309135.1, 348224.13, 0.0, 10.003357, 9.998765 
2.845876e+3, 1.4087626e+2, -1343404.5, -1614617.6, 32474.05, 0.06902846, -0.3793275, -1339570.4, 219805.67, 0.0, 10.002444, 9.998837 
2.8457898e+3, 1.5087482e+2, -1229089.3, -1489744.6, 65208.746, 0.036158495, -0.38071674, -1213686.1, 247703.73, 0.0, 10.002482, 9.998999 
2.8457043e+3, 1.6087337e+2, -1135733.1, -1413803.5, 77399.195, 0.0317185, -0.38161597, -1115641.3, 247762.22, 0.0, 10.002538, 9.99882 
2.8456196e+3, 1.7087176e+2, -1106192.3, -1351914.5, 114808.68, 0.034509353, -0.3812086, -1060899.0, 204520.3, 0.0, 10.0020895, 9.998783 
2.8455353e+3, 1.8087019e+2, -1059411.9, -1265844.4, 113829.02, 0.028853692, -0.38172764, -1008970.56, 158464.31, 0.0, 10.001684, 9.998896 
2.8454506e+3, 1.9086877e+2, -950479.5, -1143335.6, 129997.62, 0.03352013, -0.3866939, -885050.4, 184398.38, 0.0, 10.001679, 9.999065 
2.8453666e+3, 2.0086744e+2, -855251.0, -1041200.2, 137271.9, 0.043660603, -0.38829446, -782431.0, 189030.6, 0.0, 10.001635, 9.999118 
2.8452826e+3, 2.1086633e+2, -814104.8, -953896.7, 143201.17, 0.04430114, -0.3811355, -724652.0, 148819.98, 0.0, 10.001174, 9.999263 
2.8451985e+3, 2.2086523e+2, -786626.5, -906221.9, 129795.1, 0.04376687, -0.37512305, -703516.75, 71965.734, 0.0, 10.00076, 9.999118 
2.8451142e+3, 2.308639e+2, -690043.3, -809038.94, 129459.99, 0.05413642, -0.38048813, -607063.5, 70432.35, 0.0, 10.000751, 9.999117 
2.84503e+3, 2.4086256e+2, -602094.4, -719741.6, 140458.6, 0.06588067, -0.3842525, -508639.22, 70869.77, 0.0, 10.000697, 9.9990835 
2.8449452e+3, 2.5086138e+2, -550002.4, -631079.44, 127997.8, 0.05993958, -0.3792031, -456276.94, 25243.676, 0.0, 10.000326, 9.999198 
2.8448603e+3, 2.608602e+2, -504331.34, -550849.56, 122294.695, 0.04706754, -0.3804505, -403103.6, -19571.697, 0.0, 9.999935, 9.999265 
2.844775e+3, 2.7085876e+2, -416870.8, -436626.13, 103943.66, 0.023378905, -0.4220089, -322336.53, -36792.258, 0.0, 9.999766, 9.99946 
2.8446898e+3, 2.808575e+2, -354445.94, -366555.47, 94129.555, 0.019491129, -0.4512158, -266176.63, -78621.4, 0.0, 9.999568, 9.999366 
2.844604e+3, 2.9085705e+2, -311200.8, -291717.97, 57970.88, 0.047926232, -0.3947166, -242675.75, -153115.95, 0.0, 9.999176, 9.999394 
2.8445172e+3, 3.0085638e+2, -275073.5, -231546.03, 77258.555, 0.0015985622, -0.36033985, -173044.31, -173044.31, 0.0, 9.998788, 9.999321 
2.84443e+3, 3.108539e+2, -246024.13, -167080.11, 66254.43, -0.107393146, -0.5165636, -129430.86, -129430.86, 0.0, 9.998535, 9.999555 
2.8443438e+3, 3.2085454e+2, -126145.836, 54312.973, -55489.906, -0.030718999, -0.37883165, 70010.31, 70010.31, 0.0, 9.998649, 10.00102 
2.8559652e+3, 1.3096476e+2, -1304921.5, -1628586.0, -1234.6635, 0.064748906, -0.3781942, -1304916.8, 351591.66, 0.0, 10.003306, 9.998997 
2.855878e+3, 1.4096327e+2, -1328790.3, -1592063.0, 19083.607, 0.057120938, -0.3873903, -1327414.1, 231108.86, 0.0, 10.002477, 9.998977 
2.8557917e+3, 1.5096198e+2, -1223959.3, -1483003.1, 71796.06, 0.02534505, -0.378615, -1205391.3, 255144.36, 0.0, 10.002498, 9.999039 
2.8557062e+3, 1.6096069e+2, -1129896.4, -1398301.8, 69441.625, 0.02706275, -0.37082955, -1112994.9, 249553.52, 0.0, 10.0025215, 9.998935 
2.8556213e+3, 1.7095919e+2, -1094359.6, -1329385.3, 96741.16, 0.03914447, -0.37558255, -1059661.6, 204901.36, 0.0, 10.002097, 9.998935 
2.8555363e+3, 1.809577e+2, -1045897.0, -1242450.4, 107635.9, 0.03645368, -0.38213658, -998421.2, 168156.14, 0.0, 10.001703, 9.999049 
2.855452e+3, 1.9095641e+2, -941325.1, -1124357.4, 131894.95, 0.023616584, -0.38579443, -872306.25, 196283.31, 0.0, 10.001677, 9.999199 
2.8553677e+3, 2.0095521e+2, -859630.94, -1044920.94, 126337.445, 0.023628607, -0.38595358, -795609.9, 174991.52, 0.0, 10.001611, 9.999104 
2.8552833e+3, 2.10954e+2, -823807.8, -973703.75, 124305.3, 0.055540215, -0.3799248, -753604.1, 119009.414, 0.0, 10.001172, 9.999128 
2.8551993e+3, 2.2095281e+2, -776666.4, -885195.0, 123015.91, 0.07579289, -0.37732854, -696478.0, 78147.27, 0.0, 10.000757, 9.999264 
2.8551146e+3, 2.3095167e+2, -666737.56, -761960.5, 130711.445, 0.04844557, -0.39101562, -575236.4, 101399.43, 0.0, 10.000754, 9.999439 
2.85503e+3, 2.4095054e+2, -593699.8, -705820.7, 131478.98, 0.027494231, -0.3999878, -506828.47, 71817.9, 0.0, 10.00071, 9.999174 
2.854945e+3, 2.509494e+2, -556195.6, -644427.1, 111754.72, 0.04915338, -0.38402718, -480164.28, 493.82813, 0.0, 10.000325, 9.999108 
2.85486e+3, 2.6094827e+2, -504536.4, -551584.2, 112557.25, 0.059902746, -0.3729452, -413071.16, -30401.52, 0.0, 9.999934, 9.999261 
2.8547743e+3, 2.709471e+2, -413992.13, -430911.25, 99157.695, 0.015638558, -0.39387584, -322933.78, -38253.293, 0.0, 9.999767, 9.999499 
2.8546888e+3, 2.8094602e+2, -354187.22, -367432.03, 81378.12, -0.0007859079, -0.41026863, -279162.47, -92472.0, 0.0, 9.999571, 9.999359 
2.854603e+3, 2.9094517e+2, -314827.9, -299758.84, 43251.492, 0.07648414, -0.38897577, -263390.53, -174692.27, 0.0, 9.999176, 9.999341 
2.8545162e+3, 3.0094427e+2, -266155.06, -215020.45, 65781.43, 0.055169493, -0.37579167, -170012.39, -170012.39, 0.0, 9.998796, 9.999432 
2.8544277e+3, 3.1094262e+2, -239261.78, -148722.69, 58023.92, -0.1474733, -0.46225062, -120398.03, -120398.03, 0.0, 9.998516, 9.99969 
2.854342e+3, 3.2094282e+2, -218688.11, -141076.67, -14129.545, -0.047001835, -0.3448984, -138584.36, -138584.36, 0.0, 9.998659, 9.999675 
2.8659675e+3, 1.3105212e+2, -1384712.5, -1657484.5, 6115.2544, 0.05266946, -0.3772775, -1384575.5, 271076.94, 0.0, 10.002714, 9.999085 
2.86588e+3, 1.4105076e+2, -1326683.9, -1578512.6, 34834.54, 0.055093504, -0.38409838, -1321954.1, 235711.75, 0.0, 10.002438, 9.999087 
2.8657937e+3, 1.5104955e+2, -1249442.3, -1483768.4, 98983.555, 0.02764048, -0.37482297, -1213227.0, 246450.48, 0.0, 10.002275, 9.999138 
2.8657085e+3, 1.6104835e+2, -1179749.6, -1410038.6, 92549.375, 0.031079384, -0.36841416, -1147165.9, 214523.4, 0.0, 10.002129, 9.999042 
2.865623e+3, 1.7104688e+2, -1106231.8, -1324470.1, 110969.75, 0.039128937, -0.37755743, -1059719.0, 203984.4, 0.0, 10.001971, 9.999028 
2.8655377e+3, 1.8104549e+2, -1029913.9, -1228797.4, 119546.17, 0.035737477, -0.38460594, -973856.6, 191860.47, 0.0, 10.001786, 9.999104 
2.865453e+3, 1.910443e+2, -973886.1, -1138181.3, 138327.81, 0.026255477, -0.38298696, -895152.3, 172576.53, 0.0, 10.001448, 9.999213 
2.8653687e+3, 2.0104314e+2, -917251.94, -1060061.9, 129672.44, 0.025763432, -0.38053265, -840624.44, 129115.81, 0.0, 10.0011635, 9.999212 
2.865284e+3, 2.1104202e+2, -817789.56, -954957.4, 142259.64, 0.050292067, -0.37772232, -728444.5, 143306.7, 0.0, 10.001148, 9.999267 
2.8651997e+3, 2.2104092e+2, -724678.7, -853242.75, 153723.9, 0.069538295, -0.37603423, -622337.75, 151424.17, 0.0, 10.001086, 9.999325 
2.865115e+3, 2.3103982e+2, -675192.2, -766840.3, 141409.44, 0.05007086, -0.38683915, -572367.44, 103405.08, 0.0, 10.000702, 9.999431 
2.8650302e+3, 2.4103877e+2, -635806.44, -706570.6, 125676.55, 0.034175627, -0.39323235, -540626.3, 37156.344, 0.0, 10.00034, 9.999345 
2.864945e+3, 2.5103787e+2, -552642.6, -614192.06, 125557.69, 0.046781253, -0.3805113, -454143.16, 25648.861, 0.0, 10.00023, 9.99936 
2.8648597e+3, 2.6103693e+2, -479315.3, -532798.56, 147353.45, 0.052753784, -0.3694144, -356296.63, 25504.994, 0.0, 10.000079, 9.99932 
2.864774e+3, 2.7103585e+2, -414633.13, -440245.78, 127352.08, 0.02211889, -0.3723422, -299445.1, -15632.668, 0.0, 9.999804, 9.999416 
2.864688e+3, 2.810349e+2, -361727.63, -365412.13, 101237.85, 0.015011977, -0.37236091, -262315.28, -76493.07, 0.0, 9.999502, 9.999402 
2.864602e+3, 2.91034e+2, -275634.2, -268320.1, 77180.13, 0.061703578, -0.35962167, -194710.42, -106881.2, 0.0, 9.999395, 9.99945 
2.8645146e+3, 3.01033e+2, -194115.77, -194339.53, 103182.86, 0.03207204, -0.3642991, -91044.73, -91044.73, 0.0, 9.999354, 9.999305 
2.864427e+3, 3.1103083e+2, -141693.33, -141592.4, 63489.227, -0.078337274, -0.47425887, -78153.625, -78153.625, 0.0, 9.999364, 9.99933 
2.86434e+3, 3.2103106e+2, -183588.02, -76182.11, -12801.096, -0.084404044, -0.33971235, -74677.5, -74677.5, 0.0, 9.998699, 10.000098 
2.8759694e+3, 1.3113995e+2, -1386576.6, -1656677.1, -6001.466, 0.029731981, -0.36746183, -1386443.4, 268348.72, 0.0, 10.002695, 9.999099 
2.875882e+3, 1.4113863e+2, -1318628.8, -1563031.8, 27815.467, 0.05519243, -0.37449968, -1315503.0, 241302.36, 0.0, 10.002442, 9.999192 
2.8757957e+3, 1.511375e+2, -1238774.9, -1463413.3, 92934.63, 0.033711072, -0.37434176, -1205311.9, 253504.05, 0.0, 10.002282, 9.999275 
2.87571e+3, 1.6113633e+2, -1174738.4, -1400072.4, 85857.55, 0.037875928, -0.3757035, -1145753.0, 215073.86, 0.0, 10.00213, 9.99911 
2.8756246e+3, 1.711349e+2, -1105655.6, -1322077.1, 104954.27, 0.03700564, -0.38328898, -1063118.4, 199722.3, 0.0, 10.001964, 9.999049 
2.8755394e+3, 1.8113354e+2, -1034530.2, -1234668.5, 109102.62, 0.030064028, -0.38604438, -986554.7, 178299.42, 0.0, 10.00177, 9.999071 
2.8754544e+3, 1.9113234e+2, -978449.94, -1148994.5, 125188.14, 0.038231794, -0.37915313, -912251.3, 154615.36, 0.0, 10.001452, 9.999137 
2.8753695e+3, 2.0113122e+2, -901789.0, -1029284.8, 124992.69, 0.043664698, -0.37437144, -825226.7, 143651.34, 0.0, 10.001168, 9.999422 
2.8752849e+3, 2.1113043e+2, -791200.75, -900179.9, 142814.81, 0.027744114, -0.37440443, -692833.56, 178051.47, 0.0, 10.001147, 9.999645 
2.8752e+3, 2.2112958e+2, -729553.44, -860043.1, 143768.02, 0.021451049, -0.37333983, -636918.2, 135974.73, 0.0, 10.001071, 9.999286 
2.8751156e+3, 2.3112835e+2, -698674.7, -814412.8, 125562.87, 0.060699984, -0.3693734, -618287.25, 56618.953, 0.0, 10.000696, 9.999106 
2.8750306e+3, 2.4112725e+2, -618148.75, -669634.8, 117884.73, 0.08802115, -0.36625043, -523228.97, 53689.02, 0.0, 10.000339, 9.9996 
2.874945e+3, 2.5112674e+2, -511512.0, -529779.9, 121912.61, 0.049827337, -0.36794007, -398391.66, 80530.5, 0.0, 10.000233, 9.99994 
2.8748593e+3, 2.6112613e+2, -469404.94, -516038.44, 139085.56, 0.016060123, -0.36682063, -351695.22, 29232.21, 0.0, 10.000093, 9.99943 
2.8747737e+3, 2.7112502e+2, -429927.94, -471945.5, 115278.85, 0.04431997, -0.35761613, -333759.16, -50819.137, 0.0, 9.999802, 9.999201 
2.8746876e+3, 2.8112411e+2, -353614.2, -349996.53, 92393.78, 0.06678698, -0.3410675, -259393.88, -74443.305, 0.0, 9.999505, 9.999508 
2.8746e+3, 2.9112378e+2, -253855.84, -225452.33, 78003.35, -0.009591412, -0.3033251, -160368.45, -73416.6, 0.0, 9.999404, 9.999741 
2.8745124e+3, 3.011227e+2, -222227.95, -255929.64, 102237.625, -0.07943468, -0.31802678, -135461.8, -135461.8, 0.0, 9.999371, 9.998874 
2.8744283e+3, 3.1111833e+2, -208430.39, -283941.0, 66170.195, 0.1388415, -0.5600106, -170001.98, -170001.98, 0.0, 9.999384, 9.99834 
2.874337e+3, 3.2111967e+2, 2508.8145, 324369.75, -114692.0, -0.18833771, -0.33733746, 361057.28, 361057.28, 0.0, 9.998635, 10.002884 
2.8859717e+3, 1.3122791e+2, -1454654.8, -1684538.1, 5330.7217, 0.04035456, -0.36812562, -1454531.3, 199398.89, 0.0, 10.002203, 9.999146 
2.885884e+3, 1.4122674e+2, -1358171.3, -1578714.4, 38917.516, 0.056703903, -0.36202395, -1351505.3, 204437.0, 0.0, 10.002157, 9.999221 
2.8857976e+3, 1.5122554e+2, -1278965.6, -1484954.6, 93406.09, 0.032268282, -0.36928743, -1242918.5, 215035.06, 0.0, 10.002017, 9.999253 
2.8857118e+3, 1.6122432e+2, -1207385.0, -1406170.1, 78771.25, 0.03611908, -0.3760267, -1179955.6, 180009.4, 0.0, 10.001864, 9.999195 
2.885626e+3, 1.712231e+2, -1139076.8, -1322762.0, 103361.3, 0.042365886, -0.37704432, -1092649.3, 169327.48, 0.0, 10.001668, 9.9991865 
2.8855404e+3, 1.8122189e+2, -1071011.4, -1245028.4, 115283.97, 0.037829, -0.3762295, -1013586.94, 150401.78, 0.0, 10.001489, 9.999133 
2.8854552e+3, 1.9122067e+2, -984448.44, -1150087.1, 135589.78, 0.034174018, -0.3728758, -908385.3, 157616.31, 0.0, 10.001406, 9.99915 
2.8853703e+3, 2.0121959e+2, -879663.9, -1009090.06, 136898.13, 0.034706086, -0.368145, -792954.1, 175058.8, 0.0, 10.001279, 9.999508 
2.8852853e+3, 2.1121895e+2, -814765.44, -897535.94, 138621.25, 0.027338581, -0.3640476, -711483.56, 158534.83, 0.0, 10.000926, 9.99977 
2.8852007e+3, 2.2121826e+2, -785717.94, -871203.75, 131310.19, 0.024664272, -0.3596952, -690369.1, 81655.484, 0.0, 10.000618, 9.999427 
2.8851157e+3, 2.3121716e+2, -708954.9, -803024.7, 141236.0, 0.052753594, -0.35794458, -607127.75, 66909.06, 0.0, 10.000557, 9.999251 
2.8850305e+3, 2.4121618e+2, -591630.6, -643761.94, 155657.13, 0.07628791, -0.35503712, -459871.8, 116175.734, 0.0, 10.000465, 9.999716 
2.8849447e+3, 2.512158e+2, -509081.25, -520081.38, 125669.28, 0.05143536, -0.35108382, -388791.72, 89258.69, 0.0, 10.000215, 10.000013 
2.8848588e+3, 2.6121533e+2, -477553.8, -500624.84, 116901.195, 0.02807238, -0.3459942, -371620.34, 8434.014, 0.0, 9.999962, 9.999594 
2.884773e+3, 2.712144e+2, -431898.25, -454891.47, 113123.266, 0.04183561, -0.34235737, -329688.9, -47622.86, 0.0, 9.999716, 9.999355 
2.884687e+3, 2.8121355e+2, -354703.47, -333457.5, 116604.375, 0.053361822, -0.32823968, -226993.22, -42917.48, 0.0, 9.999428, 9.999656 
2.8845993e+3, 2.912135e+2, -202102.1, -204703.84, 106246.94, -0.013661882, -0.26810837, -97148.07, -11073.572, 0.0, 9.9997835, 9.999697 
2.884512e+3, 3.012125e+2, -114514.92, -218026.97, 102586.99, -0.06563261, -0.26725134, -51367.605, -51367.605, 0.0, 10.0001745, 9.998747 
2.8844276e+3, 3.1120756e+2, -239158.47, -337944.9, 102341.1, 0.18713191, -0.54235184, -174914.58, -174914.58, 0.0, 9.999349, 9.997993 
2.884335e+3, 3.2120928e+2, 174803.81, 461124.5, -94358.445, -0.25449574, -0.26245067, 489423.75, 489423.75, 0.0, 9.999584, 10.00338 
2.895974e+3, 1.3131596e+2, -1453442.4, -1676331.9, 2893.102, 0.06954828, -0.3794816, -1453404.8, 199662.17, 0.0, 10.002182, 9.999211 
2.8958857e+3, 1.4131512e+2, -1361030.4, -1585775.0, 35704.152, 0.05813953, -0.345444, -1355494.5, 199581.83, 0.0, 10.002162, 9.99917 
2.895799e+3, 1.5131374e+2, -1289510.8, -1507628.3, 88114.72, 0.027173003, -0.35743707, -1258362.5, 198727.6, 0.0, 10.002019, 9.999098 
2.8957132e+3, 1.613124e+2, -1201013.4, -1392200.8, 73076.805, 0.029828127, -0.36823374, -1176280.9, 182822.1, 0.0, 10.001861, 9.999293 
2.8956273e+3, 1.7131145e+2, -1121759.4, -1288294.1, 95589.18, 0.05071037, -0.36470076, -1078256.4, 182855.56, 0.0, 10.001674, 9.999421 
2.8955418e+3, 1.8131046e+2, -1061471.9, -1226155.9, 110128.7, 0.050892767, -0.3618653, -1006305.56, 156815.86, 0.0, 10.001492, 9.999262 
2.8954563e+3, 1.9130924e+2, -979686.7, -1139336.0, 132968.97, 0.015808512, -0.3645779, -904421.94, 160712.1, 0.0, 10.001399, 9.9992285 
2.895371e+3, 2.0130819e+2, -885337.4, -1015768.8, 127186.734, 0.00093864254, -0.3625918, -807621.06, 159524.13, 0.0, 10.001257, 9.999474 
2.895286e+3, 2.1130757e+2, -822061.7, -912059.75, 124912.164, 0.04807469, -0.34738758, -734290.4, 134860.75, 0.0, 10.000923, 9.999672 
2.8952014e+3, 2.2130696e+2, -763650.06, -825111.44, 125452.766, 0.0741689, -0.3377123, -665218.94, 105937.94, 0.0, 10.000616, 9.999744 
2.8951156e+3, 2.3130624e+2, -667993.8, -717875.75, 139958.05, 0.021856613, -0.35145894, -550771.8, 122392.41, 0.0, 10.000555, 9.999837 
2.8950298e+3, 2.4130556e+2, -595147.8, -651896.2, 147664.28, -0.008779415, -0.3580323, -473156.34, 102014.945, 0.0, 10.000467, 9.99966 
2.8949448e+3, 2.51305e+2, -541527.2, -586238.1, 114970.125, 0.05472907, -0.3300136, -446759.25, 30417.863, 0.0, 10.000211, 9.999561 
2.894859e+3, 2.613045e+2, -460224.8, -465854.75, 108846.62, 0.09067423, -0.3077599, -354156.75, 25026.225, 0.0, 9.999966, 9.999831 
2.894772e+3, 2.7130383e+2, -393665.3, -375800.84, 99762.5, 0.00763721, -0.32675073, -284571.5, -3380.867, 0.0, 9.999715, 9.999899 
2.8946847e+3, 2.8130323e+2, -340984.2, -308674.13, 112305.66, -0.03468748, -0.33415228, -211367.5, -28170.045, 0.0, 9.999439, 9.999823 
2.8945994e+3, 2.9130313e+2, -231594.34, -264638.2, 133877.14, 0.06610635, -0.25858995, -113223.5, -28025.656, 0.0, 9.999784, 9.99928 
2.8945133e+3, 3.0130237e+2, -92505.086, -171170.08, 90487.12, 0.08652275, -0.21860346, -33171.664, -33171.664, 0.0, 10.000174, 9.999066 
2.8944248e+3, 3.1129852e+2, -215271.52, -272412.0, 64541.19, 0.0066114124, -0.4380876, -173259.72, -173259.72, 0.0, 9.999288, 9.998472 
2.8943348e+3, 3.2129967e+2, -8553.605, 71699.73, 46487.168, -0.20608452, -0.14334466, 92983.21, 92983.21, 0.0, 9.999625, 10.000684 
2.9059753e+3, 1.3140401e+2, -1514036.1, -1683094.0, 2217.461, 0.07234959, -0.3770776, -1514007.0, 138197.81, 0.0, 10.001666, 9.999415 
2.9058874e+3, 1.4140326e+2, -1386031.4, -1586692.9, 34920.414, 0.06150623, -0.34948656, -1380128.0, 174084.67, 0.0, 10.001941, 9.99927 
2.9058006e+3, 1.5140198e+2, -1322851.3, -1520932.0, 90642.18, 0.03553924, -0.35640338, -1287634.4, 168591.08, 0.0, 10.001778, 9.999123 
2.9057145e+3, 1.6140069e+2, -1239292.4, -1409408.6, 83116.91, 0.040136572, -0.36352864, -1205424.9, 152813.16, 0.0, 10.001592, 9.999306 
2.9056287e+3, 1.7139974e+2, -1142761.8, -1296518.8, 93330.39, 0.05085478, -0.35911608, -1098723.5, 161523.66, 0.0, 10.001522, 9.999438 
2.9055429e+3, 1.8139884e+2, -1063592.9, -1210768.0, 97165.46, 0.046166528, -0.3544695, -1015294.2, 146961.92, 0.0, 10.001406, 9.999411 
2.905457e+3, 1.9139788e+2, -1009643.3, -1129939.0, 125584.09, 0.021515245, -0.35469556, -930546.4, 133719.73, 0.0, 10.001088, 9.999443 
2.9053718e+3, 2.0139697e+2, -941360.2, -1032059.1, 130791.2, 0.01236117, -0.35325795, -848279.5, 117995.75, 0.0, 10.000823, 9.999571 
2.9052868e+3, 2.113963e+2, -836035.9, -913874.06, 138023.17, 0.050294846, -0.34781915, -731549.6, 136732.2, 0.0, 10.000805, 9.999718 
2.9052016e+3, 2.2139572e+2, -740455.6, -800285.6, 139516.9, 0.07097268, -0.34260637, -627682.56, 142604.88, 0.0, 10.000715, 9.999868 
2.9051155e+3, 2.3139527e+2, -693151.25, -707546.75, 126456.39, 0.017386824, -0.34613672, -573687.94, 98604.03, 0.0, 10.000284, 10.000039 
2.9050297e+3, 2.4139483e+2, -658722.56, -668228.9, 126481.875, -0.014482952, -0.34706026, -536904.56, 37391.94, 0.0, 9.999971, 9.999786 
2.9049444e+3, 2.5139424e+2, -528783.0, -564620.5, 134448.83, 0.043479387, -0.33543977, -411064.13, 65238.605, 0.0, 10.000233, 9.999699 
2.9048586e+3, 2.6139376e+2, -409907.72, -423999.66, 142700.9, 0.07754748, -0.32268366, -274078.94, 104229.28, 0.0, 10.000237, 9.999987 
2.9047713e+3, 2.713935e+2, -424318.0, -363360.44, 96578.88, 0.006311502, -0.32191584, -292565.16, -12252.928, 0.0, 9.999388, 10.00014 
2.904684e+3, 2.8139326e+2, -395338.75, -303651.66, 125118.72, -0.017020358, -0.31949338, -216242.34, -33926.57, 0.0, 9.998945, 10.000089 
2.9045987e+3, 2.9139322e+2, -323630.28, -237415.53, 174777.97, 0.08017892, -0.2768705, -100507.39, -16192.042, 0.0, 9.998856, 9.999911 
2.9159766e+3, 1.3149206e+2, -1493526.9, -1638508.1, 16757.334, 0.057225347, -0.3625116, -1491615.3, 159727.78, 0.0, 10.00166, 9.999722 
2.915889e+3, 1.4149126e+2, -1370984.5, -1555877.0, 35797.043, 0.06465884, -0.3684671, -1364295.8, 189054.53, 0.0, 10.001944, 9.999481 
2.9158023e+3, 1.5149024e+2, -1311920.9, -1498855.0, 81119.16, 0.051229704, -0.36566427, -1281628.4, 173731.72, 0.0, 10.001779, 9.999274 
2.9157162e+3, 1.6148913e+2, -1244063.3, -1418356.5, 78093.94, 0.0597767, -0.36282352, -1214191.9, 143179.05, 0.0, 10.001587, 9.999247 
2.9156297e+3, 1.7148806e+2, -1154546.4, -1320064.4, 91984.086, 0.04515407, -0.35758418, -1113571.3, 145811.0, 0.0, 10.001515, 9.99928 
2.9155436e+3, 1.8148713e+2, -1054458.8, -1188722.4, 89942.07, 0.027684284, -0.35076275, -1009357.5, 152034.64, 0.0, 10.001392, 9.999568 
2.915458e+3, 1.9148651e+2, -986387.3, -1082077.4, 113189.664, 0.046674322, -0.34406513, -911346.0, 152051.78, 0.0, 10.001089, 9.999772 
2.9153728e+3, 2.014859e+2, -926429.06, -1001267.2, 126117.26, 0.059301525, -0.34342384, -832296.8, 133106.63, 0.0, 10.000823, 9.999783 
2.915287e+3, 2.1148515e+2, -824802.2, -889326.44, 137641.28, 0.03218016, -0.36341628, -715692.56, 151717.9, 0.0, 10.000798, 9.99989 
2.9152015e+3, 2.2148453e+2, -748351.56, -812275.2, 127705.9, 0.01452599, -0.37265217, -648668.6, 120747.93, 0.0, 10.000695, 9.999796 
2.9151157e+3, 2.3148425e+2, -704934.44, -731689.0, 108790.914, 0.04185595, -0.3413839, -608701.44, 62718.734, 0.0, 10.000282, 9.999875 
2.91503e+3, 2.4148397e+2, -634148.1, -619274.1, 127870.33, 0.05551143, -0.3236055, -498624.72, 74798.59, 0.0, 9.99998, 10.000117 
2.914944e+3, 2.5148347e+2, -477441.0, -457653.28, 145823.44, 0.009683665, -0.36786032, -321388.44, 154038.53, 0.0, 10.000232, 10.000432 
2.9148576e+3, 2.6148313e+2, -406478.1, -422541.7, 121411.53, -0.020867093, -0.39121944, -292832.97, 84596.89, 0.0, 10.000257, 9.9999895 
2.9147705e+3, 2.714833e+2, -435043.6, -386212.22, 60028.457, 0.04412904, -0.32677057, -345824.03, -66392.8, 0.0, 9.999385, 9.999989 
2.9146835e+3, 2.8148347e+2, -376168.6, -260317.75, 141868.33, 0.10437505, -0.27970135, -165004.88, 16426.676, 0.0, 9.998936, 10.000391 
2.9145965e+3, 2.914836e+2, -205921.52, -712.69446, 129650.01, 0.008684175, -0.3295414, 62021.31, 145449.75, 0.0, 9.998888, 10.001525 
2.9259777e+3, 1.3158019e+2, -1533983.5, -1653627.1, 33364.383, 0.063211165, -0.34442726, -1525308.4, 125172.3, 0.0, 10.001366, 9.99976 
2.9258907e+3, 1.4157937e+2, -1400526.0, -1560444.8, 24486.625, 0.06359128, -0.3543336, -1396860.6, 155627.05, 0.0, 10.001697, 9.99957 
2.9258037e+3, 1.5157837e+2, -1337239.0, -1497919.9, 56279.992, 0.05381949, -0.36149514, -1319487.5, 135009.55, 0.0, 10.001548, 9.999393 
2.9257172e+3, 1.6157736e+2, -1267577.5, -1411957.5, 60034.23, 0.06750688, -0.36406246, -1245876.6, 110630.2, 0.0, 10.001346, 9.999409 
2.9256308e+3, 1.7157647e+2, -1187824.5, -1315611.4, 94033.11, 0.054578193, -0.35851294, -1138031.5, 120484.54, 0.0, 10.001195, 9.999467 
2.9255447e+3, 1.8157569e+2, -1097567.3, -1200696.6, 103898.1, 0.036938075, -0.35134864, -1033141.7, 127382.57, 0.0, 10.001051, 9.999653 
2.9254588e+3, 1.9157512e+2, -997560.3, -1081625.0, 110016.71, 0.05119109, -0.344739, -921820.0, 140709.38, 0.0, 10.000985, 9.999826 
2.9253733e+3, 2.0157458e+2, -916181.25, -986030.8, 108292.73, 0.061527055, -0.34422126, -837320.94, 127213.39, 0.0, 10.000847, 9.999877 
2.9252875e+3, 2.1157393e+2, -870871.9, -898704.06, 113826.78, 0.0327715, -0.3658304, -770113.7, 96426.78, 0.0, 10.000423, 10.000008 
2.9252014e+3, 2.2157341e+2, -823452.7, -835276.44, 110548.54, 0.014582963, -0.37681705, -718658.06, 49887.363, 0.0, 10.00012, 9.999916 
2.9251158e+3, 2.3157322e+2, -691444.7, -707249.7, 114152.92, 0.045819923, -0.3502474, -584921.06, 85626.58, 0.0, 10.000295, 10.000038 
2.9250297e+3, 2.415731e+2, -578222.56, -576953.06, 142710.8, 0.06319156, -0.33589157, -434875.63, 137673.66, 0.0, 10.000294, 10.00026 
2.9249436e+3, 2.5157273e+2, -553357.44, -470012.25, 123407.36, 0.014149856, -0.381184, -381431.3, 93120.18, 0.0, 9.9995985, 10.000655 
2.9248568e+3, 2.6157257e+2, -556774.7, -485541.72, 81377.48, -0.021620259, -0.4044508, -432327.88, -55775.277, 0.0, 9.999176, 10.000082 
2.9247695e+3, 2.7157292e+2, -339389.5, -320170.9, 47369.04, 0.026837291, -0.33590886, -281446.3, -2894.322, 0.0, 9.9999485, 10.000174 
2.9246825e+3, 2.815732e+2, -182821.52, -148435.13, 139154.05, 0.08610472, -0.2959931, -25416.145, 155134.7, 0.0, 10.000166, 10.000578 
2.924595e+3, 2.9157332e+2, -186053.9, 26105.506, 24865.51, 0.023170307, -0.3688864, 28980.826, 111529.02, 0.0, 9.998922, 10.00171 
2.935979e+3, 1.3166828e+2, -1541327.5, -1673608.1, 49007.406, 0.081288524, -0.32654655, -1525149.6, 124468.71, 0.0, 10.0013895, 9.99961 
2.9358917e+3, 1.4166756e+2, -1405512.4, -1561638.6, 27955.883, 0.059147604, -0.31865823, -1400657.5, 150967.64, 0.0, 10.001658, 9.999579 
2.9358047e+3, 1.5166642e+2, -1333923.3, -1485938.0, 49540.51, 0.046794284, -0.34884226, -1319203.6, 134432.22, 0.0, 10.001524, 9.999487 
2.9357183e+3, 1.6166541e+2, -1246486.8, -1365604.6, 55165.11, 0.0653932, -0.36706042, -1224864.0, 130781.016, 0.0, 10.001334, 9.999732 
2.935632e+3, 1.7166494e+2, -1156255.0, -1250661.3, 87014.8, 0.07453138, -0.36301854, -1104464.6, 153184.47, 0.0, 10.001197, 9.999912 
2.9355457e+3, 1.8166442e+2, -1095342.9, -1197108.1, 98234.58, 0.066711694, -0.356772, -1035595.1, 124058.414, 0.0, 10.001055, 9.999677 
2.9354593e+3, 1.916637e+2, -1009800.6, -1106857.1, 107022.04, 0.036337096, -0.3547178, -940818.44, 120842.63, 0.0, 10.000981, 9.999656 
2.9353732e+3, 2.0166305e+2, -919023.06, -987957.2, 96777.56, 0.021461412, -0.3552771, -850758.06, 112909.625, 0.0, 10.00083, 9.999872 
2.9352877e+3, 2.1166265e+2, -865305.44, -887127.94, 96762.02, 0.052266322, -0.35665587, -778841.44, 86830.29, 0.0, 10.0004225, 10.000088 
2.9352015e+3, 2.2166236e+2, -801101.56, -789617.1, 110650.086, 0.06574525, -0.35950437, -684560.4, 83113.91, 0.0, 10.000122, 10.000229 
2.9351154e+3, 2.3166223e+2, -659211.7, -638275.3, 121474.22, 0.024696264, -0.37147886, -526819.06, 142855.13, 0.0, 10.000286, 10.000516 
2.935029e+3, 2.4166214e+2, -583635.1, -588535.6, 126373.805, 0.0066134282, -0.38043547, -459687.8, 111986.5, 0.0, 10.000292, 10.000183 
2.9349434e+3, 2.5166205e+2, -573921.7, -514612.88, 94544.78, 0.06240601, -0.3721418, -445180.97, 28495.338, 0.0, 9.999603, 10.00035 
2.9348567e+3, 2.6166213e+2, -537145.94, -447420.16, 92801.21, 0.07045764, -0.3568736, -389206.66, -13530.543, 0.0, 9.999188, 10.000337 
2.9347682e+3, 2.7166235e+2, -294902.63, -234423.45, 80799.15, -0.061441332, -0.35107002, -178390.6, 99283.49, 0.0, 9.999981, 10.000743 
2.9346806e+3, 2.816624e+2, -164535.13, -139644.84, 99171.984, -0.09602228, -0.37263992, -52140.17, 127533.56, 0.0, 10.000278, 10.000591 
2.9345948e+3, 2.9166296e+2, -254331.14, -108812.35, -14534.257, 0.13739768, -0.33947527, -107374.88, -25705.98, 0.0, 9.998891, 10.000798 
2.9459798e+3, 1.3175607e+2, -1529179.4, -1649432.1, 26910.227, 0.09595796, -0.31224996, -1523432.1, 125327.76, 0.0, 10.001386, 9.999783 
2.9458928e+3, 1.4175546e+2, -1473897.4, -1569859.9, 25910.04, 0.05610277, -0.31162637, -1467348.6, 83416.234, 0.0, 10.0010805, 9.999803 
2.9458058e+3, 1.5175463e+2, -1385869.5, -1487896.1, 50731.89, 0.047409847, -0.33193296, -1364937.9, 87834.33, 0.0, 10.001064, 9.999698 
2.945719e+3, 1.6175377e+2, -1287676.1, -1383519.9, 57186.79, 0.07178166, -0.34949535, -1260986.8, 93793.08, 0.0, 10.0010395, 9.999753 
2.945633e+3, 1.7175326e+2, -1171590.3, -1260888.6, 61554.79, 0.08478607, -0.3468445, -1140196.4, 116588.12, 0.0, 10.001101, 9.99989 
2.9455465e+3, 1.8175276e+2, -1088661.6, -1178105.6, 51932.496, 0.07574423, -0.34511533, -1064848.6, 93940.32, 0.0, 10.001031, 9.99982 
2.9454598e+3, 1.9175212e+2, -1034900.7, -1096868.9, 80719.36, 0.039094947, -0.35294542, -979423.1, 81371.71, 0.0, 10.000709, 9.99986 
2.9453737e+3, 2.0175159e+2, -965475.2, -1002859.9, 90154.57, 0.022942446, -0.35773885, -892095.56, 70704.32, 0.0, 10.000468, 9.999949 
2.9452875e+3, 2.1175127e+2, -859476.94, -883229.1, 85628.62, 0.061182424, -0.3533145, -784904.75, 79898.586, 0.0, 10.00045, 10.000105 
2.9452017e+3, 2.2175108e+2, -754807.8, -759405.3, 96305.63, 0.077809654, -0.35071298, -660773.5, 106031.68, 0.0, 10.000398, 10.000308 
2.9451153e+3, 2.3175102e+2, -671220.56, -629601.94, 84550.59, 0.022606164, -0.36856216, -563337.56, 105466.516, 0.0, 10.000132, 10.000654 
2.9450288e+3, 2.4175099e+2, -643024.44, -611638.8, 69684.234, -0.0011181557, -0.383423, -555902.25, 14901.124, 0.0, 9.999854, 10.000237 
2.9449427e+3, 2.5175107e+2, -547153.5, -499526.97, 57419.09, 0.07528559, -0.36404064, -461178.97, 11625.237, 0.0, 9.999772, 10.000376 
2.944856e+3, 2.6175135e+2, -450319.28, -381245.7, 90201.414, 0.09241562, -0.33989966, -319195.3, 55606.895, 0.0, 9.999676, 10.000561 
2.9447675e+3, 2.7175155e+2, -335101.22, -228522.63, 71840.4, -0.07545132, -0.359956, -192364.78, 84434.18, 0.0, 9.999583, 10.000984 
2.94468e+3, 2.817513e+2, -269338.16, -194587.8, 39513.133, -0.13236469, -0.42403466, -177573.72, 1227.0181, 0.0, 9.999573, 10.000551 
2.944594e+3, 2.9175258e+2, -100981.79, -44480.805, -38466.54, 0.17361419, -0.30008608, -25005.36, 55784.26, 0.0, 9.99998, 10.000711 
2.9559812e+3, 1.3184369e+2, -1507724.5, -1591490.0, 13723.157, 0.10553394, -0.29004985, -1505533.5, 142369.77, 0.0, 10.001331, 10.000205 
2.9558936e+3, 1.4184324e+2, -1450895.3, -1518774.0, 23073.533, 0.051712524, -0.31584865, -1443794.9, 106110.625, 0.0, 10.001068, 10.000159 
2.9558063e+3, 1.51843e+2, -1366765.1, -1446840.8, 46690.34, 0.05294961, -0.30607566, -1345296.8, 106609.734, 0.0, 10.001059, 9.999983 
2.9557198e+3, 1.6184236e+2, -1304368.5, -1415073.9, 56270.938, 0.08510669, -0.31291136, -1280788.8, 73123.5, 0.0, 10.001026, 9.999544 
2.9556334e+3, 1.7184144e+2, -1200492.8, -1316420.8, 64280.676, 0.085723795, -0.31517413, -1171901.4, 84020.69, 0.0, 10.00108, 9.99952 
2.955547e+3, 1.818407e+2, -1075275.8, -1144268.8, 43930.715, 0.064569436, -0.32214352, -1053916.1, 104013.54, 0.0, 10.001005, 10.000065 
2.9554605e+3, 1.9184043e+2, -999111.0, -1021513.9, 68575.57, 0.05785314, -0.3421583, -940828.06, 119102.375, 0.0, 10.000703, 10.00038 
2.955374e+3, 2.0184024e+2, -954954.0, -981872.25, 86335.336, 0.0620804, -0.35123974, -881035.0, 80895.805, 0.0, 10.000471, 10.0000925 
2.9552877e+3, 2.1183984e+2, -863304.7, -890979.25, 83909.88, 0.057013728, -0.35206258, -792098.8, 71836.4, 0.0, 10.000447, 10.000053 
2.9552013e+3, 2.2183958e+2, -767499.56, -781803.1, 89285.49, 0.04731651, -0.34812415, -685079.9, 80858.32, 0.0, 10.0003805, 10.000162 
2.955115e+3, 2.318396e+2, -684677.25, -655628.5, 72741.734, 0.041007914, -0.34165397, -595975.25, 71962.086, 0.0, 10.000124, 10.000479 
2.9550287e+3, 2.4183965e+2, -624629.7, -575998.3, 62583.53, 0.037897635, -0.34632695, -533172.75, 36763.65, 0.0, 9.999864, 10.000479 
2.954942e+3, 2.5183976e+2, -518859.44, -441614.72, 54744.938, 0.045981605, -0.35766023, -413239.34, 58695.566, 0.0, 9.999774, 10.000773 
2.9548547e+3, 2.6184022e+2, -434755.75, -353400.6, 86001.22, 0.038699992, -0.3521533, -298942.06, 74988.27, 0.0, 9.999694, 10.000744 
2.9547676e+3, 2.7184057e+2, -339191.0, -238520.7, 73977.375, -0.004885177, -0.3588529, -199378.05, 76547.67, 0.0, 9.999589, 10.000913 
2.9546803e+3, 2.8184e+2, -271564.38, -201214.88, 41782.555, -0.022458771, -0.44541556, -181772.36, -3841.923, 0.0, 9.999577, 10.000506 
2.9545924e+3, 2.9184103e+2, -49004.156, 49373.246, -9379.244, 0.07152774, -0.3603693, 50259.473, 130179.836, 0.0, 10.000041, 10.001326 
2.965982e+3, 1.3193175e+2, -1573037.9, -1632257.8, 20721.063, 0.1084908, -0.26072654, -1566507.6, 80532.84, 0.0, 10.000922, 10.000121 
2.9658943e+3, 1.4193103e+2, -1481187.9, -1546876.4, 10943.475, 0.08307274, -0.30302647, -1479412.8, 69633.125, 0.0, 10.000914, 10.000043 
2.965807e+3, 1.5193053e+2, -1392540.1, -1467384.6, 8678.236, 0.07363594, -0.31129652, -1391547.1, 59502.938, 0.0, 10.000914, 9.999913 
2.9657206e+3, 1.6193e+2, -1324633.6, -1400753.9, 16610.156, 0.0915763, -0.31315958, -1321167.0, 31887.998, 0.0, 10.000779, 9.9997635 
2.965634e+3, 1.7192927e+2, -1254293.0, -1316107.0, 61692.344, 0.07955095, -0.3217055, -1216198.6, 38863.75, 0.0, 10.000591, 9.999761 
2.965547e+3, 1.8192871e+2, -1148164.1, -1174377.0, 62061.355, 0.06252233, -0.3274499, -1097840.4, 59227.31, 0.0, 10.000472, 10.00012 
2.9654607e+3, 1.9192861e+2, -1002519.44, -1020309.5, 57474.93, 0.07209741, -0.33155662, -953255.3, 105811.47, 0.0, 10.000663, 10.00041 
2.9653746e+3, 2.0192844e+2, -919012.75, -971948.5, 43730.297, 0.07506958, -0.33772713, -894364.2, 66702.81, 0.0, 10.000748, 10.000028 
2.9652876e+3, 2.1192797e+2, -870983.56, -897707.94, 37526.715, 0.04222587, -0.34395403, -844511.06, 18561.096, 0.0, 10.000404, 10.0000305 
2.9652008e+3, 2.2192767e+2, -801851.5, -789276.06, 53551.734, 0.023520472, -0.34438494, -741644.2, 23431.084, 0.0, 10.0001, 10.00025 
2.965115e+3, 2.3192777e+2, -704008.94, -657463.06, 54573.836, 0.05138304, -0.34116355, -621407.0, 45666.605, 0.0, 9.999949, 10.000555 
2.9650283e+3, 2.4192788e+2, -623819.6, -574439.3, 56889.43, 0.06419203, -0.34633517, -537113.25, 31958.723, 0.0, 9.999853, 10.000502 
2.9649413e+3, 2.519279e+2, -488237.6, -440575.2, 19274.592, 0.028206395, -0.3604585, -433756.2, 37315.39, 0.0, 10.00003, 10.000666 
2.964854e+3, 2.619283e+2, -374674.5, -310500.3, 13221.956, 0.012083676, -0.35838255, -307882.9, 65184.555, 0.0, 10.000036, 10.00088 
2.9647672e+3, 2.7192894e+2, -356584.56, -233702.63, 11932.391, 0.06300669, -0.3563662, -232554.66, 42505.023, 0.0, 9.999412, 10.001034 
2.9646802e+3, 2.8192848e+2, -311707.47, -217977.2, 23093.932, 0.06712524, -0.44405562, -212596.1, -35533.11, 0.0, 9.999293, 10.000534 
2.9645917e+3, 2.9192886e+2, 65543.07, 111650.59, -17420.123, -0.03484533, -0.41415802, 117492.1, 196550.34, 0.0, 10.000816, 10.001384 
2.9759824e+3, 1.320197e+2, -1597842.3, -1696964.4, 2691.2913, 0.108143166, -0.26136845, -1597769.3, 48408.387, 0.0, 10.000981, 9.999647 
2.9758954e+3, 1.4201845e+2, -1523799.9, -1614802.9, 10049.23, 0.14103742, -0.30601758, -1522703.4, 25486.07, 0.0, 10.000827, 9.999618 
2.975808e+3, 1.520172e+2, -1421629.6, -1515806.9, 4881.2095, 0.10387902, -0.3566344, -1421377.4, 28825.137, 0.0, 10.000863, 9.999605 
2.975721e+3, 1.6201682e+2, -1289145.8, -1319979.0, 10998.583, 0.08764315, -0.34775883, -1285624.5, 66581.875, 0.0, 10.00075, 10.000332 
2.975634e+3, 1.7201681e+2, -1206466.1, -1213402.3, 52082.3, 0.06744588, -0.35828984, -1157736.6, 96468.19, 0.0, 10.000577, 10.000473 
2.9755473e+3, 1.820168e+2, -1157675.8, -1193156.9, 60983.56, 0.07082732, -0.34994128, -1111904.8, 44298.598, 0.0, 10.000468, 9.999992 
2.9754612e+3, 1.9201665e+2, -1030592.0, -1078366.1, 63361.805, 0.07896786, -0.32117975, -986764.1, 71439.96, 0.0, 10.000662, 10.000011 
2.9753745e+3, 2.0201612e+2, -936099.9, -1006054.1, 35807.957, 0.05716787, -0.32495037, -921020.94, 39188.043, 0.0, 10.000742, 9.999797 
2.9752874e+3, 2.120156e+2, -868596.7, -892029.94, 23067.451, 0.019077258, -0.3345837, -854440.8, 7773.547, 0.0, 10.000401, 10.000072 
2.9752007e+3, 2.2201538e+2, -779816.3, -742275.0, 47053.945, 0.009892921, -0.3431483, -710385.94, 53830.25, 0.0, 10.000093, 10.000576 
2.9751146e+3, 2.3201561e+2, -680860.5, -610026.3, 49195.496, 0.05287318, -0.3625669, -584825.2, 81386.77, 0.0, 9.99995, 10.000881 
2.9750282e+3, 2.4201578e+2, -641159.0, -609347.94, 58496.05, 0.07311505, -0.37505883, -564633.56, 3575.5964, 0.0, 9.999848, 10.000264 
2.9749405e+3, 2.5201547e+2, -532414.44, -534624.94, 28386.44, 0.021841347, -0.36868158, -505111.72, -34897.723, 0.0, 10.00004, 10.000014 
2.9748535e+3, 2.6201555e+2, -363378.16, -289239.1, -4823.811, 0.0111119775, -0.35698488, -288926.56, 83287.37, 0.0, 10.000046, 10.001021 
2.9747668e+3, 2.7201664e+2, -331446.47, -178662.38, -12019.434, 0.12240785, -0.35392126, -177722.6, 96478.52, 0.0, 9.999399, 10.001418 
2.9746798e+3, 2.8201678e+2, -304261.16, -200264.45, 56187.324, 0.12654991, -0.4104674, -175706.66, 490.5944, 0.0, 9.999299, 10.000649 
2.9745913e+3, 2.920163e+2, 17189.822, 6024.6, 54682.754, -0.10990695, -0.4462469, 66574.195, 144775.33, 0.0, 10.000868, 10.000622 
2.9859838e+3, 1.3210635e+2, -1423756.4, -1615504.1, -107553.69, 0.10042493, -0.2943391, -1375548.4, 269779.78, 0.0, 10.002192, 9.999624 
2.9858947e+3, 1.4210525e+2, -1651522.1, -1634536.9, -19297.129, 0.08538752, -0.34013122, -1621946.3, -74606.55, 0.0, 9.999781, 9.999983 
2.985807e+3, 1.52106e+2, -1612427.1, -1575217.1, 23865.877, 0.030953754, -0.22511727, -1563561.1, -114227.98, 0.0, 9.999422, 9.999888 
2.98572e+3, 1.6210578e+2, -1548733.6, -1464865.1, 31088.236, 0.05008114, -0.20530206, -1454598.3, -103262.7, 0.0, 9.999063, 10.000146 
2.985634e+3, 1.7210539e+2, -1366200.3, -1299653.8, 22733.645, 0.10851528, -0.23809731, -1292629.0, -39291.695, 0.0, 9.99953, 10.0003805 
2.9855475e+3, 1.8210474e+2, -1225326.3, -1225668.4, 5856.3364, 0.09788536, -0.29053655, -1219638.5, -64296.6, 0.0, 10.000015, 9.999983 
2.985461e+3, 1.9210374e+2, -1102293.1, -1124057.4, 25573.98, 0.05116043, -0.34196243, -1085382.3, -28031.477, 0.0, 10.000219, 9.999911 
2.9853746e+3, 2.0210327e+2, -964417.75, -993914.56, 22969.955, 0.05074973, -0.3455448, -951869.0, 7485.78, 0.0, 10.000433, 10.000033 
2.9852882e+3, 2.1210316e+2, -848672.4, -862018.56, 17246.377, 0.073502466, -0.33489338, -836853.1, 24502.81, 0.0, 10.000444, 10.000259 
2.9852012e+3, 2.2210316e+2, -761489.2, -740017.06, 35183.426, 0.08025389, -0.33124155, -713968.1, 49387.61, 0.0, 10.000244, 10.000521 
2.9851145e+3, 2.3210336e+2, -640412.25, -599382.25, 13865.254, 0.083890595, -0.34372312, -595136.2, 70216.11, 0.0, 10.000267, 10.000803 
2.9850277e+3, 2.4210347e+2, -561064.2, -571106.06, 8587.357, 0.07055816, -0.3570297, -556137.6, 11212.898, 0.0, 10.0004, 10.00026 
2.9849404e+3, 2.5210312e+2, -517245.56, -523351.4, 22507.84, 0.016739273, -0.35935333, -497584.53, -28229.201, 0.0, 10.000126, 10.000051 
2.9848534e+3, 2.621031e+2, -385072.16, -322407.56, 11291.618, 0.009123769, -0.3547034, -320435.0, 50921.527, 0.0, 9.999986, 10.000828 
2.9847664e+3, 2.7210394e+2, -212477.89, -159798.89, -48437.504, 0.12074117, -0.3457213, -131002.55, 142344.44, 0.0, 10.000366, 10.001093 
2.984679e+3, 2.8210443e+2, -112623.66, -108126.48, 1444.1814, 0.10590746, -0.3539629, -107702.65, 67638.13, 0.0, 10.000606, 10.000678 
2.9845914e+3, 2.9210356e+2, -90962.4, -116769.29, 33278.25, -0.1260479, -0.41777056, -68173.54, 9174.835, 0.0, 10.000361, 10.000095 
2.9959854e+3, 1.3219324e+2, -1651095.3, -1709136.1, 95896.86, 0.09643414, -0.29232657, -1579923.9, 64552.79, 0.0, 10.000544, 9.999785 
2.9958943e+3, 1.421928e+2, -1686040.4, -1572207.5, 80318.21, 0.108480655, -0.3131802, -1530683.6, 15798.87, 0.0, 9.999183, 10.00071 
2.9958072e+3, 1.5219349e+2, -1275913.8, -1360155.3, -13403.71, 0.16973822, -0.2629225, -1273832.5, 174643.56, 0.0, 10.001474, 10.000389 
2.995719e+3, 1.6219278e+2, -1143050.0, -1362487.8, -14269.543, 0.09075946, -0.28398782, -1142125.9, 208356.75, 0.0, 10.002221, 9.999339 
2.995633e+3, 1.7219125e+2, -1097306.6, -1257825.8, 18881.354, 0.054535586, -0.34606507, -1095115.6, 157381.2, 0.0, 10.001726, 9.999622 
2.995547e+3, 1.8219139e+2, -1036856.6, -1128521.3, -20061.475, 0.102327585, -0.27881682, -1032658.3, 121835.766, 0.0, 10.001253, 10.000067 
2.9954615e+3, 1.9219032e+2, -959006.56, -1037337.1, 16950.467, 0.10421332, -0.35884267, -955495.9, 101006.35, 0.0, 10.001102, 10.0000925 
2.995375e+3, 2.0219035e+2, -924028.1, -912689.5, 12442.896, 0.08865832, -0.3589365, -904685.25, 53814.95, 0.0, 10.000427, 10.000601 
2.995288e+3, 2.1219043e+2, -930355.3, -870233.44, 4826.8647, 0.076902, -0.36829633, -869848.4, -9348.958, 0.0, 9.999741, 10.0005455 
2.9952005e+3, 2.2219042e+2, -823365.2, -819552.56, 5614.5547, 0.026858278, -0.3622429, -815529.5, -53029.83, 0.0, 10.00003, 10.000079 
2.9951137e+3, 2.3219061e+2, -683541.3, -671096.2, -26807.781, 0.030811168, -0.3280301, -649798.25, 14700.582, 0.0, 10.000188, 10.000349 
2.9950273e+3, 2.4219069e+2, -522796.75, -519328.5, -17789.797, 0.03335004, -0.32153454, -503188.5, 63309.953, 0.0, 10.00052, 10.000557 
2.9949403e+3, 2.5219095e+2, -453207.63, -404113.4, 9364.85, 0.010579947, -0.33665994, -402387.7, 66107.266, 0.0, 10.000188, 10.000835 
2.9948527e+3, 2.6219103e+2, -423331.75, -409712.66, 21043.684, 0.007843084, -0.34980702, -394404.2, -23910.328, 0.0, 10.000011, 10.00022 
2.9947656e+3, 2.7219087e+2, -285509.13, -330239.03, -27957.557, 0.044855323, -0.3292726, -272071.63, 425.92383, 0.0, 10.000429, 9.999902 
2.994678e+3, 2.8219116e+2, -123992.375, -113300.37, -7753.9087, -0.022849895, -0.28208348, -109228.15, 65267.67, 0.0, 10.000572, 10.000634 
2.9945916e+3, 2.921919e+2, -106952.92, -85443.14, 35499.918, -0.08833896, -0.22556713, -59104.746, 17383.133, 0.0, 10.0001545, 10.000378 
