coord_x,coord_y,stress_xx,stress_yy,tau_xy,velocity_x,velocity_y,stress_1,eps,damage,lx,ly
5.001167e+0, 1.2524055e+2, -1375652.6, -1553742.3, 39594.758, 0.000005046295, -0.19146426, -1367246.4, 345368.28, 0.0026898824, 10.002231, 10.000028 
5.001555e+0, 1.3523829e+2, -1424755.8, -1746901.9, -55.059616, 0.04217282, -0.28941035, -1424755.8, 189878.27, 0.0015908045, 10.00221, 9.998029 
5.001265e+0, 1.452359e+2, -1302523.6, -1545482.4, 4799.532, 0.024095228, -0.36394846, -1302428.8, 214226.06, 0.0007108368, 10.001992, 9.998833 
5.000311e+0, 1.5523444e+2, -1262936.5, -1468162.5, 32179.502, -0.049382918, -0.44869187, -1258009.0, 160657.7, 0.00020845741, 10.00156, 9.998901 
5.000074e+0, 1.6523433e+2, -1202800.8, -1319233.0, 49931.082, -0.04512835, -0.37796834, -1184321.1, 136346.28, 0.000030560106, 10.001004, 9.999519 
5.0004584e+0, 1.7523466e+2, -1207969.8, -1278786.6, 37230.445, 0.027112726, -0.33332884, -1191998.6, 30667.139, 0.0000010193884, 10.000329, 9.999451 
5.0003475e+0, 1.8523465e+2, -1116418.4, -1142927.0, 38252.625, 0.026345104, -0.29580548, -1089188.9, 35476.1, 0.0, 10.000118, 9.999809 
4.999767e+0, 1.9523421e+2, -995948.06, -1043716.4, -6731.026, -0.041170564, -0.35744658, -995017.7, 31648.145, 0.0, 10.000311, 9.999728 
4.9997655e+0, 2.0523314e+2, -924975.3, -969406.5, -28005.314, -0.03489581, -0.4284815, -911444.1, 17228.385, 0.0, 10.00018, 9.999622 
5.000246e+0, 2.152313e+2, -893606.1, -909468.25, -35031.582, 0.03481741, -0.61382157, -865619.06, -34932.695, 0.0, 9.999745, 9.999573 
5.0001514e+0, 2.2523141e+2, -809311.0, -729344.5, -18047.121, 0.04945664, -0.593622, -725460.2, 7221.7188, 0.0, 9.99927, 10.000365 
4.9995542e+0, 2.3523319e+2, -788641.25, -674670.3, -9554.33, 0.014810194, -0.49572542, -673874.94, -39212.418, 0.0, 9.998764, 10.000314 
4.999494e+0, 2.4523365e+2, -681418.6, -628069.6, 17190.963, -0.005807544, -0.450376, -623009.94, -86354.3, 0.0, 9.9990635, 9.999816 
4.9999374e+0, 2.552327e+2, -439030.6, -475467.25, -21832.035, -0.0146801565, -0.5675567, -428814.0, 9848.93, 0.000000000017365094, 10.000118, 9.999684 
5.000022e+0, 2.6523104e+2, -402172.44, -521655.28, -53351.234, -0.009777101, -0.6409975, -381817.72, -41140.004, 0.000000288742, 10.000196, 9.9986515 
4.9997836e+0, 2.7522892e+2, -427481.7, -484838.9, -45056.848, 0.007869391, -0.7597573, -402750.72, -160052.39, 0.0000032414011, 9.999354, 9.998636 
4.9996918e+0, 2.852289e+2, -352054.94, -374243.6, 3623.936, 0.011504169, -0.63200057, -351478.06, -206776.61, 0.00001724438, 9.9991045, 9.9988365 
4.9996585e+0, 2.9522976e+2, -208360.63, -254006.08, 27666.717, -0.007783834, -0.47368237, -195318.0, -148618.6, 0.000074921634, 9.999402, 9.99885 
4.9996608e+0, 3.0522826e+2, -204851.05, -314812.16, 31557.236, -0.010034932, -0.4734854, -196438.22, -196438.22, 0.0002850154, 9.999468, 9.998068 
4.999787e+0, 3.1522793e+2, 31864.393, 236097.64, 18025.852, 0.014451869, -0.3491715, 237676.42, 237676.42, 0.0007432572, 9.999158, 10.002015 
1.5003449e+1, 1.2524043e+2, -1457992.9, -1674590.5, 9933.175, -0.0030774914, -0.3088669, -1457538.3, 255072.39, 0.0025876667, 10.00205, 9.999292 
1.5004697e+1, 1.3523743e+2, -1481570.1, -1839413.1, 5901.676, 0.13127367, -0.3792987, -1481472.9, 133169.64, 0.0015348786, 10.002126, 9.997447 
1.5003791e+1, 1.4523575e+2, -1243418.9, -1393950.8, -19405.488, 0.07326129, -0.4100635, -1240957.5, 275699.63, 0.00068435894, 10.001881, 9.999939 
1.5000938e+1, 1.552362e+2, -1204874.6, -1322738.6, 23630.088, -0.14721563, -0.38343263, -1200313.6, 218333.52, 0.00019662973, 10.001467, 9.999953 
1.5000233e+1, 1.6523635e+2, -1226006.9, -1339042.3, 17165.23, -0.1331335, -0.3343674, -1223457.8, 97184.945, 0.000026649353, 10.0008955, 9.999445 
1.5001412e+1, 1.7523557e+2, -1222532.8, -1289533.0, 20291.02, 0.08391693, -0.37751934, -1216866.8, 5782.8105, 0.00000066228677, 10.000251, 9.999426 
1.5001015e+1, 1.8523462e+2, -1199931.5, -1281945.8, 39320.86, 0.07820657, -0.3884793, -1184125.6, -59466.242, 0.0, 9.99999, 9.998921 
1.4999312e+1, 1.952336e+2, -1073888.9, -1177052.4, 8686.887, -0.1220314, -0.39846227, -1073162.5, -46491.406, 0.0, 10.000199, 9.998876 
1.4999269e+1, 2.0523311e+2, -941057.5, -965075.6, -50316.465, -0.10519241, -0.37419567, -901336.8, 27339.514, 0.0, 10.000041, 9.9997225 
1.500072e+1, 2.1523297e+2, -906217.5, -897508.9, -41604.215, 0.10390644, -0.38012493, -860031.75, -29354.89, 0.0, 9.999599, 9.999729 
1.5000449e+1, 2.2523265e+2, -791795.25, -659529.1, -45990.348, 0.14959675, -0.44298485, -645109.75, 87565.16, 0.0, 9.999144, 10.000912 
1.4998637e+1, 2.352322e+2, -774427.8, -608535.44, -18023.836, 0.04343331, -0.5960765, -606599.8, 28070.395, 0.0, 9.998624, 10.00084 
1.4998493e+1, 2.4523202e+2, -753280.7, -750228.94, 49741.875, -0.016661974, -0.60374063, -701989.56, -165319.69, 0.0, 9.99896, 9.999035 
1.49998e+1, 2.5523192e+2, -507128.1, -578335.6, 23428.893, -0.045249306, -0.5413213, -500110.97, -61436.082, 0.0, 9.999966, 9.999057 
1.5000072e+1, 2.6523143e+2, -384767.22, -455318.84, -92994.27, -0.027791746, -0.4965033, -320582.9, 20097.893, 0.00000013049092, 10.000086, 9.9991665 
1.4999378e+1, 2.7523074e+2, -416151.72, -424758.1, -69660.664, 0.026338743, -0.49908137, -350661.47, -107974.71, 0.0000023602508, 9.999209, 9.999128 
1.499903e+1, 2.8523046e+2, -309088.88, -253426.55, 8526.394, 0.031431537, -0.46880257, -252149.75, -107460.555, 0.000014211254, 9.998991, 9.999726 
1.4998966e+1, 2.9522973e+2, -170276.4, -130586.06, 51447.547, -0.025462333, -0.53678375, -95288.87, -48592.82, 0.0000647229, 9.999221, 9.999792 
1.4999013e+1, 3.0522862e+2, -232855.0, -328460.75, 15597.021, -0.023823945, -0.5435429, -230374.86, -230374.86, 0.00025372737, 9.999327, 9.99805 
1.499935e+1, 3.152288e+2, -66498.734, 110829.82, 38370.98, 0.045167897, -0.3310188, 118776.55, 118776.55, 0.0006708774, 9.998866, 10.001303 
2.5005767e+1, 1.2524065e+2, -1494121.8, -1702738.3, 18204.635, 0.04179084, -0.34983617, -1492545.0, 220062.94, 0.002469487, 10.001862, 9.999174 
2.5006878e+1, 1.3523817e+2, -1474624.8, -1841700.9, 46034.75, 0.13989893, -0.372159, -1468939.6, 145694.94, 0.0014658497, 10.002216, 9.99738 
2.5005883e+1, 1.4523675e+2, -1255146.1, -1416458.5, -6433.5566, 0.10003096, -0.3685677, -1254890.0, 261757.88, 0.0006493342, 10.001892, 9.9997635 
2.5003135e+1, 1.5523714e+2, -1288960.0, -1387003.0, -66666.51, -0.04522069, -0.3370132, -1255231.6, 163408.4, 0.00018140074, 10.001002, 9.999726 
2.5001988e+1, 1.6523679e+2, -1257176.3, -1363349.3, -73469.53, -0.03411699, -0.32060724, -1219620.9, 101018.73, 0.000022322774, 10.000736, 9.999341 
2.500234e+1, 1.7523517e+2, -1124582.4, -1249556.8, -82671.3, 0.11941934, -0.44397116, -1083439.5, 139211.9, 0.00000035252413, 10.000981, 9.999329 
2.500147e+1, 1.8523397e+2, -1114168.9, -1247528.8, -19097.719, 0.098242916, -0.472127, -1111487.9, 13174.946, 0.0, 10.000603, 9.998857 
2.4999611e+1, 1.9523329e+2, -1173712.3, -1227994.3, 7786.635, -0.07423451, -0.44988945, -1172617.4, -145945.08, 0.0, 9.999533, 9.998834 
2.4999359e+1, 2.0523328e+2, -1061519.1, -1020108.06, 15431.078, -0.053681616, -0.3782016, -1014990.4, -86316.336, 0.0, 9.999187, 9.999756 
2.500058e+1, 2.1523368e+2, -933334.2, -910527.25, 12686.318, 0.1443535, -0.33813435, -904872.5, -74201.95, 0.0, 9.999406, 9.99973 
2.5000188e+1, 2.2523324e+2, -691582.2, -650345.6, 6293.1475, 0.1699903, -0.3954823, -649406.56, 83264.03, 0.0, 9.999995, 10.000556 
2.4998353e+1, 2.35232e+2, -473337.3, -507215.84, -41171.46, 0.04411695, -0.6018086, -445756.63, 188917.44, 0.0, 10.000871, 10.000446 
2.4998167e+1, 2.4523155e+2, -529533.2, -655320.25, 31931.615, -0.021607256, -0.6083824, -521891.44, 14785.291, 0.0, 10.000562, 9.998904 
2.4999456e+1, 2.5523168e+2, -633114.25, -656805.75, 43584.668, -0.031746067, -0.51305205, -599794.25, -161114.02, 0.0, 9.999176, 9.998892 
2.4999851e+1, 2.652314e+2, -507367.1, -491041.7, -28112.645, -0.0071956743, -0.44818604, -469930.66, -129246.86, 0.00000003137998, 9.999152, 9.999363 
2.4999437e+1, 2.7523094e+2, -235951.84, -315008.03, -37757.242, 0.058984105, -0.45281562, -220816.61, 21869.48, 0.0000016165861, 10.0003605, 9.999317 
2.4998812e+1, 2.8523034e+2, -130752.53, -175834.02, -7788.6943, 0.05284313, -0.4613646, -129444.82, 15245.969, 0.000011342512, 10.000244, 9.999654 
2.4998066e+1, 2.95229e+2, -229156.75, -163206.73, -46931.81, -0.012231552, -0.5961376, -138823.7, -92120.01, 0.00005395602, 9.998849, 9.99974 
2.4997835e+1, 3.0522874e+2, -283607.7, -308812.97, -36574.156, -0.038455058, -0.52640706, -257525.77, -257525.77, 0.00022021512, 9.998796, 9.998445 
2.4998285e+1, 3.1522876e+2, 47614.844, 116810.56, -937.8847, 0.016142132, -0.38042253, 116823.266, 116823.266, 0.00059438485, 9.999879, 10.00085 
3.500795e+1, 1.252412e+2, -1463246.0, -1620226.5, 6208.864, 0.028869195, -0.34937102, -1463000.9, 249605.75, 0.0023442833, 10.001794, 9.999776 
3.5007876e+1, 1.3524061e+2, -1420962.8, -1727730.1, 63499.207, -0.006434543, -0.24984945, -1408338.3, 206271.66, 0.0013882996, 10.002219, 9.998158 
3.500725e+1, 1.4523882e+2, -1351255.6, -1604397.9, -48136.63, 0.021761741, -0.25519156, -1342411.1, 174216.39, 0.0006086515, 10.001847, 9.998491 
3.5006648e+1, 1.5523721e+2, -1377747.3, -1562460.8, -89339.48, 0.18097347, -0.29660735, -1341607.6, 77037.83, 0.00016439817, 10.000975, 9.99853 
3.5005224e+1, 1.6523558e+2, -1261682.8, -1364160.5, -73656.97, 0.19363646, -0.3527275, -1223195.5, 97462.914, 0.000017966355, 10.000693, 9.999365 
3.500306e+1, 1.7523332e+2, -1126612.0, -1249216.8, -65674.22, 0.07070904, -0.533639, -1098075.3, 124597.67, 0.00000014192928, 10.000959, 9.999349 
3.5001507e+1, 1.8523252e+2, -1059627.3, -1112797.9, -65092.035, 0.021376818, -0.56975454, -1015900.75, 108776.13, 0.0, 10.000517, 9.999819 
3.500045e+1, 1.9523312e+2, -1116055.5, -1093027.3, -21966.277, 0.03407391, -0.51288474, -1079740.4, -53069.63, 0.0, 9.999468, 9.999791 
3.4999844e+1, 2.0523351e+2, -1065052.1, -1000500.06, 14225.793, 0.0584792, -0.45848277, -997504.06, -68837.24, 0.0, 9.99908, 9.999942 
3.4999633e+1, 2.1523352e+2, -937997.56, -893656.0, 30061.848, 0.08880316, -0.471312, -878473.6, -47806.75, 0.0, 9.999298, 9.999897 
3.4999192e+1, 2.2523318e+2, -786792.0, -816625.44, 33153.027, 0.052197102, -0.4690674, -765354.44, -32685.146, 0.0, 9.999867, 9.9994755 
3.4998488e+1, 2.3523259e+2, -561936.0, -661144.1, -1538.101, -0.049090836, -0.4975009, -561912.1, 72761.51, 0.0, 10.000751, 9.999446 
3.4998348e+1, 2.4523224e+2, -499419.44, -573637.2, -27778.512, -0.07714583, -0.4750676, -490174.06, 46502.2, 0.0, 10.000478, 9.999508 
3.4998727e+1, 2.5523204e+2, -608185.25, -577884.06, 2100.5518, -0.042824402, -0.47058976, -577739.1, -139060.44, 0.0, 9.999065, 9.999486 
3.4999216e+1, 2.6523107e+2, -514290.2, -493631.06, 10980.198, -0.0036892027, -0.5052268, -488885.3, -148199.5, 0.0000000045955626, 9.999096, 9.999376 
3.4999713e+1, 2.7522954e+2, -249614.5, -320986.25, 15916.178, 0.02788052, -0.6132294, -246226.0, -3529.785, 0.0000011861115, 10.00026, 9.999328 
3.499884e+1, 2.8522855e+2, -201156.94, -305051.9, -68397.29, 0.011073171, -0.616928, -167216.53, -22510.104, 0.000009324045, 10.000177, 9.998797 
3.4996718e+1, 2.9522738e+2, -303551.75, -296748.9, -88980.15, -0.056573696, -0.64058465, -211105.2, -164382.61, 0.00004426637, 9.998759, 9.998868 
3.4995824e+1, 3.0522847e+2, -218870.52, -167791.16, -2118.2603, -0.13675489, -0.44477302, -167703.45, -167703.45, 0.00018818198, 9.998756, 9.999431 
3.4996146e+1, 3.1522787e+2, 30178.88, 94876.305, 69418.73, -0.2277704, -0.4594224, 139113.48, 139113.48, 0.00052315294, 9.9998, 10.000739 
4.5010406e+1, 1.25242e+2, -1302739.0, -1452149.3, 26348.092, 0.07763856, -0.3159143, -1298228.8, 414373.44, 0.0022184679, 10.002538, 10.000561 
4.500983e+1, 1.3524231e+2, -1415133.1, -1619668.5, 55303.938, 0.0005634433, -0.21987565, -1401137.4, 213454.86, 0.0013082918, 10.00182, 9.999091 
4.5008907e+1, 1.4524049e+2, -1436671.5, -1680916.1, -3404.6812, 0.03534037, -0.25798392, -1436624.0, 79984.96, 0.00056754425, 10.001402, 9.998197 
4.5008263e+1, 1.552384e+2, -1362774.9, -1592999.6, 7949.2183, 0.24179478, -0.3114768, -1362500.8, 56132.61, 0.00014805637, 10.001229, 9.998213 
4.5006788e+1, 1.6523665e+2, -1157374.1, -1326619.0, 106089.68, 0.25028014, -0.3579003, -1106291.1, 214357.97, 0.000013959289, 10.001468, 9.9992485 
4.5004594e+1, 1.7523457e+2, -966079.56, -1186108.9, 86709.9, 0.07782993, -0.5074377, -936016.25, 286646.7, 0.000000037538413, 10.002112, 9.999231 
4.5002642e+1, 1.8523385e+2, -862828.2, -1009485.9, 6728.2026, 0.02542279, -0.5344247, -862520.2, 262146.16, 0.0, 10.00183, 9.999905 
4.5000863e+1, 1.9523449e+2, -948263.3, -1002649.1, -28939.668, 0.080173425, -0.48034227, -935745.25, 90913.15, 0.0, 10.000585, 9.999877 
4.4999897e+1, 2.0523465e+2, -900869.7, -934266.6, 34734.79, 0.104402445, -0.44665357, -879028.0, 49627.824, 0.0, 10.0002575, 9.999832 
4.499971e+1, 2.1523418e+2, -746182.8, -815866.4, 12066.702, 0.1060395, -0.4962101, -744152.5, 86507.19, 0.0, 10.000673, 9.999772 
4.4999248e+1, 2.2523369e+2, -768394.56, -864458.3, 28999.947, 0.060358442, -0.47774684, -760318.9, -27653.508, 0.0, 10.000239, 9.998968 
4.4998506e+1, 2.3523317e+2, -850049.9, -856212.56, 22928.322, -0.028795887, -0.44487637, -829996.75, -195324.02, 0.0, 9.999019, 9.998943 
4.499843e+1, 2.4523292e+2, -675419.25, -633425.75, 24503.316, -0.0438772, -0.40042672, -622153.7, -85478.58, 0.0, 9.999167, 9.999725 
4.4998962e+1, 2.552327e+2, -375351.16, -445257.9, 11530.739, 0.0050135427, -0.4179798, -373498.34, 65176.797, 0.0, 10.000572, 9.999671 
4.4999096e+1, 2.652315e+2, -339129.38, -403339.34, 9854.414, 0.021757945, -0.4899232, -337651.03, 3032.4138, 0.000000013083459, 10.000285, 9.999416 
4.4998875e+1, 2.7522954e+2, -504473.25, -442479.53, 1632.1534, 0.013221505, -0.6436079, -442436.6, -199738.63, 0.0000010541644, 9.9985075, 9.99934 
4.4997913e+1, 2.8522858e+2, -448253.0, -447470.72, -19821.86, -0.0129536195, -0.6308961, -428036.13, -283327.7, 0.000008050424, 9.998588, 9.99859 
4.499621e+1, 2.95228e+2, -82741.734, -215948.3, -8065.6685, -0.058267385, -0.57325417, -82255.13, -35534.75, 0.00003666787, 10.000394, 9.998639 
4.4995368e+1, 3.0522943e+2, 33163.477, -20792.162, 69985.48, -0.13120972, -0.34328344, 81190.79, 81190.79, 0.00016032506, 10.000365, 9.999668 
4.499549e+1, 3.1522703e+2, -183674.16, -31536.623, 63403.176, -0.19333537, -0.56741303, -8578.02, -8578.02, 0.00046162336, 9.998425, 10.000533 
5.5012167e+1, 1.2524326e+2, -1230097.3, -1341309.8, -32205.252, -0.063647, -0.24299209, -1221444.4, 491148.2, 0.0020911084, 10.002685, 10.001261 
5.501241e+1, 1.3524327e+2, -1328999.5, -1469945.4, 37970.797, 0.04232169, -0.28237382, -1319421.1, 295160.53, 0.0012261746, 10.001928, 10.0000725 
5.501068e+1, 1.4524171e+2, -1383113.3, -1581431.0, -20220.18, 0.039788127, -0.37457216, -1381072.6, 135519.77, 0.0005263589, 10.00145, 9.998857 
5.500766e+1, 1.5524077e+2, -1315105.8, -1502527.3, 10302.429, 0.029802328, -0.37715346, -1314541.1, 104062.01, 0.00013276051, 10.001264, 9.998817 
5.500624e+1, 1.6524002e+2, -1181275.5, -1371827.4, 122677.49, 0.023965042, -0.33704636, -1121221.9, 199389.25, 0.0000106646075, 10.0014515, 9.998943 
5.500654e+1, 1.7523885e+2, -987581.9, -1230314.5, 117657.42, 0.034368157, -0.36948895, -939912.5, 282710.2, 0.000000007551507, 10.002113, 9.998925 
5.5004597e+1, 1.8523794e+2, -922271.3, -1125117.5, -49451.543, 0.014878286, -0.3600594, -910857.8, 213773.28, 0.0, 10.001796, 9.999127 
5.500052e+1, 1.952374e+2, -1005924.56, -1116174.4, -68061.79, -0.03763177, -0.34759346, -973464.25, 53171.125, 0.0, 10.000559, 9.999108 
5.499923e+1, 2.0523667e+2, -940067.8, -996874.2, 43467.863, -0.008212724, -0.34487703, -916546.06, 12094.849, 0.0, 10.000182, 9.999435 
5.500047e+1, 2.152356e+2, -782213.75, -875389.3, 34286.313, 0.09134178, -0.41327515, -770957.2, 59692.133, 0.0, 10.000611, 9.999391 
5.5000025e+1, 2.2523469e+2, -770215.7, -855108.3, -25076.734, 0.09210097, -0.4262136, -763361.56, -30702.432, 0.0, 10.000179, 9.999062 
5.4998153e+1, 2.3523386e+2, -855399.06, -850413.5, -13199.774, 0.0123763075, -0.43553084, -839473.2, -204802.72, 0.0, 9.99894, 9.999022 
5.4998094e+1, 2.452336e+2, -698085.44, -665210.06, 72013.9, -0.015557691, -0.38639098, -607781.7, -71108.6, 0.0, 9.999106, 9.999534 
5.499977e+1, 2.5523368e+2, -404054.75, -475934.8, 69557.33, 0.004287027, -0.35352314, -361701.06, 76968.195, 0.0, 10.000456, 9.999512 
5.499917e+1, 2.6523268e+2, -341469.28, -402218.3, -65203.246, -0.021434179, -0.39627984, -299912.75, 40763.43, 0.000000016276152, 10.000253, 9.999443 
5.4996645e+1, 2.7523082e+2, -510286.63, -441658.34, -55034.84, -0.082702756, -0.5465363, -411116.53, -168424.39, 0.00000094951764, 9.998443, 9.999382 
5.4995733e+1, 2.8523037e+2, -422025.28, -383737.47, 39719.63, -0.10956524, -0.5107906, -358789.0, -214091.31, 0.0000068870954, 9.998552, 9.999043 
5.4996234e+1, 2.9523072e+2, -67801.195, -165138.13, 67617.8, -0.12218381, -0.40336013, -33158.28, 13540.073, 0.00003048685, 10.000304, 9.999033 
5.4996175e+1, 3.052315e+2, -5243.4297, -81421.16, -5666.785, -0.1079308, -0.23496862, -4824.19, -4824.19, 0.0001366128, 10.000294, 9.999285 
5.499569e+1, 3.152261e+2, -212408.81, -73686.695, 9494.228, -0.061409123, -0.72075313, -73039.92, -73039.92, 0.00040785797, 9.998356, 10.000272 
6.5014356e+1, 1.2524547e+2, -1504063.5, -1588666.0, 105599.89, -0.030563783, -0.26992917, -1432607.4, 279957.22, 0.0019647046, 10.00127, 10.000252 
6.501471e+1, 1.352444e+2, -1440451.0, -1587749.5, 32096.39, 0.1137638, -0.35032833, -1433761.0, 180808.03, 0.0011417874, 10.001421, 9.999512 
6.50126e+1, 1.4524272e+2, -1328509.8, -1478265.6, -45032.02, 0.09075209, -0.4657681, -1316011.5, 200570.05, 0.0004823996, 10.001505, 9.999531 
6.500879e+1, 1.5524274e+2, -1196035.5, -1369468.9, -31873.643, -0.000022216369, -0.43928862, -1190363.3, 228215.97, 0.00011742101, 10.001764, 9.999479 
6.50074e+1, 1.652427e+2, -1206537.8, -1400786.6, 94659.2, 0.0064489343, -0.35241762, -1168039.5, 152541.25, 0.000008467286, 10.001348, 9.998796 
6.500846e+1, 1.7524211e+2, -1277285.0, -1386775.5, 86656.06, 0.11674701, -0.31216416, -1229530.0, -6939.0723, 0.000000004638606, 10.000203, 9.998772 
6.500652e+1, 1.8524112e+2, -1119946.4, -1245015.8, -21716.43, 0.09619903, -0.29143718, -1116283.0, 8318.96, 0.0, 10.00055, 9.9989 
6.500173e+1, 1.9523983e+2, -780816.5, -1035057.44, -16579.373, -0.049651578, -0.3296962, -779739.94, 246873.08, 0.0, 10.002215, 9.998871 
6.5e+1, 2.0523858e+2, -703032.9, -928114.75, 90093.3, -0.035368063, -0.34491178, -671413.25, 257210.33, 0.0, 10.002004, 9.999032 
6.5001047e+1, 2.1523732e+2, -900722.3, -975950.3, 67075.08, 0.12459673, -0.39345932, -861434.56, -30800.14, 0.0, 9.999989, 9.999 
6.500064e+1, 2.2523631e+2, -811099.56, -878837.8, 51288.184, 0.15379834, -0.3918253, -783506.5, -50861.285, 0.0, 9.999915, 9.999032 
6.499892e+1, 2.3523557e+2, -470851.8, -666196.25, 36568.215, 0.06844719, -0.39042732, -464230.72, 170425.16, 0.0, 10.001584, 9.999018 
6.4998555e+1, 2.4523501e+2, -375174.13, -512455.53, 118801.87, 0.015513004, -0.3684396, -306609.03, 230051.83, 0.0, 10.001319, 9.999535 
6.499945e+1, 2.552346e+2, -579034.94, -560194.2, 114174.89, -0.0059168995, -0.38614684, -455051.7, -16390.205, 0.0, 9.9992485, 9.999528 
6.499865e+1, 2.6523396e+2, -542982.44, -516859.06, -1332.0939, -0.028485276, -0.3823496, -516791.3, -176125.19, 0.00000000394634, 9.998938, 9.999297 
6.499642e+1, 2.752333e+2, -251344.3, -328224.22, -17917.236, -0.035375472, -0.39916116, -247373.66, -4699.8833, 0.0000007712445, 10.000278, 9.99927 
6.4995486e+1, 2.852328e+2, -178733.31, -255568.48, 86339.3, -0.06407486, -0.36682972, -122650.18, 22029.543, 0.000006042053, 10.000174, 9.999141 
6.4995736e+1, 2.952321e+2, -304395.16, -265859.97, 70770.41, -0.110147126, -0.37584737, -211781.19, -165093.39, 0.000026514133, 9.9986315, 9.999142 
6.499546e+1, 3.052326e+2, -297958.9, -207734.89, -4842.077, -0.09555707, -0.25123385, -207475.78, -207475.78, 0.00011960156, 9.998215, 9.999421 
6.4994925e+1, 3.1522837e+2, -105944.625, 43269.66, 17596.838, 0.015208953, -0.63099384, 45316.77, 45316.77, 0.000365328, 9.998796, 10.000876 
7.501644e+1, 1.252484e+2, -1666871.5, -1942786.9, 76960.58, -0.0048119365, -0.39787558, -1646856.9, 65663.4, 0.0018421272, 10.001348, 9.997778 
7.50163e+1, 1.3524568e+2, -1577943.5, -1885334.5, 39712.44, 0.10189802, -0.4276182, -1572895.9, 41658.973, 0.0010580781, 10.001482, 9.997438 
7.501416e+1, 1.4524348e+2, -1271553.8, -1371943.9, -43659.84, 0.06709269, -0.5311031, -1255222.8, 261353.78, 0.0004375462, 10.001551, 10.000241 
7.501131e+1, 1.552442e+2, -1142289.9, -1272972.8, -13483.894, 0.046430394, -0.5035358, -1140913.1, 277649.38, 0.00010224, 10.001822, 10.000119 
7.5009954e+1, 1.652447e+2, -1205897.5, -1398779.6, 44239.496, 0.10255864, -0.3956135, -1196234.8, 124322.88, 0.000007138289, 10.001344, 9.998811 
7.501009e+1, 1.752444e+2, -1273628.3, -1382992.8, 52992.8, 0.23385, -0.33027387, -1252163.4, -29596.338, 0.00000003688298, 10.000217, 9.998791 
7.500812e+1, 1.8524335e+2, -1100518.0, -1204506.4, 34019.48, 0.17931299, -0.3312795, -1090377.4, 34201.48, 0.0, 10.000545, 9.999186 
7.500419e+1, 1.9524169e+2, -763580.44, -996855.0, 50747.74, -0.050150856, -0.43604726, -753018.75, 273573.56, 0.0, 10.002203, 9.999142 
7.5001925e+1, 2.052404e+2, -741827.9, -995259.56, 8145.286, -0.06324908, -0.44660997, -741566.4, 187037.38, 0.0, 10.001947, 9.998596 
7.500118e+1, 2.1523932e+2, -940254.8, -1043290.0, 1762.0834, 0.11776007, -0.4366311, -940224.7, -109609.75, 0.0, 9.999921, 9.998571 
7.5000745e+1, 2.2523859e+2, -835441.3, -912867.9, 108185.07, 0.1541701, -0.3759809, -759251.5, -26627.967, 0.0, 9.999845, 9.99883 
7.5000536e+1, 2.3523818e+2, -497056.88, -701931.6, 105548.875, 0.051460735, -0.32150972, -452409.3, 182220.63, 0.0, 10.001499, 9.998814 
7.499949e+1, 2.4523716e+2, -371992.28, -490984.13, 33838.387, -0.04051807, -0.34791294, -363042.6, 173596.25, 0.0, 10.001259, 9.999705 
7.499773e+1, 2.552354e+2, -580517.75, -546426.3, 45188.508, -0.123556696, -0.51675963, -515175.47, -76523.81, 0.0, 9.999169, 9.9996605 
7.499719e+1, 2.652354e+2, -573378.3, -563223.94, 43397.69, -0.085579686, -0.4457064, -524607.44, -183954.81, 0.00000000015133415, 9.998874, 9.999006 
7.499785e+1, 2.7523702e+2, -287554.5, -379659.25, 42738.297, 0.05596237, -0.20331766, -270778.66, -28136.299, 0.00000065427645, 10.000179, 9.998964 
7.4996877e+1, 2.8523597e+2, -199430.28, -291082.47, 22564.957, 0.036822196, -0.19981703, -194175.97, -49521.902, 0.0000058927376, 10.000138, 9.998915 
7.499439e+1, 2.9523212e+2, -332108.25, -306190.4, 22023.656, -0.13213366, -0.50007546, -293595.94, -246906.8, 0.000025865007, 9.998547, 9.99891 
7.499298e+1, 3.0523255e+2, -264685.28, -126107.59, 15880.349, -0.18517096, -0.4016051, -124311.07, -124311.07, 0.00011192772, 9.998167, 9.999998 
7.499263e+1, 3.1523344e+2, -22897.133, 249577.67, 64354.75, -0.13321769, -0.33287066, 264012.66, 264012.66, 0.00033923058, 9.9986515, 10.00236 
8.5018545e+1, 1.252501e+2, -1528879.5, -1899951.4, -20615.922, 0.028263457, -0.50989294, -1527737.6, 184759.48, 0.0017237901, 10.002413, 9.997552 
8.5017836e+1, 1.3524853e+2, -1549110.0, -1858414.6, 80061.54, 0.10861873, -0.4349787, -1529615.4, 84907.375, 0.0009802121, 10.001638, 9.99754 
8.501577e+1, 1.4524642e+2, -1336015.1, -1438134.0, 72887.375, 0.09408309, -0.5190338, -1298082.3, 218462.53, 0.00039778455, 10.001248, 9.999939 
8.501384e+1, 1.5524654e+2, -1247452.6, -1357622.1, 9041.918, 0.15064582, -0.5204228, -1246715.5, 171821.63, 0.000088897265, 10.001247, 9.999815 
8.501213e+1, 1.6524662e+2, -1191655.6, -1387132.9, 28699.432, 0.1868525, -0.4401226, -1187529.1, 133007.11, 0.000006071428, 10.001424, 9.998854 
8.50107e+1, 1.7524607e+2, -1059084.8, -1272578.9, 24456.893, 0.206873, -0.4015976, -1056318.9, 166228.48, 0.000000076650345, 10.001661, 9.998853 
8.5008734e+1, 1.8524514e+2, -969703.5, -1135643.3, 45013.96, 0.14756598, -0.39574918, -958279.2, 166279.38, 0.0, 10.001424, 9.999233 
8.5006315e+1, 1.9524404e+2, -976925.9, -1093114.1, 29392.396, 0.022593841, -0.44768846, -969913.6, 56654.195, 0.0, 10.000721, 9.999189 
8.5004264e+1, 2.0524293e+2, -836650.3, -1067912.5, -22311.057, 0.0088995, -0.4331152, -834517.5, 94061.41, 0.0, 10.001402, 9.998366 
8.5002494e+1, 2.1524167e+2, -473531.7, -845116.44, -30327.13, 0.09683604, -0.4162115, -471072.8, 359520.1, 0.0, 10.003234, 9.9983425 
8.500161e+1, 2.252407e+2, -421456.8, -727596.25, 84597.266, 0.11568752, -0.36126286, -399635.03, 332968.88, 0.0, 10.002759, 9.998693 
8.500157e+1, 2.3524006e+2, -700425.4, -815890.44, 69963.28, 0.07674511, -0.31579754, -667450.1, -32838.184, 0.0, 10.000178, 9.998662 
8.500004e+1, 2.4523893e+2, -644139.44, -627662.06, 1779.3832, -0.015233683, -0.33953866, -627472.1, -90850.15, 0.0, 9.999413, 9.99965 
8.49972e+1, 2.5523734e+2, -415322.06, -470192.94, -17527.66, -0.14509885, -0.4868925, -410201.06, 28433.355, 0.0, 10.00033, 9.999618 
8.499659e+1, 2.652373e+2, -366862.1, -487247.88, 21177.654, -0.10187588, -0.40848342, -363245.3, -22608.633, 0.0000000019213902, 10.000379, 9.99881 
8.499813e+1, 2.752386e+2, -396543.0, -453331.8, 9363.482, 0.10642569, -0.175889, -395038.94, -152409.05, 0.0000006294421, 9.999512, 9.998787 
8.499716e+1, 2.852373e+2, -310599.06, -316405.5, -2585.3523, 0.10122365, -0.20359485, -309614.78, -164971.38, 0.0000062489003, 9.999251, 9.999169 
8.4993917e+1, 2.9523334e+2, -152389.75, -190969.78, 17622.79, -0.08238697, -0.5417182, -145551.86, -98874.27, 0.000027811611, 9.99966, 9.999164 
8.499186e+1, 3.052332e+2, -128841.97, -131727.19, 15268.251, -0.16764016, -0.47368068, -114948.33, -114948.33, 0.000112212314, 9.999396, 9.999373 
8.4991e+1, 3.152354e+2, -82452.35, 220880.38, -57384.457, -0.12780434, -0.21651463, 231373.39, 231373.39, 0.00032853556, 9.9982395, 10.002352 
9.502014e+1, 1.2525086e+2, -1390010.8, -1617169.0, -75011.05, -0.10560944, -0.5852089, -1367476.4, 345015.8, 0.0016162735, 10.00244, 9.999475 
9.501886e+1, 1.352529e+2, -1384780.1, -1538156.6, 57787.69, 0.018613653, -0.3770297, -1365444.9, 249028.03, 0.000914127, 10.001725, 9.999695 
9.501709e+1, 1.4525151e+2, -1423509.8, -1624721.4, 65160.39, 0.07545445, -0.4289483, -1404251.5, 112235.04, 0.00036652523, 10.001273, 9.998643 
9.5016134e+1, 1.5524977e+2, -1332927.9, -1542103.1, 18960.629, 0.22829652, -0.48595116, -1331223.1, 87279.555, 0.00007896126, 10.001279, 9.998531 
9.501372e+1, 1.6524857e+2, -1189215.8, -1380735.9, 30354.105, 0.18200243, -0.47494575, -1184520.0, 135995.56, 0.000005121987, 10.001415, 9.998902 
9.500999e+1, 1.7524718e+2, -1052252.6, -1263464.0, 39806.242, -0.055301253, -0.5269391, -1044999.56, 177532.33, 0.00000007826353, 10.00168, 9.998905 
9.500809e+1, 1.8524659e+2, -989724.94, -1171309.3, 12096.547, -0.077917606, -0.47923085, -988922.6, 135617.89, 0.0, 10.001397, 9.999002 
9.5007867e+1, 1.9524688e+2, -995445.0, -1126780.1, 14145.694, 0.08175506, -0.37161985, -993938.7, 32601.707, 0.0, 10.000699, 9.998969 
9.5006734e+1, 2.0524615e+2, -848229.5, -1078260.9, 39780.695, 0.09706216, -0.3037184, -841544.25, 87005.19, 0.0, 10.001342, 9.998324 
9.500468e+1, 2.1524431e+2, -485707.06, -857313.1, 44032.824, -0.028661938, -0.34116045, -480560.75, 350008.25, 0.0, 10.003173, 9.998289 
9.5002985e+1, 2.2524258e+2, -442344.03, -755150.06, -18426.965, -0.042479604, -0.35222507, -441262.28, 291324.78, 0.0, 10.002689, 9.998537 
9.500168e+1, 2.3524095e+2, -720095.5, -842824.1, -17579.516, 0.0490291, -0.39185122, -717627.1, -83023.164, 0.0, 10.000113, 9.99851 
9.4999903e+1, 2.4524027e+2, -672648.6, -669498.94, 27894.48, 0.011695096, -0.35268068, -643134.9, -106523.78, 0.0, 9.999342, 9.999396 
9.499762e+1, 2.5524038e+2, -442880.06, -512957.88, 25055.64, -0.15678437, -0.3065211, -434843.34, 3766.861, 0.0, 10.000264, 9.999357 
9.4996667e+1, 2.652396e+2, -384639.34, -512735.63, -18401.773, -0.1500964, -0.2798921, -382048.22, -41428.883, 0.0000000017799018, 10.000331, 9.998657 
9.499694e+1, 2.7523798e+2, -417362.1, -477041.6, -14938.583, 0.015641887, -0.33029214, -413831.63, -171193.58, 0.0000005677249, 9.999426, 9.998663 
9.499605e+1, 2.8523675e+2, -265584.84, -211947.89, 4869.6665, 0.045408078, -0.37882647, -211509.38, -66861.02, 0.0000064583187, 9.999205, 9.9999075 
9.4994e+1, 2.9523572e+2, -118886.336, -99369.09, 45600.59, -0.06459051, -0.499612, -62494.633, -15841.745, 0.000029725905, 9.999564, 9.999838 
9.499179e+1, 3.0523482e+2, -256748.67, -392494.0, -31380.154, -0.13394664, -0.45606837, -249845.6, -249845.6, 0.00011359201, 9.999369, 9.997595 
9.498937e+1, 3.1523448e+2, -211283.19, -18410.787, -68552.13, -0.16050032, -0.26998866, 3471.7996, 3471.7996, 0.00032159366, 9.998113, 10.00077 
1.0502238e+2, 1.252528e+2, -1619981.6, -1688810.8, -49318.145, -0.025232807, -0.5660825, -1594257.8, 118216.86, 0.0015309328, 10.000651, 9.999857 
1.05020925e+2, 1.3525495e+2, -1389554.0, -1471915.8, -61415.266, 0.07881222, -0.41333047, -1356791.0, 257659.44, 0.0008642909, 10.001368, 10.000333 
1.0501886e+2, 1.4525361e+2, -1362787.6, -1623299.4, -44893.86, 0.10290714, -0.47873858, -1355268.1, 161194.22, 0.00034447288, 10.001828, 9.998379 
1.050174e+2, 1.5525162e+2, -1246705.9, -1537922.6, -34966.2, 0.19731131, -0.525492, -1242566.4, 175916.14, 0.00007296801, 10.002038, 9.998198 
1.050146e+2, 1.6525027e+2, -1167897.3, -1369029.3, 9250.991, 0.12706709, -0.5126838, -1167472.6, 153024.73, 0.000004414203, 10.001563, 9.998904 
1.0501074e+2, 1.7524895e+2, -1231712.9, -1352280.9, -3019.4646, -0.08201319, -0.55815434, -1231637.4, -9124.685, 0.000000050630582, 10.000471, 9.998873 
1.0500912e+2, 1.8524842e+2, -1091444.8, -1230238.3, 14657.326, -0.07681817, -0.49898556, -1089913.8, 34607.05, 0.0, 10.000733, 9.998915 
1.0500951e+2, 1.9524874e+2, -806979.06, -1045531.7, 10590.789, 0.11550496, -0.38264212, -806509.8, 220011.08, 0.0, 10.002029, 9.998885 
1.05008386e+2, 2.0524813e+2, -768270.4, -1012566.44, 58476.695, 0.11110006, -0.30926213, -754994.4, 173534.63, 0.0, 10.001786, 9.998558 
1.0500591e+2, 2.1524659e+2, -919963.06, -1038190.25, 65142.285, -0.062316064, -0.3414448, -891111.1, -60565.223, 0.0, 10.000082, 9.99853 
1.05003946e+2, 2.2524482e+2, -803180.3, -929383.75, 15933.191, -0.08597097, -0.36732906, -801199.8, -68635.695, 0.0, 10.0002, 9.998551 
1.0500254e+2, 2.3524287e+2, -451402.5, -712276.5, 15886.878, 0.037557214, -0.43705985, -450438.6, 184145.25, 0.0, 10.001952, 9.998527 
1.0500055e+2, 2.4524228e+2, -322722.88, -541239.75, 77539.58, 0.017976094, -0.37094384, -298004.47, 238586.84, 0.0, 10.001918, 9.999036 
1.0499808e+2, 2.5524285e+2, -473567.78, -568362.9, 52079.168, -0.130421, -0.2416552, -450546.8, -11958.061, 0.0, 10.00023, 9.998993 
1.0499683e+2, 2.6524186e+2, -437264.28, -495393.53, 49643.74, -0.13462092, -0.23929527, -408802.8, -68203.164, 0.00000000014537505, 9.999799, 9.9990225 
1.04996786e+2, 2.7523938e+2, -227149.86, -349451.63, 72665.95, 0.0051309145, -0.40963545, -193328.27, 49294.938, 0.00000042821608, 10.000579, 9.998983 
1.0499563e+2, 2.852386e+2, -112037.234, -176110.83, 72428.33, 0.029018037, -0.41371095, -64876.688, 79753.54, 0.0000059800022, 10.0004015, 9.999591 
1.0499337e+2, 2.9523927e+2, -179483.4, -162779.19, 14874.807, -0.06393073, -0.3345454, -154072.06, -107449.14, 0.000029321069, 9.999278, 9.99955 
1.0499131e+2, 3.0523813e+2, -291809.66, -448416.88, -14329.516, -0.10778995, -0.2809801, -290509.3, -290509.3, 0.000109979665, 9.999309, 9.997239 
1.049896e+2, 3.152354e+2, 69782.914, 50999.223, 27511.217, -0.050662942, -0.2948408, 89461.22, 89461.22, 0.000307793, 10.000331, 10.000182 
1.1502452e+2, 1.2525558e+2, -1689299.9, -1852260.4, -58490.32, 0.06858287, -0.47293425, -1670479.9, 41967.85, 0.001474528, 10.000735, 9.998693 
1.1502383e+2, 1.3525456e+2, -1436770.3, -1582425.8, -29592.143, 0.20479707, -0.548925, -1430987.8, 183468.23, 0.00083337264, 10.001423, 9.999544 
1.15020886e+2, 1.4525276e+2, -1316561.3, -1524604.9, -44741.406, 0.098903604, -0.66062295, -1307347.4, 209124.47, 0.00033260565, 10.001815, 9.9990635 
1.1501722e+2, 1.5525205e+2, -1193362.1, -1438103.9, -16228.259, -0.05255559, -0.6476998, -1192290.8, 226186.27, 0.0000710648, 10.0020895, 9.998855 
1.1501447e+2, 1.6525172e+2, -1174004.8, -1385871.3, -39171.734, -0.06686232, -0.5580495, -1166994.4, 153487.53, 0.0000041843605, 10.0015745, 9.998788 
1.15012765e+2, 1.7525133e+2, -1231730.6, -1361437.4, -33167.5, 0.04782318, -0.50206155, -1223741.4, -1251.0447, 0.000000024917117, 10.000506, 9.998795 
1.1501165e+2, 1.8525061e+2, -1094941.3, -1224256.4, 57621.27, 0.08190719, -0.4597719, -1072991.6, 51508.063, 0.0, 10.000676, 9.998987 
1.1501093e+2, 1.952496e+2, -803696.2, -1034062.9, 63315.816, 0.029786669, -0.4832054, -787441.0, 239068.6, 0.0, 10.002009, 9.998975 
1.1500899e+2, 2.052489e+2, -744975.56, -952409.06, -13822.388, -0.02496108, -0.44678652, -744058.56, 184458.83, 0.0, 10.00173, 9.9990015 
1.15005895e+2, 2.1524838e+2, -897345.9, -976480.4, 10372.14, -0.09074912, -0.42199796, -896009.0, -65484.395, 0.0, 10.000013, 9.99899 
1.1500425e+2, 2.2524735e+2, -801583.5, -907732.6, 74215.98, -0.090733424, -0.4061122, -763417.06, -30881.096, 0.0, 10.000124, 9.998735 
1.15003884e+2, 2.3524584e+2, -452076.75, -691714.25, 87400.88, -0.043078057, -0.45503506, -423586.88, 210964.77, 0.0, 10.001857, 9.998713 
1.1500181e+2, 2.4524501e+2, -369755.16, -620873.7, 6541.2515, -0.06607946, -0.3940162, -369584.88, 166977.7, 0.0, 10.001842, 9.998527 
1.1499824e+2, 2.5524473e+2, -517205.75, -641128.75, -4428.262, -0.15670285, -0.29721153, -517047.72, -78477.31, 0.0, 10.000154, 9.998529 
1.14996836e+2, 2.65244e+2, -381795.63, -374101.44, 72255.91, -0.1329566, -0.28864652, -305590.28, 34987.613, 0.0, 9.999768, 9.999876 
1.1499741e+2, 2.7524284e+2, -182077.84, -240775.7, 110067.445, -0.011149486, -0.4140594, -97513.63, 145071.97, 0.0000002594802, 10.000507, 9.99977 
1.1499564e+2, 2.8524283e+2, -217933.69, -381422.28, 23751.494, -0.02740936, -0.30555767, -214553.0, -69964.17, 0.000005001763, 10.000348, 9.998203 
1.1499171e+2, 2.9524398e+2, -294107.03, -365843.8, -16951.084, -0.17988604, -0.039481483, -290303.25, -243715.8, 0.000026475647, 9.999137, 9.998221 
1.14990145e+2, 3.052432e+2, -226783.28, -296526.25, 23324.988, -0.17343068, 0.0588704, -219701.52, -219701.52, 0.000100772006, 9.9992485, 9.998306 
1.1499112e+2, 3.1523806e+2, 81885.65, 103583.305, 86486.56, 0.02316808, -0.30492604, 179898.81, 179898.81, 0.00028477213, 10.000218, 10.000594 
1.2502584e+2, 1.2525827e+2, -1621965.8, -1859568.8, -7285.5474, 0.10131255, -0.4226462, -1621742.5, 90681.99, 0.0014451224, 10.001388, 9.998326 
1.2502553e+2, 1.3525675e+2, -1448815.5, -1610652.8, 43766.43, 0.24046111, -0.52242804, -1437737.9, 176700.97, 0.000820366, 10.001445, 9.999342 
1.2502259e+2, 1.4525515e+2, -1388486.0, -1534532.4, 40503.016, 0.12678224, -0.61852765, -1378005.4, 138447.94, 0.00033115427, 10.001208, 9.999288 
1.2501866e+2, 1.552545e+2, -1351888.8, -1492872.9, 10763.431, -0.05308533, -0.62037575, -1351071.8, 67385.74, 0.00007354598, 10.000899, 9.999049 
1.2501594e+2, 1.6525432e+2, -1234601.6, -1407715.4, -13489.17, -0.050262254, -0.5301619, -1233556.9, 86903.24, 0.0000047036624, 10.001119, 9.998865 
1.2501453e+2, 1.7525421e+2, -1059457.1, -1271274.0, -7726.392, 0.12186879, -0.45056185, -1059175.6, 163288.73, 0.000000012759114, 10.001646, 9.998875 
1.2501314e+2, 1.8525332e+2, -960807.94, -1140738.1, 126746.74, 0.12802224, -0.43666205, -895343.1, 229130.31, 0.0, 10.00152, 9.999151 
1.2501173e+2, 1.9525181e+2, -977838.75, -1105044.6, 122098.58, -0.023848616, -0.52384824, -903770.4, 122715.94, 0.0, 10.000759, 9.999092 
1.2500957e+2, 2.0525089e+2, -904737.1, -1043412.4, 5267.5464, -0.083481304, -0.509447, -904537.3, 23958.844, 0.0, 10.000692, 9.998871 
1.2500678e+2, 2.1525045e+2, -738307.5, -913839.1, -28403.898, -0.0570974, -0.46366665, -733825.75, 96678.5, 0.0, 10.001167, 9.998859 
1.2500523e+2, 2.2524981e+2, -641013.25, -794438.75, 76509.67, -0.04691742, -0.41822746, -609381.3, 123130.63, 0.0, 10.001071, 9.999052 
1.2500484e+2, 2.3524901e+2, -640313.8, -748225.3, 80407.8, -0.054330688, -0.4267135, -597436.5, 37083.145, 0.0, 10.0004225, 9.99901 
1.2500273e+2, 2.4524821e+2, -594202.6, -714230.75, -1726.447, -0.07300738, -0.38615608, -594177.8, -57648.27, 0.0, 10.000235, 9.998661 
1.2499914e+2, 2.5524732e+2, -457829.63, -601604.8, 22436.934, -0.09330278, -0.36179554, -454409.56, -15867.173, 0.0, 10.000505, 9.998637 
1.2499749e+2, 2.6524666e+2, -307427.75, -358771.84, 123918.18, -0.07063424, -0.34064227, -206550.33, 133999.06, 0.0, 10.000374, 9.999686 
1.2499761e+2, 2.7524614e+2, -287250.94, -310816.8, 68292.63, -0.0054009287, -0.38161695, -229732.2, 12819.736, 0.00000012209664, 9.999884, 9.99958 
1.24995686e+2, 2.8524578e+2, -291299.66, -474132.9, -14372.024, -0.039920084, -0.2757106, -290176.8, -145616.52, 0.000003888246, 10.000103, 9.997677 
1.2499193e+2, 2.9524577e+2, -62583.75, -308765.88, -6500.797, -0.1561995, -0.07497831, -62412.207, -15840.333, 0.00002250982, 10.000971, 9.997724 
1.2499043e+2, 3.0524576e+2, 31423.387, -125374.73, 63243.652, -0.13711423, 0.10505597, 53752.54, 53752.54, 0.000088219014, 10.000788, 9.99876 
1.24991246e+2, 3.1524e+2, -34135.92, 46041.13, 44498.605, 0.064268075, -0.36968124, 65845.98, 65845.98, 0.00025421128, 9.999422, 10.000591 
1.3502578e+2, 1.2526071e+2, -1595015.4, -1801042.0, -37639.54, -0.09112886, -0.42328176, -1588354.4, 124052.23, 0.0014399097, 10.001391, 9.99872 
1.3502567e+2, 1.3526149e+2, -1408289.6, -1535818.4, 51780.9, 0.08397903, -0.34249496, -1389913.0, 224486.23, 0.0008240123, 10.001503, 9.99982 
1.3502367e+2, 1.4526074e+2, -1401198.8, -1579755.6, 18643.006, 0.08520352, -0.35602278, -1399273.1, 117133.55, 0.00033951883, 10.001275, 9.99895 
1.3502142e+2, 1.5525897e+2, -1368017.6, -1534850.5, 9118.559, 0.10813513, -0.4425536, -1367520.8, 50903.285, 0.00008018549, 10.000928, 9.998751 
1.3501869e+2, 1.6525805e+2, -1223568.3, -1371249.0, -1425.23, 0.09362613, -0.42287004, -1223554.5, 96877.41, 0.0000062149566, 10.00107, 9.999134 
1.3501564e+2, 1.7525756e+2, -1041854.5, -1233459.1, 21247.285, 0.045735683, -0.40819877, -1039526.6, 182908.05, 0.000000017143847, 10.001652, 9.999125 
1.350133e+2, 1.852566e+2, -949010.6, -1115771.9, 90291.92, -0.033384446, -0.42426988, -909489.06, 214952.55, 0.0, 10.001507, 9.999333 
1.3501152e+2, 1.9525531e+2, -967314.25, -1078965.0, 103061.77, -0.14397188, -0.50948614, -905929.56, 120521.65, 0.0, 10.000738, 9.99928 
1.3500986e+2, 2.0525405e+2, -965091.0, -1155859.1, 15579.294, -0.1414871, -0.50008607, -963827.1, -35361.645, 0.0, 10.000636, 9.998129 
1.3500823e+2, 2.1525271e+2, -801141.0, -1020945.9, -2395.0818, -0.04961715, -0.46993518, -801114.94, 29370.057, 0.0, 10.001071, 9.998169 
1.3500665e+2, 2.2525221e+2, -622199.9, -741654.4, 43233.83, -0.03225929, -0.4007071, -608194.44, 124297.484, 0.0, 10.001, 9.999454 
1.3500507e+2, 2.3525235e+2, -619521.2, -690648.25, 62841.207, -0.09286506, -0.35369858, -582878.2, 51610.17, 0.0, 10.000356, 9.999438 
1.3500303e+2, 2.4525183e+2, -546475.4, -604600.3, 1.4200546, -0.08563996, -0.34749135, -546475.4, -9982.819, 0.0, 10.000188, 9.999438 
1.350006e+2, 2.5525063e+2, -418947.25, -500440.16, 39482.58, -0.019488098, -0.43148157, -402956.2, 35548.016, 0.0, 10.000416, 9.999374 
1.3499855e+2, 2.6524988e+2, -404365.6, -546338.2, 99536.82, -0.018144455, -0.3913329, -353095.47, -12581.979, 0.0, 10.000319, 9.998422 
1.3499704e+2, 2.7524933e+2, -386438.16, -493076.25, 59694.984, -0.07250628, -0.31283388, -359717.16, -117194.35, 0.000000046518082, 9.999785, 9.998374 
1.3499548e+2, 2.8524736e+2, -269971.75, -420779.7, 10392.277, -0.09128296, -0.32878745, -269258.97, -124713.26, 0.0000029362805, 10.000062, 9.998065 
1.3499382e+2, 2.952444e+2, -48020.688, -262538.44, 34035.43, -0.08816226, -0.45619372, -42750.113, 3827.9587, 0.000019015239, 10.000896, 9.99808 
1.3499185e+2, 3.052458e+2, 14238.464, -144623.63, 8023.0103, -0.088256426, -0.14870402, 14642.621, 14642.621, 0.000075927965, 10.000725, 9.998653 
1.3498937e+2, 3.1524122e+2, -82967.72, -26313.063, 15613.963, -0.10796443, -0.4897781, -22294.861, -22294.861, 0.00022269739, 9.999297, 10.0001545 
1.4502794e+2, 1.2526438e+2, -1639287.3, -1834464.3, 49923.99, 0.012013851, -0.38297015, -1627258.6, 85115.72, 0.0014542761, 10.001131, 9.998624 
1.4502704e+2, 1.3526528e+2, -1423024.6, -1550993.5, 65950.74, 0.081617184, -0.28514254, -1395120.4, 219246.75, 0.0008417685, 10.001425, 9.999755 
1.4502491e+2, 1.4526515e+2, -1382087.0, -1577598.6, 28662.479, 0.07807518, -0.23060311, -1377971.8, 138397.83, 0.0003553583, 10.001435, 9.998893 
1.450229e+2, 1.5526354e+2, -1330792.3, -1521957.4, 22051.701, 0.15629108, -0.2912513, -1328281.5, 90104.32, 0.00008912462, 10.001205, 9.998712 
1.4502016e+2, 1.6526222e+2, -1181284.1, -1338257.1, 60486.02, 0.12909997, -0.31849137, -1160681.4, 159715.05, 0.000008328298, 10.001314, 9.999237 
1.450169e+2, 1.7526081e+2, -1037852.56, -1225633.4, 49588.855, 0.010291775, -0.40527326, -1025561.7, 196843.22, 0.0000000715251, 10.001649, 9.99918 
1.4501436e+2, 1.8525963e+2, -995249.6, -1169285.4, 61204.8, -0.06183848, -0.43068695, -975880.75, 148532.63, 0.0, 10.0013275, 9.999055 
1.4501245e+2, 1.9525868e+2, -1040058.5, -1146936.5, 23330.537, -0.1001101, -0.45229977, -1035187.6, -8766.171, 0.0, 10.00037, 9.999001 
1.4501096e+2, 2.0525752e+2, -988623.44, -1147113.0, 24435.717, -0.080179185, -0.42696136, -984941.5, -56506.855, 0.0, 10.000399, 9.998298 
1.4500973e+2, 2.1525611e+2, -761638.94, -990187.56, 53267.76, -0.012286215, -0.42051816, -749833.6, 80619.77, 0.0, 10.001291, 9.998275 
1.4500782e+2, 2.2525539e+2, -599473.4, -728256.75, 75666.055, -0.019220939, -0.37661183, -564508.94, 167952.27, 0.0, 10.001162, 9.999463 
1.4500529e+2, 2.3525526e+2, -652367.8, -709194.06, 49088.03, -0.09190306, -0.35791945, -624062.9, 10396.731, 0.0, 10.000144, 9.999417 
1.4500317e+2, 2.4525444e+2, -590743.56, -636216.06, -4143.4746, -0.07250389, -0.37252268, -590369.1, -53903.242, 0.0, 9.999932, 9.999342 
1.4500146e+2, 2.5525308e+2, -419205.38, -508350.47, -48736.332, 0.028913252, -0.46668974, -397732.94, 40746.063, 0.0, 10.000462, 9.999291 
1.4499936e+2, 2.6525247e+2, -377000.75, -576182.94, 4344.087, 0.017230147, -0.38933998, -376906.06, -36417.977, 0.0, 10.000678, 9.998051 
1.4499703e+2, 2.7525237e+2, -295157.47, -490078.9, 17272.256, -0.08490529, -0.22251737, -293638.78, -51143.54, 0.00000002138944, 10.000579, 9.998023 
1.4499557e+2, 2.8524992e+2, -181166.58, -319032.56, 45814.613, -0.09851863, -0.2977502, -167330.4, -22808.973, 0.0000023054517, 10.0004015, 9.998609 
1.4499483e+2, 2.9524568e+2, -120842.86, -236738.17, 63180.063, -0.03390156, -0.6128141, -93060.41, -46499.09, 0.000016570593, 10.000129, 9.998629 
1.4499286e+2, 3.052478e+2, -102319.0, -203599.84, 25465.078, -0.012465905, -0.25725064, -96276.77, -96276.77, 0.0000664134, 9.999948, 9.9986105 
1.4498878e+2, 3.1524453e+2, -31105.24, -7759.8516, 8653.611, -0.10662765, -0.46342972, -4901.9995, -4901.9995, 0.0001967113, 9.999692, 10.00008 
1.5503179e+2, 1.2526953e+2, -1663694.4, -1914897.8, 24858.861, 0.22986951, -0.2806817, -1661258.0, 51067.184, 0.0014746141, 10.001253, 9.998016 
1.550293e+2, 1.352682e+2, -1463808.5, -1642770.1, 79537.37, 0.14115275, -0.33751622, -1433568.8, 180773.14, 0.00086313457, 10.001449, 9.999118 
1.550259e+2, 1.4526834e+2, -1364652.0, -1538284.4, 9888.549, 0.011173356, -0.24082021, -1364090.8, 152251.6, 0.00037152023, 10.001427, 9.999166 
1.5502279e+2, 1.5526825e+2, -1309517.5, -1482947.5, 23918.527, -0.0014040951, -0.17389427, -1306279.3, 112063.71, 0.00009663115, 10.001232, 9.998963 
1.5502013e+2, 1.6526687e+2, -1190304.4, -1352829.4, 65222.45, -0.026385985, -0.21467774, -1167367.3, 152985.75, 0.000009881803, 10.001297, 9.999148 
1.5501803e+2, 1.7526412e+2, -1047594.75, -1240637.0, 70118.11, -0.061174426, -0.42704675, -1024814.25, 197559.3, 0.00000020107916, 10.00163, 9.999087 
1.550161e+2, 1.8526249e+2, -1052342.0, -1284945.4, 17418.248, -0.04051546, -0.45154542, -1051044.9, 73343.17, 0.0, 10.001313, 9.998269 
1.5501425e+2, 1.952619e+2, -1100925.6, -1258277.8, -2086.6665, 0.022682883, -0.3561094, -1100898.0, -74501.016, 0.0, 10.000317, 9.998259 
1.5501258e+2, 2.0526132e+2, -923898.2, -1004772.5, 50701.61, 0.023007583, -0.2880518, -899483.06, 28920.578, 0.0, 10.000353, 9.999304 
1.5501092e+2, 2.1526068e+2, -701630.2, -848224.8, 92091.21, -0.04094272, -0.3068238, -657227.5, 173181.55, 0.0, 10.001217, 9.999285 
1.5500845e+2, 2.2525948e+2, -640603.7, -799806.8, 29925.676, -0.08952755, -0.33858153, -635164.4, 97254.38, 0.0, 10.001098, 9.999004 
1.5500526e+2, 2.3525767e+2, -697051.2, -785312.3, 21328.717, -0.12734051, -0.43963262, -692167.25, -57733.848, 0.0, 10.000068, 9.998933 
1.5500292e+2, 2.4525605e+2, -665594.56, -782658.06, 8540.213, -0.11031831, -0.46277305, -664974.8, -128525.26, 0.0, 9.999887, 9.99836 
1.5500143e+2, 2.5525448e+2, -495531.5, -654593.8, -20193.404, -0.039052274, -0.47856885, -493007.94, -54539.836, 0.0, 10.000398, 9.998323 
1.5499957e+2, 2.6525432e+2, -346324.7, -500872.6, -6756.1133, -0.04665529, -0.3368051, -346029.9, -5555.824, 0.0, 10.000634, 9.998585 
1.5499736e+2, 2.752553e+2, -271636.63, -422642.8, 22775.12, -0.12824722, -0.11917631, -268276.38, -25806.176, 0.000000019825112, 10.000496, 9.998526 
1.5499571e+2, 2.852535e+2, -137261.28, -215098.08, 30042.664, -0.14312434, -0.18805355, -127014.62, 17473.254, 0.0000019865888, 10.000351, 9.999344 
1.5499459e+2, 2.9524946e+2, -82109.85, -136746.28, 64961.7, -0.094364524, -0.5540012, -38956.035, 7566.575, 0.000014949104, 10.000041, 9.999358 
1.549932e+2, 3.052518e+2, -108978.72, -201455.16, 13262.385, 0.009260495, -0.21802717, -107114.3, -107114.3, 0.000059797247, 9.99989, 9.998643 
1.54989e+2, 3.1525013e+2, -27881.004, 23410.018, 25088.043, -0.09506674, -0.27170685, 33640.71, 33640.71, 0.0001777337, 9.999594, 10.000336 
1.6503347e+2, 1.2527269e+2, -1723707.1, -1924717.4, -75413.664, 0.30599135, -0.19732186, -1698559.9, 13737.595, 0.0014821975, 10.000751, 9.998187 
1.6503116e+2, 1.3527046e+2, -1427361.1, -1627066.5, 9023.133, 0.1753289, -0.34633136, -1426954.3, 187367.47, 0.0008719991, 10.001702, 9.9991045 
1.6502756e+2, 1.4527053e+2, -1298333.3, -1506347.6, -59979.03, 0.017619811, -0.25529316, -1282278.1, 234044.4, 0.0003781117, 10.001908, 9.999137 
1.6502394e+2, 1.5527044e+2, -1258965.4, -1463896.9, -87481.08, -0.022071494, -0.18502031, -1226701.1, 191622.78, 0.000098805474, 10.001616, 9.9989 
1.6502124e+2, 1.6526926e+2, -1186546.0, -1366999.5, -30432.254, -0.043323804, -0.19532678, -1181552.0, 138781.2, 0.000009884257, 10.001374, 9.999014 
1.6501956e+2, 1.7526694e+2, -1131231.0, -1291352.0, -42227.734, -0.040134005, -0.35356498, -1120777.0, 101573.83, 0.0000002904704, 10.00109, 9.998999 
1.6501768e+2, 1.8526539e+2, -1092764.8, -1281370.3, -59963.875, 0.009009494, -0.3770951, -1075314.8, 49049.55, 0.0, 10.000955, 9.998453 
1.6501562e+2, 1.9526446e+2, -992459.4, -1186411.0, -21766.092, 0.10037452, -0.3362186, -990046.75, 36327.863, 0.0, 10.000976, 9.998427 
1.6501352e+2, 2.0526373e+2, -857543.4, -947116.06, 76648.62, 0.06943667, -0.30368537, -813555.7, 114825.08, 0.0, 10.000709, 9.999525 
1.6501127e+2, 2.1526317e+2, -832946.0, -887201.6, 41272.48, -0.07205292, -0.33428183, -810684.2, 19699.203, 0.0, 10.000213, 9.999502 
1.65009e+2, 2.2526202e+2, -770717.7, -875687.25, -39814.164, -0.09853783, -0.36475402, -757325.2, -24933.0, 0.0, 10.000271, 9.998877 
1.6500667e+2, 2.3526037e+2, -600095.06, -749347.6, -41048.105, -0.02435477, -0.43811512, -589550.75, 44855.484, 0.0, 10.000799, 9.998818 
1.6500443e+2, 2.452586e+2, -530648.06, -745691.5, 18579.947, 0.0031097336, -0.45438927, -529054.56, 7369.738, 0.0, 10.000943, 9.998104 
1.6500232e+2, 2.5525674e+2, -460961.84, -661841.94, 27601.53, -0.0041053575, -0.47327068, -457238.3, -18792.26, 0.0, 10.000747, 9.998101 
1.6500017e+2, 2.6525632e+2, -358678.84, -486870.78, 55732.313, -0.037416406, -0.3579666, -337837.28, 2616.8948, 0.0, 10.000458, 9.998768 
1.6499804e+2, 2.7525702e+2, -313059.38, -415140.8, 43321.836, -0.0827723, -0.18851966, -297152.8, -54701.29, 0.000000024295247, 10.000104, 9.998754 
1.64996e+2, 2.8525573e+2, -224703.78, -246793.13, 28200.934, -0.11036144, -0.2209859, -205461.86, -60997.88, 0.0000019697127, 9.999717, 9.999427 
1.6499415e+2, 2.9525295e+2, -177836.19, -165139.66, -4186.0723, -0.10039254, -0.4680347, -163883.73, -117396.234, 0.000013995548, 9.999315, 9.999512 
1.6499306e+2, 3.0525452e+2, -135403.84, -186336.34, -25395.598, 0.029406402, -0.23150308, -124905.3, -124905.3, 0.00005518299, 9.999573, 9.998912 
1.6498946e+2, 3.1525362e+2, 82180.664, 93551.97, -20995.125, -0.032165058, -0.23045902, 109617.68, 109617.68, 0.00016337763, 10.000267, 10.000499 
1.7503245e+2, 1.2527381e+2, -1650261.5, -1774810.9, -67996.88, 0.08120774, -0.14803953, -1620331.5, 91960.25, 0.001464911, 10.000771, 9.999202 
1.7503232e+2, 1.3527215e+2, -1381077.5, -1530088.3, 47828.8, 0.098928176, -0.30925876, -1367046.8, 247258.58, 0.0008580161, 10.001713, 9.999759 
1.7502975e+2, 1.4527178e+2, -1322405.0, -1562884.6, -79642.234, 0.021746969, -0.27131215, -1298421.1, 217888.13, 0.00036898247, 10.001927, 9.998747 
1.7502609e+2, 1.5527011e+2, -1281678.3, -1515080.5, -88122.586, 0.0058781984, -0.322794, -1252144.1, 166184.48, 0.00009401229, 10.00163, 9.998545 
1.7502323e+2, 1.6526936e+2, -1195758.9, -1380696.0, -48450.598, -0.0055243354, -0.26534215, -1183834.4, 136502.5, 0.000008393363, 10.001352, 9.998932 
1.7502114e+2, 1.752694e+2, -1138405.8, -1301312.5, -44661.242, -0.012041326, -0.17940158, -1126965.3, 95370.93, 0.00000020811186, 10.001077, 9.998935 
1.7501885e+2, 1.8526843e+2, -1011689.94, -1115287.8, -65215.063, 0.008512486, -0.1998405, -980205.44, 144135.88, 0.0, 10.000951, 9.9996 
1.7501627e+2, 1.9526647e+2, -919256.56, -1026048.44, -13490.662, 0.047016, -0.3785694, -917578.7, 108774.31, 0.0, 10.0009365, 9.999548 
1.7501348e+2, 2.0526487e+2, -905898.1, -1037373.94, 48243.3, -0.02198271, -0.45842624, -890095.3, 38269.414, 0.0, 10.00066, 9.99893 
1.7501053e+2, 2.1526352e+2, -886046.7, -981302.94, 31356.111, -0.18666205, -0.5065599, -876651.6, -46274.68, 0.0, 10.000145, 9.998889 
1.7500919e+2, 2.2526306e+2, -765487.4, -852356.44, -27551.826, -0.12579511, -0.44774073, -757485.9, -25104.95, 0.0, 10.000213, 9.999065 
1.7500925e+2, 2.3526327e+2, -593423.0, -724910.4, -14380.205, 0.13533033, -0.35524604, -591868.7, 42509.855, 0.0, 10.000745, 9.999014 
1.750074e+2, 2.4526215e+2, -507662.7, -686255.94, 3294.3843, 0.19034538, -0.34184825, -507601.94, 28787.934, 0.0, 10.000895, 9.998533 
1.7500381e+2, 2.5525978e+2, -444730.72, -609587.0, 26052.047, 0.05245373, -0.45382258, -440711.72, -2298.0542, 0.0, 10.000668, 9.998498 
1.75001e+2, 2.6525834e+2, -369245.25, -504140.06, 35026.074, -0.018539365, -0.45317897, -360692.8, -20263.648, 0.0, 10.000435, 9.99866 
1.7499883e+2, 2.7525747e+2, -330112.0, -438557.88, 37715.7, -0.03382766, -0.43096524, -318284.94, -75845.21, 0.000000035492793, 10.000047, 9.998623 
1.749962e+2, 2.852566e+2, -267990.44, -330682.28, 3085.1191, -0.08311374, -0.38817102, -267839.0, -123388.914, 0.0000021240596, 9.999692, 9.99886 
1.7499308e+2, 2.9525608e+2, -222815.36, -240590.48, -9051.954, -0.160764, -0.35670277, -219017.23, -172560.33, 0.000013429294, 9.999245, 9.9990225 
1.749922e+2, 3.0525586e+2, -97584.03, -108316.86, -4495.688, -0.029293802, -0.30301052, -95949.76, -95949.76, 0.000050917075, 9.99957, 9.999455 
1.7498952e+2, 3.1525505e+2, 71566.36, 96534.766, 46204.86, -0.09552735, -0.33788475, 131912.28, 131912.28, 0.00014886881, 10.000172, 10.000563 
1.8503304e+2, 1.2527417e+2, -1563660.4, -1648581.0, 3121.8484, 0.05906643, -0.2454231, -1563545.8, 148741.67, 0.0014182838, 10.000991, 9.999969 
1.8503328e+2, 1.352737e+2, -1536780.5, -1550150.1, 80089.16, 0.09712509, -0.33661905, -1463097.6, 151190.4, 0.00082149997, 10.000405, 10.000249 
1.8503124e+2, 1.4527385e+2, -1513122.8, -1655265.9, -6380.636, 0.04813683, -0.27066335, -1512836.9, 3450.1626, 0.00034638878, 10.000604, 9.99875 
1.8502808e+2, 1.5527195e+2, -1273682.3, -1507143.4, -2493.5947, 0.045019254, -0.34906307, -1273655.6, 144654.4, 0.000084445885, 10.001658, 9.998588 
1.8502513e+2, 1.6527136e+2, -1134567.9, -1334775.3, 42039.02, 0.03714564, -0.28699347, -1126098.9, 194218.55, 0.000006352812, 10.001716, 9.999065 
1.8502258e+2, 1.7527182e+2, -1155456.5, -1297366.8, 48332.723, 0.035948597, -0.17074902, -1140559.0, 81753.32, 0.000000056960435, 10.000907, 9.9990425 
1.8502006e+2, 1.8527083e+2, -1014801.56, -1130111.6, 36046.125, 0.037901286, -0.19290793, -1004460.8, 119856.75, 0.0, 10.000993, 9.999476 
1.8501747e+2, 1.9526851e+2, -797136.94, -979002.94, -24040.213, 0.032617394, -0.395362, -794012.8, 232319.69, 0.0, 10.001831, 9.999439 
1.8501464e+2, 2.052667e+2, -783656.25, -1015679.6, -27553.637, -0.019792886, -0.47405836, -780429.0, 147917.81, 0.0, 10.001655, 9.9986 
1.8501157e+2, 2.1526532e+2, -848002.6, -998692.25, -36704.027, -0.11361544, -0.4936592, -839537.94, -9177.07, 0.0, 10.000547, 9.998578 
1.850102e+2, 2.2526468e+2, -743284.75, -828544.0, -23383.066, -0.045614507, -0.44377163, -737292.9, -4926.047, 0.0, 10.0003, 9.999194 
1.8501036e+2, 2.3526464e+2, -571538.4, -701359.2, -31178.422, 0.1716287, -0.3869522, -564438.7, 69927.24, 0.0, 10.000829, 9.999142 
1.8500838e+2, 2.4526381e+2, -483249.4, -652250.6, -38646.242, 0.19822514, -0.36080533, -474831.3, 61542.766, 0.0, 10.00096, 9.998735 
1.850045e+2, 2.5526226e+2, -422843.53, -575805.7, -47824.367, 0.0562409, -0.41389522, -409121.9, 29268.248, 0.0, 10.000718, 9.998704 
1.8500167e+2, 2.652608e+2, -316918.47, -466743.8, -18573.809, -0.0037627188, -0.4327993, -314650.22, 25755.1, 0.0, 10.000741, 9.99877 
1.8499985e+2, 2.7525914e+2, -182737.69, -358052.53, -15985.507, 0.01746824, -0.49534675, -181292.02, 61129.727, 0.000000044067633, 10.00101, 9.998719 
1.8499707e+2, 2.852583e+2, -107314.06, -291836.53, -29639.715, -0.02216014, -0.4353539, -102669.945, 41761.848, 0.000002141611, 10.000947, 9.99853 
1.8499349e+2, 2.952586e+2, -48828.27, -196120.53, -43670.36, -0.10669914, -0.2864457, -36854.0, 9578.486, 0.000012353572, 10.000593, 9.998689 
1.8499224e+2, 3.0525705e+2, -28336.424, -31960.674, -16811.719, 0.008344819, -0.37204129, -13239.447, -13239.447, 0.0000445169, 9.99986, 9.999832 
1.8498896e+2, 3.1525683e+2, -182723.06, -91183.16, 14281.731, -0.08366966, -0.3789784, -89006.72, -89006.72, 0.00012870552, 9.998666, 10.000013 
1.9503474e+2, 1.2527382e+2, -1522042.1, -1564175.3, -52222.043, 0.08265209, -0.47443306, -1486797.6, 225486.75, 0.0013429979, 10.001011, 10.000535 
1.950338e+2, 1.3527507e+2, -1517256.8, -1501342.6, 61206.137, 0.087339334, -0.42869815, -1447578.5, 166692.03, 0.0007683095, 10.000384, 10.000588 
1.9503173e+2, 1.4527668e+2, -1478967.4, -1586958.4, 22900.057, 0.011504091, -0.2558695, -1474312.0, 41944.42, 0.00031677555, 10.000606, 9.999221 
1.9502957e+2, 1.5527605e+2, -1239348.1, -1437373.0, 42875.305, 0.0068424367, -0.2573402, -1230463.6, 187803.83, 0.000073711046, 10.001663, 9.999064 
1.9502677e+2, 1.6527532e+2, -1110687.5, -1286346.9, 5542.0396, 0.008350216, -0.2497236, -1110512.9, 209761.1, 0.0000047225935, 10.00171, 9.999407 
1.9502367e+2, 1.7527433e+2, -1134615.6, -1254656.4, 29355.092, 0.031280655, -0.31471616, -1127821.5, 94456.98, 0.0000000036456946, 10.000903, 9.999341 
1.9502112e+2, 1.852727e+2, -1116251.3, -1333641.3, 59139.297, 0.024361573, -0.34360048, -1101204.4, 23087.85, 0.0, 10.0009575, 9.9981 
1.9501895e+2, 1.9527052e+2, -898064.1, -1180538.0, 14113.966, -0.022315415, -0.3920709, -897360.7, 128953.0, 0.0, 10.001793, 9.998078 
1.9501662e+2, 2.0526923e+2, -797279.8, -1025786.3, -75425.52, -0.0039331005, -0.35105887, -774628.6, 153698.6, 0.0, 10.00158, 9.998563 
1.9501413e+2, 2.1526857e+2, -860979.75, -1006708.0, -68844.164, 0.069919445, -0.2960514, -833600.7, -3265.6453, 0.0, 10.000467, 9.998559 
1.9501182e+2, 2.2526695e+2, -752609.4, -830674.44, -12126.492, 0.071420684, -0.34456918, -750769.06, -18419.977, 0.0, 10.00023, 9.999211 
1.950097e+2, 2.3526447e+2, -580834.75, -701874.75, -4799.441, 0.004174762, -0.53602207, -580644.75, 53724.03, 0.0, 10.000751, 9.999173 
1.9500712e+2, 2.4526358e+2, -495409.6, -661970.44, -55655.594, -0.042041853, -0.5136381, -478524.28, 57852.87, 0.0, 10.000894, 9.998701 
1.9500406e+2, 2.552641e+2, -436258.78, -583695.5, -48389.49, -0.076562904, -0.35661682, -421795.84, 16579.902, 0.0, 10.000634, 9.998688 
1.95002e+2, 2.6526365e+2, -298558.16, -422665.5, -15612.366, -0.063319795, -0.2897884, -296624.3, 43757.57, 0.0, 10.000712, 9.99909 
1.9500077e+2, 2.7526203e+2, -169052.0, -318549.56, 3279.142, -0.0120750265, -0.38122126, -168980.11, 73417.03, 0.000000036761158, 10.000956, 9.999022 
1.9499843e+2, 2.8526086e+2, -123808.27, -315118.3, -49296.664, 0.00027946342, -0.36378285, -111852.68, 32556.625, 0.0000018181237, 10.000906, 9.998387 
1.9499514e+2, 2.952606e+2, -74685.06, -225016.44, -44841.22, -0.02283645, -0.2511748, -62325.81, -15912.3955, 0.000010151812, 10.000498, 9.998531 
1.9499286e+2, 3.0525815e+2, -15288.13, -472.27078, -64731.367, 0.06510931, -0.4313089, 57273.67, 57273.67, 0.00003534469, 9.999839, 10.000057 
1.9498727e+2, 3.1525937e+2, -261165.14, -231695.98, 11646.565, -0.16203576, -0.3239186, -227648.92, -227648.92, 0.0001028295, 9.99858, 9.999081 
2.0503661e+2, 1.2527622e+2, -1534875.9, -1623461.5, 12060.676, 0.16834646, -0.5087867, -1533263.1, 178995.13, 0.0012444656, 10.001168, 10.000044 
2.0503426e+2, 1.3527751e+2, -1438905.3, -1543869.5, 23120.617, 0.059072893, -0.38889652, -1434038.1, 180210.66, 0.00070293987, 10.001255, 9.999885 
2.0503214e+2, 1.4527908e+2, -1395265.9, -1486299.9, -9870.895, -0.020090582, -0.21209194, -1394207.8, 122027.62, 0.00028321997, 10.000935, 9.999751 
2.0503058e+2, 1.5527888e+2, -1380193.0, -1445733.3, -9092.45, 0.007977516, -0.22363317, -1378955.0, 39283.508, 0.000063005726, 10.000443, 9.999593 
2.0502809e+2, 1.6527784e+2, -1244369.5, -1358476.5, -46916.57, 0.01835448, -0.26963475, -1227556.5, 92689.46, 0.0000035155435, 10.000834, 9.99933 
2.0502509e+2, 1.752759e+2, -982693.9, -1189912.0, -71931.39, 0.03191969, -0.4180476, -960172.2, 262086.64, 0.0000000004928599, 10.00199, 9.999261 
2.0502247e+2, 1.852743e+2, -980115.9, -1278530.6, -2540.7383, 0.020577637, -0.4355135, -980094.25, 144178.77, 0.0, 10.001938, 9.998005 
2.0502017e+2, 1.9527303e+2, -1051380.1, -1265684.4, 31501.652, -0.023095192, -0.3863951, -1046845.5, -20557.36, 0.0, 10.000786, 9.997977 
2.0501794e+2, 2.0527202e+2, -943954.06, -1113812.1, -1446.2515, 0.021440022, -0.3035682, -943941.75, -15641.341, 0.0, 10.000647, 9.998411 
2.0501584e+2, 2.1527115e+2, -743876.1, -968182.1, -17189.262, 0.15334281, -0.2523554, -742566.5, 87744.484, 0.0, 10.001353, 9.998399 
2.0501307e+2, 2.2526936e+2, -608943.8, -799185.9, 41055.047, 0.11845664, -0.29224, -600462.1, 131865.66, 0.0, 10.001377, 9.998871 
2.0500971e+2, 2.352667e+2, -602348.4, -751813.0, 5532.9756, -0.06453391, -0.4670702, -602143.9, 32206.803, 0.0, 10.0007715, 9.99882 
2.050072e+2, 2.4526554e+2, -544331.75, -674934.2, -41458.05, -0.09854941, -0.45924175, -532283.0, 4078.6882, 0.0, 10.000509, 9.9987955 
2.0500538e+2, 2.552657e+2, -434525.2, -577408.5, -39532.688, -0.003678849, -0.34767106, -424316.72, 14046.089, 0.0, 10.00061, 9.998747 
2.0500347e+2, 2.6526543e+2, -315267.34, -434244.25, 2685.7944, 0.019410431, -0.26112083, -315206.75, 25160.428, 0.0, 10.000625, 9.999047 
2.0500141e+2, 2.7526456e+2, -226684.44, -348665.3, -27032.742, -0.017517747, -0.27621335, -220962.05, 21414.781, 0.00000002096579, 10.000588, 9.998981 
2.049988e+2, 2.852632e+2, -166818.4, -332429.84, -78102.64, -0.030874174, -0.27306554, -135796.14, 8594.036, 0.0000012828043, 10.000599, 9.998416 
2.0499568e+2, 2.9526213e+2, -47292.656, -206385.89, -69880.14, -0.019800456, -0.25329632, -20957.744, 25442.932, 0.000007381431, 10.000666, 9.998576 
2.0499338e+2, 3.052598e+2, 130082.38, 119470.11, -80780.99, 0.09957386, -0.44306037, 205731.31, 205731.31, 0.000026183789, 10.000638, 10.0005 
2.0498767e+2, 3.152619e+2, -9896.528, -131089.73, 77.374954, -0.06433417, -0.29061317, -9896.479, -9896.479, 0.00007851838, 10.000431, 9.99887 
2.1503802e+2, 1.2528141e+2, -1646288.6, -1851486.4, -20437.297, 0.14557596, -0.35090342, -1644272.9, 67936.19, 0.0011273269, 10.001157, 9.998485 
2.1503446e+2, 1.3528113e+2, -1554128.5, -1789516.9, 32716.023, -0.07036342, -0.21166152, -1549666.0, 64555.957, 0.0006276391, 10.001287, 9.998183 
2.1503215e+2, 1.4528121e+2, -1357493.0, -1411936.4, -40065.7, -0.13900678, -0.12577835, -1336276.3, 179946.17, 0.0002466057, 10.000948, 10.0002575 
2.1503083e+2, 1.5528053e+2, -1338872.0, -1368549.6, -18367.557, -0.034905165, -0.23894219, -1330098.3, 88124.336, 0.000052325075, 10.000477, 10.000109 
2.1502887e+2, 1.6527894e+2, -1280941.0, -1429855.6, -11514.294, -0.007812556, -0.33968708, -1280056.0, 40177.242, 0.000002586899, 10.000814, 9.99885 
2.1502656e+2, 1.7527652e+2, -1017354.3, -1255034.6, -22111.498, -0.03932228, -0.49020436, -1015314.75, 206939.0, 0.000000000052014764, 10.0019655, 9.998822 
2.1502389e+2, 1.8527558e+2, -906811.0, -1117382.5, -52418.54, -0.04954668, -0.47623315, -894483.9, 229776.97, 0.0, 10.001894, 9.999135 
2.1502095e+2, 1.9527593e+2, -975337.6, -1103259.4, -1746.3157, -0.04600856, -0.37982565, -975313.75, 50943.04, 0.0, 10.000762, 9.999104 
2.1501844e+2, 2.0527504e+2, -970636.3, -1156374.1, 16458.0, -0.010871213, -0.3275483, -969189.25, -40922.555, 0.0, 10.00059, 9.998146 
2.1501638e+2, 2.15273e+2, -772244.8, -1010585.25, 14735.186, 0.053209614, -0.36765692, -771337.3, 58952.105, 0.0, 10.001281, 9.998141 
2.1501361e+2, 2.2527184e+2, -671497.0, -908101.0, 10876.069, 0.019810997, -0.29636142, -670998.1, 61305.633, 0.0, 10.00129, 9.998164 
2.1501021e+2, 2.3527136e+2, -664838.75, -856090.9, -6964.9395, -0.10945975, -0.18276407, -664585.44, -30273.916, 0.0, 10.000666, 9.998154 
2.1500844e+2, 2.4526975e+2, -539022.7, -652645.6, -44609.047, -0.044873167, -0.19910316, -523601.8, 12725.705, 0.0, 10.0004635, 9.998971 
2.1500817e+2, 2.552671e+2, -436411.0, -557671.2, -28583.848, 0.19449274, -0.38179016, -430010.94, 8339.725, 0.0, 10.000514, 9.998928 
2.1500583e+2, 2.652662e+2, -354605.38, -507037.06, -6244.302, 0.17593648, -0.3426067, -354350.03, -13989.306, 0.0, 10.000584, 9.998567 
2.1500155e+2, 2.752666e+2, -273422.2, -426191.84, -19700.68, -0.08294704, -0.18238105, -270922.56, -28560.635, 0.00000000626477, 10.000502, 9.998491 
2.1499796e+2, 2.8526533e+2, -148730.22, -284078.16, -83954.586, -0.19495617, -0.166511, -108570.34, 35804.863, 0.00000075455597, 10.000556, 9.998768 
2.14995e+2, 2.9526317e+2, -37068.91, -170098.34, -59310.383, -0.17560326, -0.2863213, -14466.126, 31927.314, 0.0000049684672, 10.000602, 9.998857 
2.1499366e+2, 3.0526197e+2, 167672.8, 195149.45, -93080.164, 0.04636799, -0.3991389, 275499.7, 275499.7, 0.000019548965, 10.000642, 10.001024 
2.1498981e+2, 3.152644e+2, -791.3032, -96378.22, 40413.836, 0.06542506, -0.27395627, 14005.116, 14005.116, 0.00006122242, 10.000357, 9.999153 
2.2503892e+2, 1.252847e+2, -1717809.5, -1868304.3, -72629.11, 0.16041578, -0.26827118, -1688476.0, 23702.912, 0.0009979393, 10.000574, 9.998658 
2.2503528e+2, 1.3528422e+2, -1520828.6, -1761475.5, 91414.68, -0.11733738, -0.1650579, -1490041.6, 124149.375, 0.0005469221, 10.001477, 9.99828 
2.2503354e+2, 1.4528327e+2, -1262408.5, -1416670.0, 43260.34, -0.13393416, -0.16195843, -1251105.0, 265095.16, 0.00020906674, 10.0018215, 9.999808 
2.2503279e+2, 1.5528178e+2, -1179278.1, -1340300.6, -22863.197, 0.052954182, -0.30875894, -1176094.8, 242113.39, 0.000042237294, 10.001781, 9.999679 
2.2503069e+2, 1.6528036e+2, -1170438.1, -1380703.9, 4803.9956, 0.058270883, -0.3729221, -1170328.4, 149890.08, 0.0000020119714, 10.001582, 9.998819 
2.2502753e+2, 1.7527887e+2, -1140613.0, -1321272.1, 8007.312, -0.09229561, -0.4250942, -1140258.8, 81973.2, 0.0, 10.001139, 9.99877 
2.2502488e+2, 1.8527813e+2, -1040058.1, -1143917.3, -60797.85, -0.08342852, -0.40666994, -1012031.06, 112206.21, 0.0, 10.000824, 9.999464 
2.2502266e+2, 1.9527805e+2, -985593.06, -1072695.8, -85557.31, 0.06343151, -0.38608637, -933140.4, 93095.31, 0.0, 10.000555, 9.99941 
2.2502013e+2, 2.052769e+2, -915252.8, -1118210.0, -12721.455, 0.08622838, -0.37762973, -914458.56, 13787.96, 0.0, 10.0009165, 9.998257 
2.2501732e+2, 2.1527475e+2, -695633.6, -961945.75, -2243.322, 0.0009332168, -0.44013864, -695614.75, 134654.2, 0.0, 10.001752, 9.998252 
2.2501439e+2, 2.2527377e+2, -646275.1, -916970.5, -19911.637, -0.04095662, -0.347399, -644818.3, 87463.945, 0.0, 10.001551, 9.99798 
2.2501133e+2, 2.3527372e+2, -720589.06, -901641.0, -14791.9375, -0.04191956, -0.17528073, -719388.5, -85099.914, 0.0, 10.000364, 9.997984 
2.2500966e+2, 2.4527219e+2, -569522.8, -670015.8, 25232.977, 0.04514548, -0.17200392, -563542.9, -27238.707, 0.0, 10.000263, 9.998952 
2.2500922e+2, 2.5526932e+2, -340724.13, -515024.44, 10456.143, 0.22029954, -0.3749989, -340099.13, 98229.266, 0.0, 10.001182, 9.998903 
2.2500677e+2, 2.6526806e+2, -299053.47, -530067.06, 10373.206, 0.18732621, -0.34991977, -298588.6, 41754.184, 0.0, 10.001177, 9.998122 
2.2500251e+2, 2.7526802e+2, -312319.84, -491949.72, -13667.09, -0.02822369, -0.19111177, -311285.94, -68935.48, 0.00000000006385136, 10.000426, 9.998079 
2.2499883e+2, 2.8526688e+2, -188032.61, -231832.88, -35259.813, -0.1290624, -0.17389499, -168425.27, -24063.502, 0.00000032397858, 9.999969, 9.999414 
2.2499566e+2, 2.9526526e+2, -128988.4, -155019.8, -8415.797, -0.11948856, -0.3025673, -126504.61, -80132.734, 0.000003287384, 9.999707, 9.999393 
2.2499418e+2, 3.052647e+2, -960.9722, 49181.246, -46346.91, 0.08770118, -0.34712484, 76803.555, 76803.555, 0.00001589248, 9.999761, 10.000442 
2.2499086e+2, 3.1526586e+2, -34369.92, -132848.64, 798.9584, 0.15275587, -0.29951194, -34363.438, -34363.438, 0.000052100033, 10.000201, 9.9989805 
2.3503885e+2, 1.2528616e+2, -1574614.6, -1588386.4, -72990.93, 0.048090547, -0.2595129, -1508185.5, 203981.94, 0.0008671324, 10.000649, 10.000545 
2.3503643e+2, 1.3528667e+2, -1382975.0, -1494163.3, 121631.234, -0.17139496, -0.24440527, -1304834.8, 309322.1, 0.0004662031, 10.001543, 10.000091 
2.3503594e+2, 1.4528508e+2, -1359542.1, -1610176.1, 31539.674, -0.095768385, -0.3264238, -1355634.1, 160536.19, 0.00017258529, 10.001792, 9.998494 
2.3503618e+2, 1.5528259e+2, -1266439.1, -1524976.4, -15470.806, 0.1879314, -0.44092965, -1265516.6, 152679.22, 0.000033446406, 10.001799, 9.998404 
2.3503326e+2, 1.6528198e+2, -1151417.1, -1334076.9, -21321.479, 0.1370742, -0.3769271, -1148961.3, 171241.36, 0.0000017722703, 10.001552, 9.999157 
2.3502782e+2, 1.7528287e+2, -1112493.1, -1264215.1, -1307.0647, -0.19889352, -0.22849986, -1112481.9, 109712.555, 0.0000000001389195, 10.00114, 9.999164 
2.3502518e+2, 1.8528193e+2, -1084770.0, -1221741.4, -78417.93, -0.15340097, -0.22536954, -1049142.0, 75060.336, 0.0, 10.000763, 9.9989605 
2.3502499e+2, 1.9527933e+2, -1023142.94, -1144814.4, -87161.6, 0.22215278, -0.40301934, -977686.0, 48539.082, 0.0, 10.000529, 9.998929 
2.3502265e+2, 2.0527756e+2, -889884.94, -1047553.4, 11556.162, 0.23304927, -0.46200472, -889042.44, 39197.85, 0.0, 10.000841, 9.998777 
2.3501843e+2, 2.1527644e+2, -673505.6, -893602.7, 35067.094, -0.08251653, -0.47492298, -668053.56, 162196.0, 0.0, 10.001655, 9.998769 
2.350152e+2, 2.2527519e+2, -642698.2, -883310.1, -71209.664, -0.13054262, -0.44645724, -623203.1, 109059.99, 0.0, 10.001445, 9.998262 
2.3501286e+2, 2.3527375e+2, -714433.7, -868219.25, -49397.563, 0.054299686, -0.4376937, -699933.8, -65652.23, 0.0, 10.000277, 9.998257 
2.3501053e+2, 2.4527283e+2, -588175.2, -697642.6, 50575.125, 0.08643945, -0.37914208, -568386.25, -32093.938, 0.0, 10.000216, 9.998784 
2.3500822e+2, 2.5527233e+2, -367267.56, -547107.3, 50899.48, -0.01623477, -0.3288097, -353861.06, 84435.49, 0.0, 10.001083, 9.99873 
2.350061e+2, 2.6527104e+2, -333115.5, -589783.7, -25545.367, -0.018422313, -0.27962896, -330597.75, 9715.268, 0.0, 10.001131, 9.997735 
2.3500405e+2, 2.752688e+2, -347051.38, -546748.75, -32095.82, 0.062481217, -0.29862893, -342019.66, -99677.4, 0.0, 10.00035, 9.997742 
2.350011e+2, 2.8526792e+2, -127699.71, -97543.75, -52773.945, 0.081681564, -0.2906531, -57736.08, 86613.695, 0.00000009734078, 9.999928, 10.000356 
2.3499736e+2, 2.9526836e+2, -84134.31, -43856.277, -11633.85, 0.057354428, -0.3042343, -40737.47, 5599.198, 0.0000024854203, 9.999623, 10.000202 
2.3499468e+2, 3.052679e+2, -115599.234, -185173.95, -35792.52, 0.14148456, -0.29061052, -100474.02, -100474.02, 0.00001465121, 9.999738, 9.998846 
2.349903e+2, 3.1526637e+2, -85101.805, -227094.52, 60242.367, 0.03736631, -0.36048293, -62987.336, -62987.336, 0.000049295926, 10.000139, 9.99837 
2.4503976e+2, 1.2528718e+2, -1465904.3, -1546565.8, -33246.586, 0.043513324, -0.2985067, -1453967.4, 258187.06, 0.0007416808, 10.001451, 10.000447 
2.4503876e+2, 1.35287e+2, -1389545.3, -1491947.0, -6370.263, -0.08357731, -0.35378748, -1389150.5, 224998.2, 0.00038814702, 10.001481, 10.000136 
2.4503838e+2, 1.4528532e+2, -1448357.6, -1643873.8, -113815.125, 0.006780849, -0.45264643, -1396080.6, 120083.09, 0.00013769997, 10.001133, 9.998579 
2.4503712e+2, 1.5528414e+2, -1441196.5, -1600818.9, -72692.23, 0.17075595, -0.44677913, -1413054.0, 5124.971, 0.000025817635, 10.000569, 9.998471 
2.4503404e+2, 1.6528407e+2, -1280275.3, -1360786.6, -5136.1777, 0.116207905, -0.34690708, -1279948.9, 40232.375, 0.0000016011192, 10.00052, 9.999469 
2.4502973e+2, 1.7528477e+2, -1138444.5, -1245405.6, -5876.901, -0.0993948, -0.24682909, -1138122.5, 84051.68, 0.0000000006420841, 10.0008335, 9.99944 
2.4502714e+2, 1.8528365e+2, -1037259.56, -1244424.9, -61791.098, -0.05334601, -0.25519812, -1020229.2, 103955.266, 0.0, 10.001281, 9.998554 
2.45026e+2, 1.9528085e+2, -872795.75, -1116215.4, -77854.414, 0.21229875, -0.41294527, -850025.2, 176185.31, 0.0, 10.001751, 9.998532 
2.4502325e+2, 2.052792e+2, -795903.8, -979617.6, 13727.614, 0.18562278, -0.44839358, -794883.75, 133341.31, 0.0, 10.00139, 9.998978 
2.4501923e+2, 2.1527857e+2, -875522.75, -969170.94, -2620.8213, -0.087023236, -0.4325795, -875449.44, -45219.59, 0.0, 10.000178, 9.9989605 
2.4501638e+2, 2.2527733e+2, -783521.2, -919502.44, -94736.695, -0.09550599, -0.42730066, -734902.4, -2659.902, 0.0, 10.00034, 9.998544 
2.4501458e+2, 2.3527549e+2, -489099.53, -728654.5, -86574.63, 0.13226148, -0.48558176, -461087.28, 173175.5, 0.0, 10.001697, 9.998529 
2.4501172e+2, 2.4527474e+2, -406967.53, -628210.0, 14490.561, 0.12231269, -0.41684908, -406022.5, 130249.81, 0.0, 10.001534, 9.99863 
2.4500798e+2, 2.552749e+2, -529082.8, -640430.0, -988.1853, -0.09020199, -0.2875738, -529074.0, -90801.44, 0.0, 10.000037, 9.998595 
2.450058e+2, 2.652737e+2, -509422.5, -608178.8, -14780.635, -0.081714235, -0.2507074, -507257.75, -166971.2, 0.0, 9.999629, 9.998335 
2.4500494e+2, 2.752712e+2, -327702.7, -470287.6, 38906.453, 0.12918323, -0.35296533, -317777.38, -75463.96, 0.0, 10.000206, 9.998332 
2.4500246e+2, 2.852702e+2, -60903.33, -140688.75, 15166.595, 0.19100873, -0.35200652, -58117.547, 86204.625, 0.00000009803459, 10.000714, 9.999682 
2.449985e+2, 2.9527044e+2, 94638.26, -28877.516, -84451.37, 0.13708004, -0.32182002, 137503.84, 183819.13, 0.0000023443192, 10.0011635, 9.999561 
2.4499501e+2, 3.052698e+2, 57329.953, -109266.69, -89594.766, 0.1473247, -0.29152718, 96366.555, 96366.555, 0.000014050109, 10.000972, 9.998766 
2.4499056e+2, 3.152679e+2, -33989.105, -126198.59, 102173.64, 0.05612156, -0.39393654, 32000.307, 32000.307, 0.000047419504, 10.0001955, 9.999016 
2.550411e+2, 1.2528782e+2, -1604418.9, -1841095.9, -53646.81, -0.014152094, -0.37844697, -1592826.8, 119312.5, 0.000622871, 10.001484, 9.998408 
2.5504205e+2, 1.3528514e+2, -1500991.3, -1724534.9, -2049.828, 0.0782342, -0.51023996, -1500972.5, 113194.67, 0.00031436078, 10.001496, 9.9985285 
2.5504076e+2, 1.4528395e+2, -1348584.3, -1438514.5, -142963.69, 0.1073501, -0.55497944, -1243681.1, 272499.25, 0.00010539114, 10.001136, 9.999988 
2.5503528e+2, 1.5528636e+2, -1338337.3, -1394496.3, -84165.734, -0.09248774, -0.33312684, -1277690.6, 140467.38, 0.000019009012, 10.000594, 9.999876 
2.550327e+2, 1.6528657e+2, -1268913.3, -1325696.5, 313.66327, -0.08909207, -0.28744483, -1268911.5, 51243.297, 0.0000013062046, 10.00048, 9.999724 
2.5503302e+2, 1.7528464e+2, -1123141.9, -1211126.4, 15838.514, 0.12346868, -0.47652632, -1120377.5, 101793.24, 0.000000000635992, 10.00083, 9.999673 
2.550305e+2, 1.8528332e+2, -1067266.5, -1296533.1, -50581.16, 0.13643038, -0.49647745, -1056603.3, 67579.91, 0.0, 10.001236, 9.9982195 
2.550254e+2, 1.9528253e+2, -898215.44, -1161424.9, -54654.27, -0.04567321, -0.4231167, -887317.9, 138874.66, 0.0, 10.001716, 9.998239 
2.5502175e+2, 2.052818e+2, -822221.9, -1011675.25, -38612.17, -0.11968512, -0.34504277, -814654.7, 113546.83, 0.0, 10.001295, 9.998803 
2.550195e+2, 2.1528104e+2, -894742.3, -995363.1, -37408.773, -0.099533625, -0.32488912, -882358.6, -52147.61, 0.0, 10.000119, 9.998809 
2.5501767e+2, 2.252801e+2, -771865.44, -878739.1, -51397.88, -0.019289376, -0.2975496, -751158.94, -18937.834, 0.0, 10.000268, 9.99886 
2.5501618e+2, 2.3527893e+2, -479317.75, -689725.5, -29641.139, 0.10586589, -0.3243731, -475221.78, 159010.86, 0.0, 10.001613, 9.998838 
2.5501302e+2, 2.4527791e+2, -427856.5, -658739.94, -49512.484, 0.07973408, -0.28705984, -417686.6, 118557.586, 0.0, 10.001481, 9.998445 
2.5500825e+2, 2.5527692e+2, -551764.4, -667098.7, -49053.84, -0.08654729, -0.2533855, -533723.06, -95466.13, 0.0, 9.999945, 9.998458 
2.5500566e+2, 2.6527604e+2, -403131.44, -375324.47, -332.2627, -0.07857997, -0.26126608, -375320.5, -35056.94, 0.0, 9.999579, 9.999958 
2.550049e+2, 2.7527517e+2, -231673.88, -254997.78, 69809.13, 0.08505277, -0.363946, -172559.31, 69706.06, 0.0, 10.000131, 9.999851 
2.5500262e+2, 2.852737e+2, -231849.94, -477192.78, 23113.576, 0.11668947, -0.3663109, -229691.42, -85411.375, 0.00000013920514, 10.000647, 9.997398 
2.5499874e+2, 2.9527152e+2, -73489.43, -347428.66, -63008.906, 0.025076931, -0.3523446, -59691.68, -13383.876, 0.0000022917138, 10.001041, 9.997427 
2.5499496e+2, 3.0527025e+2, 153257.39, 93751.88, -124604.12, 0.026206262, -0.35487127, 251611.67, 251611.67, 0.000012885881, 10.000953, 10.000173 
2.549911e+2, 3.1527e+2, 77016.414, 119885.36, 109239.19, 0.047000673, -0.41728657, 209773.11, 209773.11, 0.000044516015, 10.000126, 10.000748 
2.650438e+2, 1.2528872e+2, -1550864.8, -1839918.9, -56822.406, 0.095088094, -0.41443577, -1540095.8, 172033.61, 0.0005136847, 10.001943, 9.998189 
2.6504335e+2, 1.352866e+2, -1539317.4, -1737288.6, 92745.62, 0.08134792, -0.5023431, -1502656.8, 111497.12, 0.0002486243, 10.00118, 9.9986 
2.650416e+2, 1.45286e+2, -1377887.3, -1384175.5, 10641.505, 0.10736006, -0.5232903, -1369935.0, 146225.94, 0.00007773356, 10.00065, 10.000592 
2.6503587e+2, 1.5528895e+2, -1272876.3, -1295636.6, -9030.184, -0.09906775, -0.30699798, -1269728.8, 148401.86, 0.000013419433, 10.000761, 10.000473 
2.6503354e+2, 1.6528895e+2, -1210969.4, -1344847.3, 59345.695, -0.075319566, -0.29068998, -1188450.4, 131679.0, 0.0000010267595, 10.00107, 9.999319 
2.6503468e+2, 1.7528616e+2, -1063010.1, -1223624.6, 10032.579, 0.18113147, -0.5244726, -1062385.9, 159769.67, 0.0000000012219834, 10.001418, 9.999305 
2.6503223e+2, 1.8528496e+2, -992055.6, -1201595.8, -38803.902, 0.17405504, -0.5429069, -985100.56, 139066.27, 0.0, 10.001499, 9.998746 
2.650265e+2, 1.9528513e+2, -933499.4, -1125520.4, 1787.201, -0.076009974, -0.4224059, -933482.75, 92682.48, 0.0, 10.001242, 9.998719 
2.6502267e+2, 2.0528466e+2, -859895.3, -1043564.1, 36646.59, -0.14182939, -0.33680055, -852853.4, 75318.06, 0.0, 10.001103, 9.9986725 
2.6502058e+2, 2.152835e+2, -783628.44, -958750.06, 23894.205, -0.040699705, -0.34010914, -780426.75, 49758.88, 0.0, 10.00096, 9.998654 
2.650186e+2, 2.2528261e+2, -690520.4, -811026.4, 62122.0, 0.032912638, -0.31444892, -664231.06, 67964.33, 0.0, 10.000699, 9.99912 
2.6501688e+2, 2.3528193e+2, -654526.75, -749007.4, 59502.32, 0.08473913, -0.31570432, -625792.25, 8409.1875, 0.0, 10.000297, 9.99907 
2.6501364e+2, 2.4528088e+2, -590630.5, -719453.6, 28429.469, 0.05912694, -0.29877582, -584635.5, -48423.063, 0.0, 10.000299, 9.998593 
2.6500908e+2, 2.552794e+2, -430348.34, -588060.25, 42672.582, -0.0327755, -0.3298721, -419542.66, 18686.22, 0.0, 10.000707, 9.998625 
2.650063e+2, 2.652784e+2, -254382.9, -321633.06, 69710.37, -0.01925436, -0.34728643, -210611.73, 129624.016, 0.0, 10.000672, 9.9998045 
2.6500523e+2, 2.7527794e+2, -223526.34, -264883.94, -11248.139, 0.102914184, -0.39597273, -220665.11, 21568.316, 0.0, 10.000255, 9.999721 
2.65003e+2, 2.8527632e+2, -308950.66, -570037.6, -18008.154, 0.11147854, -0.3822606, -307714.44, -163463.73, 0.00000017298198, 10.000345, 9.996907 
2.6499957e+2, 2.9527336e+2, -126386.914, -418120.75, 15094.317, 0.018925995, -0.39521483, -125608.01, -79319.72, 0.000002277503, 10.0008545, 9.997038 
2.649953e+2, 3.0527192e+2, 115635.125, 76970.945, -60755.035, -0.012372444, -0.40538263, 160059.64, 160059.64, 0.000011802607, 10.000677, 10.000203 
2.6499194e+2, 3.1527197e+2, 33322.297, 121282.125, 51998.957, 0.14881851, -0.43072647, 145405.98, 145405.98, 0.000041814666, 9.999711, 10.000968 
2.7504748e+2, 1.252897e+2, -1434350.1, -1608163.9, -110532.82, 0.21634375, -0.42982805, -1380650.1, 331476.56, 0.00042107303, 10.001978, 9.999764 
2.7504218e+2, 1.352914e+2, -1406645.0, -1473750.6, 63275.02, -0.17503656, -0.31856218, -1368577.1, 245531.6, 0.00019522583, 10.001225, 10.000387 
2.7504057e+2, 1.452915e+2, -1391197.5, -1413038.1, -584.74243, -0.08854838, -0.3442797, -1391181.9, 124923.18, 0.000056360343, 10.000662, 10.000385 
2.7503857e+2, 1.5529191e+2, -1288690.8, -1327845.5, 4010.4348, 0.07310911, -0.3616127, -1288284.3, 129812.79, 0.000009372096, 10.000768, 10.000246 
2.7503642e+2, 1.652912e+2, -1281088.9, -1490975.8, 64514.805, 0.08395009, -0.35533425, -1262844.3, 57260.703, 0.0000008660051, 10.001069, 9.998314 
2.7503437e+2, 1.7528926e+2, -1128987.1, -1363797.0, 29898.43, -0.015227104, -0.4022928, -1125240.0, 96889.28, 0.000000004874734, 10.0014305, 9.998335 
2.7503195e+2, 1.8528846e+2, -908391.44, -1013582.7, -56219.836, -0.02057889, -0.40092385, -884000.25, 240136.25, 0.0, 10.001443, 10.000062 
2.750291e+2, 1.9528867e+2, -846446.8, -935833.94, 1050.755, 0.035139397, -0.4120298, -846434.5, 179693.77, 0.0, 10.001209, 10.000033 
2.7502578e+2, 2.0528786e+2, -882256.75, -1072220.9, 23471.256, 0.04411014, -0.41405335, -879399.7, 48734.176, 0.0, 10.001025, 9.998517 
2.7502218e+2, 2.1528593e+2, -805417.8, -982560.2, 26724.316, 0.006667826, -0.48029786, -801473.9, 28679.977, 0.0, 10.000867, 9.998535 
2.7501908e+2, 2.252848e+2, -699610.5, -802035.4, 39758.004, -0.009306277, -0.478932, -685989.2, 46176.492, 0.0, 10.000582, 9.999239 
2.7501637e+2, 2.3528437e+2, -659845.9, -735745.6, 51124.535, -0.012869501, -0.46637425, -634125.44, 45.07178, 0.0, 10.000193, 9.999212 
2.7501336e+2, 2.4528354e+2, -563623.3, -648631.06, 35465.29, -0.014044836, -0.4629214, -550770.5, -14592.307, 0.0, 10.000237, 9.999107 
2.750101e+2, 2.552822e+2, -411292.97, -533089.44, 64817.35, -0.020228308, -0.532696, -383253.66, 54936.164, 0.0, 10.000634, 9.999041 
2.7500758e+2, 2.6528075e+2, -398678.66, -608289.0, 43545.055, 0.02013998, -0.51251704, -389992.44, -49788.645, 0.0, 10.00062, 9.99786 
2.750056e+2, 2.752793e+2, -366624.97, -544745.56, -18201.83, 0.097392194, -0.46228433, -364783.97, -122564.36, 0.00000000009324417, 10.000178, 9.997837 
2.750034e+2, 2.8527784e+2, -219558.95, -372987.88, -7258.0483, 0.09781864, -0.41553065, -219216.36, -74979.46, 0.00000023612336, 10.0003, 9.998278 
2.7500063e+2, 2.95276e+2, -40715.285, -223642.14, 42148.64, 0.013097234, -0.45647493, -31470.887, 14787.011, 0.0000024951785, 10.000782, 9.998406 
2.7499563e+2, 3.052749e+2, 23554.463, -103578.984, -104621.42, -0.06593156, -0.4353752, 82406.57, 82406.57, 0.000011675634, 10.000644, 9.99897 
2.7499247e+2, 3.1527397e+2, -81470.73, -82816.9, 31968.336, 0.18453895, -0.43262506, -50168.39, -50168.39, 0.000040361934, 9.99957, 9.999628 
2.850492e+2, 1.2529247e+2, -1474160.4, -1598657.9, -1104.6567, 0.21937378, -0.39830425, -1474150.6, 237952.06, 0.00034660724, 10.001587, 10.000015 
2.8504342e+2, 1.3529529e+2, -1381667.9, -1409323.3, 23802.62, -0.16246684, -0.21891114, -1367968.0, 246104.63, 0.00015383559, 10.001191, 10.000834 
2.8504205e+2, 1.4529532e+2, -1382225.1, -1446044.5, -48258.65, -0.00836302, -0.25703797, -1356280.5, 159787.95, 0.00004093297, 10.000881, 10.000057 
2.850403e+2, 1.5529367e+2, -1302361.0, -1371204.0, -70656.12, 0.17187236, -0.44590616, -1258187.9, 159891.72, 0.0000066741927, 10.000816, 9.999932 
2.85038e+2, 1.6529287e+2, -1289896.1, -1462343.4, 61336.555, 0.14859329, -0.44568953, -1270305.4, 49782.508, 0.00000074756446, 10.000876, 9.998604 
2.8503552e+2, 1.7529263e+2, -1161873.5, -1353003.5, 104480.22, -0.020601891, -0.34902063, -1115844.8, 106251.12, 0.000000006090155, 10.001085, 9.998584 
2.8503296e+2, 1.8529217e+2, -965943.44, -1050620.4, 7713.0127, -0.041897275, -0.32075647, -965246.6, 158853.81, 0.0, 10.001091, 9.999974 
2.8503025e+2, 1.9529153e+2, -908171.75, -976284.1, -59144.76, 0.05478233, -0.40417498, -873978.94, 152122.67, 0.0, 10.000831, 9.99994 
2.8502715e+2, 2.0529053e+2, -867804.75, -1004033.25, -38250.727, 0.09131589, -0.45180443, -857799.4, 70308.83, 0.0, 10.000861, 9.999057 
2.8502378e+2, 2.15289e+2, -742895.1, -894992.2, -2306.4138, 0.07554731, -0.5325154, -742860.2, 87261.04, 0.0, 10.001057, 9.999039 
2.8502026e+2, 2.2528803e+2, -683716.75, -812380.94, 19845.734, 0.048263215, -0.53022444, -680725.2, 51405.52, 0.0, 10.00077, 9.999076 
2.8501663e+2, 2.3528755e+2, -697695.6, -771705.75, -3139.719, 0.011976231, -0.5077424, -697562.7, -63425.297, 0.0, 10.000008, 9.999054 
2.850137e+2, 2.4528672e+2, -570194.4, -656642.4, 15617.925, 0.00023142902, -0.49298424, -567459.3, -31313.893, 0.0, 10.000201, 9.999071 
2.8501138e+2, 2.552856e+2, -321490.4, -494095.9, -14758.685, 0.017539851, -0.53819364, -320237.56, 117917.23, 0.0, 10.001274, 9.998997 
2.8500855e+2, 2.6528403e+2, -308525.22, -608103.7, -24843.049, 0.021057576, -0.51095116, -306479.06, 33691.906, 0.0, 10.001437, 9.997459 
2.8500533e+2, 2.75282e+2, -310350.6, -556647.6, 14361.539, 0.028209543, -0.48376113, -309516.0, -67321.63, 0.0000000018932573, 10.000734, 9.997482 
2.8500316e+2, 2.852806e+2, -218257.67, -303228.34, 89606.92, 0.061607182, -0.44240564, -161574.45, -17364.855, 0.00000028816427, 10.000009, 9.998906 
2.8500164e+2, 2.9527974e+2, -206155.22, -231409.8, 68245.34, 0.1131717, -0.44381893, -149378.8, -103161.2, 0.0000027347362, 9.999345, 9.999045 
2.8499615e+2, 3.0527893e+2, -136260.22, -283027.5, -69209.945, -0.035020165, -0.38317835, -108771.79, -108771.79, 0.000012525966, 9.9999695, 9.998062 
2.8499237e+2, 3.1527686e+2, 103447.01, -76739.5, 48224.4, 0.15139118, -0.39968315, 115541.75, 115541.75, 0.000040482082, 10.001194, 9.998883 
2.950483e+2, 1.2529716e+2, -1538669.1, -1752412.4, -27117.105, -0.08580337, -0.3088573, -1535282.5, 176773.72, 0.00028487924, 10.001667, 9.998923 
2.9504678e+2, 1.352983e+2, -1444957.5, -1549852.6, 10441.752, 0.025579294, -0.2028708, -1443928.1, 170117.05, 0.000121053716, 10.001237, 9.9998455 
2.9504588e+2, 1.4529738e+2, -1405843.0, -1507652.8, -65428.62, 0.2563056, -0.26625934, -1373849.1, 142202.81, 0.000029834508, 10.000923, 9.99962 
2.9504064e+2, 1.5529424e+2, -1328511.1, -1429627.3, -67210.34, 0.10138751, -0.56127024, -1294966.0, 123112.04, 0.000004731658, 10.000833, 9.999524 
2.9503798e+2, 1.6529405e+2, -1186842.5, -1242302.3, 62638.656, 0.04086688, -0.5562943, -1146070.3, 174007.16, 0.00000054097734, 10.000855, 10.00012 
2.9503784e+2, 1.7529638e+2, -1058850.6, -1136016.1, 123482.67, 0.08015648, -0.35824907, -968063.4, 253990.9, 0.0000000012704189, 10.001082, 10.000069 
2.95035e+2, 1.8529621e+2, -1077792.3, -1275845.3, -9283.562, 0.031095775, -0.29801562, -1077358.1, 46699.805, 0.0, 10.001056, 9.998449 
2.950297e+2, 1.9529368e+2, -1015982.06, -1193057.0, -59121.836, -0.105036736, -0.41465423, -998057.0, 28028.982, 0.0, 10.000799, 9.998467 
2.9502648e+2, 2.0529255e+2, -796875.6, -837130.6, -36679.258, -0.081106074, -0.46213788, -775164.4, 152930.95, 0.0, 10.000777, 10.000242 
2.9502502e+2, 2.1529259e+2, -676421.56, -732890.5, 13673.174, 0.07496582, -0.5065276, -673285.0, 156803.75, 0.0, 10.000956, 10.000197 
2.9502198e+2, 2.2529224e+2, -730537.8, -881722.06, -17172.89, 0.12539881, -0.47842592, -728611.75, 3479.2153, 0.0, 10.000652, 9.998655 
2.9501754e+2, 2.3529147e+2, -742437.06, -839553.4, -20823.465, 0.083110005, -0.44015914, -738160.44, -104058.78, 0.0, 9.999905, 9.998635 
2.9501447e+2, 2.4529062e+2, -617066.3, -742386.9, 47991.46, 0.03809197, -0.37976488, -600799.44, -64686.95, 0.0, 10.000147, 9.998515 
2.9501256e+2, 2.5528958e+2, -367046.75, -574057.1, 31141.04, -0.008847924, -0.35157993, -362463.6, 75660.42, 0.0, 10.001205, 9.998488 
2.9500902e+2, 2.6528805e+2, -231308.45, -440514.5, -58279.125, -0.095497414, -0.35970888, -216169.05, 123969.83, 0.0, 10.001401, 9.998631 
2.9500395e+2, 2.7528587e+2, -240050.2, -395875.78, -7014.6543, -0.2075888, -0.46524137, -239735.08, 2423.135, 0.0000000016821552, 10.000667, 9.99862 
2.950019e+2, 2.852847e+2, -230499.88, -317179.7, 53711.563, -0.08495698, -0.45136526, -204823.27, -60655.15, 0.00000022409213, 9.999963, 9.998833 
2.950023e+2, 2.952846e+2, -222834.89, -254008.38, 60507.49, 0.21964993, -0.36616772, -175938.81, -129771.06, 0.0000026534976, 9.999288, 9.99892 
2.9499662e+2, 3.052839e+2, -182102.58, -367694.38, -23177.822, -0.0064784475, -0.25706288, -179251.78, -179251.78, 0.00001292508, 9.999923, 9.997502 
2.9499102e+2, 3.1528026e+2, 90103.62, -99061.98, 97679.31, -0.15416053, -0.37940142, 131488.3, 131488.3, 0.00004085486, 10.001159, 9.998746 
3.050499e+2, 1.2530121e+2, -1564844.3, -1794085.4, 17812.74, -0.08198162, -0.31340414, -1563468.4, 148546.8, 0.00023189351, 10.001617, 9.998672 
3.0504867e+2, 1.35301e+2, -1485536.8, -1606049.5, 50341.17, 0.10731346, -0.30616394, -1467275.3, 146742.72, 0.000094942065, 10.001095, 9.999544 
3.050476e+2, 1.4530048e+2, -1403271.3, -1503036.0, 63686.215, 0.3412715, -0.3149647, -1372257.5, 143764.2, 0.000021738364, 10.00096, 9.999617 
3.0504158e+2, 1.5529819e+2, -1224824.8, -1382763.0, 69224.54, 0.08370927, -0.5195857, -1198778.8, 219262.45, 0.0000030875526, 10.001571, 9.999483 
3.0503872e+2, 1.6529821e+2, -1093712.5, -1155444.4, 160937.53, 0.011092835, -0.5142591, -960707.75, 359330.44, 0.0000002653173, 10.001311, 10.000494 
3.0503875e+2, 1.7530017e+2, -1163420.5, -1143390.3, 117720.555, 0.11528298, -0.38938028, -1035259.56, 186756.36, 0.0, 10.000184, 10.000447 
3.0503607e+2, 1.8530002e+2, -1243935.0, -1349988.4, 39315.496, 0.09787635, -0.3475562, -1230950.0, -106931.31, 0.0, 9.99989, 9.998505 
3.0503088e+2, 1.9529782e+2, -1088648.6, -1227625.9, 91875.19, -0.035104427, -0.43608746, -1042942.94, -16897.996, 0.0, 10.000288, 9.998484 
3.050275e+2, 2.0529693e+2, -874345.3, -910542.4, 125431.87, -0.03142384, -0.44254616, -765713.0, 162340.97, 0.0, 10.000401, 9.999924 
3.0502576e+2, 2.1529718e+2, -805277.7, -833976.4, 44702.047, 0.09461131, -0.4305991, -772678.4, 57369.555, 0.0, 10.000227, 9.999864 
3.0502254e+2, 2.2529662e+2, -721405.8, -882940.1, -1856.3566, 0.121258, -0.4056655, -721384.44, 10667.915, 0.0, 10.000736, 9.998608 
3.0501813e+2, 2.3529527e+2, -464327.84, -711864.0, 5714.6655, 0.06177874, -0.4234948, -464196.0, 169870.84, 0.0, 10.001846, 9.998574 
3.0501541e+2, 2.4529424e+2, -414013.56, -689661.56, 103745.46, 0.04176887, -0.35541752, -379330.8, 156748.58, 0.0, 10.001748, 9.9981 
3.050141e+2, 2.5529343e+2, -472746.56, -664384.4, 86561.305, 0.05370468, -0.2663317, -439437.16, -1346.3229, 0.0, 10.000662, 9.998122 
3.050104e+2, 2.6529187e+2, -386150.88, -508801.63, -30894.48, -0.037074234, -0.26251972, -378808.4, -38702.207, 0.0, 10.000304, 9.998693 
3.0500457e+2, 2.7528945e+2, -238855.08, -391383.5, -78150.47, -0.20308794, -0.39699683, -205923.47, 36203.406, 0.00000000014964384, 10.000652, 9.998664 
3.0500224e+2, 2.8528783e+2, -90864.2, -254922.58, -39733.758, -0.089611284, -0.42638558, -81747.58, 62391.97, 0.00000013461268, 10.000952, 9.9987755 
3.0500278e+2, 2.952873e+2, 37318.7, -137323.48, -45308.1, 0.25275558, -0.3802779, 48373.406, 94514.945, 0.0000024184974, 10.001131, 9.998824 
3.0499703e+2, 3.0528635e+2, -9477.927, -275383.4, -63665.438, -0.006517883, -0.29681367, 4979.3716, 4979.3716, 0.00001259153, 10.001069, 9.997591 
3.0499175e+2, 3.152833e+2, 25349.217, -81794.01, 53504.543, -0.15510099, -0.36999556, 47491.895, 47491.895, 0.000039631555, 10.000506, 9.999189 
3.1505346e+2, 1.2530471e+2, -1507516.3, -1691686.4, -8302.871, 0.065173775, -0.38854778, -1507142.8, 204835.69, 0.00018871382, 10.001696, 9.999333 
3.1504878e+2, 1.3530363e+2, -1458781.4, -1541452.8, 32857.957, -0.010163793, -0.51178014, -1447312.9, 166675.34, 0.00007509751, 10.00108, 9.999987 
3.1504697e+2, 1.4530486e+2, -1378942.8, -1461760.6, 74731.984, 0.15610205, -0.3835813, -1334914.1, 181061.86, 0.00001598166, 10.000986, 9.99989 
3.1504285e+2, 1.553055e+2, -1202110.3, -1344416.0, 100349.13, 0.027390966, -0.3245762, -1150248.1, 267721.5, 0.00000170519, 10.001607, 9.999727 
3.1503993e+2, 1.6530523e+2, -1148076.5, -1270893.5, 106258.73, -0.018149368, -0.32055077, -1086758.0, 233213.3, 0.000000057148895, 10.001314, 9.999705 
3.1503808e+2, 1.7530397e+2, -1214466.1, -1248684.8, 81667.016, 0.0056948224, -0.44018796, -1148135.5, 73845.68, 0.0, 10.000179, 9.999727 
3.1503588e+2, 1.8530363e+2, -1134686.5, -1118502.3, 45367.965, 0.07350641, -0.4621207, -1080510.4, 43472.344, 0.0, 9.999865, 10.000108 
3.1503347e+2, 1.9530398e+2, -985610.44, -1004425.2, 114109.414, 0.17392457, -0.46202603, -880521.25, 145457.14, 0.0, 10.000248, 10.000034 
3.1503004e+2, 2.0530371e+2, -1017981.3, -1186714.1, 109675.445, 0.161129, -0.38560614, -963977.25, -35993.58, 0.0, 10.000311, 9.99807 
3.150257e+2, 2.1530287e+2, -945781.9, -1102324.6, 47853.01, 0.0492973, -0.29677117, -932312.75, -102314.68, 0.0, 10.000132, 9.998065 
3.1502178e+2, 2.253013e+2, -706923.8, -835514.9, 32132.209, -0.04862143, -0.30333412, -699341.75, 32672.248, 0.0, 10.00066, 9.998973 
3.1501818e+2, 2.3529893e+2, -452188.94, -667884.9, 52911.83, -0.13576165, -0.45620346, -439908.44, 194124.28, 0.0, 10.001764, 9.9989195 
3.150162e+2, 2.4529755e+2, -437073.47, -727979.4, 53948.34, -0.07458593, -0.42826822, -427391.06, 108655.45, 0.0, 10.001706, 9.997855 
3.1501558e+2, 2.552971e+2, -504270.4, -707998.7, 51489.305, 0.11780955, -0.28252578, -491996.7, -53941.387, 0.0, 10.0005665, 9.997869 
3.1501248e+2, 2.6529557e+2, -461459.94, -656379.7, -25343.025, 0.121418625, -0.21140249, -458218.8, -118146.34, 0.0, 10.000265, 9.997702 
3.1500703e+2, 2.7529275e+2, -314858.6, -534320.8, -55780.066, -0.04456713, -0.28206617, -301494.88, -59394.59, 0.00000000001473293, 10.000586, 9.997716 
3.150039e+2, 2.8529e+2, -103229.58, -268951.9, -41211.44, -0.036830254, -0.37609446, -93546.945, 50577.246, 0.000000108201135, 10.000904, 9.998701 
3.150027e+2, 2.9528776e+2, 18484.08, -160339.33, -30240.03, 0.105969824, -0.49949846, 23459.41, 69599.836, 0.0000023186144, 10.001055, 9.998705 
3.1499714e+2, 3.0528614e+2, 38692.766, -165312.34, -86880.734, -0.12091228, -0.51070225, 70678.2, 70678.2, 0.000012381474, 10.001029, 9.998366 
3.1499404e+2, 3.1528577e+2, 96190.34, 81516.4, 33816.977, -0.02189086, -0.39934802, 123457.12, 123457.12, 0.000038035574, 10.000431, 10.000351 
3.2505602e+2, 1.2531011e+2, -1552364.3, -1676396.3, 78333.805, 0.18478502, -0.36864623, -1514469.4, 197456.66, 0.00015750076, 10.001214, 9.99967 
3.2504925e+2, 1.3530844e+2, -1512379.5, -1574566.9, 34202.734, -0.045301512, -0.5510764, -1497249.4, 116691.28, 0.00006189271, 10.00071, 9.9999485 
3.2504708e+2, 1.4531006e+2, -1434764.4, -1490490.0, 114615.06, 0.09450042, -0.37903085, -1344674.0, 171250.42, 0.000012633238, 10.000596, 9.999889 
3.250446e+2, 1.5531145e+2, -1256255.3, -1368330.9, 102338.9, 0.06902397, -0.24855043, -1195616.3, 222295.75, 0.0000008198343, 10.001215, 9.999758 
3.2504186e+2, 1.6531083e+2, -1211934.5, -1337203.6, 77505.02, 0.06097747, -0.26286134, -1174919.1, 144998.44, 0.000000004124255, 10.001043, 9.9993725 
3.250387e+2, 1.7530838e+2, -1243789.6, -1303962.9, 70489.89, 0.05798437, -0.46548128, -1197234.0, 24705.332, 0.0, 10.000151, 9.999364 
3.2503632e+2, 1.8530792e+2, -1044105.56, -1054026.4, 74204.32, 0.10580402, -0.49097687, -974696.0, 149246.27, 0.0, 10.000404, 10.00028 
3.2503462e+2, 1.9530915e+2, -774530.7, -881980.7, 12902.02, 0.19948554, -0.42075902, -773003.2, 252925.94, 0.0, 10.001621, 10.000203 
3.250314e+2, 2.05309e+2, -788512.25, -1115939.0, -6522.1855, 0.1869479, -0.32467696, -788382.4, 139551.16, 0.0, 10.002048, 9.997725 
3.2502693e+2, 2.1530764e+2, -742461.9, -1041980.2, 31922.943, 0.08506123, -0.2554977, -739097.3, 90856.52, 0.0, 10.001688, 9.997733 
3.250232e+2, 2.2530577e+2, -621157.7, -824180.94, 86014.555, -0.0044653476, -0.26105297, -589616.25, 142357.13, 0.0, 10.001377, 9.998706 
3.2502013e+2, 2.3530333e+2, -560197.06, -747949.94, 43823.254, -0.081681386, -0.39584714, -550472.06, 83521.695, 0.0, 10.00114, 9.998671 
3.250177e+2, 2.4530165e+2, -546947.94, -759234.2, 14084.596, -0.047644563, -0.39606065, -546017.56, -10008.429, 0.0, 10.000848, 9.99806 
3.250158e+2, 2.5530067e+2, -488208.6, -680504.2, 34406.992, 0.0889622, -0.32239702, -482237.66, -44217.887, 0.0, 10.000579, 9.998057 
3.250132e+2, 2.6529887e+2, -395781.5, -664342.2, 59473.31, 0.13905421, -0.27020398, -383200.4, -43161.613, 0.0, 10.0009, 9.997335 
3.2500976e+2, 2.75296e+2, -170022.3, -504806.7, 58701.11, 0.1180351, -0.31132963, -160028.0, 82040.51, 0.00000000010851988, 10.001769, 9.997341 
3.250063e+2, 2.8529313e+2, -31465.574, -277754.7, 59004.555, 0.08609175, -0.37623945, -18059.338, 126035.7, 0.00000014604628, 10.001573, 9.998326 
3.2500276e+2, 2.9529074e+2, -111859.35, -264223.63, 31973.63, 0.04620877, -0.47439435, -105421.69, -59307.184, 0.0000023415487, 10.000337, 9.998337 
3.24997e+2, 3.0528852e+2, -54127.93, -176914.58, -10337.201, -0.18944919, -0.5416351, -53263.742, -53263.742, 0.000012312151, 10.000266, 9.998644 
3.249957e+2, 3.1528926e+2, 193231.84, 140749.1, 11859.365, 0.07671364, -0.35522163, 195787.25, 195787.25, 0.000036624067, 10.001077, 10.000431 
3.3505705e+2, 1.2531741e+2, -1554267.4, -1682426.0, 44510.047, 0.11379566, -0.24509141, -1540325.5, 171532.45, 0.00013853858, 10.00123, 9.999618 
3.350498e+2, 1.353154e+2, -1547155.5, -1641104.3, 14219.832, -0.082662806, -0.4158459, -1545050.4, 68824.875, 0.000055370125, 10.000711, 9.999476 
3.350477e+2, 1.4531608e+2, -1448243.3, -1521731.4, 122590.02, 0.070496865, -0.29944143, -1357009.0, 158858.27, 0.000011804474, 10.000607, 9.999671 
3.3504656e+2, 1.553162e+2, -1264906.6, -1387124.4, 131696.66, 0.11934557, -0.27900115, -1180831.8, 237034.5, 0.00000057438905, 10.001221, 9.999625 
3.3504412e+2, 1.6531523e+2, -1209418.6, -1328777.1, 36357.434, 0.16074663, -0.32647353, -1199216.0, 120658.766, 0.00000000201948, 10.001028, 9.99944 
3.350404e+2, 1.7531344e+2, -1241311.9, -1300212.4, 48328.996, 0.1875345, -0.46921152, -1214167.0, 7723.4624, 0.0, 10.000156, 9.999388 
3.3503702e+2, 1.8531288e+2, -1143153.0, -1247199.5, 110525.75, 0.114609316, -0.4385825, -1073019.1, 50878.305, 0.0, 10.00035, 9.998982 
3.3503407e+2, 1.9531327e+2, -867389.3, -1064341.3, 63929.44, -0.041347586, -0.32164243, -848457.94, 177440.06, 0.0, 10.001576, 9.998974 
3.3503142e+2, 2.0531279e+2, -715540.8, -947034.0, -29292.55, -0.029802093, -0.2613155, -711891.75, 216012.19, 0.0, 10.001975, 9.9989195 
3.3502916e+2, 2.1531144e+2, -676946.4, -881539.06, 26148.01, 0.12200293, -0.31203294, -673657.44, 156258.22, 0.0, 10.001585, 9.998883 
3.3502653e+2, 2.2530997e+2, -699817.06, -966203.75, 67935.445, 0.17484015, -0.28398916, -683492.2, 48438.957, 0.0, 10.001285, 9.997775 
3.350236e+2, 2.3530842e+2, -634517.3, -879044.94, 40350.633, 0.13883099, -0.23883426, -628030.94, 5919.1763, 0.0, 10.00104, 9.997818 
3.3501962e+2, 2.4530654e+2, -502484.06, -659865.25, -3409.6973, 0.04249759, -0.25659096, -502410.22, 33557.027, 0.0, 10.0008135, 9.99876 
3.3501458e+2, 2.5530422e+2, -449523.88, -586272.44, 32139.58, -0.11241923, -0.38614604, -442346.88, -4363.2397, 0.0, 10.000519, 9.998733 
3.3501235e+2, 2.6530176e+2, -387123.0, -640683.06, 84271.484, -0.04991143, -0.43914923, -361670.13, -21665.248, 0.0, 10.000875, 9.99751 
3.3501253e+2, 2.7529898e+2, -169968.55, -485260.25, 96521.94, 0.19310534, -0.48894453, -142766.63, 99265.664, 0.000000000044508567, 10.001685, 9.997515 
3.3500916e+2, 2.852972e+2, -77504.47, -368107.4, 5195.2964, 0.19501117, -0.43122104, -77411.62, 66640.48, 0.00000018851506, 10.001541, 9.997725 
3.3500257e+2, 2.9529643e+2, -163606.06, -362468.63, -3667.7275, -0.030710362, -0.30555382, -163538.44, -117475.43, 0.0000023038672, 10.000285, 9.997694 
3.349963e+2, 3.0529344e+2, -85271.35, -229921.17, 15077.345, -0.30624658, -0.39538968, -83716.5, -83716.5, 0.000011796056, 10.000219, 9.9983 
3.3499607e+2, 3.1529352e+2, 97758.336, -30876.727, 48293.215, -0.036091205, -0.24490528, 113870.77, 113870.77, 0.000034748333, 10.000958, 9.999312 
3.4505752e+2, 1.2532255e+2, -1797868.9, -1753709.0, 26687.906, 0.14352606, -0.222399, -1741151.3, -29340.797, 0.00012841672, 9.999376, 10.000018 
3.4505126e+2, 1.35321e+2, -1468785.4, -1604739.9, -22341.018, -0.02484553, -0.35050684, -1465208.3, 148613.36, 0.00005393956, 10.001241, 9.999486 
3.450488e+2, 1.4532109e+2, -1365012.0, -1512392.6, 92379.39, 0.0898263, -0.28048185, -1320532.0, 195287.39, 0.00001321429, 10.001323, 9.999382 
3.450471e+2, 1.5532033e+2, -1459793.3, -1519062.5, 68221.61, 0.113091536, -0.31780615, -1415047.8, 2779.9602, 0.00000089811203, 10.000046, 9.999285 
3.4504476e+2, 1.6531919e+2, -1366617.6, -1440030.8, -13487.369, 0.17677222, -0.34899423, -1364218.3, -44378.895, 0.0000000015154811, 10.000091, 9.999132 
3.4504175e+2, 1.7531785e+2, -1096052.1, -1259336.8, -44686.37, 0.25438842, -0.41657186, -1084622.8, 137229.66, 0.0, 10.001284, 9.999124 
3.450382e+2, 1.8531749e+2, -1005737.3, -1197239.0, 66020.664, 0.15150577, -0.3481139, -985182.75, 138675.47, 0.0, 10.001361, 9.998841 
3.4503442e+2, 1.9531775e+2, -1048255.75, -1168607.0, 94294.125, -0.0973461, -0.22853339, -996572.1, 29287.424, 0.0, 10.000399, 9.998833 
3.4503216e+2, 2.0531683e+2, -888712.6, -993022.4, 31294.666, -0.08235445, -0.22128789, -880044.1, 47823.67, 0.0, 10.000618, 9.999258 
3.450312e+2, 2.1531475e+2, -620223.3, -822329.5, 3325.022, 0.16097113, -0.37577966, -620168.6, 209714.75, 0.0, 10.001825, 9.999177 
3.4502876e+2, 2.2531338e+2, -614451.75, -965659.4, 21150.213, 0.23460852, -0.335474, -613182.6, 118715.48, 0.0, 10.002049, 9.99741 
3.4502506e+2, 2.3531263e+2, -606610.4, -907704.56, 18841.871, 0.16268526, -0.17384163, -605435.9, 28476.496, 0.0, 10.0014105, 9.997446 
3.45021e+2, 2.4531072e+2, -418609.22, -638531.2, -5238.6313, 0.069772944, -0.16330625, -418484.5, 117446.51, 0.0, 10.001484, 9.998582 
3.450166e+2, 2.5530767e+2, -215384.98, -495157.88, -52190.06, -0.04151801, -0.34807605, -205966.3, 231988.95, 0.0, 10.002219, 9.998545 
3.4501413e+2, 2.6530522e+2, -190262.56, -474863.53, -14571.408, -0.010119348, -0.42274404, -189518.47, 150456.95, 0.0, 10.001921, 9.998147 
3.4501323e+2, 2.7530318e+2, -266525.2, -465436.47, 18036.36, 0.15203358, -0.45952305, -264902.97, -22909.627, 0.0, 10.000731, 9.9981165 
3.4501013e+2, 2.8530195e+2, -180145.48, -452000.16, -20583.904, 0.17108224, -0.35676467, -178595.77, -34587.09, 0.00000016974016, 10.001009, 9.997396 
3.4500486e+2, 2.953014e+2, 155143.08, -245428.67, -28593.545, 0.05840169, -0.16933858, 157173.84, 203195.0, 0.0000020169734, 10.002645, 9.997361 
3.449983e+2, 3.0529836e+2, 297315.03, -33445.508, 25406.982, -0.25047, -0.25924996, 299255.25, 299255.25, 0.0000103175025, 10.002776, 9.9984255 
3.44996e+2, 3.152975e+2, 118388.03, -80886.37, 54735.207, -0.1472411, -0.21783464, 132432.47, 132432.47, 0.00003196276, 10.001335, 9.998787 
3.5505697e+2, 1.253257e+2, -1729309.5, -1635047.3, 88766.17, 0.09342089, -0.2870833, -1581675.8, 130106.27, 0.00012227354, 9.999466, 10.000795 
3.5505322e+2, 1.3532542e+2, -1420692.3, -1511499.5, 49633.594, 0.024295928, -0.34636942, -1398827.9, 214950.47, 0.00005490219, 10.001275, 10.000107 
3.5505003e+2, 1.4532529e+2, -1396008.4, -1584558.9, 33404.363, 0.048308622, -0.3065156, -1390265.3, 125513.39, 0.000015641235, 10.001351, 9.998878 
3.5504597e+2, 1.5532383e+2, -1492489.0, -1599072.9, 30304.24, -0.03170942, -0.35572222, -1484475.4, -66679.07, 0.0000017221555, 10.000097, 9.9987135 
3.5504365e+2, 1.6532262e+2, -1408582.0, -1528473.8, 20941.67, 0.029174395, -0.3350461, -1405029.4, -85217.484, 0.000000007086625, 10.0000925, 9.998524 
3.5504243e+2, 1.7532162e+2, -1132594.6, -1338254.6, 6725.932, 0.17366876, -0.31032196, -1132374.9, 89450.234, 0.0, 10.001292, 9.998578 
3.550395e+2, 1.8532172e+2, -943502.0, -1055347.5, 23973.262, 0.129836, -0.22119048, -938580.06, 185244.52, 0.0, 10.0013075, 9.99984 
3.5503545e+2, 1.9532263e+2, -986556.2, -1032084.5, 68890.18, -0.054416716, -0.13579287, -936766.44, 89046.61, 0.0, 10.000362, 9.999786 
3.5503334e+2, 2.0532122e+2, -938066.2, -1079588.8, 69199.234, -0.04463427, -0.19549939, -909854.25, 17969.977, 0.0, 10.000546, 9.9987 
3.550328e+2, 2.1531768e+2, -668864.44, -904227.25, 55102.566, 0.12468532, -0.44208273, -656602.8, 173253.39, 0.0, 10.001741, 9.998655 
3.5502967e+2, 2.2531603e+2, -615153.0, -950578.06, -9065.336, 0.10448436, -0.41103122, -614908.1, 116965.56, 0.0, 10.001976, 9.997549 
3.5502416e+2, 2.35316e+2, -611398.0, -901198.3, 3261.245, -0.08261235, -0.19234864, -611361.3, 22518.227, 0.0, 10.001338, 9.997525 
3.550216e+2, 2.4531426e+2, -506440.78, -807674.6, 14188.061, -0.036068432, -0.11060869, -505774.0, 30126.186, 0.0, 10.001429, 9.997445 
3.5502154e+2, 2.5531092e+2, -302498.28, -653718.7, -21068.178, 0.21418825, -0.21071714, -301239.03, 136695.98, 0.0, 10.00213, 9.997495 
3.5501814e+2, 2.653092e+2, -119260.695, -318643.8, -64453.836, 0.18427828, -0.22080603, -100239.56, 239710.8, 0.0, 10.001882, 9.999238 
3.5501176e+2, 2.753087e+2, -204105.22, -319976.34, -14089.675, -0.08967271, -0.21652617, -202416.56, 39533.645, 0.0, 10.000666, 9.999145 
3.55009e+2, 2.8530747e+2, -195658.7, -478303.84, 33315.754, -0.061939675, -0.1504562, -191784.83, -47820.59, 0.00000011654808, 10.000983, 9.997228 
3.5500935e+2, 2.953057e+2, 137382.16, -266143.28, 40205.824, 0.21975967, -0.07807685, 141349.13, 187339.05, 0.0000016052002, 10.002576, 9.997251 
3.5500276e+2, 3.053032e+2, 345542.94, 71349.305, -31122.248, -0.09972799, -0.1424101, 349031.1, 349031.1, 0.000008325357, 10.002753, 9.99916 
3.549948e+2, 3.1530184e+2, 108834.79, -74439.445, 15178.631, -0.44648692, -0.22203135, 110083.37, 110083.37, 0.000028550077, 10.001227, 9.998882 
3.650569e+2, 1.25329e+2, -1589627.8, -1544657.4, 135167.84, 0.1091397, -0.3363255, -1430117.3, 281631.75, 0.000118926524, 10.000327, 10.001001 
3.6505353e+2, 1.3532968e+2, -1688697.8, -1623207.8, 19943.41, 0.031235512, -0.3186453, -1617612.5, -3874.957, 0.000056465244, 9.999367, 10.000251 
3.6505035e+2, 1.4532945e+2, -1627738.4, -1708026.3, 16892.418, 0.029603014, -0.28950563, -1624329.0, -108589.41, 0.00001794202, 9.999815, 9.998772 
3.6504748e+2, 1.5532805e+2, -1298863.6, -1513332.8, 28043.346, 0.05175495, -0.32367456, -1295257.4, 122500.28, 0.000002788093, 10.001461, 9.998645 
3.6504522e+2, 1.6532709e+2, -1149633.3, -1404153.9, 81993.05, 0.093554795, -0.27236146, -1125506.5, 194264.9, 0.00000008230677, 10.001882, 9.998514 
3.6504278e+2, 1.753265e+2, -1147739.0, -1345317.0, 90024.4, 0.091883145, -0.20546323, -1112873.0, 108908.06, 0.0, 10.001191, 9.998578 
3.6504015e+2, 1.8532605e+2, -956816.94, -1072659.4, 85189.8, 0.07001532, -0.1662243, -911722.8, 212061.94, 0.0, 10.001266, 9.9997425 
3.6503765e+2, 1.9532557e+2, -761644.0, -933276.06, 35454.766, 0.055929385, -0.21058547, -754608.4, 271176.06, 0.0, 10.001955, 9.999698 
3.650356e+2, 2.0532434e+2, -752798.0, -1001361.5, 42278.703, 0.0650943, -0.24169746, -745803.56, 181990.63, 0.0, 10.001875, 9.998595 
3.6503378e+2, 2.1532236e+2, -771583.4, -962952.06, 43731.21, 0.08593248, -0.3202639, -762063.56, 67750.16, 0.0, 10.001086, 9.998567 
3.6503044e+2, 2.253207e+2, -680028.0, -936450.9, 21141.883, 0.019897565, -0.30836236, -678296.56, 53534.406, 0.0, 10.001332, 9.997959 
3.6502573e+2, 2.3531921e+2, -421177.78, -766313.6, 40964.38, -0.11159159, -0.27153054, -416382.34, 217464.77, 0.0, 10.002456, 9.997914 
3.6502352e+2, 2.453174e+2, -370429.7, -771526.6, 97980.07, -0.033525176, -0.20510507, -347774.7, 188093.9, 0.0, 10.002472, 9.997201 
3.6502343e+2, 2.5531518e+2, -414534.75, -732972.44, 113446.58, 0.2294299, -0.16898519, -378252.28, 59643.39, 0.0, 10.001461, 9.997277 
3.6501983e+2, 2.653139e+2, -219076.92, -377242.5, 57795.746, 0.20120119, -0.11823139, -200208.53, 139700.48, 0.0, 10.001248, 9.999137 
3.650131e+2, 2.7531326e+2, -49283.926, -253470.55, 3374.9866, -0.07253996, -0.11646514, -49228.156, 192684.08, 0.0, 10.001771, 9.999065 
3.6501038e+2, 2.8531182e+2, -53133.85, -360912.38, 83274.37, -0.05358617, -0.089511804, -32047.332, 111880.07, 0.000000055764154, 10.001733, 9.997679 
3.6501116e+2, 2.9530987e+2, -37612.36, -297111.63, 118232.69, 0.22134398, -0.08497753, 8176.992, 54129.027, 0.0000011855267, 10.001142, 9.997727 
3.6500496e+2, 3.0530834e+2, 139436.83, -16825.76, 28090.969, -0.07393813, -0.08154458, 144333.25, 144333.25, 0.0000067298934, 10.001308, 9.999246 
3.6499676e+2, 3.153066e+2, 220303.05, -16929.195, -7835.978, -0.4006511, -0.20106299, 220561.6, 220561.6, 0.000025648078, 10.001987, 9.99892 
3.7505665e+2, 1.2533276e+2, -1605110.5, -1590996.6, 68394.11, -0.0009582232, -0.33978274, -1529296.4, 182412.64, 0.0001191897, 10.0003805, 10.000654 
3.7505192e+2, 1.3533385e+2, -1700062.0, -1662874.0, -7559.8506, -0.09637348, -0.25503567, -1661396.0, -47697.934, 0.00005856906, 9.99943, 9.999947 
3.750495e+2, 1.4533359e+2, -1603664.6, -1657148.6, 68650.23, -0.06237267, -0.23319407, -1556731.8, -41029.31, 0.000020069963, 9.999814, 9.999121 
3.7505138e+2, 1.5533294e+2, -1267414.1, -1455640.5, 96839.18, 0.2709323, -0.22848968, -1226489.9, 191222.5, 0.0000038584762, 10.001492, 9.999027 
3.7504917e+2, 1.6533259e+2, -1116679.5, -1329827.0, 47354.1, 0.2799758, -0.16257359, -1106632.5, 213085.55, 0.00000020238203, 10.001858, 9.999034 
3.7504256e+2, 1.7533252e+2, -1116598.0, -1283006.0, 74429.25, -0.07090247, -0.09528786, -1088165.9, 133554.06, 0.0, 10.001196, 9.999005 
3.7503982e+2, 1.8533045e+2, -1042941.3, -1239973.8, 103717.14, -0.10946916, -0.1801629, -998409.7, 125329.26, 0.0, 10.001221, 9.998612 
3.7504077e+2, 1.9532649e+2, -846413.56, -1095521.9, 68748.07, 0.15358871, -0.4584548, -828700.25, 197073.6, 0.0, 10.0019, 9.998607 
3.7503868e+2, 2.053261e+2, -743276.1, -967107.8, 4447.1196, 0.17446175, -0.36703292, -743187.8, 184590.27, 0.0, 10.001809, 9.998863 
3.7503383e+2, 2.1532875e+2, -763421.75, -924656.44, 22841.785, -0.035912544, -0.009574415, -760248.25, 69508.04, 0.0, 10.000996, 9.998871 
3.750308e+2, 2.2532733e+2, -643836.06, -842834.9, 54061.18, -0.08946401, -0.023457425, -630097.94, 101672.05, 0.0, 10.001246, 9.998645 
3.7502944e+2, 2.3532224e+2, -381527.28, -668152.4, 87322.586, -0.003836207, -0.42087227, -357019.3, 276796.44, 0.0, 10.002379, 9.998627 
3.7502652e+2, 2.4532013e+2, -336991.63, -682086.2, 53863.8, 0.004513894, -0.45164883, -328779.75, 207056.63, 0.0, 10.002392, 9.997853 
3.750221e+2, 2.553205e+2, -386881.34, -657744.4, 85794.71, -0.06929198, -0.21853627, -361993.1, 75843.336, 0.0, 10.001383, 9.997833 
3.7501895e+2, 2.6531938e+2, -317839.28, -573741.1, 70388.94, -0.0272412, -0.11148525, -299755.84, 40095.56, 0.0, 10.001213, 9.997804 
3.7501693e+2, 2.7531677e+2, -145829.63, -437727.88, 30966.43, 0.1150816, -0.17089358, -142580.67, 99299.69, 0.0, 10.001699, 9.997836 
3.7501395e+2, 2.8531507e+2, 18066.842, -198693.33, 54250.754, 0.109108694, -0.17510842, 30886.54, 174784.84, 0.00000003400916, 10.001673, 9.998823 
3.7501e+2, 2.95314e+2, 25901.71, -148496.2, 107003.266, -0.030050818, -0.18366042, 76736.66, 122643.54, 0.000000899484, 10.001064, 9.99879 
3.7500453e+2, 3.0531377e+2, 86191.77, -113698.7, 49514.2, -0.26221454, -0.07407259, 97784.45, 97784.45, 0.000005766145, 10.001254, 9.998608 
3.7500134e+2, 3.1531158e+2, 199335.5, -36075.242, 46786.363, -0.18314323, -0.17222503, 208293.14, 208293.14, 0.000023919054, 10.0018835, 9.998838 
3.8505587e+2, 1.2533519e+2, -1902657.9, -1793115.4, 20396.795, -0.017387368, -0.3659354, -1789440.8, -77757.73, 0.00012316402, 9.9986, 10.000125 
3.8505268e+2, 1.3533641e+2, -1549073.3, -1630723.9, -83350.12, -0.01778851, -0.22817291, -1497087.1, 116587.41, 0.000061385945, 10.000634, 9.999596 
3.8505012e+2, 1.4533591e+2, -1401816.5, -1523983.6, -3268.924, -0.03984204, -0.22975042, -1401729.1, 113953.2, 0.000022093489, 10.001044, 9.999439 
3.85052e+2, 1.5533555e+2, -1491123.3, -1526790.6, -7667.797, 0.27369913, -0.22849491, -1489544.6, -71856.68, 0.000004863891, 9.999809, 9.999345 
3.8505018e+2, 1.6533548e+2, -1386729.4, -1413206.0, -46736.598, 0.3017907, -0.17155048, -1351392.4, -31703.0, 0.00000029520132, 9.999782, 9.999473 
3.8504413e+2, 1.7533569e+2, -1146673.6, -1247964.1, -36944.406, -0.0111818295, -0.12164849, -1134630.5, 87056.15, 0.0, 10.000769, 9.9994545 
3.850413e+2, 1.8533379e+2, -1052009.0, -1269286.8, 50601.582, -0.08285612, -0.19977729, -1040802.4, 82901.58, 0.0, 10.001257, 9.998398 
3.8504174e+2, 1.9532983e+2, -954433.5, -1174984.4, 65321.15, 0.09720326, -0.45832163, -936539.06, 89201.8, 0.0, 10.001259, 9.998377 
3.850397e+2, 2.0532928e+2, -831818.0, -1022478.94, 8685.418, 0.121782705, -0.3655983, -831423.1, 96324.93, 0.0, 10.001252, 9.998754 
3.850352e+2, 2.1533164e+2, -741208.1, -929496.5, -14600.876, -0.005127476, -0.02442045, -740082.6, 89647.52, 0.0, 10.0012, 9.998749 
3.8503253e+2, 2.2533052e+2, -688139.0, -841638.1, 25271.654, -0.01623231, -0.014154069, -684085.4, 47656.637, 0.0, 10.000855, 9.998835 
3.8503155e+2, 2.3532622e+2, -673549.2, -783126.1, 204.26144, 0.078144684, -0.3504474, -673548.8, -39767.996, 0.0, 10.00028, 9.998841 
3.8502815e+2, 2.4532463e+2, -526753.94, -651657.7, -31977.521, 0.024641253, -0.3966864, -519043.13, 16750.973, 0.0, 10.00057, 9.99893 
3.8502258e+2, 2.5532526e+2, -287172.4, -499426.13, 18246.555, -0.16557677, -0.24567929, -285615.25, 152171.27, 0.0, 10.001595, 9.998813 
3.8501957e+2, 2.6532394e+2, -256115.92, -642933.44, 60274.69, -0.12689997, -0.15741241, -246941.4, 92861.7, 0.0, 10.002047, 9.996934 
3.8501883e+2, 2.7532086e+2, -164743.56, -537640.56, 36838.523, 0.1264643, -0.18209466, -161139.13, 80702.2, 0.0, 10.001957, 9.997026 
3.8501552e+2, 2.8531897e+2, -10532.132, -188032.92, 20842.672, 0.12047821, -0.17670563, -8117.5684, 135743.98, 0.000000026095549, 10.001375, 9.999039 
3.8500986e+2, 2.9531804e+2, -69045.36, -171732.28, -6114.345, -0.11005404, -0.19714029, -68682.57, -22816.252, 0.00000066980994, 10.000327, 9.9989805 
3.8500506e+2, 3.0531764e+2, -43072.95, -215256.34, -1716.6376, -0.28861287, -0.09259535, -43055.836, -43055.836, 0.000005131084, 10.000523, 9.998258 
3.850049e+2, 3.1531492e+2, 175918.25, -32805.316, -2422.1628, 0.0084565515, -0.21550344, 175946.34, 175946.34, 0.000023468077, 10.0016575, 9.998964 
3.950542e+2, 1.2533635e+2, -1957677.3, -1906591.1, 55593.453, -0.094307855, -0.41514903, -1870953.5, -159282.92, 0.0001272644, 9.998621, 9.999331 
3.950555e+2, 1.3533732e+2, -1579168.3, -1691607.5, -867.3339, 0.18119234, -0.25240755, -1579161.6, 34505.73, 0.00006380605, 10.000643, 9.99917 
3.9505184e+2, 1.4533642e+2, -1391817.5, -1503393.3, -55739.934, 0.0042666816, -0.28182083, -1368743.3, 146935.98, 0.000023677207, 10.001031, 9.999594 
3.95049e+2, 1.5533587e+2, -1470622.0, -1500112.4, -42651.266, -0.03150922, -0.31624907, -1440239.0, -22554.314, 0.000005569423, 9.999867, 9.999503 
3.950479e+2, 1.6533571e+2, -1357431.6, -1345545.4, -21839.707, 0.077063814, -0.30035037, -1328854.6, -9168.957, 0.00000035120044, 9.999762, 9.999945 
3.9504716e+2, 1.7533602e+2, -1115660.5, -1176442.5, 6774.638, 0.19504932, -0.28851676, -1114914.5, 106766.7, 0.0, 10.000744, 9.999956 
3.950444e+2, 1.8533604e+2, -1014702.6, -1177135.6, 43445.54, 0.0816865, -0.23286563, -1003812.5, 119868.04, 0.0, 10.001192, 9.9990635 
3.950403e+2, 1.9533563e+2, -918993.9, -1083751.0, 72185.19, -0.19152983, -0.20194736, -891841.94, 133842.94, 0.0, 10.001187, 9.999035 
3.9503825e+2, 2.0533392e+2, -877521.06, -1094729.0, -2511.4053, -0.16274124, -0.23381913, -877492.06, 50211.57, 0.0, 10.001157, 9.998303 
3.950376e+2, 2.153311e+2, -789843.2, -999248.2, -8351.045, 0.101168685, -0.3689725, -789510.7, 40224.227, 0.0, 10.001073, 9.998326 
3.9503545e+2, 2.253303e+2, -726784.25, -902370.5, -3750.2185, 0.17040388, -0.28677133, -726704.2, 5042.547, 0.0, 10.000769, 9.998463 
3.9503184e+2, 2.3533109e+2, -708474.75, -834330.75, -10877.685, 0.06080519, -0.073197044, -707541.56, -73798.43, 0.0, 10.000189, 9.998534 
3.9502823e+2, 2.4533077e+2, -429400.0, -437603.88, -162.43723, -0.044884086, -0.054779135, -429396.78, 106346.26, 0.0, 10.000517, 10.000428 
3.9502457e+2, 2.5532934e+2, -195412.86, -292499.97, 63088.1, -0.14574923, -0.26063442, -164353.73, 273393.38, 0.0, 10.001518, 10.000276 
3.9502135e+2, 2.6532763e+2, -293255.84, -703043.6, 50167.074, -0.16783574, -0.26298642, -287203.66, 52560.863, 0.0, 10.001974, 9.996557 
3.9501852e+2, 2.753255e+2, -203570.89, -602200.9, 41082.023, -0.12116042, -0.15174018, -199381.1, 42414.387, 0.0, 10.001883, 9.996622 
3.9501485e+2, 2.8532356e+2, -63626.547, -284735.44, -25838.666, -0.10015322, -0.09592238, -60647.203, 83170.03, 0.000000010243951, 10.001326, 9.998396 
3.9501038e+2, 2.9532188e+2, -128603.63, -270031.7, -30897.387, -0.11136374, -0.12617572, -122148.23, -76318.07, 0.0000005130985, 10.000223, 9.998356 
3.950064e+2, 3.0531994e+2, -50739.836, -220374.75, 38456.97, -0.2295391, -0.14338946, -42428.676, -42428.676, 0.0000059963604, 10.000474, 9.998244 
3.95007e+2, 3.153164e+2, 185050.3, 11376.477, 68919.88, 0.013700323, -0.34931335, 209076.36, 209076.36, 0.000027743677, 10.001557, 9.999311 
4.0505424e+2, 1.2533829e+2, -1588930.1, -1723163.8, -16270.777, -0.06695182, -0.29417136, -1586986.1, 124671.6, 0.0001282802, 10.001109, 9.999396 
4.0505648e+2, 1.3533856e+2, -1752929.6, -1736015.6, -11524.215, 0.29267043, -0.24099143, -1730178.3, -116519.234, 0.00006493345, 9.999274, 9.999528 
4.0505233e+2, 1.4533778e+2, -1599250.8, -1568680.0, -644.904, 0.033497106, -0.2934154, -1568666.5, -52998.543, 0.00002457309, 9.999465, 9.999895 
4.0504885e+2, 1.5533768e+2, -1255166.4, -1366282.4, -1265.8386, -0.09818975, -0.31100637, -1255151.9, 162515.3, 0.000005781208, 10.001213, 9.999774 
4.05048e+2, 1.653375e+2, -1124818.5, -1234828.9, 10280.156, 0.037072662, -0.3071802, -1123866.1, 195801.63, 0.0000003430959, 10.001362, 9.999931 
4.0504822e+2, 1.7533746e+2, -1211935.3, -1224999.3, -17694.885, 0.26656958, -0.33050892, -1199605.3, 22062.33, 0.0, 10.000084, 9.999942 
4.0504563e+2, 1.8533799e+2, -1233547.8, -1233975.1, 11167.161, 0.17843081, -0.2455385, -1222592.3, -98929.75, 0.0, 9.999483, 9.999496 
4.0504107e+2, 1.9533879e+2, -1149521.3, -1149236.3, 11542.268, -0.13870338, -0.13498804, -1137835.6, -112179.84, 0.0, 9.99941, 9.999447 
4.0503895e+2, 2.0533733e+2, -1046101.3, -1168802.3, -18330.885, -0.14314099, -0.16570927, -1043421.3, -115748.47, 0.0, 9.999973, 9.998363 
4.0503865e+2, 2.1533382e+2, -788447.94, -995766.0, -7561.4497, 0.10748746, -0.37387922, -788172.5, 41538.938, 0.0, 10.001066, 9.998356 
4.0503636e+2, 2.2533315e+2, -592622.25, -802651.44, 25641.443, 0.15147668, -0.29310077, -589537.1, 142184.22, 0.0, 10.001542, 9.998775 
4.0503213e+2, 2.3533489e+2, -499994.1, -706412.44, 56041.695, 0.012722097, -0.017920962, -485760.5, 147946.94, 0.0, 10.001493, 9.998788 
4.0502894e+2, 2.4533457e+2, -391386.47, -489142.6, 39098.414, -0.049052443, 0.022960171, -377672.6, 158036.1, 0.0, 10.001083, 9.999802 
4.0502656e+2, 2.553325e+2, -396609.13, -446571.88, -72814.06, -0.03798468, -0.18744287, -344610.28, 93112.766, 0.0, 10.000402, 9.999746 
4.0502325e+2, 2.653308e+2, -470986.84, -692484.8, -93893.53, -0.087605536, -0.21255247, -436541.7, -96802.22, 0.0, 10.000334, 9.997419 
4.0501913e+2, 2.7532914e+2, -306895.03, -563234.7, -21955.848, -0.18503925, -0.13946857, -305028.1, -63267.92, 0.0, 10.000785, 9.997419 
4.050156e+2, 2.8532705e+2, -109040.36, -378411.78, -42476.113, -0.15056, -0.10146592, -102501.21, 41280.363, 0.0000000008315615, 10.001313, 9.99776 
4.0501258e+2, 2.9532465e+2, 76944.78, -238371.47, -64390.414, 0.008074445, -0.14608008, 89587.01, 135390.75, 0.0000007104038, 10.001914, 9.997757 
4.050084e+2, 3.0532226e+2, 170966.77, -150439.78, 40111.97, -0.15253173, -0.16173564, 175897.16, 175897.16, 0.000009515816, 10.002154, 9.997921 
4.0500847e+2, 3.153191e+2, 228366.27, -2129.849, 19738.914, -0.008768802, -0.2950583, 230044.42, 230044.42, 0.0000394484, 10.001981, 9.999024 
4.1505545e+2, 1.2534083e+2, -1514174.4, -1581087.6, -153765.03, -0.10689235, -0.018837497, -1390268.3, 321377.78, 0.0001259659, 10.001156, 10.000349 
4.1505527e+2, 1.3534021e+2, -1652389.0, -1551782.9, -66236.695, 0.21745948, -0.1833067, -1518913.3, 94735.16, 0.00006410072, 9.999364, 10.00075 
4.1505122e+2, 1.4533992e+2, -1566845.8, -1503509.4, 60402.246, -0.050437696, -0.2680708, -1466977.1, 48671.055, 0.00002430965, 9.999486, 10.000331 
4.1505122e+2, 1.5534091e+2, -1228925.1, -1302768.8, 71748.48, -0.006583841, -0.2203282, -1185155.8, 232479.89, 0.0000053776803, 10.001184, 10.000219 
4.1505024e+2, 1.6534086e+2, -1171587.1, -1319653.8, -45634.06, 0.101871476, -0.19815817, -1158652.6, 160983.0, 0.0000002359893, 10.001307, 9.999375 
4.1504708e+2, 1.7534007e+2, -1247732.3, -1300673.4, -55172.62, 0.120467775, -0.24045803, -1213008.8, 8636.144, 0.0, 10.000088, 9.999421 
4.1504475e+2, 1.8533966e+2, -1223128.6, -1203549.9, 536.84845, 0.12355118, -0.23586981, -1203535.1, -79885.4, 0.0, 9.999449, 9.99972 
4.150437e+2, 1.9533943e+2, -1139853.8, -1114371.5, 17207.896, 0.16093463, -0.2531781, -1105701.3, -80049.016, 0.0, 9.999355, 9.999706 
4.150415e+2, 2.0533954e+2, -1024037.9, -1108678.8, 14911.076, 0.10116789, -0.16198789, -1021487.9, -93832.8, 0.0, 9.999902, 9.998816 
4.1503814e+2, 2.1533984e+2, -768918.2, -929318.6, 37455.324, -0.070446834, -0.03533182, -760603.0, 69056.51, 0.0, 10.000956, 9.998864 
4.1503504e+2, 2.2533919e+2, -540634.44, -670780.25, 16006.47, -0.14840527, -0.028634444, -538694.7, 192970.78, 0.0, 10.001436, 9.999732 
4.150322e+2, 2.3533762e+2, -454676.06, -589541.9, 61238.703, -0.14980003, -0.18108581, -431019.03, 202654.7, 0.0, 10.001397, 9.999636 
4.1502994e+2, 2.4533613e+2, -588379.0, -888594.56, 5456.5596, -0.07432246, -0.15713829, -588279.9, -52589.66, 0.0, 10.001037, 9.997081 
4.1502818e+2, 2.5533465e+2, -584577.9, -823632.56, -88895.305, 0.065520786, -0.038012315, -555144.94, -117429.94, 0.0, 10.000339, 9.9971895 
4.15025e+2, 2.653333e+2, -325872.4, -381368.22, -82222.516, 0.034267124, -0.0154334605, -266841.94, 72886.75, 0.0, 10.0002985, 9.999569 
4.1502044e+2, 2.7533188e+2, -175488.19, -270434.5, 4449.275, -0.15567523, -0.13378616, -175280.16, 66453.86, 0.0, 10.000705, 9.999466 
4.1501752e+2, 2.8532952e+2, -153873.95, -472101.44, -28513.846, -0.11299975, -0.1899717, -151339.23, -7585.3584, 0.00000000001177225, 10.001305, 9.997127 
4.1501603e+2, 2.9532626e+2, 23100.006, -335659.44, -34557.0, 0.13703884, -0.25428405, 26398.336, 72185.734, 0.0000013022876, 10.001843, 9.997127 
4.1501078e+2, 3.053246e+2, 126796.96, -232403.52, 30549.865, -0.14954427, -0.13954958, 129376.69, 129376.69, 0.000014575742, 10.002122, 9.997369 
4.150087e+2, 3.1532335e+2, 152052.88, -126280.9, 24715.176, -0.22548747, -0.027874608, 154230.47, 154230.47, 0.000055427667, 10.001849, 9.998228 
4.2505622e+2, 1.2534277e+2, -1964446.5, -1785371.1, -28640.342, 0.018722374, 0.012842353, -1780902.0, -69272.664, 0.000120138786, 9.997995, 10.000473 
4.2505538e+2, 1.3534205e+2, -1423225.9, -1425211.1, 6833.8906, 0.22544135, -0.18355805, -1417312.9, 196318.4, 0.00006079175, 10.000844, 10.000913 
4.2505133e+2, 1.4534222e+2, -1304597.9, -1359404.8, 73373.805, -0.06937066, -0.23805477, -1253677.3, 261948.69, 0.00002257458, 10.0012, 10.000497 
4.2505193e+2, 1.553434e+2, -1540166.8, -1435016.8, 37253.5, 0.06704511, -0.18876337, -1423156.1, -5544.3657, 0.0000044461326, 9.998968, 10.000382 
4.2505077e+2, 1.653435e+2, -1533165.3, -1485674.8, -26520.871, 0.15456322, -0.16281496, -1473822.4, -154211.98, 0.00000009724189, 9.998798, 9.999442 
4.2504668e+2, 1.753427e+2, -1187499.4, -1265694.4, -6289.011, 0.05791596, -0.21201953, -1186996.9, 34622.67, 0.0, 10.00048, 9.999473 
4.2504448e+2, 1.8534192e+2, -1000798.6, -1131392.3, 47472.324, 0.07157063, -0.23031639, -985365.7, 138262.72, 0.0, 10.001122, 9.99941 
4.2504436e+2, 1.9534099e+2, -950653.56, -1059647.9, 9957.2295, 0.22756632, -0.2845723, -949751.4, 75887.67, 0.0, 10.0008, 9.999388 
4.2504218e+2, 2.0534152e+2, -925222.9, -1006103.1, 20526.42, 0.15964033, -0.16337791, -920311.75, 7326.3706, 0.0, 10.000347, 9.999298 
4.2503786e+2, 2.153432e+2, -913202.2, -949383.6, 28992.729, -0.12665933, 0.054024648, -897119.06, -67490.69, 0.0, 9.99975, 9.999308 
4.2503503e+2, 2.2534262e+2, -765091.0, -755543.5, -8326.393, -0.20444655, 0.037046213, -750719.44, -19087.389, 0.0, 9.999801, 9.999933 
4.250335e+2, 2.3534006e+2, -590345.8, -635517.2, -39908.832, -0.10217089, -0.23342124, -567074.94, 66573.04, 0.0, 10.000385, 9.999806 
4.2503116e+2, 2.4533838e+2, -657472.56, -965902.75, -35599.13, -0.03827768, -0.21690133, -653417.06, -117749.86, 0.0, 10.000755, 9.996686 
4.250281e+2, 2.5533733e+2, -518735.97, -834759.7, 26961.865, -0.0050479127, -0.011648491, -516452.22, -78761.34, 0.0, 10.000973, 9.996809 
4.2502502e+2, 2.6533613e+2, -242668.97, -314290.38, 57856.813, -0.011583838, 0.03271818, -210436.9, 129266.63, 0.0, 10.000752, 9.999818 
4.250219e+2, 2.7533463e+2, -238571.95, -270903.22, -11309.259, -0.049606644, -0.11830415, -235008.75, 6698.9487, 0.0, 10.000145, 9.999735 
4.2501956e+2, 2.8533232e+2, -245124.05, -505452.2, -24469.6, -0.00022733495, -0.1879423, -242844.0, -99117.5, 0.0000000012455732, 10.000647, 9.997206 
4.2501804e+2, 2.9532912e+2, 71137.23, -304594.7, 1607.2472, 0.14660878, -0.25075856, 71144.1, 116904.18, 0.0000019825331, 10.002143, 9.997196 
4.250125e+2, 3.0532786e+2, 116560.19, -247790.67, 62225.984, -0.17658943, -0.09781644, 126894.39, 126894.39, 0.000019679212, 10.002094, 9.997278 
4.250108e+2, 3.1532666e+2, -27873.852, -211817.2, 25806.61, -0.12558652, 0.025945615, -24321.865, -24321.865, 0.00007104561, 10.000603, 9.998241 
4.3505585e+2, 1.2534426e+2, -2016915.8, -1888433.6, 1049.8839, 0.1350164, -0.18989271, -1888425.1, -176818.6, 0.000112459136, 9.998004, 9.99975 
4.3505666e+2, 1.3534413e+2, -1484647.5, -1547992.5, 123499.64, 0.24590379, -0.24058424, -1388823.8, 224783.36, 0.000055857796, 10.000842, 10.000066 
4.350524e+2, 1.453446e+2, -1316694.1, -1386024.5, -12513.081, -0.10898417, -0.21173042, -1314504.9, 201096.8, 0.000019900395, 10.001195, 10.000322 
4.3505076e+2, 1.5534516e+2, -1538504.5, -1447596.1, -32820.6, 0.024259968, -0.21245092, -1436985.4, -19389.857, 0.0000034951138, 9.999025, 10.000274 
4.350493e+2, 1.6534537e+2, -1485673.1, -1383835.5, 27126.85, 0.10563013, -0.20626003, -1377060.4, -57468.055, 0.000000032016867, 9.998791, 10.000142 
4.350468e+2, 1.753453e+2, -1145608.4, -1172737.4, 63022.582, -0.004544519, -0.2495274, -1094707.0, 126884.25, 0.0, 10.000457, 10.000121 
4.3504447e+2, 1.8534473e+2, -1072182.9, -1262424.9, 28145.43, -0.060282204, -0.23597358, -1068106.3, 55492.813, 0.0, 10.001052, 9.998544 
4.3504295e+2, 1.9534352e+2, -1016708.94, -1180467.5, 5579.3647, -0.016474918, -0.23234417, -1016519.06, 9096.936, 0.0, 10.000735, 9.998589 
4.350407e+2, 2.0534335e+2, -905619.6, -942944.44, -10043.789, -0.0400714, -0.1666382, -903088.56, 24532.607, 0.0, 10.000253, 9.999776 
4.3503758e+2, 2.1534398e+2, -894759.56, -890635.6, 15701.06, -0.14657709, -0.1028329, -876861.75, -47244.547, 0.0, 9.999663, 9.99975 
4.3503603e+2, 2.2534363e+2, -826158.6, -855774.94, 5646.315, -0.10062242, -0.08654078, -825118.7, -93498.92, 0.0, 9.999686, 9.999301 
4.350358e+2, 2.3534226e+2, -642217.5, -718489.6, -10824.141, 0.07355448, -0.1732871, -640711.1, -7081.7554, 0.0, 10.00028, 9.999286 
4.350323e+2, 2.4534135e+2, -538924.8, -704982.44, -35374.44, -0.012752612, -0.15202792, -531703.2, 3935.934, 0.0, 10.00069, 9.9985075 
4.35026e+2, 2.5534067e+2, -410974.78, -592081.06, 40816.984, -0.33183515, -0.096676126, -402200.7, 35449.44, 0.0, 10.000894, 9.998512 
4.3502307e+2, 2.6533934e+2, -357991.56, -548786.4, 27396.48, -0.29742718, -0.059572335, -354135.6, -14471.794, 0.0, 10.000729, 9.99822 
4.3502307e+2, 2.7533737e+2, -352140.6, -494999.44, -22079.115, 0.034047943, -0.09944632, -348806.06, -107124.805, 0.0, 10.000089, 9.998225 
4.3502137e+2, 2.8533545e+2, -199503.45, -398568.84, 25816.2, 0.09779545, -0.09927116, -196209.92, -52510.383, 0.000000012355592, 10.000604, 9.997955 
4.3501842e+2, 2.953334e+2, 108713.75, -209198.83, 64947.098, -0.05217185, -0.1262522, 121470.09, 167190.58, 0.0000027662056, 10.002074, 9.997883 
4.3501335e+2, 3.05332e+2, 141335.19, -198975.13, 2229.7222, -0.32035786, -0.031476963, 141349.8, 141349.8, 0.000024180765, 10.002093, 9.997616 
4.3501413e+2, 3.1532887e+2, 12866.554, -108244.45, -51492.766, 0.10402096, -0.13439357, 31799.879, 31799.879, 0.00008333817, 10.000522, 9.99899 
4.4505623e+2, 1.253462e+2, -1595547.8, -1672159.1, -38409.996, 0.24450663, -0.30148676, -1579607.1, 131974.89, 0.00010599228, 10.000857, 9.999856 
4.45057e+2, 1.3534656e+2, -1642167.3, -1627867.6, 169925.1, 0.2565541, -0.2968749, -1464942.0, 148636.7, 0.00005101591, 9.999799, 10.00002 
4.4505304e+2, 1.4534721e+2, -1542847.5, -1559178.8, 17236.752, -0.09445593, -0.21676554, -1531940.0, -16366.655, 0.000017295639, 9.999924, 9.999743 
4.4505066e+2, 1.5534711e+2, -1321231.5, -1401150.9, -58477.83, 0.031519357, -0.22893237, -1290364.4, 127211.89, 0.0000027656245, 10.000774, 9.999746 
4.4504887e+2, 1.6534708e+2, -1224790.3, -1263012.5, 12119.257, 0.100299425, -0.2197938, -1221271.5, 98305.21, 0.000000035556127, 10.00059, 10.00011 
4.4504645e+2, 1.7534721e+2, -1286612.8, -1241731.5, -21190.334, -0.027537731, -0.24325325, -1233307.8, -11733.263, 0.0, 9.999496, 10.000108 
4.450443e+2, 1.85347e+2, -1310115.9, -1350326.3, -25972.053, -0.08667517, -0.20381519, -1297376.5, -173798.08, 0.0, 9.999301, 9.998784 
4.4504306e+2, 1.9534631e+2, -1135605.5, -1212827.6, 15698.285, -0.027500784, -0.17167033, -1132536.3, -106946.58, 0.0, 9.999808, 9.998814 
4.4504097e+2, 2.0534578e+2, -952123.75, -979414.2, 12464.649, -0.018662097, -0.14596711, -947287.6, -19690.432, 0.0, 10.000009, 9.999639 
4.4503808e+2, 2.1534526e+2, -870985.75, -894338.25, -24407.256, -0.07149057, -0.1810317, -855605.56, -26002.732, 0.0, 9.999903, 9.999606 
4.4503647e+2, 2.2534488e+2, -809999.3, -855947.1, 2869.6206, -0.028720446, -0.15777363, -809820.75, -78214.56, 0.0, 9.999823, 9.999232 
4.4503602e+2, 2.3534447e+2, -726807.5, -767716.9, 11310.813, 0.097265705, -0.14421877, -723888.56, -90279.375, 0.0, 9.999726, 9.999217 
4.4503272e+2, 2.453438e+2, -630381.94, -667781.7, -26276.318, 0.009921507, -0.13150148, -616830.8, -81216.11, 0.0, 9.999708, 9.999235 
4.450269e+2, 2.553428e+2, -528103.25, -574332.6, -46788.7, -0.26780635, -0.17985967, -499031.06, -61407.38, 0.0, 9.999763, 9.99918 
4.4502413e+2, 2.6534137e+2, -453260.47, -651647.6, -39357.234, -0.24065027, -0.16162995, -445737.8, -106099.63, 0.0, 10.000326, 9.997699 
4.450239e+2, 2.7533948e+2, -200307.42, -477169.34, -25808.377, 0.050407816, -0.1414174, -197922.17, 43736.406, 0.0, 10.001379, 9.997719 
4.450221e+2, 2.8533792e+2, -81044.77, -310267.16, 54211.402, 0.0817217, -0.09269429, -68870.31, 74805.17, 0.00000003062236, 10.001276, 9.998242 
4.4501916e+2, 2.9533646e+2, -159039.94, -295428.5, 40126.754, -0.07969566, -0.09013952, -148110.16, -102418.78, 0.0000032986038, 10.000059, 9.998255 
4.4501474e+2, 3.053351e+2, -136718.19, -279346.72, -24673.508, -0.28010467, -0.03853016, -132570.5, -132570.5, 0.000027227657, 9.999954, 9.998092 
4.4501603e+2, 3.1533188e+2, 122179.48, 43586.285, -132654.6, 0.23250256, -0.19672625, 221235.56, 221235.56, 0.000091368296, 10.000836, 9.999885 
4.5505685e+2, 1.2534843e+2, -1521873.9, -1529015.3, -155987.36, 0.16639441, -0.33126852, -1369416.4, 342140.78, 0.00010140695, 10.000902, 10.000815 
4.55056e+2, 1.3534924e+2, -1581538.8, -1519168.9, 143712.61, 0.15216485, -0.3609915, -1403296.6, 210250.5, 0.00004730018, 9.999865, 10.000738 
4.5505288e+2, 1.453499e+2, -1607065.4, -1693821.6, 46986.652, -0.12771362, -0.2666933, -1586495.0, -70952.46, 0.000015080613, 9.999937, 9.99881 
4.550514e+2, 1.5534925e+2, -1387659.1, -1537227.0, -17981.684, 0.0021032118, -0.23642874, -1385527.8, 32026.158, 0.0000021144335, 10.000775, 9.998808 
4.5504925e+2, 1.653487e+2, -1273751.0, -1367578.4, -38946.95, 0.056024075, -0.19920081, -1259691.3, 59871.984, 0.00000004449902, 10.000593, 9.999393 
4.5504555e+2, 1.7534831e+2, -1325603.3, -1334233.5, -51952.715, -0.091467686, -0.20276879, -1277786.8, -56217.09, 0.0, 9.999536, 9.999458 
4.5504382e+2, 1.8534867e+2, -1224696.1, -1159803.1, -13836.479, -0.085469656, -0.1423045, -1156976.1, -33409.11, 0.0, 9.999251, 10.000111 
4.5504436e+2, 1.9534944e+2, -1058429.0, -1036392.06, 41109.15, 0.10327789, -0.09816275, -1004850.4, 20709.027, 0.0, 9.999745, 10.00005 
4.5504272e+2, 2.0534885e+2, -1019769.4, -1098619.8, -1107.593, 0.13630165, -0.09736855, -1019753.9, -92187.91, 0.0, 9.999913, 9.998868 
4.5503902e+2, 2.1534705e+2, -937568.7, -1003837.06, -19412.682, 0.0143812755, -0.18571907, -932300.75, -102715.445, 0.0, 9.999779, 9.998914 
4.550361e+2, 2.2534639e+2, -794170.6, -796985.75, -6281.4824, -0.06504147, -0.1792774, -789140.94, -57549.49, 0.0, 9.999709, 9.999696 
4.5503384e+2, 2.353466e+2, -707203.94, -706692.1, 17674.648, -0.108817436, -0.14912485, -689271.56, -55683.98, 0.0, 9.999638, 9.999679 
4.5503202e+2, 2.4534577e+2, -666669.8, -721011.44, -31842.463, -0.049185082, -0.15919939, -651981.44, -116387.414, 0.0, 9.999622, 9.99891 
4.5503056e+2, 2.5534382e+2, -560586.7, -619970.8, -34940.31, 0.100719325, -0.26475918, -544426.3, -106815.21, 0.0, 9.999672, 9.998911 
4.5502788e+2, 2.6534227e+2, -427826.5, -586721.06, -4986.9316, 0.08694356, -0.27330893, -427670.13, -88043.984, 0.0, 10.000274, 9.99817 
4.5502415e+2, 2.7534094e+2, -181665.55, -420859.13, 21781.135, -0.08425523, -0.2444233, -179698.31, 61941.62, 0.0, 10.001302, 9.998142 
4.5502147e+2, 2.853398e+2, -96347.05, -330788.13, 1650.727, -0.1259766, -0.16862346, -96335.42, 47318.883, 0.000000022691747, 10.001223, 9.998129 
4.5501998e+2, 2.953385e+2, -167669.6, -302005.2, 6848.931, -0.026773237, -0.13767454, -167321.31, -121649.06, 0.0000033720132, 9.999998, 9.998245 
4.5501631e+2, 3.0533713e+2, -95693.805, -186213.72, 6549.1836, -0.13550216, -0.12250297, -95222.414, -95222.414, 0.000028360193, 9.999932, 9.998736 
4.5501614e+2, 3.1533563e+2, 178445.44, 186344.73, -109831.52, 0.11754835, -0.16875494, 292297.6, 292297.6, 0.00009465621, 10.000735, 10.00091 
4.6505663e+2, 1.2535098e+2, -1665647.9, -1619164.3, -195118.78, 0.10904956, -0.33960548, -1445907.9, 265622.9, 0.000096649455, 9.999986, 10.000637 
4.650553e+2, 1.3535206e+2, -1591151.5, -1567652.9, 38772.703, 0.098926954, -0.3077633, -1538888.4, 74633.27, 0.00004344866, 9.999959, 10.000367 
4.650536e+2, 1.4535251e+2, -1552117.0, -1632452.8, 11983.739, -0.058673106, -0.23294902, -1550367.5, -34849.086, 0.000012657647, 10.00016, 9.999125 
4.650521e+2, 1.5535142e+2, -1418813.0, -1519306.1, 16728.713, 0.018527374, -0.2826392, -1416101.4, 1428.6989, 0.0000014631825, 10.000413, 9.999109 
4.6504965e+2, 1.6535066e+2, -1340741.6, -1464391.5, 24791.973, 0.051646724, -0.2470579, -1335956.1, -16414.893, 0.000000030371112, 10.000431, 9.998802 
4.6504575e+2, 1.7535026e+2, -1255614.4, -1363162.3, 2385.3157, -0.061647125, -0.19108017, -1255561.5, -34010.113, 0.0, 10.000297, 9.998892 
4.6504372e+2, 1.8535057e+2, -1081147.3, -1071449.5, 41428.652, -0.058964822, -0.12141065, -1034586.9, 88963.836, 0.0, 10.000147, 10.000289 
4.650439e+2, 1.9535121e+2, -1021688.75, -1000561.94, -350.3316, 0.08204021, -0.10484576, -1000556.1, 24986.781, 0.0, 9.999908, 10.000225 
4.6504247e+2, 2.0535082e+2, -997144.5, -1054428.6, -25798.926, 0.12745677, -0.11073082, -987238.5, -59692.492, 0.0, 9.999915, 9.999172 
4.650395e+2, 2.1534942e+2, -870961.06, -942707.25, 15845.71, 0.07410309, -0.18686862, -867617.25, -38057.79, 0.0, 10.000105, 9.999178 
4.650366e+2, 2.2534886e+2, -753314.6, -790518.6, 50662.457, 0.001427632, -0.17816405, -717947.0, 13617.52, 0.0, 10.000056, 9.999566 
4.6503377e+2, 2.3534887e+2, -688011.8, -711741.56, 13422.545, -0.084935896, -0.15640399, -681961.9, -48398.086, 0.0, 9.999842, 9.999542 
4.6503198e+2, 2.4534784e+2, -594245.5, -697857.44, -10805.935, -0.03453441, -0.17174976, -593130.5, -57558.188, 0.0, 10.000158, 9.998816 
4.6503115e+2, 2.5534582e+2, -383433.25, -542367.0, -10469.094, 0.13980697, -0.27963072, -382746.6, 54843.504, 0.0, 10.000918, 9.998842 
4.6502885e+2, 2.653444e+2, -277611.63, -470399.4, 35035.125, 0.11520898, -0.2887374, -271442.16, 68160.81, 0.0, 10.001106, 9.998575 
4.6502507e+2, 2.7534342e+2, -236807.55, -405386.8, 39086.516, -0.09091143, -0.2661891, -228185.95, 13426.958, 0.0, 10.000731, 9.998531 
4.650222e+2, 2.8534248e+2, -212737.31, -375738.53, 6108.562, -0.1272145, -0.19275117, -212508.72, -68883.94, 0.00000001636591, 10.000364, 9.998239 
4.650205e+2, 2.953414e+2, -145186.94, -272196.3, 9097.194, 0.028471326, -0.15422137, -144538.64, -98898.0, 0.0000038591365, 10.000066, 9.998419 
4.6501768e+2, 3.0533966e+2, 39979.723, -128064.766, 76999.695, -0.03523903, -0.18534803, 69925.414, 69925.414, 0.000029778155, 10.000888, 9.998688 
4.6501735e+2, 3.1533912e+2, 418161.13, 279537.63, -147826.94, 0.08900773, -0.12504464, 512118.84, 512118.84, 0.00009717631, 10.002482, 10.000716 
4.7505477e+2, 1.253538e+2, -1756442.5, -1794992.3, -254659.19, -0.12598734, -0.32187027, -1520329.8, 191173.63, 0.000091564856, 9.999954, 9.9994335 
4.750546e+2, 1.353551e+2, -1686393.8, -1759088.8, 49556.137, 0.011997485, -0.12890513, -1661284.3, -47783.168, 0.000038474074, 9.999954, 9.9990425 
4.7505486e+2, 1.4535514e+2, -1438837.4, -1405240.9, 16596.17, 0.024669077, -0.108557925, -1398425.3, 117074.56, 0.000009911169, 10.000177, 10.000684 
4.7505242e+2, 1.5535356e+2, -1301322.0, -1291521.0, 34264.914, -0.0146369105, -0.36612752, -1261807.9, 155696.61, 0.0000009593812, 10.00047, 10.000652 
4.7504982e+2, 1.6535296e+2, -1376668.1, -1537071.4, 10487.716, 0.0038961777, -0.36553076, -1375985.4, -56474.387, 0.000000014696447, 10.0004225, 9.998308 
4.7504666e+2, 1.75353e+2, -1291939.4, -1439696.3, 6718.2095, -0.019330151, -0.21214914, -1291634.5, -70113.695, 0.0, 10.000302, 9.998364 
4.7504377e+2, 1.8535258e+2, -1148812.9, -1202188.0, 26083.174, -0.09260406, -0.14254652, -1138183.5, -14653.315, 0.0, 10.000103, 9.999415 
4.750415e+2, 1.9535165e+2, -1082252.1, -1119641.6, 422.7287, -0.17255677, -0.1974011, -1082247.3, -56707.207, 0.0, 9.999874, 9.999427 
4.7504008e+2, 2.0535168e+2, -917029.94, -868220.2, -25676.758, -0.12224804, -0.18806122, -857200.56, 70336.76, 0.0, 9.999833, 10.000489 
4.7503927e+2, 2.1535243e+2, -797459.4, -768118.44, 30239.139, 0.023855723, -0.18092808, -749178.94, 80346.08, 0.0, 10.000011, 10.000421 
4.7503766e+2, 2.2535223e+2, -813396.4, -901221.8, 35196.504, 0.085159466, -0.15898234, -801031.9, -69506.03, 0.0, 9.999986, 9.998846 
4.7503546e+2, 2.3535115e+2, -750649.25, -820266.1, 15296.856, 0.082338214, -0.17305738, -747436.4, -113897.586, 0.0, 9.9997425, 9.998849 
4.7503242e+2, 2.4535e+2, -594181.25, -680255.44, 11590.498, -0.026827145, -0.17473191, -592647.9, -57097.85, 0.0, 10.000084, 9.99897 
4.750286e+2, 2.5534868e+2, -387112.6, -533111.06, 25451.572, -0.23090324, -0.22712047, -382802.9, 54758.383, 0.0, 10.000839, 9.998947 
4.750267e+2, 2.6534772e+2, -262159.28, -423939.72, 15283.609, -0.22706886, -0.21596183, -260728.1, 78841.81, 0.0, 10.001045, 9.998922 
4.750263e+2, 2.7534685e+2, -219456.0, -354670.16, 34127.1, -0.05765205, -0.21450704, -211330.81, 30247.373, 0.0, 10.000671, 9.998906 
4.7502404e+2, 2.8534597e+2, -195100.73, -334906.88, -14437.823, -0.00045985353, -0.17122829, -193625.31, -50037.82, 0.0000000367379, 10.000342, 9.99853 
4.750204e+2, 2.95345e+2, -139784.03, -246771.89, 9506.051, -0.009764801, -0.14922053, -138945.97, -93347.64, 0.000004901276, 9.999991, 9.998634 
4.7501844e+2, 3.0534247e+2, -22323.104, -237131.67, 131252.0, -0.06267273, -0.23272039, 39868.51, 39868.51, 0.000032907166, 10.000806, 9.997975 
4.7501913e+2, 3.1534183e+2, 308632.13, 65452.832, -77274.21, -0.025495559, -0.10198845, 331109.63, 331109.63, 0.00010232853, 10.002424, 9.999272 
4.8505405e+2, 1.2535562e+2, -2059821.5, -1958936.1, -268472.63, -0.08559443, -0.31050852, -1736208.5, -24721.598, 0.00008660855, 9.997932, 9.999293 
4.8505503e+2, 1.3535686e+2, -1600742.6, -1742974.1, 103041.54, 0.034305647, -0.10157922, -1546658.5, 66827.39, 0.000032757685, 10.000623, 9.998847 
4.8505697e+2, 1.4535668e+2, -1273760.5, -1306384.1, 21151.52, 0.16995557, -0.10066474, -1263361.6, 252125.38, 0.000007215262, 10.001242, 10.000841 
4.8505256e+2, 1.5535533e+2, -1336159.1, -1290869.0, -93654.74, -0.02869916, -0.35164085, -1217160.5, 200329.16, 0.00000059770906, 10.000166, 10.000798 
4.850493e+2, 1.6535512e+2, -1401751.1, -1493837.8, -86049.98, -0.064082, -0.34524664, -1350200.4, -30709.447, 0.0000000048834687, 10.000011, 9.998802 
4.850471e+2, 1.753557e+2, -1208793.0, -1347145.6, -28447.549, -0.019998671, -0.18960787, -1203172.1, 18321.252, 0.0, 10.000653, 9.998825 
4.850444e+2, 1.8535516e+2, -1116050.3, -1229253.6, 31027.97, -0.052545615, -0.13359788, -1108103.5, 15399.548, 0.0, 10.000513, 9.999027 
4.8504165e+2, 1.9535361e+2, -1141923.8, -1185406.3, 29269.207, -0.12557372, -0.21508156, -1127204.5, -101684.48, 0.0, 9.999636, 9.999081 
4.8503983e+2, 2.053534e+2, -964516.25, -884491.8, 17174.803, -0.10877712, -0.21890403, -880961.5, 46558.02, 0.0, 9.999475, 10.000555 
4.850388e+2, 2.1535413e+2, -810293.94, -765197.75, -29736.41, -0.015461247, -0.2203508, -750427.4, 79078.69, 0.0, 9.999885, 10.000504 
4.8503765e+2, 2.2535388e+2, -782216.5, -900596.7, -40068.16, 0.07592943, -0.20131715, -769929.9, -38423.133, 0.0, 10.000265, 9.998716 
4.850365e+2, 2.3535265e+2, -631647.75, -778173.94, -30837.02, 0.17243364, -0.21629576, -625422.44, 8098.567, 0.0, 10.000622, 9.998714 
4.8503336e+2, 2.4535157e+2, -572876.7, -669976.3, -11202.258, 0.058508996, -0.2062141, -571601.06, -36068.773, 0.0, 10.000229, 9.998971 
4.850285e+2, 2.5535053e+2, -630956.7, -647118.25, -24209.33, -0.23424444, -0.22997972, -613515.06, -175973.22, 0.0, 9.999158, 9.998969 
4.850266e+2, 2.6534963e+2, -507114.78, -538826.0, -12676.357, -0.25207385, -0.21340449, -502670.38, -163120.39, 0.0, 9.99935, 9.998946 
4.8502722e+2, 2.753486e+2, -216467.7, -350763.72, -32911.438, -0.031056324, -0.2309779, -208835.92, 32723.582, 0.0, 10.000678, 9.99893 
4.8502502e+2, 2.853475e+2, -51633.695, -264228.34, -111196.06, 0.016822662, -0.20788641, -4100.9653, 139468.89, 0.00000008825205, 10.001331, 9.998534 
4.8502064e+2, 2.9534662e+2, 50662.793, -156838.81, -130498.28, -0.050202057, -0.18022056, 113627.41, 159206.47, 0.0000056092463, 10.001323, 9.998603 
4.8501956e+2, 3.0534407e+2, 24824.336, -253080.78, 52391.848, -0.044172987, -0.24215758, 34373.36, 34373.36, 0.000035389916, 10.001284, 9.997627 
4.8502088e+2, 3.1534296e+2, 72097.164, -143981.47, -150198.58, -0.021394022, -0.13151166, 149077.05, 149077.05, 0.00010599746, 10.001202, 9.998412 
4.9505362e+2, 1.2535638e+2, -1990303.8, -1825866.9, -191513.05, 0.025424574, -0.3095085, -1699669.6, 11812.144, 0.00007902746, 9.997989, 10.000176 
4.9505624e+2, 1.3535737e+2, -1528263.0, -1598667.3, 206867.73, 0.069748454, -0.23081318, -1353623.6, 259852.36, 0.000026309019, 10.00065, 9.999824 
4.9505952e+2, 1.4535719e+2, -1372174.9, -1502415.3, -29362.84, 0.27323988, -0.20798287, -1365861.0, 149618.7, 0.0000047383246, 10.001211, 9.999507 
4.9505213e+2, 1.5535673e+2, -1423448.5, -1471388.5, -123851.93, -0.11332953, -0.23475507, -1321268.4, 96216.516, 0.0000002991547, 10.000169, 9.999555 
4.9504787e+2, 1.6535719e+2, -1297577.6, -1273734.6, -70726.21, -0.22963347, -0.17939807, -1213932.3, 105548.266, 0.0000000005507737, 9.99999, 10.000326 
4.950468e+2, 1.7535831e+2, -1106281.1, -1131614.4, 754.7938, -0.13576782, -0.12377895, -1106258.6, 115210.49, 0.0, 10.000641, 10.00031 
4.950455e+2, 1.8535824e+2, -1116160.4, -1217047.8, -10347.304, -0.014284731, -0.09811593, -1115110.0, 8360.159, 0.0, 10.00046, 9.999138 
4.9504414e+2, 1.9535701e+2, -1141867.8, -1177936.4, 2244.5596, 0.1369584, -0.15871017, -1141728.6, -116244.92, 0.0, 9.9995985, 9.999153 
4.9504146e+2, 2.0535584e+2, -1048176.2, -1043124.0, 23755.023, 0.09301855, -0.20710553, -1021761.1, -94267.484, 0.0, 9.999405, 9.999505 
4.950378e+2, 2.1535458e+2, -891832.5, -918860.25, -6224.0327, -0.12187261, -0.30116385, -890468.06, -60966.35, 0.0, 9.999806, 9.999494 
4.9503624e+2, 2.2535375e+2, -769202.75, -849385.2, -32327.107, -0.10790415, -0.31158736, -757793.0, -26285.467, 0.0, 10.000168, 9.999112 
4.950366e+2, 2.3535322e+2, -621539.94, -728815.56, -10926.558, 0.10141747, -0.2983042, -620438.3, 13073.8, 0.0, 10.000505, 9.999108 
4.950346e+2, 2.4535242e+2, -589938.6, -691514.7, -58404.73, 0.14139993, -0.2724707, -563328.1, -27808.125, 0.0, 10.000172, 9.998852 
4.9503055e+2, 2.5535125e+2, -649135.75, -670228.75, -53691.613, 0.03451165, -0.29423362, -604964.6, -167432.22, 0.0, 9.999094, 9.998842 
4.9502826e+2, 2.6535007e+2, -534049.3, -583386.1, 28518.094, -0.040127464, -0.2853099, -521010.78, -181466.78, 0.0, 9.999302, 9.998664 
4.9502736e+2, 2.7534863e+2, -250710.9, -399342.06, 25257.988, -0.103675224, -0.31794834, -246535.9, -4978.743, 0.0, 10.000585, 9.99864 
4.9502474e+2, 2.853473e+2, -82384.195, -312529.34, -116524.945, -0.1619296, -0.29100662, -33689.37, 109881.1, 0.00000018947561, 10.001267, 9.998233 
4.9502084e+2, 2.9534617e+2, 22198.559, -205101.84, -118884.65, -0.18463218, -0.24825205, 73016.98, 118599.83, 0.000005650319, 10.001279, 9.998291 
4.95021e+2, 3.0534446e+2, 30146.475, -244821.42, 43823.863, -0.05339247, -0.2186106, 36962.1, 36962.1, 0.00003451672, 10.001284, 9.997687 
4.9502185e+2, 3.1534263e+2, 45194.65, -185264.44, -113461.9, -0.09056784, -0.19698709, 91679.2, 91679.2, 0.00010174547, 10.001134, 9.998158 
5.05055e+2, 1.2535796e+2, -1523034.5, -1567803.0, -65764.07, 0.22238855, -0.29657692, -1475949.6, 235517.78, 0.00006639799, 10.001082, 10.000447 
5.0505507e+2, 1.3535827e+2, -1588792.0, -1589156.0, 221464.05, -0.06995133, -0.31805295, -1367509.9, 245953.69, 0.00001955312, 10.000072, 10.000173 
5.050596e+2, 1.4535826e+2, -1588652.4, -1637689.3, -5239.714, 0.23560625, -0.28032458, -1588098.8, -72631.984, 0.0000028130235, 9.999863, 9.999231 
5.050527e+2, 1.5535918e+2, -1367414.3, -1471249.0, -42688.133, -0.09350401, -0.14191857, -1352117.9, 65346.188, 0.00000011765629, 10.000677, 9.999309 
5.050484e+2, 1.6535975e+2, -1199628.3, -1191017.9, 13841.943, -0.2000422, -0.08096379, -1180827.0, 138632.08, 0.000000000026416515, 10.000504, 10.000647 
5.05047e+2, 1.7535982e+2, -1268666.5, -1178337.8, -21997.184, -0.11202781, -0.16008273, -1173265.8, 48188.844, 0.0, 9.999377, 10.000605 
5.050457e+2, 1.8535973e+2, -1262635.6, -1256659.5, -42591.004, 0.0189794, -0.16483033, -1216951.9, -93498.23, 0.0, 9.999329, 9.999411 
5.0504446e+2, 1.9535941e+2, -1035962.0, -1099470.1, -32143.09, 0.18432872, -0.15692964, -1022533.1, 2923.725, 0.0, 10.000222, 9.999387 
5.050421e+2, 2.0535812e+2, -926360.94, -1063936.1, 23173.559, 0.15929703, -0.19085994, -922562.44, 4906.4185, 0.0, 10.000588, 9.998785 
5.050388e+2, 2.1535586e+2, -857085.0, -978650.8, -1431.8523, -0.024395084, -0.31455892, -857068.1, -27578.541, 0.0, 10.000387, 9.9987955 
5.0503707e+2, 2.253547e+2, -722977.94, -815234.3, -4932.4907, -0.05341199, -0.3289727, -722714.94, 8784.541, 0.0, 10.000427, 9.999224 
5.050367e+2, 2.353544e+2, -593986.06, -702858.75, -20032.72, 0.057516765, -0.3018801, -590417.0, 43083.91, 0.0, 10.000641, 9.999219 
5.05035e+2, 2.4535367e+2, -510990.97, -671727.1, -88974.63, 0.13535438, -0.26922753, -471461.13, 64046.9, 0.0, 10.000795, 9.998686 
5.050322e+2, 2.5535235e+2, -383538.13, -560210.9, -99548.54, 0.19465478, -0.28849912, -338783.47, 98738.28, 0.0, 10.000997, 9.998683 
5.0503004e+2, 2.65351e+2, -249120.98, -453710.03, 51701.957, 0.11084324, -0.287806, -236797.61, 102737.39, 0.0, 10.001292, 9.998598 
5.050283e+2, 2.7534938e+2, -107324.13, -340213.0, 38949.156, -0.1114124, -0.33024228, -100982.805, 140566.92, 0.00000000061010413, 10.001612, 9.998552 
5.050254e+2, 2.8534785e+2, -79839.375, -321423.34, -112895.92, -0.2238554, -0.31430382, -35294.75, 108270.586, 0.00000027597625, 10.001328, 9.998143 
5.050215e+2, 2.9534653e+2, -97917.79, -275708.13, -115240.32, -0.20470394, -0.2819413, -41270.24, 4310.2437, 0.0000049916057, 10.00051, 9.998179 
5.0502247e+2, 3.0534562e+2, -13496.517, -228188.16, 118405.664, -0.0049176007, -0.18057506, 38979.523, 38979.523, 0.000030276777, 10.00084, 9.998016 
5.050234e+2, 3.153439e+2, 223960.86, -34915.38, -27488.531, -0.09120595, -0.18082194, 226847.52, 226847.52, 0.000090525835, 10.002083, 9.998749 
5.150574e+2, 1.2536025e+2, -1542786.9, -1621392.3, -84606.28, 0.29934862, -0.27214098, -1488800.1, 222644.47, 0.0000519356, 10.001135, 10.000051 
5.150514e+2, 1.3535966e+2, -1599896.6, -1624147.3, 192874.56, -0.4617427, -0.36228764, -1418766.6, 194681.66, 0.000013925394, 10.00012, 9.999908 
5.1505715e+2, 1.4535995e+2, -1532628.0, -1526655.4, 11903.606, -0.027946178, -0.31755903, -1517369.3, -1921.6094, 0.000001645238, 9.999881, 9.999988 
5.150539e+2, 1.5536262e+2, -1316386.5, -1367777.3, -4245.128, -0.056392584, -0.07919768, -1316038.1, 101389.2, 0.00000003629146, 10.000685, 10.000019 
5.150504e+2, 1.653627e+2, -1271439.4, -1326575.5, -34598.406, -0.067010686, -0.05551264, -1254768.9, 64658.99, 0.0, 10.000451, 9.999736 
5.150474e+2, 1.7536028e+2, -1331844.5, -1306998.5, -53063.793, -0.03641515, -0.29540986, -1264922.9, -43473.88, 0.0, 9.9993725, 9.999719 
5.150447e+2, 1.8535979e+2, -1234696.0, -1196134.9, -17950.53, -0.037315886, -0.31919113, -1189072.3, -65620.836, 0.0, 9.999314, 9.99983 
5.150424e+2, 1.953609e+2, -1010761.06, -1044648.3, 8657.009, -0.06561528, -0.21355012, -1008677.6, 16761.148, 0.0, 10.000203, 9.999774 
5.150414e+2, 2.0536019e+2, -975875.9, -1143728.0, 7609.0405, 0.015321434, -0.18144433, -975531.6, -48085.758, 0.0, 10.000492, 9.998282 
5.150416e+2, 2.153578e+2, -904392.75, -1055528.6, -1117.9896, 0.19545963, -0.27218923, -904384.5, -74913.12, 0.0, 10.000292, 9.998315 
5.150398e+2, 2.2535656e+2, -745101.56, -840253.06, -5952.35, 0.16540636, -0.2620459, -744730.7, -13246.502, 0.0, 10.000337, 9.999097 
5.1503646e+2, 2.353563e+2, -616368.2, -726833.94, -5473.184, -0.049788628, -0.22026181, -616097.7, 17389.143, 0.0, 10.000546, 9.999099 
5.150342e+2, 2.453554e+2, -530325.5, -700755.4, -89682.19, -0.04338178, -0.18855643, -491829.16, 43666.184, 0.0, 10.000746, 9.998512 
5.1503295e+2, 2.5535384e+2, -405480.2, -587819.2, -80893.77, 0.15247552, -0.21889445, -374765.8, 62744.105, 0.0, 10.0009165, 9.998532 
5.150316e+2, 2.653524e+2, -251627.39, -446277.25, 57044.598, 0.11679929, -0.22247744, -236141.73, 103381.3, 0.0, 10.001244, 9.998673 
5.150299e+2, 2.7535075e+2, -112597.47, -332901.06, 60606.75, -0.13479148, -0.26945633, -97024.98, 144512.67, 0.0000000018853024, 10.001536, 9.998641 
5.150266e+2, 2.8534913e+2, -77012.336, -306930.7, -151386.17, -0.2516042, -0.27389923, -1883.6779, 141670.84, 0.00000034894228, 10.001291, 9.99826 
5.1502204e+2, 2.953476e+2, -99526.336, -267472.5, -132504.02, -0.22671647, -0.27982643, -26627.525, 18944.758, 0.000004315403, 10.000458, 9.998259 
5.1502365e+2, 3.0534744e+2, 17713.547, -153361.78, 160780.4, 0.007636708, -0.13180612, 114294.06, 114294.06, 0.000026122347, 10.000811, 9.998545 
5.1502514e+2, 3.1534657e+2, 299240.38, 162420.69, 77141.37, -0.16175765, -0.09755108, 333935.8, 333935.8, 0.00008115159, 10.001929, 10.000173 
5.250591e+2, 1.2536317e+2, -1442576.5, -1631800.1, -36944.547, 0.31883734, -0.21282898, -1435619.3, 275799.16, 0.000041741634, 10.002061, 9.999536 
5.250512e+2, 1.3536228e+2, -1632479.4, -1679345.6, 128992.055, -0.49427226, -0.2935609, -1524809.3, 88616.13, 0.000010470756, 10.000062, 9.999555 
5.250574e+2, 1.4536226e+2, -1634421.6, -1531949.8, 32176.328, 0.05665737, -0.2852156, -1522684.1, -7257.749, 0.0000009776196, 9.998997, 10.000376 
5.250539e+2, 1.5536435e+2, -1509144.8, -1419223.0, -29907.223, -0.047782637, -0.14508402, -1410184.6, 7223.7637, 0.000000005050013, 9.999179, 10.000389 
5.2505046e+2, 1.6536433e+2, -1402817.8, -1429097.0, -54841.21, -0.061694752, -0.13266467, -1359564.0, -40154.813, 0.0, 9.999713, 9.999397 
5.250481e+2, 1.753622e+2, -1185474.9, -1274246.3, -48480.72, 0.047107853, -0.30637047, -1164130.4, 57298.543, 0.0, 10.000534, 9.999392 
5.2504534e+2, 1.8536149e+2, -1015036.94, -1110071.9, 17058.795, 0.027405357, -0.32518384, -1012067.7, 111366.32, 0.0, 10.000908, 9.999658 
5.2504236e+2, 1.9536193e+2, -936993.3, -1024335.7, -20451.035, -0.11318961, -0.26813713, -932441.94, 92985.72, 0.0, 10.000786, 9.999632 
5.250415e+2, 2.0536143e+2, -926762.8, -1106650.0, -16932.26, -0.035521924, -0.21524197, -925182.94, 2250.162, 0.0, 10.000767, 9.9984045 
5.2504253e+2, 2.1535999e+2, -819919.1, -1001255.94, 4864.3306, 0.2418741, -0.22095598, -819788.75, 9661.108, 0.0, 10.000814, 9.998431 
5.2504075e+2, 2.2535889e+2, -743895.25, -882767.2, 23247.844, 0.22116163, -0.18632725, -740106.8, -8643.991, 0.0, 10.000532, 9.998709 
5.250366e+2, 2.3535788e+2, -730299.8, -825610.94, -11523.578, -0.059836257, -0.1769863, -728926.4, -95451.95, 0.0, 9.999951, 9.998713 
5.2503437e+2, 2.4535665e+2, -562889.5, -694643.1, -42530.77, -0.07809746, -0.16946712, -550353.2, -14867.337, 0.0, 10.000427, 9.998707 
5.2503407e+2, 2.5535512e+2, -260918.36, -497944.8, -27393.88, 0.13142103, -0.21413194, -257793.56, 179704.34, 0.0, 10.001825, 9.998712 
5.2503276e+2, 2.6535383e+2, -230031.06, -442477.6, 75568.15, 0.11056636, -0.20809186, -205893.56, 133615.83, 0.0, 10.00142, 9.998613 
5.2503055e+2, 2.7535248e+2, -420358.28, -483370.38, 57039.44, -0.108773746, -0.22117524, -386702.0, -145179.55, 0.00000000009174081, 9.999443, 9.998608 
5.250278e+2, 2.853509e+2, -259104.78, -384339.1, -76103.62, -0.18883578, -0.22758575, -223169.06, -79630.13, 0.00000033351301, 9.999994, 9.998351 
5.2502453e+2, 2.9534903e+2, 233399.92, -104077.875, -85632.01, -0.13167144, -0.2735422, 253884.86, 299443.3, 0.0000041082662, 10.002721, 9.998297 
5.25026e+2, 3.053482e+2, 283080.84, -29370.186, 143207.5, 0.08024214, -0.19658771, 338786.47, 338786.47, 0.000024723933, 10.0026455, 9.998514 
5.2502555e+2, 3.1534746e+2, 41973.363, 82416.21, 11415.971, -0.2013461, -0.13900165, 85416.125, 85416.125, 0.000077842684, 9.999954, 10.00058 
5.350597e+2, 1.2536645e+2, -1465526.6, -1698123.8, -61136.434, 0.11399069, -0.14198363, -1450436.4, 260954.88, 0.000035627574, 10.002149, 9.999035 
5.350538e+2, 1.3536617e+2, -1663232.6, -1742437.4, 55349.31, -0.26046693, -0.113562055, -1634777.0, -21381.904, 0.000008273398, 10.000061, 9.999126 
5.350598e+2, 1.4536518e+2, -1633707.9, -1528253.8, 29263.225, 0.37679672, -0.18272601, -1520677.6, -5274.4224, 0.00000061502607, 9.998987, 10.0004015 
5.350523e+2, 1.5536442e+2, -1505732.4, -1417733.1, -12365.248, -0.14846171, -0.3329324, -1416028.6, 1377.9042, 0.00000000036285042, 9.9992, 10.000389 
5.350485e+2, 1.6536464e+2, -1389324.4, -1398459.4, -33308.645, -0.257384, -0.30625024, -1360271.5, -40868.69, 0.0, 9.9997015, 9.999615 
5.35049e+2, 1.7536554e+2, -1170753.9, -1248082.6, -9132.682, 0.06561178, -0.19490162, -1169689.9, 51704.586, 0.0, 10.000547, 9.99957 
5.350475e+2, 1.8536478e+2, -1074595.6, -1224884.6, 5878.2915, 0.12795867, -0.19034186, -1074366.1, 49035.81, 0.0, 10.000874, 9.998883 
5.35044e+2, 1.9536242e+2, -997230.5, -1141049.3, -14683.432, -0.046545465, -0.3342287, -995746.7, 29677.611, 0.0, 10.000745, 9.998854 
5.35042e+2, 2.053618e+2, -884506.1, -1000055.9, -22407.762, -0.077957794, -0.29395136, -880312.94, 47117.53, 0.0, 10.000688, 9.999171 
5.3504145e+2, 2.1536261e+2, -781552.44, -903583.0, 13160.51, 0.03432795, -0.15398033, -780149.25, 49274.285, 0.0, 10.000732, 9.999142 
5.350396e+2, 2.2536169e+2, -804562.94, -989713.3, -7617.939, 0.037753195, -0.09888275, -804250.06, -72815.09, 0.0, 10.000449, 9.998016 
5.350367e+2, 2.3535915e+2, -787848.75, -924757.1, -23649.652, -0.057720125, -0.17829947, -783878.6, -150414.95, 0.0, 9.999865, 9.998071 
5.3503525e+2, 2.4535736e+2, -536623.6, -626807.44, 4169.942, -0.046089113, -0.2200941, -536431.2, -951.0606, 0.0, 10.000374, 9.999199 
5.3503525e+2, 2.5535613e+2, -238551.69, -436183.1, 30675.746, 0.049325526, -0.28332916, -233899.78, 203587.19, 0.0, 10.00176, 9.999167 
5.350334e+2, 2.653553e+2, -244681.48, -464819.28, -6130.5156, 0.012371969, -0.2461772, -244510.89, 94983.64, 0.0, 10.001382, 9.998478 
5.3502995e+2, 2.7535456e+2, -436831.0, -505528.4, -135.17398, -0.13759865, -0.18802102, -436830.72, -195326.11, 0.0, 9.999386, 9.998486 
5.350287e+2, 2.8535306e+2, -261537.3, -384029.84, 20262.613, -0.12691996, -0.1793819, -258272.48, -114752.99, 0.00000019037492, 9.999973, 9.998363 
5.3502893e+2, 2.953508e+2, 220444.97, -111102.75, 22813.703, 0.010393851, -0.26621547, 222007.42, 267546.78, 0.0000040138116, 10.002637, 9.998288 
5.3502935e+2, 3.0534777e+2, 232307.17, -128046.59, 40887.566, 0.13541111, -0.36968914, 236888.25, 236888.25, 0.000024880646, 10.002607, 9.997855 
5.350239e+2, 3.1534645e+2, 435.6371, -3470.399, -27676.24, -0.4092135, -0.31651163, 26227.684, 26227.684, 0.000077454766, 9.999942, 9.999997 
5.450611e+2, 1.2536938e+2, -1509841.1, -1744557.4, 40371.355, 0.057812486, -0.17325059, -1503091.3, 208270.7, 0.000030309948, 10.001955, 9.998833 
5.450545e+2, 1.3536955e+2, -1537876.9, -1702543.5, 48281.895, -0.23114152, -0.07468738, -1524764.4, 88598.99, 0.000006366235, 10.001017, 9.998944 
5.450606e+2, 1.4536838e+2, -1456708.1, -1479881.9, 107078.08, 0.4895669, -0.13401067, -1360591.8, 154781.42, 0.00000037085837, 10.000358, 10.000078 
5.450532e+2, 1.5536667e+2, -1318206.8, -1359664.8, 21983.135, -0.049552508, -0.34978944, -1308720.6, 108664.02, 0.00000000007720086, 10.00063, 10.000096 
5.450491e+2, 1.6536658e+2, -1280555.4, -1370582.6, -8869.102, -0.20616017, -0.32961422, -1279690.0, 39694.008, 0.0, 10.000567, 9.99938 
5.450492e+2, 1.7536776e+2, -1256184.9, -1311866.6, -35588.43, 0.054730363, -0.16782336, -1238841.1, -17467.168, 0.0, 10.000077, 9.999349 
5.450478e+2, 1.8536682e+2, -1216842.8, -1327421.1, -2809.009, 0.119373664, -0.15275317, -1216771.4, -93387.96, 0.0, 10.000022, 9.998601 
5.4504496e+2, 1.95364e+2, -1069039.1, -1201744.3, -1101.537, -0.00083644595, -0.31837323, -1069030.0, -43619.266, 0.0, 10.000354, 9.998627 
5.450428e+2, 2.0536311e+2, -902257.9, -1002762.56, -2574.8865, -0.057232976, -0.29671362, -902192.0, 25227.053, 0.0, 10.000539, 9.999233 
5.450413e+2, 2.1536377e+2, -807232.06, -907248.5, -32404.445, -0.037152193, -0.17622575, -797651.1, 31761.494, 0.0, 10.000523, 9.999223 
5.4503953e+2, 2.2536302e+2, -734324.7, -935740.7, -29361.043, -0.032258645, -0.117643185, -730131.9, 1289.7749, 0.0, 10.000847, 9.998192 
5.4503745e+2, 2.3536089e+2, -541747.1, -790646.0, 1602.2308, -0.04302206, -0.16941877, -541736.8, 91709.05, 0.0, 10.001488, 9.998211 
5.4503644e+2, 2.453592e+2, -438952.75, -592124.1, 49431.402, -0.004900195, -0.20306702, -424385.66, 111076.51, 0.0, 10.00109, 9.999093 
5.450362e+2, 2.553578e+2, -530015.2, -586003.7, 13161.251, 0.070529, -0.2754714, -527075.7, -89603.15, 0.0, 9.999799, 9.999082 
5.4503435e+2, 2.6535702e+2, -417638.7, -514311.56, -18257.572, 0.03870261, -0.2409786, -414305.5, -74826.39, 0.0, 10.000054, 9.998776 
5.4503113e+2, 2.7535656e+2, -82123.42, -303351.1, 3450.6025, -0.07328625, -0.18499394, -82069.62, 159415.19, 0.0, 10.001682, 9.998773 
5.450301e+2, 2.8535533e+2, 20940.729, -256947.25, 87628.75, -0.07755264, -0.15916665, 46265.51, 189761.95, 0.00000011177434, 10.001965, 9.998275 
5.450307e+2, 2.9535335e+2, -3116.0088, -221221.55, 63266.09, 0.0070920927, -0.20620362, 13907.012, 59420.49, 0.0000045059896, 10.001136, 9.998245 
5.4503095e+2, 3.0534956e+2, -28706.254, -248975.02, 42932.95, 0.12855993, -0.38976893, -20633.951, -20633.951, 0.000026381855, 10.000797, 9.99789 
5.450252e+2, 3.1534815e+2, 72333.18, 2537.2258, 14637.127, -0.29805425, -0.34389305, 75278.484, 75278.484, 0.00007890932, 10.000576, 9.9997225 
5.5506265e+2, 1.2537226e+2, -1493107.6, -1710598.4, 67064.625, -0.02729408, -0.26333317, -1474090.6, 237237.44, 0.000026661139, 10.001973, 9.999048 
5.5505323e+2, 1.3537252e+2, -1537374.3, -1696189.9, 9170.659, -0.47926384, -0.16473098, -1536846.5, 76483.25, 0.0000052899522, 10.001008, 9.998987 
5.5505955e+2, 1.453719e+2, -1495710.1, -1569202.3, 100417.95, 0.32815513, -0.13751139, -1425526.1, 89810.67, 0.00000021782215, 10.000385, 9.999456 
5.550561e+2, 1.5537101e+2, -1356378.5, -1448640.4, 42386.207, 0.16183254, -0.20424563, -1339862.4, 77481.26, 0.00000000000011946363, 10.00066, 9.999479 
5.5505186e+2, 1.6537006e+2, -1329682.0, -1469186.1, -34667.47, -0.003125778, -0.20735519, -1321542.0, -2188.685, 0.0, 10.000558, 9.998703 
5.550483e+2, 1.7536874e+2, -1304179.0, -1409159.1, -44818.195, -0.06283477, -0.22803776, -1287648.3, -66280.375, 0.0, 10.000069, 9.998685 
5.5504614e+2, 1.8536766e+2, -1204330.0, -1290708.1, 2534.4011, -0.06458645, -0.2103246, -1204255.8, -80877.33, 0.0, 9.999976, 9.998876 
5.5504507e+2, 1.9536665e+2, -1058970.8, -1174170.5, 19347.549, -0.048697293, -0.21857016, -1055808.3, -30421.295, 0.0, 10.000318, 9.99884 
5.550435e+2, 2.0536527e+2, -951973.0, -1088771.1, -10013.148, -0.053571954, -0.22866693, -951243.94, -23844.34, 0.0, 10.000469, 9.9986725 
5.550418e+2, 2.1536338e+2, -858509.8, -992836.6, -22881.803, -0.058052495, -0.3029702, -854719.06, -25301.527, 0.0, 10.000428, 9.998682 
5.5504024e+2, 2.2536276e+2, -682967.5, -801560.3, -11275.616, -0.06670426, -0.2563153, -681904.94, 49518.85, 0.0, 10.000735, 9.999165 
5.5503863e+2, 2.3536313e+2, -494337.28, -664122.56, 33502.9, -0.08931404, -0.1571813, -487965.44, 145455.52, 0.0, 10.001369, 9.999135 
5.550375e+2, 2.4536224e+2, -499866.0, -702273.94, -4959.5835, -0.029435236, -0.11626305, -499744.53, 35686.695, 0.0, 10.001018, 9.998374 
5.5503654e+2, 2.5536013e+2, -587217.9, -687168.7, -22222.941, 0.10510344, -0.18611391, -582499.56, -145045.25, 0.0, 9.9997225, 9.9984255 
5.5503535e+2, 2.6535898e+2, -373487.38, -414392.66, 36526.473, 0.11604288, -0.19670618, -352077.22, -12613.428, 0.0, 10.000021, 9.999476 
5.550338e+2, 2.7535847e+2, -47886.074, -217095.72, 70931.69, 0.008339977, -0.21688975, -22085.824, 219377.83, 0.0, 10.001619, 9.999395 
5.550319e+2, 2.8535762e+2, 3987.1804, -287711.56, 48653.105, -0.11030029, -0.16554931, 11888.138, 155358.38, 0.00000024371042, 10.001941, 9.998078 
5.5502963e+2, 2.9535657e+2, -16962.967, -245712.61, 44795.684, -0.24138556, -0.10431915, -8503.538, 36979.21, 0.0000058589785, 10.001106, 9.998097 
5.550303e+2, 3.0535334e+2, 15653.009, -151797.16, 32502.768, -0.035922382, -0.25800008, 21740.617, 21740.617, 0.000029984647, 10.000778, 9.998563 
5.550289e+2, 3.153522e+2, 61138.926, -6871.657, 44223.47, -0.029044628, -0.25243458, 82919.61, 82919.61, 0.00008416486, 10.000506, 9.999695 
5.650641e+2, 1.2537386e+2, -1677598.9, -1770632.1, -18036.887, 0.0025508765, -0.26006028, -1674224.4, 37090.05, 0.000022362587, 10.000565, 9.999311 
5.650535e+2, 1.353739e+2, -1718032.0, -1761751.0, -193688.64, -0.4740672, -0.20858239, -1544973.3, 68344.484, 0.000004259607, 9.999655, 9.999187 
5.6505877e+2, 1.4537369e+2, -1652442.0, -1649360.3, 1251.4503, 0.26842767, -0.14846267, -1648916.1, -133594.27, 0.00000013010742, 9.999333, 9.9994135 
5.6505656e+2, 1.5537386e+2, -1449671.9, -1492795.9, -29742.176, 0.17693798, -0.10603572, -1434498.1, -17177.707, 0.0, 10.000028, 9.999478 
5.6505275e+2, 1.6537297e+2, -1351249.4, -1485129.9, -65240.453, 0.041605428, -0.09966854, -1324716.0, -5386.5547, 0.0, 10.000423, 9.998668 
5.6504893e+2, 1.7537083e+2, -1234357.8, -1377002.9, -44169.652, -0.017673261, -0.19895168, -1221788.3, -437.7422, 0.0, 10.000546, 9.998677 
5.650467e+2, 1.8536969e+2, -1103900.5, -1233651.1, 48645.47, -0.028196478, -0.19309029, -1087688.3, 35672.88, 0.0, 10.000635, 9.998944 
5.6504565e+2, 1.9536926e+2, -1006419.7, -1136339.0, 38523.242, -0.031246288, -0.15187903, -995855.8, 29507.94, 0.0, 10.000636, 9.998938 
5.6504416e+2, 2.0536768e+2, -949229.44, -1097976.9, 27571.834, -0.031881396, -0.18108717, -944283.2, -16905.836, 0.0, 10.000537, 9.998573 
5.650427e+2, 2.1536501e+2, -880307.94, -1008493.56, 33419.617, -0.002355459, -0.3276455, -872118.25, -42716.684, 0.0, 10.000314, 9.99862 
5.650411e+2, 2.2536412e+2, -764722.94, -830470.44, 58403.29, -0.012741478, -0.30970192, -730577.06, 832.343, 0.0, 10.000118, 9.999268 
5.650396e+2, 2.3536468e+2, -699676.8, -749275.9, 24401.27, -0.054798413, -0.20258625, -689685.0, -56280.72, 0.0, 9.999896, 9.999258 
5.6503814e+2, 2.4536413e+2, -597063.94, -744473.5, -10660.044, -0.024365192, -0.1337471, -596297.06, -60885.848, 0.0, 10.000357, 9.998389 
5.6503683e+2, 2.5536245e+2, -334013.38, -567693.4, 7665.452, 0.07524543, -0.16154857, -333762.2, 103668.586, 0.0, 10.001483, 9.998395 
5.6503624e+2, 2.65361e+2, -105084.57, -301500.8, 104972.805, 0.11620323, -0.18912888, -59542.473, 279900.03, 0.0, 10.00194, 9.999321 
5.6503636e+2, 2.7535972e+2, -26046.49, -216423.77, 58707.45, 0.10191498, -0.27448794, -9398.456, 232049.88, 0.0, 10.00183, 9.999284 
5.6503415e+2, 2.8535867e+2, -74542.94, -335558.03, -20935.947, -0.045376617, -0.23753855, -72874.336, 70582.97, 0.00000046127252, 10.00143, 9.998001 
5.650299e+2, 2.9535788e+2, -68655.63, -276979.4, -28393.406, -0.29835042, -0.14320882, -64855.1, -19386.264, 0.000007820285, 10.000768, 9.998051 
5.650304e+2, 3.0535543e+2, 65107.797, -54090.47, 14581.9795, -0.09779627, -0.24854489, 66865.74, 66865.74, 0.00003595913, 10.0008, 9.999226 
5.65031e+2, 3.1535473e+2, 188533.98, 92527.234, -181.67557, 0.101797394, -0.26832497, 188534.33, 188534.33, 0.000094486146, 10.001229, 10.000024 
5.750651e+2, 1.2537405e+2, -1646316.4, -1715888.8, -7017.6133, -0.0029797426, -0.18206441, -1645615.5, 65706.445, 0.000015098279, 10.000609, 9.99966 
5.7505494e+2, 1.3537368e+2, -1691531.6, -1708630.5, -229446.31, -0.31897873, -0.20871887, -1470475.5, 142851.81, 0.0000026568694, 9.999661, 9.999545 
5.7505786e+2, 1.453738e+2, -1616320.5, -1571861.1, 11300.406, 0.22122553, -0.16005069, -1569153.8, -53826.332, 0.000000050157187, 9.999327, 9.999948 
5.750542e+2, 1.5537517e+2, -1414923.9, -1417935.5, 4474.5, -0.078647375, -0.051915318, -1411708.6, 5606.38, 0.0, 10.000021, 9.999997 
5.750515e+2, 1.6537523e+2, -1304695.6, -1388040.4, -71258.78, -0.1412823, -0.008367815, -1263818.6, 55494.47, 0.0, 10.000414, 9.99934 
5.7505095e+2, 1.7537397e+2, -1191290.9, -1288326.4, -32100.584, 0.10663743, -0.086994305, -1181632.9, 39689.574, 0.0, 10.000544, 9.99929 
5.7504934e+2, 1.8537292e+2, -1112237.3, -1242161.5, 42291.727, 0.14397006, -0.098613575, -1099683.8, 23647.443, 0.0, 10.000603, 9.998899 
5.750464e+2, 1.953718e+2, -1017451.44, -1145959.1, 47081.805, -0.03372556, -0.11702621, -1002048.2, 23293.09, 0.0, 10.000582, 9.9988985 
5.7504463e+2, 2.0537038e+2, -936679.75, -1051385.8, 10206.584, -0.062625356, -0.14937875, -935778.6, -8426.363, 0.0, 10.000447, 9.998936 
5.750437e+2, 2.1536854e+2, -872860.6, -970172.06, 32249.729, 0.04738715, -0.24816006, -863143.2, -33778.016, 0.0, 10.000213, 9.998933 
5.7504207e+2, 2.2536701e+2, -822717.1, -929870.94, 42300.574, 0.05278761, -0.27716032, -808031.1, -76652.13, 0.0, 10.000028, 9.998628 
5.7503986e+2, 2.3536558e+2, -756540.7, -845765.7, 27379.662, -0.030910876, -0.30172783, -748808.94, -115413.67, 0.0, 9.999803, 9.998641 
5.7503814e+2, 2.4536486e+2, -554268.9, -652413.7, 23543.338, -0.07691217, -0.25678226, -548913.44, -13510.969, 0.0, 10.00033, 9.999041 
5.7503676e+2, 2.553646e+2, -301189.5, -485082.7, 57406.617, -0.09578673, -0.2052016, -284740.1, 152663.13, 0.0, 10.001414, 9.998998 
5.75037e+2, 2.6536307e+2, -175100.02, -443143.5, 93650.43, -0.026400473, -0.22202978, -145621.81, 193793.8, 0.0, 10.001914, 9.998366 
5.7503855e+2, 2.753603e+2, -95831.984, -354117.16, 60292.92, 0.11423985, -0.3607107, -82450.734, 158989.1, 0.0, 10.001782, 9.998368 
5.750365e+2, 2.853584e+2, -74735.5, -320524.25, -55252.816, 0.026918372, -0.3715087, -62886.043, 80572.14, 0.0000006054728, 10.0013685, 9.998134 
5.750312e+2, 2.9535726e+2, -69972.484, -263131.44, -40444.926, -0.25926083, -0.32146773, -61845.766, -16373.913, 0.000009307056, 10.000703, 9.998176 
5.7503104e+2, 3.0535585e+2, 111052.83, 39344.754, 28371.912, -0.12941258, -0.36364174, 120920.53, 120920.53, 0.000040671366, 10.000797, 9.999879 
5.7503104e+2, 3.1535545e+2, 231325.92, 187194.33, 36674.38, -0.06210062, -0.4185575, 252060.94, 252060.94, 0.000103750725, 10.001189, 10.000705 
5.850655e+2, 1.2537614e+2, -1713975.1, -1740634.0, 164184.7, 0.015779877, -0.07321719, -1562579.6, 148728.72, 0.000008007214, 10.000081, 9.999756 
5.850564e+2, 1.3537589e+2, -1609467.0, -1653309.3, -161832.64, -0.15768531, -0.09992851, -1468077.5, 145233.25, 0.0000012151539, 10.000154, 9.999691 
5.850576e+2, 1.4537567e+2, -1545901.8, -1541538.5, 99024.45, 0.24482404, -0.08933641, -1444671.6, 70641.62, 0.000000012980553, 9.999834, 9.999902 
5.8505404e+2, 1.5537643e+2, -1474404.9, -1450892.0, 33218.492, -0.07813517, -0.038999457, -1427410.9, -10104.08, 0.0, 9.999627, 9.999952 
5.850517e+2, 1.6537638e+2, -1355458.6, -1379203.9, -50709.5, -0.13476883, -0.021521898, -1315250.4, 4054.4666, 0.0, 9.999923, 9.999634 
5.8505183e+2, 1.7537546e+2, -1150583.0, -1233489.0, -55635.445, 0.13616279, -0.09726492, -1122655.5, 98652.82, 0.0, 10.000673, 9.9995985 
5.8505034e+2, 1.8537463e+2, -1097273.0, -1256296.3, -7345.082, 0.18378752, -0.09210299, -1096934.5, 26380.516, 0.0, 10.000797, 9.998712 
5.8504736e+2, 1.9537368e+2, -1065304.9, -1188247.6, -29187.0, 0.013959375, -0.07579771, -1058727.6, -33401.617, 0.0, 10.000334, 9.998731 
5.850453e+2, 2.0537244e+2, -953256.06, -1030669.94, -48960.48, -0.020421227, -0.0955163, -929550.2, -2214.476, 0.0, 10.000203, 9.999198 
5.850442e+2, 2.153708e+2, -831616.7, -922871.44, -46901.9, 0.07560197, -0.20123303, -811809.8, 17535.738, 0.0, 10.00037, 9.999186 
5.8504254e+2, 2.2536922e+2, -732809.7, -898174.44, 2377.608, 0.06735314, -0.2408182, -732775.5, -1416.4857, 0.0, 10.000709, 9.998518 
5.8504033e+2, 2.3536749e+2, -562331.9, -765930.1, 9297.482, -0.030815821, -0.28346166, -561908.2, 71469.555, 0.0, 10.001195, 9.998525 
5.850389e+2, 2.4536648e+2, -395356.84, -550940.94, 37297.43, -0.08174438, -0.27168307, -386877.8, 148508.16, 0.0, 10.0013075, 9.999268 
5.85038e+2, 2.5536603e+2, -314771.34, -466066.44, 23961.727, -0.09249799, -0.26512945, -311067.03, 126318.88, 0.0, 10.001207, 9.999225 
5.850382e+2, 2.6536453e+2, -343290.4, -549188.8, 61943.242, -0.043075483, -0.27823573, -326091.75, 13306.234, 0.0, 10.000875, 9.998136 
5.850391e+2, 2.7536196e+2, -312009.16, -484077.88, 67876.7, 0.061210252, -0.36892185, -288457.22, -47034.887, 0.0, 10.000414, 9.998136 
5.850374e+2, 2.8536e+2, -151388.72, -337204.88, 12852.247, 0.0132265445, -0.3837635, -150503.98, -7063.1216, 0.00000055145284, 10.000758, 9.998308 
5.850335e+2, 2.9535857e+2, 87325.14, -173533.0, 12999.299, -0.15711994, -0.37934586, 87971.336, 133425.83, 0.000008783807, 10.001729, 9.998293 
5.850331e+2, 3.0535686e+2, 193908.19, 6412.0625, 32519.555, -0.041111708, -0.42400828, 199388.25, 199388.25, 0.000039667964, 10.001682, 9.999215 
5.850315e+2, 3.1535572e+2, 123627.18, 78617.83, -84913.47, -0.10934881, -0.49316353, 188967.58, 188967.58, 0.00010388018, 10.000695, 10.000183 
5.9506524e+2, 1.2537995e+2, -1705952.1, -1727502.8, 173513.27, -0.07202574, 0.064203456, -1542879.9, 168395.6, 0.0000033726953, 10.000114, 9.999823 
5.9505767e+2, 1.3538046e+2, -1613009.1, -1659167.5, -162163.83, -0.0665743, 0.1163309, -1472290.4, 140977.78, 0.00000044999516, 10.000158, 9.999645 
5.950577e+2, 1.4537926e+2, -1585621.8, -1624448.0, 76672.48, 0.24510793, 0.056459133, -1525942.9, -10663.419, 0.000000014541682, 9.999836, 9.99933 
5.9505546e+2, 1.5537769e+2, -1516768.5, -1538749.6, 33551.93, 0.08416884, -0.0651135, -1492452.9, -75157.18, 0.0, 9.999626, 9.999351 
5.9505296e+2, 1.6537653e+2, -1362646.8, -1386382.3, -31876.932, -0.020515539, -0.12533657, -1340500.0, -21196.531, 0.0, 9.999894, 9.999598 
5.950513e+2, 1.753754e+2, -1153590.0, -1236780.9, -20485.55, -0.005599322, -0.21929766, -1148819.1, 72488.23, 0.0, 10.000665, 9.999579 
5.950497e+2, 1.8537486e+2, -1123317.0, -1305075.3, -33511.773, 0.012655973, -0.16614361, -1117335.1, 5977.0776, 0.0, 10.000773, 9.998389 
5.9504795e+2, 1.9537477e+2, -1095132.8, -1237612.6, -37756.547, 0.020902691, -0.033046402, -1085745.9, -60427.047, 0.0, 10.000279, 9.998419 
5.9504604e+2, 2.0537381e+2, -947075.6, -1000523.56, -49728.29, 0.013859652, -0.022740964, -917345.44, 9982.715, 0.0, 10.000128, 9.999442 
5.950441e+2, 2.1537186e+2, -826899.9, -894464.0, -30856.135, 0.0052890736, -0.18106526, -814929.0, 14412.806, 0.0, 10.00029, 9.999422 
5.950423e+2, 2.2537082e+2, -717275.9, -849681.06, 12752.506, -0.045627024, -0.19750465, -716058.8, 15289.998, 0.0, 10.000634, 9.998888 
5.950407e+2, 2.3537037e+2, -553457.1, -724493.7, 35139.445, -0.13752371, -0.14938863, -546519.1, 86832.78, 0.0, 10.001091, 9.998862 
5.9504e+2, 2.4536897e+2, -413529.63, -579484.7, 25850.242, -0.121133305, -0.18377621, -409596.25, 125765.9, 0.0, 10.00126, 9.999098 
5.9504026e+2, 2.553667e+2, -334702.44, -490492.7, 26064.234, -0.008223656, -0.3415009, -330457.47, 106921.62, 0.0, 10.00113, 9.999097 
5.950395e+2, 2.6536542e+2, -316656.25, -482950.97, 36381.43, -0.015555235, -0.3541938, -309045.2, 30344.258, 0.0, 10.000832, 9.998611 
5.9503764e+2, 2.7536473e+2, -289493.34, -423028.6, 62516.973, -0.14279033, -0.30533144, -264793.53, -23397.21, 0.0, 10.000353, 9.998585 
5.950366e+2, 2.8536347e+2, -143623.11, -311559.0, 40696.23, -0.16348588, -0.28084692, -134280.83, 9125.009, 0.0000003359344, 10.00072, 9.9985 
5.9503615e+2, 2.9536176e+2, 83934.625, -160241.38, 53924.81, -0.084143765, -0.32831487, 95313.34, 140731.03, 0.000006914508, 10.001647, 9.998419 
5.950363e+2, 3.0535838e+2, 45943.11, -292644.63, -10980.428, 0.08996091, -0.44012055, 46298.832, 46298.832, 0.000035638073, 10.001644, 9.997183 
5.950316e+2, 3.1535563e+2, -11203.7705, -177321.1, -91456.79, -0.21178694, -0.46607485, 29281.43, 29281.43, 0.00009897654, 10.000596, 9.99847 
6.050647e+2, 1.2538125e+2, -1875885.4, -1769491.4, 121077.99, -0.06044995, 0.08813585, -1690439.4, 20824.152, 0.0000011578151, 9.99876, 10.000204 
6.050587e+2, 1.3538152e+2, -1646135.4, -1620169.9, -223734.69, 0.05170662, 0.07009597, -1409041.6, 204213.95, 0.00000014603442, 9.99971, 10.000122 
6.0505724e+2, 1.4538038e+2, -1577914.4, -1656741.1, 45327.47, 0.20981465, 0.011314698, -1557261.3, -41994.992, 0.0000000031309833, 10.000037, 9.999022 
6.050558e+2, 1.5537918e+2, -1461772.8, -1544075.3, 2225.0903, 0.1292782, -0.0380048, -1461712.6, -44431.08, 0.0, 10.00014, 9.999073 
6.050535e+2, 1.6537815e+2, -1303508.4, -1333338.8, -7585.485, 0.028182276, -0.08566595, -1301690.3, 17598.59, 0.0, 10.000181, 9.999828 
6.050513e+2, 1.7537695e+2, -1216435.5, -1243809.0, 6008.3955, -0.042960472, -0.20954093, -1215174.8, 6117.3696, 0.0, 10.000123, 9.9998 
6.050499e+2, 1.8537627e+2, -1197697.1, -1309986.3, 20099.922, -0.00087902584, -0.19733539, -1194207.6, -70910.48, 0.0, 10.0001335, 9.998662 
6.050492e+2, 1.9537592e+2, -1087535.6, -1204476.4, 45310.49, 0.12812233, -0.119030885, -1072034.3, -46729.625, 0.0, 10.000205, 9.998679 
6.050474e+2, 2.0537518e+2, -905121.7, -1023757.3, 68061.58, 0.119273454, -0.076548755, -874156.7, 53156.254, 0.0, 10.000605, 9.999058 
6.0504466e+2, 2.1537393e+2, -717040.44, -882023.5, 23561.926, 0.000438883, -0.12584472, -713741.44, 115582.71, 0.0, 10.001216, 9.999063 
6.0504293e+2, 2.2537301e+2, -645871.25, -787789.25, 35121.813, -0.056733496, -0.124624744, -637655.0, 93675.46, 0.0, 10.001004, 9.999134 
6.050419e+2, 2.3537225e+2, -679868.94, -754109.2, 34378.363, -0.059145812, -0.13627951, -666394.8, -33060.52, 0.0, 10.000099, 9.999128 
6.050416e+2, 2.4537069e+2, -615191.06, -710718.6, 50510.67, -0.02222394, -0.18230692, -593437.1, -58091.164, 0.0, 10.000049, 9.998772 
6.050418e+2, 2.5536835e+2, -408787.2, -561490.9, 21049.44, 0.0546758, -0.31273553, -405938.75, 31427.014, 0.0, 10.000787, 9.998772 
6.0504085e+2, 2.6536703e+2, -259477.83, -448047.63, 4386.0503, 0.02110431, -0.3140518, -259375.88, 80001.0, 0.0, 10.001177, 9.9986925 
6.0503876e+2, 2.7536646e+2, -153335.31, -350728.66, -14148.3545, -0.10823093, -0.2598984, -152326.38, 89055.77, 0.0, 10.001242, 9.998662 
6.05038e+2, 2.8536516e+2, -49495.895, -283960.38, -13593.528, -0.12662354, -0.23554201, -48710.418, 94681.13, 0.00000016006682, 10.001435, 9.998349 
6.0503834e+2, 2.9536328e+2, 93181.02, -173646.73, -45508.336, -0.029216122, -0.2856927, 100729.09, 146133.56, 0.0000052467194, 10.001773, 9.998272 
6.050388e+2, 3.0535927e+2, 91535.266, -317135.53, -73686.28, 0.15745868, -0.42942372, 104415.484, 104415.484, 0.000031333126, 10.002168, 9.996765 
6.0503376e+2, 3.1535622e+2, 225963.92, -135930.39, -58892.668, -0.1463158, -0.43376985, 235306.61, 235306.61, 0.000092264556, 10.002538, 9.997836 
6.150635e+2, 1.2538022e+2, -1812136.9, -1641316.1, 111016.484, -0.101720564, 0.011930304, -1586656.6, 124614.2, 0.00000031033701, 9.998791, 10.001059 
6.1505926e+2, 1.353792e+2, -1582699.9, -1486798.0, -185582.38, 0.11333821, -0.2280961, -1343071.9, 270199.72, 0.000000018009526, 9.999715, 10.001029 
6.15056e+2, 1.4537911e+2, -1579380.9, -1668515.9, 31872.963, 0.053937837, -0.22074538, -1569156.6, -53883.547, 0.0, 10.000063, 9.998931 
6.1505455e+2, 1.5538089e+2, -1459346.1, -1551646.4, 13221.048, -0.02510865, 0.033711806, -1457489.6, -40224.863, 0.0, 10.000177, 9.999009 
6.150529e+2, 1.653812e+2, -1271841.5, -1258096.0, -18640.139, -0.07429717, 0.09552092, -1245102.0, 74159.34, 0.0, 10.00015, 10.000359 
6.1505157e+2, 1.7538002e+2, -1180700.1, -1170707.3, 12493.045, -0.045744613, -0.07561791, -1162248.5, 59015.56, 0.0, 10.000124, 10.000303 
6.150509e+2, 1.8537873e+2, -1145558.3, -1186777.3, 14956.688, 0.06721604, -0.19346178, -1140703.0, -17432.053, 0.0, 10.000072, 9.999534 
6.1505085e+2, 1.9537716e+2, -1040118.9, -1095584.9, 57717.586, 0.25428763, -0.32338485, -1003817.2, 21465.598, 0.0, 10.000158, 9.999452 
6.1504906e+2, 2.0537671e+2, -985488.4, -1171784.9, 83075.03, 0.21206044, -0.23983474, -953824.5, -26535.375, 0.0, 10.000526, 9.9980755 
6.150459e+2, 2.1537705e+2, -799535.75, -1029551.6, 51798.26, -0.018590314, -0.032701146, -788409.25, 40883.027, 0.0, 10.001113, 9.9981 
6.1504424e+2, 2.2537585e+2, -648561.44, -771999.1, -5084.591, -0.039288882, -0.020943781, -648352.4, 82951.51, 0.0, 10.00091, 9.999289 
6.15044e+2, 2.3537318e+2, -684043.25, -741475.06, 11407.491, 0.12101226, -0.23569825, -681860.44, -48536.336, 0.0, 10.000007, 9.99926 
6.150434e+2, 2.453716e+2, -660407.8, -794146.06, 69182.05, 0.13312304, -0.26430625, -631060.3, -95722.7, 0.0, 10.0, 9.998221 
6.1504245e+2, 2.553708e+2, -457576.13, -648912.4, 54259.676, 0.014207244, -0.18929568, -443260.16, -5913.0933, 0.0, 10.000723, 9.998203 
6.150419e+2, 2.6536936e+2, -287118.94, -494607.97, -444.08875, -0.003949306, -0.16140337, -287117.97, 52242.785, 0.0, 10.001132, 9.998394 
6.150419e+2, 2.753672e+2, -188221.48, -400733.7, -718.0826, 0.06337051, -0.23660356, -188219.05, 53160.688, 0.0, 10.00115, 9.998359 
6.150412e+2, 2.8536516e+2, -91135.61, -360688.38, -9471.711, 0.031597827, -0.2441162, -90803.2, 52594.02, 0.00000012615395, 10.00139, 9.997843 
6.150397e+2, 2.953633e+2, 51306.95, -238426.52, -24384.785, -0.08895784, -0.24605754, 53344.906, 98758.05, 0.000004351736, 10.001681, 9.997867 
6.150405e+2, 3.0535978e+2, 163554.31, -161285.45, -64955.543, 0.08157041, -0.38143355, 176061.38, 176061.38, 0.000027327982, 10.002136, 9.997859 
6.150372e+2, 3.1535766e+2, 240900.52, -79820.36, -4037.5125, -0.09428493, -0.39326477, 240951.33, 240951.33, 0.00008383067, 10.002437, 9.998272 
6.250632e+2, 1.2537941e+2, -1734197.4, -1600523.1, 121081.445, -0.028814362, -0.054961015, -1529056.5, 182220.77, 0.000000031381585, 9.999298, 10.001106 
6.2505955e+2, 1.3537905e+2, -1602756.0, -1480811.1, -233271.27, 0.19165671, -0.2388043, -1300675.5, 312598.53, 0.000000000001578113, 9.999492, 10.001192 
6.25055e+2, 1.4537951e+2, -1639239.6, -1614380.6, -8749.668, -0.008727743, -0.22169441, -1611609.8, -96340.54, 0.0, 9.999301, 9.999666 
6.2505454e+2, 1.5538163e+2, -1566205.8, -1519828.8, 18960.418, 0.01626779, -0.007202186, -1513063.9, -95809.625, 0.0, 9.99911, 9.999726 
6.250534e+2, 1.6538237e+2, -1399667.0, -1321637.8, 20090.285, 0.014268044, 0.062171843, -1316768.9, 2477.964, 0.0, 9.999282, 10.00034 
6.250521e+2, 1.7538172e+2, -1255699.6, -1199355.5, -9917.15, 0.031128492, -0.058267143, -1197661.0, 23586.707, 0.0, 9.9996, 10.000348 
6.2505144e+2, 1.853807e+2, -1135826.0, -1144839.1, -25057.643, 0.1240043, -0.16799432, -1114872.9, 8378.541, 0.0, 9.999958, 9.9998865 
6.2505126e+2, 1.9537915e+2, -996223.1, -1033293.8, -33819.344, 0.27586263, -0.33219948, -976192.9, 49066.84, 0.0, 10.000276, 9.999824 
6.2504965e+2, 2.0537844e+2, -1004416.0, -1186419.8, 31792.371, 0.22639051, -0.28930432, -999022.3, -71755.28, 0.0, 10.000419, 9.998029 
6.2504697e+2, 2.1537824e+2, -907093.2, -1082359.6, 55339.96, 0.017951975, -0.13320841, -891082.4, -61806.656, 0.0, 10.000388, 9.998083 
6.250455e+2, 2.2537711e+2, -722405.25, -850234.0, 6003.573, 0.012193907, -0.095119245, -722123.9, 9164.56, 0.0, 10.0005865, 9.998905 
6.250451e+2, 2.35375e+2, -570472.3, -730660.7, -32316.451, 0.18562159, -0.21548119, -564198.5, 69108.125, 0.0, 10.000971, 9.998873 
6.250442e+2, 2.4537352e+2, -518147.84, -740459.2, 59243.047, 0.17175952, -0.20923318, -503345.9, 31974.87, 0.0, 10.001021, 9.998109 
6.25043e+2, 2.5537246e+2, -450259.5, -656311.56, 62028.37, -0.002434263, -0.14768362, -433027.97, 4304.6587, 0.0, 10.0008135, 9.998113 
6.2504286e+2, 2.6537073e+2, -340912.53, -548772.4, 34678.1, -0.009611518, -0.13041897, -335279.7, 4069.2163, 0.0, 10.000883, 9.998139 
6.250437e+2, 2.7536818e+2, -205444.72, -437375.0, 18954.84, 0.12853232, -0.2185501, -203905.81, 37465.63, 0.0, 10.001152, 9.998104 
6.250434e+2, 2.8536594e+2, -111936.03, -408638.25, 42657.832, 0.11750654, -0.22005096, -105924.77, 37468.38, 0.000000116905284, 10.001414, 9.997505 
6.2504214e+2, 2.953639e+2, 32684.273, -287226.78, 19439.066, -0.01347878, -0.2017132, 33861.14, 79275.484, 0.000004287332, 10.001709, 9.997531 
6.2504286e+2, 3.0536148e+2, 179279.95, -62404.465, -15864.73, 0.13005988, -0.2513117, 180316.9, 180316.9, 0.000025852014, 10.0018635, 9.998659 
6.250398e+2, 3.1536028e+2, 182347.94, -58003.293, 7940.0845, -0.03891818, -0.2548921, 182609.95, 182609.95, 0.00007867894, 10.001816, 9.998713 
6.350633e+2, 1.2537865e+2, -1773043.6, -1695760.9, 42069.777, 0.0031584713, -0.123468824, -1677279.4, 34005.21, 0.0000000061075784, 9.999365, 10.00042 
6.350593e+2, 1.3538097e+2, -1643355.9, -1567842.6, -226449.34, 0.20062895, 0.029071255, -1376023.9, 237239.94, 0.0, 9.9995, 10.000594 
6.3505393e+2, 1.4538164e+2, -1528590.9, -1379041.5, -26859.912, -0.067141734, 0.009793394, -1374363.6, 140891.13, 0.0, 9.999281, 10.001289 
6.3505554e+2, 1.5538146e+2, -1454652.0, -1299466.4, 25285.75, 0.17544588, -0.16519225, -1295450.4, 121799.984, 0.0, 9.999149, 10.001225 
6.350549e+2, 1.6538161e+2, -1439425.6, -1400139.8, 22154.11, 0.20872958, -0.19710489, -1390174.5, -70928.15, 0.0, 9.999267, 9.999807 
6.3505274e+2, 1.7538193e+2, -1290023.1, -1277366.9, 9758.062, 0.106751606, -0.16480558, -1272064.6, -50820.74, 0.0, 9.999619, 9.99981 
6.350512e+2, 1.8538205e+2, -1147909.8, -1161607.5, -20658.828, 0.08362838, -0.12949757, -1132994.1, -9754.286, 0.0, 9.9999275, 9.999783 
6.350501e+2, 1.9538179e+2, -1008233.1, -1049048.6, -15208.192, 0.11423938, -0.15492085, -1003189.6, 22046.635, 0.0, 10.000233, 9.999738 
6.3504887e+2, 2.0538029e+2, -954452.2, -1058651.4, 21141.545, 0.092427865, -0.23465586, -950326.06, -23078.15, 0.0, 10.000318, 9.998953 
6.350476e+2, 2.1537754e+2, -863040.6, -963840.5, 63344.04, 0.027787121, -0.4263149, -832492.3, -3218.0938, 0.0, 10.000273, 9.998952 
6.350463e+2, 2.2537678e+2, -801345.0, -992136.4, 12686.252, 0.019148137, -0.3449405, -800505.1, -69220.55, 0.0, 10.000489, 9.99798 
6.3504493e+2, 2.3537755e+2, -646157.2, -865511.56, -9191.965, 0.053899363, -0.08568596, -645772.7, -12489.635, 0.0, 10.000871, 9.997998 
6.3504386e+2, 2.453764e+2, -505512.03, -698125.56, 44590.023, 0.01745909, -0.023212243, -495690.28, 39605.36, 0.0, 10.000956, 9.99843 
6.350432e+2, 2.5537336e+2, -441144.75, -619500.3, 62587.598, -0.07730371, -0.18711747, -421373.53, 15948.472, 0.0, 10.000734, 9.9984045 
6.350433e+2, 2.653712e+2, -367585.75, -587000.25, 35730.953, -0.070082635, -0.21463475, -361913.72, -22572.527, 0.0, 10.000816, 9.997905 
6.3504386e+2, 2.7536955e+2, -238771.3, -479514.38, 37985.0, 0.010672015, -0.19481143, -232920.16, 8436.55, 0.0, 10.001043, 9.997865 
6.3504446e+2, 2.8536746e+2, -127820.695, -432428.22, 42465.824, 0.058820482, -0.16068819, -122011.266, 21368.266, 0.0000001448745, 10.001374, 9.997364 
6.350452e+2, 2.9536507e+2, 6387.167, -316671.44, 40738.938, 0.09143453, -0.15983959, 11445.309, 56853.426, 0.000005079309, 10.001616, 9.997369 
6.350456e+2, 3.053645e+2, 206294.38, -10817.2295, -21651.293, 0.19844861, -0.030473927, 208432.47, 208432.47, 0.000027855136, 10.001864, 9.99902 
6.350408e+2, 3.1536406e+2, 182455.45, -28685.256, 53942.58, -0.16677168, -0.0044023036, 195438.47, 195438.47, 0.00008145653, 10.001686, 9.99898 
6.4506197e+2, 1.2537995e+2, -2144467.5, -1881076.5, 145015.48, 0.070955575, -0.12943017, -1816881.1, -105611.04, 0.0000000021671396, 9.996842, 10.000368 
6.4505863e+2, 1.3538258e+2, -1735177.1, -1612819.0, -44250.12, 0.22504383, 0.05955059, -1598493.4, 14754.728, 0.0, 9.998897, 10.00056 
6.4505273e+2, 1.4538336e+2, -1483892.3, -1349705.9, 86139.83, -0.120845996, 0.049412265, -1307613.1, 207624.81, 0.0, 9.999554, 10.001364 
6.450552e+2, 1.5538257e+2, -1475271.0, -1299430.5, 5723.9927, 0.23871769, -0.1955915, -1299244.4, 117993.51, 0.0, 9.998967, 10.001314 
6.450551e+2, 1.6538239e+2, -1470844.4, -1447586.3, 14296.305, 0.3177245, -0.24936979, -1440786.5, -121549.38, 0.0, 9.999187, 9.999523 
6.450534e+2, 1.7538266e+2, -1236372.3, -1280838.4, 6362.672, 0.19177778, -0.1936443, -1235479.8, -14243.046, 0.0, 10.000115, 9.999547 
6.4505154e+2, 1.8538283e+2, -1104848.1, -1160619.9, -27579.268, 0.10611276, -0.13114248, -1093513.6, 29719.668, 0.0, 10.000308, 9.999605 
6.4504945e+2, 1.9538268e+2, -1081594.8, -1100036.8, -43700.57, 0.051413856, -0.12783034, -1046152.94, -20923.459, 0.0, 9.999808, 9.999587 
6.4504844e+2, 2.0538123e+2, -1005833.1, -1057953.1, -8483.49, 0.04720374, -0.20970424, -1004487.0, -77247.06, 0.0, 9.999851, 9.999182 
6.450485e+2, 2.1537843e+2, -848232.75, -937714.6, -37217.426, 0.094080076, -0.42731902, -834776.7, -5512.0674, 0.0, 10.000284, 9.999127 
6.4504755e+2, 2.2537753e+2, -785628.9, -1007185.2, -61207.723, 0.08919738, -0.35803038, -769844.06, -38568.227, 0.0, 10.000689, 9.997785 
6.450457e+2, 2.3537809e+2, -629036.6, -876881.56, -49674.47, 0.040477313, -0.10348229, -619451.3, 13825.805, 0.0, 10.001071, 9.997822 
6.450448e+2, 2.453767e+2, -464119.03, -699717.0, 12285.37, -0.0007878873, -0.041566074, -463480.13, 71811.64, 0.0, 10.001338, 9.998238 
6.450448e+2, 2.5537357e+2, -342093.88, -590472.0, -20693.078, -0.027372833, -0.19963227, -340381.7, 96937.49, 0.0, 10.001501, 9.998235 
6.450448e+2, 2.6537126e+2, -300359.0, -561881.7, -41377.324, -0.021061879, -0.22800894, -293968.56, 45370.992, 0.0, 10.001301, 9.99785 
6.4504486e+2, 2.7536952e+2, -272405.4, -500837.22, -44016.434, 0.024339434, -0.212433, -264217.4, -22861.146, 0.000000000000000000046744374, 10.000824, 9.99783 
6.450455e+2, 2.853675e+2, -169841.0, -419940.6, 23667.025, 0.056585472, -0.18779752, -167621.08, -24242.646, 0.00000034821963, 10.000943, 9.997656 
6.450466e+2, 2.9536512e+2, 6032.9414, -292396.0, 33539.38, 0.0858708, -0.21414702, 9755.87, 55162.242, 0.0000068469953, 10.001491, 9.997601 
6.450473e+2, 3.0536518e+2, 183147.63, -75786.234, -32364.445, 0.18478224, -0.0054764263, 187131.6, 187131.6, 0.00003364889, 10.001955, 9.998517 
6.450432e+2, 3.1536415e+2, 294859.2, 27661.967, -48862.957, -0.12044958, 0.0041829944, 303514.5, 303514.5, 0.000093640454, 10.002465, 9.998976 
6.5505874e+2, 1.2538327e+2, -2092659.8, -1778119.8, 118054.41, 0.021368034, -0.07701716, -1738741.1, -27506.951, 0.0000000012982254, 9.996866, 10.0010605 
6.550573e+2, 1.3538389e+2, -1692910.4, -1533583.3, 34429.914, 0.17669511, -0.14640705, -1526461.4, 86765.82, 0.0, 9.998938, 10.0010805 
6.5505135e+2, 1.4538465e+2, -1580645.5, -1558108.8, 51572.15, -0.2472455, -0.110984854, -1516588.3, -1368.5687, 0.0, 9.999582, 9.999923 
6.550532e+2, 1.553849e+2, -1572261.9, -1505479.8, -6688.833, 0.120897084, -0.10350837, -1504816.4, -87598.51, 0.0, 9.998981, 9.999899 
6.550539e+2, 1.6538465e+2, -1470230.6, -1444170.9, 39497.676, 0.25518852, -0.097324215, -1415609.4, -96389.41, 0.0, 9.999178, 9.999546 
6.5505385e+2, 1.753839e+2, -1234938.5, -1281953.3, 48105.55, 0.20294248, -0.148053, -1204903.9, 16322.308, 0.0, 10.000129, 9.999533 
6.550521e+2, 1.8538302e+2, -1125053.5, -1193100.1, -54820.316, 0.11705572, -0.17708881, -1094556.6, 28675.313, 0.0, 10.00027, 9.999401 
6.55049e+2, 1.9538188e+2, -1100265.8, -1128512.5, -51442.152, 0.0028401753, -0.2543653, -1061043.4, -35804.47, 0.0, 9.999767, 9.99941 
6.5504813e+2, 2.0538127e+2, -1053112.0, -1139670.0, 519.3047, 0.014043236, -0.21450095, -1053108.9, -125865.78, 0.0, 9.999779, 9.998657 
6.550493e+2, 2.1538089e+2, -894168.44, -1011214.75, -12920.828, 0.12785977, -0.13986102, -892759.06, -63511.895, 0.0, 10.000191, 9.998667 
6.5504897e+2, 2.2537936e+2, -769061.6, -945201.0, -55203.082, 0.14342424, -0.13771302, -753190.7, -21928.563, 0.0, 10.000576, 9.99826 
6.550472e+2, 2.3537661e+2, -616686.8, -822044.1, -27418.012, 0.06532192, -0.25980943, -613089.1, 20199.385, 0.0, 10.000952, 9.998251 
6.5504676e+2, 2.4537456e+2, -522474.72, -801122.9, 8887.397, 0.04167128, -0.2531522, -522191.56, 13117.136, 0.0, 10.001254, 9.99758 
6.550473e+2, 2.5537294e+2, -397796.22, -684642.75, -6102.77, 0.05870873, -0.1936651, -397666.44, 39658.38, 0.0, 10.001414, 9.997626 
6.550471e+2, 2.6537088e+2, -292997.3, -543081.2, -68836.72, 0.06376193, -0.17974395, -275301.78, 64042.57, 0.0, 10.001277, 9.997995 
6.5504634e+2, 2.7536824e+2, -268580.72, -481826.2, -49588.87, 0.06622766, -0.26133302, -257613.22, -16244.675, 0.0000000002377775, 10.000768, 9.9979925 
6.5504616e+2, 2.8536618e+2, -126872.664, -313768.88, 35662.234, 0.0054460773, -0.2881424, -120299.055, 23089.28, 0.0000008000927, 10.00088, 9.998408 
6.550462e+2, 2.9536423e+2, 33486.516, -203586.19, 63798.023, -0.12493544, -0.34904435, 49564.633, 94972.03, 0.000010270006, 10.001369, 9.998261 
6.550477e+2, 3.053637e+2, 86382.93, -281371.2, -19754.951, 0.0055254907, -0.15730679, 87441.08, 87441.08, 0.00004390313, 10.00196, 9.997114 
6.550466e+2, 3.1536046e+2, 262645.28, -26767.309, 6826.011, -0.0843587, -0.228636, 262806.2, 262806.2, 0.00011355579, 10.002407, 9.998639 
6.6505593e+2, 1.253854e+2, -1942152.9, -1651262.1, 53968.13, 0.022900695, -0.052755274, -1641572.3, 69640.21, 0.00000000035571668, 9.99766, 10.001542 
6.6505647e+2, 1.3538551e+2, -1782009.1, -1550139.0, -9044.24, 0.2402669, -0.208704, -1549786.8, 63421.1, 0.0, 9.998192, 10.001337 
6.6505104e+2, 1.4538622e+2, -1728329.0, -1695816.0, 8725.408, -0.19132023, -0.15909332, -1693622.4, -178420.7, 0.0, 9.998871, 9.999314 
6.650524e+2, 1.553867e+2, -1483346.1, -1526246.8, -7309.2144, 0.10640848, -0.06819376, -1482135.0, -64933.76, 0.0, 9.999875, 9.999321 
6.650532e+2, 1.6538657e+2, -1327394.4, -1348766.0, 99472.59, 0.22523832, -0.034075912, -1238035.3, 81167.26, 0.0, 10.000047, 9.999783 
6.650536e+2, 1.753858e+2, -1314419.9, -1293753.8, 105942.26, 0.20531434, -0.11043522, -1197641.9, 23564.244, 0.0, 9.99947, 9.999765 
6.650525e+2, 1.8538447e+2, -1221722.3, -1287123.6, 24730.49, 0.15680732, -0.17667364, -1213423.8, -90207.88, 0.0, 9.999822, 9.998967 
6.650501e+2, 1.9538243e+2, -954624.25, -1110914.3, -8044.0454, 0.081047624, -0.29790333, -954211.3, 71021.54, 0.0, 10.000988, 9.998945 
6.6504943e+2, 2.0538159e+2, -813098.7, -1067647.8, 52581.74, 0.07505285, -0.23941192, -802664.7, 124575.92, 0.0, 10.001617, 9.998266 
6.650502e+2, 2.1538156e+2, -695752.8, -959736.94, 30002.133, 0.13016379, -0.08733749, -692385.94, 136856.33, 0.0, 10.001748, 9.99827 
6.650499e+2, 2.2537978e+2, -606822.1, -876539.0, -21753.828, 0.13410363, -0.08719363, -605078.9, 126180.375, 0.0, 10.001728, 9.9981785 
6.650486e+2, 2.3537631e+2, -543649.9, -800369.8, -50794.805, 0.08837461, -0.27206546, -533964.94, 99325.9, 0.0, 10.001507, 9.998139 
6.6504836e+2, 2.4537382e+2, -500051.22, -811935.9, 5173.203, 0.07288124, -0.29443872, -499965.44, 35349.492, 0.0, 10.001489, 9.9973955 
6.65049e+2, 2.5537196e+2, -378245.5, -699872.3, 1750.1774, 0.08287294, -0.24134122, -378235.97, 59098.52, 0.0, 10.001634, 9.997424 
6.6504896e+2, 2.6536992e+2, -197381.64, -485342.3, -38826.387, 0.08884541, -0.21602495, -192238.45, 147115.42, 0.0, 10.001884, 9.998098 
6.650481e+2, 2.7536774e+2, -44143.477, -359334.75, -40390.055, 0.0972081, -0.26839358, -39050.02, 202324.13, 0.0000000023427176, 10.002255, 9.998112 
6.6504765e+2, 2.85366e+2, 59626.4, -226709.89, 39576.383, 0.0145366015, -0.2650996, 64995.816, 208386.02, 0.0000014418595, 10.0021715, 9.998385 
6.650474e+2, 2.9536423e+2, 78395.16, -179058.14, -10384.0205, -0.14772753, -0.30724004, 78813.305, 124219.875, 0.000014823799, 10.001671, 9.998279 
6.6504914e+2, 3.0536273e+2, 3084.6663, -370790.97, -50154.582, -0.021188071, -0.1932537, 9695.886, 9695.886, 0.000057815294, 10.001612, 9.996663 
6.650496e+2, 3.1535858e+2, 175543.25, -55957.363, 15709.942, 0.022871759, -0.3014775, 176604.48, 176604.48, 0.00014076727, 10.001754, 9.998755 
6.75053e+2, 1.253864e+2, -1920441.6, -1617818.3, -18791.645, -0.08444172, -0.066479385, -1616655.9, 94548.625, 0.0000000023126079, 9.997715, 10.001743 
6.750558e+2, 1.3538745e+2, -1779515.0, -1546894.1, 15342.051, 0.3299652, -0.13184245, -1545886.6, 67303.09, 0.0, 9.998209, 10.0013485 
6.7505157e+2, 1.4538822e+2, -1710570.8, -1663315.6, 35113.207, -0.050431162, -0.0865313, -1644620.6, -129438.414, 0.0, 9.998886, 9.999532 
6.750524e+2, 1.5538815e+2, -1461571.5, -1487022.1, 38438.49, 0.09231756, -0.07069721, -1433806.6, -16620.154, 0.0, 9.999899, 9.99958 
6.750526e+2, 1.6538826e+2, -1290719.6, -1276862.9, 67747.64, 0.14220604, -0.051788714, -1215690.3, 103493.625, 0.0, 10.000059, 10.000274 
6.7505246e+2, 1.7538843e+2, -1282643.9, -1227956.3, 94315.36, 0.12540038, -0.08352135, -1157101.0, 64075.258, 0.0, 9.999469, 10.000219 
6.750524e+2, 1.8538712e+2, -1272977.1, -1389253.3, 58593.848, 0.14453585, -0.13364919, -1248572.6, -125387.125, 0.0, 9.999799, 9.998279 
6.7505234e+2, 1.9538434e+2, -1011093.3, -1213156.5, 42704.254, 0.19318606, -0.25955653, -1002438.8, 22772.418, 0.0, 10.000925, 9.998274 
6.750519e+2, 2.0538221e+2, -850778.5, -1124661.0, 49708.895, 0.14946483, -0.27701366, -842035.56, 85196.19, 0.0, 10.00152, 9.997925 
6.7505115e+2, 2.1538047e+2, -732762.8, -1014343.6, 42950.203, 0.026074303, -0.2647266, -726357.2, 102892.49, 0.0, 10.001648, 9.997945 
6.750504e+2, 2.2537887e+2, -668215.2, -972500.25, -36750.387, -0.009085472, -0.19952025, -663839.56, 67426.805, 0.0, 10.001597, 9.997582 
6.750496e+2, 2.353772e+2, -600466.44, -889426.4, -47036.418, 0.02464795, -0.14375791, -593002.7, 40280.75, 0.0, 10.001389, 9.997582 
6.750494e+2, 2.4537453e+2, -498791.9, -790292.06, 4746.352, 0.012743348, -0.16833971, -498714.66, 36595.168, 0.0, 10.00141, 9.997581 
6.750496e+2, 2.553707e+2, -380829.8, -683655.2, 16491.875, -0.038778245, -0.32862067, -379934.3, 57412.266, 0.0, 10.001538, 9.997581 
6.7504984e+2, 2.653686e+2, -202225.73, -478832.38, -32816.008, -0.025790196, -0.322041, -198385.83, 140980.61, 0.0, 10.001815, 9.998177 
6.750499e+2, 2.7536795e+2, -50938.074, -356531.6, -16406.389, 0.03470352, -0.23105212, -50059.79, 191313.23, 0.0000000015372758, 10.002185, 9.998166 
6.7505e+2, 2.853669e+2, 7283.557, -334474.2, 12456.385, 0.011336487, -0.12345608, 7736.966, 151121.31, 0.0000017821444, 10.002164, 9.99765 
6.750499e+2, 2.9536524e+2, 17820.393, -282660.06, -17020.836, -0.09035317, -0.07808461, 18781.47, 64184.08, 0.000019076204, 10.0015745, 9.997615 
6.750511e+2, 3.053622e+2, 22704.773, -313640.94, -49967.54, -0.0040579066, -0.112107515, 29970.979, 29970.979, 0.000073988194, 10.001547, 9.99708 
6.750516e+2, 3.153584e+2, 195127.19, 17860.787, 40153.844, 0.007836356, -0.22432508, 203798.55, 203798.55, 0.00017626329, 10.001626, 9.999312 
6.850513e+2, 1.2538731e+2, -2123917.8, -1777353.5, 21259.328, 0.044023857, -0.1039007, -1776054.3, -64863.184, 0.0000000036242784, 9.996579, 10.001202 
6.850547e+2, 1.3538769e+2, -1638636.0, -1546447.8, 24170.611, 0.35201493, -0.16907309, -1540494.9, 72690.37, 0.0, 9.999478, 10.000732 
6.850517e+2, 1.4538826e+2, -1474103.4, -1513951.3, -7256.1006, 0.0123453615, -0.13008024, -1472823.3, 42356.56, 0.0, 10.000343, 9.999857 
6.850529e+2, 1.5538868e+2, -1489189.1, -1465999.1, -14056.4795, 0.17041446, -0.10134456, -1459372.5, -42194.727, 0.0, 9.999551, 9.999897 
6.8505275e+2, 1.6538866e+2, -1378266.9, -1368017.9, 1099.3472, 0.17830555, -0.08991221, -1367901.4, -48724.406, 0.0, 9.999669, 9.999838 
6.8505186e+2, 1.7538816e+2, -1150792.6, -1213772.1, -58779.02, 0.06740135, -0.14362596, -1115599.8, 105578.05, 0.0, 10.000584, 9.999783 
6.850523e+2, 1.8538699e+2, -1103258.9, -1305053.4, -68540.305, 0.09593199, -0.15847196, -1082180.6, 41006.42, 0.0, 10.000955, 9.9983 
6.8505365e+2, 1.95385e+2, -1028322.4, -1215535.8, -48153.89, 0.23916501, -0.20854543, -1016662.7, 8542.998, 0.0, 10.000785, 9.998321 
6.850534e+2, 2.0538285e+2, -992984.56, -1172615.0, -2939.4622, 0.20071396, -0.24091744, -992936.44, -65710.53, 0.0, 10.00046, 9.998099 
6.850517e+2, 2.1538043e+2, -961932.8, -1106000.1, 12423.526, 0.0058170008, -0.31493852, -960869.3, -131620.28, 0.0, 9.999995, 9.99811 
6.8505096e+2, 2.2537872e+2, -822525.1, -1053459.1, 15358.053, -0.05053972, -0.26497313, -821508.2, -90241.65, 0.0, 10.000552, 9.997536 
6.8505114e+2, 2.3537749e+2, -523239.03, -857631.9, 26257.473, 0.013394208, -0.16278644, -521189.78, 112091.02, 0.0, 10.001928, 9.997545 
6.8505114e+2, 2.4537514e+2, -408118.16, -736678.8, 72533.125, 0.016818829, -0.1566077, -392818.2, 142486.06, 0.0, 10.001987, 9.997667 
6.850509e+2, 2.5537166e+2, -460927.8, -711022.0, 64892.727, -0.033922806, -0.29347384, -445092.53, -7755.13, 0.0, 10.000952, 9.997668 
6.8505114e+2, 2.653695e+2, -343409.72, -578746.3, 57555.65, -0.033789326, -0.2840582, -330087.63, 9270.643, 0.0, 10.000982, 9.997889 
6.850518e+2, 2.753683e+2, -112522.98, -416851.97, 25509.965, 0.02367822, -0.21403499, -110399.45, 130970.83, 0.00000000039754933, 10.001891, 9.997891 
6.8505216e+2, 2.8536686e+2, -44114.246, -388767.38, 32449.889, 0.025957696, -0.12238463, -41085.63, 102300.81, 0.000001935021, 10.001933, 9.99739 
6.85052e+2, 2.9536483e+2, -30509.58, -329630.47, 23815.385, -0.022224339, -0.084514536, -28625.318, 16783.564, 0.000022833043, 10.001333, 9.997413 
6.8505275e+2, 3.0536184e+2, 30681.924, -260941.2, 58844.01, 0.019170232, -0.12663104, 42107.855, 42107.855, 0.00009092674, 10.001379, 9.997526 
6.8505317e+2, 3.1535998e+2, 202274.61, 40849.21, 112493.59, 0.006246985, -0.08910489, 260015.33, 260015.33, 0.00021663119, 10.001548, 9.999526 
6.9505024e+2, 1.2538831e+2, -2195310.0, -1944824.9, 58489.32, 0.22483239, -0.1545523, -1931840.5, -220669.67, 0.00000000017840025, 9.9966755, 9.999996 
6.9505316e+2, 1.3538638e+2, -1725561.3, -1730424.1, 134457.6, 0.22153828, -0.3146091, -1593513.1, 19679.924, 0.0, 9.9995, 9.999456 
6.950514e+2, 1.453864e+2, -1436081.9, -1441719.5, -45890.31, -0.08488744, -0.29668018, -1392923.9, 122270.38, 0.0, 10.000368, 10.000344 
6.950535e+2, 1.5538825e+2, -1456194.8, -1408553.8, -30761.422, 0.2592576, -0.17302781, -1393468.1, 23707.645, 0.0, 9.99959, 10.000278 
6.950533e+2, 1.6538773e+2, -1474057.9, -1567190.1, 27035.83, 0.24376935, -0.15357435, -1466778.5, -147596.95, 0.0, 9.999677, 9.998464 
6.950515e+2, 1.7538518e+2, -1243831.1, -1404361.0, -14869.222, -0.05035583, -0.27794662, -1242465.4, -21256.52, 0.0, 10.000572, 9.99848 
6.950517e+2, 1.8538423e+2, -1057362.1, -1199897.4, -80598.5, -0.069839686, -0.24550658, -1021041.75, 102176.93, 0.0, 10.000915, 9.999038 
6.9505364e+2, 1.9538447e+2, -985671.0, -1113732.9, -44994.164, 0.13951933, -0.14690894, -971443.2, 53772.434, 0.0, 10.000733, 9.999042 
6.950535e+2, 2.0538348e+2, -956871.06, -1080057.1, -29402.877, 0.14859325, -0.13390967, -950212.9, -22989.629, 0.0, 10.000382, 9.998773 
6.950516e+2, 2.1538132e+2, -928933.4, -1016212.0, 5654.3765, -0.015698515, -0.2491209, -928568.56, -99327.36, 0.0, 9.999904, 9.998769 
6.9505155e+2, 2.2537927e+2, -803736.3, -990222.25, 59280.242, -0.064286955, -0.2896937, -786487.6, -55227.17, 0.0, 10.00045, 9.998019 
6.950529e+2, 2.353771e+2, -505576.28, -796461.9, 83008.4, -0.020850537, -0.32800534, -483555.63, 149727.45, 0.0, 10.001825, 9.9980135 
6.9505316e+2, 2.453757e+2, -415907.13, -734212.2, 25656.072, 0.006804969, -0.25407735, -413852.47, 121445.39, 0.0, 10.001907, 9.997725 
6.950525e+2, 2.5537473e+2, -465670.84, -709719.7, 37413.11, 0.0139201805, -0.14429702, -460064.16, -22756.563, 0.0, 10.000899, 9.997705 
6.950526e+2, 2.6537246e+2, -395361.8, -676553.25, 85202.29, -0.0039848783, -0.113851674, -371559.88, -32229.68, 0.0, 10.000944, 9.997232 
6.9505334e+2, 2.753689e+2, -170271.94, -518777.9, 67139.77, -0.033365417, -0.21513486, -157784.86, 83581.1, 0.0000000054780975, 10.001815, 9.997229 
6.950537e+2, 2.8536588e+2, -36872.285, -359454.44, 1518.8535, -0.03881671, -0.25728035, -36865.137, 106531.4, 0.000002364329, 10.001875, 9.997615 
6.9505334e+2, 2.9536316e+2, -23353.605, -298090.7, 19034.736, -0.051687274, -0.31603396, -22041.084, 23383.408, 0.000027093956, 10.0012665, 9.997658 
6.9505376e+2, 3.0536175e+2, 63604.664, -191105.73, 63527.555, -0.03426546, -0.23763223, 78569.87, 78569.87, 0.00010798756, 10.001373, 9.99801 
6.950539e+2, 3.153635e+2, 174923.14, 9882.576, 133935.17, -0.11811271, 0.11953674, 249718.56, 249718.56, 0.00025661878, 10.001444, 9.999364 
7.0504874e+2, 1.2538706e+2, -1833719.4, -1762234.4, -95191.766, 0.29803318, -0.19603723, -1696296.0, 14886.439, 0.0, 9.999105, 10.0000925 
7.0505136e+2, 1.3538551e+2, -1895381.6, -1803248.1, 90034.375, 0.16502011, -0.32315272, -1748179.6, -134980.17, 0.0, 9.998285, 9.999546 
7.050507e+2, 1.453852e+2, -1696917.0, -1568573.3, -60675.992, -0.09133172, -0.33953834, -1544429.8, -29225.88, 0.0, 9.998597, 10.0003195 
7.0505285e+2, 1.5538695e+2, -1363788.1, -1358968.6, -102932.5, 0.20822397, -0.22587407, -1258417.6, 158770.02, 0.0, 10.000226, 10.000298 
7.050532e+2, 1.6538689e+2, -1270958.1, -1436463.4, 23519.807, 0.20858175, -0.17944004, -1267680.6, 51508.715, 0.0, 10.000934, 9.998752 
7.0505255e+2, 1.7538509e+2, -1199682.3, -1347893.3, 86674.4, -0.0055475095, -0.25523823, -1159752.4, 61456.016, 0.0, 10.000732, 9.998785 
7.050528e+2, 1.8538427e+2, -1115290.9, -1244614.3, 42532.7, -0.033600405, -0.21727648, -1102556.5, 20661.406, 0.0, 10.000585, 9.998894 
7.050537e+2, 1.9538407e+2, -1028448.06, -1150511.9, -3796.7117, 0.090880945, -0.14792259, -1028330.06, -3108.28, 0.0, 10.000497, 9.99891 
7.050535e+2, 2.0538327e+2, -897954.6, -1020832.75, -13750.659, 0.104984574, -0.1229625, -896434.6, 30793.979, 0.0, 10.000661, 9.999046 
7.050525e+2, 2.1538186e+2, -752634.7, -900824.8, -24262.12, 0.025510615, -0.18840891, -748763.56, 80475.375, 0.0, 10.000988, 9.999041 
7.0505273e+2, 2.2538021e+2, -707826.4, -910852.7, 45062.19, -0.015115837, -0.21699692, -698274.1, 32980.176, 0.0, 10.000974, 9.998304 
7.0505404e+2, 2.3537818e+2, -651613.56, -834838.75, 38005.92, -0.031222299, -0.2721109, -644042.9, -10766.953, 0.0, 10.000695, 9.998289 
7.0505464e+2, 2.453768e+2, -489022.13, -761010.25, -19985.984, -0.009661063, -0.20956536, -487561.38, 47728.695, 0.0, 10.001373, 9.997795 
7.050547e+2, 2.5537586e+2, -174740.3, -559259.3, -22643.102, 0.04664683, -0.10735881, -173411.52, 263887.88, 0.0, 10.002862, 9.997789 
7.0505476e+2, 2.6537362e+2, -114864.805, -542514.25, 50536.27, 0.026012832, -0.07842954, -108973.97, 230347.86, 0.0, 10.002876, 9.997227 
7.050549e+2, 2.753701e+2, -204836.73, -530874.3, 62730.21, -0.046968892, -0.1765026, -193183.81, 48173.82, 0.000000016182126, 10.001565, 9.997263 
7.050551e+2, 2.8536698e+2, -90109.84, -377558.16, 49289.19, -0.054618016, -0.23289932, -81893.04, 61495.76, 0.0000030357212, 10.001462, 9.9977 
7.050554e+2, 2.9536417e+2, 139661.06, -206771.5, 40949.313, -0.01810649, -0.31097877, 144435.6, 189852.4, 0.000031540207, 10.002323, 9.997782 
7.0505583e+2, 3.05363e+2, 212886.7, -73552.55, 76029.89, 0.004887302, -0.23564668, 231816.4, 231816.4, 0.00012311795, 10.002209, 9.998408 
7.050553e+2, 3.153646e+2, 135525.47, 17627.295, 98193.55, -0.095984705, 0.06270729, 191105.72, 191105.72, 0.00029061802, 10.001072, 9.999582 
7.1504617e+2, 1.2538369e+2, -1709894.1, -1522247.6, -166314.45, 0.07860448, -0.2058594, -1425117.3, 286107.38, 0.0, 9.999183, 10.001697 
7.1504927e+2, 1.3538502e+2, -1782312.3, -1586405.9, 65897.09, 0.09882803, -0.20743577, -1566303.0, 46902.5, 0.0, 9.998353, 10.001005 
7.150495e+2, 1.453847e+2, -1729951.8, -1645701.5, -11903.929, -0.10004115, -0.26542327, -1644051.9, -128843.234, 0.0, 9.998639, 9.999765 
7.150506e+2, 1.5538485e+2, -1396777.8, -1426872.1, -34345.33, -0.064240225, -0.25554264, -1374328.0, 42884.723, 0.0, 10.000221, 9.999834 
7.1505225e+2, 1.6538604e+2, -1138091.1, -1151642.5, 8572.436, -0.0037544672, -0.16621548, -1133939.9, 185260.61, 0.0, 10.000901, 10.00072 
7.150548e+2, 1.753878e+2, -1072688.4, -1083743.0, 87032.67, 0.12202947, -0.081012696, -991007.7, 230169.38, 0.0, 10.000733, 10.000598 
7.150551e+2, 1.85387e+2, -1187135.8, -1389055.4, 30943.732, 0.122581914, -0.07898251, -1182500.1, -59314.22, 0.0, 10.000564, 9.997912 
7.150536e+2, 1.9538385e+2, -1106442.1, -1293846.3, 3097.0894, 0.0067560496, -0.20602582, -1106391.0, -81167.33, 0.0, 10.000421, 9.997962 
7.150532e+2, 2.0538236e+2, -923219.1, -1050294.9, -9338.016, -0.010653167, -0.1973227, -922536.6, 4704.164, 0.0, 10.000565, 9.998888 
7.150539e+2, 2.1538207e+2, -781599.56, -931604.2, -6933.2856, 0.053141486, -0.13396199, -781279.75, 47962.33, 0.0, 10.000869, 9.998883 
7.150542e+2, 2.2538157e+2, -714621.1, -901030.7, 25923.277, 0.020106133, -0.047080394, -711083.25, 20164.637, 0.0, 10.000869, 9.998424 
7.1505415e+2, 2.3538068e+2, -657193.1, -825228.44, 38478.08, -0.10251252, 0.0022829908, -648801.25, -15542.028, 0.0, 10.000602, 9.9984 
7.1505517e+2, 2.453785e+2, -495723.03, -756056.1, 27471.41, -0.10898346, -0.025154965, -492855.72, 42425.043, 0.0, 10.00129, 9.997871 
7.150571e+2, 2.5537503e+2, -179589.1, -549860.75, 37053.563, -0.020783365, -0.18063441, -175917.5, 261395.38, 0.0, 10.002778, 9.997896 
7.150573e+2, 2.6537296e+2, -75115.3, -449607.38, -8108.717, -0.024749296, -0.17470726, -74939.805, 264393.28, 0.0, 10.00283, 9.997889 
7.15056e+2, 2.7537182e+2, -170628.81, -445791.84, 26899.588, -0.107889295, -0.099595875, -168023.81, 73321.96, 0.000000020828322, 10.001501, 9.99788 
7.150564e+2, 2.8537005e+2, -94014.48, -376489.06, 72947.85, -0.09441128, -0.052428637, -76288.37, 67075.56, 0.0000037854625, 10.001429, 9.997722 
7.1505797e+2, 2.953678e+2, 125563.93, -217341.72, 82738.62, -0.019639341, -0.07403873, 144483.77, 189870.3, 0.000035842306, 10.00225, 9.997744 
7.1505857e+2, 3.053656e+2, 236450.34, -24570.557, 28605.623, 0.034619287, -0.11622972, 239548.5, 239548.5, 0.00013552594, 10.002199, 9.998754 
7.150566e+2, 3.153631e+2, 158810.95, 83158.875, 74318.14, -0.120695174, -0.26707327, 204375.53, 204375.53, 0.00031582415, 10.000989, 10.000078 
7.2504514e+2, 1.253826e+2, -1663809.5, -1512835.3, -28127.69, 0.056119706, -0.18132901, -1507765.1, 203472.84, 0.0, 9.999507, 10.001636 
7.2504824e+2, 1.3538462e+2, -1607418.8, -1485360.6, 66882.99, 0.11102759, -0.12189703, -1455847.6, 157363.97, 0.0, 9.99949, 10.00115 
7.250494e+2, 1.4538413e+2, -1649526.8, -1621037.5, 18488.266, 0.00031749072, -0.197888, -1611942.8, -96726.734, 0.0, 9.999238, 9.999657 
7.2504985e+2, 1.5538378e+2, -1594971.3, -1526719.4, 12744.5205, -0.087807156, -0.23011833, -1524417.3, -107192.28, 0.0, 9.998872, 9.999802 
7.250517e+2, 1.6538481e+2, -1378960.6, -1207243.8, 17720.213, -0.04585737, -0.1801485, -1205434.3, 113778.48, 0.0, 9.998969, 10.001279 
7.2505516e+2, 1.753868e+2, -1216860.5, -1089478.4, -25185.232, 0.15308538, -0.13038509, -1084679.8, 136505.42, 0.0, 9.999464, 10.001172 
7.2505563e+2, 1.8538642e+2, -1268461.5, -1404137.3, -67200.32, 0.15726368, -0.12463403, -1240811.9, -117622.52, 0.0, 9.999897, 9.998133 
7.250536e+2, 1.9538386e+2, -1119733.0, -1278732.8, -21763.64, -0.01799539, -0.21275486, -1116807.9, -91585.52, 0.0, 10.000229, 9.998162 
7.2505355e+2, 2.0538247e+2, -941510.44, -1096601.5, 27077.084, -0.03241443, -0.1881746, -936919.0, -9679.058, 0.0, 10.000591, 9.998566 
7.250551e+2, 2.1538179e+2, -787917.9, -972961.06, 2809.3843, 0.09191745, -0.13118353, -787875.25, 41371.71, 0.0, 10.000972, 9.998559 
7.250555e+2, 2.2538126e+2, -691222.0, -890997.7, 21859.512, 0.06192441, -0.030076332, -688858.06, 42395.918, 0.0, 10.001038, 9.99841 
7.250549e+2, 2.3538072e+2, -619769.1, -808071.1, 6934.16, -0.094851874, 0.057381324, -619514.1, 13748.259, 0.0, 10.000862, 9.998394 
7.2505605e+2, 2.4537872e+2, -580133.94, -745699.5, 48972.887, -0.10884816, 0.022123829, -566732.9, -31450.979, 0.0, 10.000491, 9.998325 
7.250585e+2, 2.5537524e+2, -554462.44, -683572.0, 70499.31, -0.012561198, -0.17793816, -523427.1, -86114.31, 0.0, 9.999993, 9.9983225 
7.2505903e+2, 2.653735e+2, -397771.53, -572534.25, 21086.738, -0.014623321, -0.17595051, -395263.22, -55933.324, 0.0, 10.000483, 9.998168 
7.250579e+2, 2.7537295e+2, -98215.914, -380951.84, 8595.413, -0.082669236, -0.067156635, -97954.84, 143382.7, 0.000000011844985, 10.00187, 9.998148 
7.250587e+2, 2.853718e+2, 62144.55, -293225.8, 77189.56, -0.05779218, 0.022903245, 78186.63, 221536.69, 0.000004675658, 10.002484, 9.997776 
7.250607e+2, 2.9536998e+2, 148483.1, -204616.33, 68332.19, 0.032792486, 0.043223202, 161245.53, 206612.9, 0.000040333267, 10.002408, 9.997751 
7.2506154e+2, 3.0536684e+2, 205901.94, -95404.22, -37653.633, 0.113526344, -0.06682556, 210536.17, 210536.17, 0.00014552726, 10.002236, 9.998251 
7.2505873e+2, 3.153626e+2, 274017.6, 113399.984, -92318.336, -0.04140547, -0.34386525, 316069.63, 316069.63, 0.0003310756, 10.001886, 9.999856 
7.350453e+2, 1.2538375e+2, -1770269.0, -1735894.1, -48578.293, 0.07664675, -0.115082115, -1701552.4, 9670.974, 0.0, 9.999534, 10.000078 
7.3504806e+2, 1.3538428e+2, -1698668.3, -1679877.3, 66820.414, 0.11989311, -0.065884635, -1621795.0, -8577.086, 0.0, 9.999504, 9.999808 
7.3504996e+2, 1.4538334e+2, -1625654.8, -1561545.1, -6042.5835, 0.11648452, -0.14650024, -1560980.6, -45753.45, 0.0, 9.999209, 10.000069 
7.350503e+2, 1.5538357e+2, -1572958.9, -1485165.9, 11384.3955, 0.046288684, -0.15902758, -1483713.6, -66488.29, 0.0, 9.998893, 10.000075 
7.3505133e+2, 1.6538323e+2, -1428665.1, -1316855.8, 25456.2, -0.0022912787, -0.21985152, -1311332.9, 7893.1577, 0.0, 9.998994, 10.000512 
7.350534e+2, 1.753822e+2, -1265112.9, -1188720.1, 2359.7666, 0.012592115, -0.39585543, -1188647.4, 32583.734, 0.0, 9.999454, 10.000497 
7.3505414e+2, 1.8538266e+2, -1180259.1, -1208081.1, -61859.605, -0.003739235, -0.34591508, -1130765.8, -7538.6436, 0.0, 9.999844, 9.999502 
7.350536e+2, 1.953842e+2, -1038273.7, -1093448.9, -1661.1096, -0.06129449, -0.16113853, -1038223.75, -13006.62, 0.0, 10.000167, 9.99946 
7.3505425e+2, 2.0538367e+2, -982578.94, -1165078.6, 33305.04, -0.03673385, -0.08869999, -976690.94, -49465.266, 0.0, 10.000516, 9.998132 
7.350559e+2, 2.1538115e+2, -832150.25, -1037453.8, 25522.691, 0.054162208, -0.17618452, -829024.94, 227.20102, 0.0, 10.000859, 9.998165 
7.3505646e+2, 2.2537948e+2, -721663.8, -931042.3, 6104.3037, 0.036133494, -0.15672396, -721486.0, 9784.854, 0.0, 10.000933, 9.998189 
7.3505604e+2, 2.3537838e+2, -646363.8, -838682.4, 8345.764, -0.08163166, -0.10833726, -646002.3, -12717.359, 0.0, 10.000755, 9.998237 
7.350569e+2, 2.4537748e+2, -530624.3, -627911.8, 22979.543, -0.09077764, -0.0671519, -525469.56, 9823.646, 0.0, 10.000426, 9.999165 
7.350587e+2, 2.5537655e+2, -511196.28, -573894.25, 62156.68, -0.0069378084, -0.099730015, -472930.53, -35631.625, 0.0, 9.99991, 9.999114 
7.3505974e+2, 2.6537532e+2, -415096.84, -596304.0, 66924.625, -0.0049276683, -0.07506584, -393059.78, -53748.473, 0.0, 10.000428, 9.998033 
7.3506016e+2, 2.7537358e+2, -113726.44, -402793.97, 71502.15, -0.06592858, -0.07379752, -97007.086, 144325.23, 0.000000051096855, 10.0018215, 9.998024 
7.350615e+2, 2.8537217e+2, 70872.06, -275120.47, 66340.07, -0.044398773, -0.009595685, 83155.89, 226503.16, 0.0000058850314, 10.00248, 9.997903 
7.350635e+2, 2.9537088e+2, 141992.88, -206081.16, 77017.48, 0.038130153, 0.04890528, 158272.89, 203631.2, 0.000044056193, 10.002353, 9.997768 
7.3506445e+2, 3.0536687e+2, 102835.69, -308835.84, -54075.594, 0.15916228, -0.06981091, 109820.34, 109820.34, 0.00015023218, 10.002228, 9.996792 
7.3506105e+2, 3.1536275e+2, 185622.27, -46373.72, -74125.52, -0.047848158, -0.19452184, 207283.73, 207283.73, 0.00033283475, 10.001782, 9.998808 
7.4504584e+2, 1.2538245e+2, -1876170.9, -1871099.4, -119645.3, 0.20561579, -0.13119543, -1753963.0, -42729.64, 0.0, 9.999189, 9.999304 
7.4504745e+2, 1.3538237e+2, -1683849.4, -1724486.0, 10297.566, 0.09745644, -0.08739649, -1681388.9, -68150.49, 0.0, 9.999857, 9.99932 
7.4504983e+2, 1.453815e+2, -1512424.5, -1495950.0, -47735.953, 0.14776482, -0.14539738, -1455745.8, 59502.76, 0.0, 9.999929, 10.000173 
7.4505055e+2, 1.5538236e+2, -1447189.3, -1410967.0, -72267.26, 0.14374764, -0.10493995, -1354576.0, 62663.188, 0.0, 9.999701, 10.000189 
7.450511e+2, 1.6538201e+2, -1417868.9, -1342590.6, -20299.375, 0.07166339, -0.15796681, -1337465.6, -18225.16, 0.0, 9.999205, 10.000237 
7.4505216e+2, 1.7538033e+2, -1422317.8, -1290490.9, -23581.346, -0.004485158, -0.37059343, -1286399.6, -65145.746, 0.0, 9.9984865, 10.000268 
7.450532e+2, 1.8538095e+2, -1284451.3, -1212411.9, -55272.934, -0.03396233, -0.3156518, -1182458.0, -59209.55, 0.0, 9.99893, 9.999913 
7.45054e+2, 1.9538331e+2, -981009.44, -1021603.44, -82832.26, -0.04209484, -0.090675876, -916023.6, 109205.24, 0.0, 10.000366, 9.999856 
7.4505496e+2, 2.0538308e+2, -966795.6, -1142758.6, -85628.93, -0.015774766, -0.016130235, -932004.75, -4770.7705, 0.0, 10.000569, 9.998249 
7.4505603e+2, 2.1538039e+2, -995411.2, -1106696.8, -70946.75, 0.044733018, -0.12809391, -960889.94, -131627.88, 0.0, 9.999698, 9.998249 
7.450569e+2, 2.2537841e+2, -866764.94, -991246.25, -17358.16, 0.04818263, -0.15012145, -864389.75, -133106.17, 0.0, 9.999895, 9.998277 
7.450576e+2, 2.3537683e+2, -606579.6, -810591.94, -12975.002, -0.011084555, -0.15694869, -605757.7, 27543.723, 0.0, 10.000978, 9.998326 
7.4505824e+2, 2.453762e+2, -382100.28, -531327.9, -25083.498, -0.03763303, -0.10556815, -377996.88, 157309.73, 0.0, 10.001336, 9.999394 
7.45059e+2, 2.5537622e+2, -314282.84, -454031.63, -48751.605, -0.02629912, -0.06459817, -298956.6, 138346.08, 0.0, 10.001154, 9.99934 
7.4506044e+2, 2.6537508e+2, -259668.69, -521199.38, 11214.838, -0.03171662, -0.039571546, -259188.66, 80125.27, 0.0, 10.001489, 9.998041 
7.4506235e+2, 2.753728e+2, -48433.203, -364913.13, 6735.047, -0.04794386, -0.092366695, -48289.94, 193050.27, 0.00000017449423, 10.002253, 9.998072 
7.4506396e+2, 2.8537133e+2, 53450.13, -257224.28, -25145.918, -0.031059057, -0.04955215, 55472.273, 198828.52, 0.0000070145306, 10.002244, 9.998141 
7.450653e+2, 2.9537037e+2, 53318.836, -218068.83, -23860.91, 0.022783142, 0.013129779, 55400.76, 100765.76, 0.00004543542, 10.001612, 9.99804 
7.450667e+2, 3.0536675e+2, 57652.285, -329691.94, -42988.56, 0.18192807, -0.0795484, 62365.918, 62365.918, 0.00014809403, 10.001915, 9.996799 
7.4506426e+2, 3.153643e+2, 320867.28, -3110.8276, 25503.094, 0.053165935, -0.03674191, 322862.56, 322862.56, 0.0003227844, 10.002809, 9.9986105 
7.550463e+2, 1.2537873e+2, -1874772.4, -1862934.4, -98946.46, 0.2851506, -0.23268978, -1769730.0, -58462.332, 0.0, 9.999183, 9.999356 
7.550461e+2, 1.3537882e+2, -1663810.0, -1684934.0, 38218.074, -0.03671962, -0.20185857, -1634721.3, -21447.72, 0.0, 9.999874, 9.99958 
7.550487e+2, 1.453785e+2, -1521457.9, -1521034.4, -69411.64, 0.016927524, -0.20544264, -1451834.1, 63446.793, 0.0, 9.999952, 9.999991 
7.550502e+2, 1.5538031e+2, -1456088.9, -1429208.6, -72583.91, 0.10981682, -0.054258958, -1368831.0, 48434.06, 0.0, 9.999697, 10.000069 
7.550507e+2, 1.6538121e+2, -1402760.8, -1310418.0, -57750.656, 0.09094223, 0.009916803, -1282650.8, 36604.973, 0.0, 9.999201, 10.000462 
7.5505114e+2, 1.7538114e+2, -1411550.0, -1268423.4, -39482.527, 0.022997446, -0.060208205, -1258254.3, -37000.156, 0.0, 9.998491, 10.000418 
7.550525e+2, 1.8538122e+2, -1319595.5, -1280947.6, -10026.591, -0.015701175, -0.039076913, -1278501.3, -155247.33, 0.0, 9.998908, 9.999455 
7.5505453e+2, 1.9538124e+2, -1019795.3, -1085524.5, -22089.395, -0.04949261, -0.0038537164, -1013061.6, 12195.519, 0.0, 10.000297, 9.999451 
7.5505537e+2, 2.053807e+2, -939768.8, -1068088.0, -127240.36, -0.046456322, 0.032277327, -861427.3, 65837.016, 0.0, 10.000484, 9.998807 
7.5505537e+2, 2.153795e+2, -971519.9, -1029007.4, -93181.36, -0.008419206, 0.011465929, -902749.7, -73473.07, 0.0, 9.999583, 9.9988365 
7.5505674e+2, 2.2537804e+2, -854550.94, -940492.44, 16767.23, 0.021947643, -0.006852957, -851395.5, -120103.95, 0.0, 9.999788, 9.998676 
7.550591e+2, 2.3537615e+2, -599017.4, -767024.75, 36814.79, 0.034553874, -0.083315946, -591304.4, 42006.598, 0.0, 10.000864, 9.99868 
7.5505984e+2, 2.4537498e+2, -421234.03, -598986.8, -40575.566, -0.031369206, -0.08018139, -412409.94, 122910.71, 0.0, 10.001274, 9.9989605 
7.55059e+2, 2.5537416e+2, -348570.38, -515053.63, -45412.313, -0.16035114, -0.07802514, -336988.78, 100335.69, 0.0, 10.001105, 9.998946 
7.550606e+2, 2.653728e+2, -251678.17, -495135.4, 32914.484, -0.18229178, -0.071615905, -247306.77, 92030.914, 0.0, 10.0014515, 9.998236 
7.5506413e+2, 2.7537072e+2, -51179.29, -348621.7, 45659.164, -0.11154355, -0.12199714, -44328.145, 197032.78, 0.0000002213921, 10.002157, 9.998232 
7.5506586e+2, 2.8536943e+2, 68462.47, -212702.88, -56748.723, -0.088485494, -0.087731525, 79484.234, 222860.38, 0.000006961638, 10.002183, 9.998479 
7.550658e+2, 2.9536843e+2, 73310.945, -163188.31, -33725.54, -0.10890112, -0.058579028, 78026.3, 123413.56, 0.00004401986, 10.001544, 9.998458 
7.550678e+2, 3.053663e+2, 148191.1, -119460.37, -13310.851, 0.082609914, -0.10503679, 148851.44, 148851.44, 0.0001416952, 10.001838, 9.99827 
7.5506777e+2, 3.1536752e+2, 352019.4, 89753.5, 104383.37, 0.072301716, 0.16661194, 388492.34, 388492.34, 0.00030699253, 10.002701, 9.999293 
7.65046e+2, 1.2537651e+2, -1749443.6, -1833762.0, 11480.024, 0.30253842, -0.27109677, -1747908.6, -36620.203, 0.00000000032551553, 10.000116, 9.999122 
7.6504564e+2, 1.3537706e+2, -1747446.3, -1734909.3, 59557.28, -0.033052307, -0.19386274, -1681291.5, -67999.39, 0.0, 9.9993, 9.999524 
7.650484e+2, 1.4537697e+2, -1682375.9, -1602851.4, -19422.25, 0.054731123, -0.16980122, -1598361.4, -83063.31, 0.0, 9.998863, 9.99996 
7.6504964e+2, 1.5537839e+2, -1530260.9, -1471176.0, -33322.883, 0.11922232, -0.053488858, -1456185.6, -38899.516, 0.0, 9.999205, 10.000028 
7.650502e+2, 1.6537938e+2, -1351353.9, -1302806.0, -15355.81, 0.09951906, 0.029994108, -1298356.6, 20919.467, 0.0, 9.999635, 10.000299 
7.6505065e+2, 1.753798e+2, -1187365.9, -1177016.8, -40759.33, 0.051479895, 0.022831626, -1141104.9, 80165.39, 0.0, 10.00011, 10.000259 
7.6505226e+2, 1.8537948e+2, -1171249.6, -1238626.8, 22279.332, 0.017921716, 0.021411471, -1164549.0, -41274.758, 0.0, 10.000052, 9.999192 
7.6505464e+2, 1.9537827e+2, -1150372.3, -1178614.9, 7369.0396, -0.022321206, -0.035743773, -1148565.3, -123276.22, 0.0, 9.999518, 9.999192 
7.6505584e+2, 2.0537774e+2, -1015322.44, -1060243.4, -95410.74, -0.009126619, -0.0073731523, -939764.1, -12468.317, 0.0, 9.999776, 9.999207 
7.65056e+2, 2.1537752e+2, -781679.5, -898175.2, -90531.055, 0.05049013, 0.029877983, -732276.6, 97021.57, 0.0, 10.000702, 9.999205 
7.6505756e+2, 2.2537664e+2, -670478.1, -840189.9, 31478.18, 0.07008639, 0.045370385, -664827.7, 66479.75, 0.0, 10.001013, 9.998773 
7.650601e+2, 2.3537503e+2, -598227.0, -756010.5, 10191.238, 0.049592055, -0.010488575, -597571.5, 35752.58, 0.0, 10.000833, 9.998766 
7.650611e+2, 2.4537359e+2, -458890.84, -633462.25, -57004.938, -0.018411485, -0.028648522, -441925.16, 93411.35, 0.0, 10.001094, 9.998809 
7.650607e+2, 2.5537217e+2, -269174.84, -490615.03, -58894.734, -0.12691252, -0.075067, -254485.5, 182861.52, 0.0, 10.001723, 9.998814 
7.650623e+2, 2.653708e+2, -232497.2, -459021.28, 30192.09, -0.15292248, -0.07273701, -228542.13, 110817.65, 0.0, 10.00147, 9.998478 
7.6506555e+2, 2.7536932e+2, -281654.8, -429111.75, 28673.021, -0.095750146, -0.08837344, -276275.56, -34899.484, 0.00000016204108, 10.000449, 9.998498 
7.650672e+2, 2.8536826e+2, -172213.08, -310571.53, -44818.477, -0.074340664, -0.047990847, -158963.8, -15575.036, 0.000006290961, 10.000451, 9.998641 
7.650674e+2, 2.9536733e+2, 49647.813, -146519.55, -52104.766, -0.0849194, -0.031166892, 62628.598, 108029.164, 0.000041719115, 10.001274, 9.998693 
7.650696e+2, 3.0536595e+2, 244457.84, 2504.9397, -24499.719, 0.073636666, -0.053101644, 246913.7, 246913.7, 0.00013461517, 10.00216, 9.998958 
7.6507044e+2, 3.1536737e+2, 372450.13, 123996.67, 16390.316, 0.07724586, 0.1743763, 373526.72, 373526.72, 0.00029005748, 10.00274, 9.999506 
7.750444e+2, 1.2537566e+2, -1778339.9, -1892332.1, -25642.502, 0.073059395, -0.26071402, -1772837.3, -61540.523, 0.00000000045588486, 10.000115, 9.998719 
7.750457e+2, 1.3537708e+2, -1765713.6, -1777510.4, 28064.879, 0.011974196, -0.059207063, -1742934.0, -129640.26, 0.0, 9.999321, 9.999222 
7.7504873e+2, 1.453769e+2, -1667477.5, -1578398.4, -22414.205, 0.17002106, -0.039907962, -1573076.5, -57776.28, 0.0, 9.998888, 10.000118 
7.750488e+2, 1.5537667e+2, -1519818.8, -1456464.5, -10873.3955, 0.08821331, -0.09665736, -1454650.3, -37348.45, 0.0, 9.999232, 10.000116 
7.750492e+2, 1.6537662e+2, -1386166.4, -1375807.5, -7528.3887, 0.017029827, -0.096877985, -1371849.0, -52547.83, 0.0, 9.999636, 9.999799 
7.750505e+2, 1.7537639e+2, -1219884.9, -1243647.0, -14561.716, 0.0006539776, -0.11907578, -1212972.3, 8329.099, 0.0, 10.000103, 9.999805 
7.750522e+2, 1.8537575e+2, -1185157.3, -1256246.0, -4792.8203, -0.013702157, -0.12505578, -1184835.6, -61527.2, 0.0, 10.000003, 9.9991 
7.750542e+2, 1.9537458e+2, -1165868.1, -1193725.0, -2042.8424, -0.040955104, -0.17286389, -1165719.1, -140395.84, 0.0, 9.999446, 9.999125 
7.75056e+2, 2.0537429e+2, -1014146.06, -1034055.7, -69762.24, 0.013609996, -0.1277787, -953631.94, -26304.184, 0.0, 9.999674, 9.999435 
7.750578e+2, 2.1537454e+2, -785169.3, -876644.0, -49153.0, 0.13888346, -0.06343211, -763765.56, 65560.234, 0.0, 10.000585, 9.999406 
7.7505916e+2, 2.253743e+2, -703899.1, -883559.1, 14849.78, 0.110822484, 0.019429646, -702680.0, 28649.943, 0.0, 10.000898, 9.998531 
7.750601e+2, 2.3537336e+2, -629184.94, -795612.6, 13549.151, -0.048976205, 0.05459483, -628089.1, 5252.572, 0.0, 10.000723, 9.998549 
7.750617e+2, 2.4537201e+2, -463702.72, -622286.0, -42198.734, -0.083205126, 0.045517493, -453172.88, 82181.92, 0.0, 10.001006, 9.998926 
7.7506375e+2, 2.5537014e+2, -274798.78, -482294.28, -27574.121, -0.007787389, -0.05489869, -271197.0, 166173.36, 0.0, 10.001637, 9.998912 
7.750653e+2, 2.6536906e+2, -219125.1, -422805.16, -14788.133, -0.016246593, -0.041348223, -218057.0, 121323.016, 0.0, 10.00143, 9.998749 
7.750662e+2, 2.753684e+2, -268814.66, -393038.13, 2628.0322, -0.096300006, -0.0030712269, -268759.06, -27371.605, 0.00000014054619, 10.000401, 9.9987755 
7.7506775e+2, 2.853677e+2, -176733.0, -307059.53, -21348.328, -0.0868841, 0.05782674, -173325.13, -29929.156, 0.0000059856334, 10.000402, 9.998684 
7.750698e+2, 2.9536688e+2, 46010.867, -148254.45, -9141.662, -0.00091457594, 0.079431385, 46440.1, 91847.11, 0.0000396548, 10.001245, 9.998697 
7.75072e+2, 3.0536556e+2, 234698.56, -5423.082, -5885.4526, 0.07772344, 0.071445204, 234842.72, 234842.72, 0.00012692052, 10.002113, 9.998925 
7.750717e+2, 3.1536415e+2, 329440.78, 56954.324, 70753.3, -0.12466257, 0.020175155, 346717.06, 346717.06, 0.00027215088, 10.002635, 9.999103 
7.8504354e+2, 1.2537405e+2, -1875471.5, -1873918.5, -89155.086, 0.029951876, -0.1860486, -1785536.6, -74218.59, 0.0000000009851104, 9.9991865, 9.999285 
7.850459e+2, 1.3537578e+2, -1757887.8, -1706318.1, -27582.244, 0.118159525, -0.013860396, -1694345.4, -81037.84, 0.0, 9.999111, 9.999799 
7.8504884e+2, 1.4537582e+2, -1619119.1, -1565406.6, -4048.2893, 0.28228137, 0.0036348782, -1565103.3, -49793.28, 0.0, 9.999267, 10.000023 
7.850479e+2, 1.5537493e+2, -1450429.1, -1436170.5, -27188.193, 0.060145944, -0.109751955, -1415192.5, 2125.9692, 0.0, 9.999772, 9.999992 
7.850485e+2, 1.6537455e+2, -1373721.3, -1383151.6, -13672.582, -0.023395035, -0.1284833, -1363973.6, -44652.316, 0.0, 9.999783, 9.99967 
7.8505063e+2, 1.7537436e+2, -1345456.9, -1317404.4, -16698.97, 0.05351982, -0.1350957, -1309622.5, -88300.625, 0.0, 9.999304, 9.999678 
7.850525e+2, 1.8537387e+2, -1270702.6, -1287291.6, 28145.088, 0.05325324, -0.124711044, -1249655.3, -126327.81, 0.0, 9.9993725, 9.999188 
7.8505385e+2, 1.9537291e+2, -1107260.5, -1154801.1, 29316.0, -0.028916892, -0.15793276, -1093288.9, -67949.52, 0.0, 9.999815, 9.999208 
7.8505594e+2, 2.053724e+2, -891276.1, -1003633.0, 4729.971, -0.002230946, -0.1277607, -891077.4, 36268.895, 0.0, 10.000645, 9.999172 
7.8505874e+2, 2.1537203e+2, -641947.8, -834636.1, -31272.635, 0.122848324, -0.09921206, -636999.5, 192351.5, 0.0, 10.001689, 9.999159 
7.850604e+2, 2.253719e+2, -539275.4, -766452.44, 7666.1924, 0.10826883, -0.0100634135, -539016.94, 192336.81, 0.0, 10.001855, 9.998876 
7.850613e+2, 2.3537178e+2, -530915.9, -710895.25, 33215.93, -0.028772714, 0.06972681, -524981.44, 108375.43, 0.0, 10.001231, 9.998887 
7.8506297e+2, 2.4537058e+2, -490294.66, -652024.3, 29896.627, -0.04597544, 0.06865883, -484945.03, 50423.805, 0.0, 10.000898, 9.998769 
7.850655e+2, 2.5536826e+2, -397145.7, -555693.1, 4304.961, 0.043555092, -0.06166053, -397028.88, 40361.348, 0.0, 10.000856, 9.998779 
7.8506714e+2, 2.6536718e+2, -249337.92, -410539.84, 4321.9893, 0.048946913, -0.053392764, -249222.13, 90177.36, 0.0, 10.00111, 9.998986 
7.85068e+2, 2.753669e+2, -78397.47, -277913.66, 682.1078, -0.015070135, 0.002433264, -78395.14, 163005.89, 0.0000001311964, 10.001608, 9.998983 
7.8506935e+2, 2.8536588e+2, 18808.492, -260004.88, 2665.066, -0.038603105, 0.039315168, 18833.965, 162246.05, 0.0000058891046, 10.001943, 9.998269 
7.850713e+2, 2.9536423e+2, 134837.39, -152683.4, -37121.656, -0.01262526, 0.021671118, 139552.81, 184983.88, 0.000037489564, 10.002066, 9.99827 
7.8507376e+2, 3.0536303e+2, 199885.31, -99952.18, -59265.24, 0.047914177, 0.082147844, 211174.5, 211174.5, 0.00011865352, 10.002191, 9.998241 
7.850745e+2, 3.1536114e+2, 239764.52, -21904.756, -55980.008, -0.07439988, 0.04180053, 251237.52, 251237.52, 0.0002544846, 10.002157, 9.998792 
7.9504293e+2, 1.2537189e+2, -1761991.0, -1655927.9, -95755.336, 0.0017515932, -0.049915932, -1599499.8, 111850.58, 0.0000000034592607, 9.999263, 10.000749 
7.95046e+2, 1.353733e+2, -1646897.9, -1488126.3, -26565.826, 0.18893, -0.059985694, -1483799.1, 129533.04, 0.0, 9.999167, 10.001267 
7.950486e+2, 1.453738e+2, -1645751.3, -1620100.8, 2590.1887, 0.30244446, -0.04636851, -1619841.8, -104515.26, 0.0, 9.999266, 9.999646 
7.950468e+2, 1.5537316e+2, -1470876.4, -1481902.1, 2182.309, -0.05258548, -0.1026525, -1470460.1, -53124.543, 0.0, 9.999786, 9.999669 
7.950476e+2, 1.653732e+2, -1364865.3, -1361169.5, -40484.74, -0.10773159, -0.071930744, -1322490.5, -3153.948, 0.0, 9.9997635, 9.999834 
7.9505104e+2, 1.7537367e+2, -1330858.4, -1291890.6, -25436.016, 0.13172647, -0.027564567, -1279333.8, -58001.69, 0.0, 9.999318, 9.999849 
7.950529e+2, 1.8537377e+2, -1260451.4, -1251788.3, 36010.242, 0.13579655, 0.018370874, -1219850.0, -96518.19, 0.0, 9.999312, 9.999458 
7.950534e+2, 1.9537328e+2, -1095761.5, -1121518.9, 55510.832, -0.081394844, 0.0019097601, -1051655.0, -26317.305, 0.0, 9.999774, 9.999453 
7.950553e+2, 2.0537205e+2, -958723.75, -1120000.4, 34414.223, -0.14216043, -0.011400695, -951687.25, -24335.938, 0.0, 10.0005455, 9.998422 
7.9505867e+2, 2.153699e+2, -707192.94, -942843.56, 14498.6455, -0.070662454, -0.0879187, -706304.25, 123070.125, 0.0, 10.001572, 9.998472 
7.9506123e+2, 2.2536944e+2, -494382.8, -640499.25, -22688.969, -0.01392123, -0.04623894, -490940.75, 240438.06, 0.0, 10.001715, 9.999807 
7.9506326e+2, 2.3537031e+2, -485060.4, -593121.06, 20447.309, 0.025592016, 0.040753264, -481320.78, 152048.06, 0.0, 10.00113, 9.999745 
7.950646e+2, 2.4536932e+2, -530866.0, -719709.3, 18174.73, 0.00766969, 0.041127764, -529132.75, 6245.7715, 0.0, 10.000827, 9.998339 
7.9506546e+2, 2.5536647e+2, -437648.13, -621899.75, 11918.588, -0.062368777, -0.096885346, -436880.38, 526.8881, 0.0, 10.000777, 9.998364 
7.9506755e+2, 2.6536515e+2, -237475.39, -381854.75, 13611.694, -0.041540854, -0.10820898, -236203.33, 103215.38, 0.0, 10.001083, 9.999198 
7.9507047e+2, 2.7536488e+2, -75935.65, -262684.25, 30184.363, 0.05571023, -0.072325654, -71178.125, 170239.22, 0.000000103459534, 10.001558, 9.999114 
7.9507184e+2, 2.8536284e+2, -45506.684, -386819.78, -310.5809, -0.0074187173, -0.09251502, -45506.4, 97929.94, 0.0000054454867, 10.001915, 9.997411 
7.950715e+2, 2.9535934e+2, 62711.35, -286389.0, -18607.664, -0.22304791, -0.2105052, 63700.37, 109173.38, 0.00003447301, 10.001995, 9.997388 
7.950746e+2, 3.0535832e+2, 105126.21, -291014.9, -62825.01, -0.111501515, -0.026606346, 114851.055, 114851.055, 0.0001104858, 10.002161, 9.996944 
7.950784e+2, 3.1535727e+2, 195449.39, -94469.27, -20769.184, 0.04926173, 0.14722422, 196929.69, 196929.69, 0.000240168, 10.002068, 9.998339 
8.050421e+2, 1.2536927e+2, -1831085.9, -1582168.6, -2893.7542, 0.052273285, -0.02707525, -1582135.0, 129245.85, 0.0000000057252847, 9.998343, 10.001704 
8.0504453e+2, 1.3537076e+2, -1701654.9, -1430913.3, -36005.395, 0.17570277, -0.109089434, -1426206.8, 187149.27, 0.0, 9.998425, 10.002035 
8.0504715e+2, 1.4537165e+2, -1747977.8, -1678197.0, 18808.777, 0.27552643, -0.08972364, -1673450.1, -158105.14, 0.0, 9.998606, 9.999566 
8.0504656e+2, 1.5537119e+2, -1586928.5, -1551888.9, 10370.343, -0.011259088, -0.11564559, -1549049.6, -131695.67, 0.0, 9.999049, 9.999548 
8.0504763e+2, 1.6537131e+2, -1455240.6, -1425773.1, -43730.555, -0.051152375, -0.06181417, -1394361.0, -75005.2, 0.0, 9.99923, 9.999658 
8.0505043e+2, 1.7537181e+2, -1369742.3, -1332051.3, -70244.29, 0.15480402, 0.0061979685, -1278168.4, -56816.04, 0.0, 9.999146, 9.999664 
8.050525e+2, 1.8537189e+2, -1248765.1, -1257252.1, 5604.4507, 0.16661818, 0.06523333, -1245978.9, -122625.6, 0.0, 9.999447, 9.999353 
8.0505395e+2, 1.9537134e+2, -1073639.8, -1126369.5, -24422.043, -0.005275127, 0.057157874, -1064066.6, -38706.13, 0.0, 9.99999, 9.999323 
8.0505604e+2, 2.0537025e+2, -1001363.7, -1087774.0, -3653.3267, -0.09950041, 0.040956423, -1001209.5, -73837.64, 0.0, 10.000019, 9.998901 
8.050586e+2, 2.1536845e+2, -971549.5, -1017523.5, 47455.68, -0.123159796, -0.047502898, -941806.6, -112417.266, 0.0, 9.999532, 9.998943 
8.050613e+2, 2.2536783e+2, -795364.56, -797566.94, 18052.951, -0.07225261, -0.042051252, -778379.25, -46984.66, 0.0, 9.999708, 9.999689 
8.050641e+2, 2.3536803e+2, -600006.5, -660303.44, -31672.95, 0.040093374, -0.009031455, -586427.3, 46963.723, 0.0, 10.000403, 9.999628 
8.050661e+2, 2.4536718e+2, -462383.44, -683311.25, -17163.37, 0.056034874, 0.010542075, -461058.0, 74341.414, 0.0, 10.001272, 9.998382 
8.0506754e+2, 2.5536516e+2, -219907.08, -516555.3, -6750.46, -0.0054785833, -0.04972053, -219753.55, 217667.14, 0.0, 10.002259, 9.998384 
8.050696e+2, 2.6536375e+2, -91408.266, -376796.66, -21059.04, -0.0018468128, -0.040169448, -89862.67, 249571.45, 0.0, 10.002374, 9.998606 
8.050722e+2, 2.7536258e+2, -80564.19, -324913.25, -80314.28, 0.06368304, -0.038129106, -56529.965, 184913.3, 0.00000004701224, 10.001784, 9.998573 
8.0507374e+2, 2.8536013e+2, -23723.217, -376989.8, -59143.125, -0.007747203, -0.07349114, -14084.588, 129380.82, 0.000004093495, 10.002073, 9.997401 
8.050742e+2, 2.9535654e+2, 235941.02, -205735.4, -38213.43, -0.20308544, -0.20175299, 239222.81, 284722.84, 0.000029631305, 10.003196, 9.997362 
8.0507743e+2, 3.053545e+2, 271425.22, -251525.61, -29978.453, -0.09955029, -0.09465924, 273138.13, 273138.13, 0.00010221737, 10.003491, 9.99658 
8.0508125e+2, 3.153532e+2, 326201.34, -14816.7295, 55807.918, 0.09958077, 0.090197586, 335102.06, 335102.06, 0.00023173695, 10.002922, 9.998472 
8.150404e+2, 1.2536646e+2, -1803268.1, -1543829.5, -12597.719, -0.0033999558, -0.10388826, -1543219.1, 168187.88, 0.000000004999778, 9.998422, 10.001932 
8.150413e+2, 1.3536824e+2, -1686278.8, -1411589.0, -27851.797, -0.015872568, -0.1683499, -1408793.5, 204585.05, 0.0, 9.99848, 10.002137 
8.1504434e+2, 1.453694e+2, -1740710.3, -1667544.0, 23289.785, 0.11085257, -0.12834136, -1660759.6, -145395.02, 0.0, 9.998623, 9.999634 
8.150469e+2, 1.5536907e+2, -1576852.0, -1535324.8, 36187.85, 0.090210706, -0.1491227, -1514366.9, -96993.836, 0.0, 9.999069, 9.999651 
8.1504816e+2, 1.6536894e+2, -1495236.9, -1506559.3, -58029.07, 0.05634193, -0.09759997, -1442593.5, -123215.31, 0.0, 9.999221, 9.999106 
8.150486e+2, 1.7536879e+2, -1405565.8, -1408274.1, -63680.24, 0.035187088, -0.042790398, -1343225.4, -121842.83, 0.0, 9.999153, 9.999135 
8.150511e+2, 1.8536828e+2, -1295306.5, -1343839.9, 19262.965, 0.061481092, 0.012507685, -1288590.4, -165198.98, 0.0, 9.999401, 9.998784 
8.150554e+2, 1.9536719e+2, -1113221.8, -1199778.3, 5153.9077, 0.11144544, 0.0052896272, -1112916.0, -87509.13, 0.0, 9.9999485, 9.998839 
8.1505764e+2, 2.0536712e+2, -904888.9, -861616.1, -31324.533, 0.045325045, 0.030218398, -845182.06, 82225.03, 0.0, 9.999907, 10.00051 
8.1505835e+2, 2.1536773e+2, -880363.25, -803807.56, 39314.523, -0.11819967, 0.021576738, -787214.44, 42181.266, 0.0, 9.999424, 10.0004635 
8.150604e+2, 2.2536702e+2, -892802.2, -970625.56, 34713.98, -0.15021685, 0.0044821696, -879568.1, -148166.89, 0.0, 9.999583, 9.998562 
8.150635e+2, 2.3536488e+2, -690170.06, -822155.1, 4018.8599, -0.076031215, -0.08472619, -690047.8, -56624.02, 0.0, 10.000295, 9.9985695 
8.150671e+2, 2.4536413e+2, -440647.1, -616236.3, 11165.278, 0.016448054, -0.030053925, -439939.97, 95492.0, 0.0, 10.001178, 9.998889 
8.1507134e+2, 2.553644e+2, -202953.23, -461563.66, 36392.48, 0.13046035, 0.08760004, -197929.56, 239500.06, 0.0, 10.002173, 9.998804 
8.1507313e+2, 2.6536304e+2, -190807.44, -571594.7, -50893.938, 0.09105426, 0.15159212, -184122.58, 155322.6, 0.0, 10.002325, 9.997292 
8.150728e+2, 2.7536005e+2, -184512.56, -514291.22, -88392.68, -0.08615568, 0.10425701, -162314.33, 79163.99, 0.000000004527389, 10.001677, 9.997323 
8.150748e+2, 2.8535765e+2, 28381.604, -263489.78, -26710.016, -0.13107763, 0.0918336, 30805.783, 174305.56, 0.0000024308686, 10.002043, 9.998198 
8.150791e+2, 2.9535574e+2, 273103.34, -109502.72, 12268.895, -0.056522645, 0.05423365, 273496.38, 319008.75, 0.00002455122, 10.003114, 9.998065 
8.150821e+2, 3.0535164e+2, 307226.47, -173775.61, -55784.676, -0.0050996374, -0.10258586, 313611.4, 313611.4, 0.00009685274, 10.003477, 9.997117 
8.150823e+2, 3.1534827e+2, 355245.0, 78749.82, 64914.133, -0.12942205, -0.18734582, 369726.72, 369726.72, 0.00023260323, 10.002784, 9.999181 
8.250392e+2, 1.2536544e+2, -1817591.9, -1646276.8, 82244.914, 0.029770885, -0.07941493, -1613184.9, 98229.53, 0.0000000017683296, 9.998711, 10.001085 
8.2503957e+2, 1.353659e+2, -1684722.3, -1525885.8, -57407.246, -0.055836987, -0.17579135, -1507309.9, 106093.31, 0.0, 9.998972, 10.001116 
8.250427e+2, 1.4536682e+2, -1664533.8, -1612533.1, -10681.496, 0.06219059, -0.1195598, -1610424.5, -95031.31, 0.0, 9.999075, 9.999787 
8.250464e+2, 1.5536705e+2, -1552173.0, -1511170.1, -15959.185, 0.13960452, -0.09798251, -1505690.8, -88295.9, 0.0, 9.999189, 9.999755 
8.250481e+2, 1.6536677e+2, -1430308.8, -1487396.3, -70305.03, 0.110589124, -0.061304923, -1382974.0, -63573.03, 0.0, 9.999723, 9.998985 
8.2504815e+2, 1.7536591e+2, -1209179.0, -1330739.3, -66893.32, 0.014322917, -0.06605505, -1179576.9, 41835.332, 0.0, 10.000568, 9.998984 
8.250507e+2, 1.8536535e+2, -1128035.0, -1230480.3, 58679.5, 0.039729677, -0.021465404, -1101366.4, 22054.48, 0.0, 10.000414, 9.999072 
8.2505536e+2, 1.9536485e+2, -1184000.1, -1201883.3, 88722.266, 0.15298, 0.0019001573, -1103770.0, -78340.195, 0.0, 9.99934, 9.999111 
8.2505786e+2, 2.053651e+2, -987292.0, -909608.25, 50257.582, 0.11107242, 0.0514069, -884932.3, 42494.59, 0.0, 9.999382, 10.000423 
8.2505876e+2, 2.1536589e+2, -757847.56, -757183.44, -25225.527, -0.059758507, 0.06716435, -732287.75, 97127.555, 0.0, 10.0003195, 10.000351 
8.250609e+2, 2.2536503e+2, -719215.0, -909219.0, -23785.102, -0.11330896, 0.050415482, -716282.8, 15139.726, 0.0, 10.000862, 9.998377 
8.250641e+2, 2.3536247e+2, -595338.75, -798174.5, -5208.8906, -0.0682248, -0.061277483, -595205.06, 38243.586, 0.0, 10.001033, 9.998385 
8.2506806e+2, 2.4536134e+2, -509168.38, -663865.25, 17048.455, 0.015123455, -0.02848078, -507311.8, 28148.229, 0.0, 10.000779, 9.998751 
8.250725e+2, 2.553613e+2, -495474.84, -612453.4, -22515.451, 0.13386044, 0.070663765, -491290.84, -53830.49, 0.0, 10.000227, 9.998699 
8.2507473e+2, 2.6535982e+2, -423399.5, -697711.25, -59741.848, 0.099571675, 0.13817073, -410953.16, -71476.39, 0.0, 10.000787, 9.99717 
8.2507485e+2, 2.753569e+2, -105525.01, -489577.16, -26311.82, -0.06566321, 0.10896598, -103730.74, 137779.1, 0.0, 10.002272, 9.99721 
8.250776e+2, 2.8535476e+2, 93064.945, -242672.84, 50726.77, -0.078625806, 0.1288076, 100561.87, 244091.44, 0.000001518397, 10.002538, 9.998102 
8.250826e+2, 2.9535306e+2, 65590.65, -213638.55, 4752.8057, 0.054786343, 0.12599353, 65671.52, 111211.28, 0.000022026383, 10.001707, 9.998026 
8.250853e+2, 3.0534843e+2, 94922.44, -197383.48, -64981.08, 0.060150404, -0.12233346, 108717.06, 108717.06, 0.00009707927, 10.001676, 9.997815 
8.250851e+2, 3.1534517e+2, 304942.44, 88108.92, 30582.361, -0.0962539, -0.2745583, 309173.25, 309173.25, 0.00024343694, 10.002276, 9.99948 
8.350378e+2, 1.253662e+2, -1949992.0, -1921570.6, 69241.63, -0.027835408, 0.04046819, -1865096.5, -153693.77, 0.000000000051048894, 9.998719, 9.999192 
8.350391e+2, 1.3536389e+2, -1807892.1, -1793947.0, -40282.637, -0.032413818, -0.13216023, -1760037.9, -146609.33, 0.0, 9.999032, 9.999244 
8.3504176e+2, 1.4536405e+2, -1655201.4, -1602908.1, -18008.195, 0.033446096, -0.065887205, -1597306.6, -81877.555, 0.0, 9.99911, 9.999839 
8.350449e+2, 1.5536514e+2, -1540656.9, -1492250.4, -2051.3289, 0.03583842, 0.030017368, -1492163.5, -74744.26, 0.0, 9.999208, 9.999874 
8.350472e+2, 1.6536479e+2, -1418116.6, -1450298.5, -47593.99, 0.024475003, 0.0411453, -1383967.1, -64543.266, 0.0, 9.999676, 9.999266 
8.3504903e+2, 1.7536321e+2, -1187405.0, -1282560.6, -26259.924, 0.014622046, -0.060816098, -1180639.3, 40801.348, 0.0, 10.000562, 9.999316 
8.350512e+2, 1.8536319e+2, -1055689.0, -1076809.9, 7745.2026, 0.023149902, -0.034595303, -1053153.1, 70287.95, 0.0, 10.000393, 10.000142 
8.350537e+2, 1.9536419e+2, -1119825.1, -1058633.0, 59765.39, 0.03556416, 0.03161628, -1022087.25, 3343.2996, 0.0, 9.999292, 10.00012 
8.350565e+2, 2.0536415e+2, -1127934.8, -1176305.8, 75603.75, 0.014208407, 0.092879646, -1072742.3, -145309.67, 0.0, 9.999273, 9.998644 
8.350595e+2, 2.1536297e+2, -892294.7, -1009638.1, 18423.436, -0.035634425, 0.08754868, -889470.1, -60022.418, 0.0, 10.000207, 9.998667 
8.350627e+2, 2.2536193e+2, -686664.9, -814194.4, -28432.398, -0.041563593, 0.09765443, -680613.06, 50844.586, 0.0, 10.00074, 9.99909 
8.3506584e+2, 2.3536083e+2, -563429.3, -710434.5, 9344.76, -0.018013062, 0.060227454, -562837.6, 70627.54, 0.0, 10.000934, 9.999039 
8.350686e+2, 2.4535885e+2, -572674.2, -780397.6, -12907.706, -0.030471256, 0.017357271, -571875.25, -36392.254, 0.0, 10.00071, 9.997985 
8.3507085e+2, 2.5535592e+2, -555411.3, -723194.1, -29894.182, -0.07368702, -0.09636841, -550244.2, -112732.125, 0.0, 10.000161, 9.997973 
8.350742e+2, 2.653542e+2, -357278.84, -547446.25, -10142.489, -0.050869096, -0.0766497, -356739.44, -17210.547, 0.0, 10.000732, 9.998228 
8.350783e+2, 2.753533e+2, -49301.574, -355552.94, 38465.492, 0.03024166, -0.0075490056, -44544.17, 196993.13, 0.0, 10.002198, 9.998167 
8.3508164e+2, 2.8535154e+2, 23325.918, -377768.63, 11009.344, 0.058283314, 0.053323243, 23627.877, 167181.84, 0.0000012583888, 10.002498, 9.997192 
8.350844e+2, 2.9534867e+2, -8804.998, -346887.2, -12799.583, 0.03886509, 0.02437363, -8321.106, 37260.1, 0.000022671806, 10.001616, 9.997158 
8.350866e+2, 3.0534473e+2, 152381.81, -71435.79, -44525.926, 0.009926678, -0.15765786, 160914.44, 160914.44, 0.0001036696, 10.001647, 9.998696 
8.350888e+2, 3.153449e+2, 284696.63, 66032.33, 87077.89, -0.0020538624, -0.043853324, 315136.0, 315136.0, 0.0002623637, 10.002199, 9.999369 
8.4503746e+2, 1.2536356e+2, -1898510.4, -1917972.8, -69210.84, 0.053139642, 0.062866695, -1838349.9, -126918.97, 0.0, 9.99918, 9.998995 
8.450391e+2, 1.3536146e+2, -1753481.8, -1809319.5, -98601.94, 0.05216367, -0.048705686, -1678922.3, -65465.195, 0.0, 9.9996, 9.998864 
8.450413e+2, 1.4536133e+2, -1593101.4, -1553974.5, -14665.475, 0.060303733, -0.0014395659, -1549087.9, -33627.35, 0.0, 9.999462, 9.999999 
8.450438e+2, 1.5536192e+2, -1550014.1, -1483011.4, -15709.552, 0.011125671, 0.031414453, -1479510.9, -62057.125, 0.0, 9.999087, 9.999998 
8.450464e+2, 1.6536182e+2, -1475934.8, -1424121.9, -7779.112, 0.0132665895, 0.03411691, -1422979.1, -103524.836, 0.0, 9.999043, 9.999753 
8.450493e+2, 1.7536105e+2, -1365120.0, -1319394.5, 7478.2207, 0.070030734, -0.033703044, -1318202.5, -96741.18, 0.0, 9.999134, 9.999754 
8.450516e+2, 1.8536106e+2, -1199538.0, -1202355.4, -21044.219, 0.062701195, -0.00092199846, -1179855.4, -56393.676, 0.0, 9.999648, 9.999635 
8.450531e+2, 1.9536142e+2, -980571.0, -1052974.0, -106918.766, -0.011703538, 0.053621434, -903891.25, 121567.76, 0.0, 10.000504, 9.999578 
8.4505576e+2, 2.053608e+2, -978532.06, -1133301.5, -64890.027, -0.034828383, 0.096306965, -954926.1, -27458.959, 0.0, 10.0004225, 9.998392 
8.450596e+2, 2.1535903e+2, -1022613.4, -1103366.3, -29357.158, -0.007703314, 0.06410769, -1013068.9, -183581.73, 0.0, 9.999443, 9.998398 
8.4506327e+2, 2.2535792e+2, -839076.7, -876867.56, -3454.1272, 0.004447828, 0.07572045, -838763.56, -107265.96, 0.0, 9.999662, 9.999165 
8.450669e+2, 2.3535724e+2, -563479.94, -698261.7, -37145.496, -0.00063018216, 0.07093562, -553920.7, 79580.21, 0.0, 10.000905, 9.999122 
8.4506977e+2, 2.4535543e+2, -437928.63, -719653.06, -64572.332, -0.022895781, 0.040005952, -423833.6, 111683.61, 0.0, 10.001651, 9.997949 
8.4507203e+2, 2.5535232e+2, -299974.7, -598968.4, -46134.938, -0.0581528, -0.08515946, -293017.88, 144529.56, 0.0, 10.001917, 9.9979725 
8.450757e+2, 2.653504e+2, -165632.8, -435777.72, 13574.897, -0.022776907, -0.092884, -164952.38, 174612.5, 0.0, 10.001969, 9.998393 
8.4508085e+2, 2.7534938e+2, -83541.85, -349611.34, -21516.828, 0.08675055, -0.057312973, -81813.04, 159759.69, 0.0000000050987805, 10.001874, 9.998359 
8.450845e+2, 2.8534743e+2, -45699.676, -428586.9, -60893.53, 0.11263164, -0.014677385, -36248.594, 107342.21, 0.0000017149706, 10.002091, 9.997039 
8.450867e+2, 2.9534432e+2, 116127.85, -293365.0, -47195.094, 0.069470294, -0.057355568, 121496.81, 167118.72, 0.0000255943, 10.002502, 9.997091 
8.4508884e+2, 3.0534136e+2, 277285.78, -15916.743, -49478.035, 0.032274242, -0.13899592, 285410.1, 285410.1, 0.000114907256, 10.002524, 9.998664 
8.450923e+2, 3.1534183e+2, 232684.56, -19501.691, -19163.457, 0.13918449, 0.013058099, 234132.47, 234132.47, 0.00028673265, 10.00208, 9.998851 
8.5503757e+2, 1.25358e+2, -1806411.9, -1740353.8, -83098.516, 0.09638263, 0.011972878, -1683960.9, 27533.533, 0.0, 9.999232, 10.000194 
8.550395e+2, 1.353587e+2, -1678901.6, -1656067.3, -81320.875, 0.106227666, 0.07400847, -1585366.0, 28121.705, 0.0, 9.999618, 9.999902 
8.5504097e+2, 1.4535874e+2, -1571258.0, -1516900.8, -39631.11, 0.05512819, 0.07505376, -1496024.3, 19462.648, 0.0, 9.999487, 10.000248 
8.550427e+2, 1.5535751e+2, -1524098.3, -1438663.1, -14895.511, -0.023981372, -0.097196855, -1436140.6, -18643.295, 0.0, 9.999127, 10.000281 
8.550455e+2, 1.6535792e+2, -1435733.0, -1341856.3, -15397.451, -0.0048873248, -0.084881224, -1339395.3, -19903.756, 0.0, 9.9990425, 10.000322 
8.5504895e+2, 1.7535938e+2, -1326763.5, -1242490.4, 19453.2, 0.097522676, 0.0077328263, -1238216.6, -16742.121, 0.0, 9.999143, 10.000278 
8.5505146e+2, 1.8535894e+2, -1352232.6, -1510107.4, 3330.8281, 0.06963781, 0.07973713, -1352162.4, -228680.05, 0.0, 9.999605, 9.997546 
8.550532e+2, 1.9535665e+2, -1122435.1, -1341060.3, -67516.516, -0.07813065, 0.076812536, -1103265.4, -77751.79, 0.0, 10.000472, 9.997618 
8.5505563e+2, 2.053552e+2, -906081.44, -967993.6, -111192.55, -0.11237564, 0.07123188, -821616.3, 105912.59, 0.0, 10.000351, 9.999567 
8.550587e+2, 2.1535419e+2, -952845.75, -940574.06, -52635.695, -0.05354608, -0.0067116525, -893717.8, -64184.65, 0.0, 9.999359, 9.999559 
8.550625e+2, 2.2535305e+2, -900714.3, -973546.06, 35521.754, -0.053307194, -0.023426626, -886258.7, -154716.53, 0.0, 9.999531, 9.998565 
8.5506696e+2, 2.3535167e+2, -617759.6, -786182.25, 19322.844, -0.10044846, -0.037054405, -615571.2, 17985.22, 0.0, 10.000797, 9.99857 
8.550714e+2, 2.4535096e+2, -405877.38, -628999.25, -64261.05, -0.043792482, 0.03478269, -388693.13, 146870.14, 0.0, 10.00155, 9.998621 
8.5507566e+2, 2.5535047e+2, -270595.66, -516086.66, -28696.252, 0.1020636, 0.10329857, -267285.88, 170281.16, 0.0, 10.001821, 9.99859 
8.550793e+2, 2.6534846e+2, -220617.63, -535838.9, 96.71643, 0.121239014, 0.08796261, -220617.6, 118967.83, 0.0, 10.001905, 9.997741 
8.550823e+2, 2.7534497e+2, -141745.47, -448798.84, -12679.756, 0.02264268, -0.051398847, -141222.75, 100394.63, 0.0000001292932, 10.001779, 9.997728 
8.550856e+2, 2.8534243e+2, -9572.747, -334215.63, -51067.9, 0.0005654878, -0.07652748, -1729.0322, 141911.45, 0.0000031613251, 10.002014, 9.997722 
8.550892e+2, 2.9534015e+2, 147927.6, -209514.77, -21647.06, 0.044871468, -0.103018634, 149233.8, 194894.98, 0.000030116835, 10.002425, 9.997706 
8.5509163e+2, 3.053383e+2, 210779.88, -141653.47, -72223.71, 0.036941685, -0.060971294, 225006.31, 225006.31, 0.0001273879, 10.002483, 9.997817 
8.550951e+2, 3.153367e+2, 130637.95, -195825.13, -22724.416, 0.16375315, -0.019307233, 132212.16, 132212.16, 0.00031292601, 10.001941, 9.997706 
8.650368e+2, 1.2535338e+2, -1868684.0, -1655481.0, -26836.309, 0.14785974, 0.03258331, -1652155.0, 59390.566, 0.00000000000000000000885557, 9.99831, 10.00121 
8.65039e+2, 1.3535498e+2, -1698916.8, -1569461.8, -61083.938, 0.13665667, 0.08540067, -1545189.8, 68335.24, 0.0, 9.999037, 10.000785 
8.650404e+2, 1.4535531e+2, -1637408.6, -1556673.3, -46920.94, 0.07737355, 0.07804667, -1535144.9, -19624.805, 0.0, 9.999079, 10.000169 
8.650421e+2, 1.5535432e+2, -1605074.5, -1492636.8, -69291.195, 0.02871048, -0.059240744, -1459626.5, -42095.664, 0.0, 9.998632, 10.000157 
8.65045e+2, 1.6535476e+2, -1431097.8, -1330641.3, -43160.81, 0.05048667, -0.04091244, -1314644.6, 4880.8857, 0.0, 9.999045, 10.000383 
8.650489e+2, 1.7535616e+2, -1162575.3, -1161868.4, -72745.56, 0.12787269, 0.03981744, -1089475.4, 132033.31, 0.0, 10.00026, 10.000289 
8.650515e+2, 1.8535554e+2, -1230824.6, -1446543.0, -29257.537, 0.07581809, 0.09042556, -1226926.9, -103409.61, 0.0, 10.000429, 9.997577 
8.65053e+2, 1.9535299e+2, -1243019.0, -1395930.4, 42249.87, -0.09371884, 0.059460517, -1232121.8, -206572.16, 0.0, 9.999647, 9.997629 
8.650557e+2, 2.0535141e+2, -956797.7, -1006495.3, 41582.188, -0.12268846, 0.048156545, -933205.4, -5639.593, 0.0, 10.000078, 9.999421 
8.6505926e+2, 2.1535042e+2, -653513.25, -812844.6, -22750.346, -0.036461785, -0.0136997, -650328.44, 179241.75, 0.0, 10.0015, 9.999394 
8.650632e+2, 2.2534928e+2, -634243.6, -856277.5, 44601.992, -0.027534416, -0.016838206, -625619.06, 105960.055, 0.0, 10.001396, 9.998482 
8.650675e+2, 2.3534787e+2, -752766.06, -861928.4, 52804.336, -0.07937524, -0.024823701, -731403.8, -97810.61, 0.0, 9.999908, 9.998485 
8.6507225e+2, 2.4534693e+2, -658326.9, -761547.25, 5117.1665, -0.021093655, 0.035004187, -658073.8, -122471.695, 0.0, 9.999871, 9.998511 
8.650774e+2, 2.5534615e+2, -374469.6, -576540.9, -38549.47, 0.12953088, 0.08280901, -367365.22, 70244.2, 0.0, 10.001161, 9.998489 
8.6508125e+2, 2.6534426e+2, -258097.6, -541145.2, -23646.21, 0.14323604, 0.08216539, -256135.75, 83491.0, 0.0000000005766255, 10.00159, 9.997853 
8.6508393e+2, 2.7534133e+2, -205713.38, -464838.13, -528.1779, 0.041444033, -0.017548233, -205712.3, 35941.844, 0.000000514823, 10.00127, 9.997859 
8.6508733e+2, 2.8533888e+2, -92933.21, -339040.88, 15723.773, 0.018417351, -0.05753325, -91932.69, 51742.93, 0.0000054394536, 10.001275, 9.9980545 
8.6509144e+2, 2.953364e+2, 45318.715, -220081.1, 5834.176, 0.07760566, -0.1374996, 45446.902, 91143.09, 0.000035908153, 10.001547, 9.998062 
8.650941e+2, 3.05335e+2, 176697.06, -254771.34, -25080.031, 0.03662275, -0.023808619, 178150.0, 178150.0, 0.00014004746, 10.00266, 9.996946 
8.6509794e+2, 3.1533262e+2, 425708.88, -101362.016, -21324.072, 0.15619445, 0.020076167, 426570.2, 426570.2, 0.00033713353, 10.004187, 9.997252 
8.750342e+2, 1.2534998e+2, -1802083.5, -1532059.9, -28736.045, 0.012597326, 0.14352399, -1529035.6, 182546.14, 0.0000000055054987, 9.9983635, 10.002032 
8.750375e+2, 1.3535047e+2, -1633831.5, -1433978.6, -26928.846, 0.05708874, -0.012824018, -1430413.8, 183153.67, 0.0, 9.999041, 10.001704 
8.7503934e+2, 1.4535126e+2, -1674817.6, -1640098.8, -75868.055, 0.03872461, 0.01208462, -1579629.5, -64070.92, 0.0, 9.999099, 9.99959 
8.750414e+2, 1.5535243e+2, -1639341.6, -1565221.9, -74273.66, 0.08060923, 0.1426946, -1519275.6, -101722.23, 0.0, 9.998647, 9.999648 
8.7504464e+2, 1.6535248e+2, -1462955.1, -1403004.5, -5906.234, 0.0880155, 0.17183423, -1402428.1, -82873.23, 0.0, 9.999063, 9.999885 
8.750489e+2, 1.7535152e+2, -1188804.0, -1220851.5, -20298.16, 0.07944866, 0.06716127, -1178967.1, 42595.375, 0.0, 10.000276, 9.999877 
8.750514e+2, 1.8535097e+2, -1087639.1, -1144913.6, -67803.68, 0.0024919726, 0.03942473, -1042673.1, 80891.99, 0.0, 10.000407, 9.9996605 
8.750524e+2, 1.9535042e+2, -1107122.6, -1106912.0, 24460.668, -0.14059493, -0.0043505253, -1082556.4, -56988.902, 0.0, 9.999613, 9.99963 
8.750557e+2, 2.0534936e+2, -1078364.9, -1235257.6, 86146.6, -0.1467383, 0.016717276, -1040299.2, -112720.53, 0.0, 9.999975, 9.997902 
8.750609e+2, 2.1534772e+2, -771765.44, -1032232.56, 34993.168, -0.036793455, 0.04319334, -767146.1, 62452.48, 0.0, 10.001386, 9.997944 
8.750651e+2, 2.2534665e+2, -620208.56, -801171.7, -20943.465, 0.006176694, 0.09641562, -617816.3, 113791.99, 0.0, 10.001283, 9.998915 
8.7506825e+2, 2.3534586e+2, -739141.2, -809347.5, 9723.999, -0.01327199, 0.104505986, -737819.25, -104207.85, 0.0, 9.999802, 9.998897 
8.750722e+2, 2.4534342e+2, -733758.06, -900915.9, 44898.773, -0.031756558, 0.039005276, -722461.6, -186827.97, 0.0, 9.999792, 9.997596 
8.7507683e+2, 2.5533935e+2, -450483.16, -709078.8, 19727.676, -0.056059, -0.1466085, -448986.84, -11312.5625, 0.0, 10.001053, 9.997631 
8.750813e+2, 2.6533785e+2, -208321.34, -426581.16, -43184.773, -0.027257958, -0.109704904, -200087.45, 139601.52, 0.0000000691861, 10.001537, 9.998666 
8.7508553e+2, 2.7533838e+2, -162385.2, -356070.7, -1841.114, 0.04797399, 0.052483205, -162367.7, 79315.83, 0.000001269736, 10.001189, 9.998646 
8.7508947e+2, 2.853368e+2, -87401.48, -322990.84, 14569.231, 0.08307752, 0.05534112, -86503.914, 57192.035, 0.000008255043, 10.001252, 9.998179 
8.750933e+2, 2.9533297e+2, 42444.766, -212708.75, 28529.766, 0.07924086, -0.16650385, 45595.88, 91323.75, 0.000042714033, 10.001486, 9.998147 
8.7509614e+2, 3.053314e+2, 105983.28, -383635.25, 31492.844, -0.04500141, -0.028872583, 108000.625, 108000.625, 0.00015286829, 10.002585, 9.996094 
8.751006e+2, 3.1532863e+2, 399487.97, -130116.21, 45662.688, -0.057636503, 0.05700033, 403396.2, 403396.2, 0.00035722472, 10.004076, 9.99711 
8.8503283e+2, 1.2534603e+2, -1751341.8, -1528886.1, 14538.324, 0.023048963, 0.15011749, -1527940.0, 183681.03, 0.00000006865043, 9.998815, 10.001842 
8.85036e+2, 1.3534653e+2, -1776266.1, -1520179.6, -86705.49, 0.056528438, 0.014310185, -1493584.9, 120023.66, 0.0, 9.998135, 10.00156 
8.850382e+2, 1.453472e+2, -1743446.6, -1639440.9, -96994.24, 0.05395404, 0.020000748, -1581388.4, -65787.88, 0.0, 9.998495, 9.999875 
8.8504124e+2, 1.5534852e+2, -1420167.5, -1432341.9, -59847.477, 0.13604984, 0.13825715, -1366098.4, 51493.305, 0.0, 10.000034, 9.999885 
8.850447e+2, 1.653486e+2, -1305985.3, -1339567.5, 53850.117, 0.13231349, 0.16610639, -1266369.1, 53223.734, 0.0, 10.000207, 9.999769 
8.850484e+2, 1.7534763e+2, -1353234.5, -1308873.6, 50823.875, 0.060306, 0.074348554, -1275601.0, -53998.76, 0.0, 9.999198, 9.999793 
8.8505113e+2, 1.8534741e+2, -1182992.1, -1113233.3, -17101.832, -0.009026857, 0.048199475, -1109266.3, 14334.843, 0.0, 9.999418, 10.000353 
8.8505304e+2, 1.9534755e+2, -908544.7, -939091.9, -52208.063, -0.08604408, 0.005282003, -869421.9, 156172.02, 0.0, 10.000671, 10.000272 
8.8505673e+2, 2.0534658e+2, -983411.0, -1239640.9, 22072.791, -0.07102207, 0.028237281, -981523.44, -53919.76, 0.0, 10.000833, 9.997465 
8.850622e+2, 2.1534453e+2, -1006344.25, -1195324.6, 37111.434, 0.027276043, 0.05800134, -999317.7, -169688.2, 0.0, 9.999982, 9.997508 
8.850663e+2, 2.2534306e+2, -754591.9, -883433.5, 4081.552, 0.045265704, 0.10109173, -754462.7, -22819.05, 0.0, 10.000443, 9.998745 
8.8506913e+2, 2.3534188e+2, -424233.66, -677181.44, -35771.832, -0.009663166, 0.08690975, -419272.13, 214378.03, 0.0, 10.002054, 9.998714 
8.8507324e+2, 2.453393e+2, -369958.0, -719681.1, 37183.527, -0.026471492, 0.016616603, -366048.25, 169625.08, 0.0, 10.00226, 9.997651 
8.8507843e+2, 2.553353e+2, -409090.4, -684222.5, 63881.027, -0.013610329, -0.17012386, -394981.78, 42731.582, 0.00000000006372724, 10.001297, 9.997686 
8.8508296e+2, 2.6533392e+2, -267052.5, -454883.2, 22678.154, 0.00781814, -0.12669091, -264353.2, 75374.33, 0.00000025387644, 10.001132, 9.998669 
8.8508683e+2, 2.7533457e+2, -81583.26, -315235.1, -13931.485, 0.042442456, 0.048448034, -80755.52, 160965.84, 0.0000021793016, 10.001731, 9.998667 
8.8509125e+2, 2.8533313e+2, 46165.273, -262993.6, -4427.634, 0.09083752, 0.067645, 46228.67, 189961.75, 0.000011106664, 10.002217, 9.998111 
8.850961e+2, 2.953295e+2, 209311.67, -138118.97, -25920.422, 0.15957609, -0.12419388, 211234.84, 256998.56, 0.000049522223, 10.002668, 9.998082 
8.85099e+2, 3.0532768e+2, 96192.805, -370740.5, 27317.18, -0.0031143203, -0.019714415, 97785.516, 97785.516, 0.00016466355, 10.002437, 9.996266 
8.851026e+2, 3.1532532e+2, 49072.777, -226014.14, 71623.125, -0.114930175, 0.101436056, 66603.734, 66603.734, 0.00037254568, 10.001344, 9.997788 
8.950319e+2, 1.2534143e+2, -1839635.0, -1708649.4, -47044.266, 0.0045225737, 0.047136754, -1693504.3, 18159.85, 0.00000033567557, 9.9988165, 10.0006 
8.950344e+2, 1.3534334e+2, -1853771.3, -1681362.6, -106047.17, 0.05997119, 0.17755483, -1630902.5, -17256.186, 0.00000000007521531, 9.998153, 10.000439 
8.9503676e+2, 1.4534342e+2, -1664164.9, -1483242.3, -49591.58, 0.0320824, 0.12284841, -1470540.6, 45102.266, 0.0, 9.998524, 10.000938 
8.950414e+2, 1.5534282e+2, -1348226.5, -1285601.3, 6889.2617, 0.113940984, -0.05685005, -1284852.4, 132791.3, 0.0, 10.000043, 10.000891 
8.9504474e+2, 1.653433e+2, -1288396.8, -1307867.0, 5627.132, 0.0953506, -0.047046117, -1286887.5, 32750.357, 0.0, 10.00022, 9.999982 
8.950472e+2, 1.7534451e+2, -1337003.8, -1277846.3, 25415.516, -0.0021808539, 0.054220222, -1268427.0, -46798.586, 0.0, 9.999205, 10.000004 
8.9505047e+2, 1.853449e+2, -1239188.0, -1222561.8, 21555.127, -0.036322907, 0.11618201, -1207772.3, -84147.41, 0.0, 9.999382, 9.999622 
8.950546e+2, 1.9534442e+2, -966362.25, -1046303.1, 709.714, -0.017935783, 0.08612494, -966356.0, 59272.43, 0.0, 10.00061, 9.999567 
8.9505863e+2, 2.0534314e+2, -951998.7, -1152363.1, -19032.898, 0.019874409, 0.07857173, -950206.75, -22566.168, 0.0, 10.000738, 9.998109 
8.950628e+2, 2.1534093e+2, -981133.0, -1114325.4, 18254.121, 0.07457873, 0.026347153, -978676.56, -149014.23, 0.0, 9.999863, 9.998119 
8.950666e+2, 2.2533864e+2, -832741.5, -1019574.75, 56029.082, 0.01600455, 0.0012043136, -817227.3, -85543.16, 0.0, 10.000324, 9.997872 
8.9506996e+2, 2.3533608e+2, -497532.78, -802321.75, 31132.281, -0.15025139, -0.06457678, -494385.34, 139322.72, 0.0, 10.001934, 9.997913 
8.950751e+2, 2.4533467e+2, -311068.0, -580077.4, -8712.771, -0.08920816, -0.03108627, -310786.1, 224934.73, 0.0, 10.002181, 9.99865 
8.950817e+2, 2.5533405e+2, -359369.1, -555872.56, 38788.18, 0.16834639, 0.019038284, -351989.75, 85736.836, 0.0000000002378373, 10.00119, 9.998622 
8.950858e+2, 2.6533258e+2, -324851.47, -563183.0, 36949.06, 0.16493903, 0.04657047, -319254.63, 20486.385, 0.00000030747992, 10.001084, 9.997946 
8.950877e+2, 2.7533007e+2, -148195.75, -431326.5, 20122.34, -0.06753513, -0.015809633, -146772.78, 94993.16, 0.0000026197797, 10.001642, 9.9979105 
8.9509237e+2, 2.853279e+2, 18907.166, -315450.16, 3807.8933, -0.043673743, -0.013254331, 18950.527, 162737.03, 0.000013171274, 10.002189, 9.997766 
8.9509946e+2, 2.9532593e+2, 183334.13, -180863.89, 980.3983, 0.20801818, -0.01313186, 183336.77, 229141.1, 0.000055655084, 10.002612, 9.997816 
8.951024e+2, 3.0532378e+2, 167754.81, -205427.72, -20236.547, 0.07295955, 0.010118093, 168848.97, 168848.97, 0.00017577781, 10.0023775, 9.997424 
8.951035e+2, 3.1532088e+2, 135650.66, -8160.456, 45042.504, -0.19976875, -0.04131255, 148593.4, 148593.4, 0.0003866523, 10.001199, 9.999341 
9.050305e+2, 1.2533815e+2, -2037406.0, -1856318.8, 16632.37, 0.049489774, 0.046629693, -1854803.9, -143108.86, 0.0000010657902, 9.9976635, 10.000151 
9.050335e+2, 1.3533963e+2, -1678799.1, -1640233.3, -6441.7686, 0.09816792, 0.17159763, -1639185.8, -25502.234, 0.000000007369457, 9.99953, 10.000058 
9.050361e+2, 1.4533955e+2, -1458182.5, -1364833.1, 55716.95, 0.048981644, 0.10957215, -1338824.3, 176857.28, 0.0, 9.999851, 10.001108 
9.050403e+2, 1.55339e+2, -1490017.3, -1335045.5, 23618.93, 0.06630152, -0.0838116, -1331525.6, 86153.67, 0.0, 9.998985, 10.0010605 
9.050439e+2, 1.653394e+2, -1439210.6, -1395692.3, -6027.2183, 0.042111, -0.08261019, -1394873.0, -75199.37, 0.0, 9.999249, 9.99985 
9.050469e+2, 1.7534035e+2, -1159185.1, -1207206.1, -34014.465, -0.010032118, 0.006735744, -1141560.5, 80107.016, 0.0, 10.00049, 9.999868 
9.0505075e+2, 1.8534075e+2, -1081654.5, -1209308.4, -19461.617, -0.008125719, 0.101433784, -1078753.4, 44912.926, 0.0, 10.0007305, 9.999062 
9.050554e+2, 1.9534047e+2, -1070465.9, -1155647.1, -40145.91, 0.037815038, 0.1488034, -1054527.4, -28856.291, 0.0, 10.000136, 9.999048 
9.050597e+2, 2.0533922e+2, -943290.44, -1077937.3, -42319.895, 0.06519591, 0.1385387, -931093.94, -3411.6592, 0.0, 10.000498, 9.998731 
9.050635e+2, 2.1533686e+2, -671692.4, -899010.9, -30019.582, 0.07873902, 0.007780355, -667794.8, 161906.89, 0.0, 10.0017, 9.99871 
9.0506774e+2, 2.2533451e+2, -618732.0, -916920.7, 66659.82, 0.02981068, -0.05071665, -604508.7, 127214.16, 0.0, 10.0018, 9.997866 
9.050721e+2, 2.3533198e+2, -635799.2, -870718.2, 86816.76, -0.0782882, -0.10942363, -607197.44, 26550.244, 0.0, 10.000993, 9.997899 
9.050776e+2, 2.4533114e+2, -480893.22, -650169.2, 38894.34, 0.0066108187, -0.025873112, -472384.25, 63372.113, 0.0, 10.0009775, 9.99874 
9.050841e+2, 2.5533152e+2, -278669.75, -505369.78, 141.83676, 0.25822225, 0.116542, -278669.66, 159083.2, 0.0, 10.001703, 9.9987135 
9.0508807e+2, 2.653298e+2, -181703.94, -515971.5, 25407.033, 0.22736531, 0.1249, -179783.83, 159985.58, 0.0000002007212, 10.002173, 9.997745 
9.0509e+2, 2.753259e+2, -44024.89, -402349.47, 26833.05, -0.041999374, -0.05620734, -42026.65, 199779.92, 0.0000025589381, 10.002454, 9.997718 
9.050947e+2, 2.853236e+2, 45890.48, -334648.94, 44750.008, -0.039073773, -0.04503326, 51082.086, 194912.02, 0.000014749117, 10.0025015, 9.997495 
9.0510195e+2, 2.9532263e+2, 118580.95, -234222.86, 24368.578, 0.21133572, 0.08654567, 120256.17, 166097.27, 0.00006245814, 10.002268, 9.997618 
9.0510494e+2, 3.0532e+2, 190764.5, -120250.11, -19903.107, 0.10923213, 0.03741445, 192033.0, 192033.0, 0.00018870574, 10.002217, 9.998089 
9.05106e+2, 3.153168e+2, 296662.2, 113752.16, -42710.797, -0.107147954, -0.10387429, 306143.94, 306143.94, 0.00040376265, 10.002098, 9.999759 
9.150278e+2, 1.2533662e+2, -2006059.6, -1797809.8, 54857.055, -0.040713605, 0.17837769, -1784243.3, -72533.58, 0.000002613721, 9.997707, 10.000525 
9.150332e+2, 1.3533548e+2, -1651754.4, -1580398.9, 66432.01, 0.08986216, -0.003526805, -1540670.3, 73048.99, 0.00000007607973, 9.999519, 10.00047 
9.1503584e+2, 1.4533547e+2, -1510479.8, -1470512.6, 12028.421, 0.010128932, -0.04218619, -1467171.8, 48545.484, 0.0, 9.999835, 10.000392 
9.1503793e+2, 1.5533713e+2, -1534902.6, -1433594.5, 5165.252, -0.09502024, 0.056541488, -1433331.8, -15633.5625, 0.0, 9.999007, 10.000374 
9.1504174e+2, 1.653371e+2, -1473033.3, -1466181.6, 30051.582, -0.114929155, 0.07135257, -1439361.3, -119662.76, 0.0, 9.999254, 9.999362 
9.150472e+2, 1.7533536e+2, -1198191.0, -1283084.5, 19643.684, -0.04867126, -0.05752479, -1193866.0, 27851.727, 0.0, 10.000469, 9.999357 
9.1505176e+2, 1.8533504e+2, -1111388.9, -1261800.6, -50273.22, -0.008233895, 0.008627888, -1096133.0, 27591.184, 0.0, 10.000688, 9.998725 
9.150554e+2, 1.9533578e+2, -1104820.9, -1208104.6, -48709.914, 0.002904504, 0.19188248, -1085473.0, -59751.76, 0.0, 10.000057, 9.998728 
9.1505957e+2, 2.0533495e+2, -919773.5, -1006985.8, -4484.4297, -0.013102503, 0.21108794, -919543.5, 8184.4897, 0.0, 10.000401, 9.999264 
9.150642e+2, 2.1533246e+2, -652580.7, -829423.5, 20950.336, -0.045604013, 0.016336102, -650132.6, 179613.23, 0.0, 10.001574, 9.999247 
9.150694e+2, 2.2533077e+2, -574966.3, -804504.0, 25405.23, -0.00054373825, -0.04625738, -572188.1, 159570.88, 0.0, 10.0016985, 9.998691 
9.150752e+2, 2.353296e+2, -598422.94, -767496.4, 67245.29, 0.11734151, -0.052194137, -574939.4, 58830.133, 0.0, 10.00088, 9.998663 
9.1508037e+2, 2.4532875e+2, -547080.94, -770697.5, 58824.234, 0.17111951, 0.03528788, -532550.8, 3228.272, 0.0, 10.000901, 9.997952 
9.15085e+2, 2.5532788e+2, -344669.53, -625418.3, 37553.88, 0.1700014, 0.1338627, -339733.0, 98057.88, 0.0, 10.001625, 9.9979315 
9.150893e+2, 2.6532567e+2, -167572.69, -476323.88, 28197.484, 0.116418436, 0.11498925, -165018.61, 174793.52, 0.00000011562638, 10.00213, 9.998037 
9.1509324e+2, 2.75322e+2, -35571.895, -365642.25, 48605.484, 0.022841923, -0.07502798, -28563.176, 213280.81, 0.0000025826089, 10.00237, 9.998012 
9.1509795e+2, 2.8532007e+2, 22830.61, -366070.78, 26138.775, 0.016326386, -0.028392145, 24579.578, 168443.3, 0.000017159802, 10.002432, 9.997311 
9.1510314e+2, 2.9531962e+2, 90040.22, -276060.38, 28971.76, 0.08139182, 0.17220236, 92318.75, 138192.56, 0.00007135739, 10.002192, 9.99737 
9.151064e+2, 3.0531633e+2, 187097.22, -108883.484, -27113.371, 0.020990632, 0.06380695, 189560.45, 189560.45, 0.00020552066, 10.002141, 9.998199 
9.151094e+2, 3.1531262e+2, 251601.17, 48733.92, -27450.553, -0.026789168, -0.14636299, 255249.97, 255249.97, 0.00042645857, 10.001985, 9.999359 
9.250269e+2, 1.2533325e+2, -1730371.5, -1654425.0, 55288.99, 0.02400629, 0.18075319, -1625324.9, 86417.17, 0.0000053718704, 9.99954, 10.00063 
9.250319e+2, 1.3533221e+2, -1744291.3, -1604570.1, 16100.327, 0.057465125, -0.012982476, -1602738.9, 11010.8125, 0.00000033393198, 9.998792, 10.000665 
9.250347e+2, 1.4533225e+2, -1678482.8, -1596048.9, -25030.074, -0.022534015, -0.034707595, -1589044.0, -73296.09, 0.0, 9.998873, 10.000001 
9.250375e+2, 1.5533379e+2, -1429227.3, -1428082.3, -32962.383, -0.08072617, 0.092612, -1395687.4, 22044.826, 0.0, 9.999925, 9.999973 
9.250418e+2, 1.6533361e+2, -1344747.1, -1430984.0, 46814.59, -0.07670985, 0.124762975, -1324219.6, -4484.8247, 0.0, 10.000239, 9.999127 
9.250477e+2, 1.753318e+2, -1294472.1, -1353819.0, 38327.156, -0.015177098, 0.010601081, -1275674.0, -53919.332, 0.0, 9.999911, 9.99914 
9.2505234e+2, 1.8533099e+2, -1189293.4, -1277665.3, -428.2115, 0.02513586, 0.029588966, -1189291.4, -65526.9, 0.0, 10.000064, 9.998916 
9.250561e+2, 1.9533084e+2, -1011989.75, -1139886.1, 17370.59, 0.043104984, 0.10184544, -1009672.5, 16094.997, 0.0, 10.000601, 9.998928 
9.250605e+2, 2.0533004e+2, -872240.56, -995925.7, 96272.33, 0.022684474, 0.12139671, -819659.06, 108114.51, 0.0, 10.000776, 9.999166 
9.250655e+2, 2.153285e+2, -786460.7, -902527.56, 61478.465, -0.023142852, 0.031148218, -759951.3, 69833.01, 0.0, 10.000687, 9.999178 
9.250709e+2, 2.2532733e+2, -700521.75, -839200.25, 7938.8535, 0.028559957, 0.012076611, -700068.75, 31724.402, 0.0, 10.000734, 9.998909 
9.2507654e+2, 2.353263e+2, -577261.0, -733543.56, -14769.259, 0.16468681, -0.0013977385, -575877.5, 57924.297, 0.0, 10.000923, 9.998872 
9.2508173e+2, 2.4532513e+2, -472996.16, -735936.8, 43055.54, 0.19052953, 0.044091627, -466125.5, 69688.39, 0.0, 10.00141, 9.9979515 
9.2508644e+2, 2.553236e+2, -259520.02, -580950.75, 61849.445, 0.12138833, 0.07351817, -248029.75, 189801.63, 0.0, 10.0022, 9.997961 
9.250913e+2, 2.6532128e+2, -156393.52, -489251.9, 48585.254, 0.10049447, 0.05543129, -149446.81, 190406.88, 0.00000007319143, 10.002271, 9.997886 
9.250964e+2, 2.753181e+2, -145345.9, -431071.94, 20403.275, 0.13729794, -0.07600981, -143896.3, 97986.56, 0.0000027897247, 10.001662, 9.997903 
9.2510056e+2, 2.853164e+2, -102360.91, -387286.72, 28740.395, 0.098421395, -0.016924042, -99490.78, 44409.605, 0.000020180585, 10.0014105, 9.99765 
9.251041e+2, 2.9531607e+2, 12796.179, -278190.03, 48184.95, -0.0029388345, 0.16012679, 20567.658, 66476.016, 0.00008284934, 10.001508, 9.997681 
9.251079e+2, 3.0531314e+2, 155452.6, -136184.05, 36136.434, -0.030130459, 0.081774, 159863.52, 159863.52, 0.00022869528, 10.001944, 9.998115 
9.251128e+2, 3.153097e+2, 288190.53, 13404.142, -22865.035, 0.101778, -0.09727486, 290080.16, 290080.16, 0.00046065266, 10.002445, 9.9988985 
9.350273e+2, 1.253276e+2, -1743932.0, -1669447.0, -5671.882, 0.05435839, 0.003614262, -1669017.6, 42778.652, 0.000009857008, 9.999497, 10.000543 
9.3502945e+2, 1.3532987e+2, -1733185.3, -1597024.8, -5201.93, -0.09258697, 0.13680795, -1596826.4, 16947.719, 0.0000009955157, 9.998861, 10.000679 
9.3503267e+2, 1.4533004e+2, -1682429.0, -1618192.1, 1368.8771, -0.14618845, 0.13856395, -1618163.0, -102391.16, 0.00000000002439963, 9.998931, 9.999824 
9.350387e+2, 1.5532896e+2, -1442547.5, -1450945.0, 14258.313, 0.023473468, 0.023072276, -1431882.6, -14101.212, 0.0, 9.999905, 9.999826 
9.3504375e+2, 1.6532895e+2, -1341639.9, -1416618.6, 22942.012, 0.07095045, 0.07035317, -1335177.1, -15394.38, 0.0, 10.000205, 9.999244 
9.3504804e+2, 1.7532973e+2, -1284400.5, -1334956.0, 36903.625, 0.0075412164, 0.20460983, -1264947.5, -43169.277, 0.0, 9.999919, 9.999267 
9.350525e+2, 1.8532869e+2, -1151046.4, -1189426.4, 12458.062, 0.0056195906, 0.16284281, -1147357.1, -23570.559, 0.0, 10.000027, 9.99954 
9.3505704e+2, 1.9532575e+2, -981565.06, -1060535.4, 44952.03, 0.061919365, -0.105791576, -961219.1, 64590.29, 0.0, 10.000534, 9.999507 
9.35062e+2, 2.0532465e+2, -922043.7, -1087612.8, 80828.92, 0.08138053, -0.114684105, -889127.8, 38690.676, 0.0, 10.00072, 9.998566 
9.350672e+2, 2.1532501e+2, -846152.8, -1002630.75, 66735.34, 0.066494994, 0.04912241, -821557.25, 8259.722, 0.0, 10.000576, 9.998549 
9.350718e+2, 2.2532423e+2, -747220.7, -907754.9, 7827.7505, 0.036997776, 0.12177404, -746839.94, -15014.95, 0.0, 10.000611, 9.998497 
9.3507594e+2, 2.3532218e+2, -620901.06, -799682.2, 3433.0264, -0.004471615, 0.045354884, -620835.2, 13008.979, 0.0, 10.0008135, 9.998474 
9.3508124e+2, 2.4532035e+2, -430428.3, -627216.44, 63194.63, -0.011700795, 0.0037530675, -411882.4, 123977.86, 0.0, 10.001323, 9.998739 
9.350878e+2, 2.5531852e+2, -222108.92, -483438.1, 99217.664, 0.026697744, -0.07189304, -188708.34, 249167.2, 0.0, 10.002107, 9.99868 
9.3509376e+2, 2.653166e+2, -203870.25, -566121.8, 19171.709, 0.10373929, -0.06062318, -202858.44, 137036.69, 0.00000003612581, 10.002181, 9.997398 
9.35099e+2, 2.7531433e+2, -192935.56, -507794.2, 10678.632, 0.2135382, -0.04874529, -192573.8, 49347.92, 0.0000027030533, 10.001573, 9.9974165 
9.3510246e+2, 2.853128e+2, -48897.367, -269011.1, 25405.547, 0.12090934, 0.0056331204, -46003.113, 97934.664, 0.000022488803, 10.001371, 9.998484 
9.351044e+2, 2.95312e+2, 62727.445, -170977.39, 66909.49, -0.141469, 0.05084649, 80527.8, 126472.13, 0.000095232324, 10.001483, 9.998434 
9.3510896e+2, 3.0531043e+2, 127855.67, -183371.34, 50911.453, -0.13911647, 0.08788201, 135972.25, 135972.25, 0.0002574787, 10.001907, 9.997805 
9.3511564e+2, 3.1530863e+2, 233012.66, -70877.89, 21244.467, 0.10143012, 0.09941299, 234490.63, 234490.63, 0.0005076494, 10.002322, 9.998376 
9.450265e+2, 1.25323e+2, -1905511.5, -1753162.9, -23942.203, 0.09511922, -0.0115014715, -1749488.9, -37647.676, 0.000016753027, 9.998394, 10.00051 
9.450288e+2, 1.3532561e+2, -1700373.5, -1585372.6, -59448.406, -0.044046648, 0.16088566, -1560166.3, 53650.344, 0.000002343361, 9.999101, 10.000648 
9.4503254e+2, 1.4532591e+2, -1570088.9, -1549519.4, 7313.689, -0.08384831, 0.16964097, -1547184.1, -31370.932, 0.0000000053592455, 9.999641, 9.999948 
9.4503903e+2, 1.5532449e+2, -1391541.5, -1417200.9, 18561.543, 0.05908182, 0.007559798, -1381807.3, 36017.746, 0.0, 10.000209, 9.999914 
9.4504416e+2, 1.6532448e+2, -1341404.9, -1399579.9, 15143.818, 0.10044204, 0.043561235, -1337698.9, -17873.078, 0.0, 10.000141, 9.999385 
9.4504815e+2, 1.7532553e+2, -1330946.1, -1342458.6, 9448.611, 0.04891833, 0.19100101, -1325638.5, -103820.19, 0.0, 9.99954, 9.9993925 
9.450526e+2, 1.8532465e+2, -1179899.0, -1208922.6, 23345.918, 0.033742063, 0.16297443, -1166922.1, -43097.36, 0.0, 9.99986, 9.99948 
9.4505775e+2, 1.9532183e+2, -916272.8, -1036272.6, -9893.746, 0.053489357, -0.08966639, -915462.56, 110383.95, 0.0, 10.001016, 9.999437 
9.4506294e+2, 2.0532058e+2, -868678.8, -1080121.4, -8795.017, 0.082119584, -0.100051336, -868313.6, 59544.004, 0.0, 10.001172, 9.998393 
9.4506824e+2, 2.1532065e+2, -879335.25, -1032301.75, -9570.917, 0.12293672, 0.047811497, -878738.75, -48878.176, 0.0, 10.000417, 9.998412 
9.450729e+2, 2.2531964e+2, -741559.44, -892180.7, 26709.85, 0.086670056, 0.09705372, -736963.2, -5092.508, 0.0, 10.000596, 9.998613 
9.45077e+2, 2.3531745e+2, -493792.25, -721898.4, 43942.188, -0.012679364, -0.002864339, -485620.03, 148269.13, 0.0, 10.001622, 9.998615 
9.4508266e+2, 2.4531566e+2, -407352.88, -626876.7, 79024.63, -0.009917205, -0.04127662, -381864.75, 154040.14, 0.0, 10.001525, 9.998644 
9.4508976e+2, 2.5531405e+2, -473386.3, -608119.2, 32841.098, 0.09827402, -0.08974971, -465807.6, -27887.656, 0.0, 10.000401, 9.99864 
9.4509554e+2, 2.6531273e+2, -437895.5, -637953.56, -13355.348, 0.15893573, -0.034554083, -437007.88, -97073.35, 0.000000027783642, 10.000396, 9.997768 
9.4510007e+2, 2.7531147e+2, -193947.67, -466347.94, 22630.89, 0.18254757, 0.040025566, -192080.31, 49871.44, 0.000002329391, 10.001384, 9.997798 
9.451037e+2, 2.8530973e+2, 26386.98, -219719.92, 53288.27, 0.092070244, 0.048241213, 37429.73, 181398.14, 0.000023981273, 10.001835, 9.998604 
9.451065e+2, 2.9530755e+2, 106496.055, -134029.31, 22878.646, -0.08776794, -0.053223368, 108652.914, 154637.72, 0.000106754764, 10.001725, 9.9985695 
9.451117e+2, 3.0530646e+2, 82086.8, -218707.22, 20234.207, -0.040775683, 0.031914283, 83441.836, 83441.836, 0.00028782972, 10.001661, 9.997685 
9.451181e+2, 3.1530547e+2, 114387.29, -136951.58, -24826.316, 0.16467524, 0.14091793, 116816.07, 116816.07, 0.00056179153, 10.001547, 9.998304 
9.550239e+2, 1.253197e+2, -1908766.1, -1764836.4, -23007.344, -0.05626107, 0.15191138, -1761248.0, -49373.773, 0.00002677623, 9.998432, 10.000401 
9.550298e+2, 1.3531962e+2, -1713278.1, -1601393.3, -27852.848, 0.12172343, 0.06314778, -1594843.0, 19032.459, 0.0000047533053, 9.999064, 10.0005455 
9.550341e+2, 1.4531979e+2, -1546445.8, -1492502.6, 16674.424, 0.07726414, 0.043114748, -1487764.6, 28107.553, 0.000000046136613, 9.999603, 10.00036 
9.5503813e+2, 1.5532039e+2, -1355542.3, -1353697.5, 47847.676, -0.07336708, 0.040653557, -1306763.3, 111099.69, 0.0, 10.000257, 10.000328 
9.550427e+2, 1.6532029e+2, -1329101.0, -1382050.8, -16768.475, -0.08251434, 0.044842247, -1324237.4, -4374.324, 0.0, 10.000174, 9.999492 
9.550477e+2, 1.7531934e+2, -1324285.6, -1329898.5, -2483.3801, 0.03353036, -0.01854871, -1323344.6, -101471.01, 0.0, 9.999542, 9.999479 
9.550527e+2, 1.8531904e+2, -1229020.5, -1308603.5, 58134.625, 0.030917615, 0.037016746, -1198363.5, -74485.39, 0.0, 9.9998455, 9.998805 
9.550577e+2, 1.9531903e+2, -969621.94, -1134348.1, 40201.063, -0.07347649, 0.13935974, -960334.6, 65544.47, 0.0, 10.000961, 9.998791 
9.550629e+2, 2.0531787e+2, -862761.4, -1050308.8, -47012.227, -0.051903337, 0.15457202, -851636.75, 76254.3, 0.0, 10.001093, 9.998639 
9.550683e+2, 2.1531545e+2, -881340.0, -1006881.7, -26530.361, 0.07464203, 0.028744707, -875963.6, -46048.543, 0.0, 10.000287, 9.998652 
9.550738e+2, 2.253136e+2, -710522.1, -798331.06, 57408.258, 0.10352041, -0.05161948, -682154.06, 49775.508, 0.0, 10.000472, 9.999316 
9.5507944e+2, 2.3531206e+2, -468257.72, -641730.1, 91087.42, 0.05137096, -0.15434578, -429216.0, 204721.95, 0.0, 10.001502, 9.9992285 
9.5508546e+2, 2.45311e+2, -487092.4, -765446.44, 29591.584, 0.10279962, -0.1023228, -483981.34, 51967.527, 0.0, 10.001418, 9.997739 
9.5509183e+2, 2.5531018e+2, -546141.4, -741247.56, 3198.3806, 0.24801281, 0.01949094, -546088.94, -108124.76, 0.0, 10.000323, 9.997761 
9.550964e+2, 2.653097e+2, -363670.1, -468112.94, 16354.019, 0.19440843, 0.13717823, -361169.22, -21197.666, 0.000000030362223, 10.000332, 9.998963 
9.5509946e+2, 2.753093e+2, -125266.82, -308897.03, 70788.055, -0.040068705, 0.18119587, -101146.76, 140827.7, 0.000002140531, 10.00132, 9.998912 
9.5510405e+2, 2.8530687e+2, -21937.545, -302796.53, 40259.04, -0.07634056, 0.0993239, -16280.65, 127713.664, 0.000025889522, 10.001763, 9.998064 
9.5511e+2, 2.9530266e+2, 58074.055, -217448.47, 29573.639, 0.06470473, -0.15287821, 61212.633, 107242.51, 0.000117742304, 10.00165, 9.998032 
9.5511574e+2, 3.0530137e+2, 80005.17, -207330.38, 14043.077, 0.18443716, -0.07012378, 80689.875, 80689.875, 0.00031737162, 10.0015955, 9.997797 
9.5511985e+2, 3.1530097e+2, 128533.13, -92814.93, 6135.812, 0.13866949, 0.083713755, 128703.086, 128703.086, 0.0006187192, 10.00148, 9.998643 
9.650228e+2, 1.2531534e+2, -1873002.4, -1792101.3, 63758.58, -0.012926464, 0.14598624, -1757044.3, -45132.105, 0.000040530904, 9.998859, 10.00001 
9.6502954e+2, 1.3531408e+2, -1702072.8, -1632294.9, 7827.849, 0.18804455, -0.027850736, -1631427.6, -17501.605, 0.000008656152, 9.999294, 10.000224 
9.650343e+2, 1.4531425e+2, -1578975.6, -1487343.4, 54076.938, 0.16247247, -0.04046965, -1462283.3, 53640.04, 0.00000019058375, 9.999309, 10.000526 
9.65038e+2, 1.5531576e+2, -1500380.8, -1403440.1, 41294.53, -0.052895643, 0.032445125, -1388234.6, 29671.158, 0.0, 9.999198, 10.000486 
9.6504253e+2, 1.6531573e+2, -1390715.9, -1409854.5, -18536.275, -0.09465272, 0.036213465, -1379424.6, -59519.582, 0.0, 9.99975, 9.999504 
9.650478e+2, 1.7531413e+2, -1122622.0, -1233366.0, -28615.559, 0.017026126, -0.09285325, -1115665.0, 106256.4, 0.0, 10.00093, 9.999476 
9.650531e+2, 1.8531393e+2, -1050142.8, -1218789.4, 67909.4, 0.032196753, -0.027491996, -1026197.4, 97728.414, 0.0, 10.001049, 9.998849 
9.6505857e+2, 1.9531474e+2, -1071690.9, -1179188.0, 86307.12, -0.037277717, 0.14967437, -1023764.4, 2157.2205, 0.0, 10.000231, 9.998842 
9.650637e+2, 2.0531397e+2, -971394.0, -1056404.4, 40329.883, -0.03121834, 0.18215576, -955305.75, -27375.826, 0.0, 10.00017, 9.999029 
9.6506846e+2, 2.1531163e+2, -775849.06, -912114.4, 52055.9, 0.039430227, 0.025055487, -758238.6, 71712.73, 0.0, 10.000837, 9.999026 
9.650744e+2, 2.2530997e+2, -637282.4, -778185.06, 144322.02, 0.094564356, -0.048353586, -547134.1, 184830.44, 0.0, 10.001033, 9.999192 
9.6508145e+2, 2.3530872e+2, -578011.06, -700074.0, 101575.305, 0.14889489, -0.11091416, -520541.97, 113430.23, 0.0, 10.000774, 9.999175 
9.650875e+2, 2.453077e+2, -553821.94, -793538.8, 45350.133, 0.19201192, -0.057869352, -545529.4, -9546.139, 0.0, 10.000934, 9.9977865 
9.650926e+2, 2.5530672e+2, -375096.53, -653086.44, 75018.55, 0.23473538, 0.04702981, -356144.1, 81854.49, 0.0, 10.001481, 9.99781 
9.6509707e+2, 2.6530588e+2, -161447.23, -395251.0, 116652.79, 0.1529204, 0.1385031, -113200.93, 226807.53, 0.000000012060779, 10.001818, 9.998748 
9.65101e+2, 2.7530488e+2, -54880.14, -298041.44, 46294.84, -0.040094845, 0.1440879, -46364.414, 195652.11, 0.0000023356135, 10.001897, 9.998705 
9.6510607e+2, 2.853024e+2, -40150.35, -322497.38, -25205.125, -0.04257354, 0.06677087, -37917.94, 106119.11, 0.000028869204, 10.001689, 9.99796 
9.651121e+2, 2.9529855e+2, -14273.203, -265099.3, -26166.18, 0.13154738, -0.13754424, -11572.623, 34496.418, 0.00012890252, 10.001218, 9.997909 
9.6511817e+2, 3.0529687e+2, 99446.266, -242780.06, 10972.132, 0.2598045, -0.06632757, 99797.69, 99797.69, 0.00034520676, 10.001912, 9.997398 
9.6512264e+2, 3.1529534e+2, 397424.88, 36125.473, -62514.79, 0.18417045, 0.012208613, 407935.88, 407935.88, 0.0006746709, 10.003349, 9.998612 
9.750228e+2, 1.2530966e+2, -1902565.6, -1861321.6, 50169.805, 0.03937345, -0.05152073, -1827700.9, -115743.805, 0.000058506626, 9.998892, 9.999517 
9.750278e+2, 1.3530904e+2, -1726363.5, -1691304.5, 26474.697, 0.064663544, -0.11343761, -1677082.0, -63114.824, 0.00001444443, 9.999333, 9.999797 
9.75033e+2, 1.4530945e+2, -1585747.4, -1511913.9, 39429.895, 0.07423552, -0.07539825, -1494816.1, 21148.607, 0.0000005546723, 9.9993515, 10.00034 
9.7503847e+2, 1.5531068e+2, -1516209.6, -1433858.4, 48853.05, 0.043768995, -0.010105779, -1411143.0, 6809.289, 0.0, 9.999188, 10.000283 
9.7504336e+2, 1.653108e+2, -1396057.3, -1419855.5, 12887.035, -0.015477897, 0.021746853, -1390416.0, -70464.62, 0.0, 9.99974, 9.999443 
9.750479e+2, 1.7530984e+2, -1123506.3, -1239687.0, 19203.078, -0.0817056, -0.03956288, -1120414.6, 101547.516, 0.0, 10.000944, 9.999428 
9.750536e+2, 1.8530932e+2, -1000546.8, -1110240.3, 29853.848, -0.045966785, -0.038884275, -992948.25, 131019.984, 0.0, 10.001025, 9.999605 
9.7506016e+2, 1.9530898e+2, -1028757.6, -1074839.8, 66754.2, 0.08003581, -0.052438255, -981179.9, 44793.047, 0.0, 10.000165, 9.999588 
9.7506505e+2, 2.0530899e+2, -949995.25, -992942.7, 54458.863, 0.066527426, -0.004872289, -912929.4, 15043.623, 0.0, 10.000083, 9.99951 
9.7506833e+2, 2.1530907e+2, -761061.1, -858057.6, 82852.57, -0.07109875, 0.033258554, -713556.1, 116414.84, 0.0, 10.000731, 9.999453 
9.750744e+2, 2.2530858e+2, -714316.5, -908882.8, 123446.71, -0.024615461, 0.09890025, -654427.44, 77549.61, 0.0, 10.00091, 9.998349 
9.750828e+2, 2.3530734e+2, -657746.6, -828129.2, 100870.12, 0.18973397, 0.12116719, -610906.3, 23086.213, 0.0, 10.000617, 9.998368 
9.750885e+2, 2.4530573e+2, -495255.8, -652868.3, 55711.09, 0.18248364, 0.10288458, -477552.22, 58455.527, 0.0, 10.000847, 9.998796 
9.750917e+2, 2.5530353e+2, -318579.8, -521940.0, 104419.89, -0.025039423, -0.013855474, -274512.34, 163512.27, 0.0, 10.001417, 9.998744 
9.7509706e+2, 2.6530114e+2, -279637.3, -624437.25, 110563.7, -0.049217463, -0.045798797, -247229.86, 92817.4, 0.0000000034767167, 10.001751, 9.997204 
9.7510445e+2, 2.752983e+2, -168901.86, -519856.7, 60328.516, 0.08853445, -0.068958625, -158821.05, 83256.42, 0.0000028342504, 10.001832, 9.997212 
9.751095e+2, 2.8529635e+2, -24363.203, -281989.78, -50693.184, 0.108931, -0.03795405, -14747.224, 129348.164, 0.000032313746, 10.001657, 9.998257 
9.751124e+2, 2.95295e+2, -2334.3486, -232435.81, -26859.334, 0.015392872, -0.018796466, 759.3003, 46862.953, 0.00013997531, 10.001183, 9.998154 
9.7511864e+2, 3.052926e+2, 18096.94, -389829.8, 59390.848, 0.09956298, 0.020691955, 26567.863, 26567.863, 0.00037147623, 10.001823, 9.9964285 
9.751258e+2, 3.1528816e+2, 332659.9, -62499.246, 28323.168, 0.12016598, -0.0996064, 334679.66, 334679.66, 0.0007275027, 10.003199, 9.998003 
9.850216e+2, 1.2530321e+2, -2023210.1, -1866987.9, -2145.4473, 0.097372256, -0.17884861, -1866958.4, -154941.47, 0.00008108169, 9.997844, 9.999988 
9.8502654e+2, 1.3530423e+2, -1679645.4, -1625775.6, 8692.163, 0.010325613, -0.11736334, -1624407.9, -10398.074, 0.000022462764, 9.999457, 10.0001955 
9.850322e+2, 1.4530478e+2, -1534624.1, -1532092.1, 16360.189, 0.042423937, -0.06447569, -1516949.0, -942.3708, 0.0000013019285, 9.999885, 9.999948 
9.85038e+2, 1.5530492e+2, -1498772.0, -1464018.1, -9512.239, 0.07035164, -0.07262535, -1461585.0, -43578.08, 0.0, 9.999469, 9.999939 
9.850434e+2, 1.6530517e+2, -1422236.1, -1389290.4, 28376.793, 0.041776273, -0.032805342, -1372951.6, -52945.836, 0.0, 9.999381, 9.999823 
9.850487e+2, 1.7530534e+2, -1290531.5, -1274543.4, 47590.027, -0.023462515, -0.013562319, -1234280.6, -12275.806, 0.0, 9.999614, 9.999823 
9.850544e+2, 1.8530516e+2, -1182822.0, -1180316.1, 21497.992, 0.0064124903, -0.009435574, -1160034.6, -36026.746, 0.0, 9.999697, 9.999767 
9.850603e+2, 1.9530438e+2, -1105671.0, -1093946.3, -5619.798, 0.11110793, -0.08249238, -1091687.6, -65671.01, 0.0, 9.999562, 9.99975 
9.850653e+2, 2.0530441e+2, -959135.8, -972024.1, 15917.926, 0.09507806, -0.052035462, -948407.1, -20390.926, 0.0, 9.99989, 9.999758 
9.8506945e+2, 2.1530491e+2, -766583.7, -834744.3, 9991.145, -0.024329862, 0.0040596183, -765149.4, 64860.105, 0.0, 10.000571, 9.999697 
9.850755e+2, 2.2530471e+2, -756070.25, -963310.0, 48166.277, 0.0075626657, 0.10045606, -745422.6, -13408.304, 0.0, 10.000766, 9.998045 
9.850832e+2, 2.3530364e+2, -694482.06, -879534.1, 48511.203, 0.18120088, 0.16881225, -682536.06, -48504.617, 0.0, 10.000504, 9.998071 
9.8508906e+2, 2.4530192e+2, -490000.4, -630491.94, 45551.008, 0.16057572, 0.14688246, -476524.25, 59523.234, 0.0, 10.000813, 9.998961 
9.8509306e+2, 2.5529936e+2, -269390.56, -483720.25, 9274.449, -0.035939503, -0.023034982, -268990.0, 169075.16, 0.0, 10.001689, 9.9988785 
9.850991e+2, 2.652966e+2, -241057.42, -627865.8, 28727.516, -0.039026383, -0.084670044, -238935.53, 101154.414, 0.00000001775074, 10.002113, 9.997012 
9.851069e+2, 2.752936e+2, -138972.02, -527226.06, 57438.03, 0.14287114, -0.107080474, -130652.92, 111469.63, 0.000003544514, 10.002134, 9.997022 
9.851119e+2, 2.8529158e+2, 59982.75, -279014.78, -14985.749, 0.14889844, -0.049978312, 60643.92, 204785.53, 0.00003520851, 10.002392, 9.997929 
9.851141e+2, 2.9529038e+2, 215611.9, -162564.05, -54509.574, -0.0037455882, 0.011618777, 223312.03, 269462.63, 0.00014919741, 10.002828, 9.997843 
9.851204e+2, 3.052875e+2, 142384.89, -344405.16, 82764.29, 0.056861874, 0.025371034, 156071.7, 156071.7, 0.00039500848, 10.002733, 9.996304 
9.851283e+2, 3.1528315e+2, 163010.56, -135718.1, 86479.82, 0.12118133, -0.06938158, 186239.58, 186239.58, 0.00077432854, 10.001966, 9.998106 
9.950187e+2, 1.2529619e+2, -1927725.6, -1673711.9, 29975.201, -0.021096895, -0.21947679, -1670222.6, 41867.14, 0.000108580556, 9.997874, 10.001293 
9.9502575e+2, 1.3529973e+2, -1593825.0, -1446797.9, 72057.4, -0.041902002, -0.037264094, -1417372.0, 196681.0, 0.000033028722, 9.99946, 10.00142 
9.950318e+2, 1.4530034e+2, -1574011.0, -1614963.1, -13411.639, -0.016017167, -0.0065181977, -1570009.6, -53961.742, 0.0000026281716, 9.999886, 9.999381 
9.9503636e+2, 1.5529853e+2, -1526270.9, -1532674.4, -15663.0205, -0.061986387, -0.15223399, -1513485.6, -95416.875, 0.00000000019976186, 9.999512, 9.99945 
9.9504244e+2, 1.6529885e+2, -1363858.8, -1271115.8, 27595.875, -0.01511391, -0.12506747, -1263525.8, 56541.832, 0.0, 9.999394, 10.000626 
9.9505e+2, 1.7530073e+2, -1234298.4, -1162139.3, 63881.047, 0.11994527, -0.017876193, -1124853.1, 97196.27, 0.0, 9.999626, 10.000591 
9.950554e+2, 1.8530138e+2, -1219656.8, -1249743.3, 5180.3887, 0.110861525, 0.056743126, -1218789.8, -94744.8, 0.0, 9.999668, 9.999305 
9.950587e+2, 1.9530079e+2, -1140434.8, -1158133.6, -1998.0928, -0.026031815, 0.046487786, -1140212.0, -114158.04, 0.0, 9.999526, 9.999328 
9.9506414e+2, 2.0530015e+2, -969425.94, -969219.25, 30556.955, -0.025507981, 0.029873023, -938765.44, -10705.368, 0.0, 9.999791, 9.999825 
9.950714e+2, 2.1529928e+2, -779555.44, -831081.44, 42854.652, 0.098681726, -0.057959303, -755315.9, 74749.984, 0.0, 10.00044, 9.999785 
9.950775e+2, 2.2529854e+2, -762323.6, -940072.3, 29753.309, 0.11572999, -0.031185808, -757475.44, -25400.832, 0.0, 10.000613, 9.998276 
9.9508244e+2, 2.352977e+2, -696985.2, -856415.1, 48639.418, 0.037048273, 0.03744439, -683317.8, -49229.953, 0.0, 10.000387, 9.998283 
9.950889e+2, 2.452963e+2, -550028.56, -739182.75, 68156.836, 0.03978835, 0.07338426, -528028.75, 8073.3823, 0.0, 10.000739, 9.998251 
9.9509645e+2, 2.552942e+2, -328409.25, -583962.9, 50751.73, 0.11233899, 0.018081106, -318699.13, 119420.38, 0.0, 10.001589, 9.998239 
9.9510276e+2, 2.6529238e+2, -179147.34, -480996.16, 22090.225, 0.105669096, 0.026680937, -177539.28, 162596.02, 0.000000028595345, 10.002034, 9.998059 
9.95108e+2, 2.752906e+2, -83848.91, -391411.22, 70893.48, 0.022975102, 0.026422473, -68294.51, 173857.61, 0.000003781716, 10.002043, 9.997999 
9.951128e+2, 2.8528804e+2, -14263.148, -413787.9, -8071.4336, -0.015296342, 0.021831362, -14100.151, 130076.83, 0.000036350866, 10.002308, 9.997043 
9.9511707e+2, 2.9528466e+2, 153266.52, -281007.03, -26987.123, -0.015488037, -0.04481626, 154937.16, 201146.61, 0.00015454051, 10.002784, 9.997047 
9.951233e+2, 3.0528164e+2, 183942.52, -253068.05, 50402.734, 0.05901481, -0.042474438, 189680.39, 189680.39, 0.00041140616, 10.002714, 9.996942 
9.9512935e+2, 3.1527996e+2, 188874.75, -34769.23, 90109.234, -0.014736706, 0.06987554, 220662.75, 220662.75, 0.0008072552, 10.0017805, 9.998883 
1.0050177e+3, 1.2529111e+2, -1756434.0, -1595959.0, 134168.56, 0.036556125, -0.14835595, -1519865.9, 192274.84, 0.00014134821, 9.999072, 10.001247 
1.0050247e+3, 1.3529395e+2, -1682821.3, -1489103.8, 47834.043, -0.05153647, -0.033270124, -1477936.1, 136174.34, 0.000046426092, 9.998861, 10.001407 
1.0050311e+3, 1.452946e+2, -1681994.4, -1599000.1, -36669.105, -0.01681439, -0.026433684, -1585120.0, -69016.195, 0.00000474816, 9.998865, 9.999976 
1.0050355e+3, 1.5529372e+2, -1533303.5, -1474210.5, 19676.88, -0.083105326, -0.13831352, -1468258.0, -50143.32, 0.000000004412824, 9.999203, 10.000002 
1.0050416e+3, 1.6529424e+2, -1380266.8, -1292517.3, 88391.516, -0.025998348, -0.10792027, -1237710.4, 82400.95, 0.0, 9.999326, 10.000524 
1.00504965e+3, 1.7529581e+2, -1296708.8, -1201296.4, 40567.633, 0.14369033, -0.022754267, -1186379.8, 35717.84, 0.0, 9.999234, 10.000516 
1.0050553e+3, 1.8529646e+2, -1213963.1, -1216154.8, 7193.672, 0.14749357, 0.041774135, -1207782.3, -83689.39, 0.0, 9.999588, 9.999564 
1.0050589e+3, 1.9529611e+2, -1004950.9, -1066436.1, 33280.527, 0.0044207256, 0.030556768, -990386.7, 35711.016, 0.0, 10.000357, 9.999549 
1.00506455e+3, 2.0529552e+2, -884892.75, -966618.5, 84313.34, 0.0003921184, 0.02380325, -832061.9, 96042.25, 0.0, 10.000531, 9.999482 
1.00507185e+3, 2.1529453e+2, -854402.3, -904035.6, 45899.125, 0.11765169, -0.043488525, -827040.44, 3073.5364, 0.0, 10.000087, 9.999453 
1.0050782e+3, 2.252937e+2, -733140.56, -875522.3, 62743.277, 0.13002297, -0.0314436, -709437.5, 22685.563, 0.0, 10.000595, 9.998733 
1.0050838e+3, 2.3529276e+2, -439672.25, -687929.44, 78477.9, 0.048762478, -0.01712722, -416944.8, 217189.16, 0.0, 10.001955, 9.998692 
1.0050905e+3, 2.4529134e+2, -336549.03, -688485.25, 120931.99, 0.046163347, 0.02136575, -299000.56, 237147.9, 0.0, 10.002425, 9.997787 
1.0050983e+3, 2.5528932e+2, -287357.28, -609241.94, 102626.1, 0.11892754, 0.020696932, -257421.25, 180746.53, 0.0, 10.002077, 9.997823 
1.0051047e+3, 2.6528773e+2, -203960.73, -465952.84, 52315.508, 0.11736521, 0.05566407, -193900.5, 146282.16, 0.000000017098808, 10.00176, 9.998285 
1.0051099e+3, 2.7528617e+2, -155659.63, -400580.3, 20864.275, 0.044681992, 0.054908272, -153894.95, 88301.55, 0.000003428396, 10.001448, 9.998215 
1.0051153e+3, 2.852835e+2, -31421.174, -445804.44, 11500.24, 0.0119824, 0.043740515, -31102.258, 113119.89, 0.00003625069, 10.002284, 9.996837 
1.0051209e+3, 2.9527977e+2, 325197.1, -222422.6, 18584.398, 0.031167187, -0.03785341, 325827.06, 372086.38, 0.00015742959, 10.004048, 9.996849 
1.0051272e+3, 3.0527654e+2, 425674.97, -78867.22, 44348.12, 0.106830895, -0.0742033, 429543.4, 429543.4, 0.0004215928, 10.004126, 9.997461 
1.0051323e+3, 3.1527567e+2, 328930.6, 69363.7, 40090.3, 0.06892817, 0.06711693, 334981.5, 334981.5, 0.0008275706, 10.002563, 9.999234 
1.0150178e+3, 1.2528792e+2, -1845111.6, -1788619.8, 88205.59, 0.08430899, 0.02214162, -1724247.9, -12077.5625, 0.0001798155, 9.999107, 9.999904 
1.0150232e+3, 1.3528688e+2, -1763426.8, -1672511.1, 47573.254, -0.11439332, -0.117858015, -1652169.0, -37987.254, 0.000062927356, 9.998917, 10.000123 
1.01502985e+3, 1.4528759e+2, -1564853.0, -1358183.9, -36462.414, -0.060737368, -0.13042864, -1351939.5, 164234.92, 0.000007860604, 9.998877, 10.001621 
1.015035e+3, 1.5529044e+2, -1424733.5, -1248820.0, 40542.918, -0.07324132, -0.031472333, -1239925.8, 178218.97, 0.000000028517778, 9.999206, 10.001546 
1.0150408e+3, 1.6529144e+2, -1445078.9, -1430566.0, 74190.625, -0.070424646, 0.021106217, -1363277.8, -43141.305, 0.0, 9.999338, 9.99957 
1.01504736e+3, 1.7529067e+2, -1355503.1, -1331028.9, 46527.066, -0.028996052, -0.03394092, -1295156.6, -73007.74, 0.0, 9.99926, 9.999616 
1.015054e+3, 1.8529047e+2, -1152717.4, -1083725.9, 26163.771, 0.03832828, -0.059357032, -1074926.1, 49225.15, 0.0, 9.999563, 10.000486 
1.0150606e+3, 1.9529045e+2, -953194.06, -943919.3, 69170.71, 0.119608104, -0.12795499, -879230.7, 146916.63, 0.0, 10.000286, 10.000426 
1.01506606e+3, 2.0529056e+2, -954721.06, -1085468.4, 57579.527, 0.086069554, -0.06996651, -932979.2, -4831.1865, 0.0, 10.000423, 9.998716 
1.01507045e+3, 2.1529058e+2, -917729.94, -1014912.06, 37649.582, -0.0467761, 0.04047098, -904850.8, -74696.28, 0.0, 9.999999, 9.998733 
1.0150773e+3, 2.2529009e+2, -706889.75, -789707.25, 103635.52, -0.026831707, 0.08803351, -636696.5, 95464.266, 0.0, 10.000463, 9.999383 
1.0150867e+3, 2.3528889e+2, -414400.94, -603965.6, 135934.17, 0.12824781, 0.011256829, -343467.28, 290701.72, 0.0, 10.001821, 9.9993305 
1.01509355e+3, 2.4528717e+2, -374504.47, -733290.75, 97353.63, 0.10073911, -0.000121431265, -349790.7, 186394.33, 0.0, 10.002282, 9.997548 
1.0150983e+3, 2.5528476e+2, -320105.94, -654315.9, 99042.8, -0.09665748, -0.017464668, -292959.7, 145250.33, 0.0, 10.00198, 9.9975605 
1.01510465e+3, 2.652825e+2, -252378.78, -553268.56, 33404.996, -0.08204896, -0.0013625848, -248714.75, 91518.01, 0.000000011022683, 10.001698, 9.997718 
1.0151124e+3, 2.7528027e+2, -197944.5, -476747.4, 24760.938, 0.119001426, -0.017393634, -195762.52, 46492.633, 0.0000031084232, 10.001394, 9.997718 
1.0151192e+3, 2.8527814e+2, -9580.041, -389317.8, 69955.7, 0.1528844, 0.023010965, 2897.2979, 147173.8, 0.000035475467, 10.002241, 9.997241 
1.0151252e+3, 2.9527584e+2, 329113.72, -176447.08, 94692.22, 0.031794533, 0.047126405, 346267.66, 392566.5, 0.00015859005, 10.0039, 9.997228 
1.0151314e+3, 3.0527222e+2, 437247.16, -34347.215, -20917.82, 0.09853863, -0.061274637, 438173.16, 438173.16, 0.00042792913, 10.004032, 9.997814 
1.0151363e+3, 3.1527016e+2, 313201.75, 70170.2, 13632.4, 0.1730717, -0.08109066, 313964.06, 313964.06, 0.0008407522, 10.002433, 9.999295 
1.0250176e+3, 1.2528326e+2, -1805254.4, -1773728.6, 43112.516, 0.14741921, 0.060443357, -1743587.6, -31371.459, 0.00022439056, 9.999387, 9.999884 
1.0250221e+3, 1.3528122e+2, -1924890.9, -1758092.3, 83477.734, -0.05462719, -0.16665266, -1723491.6, -109254.99, 0.0000828242, 9.997839, 10.000065 
1.0250287e+3, 1.4528167e+2, -1758581.5, -1457833.4, 58222.633, 0.0042768563, -0.19889192, -1446955.4, 69276.64, 0.000012107546, 9.997563, 10.001575 
1.0250337e+3, 1.5528516e+2, -1519871.4, -1298756.8, -10256.7295, -0.08660326, -0.033926867, -1298282.0, 119915.14, 0.00000009714164, 9.998561, 10.001514 
1.0250394e+3, 1.6528645e+2, -1495127.5, -1425440.4, 4932.72, -0.10322816, 0.03468036, -1425092.9, -104907.04, 0.0, 9.99888, 9.999819 
1.0250464e+3, 1.752857e+2, -1418385.1, -1331531.5, 47725.65, -0.021979315, -0.043753866, -1310432.1, -88235.695, 0.0, 9.998713, 9.99987 
1.02505356e+3, 1.8528546e+2, -1250666.4, -1142731.0, 74881.18, 0.07375881, -0.07880288, -1104396.4, 19802.328, 0.0, 9.998931, 10.000389 
1.0250609e+3, 1.9528542e+2, -1076166.5, -1013663.5, 25145.754, 0.16509657, -0.14055648, -1004803.1, 21393.162, 0.0, 9.999481, 10.000337 
1.0250665e+3, 2.052855e+2, -1015106.0, -1118537.1, 2740.6353, 0.11632202, -0.07713279, -1015033.44, -86835.914, 0.0, 10.00004, 9.998675 
1.0250707e+3, 2.1528552e+2, -832717.75, -980357.4, 16568.305, -0.048006043, 0.040057138, -830881.25, -677.4936, 0.0, 10.00062, 9.9986725 
1.02507785e+3, 2.2528507e+2, -657013.4, -771452.5, 114753.99, -0.034706503, 0.09806842, -586004.44, 146204.9, 0.0, 10.000833, 9.99933 
1.0250879e+3, 2.3528405e+2, -594430.94, -695951.1, 75228.45, 0.13527407, 0.04426862, -554439.1, 79776.98, 0.0, 10.000618, 9.999278 
1.02509506e+3, 2.4528241e+2, -577177.1, -775368.3, 32941.984, 0.114785, 0.02112137, -571845.1, -35614.887, 0.0, 10.000662, 9.998031 
1.0250998e+3, 2.5528002e+2, -449820.53, -667626.9, 64962.574, -0.0834245, -0.04102518, -431916.6, 6336.8486, 0.0, 10.00088, 9.997995 
1.0251065e+3, 2.652776e+2, -260149.61, -603146.44, 77146.71, -0.064973235, -0.042456567, -243596.64, 96681.2, 0.00000001218603, 10.001831, 9.997317 
1.0251151e+3, 2.75275e+2, 66364.75, -389843.97, 61053.895, 0.15918945, -0.05704161, 74394.195, 316699.22, 0.0000027111198, 10.003384, 9.997355 
1.0251224e+3, 2.85273e+2, 183228.81, -305438.44, 99234.02, 0.1959866, 0.016587326, 202611.53, 346937.94, 0.00003356273, 10.003623, 9.997145 
1.02512866e+3, 2.9527116e+2, 138476.3, -281593.72, 61120.664, 0.06399889, 0.099177, 147188.72, 193534.1, 0.00015687123, 10.002651, 9.997105 
1.0251348e+3, 3.0526718e+2, 242328.97, -176775.5, -93061.09, 0.09135464, -0.014065847, 262063.69, 262063.69, 0.00042992222, 10.002914, 9.997368 
1.0251394e+3, 3.1526446e+2, 511052.3, 87153.73, -154276.63, 0.16861248, -0.05200701, 561255.25, 561255.25, 0.0008482756, 10.004122, 9.998603 
1.0350165e+3, 1.252771e+2, -1706911.4, -1583523.0, -67479.04, 0.04665144, -0.02981695, -1553786.4, 158491.95, 0.00027553758, 9.999449, 10.001159 
1.0350211e+3, 1.3527703e+2, -1849649.0, -1601862.4, 32682.867, 0.049297478, -0.1761884, -1597624.0, 16650.379, 0.000106410545, 9.997844, 10.001137 
1.03502735e+3, 1.4527695e+2, -1869571.4, -1698457.4, 82680.64, 0.08477991, -0.22788045, -1665035.0, -148758.86, 0.000017580353, 9.997603, 9.999907 
1.0350312e+3, 1.5527791e+2, -1624118.0, -1523134.3, 33523.08, -0.2093848, -0.15048982, -1513019.0, -94746.75, 0.00000023822265, 9.998589, 9.999965 
1.0350375e+3, 1.6527933e+2, -1396544.3, -1217089.3, -13906.955, -0.20937273, -0.069246806, -1216017.9, 104241.14, 0.0, 9.998872, 10.00125 
1.0350463e+3, 1.7528091e+2, -1328061.9, -1138356.6, 50508.684, 0.084863685, -0.054552965, -1125746.9, 96492.74, 0.0, 9.998693, 10.0012045 
1.0350536e+3, 1.8528153e+2, -1330818.0, -1303201.4, 85184.766, 0.16981195, -0.012303964, -1230713.0, -106478.43, 0.0, 9.998903, 9.999303 
1.03505954e+3, 1.9528106e+2, -1156675.3, -1169180.5, 52164.625, 0.061077204, -0.011757471, -1110389.9, -84145.56, 0.0, 9.999427, 9.999298 
1.03506565e+3, 2.0528041e+2, -987646.0, -1036896.2, 13806.283, 0.014739188, -0.0010541999, -984039.75, -55787.273, 0.0, 9.999933, 9.999286 
1.0350723e+3, 2.1527937e+2, -803332.06, -900573.2, 47685.11, 0.03235611, -0.051233474, -783851.0, 46410.668, 0.0, 10.000534, 9.999262 
1.0350794e+3, 2.2527868e+2, -731425.8, -895343.3, 97168.25, 0.025511308, -0.00837859, -686266.9, 46002.05, 0.0, 10.000704, 9.998541 
1.0350872e+3, 2.352781e+2, -659807.06, -807402.1, 77274.25, -0.010926193, 0.062807195, -626752.44, 7523.3247, 0.0, 10.000514, 9.998561 
1.03509486e+3, 2.4527697e+2, -519031.25, -625944.06, 33469.285, 0.0040609296, 0.067653716, -509418.0, 26866.994, 0.0, 10.000541, 9.999115 
1.0351024e+3, 2.5527513e+2, -385029.72, -516799.63, 84708.64, 0.06742539, -0.05100138, -343600.25, 94697.96, 0.0, 10.000811, 9.999064 
1.0351101e+3, 2.6527303e+2, -284612.47, -636875.9, 124386.234, 0.08820421, -0.062373504, -245118.78, 95198.79, 0.00000000560088, 10.001764, 9.997114 
1.0351178e+3, 2.752704e+2, 28732.95, -433395.25, 126573.88, 0.06954288, -0.056369003, 61129.598, 303475.06, 0.0000022721786, 10.003249, 9.997115 
1.0351249e+3, 2.85268e+2, 128108.75, -400964.84, 52878.984, 0.054382227, 0.025350198, 133342.05, 277714.22, 0.000031159278, 10.003536, 9.9965315 
1.0351312e+3, 2.952658e+2, 83567.89, -375180.34, 42208.047, 0.033000242, 0.12706512, 87419.0, 133816.55, 0.00015252481, 10.002567, 9.996501 
1.03513695e+3, 3.052615e+2, 142960.33, -374907.72, -52002.445, 0.0060085445, 0.07500912, 148130.61, 148130.61, 0.00042681763, 10.002878, 9.996023 
1.035141e+3, 3.1525877e+2, 376575.28, -135447.42, -77389.21, -0.13697678, 0.17000456, 388016.53, 388016.53, 0.00084848254, 10.003906, 9.997162 
1.045015e+3, 1.2527162e+2, -2068183.9, -1717319.6, -48933.11, 0.10601579, -0.07283557, -1710623.0, 1710.7233, 0.0003338259, 9.996789, 10.001521 
1.0450199e+3, 1.3527337e+2, -1677989.6, -1492709.4, -19904.219, 0.09869737, -0.06587083, -1490595.3, 123716.97, 0.00013404706, 9.998895, 10.001375 
1.04502626e+3, 1.4527328e+2, -1618793.5, -1612954.4, 79013.21, 0.13382894, -0.11271982, -1536806.8, -20492.725, 0.000024406929, 9.999487, 9.999585 
1.0450304e+3, 1.5527284e+2, -1597139.1, -1538946.4, 103384.555, -0.16382787, -0.14177553, -1460641.9, -42317.887, 0.0000004785213, 9.998919, 9.999691 
1.045037e+3, 1.6527385e+2, -1369256.8, -1190487.1, 72611.164, -0.14920524, -0.095377006, -1164711.1, 155602.61, 0.0, 9.998996, 10.001374 
1.0450463e+3, 1.7527583e+2, -1178319.1, -1054827.6, 23112.947, 0.16376688, -0.053429488, -1050643.5, 171644.61, 0.0, 9.999666, 10.0013075 
1.0450534e+3, 1.8527646e+2, -1258187.5, -1323795.3, 43428.39, 0.2232432, 0.0099533, -1236566.0, -112282.52, 0.0, 9.999649, 9.998801 
1.0450586e+3, 1.952757e+2, -1245688.6, -1263507.9, 34860.977, 0.052936524, 0.034280784, -1218616.8, -192317.94, 0.0, 9.999051, 9.998829 
1.0450653e+3, 2.0527482e+2, -1018565.3, -1027369.25, 60367.69, 0.0023111142, 0.03291507, -962439.3, -34130.137, 0.0, 9.999603, 9.999516 
1.04507335e+3, 2.152736e+2, -704397.75, -827289.06, 46229.805, 0.06689204, -0.059863202, -688948.9, 141368.73, 0.0, 10.001103, 9.999491 
1.04508094e+3, 2.2527261e+2, -635649.0, -868420.06, 65601.58, 0.06648771, -0.04727981, -618433.75, 113892.26, 0.0, 10.001437, 9.998376 
1.0450879e+3, 2.3527163e+2, -644602.2, -823949.6, 71477.695, -0.00038154956, 0.0016989607, -619600.56, 14735.673, 0.0, 10.000705, 9.998364 
1.04509555e+3, 2.4527033e+2, -483274.63, -647494.06, 54976.92, 0.009130344, 0.014957914, -466569.03, 69779.0, 0.0, 10.000935, 9.998789 
1.045104e+3, 2.5526848e+2, -228902.53, -477209.34, -16902.98, 0.0919055, -0.068122424, -227757.17, 210605.75, 0.0, 10.002025, 9.998757 
1.0451125e+3, 2.652665e+2, -184932.16, -576304.1, -3730.315, 0.12754083, -0.06027796, -184896.61, 155485.63, 0.0000000009945924, 10.002402, 9.997225 
1.0451209e+3, 2.7526397e+2, -133504.3, -504172.88, -418.60284, 0.121922724, -0.05503368, -133503.81, 108905.66, 0.0000020282196, 10.002083, 9.997203 
1.0451278e+3, 2.8526166e+2, -45277.504, -447742.9, -34861.656, 0.07614639, 0.0153318355, -42280.1, 102154.47, 0.00002862002, 10.002172, 9.996875 
1.0451334e+3, 2.9525957e+2, 112919.5, -322453.06, 48.87245, -0.0039698244, 0.09289019, 112919.5, 159377.2, 0.00014590684, 10.00259, 9.996859 
1.0451395e+3, 3.0525544e+2, 202846.97, -343846.7, 55391.47, -0.044786364, 0.041355267, 208402.83, 208402.83, 0.0004168189, 10.0032835, 9.996035 
1.045145e+3, 3.152528e+2, 391367.53, -152364.0, 89327.49, -0.12259182, 0.14795221, 405666.75, 405666.75, 0.0008363063, 10.004069, 9.996984 
1.0550126e+3, 1.2526685e+2, -2096775.1, -1780949.5, -27975.996, 0.12949494, -0.07582844, -1778490.5, -66108.875, 0.00039971265, 9.996819, 10.001063 
1.0550181e+3, 1.3527031e+2, -1716486.8, -1573052.9, 63545.035, 0.0006752473, 0.16266687, -1548950.8, 65398.36, 0.00016604259, 9.9989, 10.00082 
1.0550252e+3, 1.4527084e+2, -1543898.1, -1468710.6, 43757.867, 0.05593872, 0.15384953, -1448615.3, 67729.125, 0.000032768716, 9.999529, 10.000557 
1.0550309e+3, 1.5527003e+2, -1532245.0, -1411401.9, 91494.945, -0.031442676, -0.011141018, -1362178.3, 56173.69, 0.0000008393984, 9.9989395, 10.000562 
1.0550376e+3, 1.6527e+2, -1451170.3, -1355410.3, 87426.47, -0.012356823, -0.048017196, -1303611.4, 16738.438, 0.0, 9.99898, 10.000245 
1.0550458e+3, 1.752705e+2, -1254593.9, -1214414.4, 53448.78, 0.13479966, -0.04544738, -1177404.5, 44936.98, 0.0, 9.999673, 10.000208 
1.0550525e+3, 1.8527034e+2, -1259608.4, -1320266.1, 9371.813, 0.15350473, -0.0081192795, -1258193.4, -133848.88, 0.0, 9.999623, 9.998837 
1.0550579e+3, 1.9526938e+2, -1249372.4, -1261826.8, 23097.094, 0.050636027, -0.008807934, -1231677.8, -205317.97, 0.0, 9.999009, 9.998861 
1.05506495e+3, 2.0526879e+2, -1042526.3, -1056684.9, 106408.02, -0.003821662, 0.023032479, -942962.3, -14594.827, 0.0, 9.999514, 9.999359 
1.0550739e+3, 2.1526825e+2, -730729.06, -858381.4, 108363.086, -0.013136561, 0.014705095, -668792.2, 161578.69, 0.0, 10.000997, 9.999331 
1.0550819e+3, 2.2526693e+2, -630133.25, -825660.0, 28906.213, 0.013999016, -0.014749368, -625949.4, 106430.82, 0.0, 10.001301, 9.998732 
1.05508946e+3, 2.352647e+2, -635196.6, -782226.5, 54539.117, 0.07743962, -0.13357788, -617174.9, 17222.102, 0.0, 10.000608, 9.998693 
1.05509706e+3, 2.452626e+2, -616140.9, -903245.1, 85288.51, 0.038888115, -0.12884851, -592715.94, -56297.734, 0.0, 10.000846, 9.997076 
1.0551045e+3, 2.5526032e+2, -358669.28, -725506.06, 30497.643, -0.0880855, -0.08529397, -356151.1, 82294.62, 0.0, 10.001932, 9.997096 
1.0551137e+3, 2.652581e+2, -175739.84, -531942.56, -22179.688, -0.016955404, -0.03608541, -174364.1, 166106.67, 0.000000000012280949, 10.002299, 9.997576 
1.05512425e+3, 2.752558e+2, -121417.31, -454976.16, 4379.8335, 0.22557451, -0.04859313, -121359.81, 121135.41, 0.0000016155456, 10.001985, 9.997584 
1.05513126e+3, 2.8525406e+2, 31701.324, -275480.8, -27746.441, 0.1723677, -0.0019256321, 34187.42, 178699.23, 0.000025303238, 10.002116, 9.998087 
1.0551349e+3, 2.952526e+2, 181994.9, -156298.27, 29982.623, -0.14079876, 0.01606986, 184631.69, 231155.61, 0.000137169, 10.002497, 9.998046 
1.0551418e+3, 3.052491e+2, 281401.53, -161435.81, 80573.62, -0.15724471, -0.0949634, 295606.16, 295606.16, 0.0004008363, 10.003203, 9.997325 
1.05515085e+3, 3.1524682e+2, 435627.3, -4367.938, 144770.4, 0.014088209, -0.07948311, 478987.66, 478987.66, 0.00081260194, 10.003848, 9.998103 
1.0650107e+3, 1.2526128e+2, -1863251.0, -1692349.4, -51366.83, 0.18104784, -0.091836825, -1678098.6, 34334.84, 0.00047318285, 9.998522, 10.000856 
1.065017e+3, 1.35264e+2, -1859939.8, -1668379.4, 57898.117, 0.043798342, 0.10085746, -1652239.8, -37828.97, 0.00020250746, 9.998041, 10.00058 
1.06502414e+3, 1.452648e+2, -1732324.8, -1538529.9, 15501.328, 0.06483413, 0.121280745, -1537297.9, -20893.504, 0.000042863663, 9.998147, 10.000744 
1.06503025e+3, 1.5526482e+2, -1524101.3, -1386182.1, -19359.863, 0.028217368, 0.023791056, -1383516.0, 34886.79, 0.0000013547858, 9.998908, 10.000745 
1.06503725e+3, 1.652647e+2, -1415540.3, -1377500.0, 18651.885, 0.038180545, -0.017709635, -1369880.8, -49478.62, 0.0, 9.999381, 9.99991 
1.06504545e+3, 1.7526427e+2, -1286426.5, -1262279.8, 24482.938, 0.13108727, -0.07177864, -1247055.1, -24651.86, 0.0, 9.999595, 9.999924 
1.06505215e+3, 1.8526384e+2, -1182226.5, -1245237.0, 21687.852, 0.13080835, -0.06538072, -1175483.4, -51075.99, 0.0, 9.99998, 9.999183 
1.0650574e+3, 1.9526315e+2, -1005966.94, -1111109.6, 40638.055, 0.033668883, -0.07267292, -992091.3, 34325.26, 0.0, 10.000522, 9.999171 
1.065065e+3, 2.0526265e+2, -936536.5, -1062307.4, 155086.06, -0.008991534, -0.020632686, -832071.25, 96352.21, 0.0, 10.000495, 9.998839 
1.06507435e+3, 2.1526216e+2, -915439.06, -1002766.4, 108544.44, 0.0006054738, 0.027120756, -842105.25, -11675.571, 0.0, 9.999977, 9.998825 
1.06508315e+3, 2.252606e+2, -746109.0, -886760.5, 16761.62, 0.04385999, -0.00036157828, -744139.06, -11696.827, 0.0, 10.000515, 9.998698 
1.0650912e+3, 2.3525788e+2, -442823.34, -692555.56, -5114.1865, 0.12120297, -0.16377088, -442718.66, 191743.95, 0.0, 10.001942, 9.998669 
1.065099e+3, 2.452556e+2, -440047.84, -872183.56, 69367.83, 0.085518, -0.14837791, -429185.72, 107300.664, 0.0, 10.002296, 9.996588 
1.06510654e+3, 2.5525343e+2, -425415.13, -812183.44, 81589.52, -0.057913896, -0.04263732, -408908.16, 29607.771, 0.0, 10.00171, 9.996612 
1.0651153e+3, 2.6525134e+2, -271591.06, -520997.53, 78376.12, -0.017626157, 0.015545085, -249006.45, 91533.78, 0.0, 10.001381, 9.998095 
1.0651254e+3, 2.752492e+2, -201474.75, -433063.56, 92890.42, 0.19153254, -0.03209092, -168820.6, 73740.23, 0.00000091217555, 10.001174, 9.998123 
1.0651329e+3, 2.8524762e+2, -4532.614, -278094.34, 89287.74, 0.15661687, -0.0036539405, 22030.654, 166605.39, 0.000020741376, 10.001815, 9.998209 
1.0651382e+3, 2.9524618e+2, 302604.44, -83846.48, 44866.42, -0.09082163, 0.008800145, 307745.0, 354331.06, 0.00012515363, 10.003257, 9.998177 
1.06514566e+3, 3.0524307e+2, 331475.03, -82023.64, 6997.165, -0.094970286, -0.09819494, 331593.4, 331593.4, 0.00037813088, 10.003297, 9.997826 
1.06515445e+3, 3.1524125e+2, 188127.7, -70983.57, -28890.0, 0.086502016, -0.09496565, 191309.77, 191309.77, 0.0007771597, 10.001904, 9.998577 
1.07500866e+3, 1.252547e+2, -1856724.6, -1678222.9, -116830.76, 0.07891345, -0.14486702, -1620452.9, 92038.43, 0.00055371417, 9.998542, 10.000933 
1.0750161e+3, 1.352545e+2, -1862156.9, -1665863.3, 43284.777, 0.14187138, -0.24930333, -1656742.4, -42245.594, 0.00024334127, 9.998026, 10.000595 
1.07502274e+3, 1.4525522e+2, -1767926.9, -1623169.5, 28925.35, 0.074256256, -0.20661949, -1617603.6, -101110.266, 0.00005483326, 9.998179, 10.000154 
1.0750285e+3, 1.552573e+2, -1557780.8, -1464811.8, 16000.125, -0.07188224, -0.043529127, -1462135.1, -43658.21, 0.000002073113, 9.998939, 10.000195 
1.0750356e+3, 1.6525799e+2, -1382371.4, -1308709.8, 14731.142, -0.076220244, 0.0027384749, -1305873.0, 14596.561, 0.0000000000166348, 9.999386, 10.000378 
1.07504465e+3, 1.752572e+2, -1252141.6, -1193753.1, 40984.04, 0.078981645, -0.13711518, -1172628.5, 49844.457, 0.0, 9.999601, 10.00039 
1.07505165e+3, 1.85257e+2, -1144688.0, -1153704.6, 31084.338, 0.076052345, -0.16399314, -1117786.8, 6684.938, 0.0, 9.999929, 9.999833 
1.075057e+3, 1.952571e+2, -972836.94, -1025191.0, 67358.55, -0.074619144, -0.15838172, -926747.75, 99720.81, 0.0, 10.000454, 9.99979 
1.07506484e+3, 2.0525657e+2, -1016060.4, -1206972.5, 123280.164, -0.087147556, -0.09055576, -955600.25, -27124.365, 0.0, 10.000407, 9.99789 
1.0750748e+3, 2.1525526e+2, -996006.3, -1143328.0, 100271.66, 0.026625404, -0.031720884, -945247.2, -114752.734, 0.0, 9.99986, 9.997918 
1.0750841e+3, 2.2525355e+2, -792893.3, -952067.44, 62810.51, 0.0763032, -0.010187591, -771093.7, -38581.305, 0.0, 10.0003805, 9.998317 
1.0750928e+3, 2.3525126e+2, -486734.25, -754114.2, 57940.883, 0.067395926, -0.09153978, -474718.53, 159813.36, 0.0, 10.001817, 9.998308 
1.07510135e+3, 2.452494e+2, -416328.97, -794910.7, 41776.21, 0.07527224, -0.046386864, -411773.78, 124778.164, 0.0, 10.002179, 9.997171 
1.07511e+3, 2.5524774e+2, -393402.63, -728156.06, 72853.65, 0.0952746, 0.046888527, -378234.5, 60340.043, 0.0, 10.001634, 9.997223 
1.0751176e+3, 2.652461e+2, -239799.28, -433077.0, 60523.863, 0.048933804, 0.0851527, -222410.92, 118180.945, 0.000000000031670343, 10.001289, 9.998745 
1.0751243e+3, 2.752442e+2, -169668.33, -351122.13, 97308.21, -0.057587616, -0.0021577966, -127352.91, 115253.86, 0.00000057346807, 10.001104, 9.998723 
1.0751328e+3, 2.852424e+2, -74565.54, -413114.75, 132483.84, -0.0531025, 0.024015438, -28884.654, 115738.73, 0.000016659129, 10.001768, 9.997304 
1.0751431e+3, 2.9524055e+2, 226740.78, -215914.97, 112484.336, 0.04309425, 0.08095963, 253684.44, 300327.28, 0.000111912384, 10.003149, 9.997321 
1.0751505e+3, 3.052374e+2, 298528.2, -133160.9, -48811.742, 0.04215507, 0.03396961, 303978.6, 303978.6, 0.0003521945, 10.0032215, 9.997513 
1.0751551e+3, 3.1523594e+2, 141710.53, -134707.22, -51845.082, -0.08392905, 0.1000225, 151114.69, 151114.69, 0.0007370206, 10.001765, 9.998209 
1.0850068e+3, 1.2524807e+2, -1939634.5, -1750045.0, -153270.9, 0.07818165, -0.13656397, -1664623.3, 47933.37, 0.00064071716, 9.998091, 10.000669 
1.0850142e+3, 1.3524757e+2, -1895918.3, -1709718.9, -43121.02, 0.15940385, -0.24660432, -1700217.5, -85651.586, 0.00028839763, 9.99789, 10.000372 
1.08502015e+3, 1.4524843e+2, -1757139.8, -1602571.8, 32606.45, 0.0048068888, -0.18493633, -1595974.9, -79413.34, 0.00006873226, 9.998217, 10.000262 
1.08502746e+3, 1.552506e+2, -1505838.5, -1430060.5, 40420.266, -0.07003624, -0.02153466, -1412547.5, 5996.2593, 0.0000030594845, 9.999264, 10.000272 
1.0850354e+3, 1.6525139e+2, -1375743.6, -1303690.0, 22341.174, -0.044115487, 0.027826564, -1297325.1, 23210.52, 0.000000000186287, 9.999426, 10.000385 
1.0850439e+3, 1.7525075e+2, -1365797.0, -1249546.3, -5951.7354, 0.08858861, -0.096141174, -1249242.3, -26704.207, 0.0, 9.998833, 10.000372 
1.0850513e+3, 1.8525046e+2, -1253238.4, -1222378.0, -3052.5234, 0.074683905, -0.12347889, -1222079.0, -97541.195, 0.0, 9.999251, 9.999694 
1.0850575e+3, 1.952503e+2, -971826.7, -1038179.5, -47223.813, -0.07217911, -0.12788129, -947290.3, 79246.34, 0.0, 10.000526, 9.999667 
1.0850657e+3, 2.052495e+2, -925360.06, -1130636.5, -3207.378, -0.06342338, -0.095643915, -925310.0, 3234.9834, 0.0, 10.000884, 9.998183 
1.08507544e+3, 2.1524782e+2, -896505.06, -1066390.5, 43433.52, 0.08384973, -0.1039962, -886044.75, -55480.223, 0.0, 10.000411, 9.998181 
1.08508505e+3, 2.2524635e+2, -759131.2, -949030.25, 139824.6, 0.12904134, -0.06292694, -685064.94, 47515.746, 0.0, 10.000692, 9.998179 
1.0850946e+3, 2.352449e+2, -510114.47, -777853.9, 127583.984, 0.08304752, -0.044844616, -459055.1, 175540.72, 0.0, 10.001727, 9.99818 
1.0851035e+3, 2.4524336e+2, -402719.97, -733915.7, 70381.07, 0.08369831, 0.011744205, -388384.1, 148229.23, 0.0, 10.002024, 9.997678 
1.0851118e+3, 2.5524154e+2, -374514.66, -666887.25, 79191.26, 0.12845942, 0.042017628, -354443.03, 84191.79, 0.0, 10.001534, 9.9977 
1.0851194e+3, 2.6523972e+2, -188140.33, -468251.6, 76075.74, 0.07406306, 0.06787707, -168812.47, 171841.13, 0.000000020287489, 10.001905, 9.998198 
1.08512625e+3, 2.752376e+2, 78106.984, -292975.5, 845.7677, -0.07028575, 0.01197208, 78108.914, 320781.5, 0.0000009638229, 10.00307, 9.99817 
1.0851351e+3, 2.8523558e+2, 95073.664, -341037.6, 30338.236, -0.05812925, 0.04962168, 97174.04, 241866.27, 0.00001551447, 10.002974, 9.997216 
1.08514585e+3, 2.9523358e+2, 1365.6367, -332208.13, 39950.32, 0.09929845, 0.09848399, 6083.542, 52797.27, 0.000103287646, 10.001633, 9.997252 
1.0851532e+3, 3.0523047e+2, 66953.91, -220457.17, -58307.164, 0.076808035, 0.04503111, 78332.24, 78332.24, 0.00033301808, 10.001546, 9.99772 
1.0851569e+3, 3.1522918e+2, 254286.36, -65061.293, -68307.75, -0.103928216, 0.1177128, 268283.72, 268283.72, 0.0007093365, 10.002493, 9.998335 
1.0950053e+3, 1.2524132e+2, -1975259.5, -1830464.9, -167205.61, 0.059916545, -0.08949769, -1720656.0, -8025.758, 0.000734217, 9.998115, 10.000107 
1.0950107e+3, 1.352435e+2, -1920977.8, -1769263.5, -45603.168, 0.007756708, 0.11006688, -1756611.0, -141995.22, 0.00033773432, 9.997918, 9.999952 
1.0950161e+3, 1.4524461e+2, -1708443.5, -1503168.1, 60560.934, -0.24042404, 0.18375729, -1486633.1, 29973.904, 0.0000845864, 9.998227, 10.000936 
1.09502725e+3, 1.5524475e+2, -1463456.0, -1336608.5, 89288.555, -0.04928161, 0.07798205, -1290510.5, 128092.87, 0.0000043925156, 9.9992485, 10.000916 
1.09503604e+3, 1.6524492e+2, -1405910.5, -1372212.4, -12349.156, 0.051814966, 0.05890704, -1368171.4, -47571.684, 0.0000000006358386, 9.999446, 9.999909 
1.095043e+3, 1.7524485e+2, -1392860.0, -1318181.8, -17155.936, 0.08366, 0.039506245, -1314429.1, -91830.164, 0.0, 9.998875, 9.999886 
1.0950504e+3, 1.8524423e+2, -1320908.4, -1357446.0, 34193.402, 0.0465536, 0.04982389, -1300409.4, -175804.28, 0.0, 9.999235, 9.998769 
1.0950585e+3, 1.9524284e+2, -1044061.4, -1168703.4, 10539.473, -0.03973611, 0.013383616, -1043176.44, -16556.627, 0.0, 10.000445, 9.998807 
1.0950671e+3, 2.0524146e+2, -835908.56, -925203.8, -32166.654, -0.018224899, -0.045749262, -825527.94, 103102.59, 0.0, 10.000795, 9.9996395 
1.0950762e+3, 2.152399e+2, -811699.25, -866125.25, 34136.0, 0.098101385, -0.1857615, -795256.6, 35382.465, 0.0, 10.000304, 9.99961 
1.095086e+3, 2.2523908e+2, -779299.94, -959947.56, 168118.73, 0.124704555, -0.15026872, -678777.5, 53869.11, 0.0, 10.000562, 9.998163 
1.0950965e+3, 2.3523867e+2, -533151.9, -788942.5, 174792.73, 0.074425176, -0.029826013, -444460.72, 190194.94, 0.0, 10.001571, 9.998177 
1.0951051e+3, 2.4523732e+2, -390707.7, -675540.1, 42054.67, 0.023621313, 0.022207186, -384628.2, 152043.7, 0.0, 10.00188, 9.998148 
1.095112e+3, 2.552349e+2, -355867.63, -610377.25, 72411.91, -0.02891881, -0.055839874, -336707.72, 101988.65, 0.0, 10.001455, 9.998128 
1.0951206e+3, 2.6523238e+2, -323738.72, -728477.4, 113441.56, -0.014567215, -0.029593507, -294111.66, 46612.24, 0.00000010014453, 10.001815, 9.996456 
1.09513074e+3, 2.752295e+2, -49978.375, -541409.4, 60217.15, 0.053655952, 0.013446626, -42707.293, 200049.52, 0.0000018004142, 10.002991, 9.996504 
1.0951394e+3, 2.8522718e+2, 129275.7, -254511.77, -28616.207, 0.048867904, 0.06464484, 131397.67, 276179.13, 0.000016749305, 10.002906, 9.997844 
1.09514676e+3, 2.9522517e+2, 35645.64, -247515.17, 5913.338, -0.012819532, 0.04985251, 35769.074, 82568.94, 0.00010005187, 10.001574, 9.997864 
1.0951533e+3, 3.0522215e+2, 102203.32, -133810.16, -27262.488, -0.07792333, -0.053707544, 105311.54, 105311.54, 0.00032272984, 10.001487, 9.998344 
1.0951592e+3, 3.1522104e+2, 273838.78, 375.2749, -8124.948, -0.16680302, -0.02740001, 274079.97, 274079.97, 0.000696062, 10.002379, 9.998843 
1.1050027e+3, 1.2523429e+2, -2060224.9, -1862891.0, -146991.78, 0.02473342, 0.023310203, -1784521.9, -71817.01, 0.00083503575, 9.997514, 10.000156 
1.1050096e+3, 1.3523605e+2, -1781876.6, -1683248.3, -60839.598, 0.07423842, 0.16081129, -1654246.8, -39555.473, 0.0003918232, 9.998786, 10.000121 
1.10501476e+3, 1.4523679e+2, -1654994.4, -1485358.6, 38841.613, -0.21643282, 0.18928136, -1476888.0, 39796.316, 0.000102570426, 9.99861, 10.000885 
1.1050258e+3, 1.5523663e+2, -1750712.9, -1480200.9, -3290.9678, -0.0073780827, 0.06050441, -1480160.9, -61478.35, 0.0000061708192, 9.997288, 10.000879 
1.1050348e+3, 1.6523673e+2, -1650784.5, -1504348.6, -55541.17, 0.07711463, 0.04168707, -1485666.1, -164986.11, 0.0000000015512864, 9.997836, 9.999775 
1.10504225e+3, 1.7523684e+2, -1209915.0, -1240490.6, -59970.97, 0.06394614, 0.05195627, -1163313.9, 59365.164, 0.0, 10.00019, 9.999778 
1.1050503e+3, 1.8523632e+2, -1107496.9, -1259193.9, 24856.764, 0.044670217, 0.08128549, -1103527.8, 21157.492, 0.0, 10.000723, 9.998726 
1.1050591e+3, 1.9523498e+2, -1171246.9, -1231384.0, 47116.023, 0.021569632, 0.051766828, -1145422.4, -118721.97, 0.0, 9.999586, 9.998787 
1.1050679e+3, 2.0523381e+2, -979083.94, -955158.75, 27294.66, 0.04233483, -0.0018367895, -937320.3, -8611.68, 0.0, 9.999651, 9.999986 
1.1050767e+3, 2.1523263e+2, -706978.6, -775487.44, -10342.458, 0.10222668, -0.13808541, -705451.3, 125260.89, 0.0, 10.000857, 9.999965 
1.1050864e+3, 2.2523186e+2, -721380.44, -907158.1, 94996.87, 0.112935916, -0.12617768, -681405.6, 51312.555, 0.0, 10.000842, 9.998393 
1.105097e+3, 2.3523122e+2, -793183.25, -892009.44, 101940.836, 0.08419424, -0.05060019, -729310.94, -94581.805, 0.0, 9.999678, 9.998388 
1.1051061e+3, 2.4523011e+2, -649374.3, -779267.06, 14313.787, 0.04321508, 0.007514296, -647815.7, -111072.5, 0.0, 10.00003, 9.998313 
1.1051136e+3, 2.552284e+2, -291990.13, -558979.6, -5772.406, -0.012001638, -0.0152001055, -291865.38, 146896.33, 0.0, 10.001824, 9.998289 
1.1051228e+3, 2.652261e+2, -206553.95, -652201.44, 104165.99, 0.00050480006, 0.0137720015, -183408.23, 157378.88, 0.00000018749917, 10.002524, 9.996645 
1.10513344e+3, 2.7522302e+2, -166563.11, -577212.94, 169107.69, 0.076755896, 0.018159475, -105888.54, 136932.36, 0.0000025324416, 10.002105, 9.996689 
1.1051421e+3, 2.8522068e+2, 26586.508, -300429.75, 119371.484, 0.06576107, 0.06131057, 65524.566, 210369.92, 0.000018771152, 10.002196, 9.9978695 
1.1051488e+3, 2.9521888e+2, 201895.8, -165337.42, 84747.836, -0.009037049, 0.06689806, 220509.88, 267372.8, 0.00010057408, 10.002718, 9.997875 
1.1051554e+3, 3.0521607e+2, 295360.75, -20284.037, 57128.316, -0.07000681, -0.028007073, 305382.2, 305382.2, 0.0003198817, 10.0027075, 9.99854 
1.1051621e+3, 3.1521517e+2, 228154.45, 14516.523, 2711.1013, -0.08850001, -0.003603894, 228188.84, 228188.84, 0.0006923169, 10.0019245, 9.9991455 
1.1149989e+3, 1.2522705e+2, -2018233.4, -1773992.5, -64179.613, -0.15032817, 0.17657363, -1758154.9, -45374.965, 0.000944546, 9.99752, 10.000762 
1.1150108e+3, 1.3522542e+2, -1738058.1, -1590780.1, -7867.199, 0.29112822, -0.08400049, -1590361.1, 24429.541, 0.00045159098, 9.998782, 10.00076 
1.11501575e+3, 1.4522506e+2, -1698607.1, -1582227.0, -26000.627, -0.008824312, -0.15945314, -1576682.4, -59890.375, 0.00012308804, 9.998635, 10.000209 
1.11502305e+3, 1.5522645e+2, -1793642.1, -1576064.5, -41069.984, -0.03209311, -0.0678201, -1568570.3, -149791.0, 0.000008505592, 9.997314, 10.000212 
1.1150315e+3, 1.6522701e+2, -1637953.5, -1479467.3, 19297.15, -0.05917898, -0.01656134, -1477151.5, -156376.98, 0.0000000033697685, 9.997843, 9.999946 
1.1150415e+3, 1.752267e+2, -1197698.9, -1215233.0, 34160.4, -0.04751228, -0.06066143, -1171198.5, 51579.57, 0.0, 10.000182, 9.999962 
1.1150507e+3, 1.852267e+2, -1050711.0, -1136200.9, -29455.035, -0.015196325, -0.032496918, -1041545.1, 83233.2, 0.0, 10.000703, 9.999579 
1.11505896e+3, 1.9522677e+2, -1123383.6, -1120351.1, 13848.524, 0.02945489, -0.0042697326, -1107936.1, -81158.51, 0.0, 9.999536, 9.999575 
1.1150676e+3, 2.0522657e+2, -1041435.7, -1067756.6, 59082.09, 0.035769794, 0.039780676, -994066.06, -65287.195, 0.0, 9.9995775, 9.999245 
1.1150768e+3, 2.1522586e+2, -779604.25, -892572.9, 44109.063, 0.011525723, 0.022633016, -764422.06, 66362.55, 0.0, 10.000711, 9.999231 
1.11508645e+3, 2.2522458e+2, -708268.7, -847570.8, 42528.293, 0.0092179105, -0.0055933734, -696311.4, 36484.99, 0.0, 10.000708, 9.998865 
1.1150964e+3, 2.3522264e+2, -775874.2, -830694.94, 71107.195, 0.038224466, -0.10624821, -727077.2, -92262.33, 0.0, 9.999573, 9.998859 
1.1151066e+3, 2.4522185e+2, -680303.9, -821224.44, 74215.125, 0.06193394, -0.027163863, -648428.75, -111602.984, 0.0, 9.999931, 9.998074 
1.1151167e+3, 2.5522187e+2, -319943.72, -595316.5, 72700.234, 0.083220825, 0.14498365, -301928.88, 136903.06, 0.0, 10.001728, 9.998086 
1.1151259e+3, 2.652206e+2, -78422.39, -363355.84, 78120.4, 0.030777045, 0.18496603, -58409.69, 282435.28, 0.00000020790911, 10.002428, 9.998673 
1.1151341e+3, 2.7521792e+2, -41921.96, -294949.16, 165605.17, -0.08840459, 0.023784703, 39964.93, 282831.38, 0.0000030041272, 10.002003, 9.998675 
1.11514285e+3, 2.8521606e+2, -31747.783, -394276.97, 129524.984, -0.09116351, 0.046734184, 9773.561, 154658.34, 0.000021469468, 10.002081, 9.997279 
1.11515194e+3, 2.952147e+2, 149716.28, -255186.4, 120828.8, 0.011155497, 0.15521674, 183032.08, 229934.81, 0.00010458993, 10.002638, 9.997296 
1.1151592e+3, 3.0521208e+2, 269187.66, -63811.902, 22010.139, 0.008894409, 0.11923304, 270636.16, 270636.16, 0.00032358713, 10.002659, 9.998264 
1.1151648e+3, 3.152111e+2, 206045.6, -10593.021, 233.49316, -0.057760637, 0.16060403, 206045.86, 206045.86, 0.00069614867, 10.001831, 9.99902 
1.1249971e+3, 1.2521753e+2, -2060806.6, -1752785.6, 8481.826, -0.055764798, 0.17342405, -1752552.3, -39677.395, 0.0010643419, 9.997042, 10.001145 
1.1250094e+3, 1.35216e+2, -1860453.3, -1611633.8, -54123.74, 0.32004175, -0.1118477, -1600370.5, 14511.779, 0.00051804923, 9.997788, 10.001092 
1.1250143e+3, 1.4521563e+2, -1768129.9, -1629956.3, -84823.23, 0.012496897, -0.19882137, -1589644.9, -72761.32, 0.00014661087, 9.998224, 10.000074 
1.1250215e+3, 1.5521726e+2, -1621826.1, -1506953.8, -86707.33, 0.017080322, -0.07371871, -1460384.8, -41514.42, 0.00001150662, 9.998555, 10.000084 
1.1250303e+3, 1.65218e+2, -1520096.1, -1388500.1, 78942.95, 0.0020215614, -0.010635757, -1351529.6, -30665.514, 0.0000000061074554, 9.998492, 10.000261 
1.125041e+3, 1.7521787e+2, -1471463.0, -1304937.1, 87477.18, -0.0058317366, -0.07295321, -1267431.8, -44566.69, 0.0, 9.998125, 10.000333 
1.12505026e+3, 1.8521814e+2, -1336649.1, -1220822.9, -144.46756, -0.0051388904, -0.061525375, -1220822.6, -95961.29, 0.0, 9.998511, 10.000052 
1.1250581e+3, 1.952185e+2, -1075482.1, -1049444.1, -4099.7734, -0.003997486, -0.052310526, -1048813.8, -21957.8, 0.0, 9.99964, 10.000018 
1.125067e+3, 2.0521854e+2, -989246.6, -1084979.0, 82889.8, -0.008204786, 0.0140473, -941395.06, -12538.67, 0.0, 10.000126, 9.998862 
1.1250769e+3, 2.1521802e+2, -896175.44, -983924.06, 69810.38, -0.009270692, 0.05295561, -857597.06, -26732.318, 0.0, 10.0000725, 9.998905 
1.1250869e+3, 2.252169e+2, -716553.56, -815018.1, 72592.51, 0.009337764, 0.03834957, -678073.3, 54802.414, 0.0, 10.000486, 9.999199 
1.1250969e+3, 2.3521508e+2, -485279.47, -651698.7, 72652.04, 0.049868923, -0.08297032, -458025.72, 176864.47, 0.0, 10.001393, 9.999208 
1.1251073e+3, 2.4521421e+2, -453970.34, -704901.25, 124480.805, 0.07963144, -0.033236943, -402695.72, 134204.61, 0.0, 10.001461, 9.9981365 
1.12511806e+3, 2.5521398e+2, -455816.97, -654468.1, 127690.54, 0.098713234, 0.10999442, -393369.72, 45538.777, 0.0, 10.0007715, 9.998146 
1.1251276e+3, 2.6521298e+2, -302491.5, -427176.94, 83662.984, 0.05142427, 0.154718, -260497.69, 80421.266, 0.00000016860811, 10.000712, 9.999054 
1.125136e+3, 2.75211e+2, -121944.53, -290915.38, 23245.822, -0.05637761, 0.027690034, -118804.875, 124129.125, 0.0000038179373, 10.001281, 9.999042 
1.1251448e+3, 2.8520936e+2, -90084.99, -395763.3, -11478.156, -0.06624502, 0.04108375, -89654.59, 55295.246, 0.000026281929, 10.001554, 9.997525 
1.12515405e+3, 2.952078e+2, -7082.6934, -301045.75, 15755.365, 0.016297024, 0.1034724, -6240.6743, 40727.76, 0.00011359424, 10.001434, 9.997557 
1.1251615e+3, 3.0520537e+2, 158248.72, -150375.47, -30944.656, 0.023472507, 0.093297444, 161320.84, 161320.84, 0.00033605486, 10.002057, 9.997957 
1.12516806e+3, 3.1520513e+2, 388001.03, 44453.93, -97896.56, 0.03140166, 0.24776584, 413939.13, 413939.13, 0.00071171246, 10.003206, 9.998754 
1.1349967e+3, 1.2520586e+2, -2032792.8, -1698416.1, 75375.45, 0.16398428, 0.018994521, -1682210.3, 30777.973, 0.0011953667, 9.997076, 10.001493 
1.13500476e+3, 1.3520789e+2, -1845651.5, -1585756.9, -20751.299, 0.05577181, 0.07101931, -1584110.4, 30854.838, 0.00059164723, 9.997807, 10.001262 
1.1350101e+3, 1.452086e+2, -1740385.3, -1572351.9, -84762.52, -0.25481075, 0.063342795, -1537022.5, -20064.75, 0.00017336896, 9.998227, 10.00047 
1.1350206e+3, 1.552091e+2, -1591347.4, -1449117.9, -63356.844, 0.058443435, 0.042698227, -1424988.8, -6033.692, 0.000015247707, 9.998576, 10.000475 
1.1350306e+3, 1.6520981e+2, -1479946.1, -1309967.8, 53222.08, 0.1619671, 0.054173507, -1294678.5, 26269.314, 0.000000009421829, 9.998513, 10.000788 
1.1350404e+3, 1.7521046e+2, -1432836.4, -1231756.4, 82699.805, 0.09711995, 0.017604105, -1202113.6, 20825.367, 0.0, 9.998153, 10.000822 
1.13504894e+3, 1.8521066e+2, -1325662.6, -1201155.1, 29639.678, -0.012041448, -0.008563829, -1194459.4, -69525.305, 0.0, 9.998521, 10.000185 
1.1350564e+3, 1.9521019e+2, -1077395.3, -1036304.1, 45275.813, -0.16461356, -0.09507597, -1007130.25, 19804.895, 0.0, 9.999561, 10.00015 
1.1350657e+3, 2.0520976e+2, -1008501.2, -1104852.6, 68976.19, -0.17249598, -0.07812827, -972542.4, -43601.79, 0.0, 10.000037, 9.99877 
1.1350769e+3, 2.1520917e+2, -921043.9, -1006329.9, 75079.914, -0.03615382, -0.035113785, -877342.1, -46390.33, 0.0, 9.999944, 9.998817 
1.13508776e+3, 2.2520882e+2, -717052.0, -784901.56, 93827.055, 0.02941919, 0.018382294, -651205.0, 81750.96, 0.0, 10.000353, 9.999468 
1.1350984e+3, 2.3520845e+2, -490288.38, -627807.4, 115558.54, 0.033979304, 0.012991291, -424579.84, 210375.97, 0.0, 10.001245, 9.999445 
1.13510825e+3, 2.4520716e+2, -447796.2, -664986.8, 87459.2, 0.0047826134, -0.0067941267, -416956.72, 120010.43, 0.0, 10.001343, 9.9984665 
1.13511756e+3, 2.5520486e+2, -443159.13, -610949.44, 111937.125, -0.042288844, -0.10570031, -387167.47, 51822.758, 0.0, 10.000695, 9.998482 
1.13512784e+3, 2.6520336e+2, -396363.78, -611357.1, 98546.09, -0.015107066, -0.064350516, -358028.8, -17021.314, 0.00000020663475, 10.000661, 9.99782 
1.1351388e+3, 2.7520233e+2, -217283.64, -476333.16, 60327.28, 0.07542393, 0.028447788, -203923.67, 39098.797, 0.0000055002247, 10.001221, 9.997803 
1.1351476e+3, 2.8520057e+2, -30775.596, -252036.55, -27011.742, 0.04041547, 0.038513355, -27525.71, 117514.65, 0.00003348711, 10.001476, 9.998543 
1.1351545e+3, 2.9519805e+2, 50452.906, -159957.47, 23869.102, -0.09425497, -0.09582858, 53126.656, 100187.76, 0.00012808957, 10.001344, 9.998567 
1.13516234e+3, 3.0519605e+2, 120391.53, -206797.75, 5962.152, -0.11370831, -0.101901576, 120500.14, 120500.14, 0.0003591798, 10.001964, 9.997615 
1.13517135e+3, 3.151975e+2, 349341.7, -7887.275, -31029.53, -0.0012996637, 0.25902408, 352016.94, 352016.94, 0.00074516627, 10.003093, 9.998445 
1.1449947e+3, 1.2519489e+2, -1833160.0, -1570884.3, 130496.23, 0.21209924, -0.056649122, -1517018.4, 196077.78, 0.0013373722, 9.9982815, 10.001809 
1.1450015e+3, 1.3519861e+2, -1927963.5, -1602275.6, -39585.438, -0.013950035, 0.14400098, -1597533.3, 17525.73, 0.000672049, 9.997118, 10.001497 
1.1450082e+3, 1.4520015e+2, -1863042.5, -1576861.5, -34227.94, -0.20627747, 0.18148646, -1572824.8, -55780.703, 0.0002032588, 9.997152, 10.000957 
1.1450197e+3, 1.5520038e+2, -1590966.1, -1394435.4, -33436.32, 0.113493435, 0.08680463, -1388902.5, 30140.328, 0.000019742625, 9.998357, 10.000951 
1.1450297e+3, 1.6520119e+2, -1438519.5, -1270778.0, 51202.445, 0.20992738, 0.07673934, -1256383.8, 64650.297, 0.000000013934886, 9.998718, 10.0009575 
1.145039e+3, 1.7520225e+2, -1397525.0, -1196157.8, 37509.547, 0.12943435, 0.06342919, -1189397.6, 33623.363, 0.0, 9.998315, 10.000988 
1.1450476e+3, 1.8520258e+2, -1313672.4, -1180892.0, 41961.605, 0.005258836, 0.037146132, -1168742.9, -43728.445, 0.0, 9.998546, 10.00031 
1.1450558e+3, 1.9520207e+2, -1088768.9, -1018786.8, 34343.4, -0.17039509, -0.06933577, -1004748.9, 22266.814, 0.0, 9.999411, 10.000327 
1.1450656e+3, 2.0520152e+2, -1034749.6, -1121381.4, 45934.64, -0.17493436, -0.07115351, -1014928.7, -85906.89, 0.0, 9.999867, 9.998741 
1.14507705e+3, 2.1520078e+2, -924785.06, -1010619.3, 41820.41, -0.008182518, -0.041607376, -907778.7, -76744.555, 0.0, 9.999925, 9.998799 
1.1450882e+3, 2.252005e+2, -765828.56, -821559.1, 88700.555, 0.06267028, 0.027612377, -700719.3, 32318.984, 0.0, 10.000073, 9.999352 
1.1450991e+3, 2.3520043e+2, -636738.5, -705986.5, 59403.098, 0.044964902, 0.062701665, -602605.3, 32431.822, 0.0, 10.000276, 9.9993725 
1.1451092e+3, 2.451992e+2, -529615.7, -674241.7, 15091.477, 0.012036016, 0.0390002, -528057.75, 8989.79, 0.0, 10.000649, 9.998735 
1.1451186e+3, 2.5519672e+2, -346472.9, -529130.6, 14096.992, -0.025905965, -0.107248, -345391.34, 93678.86, 0.0, 10.00122, 9.998779 
1.14512905e+3, 2.651952e+2, -287997.78, -579287.75, 67305.02, 0.0082547935, -0.07849144, -273198.3, 67889.63, 0.00000038376965, 10.001476, 9.997654 
1.1451404e+3, 2.7519426e+2, -197438.89, -484034.78, 90439.87, 0.105694175, 0.037467085, -171285.75, 71818.16, 0.0000075917305, 10.001416, 9.997662 
1.1451497e+3, 2.8519273e+2, 40003.23, -191974.45, 44916.246, 0.082552716, 0.06970777, 48396.383, 193515.33, 0.0000412879, 10.00184, 9.998788 
1.1451572e+3, 2.9519072e+2, 253403.42, -37901.035, 15376.333, -0.024590287, -0.037198983, 254212.81, 301345.78, 0.00014511992, 10.002628, 9.998793 
1.1451653e+3, 3.051879e+2, 299541.84, -190645.75, 4440.1895, -0.08591779, -0.10405961, 299582.06, 299582.06, 0.00038843177, 10.003471, 9.997005 
1.1451746e+3, 3.151873e+2, 468079.25, -2752.8289, -96573.695, -0.04243096, 0.10933201, 487117.9, 487117.9, 0.00079345534, 10.004139, 9.997967 
1.1549903e+3, 1.2518454e+2, -1813804.0, -1523461.3, 68759.34, -0.11207816, -0.070438705, -1508000.8, 205198.64, 0.001489488, 9.998263, 10.002134 
1.1549991e+3, 1.351883e+2, -1902917.0, -1556131.4, -73328.53, 0.024730923, 0.104434855, -1541263.4, 73899.04, 0.00075867696, 9.997145, 10.001798 
1.15500845e+3, 1.4519031e+2, -1823625.9, -1503051.9, -799.05115, 0.06813167, 0.14779674, -1503049.9, 14092.466, 0.0002361324, 9.997179, 10.001454 
1.1550179e+3, 1.5519108e+2, -1548476.1, -1317926.1, 18949.225, 0.08336404, 0.055052098, -1316379.1, 102754.984, 0.000024990082, 9.998398, 10.001459 
1.155027e+3, 1.6519213e+2, -1443747.4, -1285214.3, 23019.957, 0.04959891, 0.04821428, -1281939.3, 39183.91, 0.000000023716384, 9.998737, 10.000848 
1.15503624e+3, 1.7519328e+2, -1406627.1, -1212352.8, 30611.072, 0.015916957, 0.055321675, -1207643.6, 15467.276, 0.0, 9.998307, 10.000878 
1.155046e+3, 1.8519403e+2, -1312087.9, -1175728.9, 63208.49, -0.032901227, 0.074649565, -1150936.6, -25835.104, 0.0, 9.998535, 10.000352 
1.1550559e+3, 1.9519415e+2, -1091784.4, -1015626.06, 73015.67, -0.115073085, 0.026246067, -971356.5, 55740.715, 0.0, 9.999363, 10.000375 
1.1550663e+3, 2.051938e+2, -1035885.94, -1105702.3, 32652.373, -0.10912954, 0.033234168, -1022994.94, -93894.625, 0.0, 9.999788, 9.998885 
1.15507714e+3, 2.1519278e+2, -933345.25, -1003346.5, 52724.117, -0.01040911, 0.019995842, -905061.8, -73949.266, 0.0, 9.999806, 9.998908 
1.1550882e+3, 2.2519195e+2, -821762.1, -906677.8, 86837.33, 0.02812031, 0.055676688, -767558.75, -34435.934, 0.0, 9.999943, 9.99883 
1.1550993e+3, 2.3519114e+2, -689779.8, -788640.4, 77580.18, 0.005309913, 0.06752211, -647220.75, -12087.56, 0.0, 10.000159, 9.998862 
1.1551101e+3, 2.4519037e+2, -531749.7, -648277.75, 23759.11, 0.02018542, 0.10350203, -527091.6, 10049.736, 0.0, 10.00052, 9.998975 
1.1551209e+3, 2.551895e+2, -348113.75, -506297.78, 43505.156, 0.06405288, 0.09407401, -336938.13, 102210.86, 0.0, 10.001104, 9.998991 
1.155131e+3, 2.6518828e+2, -241995.13, -459166.94, 54972.734, 0.038909093, 0.100718655, -228872.77, 112288.66, 0.0000005356376, 10.001374, 9.998527 
1.1551404e+3, 2.7518648e+2, -146095.2, -352591.38, 99140.67, -0.0554414, 0.04589546, -106203.36, 136976.86, 0.000008957139, 10.001316, 9.99861 
1.1551506e+3, 2.851858e+2, -3859.7825, -259158.44, 65336.17, -0.024469191, 0.13146162, 11889.517, 157075.75, 0.00004724257, 10.001735, 9.998379 
1.1551615e+3, 2.9518586e+2, 213121.16, -114445.59, 61952.496, 0.11647471, 0.27010804, 224446.63, 271630.2, 0.00015981888, 10.002585, 9.998293 
1.1551698e+3, 3.0518094e+2, 210861.52, -345410.94, 23214.371, -0.0013521712, 0.07622043, 211828.61, 211828.61, 0.00041743313, 10.003359, 9.995987 
1.1551766e+3, 3.1517434e+2, 389790.28, -128734.26, -41914.035, -0.28996134, -0.21655494, 393156.47, 393156.47, 0.00084735866, 10.003986, 9.997168 
1.16498806e+3, 1.2517637e+2, -2222479.0, -1716693.3, 169336.92, -0.011900188, 0.014759494, -1665234.6, 48046.465, 0.0016512593, 9.995439, 10.002164 
1.1649957e+3, 1.351791e+2, -1895541.6, -1529547.4, 9517.403, -0.021704167, 0.07207825, -1529300.0, 85953.15, 0.0008513687, 9.997119, 10.00198 
1.1650067e+3, 1.45181e+2, -1748727.9, -1482031.8, 80850.76, 0.15587439, 0.1011273, -1459435.8, 57797.914, 0.00027198074, 9.997758, 10.001319 
1.1650164e+3, 1.5518197e+2, -1727345.4, -1422539.3, 27081.256, 0.14822033, 0.04383232, -1420151.9, -928.4167, 0.00003101119, 9.997247, 10.001299 
1.1650252e+3, 1.6518287e+2, -1628850.6, -1410117.1, 20774.39, 0.056760043, 0.048282042, -1408161.5, -86946.87, 0.00000004774233, 9.997631, 10.00052 
1.165034e+3, 1.7518356e+2, -1330913.0, -1214230.8, -11111.341, -0.06695028, 0.044333808, -1213182.0, 10026.663, 0.0, 9.998994, 10.000538 
1.1650445e+3, 1.8518433e+2, -1182329.8, -1109707.5, 22417.371, -0.06777827, 0.07927708, -1103345.0, 21855.037, 0.0, 9.9994, 10.00039 
1.1650564e+3, 1.9518499e+2, -1152240.4, -1041511.25, 14626.816, 0.019284558, 0.08219868, -1039611.7, -12421.011, 0.0, 9.998924, 10.000414 
1.16506726e+3, 2.0518477e+2, -1074199.0, -1093787.3, 17958.752, 0.041434053, 0.086428635, -1063537.4, -134345.77, 0.0, 9.999397, 9.999151 
1.1650776e+3, 2.1518354e+2, -774972.06, -892861.44, 20790.906, 0.013899987, 0.023934329, -771412.8, 59790.73, 0.0, 10.00076, 9.999199 
1.1650883e+3, 2.251826e+2, -701455.75, -858875.94, 53437.074, 0.011335417, 0.036153026, -685030.1, 48184.75, 0.0, 10.000821, 9.998733 
1.1650994e+3, 2.351816e+2, -770591.9, -838291.8, 57662.86, 0.03632392, 0.041958373, -737577.6, -102349.21, 0.0, 9.999655, 9.998765 
1.1651107e+3, 2.4518116e+2, -611554.0, -654131.06, 95632.266, 0.06491709, 0.100752264, -534869.44, 2364.1208, 0.0, 9.999818, 9.999278 
1.1651222e+3, 2.5518113e+2, -316803.25, -460752.72, 99731.805, 0.08884547, 0.14474882, -265786.94, 173445.25, 0.0, 10.001167, 9.999285 
1.1651326e+3, 2.6518008e+2, -176943.61, -395941.38, 69573.76, 0.048710056, 0.14047451, -156710.02, 184531.31, 0.00000056359414, 10.00169, 9.998804 
1.1651418e+3, 2.7517787e+2, -117296.56, -314065.03, 43340.31, -0.046244614, 0.017273715, -108173.4, 135089.02, 0.00000928475, 10.001413, 9.998831 
1.1651525e+3, 2.8517696e+2, -52312.953, -343791.38, 32620.428, -0.00052585633, 0.10037334, -48706.895, 96564.11, 0.000050363375, 10.001671, 9.997822 
1.1651644e+3, 2.951771e+2, 147789.44, -202837.77, -6885.7754, 0.16916873, 0.30510506, 147924.61, 195194.81, 0.00017050822, 10.002402, 9.997762 
1.1651734e+3, 3.051721e+2, 238133.92, -336255.38, 23406.182, 0.030449891, 0.12744077, 239086.14, 239086.14, 0.00044292747, 10.003557, 9.995963 
1.1651812e+3, 3.1516492e+2, 506131.66, -58285.24, -6761.0005, -0.27025416, -0.21404153, 506212.66, 506212.66, 0.00089617056, 10.004716, 9.997317 
1.1749864e+3, 1.2517002e+2, -2247695.8, -1758495.4, 141028.48, 0.24114312, 0.14884326, -1720751.3, -7406.5405, 0.0018234614, 9.995406, 10.00189 
1.174991e+3, 1.3517107e+2, -1890509.1, -1527791.3, 80644.734, -0.22939041, 0.038922038, -1510669.4, 104661.516, 0.0009506097, 9.997154, 10.001977 
1.1750028e+3, 1.4517227e+2, -1799451.5, -1588713.4, 51179.234, -0.03677943, 0.0338013, -1576941.6, -59623.96, 0.00031097958, 9.997768, 10.000578 
1.1750145e+3, 1.551732e+2, -1782077.0, -1537947.9, 17846.658, 0.22707681, 0.048677273, -1536650.1, -117340.37, 0.00003785508, 9.997256, 10.000501 
1.1750239e+3, 1.651735e+2, -1675558.8, -1508435.0, 61011.664, 0.14137822, 0.06998145, -1488531.9, -167223.42, 0.00000010132158, 9.997638, 9.999839 
1.1750319e+3, 1.7517318e+2, -1375755.4, -1305267.6, 48314.387, -0.20103109, 0.025397422, -1280708.5, -57394.51, 0.0, 9.998987, 9.999913 
1.175043e+3, 1.8517363e+2, -1178574.8, -1101231.9, -7376.1353, -0.18405356, 0.05716935, -1100534.8, 24774.04, 0.0, 9.999393, 10.000454 
1.1750568e+3, 1.951746e+2, -1154203.4, -1038142.6, 9288.2295, 0.15181084, 0.084358945, -1037404.0, -10107.993, 0.0, 9.998883, 10.000462 
1.1750684e+3, 2.0517452e+2, -1062281.1, -1048818.0, 58011.543, 0.19349234, 0.08335089, -997148.8, -67854.16, 0.0, 9.999313, 9.999499 
1.17507815e+3, 2.1517324e+2, -770160.2, -852920.9, 78816.016, -0.020574488, -0.019292934, -722522.0, 108783.664, 0.0, 10.000627, 9.99954 
1.1750885e+3, 2.251724e+2, -699998.6, -820444.5, -2114.1582, -0.06534596, -0.029514955, -699961.56, 33353.145, 0.0, 10.000669, 9.99907 
1.17509924e+3, 2.3517181e+2, -763420.94, -794016.06, 26030.752, 0.04590625, -0.018989822, -748525.56, -113202.445, 0.0, 9.999531, 9.999126 
1.1751106e+3, 2.4517162e+2, -604572.6, -613804.8, 136955.53, 0.05326593, 0.030083293, -472155.4, 65168.637, 0.0, 9.999704, 9.999612 
1.1751223e+3, 2.5517163e+2, -301174.03, -408609.47, 158947.19, -0.03302419, 0.041633192, -187112.72, 252207.1, 0.0, 10.001083, 9.9996805 
1.17513366e+3, 2.6517063e+2, -216972.89, -459809.34, 46778.71, -0.03005094, 0.040722944, -208273.36, 133054.39, 0.0000005132723, 10.001602, 9.998413 
1.1751442e+3, 2.7516836e+2, -152776.14, -379541.34, 45180.64, 0.03479436, -0.050719135, -144105.88, 99244.234, 0.000009286575, 10.001374, 9.998402 
1.1751549e+3, 2.8516635e+2, -117907.836, -468019.34, 49884.992, 0.056311008, -0.014343349, -110938.79, 34432.926, 0.00005131962, 10.001619, 9.996993 
1.1751659e+3, 2.951645e+2, 99691.52, -301566.13, 33338.582, 0.04697192, 0.068989694, 102442.6, 149835.89, 0.0001770123, 10.002385, 9.997094 
1.1751763e+3, 3.0516118e+2, 288699.6, -199529.33, 63200.563, -0.06471897, 0.037220635, 296748.13, 296748.13, 0.0004593758, 10.00344, 9.996953 
1.1751872e+3, 3.15159e+2, 562151.3, 105418.086, 60992.125, -0.17490257, 0.09820816, 570155.94, 570155.94, 0.0009233706, 10.004533, 9.99852 
1.1849834e+3, 1.251613e+2, -2099778.8, -1704157.9, 10667.163, 0.35105762, 0.23338664, -1703870.5, 9564.307, 0.0020081834, 9.99647, 10.001756 
1.184988e+3, 1.3516238e+2, -1865115.8, -1510670.8, -3347.6135, -0.2334346, 0.11397245, -1510639.1, 104779.7, 0.0010574218, 9.997278, 10.0020485 
1.1850005e+3, 1.4516318e+2, -1780557.1, -1619709.4, -34997.016, -0.046328478, 0.08304705, -1612424.8, -95015.32, 0.00035351914, 9.99808, 10.000208 
1.18501306e+3, 1.5516365e+2, -1559159.3, -1465780.5, -67367.05, 0.2699561, 0.08806268, -1430505.1, -11098.599, 0.00004562391, 9.998952, 10.000169 
1.185023e+3, 1.6516384e+2, -1452411.3, -1401116.9, 54641.715, 0.20500973, 0.11407875, -1366402.8, -44996.6, 0.00000019883093, 9.999161, 9.999849 
1.18503116e+3, 1.7516369e+2, -1400188.3, -1313844.9, 74660.81, -0.16586268, 0.082992725, -1270772.5, -47363.34, 0.0, 9.998796, 9.9999485 
1.1850423e+3, 1.8516396e+2, -1263236.9, -1164054.5, 35594.848, -0.15406607, 0.10403854, -1152602.4, -27196.303, 0.0, 9.9989195, 10.000245 
1.1850564e+3, 1.9516443e+2, -1066091.8, -1012180.7, 5036.4087, 0.19524105, 0.10123525, -1011714.2, 15685.0, 0.0, 9.999575, 10.000298 
1.1850683e+3, 2.0516436e+2, -1020441.7, -998830.56, 70058.914, 0.24195449, 0.09612143, -938748.8, -9351.072, 0.0, 9.999472, 9.999773 
1.1850781e+3, 2.151635e+2, -1040642.25, -949375.9, 70211.914, 0.024009224, 0.010200031, -911270.75, -79866.945, 0.0, 9.9986315, 9.99984 
1.1850889e+3, 2.2516303e+2, -891227.1, -901645.9, 7886.3105, -0.01754455, 0.017496496, -886984.94, -153576.92, 0.0, 9.999295, 9.999177 
1.1851002e+3, 2.3516276e+2, -487016.38, -649321.56, -5416.296, 0.098089695, 0.047172982, -486835.84, 148576.16, 0.0, 10.001367, 9.999238 
1.18511155e+3, 2.4516205e+2, -318141.84, -523504.75, 79633.63, 0.08311373, 0.05837332, -290881.03, 246536.58, 0.0, 10.001885, 9.99918 
1.1851232e+3, 2.5516063e+2, -348009.9, -486826.0, 22618.838, -0.048481688, -0.020512149, -344417.34, 95009.99, 0.0, 10.001001, 9.999187 
1.185135e+3, 2.6515934e+2, -280105.66, -523174.28, -86124.875, -0.03191328, -0.011974508, -252683.31, 88756.4, 0.0000005059796, 10.001332, 9.998094 
1.1851469e+3, 2.751578e+2, 29816.54, -328954.7, -110870.84, 0.099190965, 0.0049861656, 61313.695, 304770.72, 0.000009353779, 10.002807, 9.998052 
1.18515804e+3, 2.8515548e+2, 171081.89, -320500.44, -54894.48, 0.11257705, 0.025617374, 177137.31, 322619.1, 0.000051335024, 10.00358, 9.997059 
1.18516885e+3, 2.9515243e+2, 288742.9, -202740.89, -31934.016, 0.04119337, -0.013461159, 290809.13, 338322.5, 0.00017979782, 10.003666, 9.997153 
1.18517965e+3, 3.0514982e+2, 337700.56, -124278.86, 16589.223, -0.066256404, -0.0036274951, 338295.5, 338295.5, 0.0004625388, 10.003525, 9.997442 
1.1851919e+3, 3.151495e+2, 373409.97, 84376.016, -60957.21, -0.068348095, 0.19634461, 385739.84, 385739.84, 0.00092024915, 10.002894, 9.999179 
1.1949773e+3, 1.2514988e+2, -2089370.4, -1677916.9, -56943.81, 0.052581605, 0.2164572, -1670181.4, 43373.277, 0.0022081332, 9.996458, 10.001937 
1.1949867e+3, 1.3515314e+2, -1846088.5, -1468697.5, 35657.438, -0.12045562, 0.2852863, -1465358.0, 150158.56, 0.0011730703, 9.99727, 10.002339 
1.1949997e+3, 1.4515378e+2, -1785757.9, -1630723.6, -11861.954, 0.021933174, 0.22974864, -1629821.3, -112313.19, 0.00040013902, 9.998079, 10.000134 
1.1950116e+3, 1.5515347e+2, -1556393.6, -1472224.1, -24142.832, 0.20121804, 0.16421023, -1465790.9, -46278.438, 0.00005450229, 9.998993, 10.000112 
1.1950219e+3, 1.6515402e+2, -1391537.8, -1281075.4, 25663.883, 0.16366372, 0.18555716, -1275404.0, 46102.79, 0.00000035173326, 9.999187, 10.000661 
1.1950314e+3, 1.7515521e+2, -1352158.3, -1208177.9, 69098.74, -0.034482524, 0.21270742, -1180382.1, 43111.4, 0.0, 9.998771, 10.000689 
1.19504236e+3, 1.8515538e+2, -1305086.1, -1247792.6, 49945.453, -0.06426544, 0.21860904, -1218861.8, -93370.664, 0.0, 9.998905, 9.999679 
1.19505495e+3, 1.9515447e+2, -1113800.6, -1099186.0, 38260.4, 0.065919586, 0.13435803, -1067541.4, -40041.215, 0.0, 9.999516, 9.999734 
1.1950665e+3, 2.0515418e+2, -1013191.56, -963834.6, 25048.477, 0.10438444, 0.120483264, -953349.9, -23848.059, 0.0, 9.999391, 10.000049 
1.1950774e+3, 2.1515425e+2, -1037058.0, -918514.0, 48164.465, 0.06683375, 0.09842425, -901412.0, -69913.555, 0.0, 9.998532, 10.000098 
1.19508915e+3, 2.251544e+2, -916717.0, -929652.8, 74692.79, 0.067981295, 0.16312689, -848212.6, -114717.03, 0.0, 9.9991865, 9.999036 
1.1951018e+3, 2.3515448e+2, -514528.28, -678918.25, 78678.34, 0.11036203, 0.23885426, -482941.47, 152553.19, 0.0, 10.001249, 9.99909 
1.1951135e+3, 2.4515249e+2, -419680.22, -709364.9, 33712.113, 0.06767439, 0.19182436, -415808.72, 121704.8, 0.0, 10.001773, 9.997961 
1.19512424e+3, 2.5514835e+2, -444704.03, -664909.2, 1010.9032, -0.053420402, -0.040228095, -444699.4, -5146.5723, 0.0, 10.000905, 9.998009 
1.1951364e+3, 2.6514637e+2, -323371.16, -594096.5, -38307.902, -0.048890777, -0.018777048, -318054.94, 23520.139, 0.0000006389743, 10.001244, 9.997656 
1.1951496e+3, 2.751462e+2, -5493.986, -382649.0, -42454.8, 0.06858094, 0.17369151, -774.0892, 242808.77, 0.000009301616, 10.002725, 9.997722 
1.19516164e+3, 2.851444e+2, 219120.84, -203357.2, -59105.49, 0.0950582, 0.21809097, 227234.02, 372834.94, 0.000051838055, 10.003497, 9.997907 
1.19517274e+3, 2.951408e+2, 334227.88, -95235.66, -12868.792, 0.04364409, 0.040258974, 334613.13, 382244.38, 0.00018153801, 10.003596, 9.99793 
1.19518325e+3, 3.0513796e+2, 308116.1, -149307.36, -10151.727, -0.07975242, 0.0023934965, 308341.28, 308341.28, 0.0004580292, 10.003382, 9.997332 
1.1951947e+3, 3.151365e+2, 360879.5, 105571.555, -46744.22, -0.11807622, 0.086016424, 369168.75, 369168.75, 0.0008969489, 10.002703, 9.999408 
1.2049735e+3, 1.2513927e+2, -1948125.9, -1670354.3, 702.4461, -0.021038987, 0.24658555, -1670352.5, 43306.777, 0.0024257244, 9.997705, 10.001391 
1.2049866e+3, 1.3514167e+2, -1780381.9, -1515644.9, -6570.9263, 0.109697126, 0.3106562, -1515481.9, 100150.23, 0.0012988481, 9.998092, 10.001609 
1.2049989e+3, 1.4514172e+2, -1737857.1, -1575391.3, -54876.9, 0.13824531, 0.21762052, -1558592.3, -40962.297, 0.00045139206, 9.998245, 10.000445 
1.2050097e+3, 1.5514232e+2, -1629606.0, -1466183.9, -60418.586, 0.15567529, 0.2059854, -1446272.5, -26648.31, 0.00006471426, 9.998308, 10.000486 
1.2050202e+3, 1.6514334e+2, -1541738.6, -1330525.0, -29061.518, 0.13230096, 0.24496835, -1326599.3, -4986.132, 0.00000057087306, 9.998061, 10.00086 
1.20503075e+3, 1.7514443e+2, -1506400.8, -1256032.3, -52365.676, 0.09423253, 0.2427662, -1245521.1, -21920.986, 0.0, 9.99761, 10.000912 
1.205042e+3, 1.8514462e+2, -1454982.6, -1312492.9, 832.4296, 0.066827886, 0.23471045, -1312488.0, -186890.47, 0.0, 9.99785, 9.999736 
1.20505385e+3, 1.9514377e+2, -1215398.0, -1135867.3, 19016.633, 0.04601947, 0.14766186, -1131554.0, -103947.4, 0.0, 9.998778, 9.999825 
1.2050657e+3, 2.0514347e+2, -964932.1, -970371.8, 8176.139, 0.07379723, 0.14049357, -959035.3, -29426.428, 0.0, 9.99984, 9.999788 
1.205078e+3, 2.1514341e+2, -690072.5, -781283.2, -30782.182, 0.15436761, 0.13313958, -680656.1, 150951.02, 0.0, 10.001027, 9.999843 
1.20509006e+3, 2.2514322e+2, -575377.8, -766668.0, 30613.994, 0.1343396, 0.17610146, -570597.8, 163009.3, 0.0, 10.001541, 9.999024 
1.2051023e+3, 2.3514266e+2, -492820.06, -670248.06, 24600.258, 0.025497379, 0.19466874, -489472.4, 146138.1, 0.0, 10.001412, 9.999073 
1.20511465e+3, 2.451407e+2, -466151.5, -757739.44, -5700.4033, 0.013720038, 0.16343704, -466040.1, 71589.4, 0.0, 10.001567, 9.99772 
1.20512694e+3, 2.5513718e+2, -304680.38, -625431.94, 10532.78, 0.07778285, 0.013415241, -304334.88, 135330.66, 0.00000000020898414, 10.001983, 9.997759 
1.2051394e+3, 2.6513538e+2, -177055.78, -515799.66, 81412.734, 0.08408832, 0.06565403, -158505.16, 183181.11, 0.00000074892756, 10.002215, 9.997722 
1.20515175e+3, 2.7513507e+2, -63561.004, -404751.22, 88720.055, 0.03742303, 0.23742622, -41870.023, 201824.5, 0.000009032264, 10.002292, 9.997775 
1.2051642e+3, 2.851333e+2, 92487.305, -252860.03, 58130.67, 0.048858732, 0.27686444, 102009.6, 247721.67, 0.000052112464, 10.002578, 9.998011 
1.2051766e+3, 2.9513e+2, 247987.97, -125431.75, 22294.5, 0.113807164, 0.11592014, 249314.31, 297054.94, 0.00018292993, 10.002963, 9.998025 
1.2051869e+3, 3.0512723e+2, 255885.56, -175368.75, -1061.9448, -0.020006549, 0.08199694, 255888.17, 255888.17, 0.000455038, 10.003042, 9.997303 
1.2051973e+3, 3.151244e+2, 329023.44, 99747.086, -73366.36, -0.11282474, 0.035613295, 350490.13, 350490.13, 0.0008751653, 10.002481, 9.999455 
1.2149715e+3, 1.2512933e+2, -2033919.6, -1842067.8, 33185.89, -0.050334953, 0.29026672, -1836489.6, -122739.85, 0.0026624324, 9.997705, 10.0002 
1.2149876e+3, 1.3512805e+2, -1917673.1, -1806635.5, 12322.138, 0.38955683, 0.18720481, -1805284.5, -189519.86, 0.0014356553, 9.998114, 9.999606 
1.21499814e+3, 1.4512703e+2, -1676513.5, -1443812.0, -66903.62, 0.22352566, 0.040626053, -1425948.0, 91826.875, 0.0005075534, 9.998237, 10.001348 
1.2150071e+3, 1.5513022e+2, -1570583.0, -1344783.9, -46537.402, 0.04885882, 0.20057242, -1335568.6, 84173.19, 0.000076397075, 9.99831, 10.001321 
1.2150174e+3, 1.6513178e+2, -1570911.9, -1392308.1, -56423.258, 0.014262902, 0.2745011, -1375976.6, -54251.16, 0.0000008702971, 9.99807, 10.000428 
1.2150292e+3, 1.7513143e+2, -1535248.8, -1317411.4, -59609.664, 0.14568363, 0.17131576, -1302166.5, -78438.31, 0.0, 9.997609, 10.000493 
1.215041e+3, 1.8513167e+2, -1397705.9, -1195191.6, 23851.627, 0.15681744, 0.14801273, -1192420.4, -66694.99, 0.0, 9.997857, 10.000539 
1.2150528e+3, 1.9513233e+2, -1168367.4, -1031888.4, 63670.867, 0.048080698, 0.13314378, -1006797.25, 20921.29, 0.0, 9.998742, 10.000562 
1.21506564e+3, 2.0513222e+2, -1038438.25, -1096117.3, 41047.99, 0.06024658, 0.15240814, -1017111.5, -87392.55, 0.0, 9.999732, 9.998972 
1.2150796e+3, 2.1513118e+2, -769021.56, -907848.5, 21613.762, 0.19805071, 0.124919176, -765734.4, 65993.78, 0.0, 10.000867, 9.999048 
1.2150914e+3, 2.2512963e+2, -590051.4, -762729.4, 14211.389, 0.10095905, 0.068016835, -588889.56, 144851.2, 0.0, 10.00139, 9.999126 
1.2151013e+3, 2.3512751e+2, -501942.88, -660986.9, 31432.545, -0.21870126, -0.08194506, -495956.1, 139801.63, 0.0, 10.001288, 9.999199 
1.2151146e+3, 2.4512677e+2, -442931.3, -673028.6, 2920.6467, -0.16099575, -0.02997223, -442894.25, 94870.64, 0.0, 10.001417, 9.998369 
1.215131e+3, 2.551271e+2, -272618.94, -538186.9, 35770.43, 0.26400244, 0.14088616, -267885.25, 171879.97, 0.00000000018849695, 10.001897, 9.998397 
1.21514365e+3, 2.651264e+2, -153245.08, -449394.47, 73821.29, 0.2783917, 0.24308437, -135863.73, 205910.16, 0.00000061447383, 10.002136, 9.998219 
1.215153e+3, 2.7512443e+2, -39004.074, -339270.44, 101934.57, -0.08789151, 0.19948535, -7669.276, 236123.67, 0.000008322687, 10.00222, 9.998262 
1.2151652e+3, 2.8512228e+2, 23407.6, -362545.0, 63146.867, -0.122267485, 0.20949014, 33476.563, 179292.16, 0.000050693892, 10.002443, 9.99732 
1.2151803e+3, 2.951199e+2, 192799.78, -221018.31, 52444.582, 0.15738356, 0.21046904, 199342.81, 247184.83, 0.00018223259, 10.002885, 9.997403 
1.2151907e+3, 3.0511737e+2, 233050.28, -202592.05, -29037.766, 0.029878289, 0.23508824, 234977.27, 234977.27, 0.00045375043, 10.0029545, 9.997161 
1.21519886e+3, 3.1511283e+2, 293960.88, 59773.234, -59633.902, -0.24233113, 0.031749967, 308271.66, 308271.66, 0.0008639957, 10.002349, 9.999241 
1.2249693e+3, 1.2511638e+2, -1896333.4, -1749667.4, 16216.016, -0.056733742, 0.17738417, -1747895.9, -34022.848, 0.0029179724, 9.998477, 10.0004835 
1.2249863e+3, 1.351157e+2, -1904199.9, -1824947.3, 35239.273, 0.44995937, 0.15249807, -1811544.8, -195661.81, 0.0015834377, 9.998291, 9.999399 
1.2249964e+3, 1.4511515e+2, -1698891.4, -1437463.4, 15634.299, 0.23378724, 0.055267032, -1436531.8, 81357.55, 0.00056846405, 9.998016, 10.001493 
1.2250054e+3, 1.5511803e+2, -1615003.1, -1340535.9, -44827.344, 0.06970189, 0.16375214, -1333400.0, 86459.68, 0.00008951281, 9.9979105, 10.001532 
1.22501574e+3, 1.651194e+2, -1497558.8, -1342028.8, -15996.139, 0.038551394, 0.20156227, -1340400.6, -18556.45, 0.0000012652538, 9.998479, 10.000595 
1.2250278e+3, 1.7511904e+2, -1221842.5, -1145409.8, 11041.076, 0.1533798, 0.078432694, -1143846.9, 79998.26, 0.0, 9.999655, 10.000698 
1.22504e+3, 1.851196e+2, -1118498.1, -1096955.6, 88328.54, 0.17619024, 0.09205647, -1018744.0, 107096.12, 0.0, 9.9999275, 10.00022 
1.2250525e+3, 1.9512084e+2, -1092319.1, -1027310.6, 20476.045, 0.10945201, 0.16827793, -1021398.8, 6432.444, 0.0, 9.999411, 10.000272 
1.2250657e+3, 2.0512079e+2, -1078290.5, -1101034.1, 38431.035, 0.11906628, 0.20087169, -1049584.1, -119752.266, 0.0, 9.99938, 9.999113 
1.22508e+3, 2.1511935e+2, -921508.25, -963673.3, 73157.336, 0.2071517, 0.11749142, -866456.25, -34613.05, 0.0, 9.999745, 9.999203 
1.2250924e+3, 2.2511767e+2, -788967.2, -895300.9, 84332.01, 0.1228428, 0.055808257, -742441.5, -8584.1, 0.0, 10.000184, 9.998793 
1.22510314e+3, 2.351156e+2, -613638.75, -751933.44, 41657.332, -0.13314728, -0.05610827, -602060.06, 33816.246, 0.0, 10.000679, 9.998865 
1.2251167e+3, 2.4511477e+2, -446621.7, -673824.25, 11794.136, -0.075432554, 0.0034549064, -446011.1, 91874.0, 0.0, 10.001375, 9.998396 
1.2251333e+3, 2.5511497e+2, -211394.58, -500835.78, -16977.332, 0.28629684, 0.15875961, -210402.16, 229483.73, 0.0, 10.00229, 9.998466 
1.2251461e+3, 2.6511407e+2, -46541.785, -357394.44, -13743.708, 0.285712, 0.22226192, -45935.316, 295958.84, 0.0000003685213, 10.002701, 9.998577 
1.2251555e+3, 2.751119e+2, 33346.01, -263298.2, -18674.455, -0.06216546, 0.12437133, 34516.99, 278428.88, 0.0000073761885, 10.002562, 9.998612 
1.2251678e+3, 2.8510982e+2, 45050.2, -385576.56, -13007.161, -0.102887, 0.13804685, 45442.723, 191377.0, 0.00004908337, 10.002712, 9.997035 
1.2251831e+3, 2.9510772e+2, 190865.33, -257348.19, -17403.553, 0.15018912, 0.19704656, 191540.08, 239502.03, 0.00018069774, 10.003012, 9.997099 
1.2251938e+3, 3.051061e+2, 310272.75, -152773.19, -69234.25, 0.03996288, 0.3213448, 320402.97, 320402.97, 0.00045143487, 10.003428, 9.997273 
1.2252029e+3, 3.1510174e+2, 474785.34, 112766.65, -117940.836, -0.13912596, 0.12687106, 509818.66, 509818.66, 0.00085789553, 10.003689, 9.9989805 
1.2349686e+3, 1.2510048e+2, -1749620.6, -1454366.1, 68270.805, -0.023344243, -0.07717152, -1439344.4, 274684.0, 0.0031899144, 9.998516, 10.00249 
1.23498216e+3, 1.3510452e+2, -1773588.3, -1569496.5, 25633.418, 0.17528668, 0.19008097, -1566326.3, 49661.453, 0.0017411282, 9.9983425, 10.001129 
1.2349929e+3, 1.4510599e+2, -1737496.0, -1530072.0, -647.44666, 0.060367715, 0.24143484, -1530070.0, -12096.223, 0.0006337289, 9.998063, 10.00084 
1.2350043e+3, 1.5510564e+2, -1650749.4, -1430328.5, -41230.824, 0.1408109, 0.09255659, -1422868.6, -2889.725, 0.00010392506, 9.997958, 10.000903 
1.2350154e+3, 1.651061e+2, -1426430.8, -1197994.9, 13813.091, 0.1275291, 0.02191016, -1197162.6, 124807.97, 0.0000017603737, 9.998497, 10.001572 
1.2350265e+3, 1.751073e+2, -1156140.3, -1012537.2, 61655.77, 0.031557277, -0.044371687, -989697.8, 234252.86, 0.0, 9.999662, 10.00161 
1.2350388e+3, 1.8510838e+2, -1227040.9, -1316949.4, 57266.957, 0.03689622, 0.054656476, -1199191.4, -73249.38, 0.0, 9.9999075, 9.998719 
1.23505235e+3, 1.951092e+2, -1202193.3, -1245253.5, 11431.454, 0.14413872, 0.24005526, -1199346.6, -171400.89, 0.0, 9.999363, 9.998801 
1.2350657e+3, 2.0510909e+2, -1009294.06, -935184.8, 37826.402, 0.16771798, 0.2772317, -919287.75, 10660.983, 0.0, 9.999287, 10.000296 
1.2350789e+3, 2.1510793e+2, -857481.6, -806651.4, 94274.87, 0.109027006, 0.10439852, -734425.94, 97526.31, 0.0, 9.999636, 10.000337 
1.23509265e+3, 2.2510724e+2, -864700.25, -1024348.25, 91722.54, 0.11577273, 0.12762289, -822931.1, -88973.31, 0.0, 10.000061, 9.997968 
1.2351072e+3, 2.3510678e+2, -689831.1, -884948.75, 70944.69, 0.18478614, 0.2604206, -666762.94, -30795.207, 0.0, 10.000567, 9.998009 
1.23512074e+3, 2.4510467e+2, -498834.44, -755204.5, 35407.863, 0.16562396, 0.26141036, -494034.06, 43956.414, 0.0, 10.001261, 9.99789 
1.23513356e+3, 2.5510082e+2, -256977.53, -578239.3, 27891.53, 0.07204958, 0.062052533, -254574.02, 185452.97, 0.0, 10.002205, 9.997979 
1.23514645e+3, 2.6509854e+2, -56272.1, -343329.9, -25745.521, 0.030223554, -0.000022339558, -53981.33, 288065.03, 0.00000016286783, 10.00256, 9.998739 
1.2351592e+3, 2.7509755e+2, 29924.941, -248685.52, -9214.508, 0.029178267, 0.0032735625, 30229.361, 274280.47, 0.000006622681, 10.002469, 9.998756 
1.235172e+3, 2.8509596e+2, 34603.25, -380317.88, -8161.8403, 0.011723916, 0.053837195, 34763.74, 180832.34, 0.00004875032, 10.002602, 9.997123 
1.2351848e+3, 2.9509354e+2, 184964.36, -251301.86, 10966.859, -0.005122928, 0.07236376, 185239.86, 233340.22, 0.00018165374, 10.002928, 9.997184 
1.23519614e+3, 3.0509344e+2, 315504.75, -115854.234, -59307.04, -0.091522366, 0.33038366, 323510.25, 323510.25, 0.0004530007, 10.003315, 9.997584 
1.2352085e+3, 3.150912e+2, 435669.78, 71716.4, -70398.33, 0.0042304466, 0.31548905, 448812.13, 448812.13, 0.00085901335, 10.003519, 9.998778 
1.2449675e+3, 1.2508814e+2, -1806557.3, -1432971.8, 190652.55, 0.0524871, -0.080956325, -1352856.5, 361291.22, 0.003475539, 9.9979515, 10.002899 
1.2449779e+3, 1.3509244e+2, -1914688.9, -1560635.4, -6897.1377, -0.008080863, 0.14616555, -1560501.1, 55602.63, 0.0019075654, 9.997062, 10.001809 
1.2449904e+3, 1.4509477e+2, -1842549.4, -1600338.6, 17472.322, 0.029128496, 0.260854, -1599084.6, -81003.94, 0.0007030745, 9.997434, 10.00066 
1.2450034e+3, 1.5509391e+2, -1507459.3, -1383721.1, -11413.325, 0.21459535, 0.081396684, -1382677.1, 37413.7, 0.00011956255, 9.999046, 10.000694 
1.2450149e+3, 1.6509405e+2, -1319381.3, -1183344.1, 9129.958, 0.19215648, 0.004895643, -1182734.1, 139352.9, 0.0000023468863, 9.999412, 10.001222 
1.2450252e+3, 1.7509514e+2, -1326114.0, -1129653.5, -65799.43, -0.010486833, -0.034216236, -1109652.0, 114417.82, 0.0, 9.998674, 10.0012665 
1.2450377e+3, 1.8509592e+2, -1352348.6, -1386356.5, -35796.004, -0.008773925, 0.053802244, -1329723.1, -203659.33, 0.0, 9.999071, 9.998649 
1.24505274e+3, 1.9509614e+2, -1040151.0, -1177300.0, 10098.701, 0.19178139, 0.18461567, -1039411.4, -11340.103, 0.0, 10.0005045, 9.998721 
1.2450663e+3, 2.050959e+2, -779318.0, -852638.9, 39298.613, 0.21720578, 0.22689879, -762234.9, 167840.9, 0.0, 10.00099, 10.00004 
1.2450786e+3, 2.1509509e+2, -743401.94, -776444.1, -33544.48, 0.08014791, 0.114072666, -722530.8, 109547.97, 0.0, 10.000532, 10.00011 
1.2450931e+3, 2.2509465e+2, -742283.3, -963914.9, -4376.4766, 0.115797795, 0.17184694, -742196.94, -8113.379, 0.0, 10.000896, 9.997977 
1.2451097e+3, 2.3509428e+2, -474206.9, -777211.0, 15701.606, 0.31753597, 0.3118024, -473395.4, 162697.3, 0.0, 10.002034, 9.998038 
1.2451235e+3, 2.4509214e+2, -322788.1, -656008.4, 37001.137, 0.27629316, 0.29868183, -318728.9, 219386.42, 0.0, 10.002403, 9.998024 
1.2451349e+3, 2.5508815e+2, -279092.16, -572617.0, 54669.473, 0.005299537, 0.072427355, -269240.53, 170911.34, 0.0, 10.001989, 9.998117 
1.24514796e+3, 2.6508588e+2, -129115.4, -388053.9, 30543.201, -0.042664826, 0.008970821, -125561.44, 216609.61, 0.000000050542315, 10.002084, 9.998665 
1.24516256e+3, 2.7508503e+2, 48801.43, -250998.86, 8792.332, 0.12076536, 0.033950333, 49059.063, 293234.75, 0.0000061370592, 10.002626, 9.998675 
1.24517575e+3, 2.8508344e+2, 91051.27, -287446.84, 33049.258, 0.14084734, 0.061885748, 93915.36, 240106.88, 0.000049451537, 10.002719, 9.997704 
1.24518774e+3, 2.9508084e+2, 140784.67, -204277.03, 60438.504, 0.03434421, 0.00742118, 151064.39, 199285.06, 0.00018703903, 10.002346, 9.997783 
1.2451992e+3, 3.0508092e+2, 192347.19, -191486.83, 34190.324, -0.066903085, 0.25987238, 195368.92, 195368.92, 0.000466284, 10.002518, 9.997461 
1.2452129e+3, 3.150791e+2, 340300.66, -41218.48, -39410.188, 0.1180059, 0.299497, 344329.13, 344329.13, 0.0008807125, 10.00315, 9.998187 
1.254966e+3, 1.250794e+2, -1885723.1, -1624219.3, 80756.586, 0.052333005, 0.15912746, -1601290.8, 112939.695, 0.0037739007, 9.998044, 10.00155 
1.2549736e+3, 1.3507952e+2, -1936372.5, -1621704.9, -31058.895, -0.16517253, 0.015962746, -1618668.5, -2438.5535, 0.0020822603, 9.997115, 10.001372 
1.2549885e+3, 1.4508162e+2, -1815077.4, -1551007.1, 67144.43, 0.07266721, 0.10936061, -1534915.1, -16705.988, 0.0007764397, 9.997465, 10.000982 
1.2550026e+3, 1.5508297e+2, -1483777.1, -1343409.1, 57435.11, 0.20087853, 0.12421324, -1322903.6, 97291.016, 0.00013646827, 9.999081, 10.000956 
1.2550141e+3, 1.6508326e+2, -1442056.8, -1444104.0, -32483.719, 0.14922535, 0.14042772, -1410580.6, -88387.805, 0.0000030208696, 9.999434, 9.999421 
1.2550236e+3, 1.7508258e+2, -1446308.8, -1384734.3, -85559.38, -0.044193912, 0.10223047, -1324591.5, -100389.195, 0.0, 9.9986925, 9.999509 
1.2550367e+3, 1.8508215e+2, -1249997.4, -1173628.9, 6161.79, -0.034226432, 0.08364136, -1173134.9, -46928.76, 0.0, 9.999067, 10.000112 
1.2550533e+3, 1.950817e+2, -944790.5, -970984.4, 72256.07, 0.1646365, -0.0007224637, -884454.0, 143753.2, 0.0, 10.000463, 10.000158 
1.2550671e+3, 2.0508133e+2, -914739.06, -1105631.6, 10903.232, 0.18622698, 0.04251576, -914118.3, 16093.87, 0.0, 10.000873, 9.998361 
1.2550789e+3, 2.1508092e+2, -878628.0, -1030362.3, -39956.883, 0.03550577, 0.13893865, -868749.1, -36526.887, 0.0, 10.000416, 9.9984255 
1.2550934e+3, 2.2507991e+2, -702882.7, -850573.06, 27805.344, 0.03468136, 0.18189642, -697821.25, 36413.332, 0.0, 10.00076, 9.998821 
1.2551107e+3, 2.3507819e+2, -431209.94, -662412.1, 68195.41, 0.1917135, 0.10131939, -412593.94, 223656.64, 0.0, 10.001916, 9.998887 
1.2551253e+3, 2.4507722e+2, -291493.97, -555461.9, 12183.237, 0.18188459, 0.12605828, -290932.84, 247326.0, 0.0, 10.002253, 9.998785 
1.255137e+3, 2.550768e+2, -247063.88, -479693.84, 50079.906, 0.0025163286, 0.17913747, -236740.9, 203520.88, 0.0, 10.001871, 9.998813 
1.2551506e+3, 2.650758e+2, -172226.6, -445542.0, 41572.08, -0.019585177, 0.22742967, -166043.25, 176227.67, 0.00000007625481, 10.001947, 9.998335 
1.2551653e+3, 2.7507412e+2, 9930.883, -303268.78, 42596.83, 0.12069127, 0.2030291, 15620.906, 259908.16, 0.0000061507535, 10.002502, 9.998378 
1.2551792e+3, 2.8507218e+2, 148578.17, -149295.81, 9431.535, 0.18441454, 0.1595575, 148876.5, 295180.3, 0.000051588533, 10.00263, 9.998696 
1.2551917e+3, 2.9506963e+2, 200677.17, -69713.7, 59893.625, 0.17162386, 0.0046210866, 213350.1, 261673.69, 0.00019968531, 10.002291, 9.998736 
1.2552027e+3, 3.050685e+2, 140736.39, -283248.72, 49299.055, 0.017406238, 0.11516093, 146393.19, 146393.19, 0.0005003561, 10.002458, 9.996854 
1.2552154e+3, 3.1506556e+2, 238572.84, -216594.16, 20153.912, 0.015862655, 0.10352756, 239463.48, 239463.48, 0.00094151887, 10.002998, 9.997055 
1.264965e+3, 1.2506838e+2, -2125130.5, -1836180.9, -17797.867, 0.21630648, 0.23021042, -1835088.6, -120750.75, 0.004085261, 9.996848, 10.00066 
1.2649706e+3, 1.3506745e+2, -1896352.9, -1634148.9, -74781.62, -0.19160198, 0.020947339, -1614320.4, 2029.3452, 0.0022650692, 9.997563, 10.001049 
1.2649862e+3, 1.4506897e+2, -1750389.1, -1505183.1, 72182.125, 0.08819549, 0.062621586, -1485512.6, 32821.58, 0.00085386867, 9.997848, 10.001114 
1.2650006e+3, 1.5507063e+2, -1680495.9, -1424302.8, 22364.334, 0.1638193, 0.09906136, -1422365.1, -2051.1504, 0.00015477135, 9.997681, 10.001073 
1.2650126e+3, 1.6507107e+2, -1661347.4, -1596343.6, -15582.046, 0.13711211, 0.14564641, -1592801.5, -270490.38, 0.0000038088367, 9.998124, 9.999008 
1.2650235e+3, 1.7507032e+2, -1381573.1, -1400744.8, 16221.881, 0.027728666, 0.1404943, -1372316.5, -147991.8, 0.0, 9.999332, 9.999096 
1.2650368e+3, 1.850697e+2, -1104335.9, -1057563.8, 153578.53, 0.02467901, 0.10243668, -925600.94, 200728.94, 0.0, 9.999879, 10.000514 
1.2650527e+3, 1.9506902e+2, -1013020.0, -958814.94, 113881.3, 0.11016518, -0.04270875, -868855.56, 159473.47, 0.0, 9.99982, 10.0005455 
1.2650672e+3, 2.050685e+2, -1025232.3, -1231170.4, 61217.4, 0.121037, -0.001263589, -1008409.06, -78073.766, 0.0, 10.000422, 9.997716 
1.26508e+3, 2.1506797e+2, -755954.4, -1043290.44, 66520.945, 0.053873844, 0.1466528, -741301.44, 91048.984, 0.0, 10.001567, 9.997779 
1.2650947e+3, 2.2506668e+2, -529567.06, -747747.7, 167652.44, 0.044709012, 0.18417822, -438637.28, 295728.84, 0.0, 10.001856, 9.999006 
1.2651113e+3, 2.3506461e+2, -514592.38, -678592.7, 139714.33, 0.10361196, 0.051437907, -434592.2, 201790.77, 0.0, 10.001243, 9.999101 
1.2651262e+3, 2.4506389e+2, -426126.16, -606849.06, 45952.664, 0.113705315, 0.082227655, -415112.88, 123275.195, 0.0, 10.001267, 9.998905 
1.2651396e+3, 2.550642e+2, -236733.55, -463015.03, 17411.06, 0.073906444, 0.19974412, -235401.7, 204982.86, 0.0, 10.001887, 9.998921 
1.2651533e+3, 2.650633e+2, -173643.36, -468951.13, 11921.601, 0.0715796, 0.26144293, -173162.86, 169231.11, 0.00000015326442, 10.002035, 9.998136 
1.2651673e+3, 2.7506107e+2, -126549.29, -387591.56, -3876.0137, 0.11104531, 0.20085567, -126491.75, 117925.305, 0.0000068361555, 10.001649, 9.998206 
1.2651812e+3, 2.8505915e+2, 35497.293, -179297.98, -35376.855, 0.17409661, 0.15950894, 41173.855, 187606.27, 0.000055437977, 10.001752, 9.998907 
1.265195e+3, 2.9505727e+2, 244483.45, -22933.32, -65727.54, 0.26329964, 0.052401017, 259765.14, 308208.03, 0.00021948728, 10.00249, 9.998951 
1.2652065e+3, 3.050554e+2, 316972.47, -213577.77, -31590.82, 0.082906745, 0.09038874, 318846.88, 318846.88, 0.0005555959, 10.003743, 9.996706 
1.265219e+3, 3.15052e+2, 534224.75, -119957.984, -62642.91, -0.024760215, 0.044421624, 540169.25, 540169.25, 0.001046126, 10.005243, 9.996625 
1.2749623e+3, 1.2505546e+2, -2139239.3, -1890526.5, -141015.47, 0.22064112, 0.14048795, -1826867.3, -112400.73, 0.0044096503, 9.996939, 10.000248 
1.2749687e+3, 1.3505645e+2, -1916053.3, -1688386.3, -38072.387, -0.16611066, 0.16427872, -1682188.3, -65727.42, 0.0024558255, 9.997603, 10.000665 
1.274983e+3, 1.4505687e+2, -1747142.1, -1510284.0, 55120.258, -0.03611518, 0.11485635, -1498085.0, 20370.6, 0.00093550276, 9.997898, 10.001053 
1.274997e+3, 1.5505694e+2, -1682937.9, -1436419.5, 26031.512, 0.025228405, -0.00012460402, -1433700.8, -13252.189, 0.00017466526, 9.997707, 10.000978 
1.2750106e+3, 1.6505747e+2, -1583544.6, -1447052.4, 16110.338, 0.073271155, 0.009638908, -1445176.6, -122734.52, 0.0000047674703, 9.998167, 10.000015 
1.2750238e+3, 1.7505836e+2, -1305970.6, -1252320.0, 69060.96, 0.11981057, 0.06898654, -1205057.4, 19379.549, 0.0, 9.99936, 10.000103 
1.2750375e+3, 1.8505862e+2, -1158996.5, -1168682.8, 140681.45, 0.07870867, 0.104493365, -1023074.9, 103359.766, 0.0, 9.999868, 9.999757 
1.2750511e+3, 1.9505803e+2, -1069228.3, -1071519.0, 122161.195, -0.051254902, 0.044859543, -948207.06, 80229.984, 0.0, 9.999796, 9.999785 
1.2750658e+3, 2.050573e+2, -1013082.75, -1185042.0, 91571.65, -0.06076576, 0.084422454, -973452.4, -43006.32, 0.0, 10.000333, 9.998075 
1.2750816e+3, 2.1505624e+2, -749953.44, -998466.9, 116639.61, 0.052103672, 0.14283171, -703785.56, 128677.75, 0.0, 10.001426, 9.998155 
1.2750968e+3, 2.2505501e+2, -581457.06, -817082.0, 133973.02, 0.06384916, 0.18575874, -520863.97, 213613.78, 0.0, 10.001696, 9.998604 
1.2751113e+3, 2.3505343e+2, -563675.5, -752861.56, 128410.63, -0.027333923, 0.14294165, -498778.3, 137712.72, 0.0, 10.001122, 9.998648 
1.2751265e+3, 2.4505195e+2, -485539.3, -698617.3, 59857.652, -0.008214552, 0.15199359, -469875.63, 68628.95, 0.0, 10.001133, 9.998341 
1.2751423e+3, 2.5505042e+2, -288506.66, -543977.9, 53297.727, 0.12480735, 0.13677141, -277833.34, 162686.23, 0.0, 10.00177, 9.998422 
1.2751561e+3, 2.6504853e+2, -196034.92, -491176.56, -11207.02, 0.13300137, 0.12726216, -195609.98, 146928.3, 0.00000020123079, 10.00193, 9.998031 
1.275168e+3, 2.7504596e+2, -148712.78, -414446.0, -4834.118, 0.006838393, 0.040987577, -148624.88, 95938.61, 0.0000077157165, 10.001569, 9.998058 
1.2751818e+3, 2.850444e+2, -12582.22, -266721.44, -19856.174, 0.032548733, 0.073216595, -11040.192, 135536.3, 0.000060411407, 10.001698, 9.998332 
1.2751971e+3, 2.9504374e+2, 191909.6, -110647.36, -23532.672, 0.21948786, 0.14091672, 193729.02, 242307.66, 0.0002426435, 10.0023985, 9.998394 
1.27521e+3, 3.0504176e+2, 316111.3, -194251.31, 18941.45, 0.03793016, 0.18591441, 316813.34, 316813.34, 0.00062155863, 10.00365, 9.9968815 
1.2752232e+3, 3.1503895e+2, 507049.25, -118341.92, 32623.209, -0.18123737, 0.17558053, 508746.4, 508746.4, 0.0011774478, 10.005007, 9.996743 
1.2849589e+3, 1.2504314e+2, -2145588.8, -1851567.0, -136192.67, 0.19461437, 0.117464855, -1798176.6, -83586.61, 0.0047468157, 9.996684, 10.000648 
1.284968e+3, 1.3504502e+2, -1884929.0, -1659560.9, 21992.412, 0.00899273, 0.21807411, -1657434.9, -40861.633, 0.0026545508, 9.997755, 10.000783 
1.2849812e+3, 1.450448e+2, -1728432.8, -1555646.8, 108330.24, -0.022124648, 0.1233627, -1503478.6, 15095.249, 0.0010215283, 9.998262, 10.00057 
1.2849946e+3, 1.5504414e+2, -1564511.6, -1425464.5, 31620.645, -0.032940496, -0.019817086, -1418611.4, 1964.2539, 0.00019628371, 9.998719, 10.0005665 
1.2850086e+3, 1.6504464e+2, -1439570.4, -1337422.0, 26645.4, 0.04233299, -0.011394676, -1330889.4, -8320.007, 0.0000059623408, 9.998988, 10.000374 
1.2850235e+3, 1.7504613e+2, -1322972.1, -1221207.8, 7243.5176, 0.17005855, 0.074816965, -1220694.8, 3861.497, 0.0, 9.999085, 10.000448 
1.2850375e+3, 1.8504658e+2, -1252945.0, -1268771.6, 70035.27, 0.13110672, 0.1396366, -1190377.4, -63824.766, 0.0, 9.999463, 9.999263 
1.285051e+3, 1.9504584e+2, -1048179.94, -1115008.5, 51771.758, -0.07151148, 0.11273237, -1019975.8, 8584.066, 0.0, 10.000179, 9.999302 
1.2850659e+3, 2.05045e+2, -923651.8, -1083825.5, 72382.555, -0.10123774, 0.1414074, -895788.94, 34780.66, 0.0, 10.000692, 9.998598 
1.2850827e+3, 2.1504393e+2, -777001.2, -951382.44, 89627.8, 0.041515578, 0.14492819, -739150.44, 93432.81, 0.0, 10.000981, 9.998693 
1.2850985e+3, 2.250428e+2, -678085.9, -886267.06, 99771.3, 0.09304451, 0.1818742, -637992.0, 96603.445, 0.0, 10.00114, 9.998393 
1.2851132e+3, 2.3504144e+2, -572905.6, -780467.94, 85384.06, 0.05234015, 0.18282188, -542295.7, 94312.375, 0.0, 10.001169, 9.998431 
1.2851281e+3, 2.4503958e+2, -483732.8, -730964.25, 81535.14, 0.057324536, 0.18069138, -459264.7, 79361.24, 0.0, 10.001279, 9.998052 
1.2851435e+3, 2.5503713e+2, -361157.2, -611812.9, 69661.16, 0.111833826, 0.10259062, -343098.34, 97551.76, 0.0, 10.001411, 9.998132 
1.2851578e+3, 2.6503482e+2, -195009.28, -518674.44, 27783.656, 0.117857225, 0.07785313, -192641.64, 150030.83, 0.00000014147287, 10.002058, 9.997778 
1.2851712e+3, 2.7503234e+2, 86685.766, -329614.5, -571.7394, 0.0731507, 0.027877409, 86686.55, 331382.03, 0.000007879153, 10.003306, 9.997802 
1.285185e+3, 2.8503036e+2, 248228.72, -249940.31, -14484.416, 0.08484171, 0.07909635, 248649.5, 395363.53, 0.00006527563, 10.003956, 9.997365 
1.2851997e+3, 2.9502863e+2, 344015.16, -145444.75, -74785.0, 0.16209301, 0.13837655, 355186.66, 403917.06, 0.00026928063, 10.003903, 9.997435 
1.285213e+3, 3.0502602e+2, 319311.84, -129854.05, -11088.675, -0.010236425, 0.14306228, 319585.4, 319585.4, 0.0006971103, 10.003394, 9.997456 
1.2852278e+3, 3.1502464e+2, 187921.05, -194915.92, -4162.2813, -0.0738956, 0.21942593, 187966.3, 187966.3, 0.0013253348, 10.002438, 9.997471 
1.2949522e+3, 1.2503155e+2, -2052433.9, -1658885.0, -85096.44, -0.1795442, 0.1570754, -1641272.9, 73434.164, 0.0050962004, 9.996697, 10.001963 
1.2949686e+3, 1.350332e+2, -1848333.1, -1579732.1, 62765.234, 0.27206737, 0.1728842, -1565789.3, 50897.234, 0.0028611089, 9.9977455, 10.001336 
1.2949803e+3, 1.4503281e+2, -1788153.9, -1682937.0, 108358.336, 0.039003085, 0.08508356, -1615091.4, -96402.65, 0.00111182, 9.998278, 9.999688 
1.2949929e+3, 1.5503244e+2, -1617396.0, -1540416.1, 58981.207, -0.095862225, 0.048987858, -1508477.0, -87783.64, 0.000219555, 9.998738, 9.999769 
1.295007e+3, 1.6503268e+2, -1458440.9, -1382181.1, 16270.64, -0.04760116, 0.088820405, -1378854.8, -56163.395, 0.0000074533, 9.999008, 10.000058 
1.2950222e+3, 1.750336e+2, -1343036.0, -1269939.4, 17800.193, 0.10580291, 0.14725913, -1265835.3, -41152.637, 0.0, 9.99911, 10.000102 
1.2950368e+3, 1.8503362e+2, -1269490.8, -1305000.4, 85958.5, 0.09828508, 0.19960867, -1199472.5, -72789.016, 0.0, 9.999467, 9.999017 
1.2950516e+3, 1.950325e+2, -1068265.8, -1150430.1, 87337.04, -0.03394321, 0.1606924, -1012831.0, 15865.738, 0.0, 10.000144, 9.99908 
1.2950669e+3, 2.0503166e+2, -890110.0, -989340.75, 73330.75, -0.084563985, 0.16350895, -851186.75, 79518.65, 0.0, 10.000589, 9.999295 
1.2950829e+3, 2.15031e+2, -750237.56, -862718.44, 108295.86, -0.058431376, 0.13850017, -684449.4, 148261.0, 0.0, 10.000841, 9.999368 
1.2950994e+3, 2.2503002e+2, -704713.9, -909824.7, 90163.164, 0.05024666, 0.1643877, -670715.2, 64004.207, 0.0, 10.000999, 9.998301 
1.2951164e+3, 2.3502862e+2, -594209.94, -798257.5, 98572.99, 0.2448768, 0.1688678, -554369.4, 82364.484, 0.0, 10.001048, 9.99837 
1.2951313e+3, 2.4502678e+2, -510127.13, -749005.44, 75685.51, 0.21221612, 0.17174266, -488166.1, 50586.082, 0.0, 10.001131, 9.997995 
1.2951435e+3, 2.5502428e+2, -385017.94, -630620.06, 85295.31, -0.04256542, 0.09586443, -358301.8, 82474.59, 0.0, 10.00129, 9.998056 
1.2951586e+3, 2.6502207e+2, -235253.06, -590489.25, 64816.7, -0.0442691, 0.11130191, -223796.06, 119000.88, 0.000000052302592, 10.001994, 9.997323 
1.295176e+3, 2.7502015e+2, 41473.184, -398616.06, 59531.508, 0.20610836, 0.15639867, 49383.9, 294197.66, 0.000007172051, 10.003193, 9.997388 
1.2951906e+3, 2.8501698e+2, 132216.77, -457465.5, -24465.576, 0.21747445, 0.17923295, 133230.08, 280075.16, 0.00006969282, 10.003811, 9.996008 
1.2952021e+3, 2.9501224e+2, 225338.36, -359709.3, -59020.8, -0.011219194, 0.06753977, 231233.11, 280128.6, 0.00030090005, 10.003766, 9.996025 
1.295215e+3, 3.0500853e+2, 361053.34, -16915.383, -54760.883, -0.14739023, -0.005222587, 368827.3, 368827.3, 0.00078591175, 10.003291, 9.9982815 
1.2952326e+3, 3.1500933e+2, 246600.98, -16124.149, 4455.5615, 0.12866804, 0.20108718, 246676.53, 246676.53, 0.0014935846, 10.002214, 9.998802 
1.3049485e+3, 1.2501857e+2, -2160133.3, -1671680.8, 14201.566, -0.16242898, 0.14385611, -1671268.1, 43565.35, 0.0054552136, 9.995799, 10.002306 
1.3049668e+3, 1.3502005e+2, -2025523.9, -1666509.1, -34875.926, 0.38818175, 0.14417528, -1663152.5, -46338.168, 0.003073975, 9.996533, 10.001329 
1.304978e+3, 1.4502005e+2, -1961472.6, -1781311.0, 54086.164, 0.0399578, 0.10542944, -1766321.1, -247507.67, 0.0012055306, 9.997144, 9.9995575 
1.304992e+3, 1.5501994e+2, -1643838.5, -1563485.3, 41517.984, -0.048536316, 0.10433892, -1545887.3, -125069.99, 0.000244213, 9.998601, 9.999674 
1.3050066e+3, 1.6501997e+2, -1419902.9, -1408024.9, 15230.062, 0.0011365911, 0.14537291, -1397616.9, -74798.3, 0.000009295233, 9.999475, 9.999652 
1.305021e+3, 1.7502014e+2, -1269715.4, -1279246.8, -12326.312, 0.06475552, 0.1722219, -1261265.6, -36448.582, 0.0, 9.999815, 9.999695 
1.305036e+3, 1.850198e+2, -1200327.5, -1258357.5, 87254.07, 0.054000765, 0.20349674, -1137390.6, -10569.598, 0.0, 9.999874, 9.999145 
1.3050517e+3, 1.9501878e+2, -1131196.3, -1164701.9, 95639.52, -0.0007647401, 0.15807763, -1050853.4, -22020.79, 0.0, 9.9996395, 9.999226 
1.3050677e+3, 2.0501797e+2, -983415.4, -1032887.75, 101584.65, -0.024570873, 0.15765503, -903598.6, 27241.531, 0.0, 9.9999485, 9.999304 
1.305084e+3, 2.1501735e+2, -755190.2, -862897.1, 68068.17, -0.027844967, 0.13613313, -722248.1, 110596.21, 0.0, 10.000809, 9.999381 
1.3051006e+3, 2.2501634e+2, -641091.8, -881749.2, 34880.707, 0.056089982, 0.15982904, -636138.2, 98715.695, 0.0, 10.001446, 9.998275 
1.3051176e+3, 2.3501483e+2, -483970.2, -744516.75, 25297.303, 0.23110785, 0.15234987, -481536.72, 155333.75, 0.0, 10.001811, 9.9983635 
1.3051327e+3, 2.450132e+2, -358762.34, -687090.1, 26717.734, 0.20307344, 0.1829172, -356602.4, 182284.47, 0.0, 10.0022135, 9.997898 
1.3051458e+3, 2.5501132e+2, -188136.14, -546885.56, 14790.044, -0.02168428, 0.17543425, -187527.42, 253377.72, 0.0, 10.002679, 9.997965 
1.3051614e+3, 2.6500896e+2, -111220.57, -556975.0, 32815.715, -0.00074420957, 0.19293891, -108817.69, 234109.27, 0.000000026393016, 10.002969, 9.997085 
1.3051796e+3, 2.75006e+2, 12745.307, -441649.3, 15260.283, 0.260889, 0.16355877, 13257.229, 258210.89, 0.0000066700077, 10.003119, 9.997132 
1.3051943e+3, 2.8500256e+2, 20308.828, -524819.6, -22855.8, 0.2602891, 0.17384323, 21265.432, 168253.98, 0.00007506801, 10.003103, 9.995883 
1.3052055e+3, 2.9499835e+2, 101307.78, -436151.78, 3128.6694, 0.0021111579, 0.13280593, 101325.99, 150360.31, 0.00033558995, 10.002983, 9.995877 
1.3052183e+3, 3.0499426e+2, 311523.4, -43438.15, 34944.125, -0.12090644, 0.02819173, 314930.78, 314930.78, 0.0008823437, 10.002954, 9.998264 
1.3052359e+3, 3.149941e+2, 387759.72, 98133.49, 2385.7302, 0.20516981, 0.14319941, 387779.34, 387779.34, 0.0016779539, 10.002969, 9.999235 
1.3149469e+3, 1.2500383e+2, -2209496.5, -1773880.9, 188575.42, 0.05124909, 0.032096643, -1703589.8, 11383.025, 0.005819013, 9.995805, 10.001597 
1.3149622e+3, 1.3500553e+2, -2067278.3, -1755476.4, -13459.876, 0.25763953, 0.120158575, -1754896.5, -137939.61, 0.0032902497, 9.996541, 10.000716 
1.3149738e+3, 1.4500664e+2, -1911261.8, -1681223.9, 85758.35, -0.119468145, 0.18422574, -1652772.0, -133824.95, 0.0013013786, 9.997164, 10.0002365 
1.3149916e+3, 1.5500678e+2, -1599091.4, -1471038.5, 103887.31, 0.039670046, 0.14496139, -1413032.4, 7914.2114, 0.00026992275, 9.998601, 10.000312 
1.3150075e+3, 1.6500653e+2, -1453833.8, -1486126.6, 16199.26, 0.10597765, 0.1558543, -1447108.3, -124157.97, 0.00001153221, 9.999497, 9.999109 
1.3150203e+3, 1.7500582e+2, -1301500.3, -1352887.3, 7714.343, -0.023931924, 0.1463922, -1300367.1, -75408.13, 0.0, 9.999839, 9.999181 
1.3150348e+3, 1.8500525e+2, -1168767.3, -1188379.3, 66320.73, -0.08539811, 0.15332036, -1111531.5, 15432.789, 0.0, 9.999856, 9.999634 
1.3150512e+3, 1.9500464e+2, -1102942.1, -1097007.3, 93191.19, -0.047573265, 0.10114211, -1006736.25, 22231.385, 0.0, 9.999597, 9.999712 
1.315068e+3, 2.0500396e+2, -1041343.06, -1130855.4, 122664.8, -0.0013352787, 0.12021188, -955524.44, -24550.646, 0.0, 9.999856, 9.998675 
1.3150857e+3, 2.1500309e+2, -817989.0, -966616.75, 109711.266, 0.052004803, 0.13848563, -759792.06, 73191.99, 0.0, 10.000686, 9.998733 
1.315102e+3, 2.2500183e+2, -661659.3, -885699.75, 39601.195, 0.027402325, 0.16715279, -654865.44, 80132.67, 0.0, 10.001285, 9.998325 
1.3151169e+3, 2.3500009e+2, -504404.75, -751833.4, 51515.477, -0.06241244, 0.1331905, -494107.6, 142909.78, 0.0, 10.001661, 9.998387 
1.3151325e+3, 2.4499893e+2, -388429.88, -713386.1, 33930.676, -0.047847483, 0.21415746, -384924.78, 154104.86, 0.0, 10.002058, 9.997794 
1.3151495e+3, 2.5499833e+2, -217250.05, -572847.44, 43863.117, 0.07792752, 0.34827906, -211919.42, 229115.6, 0.0, 10.002525, 9.997864 
1.315166e+3, 2.649955e+2, -139168.9, -582716.7, 29019.021, 0.1469168, 0.32683524, -137278.4, 205783.63, 0.000000066602475, 10.002829, 9.996974 
1.3151819e+3, 2.7499008e+2, -16991.047, -467316.47, 37499.76, 0.15330262, 0.062242765, -13889.703, 231223.86, 0.0000067822207, 10.002975, 9.99702 
1.3151965e+3, 2.8498715e+2, 80333.21, -388932.4, -34997.645, 0.13668945, 0.08520333, 82928.96, 230071.48, 0.000081610815, 10.003037, 9.996858 
1.3152097e+3, 2.949867e+2, 157472.84, -300727.94, 15731.393, 0.09952497, 0.3155127, 158012.31, 207161.92, 0.0003693799, 10.002891, 9.996861 
1.3152224e+3, 3.0498284e+2, 236992.34, -173683.56, 29623.684, -0.04399655, 0.22901899, 239118.22, 239118.22, 0.00097474386, 10.002859, 9.997404 
1.315237e+3, 3.1497878e+2, 326022.22, 31757.52, 51456.145, -0.030898983, 0.037937775, 334760.53, 334760.53, 0.0018558401, 10.002726, 9.998883 
1.3249446e+3, 1.2498844e+2, -1964225.5, -1716941.0, 141131.22, 0.15795286, 0.08238112, -1652952.1, 62173.676, 0.006183249, 9.997707, 10.001084 
1.3249575e+3, 1.3498981e+2, -1966327.1, -1714118.6, -159754.23, 0.10364408, 0.14850397, -1636694.8, -19578.822, 0.0035072896, 9.99728, 10.0006275 
1.3249712e+3, 1.4499131e+2, -1860092.3, -1589907.1, 21635.484, -0.0965521, 0.22558612, -1588185.6, -69083.53, 0.0013982238, 9.997226, 10.000834 
1.3249902e+3, 1.5499175e+2, -1647725.5, -1431621.8, 19547.693, 0.08408875, 0.15895759, -1429867.8, -8772.04, 0.00029637254, 9.997992, 10.000879 
1.325007e+3, 1.649918e+2, -1541725.1, -1512683.0, -40908.715, 0.15016444, 0.16371264, -1483794.5, -160698.97, 0.000014169166, 9.998836, 9.999239 
1.3250203e+3, 1.7499138e+2, -1301969.1, -1342747.0, -23893.166, 0.004663611, 0.17270847, -1290948.0, -65845.67, 0.0, 9.999793, 9.999272 
1.3250351e+3, 1.8499082e+2, -1139520.1, -1185774.9, 20582.158, -0.051764023, 0.18482508, -1131687.8, -4580.3486, 0.0, 10.000115, 9.999521 
1.3250513e+3, 1.9499001e+2, -1075645.3, -1095746.9, -18608.01, 0.0008140174, 0.123772226, -1064547.1, -35434.918, 0.0, 9.99985, 9.999591 
1.3250685e+3, 2.049892e+2, -1042802.1, -1117794.1, 61215.42, 0.067227334, 0.12932299, -1008511.8, -77392.85, 0.0, 9.999779, 9.998804 
1.3250868e+3, 2.1498828e+2, -927960.1, -1003919.0, 86369.875, 0.14252955, 0.13035272, -871588.1, -38459.27, 0.0, 9.999863, 9.998872 
1.3251032e+3, 2.2498713e+2, -818647.1, -965428.75, 62832.723, 0.09251556, 0.16480146, -795424.44, -60282.47, 0.0, 10.000234, 9.998281 
1.325118e+3, 2.3498565e+2, -613315.75, -804629.06, 47658.895, -0.072521396, 0.16138808, -602100.7, 35058.867, 0.0, 10.000926, 9.998375 
1.3251343e+3, 2.449842e+2, -464315.22, -748104.0, 53415.15, -0.046892926, 0.21291636, -454594.3, 84580.13, 0.0, 10.001528, 9.997813 
1.3251527e+3, 2.5498268e+2, -290559.2, -601781.25, 49188.566, 0.16760696, 0.2506086, -282970.0, 158217.6, 0.0, 10.002006, 9.9979105 
1.3251692e+3, 2.6498002e+2, -207007.86, -600804.0, 55534.234, 0.21424037, 0.238051, -199326.11, 143887.39, 0.0000000978673, 10.002306, 9.997097 
1.3251838e+3, 2.749759e+2, -84011.555, -486679.6, 56260.285, 0.085708015, 0.091512434, -76298.67, 168956.44, 0.000006920427, 10.002453, 9.997142 
1.3251987e+3, 2.8497347e+2, 111638.75, -324625.53, 10815.061, 0.06372239, 0.13623936, 111906.695, 259186.02, 0.000086783395, 10.003059, 9.997281 
1.3252138e+3, 2.9497272e+2, 389205.0, -138739.6, -10822.617, 0.14651974, 0.2989311, 389426.78, 438713.28, 0.00039485816, 10.004278, 9.997298 
1.3252267e+3, 3.049691e+2, 421632.75, -159430.72, -20418.633, 0.03292566, 0.24725594, 422349.38, 422349.38, 0.00104692, 10.004452, 9.9967375 
1.3252397e+3, 3.149648e+2, 403178.63, 24212.81, -18375.71, -0.05137171, 0.0977231, 404067.56, 404067.56, 0.0019968057, 10.003434, 9.998493 
1.334941e+3, 1.2497207e+2, -1976060.9, -1739494.6, 102777.09, -0.02590975, 0.2635896, -1701080.5, 14215.028, 0.0065457188, 9.997706, 10.000928 
1.3349524e+3, 1.3497287e+2, -1934333.0, -1649054.4, -180055.63, -0.16114071, 0.23102413, -1561985.1, 55306.242, 0.0037237175, 9.997285, 10.001073 
1.3349698e+3, 1.4497392e+2, -1810201.6, -1495052.9, 33016.69, 0.021233117, 0.20621714, -1491631.0, 27648.902, 0.0014951822, 9.997254, 10.001477 
1.3349877e+3, 1.5497491e+2, -1604485.3, -1349542.4, 58092.87, 0.0055271634, 0.13967697, -1336929.0, 84335.07, 0.00032323142, 9.9980135, 10.001438 
1.3350049e+3, 1.6497588e+2, -1493387.1, -1411762.3, -15863.528, 0.040218484, 0.1735243, -1408787.6, -85534.54, 0.000017128494, 9.998832, 9.999933 
1.335021e+3, 1.7497683e+2, -1251093.1, -1240457.4, 21610.227, 0.075228795, 0.24734901, -1223520.3, 1726.3014, 0.00000000003443261, 9.999803, 9.99997 
1.3350366e+3, 1.8497658e+2, -1190020.8, -1294115.6, -623.40607, 0.07100496, 0.2903042, -1190017.0, -62766.887, 0.0, 10.000126, 9.9987755 
1.335052e+3, 1.9497488e+2, -1130020.5, -1208170.3, -20460.232, 0.06420641, 0.21799985, -1124987.9, -95721.94, 0.0, 9.999837, 9.99883 
1.3350688e+3, 2.049737e+2, -993080.56, -995624.1, 53547.34, 0.09701545, 0.18017593, -940789.9, -9514.784, 0.0, 9.999697, 9.999681 
1.335087e+3, 2.1497288e+2, -884812.5, -889394.6, 98647.87, 0.16537523, 0.104287446, -788429.06, 44849.855, 0.0, 9.999745, 9.999721 
1.3351043e+3, 2.2497216e+2, -846969.06, -991389.75, 81047.914, 0.16217308, 0.14305693, -810629.44, -75343.086, 0.0, 10.000091, 9.998171 
1.3351208e+3, 2.3497146e+2, -637964.8, -830875.94, 85732.65, 0.09983561, 0.23002517, -605370.9, 31926.637, 0.0, 10.000813, 9.998252 
1.3351375e+3, 2.4496898e+2, -471721.53, -735274.94, 61196.426, 0.09561901, 0.17654584, -458205.1, 81116.77, 0.0, 10.001408, 9.997957 
1.3351546e+3, 2.5496447e+2, -298640.53, -592625.2, 77023.234, 0.1544916, -0.09784398, -279683.1, 161678.28, 0.0, 10.001893, 9.998027 
1.3351707e+3, 2.6496258e+2, -197363.56, -563647.56, 51192.203, 0.11591024, -0.053098764, -190343.42, 153037.28, 0.00000008871969, 10.002223, 9.997396 
1.3351853e+3, 2.7496314e+2, -76317.57, -447758.38, 74635.5, -0.028958052, 0.23495977, -61881.72, 183499.31, 0.000006673535, 10.002349, 9.997461 
1.3352007e+3, 2.8496122e+2, 86660.055, -355652.44, 42235.535, -0.060102012, 0.31893045, 90656.92, 238058.47, 0.00008871381, 10.002964, 9.997115 
1.3352172e+3, 2.949566e+2, 352792.38, -176275.75, 49970.344, 0.04587587, 0.11148999, 357470.7, 406914.2, 0.00040740316, 10.004109, 9.997124 
1.335231e+3, 3.0495343e+2, 375039.56, -224582.63, -61993.46, 0.0075063957, 0.12993366, 381381.84, 381381.84, 0.0010892729, 10.004328, 9.996344 
1.3352436e+3, 3.1495157e+2, 342065.7, -59080.12, -13921.894, -0.04043378, 0.26852828, 342548.28, 342548.28, 0.002086021, 10.003259, 9.998004 
1.3449375e+3, 1.2495615e+2, -2492007.8, -1953056.8, 219787.94, 0.05560063, 0.33308193, -1874791.3, -159336.77, 0.0069055543, 9.994031, 10.00123 
1.3449486e+3, 1.3495713e+2, -1941832.1, -1594445.8, -4396.469, -0.24808574, 0.2675604, -1594390.1, 23056.816, 0.0039389143, 9.996985, 10.001599 
1.3449691e+3, 1.4495793e+2, -1666502.9, -1433947.9, 160791.56, 0.17454256, 0.1913605, -1351795.5, 167641.78, 0.0015916337, 9.99829, 10.00139 
1.3449863e+3, 1.5495902e+2, -1616129.0, -1367779.6, 108336.46, 0.070930585, 0.14747755, -1327163.1, 94257.3, 0.0003501717, 9.998009, 10.001303 
1.3450034e+3, 1.6496e+2, -1575846.6, -1437336.4, 33831.754, 0.04045154, 0.18384321, -1429514.5, -106105.57, 0.000020254476, 9.998213, 10.000056 
1.3450201e+3, 1.7496082e+2, -1367180.6, -1277247.4, 6633.9375, 0.0558573, 0.23273152, -1276760.8, -51357.62, 0.0000000014653116, 9.998945, 10.000124 
1.3450366e+3, 1.8496059e+2, -1221664.3, -1302713.1, -6140.4854, 0.081923015, 0.26787674, -1221201.6, -93795.39, 0.0, 9.999885, 9.998831 
1.345053e+3, 1.949591e+2, -945794.6, -1114068.9, 14820.027, 0.12980801, 0.21237192, -944499.44, 84921.1, 0.0, 10.001086, 9.998873 
1.3450697e+3, 2.0495802e+2, -775723.9, -886836.25, 70214.62, 0.15500055, 0.1830307, -741744.7, 189684.13, 0.0, 10.001176, 9.999713 
1.3450868e+3, 2.149573e+2, -829163.9, -849380.3, 30267.459, 0.15297334, 0.10775309, -807361.4, 26070.553, 0.0, 10.000097, 9.999808 
1.3451044e+3, 2.2495672e+2, -825678.1, -953821.75, 68563.45, 0.16453767, 0.14586516, -795908.9, -60471.375, 0.0, 10.000106, 9.998428 
1.3451226e+3, 2.349562e+2, -563853.25, -764999.44, 84738.97, 0.19816618, 0.22409597, -532913.44, 104533.45, 0.0, 10.001188, 9.998525 
1.3451397e+3, 2.4495402e+2, -430262.28, -705405.0, 63265.133, 0.18039703, 0.18383135, -416412.5, 123056.32, 0.0, 10.001668, 9.998034 
1.3451558e+3, 2.5495002e+2, -343447.1, -605510.5, 53900.645, 0.10946824, -0.048456237, -332794.0, 108710.945, 0.0, 10.001559, 9.9981 
1.3451721e+3, 2.649484e+2, -233765.16, -573622.7, 52161.527, 0.052097805, 0.01938673, -225939.56, 117582.68, 0.000000062099474, 10.001952, 9.997454 
1.3451882e+3, 2.74949e+2, 17684.582, -393370.7, 31738.604, 0.0051077423, 0.30587307, 20120.76, 265643.28, 0.0000065347235, 10.002963, 9.997531 
1.3452044e+3, 2.8494668e+2, 143812.02, -329199.5, 13824.44, 0.002337109, 0.35152757, 144215.7, 291761.75, 0.00008986311, 10.003353, 9.997113 
1.3452208e+3, 2.949416e+2, 206114.22, -237003.83, 2893.3435, 0.05656414, 0.092434354, 206133.11, 255724.84, 0.0004133303, 10.00306, 9.99721 
1.3452354e+3, 3.049388e+2, 308311.16, -336262.88, -71272.29, 0.020575464, 0.17505056, 316097.84, 316097.84, 0.0011088859, 10.004182, 9.995667 
1.3452485e+3, 3.1493682e+2, 775911.94, 50244.48, -80849.48, -0.04164548, 0.37424558, 784810.56, 784810.56, 0.0021289643, 10.006672, 9.997119 
1.3549337e+3, 1.24940686e+2, -2441128.8, -1841805.0, 137098.88, 0.22781111, 0.25209612, -1811931.9, -96329.2, 0.0072628423, 9.994014, 10.002002 
1.3549459e+3, 1.3494286e+2, -1901640.1, -1509886.3, 122979.78, -0.22301833, 0.24488856, -1474480.3, 143100.06, 0.004152666, 9.996989, 10.002178 
1.3549685e+3, 1.4494357e+2, -1731545.4, -1574097.4, 140534.38, 0.2590363, 0.18553644, -1491739.5, 27832.166, 0.0016872559, 9.998311, 10.000418 
1.3549857e+3, 1.5494417e+2, -1675822.8, -1503131.6, 107428.914, 0.19035922, 0.18426046, -1451649.3, -30085.574, 0.0003769789, 9.998047, 10.00036 
1.3550021e+3, 1.649441e+2, -1600530.1, -1497940.5, 46719.652, 0.06674745, 0.18405692, -1479853.1, -156289.45, 0.000023370363, 9.998246, 9.999628 
1.3550174e+3, 1.7494325e+2, -1397687.3, -1344510.3, 41157.707, -0.12095105, 0.11154832, -1322099.8, -96527.086, 0.0000000068048798, 9.998948, 9.999667 
1.3550349e+3, 1.8494284e+2, -1168732.6, -1186011.9, 27349.432, -0.11135146, 0.11074353, -1148690.6, -21114.398, 0.0, 9.999858, 9.999641 
1.3550541e+3, 1.9494264e+2, -894499.7, -999271.5, 69884.56, 0.11292419, 0.10137675, -859546.4, 170029.9, 0.0, 10.001042, 9.999683 
1.355071e+3, 2.049422e+2, -846797.3, -1009824.0, 18408.514, 0.1594266, 0.13406116, -844744.56, 86835.445, 0.0, 10.001075, 9.998917 
1.3550858e+3, 2.1494144e+2, -901399.7, -975000.56, -2836.5894, 0.029928634, 0.13681066, -901290.5, -67702.47, 0.0, 9.999987, 9.999002 
1.3551031e+3, 2.2494072e+2, -802607.9, -868426.3, 95575.8, 0.025325684, 0.16717064, -734434.2, 1162.4457, 0.0, 9.999949, 9.999089 
1.3551234e+3, 2.3493995e+2, -539085.75, -679713.1, 133111.7, 0.14909151, 0.15248275, -458857.94, 178748.89, 0.0, 10.001044, 9.99918 
1.3551411e+3, 2.4493937e+2, -449212.03, -714374.44, 48181.44, 0.12926438, 0.24200064, -440728.63, 98886.02, 0.0, 10.001532, 9.99804 
1.355156e+3, 2.5493896e+2, -359298.97, -612098.1, 60240.637, -0.045046676, 0.36660114, -345677.88, 95943.03, 0.0, 10.001446, 9.998111 
1.3551731e+3, 2.6493707e+2, -262212.88, -612835.94, 78021.24, -0.0631714, 0.421085, -245635.25, 98006.02, 0.000000036385206, 10.001863, 9.99723 
1.3551922e+3, 2.7493352e+2, -21661.037, -441455.1, 82453.28, 0.09265431, 0.31247342, -6046.8555, 239631.92, 0.0000068750182, 10.002816, 9.997275 
1.3552094e+3, 2.8493017e+2, 135150.94, -317843.6, -5471.5913, 0.13601519, 0.26059774, 135217.02, 282927.6, 0.00009120505, 10.003229, 9.997249 
1.3552243e+3, 2.9492724e+2, 202916.8, -227062.75, 6704.49, 0.06870085, 0.20821162, 203021.31, 252756.55, 0.00041541408, 10.002982, 9.997321 
1.3552393e+3, 3.0492473e+2, 228878.0, -471048.78, 10820.984, -0.026623346, 0.35692984, 229045.25, 229045.25, 0.0011097367, 10.004071, 9.994785 
1.3552536e+3, 3.1492037e+2, 631542.2, -173451.69, 50920.16, -0.246784, 0.40729287, 634750.4, 634750.4, 0.0021273016, 10.006362, 9.995722 
1.3649291e+3, 1.24923885e+2, -2071950.1, -1631756.6, -13701.684, 0.2584961, 0.21714728, -1631330.5, 84437.35, 0.0076198755, 9.996381, 10.002312 
1.364944e+3, 1.3492641e+2, -1912199.8, -1527261.6, -5195.0273, -0.104077294, 0.25115556, -1527191.6, 90548.62, 0.004366158, 9.996955, 10.002076 
1.3649668e+3, 1.4492701e+2, -1865893.3, -1673385.1, -18536.53, 0.30526125, 0.2046351, -1671616.5, -151883.56, 0.0017823466, 9.997543, 10.000104 
1.364984e+3, 1.5492745e+2, -1616766.4, -1503985.9, -21012.531, 0.19681476, 0.2170658, -1500198.1, -78469.05, 0.0004035849, 9.998597, 10.000081 
1.3650009e+3, 1.6492712e+2, -1469116.6, -1425019.8, -18609.91, 0.08231442, 0.20254064, -1418215.8, -94483.69, 0.000026350568, 9.9991, 9.999715 
1.3650171e+3, 1.7492606e+2, -1367808.6, -1316315.1, -5439.9897, -0.06097598, 0.094429694, -1315746.8, -90004.93, 0.000000016360648, 9.999098, 9.9997835 
1.3650347e+3, 1.849257e+2, -1244834.5, -1206263.5, 15995.105, -0.05644616, 0.08684436, -1200493.5, -72749.35, 0.0, 9.999261, 9.999791 
1.3650542e+3, 1.9492592e+2, -1092959.0, -1070836.5, -11659.046, 0.10931899, 0.10058237, -1065826.5, -36085.797, 0.0, 9.999593, 9.999883 
1.3650717e+3, 2.0492563e+2, -980424.44, -1091522.1, -75924.71, 0.1520352, 0.14603461, -941897.6, -10154.119, 0.0, 10.000222, 9.998775 
1.3650867e+3, 2.1492474e+2, -742731.8, -915586.06, -65127.813, 0.06925714, 0.15343297, -720940.25, 112813.29, 0.0, 10.001145, 9.998859 
1.365104e+3, 2.2492401e+2, -608839.56, -769906.6, 64718.277, 0.05757842, 0.18693179, -586057.56, 149705.31, 0.0, 10.001256, 9.999131 
1.3651238e+3, 2.3492333e+2, -619033.2, -718007.7, 33027.402, 0.11258076, 0.17937626, -609024.25, 28748.115, 0.0, 10.000484, 9.999191 
1.3651419e+3, 2.4492306e+2, -544582.4, -740694.2, -28957.797, 0.09674724, 0.28771424, -540395.8, -618.0416, 0.0, 10.000797, 9.99821 
1.3651583e+3, 2.5492302e+2, -223133.48, -525402.56, -28322.893, -0.0015964565, 0.43357232, -220502.5, 221278.0, 0.0, 10.002294, 9.998293 
1.3651758e+3, 2.64921e+2, -122616.27, -530034.9, 10483.446, 0.0030426364, 0.46003345, -122346.695, 221454.6, 0.000000033203506, 10.002758, 9.997367 
1.3651948e+3, 2.7491692e+2, -102835.625, -456448.6, 18605.445, 0.11640851, 0.28389865, -101859.38, 143982.6, 0.0000069323874, 10.002165, 9.997479 
1.3652122e+3, 2.8491363e+2, 55218.07, -371440.94, -12221.726, 0.1273236, 0.23168194, 55567.875, 203441.38, 0.000089487476, 10.002766, 9.997098 
1.3652278e+3, 2.949113e+2, 454563.66, -112139.89, -39478.465, 0.04818707, 0.24942021, 457300.63, 507195.38, 0.00040591168, 10.004763, 9.997243 
1.3652442e+3, 3.0490887e+2, 520761.7, -273374.6, 38979.527, -0.015198578, 0.38966814, 522670.38, 522670.38, 0.0010824619, 10.005825, 9.995306 
1.3652596e+3, 3.1490445e+2, 528488.1, -217487.67, 129203.055, -0.2235229, 0.3886368, 550232.25, 550232.25, 0.0020743865, 10.005587, 9.995816 
1.3749239e+3, 1.24905854e+2, -2087812.9, -1664949.8, -56095.79, 0.044500433, 0.22556464, -1657634.8, 58314.266, 0.0079810945, 9.996407, 10.002059 
1.3749424e+3, 1.3490777e+2, -1969038.4, -1647804.8, 16277.844, 0.014679289, 0.27872613, -1646982.0, -29054.664, 0.0045821774, 9.996965, 10.001242 
1.3749637e+3, 1.4490823e+2, -1839066.8, -1621795.4, 2592.0854, 0.21772419, 0.24585216, -1621764.5, -101842.86, 0.0018779465, 9.99756, 10.000451 
1.374981e+3, 1.5490879e+2, -1588055.4, -1447782.1, 29316.188, 0.00830733, 0.23147513, -1441901.8, -19984.473, 0.00043006244, 9.99861, 10.000462 
1.3749994e+3, 1.6490914e+2, -1420811.8, -1332839.0, -31676.197, -0.003186323, 0.2334368, -1322620.4, 1293.0785, 0.000029160963, 9.999126, 10.00034 
1.3750185e+3, 1.7490923e+2, -1317510.3, -1221295.9, 3261.731, 0.15148479, 0.18041793, -1221185.5, 4724.6353, 0.000000027808229, 9.99912, 10.000437 
1.3750365e+3, 1.849092e+2, -1277792.6, -1272720.0, 15687.122, 0.15941362, 0.19373812, -1259365.5, -131455.61, 0.0, 9.999259, 9.999335 
1.3750535e+3, 1.9490881e+2, -1135087.6, -1147209.6, 7212.2085, 0.042367853, 0.19641726, -1131727.8, -101813.086, 0.0, 9.999542, 9.999387 
1.375071e+3, 2.0490819e+2, -954082.3, -1015758.56, -51508.695, 0.043316633, 0.20523697, -924886.0, 7034.59, 0.0, 10.000133, 9.999336 
1.375089e+3, 2.1490724e+2, -725280.44, -846325.06, -18817.326, 0.17457233, 0.1499714, -722422.56, 111505.586, 0.0, 10.001, 9.999406 
1.3751064e+3, 2.2490671e+2, -677284.9, -868982.4, 27781.04, 0.16111398, 0.20668347, -673340.0, 62595.12, 0.0, 10.001075, 9.998536 
1.3751233e+3, 2.3490645e+2, -681928.25, -814798.2, 15392.137, 0.00028875616, 0.2998049, -680168.5, -42225.598, 0.0, 10.000344, 9.99859 
1.3751419e+3, 2.4490507e+2, -545145.4, -714180.8, 14338.563, -0.0070328806, 0.31861392, -543937.75, -3979.8386, 0.0, 10.000672, 9.998455 
1.3751623e+3, 2.5490248e+2, -225317.58, -496350.44, 37661.332, 0.15465873, 0.18281482, -220181.67, 221799.22, 0.0, 10.002144, 9.998568 
1.3751805e+3, 2.6490062e+2, -105404.99, -461739.06, -20017.303, 0.15965047, 0.18006344, -104284.04, 239714.38, 0.000000022673568, 10.002621, 9.9979 
1.375196e+3, 2.7489924e+2, -83336.36, -389595.28, 7046.9443, -0.0025989932, 0.22125734, -83174.3, 162838.78, 0.0000066245593, 10.002062, 9.997985 
1.3752128e+3, 2.8489694e+2, 25527.69, -421677.25, 48351.98, -0.096951365, 0.26091263, 30695.799, 178732.38, 0.000084736, 10.002709, 9.996782 
1.3752313e+3, 2.9489386e+2, 403766.4, -172577.48, 52398.504, -0.09590538, 0.23821132, 408491.5, 458559.78, 0.00038235975, 10.00456, 9.996932 
1.3752499e+3, 3.0489132e+2, 612984.3, -31086.6, 28730.799, -0.05156132, 0.29275155, 614263.4, 614263.4, 0.0010209316, 10.005619, 9.997061 
1.3752662e+3, 3.148887e+2, 579398.4, -38230.285, 141272.9, -0.17692475, 0.29611298, 610178.44, 610178.44, 0.001963888, 10.0053005, 9.9971695 
1.3849202e+3, 1.24888174e+2, -2152881.8, -1728002.3, 8569.706, 0.06609371, 0.28763896, -1727829.5, -11706.008, 0.008351057, 9.996092, 10.00178 
1.3849406e+3, 1.3488877e+2, -1870162.6, -1648990.4, 54269.62, 0.102686934, 0.25373927, -1636391.8, -18277.006, 0.004803759, 9.997852, 10.000809 
1.3849609e+3, 1.4488927e+2, -1785086.8, -1555143.8, 47611.285, 0.17349005, 0.22854045, -1545675.4, -25566.436, 0.0019753822, 9.997754, 10.000813 
1.3849786e+3, 1.5489052e+2, -1841320.3, -1524942.6, 51179.465, 0.021811543, 0.2408191, -1516869.4, -94771.62, 0.00045665295, 9.996675, 10.000865 
1.384998e+3, 1.6489147e+2, -1733351.8, -1448069.0, 33591.12, 0.05938599, 0.26867616, -1444167.1, -120078.48, 0.00003186285, 9.996847, 10.000646 
1.385018e+3, 1.7489217e+2, -1409424.6, -1227420.8, 18518.186, 0.23237301, 0.24499997, -1225555.8, 524.8594, 0.000000039188958, 9.998348, 10.00076 
1.3850364e+3, 1.8489237e+2, -1269108.0, -1268538.9, 44535.734, 0.23379327, 0.26658058, -1224286.9, -96208.33, 0.0, 9.999312, 9.999343 
1.3850534e+3, 1.9489197e+2, -1079306.9, -1112313.8, 56536.668, 0.07228207, 0.26402974, -1036914.1, -6830.9253, 0.0, 9.999893, 9.999454 
1.385071e+3, 2.0489118e+2, -959234.8, -1022468.56, 16859.736, 0.057737224, 0.25304183, -955020.44, -22930.035, 0.0, 10.000114, 9.999295 
1.3850898e+3, 2.148899e+2, -871868.5, -918517.5, -18658.227, 0.19791843, 0.16466404, -865323.94, -31222.912, 0.0, 9.999997, 9.999392 
1.3851073e+3, 2.2488922e+2, -797903.6, -948343.7, 32913.566, 0.1830709, 0.21644069, -791017.9, -54909.06, 0.0, 10.000323, 9.998367 
1.385124e+3, 2.3488902e+2, -562514.44, -774902.6, 33326.715, 0.009997098, 0.33468148, -557407.8, 80707.6, 0.0, 10.001231, 9.998444 
1.385143e+3, 2.448873e+2, -424622.56, -645227.06, 82694.516, 0.0006102345, 0.32371736, -397066.3, 143066.33, 0.0, 10.001464, 9.998537 
1.3851638e+3, 2.5488406e+2, -374491.13, -555395.0, 66485.58, 0.15746687, 0.11115863, -352684.94, 89475.836, 0.0, 10.001074, 9.998668 
1.3851826e+3, 2.6488224e+2, -241989.88, -541548.94, 2077.4424, 0.1628767, 0.110343, -241975.47, 102202.664, 0.0000000049794013, 10.001745, 9.997772 
1.3851988e+3, 2.748816e+2, 133508.08, -301632.13, -37124.7, 0.0067043, 0.2422656, 136652.7, 382839.56, 0.0000064670485, 10.00361, 9.997849 
1.3852163e+3, 2.8487977e+2, 227867.61, -310336.44, 7394.242, -0.08885237, 0.32879737, 227969.17, 376176.28, 0.00007993784, 10.004032, 9.996919 
1.3852349e+3, 2.9487666e+2, 195773.73, -246935.7, 17129.582, -0.108898066, 0.29297376, 196435.53, 246674.72, 0.00035401268, 10.0030155, 9.997162 
1.3852546e+3, 3.048737e+2, 384939.44, -38356.49, 25818.365, -0.034715466, 0.24175578, 386508.38, 386508.38, 0.00094356074, 10.003599, 9.997985 
1.3852721e+3, 3.1487152e+2, 697425.25, 117471.03, 34077.484, -0.105327204, 0.19990066, 699420.75, 699420.75, 0.0018231865, 10.005673, 9.998061 
1.3949181e+3, 1.2487009e+2, -2183709.8, -1768501.1, 97404.445, 0.20282449, 0.33666834, -1746786.5, -30488.236, 0.008733579, 9.996018, 10.001524 
1.3949382e+3, 1.3486941e+2, -1864715.1, -1639420.6, 111759.56, 0.06229062, 0.1686825, -1593387.0, 24915.596, 0.005033633, 9.997861, 10.000868 
1.394958e+3, 1.448703e+2, -1749334.1, -1491384.3, -15010.307, 0.08628347, 0.15591963, -1490513.8, 29779.244, 0.002076125, 9.997793, 10.001235 
1.3949767e+3, 1.5487266e+2, -1812177.0, -1466431.4, 20665.01, 0.13506284, 0.24090466, -1465200.6, -42930.707, 0.00048381835, 9.996676, 10.00127 
1.3949959e+3, 1.6487415e+2, -1734913.1, -1457595.8, 75078.35, 0.16184118, 0.30582687, -1438574.4, -114317.45, 0.000034571214, 9.996871, 10.000571 
1.3950153e+3, 1.748747e+2, -1421139.3, -1246740.3, 80680.78, 0.10982547, 0.27681208, -1215141.0, 11113.747, 0.00000005013657, 9.998323, 10.000643 
1.3950345e+3, 1.8487515e+2, -1222157.5, -1175481.3, 51405.906, 0.08311754, 0.299432, -1142363.8, -14112.889, 0.0, 9.999327, 9.999978 
1.3950539e+3, 1.9487543e+2, -1043134.6, -1028489.06, 86131.664, 0.114976704, 0.30215085, -949369.44, 80876.55, 0.0, 9.999845, 10.00006 
1.3950719e+3, 2.0487465e+2, -1014501.1, -1114795.1, 1195.5603, 0.10842783, 0.29309684, -1014486.9, -82234.29, 0.0, 10.000022, 9.998703 
1.3950884e+3, 2.148727e+2, -936501.9, -1021083.6, -15457.532, 0.05732487, 0.20019028, -933765.5, -99493.33, 0.0, 9.999864, 9.998751 
1.3951063e+3, 2.2487155e+2, -791745.94, -913425.44, 55141.035, 0.03407374, 0.22242275, -770475.94, -34191.79, 0.0, 10.000217, 9.998659 
1.395126e+3, 2.3487118e+2, -558897.75, -741405.0, 78287.15, 0.05696657, 0.2909346, -529917.9, 108371.06, 0.0, 10.00111, 9.998734 
1.3951448e+3, 2.4486993e+2, -451543.88, -669881.44, 58127.188, 0.02530023, 0.31448305, -437033.28, 103267.38, 0.0, 10.001331, 9.998431 
1.3951628e+3, 2.5486752e+2, -406160.47, -588726.0, 61459.63, -0.06355724, 0.20198442, -387398.56, 54923.28, 0.0, 10.000941, 9.9985 
1.3951823e+3, 2.6486558e+2, -307885.22, -657818.7, 60057.563, -0.058148883, 0.23535925, -297864.75, 46477.797, 0.0000000011462398, 10.00165, 9.997023 
1.3952032e+3, 2.7486405e+2, 55482.03, -424391.8, 46409.855, 0.054496545, 0.35095212, 59929.234, 306291.78, 0.0000063015364, 10.003431, 9.997098 
1.3952218e+3, 2.8486225e+2, 236337.95, -250139.03, -38484.465, 0.038601197, 0.45287845, 239363.6, 387746.63, 0.00007549819, 10.003857, 9.997412 
1.3952383e+3, 2.9485965e+2, 207116.92, -194090.61, -5397.587, -0.100985214, 0.4172453, 207189.53, 257597.97, 0.00033013354, 10.002894, 9.9975815 
1.3952579e+3, 3.048558e+2, 394003.38, 2084.7654, 90019.836, -0.06883745, 0.24531004, 413691.06, 413691.06, 0.0008806261, 10.003505, 9.998308 
1.3952775e+3, 3.1485343e+2, 682289.75, 170472.95, 122669.98, -0.17014581, 0.143034, 710171.8, 710171.8, 0.0017075144, 10.005318, 9.998596 
1.4049166e+3, 1.2485101e+2, -1928029.3, -1667957.1, 143684.58, 0.37961498, 0.30174154, -1604203.0, 112279.39, 0.009133226, 9.997841, 10.0013485 
1.4049354e+3, 1.3485089e+2, -2051165.6, -1704790.5, 105923.26, 0.08024539, 0.16601525, -1674966.5, -56483.78, 0.005275387, 9.996464, 10.001098 
1.4049554e+3, 1.4485209e+2, -1946479.3, -1553671.5, 10209.528, 0.12992434, 0.15533082, -1553406.4, -32936.406, 0.0021822979, 9.99629, 10.001536 
1.4049745e+3, 1.548542e+2, -1664975.5, -1368415.9, 9007.537, 0.21052964, 0.18696633, -1368142.5, 54305.688, 0.00051218417, 9.997564, 10.001521 
1.4049938e+3, 1.6485566e+2, -1592593.0, -1430998.5, 94592.59, 0.20102417, 0.25716296, -1387393.3, -62957.07, 0.000037386584, 9.9980345, 10.000184 
1.405013e+3, 1.7485642e+2, -1502274.0, -1325661.6, 58106.16, 0.0807031, 0.28356087, -1308259.3, -81824.11, 0.00000006103049, 9.997938, 10.0002775 
1.405033e+3, 1.8485701e+2, -1364040.5, -1214433.6, 28489.473, 0.057826992, 0.32484978, -1209192.1, -80761.02, 0.0, 9.998236, 10.000231 
1.4050534e+3, 1.948574e+2, -1140046.8, -1042480.94, 12925.704, 0.14189996, 0.3110166, -1040797.56, -10373.462, 0.0, 9.999045, 10.000344 
1.405072e+3, 2.0485687e+2, -1038390.2, -1119729.9, -52603.97, 0.13696407, 0.3090213, -1012567.8, -80139.95, 0.0, 9.99983, 9.998766 
1.4050883e+3, 2.1485533e+2, -806506.0, -944851.7, -36535.55, 0.035001464, 0.25169623, -797450.1, 36993.453, 0.0, 10.00071, 9.998863 
1.4051068e+3, 2.2485402e+2, -658889.44, -850498.0, 73485.25, 0.018522736, 0.25443658, -633952.06, 102504.47, 0.0, 10.001163, 9.998624 
1.4051275e+3, 2.348529e+2, -547501.9, -730511.1, 47721.754, 0.09514225, 0.24752487, -535805.44, 102661.625, 0.0, 10.001191, 9.998756 
1.4051467e+3, 2.4485159e+2, -462019.44, -723037.4, 10862.678, 0.08304973, 0.28623727, -461568.16, 78911.53, 0.0, 10.001457, 9.9980135 
1.4051646e+3, 2.5484994e+2, -278418.22, -572850.5, -24623.615, -0.03290961, 0.29010627, -276373.16, 166123.28, 0.0, 10.0020075, 9.998102 
1.4051844e+3, 2.648477e+2, -217930.69, -608829.44, 44464.832, -0.02730753, 0.3161631, -212936.61, 131583.33, 0.0000000047036606, 10.002239, 9.997077 
1.4052065e+3, 2.7484506e+2, -110411.31, -490582.47, 58063.76, 0.11065481, 0.31420356, -101740.945, 144807.58, 0.000006310061, 10.002241, 9.997211 
1.4052257e+3, 2.8484294e+2, 46837.65, -380519.97, -32341.566, 0.117765754, 0.39553565, 49271.332, 197842.73, 0.00007173929, 10.002729, 9.997052 
1.4052425e+3, 2.9484078e+2, 296829.28, -191269.66, -80538.93, 0.0040180995, 0.44311512, 309775.25, 360368.88, 0.00031646065, 10.003701, 9.997206 
1.4052626e+3, 3.048364e+2, 449163.75, -14426.046, 12887.424, 0.038980532, 0.25669605, 449521.72, 449521.72, 0.0008492908, 10.004058, 9.997933 
1.4052829e+3, 3.1483337e+2, 459379.8, 68941.02, -64216.0, -0.07270832, 0.12648863, 469670.28, 469670.28, 0.0016497442, 10.003741, 9.998662 
1.4149149e+3, 1.2483054e+2, -1922283.1, -1661832.9, 13800.022, 0.36890674, 0.12070638, -1661103.8, 55576.1, 0.009556688, 9.997867, 10.001379 
1.4149319e+3, 1.3483325e+2, -2026645.6, -1646213.0, 62290.367, 0.06098555, 0.23756064, -1636273.6, -17619.232, 0.0055341963, 9.996436, 10.0015135 
1.4149526e+3, 1.4483458e+2, -1927648.8, -1522474.5, 41758.71, 0.19313966, 0.20210849, -1518215.5, 2425.1255, 0.0022969088, 9.996321, 10.001739 
1.4149718e+3, 1.5483516e+2, -1657771.1, -1355775.1, 65469.977, 0.16759713, 0.075892344, -1342192.6, 80439.3, 0.0005425403, 9.997574, 10.001605 
1.414991e+3, 1.6483618e+2, -1628665.8, -1514630.3, 76500.72, 0.091585584, 0.12575655, -1476236.4, -151611.7, 0.000040406845, 9.998069, 9.999598 
1.415011e+3, 1.7483754e+2, -1548211.3, -1416458.1, 62684.195, 0.06384661, 0.27514288, -1391400.5, -164780.64, 0.00000007226826, 9.997913, 9.999671 
1.4150316e+3, 1.8483816e+2, -1373003.9, -1233350.6, 46019.38, 0.06594427, 0.35539588, -1219549.8, -90932.664, 0.0, 9.998237, 10.000099 
1.415052e+3, 1.9483791e+2, -1157724.1, -1068184.5, 51336.645, 0.07012765, 0.29072535, -1044838.4, -14220.97, 0.0, 9.998998, 10.000191 
1.4150713e+3, 2.0483781e+2, -992106.5, -1010644.7, -35762.668, 0.060267344, 0.30173722, -964431.25, -31814.648, 0.0, 9.999767, 9.999547 
1.4150895e+3, 2.1483782e+2, -772991.56, -844587.75, 3817.2544, 0.054664917, 0.31935006, -772788.56, 61826.953, 0.0, 10.000567, 9.999625 
1.4151084e+3, 2.248366e+2, -705221.94, -910942.6, 61991.98, 0.05043777, 0.31023932, -687985.4, 48641.035, 0.0, 10.001009, 9.99828 
1.4151281e+3, 2.3483407e+2, -600574.94, -801605.1, 59031.07, 0.043385614, 0.20057274, -584522.6, 54127.81, 0.0, 10.00103, 9.9983425 
1.4151482e+3, 2.4483235e+2, -520941.72, -824966.6, 21724.7, 0.074612506, 0.25025934, -519397.2, 21271.818, 0.0, 10.001357, 9.997364 
1.4151686e+3, 2.548313e+2, -337285.5, -674551.75, 8433.994, 0.15139227, 0.37915906, -337074.72, 105608.69, 0.0, 10.00191, 9.997454 
1.4151888e+3, 2.6482877e+2, -183583.39, -512092.84, 36086.0, 0.15909824, 0.36887068, -179666.13, 165042.56, 0.000000079284355, 10.002133, 9.997787 
1.4152086e+3, 2.748245e+2, -77336.81, -398966.6, 72470.71, 0.0871237, 0.13395649, -61761.707, 184984.19, 0.000007370644, 10.002148, 9.997883 
1.4152281e+3, 2.8482175e+2, -26469.514, -530023.3, -6084.721, 0.056870207, 0.16796222, -26396.0, 122377.266, 0.00007202747, 10.002705, 9.996041 
1.4152475e+3, 2.9482016e+2, 207473.22, -361255.8, -24999.46, 0.10294809, 0.37387645, 208569.98, 259363.97, 0.00031748146, 10.0036125, 9.996093 
1.4152682e+3, 3.0481553e+2, 343726.22, -194571.11, -1752.5485, 0.16885419, 0.27708057, 343731.94, 343731.94, 0.0008519032, 10.003912, 9.996749 
1.4152877e+3, 3.148114e+2, 378961.22, -34635.71, -54521.414, -0.0019480363, 0.14721254, 386027.63, 386027.63, 0.001650895, 10.003498, 9.998047 
1.424913e+3, 1.2481194e+2, -1996582.5, -1690831.8, -19637.182, 0.43313324, 0.116043925, -1689575.8, 27286.697, 0.010011913, 9.997334, 10.001438 
1.4249289e+3, 1.3481484e+2, -1884676.5, -1567173.3, 22558.572, 0.077429384, 0.25075465, -1565578.5, 53256.62, 0.0058154534, 9.997395, 10.001586 
1.4249498e+3, 1.44816e+2, -1748413.8, -1466646.1, 43173.418, 0.19900149, 0.20613183, -1460179.4, 60644.95, 0.002423067, 9.997706, 10.001444 
1.4249697e+3, 1.5481716e+2, -1647725.3, -1385327.4, 5555.4824, 0.1928885, 0.17067887, -1385209.8, 37602.027, 0.00057589856, 9.99781, 10.001273 
1.4249891e+3, 1.6481796e+2, -1629681.8, -1532424.5, 26034.055, 0.10694896, 0.22142895, -1525894.1, -201087.45, 0.00004378684, 9.998122, 9.999454 
1.4250092e+3, 1.7481829e+2, -1412031.4, -1364233.9, 27832.252, 0.0635968, 0.28025365, -1351447.6, -124637.96, 0.00000008454083, 9.998899, 9.999557 
1.4250301e+3, 1.8481845e+2, -1254261.5, -1174640.1, 52033.87, 0.080876596, 0.31973037, -1148934.4, -20124.1, 0.0, 9.999049, 10.000109 
1.4250512e+3, 1.9481838e+2, -1210811.8, -1091561.1, 48044.84, 0.11605021, 0.27090758, -1074613.0, -43804.508, 0.0, 9.998628, 10.000208 
1.4250712e+3, 2.0481837e+2, -1117434.0, -1079641.6, -11452.152, 0.1188568, 0.29426283, -1076442.1, -143634.7, 0.0, 9.998946, 9.999468 
1.4250903e+3, 2.148183e+2, -837133.3, -884815.06, -58549.293, 0.101983756, 0.31302792, -797757.0, 37051.594, 0.0, 10.000156, 9.99955 
1.4251097e+3, 2.2481717e+2, -722991.4, -909103.25, -32024.15, 0.08939928, 0.30971026, -717635.2, 19183.838, 0.0, 10.000837, 9.998379 
1.4251293e+3, 2.3481491e+2, -591269.2, -787344.7, -21801.629, 0.067887954, 0.21964438, -588874.3, 49964.902, 0.0, 10.001037, 9.9984455 
1.4251497e+3, 2.4481314e+2, -494523.22, -804352.5, 29066.146, 0.09671313, 0.25824142, -491820.0, 49037.65, 0.0, 10.001523, 9.997422 
1.425171e+3, 2.548118e+2, -247077.17, -618909.2, 39154.715, 0.17878945, 0.34794453, -242998.83, 199876.45, 0.00000000006254562, 10.00249, 9.99755 
1.4251916e+3, 2.6480925e+2, -26079.664, -442007.97, 68301.92, 0.1962331, 0.33839267, -15150.6, 329749.44, 0.00000036239143, 10.003237, 9.997742 
1.4252119e+3, 2.748055e+2, 145895.63, -294498.22, 33629.85, 0.14311095, 0.15478987, 148448.89, 395381.2, 0.000010087366, 10.003686, 9.997861 
1.425232e+3, 2.8480262e+2, 222225.06, -423241.34, 16766.502, 0.08932353, 0.18547158, 222660.3, 371620.88, 0.00007869426, 10.004474, 9.995929 
1.4252515e+3, 2.948004e+2, 525955.0, -216756.06, 26241.908, 0.05501592, 0.33984855, 526881.0, 577868.44, 0.0003334762, 10.00585, 9.996007 
1.4252725e+3, 3.0479598e+2, 581003.0, -169616.22, 51218.598, 0.117437184, 0.30948636, 584481.8, 584481.8, 0.00088451663, 10.005905, 9.995976 
1.4252923e+3, 3.1479225e+2, 469454.8, -42690.023, -16997.992, 0.08527551, 0.290252, 470018.34, 470018.34, 0.001705429, 10.004324, 9.997606 
1.4349101e+3, 1.2479603e+2, -1968480.5, -1649987.8, -75624.555, 0.36454976, 0.33752552, -1632943.3, 84079.07, 0.010506618, 9.997386, 10.001701 
1.4349262e+3, 1.3479608e+2, -1916704.3, -1627755.0, 48366.426, 0.0663437, 0.21951857, -1619874.0, -852.5332, 0.006123269, 9.997374, 10.001172 
1.434946e+3, 1.4479658e+2, -1791499.9, -1573408.8, 37855.504, 0.04112759, 0.17109063, -1567024.9, -46006.23, 0.002563054, 9.997771, 10.000686 
1.4349678e+3, 1.5480033e+2, -1701371.6, -1497830.6, 16946.152, 0.20374416, 0.46932074, -1496429.4, -73442.45, 0.0006133788, 9.9978075, 10.000509 
1.4349881e+3, 1.6480108e+2, -1605725.8, -1486834.5, 39892.934, 0.15028478, 0.54126453, -1474689.5, -149707.63, 0.000047750204, 9.998138, 9.999761 
1.4350078e+3, 1.7479858e+2, -1388033.5, -1318353.5, 64889.258, -0.0028704193, 0.28463197, -1279542.8, -52536.96, 0.00000010052836, 9.99891, 9.999869 
1.4350288e+3, 1.8479785e+2, -1241534.4, -1147232.6, 22123.701, 0.018470762, 0.21069613, -1142300.3, -13289.284, 0.0, 9.999046, 10.000299 
1.4350508e+3, 1.9479889e+2, -1208255.5, -1071606.3, 40091.547, 0.19535045, 0.25588703, -1060712.3, -29715.307, 0.0, 9.998563, 10.000379 
1.4350712e+3, 2.0479865e+2, -1191385.9, -1216470.8, 20180.896, 0.2147171, 0.29110426, -1180167.4, -247167.94, 0.0, 9.998871, 9.998566 
1.4350905e+3, 2.1479693e+2, -927250.2, -1038056.0, -2424.3984, 0.09027728, 0.23777172, -927197.2, -92175.85, 0.0, 10.0000105, 9.998568 
1.4351103e+3, 2.2479583e+2, -709878.6, -847340.3, -34486.62, 0.047881868, 0.26697567, -701711.8, 35320.94, 0.0, 10.00069, 9.998873 
1.4351307e+3, 2.3479548e+2, -574701.44, -718662.5, -4864.1436, 0.08876124, 0.3128023, -574537.25, 64495.273, 0.0, 10.000895, 9.998985 
1.4351512e+3, 2.4479401e+2, -463938.56, -715137.3, 50997.598, 0.06342389, 0.31909883, -453979.97, 87065.44, 0.0, 10.001402, 9.998098 
1.4351717e+3, 2.5479123e+2, -224813.42, -537597.1, 84149.49, -0.026649084, 0.20206735, -203611.5, 239461.77, 0.000000006122379, 10.00234, 9.998181 
1.4351933e+3, 2.6478922e+2, -83218.96, -535602.0, 74418.29, 0.01283326, 0.24036302, -71291.42, 273802.7, 0.0000008787704, 10.003121, 9.997159 
1.4352164e+3, 2.7478796e+2, 85909.234, -393484.22, 64372.504, 0.18657045, 0.3726252, 94402.63, 341510.38, 0.000014147242, 10.003568, 9.997246 
1.4352368e+3, 2.8478542e+2, 245098.38, -348743.97, 57001.098, 0.113216266, 0.43929002, 250520.23, 399654.25, 0.00009067534, 10.004351, 9.996499 
1.4352548e+3, 2.9478115e+2, 530626.25, -163326.4, 93945.695, -0.22143182, 0.32614756, 543119.5, 594296.8, 0.0003630913, 10.005651, 9.996475 
1.4352755e+3, 3.047775e+2, 546256.94, -200257.17, -13062.968, -0.19494048, 0.3590257, 546485.44, 546485.44, 0.00094924634, 10.005744, 9.995837 
1.4352967e+3, 3.1477556e+2, 424256.53, -87377.94, -46071.723, 0.040002603, 0.5353372, 428372.1, 428372.1, 0.0018212138, 10.004117, 9.997404 
1.4449063e+3, 1.2477694e+2, -1938828.8, -1634596.4, -50363.32, 0.22946247, 0.28142723, -1626475.9, 90732.85, 0.011047917, 9.997579, 10.001713 
1.4449248e+3, 1.3477725e+2, -1964055.9, -1707391.0, 13139.279, 0.18698257, 0.2306395, -1706720.1, -87513.33, 0.00646129, 9.997277, 10.00067 
1.4449441e+3, 1.4477766e+2, -1844519.9, -1624809.9, 58920.793, 0.086062215, 0.21312681, -1610006.3, -88800.39, 0.0027186894, 9.997529, 10.000441 
1.444966e+3, 1.547808e+2, -1604320.4, -1466155.4, 53095.22, 0.21894331, 0.46962428, -1448108.8, -24928.979, 0.0006559602, 9.998547, 10.000365 
1.4449868e+3, 1.6478136e+2, -1456819.6, -1390887.0, 117261.37, 0.1634364, 0.5186998, -1302046.1, 23129.521, 0.000052490832, 9.999073, 9.999959 
1.4450069e+3, 1.7477909e+2, -1308802.6, -1253637.8, 114193.62, -0.0019197664, 0.26160464, -1163742.8, 63452.82, 0.00000012546444, 9.999358, 10.000087 
1.4450282e+3, 1.8477839e+2, -1159619.1, -1141795.6, 53522.367, 0.02952332, 0.19576217, -1096448.1, 32751.826, 0.0, 9.999741, 10.000006 
1.4450505e+3, 1.9477935e+2, -977222.6, -989182.94, 14051.531, 0.2338889, 0.26090622, -967931.6, 63256.81, 0.0, 10.000271, 10.000116 
1.4450714e+3, 2.0477912e+2, -927156.4, -1094466.9, 52327.766, 0.25379473, 0.30963877, -912138.44, 21053.418, 0.0, 10.0007105, 9.998516 
1.4450909e+3, 2.1477744e+2, -770515.9, -963212.75, 75458.32, 0.09460447, 0.26472968, -744483.9, 90728.82, 0.0, 10.001094, 9.998557 
1.4451113e+3, 2.2477618e+2, -585765.25, -809521.3, 70499.94, 0.04453041, 0.28690025, -565405.1, 171820.36, 0.0, 10.001629, 9.998684 
1.4451325e+3, 2.3477533e+2, -368857.22, -640103.44, 27584.754, 0.09942377, 0.29959467, -366080.4, 273150.06, 0.0, 10.002384, 9.998809 
1.4451532e+3, 2.4477376e+2, -296435.16, -623576.94, 47014.883, 0.078269534, 0.29931965, -289812.53, 251431.58, 0.0, 10.002514, 9.998183 
1.4451738e+3, 2.5477126e+2, -257882.56, -550414.75, 20766.83, -0.028934838, 0.20335113, -256415.67, 186852.97, 0.000000012932129, 10.002076, 9.998231 
1.4451955e+3, 2.6476932e+2, -190158.69, -593299.44, 53892.023, -0.02327231, 0.25273037, -183078.72, 162209.98, 0.0000016431604, 10.002426, 9.997086 
1.4452189e+3, 2.74768e+2, 116866.086, -382092.66, 51379.176, 0.09548029, 0.38327318, 122101.8, 369405.56, 0.000019343763, 10.003812, 9.997192 
1.4452402e+3, 2.8476548e+2, 239448.1, -289788.16, 54090.766, 0.040389117, 0.4233911, 244919.89, 394249.1, 0.000107392494, 10.004047, 9.997045 
1.4452593e+3, 2.9476142e+2, 171305.94, -268495.3, 73822.11, -0.18870582, 0.27552012, 183366.5, 234733.7, 0.00040815616, 10.00289, 9.99707 
1.4452808e+3, 3.047584e+2, 289302.28, -336794.5, 46442.31, -0.13899598, 0.34709853, 292728.5, 292728.5, 0.0010517641, 10.004018, 9.995744 
1.4453028e+3, 3.1475592e+2, 943415.9, 143905.05, -36883.758, 0.07144533, 0.47847435, 945113.8, 945113.8, 0.0020078304, 10.0077915, 9.997221 
1.4549023e+3, 1.2475524e+2, -1963166.3, -1694070.0, 26462.254, 0.031183943, -0.025038235, -1691492.5, 25923.117, 0.011640448, 9.997628, 10.001271 
1.454924e+3, 1.3475847e+2, -2015213.8, -1805847.1, 9071.946, 0.36372524, 0.27604428, -1805454.8, -186064.64, 0.0068325973, 9.997244, 10.000013 
1.4549434e+3, 1.4475934e+2, -1826413.1, -1588517.4, 84424.0, 0.22900842, 0.33313566, -1561602.3, -40217.85, 0.0028915813, 9.997535, 10.000685 
1.4549641e+3, 1.5475863e+2, -1579419.0, -1410152.9, 99302.79, 0.14495769, 0.1633608, -1364310.8, 59079.387, 0.00070428615, 9.99853, 10.000756 
1.4549848e+3, 1.6475886e+2, -1439440.1, -1367366.4, 113599.35, 0.052708566, 0.15216222, -1284225.0, 41162.492, 0.000058062662, 9.999123, 10.000098 
1.4550063e+3, 1.7475988e+2, -1301786.3, -1238371.1, 134933.02, -0.0061725625, 0.21158496, -1131470.3, 95907.65, 0.00000016567238, 9.999351, 10.000197 
1.4550282e+3, 1.847602e+2, -1211226.0, -1248976.4, 61925.137, 0.02636252, 0.27644405, -1165363.4, -35987.125, 0.0, 9.999742, 9.9992695 
1.4550501e+3, 1.947598e+2, -1041655.3, -1110962.9, 42891.79, 0.14941935, 0.28589645, -1021167.56, 10215.227, 0.0, 10.000216, 9.999313 
1.4550713e+3, 2.0475964e+2, -887149.2, -984888.2, 55186.71, 0.1480998, 0.3483181, -862304.4, 71081.0, 0.0, 10.000603, 9.999316 
1.4550915e+3, 2.147597e+2, -731187.7, -847396.44, 98106.82, 0.032252215, 0.38952407, -675269.8, 160114.27, 0.0, 10.000953, 9.999419 
1.4551125e+3, 2.2475809e+2, -656541.6, -924300.7, 86193.44, -0.014204857, 0.36625674, -631194.75, 106203.92, 0.0, 10.001489, 9.997964 
1.4551342e+3, 2.3475462e+2, -454438.63, -771151.44, 66619.19, 0.014826553, 0.1982055, -440996.13, 198435.2, 0.0, 10.002191, 9.997999 
1.4551556e+3, 2.4475251e+2, -345041.1, -701000.7, 21713.588, 0.04638538, 0.21029966, -343721.47, 197730.94, 0.0, 10.002398, 9.997714 
1.455177e+3, 2.547519e+2, -300978.84, -620017.3, 15215.604, 0.07961456, 0.3461803, -300254.84, 143205.97, 0.000000017460069, 10.001987, 9.997798 
1.4551984e+3, 2.6474974e+2, -181753.86, -557959.94, 94843.78, -0.007664033, 0.3771959, -159195.81, 186286.81, 0.000002726617, 10.002339, 9.9973755 
1.4552198e+3, 2.7474567e+2, 116171.49, -350041.75, 114919.09, -0.21692961, 0.20181096, 142959.27, 390479.72, 0.000025176965, 10.003667, 9.997482 
1.4552419e+3, 2.847428e+2, 270346.2, -196663.17, 1802.6489, -0.21065225, 0.16267328, 270353.16, 419899.0, 0.00012760727, 10.003922, 9.997746 
1.4552647e+3, 2.9474127e+2, 214157.16, -166186.7, 40629.04, 0.036107097, 0.19719262, 218448.8, 270005.66, 0.00046523786, 10.002826, 9.99781 
1.455288e+3, 3.0473888e+2, 266231.03, -360979.16, 169195.77, 0.15799354, 0.29735956, 308961.97, 308961.97, 0.0011850611, 10.003918, 9.995622 
1.4553101e+3, 3.1473348e+2, 857461.25, 35845.066, 127051.85, -0.0061792415, 0.1504186, 876659.56, 876659.56, 0.00225512, 10.007489, 9.99662 
1.4649001e+3, 1.2473625e+2, -2074030.8, -1786425.4, 49946.965, 0.08643468, 0.038188368, -1777998.3, -60397.86, 0.012283002, 9.997025, 10.0009365 
1.4649214e+3, 1.3473853e+2, -1874137.6, -1763032.9, -45190.93, 0.33316785, 0.26779267, -1746973.3, -127388.15, 0.00723705, 9.99832, 9.99979 
1.4649417e+3, 1.4473915e+2, -1678187.8, -1536234.3, 77114.58, 0.2632471, 0.3236576, -1502404.8, 19176.99, 0.0030819494, 9.998616, 10.000534 
1.464963e+3, 1.5473777e+2, -1533265.6, -1392019.6, 35676.926, 0.17689113, 0.092382506, -1383519.6, 40073.14, 0.0007585455, 9.998849, 10.000734 
1.4649843e+3, 1.647382e+2, -1455981.1, -1369703.9, 39018.594, 0.09576574, 0.096399926, -1354675.6, -29087.102, 0.00006440502, 9.9989805, 10.0001545 
1.4650056e+3, 1.747402e+2, -1318484.9, -1241093.1, 30999.967, 0.0002294083, 0.2519575, -1230207.0, -2636.2207, 0.00000022299002, 9.9992075, 10.000252 
1.4650276e+3, 1.8474069e+2, -1248177.9, -1283440.9, 10201.561, 0.010296689, 0.3407308, -1245439.3, -115871.016, 0.0, 9.999576, 9.999106 
1.4650501e+3, 1.947396e+2, -1041661.9, -1122222.0, 16279.277, 0.13896853, 0.2924351, -1038496.56, -6915.173, 0.0, 10.0002775, 9.999195 
1.4650719e+3, 2.0473905e+2, -854993.25, -982684.5, 40383.965, 0.14987014, 0.32564506, -843293.4, 90294.07, 0.0, 10.0008745, 9.999207 
1.4650926e+3, 2.1473904e+2, -663546.3, -823141.75, -3716.3503, 0.033318684, 0.3726872, -663459.8, 172126.19, 0.0, 10.001454, 9.999346 
1.465114e+3, 2.2473745e+2, -623843.5, -934034.94, -17250.123, -0.014343207, 0.36806294, -622887.1, 114713.8, 0.0, 10.001834, 9.997731 
1.4651361e+3, 2.34734e+2, -485441.06, -812408.8, -19166.836, 0.012921884, 0.22510831, -484321.34, 155314.16, 0.0, 10.002086, 9.997771 
1.465158e+3, 2.4473171e+2, -340560.4, -727795.6, -24169.508, 0.055535387, 0.24568902, -339057.7, 202601.5, 0.0, 10.002564, 9.997447 
1.4651799e+3, 2.5473076e+2, -107239.62, -551331.75, -40969.92, 0.10431747, 0.37584192, -103491.555, 340179.06, 0.000000044837254, 10.00344, 9.997562 
1.465202e+3, 2.6472843e+2, 38069.074, -439770.22, 69005.15, 0.03960902, 0.4002308, 47834.586, 393527.66, 0.0000038968087, 10.0038, 9.997485 
1.465224e+3, 2.7472448e+2, 116714.586, -339318.28, 62019.55, -0.15013604, 0.22863953, 124998.64, 372727.13, 0.000030518888, 10.003613, 9.99759 
1.4652465e+3, 2.847213e+2, 271834.53, -237001.22, -86039.25, -0.14101186, 0.1689337, 285989.2, 435746.34, 0.00014653109, 10.00411, 9.99738 
1.4652693e+3, 2.947191e+2, 571454.06, -29962.846, -164687.03, 0.08143921, 0.17578577, 613597.5, 665373.4, 0.00052181655, 10.005455, 9.997474 
1.465293e+3, 3.0471668e+2, 634614.0, -137618.45, 26173.79, 0.17288113, 0.26878846, 635500.1, 635500.1, 0.0013254124, 10.006263, 9.996016 
1.4653173e+3, 3.14712e+2, 679285.8, -66657.1, -4809.186, 0.03678578, 0.16178167, 679316.8, 679316.8, 0.0025244718, 10.006306, 9.99649 
1.4748994e+3, 1.2471884e+2, -2085578.8, -1801225.8, 60140.984, 0.26707855, 0.38582045, -1789029.0, -71254.69, 0.012969953, 9.997015, 10.000818 
1.4749162e+3, 1.3471743e+2, -1858476.5, -1723435.1, -7799.25, -0.048842393, 0.21458884, -1722986.3, -103194.37, 0.0076708426, 9.998297, 10.000066 
1.4749388e+3, 1.4471704e+2, -1696383.0, -1595019.8, 62703.09, 0.08191411, 0.17685401, -1565077.0, -43278.7, 0.0032881629, 9.9986925, 10.000098 
1.4749627e+3, 1.5471843e+2, -1571456.3, -1466239.5, 51630.18, 0.23683056, 0.270128, -1445136.9, -21351.04, 0.00081847684, 9.998822, 10.00024 
1.4749844e+3, 1.6471949e+2, -1449916.3, -1371154.0, 32624.305, 0.19484803, 0.36736974, -1359395.9, -33618.625, 0.000071419374, 9.99903, 10.000121 
1.4750043e+3, 1.7472014e+2, -1323031.0, -1248883.5, 46276.934, -0.073727086, 0.38884738, -1226661.1, 1112.2959, 0.0000002932695, 9.999198, 10.000202 
1.4750263e+3, 1.8471994e+2, -1213933.9, -1219734.0, 23782.188, -0.11180767, 0.39079726, -1192875.6, -63100.086, 0.0, 9.999598, 9.999537 
1.4750506e+3, 1.947187e+2, -1016563.2, -1060112.6, 50933.95, 0.11912586, 0.28314137, -982944.7, 48840.004, 0.0, 10.000228, 9.999651 
1.4750731e+3, 2.047173e+2, -926333.06, -1117136.1, 47667.063, 0.16526401, 0.24954838, -915087.5, 18710.65, 0.0, 10.000812, 9.998313 
1.475094e+3, 2.1471567e+2, -752802.44, -977056.7, 24340.781, 0.010632624, 0.22859335, -750190.9, 85625.61, 0.0, 10.00132, 9.998353 
1.4751157e+3, 2.247144e+2, -631281.6, -918718.1, -18165.846, -0.04346256, 0.30042425, -630138.1, 107692.93, 0.0, 10.001694, 9.997907 
1.4751384e+3, 2.3471348e+2, -485410.63, -787072.1, 1267.0419, 0.0074048857, 0.3869062, -485405.3, 154436.94, 0.0, 10.001973, 9.998001 
1.4751604e+3, 2.4471135e+2, -361008.7, -751207.1, -3792.8928, 0.009185494, 0.41557857, -360971.8, 180892.17, 0.0, 10.002473, 9.997334 
1.4751822e+3, 2.5470784e+2, -137266.64, -582650.6, 2375.1082, -0.030975012, 0.3009288, -137253.97, 306644.0, 0.000000082863835, 10.003303, 9.997416 
1.4752057e+3, 2.647055e+2, 16936.508, -452393.5, 56564.777, 0.02175757, 0.33559257, 23657.582, 369577.1, 0.0000048986644, 10.003666, 9.997459 
1.475231e+3, 2.7470443e+2, 95576.05, -349707.13, 71643.54, 0.17398629, 0.4444105, 106819.2, 354747.56, 0.00003489947, 10.003473, 9.9975815 
1.4752536e+3, 2.847009e+2, 146277.08, -474394.1, -47442.637, 0.12729804, 0.4297849, 149882.53, 299845.22, 0.00016182495, 10.003995, 9.995811 
1.4752728e+3, 2.946948e+2, 441791.88, -271135.16, -97822.26, -0.13925293, 0.2054381, 454970.66, 506994.3, 0.00057329173, 10.005323, 9.995884 
1.4752962e+3, 3.0469167e+2, 674839.25, -10330.428, 26234.215, -0.16709383, 0.26149958, 675842.25, 675842.25, 0.00145845, 10.006091, 9.9969635 
1.4753239e+3, 3.1469128e+2, 644180.5, -38783.566, 34043.984, 0.017919667, 0.47867268, 645873.3, 645873.3, 0.0027774426, 10.005901, 9.996861 
1.4848964e+3, 1.2469607e+2, -2343194.0, -1867024.3, -51049.918, 0.37243485, 0.38424972, -1861612.8, -143612.28, 0.013700781, 9.99497, 10.001372 
1.4849132e+3, 1.3469541e+2, -1862905.8, -1628533.3, -51491.93, -0.12995589, 0.20664907, -1617719.4, 2288.6602, 0.00813248, 9.997822, 10.000961 
1.4849378e+3, 1.4469573e+2, -1686642.8, -1584253.4, 9946.983, 0.12195721, 0.19230206, -1583296.0, -61289.27, 0.0035089266, 9.99876, 10.000128 
1.4849609e+3, 1.5469746e+2, -1646707.9, -1500151.3, 10173.562, 0.2186408, 0.3195748, -1499448.4, -75455.88, 0.0008836724, 9.99831, 10.000244 
1.484983e+3, 1.6469854e+2, -1564253.8, -1405465.9, 59573.984, 0.17934811, 0.41062284, -1385600.3, -59616.434, 0.00007901186, 9.998189, 10.00028 
1.4850037e+3, 1.7469884e+2, -1388499.0, -1257091.6, 64346.992, -0.018735323, 0.38092315, -1230830.6, -2848.765, 0.00000037325287, 9.998668, 10.000395 
1.4850263e+3, 1.8469839e+2, -1230938.0, -1222515.5, 84838.664, -0.04077089, 0.34521216, -1141783.6, -11798.658, 0.0, 9.999455, 9.999589 
1.4850509e+3, 1.9469707e+2, -921679.44, -1007907.2, 61348.676, 0.120309435, 0.22203879, -889810.2, 142183.95, 0.0, 10.000847, 9.999713 
1.485074e+3, 2.0469561e+2, -822747.1, -1117883.5, 56611.99, 0.12862413, 0.20537937, -812260.6, 121748.16, 0.0, 10.00175, 9.997851 
1.4850953e+3, 2.1469405e+2, -662844.2, -984642.8, 47444.21, -0.027801955, 0.23863423, -655995.0, 180034.63, 0.0, 10.002155, 9.997897 
1.4851177e+3, 2.2469284e+2, -523679.1, -862761.3, 34991.668, -0.049584966, 0.33603513, -520105.78, 217939.5, 0.0, 10.002418, 9.997937 
1.485141e+3, 2.3469205e+2, -384736.16, -730991.06, 17924.701, 0.061860908, 0.43233258, -383810.72, 256244.02, 0.0, 10.00264, 9.99806 
1.4851634e+3, 2.4468987e+2, -276060.9, -693397.6, 47691.043, 0.054694276, 0.44427451, -270680.4, 271395.44, 0.0, 10.002986, 9.997484 
1.4851849e+3, 2.5468606e+2, -94404.11, -543426.94, 54239.094, -0.08180958, 0.28669998, -87945.28, 356164.94, 0.00000011463164, 10.003515, 9.997584 
1.4852087e+3, 2.6468337e+2, -2875.7788, -503620.88, 93675.45, -0.029377947, 0.29603434, 14074.519, 360209.38, 0.000005857849, 10.003716, 9.997082 
1.4852351e+3, 2.7468193e+2, 91410.8, -396119.13, 48987.125, 0.2266314, 0.40998477, 96284.32, 344433.78, 0.000039275426, 10.003644, 9.997179 
1.4852583e+3, 2.8467843e+2, 159744.05, -510421.47, 36214.777, 0.19572441, 0.4394226, 161695.36, 311880.25, 0.00017742011, 10.004292, 9.99541 
1.485278e+3, 2.9467276e+2, 488795.5, -292441.6, 49317.18, -0.15569742, 0.29841462, 491896.44, 544139.2, 0.00062583544, 10.005834, 9.995493 
1.4853017e+3, 3.0466884e+2, 705150.25, 45840.41, 142702.22, -0.20928194, 0.27721924, 734711.56, 734711.56, 0.0015832088, 10.006094, 9.997368 
1.4853294e+3, 3.1466845e+2, 492886.72, -86231.83, 55212.727, 0.0624778, 0.45596212, 498103.66, 498103.66, 0.0029958787, 10.004728, 9.9971075 
1.4948884e+3, 1.24668345e+2, -2221160.3, -1623168.6, -139323.53, 0.028651247, 0.076547705, -1592301.5, 125973.4, 0.014485426, 9.995006, 10.003039 
1.4949127e+3, 1.3467282e+2, -1771159.8, -1420553.8, 58121.656, 0.008924745, 0.27011034, -1411169.9, 209060.05, 0.008627366, 9.997751, 10.00243 
1.4949386e+3, 1.4467542e+2, -1636840.3, -1503795.8, -25803.336, 0.29142043, 0.37816116, -1498966.5, 23238.521, 0.0037456865, 9.9988365, 10.000653 
1.4949575e+3, 1.5467507e+2, -1617697.0, -1443127.3, 2045.6497, 0.023850951, 0.2539334, -1443103.3, -18892.348, 0.0009542572, 9.998314, 10.000641 
1.494979e+3, 1.6467547e+2, -1525661.0, -1343474.3, 61897.965, -0.06509493, 0.23814921, -1324434.3, 1772.7076, 0.00008722728, 9.998263, 10.000667 
1.4950037e+3, 1.7467631e+2, -1367262.3, -1207350.0, 88785.664, 0.08925926, 0.22652327, -1167824.4, 60371.434, 0.0000004647829, 9.998646, 10.000745 
1.4950277e+3, 1.846761e+2, -1246926.4, -1267041.4, 120828.54, 0.1313263, 0.21128139, -1135737.5, -5541.341, 0.0, 9.999495, 9.999269 
1.4950512e+3, 1.9467475e+2, -956102.56, -1067789.6, 119468.9, 0.04604921, 0.12101584, -880069.94, 152138.86, 0.0, 10.0007925, 9.9993305 
1.495074e+3, 2.046741e+2, -834717.7, -1123919.9, 60088.33, -0.052649252, 0.20110893, -822729.9, 111488.836, 0.0, 10.001662, 9.997853 
1.4950964e+3, 2.1467413e+2, -681620.44, -990674.2, 70556.836, -0.15415534, 0.39306867, -666274.3, 169951.75, 0.0, 10.002016, 9.99792 
1.4951196e+3, 2.2467275e+2, -552036.6, -895710.75, 29552.977, -0.11167551, 0.4798193, -549513.8, 188729.84, 0.0, 10.002295, 9.997776 
1.4951442e+3, 2.3466974e+2, -417603.0, -766223.94, 34761.813, 0.091787055, 0.3684277, -414170.63, 226102.31, 0.0, 10.002494, 9.997891 
1.495167e+3, 2.4466726e+2, -271831.75, -649753.7, 57644.016, 0.09269135, 0.34303752, -263234.94, 279059.75, 0.0, 10.002832, 9.997859 
1.495188e+3, 2.546653e+2, -87363.0, -499081.6, 85699.47, -0.13491704, 0.32545233, -70236.984, 374071.97, 0.00000015644366, 10.003385, 9.997953 
1.495211e+3, 2.6466197e+2, -78979.29, -633158.6, 80952.7, -0.19404766, 0.29000324, -67396.086, 278944.0, 0.000006865855, 10.003591, 9.996252 
1.4952362e+3, 2.746571e+2, 12022.332, -533779.56, 58054.195, -0.0535717, 0.15319386, 18128.941, 266519.6, 0.00004412325, 10.00353, 9.996288 
1.4952606e+3, 2.8465393e+2, 189152.73, -426647.3, 82825.41, -0.016960813, 0.22906502, 200098.23, 350521.66, 0.00019405913, 10.004185, 9.99604 
1.4952847e+3, 2.9465258e+2, 511129.66, -205080.78, 126552.62, -0.09286421, 0.44936958, 532833.5, 585270.06, 0.0006757088, 10.005654, 9.996182 
1.4953092e+3, 3.0464792e+2, 662148.2, 7882.138, 86066.42, -0.08880056, 0.32629174, 673280.5, 673280.5, 0.0016853395, 10.005886, 9.997198 
1.4953336e+3, 3.146437e+2, 454145.34, -110462.195, 37651.23, -0.034463268, 0.14082894, 456645.1, 456645.1, 0.0031530072, 10.004499, 9.997047 
1.5048838e+3, 1.2464471e+2, -1882247.6, -1426440.8, 9193.633, -0.03664469, -0.017192023, -1426255.4, 292249.6, 0.015336173, 9.997192, 10.00334 
1.5049106e+3, 1.3465035e+2, -2009660.5, -1498611.0, 155110.9, 0.12647523, 0.24746524, -1455217.3, 165230.17, 0.0091627855, 9.995951, 10.002764 
1.5049358e+3, 1.4465348e+2, -2026664.4, -1651431.0, 39250.15, 0.27232754, 0.37732545, -1647369.3, -124952.72, 0.0040015904, 9.996016, 10.000987 
1.5049554e+3, 1.5465298e+2, -1631237.9, -1406479.6, 33257.457, 0.013425545, 0.20066524, -1401661.8, 22761.816, 0.001031135, 9.998047, 10.001016 
1.5049776e+3, 1.6465315e+2, -1417579.8, -1342580.0, 74012.734, -0.061538253, 0.16443762, -1297109.3, 29312.955, 0.000096309515, 9.999204, 10.000233 
1.505003e+3, 1.7465362e+2, -1248161.6, -1197431.4, 17721.56, 0.11441724, 0.15867974, -1191854.0, 36561.652, 0.000000575819, 9.999649, 10.000335 
1.5050277e+3, 1.8465345e+2, -1198969.0, -1263046.8, 60433.688, 0.16371058, 0.17633972, -1162606.6, -32189.668, 0.0, 9.999927, 9.999075 
1.5050517e+3, 1.946526e+2, -1056356.4, -1132333.9, 51994.293, 0.048599817, 0.1562288, -1029951.4, 2475.078, 0.0, 10.000192, 9.999165 
1.5050752e+3, 2.0465215e+2, -967105.0, -1159357.3, 22878.758, -0.04212883, 0.25394106, -964419.8, -29985.186, 0.0, 10.000648, 9.998098 
1.5050985e+3, 2.1465202e+2, -745231.94, -995211.8, 26549.836, -0.10693032, 0.40790436, -742443.25, 93999.1, 0.0, 10.001469, 9.9981575 
1.5051222e+3, 2.2465041e+2, -567857.56, -896607.2, 15339.544, -0.06802757, 0.45827878, -567143.4, 171317.69, 0.0, 10.00218, 9.997813 
1.5051466e+3, 2.3464711e+2, -365830.5, -736980.5, 8388.325, 0.07747646, 0.31457025, -365641.0, 274851.1, 0.0, 10.002841, 9.997917 
1.5051702e+3, 2.4464461e+2, -212130.31, -624194.25, 42511.64, 0.105949044, 0.2875139, -207790.19, 334723.75, 0.0, 10.003266, 9.997817 
1.5051927e+3, 2.54643e+2, -77647.92, -494711.38, 12260.799, -0.008129586, 0.31152615, -77287.8, 367237.75, 0.00000020302433, 10.003469, 9.997929 
1.5052158e+3, 2.6463985e+2, -36360.586, -638852.2, 35832.543, -0.08892338, 0.306306, -34236.973, 312319.16, 0.0000077496, 10.004001, 9.996014 
1.5052395e+3, 2.7463496e+2, 208714.22, -467623.63, 39267.813, -0.13190086, 0.1888567, 210986.45, 459595.0, 0.000048433983, 10.004988, 9.996048 
1.5052643e+3, 2.846316e+2, 361694.13, -315733.53, 98635.86, -0.102704056, 0.2532756, 375763.66, 526405.9, 0.00020872346, 10.0052595, 9.996283 
1.5052909e+3, 2.9463002e+2, 412997.47, -216769.38, 76699.56, 0.013729787, 0.42216477, 422204.13, 474859.8, 0.0007164778, 10.00485, 9.996475 
1.505316e+3, 3.0462477e+2, 517264.66, -123129.68, 8537.309, 0.058097847, 0.24632478, 517378.44, 517378.44, 0.0017526651, 10.005131, 9.996676 
1.5053393e+3, 3.1462127e+2, 642279.06, -38450.6, -99409.16, 0.022025399, 0.19677097, 656499.06, 656499.06, 0.003229864, 10.005857, 9.996904 
1.5148818e+3, 1.2462643e+2, -1944248.5, -1587304.4, -24958.715, -0.01564214, 0.16444862, -1585567.6, 133110.56, 0.016257107, 9.99733, 10.002162 
1.5149067e+3, 1.3462839e+2, -2087196.3, -1639122.4, 123579.95, 0.13353622, 0.141143, -1607298.9, 13357.802, 0.009740974, 9.995884, 10.001817 
1.5149286e+3, 1.4463028e+2, -2015052.4, -1647256.0, 95272.03, -0.07356003, 0.2037387, -1624042.4, -101404.555, 0.0042781597, 9.996085, 10.000989 
1.5149546e+3, 1.5463129e+2, -1619435.9, -1381821.4, 119314.914, 0.09398801, 0.16504654, -1332250.4, 92379.25, 0.0011151112, 9.998041, 10.001189 
1.5149787e+3, 1.6463171e+2, -1487762.9, -1506019.5, 76271.34, 0.09690731, 0.19926503, -1420075.5, -93447.33, 0.000106548556, 9.999271, 9.999081 
1.5150014e+3, 1.7463097e+2, -1332890.9, -1374756.4, 42079.676, -0.025391249, 0.187964, -1306824.9, -78185.5, 0.0000007145684, 9.999649, 9.999121 
1.515026e+3, 1.8463056e+2, -1196536.4, -1267524.9, 59106.285, -0.041225336, 0.2480227, -1163085.8, -32439.611, 0.0, 9.999962, 9.99903 
1.515052e+3, 1.9463065e+2, -1063609.8, -1136551.3, 69750.055, 0.04428485, 0.32360506, -1021371.0, 11275.564, 0.0, 10.000146, 9.999158 
1.5150772e+3, 2.0462987e+2, -947897.44, -1105044.3, 38198.527, 0.066367544, 0.36948398, -939104.3, -4448.466, 0.0, 10.000578, 9.998509 
1.5151013e+3, 2.14628e+2, -734560.6, -940172.2, 65205.418, 0.025981363, 0.30292287, -715625.8, 121050.22, 0.0, 10.001324, 9.998609 
1.5151252e+3, 2.2462608e+2, -579369.06, -881388.1, 29603.576, -0.016517458, 0.29179275, -576494.7, 162200.2, 0.0, 10.0020075, 9.998004 
1.5151481e+3, 2.3462419e+2, -376298.38, -724481.75, 44301.004, -0.060930464, 0.27328187, -370750.2, 269961.78, 0.0, 10.002692, 9.9980755 
1.5151724e+3, 2.4462195e+2, -266071.16, -705296.1, 37745.49, 0.00322656, 0.28788477, -262851.06, 279881.94, 0.0, 10.003126, 9.997333 
1.5151983e+3, 2.546193e+2, -131221.48, -576725.5, 29471.492, 0.20067938, 0.25725174, -129280.305, 315478.63, 0.00000026346208, 10.003338, 9.997433 
1.5152225e+3, 2.6461694e+2, -33453.496, -600792.3, 62075.223, 0.1743123, 0.3424511, -26740.973, 320042.75, 0.0000083363275, 10.00386, 9.9963455 
1.5152447e+3, 2.746151e+2, 209979.39, -425144.34, 89609.445, -0.116627924, 0.4940972, 222380.23, 471185.9, 0.00005084767, 10.004826, 9.996415 
1.5152691e+3, 2.846114e+2, 325011.38, -362322.44, 72347.4, -0.17499213, 0.510803, 332543.97, 483386.25, 0.00022087188, 10.005118, 9.996034 
1.5152964e+3, 2.9460523e+2, 368783.13, -272432.34, 77773.914, 0.0568337, 0.24443924, 378081.6, 430980.0, 0.0007513173, 10.004686, 9.996173 
1.515322e+3, 3.0459931e+2, 423725.16, -255319.75, 26162.055, 0.1281091, 0.06134976, 424731.63, 424731.63, 0.0017961252, 10.004891, 9.99587 
1.5153456e+3, 3.1460065e+2, 581629.0, -68233.35, -41339.17, 0.03540353, 0.56592506, 584248.1, 584248.1, 0.003246933, 10.005497, 9.996848 
1.5248787e+3, 1.24604814e+2, -2017877.4, -1699511.4, -102771.74, -0.036466468, 0.24681298, -1669218.0, 49670.133, 0.017244658, 9.997184, 10.001449 
1.5249038e+3, 1.3460483e+2, -1957951.0, -1683758.5, -105055.39, 0.19839087, 0.117805675, -1648135.3, -27247.836, 0.010359608, 9.997226, 10.000868 
1.5249245e+3, 1.4460568e+2, -1872097.9, -1577929.3, -23632.002, -0.14651927, 0.132091, -1576042.9, -53163.64, 0.0045741852, 9.997082, 10.000977 
1.5249525e+3, 1.5460739e+2, -1655397.5, -1385875.5, -26054.084, 0.10491716, 0.15035641, -1383380.0, 41483.29, 0.0012060112, 9.997738, 10.001304 
1.524978e+3, 1.6460818e+2, -1588368.9, -1541676.5, -19289.67, 0.15105915, 0.21236734, -1534738.5, -207880.11, 0.000118081814, 9.998561, 9.99917 
1.5250012e+3, 1.7460774e+2, -1283907.4, -1336019.9, 17601.309, -0.013441489, 0.22653966, -1278519.5, -49651.79, 0.0000008766353, 9.99995, 9.999234 
1.525026e+3, 1.8460745e+2, -1092908.9, -1218941.8, 78602.164, -0.052846093, 0.29445308, -1055181.3, 75692.42, 0.0, 10.000677, 9.999025 
1.5250522e+3, 1.9460739e+2, -963882.2, -1095099.9, 66865.68, 0.023165334, 0.35719168, -935813.2, 97061.91, 0.0, 10.000844, 9.99912 
1.525078e+3, 2.0460618e+2, -888361.1, -1082955.0, 49004.695, 0.078836486, 0.36590287, -876717.0, 58170.457, 0.0, 10.000998, 9.998456 
1.5251033e+3, 2.1460363e+2, -762659.1, -959187.0, 19899.016, 0.10660965, 0.23457105, -760664.5, 76247.8, 0.0, 10.001142, 9.99856 
1.5251276e+3, 2.2460169e+2, -629289.06, -886455.75, -3787.911, 0.06866907, 0.2126077, -629233.3, 109697.22, 0.0, 10.0015745, 9.998181 
1.5251507e+3, 2.3460045e+2, -410378.7, -718705.5, -6578.5967, -0.052541915, 0.24181907, -410238.38, 230702.36, 0.0, 10.002362, 9.998276 
1.5251754e+3, 2.4459846e+2, -301357.22, -748746.56, 3809.9172, -0.008981087, 0.28217408, -301324.78, 241635.27, 0.0, 10.0030155, 9.997077 
1.525202e+3, 2.5459552e+2, -113713.75, -599675.1, -11140.969, 0.22176708, 0.25231838, -113458.48, 331532.16, 0.0000003530132, 10.003593, 9.997149 
1.525227e+3, 2.6459292e+2, -9047.451, -593928.06, 45727.113, 0.23458625, 0.32962367, -5494.0054, 341524.6, 0.00000861748, 10.004047, 9.996303 
1.5252502e+3, 2.7459085e+2, 144071.78, -455936.5, 19378.037, -0.016816108, 0.46091598, 144696.97, 393739.4, 0.000051582163, 10.004379, 9.996411 
1.525275e+3, 2.845873e+2, 236862.39, -386196.13, -11386.569, -0.07210166, 0.483538, 237070.4, 388148.2, 0.00023327695, 10.00444, 9.9962 
1.5253013e+3, 2.9458168e+2, 312011.97, -285940.6, -2882.9053, 0.10292733, 0.26454285, 312025.88, 365154.8, 0.0007865489, 10.004227, 9.996314 
1.5253268e+3, 3.0457613e+2, 357060.63, -309088.28, 46578.98, 0.15171742, 0.12152059, 360301.8, 360301.8, 0.0018343457, 10.004496, 9.995709 
1.5253516e+3, 3.1457692e+2, 556528.6, -50263.848, -23733.336, 0.109928735, 0.5894307, 557455.5, 557455.5, 0.003247664, 10.005133, 9.997179 
1.5348758e+3, 1.2457942e+2, -2040271.4, -1754333.3, 51689.582, -0.092710786, 0.18610333, -1745276.1, -26136.604, 0.018294634, 9.997215, 10.001052 
1.5349014e+3, 1.345799e+2, -2021753.1, -1815331.0, -112582.27, 0.21036574, 0.19631703, -1765809.3, -144671.45, 0.011016667, 9.997228, 9.999962 
1.5349229e+3, 1.4458011e+2, -1855699.3, -1573506.0, -22576.469, -0.042677075, 0.19559614, -1571711.3, -48574.266, 0.0048880493, 9.997196, 10.000962 
1.5349488e+3, 1.5458147e+2, -1656915.0, -1376353.9, 3401.2817, -0.045278292, 0.17378616, -1376312.6, 48810.28, 0.0013030368, 9.997692, 10.001393 
1.5349755e+3, 1.6458276e+2, -1488053.3, -1352141.3, 16398.086, 0.0045006494, 0.21984397, -1350190.8, -23080.07, 0.00013086536, 9.998625, 10.000446 
1.5350021e+3, 1.7458408e+2, -1192025.0, -1145871.3, 77322.195, 0.069449835, 0.27954176, -1088255.6, 140843.92, 0.0000010420176, 9.99995, 10.000541 
1.5350278e+3, 1.8458422e+2, -1087438.3, -1219073.1, 73307.414, 0.03424725, 0.32474366, -1054737.1, 76361.73, 0.0, 10.000721, 9.999005 
1.535052e+3, 1.945829e+2, -971488.0, -1102855.8, 79752.445, -0.09973786, 0.265012, -933852.9, 99258.414, 0.0, 10.000807, 9.9990835 
1.5350774e+3, 2.0458116e+2, -939354.44, -1161825.5, 45164.62, -0.100501776, 0.2456324, -930535.0, 4593.517, 0.0, 10.000886, 9.997967 
1.535104e+3, 2.1457896e+2, -820613.7, -1046418.94, 34606.254, 0.052803867, 0.20035541, -815429.06, 21722.207, 0.0, 10.001001, 9.998028 
1.5351297e+3, 2.2457717e+2, -639780.5, -873033.75, 13836.115, 0.094126664, 0.21697998, -638962.6, 100205.51, 0.0, 10.001415, 9.998354 
1.535154e+3, 2.3457594e+2, -412285.4, -692602.7, 34508.03, 0.01494013, 0.22098278, -408099.84, 233078.19, 0.0, 10.002227, 9.998524 
1.5351783e+3, 2.4457411e+2, -334076.97, -774551.94, 15395.144, -0.028610859, 0.26871023, -333539.56, 209655.86, 0.0, 10.002837, 9.9969845 
1.5352033e+3, 2.5457162e+2, -144771.22, -628770.75, 21174.375, -0.016311897, 0.2951642, -143846.63, 301374.6, 0.0000004707298, 10.003449, 9.997016 
1.535229e+3, 2.6456788e+2, -54227.516, -661938.75, 44577.293, 0.010915733, 0.28158292, -50975.055, 296285.25, 0.000008627056, 10.00393, 9.995895 
1.5352556e+3, 2.7456257e+2, 99425.11, -523197.3, 40099.53, 0.061569545, 0.13185766, 101997.06, 351312.22, 0.000052520907, 10.00427, 9.996003 
1.5352811e+3, 2.8455952e+2, 252767.89, -328720.78, -29608.42, 0.08352709, 0.20421857, 254271.61, 405618.44, 0.00024737927, 10.004324, 9.996656 
1.5353052e+3, 2.9455906e+2, 332018.8, -226536.02, 4854.8154, 0.059151407, 0.44746864, 332061.03, 385412.0, 0.0008244034, 10.004145, 9.996762 
1.5353303e+3, 3.0455497e+2, 359336.22, -268333.88, 54994.605, 0.03675148, 0.4142041, 364118.25, 364118.25, 0.0018821897, 10.004357, 9.996047 
1.5353565e+3, 3.145505e+2, 557343.6, 48601.215, 28872.785, 0.049459208, 0.3076877, 558977.0, 558977.0, 0.0032767362, 10.004756, 9.998018 
1.5448731e+3, 1.24553934e+2, -2309868.0, -1886976.9, 162881.23, 0.0028974295, 0.14970894, -1831515.1, -112126.305, 0.019406972, 9.995383, 10.001017 
1.5448986e+3, 1.345545e+2, -1843025.8, -1718382.5, -32150.732, 0.16159333, 0.16112936, -1710578.1, -89191.484, 0.0117135905, 9.99839, 10.000061 
1.5449221e+3, 1.4455524e+2, -1624727.0, -1473180.3, 63433.484, 0.09273648, 0.20925294, -1450133.6, 73247.21, 0.0052204016, 9.998832, 10.000865 
1.544946e+3, 1.5455654e+2, -1708685.6, -1421806.4, 53016.18, -0.06638544, 0.19729635, -1412322.4, 13044.86, 0.0014059248, 9.997396, 10.001242 
1.5449728e+3, 1.6455764e+2, -1672834.5, -1419538.1, 113905.22, -0.048872594, 0.22102174, -1375850.9, -48494.547, 0.00014487762, 9.997276, 10.00062 
1.545002e+3, 1.7455861e+2, -1323282.9, -1192630.9, 70907.2, 0.12350645, 0.22582808, -1161544.6, 67802.24, 0.000001197513, 9.998966, 10.000691 
1.5450288e+3, 1.8455869e+2, -1202468.8, -1265647.6, -2730.5647, 0.117680214, 0.2534141, -1202350.9, -71004.516, 0.0, 9.999913, 9.999064 
1.5450525e+3, 1.9455779e+2, -1055902.9, -1133993.0, -8425.1045, -0.09366092, 0.23098762, -1055004.3, -21648.824, 0.0, 10.000206, 9.999152 
1.545078e+3, 2.0455624e+2, -950142.8, -1154611.1, 11418.52, -0.11659381, 0.22371574, -949507.1, -14136.49, 0.0, 10.000775, 9.998069 
1.5451056e+3, 2.1455404e+2, -710280.06, -980773.7, 24724.277, 0.07342842, 0.17142735, -708038.75, 129353.375, 0.0, 10.001725, 9.998128 
1.5451318e+3, 2.2455218e+2, -536210.0, -845563.94, 29294.557, 0.15179686, 0.18511303, -533460.3, 205949.08, 0.0, 10.002237, 9.998139 
1.5451567e+3, 2.3455076e+2, -426286.8, -724514.25, -10430.707, 0.08759866, 0.19605261, -425922.44, 215499.16, 0.0, 10.0022545, 9.998285 
1.5451816e+3, 2.4454871e+2, -368076.44, -809491.6, -18844.656, 0.020432599, 0.24190429, -367273.38, 176167.94, 0.000000000009610117, 10.002667, 9.996838 
1.5452065e+3, 2.5454593e+2, -141640.14, -644093.5, -32331.68, -0.048466757, 0.25505644, -139568.22, 305901.53, 0.0000005675007, 10.003534, 9.996881 
1.5452328e+3, 2.6454195e+2, -17534.236, -645005.5, 13781.228, -0.005612174, 0.22984762, -17231.703, 330279.1, 0.000008574752, 10.004195, 9.995884 
1.5452608e+3, 2.7453652e+2, 156872.73, -505602.75, 12577.224, 0.15145937, 0.07201015, 157111.44, 406679.1, 0.000054202992, 10.004691, 9.995934 
1.5452866e+3, 2.8453353e+2, 388909.97, -254185.31, -45559.72, 0.17037556, 0.15516783, 392121.56, 543720.8, 0.00026217394, 10.005244, 9.996704 
1.5453096e+3, 2.9453358e+2, 583187.94, -103694.91, -71743.195, -0.002915786, 0.44217378, 590601.3, 644201.6, 0.0008660864, 10.00588, 9.996758 
1.5453348e+3, 3.0453e+2, 579290.4, -165011.73, -35571.47, -0.026727272, 0.46266297, 580986.56, 580986.56, 0.0019510185, 10.005874, 9.996034 
1.5453625e+3, 3.1452417e+2, 594811.6, 55599.27, -136592.78, 0.17432976, 0.23380497, 627438.94, 627438.94, 0.003363946, 10.005027, 9.997955 
1.5548696e+3, 1.2452917e+2, -2271991.8, -1825861.5, 150373.7, 0.0819334, 0.23509642, -1779909.4, -60281.38, 0.020587768, 9.995455, 10.001406 
1.5548949e+3, 1.3452868e+2, -1759934.8, -1529132.9, 67752.016, -0.06664276, 0.026310816, -1510714.1, 110919.055, 0.012455585, 9.9983225, 10.001402 
1.5549219e+3, 1.4453107e+2, -1620906.8, -1482552.3, -4097.098, 0.15528819, 0.16516037, -1482431.0, 41179.59, 0.0055746003, 9.998893, 10.000774 
1.5549438e+3, 1.5453291e+2, -1732695.8, -1469007.1, 9316.677, -0.054973535, 0.23546843, -1468678.4, -43084.79, 0.001515748, 9.997395, 10.000913 
1.5549697e+3, 1.6453312e+2, -1727096.5, -1552016.3, 160672.36, -0.10742089, 0.23670241, -1456584.0, -128991.79, 0.00016035176, 9.997352, 9.999682 
1.5550007e+3, 1.7453144e+2, -1392272.4, -1329354.9, 140273.48, 0.07558073, 0.07294315, -1217055.9, 12552.941, 0.0000013687348, 9.998941, 9.999766 
1.5550289e+3, 1.84531e+2, -1192293.9, -1247306.4, -579.10925, 0.111608535, 0.09121824, -1192287.9, -60673.305, 0.0, 9.999922, 9.999187 
1.5550533e+3, 1.945321e+2, -1053687.8, -1116764.8, 11697.557, -0.043304425, 0.25091347, -1051588.3, -17981.203, 0.0, 10.000154, 9.999294 
1.5550795e+3, 2.0453149e+2, -914243.06, -1068487.8, 34582.266, -0.06469699, 0.30156562, -906844.44, 28768.648, 0.0, 10.000711, 9.998699 
1.5551075e+3, 2.1452896e+2, -679272.1, -891301.25, 69362.305, 0.0883599, 0.15021133, -658597.2, 179037.23, 0.0, 10.001602, 9.99881 
1.5551342e+3, 2.2452673e+2, -606835.0, -955551.0, 21300.82, 0.14176142, 0.122394145, -605538.7, 134115.45, 0.0, 10.002078, 9.997462 
1.5551591e+3, 2.3452489e+2, -495600.38, -845702.6, 590.8402, 0.08115212, 0.16635743, -495599.38, 146072.53, 0.0, 10.0021515, 9.997505 
1.5551846e+3, 2.4452223e+2, -399935.38, -846017.1, 3460.9329, 0.035768475, 0.20205578, -399908.53, 143789.6, 0.0, 10.002538, 9.996651 
1.5552108e+3, 2.545186e+2, -168844.05, -671037.1, 10997.722, 0.028941322, 0.14067519, -168603.33, 277131.22, 0.0000005355393, 10.003407, 9.996758 
1.5552379e+3, 2.6451525e+2, -22905.596, -619850.5, 26275.857, 0.07137852, 0.17358436, -21751.238, 326018.38, 0.000008556659, 10.004037, 9.996132 
1.555266e+3, 2.7451244e+2, 150579.28, -482577.44, 48207.895, 0.17796442, 0.24789019, 154228.75, 404031.06, 0.00005648736, 10.004539, 9.9961605 
1.5552916e+3, 2.8450924e+2, 332868.7, -332079.1, -28859.705, 0.10900592, 0.31783745, 334118.88, 485955.88, 0.00027869263, 10.005075, 9.996252 
1.5553139e+3, 2.9450554e+2, 527484.3, -172836.88, -30612.512, -0.17709923, 0.2743966, 528819.9, 582693.8, 0.00091383554, 10.005684, 9.996374 
1.5553395e+3, 3.0450168e+2, 508403.06, -248348.42, -71743.484, -0.14990409, 0.30631182, 515144.63, 515144.63, 0.002046161, 10.005628, 9.995567 
1.555369e+3, 3.1449777e+2, 489898.8, -72722.984, -130654.39, 0.2969732, 0.31255728, 518759.47, 518759.47, 0.003518706, 10.004694, 9.997209 
1.5648673e+3, 1.2450251e+2, -2037785.0, -1688181.0, 23231.293, 0.23364663, 0.24850376, -1686644.0, 33245.72, 0.021849003, 9.996965, 10.001631 
1.5648918e+3, 1.345027e+2, -1986827.5, -1544796.4, -17717.53, -0.11179683, 0.030849, -1544087.4, 77799.08, 0.013250772, 9.996347, 10.002263 
1.5649201e+3, 1.445052e+2, -1894213.3, -1645024.1, -119458.65, 0.18964261, 0.14720829, -1597008.8, -73146.41, 0.0059556314, 9.997172, 10.000482 
1.564943e+3, 1.5450665e+2, -1414380.4, -1363338.3, -140206.16, 0.020756142, 0.22217734, -1246349.4, 179501.56, 0.0016345053, 9.999801, 10.000469 
1.5649688e+3, 1.6450666e+2, -1270171.3, -1334391.4, 44777.477, -0.0707335, 0.22597568, -1247180.6, 80671.336, 0.00017771397, 10.000498, 9.999665 
1.564999e+3, 1.7450503e+2, -1360066.8, -1313506.5, 79371.02, 0.019421933, 0.0696261, -1254071.9, -24205.4, 0.0000016137079, 9.999149, 9.9997835 
1.5650277e+3, 1.8450457e+2, -1332382.3, -1299888.6, 18806.545, 0.06319136, 0.07773003, -1291283.0, -159411.44, 0.0, 9.998889, 9.999326 
1.5650538e+3, 1.9450554e+2, -1042522.7, -1098847.5, 12514.79, 0.001981639, 0.21258089, -1039867.25, -6002.011, 0.0, 10.000162, 9.999419 
1.5650809e+3, 2.0450513e+2, -907534.44, -1049224.5, 19286.773, 0.019929297, 0.2707393, -904956.06, 30913.28, 0.0, 10.000706, 9.998821 
1.565109e+3, 2.1450321e+2, -817361.4, -939762.8, -5950.2246, 0.13472715, 0.16798641, -817072.8, 20811.945, 0.0, 10.000598, 9.998945 
1.5651362e+3, 2.2450094e+2, -727505.4, -1048633.4, -20782.818, 0.16832227, 0.14217643, -726165.94, 13739.261, 0.0, 10.00139, 9.997155 
1.5651618e+3, 2.344982e+2, -353690.56, -811145.9, -25886.588, 0.1025704, 0.12781462, -352230.34, 289701.4, 0.0, 10.0032625, 9.997205 
1.5651882e+3, 2.44495e+2, -181903.97, -743361.94, -11966.262, 0.08532406, 0.12732203, -181649.05, 362313.94, 0.0, 10.004042, 9.996634 
1.5652151e+3, 2.5449136e+2, -150075.47, -659942.25, -17465.467, 0.11695877, 0.06706796, -149477.89, 296521.22, 0.00000039469393, 10.00353, 9.996772 
1.5652423e+3, 2.6448858e+2, -68861.46, -591564.2, 36363.688, 0.13612448, 0.13328345, -66343.82, 281684.63, 0.000008163994, 10.0035095, 9.996577 
1.5652697e+3, 2.7448684e+2, 113152.89, -445705.84, 48840.734, 0.1328482, 0.27062213, 117389.15, 367439.3, 0.000058543963, 10.004053, 9.996641 
1.5652955e+3, 2.844837e+2, 223121.0, -387917.16, 9932.144, 0.05089665, 0.3247178, 223282.39, 375366.47, 0.0002960761, 10.004332, 9.99624 
1.5653192e+3, 2.9447895e+2, 329397.1, -274630.72, 2918.2969, -0.13193049, 0.18700829, 329411.2, 383542.88, 0.00096504524, 10.004341, 9.996333 
1.5653451e+3, 3.044751e+2, 456021.3, -262153.1, 28233.84, -0.10932201, 0.21315864, 457129.56, 457129.56, 0.0021592397, 10.005186, 9.9956875 
1.565374e+3, 3.144719e+2, 794098.06, 36751.33, -33906.258, 0.23309904, 0.27844247, 795613.0, 795613.0, 0.003724364, 10.006891, 9.996923 
1.5748632e+3, 1.2447313e+2, -2022408.6, -1677462.9, -171985.53, 0.0805024, 0.09483247, -1606366.6, 113815.836, 0.023204513, 9.997041, 10.001685 
1.5748887e+3, 1.3447721e+2, -1973472.8, -1503982.6, -30984.537, -0.05966713, 0.23308524, -1501946.6, 120193.34, 0.014108494, 9.996304, 10.002562 
1.5749167e+3, 1.4447807e+2, -1918686.6, -1721743.8, -39866.727, 0.09587417, 0.19608127, -1713979.6, -189847.44, 0.0063687824, 9.997267, 9.999919 
1.5749437e+3, 1.5447779e+2, -1460650.1, -1457216.6, -35871.285, 0.0908551, 0.16264531, -1423021.1, 3118.567, 0.00176415, 9.99979, 9.999832 
1.57497e+3, 1.6447818e+2, -1195517.1, -1194115.4, -14021.574, -0.032206926, 0.19415785, -1180777.1, 147359.08, 0.00019721544, 10.000553, 10.000603 
1.574997e+3, 1.7447938e+2, -1290699.8, -1169451.9, 36801.1, -0.12983064, 0.21837905, -1159156.3, 70963.28, 0.0000019795527, 9.999148, 10.0007715 
1.5750249e+3, 1.8447949e+2, -1310428.4, -1269634.8, 51270.047, -0.12681822, 0.22167152, -1234853.3, -102737.125, 0.0, 9.998946, 9.999509 
1.5750538e+3, 1.9447827e+2, -1042548.6, -1086188.6, 67476.45, -0.038403887, 0.12569202, -993451.94, 40676.504, 0.0, 10.000105, 9.9995365 
1.5750821e+3, 2.0447735e+2, -947501.75, -1115956.8, 7626.4946, 0.040740293, 0.14424115, -947157.2, -11019.394, 0.0, 10.000629, 9.9984 
1.5751098e+3, 2.1447681e+2, -868762.1, -1018330.56, -1918.7366, 0.12914671, 0.22401707, -868737.5, -30594.225, 0.0, 10.000477, 9.998464 
1.5751374e+3, 2.2447473e+2, -739582.3, -1042269.6, 38093.73, 0.1417244, 0.23677084, -734861.8, 5301.3496, 0.0, 10.001253, 9.997265 
1.575165e+3, 2.3447071e+2, -370301.84, -804758.3, 53167.297, 0.06832832, 0.08111012, -363890.03, 278310.8, 0.0, 10.003087, 9.997334 
1.5751922e+3, 2.4446717e+2, -204072.34, -744853.4, -36793.688, 0.06644947, 0.032862697, -201580.45, 342654.34, 0.0, 10.003846, 9.9967165 
1.575219e+3, 2.5446424e+2, -162431.83, -662650.44, -26584.807, 0.14839368, 0.035967957, -161022.9, 285240.66, 0.00000029448665, 10.003425, 9.996803 
1.5752456e+3, 2.6446185e+2, -46820.926, -522188.03, 48023.87, 0.114752024, 0.11269474, -42017.85, 306270.47, 0.000007127328, 10.003406, 9.997106 
1.575272e+3, 2.7445987e+2, 138223.78, -362630.66, 81929.92, -0.06317515, 0.16591117, 151285.28, 401595.44, 0.000059012113, 10.003923, 9.997274 
1.5752985e+3, 2.8445703e+2, 222649.52, -364526.78, -2278.1829, -0.10753164, 0.2046665, 222658.36, 374998.6, 0.00030980428, 10.004216, 9.996459 
1.5753251e+3, 2.9445356e+2, 322173.6, -262438.0, 19284.008, 0.016679848, 0.17303166, 322809.0, 377185.22, 0.0010132584, 10.004216, 9.996481 
1.5753512e+3, 3.044499e+2, 471559.8, -172938.25, 79448.62, -0.035174206, 0.17937112, 481209.13, 481209.13, 0.002275107, 10.004975, 9.996381 
1.5753771e+3, 3.144464e+2, 746795.4, 48505.71, 55706.633, -0.17669618, 0.13744506, 751211.5, 751211.5, 0.0039449716, 10.006462, 9.997184 
1.5848601e+3, 1.2444584e+2, -2103937.3, -1741685.0, -60817.72, 0.09803293, 0.028308153, -1731747.1, -11296.336, 0.024665277, 9.996604, 10.001428 
1.584887e+3, 1.3445073e+2, -1759026.6, -1485260.5, 3575.7646, 0.07672059, 0.31884357, -1485213.8, 137187.44, 0.0150364665, 9.998139, 10.0018 
1.584914e+3, 1.444505e+2, -1730667.4, -1650379.8, -4933.4326, 0.054170806, 0.21981698, -1650077.8, -125673.35, 0.0068181083, 9.998653, 9.999729 
1.5849422e+3, 1.544495e+2, -1772936.1, -1631819.6, 3904.2446, 0.06710787, 0.13659373, -1631711.6, -205293.2, 0.0019058621, 9.997741, 9.999623 
1.5849692e+3, 1.6444992e+2, -1602709.0, -1370502.4, 5264.4097, -0.021268204, 0.17496654, -1370383.1, -41968.87, 0.0002187055, 9.997682, 10.00077 
1.5849967e+3, 1.74452e+2, -1284925.3, -1138026.3, -28512.412, -0.05926718, 0.264625, -1132686.3, 97702.3, 0.000002466339, 9.999085, 10.001005 
1.5850252e+3, 1.8445219e+2, -1192792.8, -1213407.6, -13368.303, -0.025118921, 0.26502806, -1186219.6, -53836.28, 0.0, 9.999766, 9.999499 
1.5850542e+3, 1.9445014e+2, -1087847.8, -1106261.3, -27134.32, 0.024194585, 0.08830224, -1068400.8, -33998.33, 0.0, 9.999791, 9.999545 
1.5850826e+3, 2.0444895e+2, -990757.75, -1132736.4, -56580.89, 0.05589176, 0.07882782, -970967.75, -34554.164, 0.0, 10.000302, 9.998454 
1.5851103e+3, 2.1444881e+2, -711574.4, -940139.94, -46691.3, 0.09230161, 0.19437553, -702404.2, 136011.38, 0.0, 10.0015135, 9.998518 
1.5851386e+3, 2.2444697e+2, -608594.9, -959509.3, 48046.96, 0.10675186, 0.22109854, -602135.25, 138298.52, 0.0, 10.002084, 9.9974375 
1.5851676e+3, 2.3444311e+2, -503096.53, -851131.56, 44387.336, 0.08298928, 0.0696829, -497524.7, 144946.25, 0.0, 10.002102, 9.997501 
1.5851955e+3, 2.4443997e+2, -338494.94, -759290.9, -30211.07, 0.08095542, 0.0358731, -336337.0, 208164.5, 0.0, 10.002732, 9.997137 
1.5852222e+3, 2.5443783e+2, -22765.725, -547917.06, -20995.771, 0.09097853, 0.073571384, -21927.643, 424595.2, 0.00000023115544, 10.004192, 9.9972105 
1.5852489e+3, 2.6443556e+2, 127731.68, -448698.8, 43739.035, 0.03914304, 0.14730035, 131031.67, 479578.53, 0.0000061293663, 10.004658, 9.996999 
1.5852755e+3, 2.7443308e+2, 142957.02, -372367.06, 2884.7837, -0.088616386, 0.16615811, 142973.16, 393547.72, 0.000060026516, 10.004023, 9.997149 
1.5853028e+3, 2.8443024e+2, 204893.38, -374490.56, -77091.77, -0.07452546, 0.2133328, 214975.63, 367580.5, 0.00032122547, 10.004105, 9.996437 
1.5853305e+3, 2.944272e+2, 442271.7, -199259.63, -99504.414, 0.098533325, 0.22391279, 457350.84, 511987.0, 0.001056286, 10.005017, 9.996522 
1.5853569e+3, 3.044233e+2, 600857.3, -91690.01, -15931.502, 0.013264484, 0.19671199, 601223.6, 601223.6, 0.002379837, 10.005737, 9.996612 
1.585383e+3, 3.1442052e+2, 677528.2, 14898.713, -123188.56, -0.20118265, 0.21562597, 699688.9, 699688.9, 0.004137869, 10.005956, 9.997227 
1.5948579e+3, 1.24422e+2, -2124433.5, -1820073.8, 78100.2, 0.1781606, 0.14441688, -1801202.9, -80522.055, 0.026239868, 9.996722, 10.000845 
1.5948871e+3, 1.3442327e+2, -1893634.1, -1768383.8, 79962.23, 0.23831294, 0.26387876, -1729441.9, -106772.12, 0.016040104, 9.99816, 9.999831 
1.5949121e+3, 1.4442243e+2, -1705964.1, -1635256.6, -46388.95, -0.04247488, 0.2058, -1612285.3, -87605.99, 0.0073062, 9.998787, 9.999779 
1.594938e+3, 1.5442201e+2, -1756259.9, -1604597.6, -24266.02, -0.14048861, 0.15919732, -1600809.6, -174124.69, 0.002060233, 9.99776, 9.999807 
1.5949659e+3, 1.6442223e+2, -1638539.4, -1457205.5, 37702.77, -0.1369373, 0.19736502, -1449678.8, -120996.21, 0.00024185247, 9.997734, 10.00015 
1.5949982e+3, 1.7442302e+2, -1334801.4, -1237435.0, 31960.87, 0.16100271, 0.22384456, -1227881.1, 2790.777, 0.0000030340082, 9.999069, 10.00033 
1.5950282e+3, 1.844227e+2, -1199212.6, -1236599.5, -22517.67, 0.27555284, 0.21638776, -1188640.3, -55967.297, 0.0, 9.999804, 9.999322 
1.595055e+3, 1.9442113e+2, -1108906.4, -1135330.6, -17116.605, 0.10693186, 0.10269404, -1100495.9, -65808.94, 0.0, 9.999732, 9.9993725 
1.5950823e+3, 2.0441999e+2, -966129.7, -1064893.0, -23540.58, -0.021173175, 0.08247222, -960805.7, -24109.3, 0.0, 10.000228, 9.998955 
1.5951103e+3, 2.1441934e+2, -698160.3, -870698.7, 5714.0254, -0.058247894, 0.091183305, -697971.3, 140729.27, 0.0, 10.001342, 9.999076 
1.5951394e+3, 2.244179e+2, -619783.7, -945249.94, 39904.85, -0.033535026, 0.118963175, -614962.44, 125752.33, 0.0, 10.001911, 9.997621 
1.5951696e+3, 2.344155e+2, -518499.03, -845904.0, 57591.13, 0.06333045, 0.09589356, -508664.06, 134077.11, 0.0, 10.001936, 9.99762 
1.595198e+3, 2.444135e+2, -324979.6, -684477.8, 15464.409, 0.03526814, 0.14075719, -324315.6, 220447.03, 0.0, 10.002534, 9.997745 
1.5952243e+3, 2.5441197e+2, -6553.897, -462675.6, 43095.41, -0.13247067, 0.17477477, -2517.8586, 444260.2, 0.00000009760233, 10.003981, 9.997892 
1.5952516e+3, 2.6440963e+2, 50375.438, -571534.25, 11041.4, -0.17063403, 0.24181496, 50571.406, 399375.8, 0.0000054247644, 10.004487, 9.996241 
1.5952802e+3, 2.7440646e+2, 59804.676, -511520.78, -7570.1294, -0.047974035, 0.27019215, 59904.965, 310747.88, 0.0000627863, 10.003871, 9.996268 
1.595308e+3, 2.8440323e+2, 163738.42, -424608.84, -53136.418, 0.02779502, 0.3377907, 168498.9, 321377.28, 0.0003316633, 10.003952, 9.996168 
1.5953352e+3, 2.9439965e+2, 412249.5, -233898.86, -43879.934, 0.024359552, 0.317638, 415215.75, 470128.34, 0.0010845927, 10.004891, 9.996351 
1.5953621e+3, 3.0439526e+2, 547967.9, -144177.95, -13675.982, -0.065866604, 0.26100945, 548238.0, 548238.0, 0.0024442028, 10.005527, 9.99634 
1.5953906e+3, 3.143944e+2, 593625.7, -51306.375, -68999.305, -0.061330363, 0.50343955, 600925.06, 600925.06, 0.004248429, 10.005534, 9.996961 
1.6048549e+3, 1.2439366e+2, -2214181.3, -1843689.4, -128808.18, 0.2511364, 0.2774946, -1803308.1, -82345.19, 0.027939666, 9.996059, 10.000992 
1.6048847e+3, 1.3439324e+2, -1973538.6, -1782362.1, -69457.75, 0.2375758, 0.21546943, -1759791.6, -136824.77, 0.01712635, 9.997532, 10.000028 
1.6049105e+3, 1.4439276e+2, -1748248.6, -1633403.0, -140004.63, -0.0517244, 0.17683026, -1539502.8, -14531.488, 0.007836914, 9.998434, 9.999942 
1.6049369e+3, 1.5439336e+2, -1541325.0, -1473827.3, -151468.5, -0.08591213, 0.20974769, -1352393.4, 74571.79, 0.0022287087, 9.999143, 10.000021 
1.6049653e+3, 1.643934e+2, -1456308.1, -1419981.8, -38535.75, -0.038189236, 0.24043675, -1395543.3, -66579.43, 0.00026665046, 9.999205, 9.999695 
1.6049974e+3, 1.743926e+2, -1403116.4, -1326684.1, -49122.176, 0.20500012, 0.15786031, -1302663.1, -71693.16, 0.0000036433328, 9.99883, 9.99984 
1.6050278e+3, 1.8439192e+2, -1313563.9, -1284049.1, -69920.83, 0.3021754, 0.13905612, -1227345.3, -94370.266, 0.0, 9.998982, 9.99939 
1.6050555e+3, 1.9439144e+2, -1049477.3, -1095245.5, -66600.16, 0.1642952, 0.12389868, -1001939.4, 33039.23, 0.0, 10.000076, 9.999482 
1.6050833e+3, 2.0439056e+2, -901565.8, -1032753.94, -56960.95, 0.05630578, 0.12445233, -880285.7, 56700.453, 0.0, 10.000681, 9.998954 
1.6051118e+3, 2.143892e+2, -773749.56, -903452.4, -90231.23, -0.0059375907, 0.06549672, -727482.2, 111515.57, 0.0, 10.000826, 9.99909 
1.6051412e+3, 2.2438794e+2, -719190.0, -931741.3, -66417.92, -0.0009096054, 0.08582833, -700142.6, 40867.68, 0.0, 10.000969, 9.998157 
1.6051711e+3, 2.3438689e+2, -583563.5, -804176.06, -41217.93, 0.07039181, 0.13797158, -576114.1, 66908.54, 0.0, 10.00119, 9.998242 
1.6051999e+3, 2.443855e+2, -461162.75, -745436.8, -32712.816, 0.022494344, 0.20844936, -457446.88, 87591.625, 0.0, 10.001565, 9.9978075 
1.605227e+3, 2.543837e+2, -268664.66, -587395.5, -63222.367, -0.15648523, 0.22007936, -256582.11, 190476.63, 0.000000007673713, 10.002158, 9.99793 
1.605255e+3, 2.6438156e+2, -164366.8, -623336.7, -94155.44, -0.18169801, 0.28128904, -145802.17, 203281.9, 0.0000049768487, 10.002789, 9.996709 
1.6052839e+3, 2.7437913e+2, 30025.053, -477017.47, -55204.45, -0.019375606, 0.33923003, 35965.85, 287079.94, 0.00006482946, 10.003441, 9.996729 
1.6053127e+3, 2.8437606e+2, 274986.4, -355043.47, 39880.0, 0.06639725, 0.39509946, 277500.72, 430647.0, 0.00033742326, 10.004635, 9.996319 
1.6053408e+3, 2.9437208e+2, 677635.56, -86536.14, 46017.996, 0.03545571, 0.32345775, 680396.75, 735579.44, 0.0010895083, 10.006643, 9.996513 
1.605368e+3, 3.0436718e+2, 738496.1, -85887.53, 32700.809, -0.086815074, 0.21451461, 739791.25, 739791.25, 0.0024474876, 10.006974, 9.996034 
1.6053958e+3, 3.1436616e+2, 521484.63, -85302.73, -76716.05, -0.047434244, 0.4704224, 531033.56, 531033.56, 0.004247736, 10.004995, 9.9969845 
1.6148518e+3, 1.2436052e+2, -2140992.3, -1740593.5, -72814.305, 0.27709335, 0.4111706, -1727763.0, -6462.654, 0.02978273, 9.996242, 10.001624 
1.6148798e+3, 1.343611e+2, -1806951.9, -1441689.9, -15919.849, -0.027429037, 0.21288423, -1440997.4, 182291.31, 0.018308382, 9.99753, 10.002397 
1.6149089e+3, 1.4436185e+2, -1715568.9, -1586934.9, -123320.95, -0.08984159, 0.1623522, -1512166.5, 13110.61, 0.008418617, 9.998514, 10.000227 
1.6149385e+3, 1.543635e+2, -1525748.1, -1448225.0, -117630.57, 0.15037453, 0.2859584, -1363134.1, 64125.242, 0.0024150687, 9.999171, 10.000184 
1.614967e+3, 1.6436332e+2, -1453179.1, -1447280.9, -66869.24, 0.18206726, 0.296622, -1383295.8, -54036.516, 0.0002938315, 9.999332, 9.999454 
1.6149944e+3, 1.7436077e+2, -1420231.0, -1369554.8, -57101.004, -0.00054166786, 0.06668583, -1332422.5, -101140.4, 0.000004294035, 9.998847, 9.999545 
1.6150236e+3, 1.8435986e+2, -1292005.5, -1245448.5, -43253.63, -0.035692338, 0.03165213, -1219607.0, -86317.57, 0.0, 9.999012, 9.999638 
1.6150552e+3, 1.9436115e+2, -1036603.06, -1056961.0, -16754.94, 0.114463985, 0.16101095, -1027177.5, 8099.393, 0.0, 10.00003, 9.999767 
1.6150856e+3, 2.043608e+2, -951951.44, -1113239.4, -63427.566, 0.1835615, 0.22411428, -929996.7, 7284.6763, 0.0, 10.000577, 9.99845 
1.6151145e+3, 2.1435846e+2, -831964.25, -996091.4, -77031.63, 0.16859846, 0.12060463, -801474.25, 37832.406, 0.0, 10.000706, 9.998511 
1.6151433e+3, 2.2435711e+2, -687109.6, -823539.25, -68029.37, 0.11693331, 0.12569223, -658985.2, 82334.74, 0.0, 10.000795, 9.998981 
1.6151719e+3, 2.3435713e+2, -538572.3, -676616.25, -22030.441, 0.01638872, 0.19127035, -535141.75, 108174.87, 0.0, 10.001047, 9.999186 
1.6152006e+3, 2.4435595e+2, -510374.8, -817120.8, -23016.254, -0.058948416, 0.25004518, -508657.44, 36672.16, 0.0, 10.001426, 9.997384 
1.61523e+3, 2.5435328e+2, -329985.75, -676037.7, -27321.559, -0.09001498, 0.21955982, -327841.94, 119520.68, 0.00000000987263, 10.00199, 9.9974 
1.6152586e+3, 2.6435146e+2, -98117.98, -434745.6, -79195.02, -0.10553153, 0.2777725, -80417.305, 268966.9, 0.000004852571, 10.002574, 9.998104 
1.6152868e+3, 2.743508e+2, 114650.61, -260616.8, -16829.453, -0.09294061, 0.35890716, 115403.836, 366794.44, 0.00006465758, 10.003284, 9.998281 
1.6153164e+3, 2.8434864e+2, 280788.78, -303927.8, 95989.75, -0.046944205, 0.40101245, 296143.66, 449553.88, 0.00033663827, 10.004459, 9.9967575 
1.6153476e+3, 2.943445e+2, 654321.1, -59566.117, 137113.81, 0.015749658, 0.26990524, 679750.3, 735197.5, 0.0010763257, 10.00631, 9.996865 
1.6153741e+3, 3.0433872e+2, 661599.3, -153371.5, -47127.836, -0.17304967, 0.07297116, 664315.5, 664315.5, 0.0024030867, 10.006604, 9.995729 
1.6153984e+3, 3.143361e+2, 508963.94, -41765.44, -104281.15, -0.34084272, 0.19235635, 528048.4, 528048.4, 0.0041545983, 10.004748, 9.997374 
1.6248488e+3, 1.2432791e+2, -2103758.8, -1744739.6, 62510.72, 0.35840335, 0.46136445, -1734166.9, -12541.969, 0.03179242, 9.996589, 10.001416 
1.6248769e+3, 1.3432918e+2, -1827283.3, -1401551.6, -33736.617, -0.04749525, 0.28116545, -1398894.8, 224712.77, 0.019603958, 9.997156, 10.002857 
1.6249076e+3, 1.4433046e+2, -1812588.3, -1545261.4, -174206.13, -0.013294146, 0.22599189, -1459348.6, 66241.0, 0.009062119, 9.997478, 10.001016 
1.6249382e+3, 1.5433244e+2, -1540043.8, -1352443.0, -129827.36, 0.22634415, 0.2949988, -1286075.8, 141488.98, 0.002624408, 9.99864, 10.001096 
1.6249669e+3, 1.6433251e+2, -1462945.8, -1468018.6, -63930.438, 0.24487573, 0.2878529, -1401501.4, -71940.63, 0.00032476612, 9.999354, 9.99929 
1.6249932e+3, 1.7432995e+2, -1324256.0, -1347099.5, -76806.97, -0.02188795, 0.08144791, -1258026.1, -26440.852, 0.000005034694, 9.999631, 9.999309 
1.6250223e+3, 1.8432906e+2, -1206804.8, -1218492.9, -32552.023, -0.07783198, 0.06584759, -1179576.4, -45982.11, 0.0, 9.999657, 9.999517 
1.625055e+3, 1.9433045e+2, -1110440.5, -1095447.3, -50431.617, 0.12617292, 0.21436636, -1051958.1, -16376.713, 0.0, 9.999551, 9.999728 
1.6250862e+3, 2.0433038e+2, -1060689.0, -1151087.9, -71821.12, 0.24201515, 0.2998589, -1021028.25, -83444.195, 0.0, 9.999768, 9.998579 
1.6251159e+3, 2.1432842e+2, -856525.06, -993916.56, -53076.473, 0.2465803, 0.22214179, -838409.44, 1196.9495, 0.0, 10.00047, 9.998645 
1.625145e+3, 2.2432706e+2, -609077.7, -761855.7, -18237.336, 0.18421617, 0.20931819, -606930.8, 134688.52, 0.0, 10.001213, 9.9992075 
1.6251734e+3, 2.3432654e+2, -384673.63, -581235.0, -44106.96, 0.017893478, 0.19973548, -375230.06, 268389.34, 0.0, 10.001999, 9.999391 
1.6252024e+3, 2.4432535e+2, -393584.0, -721241.1, -52390.03, -0.05405838, 0.23277977, -385411.06, 160219.55, 0.0, 10.00206, 9.997732 
1.6252321e+3, 2.5432333e+2, -414028.0, -679836.9, -25073.188, -0.028676962, 0.23256442, -411683.56, 35972.348, 0.000000011745934, 10.0012455, 9.997734 
1.6252613e+3, 2.643215e+2, -222759.88, -474583.13, -9258.796, -0.036327332, 0.26216727, -222419.92, 127256.28, 0.0000048598445, 10.001635, 9.998279 
1.6252902e+3, 2.7431995e+2, 172546.38, -217009.28, -64190.332, -0.080155544, 0.24391063, 182850.97, 434540.3, 0.00006306325, 10.003607, 9.998422 
1.6253203e+3, 2.8431815e+2, 240822.83, -233606.16, -19810.938, -0.05120152, 0.27559277, 241648.66, 395353.6, 0.00033149842, 10.003812, 9.997549 
1.6253515e+3, 2.9431584e+2, 51757.44, -261035.77, 7210.0186, 0.02314195, 0.25030455, 51923.55, 107648.125, 0.0010551497, 10.001778, 9.997663 
1.6253792e+3, 3.043111e+2, 123541.37, -436074.94, -49810.617, -0.14118896, 0.12434635, 127940.36, 127940.36, 0.0023352588, 10.002975, 9.995555 
1.625406e+3, 3.1430742e+2, 1045995.5, 212922.11, -134441.08, -0.21917942, 0.17662477, 1067154.1, 1067154.1, 0.004005307, 10.008414, 9.997408 
1.6348447e+3, 1.2429588e+2, -2157273.5, -1873021.6, -58321.94, 0.22265752, 0.40374193, -1861520.6, -139585.22, 0.03398967, 9.99667, 10.00049 
1.6348757e+3, 1.3429748e+2, -1940453.5, -1636495.5, -17066.96, 0.10775584, 0.4154509, -1635540.3, -11616.627, 0.02102759, 9.997179, 10.001201 
1.6349062e+3, 1.442985e+2, -1695800.9, -1335221.5, -158309.98, 0.081746556, 0.3606272, -1275581.1, 250329.06, 0.009775217, 9.997594, 10.0024185 
1.6349351e+3, 1.5430039e+2, -1420997.8, -1106510.6, -78717.625, 0.043242842, 0.24953374, -1087907.6, 339971.72, 0.002860367, 9.998637, 10.002792 
1.6349645e+3, 1.6430111e+2, -1464086.8, -1483717.5, -62450.34, 0.04332465, 0.22447266, -1410685.1, -80818.445, 0.00036087315, 9.999405, 9.999163 
1.6349939e+3, 1.7430013e+2, -1344669.8, -1391748.1, -62344.64, 0.061064083, 0.20664375, -1301568.5, -69688.414, 0.000005927034, 9.9996395, 9.998999 
1.635024e+3, 1.8429944e+2, -1221804.5, -1265807.5, -48231.0, 0.0830044, 0.24348323, -1190793.8, -56904.063, 0.0, 9.99972, 9.999167 
1.6350545e+3, 1.942993e+2, -1137983.3, -1149499.4, -47517.492, 0.12232906, 0.27414337, -1095876.3, -59983.395, 0.0, 9.99953, 9.999373 
1.635085e+3, 2.042991e+2, -1022064.44, -1052375.1, -57608.465, 0.1449474, 0.33366308, -977651.2, -39755.02, 0.0, 9.999686, 9.999298 
1.6351154e+3, 2.1429887e+2, -817293.0, -888780.9, -16025.295, 0.15221217, 0.35066172, -813865.06, 26034.203, 0.0, 10.000359, 9.999426 
1.6351454e+3, 2.2429766e+2, -667760.7, -837859.8, 2439.371, 0.09777433, 0.33013573, -667725.7, 74184.375, 0.0, 10.001015, 9.99878 
1.6351752e+3, 2.3429523e+2, -443499.44, -664863.25, -4683.9644, -0.012747308, 0.17617638, -443400.38, 200529.48, 0.0, 10.001833, 9.998894 
1.6352044e+3, 2.4429381e+2, -355577.63, -595993.2, -89874.82, -0.064213164, 0.16600265, -325694.1, 220246.86, 0.0, 10.0018635, 9.998686 
1.6352332e+3, 2.5429374e+2, -349417.7, -526238.4, -46555.813, -0.052736055, 0.25913963, -337908.9, 110031.19, 0.000000006263202, 10.001169, 9.998822 
1.635263e+3, 2.6429167e+2, -299301.97, -621335.56, 45422.184, -0.061889734, 0.253208, -293017.9, 56942.008, 0.000005059976, 10.001567, 9.9973135 
1.635294e+3, 2.7428702e+2, 70917.92, -390119.1, 27671.53, -0.082358606, 0.024421537, 72572.836, 324579.3, 0.000060994436, 10.003431, 9.997324 
1.635324e+3, 2.842849e+2, 274623.1, -112261.72, -96864.97, -0.07279396, 0.03877572, 297520.22, 451547.78, 0.0003219481, 10.003604, 9.998477 
1.6353527e+3, 2.942861e+2, 118830.67, -108616.41, -55881.113, -0.05180811, 0.2595967, 131818.39, 187833.11, 0.0010249811, 10.001739, 9.998722 
1.6353826e+3, 3.0428416e+2, 95427.67, -463528.38, 114370.39, -0.11242716, 0.36475295, 117924.07, 117924.07, 0.002251985, 10.002852, 9.995421 
1.6354178e+3, 3.1427988e+2, 957098.94, 161808.42, 106429.28, 0.08791622, 0.3643639, 971095.44, 971095.44, 0.003828568, 10.007859, 9.99731 
1.6448419e+3, 1.24263965e+2, -2083355.3, -1864731.0, -72799.93, 0.25855199, 0.37341204, -1842707.8, -120460.2, 0.036383986, 9.997313, 10.000245 
1.6448742e+3, 1.3426544e+2, -2049042.1, -1718748.5, 41921.69, 0.27599233, 0.407033, -1713510.8, -89273.72, 0.022584815, 9.99657, 10.000936 
1.6449034e+3, 1.4426684e+2, -1939725.6, -1486707.8, -25366.203, 0.11732553, 0.41915157, -1485291.9, 40929.297, 0.010560797, 9.996076, 10.002097 
1.6449326e+3, 1.5426768e+2, -1610467.1, -1237553.0, -110517.41, -0.01169845, 0.23416007, -1207260.6, 220942.7, 0.0031241647, 9.997494, 10.002444 
1.6449629e+3, 1.642684e+2, -1581149.6, -1500802.9, -171430.28, 0.0048244046, 0.20839515, -1364901.8, -34709.688, 0.0004029895, 9.998434, 9.999515 
1.6449937e+3, 1.7426892e+2, -1430311.9, -1390692.9, -140807.6, 0.1224923, 0.30431604, -1268308.1, -36118.13, 0.0000070009137, 9.998864, 9.999386 
1.6450243e+3, 1.8426855e+2, -1281991.4, -1296056.4, -70506.59, 0.1761403, 0.35516226, -1218167.4, -83971.45, 0.0, 9.999329, 9.999135 
1.6450545e+3, 1.9426715e+2, -1061327.8, -1119103.8, -71938.11, 0.14794984, 0.2652071, -1012694.06, 23516.918, 0.0, 10.000095, 9.9993 
1.645085e+3, 2.0426667e+2, -866245.8, -944849.9, -60524.758, 0.13327555, 0.2874663, -833382.06, 104834.45, 0.0, 10.000613, 9.999589 
1.6451156e+3, 2.1426757e+2, -721824.06, -800068.06, -71189.914, 0.12573753, 0.38121814, -679714.7, 160493.17, 0.0, 10.000845, 9.999786 
1.6451463e+3, 2.2426684e+2, -681112.94, -860452.7, -43271.707, 0.09943925, 0.39918998, -671218.1, 70995.625, 0.0, 10.000998, 9.998641 
1.6451772e+3, 2.3426396e+2, -568410.4, -747105.75, -47678.945, 0.054480415, 0.22166234, -556484.7, 87754.85, 0.0, 10.00107, 9.998706 
1.645207e+3, 2.4426214e+2, -358227.78, -576087.94, -127757.69, 0.019334817, 0.17448513, -299265.7, 246988.36, 0.0, 10.00176, 9.998871 
1.6452354e+3, 2.542618e+2, -30278.229, -355731.7, -167222.8, -0.037359785, 0.22277622, 40326.25, 488579.22, 0.000000005166704, 10.00329, 9.998978 
1.6452654e+3, 2.6425987e+2, -7253.9146, -471575.9, -64520.83, -0.056338053, 0.22239174, 1544.9725, 351814.63, 0.000005473011, 10.003533, 9.997385 
1.6452973e+3, 2.742559e+2, -101349.305, -462082.47, -36729.492, -0.031119654, 0.054013073, -97647.53, 154662.33, 0.000058881178, 10.002213, 9.997402 
1.6453275e+3, 2.8425345e+2, 114408.555, -232394.72, -124260.87, -0.03164505, 0.05415327, 154335.05, 308669.53, 0.0003079229, 10.002694, 9.998091 
1.6453558e+3, 2.9425335e+2, 610453.5, 77838.83, -212905.72, -0.08544548, 0.19136143, 685098.4, 741434.5, 0.0009850244, 10.005354, 9.9982605 
1.6453867e+3, 3.042521e+2, 610429.94, -178311.14, -10561.728, -0.13655353, 0.3727146, 610571.3, 610571.3, 0.0021617543, 10.006195, 9.995785 
1.6454244e+3, 3.142489e+2, 478365.38, -43889.87, -28053.563, 0.1644661, 0.43996814, 479867.97, 479867.97, 0.003658744, 10.004424, 9.997541 
1.6548397e+3, 1.2423238e+2, -2019773.3, -1765663.1, -35248.844, 0.2638703, 0.40065008, -1760864.3, -38305.12, 0.03897044, 9.997457, 10.000849 
1.6548719e+3, 1.3423344e+2, -1968286.8, -1547049.6, -3361.455, 0.36404282, 0.27563933, -1547022.8, 77521.65, 0.024272982, 9.996537, 10.002145 
1.6548984e+3, 1.4423579e+2, -2085423.1, -1791442.8, 1214.2416, -0.014342991, 0.40882632, -1791437.8, -264918.0, 0.0114189135, 9.996084, 10.000001 
1.6549301e+3, 1.5423445e+2, -1786460.0, -1602365.9, -48329.2, -0.01949201, 0.25634405, -1590449.6, -161914.14, 0.0034161112, 9.997496, 9.999937 
1.6549619e+3, 1.642344e+2, -1503881.1, -1368920.9, -164875.7, 0.025880517, 0.25161365, -1258250.6, 72285.74, 0.00045137366, 9.99854, 10.000374 
1.6549924e+3, 1.7423642e+2, -1345141.6, -1215404.8, -118597.22, 0.088359594, 0.37643948, -1145094.8, 87419.5, 0.000008273259, 9.998868, 10.000586 
1.6550232e+3, 1.8423648e+2, -1260230.5, -1265303.3, -51703.887, 0.118320175, 0.39545584, -1211000.9, -76488.586, 0.0, 9.999379, 9.999327 
1.6550545e+3, 1.9423398e+2, -1058486.5, -1109988.0, -36540.094, 0.12307985, 0.1859551, -1039535.2, -2998.6477, 0.0, 10.000069, 9.999382 
1.6550855e+3, 2.0423314e+2, -888534.75, -966388.44, -59315.65, 0.1088116, 0.17466526, -856513.44, 82031.33, 0.0, 10.00051, 9.999488 
1.6551162e+3, 2.142346e+2, -747775.5, -823146.75, -54577.758, 0.086008005, 0.33317325, -719136.6, 121394.35, 0.0, 10.000711, 9.999692 
1.6551474e+3, 2.2423455e+2, -696130.94, -856770.56, -51302.95, 0.08827453, 0.41748247, -681144.56, 61386.914, 0.0, 10.000845, 9.998742 
1.6551791e+3, 2.3423256e+2, -581497.94, -741830.5, -32980.387, 0.13193756, 0.31773496, -574978.94, 69571.44, 0.0, 10.000928, 9.998815 
1.6552097e+3, 2.4423026e+2, -426679.8, -677657.9, -79147.375, 0.08677957, 0.24597368, -403805.1, 142765.72, 0.0, 10.001584, 9.998257 
1.6552387e+3, 2.5422767e+2, -103461.75, -460899.47, -96351.42, -0.06145901, 0.13055052, -79143.6, 369448.47, 0.00000000856411, 10.0031, 9.998338 
1.6552687e+3, 2.6422617e+2, 26595.707, -364487.94, -116383.33, -0.10598528, 0.16803078, 58609.777, 409213.75, 0.0000057188686, 10.0033655, 9.998207 
1.6552998e+3, 2.7422613e+2, -42578.74, -323030.75, -73787.234, -0.016762502, 0.3000517, -24350.05, 228253.45, 0.00005720022, 10.002132, 9.998399 
1.6553305e+3, 2.842236e+2, -12253.331, -465848.28, -48034.746, -0.031309906, 0.30187365, -7222.353, 147406.5, 0.0002952708, 10.002559, 9.996556 
1.6553603e+3, 2.9421782e+2, 465409.97, -187043.06, -91577.27, -0.18643634, 0.04431398, 478019.88, 534706.9, 0.00095027586, 10.005181, 9.996527 
1.6553912e+3, 3.042153e+2, 604296.8, -105857.15, -73461.11, -0.32394603, 0.16280665, 611816.3, 611816.3, 0.0020945114, 10.0058565, 9.996434 
1.6554263e+3, 3.1421468e+2, 454456.0, -13456.257, -34393.508, -0.119624436, 0.40445435, 456970.53, 456970.53, 0.0035458438, 10.004085, 9.9979105 
1.6648367e+3, 1.2420017e+2, -2254859.8, -1847092.9, 98833.39, 0.30738974, 0.3733018, -1824400.8, -101526.43, 0.041736465, 9.995679, 10.001161 
1.664869e+3, 1.3420099e+2, -1698662.4, -1388621.9, -68511.17, 0.36222392, 0.19217, -1374157.5, 250702.19, 0.026087236, 9.99822, 10.00246 
1.664896e+3, 1.4420392e+2, -1714933.9, -1694184.0, -44866.504, 0.005328953, 0.400658, -1658508.5, -131678.25, 0.012349877, 9.998984, 9.999264 
1.6649283e+3, 1.542024e+2, -1761450.5, -1676730.8, 16225.709, 0.034365535, 0.3117799, -1673729.5, -244876.78, 0.003737191, 9.998053, 9.99915 
1.6649605e+3, 1.6420208e+2, -1546056.8, -1370499.6, -3592.0374, 0.06773641, 0.31377628, -1370426.1, -39568.07, 0.00050616945, 9.998192, 10.000519 
1.6649915e+3, 1.7420338e+2, -1150711.0, -1099251.9, -49228.906, 0.06502988, 0.3456826, -1069434.1, 163405.95, 0.000009797576, 10.000102, 10.000788 
1.665023e+3, 1.8420339e+2, -1046368.75, -1165610.0, -45662.004, 0.08594192, 0.35146233, -1030891.9, 103945.61, 0.0, 10.000874, 9.999281 
1.6650547e+3, 1.9420189e+2, -1004477.44, -1085114.0, -64425.957, 0.1189006, 0.24715541, -968793.94, 68059.13, 0.0, 10.000468, 9.999343 
1.665086e+3, 2.0420119e+2, -939085.06, -1000638.5, -76898.48, 0.13130336, 0.25259486, -887033.1, 51827.26, 0.0, 10.000203, 9.999401 
1.665117e+3, 2.1420161e+2, -830557.44, -872795.2, -88627.28, 0.12188242, 0.31881353, -760567.56, 80288.21, 0.0, 10.000185, 9.999604 
1.6651483e+3, 2.2420129e+2, -750536.6, -879397.7, -59623.39, 0.12754539, 0.38006118, -727181.94, 15676.924, 0.0, 10.000462, 9.998759 
1.6651802e+3, 2.3420008e+2, -542647.7, -715943.9, -69675.84, 0.14119482, 0.35285452, -518108.47, 126762.664, 0.0, 10.001168, 9.99886 
1.6652113e+3, 2.4419805e+2, -431198.53, -696821.06, -72029.89, 0.10882997, 0.31262752, -412923.28, 133966.4, 0.0, 10.001608, 9.998131 
1.6652417e+3, 2.54195e+2, -313718.72, -577318.06, -69300.4, 0.014221612, 0.16582397, -296610.03, 152306.31, 0.0000000057748837, 10.001706, 9.998221 
1.665272e+3, 2.6419336e+2, -134330.73, -434614.16, -99711.984, -0.037113927, 0.19224747, -104236.46, 246693.45, 0.0000055479773, 10.002245, 9.9982605 
1.665302e+3, 2.7419358e+2, 151145.19, -236636.64, -148145.66, -0.055070605, 0.35255244, 201264.16, 454190.03, 0.000055377644, 10.003474, 9.998363 
1.6653332e+3, 2.8419074e+2, 208807.06, -390032.25, -52430.566, -0.07528067, 0.3441246, 213362.89, 368316.34, 0.00028510438, 10.004206, 9.996277 
1.6653655e+3, 2.9418427e+2, 306369.03, -294851.13, -35638.918, -0.11729182, 0.04673546, 308474.28, 365492.8, 0.0009267338, 10.004243, 9.996225 
1.6653967e+3, 3.0418158e+2, 464989.63, -109658.58, -121.08778, -0.2694421, 0.1354537, 464989.63, 464989.63, 0.0020605533, 10.00462, 9.997 
1.6654293e+3, 3.1418133e+2, 607046.0, 86955.02, -35118.098, -0.27006868, 0.35736144, 609406.56, 609406.56, 0.0035060819, 10.005037, 9.9981365 
1.6748327e+3, 1.2416746e+2, -2240792.3, -1812267.1, 241226.55, 0.28876922, 0.30652052, -1703886.4, 19305.191, 0.044670317, 9.995655, 10.001414 
1.6748655e+3, 1.3416822e+2, -1739120.0, -1478081.0, 22717.688, 0.16890489, 0.17562391, -1476118.6, 149062.8, 0.028026333, 9.998256, 10.001814 
1.6748962e+3, 1.4417109e+2, -1642525.5, -1573090.9, -86604.77, 0.08440222, 0.3758905, -1514503.9, 12650.174, 0.013357116, 9.999102, 10.00004 
1.674927e+3, 1.5417163e+2, -1696434.1, -1545941.1, -11490.153, 0.06938278, 0.4030877, -1545069.0, -115915.016, 0.004090086, 9.99806, 10.00005 
1.6749585e+3, 1.6417138e+2, -1579317.5, -1453706.5, 47742.9, 0.025625458, 0.39070994, -1437620.3, -106462.914, 0.0005678562, 9.99825, 9.999922 
1.6749908e+3, 1.7416984e+2, -1209614.0, -1213633.5, 29191.156, -0.022776132, 0.21611503, -1182363.5, 50803.64, 0.000011659807, 10.000073, 10.000017 
1.675023e+3, 1.8416943e+2, -1057099.1, -1203586.9, -65774.92, -0.021519938, 0.23405693, -1031900.06, 103270.12, 0.0, 10.000927, 9.999004 
1.6750547e+3, 1.9417077e+2, -1026730.25, -1125754.4, -73506.21, 0.05064379, 0.44049126, -987616.1, 49545.76, 0.0, 10.000435, 9.999087 
1.6750862e+3, 2.0417064e+2, -949462.3, -1009378.3, -89780.15, 0.10804153, 0.5170937, -884773.8, 54391.11, 0.0, 10.000145, 9.999371 
1.6751176e+3, 2.1416849e+2, -850910.44, -890914.7, -81206.766, 0.15186542, 0.32786083, -787278.7, 53904.676, 0.0, 10.000072, 9.999539 
1.6751488e+3, 2.24167e+2, -785392.1, -907663.8, -44249.004, 0.12233315, 0.2829622, -771059.0, -27862.525, 0.0, 10.000274, 9.998653 
1.67518e+3, 2.341666e+2, -572606.6, -743338.6, -35025.395, 0.008220534, 0.34736726, -565700.56, 79500.586, 0.0, 10.001019, 9.998744 
1.675212e+3, 2.4416552e+2, -431875.34, -658682.6, -78044.06, -0.009933135, 0.38994038, -407615.4, 139595.81, 0.0, 10.001434, 9.998476 
1.6752443e+3, 2.5416365e+2, -308998.56, -532002.94, -54535.953, 0.09887469, 0.3234714, -296376.2, 152851.14, 0.0000000017385277, 10.001554, 9.998605 
1.6752753e+3, 2.6416135e+2, -208447.73, -553380.8, -65211.17, 0.04207346, 0.29624614, -196530.95, 154716.92, 0.0000048816705, 10.002084, 9.997527 
1.675304e+3, 2.741584e+2, 72890.914, -370783.63, -82630.03, -0.22786127, 0.22172639, 87780.27, 341055.72, 0.000051551386, 10.003345, 9.997507 
1.6753358e+3, 2.841552e+2, 219819.86, -318756.2, -53501.047, -0.2701541, 0.19794066, 225083.11, 380389.22, 0.0002714196, 10.003995, 9.996872 
1.6753712e+3, 2.9415223e+2, 341519.47, -184509.83, -9756.5625, -0.008096373, 0.17103058, 341700.38, 399035.94, 0.00089928973, 10.004063, 9.997078 
1.675403e+3, 3.0415022e+2, 439565.47, -74514.85, 7981.5293, -0.12689972, 0.25839564, 439689.38, 439689.38, 0.002030755, 10.004263, 9.997404 
1.6754323e+3, 3.1414813e+2, 557006.8, 68892.47, 15078.205, -0.51560795, 0.26283225, 557472.1, 557472.1, 0.0034955994, 10.004685, 9.998171 
1.6848293e+3, 1.2413438e+2, -1998644.8, -1694730.1, 206937.55, 0.3392281, 0.3257387, -1589949.9, 133565.56, 0.04776628, 9.997322, 10.001438 
1.6848615e+3, 1.3413528e+2, -1981180.3, -1582961.3, 12728.754, 0.038010564, 0.19866611, -1582554.9, 42951.832, 0.030093629, 9.996581, 10.001871 
1.684895e+3, 1.4413875e+2, -1895314.6, -1658845.6, -84524.625, 0.17208505, 0.44195798, -1631739.8, -104265.836, 0.0144471, 9.99721, 10.000365 
1.6849262e+3, 1.5413938e+2, -1520206.1, -1422362.6, -81919.57, 0.14478347, 0.44224682, -1375868.8, 53602.28, 0.004479329, 9.9991045, 10.000398 
1.6849579e+3, 1.6413891e+2, -1374486.8, -1409526.4, -7742.977, 0.067905076, 0.41598523, -1372852.0, -41376.074, 0.0006375465, 9.999899, 9.999431 
1.6849907e+3, 1.7413688e+2, -1306676.6, -1315278.0, -24275.586, -0.019669315, 0.24201745, -1286323.8, -52831.402, 0.00001399049, 9.999656, 9.99951 
1.6850232e+3, 1.841363e+2, -1252791.1, -1288324.5, -112864.125, -0.015794106, 0.26644334, -1156303.9, -20806.068, 0.0, 9.999553, 9.999079 
1.6850549e+3, 1.9413792e+2, -1102157.6, -1151341.3, -110508.06, 0.07728187, 0.48797092, -1013538.2, 23948.572, 0.0, 9.999862, 9.999191 
1.6850865e+3, 2.0413761e+2, -959422.1, -1059462.5, -97170.695, 0.13891417, 0.5627544, -900152.94, 39338.758, 0.0, 10.000275, 9.998967 
1.685118e+3, 2.1413493e+2, -768196.6, -895938.44, -139736.2, 0.15525919, 0.36671332, -678426.06, 163090.03, 0.0, 10.000845, 9.999131 
1.6851494e+3, 2.241332e+2, -651334.0, -824476.1, -86974.71, 0.12289861, 0.30912846, -615189.3, 128342.375, 0.0, 10.001096, 9.998846 
1.685181e+3, 2.3413278e+2, -578498.44, -718571.9, -67469.26, 0.01576257, 0.3520006, -551286.8, 94247.82, 0.0, 10.000853, 9.999007 
1.6852131e+3, 2.4413207e+2, -474799.2, -651120.56, -76152.62, 0.00842134, 0.40710607, -446462.97, 101077.84, 0.0, 10.001022, 9.9987135 
1.6852461e+3, 2.54131e+2, -256520.06, -487755.0, -88537.32, 0.114584416, 0.39542153, -226513.84, 223037.2, 0.0000000018399801, 10.001814, 9.998784 
1.6852777e+3, 2.6412877e+2, -158682.11, -539571.7, -48238.836, 0.072241716, 0.37576586, -152667.73, 198904.03, 0.0000039092515, 10.002473, 9.997434 
1.6853076e+3, 2.7412516e+2, 26895.404, -394560.84, -39854.62, -0.17120337, 0.24409907, 30631.107, 284237.66, 0.000046409757, 10.003072, 9.9974575 
1.6853397e+3, 2.8412232e+2, 160916.6, -294392.7, 4143.633, -0.23275752, 0.23594414, 160954.3, 316587.97, 0.00025645504, 10.003357, 9.997354 
1.6853741e+3, 2.9412103e+2, 259749.72, -159527.14, 403.84332, -0.06842654, 0.3272233, 259750.11, 317395.44, 0.0008662299, 10.003221, 9.997659 
1.6854061e+3, 3.0411872e+2, 336033.72, -73345.305, 50470.465, -0.17634575, 0.32582638, 342164.2, 342164.2, 0.0019878885, 10.003293, 9.997902 
1.6854376e+3, 3.1411493e+2, 376719.25, 1236.2366, 9943.857, -0.36983344, 0.1339734, 376982.4, 376982.4, 0.003468638, 10.003301, 9.998416 
1.694826e+3, 1.2410018e+2, -1999112.6, -1732910.6, 32673.451, 0.22102994, 0.33570457, -1728959.0, -5105.709, 0.051028147, 9.997477, 10.001073 
1.6948566e+3, 1.3410203e+2, -1942483.3, -1487775.4, 6263.7266, -0.123284735, 0.24152444, -1487689.1, 138147.36, 0.032295942, 9.996503, 10.002585 
1.6948925e+3, 1.4410707e+2, -1899891.5, -1679470.3, -23370.5, 0.16101126, 0.6056353, -1677019.5, -149231.06, 0.015627254, 9.997247, 10.000212 
1.6949257e+3, 1.5410584e+2, -1536832.3, -1465286.1, -2359.2207, 0.17387784, 0.4506608, -1465208.5, -35406.5, 0.004910431, 9.999137, 10.000092 
1.6949582e+3, 1.6410473e+2, -1381830.3, -1446223.8, -25403.254, 0.091246605, 0.39101502, -1373015.4, -41202.04, 0.0007170378, 9.999985, 9.999139 
1.6949907e+3, 1.7410451e+2, -1327023.9, -1359905.8, -27103.064, -0.004013547, 0.42863575, -1311764.9, -77949.71, 0.000016975888, 9.9996605, 9.999205 
1.6950232e+3, 1.8410407e+2, -1214104.8, -1223281.4, -114743.68, 0.0019868666, 0.46280968, -1103857.6, 31961.902, 0.0, 9.999611, 9.9995 
1.6950554e+3, 1.9410329e+2, -1074617.9, -1084478.3, -93580.55, 0.10973147, 0.39777938, -985837.75, 51989.867, 0.0, 9.999817, 9.999673 
1.695087e+3, 2.041022e+2, -1031587.2, -1180753.8, -88943.01, 0.13033336, 0.40429053, -990094.94, -50255.63, 0.0, 10.000154, 9.998194 
1.6951178e+3, 2.1410096e+2, -847427.94, -1037146.75, -108552.71, 0.048997197, 0.43960714, -798127.75, 43726.24, 0.0, 10.000738, 9.998217 
1.6951495e+3, 2.2409974e+2, -637303.0, -756665.4, -102860.48, 0.020709619, 0.45955652, -578063.5, 165801.64, 0.0, 10.000934, 9.999387 
1.6951825e+3, 2.3409863e+2, -558591.2, -635620.75, -63585.523, 0.069327645, 0.36441252, -522765.5, 123105.84, 0.0, 10.000674, 9.9996605 
1.695215e+3, 2.4409764e+2, -505240.9, -661066.9, -58034.5, 0.06407241, 0.35395077, -486002.28, 61876.832, 0.0, 10.000791, 9.99876 
1.6952468e+3, 2.54097e+2, -277444.34, -497141.78, -47860.85, -0.005544525, 0.38993922, -267470.7, 182416.66, 0.0000000033657745, 10.00167, 9.99879 
1.6952792e+3, 2.6409566e+2, -154782.6, -490054.03, -35516.797, -0.04255038, 0.43569687, -151061.45, 200840.22, 0.0000030031388, 10.002295, 9.99786 
1.6953126e+3, 2.740935e+2, 34442.957, -337138.56, -5971.618, -0.003085351, 0.39867637, 34538.902, 288462.03, 0.000041455987, 10.002895, 9.997936 
1.6953446e+3, 2.840916e+2, 150901.77, -262839.38, -14818.773, -0.0893323, 0.43982735, 151431.84, 307373.16, 0.0002433747, 10.003127, 9.9976845 
1.6953745e+3, 2.9409018e+2, 253764.81, -126793.43, 7566.2056, -0.36955336, 0.490223, 253915.19, 311868.28, 0.0008327765, 10.003015, 9.997991 
1.6954061e+3, 3.040866e+2, 319202.94, -23058.38, 37231.547, -0.5097594, 0.32251084, 323206.22, 323206.22, 0.0019274548, 10.002951, 9.998401 
1.695444e+3, 3.140822e+2, 377215.9, 88838.94, 36417.94, -0.08852638, 0.0074854465, 381743.88, 381743.88, 0.0033938396, 10.002958, 9.999165 
1.7048231e+3, 1.2406656e+2, -1978234.9, -1794568.6, 4160.309, 0.16842543, 0.38393897, -1794474.4, -70288.74, 0.054460447, 9.997913, 10.000447 
1.704854e+3, 1.3406855e+2, -1722892.3, -1426625.9, -70679.01, -0.09566004, 0.34522358, -1410628.1, 215541.16, 0.034638863, 9.998179, 10.002219 
1.7048904e+3, 1.4407273e+2, -1750535.4, -1599035.3, -76265.586, 0.20926818, 0.64078724, -1567293.4, -39163.875, 0.016903277, 9.998268, 10.000262 
1.7049246e+3, 1.540711e+2, -1641020.8, -1506344.0, -53833.95, 0.19293034, 0.4390175, -1487470.1, -57326.027, 0.00538814, 9.998397, 10.000156 
1.7049576e+3, 1.640699e+2, -1576954.3, -1511188.8, -58300.35, 0.11550472, 0.3556456, -1477137.1, -144982.39, 0.0008082668, 9.998506, 9.999409 
1.7049904e+3, 1.740704e+2, -1423584.9, -1371137.9, -31381.875, 0.051789444, 0.43570283, -1356465.3, -122315.26, 0.000020835996, 9.998835, 9.999535 
1.705023e+3, 1.840702e+2, -1262164.9, -1258839.1, -71382.555, 0.058283348, 0.48349443, -1189100.0, -52947.836, 0.0, 9.999336, 9.999397 
1.7050552e+3, 1.940689e+2, -1012235.44, -1071057.4, -114845.83, 0.111783236, 0.38091233, -923094.44, 115071.22, 0.0, 10.000315, 9.9995365 
1.7050871e+3, 2.040677e+2, -893692.3, -1104160.4, -89280.695, 0.10788215, 0.3798393, -860921.9, 79256.78, 0.0, 10.00106, 9.998272 
1.7051187e+3, 2.1406697e+2, -716955.1, -964055.6, -54926.01, 0.022415336, 0.45596987, -705296.2, 136891.84, 0.0, 10.001596, 9.998296 
1.7051506e+3, 2.2406593e+2, -538593.94, -711832.6, -49053.44, 0.00595826, 0.48943064, -525668.56, 218528.78, 0.0, 10.001626, 9.999356 
1.7051832e+3, 2.3406455e+2, -529923.3, -624838.4, -88732.2, 0.08256887, 0.36909032, -476754.7, 169451.38, 0.0, 10.000888, 9.999628 
1.7052159e+3, 2.4406347e+2, -513594.1, -688645.3, -48319.56, 0.1023402, 0.3621719, -501142.16, 47073.48, 0.0, 10.000843, 9.998547 
1.7052487e+3, 2.5406286e+2, -269275.56, -514147.6, -71827.016, 0.020706367, 0.42626983, -249761.94, 200463.8, 0.0000000026261497, 10.001834, 9.998588 
1.7052816e+3, 2.6406172e+2, -130773.31, -463599.2, -80725.96, -0.021223962, 0.49422407, -112226.94, 240013.05, 0.0000021613648, 10.00239, 9.997995 
1.705315e+3, 2.7405998e+2, -33846.81, -355375.75, -99343.19, -0.0091228625, 0.48941395, -5629.046, 248628.61, 0.000036656253, 10.002353, 9.9980755 
1.7053474e+3, 2.8405842e+2, 36697.58, -273397.6, -108759.66, -0.053667, 0.5427823, 71039.586, 227311.83, 0.00022920681, 10.002165, 9.998068 
1.7053781e+3, 2.94057e+2, 100585.03, -157819.75, -112456.11, -0.21852593, 0.5559034, 142670.8, 200953.81, 0.00079251203, 10.001789, 9.998365 
1.7054097e+3, 3.040535e+2, 199791.38, -139325.25, -43476.383, -0.39536014, 0.40014794, 205276.53, 205276.53, 0.0018379622, 10.00236, 9.997887 
1.705447e+3, 3.1405e+2, 525106.44, 116227.36, -174328.78, -0.12650773, 0.23554146, 589341.5, 589341.5, 0.0032495516, 10.004161, 9.998763 
1.7148195e+3, 1.2403308e+2, -2036114.3, -1911264.3, 21154.207, -0.04103842, 0.41283572, -1907777.4, -183260.67, 0.058051143, 9.99791, 9.999642 
1.714854e+3, 1.3403541e+2, -1832783.1, -1639697.5, -54107.543, 0.050121404, 0.5635741, -1625569.0, 930.1994, 0.037118543, 9.99816, 10.0007105 
1.7148891e+3, 1.440358e+2, -1714764.0, -1558897.9, -83136.69, 0.2032997, 0.55379343, -1522878.0, 5618.055, 0.018276531, 9.99839, 10.000491 
1.7149223e+3, 1.5403488e+2, -1615716.0, -1455939.4, -41000.98, 0.109333076, 0.38973156, -1446032.1, -15532.55, 0.005915651, 9.998395, 10.000509 
1.7149559e+3, 1.6403441e+2, -1508231.9, -1373982.0, -60244.758, 0.045210138, 0.3137611, -1350911.6, -18411.313, 0.0009130136, 9.998533, 10.000332 
1.7149895e+3, 1.7403473e+2, -1358782.6, -1230198.6, -12109.375, 0.06558018, 0.2755841, -1229068.1, 5426.9175, 0.000025810483, 9.998814, 10.0005045 
1.7150226e+3, 1.8403482e+2, -1302376.9, -1350733.1, -47078.09, 0.05657093, 0.33035192, -1273631.3, -137136.27, 0.0, 9.999363, 9.998756 
1.7150547e+3, 1.9403473e+2, -1072490.9, -1188113.8, -69234.914, 0.0007138187, 0.42588222, -1040104.5, -1603.3126, 0.0, 10.000276, 9.998752 
1.715087e+3, 2.040341e+2, -845934.1, -984409.94, -75334.336, -0.030155051, 0.48495385, -812853.2, 127656.47, 0.0, 10.000968, 9.999141 
1.71512e+3, 2.1403286e+2, -667411.7, -822996.2, -25856.42, -0.008616952, 0.40742072, -663227.2, 179292.6, 0.0, 10.001428, 9.999348 
1.7151523e+3, 2.240316e+2, -611356.6, -811968.0, -80765.375, -0.005933178, 0.38675678, -582882.4, 161647.7, 0.0, 10.001402, 9.998781 
1.7151833e+3, 2.340305e+2, -599759.8, -742864.5, -104712.21, -0.0239496, 0.37233323, -544487.94, 102051.09, 0.0, 10.000763, 9.998883 
1.7152159e+3, 2.4402943e+2, -573310.7, -770398.75, -26525.652, 0.0038479255, 0.42808864, -569803.1, -21251.963, 0.0, 10.000667, 9.998067 
1.7152514e+3, 2.5402838e+2, -326502.28, -595265.6, -20842.746, 0.098100394, 0.48990843, -324895.5, 125672.35, 0.0000000000058928205, 10.00167, 9.99811 
1.7152847e+3, 2.6402673e+2, -173729.95, -503713.2, -89094.9, 0.029021597, 0.54469544, -151211.2, 201376.95, 0.0000014626683, 10.002184, 9.997818 
1.715315e+3, 2.740247e+2, -67444.42, -383312.4, -88415.52, -0.25457788, 0.5215178, -44379.926, 210229.52, 0.000032258973, 10.002174, 9.997969 
1.715348e+3, 2.8402302e+2, 32092.46, -241713.45, -130435.4, -0.22730847, 0.55517405, 84281.58, 240906.33, 0.00021422074, 10.001979, 9.99838 
1.7153844e+3, 2.9402173e+2, 115597.33, -107058.375, -105658.38, 0.20731328, 0.5368341, 157754.28, 216387.23, 0.0007452291, 10.0016985, 9.998758 
1.7154163e+3, 3.0401933e+2, 47076.496, -394153.78, 1653.9241, -0.0057616318, 0.5449571, 47082.695, 47082.695, 0.0017263927, 10.002116, 9.996247 
1.7154467e+3, 3.1401742e+2, 356640.47, -96111.5, -60309.137, -0.5959683, 0.71561116, 364536.28, 364536.28, 0.003057625, 10.003612, 9.99755 
1.7248173e+3, 1.2399773e+2, -1969925.4, -1883125.3, 34904.13, -0.062112007, 0.37251294, -1870830.9, -145966.97, 0.06177432, 9.998367, 9.999619 
1.7248526e+3, 1.3399996e+2, -1718819.3, -1646610.5, -56207.938, 0.07719851, 0.55555135, -1615910.3, 10937.429, 0.039721623, 9.999203, 10.000157 
1.724888e+3, 1.4399987e+2, -1590859.9, -1506254.3, -49686.64, 0.22572355, 0.53331125, -1483301.5, 45547.883, 0.019743169, 9.999264, 10.000435 
1.7249209e+3, 1.5399912e+2, -1515886.9, -1399158.6, -55171.715, 0.11067642, 0.37703452, -1377209.0, 53643.188, 0.006494274, 9.999024, 10.000607 
1.7249547e+3, 1.6399908e+2, -1427134.1, -1309595.3, -68305.83, 0.07238038, 0.33230877, -1278256.3, 54592.902, 0.001032908, 9.998986, 10.00056 
1.7249894e+3, 1.739998e+2, -1239206.5, -1146147.8, -96474.08, 0.1547628, 0.31139597, -1085568.6, 149272.1, 0.00003215152, 9.999517, 10.000747 
1.725023e+3, 1.8400016e+2, -1242660.3, -1273592.1, -109593.04, 0.15370443, 0.36015457, -1147447.3, -10609.711, 0.0, 9.999573, 9.999176 
1.7250544e+3, 1.9400036e+2, -1180260.4, -1188437.8, -61923.473, -0.0059939814, 0.44267607, -1122290.8, -83452.64, 0.0, 9.999323, 9.9992 
1.7250867e+3, 2.0399988e+2, -1078372.0, -1079711.0, -22447.373, -0.07196772, 0.4835531, -1056584.1, -115740.46, 0.0, 9.999298, 9.999299 
1.7251205e+3, 2.139985e+2, -908904.6, -927181.7, -57004.406, -0.000005718126, 0.38155857, -860310.9, -17455.41, 0.0, 9.999713, 9.999467 
1.7251532e+3, 2.2399715e+2, -783549.7, -910220.75, -125679.87, 0.016900258, 0.35451978, -706148.56, 38718.465, 0.0, 10.000306, 9.998623 
1.7251837e+3, 2.3399612e+2, -542724.7, -736811.8, -135146.19, -0.06579444, 0.36739305, -473389.3, 173486.4, 0.0, 10.00127, 9.998668 
1.7252165e+3, 2.4399489e+2, -440042.66, -753972.3, -8459.16, -0.055014223, 0.43784043, -439814.88, 109075.195, 0.0, 10.001785, 9.997634 
1.7252527e+3, 2.5399342e+2, -369055.97, -662430.6, -18118.14, 0.07432491, 0.50323236, -367941.25, 82970.38, 0.0000000000049057277, 10.00159, 9.997675 
1.7252865e+3, 2.639915e+2, -257613.89, -548243.9, -66245.85, 0.03268613, 0.55546343, -243226.16, 109708.695, 0.0000011502509, 10.001626, 9.997781 
1.7253171e+3, 2.739892e+2, -102069.16, -402022.5, -82718.78, -0.23998149, 0.50912297, -80770.03, 174187.67, 0.000029351942, 10.00194, 9.997956 
1.7253503e+3, 2.839872e+2, 86643.65, -246809.0, -111283.94, -0.20992373, 0.52096736, 120371.266, 277347.75, 0.00020332911, 10.002496, 9.998089 
1.7253867e+3, 2.9398534e+2, 343129.53, -38830.848, -173216.03, 0.18121183, 0.48322907, 409981.13, 468972.34, 0.00070499646, 10.003458, 9.998367 
1.725419e+3, 3.039833e+2, 263821.9, -329994.63, -27297.35, -0.00063335145, 0.5673911, 265074.13, 265074.13, 0.0016286817, 10.003755, 9.995918 
1.725452e+3, 3.1398198e+2, 244210.16, -185113.14, -31167.451, -0.39031783, 0.8374443, 246461.0, 246461.0, 0.0028877484, 10.002905, 9.997327 
1.7348163e+3, 1.2396179e+2, -1899978.0, -1746657.4, 121504.59, -0.03631454, 0.38895273, -1679650.8, 45564.125, 0.06561491, 9.998416, 10.00054 
1.73485e+3, 1.3396186e+2, -1697866.6, -1594882.1, -34444.34, -0.12777215, 0.2909798, -1584423.9, 42793.76, 0.042436883, 9.999165, 10.00054 
1.7348869e+3, 1.4396471e+2, -1608507.6, -1552182.6, -71952.85, 0.16333783, 0.56605154, -1503077.1, 26114.621, 0.021297567, 9.999307, 10.0000925 
1.73492e+3, 1.5396385e+2, -1524612.6, -1419219.8, -58386.55, 0.09372844, 0.4154086, -1393265.8, 37934.95, 0.0071235094, 9.999038, 10.000457 
1.7349541e+3, 1.639641e+2, -1443039.5, -1368555.8, -62311.098, 0.08643624, 0.42461058, -1333205.4, -5.6981645, 0.0011691477, 9.999083, 10.000116 
1.73499e+3, 1.7396563e+2, -1271150.9, -1221578.1, -69555.45, 0.24737348, 0.537213, -1172524.6, 62662.53, 0.00004011834, 9.999544, 10.000222 
1.7350239e+3, 1.8396623e+2, -1139155.8, -1071377.9, -130719.43, 0.252296, 0.5768921, -970226.0, 166953.98, 0.0, 9.999624, 10.000542 
1.735054e+3, 1.9396573e+2, -1081010.3, -965064.2, -66136.62, 0.007268392, 0.4311474, -935088.8, 104088.67, 0.0, 9.999244, 10.000772 
1.7350857e+3, 2.03965e+2, -1131482.1, -1162020.0, -21887.22, -0.116892084, 0.38348803, -1120064.1, -178882.92, 0.0, 9.999178, 9.998791 
1.73512e+3, 2.1396396e+2, -977026.94, -1044602.9, -32556.752, -0.042631302, 0.38714284, -963894.0, -120699.766, 0.0, 9.999607, 9.998712 
1.735153e+3, 2.2396265e+2, -798157.94, -903826.44, -101152.305, -0.043965057, 0.39932862, -736872.75, 8334.729, 0.0, 10.000149, 9.998741 
1.7351845e+3, 2.3396121e+2, -544200.3, -709830.56, -89272.59, -0.13909486, 0.34524485, -505245.38, 141972.77, 0.0, 10.001134, 9.998919 
1.7352173e+3, 2.4395962e+2, -496777.22, -820125.7, -22378.633, -0.17360559, 0.38265708, -495235.75, 53998.79, 0.0, 10.001571, 9.997282 
1.7352523e+3, 2.5395802e+2, -420300.94, -729255.3, -13004.909, -0.12863967, 0.47411075, -419754.5, 31502.88, 0.000000000000012544113, 10.001429, 9.997291 
1.7352869e+3, 2.6395598e+2, -281375.25, -557603.06, -64128.56, -0.10888355, 0.5335926, -267213.34, 86067.59, 0.0000010511417, 10.001451, 9.997804 
1.7353205e+3, 2.7395356e+2, -116566.55, -400311.0, -56547.78, -0.09499045, 0.46431297, -105712.29, 149590.88, 0.000029114979, 10.001805, 9.998031 
1.7353539e+3, 2.839508e+2, -14695.428, -414370.1, -92974.836, -0.12730646, 0.4497581, 5874.3164, 163203.34, 0.00019954717, 10.002309, 9.997031 
1.7353852e+3, 2.9394764e+2, 223871.23, -228061.42, -118682.42, -0.32154995, 0.38787538, 253142.64, 312502.97, 0.00068326393, 10.003206, 9.9971895 
1.7354184e+3, 3.0394542e+2, 256984.5, -253774.06, -64201.445, -0.46110716, 0.49170008, 264930.88, 264930.88, 0.0015767281, 10.003387, 9.996603 
1.7354608e+3, 3.139433e+2, 225815.69, -96965.836, -7732.225, 0.16140622, 0.57330984, 226000.8, 226000.8, 0.0028061306, 10.002404, 9.99815 
1.7448157e+3, 1.2392642e+2, -1935276.5, -1691850.3, 91676.42, 0.09767879, 0.49657664, -1661186.6, 64377.348, 0.06957688, 9.997862, 10.001201 
1.7448471e+3, 1.3392577e+2, -1885937.8, -1595777.5, -50144.273, -0.23450872, 0.2478483, -1587356.1, 40215.99, 0.045260757, 9.997485, 10.001348 
1.7448857e+3, 1.4392965e+2, -1811457.0, -1636855.0, -16802.59, 0.20656699, 0.5757986, -1635252.6, -105716.84, 0.022935338, 9.997871, 10.000192 
1.7449194e+3, 1.5392917e+2, -1582371.4, -1438919.5, -17278.793, 0.15952796, 0.456425, -1436867.6, -5325.463, 0.0078018596, 9.998621, 10.000508 
1.7449534e+3, 1.6392958e+2, -1460339.4, -1415997.9, 18895.578, 0.121884644, 0.49392092, -1409038.1, -75496.84, 0.0013223152, 9.999138, 9.999764 
1.7449889e+3, 1.7393127e+2, -1257404.3, -1259494.1, 2806.5593, 0.16882583, 0.6638302, -1255454.4, -19924.41, 0.000049909977, 9.999844, 9.999817 
1.7450225e+3, 1.8393178e+2, -1096094.9, -1017839.9, -114854.016, 0.1627914, 0.7030808, -935631.44, 201892.88, 0.0000000000000006446772, 9.999792, 10.00082 
1.7450531e+3, 1.9393061e+2, -1138688.6, -952673.1, -166868.44, 0.037021857, 0.45664322, -854642.9, 184882.47, 0.0, 9.998685, 10.001117 
1.7450853e+3, 2.0392962e+2, -1178164.1, -1176537.9, -64758.97, -0.03343436, 0.35980657, -1112586.9, -171057.05, 0.0, 9.998818, 9.998861 
1.7451203e+3, 2.1392897e+2, -768383.5, -935617.0, -32886.55, -0.026412044, 0.3995765, -762148.75, 81389.29, 0.0, 10.001009, 9.998778 
1.7451541e+3, 2.239278e+2, -520110.34, -815967.0, -99851.86, -0.049780663, 0.43886003, -489564.06, 255986.58, 0.0, 10.002242, 9.998347 
1.745186e+3, 2.3392604e+2, -450047.4, -714698.06, -157872.45, -0.121129595, 0.39924228, -376378.3, 271189.06, 0.0, 10.001995, 9.998478 
1.7452191e+3, 2.4392426e+2, -435768.97, -758757.7, -95714.36, -0.14692645, 0.43071133, -409535.7, 140050.23, 0.0, 10.001864, 9.997558 
1.745254e+3, 2.5392252e+2, -316913.63, -643557.9, -61066.535, -0.13395076, 0.47688028, -305870.5, 145735.92, 0.0, 10.001986, 9.997614 
1.7452885e+3, 2.6392037e+2, -187670.52, -533278.75, -56480.01, -0.104999304, 0.51481605, -178674.58, 174954.47, 0.0000010008785, 10.002187, 9.997613 
1.7453231e+3, 2.7391773e+2, -8149.047, -379970.06, -95305.97, -0.04948139, 0.45243442, 14856.563, 270510.25, 0.000030147008, 10.002682, 9.997746 
1.7453568e+3, 2.8391483e+2, 67224.38, -408009.66, -97965.68, -0.08307941, 0.45379683, 86627.055, 244308.69, 0.00019895253, 10.00302, 9.996725 
1.745388e+3, 2.9391176e+2, 143716.23, -313341.78, -107815.836, -0.33333653, 0.43725643, 167872.33, 227585.78, 0.0006793162, 10.002839, 9.996787 
1.745421e+3, 3.0390945e+2, 179915.89, -219431.34, -18559.164, -0.467531, 0.52637, 180776.56, 180776.56, 0.0015806268, 10.0025215, 9.997269 
1.7454638e+3, 3.1390604e+2, 301656.72, 4594.4683, -19287.941, 0.23613362, 0.39970064, 302903.84, 302903.84, 0.0028398903, 10.002629, 9.998732 
1.7548142e+3, 1.23890005e+2, -1922317.1, -1654744.1, -148758.4, 0.12990807, 0.5364012, -1588460.9, 137466.56, 0.07366958, 9.997821, 10.001501 
1.7548436e+3, 1.3389198e+2, -1803332.8, -1418372.8, -39352.39, -0.3490236, 0.443606, -1414391.1, 213517.44, 0.048192136, 9.99743, 10.002647 
1.7548844e+3, 1.438952e+2, -1763013.3, -1550390.9, 2475.64, 0.25034714, 0.5987134, -1550362.0, -20485.172, 0.024652572, 9.997926, 10.000765 
1.754919e+3, 1.5389517e+2, -1566744.9, -1409029.3, 19057.996, 0.23113686, 0.50327504, -1406759.0, 25116.379, 0.008527423, 9.998622, 10.000721 
1.7549522e+3, 1.6389541e+2, -1478524.9, -1461582.1, 26643.727, 0.07632149, 0.5287242, -1442095.5, -108220.51, 0.0014925194, 9.999172, 9.999435 
1.7549855e+3, 1.7389667e+2, -1285521.3, -1308269.3, 37053.15, -0.16551104, 0.68728715, -1258135.8, -22266.033, 0.00006156021, 9.999806, 9.999497 
1.7550187e+3, 1.8389682e+2, -1148325.0, -1127850.5, -158003.2, -0.21751918, 0.7421197, -979753.25, 158116.92, 0.0000000010737394, 9.999802, 10.000059 
1.7550515e+3, 1.9389509e+2, -1201956.5, -1078916.0, -200397.31, -0.009343934, 0.5198998, -930808.44, 109072.85, 0.0, 9.998663, 10.000262 
1.7550854e+3, 2.0389372e+2, -1145620.3, -1097442.1, -7613.43, 0.06624563, 0.41110402, -1096267.6, -154378.3, 0.0, 9.998763, 9.999432 
1.7551214e+3, 2.1389337e+2, -735136.06, -834842.4, 57467.297, -0.034423493, 0.40321365, -708911.44, 134977.39, 0.0, 10.000863, 9.999544 
1.755156e+3, 2.2389244e+2, -613798.44, -958828.25, -107969.27, -0.09609698, 0.4634424, -582797.3, 163100.94, 0.0, 10.002024, 9.997472 
1.7551883e+3, 2.338907e+2, -550643.9, -885181.44, -153680.4, -0.10785323, 0.53261584, -490764.0, 157158.14, 0.0, 10.001829, 9.997387 
1.7552215e+3, 2.438888e+2, -412960.63, -670436.9, -96828.06, -0.10665673, 0.5800722, -380611.28, 169332.45, 0.0, 10.001681, 9.998256 
1.7552567e+3, 2.5388688e+2, -270398.2, -514540.84, -44979.34, -0.058938205, 0.5132968, -262375.13, 189584.11, 0.0, 10.001848, 9.998565 
1.7552912e+3, 2.6388448e+2, -240641.67, -618012.44, -51235.008, -0.06935879, 0.49821854, -233809.28, 120171.586, 0.00000094846536, 10.002066, 9.997095 
1.7553248e+3, 2.7388158e+2, -73162.05, -478569.25, -59616.305, -0.18197641, 0.47372153, -64577.094, 191432.44, 0.000030605133, 10.002529, 9.997139 
1.755359e+3, 2.838791e+2, 57933.03, -388941.03, -107265.76, -0.1889822, 0.53064394, 82346.86, 240381.86, 0.00020031627, 10.002845, 9.996944 
1.7553937e+3, 2.9387733e+2, 129556.65, -293193.1, -98020.805, -0.05613165, 0.61341125, 151178.38, 211232.53, 0.0006943286, 10.002626, 9.997026 
1.7554261e+3, 3.0387515e+2, 158969.9, -184901.56, -38281.125, -0.22900681, 0.68871576, 163179.97, 163179.97, 0.0016369607, 10.002195, 9.997655 
1.7554618e+3, 3.1387046e+2, 224086.69, -40625.38, 52048.645, -0.26130295, 0.3720275, 233952.94, 233952.94, 0.002965132, 10.002156, 9.998635 
1.7648117e+3, 1.2385485e+2, -2115451.3, -1773057.0, -47132.77, 0.18488349, 0.45921233, -1766687.4, -40413.676, 0.07790593, 9.996595, 10.001222 
1.7648424e+3, 1.3385835e+2, -1739392.5, -1442498.4, 44889.72, -0.23359236, 0.5746284, -1435859.6, 192381.81, 0.05123237, 9.998085, 10.002168 
1.7648827e+3, 1.4386052e+2, -1633865.0, -1498163.6, 116.56968, 0.25221124, 0.64995044, -1498163.5, 32056.455, 0.026445003, 9.99885, 10.0006895 
1.7649177e+3, 1.5386006e+2, -1500517.4, -1392954.1, -37617.64, 0.2353354, 0.52624696, -1381103.9, 51117.234, 0.009296644, 9.999163, 10.000572 
1.7649513e+3, 1.6385987e+2, -1498324.8, -1433709.1, -26092.92, 0.084115244, 0.50403744, -1424488.3, -90265.55, 0.0016790463, 9.998892, 9.999747 
1.764984e+3, 1.7386052e+2, -1561287.1, -1401561.8, 9274.334, -0.17972289, 0.5630542, -1401025.1, -164804.48, 0.000074904594, 9.997741, 9.999847 
1.7650174e+3, 1.8386072e+2, -1454041.9, -1333733.3, -93068.08, -0.2267226, 0.6260405, -1283071.5, -144850.17, 0.000000009428086, 9.997943, 9.999551 
1.7650513e+3, 1.9386026e+2, -949141.2, -1022207.0, -134794.89, 0.008241863, 0.59216344, -846016.25, 194209.7, 0.0, 10.000676, 9.999689 
1.7650859e+3, 2.0385933e+2, -730655.1, -895664.9, 43210.67, 0.10759735, 0.5580278, -720024.56, 222208.03, 0.0, 10.001616, 9.999439 
1.7651221e+3, 2.1385805e+2, -890534.9, -900439.0, 38408.445, 0.013017116, 0.45227432, -856760.56, -12521.681, 0.0, 9.999771, 9.999616 
1.7651568e+3, 2.2385672e+2, -1001963.44, -1128097.3, -83322.06, -0.057320856, 0.46212062, -960531.56, -214280.5, 0.0, 9.999287, 9.997621 
1.7651895e+3, 2.338554e+2, -653096.2, -915137.9, -63763.094, -0.122158185, 0.5570718, -638404.3, 9867.366, 0.0, 10.001047, 9.997553 
1.7652233e+3, 2.4385372e+2, -338865.28, -635624.44, 15506.753, -0.12283183, 0.6150621, -338057.2, 212233.88, 0.0, 10.002173, 9.998272 
1.765259e+3, 2.5385162e+2, -202702.8, -486833.78, -15963.938, -0.018413743, 0.535669, -201808.67, 250497.92, 0.0, 10.002309, 9.998547 
1.765294e+3, 2.6384917e+2, -172383.84, -591811.06, -13757.323, -0.01808048, 0.51912355, -171933.1, 182394.9, 0.0000007067664, 10.002583, 9.997019 
1.765327e+3, 2.7384627e+2, 3669.487, -454882.2, -12815.182, -0.21513961, 0.50567126, 4027.3547, 260384.33, 0.000029110019, 10.0031185, 9.997021 
1.7653614e+3, 2.8384352e+2, 100319.664, -346343.7, -59119.03, -0.21696563, 0.53599954, 108012.01, 266396.7, 0.00020317562, 10.003043, 9.997148 
1.7653975e+3, 2.9384115e+2, 80924.23, -298862.03, -99670.6, 0.07940603, 0.5472924, 105492.35, 165900.81, 0.00072254677, 10.002214, 9.997191 
1.7654301e+3, 3.0383897e+2, 164089.44, -149347.4, 18050.627, -0.038760435, 0.59538716, 165125.55, 165125.55, 0.0017154133, 10.002084, 9.997954 
1.7654634e+3, 3.138358e+2, 303902.56, -760.21344, 63250.21, -0.32481256, 0.4126518, 316511.9, 316511.9, 0.0031024145, 10.002667, 9.998686 
1.7748074e+3, 1.2382243e+2, -2160547.0, -1880440.3, -85344.34, 0.037908103, 0.37515014, -1856485.8, -129897.63, 0.08231803, 9.996647, 10.000465 
1.7748435e+3, 1.3382508e+2, -1902018.6, -1769899.4, 110458.4, 0.047719024, 0.6388125, -1707254.1, -78685.71, 0.054393712, 9.998077, 9.999857 
1.7748801e+3, 1.4382534e+2, -1684584.3, -1612426.4, -3677.709, 0.0881802, 0.68971276, -1612239.4, -81671.43, 0.02831169, 9.998885, 9.999885 
1.7749155e+3, 1.5382385e+2, -1538232.4, -1470531.4, -16171.71, 0.067656085, 0.5188908, -1466866.8, -34287.785, 0.010105246, 9.999156, 10.000039 
1.7749499e+3, 1.6382302e+2, -1432633.0, -1305699.1, -73438.24, 0.040065367, 0.42232406, -1272103.1, 62480.664, 0.0018804772, 9.998924, 10.000612 
1.7749842e+3, 1.7382279e+2, -1492754.4, -1255369.8, -27181.547, 0.043060295, 0.29165444, -1252297.1, -15713.923, 0.00008970714, 9.9977255, 10.000855 
1.7750181e+3, 1.8382348e+2, -1464686.1, -1368099.8, -18831.227, 0.03202245, 0.36012816, -1364558.1, -225980.56, 0.000000028818846, 9.997989, 9.999294 
1.775052e+3, 1.9382606e+2, -982918.5, -1083589.5, -22583.95, 0.0026162022, 0.6695046, -978084.25, 62475.92, 0.0, 10.00063, 9.999292 
1.7750865e+3, 2.0382631e+2, -784628.1, -982701.4, -17010.598, -0.009047621, 0.7983165, -783177.9, 159382.73, 0.0, 10.001518, 9.998881 
1.7751221e+3, 2.1382296e+2, -956503.1, -1000743.25, -24542.404, 0.031952053, 0.5433615, -945583.44, -100995.055, 0.0, 9.999623, 9.998991 
1.7751566e+3, 2.2382057e+2, -955593.7, -998803.1, -39980.434, -0.027945409, 0.440674, -931753.94, -185144.33, 0.0, 9.999131, 9.9985895 
1.7751895e+3, 2.3382e+2, -582793.75, -745263.5, 13420.998, -0.23805633, 0.4859422, -581692.56, 66925.14, 0.0, 10.000932, 9.998779 
1.7752239e+3, 2.4381877e+2, -405967.44, -733403.1, 16039.631, -0.28585324, 0.5460806, -405183.6, 145447.1, 0.0, 10.001997, 9.997683 
1.7752609e+3, 2.5381675e+2, -283666.25, -618270.25, -1431.5463, -0.08108738, 0.5529586, -283660.13, 168988.63, 0.0, 10.002162, 9.997709 
1.7752965e+3, 2.6381442e+2, -187843.72, -582754.75, -3175.4172, -0.042706206, 0.58549064, -187818.19, 166852.33, 0.00000032366296, 10.0024, 9.997171 
1.7753299e+3, 2.7381167e+2, -16921.188, -431821.94, 22783.744, -0.2631491, 0.56223434, -15673.799, 241022.9, 0.00002512301, 10.002848, 9.997303 
1.775364e+3, 2.8380814e+2, 55183.55, -379845.9, -98593.22, -0.29128614, 0.5045328, 76485.234, 235216.03, 0.0002007502, 10.002774, 9.997052 
1.775399e+3, 2.9380348e+2, 67591.0, -305024.1, -114088.03, -0.011017987, 0.28807107, 99747.59, 160522.36, 0.0007396981, 10.002122, 9.997193 
1.7754325e+3, 3.0380094e+2, 145720.83, -141847.73, 26806.107, -0.017241925, 0.2884253, 148198.25, 148198.25, 0.0017576007, 10.001901, 9.99809 
1.7754675e+3, 3.1380326e+2, 225371.75, 306.36484, 140905.39, -0.21248701, 0.645154, 293166.34, 293166.34, 0.0031467185, 10.002021, 9.998978 
1.7848048e+3, 1.2378972e+2, -1870117.9, -1809127.9, -100468.33, 0.0039036323, 0.46187985, -1734628.4, -7720.2563, 0.08696164, 9.998979, 9.999809 
1.784844e+3, 1.3379055e+2, -1800468.6, -1829022.5, 64866.285, 0.24768545, 0.6494332, -1748326.6, -119420.65, 0.057701517, 9.999277, 9.998859 
1.7848778e+3, 1.437886e+2, -1766030.1, -1656758.1, 34728.094, 0.014823716, 0.5360625, -1646655.1, -115727.58, 0.030258754, 9.998352, 9.999836 
1.7849134e+3, 1.5378886e+2, -1684996.9, -1536013.5, 52205.727, 0.016683929, 0.530443, -1519541.3, -86618.63, 0.0109521225, 9.998114, 10.000097 
1.7849486e+3, 1.6378872e+2, -1538667.8, -1385627.9, 2421.7378, 0.04849826, 0.5088011, -1385589.6, -50668.727, 0.0020959692, 9.998306, 10.000362 
1.7849834e+3, 1.7378722e+2, -1273209.8, -1182776.9, -75485.55, 0.13020386, 0.27798334, -1140001.3, 96930.8, 0.000105867584, 9.9993725, 10.00056 
1.7850178e+3, 1.8378732e+2, -1202841.3, -1239297.9, -52681.668, 0.13130572, 0.30584052, -1165323.5, -26391.256, 0.0000000562377, 9.9997835, 9.999316 
1.7850518e+3, 1.9379058e+2, -1152923.8, -1154470.5, -32058.98, -0.0073094824, 0.67550296, -1121628.9, -80719.93, 0.0, 9.999415, 9.999392 
1.7850864e+3, 2.0379113e+2, -1111110.3, -1153816.9, -38727.863, -0.044899676, 0.8330999, -1088239.0, -145331.48, 0.0, 9.999324, 9.998777 
1.7851222e+3, 2.1378744e+2, -929589.75, -1004102.94, -40499.63, 0.0774032, 0.55844027, -911816.56, -66876.5, 0.0, 9.999862, 9.998866 
1.7851572e+3, 2.2378516e+2, -722893.75, -837683.5, 34841.43, 0.055162963, 0.45600694, -713146.3, 33813.867, 0.0, 10.000532, 9.999018 
1.7851909e+3, 2.3378545e+2, -473692.97, -637952.25, 21369.389, -0.20409623, 0.5402663, -470958.44, 177999.06, 0.0, 10.001461, 9.999258 
1.785226e+3, 2.4378437e+2, -407092.34, -779659.1, -19789.127, -0.27793127, 0.6111392, -406044.2, 144924.31, 0.0, 10.00221, 9.997251 
1.7852631e+3, 2.5378135e+2, -238316.06, -662982.75, -47536.414, -0.08361627, 0.5747947, -233059.98, 219939.13, 0.0, 10.002771, 9.997104 
1.785299e+3, 2.6377863e+2, -137256.75, -505394.78, -41706.098, -0.017985988, 0.5840848, -132591.03, 222434.4, 0.00000018370703, 10.002508, 9.997656 
1.7853323e+3, 2.7377644e+2, -236091.14, -476414.56, -19170.057, -0.18908377, 0.55564207, -234571.6, 22472.943, 0.000020759246, 10.0010395, 9.997884 
1.7853664e+3, 2.837735e+2, -164487.52, -460374.6, -28761.723, -0.22745802, 0.51793736, -161717.67, -2645.7073, 0.00019246842, 10.001186, 9.997243 
1.7854017e+3, 2.9376984e+2, 364558.56, -147952.19, -58362.395, -0.04147941, 0.3867586, 371120.6, 432228.7, 0.0007361142, 10.004125, 9.997295 
1.785436e+3, 3.0376714e+2, 545727.06, 30452.906, 2560.0422, 0.009882961, 0.37880364, 545739.8, 545739.8, 0.0017421101, 10.00474, 9.997905 
1.7854704e+3, 3.1376863e+2, 83008.43, -100648.24, 1927.3901, -0.04736019, 0.6848316, 83028.65, 83028.65, 0.0030644136, 10.001132, 9.998727 
1.7948037e+3, 1.2375592e+2, -1907647.8, -1908074.0, 102908.17, -0.05648903, 0.6198398, -1804952.5, -77710.23, 0.09190124, 9.999063, 9.999096 
1.7948435e+3, 1.3375491e+2, -1771647.8, -1784460.6, 40487.69, 0.25012946, 0.60202724, -1737062.8, -107809.39, 0.06119029, 9.999328, 9.999148 
1.7948756e+3, 1.4375044e+2, -1719938.1, -1566509.1, -2244.0686, -0.07233792, 0.19473124, -1566476.3, -35178.902, 0.03230053, 9.998376, 10.000446 
1.7949115e+3, 1.5375519e+2, -1643813.8, -1441500.9, 53218.67, 0.001722459, 0.5725348, -1428355.6, 4894.9893, 0.011841973, 9.99808, 10.00076 
1.7949468e+3, 1.6375707e+2, -1626745.5, -1581152.0, 25000.99, 0.013829624, 0.7749592, -1570114.8, -234881.64, 0.0023264778, 9.998348, 9.999007 
1.7949817e+3, 1.7375377e+2, -1381327.3, -1413901.8, -30402.826, 0.006342439, 0.52745134, -1363123.9, -125856.055, 0.00012352158, 9.9993925, 9.99897 
1.7950162e+3, 1.8375222e+2, -1175933.4, -1192566.4, -71419.56, -0.02786899, 0.4638289, -1112347.8, 26937.674, 0.000000085167756, 9.9998255, 9.999616 
1.7950504e+3, 1.9375382e+2, -1126405.1, -1085975.8, -39576.938, -0.107123256, 0.61798525, -1061749.9, -20477.826, 0.0, 9.999355, 9.999892 
1.7950854e+3, 2.0375387e+2, -1099875.9, -1110206.1, -33881.234, -0.1024295, 0.68235415, -1070768.3, -127495.96, 0.0, 9.99923, 9.999123 
1.7951219e+3, 2.1375158e+2, -920505.8, -963434.06, -10335.409, 0.066977106, 0.51398444, -918147.06, -72854.25, 0.0, 9.999759, 9.9992 
1.7951582e+3, 2.2375044e+2, -759281.8, -878577.3, 59269.727, 0.09360984, 0.5145421, -734841.8, 12461.178, 0.0, 10.000381, 9.99881 
1.7951934e+3, 2.337515e+2, -519438.34, -692081.25, 66739.266, -0.11008131, 0.7040653, -496647.38, 152645.5, 0.0, 10.0012865, 9.998968 
1.795229e+3, 2.4375029e+2, -468153.72, -854592.6, -3509.8713, -0.20833725, 0.7926407, -468121.84, 83184.48, 0.0, 10.001981, 9.99685 
1.7952657e+3, 2.537455e+2, -299205.56, -736987.1, -11575.348, -0.11211711, 0.61952925, -298899.7, 154456.73, 0.0, 10.002551, 9.996699 
1.7953014e+3, 2.637419e+2, -118909.81, -417128.38, -92102.914, -0.049678266, 0.5347359, -92757.8, 262634.0, 0.00000013255313, 10.002287, 9.998371 
1.7953344e+3, 2.7374056e+2, -187023.53, -344027.22, -60983.81, -0.098144986, 0.49636912, -166119.33, 91280.72, 0.0000188634, 10.000921, 9.998844 
1.7953685e+3, 2.8373963e+2, -164310.72, -430891.28, 48274.83, -0.15564932, 0.5883321, -155837.97, 3570.005, 0.00018763817, 10.001049, 9.997518 
1.795405e+3, 2.937396e+2, 319722.9, -146354.19, 78040.04, -0.13445574, 0.8029951, 332442.8, 393855.53, 0.0007283647, 10.003726, 9.997493 
1.7954399e+3, 3.0373693e+2, 415770.1, -130502.37, -111706.11, -0.09398799, 0.8314916, 437729.88, 437729.88, 0.0016996661, 10.004253, 9.997041 
1.7954718e+3, 3.1373218e+2, 25207.633, -154645.66, -95819.2, -0.070577, 0.5856181, 66689.21, 66689.21, 0.0029167118, 10.000883, 9.998457 
1.804803e+3, 1.23719126e+2, -2093604.1, -1931769.9, 164292.56, 0.050404787, 0.5781958, -1829548.8, -101944.016, 0.097200245, 9.997518, 9.999676 
1.8048415e+3, 1.3371982e+2, -1948818.5, -1758955.6, -7092.895, 0.19959676, 0.6334816, -1758691.1, -129094.51, 0.06490086, 9.997627, 10.000148 
1.8048735e+3, 1.4371538e+2, -1804607.8, -1606191.0, 10298.78, -0.07306187, 0.16815627, -1605657.9, -74018.69, 0.034457777, 9.99779, 10.000448 
1.8049105e+3, 1.5371981e+2, -1560385.0, -1422494.4, -13358.835, 0.07850623, 0.5324395, -1421212.1, 12384.712, 0.0127833225, 9.998747, 10.000563 
1.8049462e+3, 1.6372186e+2, -1535198.9, -1560621.8, -16224.408, 0.08841475, 0.7734871, -1527299.4, -191719.73, 0.0025744103, 9.999103, 9.998782 
1.8049806e+3, 1.737198e+2, -1489628.9, -1483060.4, 11079.99, -0.0018065803, 0.6703753, -1474788.1, -237183.02, 0.00014305822, 9.998753, 9.998793 
1.8050152e+3, 1.8371828e+2, -1363795.4, -1295620.0, 18886.951, -0.041398857, 0.6236645, -1290737.4, -151114.56, 0.00000010953618, 9.998572, 9.999514 
1.8050498e+3, 1.9371796e+2, -1207954.0, -1132921.6, -14667.117, -0.059957735, 0.5895285, -1130156.5, -88531.375, 0.0, 9.998831, 9.999818 
1.8050851e+3, 2.037174e+2, -1056515.6, -1062389.6, 15045.172, -0.04729778, 0.5865486, -1044123.44, -100494.1, 0.0, 9.9994135, 9.999368 
1.8051219e+3, 2.137166e+2, -781621.8, -861077.44, 21104.025, 0.042250004, 0.5400487, -776364.3, 69270.86, 0.0, 10.00057, 9.999507 
1.8051586e+3, 2.2371592e+2, -664998.9, -874349.44, 82530.0, 0.06465253, 0.58318305, -636377.06, 111264.23, 0.0, 10.001222, 9.9984255 
1.805195e+3, 2.3371558e+2, -572697.0, -776620.2, 52578.793, -0.04741591, 0.6852551, -559938.56, 89707.28, 0.0, 10.001176, 9.998439 
1.8052313e+3, 2.4371397e+2, -575645.25, -835108.5, 6917.1636, -0.11667175, 0.73749894, -575460.94, -23797.773, 0.0, 10.000915, 9.997513 
1.805267e+3, 2.537105e+2, -571113.4, -782026.0, 60238.016, -0.10148119, 0.61960506, -555121.56, -101421.94, 0.0, 10.000281, 9.997508 
1.8053025e+3, 2.6370773e+2, -343369.44, -509699.06, 45899.016, -0.07074733, 0.56600195, -331544.22, 24182.479, 0.00000007008213, 10.000689, 9.998502 
1.8053362e+3, 2.7370632e+2, 98209.99, -210227.67, -10037.302, -0.09641439, 0.52345175, 98536.28, 356272.53, 0.000018211349, 10.002895, 9.998819 
1.8053707e+3, 2.837054e+2, 179313.33, -224275.31, 70407.23, -0.13166311, 0.60489684, 191243.4, 350987.53, 0.0001838329, 10.003217, 9.997898 
1.8054074e+3, 2.9370552e+2, -97272.82, -307354.84, 83445.68, -0.09868824, 0.7993398, -68161.695, -6414.782, 0.0007150245, 10.000657, 9.997878 
1.8054426e+3, 3.0370325e+2, -110571.805, -387662.88, -25966.156, -0.038114507, 0.8408186, -108159.52, -108159.52, 0.0016462572, 10.000663, 9.996993 
1.8054743e+3, 3.1369865e+2, 529515.7, 83667.1, -50490.0, -0.06152347, 0.64155316, 535161.94, 535161.94, 0.0027749098, 10.004316, 9.998479 
1.8148017e+3, 1.2367968e+2, -1959697.3, -1660471.8, 97143.19, 0.123885475, 0.38476714, -1631700.8, 96291.45, 0.10291468, 9.997505, 10.0016165 
1.8148369e+3, 1.3368519e+2, -1823343.4, -1493700.0, -2425.8032, -0.03224072, 0.74048436, -1493682.1, 136254.55, 0.06887483, 9.997574, 10.002059 
1.8148714e+3, 1.4368358e+2, -1835105.0, -1680874.8, 24925.912, -0.08293423, 0.46836945, -1676946.4, -144994.83, 0.036753505, 9.997823, 9.999929 
1.8149103e+3, 1.5368268e+2, -1626312.5, -1571881.6, 32130.25, 0.15754616, 0.4010893, -1556989.8, -123027.62, 0.01378539, 9.998785, 9.999527 
1.8149462e+3, 1.6368307e+2, -1465733.1, -1428595.4, -36560.73, 0.15140305, 0.49623385, -1406158.3, -70197.1, 0.002842686, 9.999152, 9.999664 
1.8149799e+3, 1.7368525e+2, -1409607.3, -1321800.5, 5847.8667, 0.035651524, 0.7054352, -1321412.8, -83468.414, 0.00016504708, 9.998759, 9.999902 
1.8150143e+3, 1.836855e+2, -1391077.3, -1355184.1, 15542.769, 0.002817252, 0.7900989, -1349389.3, -209445.0, 0.00000012908751, 9.998584, 9.999101 
1.8150498e+3, 1.9368291e+2, -1252515.5, -1224569.5, 3475.258, 0.044132963, 0.5918101, -1224143.9, -182175.45, 0.0, 9.998822, 9.999197 
1.8150853e+3, 2.036815e+2, -1059381.6, -1051167.9, 46374.527, 0.019799208, 0.5355127, -1008718.7, -64738.684, 0.0, 9.999343, 9.999476 
1.8151213e+3, 2.1368226e+2, -789617.0, -842693.7, 73350.05, -0.067621805, 0.6218753, -738152.06, 107817.2, 0.0, 10.000418, 9.999705 
1.8151581e+3, 2.2368136e+2, -742280.1, -981564.0, 75032.35, -0.11534245, 0.65897125, -720698.7, 27278.357, 0.0, 10.000988, 9.997805 
1.8151958e+3, 2.336778e+2, -651718.3, -901072.44, 62520.57, -0.1009049, 0.5143517, -636920.6, 13093.744, 0.0, 10.001002, 9.99767 
1.8152323e+3, 2.4367559e+2, -499812.28, -633398.06, -20205.404, -0.11147949, 0.48531657, -496823.03, 55214.523, 0.0, 10.00072, 9.99899 
1.815267e+3, 2.5367606e+2, -455792.0, -512043.97, 45101.23, -0.13492838, 0.56925046, -430765.44, 23266.846, 0.0, 10.00015, 9.99942 
1.8153024e+3, 2.6367563e+2, -408226.63, -601242.06, 102139.94, -0.1743998, 0.6621027, -364212.8, -8177.0435, 0.0000000874347, 10.000496, 9.997969 
1.8153375e+3, 2.7367356e+2, -5380.2896, -358468.1, 87178.39, -0.26479927, 0.63558394, 14971.266, 273026.5, 0.00001648955, 10.002618, 9.997928 
1.8153729e+3, 2.8367102e+2, 156999.19, -206317.13, -15109.27, -0.27166823, 0.5982949, 157626.45, 317705.84, 0.00017253889, 10.002928, 9.998164 
1.8154085e+3, 2.9366827e+2, -72175.68, -234414.8, 3709.8481, -0.07455677, 0.4449789, -72090.89, -9984.867, 0.0006803272, 10.000562, 9.998423 
1.8154441e+3, 3.0366653e+2, -119224.2, -358069.84, 67663.9, 0.011494396, 0.49896798, -101387.37, -101387.37, 0.0015758212, 10.000472, 9.997286 
1.8154763e+3, 3.1366536e+2, 464800.72, 136113.53, 87554.875, -0.34704706, 0.60630405, 486668.5, 486668.5, 0.0026679242, 10.003587, 9.999153 
1.8247987e+3, 1.2364264e+2, -2230974.5, -1803297.6, 140775.08, 0.18843299, 0.3651481, -1761119.4, -32765.021, 0.10907774, 9.995713, 10.001427 
1.824834e+3, 1.3364987e+2, -1910980.1, -1431066.0, 2572.653, -0.0076493598, 0.7978812, -1431052.3, 199230.77, 0.07313931, 9.996463, 10.003072 
1.8248697e+3, 1.4364904e+2, -1870813.8, -1706212.6, 38188.234, -0.029464237, 0.5452085, -1697784.4, -165493.55, 0.039204508, 9.997642, 9.99983 
1.8249089e+3, 1.5364687e+2, -1702294.8, -1652749.3, 64803.473, 0.16771843, 0.38634205, -1608144.9, -173830.47, 0.014855209, 9.998472, 9.999118 
1.8249448e+3, 1.636467e+2, -1505863.5, -1404416.3, -17632.04, 0.12915833, 0.43318245, -1401439.1, -65120.496, 0.0031336718, 9.998677, 10.000059 
1.8249786e+3, 1.7364985e+2, -1455315.9, -1280078.1, -42234.523, 0.064461276, 0.683032, -1270430.3, -32140.0, 0.00019006866, 9.998171, 10.000468 
1.8250135e+3, 1.8365045e+2, -1414463.5, -1399740.1, 17382.613, 0.058155145, 0.784783, -1388224.6, -247939.02, 0.00000015151502, 9.998575, 9.9987955 
1.8250492e+3, 1.9364719e+2, -1012090.8, -1155610.5, 6910.658, 0.017897863, 0.5640965, -1011758.8, 30558.043, 0.0, 10.0007, 9.998755 
1.8250851e+3, 2.036453e+2, -789366.44, -979672.75, 5405.1895, -0.028648114, 0.50831574, -789213.06, 155121.22, 0.0, 10.001454, 9.998939 
1.8251215e+3, 2.1364586e+2, -897816.25, -955502.3, -47145.01, -0.060907498, 0.6287668, -871391.06, -25063.32, 0.0, 9.999941, 9.999153 
1.8251581e+3, 2.2364496e+2, -959738.7, -1027185.44, -643.1417, -0.09060485, 0.6736582, -959732.56, -211396.53, 0.0, 9.999217, 9.998356 
1.8251957e+3, 2.3364179e+2, -766848.1, -869766.25, 75629.39, -0.14392082, 0.49336025, -726831.25, -76464.32, 0.0, 9.999837, 9.998446 
1.8252324e+3, 2.4363993e+2, -537905.5, -634124.75, 19930.668, -0.15519743, 0.44852293, -533940.5, 18444.709, 0.0, 10.00039, 9.999135 
1.825268e+3, 2.5364062e+2, -361393.38, -461912.63, -63869.418, -0.09406865, 0.5541309, -330379.78, 123998.86, 0.0, 10.000786, 9.999446 
1.8253036e+3, 2.6364043e+2, -335226.38, -530940.6, -9225.334, -0.09643237, 0.656029, -334792.47, 21587.637, 0.00000011582431, 10.00086, 9.99827 
1.8253392e+3, 2.736385e+2, -289860.75, -465568.53, 29639.855, -0.23337483, 0.61711, -284995.56, -26598.379, 0.000015405387, 10.00052, 9.998211 
1.8253748e+3, 2.836358e+2, -158045.08, -367613.1, -51268.31, -0.23832479, 0.5535786, -146175.2, 14247.02, 0.00016027999, 10.00082, 9.998067 
1.8254103e+3, 2.9363272e+2, 156919.03, -149038.81, -115883.74, -0.02585815, 0.3928721, 195855.69, 258308.39, 0.00063770293, 10.002247, 9.998199 
1.8254459e+3, 3.036312e+2, 262284.84, -147632.61, 6108.3677, 0.040377747, 0.46607837, 262375.84, 262375.84, 0.0015057598, 10.002961, 9.997537 
1.8254794e+3, 3.1362993e+2, 290005.97, 46143.223, -86657.38, -0.28591618, 0.547468, 317663.22, 317663.22, 0.0026074152, 10.002318, 9.999193 
1.8347932e+3, 1.236073e+2, -2424474.0, -2207227.0, 48742.535, 0.019195715, 0.42251232, -2196792.3, -468094.34, 0.11569034, 9.995711, 9.998665 
1.8348327e+3, 1.3361415e+2, -1900178.1, -1405677.9, 62134.973, 0.20388763, 0.8158099, -1397990.0, 232643.0, 0.07769921, 9.996443, 10.003274 
1.8348674e+3, 1.4361182e+2, -1849619.3, -1675156.0, 63763.51, -0.044413816, 0.3898286, -1654336.0, -121679.2, 0.04181763, 9.997693, 10.00002 
1.834906e+3, 1.5361238e+2, -1689295.5, -1629582.8, 104532.07, 0.013568598, 0.4882901, -1550726.9, -116072.88, 0.015997248, 9.998479, 9.999276 
1.8349417e+3, 1.6361286e+2, -1502110.9, -1404080.3, -44349.254, -0.07317618, 0.5932629, -1386994.4, -50343.67, 0.0034491862, 9.99871, 10.000047 
1.8349762e+3, 1.7361344e+2, -1452369.0, -1282414.6, -55577.277, 0.003839915, 0.5904815, -1265853.9, -27209.828, 0.00021871291, 9.998197, 10.000445 
1.8350117e+3, 1.836129e+2, -1430586.1, -1436337.1, 73753.64, 0.007504014, 0.58695924, -1359652.0, -219002.92, 0.00000018976193, 9.998593, 9.998532 
1.8350478e+3, 1.9361062e+2, -1044799.44, -1212005.6, 95468.67, -0.21642184, 0.4990678, -1001502.0, 41169.984, 0.0, 10.000647, 9.998395 
1.8350843e+3, 2.036087e+2, -880312.1, -1146073.8, -43502.902, -0.28331506, 0.50470525, -873372.3, 71320.7, 0.0, 10.001358, 9.997842 
1.8351217e+3, 2.1360755e+2, -1001015.8, -1142815.0, -97224.74, -0.037014104, 0.5763381, -951585.0, -104876.1, 0.0, 9.999825, 9.997922 
1.8351588e+3, 2.2360682e+2, -868667.94, -800303.9, 5486.805, 0.019569283, 0.6427021, -799866.3, -51150.023, 0.0, 9.999052, 9.999995 
1.8351945e+3, 2.3360713e+2, -639497.2, -568361.1, 110709.85, -0.24914016, 0.59866303, -487646.1, 163060.88, 0.0, 9.999677, 10.000597 
1.835231e+3, 2.4360652e+2, -643720.0, -802672.94, 25570.99, -0.32913443, 0.6006461, -639707.7, -86996.86, 0.0, 10.00017, 9.998088 
1.835269e+3, 2.536045e+2, -500112.97, -707656.56, -35157.91, -0.07160886, 0.5907887, -494318.97, -39583.17, 0.0, 10.000614, 9.997841 
1.8353058e+3, 2.6360273e+2, -301034.22, -430981.34, -24538.1, 0.031519435, 0.5967027, -296555.06, 60198.79, 0.000000090536304, 10.000723, 9.999028 
1.835341e+3, 2.7360138e+2, -216884.2, -292665.28, 31998.316, -0.12693557, 0.49457133, -205180.53, 53579.387, 0.00001528185, 10.000425, 9.999444 
1.8353765e+3, 2.8359973e+2, -217429.05, -460434.9, -25334.943, -0.17302063, 0.4847725, -214815.83, -54042.62, 0.00015297614, 10.00068, 9.997501 
1.8354125e+3, 2.9359844e+2, 67898.01, -276810.63, -43124.836, -0.05278908, 0.586376, 73211.25, 136001.64, 0.0006056756, 10.002011, 9.997429 
1.8354478e+3, 3.0359706e+2, 204312.05, -189344.53, -17449.012, -0.08663213, 0.7239595, 205083.97, 205083.97, 0.0014547887, 10.002624, 9.997412 
1.8354821e+3, 3.1359333e+2, 180044.83, -92114.31, -109018.45, -0.27858692, 0.54584694, 218328.88, 218328.88, 0.002582537, 10.001962, 9.998397 
1.8447886e+3, 1.2357039e+2, -2334914.3, -2250249.3, -3660.0703, -0.037902392, 0.4369679, -2250091.3, -521030.6, 0.12272786, 9.996721, 9.997883 
1.8448305e+3, 1.3357633e+2, -1805522.1, -1395664.0, -20158.773, 0.31572318, 0.7764178, -1394674.9, 236331.47, 0.08254445, 9.997277, 10.002945 
1.844865e+3, 1.4357428e+2, -1859968.8, -1659128.5, -46313.297, -0.040462717, 0.3954868, -1648963.3, -115934.875, 0.04459436, 9.997518, 10.000226 
1.8449037e+3, 1.5357617e+2, -1826586.9, -1651056.6, -22335.06, 0.005996941, 0.58932966, -1648259.3, -213245.75, 0.017215712, 9.997348, 9.999676 
1.8449397e+3, 1.6357705e+2, -1660049.6, -1475486.3, -135369.97, -0.06945307, 0.7117788, -1403935.9, -66930.0, 0.0037916328, 9.9976225, 10.000081 
1.8449743e+3, 1.735763e+2, -1331959.6, -1225352.9, -166712.61, -0.04950688, 0.5795909, -1103629.6, 135380.34, 0.00025177147, 9.999047, 10.000424 
1.8450102e+3, 1.8357536e+2, -1246313.6, -1332558.6, 6337.974, -0.050319638, 0.5351137, -1245850.4, -104832.64, 0.00000025167606, 9.99979, 9.998669 
1.8450479e+3, 1.9357438e+2, -1191503.8, -1263985.4, 48855.285, -0.18778995, 0.5589323, -1166915.0, -123885.38, 0.0, 9.999552, 9.998568 
1.8450852e+3, 2.03573e+2, -1142171.0, -1259439.4, -60817.176, -0.21299866, 0.6052577, -1116326.3, -171280.3, 0.0, 9.999498, 9.997969 
1.8451215e+3, 2.1357115e+2, -968346.6, -1110439.9, -41478.953, -0.032155085, 0.5969865, -957124.6, -110057.3, 0.0, 9.999987, 9.99807 
1.8451579e+3, 2.2357026e+2, -708314.44, -714176.7, 110008.59, 0.0051844763, 0.63142896, -601197.94, 147878.06, 0.0, 10.000136, 10.00005 
1.8451944e+3, 2.3357101e+2, -622224.94, -557403.2, 50695.395, -0.22877117, 0.63012147, -529643.56, 121419.01, 0.0, 9.99979, 10.000606 
1.8452315e+3, 2.4357063e+2, -672393.4, -807527.3, -48696.48, -0.27305916, 0.64912355, -656673.9, -103609.55, 0.0, 9.999943, 9.9981575 
1.8452702e+3, 2.5356844e+2, -438615.13, -671108.06, -18279.059, -0.015121886, 0.61800355, -437186.78, 17903.645, 0.0, 10.0009985, 9.997908 
1.8453076e+3, 2.6356652e+2, -160024.31, -361194.5, 33596.633, 0.09114493, 0.60171777, -154561.81, 202548.03, 0.00000009817215, 10.001693, 9.999035 
1.8453425e+3, 2.7356508e+2, -17590.541, -200498.06, -15772.246, -0.07201531, 0.49757367, -16240.454, 242876.33, 0.000013983738, 10.001818, 9.999399 
1.8453783e+3, 2.8356344e+2, -49583.83, -392072.13, -63868.4, -0.11351341, 0.49733722, -38061.1, 123068.98, 0.00014295103, 10.0019045, 9.997377 
1.8454145e+3, 2.9356226e+2, 64087.047, -288973.28, -77537.42, -0.033005334, 0.62771314, 80364.95, 143510.64, 0.0005730865, 10.0020275, 9.99735 
1.8454497e+3, 3.0356032e+2, 202084.02, -177213.42, 10485.379, -0.14090657, 0.70218366, 202373.66, 202373.66, 0.0014009103, 10.002555, 9.997536 
1.8454859e+3, 3.1355578e+2, 442720.53, -13855.014, -165014.5, -0.19760184, 0.45173222, 496115.38, 496115.38, 0.0025362682, 10.00397, 9.997969 
1.8547855e+3, 1.23532906e+2, -2207829.8, -2029294.9, 51749.57, -0.069950104, 0.49254766, -2015379.5, -285946.22, 0.13014582, 9.996876, 9.999333 
1.8548273e+3, 1.3353628e+2, -1877954.1, -1537526.1, 968.95325, 0.24418359, 0.65489703, -1537523.4, 93881.18, 0.08765755, 9.997284, 10.001885 
1.8548617e+3, 1.4353646e+2, -1840844.8, -1625887.4, -59580.34, -0.13297196, 0.5557568, -1610478.0, -77072.38, 0.04753598, 9.997542, 10.000445 
1.8549016e+3, 1.5353817e+2, -1781004.4, -1565253.5, -22636.78, 0.04966859, 0.6782016, -1562904.0, -127510.125, 0.01851746, 9.997376, 10.000257 
1.8549384e+3, 1.6353914e+2, -1649163.1, -1464082.5, -103144.56, 0.022922145, 0.7746877, -1418049.8, -80664.25, 0.0041650403, 9.997667, 10.000136 
1.8549721e+3, 1.7353831e+2, -1337197.4, -1239660.1, -103578.82, -0.1749199, 0.6409915, -1173943.1, 65445.727, 0.00029041685, 9.999051, 10.000328 
1.8550086e+3, 1.835378e+2, -1205076.4, -1252381.6, -6104.361, -0.21052825, 0.6209438, -1204301.3, -62909.03, 0.0000003514084, 9.999816, 9.999207 
1.8550496e+3, 1.9353841e+2, -1153310.8, -1174231.1, 44656.62, 0.0058719027, 0.74243504, -1117905.6, -74515.61, 0.0, 9.999504, 9.9992075 
1.8550877e+3, 2.0353813e+2, -1063917.9, -1077112.6, -55611.266, 0.07071188, 0.80895555, -1014514.06, -69120.47, 0.0, 9.999413, 9.999263 
1.8551208e+3, 2.135365e+2, -887893.1, -912575.06, -15849.89, -0.108474895, 0.67986083, -880146.3, -32740.93, 0.0, 9.999851, 9.9994955 
1.8551561e+3, 2.2353494e+2, -831762.1, -930144.5, 91274.08, -0.21304037, 0.62526107, -777267.56, -27849.326, 0.0, 9.999958, 9.998658 
1.8551946e+3, 2.3353364e+2, -775880.56, -846884.7, 48603.117, -0.18276371, 0.60507154, -751194.1, -99762.34, 0.0, 9.999659, 9.998686 
1.8552332e+3, 2.4353263e+2, -628703.06, -678357.5, -24421.086, -0.11659478, 0.6327149, -618705.3, -65263.41, 0.0, 9.999774, 9.999127 
1.8552715e+3, 2.535324e+2, -359153.06, -460784.6, 31051.035, -0.0015716641, 0.6496047, -350417.1, 105026.375, 0.0, 10.000812, 9.999437 
1.8553086e+3, 2.6353154e+2, -235860.95, -470305.97, 30437.918, 0.005962916, 0.6772853, -231973.66, 125477.47, 0.00000008466028, 10.001482, 9.99839 
1.8553437e+3, 2.735295e+2, -120763.28, -367602.47, 6065.879, -0.14161755, 0.61227286, -120614.31, 138854.86, 0.000011476472, 10.00162, 9.998346 
1.8553798e+3, 2.8352705e+2, -81296.195, -413430.28, -70427.266, -0.16951926, 0.5965667, -66979.586, 94512.125, 0.00012752597, 10.001701, 9.997335 
1.8554161e+3, 2.9352444e+2, 63809.12, -251282.95, -53112.5, -0.08148526, 0.5607887, 72520.99, 136037.0, 0.0005311744, 10.001859, 9.997692 
1.855451e+3, 3.0352122e+2, 170974.58, -178355.95, 41691.363, -0.28549698, 0.47374198, 175881.38, 175881.38, 0.0013265744, 10.002286, 9.997655 
1.855491e+3, 3.1351897e+2, 341555.9, -77102.88, -69275.984, -0.114116676, 0.4612372, 352721.3, 352721.3, 0.0024317899, 10.003366, 9.997814 
1.8647829e+3, 1.23496205e+2, -2195303.3, -1919686.0, 55591.41, -0.0018717995, 0.65598124, -1908895.8, -179096.17, 0.1378835, 9.996526, 10.000244 
1.8648238e+3, 1.3349709e+2, -1924217.5, -1560438.3, 60981.957, 0.20343743, 0.553427, -1550487.8, 81304.77, 0.09301642, 9.9969635, 10.001875 
1.8648595e+3, 1.434998e+2, -1877914.9, -1632542.1, 60759.492, -0.08152967, 0.703469, -1618321.0, -84553.41, 0.050644647, 9.997266, 10.000516 
1.8648994e+3, 1.5350069e+2, -1719063.0, -1519532.9, 39530.152, 0.08739679, 0.7308057, -1511986.8, -76223.06, 0.01991141, 9.997751, 10.000378 
1.864937e+3, 1.6350126e+2, -1579945.8, -1412807.8, -15386.686, 0.0871298, 0.77196157, -1411403.0, -73643.93, 0.0045744055, 9.998069, 10.000289 
1.8649714e+3, 1.7350082e+2, -1447060.0, -1269759.1, -14710.871, -0.1147869, 0.6574657, -1268546.9, -28789.025, 0.0003360051, 9.998214, 10.00051 
1.865008e+3, 1.835005e+2, -1408351.1, -1351699.5, 75421.75, -0.16519652, 0.6458658, -1299459.9, -157700.77, 0.00000050835786, 9.998426, 9.999195 
1.8650487e+3, 1.9350103e+2, -1215489.9, -1207133.9, 58605.74, 0.0005940631, 0.7597599, -1152557.4, -108798.46, 0.0, 9.999093, 9.999181 
1.8650869e+3, 2.035009e+2, -1027180.75, -1011876.5, -75206.08, 0.06553035, 0.82328963, -943934.25, 1826.726, 0.0, 9.99947, 9.999678 
1.865121e+3, 2.1349972e+2, -908757.6, -870270.3, -122654.61, -0.061746933, 0.69268155, -765358.94, 82407.05, 0.0, 9.9994755, 9.999969 
1.8651566e+3, 2.2349814e+2, -897935.5, -1004799.5, -9264.405, -0.12942924, 0.625978, -897138.3, -147359.97, 0.0, 9.999687, 9.99828 
1.8651952e+3, 2.3349611e+2, -707916.75, -873587.2, 24922.594, -0.112075776, 0.58885884, -704248.7, -52447.902, 0.0, 10.000381, 9.998162 
1.8652336e+3, 2.4349488e+2, -466130.7, -559310.7, 13219.2, -0.080669165, 0.6097901, -464291.63, 89522.016, 0.0, 10.000717, 9.999488 
1.8652712e+3, 2.534952e+2, -378236.6, -417189.4, -16174.304, -0.06857784, 0.63140845, -372396.25, 83411.57, 0.0, 10.00045, 9.999913 
1.8653084e+3, 2.6349464e+2, -359146.2, -526973.4, -9387.961, -0.09076519, 0.66230786, -358622.7, -810.75085, 0.000000065173005, 10.00063, 9.998405 
1.8653452e+3, 2.7349272e+2, -118337.414, -374758.9, -1961.5757, -0.14427774, 0.6186878, -118322.414, 141508.63, 0.000009433609, 10.001675, 9.99827 
1.8653826e+3, 2.834906e+2, 57164.707, -311274.3, -11180.543, -0.08643882, 0.6266847, 57503.676, 219354.7, 0.00011541126, 10.002503, 9.997641 
1.8654194e+3, 2.9348835e+2, 257666.81, -111804.51, -16639.785, 0.014119124, 0.5886822, 258414.7, 322284.88, 0.00049571646, 10.002999, 9.998082 
1.8654537e+3, 3.0348477e+2, 244993.55, -167888.66, 90786.89, -0.2547291, 0.45203185, 264074.47, 264074.47, 0.0012519725, 10.002884, 9.9974375 
1.865494e+3, 3.134829e+2, 170297.88, -154966.27, -69461.836, -0.058937237, 0.5008146, 184510.77, 184510.77, 0.0022944333, 10.002117, 9.997885 
1.8747796e+3, 1.2346025e+2, -2184674.8, -1912998.4, -66319.38, -0.020213298, 0.90062606, -1897673.5, -167513.67, 0.14588223, 9.996587, 10.000266 
1.8748198e+3, 1.3345891e+2, -1842324.1, -1409593.9, 82188.42, 0.0877763, 0.46733564, -1394509.6, 237659.14, 0.0986057, 9.996973, 10.003028 
1.8748578e+3, 1.4346445e+2, -1877180.1, -1643538.1, 69359.81, 0.004043115, 0.836431, -1624499.1, -90386.914, 0.053927336, 9.997312, 10.00042 
1.8748969e+3, 1.5346378e+2, -1740043.0, -1570351.9, 70787.6, 0.029809846, 0.7420372, -1544700.1, -108577.38, 0.021407956, 9.997771, 10.000024 
1.8749344e+3, 1.6346341e+2, -1552557.1, -1366107.9, -18356.951, 0.016452646, 0.6962611, -1364317.6, -26190.93, 0.0050250688, 9.998113, 10.00059 
1.8749712e+3, 1.7346379e+2, -1420062.6, -1214533.8, -3110.9248, 0.037339672, 0.6278165, -1214486.6, 25630.314, 0.00038988978, 9.998206, 10.0009 
1.875008e+3, 1.8346341e+2, -1437130.9, -1416663.6, 84889.46, -0.033462018, 0.6066765, -1341393.3, -199274.25, 0.000000733184, 9.998452, 9.998738 
1.8750452e+3, 1.9346224e+2, -1266829.0, -1302936.9, 91571.06, -0.27650046, 0.6152514, -1191549.0, -147412.5, 0.0, 9.999048, 9.998548 
1.8750827e+3, 2.0346127e+2, -1063419.6, -1075960.6, -83535.9, -0.31948775, 0.64901036, -985919.25, -39770.742, 0.0, 9.999415, 9.999267 
1.8751211e+3, 2.1346095e+2, -956161.8, -941532.56, -113720.086, 0.0066118618, 0.6458852, -834892.1, 13255.504, 0.0, 9.999354, 9.99954 
1.875159e+3, 2.2346003e+2, -886320.8, -944842.25, 3236.0378, 0.12843707, 0.65124166, -886142.44, -135988.3, 0.0, 9.999523, 9.998775 
1.8751958e+3, 2.3345837e+2, -684136.4, -783775.94, 61730.246, -0.09918576, 0.58019626, -654630.0, -2459.0251, 0.0, 10.000207, 9.99886 
1.8752328e+3, 2.4345715e+2, -511468.25, -606809.8, 125.58611, -0.25144246, 0.56996757, -511468.1, 42714.465, 0.0, 10.000511, 9.999267 
1.8752697e+3, 2.5345686e+2, -429076.53, -482853.84, -13358.248, -0.29200765, 0.56704706, -425941.16, 30241.988, 0.0, 10.000282, 9.999543 
1.8753073e+3, 2.6345605e+2, -351904.13, -474873.28, 12468.476, -0.29730928, 0.57740426, -350652.6, 7537.084, 0.00000004605578, 10.000457, 9.998856 
1.8753468e+3, 2.7345484e+2, -100942.695, -294971.56, 50629.266, -0.18535094, 0.54310465, -88526.23, 171675.58, 0.000008319171, 10.001482, 9.998916 
1.8753861e+3, 2.8345403e+2, 66320.71, -239898.48, -4307.45, -0.012422612, 0.6166582, 66381.29, 228590.67, 0.00010877432, 10.002273, 9.998247 
1.8754238e+3, 2.934535e+2, 243947.36, -70142.36, 15991.603, 0.14208983, 0.6988989, 244759.45, 308972.44, 0.00047208564, 10.002705, 9.998512 
1.8754573e+3, 3.0345032e+2, 168663.36, -254119.92, 42267.4, -0.21799941, 0.60353446, 172847.6, 172847.6, 0.0011875593, 10.00258, 9.996989 
1.8754965e+3, 3.1344625e+2, 130566.8, -127202.16, 5733.697, -0.066114105, 0.47781485, 130694.27, 130694.27, 0.0021543317, 10.001669, 9.998286 
1.8847774e+3, 1.2342354e+2, -2039596.9, -1843040.0, 22882.787, 0.06991214, 0.9662534, -1840411.1, -109891.83, 0.15411249, 9.997564, 10.000278 
1.8848166e+3, 1.334212e+2, -1823261.3, -1500851.3, 20465.047, 0.06060121, 0.5127405, -1499557.5, 132982.11, 0.10442951, 9.997576, 10.00204 
1.8848562e+3, 1.4342521e+2, -1824721.8, -1576472.4, -63097.72, 0.11258593, 0.7768801, -1561355.3, -26857.225, 0.057399224, 9.997498, 10.000789 
1.8848942e+3, 1.534253e+2, -1736144.6, -1477159.6, 609.0602, 0.020841356, 0.6853741, -1477158.1, -40660.39, 0.023018045, 9.997432, 10.000814 
1.884932e+3, 1.6342556e+2, -1604631.9, -1386011.8, -11525.629, -0.011149443, 0.6535126, -1385405.8, -46911.727, 0.005521801, 9.997722, 10.000645 
1.8849702e+3, 1.7342632e+2, -1315144.0, -1173145.9, -44148.707, 0.08931809, 0.6279171, -1160538.8, 79943.44, 0.0004532519, 9.998955, 10.000832 
1.8850076e+3, 1.834261e+2, -1267472.5, -1333557.4, 46697.816, 0.049080882, 0.627425, -1243309.3, -100825.91, 0.0000010252129, 9.999611, 9.998747 
1.8850444e+3, 1.9342448e+2, -1194024.6, -1264009.9, 84891.555, -0.26603475, 0.5867291, -1137196.5, -92692.03, 0.0, 9.999528, 9.99858 
1.885082e+3, 2.0342323e+2, -1059705.9, -1120397.0, -43860.105, -0.3387194, 0.6069631, -1036717.06, -90197.33, 0.0, 9.999641, 9.998851 
1.8851212e+3, 2.1342288e+2, -831251.56, -932209.75, -99290.05, 0.013487231, 0.64883506, -770345.5, 78176.766, 0.0, 10.000442, 9.999072 
1.8851595e+3, 2.2342218e+2, -712486.2, -843817.9, 7176.2505, 0.17302474, 0.69583154, -712095.2, 38432.99, 0.0, 10.000658, 9.998909 
1.8851964e+3, 2.3342095e+2, -712166.56, -773964.0, 13422.248, -0.031910505, 0.64933604, -709377.2, -56837.83, 0.0, 9.999908, 9.999071 
1.8852335e+3, 2.4341978e+2, -645404.6, -686232.2, -35545.34, -0.17647964, 0.63771147, -624828.25, -70278.164, 0.0, 9.999666, 9.999123 
1.8852703e+3, 2.5341877e+2, -420580.7, -506712.34, -64348.99, -0.24422526, 0.5878907, -386216.2, 70342.69, 0.0, 10.000462, 9.999291 
1.8853085e+3, 2.6341775e+2, -239978.55, -372399.44, -1716.423, -0.23809502, 0.5743463, -239956.3, 118611.13, 0.000000017635879, 10.001032, 9.999274 
1.8853487e+3, 2.734173e+2, -78293.18, -219185.78, 12711.37, -0.100097805, 0.5602477, -77155.54, 183414.48, 0.000007223604, 10.001376, 9.999477 
1.8853888e+3, 2.8341684e+2, -22701.465, -282729.94, -44348.246, 0.07601534, 0.6374371, -15345.878, 147228.17, 0.00010058898, 10.001692, 9.99822 
1.885427e+3, 2.934159e+2, 127072.13, -159730.66, -110749.64, 0.22478579, 0.6951366, 164859.7, 229445.14, 0.0004432076, 10.002043, 9.9982195 
1.8854603e+3, 3.0341333e+2, 183820.44, -221878.6, -75945.92, -0.13951056, 0.67999405, 197571.27, 197571.27, 0.0011138514, 10.002553, 9.997243 
1.8854992e+3, 3.134102e+2, 496793.38, 201129.22, -65844.8, -0.028605014, 0.5978303, 510794.13, 510794.13, 0.0020095464, 10.00353, 9.999653 
1.8947752e+3, 1.2338427e+2, -2011790.3, -1822953.9, 51334.133, 0.025063561, 0.6344709, -1809901.1, -79006.37, 0.16258536, 9.997708, 10.000357 
1.894814e+3, 1.3338424e+2, -2060228.3, -1982641.4, 30060.28, 0.023157913, 0.7158741, -1972357.8, -339455.72, 0.110513955, 9.997579, 9.998641 
1.8948542e+3, 1.4338183e+2, -1758631.8, -1441527.3, -77767.23, 0.12595351, 0.50075006, -1423482.3, 111445.81, 0.06108175, 9.997492, 10.00176 
1.8948914e+3, 1.5338518e+2, -1604671.0, -1208509.9, 6157.2344, -0.024467451, 0.55208296, -1208414.3, 228475.66, 0.024752133, 9.997423, 10.002705 
1.894929e+3, 1.6338764e+2, -1602198.4, -1395177.0, 19202.342, -0.108744875, 0.63550746, -1393410.9, -54549.07, 0.0060684755, 9.99778, 10.000555 
1.894968e+3, 1.733884e+2, -1349879.5, -1243563.0, 10665.879, -0.03777808, 0.6564597, -1242503.5, -1649.9027, 0.0005270964, 9.998946, 10.000354 
1.8950069e+3, 1.833885e+2, -1225524.5, -1256338.0, 40938.734, -0.014280287, 0.69363034, -1197189.4, -54336.344, 0.0000013718216, 9.999654, 9.999253 
1.8950461e+3, 1.9338787e+2, -1154584.0, -1169613.4, 85765.08, -0.073857024, 0.683139, -1076005.0, -31143.545, 0.0, 9.999476, 9.999249 
1.8950841e+3, 2.0338684e+2, -1099098.8, -1190808.8, -28364.303, -0.11472586, 0.70685977, -1091035.1, -144161.27, 0.0, 9.999579, 9.9984045 
1.8951203e+3, 2.1338545e+2, -890927.6, -1031124.5, -61053.938, -0.1081218, 0.703085, -868067.06, -19176.672, 0.0, 10.000322, 9.998456 
1.8951577e+3, 2.2338428e+2, -755157.7, -892125.1, -21888.95, -0.07425031, 0.7483727, -751744.6, -841.4612, 0.0, 10.000483, 9.998664 
1.8951966e+3, 2.3338388e+2, -746776.5, -810647.25, -3341.741, -0.00742863, 0.7999568, -746602.2, -93696.41, 0.0, 9.999761, 9.998888 
1.8952352e+3, 2.4338287e+2, -684425.8, -730281.9, -25189.17, 0.01721082, 0.82533526, -673292.3, -118377.14, 0.0, 9.999493, 9.998912 
1.8952729e+3, 2.5338092e+2, -460260.75, -546973.25, -23212.455, -0.03151234, 0.70001704, -454437.9, 2497.2905, 0.0, 10.000281, 9.999103 
1.8953115e+3, 2.633796e+2, -241709.67, -333150.22, 2599.4841, -0.04127057, 0.6541742, -241635.83, 117310.73, 0.0000000071100716, 10.00084, 9.999639 
1.8953513e+3, 2.733799e+2, -72815.234, -158847.72, 37965.566, 0.007041441, 0.6660568, -58457.426, 202480.03, 0.0000064443307, 10.001174, 9.999985 
1.8953905e+3, 2.8337896e+2, -95641.97, -391792.5, -46060.344, 0.062133793, 0.6924868, -88643.58, 74301.586, 0.0000894982, 10.001491, 9.997575 
1.8954283e+3, 2.9337564e+2, 14526.699, -333611.47, -76809.47, 0.14448039, 0.5944328, 30719.91, 95705.5, 0.00040204384, 10.001775, 9.997159 
1.8954626e+3, 3.0337408e+2, 174734.72, -149427.06, -56870.387, -0.19195, 0.7237655, 184422.44, 184422.44, 0.0010229389, 10.00219, 9.997901 
1.895502e+3, 3.1337416e+2, 497781.56, 366917.2, 80390.11, -0.13959265, 0.8499111, 536002.4, 536002.4, 0.0018599513, 10.002889, 10.001082 
1.9047739e+3, 1.2334315e+2, -1843964.4, -1726185.4, -58568.58, 0.09826449, 0.42408323, -1702019.1, 29277.287, 0.1713416, 9.998805, 10.000516 
1.9048104e+3, 1.3334759e+2, -2071241.0, -1998492.3, -21315.83, -0.077761985, 0.9437804, -1992706.8, -359444.78, 0.11689223, 9.997585, 9.99851 
1.9048518e+3, 1.4334218e+2, -1912632.0, -1508333.4, 55853.01, 0.22228049, 0.44493434, -1500759.3, 34558.797, 0.06499328, 9.996401, 10.001803 
1.9048893e+3, 1.5334654e+2, -1560174.9, -1148085.9, 18021.678, 0.044881176, 0.5622523, -1147299.3, 289969.3, 0.026617203, 9.997537, 10.003085 
1.9049275e+3, 1.6334943e+2, -1513651.4, -1385844.5, -2517.9202, -0.05970371, 0.67995185, -1385794.9, -46559.297, 0.0066676727, 9.998529, 10.0002575 
1.904967e+3, 1.7334917e+2, -1279522.4, -1250701.6, -20575.99, -0.041225925, 0.63548356, -1239991.6, 1246.7694, 0.0006122247, 9.999617, 9.99997 
1.9050068e+3, 1.8334879e+2, -1172029.5, -1210920.6, -32626.67, -0.006112769, 0.63969564, -1153493.1, -10250.795, 0.0000017786746, 9.999944, 9.999425 
1.9050464e+3, 1.9334874e+2, -1170581.4, -1148859.1, -46928.156, 0.036065158, 0.66681796, -1111551.6, -66308.625, 0.0, 9.999246, 9.999508 
1.9050846e+3, 2.0334819e+2, -1154570.6, -1191944.3, -96082.31, 0.015568313, 0.7168923, -1075374.9, -128124.76, 0.0, 9.999115, 9.998607 
1.9051203e+3, 2.133469e+2, -883821.6, -1009744.56, -84395.125, -0.1304818, 0.70677584, -841489.75, 7777.1055, 0.0, 10.000302, 9.998608 
1.9051576e+3, 2.2334556e+2, -681782.6, -863536.9, -34408.77, -0.14042205, 0.7305555, -675486.6, 75794.88, 0.0, 10.001004, 9.998613 
1.9051978e+3, 2.3334455e+2, -592137.7, -748541.0, -37624.52, 0.07919286, 0.7304295, -583557.44, 69731.08, 0.0, 10.00087, 9.998782 
1.9052368e+3, 2.4334331e+2, -545238.0, -695117.5, -16946.75, 0.1793235, 0.7501944, -543345.75, 11954.414, 0.0, 10.000605, 9.998603 
1.9052738e+3, 2.5334165e+2, -481824.94, -594988.06, -44280.54, 0.031188874, 0.68756825, -466557.78, -9237.528, 0.0, 10.0002985, 9.998756 
1.9053121e+3, 2.6334065e+2, -313987.8, -364059.3, -1270.2936, -0.024590148, 0.6890181, -313955.6, 45374.59, 0.000000016068412, 10.00033, 9.999668 
1.9053529e+3, 2.733411e+2, -70307.75, -152957.69, -15787.441, 0.056543496, 0.71036285, -67394.77, 193923.61, 0.000006020835, 10.001141, 10.000052 
1.9053924e+3, 2.833398e+2, -57755.984, -357650.63, -78523.625, 0.09982007, 0.69197154, -38439.727, 124888.57, 0.00007835106, 10.001675, 9.997726 
1.9054295e+3, 2.9333577e+2, 41392.855, -300611.7, -82522.17, 0.08946376, 0.50784934, 60263.402, 125638.375, 0.00035541324, 10.001877, 9.997332 
1.905465e+3, 3.0333465e+2, 171318.22, -168544.47, 14807.57, -0.15296368, 0.67982304, 171962.16, 171962.16, 0.00092317257, 10.00225, 9.997743 
1.9055068e+3, 3.1333402e+2, 452839.97, 278292.16, 30054.268, 0.0803665, 0.76310974, 457869.88, 457869.88, 0.0017133809, 10.00279, 10.000562 
1.9147731e+3, 1.2330122e+2, -1845286.0, -1722025.1, 59899.813, 0.07902595, 0.45627406, -1697712.0, 34002.867, 0.18042894, 9.998793, 10.000544 
1.9148055e+3, 1.3331096e+2, -1843358.0, -1540823.4, -94760.42, -0.34446552, 1.1707627, -1513593.3, 120028.49, 0.12358676, 9.997597, 10.00175 
1.9148493e+3, 1.433062e+2, -1956197.0, -1614189.0, 67741.08, 0.28636292, 0.5975511, -1601260.4, -65592.07, 0.069141634, 9.996477, 10.001023 
1.9148879e+3, 1.533095e+2, -1644192.9, -1317488.9, 70535.13, 0.1344492, 0.72371656, -1302910.9, 134722.2, 0.028615344, 9.997533, 10.001896 
1.914927e+3, 1.6331108e+2, -1538075.5, -1450598.8, 26528.918, 0.026346225, 0.7971965, -1443182.3, -103567.57, 0.0073205116, 9.998591, 9.999781 
1.9149671e+3, 1.733087e+2, -1308110.6, -1305761.6, 25041.305, -0.005859214, 0.5799656, -1281867.3, -40231.957, 0.00070924795, 9.999602, 9.999597 
1.9150068e+3, 1.8330699e+2, -1174175.4, -1231537.6, -58996.785, -0.027898263, 0.48036274, -1137257.5, 6392.819, 0.0000023137907, 10.000005, 9.99926 
1.9150452e+3, 1.9330724e+2, -1186253.6, -1172081.1, -66067.72, -0.0069619548, 0.551856, -1112720.8, -67073.0, 0.0, 9.9992, 9.999374 
1.9150834e+3, 2.0330732e+2, -1114321.3, -1097825.6, -69755.01, -0.039633352, 0.642375, -1035832.5, -88184.59, 0.0, 9.999057, 9.999283 
1.9151206e+3, 2.1330723e+2, -842532.75, -895392.75, -30868.018, -0.14902972, 0.66992056, -828325.56, 21325.994, 0.0, 10.000172, 9.999455 
1.9151588e+3, 2.2330612e+2, -702100.9, -858066.1, -38336.883, -0.12896919, 0.6581003, -693187.0, 58475.723, 0.0, 10.000795, 9.9987545 
1.9151993e+3, 2.3330328e+2, -618550.94, -759582.4, -32005.191, 0.14619379, 0.47538358, -611627.6, 42057.66, 0.0, 10.000689, 9.998794 
1.9152378e+3, 2.4330118e+2, -599468.3, -770191.75, -35973.76, 0.20622493, 0.4291481, -592197.75, -36492.734, 0.0, 10.000434, 9.998175 
1.9152725e+3, 2.5330102e+2, -533893.0, -675376.0, -45017.047, -0.13338158, 0.56426555, -520784.1, -63069.805, 0.0, 10.000181, 9.9982605 
1.9153102e+3, 2.6330099e+2, -356551.25, -422104.03, 9870.302, -0.27236202, 0.70966136, -355097.3, 4620.068, 0.000000038925435, 10.000192, 9.999342 
1.9153531e+3, 2.7330106e+2, -123091.88, -209642.55, 26478.625, -0.046500072, 0.71798724, -115633.875, 146077.19, 0.0000054500297, 10.000919, 9.999768 
1.9153936e+3, 2.832995e+2, -46312.707, -275995.2, -81346.234, 0.052193582, 0.66111034, -20421.148, 143301.27, 0.00006657065, 10.001422, 9.998412 
1.91543e+3, 2.93296e+2, 69944.48, -185245.56, -59455.203, -0.052263517, 0.44739765, 83116.67, 148873.63, 0.00030456856, 10.001645, 9.998235 
1.9154672e+3, 3.0329522e+2, 86165.61, -298488.28, 13677.716, -0.16942088, 0.62477225, 86651.35, 86651.35, 0.0008126447, 10.002038, 9.996947 
1.9155101e+3, 3.1329253e+2, 237044.66, -26549.186, 76613.84, 0.10204748, 0.60400224, 257694.81, 257694.81, 0.0015528023, 10.002219, 9.998708 
1.9247718e+3, 1.2326184e+2, -2121076.3, -1857154.6, 270294.03, 0.18935844, 0.52960914, -1688329.0, 43770.69, 0.18987963, 9.996913, 10.000537 
1.9248028e+3, 1.332715e+2, -1785246.8, -1433570.5, -144089.45, -0.36803648, 1.1458664, -1382074.5, 251930.55, 0.13060497, 9.99759, 10.002616 
1.9248466e+3, 1.4326641e+2, -1766227.5, -1603201.5, -25420.46, 0.3032839, 0.5197278, -1599329.6, -63275.063, 0.07352615, 9.998131, 10.000299 
1.9248858e+3, 1.5326953e+2, -1617659.4, -1407435.5, -16973.574, 0.15109223, 0.724586, -1406073.9, 31949.842, 0.030745408, 9.998174, 10.000948 
1.9249257e+3, 1.6327097e+2, -1571123.9, -1437273.5, -5001.957, 0.063963704, 0.82864505, -1437086.8, -97078.805, 0.008026891, 9.998258, 10.000026 
1.924967e+3, 1.7326881e+2, -1374477.3, -1286511.1, 38922.2, 0.064574555, 0.58671635, -1271762.3, -29737.393, 0.0008187495, 9.998927, 10.000058 
1.9250071e+3, 1.8326716e+2, -1247577.4, -1248328.6, -7216.0576, 0.055632703, 0.45804244, -1240727.1, -96689.6, 0.0000031359323, 9.999425, 9.99942 
1.925045e+3, 1.932669e+2, -1051696.1, -1092585.6, -18068.791, 0.002465607, 0.46480304, -1044855.94, 1182.4779, 0.0, 10.000059, 9.999499 
1.9250828e+3, 2.0326674e+2, -958788.5, -1038737.1, -8213.265, -0.04041338, 0.52819765, -957953.5, -9913.09, 0.0, 10.000194, 9.999143 
1.9251211e+3, 2.1326703e+2, -933358.75, -958575.06, -60489.31, -0.0702417, 0.6110139, -884177.56, -34135.055, 0.0, 9.999645, 9.999272 
1.9251598e+3, 2.2326638e+2, -856788.06, -892957.6, -83633.81, -0.03259944, 0.64213985, -789306.06, -37255.87, 0.0, 9.99958, 9.999094 
1.9251993e+3, 2.3326395e+2, -604588.94, -702655.1, -65017.36, 0.099916644, 0.46140516, -572188.0, 81879.83, 0.0, 10.000566, 9.999246 
1.9252376e+3, 2.4326202e+2, -492236.63, -750791.9, -40074.355, 0.11363395, 0.41509, -486167.8, 69917.88, 0.0, 10.001301, 9.997892 
1.9252735e+3, 2.5326154e+2, -349819.47, -644755.44, -66318.12, -0.11211124, 0.5674666, -335593.63, 122505.15, 0.0, 10.001675, 9.997766 
1.9253118e+3, 2.63261e+2, -191814.48, -385108.25, 2830.4177, -0.181721, 0.70431477, -191773.05, 168334.86, 0.000000047147957, 10.001511, 9.998961 
1.9253539e+3, 2.7326006e+2, -222940.56, -293863.9, -14906.728, -0.012767201, 0.6491096, -219934.83, 42176.938, 0.0000044268, 10.000393, 9.999444 
1.9253945e+3, 2.8325832e+2, -209913.58, -304259.1, -69521.56, 0.071748994, 0.57428366, -173071.34, -8947.217, 0.000054025306, 10.000105, 9.998836 
1.9254324e+3, 2.9325625e+2, 144251.06, -93837.7, -87724.805, 0.013329958, 0.45112815, 173082.33, 239224.25, 0.000252356, 10.001902, 9.998742 
1.9254708e+3, 3.0325496e+2, 236414.17, -257811.27, -6347.207, -0.0629301, 0.5637249, 236495.69, 236495.69, 0.0006948033, 10.00319, 9.99668 
1.925513e+3, 3.1325206e+2, 305124.2, -86485.82, -6861.824, 0.14958958, 0.575125, 305244.4, 305244.4, 0.0013680811, 10.00301, 9.997949 
1.9347683e+3, 1.2322412e+2, -2084115.3, -1798787.0, 75434.72, 0.092922375, 0.531536, -1780071.3, -47612.24, 0.1997211, 9.996986, 10.000855 
1.9348016e+3, 1.3322893e+2, -1905613.4, -1654993.8, -114629.195, -0.25597268, 0.83922964, -1610473.1, 23941.416, 0.13795441, 9.997563, 10.000904 
1.9348432e+3, 1.4322282e+2, -1798037.0, -1687836.3, -29214.115, 0.13767499, 0.2258237, -1680570.6, -144094.22, 0.07814733, 9.998207, 9.999683 
1.9348827e+3, 1.5322664e+2, -1665833.4, -1512829.5, -10265.874, 0.0031962376, 0.567063, -1512143.8, -73703.195, 0.033007, 9.998193, 10.000215 
1.9349231e+3, 1.6322896e+2, -1492048.6, -1285494.3, 3691.546, -0.06260715, 0.7617865, -1285428.3, 54988.71, 0.008786739, 9.998305, 10.001051 
1.9349663e+3, 1.7322944e+2, -1280497.9, -1090443.4, 71635.45, 0.092632525, 0.65518814, -1066467.3, 175939.94, 0.00094156526, 9.998919, 10.001415 
1.9350076e+3, 1.8322927e+2, -1203982.0, -1167476.3, 9059.997, 0.13899289, 0.5707499, -1165351.4, -20947.215, 0.0000044945964, 9.999462, 9.999958 
1.9350448e+3, 1.9322774e+2, -1034688.6, -1048920.5, 13097.529, -0.02000857, 0.41620156, -1026898.8, 19516.021, 0.0, 10.000016, 9.9998255 
1.9350827e+3, 2.0322646e+2, -1029725.56, -1174117.9, -33086.59, -0.09461053, 0.38437992, -1022505.06, -74077.1, 0.0, 10.000138, 9.998243 
1.9351219e+3, 2.1322618e+2, -1037743.7, -1145102.5, -74821.125, 0.024230635, 0.53116024, -999337.94, -148897.73, 0.0, 9.999514, 9.998059 
1.9351603e+3, 2.2322603e+2, -851996.2, -834906.75, -64269.426, 0.042049844, 0.66536105, -778616.5, -26170.105, 0.0, 9.999382, 9.999583 
1.9351976e+3, 2.3322631e+2, -568422.9, -587546.56, -18966.184, -0.14100268, 0.66999716, -556744.5, 97694.02, 0.0, 10.000402, 10.000109 
1.935236e+3, 2.4322559e+2, -534203.1, -794367.06, -36477.523, -0.20296636, 0.70182294, -529185.4, 27259.117, 0.0, 10.001109, 9.99769 
1.9352764e+3, 2.5322315e+2, -406387.84, -716811.7, -46360.715, -0.008226969, 0.69791186, -399611.94, 58862.895, 0.0, 10.001487, 9.997359 
1.9353165e+3, 2.6322058e+2, -257956.25, -469679.1, -42199.035, 0.11290938, 0.6775765, -249855.4, 110646.92, 0.00000001782158, 10.00129, 9.998485 
1.9353549e+3, 2.7321813e+2, -280735.03, -370682.2, -48571.01, 0.054027054, 0.52098644, -259513.72, 3006.728, 0.0000033385966, 10.00023, 9.998983 
1.9353946e+3, 2.8321654e+2, -211706.77, -295078.94, -42902.594, 0.036508624, 0.47850174, -193573.44, -29041.994, 0.00004416703, 10.00003, 9.998944 
1.9354355e+3, 2.932165e+2, 138187.28, -59766.465, -6119.2324, 0.12977177, 0.5317422, 138376.27, 204905.33, 0.00021030295, 10.001709, 9.999066 
1.935475e+3, 3.0321416e+2, 183267.31, -295426.78, -15349.496, 0.00025059254, 0.5208148, 183759.0, 183759.0, 0.0005914357, 10.002881, 9.996571 
1.9355139e+3, 3.1321117e+2, 226100.44, -95255.94, -25480.977, -0.08043364, 0.536811, 228108.33, 228108.33, 0.0011863487, 10.002416, 9.998141 
1.9447641e+3, 1.2318475e+2, -2147275.0, -1733515.4, -80454.984, 0.03271383, 0.46037903, -1718421.6, 14420.126, 0.20999403, 9.99612, 10.00175 
1.9448018e+3, 1.331882e+2, -1976381.1, -1818895.5, -95389.95, 0.0016288579, 0.7542653, -1773946.5, -139135.17, 0.14565058, 9.997625, 9.999741 
1.9448406e+3, 1.4318223e+2, -1617842.1, -1583710.4, 20733.254, 0.006918661, 0.20653278, -1573922.8, -37051.24, 0.083007626, 9.999349, 9.999862 
1.9448811e+3, 1.531854e+2, -1422725.4, -1375909.4, 67342.98, -0.028622983, 0.46085045, -1328022.1, 110816.07, 0.03539992, 9.9997635, 10.000421 
1.944922e+3, 1.6318725e+2, -1357329.9, -1260497.0, 90127.5, -0.030545367, 0.60955423, -1206604.5, 134213.34, 0.009600047, 9.999393, 10.000709 
1.9449651e+3, 1.7318812e+2, -1407447.4, -1197011.3, 7750.7715, 0.12088551, 0.58345616, -1196726.1, 46081.7, 0.0010784023, 9.998247, 10.000999 
1.9450064e+3, 1.8318847e+2, -1420079.9, -1252226.0, -90215.414, 0.18116337, 0.56749517, -1212935.5, -68132.6, 0.0000066792873, 9.997899, 10.000131 
1.9450448e+3, 1.9318758e+2, -1096870.9, -1042101.8, -95331.8, 0.008391212, 0.4473636, -970299.3, 76509.445, 0.0, 9.999444, 10.000144 
1.9450831e+3, 2.0318662e+2, -964512.0, -1124867.6, -131555.89, -0.07005717, 0.42419508, -890626.7, 58191.934, 0.0, 10.000517, 9.998395 
1.9451219e+3, 2.1318583e+2, -831566.2, -1033908.6, -103475.734, 0.034200937, 0.5110841, -788021.0, 62812.03, 0.0, 10.000873, 9.998167 
1.9451603e+3, 2.2318533e+2, -643905.75, -776859.9, -25062.518, 0.047148056, 0.61810213, -639338.25, 113503.57, 0.0, 10.000979, 9.999214 
1.9451982e+3, 2.3318556e+2, -543450.25, -630500.06, -83509.016, -0.12880108, 0.66569895, -492804.16, 162033.66, 0.0, 10.000801, 9.999631 
1.945237e+3, 2.4318494e+2, -589472.56, -794468.56, -131652.13, -0.16746232, 0.72768044, -525122.94, 31721.268, 0.0, 10.000639, 9.997912 
1.9452778e+3, 2.5318262e+2, -487661.8, -720286.5, -112858.44, 0.027217768, 0.7055178, -441907.53, 16963.648, 0.0, 10.000776, 9.997679 
1.9453177e+3, 2.631798e+2, -312052.7, -524577.1, -67272.2, 0.15100385, 0.65202487, -292548.4, 68351.49, 0.000000002142629, 10.001034, 9.99823 
1.9453564e+3, 2.7317673e+2, -98448.56, -338730.56, -92540.48, 0.113921195, 0.47213644, -66939.97, 195985.48, 0.0000030022966, 10.00168, 9.998526 
1.9453962e+3, 2.8317496e+2, 63322.016, -224615.33, -42305.31, 0.112988114, 0.46658862, 69409.055, 234348.69, 0.00003904193, 10.00219, 9.998393 
1.9454373e+3, 2.9317555e+2, 207360.69, -83455.34, -91945.44, 0.119963884, 0.6426284, 233991.78, 300925.75, 0.0001845939, 10.0024185, 9.998569 
1.9454764e+3, 3.0317235e+2, 128782.56, -263856.34, -125245.06, -0.08283535, 0.5515681, 165331.42, 165331.42, 0.0005147042, 10.0022745, 9.997069 
1.9455169e+3, 3.1316984e+2, 229690.16, -15142.611, -149665.97, 0.0034321724, 0.5662566, 300627.53, 300627.53, 0.001026309, 10.002061, 9.99888 
1.9547586e+3, 1.2314511e+2, -2026401.8, -1571114.1, -137701.14, -0.18721156, 0.46422055, -1532706.6, 200528.48, 0.22070916, 9.996278, 10.003145 
1.9548027e+3, 1.3314946e+2, -2000242.8, -1885677.6, 2964.0928, 0.33050647, 0.90635216, -1885601.0, -250406.64, 0.15369554, 9.997682, 9.999262 
1.9548382e+3, 1.4314483e+2, -1529354.3, -1434509.4, 39722.62, -0.20822674, 0.46766314, -1420070.9, 117167.08, 0.08810495, 9.999464, 10.000896 
1.954881e+3, 1.5314591e+2, -1341430.8, -1220021.9, 86834.08, -0.034949582, 0.40668622, -1174777.3, 264438.44, 0.037922986, 9.999806, 10.001515 
1.9549225e+3, 1.6314596e+2, -1458934.1, -1493643.0, 45801.1, 0.044638086, 0.37635657, -1427309.9, -86100.38, 0.010466628, 9.999487, 9.999058 
1.9549629e+3, 1.7314485e+2, -1563795.8, -1533884.1, -30357.613, 0.066399, 0.37459287, -1514998.3, -271771.34, 0.0012294218, 9.998287, 9.998673 
1.9550036e+3, 1.8314464e+2, -1423632.8, -1270352.4, -57845.82, 0.06797871, 0.44827065, -1250972.5, -105737.84, 0.000009908067, 9.997952, 9.999976 
1.9550441e+3, 1.9314638e+2, -1081659.6, -998884.94, -28531.629, 0.0017494136, 0.5646789, -990003.4, 57216.688, 0.0, 9.999395, 10.0004635 
1.9550838e+3, 2.0314705e+2, -902083.3, -967025.9, -119837.6, -0.0697557, 0.64085066, -810395.7, 138818.19, 0.0, 10.000396, 9.999536 
1.9551213e+3, 2.1314588e+2, -758450.9, -844664.3, -82982.055, -0.123854265, 0.5536117, -708047.06, 143174.86, 0.0, 10.000718, 9.9995365 
1.9551599e+3, 2.231442e+2, -746872.8, -953348.1, -35399.08, -0.1197672, 0.5072703, -740972.44, 12264.863, 0.0, 10.000808, 9.998089 
1.9552006e+3, 2.3314202e+2, -686461.56, -886644.06, -79996.12, 0.025412846, 0.47421834, -658421.5, -3158.812, 0.0, 10.000634, 9.997948 
1.9552402e+3, 2.4314041e+2, -586586.75, -743024.94, -135017.63, 0.074889176, 0.5195727, -508767.4, 48514.34, 0.0, 10.00044, 9.998361 
1.9552775e+3, 2.531401e+2, -439210.97, -586160.9, -94608.87, -0.078446515, 0.60637736, -392896.9, 66389.54, 0.0, 10.000646, 9.998654 
1.955316e+3, 2.6313886e+2, -336308.66, -550743.0, -54042.336, -0.13784036, 0.65278375, -323458.78, 37840.152, 0.00000003752054, 10.0009165, 9.998116 
1.9553578e+3, 2.7313584e+2, -143781.4, -399684.97, -51618.938, 0.06590795, 0.5114722, -133761.55, 129564.695, 0.0000033251551, 10.001538, 9.998177 
1.955399e+3, 2.8313375e+2, -62958.21, -432128.63, -39196.254, 0.16201028, 0.5511289, -58842.48, 106504.18, 0.000036409245, 10.001952, 9.997084 
1.955438e+3, 2.9313374e+2, 81787.06, -291788.5, -59771.84, -0.0805247, 0.8088552, 91117.484, 158469.95, 0.00016708692, 10.002202, 9.997236 
1.9554755e+3, 3.0313e+2, 159035.55, -149129.31, -146641.69, -0.43592933, 0.69785243, 217662.25, 217662.25, 0.00045037686, 10.002034, 9.997982 
1.9555221e+3, 3.1312758e+2, 250893.33, 141777.94, -89240.24, 0.29830512, 0.58780736, 300931.8, 300931.8, 0.0008716909, 10.001613, 10.000159 
1.964754e+3, 1.2310459e+2, -1985085.3, -1474913.6, -174151.98, -0.24303934, 0.52884996, -1421134.3, 312501.7, 0.23177752, 9.99619, 10.00404 
1.9648005e+3, 1.3310768e+2, -1900732.6, -1828177.6, 21287.033, 0.3165946, 0.8252718, -1822393.4, -186788.58, 0.1620495, 9.998383, 9.999288 
1.9648379e+3, 1.431053e+2, -1607944.9, -1474599.6, -18801.768, -0.14013824, 0.6199376, -1471999.3, 65625.65, 0.093428105, 9.998973, 10.000814 
1.9648805e+3, 1.531054e+2, -1551150.0, -1306017.4, -85460.29, 0.0138940355, 0.45522282, -1279165.0, 160447.6, 0.04057487, 9.998319, 10.001597 
1.9649218e+3, 1.6310479e+2, -1628433.5, -1574296.5, -100050.48, 0.0906151, 0.35261747, -1497717.5, -156105.08, 0.011385711, 9.998321, 9.999065 
1.9649616e+3, 1.7310323e+2, -1345994.8, -1425145.9, -18894.36, 0.031450782, 0.30552122, -1341715.8, -98083.59, 0.0013940044, 9.999775, 9.9987 
1.9650018e+3, 1.8310297e+2, -1108020.4, -1153013.9, 69986.51, 0.008563134, 0.38399503, -1057003.8, 88636.49, 0.000014255441, 10.000258, 9.999674 
1.9650434e+3, 1.9310552e+2, -1166993.0, -1082741.1, 33456.363, 0.024642795, 0.6167845, -1071071.9, -23449.666, 0.0, 9.998991, 10.000082 
1.9650838e+3, 2.0310657e+2, -1134030.5, -1033657.8, -67821.586, -0.0060389573, 0.7364553, -999473.3, -49859.47, 0.0, 9.998599, 9.999948 
1.9651215e+3, 2.131048e+2, -803634.5, -800834.8, -97602.72, -0.13637295, 0.5299141, -704621.9, 147001.61, 0.0, 10.00011, 10.000136 
1.9651604e+3, 2.2310276e+2, -729886.5, -969464.7, -77201.34, -0.14677237, 0.4219433, -707164.25, 46475.754, 0.0, 10.001037, 9.9978695 
1.9652013e+3, 2.331005e+2, -670437.7, -931395.2, -62215.008, 0.049827177, 0.426842, -656364.0, -695.7004, 0.0, 10.000953, 9.997494 
1.9652414e+3, 2.4309886e+2, -462043.38, -644492.7, -30044.416, 0.13299917, 0.4795365, -457223.22, 100465.42, 0.0, 10.001109, 9.998721 
1.9652787e+3, 2.5309888e+2, -235269.52, -431155.9, -33110.633, -0.06508764, 0.54515046, -229824.2, 229864.03, 0.0, 10.001784, 9.999177 
1.9653176e+3, 2.6309812e+2, -146859.56, -454199.38, 6582.765, -0.14730372, 0.60994804, -146718.63, 214976.17, 0.00000006167767, 10.002212, 9.998151 
1.9653593e+3, 2.7309576e+2, -51141.195, -363818.9, -3504.3005, 0.043176956, 0.54779565, -51101.926, 212614.4, 0.000003603985, 10.002236, 9.998074 
1.9654009e+3, 2.8309333e+2, -40059.7, -462114.66, 68444.18, 0.15117374, 0.56926644, -29237.674, 136503.56, 0.00003430298, 10.00229, 9.996712 
1.9654402e+3, 2.9309142e+2, 107022.93, -329375.5, 84404.92, -0.07759147, 0.69301283, 122779.02, 190543.78, 0.00015136057, 10.00258, 9.996807 
1.9654776e+3, 3.0308846e+2, 279047.5, -37306.355, 20554.459, -0.42451593, 0.65203345, 280377.4, 280377.4, 0.0003913985, 10.002618, 9.998477 
1.9655235e+3, 3.1308728e+2, 227818.4, 59216.465, -26559.9, 0.28583172, 0.62871504, 231903.4, 231903.4, 0.0007264296, 10.001711, 9.999573 
1.9747527e+3, 1.23063944e+2, -1950855.1, -1455388.9, -79232.44, -0.05815318, 0.69669557, -1443026.9, 291009.38, 0.24301729, 9.996329, 10.004147 
1.9747941e+3, 1.3306274e+2, -1871219.6, -1780740.3, 89102.71, -0.16794422, 0.4903647, -1726050.4, -90007.09, 0.17062773, 9.998431, 9.999598 
1.9748396e+3, 1.4306349e+2, -1681276.1, -1644132.9, -47441.02, 0.104776956, 0.64937615, -1611758.0, -73724.41, 0.09895461, 9.999059, 9.999571 
1.9748792e+3, 1.5306367e+2, -1621868.4, -1458227.4, -109005.92, 0.03136052, 0.6036446, -1403750.9, 36279.953, 0.04335473, 9.99835, 10.000512 
1.9749193e+3, 1.6306356e+2, -1492164.9, -1303797.0, -69603.04, -0.001354068, 0.54267675, -1280869.1, 61159.563, 0.012356995, 9.99838, 10.0008955 
1.9749604e+3, 1.7306317e+2, -1172013.0, -1063536.9, 44259.293, -0.061685633, 0.3743364, -1047770.3, 196253.98, 0.0015709848, 9.999778, 10.001183 
1.9750014e+3, 1.8306333e+2, -1132470.1, -1211682.5, 30922.273, -0.0926988, 0.36449522, -1121828.6, 24192.287, 0.000019593592, 10.00029, 9.999259 
1.9750422e+3, 1.9306488e+2, -1248823.5, -1243190.6, -8047.32, -0.020417854, 0.60067284, -1237481.1, -189464.73, 0.0, 9.998952, 9.999 
1.9750826e+3, 2.0306507e+2, -1171006.3, -1087766.6, -35912.816, 0.0012753637, 0.70936954, -1074414.3, -124394.3, 0.0, 9.998506, 9.999619 
1.9751221e+3, 2.1306273e+2, -838777.0, -835542.44, -31743.074, -0.090836555, 0.46459848, -805375.5, 46660.535, 0.0, 9.999947, 9.999975 
1.9751614e+3, 2.2306104e+2, -725323.06, -910961.75, -80587.87, -0.1478864, 0.37687892, -695220.4, 58829.273, 0.0, 10.000817, 9.99838 
1.9752009e+3, 2.330608e+2, -645550.25, -845482.8, -56640.57, -0.11413552, 0.51659364, -630619.1, 25437.92, 0.0, 10.0008, 9.998159 
1.9752406e+3, 2.4306005e+2, -476721.97, -628449.56, -19437.295, -0.073152795, 0.61184233, -474271.5, 83795.69, 0.0, 10.000904, 9.998934 
1.975281e+3, 2.5305873e+2, -254589.31, -425270.2, 405.66928, -0.029315753, 0.53296804, -254588.34, 205489.73, 0.0, 10.001588, 9.999312 
1.975321e+3, 2.6305747e+2, -185889.1, -472437.13, -3173.35, -0.024078561, 0.5389584, -185853.95, 176234.63, 0.000000055759365, 10.001942, 9.998152 
1.9753608e+3, 2.730564e+2, -74583.05, -367671.28, 4784.852, -0.040862143, 0.5932706, -74504.945, 189592.92, 0.0000036492006, 10.002053, 9.998127 
1.9754018e+3, 2.8305358e+2, -46238.99, -438008.9, 56886.43, -0.018355608, 0.5649971, -38146.05, 127978.39, 0.00003270768, 10.002118, 9.996969 
1.9754435e+3, 2.930485e+2, 105227.95, -282289.4, 113819.27, -0.018368507, 0.3303498, 136185.22, 204359.92, 0.00013942833, 10.0023575, 9.997239 
1.9754821e+3, 3.0304754e+2, 196477.05, -101702.96, -23052.582, -0.25430593, 0.46813557, 198248.73, 198248.73, 0.00034788088, 10.002184, 9.998236 
1.9755235e+3, 3.1304815e+2, 30012.6, -265089.22, 45379.684, 0.08466384, 0.6712161, 36833.273, 36833.273, 0.00061963446, 10.001372, 9.997494 
1.984752e+3, 1.2302207e+2, -1882486.1, -1546992.8, -16853.611, 0.20102131, 0.7523619, -1546148.3, 188296.05, 0.25424254, 9.997417, 10.002827 
1.9847895e+3, 1.3302024e+2, -1842964.3, -1691373.8, 88309.984, -0.45372024, 0.42246634, -1650792.1, -14335.111, 0.17932345, 9.998285, 10.000293 
1.984841e+3, 1.4302102e+2, -1842089.6, -1778991.1, -3985.4656, 0.39240626, 0.5678314, -1778740.4, -240292.69, 0.104643695, 9.998202, 9.999065 
1.984878e+3, 1.5302151e+2, -1553314.6, -1496338.3, -45968.07, 0.066522054, 0.61889243, -1470746.5, -30299.41, 0.046255346, 9.999133, 9.999871 
1.9849174e+3, 1.6302189e+2, -1311024.5, -1169855.9, -7005.0967, -0.0794092, 0.6277282, -1169509.1, 172933.48, 0.013380272, 9.999417, 10.001324 
1.9849595e+3, 1.7302234e+2, -1307804.4, -1052170.4, -39724.195, -0.053152476, 0.4743938, -1046139.7, 198287.72, 0.0017591557, 9.998509, 10.001873 
1.9850008e+3, 1.8302263e+2, -1449039.5, -1356469.8, -115561.51, -0.040854257, 0.4343507, -1278268.8, -131848.64, 0.0000256483, 9.998078, 9.999331 
1.9850409e+3, 1.930227e+2, -1228509.3, -1243854.4, -103043.03, -0.034223475, 0.5291188, -1132853.5, -84425.31, 0.0, 9.999123, 9.998918 
1.9850814e+3, 2.0302235e+2, -995478.5, -1013262.94, -35121.15, -0.020691317, 0.5925208, -968141.4, -17704.492, 0.0, 9.999759, 9.999528 
1.9851224e+3, 2.1302144e+2, -873316.8, -866139.75, -38799.355, -0.02719038, 0.5048409, -830763.3, 21678.584, 0.0, 9.999774, 9.999849 
1.9851626e+3, 2.2302061e+2, -842707.06, -921405.06, -91261.8, -0.055560056, 0.49664244, -782672.7, -28224.426, 0.0, 9.999819, 9.998784 
1.985201e+3, 2.3302002e+2, -726891.8, -824682.1, -102936.016, -0.13567112, 0.54953885, -661828.4, -5371.761, 0.0, 9.999992, 9.998682 
1.9852404e+3, 2.4301909e+2, -598177.06, -684004.44, -52379.04, -0.13851276, 0.59423417, -573377.0, -14909.99, 0.0, 10.000087, 9.998931 
1.9852817e+3, 2.5301778e+2, -465098.06, -545194.4, -68908.055, -0.02149868, 0.53074396, -425445.7, 35032.72, 0.0, 10.000231, 9.99914 
1.9853227e+3, 2.6301634e+2, -365314.7, -576324.4, -57911.105, 0.03578222, 0.5406746, -350466.03, 12024.607, 0.00000004684117, 10.000781, 9.997997 
1.9853628e+3, 2.730149e+2, -76495.38, -394058.75, -86750.39, -0.0341129, 0.5791686, -54342.676, 210160.98, 0.000003631824, 10.002132, 9.997915 
1.9854036e+3, 2.8301206e+2, 64112.96, -296550.78, -49648.676, -0.04200905, 0.5294162, 70822.73, 237352.55, 0.000030883682, 10.002514, 9.99774 
1.9854453e+3, 2.9300746e+2, -10949.917, -239122.2, 3930.4514, 0.009834703, 0.25796515, -10882.231, 57689.965, 0.00012822116, 10.001159, 9.9981 
1.9854854e+3, 3.0300733e+2, 68306.375, -207523.88, -48056.805, -0.0824841, 0.44627264, 76439.32, 76439.32, 0.00031412422, 10.001465, 9.997853 
1.985526e+3, 3.1300655e+2, 451655.34, -104044.15, -27428.314, 0.046253532, 0.57237315, 453005.88, 453005.88, 0.0005494111, 10.004412, 9.99714 
1.9947496e+3, 1.2297695e+2, -2065492.8, -1887916.4, -67574.14, 0.1733306, 0.50812, -1865126.8, -130247.555, 0.26535824, 9.997529, 9.999988 
1.9947863e+3, 1.3298021e+2, -1754266.6, -1542483.1, 73231.2, -0.6284638, 0.63621885, -1519627.6, 117217.66, 0.18805622, 9.99834, 10.001461 
1.9948415e+3, 1.4297777e+2, -1805361.4, -1727186.0, 8284.062, 0.6058724, 0.36703256, -1726317.8, -187449.53, 0.11045076, 9.998302, 9.999374 
1.994877e+3, 1.5297881e+2, -1561453.0, -1519132.5, -579.4022, 0.031914987, 0.48622724, -1519124.5, -78262.266, 0.04926506, 9.99916, 9.9997015 
1.9949155e+3, 1.6297968e+2, -1368582.4, -1303889.9, -37861.035, -0.24424657, 0.5939306, -1286439.1, 56416.22, 0.014456319, 9.999481, 10.000362 
1.9949585e+3, 1.7298068e+2, -1384359.9, -1213944.0, -73519.01, -0.021856284, 0.60500324, -1186611.1, 58230.746, 0.0019582892, 9.998518, 10.000756 
1.9950002e+3, 1.8298076e+2, -1407637.1, -1278861.4, -98431.5, 0.06503787, 0.5919511, -1225628.9, -78790.01, 0.000032105352, 9.998117, 9.999845 
1.9950397e+3, 1.9297898e+2, -1170006.9, -1109981.4, -55379.047, -0.09073985, 0.4127135, -1077005.3, -28147.477, 0.0, 9.999078, 9.999854 
1.99508e+3, 2.0297839e+2, -1000469.1, -1005003.94, -38895.348, -0.15989245, 0.393232, -963775.2, -12910.387, 0.0, 9.999671, 9.99963 
1.9951223e+3, 2.1298079e+2, -897404.2, -889614.0, -30255.813, -0.029580573, 0.6416823, -863003.6, -10160.987, 0.0, 9.999657, 9.999745 
1.9951633e+3, 2.2298142e+2, -850053.8, -897660.06, -91036.3, 0.016647816, 0.77483827, -779760.2, -24923.346, 0.0, 9.999648, 9.999028 
1.9952013e+3, 2.3297833e+2, -724522.06, -785312.9, -84345.45, -0.10980628, 0.5427101, -665262.4, -8396.824, 0.0, 9.99984, 9.999025 
1.9952402e+3, 2.42976e+2, -652932.7, -748262.06, -59113.848, -0.18807979, 0.43806663, -624660.75, -65773.11, 0.0, 9.99987, 9.998597 
1.9952811e+3, 2.529759e+2, -511319.8, -615380.5, -56260.773, -0.117279395, 0.54086626, -486718.38, -25829.203, 0.0, 10.00012, 9.99871 
1.9953227e+3, 2.6297477e+2, -420223.38, -649667.4, -25664.275, -0.054421164, 0.6165969, -417387.75, -54487.11, 0.000000042002604, 10.000611, 9.997575 
1.995365e+3, 2.7297145e+2, -135654.47, -467472.63, -22283.223, -0.03663733, 0.5141336, -134164.72, 130766.85, 0.0000035134383, 10.001934, 9.9975 
1.995406e+3, 2.8296873e+2, 92704.06, -183501.94, -95644.75, -0.07057373, 0.4645123, 122590.22, 289546.53, 0.00002820436, 10.00228, 9.998631 
1.9954455e+3, 2.929679e+2, 46551.555, -90057.61, -34718.55, -0.110674776, 0.43563697, 54868.73, 123830.02, 0.00011358975, 10.001021, 9.999191 
1.9954875e+3, 3.0296737e+2, -43227.645, -348441.16, 15308.625, -0.050432157, 0.5689721, -42461.73, -42461.73, 0.00027761376, 10.001099, 9.997049 
1.9955285e+3, 3.129636e+2, 415816.2, -37340.07, 102807.734, -0.17322236, 0.4580542, 438049.38, 438049.38, 0.0004898738, 10.0038395, 9.997852 
2.004749e+3, 1.2293191e+2, -1775708.8, -2029421.9, -62982.676, 0.21286377, 0.35893038, -1760934.0, -25616.633, 0.27641812, 10.000725, 9.997461 
2.0047854e+3, 1.3293852e+2, -1508133.4, -1355810.4, -23541.303, -0.5933646, 0.78202474, -1352255.1, 284999.63, 0.1968332, 9.9998, 10.002333 
2.0048393e+3, 1.4293572e+2, -1659857.9, -1568117.5, -52123.016, 0.5355646, 0.38133538, -1544555.1, -5273.405, 0.11636926, 9.99893, 10.000154 
2.0048761e+3, 1.5293689e+2, -1600226.8, -1492419.5, -24015.77, 0.05764165, 0.4646432, -1487311.6, -46039.594, 0.05238356, 9.998694, 10.000107 
2.0049147e+3, 1.6293763e+2, -1537765.9, -1432151.6, -17074.813, -0.18999106, 0.5504359, -1429459.8, -86193.734, 0.015589432, 9.998518, 9.999945 
2.004957e+3, 1.7293844e+2, -1353072.1, -1266878.4, -34563.613, -0.033900738, 0.5998786, -1254730.5, -9472.591, 0.0021699998, 9.999023, 10.000149 
2.0049986e+3, 1.8293847e+2, -1218818.8, -1165388.5, -3251.698, 0.045069795, 0.61031914, -1165191.3, -17934.477, 0.00003871999, 9.9993305, 10.0000305 
2.0050392e+3, 1.9293699e+2, -1067457.5, -1022934.9, -10660.973, -0.061931085, 0.42655283, -1020513.8, 28756.076, 0.0, 9.99963, 10.000181 
2.00508e+3, 2.0293647e+2, -994049.5, -1014849.44, -31140.799, -0.11632386, 0.39962935, -971617.94, -20343.438, 0.0, 9.999774, 9.99951 
2.0051214e+3, 2.1293844e+2, -888968.25, -910845.2, -55226.574, -0.07658189, 0.62549907, -843607.3, 9650.666, 0.0, 9.999824, 9.99952 
2.0051624e+3, 2.2293884e+2, -817154.6, -873503.06, -109663.45, -0.03994951, 0.7476275, -732104.0, 23151.004, 0.0, 9.999847, 9.999097 
2.0052017e+3, 2.329361e+2, -687151.94, -750260.3, -138013.58, -0.042872854, 0.5391517, -577131.3, 80148.3, 0.0, 10.000042, 9.999165 
2.0052415e+3, 2.4293391e+2, -576470.8, -750066.44, -90904.58, -0.05695911, 0.45631257, -537580.5, 21719.355, 0.0, 10.000527, 9.998282 
2.0052819e+3, 2.5293338e+2, -348033.8, -588093.0, -100916.57, -0.0994877, 0.55818397, -311247.4, 150059.42, 0.0, 10.001441, 9.998269 
2.0053238e+3, 2.6293185e+2, -201191.14, -515381.47, -32525.361, -0.08352782, 0.6127518, -197859.4, 165462.48, 0.000000029896977, 10.001993, 9.997827 
2.0053671e+3, 2.7292818e+2, -83543.66, -400306.75, 4947.531, -0.0061547155, 0.43516332, -83466.4, 181888.14, 0.0000031274246, 10.002093, 9.9978895 
2.0054087e+3, 2.8292596e+2, 82404.66, -198805.38, -75462.18, -0.009621025, 0.41164792, 101375.05, 268749.5, 0.000025154262, 10.002245, 9.998549 
2.0054469e+3, 2.9292688e+2, 192269.64, -66837.375, -162959.2, -0.11948629, 0.59472036, 270898.3, 340264.94, 0.00009776422, 10.00223, 9.99877 
2.0054899e+3, 3.029254e+2, 125193.22, -303651.3, -58367.02, 0.031440116, 0.6860517, 132995.2, 132995.2, 0.0002403355, 10.002381, 9.996764 
2.005533e+3, 3.129192e+2, 288194.13, 11791.724, -32808.563, -0.011773874, 0.34944838, 292035.1, 292035.1, 0.00043342356, 10.002451, 9.998886 
2.0147477e+3, 1.22887075e+2, -1908450.6, -2347764.8, 23867.516, -0.05813386, 0.3227437, -1907157.8, -171399.42, 0.28771394, 10.000912, 9.995194 
2.0147873e+3, 1.3289496e+2, -1465090.3, -1275599.0, -57900.258, -0.40534195, 0.85176474, -1259307.9, 378380.16, 0.20582092, 9.999846, 10.003038 
2.0148337e+3, 1.428949e+2, -1563078.8, -1400899.3, -68339.836, 0.050551098, 0.62021077, -1375942.4, 163746.11, 0.12247417, 9.999003, 10.001408 
2.0148748e+3, 1.5289575e+2, -1524906.9, -1343169.9, -28822.453, 0.045883425, 0.5642627, -1338708.4, 102968.266, 0.055639356, 9.9987, 10.001168 
2.0149152e+3, 1.6289583e+2, -1513316.8, -1397963.8, -14507.473, -0.02396781, 0.50958985, -1396167.1, -52493.77, 0.016791714, 9.998587, 10.00015 
2.014955e+3, 1.7289557e+2, -1358660.0, -1276804.5, -8118.1846, -0.16003025, 0.46093407, -1276007.1, -30331.305, 0.0023981123, 9.999017, 10.000085 
2.0149957e+3, 1.828957e+2, -1223133.1, -1187977.5, -4016.1548, -0.20298168, 0.48803687, -1187524.6, -39850.08, 0.000045425786, 9.999379, 9.999858 
2.015039e+3, 1.9289666e+2, -1089766.0, -1059797.1, 4685.3525, -0.0394227, 0.5737118, -1059081.6, -9416.377, 0.0, 9.999588, 9.99995 
2.0150809e+3, 2.0289665e+2, -1030459.3, -1067286.8, -36797.34, -0.0050718165, 0.6201267, -1007725.6, -56059.953, 0.0, 9.999677, 9.999197 
2.0151196e+3, 2.1289454e+2, -939336.9, -979170.8, -45236.113, -0.2386708, 0.48016125, -909827.25, -56140.684, 0.0, 9.999672, 9.999124 
2.0151596e+3, 2.2289295e+2, -857896.6, -917272.94, -112054.81, -0.31836593, 0.43590662, -771663.9, -15961.56, 0.0, 9.99966, 9.998893 
2.015202e+3, 2.3289311e+2, -706902.56, -774609.25, -120854.62, -0.01942721, 0.53187215, -615249.4, 42451.31, 0.0, 9.999953, 9.999047 
2.0152439e+3, 2.4289252e+2, -625883.56, -808411.56, -66509.18, 0.12623401, 0.62610054, -604220.2, -44513.37, 0.0, 10.000346, 9.997965 
2.0152839e+3, 2.5289017e+2, -402403.9, -658195.0, -56530.48, -0.06272183, 0.58753383, -390467.53, 71263.32, 0.0, 10.001269, 9.997865 
2.015325e+3, 2.628875e+2, -182777.03, -425167.66, -31477.502, -0.16908133, 0.5261337, -178755.98, 184999.64, 0.0000000091701935, 10.001767, 9.998558 
2.0153691e+3, 2.7288496e+2, -34765.83, -251786.67, 22245.654, -0.04399992, 0.353866, -32509.014, 233264.8, 0.0000023642951, 10.00189, 9.999009 
2.0154111e+3, 2.8288376e+2, -38246.36, -381114.7, -90247.5, -0.010778103, 0.40596205, -15942.8545, 151841.22, 0.000021595964, 10.00196, 9.997429 
2.0154491e+3, 2.9288444e+2, 39410.445, -346945.56, -146522.11, -0.13548246, 0.7260833, 88691.65, 158479.7, 0.000083873885, 10.002051, 9.996937 
2.0154919e+3, 3.028814e+2, 62671.496, -339666.66, -57161.137, -0.018984964, 0.7802724, 70634.9, 70634.9, 0.00020822523, 10.00201, 9.996678 
2.0155372e+3, 3.1287548e+2, 287456.06, 191796.45, -106661.21, 0.12768298, 0.40977892, 356520.66, 356520.66, 0.0003832048, 10.001756, 10.000418 
2.024746e+3, 1.2284357e+2, -2226033.0, -2421013.8, 120191.18, -0.17183356, 0.4091004, -2168764.5, -432577.9, 0.29983783, 9.998406, 9.995889 
2.024788e+3, 1.3285099e+2, -1635974.9, -1265749.8, -27103.45, -0.2127583, 0.80559176, -1263776.1, 374342.8, 0.21537028, 9.997867, 10.004103 
2.0248309e+3, 1.4285158e+2, -1620543.0, -1398627.3, -17632.668, -0.08620271, 0.5499134, -1397235.0, 142877.38, 0.12892798, 9.998446, 10.001703 
2.0248733e+3, 1.5285358e+2, -1560653.9, -1384199.5, -92893.18, 0.049369715, 0.6258945, -1344312.8, 97779.17, 0.05909158, 9.998568, 10.000947 
2.0249145e+3, 1.6285412e+2, -1508115.1, -1365005.3, -108908.09, 0.056256693, 0.62418824, -1306248.8, 37836.86, 0.018083457, 9.998507, 10.000408 
2.0249543e+3, 1.7285319e+2, -1352835.8, -1235620.3, -82452.234, -0.109995365, 0.47287473, -1193068.5, 53024.87, 0.0026487417, 9.998914, 10.00041 
2.0249954e+3, 1.8285307e+2, -1228308.8, -1179547.3, -37209.195, -0.16172293, 0.4535231, -1159442.6, -11349.321, 0.000052423693, 9.999293, 9.999954 
2.0250387e+3, 1.9285476e+2, -1031514.25, -1033589.4, -25595.023, -0.028065793, 0.6091683, -1006935.75, 43141.0, 0.0, 9.999982, 9.999942 
2.0250809e+3, 2.0285499e+2, -941121.7, -1035851.94, -49814.617, 0.0045883236, 0.6845244, -919748.56, 32325.93, 0.0, 10.000344, 9.999085 
2.0251197e+3, 2.1285206e+2, -874434.4, -966002.0, -64643.19, -0.21773736, 0.4762515, -841003.94, 13099.012, 0.0, 10.0001955, 9.998956 
2.0251597e+3, 2.2284992e+2, -784193.06, -922798.7, -83056.86, -0.27602658, 0.3979522, -745323.25, 10800.982, 0.0, 10.000345, 9.998517 
2.025203e+3, 2.3285003e+2, -535084.75, -739555.5, -123053.375, 0.020056043, 0.534784, -477338.22, 180785.73, 0.0, 10.001347, 9.998608 
2.0252454e+3, 2.4284932e+2, -416965.34, -705461.75, -77791.445, 0.18236318, 0.64121634, -397326.22, 162805.48, 0.0, 10.001791, 9.997964 
2.0252852e+3, 2.5284663e+2, -418719.47, -656838.6, -57815.41, -0.021080682, 0.5580196, -405424.2, 56733.953, 0.0, 10.00113, 9.997933 
2.0253263e+3, 2.6284412e+2, -304557.25, -463051.0, -4049.7808, -0.1448012, 0.50098956, -304453.84, 59726.645, 0.000000001074916, 10.000829, 9.998756 
2.0253703e+3, 2.7284274e+2, -134019.28, -273409.88, -27511.506, -0.052201416, 0.42756158, -128785.83, 137402.08, 0.0000018159459, 10.001109, 9.99923 
2.0254128e+3, 2.8284144e+2, -137084.22, -449033.63, -134248.38, 0.011691811, 0.46598563, -87265.984, 80933.6, 0.000018189116, 10.0013485, 9.997259 
2.0254512e+3, 2.9284003e+2, -32181.416, -381247.0, -123591.41, -0.097727545, 0.5993198, 7146.7993, 77370.13, 0.000072171526, 10.0015745, 9.996918 
2.0254928e+3, 3.0283782e+2, 134832.88, -197525.22, 108389.13, -0.10551492, 0.68321896, 167056.66, 167056.66, 0.00017992307, 10.001973, 9.997709 
2.0255388e+3, 3.1283534e+2, 280104.94, 195450.13, -59076.277, 0.16077872, 0.5647203, 310452.25, 310452.25, 0.0003355793, 10.00161, 10.000541 
2.0347457e+3, 1.2280175e+2, -1926340.3, -1822763.3, 51617.26, -0.10568526, 0.6158981, -1801432.8, -64833.457, 0.3135409, 9.998484, 9.999964 
2.0347866e+3, 1.3280663e+2, -1561225.1, -1122637.5, -315.304, -0.15706937, 0.63464284, -1122637.3, 515909.6, 0.22593072, 9.997895, 10.005407 
2.0348307e+3, 1.4280547e+2, -1650212.9, -1483972.1, -18011.04, 0.022916539, 0.14432281, -1482043.1, 58512.78, 0.13594478, 9.998592, 10.000968 
2.0348714e+3, 1.5281026e+2, -1662608.3, -1595784.6, -91112.51, -0.010854282, 0.6442516, -1532150.9, -89631.664, 0.06282382, 9.998587, 9.999446 
2.0349118e+3, 1.6281253e+2, -1481541.0, -1328780.4, -112017.85, -0.07726791, 0.89731044, -1269580.6, 74922.336, 0.019494196, 9.998579, 10.000628 
2.0349546e+3, 1.7281123e+2, -1290049.3, -1116935.0, -60526.543, 0.024666676, 0.6367787, -1097872.1, 148639.02, 0.0029308582, 9.998951, 10.00121 
2.034997e+3, 1.828106e+2, -1197641.6, -1129577.0, -19419.754, 0.05992069, 0.50162405, -1124426.1, 24086.994, 0.00006041413, 9.9993515, 10.000273 
2.0350382e+3, 1.928113e+2, -1023818.7, -1006012.4, 8284.081, -0.10355745, 0.5398898, -1002754.44, 47749.766, 0.0, 9.999934, 10.000157 
2.0350793e+3, 2.0281148e+2, -948364.5, -1029008.3, -58840.64, -0.20828782, 0.592822, -917355.6, 35145.875, 0.0, 10.000253, 9.999175 
2.035121e+3, 2.1281084e+2, -886310.7, -960814.56, -63553.71, -0.112310074, 0.60490656, -849895.94, 4612.843, 0.0, 10.000065, 9.999057 
2.0351626e+3, 2.2280955e+2, -854592.5, -1013126.5, -60744.754, -0.042824134, 0.6265862, -833993.6, -77471.28, 0.0, 10.000116, 9.998003 
2.0352042e+3, 2.3280689e+2, -614952.2, -860918.1, -70633.14, -0.001633198, 0.55468833, -596111.9, 62437.49, 0.0, 10.001163, 9.997861 
2.0352456e+3, 2.4280429e+2, -434726.25, -692850.94, -96182.055, 0.012226902, 0.5114663, -402828.72, 157746.06, 0.0, 10.0015745, 9.998158 
2.0352861e+3, 2.5280255e+2, -402063.78, -596184.2, -72886.09, -0.05509962, 0.48009095, -377744.16, 84845.664, 0.0, 10.001006, 9.998418 
2.0353273e+3, 2.6280147e+2, -362093.28, -524964.6, -5847.267, -0.14342855, 0.54581004, -361883.63, 2714.7444, 0.000000023664393, 10.000596, 9.998436 
2.0353708e+3, 2.728011e+2, -199553.7, -372720.06, -1938.4155, -0.13273446, 0.6195165, -199532.02, 67068.39, 0.0000019634658, 10.000948, 9.998628 
2.0354135e+3, 2.8279853e+2, -142458.11, -389083.5, -135996.58, -0.06012638, 0.5540522, -82192.23, 86432.58, 0.000016146072, 10.001055, 9.9978075 
2.0354529e+3, 2.927937e+2, 29600.78, -200149.94, -92394.445, -0.09693439, 0.24733737, 62146.863, 132820.0, 0.00006227005, 10.001332, 9.998285 
2.0354918e+3, 3.027946e+2, 184127.08, 39599.598, 90573.445, -0.42215192, 0.45603308, 227732.22, 227732.22, 0.00015436458, 10.001432, 9.999576 
2.0355396e+3, 3.127953e+2, 140152.81, 38856.52, -32484.52, 0.028336463, 0.5072037, 149675.08, 149675.08, 0.00029086813, 10.001086, 9.999688 
2.0447454e+3, 1.2275815e+2, -1823306.4, -1674531.3, 6307.1646, 0.035589986, 0.5609107, -1674264.4, 62764.48, 0.3294151, 9.998624, 10.001144 
2.0447838e+3, 1.3276324e+2, -1520598.3, -1166030.8, -45176.99, -0.2382581, 0.6508296, -1160365.1, 478608.97, 0.23787552, 9.998596, 10.004759 
2.0448306e+3, 1.427623e+2, -1660542.9, -1474207.5, -125025.74, 0.17840205, 0.22215885, -1411453.3, 129527.914, 0.14372098, 9.998469, 10.001146 
2.0448703e+3, 1.5276666e+2, -1556118.9, -1488566.4, -84832.32, 0.0011116632, 0.63247496, -1431033.5, 11913.841, 0.06692591, 9.999074, 9.99995 
2.0449103e+3, 1.627691e+2, -1364600.3, -1270768.0, -3699.7295, -0.109628975, 0.8660505, -1270622.4, 74306.84, 0.021061258, 9.999375, 10.000642 
2.0449543e+3, 1.7276864e+2, -1242951.3, -1113522.1, -39883.52, 0.097351804, 0.70304453, -1102219.1, 144711.58, 0.003256253, 9.999363, 10.001032 
2.0449974e+3, 1.8276827e+2, -1220459.8, -1133073.5, -38906.832, 0.18602492, 0.6048667, -1118261.6, 30669.213, 0.00007088071, 9.999175, 10.000331 
2.0450376e+3, 1.9276802e+2, -1145388.5, -1046472.1, -32703.658, -0.097121894, 0.53362346, -1036637.5, 14292.08, 0.0, 9.999038, 10.000301 
2.0450787e+3, 2.0276776e+2, -1091221.1, -1074678.3, -77454.984, -0.22846773, 0.5283706, -1005054.4, -52124.64, 0.0, 9.999165, 9.999396 
2.0451222e+3, 2.1276806e+2, -860796.06, -915539.44, -88574.05, 0.012434308, 0.61125344, -795460.8, 59466.77, 0.0, 10.000112, 9.999342 
2.0451647e+3, 2.2276744e+2, -752625.56, -966552.75, -42669.215, 0.13827898, 0.6833549, -744428.94, 12505.962, 0.0, 10.000822, 9.997987 
2.0452048e+3, 2.3276448e+2, -639961.0, -884066.94, -24821.885, -0.027994517, 0.58945125, -637462.56, 21503.299, 0.0, 10.001034, 9.997764 
2.0452458e+3, 2.4276169e+2, -498732.7, -712532.44, -38479.203, -0.10173796, 0.52905, -492018.16, 68975.3, 0.0, 10.001071, 9.998269 
2.045287e+3, 2.5276014e+2, -429436.75, -585883.8, -58769.2, -0.033035338, 0.49912393, -409819.9, 53185.668, 0.0, 10.000715, 9.998624 
2.0453285e+3, 2.6275906e+2, -396795.34, -562974.6, 38733.168, -0.05935578, 0.5580741, -388210.84, -23196.953, 0.00000011200642, 10.000436, 9.998255 
2.0453711e+3, 2.7275836e+2, -293974.5, -453635.66, 37376.094, -0.15332203, 0.6305253, -285658.1, -18636.959, 0.000002326167, 10.000455, 9.998306 
2.0454141e+3, 2.8275582e+2, -160739.17, -342519.22, -59244.414, -0.071366295, 0.5681512, -143135.44, 25910.188, 0.000014696717, 10.000676, 9.998316 
2.0454548e+3, 2.9275176e+2, 1312.2576, -126299.875, -68511.984, 0.012111663, 0.27548632, 31128.338, 102211.64, 0.00005375532, 10.000768, 9.999063 
2.0454922e+3, 3.0275327e+2, 70072.766, -14444.105, 52488.33, -0.46510586, 0.48517087, 95199.79, 95199.79, 0.00013253847, 10.000633, 9.999582 
2.0455405e+3, 3.1275243e+2, 194759.33, 67972.52, -205936.42, 0.018231854, 0.41867912, 346838.75, 346838.75, 0.00025389736, 10.0014, 9.999744 
2.0547456e+3, 1.2271436e+2, -1966756.5, -1970681.9, -255341.06, 0.12475056, 0.37252206, -1713370.6, 24088.74, 0.3476065, 9.998784, 9.998869 
2.0547792e+3, 1.3272129e+2, -1672682.4, -1472485.3, -38391.82, -0.585198, 0.8868752, -1465375.4, 174021.4, 0.2513395, 9.99864, 10.002005 
2.05483e+3, 1.4272241e+2, -1576033.5, -1336132.4, -117871.11, 0.2236593, 0.80855507, -1287911.1, 253474.77, 0.15236652, 9.998553, 10.002204 
2.0548694e+3, 1.5272304e+2, -1368919.5, -1123797.9, -46885.63, -0.018542178, 0.5990869, -1115135.9, 328238.4, 0.071473114, 9.999113, 10.002605 
2.0549096e+3, 1.6272387e+2, -1374066.4, -1314676.5, -7636.295, -0.15227808, 0.5231244, -1313710.3, 31652.895, 0.022826005, 9.999474, 10.000295 
2.0549531e+3, 1.7272533e+2, -1331215.9, -1299597.1, -36132.406, 0.029703181, 0.67274326, -1275966.9, -28614.314, 0.0036400491, 9.99937, 9.999754 
2.0549959e+3, 1.8272592e+2, -1228744.0, -1165087.5, -52703.363, 0.095227145, 0.75779957, -1135347.3, 14000.808, 0.00008593674, 9.9992285, 10.00009 
2.0550366e+3, 1.9272472e+2, -1136776.0, -1032579.2, -31344.887, -0.10749316, 0.58452976, -1023876.7, 27477.934, 0.0, 9.999041, 10.000403 
2.0550786e+3, 2.0272376e+2, -1079166.8, -1034401.7, -57656.047, -0.17931871, 0.48792794, -994936.06, -41575.965, 0.0, 9.9991, 9.999702 
2.055123e+3, 2.1272367e+2, -857491.9, -876361.1, -42765.59, 0.07447811, 0.49638355, -823132.56, 32227.791, 0.0, 9.999967, 9.999682 
2.0551658e+3, 2.2272334e+2, -760846.06, -922677.44, -38171.875, 0.15200835, 0.5566661, -752294.2, 5070.5415, 0.0, 10.000569, 9.998405 
2.0552048e+3, 2.327225e+2, -636701.6, -830455.4, -8754.233, -0.14960147, 0.6331965, -636306.9, 23069.621, 0.0, 10.000835, 9.998226 
2.0552452e+3, 2.4272117e+2, -536539.2, -721958.2, -57123.117, -0.28027526, 0.68757284, -520353.75, 41037.36, 0.0, 10.000787, 9.998336 
2.0552878e+3, 2.5271899e+2, -461182.9, -604519.2, -63589.66, -0.045369692, 0.5932473, -437038.9, 26370.598, 0.0, 10.000524, 9.998584 
2.0553295e+3, 2.6271668e+2, -439156.84, -596694.8, 26219.838, -0.0055650566, 0.53263456, -434907.56, -69477.73, 0.00000017468948, 10.000205, 9.998135 
2.0553711e+3, 2.7271444e+2, -327881.94, -489177.88, 54253.516, -0.21564382, 0.47440884, -311331.47, -43879.926, 0.0000023499456, 10.000296, 9.998143 
2.055414e+3, 2.8271315e+2, -188791.38, -320596.03, -62087.938, -0.16546434, 0.52878237, -164150.73, 5313.823, 0.000012296112, 10.000351, 9.998615 
2.0554565e+3, 2.9271352e+2, -8192.998, -108496.34, -55874.61, 0.084670044, 0.63155806, 16736.367, 88196.85, 0.000044415407, 10.00061, 9.999257 
2.0554931e+3, 3.0271223e+2, -123842.43, -318455.94, 32903.4, -0.44409922, 0.64262, -118429.96, -118429.96, 0.00011238554, 10.000243, 9.997667 
2.0555416e+3, 3.1270748e+2, 133942.42, 88205.664, 3117.9985, -0.0587442, 0.36878502, 134154.02, 134154.02, 0.00022330374, 10.0007715, 10.000188 
2.0647454e+3, 1.2267378e+2, -2021342.3, -2030984.8, -259517.47, 0.27232882, 0.49177247, -1766601.3, -28743.326, 0.36771804, 9.998528, 9.9985075 
2.064778e+3, 1.3267887e+2, -1542984.4, -1503649.4, 58182.875, -0.61736906, 0.90243375, -1461899.8, 177913.53, 0.26616043, 10.000253, 10.000952 
2.0648293e+3, 1.4267911e+2, -1383951.1, -1286405.4, 38373.746, 0.23538144, 0.812012, -1273119.1, 268691.7, 0.1618756, 10.000213, 10.001818 
2.064869e+3, 1.5267928e+2, -1353258.3, -1124866.5, -76002.89, 0.04397052, 0.56462955, -1101886.8, 341915.75, 0.07651462, 9.999266, 10.002535 
2.0649095e+3, 1.6268018e+2, -1484593.5, -1360567.8, -122712.664, -0.06262395, 0.49790815, -1285088.9, 60700.977, 0.024829434, 9.998689, 10.000355 
2.0649521e+3, 1.7268164e+2, -1340910.5, -1289437.0, -67429.79, 0.015070547, 0.63521165, -1242999.3, 4779.272, 0.0041003036, 9.999248, 9.999877 
2.0649946e+3, 1.8268211e+2, -1188951.8, -1170112.6, -5154.046, 0.039254155, 0.70972925, -1168794.8, -19019.637, 0.000108260756, 9.999617, 9.999859 
2.0650364e+3, 1.9268095e+2, -1032660.25, -1015606.94, -32002.205, -0.07748862, 0.5730225, -991014.94, 60768.13, 0.0, 9.999912, 10.000092 
2.0650786e+3, 2.0268e+2, -965257.94, -980707.4, -72010.0, -0.100741215, 0.49851426, -900559.56, 53230.184, 0.0, 9.999886, 9.999687 
2.0651223e+3, 2.126797e+2, -944854.8, -911124.44, -94653.445, 0.054275785, 0.4779164, -831845.44, 23946.842, 0.0, 9.999337, 9.999745 
2.0651647e+3, 2.2267938e+2, -940447.0, -943076.94, -72736.31, 0.09143816, 0.516947, -869013.75, -111218.18, 0.0, 9.99903, 9.999021 
2.0652051e+3, 2.326794e+2, -803676.25, -822549.25, -36088.16, -0.12425626, 0.60193574, -775811.25, -116013.98, 0.0, 9.999308, 9.99902 
2.0652461e+3, 2.4267884e+2, -699017.7, -796899.2, -60109.547, -0.19445126, 0.6825381, -670444.9, -108641.09, 0.0, 9.999659, 9.998365 
2.0652881e+3, 2.5267678e+2, -531937.94, -658508.94, -102536.805, -0.02536655, 0.6206733, -474729.25, -10906.176, 0.0, 10.000131, 9.998397 
2.0653296e+3, 2.6267436e+2, -410493.6, -563962.9, -5175.703, -0.0055524684, 0.5546029, -410319.25, -44473.625, 0.00000012472299, 10.000322, 9.9983 
2.0653713e+3, 2.7267182e+2, -352493.34, -465881.44, 33995.887, -0.1870279, 0.43716586, -343081.9, -75213.08, 0.0000018192295, 9.999982, 9.998447 
2.0654148e+3, 2.8267068e+2, -236060.89, -403241.28, -32595.941, -0.11010011, 0.5103667, -229930.31, -60050.63, 0.000008845643, 10.000274, 9.99809 
2.0654577e+3, 2.9267165e+2, 51105.9, -185972.75, -149980.66, 0.12543291, 0.7551123, 123736.055, 195610.28, 0.000033872344, 10.001487, 9.9983 
2.0654954e+3, 3.0266878e+2, 80136.64, -263119.34, -70482.92, -0.32149222, 0.6936508, 94045.734, 94045.734, 0.00009226444, 10.00178, 9.997339 
2.0655432e+3, 3.126632e+2, 146893.6, 122114.055, 51553.586, 0.05959991, 0.3432782, 187525.31, 187525.31, 0.00019349625, 10.0007, 10.0004835 
2.0747417e+3, 1.2263508e+2, -1894644.6, -1793177.1, -65208.367, -0.03217403, 0.7848345, -1761291.0, -23053.314, 0.38886976, 9.998622, 10.000098 
2.0747805e+3, 1.3263574e+2, -1484343.3, -1407296.1, 79357.29, -0.43089905, 0.66981965, -1357606.0, 282619.1, 0.28190908, 10.000397, 10.001841 
2.0748283e+3, 1.42632e+2, -1479074.9, -1505822.1, 6274.1724, 0.08467304, 0.1886245, -1477676.3, 64582.164, 0.17213808, 10.00033, 9.999971 
2.0748688e+3, 1.526352e+2, -1543327.9, -1518047.1, -111176.305, 0.0869059, 0.52171713, -1418794.9, 25438.6, 0.08207624, 9.999311, 9.999639 
2.0749094e+3, 1.6263789e+2, -1441312.5, -1284283.6, -126603.06, 0.038905084, 0.79461724, -1213825.4, 132385.08, 0.027111659, 9.998742, 10.000865 
2.0749512e+3, 1.7263748e+2, -1224576.8, -1052878.0, -40269.926, -0.030335981, 0.5964457, -1043902.4, 204306.67, 0.0046569863, 9.999264, 10.001499 
2.0749934e+3, 1.8263684e+2, -1194048.5, -1199183.8, 1088.1648, -0.08262277, 0.466366, -1193827.4, -43615.527, 0.00014131474, 9.999695, 9.999622 
2.0750363e+3, 1.9263658e+2, -1097815.6, -1143627.5, -15375.328, -0.08376578, 0.49762797, -1093133.9, -40917.51, 0.0000000002137382, 9.999879, 9.999231 
2.0750788e+3, 2.0263627e+2, -1003945.1, -1038687.1, -94870.55, -0.0983112, 0.5526816, -924868.4, 29352.822, 0.0, 9.999786, 9.999336 
2.0751199e+3, 2.1263589e+2, -975200.6, -946488.75, -105871.54, -0.13205926, 0.54472744, -854004.25, 2221.2957, 0.0, 9.99921, 9.999565 
2.0751616e+3, 2.226355e+2, -916455.2, -840621.3, -71506.69, -0.14183722, 0.5531938, -797600.6, -39371.89, 0.0, 9.998816, 9.99982 
2.0752051e+3, 2.3263524e+2, -754102.8, -679458.94, -12505.641, -0.046950236, 0.50583154, -677419.5, -17192.098, 0.0, 9.999144, 10.000078 
2.0752478e+3, 2.4263464e+2, -736632.3, -822491.5, -49914.734, 0.011285772, 0.5197809, -713725.5, -151493.89, 0.0, 9.999437, 9.998293 
2.0752878e+3, 2.5263348e+2, -581805.8, -731539.3, -74956.41, -0.06630906, 0.58673185, -550731.56, -86484.87, 0.0, 10.0, 9.997957 
2.0753287e+3, 2.62632e+2, -418865.34, -527214.0, -23463.459, -0.16843912, 0.6315491, -414002.47, -47740.137, 0.000000021824269, 10.0001, 9.998655 
2.0753716e+3, 2.7263e+2, -326541.28, -374957.94, 33047.715, -0.17053817, 0.5014676, -309783.84, -41506.832, 0.00000084431264, 9.999835, 9.99914 
2.0754156e+3, 2.8262794e+2, -370637.34, -621440.9, -11934.305, -0.070289195, 0.48851404, -370070.75, -199774.2, 0.000005133315, 10.000016, 9.996714 
2.0754585e+3, 2.9262617e+2, -119373.82, -508526.0, -87261.91, 0.017024772, 0.6517518, -100702.414, -28378.158, 0.000023723636, 10.001327, 9.99617 
2.0754978e+3, 3.0262348e+2, 51778.87, -178355.9, -112855.586, -0.26226655, 0.70557815, 97884.95, 97884.95, 0.00007269625, 10.001222, 9.998162 
2.075544e+3, 3.1262037e+2, 9005.9375, 25690.79, 114309.14, 0.02327005, 0.4368855, 131961.52, 131961.52, 0.0001604348, 9.999966, 10.00014 
2.0847411e+3, 1.2259226e+2, -1758278.4, -1748732.4, -60600.004, 0.028616196, 0.7666757, -1692717.8, 45938.617, 0.40993002, 9.999722, 9.999992 
2.0847823e+3, 1.3259153e+2, -1665496.9, -1483514.5, -16007.831, -0.19314654, 0.49302274, -1482117.1, 158539.33, 0.29801235, 9.998677, 10.001978 
2.0848267e+3, 1.425897e+2, -1769501.9, -1677361.9, -117176.34, -0.0071149436, 0.20690623, -1597524.3, -54853.46, 0.18298064, 9.998413, 9.999658 
2.0848684e+3, 1.5259238e+2, -1639847.4, -1622679.8, -87692.805, 0.13184439, 0.53546023, -1543151.6, -98498.664, 0.088167645, 9.9988985, 9.999117 
2.0849092e+3, 1.625944e+2, -1364116.6, -1271305.0, 36902.97, 0.1231894, 0.7819406, -1258420.6, 88216.95, 0.029713616, 9.999363, 10.00066 
2.0849502e+3, 1.7259355e+2, -1108767.0, -1009440.8, -6479.254, -0.07409869, 0.5494545, -1009019.94, 239619.73, 0.005333032, 10.000107, 10.0014 
2.0849924e+3, 1.8259284e+2, -1113522.6, -1164387.3, -55160.934, -0.16091363, 0.42172587, -1078213.4, 72429.664, 0.00018960002, 10.000262, 9.999597 
2.0850362e+3, 1.9259325e+2, -1151176.4, -1170055.8, -37468.004, -0.061279148, 0.51956344, -1121977.3, -69334.305, 0.000000020895914, 9.999512, 9.99923 
2.0850788e+3, 2.0259349e+2, -1104923.6, -1064050.3, -38505.027, -0.018480817, 0.62378734, -1040894.56, -86251.016, 0.0, 9.999016, 9.999528 
2.0851192e+3, 2.1259354e+2, -897428.8, -875984.7, -32673.082, -0.12810421, 0.632526, -852319.3, 4324.0366, 0.0, 9.999622, 9.99984 
2.0851606e+3, 2.2259311e+2, -750974.06, -762820.25, 8042.2417, -0.14790669, 0.6212709, -746909.1, 11736.645, 0.0, 9.999946, 9.999821 
2.085205e+3, 2.3259173e+2, -696824.44, -659309.3, -30432.73, 0.03986231, 0.46720326, -642317.8, 18335.676, 0.0, 9.999552, 10.0000305 
2.0852485e+3, 2.4259055e+2, -711695.06, -785492.9, -66253.25, 0.14053415, 0.41556635, -672758.44, -110096.37, 0.0, 9.999489, 9.9985285 
2.0852883e+3, 2.525901e+2, -498173.78, -658429.0, -49853.363, -0.026853792, 0.52527225, -483930.9, -19260.32, 0.0, 10.000419, 9.998266 
2.0853291e+3, 2.6258925e+2, -288555.66, -481740.3, 10403.45, -0.15944487, 0.61852163, -287997.03, 78683.92, 0.0, 10.001066, 9.998504 
2.0853718e+3, 2.7258733e+2, -193967.84, -346324.84, -29350.87, -0.15895808, 0.53173727, -188509.13, 80187.0, 0.000000115745564, 10.000903, 9.998819 
2.0854157e+3, 2.8258505e+2, -242803.36, -549064.0, -25436.709, -0.08317077, 0.5124875, -240705.06, -69986.086, 0.0000020138657, 10.000835, 9.996817 
2.0854592e+3, 2.9258266e+2, -129493.03, -478190.84, 18755.465, -0.014921985, 0.59704757, -128487.13, -55735.42, 0.000014504671, 10.001127, 9.996466 
2.0855002e+3, 3.0258092e+2, 103660.12, -124654.984, 56875.664, -0.13134675, 0.7104304, 117043.88, 117043.88, 0.000053401807, 10.001403, 9.998465 
2.0855437e+3, 3.125795e+2, 101128.82, 34506.316, 71618.9, -0.0101031745, 0.5936995, 146804.33, 146804.33, 0.00012548068, 10.00065, 9.999904 
2.0947444e+3, 1.2254497e+2, -1883176.9, -2018447.8, -251732.45, 0.30119362, 0.42140758, -1690152.0, 48965.227, 0.42994058, 9.99987, 9.998049 
2.0947827e+3, 1.3254596e+2, -1704662.6, -1541236.6, -31505.516, -0.027487123, 0.36461183, -1535373.3, 105736.99, 0.31401625, 9.998685, 10.00144 
2.0948237e+3, 1.4255257e+2, -1682328.3, -1518216.1, -113330.5, -0.17468783, 0.92029774, -1460354.4, 82691.68, 0.19429262, 9.998456, 10.000849 
2.094867e+3, 1.5255085e+2, -1491435.8, -1338674.9, -56534.543, 0.07535825, 0.6214918, -1320028.3, 125032.336, 0.094824284, 9.998952, 10.001126 
2.0949082e+3, 1.6254957e+2, -1408574.3, -1393092.8, 55275.582, 0.059347656, 0.4480774, -1345018.6, 2053.0916, 0.032688897, 9.999493, 9.999745 
2.0949492e+3, 1.7254981e+2, -1235748.5, -1281793.9, 25682.162, -0.20312786, 0.5019335, -1224280.4, 24789.951, 0.0061590113, 10.000137, 9.999509 
2.0949915e+3, 1.8255015e+2, -1092726.9, -1136221.9, -82092.6, -0.30967212, 0.58760226, -1029550.0, 121518.72, 0.00026052183, 10.000324, 9.999761 
2.0950355e+3, 1.9255093e+2, -1094848.9, -1050631.9, -61790.035, -0.102009155, 0.64978063, -1007114.25, 45948.81, 0.00000016154512, 9.999499, 10.000058 
2.0950784e+3, 2.0255168e+2, -1069769.3, -973669.8, -37691.473, 0.025788689, 0.72668916, -960650.5, -5593.7603, 0.0, 9.998943, 10.00018 
2.0951198e+3, 2.1255246e+2, -880234.8, -804456.3, -1446.4824, -0.023380335, 0.7495659, -804428.7, 52618.555, 0.0, 9.999471, 10.000401 
2.0951618e+3, 2.2255196e+2, -832418.3, -883036.06, -7122.311, -0.042508475, 0.7207749, -831435.25, -72385.74, 0.0, 9.999734, 9.999097 
2.0952049e+3, 2.3254867e+2, -798831.5, -834986.8, -36684.574, 0.04335268, 0.48644066, -776012.2, -114935.195, 0.0, 9.999395, 9.9989 
2.0952475e+3, 2.4254635e+2, -708564.25, -724780.3, -48706.67, 0.07781683, 0.37024924, -667295.4, -104198.68, 0.0, 9.999257, 9.999055 
2.0952894e+3, 2.5254652e+2, -448558.88, -522317.47, -2798.1433, 0.000002315303, 0.44253168, -448452.88, 16642.656, 0.0, 10.000271, 9.999275 
2.0953305e+3, 2.6254585e+2, -373540.6, -597595.5, 5130.0522, -0.12202696, 0.5194543, -373423.2, -6320.3384, 0.0, 10.000815, 9.997825 
2.0953721e+3, 2.7254367e+2, -306494.38, -542559.9, -22597.928, -0.25271553, 0.5180108, -304350.6, -35223.324, 0.0, 10.000741, 9.99755 
2.095415e+3, 2.825419e+2, -206399.97, -389265.47, -29263.979, -0.26634565, 0.5812725, -201831.0, -30683.408, 0.00000039293647, 10.000484, 9.99808 
2.09546e+3, 2.9254103e+2, -14808.747, -169527.25, 51811.414, -0.076615155, 0.6108038, 938.8032, 74097.914, 0.000007667558, 10.000829, 9.998729 
2.0955017e+3, 3.025393e+2, -18800.879, -212857.98, 29941.86, -0.15530232, 0.59849787, -14286.066, -14286.066, 0.000037309004, 10.00074, 9.998157 
2.0955427e+3, 3.1253886e+2, 30461.422, 65372.36, 5607.4453, -0.2182348, 0.68153447, 66250.93, 66250.93, 0.00009604867, 9.999979, 10.000402 
2.1047439e+3, 1.2250456e+2, -1772247.3, -1867904.4, -7461.712, 0.2606427, 0.5532575, -1771668.8, -32156.244, 0.44859928, 10.000058, 9.998891 
2.1047816e+3, 1.3250355e+2, -1718002.3, -1656887.1, 38420.605, -0.04808964, 0.37258226, -1638353.9, 3174.8994, 0.3298663, 9.999224, 10.0000925 
2.1048222e+3, 1.4251076e+2, -1773863.0, -1556768.1, -39044.2, -0.11166882, 1.0881478, -1549959.6, -6498.8086, 0.20615475, 9.99785, 10.000752 
2.1048652e+3, 1.525085e+2, -1450871.8, -1254324.1, -74404.92, 0.03245412, 0.6760019, -1229334.6, 216142.73, 0.10215144, 9.998943, 10.001758 
2.1049067e+3, 1.6250667e+2, -1417435.4, -1437105.9, -15044.676, -0.030939363, 0.4219827, -1409296.4, -61803.72, 0.036114734, 9.999612, 9.999378 
2.1049489e+3, 1.7250733e+2, -1365839.0, -1416138.9, 22847.396, -0.19142444, 0.5793598, -1357010.6, -107519.61, 0.007176738, 9.999561, 9.998857 
2.104992e+3, 1.8250796e+2, -1220670.6, -1176027.1, -30806.512, -0.22689661, 0.73013824, -1160305.4, -8817.294, 0.0003661867, 9.999356, 9.99995 
2.1050344e+3, 1.9250835e+2, -1086271.9, -992077.4, -59787.902, -0.11359077, 0.7098763, -963064.56, 90418.56, 0.00000091193453, 9.999339, 10.000529 
2.1050772e+3, 2.0250867e+2, -1006008.06, -958510.7, -33834.266, -0.015019427, 0.7160539, -940922.25, 14556.561, 0.0, 9.999401, 10.000083 
2.1051201e+3, 2.125088e+2, -855123.94, -828775.75, -64909.23, 0.04606683, 0.7012469, -775717.2, 81759.07, 0.0, 9.999761, 10.000116 
2.1051629e+3, 2.225083e+2, -783400.25, -843308.4, -80418.43, 0.08306423, 0.6886392, -727538.44, 31940.766, 0.0, 10.000024, 9.999212 
2.1052043e+3, 2.3250635e+2, -624522.9, -722667.44, -42456.055, 0.023437383, 0.56327546, -608706.0, 52788.9, 0.0, 10.000485, 9.99913 
2.1052466e+3, 2.4250473e+2, -498958.84, -616527.2, 11423.828, 0.00037473632, 0.50158215, -497859.1, 65649.08, 0.0, 10.000668, 9.999122 
2.1052895e+3, 2.5250408e+2, -481326.25, -532641.94, -26588.977, 0.025260068, 0.49378747, -470034.16, -4519.9336, 0.0, 10.000049, 9.9993 
2.1053317e+3, 2.6250303e+2, -497656.53, -657072.5, -16987.492, -0.022966787, 0.5259508, -495866.44, -128340.82, 0.0, 9.99993, 9.997858 
2.105373e+3, 2.7250138e+2, -268947.28, -521598.34, 19947.633, -0.21495432, 0.57962406, -267382.06, 2163.386, 0.0, 10.000965, 9.997596 
2.105416e+3, 2.825001e+2, -61170.863, -262211.25, 37124.13, -0.2317084, 0.66705936, -54534.58, 117026.27, 0.00000006547354, 10.00125, 9.998573 
2.1054608e+3, 2.9249895e+2, -132884.9, -164211.4, -28542.604, 0.0015514609, 0.62021685, -115990.25, -42417.74, 0.000004738257, 9.999766, 9.9992695 
2.1055022e+3, 3.0249718e+2, -153348.7, -246690.08, -12061.077, -0.08169026, 0.5600073, -151815.4, -151815.4, 0.00002905632, 9.999628, 9.998477 
2.1055445e+3, 3.124971e+2, 377447.03, 259251.75, -60830.67, -0.1306154, 0.6640807, 403160.38, 403160.38, 0.00007990105, 10.002207, 10.000673 
2.1147405e+3, 1.2246975e+2, -1610443.8, -1506975.9, 139194.94, -0.13232048, 0.97195077, -1410211.9, 329643.06, 0.46656317, 10.000087, 10.002741 
2.1147774e+3, 1.3246489e+2, -1867869.4, -1984906.3, -39401.277, -0.3911943, 0.54574025, -1855840.9, -213935.36, 0.34608045, 9.999307, 9.997784 
2.1148223e+3, 1.4246374e+2, -1872205.4, -1797459.6, -25731.805, 0.057176836, 0.6484821, -1789457.9, -245537.78, 0.21890919, 9.997996, 9.999034 
2.1148631e+3, 1.5246515e+2, -1489381.5, -1352758.6, -31853.885, -0.101009384, 0.6925746, -1345696.8, 100208.4, 0.110347085, 9.999043, 10.000963 
2.1149041e+3, 1.6246575e+2, -1385889.9, -1393352.8, -18291.861, -0.27559006, 0.71939564, -1370952.8, -23052.824, 0.040102176, 9.999704, 9.999633 
2.1149495e+3, 1.7246611e+2, -1319800.0, -1327035.9, 24979.535, -0.12601851, 0.7908942, -1298177.8, -48276.293, 0.008443992, 9.999582, 9.999458 
2.1149933e+3, 1.8246622e+2, -1201358.3, -1146324.5, -42656.617, -0.029048612, 0.8406102, -1123079.5, 28823.164, 0.00052604213, 9.999403, 10.00013 
2.1150333e+3, 1.9246542e+2, -1092200.4, -993967.06, -54124.61, -0.1806705, 0.6991144, -969995.3, 83909.12, 0.0000034897541, 9.999296, 10.000535 
2.1150742e+3, 2.0246428e+2, -1077175.1, -1079796.1, -31159.512, -0.24819265, 0.5901306, -1047298.56, -91387.11, 0.0, 9.999289, 9.999306 
2.1151194e+3, 2.124627e+2, -953712.7, -992758.75, -44111.793, -0.006247242, 0.5055966, -924996.75, -67067.8, 0.0, 9.999602, 9.999061 
2.1151634e+3, 2.2246224e+2, -762300.44, -742352.1, -68334.61, 0.108498394, 0.5308591, -683267.56, 76666.59, 0.0, 9.999775, 10.000025 
2.1152039e+3, 2.3246452e+2, -549715.56, -530863.44, -13225.258, -0.09800914, 0.6961766, -524048.88, 137860.25, 0.0, 10.000323, 10.000527 
2.1152452e+3, 2.4246529e+2, -560524.0, -686909.2, -10095.187, -0.2134577, 0.798547, -559722.75, 4177.36, 0.0, 10.000425, 9.998749 
2.1152891e+3, 2.5246242e+2, -568250.0, -684517.6, -41293.793, -0.040590126, 0.65297985, -555076.6, -89146.62, 0.0, 9.999928, 9.99831 
2.1153323e+3, 2.6246032e+2, -490885.66, -583899.8, 2954.01, 0.0102403, 0.6192936, -490791.94, -122839.984, 0.0, 9.999684, 9.998474 
2.1153748e+3, 2.724602e+2, -207402.9, -357156.03, 73810.15, -0.16461468, 0.7146888, -177139.39, 92813.35, 0.0, 10.000801, 9.998804 
2.115418e+3, 2.8245893e+2, -141876.77, -351233.47, -11030.961, -0.18448673, 0.7436697, -141297.16, 30668.28, 0.00000005479561, 10.000918, 9.998118 
2.1154614e+3, 2.9245588e+2, -230408.48, -340117.53, -60314.844, 0.07563462, 0.5877234, -203734.48, -129737.695, 0.0000044706885, 9.999633, 9.998133 
2.1155015e+3, 3.0245456e+2, -199782.31, -173994.38, 35574.434, -0.16549775, 0.60676694, -149049.28, -149049.28, 0.000027145721, 9.998971, 9.999259 
2.1155486e+3, 3.1245458e+2, 197166.53, 87969.805, 163278.6, 0.015006482, 0.58614546, 314733.44, 314733.44, 0.00007500409, 10.001387, 9.999873 
2.124749e+3, 1.22421995e+2, -2058643.9, -1515863.3, 343754.22, 0.94727015, 0.51779974, -1349281.4, 391039.38, 0.48543465, 9.99526, 10.00567 
2.1247765e+3, 1.3242273e+2, -1940502.9, -2044806.0, -232570.4, -0.3800193, 0.56899035, -1754308.5, -111991.59, 0.3637423, 9.998968, 9.997503 
2.1248218e+3, 1.424197e+2, -1551688.4, -1699682.4, -22433.79, 0.1202651, 0.5245805, -1548362.5, -4011.0825, 0.23315269, 10.000423, 9.998541 
2.1248618e+3, 1.524217e+2, -1429675.9, -1383043.9, -25169.44, -0.15953536, 0.6833401, -1372050.4, 74282.25, 0.1197026, 9.999708, 10.000436 
2.1249029e+3, 1.6242276e+2, -1506408.8, -1402503.4, 328.36398, -0.3072206, 0.7730124, -1402502.4, -54178.996, 0.044803485, 9.998655, 10.000089 
2.124949e+3, 1.7242329e+2, -1494054.0, -1332191.4, 36190.258, -0.048165806, 0.79523295, -1324468.3, -74146.81, 0.01004214, 9.998036, 10.000175 
2.1249932e+3, 1.8242355e+2, -1417219.3, -1229641.0, 14799.795, 0.09989891, 0.80808854, -1228480.5, -76161.1, 0.0007722133, 9.997817, 10.000319 
2.1250327e+3, 1.9242273e+2, -1124843.0, -1010398.1, -1672.8811, -0.13791071, 0.65845114, -1010373.6, 43947.027, 0.000010944595, 9.9990635, 10.000534 
2.1250737e+3, 2.0242159e+2, -1025090.1, -1082855.9, 28708.723, -0.25229272, 0.5564534, -1013249.44, -56921.527, 0.0, 9.999807, 9.999017 
2.1251184e+3, 2.1241978e+2, -995388.9, -1055625.8, 33474.363, -0.050747678, 0.49064615, -980477.9, -122129.125, 0.0, 9.999531, 9.998649 
2.1251623e+3, 2.2241917e+2, -816991.2, -776212.06, 47991.945, 0.061896432, 0.5272831, -744458.0, 15898.893, 0.0, 9.999414, 9.999976 
2.1252032e+3, 2.3242168e+2, -620925.06, -552011.1, 1516.989, -0.14684546, 0.707338, -551977.75, 110353.445, 0.0, 9.999788, 10.000637 
2.1252452e+3, 2.424227e+2, -604799.56, -716405.06, -48119.52, -0.23919852, 0.8297523, -586917.56, -22596.883, 0.0, 10.000159, 9.998675 
2.125289e+3, 2.5241998e+2, -497120.03, -669260.75, -52622.285, -0.048478313, 0.7211507, -482308.22, -15959.189, 0.0, 10.000491, 9.998154 
2.1253325e+3, 2.624179e+2, -349264.2, -494017.1, 42185.594, 0.043915033, 0.6924509, -337867.28, 30502.867, 0.0, 10.000582, 9.998651 
2.1253753e+3, 2.724171e+2, -305240.6, -370781.72, 28530.396, -0.12215748, 0.6953465, -294561.25, -24184.664, 0.0, 10.000023, 9.999073 
2.1254186e+3, 2.824157e+2, -253454.88, -371147.34, -60476.723, -0.12294624, 0.6823279, -227919.16, -55529.547, 0.000000117451826, 9.999976, 9.998456 
2.1254624e+3, 2.9241404e+2, 4588.8228, -187666.53, -59798.387, 0.14618134, 0.63989866, 21670.586, 96077.53, 0.0000050467984, 10.001075, 9.998486 
2.1255027e+3, 3.0241314e+2, 183964.64, -53791.66, 101729.8, -0.04134112, 0.7003157, 221550.44, 221550.44, 0.00002697455, 10.001804, 9.99877 
2.1255496e+3, 3.124118e+2, 80121.945, 9497.247, 73233.35, 0.050624434, 0.6194323, 126112.03, 126112.03, 0.00007158717, 10.000606, 9.999753 
2.1347788e+3, 1.3237636e+2, -1807989.0, -1758129.1, -174156.13, -0.07185424, 0.4450473, -1607127.8, 35641.676, 0.38411817, 9.998964, 9.999537 
2.1348208e+3, 1.4237891e+2, -1490815.0, -1574993.9, -21840.115, -0.07419836, 0.77072126, -1485486.0, 59266.188, 0.24951555, 10.000592, 9.999317 
2.1348609e+3, 1.5237811e+2, -1432421.3, -1401577.3, -55292.93, -0.23751916, 0.65622157, -1359595.9, 87163.86, 0.13052814, 9.999786, 10.000263 
2.1349023e+3, 1.6237734e+2, -1451281.6, -1315637.8, -38331.215, -0.24280187, 0.5500363, -1305555.3, 43211.313, 0.050404422, 9.998761, 10.0006485 
2.134947e+3, 1.7237867e+2, -1436614.5, -1215455.5, 17118.984, -0.04516511, 0.57376325, -1214138.3, 36614.45, 0.012084308, 9.998046, 10.000974 
2.1349907e+3, 1.8237992e+2, -1394089.1, -1197774.6, 38388.67, 0.040843338, 0.6259583, -1190534.9, -37795.875, 0.001155736, 9.997883, 10.000508 
2.1350324e+3, 1.9238031e+2, -1130201.3, -1018888.7, 53234.234, -0.07974647, 0.5973564, -997528.75, 57203.344, 0.000030850606, 9.999044, 10.000489 
2.1350744e+3, 2.0238031e+2, -1033367.7, -1073123.8, 19417.994, -0.16709904, 0.6094555, -1025457.3, -68726.83, 0.0, 9.999691, 9.99914 
2.1351169e+3, 2.1237962e+2, -1001324.06, -1038392.6, 28357.174, -0.16024394, 0.63802713, -985981.4, -127241.29, 0.0, 9.999401, 9.998832 
2.1351594e+3, 2.2237885e+2, -907333.25, -906664.56, 51660.535, -0.17460509, 0.6730198, -855337.3, -94587.16, 0.0, 9.99918, 9.999187 
2.1352024e+3, 2.3237784e+2, -723978.2, -736128.94, 25895.092, -0.21621321, 0.6128661, -703455.3, -40694.4, 0.0, 9.999655, 9.99944 
2.1352457e+3, 2.4237697e+2, -632353.7, -721257.94, -42595.54, -0.21710265, 0.61899346, -615239.8, -50469.75, 0.0, 9.999942, 9.998743 
2.135289e+3, 2.523767e+2, -477606.56, -601147.25, -30703.787, -0.08504192, 0.70511186, -470396.47, -3623.8657, 0.0, 10.00037, 9.998678 
2.1353325e+3, 2.6237547e+2, -407648.53, -561460.44, 21210.313, -0.040979076, 0.7412505, -404777.28, -35993.21, 0.0, 10.000365, 9.998285 
2.135375e+3, 2.7237183e+2, -379117.7, -488228.4, 21174.145, -0.1780308, 0.5238492, -375152.7, -104333.734, 0.00000000014169585, 9.999869, 9.998341 
2.1354179e+3, 2.8237e+2, -243284.38, -258814.67, -40187.49, -0.21174759, 0.47796243, -210118.7, -37282.25, 0.000000256191, 9.99961, 9.999386 
2.1354632e+3, 2.9237288e+2, 75141.37, -4763.6533, 5760.6143, 0.102596074, 0.7443657, 75554.53, 150362.81, 0.0000052967753, 10.000899, 9.99983 
2.1355054e+3, 3.023713e+2, -39333.05, -348142.0, 63371.746, 0.006909046, 0.7361811, -26834.201, -26834.201, 0.000025200057, 10.00115, 9.997028 
2.1355464e+3, 3.123658e+2, -29666.611, 15297.1875, 154734.45, -0.38662875, 0.4525386, 149174.45, 149174.45, 0.00006359548, 9.99967, 10.000214 
2.1447808e+3, 1.3233204e+2, -1571574.5, -1535889.1, -29101.87, 0.19260424, 0.45656487, -1519595.6, 123612.51, 0.40760165, 10.000153, 10.0009165 
2.1448198e+3, 1.42337e+2, -1735231.5, -1616313.0, -44461.953, -0.104339875, 0.8978359, -1601527.6, -56362.035, 0.26811564, 9.998424, 10.0000725 
2.1448602e+3, 1.5233584e+2, -1700008.8, -1487470.0, -61971.16, -0.17863095, 0.7079684, -1470720.6, -23543.855, 0.14296411, 9.997758, 10.000596 
2.1449019e+3, 1.6233481e+2, -1610482.3, -1368179.8, 15637.458, -0.09716682, 0.5477332, -1367174.8, -17989.494, 0.057087187, 9.997587, 10.000835 
2.1449456e+3, 1.7233582e+2, -1336795.5, -1145755.4, 18112.496, -0.030065252, 0.5195163, -1144053.3, 107117.53, 0.014719365, 9.998659, 10.001159 
2.1449885e+3, 1.8233684e+2, -1210232.3, -1126065.1, 18881.676, -0.004205039, 0.5458716, -1122023.4, 31133.936, 0.0017550356, 9.999233, 10.000349 
2.1450323e+3, 1.923376e+2, -1153216.9, -1064349.5, 575.8094, -0.005761787, 0.58505523, -1064345.9, -9195.909, 0.00008036648, 9.999045, 10.000176 
2.1450752e+3, 2.0233798e+2, -1123475.6, -1090745.3, -34841.953, -0.018396767, 0.64728427, -1068616.5, -111469.91, 0.000000018813253, 9.99895, 9.999376 
2.1451165e+3, 2.123376e+2, -939539.1, -963981.44, -28450.0, -0.13049507, 0.6659355, -920796.5, -61645.37, 0.0, 9.999619, 9.999235 
2.1451585e+3, 2.2233671e+2, -815028.8, -911538.56, 23033.04, -0.20302147, 0.68151677, -809813.56, -48652.49, 0.0, 10.0000305, 9.998746 
2.1452025e+3, 2.3233466e+2, -746384.9, -830399.4, 9298.431, -0.18494004, 0.59229505, -745368.1, -82184.14, 0.0, 9.999868, 9.9986925 
2.1452461e+3, 2.4233323e+2, -620305.25, -702786.5, -7708.984, -0.14149737, 0.58650637, -619590.94, -54391.387, 0.0, 9.999966, 9.998862 
2.1452895e+3, 2.5233346e+2, -378066.3, -501739.78, -13171.479, -0.08391085, 0.6837442, -376679.1, 90516.88, 0.0, 10.000839, 9.999128 
2.1453327e+3, 2.6233247e+2, -284550.9, -501433.84, 16263.677, -0.063330576, 0.7098077, -283338.13, 85866.336, 0.0, 10.001193, 9.998306 
2.145375e+3, 2.7232864e+2, -353745.2, -488650.53, 13753.546, -0.15159287, 0.48873764, -352357.3, -81116.22, 0.00000000016893417, 10.000092, 9.998233 
2.145418e+3, 2.8232706e+2, -270926.0, -338111.3, 21117.482, -0.16283143, 0.4920076, -264839.75, -91582.68, 0.0000002738674, 9.999672, 9.998824 
2.1454631e+3, 2.9232967e+2, 42439.133, -82500.125, -85599.1, 0.009053746, 0.80678093, 85939.6, 161174.5, 0.0000047479944, 10.000965, 9.999252 
2.1455066e+3, 3.0232725e+2, 71863.695, -300728.06, -89369.45, 0.0024813612, 0.7456263, 92190.79, 92190.79, 0.000021563434, 10.0018425, 9.997065 
2.1455476e+3, 3.123231e+2, 130670.42, 134698.72, 13676.042, -0.23848186, 0.588473, 146508.14, 146508.14, 0.000054127435, 10.000531, 10.000626 
2.1547817e+3, 1.322906e+2, -1538696.0, -1483498.3, -54147.53, 0.21592884, 0.6856272, -1450321.8, 193304.17, 0.43279883, 10.000297, 10.001531 
2.1548182e+3, 1.4229354e+2, -1667486.8, -1529410.3, -113949.67, -0.18767852, 0.8535016, -1465216.3, 80379.73, 0.28823382, 9.998603, 10.000757 
2.1548592e+3, 1.5229492e+2, -1638257.4, -1389747.3, -73363.09, -0.07933274, 0.8378532, -1369705.9, 77877.16, 0.15688464, 9.99783, 10.001326 
2.1549009e+3, 1.622955e+2, -1606327.5, -1391003.5, 35387.613, -0.002470641, 0.79730254, -1385336.9, -35761.098, 0.06501248, 9.997726, 10.000608 
2.1549436e+3, 1.7229475e+2, -1371771.3, -1222511.9, 64080.918, -0.103452355, 0.64331007, -1198775.1, 52800.184, 0.018139776, 9.998683, 10.000608 
2.1549866e+3, 1.8229418e+2, -1239738.9, -1207350.8, 12328.872, -0.16083333, 0.567903, -1203191.8, -49615.89, 0.0026903055, 9.999312, 9.999754 
2.1550313e+3, 1.9229458e+2, -1189572.1, -1138245.6, -1930.825, -0.013701264, 0.62364745, -1138173.1, -82598.586, 0.00019736934, 9.999042, 9.999665 
2.1550752e+3, 2.0229463e+2, -1117280.8, -1058174.0, -25521.512, 0.06504615, 0.6739502, -1048679.4, -91103.72, 0.0000007869328, 9.998864, 9.999641 
2.155117e+3, 2.1229371e+2, -917875.2, -892991.25, 3634.5715, -0.058915038, 0.5848881, -892471.25, -32889.387, 0.0, 9.999498, 9.999782 
2.1551591e+3, 2.222927e+2, -859685.94, -953064.7, 15224.229, -0.16227338, 0.5590682, -857266.5, -95675.84, 0.0, 9.999812, 9.998563 
2.1552026e+3, 2.322919e+2, -795675.56, -900988.0, 11515.148, -0.15000689, 0.6327496, -794431.2, -130828.516, 0.0, 9.999729, 9.998274 
2.1552463e+3, 2.4229115e+2, -649394.5, -700138.2, 11354.362, -0.13502511, 0.71245384, -646969.75, -81357.01, 0.0, 9.999705, 9.999 
2.1552901e+3, 2.5229013e+2, -380783.03, -469238.22, 30755.152, -0.12751773, 0.656611, -371140.78, 96479.65, 0.0, 10.000671, 9.9994335 
2.1553333e+3, 2.622886e+2, -299251.13, -474939.34, -15004.558, -0.15398112, 0.6000302, -297978.88, 71654.39, 0.0, 10.000955, 9.998599 
2.1553752e+3, 2.7228683e+2, -341392.6, -452651.03, -21137.918, -0.1466696, 0.55175835, -337511.97, -65862.59, 0.0, 10.00004, 9.998508 
2.1554182e+3, 2.822858e+2, -437376.78, -628449.0, 37847.45, -0.13687167, 0.6671033, -430153.06, -256491.5, 0.000000100631844, 9.999468, 9.996913 
2.1554619e+3, 2.9228437e+2, -173394.08, -471368.8, -3167.428, -0.22853431, 0.82479185, -173360.4, -97674.88, 0.0000031808167, 10.000709, 9.996705 
2.1555054e+3, 3.0228037e+2, 46332.316, -148423.02, -110019.53, -0.3460264, 0.69525534, 95878.805, 95878.805, 0.000016664693, 10.0010195, 9.998475 
2.1555513e+3, 3.1228384e+2, -12043.783, -38259.152, -36958.61, 0.022398258, 1.0619408, 14062.692, 14062.692, 0.00004561872, 10.000027, 9.999668 
2.1647839e+3, 1.3225237e+2, -1541261.4, -1525043.0, 74416.586, 0.42079493, 0.85502374, -1458295.1, 185707.03, 0.45757636, 10.0006895, 10.000889 
2.1648154e+3, 1.422507e+2, -1644213.6, -1549834.5, 49237.137, -0.3072514, 0.6253962, -1528824.6, 17188.121, 0.3088363, 9.998937, 10.000324 
2.1648584e+3, 1.522535e+2, -1347077.5, -1317060.0, 14099.811, -0.040731132, 0.7973883, -1311475.9, 136512.78, 0.17204043, 10.000265, 10.000726 
2.1649013e+3, 1.6225502e+2, -1230181.0, -1273873.1, 48742.953, 0.14630163, 0.9106101, -1198612.4, 151361.47, 0.07433442, 10.000625, 10.000064 
2.1649429e+3, 1.72253e+2, -1218868.0, -1205180.3, 72838.484, -0.09191286, 0.67806685, -1138864.9, 113119.91, 0.022589553, 9.999958, 10.00013 
2.1649851e+3, 1.8225145e+2, -1280710.8, -1274178.6, 34565.31, -0.22335677, 0.55085534, -1242725.4, -88730.83, 0.00413868, 9.999246, 9.999327 
2.1650301e+3, 1.922518e+2, -1208496.6, -1202756.8, -1380.4303, -0.045928605, 0.6506356, -1202442.0, -146445.45, 0.00045452762, 9.999153, 9.999176 
2.1650742e+3, 2.0225173e+2, -1095850.0, -1063281.1, -2064.0369, 0.08491671, 0.7258459, -1063150.8, -105150.41, 0.000007502901, 9.999067, 9.999514 
2.1651167e+3, 2.1225047e+2, -930912.75, -897230.3, -18498.545, -0.014531931, 0.6068556, -889055.06, -29046.375, 0.0, 9.99941, 9.9998 
2.1651594e+3, 2.2224937e+2, -866811.75, -910788.94, -19540.828, -0.084303014, 0.55857795, -859383.7, -97367.15, 0.0, 9.999572, 9.998965 
2.165203e+3, 2.3224902e+2, -791286.5, -838530.06, 16677.13, -0.07460633, 0.6230805, -785992.6, -121971.28, 0.0, 9.999501, 9.998807 
2.1652466e+3, 2.4224845e+2, -695530.4, -754238.3, 81798.95, -0.048126195, 0.69786036, -637977.94, -71949.59, 0.0, 9.999514, 9.998725 
2.1652906e+3, 2.5224692e+2, -549230.75, -603968.0, 38985.15, -0.08609166, 0.6428136, -528966.6, -60922.523, 0.0, 9.999767, 9.998931 
2.165334e+3, 2.622453e+2, -377600.66, -530490.56, -43718.56, -0.14519437, 0.6148873, -365982.3, 4077.9263, 0.0, 10.000496, 9.998435 
2.1653762e+3, 2.7224407e+2, -3910.7021, -286642.22, -93474.84, -0.14688542, 0.6280377, 24198.684, 296270.5, 0.0, 10.002373, 9.998507 
2.1654199e+3, 2.8224295e+2, 117071.79, -339211.28, -5277.7207, -0.07875684, 0.7258999, 117132.82, 291216.75, 0.0000000029805467, 10.003164, 9.997125 
2.1654631e+3, 2.9224062e+2, -107313.92, -386042.1, 101091.48, -0.162131, 0.7735927, -74509.97, 1602.4489, 0.000001345268, 10.000943, 9.997176 
2.1655056e+3, 3.0223778e+2, -20174.453, -113873.414, 178757.61, -0.35305196, 0.6771808, 117770.97, 117770.97, 0.000010778314, 10.000242, 9.999094 
2.165553e+3, 3.122409e+2, 402848.8, -1181.7788, 29730.254, 0.023205474, 1.0014397, 405024.78, 405024.78, 0.00003608632, 10.003599, 9.99819 
2.1747881e+3, 1.3221869e+2, -1630279.1, -1764843.1, -94460.08, 0.67368144, 1.0426918, -1581588.8, 62734.098, 0.48078975, 10.001114, 9.998345 
2.174812e+3, 1.4220923e+2, -1756615.3, -1824197.8, 97790.81, -0.6099016, 0.23245783, -1686942.0, -140534.08, 0.32934, 9.999149, 9.998289 
2.1748577e+3, 1.5221162e+2, -1476506.9, -1613929.6, 71937.62, -0.15886244, 0.5850294, -1445738.3, 2654.089, 0.18832743, 10.000313, 9.998479 
2.1749029e+3, 1.6221304e+2, -1271500.1, -1399033.9, 32213.543, 0.18790846, 0.87000287, -1263825.3, 86557.45, 0.0852701, 10.000793, 9.9990835 
2.174943e+3, 1.7221057e+2, -1231223.0, -1248880.6, 52824.664, -0.09305203, 0.6311275, -1186494.4, 65904.53, 0.028395085, 10.000037, 9.999783 
2.1749836e+3, 1.8220863e+2, -1302136.6, -1339139.5, 15592.1045, -0.31075272, 0.5013212, -1296442.8, -142028.95, 0.006367479, 9.999332, 9.998837 
2.1750279e+3, 1.9220904e+2, -1248265.3, -1286966.6, 58.63176, -0.19324742, 0.66002613, -1248265.1, -191847.28, 0.0009868387, 9.999155, 9.998595 
2.1750718e+3, 2.02209e+2, -1142518.9, -1147867.3, -3295.4534, -0.09576263, 0.79440665, -1140949.0, -182525.33, 0.000047582707, 9.999009, 9.998964 
2.1751155e+3, 2.1220767e+2, -985075.94, -977711.2, 791.5269, -0.07873998, 0.7197642, -977627.06, -117193.695, 0.00000000032497088, 9.99927, 9.999315 
2.1751592e+3, 2.2220649e+2, -843529.44, -803046.4, -23223.984, -0.07691516, 0.66009015, -792480.9, -30039.91, 0.0, 9.999324, 9.999821 
2.1752027e+3, 2.3220578e+2, -721190.25, -654528.75, 21350.059, -0.046345703, 0.5609579, -648277.1, 16165.247, 0.0, 9.999342, 10.000142 
2.1752466e+3, 2.4220486e+2, -778970.7, -862662.56, 77253.016, -0.019978689, 0.53892934, -732958.1, -166509.02, 0.0, 9.999247, 9.998102 
2.1752907e+3, 2.5220355e+2, -665643.9, -809435.3, 57190.836, -0.058621682, 0.6271714, -645671.25, -177202.0, 0.0, 9.999618, 9.997588 
2.1753342e+3, 2.622023e+2, -464241.66, -639342.7, 7249.3994, -0.16962275, 0.7399683, -463942.03, -93454.23, 0.0, 10.000203, 9.997823 
2.1753778e+3, 2.7220044e+2, -65437.66, -354896.63, -3571.6816, -0.24814335, 0.7252154, -65393.594, 207113.44, 0.0, 10.002121, 9.998157 
2.1754223e+3, 2.821984e+2, 181470.3, -92999.28, -59757.973, -0.16391927, 0.6850492, 193916.52, 368442.06, 0.0, 10.002704, 9.999029 
2.1754661e+3, 2.9219761e+2, 69721.35, 6465.218, 20468.594, 0.0150962435, 0.61217433, 75766.85, 152292.36, 0.00000028754212, 10.000835, 9.999923 
2.1755067e+3, 3.021975e+2, -113078.66, -197879.9, 219113.92, -0.30360726, 0.6325652, 67699.39, 67699.39, 0.0000061263827, 9.99984, 9.998679 
2.1755539e+3, 3.1219575e+2, 129632.375, -334583.75, 268562.2, -0.2935533, 0.6031768, 252488.81, 252488.81, 0.000027574106, 10.002619, 9.996362 
2.1848135e+3, 1.4216955e+2, -1900281.8, -1802308.8, -35391.26, -0.28365627, 0.34097537, -1790861.6, -244065.44, 0.34983045, 9.997723, 9.999117 
2.1848577e+3, 1.5216878e+2, -1678683.1, -1824152.5, -99725.84, -0.12719393, 0.47542283, -1627985.4, -179174.16, 0.2059314, 9.999391, 9.997494 
2.1849023e+3, 1.6217044e+2, -1586796.6, -1561349.5, -44860.816, 0.18241785, 0.8481919, -1527442.9, -176643.33, 0.09816949, 9.998632, 9.999004 
2.1849434e+3, 1.721684e+2, -1358318.6, -1277562.3, 3832.1833, 0.0017260765, 0.6379599, -1277380.8, -24568.955, 0.036017943, 9.999072, 10.00003 
2.184984e+3, 1.8216653e+2, -1296141.4, -1383554.0, 24134.229, -0.21426918, 0.51334244, -1289920.6, -135094.28, 0.009796201, 9.999556, 9.998431 
2.1850273e+3, 1.9216618e+2, -1109519.0, -1292194.5, 889.5525, -0.19323395, 0.655223, -1109514.6, -52675.96, 0.0020521113, 10.000409, 9.997951 
2.1850711e+3, 2.0216572e+2, -887982.94, -1034870.2, 13608.91, -0.12011194, 0.7916251, -886732.7, 72116.43, 0.00020967671, 10.000811, 9.998874 
2.1851155e+3, 2.1216474e+2, -815804.06, -884912.8, 32416.732, -0.05931882, 0.7443252, -802978.56, 57876.49, 0.00000086887735, 10.00038, 9.999422 
2.1851592e+3, 2.2216372e+2, -758385.4, -789520.7, 30687.25, -0.024041776, 0.70537513, -739542.9, 23318.168, 0.0, 10.0000105, 9.999593 
2.1852024e+3, 2.3216261e+2, -607083.4, -629707.94, -49591.676, -0.035089504, 0.5991704, -567530.1, 97337.77, 0.0, 10.00027, 9.999863 
2.185246e+3, 2.4216141e+2, -593581.9, -751729.3, -34775.94, -0.02267439, 0.5562569, -586272.56, -19394.291, 0.0, 10.000419, 9.9983015 
2.1852905e+3, 2.5216028e+2, -560376.8, -723464.75, 31793.723, -0.041790944, 0.6332091, -554397.9, -85503.73, 0.0, 10.000165, 9.997928 
2.185335e+3, 2.6215938e+2, -488814.53, -640133.75, 114764.01, -0.10178594, 0.75428236, -427014.5, -56107.203, 0.0, 9.999958, 9.997953 
2.1853794e+3, 2.7215752e+2, -366136.03, -501584.97, 118164.484, -0.18166539, 0.7469115, -297664.13, -24737.127, 0.0, 10.000041, 9.998173 
2.1854241e+3, 2.8215516e+2, -127758.74, -237649.03, 22580.14, -0.12993513, 0.6614497, -123299.914, 51649.734, 0.0, 10.000527, 9.999099 
2.185467e+3, 2.9215378e+2, 306856.16, 111132.69, -107261.03, -0.04100831, 0.5403886, 354190.3, 431145.34, 0.000000027227998, 10.00249, 9.999852 
2.1855086e+3, 3.0215493e+2, 391285.25, 2733.0293, -21121.834, -0.25892362, 0.7084302, 392430.06, 392430.06, 0.0000044959556, 10.003428, 9.998363 
2.1855554e+3, 3.1215188e+2, -188609.56, -383366.44, 29642.174, -0.22101592, 0.59910125, -184197.94, -184197.94, 0.000025056477, 9.999873, 9.997401 
2.1948184e+3, 1.4213069e+2, -1575296.8, -1235604.8, 169822.28, 0.3759117, 1.0015409, -1165269.0, 381919.25, 0.371045, 9.997689, 10.004329 
2.1948579e+3, 1.5212436e+2, -1633900.9, -1742156.4, -121356.414, -0.056924, 0.47484672, -1555148.3, -105896.95, 0.22535217, 9.999444, 9.9980345 
2.1948995e+3, 1.6212715e+2, -1508096.4, -1414262.4, -63877.457, 0.008305278, 0.8724217, -1381923.3, -30698.63, 0.113554515, 9.998705, 9.999978 
2.1949436e+3, 1.7212617e+2, -1306447.1, -1170600.4, 28567.129, 0.1116009, 0.69277143, -1164837.5, 88389.05, 0.046104282, 9.999063, 10.000796 
2.1949853e+3, 1.8212472e+2, -1298959.4, -1404196.6, 48876.992, -0.05321121, 0.5664793, -1279761.0, -124524.23, 0.015073848, 9.999618, 9.9982605 
2.1950285e+3, 1.9212323e+2, -1151313.1, -1376535.4, 38132.0, -0.13048579, 0.6483842, -1145032.3, -87773.164, 0.004138987, 10.000405, 9.997373 
2.1950723e+3, 2.0212193e+2, -880812.25, -1005807.7, 859.9702, -0.12094883, 0.7306522, -880806.3, 78470.19, 0.00072646124, 10.00075, 9.999102 
2.195116e+3, 2.1212156e+2, -797174.56, -808444.5, 17412.945, -0.058437563, 0.6889268, -784507.56, 76767.625, 0.000022642807, 10.000224, 10.000014 
2.1951592e+3, 2.2212102e+2, -879203.1, -981717.0, 24240.068, -0.050536595, 0.7001417, -873760.4, -110482.58, 0.000000000011542125, 9.999752, 9.998397 
2.195202e+3, 2.3211947e+2, -755170.8, -908138.6, -29253.887, -0.1315041, 0.72334075, -749767.1, -84468.92, 0.0, 10.000139, 9.9980135 
2.1952452e+3, 2.4211797e+2, -580373.9, -657988.7, -46215.01, -0.1929602, 0.74061155, -558833.6, 8482.128, 0.0, 10.000143, 9.999073 
2.19529e+3, 2.5211695e+2, -455101.47, -473964.7, 27431.008, -0.13175483, 0.661396, -435525.9, 33793.98, 0.0, 10.000031, 9.999703 
2.1953352e+3, 2.6211625e+2, -491006.25, -569813.2, 101237.49, -0.08942004, 0.6663589, -421774.25, -50451.617, 0.0, 9.999658, 9.998567 
2.1953806e+3, 2.721149e+2, -377458.84, -482283.8, 127685.02, -0.07448072, 0.67696786, -291847.66, -18509.934, 0.0, 9.999874, 9.998372 
2.1954247e+3, 2.8211242e+2, -287708.66, -492510.16, 60176.527, -0.15443103, 0.62527, -271335.97, -95971.37, 0.0, 10.000214, 9.997492 
2.195466e+3, 2.9210937e+2, 82319.82, -285389.03, -5748.111, -0.4042262, 0.56240606, 82409.65, 159806.86, 0.000000020729713, 10.002191, 9.997272 
2.1955103e+3, 3.0210987e+2, 257868.16, -111987.734, -86763.62, -0.47108424, 0.8694069, 277210.3, 277210.3, 0.0000055230016, 10.002777, 9.997855 
2.1955577e+3, 3.1210712e+2, -165853.88, -164316.72, -23668.105, -0.029811362, 0.7025607, -141404.72, -141404.72, 0.000029811183, 9.999212, 9.999185 
2.2048147e+3, 1.4208515e+2, -1555296.1, -1206538.0, 144501.61, 0.2876216, 1.0259031, -1154446.9, 393190.16, 0.39437363, 9.997561, 10.00483 
2.2048576e+3, 1.520801e+2, -1668993.9, -1553460.3, -108590.92, 0.037971694, 0.50681597, -1488227.0, -38541.65, 0.24751917, 9.998315, 9.999876 
2.2048987e+3, 1.6208394e+2, -1312616.5, -1289493.3, -31229.238, 0.03329213, 0.8627233, -1267754.1, 83893.5, 0.13222682, 9.999904, 10.000339 
2.2049433e+3, 1.7208272e+2, -1215536.4, -1202039.0, -38630.71, 0.14757763, 0.7081678, -1169571.9, 84082.27, 0.059555795, 9.999967, 10.000176 
2.2049858e+3, 1.8208103e+2, -1228613.6, -1325614.8, -43345.05, 0.029183997, 0.5849406, -1212067.4, -56399.8, 0.023171267, 9.999906, 9.99867 
2.2050293e+3, 1.9207983e+2, -1072366.9, -1252739.4, 27838.52, -0.0915719, 0.6272366, -1068168.0, -10485.484, 0.008108057, 10.000572, 9.9981575 
2.205073e+3, 2.0207874e+2, -886317.9, -1024476.6, 19219.832, -0.09581048, 0.68674886, -883693.94, 76001.266, 0.0021629941, 10.000779, 9.998963 
2.2051165e+3, 2.1207787e+2, -854900.94, -894888.44, -64718.04, 0.0022993067, 0.63911754, -807158.6, 54542.62, 0.00023583506, 10.000066, 9.999504 
2.2051597e+3, 2.2207686e+2, -934315.8, -1045117.7, -44686.844, 0.047004, 0.6529636, -918539.7, -154828.64, 0.0000019906881, 9.9995365, 9.998067 
2.2052021e+3, 2.3207597e+2, -822042.2, -977848.06, -6651.8364, -0.09967772, 0.7727518, -821758.7, -156030.44, 0.0, 9.999827, 9.997698 
2.205245e+3, 2.4207476e+2, -576642.94, -658265.06, 37448.594, -0.1849873, 0.8451087, -562065.0, 5679.6865, 0.0, 10.000164, 9.999068 
2.2052903e+3, 2.5207317e+2, -352210.6, -392328.72, -16855.584, -0.121379174, 0.6920047, -346068.94, 123682.78, 0.0, 10.000654, 9.999939 
2.2053355e+3, 2.620719e+2, -301525.0, -470321.0, -19573.236, -0.052212123, 0.6221471, -299285.06, 72473.0, 0.0, 10.000918, 9.998646 
2.2053808e+3, 2.7207053e+2, -263163.03, -432101.34, -27746.873, -0.04636261, 0.6364182, -258722.52, 15051.236, 0.0, 10.000669, 9.998339 
2.205425e+3, 2.8206885e+2, -214696.19, -446623.53, -7153.147, -0.13287248, 0.6606295, -214475.78, -38681.95, 0.0, 10.000678, 9.997578 
2.2054672e+3, 2.9206675e+2, -37925.105, -344679.4, 53403.977, -0.44297853, 0.69374645, -28893.713, 48926.47, 0.00000007580395, 10.001379, 9.997254 
2.2055127e+3, 3.02066e+2, 38761.125, -321696.25, 26281.076, -0.40946618, 0.9221885, 40667.21, 40667.21, 0.0000083740215, 10.001672, 9.996977 
2.2055604e+3, 3.1206214e+2, 354871.6, 263614.06, -110720.37, 0.18090975, 0.73333585, 428996.7, 428996.7, 0.000042885644, 10.001992, 10.000788 
2.2148056e+3, 1.4203455e+2, -1849932.3, -1663038.8, -226950.36, -0.43409067, 0.59841883, -1511049.6, 37075.57, 0.4221777, 9.997625, 10.000235 
2.2148569e+3, 1.5203574e+2, -1461393.8, -1201267.5, 4186.3994, 0.11599099, 0.56872183, -1201200.1, 248915.88, 0.27423543, 9.99826, 10.002971 
2.2148997e+3, 1.620405e+2, -1310925.9, -1303065.6, -25041.432, 0.09636659, 0.8169892, -1281647.8, 70423.625, 0.15564767, 9.999997, 10.000191 
2.2149421e+3, 1.720381e+2, -1347353.6, -1475613.3, -42756.414, 0.0076287077, 0.6971481, -1334407.3, -80312.81, 0.07778218, 9.999964, 9.998271 
2.2149849e+3, 1.820355e+2, -1159719.3, -1199477.5, -35492.734, -0.08344575, 0.58231336, -1138917.8, 17200.412, 0.035576556, 9.999973, 9.999508 
2.2150293e+3, 1.9203594e+2, -938747.9, -957891.9, 56791.703, -0.16126159, 0.59966063, -890727.2, 167382.81, 0.0154146915, 10.000509, 10.000221 
2.2150733e+3, 2.0203596e+2, -935732.0, -1102323.0, -70.41714, -0.17534369, 0.6516891, -935731.94, 24375.45, 0.005714695, 10.00067, 9.998482 
2.2151169e+3, 2.1203355e+2, -978746.3, -1124034.3, -85940.555, 0.020162567, 0.58973104, -938860.6, -76726.58, 0.0013616167, 9.999948, 9.997985 
2.21516e+3, 2.2203156e+2, -951951.94, -1027172.3, -53490.535, 0.1201942, 0.5958366, -924172.8, -160015.3, 0.00013056793, 9.999304, 9.998302 
2.2152026e+3, 2.3203193e+2, -771517.94, -840160.2, 13920.456, -0.03343839, 0.7483332, -768802.4, -102642.164, 0.0000045921656, 9.9996805, 9.998715 
2.2152458e+3, 2.4203159e+2, -678946.56, -786829.75, 40077.133, -0.14792137, 0.87137365, -665687.94, -97520.71, 0.000000030624218, 9.999821, 9.998343 
2.2152913e+3, 2.5202876e+2, -474501.0, -597485.0, 9873.428, -0.108344235, 0.71578455, -473713.4, -3522.4656, 0.0, 10.000453, 9.998623 
2.215336e+3, 2.6202607e+2, -383044.5, -565218.6, -35382.324, -0.11641038, 0.6047358, -376413.8, -4198.8115, 0.0, 10.000616, 9.998133 
2.2153804e+3, 2.720245e+2, -306343.63, -472918.13, -28845.383, -0.18647346, 0.61848253, -301489.94, -27256.86, 0.0, 10.000469, 9.998146 
2.2154248e+3, 2.8202435e+2, -188644.42, -294532.25, 3727.0862, -0.25380757, 0.760553, -188513.4, -12275.847, 0.0, 10.00028, 9.998799 
2.21547e+3, 2.9202512e+2, 48184.35, -112832.07, 91442.19, -0.31537485, 0.9032196, 89509.0, 167739.97, 0.00000027397763, 10.001165, 9.998939 
2.2155154e+3, 3.0202252e+2, -107180.28, -505489.3, 14775.864, -0.3465601, 0.8901308, -106632.9, -106632.9, 0.000015050563, 10.001214, 9.995904 
2.2155605e+3, 3.1201628e+2, 274032.28, 298711.56, -18308.836, -0.0476536, 0.60349476, 308450.88, 308450.88, 0.00007034586, 10.001174, 10.0014 
2.2248113e+3, 1.419861e+2, -1506934.0, -1616569.8, -497162.72, 0.12547573, 0.37230253, -1061576.1, 487023.13, 0.45833316, 10.001699, 9.999696 
2.224855e+3, 1.5199204e+2, -1479556.5, -1242675.9, 84285.63, 0.12423511, 0.64902747, -1215747.1, 234797.9, 0.30885017, 9.998359, 10.002627 
2.2249009e+3, 1.6199505e+2, -1222666.5, -1322157.5, -119878.78, 0.17945708, 0.78701407, -1142621.6, 209896.61, 0.18666483, 10.001062, 9.999585 
2.2249426e+3, 1.719931e+2, -1142838.6, -1388925.1, -115981.195, -0.0017354935, 0.73952925, -1096792.3, 157745.88, 0.103338934, 10.001569, 9.998102 
2.2249854e+3, 1.8199119e+2, -1009515.5, -1101818.8, -42927.62, -0.07561067, 0.6938591, -992637.3, 163918.92, 0.054786276, 10.0009365, 9.999748 
2.2250295e+3, 1.9199143e+2, -1052778.6, -968727.4, -75815.83, -0.10754274, 0.6525763, -924068.56, 134481.06, 0.028543482, 9.999492, 10.000649 
2.2250734e+3, 2.0199126e+2, -1200313.3, -1205985.1, -152378.95, -0.09031051, 0.64573604, -1050743.9, -90195.055, 0.013685946, 9.998756, 9.998684 
2.2251172e+3, 2.119892e+2, -922373.06, -1091279.3, -144471.39, 0.05295616, 0.61540794, -839481.25, 23090.85, 0.005262215, 10.000322, 9.99803 
2.2251604e+3, 2.219874e+2, -637627.7, -876283.4, -42672.168, 0.13701655, 0.6381451, -630227.25, 134366.23, 0.001420654, 10.001439, 9.998318 
2.2252029e+3, 2.3198746e+2, -610082.44, -755686.6, -59662.92, -0.014654256, 0.7575941, -588757.94, 77839.94, 0.0002619265, 10.00075, 9.998786 
2.2252458e+3, 2.4198699e+2, -643741.75, -807140.1, -34274.984, -0.11198455, 0.8773509, -636843.4, -68237.18, 0.000035642544, 10.000205, 9.99803 
2.2252917e+3, 2.5198445e+2, -481748.13, -656342.4, -8528.785, -0.086430885, 0.79573274, -481332.47, -10701.761, 0.0000011567587, 10.000585, 9.998183 
2.2253367e+3, 2.619818e+2, -363150.88, -541928.75, -5691.4917, -0.089462854, 0.71535736, -362969.88, 9686.904, 0.0, 10.000687, 9.998261 
2.2253807e+3, 2.7198055e+2, -250551.53, -396954.7, 2794.1804, -0.18931495, 0.72860837, -250498.22, 24171.852, 0.0, 10.000668, 9.998571 
2.2254258e+3, 2.8198102e+2, -98603.42, -225348.95, 76606.03, -0.2039861, 0.8954729, -62554.902, 114111.21, 0.0, 10.000775, 9.999054 
2.225473e+3, 2.9198083e+2, 94940.34, -67927.04, 35845.76, -0.1418198, 0.93824416, 102480.61, 181146.89, 0.00000073017384, 10.001418, 9.999113 
2.2255185e+3, 3.0197585e+2, -13643.734, -430486.66, -65031.574, -0.1612812, 0.6494237, -3733.7708, -3733.7708, 0.00002755439, 10.001697, 9.996211 
2.2255601e+3, 3.119725e+2, 383768.06, 363677.66, -35824.5, -0.22708616, 0.67440766, 410929.06, 410929.06, 0.000118261974, 10.00182, 10.0015745 
2.2348513e+3, 1.5194954e+2, -1764879.1, -1697639.5, 178246.31, -0.10149502, 0.83924705, -1549870.1, -98902.93, 0.35698506, 9.998158, 9.998911 
2.2349024e+3, 1.619471e+2, -1300243.0, -1492014.1, -80933.77, 0.17213288, 0.7355413, -1270652.3, 82341.016, 0.23053116, 10.001038, 9.998352 
2.2349446e+3, 1.7194739e+2, -1063993.6, -1182599.8, -97960.836, 0.033746492, 0.80817467, -1008783.9, 246205.39, 0.14104874, 10.001476, 9.999628 
2.2349863e+3, 1.8194792e+2, -1036929.06, -1151312.4, -88041.09, -0.096305326, 0.9065779, -989134.44, 167849.16, 0.08532412, 10.000935, 9.99941 
2.2350301e+3, 1.919463e+2, -1137362.9, -1135066.6, -125498.95, -0.024147032, 0.7830947, -1010710.56, 48290.965, 0.05187056, 9.999457, 9.999516 
2.2350737e+3, 2.0194483e+2, -1165658.9, -1108345.8, -131872.53, 0.025228158, 0.69594145, -1002052.06, -41034.914, 0.030293982, 9.998651, 9.999404 
2.2351173e+3, 2.1194462e+2, -836358.25, -876043.6, -73341.445, 0.017290715, 0.70861596, -780222.7, 82794.36, 0.015773455, 10.000167, 9.999585 
2.2351605e+3, 2.2194405e+2, -699587.5, -926330.06, -51547.23, -0.030902963, 0.76144075, -688419.0, 76603.12, 0.0069356123, 10.001117, 9.998119 
2.2352023e+3, 2.3194247e+2, -686239.1, -884798.3, -81352.03, -0.14337602, 0.7851989, -657165.3, 9876.757, 0.002541045, 10.000619, 9.997957 
2.2352454e+3, 2.41941e+2, -692197.3, -837965.6, -44647.207, -0.22078855, 0.86549443, -679609.44, -110548.63, 0.00075579167, 9.999919, 9.997949 
2.2352917e+3, 2.5194022e+2, -486864.0, -615786.75, 13055.437, -0.15650739, 0.9209139, -485555.22, -14484.031, 0.00014769337, 10.000368, 9.998563 
2.2353372e+3, 2.6193902e+2, -396626.63, -508974.9, -25788.898, -0.14148211, 0.9524253, -390989.75, -17905.37, 0.000007045108, 10.000271, 9.998673 
2.2353816e+3, 2.7193826e+2, -232256.05, -316659.22, 8204.184, -0.17555135, 0.94641113, -231465.97, 43623.15, 0.00000000065814787, 10.000486, 9.9992 
2.235427e+3, 2.8193825e+2, -205757.88, -358144.06, 69851.51, -0.16308321, 1.0441612, -178584.53, -1498.4312, 0.0, 10.000423, 9.99829 
2.235475e+3, 2.9193413e+2, -63433.035, -305001.9, 67947.08, -0.06457447, 0.8165995, -45632.895, 33490.39, 0.0000012574419, 10.00105, 9.997644 
2.235521e+3, 3.019258e+2, -57778.313, -340903.63, -84088.16, -0.121119775, 0.23732968, -34687.383, -34687.383, 0.000044073433, 10.000971, 9.997146 
2.2355601e+3, 3.1193262e+2, 168113.1, 138844.64, 116823.33, -0.439732, 1.1298146, 271215.22, 271215.22, 0.00018419352, 10.000935, 10.000427 
2.2448505e+3, 1.5190294e+2, -1450794.8, -1605838.5, -15962.673, -0.14030744, 0.9191959, -1449168.4, 2261.3564, 0.42759266, 10.000606, 9.998264 
2.2449043e+3, 1.618998e+2, -1324972.3, -1400624.0, -34298.574, 0.30648002, 0.72618616, -1311737.5, 41724.652, 0.29616648, 10.000363, 9.999304 
2.2449446e+3, 1.7190062e+2, -1218770.8, -1173505.8, -103325.16, -0.0058417455, 0.75708157, -1090363.4, 165089.69, 0.19952731, 9.999867, 10.000549 
2.2449851e+3, 1.8190165e+2, -1232837.5, -1221270.0, -114642.72, -0.21133727, 0.83140343, -1112265.3, 45177.92, 0.13536815, 9.999393, 9.999673 
2.2450298e+3, 1.9190148e+2, -1083393.6, -1112946.8, -94216.72, -0.015945103, 0.8538252, -1002801.75, 56646.78, 0.09319166, 9.999849, 9.999501 
2.2450742e+3, 2.0190127e+2, -899322.44, -948740.3, -432.46756, 0.13374658, 0.88177603, -899318.6, 62133.664, 0.06306426, 10.000306, 9.999751 
2.2451177e+3, 2.1190093e+2, -749164.75, -783106.3, -12345.412, 0.049529973, 0.8380031, -745149.44, 118301.5, 0.0400799, 10.000522, 10.000105 
2.245161e+3, 2.2189988e+2, -760236.75, -987918.5, -49165.457, -0.057323523, 0.82284564, -750073.6, 15384.719, 0.023131557, 10.000814, 9.997861 
2.2452028e+3, 2.3189728e+2, -687272.1, -955974.3, -111630.445, -0.1649439, 0.8010275, -646947.6, 20540.738, 0.011994159, 10.000913, 9.997335 
2.2452456e+3, 2.4189499e+2, -563697.56, -811189.3, -49948.863, -0.20655341, 0.8572512, -553997.06, 15518.032, 0.0054928027, 10.000931, 9.997649 
2.2452919e+3, 2.5189447e+2, -436990.66, -588764.1, -33502.434, -0.16568665, 0.94727236, -429924.3, 41597.97, 0.002050329, 10.000703, 9.998585 
2.2453374e+3, 2.6189348e+2, -361442.22, -496088.22, -76214.63, -0.13289213, 1.0074004, -327074.22, 46458.82, 0.0004876709, 10.000515, 9.998655 
2.2453831e+3, 2.7189246e+2, -55507.945, -214923.31, -77682.086, -0.107776046, 0.96863395, -23915.04, 251625.63, 0.000047167257, 10.001636, 9.999345 
2.245429e+3, 2.8189203e+2, -35626.117, -272871.38, -44625.71, -0.039428886, 1.0080698, -27509.715, 150032.48, 0.00000034188096, 10.001561, 9.998338 
2.2454762e+3, 2.9188794e+2, -126862.12, -350559.28, 408.4718, -0.020032194, 0.81392646, -126861.375, -47281.566, 0.0000013302117, 10.000628, 9.997567 
2.2455223e+3, 3.0188128e+2, -25163.02, -265155.06, -20212.74, -0.059207436, 0.3532905, -23472.559, -23472.559, 0.0000584347, 10.000872, 9.997731 
2.2455633e+3, 3.1188884e+2, 329766.84, 132803.03, -45630.92, -0.2671686, 1.3152413, 339824.63, 339824.63, 0.00025945, 10.002325, 9.999719 
2.2549057e+3, 1.6185376e+2, -1272774.8, -1184942.4, -52512.1, 0.35363588, 0.832301, -1160403.1, 193516.36, 0.39765337, 9.99976, 10.001811 
2.2549428e+3, 1.718526e+2, -1222554.6, -1158681.1, -123754.266, -0.2281651, 0.5802681, -1062809.1, 193122.61, 0.29298013, 9.999767, 10.00087 
2.2549817e+3, 1.81852e+2, -1227106.1, -1161256.5, -133318.6, -0.55927366, 0.45536685, -1056857.3, 101081.16, 0.21888196, 9.999205, 10.000256 
2.255028e+3, 1.9185641e+2, -1050356.4, -996639.25, -70716.164, -0.1906651, 0.8346302, -947852.9, 112043.39, 0.16615056, 9.999632, 10.000475 
2.2550742e+3, 2.0186006e+2, -937706.75, -968432.7, 4956.13, 0.073815614, 1.167989, -936927.1, 24932.977, 0.12546477, 10.000051, 9.999716 
2.2551182e+3, 2.1185791e+2, -807201.6, -863208.6, 396.7068, 0.022592904, 0.9782717, -807198.8, 56677.22, 0.0914258, 10.000375, 9.999586 
2.2551614e+3, 2.2185501e+2, -845426.2, -1096905.5, -47975.484, -0.09176284, 0.8287466, -836584.6, -70683.08, 0.062582165, 10.000518, 9.997258 
2.2552039e+3, 2.318519e+2, -752416.3, -1051173.1, -100288.57, -0.15556945, 0.80823153, -721873.4, -53936.715, 0.039919913, 10.000719, 9.996781 
2.2552466e+3, 2.4184899e+2, -696262.75, -949054.94, -72250.95, -0.22303785, 0.87036026, -677069.8, -107100.97, 0.023601582, 10.0003605, 9.996967 
2.255292e+3, 2.518474e+2, -496790.0, -653391.25, -36446.867, -0.2298971, 0.8837108, -488723.03, -16740.066, 0.012405956, 10.000461, 9.998247 
2.2553371e+3, 2.6184538e+2, -461684.13, -608561.94, -73909.63, -0.21312277, 0.893842, -430931.34, -56929.39, 0.005154125, 10.000126, 9.998063 
2.2553848e+3, 2.7184364e+2, -138093.66, -291522.7, -28715.09, -0.11112182, 0.8118102, -132895.58, 143124.8, 0.0013586987, 10.001242, 9.999002 
2.255431e+3, 2.8184265e+2, -114470.88, -266317.6, -102690.97, -0.03490028, 0.8049645, -62684.445, 115346.58, 0.00015517221, 10.000876, 9.998689 
2.2554761e+3, 2.9184207e+2, -113430.32, -225572.64, -16741.604, -0.10897594, 0.89474356, -110984.336, -30947.809, 0.0000026982873, 10.000289, 9.9985485 
2.255522e+3, 3.018415e+2, -92896.28, -295201.53, 12132.877, -0.21519002, 0.9519201, -92171.234, -92171.234, 0.000065484004, 10.000446, 9.997709 
2.2555661e+3, 3.1183925e+2, 187598.4, -5399.8813, -16948.148, -0.2514333, 1.0125111, 189075.4, 189075.4, 0.00034262822, 10.001724, 9.99904 
2.2649446e+3, 1.7181675e+2, -1438674.9, -1379457.0, 353095.84, 0.06780541, 1.0805709, -1054730.9, 201545.53, 0.44342524, 9.99846, 10.000415 
2.2649895e+3, 1.8181925e+2, -739103.94, -1132373.8, 175550.72, -0.00005757412, 1.218407, -672141.9, 486114.78, 0.3585124, 10.005244, 9.997695 
2.2650318e+3, 1.9181567e+2, -994239.5, -1243631.3, -55461.21, 0.13217725, 1.1034431, -982461.94, 77831.06, 0.29413474, 10.001478, 9.997748 
2.265074e+3, 2.0181261e+2, -1135508.8, -1158111.5, -80466.49, 0.12957764, 0.9574113, -1065553.9, -103230.07, 0.24160613, 9.998975, 9.9989605 
2.2651169e+3, 2.1181162e+2, -906468.2, -957685.8, -84874.83, -0.082945056, 0.93229353, -843422.94, 20909.492, 0.1940874, 9.999805, 9.999249 
2.2651608e+3, 2.2181001e+2, -795325.1, -1090309.3, -112204.72, -0.20661089, 0.93791354, -757496.4, 8851.42, 0.14888066, 10.000893, 9.997143 
2.2652051e+3, 2.3180684e+2, -726831.44, -1038608.06, -167143.64, -0.102659196, 0.9315278, -654163.06, 14217.53, 0.108788945, 10.00091, 9.996782 
2.265249e+3, 2.4180318e+2, -560828.8, -847744.4, -55652.992, -0.036134202, 0.9092239, -550412.0, 20004.994, 0.07581198, 10.001045, 9.997374 
2.2652937e+3, 2.5180045e+2, -349919.13, -559006.7, 9441.216, -0.13018993, 0.7748818, -349493.66, 122947.02, 0.048806984, 10.001309, 9.998554 
2.2653377e+3, 2.6179788e+2, -367353.66, -657311.56, 3257.651, -0.21647492, 0.7565274, -367317.06, 7147.5435, 0.026684597, 10.001088, 9.997297 
2.2653848e+3, 2.7179664e+2, -225371.6, -436477.13, -531.54846, -0.190227, 0.80704045, -225370.25, 51112.414, 0.010897145, 10.000986, 9.998176 
2.2654304e+3, 2.8179607e+2, -260908.83, -319624.3, -108787.87, -0.08767877, 0.89415944, -177587.05, 905.6223, 0.002788968, 9.999757, 9.998883 
2.2654773e+3, 2.9179692e+2, 188786.9, -6748.4683, 3573.4211, -0.08009459, 1.0787033, 188852.19, 269337.63, 0.0003034348, 10.00206, 9.999203 
2.2655241e+3, 3.0179727e+2, 341668.1, -128640.055, 27287.922, -0.18983147, 1.157597, 343246.06, 343246.06, 0.000074942734, 10.003671, 9.997304 
2.2655691e+3, 3.117894e+2, 450606.1, -21617.383, -110746.44, -0.23845045, 0.8891343, 475288.38, 475288.38, 0.00045627946, 10.004035, 9.997905 
2.2750732e+3, 2.0176089e+2, -1173013.1, -1481996.3, -102924.516, 0.10488654, 0.4798821, -1141867.8, -179044.02, 0.4526298, 10.000056, 9.996172 
2.2751153e+3, 2.1176279e+2, -706593.7, -850228.44, -4173.63, -0.25250432, 0.7799388, -706472.5, 158340.23, 0.38963944, 10.001987, 9.998934 
2.275162e+3, 2.2176474e+2, -718986.94, -1066824.8, -53792.258, -0.20820825, 1.1431278, -710858.06, 55940.402, 0.32267725, 10.001718, 9.996868 
2.2752073e+3, 2.317607e+2, -755795.6, -1011452.2, -114766.195, 0.022876337, 1.004914, -711835.25, -43001.168, 0.25840095, 10.000545, 9.997091 
2.2752525e+3, 2.4175616e+2, -638149.6, -832784.44, -38446.45, 0.13778356, 0.8502761, -630830.5, -59956.207, 0.20062341, 10.000305, 9.997801 
2.275297e+3, 2.5175333e+2, -399268.94, -486306.88, 25629.006, 0.027917327, 0.57096523, -392283.0, 80615.984, 0.14660953, 10.000643, 9.999338 
2.2753383e+3, 2.6175135e+2, -714382.25, -1015554.7, -41165.047, -0.30021748, 0.6326058, -708857.06, -333938.3, 0.09444842, 9.99957, 9.995532 
2.2753838e+3, 2.7175176e+2, -391442.34, -650651.06, -14937.88, -0.41957366, 0.9734024, -390584.3, -113660.086, 0.04983968, 10.000458, 9.996919 
2.275428e+3, 2.8175226e+2, -407764.88, -422354.38, -148965.2, -0.34914988, 1.2546316, -265915.9, -86988.11, 0.019500945, 9.998941, 9.998539 
2.275479e+3, 2.917528e+2, 118734.5, -13454.504, 91151.836, -0.13617092, 1.3490423, 165232.81, 246157.2, 0.004786881, 10.001524, 9.999385 
2.2755267e+3, 3.017493e+2, 96778.14, -366290.3, -24009.615, -0.32755136, 1.0465454, 98019.69, 98019.69, 0.0007184054, 10.002598, 9.996145 
2.2755703e+3, 3.1174132e+2, 61150.22, -466520.03, 108703.875, -0.55482763, 0.9801756, 82666.64, 82666.64, 0.0007782504, 10.002646, 9.995433 
2.2852518e+3, 2.4171697e+2, -181807.56, -775232.44, -100682.35, -0.3849592, 1.1626184, -165190.78, 406070.3, 0.45869297, 10.006353, 9.995824 
2.2852966e+3, 2.5170478e+2, -711529.7, -1008589.9, -333462.4, -0.027479403, 0.4562546, -495014.1, -21628.678, 0.36361384, 9.999948, 9.996199 
2.285336e+3, 2.6170978e+2, -1057107.3, -1029797.5, -250452.75, -0.36796612, 1.3523203, -792627.6, -417287.13, 0.26167566, 9.996359, 9.99705 
2.2853868e+3, 2.7170536e+2, -50176.336, -322387.8, 71551.92, -0.22736269, 1.0510671, -32514.557, 244869.3, 0.1640845, 10.002341, 9.99839 
2.2854301e+3, 2.8170124e+2, 174270.88, -279540.4, -102874.73, -0.2440913, 0.87101185, 196502.5, 375927.53, 0.0825175, 10.00371, 9.997284 
2.2854798e+3, 2.9170173e+2, 381374.94, -77579.77, 97674.305, -0.3132226, 1.1264497, 401297.13, 482723.66, 0.030766618, 10.004114, 9.997783 
2.28553e+3, 3.016989e+2, 286137.06, -23762.002, -141915.56, -0.24607155, 0.9298422, 341305.1, 341305.1, 0.009050315, 10.002681, 9.998512 
2.2855692e+3, 3.116997e+2, -78963.33, 233021.53, 230191.56, -0.7254082, 1.3459766, 355097.06, 355097.06, 0.0039658006, 9.998314, 10.002328 
2.2953908e+3, 2.7166474e+2, 306094.88, 164756.61, 186359.89, -0.07402763, 1.7561848, 434734.88, 712523.5, 0.434636, 10.005633, 10.002358 
2.2954355e+3, 2.8164512e+2, -882005.56, -1270095.1, -392967.84, -0.14965884, -0.12839806, -637784.3, -457819.06, 0.25417694, 9.998359, 9.992971 
2.2954802e+3, 2.9164797e+2, -22659.209, -594766.4, 154733.73, -0.741767, 0.5952626, 16508.947, 98460.4, 0.121762075, 10.002863, 9.994713 
2.2955339e+3, 3.016493e+2, -337507.16, -31168.506, -291427.03, -0.2343698, 0.9291208, 144889.36, 144889.36, 0.053972993, 9.997291, 10.000979 
2.2955674e+3, 3.116613e+2, 609015.3, 1996578.0, -22981.37, -0.8480965, 1.5589458, 1996958.5, 1996958.5, 0.031369142, 9.997066, 10.015345 
2.305486e+3, 2.9161003e+2, -555782.4, 672025.06, -100565.61, -0.22305328, 1.4891226, 680207.5, 762538.7, 0.3609583, 9.990146, 10.013059 
2.3055406e+3, 3.0162153e+2, 976363.44, 444520.44, 361182.78, -0.46237522, 1.4565644, 1158958.6, 1158958.6, 0.21434404, 10.008488, 9.999753 
2.3055759e+3, 3.1159797e+2, -507671.6, -2060608.9, -208508.86, -0.16732663, 0.7849281, -480162.94, -480162.94, 0.16614972, 10.003732, 9.984539 
2.3514237e+3, 2.7511674e+2, -383350.97, 274519.5, 270792.97, -0.6586043, 0.60681117, 371644.38, 615473.1, 0.45013323, 9.994333, 10.008521 
2.350995e+3, 2.8508914e+2, 155909.52, -388954.1, -488143.75, -0.67251116, -1.6392382, 442497.75, 588576.6, 0.3536936, 10.0044565, 9.996243 
2.350606e+3, 2.9510957e+2, 85235.63, 320363.0, 457241.22, 1.3404822, 0.5967567, 674912.4, 722799.5, 0.2771592, 9.999817, 10.003404 
2.3501843e+3, 3.050803e+2, 488930.63, 310182.2, -526898.7, -0.98042035, -1.217099, 933981.3, 933981.3, 0.22294018, 10.005216, 10.000702 
2.365512e+3, 1.7561974e+2, -2088229.6, -1330748.3, -22246.828, -0.7665734, 0.4142065, -1330095.4, -111197.375, 0.43640998, 9.992039, 10.002359 
2.3651028e+3, 1.8559606e+2, -629329.2, -1110118.9, 6911.026, -0.6165464, -0.97884387, -629229.9, 491894.5, 0.37759894, 10.00661, 9.996091 
2.3646921e+3, 1.9559352e+2, -823777.7, -1273151.4, 1219.3193, -0.2685582, -0.17293662, -823774.4, 199375.63, 0.33353588, 10.00323, 9.995954 
2.364291e+3, 2.055846e+2, -1601676.0, -1409561.1, 44510.813, 0.17678817, 0.060496993, -1399749.5, -474508.88, 0.30097756, 9.995542, 9.998018 
2.3638858e+3, 2.1556854e+2, -1359335.9, -1219577.4, 245526.9, 0.018607378, -0.6276798, -1034179.1, -206775.72, 0.27814174, 9.9962225, 9.998469 
2.3634759e+3, 2.255668e+2, -46013.84, -634061.2, -288407.2, -0.00045895705, 0.20868567, 71822.45, 801244.7, 0.261044, 10.007047, 9.996846 
2.3630568e+3, 2.3555337e+2, -1856668.6, -1437763.9, -460399.56, -0.6811849, -0.13816054, -1141411.9, -509858.6, 0.24562545, 9.991839, 9.997749 
2.362648e+3, 2.4554542e+2, -1935121.0, -942263.1, 44985.055, -0.40680373, -0.14707187, -940229.1, -406600.2, 0.23008406, 9.988567, 10.002028 
2.3622398e+3, 2.5553736e+2, -1518400.4, -551432.25, 460296.88, -0.5284855, -0.33413464, -367361.03, 68343.336, 0.20982926, 9.990061, 10.003463 
2.3618293e+3, 2.65532e+2, -241602.03, 97228.44, -58949.727, 0.058467753, -0.5010686, 107191.555, 444943.53, 0.17457218, 9.997913, 10.004093 
2.361425e+3, 2.7552265e+2, -819140.3, -1025894.2, 5533.454, 0.71740514, -0.70730317, -818992.3, -579156.5, 0.12478896, 9.997713, 9.995026 
2.3610042e+3, 2.855117e+2, 335695.22, -346334.4, -553389.1, 0.5895364, -0.5112664, 644704.0, 786647.56, 0.08185397, 10.004874, 9.99577 
2.3605816e+3, 2.9550883e+2, -20819.844, -15439.312, 114671.17, -0.38995594, -0.11607825, 96573.15, 140553.08, 0.055251535, 9.999958, 9.999952 
2.3601826e+3, 3.0549437e+2, 325420.97, 314601.0, 320740.16, -0.63415325, -0.5931121, 640796.75, 640796.75, 0.03959085, 10.002071, 10.001397 
2.3763418e+3, 1.5602109e+2, -1979956.8, -1774439.4, -153602.77, 1.0520878, -1.0958488, -1692392.4, -281425.63, 0.4091622, 9.995728, 9.998884 
2.3759106e+3, 1.6602963e+2, -734365.9, -749474.44, 17448.186, -1.0151852, 0.42123374, -722906.9, 589982.94, 0.31914034, 10.00353, 10.003288 
2.3755139e+3, 1.7601919e+2, -839547.44, -827523.3, -50892.164, 0.04271878, -0.1913067, -782289.3, 432685.16, 0.25440004, 10.001634, 10.002186 
2.3751071e+3, 1.8600719e+2, -851665.5, -1209562.4, -127377.05, 0.32945672, -0.5036299, -810960.9, 306128.53, 0.20803122, 10.002904, 9.997349 
2.3746955e+3, 1.9599918e+2, -395393.22, -952073.5, -102597.766, 0.26210982, -0.25027397, -377086.2, 642088.6, 0.17323056, 10.005723, 9.997228 
2.3742847e+3, 2.0599024e+2, -471042.9, -674669.0, -32767.25, 0.0792222, -0.1947379, -465899.94, 455364.56, 0.14628343, 10.002823, 10.000009 
2.3738752e+3, 2.1598057e+2, -1128869.5, -895083.25, 4002.2349, 0.069637954, -0.37624574, -895014.75, -71656.17, 0.1255341, 9.996904, 10.000403 
2.3734699e+3, 2.2597274e+2, -881201.44, -701583.06, 184417.13, 0.37606823, -0.3830949, -586269.44, 139162.52, 0.10829949, 9.997874, 10.000653 
2.3730634e+3, 2.3596436e+2, -62111.45, -252387.02, 214783.52, 0.5688598, -0.41283083, 77661.71, 705171.0, 0.09199208, 10.003168, 10.000699 
2.3726495e+3, 2.4595714e+2, 221946.33, 1721.2904, 67095.23, 0.40688533, -0.40860027, 240777.73, 770359.06, 0.07586676, 10.00415, 10.001365 
2.372237e+3, 2.5594908e+2, -201331.77, -404243.5, -47705.973, 0.09219011, -0.3784056, -190675.4, 240989.44, 0.059159193, 10.001508, 9.998833 
2.3718223e+3, 2.6594093e+2, 181742.64, -33856.39, -382456.0, 0.07278142, -0.36198086, 471301.06, 805046.8, 0.04041217, 10.002834, 10.000172 
2.371414e+3, 2.7593178e+2, 21007.78, -466541.5, -33273.695, 0.27020127, -0.36140698, 23268.123, 259102.9, 0.02171852, 10.003035, 9.996207 
2.3709968e+3, 2.85921e+2, 331207.53, -206892.22, -353041.53, 0.18891473, -0.24595386, 506033.97, 643972.9, 0.009489362, 10.004276, 9.996678 
2.3705806e+3, 2.9591164e+2, 418872.72, 240403.56, 150105.5, -0.009798874, -0.37602472, 504264.8, 544295.44, 0.004343628, 10.002979, 10.000005 
2.3701751e+3, 3.05902e+2, -392644.9, -264929.25, 196623.97, -0.5242499, -0.2588372, -122053.414, -122053.414, 0.0025753903, 9.997857, 9.998997 
2.3867273e+3, 1.4643961e+2, -1255367.6, -1263054.0, 138907.31, -0.2538899, -0.79101515, -1120250.4, 384596.22, 0.3896823, 10.001531, 10.001275 
2.3863177e+3, 1.5644343e+2, -1523695.9, -1398701.6, 67819.98, -0.3594549, 0.2226553, -1368973.9, 37852.465, 0.27836236, 9.99831, 10.000401 
2.3859094e+3, 1.6643408e+2, -1380283.5, -1102567.6, 130386.87, -0.4067487, -0.0047495356, -1050946.5, 257971.22, 0.19862524, 9.997888, 10.002134 
2.385502e+3, 1.7642032e+2, -1128701.1, -1039261.1, -9710.832, -0.44886833, -0.8199789, -1038218.94, 172822.11, 0.1461588, 9.999478, 10.001029 
2.385091e+3, 1.8641241e+2, -1267208.8, -1286583.4, -768.1147, -0.5718609, -0.7529032, -1267178.4, -154061.67, 0.11113541, 9.998927, 9.998678 
2.3846799e+3, 1.9640616e+2, -1452051.0, -1357185.6, 97213.2, -0.6607417, -0.4500502, -1296450.5, -281267.8, 0.08556882, 9.99696, 9.998559 
2.3842722e+3, 2.0639762e+2, -1053799.0, -851024.56, 95915.305, -0.4222725, -0.46412542, -812844.2, 104422.72, 0.065839775, 9.997937, 10.000872 
2.3838633e+3, 2.1638766e+2, -724688.25, -668255.56, 45393.855, -0.176691, -0.7356434, -643023.25, 176338.67, 0.050802168, 9.999621, 10.000694 
2.3834527e+3, 2.263822e+2, -583522.56, -299088.9, 217091.98, -0.45148364, -0.668746, -181778.17, 539631.44, 0.038884565, 9.998896, 10.002913 
2.3830432e+3, 2.3637834e+2, -886348.6, -626957.8, 94044.984, -0.80935615, -0.46278793, -596449.1, 26990.846, 0.028499383, 9.997137, 10.000776 
2.382634e+3, 2.4636929e+2, -808818.44, -924974.1, -98285.89, -0.5790726, -0.44540435, -752733.44, -227200.3, 0.019239577, 9.998691, 9.997267 
2.3822296e+3, 2.5635603e+2, -821738.1, -1132814.1, 7737.0977, 0.033061333, -0.5555705, -821545.8, -393871.2, 0.011432521, 9.999108, 9.994945 
2.3818174e+3, 2.6634893e+2, 36939.117, -27571.24, -165694.52, 0.16048405, -0.28620246, 173488.75, 503239.4, 0.005416997, 10.001566, 10.000666 
2.381404e+3, 2.7634332e+2, -92745.24, -263684.94, 19947.168, -0.18947217, -0.08841219, -90448.44, 141360.48, 0.001679893, 10.001109, 9.998542 
2.3809879e+3, 2.863309e+2, 271478.38, -33914.16, -244429.73, -0.28561354, -0.32272708, 406986.97, 540913.8, 0.00032890253, 10.002954, 9.998521 
2.3805796e+3, 2.9632148e+2, -2468.188, -135363.5, 92005.75, 0.365056, -0.52410483, 44575.78, 80587.41, 0.000101582686, 10.000724, 9.998583 
2.3801653e+3, 3.0631426e+2, -653688.94, -619484.1, 133671.14, -0.6573727, 0.009810755, -501825.75, -501825.75, 0.00014345827, 9.997043, 9.99697 
2.3971306e+3, 1.3685587e+2, -1348627.6, -1089248.4, 169309.9, -0.64464957, -0.6573014, -1005665.3, 593099.0, 0.42782584, 9.999644, 10.005531 
2.3967224e+3, 1.4685695e+2, -1205671.4, -1138884.5, -63803.504, -0.12533595, -0.13971013, -1100264.0, 400492.63, 0.2998544, 10.001025, 10.002481 
2.3963083e+3, 1.568473e+2, -1425994.1, -1307318.8, -2037.81, -0.35907644, -0.50123566, -1307283.8, 95571.53, 0.19614406, 9.998659, 10.000988 
2.395901e+3, 1.6683947e+2, -1423138.9, -1344066.9, 152142.56, -0.32729352, -0.49864918, -1226407.3, 78528.12, 0.12585048, 9.998587, 9.99989 
2.3954964e+3, 1.7683175e+2, -1166983.0, -1175481.5, 14405.062, -0.18925464, -0.45945084, -1156213.6, 50798.887, 0.083471425, 9.999685, 9.999845 
2.395086e+3, 1.8682516e+2, -942548.75, -725200.4, -87396.6, -0.19529328, -0.44849208, -694417.6, 414655.7, 0.057587944, 9.999359, 10.002503 
2.3946731e+3, 1.9681889e+2, -1160520.5, -888229.56, 74781.16, -0.29031196, -0.492039, -869043.75, 142085.06, 0.03970386, 9.997519, 10.001538 
2.3942642e+3, 2.0681153e+2, -1033924.06, -921762.0, 196229.03, -0.22973475, -0.46474105, -773757.5, 139442.92, 0.026570952, 9.998459, 10.000095 
2.3938566e+3, 2.1680333e+2, -583758.06, -681913.56, 162919.2, -0.10879386, -0.4524138, -462685.03, 352597.4, 0.017417854, 10.000973, 9.999897 
2.393448e+3, 2.2679566e+2, -537660.0, -511990.0, 101880.1, -0.08919519, -0.44391772, -422139.6, 295215.28, 0.011141793, 10.000229, 10.000722 
2.3930396e+3, 2.3678717e+2, -861454.2, -780736.9, 5476.5547, -0.14497462, -0.47140703, -780366.94, -160933.92, 0.0065593217, 9.998022, 9.999259 
2.3926285e+3, 2.4677734e+2, -649304.25, -651413.5, -49574.453, -0.1747016, -0.56234884, -600773.25, -79240.305, 0.0032030866, 9.99895, 9.998994 
2.3922199e+3, 2.5676653e+2, -503236.0, -725995.1, 145594.1, -0.10989876, -0.61938804, -431304.22, -7657.009, 0.0011282732, 10.000225, 9.99715 
2.3918095e+3, 2.6675993e+2, -84032.87, -124293.32, 4481.356, 0.06925323, -0.3433496, -83540.086, 242177.9, 0.00023273825, 10.00094, 10.000255 
2.3913994e+3, 2.7675423e+2, -141332.38, -100002.65, 103751.664, 0.10248819, -0.14041722, -14877.888, 212900.17, 0.000018051116, 9.999973, 10.000162 
2.390981e+3, 2.8674343e+2, 22967.738, -30345.14, -99980.11, -0.2776504, -0.34569407, 99783.945, 229665.81, 0.000004039042, 10.0007105, 9.999591 
2.390567e+3, 2.9673687e+2, 100934.875, -98618.984, 124358.016, -0.18887554, -0.23073304, 160595.56, 192536.5, 0.00001362104, 10.001379, 9.998528 
2.3901612e+3, 3.0672252e+2, 4946.1167, 220.39842, 27082.941, -0.10442451, -0.4106465, 29769.078, 29769.078, 0.00005414364, 10.000171, 9.999783 
2.4075493e+3, 1.2727202e+2, -1835288.5, -1750908.3, 18610.496, 0.732119, -1.127421, -1746986.0, -54312.168, 0.49043512, 9.998751, 9.999371 
2.4071294e+3, 1.3727224e+2, -2029035.5, -1848437.9, -86492.81, 0.19706649, -0.31481832, -1813697.3, -219012.44, 0.36336103, 9.996718, 9.999267 
2.4067146e+3, 1.472658e+2, -1481966.6, -1249725.1, 5269.557, -0.045063008, -0.2779628, -1249605.6, 247146.95, 0.24041095, 9.998448, 10.002319 
2.4063008e+3, 1.5725636e+2, -1150541.0, -1147365.1, -24220.668, -0.2771357, -0.6282551, -1124680.4, 274165.47, 0.14389461, 10.000852, 10.001056 
2.4058934e+3, 1.6724974e+2, -1157515.0, -1220071.5, 177007.95, -0.25502405, -0.50062376, -1009043.0, 291869.94, 0.08188297, 10.000604, 9.999768 
2.4054888e+3, 1.7724355e+2, -1297303.5, -1244225.4, 146017.5, -0.060971357, -0.2684078, -1122354.8, 80622.04, 0.047678713, 9.998801, 9.999824 
2.4050784e+3, 1.8723683e+2, -1010431.9, -659924.75, -61399.055, -0.009310272, -0.3066266, -649480.56, 455557.34, 0.028905774, 9.998494, 10.003291 
2.4046654e+3, 1.9723044e+2, -1051208.8, -800016.56, -117013.21, -0.02649384, -0.4447079, -753954.6, 253137.73, 0.017015342, 9.998189, 10.001809 
2.4042559e+3, 2.0722322e+2, -1070346.4, -971470.3, 49434.273, -0.09196114, -0.41791826, -950995.06, -41832.715, 0.00915297, 9.9984045, 9.999755 
2.4038489e+3, 2.1721534e+2, -1011677.44, -994938.1, 16251.69, -0.054618247, -0.34508136, -985027.5, -173785.25, 0.0045936005, 9.998536, 9.998911 
2.4034412e+3, 2.2720635e+2, -776716.4, -787585.94, -36765.395, 0.06496989, -0.3691158, -744986.25, -31656.906, 0.0022051786, 9.999316, 9.999243 
2.403033e+3, 2.3719531e+2, -767653.94, -847221.4, -37280.934, 0.17231862, -0.52568966, -752916.0, -137481.3, 0.0009056362, 9.999195, 9.998243 
2.402621e+3, 2.4718669e+2, -414246.94, -300985.5, -20134.27, 0.01123351, -0.592923, -297512.75, 220008.31, 0.00023937336, 9.999663, 10.0009985 
2.4022102e+3, 2.571786e+2, -661579.25, -642936.0, 81221.12, -0.21931487, -0.6110521, -570503.4, -150898.75, 0.000025130046, 9.998478, 9.998583 
2.401801e+3, 2.671719e+2, -203194.14, -204197.92, -34124.367, -0.03784668, -0.3917069, -169567.97, 152107.55, 0.00000030344088, 10.000293, 9.999994 
2.401393e+3, 2.77166e+2, -90043.62, -18975.08, -6044.1875, 0.25514993, -0.2500442, -18464.703, 205272.86, 0.000000006555133, 10.000097, 10.00069 
2.4009742e+3, 2.8715807e+2, 173863.67, 164385.77, -101329.35, -0.22175035, -0.29973662, 270564.8, 396380.3, 0.00000087941476, 10.001298, 10.000624 
2.4005549e+3, 2.971524e+2, -232798.55, -395484.06, 98362.06, -0.7509712, -0.074087925, -186502.2, -158633.88, 0.0000072209577, 9.999757, 9.997256 
2.4001604e+3, 3.0713293e+2, 270140.2, 309601.88, 61053.668, 0.4847255, -0.85806835, 354033.78, 354033.78, 0.00003484927, 10.001348, 10.00124 
2.4175291e+3, 1.2769333e+2, -2026888.1, -1782854.9, -219512.14, -0.32847112, -0.17394915, -1653726.9, 34828.684, 0.44509998, 9.997039, 10.00027 
2.4171157e+3, 1.3768e+2, -1920857.9, -1801177.5, -76264.38, -0.08509075, -0.7515251, -1764079.1, -173385.78, 0.31930807, 9.997499, 9.999248 
2.4167049e+3, 1.4767443e+2, -1484083.3, -1365303.4, 70348.07, -0.09705815, -0.5318884, -1332628.0, 160124.78, 0.20041417, 9.999128, 10.000903 
2.4162939e+3, 1.5767024e+2, -1180178.6, -1222497.4, 38543.76, -0.29948932, -0.22360753, -1157368.1, 237429.11, 0.110025235, 10.000894, 10.000362 
2.4158858e+3, 1.6766301e+2, -1039712.7, -1000234.94, 100384.734, -0.28695798, -0.23010086, -917666.8, 379198.97, 0.054970514, 10.000693, 10.001258 
2.4154785e+3, 1.7765453e+2, -1221107.4, -1129531.3, 94924.125, -0.19992203, -0.363644, -1069929.0, 129015.85, 0.027314784, 9.99898, 10.00052 
2.4150676e+3, 1.8764697e+2, -1140084.4, -985425.56, -72298.8, -0.108906776, -0.37030655, -956892.06, 144124.69, 0.013986388, 9.998747, 10.000864 
2.4146555e+3, 1.976395e+2, -1108342.1, -1021910.75, -99277.555, -0.07465226, -0.37017795, -956850.75, 46237.324, 0.006556314, 9.998617, 10.000057 
2.4142466e+3, 2.076305e+2, -994046.9, -935185.9, 29554.42, -0.07920406, -0.45442328, -922907.6, -17731.688, 0.002469395, 9.9989195, 9.999776 
2.4138394e+3, 2.1762082e+2, -886129.6, -910257.7, 27775.729, -0.1276064, -0.55026764, -867911.1, -60639.996, 0.00078321603, 9.999241, 9.999167 
2.4134295e+3, 2.2761269e+2, -662894.9, -675060.2, -16307.827, -0.25034884, -0.52902347, -651572.25, 57777.926, 0.00023610769, 9.999807, 9.999787 
2.4130195e+3, 2.3760425e+2, -522265.38, -608515.75, 11796.538, -0.414603, -0.49116996, -520681.06, 90750.6, 0.000047296035, 10.0003195, 9.999339 
2.4126099e+3, 2.4759646e+2, -342831.28, -187874.89, -42675.914, -0.30938655, -0.5482232, -176899.13, 336607.6, 0.0000020598873, 9.999796, 10.001729 
2.4122016e+3, 2.5758862e+2, -564633.9, -421833.06, 61638.54, -0.14978385, -0.6312256, -398907.8, 16674.814, 0.0, 9.998362, 10.000144 
2.4117923e+3, 2.6758137e+2, -286569.1, -245595.5, 48773.22, -0.08585519, -0.5170051, -213181.11, 104476.11, 0.0, 9.999752, 9.99996 
2.4113828e+3, 2.775749e+2, 153278.16, 130501.45, -533.1755, -0.103321716, -0.40896854, 153290.63, 373016.0, 0.0, 10.001533, 10.001052 
2.4109678e+3, 2.8756768e+2, 333540.7, 307043.44, -202664.06, -0.21410327, -0.4370493, 523388.72, 645184.44, 0.0000001537889, 10.001974, 10.001364 
2.410554e+3, 2.9756236e+2, 147495.06, -207985.3, 43299.688, -0.24873972, -0.20893306, 152693.22, 176539.55, 0.000003139397, 10.0021715, 9.997424 
2.410156e+3, 3.075436e+2, 686064.75, 108205.14, 92984.125, 0.41304383, -0.71711504, 700658.4, 700658.4, 0.000017282315, 10.005684, 9.99786 
2.4275193e+3, 1.2810192e+2, -1700296.4, -1550976.4, -83658.83, -0.24625826, -0.35486576, -1513507.4, 171050.78, 0.4141129, 9.998602, 10.001671 
2.4271055e+3, 1.3809372e+2, -1448853.6, -1533493.4, -66896.31, -0.20648617, -0.51336485, -1412014.9, 174629.72, 0.28877336, 10.000878, 9.999631 
2.4266963e+3, 1.4808671e+2, -1353479.1, -1414379.9, 65844.35, -0.14197387, -0.3799467, -1311385.0, 177332.5, 0.17287979, 10.000669, 9.999759 
2.4262875e+3, 1.5808044e+2, -1379708.4, -1397896.5, 18449.848, -0.13169234, -0.16054185, -1368233.1, 22548.885, 0.08747846, 9.999589, 9.999723 
2.4258782e+3, 1.680726e+2, -1253525.0, -1043937.7, 9920.058, -0.19235343, -0.25185898, -1043469.25, 249384.13, 0.038149297, 9.998805, 10.001856 
2.4254686e+3, 1.7806421e+2, -1380386.9, -1196967.3, -51461.348, -0.20832874, -0.43457395, -1183515.4, 11412.377, 0.01570925, 9.997834, 10.000592 
2.4250579e+3, 1.8805572e+2, -1261118.6, -1190652.5, -126181.0, -0.10656311, -0.48007482, -1094877.9, 2132.1099, 0.0064830934, 9.998524, 9.999543 
2.4246472e+3, 1.9804703e+2, -1136070.4, -1175935.3, -80991.64, 0.05440656, -0.47099632, -1072594.5, -73497.984, 0.0021827125, 9.999049, 9.998789 
2.4242383e+3, 2.0803823e+2, -852906.06, -870709.3, 81885.43, -0.03001781, -0.4929746, -779439.9, 121744.52, 0.00044835047, 9.9999485, 9.999705 
2.4238303e+3, 2.1802898e+2, -782447.4, -859125.8, 49603.57, -0.17266673, -0.5513231, -758093.56, 45182.543, 0.000068581576, 10.000024, 9.999133 
2.4234192e+3, 2.2802132e+2, -719957.9, -625573.25, -10104.254, -0.4047562, -0.51873094, -624503.7, 80846.85, 0.0000096515805, 9.999228, 10.000359 
2.4230085e+3, 2.3801386e+2, -944829.1, -777162.44, -9811.488, -0.6016621, -0.44941777, -776590.25, -169167.83, 0.00000040342232, 9.997358, 9.999603 
2.4225996e+3, 2.4800666e+2, -532353.4, -256841.95, -83064.71, -0.41800904, -0.4855064, -233736.3, 275754.03, 0.0, 9.998446, 10.00189 
2.4221924e+3, 2.5799918e+2, -551687.25, -402527.1, -41145.79, -0.10045227, -0.58159244, -391929.94, 19630.246, 0.0, 9.998438, 10.000265 
2.4217829e+3, 2.679914e+2, -354508.88, -253640.6, 40195.332, -0.1635534, -0.57190907, -239582.36, 74055.12, 0.0, 9.999233, 10.00012 
2.4213728e+3, 2.779838e+2, -393841.1, -290569.53, -34427.47, -0.35452685, -0.5544422, -280144.8, -64430.066, 0.0, 9.998502, 9.999631 
2.4209607e+3, 2.8797626e+2, 59528.3, 142159.05, -249313.17, -0.223644, -0.54138666, 353557.0, 471344.9, 0.0000000009564638, 10.000382, 10.000921 
2.4205527e+3, 2.979699e+2, -287761.28, -487728.84, 62252.98, 0.21956821, -0.4246682, -269964.8, -250116.5, 0.0000004799063, 9.999625, 9.996715 
2.4201472e+3, 3.079566e+2, 57198.254, -549477.6, 151951.83, -0.26066995, -0.35274103, 93129.04, 93129.04, 0.0000055147566, 10.002966, 9.994637 
2.4375112e+3, 1.285107e+2, -1684352.5, -1524259.6, -48479.633, -0.17696904, -0.4942715, -1510723.5, 169833.89, 0.39271495, 9.998549, 10.001885 
2.4370962e+3, 1.3850904e+2, -1520058.8, -1546761.8, -42616.54, -0.44988635, -0.012306441, -1488751.1, 93830.04, 0.26710206, 10.000111, 9.999827 
2.436688e+3, 1.4849906e+2, -1427911.3, -1522998.0, -467.3928, -0.24588993, -0.13922541, -1427908.9, 56772.81, 0.15331793, 10.0004015, 9.99904 
2.436281e+3, 1.584874e+2, -1437556.0, -1468864.3, -12575.527, 0.009816922, -0.38985285, -1433130.4, -46333.75, 0.07196278, 9.999404, 9.999317 
2.4358702e+3, 1.6847979e+2, -1245947.0, -1052383.5, -29067.752, -0.07588827, -0.4381055, -1048112.6, 240751.39, 0.027363949, 9.998929, 10.0017185 
2.4354583e+3, 1.7847277e+2, -1376570.5, -1211527.8, -55380.08, -0.2614888, -0.4658824, -1194667.4, -3743.6465, 0.009079448, 9.997966, 10.000403 
2.4350488e+3, 1.8846312e+2, -1251186.4, -1205912.0, -97360.125, -0.04872692, -0.59974694, -1128592.0, -35574.95, 0.002868925, 9.998702, 9.999343 
2.4346404e+3, 1.9845289e+2, -1058095.4, -1127442.0, -31167.004, 0.21066931, -0.7188073, -1046146.56, -51027.97, 0.00059867656, 9.99952, 9.998897 
2.4342309e+3, 2.0844695e+2, -785384.06, -836136.8, 113966.305, 0.0028998044, -0.45815253, -694003.1, 203179.7, 0.000045539302, 10.00036, 9.999761 
2.4338216e+3, 2.1844152e+2, -642141.06, -746793.7, 58021.914, -0.32417235, -0.13952588, -616335.5, 182906.73, 0.0000022398012, 10.000761, 9.999537 
2.4334124e+3, 2.2843249e+2, -670949.06, -563828.94, -72953.76, -0.22150537, -0.27159402, -526885.25, 174444.02, 0.000000052409952, 9.999385, 10.000711 
2.4330035e+3, 2.3842275e+2, -875196.44, -673684.1, -20584.662, -0.050982065, -0.47114936, -671602.9, -68180.97, 0.0, 9.997501, 10.000243 
2.4325925e+3, 2.4841633e+2, -622593.25, -394033.06, -31896.316, -0.13814163, -0.37874046, -389665.3, 115819.76, 0.0, 9.998181, 10.001106 
2.4321817e+3, 2.5841057e+2, -405571.3, -295557.28, -30563.445, -0.29565448, -0.232354, -287636.6, 119905.61, 0.0, 9.999204, 10.000634 
2.4317726e+3, 2.6840243e+2, -306674.06, -166441.08, -16709.045, -0.29979363, -0.31242678, -164477.66, 145142.3, 0.0, 9.999176, 10.000796 
2.4313645e+3, 2.7839378e+2, -289808.13, -188876.73, -41183.082, -0.24598914, -0.43811575, -174205.4, 37496.89, 0.0, 9.998877, 10.000165 
2.4309534e+3, 2.88385e+2, 98461.87, 62107.844, -154267.36, -0.18628024, -0.49265367, 235619.4, 349404.56, 0.0, 10.000953, 10.000149 
2.4305446e+3, 2.9837695e+2, 314905.7, 21802.729, 129294.32, -0.016868195, -0.51110005, 363787.97, 379649.88, 0.000000008678429, 10.002703, 9.998747 
2.4301423e+3, 3.083699e+2, 251511.6, -77882.195, 90225.45, -0.24303082, -0.102150165, 274606.34, 274606.34, 0.0000009202062, 10.002343, 9.99833 
2.4479097e+3, 1.18927e+2, -1849595.8, -1756379.6, 145510.38, -0.30091977, -0.72504455, -1650195.0, 124280.96, 0.4945417, 9.998807, 10.000726 
2.4475017e+3, 1.2892106e+2, -2027842.1, -1946031.1, -68057.03, -0.08479099, -0.46395266, -1907532.5, -230991.64, 0.3775347, 9.997733, 9.998732 
2.4470894e+3, 1.3891582e+2, -1959925.3, -1870408.0, -172801.97, -0.15079407, -0.06786953, -1736662.1, -158059.72, 0.25111946, 9.997425, 9.998815 
2.4466802e+3, 1.4890704e+2, -1655946.8, -1564678.3, -101537.766, -0.10721404, -0.11272775, -1498991.4, -18300.645, 0.13882844, 9.998445, 9.999698 
2.4462722e+3, 1.5889673e+2, -1461705.4, -1438938.0, -83436.26, 0.051607773, -0.28809488, -1366112.4, 16678.867, 0.060861234, 9.99909, 9.999656 
2.4458608e+3, 1.6888921e+2, -1311558.3, -1124341.6, -119249.95, -0.034707677, -0.32347855, -1066348.3, 218511.44, 0.02025213, 9.998755, 10.001239 
2.4454488e+3, 1.7888205e+2, -1394016.0, -1244346.9, -149341.23, -0.16296636, -0.3259652, -1152139.5, 34783.42, 0.0052852775, 9.997974, 10.000174 
2.4450396e+3, 1.8887237e+2, -1169982.3, -1118498.9, -97530.875, -0.028105218, -0.49999592, -1043369.9, 45644.195, 0.0012089658, 9.999074, 9.999778 
2.4446316e+3, 1.9886222e+2, -977028.56, -1059609.0, -1410.7998, 0.2082128, -0.64725775, -977004.5, 14107.018, 0.00012403581, 10.000005, 9.99912 
2.4442224e+3, 2.08857e+2, -953509.56, -912388.0, 107677.164, -0.0036165474, -0.34146965, -823326.1, 69843.9, 0.000001917801, 9.999233, 9.999732 
2.4438132e+3, 2.1885245e+2, -1136685.4, -1030291.6, 20213.322, -0.26567614, 0.06763695, -1026580.8, -231357.73, 0.000000018702426, 9.997586, 9.9991045 
2.4434043e+3, 2.2884268e+2, -869674.8, -677889.2, -142623.19, -0.048219018, -0.13011278, -601919.25, 95398.0, 0.0, 9.998081, 10.000542 
2.442996e+3, 2.3883173e+2, -876378.9, -727856.75, -95831.3, 0.2889605, -0.45224258, -680881.1, -81460.08, 0.0, 9.99776, 9.999742 
2.4425842e+3, 2.4882594e+2, -600188.6, -426759.94, -26357.98, 0.030716259, -0.27701986, -422842.5, 78637.4, 0.0, 9.998623, 10.000617 
2.4421719e+3, 2.588212e+2, -556860.4, -443197.38, -19264.389, -0.36712322, 0.011034064, -440021.06, -36491.76, 0.0, 9.998566, 9.999919 
2.441763e+3, 2.688129e+2, -353236.16, -143290.4, -38168.266, -0.37323043, -0.09811826, -136566.72, 169039.55, 0.0, 9.998722, 10.001156 
2.4413557e+3, 2.7880353e+2, -504338.47, -305590.9, -46724.59, -0.18039607, -0.33548665, -295154.25, -87462.62, 0.0, 9.997524, 10.000031 
2.4409458e+3, 2.8879416e+2, -109127.5, -55852.293, -37051.52, -0.17909399, -0.4787469, -36856.824, 72922.12, 0.0, 9.999665, 9.999933 
2.4405359e+3, 2.987855e+2, -224035.81, -178859.34, 219131.77, -0.3494008, -0.5379709, 18845.32, 30705.656, 0.0, 9.998836, 9.999247 
2.440135e+3, 3.0877957e+2, -122245.89, 229849.95, 267848.63, -0.3767782, -0.38992247, 374326.22, 374326.22, 0.00000009984614, 9.998079, 10.002324 
2.4579003e+3, 1.1934708e+2, -1891623.3, -1767053.4, -21537.232, -0.3795809, 0.11525071, -1763434.9, 6927.71, 0.48539782, 9.998502, 10.000314 
2.4574926e+3, 1.2932995e+2, -2100771.5, -2369255.8, -98662.76, 0.04060252, -0.47840926, -2068414.4, -395875.63, 0.36593348, 9.998952, 9.995224 
2.457083e+3, 1.3931929e+2, -1931023.1, -2028615.1, -98916.664, 0.23830123, -0.30712292, -1869521.6, -294865.38, 0.23856215, 9.998429, 9.99722 
2.4566723e+3, 1.493135e+2, -1498983.1, -1347917.3, -22813.506, 0.04203909, -0.108907945, -1344547.3, 132168.17, 0.1275105, 9.998852, 10.001099 
2.4562617e+3, 1.5930776e+2, -1440200.9, -1357739.6, -55459.813, -0.13107899, 0.048907828, -1329863.4, 48907.965, 0.052560914, 9.99897, 10.000257 
2.4558511e+3, 1.6929978e+2, -1349444.0, -1226468.8, -137769.42, -0.09339957, 0.0023512973, -1137088.4, 143761.23, 0.01541553, 9.998864, 10.000468 
2.4554397e+3, 1.7929122e+2, -1360525.1, -1216699.8, -129193.04, -0.086367995, -0.072248735, -1140753.5, 42178.63, 0.0031067657, 9.998157, 10.000272 
2.4550295e+3, 1.8928318e+2, -1046416.9, -911876.94, -32280.164, -0.13626572, -0.17148453, -904532.8, 180470.3, 0.00048131414, 9.999285, 10.001093 
2.4546203e+3, 1.9927491e+2, -876712.9, -919186.7, 26721.895, -0.17183895, -0.24999003, -863816.75, 123259.99, 0.000015932997, 10.000288, 9.999927 
2.4542129e+3, 2.0926721e+2, -960752.0, -937996.5, 43058.48, -0.08941375, -0.19118194, -904837.94, -15680.445, 0.0000000054715246, 9.999276, 9.999535 
2.4538054e+3, 2.192596e+2, -1085301.5, -994867.1, -11730.491, -0.038838476, -0.06756001, -993370.3, -202131.19, 0.0, 9.997843, 9.999236 
2.4533945e+3, 2.2925071e+2, -896516.75, -757691.56, -124392.125, -0.025709407, -0.13509242, -684655.9, 8670.062, 0.0, 9.99811, 10.000026 
2.4529837e+3, 2.3924142e+2, -749391.0, -648847.3, -83836.42, -0.007486175, -0.24032, -601365.4, -5950.2856, 0.0, 9.99847, 9.999962 
2.4525745e+3, 2.4923413e+2, -517563.78, -365898.47, -14496.037, -0.032761462, -0.22428474, -364525.38, 132959.47, 0.0, 9.999035, 10.000878 
2.4521655e+3, 2.592274e+2, -383974.03, -292707.9, -28774.383, -0.13987353, -0.15675847, -284393.38, 115156.0, 0.0, 9.999355, 10.0006 
2.4517548e+3, 2.6921937e+2, -357107.4, -166630.84, -84907.63, -0.23521885, -0.24464622, -134277.45, 167346.39, 0.0, 9.998677, 10.001075 
2.451345e+3, 2.7921116e+2, -336319.13, -110885.45, -61083.85, -0.27090567, -0.3707994, -95398.07, 108301.164, 0.0, 9.998075, 10.001127 
2.4509352e+3, 2.8920367e+2, -27962.639, 143345.25, 7251.3203, -0.36822212, -0.4515597, 143651.66, 249417.78, 0.0, 9.999412, 10.001473 
2.4505274e+3, 2.9919612e+2, 32809.28, -70881.86, 187762.66, -0.46939814, -0.49156156, 175752.77, 183588.06, 0.0, 10.000448, 9.999255 
2.450129e+3, 3.0918807e+2, -160541.4, -18153.63, 133997.92, -0.057026666, -0.2935726, 62389.14, 62389.14, 0.000000000000427524, 9.9985285, 10.000482 
2.467893e+3, 1.19753405e+2, -1794717.1, -1668343.8, 60585.22, -0.18307331, -0.12667604, -1643991.1, 122392.29, 0.47722325, 9.998594, 10.001609 
2.4674812e+3, 1.297393e+2, -1630849.1, -2038169.6, -58319.85, -0.36116105, -0.50250363, -1622663.4, 45863.566, 0.3557266, 10.00184, 9.9961605 
2.4670754e+3, 1.3973017e+2, -1433002.6, -1730740.0, 49202.484, 0.25627285, -0.2275953, -1425082.4, 145544.95, 0.22774403, 10.001896, 9.99763 
2.4666636e+3, 1.4972295e+2, -1402535.9, -1344668.9, 53005.996, 0.0673679, -0.1349725, -1313213.8, 159486.45, 0.11809006, 9.999812, 10.000641 
2.4662517e+3, 1.5971616e+2, -1669222.5, -1515515.4, -24364.11, -0.1308201, -0.025356812, -1511745.9, -136978.38, 0.04605504, 9.9975815, 9.99984 
2.4658413e+3, 1.6970824e+2, -1515798.8, -1371030.3, -78091.21, -0.05504425, -0.011590123, -1336935.8, -60086.727, 0.012013259, 9.997989, 9.999895 
2.4654311e+3, 1.7970008e+2, -1301233.0, -1180738.8, -46315.527, 0.0456207, -0.003259667, -1164993.5, 13938.389, 0.0018483637, 9.998513, 10.0003605 
2.4650206e+3, 1.8969277e+2, -1075603.4, -850388.1, 31995.033, -0.13056415, -0.08492111, -845931.0, 235063.67, 0.00018026956, 9.9987135, 10.001812 
2.4646103e+3, 1.9968545e+2, -1161367.0, -1050450.8, 36021.242, -0.27564704, -0.12261747, -1039779.25, -56721.816, 0.0000007906511, 9.998348, 9.999973 
2.4642031e+3, 2.0967667e+2, -1104052.1, -1056467.8, 10847.878, -0.13900505, -0.14919652, -1054111.4, -168962.48, 0.0, 9.998521, 9.99911 
2.4637961e+3, 2.196675e+2, -1101738.4, -1045789.3, -34501.46, 0.061477277, -0.1419689, -1029346.2, -242100.47, 0.0, 9.998017, 9.998793 
2.4633847e+3, 2.2965929e+2, -824997.9, -728530.6, -81132.22, -0.0061468505, -0.1346399, -682377.2, 6949.2217, 0.0, 9.998794, 9.999824 
2.4629731e+3, 2.3965117e+2, -753756.75, -691598.4, -24119.346, -0.08044248, -0.09587219, -683337.25, -91932.74, 0.0, 9.998705, 9.999541 
2.4625652e+3, 2.4964285e+2, -538367.2, -370941.5, 46068.55, -0.037660923, -0.18668397, -359102.5, 134379.73, 0.0, 9.998885, 10.000913 
2.4621578e+3, 2.5963444e+2, -643674.25, -461542.44, -338.09998, 0.025851194, -0.28365707, -461541.8, -65981.15, 0.0, 9.997821, 10.0001745 
2.4617463e+3, 2.6962638e+2, -512208.56, -258008.97, -67176.11, -0.09123159, -0.3681438, -241348.6, 56287.453, 0.0, 9.99775, 10.000845 
2.4613348e+3, 2.796192e+2, -541139.1, -234147.36, -1394.757, -0.25092348, -0.3651908, -234141.03, -34438.367, 0.0, 9.996871, 10.000847 
2.4609244e+3, 2.8961307e+2, -79030.9, 176742.75, 15774.516, -0.6033561, -0.36824128, 177711.95, 279468.22, 0.0, 9.998871, 10.0019455 
2.4605195e+3, 2.9960456e+2, -531122.25, -658003.1, 34563.12, -0.49753788, -0.4543078, -522318.0, -518482.84, 0.0, 9.9981165, 9.996321 
2.4601237e+3, 3.0959368e+2, -696193.4, -598355.5, 58047.87, 0.30870196, -0.2374481, -571362.56, -571362.56, 0.0, 9.996632, 9.997257 
2.4778846e+3, 1.2015782e+2, -1718069.8, -1523302.1, 208343.89, -0.21026146, -0.42807883, -1390706.0, 371716.56, 0.4678463, 9.998937, 10.0033045 
2.4774683e+3, 1.3014962e+2, -1617139.9, -1752767.4, -53776.535, -1.0219672, -0.4385375, -1598405.3, 66098.53, 0.34520847, 10.000874, 9.998549 
2.4770674e+3, 1.4014374e+2, -1526027.5, -1729139.1, -14799.59, 0.02962241, -0.0359367, -1524954.9, 41612.664, 0.21743059, 10.000836, 9.99813 
2.4766545e+3, 1.5013298e+2, -1519433.9, -1537186.6, -45670.56, -0.022169305, -0.2165008, -1481785.1, -13111.271, 0.109704144, 9.999647, 9.999251 
2.4762414e+3, 1.6012228e+2, -1692254.4, -1616180.9, -46654.305, -0.15867212, -0.37529197, -1594022.8, -223242.97, 0.040704507, 9.997848, 9.999006 
2.4758318e+3, 1.7011482e+2, -1485217.9, -1395583.5, -42761.957, -0.022591203, -0.26516137, -1378455.9, -105597.125, 0.00953522, 9.998362, 9.999556 
2.4754223e+3, 1.8010777e+2, -1260554.4, -1138103.1, -20546.762, 0.077723436, -0.11636188, -1134747.4, 40184.92, 0.0011160366, 9.998699, 10.000562 
2.475012e+3, 1.9010052e+2, -1034053.8, -788909.3, 31535.332, -0.04830848, -0.22209914, -784917.6, 292077.63, 0.00006263998, 9.998826, 10.002182 
2.4746019e+3, 2.0009321e+2, -1121815.3, -1009771.0, 40371.688, -0.21606736, -0.2830133, -996739.9, -17680.62, 0.0000000031066179, 9.9985285, 10.00016 
2.4741927e+3, 2.1008527e+2, -1079685.6, -1081102.8, 24403.482, -0.23428015, -0.19484022, -1055980.4, -174836.14, 0.0, 9.998806, 9.998839 
2.473784e+3, 2.200768e+2, -955025.4, -938281.0, -11193.888, -0.21314998, -0.09211705, -932674.75, -149439.64, 0.0, 9.998818, 9.999158 
2.4733758e+3, 2.3006788e+2, -726301.1, -652276.4, -43847.594, -0.0066142036, -0.1750768, -631908.2, 53412.332, 0.0, 9.999297, 10.000134 
2.472967e+3, 2.4005924e+2, -547743.06, -515609.25, -2339.158, 0.14141323, -0.2195685, -515439.88, 71962.484, 0.0, 9.999718, 10.000275 
2.4725567e+3, 2.500524e+2, -471661.22, -308245.03, 43119.65, 0.000018256475, -0.19272505, -297565.28, 191902.03, 0.0, 9.999161, 10.001237 
2.4721465e+3, 2.6004538e+2, -519921.8, -356065.4, 11152.31, -0.1333916, -0.16710487, -355309.84, 36223.918, 0.0, 9.998384, 10.000632 
2.4717368e+3, 2.700374e+2, -475876.22, -274561.97, -48732.832, -0.025795205, -0.22568025, -263385.53, 30224.256, 0.0, 9.99807, 10.000607 
2.4713266e+3, 2.8002998e+2, -438168.1, -326580.66, 42694.492, -0.05669732, -0.18350406, -312119.4, -116438.414, 0.0, 9.998106, 9.99962 
2.4709162e+3, 2.9002115e+2, -193495.95, -256886.42, 12868.099, -0.54832596, -0.16602187, -190983.34, -93213.625, 0.0, 9.999542, 9.998731 
2.4705137e+3, 3.0000982e+2, -119741.29, -460409.8, -41169.723, -0.32106438, -0.27449694, -114836.555, -114836.555, 0.0, 10.000739, 9.996468 
2.470115e+3, 3.0999887e+2, 110077.47, 118659.19, 41366.973, 0.29559636, -0.24484064, 155957.25, 155957.25, 0.0, 10.0004015, 10.000498 
2.4878782e+3, 1.20566055e+2, -1748350.1, -1589955.5, 54087.973, 0.0186119, -0.2740466, -1573248.1, 185183.61, 0.45571515, 9.998408, 10.002542 
2.4874598e+3, 1.305581e+2, -1935258.8, -1794033.8, -170620.4, -0.94671994, -0.33549404, -1679991.4, -19483.912, 0.33319858, 9.997818, 9.999767 
2.4870583e+3, 1.4055249e+2, -1786189.3, -1758055.5, -157637.66, 0.048975278, -0.03675045, -1613858.4, -51294.277, 0.20679392, 9.998503, 9.999081 
2.4866462e+3, 1.5054177e+2, -1545857.8, -1568850.6, -159402.28, 0.03969217, -0.2449247, -1397537.9, 67130.8, 0.10179194, 9.999501, 9.999186 
2.4862337e+3, 1.6053082e+2, -1364249.9, -1433912.0, -94786.516, 0.013041163, -0.42950618, -1298097.4, 68678.83, 0.036105353, 10.0, 9.999232 
2.485823e+3, 1.7052408e+2, -1200544.6, -1230031.3, -37908.98, 0.01473968, -0.27859947, -1174612.9, 94234.25, 0.0076701324, 10.000216, 9.999805 
2.4854128e+3, 1.8051746e+2, -1121452.4, -1112653.9, -7394.441, 0.045367926, -0.0829721, -1108449.0, 62466.65, 0.000687035, 9.999864, 10.000155 
2.4850027e+3, 1.9050927e+2, -1189563.6, -951154.1, -63479.496, -0.005070532, -0.2279811, -935305.5, 137684.11, 0.000019881356, 9.998191, 10.001327 
2.4845925e+3, 2.0050105e+2, -1423889.1, -1188730.3, -65869.71, -0.062592335, -0.32281238, -1171536.8, -196472.13, 0.0, 9.996638, 9.999815 
2.4841832e+3, 2.1049379e+2, -1094148.3, -1034499.94, 2431.2715, -0.22016072, -0.21026467, -1034401.0, -157259.64, 0.0, 9.998555, 9.999213 
2.4837741e+3, 2.2048616e+2, -836014.56, -892687.3, -18425.498, -0.28385097, -0.056678124, -830550.8, -51328.953, 0.0, 9.999701, 9.999037 
2.4833672e+3, 2.3047672e+2, -762063.94, -691639.9, -80353.94, 0.041860677, -0.19397283, -639121.44, 42190.77, 0.0, 9.999116, 9.999965 
2.4829595e+3, 2.4046761e+2, -847416.0, -685293.1, -57558.2, 0.31655604, -0.27542838, -666936.75, -83538.23, 0.0, 9.997857, 9.99999 
2.4825469e+3, 2.504613e+2, -580285.7, -357633.6, -52335.695, -0.024915945, -0.21076314, -345945.34, 139514.56, 0.0, 9.998479, 10.001181 
2.4821353e+3, 2.6045507e+2, -581301.8, -444826.44, -96403.06, -0.27231315, -0.10448093, -394954.3, -7433.638, 0.0, 9.998304, 10.000064 
2.4817276e+3, 2.7044752e+2, -264984.56, -207060.36, -137975.48, 0.011535995, -0.107443586, -95040.055, 194552.52, 0.0, 9.999727, 10.000266 
2.4813192e+3, 2.8043944e+2, -347608.7, -518848.4, 14954.158, 0.11226583, -0.049432382, -346312.56, -154641.11, 0.0, 9.999816, 9.9974785 
2.480909e+3, 2.9042795e+2, -323958.13, -577406.9, 122075.96, -0.4447775, -0.079033546, -274723.4, -180929.11, 0.0, 9.999933, 9.996262 
2.4805081e+3, 3.0041662e+2, -438181.75, -529576.94, 124464.695, -0.14601502, -0.022499952, -351290.75, -351290.75, 0.0, 9.998344, 9.997119 
2.4801065e+3, 3.104083e+2, -18435.895, 499980.7, 35143.19, 0.16705559, -0.1121775, 502352.16, 502352.16, 0.0, 9.997694, 10.004423 
2.4978715e+3, 1.2097569e+2, -1818822.5, -1660577.1, -45897.016, 0.23913594, 0.13626795, -1648228.9, 106200.055, 0.43991756, 9.998461, 10.001545 
2.497453e+3, 1.3096565e+2, -1772123.3, -1610843.0, -64653.25, -0.630619, -0.20877914, -1588125.1, 68398.09, 0.31901658, 9.998471, 10.000876 
2.4970491e+3, 1.4095905e+2, -1749047.8, -1661600.8, -96951.18, 0.03384135, -0.102261834, -1598969.8, -40383.58, 0.19536594, 9.998481, 9.999728 
2.4966387e+3, 1.5094994e+2, -1508890.8, -1473647.0, -88977.836, 0.13852781, -0.21401712, -1400562.9, 60111.617, 0.094030365, 9.999439, 9.999851 
2.4962275e+3, 1.6094087e+2, -1326279.9, -1334539.8, -49581.414, 0.16895461, -0.27256393, -1280656.8, 82106.12, 0.032013185, 9.999939, 9.9999275 
2.495815e+3, 1.7093498e+2, -1140514.3, -1112807.4, -10188.9375, -0.02386487, -0.11516673, -1109464.0, 155358.64, 0.0062260167, 10.000264, 10.000566 
2.4954025e+3, 1.8092853e+2, -1173158.4, -1209141.0, -32887.926, -0.19832134, 0.058917884, -1153662.3, 13225.284, 0.00043419475, 9.999825, 9.9994955 
2.4949925e+3, 1.9091837e+2, -1299452.8, -1215707.3, -126009.78, -0.057714917, -0.11733359, -1124795.3, -55810.55, 0.0000058323185, 9.99833, 9.999447 
2.4945828e+3, 2.0090848e+2, -1368817.1, -1165138.0, -44254.41, 0.02774675, -0.23149684, -1155938.1, -184859.28, 0.000000000090419006, 9.996998, 9.999801 
2.4941753e+3, 2.1090145e+2, -929427.0, -815464.3, 90343.76, -0.10560828, -0.191304, -765633.4, 107513.84, 0.0, 9.999022, 10.000504 
2.4937676e+3, 2.2089428e+2, -665535.6, -743032.2, -28075.25, -0.21315035, -0.10397924, -656433.6, 118784.31, 0.0, 10.000541, 9.99965 
2.4933587e+3, 2.3088558e+2, -745412.7, -735228.0, -135067.58, 0.06699307, -0.13676758, -605156.8, 72146.72, 0.0, 9.999414, 9.999539 
2.4929488e+3, 2.4087669e+2, -803728.3, -705524.0, -76546.2, 0.23061675, -0.14780456, -663684.75, -84293.62, 0.0, 9.9982815, 9.999643 
2.4925359e+3, 2.5086835e+2, -614590.3, -492113.13, -60872.18, -0.18796378, -0.19863577, -467005.97, 14469.031, 0.0, 9.998669, 10.000196 
2.4921243e+3, 2.6086017e+2, -406729.44, -362901.0, -108169.31, -0.49801952, -0.20861453, -274448.4, 109107.41, 0.0, 9.999432, 10.00009 
2.4917193e+3, 2.7085263e+2, -20727.84, -64961.332, -106971.56, -0.09285256, -0.21999569, 66389.41, 352013.4, 0.0, 10.001238, 10.00054 
2.4913135e+3, 2.8084487e+2, 163326.33, -102746.81, 7934.903, 0.15716283, -0.18652013, 163562.77, 351259.28, 0.0, 10.002468, 9.999085 
2.490904e+3, 2.9083586e+2, -11856.289, -190733.84, 136980.78, -0.21774435, -0.14353809, 62299.027, 152092.56, 0.0, 10.000957, 9.998476 
2.4905013e+3, 3.0082718e+2, -159286.31, -226500.8, 221115.66, 0.035734754, -0.019513318, 30761.5, 30761.5, 0.0, 9.999419, 9.998707 
2.4900943e+3, 3.108166e+2, 16349.88, 401502.72, 14738.323, -0.056325253, -0.241098, 402065.88, 402065.88, 0.0, 9.998165, 10.003619 
2.50786e+3, 1.21383555e+2, -1659507.1, -1678568.8, 73362.85, -0.07305844, -0.10669336, -1595058.6, 155365.89, 0.42027465, 10.000505, 10.000339 
2.507446e+3, 1.3137567e+2, -1581417.3, -1551055.8, -14256.804, -0.41341916, -0.15993433, -1545410.8, 107092.83, 0.30251706, 10.000086, 10.0006695 
2.5070408e+3, 1.4136787e+2, -1643813.6, -1553463.9, -29119.863, 0.17663053, -0.14746144, -1544891.8, 9689.317, 0.18302314, 9.998816, 10.00037 
2.5066298e+3, 1.5136018e+2, -1419013.0, -1337589.9, 13238.461, 0.16204567, -0.20836556, -1335491.5, 121162.22, 0.08629053, 9.999528, 10.000826 
2.5062189e+3, 1.6135256e+2, -1320296.6, -1329656.4, 44676.938, 0.13188533, -0.18662445, -1280055.1, 78671.77, 0.028287582, 9.999927, 9.999974 
2.5058058e+3, 1.7134559e+2, -1274684.8, -1261659.0, -6316.955, -0.09884648, -0.08611838, -1259098.8, 1698.7147, 0.0050760456, 9.999613, 9.999885 
2.5053933e+3, 1.8133786e+2, -1327816.3, -1364026.3, -71213.2, -0.24412319, 0.027314674, -1272442.6, -109567.414, 0.00028139996, 9.9991455, 9.998771 
2.5049835e+3, 1.9132712e+2, -1110940.8, -1216000.4, -107927.0, -0.02391176, -0.12310648, -1043438.8, 21540.5, 0.0000014559199, 10.000107, 9.998587 
2.5045744e+3, 2.0131661e+2, -949032.8, -978810.9, 51993.85, 0.16572484, -0.2194398, -909838.2, 57242.074, 0.0, 9.999992, 9.999647 
2.5041667e+3, 2.113093e+2, -1089503.5, -816398.0, 134696.83, -0.0027228114, -0.25411168, -761143.8, 108003.15, 0.0, 9.997692, 10.001117 
2.5037587e+3, 2.2130217e+2, -1324654.5, -1061620.4, -27993.846, -0.111649975, -0.1953212, -1058674.1, -287460.88, 0.0, 9.996079, 9.9996195 
2.503349e+3, 2.3129402e+2, -945426.2, -834580.5, -107355.05, 0.056711197, -0.17855532, -769186.1, -95890.73, 0.0, 9.998101, 9.999475 
2.5029382e+3, 2.4128552e+2, -775647.8, -800698.06, -12255.857, 0.14089847, -0.11112565, -770649.06, -195266.81, 0.0, 9.998964, 9.998666 
2.5025254e+3, 2.5127605e+2, -696467.44, -652906.75, 2653.673, -0.28947857, -0.17716292, -652745.7, -175264.17, 0.0, 9.998673, 9.999074 
2.5021142e+3, 2.6126677e+2, -633251.1, -512922.97, -7948.035, -0.58889776, -0.204549, -512400.25, -132824.89, 0.0, 9.998108, 9.999696 
2.501711e+3, 2.7125844e+2, -282340.28, -152247.1, 23959.184, -0.18249728, -0.32399085, -147974.84, 133671.9, 0.0, 9.999303, 10.000873 
2.5013074e+3, 2.812507e+2, -219754.4, -206087.11, 47183.777, 0.18195921, -0.324785, -165244.69, 18471.723, 0.0, 9.999586, 9.999741 
2.5008985e+3, 2.9124418e+2, -54096.06, -41918.375, 20667.334, -0.026171522, -0.19450793, -26461.621, 59326.117, 0.0, 9.9999895, 9.999936 
2.500492e+3, 3.0123657e+2, -179630.02, -215062.2, 24826.672, -0.05222082, -0.08354107, -166846.53, -166846.53, 0.0, 9.999341, 9.998785 
2.500082e+3, 3.1122345e+2, -83228.01, 146917.8, -50930.887, -0.3759437, -0.56954587, 157684.98, 157684.98, 0.0, 9.998649, 10.001535 
2.5178504e+3, 1.2179255e+2, -1821990.4, -1848191.0, 138963.83, -0.35297117, -0.27789652, -1695510.8, 50892.695, 0.39734322, 9.99965, 9.999284 
2.5174388e+3, 1.3178559e+2, -1698910.5, -1659473.6, -69726.34, -0.31111345, -0.18248527, -1606731.1, 41749.895, 0.28406283, 9.999509, 9.999923 
2.5170326e+3, 1.41777e+2, -1675854.1, -1517738.3, -22659.758, 0.27177453, -0.20834088, -1514555.0, 36015.77, 0.16993596, 9.998427, 10.0008 
2.5166205e+3, 1.5177122e+2, -1356156.0, -1163741.3, 37497.734, 0.0520587, -0.2051888, -1156692.0, 295929.94, 0.078587286, 9.999373, 10.002154 
2.516208e+3, 1.6176467e+2, -1389443.1, -1438861.9, 19104.719, -0.1650603, -0.1369528, -1382918.9, -28235.951, 0.024857625, 9.999791, 9.99927 
2.5157958e+3, 1.717553e+2, -1361641.8, -1459652.5, -18117.436, -0.23971517, -0.14513175, -1358400.0, -101620.945, 0.0041356636, 9.999708, 9.99847 
2.5153846e+3, 1.8174554e+2, -1327186.6, -1399046.4, -66861.88, -0.25654298, -0.12097782, -1287212.1, -128334.49, 0.00018434241, 9.999315, 9.99843 
2.514976e+3, 1.9173528e+2, -1076271.6, -1181223.9, -54220.145, 0.02412116, -0.2278303, -1053292.0, 7683.6206, 0.00000026313862, 10.000261, 9.998751 
2.5145668e+3, 2.017252e+2, -885769.75, -930169.7, 7154.458, 0.18763134, -0.29486448, -884645.4, 78424.695, 0.0, 10.000349, 9.999801 
2.5141564e+3, 2.1171679e+2, -1095545.5, -864285.44, 41609.816, 0.015822217, -0.40228334, -857026.56, 8117.828, 0.0, 9.99782, 10.000751 
2.513747e+3, 2.2170873e+2, -1257996.1, -971086.0, -4768.202, -0.13165815, -0.41896853, -971006.75, -203789.44, 0.0, 9.996218, 10.000194 
2.5133377e+3, 2.3170106e+2, -851951.25, -706054.94, -6381.5146, -0.069146916, -0.41637808, -705776.3, -36482.438, 0.0, 9.998318, 10.000283 
2.512928e+3, 2.4169347e+2, -635005.56, -755717.44, 18360.07, -0.062477395, -0.2995928, -632274.75, -60901.48, 0.0, 9.999969, 9.998492 
2.5125167e+3, 2.516854e+2, -681304.8, -774474.56, -8235.579, -0.2578544, -0.11689716, -680582.44, -207116.19, 0.0, 9.999242, 9.998006 
2.512107e+3, 2.6167706e+2, -519567.03, -396615.38, 12807.009, -0.37207165, 0.003343545, -395295.53, -19740.242, 0.0, 9.998534, 10.000315 
2.5117028e+3, 2.7166796e+2, -304159.75, -81072.484, 74301.88, -0.08242914, -0.2546365, -58590.92, 219038.14, 0.0, 9.998708, 10.0017 
2.5112975e+3, 2.8165883e+2, -354051.44, -425915.2, 106976.9, 0.035974734, -0.38759047, -277133.16, -97423.07, 0.0, 9.999227, 9.998427 
2.5108865e+3, 2.9164985e+2, -165149.47, -431645.34, -1021.2621, -0.47204834, -0.23471189, -165145.55, -83331.26, 0.0, 10.000505, 9.997079 
2.5104803e+3, 3.0164135e+2, 198612.1, 51116.465, -95759.05, -0.5192972, -0.05923403, 245730.06, 245730.06, 0.0, 10.001458, 9.999618 
2.5100827e+3, 3.1163177e+2, 544442.75, 596186.7, -88264.32, 0.38987917, -0.3473076, 662292.7, 662292.7, 0.0, 10.002137, 10.003001 
2.5278425e+3, 1.22200355e+2, -1898608.4, -1834938.8, -147606.56, -0.23398432, -0.48774624, -1715773.1, 26630.734, 0.3720952, 9.998652, 9.999836 
2.5274286e+3, 1.3219528e+2, -1893433.0, -1802235.3, -143994.53, -0.3673089, -0.1830728, -1696792.1, -52325.805, 0.26429757, 9.998262, 9.999503 
2.5270218e+3, 1.421878e+2, -1755561.8, -1601300.3, -61392.71, 0.17130885, -0.06373178, -1579850.0, -33302.566, 0.15642525, 9.998117, 10.000304 
2.52661e+3, 1.5218031e+2, -1599819.6, -1394324.5, -114081.25, -0.045700394, -0.14512609, -1343541.6, 105075.14, 0.071005836, 9.998235, 10.001 
2.5261986e+3, 1.6217248e+2, -1584591.5, -1532893.9, -188805.89, -0.17812932, -0.14035155, -1368175.6, -17485.482, 0.021693112, 9.998499, 9.999252 
2.525788e+3, 1.7216316e+2, -1364145.8, -1402844.0, -157703.73, -0.1667842, -0.19305313, -1224608.6, 28174.445, 0.00335279, 9.999574, 9.998903 
2.5253773e+3, 1.8215375e+2, -1170681.6, -1310487.1, -106991.266, -0.11852984, -0.17402956, -1112781.6, 42094.445, 0.00011963712, 10.000284, 9.998588 
2.5249672e+3, 1.9214424e+2, -1037568.75, -1155173.3, -87309.18, -0.032592542, -0.2406338, -991106.56, 65859.45, 0.00000002568285, 10.000412, 9.998877 
2.5245577e+3, 2.0213471e+2, -934774.1, -1012871.6, -58665.14, 0.08145558, -0.2589354, -903350.2, 55704.25, 0.0, 10.000232, 9.999301 
2.5241476e+3, 2.1212505e+2, -865869.7, -846271.75, -87859.84, 0.10777177, -0.44014257, -767666.1, 93474.234, 0.0, 9.999737, 9.999964 
2.5237378e+3, 2.2211589e+2, -934371.3, -853759.7, -67446.43, 0.07996753, -0.510552, -815493.4, -52270.074, 0.0, 9.99868, 9.999782 
2.5233278e+3, 2.3210806e+2, -867279.3, -708541.8, -97766.83, -0.053933945, -0.551976, -661983.0, 3316.6897, 0.0, 9.998234, 10.000286 
2.522918e+3, 2.4210054e+2, -991960.8, -994635.0, -123003.164, -0.16505982, -0.41660142, -870287.44, -302909.44, 0.0, 9.997882, 9.997854 
2.5225076e+3, 2.5209337e+2, -805210.4, -891888.94, -117825.02, -0.24541466, -0.12244388, -723006.7, -253541.34, 0.0, 9.998719, 9.997439 
2.522099e+3, 2.6208568e+2, -488467.4, -438774.38, -48166.3, -0.23138827, 0.116893835, -409423.66, -37873.938, 0.0, 9.999081, 9.999742 
2.521694e+3, 2.72076e+2, -147913.2, -19829.86, -79895.13, -0.02682322, -0.2101343, 18522.645, 292150.06, 0.0, 9.999933, 10.001477 
2.5212875e+3, 2.820657e+2, -369470.63, -636683.0, -59560.17, -0.09563364, -0.39916727, -356796.16, -181075.73, 0.0, 10.000107, 9.996534 
2.5208747e+3, 2.920546e+2, -380659.28, -762167.9, -6775.923, -0.8892157, -0.2868983, -380538.97, -302687.78, 0.0, 10.000117, 9.994957 
2.5204706e+3, 3.0204627e+2, -79396.63, -46397.61, -30638.834, -0.79227334, 0.027591338, -28098.096, -28098.096, 0.0, 9.999503, 9.999858 
2.5200802e+3, 3.120372e+2, 91311.31, 534201.94, -25066.615, 0.7266489, -0.36810252, 535616.1, 535616.1, 0.0, 9.998572, 10.004211 
2.5378323e+3, 1.22607976e+2, -1999474.9, -1836541.1, -241778.97, -0.3531157, -0.67875224, -1662872.9, 75536.516, 0.34545994, 9.997848, 10.000296 
2.537417e+3, 1.3260536e+2, -1847733.8, -1793548.4, -74911.02, -0.5148959, -0.12585796, -1740981.4, -100531.305, 0.24384509, 9.99867, 9.999341 
2.5370088e+3, 1.4259906e+2, -1848797.0, -1828804.4, -13953.76, -0.14057851, 0.18675597, -1821635.8, -279114.0, 0.14280653, 9.99836, 9.998586 
2.5365987e+3, 1.5258764e+2, -1716002.4, -1686191.6, -46978.152, -0.17654411, -0.062484533, -1651810.9, -207177.9, 0.06363834, 9.998547, 9.998763 
2.5361896e+3, 1.6257729e+2, -1516418.9, -1441668.6, -117344.56, -0.13526954, -0.17657363, -1355890.8, -9158.421, 0.0187796, 9.99873, 9.999756 
2.535781e+3, 1.7256922e+2, -1219266.9, -1163750.6, -84414.91, -0.015400329, -0.24503088, -1102647.1, 146160.45, 0.0026956536, 9.999793, 10.000453 
2.5353706e+3, 1.8256131e+2, -1099328.9, -1174429.1, -90068.06, -0.042927314, -0.19923092, -1039296.94, 111584.67, 0.00007576087, 10.000367, 9.999459 
2.534957e+3, 1.9255334e+2, -981484.9, -1072637.8, -75684.97, -0.2987978, -0.15744498, -938713.0, 114244.01, 0.00000000011876218, 10.000546, 9.999377 
2.5345463e+3, 2.0254463e+2, -926668.2, -1038881.6, -67303.625, -0.30098435, -0.11112795, -895152.2, 59887.08, 0.0, 10.000412, 9.999016 
2.5341415e+3, 2.1253435e+2, -835461.75, -919806.0, -87456.23, 0.2664119, -0.27309906, -780540.75, 76594.73, 0.0, 10.000308, 9.999178 
2.5337338e+3, 2.2252421e+2, -837059.7, -907155.2, -112427.27, 0.5223881, -0.35924092, -754344.0, 4886.934, 0.0, 9.999747, 9.998901 
2.5333202e+3, 2.3251444e+2, -893164.4, -864339.75, -155771.53, 0.15060778, -0.4581107, -722315.2, -60990.2, 0.0, 9.998622, 9.999056 
2.5329077e+3, 2.4250536e+2, -909953.1, -883717.94, -148591.97, -0.18557039, -0.4247271, -747665.7, -184250.1, 0.0, 9.998055, 9.998555 
2.532497e+3, 2.524978e+2, -670137.3, -711081.5, -94104.76, -0.36950973, -0.2547006, -594303.56, -128804.414, 0.0, 9.999088, 9.9985285 
2.5320888e+3, 2.6248932e+2, -428024.84, -604426.6, -24983.676, -0.43265638, -0.10170479, -424554.7, -56966.125, 0.0, 10.000264, 9.998052 
2.5316858e+3, 2.72478e+2, -162096.05, -395904.47, -115496.34, -0.15705253, -0.27626735, -114665.234, 155029.53, 0.0, 10.001337, 9.998254 
2.5312814e+3, 2.8246787e+2, -3007.6714, -264377.06, -177213.11, -0.057291657, -0.314226, 86496.13, 258289.52, 0.0, 10.001733, 9.9983015 
2.530872e+3, 2.924605e+2, -81246.85, -268201.72, -55826.78, -0.42409387, -0.11444021, -65845.17, 8031.8003, 0.0, 10.000592, 9.998155 
2.530467e+3, 3.0245316e+2, -96308.836, -62681.21, -42006.47, -0.27524993, 0.10480159, -34248.504, -34248.504, 0.0, 9.999297, 9.999904 
2.530067e+3, 3.124436e+2, -138214.25, 235904.73, -104978.055, 0.43345624, -0.14490952, 263348.5, 263348.5, 0.0, 9.997555, 10.002776 
2.5478265e+3, 1.2302279e+2, -1921480.5, -1700475.9, 63599.49, 0.11753202, -0.37569323, -1683480.5, 50862.063, 0.31815657, 9.997886, 10.001177 
2.547411e+3, 1.3301668e+2, -1625609.8, -1711373.0, -455.28342, -0.25599587, -0.13932243, -1625607.4, 10808.413, 0.22319712, 10.000305, 9.999135 
2.547001e+3, 1.4300874e+2, -1418610.5, -1621279.4, 63198.66, -0.108843245, 0.0315136, -1400518.3, 137982.92, 0.12934339, 10.001386, 9.998603 
2.5465903e+3, 1.5299737e+2, -1449529.0, -1590890.4, 112915.086, -0.15095603, -0.17922707, -1386997.3, 53613.28, 0.05657354, 10.000461, 9.998559 
2.546181e+3, 1.6298695e+2, -1409348.3, -1449303.4, 158674.23, -0.07777651, -0.2382688, -1269398.9, 73312.27, 0.016116831, 9.999674, 9.999264 
2.545773e+3, 1.7297864e+2, -1201344.0, -1245436.0, 74262.46, 0.03266356, -0.25424019, -1145924.3, 98867.7, 0.0021455006, 10.00022, 9.999707 
2.5453627e+3, 1.8297045e+2, -1144767.5, -1205551.6, -40145.395, 0.004922287, -0.18278822, -1124807.5, 22062.766, 0.000046550977, 10.000079, 9.999399 
2.5449482e+3, 1.9296215e+2, -1210601.1, -1165598.9, -69651.586, -0.33216885, -0.19038796, -1114904.1, -65955.81, 0.0, 9.998906, 9.99954 
2.544537e+3, 2.029535e+2, -1300491.0, -1265244.9, -29578.256, -0.34028986, -0.123887226, -1248437.6, -297406.75, 0.0, 9.998097, 9.998558 
2.5441337e+3, 2.129435e+2, -1138707.1, -1129985.1, -47303.137, 0.33673152, -0.21276923, -1086842.4, -233713.89, 0.0, 9.998542, 9.9985695 
2.5437266e+3, 2.229331e+2, -1008285.8, -1083148.9, -38915.125, 0.6849467, -0.24266122, -991721.94, -236492.52, 0.0, 9.998996, 9.998064 
2.5433114e+3, 2.329221e+2, -781817.56, -893666.06, -45144.816, 0.20382975, -0.391688, -765869.9, -108534.484, 0.0, 9.999797, 9.998273 
2.5428984e+3, 2.4291211e+2, -633525.0, -766515.7, 14266.111, -0.17518494, -0.3717302, -632011.9, -72578.43, 0.0, 10.000134, 9.998312 
2.5424886e+3, 2.5290376e+2, -429349.3, -560287.06, -10807.024, -0.37124392, -0.3146907, -428463.34, 33056.5, 0.0, 10.0006695, 9.998757 
2.5420812e+3, 2.6289403e+2, -487956.72, -816073.75, 55809.316, -0.45336166, -0.22595836, -478723.9, -115104.41, 0.0, 10.000724, 9.996355 
2.5416782e+3, 2.7288136e+2, -433682.63, -760512.4, 102772.266, -0.22331765, -0.35311013, -404052.0, -138303.69, 0.0, 10.000545, 9.996119 
2.541275e+3, 2.8287196e+2, -183338.28, -189830.33, 51499.613, 0.0040172944, -0.2062164, -134982.5, 32861.383, 0.0, 9.999889, 9.999684 
2.5408688e+3, 2.928681e+2, -120753.59, 47835.266, 55168.816, 0.046694443, 0.07021489, 64283.824, 134166.06, 0.0, 9.999002, 10.001043 
2.540462e+3, 3.0285975e+2, -350796.88, -297877.2, 5601.3677, 0.12859923, 0.074340954, -297290.78, -297290.78, 0.0, 9.9981785, 9.998789 
2.5400516e+3, 3.1284842e+2, -208251.98, 159202.7, -52191.92, -0.09391305, -0.20000717, 166472.03, 166472.03, 0.0, 9.997439, 10.002263 
2.5578126e+3, 1.2343609e+2, -2151738.0, -2146503.0, 90284.234, -0.3254835, -0.18103576, -2058798.4, -328507.94, 0.29081753, 9.997969, 9.997891 
2.5574067e+3, 1.3342723e+2, -1656247.8, -1718116.0, 56714.984, 0.07585286, -0.22383748, -1622579.3, 9807.177, 0.2027681, 10.00012, 9.999161 
2.556995e+3, 1.434172e+2, -1425308.1, -1513557.1, 14950.548, -0.075167075, -0.2978499, -1422844.1, 111643.42, 0.11625642, 10.000874, 9.999567 
2.556583e+3, 1.5340838e+2, -1371711.5, -1411868.1, 54023.637, -0.124447726, -0.3940637, -1334155.8, 102411.336, 0.04988728, 10.000416, 9.999791 
2.5561726e+3, 1.6339935e+2, -1499673.4, -1666065.4, 147489.9, -0.12708068, -0.31667945, -1413532.9, -74878.95, 0.013707004, 9.9998255, 9.997696 
2.5557646e+3, 1.7338988e+2, -1339356.3, -1550724.1, 112539.8, -0.055214606, -0.22898039, -1290656.5, -49902.438, 0.0016894786, 10.000312, 9.997569 
2.5553545e+3, 1.8338025e+2, -1134666.3, -1217329.3, -73788.195, -0.058397163, -0.1675915, -1091422.4, 51428.66, 0.000027889511, 10.000238, 9.999225 
2.5549406e+3, 1.9337007e+2, -1185275.5, -1147394.3, -91821.99, -0.16495025, -0.3642221, -1072579.8, -27634.383, 0.0, 9.999067, 9.999581 
2.5545293e+3, 2.0336065e+2, -1266034.4, -1256561.1, -15933.328, -0.1508274, -0.3690841, -1244675.3, -297640.0, 0.0, 9.998339, 9.998512 
2.5541222e+3, 2.1335202e+2, -1106912.5, -1141609.9, -3411.6743, 0.13900349, -0.28912315, -1106580.3, -257457.8, 0.0, 9.998826, 9.998376 
2.5537136e+3, 2.23343e+2, -888470.5, -958095.25, 19033.275, 0.24853331, -0.19610706, -883607.1, -132394.66, 0.0, 9.999501, 9.998682 
2.5533015e+3, 2.3333322e+2, -622808.25, -765516.44, 47320.777, -0.049340297, -0.25603488, -608543.06, 44764.57, 0.0, 10.000637, 9.998757 
2.5528914e+3, 2.433233e+2, -493639.22, -816388.75, 78488.56, -0.20559768, -0.20986441, -475564.1, 79842.516, 0.0, 10.001542, 9.997306 
2.5524852e+3, 2.533129e+2, -384874.2, -732044.2, 29369.193, -0.08107718, -0.17546691, -382407.2, 75107.984, 0.0, 10.001732, 9.997097 
2.5520787e+3, 2.6330262e+2, -202481.73, -439810.3, 67840.836, -0.04220374, -0.1324669, -184458.08, 175161.27, 0.0, 10.001576, 9.99856 
2.5516725e+3, 2.7329236e+2, -215360.47, -375430.5, 190990.83, -0.0695084, -0.24040493, -88313.13, 173405.22, 0.0, 10.0007515, 9.9987135 
2.5512663e+3, 2.832836e+2, -134758.11, -115730.98, 178528.9, -0.09483188, -0.1919434, 53537.664, 217339.98, 0.0, 9.999904, 10.000221 
2.5508574e+3, 2.9327706e+2, -164687.9, -40626.484, 129430.07, -0.16584355, -0.10370819, 40869.645, 106732.42, 0.0, 9.998879, 10.0005455 
2.5504515e+3, 3.0326667e+2, -218725.19, -191691.08, 104915.68, 0.035982862, -0.29525703, -99425.28, -99425.28, 0.0, 9.998785, 9.999275 
2.5500402e+3, 3.1325418e+2, 52675.695, 115808.875, 53772.58, -0.2949957, -0.624584, 146595.63, 146595.63, 0.0, 9.999741, 10.000941 
2.567808e+3, 1.2384057e+2, -1795853.1, -1817988.1, -163185.42, 0.119648054, -0.42783934, -1643360.3, 82967.805, 0.26403108, 9.999697, 9.999474 
2.5673962e+3, 1.3383442e+2, -1727829.3, -1656985.0, -107077.06, -0.09165171, -0.31235737, -1579623.1, 48771.19, 0.18292536, 9.999157, 10.000138 
2.5669843e+3, 1.4382574e+2, -1650812.5, -1616835.8, -117492.98, -0.276515, -0.32090876, -1515109.4, 15371.818, 0.1037245, 9.999136, 9.9997015 
2.5665763e+3, 1.538179e+2, -1342672.9, -1442129.3, -179042.5, -0.01767898, -0.33145133, -1206581.0, 225972.95, 0.043632858, 10.0007305, 9.999484 
2.566167e+3, 1.6380899e+2, -1304274.0, -1561079.3, -97594.27, 0.08834609, -0.25860393, -1271394.6, 63245.86, 0.011545959, 10.001146, 9.997752 
2.5657564e+3, 1.7379843e+2, -1388898.5, -1592225.6, -46463.99, -0.08510721, -0.30555284, -1378783.9, -142033.47, 0.0013158798, 10.000078, 9.997372 
2.5653452e+3, 1.8378854e+2, -1164239.3, -1235718.9, -124816.18, -0.16119447, -0.2651731, -1070146.9, 68702.945, 0.000016496271, 10.0001, 9.999159 
2.564933e+3, 1.9377926e+2, -806134.1, -1000223.7, -168253.48, -0.11953756, -0.36503983, -708944.7, 331991.72, 0.0, 10.001828, 9.999282 
2.5645223e+3, 2.0376986e+2, -727682.75, -999007.44, -87155.83, -0.03666059, -0.34766275, -702098.6, 240926.98, 0.0, 10.002093, 9.998469 
2.5641125e+3, 2.1376054e+2, -865434.8, -1040131.3, -78762.61, 0.05888196, -0.34638053, -835168.1, 9949.6455, 0.0, 10.000596, 9.998225 
2.563703e+3, 2.237516e+2, -819173.9, -945928.3, -10228.934, 0.06701359, -0.22524598, -818353.75, -71146.68, 0.0, 10.000136, 9.9984255 
2.563293e+3, 2.3374277e+2, -624075.5, -799333.75, -44144.52, -0.14084618, -0.19705603, -613584.3, 35711.477, 0.0, 10.0008135, 9.998421 
2.562885e+3, 2.43733e+2, -597017.7, -946344.44, -11573.114, -0.15969744, -0.09405796, -596634.7, -45240.004, 0.0, 10.001224, 9.99655 
2.5624803e+3, 2.537214e+2, -526791.0, -903516.1, 29732.037, 0.08961173, -0.13253081, -524458.94, -70944.47, 0.0, 10.001232, 9.996157 
2.5620744e+3, 2.637114e+2, -266276.97, -320687.4, 67797.63, 0.23624392, -0.056357495, -220429.86, 135184.45, 0.0, 10.000607, 9.9997835 
2.5616664e+3, 2.737034e+2, -262718.13, -206833.83, 56759.727, 0.09500992, -0.13636735, -171511.22, 86176.58, 0.0, 9.9997, 10.000325 
2.5612572e+3, 2.8369448e+2, -275068.88, -237618.34, -16509.725, -0.15174983, -0.18564172, -231379.5, -71610.164, 0.0, 9.999235, 9.999682 
2.5608453e+3, 2.9368463e+2, -118439.2, -125144.555, -26933.58, -0.4599342, -0.390203, -94650.43, -32790.957, 0.0, 9.999706, 9.99954 
2.5604415e+3, 3.0367455e+2, -80587.02, -157564.23, 6551.159, -0.054994524, -0.48728928, -80033.47, -80033.47, 0.0, 9.999994, 9.9988575 
2.5600353e+3, 3.1366888e+2, -244855.4, -246458.69, 185484.06, -0.025833137, -0.18982714, -60171.26, -60171.26, 0.0, 9.998902, 9.998731 
2.577799e+3, 1.2424297e+2, -1789530.1, -1662988.1, -127426.555, -0.01850689, -0.6710688, -1583989.3, 138397.86, 0.23823552, 9.999038, 10.000929 
2.577383e+3, 1.3424031e+2, -1698239.1, -1485524.4, -110789.71, -0.536164, -0.38026336, -1438303.6, 186113.36, 0.16394834, 9.998636, 10.001683 
2.5769722e+3, 1.442342e+2, -1767564.9, -1743148.1, -54710.54, -0.6353235, -0.18552336, -1699300.4, -172819.67, 0.09188186, 9.998687, 9.999027 
2.5765702e+3, 1.5422605e+2, -1428080.9, -1575802.0, -75167.94, 0.1164135, -0.1337692, -1396558.3, 32005.244, 0.03784501, 10.000534, 9.998637 
2.5761628e+3, 1.6421644e+2, -1231152.0, -1377421.0, -107125.59, 0.33905175, -0.13406008, -1174577.1, 156081.8, 0.009625426, 10.001067, 9.999023 
2.5757477e+3, 1.742045e+2, -1279221.4, -1379513.6, -52023.293, -0.17332596, -0.46165764, -1257110.6, -24334.74, 0.0010124295, 10.000161, 9.998777 
2.575335e+3, 1.8419549e+2, -1136955.3, -1208262.5, -71335.91, -0.4209476, -0.4111255, -1092859.3, 42005.297, 0.000009793076, 10.000243, 9.99926 
2.5749254e+3, 1.9419006e+2, -793940.25, -1017846.6, -71771.77, -0.28707692, -0.09551855, -772909.56, 264009.2, 0.0, 10.002006, 9.99907 
2.5745156e+3, 2.0418124e+2, -657590.6, -948657.6, -123272.4, -0.11767132, -0.015666958, -612398.94, 326603.1, 0.0, 10.002462, 9.998644 
2.5741062e+3, 2.141683e+2, -751780.7, -971327.0, -105815.75, 0.11127848, -0.38031054, -709083.8, 132037.92, 0.0, 10.00127, 9.998386 
2.5736967e+3, 2.241572e+2, -778449.56, -1042311.3, 6751.3823, 0.14908864, -0.43920213, -778276.94, -35046.996, 0.0, 10.000863, 9.997415 
2.5732875e+3, 2.3414814e+2, -605853.6, -941167.56, -24356.967, -0.049636006, -0.2939062, -604093.56, 41232.87, 0.0, 10.001505, 9.997135 
2.5728786e+3, 2.441389e+2, -372465.66, -628073.1, -28423.008, -0.16312209, -0.15906031, -369343.22, 178076.98, 0.0, 10.001814, 9.998463 
2.5724712e+3, 2.5412905e+2, -305734.53, -571485.56, 56581.12, -0.14669742, -0.20042111, -294189.38, 155324.9, 0.0, 10.001706, 9.9982395 
2.572065e+3, 2.6411924e+2, -278311.6, -469631.06, 45887.633, -0.031517018, -0.16700475, -267874.88, 83735.71, 0.0, 10.001071, 9.998543 
2.5716588e+3, 2.7410945e+2, -383557.88, -488127.97, -34483.38, 0.1800852, -0.21592005, -373210.44, -119501.445, 0.0, 9.999739, 9.9984 
2.5712508e+3, 2.841005e+2, -188852.13, -174147.11, -63480.492, 0.081215136, -0.19091271, -117594.74, 38201.9, 0.0, 9.999657, 9.999932 
2.5708392e+3, 2.940923e+2, 150087.84, 13736.838, -45964.887, -0.35038877, -0.23621024, 164135.63, 222008.45, 0.0, 10.001407, 9.999714 
2.570434e+3, 3.0408266e+2, 161623.92, -3851.252, -94045.76, -0.120900296, -0.3149159, 204146.52, 204146.52, 0.0, 10.001401, 9.99926 
2.570025e+3, 3.14076e+2, -220114.58, -201993.9, 153082.9, -0.12824707, -0.11116007, -57703.438, -57703.438, 0.0, 9.998751, 9.99915 
2.587789e+3, 1.2465436e+2, -1821202.5, -1628331.5, -73392.77, -0.05342895, -0.28537893, -1603579.9, 114785.38, 0.21373183, 9.9984045, 10.0014715 
2.587374e+3, 1.3464968e+2, -1815387.5, -1598679.3, -162737.84, -0.44002047, -0.1492906, -1511523.1, 108892.086, 0.14603193, 9.998035, 10.00112 
2.586964e+3, 1.4464231e+2, -1764648.1, -1660425.9, -5315.0654, -0.44405475, -0.09088671, -1660155.5, -137666.55, 0.080827504, 9.998358, 9.999744 
2.5865623e+3, 1.546331e+2, -1477094.9, -1530016.9, 27861.586, 0.11240856, -0.21150318, -1465131.3, -40553.406, 0.032553293, 9.999901, 9.999244 
2.5861546e+3, 1.6462417e+2, -1240093.6, -1331505.6, -29388.102, 0.2526766, -0.19356902, -1231460.9, 95204.92, 0.007938516, 10.000762, 9.999482 
2.5857398e+3, 1.7461498e+2, -1178209.5, -1290909.0, -52903.535, -0.17405608, -0.28731188, -1157267.1, 71490.43, 0.00076767127, 10.000673, 9.999147 
2.5853273e+3, 1.8460654e+2, -1087190.0, -1198783.1, -34539.89, -0.37087038, -0.1951823, -1077364.5, 53476.58, 0.000005913737, 10.0006485, 9.999127 
2.584918e+3, 1.9459954e+2, -1070766.4, -1174789.6, -44129.05, -0.2651347, -0.02851038, -1054568.3, -21657.701, 0.0, 10.000237, 9.998824 
2.584509e+3, 2.0459007e+2, -920725.3, -1111378.1, -102915.43, -0.09519614, 0.016071578, -875770.9, 59229.055, 0.0, 10.000819, 9.998313 
2.5840995e+3, 2.1457681e+2, -674144.8, -974169.2, -128490.93, 0.1269625, -0.36851457, -626638.44, 210482.52, 0.0, 10.001967, 9.998036 
2.58369e+3, 2.2456503e+2, -648466.44, -1041613.94, 32788.867, 0.15718, -0.447959, -645750.56, 93484.86, 0.0, 10.00213, 9.996791 
2.5832805e+3, 2.34555e+2, -702946.4, -1068765.5, 41569.164, -0.056911364, -0.3384619, -698282.2, -56939.66, 0.0, 10.001284, 9.996353 
2.582872e+3, 2.4454592e+2, -437198.53, -543937.1, 30280.42, -0.17380017, -0.18162535, -429206.72, 114226.52, 0.0, 10.00095, 9.999423 
2.5824636e+3, 2.5453737e+2, -376204.78, -493238.66, 5930.905, -0.23119998, -0.22466843, -375905.0, 69605.06, 0.0, 10.000807, 9.999183 
2.5820565e+3, 2.645272e+2, -462592.53, -718535.94, -46082.934, -0.14766335, -0.21161613, -454548.06, -106939.08, 0.0, 10.000538, 9.997093 
2.5816503e+3, 2.745155e+2, -489380.1, -725576.1, -47202.11, 0.15002945, -0.32431865, -480296.44, -230565.38, 0.0, 9.999898, 9.996672 
2.5812435e+3, 2.84507e+2, -220559.36, -159475.52, 60919.35, 0.19589204, -0.16258585, -121870.72, 29947.035, 0.0, 9.9993925, 10.000121 
2.580834e+3, 2.9450095e+2, -194767.34, -143331.53, 63672.08, -0.1695744, -0.041326407, -100379.62, -46503.89, 0.0, 9.999081, 9.9997225 
2.5804254e+3, 3.0449075e+2, -148901.25, -105463.51, -119421.69, -0.22286612, -0.17975882, -5801.783, -5801.783, 0.0, 9.999146, 9.999621 
2.5800177e+3, 3.1448802e+2, 5660.7676, 344467.72, -188551.31, 0.029765343, 0.33318165, 428538.38, 428538.38, 0.0, 9.998507, 10.003031 
2.597779e+3, 1.2506753e+2, -1966444.8, -1828220.3, -219606.64, -0.11688277, 0.1866205, -1667107.4, 47221.004, 0.19077115, 9.998173, 10.000065 
2.5973666e+3, 1.350599e+2, -1896262.9, -1792874.8, -161521.75, -0.1335206, 0.17505302, -1674976.5, -58567.543, 0.12932457, 9.998228, 9.999596 
2.596958e+3, 1.4504969e+2, -1639248.4, -1425358.9, 59557.09, -0.12577522, -0.043127615, -1409893.5, 108612.09, 0.07062259, 9.998487, 10.001331 
2.5965524e+3, 1.5503891e+2, -1385334.4, -1314808.1, 103015.47, -0.1077466, -0.47686708, -1241187.5, 179412.72, 0.027766839, 9.9998255, 10.000767 
2.5961435e+3, 1.650321e+2, -1254779.6, -1340049.3, -39475.66, -0.11665866, -0.31853923, -1239310.5, 83355.42, 0.0064744665, 10.000682, 9.999457 
2.5957328e+3, 1.7502871e+2, -1169440.1, -1297210.1, -25133.734, -0.1513028, 0.18443929, -1164673.8, 60033.797, 0.0005723583, 10.000761, 9.999072 
2.595322e+3, 1.8502004e+2, -1075731.4, -1184806.8, -41809.43, -0.17088373, 0.2566475, -1061549.4, 65244.73, 0.0000035552432, 10.000694, 9.999199 
2.5949118e+3, 1.9500645e+2, -1043777.56, -1159090.4, -27086.064, -0.1611458, -0.22999778, -1037732.25, -8809.098, 0.0, 10.000389, 9.99887 
2.5945017e+3, 2.0499562e+2, -900029.5, -1134508.6, -40138.363, -0.1178386, -0.30807117, -893348.94, 37677.543, 0.0, 10.001098, 9.998031 
2.5940922e+3, 2.149868e+2, -589645.6, -981798.6, -48661.85, -0.02859102, -0.18664694, -583697.5, 249413.5, 0.0, 10.002707, 9.997663 
2.5936824e+3, 2.249765e+2, -482956.25, -880851.7, 13415.526, -0.089407004, -0.13269337, -482504.44, 252707.3, 0.0, 10.0028925, 9.997528 
2.5932714e+3, 2.3496486e+2, -558607.8, -925601.1, 53148.035, -0.31820256, -0.23915823, -551065.9, 86262.24, 0.0, 10.001904, 9.99705 
2.5928643e+3, 2.4495466e+2, -441593.44, -665735.4, 44031.094, -0.25219238, -0.18157475, -433254.1, 106174.35, 0.0, 10.001358, 9.998413 
2.59246e+3, 2.549456e+2, -396749.3, -636593.9, -395.6375, 0.0910721, -0.13308336, -396748.66, 44766.484, 0.0, 10.001146, 9.998066 
2.592051e+3, 2.6493514e+2, -327485.47, -537298.5, -71085.66, 0.05237238, -0.14854316, -305669.66, 37947.09, 0.0, 10.00095, 9.998138 
2.5916386e+3, 2.7492335e+2, -275515.1, -505414.47, -20168.443, -0.2713788, -0.34353253, -273759.2, -28025.307, 0.0, 10.00081, 9.997762 
2.5912306e+3, 2.8491464e+2, -155441.39, -151253.0, 43152.996, -0.27265403, -0.25593844, -110143.414, 37675.504, 0.0, 9.999884, 9.999951 
2.590825e+3, 2.9490846e+2, -368525.25, -268026.84, 11241.625, -0.0944146, -0.07961719, -266784.75, -216907.05, 0.0, 9.997967, 9.999434 
2.5904188e+3, 3.0489847e+2, -306996.22, -265208.25, -85235.55, 0.0846639, -0.14803866, -198343.16, -198343.16, 0.0, 9.998361, 9.998942 
2.5900036e+3, 3.148867e+2, 186394.53, 174290.02, 2914.0056, -0.5746058, -0.42951512, 187059.52, 187059.52, 0.0, 10.000782, 10.000788 
2.607769e+3, 1.2547272e+2, -1814746.8, -1874749.9, -229186.23, -0.19596995, -0.0045740376, -1613606.8, 96753.55, 0.16949552, 9.999741, 9.999025 
2.607358e+3, 1.3546573e+2, -1629261.4, -1678904.9, -181180.4, -0.09460892, 0.06392459, -1471210.4, 141224.02, 0.11391175, 10.000144, 9.999534 
2.6069495e+3, 1.4545694e+2, -1420652.9, -1306189.0, 55932.133, -0.0840234, -0.026728217, -1283396.5, 231121.47, 0.061296463, 9.999954, 10.001469 
2.6065436e+3, 1.5544759e+2, -1402821.5, -1317554.4, 13426.158, -0.1215199, -0.33909652, -1315490.3, 101109.734, 0.023481611, 9.999665, 10.0008135 
2.6061353e+3, 1.6544083e+2, -1327232.8, -1328810.6, -129462.21, -0.14927548, -0.21216057, -1198557.1, 120107.1, 0.005220199, 9.999967, 9.999908 
2.6057255e+3, 1.7543666e+2, -1205518.3, -1294917.5, -120647.14, -0.10923582, 0.16794448, -1121556.4, 99154.31, 0.00041937284, 10.000405, 9.9992895 
2.605315e+3, 1.8542776e+2, -1113074.1, -1231894.6, -125291.56, -0.07157041, 0.20576295, -1033820.94, 88978.14, 0.0000020172258, 10.000524, 9.998975 
2.6049048e+3, 1.9541392e+2, -1116562.9, -1244044.0, -144474.08, -0.055481162, -0.2944068, -1022393.25, 2537.7297, 0.0, 10.000071, 9.998455 
2.604495e+3, 2.0540352e+2, -957213.06, -1139069.3, -50635.055, -0.054680992, -0.3257739, -944065.1, -17033.379, 0.0, 10.00067, 9.998167 
2.6040858e+3, 2.1539631e+2, -757530.4, -1067150.8, -29693.65, -0.059556108, -0.07017363, -754708.4, 74395.42, 0.0, 10.001655, 9.997546 
2.6036754e+3, 2.2538674e+2, -575015.44, -902539.9, -28341.361, -0.19027379, 0.053264815, -572581.1, 158616.81, 0.0, 10.002175, 9.997724 
2.6032642e+3, 2.3537463e+2, -621515.5, -946025.2, -38558.355, -0.4174285, -0.13918608, -616996.94, 16318.311, 0.0, 10.001455, 9.997116 
2.6028574e+3, 2.4536358e+2, -542564.9, -836243.25, -8183.8374, -0.2517295, -0.121395096, -542336.94, -6913.0596, 0.0, 10.0012455, 9.997286 
2.6024547e+3, 2.553534e+2, -512442.0, -828139.2, -37610.863, 0.26158446, -0.09379341, -508023.06, -70497.64, 0.0, 10.001002, 9.996812 
2.6020443e+3, 2.6534307e+2, -297788.1, -424490.72, -97689.914, 0.122246265, -0.07727728, -244706.14, 94919.0, 0.0, 10.00079, 9.998983 
2.601628e+3, 2.7533203e+2, -352118.53, -472329.34, -59184.164, -0.57408196, -0.2979217, -327870.94, -86141.3, 0.0, 10.000023, 9.998374 
2.6012194e+3, 2.853226e+2, -180602.77, -222842.53, -26407.096, -0.55317235, -0.2862063, -167908.69, -24090.717, 0.0, 10.000023, 9.99939 
2.6008168e+3, 2.9531506e+2, -166710.63, -265684.0, -46635.57, 0.024560928, -0.20427202, -148198.72, -102310.914, 0.0, 9.999852, 9.998531 
2.6004115e+3, 3.0530533e+2, -111918.57, -322703.8, -2707.6033, 0.31160682, -0.1297975, -111883.8, -111883.8, 0.0, 10.000457, 9.997489 
2.6000026e+3, 3.1529024e+2, -2926.6667, 12916.398, 323925.7, 0.012355151, -0.62287563, 329017.38, 329017.38, 0.0, 9.999938, 10.000044 
2.6177612e+3, 1.2587631e+2, -1932086.1, -1735099.0, -146659.42, -0.17402554, -0.2809602, -1656929.1, 49475.168, 0.14988421, 9.99808, 10.00074 
2.6173487e+3, 1.3587023e+2, -1627688.3, -1640365.6, -100341.85, -0.25296807, -0.18086673, -1533485.0, 74982.945, 0.09979623, 9.999986, 9.99983 
2.6169404e+3, 1.4586419e+2, -1443916.9, -1359151.0, 76713.805, -0.22418307, 0.017145561, -1313890.8, 196637.27, 0.05285716, 10.000018, 10.001025 
2.616536e+3, 1.5585785e+2, -1462836.0, -1422471.4, 36293.688, -0.069241636, 0.0690318, -1401125.9, 11461.88, 0.019694533, 9.99959, 10.000125 
2.616128e+3, 1.6584918e+2, -1274944.5, -1211026.4, -102040.96, -0.08289715, -0.0034122525, -1136056.9, 178612.27, 0.004163879, 9.999945, 10.000705 
2.615717e+3, 1.7583905e+2, -1160753.8, -1208905.4, -83280.375, -0.2057311, -0.29325917, -1098139.0, 118625.51, 0.00030229846, 10.000456, 9.999833 
2.6153073e+3, 1.8583064e+2, -1097534.5, -1242490.6, -133702.48, -0.15862426, -0.2194012, -1017928.94, 100918.11, 0.0000010444409, 10.000696, 9.9988165 
2.6148975e+3, 1.9582267e+2, -1092610.0, -1260170.6, -121189.0, -0.019059196, -0.097409606, -1029061.06, -8133.591, 0.0, 10.000301, 9.998245 
2.6144886e+3, 2.0581365e+2, -850636.8, -991470.3, -316.76266, 0.017982544, -0.031129993, -850636.1, 72380.55, 0.0, 10.000963, 9.999039 
2.6140803e+3, 2.1580404e+2, -619157.75, -925052.8, 27925.861, -0.035469104, -0.08439331, -616629.25, 208481.47, 0.0, 10.00224, 9.9982395 
2.6136705e+3, 2.2579418e+2, -525215.0, -908570.4, -43008.35, -0.1276049, -0.008550976, -520449.2, 206759.02, 0.0, 10.002595, 9.9974985 
2.61326e+3, 2.3578382e+2, -537540.94, -940599.8, -42442.72, -0.24979688, 0.018825958, -533120.2, 96190.79, 0.0, 10.002091, 9.996879 
2.612851e+3, 2.4577205e+2, -483854.0, -849097.0, -21390.97, -0.24495198, -0.007932318, -482605.47, 48821.51, 0.0, 10.001795, 9.996939 
2.6124442e+3, 2.557594e+2, -413120.75, -813785.8, -35442.246, -0.1346719, -0.16364121, -410009.75, 23542.166, 0.0, 10.001764, 9.996563 
2.6120353e+3, 2.657502e+2, -154289.08, -274640.22, -121336.3, -0.11124641, -0.06789286, -79026.12, 256615.0, 0.0, 10.001354, 9.99977 
2.611624e+3, 2.7574316e+2, -214988.55, -322037.3, -76370.945, -0.19897273, 0.06213952, -175253.17, 62455.426, 0.0, 10.000497, 9.99921 
2.6112166e+3, 2.8573278e+2, -7614.483, -94584.14, 39061.418, -0.09852632, -0.08890653, 7353.445, 147155.53, 0.0, 10.000981, 9.999814 
2.6108116e+3, 2.9572064e+2, 259402.53, -30774.318, 52029.785, 0.1382245, -0.47141865, 268449.6, 310358.5, 0.0, 10.0026, 9.998832 
2.6104018e+3, 3.0571178e+2, 161681.47, -310130.13, 30907.45, -0.08357638, -0.27042368, 163697.55, 163697.55, 0.0, 10.002715, 9.996527 
2.609994e+3, 3.1569928e+2, 168820.2, 77244.14, -37840.273, -0.09921891, -0.37803113, 182432.77, 182432.77, 0.0, 10.000993, 10.000009 
2.6277512e+3, 1.2628664e+2, -2202888.5, -1799799.3, 76193.03, -0.034229722, -0.17843243, -1785877.8, -83496.336, 0.13183987, 9.995912, 10.001283 
2.627342e+3, 1.3627937e+2, -1572286.6, -1582765.8, 63318.15, -0.09497063, -0.23023947, -1513991.6, 90459.414, 0.08692974, 10.000196, 10.000135 
2.6269335e+3, 1.4627247e+2, -1386750.8, -1514479.8, 108677.36, -0.14225322, -0.03646181, -1324561.9, 181959.48, 0.045284748, 10.001133, 9.999448 
2.6265272e+3, 1.5626566e+2, -1507343.5, -1593395.5, 15910.95, -0.09596195, 0.13333476, -1504495.8, -95903.06, 0.01638905, 9.999855, 9.998874 
2.626119e+3, 1.6625622e+2, -1342460.6, -1273898.0, -91039.62, -0.13304512, 0.05132471, -1210899.3, 99783.94, 0.0032885466, 9.999596, 10.00046 
2.625709e+3, 1.762448e+2, -1273446.9, -1291659.3, -138682.67, -0.23155937, -0.34501562, -1143571.8, 69217.625, 0.00021471751, 9.999781, 9.9996195 
2.6252997e+3, 1.862365e+2, -996731.2, -1146399.9, -161491.47, -0.14647092, -0.28469568, -893577.7, 221292.19, 0.00000047553752, 10.001206, 9.999223 
2.6248914e+3, 1.962304e+2, -722819.4, -1058793.4, -132847.6, 0.06632454, -0.020867608, -676637.94, 340294.53, 0.0, 10.002793, 9.998418 
2.6244825e+3, 2.062218e+2, -656892.7, -876572.75, -36137.15, 0.06928808, 0.070601925, -651100.9, 267917.34, 0.0, 10.00219, 9.9992485 
2.6240733e+3, 2.162114e+2, -959466.94, -1077171.1, -51887.387, -0.04465617, -0.101235814, -939859.7, -118739.04, 0.0, 9.999872, 9.998343 
2.6236638e+3, 2.2620179e+2, -836075.0, -1005054.4, -55545.418, -0.11476553, -0.035150964, -819451.9, -96236.62, 0.0, 10.000285, 9.99793 
2.623254e+3, 2.3619261e+2, -681672.1, -993317.25, -8455.002, -0.14325203, 0.060143437, -681442.9, -56136.758, 0.0, 10.001103, 9.99698 
2.6228446e+3, 2.4618082e+2, -528837.44, -837545.4, 82173.17, -0.24381769, 0.018322883, -508326.97, 19094.717, 0.0, 10.001413, 9.997174 
2.6224348e+3, 2.5616705e+2, -602523.7, -913998.25, 112754.5, -0.3786837, -0.25704762, -565991.2, -136435.45, 0.0, 10.000562, 9.996442 
2.6220268e+3, 2.6615855e+2, -299491.2, -363424.22, -6959.629, -0.20538372, -0.0694344, -298742.34, 32898.14, 0.0, 10.00048, 9.999544 
2.62162e+3, 2.761535e+2, -329475.28, -426407.3, -51652.25, 0.16217661, 0.27029684, -307111.16, -73419.61, 0.0, 9.999988, 9.998713 
2.6212126e+3, 2.8614214e+2, -30634.04, -106281.67, 60824.184, 0.2058354, 0.045664433, 3167.7136, 138961.36, 0.0, 10.00091, 9.999735 
2.6208055e+3, 2.9612628e+2, 120333.18, -159135.2, 13551.855, 0.06869385, -0.7299447, 120988.79, 158921.3, 0.0, 10.001979, 9.9982395 
2.6203927e+3, 3.061196e+2, -22903.945, -430947.63, -94218.445, -0.401747, -0.266891, -2199.224, -2199.224, 0.0, 10.001682, 9.996166 
2.619978e+3, 3.1610817e+2, -262689.66, -443141.34, 111920.766, -1.0610414, -0.2513284, -209155.42, -209155.42, 0.0, 9.999552, 9.997101 
2.6377413e+3, 1.2669925e+2, -1951996.4, -1643957.5, 155889.86, 0.07908136, 0.11619826, -1578834.0, 119501.34, 0.11528824, 9.997545, 10.00163 
2.6373366e+3, 1.3668957e+2, -1624238.5, -1633348.1, 153274.05, 0.11833551, -0.23174052, -1475451.6, 124969.88, 0.07524984, 9.999972, 9.999901 
2.6369277e+3, 1.466805e+2, -1570542.9, -1793565.3, 43555.72, -0.0702687, -0.14025629, -1562338.4, -59824.2, 0.038529176, 10.000716, 9.997685 
2.6365176e+3, 1.5667158e+2, -1581689.0, -1796627.8, -2617.9895, -0.29643, -0.0144655295, -1581657.0, -177045.05, 0.013527696, 10.000122, 9.997327 
2.6361087e+3, 1.6666257e+2, -1347550.8, -1355233.1, -70849.47, -0.3241628, 0.04905813, -1280438.4, 26264.041, 0.0025719018, 9.999912, 9.999745 
2.6357e+3, 1.766533e+2, -1303844.3, -1360810.3, -86653.69, -0.28484395, -0.057083305, -1241112.4, -32321.48, 0.00015054179, 9.999796, 9.999136 
2.6352933e+3, 1.8664435e+2, -926693.06, -1020174.4, -84248.54, -0.13612087, -0.085886426, -877087.94, 233788.06, 0.0000001940375, 10.001296, 10.000043 
2.6348862e+3, 1.9663577e+2, -628550.44, -933936.25, -58773.59, 0.03262938, -0.144391, -617629.56, 395328.56, 0.0, 10.003067, 9.999149 
2.6344758e+3, 2.0662725e+2, -648302.3, -886635.4, -115559.2, -0.010162338, -0.07114448, -601473.06, 313570.16, 0.0, 10.002322, 9.999102 
2.634064e+3, 2.1661851e+2, -892021.0, -1025625.4, -90646.42, -0.19630075, -0.05356304, -846220.75, -29088.875, 0.0, 10.000214, 9.998537 
2.6336545e+3, 2.2660933e+2, -686090.3, -747176.8, 9452.767, -0.27624673, -0.049576856, -684661.0, 34558.758, 0.0, 10.000473, 9.999626 
2.6332462e+3, 2.3660003e+2, -427142.9, -663774.5, 65942.44, -0.32373992, -0.11945214, -410007.5, 211298.98, 0.0, 10.001898, 9.998875 
2.6328382e+3, 2.465901e+2, -322677.6, -516679.56, 89900.15, -0.24255097, -0.1689984, -287424.2, 235974.45, 0.0, 10.001835, 9.999181 
2.6324302e+3, 2.5657952e+2, -440429.38, -656383.3, 168652.03, -0.117042646, -0.3064392, -348150.16, 77346.83, 0.0, 10.000842, 9.998078 
2.6320207e+3, 2.665689e+2, -468958.34, -750077.56, 56368.258, -0.04795982, -0.23912998, -458076.9, -130472.664, 0.0, 10.000572, 9.996869 
2.6316106e+3, 2.7655885e+2, -393549.5, -718280.8, -4651.159, 0.017572414, -0.1113451, -393482.9, -163772.64, 0.0, 10.0005865, 9.996438 
2.6312032e+3, 2.8654754e+2, -79560.25, -353619.03, 91204.43, -0.052047387, -0.12239162, -51983.13, 79838.82, 0.0, 10.001427, 9.997828 
2.6307967e+3, 2.9653513e+2, 145194.55, -256306.06, -19803.121, -0.2209489, -0.3545152, 146168.92, 180109.66, 0.0, 10.002505, 9.997356 
2.6303887e+3, 3.065299e+2, 148548.25, -98693.71, -210861.75, -0.13594413, 0.15410395, 269354.8, 269354.8, 0.0, 10.001697, 9.998497 
2.629979e+3, 3.165227e+2, -107747.41, 6335.399, -57722.965, -0.025739547, 0.4098051, 30446.088, 30446.088, 0.0, 9.998813, 10.000621 
2.6477355e+3, 1.2710391e+2, -1174122.3, -1342794.3, -32591.07, 0.18775792, -0.08146413, -1168044.0, 526320.9, 0.10017185, 10.003498, 10.001067 
2.6473284e+3, 1.3709585e+2, -1656373.4, -1660007.8, -80467.21, 0.12101491, -0.21017796, -1577702.9, 18734.412, 0.06469282, 9.99981, 9.999759 
2.6469198e+3, 1.4708681e+2, -1582610.3, -1742349.8, -39091.926, -0.07516695, -0.16989753, -1573556.6, -75028.625, 0.032530583, 10.000385, 9.998183 
2.6465106e+3, 1.57077e+2, -1225590.4, -1601428.6, -29040.84, -0.2946187, -0.17905053, -1223359.6, 177271.45, 0.011066901, 10.00247, 9.99753 
2.6461014e+3, 1.6706824e+2, -1136768.1, -1322169.5, -110638.08, -0.27660212, -0.0722126, -1085128.3, 217592.5, 0.0019930317, 10.001638, 9.999141 
2.6456925e+3, 1.7705995e+2, -1475287.9, -1510094.9, -114491.23, -0.1496811, -0.009546417, -1376885.0, -172080.9, 0.00010503105, 9.99889, 9.998565 
2.6452857e+3, 1.8705106e+2, -1282004.1, -1123262.5, -21508.03, -0.042487036, -0.04951683, -1120400.0, -13510.468, 0.00000008640195, 9.998638, 10.000569 
2.6448795e+3, 1.970418e+2, -1180721.0, -1174346.4, -58228.496, 0.06581462, -0.22673163, -1119218.0, -110240.68, 0.0, 9.999194, 9.999362 
2.6444688e+3, 2.0703368e+2, -919866.2, -989148.7, -138300.16, -0.01240748, -0.14027628, -811934.8, 99123.5, 0.0, 10.000368, 9.999339 
2.644056e+3, 2.1702604e+2, -824362.7, -984658.06, -96524.93, -0.16694073, -0.031791724, -779048.4, 34088.16, 0.0, 10.000663, 9.998618 
2.6436466e+3, 2.2701694e+2, -615093.75, -629827.1, 16208.601, -0.28184807, -0.06917713, -604656.3, 110565.68, 0.0, 10.00062, 10.000343 
2.6432386e+3, 2.3700728e+2, -744147.75, -750061.9, -18896.604, -0.36186066, -0.2680845, -727978.25, -110669.11, 0.0, 9.999472, 9.999448 
2.6428312e+3, 2.469988e+2, -551869.8, -506320.2, -98913.77, -0.20269856, -0.27561197, -427593.13, 91791.87, 0.0, 9.999767, 10.000245 
2.6424244e+3, 2.569906e+2, -643664.1, -726895.8, -98998.79, 0.08321391, -0.3117894, -577889.9, -156431.61, 0.0, 9.99937, 9.998314 
2.642014e+3, 2.669785e+2, -483980.3, -932622.44, -83732.305, 0.041253842, -0.3321463, -468862.38, -145281.64, 0.0, 10.001303, 9.995231 
2.6416022e+3, 2.7696455e+2, -207994.4, -860063.1, -11915.615, -0.14381796, -0.4489439, -207776.73, 17950.768, 0.0, 10.002933, 9.994332 
2.6411948e+3, 2.869539e+2, -91683.8, -509039.03, 161243.97, -0.25401294, -0.22974877, -36645.723, 91194.98, 0.0, 10.002065, 9.996421 
2.640789e+3, 2.96945e+2, -374530.44, -621712.56, 114564.875, -0.40044314, 0.027825173, -329598.94, -299662.88, 0.0, 9.999512, 9.996276 
2.6403838e+3, 3.069394e+2, 68891.35, 104237.53, -131246.52, 0.08579699, 0.41466177, 218995.5, 218995.5, 0.0, 10.000199, 10.000548 
2.6399696e+3, 3.1692556e+2, -96245.3, -152020.89, -11634.66, -0.07330291, -0.18937147, -93915.64, -93915.64, 0.0, 9.999724, 9.999039 
2.6577306e+3, 1.2750618e+2, -1535929.1, -1582990.0, -158178.58, 0.15203504, -0.3746226, -1399540.4, 290877.38, 0.086430125, 10.001174, 10.000291 
2.6573187e+3, 1.3750066e+2, -1635257.5, -1696990.6, -105326.01, -0.055447794, -0.19164617, -1556368.4, 36102.535, 0.055199515, 10.000191, 9.999313 
2.6569113e+3, 1.474921e+2, -1437464.1, -1486972.6, 71469.195, -0.18266895, -0.18232514, -1386583.6, 107969.36, 0.027235242, 10.000642, 9.999801 
2.656506e+3, 1.5748209e+2, -1237474.5, -1487187.3, 42764.094, -0.26410532, -0.36369115, -1230354.1, 166295.78, 0.0089680515, 10.001882, 9.998589 
2.6560962e+3, 1.6747339e+2, -1222455.3, -1408366.4, -188028.77, -0.15500844, -0.26436907, -1105659.6, 193080.03, 0.0015322798, 10.001306, 9.998679 
2.6556852e+3, 1.7746516e+2, -1465461.9, -1524574.5, -141858.75, -0.0037092976, -0.14758481, -1350113.1, -149286.31, 0.00007382683, 9.999047, 9.998382 
2.6552773e+3, 1.8745686e+2, -1231583.0, -1078436.3, 25893.822, 0.04326609, -0.13376419, -1074176.6, 28732.365, 0.000000036839044, 9.998883, 10.000764 
2.6548707e+3, 1.9744848e+2, -1116396.4, -1099697.3, -6635.877, 0.024717757, -0.23556504, -1097381.5, -92391.33, 0.0, 9.999425, 9.999761 
2.6544613e+3, 2.0744081e+2, -855351.44, -884560.5, -89901.77, 0.006908488, -0.15862119, -778875.7, 128189.99, 0.0, 10.00051, 9.999972 
2.654051e+3, 2.1743344e+2, -662050.0, -854654.6, -42160.824, -0.057017248, -0.076152466, -653225.4, 155913.52, 0.0, 10.001518, 9.999099 
2.653641e+3, 2.2742406e+2, -600830.4, -698987.1, -21577.06, -0.1334741, -0.12082019, -596296.7, 114930.45, 0.0, 10.001002, 9.999698 
2.6532316e+3, 2.37414e+2, -716644.1, -799459.1, -47282.96, -0.22259358, -0.28695226, -695200.56, -81880.46, 0.0, 9.999852, 9.998941 
2.652823e+3, 2.4740522e+2, -621400.75, -639937.0, -122580.48, -0.17669931, -0.25241834, -507738.56, 7665.8813, 0.0, 9.999681, 9.999388 
2.6524144e+3, 2.5739694e+2, -570981.56, -705713.5, -118836.4, -0.08205212, -0.20309603, -501744.94, -84260.016, 0.0, 9.999864, 9.998229 
2.6520064e+3, 2.6738635e+2, -200033.4, -585562.94, -13171.325, -0.1055975, -0.18896993, -199583.94, 120007.27, 0.0, 10.002286, 9.997161 
2.651599e+3, 2.7737466e+2, 309642.0, -357655.1, 50700.01, -0.14021297, -0.25759125, 313472.1, 535182.25, 0.0, 10.005305, 9.996662 
2.651191e+3, 2.8736424e+2, 166243.69, -223617.97, 66084.56, -0.132746, -0.20049123, 177140.94, 300955.16, 0.0, 10.003052, 9.997958 
2.6507813e+3, 2.9735482e+2, -387678.5, -461334.3, 130340.16, -0.22446632, -0.112245634, -289063.25, -263155.1, 0.0, 9.998605, 9.997833 
2.650376e+3, 3.0734527e+2, -89713.95, -21829.295, 66460.64, 0.18210879, -0.14754298, 18854.771, 18854.771, 0.0, 9.999255, 10.000168 
2.6499608e+3, 3.1733534e+2, 215264.52, -98151.06, 160079.7, -0.30884403, -0.27677613, 282572.0, 282572.0, 0.0, 10.002136, 9.998284 
2.6677218e+3, 1.2791136e+2, -1981791.8, -1791987.6, -55004.633, 0.1864268, -0.42929196, -1777199.6, -90753.95, 0.07399981, 9.997918, 10.000325 
2.667312e+3, 1.3790631e+2, -1241510.4, -1507974.9, -43256.887, -0.08109606, -0.18994258, -1234664.1, 353832.13, 0.046711504, 10.00294, 9.999328 
2.6669046e+3, 1.478978e+2, -1185308.8, -1309435.4, 17327.408, -0.19652714, -0.2079413, -1182935.4, 307641.75, 0.022592498, 10.002124, 10.000366 
2.6664984e+3, 1.5788823e+2, -1585241.5, -1579364.9, -67413.81, -0.20497724, -0.39806625, -1514825.4, -122157.93, 0.0071954923, 9.999112, 9.999331 
2.6660886e+3, 1.6788018e+2, -1409003.3, -1405413.6, -200255.4, -0.10195487, -0.3220826, -1206945.0, 87803.92, 0.001170623, 9.999591, 9.999555 
2.6656774e+3, 1.7787261e+2, -1206829.4, -1351498.0, -80846.78, 0.055315655, -0.21359898, -1170681.1, 26146.895, 0.00005271245, 10.000624, 9.998821 
2.665269e+3, 1.8786417e+2, -1043558.4, -1062363.6, 80676.336, 0.050675433, -0.18695462, -971738.6, 127174.8, 0.000000014947995, 10.000484, 10.000122 
2.6648617e+3, 1.978556e+2, -1172602.3, -1174686.0, -7426.261, 0.024835102, -0.23929173, -1166145.1, -165146.84, 0.0, 9.999276, 9.999322 
2.664453e+3, 2.0784794e+2, -891986.2, -843241.9, -59300.133, -0.0041950596, -0.18820506, -803500.75, 99571.67, 0.0, 10.0000515, 10.0004425 
2.664044e+3, 2.1784058e+2, -832032.06, -941717.3, -52507.758, -0.014163597, -0.15330079, -810948.5, -5805.651, 0.0, 10.000458, 9.998984 
2.6636344e+3, 2.2783116e+2, -656818.3, -788471.8, -63077.438, -0.05719932, -0.16796257, -631475.3, 75757.234, 0.0, 10.000968, 9.999052 
2.663225e+3, 2.3782092e+2, -729545.25, -904711.3, -93300.84, -0.08301683, -0.29862645, -689160.2, -79830.3, 0.0, 10.000255, 9.998015 
2.6628155e+3, 2.4781162e+2, -539932.9, -670127.8, -111828.45, -0.10585204, -0.24376532, -475634.5, 35788.54, 0.0, 10.000595, 9.998728 
2.6624057e+3, 2.578027e+2, -575875.56, -757772.06, -59645.965, -0.1428897, -0.19769791, -558061.6, -144547.42, 0.0, 10.000125, 9.997735 
2.6619995e+3, 2.6779404e+2, -302907.03, -426502.16, 98060.1, -0.17478922, -0.089779355, -248796.33, 66804.57, 0.0, 10.00079, 9.99892 
2.661595e+3, 2.7778515e+2, -235055.3, -472147.44, 67274.07, -0.14526817, -0.06359647, -217296.66, 391.93036, 0.0, 10.001035, 9.997906 
2.661186e+3, 2.8777468e+2, -42655.67, -185025.0, -149832.9, -0.063350946, -0.14331289, 52042.62, 171830.14, 0.0, 10.001141, 9.999082 
2.660773e+3, 2.9776394e+2, -250728.19, -361069.34, -99374.49, -0.11165144, -0.31937218, -192236.63, -170348.4, 0.0, 9.999517, 9.998058 
2.6603687e+3, 3.077509e+2, 19080.592, -79899.14, -12786.787, 0.29831752, -0.6721424, 20705.78, 20705.78, 0.0, 10.000554, 9.999103 
2.659956e+3, 3.177479e+2, 89237.984, -189466.55, 50138.82, -0.25204965, -0.05683169, 97983.51, 97983.51, 0.0, 10.001539, 9.997918 
2.677712e+3, 1.2831739e+2, -1756417.8, -1641132.4, 134125.63, 0.11501374, -0.3707423, -1552787.5, 129679.28, 0.06278203, 9.999387, 10.0006695 
2.6773065e+3, 1.383119e+2, -1389569.6, -1576424.9, 79783.66, -0.14758502, -0.21051607, -1360138.9, 224383.55, 0.039146993, 10.001882, 9.999349 
2.6768982e+3, 1.4830351e+2, -1312898.8, -1354854.4, -63571.3, -0.22970966, -0.22046857, -1266933.5, 219669.6, 0.018543638, 10.001219, 10.000447 
2.6764897e+3, 1.5829454e+2, -1560658.9, -1496128.4, -89649.055, -0.23123783, -0.36213621, -1433115.1, -44426.555, 0.005710664, 9.99899, 9.999954 
2.6760793e+3, 1.6828783e+2, -1264370.9, -1118709.9, -129688.25, -0.1621844, -0.30247432, -1042801.25, 247952.28, 0.0008890518, 9.999669, 10.001465 
2.6756686e+3, 1.782815e+2, -1122212.4, -1205630.6, -24816.12, -0.103216216, -0.24295232, -1115388.1, 77427.65, 0.000037964888, 10.000759, 9.999739 
2.6752603e+3, 1.882724e+2, -1111041.6, -1234842.9, 56875.363, -0.0783585, -0.22545846, -1088879.8, 6028.418, 0.0000000057994387, 10.000632, 9.998863 
2.6748526e+3, 1.982628e+2, -1166046.5, -1232810.0, 1349.6514, -0.09055261, -0.26151145, -1166019.3, -169013.36, 0.0, 9.999563, 9.998784 
2.6744437e+3, 2.0825495e+2, -825953.25, -757936.4, -3809.811, -0.14230978, -0.23930398, -757723.6, 141355.84, 0.0, 10.000268, 10.000928 
2.6740348e+3, 2.1824743e+2, -686486.5, -840172.7, -2604.506, -0.22609755, -0.2545168, -686442.4, 114705.9, 0.0, 10.001257, 9.999307 
2.6736265e+3, 2.282379e+2, -637331.9, -854485.94, -55174.914, -0.17131749, -0.24374059, -624117.1, 79124.12, 0.0, 10.001386, 9.998422 
2.673218e+3, 2.3822773e+2, -590476.44, -861530.75, -77267.95, -0.08514204, -0.2883654, -569997.3, 35344.293, 0.0, 10.001249, 9.9978485 
2.67281e+3, 2.482173e+2, -411310.75, -594386.2, -96869.66, 0.039373673, -0.34894842, -369571.0, 137874.0, 0.0, 10.001353, 9.998916 
2.672401e+3, 2.582072e+2, -346031.28, -565137.0, -23179.367, 0.112565376, -0.42931068, -343605.97, 65939.45, 0.0, 10.001259, 9.998536 
2.6719934e+3, 2.6820034e+2, -255620.89, -315020.6, 101529.625, -0.06345581, -0.22143558, -179536.31, 132078.81, 0.0, 10.0006695, 9.999771 
2.671586e+3, 2.7819392e+2, -357446.4, -480097.84, 60373.227, -0.25291798, -0.009780636, -332715.34, -119034.64, 0.0, 9.999903, 9.998403 
2.6711762e+3, 2.8818274e+2, -227398.6, -437198.34, -164614.08, -0.24599388, -0.08120486, -137101.7, -21311.01, 0.0, 10.000539, 9.997665 
2.6707646e+3, 2.9817045e+2, -14969.125, -358679.2, -170172.06, -0.2637466, -0.2612918, 55028.45, 72939.64, 0.0, 10.00151, 9.997149 
2.670363e+3, 3.0815953e+2, 222296.75, -91874.48, -97955.63, 0.35648936, -0.31787658, 250335.94, 250335.94, 0.0, 10.00235, 9.998194 
2.669951e+3, 3.181548e+2, 276097.56, -91242.47, -109058.6, -0.18316633, 0.21927723, 306035.72, 306035.72, 0.0, 10.002593, 9.998133 
2.687706e+3, 1.2872528e+2, -1012366.2, -1319123.3, 105213.71, 0.0047629, -0.31768602, -979747.7, 698729.25, 0.052677616, 10.004707, 10.000512 
2.6872993e+3, 1.3872094e+2, -1692334.3, -1691751.5, 44848.855, -0.1032297, -0.01662539, -1647193.1, -66673.445, 0.03242507, 9.999562, 9.999678 
2.6868904e+3, 1.4871241e+2, -1615388.8, -1453202.0, -15373.984, -0.1555833, -0.08762672, -1451757.5, 30842.348, 0.015032841, 9.998881, 10.000876 
2.6864818e+3, 1.5870292e+2, -1529401.6, -1455473.0, -38487.09, -0.1066522, -0.3142788, -1439074.3, -54385.258, 0.0044764117, 9.999086, 10.000185 
2.686071e+3, 1.6869567e+2, -1283935.9, -1141860.5, -107350.09, -0.1142026, -0.29729557, -1084172.1, 202586.64, 0.00066900725, 9.999627, 10.001322 
2.6856604e+3, 1.7868897e+2, -1251015.8, -1268311.9, -118293.86, -0.12993483, -0.26826224, -1141054.3, 47769.508, 0.000027210404, 9.99988, 9.9997425 
2.685252e+3, 1.8868046e+2, -967472.4, -1129367.3, 13682.23, -0.14706445, -0.22908998, -966324.2, 124583.78, 0.000000001728097, 10.001481, 9.999184 
2.684845e+3, 1.9867161e+2, -775155.75, -1049014.4, 35480.074, -0.12735628, -0.21013093, -770633.75, 222361.84, 0.0, 10.002292, 9.998739 
2.684436e+3, 2.0866293e+2, -739819.94, -768739.7, -13256.481, -0.16603921, -0.24241215, -734662.94, 160414.14, 0.0, 10.001066, 10.000483 
2.684027e+3, 2.186544e+2, -1117090.0, -1121096.4, -67710.68, -0.20398459, -0.31389976, -1051353.0, -254196.83, 0.0, 9.998638, 9.998654 
2.6836187e+3, 2.2864462e+2, -891067.75, -1009752.7, -70972.3, -0.17450453, -0.29921487, -857897.5, -158644.53, 0.0, 9.999808, 9.998113 
2.683211e+3, 2.3863454e+2, -759662.8, -1012774.6, -74813.5, -0.079585396, -0.30542532, -739203.56, -137848.86, 0.0, 10.000455, 9.997189 
2.6828033e+3, 2.4862377e+2, -473841.72, -634499.7, -108775.82, 0.09954234, -0.38364914, -418948.94, 84512.81, 0.0, 10.001065, 9.998704 
2.6823956e+3, 2.5861335e+2, -501602.13, -679779.9, -75516.695, 0.258755, -0.50258434, -473902.28, -68336.97, 0.0, 10.000448, 9.998113 
2.6819867e+3, 2.6860702e+2, -215846.08, -259345.03, -4157.9087, 0.024215395, -0.2581103, -215452.2, 92177.22, 0.0, 10.000859, 10.00002 
2.6815778e+3, 2.7860135e+2, -353599.9, -540203.25, -73994.87, -0.2723503, -0.007435643, -327819.9, -118131.945, 0.0, 10.000257, 9.997812 
2.681167e+3, 2.885899e+2, -310210.38, -584601.56, -187362.27, -0.35465157, -0.0402554, -215183.55, -103379.9, 0.0, 10.0004635, 9.99667 
2.6807564e+3, 2.9857728e+2, -358301.78, -661084.8, -92639.266, -0.37595743, -0.15986954, -332206.88, -318275.66, 0.0, 9.999825, 9.99587 
2.6803565e+3, 3.0856845e+2, -11632.472, -272254.72, 21554.826, 0.33690575, 0.07853622, -9861.805, -9861.805, 0.0, 10.001147, 9.997472 
2.6799452e+3, 3.1855553e+2, -44919.516, -259740.27, -34196.79, -0.18034998, -0.15024532, -39607.18, -39607.18, 0.0, 10.000664, 9.997842 
2.6977006e+3, 1.2913404e+2, -1291142.5, -1463813.4, -69181.266, -0.2293889, -0.21982655, -1266844.0, 407636.8, 0.043619078, 10.002855, 10.000244 
2.6972908e+3, 1.391314e+2, -1665131.1, -1653606.5, -26863.434, -0.113961816, 0.23800458, -1631894.4, -55389.62, 0.026486209, 9.999711, 9.999832 
2.6968822e+3, 1.491227e+2, -1496810.5, -1322101.0, 35810.305, -0.08143628, 0.09583694, -1315045.8, 163538.11, 0.012009438, 9.999401, 10.001528 
2.696474e+3, 1.5911242e+2, -1491520.0, -1469539.1, 2060.483, -0.017421698, -0.24671735, -1469347.6, -88669.44, 0.003455713, 9.999506, 9.99987 
2.6960632e+3, 1.691034e+2, -1359423.5, -1351837.6, -67740.69, -0.0567336, -0.29911682, -1287783.8, -5016.0894, 0.00049606664, 9.99984, 9.999765 
2.6956522e+3, 1.790951e+2, -1237741.9, -1298730.4, -46168.934, -0.16373542, -0.29425955, -1212905.6, -28055.217, 0.00001910138, 10.000116, 9.999413 
2.695245e+3, 1.8908823e+2, -813673.8, -850417.1, 87153.125, -0.21694846, -0.20864823, -742977.06, 343935.25, 0.0000000002885943, 10.001642, 10.001008 
2.6948383e+3, 1.9908144e+2, -664507.56, -933558.1, 59507.316, -0.24552985, -0.13676226, -651933.7, 337039.13, 0.0, 10.002744, 9.9993105 
2.6944295e+3, 2.0907147e+2, -802510.4, -966673.0, -79763.47, -0.119161196, -0.21222465, -770138.4, 120931.51, 0.0, 10.001294, 9.999037 
2.6940203e+3, 2.1906108e+2, -1065405.0, -1159676.1, -77801.79, -0.008986974, -0.33100638, -1021574.2, -228402.05, 0.0, 9.999216, 9.99811 
2.6936114e+3, 2.2905089e+2, -826781.5, -933587.4, 64.78789, -0.100044355, -0.36714312, -826781.44, -131507.52, 0.0, 10.00002, 9.9985485 
2.6932025e+3, 2.3904102e+2, -607844.56, -898709.4, -21002.436, -0.21354398, -0.38005674, -606335.9, -8962.487, 0.0, 10.00127, 9.997581 
2.6927945e+3, 2.4903199e+2, -479865.6, -742546.75, -101815.99, -0.09933039, -0.23197673, -445023.0, 54445.254, 0.0, 10.001421, 9.997823 
2.6923862e+3, 2.590229e+2, -402880.84, -690434.5, -66679.914, 0.030094985, -0.11267314, -388171.13, 13392.848, 0.0, 10.001283, 9.997656 
2.6919806e+3, 2.690135e+2, -156545.98, -318215.94, -14388.827, 0.058956277, -0.113086976, -155275.34, 148381.92, 0.0, 10.001562, 9.999318 
2.6915744e+3, 2.790044e+2, -104162.45, -363737.6, -122602.61, 0.046537377, -0.13706017, -55410.914, 150335.5, 0.0, 10.0016365, 9.99837 
2.6911625e+3, 2.8899544e+2, -98312.125, -264610.16, -216120.69, -0.07339227, -0.076233484, 50102.91, 157934.78, 0.0, 10.000895, 9.998675 
2.6907498e+3, 2.989861e+2, -188919.6, -378434.53, -30956.664, -0.22179933, -0.0483943, -183991.08, -174069.44, 0.0, 10.000029, 9.99771 
2.690345e+3, 3.0897316e+2, -17225.176, -194467.45, 157932.27, -0.087109886, -0.3220453, 75251.195, 75251.195, 0.0, 10.000648, 9.998296 
2.6899353e+3, 3.189638e+2, -41705.277, -310449.44, 6722.6553, -0.4363719, -0.2138821, -41537.215, -41537.215, 0.0, 10.000722, 9.997512 
2.707692e+3, 1.2954803e+2, -1582416.4, -1629036.8, 19218.807, -0.3779584, 0.11065872, -1575515.3, 94908.5, 0.035549942, 10.000811, 10.000062 
2.7072847e+3, 1.3953723e+2, -1258780.4, -1468966.4, 36267.055, -0.021096174, -0.19246042, -1252698.6, 319823.16, 0.021269772, 10.002498, 9.999833 
2.7068758e+3, 1.495306e+2, -1019155.75, -1076801.5, 95579.69, -0.013062695, -0.13218011, -948147.56, 526434.4, 0.009415533, 10.002589, 10.001738 
2.706467e+3, 1.5952373e+2, -1155696.1, -1377736.6, 29790.047, -0.0050346726, -0.12063699, -1151768.8, 224877.08, 0.0026134893, 10.002073, 9.999288 
2.706055e+3, 1.6951369e+2, -1253404.1, -1478763.9, -51861.297, -0.08806056, -0.14516917, -1242042.3, 36705.832, 0.0003600524, 10.001273, 9.998222 
2.705644e+3, 1.7950359e+2, -1321722.4, -1422968.9, -3027.7349, -0.18167496, -0.18006636, -1321631.9, -140781.31, 0.000012952271, 9.999918, 9.9986515 
2.7052385e+3, 1.8949537e+2, -1020657.6, -926344.2, 66250.336, -0.15342115, -0.2251185, -892181.44, 190740.94, 0.000000000007316074, 10.000163, 10.001183 
2.7048331e+3, 1.9948766e+2, -1078093.1, -1178245.8, -98098.164, -0.10483736, -0.2621158, -1018029.2, -33040.332, 0.0, 10.00012, 9.998903 
2.7044228e+3, 2.0947818e+2, -981897.3, -1127404.8, -242852.38, -0.03491072, -0.24767886, -801135.0, 85949.875, 0.0, 10.000434, 9.998334 
2.704012e+3, 2.1946831e+2, -1014277.44, -1178029.9, -138702.61, 0.057242263, -0.25749743, -935088.06, -145901.6, 0.0, 9.99981, 9.997686 
2.703604e+3, 2.2945853e+2, -730948.1, -806394.7, 20219.6, -0.018434038, -0.3093771, -725870.94, -34587.168, 0.0, 10.000398, 9.999184 
2.703196e+3, 2.3944914e+2, -778129.25, -989824.0, 7091.6885, -0.13106056, -0.33268756, -777891.94, -184514.6, 0.0, 10.000185, 9.997469 
2.7027866e+3, 2.4944098e+2, -565712.44, -791480.7, -23549.725, -0.1730251, -0.096272506, -563282.1, -67817.02, 0.0, 10.000895, 9.997714 
2.7023774e+3, 2.5943273e+2, -599013.8, -854869.2, 93230.67, -0.14011222, 0.13027483, -568646.06, -171091.6, 0.0, 10.000337, 9.996955 
2.7019736e+3, 2.6942122e+2, -354872.9, -469735.53, 171038.0, 0.05643067, -0.013232563, -231881.5, 67787.03, 0.0, 10.000518, 9.998746 
2.7015695e+3, 2.7940974e+2, -385155.88, -495505.66, 46075.32, 0.25805312, -0.22350092, -368447.5, -166667.4, 0.0, 9.999801, 9.998335 
2.7011573e+3, 2.8940257e+2, -77896.78, -82339.99, -137435.34, 0.15306236, -0.07553611, 57334.906, 161179.11, 0.0, 10.000402, 10.000123 
2.7007428e+3, 2.9939526e+2, -164325.39, -259875.03, 93.93926, -0.09777089, 0.019936638, -164325.3, -158415.61, 0.0, 9.999836, 9.9986105 
2.7003327e+3, 3.0937836e+2, -58932.773, -98307.734, 187360.6, -0.54501325, -0.766593, 109771.87, 109771.87, 0.0, 9.999951, 9.999262 
2.6999283e+3, 3.193779e+2, -320030.9, -492414.47, -56264.46, -0.38907048, 0.15494093, -303292.06, -303292.06, 0.0, 9.999191, 9.996978 
2.7176842e+3, 1.2996276e+2, -1490969.9, -1595519.9, 63681.527, -0.5058196, 0.47104022, -1460855.5, 205499.52, 0.028414954, 10.001583, 9.999906 
2.7172795e+3, 1.3994084e+2, -1398351.5, -1559982.9, 79648.61, -0.0052056937, -0.94028014, -1365698.8, 202856.19, 0.016713178, 10.001689, 9.999556 
2.71687e+3, 1.4993775e+2, -1096993.0, -1115885.4, 100120.68, -0.041130614, -0.5194761, -1005873.9, 464709.75, 0.0071980846, 10.002117, 10.001649 
2.7164596e+3, 1.5993617e+2, -1245473.3, -1518534.3, 19161.709, -0.15435886, 0.053417046, -1244135.3, 128465.04, 0.0019202423, 10.001918, 9.998379 
2.716047e+3, 1.6992564e+2, -1326966.0, -1671581.0, -72647.06, -0.22905451, 0.11362924, -1312277.5, -37567.57, 0.00025324232, 10.001485, 9.996787 
2.7156353e+3, 1.7991365e+2, -1355354.8, -1573643.0, 5279.8784, -0.28719065, 0.035514235, -1355227.1, -178394.53, 0.000008369746, 10.0002575, 9.997457 
2.715232e+3, 1.8990134e+2, -1103183.4, -1107761.3, 97483.09, -0.013637934, -0.29818058, -1007962.3, 70981.81, 0.0, 10.000217, 9.999909 
2.7148286e+3, 1.9989006e+2, -1087144.3, -1230617.5, -79583.23, 0.19773495, -0.5731219, -1051737.9, -70691.97, 0.0, 10.000256, 9.99848 
2.7144155e+3, 2.0988277e+2, -934340.75, -1074969.9, -222742.84, 0.0022666797, -0.34170714, -771077.7, 112047.97, 0.0, 10.000627, 9.998613 
2.714002e+3, 2.1987593e+2, -796214.25, -953290.4, -108095.305, -0.20052564, -0.08276425, -741137.9, 44064.01, 0.0, 10.000748, 9.998788 
2.7135974e+3, 2.2986794e+2, -570796.44, -596625.5, 44423.93, 0.048638415, -0.06613017, -537447.9, 149832.2, 0.0, 10.000877, 10.000428 
2.713193e+3, 2.3985974e+2, -527859.0, -668175.9, 34461.223, 0.2533881, -0.08705841, -519852.3, 69506.734, 0.0, 10.000974, 9.999301 
2.712781e+3, 2.4985106e+2, -391688.8, -493836.13, 28518.002, -0.013483449, -0.08294366, -384266.34, 107178.53, 0.0, 10.001128, 9.999665 
2.712369e+3, 2.5984237e+2, -394243.2, -592208.94, 165037.03, -0.28723466, -0.05858684, -300781.72, 92750.24, 0.0, 10.000979, 9.9984455 
2.7119637e+3, 2.6983258e+2, -348976.63, -472299.47, 243178.72, -0.17415994, -0.061187748, -159763.55, 135867.72, 0.0, 10.000514, 9.998759 
2.711559e+3, 2.7982253e+2, -358633.5, -504988.4, 137583.75, 0.005002734, -0.0967707, -275977.0, -78244.79, 0.0, 10.000025, 9.998157 
2.7111486e+3, 2.8981325e+2, -128480.39, -251636.83, -46921.914, 0.05340803, -0.046311226, -112640.63, -12817.301, 0.0, 10.0006695, 9.998843 
2.710736e+3, 2.998039e+2, 39446.527, -139773.3, 21672.658, -0.039576735, -0.036851577, 42030.11, 43943.086, 0.0, 10.001059, 9.998862 
2.7103275e+3, 3.097916e+2, 16236.487, 54535.74, 155835.86, -0.22461894, -0.43616545, 192394.14, 192394.14, 0.0, 9.999885, 10.000401 
2.709921e+3, 3.1979105e+2, -210625.06, -279981.38, 11418.358, -0.18723042, 0.39728764, -208793.58, -208793.58, 0.0, 9.999143, 9.998496 
2.7276847e+3, 1.3036981e+2, -990689.5, -1440291.0, -62458.695, -0.030687155, -0.004184552, -982174.0, 680182.44, 0.022191063, 10.005343, 9.999255 
2.7272716e+3, 1.4035419e+2, -1638825.3, -1713489.8, 2173.934, -0.0522484, -0.69468623, -1638762.0, -74259.9, 0.012784307, 10.000088, 9.999314 
2.7268627e+3, 1.5034929e+2, -1268630.4, -1235826.4, 109992.57, -0.05989906, -0.43880755, -1141019.6, 325527.78, 0.00532732, 10.001039, 10.001376 
2.7264544e+3, 1.6034514e+2, -1215269.8, -1577780.1, 11333.655, -0.056168426, -0.07262651, -1214915.8, 153671.75, 0.0013580795, 10.002438, 9.997738 
2.7260417e+3, 1.7033319e+2, -1015347.56, -1588798.8, -62244.965, -0.1745672, -0.0939218, -1008669.0, 262040.66, 0.00016970174, 10.003963, 9.996157 
2.72563e+3, 1.8032053e+2, -777101.8, -1371010.8, 31653.105, -0.24318667, -0.16810338, -775419.6, 397418.7, 0.0000049540654, 10.0045595, 9.996787 
2.725225e+3, 1.9030893e+2, -791477.75, -1046025.3, 134277.77, -0.03152218, -0.3599229, -733740.3, 341207.94, 0.0, 10.002704, 9.999139 
2.7248207e+3, 2.0029798e+2, -1111921.6, -1281704.8, 24733.586, 0.20278987, -0.52615887, -1108391.9, -131339.86, 0.0, 10.000277, 9.998105 
2.7244076e+3, 2.1029091e+2, -785375.5, -961711.56, -65241.117, -0.025156977, -0.2837576, -763862.1, 115267.56, 0.0, 10.001509, 9.998937 
2.723995e+3, 2.2028445e+2, -646295.94, -892640.75, 20268.656, -0.23819467, 0.000970114, -644639.4, 136562.77, 0.0, 10.001884, 9.998658 
2.7235904e+3, 2.3027645e+2, -596929.44, -604899.1, 35812.14, 0.075800985, 0.026584443, -564881.1, 118400.125, 0.0, 10.000758, 10.00041 
2.7231863e+3, 2.4026847e+2, -835351.1, -764885.4, -49816.707, 0.3910342, 0.012801884, -739101.4, -153743.39, 0.0, 9.998754, 9.999684 
2.7227736e+3, 2.502599e+2, -496667.0, -387312.66, -94749.87, 0.017236114, -0.105096325, -332595.44, 154842.52, 0.0, 9.999817, 10.00099 
2.7223605e+3, 2.602515e+2, -530422.56, -602157.6, -17453.746, -0.37300196, -0.18610616, -526401.3, -136883.92, 0.0, 9.999864, 9.998924 
2.7219543e+3, 2.7024344e+2, -555884.7, -522943.47, 77031.375, -0.29783338, -0.0907873, -460641.53, -169041.88, 0.0, 9.998932, 9.99916 
2.7215487e+3, 2.8023502e+2, -836128.06, -830991.4, 53053.73, -0.13706616, 0.011833023, -780443.9, -586756.9, 0.0, 9.997211, 9.997283 
2.7211392e+3, 2.9022402e+2, -429056.16, -527481.94, -25416.313, -0.063881636, -0.023118913, -422880.44, -327080.6, 0.0, 9.999198, 9.997636 
2.7207285e+3, 3.0021343e+2, -149428.81, -283726.63, 49138.37, -0.07936594, -0.04886437, -133369.81, -133369.81, 0.0, 10.000068, 9.998333 
2.7203238e+3, 3.1020558e+2, 58102.87, 180463.16, 112943.96, 0.19908458, -0.07591234, 247732.81, 247732.81, 0.0, 9.999775, 10.001263 
2.7199104e+3, 3.2019895e+2, -299296.47, -201480.52, 80065.305, -0.35925728, 0.04043559, -156567.16, -156567.16, 0.0, 9.998157, 9.999447 
2.7376863e+3, 1.3077551e+2, -1353069.4, -1719318.8, -333544.53, 0.41475976, -0.5744948, -1155685.8, 502685.6, 0.01685376, 10.003358, 9.998211 
2.7372617e+3, 1.4077204e+2, -1652873.6, -1791071.3, -29649.225, -0.2543143, 0.0056789527, -1646781.3, -86371.88, 0.009467277, 10.000362, 9.99862 
2.7368551e+3, 1.507624e+2, -1276246.5, -1268294.0, 189178.1, -0.11904008, -0.18057337, -1083050.4, 379447.9, 0.0037924994, 10.001171, 10.001051 
2.73645e+3, 1.6075157e+2, -1291336.8, -1663055.5, 69307.1, 0.053955477, -0.4373416, -1278835.0, 85763.914, 0.0009170214, 10.002162, 9.997261 
2.7360386e+3, 1.7073771e+2, -1064493.3, -1617905.1, 19788.03, -0.07545087, -0.6231777, -1063786.6, 202948.4, 0.0001065257, 10.00368, 9.996077 
2.735627e+3, 1.8072519e+2, -795311.56, -1363606.5, 41795.707, -0.24899274, -0.6747386, -792254.1, 376606.03, 0.0000025959862, 10.004378, 9.996912 
2.7352175e+3, 1.9071849e+2, -811668.44, -1077432.5, 67121.77, -0.28226343, -0.36600086, -795678.1, 275254.38, 0.0, 10.002641, 9.998969 
2.734809e+3, 2.0071179e+2, -1035156.4, -1201356.5, 27355.344, -0.2702265, -0.094643876, -1030769.6, -57765.84, 0.0, 10.000593, 9.998497 
2.7344e+3, 2.1070288e+2, -692899.44, -859967.1, 25591.166, -0.17561688, -0.084955424, -689067.3, 186025.88, 0.0, 10.001865, 9.999472 
2.7339906e+3, 2.2069377e+2, -541894.25, -922986.44, 42416.094, -0.13604328, -0.07096287, -537230.3, 239954.73, 0.0, 10.002905, 9.997956 
2.7335814e+3, 2.3068294e+2, -694323.4, -893878.9, -23536.994, -0.117915004, -0.14128414, -691584.9, -12289.0625, 0.0, 10.001084, 9.998283 
2.7331725e+3, 2.4067292e+2, -807547.8, -828090.1, -72616.97, -0.10960237, -0.17892717, -744479.2, -163081.88, 0.0, 9.999221, 9.9990225 
2.7327627e+3, 2.5066558e+2, -472343.75, -395288.5, -77743.04, -0.2471313, -0.14334965, -347050.0, 136416.73, 0.0, 10.00001, 10.000869 
2.7323532e+3, 2.6065862e+2, -328356.7, -348409.72, -84811.46, -0.348828, -0.10342007, -252981.14, 132551.0, 0.0, 10.000519, 10.000347 
2.7319473e+3, 2.7065137e+2, -462264.53, -274297.28, -42839.168, -0.061715648, -0.099761166, -264994.34, 22607.602, 0.0, 9.998641, 10.001033 
2.7315405e+3, 2.8064376e+2, -743448.9, -614821.94, 47882.152, 0.17283037, -0.07414123, -598954.8, -409278.4, 0.0, 9.996989, 9.998899 
2.731129e+3, 2.9063526e+2, -395383.34, -423542.9, 76317.13, -0.15501693, 0.045530286, -331858.06, -240093.16, 0.0, 9.99893, 9.99854 
2.7307177e+3, 3.0062613e+2, 17514.05, -95538.2, 127831.69, -0.43498552, 0.09095954, 100759.68, 100759.68, 0.0, 10.000671, 9.999341 
2.7303162e+3, 3.106138e+2, 129019.31, 218144.4, 126355.66, 0.25519988, -0.40421027, 307565.34, 307565.34, 0.0, 10.000165, 10.001364 
2.7299014e+3, 3.2060668e+2, -369876.13, -419117.13, -67567.01, -0.28093275, -0.2627782, -322583.7, -322583.7, 0.0, 9.998277, 9.997942 
2.7476776e+3, 1.3118729e+2, -1574163.4, -1688789.0, -310984.25, 0.2206175, -0.48569915, -1315254.8, 339082.2, 0.012357856, 10.001137, 9.999495 
2.7472565e+3, 1.411838e+2, -1194011.0, -1613880.8, -1643.2673, -0.14326936, 0.0408028, -1194004.5, 362369.63, 0.006744909, 10.003684, 9.998225 
2.7468494e+3, 1.5117283e+2, -1174735.1, -1414421.0, 122794.39, -0.08148584, -0.1343505, -1122994.9, 335484.16, 0.0025850076, 10.0026455, 9.999344 
2.7464435e+3, 1.6116087e+2, -1415434.1, -1689483.8, -16220.581, 0.048233047, -0.3992529, -1414477.4, -53885.01, 0.0005889778, 10.001123, 9.997579 
2.7460328e+3, 1.7114796e+2, -1325883.6, -1578687.5, 38789.402, -0.06818234, -0.6374034, -1320065.8, -57351.242, 0.00006228534, 10.001103, 9.997606 
2.7456215e+3, 1.8113635e+2, -1293824.3, -1563610.9, 122528.164, -0.18891513, -0.7086986, -1246483.1, -81656.055, 0.0000011486238, 10.000778, 9.997272 
2.7452114e+3, 1.9113028e+2, -1055391.1, -1219471.3, 119753.32, -0.23907542, -0.3269305, -992271.2, 74625.086, 0.0, 10.001097, 9.998714 
2.7448016e+3, 2.0112418e+2, -997917.5, -1203593.9, 130002.375, -0.2610523, 0.037623942, -934995.9, 33968.46, 0.0, 10.000985, 9.998287 
2.7443936e+3, 2.1111394e+2, -701241.56, -868664.3, 115814.91, -0.17453523, -0.07941461, -642052.0, 229010.63, 0.0, 10.001825, 9.999437 
2.743985e+3, 2.211032e+2, -785182.06, -1131583.6, 56430.44, -0.083700106, -0.19475095, -776221.1, -3054.2444, 0.0, 10.001663, 9.997114 
2.743573e+3, 2.3109163e+2, -782905.06, -1056620.1, 16926.418, -0.23140657, -0.24605288, -781862.3, -106574.51, 0.0, 10.001036, 9.997166 
2.743161e+3, 2.410809e+2, -811045.6, -927594.44, 107120.48, -0.36559963, -0.23234597, -747374.56, -169975.42, 0.0, 9.999651, 9.998135 
2.7427533e+3, 2.510735e+2, -473965.4, -418157.38, 140008.97, -0.36009303, -0.17123818, -303298.84, 176170.11, 0.0, 10.000111, 10.000648 
2.7423462e+3, 2.610667e+2, -448654.1, -406554.6, 51360.22, -0.27372128, -0.084028676, -372097.9, 9434.388, 0.0, 9.999775, 10.000287 
2.7419394e+3, 2.7105936e+2, -284574.9, -92284.03, -63149.24, 0.1063413, -0.15705666, -73400.03, 210200.95, 0.0, 9.999513, 10.001824 
2.7415317e+3, 2.8105214e+2, -523066.5, -456656.97, 7582.121, 0.35462785, -0.16640413, -455802.3, -270132.97, 0.0, 9.998388, 9.999282 
2.7411193e+3, 2.9104576e+2, -354186.7, -294322.44, 67487.86, -0.2151786, 0.061695624, -250426.77, -162690.83, 0.0, 9.998835, 9.999439 
2.7407074e+3, 3.010378e+2, -298227.4, -237601.45, 52778.15, -0.66901153, 0.14610384, -207050.56, -207050.56, 0.0, 9.998572, 9.99936 
2.7403075e+3, 3.1102145e+2, -71210.57, 120889.83, 14313.343, 0.2151735, -0.78335786, 121950.46, 121950.46, 0.0, 9.998913, 10.001238 
2.7398932e+3, 3.2101575e+2, -391329.4, -660308.3, -242199.67, -0.119988665, -0.44031736, -248784.4, -248784.4, 0.0, 9.999288, 9.995756 
2.757666e+3, 1.3160026e+2, -1507060.5, -1433035.8, -230529.73, -0.24502756, -0.22690521, -1236566.0, 413728.0, 0.008684969, 10.000704, 10.001442 
2.757254e+3, 1.415924e+2, -1314835.8, -1784402.5, -5556.688, -0.009239686, -0.25678053, -1314770.0, 237598.98, 0.0045925975, 10.003381, 9.997184 
2.7568442e+3, 1.5158235e+2, -1356688.5, -1753517.0, 72456.695, -0.07502018, -0.14197159, -1343872.6, 110599.04, 0.0016782222, 10.002521, 9.997064 
2.756435e+3, 1.615722e+2, -1353385.6, -1546749.6, -20389.188, -0.1321752, -0.096957244, -1351259.0, 5313.3506, 0.0003582281, 10.001099, 9.998557 
2.7560246e+3, 1.7156217e+2, -1139389.3, -1179022.5, 55820.938, -0.16876227, -0.29038984, -1099971.8, 158690.64, 0.000033741435, 10.001075, 10.000347 
2.7556148e+3, 1.8155238e+2, -1212545.3, -1416280.3, 131811.75, -0.18306482, -0.3912714, -1147825.5, 12927.441, 0.00000040337267, 10.000864, 9.998231 
2.755207e+3, 1.915435e+2, -1060512.6, -1249409.1, 148631.48, 0.015590563, -0.28708923, -978859.25, 83986.97, 0.0, 10.001162, 9.99848 
2.7547985e+3, 2.0153466e+2, -957738.6, -1217386.8, 163370.11, 0.10221407, -0.16582221, -878890.5, 86047.46, 0.0, 10.0013685, 9.998017 
2.7543882e+3, 2.115237e+2, -692969.56, -927803.7, 170713.44, -0.09602442, -0.30155188, -603191.44, 263850.53, 0.0, 10.002102, 9.998928 
2.7539778e+3, 2.2151321e+2, -655743.1, -1012002.56, 61309.043, -0.24866608, -0.36282715, -645487.6, 123655.63, 0.0, 10.002288, 9.997624 
2.753566e+3, 2.3150446e+2, -669041.44, -925942.7, 30579.12, -0.22246647, -0.1852895, -665451.75, 5785.4116, 0.0, 10.001451, 9.997888 
2.753155e+3, 2.4149555e+2, -599869.3, -736443.56, 162119.14, -0.21568576, -0.052890018, -492242.4, 81087.02, 0.0, 10.000644, 9.998983 
2.7527472e+3, 2.5148594e+2, -403884.03, -384857.0, 219181.47, -0.20297945, -0.21097417, -174982.69, 300433.16, 0.0, 10.000547, 10.000692 
2.7523392e+3, 2.6147664e+2, -419886.28, -511930.25, 120910.78, -0.1760451, -0.31991586, -336535.0, 40965.84, 0.0, 10.000422, 9.999261 
2.75193e+3, 2.7146757e+2, -294406.1, -354033.75, -23984.176, -0.05353344, -0.33760047, -285956.3, -6364.6978, 0.0, 10.000502, 9.999579 
2.751521e+3, 2.8145894e+2, -279244.78, -380985.44, -20370.844, 0.052270073, -0.3089785, -275317.66, -93639.36, 0.0, 10.000198, 9.99893 
2.7511117e+3, 2.9145125e+2, -297576.94, -249288.39, -5470.1416, -0.05313525, -0.2025786, -248676.48, -164919.55, 0.0, 9.999127, 9.999627 
2.750702e+3, 3.0144307e+2, -312520.9, -199709.2, -8257.3125, -0.21439978, -0.15405896, -199108.02, -199108.02, 0.0, 9.998188, 9.999841 
2.7502966e+3, 3.1143185e+2, -65012.52, 111803.87, -30965.854, 0.10041404, -0.5694596, 117070.07, 117070.07, 0.0, 9.998876, 10.001274 
2.7498862e+3, 3.21427e+2, 44485.273, -464362.78, 6116.537, -0.12734693, -0.12522241, 44558.785, 44558.785, 0.0, 10.002176, 9.995745 
2.7676588e+3, 1.3200814e+2, -1513019.4, -1592106.1, -191843.73, -0.24002391, -0.26809728, -1356686.0, 289613.13, 0.0058226245, 10.001248, 10.000135 
2.767249e+3, 1.4200027e+2, -1179546.4, -1689129.9, -192438.5, -0.011644366, -0.19972086, -1115039.9, 433338.56, 0.00296968, 10.004152, 9.997492 
2.7668387e+3, 1.5199047e+2, -1203256.6, -1595064.0, -58741.324, -0.09065214, -0.14852142, -1194639.5, 255837.25, 0.0010279784, 10.003219, 9.997821 
2.7664286e+3, 1.6198125e+2, -1164680.8, -1372963.0, -32701.252, -0.13027473, -0.081970096, -1159667.1, 192900.63, 0.0002033788, 10.002005, 9.999341 
2.766018e+3, 1.7197354e+2, -1008224.56, -1031692.25, -49970.273, -0.14818776, -0.12260298, -968629.0, 286008.7, 0.000016580547, 10.001583, 10.001142 
2.765608e+3, 1.8196553e+2, -1156095.1, -1310071.0, -33957.793, -0.11504905, -0.13483098, -1148938.6, 7773.0195, 0.00000009587778, 10.000937, 9.998927 
2.7652004e+3, 1.9195575e+2, -1042565.4, -1175872.6, 10048.184, 0.09102495, -0.20317577, -1041812.25, 16997.135, 0.0, 10.00102, 9.9990635 
2.7647924e+3, 2.019456e+2, -1049406.0, -1289300.3, 107770.28, 0.21263713, -0.24367206, -1008102.56, -47192.984, 0.0, 10.000872, 9.997775 
2.7643824e+3, 2.1193425e+2, -814534.06, -1020758.06, 123118.914, -0.028138496, -0.40469816, -757052.3, 105963.67, 0.0, 10.001445, 9.998597 
2.7639717e+3, 2.2192393e+2, -796145.5, -1078518.9, 877.96387, -0.2138513, -0.43178084, -796142.75, -31027.951, 0.0, 10.00139, 9.997594 
2.7635595e+3, 2.3191634e+2, -554591.4, -814633.3, -55928.055, -0.1809827, -0.19710295, -543073.0, 124123.07, 0.0, 10.002053, 9.998341 
2.7631485e+3, 2.4190833e+2, -490276.66, -701225.1, 74389.86, -0.12887508, -0.008792075, -466682.44, 102595.38, 0.0, 10.001561, 9.998758 
2.7627406e+3, 2.518976e+2, -354069.8, -378989.28, 114528.73, -0.12969239, -0.2897812, -251325.06, 220047.53, 0.0, 10.00102, 10.000479 
2.7623317e+3, 2.6188692e+2, -597108.7, -779211.25, 36209.7, -0.13620144, -0.47694966, -590172.8, -216702.77, 0.0, 10.000046, 9.997612 
2.7619207e+3, 2.718768e+2, -476419.94, -636993.44, -26491.236, -0.19080131, -0.44619045, -472162.34, -196586.83, 0.0, 10.000173, 9.997778 
2.7615103e+3, 2.81867e+2, -474940.1, -582760.8, 20827.955, -0.15220523, -0.37800887, -471056.6, -293379.75, 0.0, 9.99939, 9.997933 
2.761104e+3, 2.918576e+2, -298589.2, -268211.7, 18994.254, 0.11277173, -0.42269966, -259080.08, -179309.9, 0.0, 9.999234, 9.999435 
2.760696e+3, 3.0184928e+2, -312504.75, -231654.8, 45881.3, 0.17936856, -0.36390045, -210930.19, -210930.19, 0.0, 9.998419, 9.999487 
2.760286e+3, 3.1184274e+2, -17795.842, 131509.75, 36238.13, -0.02777784, -0.3113785, 139840.34, 139840.34, 0.0, 9.999303, 10.001163 
2.7598795e+3, 3.2183653e+2, -412188.7, -607251.06, 375735.78, -0.21592976, -0.02241802, -121532.14, -121532.14, 0.0, 9.998937, 9.996244 
2.7776527e+3, 1.3241445e+2, -1747027.3, -1977686.5, -55322.67, -0.19184779, -0.3008437, -1734444.8, -92124.74, 0.0036891268, 10.000924, 9.997581 
2.7772436e+3, 1.4240772e+2, -1315510.5, -1648877.9, -117442.625, -0.179244, -0.013510389, -1278291.8, 266103.2, 0.001804215, 10.002826, 9.998372 
2.776833e+3, 1.5239789e+2, -1166287.8, -1318620.6, -46985.902, -0.17538102, -0.18124634, -1152961.3, 293526.28, 0.00058557204, 10.002397, 10.000088 
2.7764225e+3, 1.6238901e+2, -1196078.5, -1350348.8, -34378.645, -0.13523085, -0.2346756, -1188764.1, 159807.97, 0.00010501939, 10.001629, 9.999673 
2.7760115e+3, 1.7238304e+2, -1056586.8, -1099165.5, -34294.098, -0.12326281, -0.0718061, -1037511.25, 213120.64, 0.0000068884756, 10.001435, 10.000753 
2.775601e+3, 1.8237643e+2, -1096468.9, -1183799.0, -22256.844, -0.13446209, 0.062056754, -1091123.8, 61572.555, 0.00000000965895, 10.000947, 9.999779 
2.7751914e+3, 1.9236715e+2, -946164.75, -987443.44, 46893.75, -0.09787214, -0.073188536, -915569.3, 139214.61, 0.0, 10.001063, 10.000344 
2.774783e+3, 2.0235734e+2, -993336.1, -1200327.8, 140423.3, -0.06381686, -0.1730231, -922389.7, 34486.668, 0.0, 10.001008, 9.998298 
2.774376e+3, 2.1234596e+2, -798102.9, -1019844.4, 170473.8, -0.014574898, -0.3290839, -705617.7, 153364.1, 0.0, 10.001605, 9.998519 
2.773967e+3, 2.2233516e+2, -663279.3, -984968.3, 21455.475, -0.053263992, -0.39967233, -661854.6, 99229.69, 0.0, 10.002133, 9.997893 
2.7735534e+3, 2.323257e+2, -459219.88, -757798.1, -19801.742, -0.20648478, -0.34934232, -457912.34, 205268.14, 0.0, 10.002613, 9.9985 
2.773141e+3, 2.4231663e+2, -317501.78, -581102.3, 60597.074, -0.3238767, -0.28386763, -304238.9, 261031.9, 0.0, 10.002571, 9.999086 
2.772732e+3, 2.523074e+2, -287536.38, -399434.63, 79382.74, -0.32229033, -0.373048, -246367.42, 220988.44, 0.0, 10.001683, 10.00004 
2.772323e+3, 2.622982e+2, -422398.22, -630920.06, 13574.898, -0.28936931, -0.39080426, -421518.2, -52074.977, 0.0, 10.000902, 9.99823 
2.7719128e+3, 2.7228904e+2, -348919.03, -515803.06, -1928.465, -0.19644414, -0.30481434, -348896.75, -77357.25, 0.0, 10.0007105, 9.99839 
2.771503e+3, 2.8227988e+2, -293884.03, -445430.4, 87069.94, -0.08758153, -0.21856976, -254232.98, -80599.13, 0.0, 10.000338, 9.998422 
2.7710953e+3, 2.9227045e+2, -167408.58, -243271.69, 81324.34, 0.0489816, -0.23585285, -115604.68, -39880.918, 0.0, 10.000171, 9.9992 
2.7706861e+3, 3.0226097e+2, -68290.56, -126112.945, 133334.55, 0.0468827, -0.26656955, 39231.24, 39231.24, 0.0, 10.000042, 9.999434 
2.770278e+3, 3.1225076e+2, 91915.1, 129145.086, 120292.69, -0.053894322, -0.53013843, 232254.56, 232254.56, 0.0, 10.000212, 10.000718 
2.769871e+3, 3.2224405e+2, -567526.94, -446088.44, 147909.98, 0.007738168, -0.29641327, -346919.63, -346919.63, 0.0, 9.99672, 9.998426 
2.7876478e+3, 1.3282503e+2, -1537766.6, -1775556.4, 26373.467, -0.03111087, -0.12767956, -1534876.6, 103427.46, 0.0021708824, 10.001862, 9.998523 
2.7872363e+3, 1.4281753e+2, -1625825.9, -1675527.3, 23345.904, -0.17332372, 0.00953312, -1616579.9, -76200.64, 0.001007235, 10.000052, 9.999568 
2.7868253e+3, 1.5280789e+2, -1423495.8, -1342607.6, 43478.17, -0.1793343, -0.22633539, -1323670.9, 118794.22, 0.00030058212, 10.000068, 10.001114 
2.7864152e+3, 1.6279902e+2, -1448689.1, -1481991.5, 35725.26, -0.08984129, -0.32725635, -1425925.1, -81377.445, 0.000046417692, 9.999916, 9.999607 
2.7860048e+3, 1.7279232e+2, -1292705.4, -1277783.4, 10315.852, -0.027793206, -0.18447824, -1272513.1, -25895.42, 0.0000020738605, 10.000092, 10.000183 
2.7855945e+3, 1.8278542e+2, -1217785.0, -1277907.4, 34315.527, -0.015746087, -0.020747354, -1202225.6, -53537.332, 0.00000000000031198744, 10.000271, 9.999452 
2.7851847e+3, 1.9277705e+2, -881731.4, -955954.6, -1870.1941, -0.0775497, -0.0671922, -881684.25, 169084.8, 0.0, 10.001539, 10.000305 
2.7847758e+3, 2.0276807e+2, -851388.75, -1111768.8, 46256.273, -0.08752876, -0.09783772, -843415.5, 109438.27, 0.0, 10.001946, 9.998444 
2.7843696e+3, 2.1275711e+2, -753507.1, -949769.06, 97588.49, -0.0015499888, -0.2677472, -713243.0, 141711.9, 0.0, 10.001759, 9.99891 
2.7839613e+3, 2.2274642e+2, -810159.56, -1046776.06, -1898.9419, 0.039775994, -0.355209, -810144.3, -53088.723, 0.0, 10.001117, 9.997945 
2.7835482e+3, 2.3273623e+2, -622129.75, -808756.25, -30133.604, -0.122478925, -0.41614145, -617384.9, 41771.6, 0.0, 10.001407, 9.998708 
2.7831352e+3, 2.427267e+2, -609861.56, -783633.56, 39380.227, -0.27537036, -0.39140216, -601353.75, -40103.613, 0.0, 10.000883, 9.998506 
2.7827245e+3, 2.5271806e+2, -477327.94, -548694.94, 27931.828, -0.35865572, -0.3765683, -467695.88, -4363.2983, 0.0, 10.000685, 9.999481 
2.7823147e+3, 2.6270965e+2, -557988.44, -675957.44, -7385.248, -0.33992594, -0.28155604, -557527.9, -192112.9, 0.0, 10.000018, 9.9983015 
2.7819052e+3, 2.7270114e+2, -303376.5, -408317.3, -24098.914, -0.17370214, -0.212502, -298106.97, -30602.76, 0.0, 10.000758, 9.99906 
2.781496e+3, 2.8269252e+2, -260433.73, -449327.78, 59122.113, -0.029058095, -0.10506668, -243455.16, -73863.97, 0.0, 10.00074, 9.998186 
2.781087e+3, 2.9268324e+2, -38808.777, -200833.08, 56903.574, -0.0006702393, -0.109209985, -20821.004, 50856.113, 0.0, 10.001233, 9.998933 
2.780677e+3, 3.026728e+2, -67351.06, -214074.78, 106829.5, -0.100446895, -0.1868313, -11119.311, -11119.311, 0.0, 10.000565, 9.998548 
2.7802694e+3, 3.1265873e+2, -127880.32, -43208.465, 56494.637, -0.09499602, -0.7982944, -14947.119, -14947.119, 0.0, 9.999109, 10.0000305 
2.779863e+3, 3.2265237e+2, -195331.27, -26054.717, -228341.39, 0.2806234, -0.54645604, 132829.95, 132829.95, 0.0, 9.998372, 10.000513 
2.7976426e+3, 1.3323721e+2, -1499495.8, -1503564.5, -20864.965, 0.05050135, 0.09069271, -1480566.3, 153706.05, 0.001167345, 10.001117, 10.000723 
2.7972284e+3, 1.4322881e+2, -1546729.5, -1579971.9, 36688.62, -0.17643508, -0.008523311, -1523072.6, 13271.709, 0.00050489604, 10.000409, 10.00003 
2.7968168e+3, 1.5321955e+2, -1377324.9, -1256902.8, 73078.57, -0.20517173, -0.26183003, -1222425.6, 215997.19, 0.00013439951, 10.000175, 10.00162 
2.796407e+3, 1.6321036e+2, -1492070.4, -1561545.8, 42179.758, -0.10945409, -0.3939594, -1472165.3, -131659.25, 0.000016423304, 9.999908, 9.999051 
2.7959976e+3, 1.7320117e+2, -1348180.0, -1384331.6, 41424.965, 0.04548853, -0.42214704, -1321058.9, -78458.78, 0.0000003300107, 10.000089, 9.999438 
2.795588e+3, 1.8319292e+2, -1271244.8, -1416016.5, 86348.6, 0.09466759, -0.30625057, -1230955.0, -86268.766, 0.0, 10.00037, 9.998461 
2.7951798e+3, 1.9318531e+2, -953782.8, -1124832.1, 70977.14, 0.064889595, -0.14843202, -928166.94, 118600.02, 0.0, 10.001609, 9.999128 
2.794771e+3, 2.031772e+2, -747165.44, -955010.9, 51316.49, -0.002060832, -0.049335364, -735186.0, 213662.31, 0.0, 10.002211, 9.999379 
2.7943623e+3, 2.1316725e+2, -640817.25, -761392.6, 113209.19, -0.10934308, -0.226754, -572843.75, 278096.03, 0.0, 10.001955, 10.000112 
2.7939534e+3, 2.2315773e+2, -652104.1, -883649.94, 6699.3584, -0.103791945, -0.29138276, -651910.44, 101118.88, 0.0, 10.001774, 9.998751 
2.7935433e+3, 2.3314881e+2, -540390.6, -726122.75, -6603.209, 0.09009249, -0.26481444, -540156.1, 114961.78, 0.0, 10.001722, 9.999133 
2.7931324e+3, 2.4313988e+2, -519869.0, -749108.2, 38844.594, 0.115562305, -0.2003821, -513465.66, 43740.195, 0.0, 10.001478, 9.998465 
2.7927196e+3, 2.5313032e+2, -456656.88, -605088.44, 35477.98, -0.11367128, -0.21218592, -448612.9, 10685.053, 0.0, 10.001022, 9.998977 
2.7923083e+3, 2.6312095e+2, -396724.9, -529910.2, 22620.994, -0.2380619, -0.2064011, -392987.7, -31598.824, 0.0, 10.000755, 9.998955 
2.7918985e+3, 2.731114e+2, -158160.02, -293741.44, 17251.94, -0.1585982, -0.27666247, -155999.23, 107483.23, 0.0, 10.001489, 9.999519 
2.7914897e+3, 2.831021e+2, -39919.066, -309824.66, 92620.695, -0.02465162, -0.27107352, -11192.753, 154379.48, 0.0, 10.002083, 9.998484 
2.7910823e+3, 2.9309276e+2, 175535.45, -107873.61, 84475.61, 0.12843812, -0.25754392, 198804.56, 266463.22, 0.0, 10.002707, 9.998866 
2.7906722e+3, 3.0308235e+2, 117347.87, -236035.58, 35582.73, 0.05384667, -0.29117036, 120895.14, 120895.14, 0.0, 10.0021925, 9.997645 
2.7902603e+3, 3.1306955e+2, -151899.48, -247260.94, -70554.83, -0.11046753, -0.5991504, -114424.85, -114424.85, 0.0, 9.999625, 9.998457 
2.7898535e+3, 3.2306156e+2, 409118.9, 184561.64, 61907.22, 0.013803036, -0.3751239, 425054.9, 425054.9, 0.0, 10.002705, 9.999926 
2.8076315e+3, 1.336484e+2, -1380265.4, -1344197.1, 193373.11, -0.32914823, -0.14929071, -1168019.1, 462211.66, 0.00056628714, 10.001388, 10.001731 
2.8072262e+3, 1.43641e+2, -1130273.1, -1499560.9, 94757.305, 0.22631213, -0.13542394, -1107378.3, 424916.4, 0.00022570654, 10.003772, 9.998958 
2.806812e+3, 1.5363103e+2, -1130609.5, -1304128.0, 14253.08, 0.0022188562, -0.3072999, -1129446.6, 304940.8, 0.00005282333, 10.002565, 10.000144 
2.8064e+3, 1.636215e+2, -1274169.3, -1472706.4, -18648.15, -0.033613954, -0.38753664, -1272432.9, 64044.723, 0.000004777361, 10.001488, 9.998867 
2.80599e+3, 1.7361209e+2, -1154920.3, -1300138.9, 3277.6184, 0.055494595, -0.45237848, -1154846.3, 83724.74, 0.00000002399446, 10.001411, 9.99937 
2.8055808e+3, 1.8360312e+2, -1173912.8, -1401219.4, 144829.92, 0.096820116, -0.39222258, -1103466.1, 37195.92, 0.0, 10.0012045, 9.998158 
2.8051728e+3, 1.9359466e+2, -1008671.3, -1193062.5, 171453.56, 0.06729955, -0.28560066, -906197.06, 136554.08, 0.0, 10.001413, 9.998764 
2.8047645e+3, 2.035865e+2, -918264.8, -1036106.6, 156347.16, 0.017748706, -0.155332, -810104.56, 134730.19, 0.0, 10.001015, 9.9994135 
2.8043553e+3, 2.1357805e+2, -848223.8, -825114.44, 119105.38, -0.11125672, -0.21345621, -717004.6, 129910.74, 0.0, 10.000356, 10.000448 
2.8039464e+3, 2.2356966e+2, -876497.06, -986826.2, 25319.502, -0.083323166, -0.18449095, -870964.0, -121967.55, 0.0, 10.000317, 9.998713 
2.8035384e+3, 2.3356098e+2, -445252.44, -665798.4, -30576.555, 0.23636052, -0.1542292, -441091.78, 209991.1, 0.0, 10.002387, 9.999212 
2.803128e+3, 2.4355192e+2, -373093.06, -716404.06, -17432.781, 0.3390102, -0.08812231, -372210.13, 180961.42, 0.0, 10.00273, 9.998076 
2.802714e+3, 2.5354174e+2, -387023.1, -587799.06, -19069.613, 0.026541071, -0.1581503, -385227.94, 70040.99, 0.0, 10.001661, 9.9987545 
2.8023016e+3, 2.6353177e+2, -414726.38, -569209.1, 32240.088, -0.17876714, -0.18425481, -408267.97, -50903.61, 0.0, 10.00081, 9.998664 
2.8018916e+3, 2.735214e+2, -72184.54, -251860.52, -4972.0093, -0.1871466, -0.3574767, -72047.06, 187415.92, 0.0, 10.002104, 9.999512 
2.8014833e+3, 2.835117e+2, -73392.7, -368904.63, 30054.676, -0.06244977, -0.37719962, -70367.016, 91187.41, 0.0, 10.002114, 9.998049 
2.8010777e+3, 2.9350233e+2, -33293.254, -216947.31, 18542.658, 0.22634508, -0.37432837, -31439.799, 32202.113, 0.0, 10.0013895, 9.9987335 
2.8006667e+3, 3.0349213e+2, -221507.31, -556267.56, -82263.414, 0.16226234, -0.31861004, -202384.42, -202384.42, 0.0, 10.00067, 9.996126 
2.800251e+3, 3.1348053e+2, -128422.586, -397629.8, -144861.61, -0.18332247, -0.37659547, -65281.363, -65281.363, 0.0, 10.000612, 9.996881 
2.7998435e+3, 3.2347053e+2, -78267.836, -114919.6, 532401.25, -0.46319085, -0.25383928, 436122.84, 436122.84, 0.0, 9.99991, 9.999105 
2.8176203e+3, 1.3405977e+2, -1527673.9, -1370799.9, 294762.9, -0.83045584, -0.4598821, -1144216.4, 481964.47, 0.00024922861, 10.000268, 10.002062 
2.8172264e+3, 1.4405338e+2, -1498524.5, -1889986.0, 19621.943, 0.67574143, -0.29614162, -1497543.4, 30698.332, 0.00009135414, 10.00223, 9.996999 
2.8168085e+3, 1.5404262e+2, -1393761.5, -1677951.5, -10226.847, 0.22871101, -0.3410137, -1393394.0, 36960.89, 0.000018191195, 10.001868, 9.997903 
2.816394e+3, 1.6403286e+2, -1271153.3, -1437456.4, -11263.005, -0.022196222, -0.32301185, -1270394.0, 62059.47, 0.000001253609, 10.00138, 9.999163 
2.815982e+3, 1.7402461e+2, -1119573.3, -1215833.9, 32790.06, -0.07494076, -0.32081777, -1109465.1, 125066.56, 0.0000000065346386, 10.001387, 9.999961 
2.8155717e+3, 1.8401553e+2, -1136361.6, -1306890.4, 151701.53, -0.13460532, -0.3215458, -1047604.9, 89014.04, 0.0, 10.001193, 9.998774 
2.815164e+3, 1.9400477e+2, -981185.0, -1128763.5, 205221.28, -0.16621469, -0.48691547, -836890.25, 201833.72, 0.0, 10.001408, 9.999194 
2.8147563e+3, 2.0399617e+2, -906188.06, -1056709.9, 137767.0, -0.13793254, -0.40922678, -824465.06, 116345.57, 0.0, 10.001199, 9.999176 
2.814348e+3, 2.1398997e+2, -865161.94, -902753.3, 125731.234, -0.05569951, -0.17746527, -756829.25, 86047.28, 0.0, 10.0005, 9.999858 
2.81394e+3, 2.2398216e+2, -802324.06, -988517.5, 100978.97, 0.0074641914, -0.033540025, -758075.44, -13118.901, 0.0, 10.0009575, 9.998397 
2.813532e+3, 2.3397176e+2, -344724.06, -674693.7, 79129.95, 0.1053384, -0.11491088, -326729.25, 320330.63, 0.0, 10.003266, 9.998752 
2.8131214e+3, 2.4396144e+2, -140962.16, -543878.6, -52563.523, 0.07268949, -0.17187026, -134217.73, 414941.25, 0.0, 10.004016, 9.998643 
2.812706e+3, 2.539509e+2, -238828.33, -478093.34, -57349.133, -0.16675922, -0.30598545, -225792.61, 225463.0, 0.0, 10.002461, 9.999142 
2.8122935e+3, 2.6394072e+2, -273341.94, -568669.8, 74657.984, -0.32578823, -0.34375697, -255541.53, 97810.56, 0.0, 10.00198, 9.998138 
2.8118846e+3, 2.7393052e+2, 22995.977, -331665.9, 34795.48, -0.35873407, -0.381717, 26377.482, 281831.47, 0.0, 10.003179, 9.998508 
2.8114766e+3, 2.8392145e+2, 95875.055, -259606.39, -30734.104, -0.22586633, -0.2964002, 98512.68, 256056.17, 0.0, 10.003065, 9.998366 
2.8110695e+3, 2.9391348e+2, -21174.727, -208013.34, -50921.0, 0.118471466, -0.14900807, -8198.003, 51422.113, 0.0, 10.001366, 9.998852 
2.8106582e+3, 3.039031e+2, -132398.31, -456393.7, -40458.098, 0.0521099, -0.13661388, -127422.625, -127422.625, 0.0, 10.000983, 9.996665 
2.810243e+3, 3.1388932e+2, 245638.8, -193626.39, -44193.984, -0.3646319, -0.42185944, 250041.0, 250041.0, 0.0, 10.002995, 9.9971695 
2.8098378e+3, 3.2388264e+2, -253995.38, -52137.723, 239429.6, -0.110724896, -0.042594835, 106766.39, 106766.39, 0.0, 9.997872, 10.000585 
2.8276157e+3, 1.3447025e+2, -1849253.6, -1763705.4, 147063.27, -0.4229472, -0.5228803, -1653321.9, -31170.291, 0.0001069514, 9.999063, 9.999946 
2.827217e+3, 1.4446363e+2, -1910285.6, -1966874.3, -118099.27, 0.5689159, -0.30332318, -1817138.6, -292913.5, 0.000035101017, 9.998864, 9.998097 
2.8268006e+3, 1.5445457e+2, -1477235.1, -1605890.4, -18474.238, 0.1558601, -0.29101187, -1474634.9, -48316.65, 0.0000055355054, 10.000817, 9.998908 
2.826387e+3, 1.6444564e+2, -1246888.1, -1499814.0, 34058.473, -0.03049172, -0.20997159, -1242382.1, 86028.016, 0.0000002527922, 10.00189, 9.998494 
2.8259757e+3, 1.7443684e+2, -1095836.3, -1296752.5, -32157.959, -0.0559321, -0.17164221, -1090814.8, 139684.05, 0.0, 10.002, 9.999122 
2.825565e+3, 1.8442756e+2, -1037927.9, -1223410.5, 64430.055, -0.1196002, -0.17186539, -1017743.6, 114844.7, 0.0, 10.001679, 9.999132 
2.825157e+3, 1.9441675e+2, -994065.3, -1100749.1, 95434.73, -0.17534937, -0.4030501, -938076.75, 96612.36, 0.0, 10.001118, 9.999557 
2.8247494e+3, 2.0440763e+2, -998618.7, -1171073.8, 47386.582, -0.129135, -0.3732672, -986455.8, -49677.305, 0.0, 10.0009365, 9.998477 
2.8243414e+3, 2.1440062e+2, -753134.6, -931978.75, 5356.9644, -0.0013807369, -0.17525735, -752974.3, 85880.016, 0.0, 10.001691, 9.99905 
2.8239334e+3, 2.2439262e+2, -761482.25, -933239.1, 63641.773, 0.057102196, -0.025980176, -740471.06, 464.58893, 0.0, 10.001141, 9.998664 
2.8235248e+3, 2.3438236e+2, -855167.4, -862322.8, 123255.79, 0.041698046, -0.1637024, -735437.44, -92402.734, 0.0, 9.999585, 9.9992 
2.8231138e+3, 2.4437208e+2, -763777.4, -850341.94, 6440.4497, -0.068654984, -0.22510302, -763300.8, -218168.9, 0.0, 9.999852, 9.998521 
2.8226992e+3, 2.5436136e+2, -265344.94, -486685.2, -44322.418, -0.26615253, -0.38952962, -256799.48, 190430.92, 0.0, 10.002319, 9.999132 
2.8222868e+3, 2.64351e+2, -290557.44, -684062.1, 104480.38, -0.3898298, -0.38917708, -264537.16, 84792.914, 0.0, 10.002443, 9.99707 
2.8218782e+3, 2.7434054e+2, -385129.44, -617174.4, 84927.56, -0.42921594, -0.38963997, -357367.7, -105929.54, 0.0, 10.00086, 9.99761 
2.8214696e+3, 2.8433192e+2, -369371.25, -484956.44, -8429.326, -0.32039028, -0.19514787, -368759.75, -215233.92, 0.0, 9.999986, 9.998268 
2.8210616e+3, 2.9432502e+2, -141978.7, -233425.98, -24021.111, 0.0374325, 0.016914586, -136052.9, -80458.86, 0.0, 10.000482, 9.999068 
2.8206497e+3, 3.0431437e+2, -181010.78, -428954.94, 97055.57, -0.06827832, -0.010415481, -147538.08, -147538.08, 0.0, 10.000503, 9.99707 
2.8202355e+3, 3.142986e+2, -54245.418, -248259.88, 128796.85, -0.5479656, -0.5787428, 9989.505, 9989.505, 0.0, 10.000612, 9.997921 
2.8198323e+3, 3.24296e+2, -64497.895, 256328.4, -101218.97, 0.33581808, 0.07669036, 285593.03, 285593.03, 0.0, 9.998423, 10.002375 
2.837612e+3, 1.3488036e+2, -2020470.3, -2180888.8, 56538.813, 0.048664037, -0.43095976, -2002546.1, -384412.97, 0.000050519382, 9.999386, 9.996908 
2.8372037e+3, 1.4487316e+2, -1642058.8, -1548723.8, -46900.09, 0.14284004, -0.24038653, -1529228.8, -9007.667, 0.000015386411, 9.999515, 10.000624 
2.8367904e+3, 1.5486701e+2, -1281041.4, -1231162.8, 58808.28, -0.14303759, -0.20370494, -1192224.3, 230051.83, 0.0000020566958, 10.001, 10.001373 
2.8363797e+3, 1.6485892e+2, -1382075.9, -1747999.4, 13664.977, -0.16300906, -0.07793532, -1381566.3, -57206.85, 0.00000005936716, 10.001775, 9.996829 
2.8359696e+3, 1.7484841e+2, -1253378.1, -1589450.4, -5483.465, -0.016672233, -0.033467773, -1253288.6, -26813.193, 0.0, 10.001849, 9.997182 
2.8355604e+3, 1.8483919e+2, -989263.56, -1116398.9, 56577.0, 0.0022190786, 0.03562139, -967732.44, 160836.27, 0.0, 10.001633, 9.999903 
2.8351513e+3, 1.9483058e+2, -952862.06, -1011085.1, 108130.75, -0.06097656, -0.03610382, -869992.6, 160653.42, 0.0, 10.001085, 10.000197 
2.834743e+3, 2.048207e+2, -1010866.0, -1244714.9, 84666.19, -0.07546246, -0.08139572, -983430.9, -50690.195, 0.0, 10.001154, 9.997866 
2.8343347e+3, 2.1480925e+2, -751110.8, -1038024.1, 68099.64, -0.07695485, -0.22264662, -735767.7, 99088.484, 0.0, 10.002149, 9.998118 
2.8339258e+3, 2.2480018e+2, -519518.13, -547730.4, -9109.303, -0.034937337, -0.24736486, -516832.53, 220108.88, 0.0, 10.001628, 10.001077 
2.8335163e+3, 2.347928e+2, -743278.7, -578189.2, 75520.87, 0.0553882, -0.2990011, -548854.4, 90148.82, 0.0, 9.999319, 10.001301 
2.833106e+3, 2.447846e+2, -787465.3, -882277.2, 143673.53, 0.0053062085, -0.24727388, -683578.8, -142498.34, 0.0, 9.999729, 9.998374 
2.8326946e+3, 2.5477517e+2, -179610.73, -515621.3, 118132.445, -0.16964437, -0.21510944, -142235.77, 300941.03, 0.0, 10.003132, 9.998574 
2.8322834e+3, 2.647646e+2, -142109.1, -604560.7, 43657.81, -0.23858188, -0.20567189, -138023.66, 207259.84, 0.0, 10.003389, 9.997162 
2.8318724e+3, 2.7475262e+2, -473765.9, -690230.1, 18024.986, -0.21308704, -0.3167111, -472275.25, -224870.39, 0.0, 10.000353, 9.997363 
2.8314632e+3, 2.847432e+2, -361773.06, -349941.03, 89854.63, -0.070672244, -0.24852347, -265807.88, -116310.7, 0.0, 9.999407, 9.9994955 
2.8310555e+3, 2.9473606e+2, -13632.495, -103803.9, 98456.72, 0.18929827, -0.10766343, 49570.52, 101133.164, 0.0, 10.000985, 9.999748 
2.830643e+3, 3.0472603e+2, 74398.1, -68054.516, 161392.72, -0.013883226, -0.2047933, 179582.67, 179582.67, 0.0, 10.001134, 9.999272 
2.830228e+3, 3.147126e+2, -43286.742, -64861.664, 211198.31, -0.4844025, -0.7013361, 157399.42, 157399.42, 0.0, 9.999799, 9.999618 
2.8298223e+3, 3.2470804e+2, 285363.88, 186848.28, 79863.04, 0.12179699, -0.21343255, 329938.03, 329938.03, 0.0, 10.001684, 10.000406 
2.8476062e+3, 1.3529097e+2, -1460259.1, -1884593.1, 66187.38, 0.11801741, -0.3437266, -1450174.9, 163937.34, 0.000026715617, 10.002946, 9.997311 
2.8471965e+3, 1.452818e+2, -1117212.0, -1362386.0, -7245.007, 0.0767394, -0.31858495, -1116998.1, 399219.9, 0.000008259592, 10.003354, 10.0000725 
2.8467834e+3, 1.5527555e+2, -972411.5, -1174520.0, -83522.79, -0.24480136, -0.21667436, -942362.7, 475914.53, 0.0000013335809, 10.003458, 10.000601 
2.8463727e+3, 1.6526784e+2, -1170307.1, -1528665.4, -167086.64, -0.2186584, -0.084109135, -1104490.1, 215866.48, 0.000000073245815, 10.002739, 9.997862 
2.8459632e+3, 1.7525795e+2, -1246390.5, -1491880.8, -54629.21, 0.024404384, -0.07734111, -1234782.6, -12318.672, 0.0, 10.001488, 9.998026 
2.8455538e+3, 1.8524961e+2, -1154682.0, -1196899.6, 82943.34, 0.07287093, 0.04041885, -1090203.5, 34345.902, 0.0, 10.000521, 9.999876 
2.8451437e+3, 1.9524236e+2, -1135853.3, -1119855.3, 49707.16, -0.0194741, 0.10469327, -1077507.6, -50890.01, 0.0, 9.999928, 10.0 
2.8447357e+3, 2.052326e+2, -1136658.1, -1229885.5, 143590.9, -0.049379397, 0.047311716, -1032304.3, -103594.45, 0.0, 9.999982, 9.998533 
2.844328e+3, 2.1521991e+2, -942191.8, -1070141.1, 218368.28, -0.05809317, -0.2848292, -778619.9, 52211.664, 0.0, 10.000617, 9.998625 
2.8439188e+3, 2.2521035e+2, -631848.75, -567376.06, 60691.094, -0.0066634505, -0.37995672, -530891.3, 202026.25, 0.0, 10.000724, 10.001397 
2.8435084e+3, 2.3520352e+2, -550014.75, -461185.34, -19724.762, 0.117870085, -0.42184788, -457002.38, 177969.23, 0.0, 10.000535, 10.001548 
2.8430983e+3, 2.451963e+2, -718754.0, -878065.06, 143245.08, 0.078266114, -0.26940185, -634506.6, -97465.625, 0.0, 10.000369, 9.998101 
2.8426895e+3, 2.551881e+2, -583643.3, -745365.6, 135918.55, -0.077000536, -0.12016594, -506351.47, -67220.05, 0.0, 10.000572, 9.998224 
2.842279e+3, 2.6517794e+2, -505880.8, -763378.1, -34432.004, -0.100064345, -0.053001612, -501356.13, -160119.11, 0.0, 10.000912, 9.997233 
2.8418666e+3, 2.7516535e+2, -351515.16, -620505.7, -29782.389, 0.0013318466, -0.26508698, -348257.13, -104893.75, 0.0, 10.001231, 9.997386 
2.8414568e+3, 2.8515527e+2, -125973.25, -180570.55, 153800.42, 0.13198717, -0.28110602, 2932.4111, 148391.17, 0.0, 10.000857, 9.999939 
2.841049e+3, 2.9514727e+2, -89561.73, -103534.32, 123584.836, 0.28932557, -0.29328206, 27234.129, 74762.67, 0.0, 10.000365, 10.000042 
2.8406364e+3, 3.0513805e+2, 46078.2, 66152.3, 57343.332, 0.022910122, -0.37887245, 114330.37, 114330.37, 0.0, 10.0004425, 10.000478 
2.840221e+3, 3.1512722e+2, 137688.14, 155998.88, 26086.48, -0.3718667, -0.78376645, 174489.94, 174489.94, 0.0, 10.000605, 10.000693 
2.8398108e+3, 3.2511935e+2, -123143.33, -225506.72, 141240.58, -0.35998157, -0.63574284, -24096.98, -24096.98, 0.0, 10.000036, 9.998255 
2.8575996e+3, 1.357015e+2, -1471046.1, -1689010.3, 49065.656, -0.04610187, -0.26810253, -1460510.4, 149581.33, 0.000013313222, 10.002074, 9.999058 
2.8571913e+3, 1.4569007e+2, -1428386.6, -1754067.9, -8061.2954, 0.06791847, -0.43881294, -1428187.1, 84029.195, 0.0000038169696, 10.002302, 9.997866 
2.856778e+3, 1.5568224e+2, -1288772.3, -1577360.8, -26700.982, -0.33783743, -0.27019012, -1286322.6, 127977.62, 0.0000005153316, 10.002393, 9.998334 
2.8563666e+3, 1.6567466e+2, -1051331.8, -1153105.3, -180162.77, -0.30349618, -0.1578223, -915007.1, 401369.53, 0.00000002542409, 10.002198, 10.00069 
2.8559563e+3, 1.7566665e+2, -1097432.9, -1132204.3, -54453.37, -0.02481856, -0.23664565, -1057657.1, 160797.19, 0.0, 10.001291, 10.000579 
2.8555456e+3, 1.856593e+2, -1190243.8, -1283921.0, 74219.805, -0.0035333752, -0.103044115, -1149318.9, -28789.82, 0.0, 10.000593, 9.9992285 
2.8551346e+3, 1.9565217e+2, -1176307.6, -1206770.6, 72517.33, -0.15907031, 0.056626897, -1117439.5, -94835.766, 0.0, 9.999932, 9.9994 
2.854727e+3, 2.0564368e+2, -939181.1, -849010.75, 184193.52, -0.14887495, 0.02212416, -704464.9, 220216.8, 0.0, 10.000079, 10.001096 
2.8543213e+3, 2.1563347e+2, -759332.0, -725894.3, 275628.53, -0.023626033, -0.30217147, -466478.03, 360291.7, 0.0, 10.0007305, 10.000936 
2.8539127e+3, 2.2562382e+2, -706023.44, -842057.56, 89135.61, 0.07085078, -0.4080277, -661917.9, 66939.16, 0.0, 10.001224, 9.999263 
2.8535014e+3, 2.3561434e+2, -569251.94, -720314.56, 18879.559, 0.13025959, -0.4657821, -566928.1, 64016.926, 0.0, 10.001409, 9.999362 
2.8530914e+3, 2.4560615e+2, -545362.44, -709912.4, 116709.76, 0.064570546, -0.34975985, -484842.7, 48184.24, 0.0, 10.001127, 9.99891 
2.8526816e+3, 2.555985e+2, -544077.44, -650147.7, 133751.86, -0.10257801, -0.19407123, -453229.66, -18120.74, 0.0, 10.000432, 9.998974 
2.8522715e+3, 2.655898e+2, -408485.63, -562983.44, 38252.86, -0.09203108, -0.09008448, -399533.2, -62335.336, 0.0, 10.00086, 9.998655 
2.851861e+3, 2.7557993e+2, -59586.67, -329586.13, 70067.83, 0.040295996, -0.12476793, -42486.348, 196809.98, 0.0, 10.002523, 9.998788 
2.8514504e+3, 2.8556955e+2, 84793.5, -131317.63, 137476.66, 0.10632412, -0.22198315, 151597.4, 292991.34, 0.0, 10.002429, 9.999561 
2.8510398e+3, 2.9555884e+2, -46368.8, -143215.25, 96427.83, 0.1169867, -0.42836487, 13111.333, 56601.918, 0.0, 10.000846, 9.999572 
2.8506288e+3, 3.0554953e+2, 38065.01, -145908.31, 93262.445, 0.009339606, -0.41316038, 77072.36, 77072.36, 0.0, 10.001201, 9.998695 
2.850219e+3, 3.15541e+2, 407722.66, 88192.75, -34932.473, 0.010825471, -0.37883556, 411497.06, 411497.06, 0.0, 10.003235, 9.999002 
2.849801e+3, 3.2553196e+2, 28956.209, 106833.43, -248452.53, -0.48156768, -0.39119303, 319380.16, 319380.16, 0.0, 9.999724, 10.00079 
2.8675923e+3, 1.3611129e+2, -1532587.5, -1762784.0, 483.3869, -0.1429203, -0.18487483, -1532586.5, 73499.64, 0.000005962988, 10.001778, 9.99872 
2.867185e+3, 1.4610115e+2, -1562162.8, -1679932.6, -52194.543, 0.11901302, -0.2702536, -1542360.3, -34164.617, 0.0000015122073, 10.000774, 9.99912 
2.8667694e+3, 1.56094e+2, -1701163.9, -1671843.9, 69816.234, -0.3720798, -0.13093437, -1615165.0, -204895.72, 0.0000000966577, 9.999077, 9.999293 
2.8663585e+3, 1.6608627e+2, -1412057.0, -1282035.4, -163.11656, -0.33171982, -0.08185262, -1282035.1, 30309.082, 0.00000000026919006, 9.999466, 10.00116 
2.8659487e+3, 1.7607817e+2, -1102300.6, -1099072.0, -22195.432, -0.038356386, -0.20541295, -1078432.3, 135987.5, 0.0, 10.001013, 10.000985 
2.8655377e+3, 1.860704e+2, -1122838.1, -1200421.1, 59805.906, -0.014157215, -0.15255144, -1090344.8, 26151.256, 0.0, 10.000903, 9.999624 
2.8651264e+3, 1.9606264e+2, -1193620.1, -1173118.1, 117508.99, -0.12197044, -0.088829644, -1065413.9, -46838.28, 0.0, 9.999708, 9.999702 
2.8647193e+3, 2.0605475e+2, -997637.8, -859494.1, 232560.27, -0.06243017, -0.07674502, -685965.06, 234683.19, 0.0, 9.9995985, 10.001266 
2.8643146e+3, 2.1604618e+2, -866180.1, -779596.25, 130208.36, 0.12086562, -0.27292693, -685671.56, 137049.28, 0.0, 9.999973, 10.0009575 
2.863906e+3, 2.260365e+2, -883711.3, -1052506.8, -32788.527, 0.14818822, -0.3396508, -877565.9, -152755.25, 0.0, 10.000573, 9.9981 
2.8634942e+3, 2.3602568e+2, -703846.56, -915025.75, -17923.768, 0.09649134, -0.44664553, -702336.1, -75420.07, 0.0, 10.00114, 9.998101 
2.8630838e+3, 2.4601679e+2, -529567.75, -637072.3, 102747.04, 0.03733531, -0.36638105, -467362.03, 61642.473, 0.0, 10.001092, 9.99934 
2.8626746e+3, 2.5600868e+2, -525638.1, -607765.1, 80012.11, -0.034353744, -0.327558, -476767.5, -45680.754, 0.0, 10.000513, 9.999163 
2.8622645e+3, 2.660011e+2, -471032.84, -487532.6, 33968.76, -0.037326418, -0.16897649, -444326.5, -111164.25, 0.0, 10.000032, 9.999543 
2.861854e+3, 2.7599338e+2, -436484.88, -440341.97, 43805.168, 0.037159316, -0.11094512, -394565.8, -159327.73, 0.0, 9.999653, 9.999404 
2.8614435e+3, 2.8598315e+2, -313410.7, -384993.4, 41776.203, 0.046823163, -0.1904475, -294190.47, -156854.81, 0.0, 10.000087, 9.998895 
2.861031e+3, 2.9597068e+2, -163651.67, -303632.97, 4067.99, -0.013294148, -0.5334516, -163533.55, -124080.62, 0.0, 10.000588, 9.998562 
2.8606215e+3, 3.059616e+2, -265801.5, -459656.75, 136965.5, 0.034285348, -0.36253145, -194936.06, -194936.06, 0.0, 9.999935, 9.997101 
2.8602162e+3, 3.159552e+2, -426717.0, -497787.25, 102922.375, 0.34647948, 0.030878248, -353367.97, -353367.97, 0.0, 9.998395, 9.997268 
2.8597912e+3, 3.259443e+2, 210531.13, 487717.16, -375092.94, -0.6060723, -0.23710829, 749002.56, 749002.56, 0.0, 9.999859, 10.003286 
2.877585e+3, 1.3652152e+2, -1685875.4, -1916220.9, 1703.3981, -0.25697702, 0.008354492, -1685862.8, -83783.59, 0.0000021473002, 10.001117, 9.997969 
2.8771773e+3, 1.4651377e+2, -1382459.4, -1279921.9, -80916.46, 0.110039756, 0.038382385, -1235399.5, 268762.97, 0.00000043033984, 10.000683, 10.001896 
2.8767595e+3, 1.5650837e+2, -1530770.8, -1347561.8, 40214.984, -0.47151914, 0.08797245, -1339123.1, 67086.1, 0.000000019645139, 9.999221, 10.001448 
2.876349e+3, 1.6650067e+2, -1455417.3, -1396585.8, 47319.797, -0.40286535, 0.091888875, -1370284.0, -62002.11, 0.0, 9.999595, 10.000299 
2.8759408e+3, 1.764917e+2, -1191896.0, -1227965.4, 51234.746, -0.12319235, -0.020863928, -1155614.5, 54753.688, 0.0, 10.000782, 10.000204 
2.8755304e+3, 1.8648264e+2, -1034868.7, -1014346.1, 18008.912, -0.029037347, -0.13572612, -1003880.25, 108571.66, 0.0, 10.00086, 10.000931 
2.8751194e+3, 1.9647317e+2, -1145053.1, -1075880.9, 126980.7, -0.0055719074, -0.3527643, -978860.4, 35678.348, 0.0, 9.999688, 10.000401 
2.874713e+3, 2.0646515e+2, -1108257.5, -1120501.0, 259401.22, 0.10849096, -0.27426246, -854905.8, 61711.01, 0.0, 9.999764, 9.999368 
2.8743082e+3, 2.1645749e+2, -937804.7, -1008162.9, 166141.81, 0.23381157, -0.16573031, -803158.4, 15535.295, 0.0, 10.000305, 9.999225 
2.873898e+3, 2.2644848e+2, -742118.0, -870201.1, -3218.9817, 0.101000085, -0.14537434, -742037.1, -21256.602, 0.0, 10.001034, 9.999132 
2.873485e+3, 2.364384e+2, -539107.9, -736898.4, 38490.246, -0.16263159, -0.25483653, -531881.6, 90994.75, 0.0, 10.001794, 9.999028 
2.8730762e+3, 2.464283e+2, -415388.47, -571129.94, 104759.34, -0.073149376, -0.34529138, -362728.1, 162244.11, 0.0, 10.001768, 9.999499 
2.8726694e+3, 2.5641793e+2, -382323.63, -517636.53, 80938.54, 0.16623983, -0.50827456, -344488.66, 82582.01, 0.0, 10.001317, 9.999433 
2.8722575e+3, 2.664097e+2, -354603.28, -349865.3, 3321.6772, 0.07284924, -0.47898072, -348154.38, -19005.27, 0.0, 10.000406, 10.000332 
2.871843e+3, 2.7640235e+2, -449726.1, -393628.34, 26736.9, -0.18343444, -0.4221709, -382926.72, -151707.81, 0.0, 9.999253, 9.999937 
2.8714335e+3, 2.863937e+2, -398522.4, -499960.03, 95709.4, -0.06848594, -0.3325194, -340923.7, -207615.22, 0.0, 9.99978, 9.998263 
2.871026e+3, 2.963838e+2, -32330.408, -270977.63, 38265.934, 0.19698633, -0.33220658, -26344.777, 9068.985, 0.0, 10.001544, 9.998347 
2.8706145e+3, 3.0637637e+2, -72636.44, -41857.82, 55405.195, 0.17027517, -0.15476863, 255.62375, 255.62375, 0.0, 9.999783, 10.000065 
2.8702027e+3, 3.163709e+2, -603557.94, -364472.25, 170314.2, 0.15752102, 0.09480098, -275934.78, -275934.78, 0.0, 9.996128, 9.999311 
2.869786e+3, 3.2635805e+2, 253049.5, -139441.31, 72552.15, -0.43895853, -0.108744755, 266031.4, 266031.4, 0.0, 10.002804, 9.997592 
2.8875792e+3, 1.3693124e+2, -1549794.9, -1783308.6, 115611.84, -0.14301984, -0.16375016, -1502240.3, 95819.37, 0.0000003382392, 10.001649, 9.998639 
2.8871685e+3, 1.4692543e+2, -1147363.4, -1172989.6, -5319.063, -0.08975822, 0.043920167, -1146303.1, 353819.06, 0.000000039050374, 10.002264, 10.001886 
2.8867543e+3, 1.5691817e+2, -1007742.2, -1113543.6, -29983.379, -0.29058382, -0.07001587, -999835.94, 402350.38, 0.0000000006124831, 10.002835, 10.001344 
2.886343e+3, 1.669103e+2, -1102332.6, -1223877.8, -15217.637, -0.25736964, -0.08360647, -1100456.4, 203803.69, 0.0, 10.002043, 10.000257 
2.8859326e+3, 1.7690177e+2, -1227681.3, -1259671.3, 11910.847, -0.18285814, -0.16226931, -1223733.6, -17391.307, 0.0, 10.000598, 10.000054 
2.8855228e+3, 1.8689317e+2, -959901.1, -982827.44, -17218.799, -0.058820672, -0.23090044, -950678.75, 157743.56, 0.0, 10.001422, 10.0008955 
2.8851137e+3, 1.9688408e+2, -662984.5, -872431.3, -19076.303, 0.14343552, -0.42270786, -661261.25, 349243.56, 0.0, 10.003125, 10.0001745 
2.884707e+3, 2.0687582e+2, -763577.9, -1037859.56, 150482.34, 0.21532784, -0.3265296, -697119.7, 215468.06, 0.0, 10.002569, 9.998582 
2.8843006e+3, 2.1686785e+2, -901952.94, -1084120.9, 131851.52, 0.23650716, -0.17440076, -832783.6, -18111.314, 0.0, 10.001037, 9.998343 
2.8838906e+3, 2.2685923e+2, -735859.6, -814971.9, 18880.0, 0.06695369, -0.092921615, -731584.94, -14826.587, 0.0, 10.000929, 9.999556 
2.883478e+3, 2.3685005e+2, -628574.75, -750244.6, -9583.716, -0.18267402, -0.1663827, -627824.5, -8977.943, 0.0, 10.001155, 9.999236 
2.8830692e+3, 2.4683996e+2, -623719.44, -656239.2, 21025.982, -0.051256496, -0.27491108, -613399.75, -92459.11, 0.0, 10.000297, 9.999635 
2.8826627e+3, 2.568289e+2, -823201.2, -743855.7, 11756.694, 0.28889942, -0.53775936, -742150.4, -319107.97, 0.0, 9.998414, 9.999279 
2.8822497e+3, 2.668199e+2, -532324.2, -431572.0, -64464.746, 0.109761044, -0.5799276, -400134.56, -75008.555, 0.0, 9.999262, 10.000291 
2.8818333e+3, 2.7681175e+2, -307132.3, -369488.7, -102632.695, -0.3012956, -0.6333536, -231046.58, -3844.1038, 0.0, 10.00052, 9.999473 
2.881425e+3, 2.868042e+2, -338437.7, -508889.34, 23992.8, -0.113368884, -0.3983294, -335124.84, -205838.84, 0.0, 10.000408, 9.997875 
2.8810206e+3, 2.967965e+2, -390841.66, -465209.84, 3940.3982, 0.38791776, -0.16492328, -390633.47, -359255.5, 0.0, 9.999246, 9.998103 
2.8806064e+3, 3.0679056e+2, 80186.836, 318859.5, -143742.08, 0.20154047, 0.012585649, 386346.47, 386346.47, 0.0, 9.999699, 10.00257 
2.8801885e+3, 3.167854e+2, -91736.48, -62945.797, -24035.117, -0.15289973, 0.038546573, -49324.844, -49324.844, 0.0, 9.999505, 9.999753 
2.8797835e+3, 3.267711e+2, -370631.63, -1060113.9, 476424.0, -0.21334967, -0.08696795, -127302.77, -127302.77, 0.0, 10.001476, 9.991791 
2.897573e+3, 1.3734166e+2, -1666692.8, -1727806.0, 55568.69, -0.15054086, -0.36425352, -1633833.4, -39807.184, 0.0000000028010363, 10.00043, 9.999591 
2.8971592e+3, 1.4733614e+2, -1380301.9, -1426271.3, -2374.3057, -0.40606537, -0.09627238, -1380179.5, 115904.61, 0.0, 10.001321, 10.000572 
2.8967515e+3, 1.5732557e+2, -1206475.1, -1316959.0, -10405.797, -0.039749555, -0.41807783, -1205503.6, 192679.5, 0.0, 10.001957, 10.00036 
2.896339e+3, 1.6731721e+2, -1124981.4, -1174370.9, -71032.86, -0.08114767, -0.48288056, -1074473.1, 225788.3, 0.0, 10.001626, 10.000794 
2.8959236e+3, 1.7730951e+2, -1234236.9, -1248482.4, -695.0573, -0.35616183, -0.5187346, -1234203.1, -31869.096, 0.0, 10.000492, 10.000181 
2.8955153e+3, 1.8730241e+2, -1005247.25, -1117708.9, 45879.113, -0.1812566, -0.37726733, -988905.4, 115498.586, 0.0, 10.001569, 9.999903 
2.8951094e+3, 1.9729535e+2, -703650.06, -973182.3, 43538.3, 0.17196588, -0.25351724, -696791.75, 309683.0, 0.0, 10.003155, 9.999483 
2.894701e+3, 2.072862e+2, -686738.25, -929462.44, 90547.95, 0.15676406, -0.259115, -656681.44, 251883.97, 0.0, 10.002745, 9.999251 
2.8942916e+3, 2.172761e+2, -807117.5, -979439.06, 116914.27, -0.03632207, -0.37812892, -748045.25, 62620.758, 0.0, 10.001372, 9.998916 
2.893883e+3, 2.272674e+2, -697511.06, -848571.94, 37226.25, 0.0043810164, -0.30429372, -688835.56, 23920.254, 0.0, 10.001377, 9.999121 
2.8934744e+3, 2.3725924e+2, -541568.3, -715771.5, -1210.218, 0.093278885, -0.22023582, -541559.94, 73281.07, 0.0, 10.001707, 9.999229 
2.8930625e+3, 2.4725172e+2, -558173.4, -553285.3, -58704.258, 0.073566176, -0.119095184, -496974.22, 19939.213, 0.0, 10.000375, 10.000324 
2.8926498e+3, 2.5724384e+2, -800468.75, -692242.0, -12266.704, 0.012083856, -0.11077361, -690869.06, -271881.97, 0.0, 9.998306, 9.99971 
2.8922394e+3, 2.6723346e+2, -584047.25, -634892.44, 29026.469, -0.018278057, -0.21521664, -570884.3, -249797.4, 0.0, 9.999636, 9.99873 
2.8918293e+3, 2.772221e+2, -83276.805, -362080.94, -66588.875, -0.07593321, -0.4102582, -68189.34, 155008.1, 0.0, 10.002423, 9.998617 
2.8914192e+3, 2.8721356e+2, -96439.875, -253370.66, -94013.63, 0.019406673, -0.32584757, -52449.637, 72835.05, 0.0, 10.00139, 9.99918 
2.8910094e+3, 2.9720607e+2, -360513.2, -323975.53, -38382.43, 0.19582617, -0.18170229, -299736.0, -272371.47, 0.0, 9.998829, 9.9992895 
2.8905943e+3, 3.0719882e+2, 187705.48, 235494.5, -48335.59, -0.21644375, -0.12256201, 265519.16, 265519.16, 0.0, 10.000972, 10.001431 
2.8901786e+3, 3.1719142e+2, 707570.1, 308983.13, -71722.375, -0.6946027, -0.17879266, 720083.1, 720083.1, 0.0, 10.004967, 9.99975 
2.8897798e+3, 3.2717773e+2, 9671.806, -385573.06, 273133.56, 0.035666108, -0.4437367, 149179.28, 149179.28, 0.0, 10.0017605, 9.996442 
2.9075643e+3, 1.3775238e+2, -1723558.9, -1675250.1, -25741.523, -0.19676827, -0.32570386, -1664105.0, -74111.99, 0.00000000011876347, 9.999617, 10.000394 
2.9071525e+3, 1.4774421e+2, -1604949.6, -1603152.3, -73966.48, -0.29745126, -0.32032007, -1530079.0, -38000.355, 0.0, 10.000063, 9.999991 
2.9067442e+3, 1.5773587e+2, -1527508.3, -1517059.4, -78206.01, -0.011469041, -0.3650777, -1443903.5, -49741.11, 0.0, 9.999938, 9.999969 
2.9063317e+3, 1.6772789e+2, -1300362.3, -1250749.8, -147368.34, -0.036059532, -0.3882026, -1126114.5, 170123.45, 0.0, 10.000413, 10.000855 
2.905917e+3, 1.7771988e+2, -1215283.1, -1267210.6, -95704.63, -0.2575852, -0.46846247, -1142083.0, 56229.6, 0.0, 10.000752, 9.999944 
2.9055086e+3, 1.8771192e+2, -1117467.0, -1259805.9, 3964.2437, -0.16107622, -0.3631007, -1117356.6, -16964.465, 0.0, 10.0011835, 9.999094 
2.9051027e+3, 1.9770415e+2, -984467.6, -1140019.0, -13759.772, 0.12622456, -0.26135966, -983259.8, 19212.543, 0.0, 10.001385, 9.99915 
2.9046938e+3, 2.0769592e+2, -898843.2, -893925.9, 21523.525, 0.098768644, -0.25351518, -874721.0, 29830.986, 0.0, 10.000703, 10.000446 
2.9042834e+3, 2.1768677e+2, -1066314.6, -1037455.7, 91266.77, -0.04972223, -0.40025282, -959484.75, -152845.28, 0.0, 9.999324, 9.999485 
2.9038754e+3, 2.2767806e+2, -1013516.75, -1038048.3, 95147.08, 0.025481805, -0.3292793, -929848.06, -221117.14, 0.0, 9.999415, 9.998729 
2.9034677e+3, 2.3766963e+2, -905988.4, -943390.44, 29730.572, 0.20999947, -0.24289757, -889566.25, -278744.03, 0.0, 9.999446, 9.998744 
2.9030544e+3, 2.4766316e+2, -619030.3, -520723.4, -72132.33, 0.089446306, -0.04558655, -482589.2, 30297.139, 0.0, 9.9998045, 10.00074 
2.902639e+3, 2.5765696e+2, -670349.5, -655665.4, -19154.715, -0.14087927, 0.07617416, -642493.8, -227548.73, 0.0, 9.999415, 9.999372 
2.9022312e+3, 2.6764634e+2, -511065.5, -721909.0, 178806.14, -0.05864058, 0.03264849, -408917.06, -91865.73, 0.0, 10.000721, 9.9975815 
2.9018256e+3, 2.7763367e+2, -236589.27, -546635.94, 81969.56, 0.14338528, -0.1938123, -216252.28, 2926.139, 0.0, 10.001904, 9.997595 
2.9014125e+3, 2.8762418e+2, -59549.496, -103160.47, -113588.63, 0.057206806, -0.22088598, 34307.707, 155576.92, 0.0, 10.001189, 10.0002775 
2.9009974e+3, 2.9761586e+2, -342138.97, -294045.88, -36830.965, -0.08711648, -0.2568198, -274106.56, -250759.53, 0.0, 9.998993, 9.999374 
2.900587e+3, 3.076073e+2, -42904.54, -37795.875, 105157.81, -0.19094266, -0.24541521, 64838.62, 64838.62, 0.0, 10.000247, 9.999767 
2.9001775e+3, 3.1759927e+2, 87371.41, -201331.27, 11868.948, -0.37518263, -0.19622546, 87858.53, 87858.53, 0.0, 10.001802, 9.997658 
2.8997746e+3, 3.2759202e+2, -365508.28, -55830.617, -45118.94, 0.21909758, -0.06005556, -49390.86, -49390.86, 0.0, 9.997229, 10.000672 
2.9175562e+3, 1.381619e+2, -1666548.9, -1532983.9, -18524.438, -0.19850041, -0.2844497, -1530462.3, 55510.086, 0.0000000000007792345, 9.999583, 10.001377 
2.917146e+3, 1.4815164e+2, -1646386.3, -1639383.1, -55206.625, -0.10861034, -0.50532836, -1587567.1, -99484.45, 0.0, 9.999889, 9.999811 
2.916734e+3, 1.5814798e+2, -1521042.1, -1554457.5, -38413.727, -0.24068716, -0.06055703, -1495860.0, -105730.13, 0.0, 10.000171, 9.999601 
2.916323e+3, 1.6814066e+2, -1282847.1, -1254617.0, -124172.16, -0.124620385, 0.0021162927, -1143760.3, 148441.17, 0.0, 10.000594, 10.000729 
2.9159117e+3, 1.7813197e+2, -1244966.5, -1317522.1, -67573.96, -0.07999703, -0.12758695, -1204548.0, -10264.863, 0.0, 10.000688, 9.999635 
2.915502e+3, 1.8812118e+2, -1138375.3, -1311252.0, 14652.546, -0.117794424, -0.2736415, -1137142.1, -40752.293, 0.0, 10.001198, 9.998737 
2.915094e+3, 1.9811024e+2, -966024.0, -1088022.3, -5499.706, -0.14781131, -0.45468846, -965776.6, 32722.691, 0.0, 10.0012865, 9.999568 
2.9146856e+3, 2.0810507e+2, -755234.56, -609295.6, -29355.646, 0.010047099, -0.28688014, -603612.06, 296935.1, 0.0, 10.000693, 10.002436 
2.914277e+3, 2.1810088e+2, -928759.25, -813441.1, 74581.8, 0.13616242, -0.112791434, -776829.25, 25755.322, 0.0, 9.999522, 10.000957 
2.913867e+3, 2.2809201e+2, -1004476.3, -1039440.1, 103681.18, 0.03422205, -0.10354838, -916813.56, -212137.4, 0.0, 9.999463, 9.998718 
2.913456e+3, 2.3808166e+2, -852292.8, -896867.7, 59997.367, -0.12758772, -0.18829376, -810577.0, -203792.39, 0.0, 9.999641, 9.998998 
2.9130444e+3, 2.480728e+2, -569720.44, -499969.75, -39908.773, -0.09777884, -0.24727415, -481845.1, 27024.068, 0.0, 10.000081, 10.000766 
2.9126322e+3, 2.5806454e+2, -455018.97, -517312.53, 30970.807, -0.04923625, -0.31984764, -442241.8, -31296.262, 0.0, 10.000631, 9.999762 
2.9122254e+3, 2.6805705e+2, -349769.38, -577570.1, 254448.67, 0.048786867, -0.102883704, -184891.31, 128133.31, 0.0, 10.001449, 9.998263 
2.9118195e+3, 2.7804917e+2, -116848.734, -392459.56, 158312.69, 0.124605805, 0.10154265, -44765.51, 170344.02, 0.0, 10.002222, 9.998523 
2.9114032e+3, 2.8803873e+2, 20914.477, -70282.46, -66022.61, -0.18340164, -0.050134145, 55554.438, 172761.48, 0.0, 10.001718, 10.000265 
2.9109868e+3, 2.9802752e+2, -172083.28, -187905.94, 15940.693, -0.31236753, -0.35121056, -162198.69, -142889.33, 0.0, 9.999925, 9.99967 
2.927549e+3, 1.3857013e+2, -1398484.1, -1481286.6, -138221.78, -0.18872462, -0.5896649, -1295596.4, 286367.34, 0.0, 10.001701, 10.000721 
2.9271385e+3, 1.4856291e+2, -1385838.5, -1443991.8, 120775.92, -0.11670217, -0.52120996, -1290688.4, 193355.81, 0.0, 10.001319, 10.000484 
2.9267272e+3, 1.5855941e+2, -1029935.6, -1332460.3, 125594.81, -0.27532536, -0.09295181, -984590.9, 401498.1, 0.0, 10.003559, 9.999505 
2.926317e+3, 1.68551e+2, -1001835.25, -1298419.9, -42171.03, -0.113421485, -0.018722534, -995955.56, 292222.03, 0.0, 10.003264, 9.999157 
2.925906e+3, 1.7854108e+2, -1079446.4, -1297553.5, -48354.01, 0.05273239, -0.12142839, -1069207.1, 121071.336, 0.0, 10.002066, 9.999123 
2.9254952e+3, 1.8853141e+2, -1036836.9, -1118803.5, 104413.4, -0.10684503, -0.22688843, -965651.56, 126721.375, 0.0, 10.001323, 9.999975 
2.925085e+3, 1.9852151e+2, -1061893.3, -1059877.1, 157142.75, -0.24784075, -0.4022351, -903739.25, 90730.02, 0.0, 10.000289, 10.000263 
2.924677e+3, 2.0851655e+2, -862694.25, -633393.94, 57463.875, -0.049537137, -0.2344281, -619799.2, 276716.16, 0.0, 9.999888, 10.002635 
2.9242685e+3, 2.185129e+2, -1002012.7, -843907.8, 36890.074, 0.20190841, -0.03499129, -835724.0, -37175.516, 0.0, 9.999048, 10.000965 
2.9238582e+3, 2.2850385e+2, -944264.8, -984462.25, 104880.85, 0.04403855, -0.060614567, -857574.25, -156933.92, 0.0, 9.999796, 9.998928 
2.923447e+3, 2.384931e+2, -773950.75, -874429.9, 65343.94, -0.20105137, -0.2206698, -741765.56, -139014.98, 0.0, 10.000307, 9.99882 
2.923036e+3, 2.4848326e+2, -474309.56, -510778.16, -46613.188, -0.16801707, -0.3395561, -442491.1, 62353.64, 0.0, 10.001038, 10.000226 
2.9226252e+3, 2.584738e+2, -436130.66, -549834.2, -18992.148, -0.011180763, -0.5010041, -433042.22, -26109.06, 0.0, 10.0010195, 9.999348 
2.922219e+3, 2.684681e+2, -432013.84, -504447.88, 183984.98, 0.09656173, -0.15777639, -280715.13, 28280.104, 0.0, 10.000554, 9.999113 
2.9218128e+3, 2.784632e+2, -497415.6, -500995.7, 80423.57, 0.11493666, 0.22926731, -418762.16, -207710.72, 0.0, 9.999393, 9.999108 
2.9213938e+3, 2.8845274e+2, -173849.58, -137866.2, -121906.88, -0.41806436, 0.025405135, -32630.504, 80517.305, 0.0, 10.000375, 10.000393 
2.9209784e+3, 2.984406e+2, -236897.06, -207942.72, -61664.484, -0.31144944, -0.4341129, -159078.78, -143819.89, 0.0, 9.999526, 9.9997225 
2.9375404e+3, 1.3897957e+2, -1629546.1, -1700023.4, -421824.0, -0.35168025, -0.81412643, -1241491.4, 336452.84, 0.0, 10.000659, 9.999701 
2.9371303e+3, 1.4897533e+2, -1314478.1, -1274900.3, 176391.44, -0.24326585, -0.51217234, -1117191.3, 362801.03, 0.0, 10.001232, 10.001685 
2.9367223e+3, 1.589702e+2, -1212625.3, -1456366.9, 130909.42, -0.32109934, -0.33574894, -1155639.3, 226407.44, 0.0, 10.002462, 9.999186 
2.9363117e+3, 1.6895983e+2, -1253018.9, -1685329.8, -93508.84, -0.11605483, -0.29027426, -1233659.9, 50502.625, 0.0, 10.002686, 9.996776 
2.9358998e+3, 1.789486e+2, -1145189.5, -1375974.8, -61226.61, 0.005652332, -0.32384723, -1129952.3, 56334.258, 0.0, 10.0018015, 9.998717 
2.935488e+3, 1.8894312e+2, -877395.94, -761537.6, 70573.22, -0.16740178, -0.17536025, -728163.06, 360174.3, 0.0, 10.001188, 10.002504 
2.935077e+3, 1.9893816e+2, -997839.2, -904226.1, 133049.14, -0.35528785, -0.07211757, -809990.4, 180389.7, 0.0, 10.000175, 10.001389 
2.9346672e+3, 2.0893018e+2, -987658.7, -883142.06, 31204.816, -0.204308, -0.12841566, -874534.4, 17923.904, 0.0, 9.999865, 10.000928 
2.9342577e+3, 2.189217e+2, -1001608.2, -939368.1, 42991.336, -0.04397072, -0.23873799, -917415.5, -122873.234, 0.0, 9.999404, 10.000156 
2.9338503e+3, 2.2891279e+2, -816952.25, -856399.44, 130904.51, 0.061349787, -0.27019155, -704293.75, -7663.311, 0.0, 10.000269, 9.999635 
2.9334426e+3, 2.3890366e+2, -624988.9, -785048.8, 84117.0, 0.065402776, -0.3123613, -588913.44, 9807.693, 0.0, 10.001128, 9.999089 
2.9330295e+3, 2.4889562e+2, -475472.06, -686888.56, -53755.094, -0.12003095, -0.1651017, -462589.22, 38215.06, 0.0, 10.001683, 9.99876 
2.932616e+3, 2.5888738e+2, -322852.72, -547864.56, -57421.375, -0.29248184, -0.059678286, -309046.34, 93842.37, 0.0, 10.001902, 9.998979 
2.93221e+3, 2.6887816e+2, -391908.28, -418432.28, 72701.586, -0.056187607, -0.10864823, -331269.0, -26291.145, 0.0, 10.000447, 9.999789 
2.931804e+3, 2.788693e+2, -441980.94, -340632.2, -19537.049, 0.15182464, -0.19546232, -336996.44, -129933.05, 0.0, 9.999035, 10.000434 
2.931386e+3, 2.8886122e+2, -147666.86, -35040.844, -134818.45, -0.34711275, -0.28452128, 54752.85, 163891.61, 0.0, 9.999963, 10.001406 
2.930974e+3, 2.988554e+2, 8614.779, -251842.03, -122645.55, 0.003948769, -0.14148672, 57275.633, 68473.67, 0.0, 10.00162, 9.998508 
2.9475316e+3, 1.3939175e+2, -1562866.6, -1818906.4, -246811.19, -0.50992084, -0.6299369, -1412849.0, 161061.22, 0.0, 10.001643, 9.998459 
2.9471245e+3, 1.4938429e+2, -1189069.8, -1231380.4, 41881.47, -0.18778169, -0.60867023, -1163303.8, 312683.3, 0.0, 10.002133, 10.001574 
2.9467145e+3, 1.5937845e+2, -1609724.0, -1623812.6, -55944.832, -0.36545014, -0.5116524, -1560381.8, -182336.84, 0.0, 9.999603, 9.999439 
2.946304e+3, 1.6936964e+2, -1536336.0, -1743561.5, -114419.516, -0.18349059, -0.3720955, -1485587.4, -205442.44, 0.0, 10.00043, 9.997472 
2.9458922e+3, 1.793601e+2, -1168717.8, -1336114.1, 23626.879, -0.035451423, -0.29584372, -1165446.9, 16805.996, 0.0, 10.001432, 9.999153 
2.945481e+3, 1.8935439e+2, -1010155.5, -819046.5, 31743.148, -0.08663493, -0.18711369, -813911.94, 270392.6, 0.0, 10.000244, 10.002553 
2.9450703e+3, 1.9934925e+2, -1266960.9, -1085827.6, -38780.035, -0.11091984, -0.114626095, -1077874.1, -91526.69, 0.0, 9.998574, 10.000899 
2.9446593e+3, 2.0934032e+2, -1059336.4, -1055369.4, -79587.46, -0.13883312, -0.19488712, -977740.7, -89302.91, 0.0, 9.999962, 9.999695 
2.944249e+3, 2.1933042e+2, -837990.9, -965345.8, -30153.258, -0.119557984, -0.34006867, -831212.4, -40673.566, 0.0, 10.000987, 9.999231 
2.943843e+3, 2.2932218e+2, -593974.06, -664192.56, 82669.61, 0.044502642, -0.33415094, -539267.25, 153350.05, 0.0, 10.001546, 10.000261 
2.9434368e+3, 2.3931423e+2, -635901.3, -795231.5, 19406.885, 0.20282637, -0.3337982, -633571.56, -38878.473, 0.0, 10.001181, 9.998944 
2.9430228e+3, 2.4930699e+2, -666806.0, -810339.06, -33671.207, -0.07102161, -0.07969949, -659299.7, -162528.13, 0.0, 10.000648, 9.998341 
2.9426083e+3, 2.5929964e+2, -692057.6, -745903.7, 44794.563, -0.35357603, 0.14114226, -666717.8, -267866.1, 0.0, 9.999583, 9.998708 
2.9422018e+3, 2.6928842e+2, -429029.94, -393333.44, 154917.81, -0.09062824, -0.11792705, -255239.11, 45716.38, 0.0, 10.000021, 10.00018 
2.9417953e+3, 2.792768e+2, -353423.66, -265241.38, 64649.824, 0.19605078, -0.520354, -231078.89, -28017.473, 0.0, 9.999595, 10.000666 
2.941378e+3, 2.892699e+2, -126132.43, 60873.457, -50301.906, -0.30770928, -0.5374347, 73545.29, 178672.66, 0.0, 9.999874, 10.002053 
2.9409695e+3, 2.99269e+2, -549266.7, -757755.06, -42959.098, 0.25325975, 0.10623784, -540761.9, -533612.25, 0.0, 9.999078, 9.996173 
2.957525e+3, 1.398042e+2, -1622012.6, -1953750.9, 29586.752, -0.5738527, -0.33729473, -1619394.5, -49515.82, 0.0, 10.001708, 9.997517 
2.9571185e+3, 1.4979221e+2, -1330462.0, -1390337.1, -47015.832, -0.16908225, -0.7025234, -1304661.4, 167337.19, 0.0, 10.001584, 10.000733 
2.9567042e+3, 1.5978579e+2, -1613277.4, -1574426.3, -72262.29, -0.53813136, -0.5990524, -1519024.0, -144963.63, 0.0, 9.999357, 9.999905 
2.9562944e+3, 1.6978034e+2, -1352420.9, -1363970.6, -59067.92, -0.34429216, -0.32282448, -1298846.1, -22723.549, 0.0, 10.000426, 10.000077 
2.9558843e+3, 1.7977436e+2, -1137315.9, -1236285.0, 21339.574, -0.20786938, -0.10721969, -1132910.8, 45279.613, 0.0, 10.001267, 9.999923 
2.9554746e+3, 1.8976448e+2, -1143066.3, -1099499.1, -52635.457, 0.06469835, -0.3076227, -1064317.6, 15964.664, 0.0, 10.0002365, 10.000636 
2.955065e+3, 1.9975455e+2, -1349016.8, -1280702.9, -47967.48, 0.30133498, -0.5258237, -1255973.8, -273599.7, 0.0, 9.998622, 9.9995575 
2.9546535e+3, 2.0974703e+2, -1048116.3, -1114444.3, -29201.123, 0.09204847, -0.38947096, -1037092.56, -152638.75, 0.0, 10.000203, 9.999223 
2.9542416e+3, 2.1973963e+2, -704788.4, -876388.94, -6204.034, -0.19372384, -0.24622472, -704564.4, 81968.36, 0.0, 10.001716, 9.999517 
2.9538348e+3, 2.2973229e+2, -489870.6, -561799.2, 64199.996, -0.15909731, -0.19957419, -452247.75, 236351.97, 0.0, 10.002019, 10.000751 
2.953428e+3, 2.3972468e+2, -419235.44, -541635.3, -37889.047, -0.07789197, -0.21978602, -408456.13, 182212.31, 0.0, 10.001941, 10.000336 
2.9530162e+3, 2.4971637e+2, -505492.53, -535783.75, -88401.43, -0.0052930955, -0.24928817, -430948.66, 61804.145, 0.0, 10.000804, 10.000208 
2.9526037e+3, 2.597081e+2, -537341.44, -518264.22, 63575.805, 0.042361084, -0.2703439, -463515.44, -68678.03, 0.0, 9.999854, 10.000193 
2.9521963e+3, 2.6970047e+2, -317758.03, -315948.06, 202925.95, 0.14585806, -0.2396436, -113925.07, 182984.03, 0.0, 10.000566, 10.000505 
2.9517877e+3, 2.7969235e+2, -97909.07, -160765.06, 80386.13, 0.13154408, -0.28603828, -43025.715, 155958.53, 0.0, 10.001289, 10.000613 
2.951368e+3, 2.8968227e+2, -76476.68, -52085.926, -81268.25, -0.47559497, -0.53944117, 17896.887, 118978.15, 0.0, 10.00065, 10.00097 
2.950961e+3, 2.9967812e+2, -528765.1, -797646.5, -163622.78, 0.3164129, -0.08729166, -451435.38, -448299.03, 0.0, 9.999173, 9.995911 
2.9675248e+3, 1.4021717e+2, -1359157.6, -1566949.4, 41117.777, 0.022823581, -0.11640243, -1351317.1, 214529.55, 0.0, 10.002411, 9.999815 
2.9671088e+3, 1.5020528e+2, -1327481.3, -1366838.9, 32035.063, -0.44615704, -0.5302445, -1309563.5, 158397.14, 0.0, 10.001542, 10.000914 
2.9666972e+3, 1.6019984e+2, -1362728.0, -1407674.9, 79980.22, -0.41536537, -0.3283067, -1302123.8, 67888.984, 0.0, 10.000856, 10.000335 
2.9662877e+3, 1.7019334e+2, -1141725.3, -1181124.4, 77849.664, -0.2854769, -0.21129175, -1081121.4, 190957.5, 0.0, 10.001461, 10.000855 
2.9658774e+3, 1.8018639e+2, -1046859.9, -1227861.6, 48510.035, -0.21554945, -0.14711554, -1034678.56, 139471.53, 0.0, 10.002009, 9.999642 
2.9654673e+3, 1.9017565e+2, -914467.6, -1152334.1, -55304.594, 0.039834693, -0.31647763, -902237.94, 174015.73, 0.0, 10.002554, 9.999152 
2.9650584e+3, 2.0016444e+2, -868478.3, -1176418.6, 8139.078, 0.38441142, -0.5145985, -868263.4, 110098.74, 0.0, 10.002521, 9.998392 
2.9646477e+3, 2.1015696e+2, -761339.56, -995354.56, 73178.73, 0.18355772, -0.3167103, -740340.25, 140101.83, 0.0, 10.002363, 9.99896 
2.964236e+3, 2.2014984e+2, -753173.6, -895552.8, 67560.14, -0.11127199, -0.12837602, -726218.8, 56298.88, 0.0, 10.001451, 9.999487 
2.9638273e+3, 2.3014177e+2, -723493.94, -626112.3, 115004.16, -0.19283497, -0.18300998, -549916.2, 134672.05, 0.0, 10.000225, 10.001167 
2.9634196e+3, 2.4013382e+2, -871824.5, -726954.75, -13602.895, -0.15246528, -0.28204075, -725688.56, -139031.23, 0.0, 9.998738, 10.000616 
2.9630083e+3, 2.5012538e+2, -587096.94, -486236.0, -152396.8, 0.038494375, -0.3911142, -376142.3, 112599.37, 0.0, 9.999897, 10.000962 
2.9625973e+3, 2.6011708e+2, -491343.2, -458103.3, -58611.98, 0.250988, -0.5020615, -413800.47, -22976.021, 0.0, 10.000092, 10.000459 
2.9621887e+3, 2.7011228e+2, -463730.53, -324265.1, 95339.24, 0.19402824, -0.25666627, -275878.28, 16991.193, 0.0, 9.999386, 10.000962 
2.9617783e+3, 2.8010675e+2, -594815.9, -449465.3, -7049.135, -0.010085313, -0.08992078, -449124.25, -254203.44, 0.0, 9.9982195, 10.000073 
2.9613596e+3, 2.9009432e+2, -240433.47, -204854.11, -91670.96, -0.5431003, -0.5316619, -129262.65, -32222.693, 0.0, 9.999967, 10.000186 
2.9609537e+3, 3.0008617e+2, -308449.03, -666891.44, -187428.78, 0.4421538, -0.4396367, -228344.6, -228344.6, 0.0, 10.000752, 9.996008 
2.977521e+3, 1.4063106e+2, -1379829.1, -1243050.5, -107201.69, 0.20566604, 0.13428949, -1184281.3, 377523.88, 0.0, 10.000943, 10.0027075 
2.9770982e+3, 1.5062079e+2, -1405953.9, -1343583.8, -21712.379, -0.8228563, -0.23150685, -1336769.8, 127130.164, 0.0, 10.000773, 10.001427 
2.976692e+3, 1.6061719e+2, -1443736.9, -1439403.4, 40117.395, -0.24018998, 0.118064314, -1401394.3, -35460.64, 0.0, 10.000286, 10.000387 
2.9762822e+3, 1.7060745e+2, -1203883.3, -1236002.3, 83291.516, -0.172989, -0.08366047, -1135117.1, 132907.48, 0.0, 10.001157, 10.000623 
2.975871e+3, 1.8059714e+2, -1123364.0, -1363562.0, 38479.48, -0.27744678, -0.30063677, -1117350.1, 52772.78, 0.0, 10.00189, 9.998777 
2.9754594e+3, 1.905883e+2, -971658.4, -1314399.1, -67060.164, -0.19588417, -0.17251784, -959004.6, 113209.81, 0.0, 10.00267, 9.998015 
2.9750487e+3, 2.0057927e+2, -870320.06, -1227526.4, -11777.504, -0.048850536, -0.056221038, -869932.1, 104376.14, 0.0, 10.002654, 9.998004 
2.9746407e+3, 2.1057005e+2, -759566.06, -1020866.4, 41417.77, 0.0458492, -0.008771701, -753158.25, 123245.38, 0.0, 10.002467, 9.998752 
2.9742315e+3, 2.2056083e+2, -650787.2, -789248.3, 10979.1045, 0.03630268, -0.025882842, -649922.0, 128573.875, 0.0, 10.001807, 10.000083 
2.9738215e+3, 2.3055059e+2, -666832.7, -558458.3, 45789.285, 0.007165158, -0.3537369, -541702.5, 138881.11, 0.0, 10.000303, 10.001662 
2.9734114e+3, 2.4054094e+2, -848112.06, -781913.1, -24758.25, -0.043592673, -0.62442607, -773678.0, -191010.64, 0.0, 9.999083, 10.000109 
2.972999e+3, 2.5053424e+2, -640983.06, -709021.1, -125796.516, -0.10770259, -0.41830078, -544686.9, -59945.438, 0.0, 10.000268, 9.999294 
2.9725862e+3, 2.605278e+2, -294696.75, -342143.63, -138204.63, -0.15859964, -0.22268213, -178194.22, 208617.53, 0.0, 10.0012045, 10.000755 
2.9721755e+3, 2.7052262e+2, -353763.72, -136442.23, -41880.492, -0.24104722, -0.1171702, -128650.695, 160205.75, 0.0, 9.999453, 10.002296 
2.9717645e+3, 2.805167e+2, -458863.53, -176364.34, -39755.293, -0.33820754, -0.10913451, -170876.31, 20030.836, 0.0, 9.998098, 10.002072 
2.9713565e+3, 2.9050612e+2, -32629.201, 95063.65, 8496.639, -0.03553599, -0.563714, 95626.53, 188632.86, 0.0, 10.000421, 10.002101 
2.9709473e+3, 3.005019e+2, 235969.48, -254275.77, -21136.785, 0.34068334, -0.19279774, 236879.11, 236879.11, 0.0, 10.003733, 9.997453 
2.9875106e+3, 1.41041e+2, -1536196.5, -1215013.0, -165672.58, -0.027998658, 0.026345972, -1144873.0, 412915.5, 0.0, 9.999317, 10.003721 
2.9870898e+3, 1.5103194e+2, -1673392.4, -1631686.6, -156093.27, -0.8035395, -0.1239507, -1495059.5, -35183.727, 0.0, 9.999541, 10.00008 
2.9866865e+3, 1.6102687e+2, -1578405.6, -1515039.4, -123273.17, 0.08020551, 0.14682658, -1419442.9, -57516.04, 0.0, 9.999359, 10.000356 
2.986277e+3, 1.7101775e+2, -1239347.9, -1167630.0, -25367.117, 0.08243472, -0.06716962, -1159564.5, 104441.43, 0.0, 10.0005455, 10.001421 
2.9858664e+3, 1.8100758e+2, -1212430.6, -1442923.5, -26492.107, -0.059814487, -0.31732336, -1209425.0, -43326.824, 0.0, 10.001433, 9.99848 
2.9854533e+3, 1.9099869e+2, -1154477.5, -1448620.3, -107338.06, -0.16299929, -0.1532051, -1119473.5, -51280.582, 0.0, 10.001628, 9.997607 
2.985041e+3, 2.0099045e+2, -1050992.3, -1293290.8, -8261.073, -0.180397, 0.045938317, -1050710.9, -80429.016, 0.0, 10.001322, 9.998203 
2.9846334e+3, 2.1098135e+2, -869332.5, -1070718.1, 79423.65, -0.05034042, 0.0822692, -841778.9, 30596.213, 0.0, 10.0016365, 9.998842 
2.9842255e+3, 2.2097246e+2, -780765.06, -835180.4, 43987.504, 0.12717006, 0.07382522, -756250.75, 18212.127, 0.0, 10.00088, 10.000227 
2.9838145e+3, 2.3096253e+2, -726580.0, -554933.3, 18451.44, 0.11166417, -0.2424145, -552972.25, 123576.945, 0.0, 9.999849, 10.0018835 
2.983403e+3, 2.409522e+2, -938502.7, -913606.94, 13575.165, 0.025486177, -0.5621721, -907636.5, -328995.0, 0.0, 9.9989195, 9.999272 
2.9829898e+3, 2.5094527e+2, -510198.7, -718059.56, 46643.52, -0.23894244, -0.29913348, -500211.8, -19493.455, 0.0, 10.001599, 9.998555 
2.9825777e+3, 2.609391e+2, -113516.72, -310322.22, 283.69183, -0.39437374, 0.00524749, -113516.31, 269270.8, 0.0, 10.002796, 10.000199 
2.9821658e+3, 2.7093259e+2, -139242.8, 45181.816, -47348.293, -0.38044792, -0.050554827, 56627.457, 341470.75, 0.0, 10.000664, 10.002937 
2.9817548e+3, 2.8092596e+2, -434167.13, -86979.51, -13036.088, -0.326246, -0.196585, -86490.72, 100408.63, 0.0, 9.998068, 10.002685 
2.9813534e+3, 2.9091796e+2, -15380.893, 251417.4, -1691.0391, 0.44228482, -0.51652807, 251428.13, 340400.75, 0.0, 10.000044, 10.003321 
2.9809377e+3, 3.009165e+2, 33263.438, -183123.23, -32448.45, -0.13723622, -0.012428102, 38024.516, 38024.516, 0.0, 10.001839, 9.998803 
2.9974985e+3, 1.4144892e+2, -1654700.5, -1248021.4, -91883.46, -0.38329297, -0.207677, -1228225.3, 325561.38, 0.0, 9.998504, 10.003888 
2.9970825e+3, 1.5143982e+2, -1818057.3, -1913854.1, -155265.81, -0.66967344, -0.1991126, -1703469.6, -247588.5, 0.0, 9.999523, 9.998151 
2.996681e+3, 1.6143201e+2, -1548428.9, -1494988.0, -52058.734, 0.35709086, -0.06643613, -1463192.8, -105229.76, 0.0, 9.999555, 10.0004015 
2.9962733e+3, 1.7142476e+2, -1186033.6, -996037.4, 10724.194, 0.43953145, -0.19616796, -995434.0, 264584.56, 0.0, 10.000293, 10.002723 
2.995863e+3, 1.8141703e+2, -1216645.5, -1339796.1, -35626.043, 0.2344503, -0.31284472, -1207082.0, -44999.65, 0.0, 10.000995, 9.999377 
2.995448e+3, 1.914064e+2, -1123083.1, -1383268.1, -96974.86, -0.05878187, -0.3730674, -1090916.0, -26722.857, 0.0, 10.001678, 9.998009 
2.9950348e+3, 2.0139687e+2, -1065068.4, -1222440.4, -14595.554, -0.18862154, -0.33003786, -1063726.1, -97432.336, 0.0, 10.000883, 9.998889 
2.9946268e+3, 2.1139188e+2, -827287.9, -918031.75, 83215.98, -0.08234796, 0.016738554, -777878.44, 90467.055, 0.0, 10.001365, 10.0000105 
2.9942167e+3, 2.2138588e+2, -682484.94, -773691.3, 5133.585, -0.08117857, 0.23173258, -682196.94, 88209.27, 0.0, 10.00144, 10.000381 
2.993804e+3, 2.3137799e+2, -745362.9, -653579.06, -52138.484, -0.10804034, 0.18924433, -630012.44, 42470.113, 0.0, 10.0000305, 10.001158 
2.993393e+3, 2.4137028e+2, -738153.25, -709226.4, 65310.348, -0.108875714, 0.1511308, -656797.1, -82241.125, 0.0, 9.999767, 10.0002775 
2.992984e+3, 2.513609e+2, -235811.77, -449972.06, 175264.45, -0.24518967, 0.052841738, -137505.0, 339140.03, 0.0, 10.0028515, 9.999834 
2.9925746e+3, 2.6135138e+2, 122957.375, -197877.38, 2661.2847, -0.27992547, -0.04003032, 122979.45, 501715.53, 0.0, 10.004323, 10.000293 
2.9921657e+3, 2.7134252e+2, -138323.22, -115186.67, -140367.11, 0.3266166, -0.19887699, 14088.057, 294907.75, 0.0, 10.001315, 10.001579 
2.9917553e+3, 2.8133446e+2, -379732.0, -230552.67, -26194.844, 0.6531533, -0.32590064, -226086.73, -43191.383, 0.0, 9.999066, 10.001283 
2.9913446e+3, 2.91328e+2, -96158.84, -27139.615, -11655.221, 0.40708873, -0.29392964, -25224.545, 59732.887, 0.0, 10.000415, 10.001359 
2.9909313e+3, 3.0131903e+2, 115750.414, -36568.832, -91101.36, -0.12762862, -0.4038115, 158333.14, 158333.14, 0.0, 10.00168, 10.000082 
3.0074918e+3, 1.4185843e+2, -1719651.1, -1344879.1, -40619.6, -0.14219208, -0.4680017, -1340527.0, 209239.39, 0.0, 9.998081, 10.003519 
3.0070752e+3, 1.5185426e+2, -1316355.4, -1616455.5, 138852.72, -0.6620108, -0.002419333, -1261967.0, 189847.52, 0.0, 10.002696, 9.998639 
3.006672e+3, 1.6184615e+2, -989771.4, -1448156.5, 159649.95, 0.024021527, 0.15447833, -939648.1, 414252.5, 0.0, 10.004248, 9.998438 
3.0062598e+3, 1.7183353e+2, -1149144.0, -1315555.5, -25651.281, -0.18064266, -0.23551078, -1145279.8, 110733.48, 0.0, 10.0019, 9.999712 
3.0058512e+3, 1.8182266e+2, -1298225.5, -1427467.1, -144332.77, -0.23015575, -0.5015586, -1204707.8, -46596.74, 0.0, 10.000502, 9.999038 
3.005441e+3, 1.9181739e+2, -907193.3, -1151707.5, -172375.73, -0.14838615, -0.1818658, -818120.8, 242046.48, 0.0, 10.002459, 9.999225 
3.0050302e+3, 2.0180728e+2, -556591.9, -920621.5, -48558.93, -0.117546424, -0.28971666, -550225.8, 412043.75, 0.0, 10.003997, 9.999465 
3.0046198e+3, 2.1179885e+2, -744169.44, -634409.3, 95200.336, -0.070638284, -0.48548755, -579403.44, 284945.2, 0.0, 10.00087, 10.002119 
3.0042088e+3, 2.217915e+2, -1085487.1, -1206012.9, 68363.19, -0.123933814, -0.4561786, -1054617.5, -288196.44, 0.0, 9.999661, 9.998233 
3.0037972e+3, 2.317839e+2, -350187.78, -804168.2, -111526.92, -0.1021702, -0.20586842, -324269.28, 344238.66, 0.0, 10.004205, 9.998016 
3.003388e+3, 2.417777e+2, -42097.215, -370683.78, -141304.33, -0.012784656, 0.043181486, 10310.211, 580884.7, 0.0, 10.004536, 10.000251 
3.0029812e+3, 2.5176856e+2, -544143.7, -422399.0, 14136.192, 0.087472126, -0.2190234, -420779.16, 51872.727, 0.0, 10.000041, 10.0012455 
3.002571e+3, 2.6175877e+2, -984746.06, -841359.75, -159648.48, 0.008885474, -0.45836812, -738045.6, -363307.2, 0.0, 9.997231, 9.999213 
3.002157e+3, 2.717505e+2, -573385.56, -526064.1, -314488.9, 0.26852942, -0.4324004, -234347.16, 42474.313, 0.0, 9.999294, 9.999596 
3.0017427e+3, 2.817435e+2, -346375.0, -446980.4, -117262.86, 0.25116152, -0.2884511, -269080.9, -90189.375, 0.0, 10.000343, 9.999112 
3.0013275e+3, 2.917386e+2, -436051.13, -350069.78, 33448.41, -0.49248067, 0.03239257, -338590.3, -257651.0, 0.0, 9.998928, 9.999706 
3.0009267e+3, 3.0172685e+2, -331098.0, -61988.49, 5892.179, 0.17021735, -0.3243848, -61859.54, -61859.54, 0.0, 9.99804, 10.001493 
