coord_x,coord_y,stress_xx,stress_yy,tau_xy,velocity_x,velocity_y,stress_1,eps,damage,lx,ly
4.999357e+0, 1.2495893e+2, -1645349.0, -1534173.0, 107267.234, -0.055766698, 0.41778868, -1468945.9, 246497.7, 0.0026923823, 9.999711, 10.001378 
5.000068e+0, 1.349598e+2, -1440607.0, -1290258.9, -7546.1226, -0.0007044425, 0.21721107, -1289881.1, 327542.03, 0.0015911749, 10.000086, 10.00219 
5.000362e+0, 1.4496316e+2, -1532430.4, -1637980.1, -56916.67, 0.016525924, 0.49764052, -1507586.4, 11801.38, 0.0007108368, 10.000325, 9.998999 
5.0000346e+0, 1.5496176e+2, -1415732.6, -1526226.9, -68891.69, -0.021180244, 0.40100268, -1382671.6, 38736.42, 0.00020845741, 10.000437, 9.999041 
4.9999255e+0, 1.649611e+2, -1357885.4, -1455257.3, -47957.457, -0.019863537, 0.43829235, -1338232.1, -14815.3, 0.000030560106, 10.000197, 9.998974 
5.000007e+0, 1.749604e+2, -1354191.4, -1407702.8, -2176.4343, 0.019602153, 0.42589372, -1354103.0, -128681.266, 0.0000010193884, 9.99957, 9.998929 
5.0000733e+0, 1.8495958e+2, -1255988.3, -1318437.8, 52505.5, 0.023321455, 0.4589061, -1226124.5, -98694.37, 0.0, 9.99962, 9.998841 
5.000096e+0, 1.9495851e+2, -1057508.6, -1178966.0, 32474.695, -0.009813755, 0.42420307, -1049371.0, -19927.787, 0.0, 10.000337, 9.998785 
5.0000155e+0, 2.0495708e+2, -962599.0, -1089657.3, 15295.6875, -0.019019054, 0.41097435, -960783.6, -29326.762, 0.0, 10.000356, 9.99871 
4.9997678e+0, 2.1495502e+2, -971299.06, -1047816.3, 19646.361, -0.008032793, 0.2887208, -966549.5, -133075.72, 0.0, 9.9996395, 9.998672 
4.9997926e+0, 2.249541e+2, -899782.56, -966120.8, 55395.254, 0.0028870734, 0.3368857, -868385.25, -132903.25, 0.0, 9.9994755, 9.998638 
5.0001127e+0, 2.3495412e+2, -743643.5, -841039.5, 40031.965, 0.014578083, 0.42640528, -729301.44, -91817.93, 0.0, 9.999878, 9.9986315 
4.9999413e+0, 2.4495274e+2, -677548.8, -790352.0, 35655.156, 0.0020771495, 0.4445443, -667223.94, -127725.54, 0.0, 9.999793, 9.998347 
4.9992865e+0, 2.5494966e+2, -667158.1, -744217.7, 46825.26, -0.035693184, 0.25584766, -645048.4, -203518.31, 0.000000000017365094, 9.999231, 9.998263 
4.9992618e+0, 2.6494807e+2, -449986.75, -411836.88, 87104.4, -0.040699176, 0.19972749, -341743.28, 1800.7103, 0.000000288742, 9.9992895, 9.999841 
4.999876e+0, 2.7494812e+2, -253608.06, -264470.9, 69807.766, -0.01307661, 0.17308241, -189020.73, 56518.406, 0.0000032414011, 9.999954, 9.999859 
4.999996e+0, 2.8494936e+2, -159647.67, -163110.95, 18609.049, 0.001435078, 0.31254485, -142689.86, 4835.8516, 0.00001724438, 9.9999075, 9.999897 
4.9995393e+0, 2.9495063e+2, -166983.02, -113475.234, -39890.24, -0.00795336, 0.3995467, -92197.87, -42682.24, 0.000074921634, 9.999159, 9.999928 
4.9994946e+0, 3.04949e+2, -224076.97, -266041.3, -27874.553, -0.007590185, 0.30499464, -210170.14, -210170.14, 0.0002850154, 9.999077, 9.998587 
4.9999675e+0, 3.1494722e+2, 125385.266, 345577.97, -16537.203, 0.014383819, 0.22114173, 346813.03, 346813.03, 0.0007432572, 9.999506, 10.002599 
1.4998019e+1, 1.2496121e+2, -1857226.8, -1910392.6, 92952.414, -0.17024249, 0.3873715, -1787130.9, -71722.516, 0.0025889925, 9.99948, 9.998917 
1.5000254e+1, 1.3495834e+2, -1638082.1, -1667185.9, 14492.881, 0.005076206, 0.108904675, -1632096.3, -14658.669, 0.0015350278, 9.999977, 9.999666 
1.5001075e+1, 1.4496012e+2, -1550996.4, -1636329.0, -62480.277, 0.049893748, 0.35430416, -1518004.3, 1418.4757, 0.00068435894, 10.000169, 9.999097 
1.5000108e+1, 1.5495943e+2, -1431007.9, -1527551.6, -55607.297, -0.062671214, 0.35048822, -1405643.3, 15790.059, 0.00019662973, 10.000323, 9.999096 
1.499979e+1, 1.6495895e+2, -1271610.8, -1241657.9, -79706.56, -0.056977764, 0.3254536, -1175533.0, 147903.05, 0.000026649353, 10.000064, 10.000514 
1.5000072e+1, 1.7495811e+2, -1258584.1, -1184653.8, -16896.504, 0.062297303, 0.1689053, -1180975.1, 44461.188, 0.00000066228677, 9.999471, 10.000521 
1.500019e+1, 1.8495774e+2, -1294875.3, -1356666.5, 71557.914, 0.06931389, 0.17403306, -1247828.1, -120389.66, 0.0, 9.999459, 9.998663 
1.5000305e+1, 1.9495785e+2, -1091786.4, -1217395.9, 69392.53, -0.02760035, 0.29987323, -1060997.5, -31554.912, 0.0, 10.000207, 9.998594 
1.5000021e+1, 2.049573e+2, -957742.25, -1034535.06, -18340.426, -0.056887303, 0.3613362, -953586.8, -22137.145, 0.0, 10.000188, 9.999174 
1.4999291e+1, 2.1495596e+2, -963078.9, -988421.56, 4288.8906, -0.023926174, 0.2891975, -962372.75, -128911.64, 0.0, 9.999478, 9.999164 
1.4999364e+1, 2.2495466e+2, -925514.8, -979192.4, 60491.06, 0.009707588, 0.27263233, -886175.9, -150702.17, 0.0, 9.999325, 9.998628 
1.500031e+1, 2.3495343e+2, -771496.0, -857739.94, 65769.02, 0.042962324, 0.2665129, -735972.75, -98485.36, 0.0, 9.9997225, 9.998597 
1.4999834e+1, 2.4495272e+2, -656713.8, -715436.7, 6474.7827, 0.0069146035, 0.32301605, -656008.4, -116512.484, 0.0, 9.999671, 9.998927 
1.4997847e+1, 2.5495237e+2, -645203.56, -656454.94, 34236.816, -0.10752737, 0.3706901, -616133.3, -174632.36, 0.0, 9.999066, 9.998952 
1.4997794e+1, 2.649521e+2, -476596.44, -434562.2, 103348.27, -0.12040631, 0.40882316, -350115.66, -6613.335, 0.00000013049092, 9.999171, 9.999749 
1.4999656e+1, 2.7495193e+2, -289653.47, -300060.9, 102201.85, -0.035938278, 0.4009547, -192522.95, 52976.184, 0.0000023602508, 9.999799, 9.999701 
1.499995e+1, 2.8495124e+2, -266431.56, -351989.22, -16800.686, 0.0016129615, 0.41556075, -263250.72, -115745.46, 0.000014211254, 9.999789, 9.998665 
1.499861e+1, 2.9494908e+2, -278648.4, -298829.13, -53838.637, -0.025758548, 0.30948535, -233962.73, -184433.5, 0.0000647229, 9.998969, 9.998757 
1.4998518e+1, 3.0494776e+2, -203294.02, -173424.31, -16971.357, -0.015294385, 0.27090737, -165752.16, -165752.16, 0.00025372737, 9.998921, 9.999308 
1.49999e+1, 3.1494856e+2, 71468.484, 319599.75, 36314.875, 0.047190856, 0.41459283, 324805.34, 324805.34, 0.0006708774, 9.999191, 10.0025835 
2.4997598e+1, 1.24961846e+2, -1778687.1, -1985710.0, 65307.04, -0.20214552, 0.30400965, -1759807.4, -44414.137, 0.002469872, 10.000532, 9.99787 
2.5000447e+1, 1.3495877e+2, -1590460.3, -1781004.0, 66119.59, -0.011464566, 0.11538417, -1569764.3, 47667.7, 0.001465867, 10.000921, 9.998418 
2.500167e+1, 1.4496e+2, -1465266.4, -1562462.8, 54372.043, 0.07679925, 0.35617906, -1440939.3, 78484.96, 0.0006493342, 10.000632, 9.999367 
2.5000668e+1, 1.549588e+2, -1503317.1, -1533906.1, 67364.19, -0.002407975, 0.26329985, -1449533.0, -28097.123, 0.00018140074, 9.999712, 9.999338 
2.500004e+1, 1.6495834e+2, -1332511.1, -1285875.0, 42919.74, -0.015887273, 0.23803553, -1260348.0, 63089.527, 0.000022322774, 9.999726, 10.000358 
2.499987e+1, 1.7495818e+2, -1096166.5, -1119040.6, -32532.184, 0.040612347, 0.1563702, -1073119.5, 152314.0, 0.00000035252413, 10.0006695, 10.000374 
2.4999851e+1, 1.8495795e+2, -1121487.6, -1245686.6, 15057.446, 0.041766655, 0.16868857, -1119688.1, 7746.385, 0.0, 10.000525, 9.998903 
2.5000125e+1, 1.9495766e+2, -1231243.6, -1252432.1, 39938.91, -0.006379243, 0.222038, -1200517.8, -171077.63, 0.0, 9.999122, 9.998861 
2.4999851e+1, 2.049573e+2, -1150215.3, -1128408.4, -2525.5278, -0.020910738, 0.29022977, -1128119.6, -196674.28, 0.0, 9.998858, 9.999167 
2.4999021e+1, 2.1495675e+2, -937307.25, -978361.1, -23004.49, -0.0026223764, 0.28659293, -927003.0, -93550.9, 0.0, 9.999663, 9.999137 
2.4999042e+1, 2.2495572e+2, -809033.9, -916887.4, 52895.34, 0.0113965385, 0.2961376, -787422.44, -51959.426, 0.0, 10.000086, 9.998682 
2.4999999e+1, 2.3495418e+2, -720120.5, -830422.25, 57965.676, 0.027623616, 0.2454973, -695261.1, -57782.176, 0.0, 10.000049, 9.998623 
2.4999619e+1, 2.4495348e+2, -595197.3, -678956.9, -4168.73, 0.0024986623, 0.3005332, -594990.4, -55503.992, 0.0, 10.000073, 9.998973 
2.4997853e+1, 2.5495344e+2, -481731.2, -576004.6, -28117.902, -0.063559696, 0.3675222, -473981.78, -32494.342, 0.0, 10.000179, 9.998961 
2.4997842e+1, 2.6495305e+2, -375550.63, -428500.8, 49412.02, -0.0718676, 0.41478345, -345967.9, -2478.216, 0.00000003137998, 10.000058, 9.999354 
2.49996e+1, 2.7495238e+2, -328164.75, -359199.9, 18519.73, -0.011744154, 0.3913248, -319520.88, -74029.1, 0.0000016165861, 9.999723, 9.999318 
2.499955e+1, 2.8495082e+2, -319158.72, -417108.84, -64686.723, -0.001704077, 0.35680932, -286998.53, -139493.03, 0.000011342512, 9.999595, 9.998308 
2.499771e+1, 2.9494765e+2, -209782.83, -300520.88, -45748.523, -0.037000883, 0.17303693, -190721.45, -141183.81, 0.00005395602, 9.99961, 9.998429 
2.4997568e+1, 3.0494687e+2, -173312.94, -189727.33, 30354.885, -0.009129467, 0.22068037, -150075.31, -150075.31, 0.00022021512, 9.999266, 9.999036 
2.4999416e+1, 3.1494734e+2, -112891.49, 106494.26, -11143.75, 0.13237548, 0.344964, 107058.86, 107058.86, 0.00059438485, 9.998479, 10.001451 
3.4997886e+1, 1.2496081e+2, -1759927.1, -1923241.5, 49852.28, -0.27667096, 0.12532152, -1745912.3, -30513.9, 0.0023442989, 10.000437, 9.998347 
3.500034e+1, 1.3496114e+2, -1569514.6, -1729992.9, 86366.08, -0.14089097, 0.2572988, -1531866.4, 85539.65, 0.0013882996, 10.000901, 9.998775 
3.500186e+1, 1.449628e+2, -1428655.4, -1467268.1, 9718.051, 0.0028061937, 0.48861468, -1426347.5, 93044.984, 0.0006086515, 10.000555, 10.000054 
3.500144e+1, 1.5495987e+2, -1460624.3, -1428781.4, 43627.82, 0.076344244, 0.15495972, -1398260.5, 23155.313, 0.00016439817, 9.999654, 10.000081 
3.5000527e+1, 1.6495928e+2, -1457898.8, -1532344.8, 66920.11, 0.03454485, 0.15818307, -1418546.0, -95124.414, 0.000017966355, 9.999658, 9.998709 
3.499918e+1, 1.7496045e+2, -1219036.0, -1368789.8, 13303.289, -0.12066014, 0.38544068, -1217863.4, 7551.763, 0.00000014192928, 10.000641, 9.998681 
3.4998813e+1, 1.8495996e+2, -1074629.3, -1122117.3, -44184.93, -0.1378928, 0.41552126, -1048212.7, 79207.61, 0.0, 10.000421, 9.999798 
3.4999326e+1, 1.9495776e+2, -1177120.4, -1122080.4, -2430.2883, -0.023715086, 0.19035263, -1121973.4, -92536.14, 0.0, 9.999045, 9.999791 
3.4999293e+1, 2.0495696e+2, -1185457.9, -1171042.1, 15889.309, 0.016917957, 0.17556308, -1160802.3, -229357.1, 0.0, 9.998734, 9.998935 
3.4998733e+1, 2.1495734e+2, -970925.0, -1019782.56, 16857.924, -0.020436008, 0.29746565, -965672.9, -132226.39, 0.0, 9.999545, 9.998909 
3.4998623e+1, 2.2495715e+2, -805146.3, -873905.5, 44359.8, -0.06059813, 0.38504308, -783403.3, -47952.7, 0.0, 9.999942, 9.999045 
3.4998924e+1, 2.3495638e+2, -711240.6, -779807.5, 66049.79, -0.10675805, 0.38050127, -671106.8, -33649.15, 0.0, 9.999918, 9.999031 
3.4999093e+1, 2.4495502e+2, -634878.2, -738767.1, -9234.144, -0.07792991, 0.3643605, -634063.8, -94593.88, 0.0, 9.999977, 9.998611 
3.49991e+1, 2.5495285e+2, -525008.5, -637370.1, -14506.154, 0.020955097, 0.261197, -523165.94, -81676.664, 0.0, 10.000063, 9.998594 
3.499923e+1, 2.64951e+2, -417851.7, -505226.56, 29305.084, 0.040673733, 0.20681593, -408933.22, -65428.063, 0.0000000045955626, 10.000005, 9.998857 
3.499942e+1, 2.7494952e+2, -376290.7, -436833.53, 17245.902, -0.027094085, 0.1550594, -371722.75, -126206.13, 0.0000011861115, 9.999623, 9.998836 
3.4998563e+1, 2.8494817e+2, -278181.75, -314990.3, -73524.984, -0.082348526, 0.12811853, -220792.63, -73265.99, 0.000009324045, 9.999531, 9.999039 
3.4996548e+1, 2.9494625e+2, -176285.5, -208110.38, -36274.03, -0.14093046, 0.002377333, -152587.19, -103045.71, 0.00004426637, 9.9995165, 9.999109 
3.4996295e+1, 3.0494606e+2, -245958.38, -338280.16, -6804.6226, -0.08357798, 0.12912408, -245459.53, -245459.53, 0.00018818198, 9.999242, 9.998027 
3.4998026e+1, 3.1494358e+2, -272005.9, -214900.7, -7569.1597, 0.096625544, 0.06229138, -213914.45, -213914.45, 0.00052315294, 9.998423, 9.999272 
4.4999227e+1, 1.2496e+2, -1653034.9, -1726433.0, -19987.479, -0.17196189, 0.084175825, -1647944.9, 67462.55, 0.0022184679, 10.000577, 9.999617 
4.499999e+1, 1.3496147e+2, -1760351.4, -1712174.1, 23232.537, -0.16229057, 0.23273039, -1702796.1, -85397.516, 0.0013082918, 9.999125, 9.999753 
4.5001382e+1, 1.4496331e+2, -1635772.0, -1561268.8, 1582.8368, -0.015966995, 0.42958313, -1561235.1, -41853.574, 0.00056754425, 9.999109, 10.000118 
4.5002025e+1, 1.5496065e+2, -1326371.9, -1364369.8, -39887.324, 0.13520782, 0.12790316, -1301189.9, 120213.72, 0.00014805637, 10.000571, 10.000097 
4.5001355e+1, 1.6496003e+2, -1320344.9, -1494251.1, 17196.58, 0.10811138, 0.1398901, -1318660.8, 4750.2905, 0.000013959289, 10.000724, 9.998456 
4.4999486e+1, 1.7496087e+2, -1390761.6, -1481427.8, 51725.555, -0.09325302, 0.3584527, -1367315.3, -141905.9, 0.000000037538413, 9.999579, 9.998425 
4.499874e+1, 1.8496022e+2, -1217502.4, -1188995.4, 26682.223, -0.1288009, 0.38736835, -1172998.3, -45581.746, 0.0, 9.999429, 9.999828 
4.4999018e+1, 1.9495822e+2, -1014848.44, -1041489.44, -15016.746, -0.0057352995, 0.18123701, -1008095.6, 21335.73, 0.0, 10.000153, 9.999817 
4.499901e+1, 2.049574e+2, -954455.1, -1060251.0, 15286.1, 0.044059463, 0.1648703, -952290.75, -20851.432, 0.0, 10.000317, 9.998936 
4.4998768e+1, 2.1495758e+2, -933024.0, -1003193.9, 15401.314, 0.024529792, 0.2663337, -929792.44, -96350.234, 0.0, 9.999807, 9.998899 
4.4998783e+1, 2.2495744e+2, -820777.56, -863268.44, 68580.88, -0.020238634, 0.35256973, -770226.75, -34781.297, 0.0, 9.999759, 9.9992075 
4.4999018e+1, 2.3495696e+2, -665869.44, -742056.6, 56829.703, -0.09351505, 0.3617513, -635547.1, 1902.2708, 0.0, 10.000166, 9.999174 
4.4999436e+1, 2.4495557e+2, -594126.1, -732551.25, -5940.7983, -0.050053325, 0.3421898, -593871.6, -54409.906, 0.0, 10.000322, 9.998483 
4.5000038e+1, 2.5495294e+2, -508154.97, -646415.5, -9367.982, 0.1054736, 0.20847517, -507523.13, -66037.93, 0.0, 10.000252, 9.998439 
4.4999942e+1, 2.649508e+2, -442362.94, -534845.25, 54197.27, 0.12230769, 0.1401905, -417360.94, -73856.65, 0.000000013083459, 9.999925, 9.998685 
4.4999182e+1, 2.7494922e+2, -422603.53, -482204.75, 49094.855, 0.0060698427, 0.09513749, -394972.6, -149454.69, 0.0000010541644, 9.999405, 9.998634 
4.4998184e+1, 2.8494805e+2, -261671.92, -289267.75, 3634.071, -0.06751723, 0.09054196, -261201.39, -113675.07, 0.000008050424, 9.999574, 9.999198 
4.499681e+1, 2.949468e+2, -21078.428, -118650.38, -19780.313, -0.10856811, 0.014639681, -17220.959, 32313.514, 0.00003666787, 10.000526, 9.99924 
4.4996572e+1, 3.049471e+2, -11421.927, -265231.22, -1078.4642, -0.060917463, 0.20514067, -11417.345, -11417.345, 0.00016032506, 10.001013, 9.997675 
4.4997677e+1, 3.1494308e+2, 10668.468, -171032.73, 24031.441, 0.114755236, 0.015961831, 13793.086, 13793.086, 0.00046162336, 10.000753, 9.998449 
5.5000556e+1, 1.2495976e+2, -1512380.4, -1464702.3, -111060.52, -0.16538535, 0.19592075, -1374951.1, 340466.25, 0.0020911084, 10.000679, 10.001377 
5.499905e+1, 1.3495982e+2, -1640213.8, -1485243.3, -21283.912, -0.20608054, 0.045461442, -1482373.3, 135036.1, 0.0012261746, 9.999207, 10.001275 
5.5000037e+1, 1.4496154e+2, -1677578.3, -1655725.9, 42943.848, -0.09810794, 0.18546079, -1622340.1, -102948.96, 0.0005263589, 9.999134, 9.999462 
5.500206e+1, 1.5496121e+2, -1369588.5, -1462206.0, 24352.49, 0.050037965, 0.18483923, -1363575.6, 57822.887, 0.00013276051, 10.0006, 9.9994135 
5.500203e+1, 1.6496067e+2, -1250109.9, -1339159.5, -35268.496, 0.07500515, 0.18595156, -1237834.0, 85571.41, 0.0000106646075, 10.000687, 9.999535 
5.500034e+1, 1.7495933e+2, -1315233.0, -1319191.0, 17273.342, 0.005346045, 0.072741464, -1299825.6, -74408.75, 0.000000007551507, 9.99956, 9.999543 
5.4999334e+1, 1.8495877e+2, -1284128.6, -1314538.1, 42770.344, -0.037713885, 0.0921094, -1253940.9, -126518.086, 0.0, 9.999372, 9.998996 
5.4998845e+1, 1.9495901e+2, -1079375.0, -1167317.4, 20361.406, -0.06582986, 0.19688772, -1074889.5, -45466.84, 0.0, 10.000117, 9.998971 
5.4998636e+1, 2.0495863e+2, -951456.4, -1031069.25, -11223.784, -0.04860747, 0.25373667, -949904.3, -18476.701, 0.0, 10.000223, 9.999178 
5.499873e+1, 2.1495743e+2, -925901.75, -970378.75, 6192.064, 0.014694029, 0.19263181, -925055.75, -91616.37, 0.0, 9.999734, 9.999158 
5.4999167e+1, 2.2495657e+2, -832188.5, -872486.9, 75025.94, 0.01638373, 0.19349764, -774653.2, -39205.547, 0.0, 9.999693, 9.999177 
5.4999995e+1, 2.3495604e+2, -679345.56, -753122.1, 81254.62, -0.03681111, 0.19905026, -626997.9, 10455.071, 0.0, 10.000089, 9.999136 
5.5000305e+1, 2.4495517e+2, -597385.2, -725040.2, -15129.081, -0.020511482, 0.23119411, -595616.6, -56155.133, 0.0, 10.000265, 9.99856 
5.500023e+1, 2.5495377e+2, -518492.88, -638106.56, -3321.0024, 0.07179128, 0.20919661, -518400.75, -76925.52, 0.0, 10.0001335, 9.998548 
5.4999614e+1, 2.649525e+2, -438633.47, -521474.0, 25419.475, 0.071154416, 0.21963352, -431455.5, -87968.64, 0.000000016276152, 9.999894, 9.998794 
5.499857e+1, 2.7495143e+2, -422185.0, -469864.44, 37569.15, -0.020862393, 0.20971274, -401530.06, -156033.75, 0.00000094951764, 9.999348, 9.998751 
5.499809e+1, 2.8495046e+2, -291759.9, -346496.63, 29586.918, -0.058804896, 0.23813105, -278824.25, -131319.19, 0.0000068870954, 9.999556, 9.998813 
5.4998195e+1, 2.9494914e+2, -61856.69, -187262.84, 28980.543, -0.053630963, 0.20381942, -55483.375, -5965.908, 0.00003048685, 10.000452, 9.998806 
5.499805e+1, 3.0494994e+2, 11319.285, -200373.17, -13612.575, -0.03830917, 0.43722838, 12191.032, 12191.032, 0.0001366128, 10.000952, 9.998147 
5.499765e+1, 3.149458e+2, 40642.004, -91244.54, 36679.906, -0.01452449, 0.18852845, 50156.87, 50156.87, 0.00040785797, 10.000688, 9.999024 
6.500091e+1, 1.2496071e+2, -1933917.1, -1644550.0, 35789.8, -0.032350715, 0.2732892, -1640189.1, 75220.86, 0.0019647046, 9.997655, 10.001613 
6.499937e+1, 1.349596e+2, -1495376.6, -1407894.3, -18845.037, -0.13089392, 0.002512805, -1404007.4, 213402.25, 0.0011417874, 10.000152, 10.001361 
6.500039e+1, 1.4496058e+2, -1469963.6, -1591056.0, 19700.0, -0.04578469, 0.0804692, -1466839.4, 52559.363, 0.0004823996, 10.000718, 9.999135 
6.500213e+1, 1.5496145e+2, -1537861.6, -1576894.6, 4248.964, 0.056378882, 0.22997914, -1537404.5, -116005.45, 0.00011742101, 9.999598, 9.999099 
6.5002143e+1, 1.6496143e+2, -1387659.1, -1333330.0, -53696.316, 0.08798064, 0.26631477, -1300318.1, 23083.314, 0.000008467286, 9.999436, 10.000178 
6.5000796e+1, 1.7495996e+2, -1190712.0, -1187821.5, -54427.24, 0.07350276, 0.07797103, -1134820.3, 90590.67, 0.000000004638606, 10.000119, 10.0001745 
6.499968e+1, 1.8495947e+2, -1166957.8, -1274940.6, 8561.495, 0.023839418, 0.08287311, -1166283.1, -38868.09, 0.0, 10.000258, 9.998832 
6.4998657e+1, 1.9495998e+2, -1135014.9, -1213747.3, 17046.607, -0.07470916, 0.22847629, -1131482.5, -102068.664, 0.0, 9.999818, 9.9987955 
6.4998543e+1, 2.0495938e+2, -1007449.5, -1070083.0, 7014.161, -0.05637717, 0.2798272, -1006673.6, -75252.98, 0.0, 9.999885, 9.999078 
6.499941e+1, 2.149576e+2, -844284.7, -941717.6, -17924.531, 0.08392626, 0.17102978, -841091.8, -7655.396, 0.0, 10.00034, 9.9990635 
6.4999986e+1, 2.2495644e+2, -767183.06, -842994.6, 44267.008, 0.1121812, 0.14872064, -746810.06, -11362.968, 0.0, 10.000152, 9.999162 
6.500027e+1, 2.349559e+2, -793843.3, -807539.0, 32712.52, 0.02750798, 0.15659826, -767269.56, -129816.63, 0.0, 9.999302, 9.999144 
6.500029e+1, 2.4495533e+2, -699674.94, -725426.25, -8172.4517, 0.0057318644, 0.19597632, -697300.3, -157841.81, 0.0, 9.9993305, 9.999028 
6.5000093e+1, 2.549546e+2, -472096.8, -564216.1, 14031.797, 0.048806217, 0.1986669, -470006.88, -28542.047, 0.0, 10.0002165, 9.999034 
6.4999425e+1, 2.6495382e+2, -332118.84, -470387.66, 46843.035, 0.0328555, 0.2323339, -317743.75, 25727.797, 0.00000000394634, 10.000617, 9.998807 
6.49984e+1, 2.74953e+2, -234231.56, -373362.8, 34480.145, -0.03004233, 0.24444614, -226155.34, 19323.176, 0.0000007712445, 10.000623, 9.9987955 
6.499823e+1, 2.8495178e+2, -217897.23, -353136.2, 52564.68, -0.02663481, 0.26581314, -199869.53, -52378.617, 0.000006042053, 10.000239, 9.998439 
6.4999056e+1, 2.949499e+2, -252963.3, -320402.56, 33972.992, 0.053229857, 0.20629585, -238816.67, -189304.34, 0.000026514133, 9.999321, 9.998434 
6.499884e+1, 3.049506e+2, -223687.19, -263128.4, 17076.676, 0.04690261, 0.42646292, -217321.11, -217321.11, 0.00011960156, 9.999119, 9.9986 
6.4997697e+1, 3.1494763e+2, -47949.273, -30148.4, 28987.65, -0.012254851, 0.25613177, -8725.552, -8725.552, 0.000365328, 9.999627, 9.999967 
7.49997e+1, 1.24962725e+2, -2003853.8, -1800197.1, 103755.07, 0.021705667, 0.3209655, -1756649.8, -41262.727, 0.0018421272, 9.997703, 10.00052 
7.5000536e+1, 1.3496073e+2, -1579952.0, -1596898.3, 77677.3, -0.06177495, 0.096852496, -1510287.1, 107113.055, 0.0010580781, 10.00021, 10.000035 
7.500188e+1, 1.4496048e+2, -1467153.1, -1587706.8, -32158.252, -0.0022251045, 0.11642253, -1459111.1, 60292.902, 0.0004375462, 10.000728, 9.999155 
7.500188e+1, 1.5496133e+2, -1533948.3, -1578161.3, -26194.72, 0.03970997, 0.26064622, -1521778.5, -100373.27, 0.00010224, 9.999631, 9.99908 
7.500134e+1, 1.6496229e+2, -1379382.0, -1309263.8, -36727.875, 0.037105426, 0.3890551, -1293548.1, 29850.854, 0.000007138289, 9.999407, 10.000356 
7.5000525e+1, 1.7496277e+2, -1177764.5, -1163319.4, -20417.781, 0.007068062, 0.3756514, -1148884.4, 76506.805, 0.00000003688298, 10.000125, 10.00034 
7.499946e+1, 1.8496233e+2, -1139118.0, -1213140.4, -16307.506, -0.049108945, 0.35406876, -1135684.6, -8291.031, 0.0, 10.000235, 9.999272 
7.49981e+1, 1.9496097e+2, -1105779.3, -1147913.4, 9549.88, -0.13903569, 0.26775178, -1103715.9, -74309.8, 0.0, 9.999793, 9.999262 
7.4998444e+1, 2.0495963e+2, -1050689.5, -1142703.4, 16768.615, -0.07754247, 0.24206959, -1047728.8, -116310.234, 0.0, 9.999812, 9.998613 
7.500049e+1, 2.1495807e+2, -887679.94, -1015506.1, 7649.9194, 0.13357492, 0.20156424, -887223.75, -53790.5, 0.0, 10.000263, 9.998597 
7.5000864e+1, 2.2495703e+2, -783494.2, -855650.44, 4514.6724, 0.1627725, 0.21532847, -783212.8, -47769.18, 0.0, 10.000062, 9.999114 
7.499954e+1, 2.3495646e+2, -812326.7, -823471.4, 11437.49, 0.002345088, 0.22178683, -805176.3, -167725.86, 0.0, 9.999203, 9.999082 
7.499901e+1, 2.4495605e+2, -649447.94, -606131.6, 16951.055, -0.07686341, 0.2368746, -600286.8, -60833.742, 0.0, 9.99927, 9.999871 
7.499932e+1, 2.549556e+2, -424290.06, -449555.88, 54769.984, -0.07259314, 0.17856361, -380714.97, 60738.55, 0.0, 10.000144, 9.999857 
7.4999046e+1, 2.649549e+2, -345097.7, -483274.28, 39537.746, -0.088201426, 0.18370697, -334584.3, 8872.931, 0.00000000015133415, 10.000566, 9.99874 
7.499829e+1, 2.74954e+2, -253879.52, -392751.84, 48454.586, -0.12956354, 0.19610958, -238644.39, 6819.701, 0.00000065427645, 10.000532, 9.998705 
7.4998283e+1, 2.849521e+2, -245413.77, -403243.88, 11768.012, -0.070893385, 0.17145665, -244541.16, -97057.66, 0.0000058927376, 10.000208, 9.998109 
7.499899e+1, 2.9494885e+2, -287479.56, -378975.3, 8609.831, 0.08607029, 0.010179734, -286676.44, -237156.83, 0.000025865007, 9.999254, 9.998069 
7.499861e+1, 3.0494887e+2, -205896.89, -217078.36, 34113.344, 0.08672936, 0.16286328, -176919.19, -176919.19, 0.00011192772, 9.999086, 9.998924 
7.499721e+1, 3.1494826e+2, 26518.025, 151260.81, 76464.07, -0.07241153, 0.18789431, 187565.38, 187565.38, 0.00033923058, 9.999514, 10.001262 
8.499987e+1, 1.2496333e+2, -1570412.0, -1657391.4, 126909.68, 0.1162273, 0.25133237, -1479747.3, 235629.89, 0.0017237901, 10.000989, 9.999897 
8.500101e+1, 1.3496207e+2, -1781049.5, -1767483.6, 108560.69, 0.027266515, 0.16894989, -1665494.1, -48106.19, 0.0009802121, 9.999171, 9.999348 
8.500224e+1, 1.449612e+2, -1742657.3, -1694446.4, 36901.203, 0.069178514, 0.14804205, -1674475.0, -155076.3, 0.00039778455, 9.998711, 9.999402 
8.500142e+1, 1.5496172e+2, -1513289.1, -1539195.5, 39668.645, 0.036369797, 0.2343805, -1484512.4, -63112.773, 0.000088897265, 9.99965, 9.999336 
8.500061e+1, 1.6496262e+2, -1354166.1, -1339240.4, 39807.02, 0.012416698, 0.3621965, -1306202.8, 17191.207, 0.000006071428, 9.999762, 9.99998 
8.500003e+1, 1.7496325e+2, -1378109.6, -1299611.4, -4425.7407, 0.010822417, 0.4039488, -1299362.6, -73974.805, 0.000000076650345, 9.998924, 9.999983 
8.499939e+1, 1.8496287e+2, -1296509.1, -1246989.5, 3729.2012, -0.011220723, 0.38833168, -1246710.3, -119320.16, 0.0, 9.998976, 9.999647 
8.499874e+1, 1.949616e+2, -1070512.8, -1088192.3, 7316.8027, -0.051154636, 0.2726075, -1067877.5, -38478.203, 0.0, 9.999858, 9.999639 
8.499916e+1, 2.0496021e+2, -989714.9, -1127015.4, 37610.016, -0.004891563, 0.2316548, -980087.56, -48675.938, 0.0, 10.000288, 9.998493 
8.5000557e+1, 2.1495856e+2, -909559.25, -1040698.56, 33597.887, 0.12603872, 0.1955296, -901452.56, -68023.56, 0.0, 10.000176, 9.998467 
8.5000646e+1, 2.2495769e+2, -787117.7, -840687.4, 35730.074, 0.1463555, 0.22561245, -769247.56, -33809.266, 0.0, 9.999971, 9.999257 
8.499947e+1, 2.349576e+2, -740482.2, -772979.56, 37714.21, 0.060247473, 0.26889133, -715665.3, -78225.99, 0.0, 9.999634, 9.999216 
8.4999055e+1, 2.4495709e+2, -622005.7, -605940.75, 73835.03, -0.0061659184, 0.27347612, -539702.56, -260.12738, 0.0, 9.999513, 9.99975 
8.499945e+1, 2.5495604e+2, -500612.1, -495380.56, 22805.078, -0.04379744, 0.16578273, -475041.72, -33593.004, 0.0, 9.999674, 9.999758 
8.4999293e+1, 2.649551e+2, -447695.0, -481881.28, -19449.152, -0.066588335, 0.13048403, -438895.2, -95441.47, 0.0000000019213902, 9.999627, 9.999207 
8.499872e+1, 2.7495432e+2, -411561.22, -415889.6, 10556.173, -0.0663159, 0.106871106, -402949.66, -157491.61, 0.0000006294421, 9.999213, 9.999184 
8.499845e+1, 2.8495282e+2, -312180.56, -432505.22, 47023.72, -0.043203592, 0.09563341, -295983.66, -148510.39, 0.0000062489003, 9.999732, 9.99814 
8.4998506e+1, 2.9495037e+2, 16731.05, -227035.02, 52132.332, 0.017160404, 0.009993569, 27412.168, 76914.445, 0.000027811611, 10.001323, 9.998115 
8.4998286e+1, 3.0494958e+2, 89195.29, -124300.61, 50382.773, 0.043410104, 0.10569764, 100487.79, 100487.79, 0.000112212314, 10.001307, 9.998507 
8.4997976e+1, 3.1494877e+2, 20091.615, 169578.06, 1820.423, 0.07461339, 0.14374164, 169600.23, 169600.23, 0.00032853556, 9.999361, 10.001462 
9.500077e+1, 1.24962814e+2, -1584541.1, -1691054.8, 24860.266, 0.04949971, 0.080341786, -1579024.5, 136353.42, 0.0016162735, 10.001008, 9.999654 
9.5000315e+1, 1.3496359e+2, -1782270.4, -1788464.3, 47610.56, 0.0087862285, 0.21344933, -1737656.1, -120282.734, 0.000914127, 9.999243, 9.99917 
9.50011e+1, 1.4496273e+2, -1706883.8, -1618138.3, 63213.848, 0.05568306, 0.17510971, -1585278.0, -65895.35, 0.00036652523, 9.998706, 9.999925 
9.500049e+1, 1.5496264e+2, -1476167.9, -1467343.4, 86256.08, -0.05153046, 0.15339527, -1385386.8, 35994.918, 0.00007896126, 9.999671, 9.999819 
9.499972e+1, 1.6496244e+2, -1424842.1, -1479437.4, -42.947914, -0.07750234, 0.19444863, -1424842.1, -101456.516, 0.000005121987, 9.999732, 9.999034 
9.499893e+1, 1.7496139e+2, -1442313.6, -1435215.3, -26817.457, -0.018078402, 0.1613967, -1411713.1, -186311.98, 0.00000007826353, 9.99893, 9.999049 
9.4999117e+1, 1.8496113e+2, -1286358.1, -1212137.8, 29166.012, 0.043047424, 0.18841194, -1202048.1, -74643.555, 0.0, 9.998918, 9.999913 
9.5000273e+1, 1.9496176e+2, -1057923.6, -1052090.3, 51194.48, 0.091059454, 0.2355117, -1003729.44, 25664.77, 0.0, 9.999815, 9.999905 
9.5000374e+1, 2.0496112e+2, -988574.75, -1108207.5, 25026.838, 0.06574682, 0.24775551, -983550.25, -52150.22, 0.0, 10.000214, 9.998659 
9.499929e+1, 2.1495895e+2, -907786.8, -1021702.1, 40116.78, -0.042728666, 0.1418981, -895077.2, -61652.414, 0.0, 10.000107, 9.998633 
9.499904e+1, 2.2495832e+2, -779772.8, -808737.6, 16289.445, -0.035696678, 0.17405522, -772458.75, -37026.93, 0.0, 9.999896, 9.999513 
9.4999695e+1, 2.3495916e+2, -731038.94, -739234.25, 32075.14, 0.09538325, 0.2805445, -702800.75, -65379.29, 0.0, 9.999565, 9.999482 
9.50001e+1, 2.4495839e+2, -706342.06, -762944.56, 69991.266, 0.12504739, 0.29754272, -659146.7, -119719.27, 0.0, 9.999437, 9.998708 
9.500018e+1, 2.5495586e+2, -582650.4, -654404.56, 39645.645, 0.037012137, 0.14783676, -565058.4, -123607.38, 0.0, 9.999617, 9.998696 
9.4999903e+1, 2.649544e+2, -387859.88, -344884.66, -42730.277, 0.010733315, 0.059190225, -318543.47, 24918.906, 0.0000000017799018, 9.999576, 10.000171 
9.499933e+1, 2.749538e+2, -353174.7, -277852.66, 4025.4468, 0.04868444, -0.03860538, -277638.13, -32175.889, 0.0000005677249, 9.99914, 10.000166 
9.4998467e+1, 2.849539e+2, -290163.28, -379541.3, 96771.44, -0.03845468, 0.03736547, -228260.45, -80799.555, 0.0000064583187, 9.9997015, 9.998517 
9.499727e+1, 2.9495442e+2, 31448.82, -178396.86, 126420.09, -0.2668189, 0.20676006, 90814.88, 140275.23, 0.000029725905, 10.001243, 9.998487 
9.499755e+1, 3.0495286e+2, 9611.502, -284624.34, -26027.77, -0.18335184, 0.26207685, 11896.149, 11896.149, 0.00011359201, 10.001282, 9.997414 
9.4999254e+1, 3.1494918e+2, -58699.066, 30319.133, -34213.066, 0.21466365, 0.12792301, 41949.09, 41949.09, 0.00032159366, 9.999256, 10.000554 
1.0500213e+2, 1.2496384e+2, -1837622.1, -1837391.9, 27203.912, 0.17949304, 0.06707184, -1810302.9, -94935.734, 0.0015309328, 9.999336, 9.999473 
1.05000205e+2, 1.3496503e+2, -1579082.1, -1701088.3, 22776.42, 0.012547171, 0.25183418, -1574968.9, 42391.14, 0.0008642909, 10.00066, 9.999099 
1.05000615e+2, 1.4496355e+2, -1413666.9, -1455506.9, 54388.445, 0.046810374, 0.14461927, -1376313.8, 143060.3, 0.00034447288, 10.00065, 10.000093 
1.0500037e+2, 1.5496305e+2, -1521666.3, -1478410.4, 28725.885, -0.0047569936, 0.072447345, -1464080.8, -42707.13, 0.00007296801, 9.999323, 9.99991 
1.04999535e+2, 1.649626e+2, -1517217.3, -1548615.6, -10961.101, -0.03594094, 0.09677921, -1513769.4, -190390.7, 0.000004414203, 9.999211, 9.998803 
1.0499849e+2, 1.7496164e+2, -1258488.6, -1373770.6, -3835.135, -0.019475605, 0.09390184, -1258361.3, -32966.137, 0.000000050630582, 10.000325, 9.998793 
1.0499868e+2, 1.8496129e+2, -1066179.6, -1127472.6, 72157.836, 0.032389004, 0.1360528, -1018430.0, 108970.414, 0.0, 10.000512, 9.999726 
1.0500004e+2, 1.9496168e+2, -1109910.0, -1098618.0, 39737.027, 0.1058064, 0.17557693, -1064127.9, -34734.582, 0.0, 9.999545, 9.999715 
1.0500014e+2, 2.0496142e+2, -1123005.5, -1146300.9, 19776.69, 0.07831031, 0.2225986, -1111701.4, -180305.03, 0.0, 9.999189, 9.998886 
1.04998976e+2, 2.1496029e+2, -997813.0, -1037520.3, 18661.021, -0.042589623, 0.1982688, -990419.56, -157007.89, 0.0, 9.999382, 9.998868 
1.0499879e+2, 2.249597e+2, -813789.0, -842750.44, -134.23145, -0.03672262, 0.23014964, -813788.4, -78369.78, 0.0, 9.999731, 9.99937 
1.0499966e+2, 2.3495956e+2, -643866.7, -713446.8, -32289.727, 0.10814773, 0.2589978, -631191.25, 6226.233, 0.0, 10.000234, 9.999344 
1.0500009e+2, 2.4495858e+2, -607447.8, -693064.75, 34439.203, 0.15634432, 0.25093257, -595314.25, -55889.074, 0.0, 10.000023, 9.998903 
1.0500013e+2, 2.549566e+2, -653820.8, -668375.7, 80205.2, 0.104987495, 0.13654272, -580563.56, -139120.6, 0.0, 9.999049, 9.998871 
1.0499971e+2, 2.6495546e+2, -495747.56, -426699.6, 36719.555, 0.07027326, 0.08974518, -410822.88, -67370.875, 0.00000000014537505, 9.998977, 9.999888 
1.0499894e+2, 2.749551e+2, -269076.38, -272593.44, -33050.0, 0.06557825, 0.042091325, -237738.14, 7714.8794, 0.00000042821608, 9.999872, 9.999848 
1.049986e+2, 2.849551e+2, -186459.02, -291648.13, 44123.258, -0.015606095, 0.10828188, -170401.92, -22949.61, 0.0000059800022, 10.000229, 9.998879 
1.049986e+2, 2.9495534e+2, -123434.07, -210462.66, 51338.355, -0.18704298, 0.21172068, -99649.625, -50198.883, 0.000029321069, 9.999978, 9.998885 
1.0499864e+2, 3.0495396e+2, -172957.64, -372553.94, -94327.5, -0.13111782, 0.26247695, -135433.73, -135433.73, 0.000109979665, 10.000044, 9.997401 
1.0499886e+2, 3.1495047e+2, 77161.71, 66375.5, -54181.7, 0.20700878, 0.15139139, 126218.05, 126218.05, 0.000307793, 10.000323, 10.000287 
1.15003124e+2, 1.2496621e+2, -1839935.4, -1852986.9, 47511.227, 0.28658435, 0.2037211, -1798503.9, -83157.01, 0.001474528, 9.999383, 9.999342 
1.1500044e+2, 1.3496631e+2, -1567906.5, -1687068.5, 77928.76, -0.058716543, 0.27676803, -1529391.8, 87956.82, 0.00083337264, 10.000702, 9.999172 
1.1500056e+2, 1.4496365e+2, -1436077.8, -1494603.3, -4646.2095, -0.05100587, 0.059564516, -1435711.3, 83662.164, 0.00033260565, 10.000616, 9.999843 
1.15000546e+2, 1.5496288e+2, -1535439.0, -1512754.5, -7924.626, 0.05247685, -0.017456878, -1510260.4, -88884.66, 0.0000710648, 9.999352, 9.999657 
1.1499973e+2, 1.6496311e+2, -1488402.0, -1487364.0, 22331.637, 0.03494773, 0.066342235, -1465545.4, -142172.1, 0.0000041843605, 9.999199, 9.999234 
1.1499847e+2, 1.749639e+2, -1223352.3, -1305752.3, 48063.535, -0.080557115, 0.19353399, -1201247.1, 24123.254, 0.000000024917117, 10.000342, 9.999252 
1.1499784e+2, 1.8496335e+2, -1123253.5, -1225987.0, 28960.186, -0.12438902, 0.2246885, -1115652.3, 11725.77, 0.0, 10.000428, 9.999092 
1.1499768e+2, 1.9496137e+2, -1159763.3, -1192972.4, 11607.955, -0.111748636, 0.09191658, -1156108.0, -126711.42, 0.0, 9.999507, 9.999087 
1.14998154e+2, 2.0496112e+2, -1117914.4, -1119457.9, 17439.633, -0.059611827, 0.1617739, -1101229.4, -169829.03, 0.0, 9.999114, 9.999109 
1.1499929e+2, 2.1496248e+2, -993571.9, -1009197.7, 33185.215, 0.029878799, 0.36022443, -967292.25, -133901.55, 0.0, 9.999294, 9.999106 
1.149996e+2, 2.2496174e+2, -865824.8, -930262.94, 9657.63, 0.05421465, 0.39669606, -864408.5, -129009.19, 0.0, 9.999645, 9.998809 
1.14999056e+2, 2.3495883e+2, -695038.9, -798560.94, -3180.3042, 0.0018775888, 0.19829923, -694941.25, -57513.82, 0.0, 10.000141, 9.998803 
1.1499882e+2, 2.4495766e+2, -522085.22, -497357.0, -10543.311, 0.0042609004, 0.13179848, -493472.03, 45963.6, 0.0, 9.999946, 10.000285 
1.14998944e+2, 2.5495815e+2, -565868.1, -468986.47, 49597.25, 0.059989534, 0.1252386, -448099.06, -6674.0825, 0.0, 9.998978, 10.000274 
1.1499844e+2, 2.6495835e+2, -609857.3, -658314.0, 62607.156, 0.023040334, 0.2188694, -566953.94, -223530.9, 0.0, 9.99895, 9.998317 
1.1499726e+2, 2.7495816e+2, -390574.44, -510437.25, 11056.837, -0.11278384, 0.3479689, -389563.03, -144132.17, 0.0000002594802, 9.999804, 9.998255 
1.1499851e+2, 2.8495646e+2, -169367.08, -243432.97, 27868.826, -0.06875543, 0.3061653, -160052.31, -12604.601, 0.000005001763, 10.000182, 9.99923 
1.1500215e+2, 2.949532e+2, -116212.43, -167247.44, 52435.207, 0.14335814, 0.027751701, -83415.32, -33941.8, 0.000026475647, 9.999863, 9.999237 
1.1500127e+2, 3.0495286e+2, -107571.03, -222652.92, -85416.31, 0.10438083, 0.1152737, -62122.137, -62122.137, 0.000100772006, 9.999999, 9.998447 
1.1499618e+2, 3.149525e+2, 88516.71, 114096.016, -18856.564, -0.1463438, 0.20855084, 124091.12, 124091.12, 0.00028477213, 10.000231, 10.000656 
1.2500356e+2, 1.24966756e+2, -1664503.9, -1750836.0, 16826.13, 0.3437555, 0.24734698, -1661340.5, 54004.55, 0.0014451224, 10.00053, 9.999481 
1.2500098e+2, 1.3496684e+2, -1682065.0, -1709010.3, 26054.19, -0.01927022, 0.29179907, -1666206.3, -48861.215, 0.000820366, 9.99978, 9.999466 
1.2500082e+2, 1.449644e+2, -1588590.1, -1558084.4, -34561.266, -0.02224678, 0.07504599, -1535559.9, -16192.168, 0.00033115427, 9.999516, 9.99994 
1.2499993e+2, 1.5496439e+2, -1433131.8, -1453768.0, -37126.8, 0.028514186, 0.06392017, -1404915.9, 16448.35, 0.00007354598, 10.000006, 9.999744 
1.2499915e+2, 1.6496477e+2, -1328860.8, -1381534.9, 47701.54, 0.014916558, 0.14554103, -1300708.5, 22650.787, 0.0000047036624, 10.000161, 9.999504 
1.2499881e+2, 1.749652e+2, -1286638.4, -1308688.8, 43031.113, -0.045367796, 0.21358937, -1253242.5, -27886.055, 0.000000012759114, 9.999775, 9.999516 
1.249982e+2, 1.849644e+2, -1250803.0, -1324031.4, 18754.031, -0.08805919, 0.22341044, -1246279.4, -118913.875, 0.0, 9.99971, 9.998764 
1.249972e+2, 1.9496237e+2, -1123386.3, -1215100.8, 5729.771, -0.12522098, 0.119983494, -1123029.6, -93643.04, 0.0, 9.9999275, 9.9987335 
1.2499748e+2, 2.0496176e+2, -988378.1, -1062067.5, 43613.03, -0.07813748, 0.17263418, -968129.7, -36735.746, 0.0, 10.000021, 9.999064 
1.24999136e+2, 2.1496247e+2, -905114.9, -971214.3, 21744.5, 0.0596011, 0.31031826, -898603.1, -65214.316, 0.0, 9.999919, 9.999065 
1.24999404e+2, 2.249616e+2, -906570.75, -939137.7, 16366.071, 0.09167633, 0.32922828, -899767.44, -164369.22, 0.0, 9.999321, 9.998897 
1.24998264e+2, 2.3495907e+2, -969885.75, -921208.1, 32233.055, 0.011697563, 0.16149172, -905157.0, -267733.72, 0.0, 9.998223, 9.998877 
1.2499789e+2, 2.4495825e+2, -751714.75, -606234.9, 33925.777, 0.0034385715, 0.12482704, -598712.4, -59283.434, 0.0, 9.998361, 10.000303 
1.24998435e+2, 2.5495905e+2, -447041.3, -413712.56, -25458.338, 0.07569712, 0.15055516, -399949.5, 41466.805, 0.0, 9.99979, 10.00027 
1.2499819e+2, 2.649593e+2, -446220.13, -611868.6, -5303.649, 0.04507115, 0.26556018, -446050.47, -102635.84, 0.0, 10.00022, 9.998018 
1.24997206e+2, 2.7495888e+2, -431004.84, -560843.25, 22790.8, -0.0862029, 0.3985235, -427120.53, -181694.92, 0.00000012209664, 9.999676, 9.99796 
1.24998584e+2, 2.849566e+2, -301888.5, -279276.7, 83306.234, -0.022722214, 0.3040217, -206512.66, -59065.676, 0.000003888246, 9.999163, 9.999468 
1.2500238e+2, 2.949527e+2, -272000.47, -211839.42, 80853.48, 0.24735981, -0.06479206, -155652.2, -106175.61, 0.00002250982, 9.998674, 9.999495 
1.2500171e+2, 3.0495352e+2, -210857.38, -237404.8, -18318.408, 0.2038987, 0.106933914, -201509.08, -201509.08, 0.000088219014, 9.999101, 9.998802 
1.24996744e+2, 3.1495282e+2, 71794.98, 87257.125, -46012.2, -0.09764247, 0.13064288, 126183.23, 126183.23, 0.00025421128, 10.000185, 10.0005045 
1.3500278e+2, 1.2496524e+2, -1643777.4, -1696815.0, -40664.3, 0.15816022, 0.17686883, -1621749.0, 93615.12, 0.0014399097, 10.000497, 9.999863 
1.3500139e+2, 1.3496663e+2, -1635200.5, -1616194.5, 4265.8496, 0.015322107, 0.2902638, -1615280.9, 2068.5032, 0.0008240123, 9.999816, 10.000076 
1.3500105e+2, 1.4496586e+2, -1556351.5, -1505270.0, -29507.572, 0.01776596, 0.19433059, -1491784.8, 27571.549, 0.00033951883, 9.99956, 10.000287 
1.3499822e+2, 1.5496753e+2, -1404988.1, -1399386.6, -8578.2295, -0.17160715, 0.31503138, -1393163.5, 28176.1, 0.00008018549, 10.000011, 10.00012 
1.3499746e+2, 1.649676e+2, -1334837.5, -1371432.1, 24040.486, -0.19210713, 0.33944193, -1322923.3, 413.74585, 0.0000062149566, 10.000074, 9.99961 
1.349991e+2, 1.7496556e+2, -1282908.0, -1296154.8, 40099.703, -0.01941056, 0.14969006, -1248888.4, -23535.107, 0.000000017143847, 9.999764, 9.9996 
1.3499938e+2, 1.8496457e+2, -1259641.9, -1337055.0, 17766.818, 0.032753747, 0.13870989, -1255759.0, -128396.79, 0.0, 9.999676, 9.998695 
1.3499819e+2, 1.9496469e+2, -1134153.8, -1226856.5, 24101.773, -0.044875547, 0.25674826, -1128262.0, -98898.78, 0.0, 9.999878, 9.998678 
1.3499779e+2, 2.049633e+2, -1022698.1, -1115342.3, 31107.135, -0.071235314, 0.25222844, -1013222.44, -81845.23, 0.0, 9.999942, 9.998739 
1.3499814e+2, 2.1496023e+2, -942396.2, -1023518.1, 28655.664, -0.05407536, 0.045428433, -933294.94, -99888.9, 0.0, 9.999815, 9.9987545 
1.3499786e+2, 2.2495924e+2, -868506.0, -845121.25, -34734.605, -0.017228425, 0.03286775, -820163.9, -84748.805, 0.0, 9.999246, 9.999581 
1.3499689e+2, 2.3496021e+2, -931948.5, -825404.06, -1811.0652, 0.030539764, 0.1459621, -825373.25, -187967.73, 0.0, 9.998145, 9.999573 
1.3499701e+2, 2.4496026e+2, -853804.56, -806958.06, 78659.14, 0.056557875, 0.22770502, -748308.7, -208902.86, 0.0, 9.99831, 9.998949 
1.3499829e+2, 2.5495934e+2, -555103.56, -616047.75, 37288.67, 0.059936456, 0.21543875, -537419.7, -96003.266, 0.0, 9.999697, 9.998922 
1.3499872e+2, 2.6495844e+2, -388013.66, -480780.13, -33078.08, 0.05533662, 0.23419939, -377427.03, -34000.81, 0.0, 10.000176, 9.998939 
1.3499838e+2, 2.7495718e+2, -375763.34, -425303.84, 11380.211, 0.040275745, 0.1906871, -373274.2, -127836.055, 0.000000046518082, 9.999588, 9.99893 
1.3499852e+2, 2.849555e+2, -292661.72, -254111.7, 56864.598, 0.031159345, 0.09627317, -213344.16, -65893.03, 0.0000029362805, 9.999137, 9.999655 
1.3499904e+2, 2.9495373e+2, -268307.06, -191450.88, 74432.5, 0.017312968, -0.07639583, -146111.94, -96650.37, 0.000019015239, 9.998614, 9.999667 
1.3499956e+2, 3.0495587e+2, -235157.05, -277363.22, 18539.557, 0.061402995, 0.23189487, -228170.0, -228170.0, 0.000075927965, 9.999059, 9.998545 
1.3499987e+2, 3.1495145e+2, 15862.521, -16069.287, 21215.246, 0.14549372, -0.0894096, 26448.393, 26448.393, 0.00022269739, 10.000123, 9.999826 
1.4500275e+2, 1.24965414e+2, -1599966.9, -1653241.9, 20861.328, 0.11004646, 0.19704983, -1592770.3, 122595.89, 0.0014542761, 10.000693, 10.000078 
1.450012e+2, 1.3496709e+2, -1596683.8, -1547711.0, 8321.811, 0.020961756, 0.29146278, -1546335.5, 71010.58, 0.0008417685, 9.999855, 10.000532 
1.4500108e+2, 1.4496659e+2, -1572133.0, -1543220.8, 16384.004, 0.069075875, 0.2139323, -1535827.1, -16477.357, 0.0003553583, 9.999582, 10.00002 
1.4499843e+2, 1.5496796e+2, -1435757.9, -1443992.1, -31421.904, -0.13995132, 0.33258474, -1408184.5, 13153.169, 0.00008912462, 9.999928, 9.999859 
1.4499752e+2, 1.6496785e+2, -1316231.8, -1341717.8, -19946.787, -0.18504451, 0.3432624, -1305305.0, 18031.744, 0.000008328298, 10.000118, 9.999786 
1.4499876e+2, 1.7496583e+2, -1227067.5, -1252890.9, -21238.1, -0.039548457, 0.1380815, -1215124.3, 10226.577, 0.0000000715251, 10.000074, 9.999747 
1.4499933e+2, 1.8496487e+2, -1175934.9, -1281629.9, -1411.4359, 0.040180184, 0.1155607, -1175916.1, -48557.836, 0.0, 10.000192, 9.998827 
1.4499909e+2, 1.949649e+2, -1043505.75, -1170730.8, 617.20435, 0.03613682, 0.21453847, -1043502.75, -14143.876, 0.0, 10.000441, 9.998799 
1.4499855e+2, 2.0496355e+2, -989628.06, -1090874.5, 19691.607, 0.0059746285, 0.20269683, -985933.06, -54560.926, 0.0, 10.000146, 9.998802 
1.4499766e+2, 2.1496062e+2, -1020473.6, -1057970.0, 24258.678, -0.050555374, 0.0043900064, -1008562.8, -175163.34, 0.0, 9.999271, 9.998777 
1.4499697e+2, 2.2495978e+2, -868156.2, -849828.6, -18646.725, -0.028957766, 0.0082020955, -838215.6, -102808.414, 0.0, 9.999273, 9.999537 
1.4499643e+2, 2.3496091e+2, -637803.0, -691247.44, -59695.723, 0.07235555, 0.14464363, -599121.44, 38274.94, 0.0, 10.000191, 9.999516 
1.4499655e+2, 2.4496067e+2, -635808.56, -761498.2, 48854.445, 0.096880995, 0.22612733, -619052.94, -79652.086, 0.0, 10.000068, 9.998414 
1.4499737e+2, 2.54959e+2, -704856.6, -746321.3, 48228.89, 0.044058044, 0.19195765, -673092.75, -231671.66, 0.0, 9.998927, 9.998396 
1.4499801e+2, 2.6495782e+2, -582976.56, -526784.94, 2042.9232, 0.050572276, 0.19216566, -526710.75, -183278.13, 0.0, 9.998623, 9.999376 
1.4499854e+2, 2.7495694e+2, -405961.56, -395302.16, -9835.824, 0.12353262, 0.14280589, -389444.84, -144006.75, 0.00000002138944, 9.999174, 9.999349 
1.4499845e+2, 2.8495547e+2, -244479.34, -242024.14, 16471.686, 0.09867684, 0.05448568, -226734.38, -79285.62, 0.0000023054517, 9.999503, 9.999566 
1.4499764e+2, 2.949539e+2, -129993.44, -132760.58, -8382.974, -0.027571423, -0.08776334, -122880.625, -73420.92, 0.000016570593, 9.9995985, 9.999593 
1.4499846e+2, 3.0495703e+2, -168075.14, -226600.81, -18091.55, 0.03366113, 0.3122217, -162934.23, -162934.23, 0.0000664134, 9.999456, 9.998687 
1.4499992e+2, 3.14953e+2, -156012.47, -85708.836, -17309.854, 0.20903109, 0.018352833, -81677.99, -81677.99, 0.0001967113, 9.998907, 9.99992 
1.5500298e+2, 1.2496763e+2, -1584476.9, -1644512.6, -37321.74, 0.0076768287, 0.33619446, -1566599.1, 148748.72, 0.0014746141, 10.000787, 10.000098 
1.5500009e+2, 1.3496831e+2, -1577095.4, -1509933.9, -19002.215, -0.101584144, 0.308717, -1504930.3, 112403.51, 0.00086313457, 9.99986, 10.000795 
1.5500045e+2, 1.4496659e+2, -1636183.1, -1665710.8, 18070.25, 0.022844726, 0.13619183, -1627612.4, -108264.64, 0.00037152023, 9.999544, 9.999195 
1.5500015e+2, 1.5496567e+2, -1496930.5, -1568063.3, -6677.503, 0.012537914, 0.11262943, -1496309.1, -74950.71, 0.00009663115, 9.999924, 9.999004 
1.5499914e+2, 1.6496561e+2, -1306807.1, -1314865.9, -31447.348, -0.06262679, 0.16157508, -1279132.0, 44225.613, 0.000009881803, 10.000084, 9.999993 
1.5499756e+2, 1.7496617e+2, -1215466.1, -1220834.6, -12595.691, -0.19147444, 0.19234705, -1205271.8, 20076.281, 0.00000020107916, 10.000041, 9.999986 
1.5499772e+2, 1.8496533e+2, -1161251.3, -1242095.1, -1182.2054, -0.16252488, 0.15676107, -1161234.0, -33880.68, 0.0, 10.000151, 9.999121 
1.5499957e+2, 1.9496301e+2, -1033982.7, -1133628.1, 20059.928, 0.018599926, -0.00913981, -1030096.0, -722.1469, 0.0, 10.000375, 9.999083 
1.549995e+2, 2.0496246e+2, -968948.94, -1036340.2, -22247.582, 0.06418647, 0.026874103, -962267.0, -30888.145, 0.0, 10.000084, 9.999214 
1.5499733e+2, 2.1496361e+2, -1002689.7, -1000055.7, -872.5448, -0.032295924, 0.19368279, -999792.9, -166423.78, 0.0, 9.99918, 9.99922 
1.5499637e+2, 2.2496323e+2, -936954.3, -975245.3, 7649.614, -0.03694966, 0.26200002, -935482.6, -200108.52, 0.0, 9.999196, 9.998714 
1.549966e+2, 2.3496117e+2, -708028.94, -819441.56, -14724.544, 0.049257126, 0.16058762, -706115.75, -68720.2, 0.0, 10.000113, 9.998673 
1.5499623e+2, 2.4495943e+2, -623358.3, -727012.0, -3183.0208, 0.035807904, 0.121584505, -623260.6, -83846.586, 0.0, 10.000024, 9.998673 
1.5499537e+2, 2.5495785e+2, -697077.3, -716095.8, 16145.223, -0.07225647, 0.07061832, -687849.06, -246417.98, 0.0, 9.998857, 9.998642 
1.5499572e+2, 2.6495746e+2, -595081.4, -542311.06, 14389.465, -0.06248063, 0.13949993, -538642.4, -195207.94, 0.0, 9.998587, 9.999284 
1.5499735e+2, 2.7495807e+2, -427473.88, -420888.38, 21665.264, 0.06553653, 0.24567391, -402267.06, -156840.61, 0.000000019825112, 9.999092, 9.999211 
1.5499803e+2, 2.849565e+2, -276198.4, -298940.34, 12764.534, 0.08549046, 0.17486052, -270474.6, -123034.25, 0.0000019865888, 9.999466, 9.999191 
1.5499784e+2, 2.9495314e+2, -162775.16, -188123.7, 7885.604, 0.0018101884, -0.113583386, -160522.28, -111049.44, 0.000014949104, 9.999537, 9.999245 
1.5499811e+2, 3.0495697e+2, -136234.53, -147617.67, -43198.105, 0.032624617, 0.3496332, -98354.66, -98354.66, 0.000059797247, 9.999417, 9.999237 
1.549963e+2, 3.149577e+2, -110671.836, 29097.49, -9425.617, -0.09121404, 0.47352922, 29730.26, 29730.26, 0.0001777337, 9.998829, 10.000738 
1.6500407e+2, 1.24969214e+2, -1640822.8, -1749130.6, 47866.676, 0.05054094, 0.32931256, -1622700.4, 92628.91, 0.0014821975, 10.00073, 9.999401 
1.6500105e+2, 1.3496947e+2, -1396783.4, -1493375.5, -34778.734, -0.05972252, 0.31933677, -1385564.1, 231758.88, 0.0008719991, 10.001398, 10.000167 
1.6500112e+2, 1.4496766e+2, -1422340.1, -1565424.8, 10445.46, 0.068663895, 0.17246692, -1421581.6, 97756.57, 0.0003781117, 10.001052, 9.999143 
1.6500023e+2, 1.5496588e+2, -1505329.9, -1581196.1, 23313.248, 0.034579992, 0.06813733, -1498738.5, -77383.88, 0.000098805474, 9.999914, 9.998915 
1.6499928e+2, 1.6496548e+2, -1379894.6, -1395306.9, 55920.473, -0.03272298, 0.10830355, -1331151.9, -7794.8135, 0.000009884257, 9.9997635, 9.999596 
1.6499852e+2, 1.7496635e+2, -1168184.6, -1240491.6, 10878.212, -0.11864633, 0.20621122, -1166583.5, 58763.074, 0.0000002904704, 10.000537, 9.999613 
1.6499858e+2, 1.8496557e+2, -1102022.8, -1197855.3, -13190.753, -0.10456908, 0.18849204, -1100240.3, 27111.652, 0.0, 10.0005045, 9.999241 
1.6499943e+2, 1.94963e+2, -1127128.5, -1165038.3, -23172.309, 0.0075544906, -0.015693704, -1116146.1, -86771.92, 0.0, 9.999677, 9.999195 
1.6499905e+2, 2.0496252e+2, -1034633.5, -1060239.0, -55957.59, 0.041245352, 0.017428013, -990032.75, -58654.383, 0.0, 9.999609, 9.999277 
1.649973e+2, 2.149641e+2, -829089.44, -909155.4, -79994.586, -0.005043514, 0.22458561, -779669.8, 53694.74, 0.0, 10.000338, 9.9992895 
1.6499655e+2, 2.2496365e+2, -803206.75, -938929.75, -45843.867, 0.014312962, 0.29449227, -789172.94, -53801.867, 0.0, 10.000252, 9.998448 
1.6499673e+2, 2.3496109e+2, -841844.6, -909593.06, -46637.48, 0.09722421, 0.16972497, -818077.56, -180679.2, 0.0, 9.999328, 9.998424 
1.6499613e+2, 2.4495943e+2, -716286.94, -730544.6, 427.4478, 0.06987394, 0.13434172, -716274.1, -176858.13, 0.0, 9.999215, 9.999038 
1.649948e+2, 2.549586e+2, -511791.3, -581541.0, 7467.124, -0.06265934, 0.122505024, -511000.88, -69576.49, 0.0, 9.999944, 9.999036 
1.6499513e+2, 2.649582e+2, -389546.53, -478887.88, 33189.457, -0.052869435, 0.18429284, -378566.44, -35138.926, 0.0, 10.000141, 9.998974 
1.6499718e+2, 2.7495795e+2, -337855.28, -405593.88, 5745.402, 0.11058928, 0.23674689, -337371.44, -91943.7, 0.000000024295247, 9.999834, 9.998949 
1.6499773e+2, 2.8495628e+2, -315039.1, -335962.16, 4462.129, 0.12401909, 0.17439625, -314127.22, -166683.38, 0.0000019697127, 9.999292, 9.999016 
1.649969e+2, 2.9495347e+2, -310674.72, -270035.44, -7619.7314, 0.010861051, -0.03855908, -268653.72, -219181.31, 0.000013995548, 9.998579, 9.999143 
1.6499715e+2, 3.0495623e+2, -238925.38, -156011.8, -22312.783, 0.04866715, 0.30163226, -150388.6, -150388.6, 0.00005518299, 9.998511, 9.99963 
1.649952e+2, 3.1495786e+2, -72506.07, 84394.55, -32971.508, -0.0772858, 0.48159775, 91041.664, 91041.664, 0.00016337763, 9.998913, 10.001086 
1.7500533e+2, 1.2497015e+2, -1737930.3, -1946616.9, 50219.6, 0.050189316, 0.1647227, -1726474.0, -11163.221, 0.001464911, 10.00072, 9.998045 
1.7500375e+2, 1.349707e+2, -1503701.5, -1707789.3, -4691.966, 0.045684904, 0.33013946, -1503593.6, 113718.81, 0.0008580161, 10.001384, 9.998692 
1.7500292e+2, 1.4496993e+2, -1374940.8, -1472376.0, -43065.625, 0.11586172, 0.3283749, -1358634.9, 160685.39, 0.00036898247, 10.0010605, 9.999785 
1.7499834e+2, 1.5496859e+2, -1455287.5, -1479287.6, -7850.234, -0.17279, 0.20066258, -1452947.9, -31621.262, 0.00009401229, 9.999917, 9.999616 
1.7499767e+2, 1.6496748e+2, -1449845.0, -1532783.8, 75943.45, -0.19519806, 0.18137124, -1404786.3, -81451.82, 0.000008393363, 9.999728, 9.998672 
1.7500126e+2, 1.7496644e+2, -1239523.5, -1381658.0, 49455.79, 0.07889673, 0.18598062, -1224008.9, 1336.7933, 0.00000020811186, 10.000512, 9.998655 
1.7500156e+2, 1.8496567e+2, -1109177.3, -1209044.9, -51561.47, 0.1194118, 0.21912344, -1087333.8, 40019.52, 0.0, 10.000476, 9.999184 
1.7499834e+2, 1.9496498e+2, -1136547.3, -1172227.8, -45324.58, -0.09369106, 0.2065712, -1105678.3, -76319.39, 0.0, 9.99962, 9.999174 
1.7499687e+2, 2.0496383e+2, -1066444.0, -1110641.8, -39409.324, -0.15719403, 0.18872315, -1043360.44, -111991.016, 0.0, 9.9995365, 9.998966 
1.7499726e+2, 2.1496212e+2, -866019.1, -966539.75, -42960.41, -0.064364076, 0.095560335, -850160.7, -16774.49, 0.0, 10.000255, 9.998935 
1.7499718e+2, 2.2496109e+2, -793917.75, -904321.94, -89987.45, 0.03325362, 0.11331348, -743549.9, -8152.2, 0.0, 10.00018, 9.998723 
1.7499657e+2, 2.3496062e+2, -831246.5, -874571.1, -72573.03, 0.12691243, 0.16871439, -777171.75, -139766.5, 0.0, 9.999263, 9.998698 
1.7499597e+2, 2.4496065e+2, -694267.4, -673110.0, 19321.602, 0.111382656, 0.2682759, -661660.7, -122254.26, 0.0, 9.9991665, 9.999453 
1.7499541e+2, 2.549612e+2, -496553.13, -530845.5, 42594.28, -0.01901521, 0.34916842, -467783.47, -26382.111, 0.0, 9.999863, 9.999423 
1.7499602e+2, 2.6495993e+2, -423076.4, -546381.3, 12712.151, 0.0010949019, 0.33116454, -421779.5, -78367.29, 0.0, 10.000129, 9.998517 
1.7499779e+2, 2.749566e+2, -378156.75, -477290.06, 3239.0813, 0.16508472, 0.11691429, -378051.03, -132608.73, 0.000000035492793, 9.999779, 9.998486 
1.7499723e+2, 2.8495482e+2, -313201.2, -331081.8, -32996.184, 0.120887026, 0.0647977, -287955.56, -140496.64, 0.0000021240596, 9.9992895, 9.999048 
1.7499436e+2, 2.9495487e+2, -314280.63, -263610.3, -23499.578, -0.12588812, 0.13538514, -254389.72, -204930.81, 0.000013429294, 9.998526, 9.9992075 
1.7499526e+2, 3.049547e+2, -220375.61, -119642.01, -12534.42, -0.012429415, 0.16464458, -118105.76, -118105.76, 0.000050917075, 9.998515, 9.999883 
1.7499593e+2, 3.1495357e+2, -89330.016, 67066.086, 28292.67, 0.05305618, 0.0462855, 72026.98, 72026.98, 0.00014886881, 9.998851, 10.000991 
1.8500541e+2, 1.2497054e+2, -1767747.6, -1953089.5, -42139.56, 0.009001372, 0.111135654, -1758616.5, -43313.05, 0.0014182838, 10.000469, 9.998129 
1.8500447e+2, 1.3497089e+2, -1678129.5, -1806047.1, -37722.207, 0.044641778, 0.27029386, -1667834.1, -50525.62, 0.00082149997, 10.00024, 9.99857 
1.8500394e+2, 1.4497061e+2, -1499754.8, -1562346.9, -47531.93, 0.15480205, 0.33926028, -1474141.0, 45171.52, 0.00034638878, 10.000319, 9.999521 
1.8499894e+2, 1.5496957e+2, -1314087.8, -1434964.8, -100802.266, -0.151545, 0.26214537, -1256993.6, 164323.28, 0.000084445885, 10.000984, 9.999402 
1.8499823e+2, 1.6496801e+2, -1292663.1, -1483110.3, 955.60535, -0.16739407, 0.21773715, -1292658.4, 30671.33, 0.000006352812, 10.000939, 9.998419 
1.8500224e+2, 1.7496566e+2, -1305652.9, -1442075.3, 9749.438, 0.14589909, 0.116269015, -1304959.6, -79606.31, 0.000000056960435, 10.000189, 9.998391 
1.8500236e+2, 1.8496493e+2, -1192777.3, -1226596.1, -54757.11, 0.1899247, 0.15683267, -1152378.1, -25017.506, 0.0, 9.999813, 9.99938 
1.8499826e+2, 1.9496575e+2, -1099262.1, -1130950.4, -48224.797, -0.06555337, 0.27491388, -1064345.4, -34993.62, 0.0, 9.999782, 9.999381 
1.8499662e+2, 2.0496473e+2, -1047939.25, -1116211.1, 17910.371, -0.14171045, 0.26567766, -1043525.94, -112164.75, 0.0, 9.999721, 9.998839 
1.8499747e+2, 2.1496178e+2, -970675.8, -1030755.0, 12015.763, -0.030567622, 0.06167659, -968361.8, -134971.8, 0.0, 9.999588, 9.998816 
1.8499734e+2, 2.2496054e+2, -831151.6, -888102.8, -27859.342, 0.055480924, 0.048128743, -819790.0, -84387.08, 0.0, 9.999766, 9.99904 
1.8499614e+2, 2.3496093e+2, -665264.4, -760979.94, -25150.44, 0.1144427, 0.15878808, -659058.2, -21657.297, 0.0, 10.000244, 9.99901 
1.8499546e+2, 2.4496116e+2, -600048.7, -657789.94, 60565.85, 0.10949168, 0.2750144, -561824.4, -22424.402, 0.0, 9.999936, 9.999189 
1.8499532e+2, 2.549612e+2, -665966.5, -640550.2, 15345.456, 0.045682866, 0.3333314, -633333.94, -191933.7, 0.0, 9.998819, 9.999172 
1.8499593e+2, 2.649597e+2, -650606.56, -655248.0, 7429.345, 0.062262967, 0.3040378, -645143.94, -301729.53, 0.0, 9.998567, 9.99852 
1.8499728e+2, 2.7495643e+2, -454206.38, -514086.0, 14815.3, 0.16617437, 0.09727741, -450741.3, -205296.3, 0.000000044067633, 9.99925, 9.998493 
1.8499628e+2, 2.8495502e+2, -291742.53, -334677.9, -16629.97, 0.092364065, 0.08919164, -286054.78, -138596.9, 0.000002141611, 9.999476, 9.998944 
1.8499298e+2, 2.9495582e+2, -216526.72, -232095.66, -39504.79, -0.14735661, 0.24656673, -184046.73, -134596.94, 0.000012353572, 9.999243, 9.999091 
1.8499404e+2, 3.0495378e+2, -116101.375, -22853.47, 13717.381, -0.0027529642, 0.072071634, -20877.428, -20877.428, 0.0000445169, 9.999029, 10.000293 
1.8499525e+2, 3.1495243e+2, -135866.19, -11140.213, 54759.97, 0.116217345, -0.101310834, 9489.548, 9489.548, 0.00012870552, 9.998719, 10.000541 
1.9500378e+2, 1.249704e+2, -1663691.0, -1725842.8, -69479.97, -0.25174317, 0.18252492, -1618654.0, 96653.484, 0.0013429979, 10.000438, 9.999696 
1.9500294e+2, 1.3496996e+2, -1600002.8, -1627876.6, -44722.43, -0.15443036, 0.13725203, -1567096.0, 50215.87, 0.0007683095, 10.000191, 9.999808 
1.9500387e+2, 1.4496976e+2, -1578261.3, -1722385.0, -35378.4, 0.085781224, 0.20486866, -1570045.3, -50730.305, 0.00031677555, 10.000297, 9.998439 
1.950017e+2, 1.5496898e+2, -1392030.5, -1595628.8, -66667.016, 0.0018353584, 0.2628165, -1372143.4, 49181.344, 0.000073711046, 10.000976, 9.998306 
1.9500068e+2, 1.6496718e+2, -1265156.8, -1422309.3, -33658.94, -0.038271792, 0.22849318, -1258251.1, 65090.664, 0.0000047225935, 10.000916, 9.998852 
1.950012e+2, 1.7496409e+2, -1277794.6, -1379473.8, -7587.892, 0.00043566202, 0.006128667, -1277231.4, -51862.387, 0.0000000036456946, 10.000165, 9.998836 
1.9500071e+2, 1.8496339e+2, -1169401.8, -1167489.3, -65768.695, 0.020552354, 0.010076963, -1102669.9, 24703.373, 0.0, 9.999763, 9.999815 
1.9499892e+2, 1.9496518e+2, -1078183.5, -1075417.1, -39990.207, 0.0007406214, 0.18130279, -1036786.2, -7432.1143, 0.0, 9.999727, 9.999792 
1.949979e+2, 2.0496513e+2, -1055705.4, -1110120.6, 5886.179, -0.0032544017, 0.2459639, -1055075.9, -123721.69, 0.0, 9.999628, 9.998921 
1.9499767e+2, 2.1496308e+2, -976931.56, -1022185.4, 15469.254, 0.007962212, 0.12090726, -972149.06, -138773.08, 0.0, 9.999496, 9.998915 
1.9499673e+2, 2.2496204e+2, -823142.7, -849406.7, -20464.9, 0.0006086482, 0.105903216, -811958.8, -76572.37, 0.0, 9.999676, 9.999348 
1.949951e+2, 2.3496197e+2, -655564.2, -718090.7, 469.6865, -0.03304102, 0.14088416, -655560.7, -18175.076, 0.0, 10.000151, 9.999347 
1.9499433e+2, 2.4496087e+2, -677107.56, -800237.56, 8765.499, -0.017568257, 0.15436213, -676486.7, -137089.86, 0.0, 9.999861, 9.998248 
1.949943e+2, 2.549586e+2, -745830.4, -783280.9, -17888.002, 0.038769007, 0.07341477, -738659.4, -297238.06, 0.0, 9.998723, 9.998236 
1.9499461e+2, 2.6495755e+2, -620820.25, -588605.44, 23991.389, 0.05307704, 0.10995697, -575815.9, -232382.45, 0.0, 9.998542, 9.998995 
1.9499528e+2, 2.7495745e+2, -429494.5, -452159.16, 51371.586, 0.020670323, 0.17883286, -388220.16, -142784.63, 0.000000036761158, 9.999199, 9.998949 
1.9499457e+2, 2.849569e+2, -316590.97, -378555.63, -32436.033, -0.047197606, 0.24971364, -302717.97, -155277.27, 0.0000018181237, 9.999447, 9.998655 
1.9499248e+2, 2.949564e+2, -248483.48, -278401.66, -33832.176, -0.14652231, 0.3019457, -226450.81, -177006.56, 0.000010151812, 9.999165, 9.998807 
1.9499329e+2, 3.0495352e+2, -77525.16, 63876.195, -1240.5667, -0.006125811, 0.027874475, 63887.08, 63887.08, 0.00003534469, 9.999007, 10.000895 
1.9499254e+2, 3.1495494e+2, -182957.19, -87170.87, 90492.73, -0.07424439, 0.06584415, -32679.027, -32679.027, 0.0001028295, 9.998647, 10.00004 
2.0500375e+2, 1.2497001e+2, -1801503.9, -1686091.8, -11958.943, -0.22036965, 0.2008059, -1684865.6, 30448.514, 0.0012444656, 9.999039, 10.000643 
2.0500213e+2, 1.3496968e+2, -1640528.1, -1580052.6, -78008.836, -0.21576773, 0.102949515, -1526626.1, 90686.28, 0.00070293987, 9.999606, 10.000431 
2.0500363e+2, 1.4496946e+2, -1658061.1, -1771827.1, -22585.229, 0.06465629, 0.14478764, -1653741.4, -134426.77, 0.00028321997, 9.999808, 9.998334 
2.0500332e+2, 1.5496872e+2, -1556988.3, -1684834.0, -4685.789, 0.12733862, 0.21600242, -1556816.8, -135489.67, 0.000063005726, 9.999889, 9.998217 
2.0500217e+2, 1.6496731e+2, -1406506.6, -1476905.0, 43006.42, 0.07491659, 0.21984076, -1386131.3, -62789.56, 0.0000035155435, 9.999893, 9.998968 
2.0500055e+2, 1.7496501e+2, -1321971.6, -1388256.5, 26641.443, -0.059332315, 0.06882819, -1312591.3, -87230.43, 0.0000000004928599, 9.999811, 9.998946 
2.0499976e+2, 1.8496412e+2, -1149380.5, -1181551.8, -26138.877, -0.055476308, 0.056111474, -1134774.4, -7407.0083, 0.0, 10.000002, 9.999602 
2.0499966e+2, 1.9496463e+2, -988134.5, -1056336.3, -68398.97, 0.07074746, 0.12238582, -945807.06, 83553.95, 0.0, 10.000445, 9.999575 
2.0499878e+2, 2.049646e+2, -953867.2, -1023630.06, -47559.805, 0.09846271, 0.1806499, -929768.56, 1592.2772, 0.0, 10.000167, 9.999259 
2.0499718e+2, 2.1496384e+2, -1010354.56, -1002030.56, -34925.043, 0.03408524, 0.15523396, -971020.44, -137652.1, 0.0, 9.999114, 9.999243 
2.0499599e+2, 2.2496308e+2, -902302.6, -889569.0, -4783.9297, -0.010043101, 0.15510792, -887972.0, -152597.14, 0.0, 9.999141, 9.999324 
2.0499526e+2, 2.3496227e+2, -645374.1, -720361.3, -28284.156, -0.03455622, 0.115398504, -635902.1, 1479.1324, 0.0, 10.000247, 9.999287 
2.0499474e+2, 2.449608e+2, -532977.7, -739347.8, -33464.594, -0.007959719, 0.099108614, -527686.8, 11708.983, 0.0, 10.000886, 9.998168 
2.049944e+2, 2.5495857e+2, -404313.56, -632477.5, -13007.149, 0.06331301, 0.032065414, -403574.44, 37845.28, 0.0, 10.001117, 9.99812 
2.0499437e+2, 2.6495767e+2, -334237.16, -485303.97, 55238.723, 0.07200925, 0.106700845, -316193.8, 27237.332, 0.0, 10.0006695, 9.998673 
2.0499457e+2, 2.749579e+2, -402773.03, -472413.7, 382.74026, 0.01760339, 0.23429741, -402770.94, -157338.45, 0.00000002096579, 9.999542, 9.998633 
2.0499402e+2, 2.8495702e+2, -347239.47, -416941.2, -70639.68, -0.035333373, 0.3018244, -303321.38, -155879.98, 0.0000012828043, 9.999343, 9.998439 
2.0499274e+2, 2.949557e+2, -120019.1, -238155.47, -78896.57, -0.07819923, 0.29201284, -80529.08, -31076.773, 0.000007381431, 10.000143, 9.998609 
2.0499313e+2, 3.0495298e+2, 17848.785, 128521.09, -98074.766, 0.057863027, 0.032364875, 185793.78, 185793.78, 0.000026183789, 9.99959, 10.001066 
2.0499076e+2, 3.1495547e+2, -386397.8, -232889.36, -57410.895, -0.05014445, 0.1644951, -213793.6, -213793.6, 0.00007851838, 9.997494, 9.999585 
2.1500461e+2, 1.2496935e+2, -1784420.3, -1634948.4, -12397.274, -0.08656828, 0.16709313, -1633927.1, 81396.74, 0.0011273269, 9.99898, 10.00102 
2.1500184e+2, 1.3497013e+2, -1633871.5, -1570471.8, -49298.125, -0.23108204, 0.17242526, -1543561.1, 73748.34, 0.0006276391, 9.999628, 10.000485 
2.1500295e+2, 1.4496987e+2, -1605252.3, -1658970.5, -32535.67, -0.012218056, 0.16991898, -1589921.6, -70611.31, 0.0002466057, 9.999794, 9.999115 
2.150035e+2, 1.5496883e+2, -1497918.9, -1564122.0, 7230.268, 0.12865965, 0.12965764, -1497138.4, -75815.03, 0.000052325075, 9.999896, 9.9990425 
2.1500239e+2, 1.649684e+2, -1427031.6, -1508524.9, 29708.13, 0.0841831, 0.19861977, -1417351.4, -94022.19, 0.000002586899, 9.9998455, 9.998774 
2.1499997e+2, 1.7496842e+2, -1341577.9, -1418804.8, 32590.412, -0.11982676, 0.2968787, -1329662.8, -104333.555, 0.000000000052014764, 9.999772, 9.998752 
2.1499927e+2, 1.8496701e+2, -1222312.4, -1318860.6, -16822.229, -0.12452486, 0.2900804, -1219465.3, -92121.91, 0.0, 9.999938, 9.998693 
2.1500021e+2, 1.9496408e+2, -1055545.5, -1185630.4, -42137.703, 0.05898108, 0.099053435, -1043088.8, -13715.7295, 0.0, 10.0004, 9.99871 
2.14999e+2, 2.0496309e+2, -920270.3, -940624.4, -97140.84, 0.08487212, 0.07529596, -832774.9, 98606.15, 0.0, 10.000106, 9.999859 
2.149957e+2, 2.14964e+2, -978885.8, -917345.44, -66495.28, -0.045075487, 0.15760553, -874846.06, -41478.688, 0.0, 9.999028, 9.999865 
2.1499479e+2, 2.2496364e+2, -945236.1, -953564.4, 28568.08, -0.06308191, 0.18282132, -920530.25, -185161.17, 0.0, 9.999036, 9.998934 
2.1499628e+2, 2.349618e+2, -689622.8, -784148.56, 24169.037, 0.024562642, 0.07907771, -683801.56, -46413.797, 0.0, 10.000131, 9.998901 
2.1499646e+2, 2.4496096e+2, -488937.25, -636133.0, -33108.105, 0.053787347, 0.11024266, -481833.25, 57563.17, 0.0, 10.000836, 9.998902 
2.1499541e+2, 2.549612e+2, -364581.6, -527819.06, 3570.864, 0.02828378, 0.21789873, -364503.53, 76891.15, 0.0, 10.001025, 9.998883 
2.1499489e+2, 2.6496017e+2, -422259.03, -657794.06, 4647.206, 0.036258366, 0.29946637, -422167.38, -78760.44, 0.0, 10.000626, 9.997508 
2.149948e+2, 2.7495754e+2, -499997.44, -652874.94, -32449.627, 0.0633548, 0.26211113, -493394.88, -247957.95, 0.00000000626477, 9.999452, 9.997437 
2.1499434e+2, 2.8495526e+2, -352139.75, -419017.94, -50846.977, 0.040245693, 0.24340634, -324721.75, -177260.83, 0.00000075455597, 9.999312, 9.998438 
2.1499363e+2, 2.949538e+2, -131925.5, -253097.39, -38594.18, -0.029839873, 0.2229079, -120677.14, -71203.75, 0.0000049684672, 10.000103, 9.998527 
2.1499345e+2, 3.0495209e+2, -4602.196, 72876.44, -182034.97, 0.11009975, 0.09592768, 220248.55, 220248.55, 0.000019548965, 9.9996195, 10.000677 
2.1498947e+2, 3.1495407e+2, -437165.2, -333897.1, -85080.79, 0.024358956, 0.20561455, -286008.2, -286008.2, 0.00006122242, 9.997463, 9.998919 
2.250046e+2, 1.2497053e+2, -1675295.6, -1612096.5, 106105.33, -0.01606304, 0.21755315, -1532985.3, 182327.64, 0.0009979393, 9.999837, 10.000772 
2.2500259e+2, 1.3497084e+2, -1662281.9, -1620648.5, -15047.389, -0.107389994, 0.20689344, -1615779.4, 1524.5793, 0.0005469221, 9.999603, 10.000145 
2.2500356e+2, 1.449701e+2, -1588107.4, -1614866.9, 4944.9067, 0.07470777, 0.15936022, -1587222.9, -67913.81, 0.00020906674, 9.999759, 9.999441 
2.2500332e+2, 1.5496945e+2, -1385995.9, -1473617.0, -9314.736, 0.095415324, 0.12632656, -1385016.5, 36300.5, 0.000042237294, 10.000506, 9.999375 
2.250022e+2, 1.6496941e+2, -1297960.3, -1418581.6, 350.2467, 0.048437227, 0.20551398, -1297959.3, 25359.133, 0.0000020119714, 10.000602, 9.999027 
2.2500049e+2, 1.749698e+2, -1303040.6, -1376820.5, 14226.803, -0.04737041, 0.3155839, -1300392.4, -75077.42, 0.0, 9.9999275, 9.998967 
2.249999e+2, 1.8496858e+2, -1285630.3, -1365892.8, 48774.77, -0.031941436, 0.32344654, -1262599.0, -135270.61, 0.0, 9.999578, 9.998538 
2.2500032e+2, 1.9496572e+2, -1201697.9, -1275581.5, 61216.79, 0.080611885, 0.15469548, -1167140.1, -137780.61, 0.0, 9.999492, 9.9985285 
2.2499901e+2, 2.0496458e+2, -947989.0, -955225.2, 17296.592, 0.087759316, 0.12776501, -933936.1, -2567.234, 0.0, 9.999922, 9.999853 
2.2499596e+2, 2.149651e+2, -719222.5, -792598.9, -15310.47, -0.0064977068, 0.17085405, -716156.06, 117201.46, 0.0, 10.00081, 9.9998665 
2.2499517e+2, 2.2496435e+2, -713532.06, -874182.94, 81276.29, -0.010352485, 0.17248261, -679585.8, 55776.46, 0.0, 10.000764, 9.99865 
2.2499666e+2, 2.3496218e+2, -767046.5, -850544.5, 65740.48, 0.07668502, 0.062475815, -730918.75, -93533.9, 0.0, 9.99973, 9.998636 
2.2499695e+2, 2.4496138e+2, -695942.75, -746457.8, 13616.915, 0.09161509, 0.115149975, -692506.0, -153112.48, 0.0, 9.999459, 9.998813 
2.24996e+2, 2.5496194e+2, -514159.22, -610912.06, -29160.2, 0.04196399, 0.26582357, -506050.28, -64661.617, 0.0, 10.000039, 9.998795 
2.2499536e+2, 2.6496065e+2, -467775.94, -668565.1, -31712.328, 0.044307265, 0.31712988, -462886.4, -119483.39, 0.0, 10.000265, 9.997606 
2.2499496e+2, 2.7495715e+2, -378655.47, -585232.2, 9989.437, 0.101957224, 0.18329845, -378173.53, -132734.03, 0.00000000006385136, 10.000235, 9.997526 
2.2499418e+2, 2.8495488e+2, -277689.72, -366257.63, 83603.086, 0.07959911, 0.15430449, -227366.36, -79903.52, 0.00000032397858, 9.999743, 9.998596 
2.2499312e+2, 2.9495424e+2, -330674.06, -339826.13, 85516.17, -0.014786773, 0.20182103, -249611.58, -200143.19, 0.000003287384, 9.998701, 9.998604 
2.249924e+2, 3.049534e+2, -205104.0, -73367.81, -50829.99, 0.10843199, 0.17919023, -56035.586, -56035.586, 0.00001589248, 9.998461, 10.000222 
2.2498822e+2, 3.1495407e+2, -196854.7, -225211.33, 35729.188, 0.079677954, 0.1939439, -172593.45, -172593.45, 0.000052100033, 9.999144, 9.998849 
2.350032e+2, 1.2497358e+2, -1734199.8, -1737380.0, 76574.05, -0.19061448, 0.34970564, -1659199.4, 56081.8, 0.0008671324, 9.999858, 9.999901 
2.3500407e+2, 1.3497172e+2, -1715090.4, -1739994.0, -26306.97, 0.057363283, 0.20969863, -1698437.1, -81140.39, 0.0004662031, 9.999633, 9.999318 
2.3500502e+2, 1.4497001e+2, -1601738.6, -1626012.1, 20608.984, 0.22413991, 0.10508132, -1589958.3, -70645.43, 0.00017258529, 9.99969, 9.999398 
2.3500247e+2, 1.5497053e+2, -1390407.5, -1482426.3, 30055.744, -0.06530351, 0.1963197, -1381460.4, 39848.277, 0.000033446406, 10.000506, 9.999315 
2.3500133e+2, 1.6497032e+2, -1263219.0, -1334529.6, -35256.832, -0.12117299, 0.23226956, -1248731.0, 74578.77, 0.0000017722703, 10.000552, 9.999631 
2.350019e+2, 1.7496909e+2, -1257874.3, -1278036.9, -2563.1611, 0.07775641, 0.11836334, -1257553.5, -32234.36, 0.0000000001389195, 9.999902, 9.99966 
2.3500139e+2, 1.8496884e+2, -1259753.8, -1291510.0, 36006.613, 0.13843608, 0.15920319, -1236279.8, -108957.32, 0.0, 9.999493, 9.999093 
2.3499967e+2, 1.9496955e+2, -1170745.9, -1199038.1, 65641.75, 0.043803968, 0.2950636, -1117743.3, -88422.945, 0.0, 9.99944, 9.99908 
2.349984e+2, 2.0496903e+2, -1003135.44, -1047661.56, 41758.57, 0.01804012, 0.33260155, -978076.0, -46750.93, 0.0, 9.999827, 9.999264 
2.3499763e+2, 2.1496716e+2, -775906.0, -886296.3, 28010.832, 0.059923895, 0.19299862, -769205.2, 64133.285, 0.0, 10.000704, 9.999276 
2.3499687e+2, 2.2496533e+2, -745351.06, -912647.4, 34939.234, 0.06628072, 0.12790179, -738347.4, -2993.6174, 0.0, 10.000651, 9.99844 
2.3499615e+2, 2.3496346e+2, -795510.0, -888173.1, 35948.26, 0.031630237, 0.07298127, -783199.5, -145827.44, 0.0, 9.999638, 9.9984255 
2.349958e+2, 2.4496195e+2, -764493.3, -877272.0, 25079.566, 0.007998331, 0.10817006, -759167.6, -219779.5, 0.0, 9.99941, 9.997937 
2.3499587e+2, 2.5496075e+2, -589794.8, -744910.8, 1099.2422, 0.0022687295, 0.16976087, -589787.0, -148384.36, 0.0, 9.999942, 9.99792 
2.3499553e+2, 2.6495907e+2, -379102.1, -474167.06, -41050.72, 0.01417882, 0.16128838, -363829.34, -20410.154, 0.0, 10.000221, 9.998962 
2.349948e+2, 2.749567e+2, -291391.4, -389210.2, 19840.129, 0.038301487, 0.00017516836, -287520.5, -42080.414, 0.0, 10.000168, 9.998907 
2.349932e+2, 2.8495595e+2, -257973.88, -320138.6, 36527.266, -0.017705271, 0.03910118, -241094.22, -93647.4, 0.00000009734078, 9.999721, 9.998924 
2.3499085e+2, 2.9495704e+2, -323219.78, -310435.5, 53296.266, -0.13971728, 0.22692606, -263149.44, -213711.48, 0.0000024854203, 9.998633, 9.998843 
2.3498958e+2, 3.0495676e+2, -232995.13, -132574.89, -31853.55, -0.042733625, 0.27774948, -123323.23, -123323.23, 0.00001465121, 9.998461, 9.999819 
2.3498638e+2, 3.1495556e+2, -163701.8, -152747.66, 109194.79, -0.066958904, 0.13868815, -48892.66, -48892.66, 0.000049295926, 9.999114, 9.999367 
2.4500373e+2, 1.249736e+2, -1826832.4, -1830345.9, 28706.584, -0.093849, 0.31822604, -1799828.9, -84548.586, 0.0007416808, 9.99944, 9.999464 
2.450048e+2, 1.349723e+2, -1563085.9, -1701248.0, -79563.74, 0.11547985, 0.2648872, -1526798.1, 90495.81, 0.00038814702, 10.000831, 9.999011 
2.4500544e+2, 1.4497042e+2, -1437590.4, -1529836.8, -14122.327, 0.25321466, 0.15129289, -1435476.8, 83835.984, 0.00013769997, 10.0007305, 9.999554 
2.4500266e+2, 1.5497114e+2, -1561400.5, -1552229.1, -10678.898, -0.029779766, 0.245905, -1545193.0, -123887.414, 0.000025817635, 9.99928, 9.999424 
2.450015e+2, 1.649709e+2, -1458560.4, -1383057.3, -41075.254, -0.07906268, 0.25501946, -1365020.4, -41714.457, 0.0000016011192, 9.999018, 10.000039 
2.4500237e+2, 1.7496943e+2, -1237124.6, -1224535.0, -44291.816, 0.14414762, 0.07736734, -1186092.9, 39223.51, 0.0000000006420841, 9.999858, 10.000052 
2.4500181e+2, 1.8496951e+2, -1117891.6, -1176579.5, -10088.522, 0.19692084, 0.11021754, -1116205.9, 11109.647, 0.0, 10.000267, 9.999504 
2.4499957e+2, 1.9497107e+2, -1037408.75, -1090040.9, -9591.829, 0.06015724, 0.29070798, -1035715.2, -6411.6587, 0.0, 10.000164, 9.999474 
2.449984e+2, 2.0497084e+2, -988782.4, -1051616.3, 7682.284, 0.033194646, 0.34053692, -987856.75, -56550.992, 0.0, 9.999975, 9.99916 
2.4499843e+2, 2.1496873e+2, -946689.7, -979462.25, 11591.208, 0.13089867, 0.18763195, -943004.44, -109681.35, 0.0, 9.99959, 9.9991665 
2.4499775e+2, 2.2496702e+2, -836164.06, -952700.75, 57507.188, 0.1266179, 0.13712533, -812565.0, -77226.83, 0.0, 10.000006, 9.998476 
2.4499638e+2, 2.3496561e+2, -566102.6, -771016.4, 63882.168, 0.01889612, 0.12481526, -547818.7, 89533.3, 0.0, 10.001187, 9.998481 
2.4499583e+2, 2.4496397e+2, -490065.03, -723903.1, 107095.04, -0.01351782, 0.13384356, -448429.97, 90938.375, 0.0, 10.001198, 9.998136 
2.449962e+2, 2.5496203e+2, -560311.1, -707924.5, 145148.45, 0.043235354, 0.099447004, -471282.0, -29894.047, 0.0, 10.000044, 9.998128 
2.449958e+2, 2.649605e+2, -490347.78, -517501.97, 121865.016, 0.06274893, 0.09381787, -381305.88, -37903.152, 0.0, 9.999407, 9.999062 
2.4499458e+2, 2.749594e+2, -406725.1, -429782.88, 71192.305, 0.04784378, 0.047824703, -346134.22, -100720.586, 0.0, 9.999321, 9.999034 
2.449927e+2, 2.8495896e+2, -302829.06, -321317.88, 40325.242, -0.013646015, 0.10271679, -270702.16, -123284.305, 0.00000009803459, 9.999326, 9.999108 
2.449902e+2, 2.9495916e+2, -192196.69, -224863.64, 26085.723, -0.10119148, 0.18517418, -177752.78, -128336.68, 0.0000023443192, 9.999438, 9.9990425 
2.4498828e+2, 3.049591e+2, -137353.92, -106657.21, -7187.437, -0.048091337, 0.25104225, -105057.664, -105057.664, 0.000014050109, 9.999219, 9.999625 
2.4498513e+2, 3.149586e+2, -198490.44, -108373.95, 128746.74, -0.06856837, 0.20263168, -17028.496, -17028.496, 0.000047419504, 9.998644, 9.999883 
2.5500554e+2, 1.2497073e+2, -1829987.0, -1833199.0, 62179.445, 0.09494171, 0.13274954, -1769392.9, -54083.883, 0.000622871, 9.999425, 9.999453 
2.5500455e+2, 1.3497248e+2, -1540489.8, -1652152.0, -21992.355, -0.0130829, 0.35831758, -1536314.4, 80981.766, 0.00031436078, 10.000831, 9.999343 
2.5500473e+2, 1.449713e+2, -1421303.3, -1492319.4, -79257.125, 0.08144546, 0.28521675, -1369963.6, 149345.53, 0.00010539114, 10.0007105, 9.999823 
2.5500342e+2, 1.5497124e+2, -1541572.6, -1508571.5, -55753.883, 0.09498047, 0.27251312, -1466927.8, -45619.652, 0.000019009012, 9.999268, 9.999728 
2.5500226e+2, 1.6497119e+2, -1456233.5, -1359855.8, -17736.5, 0.07714145, 0.272977, -1356695.3, -33388.918, 0.0000013062046, 9.998945, 10.000231 
2.550016e+2, 1.7497091e+2, -1227299.4, -1197536.1, -1454.7072, 0.05904029, 0.19682814, -1197465.3, 27840.94, 0.000000000635992, 9.999837, 10.000242 
2.5500083e+2, 1.8497065e+2, -1110496.4, -1148221.6, -21536.982, 0.051975895, 0.17465408, -1100729.6, 26577.281, 0.0, 10.000207, 9.99973 
2.5499973e+2, 1.9497024e+2, -1026290.9, -1054890.8, -4741.6426, 0.036871813, 0.13237895, -1025525.25, 3784.6953, 0.0, 10.000109, 9.999741 
2.549988e+2, 2.0496994e+2, -984548.0, -1014668.8, -14747.294, 0.05644302, 0.14637196, -978530.0, -47218.473, 0.0, 9.999856, 9.999472 
2.5499803e+2, 2.1496965e+2, -934539.6, -936846.3, 6283.5317, 0.11058016, 0.14416121, -929304.5, -95991.77, 0.0, 9.999514, 9.9994955 
2.5499746e+2, 2.2496927e+2, -823631.2, -905900.2, 92457.26, 0.07713244, 0.19225636, -763570.9, -28254.229, 0.0, 9.999917, 9.998841 
2.5499701e+2, 2.3496862e+2, -554386.44, -724563.6, 117962.52, -0.05620479, 0.21657617, -494026.7, 143298.27, 0.0, 10.00109, 9.998847 
2.549968e+2, 2.4496748e+2, -412397.22, -548233.6, 55209.836, -0.05624239, 0.19517638, -392788.22, 146545.63, 0.0, 10.001137, 9.99937 
2.5499678e+2, 2.549657e+2, -487281.66, -536068.94, 108384.08, 0.0751237, 0.054613434, -400580.03, 40764.977, 0.0, 9.999953, 9.999353 
2.5499585e+2, 2.6496494e+2, -576044.56, -683445.3, 109968.71, 0.10675449, 0.116718255, -507365.03, -164011.03, 0.0, 9.999358, 9.997946 
2.54994e+2, 2.7496508e+2, -495383.06, -599504.5, 78375.62, 0.03636047, 0.31600478, -453353.1, -207991.42, 0.0, 9.999252, 9.997907 
2.549924e+2, 2.849638e+2, -308138.25, -317345.8, 34438.137, 0.00029911613, 0.3353878, -277997.53, -130620.33, 0.00000013920514, 9.999274, 9.999153 
2.5499085e+2, 2.949607e+2, -202293.75, -217707.05, 36730.766, -0.0036413802, 0.08074772, -172469.86, -123066.984, 0.0000022917138, 9.999329, 9.999138 
2.5498822e+2, 3.0496016e+2, -137579.23, -106255.31, -34750.363, 0.004140315, 0.09623705, -83800.55, -83800.55, 0.000012885881, 9.999215, 9.999631 
2.5498393e+2, 3.1496274e+2, -178754.42, -61122.97, 149709.06, -0.10537928, 0.3654561, 40909.35, 40909.35, 0.000044516015, 9.998614, 10.000228 
2.6500693e+2, 1.2497058e+2, -1648521.5, -1738090.4, 160444.55, 0.2429199, 0.12884188, -1526728.4, 188582.4, 0.0005136847, 10.000615, 9.999531 
2.6500478e+2, 1.3497283e+2, -1727397.4, -1699380.5, 46751.332, 0.011489032, 0.35522848, -1664584.0, -47290.785, 0.0002486243, 9.999327, 9.999753 
2.6500434e+2, 1.4497197e+2, -1627168.0, -1543950.1, 19551.48, 0.05596925, 0.2730286, -1539585.5, -20283.453, 0.00007773356, 9.999108, 10.000236 
2.65004e+2, 1.5497206e+2, -1342091.9, -1365932.6, 30245.656, 0.17169043, 0.23587392, -1321502.3, 99795.35, 0.000013419433, 10.0004425, 10.000142 
2.650029e+2, 1.6497228e+2, -1213207.8, -1278717.4, 78272.6, 0.1609012, 0.25788727, -1161112.9, 162181.16, 0.0000010267595, 10.00076, 9.999919 
2.6500124e+2, 1.7497243e+2, -1237481.4, -1237012.4, 37592.93, 0.040445488, 0.25546098, -1199653.3, 25639.53, 0.0000000012219834, 9.999912, 9.999936 
2.6500052e+2, 1.8497199e+2, -1157745.6, -1146334.8, 23544.37, 0.025962528, 0.22124909, -1127814.4, -518.9532, 0.0, 9.999777, 9.99995 
2.6500058e+2, 1.9497086e+2, -987295.9, -1014675.1, 18382.459, 0.1082177, 0.087517135, -978065.6, 51237.375, 0.0, 10.00028, 9.99994 
2.649997e+2, 2.049705e+2, -850446.75, -947026.6, 8044.438, 0.12166121, 0.08143477, -849781.3, 81523.23, 0.0, 10.000766, 9.999497 
2.6499787e+2, 2.1497075e+2, -699987.56, -825787.1, -13757.206, 0.065640405, 0.13496509, -698500.6, 134800.48, 0.0, 10.001131, 9.999482 
2.649972e+2, 2.2497058e+2, -700675.56, -846519.94, 61410.03, 0.02561743, 0.20540008, -678262.4, 57041.832, 0.0, 10.000755, 9.998846 
2.6499787e+2, 2.349699e+2, -773263.94, -834353.25, 37054.336, -0.00014307503, 0.22752225, -755787.75, -118473.35, 0.0, 9.999598, 9.998817 
2.649976e+2, 2.4496914e+2, -658062.5, -607252.4, -61981.254, 0.009344805, 0.22220169, -565671.7, -26351.904, 0.0, 9.999211, 9.999885 
2.6499635e+2, 2.549682e+2, -490213.84, -474579.88, -76527.03, 0.054978043, 0.11305256, -405471.63, 35849.96, 0.0, 9.999682, 9.999894 
2.6499498e+2, 2.6496762e+2, -527378.9, -665131.3, -41361.254, 0.06990031, 0.1674826, -515914.06, -172585.66, 0.0, 9.999707, 9.997909 
2.6499355e+2, 2.7496743e+2, -489271.78, -596053.7, -10690.154, 0.068809174, 0.33601227, -488212.1, -242872.48, 0.0, 9.999302, 9.997904 
2.649922e+2, 2.8496617e+2, -302578.1, -301061.66, 25326.41, 0.06306103, 0.35098222, -276482.13, -129127.62, 0.00000017298198, 9.999238, 9.999287 
2.6499078e+2, 2.9496336e+2, -160267.44, -174800.44, 17016.768, 0.055630177, 0.109083585, -149030.63, -99653.96, 0.000002277503, 9.999499, 9.999359 
2.649877e+2, 3.0496243e+2, -74255.38, -96878.01, -46008.66, 0.014191189, 0.08007389, -38187.984, -38187.984, 0.000011802607, 9.999722, 9.99947 
2.649842e+2, 3.1496397e+2, -21056.04, 15794.169, 105460.805, 0.016562896, 0.27008116, 104427.3, 104427.3, 0.000041814666, 9.999668, 10.000264 
2.7500746e+2, 1.2497298e+2, -1635454.9, -1711461.5, 80320.76, 0.17619002, 0.28635556, -1584600.5, 130686.86, 0.00042107303, 10.00061, 9.999717 
2.75005e+2, 1.3497338e+2, -1682948.1, -1611150.5, -1266.8418, 0.07457115, 0.269569, -1611128.1, 6156.304, 0.00019522583, 9.999343, 10.000349 
2.7500385e+2, 1.4497249e+2, -1593700.5, -1470104.8, 53281.957, 0.06667351, 0.1288596, -1450306.4, 68984.21, 0.000056360343, 9.999092, 10.00075 
2.7500412e+2, 1.5497361e+2, -1308171.9, -1291469.3, 91722.56, 0.114760965, 0.14504817, -1207718.6, 213555.36, 0.000009372096, 10.000433, 10.000657 
2.7500314e+2, 1.6497417e+2, -1270913.6, -1391451.1, 37555.8, 0.08585283, 0.21168941, -1260170.0, 63098.68, 0.0000008660051, 10.0007305, 9.999155 
2.7500093e+2, 1.7497389e+2, -1296472.0, -1354402.1, 14392.773, -0.009983902, 0.24464567, -1293093.1, -67816.32, 0.000000004874734, 9.999893, 9.999136 
2.750005e+2, 1.849735e+2, -1159317.5, -1129221.5, 33381.363, 0.025456611, 0.24848111, -1107653.1, 19628.305, 0.0, 9.999694, 10.000106 
2.7500182e+2, 1.9497298e+2, -981389.9, -989287.1, 48028.73, 0.17850526, 0.1554861, -937147.75, 92134.695, 0.0, 10.000232, 10.000132 
2.750008e+2, 2.0497257e+2, -886315.3, -1001814.2, 12765.721, 0.14031178, 0.15420593, -884921.2, 46362.695, 0.0, 10.000681, 9.999164 
2.7499756e+2, 2.1497202e+2, -738016.06, -878175.7, 9394.115, -0.09845797, 0.15722857, -737389.2, 95899.22, 0.0, 10.001019, 9.999174 
2.7499682e+2, 2.2497097e+2, -752221.7, -922640.2, 9451.104, -0.112150535, 0.17706859, -751699.1, -16398.34, 0.0, 10.000625, 9.998387 
2.749986e+2, 2.3496932e+2, -820384.2, -906028.1, 310.38538, 0.09433564, 0.14996687, -820383.06, -183061.25, 0.0, 9.999487, 9.998379 
2.7499786e+2, 2.4496885e+2, -678779.6, -636244.56, -54267.82, 0.09563851, 0.2019529, -599225.7, -59898.19, 0.0, 9.999151, 9.999714 
2.749945e+2, 2.549694e+2, -513602.84, -508414.56, -50540.188, -0.11773629, 0.25723994, -460402.0, -19082.604, 0.0, 9.999611, 9.9997 
2.7499285e+2, 2.649685e+2, -463890.88, -520052.13, -68804.71, -0.13258477, 0.24163224, -417657.25, -74330.45, 0.0, 9.999655, 9.998929 
2.7499288e+2, 2.7496618e+2, -430619.3, -456455.34, -18099.873, 0.049935736, 0.09381319, -421300.4, -175950.61, 0.00000000009324417, 9.999225, 9.9989 
2.7499193e+2, 2.8496575e+2, -286942.4, -258046.84, 25073.455, 0.088406764, 0.13260904, -243556.47, -96203.48, 0.00000023612336, 9.999198, 9.999598 
2.7498966e+2, 2.9496697e+2, -142752.31, -125015.016, 37773.117, -0.037182726, 0.26179808, -95083.39, -45744.41, 0.0000024951785, 9.999441, 9.999728 
2.7498624e+2, 3.0496597e+2, -91111.23, -125807.95, -54868.92, -0.1254523, 0.21069808, -50913.395, -50913.395, 0.000011675634, 9.999706, 9.9992695 
2.7498516e+2, 3.1496242e+2, -60009.836, -41689.496, 126718.88, 0.096247904, -0.08096238, 76199.87, 76199.87, 0.000040361934, 9.999571, 9.999912 
2.8500742e+2, 1.2497418e+2, -1702315.3, -1761147.0, 99211.75, 0.1420455, 0.29783595, -1628250.4, 87023.37, 0.00034660724, 10.000241, 9.999547 
2.85006e+2, 1.3497397e+2, -1513018.9, -1519887.8, -59169.805, 0.19087146, 0.21759322, -1457184.0, 160092.52, 0.00015383559, 10.000492, 10.00041 
2.8500423e+2, 1.4497346e+2, -1414259.0, -1378658.5, 18498.764, 0.14432387, 0.10654358, -1370786.8, 148492.36, 0.00004093297, 10.000299, 10.000798 
2.8500363e+2, 1.5497455e+2, -1396806.0, -1329937.8, 1334.884, 0.06256147, 0.11652646, -1329911.1, 91351.46, 0.0000066741927, 9.999792, 10.000708 
2.850029e+2, 1.6497497e+2, -1398766.3, -1458335.1, -42191.91, 0.036121555, 0.17269248, -1376905.0, -53646.75, 0.00000074756446, 9.999887, 9.9991045 
2.8500205e+2, 1.7497453e+2, -1194398.9, -1315437.9, -32043.82, 0.08119628, 0.1972302, -1186439.0, 38829.04, 0.000000006090155, 10.000634, 9.999055 
2.8500158e+2, 1.8497425e+2, -1023237.3, -1080028.0, 22938.57, 0.11858249, 0.22477849, -1015129.56, 112142.734, 0.0, 10.000701, 9.999957 
2.8500146e+2, 1.9497414e+2, -1023989.3, -1029529.8, -8055.959, 0.13773134, 0.18983817, -1018240.6, 11030.711, 0.0, 10.000022, 9.999961 
2.8500053e+2, 2.0497385e+2, -989218.7, -1033354.6, -7472.8823, 0.08587487, 0.20029883, -987987.75, -56715.258, 0.0, 9.9999, 9.999316 
2.849987e+2, 2.1497321e+2, -841934.0, -913568.75, 5150.5576, -0.041025862, 0.17865355, -841565.56, -8287.892, 0.0, 10.000245, 9.999302 
2.8499797e+2, 2.2497196e+2, -787559.8, -940895.8, 24736.51, -0.044003025, 0.17633243, -783668.0, -48376.844, 0.0, 10.000393, 9.99837 
2.8499827e+2, 2.3497008e+2, -697809.4, -849095.06, 30300.508, 0.07602563, 0.12661494, -691966.25, -54652.55, 0.0, 10.000341, 9.998358 
2.84997e+2, 2.4496953e+2, -598708.94, -636818.8, 19173.826, 0.06228701, 0.18961199, -590731.94, -51410.3, 0.0, 9.999861, 9.999368 
2.849941e+2, 2.549703e+2, -629510.0, -603069.7, -10369.494, -0.081850745, 0.3042888, -599488.1, -158173.1, 0.0, 9.998989, 9.999347 
2.849923e+2, 2.6496956e+2, -515734.63, -450657.06, -10613.239, -0.10948358, 0.27394187, -448969.94, -105649.81, 0.0, 9.998899, 9.999762 
2.8499168e+2, 2.7496698e+2, -322762.13, -309692.72, 8274.119, -0.0029274432, 0.017532319, -305684.03, -60345.26, 0.0000000018932573, 9.999554, 9.999745 
2.8499073e+2, 2.8496653e+2, -263226.03, -282908.13, 32581.557, 0.037966847, 0.024252458, -239031.75, -91690.914, 0.00000028816427, 9.999511, 9.999284 
2.8498915e+2, 2.949682e+2, -244705.23, -202802.33, -19359.17, 0.0022996299, 0.23005238, -195227.64, -145901.42, 0.0000027347362, 9.998871, 9.999466 
2.8498578e+2, 3.0496755e+2, -159478.1, -162733.63, -88536.61, -0.11013029, 0.22819126, -72554.28, -72554.28, 0.000012525966, 9.999241, 9.999235 
2.8498572e+2, 3.149634e+2, 20195.488, 11024.895, 62531.965, 0.18271837, -0.11638566, 78310.05, 78310.05, 0.000040482082, 10.000061, 10.000027 
2.950061e+2, 1.2497429e+2, -1736369.9, -1845662.9, 68010.42, -0.07634747, 0.17293693, -1703771.6, 11496.929, 0.00028487924, 10.000293, 9.998944 
2.9500744e+2, 1.3497463e+2, -1553339.3, -1606739.5, -45493.938, 0.2598669, 0.20024909, -1527289.1, 89980.09, 0.000121053716, 10.000511, 9.999802 
2.9500526e+2, 1.4497474e+2, -1441703.0, -1439417.3, -16432.406, 0.18391359, 0.20378332, -1424088.0, 95180.33, 0.000029834508, 10.000304, 10.000383 
2.950021e+2, 1.5497476e+2, -1427886.4, -1391717.0, -11369.351, -0.09616195, 0.14627731, -1388440.0, 32824.207, 0.000004731658, 9.999781, 10.000287 
2.950018e+2, 1.6497472e+2, -1361379.4, -1370234.4, -22387.729, -0.082560316, 0.14597465, -1342985.5, -19722.654, 0.00000054097734, 9.999846, 9.999726 
2.950043e+2, 1.7497446e+2, -1150311.9, -1217333.6, 9386.353, 0.21928816, 0.12231214, -1149022.1, 76242.91, 0.0000000012704189, 10.000616, 9.999731 
2.9500344e+2, 1.8497437e+2, -1067521.1, -1159883.3, -12174.516, 0.21115603, 0.157001, -1065943.4, 61323.74, 0.0, 10.000645, 9.99944 
2.949992e+2, 1.9497426e+2, -1069889.1, -1111153.1, -23998.303, -0.113918185, 0.17696059, -1058873.1, -29602.588, 0.0, 9.999964, 9.999427 
2.949984e+2, 2.0497423e+2, -962109.06, -952693.94, -1975.8318, -0.13469133, 0.21192536, -952296.1, -21025.11, 0.0, 9.999797, 9.999919 
2.9500094e+2, 2.149742e+2, -813947.75, -828786.06, 29383.092, 0.13762997, 0.19085357, -791061.6, 42208.113, 0.0, 10.000134, 9.999934 
2.9500034e+2, 2.2497357e+2, -777538.2, -889477.06, 13226.809, 0.13621217, 0.1953806, -775996.5, -40721.016, 0.0, 10.000264, 9.998784 
2.9499665e+2, 2.3497221e+2, -684733.5, -795535.8, 38925.383, -0.1400647, 0.1580533, -672425.9, -35136.363, 0.0, 10.000232, 9.9987755 
2.9499477e+2, 2.4497138e+2, -644653.94, -718065.2, -22622.17, -0.16612118, 0.19679244, -638242.7, -98942.305, 0.0, 9.999795, 9.998847 
2.9499477e+2, 2.5497097e+2, -675379.9, -684411.4, -34772.21, 0.06372911, 0.24998972, -644831.44, -203522.72, 0.0, 9.998923, 9.998827 
2.94993e+2, 2.649705e+2, -473284.94, -354890.9, 5890.347, 0.04765378, 0.24601729, -354598.56, -11288.354, 0.0, 9.998863, 10.000438 
2.949895e+2, 2.7496982e+2, -284421.47, -213938.06, 39060.863, -0.20118043, 0.10249403, -196570.56, 48736.383, 0.0000000016821552, 9.999482, 10.000438 
2.9498824e+2, 2.8496853e+2, -331049.97, -417505.94, -3015.1267, -0.18454058, 0.037513874, -330944.94, -183627.78, 0.00000022409213, 9.999484, 9.998375 
2.9498893e+2, 2.9496688e+2, -317081.63, -344976.5, -27335.262, 0.06256502, 0.008365459, -300341.16, -251002.42, 0.0000026534976, 9.99883, 9.998514 
2.94986e+2, 3.0496708e+2, -148180.98, -134537.73, -59749.703, -0.036774565, 0.12716173, -81221.51, -81221.51, 0.00001292508, 9.999222, 9.999436 
2.949851e+2, 3.1496656e+2, 58953.902, 96041.95, 102661.06, 0.056070693, 0.119767666, 181820.39, 181820.39, 0.00004085486, 10.000036, 10.000621 
3.0500704e+2, 1.2497504e+2, -1654235.3, -1809288.8, 78501.945, -0.027092014, 0.09704662, -1621430.9, 93828.195, 0.00023189351, 10.000876, 9.998922 
3.0500785e+2, 1.3497555e+2, -1610489.3, -1657833.0, -29817.467, 0.27026004, 0.16460241, -1596089.6, 21168.568, 0.000094942065, 10.0002, 9.999616 
3.0500528e+2, 1.4497599e+2, -1512770.4, -1534450.1, 46589.234, 0.17397423, 0.23707573, -1475776.6, 43479.04, 0.000021738364, 10.000112, 9.999807 
3.0500305e+2, 1.5497527e+2, -1312310.1, -1403860.8, 9919.405, -0.023573427, 0.16673003, -1311247.6, 110013.945, 0.0000030875526, 10.000877, 9.999669 
3.0500308e+2, 1.6497482e+2, -1155197.8, -1251796.4, 729.71356, -0.000035773697, 0.14855784, -1155192.3, 168071.94, 0.0000002653173, 10.001165, 9.999905 
3.0500507e+2, 1.749746e+2, -1095339.3, -1168686.6, -22997.521, 0.22658405, 0.10987968, -1088725.0, 136538.72, 0.0, 10.000893, 9.999931 
3.0500367e+2, 1.849745e+2, -1108217.0, -1195975.6, -66496.28, 0.18714713, 0.14160322, -1072427.4, 54837.992, 0.0, 10.000436, 9.999296 
3.0499893e+2, 1.9497432e+2, -1114900.4, -1156191.1, -69296.22, -0.12178906, 0.17133822, -1063239.5, -33968.254, 0.0, 9.999739, 9.999238 
3.0499813e+2, 2.049744e+2, -1004971.6, -949572.6, 4648.6577, -0.1159573, 0.21475345, -949185.25, -17913.438, 0.0, 9.999394, 10.000142 
3.050013e+2, 2.1497469e+2, -908420.9, -853808.7, -15286.067, 0.20181224, 0.20637217, -849821.25, -16553.596, 0.0, 9.999386, 10.000132 
3.0500063e+2, 2.2497451e+2, -851862.3, -845735.5, -23773.625, 0.1887518, 0.21120332, -824828.75, -89561.2, 0.0, 9.999409, 9.999498 
3.0499628e+2, 2.3497379e+2, -749031.44, -746356.9, 4814.769, -0.15321495, 0.16300528, -742697.1, -105424.7, 0.0, 9.999451, 9.999487 
3.0499423e+2, 2.44973e+2, -692795.25, -750423.56, -22347.4, -0.17872599, 0.17656186, -685144.9, -145863.69, 0.0, 9.99951, 9.99876 
3.0499446e+2, 2.549721e+2, -570013.06, -638053.6, -14201.616, 0.11017838, 0.1855475, -567167.8, -125873.16, 0.0, 9.999675, 9.998777 
3.049928e+2, 2.6497164e+2, -400461.4, -385606.7, 37045.977, 0.10643823, 0.21094635, -355250.84, -11952.553, 0.0, 9.999643, 9.999855 
3.0498922e+2, 2.749714e+2, -324763.2, -301382.6, -43919.055, -0.17304571, 0.17537162, -267624.6, -22330.205, 0.00000000014964384, 9.999494, 9.999837 
3.0498797e+2, 2.8497005e+2, -327203.63, -412577.1, -96920.484, -0.15196373, 0.13119219, -263985.97, -116679.3, 0.00000013461268, 9.999515, 9.9983835 
3.0498886e+2, 2.9496786e+2, -199915.1, -291140.94, -69885.78, 0.13862753, 0.049656924, -162074.06, -112742.266, 0.0000024184974, 9.999666, 9.998471 
3.049858e+2, 3.0496764e+2, -70368.89, -119749.04, -40096.434, -0.0054671695, 0.14355801, -47970.496, -47970.496, 0.00001259153, 9.999847, 9.999249 
3.049849e+2, 3.1496754e+2, 22560.393, 99021.625, 35751.684, 0.06166211, 0.1917323, 113133.76, 113133.76, 0.000039631555, 9.99969, 10.000827 
3.1500983e+2, 1.2497663e+2, -1606392.8, -1713693.9, -1096.1954, 0.112522654, 0.103694536, -1606381.5, 108861.87, 0.00018871382, 10.0009, 9.999565 
3.1500667e+2, 1.3497698e+2, -1596029.1, -1613529.6, -51816.453, 0.114560425, 0.12648919, -1552229.3, 65011.84, 0.00007509751, 10.000166, 9.9999275 
3.15004e+2, 1.4497739e+2, -1573126.5, -1664659.3, 62394.438, 0.0040383195, 0.22558455, -1541513.1, -22273.95, 0.00001598166, 10.000118, 9.998915 
3.1500626e+2, 1.5497606e+2, -1373077.8, -1532303.9, 49028.797, 0.17934482, 0.17730819, -1359191.8, 62062.953, 0.00000170519, 10.000888, 9.99878 
3.1500643e+2, 1.6497529e+2, -1179898.0, -1297987.6, -23166.21, 0.1951654, 0.18710846, -1175515.9, 147746.7, 0.000000057148895, 10.001136, 9.999605 
3.1500402e+2, 1.7497495e+2, -1120147.0, -1212410.5, -27362.957, 0.010360994, 0.16385676, -1112642.3, 112621.8, 0.0, 10.000859, 9.999647 
3.1500193e+2, 1.8497472e+2, -1101846.3, -1170701.6, -103085.1, -0.05126603, 0.18709026, -1027591.8, 99675.07, 0.0, 10.000379, 9.999499 
3.1500027e+2, 1.9497438e+2, -1105679.0, -1122858.0, -85991.516, 0.015864508, 0.17824247, -1027849.0, 1424.008, 0.0, 9.99968, 9.999495 
3.1499943e+2, 2.0497444e+2, -1038766.0, -990604.7, -6121.52, 0.052828316, 0.21804442, -989838.8, -58564.93, 0.0, 9.999277, 9.999914 
3.149994e+2, 2.1497475e+2, -942949.56, -895408.44, -5470.611, 0.05368403, 0.23444808, -894787.06, -61516.477, 0.0, 9.999263, 9.999902 
3.1499854e+2, 2.2497492e+2, -793210.75, -703174.6, -31112.756, 0.016094748, 0.2328386, -693469.5, 41796.81, 0.0, 9.999316, 10.000526 
3.149969e+2, 2.3497473e+2, -688949.4, -602835.8, 15114.531, -0.05890255, 0.14033951, -600260.0, 37002.75, 0.0, 9.999366, 10.00052 
3.1499502e+2, 2.4497429e+2, -671595.75, -695409.56, -26823.525, -0.07571898, 0.116707064, -654155.1, -114890.05, 0.0, 9.999465, 9.999157 
3.1499287e+2, 2.5497362e+2, -556948.44, -586554.6, -2644.195, -0.036666255, 0.10731615, -556714.2, -115440.914, 0.0, 9.999571, 9.99918 
3.149914e+2, 2.649729e+2, -533514.44, -653670.1, 22753.852, -0.017301591, 0.17814271, -529349.9, -186066.05, 0.0, 9.999606, 9.9980345 
3.1499055e+2, 2.749718e+2, -459589.78, -569209.2, -39547.65, -0.014931321, 0.23832934, -446811.6, -201510.97, 0.00000000001473293, 9.999436, 9.998027 
3.1498963e+2, 2.84971e+2, -270442.28, -289148.03, -102080.836, 0.03744167, 0.30066958, -177286.75, -29977.084, 0.000000108201135, 9.999489, 9.999242 
3.1498855e+2, 2.94971e+2, -152689.78, -180653.56, -53765.52, 0.112587295, 0.34151503, -111117.88, -61810.805, 0.0000023186144, 9.999603, 9.999263 
3.1498474e+2, 3.0496922e+2, -110273.65, -199473.63, -48049.473, -0.11466694, 0.27192137, -89315.18, -89315.18, 0.000012381474, 9.999834, 9.99871 
3.1498456e+2, 3.1496617e+2, 14405.635, 84948.14, 35898.22, 0.00324377, 0.07831544, 100003.26, 100003.26, 0.000038035574, 9.999669, 10.000744 
3.2501096e+2, 1.24977775e+2, -1782888.8, -1759211.1, -51223.297, 0.21557453, 0.1637218, -1718476.4, -3240.0735, 0.00015750076, 9.999499, 9.999925 
3.2500714e+2, 1.3497795e+2, -1373558.1, -1510205.0, -131063.71, 0.078718126, 0.16268505, -1294078.4, 323155.97, 0.00006189271, 10.001671, 9.999925 
3.2500446e+2, 1.4497821e+2, -1300098.4, -1560537.3, -9630.852, -0.0536226, 0.26076114, -1299742.6, 219490.36, 0.000012633238, 10.002099, 9.99868 
3.2500798e+2, 1.5497659e+2, -1368632.0, -1554684.1, 4343.369, 0.26218045, 0.20547348, -1368530.6, 52720.992, 0.0000008198343, 10.001008, 9.998576 
3.25008e+2, 1.6497575e+2, -1316823.0, -1368588.0, -17385.465, 0.28793937, 0.22029911, -1311526.0, 11734.981, 0.000000004124255, 10.000239, 9.999543 
3.250039e+2, 1.749756e+2, -1276109.6, -1300847.1, -27122.145, -0.029509181, 0.22643939, -1258669.1, -33407.066, 0.0, 9.9998455, 9.999531 
3.250017e+2, 1.8497546e+2, -1156217.6, -1165249.3, -68544.016, -0.08380446, 0.25238755, -1092040.8, 35223.04, 0.0, 9.999872, 9.999771 
3.2500136e+2, 1.9497527e+2, -1001447.44, -1039229.3, -70480.0, 0.13538288, 0.22712709, -947370.6, 81896.75, 0.0, 10.000262, 9.999777 
3.2500035e+2, 2.0497523e+2, -883281.8, -912747.06, 37526.734, 0.17159066, 0.24114935, -857699.4, 73568.12, 0.0, 10.000319, 9.99995 
3.249986e+2, 2.149753e+2, -840353.25, -841617.0, 41368.56, 0.022381544, 0.22698523, -799611.75, 33653.344, 0.0, 9.999944, 9.999946 
3.2499748e+2, 2.2497547e+2, -778841.56, -699927.9, 2275.0632, -0.017067455, 0.22563682, -699862.4, 35398.6, 0.0, 9.999425, 10.000497 
3.2499704e+2, 2.3497559e+2, -771371.56, -646096.4, -46996.43, 0.054514345, 0.1640524, -630426.0, 6830.505, 0.0, 9.998806, 10.000493 
3.2499534e+2, 2.4497521e+2, -731519.9, -727559.4, -91635.195, 0.036083, 0.14795177, -637883.0, -98624.18, 0.0, 9.999058, 9.999139 
3.2499242e+2, 2.549743e+2, -452409.56, -539547.9, -114092.914, -0.069694765, 0.11934375, -373849.8, 67418.125, 0.0, 10.000287, 9.999164 
3.249909e+2, 2.6497355e+2, -414521.22, -627663.7, -70028.85, -0.07166264, 0.20080978, -393572.0, -50292.113, 0.0, 10.000567, 9.997746 
3.2499072e+2, 2.7497256e+2, -407445.8, -575682.2, -35118.527, 0.04035637, 0.3036612, -400409.28, -155110.89, 0.00000000010851988, 9.999944, 9.997734 
3.2498983e+2, 2.849719e+2, -222142.34, -213357.17, -20022.096, 0.11098514, 0.36945635, -197251.48, -49945.695, 0.00000014604628, 9.999585, 9.999724 
3.2498822e+2, 2.949719e+2, -147452.83, -123829.68, -20617.682, 0.13639691, 0.36775836, -111879.9, -62581.74, 0.0000023415487, 9.999408, 9.999747 
3.24984e+2, 3.0496952e+2, -229835.66, -276704.1, -2991.283, -0.12574072, 0.22098142, -229645.5, -229645.5, 0.000012312151, 9.9991255, 9.998504 
3.2498354e+2, 3.1496742e+2, -166240.22, -35165.566, 41065.04, 0.0011789772, 0.13463806, -23362.873, -23362.873, 0.000036624067, 9.998612, 10.000404 
3.3500972e+2, 1.2497845e+2, -1788751.3, -1764448.4, -40350.516, 0.08747611, 0.27592516, -1734459.4, -19221.553, 0.00013853858, 9.999481, 9.999893 
3.3500895e+2, 1.349785e+2, -1399268.1, -1546204.6, -47486.613, 0.065176934, 0.2862021, -1385257.5, 231979.72, 0.000055370125, 10.001629, 9.99968 
3.3500642e+2, 1.4497855e+2, -1273089.8, -1496017.8, -65440.605, -0.09790317, 0.3535105, -1255299.4, 263937.06, 0.000011804474, 10.002058, 9.9991455 
3.3500788e+2, 1.549771e+2, -1332961.1, -1475402.5, -27253.53, 0.12697467, 0.26516324, -1327924.8, 93325.46, 0.00000057438905, 10.000991, 9.999126 
3.350074e+2, 1.649764e+2, -1314046.1, -1358748.4, -41959.813, 0.17934062, 0.26265758, -1288855.8, 34401.71, 0.00000000201948, 10.000216, 9.999627 
3.3500448e+2, 1.7497656e+2, -1271164.9, -1289922.4, -30875.135, 0.015462358, 0.29217607, -1248275.4, -23017.832, 0.0, 9.999838, 9.999614 
3.350026e+2, 1.8497677e+2, -1148938.9, -1128864.9, -64345.047, -0.004093165, 0.33344445, -1073778.8, 53477.67, 0.0, 9.999783, 10.000066 
3.3500192e+2, 1.9497687e+2, -990790.9, -1000614.8, -47334.527, 0.13931274, 0.30891028, -948114.1, 81141.12, 0.0, 10.0001955, 10.0000725 
3.3500063e+2, 2.0497677e+2, -872826.5, -869393.6, 13157.753, 0.1516182, 0.28301224, -857840.8, 73412.46, 0.0, 10.000227, 10.000293 
3.349987e+2, 2.1497627e+2, -832344.5, -796580.06, 36276.633, 0.018457616, 0.17942347, -774017.7, 59234.18, 0.0, 9.9998255, 10.000312 
3.349973e+2, 2.2497615e+2, -871088.6, -867257.5, -31537.959, -0.00025167182, 0.18648545, -837576.94, -102325.086, 0.0, 9.999323, 9.999395 
3.3499643e+2, 2.3497635e+2, -864720.56, -810989.0, -63737.695, 0.09429945, 0.24039856, -768686.44, -131432.64, 0.0, 9.998687, 9.999414 
3.3499497e+2, 2.4497578e+2, -764180.7, -788422.7, -53550.34, 0.07047039, 0.27784055, -721396.7, -182134.77, 0.0, 9.999022, 9.99874 
3.3499286e+2, 2.5497425e+2, -490799.13, -602390.2, -59356.316, -0.078525074, 0.22598162, -465131.06, -23853.305, 0.0, 10.000215, 9.998765 
3.3499104e+2, 2.6497364e+2, -335553.3, -458564.78, -102587.234, -0.1354847, 0.2822328, -277446.78, 65839.016, 0.0, 10.000545, 9.9989195 
3.349894e+2, 2.7497366e+2, -334141.03, -406263.53, -48869.215, -0.107545175, 0.36787227, -309468.3, -64180.074, 0.000000000044508567, 9.999869, 9.998932 
3.3498833e+2, 2.849727e+2, -210886.75, -189804.0, -35285.047, -0.023635348, 0.3319845, -163519.36, -16224.548, 0.00000018851506, 9.999575, 9.999896 
3.349875e+2, 2.949709e+2, -143134.17, -109693.61, -16573.807, 0.09335015, 0.12979615, -102871.19, -53567.273, 0.0000023038672, 9.999375, 9.999867 
3.3498317e+2, 3.0496854e+2, -229808.23, -275369.72, -28757.697, -0.14604865, -0.014266076, -215901.55, -215901.55, 0.000011796056, 9.99912, 9.998514 
3.3498126e+2, 3.1497103e+2, -230647.95, -149844.02, 32145.617, -0.13894832, 0.3532297, -138615.95, -138615.95, 0.000034748333, 9.998522, 9.999667 
3.4500998e+2, 1.2497905e+2, -1494246.0, -1644718.6, 54145.805, 0.06988067, 0.288741, -1476787.9, 238446.25, 0.00012841672, 10.001616, 9.999686 
3.4501138e+2, 1.3497889e+2, -1467178.6, -1635848.9, 27459.623, 0.17198722, 0.3251343, -1462820.8, 154415.89, 0.00005393956, 10.001384, 9.999205 
3.4500906e+2, 1.4497857e+2, -1391460.6, -1497464.6, -28183.137, 0.023183102, 0.35500774, -1384433.5, 134805.95, 0.00001321429, 10.001017, 9.999628 
3.4500808e+2, 1.5497765e+2, -1350541.3, -1437813.8, -25061.107, 0.07530409, 0.27375025, -1343856.6, 77389.734, 0.00000089811203, 10.000668, 9.999539 
3.4500697e+2, 1.649773e+2, -1284888.4, -1333457.0, -9311.635, 0.11543142, 0.27937657, -1283164.4, 40085.49, 0.0000000015154811, 10.00036, 9.999733 
3.450051e+2, 1.7497762e+2, -1227649.3, -1251410.1, -13741.565, 0.08881038, 0.31258228, -1221364.4, 3884.2969, 0.0, 10.000072, 9.999759 
3.4500337e+2, 1.8497784e+2, -1126377.0, -1144907.4, -22220.361, 0.08763506, 0.35952777, -1111567.5, 15680.166, 0.0, 10.000055, 9.999826 
3.4500203e+2, 1.9497772e+2, -997972.75, -1033713.9, -60194.91, 0.13319294, 0.33967748, -953051.75, 76197.39, 0.0, 10.00027, 9.999817 
3.4500062e+2, 2.0497747e+2, -884829.25, -853204.7, -42839.43, 0.14143473, 0.3017816, -823352.5, 107895.51, 0.0, 10.000047, 10.000491 
3.44999e+2, 2.1497683e+2, -895104.8, -809874.4, -51517.094, 0.09965425, 0.16751562, -785631.0, 47615.117, 0.0, 9.999308, 10.000475 
3.4499747e+2, 2.2497663e+2, -885335.8, -924418.94, -55005.94, 0.08342096, 0.17852063, -846503.3, -111255.586, 0.0, 9.999448, 9.998942 
3.44996e+2, 2.3497675e+2, -634223.9, -752437.56, -59160.777, 0.099031396, 0.27349693, -609702.9, 27550.482, 0.0, 10.000494, 9.998949 
3.4499466e+2, 2.4497628e+2, -533152.6, -664664.4, 5697.751, 0.067393914, 0.34015167, -532906.25, 6355.4297, 0.0, 10.000571, 9.998839 
3.449934e+2, 2.5497496e+2, -559848.75, -629708.2, 17413.3, -0.015814798, 0.3010817, -555748.94, -114473.78, 0.0, 9.999715, 9.998824 
3.4499156e+2, 2.6497418e+2, -480228.1, -467857.4, -33240.176, -0.069844894, 0.3135399, -440231.97, -96949.234, 0.0, 9.999294, 9.999455 
3.4498918e+2, 2.7497378e+2, -370983.2, -363201.1, -45834.34, -0.08675242, 0.3047098, -321092.94, -75806.984, 0.0, 9.999357, 9.999475 
3.4498772e+2, 2.8497297e+2, -261447.28, -246200.42, -49664.652, -0.021176064, 0.27121636, -203577.52, -56285.902, 0.00000016974016, 9.99939, 9.999588 
3.4498703e+2, 2.9497167e+2, -152311.06, -149006.19, -88369.055, 0.11183511, 0.1555507, -62274.125, -12974.284, 0.0000020169734, 9.999472, 9.999551 
3.4498286e+2, 3.0496997e+2, -130298.555, -162560.23, -79727.6, -0.101849355, 0.061672077, -65086.33, -65086.33, 0.0000103175025, 9.999504, 9.999113 
3.4498084e+2, 3.1497303e+2, -132741.16, -108941.47, -20014.951, -0.057362016, 0.42070904, -97556.02, -97556.02, 0.00003196276, 9.999205, 9.999617 
3.5501105e+2, 1.2497973e+2, -1524716.4, -1713065.1, -20881.984, -0.04861764, 0.22016005, -1522429.0, 192794.75, 0.00012227354, 10.00163, 9.999212 
3.5501412e+2, 1.3497925e+2, -1503683.9, -1710763.4, 28117.617, 0.28316498, 0.28536195, -1499933.9, 117297.77, 0.00005490219, 10.001395, 9.998677 
3.550121e+2, 1.449785e+2, -1364742.3, -1451362.5, -52403.89, 0.18790534, 0.2802216, -1340067.5, 179172.23, 0.000015641235, 10.001044, 9.99994 
3.5500842e+2, 1.5497828e+2, -1326798.1, -1398257.0, -29314.318, 0.01031536, 0.24230875, -1316311.6, 104928.53, 0.0000017221555, 10.000704, 9.999799 
3.550064e+2, 1.6497838e+2, -1276402.8, -1306067.1, -33026.633, -0.001778052, 0.27152315, -1255030.6, 68207.84, 0.000000007086625, 10.000315, 9.999941 
3.5500544e+2, 1.7497876e+2, -1214401.6, -1220274.3, -14783.349, 0.09114298, 0.28756556, -1202265.8, 22969.617, 0.0, 10.000054, 9.999981 
3.5500365e+2, 1.8497865e+2, -1191487.8, -1264016.4, -21394.41, 0.089789964, 0.32850423, -1185647.1, -58408.957, 0.0, 9.999985, 9.999043 
3.5500142e+2, 1.9497794e+2, -1059333.3, -1150285.5, -42003.105, 0.02441858, 0.32623047, -1042903.56, -13655.45, 0.0, 10.00022, 9.99904 
3.55e+2, 2.0497745e+2, -899420.3, -861518.9, -79583.82, 0.058509123, 0.30646563, -798660.56, 132590.13, 0.0, 9.999949, 10.000483 
3.5499927e+2, 2.1497709e+2, -910577.0, -815191.3, -68963.33, 0.17674641, 0.19597237, -779035.75, 54211.375, 0.0, 9.999194, 10.000491 
3.5499778e+2, 2.2497694e+2, -889716.25, -913332.44, -22192.598, 0.15151928, 0.2081433, -876385.9, -141138.08, 0.0, 9.999358, 9.999062 
3.5499555e+2, 2.3497689e+2, -640596.5, -744187.8, -10714.358, -0.016433688, 0.27158532, -639499.94, -2245.7295, 0.0, 10.000401, 9.99905 
3.5499418e+2, 2.4497674e+2, -507839.72, -596240.44, -36416.414, -0.0599107, 0.34196746, -494770.3, 44487.598, 0.0, 10.000505, 9.999338 
3.5499367e+2, 2.5497633e+2, -538282.44, -561791.9, -7953.1367, 0.021887442, 0.34154573, -535844.7, -94584.03, 0.0, 9.999624, 9.99933 
3.5499218e+2, 2.6497516e+2, -492410.06, -485296.66, -38360.426, 0.042326942, 0.29500028, -450328.4, -107057.586, 0.0, 9.999258, 9.999352 
3.5498968e+2, 2.7497306e+2, -389130.72, -386273.28, -33402.902, 0.0068222987, 0.1216265, -354268.56, -108978.18, 0.0, 9.999295, 9.999345 
3.5498786e+2, 2.8497273e+2, -325260.1, -373906.34, -55857.625, 0.028126039, 0.18888853, -288659.6, -141363.67, 0.00000011654808, 9.999371, 9.998719 
3.5498655e+2, 2.9497415e+2, -218968.11, -274779.03, -72963.71, 0.08879562, 0.43211976, -168755.61, -119468.32, 0.0000016052002, 9.999421, 9.998709 
3.549828e+2, 3.0497375e+2, -36425.242, 28381.143, -94597.95, -0.081232615, 0.44181308, 95971.65, 95971.65, 0.000008325357, 9.999514, 10.000425 
3.549815e+2, 3.14974e+2, -96899.94, -24157.293, -14181.283, 0.03461027, 0.3896373, -21490.406, -21490.406, 0.000028550077, 9.999158, 10.000225 
3.6501393e+2, 1.2498087e+2, -1568617.3, -1727998.4, -64445.168, 0.10557502, 0.2438185, -1545819.9, 169394.05, 0.000118926524, 10.001298, 9.999273 
3.650151e+2, 1.3498032e+2, -1504662.9, -1685701.5, 34085.55, 0.25435612, 0.27964714, -1498458.0, 118761.86, 0.000056465244, 10.001279, 9.9988985 
3.6501312e+2, 1.4497931e+2, -1371652.8, -1462721.8, -15669.979, 0.19534661, 0.24132037, -1369031.9, 150198.0, 0.00001794202, 10.001046, 9.999858 
3.6500955e+2, 1.5497942e+2, -1349043.5, -1413959.8, -43871.71, 0.0658812, 0.24669677, -1326928.3, 94300.48, 0.000002788093, 10.000583, 9.999748 
3.6500737e+2, 1.6497956e+2, -1266827.6, -1330805.4, -38568.49, 0.06133394, 0.29671767, -1248708.4, 74519.375, 0.00000008230677, 10.000514, 9.999676 
3.6500594e+2, 1.7497966e+2, -1126740.6, -1208900.3, -80663.87, 0.106541336, 0.3122205, -1077298.5, 147929.42, 0.0, 10.000789, 9.999707 
3.6500403e+2, 1.8497925e+2, -1086853.8, -1205036.9, -63485.742, 0.09995617, 0.33287376, -1059214.4, 68018.81, 0.0, 10.000669, 9.99912 
3.6500195e+2, 1.9497818e+2, -1074430.5, -1149607.6, -35822.13, 0.0657495, 0.2896911, -1060094.9, -30849.748, 0.0, 10.000084, 9.999113 
3.6500025e+2, 2.0497774e+2, -919190.9, -917940.8, -38134.7, 0.08784221, 0.2909184, -880426.0, 50822.418, 0.0, 10.000022, 10.000058 
3.6499882e+2, 2.1497779e+2, -755094.44, -787011.7, -82096.82, 0.15382165, 0.2632439, -687419.56, 145824.95, 0.0, 10.00047, 10.000068 
3.6499727e+2, 2.2497761e+2, -731770.25, -813131.06, -19670.752, 0.12083795, 0.28266704, -727264.0, 7982.041, 0.0, 10.000333, 9.999287 
3.649956e+2, 2.349771e+2, -742512.7, -767056.6, -14965.45, -0.0021788536, 0.27993193, -735430.94, -98176.58, 0.0, 9.999583, 9.99929 
3.6499438e+2, 2.4497691e+2, -640052.6, -619029.4, -36262.402, -0.02749347, 0.31405884, -591785.8, -52529.297, 0.0, 9.9994, 9.999727 
3.6499357e+2, 2.5497693e+2, -488289.97, -491599.44, -34068.348, 0.046895698, 0.31808957, -455836.2, -14582.761, 0.0, 9.999759, 9.999753 
3.6499202e+2, 2.649761e+2, -393915.97, -472373.16, -43547.34, 0.06604679, 0.29812476, -374533.53, -31272.477, 0.0, 10.000087, 9.999042 
3.6498985e+2, 2.7497417e+2, -246346.1, -352801.06, -74056.92, 0.04028427, 0.17791721, -208372.73, 36909.047, 0.0, 10.00043, 9.999028 
3.6498785e+2, 2.849739e+2, -204623.25, -310447.7, -71771.68, 0.05792605, 0.26111886, -168367.78, -21079.104, 0.000000055764154, 10.000161, 9.998778 
3.6498606e+2, 2.9497528e+2, -240451.36, -274303.0, -38355.71, 0.11263039, 0.49030742, -215452.9, -166171.97, 0.0000011855267, 9.9992285, 9.998801 
3.6498237e+2, 3.0497563e+2, -82064.35, 25456.613, -26135.559, -0.04690664, 0.56105834, 31472.857, 31472.857, 0.0000067298934, 9.999145, 10.000574 
3.6498114e+2, 3.149749e+2, -14659.848, 20395.172, -72612.38, 0.06600463, 0.40852937, 77565.53, 77565.53, 0.000025648078, 9.999721, 10.000263 
3.7501782e+2, 1.2498275e+2, -1516744.3, -1632518.6, -112947.31, 0.3152613, 0.3989795, -1447714.0, 267487.97, 0.0001191897, 10.001338, 9.9999075 
3.750139e+2, 1.3498221e+2, -1426571.1, -1531586.1, 40507.37, -0.023132052, 0.3253036, -1412762.1, 204437.81, 0.00005856906, 10.001307, 9.99994 
3.750118e+2, 1.4498101e+2, -1407939.4, -1529034.3, -45863.918, -0.0714546, 0.23816727, -1392529.6, 126679.9, 0.000020069963, 10.001008, 9.999421 
3.7501118e+2, 1.5498103e+2, -1374076.8, -1473107.8, -50446.49, 0.14129987, 0.2781506, -1352905.4, 68307.26, 0.0000038584762, 10.00061, 9.99933 
3.750096e+2, 1.6498081e+2, -1328070.9, -1450580.8, -37686.996, 0.20601863, 0.35163498, -1317405.9, 5812.234, 0.00000020238203, 10.000483, 9.998867 
3.7500635e+2, 1.7498037e+2, -1187925.9, -1332929.9, -59540.516, 0.04442096, 0.39306736, -1166611.0, 58615.05, 0.0, 10.0007715, 9.998865 
3.7500414e+2, 1.8497965e+2, -1030635.25, -1069867.0, -94424.59, 0.022776298, 0.37569812, -953810.5, 173422.38, 0.0, 10.000592, 10.000081 
3.7500325e+2, 1.9497846e+2, -1019452.7, -1013326.2, -47467.992, 0.16565987, 0.22419183, -968822.7, 60417.637, 0.0, 9.999996, 10.000085 
3.75001e+2, 2.0497826e+2, -996623.1, -1060667.8, -30153.402, 0.14457595, 0.24826391, -984660.7, -53419.016, 0.0, 9.999938, 9.999122 
3.7499735e+2, 2.1497892e+2, -835884.8, -929276.2, -56925.938, -0.06019175, 0.37683403, -808952.7, 24285.516, 0.0, 10.000363, 9.999142 
3.7499565e+2, 2.2497866e+2, -718282.3, -766239.6, -59754.402, -0.092334986, 0.41471216, -677874.9, 57367.19, 0.0, 10.000244, 9.999654 
3.7499592e+2, 2.3497732e+2, -727705.25, -716527.6, -35381.234, 0.0489065, 0.2902893, -686296.5, -49041.977, 0.0, 9.999492, 9.999683 
3.74995e+2, 2.4497679e+2, -629484.0, -579035.25, -30141.37, 0.07572931, 0.25521958, -564956.06, -25698.754, 0.0, 9.999326, 10.000036 
3.7499276e+2, 2.5497687e+2, -480236.44, -456583.56, -10088.489, -0.03116527, 0.23540585, -452865.16, -11612.69, 0.0, 9.999678, 10.000032 
3.7499082e+2, 2.64977e+2, -437684.7, -554390.25, -38677.684, -0.08720209, 0.32955036, -426030.25, -82777.305, 0.0, 10.000052, 9.998493 
3.7498924e+2, 2.7497712e+2, -292836.7, -435097.3, -50319.3, -0.08787088, 0.46415934, -276837.5, -31576.734, 0.0, 10.000368, 9.998492 
3.7498736e+2, 2.8497648e+2, -134921.89, -159460.9, -114334.15, -0.030455736, 0.4869817, -32200.795, 115068.984, 0.00000003400916, 10.000133, 9.999831 
3.7498516e+2, 2.949751e+2, -175437.31, -127824.055, -61999.117, 0.0755357, 0.33548215, -85217.99, -35937.918, 0.000000899484, 9.999171, 9.99984 
3.7498114e+2, 3.0497548e+2, -163638.1, -135606.55, -8361.823, -0.10243329, 0.4192189, -133301.72, -133301.72, 0.000005766145, 9.999112, 9.999484 
3.749791e+2, 3.1497553e+2, -66359.9, -75282.445, -16380.894, -0.15922365, 0.44811, -53843.637, -53843.637, 0.000023919054, 9.999667, 9.999635 
3.850202e+2, 1.2498394e+2, -1318139.0, -1529407.4, -81258.46, 0.36117178, 0.44292638, -1290500.9, 424690.88, 0.00012316402, 10.002688, 9.99996 
3.8501453e+2, 1.3498268e+2, -1392426.5, -1486519.1, -21030.676, -0.08707328, 0.2720294, -1387939.9, 229254.17, 0.000061385945, 10.001409, 10.000211 
3.85013e+2, 1.4498162e+2, -1423860.4, -1536617.5, -77263.29, -0.04057441, 0.18543017, -1384592.9, 134609.14, 0.000022093489, 10.0009, 9.99942 
3.850124e+2, 1.5498258e+2, -1303567.5, -1439634.8, -80636.2, 0.18735914, 0.31771383, -1266098.6, 155099.33, 0.000004863891, 10.001109, 9.999314 
3.8501072e+2, 1.6498236e+2, -1244762.0, -1405870.9, -1045.8713, 0.2524199, 0.38830006, -1244755.3, 78448.414, 0.00000029520132, 10.001016, 9.998925 
3.8500726e+2, 1.7498101e+2, -1215933.0, -1339227.5, 27436.492, 0.07633264, 0.33458817, -1210103.3, 15115.29, 0.0, 10.000534, 9.9989395 
3.8500476e+2, 1.8498035e+2, -1062254.0, -1072607.8, 7175.5317, 0.043706577, 0.3137194, -1058582.8, 68641.305, 0.0, 10.000312, 10.000201 
3.850035e+2, 1.9498006e+2, -962620.5, -977949.2, -31179.883, 0.18358581, 0.23867375, -938176.8, 91046.234, 0.0, 10.000329, 10.000176 
3.850012e+2, 2.0497997e+2, -954876.94, -1071898.6, 19904.299, 0.1545272, 0.28303692, -951584.06, -20359.834, 0.0, 10.000364, 9.998838 
3.8499767e+2, 2.1497995e+2, -848473.2, -971859.6, 25841.088, -0.060317926, 0.37447265, -843279.8, -10050.9375, 0.0, 10.000421, 9.998831 
3.8499576e+2, 2.2497942e+2, -750805.06, -804854.9, 11485.09, -0.09527829, 0.41145715, -748465.9, -13229.939, 0.0, 10.000135, 9.99943 
3.8499543e+2, 2.3497826e+2, -734222.2, -744350.25, -32976.027, 0.052081678, 0.32571876, -705923.6, -68677.555, 0.0, 9.999567, 9.999448 
3.849944e+2, 2.4497744e+2, -605993.94, -586179.5, -9465.889, 0.073332064, 0.28176212, -582384.3, -43132.836, 0.0, 9.999576, 9.999854 
3.8499248e+2, 2.549768e+2, -415701.8, -448192.97, -43198.457, -0.04641626, 0.20692974, -385795.2, 55458.504, 0.0, 10.000218, 9.999825 
3.8499063e+2, 2.649771e+2, -445057.47, -535897.06, -80697.53, -0.09583944, 0.31669638, -397875.72, -54622.81, 0.0, 9.999897, 9.998702 
3.8498896e+2, 2.749783e+2, -536499.4, -525216.6, -54096.84, -0.05618582, 0.53871757, -476467.8, -231217.7, 0.0, 9.998581, 9.998735 
3.8498688e+2, 2.849775e+2, -363453.28, -259667.8, -80328.34, -0.0061120237, 0.5304198, -215928.42, -68669.12, 0.000000026095549, 9.99852, 9.999923 
3.8498428e+2, 2.9497474e+2, -93842.51, -78746.92, -117205.37, 0.04986073, 0.23159689, 31153.43, 80433.89, 0.00000066980994, 9.999697, 9.999924 
3.8498047e+2, 3.0497497e+2, -62729.293, -165346.8, -63115.22, -0.1245486, 0.32661447, -32698.516, -32698.516, 0.000005131084, 10.000124, 9.99879 
3.8497937e+2, 3.1497562e+2, -87878.695, -111700.43, -64371.594, -0.08646023, 0.4790373, -34325.293, -34325.293, 0.000023468077, 9.999627, 9.999396 
3.950205e+2, 1.2498463e+2, -1375656.8, -1631076.1, -146617.16, 0.069646716, 0.38520828, -1308927.9, 406253.4, 0.0001272644, 10.00264, 9.99928 
3.9501676e+2, 1.3498178e+2, -1433284.4, -1561965.5, -58845.56, -0.029462067, 0.10999388, -1410432.6, 206769.47, 0.00006380605, 10.00139, 9.999696 
3.9501643e+2, 1.449812e+2, -1408755.6, -1501456.5, -79914.39, 0.18337026, 0.08431006, -1362722.8, 156484.1, 0.000023677207, 10.000868, 9.999684 
3.950129e+2, 1.5498397e+2, -1279164.6, -1396189.9, -63133.004, 0.09719577, 0.3679842, -1251598.8, 169586.36, 0.000005569423, 10.001132, 9.999603 
3.950105e+2, 1.6498403e+2, -1181005.3, -1259567.0, -32582.563, 0.10332749, 0.40307227, -1169250.8, 153934.58, 0.00000035120044, 10.000963, 9.999954 
3.9500844e+2, 1.7498158e+2, -1149788.5, -1188663.1, 18827.352, 0.117729865, 0.13515733, -1142165.1, 83040.55, 0.0, 10.0004835, 9.999997 
3.9500567e+2, 1.8498136e+2, -1126304.0, -1188119.9, -1084.2578, 0.08379807, 0.14310746, -1126285.0, 922.1277, 0.0, 10.000233, 9.99945 
3.9500254e+2, 1.9498312e+2, -1027396.4, -1089786.9, -21664.734, 0.03008, 0.35109073, -1020611.3, 8580.531, 0.0, 10.000238, 9.999451 
3.9500052e+2, 2.0498298e+2, -941395.6, -1019344.56, 11481.582, 0.031899527, 0.4070094, -939739.6, -8544.722, 0.0, 10.0002575, 9.999252 
3.949995e+2, 2.1498092e+2, -840100.9, -916538.44, 38879.457, 0.06314067, 0.24941297, -823800.94, 9415.424, 0.0, 10.000266, 9.99928 
3.9499736e+2, 2.2497994e+2, -828121.8, -941412.06, -17980.38, 0.031338315, 0.26388445, -825336.6, -90109.31, 0.0, 10.000028, 9.9985485 
3.949939e+2, 2.3497984e+2, -813327.56, -881961.9, -43905.227, -0.07455319, 0.377403, -791919.2, -154689.4, 0.0, 9.999454, 9.998558 
3.9499226e+2, 2.449788e+2, -659265.2, -683990.9, 5809.9785, -0.11865183, 0.38774496, -657968.0, -118728.39, 0.0, 9.999518, 9.999214 
3.9499247e+2, 2.5497663e+2, -469515.63, -544979.2, -9429.521, -0.09549349, 0.22524269, -468355.22, -27096.84, 0.0, 10.000148, 9.999199 
3.949913e+2, 2.6497632e+2, -383390.03, -395880.66, -138261.02, -0.041243404, 0.2539227, -251233.34, 92028.02, 0.0, 9.999844, 9.999692 
3.9498875e+2, 2.7497765e+2, -476731.22, -388130.4, -93172.54, 0.041336384, 0.39639947, -329262.75, -84012.2, 0.0, 9.998517, 9.999713 
3.9498603e+2, 2.8497696e+2, -428667.66, -379682.34, -44451.914, 0.035822723, 0.38684717, -353422.03, -206164.36, 0.000000010243951, 9.998468, 9.999117 
3.9498302e+2, 2.949742e+2, -167282.61, -207201.92, -58503.664, -0.070073634, 0.17610843, -125427.484, -76145.19, 0.0000005130985, 9.999602, 9.999084 
3.9498004e+2, 3.04974e+2, -79853.61, -198524.44, -85564.59, -0.20352829, 0.2779984, -35064.14, -35064.14, 0.0000059963604, 10.00011, 9.9985695 
3.9498135e+2, 3.14975e+2, -86124.98, -94880.72, -48887.086, 0.10226261, 0.48968843, -41420.133, -41420.133, 0.000027743677, 9.999573, 9.999538 
4.0502298e+2, 1.2498637e+2, -1351122.5, -1683604.1, 2092.7327, 0.04492023, 0.2596418, -1351109.4, 364049.97, 0.0001282802, 10.003054, 9.998731 
4.05019e+2, 1.3498418e+2, -1335962.9, -1579666.0, 21830.086, 0.017640784, 0.101532206, -1334022.8, 283155.1, 0.00006493345, 10.002325, 9.999129 
4.0501913e+2, 1.4498396e+2, -1286984.6, -1440787.5, 51576.203, 0.33324903, 0.14044026, -1271290.5, 247890.02, 0.00002457309, 10.001702, 9.999693 
4.05014e+2, 1.5498589e+2, -1268033.6, -1391564.3, 24174.154, 0.09988267, 0.3371029, -1263471.4, 157694.52, 0.000005781208, 10.001202, 9.999604 
4.0501097e+2, 1.6498578e+2, -1207173.0, -1257141.4, 22412.629, 0.07217733, 0.34769893, -1198593.3, 124573.76, 0.0000003430959, 10.000721, 10.000082 
4.0500906e+2, 1.7498386e+2, -1172656.8, -1187099.3, -19535.07, 0.1489151, 0.12137137, -1159051.0, 66130.8, 0.0, 10.000272, 10.000107 
4.050062e+2, 1.849837e+2, -1125929.9, -1195889.8, -6641.579, 0.11767601, 0.13363427, -1125304.9, 1877.0137, 0.0, 10.000282, 9.999368 
4.050027e+2, 1.9498497e+2, -972294.1, -1073100.9, 9032.821, 0.00981102, 0.30215687, -971491.1, 57679.566, 0.0, 10.000667, 9.999359 
4.0500075e+2, 2.049847e+2, -890381.8, -1018194.94, 47314.563, 0.00963585, 0.36005113, -874772.9, 56402.51, 0.0, 10.0007105, 9.999038 
4.0500015e+2, 2.149828e+2, -836381.06, -943656.75, 3942.2747, 0.100031435, 0.2413387, -836236.4, -3039.4812, 0.0, 10.000406, 9.999028 
4.0499797e+2, 2.2498171e+2, -761144.8, -926175.56, -25244.145, 0.07132303, 0.2643554, -757369.7, -22160.178, 0.0, 10.0005665, 9.998391 
4.0499407e+2, 2.3498125e+2, -566478.5, -784119.0, -12626.457, -0.0851309, 0.35678974, -565748.4, 71466.45, 0.0, 10.001232, 9.998375 
4.049921e+2, 2.4497992e+2, -542974.2, -671537.25, 64352.727, -0.12954548, 0.3691838, -516297.56, 22930.21, 0.0, 10.000507, 9.998824 
4.049921e+2, 2.5497773e+2, -748054.0, -714343.1, 50409.813, -0.05318662, 0.24214777, -678045.44, -236797.19, 0.0, 9.998411, 9.998864 
4.0499085e+2, 2.6497704e+2, -614956.2, -485010.28, -45052.36, 0.022435928, 0.23929156, -470918.72, -127664.99, 0.0, 9.998151, 9.999892 
4.0498835e+2, 2.7497765e+2, -285916.56, -273671.53, -74135.17, 0.09832182, 0.28307152, -205406.48, 39840.027, 0.0, 9.999725, 9.999912 
4.0498567e+2, 2.8497687e+2, -229262.03, -364701.63, -25932.37, 0.07827309, 0.29145902, -224466.6, -77212.18, 0.0000000008315615, 10.0001745, 9.998399 
4.0498292e+2, 2.9497463e+2, -227203.88, -312245.3, -51311.49, -0.02981947, 0.1987438, -203084.67, -153806.63, 0.0000007104038, 9.999509, 9.998404 
4.0497965e+2, 3.04974e+2, -171436.3, -212879.03, -45060.4, -0.20593236, 0.28056636, -142561.14, -142561.14, 0.000009515816, 9.999361, 9.998835 
4.0498132e+2, 3.1497422e+2, -58413.82, -47425.453, -1468.7053, 0.15334003, 0.3911248, -47232.535, -47232.535, 0.0000394484, 9.999603, 9.999858 
4.1502705e+2, 1.2498897e+2, -1373658.0, -1734756.4, -6064.536, 0.09224629, 0.05049089, -1373556.3, 341571.72, 0.0001259659, 10.003066, 9.998373 
4.1502082e+2, 1.3498999e+2, -1360614.4, -1646703.3, 820.16156, -0.058627658, 0.25685605, -1360612.1, 256508.66, 0.00006410072, 10.002378, 9.998644 
4.1502076e+2, 1.4498995e+2, -1308807.8, -1478104.4, 23722.498, 0.29556286, 0.3506914, -1305546.5, 213576.52, 0.00002430965, 10.001679, 9.999445 
4.1501558e+2, 1.549884e+2, -1287812.0, -1420601.6, 18473.293, 0.10874277, 0.22347221, -1285290.0, 135849.61, 0.0000053776803, 10.001162, 9.99942 
4.1501188e+2, 1.6498764e+2, -1277801.8, -1387665.4, -4542.4116, 0.06721169, 0.22220504, -1277614.4, 45533.58, 0.0000002359893, 10.000651, 9.999219 
4.150088e+2, 1.7498796e+2, -1236697.6, -1313648.1, -26351.742, 0.070958905, 0.30402154, -1228538.6, -3392.879, 0.0, 10.000245, 9.99925 
4.1500598e+2, 1.8498737e+2, -1092017.6, -1110498.1, -1309.9833, 0.043837707, 0.2869156, -1091925.3, 35223.47, 0.0, 10.00022, 9.999983 
4.150037e+2, 1.9498564e+2, -938817.75, -984050.2, 31594.197, 0.020097855, 0.09261362, -922579.3, 106579.68, 0.0, 10.00059, 10.000002 
4.150015e+2, 2.0498514e+2, -968487.75, -1161706.0, 26555.543, -0.0031188459, 0.14041261, -964904.44, -33738.887, 0.0, 10.00062, 9.998103 
4.149993e+2, 2.1498567e+2, -918569.6, -1084296.5, -712.8145, -0.0445526, 0.3597283, -918566.56, -85396.7, 0.0, 10.000279, 9.998123 
4.1499734e+2, 2.2498482e+2, -738581.44, -854034.8, -9405.794, -0.067144305, 0.42501435, -737820.2, -2638.7935, 0.0, 10.000454, 9.998943 
4.149956e+2, 2.3498243e+2, -539978.1, -707581.6, 22131.252, -0.076961145, 0.26660475, -537105.0, 100096.44, 0.0, 10.00114, 9.998946 
4.149935e+2, 2.4498087e+2, -557563.3, -690651.44, -23004.895, -0.062319927, 0.23043682, -553699.0, -14483.624, 0.0, 10.000457, 9.998715 
4.1499102e+2, 2.5498e+2, -765832.94, -735678.0, -19415.97, -0.023559203, 0.24585894, -726172.75, -284948.28, 0.0, 9.998339, 9.998753 
4.1498905e+2, 2.649792e+2, -656711.06, -560913.6, 7242.193, 0.005710697, 0.26192954, -560369.2, -217137.98, 0.0, 9.998112, 9.999386 
4.149875e+2, 2.7497834e+2, -333812.7, -355645.6, -4329.1753, 0.016146624, 0.20946978, -332985.6, -87748.414, 0.0, 9.999657, 9.99938 
4.1498563e+2, 2.8497726e+2, -265774.0, -449438.03, -61392.254, 0.02891005, 0.24967311, -247142.77, -99893.76, 0.00000000001177225, 10.000198, 9.997812 
4.1498345e+2, 2.9497597e+2, -276533.3, -403372.94, -67649.69, 0.044714313, 0.30687, -247224.75, -197956.86, 0.0000013022876, 9.999449, 9.997813 
4.1497895e+2, 3.04975e+2, -113228.71, -89564.91, -39396.99, -0.2387151, 0.34274095, -60261.465, -60261.465, 0.000014575742, 9.999357, 9.99968 
4.1497877e+2, 3.1497347e+2, -30990.934, 28728.152, 27177.512, -0.11513115, 0.19283749, 39244.46, 39244.46, 0.000055427667, 9.999528, 10.000415 
4.2503035e+2, 1.2499378e+2, -1547990.8, -1808550.8, 43761.953, 0.18761699, 0.10017286, -1540837.1, 174243.94, 0.000120138786, 10.001805, 9.998473 
4.2502204e+2, 1.349944e+2, -1386539.9, -1674381.8, -10885.996, -0.16142717, 0.27025467, -1386128.8, 230948.84, 0.00006079175, 10.00224, 9.998527 
4.2502186e+2, 1.449942e+2, -1292374.8, -1506741.3, 21065.852, 0.23167525, 0.37112948, -1290324.3, 228757.36, 0.00002257458, 10.001944, 9.999124 
4.2501715e+2, 1.549922e+2, -1359573.6, -1488927.9, -19304.238, 0.17597419, 0.228188, -1356754.1, 64348.52, 0.0000044461326, 10.000818, 9.999116 
4.2501336e+2, 1.6499126e+2, -1287158.4, -1430578.1, 37654.145, 0.15240148, 0.24153684, -1277873.6, 45239.613, 0.00000009724189, 10.000757, 9.998873 
4.2500973e+2, 1.7499149e+2, -1045721.75, -1260727.1, 37437.34, 0.07057692, 0.350346, -1039389.5, 185722.69, 0.0, 10.001724, 9.998904 
4.2500678e+2, 1.8499045e+2, -895008.75, -1066971.8, 39450.73, 0.030537063, 0.32675958, -886390.1, 240729.98, 0.0, 10.001784, 9.999532 
4.2500472e+2, 1.9498788e+2, -925878.9, -1032185.75, -25831.525, 0.057934754, 0.09368566, -919934.5, 109204.836, 0.0, 10.000899, 9.999526 
4.2500234e+2, 2.04987e+2, -978359.5, -1158675.3, -12023.629, 0.0282236, 0.12438283, -977561.25, -46412.145, 0.0, 10.000525, 9.998163 
4.249994e+2, 2.1498764e+2, -869006.9, -1057019.5, 17398.23, -0.07524811, 0.3493815, -867410.44, -34259.16, 0.0, 10.000606, 9.998154 
4.249973e+2, 2.2498703e+2, -776866.5, -834497.0, 47054.656, -0.08896899, 0.42046994, -750505.1, -15345.311, 0.0, 10.000032, 9.999275 
4.249961e+2, 2.3498511e+2, -861505.75, -824689.4, 39004.645, -0.018416813, 0.2763413, -799967.25, -162792.1, 0.0, 9.9987755, 9.999278 
4.249939e+2, 2.4498384e+2, -802836.06, -790141.7, 2771.6194, 0.025203772, 0.2455526, -789562.94, -250377.44, 0.0, 9.998697, 9.998879 
4.2499074e+2, 2.5498304e+2, -533309.8, -607864.3, 8060.3955, 0.04482222, 0.25211844, -532448.3, -91255.52, 0.0, 9.999862, 9.998899 
4.2498833e+2, 2.649819e+2, -403433.53, -510327.22, 93499.086, 0.026907703, 0.26086202, -349183.38, -5980.493, 0.0, 10.000158, 9.998755 
4.249867e+2, 2.749803e+2, -387080.47, -449630.16, 56194.34, -0.02037886, 0.20282917, -354044.22, -108827.05, 0.0, 9.999586, 9.998773 
4.2498523e+2, 2.8497922e+2, -385674.53, -474214.72, 13800.465, 0.022245763, 0.25240162, -383573.38, -236343.05, 0.0000000012455732, 9.999255, 9.998087 
4.2498395e+2, 2.9497838e+2, -292409.72, -378521.75, 51401.363, 0.16808118, 0.33330277, -268414.1, -219169.78, 0.0000019825331, 9.999208, 9.998097 
4.2497867e+2, 3.0497772e+2, -183746.98, -133375.08, 108737.58, -0.16905577, 0.38939276, -46944.754, -46944.754, 0.000019679212, 9.998916, 9.999591 
4.249772e+2, 3.149756e+2, -213506.89, -54191.848, 34781.05, -0.14752577, 0.18189421, -46929.62, -46929.62, 0.00007104561, 9.998256, 10.000447 
4.3503225e+2, 1.2500082e+2, -1523714.3, -1731259.4, 108977.305, 0.14611062, 0.39601034, -1477004.9, 238013.44, 0.000112459136, 10.001731, 9.999026 
4.3502244e+2, 1.349975e+2, -1369618.3, -1628729.6, 18407.525, -0.37129354, 0.14065449, -1368317.1, 248730.78, 0.000055857796, 10.002217, 9.998843 
4.3502215e+2, 1.4499669e+2, -1330491.0, -1580496.6, -28864.371, 0.039913032, 0.19245456, -1327201.8, 191854.86, 0.000019900395, 10.00191, 9.998639 
4.3501836e+2, 1.5499729e+2, -1384391.8, -1552262.1, -50779.566, 0.18917985, 0.35387668, -1370226.6, 50829.04, 0.0000034951138, 10.000854, 9.998672 
4.3501505e+2, 1.6499652e+2, -1280369.8, -1402110.8, 64294.723, 0.22207417, 0.39546388, -1252701.9, 70362.055, 0.000000032016867, 10.000705, 9.99909 
4.3501154e+2, 1.7499444e+2, -1037593.06, -1232011.6, 84035.164, 0.05308144, 0.25485444, -1006305.06, 218776.2, 0.0, 10.001678, 9.999122 
4.3500826e+2, 1.8499292e+2, -1015748.56, -1296072.0, -2211.152, -0.02042085, 0.24822496, -1015731.1, 111365.19, 0.0, 10.001694, 9.998002 
4.3500558e+2, 1.9499172e+2, -1044289.1, -1258518.1, -49234.703, 0.029661745, 0.30512282, -1033515.6, -4404.6104, 0.0, 10.000819, 9.998011 
4.350029e+2, 2.0499039e+2, -924034.8, -1018409.4, -17481.545, 0.012570737, 0.31364977, -920900.7, 10224.764, 0.0, 10.00041, 9.99918 
4.3500006e+2, 2.1498872e+2, -811750.8, -914660.5, 29683.08, -0.08885468, 0.20634112, -803802.94, 29337.924, 0.0, 10.000507, 9.999176 
4.349975e+2, 2.2498843e+2, -792542.7, -839601.0, -9221.758, -0.09151073, 0.25663283, -790800.06, -55656.418, 0.0, 9.999913, 9.999299 
4.3499523e+2, 2.349893e+2, -874177.2, -826339.5, -7.857524, -0.00089305267, 0.38903096, -826339.5, -189203.95, 0.0, 9.998668, 9.999319 
4.3499303e+2, 2.4498884e+2, -786343.3, -740782.06, 37437.813, 0.050624523, 0.4184393, -719738.6, -180600.56, 0.0, 9.9986315, 9.99925 
4.3499094e+2, 2.549869e+2, -518041.16, -558888.2, 60830.668, 0.056790717, 0.27216926, -474297.03, -33144.477, 0.0, 9.99979, 9.9992695 
4.3498844e+2, 2.6498523e+2, -455210.6, -616226.25, 63616.9, -0.00051206484, 0.24508935, -433109.38, -89941.43, 0.0, 10.000147, 9.998035 
4.3498546e+2, 2.7498367e+2, -445061.5, -557997.7, 45322.773, -0.1244204, 0.25969857, -429122.4, -183936.2, 0.0, 9.999526, 9.998061 
4.3498403e+2, 2.8498262e+2, -314354.06, -313821.28, 4828.5806, -0.044705164, 0.29545048, -309251.75, -162053.3, 0.000000012355592, 9.999215, 9.9992 
4.3498415e+2, 2.94982e+2, -228745.67, -228737.2, 63528.45, 0.24269824, 0.28456455, -165212.98, -116006.89, 0.0000027662056, 9.999145, 9.999152 
4.349786e+2, 3.0498222e+2, -248968.88, -284207.56, 78700.516, -0.09058509, 0.42959392, -185939.53, -185939.53, 0.000024180765, 9.998961, 9.998539 
4.3497586e+2, 3.1498048e+2, -267354.25, -156924.44, -7506.93, -0.16028191, 0.3682358, -156416.45, -156416.45, 0.00008333817, 9.998206, 9.999772 
4.450337e+2, 1.2500462e+2, -1548474.3, -1668956.4, 101828.55, 0.15422392, 0.48445192, -1490402.0, 224583.94, 0.00010599228, 10.00125, 9.999691 
4.4502395e+2, 1.3500124e+2, -1633618.5, -1698691.8, -85391.19, -0.32645923, 0.175812, -1574775.3, 42237.98, 0.00005101591, 10.000183, 9.999345 
4.4502324e+2, 1.4500023e+2, -1527809.3, -1677522.0, -52888.918, 0.029391533, 0.18472886, -1511010.1, 8012.339, 0.000017295639, 10.000559, 9.998624 
4.4501925e+2, 1.5500088e+2, -1171676.1, -1447151.6, -64566.906, 0.12524788, 0.35067952, -1157293.6, 263727.53, 0.0000027656245, 10.002305, 9.99869 
4.4501597e+2, 1.6500023e+2, -1048980.0, -1294541.8, 54188.594, 0.17108692, 0.40001455, -1037553.75, 285474.75, 0.000000035556127, 10.002291, 9.999073 
4.450127e+2, 1.7499821e+2, -1214774.5, -1318747.4, 38980.652, 0.06919584, 0.26587942, -1201783.4, 23261.273, 0.0, 10.000464, 9.999111 
4.4500947e+2, 1.8499675e+2, -1257112.8, -1439344.5, 33127.35, 0.013203256, 0.27896976, -1251277.5, -124217.52, 0.0, 10.000159, 9.997753 
4.4500667e+2, 1.949956e+2, -994846.6, -1262718.5, 62284.523, 0.039907057, 0.36315656, -981072.7, 48004.246, 0.0, 10.001282, 9.997756 
4.450037e+2, 2.0499425e+2, -765829.1, -906801.75, 110769.664, 0.009417904, 0.37046304, -705020.94, 226070.13, 0.0, 10.001362, 9.999481 
4.4500044e+2, 2.149926e+2, -813138.44, -881068.94, 83989.13, -0.09072096, 0.23570709, -756506.75, 76596.766, 0.0, 10.000363, 9.999472 
4.4499752e+2, 2.2499216e+2, -776900.94, -836600.25, 32360.17, -0.08128389, 0.25816432, -762725.8, -27619.813, 0.0, 10.0000305, 9.999265 
4.4499505e+2, 2.3499274e+2, -636555.1, -719255.9, 18682.018, 0.03829497, 0.36490384, -632530.75, 4569.5825, 0.0, 10.00032, 9.999261 
4.4499266e+2, 2.4499197e+2, -561012.1, -672846.44, 79207.64, 0.06862144, 0.3843879, -519972.72, 19133.26, 0.0, 10.000349, 9.998887 
4.4499034e+2, 2.5498974e+2, -495626.75, -590055.7, 30294.137, 0.0036765356, 0.24368082, -486743.6, -45619.18, 0.0, 10.000121, 9.998895 
4.449878e+2, 2.6498806e+2, -509391.25, -633397.44, 12805.976, -0.052882697, 0.22897169, -508082.63, -164941.98, 0.0, 9.999743, 9.998103 
4.4498512e+2, 2.7498677e+2, -479260.25, -566975.75, 33479.3, -0.09735876, 0.26893157, -467942.22, -222786.11, 0.0, 9.999269, 9.9981165 
4.4498342e+2, 2.8498593e+2, -308554.6, -298769.75, 27294.941, -0.020826567, 0.31472567, -275932.22, -128765.414, 0.00000003062236, 9.999187, 9.999323 
4.4498292e+2, 2.949853e+2, -179865.48, -183084.9, -9003.15, 0.19894554, 0.28724796, -172329.27, -123154.93, 0.0000032986038, 9.999384, 9.999348 
4.4497785e+2, 3.0498552e+2, -171817.8, -267564.63, 17708.016, -0.086319596, 0.43033677, -168647.72, -168647.72, 0.000027227657, 9.99959, 9.998343 
4.4497627e+2, 3.1498402e+2, -14672.941, -958.6196, -74270.484, -0.011214937, 0.4144536, 66770.586, 66770.586, 0.000091368296, 9.999799, 10.000071 
4.5503408e+2, 1.2500507e+2, -1492059.1, -1548741.3, 102869.32, 0.014472935, 0.35566202, -1413698.3, 301287.13, 0.00010140695, 10.0012455, 10.000514 
4.5502618e+2, 1.3500544e+2, -1582196.3, -1603579.4, -117759.92, -0.14956094, 0.35968894, -1474643.5, 142331.69, 0.00004730018, 10.000224, 9.999981 
4.5502463e+2, 1.4500462e+2, -1495853.4, -1602208.0, 7672.2266, 0.08494112, 0.32581294, -1495302.8, 23678.723, 0.000015080613, 10.00053, 9.99915 
4.5501947e+2, 1.5500303e+2, -1140202.8, -1375026.0, 13841.785, -0.11146699, 0.2183123, -1139389.8, 281609.7, 0.0000021144335, 10.002284, 9.999191 
4.5501584e+2, 1.6500239e+2, -1067322.4, -1326317.1, -25668.555, -0.096600436, 0.2580503, -1064802.9, 258203.61, 0.00000004449902, 10.002256, 9.998874 
4.55013e+2, 1.7500275e+2, -1225709.3, -1347424.3, -20358.326, 0.025984265, 0.37803918, -1222394.3, 2608.4414, 0.0, 10.000482, 9.998909 
4.5501015e+2, 1.8500187e+2, -1197579.3, -1297958.9, 67315.73, 0.042330977, 0.40993562, -1163802.3, -36790.41, 0.0, 10.00009, 9.998754 
4.550077e+2, 1.9499949e+2, -939302.94, -1124479.9, 112906.61, -0.010221933, 0.27145132, -885875.9, 143160.86, 0.0, 10.001191, 9.998743 
4.550044e+2, 2.0499863e+2, -812471.3, -978615.06, 62426.074, -0.07795107, 0.30178267, -791630.0, 139415.66, 0.0, 10.001248, 9.999045 
4.5500013e+2, 2.1499924e+2, -860686.7, -947972.0, 56306.426, -0.17632632, 0.43435058, -833089.6, -50.451336, 0.0, 10.000227, 9.999077 
4.549971e+2, 2.2499822e+2, -802364.75, -861881.1, 36576.527, -0.1448866, 0.4239684, -784970.06, -49923.383, 0.0, 9.999909, 9.999154 
4.549953e+2, 2.349954e+2, -655515.2, -738093.3, 40912.637, 0.00979014, 0.20088379, -638678.25, -1608.5593, 0.0, 10.00023, 9.999177 
4.5499244e+2, 2.4499322e+2, -649909.44, -834286.8, 61781.367, -0.012158202, 0.1387234, -631122.0, -92032.41, 0.0, 10.000259, 9.997822 
4.5498857e+2, 2.5499153e+2, -583021.8, -748061.4, 31000.758, -0.20689379, 0.1616247, -577390.8, -136282.28, 0.0, 10.000022, 9.997859 
4.549862e+2, 2.6499036e+2, -463100.22, -523788.53, -11899.682, -0.20861752, 0.21003307, -460850.34, -117729.34, 0.0, 9.999687, 9.998881 
4.549853e+2, 2.749897e+2, -437618.7, -463843.97, 27709.768, -0.030219916, 0.22737074, -420075.63, -174948.06, 0.0, 9.999196, 9.9988575 
4.5498312e+2, 2.8498915e+2, -368293.34, -415830.88, 26730.137, 0.0064802747, 0.30983537, -356292.66, -209157.3, 0.000000022691747, 9.999153, 9.998539 
4.5497987e+2, 2.9498836e+2, -236808.1, -292396.75, 10651.337, -0.07549175, 0.3500116, -234837.08, -185688.86, 0.0000033720132, 9.999333, 9.99863 
4.54976e+2, 3.049876e+2, -123409.945, -164778.73, 23785.914, -0.25683752, 0.39039567, -112572.695, -112572.695, 0.000028360193, 9.999592, 9.999043 
4.5497802e+2, 3.1498608e+2, 61171.18, 167024.78, -73287.016, 0.13208126, 0.30670318, 204498.39, 204498.39, 0.00009465621, 9.999754, 10.001249 
4.6503592e+2, 1.2500697e+2, -1631464.1, -1599903.0, 256630.08, 0.13535883, 0.23972732, -1358568.8, 356395.72, 0.000096649455, 10.000195, 10.0006695 
4.6502757e+2, 1.3500857e+2, -1532090.4, -1567375.8, -80477.945, -0.036893196, 0.3489248, -1467343.9, 149599.44, 0.00004344866, 10.000483, 10.000115 
4.6502456e+2, 1.450081e+2, -1502199.4, -1577080.1, 80858.61, 0.039171565, 0.3309427, -1450533.6, 68412.59, 0.000012657647, 10.000363, 9.999405 
4.6502015e+2, 1.5500666e+2, -1475288.6, -1508873.1, 42845.59, -0.14234231, 0.21326785, -1446062.1, -25100.021, 0.0000014631825, 9.99986, 9.999446 
4.650168e+2, 1.6500606e+2, -1356757.4, -1469945.6, -7536.796, -0.122122265, 0.24359909, -1356257.8, -33288.32, 0.000000030371112, 10.000308, 9.99882 
4.6501386e+2, 1.7500617e+2, -1049516.8, -1268729.6, -12461.949, 0.0051094666, 0.34526667, -1048810.5, 176158.75, 0.0, 10.001728, 9.998849 
4.65011e+2, 1.8500547e+2, -923046.06, -1128917.3, 76053.664, 0.03701379, 0.38217682, -897997.7, 228978.88, 0.0, 10.001804, 9.999094 
4.6500856e+2, 1.9500378e+2, -1019897.4, -1128927.9, 57427.645, 0.00040237347, 0.28094187, -995230.25, 33763.402, 0.0, 10.000471, 9.999071 
4.6500516e+2, 2.0500311e+2, -1002875.1, -1079706.4, 6582.6387, -0.05369265, 0.31510696, -1002315.25, -71314.82, 0.0, 9.9999695, 9.998971 
4.6500066e+2, 2.1500336e+2, -859774.56, -960538.1, 4848.8125, -0.13937806, 0.41896886, -859541.75, -26543.71, 0.0, 10.0002775, 9.99897 
4.6499744e+2, 2.250021e+2, -734307.3, -847525.7, 32897.473, -0.12404377, 0.39936286, -725442.5, 9565.814, 0.0, 10.000476, 9.998965 
4.6499547e+2, 2.3499916e+2, -613767.06, -739050.1, 11000.077, -0.011767991, 0.18494168, -612808.56, 24224.34, 0.0, 10.000626, 9.99897 
4.6499258e+2, 2.4499716e+2, -602635.4, -797410.44, 72828.695, -0.027222726, 0.14258496, -578415.56, -39363.883, 0.0, 10.000507, 9.997962 
4.6498898e+2, 2.5499594e+2, -560948.56, -720886.6, 117039.41, -0.16368172, 0.19825552, -499166.84, -58100.74, 0.0, 10.000096, 9.998011 
4.6498644e+2, 2.6499492e+2, -414855.5, -482021.9, 116269.35, -0.15636338, 0.24449189, -327416.4, 15660.315, 0.0, 9.999924, 9.999064 
4.6498492e+2, 2.7499396e+2, -316823.66, -386166.8, 93340.984, -0.013845343, 0.21590212, -251922.86, -6838.1265, 0.0, 9.999928, 9.999047 
4.6498227e+2, 2.8499323e+2, -312059.47, -431879.44, 115335.54, -0.013650623, 0.2867707, -242002.17, -94907.9, 0.00000001636591, 9.999719, 9.998158 
4.6497878e+2, 2.9499236e+2, -251786.8, -331987.6, 104480.96, -0.11162345, 0.35345227, -179975.11, -130866.42, 0.0000038591365, 9.999372, 9.998335 
4.6497568e+2, 3.0499083e+2, -176568.11, -168258.6, 134737.28, -0.21503294, 0.31991547, -37612.027, -37612.027, 0.000029778155, 9.999122, 9.99926 
4.649777e+2, 3.149899e+2, -78230.87, 120579.195, -63780.516, 0.19050276, 0.28130737, 139281.38, 139281.38, 0.00009717631, 9.998721, 10.001429 
4.7503847e+2, 1.2501022e+2, -1671576.9, -1658514.9, 272234.78, 0.31518117, 0.13640743, -1392732.8, 322191.97, 0.0000915649, 10.000116, 10.000291 
4.7502783e+2, 1.3501073e+2, -1553185.4, -1598616.5, -59070.805, -0.08367356, 0.15668923, -1512613.1, 104303.54, 0.000038474074, 10.000452, 9.9999 
4.7502276e+2, 1.450108e+2, -1503837.3, -1580625.8, 53825.13, -0.20977306, 0.20609221, -1476115.9, 42800.137, 0.000009911169, 10.000348, 9.999395 
4.7502095e+2, 1.5501185e+2, -1466905.5, -1503453.1, 34235.023, -0.07687165, 0.33335984, -1446372.5, -25463.19, 0.0000009593812, 9.999898, 9.999471 
4.7501856e+2, 1.6501114e+2, -1357358.6, -1462069.8, 36586.055, -0.00032920486, 0.3496966, -1345842.1, -22924.107, 0.000000014696447, 10.00027, 9.998895 
4.7501495e+2, 1.750084e+2, -1049618.8, -1261443.1, 52473.273, -0.07944411, 0.16445808, -1037332.56, 187612.3, 0.0, 10.001699, 9.998913 
4.7501162e+2, 1.8500757e+2, -950859.94, -1171873.9, 18987.81, -0.10075482, 0.19727407, -949240.5, 177713.84, 0.0, 10.001736, 9.998836 
4.75009e+2, 1.950085e+2, -1044877.4, -1170388.5, 18033.863, -0.023792189, 0.3842548, -1042337.56, -13389.864, 0.0, 10.000421, 9.998815 
4.7500578e+2, 2.0500769e+2, -1001368.6, -1052811.9, 10405.8955, -0.009101604, 0.40702885, -999343.44, -68388.0, 0.0, 9.999871, 9.999199 
4.7500184e+2, 2.1500501e+2, -860226.7, -934635.3, 25944.602, -0.07241988, 0.19452438, -852073.75, -19094.506, 0.0, 10.000164, 9.9992 
4.7499827e+2, 2.2500378e+2, -766559.25, -898183.2, 30201.639, -0.11381746, 0.18226372, -759960.2, -24969.363, 0.0, 10.000393, 9.998665 
4.7499517e+2, 2.3500393e+2, -650720.25, -791557.7, 26609.352, -0.12294334, 0.30795234, -645860.44, -8869.347, 0.0, 10.000514, 9.998669 
4.7499287e+2, 2.4500373e+2, -517734.06, -601269.6, 49946.39, -0.071278125, 0.38845518, -494392.78, 44600.133, 0.0, 10.000424, 9.999346 
4.7499132e+2, 2.5500295e+2, -479570.28, -534852.2, 111563.85, 0.039472595, 0.35191205, -392274.22, 48723.57, 0.0, 10.000017, 9.999329 
4.7498834e+2, 2.6500168e+2, -448449.63, -539892.3, 109800.84, 0.017736996, 0.32643878, -375231.22, -32222.531, 0.0, 9.999874, 9.998689 
4.7498372e+2, 2.7499965e+2, -350396.47, -441220.1, 104930.02, -0.15236546, 0.22910681, -281473.06, -36445.05, 0.0, 9.999869, 9.998695 
4.7498065e+2, 2.8499812e+2, -314368.88, -434202.25, 91236.76, -0.17283806, 0.23944424, -265133.56, -118089.51, 0.0000000367379, 9.999704, 9.99815 
4.749794e+2, 2.9499704e+2, -264721.38, -344893.3, 102475.83, -0.013642595, 0.28447357, -194770.19, -145712.44, 0.000004901276, 9.9993, 9.998287 
4.749766e+2, 3.04995e+2, -200413.47, -206596.92, 113496.57, -0.053497564, 0.21330345, -89966.52, -89966.52, 0.000032907166, 9.999074, 9.999019 
4.7497466e+2, 3.1499508e+2, -144832.11, -18741.43, -68144.62, -0.03972198, 0.30779976, 11048.586, 11048.586, 0.00010232853, 9.998717, 10.000477 
4.85039e+2, 1.2501524e+2, -1531474.9, -1643719.5, 268831.4, 0.3071209, 0.23013979, -1312970.1, 401905.63, 0.00008664265, 10.001289, 9.999839 
4.8502925e+2, 1.3501455e+2, -1606990.0, -1664086.5, -116117.98, 0.034902968, 0.16544935, -1515962.4, 100919.35, 0.000032757685, 10.000234, 9.999573 
4.8502266e+2, 1.4501415e+2, -1544308.6, -1570172.3, 49492.008, -0.22807887, 0.17026594, -1506086.9, 12798.485, 0.000007215262, 9.999953, 9.999651 
4.8502162e+2, 1.5501553e+2, -1367130.8, -1431108.8, 19273.441, -0.024134036, 0.31157032, -1361773.3, 59098.87, 0.00000059770906, 10.000489, 9.999678 
4.850194e+2, 1.6501507e+2, -1325665.1, -1442023.1, 63434.49, 0.050431028, 0.338466, -1297770.1, 25107.625, 0.0000000048834687, 10.000468, 9.998935 
4.8501542e+2, 1.7501244e+2, -1313226.9, -1382457.0, 61788.813, -0.10410868, 0.15694517, -1277017.8, -52112.586, 0.0, 9.999871, 9.998956 
4.8501205e+2, 1.8501171e+2, -1218520.1, -1293799.6, 27477.785, -0.13104151, 0.19557443, -1209557.5, -82643.695, 0.0, 9.999875, 9.998887 
4.8500964e+2, 1.9501282e+2, -1040176.75, -1157076.1, 33507.387, 0.0044861673, 0.39018315, -1031253.5, -2348.7583, 0.0, 10.000422, 9.998894 
4.8500648e+2, 2.050118e+2, -912657.56, -1041122.8, 54345.992, 0.03976907, 0.400749, -892751.5, 38163.133, 0.0, 10.000608, 9.998932 
4.850025e+2, 2.1500845e+2, -844977.9, -954031.9, 21424.932, -0.026391817, 0.14846806, -840919.7, -7974.0503, 0.0, 10.000383, 9.998964 
4.8499897e+2, 2.250074e+2, -753217.4, -858529.3, 49033.24, -0.0750502, 0.14986384, -733922.6, 1033.4006, 0.0, 10.000341, 9.998964 
4.8499587e+2, 2.350085e+2, -633741.25, -751513.9, 72566.29, -0.098571666, 0.34045258, -599174.56, 37772.797, 0.0, 10.000484, 9.99896 
4.849934e+2, 2.4500875e+2, -514801.8, -545348.56, 78264.25, -0.04351881, 0.4295246, -450334.56, 88609.24, 0.0, 10.000207, 9.999835 
4.8499158e+2, 2.550081e+2, -522208.97, -496686.75, 54311.71, 0.09517629, 0.3525836, -453657.13, -12710.954, 0.0, 9.999478, 9.9998455 
4.849883e+2, 2.6500687e+2, -547101.1, -621774.4, 72508.68, 0.058656618, 0.32123652, -502880.8, -159924.22, 0.0, 9.999346, 9.998377 
4.8498353e+2, 2.7500477e+2, -373789.97, -486963.94, 54879.254, -0.15273984, 0.249723, -351549.16, -106570.83, 0.0, 9.999856, 9.998387 
4.8498034e+2, 2.850031e+2, -259877.16, -372720.1, 52063.46, -0.17897421, 0.24637373, -239526.31, -92531.05, 0.00000008825205, 9.99993, 9.998461 
4.8497903e+2, 2.9500207e+2, -212684.47, -286205.38, 62329.016, 0.016311172, 0.26596075, -177083.08, -128077.4, 0.0000056092463, 9.9995165, 9.998582 
4.849767e+2, 3.0500028e+2, -146420.9, -169596.23, 135842.44, 0.044070583, 0.20326598, -21672.809, -21672.809, 0.000035389916, 9.999395, 9.999105 
4.849739e+2, 3.1500068e+2, -55564.73, -25793.766, -52100.5, -0.017815882, 0.3102572, 13505.985, 13505.985, 0.00010599746, 9.999544, 10.000018 
4.950368e+2, 1.2502196e+2, -1574181.8, -1725819.0, 174441.42, -0.09873821, 0.5168646, -1459794.5, 255023.48, 0.000079155536, 10.001271, 9.999279 
4.9503148e+2, 1.3501996e+2, -1633013.1, -1721512.3, -146941.42, 0.21082799, 0.3641172, -1523803.3, 93035.71, 0.000026309019, 10.000249, 9.99917 
4.9502388e+2, 1.450181e+2, -1522031.4, -1512584.8, 60071.395, -0.13312587, 0.22068983, -1457051.3, 61803.0, 0.0000047383246, 9.999908, 10.000065 
4.9502176e+2, 1.5501784e+2, -1341377.8, -1375795.9, 48754.133, -0.082594104, 0.15656994, -1306884.6, 113965.33, 0.0000002991547, 10.000483, 10.000059 
4.9501896e+2, 1.6501793e+2, -1327496.4, -1437208.4, 30551.8, -0.062049247, 0.21903846, -1319562.3, 3285.888, 0.0000000005507737, 10.000427, 9.998992 
4.9501505e+2, 1.7501822e+2, -1310896.8, -1373690.4, 47860.426, -0.1514917, 0.32249898, -1285053.9, -60203.223, 0.0, 9.999851, 9.999028 
4.9501204e+2, 1.8501785e+2, -1201273.1, -1242037.3, 39217.48, -0.14084148, 0.3733673, -1177457.4, -50601.594, 0.0, 9.999806, 9.999276 
4.950102e+2, 1.9501667e+2, -1021631.75, -1105621.1, 60824.77, -0.006817602, 0.3010925, -989712.94, 39152.742, 0.0, 10.0003605, 9.99928 
4.9500692e+2, 2.0501535e+2, -971410.3, -1141466.0, 35739.16, 0.010226574, 0.29534763, -964204.7, -33325.94, 0.0, 10.000511, 9.998295 
4.9500242e+2, 2.1501374e+2, -904412.94, -1057236.3, 22367.973, -0.09157638, 0.28359565, -901206.3, -68309.69, 0.0, 10.000286, 9.998309 
4.9499917e+2, 2.250129e+2, -711244.3, -744034.06, 47752.72, -0.10602811, 0.29523438, -677150.44, 57754.086, 0.0, 10.000231, 9.9998 
4.949972e+2, 2.350127e+2, -592368.5, -635986.9, 88081.8, -0.035415556, 0.2715494, -523436.06, 113467.164, 0.0, 10.000363, 9.999809 
4.9499393e+2, 2.4501221e+2, -550569.56, -601971.75, 42129.387, -0.03453143, 0.26084822, -526920.56, 11984.552, 0.0, 10.000134, 9.99948 
4.949893e+2, 2.5501123e+2, -558507.4, -553323.25, 35907.676, -0.1016729, 0.19194801, -519914.22, -79002.164, 0.0, 9.999399, 9.999494 
4.949861e+2, 2.6501036e+2, -571325.25, -659393.1, 81373.234, -0.12247437, 0.22444043, -522835.72, -179914.2, 0.0, 9.999293, 9.998144 
4.9498394e+2, 2.7500927e+2, -405429.2, -529011.9, 84915.34, -0.11801858, 0.27712786, -362202.5, -117266.34, 0.0, 9.999761, 9.998142 
4.9498096e+2, 2.850083e+2, -222709.11, -282774.88, 30269.174, -0.13333268, 0.32013568, -210101.67, -63155.04, 0.00000018947561, 9.999881, 9.999101 
4.9497736e+2, 2.9500747e+2, -174088.84, -197481.19, 60629.125, -0.13258293, 0.3017061, -124038.02, -75085.766, 0.000005650319, 9.999485, 9.999204 
4.9497586e+2, 3.050067e+2, -108899.125, -102063.48, 134772.5, -0.0074231396, 0.28870445, 29334.535, 29334.535, 0.00003451672, 9.999424, 9.999562 
4.9497464e+2, 3.1500667e+2, -56035.535, -24402.559, -8413.334, 0.045171313, 0.30220056, -22304.094, -22304.094, 0.00010174547, 9.999524, 10.000039 
5.0503635e+2, 1.250265e+2, -1843418.9, -1846159.4, 220952.47, -0.16364002, 0.48301256, -1623832.4, 90941.47, 0.00006651573, 9.999406, 9.999348 
5.050337e+2, 1.3502574e+2, -1585693.5, -1690530.0, -44905.168, 0.4012662, 0.44918567, -1569088.9, 47695.375, 0.00001955312, 10.000534, 9.999251 
5.0502485e+2, 1.4502399e+2, -1385325.3, -1464795.8, 187122.17, -0.06959644, 0.32275438, -1233766.0, 285032.75, 0.0000028130235, 10.0009365, 9.999895 
5.0502235e+2, 1.5502243e+2, -1332784.8, -1389386.4, 105453.64, -0.06974267, 0.14706711, -1251900.4, 168905.3, 0.00000011765629, 10.000638, 9.999884 
5.0501955e+2, 1.6502224e+2, -1323460.8, -1439199.4, 65212.91, -0.04154749, 0.18956727, -1294143.0, 28662.959, 0.000000000026416515, 10.000461, 9.998962 
5.0501597e+2, 1.7502318e+2, -1246081.3, -1348051.8, 57170.902, -0.06158934, 0.36392868, -1220463.6, 4338.148, 0.0, 10.000308, 9.998987 
5.050129e+2, 1.8502264e+2, -1123376.1, -1221643.5, 74543.15, -0.057187453, 0.40868473, -1083230.5, 43578.418, 0.0, 10.000422, 9.99912 
5.050107e+2, 1.950205e+2, -968155.25, -1095583.6, 39306.227, -0.0053313337, 0.25844175, -957006.4, 71822.336, 0.0, 10.00081, 9.999126 
5.050076e+2, 2.050194e+2, -887779.5, -1070022.6, 16346.097, 0.008288418, 0.26748848, -886325.0, 44515.016, 0.0, 10.00096, 9.998561 
5.0500363e+2, 2.150192e+2, -821297.2, -985535.1, 49726.64, -0.015707703, 0.36850148, -807414.8, 25429.412, 0.0, 10.00074, 9.998573 
5.050001e+2, 2.2501844e+2, -702174.06, -739199.56, 94295.42, -0.02914567, 0.37845019, -624591.25, 110258.82, 0.0, 10.000278, 9.999817 
5.0499713e+2, 2.3501706e+2, -714124.5, -690643.5, 56678.875, -0.025689652, 0.2342395, -644501.94, -7643.329, 0.0, 9.999511, 9.999845 
5.0499356e+2, 2.4501608e+2, -672050.44, -711954.3, 9588.678, -0.05153673, 0.19502693, -669865.94, -131000.18, 0.0, 9.999527, 9.999017 
5.049892e+2, 2.5501525e+2, -442982.7, -551125.94, -21609.404, -0.098354176, 0.18791087, -438824.53, 2049.3567, 0.0, 10.0004225, 9.999019 
5.0498617e+2, 2.6501447e+2, -397182.2, -544374.0, 43866.793, -0.08727092, 0.23989229, -385100.47, -42217.86, 0.0, 10.000358, 9.998424 
5.049842e+2, 2.7501348e+2, -458057.53, -527073.3, 58967.81, -0.03573635, 0.27599367, -424242.7, -179348.5, 0.00000000061010413, 9.999276, 9.998393 
5.049809e+2, 2.8501236e+2, -330597.03, -329190.34, 41459.004, -0.08063778, 0.28999224, -288428.72, -141523.92, 0.00000027597625, 9.999115, 9.999153 
5.049765e+2, 2.9501122e+2, -114652.27, -167388.48, 7401.0947, -0.17862378, 0.2344934, -113633.28, -64720.117, 0.0000049916057, 9.999889, 9.999221 
5.0497556e+2, 3.0501094e+2, -33135.0, -68236.84, 43323.848, 0.00044472617, 0.27240634, -3942.0393, -3942.0393, 0.000030276777, 9.999979, 9.999526 
5.0497454e+2, 3.1501043e+2, -84048.67, -19674.957, -153102.45, 0.10438819, 0.24037609, 104587.4, 104587.4, 0.000090525835, 9.999259, 10.000211 
5.1503676e+2, 1.250288e+2, -1799775.9, -1754259.5, 152869.67, -0.12046271, 0.13124554, -1622463.3, 92280.52, 0.00005196835, 9.9994, 9.999976 
5.1503557e+2, 1.3503192e+2, -1541380.6, -1606675.0, 10259.294, 0.51577777, 0.42106348, -1539806.6, 76910.97, 0.000013925394, 10.000566, 9.999811 
5.1502544e+2, 1.4503184e+2, -1440889.9, -1579402.3, 164261.28, -0.13495556, 0.47474262, -1331881.6, 186836.72, 0.000001645238, 10.000929, 9.999117 
5.150231e+2, 1.5502922e+2, -1386683.1, -1502397.9, 105288.0, -0.08186373, 0.27129057, -1324403.0, 96337.05, 0.00000003629146, 10.000639, 9.999111 
5.150207e+2, 1.6502781e+2, -1344838.4, -1464755.6, 53155.324, 0.012126946, 0.23874408, -1324668.9, -1916.432, 0.0, 10.000386, 9.9988165 
5.150178e+2, 1.7502736e+2, -1262247.9, -1372936.1, 61798.863, 0.0676333, 0.2842999, -1234633.8, -9875.477, 0.0, 10.0002775, 9.998826 
5.150144e+2, 1.8502626e+2, -1178310.6, -1326458.4, 79252.9, 0.021805195, 0.31407812, -1143904.3, -17132.771, 0.0, 10.000379, 9.99842 
5.15011e+2, 1.9502434e+2, -1021290.6, -1200724.0, 64477.465, -0.087133534, 0.25562426, -1000524.6, 28269.043, 0.0, 10.000774, 9.9984255 
5.150081e+2, 2.0502383e+2, -831508.56, -923467.1, -884.9192, -0.054776955, 0.3045299, -831500.06, 99299.53, 0.0, 10.000835, 9.999624 
5.150059e+2, 2.1502455e+2, -761248.06, -837276.5, 49842.754, 0.111678824, 0.3886071, -736577.5, 96213.055, 0.0, 10.000633, 9.999643 
5.150016e+2, 2.2502387e+2, -769622.7, -853601.75, 54708.625, 0.07279364, 0.38753012, -742647.4, -7852.6724, 0.0, 10.000168, 9.999085 
5.149954e+2, 2.3502165e+2, -780614.75, -803811.75, 36156.066, -0.17069325, 0.23385666, -754242.4, -117429.35, 0.0, 9.999407, 9.999116 
5.149918e+2, 2.4502048e+2, -718968.56, -797198.9, 34654.64, -0.1935233, 0.24066518, -705825.4, -167000.63, 0.0, 9.999473, 9.998458 
5.1499087e+2, 2.550202e+2, -493687.0, -636194.8, 23930.658, -0.0011422116, 0.3409165, -489775.78, -48944.598, 0.0, 10.000335, 9.998476 
5.1498836e+2, 2.650193e+2, -353247.44, -442986.47, -4560.198, 0.068498254, 0.3702127, -353016.28, -10176.769, 0.0, 10.000318, 9.999141 
5.1498413e+2, 2.7501735e+2, -415315.44, -424462.4, 31454.793, 0.0014560862, 0.24531193, -388103.38, -143250.53, 0.0000000018853024, 9.999218, 9.999126 
5.1497996e+2, 2.8501534e+2, -370173.13, -409615.53, 61290.93, -0.11343791, 0.16014995, -325508.75, -178639.02, 0.00000034894228, 9.999105, 9.998606 
5.14976e+2, 2.950133e+2, -162131.06, -258472.3, 48976.26, -0.2470598, 0.06320829, -141606.1, -92717.125, 0.000004315403, 9.999853, 9.998611 
5.149754e+2, 3.0501288e+2, -74868.54, -149991.64, 12058.645, -0.03910958, 0.14562991, -72980.36, -72980.36, 0.000026122347, 9.9999695, 9.998968 
5.1497316e+2, 3.1501162e+2, -79775.22, 17918.156, -120522.87, -0.010595173, 0.098181635, 99116.695, 99116.695, 0.00008115159, 9.999155, 10.000515 
5.250367e+2, 1.2503296e+2, -2063106.3, -1834007.3, 27744.436, 0.04207232, 0.13148119, -1830695.3, -115993.87, 0.000041741798, 9.997375, 10.000405 
5.250364e+2, 1.3503547e+2, -1522006.1, -1547332.6, -63370.527, 0.550238, 0.31617853, -1470046.0, 146633.28, 0.000010470756, 10.000481, 10.000256 
5.250258e+2, 1.4503573e+2, -1362566.1, -1566436.0, 33888.24, -0.21881782, 0.39131266, -1357080.6, 161597.16, 0.0000009776196, 10.0015745, 9.998892 
5.250238e+2, 1.5503427e+2, -1399681.1, -1534873.8, -8917.424, -0.07523816, 0.32624614, -1399095.4, 21596.316, 0.000000005050013, 10.000653, 9.998881 
5.250217e+2, 1.6503295e+2, -1322134.8, -1432454.1, 22185.777, 0.06563126, 0.30586714, -1317840.3, 4863.242, 0.0, 10.000449, 9.999015 
5.25019e+2, 1.7503162e+2, -1142437.3, -1293847.6, 34618.617, 0.12404894, 0.24445838, -1134897.5, 89817.71, 0.0, 10.001006, 9.999023 
5.2501523e+2, 1.8503039e+2, -1120051.8, -1297522.1, 86929.93, 0.05596421, 0.251816, -1084566.4, 42162.49, 0.0, 10.000772, 9.998435 
5.2501094e+2, 1.950291e+2, -1188065.8, -1274356.1, 104369.23, -0.10371942, 0.25745702, -1118275.4, -89529.484, 0.0, 9.9996195, 9.998474 
5.250081e+2, 2.0502876e+2, -993613.4, -974185.9, 85752.33, -0.079049475, 0.3106944, -897598.9, 33150.906, 0.0, 9.999592, 9.99988 
5.2500653e+2, 2.1502921e+2, -744658.06, -800186.7, 58551.273, 0.12347181, 0.34097335, -707621.9, 125120.56, 0.0, 10.000615, 9.999907 
5.250026e+2, 2.2502843e+2, -667840.4, -847539.5, 30725.545, 0.11605971, 0.33651382, -662732.06, 72015.38, 0.0, 10.001064, 9.998688 
5.249963e+2, 2.3502618e+2, -587638.0, -759572.9, 15905.133, -0.09785722, 0.22195522, -586179.06, 50588.254, 0.0, 10.000942, 9.998684 
5.249925e+2, 2.4502486e+2, -546712.1, -743761.5, 81080.07, -0.13199884, 0.24756886, -517639.4, 21142.023, 0.0, 10.000776, 9.998201 
5.2499133e+2, 2.5502434e+2, -477154.4, -657164.6, 73002.11, 0.010385203, 0.35061985, -451270.66, -10479.983, 0.0, 10.00057, 9.998221 
5.249886e+2, 2.650232e+2, -327730.5, -429398.8, 17170.34, 0.059336945, 0.37013066, -324909.0, 17891.996, 0.0, 10.000492, 9.999145 
5.2498406e+2, 2.750211e+2, -217566.14, -323984.56, -18386.78, 0.013208703, 0.22744642, -214478.86, 30336.125, 0.00000000009174081, 10.00057, 9.999154 
5.2497995e+2, 2.8501925e+2, -196986.44, -315084.4, 48934.38, -0.07680838, 0.15135173, -179345.42, -32515.68, 0.00000033351301, 10.000254, 9.998695 
5.2497625e+2, 2.950176e+2, -212287.98, -278538.9, 56758.895, -0.1866211, 0.084882826, -179695.34, -130850.164, 0.0000041082662, 9.999487, 9.998647 
5.2497554e+2, 3.0501664e+2, -186048.13, -229671.6, 73764.73, 0.01833557, 0.12455444, -130937.91, -130937.91, 0.000024723933, 9.9993105, 9.998743 
5.249719e+2, 3.1501496e+2, -926.98895, 87109.04, -49182.348, -0.04788122, 0.05645812, 109094.73, 109094.73, 0.000077842684, 9.999549, 10.000804 
5.350353e+2, 1.2503868e+2, -2030486.3, -1775311.3, -9681.232, 0.110079154, 0.45996362, -1774944.5, -60295.293, 0.000035627574, 9.997423, 10.000781 
5.3503567e+2, 1.3503644e+2, -1500397.4, -1496422.8, 60742.59, 0.40760994, 0.1360305, -1437635.0, 179034.03, 0.000008273398, 10.000456, 10.000621 
5.350254e+2, 1.4503571e+2, -1348229.5, -1525318.3, -6558.579, -0.44258258, 0.07999737, -1347986.9, 170689.34, 0.00000061502607, 10.001525, 9.999193 
5.35024e+2, 1.5503764e+2, -1381921.4, -1495641.1, -32659.924, -0.14241906, 0.31792054, -1373209.1, 47451.246, 0.00000000036285042, 10.000642, 9.999155 
5.3502196e+2, 1.650377e+2, -1293141.5, -1364668.5, 30991.367, 0.031220512, 0.3979916, -1281581.8, 41077.31, 0.0, 10.000415, 9.999499 
5.350192e+2, 1.7503588e+2, -1107622.5, -1223587.8, 65521.637, 0.024679296, 0.24154186, -1078111.9, 146561.25, 0.0, 10.001007, 9.999511 
5.350152e+2, 1.8503492e+2, -1078557.9, -1197722.9, 35353.203, -0.04848961, 0.21532795, -1068858.9, 57822.895, 0.0, 10.000717, 9.999144 
5.350103e+2, 1.9503461e+2, -1150693.6, -1184968.4, 71566.734, -0.15264344, 0.2477596, -1094241.0, -65554.336, 0.0, 9.999562, 9.999119 
5.35007e+2, 2.0503414e+2, -1043129.1, -1051217.4, 115525.375, -0.16086265, 0.27799135, -931577.1, -885.522, 0.0, 9.999486, 9.999398 
5.350054e+2, 2.1503332e+2, -793866.8, -879198.6, 105724.766, -0.072120726, 0.23258194, -722523.5, 110174.52, 0.0, 10.000513, 9.9994135 
5.350029e+2, 2.2503224e+2, -694773.06, -879309.8, 16537.54, 0.013860211, 0.22957166, -693302.75, 41404.652, 0.0, 10.000959, 9.998522 
5.349994e+2, 2.3503065e+2, -613365.3, -788939.4, 19690.51, 0.09908298, 0.194505, -611184.1, 25537.43, 0.0, 10.000839, 9.99853 
5.349953e+2, 2.4502912e+2, -555332.1, -746284.8, 65477.07, 0.045724466, 0.20765457, -535037.25, 3699.4648, 0.0, 10.000714, 9.998214 
5.349905e+2, 2.5502753e+2, -487008.4, -662288.4, 76399.67, -0.15374176, 0.20221785, -458382.84, -17629.064, 0.0, 10.000506, 9.998218 
5.349866e+2, 2.6502612e+2, -378307.06, -529168.9, 12393.139, -0.20510288, 0.23288915, -377295.75, -34527.902, 0.0, 10.000465, 9.998472 
5.3498363e+2, 2.750247e+2, -271809.06, -425314.0, -2107.9893, -0.11405325, 0.21646778, -271780.13, -26998.805, 0.0, 10.000514, 9.99849 
5.349805e+2, 2.8502408e+2, -151025.22, -215887.14, 13015.228, -0.07302407, 0.26148847, -148511.03, -1725.3986, 0.00000019037492, 10.000239, 9.999383 
5.349771e+2, 2.950241e+2, -173050.75, -182683.19, 41477.51, -0.0847222, 0.29924443, -136110.77, -87328.836, 0.0000040138116, 9.999428, 9.999333 
5.3497565e+2, 3.050223e+2, -182476.06, -228408.55, 80636.35, 0.07918722, 0.22071536, -121599.19, -121599.19, 0.000024880646, 9.999321, 9.99875 
5.349703e+2, 3.1502026e+2, 22794.982, 122272.43, 24154.475, -0.22870928, 0.109157294, 127827.27, 127827.27, 0.000077454766, 9.999589, 10.001031 
5.450331e+2, 1.2504113e+2, -1889603.0, -1702097.3, 49105.97, 0.10629792, 0.35659733, -1690015.4, 24607.686, 0.000030309948, 9.998371, 10.000849 
5.450355e+2, 1.3504021e+2, -1661526.9, -1561619.1, 173209.67, 0.41186404, 0.16230342, -1431303.9, 185327.19, 0.000006366235, 9.999303, 10.000734 
5.450267e+2, 1.4503978e+2, -1579739.0, -1622024.8, 34775.625, -0.372607, 0.1239363, -1560183.4, -41547.336, 0.00000037085837, 9.999864, 9.99934 
5.4502463e+2, 1.5504128e+2, -1418509.9, -1492475.5, -27983.22, -0.11560059, 0.30363107, -1409116.1, 11508.428, 0.00000000007720086, 10.000302, 9.99934 
5.450221e+2, 1.6504124e+2, -1301043.0, -1363388.1, 50468.336, 0.010893639, 0.36287266, -1272896.3, 49728.305, 0.0, 10.000351, 9.999531 
5.4501903e+2, 1.7503966e+2, -1264962.6, -1293243.9, 30758.826, -0.030871108, 0.22756495, -1245249.8, -20612.813, 0.0, 9.999915, 9.999554 
5.4501534e+2, 1.8503913e+2, -1161491.4, -1178271.4, -21713.188, -0.06042293, 0.2165391, -1146603.6, -19963.195, 0.0, 9.99987, 9.999696 
5.450111e+2, 1.9503954e+2, -1007588.75, -1052550.3, -13748.265, -0.051715147, 0.26235476, -1003718.06, 24918.453, 0.0, 10.000256, 9.999697 
5.450079e+2, 2.0503904e+2, -947478.6, -1051158.5, 77420.016, -0.06013962, 0.28222266, -906145.44, 24495.857, 0.0, 10.000347, 9.998986 
5.4500556e+2, 2.1503744e+2, -887397.4, -967508.44, 56764.88, -0.079090536, 0.19943975, -857978.44, -25321.813, 0.0, 10.000067, 9.99902 
5.450031e+2, 2.2503623e+2, -805361.2, -926771.5, -12215.85, -0.008405928, 0.20277417, -804144.25, -69476.25, 0.0, 10.000168, 9.998581 
5.450006e+2, 2.3503523e+2, -637789.5, -796366.3, -11467.528, 0.15329045, 0.22247665, -636964.5, -287.14798, 0.0, 10.000649, 9.998576 
5.449963e+2, 2.4503376e+2, -561294.44, -724331.4, 44392.14, 0.092013724, 0.22744776, -549990.94, -11300.051, 0.0, 10.000569, 9.99843 
5.449903e+2, 2.5503165e+2, -552494.25, -668905.8, 48382.695, -0.1958521, 0.14748503, -535011.2, -94301.16, 0.0, 9.999956, 9.998432 
5.449861e+2, 2.6503006e+2, -504572.6, -619825.6, 46884.742, -0.26006156, 0.16274804, -487909.2, -145183.75, 0.0, 9.999733, 9.998199 
5.44984e+2, 2.7502877e+2, -372271.84, -501937.34, 42894.094, -0.09190979, 0.18598229, -359366.63, -114627.06, 0.0, 9.999945, 9.998238 
5.4498106e+2, 2.8502816e+2, -195880.7, -252679.38, 37664.32, -0.020082371, 0.2545103, -177108.83, -30364.297, 0.00000011177434, 10.000008, 9.999245 
5.449771e+2, 2.9502818e+2, -104988.17, -157891.14, -16034.527, -0.040977642, 0.30207032, -100507.68, -51766.367, 0.0000045059896, 9.999953, 9.999246 
5.4497534e+2, 3.0502588e+2, -116677.29, -173310.25, 32814.348, 0.106776334, 0.17161505, -101650.9, -101650.9, 0.000026381855, 9.99968, 9.998946 
5.449702e+2, 3.1502497e+2, -85037.69, 71052.44, -25975.205, -0.1491872, 0.15124068, 75261.516, 75261.516, 0.00007890932, 9.998861, 10.001017 
5.55029e+2, 1.2504055e+2, -1900204.0, -1718804.5, -56266.535, -0.18571019, -0.13297613, -1702769.3, 11851.161, 0.000026661139, 9.998364, 10.000728 
5.550356e+2, 1.3504677e+2, -1678140.8, -1588747.8, 212756.7, 0.47667205, 0.40116677, -1416043.3, 200522.0, 0.0000052899522, 9.999284, 10.000554 
5.5502963e+2, 1.450478e+2, -1575400.4, -1614063.8, 38845.367, -0.10124259, 0.516434, -1551342.3, -32784.12, 0.00000021782215, 9.999863, 9.999398 
5.550255e+2, 1.5504514e+2, -1411299.9, -1483360.0, 784.9382, -0.08929448, 0.27705467, -1411291.4, 9293.291, 0.00000000000011946363, 10.000316, 9.999405 
5.550216e+2, 1.6504359e+2, -1334600.3, -1425521.1, 25035.072, -0.09700783, 0.20074436, -1328162.6, -5562.6216, 0.0, 10.000324, 9.999114 
5.550182e+2, 1.750429e+2, -1300771.1, -1359995.1, 23717.012, -0.129938, 0.1964097, -1292444.1, -67837.016, 0.0, 9.999883, 9.999111 
5.550154e+2, 1.8504307e+2, -1139708.6, -1116399.6, -15812.49, -0.061759647, 0.25389588, -1108410.8, 18194.133, 0.0, 9.999799, 10.000155 
5.5501324e+2, 1.9504394e+2, -986078.44, -995741.75, 10353.299, 0.113806, 0.30371958, -979484.9, 49110.035, 0.0, 10.0001955, 10.000122 
5.550103e+2, 2.0504345e+2, -981726.1, -1099902.3, 59521.65, 0.13284662, 0.32104453, -956943.9, -26344.91, 0.0, 10.000254, 9.9986925 
5.550066e+2, 2.1504144e+2, -925054.5, -1021795.0, 56655.543, 0.00461594, 0.22658935, -898929.56, -66310.6, 0.0, 9.999958, 9.998701 
5.550031e+2, 2.2504033e+2, -806235.25, -898005.06, -2524.336, -0.044825207, 0.24014911, -806165.9, -71535.51, 0.0, 10.000043, 9.998836 
5.549997e+2, 2.3503995e+2, -638208.8, -767574.3, 18490.92, -0.021231333, 0.2970281, -635617.7, 1016.7946, 0.0, 10.000524, 9.998832 
5.549954e+2, 2.4503882e+2, -547528.9, -678526.25, 14512.2295, -0.08066682, 0.3062252, -545940.44, -7296.8975, 0.0, 10.00049, 9.998787 
5.5499023e+2, 2.550367e+2, -538805.94, -620869.5, 36070.555, -0.21921207, 0.19131868, -525205.4, -84546.0, 0.0, 9.99987, 9.998805 
5.549868e+2, 2.6503494e+2, -499340.72, -601470.44, 46065.45, -0.1911104, 0.1591926, -481633.2, -138959.0, 0.0, 9.999702, 9.998339 
5.5498505e+2, 2.7503327e+2, -374805.06, -494147.53, 60755.516, -0.007900975, 0.13403538, -349318.28, -104628.06, 0.0, 9.999889, 9.998319 
5.549815e+2, 2.8503147e+2, -266353.1, -396716.34, 25499.953, -0.00078593765, 0.13216469, -261542.64, -114835.49, 0.00000024371042, 9.999992, 9.998265 
5.54976e+2, 2.9502952e+2, -173669.9, -297325.22, -5522.4063, -0.1738024, 0.07954263, -173423.77, -124697.99, 0.0000058589785, 9.999929, 9.998305 
5.549742e+2, 3.0502722e+2, -92398.78, -120074.83, -1819.762, -0.0031276175, -0.026195245, -92279.64, -92279.64, 0.000029984647, 9.99967, 9.999315 
5.549712e+2, 3.1502867e+2, -109875.74, 25951.973, -11539.881, 0.013008647, 0.15514044, 26925.422, 26925.422, 0.00008416486, 9.998823, 10.000731 
5.6502795e+2, 1.2504442e+2, -1610936.3, -1585555.3, -138559.23, -0.21525064, -0.11599393, -1459106.6, 255476.2, 0.000022362967, 10.000357, 10.000678 
5.650343e+2, 1.3505068e+2, -1559700.1, -1532292.8, 178459.53, 0.38342196, 0.4163213, -1367011.5, 249514.56, 0.000004259607, 10.000078, 10.000556 
5.650306e+2, 1.4505167e+2, -1543330.4, -1576912.3, 44632.99, 0.011632426, 0.5165637, -1512434.5, 6084.208, 0.00000013010742, 9.999992, 9.999592 
5.650268e+2, 1.5504897e+2, -1397528.8, -1448311.3, -3842.0955, 0.015435552, 0.25513065, -1397239.8, 23304.92, 0.0, 10.000299, 9.999651 
5.6502235e+2, 1.6504763e+2, -1367009.3, -1430194.1, 32062.666, -0.038424704, 0.18110551, -1353589.5, -31031.316, 0.0, 10.00004, 9.9992285 
5.650177e+2, 1.750473e+2, -1380588.4, -1382781.4, 53418.96, -0.12676062, 0.2001639, -1328254.6, -103692.03, 0.0, 9.999262, 9.999253 
5.650151e+2, 1.8504734e+2, -1227265.1, -1206406.6, 69215.51, -0.045597546, 0.25989696, -1146839.1, -20276.475, 0.0, 9.999414, 9.999715 
5.6501436e+2, 1.9504763e+2, -987091.8, -1038470.25, 14070.637, 0.20052461, 0.2927931, -983490.75, 45068.766, 0.0, 10.000386, 9.999723 
5.6501156e+2, 2.0504707e+2, -902417.7, -1040410.25, 31352.75, 0.21234497, 0.31027302, -895628.2, 34936.598, 0.0, 10.000704, 9.998886 
5.6500685e+2, 2.1504551e+2, -853818.1, -960945.1, 47502.242, 0.012944259, 0.24175678, -835788.94, -3209.2776, 0.0, 10.000344, 9.998929 
5.650029e+2, 2.2504458e+2, -776808.8, -873465.75, 42954.7, -0.07329762, 0.25631797, -760478.56, -25889.729, 0.0, 10.000195, 9.998931 
5.649998e+2, 2.3504406e+2, -676324.3, -770386.56, 35132.168, -0.043006353, 0.28779563, -664651.1, -28057.268, 0.0, 10.000196, 9.998962 
5.649958e+2, 2.4504305e+2, -564392.1, -678965.2, 18901.217, -0.07429746, 0.30051264, -561354.5, -22752.957, 0.0, 10.000364, 9.998834 
5.6499106e+2, 2.5504127e+2, -406945.63, -555484.8, -5371.6387, -0.16095278, 0.21414539, -406751.63, 33863.082, 0.0, 10.000772, 9.998818 
5.649876e+2, 2.6503953e+2, -362522.3, -523030.66, 5682.4976, -0.116434366, 0.17858097, -362321.4, -19692.252, 0.0, 10.0005865, 9.998452 
5.649854e+2, 2.7503768e+2, -376208.56, -476746.72, 1228.7297, 0.052836984, 0.12505311, -376193.53, -131547.78, 0.0, 9.999814, 9.998467 
5.649816e+2, 2.8503564e+2, -321625.66, -451792.03, 39582.35, 0.025962701, 0.10128346, -310534.16, -163868.94, 0.00000046127252, 9.999716, 9.998025 
5.64976e+2, 2.9503337e+2, -132463.02, -306636.84, 46689.91, -0.1845779, 0.039415896, -120736.58, -72048.72, 0.000007820285, 10.00032, 9.998058 
5.64974e+2, 3.050314e+2, -7804.802, -88993.78, 41517.586, -0.0095122205, -0.016095022, 9666.382, 9666.382, 0.00003595913, 10.0002985, 9.999223 
5.6497157e+2, 3.1503326e+2, -64311.938, 2450.961, -35373.426, 0.14880778, 0.2161658, 17706.95, 17706.95, 0.000094486146, 9.9993515, 10.000303 
5.750292e+2, 1.2505254e+2, -1608583.4, -1578072.3, -235885.0, -0.18087535, 0.3845908, -1356950.0, 357562.28, 0.000015098279, 10.000348, 10.000727 
5.75031e+2, 1.3505189e+2, -1547944.4, -1507076.3, 169328.52, 0.026970645, 0.2080415, -1356953.3, 259560.92, 0.0000026568694, 10.00007, 10.0007305 
5.750294e+2, 1.4505139e+2, -1524257.4, -1526677.3, 40502.316, -0.1295147, 0.13384403, -1484947.0, 33570.41, 0.000000050157187, 9.999953, 9.999954 
5.7502824e+2, 1.5505272e+2, -1378669.5, -1400110.5, 17314.842, 0.10920934, 0.23851578, -1369025.0, 51480.21, 0.0, 10.000265, 9.999999 
5.7502395e+2, 1.6505328e+2, -1320299.8, -1324069.6, -9744.998, 0.0997517, 0.29963034, -1312259.1, 10240.765, 0.0, 9.999995, 9.999978 
5.7501733e+2, 1.7505284e+2, -1333831.3, -1282885.9, 33525.18, -0.114702575, 0.23485763, -1266254.0, -41750.39, 0.0, 9.999244, 9.99995 
5.750141e+2, 1.8505204e+2, -1323306.8, -1392332.4, 98809.664, -0.10472735, 0.23769495, -1253155.9, -126642.68, 0.0, 9.999364, 9.99846 
5.750141e+2, 1.9505066e+2, -1087266.5, -1225336.6, 60539.547, 0.11290508, 0.23092079, -1064481.8, -35951.324, 0.0, 10.0003, 9.998481 
5.750113e+2, 2.0504992e+2, -870073.8, -946327.25, 7152.5537, 0.09778982, 0.25549743, -869408.7, 61129.867, 0.0, 10.000587, 9.999588 
5.7500577e+2, 2.1504962e+2, -824760.75, -872438.9, 43128.203, -0.14569943, 0.24507084, -799321.6, 33217.473, 0.0, 10.000221, 9.999598 
5.750022e+2, 2.2504893e+2, -788868.7, -875125.5, 34411.383, -0.18149073, 0.25094897, -776822.8, -42278.98, 0.0, 10.000089, 9.998971 
5.7500046e+2, 2.3504764e+2, -689510.6, -774261.7, 45867.125, -0.013348669, 0.20100106, -669440.4, -32885.574, 0.0, 10.0000925, 9.998988 
5.749973e+2, 2.4504647e+2, -591919.06, -730783.94, 23943.94, 0.011871386, 0.21234505, -587906.44, -49341.254, 0.0, 10.000328, 9.9985 
5.7499254e+2, 2.5504524e+2, -439006.03, -608538.7, 20820.28, -0.10982706, 0.21455432, -436486.56, 4090.3376, 0.0, 10.000708, 9.998489 
5.749885e+2, 2.6504377e+2, -353863.63, -506338.97, -32271.432, -0.11629492, 0.21975334, -347314.66, -4724.295, 0.0, 10.000579, 9.998576 
5.749848e+2, 2.7504194e+2, -369197.4, -459272.56, -20335.078, -0.01944266, 0.15051621, -364819.4, -120211.914, 0.0, 9.9997835, 9.99861 
5.7498085e+2, 2.8504062e+2, -284966.25, -366138.6, 51435.574, -0.042596772, 0.16058981, -260032.53, -113413.09, 0.0000006054728, 9.999678, 9.9986315 
5.7497656e+2, 2.9503974e+2, -97834.945, -224620.03, 83884.48, -0.18134907, 0.18138514, -56083.688, -7456.496, 0.000009307056, 10.000281, 9.998638 
5.749746e+2, 3.0503848e+2, -49760.438, -181910.22, 3093.2632, 0.0015105687, 0.2011571, -49688.07, -49688.07, 0.000040671366, 10.000312, 9.998589 
5.749707e+2, 3.1503838e+2, -108698.695, -94739.82, -45065.97, 0.07611279, 0.30099162, -56116.03, -56116.03, 0.000103750725, 9.999354, 9.999647 
5.8503e+2, 1.2505731e+2, -1936641.6, -1770547.9, -185543.44, -0.0077467742, 0.50938785, -1650313.8, 64154.254, 0.000008007214, 9.998216, 10.000446 
5.850297e+2, 1.3505448e+2, -1673076.3, -1585186.1, 173615.05, -0.059026245, 0.13642316, -1450040.9, 166447.73, 0.0000012151539, 9.999284, 10.000578 
5.850298e+2, 1.450535e+2, -1591936.5, -1533547.0, 38187.953, -0.04854398, 0.011577901, -1514672.5, 3822.2817, 0.000000012980553, 9.999389, 10.000166 
5.8502793e+2, 1.5505566e+2, -1541465.9, -1453563.8, -18613.146, 0.12390375, 0.17297274, -1449784.9, -29310.94, 0.0, 9.9990425, 10.00021 
5.850237e+2, 1.6505681e+2, -1409310.9, -1370458.0, -52859.87, 0.108473554, 0.28347126, -1333567.9, -11104.557, 0.0, 9.999401, 9.999943 
5.850179e+2, 1.7505682e+2, -1162267.8, -1201098.3, -85881.125, -0.033399176, 0.2650712, -1093634.6, 130830.07, 0.0, 10.000425, 9.999938 
5.850147e+2, 1.8505603e+2, -1130880.9, -1297613.9, 21262.053, -0.042027213, 0.27026847, -1128212.3, -1737.9548, 0.0, 10.0006695, 9.998487 
5.850138e+2, 1.950543e+2, -1112995.1, -1237233.1, 59812.344, 0.06889888, 0.22575538, -1088880.3, -60386.105, 0.0, 10.000112, 9.998499 
5.850109e+2, 2.0505346e+2, -1003281.6, -1026069.44, 25061.77, 0.046577916, 0.24866228, -987145.3, -56642.13, 0.0, 9.999736, 9.999449 
5.850061e+2, 2.1505341e+2, -931518.7, -940144.7, -18298.4, -0.10060348, 0.27155915, -917031.9, -84528.84, 0.0, 9.99955, 9.999458 
5.8500296e+2, 2.2505265e+2, -822391.2, -873637.4, -10298.19, -0.097247526, 0.27135217, -820399.1, -85890.984, 0.0, 9.999801, 9.999121 
5.850014e+2, 2.3505099e+2, -618166.3, -727584.75, -12584.941, 0.049555235, 0.17258699, -616737.5, 19783.22, 0.0, 10.000527, 9.999108 
5.8499795e+2, 2.4504973e+2, -576904.7, -727010.94, -19064.36, 0.044338673, 0.17131004, -574521.25, -35989.277, 0.0, 10.000439, 9.998472 
5.8499265e+2, 2.5504875e+2, -588436.3, -680051.1, -17053.982, -0.111360535, 0.20003347, -585364.7, -144821.95, 0.0, 9.99968, 9.998486 
5.8498853e+2, 2.6504767e+2, -487566.13, -562624.9, -35428.633, -0.11718438, 0.23723193, -473485.0, -130930.9, 0.0, 9.999642, 9.998633 
5.849853e+2, 2.7504623e+2, -277475.66, -409812.47, -47907.57, 0.02543785, 0.2061683, -261953.22, -17385.113, 0.0, 10.000403, 9.998647 
5.8498126e+2, 2.8504527e+2, -158980.9, -249465.45, 28634.008, 0.00737246, 0.2256586, -150680.95, -4104.7227, 0.00000055145284, 10.000305, 9.999127 
5.849766e+2, 2.9504475e+2, -214568.6, -229406.06, 31426.928, -0.15132457, 0.23250942, -189696.63, -141117.58, 0.000008783807, 9.999261, 9.999094 
5.8497465e+2, 3.050435e+2, -170862.84, -273723.94, 2303.8523, 0.015731024, 0.24531423, -170811.27, -170811.27, 0.000039667964, 9.999621, 9.9982815 
5.8497095e+2, 3.1504267e+2, 152325.66, 10313.564, -56555.8, 0.07686283, 0.29640406, 172096.34, 172096.34, 0.00010388018, 10.001239, 9.99945 
5.950301e+2, 1.2505856e+2, -1958860.3, -1817748.4, -151587.25, 0.126472, 0.25743797, -1721101.4, -6649.7153, 0.0000033727015, 9.998241, 10.000101 
5.950302e+2, 1.350585e+2, -1703932.4, -1645387.9, 213312.39, 0.034613054, 0.19837865, -1459348.6, 157100.39, 0.00000044999516, 9.999279, 10.000164 
5.9503144e+2, 1.45058e+2, -1591833.6, -1526468.0, 9214.506, 0.14772375, 0.13984953, -1525193.9, -6742.7715, 0.000000014541682, 9.999356, 10.000229 
5.9502566e+2, 1.5505779e+2, -1540406.9, -1449185.5, -22945.334, -0.042126648, 0.058428388, -1443739.1, -23288.402, 0.0, 9.999029, 10.000248 
5.9502125e+2, 1.6505831e+2, -1471505.6, -1487566.4, -24126.244, -0.10063822, 0.1444157, -1454108.4, -131660.63, 0.0, 9.999356, 9.99916 
5.950192e+2, 1.7505924e+2, -1219757.9, -1311383.9, -37483.35, 0.02996264, 0.2977467, -1206377.8, 18067.373, 0.0, 10.000393, 9.999196 
5.9501654e+2, 1.8505932e+2, -1046751.44, -1112325.6, -10659.826, 0.05278201, 0.35971206, -1045062.1, 81383.91, 0.0, 10.000622, 9.9997835 
5.950131e+2, 1.9505844e+2, -1034902.3, -1056824.4, 47523.664, -0.038538586, 0.26989332, -997092.0, 31359.656, 0.0, 10.000035, 9.999774 
5.9501e+2, 2.0505773e+2, -1080869.0, -1164857.1, 8687.014, -0.0380155, 0.286003, -1079979.9, -149520.67, 0.0, 9.999639, 9.998544 
5.950074e+2, 2.1505694e+2, -1011633.8, -1079372.0, -14568.311, 0.05995795, 0.3308236, -1008633.56, -176162.77, 0.0, 9.999435, 9.998559 
5.950048e+2, 2.250558e+2, -818584.56, -849144.8, 6496.064, 0.09130423, 0.32509544, -817261.0, -82780.016, 0.0, 9.999721, 9.999331 
5.9500206e+2, 2.3505408e+2, -619258.6, -706718.4, 24270.295, 0.0505353, 0.1979911, -612975.0, 23517.1, 0.0, 10.0004225, 9.999306 
5.949975e+2, 2.4505278e+2, -561728.56, -686239.06, -56368.62, -0.07087625, 0.16871643, -540000.9, -1498.5298, 0.0, 10.000388, 9.998781 
5.94991e+2, 2.5505182e+2, -575373.1, -637746.4, -37396.9, -0.26893118, 0.16883487, -557865.44, -117352.93, 0.0, 9.999608, 9.998813 
5.9498745e+2, 2.650512e+2, -494785.22, -569174.75, -16544.65, -0.20791808, 0.23491533, -491271.56, -148751.4, 0.0, 9.999609, 9.998606 
5.9498656e+2, 2.7505058e+2, -288005.75, -420276.5, -7816.0947, 0.09000324, 0.2900377, -287545.47, -43017.832, 0.0, 10.000354, 9.998602 
5.949826e+2, 2.8504962e+2, -140156.53, -202376.52, -19798.744, 0.08520022, 0.29462796, -134390.77, 12144.715, 0.0000003359344, 10.000274, 9.999463 
5.9497565e+2, 2.9504824e+2, -199035.58, -182366.8, 1665.8907, -0.20437977, 0.17978224, -182201.94, -133657.53, 0.000006914508, 9.999203, 9.99944 
5.949738e+2, 3.0504626e+2, -175390.38, -276263.13, 57132.305, -0.05787896, 0.10308007, -149616.98, -149616.98, 0.000035638073, 9.999591, 9.998283 
5.949714e+2, 3.150461e+2, 170142.13, 56449.473, 38931.664, -0.051880546, 0.22271936, 182195.56, 182195.56, 0.00009897654, 10.001204, 9.999783 
6.05031e+2, 1.2506135e+2, -1516488.3, -1668315.3, -74746.195, 0.23065768, 0.15773275, -1485866.0, 228555.52, 0.0000011596172, 10.001538, 9.999554 
6.050296e+2, 1.3506225e+2, -1572677.4, -1640077.6, 180186.88, -0.0023258864, 0.25345868, -1423066.3, 193347.73, 0.00000014603442, 10.000451, 9.999627 
6.0503197e+2, 1.450621e+2, -1547357.6, -1507766.3, -10974.836, 0.25915706, 0.25924802, -1504927.5, 13486.997, 0.0000000031309833, 9.999664, 10.00022 
6.050253e+2, 1.5506129e+2, -1441220.6, -1401496.1, -69986.63, -0.004577963, 0.12295454, -1348607.9, 71811.47, 0.0, 9.999707, 10.0002575 
6.050207e+2, 1.650612e+2, -1410069.4, -1472479.0, 1336.3894, -0.10825394, 0.15118797, -1410040.8, -87619.47, 0.0, 9.999825, 9.999044 
6.0501915e+2, 1.750615e+2, -1293558.4, -1362848.4, 17610.498, 0.00883083, 0.25221598, -1289339.4, -64915.96, 0.0, 9.999943, 9.999066 
6.0501665e+2, 1.850616e+2, -1128640.6, -1128847.9, 11044.252, 0.038491797, 0.3142071, -1117699.5, 8723.674, 0.0, 9.9999695, 9.999982 
6.05013e+2, 1.950614e+2, -1040712.75, -1036669.94, -32098.273, -0.035149164, 0.2725591, -1006529.5, 21892.549, 0.0, 9.999899, 9.999978 
6.050102e+2, 2.0506087e+2, -1012183.2, -1147531.8, -43318.508, -0.0038070697, 0.30520847, -999506.3, -69078.68, 0.0, 10.000182, 9.998406 
6.0500824e+2, 2.150598e+2, -829867.0, -1008381.75, -28479.82, 0.13913836, 0.33439925, -825433.5, 7008.8066, 0.0, 10.0007515, 9.998415 
6.0500556e+2, 2.2505845e+2, -714567.3, -821573.8, 12772.897, 0.15904155, 0.32750353, -713063.8, 21391.566, 0.0, 10.000538, 9.999121 
6.0500205e+2, 2.3505668e+2, -754432.4, -787885.7, -20611.32, 0.055058543, 0.2159451, -744614.56, -108145.94, 0.0, 9.999582, 9.99914 
6.0499734e+2, 2.4505569e+2, -668710.6, -695507.9, -89779.69, -0.07768924, 0.20700647, -591335.25, -52858.785, 0.0, 9.999502, 9.999135 
6.0499126e+2, 2.550553e+2, -448424.72, -538511.6, -87845.51, -0.2343485, 0.23063049, -394747.63, 45732.984, 0.0, 10.000331, 9.9991455 
6.049877e+2, 2.6505458e+2, -368131.4, -483156.5, -40668.375, -0.17508283, 0.26402327, -355205.25, -12717.851, 0.0, 10.000356, 9.998845 
6.049864e+2, 2.750534e+2, -385521.1, -441061.3, -30186.908, 0.09127191, 0.23984145, -372273.8, -127775.38, 0.0, 9.999557, 9.998849 
6.0498244e+2, 2.850524e+2, -240068.23, -289378.4, -32734.615, 0.073375925, 0.24445157, -223742.5, -77235.52, 0.00000016006682, 9.999751, 9.999119 
6.049757e+2, 2.950515e+2, 26840.006, -111871.64, -85672.08, -0.19452094, 0.21029696, 67710.92, 116224.734, 0.0000052467194, 10.000911, 9.999107 
6.0497403e+2, 3.050493e+2, 31106.395, -133369.48, -14124.135, -0.043466058, 0.10807863, 32310.47, 32310.47, 0.000031333126, 10.000833, 9.998668 
6.0497147e+2, 3.1504917e+2, -79180.914, -46898.07, -37862.8, -0.06998727, 0.199877, -21879.592, -21879.592, 0.000092264556, 9.999414, 9.99995 
6.1503214e+2, 1.2506585e+2, -1562254.6, -1758157.8, -68890.32, 0.14287673, 0.22602728, -1540454.9, 173921.34, 0.000000319301, 10.001527, 9.998935 
6.1502767e+2, 1.3506575e+2, -1630068.5, -1754938.8, 142101.25, -0.26405933, 0.30295166, -1537291.1, 79092.13, 0.000000018009526, 10.0004425, 9.998837 
6.1503124e+2, 1.4506574e+2, -1554354.1, -1526342.9, -29591.986, 0.18543395, 0.3681433, -1507609.5, 10776.102, 0.0, 9.999671, 10.0000925 
6.1502665e+2, 1.5506609e+2, -1442849.9, -1416294.9, -60200.31, 0.14063914, 0.35719892, -1367925.3, 52455.133, 0.0, 9.99974, 10.000146 
6.1502165e+2, 1.6506541e+2, -1377030.6, -1392152.0, -4136.321, -0.014180574, 0.30305672, -1375973.1, -53588.523, 0.0, 9.999781, 9.999615 
6.150174e+2, 1.7506348e+2, -1258665.0, -1287124.3, 31958.719, -0.18160962, 0.1255394, -1237911.3, -13510.861, 0.0, 9.999926, 9.999596 
6.1501473e+2, 1.8506286e+2, -1201978.4, -1263480.0, -154.6177, -0.1736929, 0.13291243, -1201978.0, -75571.93, 0.0, 9.999894, 9.999091 
6.1501336e+2, 1.9506332e+2, -1112165.6, -1172830.9, -23594.348, -0.010009072, 0.24679399, -1104069.6, -75665.67, 0.0, 9.999842, 9.999074 
6.1501116e+2, 2.0506309e+2, -981414.4, -1061708.3, -30505.29, 0.05700789, 0.32273957, -971139.6, -40732.668, 0.0, 10.000089, 9.999039 
6.1500823e+2, 2.15062e+2, -805143.44, -929646.4, 2006.2059, 0.04412825, 0.28716606, -805111.1, 27305.766, 0.0, 10.000631, 9.999014 
6.150049e+2, 2.2506067e+2, -773913.1, -921246.56, -30603.63, 0.016528266, 0.28290477, -767809.1, -33378.555, 0.0, 10.000432, 9.998489 
6.15001e+2, 2.3505895e+2, -813709.5, -886463.0, -45896.78, -0.02974847, 0.2370223, -791521.94, -155072.6, 0.0, 9.999474, 9.998515 
6.1499715e+2, 2.4505848e+2, -653348.56, -651122.25, -69401.88, -0.069109045, 0.2925952, -582824.6, -44370.176, 0.0, 9.999444, 9.999468 
6.149931e+2, 2.5505906e+2, -435573.53, -498290.66, -48963.1, -0.10578819, 0.37854317, -408787.94, 31659.953, 0.0, 10.00027, 9.999452 
6.149889e+2, 2.6505783e+2, -337158.16, -409850.2, -79724.27, -0.107315324, 0.32135028, -285885.72, 56570.5, 0.0, 10.000319, 9.999366 
6.149845e+2, 2.7505472e+2, -362208.63, -371863.16, -47572.785, -0.08160937, 0.047945265, -319218.8, -74737.945, 0.0, 9.999472, 9.999361 
6.149804e+2, 2.8505364e+2, -317809.7, -443177.97, 1099.5314, -0.12664762, 0.07396021, -317800.06, -171309.33, 0.00000012615395, 9.999716, 9.998079 
6.149765e+2, 2.9505458e+2, -50100.6, -256998.67, -31442.469, -0.23808488, 0.32506236, -45427.8, 3058.5154, 0.000004351736, 10.000854, 9.998133 
6.1497515e+2, 3.0505267e+2, 75601.28, -42153.305, -75009.72, -0.04251076, 0.26587877, 112081.18, 112081.18, 0.000027327982, 10.000831, 9.999305 
6.149702e+2, 3.1505188e+2, -87409.77, -49751.582, -47912.336, -0.1894023, 0.23395538, -17101.293, -17101.293, 0.00008383067, 9.999358, 9.999959 
6.2503326e+2, 1.2506899e+2, -1599698.8, -1755110.0, -82382.26, 0.13090463, 0.25033453, -1564156.9, 150189.17, 0.00000004128188, 10.001158, 9.999147 
6.2502694e+2, 1.350688e+2, -1751118.1, -1804565.3, 67590.305, -0.33329046, 0.3084314, -1705160.3, -88805.94, 0.000000000001578113, 9.999549, 9.998943 
6.250309e+2, 1.4506887e+2, -1657018.0, -1586312.8, 33892.33, 0.22146967, 0.38143834, -1572690.9, -54334.395, 0.0, 9.999015, 9.999997 
6.250275e+2, 1.5506975e+2, -1376381.4, -1387437.9, -7675.1543, 0.22401787, 0.43050024, -1372450.8, 47896.543, 0.0, 10.000236, 10.000091 
6.2502235e+2, 1.6506915e+2, -1263885.9, -1304944.1, 20248.182, 0.04956025, 0.37426567, -1255580.4, 66769.3, 0.0, 10.0004225, 9.999902 
6.2501687e+2, 1.7506693e+2, -1311845.0, -1274932.5, 9815.66, -0.19833931, 0.13833246, -1272484.8, -48119.414, 0.0, 9.99942, 9.999914 
6.2501425e+2, 1.8506597e+2, -1263523.6, -1328285.9, 49819.13, -0.18682496, 0.109647304, -1236486.9, -110113.94, 0.0, 9.9996, 9.998796 
6.2501425e+2, 1.9506595e+2, -982438.25, -1139820.3, 55710.55, 0.049289163, 0.2023191, -964713.8, 63661.63, 0.0, 10.000853, 9.998812 
6.250122e+2, 2.0506538e+2, -826401.6, -983611.6, 42333.38, 0.10356888, 0.25594193, -815726.94, 114654.22, 0.0, 10.001133, 9.999075 
6.250083e+2, 2.1506406e+2, -829951.9, -930842.25, 13024.196, 0.0018678105, 0.19184007, -828297.7, 4094.6501, 0.0, 10.0004225, 9.999104 
6.250044e+2, 2.2506313e+2, -821844.06, -914362.06, -6674.468, -0.04745167, 0.20866404, -821365.06, -86963.055, 0.0, 9.999972, 9.998757 
6.250004e+2, 2.3506236e+2, -750419.0, -830110.6, 27945.584, -0.04561124, 0.23517875, -741596.1, -105183.81, 0.0, 9.999785, 9.998759 
6.2499684e+2, 2.4506192e+2, -637787.94, -671700.7, 71932.04, -0.047304783, 0.29357368, -580840.75, -42423.066, 0.0, 9.999655, 9.999234 
6.249935e+2, 2.5506163e+2, -543229.6, -574589.0, 31316.523, -0.052937306, 0.31682914, -523886.78, -83467.15, 0.0, 9.999628, 9.99924 
6.2498945e+2, 2.6506028e+2, -396701.56, -451847.34, -46779.914, -0.066502154, 0.2591212, -369973.22, -27542.908, 0.0, 9.999964, 9.999245 
6.2498444e+2, 2.7505755e+2, -203492.2, -310466.0, -85390.84, -0.09011182, 0.039796907, -156219.77, 88232.4, 0.0, 10.000616, 9.99923 
6.2498033e+2, 2.850566e+2, -173777.9, -346947.75, 24154.06, -0.14244808, 0.06807569, -170471.97, -24010.861, 0.000000116905284, 10.000594, 9.998321 
6.249771e+2, 2.950572e+2, -164409.17, -290917.8, 63519.734, -0.20993957, 0.26928625, -138020.5, -89562.68, 0.000004287332, 9.999961, 9.9983425 
6.249756e+2, 3.0505583e+2, -64148.547, -91821.27, 37789.56, -0.012915386, 0.24555363, -37741.953, -37741.953, 0.000025852014, 9.999808, 9.999446 
6.2497e+2, 3.1505537e+2, -15886.8955, -52625.656, 5683.5723, -0.1630706, 0.2304174, -15027.727, -15027.727, 0.00007867894, 10.000009, 9.9996195 
6.3503414e+2, 1.250707e+2, -1518632.9, -1593398.3, -86826.8, 0.042004798, 0.22535984, -1461483.3, 252848.89, 0.000000010756334, 10.00119, 10.000241 
6.350269e+2, 1.3507135e+2, -1686568.0, -1667404.5, 2116.5947, -0.30825755, 0.27071372, -1667173.5, -50846.09, 0.0, 9.999535, 9.999895 
6.3503057e+2, 1.4507157e+2, -1660644.8, -1581850.9, 62910.93, 0.2665981, 0.31022966, -1547019.1, -28692.637, 0.0, 9.998969, 10.000047 
6.3502735e+2, 1.5507226e+2, -1371937.8, -1383618.6, 52014.145, 0.16307805, 0.33728078, -1325437.1, 94883.086, 0.0, 10.000252, 10.000113 
6.3502246e+2, 1.6507235e+2, -1270372.0, -1310442.1, -28057.148, -0.006587821, 0.34907603, -1255930.9, 66386.74, 0.0, 10.000388, 9.99988 
6.350172e+2, 1.7507175e+2, -1313697.1, -1281392.0, -18680.105, -0.12901345, 0.27868503, -1272849.4, -48529.832, 0.0, 9.999421, 9.999875 
6.3501495e+2, 1.8507075e+2, -1246405.3, -1279117.4, 87911.38, -0.09707726, 0.23180819, -1173341.4, -47015.73, 0.0, 9.999549, 9.999155 
6.350153e+2, 1.9506916e+2, -969145.1, -1095875.8, 110259.22, 0.049318716, 0.1311571, -905340.25, 122997.55, 0.0, 10.000783, 9.999146 
6.350129e+2, 2.0506762e+2, -880802.0, -1067868.9, 5034.3477, 0.051128186, 0.097413875, -880666.6, 49684.93, 0.0, 10.001011, 9.998554 
6.3500804e+2, 2.1506591e+2, -884309.25, -1011242.06, -3630.9502, -0.08191894, 0.046829484, -884205.5, -51836.594, 0.0, 10.000284, 9.998617 
6.350038e+2, 2.2506577e+2, -755884.7, -753428.5, -22623.12, -0.123683214, 0.10563117, -732000.1, 2370.1702, 0.0, 9.999865, 9.999916 
6.35e+2, 2.3506686e+2, -685877.3, -671854.25, 32248.768, -0.0879778, 0.20217076, -645863.56, -9505.195, 0.0, 9.999678, 9.9999 
6.349961e+2, 2.4506602e+2, -704365.3, -794180.7, 63037.676, -0.10686973, 0.20430113, -671875.0, -133508.58, 0.0, 9.999588, 9.998425 
6.3499224e+2, 2.5506306e+2, -611912.5, -699131.8, 39770.125, -0.16945685, 0.043219574, -596501.25, -156105.58, 0.0, 9.999548, 9.9984255 
6.349889e+2, 2.650619e+2, -460713.53, -569136.44, -31921.4, -0.13637693, 0.08271462, -452013.47, -109604.04, 0.0, 9.999905, 9.998465 
6.349859e+2, 2.750621e+2, -272516.22, -429171.3, -49686.484, -0.028464936, 0.23205209, -258086.28, -13675.295, 0.0, 10.00052, 9.998459 
6.3498193e+2, 2.8506124e+2, -67612.86, -122362.84, -12151.183, -0.06776564, 0.23370045, -65037.2, 81380.19, 0.0000001448745, 10.000576, 9.999875 
6.3497716e+2, 2.9505938e+2, -70671.73, -76087.94, 53007.316, -0.22804447, 0.036655623, -20303.383, 28124.361, 0.000005079309, 9.999889, 9.999848 
6.349752e+2, 3.0505893e+2, -93975.37, -162559.69, 40860.79, -0.067524694, 0.05855454, -74923.77, -74923.77, 0.000027855136, 9.999828, 9.998959 
6.349701e+2, 3.1505966e+2, -87288.3, -179846.48, 68233.445, -0.2067153, 0.2016667, -51120.094, -51120.094, 0.00008145653, 9.999917, 9.998793 
6.450347e+2, 1.2507336e+2, -1651374.5, -1653584.5, 67742.89, 0.039326925, 0.19129588, -1584727.6, 129577.09, 0.0000000047013002, 10.000264, 10.000275 
6.450272e+2, 1.3507418e+2, -1582401.8, -1602686.5, -34260.754, -0.25060472, 0.24634585, -1556813.6, 59483.734, 0.0, 10.00022, 9.999987 
6.450297e+2, 1.450742e+2, -1539155.3, -1482848.6, 75414.14, 0.25908032, 0.24296825, -1430504.0, 87792.914, 0.0, 9.999632, 10.000407 
6.450262e+2, 1.5507482e+2, -1556009.6, -1430671.9, 65758.0, 0.096670985, 0.22481833, -1402503.0, 17787.014, 0.0, 9.998811, 10.000484 
6.450221e+2, 1.650752e+2, -1472458.9, -1444131.4, 7981.582, -0.014392183, 0.2637639, -1442037.3, -119751.77, 0.0, 9.999158, 9.9995575 
6.4501876e+2, 1.750752e+2, -1157790.3, -1239724.1, -19804.99, 0.029897843, 0.2888499, -1153254.1, 71030.73, 0.0, 10.000641, 9.999573 
6.450166e+2, 1.8507428e+2, -1034907.94, -1176296.6, 80894.0, 0.04181737, 0.26277933, -998170.75, 128120.7, 0.0, 10.000999, 9.999162 
6.450152e+2, 1.9507217e+2, -1055048.0, -1134834.3, 56607.258, -0.0048003932, 0.11036523, -1025689.1, 2618.5012, 0.0, 10.000192, 9.999162 
6.450123e+2, 2.0507064e+2, -1039209.2, -1112515.9, -33573.836, -0.046534307, 0.06238802, -1026156.7, -95836.27, 0.0, 9.999787, 9.998834 
6.4500815e+2, 2.1506947e+2, -951056.94, -1018429.9, -5689.6885, -0.07200609, 0.036374412, -950579.9, -118247.44, 0.0, 9.99971, 9.998846 
6.4500415e+2, 2.2506924e+2, -777441.8, -801266.06, -14984.837, -0.07066657, 0.09596221, -770211.2, -35876.598, 0.0, 9.999871, 9.999587 
6.450003e+2, 2.350698e+2, -618064.7, -672100.0, -94827.37, -0.047983434, 0.16577034, -546481.2, 89847.74, 0.0, 10.000285, 9.999601 
6.449962e+2, 2.4506876e+2, -584052.3, -713462.6, -69949.63, -0.08422415, 0.15550286, -553470.0, -15131.865, 0.0, 10.000326, 9.998626 
6.44992e+2, 2.5506607e+2, -527393.0, -632820.3, -31797.014, -0.16484885, 0.00042796577, -518545.47, -78182.44, 0.0, 10.000027, 9.99865 
6.449889e+2, 2.650652e+2, -491895.34, -596429.75, -4289.651, -0.11232283, 0.065241344, -491719.6, -149345.84, 0.0, 9.999731, 9.998368 
6.4498687e+2, 2.750658e+2, -432126.25, -517346.0, 7640.324, 0.075717814, 0.26435488, -431446.7, -187073.2, 0.000000000000000000046744374, 9.999464, 9.998371 
6.4498293e+2, 2.8506485e+2, -213562.25, -167412.03, 27254.1, 0.036193572, 0.24827076, -154776.55, -8395.445, 0.00000034821963, 9.999462, 10.000098 
6.4497703e+2, 2.9506227e+2, -91387.58, -67516.63, -31379.652, -0.20755942, -0.045099538, -45879.227, 2517.984, 0.0000068469953, 9.999649, 10.000026 
6.4497477e+2, 3.0506247e+2, -111705.54, -178146.73, -37476.23, -0.07435151, 0.038452268, -94845.44, -94845.44, 0.00003364889, 9.999757, 9.99887 
6.449707e+2, 3.1506288e+2, -85657.01, -151523.36, -12457.442, -0.1311388, 0.1527817, -83379.64, -83379.64, 0.000093640454, 9.999824, 9.999016 
6.550347e+2, 1.2507707e+2, -1715767.5, -1777923.4, 106119.77, -0.02985426, 0.15096372, -1636268.6, 77994.41, 0.000000001405694, 10.000235, 9.99943 
6.5502757e+2, 1.350773e+2, -1633357.0, -1711146.0, -34231.523, -0.2619544, 0.22774626, -1620438.6, -4174.645, 0.0, 10.00024, 9.999228 
6.550282e+2, 1.4507674e+2, -1494715.6, -1391527.0, 27949.438, 0.11077688, 0.16820301, -1384443.0, 133825.44, 0.0, 9.999633, 10.001039 
6.550236e+2, 1.5507738e+2, -1516648.5, -1347891.0, 45112.59, -0.072534576, 0.09505559, -1336588.4, 83668.31, 0.0, 9.998799, 10.001065 
6.550209e+2, 1.6507764e+2, -1516214.8, -1525844.3, 52784.38, -0.07516495, 0.12209276, -1468026.0, -145772.34, 0.0, 9.999119, 9.99901 
6.550212e+2, 1.7507736e+2, -1198879.3, -1322490.1, 45404.97, 0.18377067, 0.17048131, -1183993.5, 40267.043, 0.0, 10.000629, 9.999007 
6.550188e+2, 1.8507655e+2, -1066498.4, -1227164.3, 40735.703, 0.14451897, 0.20160311, -1056760.4, 69509.805, 0.0, 10.0009365, 9.998843 
6.550136e+2, 1.9507502e+2, -1084422.8, -1179124.3, 37474.363, -0.20761316, 0.13733445, -1071388.0, -43103.707, 0.0, 10.000125, 9.998888 
6.5501e+2, 2.0507449e+2, -982766.3, -975725.8, -45625.516, -0.27555197, 0.15225953, -933484.94, -3197.3503, 0.0, 9.999699, 9.999821 
6.550081e+2, 2.1507467e+2, -899623.56, -882264.5, 1108.8601, -0.06657715, 0.16296971, -882193.94, -49910.92, 0.0, 9.999586, 9.999841 
6.550051e+2, 2.2507362e+2, -926104.06, -1078759.5, -9126.816, 0.023024468, 0.18210362, -925560.3, -191265.83, 0.0, 9.999743, 9.997741 
6.550011e+2, 2.3507112e+2, -766571.25, -946733.06, -70349.414, -0.015227886, 0.13249171, -742356.0, -106031.94, 0.0, 10.000148, 9.997778 
6.5499693e+2, 2.4507016e+2, -508842.34, -536579.4, -92765.79, -0.0668022, 0.15643226, -428914.13, 109418.52, 0.0, 10.000237, 9.999882 
6.549925e+2, 2.5507054e+2, -451323.34, -454934.84, -32808.074, -0.13843283, 0.1814682, -420271.38, 20051.002, 0.0, 9.999947, 9.999907 
6.549892e+2, 2.6507014e+2, -450959.25, -508978.28, -24968.09, -0.08190967, 0.19993289, -441694.0, -99370.18, 0.0, 9.999712, 9.998981 
6.549869e+2, 2.7506876e+2, -396823.16, -434524.06, 10045.426, 0.10910355, 0.14160676, -394313.6, -149974.86, 0.0000000002377775, 9.999413, 9.998969 
6.5498275e+2, 2.850675e+2, -296916.8, -326433.7, 24855.34, 0.04934939, 0.11896057, -282768.5, -136417.28, 0.0000008000927, 9.999412, 9.999024 
6.549764e+2, 2.9506603e+2, -183398.13, -233513.44, -12258.1, -0.26471138, 0.040414155, -180560.5, -132196.08, 0.000010270006, 9.999555, 9.998924 
6.5497416e+2, 3.0506656e+2, -89655.56, -142163.77, -41835.074, -0.1449785, 0.20282553, -66518.87, -66518.87, 0.00004390313, 9.999784, 9.999114 
6.54971e+2, 3.1506473e+2, -2185.5007, 23779.87, 33546.08, -0.14128317, 0.070120595, 46767.86, 46767.86, 0.00011355579, 9.99981, 10.000235 
6.6503537e+2, 1.2508105e+2, -1566794.9, -1739924.4, 122987.5, -0.03407133, 0.18973519, -1502962.1, 211260.83, 0.00000000035571668, 10.00139, 9.999135 
6.650282e+2, 1.3508047e+2, -1617071.1, -1725911.8, -55109.047, -0.22549069, 0.19962811, -1594040.9, 22190.379, 0.0, 10.000425, 9.999053 
6.6502726e+2, 1.4507958e+2, -1497351.3, -1397617.0, 26378.523, 0.06608675, 0.1198288, -1391070.0, 127168.66, 0.0, 9.999644, 10.000986 
6.6502315e+2, 1.5508075e+2, -1419751.4, -1307175.0, -27593.797, -0.021997185, 0.10234823, -1300775.3, 119446.73, 0.0, 9.999498, 10.001001 
6.65021e+2, 1.6508113e+2, -1438382.4, -1490665.3, 55807.742, 0.003573434, 0.14567743, -1402896.9, -80678.48, 0.0, 9.999669, 9.998988 
6.6502184e+2, 1.7508052e+2, -1279752.5, -1361466.5, 65055.76, 0.21980095, 0.16260058, -1243787.9, -19558.156, 0.0, 10.000073, 9.999006 
6.6501945e+2, 1.8507986e+2, -1214467.0, -1266019.0, 54355.957, 0.18047364, 0.19378087, -1180085.1, -53846.14, 0.0, 9.999793, 9.999124 
6.6501373e+2, 1.9507894e+2, -1251411.8, -1232727.5, 74482.086, -0.13525483, 0.16453455, -1167003.9, -138755.63, 0.0, 9.998856, 9.999135 
6.6501004e+2, 2.0507894e+2, -1058543.0, -995480.56, 54940.23, -0.21263447, 0.21397917, -963666.3, -33419.21, 0.0, 9.999109, 9.999968 
6.650082e+2, 2.1507965e+2, -758221.0, -799596.56, 16082.583, -0.05261916, 0.26431727, -752705.06, 79532.81, 0.0, 10.000498, 9.999969 
6.650053e+2, 2.2507843e+2, -776610.7, -1013130.1, 28912.818, 0.018488992, 0.26371622, -773127.6, -38877.367, 0.0, 10.000796, 9.997688 
6.650012e+2, 2.350752e+2, -795140.2, -970453.94, 84519.53, -0.005370062, 0.14935243, -761029.75, -124744.59, 0.0, 9.99999, 9.9977 
6.6499734e+2, 2.4507388e+2, -592074.8, -589270.25, 103262.7, -0.018226368, 0.14546949, -487400.28, 50895.902, 0.0, 9.9997, 9.999786 
6.649935e+2, 2.550742e+2, -467733.94, -477992.0, 36362.14, -0.02078052, 0.17398071, -436140.88, 4145.1436, 0.0, 9.999872, 9.999794 
6.649901e+2, 2.6507354e+2, -384747.25, -465791.03, -3457.7466, 0.024380904, 0.16965123, -384599.97, -42310.848, 0.0, 10.000124, 9.999078 
6.64987e+2, 2.7507186e+2, -230368.48, -339207.97, -28519.037, 0.12528414, 0.068521135, -223348.47, 20957.873, 0.0000000023427176, 10.000505, 9.999089 
6.649828e+2, 2.8507078e+2, -186743.28, -329171.75, 6251.536, 0.068052985, 0.08441122, -186469.4, -40151.383, 0.0000014418595, 10.0004015, 9.998532 
6.649773e+2, 2.950699e+2, -182150.36, -280891.28, -9194.561, -0.14186889, 0.110598676, -181301.48, -132973.08, 0.000014823799, 9.999772, 9.998491 
6.6497463e+2, 3.0507e+2, -108271.445, -170090.9, 10557.863, -0.06610538, 0.25726244, -106518.055, -106518.055, 0.000057815294, 9.999747, 9.998938 
6.649709e+2, 3.1506714e+2, 77702.42, 112805.984, 18832.127, -0.13723493, 0.047095004, 120997.44, 120997.44, 0.00014076727, 10.000143, 10.000688 
6.7503625e+2, 1.2508522e+2, -1553289.5, -1711015.4, 80124.875, -0.13540785, 0.28662863, -1519727.6, 194457.89, 0.0000000023126079, 10.001396, 9.999327 
6.7502874e+2, 1.3508372e+2, -1591769.8, -1667985.4, -88866.445, -0.2368314, 0.16099326, -1533185.0, 83013.99, 0.0, 10.00041, 9.999453 
6.7502666e+2, 1.4508294e+2, -1550473.3, -1503342.1, 5855.7437, 0.015891144, 0.107383296, -1502625.5, 15580.573, 0.0, 9.999623, 10.000271 
6.750244e+2, 1.5508512e+2, -1465562.8, -1404679.1, -21174.727, 0.13247317, 0.2658283, -1398038.9, 22145.11, 0.0, 9.999509, 10.000327 
6.7502207e+2, 1.6508575e+2, -1401879.4, -1416413.1, 60295.02, 0.12322074, 0.34136555, -1348414.9, -26236.008, 0.0, 9.999667, 9.999503 
6.750205e+2, 1.7508471e+2, -1245843.1, -1285776.0, 89598.44, 0.05346201, 0.26193652, -1174013.4, 50178.715, 0.0, 10.000048, 9.999539 
6.7501825e+2, 1.8508416e+2, -1162614.4, -1147399.0, 7664.438, 0.05799967, 0.23617403, -1144207.6, -18009.398, 0.0, 9.999741, 9.999965 
6.750153e+2, 1.9508396e+2, -1205263.4, -1116835.8, 49449.77, 0.11242741, 0.19463146, -1094716.0, -66516.71, 0.0, 9.998772, 9.99997 
6.750119e+2, 2.050841e+2, -1127259.4, -1117407.8, 98322.41, 0.05167367, 0.25704196, -1023887.8, -93689.695, 0.0, 9.99901, 9.999184 
6.7500824e+2, 2.1508437e+2, -826683.06, -915184.9, 77140.34, -0.11870017, 0.3413945, -782002.6, 50194.492, 0.0, 10.00038, 9.999233 
6.750044e+2, 2.2508377e+2, -673681.8, -766910.5, -10718.774, -0.16744235, 0.348679, -672465.3, 61735.777, 0.0, 10.00066, 9.999443 
6.750003e+2, 2.3508212e+2, -692197.75, -725777.25, 66098.46, -0.11446966, 0.21620055, -640790.0, -4578.6104, 0.0, 9.999864, 9.999437 
6.7499715e+2, 2.4508002e+2, -711453.1, -814855.8, 102433.12, -0.028054921, 0.1246535, -648413.1, -110185.57, 0.0, 9.999606, 9.99828 
6.7499477e+2, 2.5507718e+2, -588248.6, -706190.94, 52539.582, 0.0905191, -0.010732045, -568238.7, -127986.29, 0.0, 9.999777, 9.998272 
6.749913e+2, 2.6507562e+2, -422520.03, -531028.06, 1051.7251, 0.11483797, -0.011500288, -422509.84, -80241.83, 0.0, 10.000069, 9.998656 
6.7498684e+2, 2.750751e+2, -269012.0, -405360.03, -2162.1082, 0.031781927, 0.048625924, -268977.72, -24701.635, 0.0000000015372758, 10.000444, 9.998667 
6.7498285e+2, 2.850747e+2, -173858.8, -303031.84, -26188.139, 0.010046781, 0.14246492, -168751.44, -22469.86, 0.0000017821444, 10.000403, 9.998712 
6.7497927e+2, 2.9507405e+2, -180454.23, -257637.84, -19192.453, 0.04616309, 0.17713356, -175945.25, -127657.52, 0.000019076204, 9.999687, 9.998693 
6.749757e+2, 3.0507275e+2, -160047.63, -268464.78, 19618.965, 0.046067763, 0.20594394, -156606.63, -156606.63, 0.000073988194, 9.999712, 9.998273 
6.7496955e+2, 3.1507012e+2, 44890.88, 65271.074, 62433.855, -0.33689037, 0.08686664, 118340.95, 118340.95, 0.00017626329, 10.000067, 10.000388 
6.850371e+2, 1.2508881e+2, -1887018.0, -1802047.0, 128320.41, -0.055941388, 0.28899354, -1709361.8, 4789.1895, 0.0000000036242784, 9.998784, 9.99997 
6.8502975e+2, 1.3508807e+2, -1640870.9, -1594497.9, -50125.3, -0.13351874, 0.15564045, -1562456.1, 53696.914, 0.0, 9.999665, 10.000308 
6.8502605e+2, 1.4508739e+2, -1562467.5, -1586515.9, 87549.56, -0.014696838, 0.103813745, -1486120.3, 32038.121, 0.0, 9.999865, 9.999587 
6.8502414e+2, 1.550885e+2, -1500828.3, -1499163.0, 42004.242, 0.15712866, 0.22403407, -1457983.1, -37833.46, 0.0, 9.999588, 9.999649 
6.8502176e+2, 1.650889e+2, -1439189.5, -1383229.1, 145286.55, 0.14640556, 0.28642875, -1263253.0, 58894.46, 0.0, 9.999188, 9.999964 
6.850193e+2, 1.7508847e+2, -1416295.6, -1321254.8, 148978.1, 0.0014128089, 0.2227778, -1212401.8, 11751.482, 0.0, 9.998672, 9.999965 
6.850171e+2, 1.8508855e+2, -1273626.6, -1177664.1, 61877.32, 0.019038396, 0.22902295, -1147344.6, -21191.566, 0.0, 9.998881, 10.000168 
6.850151e+2, 1.950889e+2, -1050906.9, -1017739.25, 36946.35, 0.17375033, 0.22214654, -993825.44, 34324.207, 0.0, 9.999727, 10.000184 
6.8501216e+2, 2.0508891e+2, -1020399.1, -1076987.3, 122002.81, 0.1422774, 0.2644415, -923452.44, 6697.7266, 0.0, 9.999806, 9.999065 
6.850084e+2, 2.1508838e+2, -1012974.0, -1019191.2, 130475.49, -0.06903658, 0.28051147, -885570.06, -53413.453, 0.0, 9.999164, 9.999103 
6.8500453e+2, 2.2508782e+2, -856609.4, -823853.1, 14646.542, -0.14338295, 0.28466526, -818259.4, -84099.78, 0.0, 9.999257, 9.999731 
6.850004e+2, 2.3508705e+2, -650613.0, -676732.0, -39970.984, -0.089801505, 0.21236761, -621622.2, 14538.589, 0.0, 10.000006, 9.999711 
6.849975e+2, 2.4508506e+2, -599197.6, -788114.56, 19206.744, 0.00971499, 0.13068935, -597264.7, -59088.67, 0.0, 10.000498, 9.998026 
6.849956e+2, 2.550817e+2, -452457.25, -667852.8, 46856.086, 0.15140149, -0.033366676, -442705.88, -2498.9854, 0.0, 10.000838, 9.998016 
6.8499196e+2, 2.6508e+2, -331879.13, -523378.72, 58210.76, 0.13530204, -0.017147195, -315573.06, 26651.84, 0.0, 10.000845, 9.99833 
6.8498665e+2, 2.7507976e+2, -284495.56, -447408.94, 40713.19, -0.025031578, 0.09802181, -274887.7, -30655.543, 0.00000000039754933, 10.000483, 9.998356 
6.849828e+2, 2.8507924e+2, -128465.58, -254926.86, 42543.67, -0.04068678, 0.187222, -115485.48, 30752.348, 0.000001935021, 10.000601, 9.998947 
6.849801e+2, 2.9507825e+2, 81524.73, -102895.3, 33729.918, 0.089523464, 0.16293846, 87500.22, 135745.31, 0.000022833043, 10.001355, 9.998957 
6.849764e+2, 3.050763e+2, 9536.247, -230038.31, 85039.04, 0.08239026, 0.1311594, 36652.44, 36652.44, 0.00009092674, 10.001061, 9.997887 
6.849696e+2, 3.1507435e+2, -104726.97, -60136.45, 108440.95, -0.29035807, 0.12173325, 28277.451, 28277.451, 0.00021663119, 9.999236, 9.999941 
6.950372e+2, 1.2509191e+2, -1800456.1, -1623173.6, 115914.53, 0.023852983, 0.2050954, -1565892.1, 148226.56, 0.00000000017840025, 9.998804, 10.001176 
6.950308e+2, 1.3509358e+2, -1550221.1, -1405869.1, -11226.948, -0.013922166, 0.18351562, -1405001.1, 211091.48, 0.0, 9.999671, 10.001595 
6.9502515e+2, 1.4509286e+2, -1604332.3, -1675963.6, 65546.77, -0.12138649, 0.092925884, -1565454.3, -47357.668, 0.0, 9.99987, 9.998975 
6.950221e+2, 1.5509082e+2, -1544479.4, -1596486.1, 44068.742, -0.033362977, -0.036946844, -1519314.1, -99194.34, 0.0, 9.999607, 9.998979 
6.950195e+2, 1.6509058e+2, -1417191.3, -1331652.9, 116447.77, -0.021471282, -0.023786092, -1250368.5, 71755.79, 0.0, 9.999167, 10.000323 
6.950179e+2, 1.7509195e+2, -1396514.4, -1271406.9, 141842.56, -0.027187943, 0.056669246, -1178937.1, 45174.637, 0.0, 9.998634, 10.000324 
6.950157e+2, 1.8509312e+2, -1313230.3, -1243513.6, 86749.8, -0.029001677, 0.17532139, -1184880.6, -58778.164, 0.0, 9.998814, 9.999745 
6.9501287e+2, 1.9509386e+2, -1092342.0, -1084824.8, 79108.14, -0.040748272, 0.24961545, -1009386.0, 18712.777, 0.0, 9.999654, 9.999755 
6.950104e+2, 2.0509338e+2, -996996.9, -1007287.6, 86627.04, -0.02990071, 0.2381937, -915362.5, 14740.645, 0.0, 9.99971, 9.999594 
6.9500846e+2, 2.150916e+2, -994898.94, -954106.4, 116058.086, 0.0012543408, 0.07592371, -856665.94, -24549.154, 0.0, 9.999046, 9.999605 
6.950055e+2, 2.2509056e+2, -957440.06, -1005890.4, 34096.953, 0.0067283083, 0.06885517, -939838.6, -205712.72, 0.0, 9.999139, 9.998538 
6.9500136e+2, 2.3509e+2, -748633.4, -853503.3, -2095.9316, -0.01788396, 0.13551506, -748591.5, -112458.11, 0.0, 9.999893, 9.9985485 
6.9499815e+2, 2.4508913e+2, -537437.5, -642303.8, 23133.482, 0.005685353, 0.16988401, -532561.06, 5579.5825, 0.0, 10.000422, 9.999066 
6.949958e+2, 2.5508776e+2, -388451.22, -520647.88, 69878.055, 0.07062426, 0.09996063, -358362.6, 81786.875, 0.0, 10.000773, 9.999061 
6.9499177e+2, 2.6508674e+2, -355440.94, -561249.6, 37652.17, 0.012377895, 0.14378598, -348768.88, -6608.9224, 0.0, 10.0008, 9.998091 
6.949861e+2, 2.7508578e+2, -313136.56, -490547.9, 38039.215, -0.15399985, 0.2181437, -305324.47, -61149.996, 0.0000000054780975, 10.000412, 9.998094 
6.949821e+2, 2.850845e+2, -114239.15, -214881.78, 59912.027, -0.19304788, 0.22205038, -86319.26, 59867.71, 0.000002364329, 10.000559, 9.999238 
6.949795e+2, 2.9508254e+2, 93875.086, -62265.07, 79020.49, -0.13857774, 0.07452305, 126886.84, 175086.7, 0.000027093956, 10.001297, 9.999259 
6.9497633e+2, 3.0508056e+2, 5356.291, -244152.19, 14988.94, -0.054696217, 0.0295497, 6253.5083, 6253.5083, 0.00010798756, 10.00108, 9.997786 
6.949708e+2, 3.1507996e+2, -158478.47, -162362.0, 61726.0, -0.14998615, 0.17192292, -98663.695, -98663.695, 0.00025661878, 9.999195, 9.999264 
7.0503646e+2, 1.2509505e+2, -1785895.0, -1596574.0, 108276.25, 0.08417651, 0.12853184, -1547414.0, 166670.44, 0.0, 9.998803, 10.001378 
7.0503086e+2, 1.350975e+2, -1683694.4, -1446948.3, -97370.695, 0.086366, 0.16644906, -1412046.4, 204006.19, 0.0, 9.998641, 10.001818 
7.0502436e+2, 1.4509745e+2, -1720588.6, -1691323.8, 1671.5275, -0.13419715, 0.112974755, -1691228.6, -173178.52, 0.0, 9.998905, 9.999327 
7.050214e+2, 1.5509517e+2, -1470275.6, -1516049.8, 31981.352, -0.07971938, -0.07734873, -1453835.5, -33761.273, 0.0, 9.999945, 9.9993515 
7.050189e+2, 1.6509491e+2, -1262761.4, -1275510.3, 114656.37, -0.04959052, -0.075445116, -1154302.4, 167776.0, 0.0, 10.000312, 10.0001545 
7.050175e+2, 1.750964e+2, -1221147.0, -1202292.4, 79463.445, 0.015269924, 0.034239717, -1131699.0, 92366.26, 0.0, 9.999908, 10.000179 
7.050151e+2, 1.8509759e+2, -1212297.6, -1209569.9, 62847.582, 0.0011440705, 0.16806658, -1148071.4, -22015.016, 0.0, 9.999564, 9.999622 
7.050117e+2, 1.9509822e+2, -1150229.5, -1129355.3, 58349.703, -0.10120787, 0.24542071, -1080516.5, -52461.977, 0.0, 9.999315, 9.999622 
7.050094e+2, 2.0509759e+2, -1064343.5, -1027317.06, 58307.78, -0.076207824, 0.21876849, -984654.0, -54593.758, 0.0, 9.999193, 9.999706 
7.0500827e+2, 2.150956e+2, -973852.6, -932509.5, 38470.082, 0.07002052, 0.026653329, -909508.9, -77434.555, 0.0, 9.999136, 9.999713 
7.05006e+2, 2.2509438e+2, -901029.5, -1004035.56, 43851.01, 0.12132296, 0.0074561313, -884890.25, -150804.61, 0.0, 9.999649, 9.998297 
7.050025e+2, 2.3509365e+2, -638611.06, -824712.25, 59926.176, 0.07236857, 0.08249546, -620983.9, 15112.751, 0.0, 10.000769, 9.998317 
7.0499915e+2, 2.4509318e+2, -440120.2, -571557.4, 65342.63, 0.037257444, 0.15784095, -413164.13, 124937.53, 0.0, 10.00099, 9.999281 
7.049958e+2, 2.5509274e+2, -439615.47, -518921.75, 32610.518, 0.0152853215, 0.15916495, -427928.4, 12174.268, 0.0, 10.000313, 9.999294 
7.049916e+2, 2.6509196e+2, -435006.88, -551757.56, 15247.357, -0.044085134, 0.19226865, -433048.44, -90938.86, 0.0, 10.000051, 9.998522 
7.049866e+2, 2.750906e+2, -316632.3, -440326.4, 43907.145, -0.12596242, 0.18152216, -302631.53, -58507.313, 0.000000016182126, 10.000175, 9.99855 
7.049825e+2, 2.8508905e+2, -208503.03, -306550.8, 99723.766, -0.17466997, 0.15921935, -146404.6, -265.86835, 0.0000030357212, 10.000089, 9.998848 
7.0497924e+2, 2.9508716e+2, -169397.97, -229714.08, 49968.51, -0.20626582, 0.055064656, -141192.0, -93037.8, 0.000031540207, 9.999647, 9.998912 
7.049764e+2, 3.0508557e+2, -146921.23, -231983.27, -14115.383, -0.07949972, 0.02502935, -144640.06, -144640.06, 0.00012311795, 9.999676, 9.998535 
7.04972e+2, 3.1508508e+2, -3994.8633, -21563.34, 49181.438, 0.033116817, 0.10200185, 37180.65, 37180.65, 0.00029061802, 9.99999, 9.999828 
7.150341e+2, 1.250982e+2, -1826938.6, -1683160.6, 25292.441, -0.082601756, 0.0719775, -1678841.1, 35207.555, 0.0, 9.998815, 10.000773 
7.150297e+2, 1.3509978e+2, -1732807.3, -1559288.9, -97961.42, 0.07842704, 0.09666479, -1515190.9, 100842.16, 0.0, 9.99868, 10.001031 
7.1502334e+2, 1.4510117e+2, -1628885.1, -1501368.4, 27010.943, -0.15423755, 0.16284637, -1495882.8, 22135.537, 0.0, 9.998911, 10.000624 
7.1502155e+2, 1.5510158e+2, -1382267.4, -1329464.8, 82026.625, -0.07786255, 0.10799017, -1269695.4, 150317.16, 0.0, 9.999925, 10.000643 
7.150196e+2, 1.6510186e+2, -1318439.8, -1375901.5, 90336.74, -0.029483443, 0.13113803, -1252375.1, 69635.35, 0.0, 10.000254, 9.99949 
7.150179e+2, 1.7510177e+2, -1272617.0, -1305254.3, 73907.08, 0.0415838, 0.15248403, -1213248.4, 10765.784, 0.0, 9.999896, 9.999478 
7.150151e+2, 1.8510193e+2, -1204005.1, -1184926.5, 44247.703, 0.017606461, 0.20688726, -1149201.5, -23186.164, 0.0, 9.999529, 9.999808 
7.1501124e+2, 1.9510207e+2, -1150023.8, -1107880.0, 60321.402, -0.10294645, 0.2149412, -1065055.9, -37039.773, 0.0, 9.999225, 9.999812 
7.150087e+2, 2.0510162e+2, -1103943.0, -1081531.4, 47607.574, -0.0898142, 0.21510223, -1043828.56, -113808.57, 0.0, 9.999077, 9.999388 
7.150073e+2, 2.1510044e+2, -1017207.44, -987236.56, 43716.594, 0.05074096, 0.13420647, -956008.3, -123979.55, 0.0, 9.998994, 9.999401 
7.150057e+2, 2.2509934e+2, -867402.25, -908412.3, 75332.17, 0.11161475, 0.106554724, -809834.3, -75796.26, 0.0, 9.999533, 9.999012 
7.150036e+2, 2.3509811e+2, -605265.56, -731635.8, 111393.77, 0.08895892, 0.059412066, -540384.56, 95665.27, 0.0, 10.000662, 9.99901 
7.150001e+2, 2.450973e+2, -495709.75, -666673.3, 29660.389, 0.016447738, 0.09789878, -490710.2, 47348.55, 0.0, 10.000901, 9.9986725 
7.14995e+2, 2.5509667e+2, -492737.7, -610130.1, 16406.922, -0.11040409, 0.1436062, -490487.75, -50420.754, 0.0, 10.000234, 9.998708 
7.14991e+2, 2.650957e+2, -360255.9, -392196.03, 8761.787, -0.12915447, 0.13295831, -358010.25, -15936.551, 0.0, 10.000027, 9.999631 
7.149879e+2, 2.7509412e+2, -250952.33, -290246.6, 60422.332, -0.043525558, -0.013855743, -207063.11, 37018.703, 0.000000020828322, 10.000112, 9.999614 
7.1498394e+2, 2.8509292e+2, -283246.25, -451690.28, 74276.484, -0.06695081, -0.0020991703, -255172.48, -109079.016, 0.0000037854625, 10.000053, 9.997867 
7.1497905e+2, 2.9509214e+2, -251268.13, -383151.84, 47937.563, -0.21921234, 0.10544997, -235684.9, -187576.69, 0.000035842306, 9.999587, 9.997886 
7.149761e+2, 3.0509135e+2, -27371.428, 6508.6577, -8186.814, -0.10289985, 0.12557761, 8383.21, 8383.21, 0.00013552594, 9.999702, 10.000168 
7.1497273e+2, 3.150894e+2, 107694.09, 216028.11, 81298.695, 0.040681474, -0.11068547, 259552.16, 259552.16, 0.00031582415, 9.999946, 10.001494 
7.2503275e+2, 1.2510239e+2, -1841812.3, -1739254.5, 98859.03, -0.090853184, -0.012107383, -1679166.3, 34835.23, 0.0, 9.998879, 10.0003805 
7.2502923e+2, 1.3510346e+2, -1664166.0, -1579255.6, 4958.5537, 0.13504283, 0.01800044, -1578967.1, 37027.527, 0.0, 9.999389, 10.000549 
7.2502327e+2, 1.4510532e+2, -1501388.1, -1439300.4, 136691.14, -0.09039607, 0.15182523, -1330172.3, 187805.31, 0.0, 9.999773, 10.000644 
7.2502214e+2, 1.5510635e+2, -1354845.9, -1309411.0, 72909.76, -0.010304872, 0.15905258, -1255761.5, 164203.98, 0.0, 10.000081, 10.000707 
7.250202e+2, 1.651064e+2, -1374995.9, -1438280.0, 30194.799, 0.020890106, 0.17332007, -1362900.6, -40935.242, 0.0, 9.999993, 9.999198 
7.250176e+2, 1.7510535e+2, -1346209.0, -1368671.1, 23973.816, 0.043079454, 0.12367312, -1330966.0, -106987.445, 0.0, 9.999505, 9.999232 
7.250145e+2, 1.8510517e+2, -1206715.1, -1159881.8, 43546.95, 0.015731713, 0.14487581, -1133854.8, -7872.7983, 0.0, 9.999392, 10.000051 
7.2501093e+2, 1.9510558e+2, -1080182.4, -1047487.06, 44300.08, -0.06861878, 0.15702495, -1016614.56, 11364.063, 0.0, 9.999585, 10.000057 
7.250085e+2, 2.0510545e+2, -976920.44, -1037518.75, 73130.39, -0.051506042, 0.18350744, -928060.94, 1918.8286, 0.0, 10.000019, 9.999246 
7.2500724e+2, 2.1510455e+2, -783831.4, -893442.4, 65198.973, 0.06346126, 0.14741324, -753463.25, 78524.54, 0.0, 10.000665, 9.99925 
7.250055e+2, 2.2510377e+2, -727477.25, -794661.9, 98244.484, 0.10550336, 0.13753848, -657240.75, 76753.4, 0.0, 10.000296, 9.999426 
7.2500336e+2, 2.351029e+2, -821028.3, -792349.8, 90136.56, 0.08236414, 0.08742741, -715419.06, -79418.57, 0.0, 9.99899, 9.999402 
7.250001e+2, 2.4510203e+2, -796218.25, -823647.06, 48562.24, 0.02614975, 0.104477465, -759471.06, -221460.9, 0.0, 9.99889, 9.998559 
7.249955e+2, 2.5510094e+2, -533534.94, -644414.8, 54367.633, -0.07557807, 0.1140516, -511325.47, -71300.56, 0.0, 10.000007, 9.998581 
7.249915e+2, 2.6509988e+2, -282569.2, -335506.84, 38425.33, -0.097477645, 0.09417507, -262378.56, 79653.92, 0.0, 10.000491, 9.999787 
7.249882e+2, 2.750986e+2, -193142.0, -245413.95, -3820.5088, -0.024866177, -0.038641006, -192864.23, 51171.98, 0.000000011844985, 10.000433, 9.999767 
7.249846e+2, 2.8509766e+2, -237429.72, -413925.44, 32088.424, -0.018662369, -0.017344046, -231776.81, -85731.56, 0.000004675658, 10.00033, 9.997977 
7.249802e+2, 2.9509696e+2, -153627.1, -325095.72, 64455.62, -0.08907909, 0.08998933, -132100.52, -84040.83, 0.000040333267, 10.000227, 9.997966 
7.2497696e+2, 3.0509612e+2, 25491.238, 26968.994, 19757.059, 0.003299925, 0.109492384, 46000.984, 46000.984, 0.00014552726, 10.000091, 10.000125 
7.24972e+2, 3.150943e+2, 103146.305, 247222.67, -62603.586, -0.007899976, -0.1180426, 270624.03, 270624.03, 0.0003310756, 9.999775, 10.001791 
7.350318e+2, 1.2510763e+2, -1850265.0, -1748354.4, 37562.547, -0.12444053, -0.11222181, -1736005.8, -22063.016, 0.0, 9.9988575, 10.000318 
7.350291e+2, 1.3510849e+2, -1687516.0, -1629361.0, 28331.227, 0.1620447, -0.07386354, -1617841.0, -1902.9282, 0.0, 9.999385, 10.000209 
7.350237e+2, 1.4510967e+2, -1596968.4, -1619804.8, 135568.52, -0.052745763, 0.06968205, -1472338.0, 45591.38, 0.0, 9.999709, 9.999427 
7.350229e+2, 1.5510938e+2, -1445424.3, -1497267.4, 96824.41, 0.02573053, 0.06590729, -1371111.6, 48822.656, 0.0, 10.000082, 9.999416 
7.350203e+2, 1.6510859e+2, -1361302.6, -1411294.0, -246.774, 0.008877724, 0.05282039, -1361301.5, -39358.246, 0.0, 9.999997, 9.999379 
7.350162e+2, 1.7510721e+2, -1337211.8, -1344132.5, 16097.802, -0.06735168, -0.04865386, -1324206.6, -100249.16, 0.0, 9.999474, 9.999418 
7.35013e+2, 1.851074e+2, -1201773.8, -1129351.4, 41458.195, -0.094614334, -0.012787124, -1110516.9, 15438.987, 0.0, 9.999309, 10.000298 
7.350105e+2, 1.9510886e+2, -1075630.9, -1016970.0, 60822.266, -0.086327635, 0.0792638, -978775.44, 49165.984, 0.0, 9.999501, 10.000302 
7.350087e+2, 2.0510915e+2, -984528.56, -1033215.94, 87970.72, -0.0492283, 0.13227794, -917595.44, 12343.471, 0.0, 9.9999275, 9.999319 
7.350076e+2, 2.1510808e+2, -794261.9, -886052.3, 100161.66, 0.008508966, 0.06867153, -729981.2, 101968.9, 0.0, 10.000542, 9.999356 
7.350051e+2, 2.251078e+2, -743562.7, -798486.56, 38582.55, 0.015536532, 0.1033962, -723666.7, 10285.817, 0.0, 10.000166, 9.999463 
7.350013e+2, 2.3510806e+2, -835620.2, -791327.5, 51887.008, -0.03320592, 0.15813701, -757058.25, -121109.47, 0.0, 9.998858, 9.999471 
7.349986e+2, 2.4510743e+2, -776442.3, -768373.56, 82440.21, -0.027203072, 0.17584926, -689869.06, -151913.47, 0.0, 9.998825, 9.998971 
7.3499674e+2, 2.5510564e+2, -521108.0, -595622.56, 105863.49, 0.0320584, 0.07717449, -446137.0, -6161.79, 0.0, 9.999908, 9.998963 
7.34993e+2, 2.6510468e+2, -349050.78, -459763.1, 28884.885, -0.02027512, 0.0872187, -341967.84, 16.53702, 0.0, 10.00043, 9.998963 
7.3498744e+2, 2.7510417e+2, -258553.88, -367301.1, 8546.067, -0.17406502, 0.11349223, -257886.38, -13899.679, 0.000000051096855, 10.000374, 9.998959 
7.349839e+2, 2.8510317e+2, -146223.05, -232702.75, 17764.06, -0.13997376, 0.11216135, -142716.28, 3277.9133, 0.0000058850314, 10.000356, 9.99921 
7.349823e+2, 2.9510167e+2, -78244.49, -161819.05, 73583.49, 0.06664546, 0.010567376, -35410.81, 12597.425, 0.000044056193, 10.000194, 9.999104 
7.349787e+2, 3.0510014e+2, -101598.64, -240751.33, 3292.4473, 0.14313632, -0.0056767417, -101520.78, -101520.78, 0.00015023218, 10.000103, 9.998281 
7.349692e+2, 3.150994e+2, -160.6875, 53719.027, -45922.754, -0.3223092, 0.05693684, 80020.65, 80020.65, 0.00033283475, 9.999685, 10.000503 
7.4503213e+2, 1.251127e+2, -1818110.3, -1728786.4, -61174.17, 0.021747591, -0.06955029, -1697705.5, 16189.268, 0.0, 9.999094, 10.000321 
7.450287e+2, 1.3511334e+2, -1572933.8, -1596703.1, -63473.367, 0.14148898, -0.029351484, -1520242.0, 95649.55, 0.0, 10.000303, 9.999976 
7.4502337e+2, 1.4511393e+2, -1495405.8, -1613333.8, 65380.176, -0.08533896, 0.08792174, -1466328.1, 51560.45, 0.0, 10.000582, 9.999049 
7.450232e+2, 1.5511306e+2, -1472173.0, -1548427.0, 66573.12, 0.057181913, 0.06026781, -1433582.0, -13681.77, 0.0, 10.000065, 9.999068 
7.450204e+2, 1.6511229e+2, -1391800.5, -1387433.6, 20789.412, 0.049083997, 0.046691652, -1368713.4, -46804.703, 0.0, 9.999622, 9.99973 
7.4501556e+2, 1.751114e+2, -1339637.9, -1304756.1, 29572.074, -0.06423425, -0.039064772, -1287864.9, -63949.035, 0.0, 9.99928, 9.999787 
7.450123e+2, 1.8511146e+2, -1214561.5, -1173646.0, 88640.516, -0.09596766, -0.016859464, -1103133.1, 22781.37, 0.0, 9.999387, 9.999954 
7.4501044e+2, 1.9511217e+2, -1039215.3, -1038874.9, 44322.29, -0.06259491, 0.033953805, -994722.44, 33184.82, 0.0, 9.999918, 9.99995 
7.450087e+2, 2.0511234e+2, -969006.25, -1007895.6, 60076.008, -0.035351116, 0.08446701, -925306.44, 4599.8384, 0.0, 9.999964, 9.999464 
7.4500734e+2, 2.151118e+2, -933830.3, -939587.4, 53398.46, -0.012671365, 0.060968794, -883232.9, -51319.426, 0.0, 9.999528, 9.999474 
7.450047e+2, 2.2511159e+2, -803795.44, -818246.8, 1175.1553, -0.011123677, 0.09164604, -803700.5, -69785.43, 0.0, 9.999704, 9.999554 
7.450008e+2, 2.3511146e+2, -599092.75, -669410.1, -2386.269, -0.04519612, 0.09897483, -599011.9, 36901.86, 0.0, 10.000427, 9.99956 
7.449983e+2, 2.4511099e+2, -530795.56, -631973.3, 61557.125, -0.020042293, 0.12011668, -501706.84, 36211.56, 0.0, 10.00044, 9.999133 
7.44997e+2, 2.5510994e+2, -510998.9, -571269.6, 42389.453, 0.07279634, 0.07712754, -489124.6, -49193.566, 0.0, 9.999899, 9.999137 
7.449934e+2, 2.651091e+2, -472172.88, -555429.94, -9455.166, 0.021769919, 0.11000573, -471112.6, -129172.1, 0.0, 9.999739, 9.998644 
7.449876e+2, 2.751083e+2, -339223.66, -436228.0, -11639.74, -0.16465686, 0.14106868, -337846.53, -93897.61, 0.00000017449423, 9.99996, 9.998681 
7.4498415e+2, 2.851074e+2, -193275.52, -214050.34, -9003.892, -0.12460426, 0.13784689, -189916.34, -43960.38, 0.0000070145306, 9.999848, 9.999589 
7.4498284e+2, 2.9510614e+2, -151814.8, -152733.81, -39934.254, 0.14492302, 0.022986805, -112337.41, -64373.656, 0.00004543542, 9.999489, 9.999511 
7.449796e+2, 3.0510408e+2, -163203.53, -354285.97, -43121.4, 0.23419534, -0.024590865, -153923.1, -153923.1, 0.00014809403, 10.000047, 9.997527 
7.449697e+2, 3.151035e+2, 171625.1, 46907.11, -40575.133, -0.30114043, 0.13447939, 183663.6, 183663.6, 0.0003227844, 10.001256, 9.999698 
7.55033e+2, 1.2511787e+2, -1819039.6, -1721536.5, -79078.46, 0.15159984, 0.13229994, -1677389.6, 36465.652, 0.0, 9.9990635, 10.000384 
7.5502765e+2, 1.3511793e+2, -1589075.6, -1628316.8, -12952.228, -0.014802769, 0.13623825, -1585186.1, 30669.72, 0.0, 10.000299, 9.999761 
7.5502235e+2, 1.4511804e+2, -1462182.9, -1542616.6, 32073.99, -0.27847508, 0.19242112, -1450959.1, 66896.875, 0.0, 10.00057, 9.999543 
7.550227e+2, 1.5511754e+2, -1438771.5, -1471743.9, 56097.734, -0.025378656, 0.15387332, -1396787.6, 23074.627, 0.0, 10.000033, 9.999612 
7.550202e+2, 1.6511755e+2, -1357653.4, -1310148.6, -4031.283, 0.043750793, 0.16255999, -1309809.0, 12051.953, 0.0, 9.999592, 10.0002775 
7.550154e+2, 1.7511792e+2, -1308739.1, -1235765.9, 27243.463, -0.03562897, 0.15034097, -1226717.0, -2863.095, 0.0, 9.999261, 10.000271 
7.550121e+2, 1.8511732e+2, -1282182.3, -1304419.1, 98211.88, -0.078342676, 0.1282749, -1194461.5, -68603.25, 0.0, 9.999342, 9.999082 
7.5501025e+2, 1.951155e+2, -1110816.0, -1168188.1, 74997.12, -0.09530617, 0.016944854, -1059206.0, -31329.893, 0.0, 9.999836, 9.999104 
7.550083e+2, 2.0511505e+2, -978209.2, -1002715.9, 32347.309, -0.09638065, 0.040699285, -955872.2, -25990.252, 0.0, 9.999854, 9.9995575 
7.550063e+2, 2.151157e+2, -946698.5, -929758.0, 45765.902, -0.082852684, 0.12452078, -891685.1, -59807.098, 0.0, 9.999378, 9.999612 
7.5500405e+2, 2.251152e+2, -810322.4, -799579.8, 19696.309, -0.06264278, 0.10845117, -784535.56, -50654.3, 0.0, 9.999571, 9.999745 
7.550014e+2, 2.3511331e+2, -608352.75, -654448.44, 36009.98, -0.04658741, -0.07557449, -588646.4, 47247.574, 0.0, 10.000289, 9.999728 
7.549987e+2, 2.4511293e+2, -551500.1, -659481.94, 30109.38, -0.046093684, -0.044869505, -543672.0, -5775.1978, 0.0, 10.000368, 9.9989805 
7.549958e+2, 2.551137e+2, -530204.0, -596535.2, 32216.092, -0.05612474, 0.10782926, -517132.9, -77239.84, 0.0, 9.999833, 9.998997 
7.549925e+2, 2.6511312e+2, -459199.25, -522032.78, -10551.528, -0.071423136, 0.16140774, -457474.7, -115573.516, 0.0, 9.999713, 9.998885 
7.5498855e+2, 2.751111e+2, -337937.53, -412676.03, 9037.699, -0.0930424, 0.0497315, -336860.2, -92937.74, 0.0000002213921, 9.999871, 9.998887 
7.549849e+2, 2.8511032e+2, -231493.89, -286562.44, -31331.09, -0.05620382, 0.073108286, -217317.58, -71388.17, 0.000006961638, 9.999813, 9.999112 
7.549815e+2, 2.951103e+2, -189899.17, -219696.42, -38166.934, 0.03329575, 0.13229917, -163826.05, -115899.88, 0.00004401986, 9.999428, 9.999086 
7.549792e+2, 3.0510786e+2, -146016.27, -306334.44, -1844.9778, 0.16403712, 0.043704484, -145995.03, -145995.03, 0.0001416952, 10.000003, 9.99787 
7.5497293e+2, 3.1510723e+2, 145173.42, 4495.107, 54937.74, -0.16102897, 0.16553062, 164085.33, 164085.33, 0.00030699253, 10.001209, 9.999424 
7.650326e+2, 1.2512216e+2, -1825630.8, -1723527.1, -18922.537, 0.22572908, 0.21601461, -1720133.0, -6315.0366, 0.00000000032551553, 9.998946, 10.0004425 
7.650276e+2, 1.3512188e+2, -1688111.5, -1688395.5, 42784.313, -0.0062183333, 0.18906084, -1645469.0, -29647.842, 0.0, 9.999623, 9.999688 
7.650228e+2, 1.4512174e+2, -1593820.3, -1561442.9, 69561.08, -0.22168176, 0.20014426, -1506211.6, 11611.099, 0.0, 9.999471, 9.999948 
7.650224e+2, 1.5512174e+2, -1568464.5, -1491712.4, 61471.84, -0.0005887554, 0.1742998, -1457621.1, -37799.113, 0.0, 9.998947, 10.000009 
7.6501966e+2, 1.6512206e+2, -1431815.1, -1364620.0, 22429.207, 0.055897266, 0.20029296, -1357821.3, -36003.105, 0.0, 9.999186, 10.000087 
7.650151e+2, 1.7512241e+2, -1192295.9, -1198651.0, -22187.252, -0.024146209, 0.20594905, -1173059.8, 50753.227, 0.0, 10.000159, 10.000082 
7.650122e+2, 1.8512177e+2, -1134059.5, -1215878.4, 68499.06, -0.04061656, 0.17925446, -1095183.6, 30634.197, 0.0, 10.000281, 9.999238 
7.650107e+2, 1.9511989e+2, -1137226.6, -1166504.5, 105083.44, -0.0075018415, 0.045790512, -1045767.4, -17932.615, 0.0, 9.99958, 9.999245 
7.650086e+2, 2.0511936e+2, -1033261.5, -1042750.5, 118555.05, -0.031469442, 0.061679225, -919356.06, 10484.69, 0.0, 9.99954, 9.999436 
7.6500565e+2, 2.1511984e+2, -845406.4, -899853.56, 94530.53, -0.11439337, 0.14305367, -774257.5, 57581.31, 0.0, 10.000136, 9.999461 
7.6500374e+2, 2.2511923e+2, -671223.2, -719035.2, 87509.75, -0.09219613, 0.11927607, -604412.9, 129430.03, 0.0, 10.000481, 9.999857 
7.650025e+2, 2.351174e+2, -550741.94, -612450.6, 75613.95, 0.023351956, -0.07079376, -499929.5, 135925.1, 0.0, 10.000638, 9.999842 
7.6499987e+2, 2.45117e+2, -498380.16, -619693.25, 69468.086, 0.030978763, -0.05499197, -466813.97, 71042.59, 0.0, 10.000679, 9.999099 
7.6499593e+2, 2.551177e+2, -411415.84, -526074.7, 73179.33, -0.06607889, 0.08293359, -375783.56, 64067.78, 0.0, 10.000599, 9.999108 
7.649924e+2, 2.6511717e+2, -362883.97, -479604.75, 56735.098, -0.07770997, 0.13425897, -339851.44, 2008.0552, 0.0, 10.000389, 9.998853 
7.649894e+2, 2.751152e+2, -309811.75, -400861.66, 34444.457, -0.00005378823, 0.02803498, -298249.56, -54367.324, 0.00000016204108, 10.0000725, 9.998871 
7.649856e+2, 2.8511438e+2, -151692.13, -298065.3, 30348.697, 0.0005683982, 0.07393549, -145649.17, 241.23663, 0.000006290961, 10.000584, 9.998657 
7.6498103e+2, 2.9511437e+2, 129173.336, -106481.33, 3491.4514, -0.0711412, 0.1768146, 129225.05, 177112.6, 0.000041719115, 10.001815, 9.998701 
7.649791e+2, 3.051118e+2, 126259.195, -151787.39, 39038.973, 0.080293834, 0.08154521, 131636.45, 131636.45, 0.00013461517, 10.001768, 9.998084 
7.649753e+2, 3.151106e+2, -34996.37, -118954.74, 62586.08, 0.016048793, 0.12827931, -1614.6295, -1614.6295, 0.00029005748, 10.000132, 9.999092 
7.7503014e+2, 1.251255e+2, -1817494.8, -1693984.1, -47718.805, 0.025119204, 0.17216666, -1677695.9, 36088.195, 0.0000000023621072, 9.998898, 10.000668 
7.7502805e+2, 1.3512532e+2, -1676211.0, -1660845.3, 68425.2, 0.054234307, 0.1390215, -1599672.9, 16113.706, 0.0, 9.999616, 9.999878 
7.750246e+2, 1.4512514e+2, -1567574.5, -1509160.0, 33198.46, -0.027078072, 0.117812835, -1494149.6, 23638.041, 0.0, 9.999474, 10.000309 
7.75022e+2, 1.5512586e+2, -1546256.4, -1446257.0, 53355.168, 0.041126598, 0.13012344, -1423135.4, -3357.0337, 0.0, 9.998947, 10.000321 
7.750185e+2, 1.6512588e+2, -1499782.4, -1500893.1, 47825.92, -0.0024346057, 0.16113335, -1452508.6, -130729.47, 0.0, 9.999162, 9.999165 
7.750146e+2, 1.7512494e+2, -1256720.6, -1327206.1, 25023.332, -0.120680824, 0.1273878, -1248740.5, -24948.035, 0.0, 10.000134, 9.999213 
7.750123e+2, 1.8512487e+2, -1059384.8, -1046696.7, 33374.973, -0.07941126, 0.1422321, -1019068.1, 106724.31, 0.0, 10.000216, 10.000436 
7.750117e+2, 1.9512545e+2, -1066559.5, -1000393.7, 88818.23, 0.10764707, 0.13348998, -938697.06, 89084.85, 0.0, 9.999494, 10.000428 
7.750093e+2, 2.0512535e+2, -1076472.4, -1103961.4, 130062.17, 0.062496442, 0.1515281, -959430.5, -29648.438, 0.0, 9.999417, 9.999075 
7.750051e+2, 2.1512434e+2, -892359.06, -964003.0, 126068.43, -0.20214629, 0.12268698, -797122.06, 34672.87, 0.0, 9.999998, 9.999085 
7.750034e+2, 2.251239e+2, -690545.6, -729692.56, 82036.71, -0.19514048, 0.13401604, -625779.6, 108019.016, 0.0, 10.000352, 9.999848 
7.750038e+2, 2.351237e+2, -567616.2, -620877.7, 91418.7, 0.06921488, 0.10569747, -499028.38, 136768.13, 0.0, 10.000518, 9.9998455 
7.750016e+2, 2.4512312e+2, -485211.94, -568462.8, 56161.684, 0.112967335, 0.08629104, -456931.66, 80866.695, 0.0, 10.00058, 9.999497 
7.749969e+2, 2.551221e+2, -397712.94, -477246.06, 81192.77, -0.048009586, 0.008867229, -347071.28, 92734.11, 0.0, 10.000513, 9.999484 
7.74993e+2, 2.651213e+2, -388731.88, -527167.1, 36400.215, -0.0794098, 0.03358661, -379744.28, -37929.527, 0.0, 10.000358, 9.998546 
7.749898e+2, 2.7512044e+2, -338772.7, -450141.88, 33913.293, 0.006794687, 0.067796, -329258.47, -85428.82, 0.00000014054619, 10.000018, 9.998564 
7.749858e+2, 2.8511944e+2, -186647.14, -357050.06, 68223.17, -0.06318933, 0.13080698, -162698.75, -16858.256, 0.0000059856334, 10.000532, 9.998273 
7.749811e+2, 2.951182e+2, 98048.51, -164246.53, 63721.58, -0.2769057, 0.15185495, 112709.47, 160558.33, 0.0000396548, 10.001785, 9.998317 
7.7497923e+2, 3.0511585e+2, 134279.61, -133369.38, -27341.406, -0.10392902, 0.08913741, 137044.1, 137044.1, 0.00012692052, 10.00176, 9.998219 
7.749761e+2, 3.1511375e+2, -84375.66, -206778.3, 42451.44, 0.024340786, 0.037746467, -71093.914, -71093.914, 0.00027215088, 10.000057, 9.998536 
7.850291e+2, 1.2512857e+2, -1805362.9, -1686693.8, 11823.579, 0.039372113, 0.07997344, -1685527.1, 28224.486, 0.0000000040597263, 9.9990015, 10.000653 
7.850276e+2, 1.3512942e+2, -1753593.4, -1685605.8, 83639.87, 0.08357815, 0.14144008, -1629315.5, -13570.61, 0.0, 9.999056, 9.999965 
7.850247e+2, 1.4512917e+2, -1620753.0, -1537317.8, 33788.992, 0.063324936, 0.11095493, -1525350.5, -7603.62, 0.0, 9.999131, 10.000275 
7.850211e+2, 1.5512955e+2, -1489660.6, -1425381.4, 2771.2126, 0.045061883, 0.093326755, -1425262.1, -5521.112, 0.0, 9.999374, 10.000254 
7.850176e+2, 1.6512947e+2, -1459312.0, -1481231.5, 61976.258, -0.013412823, 0.119803034, -1407333.9, -85590.72, 0.0, 9.999437, 9.999161 
7.8501457e+2, 1.7512874e+2, -1385334.3, -1388008.5, 83718.43, -0.08233268, 0.10627311, -1302942.4, -79186.625, 0.0, 9.999251, 9.999214 
7.850124e+2, 1.8512914e+2, -1177899.9, -1076998.5, 82218.9, -0.033925176, 0.15292402, -1030985.6, 94766.555, 0.0, 9.999294, 10.000665 
7.8501123e+2, 1.951304e+2, -1058199.5, -965957.56, 45650.32, 0.116016954, 0.188508, -947185.56, 80549.88, 0.0, 9.999443, 10.000677 
7.8500885e+2, 2.0513041e+2, -1021937.3, -1039056.44, 123742.445, 0.07751712, 0.19130856, -906458.75, 23273.926, 0.0, 9.999624, 9.99942 
7.850056e+2, 2.1512908e+2, -915113.94, -936355.2, 153974.86, -0.13491887, 0.092444114, -771393.9, 60351.617, 0.0, 9.99968, 9.999427 
7.8500396e+2, 2.2512847e+2, -783795.6, -837596.1, 136104.63, -0.14074126, 0.10193759, -671958.4, 61792.73, 0.0, 9.999971, 9.999291 
7.8500396e+2, 2.3512839e+2, -612831.6, -703023.25, 83599.97, 0.04679734, 0.14034267, -562940.2, 72812.17, 0.0, 10.000462, 9.99931 
7.850017e+2, 2.4512777e+2, -492476.6, -550553.7, 19302.7, 0.080888495, 0.13072711, -486646.38, 51109.47, 0.0, 10.000442, 9.999681 
7.8499734e+2, 2.5512642e+2, -459854.7, -486374.06, 6779.7456, -0.024328874, 0.0037177538, -458221.94, -18458.535, 0.0, 9.999995, 9.999666 
7.849937e+2, 2.6512554e+2, -433106.94, -583677.75, -9035.273, -0.03136525, 0.02661041, -432566.7, -90793.82, 0.0, 10.000214, 9.998224 
7.8499067e+2, 2.7512476e+2, -214517.86, -426225.78, -33829.434, 0.052519467, 0.106260665, -209243.55, 34543.89, 0.0000001311964, 10.001031, 9.998239 
7.8498673e+2, 2.8512347e+2, -72031.85, -284399.75, 49570.688, -0.048124097, 0.14473036, -61030.973, 84770.62, 0.0000058891046, 10.001231, 9.99844 
7.849821e+2, 2.9512173e+2, -40620.26, -215678.13, 64583.234, -0.30462876, 0.0975265, -19372.781, 28441.855, 0.000037489564, 10.000759, 9.998463 
7.849801e+2, 3.0512008e+2, -33383.92, -191975.42, -28393.941, -0.12580465, 0.09400418, -28453.596, -28453.596, 0.00011865352, 10.000503, 9.998419 
7.84977e+2, 3.1511822e+2, -37869.973, -145180.05, 17001.268, 0.11595028, 0.03765152, -35240.855, -35240.855, 0.0002544846, 10.0002, 9.998881 
7.950289e+2, 1.2513168e+2, -1820018.9, -1731143.5, -11151.169, 0.060686953, -0.047793303, -1729765.8, -16048.222, 0.0000000034592607, 9.99906, 10.000325 
7.9502594e+2, 1.3513432e+2, -1747167.0, -1680040.9, 90059.01, -0.022374908, 0.19313543, -1617494.1, -1799.1127, 0.0, 9.999095, 9.999982 
7.95023e+2, 1.4513393e+2, -1658882.6, -1612037.9, 28686.105, -0.050293304, 0.17301764, -1598426.5, -80726.484, 0.0, 9.999111, 9.999771 
7.950194e+2, 1.5513282e+2, -1521073.4, -1490204.4, 24255.2, -0.08992762, 0.051836375, -1476889.3, -57179.113, 0.0, 9.9993725, 9.999807 
7.9501665e+2, 1.6513291e+2, -1401761.1, -1356633.0, 44584.652, -0.07881467, 0.0713277, -1329227.8, -7517.8, 0.0, 9.99941, 10.000033 
7.95015e+2, 1.7513388e+2, -1325345.5, -1264254.9, 85780.17, 0.0033505163, 0.1414847, -1203743.9, 19958.516, 0.0, 9.999246, 10.00007 
7.9501235e+2, 1.8513453e+2, -1244202.3, -1191756.1, 78295.625, 0.0047388775, 0.21091095, -1135408.9, -9711.988, 0.0, 9.999201, 9.999918 
7.9500884e+2, 1.9513465e+2, -1117186.0, -1072872.8, 61877.402, -0.08692464, 0.20545527, -1029304.7, -1609.0034, 0.0, 9.999378, 9.9999695 
7.950071e+2, 2.0513457e+2, -963143.7, -890410.3, 114863.71, -0.08410011, 0.17536123, -806293.8, 123398.88, 0.0, 9.999511, 10.000495 
7.950068e+2, 2.1513394e+2, -861043.6, -794290.25, 165897.58, 0.001155952, 0.0409002, -658445.2, 173245.97, 0.0, 9.99955, 10.000465 
7.950054e+2, 2.2513302e+2, -882018.44, -1006428.3, 146756.97, -0.018460698, 0.01856487, -784827.44, -51127.18, 0.0, 9.999823, 9.998203 
7.950028e+2, 2.3513158e+2, -703952.7, -870512.56, 114001.89, -0.13773683, 0.034214977, -646051.94, -10330.415, 0.0, 10.000363, 9.998209 
7.9499996e+2, 2.4513091e+2, -506352.97, -561119.9, -8283.19, -0.16310433, 0.07655533, -505127.6, 32601.29, 0.0, 10.000363, 9.999646 
7.949968e+2, 2.5513068e+2, -476989.9, -501569.5, 687.0793, -0.09743536, 0.065925814, -476970.72, -37245.1, 0.0, 9.999905, 9.999608 
7.9499406e+2, 2.6512986e+2, -460947.03, -635253.8, 12402.424, -0.031862326, 0.11285237, -460069.0, -118334.805, 0.0, 10.000179, 9.997889 
7.9499185e+2, 2.7512825e+2, -244906.66, -480668.78, 9975.752, 0.035477523, 0.14148347, -244485.3, -729.24304, 0.000000103459534, 10.000989, 9.997887 
7.949883e+2, 2.8512657e+2, -23448.816, -177947.75, 23537.912, -0.042295013, 0.12365824, -19942.395, 125830.67, 0.0000054454867, 10.001209, 9.999182 
7.949834e+2, 2.951248e+2, -1049.4316, -119017.945, 64034.69, -0.2756228, 0.0014355397, 27027.12, 74812.66, 0.00003447301, 10.000697, 9.999159 
7.9498106e+2, 3.0512458e+2, -16954.352, -154857.34, -41726.223, -0.10374441, 0.08992088, -5311.8887, -5311.8887, 0.0001104858, 10.000482, 9.998684 
7.949775e+2, 3.1512317e+2, 21997.422, -11891.316, 48504.516, 0.08065988, 0.05024886, 56432.03, 56432.03, 0.000240168, 10.000152, 9.999825 
8.050282e+2, 1.2513602e+2, -1710444.6, -1710355.4, -43003.156, 0.051350724, 0.02575603, -1667396.8, 46279.39, 0.0000000057252847, 9.999971, 10.000038 
8.050249e+2, 1.3513792e+2, -1711372.4, -1681621.0, -172.4377, -0.041810285, 0.20908141, -1681620.0, -65958.76, 0.0, 9.999413, 9.99984 
8.050223e+2, 1.4513728e+2, -1668703.9, -1591947.1, -4166.2065, -0.019957418, 0.16351783, -1591721.6, -74053.14, 0.0, 9.998943, 9.9999895 
8.050185e+2, 1.551367e+2, -1594570.3, -1508027.0, 13089.9375, -0.08345572, 0.07864267, -1506090.4, -86417.68, 0.0, 9.99879, 9.999971 
8.050159e+2, 1.6513704e+2, -1446445.0, -1349705.0, 60411.613, -0.06417698, 0.10255436, -1320685.0, 984.14026, 0.0, 9.998986, 10.000293 
8.0501485e+2, 1.7513803e+2, -1273871.9, -1215207.5, 32652.205, 0.05878593, 0.15275249, -1200647.3, 23012.729, 0.0, 9.999499, 10.000292 
8.050122e+2, 1.8513837e+2, -1203525.9, -1200721.0, 26795.496, 0.05765396, 0.1949656, -1175291.3, -49633.957, 0.0, 9.999609, 9.99966 
8.0500823e+2, 1.9513793e+2, -1158627.4, -1129286.5, 22234.408, -0.07720475, 0.1628116, -1117318.9, -89655.76, 0.0, 9.999245, 9.999659 
8.050065e+2, 2.0513774e+2, -987683.5, -904698.75, 80768.2, -0.07554302, 0.13975437, -855388.5, 74273.57, 0.0, 9.99935, 10.00048 
8.0500704e+2, 2.1513751e+2, -820352.5, -772478.25, 25664.697, 0.05682598, 0.04584013, -761320.3, 70336.88, 0.0, 9.999828, 10.000478 
8.0500567e+2, 2.2513695e+2, -881935.44, -971127.25, 24611.002, 0.04431004, 0.04394248, -875595.2, -141932.22, 0.0, 9.99968, 9.998508 
8.050027e+2, 2.3513588e+2, -901020.1, -928829.75, 78782.375, -0.106932916, 0.06466148, -834924.9, -199244.28, 0.0, 9.998871, 9.998517 
8.05e+2, 2.451352e+2, -662772.0, -677966.44, 47977.72, -0.14043266, 0.10951962, -621793.75, -84104.76, 0.0, 9.999449, 9.999296 
8.049978e+2, 2.551346e+2, -298799.03, -454807.13, 14858.025, -0.054064743, 0.09389997, -297396.56, 142295.03, 0.0, 10.00128, 9.999279 
8.049952e+2, 2.6513362e+2, -244090.83, -504995.8, 28889.375, -0.007292369, 0.12895657, -240930.27, 100771.15, 0.0, 10.001558, 9.998117 
8.049922e+2, 2.75132e+2, -304823.94, -480629.75, 50201.227, 0.010679285, 0.13296007, -291498.97, -47778.445, 0.00000004701224, 10.000445, 9.998149 
8.04989e+2, 2.851305e+2, -211350.69, -276667.53, 75133.06, -0.026496436, 0.122785084, -162085.06, -16349.591, 0.000004093495, 9.999962, 9.999101 
8.049852e+2, 2.9512894e+2, -90318.625, -169620.72, 28616.707, -0.12320749, 0.027537825, -81070.58, -33322.824, 0.000029631305, 10.000121, 9.9990835 
8.0498284e+2, 3.0512846e+2, 15115.745, -138313.7, -75630.46, 0.026205905, 0.09615532, 46128.063, 46128.063, 0.00010221737, 10.00071, 9.998696 
8.049784e+2, 3.1512704e+2, 264068.72, 177592.98, -32301.354, 0.10005981, 0.055388104, 274802.06, 274802.06, 0.00023173695, 10.001536, 10.000459 
8.150262e+2, 1.2514174e+2, -1739552.8, -1778950.4, -75865.06, -0.19227636, 0.30701378, -1680870.8, 32755.04, 0.000000004999778, 10.000005, 9.999551 
8.150242e+2, 1.3514027e+2, -1728729.4, -1721058.0, -15489.127, -0.082009, 0.18319298, -1708936.6, -93293.9, 0.0, 9.999434, 9.99955 
8.150222e+2, 1.4513937e+2, -1614715.3, -1480492.0, -23234.922, 0.0470885, 0.08494806, -1476583.6, 41067.227, 0.0, 9.998941, 10.00076 
8.15018e+2, 1.5514131e+2, -1537981.1, -1388993.5, 19061.607, -0.03819162, 0.17349626, -1386593.4, 33034.477, 0.0, 9.998786, 10.00079 
8.1501514e+2, 1.65142e+2, -1482198.6, -1416996.6, 67880.625, -0.0670039, 0.21474418, -1374294.3, -52674.586, 0.0, 9.998956, 9.999844 
8.1501377e+2, 1.7514122e+2, -1306330.6, -1276744.3, 61612.04, -0.01771022, 0.12939334, -1228174.4, -4546.2334, 0.0, 9.9994755, 9.999878 
8.1501174e+2, 1.8514073e+2, -1204210.0, -1189176.9, 4416.8936, 0.027237738, 0.10129652, -1187975.3, -62342.125, 0.0, 9.999547, 9.999773 
8.15009e+2, 1.9514029e+2, -1160718.6, -1119864.3, 19660.963, 0.047549363, 0.056891367, -1111939.6, -84302.516, 0.0, 9.99918, 9.999756 
8.15007e+2, 2.0514004e+2, -1089532.8, -1086098.9, 87423.305, 0.017578539, 0.086550675, -1000375.7, -70735.89, 0.0, 9.99922, 9.999299 
8.1500584e+2, 2.1513982e+2, -918561.3, -946620.2, 53582.1, -0.058573257, 0.108477615, -877202.44, -45559.152, 0.0, 9.999699, 9.999346 
8.1500465e+2, 2.2514032e+2, -780717.5, -727899.75, -17134.068, -0.04732702, 0.18213452, -722828.44, 10810.55, 0.0, 9.999538, 10.000247 
8.150032e+2, 2.3514125e+2, -800415.7, -690666.6, 59478.207, 0.03903486, 0.22741474, -664616.06, -28985.887, 0.0, 9.998742, 10.0002165 
8.1500167e+2, 2.451406e+2, -724353.5, -777141.94, 106947.664, 0.05615767, 0.22362354, -640591.2, -102954.33, 0.0, 9.999331, 9.998671 
8.15e+2, 2.5513825e+2, -356051.25, -552159.94, 92296.86, 0.01712447, 0.09901067, -319445.4, 120215.01, 0.0, 10.001192, 9.998652 
8.149966e+2, 2.6513684e+2, -187483.6, -378463.7, -22511.512, -0.043234244, 0.078167014, -184865.97, 156808.03, 0.0, 10.001523, 9.999002 
8.149915e+2, 2.7513608e+2, -263375.13, -367287.1, 22088.223, -0.13085282, 0.08051535, -258874.81, -15194.341, 0.000000004527389, 10.000337, 9.998978 
8.149884e+2, 2.851352e+2, -279042.2, -415214.66, 70858.19, -0.10543521, 0.1432188, -248860.33, -103171.336, 0.0000024308686, 9.999944, 9.998161 
8.149873e+2, 2.951342e+2, -169099.17, -321050.94, 46907.867, 0.035690267, 0.1937498, -155785.17, -108084.28, 0.00002455122, 10.000069, 9.998071 
8.1498516e+2, 3.051318e+2, 4447.2915, -168575.14, -50451.496, 0.16359897, 0.13503444, 18083.686, 18083.686, 0.00009685274, 10.000742, 9.998469 
8.149789e+2, 3.1512904e+2, 273383.4, 215444.27, 35180.35, -0.060938742, -0.024658205, 289986.78, 289986.78, 0.00023260323, 10.001456, 10.000758 
8.2502586e+2, 1.2514478e+2, -1807528.6, -1813929.1, -30309.283, -0.19567043, 0.29518384, -1780251.1, -66654.01, 0.0000000017683296, 9.999512, 9.999548 
8.250235e+2, 1.351433e+2, -1718754.8, -1707817.5, 9721.429, -0.08108079, 0.15410851, -1702132.1, -86518.7, 0.0, 9.999445, 9.999639 
8.2502174e+2, 1.4514263e+2, -1558471.0, -1453917.9, 28653.658, 0.09796347, 0.07521684, -1446580.1, 71038.6, 0.0, 9.999338, 10.000744 
8.250177e+2, 1.551447e+2, -1452857.5, -1353807.1, -16919.324, 0.029707622, 0.18041043, -1350996.8, 68597.82, 0.0, 9.999396, 10.0007305 
8.2501453e+2, 1.6514516e+2, -1453629.0, -1413694.6, 37258.35, -0.029332755, 0.20635869, -1391390.4, -69802.1, 0.0, 9.999198, 9.999742 
8.2501245e+2, 1.7514391e+2, -1424354.9, -1349351.4, 33883.88, -0.05415345, 0.08399411, -1336311.0, -112710.13, 0.0, 9.998723, 9.999743 
8.2501084e+2, 1.8514355e+2, -1275235.5, -1206411.6, 20881.176, 0.018081672, 0.06586018, -1200571.8, -74967.195, 0.0, 9.998991, 9.99992 
8.250096e+2, 1.9514373e+2, -1044350.75, -1046763.06, 15934.758, 0.16104162, 0.07174291, -1029576.56, -1974.2003, 0.0, 9.999915, 9.999896 
8.250075e+2, 2.0514362e+2, -1001955.7, -1056502.8, 126586.14, 0.122244164, 0.11128889, -899738.3, 29866.29, 0.0, 9.999885, 9.999168 
8.250049e+2, 2.1514304e+2, -1045532.1, -1024561.7, 148657.86, -0.082167916, 0.11320247, -886019.7, -54406.973, 0.0, 9.9988985, 9.999195 
8.250036e+2, 2.2514343e+2, -835721.44, -737960.94, 95415.266, -0.07795783, 0.17603974, -679634.1, 53975.59, 0.0, 9.999078, 10.000412 
8.2500356e+2, 2.3514448e+2, -555395.9, -554307.44, 32015.236, 0.12228745, 0.2180301, -522831.8, 112767.29, 0.0, 10.000337, 10.000394 
8.250024e+2, 2.4514428e+2, -556942.25, -665115.9, 83045.19, 0.15181921, 0.23574246, -511923.63, 25678.309, 0.0, 10.000354, 9.998944 
8.250002e+2, 2.551427e+2, -616936.4, -641362.7, 114999.56, 0.025849644, 0.16030227, -513503.28, -73883.85, 0.0, 9.999262, 9.998962 
8.2499707e+2, 2.651417e+2, -461612.75, -481435.47, 20760.082, -0.0390986, 0.1493245, -448519.4, -106890.05, 0.0, 9.999512, 9.999268 
8.249929e+2, 2.7514088e+2, -152167.92, -284522.84, -264.34323, -0.04436127, 0.118490934, -152167.39, 91467.86, 0.0, 10.000969, 9.999245 
8.249903e+2, 2.8514e+2, -33302.992, -339673.2, 75267.3, 0.0016851403, 0.18710911, -15810.501, 129833.33, 0.000001518397, 10.001828, 9.997771 
8.2498914e+2, 2.9513887e+2, 107419.336, -229587.16, 69392.05, 0.11582127, 0.2661245, 121148.36, 168806.05, 0.000022026383, 10.002149, 9.997699 
8.249866e+2, 3.051354e+2, 98022.69, -205584.78, -13404.062, 0.18687469, 0.15772074, 98613.32, 98613.32, 0.00009707927, 10.00174, 9.997726 
8.2498e+2, 3.1513256e+2, 80166.7, 29785.42, -2855.557, -0.030602235, 0.056885917, 80328.04, 80328.04, 0.00024343694, 10.000512, 9.9999275 
8.350263e+2, 1.2514511e+2, -1777387.3, -1737057.9, -44321.3, -0.15765497, -0.0144055355, -1708529.8, 5060.2715, 0.000000000051048894, 9.999461, 10.000098 
8.350227e+2, 1.3514712e+2, -1664781.9, -1597573.9, 16845.344, -0.13054997, 0.12541935, -1593588.0, 21983.455, 0.0, 9.999462, 10.000384 
8.350206e+2, 1.4514717e+2, -1630289.0, -1600215.0, 17139.191, 0.025078196, 0.13205425, -1592451.5, -74880.55, 0.0, 9.999327, 9.999745 
8.350172e+2, 1.5514688e+2, -1520637.1, -1491064.8, -5570.9575, 0.00863793, 0.09575635, -1490050.1, -70477.61, 0.0, 9.999383, 9.999793 
8.3501375e+2, 1.6514656e+2, -1445994.4, -1381113.0, 8326.521, -0.05108472, 0.07679277, -1380061.5, -58486.918, 0.0, 9.999129, 10.0 
8.3501065e+2, 1.7514624e+2, -1409754.9, -1311445.0, 29633.494, -0.13610303, 0.023040725, -1303203.5, -79626.55, 0.0, 9.998699, 10.000012 
8.3500934e+2, 1.8514691e+2, -1270936.6, -1191532.5, 43735.676, -0.056223497, 0.09235777, -1172166.3, -46595.516, 0.0, 9.998959, 10.000042 
8.3500975e+2, 1.9514821e+2, -1043107.56, -1026020.75, 60371.684, 0.1642694, 0.19369203, -973590.94, 53968.504, 0.0, 9.999836, 10.000078 
8.350077e+2, 2.0514835e+2, -959724.94, -938539.56, 78464.67, 0.14042178, 0.20524459, -869955.8, 59601.3, 0.0, 9.999752, 10.000042 
8.350037e+2, 2.1514717e+2, -1004625.8, -909276.7, 123308.29, -0.11519067, 0.056326084, -824747.6, 6817.946, 0.0, 9.998769, 10.000045 
8.3500224e+2, 2.2514635e+2, -953174.75, -952877.94, 130573.164, -0.13709013, 0.026328053, -822453.06, -88878.43, 0.0, 9.998948, 9.9990015 
8.350034e+2, 2.3514563e+2, -667398.25, -764488.75, 89638.6, 0.052525353, 0.03320705, -614003.7, 21583.18, 0.0, 10.000231, 9.999006 
8.3500195e+2, 2.4514629e+2, -485323.38, -497747.97, 31949.951, 0.053904068, 0.14442618, -458987.38, 78596.266, 0.0, 10.00027, 10.000134 
8.3499825e+2, 2.55148e+2, -548865.75, -483919.44, 87588.84, -0.12188602, 0.2769251, -422977.88, 16590.445, 0.0, 9.999183, 10.000086 
8.3499634e+2, 2.651481e+2, -493279.03, -531875.2, 67828.7, -0.0819571, 0.34258232, -442056.56, -100488.77, 0.0, 9.999449, 9.99895 
8.349963e+2, 2.751465e+2, -186441.77, -337300.97, 67825.0, 0.16620648, 0.26432678, -160432.44, 83151.19, 0.0, 10.000893, 9.998918 
8.3499426e+2, 2.8514493e+2, -22376.36, -311581.78, 77495.586, 0.19505958, 0.2674629, -2919.5999, 142679.27, 0.0000012583888, 10.001805, 9.997975 
8.349905e+2, 2.95143e+2, 107123.01, -210838.25, 94763.914, 0.010063203, 0.2506141, 133223.55, 180840.92, 0.000022671806, 10.002067, 9.997869 
8.349867e+2, 3.051392e+2, 9745.398, -387411.5, -62568.44, -0.0008150718, 0.16406758, 19369.28, 19369.28, 0.0001036696, 10.001733, 9.996484 
8.349811e+2, 3.15139e+2, -69687.87, -266003.34, -2975.623, -0.034239504, 0.4544134, -69642.77, -69642.77, 0.0002623637, 10.000457, 9.997923 
8.450263e+2, 1.251484e+2, -1906441.1, -1762561.4, 32305.793, -0.039270084, -0.051176872, -1755640.5, -42083.996, 0.0, 9.998434, 10.000417 
8.4502244e+2, 1.3515125e+2, -1695028.5, -1582298.6, 1110.1011, -0.07903253, 0.1445822, -1582287.6, 33241.41, 0.0, 9.99914, 10.000644 
8.4502e+2, 1.4515139e+2, -1666322.0, -1682669.4, 17361.0, 0.03571059, 0.1783061, -1655306.8, -137778.73, 0.0, 9.999358, 9.999164 
8.450164e+2, 1.5514995e+2, -1551396.6, -1573780.8, -823.64636, -0.00038471146, 0.085800365, -1551366.3, -131823.58, 0.0, 9.999463, 9.99919 
8.450131e+2, 1.6514923e+2, -1409221.5, -1361619.1, 22422.477, -0.03608025, 0.054900084, -1352720.8, -31171.49, 0.0, 9.999366, 10.000026 
8.4501016e+2, 1.7514911e+2, -1380033.1, -1296411.3, 4062.268, -0.057984777, 0.021370776, -1296214.4, -72665.45, 0.0, 9.998895, 10.000026 
8.450087e+2, 1.8514991e+2, -1300930.5, -1193496.6, 61221.535, -0.0005035077, 0.09502618, -1165766.8, -40225.633, 0.0, 9.998706, 10.000144 
8.4500855e+2, 1.9515124e+2, -1191524.0, -1093281.4, 50738.51, 0.11860897, 0.19145787, -1071781.9, -44252.406, 0.0, 9.998789, 10.000125 
8.4500676e+2, 2.0515138e+2, -1050753.8, -982396.3, 25972.867, 0.106986515, 0.19976671, -973647.5, -44120.29, 0.0, 9.999123, 10.000052 
8.4500366e+2, 2.1515013e+2, -886642.5, -855798.9, -18914.59, -0.022566782, 0.04851288, -846815.9, -15279.498, 0.0, 9.99959, 10.000023 
8.450022e+2, 2.2514935e+2, -882850.8, -917451.56, 51414.793, -0.056294158, 0.023631927, -845903.75, -112358.484, 0.0, 9.999442, 9.99899 
8.450022e+2, 2.3514885e+2, -892547.4, -868834.6, 89354.1, -0.0037581825, 0.050991762, -790553.7, -154998.42, 0.0, 9.998696, 9.999011 
8.4500086e+2, 2.4514939e+2, -692887.0, -611744.56, 42718.9, -0.011490687, 0.15595959, -593401.2, -55847.883, 0.0, 9.998902, 10.0000105 
8.449982e+2, 2.5515062e+2, -444899.25, -442089.25, -20141.07, -0.073978364, 0.25155053, -423304.22, 16238.59, 0.0, 9.999942, 9.999997 
8.449969e+2, 2.6515067e+2, -358631.63, -466566.44, -25353.244, -0.005030659, 0.3138852, -352972.97, -11429.941, 0.0, 10.000369, 9.998952 
8.449971e+2, 2.7514938e+2, -277011.44, -376267.9, -21551.25, 0.20501646, 0.2694571, -272534.06, -28978.627, 0.0000000050987805, 10.000252, 9.998956 
8.4499556e+2, 2.8514794e+2, -215787.58, -400126.7, 6218.256, 0.2123764, 0.27897403, -215578.06, -70008.016, 0.0000017149706, 10.00044, 9.998027 
8.44992e+2, 2.9514584e+2, -66074.41, -278964.53, -8646.277, 0.025782444, 0.23381503, -65723.83, -18132.553, 0.0000255943, 10.000799, 9.998009 
8.4498805e+2, 3.0514267e+2, 61349.418, -328280.0, -82237.4, -0.038323384, 0.18244605, 77995.72, 77995.72, 0.000114907256, 10.001939, 9.9967985 
8.449829e+2, 3.1514314e+2, 370698.6, -89004.016, 59306.223, -0.045329437, 0.51541543, 378226.4, 378226.4, 0.00028673265, 10.003607, 9.997636 
8.5502535e+2, 1.2515491e+2, -1923899.9, -1792774.4, 43319.742, -0.038430702, 0.19057074, -1779755.5, -66261.195, 0.0, 9.998414, 10.000217 
8.550222e+2, 1.3515571e+2, -1720102.1, -1624075.4, 31167.875, -0.035507098, 0.2095389, -1614846.1, 639.75134, 0.0, 9.999116, 10.000358 
8.5501957e+2, 1.4515539e+2, -1673938.4, -1703628.4, 8001.8247, 0.023949215, 0.21672633, -1671919.1, -154429.69, 0.0, 9.999366, 9.999023 
8.550152e+2, 1.5515402e+2, -1556704.8, -1590160.4, 18638.799, -0.09963413, 0.1477517, -1548388.1, -128884.26, 0.0, 9.999483, 9.999067 
8.550123e+2, 1.6515322e+2, -1436772.1, -1411629.4, -7432.933, -0.07713614, 0.13266711, -1409596.4, -88084.836, 0.0, 9.999332, 9.9997 
8.550107e+2, 1.7515258e+2, -1402146.4, -1335375.9, -4646.599, 0.08520123, 0.07284692, -1335054.1, -111537.78, 0.0, 9.998869, 9.999767 
8.550084e+2, 1.8515258e+2, -1308728.1, -1196966.9, 54025.676, 0.08467273, 0.07784677, -1175120.9, -49605.543, 0.0, 9.998642, 10.000155 
8.5500556e+2, 1.9515294e+2, -1196852.4, -1093791.6, 63421.336, -0.07812928, 0.07547673, -1063605.1, -36094.01, 0.0, 9.998739, 10.000146 
8.550044e+2, 2.0515285e+2, -1128074.8, -1124957.0, 31715.014, -0.06462738, 0.1080637, -1094762.5, -165249.3, 0.0, 9.999036, 9.999123 
8.550048e+2, 2.1515198e+2, -962282.4, -987113.1, 9598.478, 0.10718309, 0.0849942, -959004.7, -127479.836, 0.0, 9.999474, 9.999182 
8.550031e+2, 2.2515242e+2, -812749.5, -734567.4, 13527.613, 0.07503586, 0.15761712, -732292.9, 1228.6396, 0.0, 9.999284, 10.000322 
8.5499966e+2, 2.3515402e+2, -818812.9, -688516.1, 74489.664, -0.1453055, 0.26157254, -654704.8, -19199.613, 0.0, 9.998577, 10.000307 
8.5499865e+2, 2.451535e+2, -806635.9, -823886.1, 71288.49, -0.13727073, 0.26834223, -743452.6, -205941.31, 0.0, 9.998802, 9.998602 
8.5499996e+2, 2.5515056e+2, -555691.1, -650870.0, 28079.994, 0.085064255, 0.08846901, -548024.44, -108481.62, 0.0, 9.999847, 9.998612 
8.5499877e+2, 2.6514927e+2, -341626.56, -416110.53, -40913.754, 0.121509485, 0.06325702, -323543.13, 18012.648, 0.0, 10.000303, 9.999333 
8.5499537e+2, 2.7514938e+2, -265119.13, -332346.16, -12803.626, -0.023295814, 0.123469904, -262763.2, -19211.063, 0.0000001292932, 10.000169, 9.999301 
8.549936e+2, 2.85149e+2, -226236.75, -403451.66, 12737.574, -0.045392867, 0.22251031, -225325.9, -79768.164, 0.0000031613251, 10.00037, 9.998033 
8.549933e+2, 2.951475e+2, -73431.38, -277604.53, 19127.479, 0.043482963, 0.2383563, -71654.92, -24076.816, 0.000030116835, 10.000732, 9.99805 
8.549903e+2, 3.0514565e+2, 192012.9, -48001.28, -26040.041, -0.02717262, 0.21830639, 194805.6, 194805.6, 0.0001273879, 10.001909, 9.998736 
8.5498506e+2, 3.1514564e+2, 438403.13, 79540.12, 146553.06, -0.25135076, 0.31931767, 490646.97, 490646.97, 0.00031292601, 10.003505, 9.998842 
8.650244e+2, 1.2515746e+2, -1904967.5, -1774623.6, -49881.39, 0.037759025, 0.22919619, -1757725.4, -44255.445, 0.00000000000000000000885557, 9.9984865, 10.00031 
8.6502135e+2, 1.3515757e+2, -1740676.9, -1639809.3, -84031.98, -0.020425769, 0.17873871, -1592238.3, 23228.904, 0.0, 9.998961, 10.000338 
8.650187e+2, 1.4515737e+2, -1683956.3, -1664858.0, -66318.34, 0.022585513, 0.17790706, -1607404.9, -89935.71, 0.0, 9.999122, 9.999404 
8.650149e+2, 1.5515661e+2, -1580989.4, -1567093.8, -43944.926, -0.0572718, 0.13700637, -1529550.9, -110073.07, 0.0, 9.999161, 9.999392 
8.650121e+2, 1.6515616e+2, -1453172.0, -1432351.8, -27353.436, -0.015753139, 0.14764683, -1413494.4, -92011.6, 0.0, 9.999287, 9.999567 
8.650104e+2, 1.7515573e+2, -1313408.1, -1315087.0, -39961.387, 0.13740437, 0.12399537, -1274277.4, -50790.38, 0.0, 9.99957, 9.999569 
8.650079e+2, 1.8515547e+2, -1182084.6, -1153451.5, 37506.574, 0.12153993, 0.12385288, -1127622.0, -2133.129, 0.0, 9.9996, 9.999984 
8.650047e+2, 1.9515525e+2, -1121103.8, -1075841.9, 15292.118, -0.06685971, 0.07925999, -1071159.6, -43669.71, 0.0, 9.999356, 9.999962 
8.650035e+2, 2.0515499e+2, -1087796.5, -1101648.0, 43479.11, -0.06297495, 0.10303499, -1050695.0, -121201.375, 0.0, 9.999319, 9.999127 
8.650042e+2, 2.151544e+2, -973985.75, -993809.4, 62323.61, 0.111496545, 0.106006354, -920790.7, -89288.12, 0.0, 9.999415, 9.999149 
8.6500275e+2, 2.2515488e+2, -738409.25, -706818.5, 53523.758, 0.09273891, 0.18735406, -666808.06, 66690.66, 0.0, 9.999819, 10.000264 
8.649996e+2, 2.351563e+2, -552535.6, -567649.56, -8788.473, -0.10042604, 0.27994758, -548501.9, 86981.83, 0.0, 10.000431, 10.00025 
8.649989e+2, 2.4515547e+2, -537834.5, -695487.9, 31038.506, -0.07841957, 0.26014835, -531943.8, 5547.806, 0.0, 10.00066, 9.998584 
8.650007e+2, 2.5515217e+2, -447596.44, -598505.8, 69834.734, 0.14463058, 0.04697377, -420239.16, 19285.314, 0.0, 10.0006, 9.998605 
8.6499965e+2, 2.6515064e+2, -256719.33, -396026.34, 45882.52, 0.14568545, 0.00832743, -242965.3, 98573.77, 0.0000000005766255, 10.000974, 9.999144 
8.649959e+2, 2.751506e+2, -44569.566, -247562.38, 7480.7563, -0.05462425, 0.068695925, -44294.254, 199243.72, 0.000000514823, 10.00177, 9.999111 
8.649941e+2, 2.851503e+2, -37110.36, -322968.0, 10940.489, -0.09391124, 0.18961975, -36692.25, 108851.53, 0.0000054394536, 10.001705, 9.997953 
8.649939e+2, 2.9514924e+2, -65597.61, -277286.0, -7480.039, 0.03155159, 0.25804684, -65333.625, -17772.703, 0.000035908153, 10.000798, 9.998026 
8.649918e+2, 3.051479e+2, 106728.59, -53139.387, -27896.03, -0.024112595, 0.27008456, 111456.46, 111456.46, 0.00014004746, 10.001166, 9.999046 
8.6498886e+2, 3.151464e+2, 296292.78, 52818.38, -22214.504, -0.14715427, 0.19054559, 298303.0, 298303.0, 0.00033713353, 10.002355, 9.999193 
8.750227e+2, 1.2515646e+2, -1869766.6, -1705778.0, -55215.01, -0.029549735, 0.10874351, -1688920.0, 24559.258, 0.0000000055054987, 9.998499, 10.000774 
8.7501943e+2, 1.3515705e+2, -1712009.4, -1572837.9, -57615.81, -0.13342369, 0.056611117, -1552081.3, 63389.832, 0.0, 9.998937, 10.000801 
8.750172e+2, 1.4515753e+2, -1635318.4, -1561377.9, -78785.47, -0.068361364, 0.06727522, -1511319.8, 6145.76, 0.0, 9.99911, 10.00012 
8.7501514e+2, 1.5515782e+2, -1531767.9, -1456313.3, -31389.332, 0.026243724, 0.05296033, -1444962.6, -25499.27, 0.0, 9.999137, 10.000155 
8.750123e+2, 1.6515823e+2, -1454807.5, -1436532.3, -27752.7, 0.04410825, 0.110930555, -1416451.6, -94990.29, 0.0, 9.999278, 9.999549 
8.750088e+2, 1.7515868e+2, -1314298.1, -1319013.4, -19420.625, 0.008438263, 0.18023, -1297092.6, -73632.93, 0.0, 9.999574, 9.999541 
8.750067e+2, 1.8515882e+2, -1213752.4, -1210171.4, 18372.945, 0.01789586, 0.23893277, -1193501.9, -68042.16, 0.0, 9.99956, 9.999616 
8.7500554e+2, 1.9515821e+2, -1151653.1, -1125031.9, 17430.645, 0.061251774, 0.19275707, -1116410.8, -88945.27, 0.0, 9.999294, 9.999654 
8.7500393e+2, 2.051578e+2, -1048016.0, -991517.9, 37190.566, 0.021202091, 0.17354383, -973064.1, -43596.008, 0.0, 9.999197, 9.999945 
8.7500167e+2, 2.1515739e+2, -936472.56, -887101.75, 75282.984, -0.101240724, 0.115431786, -832560.25, -1090.9515, 0.0, 9.9992895, 9.999944 
8.7500095e+2, 2.2515678e+2, -858505.5, -926333.7, 64629.953, -0.08746051, 0.120094344, -819431.94, -85955.78, 0.0, 9.99969, 9.99882 
8.7500167e+2, 2.351557e+2, -670503.4, -778398.5, 23915.398, 0.046677023, 0.105359145, -665440.0, -29949.28, 0.0, 10.000285, 9.998871 
8.750014e+2, 2.4515532e+2, -457523.72, -506909.97, 17880.727, 0.07799543, 0.12868313, -451729.63, 85764.266, 0.0, 10.000558, 9.999931 
8.7500006e+2, 2.551554e+2, -372357.94, -415990.2, 80192.625, 0.003934605, 0.12112037, -311066.9, 128421.21, 0.0, 10.000487, 9.999912 
8.7499917e+2, 2.6515475e+2, -319347.7, -515420.94, 66993.914, -0.019442994, 0.14688459, -298643.56, 42849.914, 0.0000000691861, 10.000925, 9.998346 
8.7499857e+2, 2.7515304e+2, -110365.805, -365141.5, 48770.434, 0.0057651857, 0.11594392, -101349.04, 142163.73, 0.000001269736, 10.001691, 9.998339 
8.749967e+2, 2.8515196e+2, -43885.6, -335370.53, -35269.668, -0.02356599, 0.19742061, -39678.69, 105848.23, 0.000008255043, 10.00169, 9.997882 
8.749935e+2, 2.9515103e+2, -78890.52, -296282.34, -26468.467, -0.11241072, 0.29103827, -75714.27, -28174.453, 0.000042714033, 10.000755, 9.997922 
8.749922e+2, 3.051493e+2, 6881.4434, -247079.95, 14913.8125, -0.120747566, 0.3390257, 7754.2534, 7754.2534, 0.00015286829, 10.001113, 9.997736 
8.7499404e+2, 3.1514433e+2, 227465.22, -76895.66, 40169.66, 0.065657206, 0.04195974, 232677.56, 232677.56, 0.00035722472, 10.002298, 9.998329 
8.8502115e+2, 1.251568e+2, -1810386.5, -1668906.9, 37382.063, -0.047105595, 0.03664606, -1659637.1, 53836.92, 0.00000006865043, 9.9988785, 10.00085 
8.850183e+2, 1.3515788e+2, -1717428.0, -1579289.1, -37519.79, -0.1283546, 0.041374795, -1569756.3, 45706.57, 0.0, 9.998914, 10.000776 
8.850162e+2, 1.4515868e+2, -1670657.8, -1542164.8, -76144.77, -0.05793688, 0.068826444, -1506783.8, 10671.497, 0.0, 9.998724, 10.00043 
8.850141e+2, 1.5515934e+2, -1586270.8, -1450386.6, -88986.94, 0.04491934, 0.059736658, -1406369.8, 13080.212, 0.0, 9.998626, 10.000437 
8.8501143e+2, 1.6516002e+2, -1502664.0, -1431007.9, -53285.223, 0.06254801, 0.12026635, -1402625.6, -81180.68, 0.0, 9.998839, 9.999797 
8.850083e+2, 1.7516077e+2, -1331138.4, -1297927.3, -44551.39, 0.0078270715, 0.19487487, -1266987.4, -43547.523, 0.0, 9.999345, 9.999794 
8.850064e+2, 1.8516077e+2, -1207692.5, -1250598.5, 7627.953, 0.03313195, 0.2479045, -1206376.6, -80935.055, 0.0, 9.999786, 9.99923 
8.850058e+2, 1.9515969e+2, -1057181.6, -1123413.4, -20708.973, 0.122063525, 0.19304644, -1051239.5, -23786.043, 0.0, 10.0001335, 9.999263 
8.8500404e+2, 2.0515929e+2, -875006.7, -879511.75, -5621.225, 0.0708653, 0.1815021, -871203.5, 58252.043, 0.0, 10.000243, 10.000222 
8.8500124e+2, 2.1515937e+2, -805083.8, -797814.06, -23218.352, -0.10954802, 0.14644954, -777947.8, 53502.105, 0.0, 10.000061, 10.0002 
8.850008e+2, 2.2515851e+2, -804530.44, -928168.75, 32848.773, -0.086342, 0.12616436, -796344.94, -62886.47, 0.0, 10.00019, 9.998556 
8.8500273e+2, 2.3515642e+2, -640898.75, -796081.9, 52067.31, 0.12198151, 0.03788607, -625048.06, 10435.241, 0.0, 10.000627, 9.998581 
8.850026e+2, 2.451561e+2, -392074.38, -458893.66, 46474.43, 0.13318753, 0.07638165, -368247.0, 169238.72, 0.0, 10.000937, 10.000073 
8.8500035e+2, 2.551572e+2, -257403.84, -347667.56, -6080.7227, -0.04714225, 0.15485325, -256996.05, 182473.55, 0.00000000006372724, 10.0012, 10.000042 
8.849995e+2, 2.6515672e+2, -309403.94, -530944.56, -14131.152, -0.08334721, 0.19935174, -308506.22, 32967.05, 0.00000025387644, 10.001079, 9.99817 
8.849999e+2, 2.751544e+2, -271598.47, -459599.7, -7735.614, 0.024209674, 0.12656066, -271280.72, -27782.297, 0.0000021793016, 10.000654, 9.99819 
8.849985e+2, 2.8515267e+2, -126115.305, -358258.47, -38283.953, 0.017216051, 0.1457989, -119964.664, 25552.824, 0.000011106664, 10.001082, 9.997998 
8.849952e+2, 2.9515114e+2, 163631.86, -168374.63, -40128.39, -0.096281186, 0.17071427, 168413.17, 215947.06, 0.000049522223, 10.002383, 9.998009 
8.8499385e+2, 3.051498e+2, 164312.5, -216725.63, 55798.535, -0.12714173, 0.26827776, 172315.45, 172315.45, 0.00016466355, 10.002379, 9.997351 
8.84996e+2, 3.151461e+2, 12711.1045, -171787.97, 102271.31, 0.115799636, 0.14546296, 58191.008, 58191.008, 0.00037254568, 10.000775, 9.998433 
8.9501894e+2, 1.251583e+2, -1846944.3, -1724105.3, 6335.4077, -0.2072292, -0.0005775508, -1723779.4, -10323.673, 0.00000033567557, 9.998812, 10.000493 
8.950178e+2, 1.3516025e+2, -1755714.6, -1649669.1, -32002.951, -0.091166876, 0.14236471, -1640759.8, -25318.885, 0.00000000007521531, 9.998895, 10.000295 
8.950152e+2, 1.4516112e+2, -1678896.5, -1563044.9, -92348.16, -0.052842557, 0.20595384, -1511958.9, 5476.5957, 0.0, 9.99873, 10.000289 
8.950116e+2, 1.5516132e+2, -1598166.8, -1475244.1, -78801.086, -0.09355992, 0.16972172, -1436769.9, -17334.371, 0.0, 9.99862, 10.000273 
8.950093e+2, 1.6516167e+2, -1470386.3, -1361691.6, -45630.668, -0.06173196, 0.1812983, -1345075.6, -23643.209, 0.0, 9.998826, 10.000278 
8.950083e+2, 1.7516197e+2, -1301332.8, -1228131.1, -14405.325, 0.05411007, 0.15929475, -1225398.3, -1970.561, 0.0, 9.999312, 10.000288 
8.950069e+2, 1.851614e+2, -1249570.9, -1321850.3, 10734.026, 0.08099405, 0.15282412, -1248010.5, -122576.516, 0.0, 9.999714, 9.998777 
8.950051e+2, 1.9515973e+2, -1102637.5, -1198219.9, 1838.8276, 0.01806079, 0.08651642, -1102602.1, -75149.15, 0.0, 10.000047, 9.998792 
8.950037e+2, 2.0515952e+2, -906762.94, -919523.06, -22722.674, -0.00980762, 0.12850589, -889541.6, 39913.402, 0.0, 10.0001335, 10.0 
8.950024e+2, 2.1516043e+2, -840543.3, -834696.5, -17553.854, -0.0061180135, 0.19527522, -819824.25, 11619.105, 0.0, 9.99991, 10.000015 
8.950022e+2, 2.2516018e+2, -769312.1, -823051.6, 39166.906, 0.009699205, 0.20693292, -748684.2, -15239.734, 0.0, 10.000045, 9.999351 
8.950026e+2, 2.3515864e+2, -605717.94, -691487.75, 78457.31, 0.026578842, 0.090956606, -559190.0, 76269.69, 0.0, 10.000491, 9.999363 
8.950023e+2, 2.4515793e+2, -479818.06, -624056.25, 45019.344, -0.010293057, 0.106510445, -466920.06, 70546.195, 0.0, 10.000858, 9.9989805 
8.9500123e+2, 2.5515774e+2, -349915.94, -511314.66, 14213.531, -0.10187063, 0.16204259, -348673.78, 90793.9, 0.0000000002378373, 10.0010805, 9.998977 
8.950003e+2, 2.651568e+2, -282698.75, -464097.38, -39340.24, -0.13191257, 0.19111577, -274534.4, 66941.3, 0.00000030747992, 10.001029, 9.9986515 
8.949995e+2, 2.751549e+2, -254468.48, -402915.63, -9398.951, -0.104373954, 0.11110769, -253875.75, -10382.53, 0.0000026197797, 10.000567, 9.998619 
8.949989e+2, 2.851525e+2, -115337.36, -332087.0, -40.002975, -0.073913544, 0.0349859, -115337.35, 30178.416, 0.000013171274, 10.001055, 9.998193 
8.949985e+2, 2.9514953e+2, 176138.89, -136431.8, 19817.145, -0.041012306, -0.10984265, 177390.3, 224934.8, 0.000055655084, 10.002349, 9.998244 
8.949963e+2, 3.051493e+2, 195764.34, -136222.34, -10725.47, -0.13921103, 0.06050978, 196110.48, 196110.48, 0.00017577781, 10.002329, 9.997921 
8.949941e+2, 3.151499e+2, 78075.65, -2909.9207, 62278.117, -0.19753246, 0.30785996, 111867.65, 111867.65, 0.0003866523, 10.000653, 9.999639 
9.050172e+2, 1.2515956e+2, -1961095.8, -1733871.9, -17878.162, -0.19403613, 0.002978045, -1732473.8, -19028.906, 0.0000010657902, 9.9978075, 10.000918 
9.050164e+2, 1.3516225e+2, -1915605.8, -1687084.6, -26155.53, -0.042670485, 0.17989148, -1684129.1, -68707.58, 0.000000007369457, 9.997616, 10.000654 
9.050141e+2, 1.4516322e+2, -1778509.4, -1612587.6, -243.73592, -0.0002856591, 0.23717524, -1612587.3, -95172.74, 0.0, 9.998049, 10.000276 
9.0501076e+2, 1.5516311e+2, -1505955.4, -1429879.8, -701.1721, -0.07047482, 0.16627368, -1429873.4, -10455.63, 0.0, 9.999247, 10.00028 
9.050087e+2, 1.6516316e+2, -1321937.0, -1324940.5, 28486.602, -0.05918733, 0.1635794, -1294912.6, 26505.217, 0.0, 9.999991, 9.999975 
9.0500796e+2, 1.751631e+2, -1176713.0, -1200602.5, -24285.377, 0.043918546, 0.13718235, -1161593.8, 61823.69, 0.0, 10.000302, 10.0 
9.050068e+2, 1.8516265e+2, -1111802.9, -1237459.9, 13253.985, 0.065811686, 0.14637339, -1110420.0, 15002.463, 0.0, 10.000577, 9.9989395 
9.050054e+2, 1.9516155e+2, -969042.25, -1119457.9, 35369.0, 0.0033515976, 0.12055275, -961140.6, 66294.266, 0.0, 10.00088, 9.998937 
9.05004e+2, 2.0516111e+2, -879882.5, -987095.9, 5158.7007, -0.0073828674, 0.16943061, -879634.9, 49805.63, 0.0, 10.00067, 9.999268 
9.050028e+2, 2.15161e+2, -879745.06, -935340.1, -55734.074, 0.02979446, 0.20827384, -845261.06, -13818.668, 0.0, 9.999991, 9.999281 
9.050023e+2, 2.2516073e+2, -788292.9, -793506.25, 14503.675, 0.037925605, 0.23693326, -776163.5, -42719.617, 0.0, 9.999752, 9.999695 
9.050027e+2, 2.351601e+2, -653027.56, -679466.06, -663.8886, 0.011917789, 0.18009858, -653010.9, -17563.547, 0.0, 10.0000105, 9.999681 
9.050028e+2, 2.4515922e+2, -616738.56, -722717.9, -11243.983, -0.01120982, 0.17954971, -615558.75, -78103.74, 0.0, 10.0000725, 9.998674 
9.0500236e+2, 2.5515792e+2, -526414.94, -627308.3, -5928.4478, -0.034935668, 0.15437727, -526067.75, -86598.984, 0.0, 10.0000105, 9.998688 
9.050015e+2, 2.6515675e+2, -346230.47, -442003.1, -7965.8027, -0.07534483, 0.1508565, -345572.44, -4093.9539, 0.0000002007212, 10.000383, 9.999113 
9.0500015e+2, 2.751554e+2, -130618.516, -291974.4, -4097.763, -0.12509252, 0.08404097, -130514.516, 112973.03, 0.0000025589381, 10.001203, 9.999077 
9.049999e+2, 2.8515348e+2, -52415.746, -282518.3, 42060.67, -0.08417944, 0.024460753, -44968.465, 100535.55, 0.000014749117, 10.001394, 9.998382 
9.05001e+2, 2.9515103e+2, -18701.477, -203630.6, 35745.43, 0.050277345, -0.08877432, -12032.639, 35494.883, 0.00006245814, 10.000905, 9.99848 
9.0499896e+2, 3.051503e+2, 85454.086, -172029.08, -9348.673, -0.053605013, 0.01317578, 85793.07, 85793.07, 0.00018870574, 10.001499, 9.998078 
9.049957e+2, 3.1515095e+2, 402787.9, 166408.44, -28509.3, -0.20097114, 0.25470522, 406177.72, 406177.72, 0.00040376265, 10.002813, 9.999777 
9.150152e+2, 1.251612e+2, -1870139.5, -1546650.3, -62770.465, -0.22693028, 0.09262727, -1534897.1, 178538.69, 0.000002613721, 9.9978285, 10.00219 
9.1501397e+2, 1.3516396e+2, -1833062.3, -1508095.5, -26509.186, -0.07933791, 0.15064903, -1505947.3, 109457.38, 0.00000007607973, 9.997584, 10.001896 
9.150123e+2, 1.4516486e+2, -1776099.5, -1595495.6, 30973.553, -0.007786954, 0.13417977, -1590331.4, -72937.3, 0.0, 9.997998, 10.000418 
9.1501105e+2, 1.5516476e+2, -1498779.6, -1410916.9, 56421.457, 0.015100735, 0.050498202, -1383340.6, 36055.215, 0.0, 9.999232, 10.000417 
9.1500914e+2, 1.651647e+2, -1400523.6, -1485276.3, 27417.668, -0.028485065, 0.084819436, -1392427.4, -71028.13, 0.0, 9.99998, 9.9988785 
9.150068e+2, 1.7516439e+2, -1258354.8, -1360942.9, -2824.8083, -0.120249115, 0.14257835, -1258277.1, -34869.984, 0.0, 10.000265, 9.998918 
9.150059e+2, 1.8516462e+2, -1061324.5, -1119679.3, 14380.001, -0.10976379, 0.23286428, -1057973.4, 67432.67, 0.0, 10.000521, 9.999778 
9.1500634e+2, 1.9516517e+2, -929708.3, -1012349.75, 57933.453, -0.0108603705, 0.29086947, -899869.44, 127529.12, 0.0, 10.000777, 9.9997225 
9.150049e+2, 2.0516412e+2, -989398.94, -1189228.5, -30297.023, -0.010927001, 0.30807588, -984906.5, -55495.46, 0.0, 10.000559, 9.997934 
9.150016e+2, 2.1516125e+2, -993171.4, -1137375.9, -71880.8, -0.09859059, 0.20263118, -963462.1, -132016.83, 0.0, 9.99985, 9.99796 
9.1500086e+2, 2.2516026e+2, -810346.44, -817562.7, 12006.591, -0.099562205, 0.22878839, -801417.56, -67961.77, 0.0, 9.999649, 9.999583 
9.1500264e+2, 2.3516086e+2, -680462.5, -705318.5, 19791.063, -0.015159123, 0.30679664, -669520.8, -34075.074, 0.0, 9.999877, 9.999568 
9.150035e+2, 2.4516018e+2, -596327.56, -662043.8, -22335.746, 0.034049366, 0.30496755, -589454.8, -52004.63, 0.0, 9.999988, 9.999136 
9.1500354e+2, 2.5515792e+2, -508697.3, -570275.8, 3242.0864, 0.052643146, 0.14398126, -508527.1, -69055.59, 0.0, 9.999919, 9.999127 
9.150028e+2, 2.6515663e+2, -323344.56, -383933.0, 13534.348, -0.007009788, 0.0847286, -320458.72, 21022.217, 0.00000011562638, 10.000339, 9.999533 
9.150014e+2, 2.7515593e+2, -109957.32, -233527.2, 39926.375, -0.1380641, 0.042034794, -98179.4, 145302.4, 0.0000025826089, 10.001136, 9.999512 
9.1500133e+2, 2.851557e+2, -45514.473, -257800.83, 13404.399, -0.10758127, 0.11680464, -44671.426, 100810.23, 0.000017159802, 10.001351, 9.998571 
9.150024e+2, 2.951557e+2, -17776.967, -192206.77, 32488.15, 0.07163448, 0.23363535, -11922.4375, 35559.625, 0.00007135739, 10.00086, 9.998584 
9.1500145e+2, 3.0515274e+2, 49788.76, -229034.95, 36100.51, 0.024923798, 0.12668794, 54387.02, 54387.02, 0.00020552066, 10.001432, 9.997712 
9.15e+2, 3.151488e+2, 345317.72, 70095.12, 41095.414, -0.10725413, -0.06366367, 351322.9, 351322.9, 0.00042645857, 10.002727, 9.999146 
9.250136e+2, 1.2516363e+2, -1960922.5, -1596162.6, 6152.08, -0.12903415, 0.21377215, -1596058.9, 117357.31, 0.0000053718704, 9.997225, 10.002143 
9.250115e+2, 1.351649e+2, -1790531.3, -1482542.4, -82323.59, -0.081488825, 0.11706186, -1461918.8, 153478.69, 0.00000033393198, 9.997851, 10.001953 
9.250103e+2, 1.4516547e+2, -1688023.6, -1543942.1, -8060.184, -0.03038037, 0.060395546, -1543492.6, -26103.957, 0.0, 9.998562, 10.000504 
9.2501056e+2, 1.551664e+2, -1441579.5, -1376681.0, -16231.875, 0.029146368, 0.07189798, -1372847.6, 46531.41, 0.0, 9.999592, 10.000481 
9.2500967e+2, 1.651665e+2, -1390572.1, -1511659.0, -24435.35, 0.015303874, 0.13372746, -1385827.0, -64446.152, 0.0, 10.000175, 9.998603 
9.250077e+2, 1.7516561e+2, -1261607.3, -1394568.8, -13878.397, -0.061577044, 0.16068605, -1260174.1, -36778.652, 0.0, 10.000374, 9.998638 
9.250065e+2, 1.851656e+2, -1133353.4, -1153298.5, 1166.85, -0.06869849, 0.24005497, -1133285.4, -7888.017, 0.0, 10.000023, 9.999788 
9.2500615e+2, 1.9516619e+2, -1169257.4, -1124153.6, -41959.996, -0.016856628, 0.29806474, -1099069.0, -71679.65, 0.0, 9.99912, 9.99975 
9.250048e+2, 2.0516512e+2, -1158642.8, -1270922.6, -60032.01, -0.015818335, 0.31273, -1132590.6, -203188.98, 0.0, 9.999402, 9.997935 
9.250024e+2, 2.1516225e+2, -841426.6, -1062506.1, -17188.18, -0.053563166, 0.20838273, -840098.3, -8662.935, 0.0, 10.000883, 9.99798 
9.250016e+2, 2.2516109e+2, -611740.5, -733015.5, 106408.03, -0.056420494, 0.2218996, -549905.25, 183541.61, 0.0, 10.001065, 9.999478 
9.250024e+2, 2.3516136e+2, -666493.44, -709753.9, 91500.52, -0.027543651, 0.27783394, -594101.25, 41338.094, 0.0, 10.000019, 9.999469 
9.2500323e+2, 2.451606e+2, -611949.7, -670469.44, 80109.05, 0.018271679, 0.27491724, -555924.2, -18479.717, 0.0, 9.999883, 9.999134 
9.25004e+2, 2.5515857e+2, -398487.7, -516040.34, 50518.336, 0.08028116, 0.13635235, -379760.72, 59703.426, 0.0, 10.000673, 9.999141 
9.250038e+2, 2.6515746e+2, -236049.92, -353431.63, 44121.8, 0.039672356, 0.102488235, -221314.95, 120157.414, 0.00000007319143, 10.000974, 9.999439 
9.250029e+2, 2.7515697e+2, -167619.31, -268804.94, 13697.4, -0.08360206, 0.08362925, -165797.89, 77674.625, 0.0000027897247, 10.000763, 9.999446 
9.250029e+2, 2.851566e+2, -102318.234, -295240.94, -24970.555, -0.06971788, 0.15528782, -99138.625, 46335.105, 0.000020180585, 10.001008, 9.998475 
9.2500365e+2, 2.9515627e+2, 99199.05, -146147.06, -51558.91, 0.080705635, 0.24937233, 109593.64, 157070.47, 0.00008284934, 10.001707, 9.998488 
9.250035e+2, 3.0515286e+2, 165215.42, -173530.63, 4675.277, 0.064163566, 0.09996042, 165279.94, 165279.94, 0.00022869528, 10.002189, 9.99774 
9.250035e+2, 3.1514874e+2, 236388.92, -21330.666, -14538.406, 0.015940905, -0.11163877, 237206.47, 237206.47, 0.00046065266, 10.00212, 9.998817 
9.350116e+2, 1.2516648e+2, -2063852.9, -1785023.1, -6268.205, -0.10882851, 0.3173155, -1784882.3, -71492.55, 0.000009857008, 9.997134, 10.000886 
9.350089e+2, 1.3516526e+2, -1858698.5, -1632921.1, -51784.89, -0.15344225, 0.07808593, -1621610.3, -6211.505, 0.0000009955157, 9.997899, 10.000892 
9.3500775e+2, 1.4516531e+2, -1687669.5, -1553081.5, 17006.273, -0.17320155, 0.029199542, -1550965.9, -33570.23, 0.00000000002439963, 9.998601, 10.000425 
9.350088e+2, 1.5516806e+2, -1451502.1, -1385902.3, 33148.71, -0.12588139, 0.22981231, -1372068.8, 47298.285, 0.0, 9.999544, 10.000442 
9.350097e+2, 1.6516857e+2, -1355784.3, -1426482.8, -30686.111, -0.022776447, 0.30111, -1344323.3, -22960.563, 0.0, 10.000117, 9.999217 
9.350102e+2, 1.7516688e+2, -1222704.4, -1310789.8, 3411.997, 0.129043, 0.18839909, -1222572.4, 809.6161, 0.0, 10.0003605, 9.99922 
9.350084e+2, 1.8516573e+2, -1203753.4, -1285933.0, -41435.113, 0.09319586, 0.1726859, -1186488.8, -61093.703, 0.0, 9.999968, 9.998906 
9.350045e+2, 1.9516473e+2, -1243134.1, -1254297.0, -64337.113, -0.11892535, 0.15843837, -1184136.9, -156730.67, 0.0, 9.999023, 9.998904 
9.350033e+2, 2.0516421e+2, -1070360.9, -1069937.9, -16941.0, -0.11925903, 0.19838913, -1053207.0, -123795.86, 0.0, 9.999319, 9.999356 
9.350048e+2, 2.1516402e+2, -764540.75, -874733.6, 47328.063, 0.07973281, 0.22226818, -747004.1, 84408.09, 0.0, 10.000754, 9.999337 
9.3500423e+2, 2.2516324e+2, -642960.9, -763172.1, 58291.62, 0.07838093, 0.21405704, -619337.2, 114079.72, 0.0, 10.0009165, 9.999342 
9.350018e+2, 2.3516162e+2, -697216.06, -742323.06, 63942.953, -0.11083426, 0.09489689, -651965.75, -16537.748, 0.0, 9.999883, 9.999312 
9.350016e+2, 2.4516055e+2, -658109.94, -743525.4, 97960.47, -0.15260737, 0.09171547, -593952.3, -56514.773, 0.0, 9.999784, 9.998679 
9.3500364e+2, 2.5515974e+2, -443086.28, -592542.7, 90355.61, -0.04589963, 0.120369114, -400560.75, 38887.188, 0.0, 10.000595, 9.998657 
9.350045e+2, 2.6515925e+2, -283621.22, -433472.78, 29648.443, -0.017171824, 0.19395974, -277968.44, 63485.13, 0.00000003612581, 10.000897, 9.998922 
9.350041e+2, 2.7515864e+2, -219347.19, -355309.97, 19584.338, -0.060575183, 0.21880202, -216582.45, 26875.955, 0.0000027030533, 10.000679, 9.998889 
9.350041e+2, 2.8515646e+2, -133377.4, -352279.75, -7511.7813, -0.06871228, 0.1555295, -133119.94, 12358.116, 0.000022488803, 10.000969, 9.998104 
9.3500453e+2, 2.951528e+2, 71155.86, -205276.89, -8781.518, -0.037613787, -0.04900147, 71434.54, 118946.12, 0.000095232324, 10.001699, 9.998091 
9.3500495e+2, 3.0515063e+2, 189422.45, -116271.83, -1316.5864, -0.040832013, -0.07345128, 189428.13, 189428.13, 0.0002574787, 10.002167, 9.99814 
9.350057e+2, 3.1515148e+2, 227399.17, -25161.781, 9188.496, -0.026985522, 0.17157884, 227733.03, 227733.03, 0.0005076496, 10.002059, 9.998818 
9.4500965e+2, 1.2516733e+2, -2149155.0, -1887622.1, -2429.3428, 0.0137731675, 0.32305852, -1887599.5, -174217.34, 0.000016753027, 9.996787, 10.000363 
9.4500786e+2, 1.3516632e+2, -1722612.6, -1627360.6, -40271.504, -0.096891515, 0.15874341, -1612616.5, 2775.1162, 0.000002343361, 9.999077, 10.000371 
9.450072e+2, 1.4516604e+2, -1536017.5, -1474683.5, 24303.625, -0.13726062, 0.09947032, -1466220.8, 51170.77, 0.0000000053592455, 9.9996195, 10.000469 
9.450081e+2, 1.551679e+2, -1568289.1, -1444264.9, 22781.691, -0.10454874, 0.20561746, -1440212.5, -20843.715, 0.0, 9.998737, 10.000437 
9.45009e+2, 1.6516826e+2, -1573234.3, -1487183.3, -12699.938, -0.015398349, 0.24458107, -1485348.0, -163984.28, 0.0, 9.998442, 9.9996 
9.450096e+2, 1.7516716e+2, -1435807.5, -1371242.3, -19998.281, 0.121120445, 0.15371491, -1365549.9, -142173.88, 0.0, 9.998724, 9.999586 
9.4500804e+2, 1.8516609e+2, -1290710.8, -1363266.1, -34391.406, 0.09161037, 0.14101133, -1277000.1, -151611.31, 0.0, 9.999533, 9.998573 
9.4500464e+2, 1.9516464e+2, -996483.56, -1170546.5, -33978.605, -0.09335055, 0.11596289, -990085.8, 37319.563, 0.0, 10.000875, 9.998578 
9.450037e+2, 2.0516415e+2, -794335.0, -900721.6, 13944.568, -0.0984761, 0.1560231, -792537.56, 136872.2, 0.0, 10.001056, 9.99968 
9.45005e+2, 2.1516441e+2, -839982.5, -871369.25, -25974.736, 0.07127219, 0.19200522, -825328.4, 6075.551, 0.0, 10.000071, 9.9996805 
9.450047e+2, 2.2516364e+2, -786234.06, -864164.25, -45895.746, 0.08129257, 0.1800555, -764993.7, -31585.111, 0.0, 10.0000725, 9.999055 
9.4500273e+2, 2.3516159e+2, -547447.7, -700170.94, -71170.14, -0.055437, 0.047486916, -519424.03, 116001.54, 0.0, 10.00104, 9.999044 
9.450025e+2, 2.4516042e+2, -464136.8, -642955.8, 621.791, -0.10080873, 0.045322858, -464134.63, 73301.84, 0.0, 10.001082, 9.998743 
9.45004e+2, 2.5515985e+2, -490820.03, -603096.6, 11757.373, -0.0472087, 0.09136233, -489602.03, -50158.58, 0.0, 10.000217, 9.99876 
9.450047e+2, 2.6515943e+2, -420636.25, -520572.75, 6522.929, -0.032835037, 0.17375606, -420212.28, -78763.38, 0.000000027783642, 10.000039, 9.998745 
9.4500476e+2, 2.751587e+2, -258875.97, -393686.88, 1542.8047, -0.04768653, 0.2073006, -258858.31, -15401.98, 0.000002329391, 10.000486, 9.998728 
9.450051e+2, 2.8515643e+2, -146440.05, -361531.47, 38513.457, -0.05650643, 0.14535853, -139751.92, 5725.796, 0.000023981273, 10.0008955, 9.998079 
9.450058e+2, 2.951527e+2, -10052.902, -244719.97, 40862.082, -0.04928345, -0.06725398, -3141.244, 44371.25, 0.000106754764, 10.001155, 9.99808 
9.450069e+2, 3.0515093e+2, 125433.1, -142158.56, 66992.28, -0.030918142, -0.04578096, 141267.78, 141267.78, 0.00028782972, 10.001722, 9.9981785 
9.450083e+2, 3.151518e+2, 264632.25, -21485.053, 8145.139, 0.01790275, 0.19625199, 264863.94, 264863.94, 0.0005617916, 10.002393, 9.998687 
9.5500696e+2, 1.2516648e+2, -2151388.8, -1883423.9, 50629.195, 0.018002952, 0.2512481, -1874177.1, -160786.58, 0.00002677623, 9.99677, 10.000385 
9.550081e+2, 1.3516825e+2, -1732540.3, -1625901.6, 50557.2, -0.004126552, 0.36153013, -1605743.1, 9631.585, 0.0000047533053, 9.9990015, 10.000403 
9.550083e+2, 1.451676e+2, -1536596.9, -1462451.3, -24443.098, -0.01922021, 0.25498134, -1455118.5, 62258.625, 0.000000046136613, 9.999555, 10.00059 
9.55008e+2, 1.5516596e+2, -1553067.6, -1420211.1, 92.73915, -0.018638227, 0.0006951982, -1420211.1, -827.2871, 0.0, 9.998771, 10.0005865 
9.5500714e+2, 1.6516577e+2, -1562579.4, -1468784.3, -12836.105, -0.06944315, -0.029180478, -1467059.4, -145676.95, 0.0, 9.998456, 9.9997225 
9.550057e+2, 1.7516662e+2, -1431028.5, -1354201.4, 1667.7008, -0.16975622, 0.061365772, -1354165.1, -130788.625, 0.0, 9.9986925, 9.999719 
9.5500535e+2, 1.8516672e+2, -1278367.9, -1331816.9, 5584.2153, -0.15999867, 0.14778674, -1277790.6, -152412.84, 0.0, 9.999498, 9.998811 
9.5500624e+2, 1.9516589e+2, -988988.2, -1142092.1, 24695.38, -0.04475024, 0.16136123, -985103.44, 42284.418, 0.0, 10.000814, 9.998805 
9.550054e+2, 2.051649e+2, -861383.44, -1016447.56, -35244.043, -0.0452251, 0.1781733, -853748.8, 75648.97, 0.0, 10.000954, 9.998937 
9.550029e+2, 2.1516348e+2, -915370.25, -991887.94, -52402.316, -0.16309862, 0.12061556, -888746.56, -57336.22, 0.0, 9.999915, 9.998931 
9.550028e+2, 2.2516234e+2, -833633.25, -928872.1, -19915.049, -0.13128223, 0.1290687, -829636.6, -96215.38, 0.0, 9.999929, 9.998679 
9.5500493e+2, 2.351612e+2, -594210.5, -767019.7, -23394.824, 0.042834416, 0.12596485, -591099.4, 44333.676, 0.0, 10.000908, 9.9986515 
9.550055e+2, 2.4516016e+2, -438736.75, -561237.44, -41068.96, 0.07634776, 0.12554978, -426242.5, 111199.38, 0.0, 10.000966, 9.999355 
9.550047e+2, 2.5515896e+2, -464241.06, -527271.44, -9325.259, -0.020913444, 0.047897387, -462890.34, -23439.729, 0.0, 10.000129, 9.999322 
9.5500433e+2, 2.6515806e+2, -424021.66, -504791.84, 13665.843, -0.092431195, 0.0494686, -421772.13, -80314.016, 0.000000030362223, 9.999949, 9.998893 
9.5500445e+2, 2.7515706e+2, -259299.3, -378491.28, 32735.416, -0.14813882, 0.041283943, -250900.5, -7433.167, 0.000002140531, 10.000419, 9.998864 
9.550054e+2, 2.8515637e+2, -132496.52, -315920.44, 38903.117, -0.1352592, 0.11224827, -124586.51, 20887.879, 0.000025889522, 10.000828, 9.998421 
9.5500714e+2, 2.9515585e+2, 5914.8696, -201112.16, 64196.348, -0.05554124, 0.18755448, 24205.373, 71685.54, 0.000117742304, 10.001111, 9.998399 
9.550092e+2, 3.0515397e+2, 97238.43, -189529.17, 91072.914, 0.010942941, 0.19242528, 123716.9, 123716.9, 0.00031737162, 10.001673, 9.99788 
9.550108e+2, 3.151502e+2, 239520.75, -68246.99, 67546.2, -0.033397418, -0.00021514263, 253692.64, 253692.64, 0.0006187205, 10.002362, 9.998384 
9.650056e+2, 1.251651e+2, -1804970.1, -1714039.4, 15827.07, 0.09373173, 0.22778878, -1711363.3, 2039.8265, 0.000040530904, 9.999117, 10.00042 
9.6500736e+2, 1.351672e+2, -1848652.8, -1672401.8, -9973.43, 0.07723559, 0.35889298, -1671839.1, -56455.098, 0.000008656152, 9.99815, 10.0005 
9.65008e+2, 1.4516672e+2, -1738936.5, -1551867.5, -66812.23, 0.07912946, 0.2628272, -1530456.0, -13070.825, 0.00000019058375, 9.998155, 10.000636 
9.650074e+2, 1.5516506e+2, -1467935.3, -1373757.4, -79273.64, 0.02541438, 0.0037781415, -1328641.8, 90751.45, 0.0, 9.999357, 10.00061 
9.6500635e+2, 1.6516487e+2, -1363280.3, -1375591.3, -89717.81, -0.05824491, -0.024233019, -1279507.0, 41884.906, 0.0, 9.999846, 9.99969 
9.6500474e+2, 1.7516577e+2, -1289174.1, -1292256.1, -108177.48, -0.17127042, 0.074669085, -1182526.6, 40858.375, 0.0, 9.999691, 9.999666 
9.6500486e+2, 1.8516599e+2, -1249416.8, -1260282.0, -62104.66, -0.14983456, 0.14820874, -1192507.5, -67123.67, 0.0, 9.999441, 9.999338 
9.6500653e+2, 1.9516535e+2, -1200799.0, -1189290.3, -41810.816, -0.0027956902, 0.12915616, -1152839.8, -125449.76, 0.0, 9.999114, 9.9993105 
9.6500605e+2, 2.0516425e+2, -1097382.8, -1161729.6, -70616.17, -0.00084444624, 0.1276635, -1051956.1, -122555.58, 0.0, 9.9994955, 9.998629 
9.6500343e+2, 2.151625e+2, -837393.75, -988299.2, -78722.38, -0.13786663, 0.06736594, -803803.7, 27613.992, 0.0, 10.000611, 9.998611 
9.650033e+2, 2.251613e+2, -701518.56, -864738.2, 10647.458, -0.11472025, 0.08596463, -700826.94, 32603.182, 0.0, 10.000831, 9.99869 
9.6500576e+2, 2.3516038e+2, -696928.1, -809006.6, 17494.049, 0.07118635, 0.10376983, -694261.0, -58820.813, 0.0, 10.000175, 9.998712 
9.650063e+2, 2.4515957e+2, -538077.06, -611017.2, 5809.057, 0.09733267, 0.119727425, -537617.3, -169.90132, 0.0, 10.000283, 9.999351 
9.650053e+2, 2.5515863e+2, -321736.63, -458807.75, -27927.947, -0.018629996, 0.07248667, -316264.78, 123188.76, 0.0, 10.001116, 9.999319 
9.6500486e+2, 2.6515737e+2, -239908.92, -437258.53, -15959.804, -0.09173673, 0.049989708, -238626.58, 102836.984, 0.000000012060779, 10.001294, 9.998709 
9.6500516e+2, 2.7515545e+2, -220045.13, -379404.4, -46030.45, -0.12688504, -0.036169354, -207704.95, 35775.457, 0.0000023356135, 10.000769, 9.998686 
9.6500623e+2, 2.8515476e+2, -176666.98, -333812.28, -33847.996, -0.11493017, 0.0413189, -169686.44, -24198.928, 0.000028869204, 10.000512, 9.998445 
9.6500796e+2, 2.9515514e+2, -82582.59, -244257.64, -60225.56, -0.048632044, 0.20767437, -62614.246, -15128.082, 0.00012890252, 10.000507, 9.998391 
9.650108e+2, 3.051536e+2, -24419.611, -228744.69, 7572.946, 0.059922818, 0.23721208, -24139.318, -24139.318, 0.00034520676, 10.000745, 9.998054 
9.6501344e+2, 3.1514877e+2, 40598.906, -118142.55, -21125.102, 0.093212806, -0.079957165, 43362.11, 43362.11, 0.0006746772, 10.00081, 9.998775 
9.750047e+2, 1.2516294e+2, -1791626.1, -1680081.6, -58884.727, 0.03421868, 0.22918676, -1654749.3, 58673.09, 0.000058506626, 9.999091, 10.000664 
9.7500545e+2, 1.3516328e+2, -1821449.1, -1619554.6, -40760.355, 0.045096517, 0.15163249, -1611636.1, 3782.0313, 0.00001444443, 9.998171, 10.000849 
9.750061e+2, 1.4516369e+2, -1748389.4, -1576225.8, -32827.938, 0.042760585, 0.13299786, -1570178.5, -52765.504, 0.0000005546723, 9.998173, 10.0004635 
9.750062e+2, 1.5516527e+2, -1485955.6, -1404722.9, -22208.078, -0.058562927, 0.21799582, -1399047.9, 20348.205, 0.0, 9.9993305, 10.000411 
9.7500634e+2, 1.6516562e+2, -1381037.1, -1406540.5, -109846.055, -0.069953, 0.2625477, -1283205.0, 38186.875, 0.0, 9.999816, 9.9994955 
9.750066e+2, 1.7516464e+2, -1302083.1, -1319038.9, -107546.96, 0.023261951, 0.19320308, -1202680.4, 20720.865, 0.0, 9.999689, 9.999485 
9.750063e+2, 1.851639e+2, -1197604.1, -1143520.9, -83771.92, 0.026357451, 0.13972354, -1082534.1, 42872.316, 0.0, 9.999401, 10.000158 
9.750053e+2, 1.951631e+2, -1156913.1, -1077844.6, -41582.758, -0.05916558, 0.021786632, -1060002.1, -32591.742, 0.0, 9.999027, 10.000114 
9.7500527e+2, 2.0516238e+2, -1108699.0, -1162514.9, -40681.273, -0.050974194, 0.01391749, -1086831.9, -157415.64, 0.0, 9.999392, 9.998678 
9.7500604e+2, 2.1516144e+2, -851609.06, -990728.5, -28745.557, 0.045841258, 0.030364906, -845903.5, -14477.019, 0.0, 10.00049, 9.998657 
9.750058e+2, 2.2516045e+2, -690272.5, -807712.8, -26130.678, 0.03415971, 0.04566688, -684720.8, 48715.133, 0.0, 10.000688, 9.999146 
9.750046e+2, 2.3515917e+2, -692762.06, -758952.9, 2806.0906, -0.072628856, -0.01850437, -692643.3, -57196.227, 0.0, 10.000002, 9.999136 
9.7500455e+2, 2.4515872e+2, -595057.44, -706538.94, 25806.29, -0.12861946, 0.045535617, -589373.5, -51921.535, 0.0, 10.000181, 9.998747 
9.750054e+2, 2.551588e+2, -373697.34, -550060.94, 14750.526, -0.14135876, 0.15577643, -372472.16, 66981.05, 0.0, 10.00104, 9.998731 
9.750061e+2, 2.6515722e+2, -283865.94, -512005.06, -46393.28, -0.12527163, 0.15397379, -274792.47, 66674.7, 0.0000000034767167, 10.001225, 9.998226 
9.7500664e+2, 2.7515382e+2, -262925.88, -453747.34, -52743.93, -0.08240272, -0.031382475, -249317.66, -5821.8755, 0.0000028342504, 10.000706, 9.998204 
9.7500724e+2, 2.8515166e+2, -204328.25, -383346.0, -43002.62, -0.08826465, -0.058523756, -194534.23, -49018.05, 0.000032313746, 10.000481, 9.99812 
9.750078e+2, 2.9515055e+2, -110855.4, -293551.2, -42204.223, -0.14877892, -0.009596197, -101577.08, -54046.56, 0.00013997531, 10.000469, 9.998072 
9.750113e+2, 3.0514964e+2, 596.1011, -158726.97, 4383.948, 0.009479458, 0.076163925, 716.63904, 716.63904, 0.00037147623, 10.0006695, 9.998572 
9.750157e+2, 3.1514707e+2, 89866.74, 5969.532, 20397.313, 0.18471009, -0.072799176, 94562.92, 94562.92, 0.00072750956, 10.000721, 9.999666 
9.8500323e+2, 1.2516084e+2, -1923324.4, -1742911.1, -3833.906, 0.034833435, 0.18292424, -1742829.8, -29390.879, 0.00008108169, 9.998193, 10.000669 
9.850039e+2, 1.3516079e+2, -1716322.5, -1574725.4, -45392.426, 0.050563358, 0.07025388, -1561423.4, 54015.066, 0.000022462764, 9.998906, 10.00081 
9.8500496e+2, 1.4516142e+2, -1631257.4, -1532766.0, -3981.343, 0.07222613, 0.082779445, -1532605.4, -15172.706, 0.0000013019285, 9.999016, 10.0003605 
9.850051e+2, 1.5516387e+2, -1573911.0, -1455394.3, -12072.159, -0.06773814, 0.259385, -1454177.1, -34766.266, 0.0, 9.998754, 10.00034 
9.850056e+2, 1.6516437e+2, -1502227.9, -1414410.9, -54048.3, -0.060726956, 0.30007887, -1388683.4, -67278.336, 0.0, 9.998766, 9.999947 
9.850067e+2, 1.7516288e+2, -1357885.1, -1294319.0, -23872.8, 0.09644614, 0.13765222, -1286351.9, -62936.023, 0.0, 9.999089, 9.999942 
9.850065e+2, 1.8516228e+2, -1200375.8, -1161654.3, -888.92535, 0.115754366, 0.08243814, -1161633.8, -36213.91, 0.0, 9.999461, 10.000002 
9.850052e+2, 1.9516222e+2, -1055195.5, -1046063.25, -57564.08, -0.008085754, 0.053663086, -992884.5, 34535.582, 0.0, 9.999806, 9.999956 
9.850053e+2, 2.0516178e+2, -963147.25, -1066906.5, -30750.555, -0.022324877, 0.07053207, -954718.56, -25294.445, 0.0, 10.000261, 9.998924 
9.850068e+2, 2.1516073e+2, -793937.7, -934661.25, -23932.514, 0.06824231, 0.049312763, -789978.94, 41455.484, 0.0, 10.000756, 9.998919 
9.850066e+2, 2.2515985e+2, -679810.2, -793737.44, -59609.96, 0.04992187, 0.058635615, -654322.6, 79119.26, 0.0, 10.000711, 9.999233 
9.850048e+2, 2.3515896e+2, -666304.44, -738105.2, -77003.695, -0.063703075, 0.024448933, -617243.6, 18205.018, 0.0, 10.000143, 9.999214 
9.850047e+2, 2.4515831e+2, -641866.1, -786298.8, 8050.577, -0.12130618, 0.09096672, -641418.8, -103962.68, 0.0, 10.00012, 9.998222 
9.850063e+2, 2.5515753e+2, -466658.0, -656831.56, -22653.352, -0.13150935, 0.16964987, -463996.78, -24529.303, 0.0, 10.000661, 9.998184 
9.8500764e+2, 2.6515558e+2, -327296.63, -529626.7, -79885.445, -0.07489802, 0.15637566, -299558.4, 41926.914, 0.00000001775074, 10.000919, 9.99826 
9.850088e+2, 2.7515233e+2, -229034.16, -435901.25, -71962.65, 0.05607998, -0.013719113, -206463.25, 37047.844, 0.000003544514, 10.000933, 9.998225 
9.8500913e+2, 2.8514996e+2, -111307.08, -378684.5, -3772.1045, 0.017255042, -0.04568308, -111253.87, 34279.598, 0.00003520851, 10.001281, 9.997781 
9.8500854e+2, 2.9514822e+2, 70430.01, -243546.47, -26365.422, -0.18181358, -0.024364641, 72628.586, 120183.17, 0.00014919741, 10.001869, 9.997747 
9.8501194e+2, 3.0514723e+2, 140868.44, -101268.016, -3094.8413, -0.028065212, 0.0718191, 140907.98, 140907.98, 0.00039500848, 10.001676, 9.99848 
9.850173e+2, 3.1514516e+2, 75715.08, 21593.225, -69535.78, 0.28978652, -0.011851163, 123269.96, 123269.96, 0.0007743357, 10.000501, 9.999892 
9.950004e+2, 1.2515901e+2, -1952483.6, -1797742.8, -11697.581, -0.11364297, 0.10427678, -1796863.5, -83412.625, 0.000108580556, 9.998183, 10.000288 
9.9500275e+2, 1.3515978e+2, -1752298.4, -1639005.6, -12621.582, 0.0187969, 0.11603007, -1637616.5, -22172.256, 0.000033028722, 9.998874, 10.000379 
9.950043e+2, 1.4516005e+2, -1633434.6, -1534460.4, -29271.947, 0.07378901, 0.114627555, -1526451.3, -9008.11, 0.0000026281716, 9.998998, 10.00036 
9.9500376e+2, 1.5516092e+2, -1565724.3, -1445515.3, -12004.615, -0.102843866, 0.13414186, -1444328.1, -24891.705, 0.00000000019976186, 9.998777, 10.000401 
9.950039e+2, 1.6516118e+2, -1425962.5, -1253870.1, -53515.457, -0.13681017, 0.090004444, -1238586.0, 82844.61, 0.0, 9.998759, 10.00105 
9.950048e+2, 1.7516057e+2, -1283729.8, -1139726.1, -1948.693, -0.031556014, -0.096670434, -1139699.8, 83728.56, 0.0, 9.999083, 10.001007 
9.9500537e+2, 1.8516111e+2, -1291765.3, -1340346.1, -180.95844, 0.03088616, -0.02753504, -1291764.6, -166340.4, 0.0, 9.999414, 9.998799 
9.9500585e+2, 1.9516256e+2, -1145717.1, -1218236.1, -35259.42, 0.05496608, 0.21471524, -1131400.1, -103980.11, 0.0, 9.999739, 9.998808 
9.9500585e+2, 2.0516238e+2, -946815.9, -1004236.3, -25512.63, -0.00964229, 0.28775936, -937118.1, -7693.074, 0.0, 10.00014, 9.999413 
9.950055e+2, 2.1516037e+2, -781124.1, -873967.2, 3141.2324, -0.15801653, 0.12549318, -781018.0, 50423.246, 0.0, 10.000609, 9.999406 
9.950054e+2, 2.251596e+2, -721674.1, -841455.7, -91651.72, -0.15250385, 0.13351882, -672080.0, 61366.74, 0.0, 10.000547, 9.998982 
9.950057e+2, 2.3515977e+2, -705318.25, -784428.2, -87778.84, -0.000018106284, 0.228526, -648593.8, -13149.376, 0.0, 9.999998, 9.998963 
9.9500644e+2, 2.4515827e+2, -692782.2, -866474.56, 16501.707, 0.020539403, 0.2471086, -691228.3, -153768.11, 0.0, 10.000009, 9.9977255 
9.9500763e+2, 2.5515488e+2, -515492.84, -732464.2, 7588.411, -0.081840366, 0.11584006, -515227.78, -75731.93, 0.0, 10.000547, 9.99772 
9.9500924e+2, 2.6515257e+2, -308325.84, -471127.22, -89105.93, -0.026063373, 0.06784476, -269037.1, 72479.48, 0.000000028595345, 10.000838, 9.998701 
9.9501115e+2, 2.7515104e+2, -211992.25, -379891.75, -57361.938, 0.17352544, 0.023085715, -194266.28, 49259.48, 0.000003781716, 10.000847, 9.9986515 
9.950114e+2, 2.8514957e+2, -145868.69, -430434.53, 8334.7295, 0.094867155, 0.07732794, -145624.78, -85.03915, 0.000036350866, 10.001197, 9.997462 
9.9501e+2, 2.9514813e+2, 44554.637, -285539.88, 9724.673, -0.24889612, 0.15692024, 44840.883, 92399.57, 0.00015454051, 10.001826, 9.997475 
9.950128e+2, 3.0514634e+2, 84280.78, -216927.03, -51316.57, -0.13730423, 0.2259489, 92783.53, 92783.53, 0.00041140616, 10.001665, 9.997694 
9.950173e+2, 3.1514287e+2, 25106.266, -46813.008, -77795.45, 0.1847332, 0.08146949, 74850.94, 74850.94, 0.00080725906, 10.000355, 9.99949 
1.0049993e+3, 1.2515686e+2, -1884775.5, -1758528.1, -24433.883, -0.058756366, 0.05125306, -1753964.3, -40495.895, 0.00014134821, 9.998613, 10.000355 
1.0050009e+3, 1.3515802e+2, -1785427.4, -1645344.4, -16202.374, -0.025413292, 0.09424945, -1643494.8, -28037.127, 0.000046426092, 9.998612, 10.000454 
1.0050028e+3, 1.4515828e+2, -1689575.1, -1542186.3, 8355.408, 0.046871573, 0.08075975, -1541714.1, -24257.627, 0.00000474816, 9.998553, 10.000512 
1.0050026e+3, 1.5515882e+2, -1570455.4, -1432741.6, 4214.5435, -0.08637935, 0.05494911, -1432612.8, -13159.368, 0.000000004412824, 9.9986925, 10.00053 
1.00500286e+3, 1.6515933e+2, -1374054.4, -1204853.3, -31177.156, -0.12361147, 0.01960886, -1199291.4, 122154.19, 0.0, 9.999002, 10.001278 
1.0050036e+3, 1.7515957e+2, -1217417.5, -1081360.8, -65446.438, -0.06806926, -0.105832875, -1054990.5, 168444.98, 0.0, 9.999425, 10.001246 
1.0050045e+3, 1.8516031e+2, -1263841.1, -1364731.6, -41215.42, -0.007564368, -0.01169467, -1249144.8, -123714.305, 0.0, 9.999776, 9.998451 
1.00500576e+3, 1.9516128e+2, -1115325.5, -1242944.9, -33110.715, 0.059478052, 0.21859208, -1107246.4, -79814.26, 0.0, 10.000124, 9.998447 
1.00500606e+3, 2.0516095e+2, -967541.8, -998624.9, -2291.2615, 0.010848731, 0.28791544, -967373.8, -37934.75, 0.0, 9.999929, 9.999548 
1.0050055e+3, 2.1515915e+2, -985047.06, -959412.3, -23925.879, -0.1499092, 0.13115942, -945086.9, -113633.81, 0.0, 9.999153, 9.99952 
1.0050055e+3, 2.2515832e+2, -873122.6, -930133.2, -81801.06, -0.14993487, 0.13480783, -815002.5, -81543.35, 0.0, 9.999577, 9.998846 
1.0050062e+3, 2.3515815e+2, -549053.8, -727814.0, -94323.09, 0.002976508, 0.2103903, -508489.1, 126971.34, 0.0, 10.001145, 9.998805 
1.00500755e+3, 2.4515639e+2, -476055.03, -768357.75, 28541.416, 0.0601105, 0.21575953, -473294.25, 64184.26, 0.0, 10.001515, 9.997676 
1.0050094e+3, 2.5515297e+2, -491005.63, -719083.3, 32337.27, 0.036459807, 0.083626494, -486509.4, -46995.32, 0.0, 10.000729, 9.997713 
1.00501075e+3, 2.65151e+2, -368144.7, -502881.47, -39106.45, 0.0712206, 0.068996884, -357616.88, -16084.497, 0.000000017098808, 10.000444, 9.998663 
1.0050116e+3, 2.7515e+2, -257636.66, -405385.63, -66759.45, 0.15583014, 0.08296911, -231940.75, 11597.087, 0.000003428396, 10.000549, 9.998612 
1.0050121e+3, 2.8514862e+2, -215901.69, -445427.78, 37008.465, 0.079255216, 0.13674466, -210082.05, -64531.32, 0.00003625069, 10.000632, 9.997628 
1.0050123e+3, 2.9514667e+2, -123082.734, -353745.4, 48541.734, -0.133243, 0.15310368, -113283.67, -65711.61, 0.00015742959, 10.000596, 9.997605 
1.0050149e+3, 3.0514452e+2, -75039.234, -305934.06, 14098.234, -0.031478073, 0.18354452, -74181.59, -74181.59, 0.0004215928, 10.000623, 9.997586 
1.0050176e+3, 3.1514144e+2, 53249.402, -35227.473, -706.9054, 0.18829656, 0.08931381, 53255.05, 53255.05, 0.0008275706, 10.000541, 9.999487 
1.0149991e+3, 1.2515453e+2, -1845195.1, -1670921.3, -70325.83, 0.0062418687, 0.023937592, -1646082.5, 67408.016, 0.0001798155, 9.998591, 10.000959 
1.0149982e+3, 1.3515554e+2, -1741072.3, -1560949.3, -9007.635, -0.1911179, -0.006033045, -1560499.9, 54978.254, 0.000062927356, 9.998636, 10.001021 
1.0149999e+3, 1.4515616e+2, -1679540.5, -1516874.6, -2573.5337, -0.12503894, -0.024136197, -1516834.0, 638.57385, 0.000007860604, 9.998537, 10.00069 
1.0150013e+3, 1.551576e+2, -1564579.9, -1414270.1, 20168.496, -0.10615259, 0.023253039, -1411610.9, 7850.4917, 0.000000028517778, 9.998672, 10.000664 
1.0150023e+3, 1.651589e+2, -1416980.0, -1292634.8, -26919.648, -0.10665866, 0.09285642, -1287057.0, 34391.86, 0.0, 9.998995, 10.000679 
1.01500295e+3, 1.7515993e+2, -1257188.5, -1167725.9, -40032.758, -0.099932455, 0.10458067, -1152427.9, 71009.164, 0.0, 9.9994335, 10.000651 
1.0150037e+3, 1.8515988e+2, -1234796.8, -1295932.4, -38977.332, -0.09175663, 0.12434356, -1215830.5, -90392.05, 0.0, 9.999739, 9.998941 
1.0150047e+3, 1.951585e+2, -1093388.0, -1178794.3, -10473.951, -0.085305855, 0.06968736, -1092122.3, -64666.984, 0.0, 10.000039, 9.998929 
1.0150055e+3, 2.0515764e+2, -1001596.25, -1040979.2, -42897.586, -0.05654082, 0.07411641, -974086.5, -44621.523, 0.0, 9.999811, 9.999313 
1.0150062e+3, 2.1515705e+2, -1018042.5, -1000669.1, -43724.285, -0.0031783404, 0.062098935, -964777.0, -133307.05, 0.0, 9.999038, 9.999291 
1.0150064e+3, 2.25156e+2, -901381.7, -952483.6, -34664.78, -0.035680734, 0.057456937, -883868.75, -150389.58, 0.0, 9.999424, 9.998763 
1.015006e+3, 2.351542e+2, -573172.06, -746723.0, -26451.438, -0.149878, -0.021365745, -569230.06, 66265.21, 0.0, 10.001011, 9.998736 
1.0150077e+3, 2.4515288e+2, -469425.13, -720470.7, -13322.248, -0.09231128, 0.011287393, -468720.13, 68788.57, 0.0, 10.001373, 9.998071 
1.0150112e+3, 2.5515178e+2, -477880.72, -671337.0, 13946.912, 0.124423556, 0.07068954, -476880.4, -37358.56, 0.0, 10.00064, 9.998084 
1.0150119e+3, 2.6515064e+2, -411759.06, -577810.5, -42942.297, 0.12227581, 0.14755684, -401311.2, -59777.27, 0.000000011022683, 10.000376, 9.998183 
1.01500995e+3, 2.7514926e+2, -297947.2, -471515.2, -47436.207, -0.09330178, 0.1669934, -285828.94, -42281.836, 0.0000031084232, 10.000475, 9.998193 
1.0150111e+3, 2.8514713e+2, -183006.52, -363357.4, 26189.807, -0.11346908, 0.13822588, -179280.33, -33714.363, 0.000035475467, 10.000577, 9.998215 
1.015015e+3, 2.9514414e+2, -101255.266, -277474.06, 62564.188, 0.044786304, -0.013696037, -81301.98, -33709.582, 0.00015859005, 10.000478, 9.998178 
1.01501785e+3, 3.0514187e+2, -45508.082, -236405.58, 5199.2686, 0.17735712, -0.04173909, -45366.58, -45366.58, 0.00042792913, 10.000575, 9.998093 
1.0150177e+3, 3.151408e+2, 66765.59, 26276.348, 36267.98, 0.08851052, 0.009062247, 88056.63, 88056.63, 0.00084075227, 10.000408, 9.9999695 
1.02499716e+3, 1.2515333e+2, -1830968.5, -1626362.5, -25042.61, -0.022926562, 0.046011634, -1623342.0, 90161.01, 0.00022439056, 9.998521, 10.001306 
1.02499686e+3, 1.3515444e+2, -1834724.3, -1574281.4, -11759.472, -0.13681261, -0.0027477166, -1573751.5, 41737.453, 0.0000828242, 9.997855, 10.001315 
1.024999e+3, 1.4515506e+2, -1773308.6, -1549742.5, 37574.273, -0.025683375, -0.040307857, -1543596.4, -26114.947, 0.000012107546, 9.997827, 10.000812 
1.0250002e+3, 1.5515642e+2, -1574889.5, -1407288.0, 35362.53, -0.06321584, -0.0145782735, -1400132.3, 19336.426, 0.00000009714164, 9.998535, 10.000775 
1.0250015e+3, 1.6515769e+2, -1480194.8, -1399663.6, 4261.883, -0.08085509, 0.07937686, -1399438.8, -77980.44, 0.0, 9.998908, 9.999975 
1.0250027e+3, 1.7515874e+2, -1350023.6, -1283467.1, -39755.863, -0.05115878, 0.16476838, -1264899.8, -41448.617, 0.0, 9.999123, 9.999995 
1.0250036e+3, 1.851584e+2, -1244070.5, -1229697.5, -18572.951, -0.054951973, 0.1556723, -1216969.3, -91514.445, 0.0, 9.999359, 9.999586 
1.02500424e+3, 1.951565e+2, -1119159.1, -1119629.5, 2328.2402, -0.10505566, -0.017413102, -1117054.3, -89582.99, 0.0, 9.999553, 9.999574 
1.02500536e+3, 2.051556e+2, -1014076.4, -1095797.1, -25181.455, -0.04875803, -0.025402455, -1006940.1, -77459.734, 0.0, 9.999943, 9.9988785 
1.0250072e+3, 2.1515542e+2, -831848.9, -959939.56, -63411.97, 0.11699384, 0.052516513, -805767.2, 25717.607, 0.0, 10.000536, 9.998852 
1.02500744e+3, 2.2515447e+2, -736866.56, -855731.2, -12812.849, 0.0771492, 0.07204925, -735501.06, -2006.7177, 0.0, 10.000478, 9.998918 
1.02500625e+3, 2.3515253e+2, -756033.3, -817361.3, -8427.849, -0.15859307, -0.03566603, -754896.2, -119385.1, 0.0, 9.999694, 9.998885 
1.02500804e+3, 2.4515136e+2, -675576.56, -788767.94, 15751.581, -0.11772276, -0.01002831, -673425.5, -135903.14, 0.0, 9.999837, 9.998334 
1.0250124e+3, 2.5515062e+2, -440803.72, -628249.2, 6433.952, 0.17972292, 0.06090784, -440583.16, -1051.9263, 0.0, 10.00079, 9.998307 
1.025013e+3, 2.6514944e+2, -301991.22, -564535.56, -29644.092, 0.1614914, 0.14189702, -298685.7, 42858.566, 0.00000001218603, 10.001296, 9.997835 
1.0250103e+3, 2.7514762e+2, -195104.1, -456972.03, -47248.418, -0.14299372, 0.15215357, -186839.94, 56723.56, 0.0000027111198, 10.001338, 9.997876 
1.0250117e+3, 2.8514546e+2, -55653.168, -253814.3, 37440.598, -0.12520812, 0.11270437, -48815.098, 96767.586, 0.00003356273, 10.001259, 9.998632 
1.0250172e+3, 2.9514268e+2, 4218.232, -181839.81, 32756.98, 0.19431974, -0.055933565, 9816.887, 57421.746, 0.00015687123, 10.001013, 9.998574 
1.0250198e+3, 3.051405e+2, 46945.03, -148113.7, -972.53314, 0.29924852, -0.11388256, 46949.883, 46949.883, 0.00042992222, 10.001053, 9.998453 
1.0250182e+3, 3.1514007e+2, 197650.9, 123828.914, -22126.072, 0.07360468, -0.033867937, 203774.61, 203774.61, 0.0008482756, 10.001158, 10.000276 
1.034993e+3, 1.2515324e+2, -1824513.1, -1619251.5, -104197.52, -0.34786597, 0.108858354, -1575628.4, 137878.08, 0.00027553758, 9.998547, 10.001342 
1.0349968e+3, 1.3515474e+2, -1844132.4, -1589561.1, -29431.16, 0.047675766, 0.10817146, -1586202.9, 29286.154, 0.000106410545, 9.997838, 10.001221 
1.0349998e+3, 1.4515503e+2, -1762380.4, -1529405.8, 49690.34, 0.24170904, 0.037164867, -1519250.1, -1767.5459, 0.000017580353, 9.997834, 10.000949 
1.0349991e+3, 1.5515529e+2, -1563213.4, -1385523.1, 69528.18, -0.05612518, -0.06377099, -1361551.5, 57924.055, 0.00000023822265, 9.99854, 10.000926 
1.035e+3, 1.6515568e+2, -1542567.4, -1520364.1, -2966.3867, -0.14627299, -0.02249849, -1519974.6, -198501.44, 0.0, 9.998878, 9.999159 
1.0350025e+3, 1.7515604e+2, -1413104.6, -1404543.4, -22183.36, -0.006877743, 0.0740727, -1386231.4, -162754.16, 0.0, 9.999082, 9.999184 
1.0350038e+3, 1.8515596e+2, -1194372.0, -1114109.4, -24052.535, 0.01136871, 0.08978152, -1107453.4, 18025.281, 0.0, 9.999306, 10.000406 
1.0350042e+3, 1.9515523e+2, -1073730.0, -1010284.1, 16211.015, -0.091702774, -0.046926595, -1006382.0, 21098.05, 0.0, 9.999483, 10.0003605 
1.0350055e+3, 2.0515478e+2, -1079521.4, -1202404.0, -15266.369, -0.053994957, -0.01498893, -1077653.3, -148167.56, 0.0, 9.999817, 9.998206 
1.0350079e+3, 2.1515426e+2, -890990.6, -1060012.1, -30419.701, 0.12625577, 0.09286653, -885682.5, -54184.473, 0.0, 10.000431, 9.998217 
1.0350083e+3, 2.2515373e+2, -733195.06, -811731.75, -52766.27, 0.101404056, 0.16755784, -706688.94, 26816.24, 0.0, 10.000326, 9.999292 
1.0350065e+3, 2.3515303e+2, -746713.25, -769670.0, -25952.203, -0.12073361, 0.14537619, -729814.4, -94305.47, 0.0, 9.999571, 9.999271 
1.03500806e+3, 2.4515167e+2, -695140.75, -795031.9, 43510.324, -0.1146109, 0.13277128, -678846.56, -141325.9, 0.0, 9.999695, 9.998359 
1.0350127e+3, 2.5514948e+2, -453219.16, -629479.75, 55168.508, 0.10846055, 0.054523464, -437375.84, 2166.1196, 0.0, 10.000688, 9.998347 
1.035014e+3, 2.6514745e+2, -327715.28, -598808.56, -37460.098, 0.10667405, 0.05787024, -322634.22, 18928.238, 0.00000000560088, 10.001217, 9.997635 
1.0350122e+3, 2.7514523e+2, -227108.56, -495648.88, -31954.541, -0.10571805, 0.0472527, -223358.55, 20227.098, 0.0000022721786, 10.001231, 9.997658 
1.03501394e+3, 2.8514358e+2, -48862.28, -225966.8, 18996.236, -0.06294179, 0.060760085, -46847.664, 98752.91, 0.000031159278, 10.001198, 9.998853 
1.0350186e+3, 2.9514247e+2, 7937.3745, -151819.06, 41580.586, 0.20658796, 0.036287244, 18111.78, 65719.484, 0.00015252481, 10.000925, 9.998819 
1.0350205e+3, 3.0514047e+2, 44329.625, -146078.17, -3143.6682, 0.24335381, -0.022559037, 44381.51, 44381.51, 0.00042681763, 10.0010195, 9.998484 
1.03501834e+3, 3.1513953e+2, 174636.47, 125638.484, 16972.74, -0.08908854, 0.00059665035, 179941.4, 179941.4, 0.00084848254, 10.0009775, 10.000359 
1.0449916e+3, 1.2515256e+2, -2083633.8, -1767015.5, -22167.06, -0.25236613, 0.05477171, -1765471.1, -51961.438, 0.0003338259, 9.99685, 10.001149 
1.04499586e+3, 1.3515438e+2, -1612434.0, -1508866.6, 26462.01, 0.09499357, 0.11106988, -1502497.1, 112994.13, 0.00013404706, 9.999546, 10.000947 
1.04499914e+3, 1.4515448e+2, -1420887.5, -1400716.5, 76522.93, 0.27828604, 0.04971382, -1333617.3, 183869.92, 0.000024406929, 10.000342, 10.000625 
1.0449989e+3, 1.5515405e+2, -1432148.8, -1352284.1, 31766.563, 0.011855412, -0.08446267, -1341189.9, 78295.7, 0.0000004785213, 9.99959, 10.000646 
1.0449995e+3, 1.6515402e+2, -1436093.8, -1463025.9, 16265.464, -0.10344142, -0.07552412, -1428443.5, -106956.9, 0.0, 9.99957, 9.999225 
1.04500145e+3, 1.7515415e+2, -1238552.0, -1314597.3, 45796.438, -0.055679664, -0.0098580755, -1217051.3, 6441.1216, 0.0, 10.000247, 9.999242 
1.0450033e+3, 1.8515424e+2, -1075941.0, -1099215.6, 29431.797, -0.018878663, 0.041466158, -1055929.4, 69564.27, 0.0, 10.000315, 10.000017 
1.04500465e+3, 1.9515418e+2, -1043965.9, -1035743.44, -43626.445, 0.0029599357, 0.00963768, -996034.94, 31457.53, 0.0, 9.999873, 9.999992 
1.045006e+3, 2.0515393e+2, -1043850.94, -1124182.8, -32279.361, 0.018354543, 0.05310906, -1032487.6, -102991.77, 0.0, 9.999793, 9.9987545 
1.0450072e+3, 2.1515323e+2, -922598.5, -1014079.3, 23280.877, 0.0370885, 0.08739587, -917014.6, -85508.1, 0.0, 9.999955, 9.998758 
1.0450079e+3, 2.2515272e+2, -729199.2, -833994.9, 25425.012, 0.040907696, 0.14577898, -723356.44, 10156.729, 0.0, 10.000444, 9.999087 
1.0450083e+3, 2.3515213e+2, -518437.13, -686150.56, -14992.399, 0.025383476, 0.15815789, -517107.44, 118410.62, 0.0, 10.001236, 9.99905 
1.04501e+3, 2.4515083e+2, -470496.25, -674125.94, 59699.656, 0.04014183, 0.1570779, -454284.34, 83245.18, 0.0, 10.001162, 9.998493 
1.0450129e+3, 2.5514868e+2, -506007.25, -639981.0, 58400.81, 0.0883078, 0.0654351, -484124.0, -44574.773, 0.0, 10.000244, 9.998492 
1.0450146e+3, 2.651465e+2, -412223.03, -605278.6, 29957.7, 0.090015225, 0.027821826, -407681.16, -66111.25, 0.0000000009945924, 10.000487, 9.997948 
1.0450152e+3, 2.751438e+2, -127919.836, -421021.16, 50023.953, 0.05068925, -0.054838013, -119617.37, 123978.53, 0.0000020282196, 10.001765, 9.997928 
1.0450169e+3, 2.8514242e+2, 62465.2, -223506.02, 82000.1, 0.07804343, -0.001825875, 84309.51, 229918.7, 0.00002862002, 10.002169, 9.998413 
1.04501955e+3, 2.9514232e+2, 92337.61, -159497.42, 26036.424, 0.17210233, 0.11613293, 95001.26, 142611.95, 0.00014590684, 10.001699, 9.998403 
1.0450211e+3, 3.0514005e+2, 126917.37, -163674.84, -15608.891, 0.17294686, 0.07385054, 127753.38, 127753.38, 0.0004168189, 10.001837, 9.997965 
1.0450205e+3, 3.151378e+2, 333654.56, 127583.17, -78655.02, -0.018285176, 0.028509066, 360245.13, 360245.13, 0.0008363063, 10.002339, 9.9997425 
1.05499215e+3, 1.2515132e+2, -2108208.5, -1810065.5, 22431.672, 0.06043078, -0.12745, -1808387.3, -94874.98, 0.00039971265, 9.996829, 10.000857 
1.0549938e+3, 1.3515346e+2, -1646591.1, -1571467.0, 134916.66, -0.09855691, 0.0035528834, -1468981.3, 146513.44, 0.00016604259, 9.999518, 10.000529 
1.05499685e+3, 1.4515357e+2, -1476423.5, -1520092.1, 33112.926, -0.028110275, 0.0065402007, -1458594.3, 58899.29, 0.000032768716, 10.000355, 9.9998 
1.054999e+3, 1.551528e+2, -1491887.5, -1476650.9, 14963.277, 0.049401186, -0.081067786, -1467478.1, -47980.02, 0.0000008393984, 9.999581, 9.999801 
1.0549999e+3, 1.6515274e+2, -1372233.1, -1319250.9, 30412.99, -0.051919747, -0.0842425, -1305409.3, 16088.812, 0.0, 9.999529, 10.000226 
1.0549996e+3, 1.751531e+2, -1173837.3, -1176941.3, 77946.69, -0.29031134, -0.09366561, -1097427.1, 126068.86, 0.0, 10.000234, 10.000192 
1.0550016e+3, 1.8515337e+2, -1198787.8, -1340253.8, -431.47815, -0.2378996, 0.01016597, -1198786.5, -73287.75, 0.0, 10.000257, 9.998388 
1.0550055e+3, 1.9515333e+2, -1166434.0, -1271435.5, -49442.785, 0.08037705, 0.14165424, -1146817.4, -119309.05, 0.0, 9.999793, 9.998413 
1.05500646e+3, 2.0515311e+2, -938973.2, -878695.56, -38406.91, 0.075822316, 0.17757747, -860013.94, 69496.75, 0.0, 9.999674, 10.000497 
1.0550047e+3, 2.1515244e+2, -821650.5, -778317.25, 38818.445, -0.23218246, 0.038588677, -755528.1, 75981.28, 0.0, 9.999836, 10.000437 
1.0550064e+3, 2.2515143e+2, -811132.9, -969057.7, 44893.75, -0.18992689, 0.0115121035, -799263.0, -65745.1, 0.0, 10.000295, 9.998229 
1.0550114e+3, 2.3514989e+2, -593565.4, -812991.75, 24869.525, 0.18582039, 0.008529618, -590782.0, 44755.85, 0.0, 10.00111, 9.998237 
1.0550135e+3, 2.4514893e+2, -471227.34, -647308.44, 13212.531, 0.25006607, 0.06730795, -470241.44, 67306.8, 0.0, 10.0010395, 9.998735 
1.0550127e+3, 2.5514826e+2, -504830.63, -612697.1, 33310.625, 0.022325862, 0.100985885, -495373.1, -55821.01, 0.0, 10.000138, 9.99873 
1.05501465e+3, 2.6514646e+2, -372962.8, -501014.1, 69605.945, 0.023264281, 0.054730535, -342414.28, -847.71234, 0.000000000012280949, 10.000394, 9.998704 
1.05501905e+3, 2.751434e+2, -88550.63, -317660.06, 113265.875, 0.23243532, -0.14790846, -42009.29, 201583.9, 0.0000016155456, 10.0016775, 9.998674 
1.0550206e+3, 2.8514218e+2, -25291.178, -393305.44, 54043.016, 0.2102654, -0.06144078, -17519.082, 128087.94, 0.000025303238, 10.002113, 9.997275 
1.0550195e+3, 2.9514235e+2, -2369.1602, -334681.06, 25780.182, -0.020567829, 0.20172471, -381.07227, 47230.76, 0.000137169, 10.001615, 9.997241 
1.0550212e+3, 3.051392e+2, 44892.375, -325941.66, -88.7368, -0.024086537, 0.18652691, 44892.395, 44892.395, 0.0004008363, 10.001793, 9.996873 
1.0550244e+3, 3.1513518e+2, 229547.06, -53070.293, -23240.416, 0.079260096, 0.06685061, 231445.44, 231445.44, 0.00081260194, 10.002196, 9.998567 
1.064991e+3, 1.251497e+2, -1910680.4, -1741766.5, -49795.94, 0.19470236, -0.16454582, -1728179.5, -14653.577, 0.00047318285, 9.998305, 10.000617 
1.0649929e+3, 1.3515179e+2, -1759495.4, -1654738.9, 52744.035, -0.08761125, -0.0064628045, -1632784.0, -17273.838, 0.00020250746, 9.9988785, 10.000267 
1.0649956e+3, 1.4515206e+2, -1650419.4, -1587652.0, -53466.168, -0.106257886, 0.01743957, -1557039.1, -39530.88, 0.000042863663, 9.999085, 9.999953 
1.06499806e+3, 1.5515131e+2, -1547852.3, -1482243.6, -23550.23, 0.022903593, -0.084918275, -1474665.5, -55152.844, 0.0000013547858, 9.999108, 9.999985 
1.0649994e+3, 1.6515134e+2, -1392787.3, -1328797.8, 55958.44, -0.0423834, -0.088363215, -1296333.1, 25178.447, 0.0, 9.99937, 10.00025 
1.065e+3, 1.7515199e+2, -1225952.9, -1197505.1, 7132.012, -0.25253317, -0.070008725, -1195817.3, 27689.393, 0.0, 9.999851, 10.000245 
1.0650021e+3, 1.8515241e+2, -1214479.0, -1346813.1, -48506.18, -0.20608859, 0.04384891, -1198603.8, -73095.62, 0.0, 10.000124, 9.998412 
1.06500536e+3, 1.9515233e+2, -1101536.3, -1241177.9, 5870.434, 0.07034031, 0.17161128, -1101289.9, -73771.54, 0.0, 10.000217, 9.998424 
1.06500626e+3, 2.0515192e+2, -847540.8, -818287.2, 44563.953, 0.06432002, 0.17817381, -786011.0, 143511.2, 0.0, 10.000236, 10.000638 
1.0650049e+3, 2.1515098e+2, -754896.3, -727445.75, -22600.086, -0.20143786, 0.00009657181, -714729.6, 116792.234, 0.0, 10.000227, 10.00059 
1.06500685e+3, 2.2515002e+2, -784448.56, -960641.0, 492.8162, -0.16479076, -0.028746732, -784447.2, -50917.445, 0.0, 10.000493, 9.998197 
1.0650121e+3, 2.3514879e+2, -617033.94, -826034.1, 20355.506, 0.16313723, 0.0038898708, -615069.9, 20478.0, 0.0, 10.000958, 9.99822 
1.0650144e+3, 2.451479e+2, -421005.1, -605546.9, 18117.918, 0.23231271, 0.062417675, -419243.16, 118314.695, 0.0, 10.00132, 9.998883 
1.0650138e+3, 2.5514704e+2, -281406.56, -492034.3, 7256.916, 0.050933238, 0.06486888, -281156.8, 158406.27, 0.0, 10.001617, 9.998851 
1.0650161e+3, 2.6514548e+2, -176947.22, -405477.6, 64039.984, 0.06561524, 0.036873635, -160225.19, 181350.34, 0.0, 10.001728, 9.998717 
1.065021e+3, 2.7514312e+2, -105654.66, -318375.22, 21833.63, 0.2692052, -0.09616468, -103436.77, 140159.38, 0.00000091217555, 10.001538, 9.998729 
1.0650226e+3, 2.8514194e+2, -88601.914, -432508.47, -19412.373, 0.22599158, -0.007840082, -87509.62, 58100.63, 0.000020741376, 10.001723, 9.99719 
1.0650212e+3, 2.9514137e+2, 87135.7, -305155.78, 7232.348, -0.043324202, 0.18958308, 87269.0, 134891.53, 0.00012515363, 10.002272, 9.997131 
1.0650233e+3, 3.051379e+2, 153015.48, -307946.1, 88183.4, -0.030849522, 0.16582003, 169309.3, 169309.3, 0.00037813088, 10.002674, 9.996569 
1.06502794e+3, 3.151342e+2, 288904.2, -52013.715, 77958.73, 0.19882959, 0.10160923, 305885.4, 305885.4, 0.0007771597, 10.002718, 9.998311 
1.0749873e+3, 1.251476e+2, -1931921.5, -1770900.4, -74094.83, -0.059330188, -0.06642003, -1741994.3, -28442.674, 0.00055371417, 9.998266, 10.000423 
1.0749932e+3, 1.3514946e+2, -1781004.3, -1683747.0, 77481.91, 0.022903353, 0.08636684, -1640897.9, -25360.48, 0.00024334127, 9.99883, 10.00008 
1.0749955e+3, 1.4515e+2, -1566881.0, -1418840.0, -70955.38, -0.05915967, 0.087930515, -1390324.3, 127206.83, 0.00005483326, 9.999089, 10.001118 
1.0749955e+3, 1.5514955e+2, -1465310.8, -1315585.6, -13871.056, -0.16882797, -0.102399915, -1314311.4, 105218.08, 0.000002073113, 9.999119, 10.001128 
1.0749977e+3, 1.6514994e+2, -1462571.1, -1465628.9, 60099.88, -0.16730781, -0.07929621, -1403980.6, -82454.516, 0.0000000000166348, 9.999342, 9.999319 
1.0750023e+3, 1.7515086e+2, -1291657.8, -1329305.8, 34926.324, -0.027955364, 0.05572703, -1270805.8, -47281.94, 0.0, 9.999829, 9.999349 
1.0750044e+3, 1.8515141e+2, -1107603.4, -1106720.3, -57096.465, -0.0128523065, 0.14201541, -1050063.6, 75457.74, 0.0, 10.000054, 10.000092 
1.0750039e+3, 1.9515131e+2, -999937.2, -1006892.25, 18316.996, -0.11903203, 0.09947414, -984770.56, 42751.242, 0.0, 10.000125, 10.000072 
1.075005e+3, 2.0515051e+2, -971066.9, -1047609.0, 30185.996, -0.09991526, 0.06392302, -960595.06, -31066.057, 0.0, 10.000119, 9.999122 
1.0750077e+3, 2.1514885e+2, -878056.5, -949174.4, -11842.55, 0.03634408, -0.03925117, -876136.3, -44591.902, 0.0, 10.00008, 9.99914 
1.07500955e+3, 2.2514844e+2, -750168.6, -852847.3, 8029.4478, 0.027251, 0.017127648, -749544.56, -15995.206, 0.0, 10.000338, 9.999012 
1.0750104e+3, 2.3514895e+2, -583300.25, -719973.6, 49773.48, -0.12178016, 0.14318734, -567095.2, 68451.8, 0.0, 10.000808, 9.999022 
1.0750126e+3, 2.4514784e+2, -444082.16, -621920.4, 21668.684, -0.096874945, 0.14342429, -441480.0, 96077.54, 0.0, 10.001186, 9.998833 
1.07501596e+3, 2.5514495e+2, -294859.97, -500861.03, 32123.137, 0.08680864, -0.05496844, -289967.0, 149615.63, 0.0, 10.001534, 9.998828 
1.07501864e+3, 2.6514345e+2, -246891.25, -525571.2, 46263.49, 0.13760282, -0.03546068, -239411.81, 102185.29, 0.000000000031670343, 10.001623, 9.997946 
1.07502066e+3, 2.7514306e+2, -172674.33, -438164.97, 29374.87, 0.06296538, 0.10055336, -169463.03, 74141.42, 0.00000057346807, 10.001453, 9.997952 
1.07502244e+3, 2.851418e+2, -27543.436, -291577.3, -10073.907, 0.020809038, 0.1722316, -27159.635, 118458.84, 0.000016659129, 10.001664, 9.998184 
1.07502416e+3, 2.951395e+2, 148000.52, -160152.38, 47324.535, -0.0007983922, 0.09518964, 155104.6, 202745.3, 0.000111912384, 10.002195, 9.998162 
1.0750271e+3, 3.051363e+2, 174217.2, -256576.19, 87366.69, 0.050578706, 0.027118545, 191261.2, 191261.2, 0.0003521945, 10.002641, 9.9969425 
1.0750305e+3, 3.1513473e+2, 294788.88, -14705.656, 118550.53, 0.13398278, 0.14126712, 334979.94, 334979.94, 0.0007370222, 10.002605, 9.99863 
1.0849857e+3, 1.251461e+2, -1717469.1, -1658917.3, -1590.4137, -0.095653445, 0.029730383, -1658874.1, 54694.563, 0.00064071716, 9.999673, 10.000531 
1.08499266e+3, 1.3514657e+2, -1792972.0, -1676700.6, 136979.28, 0.11422398, 0.028842276, -1586030.9, 29532.627, 0.00028839763, 9.998666, 10.000223 
1.0849945e+3, 1.4514716e+2, -1681600.6, -1469110.3, 5047.285, -0.02049994, 0.027276563, -1468990.4, 48566.07, 0.00006873226, 9.998313, 10.001127 
1.0849949e+3, 1.5514776e+2, -1508299.3, -1338657.6, -61771.734, -0.124434695, -0.054260153, -1318548.4, 101000.18, 0.0000030594845, 9.998844, 10.001098 
1.0849972e+3, 1.6514844e+2, -1495401.4, -1448231.0, 31507.852, -0.12710226, -0.01785017, -1432458.8, -110915.53, 0.000000000186287, 9.9989805, 9.999603 
1.0850017e+3, 1.7514895e+2, -1425830.8, -1362387.6, 73280.75, -0.015001881, 0.04846984, -1314257.3, -90714.86, 0.0, 9.998783, 9.999617 
1.0850039e+3, 1.8514934e+2, -1226446.3, -1102631.0, 10182.547, -0.0014566866, 0.07815573, -1101799.1, 23739.855, 0.0, 9.998968, 10.000651 
1.08500406e+3, 1.9514938e+2, -1060317.3, -973442.06, -21826.77, -0.083949134, -0.004742537, -968266.56, 59268.824, 0.0, 9.999451, 10.000628 
1.0850055e+3, 2.0514894e+2, -1040838.2, -1123145.1, 8745.945, -0.05185068, -0.012457571, -1039919.06, -110379.23, 0.0, 9.999823, 9.99874 
1.08500816e+3, 2.151477e+2, -903474.06, -1009128.2, 24205.479, 0.08533533, -0.03352181, -898192.6, -66637.42, 0.0, 10.000102, 9.99872 
1.08501e+3, 2.2514738e+2, -726104.75, -799283.6, 97163.13, 0.052290443, 0.034171835, -658870.0, 74689.98, 0.0, 10.0003395, 9.999374 
1.08501084e+3, 2.3514767e+2, -587505.75, -683785.0, 76757.01, -0.14227247, 0.10545485, -545041.5, 90515.484, 0.0, 10.000623, 9.999357 
1.08501345e+3, 2.4514653e+2, -494565.13, -690174.94, 40316.29, -0.11803186, 0.10444756, -486581.56, 50986.63, 0.0, 10.001019, 9.998456 
1.0850177e+3, 2.551438e+2, -338729.0, -564534.3, 4297.7793, 0.11331647, -0.03689492, -338647.22, 100947.54, 0.0, 10.001417, 9.998454 
1.0850205e+3, 2.651424e+2, -239658.52, -518723.97, 43306.324, 0.16498187, 0.009255059, -233092.58, 108517.086, 0.000000020287489, 10.001664, 9.997965 
1.0850221e+3, 2.7514198e+2, -127772.37, -416919.22, 58525.86, 0.0494479, 0.14375657, -116375.44, 127241.195, 0.0000009638229, 10.0017605, 9.997949 
1.0850243e+3, 2.8514057e+2, 11157.956, -251969.6, 53370.176, 0.032224145, 0.1905567, 21570.95, 167202.19, 0.00001551447, 10.001834, 9.998374 
1.0850272e+3, 2.9513803e+2, 95051.69, -159699.5, 16608.396, 0.114246294, 0.06764909, 96129.9, 143784.45, 0.000103287646, 10.001722, 9.998389 
1.08503036e+3, 3.0513495e+2, 148160.42, -208766.39, 69782.73, 0.15129414, -0.026807703, 161318.56, 161318.56, 0.00033301808, 10.002224, 9.997472 
1.0850337e+3, 3.15134e+2, 404602.22, 94597.766, 63184.098, 0.16891848, 0.103040904, 416985.53, 416985.53, 0.00070935563, 10.003147, 9.999115 
1.09498605e+3, 1.2514523e+2, -1688889.6, -1594551.5, -47909.0, -0.075790346, 0.1131531, -1574488.3, 139088.83, 0.000734217, 9.999649, 10.000983 
1.09499134e+3, 1.351434e+2, -1752628.0, -1596330.4, 105526.0, 0.08608821, -0.1790414, -1543166.8, 72418.89, 0.00033773432, 9.998673, 10.0007715 
1.0949923e+3, 1.4514367e+2, -1777145.9, -1661530.8, 11290.245, -0.098382406, -0.17107606, -1660438.5, -142855.5, 0.0000845864, 9.998293, 9.999814 
1.0949959e+3, 1.5514591e+2, -1603378.6, -1525951.6, -29358.594, 0.061343685, 0.043002255, -1516078.5, -96508.31, 0.0000043925156, 9.998812, 9.999825 
1.0949975e+3, 1.6514686e+2, -1391991.1, -1234912.0, 10017.675, -0.015685651, 0.095064506, -1234275.8, 87286.68, 0.0000000006358386, 9.99898, 10.001073 
1.0949979e+3, 1.7514622e+2, -1321931.8, -1152408.0, 76458.12, -0.29845077, -0.10041873, -1123019.0, 100543.7, 0.0, 9.998795, 10.001058 
1.0950005e+3, 1.8514624e+2, -1272081.0, -1185729.5, 15924.016, -0.26365197, -0.15066066, -1182886.5, -57325.957, 0.0, 9.998925, 10.000096 
1.09500535e+3, 1.9514664e+2, -1111502.9, -1057101.5, 8658.092, 0.08238405, -0.1442427, -1055756.8, -28198.682, 0.0, 9.999357, 10.000096 
1.0950072e+3, 2.0514718e+2, -1008047.2, -1032964.44, 6815.0405, 0.11859276, -0.06142257, -1006305.0, -76749.91, 0.0, 9.999722, 9.999412 
1.09500624e+3, 2.1514764e+2, -876203.44, -920134.1, 44121.527, -0.13956407, 0.020626487, -848882.0, -17328.38, 0.0, 9.999962, 9.9994 
1.0950082e+3, 2.2514696e+2, -763747.8, -841901.06, 96162.18, -0.17739172, 0.030164951, -699025.9, 34534.746, 0.0, 10.000188, 9.999152 
1.0950131e+3, 2.351449e+2, -624951.9, -726976.4, 98444.29, -0.0019137758, -0.11597045, -565087.94, 70490.58, 0.0, 10.000475, 9.99913 
1.09501645e+3, 2.4514389e+2, -562595.6, -799080.4, 44375.414, 0.0673881, -0.05664947, -554543.0, -16952.436, 0.0, 10.000878, 9.997776 
1.0950185e+3, 2.5514367e+2, -398279.25, -666009.3, 31812.69, 0.03755576, 0.11713115, -394551.06, 45047.848, 0.0, 10.001318, 9.997807 
1.0950214e+3, 2.6514247e+2, -202991.17, -417903.13, 40111.188, 0.060576048, 0.17497782, -195748.88, 145862.98, 0.00000010014453, 10.001556, 9.998712 
1.0950249e+3, 2.7514e+2, -82714.29, -312160.03, 81676.75, 0.12572096, 0.033390276, -56609.504, 187022.67, 0.0000018004142, 10.001705, 9.998698 
1.0950277e+3, 2.8513816e+2, -46646.145, -355953.7, 38159.48, 0.1623556, 0.035428807, -42007.934, 103641.89, 0.000016749305, 10.001767, 9.997689 
1.0950299e+3, 2.951367e+2, 36833.01, -266016.88, 27945.373, 0.1838869, 0.08542695, 39390.074, 87056.82, 0.00010005187, 10.001658, 9.997691 
1.09503284e+3, 3.051337e+2, 185343.19, -119342.17, 97389.61, 0.15585467, 0.0025256844, 213812.64, 213812.64, 0.00032272984, 10.002167, 9.998116 
1.09503664e+3, 3.1513193e+2, 435727.72, 168339.08, 130036.53, 0.087055735, -0.010861092, 488537.22, 488537.22, 0.0006960898, 10.003091, 9.999659 
1.1049867e+3, 1.2514338e+2, -1619014.3, -1581102.0, -2123.8875, -0.0060874014, 0.09273369, -1580983.4, 132609.92, 0.00083503575, 10.000229, 10.000779 
1.1049905e+3, 1.3514109e+2, -1615618.0, -1537853.3, 17938.17, 0.0870389, -0.24156919, -1533914.9, 81690.61, 0.0003918232, 9.999644, 10.000701 
1.1049905e+3, 1.451412e+2, -1666428.1, -1659262.4, 1569.4938, -0.16089177, -0.22462414, -1658933.8, -141328.19, 0.000102570426, 9.999255, 9.999374 
1.1049952e+3, 1.5514362e+2, -1572487.9, -1558741.9, 5439.715, 0.10756403, 0.05141646, -1556849.6, -137255.5, 0.0000061708192, 9.999216, 9.999407 
1.1049971e+3, 1.6514471e+2, -1374593.1, -1162621.9, 45673.043, 0.049120855, 0.10959663, -1153199.6, 168385.17, 0.0000000015512864, 9.99883, 10.001639 
1.10499635e+3, 1.7514427e+2, -1363438.0, -1106849.6, 17603.04, -0.29970548, -0.12277402, -1105647.6, 117932.17, 0.0, 9.99824, 10.001632 
1.1049989e+3, 1.8514448e+2, -1362980.1, -1243149.0, -1384.2058, -0.28024268, -0.17464776, -1243133.0, -117557.66, 0.0, 9.998378, 9.999958 
1.1050046e+3, 1.9514504e+2, -1144047.3, -1084429.5, -1218.2953, 0.08843685, -0.14090836, -1084404.6, -56830.855, 0.0, 9.999204, 9.999971 
1.1050069e+3, 2.051458e+2, -984729.7, -997936.5, 8062.839, 0.12972847, -0.038101517, -980911.3, -51342.03, 0.0, 9.999781, 9.999626 
1.10500626e+3, 2.1514662e+2, -831344.5, -873728.0, -13828.943, -0.13802746, 0.057504766, -827231.5, 4332.3, 0.0, 10.000163, 9.999623 
1.1050086e+3, 2.2514586e+2, -749066.06, -854008.75, 38946.207, -0.16525409, 0.055980045, -736191.75, -2620.6953, 0.0, 10.000363, 9.998986 
1.1050138e+3, 2.3514336e+2, -652264.0, -759720.9, 25108.494, 0.03893914, -0.116817996, -646686.6, -11093.487, 0.0, 10.000367, 9.9989605 
1.1050178e+3, 2.451422e+2, -575204.94, -787031.56, 42759.656, 0.12195435, -0.06838741, -566899.06, -29293.324, 0.0, 10.0007305, 9.997916 
1.1050204e+3, 2.5514218e+2, -370336.28, -636339.4, 60588.24, 0.08876279, 0.11222711, -357186.03, 82425.3, 0.0, 10.001459, 9.997928 
1.1050232e+3, 2.651408e+2, -188904.78, -434799.66, 59094.914, 0.083359286, 0.15586594, -175440.05, 166185.9, 0.00000018749917, 10.001744, 9.998508 
1.1050262e+3, 2.7513787e+2, -129087.625, -356498.16, 4090.5078, 0.10484618, -0.014088281, -129014.07, 114637.54, 0.0000025324416, 10.001485, 9.998498 
1.1050292e+3, 2.8513592e+2, -89522.664, -398976.9, -21326.133, 0.15180296, -0.0021591152, -88059.88, 57611.1, 0.000018771152, 10.001581, 9.997485 
1.10503234e+3, 2.9513466e+2, 60102.586, -277755.28, -24088.85, 0.24582456, 0.0943335, 61811.45, 109497.85, 0.00010057408, 10.001932, 9.997476 
1.1050354e+3, 3.051317e+2, 176296.53, -127890.62, 74360.88, 0.20946595, 0.02716691, 193501.5, 193501.5, 0.0003198817, 10.002099, 9.998093 
1.10503934e+3, 3.151297e+2, 242864.33, 90208.305, 14746.759, 0.1318204, -0.019106492, 244275.83, 244275.83, 0.0006923279, 10.0017185, 9.999764 
1.1149872e+3, 1.251404e+2, -1688895.4, -1712339.8, 4163.7886, -0.032221947, -0.074678116, -1688177.9, 25440.545, 0.000944546, 10.000189, 9.999896 
1.1149899e+3, 1.3513975e+2, -1677940.6, -1659557.3, 6713.4873, 0.040228564, -0.15236916, -1657366.6, -41745.19, 0.00045159098, 9.999616, 9.999885 
1.11498855e+3, 1.4513984e+2, -1630960.3, -1581237.0, -16265.683, -0.31245878, -0.12470044, -1576388.8, -58766.016, 0.00012308804, 9.999239, 9.999916 
1.1149928e+3, 1.551411e+2, -1537175.5, -1485684.5, 13892.053, -0.08521531, -0.021748457, -1482175.6, -62557.42, 0.000008505592, 9.999216, 9.99991 
1.1149953e+3, 1.651422e+2, -1401546.5, -1216371.0, 7537.4063, -0.036010377, 0.033619534, -1216064.6, 105543.41, 0.0000000033697685, 9.998819, 10.001279 
1.1149967e+3, 1.7514315e+2, -1391182.1, -1161213.6, 5454.9204, -0.10908171, -0.02079817, -1161084.4, 62508.785, 0.0, 9.9982195, 10.001276 
1.1149989e+3, 1.8514405e+2, -1348538.1, -1204488.0, 16738.766, -0.14663287, 0.00065029494, -1202568.5, -76985.05, 0.0, 9.9983425, 10.00024 
1.1150016e+3, 1.9514467e+2, -1139612.9, -1054122.8, 38846.82, -0.15988535, 0.013392084, -1039107.8, -11526.301, 0.0, 9.999115, 10.000223 
1.1150045e+3, 2.0514491e+2, -1014027.94, -1039053.6, 6310.7554, -0.11520233, 0.06253921, -1012526.6, -82944.9, 0.0, 9.99969, 9.999388 
1.1150079e+3, 2.1514453e+2, -871292.25, -923621.56, 11826.517, -0.010206498, 0.062159356, -868743.56, -37156.766, 0.0, 10.000015, 9.999354 
1.1150106e+3, 2.25144e+2, -777334.9, -875535.56, 28654.701, -0.0123324245, 0.10114422, -769585.06, -35992.844, 0.0, 10.000211, 9.998909 
1.1150129e+3, 2.3514311e+2, -677367.75, -777650.5, 38258.258, -0.10537186, 0.099259734, -664438.94, -28838.99, 0.0, 10.000222, 9.998907 
1.1150171e+3, 2.451416e+2, -536546.75, -674261.6, 60825.33, -0.044631954, 0.069341205, -513528.88, 24084.04, 0.0, 10.000591, 9.998756 
1.1150228e+3, 2.5513926e+2, -328567.1, -527980.44, 100941.58, 0.166313, -0.067228734, -286391.34, 153242.02, 0.0, 10.001365, 9.998717 
1.11502565e+3, 2.6513728e+2, -283336.66, -609457.4, 38083.94, 0.13521054, -0.058228407, -278948.3, 62705.22, 0.00000020790911, 10.001653, 9.997352 
1.11502565e+3, 2.751355e+2, -219782.83, -524981.2, 9371.463, -0.12361031, -0.0034018925, -219495.34, 24180.54, 0.0000030041272, 10.001398, 9.997382 
1.1150284e+3, 2.8513387e+2, -86026.125, -366646.9, -17214.156, -0.10002286, 0.08379287, -84974.1, 60720.098, 0.000021469468, 10.001477, 9.997755 
1.1150339e+3, 2.9513213e+2, 72064.1, -242832.92, 10245.627, 0.1868898, 0.10253026, 72397.11, 120108.98, 0.00010458993, 10.00189, 9.997736 
1.1150379e+3, 3.0512902e+2, 116674.1, -244684.48, 54709.535, 0.21632709, 0.049611825, 124775.47, 124775.47, 0.00032358713, 10.00207, 9.997304 
1.11504115e+3, 3.151268e+2, 183933.3, -13638.851, 37055.355, 0.09003088, 0.05757815, 190654.52, 190654.52, 0.00069615606, 10.001633, 9.999094 
1.1249868e+3, 1.2513809e+2, -1942086.0, -1857109.1, 54912.75, 0.0050660507, -0.118584864, -1830166.5, -116525.6, 0.0010643419, 9.998547, 9.9997 
1.12499e+3, 1.3513872e+2, -1743499.9, -1716021.8, 572.28973, 0.12776116, -0.04632302, -1716009.9, -100374.664, 0.00051804923, 9.999284, 9.999651 
1.1249884e+3, 1.4513868e+2, -1593994.5, -1544999.5, 16827.48, -0.2529772, -0.02843077, -1539776.8, -22139.053, 0.00014661087, 9.999408, 10.000085 
1.1249912e+3, 1.5513887e+2, -1533177.0, -1462619.5, -10295.885, -0.15115781, -0.05118654, -1461147.8, -41507.91, 0.00001150662, 9.999157, 10.000093 
1.12499386e+3, 1.6513972e+2, -1363046.0, -1250231.1, 954.0668, -0.08443611, -0.008112707, -1250223.0, 71409.086, 0.0000000061074554, 9.999296, 10.00082 
1.1249966e+3, 1.7514108e+2, -1176335.1, -1102601.9, -27981.822, -0.020994995, 0.02094506, -1093185.4, 130430.7, 0.0, 9.999886, 10.000872 
1.1249988e+3, 1.8514222e+2, -1139944.8, -1085856.6, -324.4449, -0.04373673, 0.07428875, -1085854.8, 39750.125, 0.0, 9.999686, 10.00041 
1.1250005e+3, 1.9514278e+2, -1170148.5, -1055455.8, -7298.924, -0.15695648, 0.06616801, -1054993.1, -27391.5, 0.0, 9.998815, 10.000374 
1.12500355e+3, 2.0514283e+2, -1107932.4, -1056626.0, 28179.764, -0.13836215, 0.07651114, -1044171.6, -114569.66, 0.0, 9.998945, 9.9996195 
1.1250081e+3, 2.151421e+2, -837059.5, -874324.4, 39844.56, 0.012236438, 0.018909818, -811706.06, 19902.045, 0.0, 10.000132, 9.999622 
1.12501144e+3, 2.2514151e+2, -731339.8, -874573.94, 63382.82, 0.033901904, 0.046802804, -707320.1, 26293.709, 0.0, 10.000604, 9.998732 
1.1250137e+3, 2.3514087e+2, -655362.3, -783058.6, 44240.73, -0.05820418, 0.08590013, -641532.75, -5912.0977, 0.0, 10.000434, 9.998765 
1.12501785e+3, 2.4513933e+2, -534204.0, -654747.94, 83921.99, -0.018282972, 0.04978163, -491153.13, 46480.707, 0.0, 10.000529, 9.998926 
1.1250238e+3, 2.551367e+2, -387670.1, -539335.44, 53584.03, 0.14912081, -0.12697974, -370648.9, 69006.195, 0.0, 10.000887, 9.998877 
1.12502694e+3, 2.65135e+2, -364056.88, -639470.06, 11298.834, 0.13948832, -0.10719814, -363594.13, -21920.996, 0.00000016860811, 10.001076, 9.997418 
1.1250277e+3, 2.751338e+2, -257625.17, -537163.2, 42795.42, -0.036572654, 0.004422504, -251220.23, -7529.0967, 0.0000038179373, 10.001125, 9.997423 
1.1250307e+3, 2.8513217e+2, -33305.13, -356795.44, 105679.336, -0.042859506, 0.09457662, -1841.5422, 143868.61, 0.000026281929, 10.001886, 9.997631 
1.12503566e+3, 2.951299e+2, 250928.08, -167373.19, 74753.68, 0.111500144, 0.07076023, 263885.75, 311618.25, 0.00011359424, 10.003162, 9.99764 
1.12503946e+3, 3.0512688e+2, 228161.5, -197838.08, 84318.53, 0.13152145, 0.03392847, 244243.63, 244243.63, 0.00033605486, 10.002893, 9.997222 
1.1250432e+3, 3.1512496e+2, 67408.52, -82240.9, 74147.1, 0.17705783, 0.09291561, 97923.88, 97923.88, 0.0007117771, 10.000877, 9.998998 
1.13498524e+3, 1.2513657e+2, -1900885.8, -1764473.5, 115250.66, -0.06688201, -0.0320592, -1698758.8, 14900.43, 0.0011953667, 9.998532, 10.000335 
1.1349906e+3, 1.3513799e+2, -1715489.3, -1652838.1, 34575.84, 0.22698383, 0.072098956, -1637507.8, -21861.375, 0.00059164723, 9.999261, 10.000097 
1.1349896e+3, 1.451378e+2, -1607578.3, -1565543.6, -8461.409, -0.09804174, 0.059541084, -1563904.3, -46254.92, 0.00017336896, 9.99938, 9.999958 
1.1349904e+3, 1.551371e+2, -1545487.8, -1485536.6, -7294.4443, -0.184813, -0.03400106, -1484661.9, -65003.977, 0.000015247707, 9.999146, 9.999943 
1.1349922e+3, 1.6513737e+2, -1397304.6, -1322272.9, 9098.275, -0.20600706, -0.018199753, -1321185.4, 470.56293, 0.000000009421829, 9.999297, 10.000324 
1.1349956e+3, 1.7513822e+2, -1211755.3, -1176878.6, 2237.9944, -0.13967262, 0.008186689, -1176735.6, 46911.477, 0.0, 9.999888, 10.0003605 
1.1349985e+3, 1.8513899e+2, -1132281.0, -1070543.6, -47815.887, -0.07068476, 0.046565484, -1044498.06, 81140.65, 0.0, 9.999683, 10.00052 
1.1350011e+3, 1.9513945e+2, -1176442.3, -1046044.7, -31109.47, -0.0027736167, 0.017558455, -1039003.06, -11369.842, 0.0, 9.998713, 10.00049 
1.1350038e+3, 2.0513965e+2, -1079289.1, -974737.25, 58923.63, -0.035429016, 0.006810142, -948242.8, -18614.129, 0.0, 9.998844, 10.000233 
1.1350067e+3, 2.1513939e+2, -816731.44, -797231.2, 92189.76, -0.15535167, -0.06731216, -714277.4, 117349.875, 0.0, 9.999979, 10.00023 
1.1350107e+3, 2.2513843e+2, -766328.6, -912234.25, 42174.188, -0.11454103, -0.09663876, -755015.4, -21379.627, 0.0, 10.000452, 9.998546 
1.1350157e+3, 2.3513657e+2, -693143.44, -827998.9, 49405.2, 0.08244715, -0.16125105, -676980.6, -41324.76, 0.0, 10.000288, 9.998529 
1.13501966e+3, 2.4513538e+2, -586680.06, -736399.5, 85486.12, 0.09385973, -0.12302901, -547909.44, -10240.913, 0.0, 10.000409, 9.998422 
1.1350227e+3, 2.5513464e+2, -432367.78, -611373.9, 78561.8, -0.055735774, -0.06383094, -402779.47, 36896.117, 0.0, 10.0007925, 9.998428 
1.13502696e+3, 2.6513386e+2, -288126.9, -468165.66, 6221.2207, 0.004957645, 0.009454173, -287912.2, 53771.98, 0.00000020663475, 10.001012, 9.9986315 
1.1350321e+3, 2.751327e+2, -184529.17, -375856.28, 62108.17, 0.26211876, 0.0046483967, -166135.98, 77561.7, 0.0000055002247, 10.001078, 9.99856 
1.1350354e+3, 2.851306e+2, -83920.15, -440000.56, 140918.98, 0.21669121, 0.020768331, -34899.844, 110820.3, 0.00003348711, 10.001804, 9.997092 
1.135037e+3, 2.951276e+2, 201386.45, -247355.92, 135090.72, -0.10146844, -0.022276882, 238915.88, 286667.28, 0.00012808957, 10.003066, 9.997133 
1.1350397e+3, 3.0512497e+2, 254364.55, -115740.76, 2457.5513, -0.14849046, -0.027950529, 254380.86, 254380.86, 0.0003591798, 10.002777, 9.997842 
1.13504454e+3, 3.1512415e+2, 96193.66, 2512.86, 32818.684, 0.17547895, 0.07709646, 106546.695, 106546.695, 0.0007452587, 10.000775, 9.999625 
1.14498526e+3, 1.2513441e+2, -1664067.6, -1611077.6, 160519.38, 0.02430781, 0.005149316, -1474881.4, 238800.81, 0.0013373722, 9.999957, 10.000723 
1.1449891e+3, 1.351357e+2, -1822648.8, -1674433.8, -15060.602, 0.20855096, 0.067880966, -1672918.9, -57248.25, 0.000672049, 9.998362, 10.000402 
1.1449891e+3, 1.4513592e+2, -1787628.3, -1611606.5, 14814.716, -0.0081016375, 0.06094167, -1610368.4, -92699.66, 0.0002032588, 9.9979725, 10.0003195 
1.1449899e+3, 1.5513584e+2, -1562198.0, -1456208.0, 21873.037, -0.11928077, -0.0030944454, -1451871.5, -32201.963, 0.000019742625, 9.998874, 10.0002775 
1.1449917e+3, 1.6513595e+2, -1477299.0, -1405182.6, 70821.414, -0.15979235, 0.0047371318, -1361768.4, -40099.83, 0.000000013934886, 9.998954, 9.999916 
1.1449949e+3, 1.7513594e+2, -1471182.4, -1348174.1, 49041.457, -0.10886986, -0.014982235, -1331015.5, -107346.375, 0.0, 9.998312, 9.999942 
1.1449979e+3, 1.8513604e+2, -1310767.3, -1185774.9, 15853.944, -0.035168674, -0.010910076, -1183795.3, -58128.08, 0.0, 9.9985895, 10.000254 
1.14500076e+3, 1.9513606e+2, -1037121.2, -999527.0, -20326.707, 0.04858222, -0.058064103, -990638.25, 37026.355, 0.0, 9.999785, 10.000277 
1.14500366e+3, 2.0513618e+2, -929734.25, -919141.8, 51876.293, 0.02255876, -0.05877991, -872292.06, 57368.227, 0.0, 9.999933, 10.000093 
1.1450069e+3, 2.1513617e+2, -956736.8, -881726.5, 9516.278, -0.09665007, -0.093745135, -880538.0, -48881.13, 0.0, 9.999078, 10.000091 
1.14501126e+3, 2.2513534e+2, -916667.6, -970932.4, -17202.414, -0.055766378, -0.10813031, -911673.9, -178009.36, 0.0, 9.999368, 9.998663 
1.1450167e+3, 2.3513353e+2, -615139.56, -773546.1, -12878.338, 0.13293713, -0.18077175, -614099.44, 21585.357, 0.0, 10.000757, 9.998674 
1.1450207e+3, 2.4513255e+2, -441077.44, -641443.44, 65087.242, 0.12575923, -0.1408539, -421790.88, 115904.43, 0.0, 10.001299, 9.998645 
1.1450237e+3, 2.5513217e+2, -375071.34, -552027.94, 89659.1, -0.056165818, -0.0711999, -337584.72, 102113.664, 0.0, 10.001062, 9.998694 
1.14502795e+3, 2.6513162e+2, -237759.06, -440365.72, 32088.006, -0.0037473685, 0.009297044, -232798.56, 108906.25, 0.00000038376965, 10.001327, 9.998676 
1.1450337e+3, 2.7513057e+2, -37486.125, -298897.28, -18481.734, 0.27133828, 0.014881263, -36185.938, 207531.64, 0.0000075917305, 10.002051, 9.998625 
1.14503734e+3, 2.851285e+2, -20596.037, -368347.34, 80579.68, 0.23652208, 0.010347054, -2831.849, 142907.64, 0.0000412879, 10.002053, 9.997471 
1.1450394e+3, 2.9512542e+2, -37307.543, -323228.16, 114793.12, -0.06477708, -0.0779581, 3076.3833, 50846.652, 0.00014511992, 10.001248, 9.997495 
1.14504166e+3, 3.051235e+2, 45363.64, -150957.7, -4284.3257, -0.1402542, -0.06037368, 45457.094, 45457.094, 0.00038843177, 10.001029, 9.998446 
1.1450454e+3, 3.1512365e+2, 181172.39, 111431.375, -22226.963, 0.16667666, 0.07525033, 187653.92, 187653.92, 0.0007935078, 10.001072, 10.000221 
1.15498595e+3, 1.2513159e+2, -1657910.9, -1582116.0, 77306.88, 0.052363746, -0.015494583, -1533917.1, 179793.16, 0.001489488, 9.9999, 10.00094 
1.15498535e+3, 1.3513201e+2, -1810524.8, -1646119.9, -64730.94, -0.03265926, -0.057396322, -1623692.8, -7986.6445, 0.00075867696, 9.998352, 10.000596 
1.15498655e+3, 1.4513311e+2, -1734585.6, -1502971.4, 34390.574, -0.09388625, -0.028279187, -1497972.9, 19722.266, 0.0002361324, 9.997969, 10.001072 
1.1549896e+3, 1.5513512e+2, -1504322.1, -1343498.3, 65057.41, -0.06498591, 0.040811513, -1320476.5, 99197.93, 0.000024990082, 9.998896, 10.001043 
1.15499206e+3, 1.6513556e+2, -1497762.0, -1446507.3, 32321.66, -0.055028863, 0.055064462, -1430886.0, -109216.24, 0.000000023716384, 9.998953, 9.999631 
1.1549944e+3, 1.751343e+2, -1496922.6, -1392779.0, 34662.656, -0.015680471, -0.058760628, -1382297.0, -158615.16, 0.0, 9.998281, 9.999646 
1.1549968e+3, 1.8513346e+2, -1366301.1, -1293007.6, 47924.594, -0.029791387, -0.097816855, -1269324.0, -143634.8, 0.0, 9.998553, 9.999535 
1.1549991e+3, 1.9513267e+2, -1097757.6, -1109682.4, 32418.666, -0.108471036, -0.15781735, -1070757.6, -43062.59, 0.0, 9.999712, 9.999558 
1.1550029e+3, 2.0513244e+2, -999384.3, -1043006.5, 3089.7507, -0.06945486, -0.11910253, -999166.56, -69469.87, 0.0, 9.999839, 9.9992895 
1.1550079e+3, 2.1513247e+2, -1032847.8, -1010000.7, -11707.6875, 0.09188758, -0.0691473, -1005066.75, -173369.8, 0.0, 9.998938, 9.999281 
1.1550125e+3, 2.2513233e+2, -913677.44, -928898.56, 24416.402, 0.115793094, 0.0058501842, -895713.0, -162013.25, 0.0, 9.999216, 9.9990225 
1.15501635e+3, 2.3513177e+2, -608920.3, -730049.44, 50036.79, 0.0043382426, 0.02292529, -590924.4, 44782.79, 0.0, 10.000627, 9.999036 
1.1550209e+3, 2.4513078e+2, -392991.75, -507570.4, 41676.805, -0.011203142, -0.0038776037, -379436.03, 158278.6, 0.0, 10.001155, 9.999631 
1.155026e+3, 2.5512922e+2, -329109.13, -428624.13, 90646.92, 0.05784488, -0.15082563, -275461.25, 164262.56, 0.0, 10.000938, 9.999601 
1.15502976e+3, 2.6512814e+2, -329996.63, -605942.1, 47417.32, 0.02357963, -0.11035488, -322075.97, 19659.816, 0.0000005356376, 10.001217, 9.997591 
1.1550322e+3, 2.7512735e+2, -118629.234, -443424.8, 20899.752, -0.111322016, 0.021323739, -117289.914, 126462.56, 0.000008957139, 10.001951, 9.997678 
1.1550365e+3, 2.8512594e+2, 59889.387, -176936.13, 42070.39, -0.07899637, 0.05816463, 67140.86, 212908.9, 0.00004724257, 10.00195, 9.9988365 
1.1550427e+3, 2.951236e+2, 48002.305, -141129.47, 106271.51, 0.104056366, -0.08886993, 95690.91, 143477.53, 0.00015981888, 10.00122, 9.998763 
1.15504466e+3, 3.0512255e+2, 57112.563, -103465.195, -8573.654, 0.03889467, -0.060418613, 57569.03, 57569.03, 0.00041743313, 10.000937, 9.998812 
1.1550446e+3, 3.1512302e+2, 190934.36, 153250.16, 19198.117, -0.0825683, 0.064368784, 198991.94, 198991.94, 0.0008473706, 10.000974, 10.000556 
1.16498485e+3, 1.2512928e+2, -2041761.1, -1726981.4, 104850.78, 0.100596875, -0.028124489, -1695254.1, 18479.082, 0.0016512593, 9.997093, 10.001295 
1.1649824e+3, 1.3512996e+2, -1787575.5, -1575950.8, -29111.48, -0.14156556, -0.08976282, -1572019.3, 43705.79, 0.0008513687, 9.998284, 10.001099 
1.1649856e+3, 1.4513129e+2, -1608423.0, -1491658.0, 93462.625, -0.035039075, -0.03984617, -1439841.8, 77870.18, 0.00027198074, 9.999051, 10.000626 
1.1649896e+3, 1.55133e+2, -1481210.6, -1383041.4, 2250.0674, 0.033085424, 0.042932626, -1382989.8, 36706.41, 0.00003101119, 9.999277, 10.000586 
1.1649921e+3, 1.651334e+2, -1426481.9, -1410992.0, -73238.7, 0.033624295, 0.0775633, -1345089.9, -23397.092, 0.00000004774233, 9.999436, 9.999644 
1.16499364e+3, 1.751324e+2, -1297442.4, -1298937.0, -72686.15, 0.014638581, -0.008547778, -1225499.8, -1797.2347, 0.0, 9.99965, 9.999641 
1.16499625e+3, 1.8513149e+2, -1190196.6, -1234174.0, 27763.973, -0.010307703, -0.042890828, -1176768.6, -51058.53, 0.0, 9.999863, 9.9993105 
1.1649994e+3, 1.9513041e+2, -1057051.4, -1116209.1, 26865.988, -0.067121975, -0.11036157, -1046671.6, -18953.463, 0.0, 10.000095, 9.999332 
1.16500355e+3, 2.0512976e+2, -921338.56, -1054052.9, 24519.516, -0.0229868, -0.07762117, -916953.4, 12770.8545, 0.0, 10.000589, 9.998848 
1.1650084e+3, 2.1512938e+2, -710363.8, -896686.8, 8134.9766, 0.12641872, -0.027785806, -710009.3, 121720.93, 0.0, 10.001351, 9.998887 
1.1650127e+3, 2.2512907e+2, -596658.25, -752194.0, 89691.305, 0.12448591, 0.03896828, -555714.8, 178019.64, 0.0, 10.001298, 9.999231 
1.1650166e+3, 2.3512849e+2, -621798.25, -711800.8, 82097.47, -0.016122706, 0.03459293, -573177.4, 62562.777, 0.0, 10.0004425, 9.999249 
1.1650215e+3, 2.4512777e+2, -502059.1, -506929.25, 62369.93, -0.016655825, -0.002285448, -442076.72, 95667.18, 0.0, 10.000157, 10.000123 
1.1650271e+3, 2.5512674e+2, -379650.9, -401964.84, 52663.98, 0.109279096, -0.14239638, -336975.06, 102772.21, 0.0, 10.000348, 10.00008 
1.1650313e+3, 2.6512575e+2, -375845.6, -628473.7, 87797.4, 0.06476642, -0.11757823, -348329.8, -6571.925, 0.00000056359414, 10.000912, 9.997578 
1.1650337e+3, 2.7512455e+2, -144012.88, -460085.88, 109137.2, -0.1350173, -0.021852104, -109990.88, 133786.83, 0.00000928475, 10.001804, 9.997634 
1.16503835e+3, 2.851233e+2, 82418.93, -120222.98, 91199.28, -0.087903254, 0.009611371, 117418.35, 263209.6, 0.000050363375, 10.001909, 9.999241 
1.1650447e+3, 2.9512167e+2, 73338.95, -80488.45, 56069.484, 0.18815832, -0.104945526, 91606.68, 139408.33, 0.00017050822, 10.001205, 9.999175 
1.1650466e+3, 3.0512074e+2, 135633.03, -149179.88, -42189.332, 0.10805834, -0.05163493, 141751.13, 141751.13, 0.00044292747, 10.001834, 9.998075 
1.1650466e+3, 3.1511992e+2, 467737.34, 191594.17, -130404.625, -0.06982407, 0.02967625, 519584.5, 519584.5, 0.00089617184, 10.003287, 9.99972 
1.1749801e+3, 1.2512706e+2, -2021826.9, -1662519.3, 52520.883, -0.13576616, -0.0863921, -1654999.5, 58755.832, 0.0018234614, 9.9970045, 10.00178 
1.1749803e+3, 1.3512957e+2, -1733366.0, -1468411.1, 26381.912, -0.205486, -0.038214635, -1465809.8, 149917.0, 0.0009506097, 9.998302, 10.001832 
1.17498584e+3, 1.4513056e+2, -1726670.5, -1732060.1, 89778.445, 0.058238495, 0.02234841, -1639546.5, -121828.266, 0.00031097958, 9.999034, 9.99898 
1.17498964e+3, 1.5512952e+2, -1600722.0, -1629713.9, 21701.943, 0.08456608, -0.0020926697, -1589120.0, -169385.75, 0.00003785508, 9.999268, 9.9988985 
1.1749914e+3, 1.6512945e+2, -1415628.1, -1382084.3, -77900.14, 0.0015451587, 0.060513407, -1319171.0, 2566.9263, 0.00000010132158, 9.999411, 9.99985 
1.1749922e+3, 1.7513023e+2, -1285343.9, -1266952.9, -53020.785, -0.1107124, 0.1254927, -1222336.1, 1394.7455, 0.0, 9.9996195, 9.999873 
1.1749956e+3, 1.8513025e+2, -1176371.5, -1196140.5, 23447.467, -0.075243644, 0.1585708, -1160810.3, -35081.605, 0.0, 9.999823, 9.999591 
1.17500134e+3, 1.9512925e+2, -1048653.8, -1085318.3, 48938.84, 0.08410528, 0.07080402, -1014726.3, 13007.598, 0.0, 10.0000305, 9.99958 
1.1750052e+3, 2.0512821e+2, -943106.25, -1076876.4, 40047.766, 0.0686242, 0.058524508, -932033.44, -2290.9675, 0.0, 10.000497, 9.998733 
1.1750078e+3, 2.1512698e+2, -738417.8, -924664.25, 46359.78, -0.09011797, 0.03364498, -727516.2, 104239.94, 0.0, 10.001215, 9.998762 
1.1750117e+3, 2.2512552e+2, -614621.4, -751200.1, 44158.26, -0.12029263, -0.011225283, -601588.0, 132181.38, 0.0, 10.001136, 9.999314 
1.17501706e+3, 2.351237e+2, -637678.06, -706519.75, 62820.254, -0.03279142, -0.15326624, -600466.6, 35317.246, 0.0, 10.000282, 9.999358 
1.175022e+3, 2.451235e+2, -526206.2, -520828.22, 58902.313, 0.006865428, -0.13885823, -464553.53, 73229.27, 0.0, 10.000001, 10.000106 
1.1750266e+3, 2.5512472e+2, -387841.03, -396429.38, 72059.234, 0.003426529, -0.058672052, -319948.13, 119820.76, 0.0, 10.000252, 10.000161 
1.1750321e+3, 2.6512435e+2, -324808.88, -500800.78, 109103.08, 0.04019358, -0.022288539, -272637.9, 69133.63, 0.0000005132723, 10.0008135, 9.998507 
1.1750381e+3, 2.751222e+2, -92110.56, -339123.0, 156603.73, 0.09295198, -0.116830036, -16171.259, 227622.05, 0.000009286575, 10.001742, 9.998497 
1.1750424e+3, 2.8512055e+2, 24628.74, -221209.66, 54595.258, 0.101166524, -0.12928182, 36207.76, 182016.38, 0.00005131962, 10.001825, 9.998588 
1.17504515e+3, 2.9511932e+2, 35854.203, -158462.36, 45028.723, 0.079024985, -0.14642651, 45781.484, 93599.99, 0.0001770123, 10.001192, 9.998649 
1.1750474e+3, 3.0511764e+2, 635.4774, -403938.47, 8631.433, -0.023647627, -0.058914326, 819.54205, 819.54205, 0.0004593758, 10.0017395, 9.996366 
1.1750512e+3, 3.1511468e+2, 322191.1, -78513.05, -40370.695, 0.0064069577, -0.020901777, 326217.94, 326217.94, 0.0009233706, 10.003163, 9.997916 
1.18497744e+3, 1.2512562e+2, -1939504.8, -1696862.4, 24050.734, -0.12976888, -0.01671284, -1694501.4, 19271.646, 0.0020081834, 9.997871, 10.001121 
1.1849792e+3, 1.3512816e+2, -1709107.0, -1509178.0, -62215.2, -0.14666305, 0.07171524, -1491398.6, 124347.234, 0.0010574218, 9.998671, 10.001381 
1.1849856e+3, 1.4512844e+2, -1757130.9, -1755418.5, 3808.5947, 0.14062107, 0.08941693, -1752371.1, -234627.73, 0.00035351914, 9.998864, 9.9988985 
1.1849888e+3, 1.5512645e+2, -1709668.0, -1684710.4, 25182.883, 0.11740205, -0.024313027, -1669084.1, -249318.31, 0.00004562391, 9.998544, 9.998862 
1.1849906e+3, 1.6512606e+2, -1513982.1, -1463299.4, 19322.295, 0.014653235, 0.020367673, -1456773.3, -135001.28, 0.00000019883093, 9.99888, 9.999555 
1.184992e+3, 1.7512703e+2, -1265085.1, -1283142.3, -18327.16, -0.1064116, 0.13013473, -1253683.4, -29919.213, 0.0, 9.999878, 9.999632 
1.1849957e+3, 1.8512718e+2, -1105446.3, -1137666.6, 37610.85, -0.06277918, 0.179071, -1080640.5, 45119.863, 0.0, 10.000216, 9.999799 
1.1850016e+3, 1.9512628e+2, -1037098.06, -1048924.8, 30035.633, 0.11738707, 0.0810302, -1012399.25, 15364.068, 0.0, 9.999993, 9.99984 
1.18500575e+3, 2.051253e+2, -1013005.8, -1084414.1, 72538.586, 0.100489356, 0.04903254, -967860.5, -38090.438, 0.0, 9.999906, 9.998974 
1.1850084e+3, 2.1512398e+2, -908731.06, -975259.25, 86594.96, -0.08003819, -0.007859146, -849231.0, -17447.7, 0.0, 9.999921, 9.999038 
1.1850126e+3, 2.2512268e+2, -728661.4, -793483.8, 106472.96, -0.1055611, -0.05721526, -649775.8, 84018.34, 0.0, 10.000282, 9.99944 
1.18501805e+3, 2.3512119e+2, -529154.44, -643400.25, 100360.164, 0.006746502, -0.17682803, -470799.28, 165005.52, 0.0, 10.00096, 9.999473 
1.1850228e+3, 2.4512093e+2, -428456.2, -576271.1, 88783.4, 0.0428691, -0.13309972, -386843.94, 150963.0, 0.0, 10.001122, 9.999182 
1.1850272e+3, 2.5512153e+2, -368327.2, -496286.44, 6739.8345, 0.011216632, -0.01512214, -367973.2, 71830.5, 0.0, 10.000857, 9.99919 
1.1850332e+3, 2.651209e+2, -254171.61, -382093.03, 44351.45, 0.070878804, 0.0031292215, -240299.02, 101509.43, 0.0000005059796, 10.000951, 9.999247 
1.18504055e+3, 2.7511874e+2, -99099.01, -264847.75, 47098.797, 0.19338846, -0.15826209, -86650.46, 157173.2, 0.000009353779, 10.001372, 9.999182 
1.1850448e+3, 2.8511703e+2, -32253.723, -320403.44, -66108.53, 0.17964406, -0.17745939, -17810.75, 128027.72, 0.000051335024, 10.001752, 9.997937 
1.1850465e+3, 2.9511574e+2, 112868.85, -195457.52, -103139.55, 0.063496895, -0.1322755, 144188.97, 192041.72, 0.00017979782, 10.002049, 9.99798 
1.1850496e+3, 3.051138e+2, 153259.66, -344883.0, -12920.54, -0.02304335, -0.035624478, 153594.56, 153594.56, 0.0004625388, 10.002828, 9.996256 
1.1850561e+3, 3.1510973e+2, 386701.22, -93865.22, 18826.408, 0.16749541, -0.0935221, 387437.63, 387437.63, 0.00092024915, 10.003776, 9.997524 
1.19497545e+3, 1.2512466e+2, -2061113.3, -1943616.3, -47210.97, -0.16761078, 0.12982634, -1926997.3, -213208.08, 0.0022081332, 9.997846, 9.99944 
1.194979e+3, 1.3512571e+2, -1819079.6, -1732128.9, -23437.334, -0.06624704, 0.22426592, -1726213.8, -110431.73, 0.0011730703, 9.998646, 9.999861 
1.19498424e+3, 1.4512494e+2, -1659519.9, -1544407.3, -21188.314, 0.09296943, 0.138161, -1540631.1, -22843.58, 0.00040013902, 9.998828, 10.000365 
1.19498685e+3, 1.5512395e+2, -1603957.0, -1474683.4, 26594.71, 0.04227361, -0.02271931, -1469426.0, -49636.23, 0.00005450229, 9.998571, 10.000298 
1.1949894e+3, 1.6512334e+2, -1560728.4, -1563674.4, 40427.586, -0.023422645, -0.03514534, -1521747.0, -199953.39, 0.00000035173326, 9.998893, 9.998861 
1.1949926e+3, 1.7512286e+2, -1322269.4, -1393150.6, 28149.066, -0.056679055, 0.0034348774, -1312450.8, -88649.5, 0.0, 9.999838, 9.9989 
1.1949961e+3, 1.8512231e+2, -1102736.9, -1125221.1, 16921.256, -0.06931865, 0.013868944, -1093663.6, 32141.285, 0.0, 10.000189, 9.999897 
1.195e+3, 1.9512156e+2, -1042778.9, -1042326.25, 32280.096, -0.06442043, -0.079637714, -1010271.7, 17534.717, 0.0, 9.99991, 9.999928 
1.1950045e+3, 2.05121e+2, -981740.75, -994397.56, 57808.72, -0.022527229, -0.10677022, -929915.1, -107.39828, 0.0, 9.999802, 9.999639 
1.1950099e+3, 2.1512039e+2, -884504.94, -891135.06, 97079.71, 0.06389877, -0.15954176, -790683.75, 41127.855, 0.0, 9.999778, 9.999682 
1.1950148e+3, 2.2512048e+2, -740149.06, -783656.2, 119103.98, 0.07288732, -0.10760582, -640828.4, 92980.695, 0.0, 10.000137, 9.999577 
1.1950192e+3, 2.3512107e+2, -540250.75, -633878.4, 134824.28, 0.009614944, -0.035761155, -444344.16, 191458.1, 0.0, 10.000823, 9.999601 
1.19502366e+3, 2.4512008e+2, -579398.44, -861984.06, 65052.043, -0.0062911687, 0.024383409, -565142.44, -27326.955, 0.0, 10.000998, 9.997286 
1.19502835e+3, 2.551173e+2, -515075.25, -772643.44, 8405.255, 0.02541906, -0.0062162685, -514801.25, -74951.04, 0.0, 10.000737, 9.997349 
1.19503416e+3, 2.651154e+2, -242762.61, -335154.4, 49936.89, 0.055519536, -0.039129816, -220930.9, 120936.25, 0.0000006389743, 10.000846, 9.999626 
1.195041e+3, 2.7511418e+2, -78238.02, -203359.05, 76133.03, 0.07809014, -0.15431151, -42258.92, 201610.34, 0.000009301616, 10.001297, 9.99964 
1.1950456e+3, 2.8511277e+2, -92275.92, -430070.25, -65475.617, 0.06444787, -0.13248767, -80028.64, 65852.26, 0.000051838055, 10.001681, 9.99722 
1.1950485e+3, 2.9511094e+2, 53301.87, -308748.44, -74864.52, 0.023141926, -0.070889816, 68171.59, 116075.89, 0.00018153801, 10.001993, 9.997232 
1.1950527e+3, 3.051091e+2, 223728.2, -165595.56, 19308.104, -0.0038010597, 0.015014246, 224683.42, 224683.42, 0.0004580292, 10.002698, 9.997543 
1.1950609e+3, 3.1510502e+2, 427567.25, 37355.547, 102882.42, 0.2101871, -0.18596663, 453031.3, 453031.3, 0.0008969489, 10.003586, 9.99851 
1.20497495e+3, 1.2512287e+2, -1924638.6, -1870022.0, -61288.414, -0.039512515, 0.23769578, -1830233.3, -116422.23, 0.0024257244, 9.998773, 9.999506 
1.204978e+3, 1.3512327e+2, -1857058.5, -1764237.4, 45489.008, -0.01650066, 0.2861369, -1745661.9, -129852.03, 0.0012988481, 9.998474, 9.999719 
1.20498195e+3, 1.4512181e+2, -1692239.8, -1544744.0, 75223.74, -0.0064252764, 0.13396643, -1513147.9, 4672.6973, 0.00045139206, 9.998527, 10.000512 
1.204986e+3, 1.5512142e+2, -1518188.5, -1410077.9, -4155.2817, 0.07368459, 0.013132977, -1409918.4, 9896.944, 0.00006471426, 9.999066, 10.000499 
1.20498925e+3, 1.6512087e+2, -1487466.3, -1524160.1, 33019.277, 0.058512256, -0.0058034426, -1468039.0, -146222.3, 0.00000057087306, 9.999375, 9.998895 
1.2049925e+3, 1.7511982e+2, -1356882.3, -1402320.6, 53169.19, -0.020288263, -0.030117733, -1321781.6, -97953.49, 0.0, 9.999574, 9.998958 
1.2049961e+3, 1.8511887e+2, -1194822.5, -1220038.1, 54928.574, -0.058453456, -0.039607346, -1151073.4, -25237.31, 0.0, 9.999775, 9.999442 
1.2049999e+3, 1.9511783e+2, -1056350.8, -1094548.9, 9648.407, -0.060485963, -0.11866052, -1054052.0, -26209.281, 0.0, 10.000014, 9.999514 
1.20500475e+3, 2.0511733e+2, -876110.56, -917465.3, 35689.46, -0.0050042165, -0.13336368, -855541.25, 74302.414, 0.0, 10.000405, 9.999874 
1.2050107e+3, 2.1511707e+2, -689937.94, -773968.25, 16859.924, 0.11113644, -0.17501514, -686681.3, 145160.81, 0.0, 10.000993, 9.999907 
1.20501585e+3, 2.251172e+2, -640168.7, -796247.56, 15467.883, 0.13281228, -0.10185051, -638650.56, 95189.53, 0.0, 10.001091, 9.999033 
1.2050205e+3, 2.3511752e+2, -592592.6, -718469.4, -41902.67, 0.07030361, 0.00074799615, -579919.7, 55919.766, 0.0, 10.000729, 9.999067 
1.20502524e+3, 2.4511626e+2, -538064.4, -817523.44, -25050.322, 0.049584385, 0.050793532, -535836.7, 2018.568, 0.0, 10.001182, 9.997491 
1.20503016e+3, 2.5511318e+2, -258869.98, -629041.2, 49688.617, 0.0511348, -0.032897327, -252316.25, 187573.34, 0.00000000020898414, 10.002406, 9.997527 
1.20503604e+3, 2.651111e+2, -14318.291, -273896.63, 136538.31, 0.07544004, -0.0729782, 44274.973, 386182.78, 0.00000074892756, 10.002626, 9.999183 
1.205043e+3, 2.7510977e+2, -21237.705, -225454.83, 75018.44, 0.12481434, -0.14909637, 3357.8125, 247270.27, 0.000009032264, 10.001896, 9.999194 
1.205048e+3, 2.8510827e+2, -18968.295, -380960.28, -15158.471, 0.11743216, -0.122136325, -18334.64, 127590.88, 0.000052112464, 10.002134, 9.997338 
1.20505124e+3, 2.9510632e+2, 237467.16, -204198.34, 4502.248, 0.054513965, -0.08224961, 237513.05, 285462.22, 0.00018292993, 10.003209, 9.997359 
1.2050559e+3, 3.051046e+2, 302288.06, -42314.844, 91576.164, 0.041088052, -0.029017292, 325112.2, 325112.2, 0.000455038, 10.002884, 9.998291 
1.2050642e+3, 3.1510112e+2, 48761.53, -95299.375, 95242.23, 0.33929816, -0.2412075, 96144.09, 96144.09, 0.0008751653, 10.000806, 9.998919 
1.2149752e+3, 1.2512013e+2, -1798089.0, -1594871.6, -58577.797, 0.056111407, 0.277193, -1579195.6, 134644.34, 0.0026624324, 9.99874, 10.001402 
1.2149761e+3, 1.3512091e+2, -1783426.0, -1614892.3, 41272.625, -0.07710589, 0.25760025, -1605327.8, 10499.845, 0.0014356553, 9.998483, 10.000745 
1.21497825e+3, 1.4511918e+2, -1769287.9, -1694453.3, 80236.11, -0.2502282, 0.07604654, -1643338.8, -125497.37, 0.0005075534, 9.998494, 9.999495 
1.2149856e+3, 1.5511887e+2, -1595599.3, -1565152.0, 29322.52, 0.11546417, 0.06818481, -1547336.6, -127494.234, 0.000076397075, 9.9990425, 9.999447 
1.2149899e+3, 1.6511855e+2, -1435269.0, -1411712.1, 28263.164, 0.15589632, 0.08664685, -1392871.4, -71028.7, 0.0000008702971, 9.999362, 9.999668 
1.2149917e+3, 1.7511792e+2, -1308754.5, -1295258.1, 70973.91, -0.084424384, 0.02862444, -1230712.3, -6867.6353, 0.0, 9.99954, 9.999709 
1.21499546e+3, 1.8511689e+2, -1258119.6, -1347783.8, 50298.656, -0.12354152, 0.0151374005, -1235573.1, -109719.56, 0.0, 9.999759, 9.998573 
1.2150011e+3, 1.951152e+2, -1130693.3, -1231827.3, 29932.453, 0.027540883, -0.040292863, -1122498.3, -94626.79, 0.0, 9.999938, 9.9986105 
1.215006e+3, 2.0511435e+2, -908806.2, -958082.2, 44567.09, 0.05229093, -0.03186853, -882520.1, 47357.242, 0.0, 10.000291, 9.999647 
1.21501036e+3, 2.1511413e+2, -730302.25, -817770.5, 48021.637, -0.035244737, -0.0484159, -709084.5, 122789.21, 0.0, 10.000821, 9.999685 
1.2150157e+3, 2.2511296e+2, -748859.5, -987276.56, -11553.895, -0.0154725, -0.03471143, -748300.9, -14414.986, 0.0, 10.000937, 9.9978 
1.21502176e+3, 2.3511064e+2, -694456.2, -900912.2, -42438.19, 0.109020345, -0.07189963, -686073.1, -50157.85, 0.0, 10.000599, 9.99788 
1.21502735e+3, 2.451095e+2, -405879.34, -503259.72, 12937.118, 0.11099501, -0.06405784, -404189.94, 133736.03, 0.0, 10.001017, 9.999723 
1.2150322e+3, 2.5510922e+2, -120741.75, -317999.22, 106383.805, 0.0012788988, -0.094826795, -74301.05, 365620.22, 0.00000000018849695, 10.002303, 9.99971 
1.21503845e+3, 2.6510796e+2, -119988.31, -468905.53, 97882.07, 0.037608296, -0.09169672, -94405.16, 247524.44, 0.00000061447383, 10.002519, 9.997897 
1.2150461e+3, 2.751056e+2, -121421.125, -414186.75, 61287.0, 0.22430255, -0.14749052, -109109.19, 134843.97, 0.000008322687, 10.001805, 9.997944 
1.2150515e+3, 2.8510362e+2, 15527.354, -272742.63, 15892.372, 0.22770438, -0.14708817, 16400.855, 162372.88, 0.000050693892, 10.001988, 9.998149 
1.21505484e+3, 2.9510194e+2, 286051.3, -84193.37, 62091.926, 0.050595123, -0.16439994, 296186.97, 344174.13, 0.00018223259, 10.00313, 9.998219 
1.2150587e+3, 3.051002e+2, 289413.44, -45506.97, 4982.6387, 0.018475825, -0.15844457, 289487.53, 289487.53, 0.00045375043, 10.002783, 9.998321 
1.2150656e+3, 3.150978e+2, 14965.847, -132932.7, 59984.05, 0.33989006, -0.26212615, 36235.168, 36235.168, 0.0008639957, 10.000673, 9.998722 
1.22497305e+3, 1.251146e+2, -1938944.3, -1607895.0, -18685.893, 0.04106062, 0.120059036, -1606843.6, 107045.83, 0.0029179724, 9.997484, 10.001933 
1.2249752e+3, 1.3511628e+2, -1816167.8, -1627021.4, -101686.87, 0.008725047, 0.18274999, -1582726.6, 33141.79, 0.0015834377, 9.998229, 10.000785 
1.22497715e+3, 1.4511529e+2, -1763065.3, -1725495.3, -33808.89, -0.21128212, 0.08882011, -1705603.1, -187726.47, 0.00056846405, 9.99868, 9.999194 
1.2249849e+3, 1.5511495e+2, -1599586.0, -1589395.6, -55500.484, 0.13554046, 0.10303701, -1538757.0, -118875.664, 0.00008951281, 9.99912, 9.999236 
1.2249895e+3, 1.6511461e+2, -1432392.5, -1402010.5, -37090.953, 0.18742408, 0.124827124, -1377120.3, -55237.36, 0.0000012652538, 9.999316, 9.999777 
1.2249917e+3, 1.7511396e+2, -1336992.3, -1295477.6, -62833.3, -0.025256624, 0.053139295, -1250061.8, -26177.385, 0.0, 9.999266, 9.999854 
1.2249956e+3, 1.8511313e+2, -1281927.1, -1333526.8, -30511.172, -0.06670763, 0.03985114, -1267770.0, -141879.19, 0.0, 9.999481, 9.998809 
1.2250012e+3, 1.9511183e+2, -1097073.3, -1186415.8, 5439.3228, 0.052801866, 0.0005482114, -1096743.4, -68839.21, 0.0, 10.00005, 9.998869 
1.2250065e+3, 2.051109e+2, -907712.56, -1004037.7, 80837.086, 0.06893731, 0.0055146734, -861778.0, 68133.63, 0.0, 10.000489, 9.999242 
1.22501135e+3, 2.1511008e+2, -770387.25, -879353.8, 50059.3, -0.010901871, -0.029170457, -750881.56, 81033.93, 0.0, 10.000732, 9.999304 
1.2250169e+3, 2.2510864e+2, -733851.4, -971595.44, 42790.42, 0.016519053, -0.026382383, -726384.25, 7545.875, 0.0, 10.000999, 9.997874 
1.225023e+3, 2.3510635e+2, -589461.7, -842608.3, 79858.55, 0.140367, -0.06900727, -566374.75, 69582.805, 0.0, 10.001282, 9.997951 
1.2250288e+3, 2.4510501e+2, -351528.53, -477789.0, 144635.63, 0.14935052, -0.08411141, -256845.92, 281122.56, 0.0, 10.00138, 9.999734 
1.2250345e+3, 2.551044e+2, -260669.34, -378822.6, 52649.965, 0.054084614, -0.14662462, -240612.75, 199352.72, 0.0, 10.001323, 9.9997635 
1.225041e+3, 2.6510337e+2, -276192.7, -545725.2, 844.7444, 0.09423503, -0.12844588, -276190.03, 65782.445, 0.0000003685213, 10.001454, 9.997882 
1.2250481e+3, 2.7510157e+2, -146084.78, -426014.13, 32043.611, 0.26358506, -0.12056215, -142463.58, 101528.51, 0.0000073761885, 10.001656, 9.997927 
1.2250538e+3, 2.8509963e+2, 5113.612, -276115.25, 58992.02, 0.27467835, -0.11609347, 16986.809, 162997.58, 0.00004908337, 10.001879, 9.998185 
1.22505814e+3, 2.9509744e+2, 118618.05, -166686.4, 21138.006, 0.13775136, -0.18456297, 120175.64, 168205.27, 0.00018069774, 10.001969, 9.998221 
1.2250618e+3, 3.050954e+2, 191402.75, -91309.125, -100614.61, 0.08509676, -0.21375747, 223554.16, 223554.16, 0.00045143487, 10.002104, 9.998324 
1.22506656e+3, 3.1509438e+2, 193876.13, -72507.05, -88552.99, 0.3155449, -0.1751096, 220627.13, 220627.13, 0.0008578977, 10.001965, 9.99853 
1.2349697e+3, 1.2510642e+2, -1984768.3, -1703294.5, 63899.28, -0.08843226, -0.21494824, -1689467.5, 24490.457, 0.0031899144, 9.997485, 10.001273 
1.2349747e+3, 1.3510916e+2, -1874289.1, -1756015.5, -74510.086, 0.11458424, 0.040405877, -1720026.5, -104092.375, 0.0017411282, 9.99825, 9.999892 
1.2349783e+3, 1.4510997e+2, -1729930.5, -1661561.6, -31766.803, -0.009697489, 0.15027845, -1649080.1, -131152.1, 0.0006337289, 9.998694, 9.999631 
1.2349833e+3, 1.551096e+2, -1565402.6, -1525697.9, -29944.22, 0.045121536, 0.11821318, -1509623.0, -89690.45, 0.00010392506, 9.999134, 9.999677 
1.2349878e+3, 1.6510901e+2, -1458260.0, -1454247.6, -55318.156, 0.062994674, 0.10950942, -1400899.3, -78961.125, 0.0000017603737, 9.999312, 9.999417 
1.2349921e+3, 1.75108e+2, -1364915.1, -1352201.0, -56395.027, 0.06002545, 0.036900233, -1301805.9, -77858.85, 0.0, 9.999254, 9.999473 
1.2349961e+3, 1.8510762e+2, -1197055.5, -1150561.6, -21388.09, 0.013034374, 0.02585709, -1142219.5, -16272.103, 0.0, 9.999452, 10.000081 
1.2350003e+3, 1.9510767e+2, -1019472.44, -1009929.1, 38438.246, -0.07578147, -0.0044130827, -975967.5, 51973.77, 0.0, 9.999976, 10.000119 
1.235006e+3, 2.0510682e+2, -961131.3, -1084770.4, 74740.67, -0.045894522, -0.026355395, -925956.9, 3990.4238, 0.0, 10.000363, 9.998746 
1.23501346e+3, 2.1510492e+2, -825618.7, -963000.4, 69584.09, 0.09657015, -0.12163861, -796532.3, 35434.832, 0.0, 10.000595, 9.998797 
1.2350193e+3, 2.2510426e+2, -663020.56, -791221.4, 41848.69, 0.1331143, -0.080073945, -650569.2, 83403.43, 0.0, 10.000853, 9.999186 
1.2350238e+3, 2.3510462e+2, -522172.53, -671804.9, 103167.59, 0.07083, 0.009926316, -469548.47, 166417.97, 0.0, 10.0011425, 9.999194 
1.23502955e+3, 2.451028e+2, -521332.84, -797094.25, 130428.04, 0.059604418, -0.0057552466, -469417.44, 68565.38, 0.0, 10.001239, 9.997608 
1.2350366e+3, 2.550987e+2, -419257.66, -688736.1, 62817.254, 0.11162651, -0.20550571, -405333.97, 34688.832, 0.0, 10.001229, 9.997685 
1.2350432e+3, 2.6509708e+2, -217487.33, -386893.4, -349.50833, 0.14604609, -0.20163368, -217486.61, 124550.93, 0.00000016286783, 10.001303, 9.999042 
1.2350489e+3, 2.7509764e+2, -82567.81, -269167.5, 54513.14, 0.1522582, -0.07804856, -67809.6, 176220.45, 0.000006622681, 10.001553, 9.999051 
1.2350548e+3, 2.8509626e+2, -62325.3, -388345.4, 53660.023, 0.16375753, -0.03442997, -53720.45, 92322.336, 0.00004875032, 10.001765, 9.99747 
1.2350609e+3, 2.950928e+2, 60976.957, -273409.3, 43644.586, 0.19333264, -0.16076525, 66579.64, 114657.42, 0.00018165374, 10.001907, 9.997522 
1.2350644e+3, 3.0509004e+2, 170441.7, -115252.12, -107049.85, 0.11727676, -0.21887639, 206102.23, 206102.23, 0.00045300575, 10.002016, 9.998205 
1.23506665e+3, 3.1509072e+2, 170670.53, -90245.195, -54846.023, 0.06849115, -0.0021878139, 181730.66, 181730.66, 0.0008590856, 10.001835, 9.998469 
1.2449674e+3, 1.2510091e+2, -2026286.0, -1781939.0, 123080.94, -0.055891946, -0.21345901, -1730690.3, -16684.566, 0.003475539, 9.997487, 10.000715 
1.244973e+3, 1.3510248e+2, -1764903.5, -1734746.4, -49006.37, 0.08154532, -0.04352088, -1698551.3, -82555.305, 0.0019075654, 9.9991455, 9.999607 
1.2449784e+3, 1.4510366e+2, -1599497.8, -1562731.5, -12583.206, 0.11411831, 0.10065243, -1558837.4, -40850.547, 0.0007030745, 9.999438, 9.9999485 
1.24498256e+3, 1.5510312e+2, -1637503.0, -1529299.1, -48039.063, 0.090516165, 0.021271758, -1511049.4, -91057.84, 0.00011956255, 9.998506, 9.999954 
1.2449867e+3, 1.6510276e+2, -1553666.0, -1476311.5, -4459.542, 0.06335826, 0.013463528, -1476055.3, -154060.27, 0.0000023468863, 9.998575, 9.999614 
1.2449914e+3, 1.7510252e+2, -1284994.6, -1287571.3, 10908.22, 0.05563541, -0.00045174838, -1275298.9, -51301.035, 0.0, 9.99972, 9.99968 
1.244996e+3, 1.8510248e+2, -1091332.5, -1108868.9, 23106.678, 0.019854806, 0.014002663, -1075386.4, 50609.797, 0.0, 10.000203, 10.000006 
1.2450005e+3, 1.9510233e+2, -1019223.7, -1021028.2, -36621.656, -0.043366928, -0.028850984, -983493.2, 44499.508, 0.0, 10.0000105, 10.0000305 
1.2450065e+3, 2.0510155e+2, -1017402.5, -1121118.1, -5828.3604, -0.0045800563, -0.037590496, -1017076.0, -87076.4, 0.0, 10.000012, 9.998666 
1.24501415e+3, 2.1509993e+2, -893345.1, -1000193.1, -5282.9575, 0.13851891, -0.09672391, -893084.56, -61066.28, 0.0, 10.000152, 9.9987545 
1.24502026e+3, 2.2509958e+2, -675076.5, -737234.3, -15527.144, 0.17404754, -0.051793475, -671413.6, 62606.426, 0.0, 10.000522, 9.999709 
1.2450252e+3, 2.3510012e+2, -488802.0, -593861.25, -36508.63, 0.109103434, 0.0033180874, -477361.0, 158647.64, 0.0, 10.001115, 9.999735 
1.2450313e+3, 2.4509831e+2, -521105.0, -843236.56, 37850.96, 0.10610609, -0.017175775, -516717.22, 21306.97, 0.0, 10.001431, 9.997204 
1.2450384e+3, 2.550941e+2, -416778.3, -731243.56, 75543.39, 0.16712855, -0.18721257, -399572.1, 40495.07, 0.0, 10.001436, 9.9972925 
1.2450449e+3, 2.650921e+2, -195161.47, -387335.16, 53508.188, 0.19353968, -0.19830737, -181267.38, 160819.05, 0.000000050542315, 10.001492, 9.99895 
1.2450508e+3, 2.7509195e+2, -87896.695, -288472.56, -8671.502, 0.18264477, -0.13201813, -87522.5, 156562.67, 0.0000061370592, 10.001564, 9.998926 
1.2450566e+3, 2.8509083e+2, -29813.94, -370521.5, 8327.459, 0.1669654, -0.059042428, -29610.523, 116485.68, 0.000049451537, 10.001997, 9.997473 
1.2450627e+3, 2.9508838e+2, 182722.6, -210097.73, 19192.168, 0.15448752, -0.081156746, 183658.05, 231780.47, 0.00018703903, 10.002749, 9.9975395 
1.2450667e+3, 3.0508515e+2, 280220.03, -109077.86, -114655.914, 0.09919003, -0.16953653, 311478.56, 311478.56, 0.00046630288, 10.002953, 9.997812 
1.2450692e+3, 3.1508544e+2, 268295.6, -45517.55, -119926.71, 0.119797505, 0.05085256, 308878.5, 308878.5, 0.0008809238, 10.00252, 9.998455 
1.254966e+3, 1.2509815e+2, -2059555.9, -1866918.5, 105788.06, -0.0056263097, 0.12270591, -1820169.4, -106137.67, 0.0037739007, 9.997536, 10.000118 
1.2549698e+3, 1.3509643e+2, -1739103.5, -1688558.5, 22297.227, -0.17197268, -0.063407354, -1680128.4, -64076.254, 0.0020822603, 9.999168, 9.999918 
1.2549777e+3, 1.4509651e+2, -1581346.6, -1529913.3, -61845.74, 0.07498782, -0.059260573, -1488650.5, 29401.133, 0.0007764397, 9.9994545, 10.000167 
1.2549822e+3, 1.5509558e+2, -1621883.6, -1502821.6, -72843.22, 0.17171963, -0.19411537, -1468277.9, -48220.24, 0.00013646827, 9.998524, 10.00013 
1.2549858e+3, 1.6509593e+2, -1506836.3, -1383511.8, 23570.93, 0.0944562, -0.17245524, -1379160.3, -57107.484, 0.0000030208696, 9.998589, 10.000246 
1.2549897e+3, 1.7509757e+2, -1241486.3, -1197038.8, 62834.92, -0.119714536, -0.063858524, -1152613.3, 71423.44, 0.0, 9.999711, 10.000306 
1.2549949e+3, 1.8509763e+2, -1186552.3, -1300761.1, 2789.6667, -0.12885983, -0.0025996908, -1186484.1, -60446.62, 0.0, 10.000176, 9.998703 
1.2550017e+3, 1.9509585e+2, -1116558.3, -1212232.4, -33169.645, 0.051656984, -0.08130467, -1106183.6, -78125.34, 0.0, 9.999956, 9.998745 
1.2550078e+3, 2.050951e+2, -1014664.7, -1082581.6, -13428.961, 0.09995589, -0.039631248, -1012105.8, -82037.9, 0.0, 9.999878, 9.998996 
1.2550133e+3, 2.1509515e+2, -894861.94, -968511.2, 11108.965, 0.02101693, 0.03949433, -893222.8, -61154.195, 0.0, 10.000001, 9.999047 
1.2550196e+3, 2.2509444e+2, -715849.8, -782147.9, -6151.865, 0.037846535, 0.046577737, -715283.8, 18789.791, 0.0, 10.000353, 9.999481 
1.2550269e+3, 2.3509277e+2, -522920.03, -635311.8, -3945.1885, 0.16042404, -0.09631258, -522781.72, 113302.98, 0.0, 10.000982, 9.9995165 
1.2550338e+3, 2.4509157e+2, -449779.84, -659695.94, 26241.748, 0.19358905, -0.11532014, -446549.06, 91543.27, 0.0, 10.001282, 9.998534 
1.2550397e+3, 2.5509056e+2, -348792.72, -559164.25, 87070.36, 0.13313921, -0.09683997, -317430.72, 122668.33, 0.0, 10.0013, 9.998539 
1.2550463e+3, 2.6508826e+2, -311041.06, -594398.2, 45908.56, 0.14770813, -0.12897703, -303788.72, 38331.79, 0.00000007625481, 10.001349, 9.997597 
1.2550531e+3, 2.7508453e+2, -195154.3, -485805.1, 10358.431, 0.2457519, -0.28691256, -194785.61, 49372.13, 0.0000061507535, 10.001453, 9.997626 
1.255059e+3, 2.8508335e+2, 2649.1672, -285055.97, 27601.217, 0.16985157, -0.1874645, 5273.179, 151443.7, 0.000051588533, 10.001912, 9.998101 
1.2550636e+3, 2.9508427e+2, 214911.77, -130156.336, 63425.387, -0.0729841, 0.057212148, 226200.39, 274363.72, 0.00019968531, 10.002684, 9.998123 
1.2550682e+3, 3.0508056e+2, 218100.63, -220714.73, -138690.64, -0.067189336, -0.06446922, 258259.55, 258259.55, 0.00050037476, 10.002879, 9.997078 
1.2550735e+3, 3.1507805e+2, 236998.34, -75110.13, -93404.6, 0.2392792, -0.05749402, 262815.88, 262815.88, 0.00094181777, 10.002363, 9.99833 
1.2649636e+3, 1.2509094e+2, -2072682.3, -1873267.5, -4071.4866, 0.019347312, 0.15292937, -1873184.4, -159083.7, 0.004085261, 9.997467, 10.000112 
1.2649688e+3, 1.3508932e+2, -1822481.6, -1660896.0, -25304.576, -0.13643514, -0.06955874, -1657026.0, -40906.188, 0.0022650692, 9.998338, 10.000495 
1.264978e+3, 1.4508967e+2, -1655622.3, -1515907.0, -131900.31, 0.19091257, -0.090836406, -1436507.1, 81609.25, 0.00085386867, 9.998733, 10.00061 
1.2649801e+3, 1.5508963e+2, -1569588.4, -1427131.6, -153864.06, 0.1144307, -0.17908542, -1328808.8, 91305.05, 0.00015477135, 9.99868, 10.000568 
1.2649837e+3, 1.6509035e+2, -1469584.1, -1341580.4, 8230.712, 0.029125627, -0.15337391, -1341053.4, -18948.26, 0.0000038088367, 9.998744, 10.000452 
1.2649897e+3, 1.7509176e+2, -1313252.8, -1211158.8, -8397.047, -0.048528556, -0.087448426, -1210472.8, 13617.999, 0.0, 9.9991255, 10.000493 
1.2649958e+3, 1.8509181e+2, -1322391.1, -1399362.5, -53121.656, -0.017962934, -0.021696283, -1295279.0, -169185.83, 0.0, 9.999396, 9.9984 
1.2650019e+3, 1.9509031e+2, -1193730.8, -1280491.0, -42768.848, 0.102006726, -0.040303543, -1176192.9, -148078.17, 0.0, 9.999585, 9.998449 
1.2650077e+3, 2.0508963e+2, -990023.7, -1019272.25, 49319.16, 0.118930705, 0.0021453218, -953206.25, -23082.947, 0.0, 9.999817, 9.999459 
1.2650134e+3, 2.1508957e+2, -862070.7, -901800.5, 61258.04, 0.036037825, 0.020865357, -817537.1, 14584.632, 0.0, 10.000002, 9.999502 
1.26502e+3, 2.250887e+2, -753945.1, -834232.06, 83038.49, 0.061728388, 0.0042726323, -701855.8, 32272.182, 0.0, 10.0002165, 9.999203 
1.2650281e+3, 2.3508696e+2, -627823.2, -713294.06, 60841.1, 0.20265993, -0.11845762, -596208.44, 39934.168, 0.0, 10.000374, 9.99928 
1.265035e+3, 2.4508603e+2, -489238.34, -627953.7, 72479.84, 0.22235326, -0.12202544, -458277.47, 79870.18, 0.0, 10.0007925, 9.998985 
1.2650411e+3, 2.5508556e+2, -293603.7, -484016.78, 45034.934, 0.123839565, -0.09272516, -283489.63, 156656.9, 0.0, 10.001467, 9.998976 
1.2650478e+3, 2.650832e+2, -269198.03, -638283.0, 19996.191, 0.14802554, -0.12342945, -268117.84, 74050.61, 0.00000015326442, 10.001912, 9.997026 
1.2650552e+3, 2.7507883e+2, -139061.34, -517299.84, 13989.484, 0.29682288, -0.2891062, -138544.63, 105669.48, 0.0000068361555, 10.002096, 9.997094 
1.2650612e+3, 2.850773e+2, -18879.775, -275841.47, 57626.375, 0.22407933, -0.20754004, -6548.239, 139682.47, 0.000055437977, 10.001675, 9.99828 
1.2650654e+3, 2.9507816e+2, -44483.426, -236594.8, 34744.793, -0.05630206, 0.017226271, -38392.67, 9829.982, 0.00021948728, 10.000816, 9.998289 
1.2650703e+3, 3.0507442e+2, 19953.656, -331992.28, -103568.32, -0.068893306, -0.10836086, 48169.04, 48169.04, 0.0005556111, 10.001597, 9.99692 
1.2650762e+3, 3.1507182e+2, 457813.03, 82857.73, -57110.258, 0.23031916, -0.09950136, 466318.7, 466318.7, 0.0010464599, 10.003681, 9.998766 
1.2749581e+3, 1.2507954e+2, -2017001.4, -1773808.0, -127826.83, -0.33464953, -0.1137941, -1718980.6, -4770.6704, 0.0044096503, 9.9975195, 10.000772 
1.2749697e+3, 1.3508134e+2, -1770905.9, -1560451.8, 18825.602, 0.09943094, -0.06456459, -1558781.0, 57416.42, 0.0024558255, 9.998351, 10.001184 
1.2749785e+3, 1.4508325e+2, -1602803.6, -1415981.0, -145689.31, 0.33776942, 0.0004757923, -1336328.6, 181852.06, 0.00093550276, 9.998772, 10.001277 
1.2749761e+3, 1.5508538e+2, -1523463.6, -1335807.3, -145587.89, -0.17550129, 0.06521925, -1256431.6, 163727.33, 0.00017466526, 9.998694, 10.001189 
1.2749803e+3, 1.6508602e+2, -1478896.4, -1369574.6, 7321.6206, -0.22594704, 0.062681265, -1369086.4, -46934.406, 0.0000047674703, 9.998772, 10.00025 
1.2749913e+3, 1.7508511e+2, -1324092.6, -1237930.3, 15697.474, 0.17674813, -0.08433875, -1235159.6, -10999.578, 0.0, 9.999138, 10.000305 
1.274998e+3, 1.8508507e+2, -1284510.6, -1316329.9, -57602.598, 0.25307837, -0.047801077, -1240661.0, -114498.414, 0.0, 9.999375, 9.998979 
1.2750009e+3, 1.9508563e+2, -1160244.6, -1201230.1, -23902.73, 0.011349839, 0.082302704, -1149252.6, -121090.22, 0.0, 9.9995365, 9.999018 
1.2750061e+3, 2.0508507e+2, -962685.9, -937924.1, 42541.87, -0.042553738, 0.07569756, -905998.1, 24168.57, 0.0, 9.999711, 10.00007 
1.275014e+3, 2.1508321e+2, -840378.06, -823031.75, 76897.13, 0.089453086, -0.14833379, -754320.2, 77857.32, 0.0, 9.999851, 10.000117 
1.2750214e+3, 2.2508249e+2, -798452.75, -882312.1, 77617.7, 0.15260243, -0.16879153, -752163.3, -17981.47, 0.0, 10.000036, 9.998954 
1.2750281e+3, 2.3508266e+2, -670787.75, -767068.2, 79682.516, 0.14492056, -0.07383276, -625832.44, 10349.771, 0.0, 10.000222, 9.998982 
1.2750348e+3, 2.4508157e+2, -546281.4, -709792.94, 87310.69, 0.10462981, -0.049692906, -508424.6, 29766.334, 0.0, 10.000636, 9.9985 
1.2750417e+3, 2.5507912e+2, -342194.9, -554467.2, 84141.195, 0.03693692, -0.17549, -312888.75, 127320.484, 0.0, 10.001333, 9.998558 
1.2750493e+3, 2.65077e+2, -274592.06, -620311.6, 16648.125, 0.08611369, -0.1730451, -273792.22, 68437.01, 0.00000020123079, 10.001788, 9.997206 
1.2750572e+3, 2.7507487e+2, -148467.72, -507449.28, 33966.17, 0.23848349, -0.13663185, -145282.16, 98971.875, 0.0000077157165, 10.001973, 9.997219 
1.2750633e+3, 2.850726e+2, -53255.535, -325404.44, 12278.985, 0.23283271, -0.115043536, -52702.645, 93574.55, 0.000060411407, 10.001581, 9.997983 
1.2750679e+3, 2.9507008e+2, -80955.22, -286151.38, 20253.588, 0.08660988, -0.20462191, -78975.22, -30674.404, 0.0002426435, 10.000706, 9.998002 
1.2750727e+3, 3.0506673e+2, 25689.385, -301291.0, -30771.736, -0.016650334, -0.2882933, 28560.074, 28560.074, 0.0006215773, 10.0015135, 9.997171 
1.2750772e+3, 3.15067e+2, 482704.88, 179547.7, 58417.125, -0.09615602, -0.026586903, 493572.03, 493572.03, 0.0011780667, 10.003499, 9.999513 
1.2849566e+3, 1.2507156e+2, -1701682.1, -1608558.1, 31777.477, -0.32560876, -0.30680948, -1598747.9, 115534.25, 0.0047468157, 9.999589, 10.000916 
1.2849683e+3, 1.350745e+2, -1909550.5, -1642696.4, 127135.055, 0.16968225, -0.12935871, -1591824.5, 24434.229, 0.0026545508, 9.997456, 10.001042 
1.2849754e+3, 1.4507659e+2, -1881381.9, -1519874.8, -17927.13, 0.26390216, -0.055303194, -1518987.9, -746.559, 0.0010215283, 9.99674, 10.001546 
1.2849747e+3, 1.5507932e+2, -1602852.8, -1338475.1, -67746.92, -0.15547502, 0.041132588, -1322125.9, 98089.11, 0.00019628371, 9.997999, 10.00151 
1.2849799e+3, 1.6508012e+2, -1486479.0, -1401403.8, 89901.88, -0.15048847, 0.05237448, -1344483.9, -22276.12, 0.0000059623408, 9.998837, 10.000007 
1.2849909e+3, 1.7507896e+2, -1324083.8, -1264622.0, 69543.875, 0.22390282, -0.09289517, -1218720.4, 5499.3423, 0.0, 9.999256, 10.000067 
1.2849976e+3, 1.85079e+2, -1203456.1, -1219371.4, 10383.426, 0.2656133, -0.062470097, -1198331.8, -72110.69, 0.0, 9.999693, 9.999488 
1.2850003e+3, 1.9507994e+2, -1024016.06, -1078464.9, 15796.025, -0.011283057, 0.054488413, -1019765.4, 8449.047, 0.0, 10.0002365, 9.999521 
1.2850058e+3, 2.0507942e+2, -892238.56, -938893.8, 51164.74, -0.06277138, 0.045800194, -859334.44, 70883.57, 0.0, 10.000348, 9.999756 
1.2850142e+3, 2.1507734e+2, -838602.4, -852213.56, -5724.3037, 0.105116695, -0.16878352, -836515.06, -4282.0923, 0.0, 10.000007, 9.999838 
1.2850218e+3, 2.2507675e+2, -772208.7, -876969.2, 7171.493, 0.1739655, -0.1595998, -771720.0, -37482.438, 0.0, 10.000255, 9.99888 
1.2850288e+3, 2.3507737e+2, -557166.44, -718927.44, -2243.7336, 0.14886369, -0.012786579, -557135.4, 79099.19, 0.0, 10.001043, 9.998912 
1.2850359e+3, 2.4507608e+2, -459800.5, -680707.5, 40676.113, 0.1219026, -0.0006184763, -452548.78, 85697.12, 0.0, 10.001272, 9.998396 
1.2850435e+3, 2.550728e+2, -412452.56, -599125.25, 38748.633, 0.09915973, -0.19749266, -404728.88, 35543.7, 0.0, 10.000897, 9.998462 
1.2850511e+3, 2.6507083e+2, -366928.9, -622435.25, 20165.756, 0.13727435, -0.19467647, -365347.13, -23056.031, 0.00000014147287, 10.000962, 9.997593 
1.2850587e+3, 2.750698e+2, -183837.81, -480329.94, 29284.633, 0.23216787, -0.084662944, -180973.05, 63331.496, 0.000007879153, 10.001535, 9.997619 
1.285065e+3, 2.8506765e+2, -6659.9126, -342042.06, 18213.787, 0.22901754, -0.05437025, -5673.6665, 140653.19, 0.00006527563, 10.002068, 9.997639 
1.2850699e+3, 2.9506418e+2, 147944.84, -214587.11, -9239.299, 0.14530435, -0.20244882, 148180.16, 196540.69, 0.00026928063, 10.0024395, 9.997662 
1.2850754e+3, 3.0506098e+2, 179219.4, -197563.22, 7459.6953, 0.07427732, -0.2677947, 179367.05, 179367.05, 0.0006972263, 10.002427, 9.997455 
1.2850805e+3, 3.1506044e+2, 300392.0, 134429.3, 48535.883, -0.035101634, -0.1137697, 313544.06, 313544.06, 0.0013269355, 10.002015, 9.999938 
1.2949571e+3, 1.2506713e+2, -1727716.8, -1654149.8, -40145.465, -0.28347248, -0.43338534, -1636484.3, 77830.96, 0.0050962004, 9.999572, 10.000606 
1.2949643e+3, 1.3506898e+2, -1993524.8, -1801687.4, 49070.43, -0.0009367234, -0.26535326, -1789864.3, -173561.84, 0.0028611089, 9.997403, 9.999974 
1.2949686e+3, 1.4506975e+2, -1893945.8, -1541405.4, 10295.443, -0.13968767, -0.25484326, -1541105.0, -22807.219, 0.00111182, 9.996721, 10.001407 
1.2949753e+3, 1.5507153e+2, -1607496.5, -1346916.8, -7064.145, 0.08297276, -0.24883501, -1346725.4, 73555.164, 0.000219555, 9.997993, 10.001455 
1.294982e+3, 1.6507272e+2, -1507235.3, -1445364.8, 91596.766, 0.15557005, -0.18145098, -1379620.4, -57349.24, 0.0000074533, 9.9988365, 9.999706 
1.2949882e+3, 1.7507333e+2, -1346461.8, -1312609.3, 93905.04, 0.007852085, -0.12173147, -1234117.3, -9847.65, 0.0, 9.999258, 9.999737 
1.2949942e+3, 1.850736e+2, -1177807.8, -1162104.9, 18318.281, -0.07322291, -0.070899546, -1150026.4, -23758.027, 0.0, 9.999674, 9.999891 
1.2950003e+3, 1.9507325e+2, -1003426.5, -1023737.5, 45164.938, -0.057875257, -0.12451738, -967289.44, 60980.94, 0.0, 10.000178, 9.9999275 
1.2950067e+3, 2.0507273e+2, -995725.44, -1124248.8, 25912.7, -0.035225, -0.09296366, -990697.7, -60420.83, 0.0, 10.000229, 9.998537 
1.2950131e+3, 2.1507192e+2, -949245.75, -1041815.8, -9272.538, -0.011102573, -0.05814196, -948326.06, -116037.125, 0.0, 9.999839, 9.998614 
1.2950207e+3, 2.2507142e+2, -793266.06, -880823.94, 25427.39, 0.036897343, 0.018638143, -786417.44, -52121.406, 0.0, 10.000081, 9.99894 
1.2950294e+3, 2.3507102e+2, -573096.2, -717120.75, 42033.375, 0.11026477, 0.057931837, -561726.4, 74573.59, 0.0, 10.000889, 9.999002 
1.2950379e+3, 2.4506947e+2, -471452.0, -656866.1, 14781.712, 0.16719618, 0.026212186, -470280.97, 68031.93, 0.0, 10.00108, 9.998648 
1.2950456e+3, 2.5506657e+2, -421669.3, -575661.56, 36791.742, 0.21297391, -0.15889119, -413330.6, 27006.348, 0.0, 10.000729, 9.998698 
1.295053e+3, 2.650647e+2, -339861.9, -547489.1, 30476.623, 0.21592338, -0.18453445, -335480.8, 6873.238, 0.000000052302592, 10.000869, 9.998159 
1.2950598e+3, 2.7506372e+2, -158980.4, -401586.38, 65544.12, 0.17313807, -0.12728238, -142405.02, 101959.92, 0.000007172051, 10.001414, 9.99822 
1.2950659e+3, 2.850625e+2, -56815.92, -414911.22, 22371.941, 0.10327537, -0.016504435, -55423.652, 90955.414, 0.00006969282, 10.001931, 9.997204 
1.2950712e+3, 2.9506058e+2, 96755.516, -293229.44, 21538.455, 0.0073996712, 0.033279385, 97941.45, 146342.17, 0.00030090305, 10.002322, 9.997175 
1.2950784e+3, 3.0505723e+2, 183069.86, -172607.66, -18009.84, 0.10242602, -0.030301, 183979.47, 183979.47, 0.0007862506, 10.002356, 9.997662 
1.2950855e+3, 3.150525e+2, 279420.88, 135505.67, 67151.36, 0.22070111, -0.32177752, 305886.88, 305886.88, 0.0014963577, 10.001833, 10.0000305 
1.3049571e+3, 1.2506431e+2, -1909993.0, -1748568.8, -34460.215, -0.16448897, -0.2903574, -1741520.1, -27176.953, 0.0054552136, 9.998363, 10.000537 
1.3049622e+3, 1.3506387e+2, -1894217.5, -1801635.5, -54564.633, 0.010863336, -0.3082479, -1776371.3, -160021.61, 0.003073975, 9.998292, 9.99955 
1.3049646e+3, 1.4506373e+2, -1719142.9, -1524825.8, 35864.895, -0.26342994, -0.33662018, -1518417.6, -64.602974, 0.0012055306, 9.998202, 10.000799 
1.3049744e+3, 1.5506521e+2, -1484788.3, -1349391.5, -40930.508, 0.15562473, -0.30542547, -1337979.9, 82359.98, 0.000244213, 9.999099, 10.000897 
1.3049823e+3, 1.6506636e+2, -1416357.1, -1392843.5, 41235.305, 0.27793175, -0.21999183, -1361721.8, -39390.313, 0.000009295233, 9.999438, 9.999773 
1.3049874e+3, 1.7506708e+2, -1336048.5, -1299399.8, 46524.01, -0.0045361063, -0.15263401, -1267721.5, -43393.32, 0.0, 9.999305, 9.999802 
1.3049935e+3, 1.8506722e+2, -1207704.0, -1159884.0, 9357.995, -0.11134902, -0.12474115, -1158117.9, -31790.78, 0.0, 9.99938, 10.000058 
1.3050006e+3, 1.9506662e+2, -1069070.9, -1034975.2, -4369.4336, -0.02057201, -0.22164331, -1034424.2, -6093.969, 0.0, 9.999633, 10.000117 
1.3050076e+3, 2.050662e+2, -1019005.4, -1154212.3, 23413.215, 0.034718066, -0.17953923, -1015065.8, -84730.23, 0.0, 10.000151, 9.998372 
1.305014e+3, 2.1506588e+2, -800913.6, -989349.56, 46175.477, 0.048084423, -0.07913008, -790206.9, 42137.543, 0.0, 10.000942, 9.998447 
1.3050216e+3, 2.2506519e+2, -642482.3, -821754.3, 136936.23, 0.074041136, -0.0073998836, -568453.6, 165900.05, 0.0, 10.001172, 9.998813 
1.3050303e+3, 2.3506393e+2, -592312.3, -738719.56, 112825.484, 0.11680541, -0.04680826, -531023.0, 105342.34, 0.0, 10.000812, 9.99888 
1.3050388e+3, 2.4506243e+2, -533829.1, -720048.44, 72246.95, 0.17864743, -0.05390311, -509087.06, 29292.29, 0.0, 10.000785, 9.998357 
1.3050471e+3, 2.550605e+2, -382582.72, -590758.0, 33392.414, 0.26401868, -0.114292815, -377357.56, 63040.51, 0.0, 10.0011215, 9.998411 
1.3050546e+3, 2.6505882e+2, -263923.56, -510571.56, 21830.057, 0.26161152, -0.10412978, -262006.34, 80408.32, 0.000000026393016, 10.001404, 9.998152 
1.3050613e+3, 2.7505723e+2, -123236.69, -391287.5, -18112.37, 0.16666503, -0.10498323, -122018.36, 122412.7, 0.0000066700077, 10.001683, 9.998169 
1.3050678e+3, 2.8505582e+2, -36413.496, -398846.4, -38631.195, 0.10134974, -0.010923254, -32341.6, 114105.07, 0.00007506801, 10.002049, 9.997252 
1.3050744e+3, 2.9505435e+2, 138205.22, -268249.3, -33056.348, 0.06810304, 0.083072685, 140876.1, 189339.83, 0.00033560226, 10.002587, 9.997217 
1.3050823e+3, 3.050514e+2, 280333.16, -159651.27, -57583.652, 0.22150475, 0.07005428, 287744.66, 287744.66, 0.0008828964, 10.003173, 9.9973545 
1.3050893e+3, 3.1504533e+2, 512609.88, 174154.67, -65679.13, 0.33255264, -0.32409447, 524908.4, 524908.4, 0.0016816368, 10.003749, 9.999379 
1.3149558e+3, 1.250628e+2, -1906685.0, -1729307.8, 104387.55, -0.19598077, 0.08771632, -1681020.4, 33348.34, 0.005819013, 9.99832, 10.000686 
1.3149615e+3, 1.3505918e+2, -1877714.3, -1768439.8, -61500.73, 0.09605599, -0.2679406, -1740811.8, -124411.6, 0.0032902497, 9.998292, 9.99978 
1.3149635e+3, 1.4505854e+2, -1791673.4, -1674207.8, 44668.207, -0.21655415, -0.3053803, -1659151.8, -140745.05, 0.0013013786, 9.998202, 9.999776 
1.314972e+3, 1.5506049e+2, -1562532.4, -1505705.9, 632.6429, -0.020278716, -0.12384945, -1505698.9, -85306.68, 0.00026992275, 9.999078, 9.999837 
1.3149804e+3, 1.6506107e+2, -1386676.9, -1337006.0, 22126.717, 0.1196016, -0.059880067, -1328579.0, -6190.85, 0.00001153221, 9.999451, 10.0001545 
1.314988e+3, 1.7506023e+2, -1304554.4, -1238564.4, 49893.85, 0.101954594, -0.1903302, -1211742.4, 12652.894, 0.0, 9.999315, 10.000216 
1.3149947e+3, 1.8505993e+2, -1217695.6, -1170771.9, 5435.0127, 0.056445815, -0.2237437, -1170150.5, -43753.816, 0.0, 9.99934, 10.0 
1.3150008e+3, 1.9506004e+2, -1083188.4, -1047480.44, 13794.675, 0.010154006, -0.24599943, -1042772.06, -14377.89, 0.0, 9.999559, 10.000066 
1.3150081e+3, 2.0505992e+2, -973654.1, -1031288.9, 40975.652, 0.057660032, -0.21883488, -952377.1, -21983.137, 0.0, 10.000031, 9.999271 
1.3150166e+3, 2.1505937e+2, -759764.1, -873696.5, 87622.57, 0.18968888, -0.22853704, -712217.8, 120180.32, 0.0, 10.000806, 9.99931 
1.3150242e+3, 2.2505814e+2, -687427.6, -876321.06, 113230.08, 0.18649106, -0.23758806, -634425.25, 99984.57, 0.0, 10.001011, 9.998516 
1.3150309e+3, 2.3505607e+2, -639661.56, -798637.2, 112593.734, 0.070278004, -0.32574925, -581324.6, 55105.86, 0.0, 10.000649, 9.998549 
1.3150385e+3, 2.4505496e+2, -611746.06, -845680.94, 73410.664, 0.059586532, -0.23645619, -590617.44, -52172.465, 0.0, 10.000626, 9.997574 
1.3150473e+3, 2.5505474e+2, -459219.94, -714893.8, 58749.496, 0.15327631, -0.048135754, -446366.47, -5912.3857, 0.0, 10.000968, 9.997636 
1.3150553e+3, 2.6505327e+2, -331711.53, -620133.9, 21177.668, 0.17144652, 0.057638988, -330164.84, 12307.28, 0.000000066602475, 10.00127, 9.997462 
1.3150626e+3, 2.750503e+2, -193253.42, -499525.94, 9216.406, 0.109706216, -0.012693915, -192976.33, 51525.85, 0.0000067822207, 10.001537, 9.997488 
1.3150704e+3, 2.850478e+2, -12399.438, -336436.88, -27729.81, 0.12429178, -0.020459855, -10043.562, 136484.03, 0.000081610815, 10.00198, 9.997724 
1.3150786e+3, 2.9504555e+2, 153357.53, -208066.36, 6448.232, 0.21877116, -0.05576612, 153472.55, 202021.86, 0.0003693925, 10.002457, 9.997701 
1.3150866e+3, 3.0504346e+2, 199948.19, -299551.44, -41100.953, 0.3195516, 0.0366076, 203307.55, 203307.55, 0.0009755923, 10.003061, 9.99644 
1.3150913e+3, 3.150391e+2, 379445.94, -42934.76, -14330.249, 0.09655924, -0.093378834, 379931.56, 379931.56, 0.0018607009, 10.003511, 9.997991 
1.3249534e+3, 1.2505667e+2, -2177809.0, -1821421.8, 153376.8, -0.1498874, 0.13545695, -1764503.9, -50071.77, 0.006183249, 9.996255, 10.00106 
1.3249595e+3, 1.3505346e+2, -1939696.9, -1708409.4, -116957.15, 0.1168471, -0.25587115, -1659576.9, -43119.28, 0.0035072896, 9.997491, 10.0005665 
1.3249637e+3, 1.4505337e+2, -1766885.3, -1683147.9, 91021.164, -0.0267803, -0.27165553, -1624827.5, -106370.12, 0.0013982238, 9.998462, 9.999593 
1.324971e+3, 1.5505509e+2, -1496211.4, -1500196.1, 92566.84, -0.05198697, -0.08974104, -1405615.5, 14829.178, 0.00029637254, 9.999642, 9.999608 
1.3249794e+3, 1.6505533e+2, -1338340.0, -1306506.9, 101402.45, 0.06104785, -0.05007141, -1219779.4, 102663.71, 0.000014169166, 9.999764, 10.000202 
1.324988e+3, 1.7505407e+2, -1364668.1, -1266189.5, 75082.555, 0.2090273, -0.22466636, -1225640.8, -1187.256, 0.0, 9.998902, 10.000223 
1.324995e+3, 1.8505391e+2, -1241593.4, -1180158.0, 88816.55, 0.17788735, -0.24632673, -1116897.1, 9556.502, 0.0, 9.999172, 10.000013 
1.3250007e+3, 1.9505465e+2, -933479.7, -975600.6, 76874.07, -0.008676385, -0.20317629, -874833.4, 153612.28, 0.0, 10.000595, 10.000057 
1.3250083e+3, 2.0505437e+2, -802640.0, -943204.06, 73475.33, 0.02624057, -0.19496766, -771245.2, 159201.17, 0.0, 10.001177, 9.999321 
1.3250183e+3, 2.150529e+2, -738660.6, -855877.75, 35548.824, 0.26772514, -0.30448437, -728722.25, 103735.055, 0.0, 10.000921, 9.99937 
1.3250259e+3, 2.250514e+2, -723406.3, -929264.25, 38849.11, 0.27066594, -0.3260398, -716318.8, 18152.186, 0.0, 10.000922, 9.9981985 
1.3250317e+3, 2.3504974e+2, -580567.44, -799773.6, 15207.8125, 0.056566123, -0.34160423, -579517.44, 56971.47, 0.0, 10.00119, 9.9982815 
1.3250393e+3, 2.4504858e+2, -501374.44, -828660.25, 36523.344, 0.027777413, -0.22871506, -497348.16, 41157.18, 0.0, 10.001545, 9.997248 
1.325049e+3, 2.5504777e+2, -335298.38, -687759.94, 29912.697, 0.17401779, -0.06581101, -332777.78, 107743.86, 0.0, 10.001976, 9.997331 
1.3250574e+3, 2.6504603e+2, -220038.58, -566875.9, 42969.145, 0.21241207, 0.02436477, -214794.48, 127748.14, 0.0000000978673, 10.002035, 9.997461 
1.3250645e+3, 2.7504304e+2, -161861.56, -484857.7, 57134.54, 0.13791828, -0.048686076, -152052.94, 92518.54, 0.000006920427, 10.00174, 9.997497 
1.3250728e+3, 2.850402e+2, -20715.78, -346355.56, 76899.86, 0.1655383, -0.08241831, -3469.2793, 143129.73, 0.000086783395, 10.001973, 9.997647 
1.325082e+3, 2.9503748e+2, 211389.36, -187691.8, 31947.242, 0.29721093, -0.15855867, 213930.63, 262556.7, 0.00039491727, 10.002895, 9.9976225 
1.3250905e+3, 3.0503562e+2, 297740.84, -261693.16, 24528.363, 0.379484, -0.03309063, 298814.22, 298814.22, 0.0010484775, 10.003784, 9.996352 
1.3250946e+3, 3.1503287e+2, 481291.47, -51421.145, 48434.03, 0.049446765, 0.013037555, 485659.28, 485659.28, 0.0020039321, 10.004452, 9.997482 
1.3349493e+3, 1.2504552e+2, -2132168.8, -1717842.4, 175054.75, -0.22715394, -0.1923577, -1653784.6, 60752.656, 0.0065457188, 9.996216, 10.001792 
1.3349558e+3, 1.350467e+2, -1848388.6, -1516661.5, -71807.77, -0.030847609, -0.27495024, -1501784.8, 114737.08, 0.0037237175, 9.997473, 10.001894 
1.3349648e+3, 1.4504804e+2, -1712530.1, -1571305.8, 116713.984, 0.20078485, -0.25799027, -1505506.0, 13000.85, 0.0014951822, 9.998458, 10.000367 
1.334971e+3, 1.5504912e+2, -1445646.5, -1398474.5, 147463.73, -0.030695587, -0.20767608, -1272722.4, 147773.81, 0.00032323142, 9.999647, 10.000309 
1.3349788e+3, 1.6504931e+2, -1370434.3, -1368870.5, 56092.65, -0.00034191212, -0.18661466, -1313554.3, 8940.583, 0.000017128494, 9.999744, 9.999784 
1.3349874e+3, 1.7504866e+2, -1394616.5, -1326149.3, 54123.652, 0.23277073, -0.26123047, -1296341.4, -71839.2, 0.00000000003443261, 9.998891, 9.999818 
1.3349943e+3, 1.8504916e+2, -1242185.9, -1180085.3, 129844.414, 0.16210946, -0.19843955, -1077630.1, 48867.5, 0.0, 9.999162, 10.000023 
1.335e+3, 1.950505e+2, -940468.94, -979647.7, 139846.16, -0.1685615, -0.09651457, -818846.75, 209637.64, 0.0, 10.000543, 10.000059 
1.335008e+3, 2.0504962e+2, -873864.44, -1064133.3, 51112.457, -0.15504368, -0.10840566, -861003.25, 69488.875, 0.0, 10.001061, 9.998547 
1.3350186e+3, 2.1504644e+2, -816651.06, -985202.0, 35461.29, 0.1927796, -0.31245115, -809494.25, 23027.951, 0.0, 10.000772, 9.99856 
1.3350266e+3, 2.2504489e+2, -767449.75, -983955.9, 39441.45, 0.22970995, -0.2819708, -760488.44, -25950.377, 0.0, 10.000763, 9.997898 
1.3350321e+3, 2.3504493e+2, -622180.0, -855262.7, 38318.875, -0.024712596, -0.09996553, -616042.0, 20498.553, 0.0, 10.001052, 9.997968 
1.3350405e+3, 2.4504323e+2, -513352.3, -820390.9, 40824.953, -0.02855014, -0.03180448, -508016.78, 30543.914, 0.0, 10.001405, 9.99737 
1.3350515e+3, 2.5503957e+2, -348051.97, -683981.8, 57911.68, 0.21788594, -0.16443987, -338348.72, 102251.94, 0.0, 10.001846, 9.997417 
1.3350603e+3, 2.6503697e+2, -187541.55, -478001.66, 20948.469, 0.28006515, -0.1954622, -186038.5, 156587.86, 0.00000008871969, 10.001938, 9.998119 
1.3350666e+3, 2.750352e+2, -134358.38, -395106.78, 60478.254, 0.15340762, -0.21734183, -121013.92, 123625.92, 0.000006673535, 10.0016, 9.998179 
1.3350745e+3, 2.8503296e+2, -88322.2, -461123.22, 97666.984, 0.11567412, -0.19002105, -64285.094, 82376.7, 0.00008871381, 10.00186, 9.996914 
1.3350843e+3, 2.9503012e+2, 139489.42, -304095.84, 85545.94, 0.19308673, -0.20568158, 155415.28, 204108.88, 0.00040757706, 10.00275, 9.996896 
1.3350937e+3, 3.0502805e+2, 334106.22, -154572.16, 47003.117, 0.28542557, -0.10341731, 338586.1, 338586.1, 0.0010919985, 10.003659, 9.997143 
1.335099e+3, 3.150263e+2, 465155.8, -21093.57, 98215.305, -0.0012408041, -0.03772236, 484244.5, 484244.5, 0.0020965715, 10.004188, 9.997817 
1.3449465e+3, 1.250367e+2, -2285720.0, -1784635.1, 220529.08, -0.07105846, -0.30957288, -1701404.3, 13216.807, 0.0069055543, 9.995137, 10.001852 
1.3449521e+3, 1.3503985e+2, -1737317.9, -1428001.5, -55038.137, -0.16504535, -0.22458069, -1418500.1, 198088.34, 0.0039389143, 9.998094, 10.002209 
1.3449647e+3, 1.4504153e+2, -1578186.3, -1433069.6, 37395.97, 0.30384132, -0.22467813, -1423999.8, 94570.37, 0.0015916337, 9.999067, 10.00102 
1.344971e+3, 1.5504213e+2, -1617577.3, -1411580.4, 34329.926, 0.0857156, -0.28259623, -1406009.9, 14551.693, 0.0003501717, 9.99818, 10.000918 
1.3449787e+3, 1.650425e+2, -1515598.5, -1462695.4, -6775.819, 0.06045257, -0.2619691, -1461841.3, -139283.03, 0.000020254476, 9.99886, 9.999565 
1.344987e+3, 1.750426e+2, -1086668.6, -1198465.3, -19393.615, 0.19710691, -0.23944397, -1083399.9, 141160.5, 0.0000000014653116, 10.001112, 9.999617 
1.3449942e+3, 1.8504287e+2, -986692.1, -1106378.6, 25563.557, 0.13421316, -0.167472, -981460.7, 145098.94, 0.0, 10.00114, 9.99957 
1.3450001e+3, 1.9504301e+2, -1192409.3, -1151117.6, -21212.19, -0.11561215, -0.13737763, -1142162.6, -113603.83, 0.0, 9.99904, 9.9996 
1.3450085e+3, 2.0504215e+2, -1136176.0, -1160433.1, -15024.397, -0.10609191, -0.13758653, -1128995.8, -198428.83, 0.0, 9.999122, 9.998829 
1.3450192e+3, 2.1504022e+2, -718099.9, -897147.2, 24408.617, 0.1555619, -0.24670924, -714832.0, 117752.57, 0.0, 10.001287, 9.99891 
1.3450275e+3, 2.2503881e+2, -563916.4, -897487.25, 63080.992, 0.18901658, -0.21598688, -552385.9, 182212.73, 0.0, 10.0022135, 9.997791 
1.345034e+3, 2.3503777e+2, -501733.22, -807282.9, 55833.496, 0.0058308663, -0.12835734, -491850.34, 144760.11, 0.0, 10.001932, 9.997869 
1.3450424e+3, 2.4503575e+2, -458932.75, -782275.6, 92194.62, 0.018709026, -0.093012534, -434492.66, 104139.96, 0.0, 10.001736, 9.997472 
1.3450532e+3, 2.5503254e+2, -374738.53, -684851.9, 85108.42, 0.22540617, -0.19251297, -352916.7, 87750.21, 0.0, 10.0016165, 9.997525 
1.3450621e+3, 2.6503012e+2, -229365.47, -506937.56, 38204.27, 0.2922511, -0.20548256, -224203.16, 118487.7, 0.000000062099474, 10.001708, 9.998025 
1.345069e+3, 2.7502823e+2, -66392.01, -370619.25, -10571.873, 0.2189933, -0.22739603, -66025.08, 178681.88, 0.0000065347235, 10.002114, 9.998092 
1.3450773e+3, 2.8502607e+2, 17852.23, -425980.53, 74944.88, 0.17441963, -0.18233046, 30165.686, 176894.88, 0.00008986311, 10.002643, 9.996787 
1.3450868e+3, 2.9502365e+2, 209112.38, -272137.28, 75123.7, 0.17618659, -0.14183162, 220566.67, 269323.44, 0.00041353333, 10.003241, 9.996878 
1.345097e+3, 3.0502093e+2, 334409.47, -131115.52, 49239.215, 0.26550788, -0.12029286, 339560.56, 339560.56, 0.001112479, 10.003523, 9.997391 
1.3451034e+3, 3.1501907e+2, 357831.66, -42370.66, -5119.616, 0.07714928, -0.09015206, 357897.13, 357897.13, 0.0021426177, 10.003308, 9.998094 
1.3549441e+3, 1.2503019e+2, -2332511.8, -1870414.5, 131756.19, 0.11990457, -0.2498776, -1835487.3, -120803.414, 0.0072628423, 9.995095, 10.0012865 
1.3549484e+3, 1.350331e+2, -1790603.6, -1535553.5, 71222.67, -0.36507425, -0.11335703, -1517012.5, 99643.42, 0.004152666, 9.998093, 10.001468 
1.3549626e+3, 1.45034e+2, -1551569.8, -1375111.8, -9317.829, 0.16020188, -0.16904607, -1374621.0, 144024.48, 0.0016872559, 9.999054, 10.001425 
1.3549706e+3, 1.5503418e+2, -1585564.3, -1348763.5, 12684.297, 0.1959049, -0.31721738, -1348086.0, 72554.36, 0.0003769789, 9.998185, 10.00135 
1.3549787e+3, 1.6503482e+2, -1516854.0, -1466845.1, 62192.086, 0.14790429, -0.29148588, -1424819.1, -102184.78, 0.000023370363, 9.998861, 9.999539 
1.3549866e+3, 1.7503577e+2, -1093043.4, -1208846.5, 73255.44, 0.023186289, -0.17691046, -1057569.6, 167059.48, 0.0000000068048798, 10.001089, 9.999562 
1.354994e+3, 1.8503499e+2, -1059482.9, -1244539.4, -67466.99, -0.010725859, -0.16118108, -1037497.94, 89142.04, 0.0, 10.001089, 9.998642 
1.355001e+3, 1.9503221e+2, -1267338.6, -1291687.4, -87835.98, 0.052830026, -0.3316519, -1190837.4, -162168.28, 0.0, 9.998973, 9.998668 
1.3550097e+3, 2.05032e+2, -1058519.9, -973423.1, 54344.535, 0.07744117, -0.28638893, -946952.0, -16281.932, 0.0, 9.999013, 10.000162 
1.3550198e+3, 2.1503425e+2, -647053.3, -716150.7, 115713.39, 0.06859528, -0.11180299, -560841.1, 271803.44, 0.0, 10.001137, 10.000228 
1.3550287e+3, 2.2503306e+2, -584568.25, -894841.9, 38622.152, 0.060124483, -0.12992088, -579832.94, 154820.61, 0.0, 10.00202, 9.997902 
1.3550365e+3, 2.3502836e+2, -518313.1, -804892.25, 56096.62, 0.055131737, -0.4215438, -507723.72, 128974.54, 0.0, 10.001775, 9.997961 
1.355045e+3, 2.4502623e+2, -473805.3, -779953.5, 76174.984, 0.07265991, -0.40252802, -455899.0, 82821.336, 0.0, 10.00159, 9.99756 
1.3550538e+3, 2.5502658e+2, -389233.38, -680885.5, 93094.664, 0.104910605, -0.1574528, -362051.2, 78669.945, 0.0, 10.0014715, 9.997623 
1.3550626e+3, 2.6502526e+2, -309837.84, -648161.4, 40832.938, 0.15519822, -0.01761082, -304979.4, 37758.414, 0.000000036385206, 10.001593, 9.997113 
1.3550714e+3, 2.7502203e+2, -154017.8, -519927.53, 20245.97, 0.23361452, -0.08108954, -152900.98, 91872.336, 0.0000068750182, 10.001972, 9.997139 
1.3550806e+3, 2.8501946e+2, 33926.13, -364171.53, 87904.336, 0.22097443, -0.049833473, 52472.355, 199273.14, 0.00009120505, 10.002523, 9.997267 
1.35509e+3, 2.9501763e+2, 221947.48, -217480.88, 117139.5, 0.12510483, 0.00008175341, 251223.23, 300043.16, 0.00041554915, 10.003113, 9.99732 
1.3551001e+3, 3.050138e+2, 295118.84, -174777.14, 31218.879, 0.20496123, -0.09901641, 297183.88, 297183.88, 0.0011133862, 10.003378, 9.997151 
1.3551071e+3, 3.1501058e+2, 330371.4, -39637.598, 5806.2446, 0.060520988, -0.18030465, 330462.47, 330462.47, 0.0021422245, 10.003067, 9.998221 
1.3649413e+3, 1.2502337e+2, -1908238.1, -1637680.3, 59813.383, 0.21095383, -0.16615233, -1625046.9, 89705.39, 0.0076198755, 9.997867, 10.001553 
1.364947e+3, 1.350249e+2, -1912314.0, -1614415.8, 110840.98, -0.27451792, -0.1546883, -1577699.6, 39035.13, 0.004366158, 9.99733, 10.001296 
1.3649605e+3, 1.4502536e+2, -1832581.8, -1530026.8, 7599.762, 0.1483093, -0.2346777, -1529835.9, -11106.897, 0.0017823466, 9.997219, 10.001238 
1.3649684e+3, 1.5502647e+2, -1629353.3, -1384674.8, -37867.52, 0.17793405, -0.27492458, -1378948.3, 41769.875, 0.0004035849, 9.997966, 10.001202 
1.364977e+3, 1.650275e+2, -1562398.4, -1444390.5, 77225.664, 0.13909774, -0.22216032, -1406207.6, -83498.305, 0.000026350568, 9.998345, 9.999945 
1.3649863e+3, 1.7502843e+2, -1446931.4, -1330589.8, 97487.53, 0.020049825, -0.15649667, -1275236.6, -50533.26, 0.000000016360648, 9.998448, 9.999997 
1.3649945e+3, 1.8502773e+2, -1282579.4, -1336649.0, -5101.47, 0.01329423, -0.15758261, -1282102.3, -155390.33, 0.0, 9.99948, 9.99879 
1.365002e+3, 1.9502531e+2, -893548.3, -1088714.3, 32687.389, 0.12476646, -0.31196478, -888219.2, 140517.14, 0.0, 10.001445, 9.998868 
1.3650106e+3, 2.0502505e+2, -717406.94, -852844.7, 181834.45, 0.16336055, -0.26552343, -591090.75, 339647.63, 0.0, 10.001543, 9.999771 
1.3650207e+3, 2.1502677e+2, -865922.3, -864829.75, 92375.625, 0.12898079, -0.10183573, -772998.75, 59721.1, 0.0, 9.999821, 9.99984 
1.36503e+3, 2.2502553e+2, -874085.5, -994939.5, 5851.06, 0.100134835, -0.12305591, -873802.9, -139073.1, 0.0, 9.999854, 9.99826 
1.3650383e+3, 2.350213e+2, -522423.6, -770269.9, 15923.016, 0.07220863, -0.40427896, -521404.78, 115364.266, 0.0, 10.001575, 9.998302 
1.3650468e+3, 2.450194e+2, -363212.44, -698894.6, 37962.8, 0.07064857, -0.38914543, -358972.72, 179814.14, 0.0, 10.002236, 9.997802 
1.3650553e+3, 2.5501975e+2, -306443.38, -612305.6, 39931.48, 0.08707193, -0.16769911, -301316.1, 139468.83, 0.0, 10.00192, 9.997874 
1.3650644e+3, 2.650181e+2, -269781.7, -680840.4, 64270.91, 0.1437656, -0.053932294, -259967.0, 82837.805, 0.000000033203506, 10.00209, 9.996652 
1.3650739e+3, 2.7501425e+2, -68368.0, -522826.44, 51857.168, 0.24213842, -0.13649166, -62525.81, 182322.4, 0.0000069323874, 10.002756, 9.9967375 
1.3650833e+3, 2.8501183e+2, 116807.96, -292497.7, 149367.45, 0.23784931, -0.08608676, 165519.33, 312394.16, 0.000089487476, 10.002979, 9.997529 
1.3650931e+3, 2.9501086e+2, 216012.66, -182138.81, 140258.9, 0.14893964, 0.02468892, 260460.45, 309345.0, 0.00040599194, 10.002928, 9.997639 
1.3651036e+3, 3.05007e+2, 313902.34, -208774.9, 84358.72, 0.21440053, -0.07349976, 327180.3, 327180.3, 0.0010855863, 10.003689, 9.996778 
1.3651118e+3, 3.1500342e+2, 604922.56, 98725.41, -13571.925, 0.12421836, -0.14678732, 605286.2, 605286.2, 0.0020887458, 10.004901, 9.998316 
1.3749383e+3, 1.2501644e+2, -1839650.4, -1498619.5, -28029.24, 0.06863135, -0.054322336, -1496331.1, 218493.17, 0.0079810945, 9.997888, 10.002497 
1.3749473e+3, 1.350152e+2, -1887092.8, -1562252.3, 93393.59, -0.0028610327, -0.36200783, -1537315.4, 79510.59, 0.0045821774, 9.997322, 10.001659 
1.3749582e+3, 1.4501557e+2, -1888350.5, -1643943.1, 15839.508, 0.16180328, -0.42921025, -1642920.9, -124099.766, 0.0018779465, 9.99721, 10.000463 
1.3749643e+3, 1.5501896e+2, -1684248.5, -1495197.4, 1751.5901, -0.06256172, -0.16683742, -1495181.1, -74385.805, 0.00043006244, 9.99795, 10.00045 
1.3749737e+3, 1.6502063e+2, -1500010.0, -1317407.0, 64741.348, -0.072439596, -0.053830598, -1296782.6, 25999.846, 0.000029160963, 9.998348, 10.000819 
1.3749857e+3, 1.7502058e+2, -1384353.6, -1201034.1, 111414.27, 0.091538996, -0.17493339, -1148421.1, 76361.56, 0.000000027808229, 9.998434, 10.000901 
1.3749953e+3, 1.8502116e+2, -1197891.5, -1153885.3, 54794.848, 0.10918964, -0.15726152, -1116840.9, 9934.169, 0.0, 9.999456, 10.000054 
1.3750024e+3, 1.950222e+2, -820195.06, -916954.25, 113566.89, 0.01197645, -0.088268, -745132.25, 283629.38, 0.0, 10.001361, 10.000092 
1.3750112e+3, 2.0502111e+2, -875370.2, -1156408.8, 103917.62, 0.05086612, -0.08212045, -841119.5, 89653.555, 0.0, 10.001438, 9.997738 
1.3750218e+3, 2.1501778e+2, -1032859.2, -1175646.5, 39807.477, 0.2319566, -0.2198117, -1022511.2, -189700.8, 0.0, 9.999665, 9.997784 
1.375031e+3, 2.2501633e+2, -860782.56, -924045.8, 60303.242, 0.20069288, -0.18938048, -824318.4, -89491.95, 0.0, 9.999672, 9.998831 
1.3750388e+3, 2.3501657e+2, -508880.9, -698335.44, 92926.914, -0.04374206, -0.07851079, -470910.53, 165912.22, 0.0, 10.001393, 9.998879 
1.3750476e+3, 2.450152e+2, -361858.78, -661283.1, 10367.34, -0.08590614, -0.05823583, -361500.25, 177332.67, 0.0, 10.00208, 9.998138 
1.3750574e+3, 2.5501212e+2, -302667.3, -572340.2, 37764.39, 0.083073914, -0.21575338, -297478.72, 143379.34, 0.0, 10.001777, 9.998221 
1.3750668e+3, 2.6500872e+2, -286055.97, -683221.44, 78628.4, 0.16112746, -0.29317865, -271056.1, 71834.28, 0.000000022673568, 10.00196, 9.996695 
1.3750759e+3, 2.7500477e+2, -89449.164, -529389.06, 89898.97, 0.1441593, -0.3908505, -71787.88, 173144.94, 0.0000066245593, 10.002607, 9.996759 
1.3750856e+3, 2.85003e+2, 118320.44, -275139.94, 131990.1, 0.12654246, -0.2823133, 158495.61, 305448.1, 0.000084736, 10.002908, 9.997687 
1.3750961e+3, 2.9500347e+2, 203865.98, -173282.53, 154821.94, 0.13319582, -0.045775563, 259279.6, 308229.25, 0.00038240635, 10.00277, 9.997785 
1.3751072e+3, 3.0500054e+2, 250249.5, -297807.5, 126310.49, 0.17804353, -0.034533393, 277959.22, 277959.22, 0.0010235131, 10.003519, 9.996238 
1.3751163e+3, 3.149967e+2, 547648.25, 65431.26, 62415.902, 0.049917433, -0.06954225, 555596.06, 555596.06, 0.0019776835, 10.004569, 9.99823 
1.3849361e+3, 1.2500845e+2, -1963238.1, -1553474.9, -999.23206, 0.11024661, -0.040076725, -1553472.4, 161431.33, 0.008351057, 9.997025, 10.002534 
1.384946e+3, 1.3500714e+2, -1906924.8, -1582111.3, 20302.791, 0.14906728, -0.3437326, -1580847.1, 36058.605, 0.004803759, 9.997238, 10.001558 
1.3849555e+3, 1.4500758e+2, -1877333.4, -1650556.6, 27231.957, 0.17015834, -0.39076838, -1647332.4, -128432.74, 0.0019753822, 9.997333, 10.000362 
1.3849624e+3, 1.5501049e+2, -1640106.3, -1480323.9, 37060.105, -0.06502421, -0.17063639, -1472146.6, -51268.27, 0.00045665295, 9.998274, 10.0004 
1.3849722e+3, 1.6501199e+2, -1431006.5, -1282510.5, 97041.03, -0.065171964, -0.07383186, -1234571.3, 88295.72, 0.00003186285, 9.998839, 10.000814 
1.3849846e+3, 1.7501208e+2, -1295886.9, -1155182.1, 47164.59, 0.10410356, -0.17872567, -1140835.3, 84030.11, 0.000000039188958, 9.999051, 10.000913 
1.3849947e+3, 1.850129e+2, -1211613.0, -1131869.8, -19825.27, 0.13304342, -0.15226313, -1127212.9, -357.5532, 0.0, 9.999233, 10.000318 
1.385003e+3, 1.9501431e+2, -1054324.6, -993031.56, -52720.477, 0.037717286, -0.07614563, -962697.3, 66140.91, 0.0, 9.999596, 10.000414 
1.3850123e+3, 2.050132e+2, -1029216.4, -1244394.8, -48555.082, 0.054383483, -0.08279147, -1018767.3, -87917.46, 0.0, 10.000448, 9.997606 
1.385022e+3, 2.1500948e+2, -721881.9, -1037570.94, 5113.1563, 0.18519934, -0.24864617, -721799.06, 111092.15, 0.0, 10.00185, 9.997679 
1.3850315e+3, 2.2500817e+2, -524652.1, -778025.9, 118236.67, 0.17608662, -0.19064522, -478048.84, 256857.8, 0.0, 10.002038, 9.998704 
1.3850407e+3, 2.3500912e+2, -550399.2, -732347.4, 77002.39, 0.02779973, 0.00423861, -522185.84, 114712.33, 0.0, 10.001159, 9.998766 
1.3850501e+3, 2.4500759e+2, -520883.16, -751712.7, -28529.043, 0.014415839, 0.019305194, -517409.44, 21501.527, 0.0, 10.00106, 9.997996 
1.3850595e+3, 2.550035e+2, -304689.9, -584945.6, -67702.16, 0.13273597, -0.22407268, -289191.94, 151753.63, 0.0, 10.0018215, 9.9981 
1.385069e+3, 2.649999e+2, -188623.98, -622163.3, -2063.7505, 0.17107192, -0.32561657, -188614.17, 154364.52, 0.0000000049794013, 10.0025625, 9.996825 
1.3850784e+3, 2.7499652e+2, 30684.695, -458683.66, -4604.294, 0.1263749, -0.37900716, 30728.012, 275740.94, 0.0000064670485, 10.003356, 9.996894 
1.3850886e+3, 2.849944e+2, 197733.75, -278858.16, 14064.163, 0.10574436, -0.29340553, 198148.42, 345183.75, 0.00007993784, 10.003625, 9.997327 
1.3850991e+3, 2.949935e+2, 287669.22, -163517.88, -31898.316, 0.12411844, -0.15741472, 289913.22, 338959.97, 0.00035406946, 10.003474, 9.997511 
1.3851105e+3, 3.04991e+2, 275165.97, -291217.16, 2686.3416, 0.15923618, -0.08736751, 275178.72, 275178.72, 0.0009463453, 10.0036955, 9.9962015 
1.3851212e+3, 3.1498787e+2, 494571.22, 62883.2, -64288.984, 0.12518539, -0.054690387, 503942.03, 503942.03, 0.0018381584, 10.004076, 9.998451 
1.3949345e+3, 1.24998584e+2, -2036872.4, -1677754.4, 23881.451, 0.19727714, -0.19798462, -1676173.3, 38825.555, 0.008733579, 9.996936, 10.001704 
1.3949427e+3, 1.3500077e+2, -1945296.8, -1658132.8, 19973.383, 0.068924025, -0.101542324, -1656750.1, -39776.21, 0.005033633, 9.997225, 10.001041 
1.3949521e+3, 1.4500171e+2, -1830252.1, -1554602.5, 36829.277, 0.0646177, -0.10601892, -1549766.6, -30804.354, 0.002076125, 9.997338, 10.001017 
1.394962e+3, 1.5500122e+2, -1600603.6, -1390773.5, 84820.22, 0.05305385, -0.2891427, -1360775.1, 60190.75, 0.00048381835, 9.9982395, 10.001032 
1.3949724e+3, 1.6500159e+2, -1499586.4, -1424115.3, 89170.85, 0.041155867, -0.2882222, -1365024.1, -42061.297, 0.000034571214, 9.998835, 9.999847 
1.3949825e+3, 1.7500281e+2, -1375675.8, -1307789.4, 61893.277, -0.024045154, -0.18035483, -1271142.8, -46189.492, 0.00000005013657, 9.998996, 9.999894 
1.3949928e+3, 1.8500291e+2, -1248809.5, -1208931.4, -23597.504, -0.013812125, -0.146246, -1197977.0, -71023.445, 0.0, 9.999229, 9.999791 
1.3950035e+3, 1.9500174e+2, -1103760.5, -1079468.9, -30300.564, 0.10491237, -0.27364454, -1058970.4, -30005.352, 0.0, 9.999518, 9.999864 
1.395013e+3, 2.050014e+2, -921147.44, -993048.44, -8261.285, 0.075624265, -0.2630464, -920210.44, 10757.255, 0.0, 10.000334, 9.999385 
1.3950211e+3, 2.1500184e+2, -624790.25, -795104.94, 67057.18, -0.10767292, -0.18826082, -601557.4, 231404.92, 0.0, 10.0016775, 9.999426 
1.3950312e+3, 2.2500113e+2, -596161.9, -897276.56, 72147.79, -0.074293576, -0.121612824, -579767.7, 155202.81, 0.0, 10.001899, 9.997955 
1.3950437e+3, 2.3499914e+2, -624026.9, -853395.8, 57017.477, 0.19198716, -0.1487359, -610635.1, 26358.65, 0.0, 10.001014, 9.998008 
1.395054e+3, 2.449968e+2, -588532.75, -857017.75, -11189.854, 0.26462346, -0.14402723, -588067.2, -49048.438, 0.0, 10.000911, 9.997343 
1.3950616e+3, 2.549939e+2, -379935.5, -699192.2, -26717.754, 0.14314204, -0.20104845, -377715.0, 63332.637, 0.0, 10.00165, 9.997395 
1.3950709e+3, 2.649915e+2, -187793.42, -596534.3, 16034.807, 0.0857744, -0.15753876, -187165.34, 155905.16, 0.0000000011462398, 10.002453, 9.997057 
1.3950817e+3, 2.7498952e+2, 22930.275, -437412.66, 41004.832, 0.09589334, -0.09558684, 26554.232, 271642.06, 0.0000063015364, 10.003189, 9.997126 
1.3950919e+3, 2.8498614e+2, 111698.83, -422469.13, -326.64334, 0.06488347, -0.10234828, 111699.02, 258820.38, 0.00007549819, 10.003478, 9.9964075 
1.3951015e+3, 2.949809e+2, 197044.83, -318979.06, -17003.254, 0.0031970863, -0.30333704, 197604.48, 246779.89, 0.0003302392, 10.003335, 9.99651 
1.3951132e+3, 3.0497843e+2, 301295.03, -208343.3, 7659.5146, 0.042572137, -0.21437193, 301410.13, 301410.13, 0.0008840765, 10.003576, 9.996824 
1.3951258e+3, 3.1497735e+2, 481571.7, 116564.99, -15473.737, 0.14465772, -0.042726517, 482226.5, 482226.5, 0.0017242451, 10.003743, 9.998976 
1.4049329e+3, 1.2498946e+2, -1944115.9, -1721911.9, 50722.617, 0.299458, -0.22657149, -1710881.0, 4203.7153, 0.009133226, 9.997917, 10.00094 
1.4049405e+3, 1.349918e+2, -1792226.1, -1626461.0, -13129.655, 0.07622701, -0.077451676, -1625427.5, -8364.487, 0.005275387, 9.998433, 10.000687 
1.4049506e+3, 1.449928e+2, -1645116.5, -1464459.3, 26544.01, 0.13154443, -0.06271132, -1460640.0, 58412.195, 0.0021822979, 9.998596, 10.001036 
1.4049612e+3, 1.5499192e+2, -1555699.3, -1374281.1, -6819.6636, 0.14159247, -0.280001, -1374025.1, 47032.28, 0.00051218417, 9.998565, 10.000995 
1.4049716e+3, 1.6499203e+2, -1544886.1, -1442811.0, 31095.855, 0.09727345, -0.30387273, -1434084.1, -111029.305, 0.000037386584, 9.9985075, 9.999873 
1.4049813e+3, 1.7499307e+2, -1407267.3, -1315108.4, 58117.6, -0.017196665, -0.22446503, -1287019.3, -61974.273, 0.00000006103049, 9.998738, 9.999963 
1.4049919e+3, 1.8499286e+2, -1300282.0, -1296200.3, 51410.664, -0.0066908896, -0.19886197, -1246790.0, -119740.7, 0.0, 9.999152, 9.999227 
1.4050035e+3, 1.949913e+2, -1095366.5, -1135741.0, 15782.353, 0.13465527, -0.30888733, -1089929.5, -60860.844, 0.0, 9.999839, 9.999322 
1.4050135e+3, 2.0499118e+2, -925740.44, -942999.5, 17102.979, 0.095627435, -0.27518275, -915213.2, 15856.911, 0.0, 10.000074, 9.999857 
1.4050215e+3, 2.1499237e+2, -831650.6, -834605.3, -24741.08, -0.13035558, -0.17399076, -808342.8, 24712.156, 0.0, 10.000007, 9.999954 
1.4050323e+3, 2.2499183e+2, -841989.4, -1014019.94, -44647.742, -0.07917022, -0.11671447, -831092.06, -96031.25, 0.0, 10.000229, 9.997947 
1.4050451e+3, 2.3498939e+2, -658771.3, -862600.25, -31633.03, 0.2534076, -0.18790255, -653974.94, -16885.973, 0.0, 10.000761, 9.998054 
1.4050558e+3, 2.449872e+2, -472443.9, -811869.6, 21697.686, 0.32919934, -0.1674097, -471062.5, 68051.67, 0.0, 10.001746, 9.997261 
1.405064e+3, 2.54985e+2, -151663.06, -596158.0, 30841.953, 0.13597818, -0.14196315, -149533.25, 291605.1, 0.0, 10.003241, 9.997345 
1.4050739e+3, 2.6498303e+2, 24340.998, -444734.7, 91917.43, 0.073127516, -0.073725775, 41709.516, 384866.9, 0.0000000047036606, 10.003705, 9.997492 
1.4050855e+3, 2.7498135e+2, 65773.6, -360310.53, 94947.89, 0.14770484, -0.027553912, 85973.95, 331144.4, 0.000006310061, 10.003259, 9.997611 
1.405096e+3, 2.849779e+2, 71311.05, -486833.94, 114241.305, 0.13657819, -0.04548223, 93788.77, 240992.4, 0.00007173929, 10.0034, 9.995999 
1.4051057e+3, 2.9497227e+2, 279427.97, -322579.38, 113482.86, 0.051535264, -0.24724558, 300109.8, 349371.4, 0.0003165935, 10.004104, 9.99611 
1.4051172e+3, 3.0496952e+2, 386649.72, -156785.94, 149795.56, 0.062832244, -0.16465175, 425204.8, 425204.8, 0.00085306575, 10.004115, 9.9969225 
1.4051302e+3, 3.149667e+2, 421208.4, 62162.65, 38473.625, 0.22282101, -0.17748296, 425284.75, 425284.75, 0.001666885, 10.003419, 9.998769 
1.4149298e+3, 1.24980845e+2, -1982263.6, -1801024.3, -15198.274, 0.1498957, -0.16819857, -1799758.6, -84594.84, 0.009556688, 9.997914, 10.0004015 
1.4149389e+3, 1.3498029e+2, -1810929.8, -1657618.9, 16604.02, 0.05860021, -0.28184274, -1655841.3, -38668.65, 0.0055341963, 9.9984045, 10.000487 
1.4149506e+3, 1.4498065e+2, -1685467.5, -1553615.6, 7103.798, 0.24428134, -0.2956473, -1553234.0, -34062.938, 0.0022969088, 9.998618, 10.000414 
1.4149596e+3, 1.5498266e+2, -1611115.9, -1485566.6, 1684.5438, 0.10788546, -0.14912044, -1485544.0, -64391.3, 0.0005425403, 9.9985485, 10.00024 
1.4149694e+3, 1.6498353e+2, -1460743.0, -1271300.5, 22139.63, 0.00014931595, -0.117835805, -1268747.5, 54393.895, 0.000040406845, 9.998517, 10.00105 
1.4149807e+3, 1.7498308e+2, -1333393.4, -1147319.9, 76982.77, 0.027970267, -0.3001807, -1119599.9, 105538.805, 0.00000007226826, 9.9986725, 10.00115 
1.4149919e+3, 1.8498296e+2, -1348631.8, -1387514.9, 63275.344, 0.0498014, -0.2954514, -1301878.5, -174737.83, 0.0, 9.999115, 9.998615 
1.4150025e+3, 1.9498304e+2, -1152700.0, -1237373.6, 50921.188, 0.03488466, -0.17932044, -1128814.6, -99665.84, 0.0, 9.999764, 9.99866 
1.415013e+3, 2.0498247e+2, -986406.3, -1053062.3, -3279.7742, 0.01975223, -0.11994472, -986245.3, -55087.637, 0.0, 9.999998, 9.999141 
1.4150235e+3, 2.1498111e+2, -907003.75, -955343.75, -17547.414, 0.026799744, -0.20170644, -901305.7, -68136.86, 0.0, 9.999845, 9.999209 
1.4150341e+3, 2.2498024e+2, -816692.44, -920231.56, -38274.063, 0.06212539, -0.17599985, -804080.4, -68902.75, 0.0, 10.000054, 9.998671 
1.4150448e+3, 2.349798e+2, -641073.3, -777959.3, -388.10065, 0.12123787, -0.11802111, -641072.25, -3887.5845, 0.0, 10.000565, 9.998724 
1.4150555e+3, 2.4497879e+2, -450081.75, -739404.4, 66644.266, 0.104025, -0.03984215, -435468.6, 103728.44, 0.0, 10.001623, 9.997819 
1.4150661e+3, 2.54977e+2, -132425.36, -524606.5, 100149.55, 0.012313399, -0.03870861, -108330.914, 332885.9, 0.0, 10.0030985, 9.997907 
1.4150774e+3, 2.649747e+2, 38677.934, -379702.78, 63183.785, 0.037422307, -0.055575598, 48011.707, 391250.0, 0.000000079284355, 10.003555, 9.998008 
1.4150892e+3, 2.7497184e+2, 73866.97, -304703.06, 93065.67, 0.1756159, -0.17707863, 95508.56, 340771.16, 0.000007370644, 10.003097, 9.99807 
1.4151004e+3, 2.8496945e+2, 75118.01, -461219.9, 127774.85, 0.2049268, -0.121428095, 104002.92, 251287.6, 0.00007202747, 10.003316, 9.996217 
1.4151111e+3, 2.949673e+2, 269496.44, -310444.2, 158239.44, 0.15169978, 0.000054179123, 309863.06, 359170.6, 0.0003176136, 10.003947, 9.996277 
1.4151219e+3, 3.0496404e+2, 319161.66, -248600.61, 116960.56, 0.099206895, 0.05312584, 342311.9, 342311.9, 0.0008555333, 10.003931, 9.996363 
1.4151333e+3, 3.149562e+2, 303382.03, -122996.61, 57677.18, 0.1556409, -0.4155755, 311046.4, 311046.4, 0.0016667696, 10.003194, 9.997585 
1.4249274e+3, 1.24970235e+2, -2206462.8, -1887952.4, -49198.695, 0.20110083, -0.23533663, -1880526.0, -165260.69, 0.010011913, 9.996304, 10.000578 
1.4249368e+3, 1.3497043e+2, -1906117.1, -1682201.6, 21799.828, 0.052968748, -0.28474745, -1680099.0, -62831.86, 0.0058154534, 9.997704, 10.000642 
1.4249489e+3, 1.4497055e+2, -1710305.0, -1597965.6, 27234.434, 0.21720354, -0.31713644, -1591711.4, -72442.83, 0.002423067, 9.998607, 10.000104 
1.424958e+3, 1.5497237e+2, -1631718.0, -1528586.8, 18963.34, 0.095791504, -0.15674199, -1525210.4, -103958.234, 0.00057589856, 9.998569, 9.999918 
1.424968e+3, 1.6497304e+2, -1413751.9, -1260485.0, 55694.344, 0.0061112326, -0.12783358, -1242384.4, 80859.0, 0.00004378684, 9.998876, 10.000956 
1.4249803e+3, 1.749724e+2, -1180798.6, -1083155.0, -8028.1377, 0.078869455, -0.3232356, -1082499.4, 142743.94, 0.00000008454083, 9.99975, 10.001076 
1.4249921e+3, 1.8497248e+2, -1174159.0, -1304520.4, -20539.375, 0.09780949, -0.2934132, -1170999.5, -43755.773, 0.0, 10.000324, 9.998599 
1.4250025e+3, 1.9497317e+2, -1013892.44, -1169429.6, -9748.959, 0.012894065, -0.11323636, -1013283.75, 15961.884, 0.0, 10.000723, 9.998659 
1.4250132e+3, 2.049725e+2, -893250.06, -1050028.4, -27664.258, 0.0019430469, -0.046372104, -888511.75, 42744.63, 0.0, 10.000817, 9.998768 
1.4250241e+3, 2.149702e+2, -808464.7, -950255.2, -41882.824, 0.086171046, -0.18389598, -797017.3, 36260.86, 0.0, 10.000688, 9.998843 
1.425035e+3, 2.2496893e+2, -665509.7, -832719.1, -16247.235, 0.108633064, -0.18867531, -663945.6, 71345.22, 0.0, 10.001019, 9.998816 
1.4250453e+3, 2.3496863e+2, -431475.66, -661020.44, -42656.04, 0.054032397, -0.13075702, -423805.25, 213489.69, 0.0, 10.001918, 9.998888 
1.4250565e+3, 2.44968e+2, -395204.56, -643118.94, 9708.963, 0.041126262, -0.05045308, -394824.9, 144477.4, 0.0, 10.001719, 9.998427 
1.4250687e+3, 2.549669e+2, -453316.5, -606795.6, 14735.723, 0.07243314, -0.038919486, -451914.5, -10599.994, 0.00000000006254562, 10.000591, 9.998543 
1.4250804e+3, 2.6496494e+2, -347992.1, -573174.0, 2787.4065, 0.12188239, -0.055242747, -347957.6, -4624.141, 0.00000036239143, 10.000918, 9.997954 
1.4250922e+3, 2.7496198e+2, 13115.076, -337302.56, -27581.582, 0.18749252, -0.18063655, 15272.753, 260632.73, 0.000010087366, 10.002678, 9.99805 
1.425104e+3, 2.849597e+2, 188201.81, -330032.2, 31145.438, 0.22644563, -0.14593583, 190066.9, 337446.7, 0.00007869426, 10.003771, 9.996901 
1.4251164e+3, 2.9495794e+2, 386074.0, -172782.61, 53785.99, 0.2615294, -0.052960712, 391203.44, 440598.44, 0.00033370158, 10.004405, 9.997001 
1.4251272e+3, 3.0495474e+2, 482914.47, -249385.45, 44369.34, 0.17776486, 0.0010567806, 485592.94, 485592.94, 0.00088813045, 10.005372, 9.995681 
1.425138e+3, 3.1494755e+2, 696862.5, -57940.37, -50307.098, 0.14164348, -0.3330747, 700200.7, 700200.7, 0.001719971, 10.006426, 9.996487 
1.4349246e+3, 1.2495833e+2, -2133151.8, -1734656.0, -56715.164, 0.23107427, -0.38808015, -1726741.4, -11358.645, 0.010506618, 9.9962845, 10.001641 
1.434934e+3, 1.349626e+2, -1889594.3, -1632143.0, 100249.62, -0.018724108, -0.06947845, -1597711.5, 19631.652, 0.006123269, 9.997643, 10.001006 
1.434945e+3, 1.449628e+2, -1698273.5, -1583666.5, 14236.13, -0.07414559, -0.116036, -1581924.5, -62583.266, 0.002563054, 9.998643, 10.000192 
1.4349559e+3, 1.5496126e+2, -1630365.0, -1519737.0, 27442.035, 0.006972937, -0.30224136, -1513303.9, -91949.64, 0.0006133788, 9.998535, 10.000003 
1.4349672e+3, 1.6496062e+2, -1509241.0, -1457791.5, 71180.78, 0.005189621, -0.33792368, -1407829.6, -84469.12, 0.000047750204, 9.998869, 9.999607 
1.43498e+3, 1.7496085e+2, -1277863.0, -1285382.8, 34180.918, 0.04380945, -0.3092064, -1247235.8, -21875.436, 0.00000010052836, 9.999745, 9.999695 
1.4349921e+3, 1.849613e+2, -1134174.0, -1214324.6, -21484.857, 0.039925355, -0.20306791, -1128778.1, -1418.9691, 0.0, 10.000297, 9.99923 
1.435003e+3, 1.949618e+2, -985624.94, -1087818.1, 15338.688, -0.033342812, -0.10630816, -983372.3, 45986.297, 0.0, 10.000623, 9.9992695 
1.4350134e+3, 2.0496133e+2, -910952.06, -1061470.3, -47407.4, -0.07133834, -0.0495571, -897265.1, 34100.637, 0.0, 10.000706, 9.998742 
1.4350237e+3, 2.149597e+2, -841023.4, -976042.2, -35992.55, -0.04629591, -0.11632401, -832028.0, 1354.3195, 0.0, 10.000508, 9.998752 
1.4350347e+3, 2.2495794e+2, -720148.8, -903656.9, 4442.9097, -0.035494264, -0.14222334, -720041.3, 15358.345, 0.0, 10.00084, 9.998412 
1.4350463e+3, 2.34956e+2, -488981.25, -731810.4, 2285.083, -0.043555997, -0.21127674, -488959.72, 148458.69, 0.0, 10.001719, 9.998494 
1.4350584e+3, 2.4495494e+2, -374933.2, -567688.7, -47715.887, 0.036504805, -0.18408744, -363768.03, 175661.03, 0.0, 10.001565, 9.999023 
1.4350706e+3, 2.5495473e+2, -438105.38, -538440.06, -17344.586, 0.2107617, -0.14468239, -435191.66, 6240.849, 0.000000006122379, 10.000434, 9.999088 
1.4350827e+3, 2.6495373e+2, -392263.25, -644255.6, 55611.82, 0.22661112, -0.06423488, -380536.13, -37093.21, 0.0000008787704, 10.000822, 9.997517 
1.435094e+3, 2.749519e+2, -36313.57, -411819.63, 53678.805, 0.08339082, -0.03134891, -28790.861, 216670.61, 0.000014147242, 10.002551, 9.997605 
1.4351067e+3, 2.8494886e+2, 240769.13, -193680.03, 41639.926, 0.0959684, -0.106465966, 244724.13, 392211.63, 0.000090676054, 10.003649, 9.997895 
1.435121e+3, 2.9494417e+2, 422843.8, -58802.168, 94411.5, 0.26368624, -0.4040401, 440689.03, 490213.66, 0.00036367134, 10.004235, 9.9978695 
1.4351328e+3, 3.0494153e+2, 418838.38, -341513.3, 72512.82, 0.17931636, -0.30562326, 425691.97, 425691.97, 0.00095393904, 10.005216, 9.995115 
1.4351435e+3, 3.149409e+2, 583703.94, -211860.28, 40093.348, 0.002023827, 0.074479535, 585719.4, 585719.4, 0.0018363051, 10.0060835, 9.995598 
1.4449206e+3, 1.24946624e+2, -1954631.5, -1611126.8, 4242.5283, 0.16569145, -0.4481627, -1611074.4, 104422.17, 0.011047917, 9.99732, 10.002 
1.4449324e+3, 1.3495125e+2, -1818766.9, -1615644.0, 58581.434, 0.035866905, -0.09208457, -1599959.9, 17492.324, 0.00646129, 9.998174, 10.00087 
1.444943e+3, 1.4495152e+2, -1722030.9, -1598320.6, -73918.125, -0.11831225, -0.1185086, -1563791.4, -44341.965, 0.0027186894, 9.998511, 10.000143 
1.4449546e+3, 1.549496e+2, -1623234.5, -1511241.0, -101509.086, 0.02182049, -0.34397328, -1451308.0, -29841.191, 0.0006559602, 9.998569, 10.000043 
1.4449663e+3, 1.6494887e+2, -1579306.4, -1548942.3, 22909.09, 0.04412043, -0.36345935, -1536641.3, -213165.33, 0.000052490832, 9.998657, 9.999072 
1.4449793e+3, 1.7494929e+2, -1410609.0, -1402808.1, 23999.47, 0.03044484, -0.26354527, -1382394.1, -156916.95, 0.00000012546444, 9.999088, 9.999189 
1.4449915e+3, 1.8494964e+2, -1217507.5, -1211953.1, 8324.171, 0.014557279, -0.16438879, -1205955.1, -78478.02, 0.0, 9.99952, 9.999629 
1.4450032e+3, 1.9494976e+2, -1047493.9, -1065675.5, 6079.3716, -0.036729984, -0.1475698, -1045648.44, -16172.0205, 0.0, 9.99997, 9.999735 
1.4450139e+3, 2.0494941e+2, -962361.44, -1110383.3, -56161.254, -0.07666157, -0.092251025, -943465.44, -11983.194, 0.0, 10.000464, 9.998522 
1.445024e+3, 2.1494833e+2, -772203.8, -962449.5, -83791.266, -0.0827121, -0.082021505, -740561.8, 92934.66, 0.0, 10.001074, 9.9985695 
1.4450353e+3, 2.2494671e+2, -691031.5, -878251.6, -6320.895, -0.050162032, -0.090841934, -690818.4, 44694.535, 0.0, 10.000982, 9.998522 
1.4450479e+3, 2.3494439e+2, -696091.1, -817737.25, 6295.5967, 0.010592866, -0.20895232, -695766.1, -58233.29, 0.0, 10.000221, 9.998628 
1.4450598e+3, 2.449431e+2, -530121.0, -676576.94, -23391.447, 0.07502196, -0.19813915, -526475.75, 13069.585, 0.0, 10.000649, 9.9987135 
1.4450714e+3, 2.549427e+2, -167641.95, -447467.6, -79723.516, 0.1372384, -0.14408807, -146522.38, 295029.6, 0.000000012932129, 10.002439, 9.998759 
1.4450839e+3, 2.649415e+2, -4439.7417, -437089.63, 31674.695, 0.15539898, -0.07222932, -2133.1057, 341430.94, 0.0000016431604, 10.003415, 9.997681 
1.4450975e+3, 2.749396e+2, 144173.55, -301044.56, 40032.527, 0.13087878, -0.067452915, 147744.48, 393326.47, 0.000019343763, 10.003707, 9.997797 
1.445111e+3, 2.849367e+2, 250412.11, -213071.36, 4078.2346, 0.15365803, -0.12540717, 250447.98, 398054.7, 0.00010742276, 10.003812, 9.997682 
1.4451244e+3, 2.9493257e+2, 320642.9, -126310.78, -48494.996, 0.22617133, -0.34867582, 325844.13, 375484.8, 0.00040939418, 10.003606, 9.997699 
1.4451371e+3, 3.049295e+2, 307225.7, -371594.3, -1262.2803, 0.14582555, -0.2929831, 307228.03, 307228.03, 0.0010585631, 10.0043335, 9.995349 
1.4451504e+3, 3.1492937e+2, 611971.9, -152661.47, -23112.602, 0.11075447, 0.10809682, 612669.9, 612669.9, 0.0020258122, 10.006087, 9.996001 
1.4549167e+3, 1.24935776e+2, -1984942.9, -1682215.0, 119497.45, -0.014161861, -0.3844893, -1640730.1, 74870.15, 0.011640448, 9.997366, 10.001484 
1.4549316e+3, 1.3493644e+2, -1877175.9, -1722064.8, 98751.93, 0.12606047, -0.36361015, -1674054.4, -56460.676, 0.0068325973, 9.998108, 10.000174 
1.4549428e+3, 1.4493677e+2, -1741411.1, -1631940.4, -85831.984, -0.03568929, -0.33017424, -1584876.5, -65284.24, 0.0028915813, 9.9984865, 9.99992 
1.4549536e+3, 1.5493742e+2, -1637133.4, -1528236.9, -90737.82, 0.031116772, -0.28954995, -1476864.6, -55275.195, 0.00070428615, 9.998525, 9.999944 
1.454965e+3, 1.6493788e+2, -1550362.4, -1498534.4, 20994.42, 0.015004151, -0.201424, -1491097.3, -167508.52, 0.000058062662, 9.998692, 9.999404 
1.4549778e+3, 1.7493783e+2, -1393692.9, -1361183.4, 51767.094, -0.049972635, -0.18124254, -1323179.0, -97586.13, 0.00000016567238, 9.999055, 9.999495 
1.4549905e+3, 1.8493757e+2, -1203643.3, -1177245.8, 11686.951, -0.08251331, -0.17181937, -1172815.3, -45218.77, 0.0, 9.999496, 9.999879 
1.4550029e+3, 1.949371e+2, -1046369.8, -1043920.06, 33336.297, -0.09302748, -0.23610115, -1011786.1, 17812.732, 0.0, 9.999884, 9.99993 
1.4550142e+3, 2.0493661e+2, -1009127.56, -1177848.5, -46808.105, -0.115089856, -0.17823048, -997011.7, -65405.055, 0.0, 10.000341, 9.998115 
1.455025e+3, 2.14936e+2, -824834.6, -1032073.44, -50370.426, -0.123659134, -0.08408689, -813240.5, 20380.816, 0.0, 10.000908, 9.99817 
1.4550366e+3, 2.249351e+2, -662285.7, -783650.5, -48524.254, -0.045473512, -0.036136407, -645270.25, 90361.19, 0.0, 10.00083, 9.999245 
1.4550492e+3, 2.3493388e+2, -680515.2, -733092.9, -10242.46, 0.11435536, -0.114861, -678590.4, -40952.94, 0.0, 10.000006, 9.99931 
1.4550604e+3, 2.4493255e+2, -631082.5, -857655.44, 32203.535, 0.05440371, -0.08555089, -626594.2, -86943.836, 0.0, 10.000512, 9.997542 
1.4550704e+3, 2.5493094e+2, -267490.2, -625148.4, 900.1288, -0.23075832, -0.03199094, -267487.9, 174183.55, 0.000000017460069, 10.002308, 9.997604 
1.4550841e+3, 2.649285e+2, 21504.818, -355089.63, 32616.95, -0.18521905, -0.06549283, 24308.902, 368003.84, 0.000002726617, 10.003287, 9.998309 
1.4551021e+3, 2.74925e+2, 160299.78, -224662.64, 63771.01, 0.20673509, -0.2845468, 170588.78, 416311.16, 0.000025176965, 10.003526, 9.998406 
1.4551163e+3, 2.8492323e+2, 144722.38, -393708.56, -15542.441, 0.2901072, -0.19943881, 145170.64, 292908.78, 0.00012772917, 10.003647, 9.996521 
1.4551266e+3, 2.949232e+2, 217947.17, -304351.9, -38105.99, 0.04887631, 0.1016501, 220712.67, 270455.5, 0.00046719576, 10.003451, 9.996554 
1.45514e+3, 3.0491892e+2, 349627.78, -251963.83, 54372.754, -0.024794977, 0.048265047, 354502.56, 354502.56, 0.0011939631, 10.004192, 9.996239 
1.4551581e+3, 3.1491265e+2, 657888.7, 9449.328, 85080.09, 0.24317895, -0.24964805, 668866.0, 668866.0, 0.002276937, 10.005799, 9.997257 
1.4649147e+3, 1.24924265e+2, -1991850.6, -1686326.6, 79647.13, 0.054095373, -0.2203898, -1666810.0, 48906.094, 0.012283002, 9.997321, 10.001481 
1.4649288e+3, 1.3492301e+2, -2024738.4, -1773413.0, 9176.115, 0.10428108, -0.40515515, -1773078.5, -155352.36, 0.00723705, 9.997017, 10.000343 
1.4649409e+3, 1.4492342e+2, -1929700.1, -1732171.3, -65167.867, 0.0063121575, -0.36578584, -1712608.8, -192884.78, 0.0030819494, 9.997202, 9.999872 
1.4649522e+3, 1.5492499e+2, -1570039.6, -1488508.8, -83865.81, 0.042013343, -0.23826112, -1436025.6, -14310.82, 0.0007585455, 9.998924, 10.000038 
1.4649643e+3, 1.6492598e+2, -1378152.0, -1385359.4, 35318.12, 0.03502503, -0.117584914, -1346254.1, -22544.943, 0.00006440502, 9.999743, 9.999674 
1.4649773e+3, 1.7492598e+2, -1258637.3, -1266330.6, 34862.73, -0.035805393, -0.11852439, -1227409.6, -1698.2087, 0.00000022299002, 9.999851, 9.9997635 
1.4649901e+3, 1.8492557e+2, -1193100.3, -1196074.6, -8026.996, -0.06635855, -0.123020515, -1186423.9, -58707.707, 0.0, 9.999693, 9.999645 
1.4650027e+3, 1.9492477e+2, -1123402.3, -1101020.8, -46986.17, -0.05506082, -0.20055373, -1063911.1, -34188.09, 0.0, 9.9994545, 9.999735 
1.4650145e+3, 2.0492424e+2, -1089357.3, -1178938.4, -66548.06, -0.06819065, -0.15545247, -1053930.4, -122198.875, 0.0, 9.999618, 9.998465 
1.4650257e+3, 2.149239e+2, -884261.56, -1016517.4, -31606.08, -0.099816434, -0.06880679, -877096.56, -43354.14, 0.0, 10.000308, 9.99857 
1.4650379e+3, 2.2492343e+2, -614969.4, -739057.8, -20412.166, -0.014215882, -0.009432098, -611697.9, 124049.734, 0.0, 10.001072, 9.999433 
1.4650509e+3, 2.3492259e+2, -371721.38, -564801.1, -47523.367, 0.18615003, -0.06850192, -360658.2, 277090.78, 0.0, 10.00203, 9.9994955 
1.4650628e+3, 2.4492095e+2, -355246.44, -786732.2, 61045.688, 0.12821506, -0.048270114, -346776.1, 192988.16, 0.0, 10.002681, 9.996986 
1.4650732e+3, 2.549185e+2, -183878.38, -643629.4, 47304.195, -0.20054992, -0.024637582, -179061.67, 262732.47, 0.000000044837254, 10.003144, 9.99707 
1.4650874e+3, 2.649156e+2, -35749.656, -420703.16, 37947.176, -0.16561383, -0.059633538, -32044.635, 311777.72, 0.0000038968087, 10.003051, 9.997974 
1.4651054e+3, 2.749121e+2, -26248.521, -356910.84, -19392.95, 0.23997492, -0.24178347, -25115.033, 220735.22, 0.000030518888, 10.002402, 9.998052 
1.4651197e+3, 2.8491017e+2, 26347.643, -453111.0, -30765.598, 0.3163633, -0.14958577, 28313.729, 176181.6, 0.00014669269, 10.002844, 9.996501 
1.4651303e+3, 2.9491004e+2, 363996.22, -232755.34, -15617.614, 0.049128674, 0.1464247, 364404.66, 414278.63, 0.00052426284, 10.004462, 9.996555 
1.4651446e+3, 3.0490553e+2, 478806.6, -166040.78, 111515.516, -0.014298901, 0.0596233, 497546.7, 497546.7, 0.0013359205, 10.004994, 9.996424 
1.4651641e+3, 3.148989e+2, 490583.5, -1084.2043, 66250.75, 0.3367317, -0.29407024, 499354.13, 499354.13, 0.0025498813, 10.004322, 9.997889 
1.474914e+3, 1.249108e+2, -1947505.6, -1589721.5, 11078.515, 0.19711204, -0.04745988, -1589378.8, 126478.09, 0.012969953, 9.997316, 10.002134 
1.4749232e+3, 1.3491097e+2, -1956098.9, -1620105.1, -14094.099, -0.19247763, -0.20283118, -1619514.9, -1665.1553, 0.0076708426, 9.996974, 10.00141 
1.4749372e+3, 1.4491147e+2, -1899091.8, -1683002.1, -26996.693, -0.1133709, -0.22376212, -1679680.5, -159835.6, 0.0032881629, 9.9972515, 10.00019 
1.4749506e+3, 1.5491247e+2, -1559805.9, -1455208.5, -9309.175, -0.037630927, -0.17955095, -1454386.4, -32545.646, 0.00081847684, 9.99887, 10.000296 
1.474964e+3, 1.649133e+2, -1358891.9, -1353049.3, 23772.434, -0.010391344, -0.099917844, -1332019.4, -8183.2075, 0.000071419374, 9.999769, 9.999883 
1.4749774e+3, 1.7491382e+2, -1252627.8, -1244584.0, 47049.07, -0.03447335, -0.070391245, -1201385.3, 24446.64, 0.0000002932695, 9.999811, 9.999929 
1.4749904e+3, 1.8491368e+2, -1240189.5, -1299470.4, -31864.459, -0.04020155, -0.017478634, -1226311.0, -98475.4, 0.0, 9.999705, 9.998936 
1.4750028e+3, 1.9491278e+2, -1182363.1, -1209498.5, -46920.797, -0.017623566, -0.035907928, -1147087.8, -117238.66, 0.0, 9.999386, 9.99903 
1.4750148e+3, 2.0491229e+2, -1017292.5, -1007897.1, -57099.426, -0.04129068, -0.012630508, -955302.44, -23445.865, 0.0, 9.999526, 9.99968 
1.4750262e+3, 2.149122e+2, -829333.44, -857586.44, 2493.2615, -0.10820349, -0.022767026, -829115.1, 4743.337, 0.0, 10.00012, 9.999748 
1.4750387e+3, 2.2491167e+2, -665706.3, -808327.94, 1897.5833, -0.050668836, -0.005604737, -665681.06, 70180.195, 0.0, 10.000906, 9.999042 
1.4750525e+3, 2.3491056e+2, -418877.7, -630648.94, -312.38235, 0.13115002, -0.05568652, -418877.22, 218989.33, 0.0, 10.00189, 9.999114 
1.4750661e+3, 2.4490844e+2, -372535.13, -798055.06, 63593.574, 0.18308152, -0.066530265, -363234.44, 176651.67, 0.0, 10.002564, 9.996967 
1.4750797e+3, 2.5490516e+2, -211956.47, -662412.75, 74730.15, 0.11407426, -0.12258458, -199882.45, 242038.86, 0.000000082863835, 10.002971, 9.997026 
1.4750934e+3, 2.649027e+2, -142053.25, -606437.5, 4335.0225, 0.09733453, -0.05045255, -142012.78, 201934.36, 0.0000048986644, 10.002897, 9.996771 
1.4751069e+3, 2.749009e+2, -128933.72, -537988.2, -25083.482, 0.13123555, 0.053425927, -127401.33, 118563.68, 0.00003489947, 10.002267, 9.996867 
1.475121e+3, 2.848977e+2, 68055.03, -344982.2, 16479.668, 0.12871222, 0.034506466, 68711.51, 216705.83, 0.00016199038, 10.002736, 9.997303 
1.4751355e+3, 2.9489315e+2, 395379.34, -129471.99, 59335.203, 0.082544304, -0.19544405, 402003.7, 452038.34, 0.00057622173, 10.004293, 9.99735 
1.4751504e+3, 3.0488935e+2, 427462.4, -228626.81, 76416.78, 0.04453541, -0.2354507, 436245.3, 436245.3, 0.0014703745, 10.004811, 9.996076 
1.4751674e+3, 3.1488773e+2, 443850.8, -7294.1523, 90157.62, 0.18984312, -0.058181323, 461200.84, 461200.84, 0.0028055478, 10.003951, 9.998016 
1.4849131e+3, 1.2489651e+2, -1886956.5, -1579212.9, 32635.943, 0.36434615, -0.067601554, -1575790.0, 140207.7, 0.013700781, 9.997796, 10.00199 
1.4849198e+3, 1.3489716e+2, -1858717.0, -1554134.8, -38056.85, -0.24829252, -0.1847115, -1549451.6, 68534.74, 0.00813248, 9.997533, 10.001614 
1.484935e+3, 1.4489803e+2, -1830657.1, -1620287.6, 12119.02, -0.072835945, -0.19307113, -1619591.8, -99614.29, 0.0035089266, 9.99763, 10.00042 
1.4849493e+3, 1.5489899e+2, -1551106.1, -1422370.4, -2326.8428, -0.03416638, -0.1775432, -1422328.4, -355.7657, 0.0008836724, 9.998831, 10.000522 
1.4849634e+3, 1.6489969e+2, -1456913.4, -1408455.8, -11979.217, -0.012958937, -0.11498035, -1405656.1, -81687.64, 0.00007901186, 9.999159, 9.99979 
1.4849769e+3, 1.7490001e+2, -1399405.8, -1322305.0, -37827.742, -0.010053116, -0.09425346, -1306845.4, -80878.89, 0.00000037325287, 9.998844, 9.999863 
1.4849901e+3, 1.8489994e+2, -1331142.3, -1348534.9, -54415.945, 0.0012685471, -0.03024162, -1284732.1, -156761.48, 0.0, 9.9991, 9.998893 
1.4850028e+3, 1.9489941e+2, -1062525.6, -1154095.9, -43124.258, 0.0068764724, -0.007228973, -1045414.2, -15432.5205, 0.0, 10.000215, 9.999011 
1.485015e+3, 2.0489922e+2, -852363.75, -900550.4, -54615.83, -0.01278789, 0.034015175, -816763.06, 115223.016, 0.0, 10.000552, 9.999915 
1.4850268e+3, 2.1489927e+2, -808236.5, -819159.25, -92376.49, -0.051829804, 0.014924884, -721160.1, 112824.375, 0.0, 10.000141, 10.0 
1.4850397e+3, 2.248984e+2, -732247.44, -899343.1, -59953.09, -0.011552194, 0.009958448, -712962.3, 23028.666, 0.0, 10.000708, 9.9985075 
1.4850543e+3, 2.3489653e+2, -377234.16, -667170.2, -98441.77, 0.096429914, -0.05993948, -346969.44, 291036.66, 0.0, 10.00243, 9.998597 
1.4850688e+3, 2.4489418e+2, -283244.4, -725243.3, -61703.516, 0.17121686, -0.077992305, -274792.16, 265235.34, 0.0, 10.003057, 9.997231 
1.4850836e+3, 2.5489128e+2, -250462.27, -649420.44, -51719.27, 0.21450254, -0.12324006, -243866.64, 198189.61, 0.00000011463164, 10.002573, 9.997308 
1.4850974e+3, 2.6488882e+2, -131703.69, -614874.8, -32314.566, 0.20913357, -0.057802662, -129552.07, 214528.84, 0.000005857849, 10.003041, 9.99664 
1.4851105e+3, 2.748867e+2, 198129.27, -395900.47, -20131.676, 0.14819273, 0.029223733, 198810.75, 444913.6, 0.000039275426, 10.004593, 9.996723 
1.4851248e+3, 2.8488296e+2, 375458.03, -213864.11, 46315.38, 0.13666584, -0.02522893, 379075.8, 527213.3, 0.00017769578, 10.004943, 9.9971285 
1.4851405e+3, 2.9487768e+2, 353154.0, -170182.13, -9966.451, 0.17005292, -0.30564296, 353343.72, 403528.38, 0.0006295016, 10.004086, 9.997172 
1.4851552e+3, 3.0487484e+2, 277356.6, -290143.8, -6218.845, 0.11181622, -0.2463265, 277424.75, 277424.75, 0.0015965283, 10.003707, 9.996204 
1.4851706e+3, 3.148741e+2, 437252.03, 24412.887, -10000.636, 0.12615067, 0.009499, 437494.16, 437494.16, 0.0030251865, 10.003743, 9.998341 
1.4949094e+3, 1.24882035e+2, -1917206.0, -1655301.1, -169818.84, 0.14022735, -0.22131236, -1571807.8, 144324.23, 0.014485426, 9.997855, 10.001441 
1.4949185e+3, 1.3488197e+2, -1923269.0, -1668192.0, -42896.125, -0.15500566, -0.3313138, -1661171.4, -43039.516, 0.008627366, 9.997463, 10.000856 
1.494934e+3, 1.4488328e+2, -1808523.0, -1595720.6, 33349.58, 0.016790418, -0.26748356, -1590616.6, -70496.76, 0.0037456865, 9.997701, 10.000564 
1.4949483e+3, 1.5488473e+2, -1550567.4, -1417890.1, 52887.324, -0.060139768, -0.21185115, -1399388.5, 22719.451, 0.0009542572, 9.998807, 10.000572 
1.494962e+3, 1.6488531e+2, -1472062.1, -1454010.4, -39458.79, -0.09811325, -0.14550436, -1422558.4, -98453.56, 0.00008722728, 9.999213, 9.99945 
1.4949755e+3, 1.748846e+2, -1432084.9, -1380265.6, -41699.094, -0.050522037, -0.1927829, -1357082.3, -130966.92, 0.0000004647829, 9.998804, 9.999482 
1.494989e+3, 1.848844e+2, -1284483.3, -1257126.6, -29215.463, -0.048109766, -0.15364514, -1238546.0, -110425.586, 0.0, 9.999116, 9.999515 
1.4950022e+3, 1.9488478e+2, -1034059.8, -1074563.0, 6723.824, -0.092234194, -0.10239271, -1032972.8, -2853.0024, 0.0, 10.000125, 9.999601 
1.495015e+3, 2.0488507e+2, -914164.4, -1009079.75, -84135.65, -0.087506674, -0.007356842, -865024.75, 67094.555, 0.0, 10.000457, 9.999219 
1.4950274e+3, 2.1488516e+2, -878456.4, -931784.06, -99084.6, -0.01629788, 0.044887517, -802510.7, 31609.494, 0.0, 9.999998, 9.999295 
1.495041e+3, 2.2488368e+2, -801417.25, -1013287.44, -11486.726, 0.010142636, 0.050632834, -800796.3, -64660.633, 0.0, 10.00057, 9.997797 
1.4950559e+3, 2.3488052e+2, -454598.3, -785862.4, -22966.605, -0.012162883, -0.078876786, -453013.63, 185153.5, 0.0, 10.002246, 9.997874 
1.4950702e+3, 2.4487826e+2, -273288.56, -661430.7, -88976.055, -0.012906909, -0.07611387, -253864.16, 286323.7, 0.0, 10.002868, 9.997759 
1.4950842e+3, 2.5487685e+2, -235256.67, -582889.2, -55455.95, 0.014856366, -0.029965803, -226624.44, 215574.27, 0.00000015644366, 10.00242, 9.997838 
1.4950992e+3, 2.6487398e+2, -101366.27, -518214.2, 13824.242, 0.07744961, -0.07049889, -100908.31, 243314.94, 0.000006865855, 10.002893, 9.9973755 
1.4951156e+3, 2.748694e+2, 219699.23, -306718.53, 51483.945, 0.18060528, -0.29651228, 224687.13, 470950.75, 0.00004412461, 10.004404, 9.997426 
1.4951308e+3, 2.8486592e+2, 276855.06, -384150.25, 3371.2107, 0.21561953, -0.31345764, 276872.28, 425170.16, 0.00019465707, 10.004784, 9.99604 
1.495145e+3, 2.9486355e+2, 258246.3, -336524.5, -21022.205, 0.19089042, -0.19490187, 258988.4, 309313.1, 0.00068026903, 10.003946, 9.996102 
1.4951587e+3, 3.0486202e+2, 285464.78, -231550.7, -13819.753, 0.067587525, 0.026357708, 285833.9, 285833.9, 0.00169966, 10.003546, 9.996676 
1.4951727e+3, 3.1485817e+2, 403287.56, 22266.674, 30230.74, -0.0905471, -0.08058715, 405671.22, 405671.22, 0.0031818715, 10.003464, 9.998457 
1.5049058e+3, 1.2486708e+2, -2061479.0, -1779611.1, -250506.78, 0.06198328, -0.30054507, -1633115.0, 83161.875, 0.015336173, 9.997111, 10.000935 
1.504918e+3, 1.3486727e+2, -1739766.1, -1629440.8, -83728.9, -0.014242123, -0.35343358, -1584336.5, 33940.156, 0.0091627855, 9.998919, 10.000427 
1.5049323e+3, 1.4486858e+2, -1592543.6, -1497623.5, 296.47476, 0.023178183, -0.26187858, -1497622.5, 22642.398, 0.0040015904, 9.999229, 10.000492 
1.5049471e+3, 1.5486982e+2, -1603184.4, -1442994.1, -20265.03, -0.024198981, -0.22334637, -1440470.3, -18216.988, 0.001031135, 9.998452, 10.000568 
1.5049613e+3, 1.6487016e+2, -1567834.6, -1525081.5, -68517.84, -0.056801543, -0.17123985, -1474683.0, -150430.89, 0.000096309515, 9.998641, 9.999249 
1.5049751e+3, 1.7486914e+2, -1246056.0, -1307722.9, -81077.31, -0.0334948, -0.23207358, -1190147.1, 36119.11, 0.000000575819, 10.000139, 9.999339 
1.5049888e+3, 1.8486887e+2, -1081490.6, -1126749.4, -65479.707, -0.03463031, -0.20872329, -1034840.3, 93431.04, 0.0, 10.0003805, 9.99979 
1.5050021e+3, 1.9486938e+2, -1110019.8, -1074553.9, -77922.95, -0.08211106, -0.17154166, -1012371.6, 17895.307, 0.0, 9.999455, 9.999914 
1.5050153e+3, 2.0486954e+2, -1021799.94, -1094005.5, -113528.32, -0.054509673, -0.09236263, -938772.2, -6505.297, 0.0, 9.999872, 9.998919 
1.5050289e+3, 2.1486917e+2, -632635.25, -848976.94, -125926.67, 0.0512084, -0.05165315, -574798.7, 259473.95, 0.0, 10.001842, 9.99898 
1.505043e+3, 2.2486778e+2, -544520.56, -888923.3, 9908.878, 0.08295544, -0.018796623, -544235.7, 192052.66, 0.0, 10.002353, 9.997781 
1.505058e+3, 2.3486528e+2, -581222.6, -847750.3, 22115.266, 0.027105082, -0.080217235, -579400.06, 58915.0, 0.0, 10.001387, 9.997855 
1.5050726e+3, 2.4486311e+2, -445947.63, -732355.44, -1905.0945, 0.010093652, -0.07424295, -445934.97, 94400.27, 0.0, 10.001637, 9.997856 
1.505087e+3, 2.5486127e+2, -110867.58, -508771.47, -31869.21, 0.0295373, -0.0833754, -108331.25, 334017.72, 0.00000020302433, 10.003226, 9.997949 
1.5051027e+3, 2.648583e+2, -6340.8315, -480249.6, 5229.646, 0.09770139, -0.13136698, -6283.129, 338090.72, 0.0000077496, 10.003583, 9.997302 
1.5051194e+3, 2.748541e+2, -31280.941, -435186.16, -36879.637, 0.21530811, -0.31635368, -27941.164, 218470.92, 0.000048509926, 10.002699, 9.99737 
1.5051349e+3, 2.8485087e+2, 59132.613, -486543.66, -30176.975, 0.2236218, -0.30235124, 60796.387, 209240.9, 0.00020995413, 10.003281, 9.996061 
1.505149e+3, 2.9484883e+2, 493478.88, -208061.44, -14564.602, 0.1306823, -0.1564867, 493781.13, 544250.2, 0.00072184385, 10.005528, 9.996204 
1.505163e+3, 3.048475e+2, 668116.06, -57820.992, -4313.4263, 0.03698091, 0.08162377, 668141.7, 668141.7, 0.0017669344, 10.006201, 9.996609 
1.5051775e+3, 3.1484243e+2, 557811.1, 20919.094, -37585.67, 0.0036485305, -0.12688634, 560429.6, 560429.6, 0.003256708, 10.004825, 9.997814 
1.5149024e+3, 1.24852546e+2, -2082467.8, -1842265.0, -150252.56, -0.04935662, -0.26606697, -1770012.1, -53588.18, 0.016257107, 9.997193, 10.000461 
1.5149179e+3, 1.3485347e+2, -1769480.6, -1669386.3, 1401.8397, 0.0708534, -0.23586237, -1669366.6, -50949.93, 0.009740974, 9.998846, 10.000179 
1.5149297e+3, 1.4485429e+2, -1604681.9, -1548082.8, -48641.895, -0.20650235, -0.1525502, -1520107.1, 302.18585, 0.0042781597, 9.999319, 10.00011 
1.5149456e+3, 1.5485428e+2, -1620919.9, -1481860.4, -40237.03, -0.032800883, -0.21114303, -1471057.0, -48648.19, 0.0011151112, 9.99845, 10.000306 
1.5149608e+3, 1.6485426e+2, -1556328.5, -1513457.4, -30627.064, 0.0015177018, -0.1858436, -1497509.9, -173099.66, 0.000106548556, 9.998688, 9.999306 
1.5149753e+3, 1.7485379e+2, -1247187.4, -1304035.3, -14632.314, -0.052067626, -0.20203727, -1243642.3, -17224.291, 0.0000007145684, 10.000108, 9.999382 
1.5149891e+3, 1.8485345e+2, -1079670.1, -1127426.8, -112344.99, -0.065730214, -0.18656331, -988693.9, 139728.28, 0.0, 10.000394, 9.999783 
1.5150021e+3, 1.948533e+2, -1121590.4, -1083007.4, -103689.914, -0.05441698, -0.21463306, -996829.6, 33592.707, 0.0, 9.999388, 9.99989 
1.5150158e+3, 2.0485269e+2, -1033763.2, -1095928.1, -56386.535, -0.018056843, -0.21106386, -1000459.6, -68031.85, 0.0, 9.999771, 9.998955 
1.515031e+3, 2.1485147e+2, -654337.7, -853652.6, -41388.7, 0.05796581, -0.25972384, -646084.9, 188355.25, 0.0, 10.001665, 9.999034 
1.5150458e+3, 2.2485086e+2, -527779.44, -809257.0, -36547.348, 0.10055656, -0.1856024, -523111.53, 213335.92, 0.0, 10.002158, 9.998424 
1.5150604e+3, 2.3485081e+2, -560557.0, -768225.25, -1527.1527, 0.11262101, -0.06267419, -560545.75, 77904.28, 0.0, 10.001229, 9.998479 
1.5150757e+3, 2.4484874e+2, -494557.3, -799960.7, 41851.016, 0.12713754, -0.060439058, -488926.06, 51543.42, 0.0, 10.001486, 9.997471 
1.5150918e+3, 2.5484446e+2, -160651.16, -577406.1, 39054.293, 0.15356939, -0.27055728, -157022.95, 285484.2, 0.00000026346208, 10.003069, 9.997558 
1.515107e+3, 2.6484174e+2, -83865.01, -606060.8, -37348.54, 0.16133924, -0.23971383, -81207.28, 263326.4, 0.000008336701, 10.003429, 9.996515 
1.5151216e+3, 2.7484056e+2, -107857.87, -559304.8, -52816.945, 0.14760683, -0.039794445, -101760.9, 144787.9, 0.00005112129, 10.002555, 9.996587 
1.5151367e+3, 2.848378e+2, 106514.63, -360120.6, 39823.89, 0.04628524, 0.0137497615, 109888.91, 258466.14, 0.00022272031, 10.003149, 9.996993 
1.5151523e+3, 2.9483336e+2, 528957.25, -86345.82, 88358.484, -0.12995666, -0.18115197, 541394.25, 592013.06, 0.000756888, 10.005316, 9.997143 
1.5151681e+3, 3.0483106e+2, 592307.75, -143505.39, -63462.39, -0.099308014, -0.066382326, 597741.1, 597741.1, 0.0018087926, 10.005919, 9.996142 
1.5151846e+3, 3.148273e+2, 420703.97, -172972.9, -48925.37, 0.18356857, -0.100054316, 424708.94, 424708.94, 0.003269854, 10.004481, 9.996624 
1.5248996e+3, 1.2483765e+2, -1971317.5, -1750548.1, -26979.908, -0.07788502, -0.20918943, -1747298.8, -30726.027, 0.017244658, 9.997813, 10.00079 
1.5249169e+3, 1.3483886e+2, -1906735.3, -1717618.9, -9698.924, 0.14334232, -0.16829051, -1717122.8, -98561.57, 0.010359608, 9.997832, 10.000339 
1.5249279e+3, 1.4483926e+2, -1804760.0, -1657895.3, -14446.457, -0.23598902, -0.12597348, -1656487.8, -135930.56, 0.0045741852, 9.998018, 9.999975 
1.5249446e+3, 1.548389e+2, -1482229.9, -1416711.1, -18401.225, -0.029672436, -0.21898544, -1411896.8, 10663.009, 0.0012060112, 9.999413, 10.000283 
1.5249604e+3, 1.6483884e+2, -1364509.8, -1401206.5, 46778.383, 0.032325704, -0.20453893, -1332609.9, -8048.7407, 0.000118081814, 9.999955, 9.99946 
1.5249754e+3, 1.7483887e+2, -1264301.3, -1288324.8, 42463.453, -0.03872525, -0.18311591, -1232183.3, -5619.7324, 0.0000008766353, 9.999918, 9.999575 
1.5249896e+3, 1.8483862e+2, -1137739.1, -1180417.1, -69632.25, -0.04207756, -0.15555108, -1086249.5, 42317.28, 0.0, 10.000107, 9.999562 
1.5250026e+3, 1.948381e+2, -935610.56, -1023253.56, -103095.664, 0.0034456404, -0.19494729, -867409.56, 163161.28, 0.0, 10.000782, 9.99964 
1.525017e+3, 2.0483716e+2, -829534.0, -980662.75, 3354.084, 0.049079083, -0.21996932, -829459.56, 103118.77, 0.0, 10.0010805, 9.999117 
1.5250325e+3, 2.1483567e+2, -740804.8, -873665.25, 6008.3047, 0.095831655, -0.3154282, -740533.7, 94056.195, 0.0, 10.000968, 9.999228 
1.5250477e+3, 2.2483489e+2, -651827.94, -899813.56, -22873.813, 0.122062914, -0.25719565, -649735.7, 86862.04, 0.0, 10.001423, 9.998162 
1.5250623e+3, 2.3483475e+2, -392876.1, -715498.25, -75987.86, 0.12337736, -0.119697765, -375874.5, 262727.9, 0.0, 10.002496, 9.998232 
1.5250783e+3, 2.4483259e+2, -273393.28, -724416.4, -6862.905, 0.1598387, -0.097508594, -273288.88, 267335.03, 0.0, 10.003156, 9.997174 
1.5250957e+3, 2.5482827e+2, -125911.27, -592880.3, -26819.383, 0.23347229, -0.28204945, -124376.01, 318287.97, 0.0000003530132, 10.003451, 9.997262 
1.5251113e+3, 2.648254e+2, -25999.045, -602584.8, -94165.9, 0.22284889, -0.23824346, -11009.877, 333683.16, 0.000008619123, 10.00393, 9.996296 
1.5251249e+3, 2.7482405e+2, 179740.56, -437425.22, -97827.1, 0.1193962, -0.039529596, 194875.97, 441586.78, 0.000051931653, 10.004618, 9.996418 
1.52514e+3, 2.848214e+2, 275573.47, -246774.0, 31307.607, 0.015103511, 0.01857466, 277443.25, 426181.0, 0.00023518385, 10.00418, 9.997281 
1.5251566e+3, 2.948173e+2, 151844.55, -237468.88, 4692.8193, -0.08246763, -0.16588242, 151901.11, 202676.0, 0.0007914608, 10.002577, 9.997439 
1.5251732e+3, 3.0481437e+2, 191460.03, -316361.6, -105254.48, -0.025222613, -0.13744411, 212411.38, 212411.38, 0.001844474, 10.003042, 9.996355 
1.52519e+3, 3.148109e+2, 534113.7, -161869.08, -95085.9, 0.2475394, -0.15674937, 546870.6, 546870.6, 0.0032659008, 10.005399, 9.996282 
1.5348987e+3, 1.2482224e+2, -1891328.9, -1588540.4, 109216.61, -0.015320887, -0.14484237, -1553257.1, 163467.9, 0.018294634, 9.997826, 10.001908 
1.5349144e+3, 1.3482364e+2, -1867083.1, -1628873.0, -15484.37, 0.08038352, -0.14396572, -1627870.6, -9162.124, 0.011016667, 9.99781, 10.000956 
1.534927e+3, 1.4482382e+2, -1780008.0, -1629007.9, 14696.987, -0.17810953, -0.16090493, -1627590.8, -106885.58, 0.0048880493, 9.998105, 10.000139 
1.5349434e+3, 1.548239e+2, -1478149.6, -1390308.5, 41853.676, -0.11776868, -0.22889414, -1373559.9, 49143.87, 0.0013030368, 9.999344, 10.0005 
1.5349595e+3, 1.6482411e+2, -1341330.6, -1365675.3, 29087.338, -0.07026233, -0.20833912, -1321971.4, 2731.3242, 0.00013086536, 9.999999, 9.999688 
1.5349752e+3, 1.748245e+2, -1255032.0, -1262216.4, 49783.71, -0.08346838, -0.16913652, -1208711.0, 17990.938, 0.0000010420176, 9.999889, 9.999769 
1.5349896e+3, 1.8482447e+2, -1169118.5, -1252065.9, -59575.43, -0.07098145, -0.10688713, -1138002.3, -9297.522, 0.0, 10.000131, 9.99906 
1.5350035e+3, 1.948238e+2, -977846.7, -1097270.6, -68845.19, -0.006297443, -0.111994684, -946425.94, 84286.7, 0.0, 10.000721, 9.999162 
1.5350182e+3, 2.0482293e+2, -826130.9, -941761.0, -11581.753, 0.04002127, -0.123366244, -824982.25, 107736.23, 0.0, 10.000948, 9.999446 
1.5350334e+3, 2.1482173e+2, -744967.5, -841524.5, 11985.444, 0.065049626, -0.22188498, -743502.0, 91220.414, 0.0, 10.000793, 9.999532 
1.5350485e+3, 2.2481984e+2, -755262.8, -1070971.0, 4030.2842, 0.039209366, -0.23448598, -755211.4, -18471.842, 0.0, 10.00123, 9.997081 
1.5350635e+3, 2.3481712e+2, -492408.66, -884189.9, -21953.166, -0.028769465, -0.24717772, -491182.38, 147589.0, 0.0, 10.002328, 9.997158 
1.5350801e+3, 2.448147e+2, -321887.5, -775613.1, -5843.6006, 0.0060180626, -0.1859971, -321812.25, 218986.08, 0.0, 10.00295, 9.996919 
1.5350987e+3, 2.548126e+2, -171243.53, -645307.75, -2028.2305, 0.16560487, -0.122986555, -171234.86, 271585.1, 0.0000004707298, 10.003282, 9.996981 
1.535115e+3, 2.648093e+2, -24829.467, -566801.56, -82470.38, 0.1689069, -0.12398898, -12558.03, 332294.3, 0.0000086272985, 10.003781, 9.996614 
1.5351285e+3, 2.7480462e+2, 179363.33, -400960.88, -61883.65, 0.011197526, -0.29290432, 185888.98, 432786.16, 0.000052741245, 10.004457, 9.996746 
1.5351442e+3, 2.848016e+2, 225780.69, -314475.72, -39569.86, 0.00232919, -0.2664098, 228663.52, 377589.9, 0.00024875673, 10.004016, 9.996902 
1.5351617e+3, 2.9480046e+2, 105676.03, -305060.94, -33108.87, 0.14203839, -0.1194792, 108327.766, 159266.13, 0.0008280687, 10.002449, 9.997038 
1.535178e+3, 3.0479738e+2, 216807.6, -216398.84, -29372.66, 0.13407648, -0.12271743, 218790.08, 218790.08, 0.0018898232, 10.002857, 9.997121 
1.5351932e+3, 3.147935e+2, 515465.63, -92706.31, 30753.0, -0.014992844, -0.27431014, 517016.75, 517016.75, 0.003291021, 10.004972, 9.996944 
1.544897e+3, 1.2480507e+2, -1925646.5, -1625828.6, 157581.08, 0.04963332, -0.20043865, -1558241.6, 158648.4, 0.019406972, 9.997676, 10.001718 
1.5449122e+3, 1.3480651e+2, -1686255.6, -1542626.0, -106544.9, 0.036031287, -0.1967944, -1485952.8, 132922.02, 0.0117135905, 9.999025, 10.00097 
1.5449277e+3, 1.4480719e+2, -1618894.4, -1546725.9, -60712.043, 0.029513111, -0.16985218, -1512184.1, 8683.273, 0.0052204016, 9.999197, 10.000181 
1.5449433e+3, 1.548071e+2, -1487718.1, -1397288.1, -68525.89, -0.054132152, -0.25256607, -1360404.4, 62463.5, 0.0014059248, 9.999264, 10.000507 
1.5449591e+3, 1.6480748e+2, -1423258.4, -1384074.5, -83122.914, -0.07618045, -0.22572927, -1318265.9, 6599.686, 0.00014487762, 9.999352, 9.999859 
1.5449747e+3, 1.748085e+2, -1270193.1, -1252674.6, -90428.01, -0.08345798, -0.14432293, -1170582.6, 56276.027, 0.000001197513, 9.999697, 9.999923 
1.5449898e+3, 1.8480858e+2, -1156031.4, -1250427.6, -134572.06, -0.07110905, -0.073505305, -1060620.6, 68239.59, 0.0, 10.000255, 9.999004 
1.5450042e+3, 1.9480766e+2, -904126.1, -1062718.5, -131136.0, -0.024040299, -0.10129162, -830175.6, 200695.05, 0.0, 10.00125, 9.999137 
1.5450191e+3, 2.0480658e+2, -719030.25, -923001.75, -87201.03, 0.014925674, -0.11546696, -686832.9, 246045.56, 0.0, 10.001839, 9.999147 
1.5450345e+3, 2.1480536e+2, -584278.94, -796928.06, -135975.89, 0.037113883, -0.18495068, -517993.1, 316889.78, 0.0, 10.002052, 9.999233 
1.54505e+3, 2.2480306e+2, -628118.8, -1016778.8, -89421.99, 0.022423472, -0.21817161, -608531.94, 128371.445, 0.0, 10.002153, 9.997001 
1.5450655e+3, 2.3479955e+2, -520611.25, -903288.94, -71493.22, -0.036710102, -0.29994336, -507690.84, 131250.75, 0.0, 10.002181, 9.997089 
1.5450826e+3, 2.4479699e+2, -411230.3, -833951.4, 2340.1028, 0.0027587472, -0.24149214, -411217.38, 129752.875, 0.000000000009610117, 10.00238, 9.996807 
1.5451016e+3, 2.5479543e+2, -252482.86, -696097.44, -2050.898, 0.15420254, -0.113249876, -252473.38, 190515.55, 0.0000005675007, 10.002759, 9.996896 
1.5451181e+3, 2.647924e+2, -118303.29, -544771.44, -45188.438, 0.15393403, -0.10925153, -113567.72, 231450.48, 0.000008574752, 10.002859, 9.997214 
1.5451317e+3, 2.7478772e+2, -33987.965, -444779.34, -32104.48, -0.024210693, -0.33332008, -31494.049, 215566.2, 0.00005426492, 10.00272, 9.997298 
1.5451479e+3, 2.8478473e+2, 84204.67, -408882.66, 8153.0674, 0.021182386, -0.3204382, 84339.44, 233428.1, 0.00026286932, 10.003184, 9.996626 
1.5451665e+3, 2.947836e+2, 354829.9, -222540.19, -13403.756, 0.28899646, -0.14119524, 355140.9, 406243.3, 0.0008684361, 10.004343, 9.996676 
1.5451829e+3, 3.0478013e+2, 466934.34, -44840.49, 31159.87, 0.2727703, -0.19046617, 468824.56, 468824.56, 0.0019566915, 10.004356, 9.997586 
1.545197e+3, 3.1477797e+2, 267423.13, -142466.02, 14925.358, -0.01913921, -0.20465353, 267965.9, 267965.9, 0.0033753659, 10.002946, 9.997589 
1.5548931e+3, 1.2478658e+2, -2016636.1, -1835284.6, 47245.035, -0.160961, -0.3199659, -1823714.6, -106650.914, 0.020587768, 9.997771, 10.000219 
1.55491e+3, 1.3478747e+2, -1727978.6, -1609214.9, -70764.26, -0.12441573, -0.30991, -1576218.3, 42841.902, 0.012455585, 9.998949, 10.0005455 
1.5549296e+3, 1.447893e+2, -1609321.6, -1539312.9, -81377.016, 0.26858065, -0.15808836, -1485731.0, 35314.082, 0.0055746003, 9.99924, 10.000215 
1.5549438e+3, 1.5478867e+2, -1502973.3, -1422609.1, -54030.914, 0.054690592, -0.2812937, -1395456.6, 27594.031, 0.001515748, 9.999245, 10.000339 
1.5549587e+3, 1.6478916e+2, -1402663.3, -1358243.5, -84275.37, -0.096184544, -0.24066783, -1293300.5, 31746.8, 0.00016035176, 9.999416, 10.000011 
1.5549743e+3, 1.7479089e+2, -1263649.0, -1227951.4, -71336.734, -0.12723516, -0.10189301, -1172264.4, 54768.82, 0.0000013687348, 9.99965, 10.000116 
1.5549897e+3, 1.8479115e+2, -1129837.1, -1191086.9, -110858.57, -0.13963911, -0.04489763, -1045451.06, 83580.65, 0.0, 10.000235, 9.999421 
1.5550046e+3, 1.9478972e+2, -891246.94, -1013302.9, -82608.25, -0.14808382, -0.162557, -849568.9, 181475.67, 0.0, 10.001159, 9.999519 
1.5550198e+3, 2.0478822e+2, -794647.1, -1064722.9, -91757.78, -0.13294592, -0.19221549, -766422.25, 166635.19, 0.0, 10.00176, 9.99822 
1.5550357e+3, 2.1478665e+2, -668725.4, -943471.06, -115965.26, -0.07823849, -0.20129737, -626322.7, 208747.64, 0.0, 10.001915, 9.9983015 
1.5550518e+3, 2.247846e+2, -597701.06, -915073.2, -98295.19, -0.036540065, -0.2034056, -569723.75, 167365.11, 0.0, 10.001985, 9.997781 
1.555068e+3, 2.3478192e+2, -485346.53, -801773.1, -57769.05, -0.005446611, -0.28117055, -475129.7, 163984.48, 0.0, 10.002052, 9.997851 
1.5550855e+3, 2.4477936e+2, -428703.75, -831722.5, 6392.308, 0.033512626, -0.26541758, -428602.4, 112538.47, 0.0, 10.002214, 9.996902 
1.5551038e+3, 2.5477687e+2, -267679.34, -690489.2, 24737.178, 0.10309045, -0.24159285, -266236.97, 176932.78, 0.0000005355393, 10.002601, 9.99701 
1.5551202e+3, 2.647748e+2, -88134.875, -445214.28, -57857.566, 0.06906246, -0.18759741, -78994.2, 266196.0, 0.000008556659, 10.002699, 9.997974 
1.555134e+3, 2.7477324e+2, -2964.6243, -344921.16, -20012.598, -0.080332935, -0.1787597, -1797.3951, 245403.67, 0.000056489618, 10.002572, 9.99805 
1.5551507e+3, 2.8477064e+2, 35364.195, -471201.44, 40097.063, -0.0284931, -0.15181522, 38518.426, 187744.39, 0.00027893353, 10.0030155, 9.996281 
1.5551707e+3, 2.947666e+2, 304683.5, -281968.22, 47669.504, 0.2441695, -0.23129526, 308531.75, 359799.94, 0.00091525615, 10.004157, 9.996354 
1.5551874e+3, 3.0476245e+2, 430576.78, -62200.758, -31487.814, 0.2639966, -0.3269194, 432580.7, 432580.7, 0.0020505092, 10.004129, 9.997564 
1.5552007e+3, 3.1476364e+2, 261797.52, -57502.953, 2348.957, 0.01829336, -0.017740725, 261814.8, 261814.8, 0.00352803, 10.002578, 9.998326 
1.5648921e+3, 1.2476974e+2, -1908424.1, -1852867.0, 27587.676, -0.08452322, -0.33106747, -1841495.5, -124270.63, 0.021849003, 9.99883, 9.999598 
1.5649085e+3, 1.3477007e+2, -1711694.9, -1615048.4, 14710.732, -0.16848743, -0.35396266, -1612858.8, 6369.865, 0.013250772, 9.99912, 10.000435 
1.5649289e+3, 1.4477174e+2, -1577018.4, -1516521.3, 20281.816, 0.27820796, -0.21659184, -1510351.0, 10864.609, 0.0059556314, 9.999447, 10.000265 
1.5649438e+3, 1.547722e+2, -1420794.4, -1385271.9, 27067.137, 0.09755126, -0.23077366, -1370658.9, 52552.01, 0.0016345053, 9.999831, 10.000302 
1.5649584e+3, 1.6477245e+2, -1405342.5, -1399918.3, -4250.2275, -0.05561254, -0.19565718, -1397588.6, -72379.336, 0.00017771397, 9.999564, 9.999666 
1.564974e+3, 1.7477252e+2, -1392104.1, -1328410.4, -47648.58, -0.07849054, -0.18824926, -1302945.8, -75735.47, 0.0000016137079, 9.99892, 9.999791 
1.5649897e+3, 1.8477227e+2, -1290134.8, -1261278.5, -49585.94, -0.088382624, -0.17054033, -1224064.3, -94850.89, 0.0, 9.999101, 9.999484 
1.5650052e+3, 1.9477159e+2, -998359.4, -1060359.1, -67448.56, -0.13530715, -0.22053413, -955127.9, 76091.32, 0.0, 10.000389, 9.999571 
1.5650213e+3, 2.0477042e+2, -893464.25, -1104897.1, -68233.99, -0.11509803, -0.22098929, -873356.06, 59873.91, 0.0, 10.001078, 9.998252 
1.5650378e+3, 2.1476877e+2, -745593.8, -969916.1, -43573.695, -0.012274622, -0.2429616, -737427.1, 97818.23, 0.0, 10.001375, 9.998359 
1.5650544e+3, 2.24767e+2, -577965.94, -882115.7, 25048.67, 0.03360193, -0.23018508, -575916.8, 161344.83, 0.0, 10.002006, 9.997999 
1.5650707e+3, 2.34765e+2, -331854.84, -699236.3, 6399.8223, 0.015123092, -0.26564714, -331743.38, 307536.16, 0.0, 10.002971, 9.998111 
1.5650882e+3, 2.4476276e+2, -274757.78, -737928.56, 50734.45, 0.041472595, -0.24171656, -269265.6, 272037.22, 0.0, 10.003182, 9.997083 
1.5651065e+3, 2.547602e+2, -254518.8, -661894.7, 49823.55, 0.11149803, -0.24062437, -248513.72, 194818.63, 0.00000039469393, 10.002598, 9.997205 
1.565123e+3, 2.6475823e+2, -117552.85, -460580.03, -31618.27, 0.1024865, -0.1859016, -114662.81, 230689.6, 0.000008163994, 10.002508, 9.997956 
1.5651375e+3, 2.747569e+2, 45504.63, -324139.97, -80025.57, -0.0004189388, -0.15447886, 62085.844, 309448.53, 0.000058543963, 10.002919, 9.998021 
1.5651545e+3, 2.847544e+2, 109945.664, -406297.2, 24000.453, 0.040846482, -0.12251954, 111059.055, 260445.53, 0.00029613846, 10.003391, 9.996565 
1.5651746e+3, 2.9475054e+2, 292228.1, -259908.88, 42441.477, 0.23654903, -0.20318963, 295471.4, 346897.7, 0.00096595153, 10.003937, 9.996627 
1.5651911e+3, 3.0474618e+2, 405554.47, -114867.055, -56421.35, 0.24726845, -0.32107237, 411601.13, 411601.13, 0.0021626693, 10.004097, 9.997218 
1.5652044e+3, 3.1474656e+2, 451858.56, 45436.793, -86578.87, 0.0815426, -0.056500483, 469533.53, 469533.53, 0.0037320354, 10.0037565, 9.998492 
1.5748912e+3, 1.2475404e+2, -1866493.8, -1785026.0, -113198.266, -0.10751931, -0.29858539, -1705455.8, 11923.207, 0.023204513, 9.998895, 10.000041 
1.5749075e+3, 1.34755e+2, -1707044.6, -1600412.9, 40382.94, -0.19477677, -0.27554873, -1586845.6, 32527.45, 0.014108494, 9.999106, 10.000538 
1.5749253e+3, 1.4475498e+2, -1557958.3, -1506445.1, 20225.79, -0.060470633, -0.31655425, -1499452.9, 21922.277, 0.0063687824, 9.999559, 10.000288 
1.5749426e+3, 1.5475774e+2, -1425055.4, -1388037.4, 47266.813, -0.016591877, -0.097832896, -1355784.9, 67563.18, 0.00176415, 9.9998045, 10.0002985 
1.5749583e+3, 1.6475739e+2, -1454607.0, -1507529.3, -43605.313, -0.061207104, -0.08506941, -1430062.1, -104711.14, 0.00019721544, 9.999585, 9.998917 
1.5749735e+3, 1.7475349e+2, -1453952.3, -1447552.0, -61449.465, -0.037862975, -0.39907622, -1389219.4, -161830.83, 0.0000019795527, 9.998885, 9.998988 
1.5749897e+3, 1.8475206e+2, -1301735.1, -1298002.5, -14968.862, -0.029189099, -0.44420108, -1284784.0, -155380.56, 0.0, 9.999144, 9.999217 
1.5750064e+3, 1.947534e+2, -1029312.8, -1106546.8, -10490.8545, -0.07995359, -0.26593593, -1027913.2, 3480.0515, 0.0, 10.000309, 9.999294 
1.5750234e+3, 2.047533e+2, -841505.0, -978405.56, -67649.67, -0.037464812, -0.18920557, -813716.44, 119678.164, 0.0, 10.000987, 9.999166 
1.5750408e+3, 2.1475162e+2, -703469.25, -848866.94, -23513.13, 0.13234966, -0.3084488, -699761.4, 135647.67, 0.0, 10.001227, 9.999262 
1.5750575e+3, 2.2475013e+2, -615296.7, -922414.25, 51728.324, 0.12618883, -0.30367348, -606818.1, 130605.164, 0.0, 10.001843, 9.997799 
1.5750732e+3, 2.347488e+2, -375166.3, -746478.6, 52332.83, -0.06780574, -0.25229734, -367931.47, 271506.47, 0.0, 10.002789, 9.997874 
1.5750903e+3, 2.4474722e+2, -288741.7, -723558.44, 18430.754, -0.08345008, -0.15976588, -287961.84, 253493.92, 0.0, 10.002991, 9.997273 
1.575109e+3, 2.5474533e+2, -264398.53, -650137.1, 39024.992, 0.09343118, -0.112335466, -260489.98, 182987.55, 0.00000029448665, 10.002454, 9.997354 
1.5751263e+3, 2.647426e+2, -197481.63, -596036.6, -24771.045, 0.16065092, -0.10139079, -195947.95, 149558.1, 0.000007127328, 10.00237, 9.997097 
1.5751417e+3, 2.7473864e+2, -29651.338, -452291.25, -46936.05, 0.102778874, -0.24454279, -24501.627, 223042.52, 0.000059012113, 10.002798, 9.997202 
1.5751588e+3, 2.8473613e+2, 142671.47, -311949.78, 33628.664, 0.10052124, -0.21231982, 145145.53, 294714.72, 0.00030982727, 10.003272, 9.997269 
1.5751779e+3, 2.9473537e+2, 308755.97, -174297.7, 84127.36, 0.15835457, -0.05844318, 322988.06, 374565.1, 0.0010138974, 10.003716, 9.997319 
1.5751942e+3, 3.0473116e+2, 323642.7, -216470.89, -75972.016, 0.10644268, -0.16653015, 334125.4, 334125.4, 0.0022779866, 10.003831, 9.99663 
1.5752073e+3, 3.1472665e+2, 376585.84, -6898.093, -45828.934, -0.052222386, -0.34102896, 381986.66, 381986.66, 0.003951856, 10.003355, 9.998297 
1.5848899e+3, 1.2473664e+2, -1981181.0, -1770649.3, -127016.42, -0.061691653, -0.34632227, -1710948.3, 6601.8735, 0.024665277, 9.997811, 10.000649 
1.5849072e+3, 1.3473839e+2, -1753369.4, -1638665.9, -20918.896, -0.10945929, -0.23494498, -1634969.9, -15435.729, 0.0150364665, 9.998853, 10.000388 
1.5849234e+3, 1.4473741e+2, -1623846.9, -1570782.1, -71115.28, -0.17807423, -0.34675214, -1521410.9, 133.83347, 0.0068181083, 9.99926, 9.999984 
1.5849419e+3, 1.5473951e+2, -1581619.6, -1499713.5, -100902.69, -0.012450792, -0.15798727, -1431769.9, -8244.517, 0.0019058621, 9.998881, 9.999979 
1.584958e+3, 1.6473915e+2, -1517831.9, -1520323.3, -139405.05, -0.010345303, -0.13853998, -1379667.0, -54138.36, 0.0002187055, 9.999082, 9.999066 
1.5849732e+3, 1.7473581e+2, -1240308.0, -1320166.6, -109313.31, -0.028531179, -0.415902, -1163859.6, 63699.64, 0.000002466339, 10.000262, 9.999189 
1.5849897e+3, 1.8473448e+2, -1134143.5, -1230073.4, -2384.9639, 0.0036455565, -0.45489377, -1134084.1, -4511.267, 0.0, 10.000362, 9.999091 
1.5850073e+3, 1.947354e+2, -1149456.8, -1175262.9, -10344.302, 0.022563666, -0.3040558, -1145822.3, -114254.77, 0.0, 9.9995365, 9.999189 
1.5850246e+3, 2.0473549e+2, -986485.75, -1017205.9, -31494.646, 0.05968451, -0.21955147, -966805.25, -33237.594, 0.0, 9.999838, 9.999469 
1.5850422e+3, 2.1473454e+2, -642464.4, -787372.9, -51753.3, 0.1397527, -0.2948874, -625879.2, 209696.05, 0.0, 10.001469, 9.999587 
1.5850593e+3, 2.2473344e+2, -542867.25, -865686.2, 20365.19, 0.11547067, -0.2775604, -541587.56, 195998.64, 0.0, 10.002267, 9.997991 
1.585076e+3, 2.3473217e+2, -420344.78, -749813.6, 26606.682, -0.032254174, -0.2320817, -418209.97, 221390.88, 0.0, 10.002401, 9.998051 
1.5850934e+3, 2.4473064e+2, -348951.78, -705464.6, 2274.018, -0.037979774, -0.16087922, -348937.28, 192680.25, 0.0, 10.002405, 9.99766 
1.5851115e+3, 2.5472885e+2, -255459.95, -604389.56, 7949.152, 0.10125246, -0.13985726, -255278.95, 188357.28, 0.00000023115544, 10.002349, 9.997709 
1.585129e+3, 2.6472607e+2, -153323.7, -595157.8, 37101.81, 0.17813477, -0.14163435, -150229.84, 195435.19, 0.0000061293663, 10.002773, 9.996899 
1.5851457e+3, 2.7472198e+2, 115616.94, -400883.22, 34801.855, 0.18115029, -0.276456, 117951.34, 365657.6, 0.000060026516, 10.003899, 9.99701 
1.5851629e+3, 2.8471965e+2, 239631.38, -239381.03, 95191.25, 0.16528867, -0.22738104, 257854.86, 407584.97, 0.0003212461, 10.003832, 9.997491 
1.5851805e+3, 2.9471937e+2, 124021.95, -233857.8, 73230.78, 0.124583535, -0.051936194, 138426.92, 190159.78, 0.0010568721, 10.002307, 9.997585 
1.585197e+3, 3.0471587e+2, 127870.29, -309192.3, 2604.5237, 0.10065455, -0.10427573, 127885.81, 127885.81, 0.002382704, 10.002436, 9.996704 
1.5852123e+3, 3.1471077e+2, 524977.5, 74272.55, 28683.387, 0.07620886, -0.33030325, 526795.6, 526795.6, 0.004145102, 10.004309, 9.998434 
1.5948889e+3, 1.2471881e+2, -1914653.0, -1667477.3, 8936.114, -0.014178689, -0.37317812, -1667154.6, 50571.105, 0.026239868, 9.997923, 10.001323 
1.5949075e+3, 1.3472015e+2, -1792294.1, -1716425.1, 34354.36, 0.013244004, -0.2548163, -1703181.0, -83468.516, 0.016040104, 9.998838, 9.999859 
1.594923e+3, 1.4471906e+2, -1657417.3, -1672854.8, -98814.73, -0.18911427, -0.31339505, -1566020.3, -44295.6, 0.0073062, 9.999376, 9.999237 
1.5949413e+3, 1.5471774e+2, -1628827.8, -1605197.4, -107158.48, 0.014895602, -0.40135062, -1509204.6, -85463.555, 0.002060233, 9.9989, 9.999252 
1.5949574e+3, 1.6471796e+2, -1435554.0, -1363794.4, -113379.91, -0.0073245023, -0.33565673, -1280752.5, 44987.3, 0.00024185247, 9.99914, 10.000113 
1.5949725e+3, 1.7471962e+2, -1168388.5, -1164835.9, -56458.977, -0.12915343, -0.22157513, -1110125.3, 117596.016, 0.0000030340082, 10.0002365, 10.000267 
1.5949894e+3, 1.8471958e+2, -1126641.5, -1221496.1, -44928.043, -0.093518, -0.19124778, -1108739.8, 20981.416, 0.0, 10.000387, 9.999138 
1.5950076e+3, 1.9471766e+2, -1162809.6, -1182345.5, -30467.83, 0.07683635, -0.32597423, -1140582.3, -108841.05, 0.0, 9.999451, 9.999181 
1.5950249e+3, 2.0471701e+2, -1019318.1, -1063959.4, 16884.252, 0.07548768, -0.30059463, -1013651.44, -79902.94, 0.0, 9.999746, 9.999189 
1.5950415e+3, 2.1471767e+2, -691856.7, -840268.25, 18210.86, -0.08246473, -0.1922366, -689654.8, 146087.8, 0.0, 10.0012665, 9.999316 
1.5950596e+3, 2.2471713e+2, -533398.6, -804830.5, 15435.212, -0.102709785, -0.13016747, -532523.75, 205224.48, 0.0, 10.00208, 9.998501 
1.5950792e+3, 2.3471524e+2, -414860.0, -693660.25, 47120.87, 0.02487678, -0.19864753, -407111.3, 232655.55, 0.0, 10.002207, 9.998531 
1.595097e+3, 2.4471317e+2, -347119.9, -653946.9, -5941.92, 0.06872422, -0.22871774, -347004.88, 194781.67, 0.0, 10.002204, 9.998108 
1.5951134e+3, 2.5471082e+2, -251203.97, -544460.3, 17933.068, 0.03797257, -0.31370807, -250111.4, 193696.56, 0.00000009760233, 10.002145, 9.998211 
1.5951309e+3, 2.6470867e+2, -153727.34, -562490.2, 65689.24, 0.0634411, -0.29038015, -143430.31, 202398.83, 0.0000054247644, 10.00262, 9.9972 
1.5951495e+3, 2.7470678e+2, 107772.664, -375453.5, 92352.33, 0.14091362, -0.24154167, 124821.2, 372671.16, 0.0000627863, 10.003714, 9.997275 
1.5951665e+3, 2.847047e+2, 196765.55, -285207.03, 29522.793, 0.12645584, -0.16889125, 198567.2, 348439.13, 0.0003316825, 10.003644, 9.997271 
1.5951818e+3, 2.9470223e+2, 91064.586, -269330.06, 34176.43, 0.008965145, -0.1904418, 94276.92, 146173.2, 0.0010852151, 10.002162, 9.997417 
1.5951996e+3, 3.0470008e+2, 134384.42, -243490.6, 54592.848, 0.09198392, -0.12775949, 142113.55, 142113.55, 0.0024472869, 10.00224, 9.997238 
1.5952186e+3, 3.1469864e+2, 477989.22, 79461.695, 137434.31, 0.24899745, -0.038758554, 520787.94, 520787.94, 0.0042563817, 10.003907, 9.998651 
1.6048865e+3, 1.2470088e+2, -1871529.4, -1661256.3, 87830.63, -0.040073093, -0.35166758, -1629396.8, 88502.625, 0.027939666, 9.998325, 10.001166 
1.6049059e+3, 1.3470186e+2, -1847866.1, -1747225.1, 33834.223, -0.0037413675, -0.25908807, -1736908.1, -117016.39, 0.01712635, 9.998506, 9.999799 
1.6049223e+3, 1.4470108e+2, -1761693.8, -1697347.3, -42113.652, -0.15074576, -0.29062596, -1676523.6, -154622.22, 0.007836914, 9.998582, 9.999428 
1.6049404e+3, 1.5469941e+2, -1592166.0, -1555643.0, -13737.852, 0.04647758, -0.4396374, -1551052.6, -127132.66, 0.0022287087, 9.999037, 9.999505 
1.6049568e+3, 1.6469994e+2, -1406170.9, -1316959.1, 40776.473, 0.033235226, -0.3728624, -1301129.9, 24785.79, 0.00026665046, 9.999209, 10.000395 
1.6049723e+3, 1.7470269e+2, -1259881.6, -1175696.8, 14872.572, -0.13287365, -0.17794882, -1173146.5, 54741.04, 0.0000036433328, 9.999462, 10.000568 
1.6049893e+3, 1.8470311e+2, -1200301.6, -1249174.0, -12517.992, -0.10224006, -0.119598806, -1197281.9, -67399.1, 0.0, 9.999839, 9.999215 
1.6050078e+3, 1.9470087e+2, -983884.5, -1086934.5, -17113.861, 0.10416172, -0.29758924, -981116.7, 50787.832, 0.0, 10.00062, 9.999275 
1.6050255e+3, 2.0469964e+2, -891786.6, -1041611.5, 76394.7, 0.11374943, -0.31625795, -859703.6, 74213.414, 0.0, 10.000809, 9.998829 
1.6050422e+3, 2.1469957e+2, -829421.25, -944994.3, 46443.44, -0.08786576, -0.2403316, -813070.9, 22848.229, 0.0, 10.0005045, 9.99896 
1.6050608e+3, 2.2469892e+2, -753476.5, -872166.3, 37388.004, -0.08566637, -0.18627305, -742681.0, -4755.063, 0.0, 10.000402, 9.9988365 
1.6050814e+3, 2.346977e+2, -617876.94, -741972.3, 31689.941, 0.12744942, -0.22880135, -610252.75, 29684.455, 0.0, 10.000609, 9.998948 
1.6050996e+3, 2.4469589e+2, -498730.5, -702054.3, -3745.998, 0.16995063, -0.2650954, -498661.5, 43291.824, 0.0, 10.001042, 9.998354 
1.6051154e+3, 2.5469342e+2, -284166.9, -535467.9, -15171.011, 0.04228978, -0.38208815, -283254.34, 160721.0, 0.000000007673713, 10.001793, 9.99846 
1.6051331e+3, 2.6469153e+2, -169157.17, -539648.4, 58169.957, 0.046596993, -0.3586, -160238.73, 185754.44, 0.0000049768487, 10.002386, 9.997473 
1.6051531e+3, 2.746904e+2, -11680.039, -409767.53, 46130.92, 0.18441848, -0.25488693, -6404.2437, 241601.64, 0.00006482946, 10.002776, 9.997507 
1.6051705e+3, 2.846879e+2, 153194.75, -356642.22, -23916.86, 0.17296487, -0.20886847, 154314.25, 304345.28, 0.00033743004, 10.003541, 9.996834 
1.6051851e+3, 2.94684e+2, 454902.63, -138894.78, -71940.21, -0.0037409067, -0.3324638, 463494.1, 515563.9, 0.0010900057, 10.004862, 9.99701 
1.6052033e+3, 3.0468187e+2, 571422.2, -74152.06, -30746.672, 0.102656476, -0.23049401, 572883.25, 572883.25, 0.002450434, 10.005428, 9.996854 
1.6052234e+3, 3.1468096e+2, 570959.8, 34301.26, -71566.836, 0.29770702, -0.048459366, 580339.75, 580339.75, 0.0042560785, 10.004906, 9.997851 
1.6148837e+3, 1.24682195e+2, -1930135.6, -1831847.5, 75413.52, -0.21886215, -0.35952702, -1790978.6, -72901.484, 0.02978273, 9.998516, 9.999904 
1.6149019e+3, 1.3468404e+2, -1826252.9, -1701268.3, 41974.55, -0.27366003, -0.20972265, -1688480.1, -68413.67, 0.018308382, 9.998496, 10.000126 
1.6149208e+3, 1.4468388e+2, -1670069.4, -1525817.5, -37043.69, -0.19176558, -0.24937192, -1516860.9, 5209.7715, 0.008418617, 9.9986515, 10.000575 
1.6149393e+3, 1.5468463e+2, -1510831.8, -1387382.8, 13403.111, -0.014354713, -0.270086, -1385944.3, 38116.74, 0.0024150687, 9.99904, 10.00066 
1.6149561e+3, 1.6468507e+2, -1418268.6, -1373293.8, 32313.773, 0.0002858984, -0.2503595, -1356412.9, -30356.787, 0.0002938315, 9.999327, 9.999958 
1.614972e+3, 1.7468503e+2, -1297131.9, -1254815.6, 32104.082, -0.124577336, -0.28511518, -1237524.5, -9466.674, 0.000004294035, 9.999454, 10.000037 
1.6149892e+3, 1.8468502e+2, -1193894.9, -1237960.6, 3210.9524, -0.12652259, -0.24371411, -1193662.1, -63604.168, 0.0, 9.999851, 9.999282 
1.6150077e+3, 1.94685e+2, -989129.25, -1081653.1, 21971.504, 0.011852648, -0.21019648, -984176.8, 47880.195, 0.0, 10.000554, 9.999343 
1.615026e+3, 2.0468347e+2, -939933.56, -1116148.4, 50722.3, 0.06276342, -0.24098356, -926376.5, 7695.527, 0.0, 10.000698, 9.998367 
1.6150442e+3, 2.1468028e+2, -885072.1, -1028701.3, 44677.508, 0.03566779, -0.4295953, -872308.9, -36204.457, 0.0, 10.00037, 9.998446 
1.6150631e+3, 2.2467884e+2, -771288.56, -865251.5, 33710.28, 0.0698387, -0.4339101, -760445.8, -22326.988, 0.0, 10.000218, 9.99897 
1.6150826e+3, 2.346794e+2, -631915.0, -728757.4, 52631.004, 0.17302991, -0.31847167, -608819.56, 31293.371, 0.0, 10.000433, 9.999122 
1.6151007e+3, 2.4467868e+2, -515161.97, -703949.2, 10828.243, 0.15393722, -0.2580131, -514542.94, 27576.127, 0.0, 10.000895, 9.998414 
1.6151169e+3, 2.546766e+2, -305055.44, -541974.25, 27631.773, 0.009707618, -0.3464598, -301875.44, 142263.02, 0.00000000987263, 10.001633, 9.998491 
1.6151354e+3, 2.6467463e+2, -193822.64, -543088.94, 61039.418, 0.015975587, -0.34032467, -183462.42, 162694.56, 0.000004852571, 10.002187, 9.99754 
1.6151561e+3, 2.746726e+2, -31468.111, -406783.97, 77916.97, 0.19575855, -0.33250886, -15935.115, 232240.58, 0.00006465758, 10.0026045, 9.997601 
1.6151744e+3, 2.846693e+2, 78043.305, -475887.66, 9365.807, 0.1857902, -0.3338804, 78201.62, 228408.75, 0.0003366383, 10.003377, 9.996098 
1.6151899e+3, 2.946648e+2, 372617.25, -262569.97, -1497.2797, -0.036764286, -0.4505576, 372620.78, 424872.47, 0.0010765857, 10.004652, 9.996266 
1.6152081e+3, 3.046611e+2, 451142.88, -258927.47, -58819.14, 0.003288832, -0.40578407, 455982.22, 455982.22, 0.002405421, 10.005172, 9.995688 
1.6152257e+3, 3.1465867e+2, 389221.4, -228841.42, -45958.176, 0.00023004727, -0.26752582, 392620.1, 392620.1, 0.004162756, 10.004465, 9.996223 
1.6248824e+3, 1.2466212e+2, -2086602.9, -1911460.9, 38429.96, -0.13500923, -0.4396232, -1903399.6, -185127.94, 0.03179242, 9.997454, 9.999849 
1.6248994e+3, 1.3466531e+2, -1806251.0, -1630987.3, 12045.778, -0.3501926, -0.21797203, -1630163.3, -9915.333, 0.019603958, 9.998347, 10.000674 
1.6249192e+3, 1.4466546e+2, -1695512.4, -1476454.0, -57487.3, -0.19056332, -0.28046942, -1462284.3, 59964.625, 0.009062119, 9.998227, 10.001121 
1.6249381e+3, 1.5466726e+2, -1596766.4, -1357879.9, -67767.805, 0.024928775, -0.25821295, -1339994.5, 84234.375, 0.002624408, 9.998154, 10.001289 
1.6249555e+3, 1.6466789e+2, -1534223.3, -1426170.9, -15659.1455, 0.055303216, -0.25037783, -1423947.3, -97725.77, 0.00032476612, 9.998532, 9.999971 
1.6249715e+3, 1.7466706e+2, -1280304.0, -1242200.9, -3630.1646, -0.12799372, -0.3663529, -1241858.1, -13627.679, 0.000005034694, 9.999566, 10.000056 
1.624989e+3, 1.8466683e+2, -1125054.9, -1189760.1, 17199.271, -0.14488246, -0.3533608, -1120767.3, 9465.153, 0.0, 10.000265, 9.999417 
1.6250084e+3, 1.9466735e+2, -940933.25, -1031212.25, 20194.186, 0.022961931, -0.28266966, -936622.0, 95603.7, 0.0, 10.000788, 9.99957 
1.6250274e+3, 2.0466636e+2, -889089.94, -1089483.1, 63891.707, 0.11444614, -0.27360022, -870452.56, 63783.17, 0.0, 10.001033, 9.998391 
1.6250457e+3, 2.1466362e+2, -784269.7, -977971.4, 74089.97, 0.123156555, -0.42016143, -759180.3, 77084.85, 0.0, 10.001043, 9.998475 
1.6250645e+3, 2.2466202e+2, -606673.7, -809918.94, 113993.67, 0.139685, -0.4320173, -555581.8, 182699.72, 0.0, 10.001441, 9.998763 
1.6250837e+3, 2.3466167e+2, -374905.3, -632028.56, 80143.29, 0.15011273, -0.38206753, -351970.94, 288312.6, 0.0, 10.002301, 9.998893 
1.6251022e+3, 2.4466082e+2, -271553.4, -620001.1, 24830.93, 0.12688325, -0.3071353, -269792.8, 272498.97, 0.0, 10.002714, 9.998107 
1.6251194e+3, 2.5465944e+2, -171302.78, -514011.94, -15427.125, 0.0486363, -0.29419643, -170609.72, 273697.44, 0.000000011745934, 10.0027, 9.998168 
1.6251384e+3, 2.6465732e+2, -84661.91, -483171.66, 33881.875, 0.0619409, -0.2853527, -81801.74, 264525.72, 0.0000048598445, 10.002904, 9.997607 
1.6251588e+3, 2.7465436e+2, 85904.82, -343380.28, 22645.299, 0.18219739, -0.37812644, 87096.08, 335449.9, 0.00006306325, 10.00337, 9.997667 
1.6251779e+3, 2.846511e+2, 123980.305, -433344.28, 23678.648, 0.18628167, -0.39219838, 124984.51, 275368.75, 0.00033149842, 10.00363, 9.996259 
1.625195e+3, 2.9464743e+2, 254765.38, -303522.78, 34308.152, 0.04569566, -0.4304456, 256865.78, 309285.47, 0.0010552856, 10.00378, 9.996402 
1.6252135e+3, 3.0464318e+2, 328601.84, -323436.78, 59842.766, 0.082444064, -0.45169786, 334048.6, 334048.6, 0.0023370238, 10.004334, 9.995666 
1.62523e+3, 3.1464007e+2, 485709.75, -209738.42, 83558.195, -0.041352935, -0.36395252, 495608.38, 495608.38, 0.0040128794, 10.00519, 9.996045 
1.6348806e+3, 1.24641106e+2, -1978181.4, -1705617.5, -59409.45, -0.11397623, -0.569499, -1693231.3, 25247.455, 0.03398967, 9.997529, 10.001229 
1.6348983e+3, 1.3464564e+2, -1756986.0, -1531667.3, 41689.5, -0.3189978, -0.28649813, -1524201.1, 96235.24, 0.02102759, 9.998353, 10.001366 
1.634917e+3, 1.4464578e+2, -1673083.6, -1461361.0, -88597.54, -0.2631149, -0.38642973, -1429178.4, 93258.4, 0.009775217, 9.998345, 10.001176 
1.6349368e+3, 1.5464745e+2, -1591173.3, -1342543.6, -62372.65, 0.052075688, -0.3868008, -1327773.9, 96647.6, 0.002860367, 9.9981365, 10.001405 
1.6349547e+3, 1.6464858e+2, -1496233.5, -1358261.5, 9072.828, 0.085372396, -0.36027235, -1357667.5, -31257.54, 0.00036087315, 9.99857, 10.000424 
1.6349702e+3, 1.7464876e+2, -1254251.0, -1183206.3, 40323.777, -0.2325103, -0.41429996, -1164990.0, 63415.703, 0.000005927034, 9.999544, 10.000474 
1.6349883e+3, 1.8464848e+2, -1094001.3, -1136443.9, 22601.824, -0.2618318, -0.4456162, -1084219.5, 46186.813, 0.0, 10.000307, 9.999767 
1.6350096e+3, 1.9464783e+2, -926358.7, -987424.1, 47739.164, 0.04790017, -0.5259536, -900223.3, 132188.13, 0.0, 10.000727, 9.999906 
1.635029e+3, 2.0464809e+2, -867205.7, -1020707.2, 53034.25, 0.17047557, -0.43265235, -850664.9, 83745.57, 0.0, 10.000929, 9.998916 
1.6350465e+3, 2.1464935e+2, -770028.3, -915839.8, 86639.6, 0.08484331, -0.22989932, -729701.25, 106702.06, 0.0, 10.000894, 9.99898 
1.6350648e+3, 2.2464827e+2, -681463.2, -915472.75, 135875.8, 0.0087165935, -0.18541873, -619157.2, 119258.11, 0.0, 10.001228, 9.998139 
1.6350843e+3, 2.3464453e+2, -446744.2, -739976.6, 124272.375, -0.033181995, -0.411726, -401162.75, 239286.14, 0.0, 10.002125, 9.998235 
1.6351037e+3, 2.4464235e+2, -353687.4, -739824.1, 14013.587, -0.017851511, -0.40521964, -353179.5, 189291.86, 0.0, 10.002501, 9.997385 
1.6351223e+3, 2.5464192e+2, -244392.97, -626502.44, -1671.107, 0.05590105, -0.22334635, -244385.67, 200095.78, 0.000000006263202, 10.00254, 9.997469 
1.6351417e+3, 2.6463982e+2, -102882.87, -490427.47, 40052.094, 0.0778976, -0.1757908, -98786.836, 247716.28, 0.000005059976, 10.002757, 9.997637 
1.635161e+3, 2.7463588e+2, 65780.56, -345785.47, 61258.36, 0.043120954, -0.3782469, 74704.875, 323242.9, 0.000060994436, 10.00319, 9.997743 
1.6351803e+3, 2.846332e+2, 148412.34, -327848.63, 18845.02, 0.04553266, -0.38081947, 149156.86, 299719.1, 0.0003219481, 10.003408, 9.997083 
1.6351996e+3, 2.9463175e+2, 277952.75, -200349.28, 64404.23, 0.10688361, -0.2795985, 286473.13, 339048.6, 0.0010251063, 10.003561, 9.997209 
1.6352193e+3, 3.0462772e+2, 353056.5, -211680.56, 77654.35, 0.19918986, -0.35926792, 363539.78, 363539.78, 0.0022536619, 10.00408, 9.996553 
1.6352357e+3, 3.1462482e+2, 518575.53, -38906.234, 142943.97, -0.032111723, -0.3533011, 553090.9, 553090.9, 0.0038357428, 10.004768, 9.997414 
1.644879e+3, 1.2462352e+2, -1740321.9, -1560783.0, 51685.1, -0.089395314, -0.5026674, -1546967.3, 171685.5, 0.036383986, 9.999042, 10.001535 
1.6448973e+3, 1.3462698e+2, -1930789.5, -1562009.9, 78891.305, -0.18194431, -0.3684487, -1545841.9, 74774.17, 0.022584815, 9.996947, 10.001836 
1.6449146e+3, 1.4462699e+2, -2009281.0, -1647962.6, 23968.324, -0.22969732, -0.4944363, -1646379.6, -123762.984, 0.010560797, 9.99614, 10.000957 
1.6449347e+3, 1.5462936e+2, -1581057.3, -1367345.6, 7366.851, 0.032953314, -0.40236038, -1367091.9, 57505.813, 0.0031241647, 9.998309, 10.001157 
1.6449536e+3, 1.6463073e+2, -1380649.9, -1296567.5, 54244.492, 0.094650924, -0.3446234, -1269979.9, 56605.02, 0.0004029895, 9.999343, 10.000476 
1.6449702e+3, 1.7463072e+2, -1303093.4, -1204406.3, 34300.656, -0.15975863, -0.41917506, -1193655.5, 34924.875, 0.0000070009137, 9.999193, 10.000505 
1.644989e+3, 1.846303e+2, -1230800.3, -1203997.5, 19053.51, -0.1851137, -0.46309865, -1194104.4, -63522.266, 0.0, 9.999393, 9.999728 
1.6450101e+3, 1.9462952e+2, -997193.6, -1025929.1, -10422.252, 0.055759113, -0.5543227, -993811.56, 38778.56, 0.0, 10.000267, 9.999852 
1.6450298e+3, 2.0463002e+2, -864979.44, -984914.0, -26551.027, 0.16614056, -0.4483707, -859364.44, 75222.8, 0.0, 10.000796, 9.999221 
1.6450477e+3, 2.1463205e+2, -730773.9, -852742.75, -31504.184, 0.116402805, -0.20559293, -723117.1, 113454.47, 0.0, 10.00099, 9.999351 
1.6450666e+3, 2.2463116e+2, -652060.25, -917463.25, 80298.56, 0.05212046, -0.15303816, -629656.75, 108924.016, 0.0, 10.001502, 9.998003 
1.6450867e+3, 2.3462687e+2, -416421.03, -743961.0, 84948.24, -0.022412341, -0.4148492, -395700.34, 244919.06, 0.0, 10.002412, 9.998079 
1.6451061e+3, 2.4462427e+2, -346439.25, -771939.9, -9047.928, -0.021912958, -0.42616135, -346246.94, 196399.64, 0.0, 10.002705, 9.9970665 
1.6451247e+3, 2.5462356e+2, -302267.56, -696836.56, -23673.256, 0.041775525, -0.23451173, -300852.28, 143808.67, 0.000000005166704, 10.00232, 9.997099 
1.6451441e+3, 2.6462153e+2, -186641.89, -504237.3, 75059.28, 0.08888602, -0.17272927, -169796.2, 176886.86, 0.000005473011, 10.002069, 9.997863 
1.6451642e+3, 2.74618e+2, -68631.65, -377262.72, 70970.81, 0.09763333, -0.36076385, -53093.895, 195619.95, 0.000058881178, 10.002139, 9.998017 
1.6451837e+3, 2.8461587e+2, 81301.336, -308606.13, 66036.52, 0.08968318, -0.34099624, 92181.95, 242914.33, 0.0003079229, 10.002722, 9.997552 
1.645203e+3, 2.9461533e+2, 325862.13, -126625.21, 53364.24, 0.08826767, -0.19679852, 332070.47, 384808.0, 0.000985167, 10.003679, 9.997656 
1.6452232e+3, 3.0461133e+2, 384752.28, -134416.67, 63652.42, 0.21184231, -0.32354552, 392442.44, 392442.44, 0.0021637173, 10.003983, 9.997149 
1.6452412e+3, 3.1460845e+2, 385347.6, 24618.908, 27971.92, 0.13330966, -0.37714234, 387503.75, 387503.75, 0.003666296, 10.003291, 9.998557 
1.6548774e+3, 1.2460953e+2, -1774277.1, -1658062.0, 57238.273, -0.23387197, -0.22461659, -1634605.4, 84186.68, 0.03897044, 9.999176, 10.000775 
1.6548957e+3, 1.3460967e+2, -1917737.1, -1532253.6, -16473.477, -0.049974166, -0.43988284, -1531550.9, 89232.336, 0.024272982, 9.996924, 10.00206 
1.6549112e+3, 1.4460929e+2, -2041498.1, -1717526.0, 76469.67, -0.21089028, -0.5979372, -1700383.4, -177597.1, 0.0114189135, 9.996149, 10.000476 
1.6549316e+3, 1.5461309e+2, -1627883.6, -1464113.5, 100076.77, -0.13059993, -0.29544306, -1416690.8, 8065.388, 0.0034161112, 9.998309, 10.000493 
1.6549519e+3, 1.6461444e+2, -1387669.3, -1337173.9, 38116.3, -0.04087806, -0.18632838, -1316701.8, 10042.974, 0.00045137366, 9.999444, 10.000151 
1.6549712e+3, 1.746131e+2, -1322742.4, -1238708.1, 36331.75, -0.00019697945, -0.37410977, -1225178.5, 3574.6548, 0.000008273259, 9.999169, 10.000276 
1.6549903e+3, 1.846124e+2, -1260292.9, -1275518.4, 39838.133, -0.0075093983, -0.4124412, -1227346.6, -96587.61, 0.0, 9.999424, 9.9992285 
1.6550097e+3, 1.9461243e+2, -1042780.8, -1109452.9, 30314.793, -0.045435168, -0.3675632, -1031058.25, 1703.7903, 0.0, 10.000207, 9.999315 
1.655029e+3, 2.0461224e+2, -875199.75, -978368.0, -28761.703, -0.010352324, -0.3072951, -867723.25, 67042.09, 0.0, 10.000679, 9.999321 
1.6550489e+3, 2.1461177e+2, -743631.4, -843153.0, -14263.613, 0.12524705, -0.3293955, -741627.44, 95141.88, 0.0, 10.0008335, 9.999492 
1.6550691e+3, 2.2461057e+2, -651215.25, -877635.1, 100316.45, 0.15832786, -0.3347455, -613164.2, 125615.31, 0.0, 10.001336, 9.998358 
1.6550902e+3, 2.3460852e+2, -418487.03, -706727.7, 133178.03, 0.077907026, -0.40590724, -366375.22, 274421.6, 0.0, 10.002232, 9.9984255 
1.6551091e+3, 2.4460648e+2, -376651.5, -788029.9, -27488.281, -0.010935139, -0.376619, -374822.88, 167995.63, 0.0, 10.002507, 9.997047 
1.6551259e+3, 2.546044e+2, -328644.28, -710585.1, -24903.346, -0.081392616, -0.32420343, -327027.38, 117818.375, 0.00000000856411, 10.002157, 9.997073 
1.6551454e+3, 2.6460236e+2, -188018.22, -477967.06, 64895.234, -0.00095878256, -0.27634934, -174156.33, 172711.88, 0.0000057188686, 10.001933, 9.998114 
1.6551678e+3, 2.7460042e+2, -65293.64, -342239.13, 90911.445, 0.23171164, -0.33367154, -38117.383, 210766.95, 0.00005720022, 10.002009, 9.998324 
1.6551876e+3, 2.84599e+2, 62356.23, -300804.16, 86944.36, 0.19336155, -0.2686924, 82098.39, 232995.38, 0.0002952708, 10.002515, 9.997706 
1.6552047e+3, 2.945979e+2, 309345.66, -123147.016, 110724.85, -0.12487964, -0.19495894, 336044.75, 388953.16, 0.0009504649, 10.003505, 9.997767 
1.6552252e+3, 3.0459368e+2, 353195.56, -125243.6, 24419.086, -0.008997804, -0.35495177, 354438.66, 354438.66, 0.0020967317, 10.003687, 9.997346 
1.655246e+3, 3.1459036e+2, 383856.66, 108489.14, 47319.414, 0.24242091, -0.4827893, 391761.2, 391761.2, 0.0035537719, 10.002918, 9.999314 
1.6648747e+3, 1.24591716e+2, -2249281.0, -1909436.0, 100562.375, -0.24082987, -0.26672488, -1881908.6, -162943.63, 0.041736465, 9.996002, 10.000569 
1.6648933e+3, 1.3459246e+2, -1741302.6, -1438494.3, -98271.984, -0.030840393, -0.43313512, -1409397.4, 211552.8, 0.026087236, 9.998063, 10.002182 
1.6649097e+3, 1.4459218e+2, -1674565.4, -1582299.9, 68098.88, -0.091106184, -0.5666509, -1546178.8, -23227.287, 0.012349877, 9.998861, 10.000088 
1.6649298e+3, 1.5459505e+2, -1573811.0, -1477819.9, 94905.484, -0.16234753, -0.320578, -1419464.0, 5465.709, 0.003737191, 9.998871, 10.000117 
1.6649505e+3, 1.6459581e+2, -1469881.3, -1419358.9, 32212.611, -0.10024201, -0.23085329, -1403683.8, -76759.57, 0.00050616945, 9.999081, 9.999754 
1.6649713e+3, 1.745941e+2, -1266916.1, -1258198.9, -7725.973, 0.07087372, -0.4152676, -1253686.9, -24749.1, 0.000009797576, 9.999745, 9.999867 
1.6649911e+3, 1.8459342e+2, -1167957.6, -1229304.0, 41990.36, 0.10195436, -0.4272291, -1146630.5, -15686.361, 0.0, 10.000057, 9.999235 
1.6650099e+3, 1.9459412e+2, -1023512.7, -1089970.1, 53686.957, -0.04262206, -0.3229739, -993603.2, 39337.625, 0.0, 10.000314, 9.999381 
1.6650295e+3, 2.0459361e+2, -878396.3, -997430.56, 24482.336, -0.02323383, -0.2926037, -873557.6, 61388.566, 0.0, 10.000733, 9.999164 
1.6650507e+3, 2.1459171e+2, -671801.7, -827629.25, -3723.3508, 0.1930217, -0.4389248, -671712.75, 165249.13, 0.0, 10.001406, 9.999325 
1.6650717e+3, 2.2459024e+2, -586429.7, -843603.8, 108515.805, 0.24706195, -0.46250466, -546760.06, 192214.56, 0.0, 10.001772, 9.998371 
1.6650924e+3, 2.3458934e+2, -474382.75, -723587.6, 90348.086, 0.10041578, -0.42619365, -445074.38, 195908.83, 0.0, 10.001811, 9.998494 
1.6651116e+3, 2.4458775e+2, -388721.34, -754427.06, -54735.258, 0.0007366594, -0.37470892, -380704.8, 162295.92, 0.0, 10.002229, 9.997438 
1.6651289e+3, 2.5458524e+2, -160618.78, -582900.0, -39866.156, -0.030899009, -0.4016854, -156888.11, 288141.66, 0.0000000057748837, 10.003095, 9.997517 
1.6651486e+3, 2.6458335e+2, 35383.8, -349774.47, 75518.89, 0.054414418, -0.3696116, 49661.688, 396711.38, 0.0000055479773, 10.003396, 9.998284 
1.6651703e+3, 2.7458215e+2, 99935.516, -260015.52, 60068.66, 0.24117917, -0.3603914, 109695.16, 358753.84, 0.000055377644, 10.003111, 9.998376 
1.6651905e+3, 2.8458062e+2, 122717.695, -286830.97, 88706.65, 0.20619698, -0.3016074, 141105.63, 292178.94, 0.00028510438, 10.00299, 9.997565 
1.6652083e+3, 2.945787e+2, 225876.7, -179819.88, 48029.32, -0.07024568, -0.2934575, 231485.23, 284579.25, 0.0009269264, 10.003024, 9.997596 
1.6652294e+3, 3.04575e+2, 310910.3, -173210.3, -43060.293, 0.061316825, -0.38437817, 314710.5, 314710.5, 0.0020626085, 10.003509, 9.997095 
1.6652504e+3, 3.145722e+2, 572399.06, 203409.83, -116999.77, 0.33124316, -0.43278012, 606370.0, 606370.0, 0.0035136023, 10.00421, 9.999335 
1.674871e+3, 1.2457072e+2, -2204380.3, -1819969.6, 147522.11, -0.2730097, -0.56002235, -1769882.4, -50717.367, 0.044670317, 9.99601, 10.001182 
1.6748895e+3, 1.345755e+2, -1736506.3, -1439490.8, -22850.36, -0.24029987, -0.32829756, -1437743.0, 183372.38, 0.028026333, 9.998098, 10.002162 
1.6749102e+3, 1.4457567e+2, -1673421.5, -1599798.9, 53142.684, 0.021465845, -0.4117501, -1571963.3, -48850.62, 0.013357116, 9.998945, 9.999926 
1.674929e+3, 1.5457524e+2, -1587287.6, -1504533.6, 104894.65, -0.15541326, -0.4793584, -1433150.1, -8032.0522, 0.004090086, 9.998862, 9.999942 
1.674949e+3, 1.6457467e+2, -1495853.0, -1488238.6, 41798.297, -0.19476417, -0.4894936, -1450074.5, -122950.11, 0.0005678562, 9.999139, 9.999259 
1.6749702e+3, 1.7457375e+2, -1311486.3, -1340990.8, 23783.547, -0.03454988, -0.5377429, -1298251.3, -69117.57, 0.000011659807, 9.999707, 9.99932 
1.6749907e+3, 1.8457364e+2, -1125547.0, -1150487.9, 39648.805, 0.026217632, -0.49173567, -1096453.8, 34681.48, 0.0, 10.000087, 9.999769 
1.6750105e+3, 1.9457456e+2, -993779.25, -1014375.75, 71389.88, -0.031846005, -0.4177916, -931948.6, 101177.93, 0.0, 10.000248, 9.999938 
1.675031e+3, 2.0457405e+2, -913533.8, -1054530.9, 36835.297, 0.02533221, -0.40206146, -904490.6, 30640.113, 0.0, 10.000659, 9.99881 
1.6750526e+3, 2.1457174e+2, -724912.9, -905575.7, 31789.717, 0.22502518, -0.5442072, -719482.4, 117668.18, 0.0, 10.001256, 9.998867 
1.6750732e+3, 2.2457014e+2, -643530.7, -909912.8, 102052.234, 0.20851554, -0.5407083, -608928.6, 130238.07, 0.0, 10.001548, 9.998021 
1.6750929e+3, 2.3456937e+2, -526541.44, -789822.2, 101925.33, -0.045639575, -0.45852843, -491694.72, 149483.67, 0.0, 10.001629, 9.998126 
1.6751128e+3, 2.4456804e+2, -359380.16, -645847.8, -36536.523, -0.096503094, -0.40328157, -354793.66, 188400.13, 0.0, 10.002022, 9.998282 
1.6751333e+3, 2.545661e+2, -126043.695, -466109.3, 6600.354, 0.08860224, -0.46120152, -125915.63, 319297.22, 0.0000000017385277, 10.0029, 9.998411 
1.675153e+3, 2.645645e+2, 4596.393, -367001.03, 56577.977, 0.13707328, -0.44544837, 13019.794, 360247.16, 0.0000048816705, 10.003189, 9.99827 
1.6751717e+3, 2.745631e+2, 74219.3, -282310.2, 68581.695, 0.032858327, -0.44900724, 86956.56, 336194.97, 0.000051551386, 10.002971, 9.998294 
1.6751917e+3, 2.8456077e+2, 52772.79, -388024.13, 79158.19, 0.008527926, -0.43834865, 66556.945, 217818.56, 0.0002714196, 10.002798, 9.996966 
1.6752136e+3, 2.9455763e+2, 169848.23, -267273.44, 73079.85, 0.10411326, -0.49706984, 181742.39, 235037.75, 0.0008993854, 10.002876, 9.997077 
1.675235e+3, 3.0455506e+2, 210419.27, -300075.53, -26449.807, 0.26304686, -0.416953, 211786.03, 211786.03, 0.0020322788, 10.003183, 9.996369 
1.6752534e+3, 3.145533e+2, 472076.7, 71958.766, -43908.156, 0.15947106, -0.2883149, 476838.4, 476838.4, 0.0035026008, 10.003904, 9.998562 
1.6848683e+3, 1.245515e+2, -2319452.8, -1863057.6, 70029.0, -0.081780635, -0.51851296, -1852554.1, -133202.83, 0.04776628, 9.995183, 10.001274 
1.6848859e+3, 1.3455589e+2, -1890532.4, -1485175.9, -58407.78, -0.33876848, -0.3508601, -1476927.6, 144378.45, 0.030093629, 9.996949, 10.002385 
1.6849095e+3, 1.4455606e+2, -1722274.5, -1625924.5, -4689.8936, 0.078406826, -0.4467845, -1625696.8, -102393.25, 0.0144471, 9.998615, 9.999908 
1.6849291e+3, 1.545553e+2, -1503020.9, -1469122.1, 23121.348, -0.05527835, -0.5416723, -1457403.1, -32091.758, 0.004479329, 9.999461, 9.9999 
1.6849491e+3, 1.6455486e+2, -1418234.9, -1436664.0, 7781.7383, -0.1185282, -0.5395146, -1415388.6, -88072.47, 0.0006375465, 9.99962, 9.999376 
1.6849697e+3, 1.7455469e+2, -1329669.5, -1327506.4, 23600.037, -0.035263423, -0.53215265, -1304963.1, -75644.53, 0.00001399049, 9.999498, 9.9995 
1.6849907e+3, 1.845546e+2, -1213424.0, -1208255.8, 61765.293, 0.04658331, -0.48743466, -1149020.5, -17700.893, 0.0, 9.999561, 9.999619 
1.6850117e+3, 1.9455472e+2, -1043074.7, -1061522.0, 20004.9, 0.087615326, -0.47796816, -1030269.5, 3049.3113, 0.0, 10.000004, 9.999736 
1.6850327e+3, 2.0455396e+2, -924875.75, -1073570.5, -964.9798, 0.14058301, -0.46692994, -924869.5, 10456.059, 0.0, 10.000641, 9.998692 
1.6850537e+3, 2.1455237e+2, -695768.0, -895782.8, -7434.0747, 0.2095228, -0.5292698, -695492.06, 141847.45, 0.0, 10.00149, 9.998817 
1.6850743e+3, 2.2455099e+2, -636120.2, -900982.56, 74993.13, 0.17453499, -0.50201595, -616360.75, 122993.375, 0.0, 10.001561, 9.998093 
1.6850945e+3, 2.345498e+2, -659145.1, -847176.6, 88219.875, 0.011666277, -0.46545327, -624235.7, 17134.697, 0.0, 10.000681, 9.998204 
1.6851152e+3, 2.445486e+2, -499621.75, -656546.56, 30044.803, -0.0009845383, -0.42481804, -494066.06, 49317.594, 0.0, 10.00082, 9.998769 
1.6851364e+3, 2.5454742e+2, -193294.19, -448897.8, 16840.256, 0.14610645, -0.46215242, -192189.45, 253203.55, 0.0000000018399801, 10.002206, 9.99886 
1.6851564e+3, 2.6454583e+2, -67058.51, -456273.34, 15925.845, 0.17635234, -0.44264975, -66407.945, 280999.03, 0.0000039092515, 10.002932, 9.997782 
1.6851749e+3, 2.7454373e+2, 44427.773, -342338.5, -33351.66, 0.06875204, -0.46677154, 47282.684, 296710.25, 0.000046409757, 10.003003, 9.997846 
1.685195e+3, 2.8454104e+2, 144324.4, -323234.22, 30224.08, 0.03733213, -0.47573748, 146270.06, 297724.4, 0.00025645504, 10.003325, 9.997171 
1.6852167e+3, 2.9453814e+2, 334676.8, -156054.94, 48416.89, 0.11262656, -0.53206927, 339408.16, 392891.3, 0.000866263, 10.003869, 9.997372 
1.6852391e+3, 3.0453613e+2, 369214.88, -262273.1, 37864.73, 0.28965226, -0.39759943, 371477.2, 371477.2, 0.0019892077, 10.004402, 9.996067 
1.6852584e+3, 3.1453308e+2, 529902.44, 3201.6719, -3706.6482, 0.25524986, -0.34012696, 529928.56, 529928.56, 0.0034762193, 10.004654, 9.997779 
1.6948651e+3, 1.24532714e+2, -2344646.3, -1940257.6, -49815.023, 0.018842964, -0.2951644, -1934211.5, -214674.34, 0.051028147, 9.995274, 10.0007105 
1.6948824e+3, 1.3453344e+2, -1876343.8, -1436916.3, 33807.64, -0.42653582, -0.52749413, -1434330.5, 187193.92, 0.032295942, 9.996865, 10.002768 
1.6949072e+3, 1.4453332e+2, -1703486.3, -1604268.8, 24381.512, -0.04221492, -0.6792114, -1598601.0, -75076.83, 0.015627254, 9.998676, 10.000035 
1.6949297e+3, 1.5453547e+2, -1496114.6, -1465000.5, 63218.13, 0.040646542, -0.4859369, -1415453.4, 10054.289, 0.004910431, 9.999496, 9.999918 
1.6949503e+3, 1.6453655e+2, -1347790.1, -1308447.4, -11984.662, 0.014053519, -0.3726279, -1305084.0, 22414.434, 0.0007170378, 9.999693, 10.000221 
1.6949695e+3, 1.74537e+2, -1270577.1, -1201831.5, 28236.146, -0.021134147, -0.39128092, -1191720.9, 37770.71, 0.000016975888, 9.99948, 10.000373 
1.6949905e+3, 1.8453641e+2, -1267029.1, -1330579.3, 63892.62, 0.052053317, -0.40269297, -1227446.5, -95949.59, 0.0, 9.999603, 9.998762 
1.6950132e+3, 1.9453445e+2, -1119731.4, -1204452.0, 43362.16, 0.21412696, -0.50460833, -1101472.6, -67954.52, 0.0, 9.999932, 9.99879 
1.6950344e+3, 2.0453338e+2, -940493.7, -1067614.4, 17050.46, 0.21598913, -0.48103276, -938246.5, -2716.6167, 0.0, 10.000478, 9.998812 
1.6950537e+3, 2.1453351e+2, -707377.25, -886293.06, 35173.355, 0.049566973, -0.38734478, -700710.8, 136818.23, 0.0, 10.001337, 9.9989605 
1.6950746e+3, 2.2453268e+2, -623753.5, -828233.2, 33520.883, 0.024432883, -0.34321925, -618398.56, 121139.44, 0.0, 10.001366, 9.998682 
1.695097e+3, 2.3453063e+2, -647618.94, -776391.7, 70283.22, 0.16609712, -0.4531241, -616688.25, 24871.139, 0.0, 10.000483, 9.998783 
1.6951181e+3, 2.4452929e+2, -531336.3, -665492.2, 68482.52, 0.17786755, -0.45652676, -502553.38, 41018.2, 0.0, 10.000577, 9.998827 
1.6951378e+3, 2.5452897e+2, -214711.5, -453032.3, 81123.47, 0.05699308, -0.40995967, -189718.45, 255853.2, 0.0000000033657745, 10.002037, 9.998913 
1.6951583e+3, 2.6452726e+2, -163363.47, -608174.9, 9827.959, 0.060296506, -0.36472034, -163146.42, 184442.69, 0.0000030031388, 10.002727, 9.996836 
1.6951796e+3, 2.7452382e+2, -49750.727, -497124.3, -14203.006, 0.2279726, -0.42401645, -49300.27, 200327.19, 0.000041455987, 10.00283, 9.996865 
1.6951998e+3, 2.845212e+2, 174203.6, -207734.88, 37350.203, 0.16391574, -0.42342073, 177821.84, 329475.63, 0.00024337543, 10.003095, 9.998078 
1.6952184e+3, 2.945197e+2, 380709.75, -19597.209, 86242.95, -0.14769743, -0.43519285, 398499.53, 452162.44, 0.00083297, 10.003682, 9.998405 
1.695241e+3, 3.0451763e+2, 320222.16, -278204.97, 36903.38, 0.023687147, -0.36044794, 322489.28, 322489.28, 0.00192962, 10.004058, 9.996113 
1.6952646e+3, 3.1451234e+2, 430215.72, -93955.85, 54513.516, 0.36512566, -0.5361103, 435825.06, 435825.06, 0.003403859, 10.004208, 9.997307 
1.7048626e+3, 1.2451134e+2, -2065654.3, -1786872.1, -22588.406, 0.15682708, -0.35333467, -1785053.8, -65307.273, 0.054460447, 9.997102, 10.000887 
1.7048801e+3, 1.3451265e+2, -1759369.4, -1410441.8, 43672.527, -0.35915118, -0.49550396, -1405058.6, 216670.58, 0.034638863, 9.997784, 10.002521 
1.7049049e+3, 1.445122e+2, -1804762.3, -1579289.8, 11762.13, -0.08169879, -0.69953406, -1578677.9, -54945.36, 0.016903277, 9.997695, 10.000672 
1.7049284e+3, 1.5451558e+2, -1797611.3, -1532746.6, 64023.547, 0.09214246, -0.45047337, -1518082.6, -92379.945, 0.00538814, 9.99711, 10.00059 
1.7049499e+3, 1.6451706e+2, -1635493.8, -1420383.6, 43124.11, 0.11599706, -0.34549087, -1412060.4, -84372.1, 0.0008082668, 9.997589, 10.000469 
1.7049699e+3, 1.7451715e+2, -1241404.3, -1159215.0, 19802.906, 0.059926543, -0.42386726, -1154692.5, 74991.24, 0.000020835996, 9.999548, 10.000641 
1.7049912e+3, 1.8451647e+2, -1146793.1, -1295409.6, 51596.027, 0.118455335, -0.44644034, -1130636.6, 1053.083, 0.0, 10.000521, 9.998574 
1.705014e+3, 1.9451469e+2, -1047839.3, -1193235.0, 63146.49, 0.26404506, -0.5096856, -1024243.56, 9467.117, 0.0, 10.000518, 9.998598 
1.705035e+3, 2.0451365e+2, -940046.3, -1060434.6, 95919.07, 0.24082369, -0.47599122, -886998.25, 48724.68, 0.0, 10.000456, 9.9988575 
1.7050543e+3, 2.145137e+2, -833096.56, -941735.06, 84254.85, 0.018962892, -0.3974623, -787168.8, 50554.145, 0.0, 10.00046, 9.998993 
1.7050754e+3, 2.2451298e+2, -675827.75, -841141.0, 67391.07, -0.0012835622, -0.34948537, -651836.94, 87893.93, 0.0, 10.000955, 9.998789 
1.7050986e+3, 2.3451129e+2, -419581.0, -651219.2, 40530.83, 0.21705745, -0.43504074, -412693.9, 229054.69, 0.0, 10.001986, 9.998916 
1.7051202e+3, 2.4450997e+2, -255829.16, -570191.3, 58224.07, 0.2423102, -0.428178, -245391.81, 298369.4, 0.0, 10.002635, 9.998496 
1.7051399e+3, 2.545091e+2, -120971.2, -440392.28, 19240.84, 0.028947266, -0.39950714, -119816.375, 325951.03, 0.0000000026261497, 10.002842, 9.998607 
1.7051609e+3, 2.6450714e+2, -113515.61, -570221.0, -32844.203, 0.037159145, -0.36882174, -111165.695, 236621.63, 0.0000021613648, 10.002995, 9.996972 
1.7051832e+3, 2.7450392e+2, -3857.4565, -460777.63, -4171.0103, 0.29403138, -0.42278245, -3819.3845, 246003.47, 0.000036656253, 10.003068, 9.997005 
1.7052035e+3, 2.845015e+2, 185286.9, -185641.31, 103239.26, 0.24200252, -0.41002345, 212085.08, 363931.0, 0.00022921336, 10.00311, 9.998214 
1.7052214e+3, 2.945001e+2, 310351.47, -38979.973, 60168.395, -0.16961573, -0.4203589, 320424.34, 374277.84, 0.0007930789, 10.003149, 9.998525 
1.7052443e+3, 3.044981e+2, 290784.13, -224158.47, 28574.232, 0.0015730729, -0.3798507, 292364.88, 292364.88, 0.0018418857, 10.003549, 9.996725 
1.7052692e+3, 3.1449306e+2, 424382.28, -80333.65, 22076.86, 0.4159237, -0.585104, 425346.1, 425346.1, 0.003263406, 10.004101, 9.997433 
1.7148605e+3, 1.2448738e+2, -1986196.6, -1628589.6, 32832.516, 0.16769361, -0.70414454, -1625600.1, 94378.805, 0.058051143, 9.997112, 10.002001 
1.7148796e+3, 1.3449417e+2, -1831163.9, -1546189.4, 77060.73, -0.22496662, -0.20170891, -1526686.0, 95228.555, 0.037118543, 9.99776, 10.001567 
1.7149019e+3, 1.4449298e+2, -1706367.9, -1404717.3, -21618.14, -0.17362705, -0.4848233, -1403175.9, 120750.016, 0.018276531, 9.997792, 10.001846 
1.7149249e+3, 1.544955e+2, -1714263.4, -1355373.6, 53376.25, -0.010688609, -0.44820115, -1347603.5, 78294.266, 0.005915651, 9.997082, 10.001828 
1.7149474e+3, 1.6449636e+2, -1653056.5, -1458153.3, 97569.734, 0.077853225, -0.45523867, -1417703.9, -89818.16, 0.0009130136, 9.997601, 10.000198 
1.71497e+3, 1.7449526e+2, -1272215.8, -1212943.6, 101371.805, 0.1146753, -0.6209381, -1136964.6, 92928.95, 0.000025810483, 9.999513, 10.000281 
1.7149922e+3, 1.8449487e+2, -1110739.1, -1226609.8, 43427.684, 0.13760766, -0.61746114, -1096269.5, 35628.117, 0.0, 10.000538, 9.999042 
1.7150132e+3, 1.9449542e+2, -1018520.56, -1118929.6, 73209.34, 0.14069176, -0.50087714, -979955.1, 53941.26, 0.0, 10.000456, 9.999139 
1.7150342e+3, 2.0449483e+2, -957400.06, -1074011.3, 86023.28, 0.099786125, -0.45125154, -911784.8, 24119.314, 0.0, 10.000358, 9.998814 
1.715055e+3, 2.1449284e+2, -862297.4, -964212.9, 94623.63, 0.019589806, -0.5674305, -805782.7, 32139.584, 0.0, 10.000293, 9.99892 
1.7150766e+3, 2.2449175e+2, -734759.5, -912118.7, 95289.06, 0.0025293448, -0.5359597, -693269.7, 46664.637, 0.0, 10.000728, 9.998416 
1.7150992e+3, 2.3449178e+2, -471736.47, -722382.4, 93195.3, 0.069721565, -0.40859705, -440882.56, 201055.86, 0.0, 10.001815, 9.998515 
1.7151213e+3, 2.444905e+2, -340503.3, -687756.6, 56097.773, 0.05894465, -0.342032, -331665.78, 212287.45, 0.0, 10.002392, 9.997801 
1.7151423e+3, 2.5448766e+2, -202213.08, -563389.44, 42474.77, -0.035939828, -0.44190347, -197285.23, 248696.13, 0.0000000000058928205, 10.002643, 9.997858 
1.7151636e+3, 2.6448533e+2, -69336.75, -423790.94, -41257.387, -0.006900097, -0.46118763, -64597.867, 283405.47, 0.0000014626683, 10.002768, 9.998085 
1.7151853e+3, 2.744838e+2, 54941.55, -293256.8, 10921.64, 0.1733146, -0.46657303, 55283.78, 305299.66, 0.000032258973, 10.002875, 9.998249 
1.7152059e+3, 2.8448188e+2, 105756.45, -298907.47, 92037.3, 0.1499982, -0.4380555, 125706.04, 277738.66, 0.00021422842, 10.002884, 9.997547 
1.7152254e+3, 2.9447952e+2, 233020.5, -155522.92, 86279.11, -0.10037629, -0.4802264, 251317.8, 305372.47, 0.00074599084, 10.002955, 9.997815 
1.715249e+3, 3.0447736e+2, 299178.25, -126858.92, 34061.617, 0.07750085, -0.45921078, 301884.28, 301884.28, 0.0017315848, 10.003225, 9.997543 
1.7152718e+3, 3.1447467e+2, 404795.28, 2290.8782, 76440.336, 0.21505584, -0.5221666, 418823.28, 418823.28, 0.003074586, 10.003615, 9.998218 
1.7248584e+3, 1.244662e+2, -1817282.6, -1567554.3, 103326.25, 0.20761758, -0.7842407, -1530346.4, 189839.6, 0.06177432, 9.998329, 10.001874 
1.7248775e+3, 1.3447398e+2, -1931362.6, -1649676.6, 99141.945, -0.16670106, -0.1445331, -1618281.8, 3833.3376, 0.039721623, 9.997312, 10.001043 
1.7249002e+3, 1.4447306e+2, -1783834.0, -1433384.0, 32602.129, -0.1010621, -0.37503266, -1430376.9, 93747.44, 0.019743169, 9.997215, 10.00193 
1.7249231e+3, 1.5447448e+2, -1432224.5, -1197842.1, 48.874348, 0.036293305, -0.46418715, -1197842.1, 228262.1, 0.006494274, 9.9988985, 10.002057 
1.7249462e+3, 1.6447514e+2, -1390560.5, -1322045.0, 46516.81, 0.11693349, -0.5084286, -1298532.5, 29560.926, 0.001032908, 9.999362, 10.000292 
1.7249693e+3, 1.7447439e+2, -1397758.8, -1263876.9, 57986.633, 0.13617286, -0.6459799, -1242254.0, -12155.86, 0.00003215152, 9.998604, 10.000377 
1.7249916e+3, 1.8447432e+2, -1359949.3, -1329243.4, 35429.605, 0.13151532, -0.6225604, -1305983.3, -173883.45, 0.0, 9.998765, 9.99918 
1.725013e+3, 1.9447535e+2, -1011076.75, -1097395.8, 12417.256, 0.064491846, -0.4703849, -1009326.0, 24768.79, 0.0, 10.000442, 9.999283 
1.7250344e+3, 2.0447494e+2, -816209.0, -988230.3, 2345.311, 0.045945678, -0.4165328, -816177.06, 119923.3, 0.0, 10.001251, 9.998981 
1.7250563e+3, 2.1447274e+2, -731853.9, -883390.44, 7369.5693, 0.09238853, -0.5676366, -731496.3, 106622.52, 0.0, 10.001108, 9.999092 
1.7250784e+3, 2.2447151e+2, -704809.94, -910185.2, 70654.41, 0.10738717, -0.5508744, -682850.9, 57280.863, 0.0, 10.001004, 9.998283 
1.7251006e+3, 2.3447162e+2, -598753.3, -798514.0, 60958.445, 0.06452192, -0.40142828, -581620.75, 60515.484, 0.0, 10.001032, 9.998353 
1.7251226e+3, 2.4447033e+2, -526122.06, -781396.0, 66578.86, 0.025251942, -0.3269282, -509800.94, 34350.973, 0.0, 10.00113, 9.997758 
1.7251442e+3, 2.544674e+2, -403813.06, -658424.06, 82431.625, -0.011939694, -0.4331865, -379455.56, 66725.195, 0.0000000000049057277, 10.001258, 9.99786 
1.7251661e+3, 2.6446503e+2, -182841.1, -457570.4, 37514.355, 0.020675516, -0.4650027, -177810.61, 170391.42, 0.0000011502509, 10.001902, 9.998269 
1.7251877e+3, 2.7446342e+2, 105391.13, -250529.44, -11137.613, 0.13318273, -0.49557796, 105739.31, 355952.66, 0.000029351942, 10.003137, 9.998421 
1.725209e+3, 2.8446147e+2, 174883.14, -301671.94, 32654.025, 0.14701812, -0.4660677, 177110.22, 329341.06, 0.00020332959, 10.003523, 9.997211 
1.7252299e+3, 2.9445887e+2, 202867.69, -214433.45, 8932.458, 0.04381187, -0.48987734, 203058.8, 257316.72, 0.00070566754, 10.002958, 9.997397 
1.7252536e+3, 3.0445638e+2, 332466.53, -119785.84, 15279.696, 0.2107598, -0.47233996, 332982.2, 332982.2, 0.0016342415, 10.003457, 9.997505 
1.7252745e+3, 3.1445536e+2, 595265.5, 84459.766, -69063.51, 0.08572666, -0.36096466, 604438.5, 604438.5, 0.0029059378, 10.004881, 9.998227 
1.734856e+3, 1.24449044e+2, -1919127.6, -1782287.0, 54466.08, 0.0753633, -0.47859004, -1763255.1, -42899.71, 0.06561491, 9.998396, 10.000281 
1.7348737e+3, 1.3445176e+2, -1952370.5, -1676676.4, 52889.414, -0.31530452, -0.35110962, -1666878.3, -44544.523, 0.042436883, 9.997246, 10.000887 
1.734899e+3, 1.4445207e+2, -1854963.8, -1581971.3, 72248.305, 0.01635322, -0.39148995, -1564029.6, -39698.234, 0.021297567, 9.997228, 10.000888 
1.7349231e+3, 1.5445258e+2, -1486749.9, -1315024.4, 71118.84, 0.120991014, -0.4917331, -1289395.9, 136926.22, 0.0071235094, 9.998923, 10.001231 
1.7349458e+3, 1.6445345e+2, -1337640.3, -1242223.5, 8399.994, 0.10775612, -0.49501696, -1241489.6, 86820.52, 0.0011691477, 9.9994755, 10.0007925 
1.7349672e+3, 1.7445453e+2, -1359382.0, -1189213.4, 36373.52, 0.037631527, -0.5021108, -1181764.5, 48532.848, 0.00004011834, 9.998613, 10.00089 
1.7349894e+3, 1.8445486e+2, -1376045.6, -1368964.8, 78168.44, -0.011551471, -0.45321387, -1294256.6, -161960.86, 0.0, 9.99879, 9.998897 
1.7350124e+3, 1.9445439e+2, -1050146.1, -1155148.6, 82925.17, -0.06336741, -0.41963744, -1004499.7, 29806.92, 0.0, 10.0003395, 9.998936 
1.7350352e+3, 2.0445393e+2, -808578.6, -943086.56, -12266.56, -0.030101122, -0.36958846, -807469.1, 128843.25, 0.0, 10.0011215, 9.999354 
1.735058e+3, 2.1445343e+2, -722601.25, -834351.75, 12481.543, 0.13277921, -0.3958014, -721224.2, 117088.31, 0.0, 10.000974, 9.999494 
1.7350803e+3, 2.2445232e+2, -733173.8, -921085.9, 60842.26, 0.17979325, -0.38930193, -715194.5, 25128.182, 0.0, 10.000802, 9.998303 
1.7351021e+3, 2.344506e+2, -620763.0, -806696.9, 74009.6, 0.09240598, -0.42537084, -594901.2, 47442.895, 0.0, 10.000865, 9.998378 
1.7351238e+3, 2.4444917e+2, -516022.72, -705218.5, 61147.53, 0.026327828, -0.39562255, -497980.53, 46378.97, 0.0, 10.000902, 9.99839 
1.7351459e+3, 2.544482e+2, -380143.75, -568739.75, 101093.484, -0.0065517924, -0.3756183, -336195.56, 110171.38, 0.000000000000012544113, 10.001091, 9.998554 
1.735168e+3, 2.6444608e+2, -263393.78, -577528.3, 71705.266, 0.0006625234, -0.3857685, -247800.19, 100585.14, 0.0000010511417, 10.001699, 9.997543 
1.7351903e+3, 2.744428e+2, 18921.832, -382043.03, 52229.293, 0.056417692, -0.50654227, 25613.492, 276028.5, 0.000029114979, 10.002936, 9.99761 
1.7352124e+3, 2.844401e+2, 119502.164, -362140.22, -1586.2207, 0.10288864, -0.49230674, 119507.39, 271948.6, 0.00019954766, 10.0032835, 9.996916 
1.735234e+3, 2.9443774e+2, 148003.45, -274148.6, 8892.494, 0.14531009, -0.46856746, 148190.69, 202657.61, 0.00068415265, 10.002724, 9.997102 
1.7352575e+3, 3.0443493e+2, 218918.72, -271734.16, 53725.06, 0.24703674, -0.42545027, 224732.56, 224732.56, 0.0015832578, 10.00312, 9.996607 
1.7352769e+3, 3.1443426e+2, 479560.3, -5280.2686, 16991.557, -0.20823169, -0.20434667, 480155.06, 480155.06, 0.0028257386, 10.004283, 9.9978695 
1.7448534e+3, 1.24430224e+2, -2345342.0, -2012295.5, -50568.63, 0.12650698, -0.22196701, -2004786.6, -284242.38, 0.06957688, 9.995591, 10.000066 
1.7448713e+3, 1.3443036e+2, -1757010.3, -1523714.3, 16170.006, -0.30201477, -0.40218288, -1522598.9, 99945.24, 0.045260757, 9.998311, 10.001464 
1.7448978e+3, 1.4443074e+2, -1564202.0, -1496916.5, 102912.125, 0.09484965, -0.44417807, -1422287.6, 102252.38, 0.022935338, 9.999479, 10.0003805 
1.7449215e+3, 1.5443137e+2, -1658701.9, -1456962.6, 87207.85, 0.11774148, -0.47869024, -1424491.0, 2040.7031, 0.0078018596, 9.998016, 10.000671 
1.744944e+3, 1.6443247e+2, -1605746.8, -1361696.3, 46275.324, 0.07523591, -0.43550637, -1353216.5, -24697.082, 0.0013223152, 9.997602, 10.000875 
1.7449659e+3, 1.7443416e+2, -1289092.6, -1142127.3, 21792.46, 0.0440595, -0.39123672, -1138963.9, 91538.016, 0.000049909977, 9.999051, 10.001003 
1.7449889e+3, 1.8443456e+2, -1195899.6, -1248437.5, 108426.91, 0.019511985, -0.35264358, -1110604.9, 21893.766, 0.0000000000000006446772, 9.999887, 9.999189 
1.7450126e+3, 1.9443342e+2, -1079554.6, -1136985.5, 138565.42, -0.049250737, -0.41784877, -966760.44, 67752.805, 0.0, 10.000001, 9.999215 
1.745036e+3, 2.0443273e+2, -906756.5, -985180.94, 63535.016, -0.0078376625, -0.40821838, -871307.5, 65212.637, 0.0, 10.000419, 9.9994 
1.7450595e+3, 2.144327e+2, -658510.0, -793364.6, 34123.89, 0.17516294, -0.3918019, -650366.94, 188149.52, 0.0, 10.00138, 9.999572 
1.745082e+3, 2.2443177e+2, -562798.25, -834894.5, 76920.49, 0.22429678, -0.3749819, -542558.6, 197966.52, 0.0, 10.001934, 9.998366 
1.7451034e+3, 2.3442982e+2, -462478.53, -725261.8, 73201.26, 0.09685814, -0.43559307, -443463.4, 199084.47, 0.0, 10.00192, 9.998443 
1.7451255e+3, 2.4442849e+2, -304737.28, -577343.6, 83401.164, 0.034442153, -0.41286495, -281245.88, 263316.0, 0.0, 10.002252, 9.998617 
1.7451483e+3, 2.544278e+2, -80631.42, -401121.25, 61806.918, 0.044781636, -0.38381487, -69124.98, 377440.56, 0.0, 10.003056, 9.998761 
1.7451711e+3, 2.6442575e+2, -66301.8, -503486.2, 45624.043, 0.07848673, -0.38741118, -61591.28, 286991.72, 0.0000010008785, 10.003139, 9.997358 
1.7451935e+3, 2.7442223e+2, -72844.7, -451645.9, 39365.67, 0.11623393, -0.5065957, -68797.01, 181818.75, 0.000030147008, 10.002407, 9.997384 
1.7452155e+3, 2.8441936e+2, 23223.135, -406942.16, 51577.594, 0.12718946, -0.49707854, 29320.941, 181964.89, 0.00019898178, 10.00262, 9.9969225 
1.7452368e+3, 2.944169e+2, 302052.72, -212601.36, 39456.402, 0.11323779, -0.4848714, 305060.1, 359730.9, 0.0006809621, 10.003817, 9.997006 
1.7452607e+3, 3.0441383e+2, 342126.44, -227262.19, 149927.22, 0.21968932, -0.45554903, 379191.38, 379191.38, 0.0015893417, 10.004008, 9.996499 
1.7452814e+3, 3.1441292e+2, 359384.28, -26490.207, 78084.55, -0.118682325, -0.24891877, 374586.34, 374586.34, 0.0028629568, 10.00328, 9.998202 
1.7548488e+3, 1.2440793e+2, -2258997.5, -1816922.0, -177179.22, 0.046717178, -0.17830855, -1754675.1, -33904.684, 0.07366958, 9.995517, 10.001442 
1.7548704e+3, 1.3441001e+2, -1665244.8, -1329857.1, 141910.84, -0.2478762, -0.287253, -1277869.6, 344874.3, 0.048192136, 9.998279, 10.002878 
1.7548968e+3, 1.4440958e+2, -1545409.4, -1484169.3, 50447.336, 0.0009001544, -0.49710077, -1455776.5, 68968.58, 0.024652572, 9.99958, 10.000425 
1.7549178e+3, 1.5441102e+2, -1681547.4, -1505660.4, 39035.402, -0.06938995, -0.41770977, -1497386.3, -70654.55, 0.008527423, 9.998012, 10.000347 
1.75494e+3, 1.6441205e+2, -1633606.9, -1421461.3, 72812.73, -0.0978001, -0.34062406, -1398875.1, -70152.75, 0.0014925194, 9.997612, 10.000461 
1.7549653e+3, 1.7441316e+2, -1321288.8, -1193973.0, 85773.15, 0.055726644, -0.31946877, -1150816.3, 79896.19, 0.00006156021, 9.998995, 10.0006695 
1.7549899e+3, 1.8441346e+2, -1133063.0, -1119473.9, 104433.86, 0.11275608, -0.3178202, -1021613.8, 111094.586, 0.0000000010737394, 9.999891, 10.000073 
1.7550133e+3, 1.9441245e+2, -1023779.25, -1007902.56, 151482.61, 0.0055964068, -0.46184063, -864150.44, 170564.22, 0.0, 9.999941, 10.000133 
1.7550366e+3, 2.0441136e+2, -943033.6, -1037450.75, 84923.98, -0.0084504755, -0.5264324, -893078.75, 43644.617, 0.0, 10.000317, 9.99909 
1.7550606e+3, 2.1441038e+2, -705186.9, -856916.1, 79053.61, 0.1261982, -0.5696338, -671484.56, 167248.23, 0.0, 10.001228, 9.999211 
1.7550832e+3, 2.2440968e+2, -586874.5, -836132.25, 67789.95, 0.13605034, -0.51366365, -569630.75, 171110.14, 0.0, 10.001729, 9.998455 
1.7551042e+3, 2.3440935e+2, -478210.13, -721135.1, 86052.18, -0.023204913, -0.42774588, -450816.63, 191930.78, 0.0, 10.001759, 9.9985485 
1.7551267e+3, 2.4440823e+2, -356970.16, -635454.1, 104241.9, -0.079980135, -0.37427008, -322273.34, 222485.64, 0.0, 10.002032, 9.998324 
1.7551513e+3, 2.5440618e+2, -127760.98, -456453.13, 104778.89, 0.027639948, -0.4531357, -97201.31, 349575.34, 0.0, 10.002873, 9.9984665 
1.755175e+3, 2.6440394e+2, -76744.83, -488642.3, 7301.615, 0.13253409, -0.4715039, -76615.44, 272181.1, 0.00000094846536, 10.00297, 9.997546 
1.7551969e+3, 2.7440166e+2, -74079.79, -418514.06, 28420.865, 0.19784741, -0.49391767, -71750.41, 179066.19, 0.000030605133, 10.0022545, 9.997684 
1.7552179e+3, 2.843992e+2, 10428.126, -392769.13, 81990.02, 0.09143433, -0.47486627, 26463.07, 179303.2, 0.00020042431, 10.002439, 9.997108 
1.755238e+3, 2.9439622e+2, 272503.47, -218350.9, 100786.31, -0.18050191, -0.5331433, 292391.9, 347262.78, 0.00069673214, 10.00358, 9.99708 
1.7552625e+3, 3.0439308e+2, 313720.97, -206006.1, 102502.195, -0.034679644, -0.5163357, 333206.25, 333206.25, 0.0016475633, 10.003669, 9.996801 
1.7552873e+3, 3.1439158e+2, 321924.53, 12218.469, 75833.19, 0.10000983, -0.43800163, 339495.78, 339495.78, 0.0029916468, 10.002806, 9.99868 
1.764845e+3, 1.2438514e+2, -1822644.1, -1590703.6, -27583.164, -0.007884958, -0.3646622, -1587468.5, 133522.17, 0.07790593, 9.998374, 10.001685 
1.7648695e+3, 1.3438801e+2, -1958062.4, -1545043.3, 149238.39, -0.07128894, -0.31910604, -1496762.1, 126195.41, 0.05123237, 9.996596, 10.002148 
1.7648941e+3, 1.443881e+2, -2039572.5, -1662885.0, -16315.156, -0.035362978, -0.46744123, -1662179.8, -137225.78, 0.026445003, 9.995931, 10.00096 
1.7649154e+3, 1.5438965e+2, -1708171.0, -1458707.4, 7115.191, -0.08545176, -0.42666152, -1458504.6, -31566.166, 0.009296644, 9.997586, 10.000876 
1.7649382e+3, 1.6439061e+2, -1498315.9, -1390722.0, 136752.83, -0.08637992, -0.37125832, -1297565.0, 31365.023, 0.0016790463, 9.998704, 10.00013 
1.7649645e+3, 1.7439109e+2, -1330058.8, -1246321.4, 122208.01, 0.06832622, -0.37527484, -1159008.9, 71919.06, 0.000074904594, 9.999129, 10.000242 
1.76499e+3, 1.8439129e+2, -1208141.1, -1127101.3, 111053.57, 0.14701585, -0.37291163, -1049406.4, 83518.95, 0.000000009428086, 9.999253, 10.000332 
1.7650136e+3, 1.9439106e+2, -1072719.0, -993429.9, 84542.38, 0.078588024, -0.47059527, -939698.25, 95224.56, 0.0, 9.999446, 10.000475 
1.7650373e+3, 2.0439036e+2, -990437.2, -1071972.5, 52465.664, 0.049411226, -0.5067169, -964762.06, -27833.777, 0.0, 10.00005, 9.998981 
1.7650612e+3, 2.1438935e+2, -727926.25, -885050.1, 43958.77, 0.086374104, -0.5338409, -716464.0, 122476.98, 0.0, 10.001155, 9.999053 
1.7650843e+3, 2.2438872e+2, -548173.2, -786055.8, 36473.21, 0.067323044, -0.47838253, -542706.56, 198242.73, 0.0, 10.001866, 9.998723 
1.7651059e+3, 2.3438849e+2, -395328.84, -644469.1, 36604.5, -0.046984002, -0.41053405, -390062.13, 252889.84, 0.0, 10.002184, 9.998859 
1.765129e+3, 2.4438734e+2, -304034.75, -618324.4, 99020.99, -0.057354104, -0.3747815, -275438.75, 269523.94, 0.0, 10.002402, 9.998281 
1.7651545e+3, 2.5438508e+2, -191127.33, -500294.75, 100123.914, 0.076148026, -0.46317282, -161534.7, 285448.25, 0.0, 10.002463, 9.998381 
1.7651783e+3, 2.6438284e+2, -77998.25, -466330.63, 24495.457, 0.18713084, -0.48209402, -76459.21, 272543.8, 0.0000007067664, 10.002884, 9.997728 
1.7652002e+3, 2.7438074e+2, 160878.56, -286343.1, 4270.5576, 0.22554195, -0.50692505, 160919.34, 411941.28, 0.000029110019, 10.003796, 9.997848 
1.7652212e+3, 2.8437838e+2, 242654.27, -279071.4, 74934.17, 0.104076944, -0.48504692, 253203.58, 406248.13, 0.00020337696, 10.004027, 9.997133 
1.7652416e+3, 2.9437572e+2, 259581.81, -231307.23, 41628.652, -0.16106254, -0.49910545, 263087.0, 318158.56, 0.00072526827, 10.003524, 9.997022 
1.765266e+3, 3.0437288e+2, 303421.5, -226242.9, 53257.344, -0.013666548, -0.4482091, 308723.4, 308723.4, 0.001726266, 10.003648, 9.9966755 
1.7652917e+3, 3.1436914e+2, 515455.16, 83099.22, -88035.68, 0.19829874, -0.56326365, 532693.56, 532693.56, 0.0031292066, 10.004193, 9.998525 
1.7748426e+3, 1.2436398e+2, -1874664.1, -1716058.5, -16511.393, -0.14594686, -0.599687, -1714357.9, 6825.462, 0.08231803, 9.998482, 10.000708 
1.7748685e+3, 1.3436449e+2, -2169618.5, -1969899.0, 80679.49, 0.1473918, -0.49726763, -1941379.9, -318196.13, 0.054393712, 9.996554, 9.99921 
1.7748892e+3, 1.4436603e+2, -1970980.9, -1519003.9, 15446.804, -0.14670765, -0.38424024, -1518476.6, 6692.853, 0.02831169, 9.995914, 10.001959 
1.7749137e+3, 1.5436734e+2, -1610708.0, -1252785.5, 82475.375, -0.042126857, -0.5109842, -1234695.1, 192456.33, 0.010105246, 9.997559, 10.002315 
1.7749381e+3, 1.6436823e+2, -1515968.0, -1435881.8, 145131.39, -0.0013942458, -0.52737427, -1325370.6, 3771.029, 0.0018804772, 9.998735, 9.999806 
1.774963e+3, 1.7436801e+2, -1368518.0, -1318862.0, 147260.88, -0.009927083, -0.5537897, -1194350.8, 36797.004, 0.00008970714, 9.999103, 9.999756 
1.7749879e+3, 1.8436816e+2, -1229899.3, -1182449.4, 105350.04, 0.006722171, -0.5110184, -1098185.9, 34962.484, 0.000000028818846, 9.99929, 9.999935 
1.7750132e+3, 1.9436912e+2, -1105273.5, -1048650.5, 102497.79, 0.064601906, -0.4520806, -970626.06, 64512.508, 0.0, 9.999387, 10.000127 
1.7750376e+3, 2.0436966e+2, -1004775.9, -1072364.1, 81063.64, 0.052355375, -0.35103095, -950744.3, -13608.713, 0.0, 9.999932, 9.999029 
1.7750613e+3, 2.1436955e+2, -753450.56, -893309.25, 95364.29, -0.03538954, -0.29702148, -705124.0, 134017.95, 0.0, 10.000971, 9.999079 
1.7750847e+3, 2.2436872e+2, -555042.9, -756419.0, 40654.203, -0.08504808, -0.27324408, -547145.25, 194006.0, 0.0, 10.001664, 9.999029 
1.775108e+3, 2.343671e+2, -387784.63, -601311.2, 60651.242, -0.07380005, -0.38487202, -371759.6, 271403.44, 0.0, 10.00205, 9.999226 
1.7751321e+3, 2.443656e+2, -318493.22, -600547.56, 89143.42, -0.015235947, -0.41516018, -292681.53, 252493.36, 0.0, 10.0022, 9.998498 
1.7751572e+3, 2.5436446e+2, -202978.78, -482816.2, 114649.22, 0.10057629, -0.41451794, -162006.13, 285178.56, 0.0, 10.00229, 9.998581 
1.775181e+3, 2.6436254e+2, -109445.516, -480613.78, 48107.227, 0.14275838, -0.4160319, -103311.695, 245890.73, 0.00000032366296, 10.0026655, 9.997737 
1.7752028e+3, 2.7435955e+2, 125030.75, -303339.03, 53685.63, 0.08613346, -0.5256696, 131656.45, 382887.44, 0.00002512301, 10.003565, 9.997834 
1.7752248e+3, 2.8435695e+2, 184907.58, -351237.5, 40177.766, 0.028740125, -0.50303185, 187901.7, 341158.3, 0.0002009877, 10.003813, 9.996745 
1.7752472e+3, 2.9435533e+2, 218075.03, -282680.63, 39062.473, 0.018308923, -0.38929394, 221103.86, 276378.13, 0.0007421725, 10.003372, 9.996742 
1.7752713e+3, 3.043529e+2, 221882.27, -327946.6, 64124.957, 0.117577136, -0.26094583, 229261.94, 229261.94, 0.0017671591, 10.003374, 9.9961 
1.7752941e+3, 3.1434748e+2, 383349.22, -40236.13, -31660.098, -0.02011423, -0.4826768, 385702.5, 385702.5, 0.0031707357, 10.00361, 9.997924 
1.7848408e+3, 1.2434334e+2, -1889826.5, -1699408.0, 5047.182, -0.15555112, -0.6079117, -1699274.4, 22102.432, 0.08696164, 9.99831, 10.000896 
1.7848668e+3, 1.3434152e+2, -1983831.1, -1986864.6, 29922.246, 0.23302932, -0.6412056, -1955387.1, -331984.25, 0.057701517, 9.998323, 9.998231 
1.7848863e+3, 1.4434345e+2, -1769247.5, -1443971.0, 106317.43, -0.09891224, -0.42642492, -1412303.9, 113083.305, 0.030258754, 9.997393, 10.00178 
1.7849113e+3, 1.5434466e+2, -1614033.6, -1269283.8, 46311.17, -0.014989556, -0.55154115, -1263171.0, 164200.33, 0.0109521225, 9.997587, 10.002194 
1.7849366e+3, 1.6434571e+2, -1619840.3, -1482256.9, 70645.54, 0.027236858, -0.54756624, -1452442.9, -123082.27, 0.0020959692, 9.998, 9.999844 
1.784962e+3, 1.7434564e+2, -1403001.0, -1328549.6, 80010.86, 0.0018233086, -0.56482685, -1277528.6, -46163.438, 0.000105867584, 9.998846, 9.999807 
1.7849873e+3, 1.8434575e+2, -1239436.3, -1204660.1, 74717.44, 0.017592596, -0.5206572, -1145334.1, -11967.584, 0.0000000562377, 9.9993, 9.999786 
1.7850126e+3, 1.943466e+2, -1101467.1, -1060742.1, 69709.21, 0.08153064, -0.458057, -1008482.25, 26876.486, 0.0, 9.999463, 10.000011 
1.7850375e+3, 2.043472e+2, -1037325.0, -1067574.5, 98942.086, 0.07239564, -0.3537171, -952358.4, -15003.114, 0.0, 9.99961, 9.999228 
1.7850617e+3, 2.1434735e+2, -890990.3, -936641.1, 102473.57, -0.03476056, -0.2950877, -808830.8, 30527.426, 0.0, 9.999914, 9.999301 
1.7850861e+3, 2.2434643e+2, -700043.4, -840126.0, 73308.695, -0.059040528, -0.28444383, -668694.6, 72673.28, 0.0, 10.000745, 9.998897 
1.7851111e+3, 2.3434433e+2, -368040.25, -610678.8, 28468.35, 0.023182029, -0.42469057, -364744.84, 278639.6, 0.0, 10.002285, 9.999047 
1.7851356e+3, 2.4434276e+2, -222500.3, -536993.5, 5691.4355, 0.08602194, -0.45533904, -222397.33, 323000.06, 0.0, 10.002812, 9.998622 
1.7851594e+3, 2.5434205e+2, -220842.78, -476630.25, -4520.2754, 0.1004022, -0.42561573, -220762.94, 226641.08, 0.0, 10.002123, 9.998691 
1.7851831e+3, 2.6434055e+2, -157689.1, -507463.5, -2788.158, 0.11320148, -0.3882607, -157666.88, 191751.92, 0.00000018370703, 10.002327, 9.99773 
1.7852063e+3, 2.7433786e+2, 150881.5, -304748.4, -15628.178, 0.09595215, -0.4622001, 151416.92, 402863.1, 0.000020759246, 10.003754, 9.997759 
1.7852296e+3, 2.8433514e+2, 330439.34, -266466.13, -16789.033, 0.096815825, -0.45302957, 330911.2, 484384.44, 0.00019261862, 10.004776, 9.996845 
1.785253e+3, 2.9433307e+2, 519539.38, -121613.77, -29896.344, 0.1630621, -0.3912457, 520930.4, 576423.7, 0.0007379222, 10.005393, 9.996863 
1.7852767e+3, 3.0433038e+2, 563311.44, -157405.9, 57934.484, 0.21832788, -0.29928827, 567938.75, 567938.75, 0.0017499686, 10.005703, 9.996146 
1.785299e+3, 3.1432447e+2, 604328.1, 5056.184, -73498.195, 0.043584306, -0.5524851, 613210.7, 613210.7, 0.0030856011, 10.005364, 9.997404 
1.7948402e+3, 1.2432215e+2, -1790937.6, -1520463.9, 151368.3, -0.1093238, -0.5186088, -1452719.5, 268862.56, 0.09190124, 9.99837, 10.002242 
1.7948635e+3, 1.3431928e+2, -1903838.4, -1840798.6, 269.63235, 0.04895437, -0.7535344, -1840797.5, -217184.13, 0.06119029, 9.9983835, 9.999217 
1.794885e+3, 1.4432052e+2, -1878398.1, -1671588.3, 82429.61, -0.013927144, -0.58640033, -1642753.9, -117148.78, 0.03230053, 9.997415, 10.000182 
1.7949083e+3, 1.5432176e+2, -1744976.0, -1528112.9, 64874.945, -0.09878399, -0.5331098, -1510187.1, -82590.17, 0.011841973, 9.99755, 10.000418 
1.7949335e+3, 1.6432314e+2, -1585600.3, -1426013.0, 87085.24, -0.112811774, -0.41730857, -1387692.9, -58106.242, 0.0023264778, 9.998051, 10.000213 
1.7949612e+3, 1.743239e+2, -1362539.6, -1247015.4, 117947.09, 0.0148856705, -0.40340754, -1173446.0, 58135.1, 0.00012352158, 9.998846, 10.000375 
1.7949873e+3, 1.84324e+2, -1226352.3, -1181525.6, 70259.625, 0.067274556, -0.40004307, -1130190.9, 3389.4497, 0.000000085167756, 9.999321, 9.999931 
1.7950119e+3, 1.9432348e+2, -1108783.3, -1058950.9, 83338.18, 0.030649548, -0.48245752, -996883.9, 38699.57, 0.0, 9.999392, 10.000057 
1.7950366e+3, 2.043231e+2, -1025637.25, -1022379.3, 96431.57, -0.0050307885, -0.49472463, -927562.94, 10023.348, 0.0, 9.999511, 9.999589 
1.7950618e+3, 2.1432294e+2, -879402.9, -888032.0, 123549.2, -0.013668408, -0.50784194, -760092.9, 79495.375, 0.0, 9.999797, 9.999699 
1.7950879e+3, 2.2432192e+2, -773802.25, -952478.6, 116713.27, 0.03282068, -0.49720752, -716159.8, 25438.83, 0.0, 10.000568, 9.998212 
1.7951147e+3, 2.3432006e+2, -451967.78, -736899.94, 97856.09, 0.15065382, -0.53782487, -421597.53, 222019.89, 0.0, 10.002081, 9.998278 
1.795139e+3, 2.4431866e+2, -261437.86, -565319.1, -22958.777, 0.1395771, -0.50642264, -259713.06, 285918.75, 0.0, 10.002581, 9.998543 
1.7951605e+3, 2.5431794e+2, -245967.11, -489623.88, -17614.371, -0.017068189, -0.4763581, -244700.33, 202939.72, 0.0, 10.00196, 9.998678 
1.7951843e+3, 2.6431692e+2, -187133.39, -526823.94, 35463.027, -0.017049182, -0.3864593, -183470.61, 166181.36, 0.00000013255313, 10.002146, 9.997685 
1.7952107e+3, 2.7431566e+2, 120070.91, -313070.1, 51332.055, 0.13847883, -0.32300708, 126071.2, 377738.84, 0.0000188634, 10.003531, 9.9978 
1.7952354e+3, 2.8431308e+2, 319886.84, -234060.86, -6387.2803, 0.17601444, -0.32039255, 319960.47, 473653.06, 0.00018769347, 10.004529, 9.997194 
1.7952584e+3, 2.9430926e+2, 507860.1, -74581.99, 15300.139, 0.14249031, -0.47036135, 508261.75, 563987.4, 0.00072977383, 10.005099, 9.997322 
1.7952819e+3, 3.0430552e+2, 531747.1, -150391.44, 30023.854, 0.14292467, -0.51783276, 533066.06, 533066.06, 0.0017068974, 10.005375, 9.996362 
1.7953053e+3, 3.143005e+2, 539192.75, -24725.164, -26174.162, 0.09088766, -0.7202324, 540405.06, 540405.06, 0.0029372096, 10.004947, 9.99738 
1.804839e+3, 1.2429858e+2, -2116968.5, -1591043.3, 133334.94, 0.0607322, -0.5317102, -1559171.1, 162642.56, 0.097200245, 9.995781, 10.002958 
1.8048596e+3, 1.3429607e+2, -2113465.5, -1882300.9, -160103.77, -0.081896506, -0.78267795, -1800418.0, -176576.97, 0.06490086, 9.996687, 9.999754 
1.8048835e+3, 1.4429879e+2, -1905816.5, -1748104.9, -5557.0537, 0.107567385, -0.4713271, -1747909.4, -222090.8, 0.034457777, 9.997495, 9.999613 
1.8049064e+3, 1.5429844e+2, -1625603.8, -1542712.9, 41597.813, -0.08190368, -0.51410466, -1525437.9, -97610.766, 0.0127833225, 9.998684, 9.99976 
1.8049316e+3, 1.6429901e+2, -1444328.5, -1366292.3, 106010.61, -0.15085226, -0.4396901, -1292347.3, 37477.563, 0.0025744103, 9.999071, 10.000132 
1.8049599e+3, 1.7430018e+2, -1385753.4, -1254444.8, 69721.3, 0.031915545, -0.38309154, -1224330.9, 7483.617, 0.00014305822, 9.998687, 10.000393 
1.8049867e+3, 1.843003e+2, -1311302.4, -1229799.6, 20921.592, 0.11540908, -0.37561303, -1224742.8, -90930.016, 0.00000010953618, 9.998761, 9.99987 
1.8050112e+3, 1.9429933e+2, -1082885.4, -1053314.8, 1616.3297, 0.025758065, -0.49897, -1053226.6, -17406.691, 0.0, 9.999608, 9.999988 
1.8050362e+3, 2.0429854e+2, -902640.2, -1012427.3, 13216.8125, -0.023754353, -0.5261631, -901071.5, 36755.32, 0.0, 10.000567, 9.999154 
1.8050627e+3, 2.1429804e+2, -631633.9, -816647.8, -42515.18, 0.0007612847, -0.52465844, -622331.8, 217501.06, 0.0, 10.001716, 9.999259 
1.8050894e+3, 2.2429703e+2, -554740.56, -817782.0, -48160.09, 0.07603444, -0.50059456, -546200.25, 195643.22, 0.0, 10.001967, 9.998449 
1.8051167e+3, 2.342955e+2, -564773.44, -763337.0, -14182.911, 0.19430855, -0.53086793, -563765.5, 80093.2, 0.0, 10.00119, 9.998519 
1.8051414e+3, 2.442943e+2, -415274.94, -623404.4, -63720.637, 0.18408065, -0.5015724, -397315.94, 148554.92, 0.0, 10.001434, 9.998715 
1.8051632e+3, 2.5429353e+2, -88867.02, -402056.38, -69089.484, 0.018746937, -0.48712948, -74303.15, 373575.88, 0.0, 10.002958, 9.998824 
1.8051873e+3, 2.6429254e+2, 56776.035, -379008.4, 24442.729, 0.006848331, -0.41094843, 58142.715, 408032.6, 0.00000007008213, 10.003701, 9.997947 
1.8052141e+3, 2.742915e+2, 127252.26, -286963.8, 28406.225, 0.1319803, -0.34593084, 129191.23, 381094.3, 0.000018211349, 10.003479, 9.998012 
1.8052395e+3, 2.8428903e+2, 216671.36, -303080.1, 1648.6909, 0.18162942, -0.33375683, 216676.6, 370603.84, 0.00018390584, 10.003893, 9.997026 
1.8052639e+3, 2.94285e+2, 531310.7, -92612.625, -51029.59, 0.19022647, -0.47766247, 535456.8, 591420.6, 0.0007163849, 10.005361, 9.997085 
1.8052879e+3, 3.0428112e+2, 691371.25, -36650.34, -64255.49, 0.17603698, -0.5430303, 696998.94, 696998.94, 0.0016534916, 10.0063305, 9.996678 
1.8053116e+3, 3.1427824e+2, 741078.5, 58759.79, -165930.6, 0.16311958, -0.53819495, 779290.5, 779290.5, 0.0027953843, 10.006311, 9.997349 
1.8148339e+3, 1.2427266e+2, -2123581.3, -1603486.1, -15184.107, -0.06578774, -0.6233389, -1603043.1, 119028.26, 0.10291468, 9.995767, 10.002867 
1.8148544e+3, 1.3427168e+2, -2110677.8, -1861565.3, -122129.445, -0.29348734, -0.73000985, -1811680.0, -187591.2, 0.06887483, 9.996632, 9.999919 
1.8148817e+3, 1.4427833e+2, -1849623.4, -1645572.6, 17565.814, 0.15583901, -0.074432686, -1644071.6, -118043.7, 0.036753505, 9.9975395, 10.000303 
1.8149057e+3, 1.5427461e+2, -1583224.8, -1464970.9, 96383.24, -0.06359869, -0.50423354, -1411023.9, 17039.018, 0.01378539, 9.998711, 10.000293 
1.8149304e+3, 1.6427335e+2, -1475236.4, -1440192.1, 80273.74, -0.21769525, -0.61822706, -1375550.4, -45475.27, 0.002842686, 9.999113, 9.9996 
1.8149583e+3, 1.742745e+2, -1433784.0, -1353021.4, 64469.555, -0.028716905, -0.5013015, -1317330.5, -85265.25, 0.00016504708, 9.998672, 9.999726 
1.8149853e+3, 1.8427473e+2, -1326956.8, -1262133.6, 37984.613, 0.06445756, -0.4385868, -1244611.8, -110548.234, 0.00000012908751, 9.998758, 9.999651 
1.8150103e+3, 1.9427408e+2, -1100480.8, -1082491.8, 43289.51, -0.02920935, -0.50726515, -1047272.2, -11203.519, 0.0, 9.999571, 9.999808 
1.8150364e+3, 2.0427337e+2, -1005557.06, -1200656.4, 47253.453, -0.09307581, -0.4603049, -994714.75, -56636.863, 0.0, 10.000462, 9.997911 
1.8150637e+3, 2.1427253e+2, -750488.2, -1024161.5, 12051.9, -0.07556129, -0.36259016, -749958.5, 90134.53, 0.0, 10.001544, 9.997917 
1.8150906e+3, 2.2427164e+2, -516892.78, -684063.2, -81522.89, -0.026654895, -0.3040963, -483719.8, 258383.67, 0.0, 10.001727, 9.999485 
1.8151167e+3, 2.3427075e+2, -506420.63, -601277.6, -29657.172, 0.058838308, -0.39025748, -497911.56, 146195.84, 0.0, 10.001012, 9.999718 
1.8151422e+3, 2.4426968e+2, -426075.44, -598382.8, -20406.713, 0.099511184, -0.42132038, -423691.63, 122422.61, 0.0, 10.001227, 9.998985 
1.815167e+3, 2.542686e+2, -94440.3, -370441.84, 1530.7979, 0.103794366, -0.4709906, -94431.805, 353691.06, 0.0, 10.002774, 9.999125 
1.815192e+3, 2.6426724e+2, 49599.523, -342071.78, 10240.848, 0.07220326, -0.4671309, 49867.1, 400001.66, 0.0000000874347, 10.003471, 9.998314 
1.8152162e+3, 2.7426556e+2, 120608.12, -247444.08, 34884.582, -0.022252977, -0.5063761, 123885.35, 376036.22, 0.00001648955, 10.003262, 9.998379 
1.8152417e+3, 2.8426328e+2, 126673.445, -442701.7, 38681.71, -0.016535081, -0.45579526, 129289.35, 283464.0, 0.00017258442, 10.003675, 9.996176 
1.8152693e+3, 2.9426035e+2, 442465.34, -228138.06, 26898.533, 0.16377555, -0.41398814, 443542.56, 499749.56, 0.00068143365, 10.005143, 9.996256 
1.8152943e+3, 3.0425712e+2, 639247.44, -59379.88, -73356.664, 0.15160367, -0.37171558, 646866.9, 646866.9, 0.0015821867, 10.005978, 9.996688 
1.8153156e+3, 3.1425545e+2, 666519.06, 84886.164, -86880.39, -0.10074689, -0.267197, 679219.3, 679219.3, 0.0026866007, 10.0056095, 9.997827 
1.8248299e+3, 1.2424943e+2, -2093003.8, -1551404.8, 72990.86, -0.03170127, -0.55514497, -1541740.3, 180562.67, 0.10907774, 9.99577, 10.003268 
1.824851e+3, 1.3424824e+2, -2141006.3, -1903930.6, -28623.432, -0.28182122, -0.6655465, -1900523.8, -276202.06, 0.07313931, 9.996508, 9.999695 
1.8248793e+3, 1.4425455e+2, -1829060.4, -1631757.4, 104985.234, 0.17056641, -0.04030019, -1586346.3, -60082.914, 0.039204508, 9.997696, 10.00031 
1.824905e+3, 1.5425046e+2, -1584512.9, -1482205.9, 100539.91, -0.010149703, -0.49650553, -1420554.5, 7746.7983, 0.014855209, 9.998789, 10.000131 
1.8249299e+3, 1.6424882e+2, -1471257.9, -1457355.8, 40480.66, -0.17768103, -0.6260733, -1423233.8, -92917.445, 0.0031336718, 9.999214, 9.999433 
1.8249573e+3, 1.7424995e+2, -1385109.9, -1339443.3, 37629.03, -0.004551624, -0.5024217, -1318261.8, -85955.74, 0.00019006866, 9.999056, 9.999628 
1.8249846e+3, 1.8425003e+2, -1275955.6, -1290379.6, 85749.81, 0.11052006, -0.4251374, -1197115.0, -62809.42, 0.00000015151502, 9.999335, 9.999181 
1.825011e+3, 1.9424914e+2, -1025478.7, -1099020.0, 49025.813, 0.028714629, -0.46801263, -1000966.3, 35348.35, 0.0, 10.000333, 9.999321 
1.8250373e+3, 2.0424826e+2, -985833.5, -1178923.1, 78391.92, -0.04635308, -0.417696, -958015.1, -19689.346, 0.0, 10.000551, 9.998003 
1.8250643e+3, 2.1424724e+2, -995433.2, -1125621.8, 130237.78, -0.08780323, -0.3525011, -914928.2, -74587.08, 0.0, 9.999798, 9.998051 
1.8250908e+3, 2.2424638e+2, -769889.9, -783561.25, 92579.664, -0.07080575, -0.30966166, -683893.9, 58456.363, 0.0, 9.999861, 9.999714 
1.8251169e+3, 2.3424591e+2, -489276.13, -560769.75, 52662.77, 0.0015708413, -0.38366494, -461373.88, 182976.0, 0.0, 10.000986, 10.0000105 
1.8251432e+3, 2.4424484e+2, -349271.6, -578891.06, 60377.14, 0.07230789, -0.42404842, -334363.66, 211992.22, 0.0, 10.0018425, 9.99881 
1.8251699e+3, 2.5424314e+2, -174877.44, -434659.44, 25673.223, 0.14113577, -0.51099724, -172364.56, 276004.66, 0.0, 10.0023365, 9.998883 
1.8251957e+3, 2.6424143e+2, -51366.758, -427410.47, -14016.146, 0.1372963, -0.5189364, -50845.063, 299539.97, 0.00000011582431, 10.002954, 9.997968 
1.82522e+3, 2.7423957e+2, 177746.52, -268639.63, -81624.59, 0.016145982, -0.5288813, 192203.86, 444609.03, 0.000015405387, 10.003854, 9.997953 
1.8252459e+3, 2.8423733e+2, 278315.4, -307878.25, -15953.109, 0.0054648845, -0.47469854, 278749.25, 433177.94, 0.00016028645, 10.004466, 9.996718 
1.8252736e+3, 2.942348e+2, 406737.3, -185222.9, 39491.895, 0.13319995, -0.439861, 409360.34, 465814.44, 0.00063832273, 10.004636, 9.996799 
1.8252996e+3, 3.0423167e+2, 460175.4, -170289.0, -6105.444, 0.15638098, -0.41226062, 460234.5, 460234.5, 0.0015108753, 10.004835, 9.996473 
1.8253225e+3, 3.1422964e+2, 641682.4, 46164.387, -88132.26, 0.051313035, -0.30245575, 654451.5, 654451.5, 0.002624324, 10.005458, 9.997683 
1.8348262e+3, 1.24227196e+2, -2022298.4, -1433467.9, 107636.85, -0.045524955, -0.5239705, -1414409.0, 308115.97, 0.11569034, 9.995806, 10.004191 
1.8348494e+3, 1.3422613e+2, -2175257.3, -1974437.1, 27491.27, -0.12842445, -0.5705092, -1970741.8, -346205.97, 0.07769921, 9.996506, 9.9992075 
1.8348756e+3, 1.4422746e+2, -1881993.4, -1752219.3, 138539.66, -0.001998395, -0.38167286, -1664124.1, -137599.36, 0.04181763, 9.99774, 9.999462 
1.8349037e+3, 1.5422589e+2, -1650369.5, -1621315.3, 151251.13, -0.031043079, -0.49414617, -1483895.3, -55352.152, 0.015997248, 9.998793, 9.999175 
1.8349299e+3, 1.6422552e+2, -1446325.5, -1415131.8, 20710.11, -0.12989748, -0.45697427, -1404802.4, -74254.73, 0.0034491862, 9.999252, 9.999706 
1.8349569e+3, 1.7422634e+2, -1354161.3, -1281471.0, 38753.047, 0.013623573, -0.40014094, -1264686.4, -32148.293, 0.00021871291, 9.99907, 10.000027 
1.8349844e+3, 1.84226e+2, -1328810.3, -1398456.9, 108344.086, 0.12718663, -0.35433686, -1249830.6, -115289.27, 0.00000018976193, 9.999335, 9.998436 
1.8350121e+3, 1.9422437e+2, -1098348.1, -1234220.1, 95996.97, 0.10472923, -0.38666436, -1048680.1, -12120.612, 0.0, 10.000263, 9.998427 
1.8350385e+3, 2.0422305e+2, -898826.44, -974061.7, 43484.63, 0.008362324, -0.39854762, -878946.25, 59625.84, 0.0, 10.000445, 9.99946 
1.8350637e+3, 2.1422213e+2, -900601.75, -897394.25, 108775.2, -0.1388246, -0.484415, -790211.0, 50366.87, 0.0, 9.99966, 9.999683 
1.8350898e+3, 2.2422132e+2, -837074.8, -874104.25, 119807.73, -0.17475827, -0.50115126, -734359.6, 8224.116, 0.0, 9.99965, 9.999196 
1.8351175e+3, 2.3422076e+2, -559811.8, -665573.6, 106855.01, -0.066777736, -0.51722586, -493468.63, 151119.61, 0.0, 10.000809, 9.999379 
1.8351446e+3, 2.4421953e+2, -425656.9, -684588.5, 69355.18, 0.0033568675, -0.5147702, -408250.2, 138348.31, 0.0, 10.001613, 9.998199 
1.8351714e+3, 2.5421733e+2, -251935.03, -545495.7, 58498.535, 0.03876008, -0.5847066, -240707.31, 207909.4, 0.0, 10.002133, 9.99822 
1.8351983e+3, 2.6421526e+2, -168950.13, -629800.06, 9598.49, 0.076482944, -0.5277502, -168750.3, 181888.4, 0.000000090536304, 10.002763, 9.996674 
1.8352251e+3, 2.7421337e+2, 64091.023, -464472.8, -27084.223, 0.11914493, -0.41709518, 65475.223, 318141.56, 0.00001528185, 10.003678, 9.996693 
1.8352515e+3, 2.84211e+2, 362247.03, -85557.42, -23176.525, 0.095178455, -0.3898262, 363443.38, 518134.16, 0.00015297615, 10.004251, 9.998354 
1.8352771e+3, 2.9420832e+2, 498124.47, 72570.82, 61867.316, -0.019233387, -0.5587506, 506936.3, 563642.8, 0.0006059843, 10.0043545, 9.998699 
1.8353036e+3, 3.0420506e+2, 350394.34, -311904.44, -4498.71, 0.03436268, -0.6055461, 350424.88, 350424.88, 0.0014593066, 10.004468, 9.995674 
1.8353297e+3, 3.1420168e+2, 512925.22, -115381.21, 33506.78, 0.1911066, -0.5528434, 514707.03, 514707.03, 0.0025997835, 10.005032, 9.996759 
1.8448208e+3, 1.2420226e+2, -2205475.5, -1472117.4, 66924.74, -0.07425083, -0.46454686, -1466060.0, 256713.86, 0.12272786, 9.99436, 10.004606 
1.844847e+3, 1.3420133e+2, -2005780.5, -1900780.6, -96778.17, -0.058852814, -0.48258817, -1843179.5, -218399.22, 0.08254445, 9.997751, 9.999104 
1.8448736e+3, 1.4420065e+2, -1680747.5, -1676387.4, -1868.4454, -0.042664424, -0.47625476, -1675696.3, -148908.48, 0.04459436, 9.999184, 9.999304 
1.8449025e+3, 1.5420032e+2, -1751522.6, -1677796.8, 37155.68, 0.017528389, -0.45447892, -1662320.1, -233524.83, 0.017215712, 9.998128, 9.999116 
1.8449295e+3, 1.6420045e+2, -1608892.3, -1497511.4, -15126.602, -0.036383327, -0.36191133, -1495493.6, -164698.25, 0.0037916328, 9.99818, 9.999656 
1.844956e+3, 1.7420053e+2, -1212609.6, -1220034.0, -52054.555, -0.011590353, -0.37079194, -1164135.0, 68656.84, 0.00025177147, 10.000094, 9.99995 
1.8449837e+3, 1.8419974e+2, -1121256.8, -1306504.4, 13238.516, 0.0573294, -0.36174995, -1120315.4, 14483.608, 0.00000025167606, 10.000792, 9.998362 
1.8450122e+3, 1.941981e+2, -1139063.0, -1259782.5, 37003.906, 0.097426474, -0.3871734, -1128623.1, -91806.01, 0.0, 10.0, 9.998375 
1.845039e+3, 2.0419684e+2, -1008931.4, -968602.94, -12591.502, 0.05812127, -0.41703457, -964994.44, -26166.434, 0.0, 9.999432, 9.999997 
1.8450639e+3, 2.1419604e+2, -905540.75, -832022.2, -46721.785, -0.063747756, -0.5451839, -809332.56, 31496.387, 0.0, 9.999346, 10.00029 
1.8450904e+3, 2.2419536e+2, -846360.3, -932772.94, 5466.166, -0.09206611, -0.55683804, -846015.94, -103182.766, 0.0, 9.999842, 9.998687 
1.8451187e+3, 2.3419473e+2, -545557.06, -728889.7, -23453.613, -0.028166274, -0.51824963, -542604.2, 102238.1, 0.0, 10.001212, 9.998739 
1.8451469e+3, 2.4419326e+2, -349915.34, -650469.3, -48844.008, 0.044938218, -0.5061414, -342176.8, 204679.83, 0.0, 10.002152, 9.998166 
1.8451744e+3, 2.5419065e+2, -188391.3, -513922.1, -42404.223, 0.121548094, -0.6138356, -182958.31, 265918.9, 0.0, 10.002559, 9.998231 
1.845202e+3, 2.6418847e+2, -153968.2, -629308.4, 7455.1294, 0.17899796, -0.5695485, -153851.31, 197048.25, 0.00000009817215, 10.002904, 9.996606 
1.8452291e+3, 2.741868e+2, -4998.5293, -506530.06, 35063.773, 0.18559001, -0.42841157, -2558.968, 250365.6, 0.000013983738, 10.00325, 9.996605 
1.8452556e+3, 2.8418428e+2, 263138.4, -113208.71, 41079.22, 0.13429877, -0.4158914, 267570.13, 422520.03, 0.00014295103, 10.003497, 9.998528 
1.845281e+3, 2.941813e+2, 405912.3, 53056.637, -42928.754, -0.0011858833, -0.63041675, 411059.97, 468028.7, 0.000573265, 10.003612, 9.998937 
1.8453087e+3, 3.0417863e+2, 393460.47, -263614.38, -47022.906, 0.12238084, -0.63969845, 396808.56, 396808.56, 0.0014051212, 10.004642, 9.995936 
1.8453355e+3, 3.1417462e+2, 856477.94, 74355.28, 38079.863, 0.17330942, -0.6615617, 858327.56, 858327.56, 0.0025541685, 10.007277, 9.996993 
1.8548143e+3, 1.2417549e+2, -2225580.0, -1536583.0, 258893.23, -0.20651062, -0.29104504, -1450146.6, 272894.2, 0.13014582, 9.994454, 10.00414 
1.854844e+3, 1.341736e+2, -1995913.5, -1883698.3, 32916.777, -0.17041224, -0.42762592, -1874755.3, -249697.55, 0.08765755, 9.99775, 9.999226 
1.8548729e+3, 1.4417413e+2, -1634821.6, -1588808.3, -41735.563, -0.071745545, -0.32528555, -1564158.1, -37105.563, 0.04753598, 9.999216, 9.999891 
1.854901e+3, 1.5417373e+2, -1690600.5, -1559970.1, 4753.8765, 0.027533725, -0.3850707, -1559797.4, -130739.06, 0.01851746, 9.998157, 9.999916 
1.854928e+3, 1.6417351e+2, -1632725.1, -1555879.8, 33513.816, -0.030305218, -0.35532236, -1543317.4, -212257.17, 0.0041650403, 9.998216, 9.999237 
1.8549547e+3, 1.7417234e+2, -1256481.8, -1311416.8, 31171.578, -0.17664473, -0.42834404, -1242402.5, -9333.908, 0.00029041685, 10.000085, 9.999331 
1.8549822e+3, 1.8417111e+2, -1075350.4, -1213768.1, -21594.709, -0.20738554, -0.45823148, -1072059.6, 63019.863, 0.0000003514084, 10.000805, 9.998992 
1.8550104e+3, 1.9417036e+2, -1096480.0, -1155747.5, 13779.264, -0.094499454, -0.47005135, -1093433.0, -56345.254, 0.0, 9.99993, 9.999124 
1.8550378e+3, 2.0416962e+2, -1052674.0, -1031778.94, -28647.615, -0.010643718, -0.4664506, -1011733.25, -72639.914, 0.0, 9.999316, 9.999618 
1.8550645e+3, 2.1416894e+2, -958807.9, -908412.06, -39623.625, 0.05293102, -0.5411853, -886652.9, -45558.18, 0.0, 9.999201, 9.999834 
1.8550919e+3, 2.2416833e+2, -908289.9, -1021607.6, 43320.47, 0.07018172, -0.49554074, -893626.3, -150526.14, 0.0, 9.999663, 9.998169 
1.8551205e+3, 2.3416786e+2, -611774.7, -827177.7, 40825.99, 0.014110253, -0.3846308, -604296.44, 40814.914, 0.0, 10.0010395, 9.998152 
1.8551494e+3, 2.4416623e+2, -353450.44, -604575.25, -41957.367, 0.068678945, -0.37185863, -346625.78, 200502.16, 0.0, 10.001923, 9.998591 
1.8551788e+3, 2.5416318e+2, -175540.66, -440897.2, -16939.71, 0.28979105, -0.58602107, -174463.64, 274686.9, 0.0, 10.002369, 9.998818 
1.8552066e+3, 2.6416096e+2, -107388.18, -487940.6, 6642.856, 0.3364195, -0.62527597, -107272.26, 243895.92, 0.00000008466028, 10.002712, 9.99767 
1.855232e+3, 2.7415973e+2, 35993.164, -366930.25, 63710.715, 0.12618366, -0.546809, 45827.16, 299008.16, 0.000011476472, 10.003023, 9.997671 
1.855258e+3, 2.8415716e+2, 128936.52, -335909.63, 28079.281, 0.003224923, -0.5278467, 130626.52, 285832.84, 0.00012752597, 10.003247, 9.997123 
1.8552853e+3, 2.9415366e+2, 278820.06, -169339.5, -24467.105, 0.046334535, -0.6484572, 280151.88, 337392.5, 0.0005312856, 10.003431, 9.997496 
1.8553148e+3, 3.0415225e+2, 422839.66, -138994.13, 18048.441, 0.2374533, -0.5040201, 423418.84, 423418.84, 0.001330185, 10.0043745, 9.996917 
1.8553407e+3, 3.1415e+2, 835155.06, 195389.92, 177942.7, -0.06818434, -0.4583078, 881316.8, 881316.8, 0.0024483919, 10.006599, 9.99814 
1.8648104e+3, 1.2414513e+2, -2150079.8, -1613953.5, 181891.39, -0.08586792, -0.26386318, -1558068.6, 165267.9, 0.1378835, 9.995529, 10.002983 
1.8648405e+3, 1.341445e+2, -2219987.3, -1842635.0, 10554.145, -0.15943114, -0.4067348, -1842340.1, -216997.63, 0.09301642, 9.995578, 10.0005455 
1.8648705e+3, 1.4414522e+2, -2023029.8, -1716187.9, -30955.48, -0.07621682, -0.37967932, -1713096.1, -185760.56, 0.050644647, 9.99632, 10.000399 
1.8648997e+3, 1.5414572e+2, -1623090.0, -1472606.3, -38008.086, 0.07672672, -0.39759254, -1463551.3, -34220.613, 0.01991141, 9.998398, 10.000386 
1.8649274e+3, 1.6414571e+2, -1468803.0, -1458893.0, 25024.674, 0.048575547, -0.37926364, -1438337.5, -107008.17, 0.0045744055, 9.999254, 9.999397 
1.8649538e+3, 1.7414421e+2, -1479533.4, -1398169.9, 55837.98, -0.18433234, -0.5039394, -1369765.6, -136425.4, 0.0003360051, 9.998473, 9.999499 
1.8649812e+3, 1.8414304e+2, -1417025.5, -1345742.3, 27674.805, -0.24046914, -0.551624, -1336259.4, -200909.33, 0.00000050835786, 9.998319, 9.999287 
1.86501e+3, 1.9414282e+2, -1162945.5, -1152491.4, 10612.768, -0.081548065, -0.5418948, -1145888.3, -108534.914, 0.0, 9.999322, 9.999444 
1.8650383e+3, 2.0414239e+2, -937914.8, -1033125.3, -14084.167, 0.045330133, -0.5023167, -935875.06, 3481.7356, 0.0, 10.000354, 9.999103 
1.8650652e+3, 2.1414162e+2, -657877.56, -832070.56, -55177.105, 0.106944434, -0.5275231, -641870.7, 199490.63, 0.0, 10.001551, 9.999228 
1.8650931e+3, 2.2414058e+2, -611699.3, -907577.1, 38685.86, 0.1276336, -0.48171768, -606724.8, 136647.14, 0.0, 10.001826, 9.997916 
1.865122e+3, 2.3413932e+2, -645512.75, -869441.75, 36294.727, 0.06945714, -0.42279765, -639776.94, 5612.833, 0.0, 10.000921, 9.99793 
1.8651512e+3, 2.4413766e+2, -480362.66, -674291.8, 356.02094, 0.1159179, -0.3966501, -480362.03, 67045.516, 0.0, 10.001084, 9.998516 
1.8651813e+3, 2.5413555e+2, -124029.83, -426326.6, -37795.855, 0.29593357, -0.5065297, -119375.9, 330047.75, 0.0, 10.002764, 9.99873 
1.8652098e+3, 2.6413357e+2, 53360.56, -353376.53, -71724.08, 0.34893218, -0.53967065, 65637.805, 417076.3, 0.000000065173005, 10.003567, 9.998184 
1.8652356e+3, 2.7413172e+2, 100522.625, -272438.44, -88881.06, 0.19135179, -0.5805144, 120620.97, 374073.06, 0.000009433609, 10.003185, 9.998246 
1.865262e+3, 2.8412876e+2, 109472.01, -452918.63, -65169.246, 0.069305345, -0.5926346, 116924.984, 272405.5, 0.00011541126, 10.003579, 9.996148 
1.8652894e+3, 2.9412487e+2, 462413.66, -204666.58, -118689.7, 0.03517963, -0.63151675, 482902.16, 540425.5, 0.0004957933, 10.005229, 9.99637 
1.8653205e+3, 3.041232e+2, 668525.0, -14854.738, -64811.15, 0.29933822, -0.45633674, 674617.3, 674617.3, 0.0012547886, 10.006026, 9.996965 
1.8653463e+3, 3.1412053e+2, 660638.56, 104796.66, -62545.715, -0.09342448, -0.4695697, 667589.56, 667589.56, 0.0023081657, 10.005377, 9.998101 
1.8748072e+3, 1.241097e+2, -2293771.0, -1916340.1, -5333.3647, -0.02062274, -0.5451791, -1916264.9, -192590.14, 0.14588223, 9.995623, 10.000705 
1.8748365e+3, 1.3411398e+2, -2042663.4, -1484624.6, 20571.164, -0.13671075, -0.4289984, -1483867.4, 141767.19, 0.0986057, 9.995547, 10.003129 
1.874866e+3, 1.441138e+2, -1989347.5, -1652307.4, 27975.545, -0.18540435, -0.65628636, -1650001.1, -122364.1, 0.053927336, 9.996335, 10.000832 
1.8748982e+3, 1.5411615e+2, -1611173.3, -1452159.5, 55857.703, 0.062904835, -0.50376606, -1434499.4, -4885.7227, 0.021407956, 9.9984045, 10.000527 
1.8749273e+3, 1.6411707e+2, -1403146.9, -1334028.1, -7905.006, 0.08462413, -0.43922764, -1333135.5, -1533.04, 0.0050250688, 9.999301, 10.000235 
1.8749529e+3, 1.741161e+2, -1419418.8, -1270762.5, 33368.67, -0.14015603, -0.5975701, -1263615.9, -30009.098, 0.00038988978, 9.998449, 10.000394 
1.8749805e+3, 1.8411538e+2, -1413971.4, -1340326.1, 45289.813, -0.17684984, -0.6478513, -1318778.6, -183166.67, 0.000000733184, 9.998326, 9.999322 
1.8750107e+3, 1.9411542e+2, -1179497.4, -1166369.9, 56820.313, 0.0387387, -0.6049042, -1115735.4, -78120.94, 0.0, 9.999241, 9.999388 
1.8750395e+3, 2.0411503e+2, -992711.56, -1130916.3, 14608.214, 0.1142253, -0.529536, -991184.4, -51564.543, 0.0, 10.000277, 9.998473 
1.8750659e+3, 2.1411414e+2, -732596.06, -950319.4, -1297.8003, -0.0007054368, -0.4947897, -732588.3, 109039.97, 0.0, 10.001388, 9.998497 
1.8750936e+3, 2.2411224e+2, -645799.94, -932295.6, -1392.7942, -0.04043416, -0.4916438, -645793.2, 97853.875, 0.0, 10.001619, 9.997849 
1.8751226e+3, 2.3410909e+2, -667965.8, -875346.44, 12708.485, 0.039478835, -0.6273074, -667189.94, -21511.418, 0.0, 10.000747, 9.997969 
1.8751523e+3, 2.4410735e+2, -549831.6, -773447.56, 45690.324, 0.07620335, -0.584818, -540856.2, 6841.3877, 0.0, 10.000884, 9.997938 
1.875182e+3, 2.5410774e+2, -201352.52, -534019.8, 39926.47, 0.05431904, -0.38318506, -196627.69, 253070.22, 0.0, 10.002541, 9.998098 
1.8752113e+3, 2.641064e+2, 12894.964, -384178.03, -91306.336, 0.115172744, -0.3153624, 32884.41, 384594.53, 0.00000004605578, 10.003323, 9.998099 
1.8752396e+3, 2.7410278e+2, 75974.016, -282977.4, -91108.37, 0.26171106, -0.52760947, 97774.89, 351512.0, 0.000008319171, 10.003004, 9.998266 
1.8752669e+3, 2.84099e+2, 37962.96, -558149.1, -26099.992, 0.17444529, -0.59314746, 39103.535, 194875.06, 0.00010877432, 10.003389, 9.995521 
1.8752933e+3, 2.94095e+2, 355396.7, -348117.78, -31303.664, -0.13019116, -0.5725337, 356786.84, 414603.84, 0.0004721297, 10.004897, 9.995546 
1.8753253e+3, 3.040916e+2, 564740.1, -137907.66, -93849.375, 0.15400021, -0.48942727, 577059.1, 577059.1, 0.0011894293, 10.005638, 9.996303 
1.8753535e+3, 3.1408608e+2, 504360.97, -76491.06, -90623.43, 0.02672128, -0.7283904, 518171.5, 518171.5, 0.0021643934, 10.004801, 9.997118 
1.8848024e+3, 1.2407644e+2, -2368555.3, -2069410.9, 22459.08, -0.046666805, -0.7309207, -2067734.1, -343738.0, 0.15411249, 9.9955845, 9.999681 
1.8848343e+3, 1.3408212e+2, -1803446.8, -1360286.4, -13493.195, 0.025126612, -0.5105011, -1359875.9, 266069.9, 0.10442951, 9.997071, 10.003352 
1.8848638e+3, 1.440834e+2, -1763313.8, -1504801.0, -99452.91, -0.08679407, -0.61499333, -1470968.1, 56966.813, 0.057399224, 9.997727, 10.001186 
1.8848956e+3, 1.5408571e+2, -1762485.4, -1454091.5, -65430.832, 0.03758869, -0.5203885, -1440783.5, -10873.879, 0.023018045, 9.9971, 10.001128 
1.8849254e+3, 1.640867e+2, -1685285.9, -1449614.1, -120703.77, 0.06929276, -0.48844668, -1398764.9, -66867.86, 0.005521801, 9.99727, 10.000424 
1.8849528e+3, 1.7408611e+2, -1348323.8, -1222179.4, -156141.94, -0.0140101025, -0.62493193, -1116852.0, 117047.37, 0.0004532519, 9.998863, 10.000538 
1.8849811e+3, 1.840859e+2, -1215899.5, -1235817.0, -147318.94, -0.01064007, -0.6344493, -1078203.1, 57697.473, 0.0000010252129, 9.999653, 9.999391 
1.8850105e+3, 1.9408636e+2, -1121425.5, -1131303.3, -142340.73, 0.08677341, -0.55661446, -983938.0, 53960.867, 0.0, 9.999603, 9.999449 
1.8850394e+3, 2.0408589e+2, -1070970.3, -1193716.4, -129037.15, 0.11859662, -0.48193082, -989454.44, -49548.957, 0.0, 9.999858, 9.9982395 
1.8850674e+3, 2.1408421e+2, -834647.75, -1024609.0, -133828.03, 0.05272898, -0.49794897, -765520.94, 76401.79, 0.0, 10.000809, 9.998258 
1.8850955e+3, 2.2408198e+2, -639519.25, -896773.8, -125669.64, 0.029068422, -0.52621186, -588319.3, 155624.52, 0.0, 10.001534, 9.99812 
1.8851238e+3, 2.3407903e+2, -460587.2, -742894.5, -113653.875, 0.03613795, -0.67082244, -420518.44, 225451.61, 0.0, 10.002024, 9.998261 
1.8851532e+3, 2.4407735e+2, -398648.63, -712294.6, -10338.121, 0.04404344, -0.6324039, -398308.25, 149678.97, 0.0, 10.001984, 9.997826 
1.8851836e+3, 2.5407752e+2, -398538.3, -652440.56, -10939.815, 0.051474456, -0.43172646, -398067.8, 51923.293, 0.0, 10.001284, 9.997894 
1.8852141e+3, 2.6407588e+2, -247228.05, -565679.1, -94599.82, 0.15607838, -0.36065617, -221245.88, 130762.32, 0.000000017635879, 10.0018, 9.997574 
1.8852437e+3, 2.7407196e+2, 208285.08, -276274.34, -156750.31, 0.31410614, -0.54846776, 254570.98, 508611.2, 0.000007223604, 10.004186, 9.997729 
1.8852714e+3, 2.8406838e+2, 293833.53, -404351.88, -84778.99, 0.2229177, -0.5746729, 303980.6, 460053.97, 0.00010058898, 10.005044, 9.9957695 
1.8852982e+3, 2.9406494e+2, 242203.27, -379535.97, -54459.797, -0.06352175, -0.52715945, 246937.5, 305049.53, 0.0004432232, 10.004014, 9.995758 
1.8853311e+3, 3.0406094e+2, 347055.06, -296163.4, -30452.111, 0.24584983, -0.49133325, 348493.56, 348493.56, 0.0011148343, 10.004327, 9.995878 
1.8853591e+3, 3.1405511e+2, 661863.0, 18836.018, -155959.52, 0.08525393, -0.7198262, 697692.9, 697692.9, 0.002015777, 10.00579, 9.997307 
1.8947951e+3, 1.2404892e+2, -2305619.5, -1976119.5, -45864.266, -0.38766342, -0.5008005, -1969854.6, -245588.42, 0.16258536, 9.995722, 10.000269 
1.8948334e+3, 1.340491e+2, -1968920.9, -1678638.5, 60813.99, 0.20599785, -0.6362232, -1666413.0, -40138.16, 0.110513955, 9.997076, 10.000968 
1.8948638e+3, 1.44054e+2, -1739070.9, -1453241.8, -131104.27, 0.09776792, -0.24594015, -1402215.9, 126013.664, 0.06108175, 9.997725, 10.001564 
1.8948914e+3, 1.5405431e+2, -1698553.4, -1315419.4, -80860.79, -0.09717604, -0.44580206, -1299052.8, 131166.75, 0.024752133, 9.997065, 10.002119 
1.8949209e+3, 1.6405447e+2, -1704324.8, -1499410.5, -78953.05, -0.12928565, -0.53632283, -1472519.0, -140304.44, 0.0060684755, 9.997313, 10.000062 
1.894953e+3, 1.7405424e+2, -1389667.1, -1301466.4, -87529.31, 0.09998721, -0.5847946, -1247555.4, -13337.168, 0.0005270964, 9.998837, 10.000006 
1.8949826e+3, 1.8405452e+2, -1199294.4, -1210634.1, -154912.61, 0.15547596, -0.52238923, -1049947.9, 86268.65, 0.0000013718216, 9.999694, 9.999541 
1.895009e+3, 1.9405584e+2, -1117513.4, -1105122.0, -138526.11, -0.044433612, -0.3818496, -972653.06, 65551.52, 0.0, 9.999531, 9.99966 
1.8950377e+3, 2.0405518e+2, -1076613.8, -1187946.8, -106873.3, -0.067800105, -0.34215528, -1011778.5, -71566.9, 0.0, 9.999768, 9.99833 
1.8950696e+3, 2.1405183e+2, -846506.94, -1020015.94, -87018.52, 0.17784676, -0.5349889, -810385.2, 31859.107, 0.0, 10.00067, 9.998363 
1.8950993e+3, 2.2404961e+2, -630627.1, -827643.1, -115925.39, 0.22601971, -0.5958486, -577008.5, 167255.78, 0.0, 10.001319, 9.998697 
1.8951254e+3, 2.3404922e+2, -447654.3, -666019.44, -81994.586, -0.04218524, -0.54958135, -420294.06, 225969.75, 0.0, 10.001815, 9.998886 
1.895154e+3, 2.4404785e+2, -417296.0, -703588.44, -45725.707, -0.10092761, -0.5210037, -410170.2, 138104.53, 0.0, 10.001764, 9.997999 
1.8951863e+3, 2.5404513e+2, -411322.3, -642215.75, -26074.494, 0.18071543, -0.624604, -408414.38, 41887.535, 0.0, 10.001125, 9.998041 
1.8952179e+3, 2.6404214e+2, -337433.47, -716605.5, -26320.514, 0.3428884, -0.6488667, -335615.13, 16716.902, 0.0000000071100716, 10.001638, 9.996617 
1.8952473e+3, 2.740392e+2, 97534.95, -446260.53, -51437.9, 0.2466741, -0.6337677, 102357.72, 356719.28, 0.0000064443307, 10.003939, 9.996676 
1.8952754e+3, 2.8403684e+2, 324846.34, -282194.16, -127883.36, 0.09235692, -0.5327012, 350687.13, 507073.47, 0.0000894982, 10.004779, 9.996742 
1.8953039e+3, 2.9403448e+2, 267689.44, -259079.86, -67160.234, 0.0701025, -0.49437228, 276117.2, 334528.06, 0.00040204838, 10.003715, 9.996736 
1.8953368e+3, 3.040309e+2, 265167.4, -376916.66, 12090.213, 0.35698068, -0.44189382, 265395.0, 265395.0, 0.0010233772, 10.003968, 9.995483 
1.8953633e+3, 3.1402683e+2, 606801.25, 72931.414, -98650.22, -0.10654048, -0.46545956, 624446.94, 624446.94, 0.001863263, 10.005142, 9.997962 
1.9047907e+3, 1.2401958e+2, -2306248.8, -1892185.8, -195325.84, -0.36788905, -0.29548287, -1814587.3, -90031.56, 0.1713416, 9.995403, 10.000977 
1.9048299e+3, 1.3401711e+2, -2039891.3, -1743593.3, 121573.3, 0.1730089, -0.7006637, -1700096.1, -73508.516, 0.11689223, 9.996766, 10.00065 
1.9048624e+3, 1.4402293e+2, -1831618.8, -1530439.3, -28732.393, 0.22730795, -0.17196487, -1527722.6, 809.2443, 0.06499328, 9.997221, 10.00124 
1.904889e+3, 1.5402211e+2, -1607173.6, -1269387.5, -73026.72, -0.06773604, -0.49112713, -1254275.8, 176257.95, 0.026617203, 9.997646, 10.002176 
1.9049184e+3, 1.640222e+2, -1609836.8, -1462641.6, -32920.89, -0.14525196, -0.5877045, -1455614.3, -123083.93, 0.0066676727, 9.997997, 9.999986 
1.9049515e+3, 1.7402294e+2, -1423432.9, -1322566.6, -24466.506, 0.10456346, -0.5295697, -1316945.3, -82419.21, 0.0006122247, 9.998635, 9.9999485 
1.904982e+3, 1.840233e+2, -1300339.3, -1269295.3, -95725.49, 0.173212, -0.45540497, -1187841.5, -51316.953, 0.0000017786746, 9.999056, 9.999449 
1.9050084e+3, 1.9402339e+2, -1128205.4, -1124528.1, -130280.02, -0.049569838, -0.4228448, -996073.75, 42449.832, 0.0, 9.999523, 9.999539 
1.9050376e+3, 2.0402242e+2, -1006518.3, -1108758.4, -57644.754, -0.05497605, -0.42150214, -980591.75, -40059.023, 0.0, 10.000081, 9.998707 
1.905071e+3, 2.1402003e+2, -774247.4, -939280.94, -36194.89, 0.2461069, -0.5606863, -766658.2, 75897.33, 0.0, 10.00098, 9.99876 
1.9051014e+3, 2.240185e+2, -605152.2, -810691.44, -72826.06, 0.29743898, -0.576569, -581964.56, 162604.4, 0.0, 10.001453, 9.998759 
1.9051269e+3, 2.3401845e+2, -507992.25, -695916.75, -107365.53, -0.040958755, -0.4979997, -459279.13, 187287.44, 0.0, 10.001386, 9.998897 
1.9051553e+3, 2.4401706e+2, -430079.13, -712635.44, -79410.65, -0.107817195, -0.47183573, -409290.72, 139287.0, 0.0, 10.001715, 9.997941 
1.9051887e+3, 2.540135e+2, -169656.3, -530344.1, -99506.63, 0.22733466, -0.6521063, -144025.72, 306584.88, 0.0, 10.002813, 9.997984 
1.9052209e+3, 2.640102e+2, -74264.88, -582765.25, -19157.207, 0.38264406, -0.71266, -73544.18, 279098.94, 0.000000016068412, 10.003411, 9.996683 
1.9052503e+3, 2.7400765e+2, 31336.72, -477808.72, 10513.321, 0.18611854, -0.6608578, 31553.717, 286223.75, 0.000006020835, 10.003445, 9.996712 
1.905279e+3, 2.8400567e+2, 194156.61, -289764.84, -57244.027, 0.046982136, -0.5438028, 200835.92, 357526.88, 0.00007835106, 10.003639, 9.997241 
1.9053085e+3, 2.9400378e+2, 368348.88, -147624.88, -84745.51, 0.16659307, -0.5144996, 381911.3, 440620.9, 0.00035541714, 10.004146, 9.997285 
1.9053417e+3, 3.0399978e+2, 351386.53, -361359.7, 67655.766, 0.4378076, -0.5191768, 357751.75, 357751.75, 0.000923379, 10.004674, 9.99526 
1.90537e+3, 3.1399578e+2, 666647.9, 143858.23, -121795.7, 0.06575267, -0.5004563, 693630.4, 693630.4, 0.0017149457, 10.005289, 9.998427 
1.914789e+3, 1.2398607e+2, -2270235.3, -1807262.9, -301236.53, -0.15020847, -0.34334677, -1658842.1, 66045.734, 0.18042894, 9.9953575, 10.001645 
1.9148232e+3, 1.3398595e+2, -1919099.3, -1506543.8, 152291.86, -0.1958313, -0.71876717, -1456416.9, 170468.97, 0.12358676, 9.996755, 10.002428 
1.9148594e+3, 1.439898e+2, -1881276.4, -1653901.4, -24945.656, 0.16221714, -0.43162972, -1651196.8, -122351.42, 0.069141634, 9.997307, 10.000352 
1.9148877e+3, 1.5398903e+2, -1667162.5, -1389724.0, -48031.707, 0.0140013145, -0.65846324, -1381643.8, 49208.426, 0.028615344, 9.9976425, 10.001329 
1.9149171e+3, 1.6399e+2, -1583589.9, -1423781.8, -24123.145, -0.098707296, -0.6318564, -1420219.8, -87376.82, 0.0073205116, 9.998064, 10.000218 
1.9149484e+3, 1.7399241e+2, -1407702.8, -1277022.1, 4723.2334, -0.10083421, -0.44118166, -1276851.6, -42030.51, 0.00070924795, 9.998587, 10.000279 
1.9149789e+3, 1.8399233e+2, -1321605.0, -1322968.6, -90770.03, -0.07653617, -0.41264772, -1231514.3, -94690.94, 0.0000023137907, 9.999084, 9.999073 
1.9150084e+3, 1.9398905e+2, -1169647.5, -1195299.8, -103366.6, -0.020511001, -0.6685513, -1078314.3, -39459.008, 0.0, 9.999453, 9.999091 
1.915039e+3, 2.0398755e+2, -981594.44, -1039407.7, -36147.29, 0.045998722, -0.7211333, -964216.94, -23347.307, 0.0, 9.999992, 9.9992285 
1.9150713e+3, 2.139887e+2, -750894.5, -856161.75, 5425.697, 0.15707608, -0.5721282, -750615.6, 92241.88, 0.0, 10.000823, 9.999407 
1.9151013e+3, 2.2398864e+2, -665811.94, -885295.7, -80314.49, 0.14081557, -0.46149984, -639562.3, 105296.2, 0.0, 10.001227, 9.99836 
1.9151282e+3, 2.339869e+2, -573269.2, -784952.44, -97796.79, -0.05434028, -0.49722058, -535004.4, 111872.8, 0.0, 10.001192, 9.998379 
1.9151573e+3, 2.4398486e+2, -482434.06, -774303.6, -51991.902, -0.10275342, -0.49018192, -473449.13, 75448.19, 0.0, 10.001508, 9.997619 
1.9151904e+3, 2.5398248e+2, -216923.47, -582982.9, -45590.08, 0.09107232, -0.52445453, -211330.98, 239587.53, 0.0, 10.002623, 9.997712 
1.9152221e+3, 2.639799e+2, -37486.473, -460084.63, -28547.525, 0.16617085, -0.537652, -35566.74, 317375.03, 0.000000038925435, 10.003204, 9.997629 
1.915252e+3, 2.7397722e+2, 70882.61, -338524.25, 23643.104, 0.012814581, -0.6118058, 72243.47, 327209.7, 0.0000054500297, 10.003207, 9.997779 
1.9152817e+3, 2.8397492e+2, 157012.44, -314149.38, -57141.613, -0.06444348, -0.5822319, 163843.42, 320831.25, 0.00006657065, 10.003406, 9.99719 
1.9153124e+3, 2.939727e+2, 314974.53, -194541.28, -52382.21, 0.11005664, -0.569659, 320304.1, 379313.8, 0.0003045757, 10.003876, 9.997093 
1.9153456e+3, 3.0396792e+2, 307245.1, -388519.2, 66674.06, 0.34278074, -0.64049923, 313576.75, 313576.75, 0.0008127913, 10.004391, 9.995202 
1.9153754e+3, 3.1396434e+2, 609404.4, 192286.16, -47257.42, 0.044768658, -0.6000238, 614691.44, 614691.44, 0.0015535047, 10.004617, 9.999053 
1.9247872e+3, 1.23953104e+2, -2114201.8, -1783740.4, -258998.33, 0.08396857, -0.3355743, -1641755.6, 83456.336, 0.18987963, 9.996648, 10.001211 
1.924819e+3, 1.339533e+2, -1884912.0, -1444703.5, 39669.914, -0.26298442, -0.7289934, -1441157.1, 186044.97, 0.13060497, 9.996737, 10.002907 
1.9248568e+3, 1.4395559e+2, -1939750.6, -1734187.1, -135538.16, 0.18654811, -0.6047258, -1666866.9, -137690.28, 0.07352615, 9.997142, 9.999875 
1.9248864e+3, 1.5395623e+2, -1604568.8, -1419378.9, -157623.1, 0.105661064, -0.63300735, -1329165.5, 102009.05, 0.030745408, 9.998342, 10.0007925 
1.9249162e+3, 1.6395758e+2, -1473448.1, -1337767.3, -126255.06, -0.014139544, -0.5521721, -1262280.5, 70883.23, 0.008026891, 9.998701, 10.000493 
1.924946e+3, 1.7395921e+2, -1429591.1, -1250002.8, -120363.81, -0.16029115, -0.47523123, -1189628.9, 45517.97, 0.0008187495, 9.99828, 10.000615 
1.9249769e+3, 1.839591e+2, -1373666.9, -1321768.5, -133813.56, -0.14822586, -0.47742203, -1211411.4, -74263.67, 0.0000031359323, 9.998599, 9.999316 
1.9250089e+3, 1.9395682e+2, -1019094.8, -1093967.3, -110726.96, 0.045495454, -0.66158086, -939646.75, 99523.74, 0.0, 10.000344, 9.999353 
1.9250402e+3, 2.0395586e+2, -837563.8, -962507.7, -47556.832, 0.13656029, -0.68064165, -821522.1, 119657.75, 0.0, 10.000946, 9.999302 
1.9250707e+3, 2.1395685e+2, -853255.2, -898562.1, -74098.305, 0.07260175, -0.5509133, -798424.9, 44744.35, 0.0, 10.000098, 9.999465 
1.9251008e+3, 2.2395658e+2, -830684.94, -966200.25, -126698.11, 0.038759902, -0.45843366, -754764.1, -9591.871, 0.0, 10.000133, 9.99832 
1.9251302e+3, 2.3395452e+2, -519778.1, -763044.5, -132319.19, 0.025961643, -0.52216333, -461680.94, 185514.45, 0.0, 10.001588, 9.998333 
1.9251606e+3, 2.439524e+2, -320959.13, -693815.5, -34226.496, 0.025661495, -0.52442944, -317843.3, 231373.58, 0.0, 10.002585, 9.997662 
1.9251925e+3, 2.5395048e+2, -155413.56, -554927.75, -23575.227, 0.040518146, -0.51476806, -154027.2, 297206.4, 0.0, 10.003027, 9.997727 
1.925224e+3, 2.6394826e+2, -56109.652, -459625.5, -32654.371, 0.061145987, -0.49392727, -53484.19, 299768.75, 0.000000047147957, 10.003046, 9.997705 
1.925255e+3, 2.7394563e+2, -21253.639, -372891.28, -84232.97, 0.02051447, -0.5710515, -2117.462, 253159.25, 0.0000044268, 10.002535, 9.997867 
1.9252856e+3, 2.839429e+2, 33271.996, -403935.3, -145110.05, 0.025709506, -0.57434064, 77050.67, 234352.9, 0.000054025306, 10.002706, 9.996896 
1.9253169e+3, 2.939401e+2, 326866.5, -231991.27, -183198.83, 0.18179265, -0.5764685, 381566.8, 440896.7, 0.0002523606, 10.004128, 9.996718 
1.92535e+3, 3.039354e+2, 404383.47, -272230.25, -35573.313, 0.32980755, -0.651402, 406248.6, 406248.6, 0.00069491257, 10.004758, 9.995821 
1.9253807e+3, 3.1393245e+2, 545659.4, 122678.18, -152805.16, 0.14542499, -0.6028537, 595085.8, 595085.8, 0.0013685246, 10.004273, 9.998766 
1.9347835e+3, 1.2391902e+2, -2199661.8, -1980195.5, -211882.03, -0.0146316495, -0.4372439, -1851317.4, -125773.75, 0.1997211, 9.996742, 9.999724 
1.9348173e+3, 1.3391896e+2, -1958406.0, -1567201.5, 39477.117, -0.15120137, -0.7430678, -1563257.5, 64281.496, 0.13795441, 9.996683, 10.001974 
1.934854e+3, 1.4392048e+2, -1936085.9, -1735486.8, -104370.3, 0.14969763, -0.6509342, -1691034.3, -161510.22, 0.07814733, 9.997174, 9.999852 
1.9348851e+3, 1.539238e+2, -1617512.0, -1452154.5, -106632.984, 0.11111649, -0.39555234, -1399902.3, 31598.29, 0.033007, 9.998358, 10.000555 
1.9349152e+3, 1.639248e+2, -1439773.9, -1280332.0, -151112.22, -0.01709522, -0.3508767, -1189201.1, 144292.9, 0.008786739, 9.998753, 10.00087 
1.9349445e+3, 1.7392324e+2, -1400947.6, -1190136.6, -128546.52, -0.16365296, -0.6334262, -1129305.8, 106198.195, 0.00094156526, 9.998275, 10.001034 
1.9349757e+3, 1.8392357e+2, -1304859.8, -1186154.1, -86447.336, -0.16133955, -0.655025, -1140645.6, -3147.5903, 0.0000044945964, 9.998626, 10.000236 
1.9350094e+3, 1.939267e+2, -962001.7, -963037.44, -35080.016, 0.052519422, -0.39311925, -927435.75, 112032.984, 0.0, 10.000279, 10.000291 
1.935041e+3, 2.0392734e+2, -875697.4, -1021109.44, -80966.17, 0.09449557, -0.28816035, -839583.9, 101879.19, 0.0, 10.000855, 9.998945 
1.9350693e+3, 2.1392442e+2, -917440.44, -992921.1, -97349.9, -0.096635714, -0.4936284, -850771.3, -7280.767, 0.0, 9.99993, 9.9989 
1.9350995e+3, 2.239222e+2, -848089.06, -944946.6, -90331.53, -0.12732284, -0.578168, -794023.25, -48511.336, 0.0, 9.999894, 9.998576 
1.9351326e+3, 2.3392119e+2, -524831.56, -724342.9, -65975.984, 0.08716091, -0.5704064, -504987.78, 142534.5, 0.0, 10.001383, 9.998693 
1.9351645e+3, 2.4391966e+2, -329136.06, -658254.25, -27217.246, 0.14158872, -0.55061847, -326900.44, 222636.23, 0.0, 10.002357, 9.99802 
1.9351949e+3, 2.5391746e+2, -159532.36, -516434.75, 960.5636, -0.024083095, -0.604107, -159529.77, 292026.03, 0.0, 10.00283, 9.998086 
1.9352262e+3, 2.6391518e+2, -148908.2, -592130.44, -62570.027, -0.051882897, -0.5749686, -140244.5, 213332.67, 0.00000001782158, 10.002796, 9.996912 
1.9352584e+3, 2.7391282e+2, -118128.55, -517562.9, -91263.35, 0.09356657, -0.53296006, -98264.414, 157336.98, 0.0000033385966, 10.002315, 9.996968 
1.9352901e+3, 2.8390986e+2, -33719.676, -509481.38, -118113.016, 0.16910426, -0.48239285, -6010.649, 151620.67, 0.00004416703, 10.002544, 9.996257 
1.9353217e+3, 2.9390612e+2, 263340.22, -306375.56, -110671.75, 0.22243655, -0.52387404, 284083.78, 343752.13, 0.00021030588, 10.00389, 9.996319 
1.935354e+3, 3.0390245e+2, 425295.2, -155041.2, -60556.883, 0.23243886, -0.5305689, 431546.8, 431546.8, 0.0005914723, 10.004441, 9.996778 
1.935384e+3, 3.138987e+2, 357863.78, -107713.18, -73964.414, 0.0040449095, -0.6525806, 369331.75, 369331.75, 0.0011865955, 10.003645, 9.997457 
1.9447811e+3, 1.2388355e+2, -1876612.3, -1899091.6, -24795.771, -0.033640966, -0.6069636, -1860627.6, -134739.28, 0.20999403, 9.999256, 9.999074 
1.9448154e+3, 1.3388619e+2, -1904031.6, -1588314.8, -29456.959, -0.010291862, -0.5781034, -1585589.9, 42271.582, 0.14565058, 9.99724, 10.001558 
1.9448496e+3, 1.4388599e+2, -2008457.0, -1716508.8, -31498.152, 0.06914055, -0.66920435, -1713149.1, -183283.64, 0.083007626, 9.996424, 10.0003605 
1.9448827e+3, 1.5389039e+2, -1788350.6, -1495109.8, -21334.86, 0.11055624, -0.34335482, -1493565.8, -61735.145, 0.03539992, 9.997004, 10.000913 
1.9449139e+3, 1.6389163e+2, -1618305.6, -1352274.9, -48510.75, 0.046474896, -0.301818, -1343705.0, -9884.186, 0.009600047, 9.997454, 10.001005 
1.9449434e+3, 1.7388986e+2, -1374957.3, -1162448.9, -66247.79, -0.108714595, -0.61710423, -1143488.3, 92343.83, 0.0010784023, 9.998382, 10.001173 
1.944975e+3, 1.8389027e+2, -1238780.0, -1131433.1, -16903.08, -0.10389104, -0.64905006, -1128834.5, 8990.169, 0.0000066792873, 9.999008, 10.000417 
1.9450097e+3, 1.9389357e+2, -1072368.5, -991299.9, -41838.33, 0.09349433, -0.38935375, -973580.7, 66212.16, 0.0, 9.999457, 10.000476 
1.9450416e+3, 2.0389426e+2, -1009325.75, -1088327.4, -128271.83, 0.12854435, -0.28668156, -914610.44, 27176.184, 0.0, 9.999958, 9.998914 
1.9450696e+3, 2.1389124e+2, -805609.0, -944491.9, -132154.47, -0.08298948, -0.49526304, -725762.4, 118054.39, 0.0, 10.000725, 9.998848 
1.9450998e+3, 2.2388911e+2, -657401.6, -845205.75, -60090.41, -0.12977123, -0.5709151, -639820.7, 106016.984, 0.0, 10.001146, 9.998663 
1.9451335e+3, 2.3388842e+2, -550740.7, -725212.4, -68629.9, 0.06324725, -0.5428431, -526980.3, 120863.695, 0.0, 10.0011425, 9.998812 
1.9451664e+3, 2.4388711e+2, -477969.63, -728806.8, -34584.04, 0.15053086, -0.50430584, -473288.72, 76567.42, 0.0, 10.001351, 9.998018 
1.9451982e+3, 2.5388497e+2, -277264.16, -581455.9, -61279.19, 0.06813982, -0.5475645, -265383.53, 186493.47, 0.0, 10.002059, 9.9980135 
1.9452299e+3, 2.638825e+2, -160880.77, -612787.4, -113416.49, 0.06101247, -0.52759963, -134013.58, 219887.38, 0.000000002142629, 10.002762, 9.99679 
1.9452614e+3, 2.7387968e+2, 45940.207, -462941.34, -115064.984, 0.11815739, -0.51359177, 70748.53, 326676.56, 0.0000030022966, 10.003506, 9.996789 
1.9452931e+3, 2.8387615e+2, 143971.81, -440478.28, -52603.05, 0.16493516, -0.4994397, 148668.58, 306631.2, 0.00003904193, 10.003833, 9.996121 
1.9453256e+3, 2.9387227e+2, 246740.11, -314939.3, -51653.867, 0.24767295, -0.5456748, 251450.86, 311452.72, 0.00018459432, 10.003759, 9.996334 
1.9453588e+3, 3.038699e+2, 367702.28, -127260.21, -5834.585, 0.31918183, -0.44951907, 367771.06, 367771.06, 0.0005147206, 10.003827, 9.997253 
1.9453877e+3, 3.1386626e+2, 370746.94, -188308.84, -83881.78, 0.01034703, -0.58037287, 383061.47, 383061.47, 0.0010264101, 10.004065, 9.996718 
1.9547802e+3, 1.2384778e+2, -1848691.9, -1878706.5, 278594.34, -0.12642069, -0.73147154, -1584701.0, 141534.78, 0.22070916, 9.999462, 9.999272 
1.9548136e+3, 1.3385518e+2, -1869749.4, -1553488.4, -91582.4, 0.061216433, -0.22181995, -1528882.5, 99285.586, 0.15369554, 9.997342, 10.0018215 
1.9548437e+3, 1.4385216e+2, -1918869.6, -1553376.0, -22657.016, -0.19657582, -0.6667442, -1551976.9, -21776.398, 0.08810495, 9.99652, 10.001431 
1.9548787e+3, 1.5385595e+2, -1723550.4, -1367143.4, 8557.126, -0.008737021, -0.4918467, -1366938.0, 65226.836, 0.037922986, 9.997008, 10.001811 
1.9549116e+3, 1.6385809e+2, -1615197.8, -1358919.4, -29327.7, 0.042061206, -0.4081899, -1355606.0, -21462.152, 0.010466628, 9.997507, 10.000935 
1.954942e+3, 1.7385918e+2, -1386477.8, -1192504.3, -22307.436, -0.09146802, -0.42043623, -1189971.9, 46158.547, 0.0012294218, 9.998397, 10.000963 
1.9549742e+3, 1.8385921e+2, -1273723.6, -1213139.3, -7870.407, -0.10248038, -0.4512536, -1212133.5, -74006.08, 0.000009908067, 9.999052, 9.999833 
1.9550091e+3, 1.9385737e+2, -1126884.8, -1090127.3, -16987.03, 0.07249205, -0.63929886, -1083479.3, -43336.31, 0.0, 9.999395, 9.999829 
1.9550417e+3, 2.0385638e+2, -1008924.25, -1057355.1, -112282.5, 0.12478869, -0.6811238, -918275.6, 23877.219, 0.0, 9.999826, 9.999189 
1.9550712e+3, 2.1385711e+2, -799421.4, -891177.9, -94226.96, 0.00450765, -0.55795026, -740497.3, 103652.19, 0.0, 10.000555, 9.999292 
1.9551015e+3, 2.2385715e+2, -687640.06, -864333.56, -65190.203, -0.09150609, -0.4433611, -666191.94, 79959.39, 0.0, 10.000948, 9.998631 
1.9551326e+3, 2.3385611e+2, -585435.94, -753237.9, -58461.484, -0.14032623, -0.43988097, -567076.9, 81084.18, 0.0, 10.000958, 9.998704 
1.9551657e+3, 2.4385466e+2, -544218.7, -814161.6, -21760.652, -0.07320223, -0.3892624, -542475.75, 7700.546, 0.0, 10.001125, 9.9975395 
1.9552018e+3, 2.5385278e+2, -337488.6, -664211.5, -22389.605, 0.20317237, -0.35631523, -335961.44, 116236.91, 0.0, 10.001887, 9.9975195 
1.9552352e+3, 2.6385024e+2, -157597.6, -564048.94, -96246.02, 0.26925582, -0.33726537, -135958.94, 218264.13, 0.00000003752054, 10.002571, 9.997223 
1.9552638e+3, 2.7384627e+2, 54393.074, -397718.53, -74818.19, -0.0069630733, -0.49281007, 66452.76, 322708.4, 0.0000033251551, 10.003303, 9.997336 
1.9552943e+3, 2.83842e+2, 107616.45, -443756.22, -70561.695, -0.110447675, -0.59118646, 116503.32, 274797.94, 0.000036409245, 10.003525, 9.996245 
1.9553286e+3, 2.9383865e+2, 218069.7, -300592.13, -35759.27, 0.1489023, -0.5980897, 220523.53, 280852.97, 0.00016708692, 10.003454, 9.9965725 
1.9553639e+3, 3.038379e+2, 317754.1, -164818.39, -21880.453, 0.41214728, -0.35605004, 318744.16, 318744.16, 0.00045037785, 10.003522, 9.997154 
1.9553928e+3, 3.1383428e+2, 294995.53, -223816.7, -23865.469, 0.07993003, -0.47022736, 296091.03, 296091.03, 0.0008717727, 10.003579, 9.996694 
1.964778e+3, 1.2381108e+2, -2191327.8, -2011248.4, 302514.34, -0.13121843, -0.83511007, -1785658.5, -59064.47, 0.23177752, 9.996953, 9.999396 
1.9648117e+3, 1.338226e+2, -1813030.4, -1417144.6, -114827.0, 0.14325349, -0.02199947, -1386250.0, 242238.5, 0.1620495, 9.997249, 10.002945 
1.9648406e+3, 1.4381811e+2, -1781228.0, -1484853.1, -5579.1577, -0.20120826, -0.6728855, -1484748.1, 45787.44, 0.093428105, 9.997474, 10.001448 
1.9648759e+3, 1.5382144e+2, -1594326.5, -1302596.3, -65841.516, -0.020131687, -0.5452775, -1288424.6, 144077.3, 0.04057487, 9.997914, 10.001809 
1.9649097e+3, 1.6382357e+2, -1496717.1, -1335499.1, -117984.33, 0.08107154, -0.45120382, -1273216.1, 61264.324, 0.011385711, 9.998464, 10.000637 
1.9649415e+3, 1.7382531e+2, -1290778.5, -1182057.4, -138982.02, -0.010075602, -0.36646208, -1087183.0, 149280.44, 0.0013940044, 9.999218, 10.000634 
1.9649741e+3, 1.8382533e+2, -1244233.8, -1199089.1, -127500.734, -0.018975528, -0.37882274, -1092178.0, 46283.285, 0.000014255441, 9.999238, 9.9998455 
1.9650081e+3, 1.938225e+2, -1268795.1, -1154526.3, -107664.1, 0.093196936, -0.6720538, -1089775.9, -49290.96, 0.0, 9.998389, 9.999876 
1.9650407e+3, 2.0382126e+2, -1209451.1, -1137036.1, -114059.29, 0.13113831, -0.74838823, -1053575.3, -111078.984, 0.0, 9.99837, 9.999344 
1.9650717e+3, 2.1382274e+2, -910704.56, -929327.5, -129842.92, 0.04215709, -0.5650735, -789839.7, 54646.344, 0.0, 9.999704, 9.999444 
1.9651029e+3, 2.2382316e+2, -712182.0, -862633.6, -115123.266, -0.03442395, -0.4241873, -649885.8, 96598.01, 0.0, 10.000737, 9.998742 
1.9651338e+3, 2.338218e+2, -501747.53, -708082.4, -122974.86, -0.12960297, -0.45812067, -444396.0, 204099.56, 0.0, 10.001503, 9.998757 
1.9651672e+3, 2.4381994e+2, -405336.8, -790129.0, -44002.715, -0.07353356, -0.43523178, -400369.03, 150146.0, 0.0, 10.002238, 9.997178 
1.965204e+3, 2.538178e+2, -224449.58, -657950.06, -60016.664, 0.210644, -0.38330114, -216293.92, 236247.77, 0.0, 10.00286, 9.997098 
1.965238e+3, 2.638154e+2, -55947.863, -464961.25, -124367.05, 0.2952503, -0.34594452, -21100.947, 333465.2, 0.00000006167767, 10.003066, 9.997663 
1.9652669e+3, 2.7381214e+2, 5931.4756, -359949.25, -139087.77, 0.01822265, -0.48230854, 52800.996, 309391.56, 0.000003603985, 10.002724, 9.997865 
1.9652973e+3, 2.8380832e+2, 9274.1, -453373.47, -95445.59, -0.115892455, -0.5775858, 28191.309, 186815.39, 0.00003430298, 10.00269, 9.996578 
1.9653308e+3, 2.93805e+2, 201514.63, -288123.22, -79860.805, 0.05681004, -0.59972906, 214210.86, 274869.0, 0.00015136057, 10.00324, 9.996773 
1.9653673e+3, 3.0380356e+2, 333659.97, -153238.33, -48556.574, 0.41853693, -0.43313918, 338455.1, 338455.1, 0.0003913985, 10.003601, 9.997207 
1.9653969e+3, 3.1380084e+2, 303967.9, -134461.61, -150726.1, 0.15356603, -0.46058604, 350785.97, 350785.97, 0.00072652416, 10.003229, 9.997503 
1.9747736e+3, 1.2377538e+2, -2188246.3, -2042356.3, -31263.012, -0.343021, -0.7668107, -2035939.1, -308994.72, 0.24301729, 9.997103, 9.999119 
1.9748089e+3, 1.3378847e+2, -1680109.0, -1201056.4, -83501.44, 0.12105105, 0.0046625882, -1186918.8, 441903.4, 0.17062773, 9.997294, 10.004724 
1.9748399e+3, 1.4378384e+2, -1842959.4, -1634410.4, -6428.7324, -0.0621949, -0.69695467, -1634212.4, -103341.92, 0.09895461, 9.997569, 10.000352 
1.974874e+3, 1.5378673e+2, -1658638.4, -1446201.6, -44353.62, -0.024393974, -0.5065848, -1437313.3, -4470.243, 0.04335473, 9.99797, 10.000765 
1.9749083e+3, 1.637879e+2, -1514617.1, -1388625.1, -103041.016, 0.043448873, -0.43075067, -1330848.9, 3983.796, 0.012356995, 9.998541, 10.000231 
1.9749415e+3, 1.7378807e+2, -1316349.3, -1235240.3, -103544.23, 0.0478601, -0.4607413, -1164591.9, 72240.9, 0.0015709848, 9.999223, 10.000268 
1.9749743e+3, 1.8378843e+2, -1198407.9, -1108990.8, -165287.05, 0.038678892, -0.4457298, -982472.4, 156356.03, 0.000019593592, 9.999257, 10.000459 
1.9750062e+3, 1.9378881e+2, -1222856.9, -1045118.44, -130412.39, 0.043137636, -0.49208468, -976174.06, 64645.785, 0.0, 9.99833, 10.000655 
1.9750382e+3, 2.0378876e+2, -1227784.9, -1147760.1, -80829.0, 0.017709337, -0.49318513, -1097582.0, -154763.77, 0.0, 9.998256, 9.999324 
1.9750705e+3, 2.1378832e+2, -946184.94, -961355.44, -70237.516, -0.059973508, -0.49150693, -883124.3, -38299.637, 0.0, 9.999527, 9.999309 
1.9751035e+3, 2.2378734e+2, -737368.06, -865425.94, -96290.28, -0.079380654, -0.48826903, -685761.7, 61072.15, 0.0, 10.000512, 9.9988365 
1.9751368e+3, 2.3378547e+2, -513690.44, -698241.8, -81806.164, -0.0028634157, -0.588071, -482649.25, 166198.52, 0.0, 10.001343, 9.998907 
1.9751707e+3, 2.437831e+2, -457777.5, -850391.1, -30251.656, 0.030352306, -0.6135385, -455460.25, 95410.64, 0.0, 10.002023, 9.996872 
1.9752051e+3, 2.5378025e+2, -277610.2, -723785.6, -24074.936, 0.011728045, -0.598079, -276314.9, 176590.58, 0.0, 10.0026655, 9.996742 
1.9752386e+3, 2.6377803e+2, -74964.5, -441066.06, -143602.78, 0.025239909, -0.5298522, -25358.137, 329571.16, 0.000000055759365, 10.002794, 9.997954 
1.9752704e+3, 2.737772e+2, 5775.5176, -305554.56, -137359.3, 0.073557876, -0.47530842, 57713.9, 314647.1, 0.0000036492006, 10.002497, 9.99834 
1.9753014e+3, 2.8377518e+2, 5820.17, -415438.2, -94247.77, 0.0038729548, -0.43885565, 25944.742, 184895.05, 0.00003270768, 10.002481, 9.996947 
1.9753322e+3, 2.9377127e+2, 192288.58, -262365.13, -33903.414, -0.15143472, -0.5566043, 194802.84, 255791.53, 0.00013942833, 10.003044, 9.997045 
1.9753687e+3, 3.0376717e+2, 251118.69, -231086.25, -72225.73, 0.17594436, -0.6473546, 261704.42, 261704.42, 0.00034788088, 10.003221, 9.996848 
1.9754016e+3, 3.1376565e+2, 357472.44, 89268.72, -152328.3, 0.2736973, -0.5462849, 426316.94, 426316.94, 0.0006197176, 10.002787, 9.999234 
1.9847696e+3, 1.2374213e+2, -2401791.5, -2036374.6, -48118.973, -0.35095537, -0.7380975, -2030144.5, -302872.25, 0.25424254, 9.995149, 10.000125 
1.984807e+3, 1.337533e+2, -1608052.8, -1196924.3, 2932.154, 0.17951956, -0.15536386, -1196903.3, 432262.2, 0.17932345, 9.99789, 10.004521 
1.984838e+3, 1.4374995e+2, -1692850.4, -1606497.8, 12575.169, -0.05728361, -0.6963302, -1604703.8, -73504.14, 0.104643695, 9.998791, 9.999961 
1.9848724e+3, 1.5375237e+2, -1620550.8, -1462501.6, 13596.015, 0.0018435598, -0.5211778, -1461340.5, -28162.877, 0.046255346, 9.998381, 10.000463 
1.9849068e+3, 1.637533e+2, -1583111.4, -1423602.8, 33276.555, 0.093187764, -0.4541804, -1416939.0, -81768.9, 0.013380272, 9.99809, 10.000199 
1.9849406e+3, 1.737531e+2, -1463259.0, -1306044.9, 43456.848, 0.088705815, -0.52169544, -1294832.4, -57658.72, 0.0017591557, 9.998222, 10.00026 
1.9849734e+3, 1.8375349e+2, -1313165.5, -1190567.5, -22972.057, 0.074424855, -0.49478218, -1186404.4, -47235.11, 0.0000256483, 9.998568, 10.000233 
1.985005e+3, 1.937545e+2, -1062562.4, -999432.94, -84125.07, 0.057351556, -0.45653364, -941145.8, 100010.3, 0.0, 9.999542, 10.000392 
1.9850373e+3, 2.0375453e+2, -966797.25, -1035516.75, -40117.793, 0.03192866, -0.43006408, -948336.25, -5182.333, 0.0, 10.000101, 9.999208 
1.9850706e+3, 2.1375327e+2, -853929.44, -932989.6, -48195.277, -0.037824333, -0.49571025, -831126.44, 14040.049, 0.0, 10.000227, 9.999171 
1.9851041e+3, 2.2375171e+2, -764521.3, -907260.6, -67623.695, -0.04059582, -0.530403, -737572.1, 9608.99, 0.0, 10.000452, 9.998573 
1.9851384e+3, 2.3374972e+2, -606465.9, -774124.56, -106701.3, 0.050099604, -0.61457616, -554602.44, 94596.11, 0.0, 10.000848, 9.998614 
1.9851726e+3, 2.4374762e+2, -554747.5, -813964.1, -33900.742, 0.079917386, -0.62698025, -550387.25, 831.62354, 0.0, 10.001036, 9.997577 
1.9852066e+3, 2.5374538e+2, -452189.6, -716946.94, 31122.602, -0.007152207, -0.63131994, -448580.3, 4663.34, 0.0, 10.001084, 9.997547 
1.9852404e+3, 2.6374343e+2, -276545.16, -533815.0, -30687.197, 0.0012052867, -0.58585423, -272935.44, 82327.97, 0.00000004684117, 10.001389, 9.997994 
1.985273e+3, 2.737424e+2, -53843.766, -348120.2, -88131.555, 0.12060946, -0.5373533, -29468.64, 227802.42, 0.000003631824, 10.002135, 9.998226 
1.9853047e+3, 2.8374067e+2, 68386.086, -340857.28, -37295.59, 0.09194948, -0.48034328, 71757.18, 231043.66, 0.000030883682, 10.002748, 9.997316 
1.9853355e+3, 2.9373735e+2, 227828.66, -206328.83, -16396.43, -0.10867426, -0.57450646, 228447.02, 289765.7, 0.00012822116, 10.003158, 9.997355 
1.9853719e+3, 3.0373323e+2, 325215.97, -250656.17, -16148.402, 0.14311521, -0.66381764, 325668.44, 325668.44, 0.00031412422, 10.003934, 9.99637 
1.985406e+3, 3.1373116e+2, 691750.25, 212747.55, -213178.95, 0.3302165, -0.5588262, 772882.94, 772882.94, 0.00054942287, 10.005192, 9.998936 
1.9947645e+3, 1.2371278e+2, -2203366.0, -1678612.9, -261441.81, -0.42726216, -0.6147801, -1570593.3, 156970.22, 0.26535824, 9.995237, 10.002868 
1.9948053e+3, 1.3371694e+2, -1754059.6, -1467066.8, 82647.69, 0.20723395, -0.51859766, -1444967.6, 184552.05, 0.18805622, 9.997954, 10.002263 
1.9948344e+3, 1.4371637e+2, -1647581.5, -1542897.5, -10725.812, -0.32976967, -0.67992896, -1541809.9, -10286.099, 0.11045076, 9.998919, 10.000339 
1.9948706e+3, 1.5371831e+2, -1578970.3, -1384794.9, 7152.9595, -0.038965438, -0.60111594, -1384531.8, 48974.598, 0.04926506, 9.99841, 10.001 
1.9949056e+3, 1.6371971e+2, -1550214.8, -1368895.3, 26358.527, 0.121772416, -0.5305245, -1365141.3, -29647.994, 0.014456319, 9.998143, 10.000551 
1.9949383e+3, 1.7372033e+2, -1437933.9, -1253006.0, 53468.902, 0.020331329, -0.5520753, -1238659.4, -1173.1172, 0.0019582892, 9.998217, 10.0006275 
1.9949712e+3, 1.8372037e+2, -1386362.5, -1343727.9, 1794.908, -0.023500418, -0.5365037, -1343652.4, -204166.84, 0.000032105352, 9.998581, 9.999174 
1.9950047e+3, 1.9371949e+2, -1160817.6, -1184015.4, -38722.395, 0.049995024, -0.5606554, -1131994.3, -90499.94, 0.0, 9.999471, 9.999154 
1.9950381e+3, 2.0371854e+2, -1002132.6, -1085097.1, -44937.715, 0.06992527, -0.55190426, -982457.9, -38954.305, 0.0, 9.999992, 9.998923 
1.9950715e+3, 2.1371754e+2, -883718.94, -963523.44, -33629.895, 0.010360355, -0.57882106, -871437.3, -25924.76, 0.0, 10.000089, 9.999028 
1.9951047e+3, 2.2371623e+2, -838567.56, -1017157.56, -59300.73, -0.03927012, -0.5516927, -820670.3, -73143.91, 0.0, 10.00026, 9.9979105 
1.9951382e+3, 2.3371457e+2, -683162.9, -894440.75, -75757.33, -0.059781592, -0.53119487, -658806.56, -9259.2295, 0.0, 10.000675, 9.997871 
1.9951725e+3, 2.4371329e+2, -485068.03, -615804.4, -40941.324, -0.046711616, -0.48686862, -473305.22, 78255.56, 0.0, 10.000801, 9.999054 
1.9952084e+3, 2.5371286e+2, -347052.03, -458520.56, 42098.324, 0.048885126, -0.49239305, -332939.5, 120619.89, 0.0, 10.000911, 9.999404 
1.995243e+3, 2.637112e+2, -330388.63, -592587.9, -18307.467, 0.09875081, -0.51265806, -329116.53, 26455.156, 0.000000042002604, 10.001165, 9.997698 
1.9952747e+3, 2.737077e+2, -131128.66, -454972.88, -46050.61, 0.05814469, -0.6521475, -124707.58, 132897.25, 0.0000035134383, 10.001919, 9.99759 
1.9953068e+3, 2.837047e+2, 33720.03, -359329.13, -35506.984, 0.0044331695, -0.6817589, 36901.88, 196535.55, 0.00002820436, 10.002508, 9.997309 
1.9953403e+3, 2.937028e+2, 209794.67, -194861.73, 12691.061, 0.019550553, -0.658641, 210192.3, 271845.0, 0.00011358975, 10.002934, 9.997545 
1.995376e+3, 3.0370125e+2, 210506.95, -372997.34, 9753.869, 0.13332553, -0.48307768, 210669.95, 210669.95, 0.00027761376, 10.003465, 9.995742 
1.9954084e+3, 3.1369826e+2, 420287.84, -204279.89, -121704.92, -0.0054042754, -0.4018516, 443165.6, 443165.6, 0.0004898738, 10.004597, 9.996333 
2.0047615e+3, 1.23682775e+2, -1883396.6, -1535061.4, -220222.38, -0.33482626, -0.4643182, -1428458.3, 299398.63, 0.27641812, 9.997413, 10.003089 
2.0048027e+3, 1.3368219e+2, -1912340.4, -1661991.1, 101374.42, 0.18359688, -0.7027633, -1626089.9, 3768.2603, 0.1968332, 9.997524, 10.000855 
2.0048316e+3, 1.4368337e+2, -1857822.6, -1644219.8, 23869.383, -0.41908482, -0.62032765, -1641584.9, -109740.414, 0.11636926, 9.997486, 10.000323 
2.0048693e+3, 1.5368468e+2, -1541671.3, -1377006.8, -19914.76, -0.0065816264, -0.6023378, -1374632.4, 59201.664, 0.05238356, 9.998708, 10.000911 
2.0049047e+3, 1.6368577e+2, -1402276.8, -1333659.6, -41624.973, 0.1787347, -0.5424771, -1314026.4, 21797.658, 0.015589432, 9.999293, 10.000248 
2.0049365e+3, 1.736863e+2, -1324710.0, -1237053.8, -85522.28, -0.016227512, -0.5470596, -1184783.1, 53034.164, 0.0021699998, 9.999133, 10.000303 
2.0049694e+3, 1.8368587e+2, -1320861.6, -1325288.9, -89474.805, -0.07410327, -0.55291504, -1233573.1, -93752.57, 0.00003871999, 9.999101, 9.999043 
2.0050043e+3, 1.9368428e+2, -1128604.1, -1184981.5, -62939.195, 0.049446303, -0.6329103, -1087829.4, -45993.168, 0.0, 9.999774, 9.999 
2.0050384e+3, 2.0368299e+2, -969711.25, -1069153.9, -15387.13, 0.1122978, -0.6481713, -967384.75, -23535.977, 0.0, 10.000231, 9.998912 
2.0050721e+3, 2.1368219e+2, -819526.5, -929036.9, -15036.572, 0.06583108, -0.6547653, -817499.44, 28356.113, 0.0, 10.000525, 9.999052 
2.0051056e+3, 2.2368129e+2, -760126.7, -971422.5, 8043.1333, 0.012432359, -0.58986205, -759821.0, -11955.149, 0.0, 10.000778, 9.997972 
2.0051388e+3, 2.3368034e+2, -609394.3, -848538.1, 24083.705, -0.075838804, -0.5031318, -606993.0, 42888.207, 0.0, 10.00116, 9.997948 
2.0051733e+3, 2.4367929e+2, -387274.03, -559450.3, 56116.984, -0.060090553, -0.44361836, -370598.94, 181293.44, 0.0, 10.001399, 9.999167 
2.0052099e+3, 2.536783e+2, -281543.06, -414714.56, -3041.614, 0.114640646, -0.5181847, -281473.66, 172421.27, 0.0, 10.001292, 9.999525 
2.005245e+3, 2.6367658e+2, -284424.47, -561223.4, -76669.02, 0.18229312, -0.55666137, -264607.13, 91299.97, 0.000000029896977, 10.001448, 9.997768 
2.0052765e+3, 2.7367327e+2, -87612.56, -434248.75, -81659.25, 0.04503238, -0.6771438, -69338.92, 188600.0, 0.0000031274246, 10.002203, 9.997598 
2.0053095e+3, 2.8367007e+2, 75289.055, -351878.78, -32459.057, 0.012531578, -0.7239284, 77741.43, 237712.28, 0.000025154262, 10.002837, 9.9972105 
2.0053443e+3, 2.9366785e+2, 214084.72, -215396.36, -53038.8, 0.15020658, -0.7128084, 220537.78, 282533.03, 0.00009776422, 10.003061, 9.997347 
2.0053796e+3, 3.0366793e+2, 244177.38, -249051.61, 16311.055, 0.19028185, -0.39953613, 244716.19, 244716.19, 0.0002403355, 10.003211, 9.9967375 
2.0054126e+3, 3.136638e+2, 265084.88, -253241.52, -13304.708, 0.03220257, -0.52925676, 265426.16, 265426.16, 0.00043342356, 10.003389, 9.996606 
2.0147617e+3, 1.23649634e+2, -2059218.4, -1872559.0, 69560.82, -0.13713656, -0.5305226, -1849487.9, -121311.83, 0.28771394, 9.997512, 10.000089 
2.0147987e+3, 1.3364907e+2, -1937933.1, -1714804.3, 79764.89, 0.01535899, -0.70225763, -1689222.6, -59042.008, 0.20582092, 9.997523, 10.000494 
2.014829e+3, 1.4365096e+2, -1884492.4, -1706760.4, 49985.926, -0.44875425, -0.51659524, -1693666.8, -161504.75, 0.12247417, 9.99751, 9.9998865 
2.0148681e+3, 1.536514e+2, -1590185.0, -1477452.8, 32349.832, -0.00905405, -0.51821715, -1468829.3, -34667.42, 0.055639356, 9.998718, 10.000195 
2.0149039e+3, 1.6365153e+2, -1451965.1, -1457378.5, -53736.477, 0.13647561, -0.47962677, -1400867.3, -64704.44, 0.016791714, 9.99938, 9.999359 
2.0149349e+3, 1.7365089e+2, -1390420.6, -1371013.1, -86137.81, -0.10288017, -0.50127506, -1294034.3, -55866.67, 0.0023981123, 9.9991255, 9.999388 
2.0149677e+3, 1.8364996e+2, -1264121.1, -1218497.9, -83679.625, -0.1908407, -0.5383104, -1154576.3, -14401.859, 0.000045425786, 9.99914, 9.999762 
2.0150031e+3, 1.9364884e+2, -1072348.4, -1052527.3, -32284.73, -0.046249345, -0.66457766, -1028666.2, 13515.933, 0.0, 9.999707, 9.999941 
2.0150383e+3, 2.0364791e+2, -968350.5, -1037399.5, -13236.684, 0.037208993, -0.708587, -965899.94, -21710.922, 0.0, 10.000107, 9.999191 
2.0150726e+3, 2.1364728e+2, -838556.6, -924798.1, 5984.4497, 0.040399276, -0.71202224, -838143.3, 8051.814, 0.0, 10.000341, 9.999171 
2.0151064e+3, 2.2364677e+2, -748563.7, -897459.9, 11901.721, -0.000536839, -0.6399528, -747618.3, 582.3805, 0.0, 10.000552, 9.998593 
2.0151399e+3, 2.3364677e+2, -577667.56, -752825.25, 48582.39, -0.09554595, -0.5312757, -565095.0, 85108.09, 0.0, 10.001017, 9.998679 
2.0151746e+3, 2.4364536e+2, -498461.28, -737854.75, 47286.316, -0.09014514, -0.50188667, -489459.53, 62757.484, 0.0, 10.001182, 9.998043 
2.0152111e+3, 2.536418e+2, -408490.72, -636894.56, 4227.347, 0.091000564, -0.6896696, -408412.53, 45836.313, 0.0, 10.001125, 9.998076 
2.015246e+3, 2.6363942e+2, -293599.47, -535341.9, -60588.805, 0.12747797, -0.71791244, -279264.0, 77005.89, 0.0000000091701935, 10.001251, 9.998044 
2.0152782e+3, 2.7363896e+2, -71919.06, -357238.3, -35941.434, -0.031048423, -0.6145931, -67461.195, 190813.06, 0.0000023642951, 10.00201, 9.998221 
2.0153119e+3, 2.8363672e+2, 5680.9053, -429681.3, -36914.8, -0.047346245, -0.5902786, 8788.763, 169086.97, 0.000021595964, 10.002559, 9.996804 
2.0153478e+3, 2.936322e+2, 142820.6, -325937.97, -27315.314, 0.1565635, -0.7530217, 144406.94, 206754.63, 0.000083873885, 10.00288, 9.996679 
2.0153823e+3, 3.0363303e+2, 326021.3, 21169.244, 5726.871, 0.12049168, -0.41578996, 326128.84, 326128.84, 0.00020822523, 10.002814, 9.998765 
2.015416e+3, 3.136297e+2, 364676.1, 138967.92, 103201.34, 0.0027738332, -0.7319941, 404748.66, 404748.66, 0.0003832048, 10.002655, 9.999622 
2.0247608e+3, 1.2361327e+2, -1978519.3, -2060186.3, 10639.054, -0.033853374, -0.5073214, -1977156.1, -248626.39, 0.29983783, 9.999054, 9.998046 
2.0247957e+3, 1.3361366e+2, -1860172.8, -1594146.5, -155137.33, -0.019890407, -0.64900166, -1522806.9, 107720.1, 0.21537028, 9.997655, 10.001411 
2.0248276e+3, 1.436155e+2, -1829157.6, -1678255.0, -50719.543, -0.34936538, -0.5314279, -1662792.3, -130282.27, 0.12892798, 9.997872, 9.999913 
2.0248665e+3, 1.5361612e+2, -1635744.4, -1534670.5, -59893.85, -0.033750806, -0.48373002, -1506841.3, -72332.69, 0.05909158, 9.998555, 9.999884 
2.0249024e+3, 1.6361605e+2, -1523432.0, -1449927.0, -105070.21, 0.07806905, -0.45798776, -1375366.9, -38855.902, 0.018083457, 9.998739, 9.999705 
2.0249343e+3, 1.7361514e+2, -1405187.5, -1327113.8, -59032.035, -0.05301162, -0.5482119, -1295378.8, -56862.57, 0.0026487417, 9.998846, 9.999807 
2.0249674e+3, 1.8361436e+2, -1287200.9, -1225539.4, 15074.192, -0.10190411, -0.59691834, -1222051.5, -81530.625, 0.000052423693, 9.9989605, 9.999797 
2.0250024e+3, 1.9361383e+2, -1124253.0, -1086848.5, -19946.879, -0.08162525, -0.66247535, -1078207.5, -35683.066, 0.0, 9.999375, 9.999868 
2.0250371e+3, 2.0361342e+2, -1022344.8, -1043610.0, -35307.367, -0.039066028, -0.6595625, -996103.8, -51576.313, 0.0, 9.999653, 9.99936 
2.0250723e+3, 2.1361311e+2, -887018.5, -928996.56, -36972.496, 0.020371849, -0.6490718, -865492.75, -18962.117, 0.0, 9.999921, 9.999338 
2.0251073e+3, 2.2361246e+2, -758523.8, -875046.06, -5007.771, 0.0495063, -0.61499524, -758309.0, -9772.686, 0.0, 10.000364, 9.998832 
2.025142e+3, 2.336115e+2, -533384.75, -703327.7, -17440.512, 0.009368511, -0.6242892, -531613.3, 118930.2, 0.0, 10.001201, 9.998922 
2.0251772e+3, 2.4360968e+2, -438068.03, -730867.7, -15545.36, 0.02333339, -0.6411407, -437245.03, 115314.766, 0.0, 10.001708, 9.997828 
2.0252123e+3, 2.5360644e+2, -337698.53, -640134.94, -4069.5708, 0.0895041, -0.76444906, -337643.78, 116947.54, 0.0, 10.001772, 9.997741 
2.0252472e+3, 2.636043e+2, -201930.9, -492368.34, 5261.5327, 0.101220146, -0.753731, -201835.61, 154777.02, 0.000000001074916, 10.001877, 9.998046 
2.0252806e+3, 2.7360412e+2, -71763.19, -346986.1, -29458.39, 0.024993105, -0.6225013, -68645.44, 189970.06, 0.0000018159459, 10.001987, 9.998296 
2.0253149e+3, 2.836024e+2, -3955.2312, -403151.75, -9795.466, 0.032637212, -0.5615364, -3715.015, 156919.45, 0.000018189116, 10.002339, 9.997095 
2.0253502e+3, 2.9359838e+2, 169028.92, -259941.48, 26346.133, 0.13367197, -0.70504904, 170640.97, 233318.05, 0.000072171526, 10.002849, 9.997135 
2.0253856e+3, 3.0359784e+2, 357406.6, 51733.0, 53032.188, 0.1859758, -0.5423785, 366345.88, 366345.88, 0.00017992307, 10.002895, 9.998972 
2.0254192e+3, 3.1359667e+2, 329047.84, 196854.52, -17069.26, 0.11186378, -0.64160305, 331216.3, 331216.3, 0.0003355793, 10.00202, 10.000357 
2.0347583e+3, 1.23572394e+2, -2030877.1, -2214968.8, -6949.5537, -0.26277074, -0.530979, -2030615.1, -301684.72, 0.3135409, 9.999219, 9.996922 
2.0347933e+3, 1.3357577e+2, -1699968.8, -1339686.0, -145089.45, -0.061355177, -0.5488213, -1288522.6, 342376.8, 0.22593072, 9.997746, 10.003564 
2.0348269e+3, 1.4357664e+2, -1773441.3, -1597544.9, -39979.04, -0.24899486, -0.67257065, -1588884.6, -55992.848, 0.13594478, 9.998021, 10.000396 
2.0348638e+3, 1.5357867e+2, -1619987.0, -1504175.0, -35060.027, -0.17470995, -0.50313467, -1494388.3, -59512.3, 0.06282382, 9.998569, 10.000081 
2.0348993e+3, 1.6357929e+2, -1410832.1, -1230822.8, -114735.94, -0.13666096, -0.48547375, -1175001.6, 161868.06, 0.019494196, 9.998789, 10.0012045 
2.0349342e+3, 1.7357896e+2, -1273338.0, -1064723.0, -46876.957, 0.03169038, -0.69466835, -1054673.6, 184190.67, 0.0029308582, 9.998879, 10.001597 
2.0349684e+3, 1.83579e+2, -1327022.0, -1317900.5, 21983.008, 0.073581465, -0.7411141, -1300010.1, -159149.5, 0.00006041413, 9.999003, 9.999145 
2.0350012e+3, 1.9357924e+2, -1207748.0, -1242186.0, 4961.613, -0.14593174, -0.6238587, -1207047.4, -164184.11, 0.0, 9.999303, 9.9988365 
2.035035e+3, 2.0357941e+2, -1037290.3, -1048649.8, -35492.887, -0.24821545, -0.50497365, -1007025.56, -62160.605, 0.0, 9.999544, 9.999375 
2.0350711e+3, 2.1357958e+2, -890782.3, -904443.75, -17663.855, -0.09384186, -0.46801814, -878674.44, -31811.28, 0.0, 9.999781, 9.999575 
2.0351076e+3, 2.2357827e+2, -798546.0, -902208.06, 15241.489, 0.035058066, -0.50851434, -796351.5, -47478.57, 0.0, 10.000135, 9.99875 
2.0351446e+3, 2.3357463e+2, -577196.44, -745646.94, 27877.021, 0.1364377, -0.7707675, -572702.9, 78198.7, 0.0, 10.001002, 9.998722 
2.0351802e+3, 2.4357222e+2, -435995.2, -673347.5, -18134.32, 0.14784287, -0.8575739, -434617.66, 118303.61, 0.0, 10.001476, 9.998336 
2.0352136e+3, 2.5357202e+2, -313601.44, -553683.7, 7574.556, 0.017972404, -0.745167, -313362.72, 141562.0, 0.0, 10.001605, 9.99842 
2.0352478e+3, 2.635709e+2, -266930.28, -556237.4, -1308.2559, -0.030747281, -0.6582599, -266924.38, 90013.47, 0.000000023664393, 10.001591, 9.997735 
2.0352833e+3, 2.7356842e+2, -137315.03, -436596.9, -10212.875, 0.08894277, -0.7152415, -136966.94, 121998.63, 0.0000019634658, 10.001789, 9.997775 
2.0353182e+3, 2.8356674e+2, 11886.511, -300243.5, -5402.2427, 0.107961275, -0.65302604, 11979.983, 172963.28, 0.000016146072, 10.0020485, 9.997939 
2.0353518e+3, 2.9356614e+2, 226393.55, -91250.01, 61664.0, -0.025793785, -0.5698397, 237944.31, 300931.34, 0.00006227005, 10.002619, 9.998413 
2.0353885e+3, 3.0356207e+2, 166485.92, -215846.03, 2953.433, 0.16301633, -0.7655054, 166508.73, 166508.73, 0.00015436458, 10.002378, 9.99736 
2.0354228e+3, 3.1356168e+2, 182549.14, 32550.463, 94528.195, 0.22502877, -0.5946747, 228216.63, 228216.63, 0.00029086813, 10.001462, 9.999472 
2.0447563e+3, 1.23532005e+2, -2420549.5, -2405113.5, 133354.27, -0.2429601, -0.7185904, -2279254.0, -549930.4, 0.3294151, 9.996561, 9.996915 
2.0447922e+3, 1.3353986e+2, -1604517.9, -1181019.3, -20876.758, 0.06764783, -0.42904928, -1179992.6, 451254.84, 0.23787552, 9.997697, 10.005031 
2.0448253e+3, 1.4353842e+2, -1740592.6, -1550109.8, 78678.88, -0.20132281, -0.87142825, -1521814.5, 11446.156, 0.14372098, 9.998105, 10.00069 
2.0448618e+3, 1.5354128e+2, -1801818.1, -1560229.0, 48943.254, -0.17164893, -0.6495059, -1550690.3, -115453.555, 0.06692591, 9.997188, 10.0003605 
2.0448971e+3, 1.635428e+2, -1643924.5, -1325155.9, -11972.185, -0.13607834, -0.5658192, -1324706.9, 12515.548, 0.021061258, 9.997113, 10.001348 
2.0449331e+3, 1.7354347e+2, -1233736.6, -1040042.56, -84849.445, 0.03404384, -0.6862987, -1008131.0, 231079.88, 0.003256253, 9.999123, 10.001653 
2.0449682e+3, 1.8354401e+2, -1158443.9, -1219794.8, -90568.18, 0.10182804, -0.6877626, -1093497.3, 47706.574, 0.00007088071, 10.000099, 9.999288 
2.045001e+3, 1.9354385e+2, -1162278.8, -1200568.4, -47568.547, -0.092715114, -0.6259593, -1130146.9, -86938.03, 0.0, 9.999545, 9.998998 
2.0450352e+3, 2.0354359e+2, -1021837.9, -1070184.5, 11347.07, -0.18573335, -0.5470933, -1019307.2, -74093.42, 0.0, 9.999761, 9.999138 
2.0450719e+3, 2.135435e+2, -655298.25, -818779.6, -21614.107, -0.082089715, -0.5069064, -652488.94, 194725.67, 0.0, 10.001527, 9.999325 
2.0451088e+3, 2.2354227e+2, -471682.3, -744341.44, -21683.453, 0.04515837, -0.5271151, -469968.7, 279255.44, 0.0, 10.0023775, 9.99876 
2.0451462e+3, 2.3353888e+2, -471892.53, -692137.3, -20859.24, 0.18076448, -0.7655715, -469934.38, 181316.39, 0.0, 10.001707, 9.998756 
2.0451818e+3, 2.4353673e+2, -480701.75, -668625.06, -53074.08, 0.19761226, -0.83609086, -466748.4, 86519.875, 0.0, 10.001048, 9.998576 
2.0452143e+3, 2.5353697e+2, -461015.3, -588458.7, -76543.18, 0.0014445261, -0.70788145, -425141.25, 30126.756, 0.0, 10.00045, 9.998727 
2.0452486e+3, 2.635361e+2, -415089.06, -607396.5, -36664.305, -0.03801408, -0.6215678, -408335.97, -51057.293, 0.00000011200642, 10.000461, 9.997933 
2.0452857e+3, 2.7353364e+2, -164916.97, -431535.6, -20778.719, 0.17342944, -0.69327205, -163307.31, 95998.21, 0.000002326167, 10.001509, 9.997947 
2.0453209e+3, 2.8353176e+2, 46501.406, -284617.4, 3287.9585, 0.18095635, -0.6588594, 46534.05, 207858.19, 0.000014696717, 10.00228, 9.997935 
2.0453532e+3, 2.9353058e+2, 182856.83, -115807.95, -51959.293, -0.1052755, -0.62251794, 191638.1, 254970.98, 0.00005375532, 10.002354, 9.9983635 
2.0453918e+3, 3.035265e+2, 139505.03, -303243.44, -121163.39, 0.27045813, -0.78537005, 170493.86, 170493.86, 0.00013253847, 10.002507, 9.996686 
2.0454252e+3, 3.135251e+2, 371248.75, 85757.64, -32175.457, 0.26053342, -0.6281977, 374830.06, 374830.06, 0.00025389736, 10.002868, 9.999168 
2.0547532e+3, 1.23494245e+2, -2324404.0, -2226441.0, -43674.324, -0.26268858, -0.8960249, -2209797.5, -480108.88, 0.3476065, 9.996645, 9.998102 
2.054792e+3, 1.3350636e+2, -1563677.4, -1106447.8, 29263.166, 0.25037292, -0.27629432, -1104582.5, 526983.56, 0.2513395, 9.997719, 10.005775 
2.054822e+3, 1.4350094e+2, -1723588.9, -1533927.1, 48763.34, -0.38993987, -1.1516718, -1522124.3, 11491.694, 0.15236652, 9.998186, 10.000763 
2.0548594e+3, 1.5350412e+2, -1770837.1, -1504496.9, 26076.871, -0.14259967, -0.9276179, -1501967.8, -66379.484, 0.071473114, 9.997215, 10.000733 
2.0548955e+3, 1.6350669e+2, -1735075.5, -1531792.3, 35724.887, -0.03820466, -0.70046926, -1525696.8, -188128.64, 0.022826005, 9.997182, 9.999901 
2.0549306e+3, 1.7350867e+2, -1361489.4, -1299272.1, -1099.2133, -0.13563389, -0.51259166, -1299252.6, -59696.965, 0.0036400491, 9.999098, 9.999884 
2.0549661e+3, 1.8350929e+2, -1089926.1, -1093517.9, -109030.055, -0.15218677, -0.43879983, -982677.1, 158874.7, 0.00008593674, 10.000152, 10.000136 
2.0550013e+3, 1.9350748e+2, -1069043.4, -1008201.0, -62267.836, -0.033736143, -0.6735088, -969320.44, 74242.875, 0.0, 9.999534, 10.000333 
2.0550372e+3, 2.0350586e+2, -1068785.1, -1146634.0, 56518.188, 0.014530689, -0.7879056, -1039084.4, -93509.2, 0.0, 9.999671, 9.998656 
2.055074e+3, 2.1350485e+2, -739170.94, -951642.44, 57728.902, -0.043077223, -0.7619405, -724499.06, 123086.625, 0.0, 10.001342, 9.998504 
2.0551103e+3, 2.2350411e+2, -512345.9, -762852.56, -43094.56, -0.05003708, -0.6856139, -505139.66, 244453.22, 0.0, 10.002102, 9.998763 
2.0551467e+3, 2.3350391e+2, -488148.13, -676740.7, -36231.836, 0.046150073, -0.6230453, -481426.94, 170167.0, 0.0, 10.001501, 9.9989605 
2.0551817e+3, 2.4350297e+2, -523857.72, -689485.44, -87685.93, 0.051854227, -0.5850144, -486060.8, 67542.086, 0.0, 10.000765, 9.998565 
2.0552143e+3, 2.5350103e+2, -495025.66, -612385.9, -86986.08, -0.063467525, -0.66878426, -448777.56, 6845.8145, 0.0, 10.00026, 9.998652 
2.0552492e+3, 2.6349974e+2, -404023.88, -529266.5, -15674.219, -0.049124926, -0.6500703, -402092.03, -44455.34, 0.00000017468948, 10.000229, 9.99858 
2.0552874e+3, 2.7349952e+2, -137378.14, -335368.28, 32361.504, 0.16669863, -0.5684621, -132222.88, 127414.92, 0.0000023499456, 10.001333, 9.998695 
2.0553228e+3, 2.8349724e+2, -76028.17, -451876.84, -1225.3805, 0.103449024, -0.5784826, -76024.18, 85635.555, 0.000012296112, 10.001922, 9.996954 
2.0553546e+3, 2.9349175e+2, 57662.383, -325089.53, -28319.14, -0.25480297, -0.86044824, 59746.32, 123460.21, 0.000044415407, 10.002135, 9.997028 
2.055395e+3, 3.0349025e+2, 64481.133, -349154.84, -127263.53, 0.3084451, -0.6781522, 100499.89, 100499.89, 0.00011238554, 10.002069, 9.996567 
2.0554265e+3, 3.134877e+2, 248056.34, -18274.635, -40515.95, 0.053305443, -0.66703784, 254083.48, 254083.48, 0.00022330377, 10.002248, 9.998738 
2.0647529e+3, 1.2345823e+2, -1963022.5, -1950747.6, 51317.47, -0.03878507, -0.9566574, -1905201.9, -175161.72, 0.36771804, 9.998683, 9.998995 
2.0647892e+3, 1.3346922e+2, -1645327.3, -1249690.3, -78828.88, 0.23941578, -0.35507202, -1234562.4, 397367.44, 0.26616043, 9.997606, 10.0045805 
2.0648193e+3, 1.4346486e+2, -1987612.9, -1638042.8, -120941.7, -0.3637024, -1.0629827, -1600279.6, -66309.836, 0.1618756, 9.996266, 10.000967 
2.0648569e+3, 1.5346818e+2, -1692006.6, -1414765.8, -146539.77, -0.09707285, -0.87663007, -1351669.8, 84269.65, 0.07651462, 9.997512, 10.001247 
2.0648938e+3, 1.6347082e+2, -1597470.0, -1516038.6, -46740.555, 0.03183606, -0.6515214, -1494766.9, -156848.77, 0.024829434, 9.998349, 9.999438 
2.0649295e+3, 1.734716e+2, -1483669.4, -1428182.3, -8803.87, -0.12697557, -0.5209464, -1426818.9, -186899.34, 0.0041003036, 9.998568, 9.9992485 
2.0649654e+3, 1.8347171e+2, -1267349.5, -1159389.8, -97043.05, -0.15276514, -0.46876886, -1102323.9, 39597.684, 0.000108260756, 9.998869, 10.000288 
2.0650017e+3, 1.9347103e+2, -1000121.5, -936685.7, -152172.23, 0.032529496, -0.62071323, -812960.94, 230959.69, 0.0, 9.999861, 10.000654 
2.0650378e+3, 2.0346968e+2, -972750.94, -1093730.1, -32759.316, 0.11250977, -0.7280097, -964449.8, -18521.559, 0.0, 10.000303, 9.998707 
2.0650744e+3, 2.1346718e+2, -949797.06, -1053910.6, 7956.059, -0.023145827, -0.84851444, -949192.56, -101241.66, 0.0, 9.999907, 9.998487 
2.0651111e+3, 2.2346587e+2, -851156.2, -922659.75, -58788.316, -0.0737523, -0.827412, -818102.0, -68138.72, 0.0, 9.999737, 9.998818 
2.065147e+3, 2.3346688e+2, -704073.6, -770322.1, -81288.54, 0.023022069, -0.6514443, -649419.5, 2535.9783, 0.0, 9.99997, 9.999059 
2.0651822e+3, 2.4346672e+2, -565111.1, -690303.7, -101683.29, 0.06319109, -0.5489679, -508301.44, 45657.02, 0.0, 10.000395, 9.99874 
2.0652153e+3, 2.534645e+2, -345575.06, -516962.38, -106734.195, -0.008715281, -0.67955047, -294390.7, 161590.02, 0.0, 10.001188, 9.998857 
2.0652507e+3, 2.6346296e+2, -193620.98, -413581.4, -12916.839, 0.026445976, -0.70223075, -192865.06, 165130.42, 0.00000012472299, 10.001606, 9.998714 
2.0652886e+3, 2.7346265e+2, -124069.8, -310573.1, -28090.3, 0.17443596, -0.63979656, -119930.82, 140066.14, 0.0000018192295, 10.001349, 9.998857 
2.065324e+3, 2.8346083e+2, -115341.18, -413780.44, -12895.305, 0.091562055, -0.63976383, -114785.02, 47229.563, 0.000008845643, 10.001392, 9.997479 
2.0653564e+3, 2.9345658e+2, 68113.17, -268627.3, 37939.043, -0.23460373, -0.84889936, 72334.67, 136392.23, 0.000033872344, 10.001984, 9.997494 
2.0653984e+3, 3.034557e+2, 222413.13, -289072.22, 60424.695, 0.39726537, -0.6254415, 229454.5, 229454.5, 0.00009226444, 10.003156, 9.9965 
2.06543e+3, 3.1345195e+2, 512616.9, 27818.354, -52458.16, 0.089346044, -0.7124635, 518228.25, 518228.25, 0.00019349634, 10.004379, 9.99806 
2.0747554e+3, 1.2342589e+2, -1923009.3, -1889657.4, 233176.9, 0.2669109, -0.705524, -1672560.9, 57798.793, 0.38886976, 9.998836, 9.999481 
2.0747837e+3, 1.3342793e+2, -1859607.9, -1609318.9, -182066.52, -0.12930672, -0.68978196, -1513535.0, 118808.82, 0.28190908, 9.997711, 10.001368 
2.0748168e+3, 1.4343011e+2, -1958100.8, -1584715.9, -116921.02, -0.25323185, -0.5824483, -1551125.4, -16801.414, 0.17213808, 9.996301, 10.001318 
2.0748542e+3, 1.5343334e+2, -1635632.9, -1310429.4, -89456.734, -0.14523347, -0.4780431, -1287446.0, 148845.47, 0.08207624, 9.997538, 10.001994 
2.0748916e+3, 1.6343503e+2, -1541205.9, -1417346.5, -48238.805, -0.06495999, -0.41875935, -1400776.0, -62501.492, 0.027111659, 9.9984255, 10.000078 
2.0749292e+3, 1.7343225e+2, -1439811.1, -1336574.8, 3077.611, -0.033837087, -0.7064459, -1336483.1, -96180.55, 0.0046569863, 9.998568, 9.999874 
2.0749661e+3, 1.8343125e+2, -1299829.4, -1241828.5, -73204.016, -0.007834539, -0.7751109, -1192089.8, -49777.074, 0.00014131474, 9.998933, 9.999692 
2.0750014e+3, 1.9343433e+2, -1066663.5, -1061826.3, -107477.125, 0.021936337, -0.4704719, -956740.5, 87541.88, 0.0000000002137382, 9.999802, 9.999826 
2.075037e+3, 2.0343475e+2, -951033.5, -1025400.4, -50845.074, -0.009874743, -0.37589246, -925226.2, 21049.447, 0.0, 10.000198, 9.999227 
2.0750734e+3, 2.1343021e+2, -915389.0, -952185.9, 3316.723, -0.12371725, -0.7772298, -915092.44, -66779.195, 0.0, 9.999766, 9.999254 
2.0751101e+3, 2.2342737e+2, -878747.44, -918485.3, -58526.38, -0.143067, -0.9637727, -836809.3, -86471.85, 0.0, 9.999488, 9.998958 
2.075147e+3, 2.3342788e+2, -735625.56, -785580.9, -58742.45, 0.012940803, -0.83816415, -696770.94, -44436.164, 0.0, 9.999765, 9.999047 
2.0751831e+3, 2.4342798e+2, -581553.44, -665269.2, -81417.91, 0.087994285, -0.7227768, -531863.75, 22471.488, 0.0, 10.000145, 9.999028 
2.0752172e+3, 2.5342724e+2, -347541.28, -480672.28, -66641.695, 0.05191644, -0.73663306, -319915.06, 136426.4, 0.0, 10.001015, 9.999187 
2.075253e+3, 2.634257e+2, -260852.75, -483819.97, -29173.092, 0.054514106, -0.7611322, -257098.92, 101257.03, 0.000000021824269, 10.001319, 9.998367 
2.0752893e+3, 2.734231e+2, -182244.44, -378988.66, -23544.26, 0.08738628, -0.89559734, -179466.14, 80916.48, 0.00000084431264, 10.001136, 9.9984865 
2.0753245e+3, 2.8342223e+2, -47564.0, -192141.67, -12400.223, -0.018435532, -0.8508631, -46508.16, 115883.3, 0.000005133315, 10.001054, 9.99916 
2.0753591e+3, 2.9342425e+2, 162118.72, -18679.244, 76583.13, -0.18478474, -0.62945414, 190197.39, 254569.06, 0.000023723636, 10.001728, 9.99934 
2.0754014e+3, 3.0342245e+2, 114316.46, -353210.9, 90544.68, 0.35344228, -0.5990014, 131239.44, 131239.44, 0.00007269625, 10.002524, 9.996336 
2.0754339e+3, 3.1341836e+2, 316477.84, -174697.84, -76380.82, -0.0005342306, -0.68718094, 328081.4, 328081.4, 0.00016043706, 10.003598, 9.997001 
2.0847552e+3, 1.2339188e+2, -1850164.8, -1766025.3, 267388.5, 0.37141687, -0.5068765, -1537417.3, 193276.66, 0.40993002, 9.9990835, 10.000589 
2.0847803e+3, 1.3338941e+2, -1877826.0, -1756277.8, -221103.23, -0.24643737, -0.8091976, -1587748.3, 44975.94, 0.29801235, 9.998259, 9.999921 
2.0848155e+3, 1.4339386e+2, -1700781.3, -1470256.5, 31588.418, -0.11870983, -0.4063244, -1466006.4, 68677.11, 0.18298064, 9.998069, 10.001344 
2.0848526e+3, 1.5339564e+2, -1430030.4, -1222157.8, -3617.809, -0.12620382, -0.4457608, -1222094.8, 214568.33, 0.088167645, 9.998959, 10.001977 
2.0848899e+3, 1.6339657e+2, -1409088.8, -1334143.6, -25889.512, -0.10708632, -0.47009185, -1326070.0, 12581.51, 0.029713616, 9.999241, 10.000271 
2.084928e+3, 1.7339392e+2, -1391907.8, -1289031.4, -36259.746, -0.011754057, -0.7661017, -1277535.9, -36860.793, 0.005333032, 9.998777, 10.000111 
2.0849653e+3, 1.8339296e+2, -1349088.9, -1253042.1, -58978.13, 0.06038885, -0.8494763, -1225008.6, -82325.28, 0.00018960002, 9.998541, 9.999812 
2.085001e+3, 1.9339581e+2, -1141512.8, -1085773.4, -36084.25, 0.03047173, -0.5762452, -1068049.4, -23393.64, 0.000000020895914, 9.999239, 9.999935 
2.085037e+3, 2.0339653e+2, -1021927.8, -1050078.3, 33595.03, -0.027409593, -0.4611574, -999578.6, -52931.305, 0.0, 9.999699, 9.999291 
2.0850733e+3, 2.1339332e+2, -872630.6, -919294.6, 9968.074, -0.124532156, -0.7353435, -870590.5, -21916.086, 0.0, 10.000033, 9.99934 
2.0851101e+3, 2.2339109e+2, -772240.1, -859066.94, -65023.832, -0.121871516, -0.8696402, -737469.0, 13225.147, 0.0, 10.000169, 9.999046 
2.0851469e+3, 2.3339076e+2, -693170.5, -752640.7, -79788.13, 0.029225409, -0.83826166, -637756.75, 14942.165, 0.0, 9.999985, 9.999175 
2.0851831e+3, 2.4339052e+2, -582616.7, -643975.25, -56964.92, 0.11138728, -0.7755202, -548594.94, 6107.077, 0.0, 10.00003, 9.999236 
2.0852183e+3, 2.5339025e+2, -392231.06, -480009.56, -62086.816, 0.071559355, -0.76051867, -360087.2, 96615.71, 0.0, 10.000595, 9.999403 
2.0852539e+3, 2.6338926e+2, -318464.97, -491126.78, -21977.26, 0.07988217, -0.7536655, -315711.5, 43000.754, 0.0, 10.000837, 9.998546 
2.0852901e+3, 2.73387e+2, -266774.34, -405815.44, -11987.713, 0.102865435, -0.8592773, -265748.38, -5012.272, 0.000000115745564, 10.0005045, 9.9986 
2.0853257e+3, 2.833863e+2, -107222.33, -182264.61, 25652.85, 0.02827881, -0.8228055, -99291.24, 63453.41, 0.0000020138657, 10.0004635, 9.999511 
2.0853609e+3, 2.9338828e+2, 56471.316, -13427.147, -21969.258, -0.12111469, -0.6422033, 62802.797, 127528.09, 0.000014504671, 10.000784, 9.999819 
2.0854023e+3, 3.033876e+2, 72187.88, -276063.56, 46203.89, 0.25519162, -0.5689373, 78213.67, 78213.67, 0.000053401807, 10.001753, 9.997261 
2.0854379e+3, 3.1338418e+2, 397155.6, -41139.023, -158416.23, 0.07856478, -0.6754385, 448417.7, 448417.7, 0.00012549982, 10.003633, 9.997934 
2.0947492e+3, 1.23352826e+2, -1725616.8, -1575178.8, 216155.81, -0.21216004, -0.67849326, -1421528.4, 309547.03, 0.42994058, 9.999225, 10.002377 
2.094779e+3, 1.3335375e+2, -1834008.6, -1674321.0, -223203.56, -0.22767669, -0.6954454, -1517110.3, 115959.266, 0.31401625, 9.998299, 10.000628 
2.094814e+3, 1.4335603e+2, -1710172.4, -1509812.8, 41587.906, -0.10911992, -0.5436056, -1501523.5, 33525.08, 0.19429262, 9.998169, 10.000984 
2.0948516e+3, 1.5335497e+2, -1477554.8, -1328398.1, 35152.49, -0.15795563, -0.788597, -1320528.8, 116526.45, 0.094824284, 9.999022, 10.001159 
2.0948882e+3, 1.6335523e+2, -1411420.0, -1369099.3, -47335.313, -0.23950939, -0.81769884, -1338409.9, 640.6453, 0.032688897, 9.999367, 9.999969 
2.0949255e+3, 1.7335664e+2, -1400228.6, -1313944.8, -49546.17, -0.15806247, -0.68880814, -1291390.0, -50353.082, 0.0061590113, 9.998802, 9.999931 
2.0949626e+3, 1.8335694e+2, -1284415.4, -1130153.0, -51988.24, -0.0782173, -0.67214465, -1114268.0, 28764.354, 0.00026052183, 9.998589, 10.000631 
2.0949997e+3, 1.9335559e+2, -1077778.4, -943802.1, -2762.4746, -0.046776228, -0.91838527, -943745.2, 101294.51, 0.00000016154512, 9.999198, 10.000929 
2.0950364e+3, 2.0335509e+2, -1068006.1, -1121572.3, 36585.098, -0.060512893, -0.9642614, -1049448.3, -102405.61, 0.0, 9.999596, 9.998847 
2.0950735e+3, 2.1335639e+2, -950448.56, -1039570.9, 31109.178, -0.120796256, -0.7175146, -940663.8, -91628.25, 0.0, 9.999859, 9.998594 
2.0951104e+3, 2.2335672e+2, -804001.75, -868376.8, -76980.14, -0.1315514, -0.55529237, -752750.8, -1714.756, 0.0, 9.999926, 9.999099 
2.0951465e+3, 2.3335527e+2, -706474.06, -737619.4, -76472.7, -0.03729809, -0.6549992, -644004.56, 9045.631, 0.0, 9.999802, 9.999368 
2.0951824e+3, 2.4335407e+2, -608665.7, -636384.5, -49529.0, -0.00033594164, -0.7069656, -571093.5, -16032.254, 0.0, 9.999767, 9.999413 
2.0952177e+3, 2.533534e+2, -406702.38, -467605.47, -29459.953, -0.041243516, -0.7513397, -394784.28, 62281.418, 0.0, 10.000411, 9.9995775 
2.0952539e+3, 2.6335326e+2, -320121.3, -431223.66, -40986.125, -0.03138564, -0.6938578, -306637.75, 52428.773, 0.0, 10.000574, 9.99908 
2.0952907e+3, 2.7335384e+2, -259243.7, -346841.25, -12573.1045, 0.09500527, -0.5731294, -257474.77, 3588.646, 0.0, 10.000318, 9.999095 
2.095327e+3, 2.833526e+2, -222541.33, -335572.2, 19992.16, 0.07740864, -0.5777298, -219109.45, -56031.406, 0.00000039293647, 10.000104, 9.998629 
2.0953615e+3, 2.933491e+2, -36820.094, -149675.2, 13018.221, -0.15718266, -0.8458292, -35337.863, 29775.508, 0.000007667558, 10.000542, 9.998999 
2.0954007e+3, 3.033502e+2, 88883.93, -82171.445, 91326.27, -0.1201591, -0.6220367, 128478.08, 128478.08, 0.000037309004, 10.0011215, 9.998876 
2.0954421e+3, 3.133482e+2, 468098.5, 347856.06, 19085.287, 0.0812148, -0.7754891, 471055.1, 471055.1, 0.00009605795, 10.002672, 10.00104 
2.104747e+3, 1.23314254e+2, -1885910.4, -1576588.6, 226401.69, -0.2537839, -0.75760996, -1457064.0, 274385.44, 0.44859928, 9.997456, 10.003339 
2.1047793e+3, 1.333167e+2, -1816287.6, -1611647.1, -228223.64, -0.0140457805, -0.7083705, -1463856.5, 169572.05, 0.3298663, 9.998131, 10.001313 
2.1048118e+3, 1.4331894e+2, -1704449.8, -1571487.8, 41145.832, -0.1463488, -0.56448066, -1559785.0, -24376.385, 0.20615475, 9.998531, 10.00032 
2.1048506e+3, 1.5331714e+2, -1517887.3, -1420386.9, 19319.275, -0.14024404, -0.81251675, -1416698.4, 20726.78, 0.10215144, 9.999126, 10.00039 
2.1048875e+3, 1.633168e+2, -1417130.9, -1344382.8, -60488.434, -0.21576294, -0.8650312, -1310174.0, 29252.912, 0.036114734, 9.9992075, 10.000215 
2.104924e+3, 1.7331924e+2, -1381603.1, -1249134.9, -41069.395, -0.16092752, -0.684625, -1237435.4, 3966.2751, 0.007176738, 9.998695, 10.00042 
2.1049614e+3, 1.8331996e+2, -1284088.5, -1159787.5, 17534.73, -0.07040147, -0.6406251, -1157361.4, -13969.581, 0.0003661867, 9.998713, 10.000371 
2.1049993e+3, 1.9331758e+2, -979936.9, -940158.06, -47600.066, -0.03986996, -0.9493958, -908459.1, 136951.9, 0.00000091193453, 10.000064, 10.000534 
2.1050367e+3, 2.0331684e+2, -896560.3, -1007469.2, -69851.75, -0.035109367, -1.0104882, -862826.94, 84590.88, 0.0, 10.000596, 9.999164 
2.1050738e+3, 2.1331912e+2, -936224.56, -987296.1, -15296.167, -0.07162167, -0.7079294, -931993.75, -82592.78, 0.0, 9.99972, 9.9990425 
2.1051106e+3, 2.2332004e+2, -889860.9, -913779.44, -30311.867, -0.064604856, -0.5117086, -869234.4, -117838.664, 0.0, 9.99937, 9.9990425 
2.1051468e+3, 2.3331818e+2, -629747.2, -717845.25, -73195.63, -0.009243134, -0.63651973, -588368.4, 65045.33, 0.0, 10.000412, 9.999197 
2.1051829e+3, 2.4331668e+2, -466082.34, -587555.2, -75655.805, 0.032231852, -0.69799805, -429799.63, 125628.336, 0.0, 10.00083, 9.999243 
2.1052185e+3, 2.53316e+2, -484436.7, -521989.28, -104665.26, 0.0201682, -0.72452635, -396876.9, 60556.867, 0.0, 9.999964, 9.999416 
2.1052547e+3, 2.6331586e+2, -432328.8, -458011.22, -106988.79, 0.043990858, -0.6684201, -337413.34, 22021.66, 0.0, 9.999662, 9.999348 
2.1052912e+3, 2.7331656e+2, -209776.81, -285768.7, -113109.71, 0.118508995, -0.5662454, -128451.766, 132977.77, 0.0, 10.0004835, 9.999439 
2.1053277e+3, 2.833157e+2, -66643.24, -273072.47, -36628.887, 0.104121625, -0.5458527, -60336.48, 103103.445, 0.00000006547354, 10.001254, 9.99849 
2.105363e+3, 2.933122e+2, 96072.66, -121544.16, -40588.08, -0.09834062, -0.7764354, 103396.336, 168873.03, 0.000004738257, 10.001634, 9.99866 
2.1054016e+3, 3.0331194e+2, 136373.66, -28923.828, 42657.477, -0.09306023, -0.6821413, 146732.84, 146732.84, 0.00002905632, 10.00128, 9.999174 
2.1054433e+3, 3.133115e+2, 146215.92, 322780.34, -151128.22, 0.10654637, -0.7179081, 409522.38, 409522.38, 0.00007990105, 9.999863, 10.002231 
2.1147484e+3, 1.2327559e+2, -1889805.9, -1607441.4, 116514.47, 0.066746905, -0.8587046, -1565571.6, 166249.53, 0.46656317, 9.997467, 10.002798 
2.1147805e+3, 1.3327827e+2, -1774563.1, -1555244.3, -189496.31, 0.2607999, -0.8605216, -1445965.3, 187835.73, 0.34608045, 9.998195, 10.001771 
2.1148084e+3, 1.4328246e+2, -1765306.8, -1738606.1, 50114.883, -0.39624277, -0.48087603, -1700093.9, -164328.23, 0.21890919, 9.998693, 9.9991 
2.1148495e+3, 1.5328214e+2, -1548967.4, -1512113.4, 45832.78, -0.18736537, -0.50275254, -1481142.0, -43368.824, 0.110347085, 9.99924, 9.999691 
2.1148874e+3, 1.632814e+2, -1342124.3, -1212136.6, -82173.836, -0.16696759, -0.59606373, -1172360.5, 167419.73, 0.040102176, 9.999296, 10.001111 
2.1149233e+3, 1.7328162e+2, -1299479.1, -1084577.8, -53748.71, -0.12015671, -0.74742246, -1071884.5, 169884.89, 0.008443992, 9.99871, 10.001551 
2.1149604e+3, 1.8328181e+2, -1374274.4, -1353342.8, 44372.44, -0.047324225, -0.77313066, -1318218.6, -174454.67, 0.00052604213, 9.998742, 9.999026 
2.1149993e+3, 1.9328165e+2, -1120230.4, -1217647.3, 11301.776, -0.04711802, -0.67766196, -1118936.4, -73164.83, 0.0000034897541, 10.000006, 9.998655 
2.1150371e+3, 2.0328154e+2, -843193.9, -863226.8, -98746.555, -0.076884784, -0.6086785, -753957.06, 193818.05, 0.0, 10.000456, 10.000221 
2.1150735e+3, 2.1328157e+2, -848657.06, -759844.44, -42698.207, -0.07689248, -0.6913548, -742646.7, 107123.625, 0.0, 9.999542, 10.000683 
2.1151102e+3, 2.2328106e+2, -941643.94, -961307.75, -10517.956, -0.05431351, -0.7266046, -937078.1, -185305.27, 0.0, 9.999113, 9.9988365 
2.1151474e+3, 2.3327947e+2, -701401.0, -821141.5, -20976.928, 0.016326265, -0.76675814, -697832.5, -44042.723, 0.0, 10.0002165, 9.998581 
2.115184e+3, 2.432783e+2, -544818.4, -686458.8, -104691.22, 0.06474673, -0.737777, -489243.38, 66559.46, 0.0, 10.000558, 9.998687 
2.1152197e+3, 2.5327787e+2, -546876.8, -615812.44, -127169.46, 0.13562189, -0.6884097, -449586.9, 8221.93, 0.0, 9.999817, 9.998836 
2.1152556e+3, 2.6327693e+2, -473619.44, -482135.28, -91714.2, 0.15695295, -0.6748843, -386064.38, -26245.873, 0.0, 9.999406, 9.9993 
2.1152912e+3, 2.732755e+2, -219263.83, -269722.97, -61861.96, 0.06162959, -0.80322987, -177684.47, 84146.36, 0.0, 10.000326, 9.999623 
2.1153274e+3, 2.8327543e+2, -103650.016, -270926.94, -29117.21, -0.07550796, -0.72416764, -98726.62, 65105.09, 0.00000005479561, 10.0009165, 9.998666 
2.1153648e+3, 2.932768e+2, 54301.133, -155331.19, -2972.131, -0.11331505, -0.49195248, 54343.26, 120166.41, 0.0000044706885, 10.001388, 9.99855 
2.1154048e+3, 3.0327237e+2, -47769.375, -214890.88, -26397.174, 0.043607254, -0.75618064, -43699.023, -43699.023, 0.000027145721, 10.000504, 9.998238 
2.1154425e+3, 3.132741e+2, -49044.824, 98511.48, -22206.035, -0.04905971, -0.50626844, 101780.87, 101780.87, 0.00007500409, 9.999135, 10.001022 
2.1247344e+3, 1.2323749e+2, -2105424.3, -1863715.6, -104744.31, -1.0519882, -0.82075477, -1824641.5, -92443.82, 0.48543465, 9.99697, 10.000413 
2.1247779e+3, 1.332403e+2, -1759041.4, -1539537.1, -209235.52, 0.1935816, -0.87059087, -1413016.0, 221157.73, 0.3637423, 9.998324, 10.00191 
2.1248083e+3, 1.432443e+2, -1579493.1, -1616608.0, 23757.32, -0.29166442, -0.5216906, -1567904.4, -31766.398, 0.23315269, 9.999813, 9.999402 
2.1248484e+3, 1.5324488e+2, -1647719.6, -1504400.9, 75846.09, -0.1571964, -0.49799648, -1471716.1, -33580.71, 0.1197026, 9.998294, 10.000223 
2.1248865e+3, 1.6324449e+2, -1591395.9, -1348359.0, 15996.664, -0.1154061, -0.58486146, -1347310.6, -7171.448, 0.044803485, 9.997661, 10.0009365 
2.1249233e+3, 1.7324401e+2, -1196025.9, -1080703.1, -73599.414, -0.036966793, -0.76564777, -1044867.44, 197269.78, 0.01004214, 9.999613, 10.001149 
2.1249609e+3, 1.8324402e+2, -1164054.8, -1277069.3, -19736.246, 0.046209544, -0.77525264, -1160707.3, -16572.008, 0.0007722133, 10.000282, 9.9988 
2.1249993e+3, 1.9324447e+2, -1308634.9, -1333332.3, 45711.17, 0.011697382, -0.5990519, -1273633.9, -227495.81, 0.000010944595, 9.998806, 9.998439 
2.1250369e+3, 2.0324446e+2, -1185109.1, -1031933.4, -1886.0885, -0.009273007, -0.507999, -1031910.1, -83769.08, 0.0, 9.998152, 10.000161 
2.1250735e+3, 2.132435e+2, -864304.6, -770008.4, -88942.055, 0.00013904835, -0.68539095, -716490.5, 133654.67, 0.0, 9.999468, 10.000635 
2.1251106e+3, 2.2324237e+2, -767936.94, -865803.44, -94158.12, 0.03214206, -0.78235567, -710756.06, 41396.71, 0.0, 10.000234, 9.998966 
2.1251474e+3, 2.3324114e+2, -745449.8, -818045.7, -65757.84, 0.027277647, -0.8046026, -706636.94, -52471.805, 0.0, 9.999815, 9.998796 
2.1251841e+3, 2.432403e+2, -652205.06, -727142.8, -88886.26, 0.057928447, -0.759685, -593213.2, -37039.008, 0.0, 9.999784, 9.998775 
2.1252201e+3, 2.5323993e+2, -426645.3, -554357.94, -95280.3, 0.17800067, -0.7040706, -375802.2, 82377.625, 0.0, 10.00063, 9.99887 
2.1252567e+3, 2.6323882e+2, -233898.6, -370265.5, -12363.2705, 0.2516153, -0.705048, -232786.78, 127403.69, 0.0, 10.001085, 9.999251 
2.1252923e+3, 2.7323675e+2, -181024.56, -257403.53, -27895.379, 0.12569658, -0.8840239, -171921.47, 90286.14, 0.0, 10.000646, 9.999548 
2.1253282e+3, 2.832366e+2, -201225.19, -339113.84, 9077.679, -0.039950613, -0.801958, -200630.14, -36421.48, 0.000000117451826, 10.000314, 9.998508 
2.1253654e+3, 2.9323855e+2, -104861.13, -247931.1, -21842.709, -0.116199896, -0.4846426, -101600.68, -35405.496, 0.0000050467984, 10.000359, 9.998415 
2.1254066e+3, 3.0323377e+2, 38462.434, -184473.1, 654.6225, 0.1744485, -0.78477484, 38464.355, 38464.355, 0.00002697455, 10.001058, 9.998233 
2.1254434e+3, 3.132368e+2, 189830.25, 67650.02, -26411.182, 0.05220252, -0.37331575, 195295.02, 195295.02, 0.00007158717, 10.001324, 9.999808 
2.134771e+3, 1.3320279e+2, -1748120.5, -1536662.3, -138703.14, -0.35191014, -0.68086714, -1467986.0, 166561.53, 0.38411817, 9.998345, 10.001832 
2.1348117e+3, 1.432044e+2, -1457724.8, -1389815.0, -13916.44, 0.021931319, -0.665776, -1387073.9, 149452.42, 0.24951555, 9.999948, 10.001221 
2.1348472e+3, 1.5320526e+2, -1506377.0, -1253293.3, 14920.869, -0.15307043, -0.8078227, -1252416.6, 186096.2, 0.13052814, 9.998355, 10.002104 
2.1348836e+3, 1.6320564e+2, -1673591.8, -1538649.0, 53640.34, -0.19947055, -0.8712393, -1519924.9, -179417.56, 0.050404422, 9.997745, 9.999591 
2.1349233e+3, 1.7320624e+2, -1336225.9, -1369423.6, 7870.513, -0.012212439, -0.75226223, -1334454.5, -91948.14, 0.012084308, 9.999611, 9.999155 
2.134962e+3, 1.832066e+2, -1093069.3, -1150256.4, -62100.977, 0.08282342, -0.64487624, -1053295.3, 91210.67, 0.001155736, 10.000365, 9.999635 
2.1349986e+3, 1.9320612e+2, -1212119.1, -1131148.3, -5301.081, 0.037455596, -0.69791335, -1130802.8, -84292.55, 0.000030850606, 9.998789, 9.999839 
2.1350357e+3, 2.0320547e+2, -1286616.0, -1212679.6, 17643.96, 0.020462582, -0.70503783, -1208685.0, -260167.75, 0.0, 9.998027, 9.9989805 
2.135074e+3, 2.1320462e+2, -1010585.8, -1033447.06, -27657.361, 0.07164184, -0.70037705, -992090.06, -141561.8, 0.0, 9.999295, 9.99891 
2.1351114e+3, 2.2320387e+2, -775095.06, -811186.06, -103536.24, 0.059312895, -0.68143195, -688043.5, 64492.918, 0.0, 9.99995, 9.99947 
2.1351466e+3, 2.3320311e+2, -705456.4, -698261.3, -71944.82, -0.07292049, -0.7481845, -629824.1, 24716.219, 0.0, 9.999655, 9.999698 
2.1351823e+3, 2.4320243e+2, -647656.56, -662585.2, -73221.625, -0.123274475, -0.76253104, -581519.75, -24975.357, 0.0, 9.999553, 9.999326 
2.13522e+3, 2.53202e+2, -413909.1, -491766.6, -52057.348, 0.060508694, -0.769083, -387834.66, 70713.89, 0.0, 10.000473, 9.9993725 
2.1352573e+3, 2.6320118e+2, -291598.3, -425182.22, -31744.94, 0.19619504, -0.76368076, -284438.22, 76117.07, 0.0, 10.000821, 9.998996 
2.1352936e+3, 2.7319974e+2, -239346.73, -339854.63, -34681.418, 0.18813048, -0.83961946, -228541.2, 34025.098, 0.00000000014169585, 10.000478, 9.9990635 
2.1353291e+3, 2.8319845e+2, -298099.1, -446460.56, -7499.3643, 0.006965935, -0.81444716, -297720.97, -133142.52, 0.000000256191, 9.999942, 9.997931 
2.135365e+3, 2.931974e+2, -162693.1, -322502.34, 12207.82, -0.21576525, -0.75689197, -161765.92, -95171.42, 0.0000052967753, 10.00015, 9.998004 
2.1354064e+3, 3.0319494e+2, -20124.871, -124317.15, 18019.805, 0.02818459, -0.83926773, -17096.414, -17096.414, 0.000025200057, 10.000353, 9.998951 
2.1354443e+3, 3.131968e+2, -63011.35, -207080.25, 7596.3057, -0.038175896, -0.614165, -62611.93, -62611.93, 0.00006359548, 10.000332, 9.998361 
2.1447681e+3, 1.3316503e+2, -1822639.9, -1522143.6, 614.2024, -0.41605327, -0.61344546, -1522142.4, 112775.41, 0.40760165, 9.997386, 10.002358 
2.144811e+3, 1.4316505e+2, -1908067.5, -1536311.8, 26897.209, 0.1409308, -0.8121552, -1534375.8, 2532.4902, 0.26811564, 9.99652, 10.001543 
2.1448462e+3, 1.5316634e+2, -1451781.9, -1220392.6, -66363.45, -0.075775124, -0.9255199, -1202710.5, 236179.27, 0.14296411, 9.998688, 10.00223 
2.1448831e+3, 1.631673e+2, -1377590.3, -1422332.5, -57610.71, -0.10813185, -0.9258725, -1338159.5, 2719.5605, 0.057087187, 9.999907, 9.999339 
2.1449226e+3, 1.7316808e+2, -1422628.4, -1440969.8, 1291.8922, -0.013142557, -0.76147175, -1422537.9, -179659.14, 0.014719365, 9.999171, 9.998867 
2.1449609e+3, 1.831684e+2, -1270056.9, -1196481.0, -9372.341, 0.035100546, -0.654366, -1195305.9, -50426.45, 0.0017550356, 9.999003, 9.999972 
2.144998e+3, 1.9316763e+2, -896184.8, -926559.5, -41673.81, 0.03791668, -0.7783184, -867017.2, 179866.77, 0.00008036648, 10.000753, 10.000294 
2.1450357e+3, 2.0316689e+2, -807025.3, -1043402.06, -18354.736, 0.06884222, -0.79646456, -805608.56, 143283.2, 0.000000018813253, 10.001583, 9.998428 
2.1450742e+3, 2.1316642e+2, -844181.25, -1041387.1, -13076.43, 0.10847525, -0.6816027, -843317.94, 7585.8057, 0.0, 10.000812, 9.998124 
2.1451116e+3, 2.2316596e+2, -728873.1, -767142.2, -57565.4, 0.10453246, -0.5943374, -687345.44, 65566.06, 0.0, 10.000178, 9.999661 
2.1451467e+3, 2.3316532e+2, -622565.44, -611347.8, -89985.945, -0.020234063, -0.6816075, -526796.06, 128116.65, 0.0, 10.000034, 10.000109 
2.1451826e+3, 2.4316467e+2, -560134.94, -606140.5, -80358.03, -0.06105174, -0.7234144, -499552.2, 57363.227, 0.0, 10.000086, 9.999465 
2.1452202e+3, 2.5316405e+2, -405160.8, -476025.97, -100816.555, 0.06275694, -0.7527222, -333731.6, 125188.92, 0.0, 10.000485, 9.999473 
2.145258e+3, 2.6316333e+2, -299126.5, -462548.1, -100173.11, 0.18465573, -0.73341566, -251565.1, 109361.44, 0.0, 10.000892, 9.998716 
2.1452947e+3, 2.731622e+2, -163033.48, -340387.7, -132858.17, 0.22072536, -0.7402673, -91976.67, 170959.38, 0.00000000016893417, 10.001155, 9.998736 
2.1453303e+3, 2.831606e+2, -128912.914, -354737.1, -63796.5, 0.10319967, -0.73819417, -112136.41, 52815.29, 0.0000002738674, 10.001008, 9.998064 
2.1453658e+3, 2.9315832e+2, -116896.09, -251121.95, -21705.984, -0.15798162, -0.81812006, -113473.25, -46496.35, 0.0000047479944, 10.000262, 9.998429 
2.145407e+3, 3.0315813e+2, 60286.664, -49313.313, 71675.68, 0.06052138, -0.73245895, 95711.08, 95711.08, 0.000021563434, 10.000646, 9.999366 
2.1454465e+3, 3.1315792e+2, 149448.56, -112225.63, -97381.03, 0.0958486, -0.72926784, 181710.86, 181710.86, 0.000054127435, 10.001766, 9.998322 
2.1547689e+3, 1.3312748e+2, -1737085.5, -1430947.9, -33909.563, -0.14721403, -0.6230916, -1427236.9, 208042.84, 0.43279883, 9.997452, 10.003485 
2.1548049e+3, 1.4312573e+2, -1971408.8, -1709511.8, 30179.344, -0.20233098, -1.0231065, -1706079.1, -168790.66, 0.28823382, 9.996688, 10.00027 
2.1548454e+3, 1.5312819e+2, -1565741.9, -1450496.8, 19334.13, -0.046845824, -0.8477892, -1447339.6, -8073.449, 0.15688464, 9.998786, 10.000349 
2.1548848e+3, 1.6312972e+2, -1300593.3, -1298013.8, -72381.75, 0.016919337, -0.7180945, -1226910.3, 114342.57, 0.06501248, 10.000083, 10.00013 
2.1549207e+3, 1.7312954e+2, -1324338.9, -1238124.3, -28011.867, -0.15011306, -0.77973604, -1229822.4, 13432.25, 0.018139776, 9.999182, 10.000248 
2.1549575e+3, 1.8312925e+2, -1275583.4, -1223573.9, 25965.236, -0.2350462, -0.8050322, -1212830.3, -67572.87, 0.0026903055, 9.999063, 9.999761 
2.1549977e+3, 1.9312897e+2, -932947.9, -995051.7, 33963.18, -0.09692999, -0.83941007, -917981.06, 129279.09, 0.00019736934, 10.000724, 9.999833 
2.155037e+3, 2.0312873e+2, -824692.6, -1054407.1, -40765.855, -0.0019804027, -0.7813328, -817672.75, 131592.44, 0.0000007869328, 10.001471, 9.998408 
2.155074e+3, 2.1312867e+2, -859290.4, -1041691.5, -36738.57, 0.0074826037, -0.63061845, -852168.7, -895.1152, 0.0, 10.000673, 9.998189 
2.1551111e+3, 2.2312842e+2, -772692.56, -809629.0, -76782.19, 0.024221385, -0.52140474, -712188.75, 41091.35, 0.0, 9.999966, 9.999471 
2.1551476e+3, 2.3312762e+2, -659165.5, -652810.06, -84500.13, 0.07177801, -0.6066795, -571427.9, 83856.04, 0.0, 9.999876, 9.999902 
2.1551843e+3, 2.431268e+2, -622278.2, -664356.7, -76773.23, 0.09461614, -0.64464086, -563713.5, -6424.3384, 0.0, 9.999795, 9.999197 
2.1552213e+3, 2.5312597e+2, -451649.13, -535492.4, -74155.36, 0.08650779, -0.6657459, -408386.0, 50911.18, 0.0, 10.000322, 9.999145 
2.155258e+3, 2.6312506e+2, -362422.03, -529473.1, -93237.71, 0.07493849, -0.6313244, -320768.56, 40537.72, 0.0, 10.000625, 9.998381 
2.1552952e+3, 2.731238e+2, -215446.56, -405316.7, -108748.195, 0.119986154, -0.6187639, -166025.0, 97294.62, 0.0, 10.000959, 9.998388 
2.1553315e+3, 2.8312224e+2, -141857.86, -279483.16, -97429.28, 0.0855362, -0.6177976, -91390.81, 73944.21, 0.000000100631844, 10.000606, 9.998757 
2.155367e+3, 2.9312086e+2, -97647.88, -148934.95, -21293.484, -0.08638546, -0.70382094, -89959.7, -22612.482, 0.0000031808167, 9.999995, 9.99926 
2.1554068e+3, 3.031219e+2, -61884.55, -112440.36, 91500.42, -0.07069948, -0.5351196, 7765.4097, 7765.4097, 0.000016664693, 9.999887, 9.999266 
2.1554482e+3, 3.1312045e+2, 51664.61, -134255.02, 37839.88, 0.033265844, -0.66861486, 59071.043, 59071.043, 0.00004561872, 10.001007, 9.9985285 
2.1647686e+3, 1.33089e+2, -1603802.5, -1458625.5, -51272.69, 0.020189317, -0.6913514, -1442343.4, 193312.53, 0.45757636, 9.999101, 10.002449 
2.164801e+3, 1.4308788e+2, -1690044.1, -1601279.6, -49234.29, -0.33860525, -0.9442808, -1579376.3, -41715.027, 0.3088363, 9.998765, 10.000006 
2.1648437e+3, 1.5308996e+2, -1552628.6, -1491494.1, 49076.8, -0.103891514, -0.7740954, -1464243.6, -24599.793, 0.17204043, 9.999112, 9.999893 
2.1648845e+3, 1.6309105e+2, -1455754.6, -1376623.8, -44541.184, 0.05659502, -0.6543961, -1356612.8, -14978.149, 0.07433442, 9.9989805, 10.000112 
2.1649207e+3, 1.7309044e+2, -1235576.8, -1181865.8, -101085.34, -0.06423744, -0.7752485, -1104129.4, 139509.89, 0.022589553, 9.999701, 10.00042 
2.1649578e+3, 1.8309005e+2, -1178243.6, -1186136.5, -67897.07, -0.13536376, -0.81614226, -1114178.4, 31464.37, 0.00413868, 9.999784, 9.999667 
2.164997e+3, 1.9309023e+2, -1209056.0, -1155465.1, -64899.156, -0.12323452, -0.7793857, -1112047.3, -64404.137, 0.00045452762, 9.998944, 9.999598 
2.1650362e+3, 2.0309027e+2, -1168196.6, -1143809.9, -92411.56, -0.077193536, -0.7047389, -1062790.8, -113145.64, 0.000007502901, 9.998763, 9.9991045 
2.1650742e+3, 2.130901e+2, -836762.94, -931859.06, -44759.56, -0.018728307, -0.65206355, -819009.9, 32639.908, 0.0, 10.000391, 9.999088 
2.1651118e+3, 2.2308974e+2, -621935.4, -763261.4, -61019.19, 0.043972056, -0.59572047, -599235.6, 154419.19, 0.0, 10.00113, 9.99922 
2.1651477e+3, 2.3308884e+2, -639578.8, -702321.6, -119507.234, 0.075305924, -0.643289, -547394.0, 108268.01, 0.0, 10.000274, 9.999365 
2.1651843e+3, 2.4308789e+2, -625260.75, -677192.9, -76036.25, 0.11609596, -0.6553413, -570879.2, -13209.26, 0.0, 9.999806, 9.99911 
2.1652217e+3, 2.5308707e+2, -466422.4, -525892.75, -59800.516, 0.13564813, -0.67849123, -429372.22, 30304.924, 0.0, 10.000171, 9.9992695 
2.1652588e+3, 2.6308623e+2, -402089.34, -551345.7, -48062.63, 0.12635297, -0.64703786, -387951.66, -26266.664, 0.0, 10.000356, 9.99836 
2.1652952e+3, 2.7308467e+2, -333114.3, -461824.63, -65818.91, 0.08281562, -0.6599236, -305416.7, -41715.383, 0.0, 10.000175, 9.99836 
2.1653318e+3, 2.830828e+2, -146775.8, -285453.0, -32918.273, 0.07331966, -0.68989146, -139358.6, 26360.88, 0.0000000029805467, 10.000569, 9.998739 
2.1653683e+3, 2.930817e+2, 133734.05, -44303.453, -55590.47, 0.014287174, -0.7323883, 149665.94, 217395.63, 0.000001345268, 10.00162, 9.999194 
2.1654084e+3, 3.030836e+2, 122119.47, -118010.23, 12053.203, 0.06730172, -0.44216916, 122722.96, 122722.96, 0.000010778314, 10.001534, 9.998442 
2.165449e+3, 3.1307963e+2, -38094.313, -113493.71, -147170.64, 0.07539594, -0.7275453, 76128.55, 76128.55, 0.00003608632, 10.000137, 9.999079 
2.174768e+3, 1.3305089e+2, -1829982.0, -1844473.9, -259209.0, -0.017785588, -0.6930614, -1577917.8, 58116.617, 0.48078975, 9.999508, 9.998647 
2.1747997e+3, 1.4305232e+2, -1637422.5, -1546344.3, -18788.506, -0.41827002, -0.51383805, -1542620.6, -4602.2397, 0.32934, 9.999018, 10.000254 
2.1748406e+3, 1.5305172e+2, -1497983.9, -1391558.0, 51742.273, -0.3445803, -0.6884668, -1370549.0, 69472.62, 0.18832743, 9.9991255, 10.000665 
2.1748815e+3, 1.63051e+2, -1498798.9, -1495876.4, -34727.42, -0.17069215, -0.7524743, -1462579.5, -120551.86, 0.0852701, 9.9991045, 9.99923 
2.1749227e+3, 1.7305079e+2, -1295563.6, -1317956.4, -65020.086, 0.13229057, -0.7397461, -1240782.9, 3249.3071, 0.028395085, 9.999752, 9.999438 
2.1749614e+3, 1.8305077e+2, -1183790.6, -1216665.1, -99676.79, 0.2064078, -0.6797755, -1099204.9, 46830.637, 0.006367479, 9.999863, 9.999419 
2.1749961e+3, 1.930512e+2, -1219933.6, -1174483.8, -92470.73, -0.14135556, -0.6037742, -1101986.5, -53951.79, 0.0009868387, 9.998923, 9.9994755 
2.1750326e+3, 2.030513e+2, -1088149.4, -957287.7, -58339.867, -0.30962634, -0.57338244, -935055.94, 14978.091, 0.000047582707, 9.998669, 10.000434 
2.1750742e+3, 2.1305065e+2, -741491.8, -690118.9, 24931.518, -0.06580121, -0.73947626, -680009.06, 172023.92, 0.00000000032497088, 10.000201, 10.000839 
2.175113e+3, 2.2304983e+2, -693200.25, -841137.9, -83571.14, 0.04434656, -0.8147931, -655564.75, 98471.555, 0.0, 10.0008335, 9.998827 
2.1751465e+3, 2.3304868e+2, -732213.8, -851162.1, -142206.48, -0.10409617, -0.8018155, -637545.6, 18504.188, 0.0, 10.0000925, 9.998426 
2.1751817e+3, 2.4304762e+2, -664172.1, -685171.1, -79142.945, -0.1360778, -0.7742961, -594835.25, -36774.316, 0.0, 9.999507, 9.999192 
2.1752217e+3, 2.5304714e+2, -467894.13, -484689.63, -35393.785, 0.10472162, -0.7987421, -439915.5, 20147.521, 0.0, 9.999988, 9.999637 
2.17526e+3, 2.6304662e+2, -428605.22, -531155.2, -62372.22, 0.18997729, -0.7696011, -399137.28, -37071.832, 0.0, 10.00005, 9.998638 
2.1752946e+3, 2.7304474e+2, -341771.9, -443772.88, -57579.332, -0.0055043125, -0.83789486, -315854.06, -51771.914, 0.0, 10.00003, 9.99855 
2.1753308e+3, 2.830421e+2, -249812.88, -414998.53, -10376.447, -0.117345, -0.92884356, -249163.61, -83055.32, 0.0, 10.000228, 9.998006 
2.1753699e+3, 2.930407e+2, 17435.863, -224460.77, -3621.32, -0.025411163, -0.9223961, 17490.064, 85617.055, 0.00000028754212, 10.001357, 9.998081 
2.1754119e+3, 3.030421e+2, -112254.15, -438804.06, -55957.184, 0.20164403, -0.5034096, -102931.54, -102931.54, 0.0000061263827, 10.000885, 9.996519 
2.1754494e+3, 3.1303692e+2, -109404.734, -62425.605, -44731.297, 0.06552157, -0.767529, -35391.43, -35391.43, 0.000027574106, 9.999305, 9.99982 
2.1848004e+3, 1.4301549e+2, -1770858.4, -1608180.3, -127638.39, -0.19135587, -0.4155354, -1538166.8, 215.74367, 0.34983045, 9.998019, 10.000311 
2.1848403e+3, 1.5301238e+2, -1385989.6, -1363629.0, 89620.34, -0.3160046, -0.78722376, -1284494.3, 155913.1, 0.2059314, 10.000062, 10.000491 
2.1848811e+3, 1.6301242e+2, -1361680.4, -1455598.5, 3062.9143, -0.18013042, -0.761324, -1361580.5, -19175.93, 0.09816949, 10.00018, 9.998983 
2.1849231e+3, 1.7301221e+2, -1279144.1, -1345216.3, 9566.194, 0.19033206, -0.71352375, -1277787.0, -33376.016, 0.036017943, 10.000066, 9.999084 
2.1849617e+3, 1.8301213e+2, -1150402.1, -1188322.8, 10005.967, 0.24671839, -0.64396274, -1147923.8, -1508.3646, 0.009796201, 10.0000105, 9.999549 
2.1849959e+3, 1.9301254e+2, -1023145.0, -1050830.3, 25654.307, -0.100302584, -0.5999203, -1007836.94, 40576.953, 0.0020521113, 10.000134, 9.999737 
2.1850327e+3, 2.0301266e+2, -878976.75, -822861.44, 100871.234, -0.23314464, -0.59373295, -746218.4, 204192.86, 0.00020967671, 9.999977, 10.000728 
2.1850744e+3, 2.1301213e+2, -800804.56, -683755.25, 62629.293, -0.024178496, -0.7782885, -656561.94, 195845.25, 0.00000086887735, 9.999654, 10.001147 
2.1851136e+3, 2.2301134e+2, -865110.94, -935991.1, -95734.266, 0.076639414, -0.866581, -798467.5, -44058.027, 0.0, 9.9996805, 9.998744 
2.1851473e+3, 2.3301004e+2, -658690.3, -826288.4, -122661.555, -0.049810182, -0.85120475, -593935.9, 62488.754, 0.0, 10.000649, 9.998326 
2.1851826e+3, 2.4300885e+2, -444116.06, -609154.5, -21292.145, -0.06381732, -0.82174045, -441413.38, 117023.914, 0.0, 10.001137, 9.998931 
2.1852219e+3, 2.5300804e+2, -404854.6, -495807.0, -48491.406, 0.11360541, -0.84626144, -383851.47, 76591.59, 0.0, 10.000572, 9.999291 
2.1852602e+3, 2.630073e+2, -365530.97, -484146.6, -79082.734, 0.19479531, -0.82650256, -325987.9, 36459.86, 0.0, 10.000389, 9.998812 
2.1852954e+3, 2.730057e+2, -138067.61, -318604.06, -90710.94, 0.029429859, -0.8844659, -100363.87, 164097.39, 0.0, 10.001294, 9.99882 
2.185332e+3, 2.8300366e+2, -54237.94, -337798.06, -19374.184, -0.06666497, -0.9305988, -52920.33, 113561.13, 0.0, 10.0016165, 9.997883 
2.185371e+3, 2.93002e+2, -132903.19, -342114.78, -13012.216, 0.0057253395, -0.905996, -132096.98, -63593.938, 0.000000027227998, 10.000505, 9.99769 
2.1854131e+3, 3.0300122e+2, -263386.9, -515885.9, 35046.8, 0.32284638, -0.68485945, -258612.69, -258612.69, 0.0000044959556, 9.999802, 9.996548 
2.185449e+3, 3.1299794e+2, 82761.61, 237628.84, 71581.18, 0.08950894, -0.76924044, 265645.84, 265645.84, 0.000025056477, 9.9996195, 10.001788 
2.1948005e+3, 1.4297615e+2, -1767396.8, -1549858.5, -514580.94, -0.04849367, -0.6299706, -1132676.8, 406088.03, 0.371045, 9.99808, 10.001655 
2.1948422e+3, 1.5297131e+2, -1439696.1, -1476144.5, 147480.73, -0.14839657, -1.0849944, -1309317.9, 131489.13, 0.22535217, 10.000131, 9.999649 
2.1948823e+3, 1.6297539e+2, -1318393.3, -1378777.0, -28746.05, -0.09734469, -0.6528958, -1306897.1, 35867.918, 0.113554515, 10.000274, 9.999468 
2.1949217e+3, 1.7297442e+2, -1268251.4, -1317753.8, 15339.938, 0.019147703, -0.70037454, -1263883.3, -19105.324, 0.046104282, 10.0000515, 9.999279 
2.1949577e+3, 1.8297376e+2, -1098328.5, -1092106.4, 10933.021, -0.15601811, -0.7256467, -1083850.4, 62935.97, 0.015073848, 10.000063, 10.000193 
2.194996e+3, 1.9297417e+2, -973325.1, -940592.6, 35114.9, -0.10096105, -0.755918, -918217.3, 130563.625, 0.004138987, 10.000112, 10.000507 
2.1950354e+3, 2.0297436e+2, -950393.75, -948160.3, 80387.71, 0.0048465757, -0.7548754, -868881.56, 81895.38, 0.00072646124, 9.999882, 9.99991 
2.1950744e+3, 2.1297432e+2, -909900.06, -868004.1, 55961.67, -0.0071819006, -0.7758581, -829198.25, 23576.441, 0.000022642807, 9.999477, 9.99996 
2.1951126e+3, 2.2297397e+2, -890181.94, -922068.44, -77183.76, -0.005627631, -0.7616444, -827312.0, -72535.76, 0.000000000011542125, 9.999396, 9.998974 
2.1951497e+3, 2.3297274e+2, -635852.1, -747223.2, -76666.11, 0.1199241, -0.7983283, -596782.3, 60005.355, 0.0, 10.000507, 9.998937 
2.1951863e+3, 2.4297146e+2, -533310.2, -723832.0, -42269.652, 0.159298, -0.7913111, -524353.2, 34446.883, 0.0, 10.000845, 9.998279 
2.1952222e+3, 2.5296962e+2, -499948.5, -656537.8, -61316.793, 0.051072754, -0.8236479, -478795.66, -17977.256, 0.0, 10.000415, 9.998262 
2.1952587e+3, 2.6296794e+2, -429891.56, -528984.9, -65524.96, -0.0071572536, -0.8294233, -397289.63, -34454.977, 0.0, 10.00003, 9.998662 
2.1952972e+3, 2.72967e+2, -162708.0, -306497.88, -41053.395, 0.05260452, -0.840371, -151812.45, 113030.336, 0.0, 10.001041, 9.999007 
2.1953347e+3, 2.8296658e+2, -91354.42, -327171.47, -58804.387, 0.025868908, -0.74896765, -77504.164, 89342.79, 0.0, 10.001257, 9.998121 
2.1953715e+3, 2.9296553e+2, -158820.98, -342515.88, -37267.535, -0.01783801, -0.68554306, -151548.19, -82688.43, 0.000000020729713, 10.00028, 9.997793 
2.1954116e+3, 3.0296016e+2, -232481.47, -316630.3, 23052.402, 0.1557047, -0.98774385, -226580.17, -226580.17, 0.0000055230016, 9.999265, 9.998143 
2.1954475e+3, 3.1296054e+2, 39010.9, 368277.28, 54510.42, -0.06861736, -0.92038345, 377066.9, 377066.9, 0.000029811183, 9.998753, 10.003059 
2.2047968e+3, 1.4293867e+2, -1557397.6, -1374509.4, -325569.3, -0.25413936, -0.779934, -1127785.8, 411337.3, 0.39437363, 9.999131, 10.002524 
2.2048423e+3, 1.5293404e+2, -1521388.6, -1646969.3, 208426.27, -0.1524726, -1.0611584, -1366499.9, 74667.64, 0.24751917, 10.0001335, 9.998422 
2.2048831e+3, 1.6293725e+2, -1394399.8, -1387704.3, -47163.715, 0.0046075266, -0.67022634, -1343769.6, -633.2861, 0.13222682, 9.999576, 9.999759 
2.2049204e+3, 1.7293583e+2, -1369432.3, -1353229.5, 1164.2512, -0.046619534, -0.78488916, -1353146.4, -107995.695, 0.059555795, 9.99923, 9.999469 
2.2049569e+3, 1.8293494e+2, -1239069.5, -1150077.6, 23136.078, -0.21372294, -0.8460932, -1144422.1, 2737.269, 0.023171267, 9.999049, 10.000286 
2.2049968e+3, 1.9293594e+2, -999990.0, -947156.94, -21343.684, -0.035772663, -0.82258797, -939611.94, 109537.055, 0.008108057, 9.999898, 10.000584 
2.2050364e+3, 2.0293655e+2, -928865.2, -978698.56, -8729.622, 0.12548411, -0.7702216, -927380.2, 23762.441, 0.0021629941, 10.000199, 9.999554 
2.2050743e+3, 2.129361e+2, -915960.75, -927953.2, -4769.227, 0.026194377, -0.7803861, -914295.4, -61148.895, 0.00023583506, 9.999662, 9.999468 
2.2051121e+3, 2.2293532e+2, -825333.7, -865384.1, -34351.5, 0.009202392, -0.7856448, -805596.7, -50443.402, 0.0000019906881, 9.999729, 9.999207 
2.2051509e+3, 2.3293436e+2, -506655.47, -645194.4, -60857.96, 0.17975578, -0.8334171, -483718.9, 173441.9, 0.0, 10.001212, 9.999312 
2.2051883e+3, 2.4293326e+2, -391179.88, -666202.25, -67240.414, 0.24565807, -0.8205664, -375620.5, 183550.27, 0.0, 10.001858, 9.998191 
2.2052224e+3, 2.5293168e+2, -462433.9, -646054.44, -70928.125, 0.032550514, -0.81350654, -438227.28, 22960.412, 0.0, 10.000763, 9.998138 
2.205258e+3, 2.6292977e+2, -437934.0, -580228.94, 19154.033, -0.0653045, -0.8166497, -435400.8, -72193.57, 0.0, 10.000166, 9.998254 
2.2052978e+3, 2.729279e+2, -244704.06, -408385.03, -3248.3296, 0.050433, -0.867226, -244639.63, 20586.277, 0.0, 10.000722, 9.998476 
2.2053364e+3, 2.8292775e+2, -114287.836, -295893.03, -68211.914, 0.09759717, -0.73777854, -91521.17, 75706.79, 0.0, 10.000919, 9.998494 
2.2053723e+3, 2.9292774e+2, -41221.83, -209321.44, -77534.37, 0.0150934, -0.6150955, -10921.52, 58306.813, 0.00000007580395, 10.000762, 9.998478 
2.2054109e+3, 3.0292198e+2, 13398.691, -129305.945, 37033.87, 0.11724259, -1.0469915, 22437.049, 22437.049, 0.0000083740215, 10.000617, 9.998801 
2.2054484e+3, 3.1292355e+2, 217720.94, 376710.5, -160706.66, 0.102007076, -0.8754981, 476508.9, 476508.9, 0.000042885644, 10.000276, 10.002386 
2.2147949e+3, 1.429045e+2, -1484053.8, -1306773.1, 79784.16, -0.4319454, -0.71984565, -1276154.9, 263287.94, 0.4221777, 9.998997, 10.00305 
2.2148404e+3, 1.5290056e+2, -1643396.5, -1918059.1, 231787.38, -0.37597993, -0.69918746, -1511311.3, -69822.375, 0.27423543, 10.000116, 9.996518 
2.2148825e+3, 1.6289763e+2, -1370857.6, -1358344.4, -77285.94, -0.07180489, -0.8130937, -1287062.3, 56459.76, 0.15564767, 9.999678, 9.999943 
2.2149189e+3, 1.7289641e+2, -1345192.8, -1300939.1, -11173.075, -0.12736247, -0.9575603, -1298278.3, -52749.344, 0.07778218, 9.999226, 9.999825 
2.2149578e+3, 1.8289569e+2, -1274311.4, -1233525.0, 34673.453, -0.051032387, -0.9960827, -1213692.1, -66158.234, 0.035576556, 9.99909, 9.999696 
2.2149971e+3, 1.9289774e+2, -1061043.0, -1052810.9, 18109.91, -0.00035495285, -0.7979183, -1038355.1, 11164.065, 0.0154146915, 9.999811, 9.999892 
2.2150354e+3, 2.0289895e+2, -941663.8, -978362.2, -26154.93, -0.015318317, -0.64798826, -928063.5, 23446.826, 0.005714695, 10.00008, 9.999613 
2.2150733e+3, 2.1289736e+2, -920934.5, -904947.56, -16841.225, -0.038111456, -0.7965412, -894299.06, -40775.348, 0.0013616167, 9.999519, 9.99969 
2.2151116e+3, 2.2289571e+2, -865241.06, -876728.5, -2469.1882, -0.034892716, -0.90418226, -864732.8, -109195.17, 0.00013056793, 9.999425, 9.999273 
2.2151509e+3, 2.3289472e+2, -534528.2, -651930.5, 7605.0767, 0.039674602, -0.9617863, -534037.56, 123507.91, 0.0000045921656, 10.000986, 9.999375 
2.2151884e+3, 2.428941e+2, -429173.2, -642523.4, -102801.81, 0.05529152, -0.91609955, -387700.44, 171850.3, 0.000000030624218, 10.001436, 9.998548 
2.2152224e+3, 2.5289392e+2, -456199.16, -581100.9, -105124.18, -0.045739997, -0.8225871, -396374.9, 65178.797, 0.0, 10.000552, 9.998678 
2.2152579e+3, 2.6289234e+2, -530536.44, -705018.7, 13038.645, -0.12500279, -0.8004681, -529567.5, -165996.64, 0.0, 9.999893, 9.997521 
2.2152974e+3, 2.7288848e+2, -350928.06, -577144.2, 28035.275, -0.08169201, -0.954299, -347505.4, -81894.39, 0.0, 10.000512, 9.997411 
2.2153361e+3, 2.8288722e+2, -171672.44, -301416.88, -80587.56, -0.04344983, -0.8751523, -133090.5, 34534.195, 0.0, 10.000458, 9.998663 
2.2153728e+3, 2.928883e+2, -34416.875, -119170.37, -62934.184, -0.027507959, -0.7070663, -922.019, 68690.234, 0.00000027397763, 10.000454, 9.999232 
2.2154105e+3, 3.0288583e+2, -67373.836, -165712.88, 15402.552, -0.047775377, -0.87478703, -65017.824, -65017.824, 0.000015050563, 10.000097, 9.9987755 
2.2154489e+3, 3.12886e+2, -133034.86, -161085.77, -53800.242, 0.061893877, -0.78742564, -91461.94, -91461.94, 0.00007034586, 9.999498, 9.999048 
2.2248027e+3, 1.4285493e+2, -1280006.4, -1575723.1, -280878.66, 0.15054338, -1.3715647, -1110445.6, 429482.97, 0.45833316, 10.004261, 9.998123 
2.2248393e+3, 1.5286072e+2, -1791676.0, -1860092.4, 418.9622, -0.3751193, -0.71047276, -1791673.4, -349794.38, 0.30885017, 9.998556, 9.997633 
2.2248828e+3, 1.6285859e+2, -1365297.1, -1374366.8, -127743.35, 0.0140578365, -0.78177494, -1242008.1, 101895.21, 0.18666483, 9.99983, 9.999792 
2.2249192e+3, 1.7285684e+2, -1187735.8, -1207665.6, -139939.08, -0.07426704, -0.98773456, -1057407.3, 188506.52, 0.103338934, 10.000316, 9.999998 
2.224958e+3, 1.8285586e+2, -1187569.0, -1203985.3, -78183.8, 0.052299738, -1.0590898, -1117163.6, 30757.0, 0.054786276, 9.9997225, 9.999613 
2.2249964e+3, 1.9285785e+2, -1164194.0, -1116631.1, -60746.563, -0.002271958, -0.8543852, -1075176.8, -25269.299, 0.028543482, 9.999136, 9.99978 
2.2250344e+3, 2.0285907e+2, -1068166.4, -1004337.5, -46878.035, -0.06526168, -0.7129772, -979541.44, -27642.309, 0.013685946, 9.999068, 9.999918 
2.2250733e+3, 2.1285787e+2, -817996.0, -816125.5, -51274.555, -0.0068707326, -0.8525796, -765777.6, 88130.23, 0.005262215, 10.000069, 10.000043 
2.2251123e+3, 2.2285661e+2, -701009.25, -777421.3, -7150.1323, 0.055343032, -0.94932264, -700345.94, 55571.8, 0.001420654, 10.000441, 9.999476 
2.2251509e+3, 2.328559e+2, -762875.0, -736636.56, -5540.578, 0.039401464, -0.9992105, -735514.56, -77591.08, 0.0002619265, 9.999298, 9.999613 
2.2251882e+3, 2.4285555e+2, -758286.75, -778309.6, -83387.07, 0.025594957, -0.9485612, -684312.3, -124385.56, 0.000035642544, 9.9990635, 9.998773 
2.2252233e+3, 2.5285575e+2, -349461.88, -509486.28, -113707.12, -0.013349606, -0.8375548, -290437.16, 171489.53, 0.0000011567587, 10.001142, 9.9989195 
2.2252595e+3, 2.6285434e+2, -189291.16, -528814.44, 3832.0342, -0.037087183, -0.8161491, -189247.9, 174694.44, 0.0, 10.002174, 9.997637 
2.2252983e+3, 2.7285028e+2, -241940.98, -508794.75, 52541.766, -0.055224463, -0.9935068, -231968.53, 34014.703, 0.0, 10.00122, 9.997536 
2.2253364e+3, 2.8284886e+2, -217569.25, -306536.84, 3970.178, -0.022895088, -0.940978, -217392.42, -49395.75, 0.0, 10.000052, 9.998842 
2.2253731e+3, 2.9285002e+2, -200523.38, -172226.14, -32921.95, 0.032180175, -0.77853215, -150541.28, -80558.2, 0.00000073017384, 9.999214, 9.999457 
2.2254114e+3, 3.028486e+2, -193957.11, -277650.28, 56973.29, 0.106481045, -0.8550489, -165113.58, -165113.58, 0.00002755439, 9.999423, 9.998353 
2.225449e+3, 3.1284627e+2, 80123.63, -155807.66, -92305.5, 0.03791152, -0.9001558, 111945.164, 111945.164, 0.000118261974, 10.001355, 9.998216 
2.2348389e+3, 1.5281452e+2, -1517439.0, -1287984.8, -28078.691, -0.31270725, -1.0325276, -1284598.6, 157739.75, 0.35698506, 9.9982605, 10.002252 
2.2348848e+3, 1.6281958e+2, -1406667.5, -1453357.0, -92278.805, 0.14997295, -0.6222453, -1334826.4, 9459.463, 0.23053116, 9.999744, 9.999223 
2.2349207e+3, 1.7281677e+2, -1213626.1, -1236372.6, -130240.68, 0.020939425, -0.90049964, -1094263.0, 152045.95, 0.14104874, 10.000213, 9.999861 
2.2349568e+3, 1.8281527e+2, -1166896.9, -1153202.5, -110400.37, -0.07312234, -1.042716, -1049437.1, 98884.2, 0.08532412, 9.999701, 9.999997 
2.2349943e+3, 1.9281621e+2, -1139503.5, -1051447.0, -73316.195, -0.14698362, -0.98917794, -1009954.75, 40359.7, 0.05187056, 9.999068, 10.000275 
2.2350328e+3, 2.0281704e+2, -1059585.0, -951138.4, -30794.775, -0.16883881, -0.9342551, -943003.94, 9303.497, 0.030293982, 9.9989195, 10.000355 
2.2350737e+3, 2.128175e+2, -809906.5, -758691.94, -5561.0713, 0.018947514, -0.95484424, -758095.0, 96205.67, 0.015773455, 9.99989, 10.000531 
2.2351135e+3, 2.228178e+2, -728833.1, -755337.5, -41765.434, 0.12707086, -0.9351784, -698267.8, 58028.344, 0.0069356123, 10.00011, 9.999778 
2.2351503e+3, 2.3281777e+2, -759230.5, -693470.6, -39994.293, 0.052517645, -0.96036655, -674575.75, -16279.694, 0.002541045, 9.999139, 9.99998 
2.235187e+3, 2.428175e+2, -811662.8, -807333.25, -43961.387, -0.014201632, -0.919112, -765483.4, -205184.02, 0.00075579167, 9.998727, 9.998726 
2.2352251e+3, 2.5281715e+2, -392368.03, -531519.94, -24775.81, 0.008518476, -0.86593306, -388088.34, 74217.89, 0.00014769337, 10.000857, 9.998899 
2.2352624e+3, 2.6281586e+2, -227762.48, -481347.78, -31538.143, 0.012073019, -0.8499864, -223898.97, 140421.48, 0.000007045108, 10.001653, 9.998197 
2.2353002e+3, 2.7281302e+2, -220344.36, -401041.53, 22191.563, -0.003298453, -0.9946933, -217658.9, 48686.535, 0.00000000065814787, 10.000952, 9.998393 
2.2353366e+3, 2.828121e+2, -277372.13, -327761.4, -57654.98, -0.029139547, -0.9596776, -239647.23, -71296.09, 0.0, 9.999649, 9.998869 
2.2353725e+3, 2.928126e+2, -281445.13, -267323.75, -53109.566, 0.029859837, -0.84260005, -220807.58, -150464.39, 0.0000012574419, 9.998935, 9.998918 
2.235413e+3, 3.028096e+2, -393237.34, -539819.25, 87642.8, 0.27816457, -0.96837234, -352279.34, -352279.34, 0.000044073433, 9.998823, 9.996816 
2.2354497e+3, 3.1280625e+2, -37039.348, -137799.6, 94886.99, -0.06879164, -0.99343526, 20012.826, 20012.826, 0.00018419352, 10.000311, 9.998814 
2.2448345e+3, 1.5277842e+2, -1340673.5, -1160760.3, 116842.36, -0.6690287, -0.6293019, -1103257.4, 339434.78, 0.42759266, 9.999424, 10.003318 
2.2448848e+3, 1.6277862e+2, -1265004.8, -1328709.3, 59407.895, 0.14779666, -0.82818145, -1229448.9, 115232.664, 0.29616648, 10.0007105, 9.999704 
2.2449219e+3, 1.7277774e+2, -1174234.4, -1246890.0, -15860.09, 0.117137425, -0.88681537, -1170923.3, 75766.58, 0.19952731, 10.000691, 9.999485 
2.2449578e+3, 1.827773e+2, -1101450.9, -1104985.0, -24507.316, 0.059155505, -0.9107746, -1078647.0, 70047.29, 0.13536815, 10.000084, 10.000157 
2.2449936e+3, 1.9277744e+2, -1145708.5, -1025685.8, -32878.39, -0.09678523, -0.9651908, -1017269.44, 33423.605, 0.09319166, 9.998881, 10.000567 
2.2450314e+3, 2.0277783e+2, -1129098.9, -1005171.25, 70165.04, -0.1460332, -0.9654116, -973526.06, -20836.805, 0.06306426, 9.998465, 10.00024 
2.2450738e+3, 2.1277851e+2, -819803.8, -787923.56, 42904.203, 0.054602984, -0.9416452, -758094.06, 96588.79, 0.0400799, 9.999889, 10.000365 
2.2451143e+3, 2.22779e+2, -633925.7, -699657.8, -69778.84, 0.17326747, -0.8908334, -589660.25, 167017.69, 0.023131557, 10.000718, 9.999891 
2.2451502e+3, 2.3277934e+2, -658826.75, -626490.75, -135932.78, 0.10178309, -0.89584696, -505767.8, 152906.9, 0.011994159, 9.999747, 10.000159 
2.2451867e+3, 2.4277927e+2, -730303.0, -745057.4, -61510.063, 0.07042813, -0.8473106, -675729.3, -115053.04, 0.0054928027, 9.9991455, 9.998968 
2.2452256e+3, 2.527789e+2, -585472.0, -579336.3, -16516.61, 0.07233684, -0.82953393, -565605.0, -102922.2, 0.002050329, 9.99933, 9.999314 
2.2452635e+3, 2.627778e+2, -527070.44, -566119.25, -28883.637, 0.0738584, -0.8351803, -511731.3, -147037.27, 0.0004876709, 9.999324, 9.998746 
2.245301e+3, 2.727758e+2, -306071.06, -363750.25, -6372.794, 0.041123703, -0.9600809, -305375.34, -38666.71, 0.000047167257, 10.000027, 9.999095 
2.2453374e+3, 2.8277504e+2, -152300.3, -320764.34, -86384.13, 0.03970045, -0.9382375, -115878.89, 52832.87, 0.00000034188096, 10.000718, 9.998412 
2.2453737e+3, 2.9277393e+2, 208501.31, -146788.81, -150671.03, 0.09322117, -0.8745982, 263793.0, 334515.03, 0.0000013302117, 10.002747, 9.997944 
2.2454141e+3, 3.0276957e+2, 189275.47, -269085.97, 8187.3145, 0.32375214, -1.0913275, 189421.67, 189421.67, 0.0000584347, 10.002793, 9.99678 
2.2454494e+3, 3.127693e+2, -200118.38, -85630.61, 2666.5034, -0.030894045, -0.79953223, -85568.54, -85568.54, 0.00025945, 9.998516, 10.000048 
2.254882e+3, 1.6273639e+2, -1295518.3, -1292008.8, 39364.207, -0.27160302, -1.3152921, -1254360.3, 90722.97, 0.39765337, 10.000149, 10.00036 
2.2549228e+3, 1.7273957e+2, -1218663.8, -1336591.5, -32445.992, 0.09301621, -0.95958537, -1210326.1, 36731.89, 0.29298013, 10.0006275, 9.998894 
2.2549611e+3, 1.8274164e+2, -1168678.8, -1181116.4, -96649.77, 0.30098668, -0.6777232, -1078048.0, 70994.266, 0.21888196, 9.999839, 9.999754 
2.2549942e+3, 1.9274099e+2, -1184009.9, -1051125.6, -80639.945, 0.027029706, -0.8108813, -1013081.6, 37966.637, 0.16615056, 9.998653, 10.000506 
2.25503e+3, 2.0274097e+2, -1216482.4, -1122836.4, 95651.625, -0.17289811, -0.83876854, -1063162.4, -110113.055, 0.12546477, 9.998198, 9.999541 
2.255073e+3, 2.1274066e+2, -906824.7, -923591.8, 107271.375, -0.03419558, -0.83914423, -807609.75, 47446.21, 0.0914258, 9.999715, 9.9994955 
2.255114e+3, 2.2274025e+2, -712677.5, -784317.7, -89341.51, 0.038216595, -0.8147452, -652242.8, 104819.94, 0.062582165, 10.000389, 9.9994755 
2.2551501e+3, 2.3274057e+2, -701897.1, -668624.5, -162287.7, 0.102264225, -0.8051648, -522122.63, 136937.22, 0.039919913, 9.999533, 9.999994 
2.2551866e+3, 2.4274085e+2, -795308.7, -733349.44, -80972.64, 0.113554604, -0.7178224, -677632.44, -116575.21, 0.023601582, 9.998541, 9.999327 
2.2552249e+3, 2.5274098e+2, -565619.06, -475144.63, -2621.112, 0.0505592, -0.7370342, -475068.75, -12012.236, 0.012405956, 9.999079, 10.000136 
2.255262e+3, 2.6273996e+2, -561590.6, -544612.56, -41028.04, -0.013704788, -0.787807, -511204.53, -146139.39, 0.005154125, 9.998954, 9.999062 
2.2553e+3, 2.7273846e+2, -328039.03, -315382.78, 22493.447, -0.055489764, -0.91795903, -298344.25, -31270.52, 0.0013586987, 9.999645, 9.9996 
2.2553377e+3, 2.8273755e+2, -352273.44, -561905.7, -59906.227, -0.03229982, -0.8954956, -336361.88, -167281.92, 0.00015517221, 10.0000105, 9.997078 
2.2553767e+3, 2.9273435e+2, 23339.42, -394379.38, -53742.08, 0.09027777, -0.8690591, 30142.86, 101258.19, 0.0000026982873, 10.002231, 9.996452 
2.2554141e+3, 3.0272862e+2, 154232.53, -174456.89, -120336.84, -0.0047583333, -1.1924183, 193579.11, 193579.11, 0.000065484004, 10.002133, 9.997725 
2.2554451e+3, 3.1273204e+2, -213113.7, 56736.4, -12564.056, -0.3673276, -0.6478113, 57320.11, 57320.11, 0.00034262822, 9.997855, 10.001331 
2.2649209e+3, 1.7270045e+2, -1208263.9, -1258570.4, -170887.52, -0.1248788, -0.84379196, -1060688.4, 186757.81, 0.44342524, 10.000157, 10.000265 
2.2649595e+3, 1.827005e+2, -1069762.6, -1178054.6, -80931.22, 0.08243177, -1.0303315, -1026534.9, 122913.49, 0.3585124, 10.000907, 9.999334 
2.264994e+3, 1.9270073e+2, -1022935.1, -1030158.5, -141493.36, 0.08426398, -0.99050057, -885007.4, 166435.34, 0.29413474, 10.000189, 10.000053 
2.2650304e+3, 2.0270109e+2, -935005.75, -995009.9, 73223.93, -0.011834123, -0.96303546, -885875.9, 67562.65, 0.24160613, 10.000162, 9.999555 
2.2650713e+3, 2.1270114e+2, -882302.75, -949853.3, 112296.74, -0.18688732, -0.8979529, -798812.0, 56632.426, 0.1940874, 10.000025, 9.999215 
2.2651115e+3, 2.2270119e+2, -718136.2, -740308.06, -46525.35, -0.20006958, -0.8259945, -681394.25, 76053.44, 0.14888066, 10.000112, 9.999957 
2.2651494e+3, 2.327021e+2, -628613.2, -553713.25, -93358.0, 0.08980551, -0.8132366, -490573.88, 168862.19, 0.108788945, 9.999681, 10.000797 
2.2651868e+3, 2.4270211e+2, -618039.94, -695145.8, 79389.95, 0.24596843, -0.7864527, -568337.0, -6902.708, 0.07581198, 9.999862, 9.998982 
2.265225e+3, 2.5270134e+2, -275026.44, -445786.63, 35796.74, 0.07722792, -0.8140424, -267825.94, 195617.64, 0.048806984, 10.001518, 9.999232 
2.265262e+3, 2.6269984e+2, -134933.14, -412213.94, -133051.11, -0.063795395, -0.8170404, -81417.984, 284040.97, 0.026684597, 10.002164, 9.998469 
2.2653003e+3, 2.726982e+2, -100675.05, -233635.11, -158740.52, -0.057538956, -0.9355578, 4944.1553, 272416.6, 0.010897145, 10.001239, 9.99945 
2.2653379e+3, 2.8269777e+2, -431671.75, -497291.3, -170998.94, 0.06294503, -0.8881572, -290363.4, -120887.7, 0.002788968, 9.998992, 9.998032 
2.2653782e+3, 2.926973e+2, -205206.0, -364237.1, 68803.68, 0.15415777, -0.6937302, -179570.86, -108088.195, 0.0003034348, 10.000075, 9.9977 
2.2654147e+3, 3.0269298e+2, -21259.625, -226637.97, 12722.269, -0.048410997, -1.0108348, -20474.54, -20474.54, 0.000074942734, 10.000851, 9.997985 
2.2654463e+3, 3.126914e+2, 129401.9, 56104.215, -75578.4, -0.17011215, -0.8004985, 176748.48, 176748.48, 0.00045627946, 10.000801, 10.000005 
2.2750331e+3, 2.0266193e+2, -941211.94, -1072448.1, 65061.582, 0.17391165, -0.93322986, -914424.7, 39395.64, 0.4526298, 10.000589, 9.998754 
2.275071e+3, 2.1266249e+2, -843672.7, -911188.4, 70962.07, -0.21939223, -0.84769595, -798848.0, 56974.88, 0.38963944, 10.000358, 9.999293 
2.2751129e+3, 2.226627e+2, -987023.56, -793537.06, -141504.53, -0.14390521, -0.8201871, -718866.25, 38958.156, 0.32267725, 9.997894, 10.000676 
2.2751501e+3, 2.3266262e+2, -824027.25, -513409.22, -106014.18, 0.16384926, -1.073572, -480675.94, 179140.67, 0.25840095, 9.997598, 10.0023155 
2.2751877e+3, 2.4266157e+2, -892970.75, -1049092.9, 117358.51, 0.2534873, -1.1706449, -830083.06, -268260.56, 0.20062341, 9.9989605, 9.996953 
2.2752269e+3, 2.5265986e+2, -557546.5, -868391.0, 110437.25, 0.05243479, -1.1056501, -522305.53, -58459.445, 0.14660953, 10.000769, 9.996639 
2.2752629e+3, 2.626581e+2, -525493.8, -858153.0, -180455.58, -0.23907359, -0.87507486, -446405.88, -80536.21, 0.09444842, 10.00058, 9.996124 
2.2753018e+3, 2.7265608e+2, -246363.72, -386691.28, -194635.48, -0.079841286, -0.9481824, -109631.57, 158261.58, 0.04983968, 10.000658, 9.998648 
2.2753379e+3, 2.8265637e+2, -395178.0, -201464.08, -254251.84, 0.1288979, -0.87945986, -26245.19, 143646.75, 0.019500945, 9.998099, 10.000475 
2.2753777e+3, 2.9266238e+2, -57761.184, 96775.734, 111919.99, 0.07928199, -0.41452438, 155509.11, 227337.66, 0.004786881, 9.999469, 10.001128 
2.275415e+3, 3.0266196e+2, -235082.8, -402089.0, -54452.105, -0.1684234, -0.5666857, -218897.39, -218897.39, 0.0007184054, 9.999787, 9.997247 
2.2754504e+3, 3.1265035e+2, -378681.94, -665036.8, 33993.918, 0.10504796, -1.1070799, -374701.75, -374701.75, 0.0007782504, 9.99956, 9.995555 
2.2851877e+3, 2.4262197e+2, -218342.1, 133522.17, -126997.47, 0.23871958, -0.68696773, 174570.39, 736799.0, 0.45869297, 9.999138, 10.009574 
2.2852288e+3, 2.5262392e+2, -749381.1, -706802.9, -358355.66, 0.2840197, -0.31967533, -369104.5, 95105.77, 0.36361384, 9.998406, 9.999214 
2.2852632e+3, 2.626154e+2, -773035.6, -583157.25, -104152.27, -0.12655321, -1.0940912, -537166.8, -170871.47, 0.26167566, 9.996952, 9.999842 
2.2853062e+3, 2.7261844e+2, 60417.324, -93455.95, 125282.58, 0.25239787, -0.8545647, 130500.99, 398766.34, 0.1640845, 10.002371, 10.00017 
2.2853398e+3, 2.826195e+2, 149193.13, 10090.526, -50757.32, 0.3335001, -0.73448795, 165744.6, 335998.16, 0.0825175, 10.002132, 10.000137 
2.2853772e+3, 2.9262015e+2, 240576.52, 229762.4, 174749.11, 0.001089656, -0.8014724, 410002.22, 482246.63, 0.030766618, 10.00143, 10.001251 
2.2854179e+3, 3.0262238e+2, 168077.42, 35978.668, -80930.945, 0.092121065, -0.7668278, 206490.19, 206490.19, 0.009050321, 10.001333, 9.999576 
2.28545e+3, 3.1261957e+2, 94462.625, 74276.87, 31888.473, 0.05352562, -0.7096186, 117817.33, 117817.33, 0.0039660563, 10.000573, 10.000119 
2.2953036e+3, 2.7258813e+2, -124065.28, 62762.67, 232434.67, -0.24751043, -0.35252059, 219852.28, 488413.8, 0.434636, 9.999618, 10.003974 
2.2953428e+3, 2.8258765e+2, -1014932.44, -1129912.8, -374525.78, 0.30214232, -0.4664377, -693510.1, -522952.75, 0.25417706, 9.99655, 9.994805 
2.2953765e+3, 2.925753e+2, -130972.87, -250121.4, 219362.16, -0.28498626, -1.6313647, 36760.695, 109444.43, 0.121765405, 10.000344, 9.998319 
2.2954233e+3, 3.025789e+2, -498060.28, -73855.79, -131518.6, 0.37714994, -1.3460162, -36389.402, -36389.402, 0.053992268, 9.996017, 10.001259 
2.2954482e+3, 3.1259483e+2, 537751.5, 1428491.5, -287801.78, -0.31679162, -0.18139818, 1513389.8, 1513389.8, 0.03142641, 9.998968, 10.010351 
2.3053801e+3, 2.9254326e+2, -802229.94, -158770.45, -138283.14, -0.084617496, -1.37225, -130311.31, -57313.07, 0.3611797, 9.993307, 10.0028715 
2.3054206e+3, 3.0257e+2, 1357666.3, 787079.5, 48776.434, -0.8930373, 0.6548435, 1361805.9, 1361805.9, 0.2147976, 10.010957, 10.0015545 
2.3054585e+3, 3.125361e+2, -140011.5, -1326344.6, -228031.69, 0.38222533, -1.7003207, -97690.04, -97690.04, 0.16683324, 10.003803, 9.989557 
2.3501055e+3, 2.772421e+2, -669702.7, -763220.9, 543871.0, -0.8055182, 0.71289474, -170584.44, 52460.54, 0.45037895, 9.997657, 9.996891 
2.3497663e+3, 2.872278e+2, 233743.23, -331991.6, -695934.8, 1.908076, 0.048290044, 702100.94, 827278.6, 0.35453805, 10.005378, 9.996557 
2.3493816e+3, 2.9722694e+2, 760261.75, 585777.3, 282041.94, -1.173947, -0.1659929, 968246.3, 995418.94, 0.2787894, 10.006108, 10.002693 
2.3490603e+3, 3.0722064e+2, -738294.0, -600296.8, -168472.11, 0.16677351, 0.3453963, -487241.44, -487241.44, 0.22501534, 9.997341, 9.997464 
2.3636238e+3, 1.7763966e+2, -690933.9, -982544.44, -16142.528, -0.5689742, -0.025342135, -690043.0, 509100.72, 0.43641183, 10.005831, 9.999212 
2.3632888e+3, 1.8763675e+2, -1807884.9, -1232283.8, 82723.24, 0.7348051, 0.24833764, -1220631.0, -119459.46, 0.3776002, 9.99392, 10.001317 
2.3629321e+3, 1.9763461e+2, -493363.94, -755946.7, 169578.61, 0.43133873, 0.371153, -410192.44, 593000.06, 0.33353606, 10.00477, 9.999609 
2.36257e+3, 2.07618e+2, -422488.03, -771476.9, -136384.2, -0.59049326, -0.5129178, -375512.47, 529847.06, 0.30097765, 10.004999, 9.998191 
2.3622227e+3, 2.1761903e+2, -1393046.4, -1074229.0, -196766.23, 0.034555703, 0.2388605, -980402.44, -173048.02, 0.27814257, 9.995277, 9.999914 
2.361867e+3, 2.2762111e+2, -731338.1, -601212.1, -331499.56, -0.15571229, 0.8809085, -328451.0, 380880.9, 0.261045, 9.998926, 10.001218 
2.3615102e+3, 2.3760943e+2, -1965673.9, -1186900.1, -213982.77, -0.66515607, 0.06874845, -1131977.6, -520535.8, 0.24562758, 9.989797, 10.000419 
2.3611687e+3, 2.4760303e+2, -950015.5, -1007059.4, 98985.26, 0.524681, 0.18883207, -875524.9, -362024.3, 0.23008615, 9.997652, 9.997173 
2.360813e+3, 2.5759384e+2, -72600.766, -307518.56, 157378.08, 0.06070606, 0.11485627, 6318.6743, 421905.53, 0.20983039, 10.002613, 9.999178 
2.360449e+3, 2.6758912e+2, 632504.44, 625368.56, -196052.39, -0.5677077, -0.1128711, 825021.4, 1142653.4, 0.17457394, 10.004633, 10.005201 
2.3601033e+3, 2.7758393e+2, -958622.2, -1014777.2, -25017.0, -0.24312891, -0.25513968, -949093.9, -729411.25, 0.1247967, 9.996413, 9.995719 
2.359748e+3, 2.8757542e+2, 211034.25, -265720.7, -554174.94, 0.13164483, -0.13449982, 575925.94, 697690.3, 0.08190019, 10.003399, 9.997002 
2.3593932e+3, 2.9757133e+2, 397642.38, 371801.6, 63861.527, -0.08905641, -0.23402143, 449877.4, 473679.0, 0.05539364, 10.0021105, 10.001726 
2.3590417e+3, 3.075675e+2, 16116.631, 535320.06, -154747.75, -0.6772816, -0.16924928, 577943.3, 577943.3, 0.0398389, 9.998264, 10.004803 
2.3743308e+3, 1.5800716e+2, -1716564.8, -779702.1, -92248.92, -0.071058854, 0.748793, -770705.2, 620854.44, 0.4091734, 9.991905, 10.010496 
2.3739758e+3, 1.6799372e+2, -898732.7, -1153063.5, 29598.229, 0.25112128, -0.32613727, -895333.56, 398346.38, 0.3191415, 10.003845, 9.998989 
2.3736177e+3, 1.7799173e+2, -1557497.9, -1422237.0, 58990.906, -0.44744268, 0.10773948, -1400124.5, -204429.86, 0.25440004, 9.997194, 9.999319 
2.3732649e+3, 1.8798651e+2, -1309453.5, -936013.8, 57736.37, -0.71494704, 0.09873003, -927291.06, 170455.75, 0.20803122, 9.996842, 10.002376 
2.3729143e+3, 1.979838e+2, -1006872.94, -898050.5, -5575.8877, -0.74492127, 0.17788184, -897765.56, 102010.695, 0.17323056, 9.998805, 10.000972 
2.3725611e+3, 2.0797779e+2, -1005776.2, -1068004.8, -61695.09, -0.86189914, 0.23975018, -967793.56, -65953.984, 0.14628343, 9.999241, 9.998725 
2.3722094e+3, 2.1797153e+2, -783198.9, -809764.1, -32154.156, -0.60958564, 0.30370432, -761691.9, 42213.74, 0.1255341, 9.999645, 9.999674 
2.3718603e+3, 2.2796547e+2, -369723.16, -435444.1, 27481.877, -0.2962508, 0.2585604, -359746.0, 346217.3, 0.10829949, 10.001503, 10.000869 
2.3715083e+3, 2.3795658e+2, -69655.01, -254669.78, -88673.45, -0.34406802, -0.08986926, -34019.51, 574026.7, 0.09199208, 10.003043, 10.000735 
2.3711574e+3, 2.4795125e+2, -37518.23, -79889.555, -112319.07, -0.032735858, -0.16596718, 55595.742, 565687.7, 0.07586676, 10.002023, 10.001752 
2.3708127e+3, 2.5794697e+2, -379198.0, -510943.1, -12506.126, 0.5885452, -0.006444898, -378021.34, 34105.79, 0.059159193, 10.000243, 9.998696 
2.3704544e+3, 2.6794183e+2, -79750.94, -172897.67, -281817.94, 0.42566565, 0.12214451, 159316.08, 473495.9, 0.04041217, 10.001008, 10.000052 
2.3700973e+3, 2.7793446e+2, -467423.53, -676716.06, 14613.713, -0.08467635, 0.09178613, -466408.06, -250151.56, 0.021718537, 9.999462, 9.996497 
2.3697424e+3, 2.8792608e+2, 9870.925, -189570.73, -191934.66, -0.06580218, 0.11362443, 126444.24, 244780.22, 0.009489436, 10.001332, 9.998181 
2.3693933e+3, 2.9791963e+2, 301063.44, 284839.88, 203070.97, 0.23859613, -0.0924495, 496184.6, 516579.6, 0.0043449677, 10.001682, 10.000952 
2.3690371e+3, 3.0791354e+2, 76794.234, 83756.875, -397006.9, -0.5347707, 0.065245725, 477297.72, 477297.72, 0.0025844586, 10.000562, 10.000078 
2.3846604e+3, 1.4836481e+2, -1511542.5, -1800367.1, 384340.0, -0.656562, 0.1382983, -1245379.4, 240666.64, 0.38968232, 10.001506, 9.996863 
2.3843232e+3, 1.5835798e+2, -1506992.6, -1746536.9, 77925.664, 0.08808593, 0.25314477, -1483874.0, -95758.52, 0.27836236, 10.00001, 9.99708 
2.3839708e+3, 1.6834986e+2, -1247580.4, -1198201.8, -79152.04, 0.13269514, 0.13783419, -1139977.8, 150213.34, 0.19862524, 9.999616, 10.000433 
2.383614e+3, 1.7834474e+2, -1282218.9, -1230451.1, -28921.967, -0.052959926, 0.12277749, -1217521.9, -25285.586, 0.1461588, 9.998905, 9.999785 
2.3832634e+3, 1.8834172e+2, -1085225.9, -990352.94, 166204.83, -0.08929062, 0.41175786, -864947.7, 229320.45, 0.11113541, 9.9992895, 10.000649 
2.3829162e+3, 1.983376e+2, -942857.9, -933623.94, 31856.035, 0.092116676, 0.4961351, -906052.06, 90261.1, 0.08556882, 9.999702, 10.000175 
2.3825662e+3, 2.0833035e+2, -923764.2, -894348.56, -72651.95, 0.2993963, 0.35969466, -834930.6, 63457.53, 0.065839775, 9.999308, 9.99987 
2.3822117e+3, 2.1832152e+2, -1017582.8, -977923.6, -56483.645, 0.2307511, 0.06727508, -937889.94, -137411.72, 0.050802168, 9.998321, 9.999125 
2.3818572e+3, 2.28317e+2, -836962.4, -704416.4, 92111.96, -0.12379111, 0.22597724, -657213.75, 45306.992, 0.038884565, 9.99841, 10.000233 
2.3815054e+3, 2.3831326e+2, -835026.6, -771294.6, -8914.361, -0.29882416, 0.46825722, -770071.25, -165517.14, 0.028499383, 9.99823, 9.999235 
2.3811494e+3, 2.4830589e+2, -444392.78, -236441.9, -122592.79, -0.3997201, 0.22826713, -179669.45, 326950.47, 0.019239577, 9.998988, 10.00187 
2.3807967e+3, 2.582962e+2, -766368.44, -743759.5, -64256.55, -0.42830488, -0.2034848, -689820.6, -281112.4, 0.011432521, 9.997923, 9.998179 
2.3804437e+3, 2.6829216e+2, -215949.03, -352598.88, -246159.66, -0.12809177, 0.12503281, -28807.97, 281945.22, 0.005416997, 10.000724, 9.998806 
2.3800933e+3, 2.7828816e+2, -216266.53, -426810.47, 1527.9343, 0.08545348, 0.42253894, -216255.45, -3454.329, 0.001679893, 10.000693, 9.99762 
2.3797382e+3, 2.8827903e+2, 296781.16, 179833.36, -105773.97, -0.08791603, 0.21117322, 359168.06, 474054.88, 0.00032890253, 10.002316, 10.000259 
2.3793891e+3, 2.9827446e+2, -168083.23, -285768.4, 88319.74, 0.146762, 0.11963183, -120799.37, -103873.59, 0.000101582686, 9.999889, 9.99795 
2.3790364e+3, 3.0826518e+2, -606151.44, -896270.8, -220192.13, -0.20466934, 0.4387879, -487531.6, -487531.6, 0.00014370115, 9.998708, 9.994234 
2.3950198e+3, 1.3872537e+2, -2440591.0, -1212199.8, -310643.0, -0.2298043, 0.69168943, -1138111.1, 442402.66, 0.42782584, 9.98914, 10.009283 
2.3946607e+3, 1.4871448e+2, -1198509.3, -1541187.0, 59054.305, -0.4787509, 0.037163943, -1188617.9, 294000.97, 0.2998544, 10.003445, 9.997493 
2.3943174e+3, 1.5870875e+2, -1382958.3, -1604979.0, -4228.0415, -0.02027589, 0.29803368, -1382877.8, 1798.2323, 0.19614406, 10.000418, 9.997931 
2.3939629e+3, 1.687025e+2, -1150821.3, -1056934.6, -148447.27, -0.04086933, 0.23667942, -948185.1, 338549.25, 0.12585048, 9.999779, 10.001467 
2.3936062e+3, 1.7869622e+2, -1167400.0, -1123169.0, -32221.926, -0.1889506, 0.054009676, -1106203.3, 82589.016, 0.083471425, 9.999398, 10.000364 
2.3932578e+3, 1.886909e+2, -955301.2, -975296.0, 160590.42, -0.094576105, 0.10688713, -804397.25, 286449.28, 0.057587944, 10.000372, 10.000179 
2.3929109e+3, 1.9868557e+2, -779788.9, -909338.94, 44147.473, 0.019445885, 0.14421032, -766175.1, 226727.75, 0.03970386, 10.001079, 9.999658 
2.3925564e+3, 2.0868023e+2, -786945.4, -825542.94, -139339.19, -0.081956856, 0.21892719, -665574.9, 229385.16, 0.026570952, 10.000262, 9.999873 
2.3922002e+3, 2.1867439e+2, -829733.75, -797049.94, -70455.375, -0.2483463, 0.24485412, -741066.06, 55955.086, 0.017417854, 9.999214, 9.999934 
2.3918489e+3, 2.2867016e+2, -685953.56, -492010.13, 74430.375, -0.2282263, 0.31182575, -466738.66, 232320.73, 0.011141793, 9.998801, 10.00153 
2.3914993e+3, 2.386654e+2, -721000.8, -662037.7, 71669.7, -0.17279285, 0.36817303, -614022.75, -12921.256, 0.0065593217, 9.998756, 9.999712 
2.391144e+3, 2.4865884e+2, -535914.9, -478288.06, -81907.66, -0.25248638, 0.31957296, -420273.6, 82893.92, 0.0032030866, 9.999216, 10.000048 
2.3907906e+3, 2.5865117e+2, -628069.9, -671046.3, 881.50354, -0.33394092, 0.23452446, -628051.8, -222807.05, 0.0011282732, 9.998848, 9.998189 
2.3904392e+3, 2.6864496e+2, -103788.5, -194360.05, -42535.656, -0.11111643, 0.30027333, -86944.7, 220359.28, 0.00023273825, 10.001059, 9.999703 
2.3900896e+3, 2.7863857e+2, 172816.75, -36263.438, 130504.484, 0.06377421, 0.26383772, 235489.25, 444854.66, 0.000018051116, 10.002476, 9.999398 
2.3897341e+3, 2.8863108e+2, 219124.48, 30379.389, -55967.492, -0.15439638, 0.21211742, 234472.2, 345914.84, 0.000004039042, 10.002221, 9.999264 
2.389383e+3, 2.986292e+2, 40115.508, -178740.27, -10469.036, 0.06106687, 0.58200765, 40615.156, 54079.992, 0.00001362104, 10.001153, 9.998092 
2.389031e+3, 3.0861562e+2, 64348.773, 50835.992, -180168.83, -0.05639816, 0.26775944, 237887.84, 237887.84, 0.00005414364, 10.000514, 9.999942 
2.4053618e+3, 1.290859e+2, -1770882.1, -2172300.0, 150707.16, -0.071884885, 0.3705188, -1720599.6, -45620.438, 0.49043512, 10.001143, 9.995294 
2.4050096e+3, 1.3907057e+2, -1467967.5, -1924865.9, 32460.994, -0.32992348, -0.2441757, -1465672.8, 111454.92, 0.36336103, 10.002666, 9.995831 
2.40466e+3, 1.4906423e+2, -1369278.6, -1546802.6, 90006.91, -0.21831077, -0.07124437, -1331628.8, 147560.5, 0.24041095, 10.001347, 9.998377 
2.4043103e+3, 1.5906006e+2, -1582919.3, -1607032.1, 25666.861, -0.08864407, 0.24714956, -1566618.3, -185388.23, 0.14389461, 9.998768, 9.998603 
2.4039556e+3, 1.6905457e+2, -1261247.6, -1155809.4, -111272.14, -0.11693486, 0.2878149, -1085399.3, 197884.9, 0.08188297, 9.999305, 10.000835 
2.4036004e+3, 1.7904776e+2, -1126634.0, -1148487.8, -112821.45, -0.14365351, 0.12146291, -1024211.56, 161139.55, 0.047678713, 9.999926, 9.999941 
2.4032517e+3, 1.8904153e+2, -1123483.0, -1045480.9, 98411.71, -0.11708784, 0.07702189, -978623.8, 108790.74, 0.028905774, 9.999181, 10.000223 
2.4029036e+3, 1.9903597e+2, -1269504.8, -1174140.1, -24036.635, -0.09385448, 0.0942759, -1168424.3, -178952.19, 0.017015342, 9.997854, 9.999366 
2.4025476e+3, 2.0903166e+2, -951393.0, -863497.3, -151631.1, -0.32821548, 0.2610755, -749573.7, 141944.28, 0.00915297, 9.999007, 10.0002 
2.4021912e+3, 2.190273e+2, -766522.9, -752947.06, -88430.734, -0.47175366, 0.40895376, -671044.1, 122519.914, 0.0045936005, 9.999683, 10.000018 
2.4018411e+3, 2.2902225e+2, -621563.0, -410838.34, -7359.208, -0.29711854, 0.34649846, -410581.66, 285027.38, 0.0022051786, 9.999088, 10.001929 
2.4014921e+3, 2.3901585e+2, -921696.44, -801196.75, -84954.266, -0.11378308, 0.18458278, -757296.4, -159629.78, 0.0009056362, 9.997621, 9.9993105 
2.4011382e+3, 2.4901146e+2, -618347.4, -616126.6, -168590.08, -0.12462308, 0.41068864, -448643.25, 51074.285, 0.00023937336, 9.999217, 9.99903 
2.4007854e+3, 2.5900662e+2, -609243.44, -712558.9, -50704.234, -0.13051307, 0.65545654, -588517.2, -186743.22, 0.000025130046, 9.9992485, 9.9977255 
2.4004343e+3, 2.6899835e+2, -112645.15, -65829.21, -28982.672, -0.07875893, 0.45448133, -51982.273, 251864.72, 0.00000030344088, 10.000523, 10.00081 
2.4000844e+3, 2.7899e+2, -255521.55, -185059.4, -976.5133, -0.06718681, 0.056311157, -185045.88, 20873.191, 0.000000006555133, 9.999334, 9.999906 
2.3997295e+3, 2.8898516e+2, -190285.75, -279206.1, -86469.61, -0.1870976, 0.2874293, -137515.78, -29537.879, 0.00000087941476, 9.99997, 9.998191 
2.3993768e+3, 2.989836e+2, -486380.1, -492807.5, 18975.955, -0.101360865, 0.87194246, -470347.63, -460342.16, 0.0000072209577, 9.997898, 9.997481 
2.3990257e+3, 3.0896917e+2, 238970.73, 841709.44, -62156.633, -0.1218372, 0.00636764, 848052.56, 848052.56, 0.00003484927, 9.998826, 10.006073 
2.4153553e+3, 1.2943669e+2, -1817353.5, -1857571.9, 43907.38, -0.2769537, 0.52365875, -1789169.5, -117630.07, 0.44509998, 9.999284, 9.998496 
2.4150117e+3, 1.3942456e+2, -1386982.0, -1672384.8, 58450.363, 0.12603867, -0.008398168, -1375475.3, 198181.31, 0.31930807, 10.002516, 9.997713 
2.4146572e+3, 1.4941843e+2, -1301562.3, -1406630.1, -9432.89, -0.063573495, 0.067159034, -1300722.1, 174992.11, 0.20041417, 10.001335, 9.999422 
2.414301e+3, 1.5941262e+2, -1623421.9, -1687906.9, -3031.333, -0.3719949, 0.15266421, -1623279.8, -245510.0, 0.110025235, 9.998779, 9.998033 
2.4139492e+3, 1.694061e+2, -1384440.0, -1503177.0, -96859.586, -0.10737046, 0.28991345, -1330202.3, -50360.96, 0.054970514, 9.999708, 9.9981575 
2.4135982e+3, 1.7939939e+2, -1135720.3, -1281531.3, -113502.83, 0.15692176, 0.37117696, -1073725.4, 108189.83, 0.027314784, 10.000399, 9.998778 
2.4132448e+3, 1.8939447e+2, -1064727.8, -957184.1, 9818.911, -0.12988408, 0.44415638, -956294.94, 127671.62, 0.013986388, 9.99929, 10.00079 
2.4128918e+3, 1.9938964e+2, -1219222.4, -1046360.1, -26364.727, -0.49031135, 0.48324913, -1042428.44, -56412.465, 0.006556314, 9.99771, 10.000321 
2.412541e+3, 2.0938475e+2, -819061.1, -690816.7, -82397.695, -0.300976, 0.4892252, -650530.9, 237533.06, 0.002469395, 9.999423, 10.001207 
2.41219e+3, 2.1937934e+2, -532776.5, -667803.9, -35075.258, -0.09697826, 0.4777473, -524208.84, 265907.72, 0.00078321603, 10.001327, 9.999837 
2.411836e+3, 2.2937165e+2, -629707.44, -652057.3, -98944.05, -0.20486097, 0.30976036, -541309.25, 150878.47, 0.00023610769, 10.000008, 9.999835 
2.4114822e+3, 2.3936333e+2, -848551.94, -811780.44, -135424.33, -0.3634542, 0.12603945, -693499.5, -99234.195, 0.000047296035, 9.998257, 9.998935 
2.4111304e+3, 2.493585e+2, -510702.56, -471384.66, -144494.33, -0.2697725, 0.26226473, -345218.06, 151098.3, 0.0000020598873, 9.9995165, 9.999903 
2.41078e+3, 2.593539e+2, -310238.63, -419580.4, -39510.14, -0.15637289, 0.4366517, -297456.16, 100909.79, 0.0, 10.000604, 9.999076 
2.4104285e+3, 2.69347e+2, -259432.19, -193937.89, -93232.98, -0.089943774, 0.36397022, -127868.22, 172561.95, 0.0, 9.999761, 10.000299 
2.4100767e+3, 2.793403e+2, -349739.9, -115338.57, -130388.695, -0.11649446, 0.1830124, -57218.938, 145272.39, 0.0, 9.998074, 10.001021 
2.4097207e+3, 2.8933617e+2, -272329.5, -46680.348, -158857.69, -0.32670197, 0.26821753, 35341.56, 139880.53, 0.0000001537889, 9.998077, 10.000794 
2.4093671e+3, 2.9933447e+2, -235499.7, -230822.13, 62916.48, -0.37527758, 0.65872675, -170200.98, -163638.02, 0.000003139397, 9.99881, 9.998894 
2.4090217e+3, 3.0932176e+2, 377759.2, 636261.8, -114505.24, 0.092105396, 0.084382415, 679687.5, 679687.5, 0.000017282315, 10.000641, 10.003905 
2.4253508e+3, 1.2978484e+2, -1599207.9, -1673466.3, 164814.55, -0.12877779, 0.31530184, -1467392.1, 200729.47, 0.4141129, 10.000767, 9.999478 
2.4250075e+3, 1.3977687e+2, -1816689.1, -1817397.4, -15800.554, 0.28054717, 0.12399575, -1801238.8, -231035.73, 0.28877336, 9.99837, 9.998749 
2.4246521e+3, 1.49771e+2, -1484659.4, -1409245.6, -85984.22, 0.0078719575, 0.11281671, -1353063.8, 119192.91, 0.17287979, 9.999256, 10.000483 
2.4242947e+3, 1.5976481e+2, -1389032.4, -1593483.9, -63969.344, -0.33939865, 0.0905634, -1370667.1, 3647.0347, 0.08747846, 10.000314, 9.998026 
2.423944e+3, 1.6975749e+2, -1201383.5, -1540757.3, 8807.375, -0.0657525, 0.22160356, -1201155.1, 75239.85, 0.038149297, 10.001471, 9.997073 
2.4235943e+3, 1.7975056e+2, -973266.9, -1276467.8, 33171.31, 0.28744346, 0.39596993, -969680.2, 208793.33, 0.01570925, 10.001843, 9.9981 
2.4232388e+3, 1.8974568e+2, -950311.0, -918160.6, 46843.457, -0.09839503, 0.49953005, -884710.9, 195815.16, 0.0064830934, 10.000149, 10.000615 
2.4228834e+3, 1.9974096e+2, -1224251.9, -1050213.9, -12801.249, -0.49666828, 0.564299, -1049277.3, -66702.06, 0.0021827125, 9.997713, 10.000285 
2.422535e+3, 2.0973633e+2, -896426.44, -664912.6, -8908.834, -0.20994523, 0.5494936, -664570.3, 220050.13, 0.00044835047, 9.998663, 10.001723 
2.4221867e+3, 2.1973087e+2, -884727.4, -890973.8, -58090.85, 0.15074892, 0.4820488, -829675.8, -43003.125, 0.000068581576, 9.99923, 9.999291 
2.4218301e+3, 2.2972204e+2, -801890.5, -871367.1, -99400.21, -0.14732514, 0.30872673, -731333.25, -42576.844, 0.0000096515805, 9.99954, 9.998513 
2.4214736e+3, 2.3971264e+2, -858308.06, -875174.94, -28686.51, -0.44356903, 0.12625277, -836841.06, -245995.6, 0.00000040342232, 9.998541, 9.998357 
2.4211232e+3, 2.497071e+2, -459160.6, -339256.0, 38983.27, -0.32618776, 0.1377885, -327696.25, 165202.23, 0.0, 9.999467, 10.000807 
2.4207744e+3, 2.59702e+2, -558539.1, -538793.8, 34966.008, -0.15503244, 0.17317979, -512333.44, -117385.29, 0.0, 9.9989605, 9.999067 
2.4204218e+3, 2.696965e+2, -432827.3, -342942.8, -39597.93, -0.108703405, 0.26971632, -327986.78, -30982.357, 0.0, 9.998932, 9.999627 
2.4200685e+3, 2.796911e+2, -576160.44, -319595.22, -84658.92, -0.12083598, 0.30176845, -294178.25, -95118.68, 0.0, 9.997, 10.000144 
2.4197109e+3, 2.8968647e+2, -172200.2, 226728.98, -135257.7, -0.5105401, 0.24163535, 268263.94, 369370.1, 0.0000000009564638, 9.997974, 10.002635 
2.4193576e+3, 2.9968342e+2, -632596.94, -444209.22, 69266.086, -0.6361644, 0.29895633, -421483.13, -418346.6, 0.0000004799063, 9.996339, 9.9986 
2.4190156e+3, 3.0967617e+2, -138974.03, -43092.652, -186425.19, -0.04686202, 0.35422906, 101457.336, 101457.336, 0.0000055147566, 9.999081, 9.999943 
2.4353445e+3, 1.3013652e+2, -1681188.4, -1940639.3, 73573.42, -0.34689787, 0.31253362, -1661777.3, 2889.1045, 0.39271495, 10.000749, 9.997257 
2.4349965e+3, 1.4012595e+2, -1873382.9, -1856935.6, -34531.535, -0.1320305, 0.047058724, -1829662.0, -262879.56, 0.26710206, 9.998121, 9.998571 
2.4346446e+3, 1.5012087e+2, -1392944.1, -1242078.5, -57845.945, -0.086952336, 0.018419893, -1222452.1, 246375.6, 0.15331793, 9.999346, 10.001748 
2.4342915e+3, 1.6011602e+2, -1313360.8, -1421665.8, -4742.905, -0.14509849, 0.015234226, -1313153.4, 57715.92, 0.07196278, 10.000328, 9.99919 
2.4339387e+3, 1.7010857e+2, -1068581.4, -1346755.5, 54899.895, -0.1927564, 0.020951817, -1058138.5, 214804.94, 0.027363949, 10.001871, 9.998204 
2.433586e+3, 1.8010062e+2, -913334.2, -1260394.6, 48710.813, -0.22231084, 0.012960835, -906627.1, 268397.66, 0.009079448, 10.002323, 9.997958 
2.4332337e+3, 1.9009347e+2, -1010458.1, -1124675.0, -32060.746, -0.058192533, 0.01996624, -1002074.1, 75026.555, 0.002868925, 10.000502, 9.999021 
2.4328811e+3, 2.0008704e+2, -1171696.3, -1100840.5, -22940.643, 0.016570829, 0.06074852, -1094061.6, -114891.66, 0.00059867656, 9.998367, 9.999631 
2.4325281e+3, 2.1008427e+2, -886810.44, -695276.6, 21918.246, -0.1691387, 0.27219027, -692800.44, 188402.47, 0.000045539302, 9.998832, 10.00145 
2.4321757e+3, 2.2008121e+2, -798857.3, -759086.3, -32081.248, -0.33436346, 0.45935142, -741227.4, 42009.83, 0.0000022398012, 9.999384, 10.000113 
2.4318233e+3, 2.3007439e+2, -652970.3, -636465.75, -54252.957, -0.21991606, 0.3622421, -589841.06, 95461.85, 0.000000052409952, 9.999827, 10.000001 
2.4314709e+3, 2.4006703e+2, -528824.7, -528225.9, 74429.28, -0.11565193, 0.24280626, -454095.4, 133277.13, 0.0, 9.999936, 10.000072 
2.4311197e+3, 2.5006157e+2, -403820.7, -259180.14, 123472.805, -0.0619112, 0.19957247, -188406.89, 301014.5, 0.0, 9.999558, 10.001348 
2.4307686e+3, 2.6005632e+2, -501284.28, -424094.28, 109666.25, -0.073031515, 0.18663932, -346429.8, 45040.242, 0.0, 9.998878, 9.999906 
2.4304138e+3, 2.700508e+2, -467799.44, -406061.75, 30143.123, -0.20156875, 0.2955316, -393785.56, -100254.42, 0.0, 9.998768, 9.999333 
2.4300596e+3, 2.800452e+2, -333758.06, -270335.28, 27142.662, -0.28156787, 0.39268166, -260305.38, -64712.414, 0.0, 9.998814, 9.999631 
2.4297059e+3, 2.9003865e+2, -18861.959, 85914.89, -51471.492, -0.34054336, 0.30926108, 106969.375, 204626.4, 0.0, 9.999799, 10.000853 
2.4293548e+3, 3.0003288e+2, 19237.906, -8251.862, 64423.375, -0.31419522, 0.22911444, 71366.336, 71366.336, 0.000000008678429, 10.00012, 9.999801 
2.4290095e+3, 3.1002912e+2, 118333.35, 150561.52, -269923.16, -0.064728014, 0.5401876, 404851.16, 404851.16, 0.0000009202062, 10.000172, 10.000925 
2.4456987e+3, 1.2048617e+2, -1451422.8, -1225060.3, -58617.695, 0.34987912, -0.5084799, -1210781.6, 548454.44, 0.4945417, 10.000423, 10.006621 
2.4453406e+3, 1.3048851e+2, -1790671.8, -2039302.1, -43943.598, -0.18755911, 0.35826647, -1783133.6, -121916.35, 0.3775347, 10.000221, 9.996892 
2.4449873e+3, 1.4047697e+2, -1958349.5, -1868002.1, 38652.25, -0.22810258, 0.041445114, -1853722.9, -290379.25, 0.25111946, 9.997387, 9.998856 
2.444637e+3, 1.504721e+2, -1454002.1, -1290544.8, 1822.1257, -0.1604604, 0.040406354, -1290524.5, 174864.11, 0.13882844, 9.998962, 10.001504 
2.4442863e+3, 1.6046739e+2, -1294799.0, -1359148.5, -66955.57, -0.05594731, 0.06278717, -1252688.8, 114740.93, 0.060861234, 10.000254, 9.999653 
2.4439329e+3, 1.7046008e+2, -1224480.5, -1305257.6, -40922.95, -0.2665913, -0.025711438, -1207371.9, 62125.86, 0.02025213, 10.000326, 9.99921 
2.4435793e+3, 1.8045206e+2, -1245047.6, -1408767.9, -92364.45, -0.4061023, -0.11890374, -1203488.6, -31914.443, 0.0052852775, 9.999997, 9.998072 
2.4432285e+3, 1.9044398e+2, -1040763.94, -1215893.5, -106236.805, -0.018406188, -0.17481855, -990655.75, 83002.04, 0.0012089658, 10.000652, 9.998329 
2.4428774e+3, 2.004367e+2, -920135.0, -1037784.7, -3610.116, 0.34433421, -0.15069816, -920024.3, 55710.91, 0.00012403581, 10.000415, 9.999063 
2.4425213e+3, 2.1043433e+2, -876322.6, -731112.9, 54047.77, -0.1543002, 0.13066459, -713204.6, 164561.94, 0.000001917801, 9.999154, 10.000995 
2.442166e+3, 2.2043198e+2, -1068480.5, -897553.25, -11944.894, -0.5753804, 0.4169111, -896722.56, -116925.63, 0.000000018702426, 9.997618, 9.999991 
2.441817e+3, 2.3042664e+2, -643297.25, -515088.88, -60439.38, -0.19357552, 0.37986976, -491089.34, 190760.17, 0.0, 9.999403, 10.001006 
2.4414682e+3, 2.4042076e+2, -509489.97, -475566.06, -18636.328, 0.22597477, 0.2926551, -467328.4, 116577.02, 0.0, 9.99994, 10.0004225 
2.4411152e+3, 2.5041598e+2, -343350.6, -173804.53, 2386.4539, 0.13004759, 0.25410017, -173770.95, 312174.94, 0.0, 9.99986, 10.001738 
2.4407615e+3, 2.6041114e+2, -607527.44, -557418.94, -17633.523, -0.043708723, 0.25189334, -551835.7, -163846.34, 0.0, 9.998608, 9.999107 
2.4404055e+3, 2.704055e+2, -415902.1, -430884.2, -64913.277, -0.32382768, 0.38682708, -358049.06, -67993.65, 0.0, 9.999419, 9.998816 
2.440051e+3, 2.803993e+2, -447470.84, -490344.1, -46434.99, -0.4401755, 0.46810642, -417763.2, -225636.83, 0.0, 9.998831, 9.998122 
2.4397019e+3, 2.9039115e+2, -155553.0, -171908.92, -21227.832, -0.10461738, 0.3455331, -140982.34, -46777.086, 0.0, 9.999775, 9.999057 
2.4393523e+3, 3.0038372e+2, -468512.63, -305692.63, 126458.73, 0.014080065, 0.2422554, -236705.16, -236705.16, 0.0, 9.997187, 9.999167 
2.4389996e+3, 3.1037852e+2, -306050.88, 235125.38, 44998.68, -0.48654792, 0.16446848, 238841.48, 238841.48, 0.00000009984614, 9.996445, 10.003113 
2.455686e+3, 1.208406e+2, -1524732.5, -1363824.6, 89750.625, -0.5234333, -0.061759885, -1323746.4, 432026.8, 0.48539782, 10.000387, 10.004655 
2.4553388e+3, 1.308398e+2, -1676004.0, -1749525.0, -161201.02, 0.22426188, 0.38631007, -1547425.1, 110357.01, 0.36593348, 10.000296, 9.998986 
2.4549785e+3, 1.4083093e+2, -1988156.9, -1915032.8, 41401.59, -0.30105537, 0.19409752, -1896360.1, -336483.22, 0.23856215, 9.9973955, 9.9985 
2.4546279e+3, 1.5082501e+2, -1567922.4, -1534272.1, 77911.61, -0.39277357, 0.24370171, -1471389.6, -9452.11, 0.1275105, 9.999117, 9.999543 
2.4542783e+3, 1.6081898e+2, -1320713.3, -1418209.1, -46728.547, -0.36293653, 0.28499645, -1301934.0, 62063.355, 0.052560914, 10.000304, 9.999191 
2.453927e+3, 1.7081223e+2, -1172687.9, -1200521.9, -63983.285, -0.30390304, 0.20747511, -1121125.5, 144935.4, 0.01541553, 10.000333, 9.999934 
2.4535747e+3, 1.8080536e+2, -1192482.4, -1259914.0, -81965.02, -0.30133617, 0.15125115, -1137569.6, 30556.342, 0.0031067657, 9.999827, 9.999172 
2.4532217e+3, 1.9079955e+2, -905912.5, -998897.94, -54988.023, -0.19277903, 0.19349797, -880396.5, 189786.05, 0.00048131414, 10.000932, 9.999673 
2.4528687e+3, 2.0079355e+2, -754717.7, -925144.9, 3611.399, -0.10848636, 0.24525625, -754641.2, 217600.81, 0.000015932997, 10.00139, 9.999348 
2.4525142e+3, 2.1078782e+2, -880038.4, -828501.1, -17529.33, -0.22826067, 0.2586935, -823104.06, 51197.168, 0.0000000054715246, 9.999531, 10.000144 
2.4521607e+3, 2.207823e+2, -1021505.2, -887003.94, 6135.0225, -0.336521, 0.30316532, -886724.7, -110365.97, 0.0, 9.9979315, 9.9999275 
2.4518123e+3, 2.307766e+2, -630490.06, -554526.56, 1423.5118, -0.024351269, 0.2678918, -554499.94, 123915.99, 0.0, 9.999606, 10.00069 
2.4514632e+3, 2.4077097e+2, -334996.53, -367258.22, -47244.395, 0.1979537, 0.23906462, -301205.1, 279266.9, 0.0, 10.000938, 10.000707 
2.4511069e+3, 2.5076684e+2, -259631.11, -156053.47, -84362.07, -0.14006983, 0.2765258, -108852.19, 373659.25, 0.0, 10.000457, 10.001619 
2.4507512e+3, 2.6076245e+2, -397495.22, -447968.5, -95050.375, -0.478491, 0.3449664, -324388.25, 60166.55, 0.0, 9.999884, 9.999279 
2.4503987e+3, 2.7075586e+2, -295919.88, -451689.53, -135114.44, -0.41977543, 0.42620984, -217849.72, 68779.52, 0.0, 10.000447, 9.998246 
2.4500471e+3, 2.8074926e+2, -13268.604, -126742.77, -130345.16, -0.3107572, 0.4812222, 72152.52, 260854.72, 0.0, 10.001003, 9.999602 
2.4496953e+3, 2.9074335e+2, 145349.77, 171779.27, -61611.594, -0.240595, 0.40738982, 221577.36, 312333.84, 0.0, 10.000838, 10.00097 
2.4493435e+3, 3.007378e+2, 34862.836, 50525.883, 73595.33, -0.25383556, 0.3598425, 116705.2, 116705.2, 0.0, 9.999915, 10.00035 
2.4489905e+3, 3.1073368e+2, -124174.305, 361103.78, 18875.709, -0.52985215, 0.47173357, 361836.9, 361836.9, 0.000000000000427524, 9.997199, 10.003717 
2.46568e+3, 1.2119508e+2, -1768151.0, -1657876.9, 262217.84, -0.58590287, 0.098612376, -1445061.9, 307235.2, 0.47722325, 9.999309, 10.001826 
2.465335e+3, 1.3119036e+2, -1618014.0, -1639205.8, -104145.86, 0.4114369, 0.18727379, -1523926.4, 130420.91, 0.3557266, 10.000235, 9.99987 
2.4649721e+3, 1.4118463e+2, -1474878.5, -1649874.4, 53584.055, -0.27030966, 0.27126694, -1459774.6, 96634.21, 0.22774403, 10.001005, 9.998616 
2.4646221e+3, 1.51178e+2, -1398449.4, -1534547.9, 195679.81, -0.3832925, 0.30641162, -1259324.1, 199154.25, 0.11809006, 10.000766, 9.99881 
2.464273e+3, 1.6117123e+2, -1333227.5, -1488046.0, 105285.125, -0.328568, 0.36254993, -1279957.1, 80591.984, 0.04605504, 10.000461, 9.99865 
2.4639216e+3, 1.7116463e+2, -1193030.3, -1257284.9, -13941.708, -0.25853187, 0.3481981, -1190135.6, 72480.64, 0.012013259, 10.000383, 9.999512 
2.4635693e+3, 1.8115842e+2, -1148077.4, -1196118.5, -100558.8, -0.2041745, 0.3707145, -1068710.0, 95967.43, 0.0018483637, 9.999927, 9.999575 
2.4632145e+3, 1.9115365e+2, -991629.06, -956545.44, -100879.18, -0.31683913, 0.43124995, -871694.25, 195025.63, 0.00018026956, 9.999927, 10.000475 
2.4628606e+3, 2.0114821e+2, -1080005.6, -1105704.8, -117828.66, -0.3511293, 0.4798042, -974328.0, -5558.9834, 0.0000007906511, 9.999306, 9.999124 
2.462507e+3, 2.1113983e+2, -1040606.75, -995006.1, -150318.47, -0.2372826, 0.27836025, -865768.6, 5081.2397, 0.0, 9.998849, 9.999353 
2.462155e+3, 2.2113185e+2, -1114505.1, -986007.2, -33157.094, -0.06636496, 0.14416505, -977955.94, -205028.0, 0.0, 9.997644, 9.999376 
2.4618067e+3, 2.3112689e+2, -831586.9, -632538.9, 59761.445, 0.10671562, 0.17090486, -615974.75, 59004.47, 0.0, 9.998337, 10.000677 
2.4614568e+3, 2.411222e+2, -826154.1, -682376.8, -18349.43, 0.1770145, 0.25155404, -680071.94, -103043.64, 0.0, 9.998017, 9.999923 
2.4610981e+3, 2.5111794e+2, -667044.0, -429126.4, -98645.086, -0.37509528, 0.3308163, -393547.03, 85527.56, 0.0, 9.998, 10.000915 
2.460741e+3, 2.611131e+2, -878409.06, -764998.8, -82660.04, -0.7867992, 0.41205907, -721463.44, -340336.38, 0.0, 9.997026, 9.998469 
2.4603929e+3, 2.7110565e+2, -523413.53, -554666.75, -11511.085, -0.40872896, 0.40684113, -519631.47, -236424.3, 0.0, 9.998948, 9.998209 
2.4600442e+3, 2.8109917e+2, -239164.77, -163396.02, 19570.29, -0.08815329, 0.46261847, -158639.77, 26636.12, 0.0, 9.999271, 10.000169 
2.4596873e+3, 2.9109573e+2, 51172.22, 319203.63, -15953.841, -0.5105153, 0.47013116, 320149.88, 407454.34, 0.0, 9.999455, 10.002613 
2.4593343e+3, 3.0109063e+2, -571553.2, -440949.44, -15648.069, -0.56153536, 0.42867967, -439100.75, -439100.75, 0.0, 9.99683, 9.998418 
2.4589832e+3, 3.1108713e+2, -372480.38, 126742.79, -75762.03, -0.46258146, 0.7429056, 137987.16, 137987.16, 0.0, 9.996432, 10.002296 
2.4756767e+3, 1.2154986e+2, -1952753.4, -2048372.9, 223544.17, -0.33589023, 0.13308525, -1771963.5, -23153.709, 0.4678463, 9.999265, 9.997931 
2.4753281e+3, 1.3154057e+2, -1633631.1, -1693354.6, -75156.02, 0.30833316, -0.12834957, -1582621.6, 68288.164, 0.34520847, 10.000376, 9.999235 
2.4749675e+3, 1.4153719e+2, -1516525.0, -1664543.0, 74511.41, -0.27618617, 0.22927836, -1485513.6, 67434.43, 0.21743059, 10.000651, 9.998673 
2.4746189e+3, 1.515306e+2, -1343832.8, -1417049.6, 193075.42, -0.21364836, 0.19758846, -1183925.8, 271088.56, 0.109704144, 10.000821, 9.999579 
2.4742703e+3, 1.6152368e+2, -1406626.1, -1637404.3, 122677.26, -0.123654716, 0.22318485, -1353598.0, 3488.1292, 0.040704507, 10.000461, 9.997604 
2.4739166e+3, 1.7151637e+2, -1308264.0, -1545332.0, -8390.062, -0.24925579, 0.32930255, -1307967.4, -48798.254, 0.00953522, 10.000578, 9.997449 
2.473562e+3, 1.8150944e+2, -1151634.5, -1250274.0, -112673.52, -0.39228934, 0.4420112, -1077959.3, 83284.99, 0.0011160366, 10.000129, 9.999103 
2.4732077e+3, 1.9150381e+2, -994481.5, -944509.9, -126526.58, -0.394963, 0.42024302, -840525.7, 222765.77, 0.00006263998, 9.999849, 10.000599 
2.4728538e+3, 2.0149752e+2, -1079271.5, -1072692.9, -151711.08, -0.38608006, 0.3739427, -924235.44, 41110.01, 0.0000000031066179, 9.999164, 9.999417 
2.4725e+3, 2.1148814e+2, -1006544.06, -984817.06, -172366.75, -0.23778543, 0.07481041, -822971.8, 44462.13, 0.0, 9.999064, 9.999362 
2.4721472e+3, 2.2148001e+2, -889112.6, -757073.25, -30774.385, -0.13048914, -0.09307708, -750252.94, 19259.014, 0.0, 9.99861, 10.000499 
2.4717973e+3, 2.3147784e+2, -770784.7, -485011.13, 68770.2, -0.05510938, 0.10978346, -469323.1, 202213.44, 0.0, 9.998188, 10.001792 
2.4714468e+3, 2.4147525e+2, -857957.2, -699306.9, -17242.813, -0.05218585, 0.34295085, -697454.5, -123887.81, 0.0, 9.997717, 9.999967 
2.4710901e+3, 2.514698e+2, -899292.1, -687315.44, -114505.97, -0.29077345, 0.4134598, -637274.44, -161646.33, 0.0, 9.996947, 9.999694 
2.4707352e+3, 2.6146403e+2, -775876.1, -492193.22, -12027.929, -0.47698593, 0.44328278, -491684.16, -113994.2, 0.0, 9.996644, 10.000544 
2.4703877e+3, 2.7145818e+2, -328857.6, -110550.69, 158069.05, -0.2104938, 0.31182498, -27609.643, 252134.05, 0.0, 9.998691, 10.001414 
2.4700385e+3, 2.8145316e+2, -54883.285, -30594.348, 146540.42, -0.07626297, 0.30747277, 104303.98, 286094.84, 0.0, 10.00025, 10.000616 
2.4696809e+3, 2.914482e+2, -103992.586, -18417.176, -17690.213, -0.46822733, 0.35872355, -14904.434, 68936.89, 0.0, 9.999337, 10.000448 
2.4693303e+3, 3.0144083e+2, -292163.38, -471225.1, 25226.61, -0.259277, 0.31238917, -288677.28, -288677.28, 0.0, 9.999219, 9.997123 
2.4689795e+3, 3.114335e+2, 533896.3, 359516.94, -10930.604, -0.35012797, 0.46499315, 534578.75, 534578.75, 0.0, 10.003111, 10.000844 
2.4856712e+3, 1.2190012e+2, -2024322.3, -2205506.8, -118856.234, -0.2691975, 0.022390326, -1965469.8, -220087.0, 0.45571515, 9.999072, 9.997013 
2.4853228e+3, 1.3189174e+2, -1478074.0, -1557495.5, -102559.81, 0.28710756, -0.2087066, -1407805.4, 239663.25, 0.33319858, 10.001458, 9.999921 
2.4849637e+3, 1.418884e+2, -1218490.5, -1457909.3, 23103.902, -0.24992587, 0.09244538, -1216281.4, 333220.6, 0.20679392, 10.002928, 9.999174 
2.4846143e+3, 1.5188234e+2, -1285962.5, -1393582.9, 56067.445, -0.16340932, 0.10396907, -1262061.1, 189501.22, 0.10179194, 10.001181, 9.999592 
2.4842651e+3, 1.6187565e+2, -1542852.5, -1707842.4, -627.55316, -0.01960531, 0.15190795, -1542850.1, -189218.33, 0.036105353, 9.999555, 9.99756 
2.4839106e+3, 1.7186828e+2, -1354944.5, -1606640.0, 29412.113, -0.27073938, 0.27225915, -1351553.1, -95835.68, 0.0076701324, 10.000458, 9.997085 
2.4835557e+3, 1.818611e+2, -1090407.0, -1231721.9, 8783.764, -0.4423805, 0.40876612, -1089863.1, 67933.59, 0.000687035, 10.000644, 9.998955 
2.4832016e+3, 1.9185513e+2, -1071629.4, -969187.25, -28654.729, -0.36082608, 0.3445514, -961716.8, 98130.19, 0.000019881356, 9.999355, 10.000606 
2.4828477e+3, 2.0184822e+2, -1262429.1, -1181144.6, -32789.777, -0.24147789, 0.25314525, -1169566.5, -207660.05, 0.0, 9.998041, 9.999181 
2.4824932e+3, 2.118386e+2, -1035692.56, -994938.2, -43466.477, -0.18455048, -0.06311538, -967309.5, -103313.164, 0.0, 9.998915, 9.999292 
2.4821396e+3, 2.2183086e+2, -866722.5, -759225.2, 63768.36, -0.13286294, -0.18907544, -729575.25, 36495.145, 0.0, 9.998846, 10.000358 
2.4817885e+3, 2.3182982e+2, -665736.06, -427159.78, 50567.625, -0.17419438, 0.11202528, -416884.25, 251201.47, 0.0, 9.998857, 10.001875 
2.481437e+3, 2.4182783e+2, -878059.6, -800129.4, -93505.81, -0.18202727, 0.4200623, -737794.9, -167683.73, 0.0, 9.998067, 9.999097 
2.4810825e+3, 2.5182113e+2, -704488.6, -672509.44, -135303.69, -0.18427235, 0.422034, -552253.8, -80068.34, 0.0, 9.998716, 9.998894 
2.4807297e+3, 2.618147e+2, -542900.8, -262136.05, 41805.8, -0.13422148, 0.4001946, -256043.39, 118208.55, 0.0, 9.997859, 10.001529 
2.4803819e+3, 2.718109e+2, -330172.72, 174723.6, 104628.5, -0.047651976, 0.2270126, 195546.72, 471824.28, 0.0, 9.997544, 10.003902 
2.480032e+3, 2.8180665e+2, -651528.7, -478527.72, -29329.174, -0.08756524, 0.1695195, -473690.72, -295379.4, 0.0, 9.996933, 9.999133 
2.4796756e+3, 2.9179934e+2, -310362.47, -356315.1, -121603.83, -0.34779337, 0.17123814, -209583.38, -129192.234, 0.0, 9.999129, 9.998142 
2.4793276e+3, 3.0179158e+2, -475312.03, -739885.0, 110774.04, 0.10598109, 0.27785146, -435056.94, -435056.94, 0.0, 9.998914, 9.995398 
2.4789777e+3, 3.117825e+2, -54849.008, -8299.374, 113341.125, -0.27258605, 0.25877368, 84132.02, 84132.02, 0.0, 9.9995775, 9.999991 
2.4956644e+3, 1.2225117e+2, -1952467.8, -1978613.3, -131455.36, -0.35695863, 0.33509153, -1833436.8, -91478.414, 0.43991756, 9.998918, 9.998596 
2.4953184e+3, 1.3224356e+2, -1355615.3, -1320284.6, -15460.595, 0.2595205, -0.06562771, -1314474.5, 329550.84, 0.31901658, 10.001585, 10.002196 
2.4949592e+3, 1.4223817e+2, -1267486.3, -1495326.1, 10372.351, -0.42543644, -0.10987478, -1267015.0, 279056.8, 0.19536594, 10.002603, 9.998968 
2.4946079e+3, 1.5223287e+2, -1369875.4, -1518032.9, -5923.3926, -0.3499795, 0.050307073, -1369639.0, 78488.38, 0.094030365, 10.000948, 9.998777 
2.4942568e+3, 1.6222692e+2, -1479850.1, -1527979.0, 6926.839, -0.27404907, 0.18177785, -1478873.0, -128683.445, 0.032013185, 9.999378, 9.998859 
2.4939036e+3, 1.7222022e+2, -1176109.3, -1263248.0, 99293.555, -0.4338986, 0.1525534, -1111246.6, 141013.44, 0.0062260167, 10.000596, 9.999356 
2.49355e+3, 1.8221375e+2, -1006140.4, -1087828.5, 16144.744, -0.5264974, 0.18357562, -1003065.3, 151261.03, 0.00043419475, 10.00078, 9.999865 
2.4931963e+3, 1.9220813e+2, -1044590.06, -948505.1, -44819.227, -0.23349912, 0.13785703, -930844.9, 125532.875, 0.0000058323185, 9.99948, 10.000698 
2.4928422e+3, 2.0220189e+2, -1207790.9, -1155096.3, 20015.621, -0.053651594, 0.12581092, -1148355.8, -189920.77, 0.000000000090419006, 9.998376, 9.999199 
2.4924871e+3, 2.1219419e+2, -962511.7, -979042.8, 45685.637, -0.13345964, 0.019463954, -924349.94, -63841.93, 0.0, 9.999429, 9.999169 
2.4921328e+3, 2.2218727e+2, -786934.3, -874120.4, 97904.11, -0.2263152, 0.03960263, -723356.6, 39220.105, 0.0, 10.000006, 9.999001 
2.491782e+3, 2.3218341e+2, -707771.06, -721637.6, 38689.02, -0.19624388, 0.29723656, -675399.0, -10774.304, 0.0, 9.999704, 9.999469 
2.4914302e+3, 2.4217868e+2, -604641.56, -615464.7, -110103.01, -0.21647489, 0.48271573, -499817.2, 66860.94, 0.0, 9.999648, 9.999602 
2.4910752e+3, 2.5217077e+2, -362508.38, -390354.97, -101707.13, -0.3126789, 0.26850358, -273775.94, 194978.33, 0.0, 10.000472, 10.000019 
2.490722e+3, 2.621637e+2, -228960.14, -186405.47, -22914.438, -0.32729125, 0.14364053, -176413.06, 194409.05, 0.0, 10.000247, 10.000906 
2.4903731e+3, 2.7215993e+2, -495894.72, -143979.5, -76960.5, -0.08680967, 0.17686284, -127885.03, 144971.2, 0.0, 9.997334, 10.001865 
2.4900232e+3, 2.8215587e+2, -673616.44, -395637.22, -103051.92, -0.016992247, 0.24693829, -361601.38, -186706.77, 0.0, 9.996213, 10.000085 
2.4896704e+3, 2.9215038e+2, 30675.24, -19506.918, -42962.453, -0.2585379, 0.28726956, 55336.895, 132290.6, 0.0, 10.000578, 9.9998255 
2.4893238e+3, 3.021445e+2, 290741.44, -132413.92, 98812.37, 0.09538254, 0.40306315, 312678.22, 312678.22, 0.0, 10.003012, 9.997625 
2.4889715e+3, 3.121349e+2, -99911.91, 47118.96, 37827.703, -0.2425827, 0.2841723, 56280.332, 56280.332, 0.0, 9.998628, 10.000954 
2.5056612e+3, 1.2260354e+2, -1466499.3, -1658705.6, -60190.35, -0.18882997, 0.38697404, -1449206.3, 289309.16, 0.42027465, 10.003235, 9.999202 
2.505313e+3, 1.3259783e+2, -1478318.4, -1373630.9, 2737.6487, 0.21581237, 0.19686931, -1373559.3, 267003.47, 0.30251706, 10.000277, 10.002276 
2.504955e+3, 1.425912e+2, -1758234.1, -1770852.3, -53556.043, -0.33144182, 0.049325608, -1710616.9, -167996.66, 0.18302314, 9.998707, 9.998912 
2.5046012e+3, 1.5258431e+2, -1474215.8, -1613408.9, -42873.504, -0.44724736, 0.06308267, -1462069.9, -17381.504, 0.08629053, 10.000239, 9.998494 
2.504249e+3, 1.6257818e+2, -1265495.8, -1293897.4, -8125.3623, -0.4231063, 0.14377283, -1263335.5, 83413.96, 0.028287582, 10.000254, 10.000064 
2.5038975e+3, 1.7257296e+2, -1452745.8, -1236093.8, 27201.559, -0.39496446, 0.098247215, -1232730.6, 16068.255, 0.0050760456, 9.997913, 10.000867 
2.503545e+3, 1.8256724e+2, -1610587.0, -1373102.5, -79759.586, -0.3109742, 0.09874332, -1348801.8, -197947.69, 0.00028139996, 9.996643, 9.999912 
2.503191e+3, 1.9256131e+2, -1155910.3, -1052723.5, -188280.75, -0.068396896, 0.05441279, -909095.2, 143817.9, 0.0000014559199, 9.9990015, 10.000226 
2.5028366e+3, 2.025552e+2, -934557.7, -1029373.3, -99281.484, 0.110258915, 0.08027219, -871945.9, 83026.38, 0.0, 10.000332, 9.999128 
2.5024816e+3, 2.1254916e+2, -729102.56, -822406.4, -26966.129, -0.054465763, 0.092226416, -721869.7, 135158.3, 0.0, 10.000949, 9.999491 
2.5021276e+3, 2.2254299e+2, -801044.06, -1043243.6, 57436.87, -0.18440469, 0.22036469, -788113.44, -29023.652, 0.0, 10.000683, 9.997516 
2.5017756e+3, 2.3253645e+2, -754004.56, -936730.0, 76386.34, -0.2254113, 0.36711475, -726279.0, -65112.53, 0.0, 10.0002775, 9.997694 
2.5014234e+3, 2.425295e+2, -671957.1, -668982.44, 10204.831, -0.25816008, 0.45460784, -660157.1, -96915.53, 0.0, 9.999332, 9.999375 
2.5010687e+3, 2.525212e+2, -411764.1, -322309.06, -29064.795, -0.4011443, 0.12669027, -313695.1, 151619.39, 0.0, 9.999822, 10.000761 
2.5007147e+3, 2.6251382e+2, -496482.66, -533274.44, -65596.96, -0.43963197, -0.0049429387, -446750.94, -79368.55, 0.0, 9.9994135, 9.998921 
2.500364e+3, 2.7250895e+2, -454704.88, -408359.47, -122460.75, -0.16395628, 0.14404996, -306898.28, -37460.598, 0.0, 9.998869, 9.999306 
2.5000146e+3, 2.8250474e+2, -473209.34, -259355.67, 25145.242, 0.03355043, 0.35184696, -256438.84, -84954.27, 0.0, 9.997537, 10.000359 
2.499666e+3, 2.9250166e+2, -70940.09, 138430.95, 94471.06, -0.14859079, 0.4409135, 174755.5, 248270.5, 0.0, 9.99908, 10.00159 
2.4993181e+3, 3.0249688e+2, -157923.9, -202600.9, -45434.45, -0.12495197, 0.51204675, -129633.39, -129633.39, 0.0, 9.999492, 9.998786 
2.4989633e+3, 3.12487e+2, -201535.83, 60250.363, -144555.7, -0.3838744, 0.14485124, 124368.43, 124368.43, 0.0, 9.998012, 10.001208 
2.51566e+3, 1.2295786e+2, -1629831.0, -1827765.1, -296290.2, -0.089079715, 0.46909088, -1416416.4, 318633.6, 0.39734322, 10.002088, 9.99863 
2.5153056e+3, 1.3295323e+2, -1590093.1, -1574066.5, -54839.36, 0.08982557, 0.54171675, -1526658.0, 110436.28, 0.28406283, 10.000179, 10.000261 
2.5149497e+3, 1.4294617e+2, -1826820.3, -1826902.1, -13321.71, -0.16227476, 0.49829274, -1813539.4, -274379.9, 0.16993596, 9.998416, 9.9986315 
2.5145948e+3, 1.5293624e+2, -1425996.4, -1514312.5, 39708.594, -0.5697885, 0.14536522, -1410768.4, 30482.557, 0.078587286, 10.000302, 9.999123 
2.5142413e+3, 1.6292892e+2, -1217490.1, -1187271.5, -75024.03, -0.66277903, 0.045785427, -1125850.4, 217467.0, 0.024857625, 10.000246, 10.000802 
2.5138918e+3, 1.7292644e+2, -1447983.5, -1139714.6, -64595.4, -0.13547564, 0.19723293, -1126726.4, 118611.09, 0.0041356636, 9.997564, 10.001688 
2.51354e+3, 1.8292198e+2, -1742825.3, -1540308.8, -44751.277, 0.1298692, 0.31943217, -1530860.6, -383480.03, 0.00018434241, 9.996189, 9.998967 
2.5131848e+3, 1.9291411e+2, -1230656.1, -1261019.6, -87446.31, -0.00187115, 0.22953632, -1157083.5, -107618.9, 0.00000026313862, 9.999209, 9.998704 
2.5128302e+3, 2.0290685e+2, -712989.0, -813765.56, -96411.766, -0.08200492, 0.20028141, -654592.1, 296944.88, 0.0, 10.00138, 10.000096 
2.512478e+3, 2.1290118e+2, -483231.03, -558588.4, -28347.186, -0.002421166, 0.12632862, -473758.4, 379824.16, 0.0, 10.001982, 10.000832 
2.5121245e+3, 2.228949e+2, -498698.6, -745090.4, 30042.238, -0.09027994, 0.12195171, -495088.47, 260550.34, 0.0, 10.002019, 9.998941 
2.5117683e+3, 2.3288734e+2, -550532.44, -719159.94, 80930.164, -0.443552, 0.060535867, -517976.6, 139742.11, 0.0, 10.001074, 9.998841 
2.5114146e+3, 2.4288054e+2, -529937.9, -628874.56, 60466.02, -0.5801, 0.113202885, -501282.88, 58506.773, 0.0, 10.000358, 9.999161 
2.511064e+3, 2.528747e+2, -415882.0, -463743.47, 4550.327, -0.24532157, 0.15332562, -415453.22, 46392.832, 0.0, 10.000283, 9.9996195 
2.5107124e+3, 2.628683e+2, -390063.56, -566525.44, -50337.08, -0.100918226, 0.22693539, -376714.38, -12803.915, 0.0, 10.000392, 9.998257 
2.5103575e+3, 2.7286106e+2, -215260.48, -426617.38, -72166.34, -0.2592184, 0.26251447, -192970.52, 73020.05, 0.0, 10.000965, 9.99824 
2.5100052e+3, 2.828545e+2, -40085.723, -126936.164, 40048.09, -0.3214327, 0.34009302, -24438.111, 143622.22, 0.0, 10.000708, 9.999773 
2.5096583e+3, 2.9284942e+2, -193904.88, -65749.33, 19956.912, -0.23043625, 0.35265478, -62713.473, 7393.1245, 0.0, 9.9986725, 10.000464 
2.5093117e+3, 3.0284387e+2, -303665.75, -265253.44, -98053.15, -0.05388922, 0.40920883, -184543.14, -184543.14, 0.0, 9.998292, 9.998973 
2.5089616e+3, 3.128353e+2, 389833.88, 279838.66, -192395.6, -0.041230246, 0.20233577, 534938.25, 534938.25, 0.0, 10.002091, 10.00084 
2.5256556e+3, 1.2331158e+2, -1768523.8, -1960634.1, -298137.7, -0.026163729, 0.3295012, -1551349.5, 180235.66, 0.3720952, 10.000757, 9.998143 
2.5252992e+3, 1.3330796e+2, -1384615.4, -1594415.1, -15991.085, -0.060052503, 0.6376679, -1383403.6, 250220.75, 0.26429757, 10.002658, 9.998887 
2.5249466e+3, 1.433004e+2, -1276050.5, -1472483.9, 109446.766, 0.10220094, 0.6094613, -1227212.4, 308484.2, 0.15642525, 10.00221, 9.999291 
2.5245896e+3, 1.5329042e+2, -1440897.9, -1455279.0, 170240.58, -0.4924643, 0.19723347, -1277696.1, 160088.16, 0.071005836, 9.999981, 9.999712 
2.5242352e+3, 1.6328281e+2, -1394759.6, -1287775.1, 25778.373, -0.62184155, 0.061663385, -1281887.8, 57963.043, 0.021693112, 9.999115, 10.000641 
2.5238857e+3, 1.7328012e+2, -1043248.2, -974131.5, -96860.61, -0.0018323814, 0.24529159, -905848.94, 336024.06, 0.00335279, 10.000591, 10.00135 
2.523534e+3, 1.8327565e+2, -1111692.0, -1316935.5, -18795.668, 0.3367192, 0.41638833, -1109984.9, 33932.0, 0.00011963712, 10.000834, 9.998263 
2.5231782e+3, 1.9326693e+2, -1143329.8, -1299827.4, 34871.6, 0.0013747143, 0.29400843, -1135911.1, -89900.15, 0.00000002568285, 10.000108, 9.998 
2.522824e+3, 2.0325926e+2, -945089.75, -915677.94, 50739.05, -0.13982008, 0.2593819, -877556.6, 70531.55, 0.0, 9.999711, 10.00021 
2.522474e+3, 2.1325354e+2, -696105.44, -621043.7, 8029.298, 0.06937202, 0.13488893, -620194.44, 229938.27, 0.0, 10.000297, 10.001222 
2.5221208e+3, 2.2324716e+2, -737443.3, -800495.0, -12127.469, 0.03784932, 0.072093815, -735191.1, 16996.387, 0.0, 10.000201, 9.999408 
2.5217623e+3, 2.332394e+2, -591719.94, -646416.56, -29118.387, -0.542634, -0.11400744, -579120.7, 75143.31, 0.0, 10.000437, 9.999635 
2.5214073e+3, 2.4323267e+2, -657541.1, -808277.6, -36544.566, -0.71341896, -0.06408614, -649148.5, -92816.734, 0.0, 10.000068, 9.998069 
2.52106e+3, 2.5322792e+2, -490590.56, -627268.4, -60434.535, -0.08142438, 0.1771187, -467701.53, -9319.176, 0.0, 10.000416, 9.998408 
2.5207093e+3, 2.6322204e+2, -514345.5, -765827.75, -59457.27, 0.17938499, 0.42870632, -500996.75, -140550.56, 0.0, 10.0002575, 9.9969225 
2.5203514e+3, 2.732134e+2, -317242.66, -554601.1, -59960.91, -0.34443212, 0.37683338, -302955.47, -40414.652, 0.0, 10.000737, 9.997398 
2.519997e+3, 2.8320464e+2, -238698.19, -392519.25, 15853.816, -0.62815154, 0.3473805, -237081.19, -72450.45, 0.0, 10.000229, 9.998142 
2.51965e+3, 2.9319656e+2, -205731.58, -223612.39, 3936.0386, -0.37705922, 0.18441123, -204903.5, -138199.92, 0.0, 9.99939, 9.998979 
2.5193053e+3, 3.031903e+2, -407631.0, -436554.34, 59545.43, 0.049070965, 0.31019935, -360816.28, -360816.28, 0.0, 9.998254, 9.99777 
2.5189567e+3, 3.1318015e+2, -198519.5, -76193.016, 80839.82, -0.16230953, -0.029466035, -35985.56, -35985.56, 0.0, 9.998624, 9.999967 
2.5356457e+3, 1.2366691e+2, -1804074.3, -2016851.9, -70607.82, -0.5494484, 0.32598558, -1782775.8, -54675.215, 0.34545994, 10.000335, 9.997672 
2.5352943e+3, 1.3366188e+2, -1429729.8, -1657727.8, 37104.62, -0.2653342, 0.5254197, -1423843.3, 206311.75, 0.24384509, 10.002395, 9.998472 
2.5349447e+3, 1.4365368e+2, -1316294.4, -1422209.9, 63700.55, 0.24096105, 0.4266068, -1286413.3, 245820.03, 0.14280653, 10.001595, 9.999935 
2.534586e+3, 1.5364695e+2, -1399089.3, -1326186.9, 119375.14, -0.2704005, 0.25351486, -1237821.8, 196464.81, 0.06363834, 9.999844, 10.000643 
2.5342304e+3, 1.6363995e+2, -1528443.8, -1560075.3, 80243.57, -0.4956891, 0.21214938, -1462472.1, -126124.97, 0.0187796, 9.999117, 9.998754 
2.533878e+3, 1.7363276e+2, -1115252.3, -1272947.8, -6978.521, -0.27033734, 0.17293742, -1114944.0, 123473.43, 0.0026956536, 10.001185, 9.999024 
2.5335255e+3, 1.8362601e+2, -919562.3, -1115795.5, -47822.605, -0.1518427, 0.21693194, -908528.25, 231955.36, 0.00007576087, 10.001713, 9.999201 
2.533171e+3, 1.936191e+2, -987834.7, -1063081.8, 16049.969, -0.19924699, 0.14547412, -984554.3, 57998.227, 0.00000000011876218, 10.000463, 9.9994545 
2.532818e+3, 2.0361263e+2, -990022.2, -998761.1, 84376.88, -0.17888446, 0.17694241, -909901.7, 34715.098, 0.0, 9.999658, 9.999648 
2.5324678e+3, 2.1360697e+2, -782592.56, -801653.25, 52197.78, 0.030478248, 0.18597744, -739062.2, 107608.98, 0.0, 10.000268, 9.999998 
2.5321156e+3, 2.2360119e+2, -700249.0, -822988.8, -22758.816, 0.023260968, 0.2746602, -696164.9, 52563.156, 0.0, 10.000584, 9.999071 
2.5317594e+3, 2.3359503e+2, -562258.8, -689415.25, -48995.52, -0.2807629, 0.31217688, -545570.3, 105221.79, 0.0, 10.000818, 9.999189 
2.531405e+3, 2.4358758e+2, -493722.84, -706320.1, -83855.555, -0.4362771, 0.3095631, -464628.88, 88236.4, 0.0, 10.000996, 9.998349 
2.5310534e+3, 2.5357848e+2, -357689.88, -564346.0, -72798.25, -0.24581283, 0.12528537, -334620.66, 120329.28, 0.0, 10.001259, 9.9984665 
2.5307018e+3, 2.6357085e+2, -280298.97, -606521.25, -57125.61, -0.15312824, 0.18216561, -270584.84, 86441.695, 0.0, 10.001575, 9.997403 
2.530348e+3, 2.735647e+2, -172347.83, -485880.6, -40345.418, -0.24078563, 0.394312, -167239.4, 91858.375, 0.0, 10.001631, 9.99748 
2.529995e+3, 2.835575e+2, 1766.2079, -222612.13, 45154.34, -0.3660708, 0.49603224, 10512.246, 171685.25, 0.0, 10.001586, 9.9986515 
2.529644e+3, 2.9354864e+2, 113497.9, -84355.61, 59450.414, -0.47735488, 0.28408694, 129987.16, 193239.75, 0.0, 10.0015545, 9.99894 
2.5292972e+3, 3.0354157e+2, -89557.16, -284700.06, 73824.73, -0.19105954, 0.35209244, -64775.523, -64775.523, 0.0, 10.000297, 9.997895 
2.5289503e+3, 3.135353e+2, -465537.0, -248176.05, 97848.12, 0.007847216, 0.5009019, -210618.02, -210618.02, 0.0, 9.996706, 9.999845 
2.5456414e+3, 1.24020115e+2, -1759473.6, -1709470.0, 71490.69, -0.39093426, 0.23481092, -1658735.4, 65899.48, 0.31815657, 9.999413, 10.000357 
2.54529e+3, 1.3401608e+2, -1798233.3, -1781809.3, 5423.6753, -0.11679463, 0.4400814, -1780179.8, -153502.52, 0.22319712, 9.999035, 9.999243 
2.544939e+3, 1.4400786e+2, -1567564.9, -1585456.6, 47178.87, 0.22996259, 0.3167408, -1528491.3, 264.7509, 0.12934339, 9.999718, 9.999635 
2.5445816e+3, 1.5400189e+2, -1225177.1, -1327147.8, -41669.074, -0.1500123, 0.28331667, -1210315.5, 220490.22, 0.05657354, 10.001393, 9.999945 
2.544226e+3, 1.6399488e+2, -1205994.9, -1482207.9, -39324.566, -0.31607556, 0.29859686, -1200505.4, 132363.13, 0.016116831, 10.001626, 9.998093 
2.5438726e+3, 1.739857e+2, -1197908.8, -1426830.9, -9109.5625, -0.31517294, 0.12317141, -1197546.9, 37410.51, 0.0021455006, 10.00103, 9.998062 
2.5435188e+3, 1.8397787e+2, -1071926.5, -1156443.0, -28193.287, -0.30190456, 0.1011168, -1063385.0, 73648.055, 0.000046550977, 10.000507, 9.999518 
2.5431642e+3, 1.9397186e+2, -956161.4, -992469.25, -73354.484, -0.2790549, 0.059728332, -898747.8, 140342.38, 0.0, 10.000437, 9.99997 
2.5428116e+3, 2.0396599e+2, -964074.8, -1062304.3, 38954.863, -0.16878515, 0.14796272, -950501.9, -9353.254, 0.0, 10.000225, 9.998914 
2.5424618e+3, 2.1396007e+2, -784384.7, -896375.0, 34768.695, -0.022365693, 0.1953502, -774468.44, 68743.234, 0.0, 10.00073, 9.999095 
2.54211e+3, 2.2395457e+2, -748363.9, -929699.4, -2895.577, 0.04340156, 0.40428492, -748317.6, -3045.9668, 0.0, 10.000668, 9.9983015 
2.5417563e+3, 2.339495e+2, -646290.5, -783463.9, -27529.588, -0.05498213, 0.5909343, -640971.75, 6357.5645, 0.0, 10.000559, 9.998644 
2.5414023e+3, 2.4394178e+2, -629739.1, -784500.75, -36024.81, -0.16877538, 0.60969424, -621764.4, -72359.98, 0.0, 10.000238, 9.998129 
2.541047e+3, 2.5392956e+2, -449228.7, -595587.75, -27129.488, -0.38590467, 0.07942617, -444361.75, 7150.1104, 0.0, 10.000639, 9.998511 
2.5406942e+3, 2.639203e+2, -486664.22, -719810.75, -12667.848, -0.4055668, -0.005839882, -485977.94, -132378.58, 0.0, 10.000332, 9.997186 
2.5403443e+3, 2.7391577e+2, -427083.5, -589823.6, -14231.539, -0.111077726, 0.32585, -425848.34, -170193.0, 0.0, 9.999904, 9.997561 
2.5399932e+3, 2.8391024e+2, -335984.16, -409404.78, 76404.664, -0.08272196, 0.60997176, -287928.2, -130214.64, 0.0, 9.999478, 9.998362 
2.5396383e+3, 2.9390192e+2, -111460.125, -175272.19, 90760.25, -0.5549188, 0.41426787, -47161.08, 12626.9795, 0.0, 10.000064, 9.998983 
2.539288e+3, 3.0389333e+2, -324236.25, -450321.25, 8483.542, -0.48616663, 0.37281764, -323668.0, -323668.0, 0.0, 9.999077, 9.997297 
2.5389415e+3, 3.1389028e+2, -519976.84, -116533.61, 21641.31, 0.074313216, 0.80752623, -115376.06, -115376.06, 0.0, 9.995854, 10.001103 
2.555634e+3, 1.24371484e+2, -1951389.4, -1876173.5, -21158.467, -0.55468976, 0.08216371, -1870630.1, -149445.38, 0.29081753, 9.998594, 9.999418 
2.5552857e+3, 1.3437007e+2, -1662539.4, -1538025.9, 36536.59, 0.113705605, 0.37593773, -1528096.6, 95099.5, 0.2027681, 9.999196, 10.000967 
2.5549296e+3, 1.4436221e+2, -1715668.4, -1863972.6, 105842.69, -0.15434138, 0.2906414, -1660587.3, -135314.58, 0.11625642, 9.999668, 9.997716 
2.5545758e+3, 1.5435423e+2, -1366954.8, -1636597.9, 36775.723, -0.27194652, 0.26096237, -1362029.0, 65323.695, 0.04988728, 10.001432, 9.997737 
2.554223e+3, 1.6434659e+2, -1112531.8, -1309020.0, -66289.25, -0.25413236, 0.28967938, -1092259.4, 237165.39, 0.013707004, 10.00175, 9.999218 
2.5538704e+3, 1.7433877e+2, -1090210.5, -1207378.8, -5864.7905, -0.08231745, 0.11284987, -1089917.8, 141575.86, 0.0016894786, 10.001063, 9.99955 
2.5535157e+3, 1.8433152e+2, -1097364.9, -1235220.3, -17605.977, -0.110077046, 0.09911876, -1095151.9, 38410.31, 0.000027889511, 10.000628, 9.998905 
2.5531587e+3, 1.9432479e+2, -975570.0, -1111702.0, -54493.953, -0.3076044, 0.0843065, -956443.25, 79188.4, 0.0, 10.000774, 9.998989 
2.5528052e+3, 2.0431826e+2, -827843.75, -955925.56, 46905.953, -0.35972595, 0.1454981, -812503.25, 125194.336, 0.0, 10.000953, 9.999302 
2.552455e+3, 2.1431154e+2, -639408.06, -799040.56, 74768.805, -0.2352352, 0.0907807, -609857.94, 229905.55, 0.0, 10.001533, 9.999407 
2.5521034e+3, 2.243055e+2, -596996.6, -834978.9, -3939.1694, -0.18084331, 0.2190947, -596931.44, 144896.66, 0.0, 10.001587, 9.998508 
2.5517496e+3, 2.3430021e+2, -557786.2, -754880.6, -2431.7673, -0.21772288, 0.41119468, -557756.2, 86135.16, 0.0, 10.001188, 9.99855 
2.5513965e+3, 2.4429342e+2, -453063.78, -625637.0, -1601.7815, -0.23633993, 0.4966092, -453048.9, 92910.44, 0.0, 10.001052, 9.998849 
2.5510433e+3, 2.54284e+2, -356485.22, -518414.28, 21930.64, -0.24660403, 0.22755826, -353567.63, 94472.44, 0.0, 10.001027, 9.9989 
2.55069e+3, 2.642748e+2, -424905.88, -648440.44, -10218.764, -0.28126672, 0.11497666, -424439.72, -74315.66, 0.0, 10.0004835, 9.997639 
2.5503364e+3, 2.7426648e+2, -491656.75, -627951.7, -9347.779, -0.2599668, 0.10023267, -491018.63, -238810.5, 0.0, 9.999395, 9.9976 
2.5499848e+3, 2.842592e+2, -332328.5, -360920.84, 139502.97, -0.27597177, 0.18463731, -206391.08, -52112.0, 0.0, 9.99917, 9.998884 
2.5496337e+3, 2.9425228e+2, -132151.11, -196558.22, 150788.27, -0.43995425, 0.15413667, -10165.921, 46175.457, 0.0, 9.999826, 9.999017 
2.549284e+3, 3.0424386e+2, -78331.234, -149534.81, -2081.7107, -0.2443334, 0.04474467, -78270.42, -78270.42, 0.0, 9.999835, 9.999062 
2.5489292e+3, 3.142377e+2, -141879.48, 40026.445, -18553.488, -0.33928052, 0.1124883, 41899.52, 41899.52, 0.0, 9.998313, 10.001091 
2.565631e+3, 1.2472757e+2, -1865099.5, -1769440.8, -165419.34, -0.09782983, 0.37971297, -1645074.9, 72619.414, 0.26403108, 9.998774, 10.000266 
2.5652802e+3, 1.3472168e+2, -1403028.5, -1476112.9, -102011.98, 0.163774, 0.28830394, -1331211.1, 288534.63, 0.18292536, 10.001594, 10.00036 
2.564924e+3, 1.4471343e+2, -1375998.9, -1755378.9, -88724.6, -0.19460434, 0.20830056, -1356274.6, 165551.11, 0.1037245, 10.002313, 9.997217 
2.5645712e+3, 1.547049e+2, -1431754.3, -1764582.4, -67352.87, -0.25117376, 0.1601595, -1418641.0, 5273.1816, 0.043632858, 10.00128, 9.996961 
2.564219e+3, 1.6469772e+2, -1221157.8, -1219465.5, -105799.81, -0.12211172, 0.20629247, -1114508.5, 211474.03, 0.011545959, 10.000417, 10.000446 
2.5638664e+3, 1.7469165e+2, -1180730.4, -1136312.1, -100739.28, 0.096106514, 0.08264301, -1055362.9, 172669.03, 0.0013158798, 9.99998, 10.000537 
2.5635117e+3, 1.84685e+2, -1163181.1, -1323756.6, -41829.004, 0.06269963, 0.10224849, -1152938.3, -22843.03, 0.000016496271, 10.000485, 9.998358 
2.5631544e+3, 1.9467771e+2, -835500.06, -1133897.9, -62587.016, -0.2614801, 0.08948413, -822904.5, 209270.16, 0.0, 10.002146, 9.998194 
2.5627998e+3, 2.046708e+2, -694256.9, -853863.4, 38048.836, -0.3994003, 0.15109085, -685650.44, 248594.03, 0.0, 10.001769, 9.999605 
2.5624484e+3, 2.1466404e+2, -909801.9, -903558.44, 33983.05, -0.3681743, 0.053886484, -872554.0, -36247.133, 0.0, 9.99963, 9.999605 
2.5620964e+3, 2.2465768e+2, -1011837.5, -1056575.0, -22663.932, -0.3129112, 0.15722272, -1002362.7, -263988.97, 0.0, 9.998888, 9.998255 
2.5617433e+3, 2.3465158e+2, -861446.94, -928287.4, -32223.607, -0.3058822, 0.25745744, -848442.25, -207995.11, 0.0, 9.999257, 9.998263 
2.561391e+3, 2.4464534e+2, -698559.06, -710761.44, 874.0703, -0.22516583, 0.4028127, -698496.75, -155985.84, 0.0, 9.999304, 9.999078 
2.5610393e+3, 2.546384e+2, -597091.2, -602656.75, 8122.9595, -0.099077664, 0.3251785, -591287.56, -146718.9, 0.0, 9.999321, 9.99912 
2.5606856e+3, 2.646297e+2, -585572.5, -708437.25, -7796.902, -0.11944638, 0.2540976, -585079.7, -238434.77, 0.0, 9.999431, 9.997669 
2.5603285e+3, 2.7461845e+2, -361056.1, -550686.2, 32151.213, -0.38224158, -0.10325587, -355753.25, -107004.39, 0.0, 10.00032, 9.997642 
2.559976e+3, 2.8460896e+2, -248225.9, -350057.22, 221999.78, -0.4693286, -0.21226412, -71377.87, 79458.875, 0.0, 9.999976, 9.99853 
2.5596282e+3, 2.946021e+2, -281995.8, -299944.3, 211685.23, -0.3519302, -0.24388452, -79094.68, -26194.207, 0.0, 9.999021, 9.998637 
2.5592804e+3, 3.0459508e+2, -180432.77, -131370.33, -18703.637, 0.05993484, -0.20717771, -125053.42, -125053.42, 0.0, 9.999019, 9.999484 
2.5589213e+3, 3.145923e+2, -233659.89, -121151.17, 138554.39, -0.4184559, 0.06287469, -27866.66, -27866.66, 0.0, 9.998482, 9.99977 
2.575621e+3, 1.2508008e+2, -1962513.9, -1899163.5, -44374.895, -0.45271832, 0.49784154, -1876318.5, -162075.0, 0.23823552, 9.998563, 9.999304 
2.575275e+3, 1.3506994e+2, -1537832.0, -1736100.9, -23739.025, 0.039882455, 0.15010229, -1535029.3, 81306.07, 0.16394834, 10.001416, 9.99839 
2.5749218e+3, 1.4506084e+2, -1363450.8, -1615620.8, -111428.67, -0.08330313, 0.038258124, -1321268.8, 197151.94, 0.09188186, 10.001873, 9.998376 
2.5745675e+3, 1.550532e+2, -1371188.8, -1578716.0, -69723.43, -0.18035363, -0.053784247, -1349939.4, 70556.37, 0.03784501, 10.001067, 9.998339 
2.5742137e+3, 1.6504766e+2, -1194640.3, -1114518.9, -128107.36, -0.12149519, 0.04433262, -1020354.56, 302192.4, 0.009625426, 10.00026, 10.001215 
2.57386e+3, 1.7504358e+2, -1159839.3, -1069453.8, -91295.39, 0.026360298, 0.06535398, -1012777.75, 211802.69, 0.0010124295, 9.999897, 10.001024 
2.573506e+3, 1.8503788e+2, -1119987.3, -1274415.5, 24359.695, -0.009038247, 0.15443598, -1116235.9, 10401.953, 0.000009793076, 10.000665, 9.998598 
2.573152e+3, 1.9503051e+2, -735173.94, -1061872.9, 43294.598, -0.17842822, 0.12525518, -729533.9, 299186.22, 0.0, 10.002712, 9.998417 
2.572797e+3, 2.0502418e+2, -609000.2, -802665.56, -56689.332, -0.33728495, 0.22341241, -593626.56, 337158.4, 0.0, 10.002277, 9.999714 
2.5724414e+3, 2.1501867e+2, -905498.6, -913329.5, -39930.566, -0.4433678, 0.27069092, -869292.0, -36457.04, 0.0, 9.999656, 9.999544 
2.5720885e+3, 2.2501218e+2, -1010206.06, -1028184.5, -2761.2324, -0.40746596, 0.3505248, -1009791.56, -274888.9, 0.0, 9.998707, 9.998549 
2.5717375e+3, 2.3500454e+2, -841575.94, -917089.8, 7956.507, -0.2318067, 0.30009365, -840746.7, -203757.06, 0.0, 9.999272, 9.998368 
2.571385e+3, 2.4499768e+2, -614718.2, -567086.0, -1737.2506, -0.17022991, 0.32845894, -567022.7, -27963.945, 0.0, 9.999375, 10.000045 
2.5710315e+3, 2.549913e+2, -562170.56, -513684.22, 29708.57, -0.19855198, 0.26626432, -499582.5, -58469.742, 0.0, 9.9991665, 9.999843 
2.5706786e+3, 2.649842e+2, -340439.34, -369961.63, 94388.77, -0.21610445, 0.2195139, -259664.45, 83508.87, 0.0, 10.000076, 9.99969 
2.570326e+3, 2.7497584e+2, 39546.723, -168895.13, 172968.28, -0.22581168, -0.0008329071, 137266.45, 382512.38, 0.0, 10.002143, 9.999417 
2.5699732e+3, 2.8496757e+2, 39474.65, -240728.86, 238023.56, -0.3306869, -0.063943766, 175567.97, 322889.66, 0.0, 10.001985, 9.998336 
2.5696206e+3, 2.949597e+2, -216439.97, -345435.38, 223856.61, -0.47427788, -0.10111616, -47974.723, 1422.6676, 0.0, 9.999672, 9.99806 
2.569272e+3, 3.049511e+2, -120146.016, -73139.84, 119016.32, -0.12657912, -0.2034901, 24671.867, 24671.867, 0.0, 9.999159, 9.999859 
2.5689164e+3, 3.149458e+2, 71156.305, 20417.486, 349310.2, -0.30156764, -0.13839138, 396017.13, 396017.13, 0.0, 10.000338, 9.999917 
2.5856188e+3, 1.254289e+2, -1409452.6, -1699043.3, 74788.32, -0.18798888, 0.343271, -1391278.8, 319546.22, 0.21373183, 10.003126, 9.998562 
2.5852692e+3, 1.3542025e+2, -1477845.3, -1725633.1, 17333.645, -0.08504259, 0.13591307, -1476638.6, 136265.03, 0.14603193, 10.001804, 9.998338 
2.5849167e+3, 1.4541183e+2, -1400096.8, -1488673.6, -11285.034, -0.102082856, 0.03348711, -1398681.6, 116299.83, 0.080827504, 10.000956, 9.999681 
2.5845635e+3, 1.5540515e+2, -1284702.1, -1416341.3, -27696.139, -0.08981961, -0.061096344, -1279112.4, 137931.61, 0.032553293, 10.001179, 9.999394 
2.5842088e+3, 1.6539975e+2, -1105093.0, -1145654.0, -112975.54, -0.04313388, 0.03308941, -1010592.1, 308502.75, 0.007938516, 10.001162, 10.000562 
2.583854e+3, 1.7539553e+2, -1086271.4, -1114152.5, -195084.56, 0.01603676, 0.09566341, -904629.94, 316504.56, 0.00076767127, 10.000746, 10.000303 
2.5835004e+3, 1.8539022e+2, -1127743.8, -1233387.6, -28524.885, 0.0024652905, 0.22946213, -1120533.8, 2656.344, 0.000005913737, 10.000437, 9.9989805 
2.5831485e+3, 1.9538343e+2, -1112709.4, -1195917.8, -18745.178, -0.08032986, 0.19689058, -1108681.5, -83416.164, 0.0, 9.99997, 9.998788 
2.5827932e+3, 2.0537739e+2, -943184.6, -990207.9, -159093.23, -0.21554367, 0.30966854, -805875.06, 121451.46, 0.0, 10.000107, 9.999469 
2.5824353e+3, 2.1537183e+2, -843038.8, -919982.1, -158048.72, -0.4115462, 0.34987512, -718846.8, 110530.305, 0.0, 10.000242, 9.999219 
2.5820816e+3, 2.2536536e+2, -935393.8, -951903.8, -34102.55, -0.37387583, 0.43460828, -908561.4, -177117.05, 0.0, 9.999198, 9.998801 
2.581731e+3, 2.3535752e+2, -1107506.4, -1008945.3, -25611.28, -0.13640785, 0.32765093, -1002687.5, -369156.16, 0.0, 9.99744, 9.998588 
2.5813785e+3, 2.4535073e+2, -863684.1, -631168.7, -825.28674, -0.08091054, 0.3299839, -631165.75, -95566.75, 0.0, 9.997534, 10.000451 
2.5810245e+3, 2.553445e+2, -611216.1, -493156.38, 2304.7312, -0.21790045, 0.2065794, -493111.4, -55458.21, 0.0, 9.998743, 10.000151 
2.5806725e+3, 2.6533875e+2, -411466.63, -277951.44, 69847.23, -0.22035922, 0.2277543, -248090.14, 91611.4, 0.0, 9.99911, 10.00079 
2.5803226e+3, 2.753334e+2, -353295.78, -231579.16, 61796.848, -0.08551562, 0.14549007, -205704.63, 36040.363, 0.0, 9.999007, 10.000472 
2.57997e+3, 2.8532693e+2, -372493.9, -471857.56, 22468.85, -0.17892893, 0.21962619, -367649.28, -223845.44, 0.0, 9.999394, 9.997958 
2.5796136e+3, 2.9531857e+2, -262877.1, -417810.75, 53859.887, -0.56531733, 0.12110881, -245993.53, -200107.78, 0.0, 9.999673, 9.997533 
2.5792623e+3, 3.053081e+2, -73116.03, -15986.865, 63093.203, -0.40561923, -0.16019244, 24706.674, 24706.674, 0.0, 9.999458, 10.000068 
2.578916e+3, 3.153064e+2, -34743.785, 310052.97, -16993.771, 0.20566733, 0.1855866, 310888.5, 310888.5, 0.0, 9.998323, 10.002851 
2.5956208e+3, 1.2577769e+2, -1427159.8, -1601270.9, 17936.465, 0.1641821, 0.20370643, -1425331.1, 282072.75, 0.19077115, 10.002471, 9.999659 
2.5952628e+3, 1.3577272e+2, -1458894.6, -1582186.8, -5217.1567, -0.34492573, 0.23946154, -1458674.3, 150775.52, 0.12932457, 10.001395, 9.999536 
2.594909e+3, 1.4576614e+2, -1383722.1, -1386587.3, -4650.332, -0.39549914, 0.21815392, -1380288.6, 131221.98, 0.07062259, 10.000681, 10.000547 
2.5945586e+3, 1.5576044e+2, -1260342.4, -1340940.9, 18164.447, -0.11652781, 0.1467661, -1256437.9, 157124.89, 0.027766839, 10.001092, 9.999955 
2.5942045e+3, 1.6575387e+2, -1243834.0, -1440739.4, -118657.54, -0.036242105, 0.21318227, -1188103.3, 127525.88, 0.0064744665, 10.001213, 9.998492 
2.5938484e+3, 1.7574656e+2, -1193789.3, -1390715.0, -174683.44, -0.045259103, 0.18457668, -1091729.8, 125976.84, 0.0005723583, 10.000947, 9.998322 
2.5934944e+3, 1.8574078e+2, -1055404.9, -1085185.8, -72824.86, -0.08598534, 0.31291634, -995963.75, 123802.5, 0.0000035552432, 10.000449, 9.9999895 
2.5931415e+3, 1.9573548e+2, -1092236.1, -1092208.1, -32660.762, -0.16462626, 0.3477172, -1059561.4, -37741.918, 0.0, 9.999663, 9.999668 
2.5927874e+3, 2.057286e+2, -922867.5, -938384.4, -128324.14, -0.22902054, 0.31287736, -802067.5, 121818.11, 0.0, 10.000055, 9.999859 
2.592432e+3, 2.1572058e+2, -660549.8, -812630.0, -111090.53, -0.27273956, 0.10524543, -601967.44, 223993.25, 0.0, 10.001347, 9.999465 
2.5920767e+3, 2.2571495e+2, -726509.0, -755719.2, -136487.8, -0.271975, 0.2162571, -603847.06, 124172.4, 0.0, 10.000194, 9.999666 
2.5917217e+3, 2.3571058e+2, -1045860.9, -907025.94, -83317.89, -0.22000669, 0.39816153, -867996.8, -237925.38, 0.0, 9.9974785, 9.999289 
2.5913703e+3, 2.4570464e+2, -847034.6, -613785.56, 63131.133, -0.06851522, 0.4421238, -597794.8, -65665.3, 0.0, 9.997534, 10.000587 
2.5910214e+3, 2.5569746e+2, -484890.75, -443271.72, 61298.168, 0.13244429, 0.24529609, -399347.16, 34845.473, 0.0, 9.999562, 10.00013 
2.5906682e+3, 2.6569137e+2, -479377.72, -483924.28, -52860.89, 0.015400597, 0.30726528, -428741.25, -92490.516, 0.0, 9.999346, 9.999271 
2.5903127e+3, 2.7568606e+2, -679726.5, -561401.9, -117744.29, -0.26782846, 0.42141724, -488792.03, -250487.02, 0.0, 9.997421, 9.999006 
2.5899613e+3, 2.8567913e+2, -454335.06, -380540.8, -65717.32, -0.3181759, 0.43436608, -342071.06, -201700.27, 0.0, 9.998188, 9.999183 
2.5896105e+3, 2.9567042e+2, 8645.801, -170808.64, -42730.6, -0.31835514, 0.2032002, 18301.066, 60753.12, 0.0, 10.000915, 9.9986725 
2.5892603e+3, 3.0566195e+2, 154606.69, 31019.492, -193368.78, -0.0712591, 0.079616696, 295815.38, 295815.38, 0.0, 10.001211, 9.999596 
2.588901e+3, 3.1565502e+2, -155181.42, -167627.6, -261671.6, -0.5908893, -0.006286894, 100341.07, 100341.07, 0.0, 9.999167, 9.999214 
2.6056165e+3, 1.261302e+2, -1458570.0, -1624575.8, 4807.5107, 0.123751596, 0.15230782, -1458430.9, 245522.39, 0.16949552, 10.002127, 9.999632 
2.6052588e+3, 1.3612618e+2, -1455230.9, -1533866.1, 13300.621, -0.22974524, 0.258893, -1453042.1, 152947.03, 0.11391175, 10.001152, 10.000033 
2.6049042e+3, 1.461203e+2, -1364897.1, -1401805.9, 51510.88, -0.3411564, 0.29910842, -1328634.6, 179408.77, 0.061296463, 10.000919, 10.000291 
2.604553e+3, 1.5611443e+2, -1240195.0, -1387078.0, -30428.418, -0.18422353, 0.2400689, -1234141.0, 175956.66, 0.023481611, 10.001453, 9.999454 
2.6041993e+3, 1.6610724e+2, -1192381.3, -1514988.0, -127539.53, -0.08414755, 0.30988926, -1148051.1, 164121.06, 0.005220199, 10.001968, 9.997657 
2.603844e+3, 1.7609885e+2, -1088298.3, -1446308.9, -118173.445, -0.010321556, 0.27425063, -1052809.1, 161454.58, 0.00041937284, 10.002109, 9.997415 
2.6034892e+3, 1.8609245e+2, -849249.2, -937063.06, 4097.88, -0.0691329, 0.3635059, -849058.4, 267269.44, 0.0000020172258, 10.0016575, 10.00042 
2.603135e+3, 1.9608721e+2, -942407.1, -990630.9, -26438.438, -0.2044074, 0.36509702, -930736.7, 87638.8, 0.0, 10.000577, 9.999918 
2.6027814e+3, 2.0608036e+2, -912827.6, -865271.0, -42986.152, -0.19243954, 0.297613, -839924.8, 80513.9, 0.0, 9.999882, 10.000419 
2.602428e+3, 2.1607208e+2, -988603.06, -926238.44, -22253.146, -0.084524244, 0.001006346, -919112.3, -96596.01, 0.0, 9.998995, 9.999776 
2.6020718e+3, 2.2606675e+2, -766452.1, -757336.0, -104322.58, -0.124876246, 0.13358064, -657471.94, 67099.28, 0.0, 9.999858, 9.999817 
2.6017138e+3, 2.360633e+2, -579274.9, -677631.2, -112709.55, -0.22597302, 0.37922987, -505481.75, 121130.49, 0.0, 10.000701, 9.999301 
2.6013634e+3, 2.4605772e+2, -387243.94, -422814.84, 118548.26, -0.03204774, 0.47519943, -285154.4, 243511.75, 0.0, 10.000873, 10.000285 
2.6010177e+3, 2.5605023e+2, -402142.13, -477131.66, 75254.44, 0.3646139, 0.25444856, -355559.03, 75174.23, 0.0, 10.000496, 9.999446 
2.600663e+3, 2.6604372e+2, -491945.28, -687719.5, -102076.76, 0.1596167, 0.41130787, -448405.56, -115603.65, 0.0, 10.00021, 9.99743 
2.6003027e+3, 2.7603763e+2, -559033.7, -714179.56, -101196.43, -0.44193345, 0.6126209, -509098.7, -274224.03, 0.0, 9.999232, 9.997074 
2.5999525e+3, 2.8602982e+2, -300838.44, -217459.69, 76451.55, -0.41225585, 0.5955489, -172069.55, -35117.926, 0.0, 9.998937, 9.999928 
2.5996083e+3, 2.960208e+2, -282792.94, -268296.3, 37003.375, -0.031147446, 0.24526405, -237838.03, -198806.33, 0.0, 9.998845, 9.998975 
2.5992584e+3, 3.0601427e+2, -165600.72, -242988.19, -226804.97, 0.27149284, 0.3618337, 25787.482, 25787.482, 0.0, 9.999669, 9.998386 
2.59889e+3, 3.160073e+2, 47148.266, 400509.8, 43779.695, -1.0285352, 0.35204002, 405853.1, 405853.1, 0.0, 9.998694, 10.003302 
2.6156116e+3, 1.2648702e+2, -1477809.9, -1484274.9, -31751.947, -0.035627007, 0.43441522, -1449126.3, 251338.88, 0.14988421, 10.001258, 10.0011215 
2.615258e+3, 1.3648044e+2, -1491783.9, -1568638.9, 13598.027, 0.15195574, 0.231796, -1489448.9, 113073.78, 0.09979623, 10.000972, 9.9998255 
2.614902e+3, 1.4647368e+2, -1473207.5, -1586284.5, 84253.73, -0.08980772, 0.27015018, -1428280.3, 76305.87, 0.05285716, 10.00077, 9.999041 
2.614546e+3, 1.5646642e+2, -1352664.5, -1600516.3, 16441.965, -0.47262955, 0.2186963, -1351578.5, 55077.777, 0.019694533, 10.001344, 9.998051 
2.6141927e+3, 1.6645956e+2, -1126612.6, -1378202.5, -108815.27, -0.3729782, 0.3354376, -1086079.3, 222647.77, 0.004163879, 10.001999, 9.998555 
2.6138404e+3, 1.7645256e+2, -1006677.06, -1330813.5, -66633.87, -0.038371965, 0.35975623, -993513.5, 217288.16, 0.00030229846, 10.002368, 9.998063 
2.6134855e+3, 1.8644528e+2, -795653.2, -935815.75, -8935.252, -0.07233286, 0.34446236, -795085.9, 317785.97, 0.0000010444409, 10.002106, 10.0002165 
2.613129e+3, 1.964378e+2, -856473.4, -970514.0, -20167.209, -0.32245356, 0.16522403, -853012.0, 161927.89, 0.0, 10.001182, 9.999788 
2.612775e+3, 2.0643356e+2, -754192.7, -621716.1, -63849.29, -0.26583323, 0.27462235, -595953.1, 321023.34, 0.0, 10.000213, 10.001936 
2.6124215e+3, 2.1643057e+2, -892897.94, -768085.06, 6139.417, -0.05998584, 0.38325444, -767783.75, 51217.27, 0.0, 9.999108, 10.000813 
2.6120675e+3, 2.2642313e+2, -704088.3, -830724.4, 29728.887, -0.011819537, 0.31030074, -697456.5, 23617.64, 0.0, 10.000656, 9.998956 
2.6117125e+3, 2.3641345e+2, -216273.52, -607105.1, 9957.318, -0.05350218, 0.04928052, -216020.0, 407152.25, 0.0, 10.003523, 9.998468 
2.6113594e+3, 2.4640705e+2, -15425.144, -300130.03, 71708.12, -0.15288599, 0.12183521, 1615.8635, 526850.94, 0.0, 10.003609, 9.999827 
2.6110074e+3, 2.5640205e+2, -181570.33, -438432.44, 40640.293, -0.26307508, 0.23482783, -175293.66, 251988.53, 0.0, 10.002193, 9.998931 
2.6106548e+3, 2.6639554e+2, -191987.55, -480546.63, -70846.51, -0.20812853, 0.3767451, -175531.86, 153820.3, 0.0, 10.001915, 9.998063 
2.6103017e+3, 2.7638808e+2, -77104.31, -429525.63, -12171.318, -0.10541668, 0.42903793, -76684.46, 154751.78, 0.0, 10.002195, 9.997639 
2.6099497e+3, 2.8638098e+2, -59983.742, -150635.78, 101757.67, -0.16468439, 0.47896862, 6086.2485, 139593.31, 0.0, 10.000744, 9.999534 
2.609598e+3, 2.9637402e+2, -363530.97, -339533.2, 57943.633, -0.30867165, 0.42399907, -292359.13, -256789.58, 0.0, 9.998348, 9.998749 
2.609249e+3, 3.0636495e+2, -207170.16, -176682.44, -57013.19, 0.04830632, 0.24902165, -132910.38, -132910.38, 0.0, 9.998847, 9.999284 
2.608885e+3, 3.163592e+2, 124181.31, 63956.883, -43047.645, -0.9286945, 0.32470876, 146603.33, 146603.33, 0.0, 10.000625, 10.00008 
2.6256064e+3, 1.2684283e+2, -1604579.0, -1639631.0, 34749.34, -0.05330881, 0.4968015, -1583186.1, 113795.516, 0.13183987, 10.000668, 10.000124 
2.6252538e+3, 1.3683593e+2, -1419175.8, -1619055.3, -59737.29, 0.21657583, 0.3774583, -1402683.1, 196364.34, 0.08692974, 10.001868, 9.999042 
2.6248983e+3, 1.4682837e+2, -1272328.1, -1526570.8, 56658.98, -0.015155148, 0.37225336, -1260273.1, 240845.7, 0.045284748, 10.002256, 9.998792 
2.6245418e+3, 1.5682015e+2, -1257985.0, -1570910.8, 54359.043, -0.46848077, 0.25930604, -1248811.1, 154385.42, 0.01638905, 10.002013, 9.99797 
2.6241878e+3, 1.6681348e+2, -1185747.9, -1358860.4, -24391.977, -0.40577275, 0.3751729, -1182376.6, 122886.77, 0.0032885466, 10.001378, 9.998996 
2.6238355e+3, 1.768073e+2, -1269453.8, -1431811.3, -21906.463, -0.0539977, 0.45026338, -1266549.9, -59222.54, 0.00021471751, 10.000425, 9.99833 
2.623481e+3, 1.867991e+2, -1005849.4, -1094345.1, 21484.053, -0.069985755, 0.3564368, -1000909.44, 108495.34, 0.00000047553752, 10.000895, 9.999719 
2.6231247e+3, 1.9679008e+2, -876937.4, -1033754.5, -41902.387, -0.27692977, 0.069912046, -866443.1, 145043.69, 0.0, 10.001307, 9.999292 
2.6227698e+3, 2.0678657e+2, -527866.25, -497491.22, -151837.7, -0.22906901, 0.2650223, -360083.34, 553433.1, 0.0, 10.001726, 10.002056 
2.6224154e+3, 2.1678577e+2, -586155.56, -635709.56, -195126.84, -0.0246516, 0.5558466, -414238.9, 401281.25, 0.0, 10.001326, 10.000656 
2.622063e+3, 2.2677745e+2, -680049.1, -853971.7, -56246.566, 0.06292475, 0.40913236, -663444.3, 54155.906, 0.0, 10.001044, 9.998585 
2.6217103e+3, 2.3676488e+2, -781487.2, -949644.9, -29865.613, 0.09408145, -0.12786898, -776340.44, -156616.84, 0.0, 10.000046, 9.997767 
2.6213548e+3, 2.4675794e+2, -585552.8, -633351.6, 2540.065, -0.2604467, -0.0505756, -585418.25, -63626.254, 0.0, 10.000037, 9.99922 
2.6209974e+3, 2.5675386e+2, -664042.7, -757705.9, -24081.56, -0.7829568, 0.20488, -658213.9, -234381.52, 0.0, 9.999347, 9.998083 
2.6206475e+3, 2.6674712e+2, -472779.7, -552848.7, -76838.63, -0.4699361, 0.3267163, -426171.63, -100267.484, 0.0, 9.999764, 9.998565 
2.620301e+3, 2.7673882e+2, -416741.03, -585069.06, -59892.29, 0.26570538, 0.20921491, -397606.13, -169612.39, 0.0, 9.999909, 9.997639 
2.6199457e+3, 2.867328e+2, -279849.78, -309273.1, -17344.266, 0.008108869, 0.39562935, -271818.2, -141764.31, 0.0, 9.999582, 9.998959 
2.619586e+3, 2.9672742e+2, -472924.56, -475320.5, -8593.413, -0.73545575, 0.52851987, -465446.0, -433342.5, 0.0, 9.998054, 9.997941 
2.61924e+3, 3.0671582e+2, -199931.66, -32340.176, -9425.13, -0.1321275, 0.073189996, -31811.783, -31811.783, 0.0, 9.998406, 10.000455 
2.618887e+3, 3.1670898e+2, -270133.78, -344402.13, 66977.73, -0.21950728, -0.0835186, -230684.9, -230684.9, 0.0, 9.999061, 9.997997 
2.6356015e+3, 1.2719913e+2, -1872507.5, -2046172.6, 57379.973, -0.09542901, 0.59673274, -1855261.4, -161771.72, 0.11528824, 10.00005, 9.997543 
2.6352462e+3, 1.3719183e+2, -1590785.5, -1932084.8, 2904.644, -0.16856526, 0.66275525, -1590760.8, 4811.295, 0.07524984, 10.001557, 9.997035 
2.6348925e+3, 1.4718397e+2, -1224490.0, -1354390.1, 60216.516, -0.23400871, 0.6336835, -1200870.6, 296774.44, 0.038529176, 10.001984, 10.000112 
2.6345402e+3, 1.5717557e+2, -1197971.8, -1416657.3, 72742.555, -0.2668416, 0.36495262, -1175985.5, 223732.22, 0.013527696, 10.001929, 9.999053 
2.6341847e+3, 1.6716897e+2, -1173915.5, -1333610.3, -52469.035, -0.26577237, 0.43630952, -1158219.1, 143561.4, 0.0025719018, 10.001385, 9.999165 
2.6338282e+3, 1.7716302e+2, -1300999.8, -1451410.0, -2116.9402, -0.2539419, 0.52373725, -1300970.0, -97129.58, 0.00015054179, 10.000209, 9.9983015 
2.6334745e+3, 1.8715441e+2, -1079456.6, -1230946.9, 65902.6, -0.18994407, 0.4456523, -1054800.3, 51120.22, 0.0000001940375, 10.000831, 9.998808 
2.633122e+3, 1.9714463e+2, -887893.9, -1164477.5, 18565.475, -0.17024745, 0.17659809, -886653.2, 121356.695, 0.0, 10.00172, 9.99821 
2.632767e+3, 2.07137e+2, -596369.5, -800295.9, -150867.89, -0.14903972, 0.1459285, -516240.34, 393842.53, 0.0, 10.002434, 9.9996195 
2.632411e+3, 2.1713077e+2, -441300.75, -743711.0, -220486.31, -0.14327478, 0.13851176, -325153.66, 486990.9, 0.0, 10.003037, 9.999099 
2.6320565e+3, 2.2712609e+2, -455452.1, -572336.0, -185266.94, -0.12961791, 0.31814286, -319628.0, 394564.13, 0.0, 10.001788, 10.000181 
2.6317018e+3, 2.3712145e+2, -736084.9, -768586.6, -101227.13, -0.14205383, 0.43269765, -649812.44, -33572.47, 0.0, 9.999586, 9.999256 
2.6313478e+3, 2.4711376e+2, -753162.06, -713284.0, -22077.615, -0.23226161, 0.36789137, -703474.3, -185161.23, 0.0, 9.998831, 9.999265 
2.630994e+3, 2.5710514e+2, -744250.0, -773422.06, -16983.416, -0.38927317, 0.1747567, -736448.75, -316054.47, 0.0, 9.998621, 9.998335 
2.6306424e+3, 2.6709753e+2, -624216.5, -682231.0, -80215.92, -0.27848008, 0.22551481, -567924.2, -245451.23, 0.0, 9.99888, 9.998141 
2.630292e+3, 2.7709034e+2, -504788.94, -628463.0, -86422.9, -0.00398125, 0.28232414, -460358.7, -235807.34, 0.0, 9.999184, 9.997726 
2.629938e+3, 2.8708428e+2, -259409.17, -242001.28, -66200.59, -0.11762259, 0.4171851, -183934.89, -57324.934, 0.0, 9.999353, 9.999575 
2.6295817e+3, 2.9707852e+2, -199169.94, -237983.17, -28119.402, -0.46069, 0.47271183, -184410.53, -155748.75, 0.0, 9.99934, 9.998998 
2.6292333e+3, 3.070687e+2, -79752.945, 8083.5654, -38613.4, -0.08553271, 0.14087045, 22644.432, 22644.432, 0.0, 9.999186, 10.000435 
2.6288855e+3, 3.1706733e+2, -172147.19, 3818.3555, -18768.734, 0.35019955, 0.59449255, 5797.9844, 5797.9844, 0.0, 9.9982195, 10.000885 
2.6455966e+3, 1.275534e+2, -1661270.5, -2065782.8, 25006.598, -0.06876219, 0.57596004, -1659730.5, 30282.928, 0.10017185, 10.0019045, 9.996597 
2.6452413e+3, 1.3754393e+2, -1398709.8, -1862334.0, 19655.703, -0.28776646, 0.5361416, -1397878.0, 194242.61, 0.06469282, 10.00308, 9.996789 
2.6448885e+3, 1.4753705e+2, -1194858.6, -1278960.1, 43074.293, -0.24055797, 0.5648269, -1176712.5, 317472.06, 0.032530583, 10.001902, 10.000676 
2.644537e+3, 1.5753038e+2, -1482571.8, -1511612.8, -11525.712, -0.05089001, 0.42046967, -1478553.4, -82314.06, 0.011066901, 9.999749, 9.9994545 
2.644181e+3, 1.675237e+2, -1209559.1, -1344471.1, -84388.586, -0.12587415, 0.45086095, -1168979.4, 129322.48, 0.0019930317, 10.001079, 9.999247 
2.6438227e+3, 1.7751707e+2, -950401.56, -1325256.3, -64778.926, -0.2968562, 0.47348624, -939522.8, 260843.98, 0.00010503105, 10.00277, 9.997959 
2.64347e+3, 1.8750845e+2, -862689.56, -1190409.1, 38140.027, -0.22209781, 0.43528333, -858309.4, 244138.63, 0.00000008640195, 10.002704, 9.998118 
2.6431185e+3, 1.9749883e+2, -978481.25, -1322427.4, -28490.832, -0.044267613, 0.25337225, -976137.2, 28400.38, 0.0, 10.001665, 9.997126 
2.6427633e+3, 2.0748901e+2, -905205.9, -1109107.3, -90712.31, -0.06763617, 0.12432069, -870691.7, 35943.074, 0.0, 10.001007, 9.998196 
2.6424068e+3, 2.1747941e+2, -1025272.56, -1169758.9, -91052.85, -0.14703155, -0.07174533, -981284.5, -172551.86, 0.0, 9.999656, 9.997826 
2.6420507e+3, 2.2747673e+2, -579376.4, -546459.4, -109717.51, -0.21426684, 0.3218033, -451972.78, 258790.25, 0.0, 10.000595, 10.000909 
2.6416945e+3, 2.3747677e+2, -539660.0, -641723.56, -126701.69, -0.25985134, 0.82006854, -454099.13, 158667.75, 0.0, 10.00084, 9.999519 
2.6413423e+3, 2.4746847e+2, -504550.72, -593012.75, -46968.773, -0.13157575, 0.683155, -484264.7, 30579.973, 0.0, 10.000581, 9.999231 
2.6409915e+3, 2.5745663e+2, -729799.25, -814192.3, -50919.67, 0.0649632, 0.15820433, -705864.4, -288909.75, 0.0, 9.998983, 9.997884 
2.6406375e+3, 2.674487e+2, -560995.1, -659268.06, -38210.875, -0.07476137, 0.19870049, -547886.44, -228851.44, 0.0, 9.99945, 9.997981 
2.640282e+3, 2.7744228e+2, -526684.94, -688399.9, -2679.1482, -0.30925956, 0.34327933, -526640.56, -305536.5, 0.0, 9.999351, 9.997221 
2.6399302e+3, 2.874359e+2, -225367.86, -164694.27, 2475.6777, -0.21925396, 0.43983427, -164593.42, -41428.88, 0.0, 9.999407, 10.000042 
2.639579e+3, 2.974296e+2, -322095.56, -288011.94, 1516.8083, -0.07361235, 0.37935436, -287944.56, -262724.34, 0.0, 9.998554, 9.999012 
2.6392248e+3, 3.0742192e+2, -137306.44, -56107.707, -31452.271, -0.22209994, 0.26947552, -45349.95, -45349.95, 0.0, 9.999075, 9.999964 
2.6388744e+3, 3.1741336e+2, -487847.2, -538006.25, 185463.7, -0.042588968, 0.038081557, -325775.0, -325775.0, 0.0, 9.997896, 9.997254 
2.655592e+3, 1.2790602e+2, -1758682.9, -2037719.5, 66744.71, -0.17538655, 0.5094177, -1743539.5, -56990.7, 0.086430125, 10.00104, 9.997141 
2.6552385e+3, 1.3789229e+2, -1415133.4, -1833061.9, 78545.75, -0.2921702, -0.030763293, -1400858.9, 187834.36, 0.055199515, 10.002801, 9.997123 
2.6548848e+3, 1.478873e+2, -1250927.6, -1319060.3, -16288.062, -0.19398458, 0.17541745, -1247234.0, 243506.47, 0.027235242, 10.001606, 10.000504 
2.6545316e+3, 1.5788437e+2, -1553814.6, -1575222.5, -1223.4458, -0.019730885, 0.42876002, -1553745.0, -160982.06, 0.0089680515, 9.9994, 9.99918 
2.6541764e+3, 1.6787706e+2, -1209574.0, -1331774.8, 25507.354, -0.107553065, 0.40578988, -1204463.4, 90368.195, 0.0015322798, 10.00109, 9.999297 
2.6538202e+3, 1.7786829e+2, -875372.44, -1299416.6, 20361.87, -0.31298828, 0.21704532, -874396.94, 322519.4, 0.00007382683, 10.003329, 9.997864 
2.6534665e+3, 1.8786009e+2, -820136.6, -1230611.0, 6163.9204, -0.26818055, 0.25896034, -820044.06, 278953.53, 0.000000036839044, 10.00324, 9.997592 
2.653114e+3, 1.9785196e+2, -913521.6, -1282398.8, -51162.49, -0.1679115, 0.2806774, -906557.0, 94521.625, 0.0, 10.002028, 9.997232 
2.6527575e+3, 2.0784485e+2, -852135.4, -955577.7, -121630.06, -0.12795533, 0.34095675, -771686.4, 131463.73, 0.0, 10.000827, 9.999324 
2.6524004e+3, 2.1783799e+2, -995399.8, -1092285.9, -23373.941, -0.15389052, 0.33120596, -990055.6, -184835.98, 0.0, 9.999536, 9.998422 
2.652046e+3, 2.2783117e+2, -656863.56, -769796.4, 19260.791, -0.13959882, 0.39349085, -653668.94, 53620.594, 0.0, 10.000815, 9.999285 
2.6516926e+3, 2.3782489e+2, -302726.84, -644592.5, -48793.24, -0.12786774, 0.4340822, -295899.13, 313455.56, 0.0, 10.002873, 9.998543 
2.6513392e+3, 2.4781771e+2, -257000.19, -487682.03, -92109.69, -0.031825375, 0.44965574, -224734.45, 286690.2, 0.0, 10.002264, 9.999181 
2.650986e+3, 2.5780988e+2, -426493.47, -589230.94, -59734.426, 0.07354472, 0.34934676, -406921.25, 6577.754, 0.0, 10.000617, 9.998667 
2.650632e+3, 2.6780313e+2, -238962.44, -296386.13, 30143.492, -0.04987695, 0.3562139, -226044.97, 89518.17, 0.0, 10.000691, 9.999904 
2.650278e+3, 2.777968e+2, -121185.78, -303138.03, 95235.43, -0.21962862, 0.35000464, -80456.01, 137167.4, 0.0, 10.001203, 9.999004 
2.6499245e+3, 2.8778952e+2, -77185.39, -186502.02, 56826.234, -0.24490334, 0.33961684, -52997.32, 66695.3, 0.0, 10.0006895, 9.999347 
2.64957e+3, 2.9778224e+2, -170881.23, -261661.31, 37045.44, -0.31197485, 0.28535458, -157682.7, -135921.8, 0.0, 9.99965, 9.998703 
2.6492167e+3, 3.0777514e+2, -125485.125, -143804.39, 2754.5137, -0.37669745, 0.29490545, -125079.914, -125079.914, 0.0, 9.999444, 9.999234 
2.6488692e+3, 3.1776708e+2, -163362.55, -197455.67, 210228.1, 0.12773982, 0.20407908, 30508.973, 30508.973, 0.0, 9.999131, 9.999053 
2.665587e+3, 1.2825836e+2, -1770828.5, -1912459.8, 148371.69, -0.14503136, 0.33991167, -1677239.1, 5853.0103, 0.07399981, 10.000296, 9.998345 
2.6652357e+3, 1.382473e+2, -1437962.9, -1787420.6, 105580.41, -0.23770712, -0.029044481, -1408541.4, 176665.6, 0.046711504, 10.002297, 9.997699 
2.664881e+3, 1.4824153e+2, -1142086.1, -1347599.5, -60221.86, -0.15142073, 0.12741707, -1125739.5, 361522.5, 0.022592498, 10.002692, 9.999809 
2.6645264e+3, 1.5823762e+2, -1204735.5, -1471718.1, -76876.63, 0.030881435, 0.36033833, -1184181.5, 205114.78, 0.0071954923, 10.002051, 9.99865 
2.6641718e+3, 1.6822968e+2, -1168647.0, -1352939.0, 14050.876, -0.07242579, 0.3072031, -1167581.9, 123790.336, 0.001170623, 10.0015135, 9.998975 
2.6638168e+3, 1.7822045e+2, -1272053.8, -1503983.5, -35470.168, -0.2331348, 0.09412686, -1266750.4, -73288.89, 0.00005271245, 10.000682, 9.997744 
2.6634628e+3, 1.8821278e+2, -1125490.3, -1340503.1, -15693.653, -0.25122508, 0.1595628, -1124350.8, -28812.186, 0.000000014947995, 10.000954, 9.997965 
2.663109e+3, 1.982058e+2, -1106712.4, -1358400.3, -16503.695, -0.17747454, 0.26817834, -1105634.9, -108024.51, 0.0, 10.000657, 9.997384 
2.6627523e+3, 2.0820013e+2, -697657.6, -838973.6, -105521.12, -0.14914939, 0.44526383, -641322.44, 258345.8, 0.0, 10.001782, 9.999616 
2.6623946e+3, 2.1819474e+2, -687053.44, -988078.4, -86138.22, -0.11505897, 0.5508828, -664147.94, 137575.34, 0.0, 10.001952, 9.997932 
2.6620418e+3, 2.281851e+2, -626290.6, -895027.06, 39057.17, -0.062492847, 0.41947973, -620729.3, 83091.25, 0.0, 10.001722, 9.99793 
2.6616898e+3, 2.3817427e+2, -753044.94, -1000923.06, -22765.002, 0.027457874, 0.1249887, -750971.56, -145041.94, 0.0, 10.000467, 9.997236 
2.6613355e+3, 2.4816817e+2, -438167.5, -577589.6, -104671.46, 0.03998443, 0.29798836, -382117.88, 125873.34, 0.0, 10.001107, 9.999103 
2.66098e+3, 2.5816345e+2, -439964.66, -591026.1, -67182.46, 0.018778455, 0.5063078, -414409.4, -4371.1274, 0.0, 10.00062, 9.998633 
2.6606265e+3, 2.6815757e+2, -217694.2, -115686.32, -942.0304, -0.040459312, 0.5005684, -115677.625, 196412.55, 0.0, 10.000253, 10.001282 
2.660274e+3, 2.7815118e+2, -427020.5, -395944.44, -25420.912, -0.081588924, 0.3315219, -381688.97, -167544.02, 0.0, 9.999007, 9.999385 
2.659918e+3, 2.8814328e+2, -327709.8, -351972.66, -69398.63, -0.26792407, 0.26296464, -269390.25, -153170.3, 0.0, 9.999317, 9.998794 
2.6595604e+3, 2.9813522e+2, -440819.72, -524527.4, -23967.533, -0.62468314, 0.17322221, -434443.0, -416144.22, 0.0, 9.998523, 9.997404 
2.6592094e+3, 3.0812833e+2, -295204.03, -317686.38, 3315.6064, -0.41929272, 0.3011685, -294725.25, -294725.25, 0.0, 9.998789, 9.99829 
2.6588637e+3, 3.181198e+2, -170036.22, 160032.33, 65553.68, 0.2636308, 0.15139757, 172575.06, 172575.06, 0.0, 9.997717, 10.00214 
2.675582e+3, 1.2861061e+2, -1746442.0, -1695109.0, 198669.39, -0.20514128, 0.20118234, -1520455.0, 159185.34, 0.062782034, 9.999731, 10.000115 
2.6752317e+3, 1.3860784e+2, -1482131.3, -1757025.1, 168130.66, -0.3070899, 0.4992085, -1402415.6, 179255.86, 0.039146993, 10.001806, 9.998145 
2.674877e+3, 1.4859879e+2, -1262712.1, -1537698.8, -61477.89, -0.22820356, 0.39439, -1249593.5, 234165.11, 0.018543638, 10.002482, 9.998551 
2.6745218e+3, 1.5858869e+2, -1276170.4, -1623588.8, -63410.926, -0.082802474, 0.13209601, -1264958.5, 120895.79, 0.005710664, 10.002074, 9.997591 
2.674167e+3, 1.6858084e+2, -1206772.1, -1428312.3, -14120.925, -0.13269442, 0.15304342, -1205875.8, 82056.4, 0.0008890518, 10.00152, 9.99843 
2.6738116e+3, 1.785734e+2, -1266204.6, -1451763.8, -32084.975, -0.2673438, 0.1597765, -1260813.5, -70807.09, 0.000037964888, 10.000507, 9.998171 
2.6734576e+3, 1.8856664e+2, -1003348.06, -1034672.56, 8013.2637, -0.25959587, 0.15630843, -1001417.2, 90652.77, 0.0000000057994387, 10.000732, 10.000173 
2.6731032e+3, 1.985601e+2, -996399.0, -1181773.0, 53405.62, -0.23268041, 0.120107725, -982113.9, 12017.206, 0.0, 10.000854, 9.998506 
2.6727477e+3, 2.0855287e+2, -705433.56, -1014621.5, -19469.469, -0.21849796, 0.20825215, -704212.4, 191993.53, 0.0, 10.002455, 9.998099 
2.6723912e+3, 2.1854544e+2, -430385.4, -954092.8, -57840.652, -0.23641707, 0.26354748, -424073.28, 374210.9, 0.0, 10.0040245, 9.997187 
2.6720375e+3, 2.2853766e+2, -499170.4, -846125.5, -33253.3, -0.1584952, 0.34850687, -496012.06, 204352.39, 0.0, 10.00259, 9.997881 
2.6716837e+3, 2.3852962e+2, -714963.25, -955701.0, -23729.248, -0.07628964, 0.35762125, -712646.6, -110200.016, 0.0, 10.000523, 9.997545 
2.671329e+3, 2.4852246e+2, -403833.84, -550216.56, -31576.412, -0.09812169, 0.40501872, -397312.94, 107203.586, 0.0, 10.001221, 9.99927 
2.6709738e+3, 2.5851572e+2, -201590.06, -500967.84, -22988.064, -0.18256235, 0.42269525, -199835.19, 206746.38, 0.0, 10.002253, 9.998495 
2.67062e+3, 2.6850823e+2, -275549.53, -370091.5, -98862.56, -0.14258265, 0.3949544, -213237.9, 95416.39, 0.0, 10.000757, 9.999321 
2.6702672e+3, 2.7850062e+2, -489787.38, -460280.84, -165057.34, -0.049229212, 0.28932264, -309318.75, -98591.41, 0.0, 9.998634, 9.99913 
2.669913e+3, 2.8849444e+2, -301710.63, -152526.61, -136650.66, -0.09104441, 0.27537075, -71435.055, 41348.242, 0.0, 9.998645, 10.000514 
2.6695567e+3, 2.984884e+2, -212369.66, -215294.34, -47728.184, -0.30192387, 0.24544567, -166081.42, -151243.83, 0.0, 9.999112, 9.999279 
2.6692045e+3, 3.0848023e+2, -165491.17, -145178.19, 25753.07, -0.2075299, 0.11586758, -127651.2, -127651.2, 0.0, 9.999094, 9.999387 
2.6688525e+3, 3.1847566e+2, -2636.9182, 233818.9, 75482.516, -0.09812664, 0.30930796, 255860.2, 255860.2, 0.0, 9.998643, 10.002268 
2.6855785e+3, 1.2896521e+2, -1206187.3, -1434812.0, 269085.13, -0.12987417, 0.13431777, -1028140.06, 648020.94, 0.05267765, 10.003402, 10.000284 
2.685228e+3, 1.3896336e+2, -1558438.4, -1740751.8, 124004.305, -0.19183895, 0.5165144, -1495690.5, 82491.94, 0.03242507, 10.000975, 9.998664 
2.6848727e+3, 1.4895423e+2, -1413706.4, -1583315.8, 30552.666, -0.20974182, 0.35919282, -1408370.6, 71898.445, 0.015032841, 10.001259, 9.998826 
2.6845172e+3, 1.589432e+2, -1300414.4, -1616683.6, 95498.805, -0.11205795, -0.006356499, -1273815.3, 108558.08, 0.0044764117, 10.001825, 9.99775 
2.684162e+3, 1.6893595e+2, -1183913.5, -1422204.5, 178036.03, -0.117388576, 0.09699232, -1088833.8, 195614.2, 0.00066900725, 10.001732, 9.998366 
2.683807e+3, 1.7892966e+2, -1200490.8, -1404997.8, 170729.33, -0.15581776, 0.2462194, -1103736.0, 82778.24, 0.000027210404, 10.0009165, 9.9983 
2.6834524e+3, 1.8892275e+2, -959767.8, -952758.0, 123580.195, -0.20238549, 0.2040982, -832633.06, 255945.58, 0.000000001728097, 10.000783, 10.00072 
2.683098e+3, 1.9891587e+2, -1131829.5, -1276538.6, 42766.664, -0.200622, 0.09530998, -1120135.4, -129493.94, 0.0, 10.00007, 9.998243 
2.6827437e+3, 2.0890693e+2, -961664.44, -1287661.3, 17150.295, -0.2034757, 0.104776375, -960764.7, -68030.54, 0.0, 10.001336, 9.996773 
2.682389e+3, 2.188978e+2, -830134.25, -1258938.3, -44539.48, -0.19343801, 0.118412904, -825556.8, -30726.02, 0.0, 10.001792, 9.996185 
2.682033e+3, 2.2889113e+2, -540894.2, -846387.5, -59060.61, -0.19646178, 0.32171395, -529873.6, 167025.67, 0.0, 10.002238, 9.998043 
2.6816773e+3, 2.3888503e+2, -664136.75, -962160.56, -6128.855, -0.1672928, 0.5128415, -664010.75, -65049.664, 0.0, 10.001089, 9.99722 
2.681323e+3, 2.4887681e+2, -434391.28, -555181.25, 47259.27, -0.21347758, 0.45407993, -418098.63, 82941.13, 0.0, 10.001102, 9.999197 
2.6809686e+3, 2.5886825e+2, -604167.25, -827383.9, -2988.0999, -0.27592745, 0.29389194, -604127.3, -201005.58, 0.0, 10.000174, 9.997217 
2.6806143e+3, 2.688594e+2, -494478.5, -702180.44, -88313.19, -0.17811754, 0.30644366, -462005.44, -156791.84, 0.0, 10.000286, 9.99724 
2.6802602e+3, 2.7885062e+2, -524068.13, -604546.0, -85255.43, 0.006380556, 0.26864406, -470032.7, -262727.84, 0.0, 9.999006, 9.997965 
2.679907e+3, 2.8884587e+2, -166567.03, 85525.75, -66761.82, 0.08812834, 0.32761475, 102114.67, 211459.8, 0.0, 9.998884, 10.002005 
2.6795533e+3, 2.988418e+2, -344005.03, -159369.36, -53450.906, 0.0678873, 0.33592755, -145012.08, -133635.81, 0.0, 9.997805, 10.000273 
2.6791996e+3, 3.0883223e+2, -230295.44, -22677.342, -33511.453, 0.04484815, -0.06298803, -17402.31, -17402.31, 0.0, 9.998131, 10.000618 
2.6788393e+3, 3.1883374e+2, -451572.75, -185196.16, 32535.623, -0.679077, 0.6408554, -181279.78, -181279.78, 0.0, 9.996696, 10.000256 
2.6955763e+3, 1.293208e+2, -1412658.0, -1641324.5, 152931.42, -0.15194021, 0.1041992, -1336045.9, 336622.72, 0.0436191, 10.0025215, 9.999125 
2.695224e+3, 1.393138e+2, -1628566.0, -1753605.1, 93396.336, -0.11260261, 0.020184668, -1578695.3, -3954.82, 0.026486209, 10.000453, 9.998789 
2.6948678e+3, 1.4930801e+2, -1317036.1, -1314070.8, 82273.57, -0.20329547, 0.05099926, -1233266.5, 243524.63, 0.012009438, 10.001004, 10.000796 
2.6945123e+3, 1.5930192e+2, -1233399.5, -1441454.1, 145031.45, -0.23333476, 0.0027933544, -1158944.9, 219899.5, 0.003455713, 10.001686, 9.999007 
2.6941583e+3, 1.6929613e+2, -1135803.3, -1337518.4, 198926.17, -0.096552424, 0.1635649, -1013627.5, 267279.75, 0.00049606664, 10.001776, 9.998917 
2.6938042e+3, 1.7929028e+2, -1205886.3, -1485006.0, 217361.47, -0.025824925, 0.3333226, -1087138.3, 95834.07, 0.00001910138, 10.001191, 9.997614 
2.693448e+3, 1.8928187e+2, -1096045.6, -1277491.1, 136306.67, -0.1455663, 0.32179326, -1023030.4, 62027.72, 0.0000000002885943, 10.000949, 9.998396 
2.693092e+3, 1.9927318e+2, -1181433.6, -1485270.8, 68827.19, -0.2821394, 0.2593375, -1166569.6, -179424.13, 0.0, 10.000478, 9.996611 
2.6927394e+3, 2.0926376e+2, -983143.2, -1359927.8, 70525.21, -0.14583886, 0.30923006, -970375.2, -81131.625, 0.0, 10.001394, 9.996269 
2.6923868e+3, 2.1925443e+2, -734219.06, -1176152.6, 13656.908, -0.026640339, 0.3460112, -733797.44, 57543.285, 0.0, 10.002234, 9.996539 
2.6920292e+3, 2.2924596e+2, -413479.66, -692908.75, -15661.225, -0.21584718, 0.30135286, -412604.63, 280815.72, 0.0, 10.00267, 9.998911 
2.6916713e+3, 2.3923804e+2, -361203.5, -730106.6, 34450.633, -0.42396367, 0.24289511, -358013.84, 237479.63, 0.0, 10.002733, 9.998029 
2.6913184e+3, 2.4922995e+2, -395985.16, -612784.3, 43024.855, -0.22813256, 0.22255412, -387758.78, 109813.766, 0.0, 10.001619, 9.998597 
2.6909655e+3, 2.592218e+2, -544088.6, -777344.0, 14383.11, -0.009310284, 0.17972787, -543205.06, -143551.34, 0.0, 10.000375, 9.997489 
2.6906112e+3, 2.6921463e+2, -368267.4, -589971.9, 7036.6104, 0.06943449, 0.3190929, -368044.3, -66314.28, 0.0, 10.000813, 9.997817 
2.6902562e+3, 2.7920756e+2, -195103.39, -450026.28, 46442.797, 0.121519186, 0.44158083, -186905.89, 16899.652, 0.0, 10.001153, 9.998017 
2.6898998e+3, 2.8920102e+2, -117045.78, -79915.04, -20675.715, -0.018493628, 0.4464383, -70692.68, 35176.063, 0.0, 9.999928, 10.000393 
2.689543e+3, 2.99195e+2, -295926.97, -217459.02, -76007.8, -0.1565152, 0.41709626, -171156.5, -163231.34, 0.0, 9.998367, 9.999608 
2.689194e+3, 3.0918738e+2, -308481.66, -94103.36, -93283.336, 0.32133278, 0.25199655, -59196.434, -59196.434, 0.0, 9.997608, 10.000428 
2.688832e+3, 3.1918567e+2, -511790.8, -370887.38, -77310.8, -0.5114407, 0.6972121, -336742.7, -336742.7, 0.0, 9.996753, 9.998986 
2.7055746e+3, 1.296767e+2, -1550305.6, -1773864.6, 142096.5, 0.0776367, 0.06554449, -1481292.3, 187887.27, 0.03554995, 10.001709, 9.998633 
2.7052194e+3, 1.3966854e+2, -1154936.6, -1532314.1, 60943.945, -0.16418508, -0.06034099, -1145338.8, 425923.03, 0.021269772, 10.00371, 9.998803 
2.704864e+3, 1.4966317e+2, -943192.4, -1088926.5, -21348.848, -0.19934276, -0.02856517, -940129.3, 533177.56, 0.009415533, 10.003327, 10.0012865 
2.704509e+3, 1.5965824e+2, -1144899.8, -1384339.4, -79799.62, -0.1362902, -0.004594406, -1120741.8, 254605.97, 0.0026134893, 10.002185, 9.999182 
2.7041543e+3, 1.6965255e+2, -1146083.9, -1365872.0, -101471.27, -0.04500066, 0.15373033, -1106401.5, 171008.89, 0.0003600524, 10.001766, 9.998734 
2.7037996e+3, 1.7964657e+2, -1281614.6, -1590926.0, -104458.555, 0.034618314, 0.31037897, -1249642.4, -70163.92, 0.000012952271, 10.000987, 9.996981 
2.7034435e+3, 1.8963785e+2, -1017145.9, -1377826.3, -71634.33, -0.12560566, 0.3437694, -1003439.56, 78131.12, 0.000000000007316074, 10.002146, 9.997112 
2.703087e+3, 1.996286e+2, -921847.4, -1447926.3, -26552.422, -0.27409026, 0.33618957, -920510.56, 63156.668, 0.0, 10.00266, 9.995828 
2.7027357e+3, 2.0961982e+2, -709441.6, -1173444.6, 82028.53, -0.101483464, 0.42314613, -695367.2, 190390.36, 0.0, 10.003069, 9.996735 
2.7023843e+3, 2.196111e+2, -715074.1, -1149784.0, 83234.84, 0.09431889, 0.48199406, -699681.94, 88164.09, 0.0, 10.00236, 9.996645 
2.7020258e+3, 2.2960144e+2, -528171.3, -703830.3, 6272.1094, -0.19597688, 0.27960086, -527947.6, 161986.27, 0.0, 10.001788, 9.999192 
2.7016664e+3, 2.3959209e+2, -765549.7, -981102.5, -6175.2456, -0.4899169, 0.052571543, -765372.94, -173355.05, 0.0, 10.000258, 9.997485 
2.701314e+3, 2.4958408e+2, -552369.75, -744660.75, -8290.546, -0.16433716, 0.077355795, -552013.0, -57915.09, 0.0, 10.0008335, 9.998043 
2.7009627e+3, 2.595766e+2, -629286.2, -849271.06, 6856.0967, 0.25406748, 0.13740024, -629072.7, -232898.23, 0.0, 10.000049, 9.99712 
2.7006078e+3, 2.6957095e+2, -413254.72, -491433.88, 43678.78, 0.2687089, 0.3612835, -393728.3, -95493.63, 0.0, 10.000102, 9.998774 
2.7002513e+3, 2.7956542e+2, -559884.5, -682151.5, 66049.9, 0.18307906, 0.55710584, -531018.6, -330724.16, 0.0, 9.999037, 9.997416 
2.6998916e+3, 2.8955713e+2, -417547.97, -432664.0, -5772.429, -0.16028412, 0.5391301, -415595.75, -313214.0, 0.0, 9.998899, 9.998418 
2.6995328e+3, 2.995489e+2, -555229.8, -531133.06, 276.90686, -0.43442732, 0.48389715, -531129.9, -526662.75, 0.0, 9.997515, 9.997859 
2.6991874e+3, 3.0954385e+2, -274309.78, -128623.52, 7898.259, 0.5205826, 0.6526561, -128196.58, -128196.58, 0.0, 9.99816, 9.999896 
2.698825e+3, 3.1953236e+2, -560461.9, -513628.8, 35802.156, -0.3387782, 0.18296309, -494265.34, -494265.34, 0.0, 9.99713, 9.9978075 
2.7155736e+3, 1.300331e+2, -1624944.0, -1779377.0, 196711.67, 0.32800996, 0.16995297, -1490836.4, 174853.97, 0.028414978, 10.0011635, 9.998824 
2.715214e+3, 1.4002688e+2, -1260526.3, -1653676.5, 106012.12, -0.5267117, 0.21484204, -1233762.3, 333990.3, 0.016713178, 10.003329, 9.998122 
2.71486e+3, 1.5001908e+2, -1054452.4, -1271453.3, -40518.383, -0.31029758, 0.10227173, -1047133.7, 422689.25, 0.0071980846, 10.003176, 10.00005 
2.714507e+3, 1.600112e+2, -1272448.0, -1596807.1, -99127.38, -0.010702775, -0.042727705, -1244552.6, 127341.85, 0.0019202423, 10.001998, 9.997798 
2.71415e+3, 1.7000347e+2, -1236901.3, -1539548.8, -127453.92, -0.0750151, 0.035820805, -1190378.1, 83599.57, 0.00025324232, 10.001727, 9.997557 
2.7137926e+3, 1.7999588e+2, -1277546.6, -1614802.1, -113212.914, -0.21677867, 0.13440174, -1243067.3, -67006.15, 0.000008369746, 10.00111, 9.996762 
2.7134386e+3, 1.8998799e+2, -924458.4, -1252483.1, -37907.785, -0.26218957, 0.19808482, -920134.6, 158009.39, 0.0, 10.002437, 9.997835 
2.7130845e+3, 1.999803e+2, -654168.75, -1099176.4, 5606.8086, -0.32361034, 0.24536373, -654098.1, 326125.25, 0.0, 10.003532, 9.997807 
2.7127323e+3, 2.099735e+2, -396158.53, -718168.44, 102924.83, -0.23546678, 0.279115, -366071.6, 516215.9, 0.0, 10.0038805, 9.999498 
2.712379e+3, 2.1996665e+2, -449018.03, -886639.8, 93121.97, -0.15978698, 0.3040638, -430026.7, 354325.2, 0.0, 10.003547, 9.997898 
2.712022e+3, 2.2995798e+2, -584462.3, -870619.6, -28142.898, -0.13394427, 0.26996133, -581720.8, 104715.65, 0.0, 10.0019455, 9.998014 
2.7116644e+3, 2.3994932e+2, -739455.06, -985672.3, -12634.782, -0.15144697, 0.22889152, -738808.44, -150287.47, 0.0, 10.000431, 9.997379 
2.7113098e+3, 2.4994186e+2, -506023.75, -691240.2, 33946.26, -0.070368804, 0.29486364, -499998.16, -9403.1875, 0.0, 10.000966, 9.998368 
2.7109554e+3, 2.5993466e+2, -349836.75, -585947.1, 25691.693, 0.022444246, 0.35382086, -347073.5, 45592.676, 0.0, 10.001339, 9.998302 
2.710599e+3, 2.699271e+2, -314667.63, -331616.97, 27998.96, 0.0082923295, 0.28466776, -293888.9, 849.3053, 0.0, 10.0002165, 9.999842 
2.7102423e+3, 2.7991986e+2, -501425.63, -538137.56, 64200.88, -0.02162467, 0.2193896, -453008.16, -256198.8, 0.0, 9.998873, 9.998474 
2.7098846e+3, 2.8991297e+2, -445513.5, -447464.75, 58638.832, -0.10279901, 0.32791778, -387842.2, -288956.34, 0.0, 9.998681, 9.998443 
2.709527e+3, 2.999063e+2, -336871.6, -366982.1, 148980.66, -0.2295341, 0.4470864, -202187.4, -201227.36, 0.0, 9.9986515, 9.998455 
2.709177e+3, 3.099017e+2, 12988.585, 31522.18, 215731.05, 0.16198364, 0.6470581, 238185.36, 238185.36, 0.0, 9.999943, 10.000201 
2.7088186e+3, 3.198912e+2, 17795.164, 26647.828, 115056.56, -0.28032693, 0.26053995, 137363.17, 137363.17, 0.0, 9.999828, 10.000265 
2.7255702e+3, 1.3038872e+2, -1269887.8, -1520271.9, 123162.4, 0.32478172, 0.27129734, -1219460.9, 442750.28, 0.022191126, 10.003138, 9.99974 
2.7252117e+3, 1.4038235e+2, -1522179.5, -1755007.5, 21674.912, -0.35802308, 0.2693283, -1520178.9, 44091.68, 0.012784308, 10.001293, 9.998447 
2.7248573e+3, 1.5037417e+2, -1207647.3, -1415601.1, -52285.293, -0.23072104, 0.14416473, -1195241.4, 271105.44, 0.00532732, 10.002374, 9.999475 
2.7245036e+3, 1.6036569e+2, -1107894.8, -1559494.4, -55350.816, 0.04002279, 0.010793158, -1101209.5, 267217.63, 0.0013580795, 10.003311, 9.997436 
2.7241465e+3, 1.7035744e+2, -920598.44, -1395460.8, -14979.485, -0.0504496, 0.053460833, -920126.4, 350387.72, 0.00016970174, 10.003978, 9.997458 
2.7237892e+3, 1.8034922e+2, -897223.7, -1476948.5, 64077.203, -0.181918, 0.13200344, -890225.7, 282376.4, 0.0000049540654, 10.003926, 9.996359 
2.7234352e+3, 1.9034088e+2, -736505.94, -1198461.0, 77172.34, -0.2567431, 0.19098288, -723954.9, 350735.47, 0.0, 10.00386, 9.997513 
2.7230823e+3, 2.0033316e+2, -721325.7, -1065933.1, -5791.132, -0.26474482, 0.24146657, -721228.4, 255541.63, 0.0, 10.002828, 9.998356 
2.7227286e+3, 2.1032742e+2, -604028.06, -634099.7, -48012.727, -0.27016455, 0.2331448, -568751.9, 310067.25, 0.0, 10.001737, 10.001064 
2.7223745e+3, 2.2032176e+2, -939481.44, -1089137.0, -138797.88, -0.23207146, 0.23164076, -856625.9, -75758.164, 0.0, 10.000101, 9.998166 
2.7220184e+3, 2.3031397e+2, -670358.75, -947856.8, -170633.11, -0.040399097, 0.28391922, -589182.9, 93763.586, 0.0, 10.00158, 9.997643 
2.721662e+3, 2.4030623e+2, -613003.2, -938028.44, -36806.758, 0.14484382, 0.36261722, -608887.25, -23861.742, 0.0, 10.00148, 9.997175 
2.7213052e+3, 2.502994e+2, -516379.75, -617603.2, 65781.09, 0.0025150315, 0.43338898, -483993.28, 3098.0415, 0.0, 10.000651, 9.998981 
2.7209482e+3, 2.6029244e+2, -697714.9, -750693.6, 48738.855, -0.15609975, 0.46792462, -668732.06, -279574.78, 0.0, 9.999003, 9.998313 
2.7205902e+3, 2.7028307e+2, -394758.63, -322451.2, -39019.2, -0.2306062, 0.16751362, -305411.03, -14167.613, 0.0, 9.999533, 10.00022 
2.7202332e+3, 2.8027415e+2, -520922.22, -562818.56, -50450.5, -0.21502411, -0.09848174, -487243.66, -293916.75, 0.0, 9.998881, 9.998305 
2.7198783e+3, 2.9026884e+2, -320550.22, -346611.94, -28891.441, -0.025463812, 0.11401613, -301886.94, -206497.64, 0.0, 9.999407, 9.9987545 
2.7195218e+3, 3.002643e+2, -357037.6, -377279.47, 106199.516, -0.024556717, 0.4017614, -260477.84, -260477.84, 0.0, 9.998615, 9.998381 
2.719166e+3, 3.102596e+2, -179205.05, -9225.47, 201477.03, -0.30772516, 0.5348727, 124454.03, 124454.03, 0.0, 9.998481, 10.00056 
2.7188143e+3, 3.2025355e+2, -140107.45, 265654.84, -60838.42, -0.056875665, 0.4607218, 274580.38, 274580.38, 0.0, 9.997564, 10.002929 
2.735564e+3, 1.3074332e+2, -1330101.6, -1422731.5, 8257.891, -0.011001283, 0.42922494, -1329371.1, 329371.66, 0.016854003, 10.002293, 10.000742 
2.7352118e+3, 1.4073518e+2, -1591553.6, -1745036.6, 23213.309, 0.10608381, 0.124263644, -1588119.6, -27306.754, 0.009467282, 10.000703, 9.998766 
2.734855e+3, 1.5072855e+2, -1223400.5, -1392163.0, 23955.633, -0.10109254, 0.124544054, -1220065.9, 242812.0, 0.0037924994, 10.002175, 9.999703 
2.7344987e+3, 1.6072188e+2, -1069819.8, -1450144.5, 6705.7256, -0.22824913, 0.13757266, -1069701.6, 295242.56, 0.0009170214, 10.003221, 9.998206 
2.7341446e+3, 1.7071556e+2, -800896.2, -1180996.3, 51962.098, -0.054353114, 0.2559977, -793920.7, 473087.22, 0.0001065257, 10.004162, 9.998826 
2.7337903e+3, 1.8070869e+2, -854102.4, -1502847.3, 118904.484, 0.03623514, 0.3969128, -832995.8, 336083.2, 0.0000025959862, 10.004435, 9.995925 
2.7334347e+3, 1.906982e+2, -831223.1, -1481323.1, 97095.08, -0.124437965, 0.41783768, -817031.4, 254161.75, 0.0, 10.004197, 9.995435 
2.7330795e+3, 2.0068817e+2, -764906.0, -1233936.3, -45641.53, -0.27651894, 0.43462968, -760505.9, 212794.45, 0.0, 10.003128, 9.997053 
2.7327245e+3, 2.1068124e+2, -739300.75, -845043.8, -134678.69, -0.20286866, 0.4322785, -647487.3, 227875.77, 0.0, 10.001396, 9.999791 
2.7323693e+3, 2.2067486e+2, -841448.7, -928069.44, -176802.84, -0.1508217, 0.43132517, -702728.75, 74690.04, 0.0, 10.000223, 9.999214 
2.7320132e+3, 2.3066755e+2, -413944.63, -550811.8, -113287.3, -0.11532771, 0.31290162, -350025.78, 329458.66, 0.0, 10.002107, 10.000133 
2.7316567e+3, 2.4066041e+2, -171465.23, -470860.8, -45028.477, -0.07498351, 0.22002757, -164839.67, 416708.94, 0.0, 10.003352, 9.99948 
2.7312997e+3, 2.5065368e+2, -343909.3, -377539.4, 3598.9617, -0.01595585, 0.1439439, -343528.5, 140078.84, 0.0, 10.001074, 10.000466 
2.7309427e+3, 2.606468e+2, -710908.6, -770499.56, 64425.293, -0.016425258, 0.09590592, -669722.44, -284052.66, 0.0, 9.998881, 9.998245 
2.7305844e+3, 2.7063793e+2, -509271.25, -635062.4, -17017.412, -0.17232583, 0.039326493, -507009.75, -219249.2, 0.0, 9.999774, 9.997998 
2.730227e+3, 2.8062943e+2, -232896.33, -424118.34, -88633.805, -0.25624025, -0.010443434, -198133.2, -8284.739, 0.0, 10.000711, 9.998415 
2.729872e+3, 2.906242e+2, 15371.419, -61784.242, -76879.69, -0.0936152, 0.12337264, 62809.492, 154714.1, 0.0, 10.00104, 9.999999 
2.7295154e+3, 3.0062008e+2, 36000.016, -15468.093, 13832.985, -0.06512511, 0.32834738, 39482.277, 39482.277, 0.0, 10.00047, 9.999987 
2.729158e+3, 3.106165e+2, -321695.8, 7149.7666, 66169.51, -0.25163272, 0.4700549, 19964.832, 19964.832, 0.0, 9.997033, 10.00142 
2.7288058e+3, 3.20611e+2, -349932.16, 12095.642, 54210.535, 0.035874397, 0.46196327, 20038.916, 20038.916, 0.0, 9.996556, 10.00174 
2.7455607e+3, 1.310976e+2, -1088141.6, -1292633.1, 93021.5, -0.06530575, 0.28272012, -1052158.6, 603111.6, 0.012358423, 10.003768, 10.000962 
2.7452093e+3, 1.4109036e+2, -1345701.6, -1632041.4, 78138.44, 0.3155277, 0.10171699, -1325766.6, 231565.86, 0.006744914, 10.00237, 9.998739 
2.7448517e+3, 1.5108417e+2, -1120785.5, -1386717.6, 72085.14, -0.041781615, 0.1773705, -1102502.6, 356894.94, 0.0025850076, 10.003019, 9.999336 
2.744495e+3, 1.6107811e+2, -1035260.8, -1393840.4, -20469.188, -0.29084304, 0.26681498, -1034096.1, 327364.63, 0.0005889778, 10.003241, 9.99858 
2.7441418e+3, 1.7107216e+2, -947263.6, -1182570.6, -32226.266, -0.05782513, 0.34286192, -942929.94, 320586.47, 0.00006228534, 10.002782, 9.999502 
2.7437887e+3, 1.8106557e+2, -1209979.1, -1690027.6, 41633.656, 0.14409934, 0.46530208, -1206395.1, -40814.223, 0.0000011486238, 10.002052, 9.995789 
2.7434325e+3, 1.9105496e+2, -1065874.5, -1632426.8, 148677.84, -0.072913356, 0.49162495, -1029228.06, 38469.47, 0.0, 10.002785, 9.995054 
2.7430767e+3, 2.0104459e+2, -904166.44, -1368273.6, 106386.71, -0.24777022, 0.5283065, -880941.75, 88867.92, 0.0, 10.002522, 9.996413 
2.7427202e+3, 2.1103658e+2, -806118.0, -971899.1, 50186.63, -0.14813265, 0.50184226, -792108.94, 79774.75, 0.0, 10.001339, 9.998946 
2.7423644e+3, 2.2102909e+2, -962435.25, -956274.7, 100240.26, -0.036837433, 0.46924198, -859067.4, -85117.18, 0.0, 9.999304, 9.999452 
2.7420077e+3, 2.3102199e+2, -698454.9, -516213.66, 79544.61, -0.14010447, 0.25498793, -486378.44, 189630.84, 0.0, 9.999475, 10.001604 
2.7416512e+3, 2.410152e+2, -733200.8, -665625.0, -28659.781, -0.1916215, 0.07709449, -655107.06, -77042.12, 0.0, 9.999203, 10.000144 
2.7412945e+3, 2.5100842e+2, -421009.16, -316314.0, -110635.66, 0.011466656, -0.10785569, -246266.66, 233854.05, 0.0, 10.000152, 10.00131 
2.7409372e+3, 2.6100168e+2, -662333.56, -868951.06, -19408.252, 0.14721979, -0.17946038, -660526.3, -278345.9, 0.0, 9.999848, 9.997075 
2.7405792e+3, 2.709937e+2, -531097.06, -838815.06, 43785.6, -0.09163407, -0.01031812, -524988.0, -240717.05, 0.0, 10.00053, 9.996191 
2.7402213e+3, 2.809859e+2, -363357.6, -548851.8, 28680.865, -0.2692886, 0.1585587, -359024.25, -172665.39, 0.0, 10.000212, 9.997766 
2.739866e+3, 2.9097998e+2, -47819.74, 24649.172, -25171.75, -0.15322523, 0.14037201, 32534.47, 120950.69, 0.0, 10.00022, 10.00094 
2.7395087e+3, 3.0097538e+2, -182746.98, -78786.98, -72467.84, -0.124764614, 0.21964248, -41584.53, -41584.53, 0.0, 9.998924, 10.000275 
2.73915e+3, 3.109731e+2, -181410.08, 153569.17, -127898.64, -0.15412362, 0.41225764, 196818.34, 196818.34, 0.0, 9.997812, 10.00197 
2.7387965e+3, 3.2096505e+2, -463976.4, -327178.75, 304307.4, -0.026038075, 0.1627062, -83677.94, -83677.94, 0.0, 9.997212, 9.999029 
2.7555582e+3, 1.3145164e+2, -1243892.0, -1407085.6, 4114.3354, -0.15949218, -0.0204039, -1243788.3, 408006.44, 0.00868532, 10.0029745, 10.000504 
2.7552038e+3, 1.4144762e+2, -1501463.3, -1828898.9, 101897.66, 0.08640471, 0.16886638, -1472342.6, 81489.64, 0.004592608, 10.0018835, 9.9976 
2.7548483e+3, 1.5144102e+2, -1232406.6, -1562122.3, 131103.67, -0.11593919, 0.3128885, -1186631.5, 269274.28, 0.0016782222, 10.002818, 9.998218 
2.754493e+3, 1.6143396e+2, -1100071.5, -1466490.5, -15839.936, -0.28883412, 0.3960701, -1099388.0, 258592.75, 0.0003582281, 10.003014, 9.998176 
2.754137e+3, 1.7142591e+2, -989445.44, -1200780.3, -47261.55, -0.19732903, 0.26819432, -979357.7, 280694.8, 0.000033741435, 10.00251, 9.999491 
2.7537817e+3, 1.8141818e+2, -1119261.1, -1448325.8, 58156.23, -0.16567197, 0.2301429, -1109285.5, 52837.914, 0.00000040337267, 10.001811, 9.997555 
2.7534273e+3, 1.9141066e+2, -887316.2, -1237057.3, 218313.4, -0.30838117, 0.30854836, -782471.75, 281732.5, 0.0, 10.002661, 9.99783 
2.753072e+3, 2.014031e+2, -716107.3, -1079320.3, 134413.0, -0.42488143, 0.3898013, -671776.25, 294506.7, 0.0, 10.002915, 9.99822 
2.7527145e+3, 2.113946e+2, -701661.44, -839774.3, 95517.54, -0.2667917, 0.2265174, -652851.9, 215504.86, 0.0, 10.001631, 9.999755 
2.7523574e+3, 2.2138639e+2, -888883.3, -980375.7, 171486.22, -0.12654057, 0.098612346, -757146.44, 13281.885, 0.0, 10.000025, 9.998938 
2.7520016e+3, 2.3137893e+2, -903733.94, -831441.5, 132961.45, -0.081464976, 0.032505922, -729800.56, -57302.867, 0.0, 9.9989395, 9.999729 
2.751645e+3, 2.4137188e+2, -898356.75, -858900.0, 28657.514, -0.055807553, 0.005658827, -843836.7, -269273.34, 0.0, 9.998471, 9.999189 
2.7512893e+3, 2.5136524e+2, -471436.3, -479103.8, -50585.35, 0.07892363, -0.028347997, -424539.66, 52086.137, 0.0, 10.000352, 10.000127 
2.7509326e+3, 2.61359e+2, -252405.84, -507320.1, -21411.977, 0.13306788, 0.004300046, -250619.83, 128065.88, 0.0, 10.001875, 9.9985895 
2.7505746e+3, 2.7135324e+2, -151286.52, -386723.25, 95576.33, -0.0795596, 0.17908403, -117372.266, 163375.81, 0.0, 10.001902, 9.998674 
2.7502167e+3, 2.813465e+2, -165783.94, -413960.2, 110963.62, -0.2318849, 0.29375312, -123406.484, 59412.81, 0.0, 10.001326, 9.9981575 
2.7498606e+3, 2.9133654e+2, -200591.66, -241094.2, -15297.701, -0.070164055, 0.034459114, -195463.14, -110547.805, 0.0, 9.999971, 9.999253 
2.749502e+3, 3.0132854e+2, -248068.16, -265652.78, -87697.555, -0.10375294, -0.046766233, -168723.28, -168723.28, 0.0, 9.999027, 9.998978 
2.74914e+3, 3.113271e+2, 117493.11, 91318.17, -187968.97, -0.50204635, 0.40330738, 292829.66, 292829.66, 0.0, 10.0005865, 10.000294 
2.748791e+3, 3.2131788e+2, 25413.965, 35446.99, 171483.89, 0.08257544, 0.12261716, 201987.73, 201987.73, 0.0, 9.999815, 10.0003 
2.7655572e+3, 1.3180946e+2, -1200717.9, -1498023.9, -837.9018, 0.045853022, -0.023364166, -1200715.5, 447576.16, 0.005822727, 10.00366, 9.999587 
2.7651995e+3, 1.4180693e+2, -1237744.5, -1741369.9, 64179.242, -0.005356916, 0.4280894, -1229694.5, 320623.1, 0.002969682, 10.003844, 9.997276 
2.7648443e+3, 1.5179853e+2, -1228405.0, -1590996.3, 167827.42, -0.18563507, 0.41797733, -1162649.8, 289757.4, 0.0010279784, 10.0029745, 9.997955 
2.7644897e+3, 1.6178988e+2, -1215168.1, -1545213.4, 75938.445, -0.2696859, 0.3806038, -1198534.1, 155961.66, 0.0002033788, 10.002259, 9.99804 
2.764133e+3, 1.7178103e+2, -912401.2, -1180856.0, 29363.188, -0.2268545, 0.19259049, -909227.06, 347346.38, 0.000016580547, 10.003063, 9.999396 
2.763777e+3, 1.8177304e+2, -932202.25, -1257062.9, 105829.44, -0.22402288, 0.11298631, -900768.0, 257876.89, 0.00000009587778, 10.002696, 9.998441 
2.7634224e+3, 1.9176707e+2, -1076246.9, -1165970.3, 122401.81, -0.36336955, 0.21046323, -990744.56, 69962.87, 0.0, 10.000676, 9.999283 
2.763067e+3, 2.0176078e+2, -1213165.8, -1224231.6, -29962.287, -0.4278478, 0.28800428, -1188229.9, -225460.55, 0.0, 9.999114, 9.999066 
2.7627093e+3, 2.1175246e+2, -782683.5, -788092.56, -94101.47, -0.28067636, 0.039219607, -691247.7, 173589.94, 0.0, 10.000746, 10.00051 
2.762352e+3, 2.2174424e+2, -811507.06, -1064583.6, -4301.8013, -0.11149659, -0.12012671, -811433.94, -44525.99, 0.0, 10.001185, 9.99778 
2.7619955e+3, 2.317363e+2, -639104.75, -902973.44, -14758.906, -0.021573419, -0.095286004, -638281.8, 30705.242, 0.0, 10.001691, 9.997887 
2.7616394e+3, 2.4172887e+2, -700277.94, -941397.25, -29281.926, 0.06945276, 0.0118097635, -696772.9, -125710.56, 0.0, 10.000713, 9.997508 
2.7612835e+3, 2.517222e+2, -636050.2, -671265.25, -29197.828, 0.10723969, 0.056010764, -619561.7, -146430.23, 0.0, 9.999775, 9.999042 
2.760927e+3, 2.6171637e+2, -686707.5, -630264.5, 12113.656, 0.10724927, 0.171755, -627774.56, -252583.38, 0.0, 9.998605, 9.999318 
2.76057e+3, 2.717126e+2, -375928.94, -208237.27, 43637.063, -0.039954457, 0.32068038, -197561.58, 79664.44, 0.0, 9.999265, 10.001125 
2.7602124e+3, 2.8170675e+2, -589145.44, -702047.4, 738.83105, -0.118347466, 0.37687773, -589140.6, -409858.97, 0.0, 9.998875, 9.997357 
2.7598548e+3, 2.9169315e+2, -447986.0, -587218.0, -73217.18, 0.016291102, -0.0966891, -416571.6, -335157.9, 0.0, 9.999282, 9.997207 
2.7594945e+3, 3.0168226e+2, -478041.03, -622985.7, -25615.135, -0.12052843, -0.25326753, -473647.4, -473647.4, 0.0, 9.998628, 9.996693 
2.7591303e+3, 3.116808e+2, -202208.08, -273290.1, -40541.777, -0.87281764, 0.3773794, -183834.34, -183834.34, 0.0, 9.99942, 9.998298 
2.7587855e+3, 3.2167053e+2, -250200.86, 187763.84, 133644.9, 0.16619554, 0.031819392, 225324.34, 225324.34, 0.0, 9.996957, 10.002642 
2.775558e+3, 1.3216999e+2, -1427779.9, -1769663.8, -34158.723, 0.30517337, 0.29797247, -1424400.4, 220369.53, 0.0036892197, 10.002933, 9.997991 
2.7751958e+3, 1.4216734e+2, -1349593.5, -1807932.6, 69549.914, -0.16897948, 0.8100868, -1339272.1, 207524.56, 0.0018042208, 10.003212, 9.997083 
2.7748394e+3, 1.5215628e+2, -1227358.3, -1511123.3, 161168.19, -0.38012314, 0.46551248, -1154518.0, 294386.9, 0.00058557204, 10.002684, 9.998611 
2.7744845e+3, 1.6214585e+2, -1228860.6, -1540446.3, 101565.95, -0.43330568, 0.20399852, -1198677.5, 152327.66, 0.00010501939, 10.002127, 9.998129 
2.7741307e+3, 1.7213818e+2, -903160.3, -1181658.5, 97726.97, -0.20979357, 0.13618751, -872289.25, 380783.06, 0.0000068884756, 10.003149, 9.99935 
2.7737758e+3, 1.82131e+2, -956547.8, -1338532.3, 59827.9, -0.10152513, 0.1731795, -947396.56, 207741.36, 0.00000000965895, 10.0028515, 9.997793 
2.7734178e+3, 1.921239e+2, -1200942.3, -1336412.9, 41424.883, -0.23330612, 0.2543576, -1189279.1, -132065.83, 0.0, 10.000281, 9.998314 
2.7730605e+3, 2.0211698e+2, -1267992.4, -1206649.0, -28717.768, -0.33685085, 0.32055926, -1195303.3, -236020.67, 0.0, 9.99856, 9.999432 
2.7727044e+3, 2.1210994e+2, -736969.44, -712582.25, -22204.969, -0.2137084, 0.15878268, -699443.1, 161896.08, 0.0, 10.000848, 10.00097 
2.7723482e+3, 2.2210251e+2, -581826.0, -982737.3, -6505.199, -0.13560125, 0.068424255, -581720.5, 181682.58, 0.0, 10.002833, 9.997565 
2.7719912e+3, 2.3209362e+2, -426512.5, -893218.25, -18020.734, -0.15144345, 0.08244252, -425817.72, 239674.83, 0.0, 10.003483, 9.99714 
2.771634e+3, 2.4208534e+2, -301739.2, -650467.25, -113467.18, -0.16467926, 0.12569922, -268070.5, 299505.22, 0.0, 10.002983, 9.998407 
2.771275e+3, 2.5207826e+2, -543487.56, -558629.2, -112000.5, -0.11528214, 0.0744968, -438802.28, 30842.613, 0.0, 10.000063, 9.999711 
2.7709174e+3, 2.6207206e+2, -730298.25, -553102.8, 18111.287, -0.049983215, 0.091632776, -551270.56, -179565.36, 0.0, 9.997795, 10.0002575 
2.770563e+3, 2.7206764e+2, -504074.75, -237967.08, 48688.85, 0.056856345, 0.1486423, -229338.42, 44406.527, 0.0, 9.9981575, 10.001501 
2.7702072e+3, 2.8206193e+2, -534178.5, -568501.8, -6654.0615, 0.09831256, 0.16997078, -532933.7, -357136.16, 0.0, 9.998676, 9.998383 
2.7698475e+3, 2.9205146e+2, -304349.63, -458674.44, -19591.828, -0.044442985, -0.053611323, -301901.25, -224004.06, 0.0, 9.999831, 9.997892 
2.7694866e+3, 3.0204177e+2, -167567.4, -373245.1, 60206.87, -0.28970116, -0.15825804, -151239.58, -151239.58, 0.0, 10.000192, 9.997668 
2.7691266e+3, 3.1203538e+2, -259588.08, -244460.98, 100467.34, -0.53391886, -0.059875295, -151272.89, -151272.89, 0.0, 9.998689, 9.998864 
2.768774e+3, 3.2203e+2, -514003.9, -8801.886, 40331.965, 0.055447903, 0.10480377, -5602.314, -5602.314, 0.0, 9.995285, 10.002109 
2.785554e+3, 1.3252898e+2, -1054574.5, -1447809.9, -172151.61, 0.14396697, 0.54181373, -989859.7, 651399.4, 0.002170954, 10.004781, 9.999351 
2.7851927e+3, 1.4252326e+2, -1497907.1, -1790709.0, 102839.75, -0.10240671, 0.6593275, -1465396.9, 77912.73, 0.0010072378, 10.001656, 9.998019 
2.7848366e+3, 1.5251322e+2, -1153612.5, -1429947.8, 192733.94, -0.30172566, 0.36347157, -1054637.4, 390767.6, 0.00030058212, 10.0028515, 9.999167 
2.784482e+3, 1.6250372e+2, -1053969.1, -1454037.4, 127633.92, -0.32610714, 0.16883928, -1016718.44, 330776.63, 0.000046417692, 10.0033045, 9.998168 
2.784128e+3, 1.7249693e+2, -986437.44, -1262319.4, 82488.016, -0.14903806, 0.2140839, -963655.1, 285903.1, 0.0000020738605, 10.00275, 9.999001 
2.7837723e+3, 1.8248993e+2, -1080500.0, -1427282.5, 21424.953, -0.030707901, 0.30643398, -1079181.4, 72443.49, 0.00000000000031198744, 10.002119, 9.997535 
2.7834138e+3, 1.924817e+2, -917842.6, -1210406.0, 31941.725, -0.12730734, 0.27774075, -914395.9, 139312.92, 0.0, 10.002309, 9.998175 
2.783056e+3, 2.0247424e+2, -834305.1, -1040325.1, 98962.73, -0.17721039, 0.32131574, -794470.2, 161312.19, 0.0, 10.001771, 9.999017 
2.7827004e+3, 2.1246788e+2, -630645.25, -701617.06, 52929.066, -0.11644869, 0.26087674, -602407.25, 255429.02, 0.0, 10.001787, 10.0005865 
2.7823445e+3, 2.2246082e+2, -884548.9, -1158371.4, 26416.162, -0.080814146, 0.24982779, -882023.75, -122124.96, 0.0, 10.000915, 9.997272 
2.7819866e+3, 2.3245141e+2, -888201.0, -1096304.6, 78777.914, -0.2180219, 0.18767324, -861743.25, -199752.05, 0.0, 10.000261, 9.997269 
2.781628e+3, 2.4244267e+2, -857765.56, -912888.8, -17361.127, -0.29222116, 0.18326296, -852753.4, -288676.1, 0.0, 9.999225, 9.998409 
2.7812675e+3, 2.524352e+2, -574112.4, -528220.3, -108703.49, -0.23017986, 0.063961804, -440067.44, 26080.977, 0.0, 9.9997635, 10.000038 
2.780909e+3, 2.6242843e+2, -612344.75, -526567.0, 45245.52, -0.09462875, 0.03199124, -507113.2, -138901.23, 0.0, 9.99888, 9.999867 
2.780556e+3, 2.7242288e+2, -508523.06, -260378.8, 47567.957, 0.15698487, -0.021072097, -251572.77, 18690.377, 0.0, 9.998305, 10.001231 
2.780201e+3, 2.824172e+2, -702485.7, -599348.56, -12791.723, 0.25700358, 0.0069326074, -597785.75, -425470.9, 0.0, 9.99743, 9.998742 
2.77984e+3, 2.924103e+2, -430751.66, -376239.0, -10526.97, -0.12396491, 0.010037294, -374276.75, -299899.38, 0.0, 9.998496, 9.999025 
2.7794787e+3, 3.0240226e+2, -395616.6, -385228.44, 5983.4224, -0.43048805, -0.032370694, -382499.16, -382499.16, 0.0, 9.998365, 9.998426 
2.7791232e+3, 3.123906e+2, -405568.28, -181455.8, 14998.583, -0.07193443, -0.60122573, -180456.48, -180456.48, 0.0, 9.997239, 9.99996 
2.77876e+3, 3.22393e+2, -578236.1, -229818.8, -202037.73, -0.2860686, 0.34917644, -137254.33, -137254.33, 0.0, 9.995839, 10.000314 
2.795547e+3, 1.3288614e+2, -960612.25, -996630.2, -350582.06, -0.4279584, 0.688423, -627576.94, 1010184.44, 0.0011673695, 10.003784, 10.0028925 
2.79519e+3, 1.4287569e+2, -1537272.5, -1720854.8, 126933.83, 0.04343342, 0.08560639, -1472418.1, 67429.02, 0.00050489604, 10.00108, 9.998745 
2.7948362e+3, 1.5286991e+2, -1174888.8, -1376199.5, 277260.56, -0.032734305, 0.15710035, -980578.2, 461323.72, 0.00013439951, 10.002498, 9.999675 
2.7944818e+3, 1.6286394e+2, -1128532.3, -1548810.0, 123988.43, -0.08241417, 0.3120961, -1094680.4, 249281.0, 0.000016423304, 10.00308, 9.997613 
2.794124e+3, 1.728574e+2, -1073936.0, -1394972.1, 83961.06, -0.19048178, 0.46518305, -1053303.5, 192727.38, 0.0000003300107, 10.002559, 9.998172 
2.7937666e+3, 1.8285014e+2, -1012245.4, -1279314.8, 40484.785, -0.2728096, 0.5469434, -1006243.25, 141860.08, 0.0, 10.002075, 9.998577 
2.7934095e+3, 1.9284062e+2, -742834.6, -967487.2, 97341.68, -0.2035027, 0.26048487, -706525.1, 343665.03, 0.0, 10.002805, 9.999626 
2.793053e+3, 2.0283237e+2, -723695.06, -1066686.4, 111722.914, -0.15138584, 0.17549273, -690513.5, 261753.53, 0.0, 10.0028925, 9.998278 
2.7926967e+3, 2.12826e+2, -685689.44, -926716.94, 69761.96, -0.09220455, 0.29137066, -666954.1, 187375.6, 0.0, 10.002267, 9.9988165 
2.7923396e+3, 2.2281909e+2, -686336.44, -847736.06, 1804.8695, -0.097365305, 0.340251, -686316.25, 70077.74, 0.0, 10.00128, 9.999234 
2.79198e+3, 2.3281048e+2, -795893.8, -751962.25, 95813.84, -0.23091124, 0.1040125, -675628.56, -17160.652, 0.0, 9.999518, 10.000013 
2.791621e+3, 2.4280241e+2, -913321.9, -940463.44, 98263.84, -0.2598149, 0.01008746, -827696.2, -267154.47, 0.0, 9.998774, 9.998453 
2.7912635e+3, 2.5279495e+2, -526203.8, -652459.0, 37777.12, -0.019808063, 0.028495494, -515763.72, -53144.676, 0.0, 10.000617, 9.998835 
2.7909058e+3, 2.6278803e+2, -343857.03, -521505.72, 63182.96, 0.1179723, 0.102090515, -323677.47, 41013.17, 0.0, 10.001164, 9.998811 
2.7905482e+3, 2.7278185e+2, -474866.7, -442227.94, 3688.0793, 0.06475988, 0.16465822, -441816.4, -175062.75, 0.0, 9.999286, 9.999545 
2.7901906e+3, 2.8277567e+2, -572895.75, -448015.9, -23593.367, 0.03694517, 0.22340654, -443707.1, -274893.72, 0.0, 9.997896, 9.999542 
2.7898327e+3, 2.927688e+2, -387792.53, -229302.34, -5319.1914, -0.06169804, 0.14259788, -229124.02, -158251.14, 0.0, 9.998195, 10.000185 
2.7894732e+3, 3.027613e+2, -295133.8, -154269.75, -36125.43, -0.18988048, 0.012872604, -145545.48, -145545.48, 0.0, 9.998121, 10.000164 
2.7891156e+3, 3.1275186e+2, -280277.2, 1929.6367, -43651.098, 0.07235617, -0.440206, 8527.244, 8527.244, 0.0, 9.997379, 10.0012455 
2.788753e+3, 3.227508e+2, 33995.99, -16306.759, 46525.88, -0.23120147, 0.1332304, 61733.64, 61733.64, 0.0, 10.000179, 9.999757 
2.8055444e+3, 1.3324027e+2, -1340450.1, -1313156.3, -288457.0, -0.28637415, 0.31528166, -1038023.5, 596264.56, 0.0005664125, 10.001594, 10.001823 
2.805186e+3, 1.4323403e+2, -1181447.8, -1542919.9, 57033.77, 0.053127423, 0.20058753, -1172662.4, 363675.8, 0.00022570654, 10.0034685, 9.998808 
2.8048337e+3, 1.5322809e+2, -964251.1, -1252743.0, 174826.6, 0.015963906, 0.22666156, -881844.9, 556546.94, 0.00005282333, 10.003817, 9.999887 
2.80448e+3, 1.6322212e+2, -1101944.1, -1540739.5, -6150.0137, 0.015903769, 0.36241874, -1101858.0, 238592.56, 0.000004777361, 10.003298, 9.997524 
2.8041205e+3, 1.7321524e+2, -1173185.8, -1472045.5, -22476.273, -0.14756541, 0.48328105, -1171504.9, 71021.57, 0.00000002399446, 10.001978, 9.997904 
2.8037623e+3, 1.8320806e+2, -1114070.4, -1232959.5, 32162.107, -0.25198552, 0.5483439, -1105927.6, 38671.3, 0.0, 10.001006, 9.999402 
2.8034058e+3, 1.9319952e+2, -869433.9, -907557.06, 47623.242, -0.17856906, 0.24512364, -837199.1, 209472.94, 0.0, 10.001435, 10.000698 
2.8030497e+3, 2.0319149e+2, -986354.5, -1271057.8, 71660.08, -0.08778948, 0.14577484, -969335.0, -20590.387, 0.0, 10.001395, 9.997621 
2.8026927e+3, 2.1318454e+2, -889185.06, -1124521.5, 93543.8, -0.041244518, 0.27493036, -856532.8, -5715.6284, 0.0, 10.001269, 9.997951 
2.8023347e+3, 2.231776e+2, -696820.3, -726585.5, 61085.38, -0.040321972, 0.33604056, -648830.7, 104052.29, 0.0, 10.000788, 10.00027 
2.8019744e+3, 2.3316972e+2, -424791.94, -374251.94, -5379.8813, -0.15380366, 0.0034802656, -373685.63, 281257.9, 0.0, 10.001315, 10.00172 
2.8016156e+3, 2.431623e+2, -670529.3, -883878.0, 20567.871, -0.118709184, -0.10353273, -668564.56, -111556.66, 0.0, 10.00078, 9.997859 
2.8012598e+3, 2.531553e+2, -642917.75, -788361.7, 35163.203, 0.19835402, 0.007628596, -634862.6, -175777.1, 0.0, 10.000248, 9.998037 
2.8009018e+3, 2.6314855e+2, -718146.75, -879183.0, 65699.94, 0.2938905, 0.21297744, -694743.5, -333583.22, 0.0, 9.999423, 9.997197 
2.80054e+3, 2.731416e+2, -536854.3, -640698.94, 33696.055, -0.05560104, 0.33330753, -526878.7, -263643.4, 0.0, 9.999625, 9.998018 
2.8001803e+3, 2.8313482e+2, -489862.8, -409772.13, 68488.73, -0.19405097, 0.44173843, -370480.63, -205177.17, 0.0, 9.99857, 9.999463 
2.7998254e+3, 2.9312736e+2, -460962.2, -176147.5, 42202.098, 0.020815, 0.22153622, -170025.83, -102657.64, 0.0, 9.997412, 10.000905 
2.799467e+3, 3.0312052e+2, -493878.84, -155352.13, -60769.547, 0.049142074, 0.089240596, -144773.83, -144773.83, 0.0, 9.996512, 10.00087 
2.7991068e+3, 3.131145e+2, -238119.11, 147245.6, -99612.51, 0.06842459, -0.14047804, 171471.38, 171471.38, 0.0, 9.997299, 10.002197 
2.798748e+3, 3.2310572e+2, -180652.48, -128096.35, 370688.4, -0.17227668, -0.40681392, 217244.25, 217244.25, 0.0, 9.999066, 9.9994 
2.8155443e+3, 1.3359363e+2, -1777275.9, -2040797.8, -208807.17, 0.12634492, -0.19267172, -1662133.1, -31312.781, 0.00024939072, 10.000947, 9.997095 
2.8151804e+3, 1.4359753e+2, -1282103.5, -1632193.5, 102043.51, -0.2699405, 0.97345996, -1254531.5, 278257.6, 0.00009135431, 10.003036, 9.998379 
2.8148288e+3, 1.5358739e+2, -1000304.1, -1238580.3, 215980.97, -0.2987897, 0.5479925, -872781.2, 562097.1, 0.000018191195, 10.003475, 10.000144 
2.814475e+3, 1.6357774e+2, -1093720.6, -1461410.0, -59826.715, -0.21613851, 0.28344688, -1084231.1, 252736.72, 0.000001253609, 10.003056, 9.998184 
2.814117e+3, 1.7356914e+2, -1151839.3, -1375303.6, -42025.94, -0.08286144, 0.16363707, -1144197.0, 94858.37, 0.0000000065346386, 10.001772, 9.998669 
2.813759e+3, 1.8356256e+2, -1096865.3, -1136672.9, 30358.97, -0.07265824, 0.21936181, -1080467.1, 60653.05, 0.0, 10.000799, 10.00013 
2.8134012e+3, 1.9355816e+2, -874948.0, -867222.4, 79610.83, -0.17631231, 0.29480436, -791380.7, 251777.17, 0.0, 10.001227, 10.001068 
2.8130442e+3, 2.0355238e+2, -865802.7, -1034051.9, 67004.805, -0.19667056, 0.33998963, -842379.2, 102830.57, 0.0, 10.00144, 9.999216 
2.8126872e+3, 2.1354425e+2, -752851.1, -878570.75, 145186.2, -0.1139864, 0.19386545, -657500.94, 189786.27, 0.0, 10.001379, 9.999602 
2.81233e+3, 2.235364e+2, -630904.9, -812905.6, 129448.22, -0.05852374, 0.12115813, -563671.5, 185688.66, 0.0, 10.001715, 9.999235 
2.8119725e+3, 2.3352835e+2, -295523.56, -528500.06, 46565.996, -0.01660178, -0.030969758, -286561.03, 364870.0, 0.0, 10.003066, 9.9998455 
2.8116134e+3, 2.4352145e+2, -249481.4, -565194.9, -75112.984, 0.019676156, -0.020126143, -232521.94, 320973.13, 0.0, 10.003111, 9.998925 
2.811253e+3, 2.5351623e+2, -456543.1, -559041.6, -38804.875, 0.0876583, 0.14936528, -443509.34, 12042.903, 0.0, 10.000855, 9.999342 
2.8108934e+3, 2.6351005e+2, -560000.44, -672040.2, 118024.34, 0.06083044, 0.28702536, -485375.88, -127758.65, 0.0, 9.999839, 9.998453 
2.8105333e+3, 2.735017e+2, -259611.7, -432811.6, 163183.73, -0.15841763, 0.21170007, -161472.69, 98228.016, 0.0, 10.001074, 9.998816 
2.810174e+3, 2.8349403e+2, -196933.8, -312450.47, 113893.97, -0.2309179, 0.20635203, -126989.89, 34786.074, 0.0, 10.000642, 9.999173 
2.809816e+3, 2.934868e+2, -477962.22, -313582.94, 34408.46, -0.055275586, 0.1457786, -306671.06, -242828.81, 0.0, 9.997714, 9.999884 
2.8094563e+3, 3.0347994e+2, -504164.97, -234989.6, 29543.473, -0.07576025, 0.10561958, -231785.19, -231785.19, 0.0, 9.996685, 10.000249 
2.8090966e+3, 3.1347346e+2, 14244.948, 153419.1, -39062.945, -0.15723214, -0.053866588, 163633.48, 163633.48, 0.0, 9.999422, 10.001264 
2.8087413e+3, 3.2346573e+2, -103800.74, -110728.72, 269711.13, -0.21166965, -0.15245551, 162468.63, 162468.63, 0.0, 9.999442, 9.999422 
2.8255388e+3, 1.3395455e+2, -1353310.6, -1859540.0, 26715.203, -0.016340207, 0.040418163, -1351904.8, 275378.8, 0.00010698354, 10.003912, 9.996928 
2.8251812e+3, 1.4395513e+2, -688465.2, -1360549.3, 210793.27, -0.09779526, 0.9444101, -627823.4, 901461.3, 0.000035101017, 10.00717, 9.998256 
2.8248256e+3, 1.5394455e+2, -1171962.6, -1373585.9, 198518.55, -0.26137376, 0.536496, -1050125.3, 381256.22, 0.0000055355054, 10.002543, 9.999667 
2.8244704e+3, 1.6393493e+2, -1449798.3, -1519111.9, -27530.688, -0.21385202, 0.26801467, -1440194.1, -106723.85, 0.0000002527922, 10.000147, 9.9992 
2.8241128e+3, 1.7392682e+2, -1207047.8, -1274691.3, -2018.5194, -0.013540965, 0.09415768, -1206987.5, 28560.64, 0.0, 10.000903, 9.999795 
2.8237545e+3, 1.839207e+2, -1069682.3, -1130934.0, 114960.04, 0.04697211, 0.1438121, -981338.56, 156267.95, 0.0, 10.000969, 10.000114 
2.8233966e+3, 1.939171e+2, -990872.3, -966398.5, 93107.125, -0.094336905, 0.32048413, -884727.56, 154912.23, 0.0, 10.000548, 10.000754 
2.8230393e+3, 2.0391198e+2, -966378.0, -987697.4, 57599.19, -0.14819182, 0.41676632, -918460.44, 23226.21, 0.0, 10.000439, 9.999966 
2.8226823e+3, 2.1390367e+2, -667343.9, -719358.44, 40163.117, -0.11447419, 0.13262129, -645502.94, 198259.53, 0.0, 10.001552, 10.000566 
2.8223258e+3, 2.2389579e+2, -729377.6, -982166.06, 55912.566, -0.037687708, 0.042288683, -717562.9, 28273.025, 0.0, 10.0016165, 9.998098 
2.8219697e+3, 2.3388788e+2, -717836.1, -866410.3, 59824.445, 0.11696277, 0.0028687716, -696742.25, -48830.12, 0.0, 10.000822, 9.998569 
2.8216103e+3, 2.4388145e+2, -657837.8, -701360.8, -89541.7, 0.12430146, 0.119000696, -587451.2, -37476.434, 0.0, 10.00015, 9.999394 
2.8212458e+3, 2.5387678e+2, -522397.47, -482182.56, -132994.81, -0.050994065, 0.23581025, -367783.78, 84238.64, 0.0, 10.000001, 10.000266 
2.8208846e+3, 2.6387072e+2, -562741.2, -602741.0, 86436.26, -0.16389666, 0.31502372, -494021.2, -139939.84, 0.0, 9.999653, 9.998964 
2.8205276e+3, 2.738616e+2, -350154.56, -371913.38, 108578.336, -0.20165652, 0.040337592, -251911.95, 4255.699, 0.0, 10.00013, 9.999626 
2.820168e+3, 2.8385356e+2, -406671.94, -534156.9, -59467.332, -0.2314555, 0.0029898898, -383239.5, -224995.05, 0.0, 9.99986, 9.997984 
2.8198063e+3, 2.938466e+2, -352606.9, -375697.44, -120632.58, -0.18468188, 0.052162424, -242968.38, -182655.73, 0.0, 9.999211, 9.9986925 
2.819445e+3, 3.0383945e+2, -367906.13, -345708.97, 59177.37, -0.29374668, 0.12143689, -296598.4, -296598.4, 0.0, 9.99848, 9.998604 
2.8190875e+3, 3.138315e+2, -197750.06, -101599.734, 20201.86, -0.3991458, -0.06985912, -97527.64, -97527.64, 0.0, 9.998716, 9.99982 
2.8187338e+3, 3.2382745e+2, -366766.88, -145151.33, 160876.06, -0.31067762, 0.23224218, -60614.61, -60614.61, 0.0, 9.997473, 10.000049 
2.8355312e+3, 1.3431981e+2, -1187367.3, -1396739.4, 333817.25, -0.6040781, 0.7350048, -942206.0, 681499.5, 0.00005052783, 10.003491, 10.000275 
2.8351873e+3, 1.443073e+2, -870474.2, -1541484.8, 76315.56, 0.3846944, 0.18129082, -861904.1, 663917.4, 0.000015386415, 10.006391, 9.997352 
2.8348246e+3, 1.5430006e+2, -1372472.3, -1626979.5, 55647.477, -0.008237217, 0.2289884, -1360837.0, 67060.1, 0.0000020566958, 10.001893, 9.998216 
2.834465e+3, 1.642942e+2, -1425061.9, -1348795.6, -10948.836, -0.1713083, 0.3540703, -1347254.9, -17300.977, 0.00000005936716, 9.999662, 10.000581 
2.834106e+3, 1.7428954e+2, -1130375.3, -1083165.6, 72613.18, -0.14406578, 0.37379208, -1030416.9, 201576.33, 0.0, 10.000752, 10.00118 
2.8337485e+3, 1.8428352e+2, -1102752.9, -1223139.1, 111778.086, -0.09393388, 0.39342493, -1035991.06, 98056.555, 0.0, 10.001046, 9.999457 
2.833392e+3, 1.9427557e+2, -1076098.5, -1121279.5, 108951.85, -0.0011427515, 0.23701124, -987419.8, 48703.83, 0.0, 10.000432, 9.999758 
2.8330353e+3, 2.0426881e+2, -969143.06, -1028388.2, 103444.37, 0.000060104758, 0.24100646, -891163.44, 47025.62, 0.0, 10.000593, 9.999611 
2.8326783e+3, 2.1426241e+2, -621897.44, -771452.94, 102673.11, -0.13645297, 0.22074476, -569657.56, 270594.3, 0.0, 10.002152, 9.99994 
2.832321e+3, 2.2425619e+2, -518825.53, -716566.44, -20320.746, -0.13874283, 0.26641035, -516758.88, 225553.19, 0.0, 10.002323, 9.999589 
2.8319633e+3, 2.3424985e+2, -676761.75, -712428.56, 29715.23, 0.042484246, 0.26201725, -659939.4, -15566.124, 0.0, 10.000458, 9.999835 
2.8316027e+3, 2.4424295e+2, -726613.0, -749967.25, -54337.41, 0.029431466, 0.26943013, -682712.1, -136273.17, 0.0, 9.999684, 9.999301 
2.8312382e+3, 2.5423506e+2, -490220.06, -550516.25, -91391.38, -0.20696688, 0.14779383, -424132.56, 24381.16, 0.0, 10.000488, 9.9996 
2.830878e+3, 2.6422766e+2, -389895.5, -508983.88, 69320.41, -0.2588878, 0.11941443, -358056.84, -7473.2153, 0.0, 10.000735, 9.999098 
2.8305227e+3, 2.7422002e+2, -332850.63, -397616.25, 50824.47, -0.0984851, 0.037617654, -304969.25, -52313.805, 0.0, 10.000344, 9.999367 
2.8301635e+3, 2.842129e+2, -245144.84, -416968.03, -88429.91, -0.110107064, 0.07628551, -207765.52, -53040.355, 0.0, 10.000721, 9.998394 
2.8298e+3, 2.94206e+2, 111945.71, -174344.45, -118315.39, -0.35108662, 0.14543149, 154512.89, 211308.4, 0.0, 10.002391, 9.998582 
2.829439e+3, 3.041984e+2, 145837.11, -178130.5, -8798.677, -0.41186816, 0.20371245, 146075.9, 146075.9, 0.0, 10.002225, 9.99799 
2.8290847e+3, 3.141899e+2, -135615.2, -238116.6, -66013.414, 0.00593403, 0.09048318, -103293.14, -103293.14, 0.0, 9.999698, 9.998471 
2.828726e+3, 3.2418355e+2, -332513.9, -86217.85, 45365.867, -0.2207338, 0.22167316, -78127.555, -78127.555, 0.0, 9.997302, 10.000631 
2.845533e+3, 1.3467984e+2, -864289.56, -1328269.1, 401747.9, -0.33271384, 0.6756857, -632360.6, 987810.1, 0.000026717622, 10.005872, 9.999707 
2.845186e+3, 1.4466515e+2, -1563271.6, -1843616.5, 26406.887, 0.5185087, -0.05455357, -1560806.0, -38496.348, 0.000008259606, 10.001426, 9.997693 
2.8448212e+3, 1.5465967e+2, -1272769.9, -1586667.0, 77564.51, 0.088673815, 0.17481071, -1254649.6, 169722.17, 0.0000013335809, 10.002532, 9.998208 
2.8444603e+3, 1.6465496e+2, -900822.5, -1059626.4, 142853.58, -0.11355994, 0.40815836, -816786.94, 509632.06, 0.000000073245815, 10.003101, 10.000906 
2.8441018e+3, 1.7465053e+2, -716204.56, -871158.44, 94723.73, -0.14878403, 0.44747022, -671308.06, 557146.25, 0.0, 10.003531, 10.001305 
2.8437442e+3, 1.8464413e+2, -823107.75, -1124272.1, 72094.33, -0.1008588, 0.4359515, -806739.06, 323772.88, 0.0, 10.003157, 9.999099 
2.8433874e+3, 1.9463453e+2, -865526.6, -1080315.5, 75460.93, 0.0688832, 0.14356397, -841665.9, 190938.61, 0.0, 10.002159, 9.99919 
2.8430307e+3, 2.0462719e+2, -939619.4, -1042839.1, 187733.4, 0.09137714, 0.13721065, -796531.0, 138146.25, 0.0, 10.00092, 9.999362 
2.8426734e+3, 2.1462196e+2, -1024265.94, -1004374.94, 200758.55, -0.09368536, 0.25046405, -813315.7, 23416.354, 0.0, 9.999593, 9.999558 
2.8423157e+3, 2.2461691e+2, -936741.56, -833629.7, 40489.22, -0.12353601, 0.4120958, -819631.1, -80848.19, 0.0, 9.999126, 10.000336 
2.841957e+3, 2.3461159e+2, -736858.3, -658566.75, 8141.404, 0.03873616, 0.41515774, -657729.06, -16894.889, 0.0, 9.999706, 10.000583 
2.8415957e+3, 2.446042e+2, -704982.94, -812430.94, -13903.544, -0.023640571, 0.3752135, -703213.0, -160309.33, 0.0, 10.0002, 9.998629 
2.8412315e+3, 2.545938e+2, -505618.22, -640496.25, -47362.504, -0.30285951, 0.044968087, -490648.3, -45647.66, 0.0, 10.000817, 9.998816 
2.840872e+3, 2.6458564e+2, -448074.22, -574224.25, 101972.05, -0.30103794, 0.014212709, -391246.13, -44169.18, 0.0, 10.000622, 9.998654 
2.8405178e+3, 2.7457932e+2, -440455.94, -493403.63, 70978.18, 0.019031884, 0.06699947, -391175.13, -142037.66, 0.0, 9.999903, 9.998878 
2.8401586e+3, 2.8457275e+2, -458655.1, -529598.0, -4515.3755, -0.016477088, 0.20826697, -458368.84, -307165.9, 0.0, 9.999379, 9.998241 
2.839794e+3, 2.9456547e+2, -341712.3, -402264.2, -39761.195, -0.48299912, 0.21402939, -322012.4, -268733.4, 0.0, 9.999401, 9.998437 
2.8394336e+3, 3.0455777e+2, -340842.16, -493286.03, -24468.682, -0.4695908, 0.31572253, -337010.97, -337010.97, 0.0, 9.999396, 9.997127 
2.8390825e+3, 3.1454885e+2, -350359.1, -450231.8, -37391.7, 0.44484434, 0.22527133, -337911.3, -337911.3, 0.0, 9.998859, 9.997353 
2.8387162e+3, 3.2453844e+2, -392855.7, -29419.252, 116858.6, -0.34243447, -0.054782707, 4912.1597, 4912.1597, 0.0, 9.996794, 10.001137 
2.8555384e+3, 1.3503711e+2, -1288345.4, -1907913.4, 18419.984, 0.22558035, 0.24401316, -1287798.3, 328861.44, 0.000013313982, 10.004661, 9.996285 
2.8551778e+3, 1.450283e+2, -1539500.8, -1660824.9, 62213.2, 0.18035927, 0.2035534, -1513270.0, 5481.5957, 0.0000038169696, 10.000908, 9.999168 
2.854816e+3, 1.5502356e+2, -1235582.5, -1426438.0, 162236.53, -0.09385896, 0.35571894, -1142789.3, 278013.47, 0.0000005153316, 10.002203, 9.999455 
2.8544572e+3, 1.650172e+2, -975689.1, -1231076.6, 171094.42, -0.15509504, 0.42064318, -889890.5, 432974.6, 0.00000002542409, 10.003202, 9.999661 
2.8541e+3, 1.7500892e+2, -806804.56, -1087439.4, 150192.56, -0.10840656, 0.2198935, -741581.75, 483358.94, 0.0, 10.003679, 9.999736 
2.8537413e+3, 1.8500173e+2, -729250.3, -1014637.4, 46628.758, -0.11375193, 0.18926628, -721824.94, 405183.22, 0.0, 10.003537, 9.999656 
2.8533822e+3, 1.9499478e+2, -769532.5, -981757.9, 87639.734, -0.12579857, 0.12369865, -738020.25, 291055.28, 0.0, 10.002571, 9.999674 
2.853024e+3, 2.0498863e+2, -854401.25, -908497.5, 142812.5, -0.10767831, 0.1702547, -736098.06, 195038.28, 0.0, 10.001084, 10.000198 
2.8526667e+3, 2.1498282e+2, -1051534.5, -942332.8, 188611.75, -0.08234581, 0.16767564, -800577.75, 32617.295, 0.0, 9.999039, 10.000258 
2.8523093e+3, 2.2497736e+2, -1000786.7, -904722.4, 125951.836, -0.012833355, 0.27006733, -817954.9, -82705.766, 0.0, 9.998835, 9.999982 
2.8519514e+3, 2.3497164e+2, -677921.44, -695964.8, 107138.42, 0.08273007, 0.3147696, -579425.56, 57878.54, 0.0, 10.000313, 10.0000515 
2.8515905e+3, 2.4496455e+2, -501619.25, -687660.8, 24877.992, -0.013589374, 0.31507123, -498349.94, 41022.574, 0.0, 10.001397, 9.998937 
2.851227e+3, 2.5495556e+2, -310507.22, -529095.1, 32965.395, -0.31119972, 0.13479981, -305643.88, 135815.44, 0.0, 10.00198, 9.999059 
2.850867e+3, 2.6494816e+2, -285060.5, -480505.44, 120191.086, -0.3444404, 0.15785195, -227877.89, 115652.35, 0.0, 10.0016, 9.998858 
2.8505108e+3, 2.7494216e+2, -322908.2, -435013.06, 102958.51, -0.11641458, 0.28794459, -261732.92, -16145.193, 0.0, 10.000611, 9.998978 
2.8501514e+3, 2.8493476e+2, -468960.13, -541517.6, -3733.0935, -0.043609224, 0.33679968, -468768.56, -321106.28, 0.0, 9.99923, 9.998274 
2.8497884e+3, 2.9492557e+2, -634196.5, -559524.7, -32834.477, -0.1883519, 0.20551892, -547140.6, -497383.88, 0.0, 9.997379, 9.998369 
2.849427e+3, 3.049184e+2, -410592.75, -287066.47, 144409.13, -0.3542681, 0.25272688, -191766.94, -191766.94, 0.0, 9.997756, 9.999389 
2.8490698e+3, 3.1491265e+2, 43170.234, -41339.082, 220122.81, -0.19249435, 0.31914675, 225057.3, 225057.3, 0.0, 10.000485, 9.999446 
2.8487077e+3, 3.2490414e+2, -207581.25, -170097.75, 60022.227, -0.35739335, 0.24976979, -125959.3, -125959.3, 0.0, 9.998762, 9.999352 
2.8655365e+3, 1.35397e+2, -1242619.5, -1819077.6, -92793.58, 0.23590972, 0.13122922, -1228050.6, 385084.94, 0.0000059672334, 10.004591, 9.996963 
2.8651726e+3, 1.4539108e+2, -898136.7, -1276496.4, 74550.13, 0.020663131, 0.33739895, -883977.56, 631219.56, 0.0000015122073, 10.004962, 9.9998665 
2.8648123e+3, 1.5538612e+2, -1214923.8, -1360389.0, 93476.7, -0.06158024, 0.41480383, -1169216.8, 248031.7, 0.0000000966577, 10.002067, 9.999985 
2.864454e+3, 1.6537903e+2, -1325927.9, -1420011.4, 179529.84, -0.05162226, 0.38309956, -1187379.0, 131938.11, 0.00000000026919006, 10.000839, 9.999532 
2.8640965e+3, 1.7536978e+2, -1253082.6, -1339374.8, 226513.27, -0.054561384, 0.11183886, -1065642.9, 155760.67, 0.0, 10.0007305, 9.999448 
2.8637373e+3, 1.8536286e+2, -1141196.1, -1183545.1, 146886.72, -0.11450574, 0.12542059, -1013965.56, 109505.05, 0.0, 10.000661, 9.999862 
2.863377e+3, 1.953576e+2, -1071381.4, -1101457.1, 117854.43, -0.17628969, 0.21934682, -967609.25, 57914.707, 0.0, 10.000491, 9.999819 
2.8630182e+3, 2.0535173e+2, -917020.5, -958229.75, 138191.8, -0.12824419, 0.30265018, -797905.7, 129676.54, 0.0, 10.000707, 10.000063 
2.8626612e+3, 2.153448e+2, -803958.75, -855395.0, 87428.516, 0.023549737, 0.18882328, -738544.2, 91105.87, 0.0, 10.000826, 10.000033 
2.862304e+3, 2.2533838e+2, -770655.0, -848905.75, 109882.945, 0.09452575, 0.22749743, -693139.6, 38572.28, 0.0, 10.000702, 9.999426 
2.861946e+3, 2.3533192e+2, -707745.6, -780679.5, 87808.555, 0.11401707, 0.22213455, -649132.7, -15359.152, 0.0, 10.000527, 9.999308 
2.8615853e+3, 2.4532536e+2, -705678.9, -757287.9, 14893.327, -0.0028439434, 0.30516604, -701689.4, -165851.06, 0.0, 10.000032, 9.999015 
2.861222e+3, 2.5531784e+2, -746301.06, -751311.1, -4025.3337, -0.2472552, 0.2302128, -744064.94, -306151.1, 0.0, 9.999159, 9.998818 
2.8608617e+3, 2.653112e+2, -628041.9, -646170.25, 81066.81, -0.32866603, 0.34615844, -555534.1, -215555.45, 0.0, 9.999315, 9.998791 
2.8605035e+3, 2.75305e+2, -455309.06, -524004.78, 82379.24, -0.23699088, 0.4224341, -400403.8, -158366.05, 0.0, 9.999849, 9.998725 
2.860144e+3, 2.8529698e+2, -445003.47, -528225.94, -30430.158, -0.06904438, 0.4362021, -435063.84, -290945.53, 0.0, 9.999544, 9.998154 
2.8597826e+3, 2.9528645e+2, -524706.06, -528345.6, -37434.523, 0.13390458, 0.16087364, -489047.13, -442821.16, 0.0, 9.998345, 9.998077 
2.859419e+3, 3.0528006e+2, -271363.7, 32455.111, 251548.44, -0.29505783, 0.19968407, 174404.66, 174404.66, 0.0, 9.9977665, 10.001517 
2.8590548e+3, 3.1527764e+2, -311936.72, -17876.246, 260923.38, -1.0446717, 0.3457299, 134591.27, 134591.27, 0.0, 9.997355, 10.001056 
2.8587022e+3, 3.2527164e+2, -502816.94, -469627.34, -126293.62, -0.15237427, 0.49541906, -358842.94, -358842.94, 0.0, 9.997631, 9.997755 
2.8755307e+3, 1.3575913e+2, -1100309.3, -1324706.4, 28480.893, -0.22886981, 0.32318455, -1096750.9, 512846.63, 0.0000021514043, 10.0038185, 10.000695 
2.8751704e+3, 1.4575344e+2, -1004516.25, -1337775.9, -24848.664, -0.07873112, 0.38165775, -1002673.7, 508973.4, 0.00000043033984, 10.004317, 9.999736 
2.8748092e+3, 1.5574695e+2, -1338284.0, -1453765.5, 24352.45, 0.046953328, 0.32898033, -1333358.6, 80354.58, 0.000000019645139, 10.0013895, 9.999669 
2.8744498e+3, 1.6574082e+2, -1295357.3, -1229034.5, 171915.64, 0.062493097, 0.32828668, -1087111.1, 228660.7, 0.0, 10.000321, 10.001077 
2.8740898e+3, 1.7573473e+2, -1253134.1, -1207476.4, 260551.95, -0.16205378, 0.23739912, -968755.1, 249071.98, 0.0, 10.00016, 10.000631 
2.8737307e+3, 1.8572916e+2, -1225878.0, -1275210.9, 156802.84, -0.2128264, 0.35512125, -1091813.4, 28070.732, 0.0, 10.00027, 9.999427 
2.873372e+3, 1.9572349e+2, -1164112.0, -1230765.5, 173593.27, -0.10861249, 0.47331592, -1020675.3, 1271.5215, 0.0, 10.000168, 9.999112 
2.8730145e+3, 2.0571674e+2, -969066.06, -1105348.8, 184375.66, -0.019070588, 0.5637316, -840642.9, 83372.68, 0.0, 10.0009165, 9.998921 
2.872657e+3, 2.1570879e+2, -724413.8, -956010.2, 144059.13, 0.02884609, 0.4916478, -655381.6, 170711.23, 0.0, 10.001955, 9.998796 
2.8722984e+3, 2.2570106e+2, -537002.06, -699565.25, 84661.1, -0.026475698, 0.43815187, -500920.1, 227245.86, 0.0, 10.002108, 9.999786 
2.8719383e+3, 2.3569334e+2, -543371.6, -676369.3, 86277.73, -0.15347606, 0.29899025, -500939.56, 129298.39, 0.0, 10.001476, 9.999598 
2.8715777e+3, 2.4568649e+2, -679256.4, -758208.6, -39428.79, -0.15272154, 0.34391645, -662938.3, -130633.03, 0.0, 10.0001955, 9.998967 
2.871216e+3, 2.5567973e+2, -832555.44, -802911.1, -40774.59, -0.10573398, 0.39259857, -774348.2, -339973.2, 0.0, 9.998499, 9.998829 
2.870856e+3, 2.6567253e+2, -587648.9, -469877.0, 152328.63, -0.17947309, 0.36759692, -365448.63, -29005.88, 0.0, 9.99882, 10.000272 
2.8704968e+3, 2.756649e+2, -234395.58, -278112.47, 174636.53, -0.32469198, 0.20032392, -80254.86, 158255.73, 0.0, 10.000661, 10.000052 
2.8701365e+3, 2.8565863e+2, -122653.164, -261715.69, 18752.518, -0.25901335, 0.2760607, -120168.77, 20402.818, 0.0, 10.001214, 9.999197 
2.8697747e+3, 2.9565263e+2, -45692.547, -196969.81, 52442.59, -0.080616646, 0.3901067, -29290.818, 13344.259, 0.0, 10.001085, 9.999068 
2.8694117e+3, 3.0564603e+2, -94657.305, 55140.465, 220029.16, -0.2849666, 0.39098406, 212669.34, 212669.34, 0.0, 9.999144, 10.001044 
2.869049e+3, 3.156399e+2, -542208.94, -173516.13, 145280.61, -0.656279, 0.26379496, -123149.83, -123149.83, 0.0, 9.995833, 10.000767 
2.868697e+3, 3.2563275e+2, -83806.3, -45401.2, 94030.61, 0.10413959, 0.21472742, 31367.568, 31367.568, 0.0, 9.999362, 9.999887 
2.8855285e+3, 1.361233e+2, -1101947.0, -1278620.6, 96502.734, -0.19120589, 0.46501186, -1059455.0, 546578.0, 0.00000033823923, 10.003473, 10.001204 
2.885166e+3, 1.4611591e+2, -1450948.1, -1612286.1, -38131.395, -0.14199488, 0.37294918, -1442390.0, 65707.516, 0.000000039050374, 10.001441, 9.99926 
2.8848052e+3, 1.561084e+2, -1311688.0, -1502737.0, -29817.75, 0.14275008, 0.29456776, -1307142.4, 103031.016, 0.0000000006124831, 10.001783, 9.999173 
2.8844452e+3, 1.6610278e+2, -1085725.8, -1091325.6, 122889.83, 0.15858148, 0.34668353, -965604.0, 346623.47, 0.0, 10.001607, 10.001372 
2.8840846e+3, 1.760982e+2, -1099267.3, -1116290.6, 91002.21, -0.12590791, 0.35279903, -1016379.56, 197889.44, 0.0, 10.001122, 10.000778 
2.8837252e+3, 1.8609302e+2, -1074387.9, -1237042.5, 19694.277, -0.21036471, 0.5030959, -1072037.4, 44286.438, 0.0, 10.001496, 9.999099 
2.883367e+3, 1.9608706e+2, -907433.6, -1160796.1, 30352.389, -0.061490472, 0.60461706, -903848.2, 114543.03, 0.0, 10.002179, 9.99864 
2.8830096e+3, 2.0607972e+2, -860076.44, -1094552.3, 144213.73, 0.01791535, 0.6728726, -791458.7, 129005.734, 0.0, 10.001934, 9.998491 
2.8826526e+3, 2.1607114e+2, -903524.7, -1109933.0, 159856.83, 0.050018054, 0.5774197, -816451.9, 6093.2773, 0.0, 10.001117, 9.998122 
2.882293e+3, 2.2606316e+2, -773818.4, -799539.2, 105821.164, -0.08171836, 0.53405106, -680079.0, 44542.02, 0.0, 10.000497, 9.99987 
2.8819314e+3, 2.3605533e+2, -851067.75, -845561.5, 53498.98, -0.28577754, 0.37231585, -794744.9, -168049.31, 0.0, 9.99955, 9.999358 
2.8815705e+3, 2.4604848e+2, -750967.56, -781054.6, -38430.684, -0.1948242, 0.4301259, -724740.94, -195977.48, 0.0, 9.999694, 9.999062 
2.8812104e+3, 2.560419e+2, -682357.56, -737659.94, 1127.9081, 0.0905383, 0.48265153, -682334.56, -251503.55, 0.0, 9.99964, 9.998727 
2.88085e+3, 2.6603442e+2, -459965.4, -282500.5, 259249.13, -0.025312841, 0.38242465, -97219.164, 235679.78, 0.0, 9.999266, 10.0013075 
2.88049e+3, 2.7602574e+2, -548159.75, -357639.3, 212821.72, -0.35890234, -0.008961888, -219730.92, 15241.955, 0.0, 9.998305, 10.000616 
2.880129e+3, 2.8602117e+2, -414412.22, -308115.7, -66.44, -0.44241762, 0.16864327, -308115.66, -171100.38, 0.0, 9.998878, 9.99997 
2.8797662e+3, 2.9601893e+2, -301236.5, -292782.5, 7791.7856, -0.347708, 0.55407655, -288145.0, -249104.25, 0.0, 9.999309, 9.999241 
2.8794047e+3, 3.0601177e+2, -247928.13, -149865.42, 51795.258, -0.25614545, 0.55572426, -127574.805, -127574.805, 0.0, 9.998791, 9.999774 
2.8790453e+3, 3.1600133e+2, -594203.0, -381995.3, 38354.65, -0.021479895, 0.1081135, -375275.84, -375275.84, 0.0, 9.996393, 9.999051 
2.8786904e+3, 3.2599252e+2, -169380.78, 204854.63, 377335.6, 0.11177842, -0.24621512, 438920.0, 438920.0, 0.0, 9.997853, 10.002191 
2.8955284e+3, 1.3648893e+2, -1422689.6, -1635826.3, -142815.28, 0.0504056, 0.6324699, -1351064.1, 251386.19, 0.0000000028010363, 10.002233, 9.999327 
2.895159e+3, 1.4647828e+2, -1589269.1, -1765772.9, -22947.629, -0.32868162, 0.33906877, -1586334.5, -81784.05, 0.0, 10.000917, 9.998427 
2.8947997e+3, 1.5647057e+2, -1441397.1, -1659498.6, 15937.78, 0.03933319, 0.32027856, -1440238.6, -33610.08, 0.0, 10.001315, 9.998316 
2.8944406e+3, 1.6646446e+2, -1176280.1, -1248460.6, 106649.22, 0.12851004, 0.40809238, -1099780.1, 208909.14, 0.0, 10.001477, 10.000348 
2.8940806e+3, 1.76459e+2, -1178260.0, -1272604.0, 90603.84, -0.067056894, 0.4368905, -1123283.9, 87458.69, 0.0, 10.001083, 9.999725 
2.8937206e+3, 1.8645269e+2, -1020293.94, -1209595.8, 32361.953, -0.22600688, 0.5181418, -1014914.4, 97892.89, 0.0, 10.001828, 9.999136 
2.893361e+3, 1.9644575e+2, -812177.5, -1092465.5, 52876.133, -0.33437827, 0.53463066, -802534.25, 212345.61, 0.0, 10.00268, 9.998892 
2.8930032e+3, 2.0643766e+2, -671836.6, -819154.94, 84665.42, -0.24653119, 0.4141363, -633273.25, 283679.53, 0.0, 10.002393, 10.000167 
2.8926465e+3, 2.1642855e+2, -757308.94, -875407.7, 161426.17, -0.10416973, 0.11273552, -644471.06, 174558.67, 0.0, 10.00134, 9.999645 
2.8922868e+3, 2.264226e+2, -809710.7, -893223.5, 91131.6, -0.10060514, 0.23881556, -751224.56, -30134.875, 0.0, 10.000533, 9.999223 
2.891926e+3, 2.364182e+2, -834563.3, -860943.56, 58955.57, -0.20546454, 0.5023714, -787340.4, -164198.56, 0.0, 9.999671, 9.99922 
2.8915656e+3, 2.4641198e+2, -546704.7, -512785.7, 37458.62, -0.09287133, 0.53080255, -488626.16, 36577.45, 0.0, 10.0002775, 10.000655 
2.8912055e+3, 2.5640443e+2, -275464.5, -371132.78, 110588.15, 0.11192331, 0.3550637, -202808.63, 224465.55, 0.0, 10.00158, 10.000348 
2.8908446e+3, 2.6639825e+2, -317053.13, -260423.23, 236945.1, 0.031092798, 0.33711568, -50107.266, 279221.88, 0.0, 10.000402, 10.000926 
2.8904834e+3, 2.7639237e+2, -603253.44, -410599.16, 182839.27, -0.23434934, 0.298848, -300264.44, -68884.18, 0.0, 9.99796, 10.000434 
2.8901213e+3, 2.8638518e+2, -564512.9, -408082.88, 51148.64, -0.3743968, 0.23496425, -392843.22, -259397.0, 0.0, 9.997854, 9.999815 
2.8897583e+3, 2.9637754e+2, -306242.03, -293489.66, 35067.52, -0.43180063, 0.120692074, -264223.38, -228704.61, 0.0, 9.999155, 9.999338 
2.8893957e+3, 3.0637014e+2, -118802.29, -185930.69, 36926.87, -0.47199723, 0.12599662, -102465.09, -102465.09, 0.0, 10.000026, 9.998989 
2.889035e+3, 3.1636217e+2, -21240.291, -189218.03, 22671.87, -0.33240262, 0.060414396, -18234.08, -18234.08, 0.0, 10.0005665, 9.998442 
2.8886798e+3, 3.263575e+2, -248779.63, -133528.45, 148686.81, -0.19300255, 0.36124253, -31690.941, -31690.941, 0.0, 9.998346, 9.999802 
2.9055226e+3, 1.3685203e+2, -1607426.9, -1699432.4, -72727.836, -0.003295317, 0.53776014, -1567373.9, 31512.863, 0.00000000011876347, 10.000742, 9.999679 
2.9051566e+3, 1.4684078e+2, -1155160.5, -1520554.6, 89290.945, -0.14327753, 0.16625062, -1134507.9, 366485.56, 0.0, 10.003722, 9.9987955 
2.9047948e+3, 1.568349e+2, -1148619.6, -1511673.1, 188277.55, -0.050710708, 0.32005253, -1068611.8, 334442.38, 0.0, 10.00328, 9.9984 
2.9044357e+3, 1.6682811e+2, -1095480.6, -1374073.3, 268480.78, 0.034594577, 0.43819642, -932311.4, 372813.28, 0.0, 10.00276, 9.99887 
2.9040766e+3, 1.7682074e+2, -1158023.9, -1403737.3, 205789.44, 0.012653457, 0.43586424, -1041207.75, 165993.3, 0.0, 10.0018215, 9.998492 
2.9037163e+3, 1.8681371e+2, -1089456.4, -1219418.1, 203504.42, -0.17286636, 0.4974474, -940810.1, 168461.98, 0.0, 10.001243, 9.999338 
2.903356e+3, 1.968066e+2, -1085060.9, -1188214.5, 218115.98, -0.3741512, 0.47244322, -912506.56, 98836.37, 0.0, 10.000668, 9.9991665 
2.902998e+3, 2.0679826e+2, -772646.9, -782726.6, 197718.64, -0.32655662, 0.27535963, -579903.9, 333511.06, 0.0, 10.001328, 10.000904 
2.9026413e+3, 2.1678896e+2, -651661.44, -772560.0, 158440.66, -0.11644792, -0.12636237, -542530.2, 272960.3, 0.0, 10.001868, 10.000075 
2.9022816e+3, 2.2678402e+2, -735509.25, -880926.06, 87996.53, -0.07664474, 0.0948282, -694069.06, 23473.125, 0.0, 10.0012245, 9.998925 
2.9019198e+3, 2.3678117e+2, -922787.5, -951674.94, 89471.9, -0.104935914, 0.5321851, -846600.94, -227016.81, 0.0, 9.999321, 9.998745 
2.9015598e+3, 2.467752e+2, -570689.94, -400332.47, 116465.94, -0.024501933, 0.55420494, -341220.75, 180422.13, 0.0, 9.999715, 10.001603 
2.9012004e+3, 2.5676727e+2, -437294.72, -390309.78, 79463.195, 0.116506666, 0.21699955, -330939.13, 92774.33, 0.0, 10.000352, 10.000737 
2.9008394e+3, 2.6676238e+2, -400393.7, -364785.63, 97513.78, 0.080996305, 0.33930153, -283463.88, 42293.453, 0.0, 10.000171, 10.000286 
2.9004773e+3, 2.7675873e+2, -620527.2, -532809.56, 61509.805, -0.041866, 0.5569233, -501123.34, -273332.4, 0.0, 9.998406, 9.999366 
2.9001138e+3, 2.86749e+2, -515793.88, -393047.25, 41404.523, -0.27697876, 0.2910298, -380386.66, -250506.22, 0.0, 9.99836, 9.999638 
2.8997502e+3, 2.9673588e+2, -461068.4, -447016.66, 52676.766, -0.5136109, -0.35653117, -400899.28, -368898.1, 0.0, 9.998579, 9.998518 
2.899391e+3, 3.067287e+2, 164478.7, -108312.93, 72385.17, -0.3134295, -0.27303165, 182496.06, 182496.06, 0.0, 10.002415, 9.998216 
2.8990334e+3, 3.167251e+2, 512115.6, -298208.1, 48488.395, -0.033452798, 0.19397219, 515006.75, 515006.75, 0.0, 10.006028, 9.994941 
2.898673e+3, 3.2671794e+2, 188545.89, -441189.3, -30630.955, -0.22347116, 0.6012982, 190032.31, 190032.31, 0.0, 10.003887, 9.9947605 
2.9155156e+3, 1.3721377e+2, -1511468.9, -1357691.0, 148718.03, -0.20975162, 0.35432458, -1267161.4, 328169.78, 0.0000000000007792345, 10.000211, 10.002267 
2.915158e+3, 1.4720385e+2, -1149036.4, -1349702.4, 71692.766, 0.25405186, -0.07099777, -1126054.5, 371368.3, 0.0, 10.003094, 10.000244 
2.914789e+3, 1.5720177e+2, -1183103.5, -1473504.6, 199602.28, -0.34768125, 0.32471493, -1081475.6, 317970.1, 0.0, 10.002828, 9.998877 
2.914429e+3, 1.6719393e+2, -1258858.4, -1660320.9, 238907.42, -0.29123312, 0.4298361, -1147548.3, 153981.44, 0.0, 10.002541, 9.996999 
2.9140717e+3, 1.771837e+2, -1277972.4, -1612428.1, 199045.6, -0.102388576, 0.32455298, -1185230.5, 18408.48, 0.0, 10.001631, 9.997159 
2.9137123e+3, 1.8717682e+2, -1041501.4, -1104479.5, 188563.22, -0.11542412, 0.39804837, -881816.06, 223891.92, 0.0, 10.001156, 10.000169 
2.9133523e+3, 1.9717123e+2, -1101013.6, -1142814.1, 255169.5, -0.2236218, 0.4545704, -865889.9, 141871.45, 0.0, 10.000288, 9.999674 
2.912995e+3, 2.0716439e+2, -831561.8, -921868.0, 266951.53, -0.16634275, 0.44753385, -605971.6, 303853.2, 0.0, 10.001333, 9.99997 
2.9126385e+3, 2.1715674e+2, -549866.1, -775368.6, 199108.42, -0.083761655, 0.3127013, -433800.84, 378094.22, 0.0, 10.002712, 9.999677 
2.9122767e+3, 2.2714971e+2, -556103.7, -687037.56, 25032.775, -0.12573588, 0.2801365, -551481.0, 162480.25, 0.0, 10.001941, 9.999939 
2.9119122e+3, 2.3714295e+2, -751318.44, -791576.8, 95686.11, -0.25489965, 0.25760335, -673667.2, -57640.277, 0.0, 10.000057, 9.999524 
2.911552e+3, 2.4713661e+2, -614611.9, -589701.94, 166136.58, -0.2027124, 0.2935242, -435554.1, 82536.58, 0.0, 10.00005, 10.000163 
2.9111928e+3, 2.571302e+2, -410228.44, -478420.44, 78099.98, -0.08929328, 0.2621366, -359106.25, 61048.855, 0.0, 10.000849, 9.999921 
2.9108334e+3, 2.6712447e+2, -336247.6, -357125.03, 26982.53, 0.07309758, 0.33201793, -317754.97, 4456.733, 0.0, 10.000593, 10.000186 
2.910473e+3, 2.7711916e+2, -381349.06, -378779.56, 10931.433, 0.18908183, 0.40795147, -369057.66, -144794.25, 0.0, 9.999771, 9.999794 
2.910108e+3, 2.87112e+2, -277196.56, -228897.5, 59858.85, -0.17309308, 0.3462761, -188500.3, -62170.156, 0.0, 9.999715, 10.000138 
2.9097435e+3, 2.9710278e+2, -251785.98, -232855.03, 155891.77, -0.5031003, 0.05846724, -86141.64, -57726.484, 0.0, 9.999356, 9.999646 
2.9255116e+3, 1.3757372e+2, -1332293.3, -1317349.3, -49137.188, -0.108332515, 0.1574104, -1275119.3, 316682.56, 0.0, 10.001553, 10.001907 
2.9251525e+3, 1.4756753e+2, -1561491.8, -1498164.3, -125534.69, 0.19148, 0.06535576, -1400361.5, 93498.32, 0.0, 9.999975, 10.000747 
2.924785e+3, 1.575652e+2, -1319329.9, -1483260.4, -79736.09, -0.34327626, 0.36834124, -1286944.1, 108940.055, 0.0, 10.001605, 9.99941 
2.9244247e+3, 1.6755761e+2, -1267880.9, -1629970.0, 63409.223, -0.32033932, 0.43083623, -1257097.8, 40865.77, 0.0, 10.002293, 9.997354 
2.9240668e+3, 1.7754744e+2, -1168687.9, -1532516.0, 177510.19, -0.11730397, 0.30057442, -1096431.6, 103638.09, 0.0, 10.002255, 9.997424 
2.9237077e+3, 1.8754004e+2, -967863.8, -1084177.8, 154295.22, -0.07363504, 0.31466392, -861129.1, 241012.78, 0.0, 10.001767, 9.999997 
2.9233482e+3, 1.9753376e+2, -1086365.8, -1189233.4, 141698.75, -0.020386051, 0.3140107, -987054.8, 17145.758, 0.0, 10.000596, 9.999228 
2.9229912e+3, 2.0752838e+2, -955985.44, -1049801.0, 236869.97, -0.024704663, 0.49819532, -761423.3, 144832.81, 0.0, 10.000844, 9.999311 
2.9226345e+3, 2.1752286e+2, -854931.94, -977912.75, 151228.66, -0.044627987, 0.62736565, -753170.44, 55143.902, 0.0, 10.000922, 9.999147 
2.9222715e+3, 2.275143e+2, -589705.75, -618918.06, -73797.11, -0.14174685, 0.40921083, -529083.25, 181307.27, 0.0, 10.001387, 10.000663 
2.9219058e+3, 2.3750468e+2, -619364.8, -712784.25, -21560.975, -0.25817445, 0.0072351648, -614628.7, -2155.457, 0.0, 10.000978, 9.999606 
2.921545e+3, 2.474985e+2, -582018.75, -698386.0, 148781.94, -0.2770823, 0.11812897, -480448.22, 34088.285, 0.0, 10.00087, 9.999011 
2.921186e+3, 2.574934e+2, -611213.06, -710961.5, 101918.13, -0.20697193, 0.31389603, -547620.4, -131025.35, 0.0, 10.000128, 9.99867 
2.9208273e+3, 2.674869e+2, -384989.88, -359511.06, 36004.832, 0.0629809, 0.35088757, -334058.3, -15395.565, 0.0, 10.000352, 10.000189 
2.9204682e+3, 2.7748007e+2, -395497.25, -385383.34, 23117.72, 0.35603213, 0.24783508, -366775.94, -146044.28, 0.0, 9.999795, 9.999703 
2.920102e+3, 2.8747606e+2, -306110.7, -177853.64, 74354.836, -0.10297952, 0.46768296, -143793.02, -21023.264, 0.0, 9.999352, 10.000599 
2.9197383e+3, 2.9747128e+2, -580702.44, -259306.19, 192210.77, -0.2844902, 0.49967414, -169467.16, -144652.11, 0.0, 9.996661, 10.000745 
2.9355055e+3, 1.3793348e+2, -1697238.5, -1757876.1, -375039.44, -0.21230237, 0.15288854, -1351294.4, 236988.5, 0.0, 10.000306, 9.999449 
2.9351407e+3, 1.4793082e+2, -1625411.0, -1536346.1, -69948.55, -0.32063577, 0.499318, -1497957.3, -7643.668, 0.0, 9.999578, 10.000674 
2.9347825e+3, 1.5792456e+2, -1352890.9, -1429866.9, -25568.066, -0.13997707, 0.41258308, -1345172.3, 47204.906, 0.0, 10.001075, 10.00004 
2.9344228e+3, 1.679191e+2, -1076846.4, -1177692.9, 63504.395, -0.11443428, 0.45725888, -1046181.3, 248246.02, 0.0, 10.002067, 10.000555 
2.934062e+3, 1.7791307e+2, -1055152.4, -1269798.5, 187892.39, -0.25107965, 0.4431937, -946091.94, 250390.0, 0.0, 10.002124, 9.999298 
2.9337022e+3, 1.8790317e+2, -1085878.5, -1339361.3, 105941.7, -0.17934355, 0.2472645, -1047432.0, 51143.984, 0.0, 10.001795, 9.9982395 
2.9333434e+3, 1.978924e+2, -1145859.4, -1336233.5, 111489.44, -0.03886526, -0.027051942, -1094450.1, -93770.86, 0.0, 10.00068, 9.99818 
2.9329854e+3, 2.078877e+2, -947106.9, -1031612.94, 217673.77, -0.08980821, 0.24896863, -767623.1, 135108.83, 0.0, 10.0008545, 9.999431 
2.9326275e+3, 2.178845e+2, -817411.44, -940920.06, 149046.36, -0.25634345, 0.60934323, -717832.5, 86939.516, 0.0, 10.001022, 9.999377 
2.932267e+3, 2.2787645e+2, -516588.1, -598065.56, -77945.23, -0.13982993, 0.43555686, -469377.4, 237467.14, 0.0, 10.001824, 10.000656 
2.9319042e+3, 2.3786691e+2, -354771.3, -531908.2, -43965.977, -0.0076175826, 0.051080655, -344459.13, 264467.75, 0.0, 10.002421, 10.000213 
2.9315424e+3, 2.4786162e+2, -376095.7, -515724.8, 82616.05, -0.069675714, 0.16754726, -337746.1, 173233.52, 0.0, 10.001822, 9.999864 
2.931181e+3, 2.578574e+2, -443699.63, -545738.75, 84888.25, -0.19160333, 0.39545223, -395678.75, 17347.379, 0.0, 10.000782, 9.999536 
2.9308203e+3, 2.678512e+2, -338573.28, -399026.9, 55455.69, -0.09552444, 0.45501778, -305641.6, 9450.713, 0.0, 10.000818, 9.999739 
2.9304597e+3, 2.7784443e+2, -133889.72, -242167.39, -7930.265, 0.038944397, 0.40650308, -133311.98, 83851.484, 0.0, 10.001329, 10.000007 
2.9300964e+3, 2.8784046e+2, -268621.72, -157930.7, -46061.5, 0.056707796, 0.60265803, -141270.75, -22070.87, 0.0, 9.999389, 10.0008335 
2.9297325e+3, 2.97833e+2, -453482.7, -34648.285, 7492.929, 0.10434469, 0.36107466, -34514.277, -13246.988, 0.0, 9.996508, 10.002464 
2.9455006e+3, 1.3829671e+2, -1503442.3, -1800569.9, -127539.336, -0.1656599, 0.26104, -1456206.5, 128519.375, 0.0, 10.002069, 9.998362 
2.9451346e+3, 1.4829299e+2, -1210099.3, -1373795.9, 98472.33, -0.39642268, 0.5822418, -1163900.9, 322867.88, 0.0, 10.002556, 10.000375 
2.9447776e+3, 1.5828498e+2, -1570651.8, -1510849.5, 109878.44, -0.008188385, 0.35641378, -1426876.4, -38027.766, 0.0, 9.999456, 10.000276 
2.9444185e+3, 1.6828026e+2, -1296383.1, -1151920.4, 115461.266, -0.020088058, 0.40670463, -1087958.3, 202931.0, 0.0, 10.000032, 10.001701 
2.9440573e+3, 1.7827596e+2, -1128712.3, -1223459.4, 65105.465, -0.25171292, 0.4453257, -1095568.9, 97354.695, 0.0, 10.00128, 9.999996 
2.9436973e+3, 1.882661e+2, -1100611.0, -1375186.1, 43308.715, -0.20769556, 0.23110324, -1093941.9, 1074.3837, 0.0, 10.001819, 9.9979725 
2.9433385e+3, 1.9825447e+2, -1029439.0, -1300341.8, 167146.16, 0.009491921, -0.10317623, -949751.1, 47376.836, 0.0, 10.001591, 9.997981 
2.94298e+3, 2.0824951e+2, -882384.5, -970676.1, 322712.6, -0.09395869, 0.12996934, -600812.25, 298370.9, 0.0, 10.001168, 9.999691 
2.9426217e+3, 2.1824646e+2, -999073.9, -1057824.0, 255107.42, -0.26581636, 0.49833477, -771655.8, 29566.322, 0.0, 9.9999275, 9.999109 
2.9422623e+3, 2.2823915e+2, -711939.1, -691840.8, 80321.055, -0.07805925, 0.41978765, -620942.75, 82346.92, 0.0, 10.000602, 10.000517 
2.941902e+3, 2.382304e+2, -618739.7, -681021.25, 81313.14, 0.21824628, 0.119067736, -562808.25, 42558.96, 0.0, 10.000822, 9.999897 
2.9415393e+3, 2.4822515e+2, -448965.1, -463163.88, 137936.13, 0.08213853, 0.21493751, -317945.78, 189471.34, 0.0, 10.001104, 10.000487 
2.9411754e+3, 2.5822118e+2, -511849.53, -556330.06, 109929.13, -0.14347506, 0.39427608, -421933.47, -12476.139, 0.0, 10.000373, 9.999622 
2.9408133e+3, 2.6821515e+2, -443173.56, -491644.44, 137769.13, -0.22522897, 0.49134567, -327524.47, -16001.876, 0.0, 10.000321, 9.999344 
2.9404515e+3, 2.782084e+2, -480379.8, -473308.22, 71304.836, -0.23353973, 0.48168564, -405451.56, -191856.11, 0.0, 9.999349, 9.999351 
2.9400912e+3, 2.88204e+2, -321287.25, -168587.86, -61050.79, 0.23464267, 0.660388, -147180.33, -31544.771, 0.0, 9.999136, 10.00081 
2.9397234e+3, 2.981915e+2, -324198.75, 141352.25, -48251.188, 0.15221083, -0.08860482, 146300.55, 164049.4, 0.0, 9.997222, 10.003228 
2.955499e+3, 1.3866225e+2, -1542173.1, -1789309.9, 102565.56, 0.038143847, 0.42673337, -1505152.5, 75990.055, 0.0, 10.001711, 9.998622 
2.9551324e+3, 1.4865483e+2, -1339031.4, -1514192.9, -45471.723, -0.26952592, 0.39797053, -1327930.5, 155287.45, 0.0, 10.002046, 9.999638 
2.9547694e+3, 1.5864669e+2, -1737468.8, -1709180.8, 47644.04, -0.19342694, 0.23961484, -1673625.6, -288330.13, 0.0, 9.998821, 9.99923 
2.9544112e+3, 1.686403e+2, -1439991.5, -1372977.8, 152252.66, -0.1406886, 0.24271852, -1250588.5, 36768.19, 0.0, 9.999698, 10.000344 
2.9540524e+3, 1.7863463e+2, -1173966.5, -1253267.4, 79227.66, -0.2953511, 0.26562965, -1125021.4, 64389.535, 0.0, 10.000986, 9.999941 
2.9536927e+3, 1.8862912e+2, -933341.2, -1035589.56, 31221.738, -0.24694328, 0.32561466, -924561.5, 166900.63, 0.0, 10.001823, 10.000307 
2.9533333e+3, 1.9862309e+2, -849410.94, -1011778.9, 182247.28, -0.12382313, 0.33670047, -731083.2, 262435.2, 0.0, 10.001896, 9.999835 
2.9529756e+3, 2.0861636e+2, -776712.4, -838294.1, 299140.78, -0.07128908, 0.27751338, -506781.97, 388801.8, 0.0, 10.001436, 10.000519 
2.9526177e+3, 2.1860969e+2, -872105.75, -916277.0, 256849.06, -0.115052864, 0.2210318, -636394.5, 161254.89, 0.0, 10.000366, 9.999898 
2.9522565e+3, 2.286038e+2, -721874.1, -725148.9, 138110.39, -0.08240988, 0.27229837, -585391.44, 114315.4, 0.0, 10.00063, 10.000292 
2.9518944e+3, 2.385976e+2, -551265.56, -649732.06, 135302.9, -0.048431445, 0.26372755, -456516.9, 145249.16, 0.0, 10.001198, 9.999948 
2.9515326e+3, 2.4859023e+2, -425716.34, -519018.72, 164526.28, -0.09984152, 0.18191499, -301355.16, 202478.64, 0.0, 10.0014305, 10.000012 
2.9511705e+3, 2.5858286e+2, -288962.1, -412472.7, 108343.766, -0.18075384, 0.07981901, -226009.39, 179892.47, 0.0, 10.001593, 10.000083 
2.950808e+3, 2.6857647e+2, -288931.97, -293218.88, 116287.08, -0.17150891, 0.050142508, -174768.58, 133197.89, 0.0, 10.00073, 10.000568 
2.950445e+3, 2.7857053e+2, -387816.38, -379466.75, 105938.5, -0.18145128, 0.044235867, -277620.8, -67591.195, 0.0, 9.999624, 9.999911 
2.950084e+3, 2.8856635e+2, -257106.5, -318866.44, 2243.8267, 0.19601113, 0.33042508, -257025.08, -144948.14, 0.0, 10.000191, 9.999342 
2.949715e+3, 2.9855874e+2, 230229.94, 368464.25, -81747.76, -0.06756078, 0.23413867, 406397.9, 420548.97, 0.0, 10.000912, 10.003076 
2.9654944e+3, 1.3902387e+2, -1521711.4, -1688400.9, 68508.79, 0.027332595, 0.34100595, -1497168.1, 80432.78, 0.0, 10.001436, 9.999463 
2.9651284e+3, 1.4901714e+2, -1242497.8, -1419340.5, -96825.12, -0.21288316, 0.3233375, -1199795.4, 279870.0, 0.0, 10.002508, 10.000093 
2.9647636e+3, 1.5900956e+2, -1063428.1, -1389102.9, 82014.95, -0.20070723, 0.20729503, -1043940.3, 337793.34, 0.0, 10.003419, 9.999237 
2.9644054e+3, 1.690023e+2, -1106578.5, -1310811.0, 268053.97, -0.1548217, 0.17770517, -921848.6, 361956.72, 0.0, 10.002325, 9.999543 
2.9640475e+3, 1.789955e+2, -1204955.8, -1274148.5, 227446.94, -0.2150074, 0.16043805, -1009489.0, 176384.53, 0.0, 10.000776, 9.999918 
2.9636878e+3, 1.8899195e+2, -1073179.0, -960188.06, 92720.695, -0.1964023, 0.33881834, -908107.0, 179800.66, 0.0, 10.000319, 10.001527 
2.9633287e+3, 1.9898848e+2, -1129080.1, -1060433.6, 148205.03, -0.039197396, 0.4957178, -942629.25, 47310.297, 0.0, 9.999661, 10.000569 
2.9629707e+3, 2.0898107e+2, -883804.0, -812157.9, 224220.98, -0.033288926, 0.2980466, -620916.3, 271090.13, 0.0, 10.000475, 10.001118 
2.9626122e+3, 2.1897277e+2, -853036.44, -884526.44, 152767.94, -0.053779725, 0.008823055, -715204.25, 78877.484, 0.0, 10.000491, 10.000028 
2.96225e+3, 2.2896802e+2, -720577.75, -730000.1, 87312.31, -0.11784049, 0.16187939, -637849.6, 58280.625, 0.0, 10.000699, 10.000214 
2.9618877e+3, 2.3896383e+2, -746636.7, -796786.5, 105768.836, -0.15753293, 0.35205415, -663011.1, -64837.1, 0.0, 10.000145, 9.999456 
2.9615265e+3, 2.4895488e+2, -489379.06, -588271.5, 155737.4, -0.20025207, 0.1431807, -375426.78, 124828.2, 0.0, 10.001217, 9.99961 
2.9611653e+3, 2.5894496e+2, -367071.6, -487986.13, 100182.49, -0.1846353, -0.18679638, -310517.7, 91826.305, 0.0, 10.001323, 9.999659 
2.9608026e+3, 2.6893857e+2, -221161.0, -153167.5, 31841.453, -0.13330595, -0.2792502, -140584.67, 163821.5, 0.0, 10.000824, 10.001428 
2.9604387e+3, 2.7893314e+2, -489348.97, -473747.84, 9391.358, -0.12002275, -0.3137227, -469339.97, -262877.84, 0.0, 9.999268, 9.999393 
2.9600766e+3, 2.8892905e+2, -328597.75, -495367.44, 16260.315, 0.09894024, 0.06438773, -327027.13, -218510.36, 0.0, 10.000459, 9.997928 
2.9597083e+3, 2.9892755e+2, 161463.61, 298814.94, -75289.45, -0.20267186, 0.6617214, 332045.34, 342583.66, 0.0, 10.000793, 10.002611 
2.9754856e+3, 1.3938457e+2, -1572667.5, -1569225.6, -18369.82, -0.4190441, 0.29367882, -1552496.3, 21574.54, 0.0, 10.000589, 10.000647 
2.975124e+3, 1.4938012e+2, -1200921.5, -1235715.5, -41565.79, -0.24979419, 0.35402638, -1173258.9, 302849.97, 0.0, 10.002135, 10.001509 
2.974761e+3, 1.5937416e+2, -1053203.4, -1301747.4, 92626.06, -0.22530684, 0.27917963, -1022481.4, 355676.94, 0.0, 10.003161, 9.999952 
2.9744017e+3, 1.6936736e+2, -1112391.9, -1297733.5, 213522.14, -0.16415682, 0.26220813, -972297.56, 307925.78, 0.0, 10.002231, 9.999674 
2.9740426e+3, 1.7936021e+2, -1241479.6, -1324056.3, 177608.67, -0.22733374, 0.21769033, -1100423.4, 81870.43, 0.0, 10.000647, 9.999646 
2.9736832e+3, 1.8935396e+2, -1130755.0, -1083063.9, 54994.4, -0.06790444, 0.18844108, -1046967.8, 37389.188, 0.0, 10.000261, 10.000744 
2.9733238e+3, 1.9934788e+2, -1156203.3, -1098132.5, 123944.445, 0.097175084, 0.15069573, -999867.94, -13450.136, 0.0, 9.999508, 10.000409 
2.9729635e+3, 2.0934162e+2, -887462.3, -816802.3, 222537.17, -0.19440506, 0.07195531, -626808.06, 261665.5, 0.0, 10.000427, 10.001132 
2.9726025e+3, 2.193355e+2, -688034.4, -751857.75, 112767.555, -0.541527, -0.007928786, -602750.1, 187777.2, 0.0, 10.001275, 10.000607 
2.9722437e+3, 2.2933128e+2, -585978.9, -610060.44, 33673.2, -0.25940132, 0.13786253, -562258.44, 130310.4, 0.0, 10.001242, 10.00085 
2.9718846e+3, 2.3932715e+2, -555922.7, -636210.25, 87730.18, 0.035359327, 0.28436533, -499587.97, 95022.57, 0.0, 10.001039, 10.000168 
2.9715228e+3, 2.493194e+2, -374117.97, -521613.63, 168750.7, -0.10956873, 0.16317217, -263704.06, 232978.33, 0.0, 10.001836, 9.999821 
2.9711604e+3, 2.5931102e+2, -153237.31, -373826.0, 65196.1, -0.3061068, -0.016203284, -135409.17, 263351.06, 0.0, 10.002587, 9.999869 
2.9707962e+3, 2.6930588e+2, -132424.84, -209744.22, -63963.06, -0.29032028, 0.07029139, -96346.02, 204469.98, 0.0, 10.001733, 10.000678 
2.970431e+3, 2.793012e+2, -202765.05, -272512.2, -74946.5, -0.2865689, 0.184151, -154975.78, 47893.004, 0.0, 10.000776, 10.000117 
2.9700717e+3, 2.8929612e+2, 2452.6248, -137688.5, 48868.56, 0.11600147, 0.30906814, 17810.512, 122736.195, 0.0, 10.001734, 9.9998665 
2.969703e+3, 2.9928905e+2, 609158.3, 629249.7, 26731.17, -0.330888, 0.2249562, 647760.44, 654751.25, 0.0, 10.003203, 10.003801 
2.98548e+3, 1.3974832e+2, -1852976.0, -1624869.0, -159275.13, -0.2701717, 0.47808024, -1543022.6, 27485.08, 0.0, 9.9982195, 10.001438 
2.9851204e+3, 1.4974388e+2, -1482456.4, -1369049.5, 5593.9937, -0.07852006, 0.5268356, -1368774.3, 103773.11, 0.0, 10.000115, 10.001604 
2.9847586e+3, 1.5973611e+2, -1025237.7, -1270398.0, -17342.658, -0.14934243, 0.23873542, -1024016.94, 350599.38, 0.0, 10.003236, 10.000175 
2.984397e+3, 1.697303e+2, -1140879.6, -1279037.9, 11592.638, -0.1838316, 0.28849542, -1139913.8, 136754.97, 0.0, 10.001912, 9.999984 
2.9840365e+3, 1.7972386e+2, -1378811.4, -1448781.3, 38717.395, -0.22083066, 0.3021008, -1361614.1, -182885.23, 0.0, 9.999939, 9.999162 
2.9836774e+3, 1.8971668e+2, -1157407.8, -1191302.9, -41788.563, -0.003330861, 0.24893041, -1129260.9, -48457.563, 0.0, 10.000478, 9.999923 
2.9833183e+3, 1.997098e+2, -1000963.1, -1047753.2, 47347.25, 0.20517309, 0.17321776, -971546.3, 11327.776, 0.0, 10.000684, 10.000197 
2.9829577e+3, 2.0970364e+2, -817147.5, -798665.25, 174627.25, -0.22922707, 0.09517463, -633034.8, 251894.05, 0.0, 10.00092, 10.001044 
2.9825965e+3, 2.196986e+2, -838999.2, -817695.3, 59607.34, -0.6059053, 0.10137992, -767795.6, 19176.322, 0.0, 10.000266, 10.000642 
2.982239e+3, 2.2969423e+2, -623093.1, -568480.7, -57313.09, -0.20051761, 0.18470156, -532301.3, 156712.63, 0.0, 10.000839, 10.001297 
2.9818812e+3, 2.396891e+2, -617059.75, -663236.75, -7684.573, 0.2541693, 0.19990453, -615814.5, -24750.193, 0.0, 10.000701, 10.000131 
2.9815185e+3, 2.4968287e+2, -463896.1, -489275.2, 108009.77, -0.044595283, 0.17001577, -367833.03, 125291.08, 0.0, 10.001036, 10.000382 
2.9811552e+3, 2.596767e+2, -515704.94, -619470.25, 8193.424, -0.36387432, 0.18219957, -515061.94, -119877.53, 0.0, 10.000519, 9.999169 
2.9807898e+3, 2.6967216e+2, -382001.97, -391022.28, -111826.56, -0.407927, 0.37821713, -274594.66, 22643.72, 0.0, 10.0003805, 10.000054 
2.9804242e+3, 2.7966806e+2, -450998.4, -401253.16, -40546.973, -0.41597834, 0.583373, -378557.88, -179269.44, 0.0, 9.999263, 9.999947 
2.980067e+3, 2.8966337e+2, 4735.066, 51086.945, 15785.394, 0.15360945, 0.62640053, 55952.098, 157286.05, 0.0, 10.001106, 10.001415 
2.9796985e+3, 2.9964808e+2, 429996.56, 624065.4, -74228.78, -0.46567917, -0.4517917, 649201.3, 652670.44, 0.0, 10.001905, 10.004317 
2.995477e+3, 1.4011334e+2, -1977671.1, -1620038.6, -299304.6, 0.17136025, 0.81548876, -1450202.4, 116727.51, 0.0, 9.99721, 10.001956 
2.995117e+3, 1.5010673e+2, -1634502.0, -1538558.0, 128393.84, 0.1776168, 0.70221615, -1449467.0, 19531.256, 0.0, 9.999562, 10.000699 
2.9947558e+3, 1.6009423e+2, -1176983.0, -1394853.3, 6983.4907, -0.14850792, 0.025173487, -1176759.4, 194360.95, 0.0, 10.002439, 9.999705 
2.9943922e+3, 1.7008908e+2, -1220408.3, -1273724.6, -99206.875, -0.23023784, 0.12523907, -1144340.3, 128822.24, 0.0, 10.001191, 10.000367 
2.994029e+3, 1.8008521e+2, -1446444.1, -1446610.5, -8447.171, -0.40622136, 0.3570331, -1438079.8, -262886.22, 0.0, 9.999369, 9.999431 
2.9936695e+3, 1.9008037e+2, -1186481.5, -1249930.1, -8386.994, -0.26792082, 0.5647304, -1185391.6, -108145.49, 0.0, 10.000523, 9.9994755 
2.993312e+3, 2.000752e+2, -1017663.75, -1066999.5, 38103.574, -0.009188143, 0.7184933, -996940.2, -17638.436, 0.0, 10.000607, 10.0000925 
2.9929557e+3, 2.1006961e+2, -783594.44, -714586.3, 143689.05, 0.08307104, 0.6597712, -601316.6, 280033.84, 0.0, 10.00086, 10.001645 
2.9925975e+3, 2.2006294e+2, -737975.6, -768786.8, 23303.844, 0.003914376, 0.48168606, -725445.56, 57963.9, 0.0, 10.000896, 10.000676 
2.9922363e+3, 2.3005408e+2, -613722.56, -649515.56, -96404.4, 0.052797027, 0.17682344, -533567.56, 151930.34, 0.0, 10.001185, 10.000617 
2.9918757e+3, 2.4004665e+2, -388351.06, -447498.34, -64115.82, 0.1484451, -0.016936596, -347317.06, 240256.2, 0.0, 10.001743, 10.001122 
2.9915133e+3, 2.5004283e+2, -281624.6, -251910.27, 30178.447, -0.07045149, 0.06866606, -233130.03, 256481.97, 0.0, 10.00159, 10.00179 
2.99115e+3, 2.6003855e+2, -368783.03, -383489.84, -62847.81, -0.35682926, 0.14618434, -312859.9, 78795.12, 0.0, 10.0006895, 10.000772 
2.990784e+3, 2.7003172e+2, -377656.44, -287443.84, -140657.84, -0.33432218, 0.02369844, -184836.89, 108886.19, 0.0, 9.999913, 10.001066 
2.990418e+3, 2.80026e+2, -437344.84, -500492.34, -1400.4707, -0.31369355, 0.044888794, -437313.8, -241532.73, 0.0, 9.999675, 9.999148 
2.9900628e+3, 2.9002628e+2, -197384.67, -455135.6, -12551.309, 0.22130603, 0.87983686, -196774.92, -98990.81, 0.0, 10.001347, 9.99797 
2.989699e+3, 3.0001974e+2, 294977.0, 207533.8, -322599.22, -0.03235839, 1.0367824, 576803.9, 576803.9, 0.0, 10.002211, 10.001504 
3.0054632e+3, 1.4046416e+2, -1597622.8, -1678903.0, -279571.03, -0.57269984, -0.40714476, -1355753.4, 207733.45, 0.0, 10.000563, 10.000022 
3.005106e+3, 1.5047072e+2, -1360409.3, -1673894.3, 195944.75, -0.39156306, 1.0084087, -1266228.4, 199208.66, 0.0, 10.002522, 9.998319 
3.004751e+3, 1.6046141e+2, -1204936.1, -1433744.5, -72972.44, -0.2616455, 0.81040823, -1183644.8, 183891.58, 0.0, 10.002215, 9.999525 
3.0043906e+3, 1.7045358e+2, -616814.25, -806222.1, -107237.72, -0.020640587, 0.48540515, -568449.1, 701149.3, 0.0, 10.004463, 10.001947 
3.004031e+3, 1.804464e+2, -491060.0, -1004435.2, 90467.414, 0.18196231, 0.2484699, -475584.25, 696071.0, 0.0, 10.005853, 9.999361 
3.003666e+3, 1.9044062e+2, -915977.8, -1232012.0, 13770.322, -0.15688185, 0.39853817, -915379.0, 158337.19, 0.0, 10.002735, 9.99851 
3.0033025e+3, 2.0043127e+2, -1166085.4, -1381673.6, 78216.68, -0.4077276, 0.28690967, -1140697.6, -164884.42, 0.0, 10.000501, 9.997982 
3.002948e+3, 2.104244e+2, -900256.6, -830591.5, 84256.93, -0.13875218, 0.17339812, -774250.94, 103626.4, 0.0, 10.000308, 10.001026 
3.002592e+3, 2.2041897e+2, -834335.94, -846946.25, -126372.66, -0.0051134215, 0.17123367, -714111.25, 65815.37, 0.0, 10.000332, 10.000376 
3.002228e+3, 2.3041683e+2, -760773.4, -596689.1, -24869.225, -0.16611448, 0.4169581, -593002.7, 88947.336, 0.0, 9.999643, 10.001612 
3.001865e+3, 2.4041525e+2, -1009280.06, -669706.6, 171631.23, -0.29682314, 0.6845771, -598070.9, -14101.606, 0.0, 9.997149, 10.001751 
3.0015054e+3, 2.5041205e+2, -865326.9, -433538.4, 245517.42, -0.24272321, 0.73201734, -322493.63, 163511.56, 0.0, 9.997227, 10.0025015 
3.0011427e+3, 2.604079e+2, -752050.75, -568822.56, 116668.45, -0.43061975, 0.7482906, -512096.94, -124048.85, 0.0, 9.998119, 10.000652 
3.0007756e+3, 2.7040187e+2, 132123.36, -27047.146, -32785.098, -0.58838016, 0.6785614, 138611.77, 428712.13, 0.0, 10.0034895, 10.000969 
3.0004087e+3, 2.803937e+2, 533308.1, -272876.03, 28746.674, -0.81714004, 0.49503472, 534331.9, 726507.5, 0.0, 10.007473, 9.996865 
3.0000526e+3, 2.9038015e+2, 37752.684, -672466.2, 174331.7, -0.35156465, 0.21425875, 78236.8, 172557.81, 0.0, 10.004586, 9.99474 
2.9996923e+3, 3.0037066e+2, -65549.625, -70634.89, -75224.53, -0.18918753, 0.31627554, 7175.2285, 7175.2285, 0.0, 10.000415, 10.000296 
