coord_x,coord_y,stress_xx,stress_yy,tau_xy,velocity_x,velocity_y,stress_1,eps,damage,lx,ly
5.0006974e+0, 1.24761164e+2, -1436720.8, -1690076.3, 39833.008, -0.04863227, 0.04352353, -1430605.8, 286750.0, 0.0027102246, 10.002183, 9.999111 
5.00088e+0, 1.3476522e+2, -1380774.1, -1636344.8, 3456.982, -0.020163665, 0.4523426, -1380727.4, 238592.67, 0.0016001622, 10.0020685, 9.998849 
5.000955e+0, 1.4476179e+2, -1320967.6, -1563557.1, 9458.857, -0.0026999263, 0.23807667, -1320599.4, 200755.4, 0.00071385584, 10.001856, 9.998763 
5.000827e+0, 1.5476122e+2, -1261474.5, -1483434.9, 4931.534, -0.0014995584, 0.22400238, -1261364.9, 161992.63, 0.00020880907, 10.001591, 9.99877 
5.000709e+0, 1.6476049e+2, -1161180.1, -1316928.0, 22064.56, 0.00036820292, 0.24845691, -1158114.6, 167247.66, 0.00003056022, 10.001325, 9.999371 
5.00056e+0, 1.7475845e+2, -1117239.3, -1258324.8, 1265.5089, 0.0011273335, 0.043252423, -1117227.9, 110151.41, 0.0000010193884, 10.001011, 9.999251 
5.000485e+0, 1.8475743e+2, -1072452.8, -1239466.0, 26441.896, -0.00063367555, 0.047290575, -1068366.4, 61022.563, 0.0, 10.00089, 9.998761 
5.000469e+0, 1.9475733e+2, -971352.0, -1157291.5, 29050.729, -0.0065208697, 0.098521255, -966918.9, 64473.83, 0.0, 10.000983, 9.998614 
5.000347e+0, 2.0475705e+2, -839674.06, -923141.7, 22057.03, -0.004725571, 0.16590744, -834203.8, 99190.9, 0.0, 10.000702, 9.999677 
5.000058e+0, 2.1475601e+2, -843324.25, -883012.56, -26894.104, -0.00059427175, 0.025828788, -829745.56, 5654.997, 0.0, 10.000041, 9.999599 
5.000005e+0, 2.2475514e+2, -855154.5, -1009513.94, 9767.137, -0.0049102814, 0.06156696, -854538.94, -117129.69, 0.0, 10.0000305, 9.998065 
5.000247e+0, 2.3475409e+2, -664361.7, -878808.4, 24681.717, -0.015615384, 0.08631238, -661557.6, -22133.06, 0.0, 10.000715, 9.99796 
5.0005025e+0, 2.4475294e+2, -526699.94, -756672.25, 20915.092, -0.0018321278, 0.17891026, -524813.3, 16624.521, 0.0, 10.000963, 9.998005 
5.000768e+0, 2.5475106e+2, -479424.4, -704745.1, -19209.852, 0.03706219, 0.1288452, -477798.4, -34343.645, 0.000000000017365094, 10.000703, 9.997818 
5.00054e+0, 2.6474944e+2, -439779.47, -638118.2, -5649.329, 0.033956036, 0.19736613, -439618.7, -94147.88, 0.000000288742, 10.0003195, 9.997781 
4.9997768e+0, 2.7474812e+2, -424824.0, -585239.5, 13131.374, -0.015499704, 0.21930142, -423756.2, -176270.13, 0.0000033591298, 9.999768, 9.997735 
4.9994344e+0, 2.84747e+2, -326281.22, -385585.7, 45687.684, -0.027809145, 0.29537958, -301466.75, -151968.14, 0.000018802597, 9.999338, 9.998633 
4.9994594e+0, 2.9474443e+2, -246163.98, -273556.94, 36207.418, -0.014884168, 0.100733355, -221149.1, -169623.89, 0.000081046455, 9.999093, 9.998854 
4.9992904e+0, 3.0474633e+2, -225866.7, -180947.86, 21345.223, -0.007990499, 0.36434525, -172422.7, -172422.7, 0.0003038914, 9.998643, 9.999372 
4.9988788e+0, 3.1474447e+2, -151589.53, 181997.69, -8763.824, -0.0053167003, 0.19165215, 182227.77, 182227.77, 0.00078894256, 9.997645, 10.002372 
1.5002055e+1, 1.2476202e+2, -1514644.8, -1750587.1, -11172.402, -0.14536896, 0.023336312, -1514117.0, 203228.05, 0.0026043395, 10.001814, 9.998894 
1.5002733e+1, 1.3476394e+2, -1427512.0, -1677446.0, 14707.872, -0.046744578, 0.30354655, -1426649.4, 192679.77, 0.0015429672, 10.001881, 9.998682 
1.5002844e+1, 1.4476007e+2, -1328063.3, -1512800.4, -14822.81, -0.008117852, 0.032834604, -1326881.5, 194485.69, 0.0006869522, 10.001604, 9.9992485 
1.5002467e+1, 1.5475932e+2, -1261353.9, -1430776.4, 12495.291, -0.004585623, -0.0067743505, -1260437.3, 162933.94, 0.0001968844, 10.001395, 9.999239 
1.5002133e+1, 1.6475946e+2, -1199381.6, -1335104.4, -3861.894, 0.004730732, 0.08198754, -1199271.8, 126097.35, 0.000026649353, 10.001098, 9.999367 
1.5001716e+1, 1.7476003e+2, -1145793.6, -1266728.0, 4425.8696, 0.007836239, 0.17470528, -1145631.9, 81733.78, 0.00000066228677, 10.000816, 9.999303 
1.5001419e+1, 1.8475989e+2, -1073102.4, -1172343.5, 15303.172, -0.0020392335, 0.23153104, -1070796.1, 58571.47, 0.0, 10.000638, 9.999351 
1.5001395e+1, 1.947588e+2, -966327.4, -1084045.8, 48650.754, -0.017156001, 0.16276568, -948823.6, 82553.52, 0.0, 10.000749, 9.99924 
1.5001017e+1, 2.0475775e+2, -928533.2, -1045353.1, -14629.705, -0.014947413, 0.15295634, -926728.94, 6658.455, 0.0, 10.000468, 9.99896 
1.5000153e+1, 2.147565e+2, -930562.5, -1003677.44, -35532.016, -0.0028942865, 0.103083394, -916139.9, -80739.65, 0.0, 9.999811, 9.998892 
1.5000004e+1, 2.2475602e+2, -828605.5, -893383.3, 18197.982, -0.011525412, 0.16541208, -823843.3, -86437.74, 0.0, 9.999804, 9.998982 
1.5000713e+1, 2.3475625e+2, -636791.0, -757875.2, 66453.11, -0.04662954, 0.263323, -607436.7, 31967.111, 0.0, 10.000477, 9.998915 
1.5001515e+1, 2.4475463e+2, -598585.7, -852814.94, -2982.0193, -0.003301989, 0.28642964, -598550.75, -57130.12, 0.0, 10.000767, 9.997452 
1.5002292e+1, 2.5475073e+2, -551551.75, -787714.1, -15711.649, 0.11322798, 0.124017775, -550511.06, -107050.72, 0.0, 10.00045, 9.997382 
1.5001626e+1, 2.6474845e+2, -400939.88, -503779.38, -40004.617, 0.10412394, 0.09420425, -387210.84, -41728.883, 0.00000013049092, 10.000125, 9.998808 
1.4999354e+1, 2.7474794e+2, -394519.72, -459499.13, 3706.9812, -0.043544646, 0.13161972, -394308.9, -146824.53, 0.0000024373799, 9.999527, 9.998728 
1.4998265e+1, 2.847467e+2, -341785.8, -365781.7, 22995.62, -0.084666826, 0.13455546, -327846.34, -178350.67, 0.000015368285, 9.99915, 9.998876 
1.4998364e+1, 2.947439e+2, -273263.16, -257863.2, 50432.645, -0.04659154, -0.07043179, -214546.11, -163021.72, 0.000069496324, 9.998806, 9.999118 
1.4997946e+1, 3.0474657e+2, -284963.47, -225009.4, -26795.857, -0.007998321, 0.27758104, -214778.98, -214778.98, 0.00026841622, 9.998397, 9.999209 
1.4996594e+1, 3.1474465e+2, -308435.6, -7188.173, 10985.493, -0.010145526, 0.17277917, -6788.0996, -6788.0996, 0.0007052667, 9.997152, 10.001331 
2.5004092e+1, 1.2476366e+2, -1504194.5, -1741040.5, 36867.117, -0.10967491, 0.10690419, -1498588.5, 218741.1, 0.0024837567, 10.001904, 9.998885 
2.5004917e+1, 1.347638e+2, -1372095.9, -1660811.0, 38947.203, -0.024896227, 0.20384796, -1366934.3, 252394.39, 0.0014731403, 10.002352, 9.9985485 
2.500492e+1, 1.4476041e+2, -1253720.9, -1470497.8, 29436.148, 0.025578342, -0.014532191, -1249794.9, 271566.38, 0.00065158884, 10.002119, 9.9992695 
2.500432e+1, 1.5476029e+2, -1283522.1, -1441902.3, 2428.4312, 0.057900704, -0.007756417, -1283484.9, 139875.78, 0.0001815959, 10.001269, 9.999209 
2.5003603e+1, 1.6476054e+2, -1259982.8, -1394127.1, 27901.357, 0.06613619, 0.111818776, -1254410.9, 70947.39, 0.000022322774, 10.000816, 9.999085 
2.5002816e+1, 1.7476079e+2, -1169676.4, -1304252.3, 1202.4562, 0.04797516, 0.18677692, -1169665.6, 57692.813, 0.00000035252413, 10.000784, 9.999043 
2.5002384e+1, 1.847604e+2, -1040710.06, -1164563.6, 33968.742, 0.027488368, 0.23577788, -1032005.4, 97357.39, 0.0, 10.000885, 9.999277 
2.500248e+1, 1.947592e+2, -934211.5, -1072584.0, 3871.61, 0.014318807, 0.14749339, -934103.25, 97269.51, 0.0, 10.000989, 9.9991865 
2.5001976e+1, 2.0475814e+2, -879589.1, -1073551.5, -45002.277, 0.014486316, 0.16167627, -869656.5, 63727.22, 0.0, 10.001032, 9.998488 
2.500075e+1, 2.1475692e+2, -800723.3, -998873.1, -60585.016, 0.027254898, 0.15692456, -783667.4, 51731.04, 0.0, 10.000957, 9.998367 
2.5000456e+1, 2.2475632e+2, -691992.5, -806344.44, 36679.266, 0.01835531, 0.22487164, -681238.6, 56166.37, 0.0, 10.000649, 9.999153 
2.5001252e+1, 2.3475613e+2, -690639.3, -768173.6, 16924.627, -0.01058277, 0.25026116, -687105.94, -47701.39, 0.0, 10.00003, 9.999046 
2.5001994e+1, 2.4475457e+2, -721735.75, -882391.0, -8164.605, 0.023527578, 0.25966334, -721321.9, -179901.95, 0.0, 9.999816, 9.997687 
2.5002614e+1, 2.5475115e+2, -591070.4, -780525.7, 23130.777, 0.12921959, 0.11313082, -588287.2, -144831.58, 0.0, 10.000075, 9.997594 
2.5001767e+1, 2.6474926e+2, -402217.53, -464051.4, 26473.846, 0.122848555, 0.094840154, -392431.63, -46958.223, 0.00000003137998, 9.999966, 9.999144 
2.499926e+1, 2.7474892e+2, -381264.94, -415503.53, 404.62872, 0.0068125892, 0.11226162, -381260.16, -133787.42, 0.0000016497497, 9.9994755, 9.999045 
2.4997719e+1, 2.8474772e+2, -323809.75, -345511.1, 52078.617, -0.048623964, 0.09419488, -281463.44, -131980.42, 0.000012071121, 9.999238, 9.998959 
2.4997315e+1, 2.9474512e+2, -221820.75, -231069.02, 50079.41, -0.038057923, -0.10985401, -176152.44, -124643.65, 0.00005739791, 9.999186, 9.999101 
2.4996886e+1, 3.0474797e+2, -170529.3, -197924.31, 10055.762, 0.017603729, 0.26802313, -167234.45, -167234.45, 0.00023072664, 9.999317, 9.998952 
2.4995634e+1, 3.147454e+2, -45493.836, -8027.7153, 9321.695, 0.08652485, 0.098838575, -5836.5903, -5836.5903, 0.000617959, 9.999537, 10.000151 
3.5006383e+1, 1.2476584e+2, -1506653.0, -1695380.5, 278.71677, -0.14289376, 0.21636316, -1506652.6, 210659.02, 0.0023583595, 10.001704, 9.999291 
3.5006985e+1, 1.3476487e+2, -1357289.8, -1606278.5, 65821.82, -0.0905348, 0.1811202, -1340960.4, 278358.03, 0.0013953737, 10.002271, 9.998954 
3.500675e+1, 1.4476267e+2, -1286143.4, -1501811.4, -19795.393, -0.046955287, 0.06983503, -1284341.5, 236997.31, 0.0006105934, 10.001973, 9.999121 
3.500596e+1, 1.5476401e+2, -1303841.6, -1459312.9, -13634.308, 0.055912513, 0.24477348, -1302655.0, 120671.85, 0.00016453842, 10.001181, 9.999125 
3.5004845e+1, 1.647636e+2, -1289115.4, -1429371.0, 7784.6895, 0.07145143, 0.3063492, -1288684.6, 36646.37, 0.000017966355, 10.000701, 9.998906 
3.500351e+1, 1.7476055e+2, -1196846.0, -1343373.8, 16356.936, 0.0022109286, 0.0810004, -1195042.3, 32317.617, 0.00000014192928, 10.000708, 9.998817 
3.500303e+1, 1.8475881e+2, -1091000.8, -1229595.4, 23055.305, -0.029812945, 0.02740781, -1087266.1, 42110.22, 0.0, 10.000727, 9.998902 
3.5003358e+1, 1.9475847e+2, -979898.06, -1133481.8, 22864.254, -0.030352993, 0.07011306, -976566.5, 54813.336, 0.0, 10.000852, 9.998832 
3.5002896e+1, 2.0475812e+2, -899047.0, -1074724.4, -65016.04, -0.025960179, 0.1691778, -877602.94, 55781.715, 0.0, 10.000871, 9.998558 
3.5001537e+1, 2.1475734e+2, -818766.1, -995484.7, -48471.965, -0.020966455, 0.20559749, -806344.0, 29050.918, 0.0, 10.000787, 9.998471 
3.500103e+1, 2.24756e+2, -739174.44, -853162.06, 3179.9397, -0.01960621, 0.20801061, -739085.75, -1677.7332, 0.0, 10.000444, 9.998926 
3.5001478e+1, 2.3475392e+2, -734698.4, -808414.5, 8604.842, -0.024281727, 0.073693, -733707.25, -94281.79, 0.0, 9.9998255, 9.998861 
3.5001636e+1, 2.4475278e+2, -656689.4, -714982.94, -12653.119, -0.02357393, 0.07701216, -654061.4, -112625.79, 0.0, 9.999673, 9.998909 
3.5001418e+1, 2.5475243e+2, -528798.5, -610080.2, 49031.813, -0.030583424, 0.11790919, -505754.2, -62314.16, 0.0, 9.999903, 9.998848 
3.5000625e+1, 2.64752e+2, -422877.38, -485637.94, -4243.287, -0.017661272, 0.18707421, -422591.78, -77147.69, 0.0000000045955626, 9.999871, 9.99904 
3.4999058e+1, 2.747513e+2, -407635.72, -437440.13, 307.90265, 0.004145707, 0.18202206, -407632.56, -160182.77, 0.0000011896407, 9.999333, 9.998961 
3.4997475e+1, 2.847501e+2, -322467.8, -320364.44, 36554.58, -0.030602135, 0.16017288, -284846.44, -135386.08, 0.000009641755, 9.999152, 9.999172 
3.499591e+1, 2.9474807e+2, -240119.92, -234731.31, 62406.637, -0.1380199, 0.002522264, -174960.84, -123481.945, 0.0000464018, 9.999046, 9.9991455 
3.4995583e+1, 3.047501e+2, -174529.0, -196863.31, 6292.4507, -0.07476421, 0.30317894, -172878.19, -172878.19, 0.00019513248, 9.999258, 9.998983 
3.499521e+1, 3.1474718e+2, -136851.53, -181587.17, 65425.797, 0.01510271, 0.08401022, -90075.625, -90075.625, 0.00053834624, 9.999448, 9.999 
4.5008576e+1, 1.24767154e+2, -1495475.3, -1642995.3, 87457.63, -0.057232637, 0.21214542, -1454826.5, 262471.53, 0.0022337737, 10.001601, 9.999683 
4.5009765e+1, 1.34766e+2, -1428684.4, -1618062.4, 71734.03, 0.011995285, 0.13759242, -1404580.4, 214724.75, 0.0013153872, 10.00169, 9.999146 
4.500935e+1, 1.4476454e+2, -1344039.0, -1557148.0, -2608.4607, 0.049328566, 0.10121985, -1344007.1, 177311.44, 0.00056916923, 10.001675, 9.998902 
4.5007342e+1, 1.5476514e+2, -1247158.5, -1463473.3, -42169.99, 0.067243405, 0.23213309, -1239228.4, 184086.8, 0.00014812649, 10.001687, 9.998872 
4.5005918e+1, 1.6476446e+2, -1137660.4, -1361962.3, 30849.049, 0.06884287, 0.2837324, -1133495.0, 191827.27, 0.000013959289, 10.001782, 9.998844 
4.5005286e+1, 1.747616e+2, -1014647.94, -1262517.3, 18394.03, 0.05704997, 0.08469644, -1013290.4, 214058.1, 0.000000037538413, 10.001995, 9.998753 
4.50049e+1, 1.8475968e+2, -966346.5, -1217206.6, 45418.11, 0.045280274, 0.03837369, -958376.75, 170990.63, 0.0, 10.001782, 9.998491 
4.500465e+1, 1.9475882e+2, -993497.0, -1189994.9, 15228.878, 0.020423291, 0.07252892, -992323.75, 39054.254, 0.0, 10.000963, 9.998402 
4.50039e+1, 2.0475827e+2, -914974.7, -1058799.3, -23157.318, 0.01044405, 0.16569193, -911338.06, 22046.477, 0.0, 10.000648, 9.998781 
4.5002592e+1, 2.1475777e+2, -801078.56, -960233.2, -24252.324, 0.019196989, 0.20437469, -797465.0, 37924.67, 0.0, 10.000786, 9.998717 
4.5001876e+1, 2.2475629e+2, -736023.06, -882262.6, 42453.91, 0.026088104, 0.19262744, -724592.06, 12811.666, 0.0, 10.000592, 9.998666 
4.5001853e+1, 2.3475355e+2, -730639.8, -839915.44, 16788.07, 0.034960732, 0.024272643, -728118.8, -88689.48, 0.0, 9.999999, 9.998576 
4.5001572e+1, 2.4475269e+2, -621697.06, -623359.9, 25613.096, 0.019104926, 0.036234234, -596901.9, -55464.805, 0.0, 9.999596, 9.999573 
4.5000944e+1, 2.5475344e+2, -553778.8, -551119.4, 16120.869, -0.033742245, 0.12161199, -536273.5, -92844.555, 0.0, 9.999414, 9.99949 
4.500001e+1, 2.647535e+2, -511536.06, -523813.38, -35925.625, -0.024403201, 0.20122957, -481228.4, -135800.25, 0.000000013083459, 9.9992485, 9.999072 
4.4998848e+1, 2.747526e+2, -421535.97, -443745.72, -47275.344, 0.0675396, 0.17496786, -384078.78, -136642.08, 0.0000010541644, 9.999235, 9.998968 
4.4997376e+1, 2.847515e+2, -317258.97, -331334.3, 19924.852, 0.05130102, 0.17092186, -303165.4, -153718.86, 0.000008106713, 9.999247, 9.99906 
4.499544e+1, 2.9474995e+2, -219905.56, -244558.23, -9996.351, -0.088080525, 0.074067585, -216361.63, -164901.23, 0.000037622078, 9.999269, 9.998977 
4.499502e+1, 3.0475062e+2, -129678.71, -141833.77, -13656.086, -0.051370975, 0.23217751, -120808.836, -120808.836, 0.00016443121, 9.999419, 9.999274 
4.499524e+1, 3.147484e+2, -125120.516, -192560.05, 19264.145, 0.081849515, 0.04752847, -120005.63, -120005.63, 0.00047154687, 9.999598, 9.998846 
5.500918e+1, 1.2476783e+2, -1479903.8, -1626378.1, 38375.043, -0.25308135, 0.09198691, -1470458.9, 246827.55, 0.0021078985, 10.001641, 9.999788 
5.501271e+1, 1.3476723e+2, -1419820.6, -1621423.5, 90288.24, 0.08437412, 0.076421805, -1385296.9, 233992.28, 0.0012334009, 10.001766, 9.999091 
5.5012304e+1, 1.4476602e+2, -1363976.0, -1598485.0, -24794.307, 0.12186111, 0.07875704, -1361383.1, 159917.27, 0.00052778376, 10.001671, 9.998621 
5.5007964e+1, 1.547638e+2, -1271402.6, -1514873.8, -25937.332, -0.08432783, -0.03952722, -1268670.1, 154654.08, 0.00013278752, 10.001684, 9.998523 
5.5006146e+1, 1.6476326e+2, -1153415.3, -1374532.4, 23163.793, -0.12678066, 0.04772385, -1151014.8, 174316.08, 0.0000106646075, 10.001699, 9.998792 
5.5007535e+1, 1.7476393e+2, -1019530.6, -1261792.1, 41110.543, 0.041222185, 0.2006798, -1012744.5, 214580.11, 0.000000007551507, 10.001954, 9.99877 
5.5007535e+1, 1.8476301e+2, -1009837.7, -1285469.4, -1162.4171, 0.093808785, 0.26948622, -1009832.75, 119503.17, 0.0, 10.001685, 9.998072 
5.500587e+1, 1.9476022e+2, -1035735.4, -1257024.9, -2898.776, 0.008600778, 0.15607372, -1035697.4, -4329.809, 0.0, 10.000876, 9.997984 
5.5004483e+1, 2.0475869e+2, -910254.94, -1009321.75, -31341.703, -0.027649358, 0.1503645, -901172.1, 32210.611, 0.0, 10.000488, 9.999193 
5.500339e+1, 2.1475826e+2, -791037.9, -906543.94, -4622.0435, -0.013636566, 0.15623225, -790853.25, 44529.324, 0.0, 10.00065, 9.999149 
5.500251e+1, 2.2475721e+2, -774741.5, -932466.56, 8126.9053, -0.0032679194, 0.17716552, -774323.9, -36931.72, 0.0, 10.0004635, 9.9983835 
5.5001956e+1, 2.3475522e+2, -772023.25, -895854.3, 9886.263, 0.012205417, 0.11518603, -771238.94, -131824.36, 0.0, 9.999869, 9.998256 
5.5001265e+1, 2.4475428e+2, -630927.94, -619081.56, 7437.756, -0.005860372, 0.13535887, -615496.6, -74072.42, 0.0, 9.9995, 9.999645 
5.500057e+1, 2.5475425e+2, -571964.0, -543393.56, 23560.223, -0.051066272, 0.12861459, -530126.06, -86703.875, 0.0, 9.999236, 9.9996195 
5.4999524e+1, 2.647538e+2, -506979.4, -506517.25, -50929.305, -0.03592304, 0.1447205, -455818.5, -110393.65, 0.000000016276152, 9.999202, 9.999221 
5.499825e+1, 2.747527e+2, -424848.25, -432169.97, -32017.064, 0.045314442, 0.08839205, -396283.44, -148849.19, 0.00000094951764, 9.999143, 9.999101 
5.4996866e+1, 2.8475183e+2, -352090.75, -392049.94, 6491.6953, 0.039128818, 0.11614166, -351062.56, -201620.03, 0.0000068871877, 9.999203, 9.998657 
5.4995316e+1, 2.947507e+2, -261650.7, -308558.88, 6387.1094, -0.07223174, 0.10394415, -260796.58, -209343.02, 0.00003070153, 9.9991665, 9.998586 
5.4994726e+1, 3.0474937e+2, -89652.414, -41374.625, -14700.159, -0.05737718, 0.044485725, -37250.805, -37250.805, 0.00013855331, 9.999357, 9.999997 
5.4994816e+1, 3.1474882e+2, -82054.51, -70717.65, 72235.56, 0.005060013, -0.041314024, -3928.4504, -3928.4504, 0.0004144919, 9.999472, 9.999741 
6.50123e+1, 1.2476947e+2, -1458286.4, -1653843.0, 102597.625, -0.095935434, 0.015284763, -1414336.6, 302929.5, 0.0019834668, 10.001913, 9.999491 
6.501478e+1, 1.347687e+2, -1401290.4, -1668227.9, 75001.234, 0.11372219, 0.03760544, -1381660.8, 237613.05, 0.001149572, 10.002106, 9.998623 
6.5013987e+1, 1.4476795e+2, -1319881.1, -1588777.3, -14415.68, 0.11767601, 0.1150255, -1319110.5, 202171.23, 0.00048384682, 10.002042, 9.998503 
6.500988e+1, 1.5476497e+2, -1233703.8, -1505278.8, -40204.24, -0.063537605, -0.06754133, -1227877.0, 195435.16, 0.00011744106, 10.002008, 9.998415 
6.500825e+1, 1.6476414e+2, -1130491.8, -1372352.0, 48955.523, -0.082771584, -0.0030562605, -1120958.4, 204362.86, 0.000008467286, 10.001886, 9.99872 
6.500962e+1, 1.7476492e+2, -1094245.8, -1310422.0, 32489.393, 0.087749824, 0.17194079, -1089468.5, 137845.13, 0.000000004638606, 10.001492, 9.998663 
6.5009236e+1, 1.8476425e+2, -1075632.0, -1303374.6, 17234.238, 0.13189542, 0.26740792, -1074335.1, 54987.3, 0.0, 10.001185, 9.998181 
6.500682e+1, 1.9476181e+2, -1021095.25, -1238705.6, 23669.441, 0.024508934, 0.1762014, -1018550.5, 12800.384, 0.0, 10.000932, 9.998081 
6.500528e+1, 2.0476015e+2, -834451.25, -979244.56, 54753.84, -0.01296052, 0.1573464, -816077.5, 117289.64, 0.0, 10.00103, 9.999137 
6.5004677e+1, 2.1475919e+2, -693448.8, -863274.8, 21039.252, 0.025244234, 0.113815404, -690881.1, 144490.7, 0.0, 10.001342, 9.999105 
6.5003663e+1, 2.2475821e+2, -700677.25, -909571.9, 8769.5205, 0.04889792, 0.15064174, -700309.75, 37071.625, 0.0, 10.001015, 9.998279 
6.500228e+1, 2.3475705e+2, -764703.8, -900824.94, -3082.6106, 0.06372196, 0.17687191, -764634.06, -125236.16, 0.0, 9.999945, 9.998183 
6.500118e+1, 2.4475619e+2, -649023.7, -649504.2, 50525.297, 0.04851253, 0.21678905, -598738.06, -57330.33, 0.0, 9.999451, 9.999483 
6.500048e+1, 2.5475547e+2, -535012.3, -544570.2, 19876.225, 0.012791669, 0.16129072, -519348.6, -75936.336, 0.0, 9.999553, 9.999482 
6.499933e+1, 2.647546e+2, -467054.0, -477020.25, -42097.258, 0.022333408, 0.14244838, -429645.97, -84227.484, 0.00000000394634, 9.999436, 9.999316 
6.499775e+1, 2.7475357e+2, -405788.34, -405462.6, -54016.67, 0.08854414, 0.07592303, -351608.53, -104181.266, 0.0000007712445, 9.999218, 9.999239 
6.499653e+1, 2.8475282e+2, -354115.8, -401161.8, 34637.137, 0.095685676, 0.11497196, -335769.22, -186335.58, 0.000006042053, 9.999225, 9.998584 
6.4995766e+1, 2.9475197e+2, -233528.16, -291054.5, 29190.682, 0.059659295, 0.13641094, -221310.64, -169868.89, 0.000026519589, 9.999363, 9.998601 
6.4994776e+1, 3.0474982e+2, -98552.664, -13900.06, 28535.848, 0.036674425, -0.022945851, -5179.222, -5179.222, 0.00012024143, 9.999148, 10.000294 
6.499396e+1, 3.147499e+2, -215320.94, -83859.59, 30505.889, 0.050455827, -0.06115109, -77125.58, -77125.58, 0.00036921015, 9.998305, 10.000238 
7.501706e+1, 1.2477185e+2, -1483365.0, -1711152.9, 49835.45, 0.10097036, -0.014778564, -1472939.3, 244300.06, 0.0018629195, 10.0019455, 9.999075 
7.501534e+1, 1.3477024e+2, -1454069.4, -1787383.1, 88417.37, -0.08664201, 0.0051348447, -1432067.4, 187193.0, 0.0010666472, 10.002147, 9.997786 
7.501358e+1, 1.4477031e+2, -1326552.9, -1588931.6, -33271.38, -0.17349818, 0.20407662, -1322399.6, 198863.05, 0.0004391749, 10.001985, 9.9985285 
7.501261e+1, 1.5476851e+2, -1227612.3, -1503322.8, -24018.213, -0.035676487, 0.1352313, -1225535.5, 197744.6, 0.00010226521, 10.002042, 9.99842 
7.501175e+1, 1.647669e+2, -1147675.3, -1391113.3, 18215.313, 0.038954195, 0.12631159, -1146319.8, 178975.08, 0.000007138289, 10.001821, 9.998619 
7.501111e+1, 1.7476459e+2, -1110144.4, -1332734.9, 30296.166, 0.047711447, 0.0003405268, -1106094.5, 121220.695, 0.00000003688298, 10.001445, 9.998532 
7.500954e+1, 1.847634e+2, -1048359.6, -1229058.5, -6615.0894, 0.008112879, 0.024731725, -1048117.8, 81209.195, 0.0, 10.001101, 9.998739 
7.5007033e+1, 1.947634e+2, -985195.5, -1154160.6, 27952.432, -0.08501878, 0.12045761, -980691.3, 50638.297, 0.0, 10.000885, 9.998688 
7.500586e+1, 2.0476258e+2, -884788.2, -1057905.6, 53704.652, -0.09136779, 0.17641382, -869481.3, 63857.363, 0.0, 10.00092, 9.998649 
7.5006014e+1, 2.147605e+2, -746730.56, -948046.9, 46465.207, -0.010679241, 0.07019547, -736523.56, 98834.43, 0.0, 10.001224, 9.998584 
7.500488e+1, 2.2475933e+2, -712442.44, -903812.94, -42448.94, 0.03732518, 0.108861, -703449.2, 33922.223, 0.0, 10.000886, 9.998379 
7.5002396e+1, 2.3475897e+2, -778268.6, -897372.94, -27268.26, 0.047013022, 0.20254487, -772322.56, -132942.56, 0.0, 9.999801, 9.998281 
7.500079e+1, 2.447584e+2, -690372.3, -712710.5, 40667.777, 0.035765387, 0.28372747, -659367.75, -117979.94, 0.0, 9.999355, 9.999091 
7.500025e+1, 2.5475726e+2, -586375.5, -620290.9, 38232.13, 0.00080764794, 0.22588003, -561509.06, -118110.95, 0.0, 9.9994135, 9.99903 
7.499886e+1, 2.6475617e+2, -480376.5, -478847.56, -63098.63, 0.0007279044, 0.20748253, -416508.75, -71101.54, 0.00000000015133415, 9.999337, 9.999347 
7.499678e+1, 2.7475512e+2, -423748.3, -411333.5, -44047.586, 0.03204355, 0.1367327, -373058.1, -125642.63, 0.00000065427645, 9.999087, 9.999259 
7.4995947e+1, 2.847545e+2, -334677.6, -354301.94, 27321.146, 0.079202294, 0.17002182, -315460.06, -166040.45, 0.0000058927376, 9.999189, 9.998926 
7.4996305e+1, 2.9475376e+2, -219874.02, -241601.02, 52321.695, 0.13405615, 0.16655228, -177299.94, -125874.84, 0.000025865007, 9.999254, 9.999003 
7.4994606e+1, 3.047519e+2, -123379.94, -45102.504, -5061.675, 0.06990494, 0.023617234, -44776.56, -44776.56, 0.00011203884, 9.999075, 10.000104 
7.499169e+1, 3.147516e+2, -225428.03, -66285.06, 45324.367, -0.07822586, -0.03513211, -54281.883, -54281.883, 0.00034091447, 9.998146, 10.000427 
8.5019356e+1, 1.2477414e+2, -1542956.0, -1707110.9, -11686.855, 0.17967132, 0.07478242, -1542128.1, 175092.44, 0.0017451695, 10.001416, 9.999347 
8.501762e+1, 1.3477223e+2, -1576027.3, -1843615.3, 28253.484, -0.01381759, 0.06676836, -1573076.6, 46168.05, 0.0009891815, 10.001322, 9.997786 
8.5015756e+1, 1.4477241e+2, -1397931.4, -1601100.1, -11031.238, -0.10983144, 0.26627415, -1397334.3, 123910.77, 0.000399723, 10.001372, 9.998754 
8.50148e+1, 1.5477082e+2, -1260816.8, -1495221.8, -18522.387, 0.0072090314, 0.19825928, -1259362.3, 163896.97, 0.00008899464, 10.001704, 9.998641 
8.5013735e+1, 1.6476904e+2, -1159298.1, -1397021.5, 44691.586, 0.06908352, 0.16253267, -1151173.9, 174100.9, 0.000006071428, 10.001751, 9.99861 
8.501268e+1, 1.747661e+2, -1125009.4, -1336074.0, 32983.902, 0.0771049, -0.026125299, -1119974.9, 107326.086, 0.000000076650345, 10.00134, 9.998553 
8.5010964e+1, 1.847647e+2, -1001314.06, -1181099.3, 32775.813, 0.040970486, -0.03573703, -995525.25, 133788.34, 0.0, 10.0013075, 9.998973 
8.500863e+1, 1.9476503e+2, -871512.94, -1073403.3, 14839.992, -0.037710734, 0.07092807, -870427.94, 160882.75, 0.0, 10.001549, 9.998922 
8.500729e+1, 2.047645e+2, -855903.0, -1051576.3, 49514.668, -0.042936187, 0.14765361, -844087.0, 89230.02, 0.0, 10.001157, 9.998578 
8.500691e+1, 2.1476272e+2, -927100.44, -1046297.5, 42410.355, 0.02499901, 0.082018375, -913551.0, -78214.72, 0.0, 10.000037, 9.998485 
8.500545e+1, 2.247616e+2, -834041.9, -926875.6, 13128.93, 0.06330069, 0.11964064, -832220.8, -94871.625, 0.0, 9.999913, 9.998681 
8.5002923e+1, 2.3476118e+2, -607681.6, -776811.06, 15175.139, 0.07711312, 0.17698893, -606330.9, 33025.164, 0.0, 10.000828, 9.998603 
8.500107e+1, 2.4476045e+2, -501937.8, -648352.25, 107368.766, 0.065849066, 0.23699917, -445193.7, 96171.16, 0.0, 10.000759, 9.998845 
8.5000014e+1, 2.5475916e+2, -568767.7, -637259.1, 88375.71, 0.034997955, 0.19061993, -508234.53, -64856.637, 0.0, 9.99966, 9.99878 
8.499845e+1, 2.6475823e+2, -466724.47, -491551.84, 45234.38, 0.029241705, 0.2060593, -432231.34, -86844.68, 0.0000000019213902, 9.999472, 9.99921 
8.4996605e+1, 2.7475753e+2, -291562.22, -363351.2, 22820.688, 0.069319144, 0.17911014, -284922.03, -37529.418, 0.0000006294421, 10.000028, 9.999151 
8.4995806e+1, 2.8475678e+2, -235167.19, -278551.1, 93216.8, 0.12775105, 0.18999663, -161151.7, -11753.332, 0.0000062489003, 9.999749, 9.999176 
8.4995997e+1, 2.9475558e+2, -255143.88, -225616.38, 82741.53, 0.21068859, 0.118344724, -156331.75, -104924.555, 0.000027811611, 9.998873, 9.999292 
8.4993887e+1, 3.0475506e+2, -208669.89, -124466.61, 44923.14, 0.12749487, 0.112431996, -105000.1, -105000.1, 0.00011222166, 9.99863, 9.999788 
8.4990865e+1, 3.1475392e+2, -181826.9, -34219.21, 34366.31, 0.030705042, -0.0026968883, -26610.215, -26610.215, 0.00032900518, 9.998397, 10.000518 
9.5018226e+1, 1.24776535e+2, -1487581.1, -1581641.3, -65934.234, -0.15402797, 0.29513296, -1453622.6, 263585.56, 0.0016362383, 10.001369, 10.000229 
9.5021033e+1, 1.3477458e+2, -1511038.4, -1734588.9, 37583.15, 0.1508476, 0.21062784, -1504889.0, 114337.766, 0.0009229167, 10.001421, 9.998488 
9.5020056e+1, 1.4477424e+2, -1369004.6, -1535760.8, -13655.218, 0.13923138, 0.2981229, -1367893.9, 153335.05, 0.00036888671, 10.001353, 9.999208 
9.5015985e+1, 1.5477204e+2, -1232717.3, -1438792.3, 10671.818, -0.08677284, 0.12665117, -1232166.0, 191082.16, 0.00007923838, 10.00171, 9.999026 
9.5013845e+1, 1.6477071e+2, -1161929.1, -1390187.3, 17394.986, -0.1296442, 0.11354739, -1160611.1, 164648.45, 0.0000051224774, 10.001693, 9.998688 
9.5013833e+1, 1.7476952e+2, -1119051.5, -1324748.4, 34100.48, 0.018630426, 0.09175234, -1113545.6, 113724.5, 0.00000007826353, 10.001339, 9.998633 
9.5013e+1, 1.8476817e+2, -1021027.56, -1206054.3, 28225.885, 0.08059417, 0.09179488, -1016817.5, 112464.14, 0.0, 10.001235, 9.998836 
9.5011175e+1, 1.947667e+2, -892477.6, -1099974.4, 39198.824, 0.02607934, 0.023854245, -885319.44, 145974.69, 0.0, 10.0014715, 9.998776 
9.500916e+1, 2.0476595e+2, -856571.75, -1026408.0, -5138.6245, -0.0040026256, 0.075722784, -856416.44, 76885.43, 0.0, 10.001035, 9.998813 
9.500687e+1, 2.1476568e+2, -927202.44, -1019402.0, 16275.333, -0.016182097, 0.136773, -924413.8, -89106.0, 0.0, 9.999914, 9.998732 
9.500488e+1, 2.2476494e+2, -819336.56, -868224.56, 34440.05, -0.018126884, 0.1740377, -801547.56, -64231.62, 0.0, 9.999791, 9.99914 
9.5003337e+1, 2.3476346e+2, -592738.5, -722308.2, 62407.61, 0.0009903015, 0.07717024, -567569.0, 71759.47, 0.0, 10.000714, 9.999035 
9.500152e+1, 2.4476221e+2, -521967.53, -665181.75, 54263.027, 0.0024574022, 0.06717543, -503730.03, 37610.37, 0.0, 10.00065, 9.998783 
9.4999385e+1, 2.5476104e+2, -586102.7, -657209.9, 65515.535, -0.031433765, 0.03776438, -547115.4, -103761.95, 0.0, 9.999575, 9.998691 
9.499771e+1, 2.6476058e+2, -496807.66, -530228.8, 51431.242, -0.0236483, 0.114075035, -459440.34, -114080.86, 0.0000000017799018, 9.999384, 9.998979 
9.4996697e+1, 2.747606e+2, -328855.1, -409022.25, 56592.26, 0.04030576, 0.18370643, -299589.0, -52228.41, 0.0000005677249, 9.999895, 9.998897 
9.4995576e+1, 2.8475958e+2, -235201.84, -265835.53, 45358.5, 0.09512664, 0.1786543, -202643.86, -53273.836, 0.0000064583187, 9.999694, 9.999288 
9.4994324e+1, 2.947574e+2, -269612.53, -226742.03, 74971.33, 0.11464642, -0.01021525, -170201.83, -118812.91, 0.000029725905, 9.998744, 9.999347 
9.499218e+1, 3.0475938e+2, -238944.63, -172427.44, 31937.473, 0.061194014, 0.24444214, -159576.0, -159576.0, 0.0001135958, 9.9985695, 9.999478 
9.4990486e+1, 3.1475708e+2, -210811.61, -62572.79, 60965.383, 0.07888182, 0.04800303, -40721.03, -40721.03, 0.00032168903, 9.998259, 10.000388 
1.0501969e+2, 1.2477797e+2, -1303462.5, -1449629.1, 48609.47, -0.17787823, 0.2723051, -1288773.1, 428421.47, 0.0015480418, 10.002421, 10.000639 
1.0502282e+2, 1.3477626e+2, -1500091.9, -1675025.6, 81418.195, 0.20960863, 0.167862, -1468062.4, 151145.95, 0.00087241904, 10.001257, 9.99898 
1.0502218e+2, 1.4477599e+2, -1419713.5, -1531644.9, 90706.27, 0.24906059, 0.22168683, -1369096.9, 152111.95, 0.0003471946, 10.000902, 9.999443 
1.0501807e+2, 1.547743e+2, -1241414.9, -1429125.1, 66043.375, -0.029950714, 0.087604396, -1220507.1, 202717.02, 0.000073446034, 10.001592, 9.999151 
1.0501567e+2, 1.647734e+2, -1147070.9, -1390350.8, 61133.742, -0.11371706, 0.11638533, -1132572.6, 192660.06, 0.000004420773, 10.001834, 9.9986105 
1.05015345e+2, 1.7477272e+2, -1093389.1, -1325771.5, 34750.797, 0.03271342, 0.152654, -1088303.8, 138937.1, 0.000000050630582, 10.001579, 9.998508 
1.0501455e+2, 1.8477145e+2, -969969.6, -1157121.8, 76622.86, 0.106497124, 0.15649982, -942601.3, 186650.39, 0.0, 10.001495, 9.999038 
1.05013154e+2, 1.9476959e+2, -889850.94, -1072694.4, 80159.984, 0.09043256, 0.029358227, -859685.0, 171580.69, 0.0, 10.001396, 9.998989 
1.05010845e+2, 2.0476869e+2, -817279.94, -1000929.06, 43116.1, 0.05795533, 0.05327232, -807661.1, 125612.695, 0.0, 10.001281, 9.998868 
1.0500757e+2, 2.147686e+2, -764234.56, -932620.75, 19468.037, 0.017185826, 0.12625578, -762013.06, 73265.23, 0.0, 10.001002, 9.998801 
1.0500523e+2, 2.2476786e+2, -674554.9, -792047.5, 80384.22, -0.0027763643, 0.15807645, -633738.4, 103547.65, 0.0, 10.0007515, 9.999215 
1.05004005e+2, 2.3476629e+2, -615314.9, -722942.44, 52001.832, 0.015758822, 0.049969055, -594294.75, 45003.81, 0.0, 10.0005245, 9.999129 
1.05002075e+2, 2.4476507e+2, -569665.25, -682877.4, 23819.285, 0.017864184, 0.035604853, -564857.9, -23547.908, 0.0, 10.000303, 9.998832 
1.0499947e+2, 2.5476402e+2, -517811.7, -615733.1, 16579.154, 0.00443196, 0.012404855, -515080.8, -71758.61, 0.0, 10.000025, 9.998754 
1.0499766e+2, 2.647637e+2, -432982.4, -493049.66, 76318.05, 0.020475052, 0.09736695, -381001.03, -35674.09, 0.00000000014537505, 9.999817, 9.999018 
1.0499698e+2, 2.7476388e+2, -347828.8, -414097.22, 73050.266, 0.09473387, 0.18127938, -300749.44, -53423.04, 0.00000042821608, 9.999769, 9.998916 
1.0499564e+2, 2.847626e+2, -241744.8, -300309.13, 59815.066, 0.13691793, 0.1616843, -204429.02, -55089.32, 0.0000059800022, 9.999763, 9.99903 
1.049936e+2, 2.9475984e+2, -157200.06, -209186.1, 25415.697, 0.13426718, -0.060415637, -146839.33, -95472.54, 0.000029321069, 9.999657, 9.999038 
1.0499116e+2, 3.0476296e+2, -175354.08, -134752.89, 5675.9194, 0.09385248, 0.3258738, -133974.34, -133974.34, 0.000109980174, 9.998984, 9.999536 
1.04989275e+2, 3.1476045e+2, -279992.84, -64354.566, 5162.0625, 0.1769477, 0.0938286, -64231.066, -64231.066, 0.0003078243, 9.997647, 10.000673 
1.1502276e+2, 1.2477829e+2, -1303502.9, -1465140.9, -48678.21, -0.19644763, 0.00045474325, -1289975.3, 427206.47, 0.0014882531, 10.002474, 10.000514 
1.1502253e+2, 1.3477716e+2, -1474488.1, -1633392.1, 46406.094, 0.015146495, -0.06727424, -1461928.4, 157261.86, 0.000840427, 10.0013, 9.999245 
1.1502175e+2, 1.4477749e+2, -1432713.4, -1540691.1, 97481.99, 0.07430986, 0.032655317, -1375268.3, 145918.31, 0.00033535642, 10.000824, 9.999419 
1.1502039e+2, 1.5477756e+2, -1244259.5, -1432724.4, 110641.2, 0.00063881406, 0.075570315, -1193160.5, 230026.86, 0.0000716502, 10.001594, 9.999119 
1.1501871e+2, 1.6477714e+2, -1171696.9, -1436163.3, 39096.215, -0.032026306, 0.17044184, -1166038.4, 159155.73, 0.0000041980056, 10.0018015, 9.998318 
1.1501686e+2, 1.7477562e+2, -1113641.1, -1363649.0, 39092.992, -0.011340322, 0.14870167, -1107670.9, 119542.875, 0.000000024917117, 10.00156, 9.998258 
1.1501532e+2, 1.8477449e+2, -954878.25, -1095587.1, 58662.55, 0.0039768335, 0.15506017, -933630.06, 195594.2, 0.0, 10.0013685, 9.999525 
1.1501405e+2, 1.9477364e+2, -864427.94, -1002856.8, 91204.375, 0.0011559495, 0.08356904, -819148.4, 212077.81, 0.0, 10.001324, 9.999505 
1.1501185e+2, 2.0477273e+2, -845512.25, -1033108.56, 17347.414, -0.000884556, 0.08399017, -843921.56, 89311.65, 0.0, 10.001163, 9.998706 
1.1500856e+2, 2.1477132e+2, -795440.94, -967993.1, 20780.484, -0.014561998, 0.04178115, -792973.6, 42275.49, 0.0, 10.00087, 9.998625 
1.15006074e+2, 2.2477037e+2, -717978.94, -848271.25, 57669.543, -0.02048172, 0.07691902, -696120.5, 41139.348, 0.0, 10.000611, 9.998894 
1.1500449e+2, 2.3476967e+2, -656812.2, -778700.8, 58689.75, -0.020765183, 0.08486145, -633147.44, 6119.54, 0.0, 10.000385, 9.998815 
1.1500235e+2, 2.4476896e+2, -577581.5, -668856.9, -476.76678, -0.015659139, 0.1317154, -577579.0, -36304.477, 0.0, 10.000183, 9.998982 
1.14999704e+2, 2.5476804e+2, -526407.3, -601005.75, 17206.227, -0.0063663498, 0.10707569, -522629.94, -79345.35, 0.0, 9.999888, 9.998919 
1.1499788e+2, 2.647676e+2, -422056.78, -455496.8, 62000.242, 0.030540856, 0.15691295, -374561.63, -29272.525, 0.0, 9.999748, 9.999315 
1.1499702e+2, 2.7476734e+2, -342883.2, -379092.9, 89994.055, 0.087656945, 0.1689896, -269190.9, -21900.28, 0.0000002594802, 9.999651, 9.999222 
1.1499552e+2, 2.8476572e+2, -299116.94, -397736.47, 44559.496, 0.115123905, 0.1316652, -281966.16, -132657.95, 0.000005001763, 9.999679, 9.998401 
1.1499334e+2, 2.9476282e+2, -235179.97, -333941.8, 35838.188, 0.102475494, -0.034960486, -223545.72, -172204.08, 0.000026475647, 9.999503, 9.998257 
1.1499037e+2, 3.0476585e+2, -153871.8, -68507.805, -46468.87, 0.085578755, 0.36336082, -48093.77, -48093.77, 0.000100772006, 9.998913, 10.000017 
1.14986286e+2, 3.1476387e+2, -246486.67, 38350.047, -8488.391, 0.039386462, 0.12432509, 38602.78, 38602.78, 0.00028477798, 9.997516, 10.00144 
1.2502573e+2, 1.2478091e+2, -1586077.3, -1654220.4, -24904.96, -0.048768137, -0.041650493, -1577945.4, 139207.0, 0.0014562852, 10.000786, 10.000014 
1.250238e+2, 1.3477989e+2, -1419566.3, -1628204.3, -11522.274, 0.00448265, -0.076860204, -1418931.9, 200229.81, 0.0008261713, 10.001772, 9.999053 
1.2502265e+2, 1.4478011e+2, -1272024.5, -1448639.3, 75207.78, 0.044404715, 0.01536922, -1244338.8, 276820.9, 0.00033346904, 10.001862, 9.999551 
1.250222e+2, 1.5478048e+2, -1276295.9, -1434057.6, 64137.746, 0.047391284, 0.074827075, -1253511.4, 169645.83, 0.00007407354, 10.001309, 9.999244 
1.2502089e+2, 1.647802e+2, -1279233.8, -1472951.5, 31913.93, 0.055108216, 0.16755375, -1274111.6, 51051.277, 0.000004716059, 10.000985, 9.99847 
1.250187e+2, 1.7477871e+2, -1219454.8, -1401431.0, 36742.95, 0.06688903, 0.13944802, -1212316.0, 14866.44, 0.000000012759114, 10.000756, 9.998401 
1.2501672e+2, 1.8477763e+2, -1066788.0, -1149326.4, 90750.766, 0.057068232, 0.1432538, -1008363.4, 120829.89, 0.0, 10.000592, 9.999523 
1.2501502e+2, 1.9477698e+2, -996852.7, -1070490.3, 54582.56, 0.020864204, 0.08881492, -967831.7, 63363.03, 0.0, 10.0004225, 9.9994755 
1.2501277e+2, 2.047761e+2, -914040.4, -1048318.9, 6760.175, 0.0100651765, 0.08841813, -913700.9, 19500.234, 0.0, 10.000622, 9.998857 
1.2500988e+2, 2.1477471e+2, -746832.94, -926511.1, 5917.7544, 0.026123514, 0.034522936, -746638.25, 88577.125, 0.0, 10.001132, 9.998776 
1.2500729e+2, 2.247738e+2, -652941.56, -832389.1, 70449.0, 0.024813507, 0.070294775, -628588.94, 108636.83, 0.0, 10.00112, 9.99875 
1.2500514e+2, 2.3477319e+2, -646087.25, -785649.56, 55515.836, 0.009199443, 0.10331529, -626697.7, 12535.542, 0.0, 10.000529, 9.998682 
1.2500273e+2, 2.4477254e+2, -554754.3, -647711.94, 41084.992, 0.008413609, 0.15534945, -539198.8, 2041.4302, 0.0, 10.00029, 9.999078 
1.2500024e+2, 2.547716e+2, -437689.8, -551452.9, 26519.168, 0.040251754, 0.12011385, -431811.7, 11437.236, 0.0, 10.000453, 9.998996 
1.2499824e+2, 2.647709e+2, -371788.78, -461171.56, 64166.34, 0.07739851, 0.15675128, -338284.03, 6971.3486, 0.0, 10.000226, 9.999037 
1.249969e+2, 2.747702e+2, -371715.5, -421661.97, 17501.732, 0.124495044, 0.15092933, -366193.28, -118930.65, 0.00000012209664, 9.9995985, 9.99894 
1.24994986e+2, 2.8476882e+2, -362071.9, -393415.25, 18791.01, 0.13513117, 0.13504635, -353275.16, -203996.48, 0.000003888246, 9.999111, 9.998697 
1.24992706e+2, 2.947669e+2, -319841.47, -334975.63, 54146.266, 0.13804866, 0.03454172, -272736.06, -221433.97, 0.00002250982, 9.998765, 9.998596 
1.24989696e+2, 3.0476898e+2, -161285.06, -91836.195, 26938.324, 0.1408802, 0.32847238, -82612.25, -82612.25, 0.000088219014, 9.9988985, 9.999893 
1.2498477e+2, 3.1476742e+2, 3679.7104, 145391.78, -48309.945, 0.065860614, 0.1371622, 160293.7, 160293.7, 0.00025421134, 9.999286, 10.00133 
1.350277e+2, 1.2478564e+2, -1659202.9, -1798791.0, -45538.41, -0.007152571, 0.12789132, -1645660.5, 71447.914, 0.0014504807, 10.000753, 9.999039 
1.3502605e+2, 1.3478446e+2, -1453881.3, -1706971.1, 36559.992, 0.01194464, 0.13261779, -1448705.8, 170416.77, 0.0008289551, 10.001812, 9.998488 
1.3502437e+2, 1.4478399e+2, -1255708.1, -1422347.6, 36515.06, -0.014871651, 0.174885, -1248058.0, 273069.34, 0.0003411424, 10.00188, 9.999727 
1.3502316e+2, 1.5478306e+2, -1265057.8, -1406466.5, 57751.37, -0.025587501, 0.08471606, -1244469.6, 178664.44, 0.00008049032, 10.001282, 9.999453 
1.3502175e+2, 1.6478254e+2, -1255151.0, -1389861.3, 7344.9995, 0.010651363, 0.11224313, -1254751.8, 70387.45, 0.0000062176173, 10.000856, 9.999096 
1.3502021e+2, 1.7478201e+2, -1184978.9, -1315019.3, 45618.84, 0.10806282, 0.120276466, -1170571.8, 56575.086, 0.000000017143847, 10.000708, 9.999009 
1.3501815e+2, 1.8478106e+2, -1111728.1, -1231676.8, 71280.6, 0.1028903, 0.13066433, -1078547.5, 50609.633, 0.0, 10.000529, 9.998994 
1.3501547e+2, 1.9477952e+2, -1045017.3, -1154711.1, 64449.023, -0.014692739, 0.039639976, -1015236.44, 15934.875, 0.0, 10.000347, 9.998934 
1.350131e+2, 2.047788e+2, -900434.8, -994554.6, 9512.309, -0.048186205, 0.06455878, -899483.06, 33694.445, 0.0, 10.000506, 9.999286 
1.35011e+2, 2.1477874e+2, -735811.7, -869437.25, 41332.35, -0.008673542, 0.09442173, -724060.44, 111117.11, 0.0, 10.000981, 9.999244 
1.3500847e+2, 2.2477815e+2, -670030.94, -841252.1, 34518.914, -0.003304839, 0.14198191, -663333.75, 73849.805, 0.0, 10.000996, 9.998752 
1.3500541e+2, 2.3477681e+2, -664659.6, -794701.44, 48154.625, -0.049134295, 0.09719595, -648769.56, -9571.466, 0.0, 10.000393, 9.998686 
1.3500278e+2, 2.4477568e+2, -564987.1, -647476.44, 33395.805, -0.047714308, 0.0993465, -553162.0, -11953.656, 0.0, 10.000195, 9.9991255 
1.3500065e+2, 2.5477463e+2, -454013.47, -554119.44, 49334.164, 0.0011362481, 0.046439204, -433787.28, 9428.223, 0.0, 10.000317, 9.999042 
1.3499837e+2, 2.6477364e+2, -448887.78, -600428.1, 27193.537, 0.03398303, 0.095019735, -444155.75, -98929.64, 0.0, 10.000141, 9.998117 
1.3499606e+2, 2.7477238e+2, -455603.44, -564094.6, 7831.509, 0.04435768, 0.1246689, -455041.03, -207797.27, 0.000000046518082, 9.999466, 9.998022 
1.3499366e+2, 2.8477174e+2, -275205.78, -206618.45, -7784.3857, 0.05485506, 0.16691124, -205746.05, -56493.703, 0.0000029362805, 9.999078, 9.999996 
1.3499123e+2, 2.9477182e+2, -234075.48, -137493.6, 58858.74, 0.07206257, 0.12971647, -109650.664, -58400.203, 0.000019015239, 9.998668, 10.000004 
1.349886e+2, 3.047723e+2, -219373.13, -189098.7, 32158.797, 0.115402974, 0.21617417, -168692.66, -168692.66, 0.000075927965, 9.9988165, 9.999255 
1.3498384e+2, 3.1477088e+2, -92687.57, -20289.637, 9191.89, -0.029011203, 0.12031014, -19140.832, -19140.832, 0.0002226974, 9.9991455, 10.000257 
1.4503016e+2, 1.2478851e+2, -1388714.0, -1695551.1, -25987.875, 0.0832876, 0.1412444, -1386528.5, 330553.03, 0.0014659849, 10.002747, 9.998782 
1.4502804e+2, 1.3478766e+2, -1396624.4, -1669925.0, 48264.926, 0.024412453, 0.16987847, -1388351.3, 230740.81, 0.0008466132, 10.002174, 9.998558 
1.4502622e+2, 1.4478718e+2, -1325803.4, -1484897.6, 65475.094, 0.008841107, 0.22000088, -1302322.8, 218774.16, 0.00035647568, 10.001515, 9.999479 
1.4502466e+2, 1.5478526e+2, -1338487.5, -1466404.8, 22672.031, 0.027260823, 0.056778558, -1334588.0, 88525.414, 0.00008921642, 10.000878, 9.999238 
1.4502282e+2, 1.6478464e+2, -1248456.3, -1333114.9, 8821.44, 0.055040292, 0.059905853, -1247546.9, 77571.97, 0.000008328298, 10.0006695, 9.999573 
1.4502096e+2, 1.7478508e+2, -1123126.5, -1230831.1, 5718.612, 0.11073944, 0.11134154, -1122823.8, 104291.58, 0.0000000715251, 10.000891, 9.999499 
1.4501885e+2, 1.8478462e+2, -1065056.4, -1214588.3, 59647.766, 0.109403364, 0.14986183, -1044178.2, 84942.61, 0.0, 10.000879, 9.998954 
1.4501631e+2, 1.9478299e+2, -1017086.56, -1152123.1, 58056.254, 0.03406273, 0.061949752, -995558.5, 35579.504, 0.0, 10.000576, 9.99886 
1.4501393e+2, 2.047823e+2, -909349.94, -979582.56, 56066.72, -0.0011543747, 0.08556255, -878310.1, 54834.543, 0.0, 10.000361, 9.9994545 
1.4501163e+2, 2.1478248e+2, -843853.6, -902642.1, 34575.887, 0.0071498305, 0.12034854, -827866.0, 7275.538, 0.0, 10.000163, 9.999405 
1.450091e+2, 2.247819e+2, -770603.06, -889826.3, 38233.152, 0.0024609626, 0.16035524, -759395.75, -22248.662, 0.0, 10.000318, 9.998745 
1.4500633e+2, 2.3478027e+2, -596090.1, -767819.8, 16934.408, -0.01207532, 0.09204864, -594436.1, 44728.387, 0.0, 10.000889, 9.998641 
1.450037e+2, 2.4477898e+2, -448638.3, -598167.6, 22314.523, -0.0075565074, 0.08350894, -445379.3, 95796.76, 0.0, 10.0010195, 9.999071 
1.4500125e+2, 2.5477788e+2, -401081.63, -532686.4, 608.205, 0.022508712, 0.032420024, -401078.8, 42104.066, 0.0, 10.000703, 9.9990015 
1.4499867e+2, 2.6477677e+2, -394412.9, -579738.4, 27665.67, 0.039341703, 0.07226485, -390371.06, -45176.895, 0.0, 10.00053, 9.998082 
1.4499597e+2, 2.7477536e+2, -302890.8, -499886.88, 46536.047, 0.046219174, 0.09574314, -292450.94, -45238.223, 0.00000002138944, 10.000534, 9.997968 
1.4499307e+2, 2.8477475e+2, -157203.8, -181187.39, 21706.697, 0.051506087, 0.15672173, -144396.73, 4824.768, 0.0000023054517, 10.000014, 9.999721 
1.449901e+2, 2.947751e+2, -200521.0, -139257.67, -71837.914, 0.08583243, 0.16983123, -91793.336, -40575.098, 0.000016570593, 9.998985, 9.999826 
1.449878e+2, 3.0477473e+2, -218718.05, -168789.55, -54992.99, 0.17101687, 0.17357597, -133359.73, -133359.73, 0.0000664134, 9.998755, 9.999414 
1.4498375e+2, 3.147737e+2, -94802.06, -15689.814, -62104.7, 0.0668147, 0.10898049, 18386.123, 18386.123, 0.0001967113, 9.999119, 10.0002985 
1.5503234e+2, 1.2478995e+2, -1350091.4, -1640591.8, -100496.99, -0.057513714, 0.03600836, -1318714.1, 398353.47, 0.0014879738, 10.002833, 9.999132 
1.5502936e+2, 1.3478957e+2, -1351679.8, -1581088.4, 33387.875, -0.10037305, 0.05198642, -1346919.3, 272150.16, 0.0008684092, 10.002184, 9.999174 
1.5502763e+2, 1.4478968e+2, -1371515.4, -1564933.4, 22706.186, -0.04074315, 0.15755303, -1368885.5, 152182.66, 0.00037251608, 10.00146, 9.998951 
1.5502611e+2, 1.547872e+2, -1384742.8, -1548140.3, 14683.897, 0.04518698, -0.006960021, -1383433.6, 39660.723, 0.00009664872, 10.00083, 9.9986925 
1.5502375e+2, 1.647867e+2, -1235534.9, -1292674.3, 2593.6006, 0.04429618, 0.019819263, -1235417.4, 89682.71, 0.000009881803, 10.000605, 9.999887 
1.5502055e+2, 1.7478804e+2, -1110148.8, -1186471.4, 30823.781, -0.052815262, 0.12884536, -1099255.1, 127831.31, 0.00000020107916, 10.000815, 9.999844 
1.5501834e+2, 1.8478836e+2, -1051321.5, -1166576.6, 33808.434, -0.0599562, 0.21055973, -1042136.3, 86947.375, 0.0, 10.000792, 9.999327 
1.550171e+2, 1.9478737e+2, -1005269.5, -1104387.9, 63221.586, 0.021454047, 0.14846718, -974497.56, 56597.43, 0.0, 10.000484, 9.9992285 
1.5501481e+2, 2.0478663e+2, -934687.06, -1005707.3, 35782.156, 0.018616786, 0.15234193, -919785.56, 13316.863, 0.0, 10.000241, 9.999338 
1.5501125e+2, 2.1478596e+2, -873347.6, -928009.75, 41517.49, -0.079648234, 0.11837374, -850972.6, -15865.487, 0.0, 10.000011, 9.999304 
1.5500878e+2, 2.2478503e+2, -797408.1, -919858.75, 44332.574, -0.09095479, 0.13427643, -783043.0, -45926.746, 0.0, 10.000198, 9.9986 
1.5500751e+2, 2.3478355e+2, -625489.2, -799699.8, 53910.918, -0.014791072, 0.09312644, -610155.6, 28977.107, 0.0, 10.000754, 9.998489 
1.550051e+2, 2.4478236e+2, -472016.0, -625344.2, -3973.1577, -0.0022628002, 0.10962619, -471913.13, 69230.69, 0.0, 10.000925, 9.998929 
1.5500158e+2, 2.5478125e+2, -432456.2, -567580.06, 5309.059, -0.047508933, 0.070471846, -432247.94, 10904.065, 0.0, 10.000563, 9.998835 
1.5499865e+2, 2.6478028e+2, -347698.78, -462689.72, 14425.056, -0.048469894, 0.09106961, -345916.84, -757.15857, 0.0, 10.000449, 9.99892 
1.5499622e+2, 2.747791e+2, -266551.0, -395310.0, 65037.215, -0.012641263, 0.053315755, -239417.89, 7752.2803, 0.000000019825112, 10.000406, 9.998747 
1.5499285e+2, 2.8477776e+2, -296644.9, -459895.56, -28024.352, -0.007166894, 0.09670928, -291968.1, -142781.31, 0.0000019865888, 9.999965, 9.997831 
1.5498878e+2, 2.9477647e+2, -344555.13, -418047.88, -92918.33, 0.010901445, 0.13961188, -281380.97, -230173.39, 0.000014949104, 9.998887, 9.997965 
1.5498683e+2, 3.0477628e+2, -161987.53, -26234.916, -52539.89, 0.16904406, 0.20265335, -8276.304, -8276.304, 0.000059797247, 9.998676, 10.000413 
1.5498354e+2, 3.147759e+2, -40445.08, 142050.72, -3288.3152, 0.065680124, 0.09944491, 142109.95, 142109.95, 0.00017773658, 9.99895, 10.001448 
1.6503474e+2, 1.24793895e+2, -1559586.9, -1713894.5, 16587.615, -0.006661516, 0.05827945, -1557823.9, 159204.66, 0.0014964563, 10.001276, 9.999371 
1.6503136e+2, 1.3479243e+2, -1414946.4, -1595832.3, 73102.99, -0.080054864, -0.054156147, -1389096.6, 229941.5, 0.0008776996, 10.00166, 9.999332 
1.6502954e+2, 1.4479284e+2, -1366113.1, -1578625.4, 81806.336, 0.008860258, 0.08136686, -1338269.9, 182763.8, 0.00037921302, 10.001593, 9.998783 
1.6502757e+2, 1.5479107e+2, -1315626.0, -1536125.1, 67223.48, 0.09054906, 0.005725802, -1296747.9, 126307.39, 0.00009882513, 10.001401, 9.998499 
1.6502483e+2, 1.6479045e+2, -1177915.0, -1274126.3, 95253.305, 0.078667544, 0.03626544, -1119309.1, 205753.36, 0.000009884257, 10.001036, 9.999804 
1.650212e+2, 1.7479092e+2, -1173382.3, -1225319.5, 60582.605, -0.040741522, 0.064109065, -1133437.1, 93618.73, 0.0000002904704, 10.000407, 9.999771 
1.6501877e+2, 1.8479107e+2, -1121129.8, -1190930.1, 80118.734, -0.06090094, 0.12883134, -1068639.9, 60414.09, 0.0, 10.000288, 9.99938 
1.6501765e+2, 1.9479068e+2, -964595.75, -1075230.5, 58838.598, 0.025901236, 0.116235316, -939154.25, 91904.95, 0.0, 10.00073, 9.999291 
1.6501541e+2, 2.0479006e+2, -870128.2, -1002863.0, 33123.48, 0.033557426, 0.14205728, -862321.5, 70744.83, 0.0, 10.000831, 9.999068 
1.6501187e+2, 2.1478906e+2, -809299.94, -929659.6, -4535.3877, -0.03866551, 0.104238525, -809129.25, 25947.242, 0.0, 10.000597, 9.999012 
1.6500957e+2, 2.2478805e+2, -770169.5, -889258.2, 43208.15, -0.029899847, 0.12127409, -756144.3, -19057.395, 0.0, 10.000308, 9.998757 
1.6500849e+2, 2.3478694e+2, -733607.8, -827500.56, 47512.996, 0.05901252, 0.0995568, -713760.1, -74661.516, 0.0, 9.999917, 9.998697 
1.6500604e+2, 2.4478583e+2, -633753.25, -703796.44, 32434.225, 0.06375296, 0.11455653, -621041.3, -79932.336, 0.0, 9.999826, 9.998917 
1.6500224e+2, 2.5478458e+2, -498857.6, -593973.1, 18697.867, -0.00535906, 0.06368054, -495313.97, -52194.605, 0.0, 10.000099, 9.998865 
1.6499898e+2, 2.6478365e+2, -380939.5, -449655.56, 38458.363, -0.032652017, 0.074310094, -363727.0, -18601.21, 0.0, 10.000074, 9.999197 
1.6499624e+2, 2.747827e+2, -337855.63, -387721.38, 15448.626, -0.008835114, 0.018158272, -333457.5, -86325.45, 0.000000024295247, 9.999741, 9.9991045 
1.6499269e+2, 2.8478107e+2, -350973.47, -524587.8, -6358.3174, 0.0017517206, 0.033862658, -350740.9, -201590.69, 0.0000019697127, 9.999765, 9.997487 
1.649889e+2, 2.9477915e+2, -159865.3, -361291.8, 17022.56, 0.07529956, 0.055021908, -158436.84, -107259.23, 0.000013995548, 10.00029, 9.997688 
1.6498676e+2, 3.047797e+2, -47242.742, -38233.355, 78135.945, 0.25605348, 0.23034796, 35527.645, 35527.645, 0.000055183133, 9.999709, 9.999851 
1.6498218e+2, 3.1477836e+2, -212970.92, 31564.906, -28840.05, 0.10947637, 0.08691796, 34920.203, 34920.203, 0.00016346599, 9.997838, 10.001237 
1.7503637e+2, 1.2480033e+2, -1551843.5, -1696369.9, -17567.908, -0.046009276, 0.20715438, -1549738.8, 167225.77, 0.0014785845, 10.001265, 9.999494 
1.7503347e+2, 1.3479635e+2, -1440494.5, -1632913.0, 95144.9, -0.07213853, -0.13976151, -1401393.8, 217603.31, 0.00086354057, 10.00161, 9.999088 
1.7503154e+2, 1.4479676e+2, -1365311.5, -1568928.4, 57506.035, 0.0074919458, 0.0044839946, -1350193.0, 170799.22, 0.00037008742, 10.001542, 9.998882 
1.7502858e+2, 1.5479681e+2, -1307280.1, -1512844.6, 76923.055, 0.012916586, 0.09513216, -1281682.6, 141313.61, 0.000094032526, 10.001374, 9.9986725 
1.7502557e+2, 1.6479595e+2, -1213524.8, -1342205.0, 56608.41, 0.014285569, 0.113323435, -1192166.8, 132838.86, 0.000008393363, 10.000998, 9.999362 
1.750224e+2, 1.747938e+2, -1211920.8, -1294597.1, 51801.54, 0.0035382218, -0.07251207, -1186984.9, 40038.086, 0.00000020811186, 10.000361, 9.999318 
1.750197e+2, 1.8479289e+2, -1146818.1, -1228786.1, 82934.51, -0.030389644, -0.08171619, -1095293.6, 33736.695, 0.0, 10.000213, 9.999162 
1.750175e+2, 1.9479305e+2, -995026.7, -1110503.9, 90280.89, -0.09635558, -0.017611261, -945600.06, 85429.29, 0.0, 10.000612, 9.999106 
1.7501527e+2, 2.0479271e+2, -921196.3, -1083350.4, 7645.426, -0.092176795, 0.0709484, -920836.7, 12198.632, 0.0, 10.000711, 9.998576 
1.7501304e+2, 2.1479164e+2, -865862.8, -1015399.6, 1730.3646, -0.011447345, 0.07389623, -865842.8, -30792.115, 0.0, 10.000461, 9.998489 
1.7501092e+2, 2.2479093e+2, -752200.1, -822966.5, 14405.659, 0.0466512, 0.120944254, -749380.0, -12320.594, 0.0, 10.000179, 9.999274 
1.750088e+2, 2.3479035e+2, -716570.5, -760655.3, 47386.273, 0.06784537, 0.10139104, -686350.8, -47287.727, 0.0, 9.999776, 9.999226 
1.7500609e+2, 2.4478938e+2, -642723.2, -701794.1, 28316.418, 0.056868147, 0.09788011, -631342.1, -90270.695, 0.0, 9.999737, 9.998971 
1.7500281e+2, 2.5478783e+2, -519170.8, -602645.25, 42814.645, 0.009039096, 0.012894745, -501115.97, -58030.25, 0.0, 9.999956, 9.998876 
1.749994e+2, 2.6478687e+2, -396913.78, -477366.97, 10469.477, -0.02982641, 0.025800785, -395573.7, -50480.363, 0.0, 10.000041, 9.999023 
1.7499556e+2, 2.7478603e+2, -362037.13, -419312.66, 16097.711, -0.086472206, -0.002639805, -357822.8, -110724.125, 0.000000035492793, 9.99965, 9.998937 
1.749921e+2, 2.8478464e+2, -266529.38, -342151.44, -2945.288, -0.06777073, -0.016801585, -266414.84, -117303.305, 0.0000021240596, 9.999742, 9.998744 
1.7498975e+2, 2.947832e+2, -87661.11, -181957.58, 54405.73, 0.09141615, -0.07877117, -62816.707, -11688.776, 0.000013429294, 10.000179, 9.998962 
1.7498717e+2, 3.0478495e+2, -191922.9, -336082.44, 192.71481, 0.2953727, 0.2520204, -191922.66, -191922.66, 0.000050919698, 9.999694, 9.997816 
1.7497876e+2, 3.1478143e+2, -335966.53, -188044.25, -13523.8545, -0.0889485, 0.10519965, -186818.0, -186818.0, 0.00014908816, 9.997712, 9.999776 
1.8503869e+2, 1.2480476e+2, -1564857.0, -1669155.1, -18600.781, 0.08286016, 0.20351112, -1561639.0, 155281.08, 0.0014297328, 10.001033, 9.999788 
1.8503538e+2, 1.348008e+2, -1522848.3, -1680503.5, 48550.133, -0.00093019544, -0.13323359, -1509096.6, 109856.56, 0.00082590414, 10.001083, 9.99901 
1.850333e+2, 1.4480112e+2, -1456150.8, -1617099.5, 41741.973, 0.07229744, 0.00835979, -1445969.0, 74979.96, 0.00034715154, 10.000926, 9.998844 
1.8502964e+2, 1.5480104e+2, -1397345.3, -1558158.6, 16844.967, 0.02376534, 0.08353195, -1395599.6, 27353.777, 0.0000844504, 10.000747, 9.998668 
1.8502642e+2, 1.6479999e+2, -1271847.8, -1413099.3, 23761.68, 0.017311845, 0.10310926, -1267957.6, 57006.914, 0.000006352812, 10.000817, 9.998944 
1.8502367e+2, 1.7479755e+2, -1109642.3, -1293739.3, -6633.85, 0.055914585, -0.0700663, -1109403.5, 117582.586, 0.000000056960435, 10.001289, 9.998868 
1.8502095e+2, 1.8479627e+2, -993399.3, -1151866.0, 60177.84, 0.028010348, -0.09350962, -973137.5, 155859.14, 0.0, 10.001268, 9.999178 
1.8501815e+2, 1.9479613e+2, -991468.75, -1105543.4, 54510.367, -0.0843921, -0.062260523, -969609.75, 61386.82, 0.0, 10.000628, 9.999134 
1.850157e+2, 2.0479563e+2, -994850.9, -1131954.1, 20971.266, -0.08959439, 0.011917459, -991714.8, -58711.336, 0.0, 10.000246, 9.99847 
1.8501352e+2, 2.1479455e+2, -922298.56, -1055551.9, 17875.893, 0.01699464, 0.023925373, -919942.2, -84922.305, 0.0, 10.000108, 9.998389 
1.850113e+2, 2.2479396e+2, -748916.5, -807829.1, 62970.145, 0.074879825, 0.08348751, -708853.6, 28173.97, 0.0, 10.000147, 9.999395 
1.8500891e+2, 2.3479372e+2, -620768.7, -702421.44, 36200.97, 0.079397865, 0.08444359, -607030.4, 31997.74, 0.0, 10.000379, 9.999336 
1.8500626e+2, 2.4479286e+2, -563188.94, -683747.6, 23877.477, 0.07536395, 0.098138765, -558632.06, -17596.04, 0.0, 10.000366, 9.998794 
1.8500343e+2, 2.5479123e+2, -513448.56, -618625.25, -4840.6724, 0.078561775, 0.020127539, -513226.25, -70173.25, 0.0, 10.000065, 9.998714 
1.8500014e+2, 2.647903e+2, -422615.13, -490441.66, -17428.81, 0.05338274, 0.04674489, -418398.72, -73337.22, 0.0, 9.999896, 9.998996 
1.8499607e+2, 2.7478963e+2, -307918.1, -394374.9, -30729.496, -0.0116150305, 0.04849996, -298108.8, -51043.637, 0.000000044067633, 10.000044, 9.998919 
1.8499209e+2, 2.847881e+2, -205408.92, -274911.1, -47240.066, -0.046580188, -0.00044823423, -181514.78, -32436.1, 0.000002141611, 9.9999695, 9.999107 
1.8498881e+2, 2.947861e+2, -160961.61, -180133.52, -96481.08, 0.024303699, -0.15495883, -73591.44, -22493.713, 0.000012353572, 9.999489, 9.99932 
1.8498628e+2, 3.047887e+2, -239682.16, -389025.44, -106466.15, 0.25976774, 0.25187302, -184311.9, -184311.9, 0.00004451732, 9.999486, 9.997557 
1.8497871e+2, 3.147848e+2, 2229.6125, -77608.05, 12550.577, 0.025435984, 0.102938205, 4156.093, 4156.093, 0.00012893318, 10.000195, 9.999375 
1.9504079e+2, 1.2480742e+2, -1549043.5, -1613689.4, -67624.23, 0.1111695, 0.075040944, -1506414.4, 210478.61, 0.0013506947, 10.000949, 10.000207 
1.9503675e+2, 1.348058e+2, -1528840.4, -1678439.3, 57951.234, -0.005746412, -0.033057205, -1509018.0, 109888.375, 0.00077082973, 10.001041, 9.999038 
1.9503438e+2, 1.4480595e+2, -1471308.6, -1636205.4, 16532.975, 0.04292036, 0.097031794, -1469667.3, 51236.68, 0.0003170448, 10.000866, 9.998745 
1.9503033e+2, 1.548039e+2, -1409776.9, -1574264.5, 22800.27, -0.019582931, -0.014576044, -1406674.9, 16250.053, 0.000073711046, 10.000709, 9.998574 
1.9502696e+2, 1.6480277e+2, -1307163.5, -1478436.6, 28637.484, -0.04497798, 0.022780009, -1302502.0, 22435.396, 0.0000047225935, 10.000768, 9.998529 
1.950246e+2, 1.7480221e+2, -1145861.0, -1356882.6, 28645.389, -0.016599804, 0.076872244, -1142041.6, 84903.12, 0.0000000036456946, 10.001231, 9.998467 
1.9502208e+2, 1.8480127e+2, -991227.5, -1126063.6, 22580.137, -0.01826229, 0.096654624, -987546.6, 141405.94, 0.0, 10.001171, 9.999407 
1.9501923e+2, 1.9479984e+2, -990410.0, -1080511.8, 45021.164, -0.07121286, -0.023094254, -971770.4, 59191.26, 0.0, 10.000526, 9.99936 
1.9501618e+2, 2.0479877e+2, -995048.44, -1094254.3, 3537.8962, -0.093453825, -0.03169125, -994922.44, -61951.555, 0.0, 10.000089, 9.9988 
1.9501291e+2, 2.1479781e+2, -920356.56, -1016214.9, 26924.035, -0.08486297, -0.040993664, -913312.0, -78328.51, 0.0, 9.999957, 9.998731 
1.950103e+2, 2.2479728e+2, -795768.9, -866974.75, 56367.645, -0.06643285, 0.02191659, -764701.9, -27711.305, 0.0, 9.999991, 9.999061 
1.9500835e+2, 2.3479706e+2, -668728.8, -761020.5, 58719.434, -0.043931264, 0.05933356, -640192.6, -1199.3191, 0.0, 10.000212, 9.99901 
1.9500613e+2, 2.4479629e+2, -605768.8, -745070.75, -919.53076, -0.001460138, 0.117612414, -605762.75, -64760.203, 0.0, 10.00025, 9.998428 
1.9500361e+2, 2.5479484e+2, -562085.9, -682289.1, -2413.8877, 0.058528308, 0.09115665, -562037.44, -119017.12, 0.0, 9.9999075, 9.998352 
1.9500072e+2, 2.647941e+2, -425556.03, -485629.97, -26787.72, 0.09062448, 0.15352848, -415346.22, -70317.71, 0.0, 9.999843, 9.999061 
1.9499731e+2, 2.7479365e+2, -317360.66, -397503.94, -6069.1284, 0.075161934, 0.1690646, -316903.66, -69871.99, 0.000000036761158, 9.999963, 9.998944 
1.9499226e+2, 2.8479135e+2, -254606.17, -363320.06, -76617.4, -0.05824853, 0.07599267, -215022.16, -65968.93, 0.0000018181237, 9.999913, 9.998527 
1.9498572e+2, 2.9478794e+2, -223152.6, -274049.8, -99655.41, -0.2740237, -0.16339271, -145747.75, -94660.94, 0.000010151812, 9.999348, 9.998739 
1.9498369e+2, 3.0479094e+2, -135759.72, -159467.92, -94339.055, 0.018120032, 0.23954597, -52532.92, -52532.92, 0.00003534469, 9.999442, 9.999145 
1.9498125e+2, 3.1478885e+2, 52851.68, 67161.336, 128045.83, 0.19091775, 0.100411095, 188252.08, 188252.08, 0.000103030594, 10.000061, 10.000414 
2.0504247e+2, 1.2481022e+2, -1592783.4, -1655813.1, -56858.15, 0.21251903, 0.015419859, -1559290.3, 157575.64, 0.0012481128, 10.000754, 10.000013 
2.0503794e+2, 1.3480978e+2, -1475492.1, -1701135.6, -20571.303, -0.004981234, 0.06810609, -1473632.1, 145239.63, 0.0007037624, 10.001598, 9.998634 
2.0503587e+2, 1.4480951e+2, -1329852.0, -1537321.1, -50398.18, 0.07313585, 0.16546354, -1318257.4, 202616.92, 0.00028324383, 10.001719, 9.999011 
2.050316e+2, 1.5480731e+2, -1288665.1, -1483894.1, -56772.22, 0.0114672035, 0.012392872, -1273356.4, 149537.52, 0.000063005726, 10.001411, 9.998853 
2.0502806e+2, 1.6480616e+2, -1252588.9, -1461910.8, 16556.701, -0.024191169, 0.035928972, -1251287.4, 73618.08, 0.0000035155435, 10.001186, 9.998444 
2.0502557e+2, 1.7480566e+2, -1200381.0, -1396975.0, 7442.945, -0.017747257, 0.11136798, -1200099.6, 26813.125, 0.0000000004928599, 10.000915, 9.998352 
2.0502314e+2, 1.848047e+2, -1050314.8, -1163604.6, 18383.945, -0.0024288993, 0.1387813, -1047406.25, 81514.91, 0.0, 10.000796, 9.99933 
2.0502065e+2, 1.9480316e+2, -948383.75, -1070885.3, -12697.85, 0.010652814, 0.016561953, -947081.4, 83850.06, 0.0, 10.00085, 9.9992695 
2.0501743e+2, 2.0480207e+2, -854519.0, -995012.2, -27773.098, -0.010951502, -0.0057998486, -849228.0, 83711.72, 0.0, 10.000916, 9.999084 
2.0501353e+2, 2.1480118e+2, -762087.7, -905981.44, -32719.164, -0.057639375, -0.035901546, -754997.25, 79950.93, 0.0, 10.000904, 9.99903 
2.0501061e+2, 2.2480044e+2, -695947.75, -857147.44, 27632.615, -0.06994618, 0.007358196, -691342.56, 45614.21, 0.0, 10.000836, 9.998719 
2.0500875e+2, 2.3479962e+2, -626411.25, -784246.4, 356.509, -0.040536504, 0.02139215, -626410.44, 12557.229, 0.0, 10.000676, 9.9986315 
2.0500652e+2, 2.4479887e+2, -551838.1, -681046.94, -20591.037, 0.011410277, 0.08267653, -548636.0, -7658.426, 0.0, 10.000459, 9.998764 
2.0500395e+2, 2.5479808e+2, -490353.72, -609177.4, 1825.0536, 0.093491666, 0.08963638, -490325.72, -47337.906, 0.0, 10.000241, 9.99869 
2.0500095e+2, 2.6479775e+2, -424009.53, -488240.34, 31249.41, 0.13664433, 0.17753448, -411315.06, -66322.61, 0.0, 9.999863, 9.999032 
2.0499742e+2, 2.747974e+2, -420675.34, -449582.9, 12136.657, 0.13471493, 0.20688431, -416255.6, -169259.06, 0.00000002096579, 9.999266, 9.998917 
2.0499241e+2, 2.8479508e+2, -330987.3, -409995.8, 10519.467, -0.0014892861, 0.116169535, -329610.7, -180591.22, 0.0000012828043, 9.999451, 9.998423 
2.0498589e+2, 2.947915e+2, -47602.14, -198411.28, -4684.5967, -0.2415133, -0.12835187, -47456.766, 3597.1519, 0.000007381431, 10.000598, 9.998655 
2.049832e+2, 3.0479473e+2, 18525.713, -9000.3, -23174.229, 0.0030537015, 0.26675752, 31715.725, 31715.725, 0.00002618385, 10.000174, 9.999838 
2.0498103e+2, 3.1479275e+2, -247384.86, -46128.023, 102411.64, 0.28702012, 0.06919638, -3179.9019, -3179.9019, 0.000078949044, 9.997897, 10.00067 
2.150427e+2, 1.2481314e+2, -1658432.1, -1781241.4, -71094.37, 0.08682237, 0.026896188, -1625895.6, 90943.37, 0.0011286415, 10.000697, 9.999185 
2.1503857e+2, 1.3481286e+2, -1522268.1, -1810699.6, 24903.104, -0.1371536, 0.17174993, -1520133.8, 98714.57, 0.00062779407, 10.001642, 9.997864 
2.1503733e+2, 1.4481202e+2, -1299534.9, -1467258.0, -79314.195, 0.005975914, 0.22639365, -1267968.9, 252888.73, 0.00024660726, 10.001684, 9.999509 
2.1503305e+2, 1.5481137e+2, -1247843.8, -1403980.0, -52028.02, -0.024196172, 0.170793, -1232095.3, 190763.63, 0.000052325075, 10.001424, 9.999396 
2.1502922e+2, 1.6481009e+2, -1252675.8, -1444890.6, -7594.8145, -0.057534564, 0.14957602, -1252376.1, 72492.41, 0.000002586899, 10.001112, 9.998593 
2.1502613e+2, 1.7480779e+2, -1198954.0, -1376434.0, 13034.968, -0.08607261, 0.025136705, -1198001.8, 28889.0, 0.000000000052014764, 10.000843, 9.99852 
2.1502367e+2, 1.8480648e+2, -1095127.9, -1232631.4, 7555.7866, -0.059696343, 0.029479092, -1094713.9, 34189.09, 0.0, 10.000687, 9.998911 
2.1502198e+2, 1.9480602e+2, -984244.8, -1132313.3, 5500.0254, 0.024448702, 0.05344477, -984040.8, 46866.074, 0.0, 10.000786, 9.99888 
2.1501906e+2, 2.0480546e+2, -852194.56, -962640.3, -42383.285, 0.031429637, 0.0904954, -837804.9, 95105.266, 0.0, 10.000797, 9.999363 
2.1501489e+2, 2.1480455e+2, -761713.94, -871857.0, -21073.014, -0.042716455, 0.029192377, -757819.8, 77095.1, 0.0, 10.000759, 9.999332 
2.1501173e+2, 2.2480331e+2, -746585.6, -921573.8, 8088.8223, -0.06642506, 0.023840798, -746212.5, -9284.925, 0.0, 10.000667, 9.998355 
2.1500966e+2, 2.3480149e+2, -678841.9, -848900.44, 10456.661, -0.045372423, -0.029515339, -678201.3, -39250.477, 0.0, 10.000491, 9.998271 
2.1500708e+2, 2.448007e+2, -498365.63, -547472.4, -42862.92, -0.009561963, 0.00039077696, -473521.63, 67438.555, 0.0, 10.00036, 9.999732 
2.1500401e+2, 2.54801e+2, -439446.03, -471271.22, 9529.156, 0.043199666, 0.019772282, -436810.97, 6144.2876, 0.0, 10.000103, 9.999705 
2.1500036e+2, 2.6480126e+2, -445162.22, -513117.47, -5313.725, 0.06184979, 0.12169044, -444749.22, -99795.914, 0.0, 9.999781, 9.998897 
2.1499592e+2, 2.7480093e+2, -453072.25, -485702.94, 5327.6616, 0.025194217, 0.16438855, -452224.44, -205263.81, 0.00000000626477, 9.999131, 9.998732 
2.1499209e+2, 2.8479922e+2, -301488.3, -339347.44, 37542.566, -0.012914323, 0.11992723, -278373.0, -129394.73, 0.00000075455597, 9.9994135, 9.998924 
2.1498908e+2, 2.947969e+2, -29100.357, -143399.94, 54508.79, -0.022221591, -0.047043648, -7273.53, 43725.066, 0.0000049684672, 10.000528, 9.999067 
2.1498455e+2, 3.0480012e+2, -4785.1045, -61211.375, -118255.234, 0.09127464, 0.34460813, 88575.94, 88575.94, 0.000019575336, 10.000182, 9.99948 
2.1497728e+2, 3.1479648e+2, -316574.97, -170501.69, 83828.99, 0.05060022, 0.01915419, -132355.38, -132355.38, 0.00006230811, 9.99781, 9.999864 
2.2504385e+2, 1.2481682e+2, -1539818.5, -1757782.9, 36607.9, 0.10120028, 0.061363507, -1533834.4, 182967.98, 0.0009987325, 10.001641, 9.99889 
2.2504e+2, 1.3481623e+2, -1532456.9, -1814284.3, 108697.71, -0.1428539, 0.17082702, -1495404.6, 123410.016, 0.0005469882, 10.001586, 9.997851 
2.2503944e+2, 1.4481461e+2, -1357752.3, -1527386.1, 23147.912, 0.068638936, 0.16429727, -1354650.3, 166181.36, 0.00020906689, 10.001429, 9.999227 
2.2503492e+2, 1.548142e+2, -1280255.3, -1453633.5, -43167.656, 0.033763763, 0.1648875, -1270102.0, 152729.58, 0.000042237294, 10.001356, 9.999094 
2.2503099e+2, 1.6481303e+2, -1206565.9, -1407507.1, 2277.7148, 0.0019467162, 0.16387236, -1206540.1, 118300.0, 0.0000020119714, 10.001366, 9.998717 
2.2502774e+2, 1.7481065e+2, -1105714.3, -1318712.8, -12160.546, -0.030132268, 0.017908277, -1105022.3, 121839.914, 0.0, 10.001433, 9.998621 
2.2502507e+2, 1.8480922e+2, -1015388.56, -1232701.5, 10513.071, -0.016515289, 0.020421883, -1014881.1, 113995.19, 0.0, 10.001398, 9.9985695 
2.2502308e+2, 1.9480869e+2, -966509.2, -1163102.0, -18430.57, 0.045672547, 0.07319825, -964796.25, 66086.87, 0.0, 10.001093, 9.998523 
2.250201e+2, 2.0480795e+2, -843712.4, -976568.3, -53183.117, 0.054961197, 0.12139614, -825045.56, 107843.37, 0.0, 10.000923, 9.99922 
2.2501615e+2, 2.1480675e+2, -768704.25, -893311.4, -88597.805, 0.01244493, 0.045450192, -722696.6, 112199.805, 0.0, 10.00078, 9.999186 
2.2501272e+2, 2.2480564e+2, -775896.1, -907740.06, -41649.91, -0.009863746, 0.047842946, -763841.0, -26933.615, 0.0, 10.000336, 9.998614 
2.2500996e+2, 2.3480436e+2, -803450.6, -877465.75, -22338.697, -0.006000714, 0.025022315, -797231.1, -158306.73, 0.0, 9.999504, 9.998549 
2.2500697e+2, 2.4480379e+2, -635685.6, -580558.4, -26109.443, 0.0062765786, 0.04474093, -570155.44, -29224.607, 0.0, 9.999271, 10.000028 
2.2500373e+2, 2.5480378e+2, -475531.13, -459922.88, -56061.508, 0.033285096, 0.0021980451, -411124.9, 31802.676, 0.0, 9.999714, 9.999977 
2.2499998e+2, 2.64804e+2, -413219.3, -485590.16, -71935.35, 0.043904595, 0.0802938, -368880.94, -23955.406, 0.0, 9.999953, 9.999001 
2.2499567e+2, 2.7480403e+2, -303393.16, -400175.8, -71524.88, 0.046571255, 0.14819032, -265427.5, -18497.873, 0.00000000006385136, 10.000098, 9.998852 
2.2499251e+2, 2.848027e+2, -200049.36, -249576.3, 17060.188, 0.07107206, 0.11876531, -194741.6, -45798.652, 0.00000032397858, 9.999926, 9.999297 
2.2499049e+2, 2.948008e+2, -179741.55, -181361.55, -7697.946, 0.13591704, -0.048352983, -172811.1, -121852.75, 0.000003287384, 9.999353, 9.999364 
2.2498475e+2, 3.0480322e+2, -125104.336, -208773.98, -193951.27, 0.12837519, 0.2947744, 31472.65, 31472.65, 0.00001601569, 9.9997425, 9.9986725 
2.2497655e+2, 3.147994e+2, 120002.86, -17891.184, -56550.938, 0.052663777, 0.01799541, 140228.14, 140228.14, 0.000054019332, 10.001046, 9.999352 
2.3504521e+2, 1.2482118e+2, -1531090.0, -1736244.4, 8373.291, -0.003163953, 0.1021522, -1530748.9, 186008.02, 0.0008678289, 10.00163, 9.999049 
2.3504172e+2, 1.348197e+2, -1480609.5, -1719642.0, 108701.81, -0.16624466, 0.070451036, -1438570.1, 180202.0, 0.00046623294, 10.001623, 9.998496 
2.3504154e+2, 1.4481707e+2, -1442344.1, -1674300.6, 2741.491, 0.10346366, -0.028980818, -1442311.8, 78487.086, 0.00017258529, 10.001314, 9.998274 
2.350368e+2, 1.5481567e+2, -1357736.0, -1606520.0, -28189.832, 0.050300706, -0.017672488, -1354581.8, 68231.16, 0.000033446406, 10.001325, 9.998063 
2.350329e+2, 1.648148e+2, -1220447.3, -1413328.6, -11281.635, 0.022533644, 0.06332559, -1219789.6, 105032.04, 0.0000017722703, 10.001272, 9.998724 
2.3503007e+2, 1.7481405e+2, -1107216.1, -1309103.1, 4935.9487, 0.025721515, 0.074745804, -1107095.5, 119733.4, 0.0000000001389195, 10.001376, 9.998719 
2.3502691e+2, 1.8481283e+2, -1058150.4, -1291424.4, -14305.599, -0.0008375766, 0.111389294, -1057276.3, 71565.22, 0.0, 10.001275, 9.998227 
2.3502336e+2, 1.94811e+2, -1003326.94, -1222464.4, -16587.787, -0.063811824, 0.072642654, -1002078.44, 28782.885, 0.0, 10.001016, 9.998156 
2.3501997e+2, 2.048094e+2, -904844.75, -1062713.1, -72178.016, -0.07284747, 0.077134535, -876819.7, 56057.77, 0.0, 10.000754, 9.998707 
2.3501681e+2, 2.1480773e+2, -828828.44, -979323.06, -76843.12, -0.026861103, 0.0046045156, -796525.6, 38367.29, 0.0, 10.000611, 9.998675 
2.3501322e+2, 2.2480741e+2, -742970.7, -799198.44, -82777.15, -0.021394825, 0.071915634, -683663.44, 53232.617, 0.0, 10.000168, 9.999441 
2.3500924e+2, 2.3480833e+2, -762980.2, -763461.0, -36994.867, -0.062464677, 0.18428925, -726224.94, -87336.69, 0.0, 9.9993725, 9.9994 
2.3500568e+2, 2.4480803e+2, -675184.06, -640870.3, -24241.94, -0.08432318, 0.20810784, -628328.2, -87437.516, 0.0, 9.999175, 9.9996605 
2.3500258e+2, 2.548063e+2, -523512.7, -525156.5, -25187.336, -0.086989105, 0.034365162, -499133.88, -56228.375, 0.0, 9.999565, 9.9996 
2.3499936e+2, 2.64806e+2, -401640.28, -441276.66, -80953.0, -0.043181777, 0.058853827, -338114.9, 6793.6895, 0.0, 9.99987, 9.999347 
2.3499623e+2, 2.7480668e+2, -294742.53, -355043.25, -48475.16, 0.060101993, 0.15879516, -267806.25, -20902.377, 0.0, 9.999978, 9.999225 
2.3499312e+2, 2.8480563e+2, -187645.0, -212113.31, -16513.521, 0.10568254, 0.12255676, -179327.48, -30414.545, 0.00000009734078, 9.999877, 9.999577 
2.3498963e+2, 2.948031e+2, -184252.0, -169644.89, -13415.481, 0.06987545, -0.12653416, -161673.72, -110740.2, 0.0000024854203, 9.999251, 9.999502 
2.3498327e+2, 3.0480406e+2, -202018.05, -362844.75, -154476.28, -0.027271196, 0.118648894, -108278.516, -108278.516, 0.000014818684, 9.999723, 9.997623 
2.349781e+2, 3.1480172e+2, 101561.37, -43363.06, 35860.816, 0.029096909, 0.088632025, 109949.45, 109949.45, 0.00005156838, 10.000983, 9.999215 
2.45048e+2, 1.2482411e+2, -1480645.8, -1725740.6, 1122.0831, 0.105835035, 0.08854162, -1480640.6, 236086.78, 0.00074233726, 10.002073, 9.998897 
2.4504325e+2, 1.3482279e+2, -1472782.9, -1698981.9, -17126.014, -0.16162136, 0.0589694, -1471493.5, 147246.72, 0.00038816038, 10.001622, 9.998635 
2.4504295e+2, 1.4482024e+2, -1431235.8, -1675662.6, -56166.87, 0.11913759, -0.03604127, -1418947.0, 101818.66, 0.00013769997, 10.001404, 9.998219 
2.4503863e+2, 1.548187e+2, -1310786.0, -1592144.5, -47883.88, 0.094676614, -0.037942722, -1302860.0, 119921.75, 0.000025817635, 10.001691, 9.997975 
2.450347e+2, 1.648177e+2, -1187843.3, -1426128.5, 14376.247, 0.06657109, 0.049497206, -1186979.0, 137813.56, 0.0000016011192, 10.001609, 9.998488 
2.4503157e+2, 1.7481697e+2, -1179906.0, -1370019.3, -20150.166, 0.06645698, 0.08946813, -1177793.8, 49007.348, 0.0000000006420841, 10.000988, 9.998498 
2.4502812e+2, 1.8481594e+2, -1121779.6, -1282025.3, 6545.174, 0.03092811, 0.13765435, -1121512.8, 7299.1636, 0.0, 10.000677, 9.99857 
2.4502428e+2, 1.9481438e+2, -1037547.56, -1198510.3, 31118.574, -0.046912424, 0.08862679, -1031740.94, -913.63306, 0.0, 10.000624, 9.998496 
2.4502073e+2, 2.0481281e+2, -931911.6, -1099027.6, 43631.016, -0.05946446, 0.08951668, -921206.1, 11637.311, 0.0, 10.000677, 9.998486 
2.4501778e+2, 2.14811e+2, -834809.06, -1006206.44, 27887.328, 0.014419567, 0.026262825, -830385.8, 4476.681, 0.0, 10.0006895, 9.998445 
2.4501406e+2, 2.2481051e+2, -653648.8, -738269.9, 20975.62, 0.025890674, 0.081856474, -648734.8, 88132.195, 0.0, 10.000707, 9.9995985 
2.4500957e+2, 2.3481126e+2, -558282.94, -643802.56, -8120.6533, -0.023935825, 0.16192853, -557518.6, 81339.016, 0.0, 10.000698, 9.99958 
2.4500576e+2, 2.448109e+2, -533643.94, -609873.4, 18043.17, -0.042708732, 0.18444747, -529588.9, 11271.5, 0.0, 10.000302, 9.999342 
2.4500266e+2, 2.5480917e+2, -559911.6, -576147.2, -6326.0815, -0.022304336, 0.04101741, -557737.8, -114860.234, 0.0, 9.999468, 9.999301 
2.4499941e+2, 2.6480862e+2, -475287.38, -452335.34, -19071.64, 0.011715706, 0.049726434, -441553.2, -96670.164, 0.0, 9.999242, 9.999581 
2.4499623e+2, 2.7480915e+2, -320896.8, -335001.56, -22826.766, 0.0877532, 0.10712828, -304057.84, -57179.457, 0.0, 9.999663, 9.999513 
2.4499317e+2, 2.8480858e+2, -216660.0, -237574.42, -1349.5399, 0.14064983, 0.10437408, -216573.28, -67689.914, 0.00000009803459, 9.999717, 9.999488 
2.4498959e+2, 2.948067e+2, -171687.56, -173659.58, -56515.97, 0.1444845, -0.069971174, -116149.0, -65249.84, 0.0000023443192, 9.999377, 9.999416 
2.4498287e+2, 3.0480647e+2, -209095.5, -368783.4, -73272.68, -0.024756454, 0.064443745, -180569.97, -180569.97, 0.000014153015, 9.999689, 9.997601 
2.4497962e+2, 3.1480497e+2, 59525.54, 11420.542, 120907.23, 0.12955402, 0.11795787, 158749.48, 158749.48, 0.00004937861, 10.000405, 9.999856 
2.550512e+2, 1.2482573e+2, -1520616.6, -1802428.4, -25866.264, 0.14496821, 0.026148317, -1518262.1, 198450.64, 0.00062344765, 10.002041, 9.99839 
2.550443e+2, 1.3482532e+2, -1488762.1, -1730252.8, -23912.93, -0.24962799, 0.116986506, -1486417.0, 132303.1, 0.0003143659, 10.001618, 9.998424 
2.5504345e+2, 1.4482404e+2, -1387662.9, -1567962.8, -65186.473, -0.015399866, 0.122815184, -1366564.0, 154169.03, 0.00010539114, 10.001335, 9.998984 
2.550398e+2, 1.5482312e+2, -1261487.8, -1476250.9, -23161.203, 0.00888458, 0.10018493, -1259018.3, 163720.86, 0.000019009012, 10.001637, 9.998791 
2.5503588e+2, 1.648217e+2, -1230873.4, -1494380.8, -23416.035, -0.006030803, 0.12313422, -1228808.8, 95944.33, 0.0000013062046, 10.001518, 9.998064 
2.5503176e+2, 1.7481953e+2, -1219576.4, -1441572.4, -26361.633, -0.046378452, 0.0667615, -1216488.9, 10288.747, 0.000000000635992, 10.000943, 9.998027 
2.5502825e+2, 1.8481861e+2, -1063251.9, -1139664.1, -7517.8833, -0.056432087, 0.09946167, -1062519.3, 66267.58, 0.0, 10.000582, 9.999595 
2.550253e+2, 1.9481868e+2, -973458.9, -1046114.94, 44924.457, -0.041099295, 0.106795624, -952012.06, 78770.14, 0.0, 10.000532, 9.999587 
2.5502205e+2, 2.0481804e+2, -961628.75, -1118546.8, 32333.084, -0.023680415, 0.14542508, -955227.6, -22439.701, 0.0, 10.000501, 9.998435 
2.550186e+2, 2.1481636e+2, -859406.94, -1024299.8, 42151.38, -0.0024211865, 0.10102475, -849256.6, -14449.772, 0.0, 10.000549, 9.998386 
2.5501475e+2, 2.2481479e+2, -705560.06, -813730.06, 5832.33, -0.0019164118, 0.074946456, -705246.5, 31574.959, 0.0, 10.0005665, 9.999148 
2.5501052e+2, 2.3481311e+2, -611561.44, -720706.8, 6366.0176, -0.027613388, -0.046274513, -611191.44, 27642.53, 0.0, 10.000549, 9.999125 
2.5500682e+2, 2.4481228e+2, -569157.5, -656617.2, -27573.977, 0.005212142, -0.033816904, -561189.94, -20348.68, 0.0, 10.000193, 9.999071 
2.5500354e+2, 2.548121e+2, -601870.7, -628858.8, -25701.734, 0.09012535, 0.008120394, -586336.0, -143490.28, 0.0, 9.999319, 9.999011 
2.549996e+2, 2.648118e+2, -479577.97, -434036.44, -19290.947, 0.078250766, 0.049973954, -426963.47, -82113.72, 0.0, 9.999136, 9.999754 
2.5499523e+2, 2.7481127e+2, -325719.06, -316686.97, 8345.426, -0.013950771, -0.016906315, -311714.03, -64858.805, 0.0, 9.999537, 9.999702 
2.5499225e+2, 2.8481132e+2, -257806.61, -304304.38, -28508.846, 0.043099932, 0.053189125, -244268.75, -95412.74, 0.00000013920514, 9.999646, 9.999058 
2.549899e+2, 2.9481146e+2, -225804.73, -246893.92, -55296.883, 0.19872288, 0.122861795, -180056.05, -129199.8, 0.0000022917138, 9.999217, 9.998986 
2.549831e+2, 3.048103e+2, -144140.36, -221696.97, -53947.66, 0.00043455922, 0.1310728, -116479.914, -116479.914, 0.0000129202135, 9.999641, 9.998628 
2.549802e+2, 3.148086e+2, 130237.836, 176425.19, 163226.61, 0.07487407, 0.06981303, 318183.72, 318183.72, 0.000045825393, 10.000328, 10.001028 
2.650538e+2, 1.2482884e+2, -1422415.5, -1761723.8, 94463.445, 0.18615419, 0.0071476595, -1397889.6, 318792.53, 0.00051409315, 10.002695, 9.998368 
2.6504672e+2, 1.3482834e+2, -1469294.4, -1730997.9, 24693.875, -0.16055748, 0.088146664, -1466984.6, 151706.03, 0.0002486299, 10.001749, 9.998371 
2.650453e+2, 1.4482754e+2, -1398361.3, -1551553.0, 47820.51, 0.05473713, 0.13622941, -1384659.1, 136039.64, 0.00007773356, 10.001175, 9.999174 
2.6504114e+2, 1.5482657e+2, -1251652.0, -1452388.0, 12834.056, -0.010604851, 0.08967527, -1250834.8, 171870.2, 0.000013419433, 10.001605, 9.9989805 
2.6503712e+2, 1.6482505e+2, -1216242.5, -1480048.8, 7101.821, -0.029460052, 0.08971027, -1216051.4, 108668.016, 0.0000010267595, 10.0015955, 9.9981165 
2.6503322e+2, 1.7482285e+2, -1199029.8, -1425285.9, 9665.952, 0.006298045, 0.020099577, -1198617.5, 28126.365, 0.0000000012219834, 10.00106, 9.998073 
2.650297e+2, 1.8482192e+2, -1035176.44, -1121156.9, 56073.867, 0.02850945, 0.049295478, -1007509.5, 121243.28, 0.0, 10.00076, 9.999639 
2.650266e+2, 1.9482215e+2, -964125.44, -1037591.2, -1211.8336, 0.043388393, 0.07079314, -964105.44, 66641.49, 0.0, 10.000581, 9.999627 
2.6502317e+2, 2.0482169e+2, -940844.8, -1091683.3, -10109.949, 0.04483727, 0.11859739, -940170.2, -7419.566, 0.0, 10.000558, 9.998599 
2.6501945e+2, 2.148203e+2, -845993.9, -1001457.8, -10445.814, 0.034842655, 0.08757272, -845295.1, -10528.876, 0.0, 10.0005665, 9.998541 
2.6501554e+2, 2.2481866e+2, -713988.5, -834541.3, -90.39597, 0.025357302, 0.053021308, -713988.4, 22793.197, 0.0, 10.000569, 9.99901 
2.6501143e+2, 2.3481658e+2, -626885.2, -747449.6, -10643.007, 0.021265263, -0.092718184, -625952.9, 12845.3955, 0.0, 10.000518, 9.998961 
2.6500762e+2, 2.448157e+2, -525613.56, -632257.3, -8232.594, 0.061889417, -0.0759302, -524981.75, 15824.562, 0.0, 10.00049, 9.99909 
2.6500395e+2, 2.548159e+2, -424571.2, -538867.56, -8874.279, 0.1476428, 0.0025989374, -423886.28, 18920.91, 0.0, 10.000528, 9.99904 
2.6499945e+2, 2.6481578e+2, -341428.1, -384012.06, 35472.277, 0.10648011, 0.063652664, -321348.22, 23462.168, 0.0, 10.000149, 9.999611 
2.649944e+2, 2.748153e+2, -360160.9, -342554.34, 6176.237, -0.029471794, 0.014641858, -340603.88, -93787.9, 0.0, 9.999356, 9.999604 
2.649917e+2, 2.8481522e+2, -309947.84, -350108.72, 12438.173, 0.04753733, 0.08911143, -306407.7, -157589.72, 0.00000017298198, 9.999373, 9.998874 
2.6499045e+2, 2.9481494e+2, -73795.89, -185637.73, -20886.186, 0.29103544, 0.1331691, -70022.74, -19200.033, 0.000002277503, 10.000304, 9.998886 
2.6498353e+2, 3.0481362e+2, 18345.736, -138227.47, -13101.834, 0.03940531, 0.12748405, 19434.51, 19434.51, 0.000011809922, 10.000708, 9.99871 
2.6498e+2, 3.1481218e+2, 55205.285, 144687.42, 53225.156, 0.06355954, 0.08789197, 169478.22, 169478.22, 0.000042458643, 9.999751, 10.001104 
2.7505526e+2, 1.24833375e+2, -1390323.6, -1693926.0, 42529.938, -0.017187806, 0.026504252, -1384478.4, 332157.88, 0.00042131313, 10.002676, 9.998849 
2.7504975e+2, 1.3483196e+2, -1454189.9, -1701748.5, -7038.219, -0.07098929, -0.0044202795, -1453990.0, 164660.72, 0.0001952308, 10.001756, 9.998568 
2.7504787e+2, 1.4483087e+2, -1430706.0, -1608765.6, 40593.4, 0.15385039, 0.0219675, -1421888.3, 98773.39, 0.000056360343, 10.001134, 9.998804 
2.7504227e+2, 1.5482922e+2, -1284215.8, -1507002.1, 46790.273, -0.09439324, -0.055118855, -1274787.8, 147890.02, 0.000009372096, 10.001558, 9.998628 
2.7503806e+2, 1.6482791e+2, -1186475.6, -1404252.0, -25627.137, -0.12952067, -0.042903196, -1183500.6, 141189.69, 0.0000008660051, 10.001534, 9.998664 
2.7503535e+2, 1.7482685e+2, -1170654.3, -1351902.9, 4554.1777, 0.075518295, -0.05371317, -1170539.9, 56160.707, 0.000000004874734, 10.001001, 9.998604 
2.7503195e+2, 1.848258e+2, -1122790.3, -1275785.9, 34570.484, 0.14914848, -0.0123546645, -1115341.5, 13369.491, 0.0, 10.000645, 9.9986315 
2.7502778e+2, 1.9482467e+2, -1049989.0, -1192690.6, 9122.77, 0.068095714, -0.025903458, -1049408.1, -18685.615, 0.0, 10.000488, 9.998604 
2.750237e+2, 2.0482378e+2, -932913.5, -1045029.4, -23888.775, 0.015119661, 0.014173471, -928035.7, 4695.743, 0.0, 10.000429, 9.9989805 
2.7501982e+2, 2.1482281e+2, -841115.8, -950358.3, 5148.194, -0.012099422, -0.017679943, -840873.7, -6132.779, 0.0, 10.000393, 9.998972 
2.7501592e+2, 2.2482212e+2, -734336.5, -834919.4, -15750.686, -0.01848954, 0.014379671, -731927.7, 4819.631, 0.0, 10.000389, 9.999097 
2.7501193e+2, 2.3482147e+2, -645179.1, -748147.94, 744.7878, -0.0123007, 0.008271326, -645173.75, -6421.302, 0.0, 10.000353, 9.999041 
2.7500775e+2, 2.4482101e+2, -519664.75, -591226.75, -20062.393, -0.0009174199, 0.045892756, -514424.06, 26332.775, 0.0, 10.00037, 9.999428 
2.7500337e+2, 2.548204e+2, -420202.1, -500862.88, 8350.883, 0.0047328267, 0.008924446, -419346.6, 23416.914, 0.0, 10.000395, 9.999369 
2.7499852e+2, 2.6482037e+2, -388568.2, -457954.25, -11398.278, -0.034061056, 0.0828136, -386743.72, -41977.984, 0.0, 10.000055, 9.999144 
2.7499342e+2, 2.7482086e+2, -418143.7, -430952.4, -10705.218, -0.09919767, 0.18422586, -412073.38, -165310.14, 0.00000000009324417, 9.999221, 9.999062 
2.7499118e+2, 2.8481996e+2, -309274.63, -335487.97, 30069.006, 0.02347537, 0.1978496, -289579.94, -140807.34, 0.00000023612336, 9.999318, 9.998997 
2.7499086e+2, 2.9481694e+2, -70787.805, -162528.63, 36036.703, 0.25374827, -0.047339868, -58325.22, -7524.7607, 0.0000024951785, 10.00022, 9.999089 
2.7498356e+2, 3.0481654e+2, -37463.582, -232559.84, -51087.977, -0.05645204, 0.056869663, -24895.324, -24895.324, 0.0000116764495, 10.000647, 9.998075 
2.7497804e+2, 3.14816e+2, -51737.87, -22709.764, 25685.633, -0.1784824, 0.1844905, -7721.115, -7721.115, 0.000040637482, 9.999541, 10.000046 
2.8505704e+2, 1.248375e+2, -1620364.4, -1719760.3, 48324.05, 0.0030703254, 0.06153983, -1600743.5, 115855.31, 0.00034670465, 10.000772, 9.999566 
2.8505185e+2, 1.348364e+2, -1500712.4, -1666499.0, -65585.164, 0.006503176, 0.012804572, -1477904.6, 140702.73, 0.00015383656, 10.001223, 9.999048 
2.8504947e+2, 1.4483543e+2, -1442288.6, -1620587.1, 53710.016, 0.21424864, 0.030436428, -1427359.3, 93257.39, 0.00004093297, 10.00108, 9.998748 
2.8504404e+2, 1.548339e+2, -1423076.1, -1575653.5, 51794.08, -0.016156344, -0.030975863, -1407155.4, 15478.279, 0.0000066741927, 10.000605, 9.998618 
2.8503978e+2, 1.6483289e+2, -1274103.9, -1408591.5, 23879.246, -0.06239214, -0.005644897, -1269989.9, 54653.703, 0.00000074756446, 10.000775, 9.999009 
2.8503692e+2, 1.7483227e+2, -1046313.9, -1257784.4, 9644.534, 0.1073327, -0.0010682986, -1045874.94, 180772.77, 0.000000006090155, 10.001696, 9.99893 
2.8503323e+2, 1.8483107e+2, -984776.6, -1258064.4, 60713.29, 0.16233309, 0.02951925, -971895.75, 156763.38, 0.0, 10.001806, 9.99819 
2.850286e+2, 1.9482906e+2, -1007220.06, -1225274.8, 48954.664, 0.08510043, -0.025146315, -996733.7, 33946.355, 0.0, 10.001001, 9.998134 
2.8502443e+2, 2.0482783e+2, -896033.0, -1015801.6, 69065.5, 0.04238784, -0.00069189485, -864505.2, 68187.16, 0.0, 10.000649, 9.999066 
2.850208e+2, 2.1482718e+2, -794846.1, -918385.1, 43270.934, 0.042019844, -0.009198017, -781197.8, 53500.215, 0.0, 10.000675, 9.999054 
2.8501686e+2, 2.2482663e+2, -713512.8, -831185.94, 29192.564, 0.036864683, 0.038817476, -706668.75, 30034.547, 0.0, 10.000573, 9.999026 
2.8501254e+2, 2.348261e+2, -650685.8, -755468.4, 5503.224, 0.024688797, 0.04781669, -650397.56, -11688.418, 0.0, 10.000351, 9.998982 
2.8500813e+2, 2.4482557e+2, -559379.94, -609302.7, -2712.376, 0.021068122, 0.0823919, -559233.0, -18518.57, 0.0, 10.000074, 9.999446 
2.850036e+2, 2.5482497e+2, -514262.06, -539046.7, -28148.607, 0.030082349, 0.037465952, -495898.66, -53178.203, 0.0, 9.999729, 9.999418 
2.8499863e+2, 2.6482475e+2, -431174.72, -498835.4, -15871.506, -0.00802203, 0.10068307, -427636.66, -82913.336, 0.0, 9.999843, 9.998972 
2.8499365e+2, 2.748247e+2, -256763.27, -372869.06, -19636.18, -0.043547254, 0.16644867, -253532.25, -6807.293, 0.0000000018932573, 10.000389, 9.998908 
2.8499132e+2, 2.848232e+2, -179265.6, -279547.44, 76129.52, 0.07106087, 0.1319347, -138248.33, 10490.913, 0.00000028816427, 10.000243, 9.998937 
2.8499082e+2, 2.9482004e+2, -160688.14, -202023.67, 39172.45, 0.270811, -0.12890947, -137065.53, -86296.82, 0.0000027347362, 9.999607, 9.999102 
2.8498384e+2, 3.048207e+2, -151072.0, -298975.72, -22749.768, -0.039137248, 0.081081584, -147651.84, -147651.84, 0.000012525966, 9.999891, 9.997984 
2.8497815e+2, 3.1481943e+2, 44110.484, 25362.424, 27611.16, -0.13002518, 0.14513013, 63895.477, 63895.477, 0.00004059471, 10.000186, 10.000058 
2.9505795e+2, 1.2484146e+2, -1552615.8, -1593241.4, 32699.402, -0.06901325, 0.13405661, -1534433.6, 182133.55, 0.00028489743, 10.000817, 10.000417 
2.950527e+2, 1.3484156e+2, -1454915.1, -1576347.4, -41084.777, -0.06973969, 0.1330483, -1442320.9, 176240.45, 0.000121053716, 10.001243, 9.999657 
2.9504976e+2, 1.4484107e+2, -1421754.5, -1577661.1, 13979.59, 0.08767134, 0.15573439, -1420510.9, 100054.18, 0.000029834508, 10.001066, 9.999054 
2.9504582e+2, 1.5484047e+2, -1407157.4, -1534659.6, 46379.445, 0.0671465, 0.15398377, -1392071.5, 30502.357, 0.000004731658, 10.000571, 9.998917 
2.9504174e+2, 1.6483992e+2, -1276216.0, -1391896.1, 44360.496, 0.02407491, 0.20340246, -1261163.5, 63416.31, 0.00000054097734, 10.000697, 9.999152 
2.9503748e+2, 1.7483929e+2, -1044497.8, -1235010.1, 62467.45, -0.041034807, 0.18984418, -1025842.06, 200741.6, 0.0000000012704189, 10.001632, 9.999106 
2.950331e+2, 1.848379e+2, -990544.25, -1251670.6, 15788.993, -0.063108, 0.18481787, -989593.0, 139002.75, 0.0, 10.0017185, 9.998282 
2.9502857e+2, 1.948353e+2, -1015782.4, -1219464.8, 32196.076, -0.050734896, 0.06583919, -1010814.3, 19805.62, 0.0, 10.000901, 9.998222 
2.9502487e+2, 2.048338e+2, -935968.44, -1061565.3, 55910.41, -0.0073284227, 0.069695994, -914685.9, 17948.076, 0.0, 10.00049, 9.998829 
2.9502192e+2, 2.1483329e+2, -839435.94, -968202.4, 60445.984, 0.052995782, 0.099936076, -815507.7, 19131.246, 0.0, 10.000492, 9.998798 
2.9501796e+2, 2.2483219e+2, -757106.4, -877589.4, 5875.4, 0.05761843, 0.11895496, -756820.5, -20170.604, 0.0, 10.000389, 9.998794 
2.9501298e+2, 2.3483035e+2, -693247.06, -802137.0, 12968.742, 0.001944972, 0.020798497, -691723.8, -53054.758, 0.0, 10.000177, 9.998743 
2.9500842e+2, 2.4482943e+2, -592131.9, -654085.8, -31613.5, 0.011357304, 0.040427495, -578848.4, -38169.77, 0.0, 9.99997, 9.999192 
2.9500413e+2, 2.5482938e+2, -551323.25, -588680.06, -28311.889, 0.076622196, 0.08176733, -536083.44, -93404.07, 0.0, 9.999605, 9.999145 
2.949994e+2, 2.6482868e+2, -426345.97, -469673.16, -8388.166, 0.052130062, 0.09851621, -424778.72, -80093.23, 0.0, 9.999764, 9.9992075 
2.949946e+2, 2.7482682e+2, -258649.16, -343666.7, 14478.03, -0.023223536, -0.044034753, -256251.27, -9549.922, 0.0000000016821552, 10.000253, 9.999172 
2.949917e+2, 2.848252e+2, -199477.38, -315010.66, 37259.086, 0.049319018, -0.09452032, -188503.75, -39787.57, 0.00000022409213, 10.00021, 9.998714 
2.9498997e+2, 2.9482406e+2, -196759.77, -264190.38, 42662.707, 0.17902769, -0.11908016, -176098.34, -125370.3, 0.0000026534976, 9.999533, 9.998723 
2.9498398e+2, 3.0482578e+2, -118084.06, -213632.22, -11909.939, -0.04942491, 0.19222182, -116621.88, -116621.88, 0.00001292508, 9.99983, 9.998591 
2.9497936e+2, 3.148221e+2, 104115.42, 172439.77, 84677.305, -0.10782725, -0.060383454, 229586.4, 229586.4, 0.000040888393, 10.00009, 10.001111 
3.0505934e+2, 1.24845296e+2, -1513689.5, -1579780.5, 119471.1, -0.008953084, 0.1386273, -1422777.9, 293753.72, 0.00023189843, 10.001121, 10.000367 
3.050544e+2, 1.3484573e+2, -1467853.0, -1586110.1, -66909.73, -0.0091099525, 0.17639111, -1437689.4, 180833.97, 0.000094942065, 10.0011635, 9.999632 
3.050506e+2, 1.4484504e+2, -1427689.5, -1549693.9, -22006.242, 0.08381309, 0.1653483, -1423841.6, 96687.36, 0.000021738364, 10.000921, 9.999301 
3.0504704e+2, 1.5484478e+2, -1360774.8, -1485954.4, -35387.695, 0.1299813, 0.17571571, -1351463.4, 71069.65, 0.0000030875526, 10.000779, 9.999144 
3.050431e+2, 1.6484433e+2, -1269485.8, -1400614.6, 16440.064, 0.09508365, 0.2274514, -1267456.0, 57081.805, 0.0000002653173, 10.000764, 9.999068 
3.050387e+2, 1.7484353e+2, -1172706.0, -1306903.4, -13327.148, -0.02931741, 0.20559147, -1171395.3, 55149.44, 0.0, 10.0007715, 9.999036 
3.0503446e+2, 1.8484223e+2, -1080018.6, -1264478.0, -58943.74, -0.05280239, 0.19949915, -1062792.0, 65763.984, 0.0, 10.000973, 9.998554 
3.0503032e+2, 1.9484e+2, -939857.44, -1161054.1, -60920.813, 0.022117442, 0.09080147, -924188.9, 106386.75, 0.0, 10.001307, 9.998442 
3.0502632e+2, 2.048385e+2, -860191.5, -1031830.06, -308.22284, 0.07088559, 0.08792594, -860191.0, 72398.22, 0.0, 10.001037, 9.998774 
3.050225e+2, 2.1483769e+2, -897500.44, -1007932.2, -13881.359, 0.09295568, 0.09597372, -895782.25, -61184.813, 0.0, 10.000131, 9.998706 
3.0501822e+2, 2.2483665e+2, -819178.94, -891303.75, 3769.9878, 0.081114985, 0.11662354, -818982.44, -82374.58, 0.0, 9.999883, 9.998951 
3.050135e+2, 2.348352e+2, -661738.3, -770163.1, 12935.675, 0.04321802, 0.0407108, -660216.4, -21593.873, 0.0, 10.00031, 9.998907 
3.0500904e+2, 2.4483436e+2, -543822.8, -644113.75, 6209.614, 0.063510604, 0.06679548, -543439.8, -2808.6885, 0.0, 10.000398, 9.999042 
3.0500463e+2, 2.5483403e+2, -454491.84, -553119.2, -11607.689, 0.13879982, 0.09478506, -453144.13, -10509.204, 0.0, 10.000348, 9.999019 
3.0499986e+2, 2.6483312e+2, -387405.78, -479959.1, 34936.07, 0.10768668, 0.11179562, -375699.16, -31055.902, 0.0, 10.000157, 9.998947 
3.0499494e+2, 2.7483124e+2, -326595.0, -404261.34, -8697.046, 0.011930052, -0.007115313, -325633.03, -78972.81, 0.00000000014964384, 9.999912, 9.998916 
3.0499175e+2, 2.8482962e+2, -234416.08, -324362.16, 24264.178, 0.057202686, -0.047309406, -228288.0, -79612.73, 0.00000013461268, 9.999956, 9.998764 
3.0498967e+2, 2.9482865e+2, -101761.17, -209443.3, 24104.617, 0.17466162, -0.06443345, -96611.625, -45926.484, 0.0000024184974, 10.000181, 9.998769 
3.0498403e+2, 3.048301e+2, -79540.67, -182579.94, -125.67446, -0.021004066, 0.2160952, -79540.516, -79540.516, 0.00001259153, 10.000016, 9.99874 
3.0498004e+2, 3.1482628e+2, -63415.95, 91724.0, 11000.518, 0.026614832, -0.06617654, 92500.13, 92500.13, 0.000039642433, 9.998905, 10.00116 
3.150606e+2, 1.2484919e+2, -1574676.3, -1706459.3, 55611.023, -0.07404933, 0.09959702, -1554345.5, 162144.94, 0.0001887222, 10.001127, 9.999491 
3.150563e+2, 1.3484912e+2, -1524890.3, -1686078.5, -56562.516, 0.033384643, 0.15542446, -1507022.6, 111468.53, 0.00007509751, 10.001106, 9.998967 
3.1505144e+2, 1.4484741e+2, -1428488.5, -1544358.0, -45802.85, 0.028635943, 0.07473027, -1412569.8, 107937.12, 0.00001598166, 10.000882, 9.999356 
3.1504714e+2, 1.5484679e+2, -1359955.0, -1479540.6, -25263.639, 0.025742274, 0.037797928, -1354836.9, 67674.5, 0.00000170519, 10.000762, 9.999193 
3.150435e+2, 1.6484606e+2, -1296690.5, -1445514.4, -4709.905, 0.028358325, 0.07539777, -1296541.6, 27976.615, 0.000000057148895, 10.000707, 9.998793 
3.150402e+2, 1.74845e+2, -1199422.4, -1348641.6, -1991.3561, 0.0087343715, 0.05267202, -1199395.8, 27134.77, 0.0, 10.000712, 9.998778 
3.1503674e+2, 1.8484417e+2, -1066657.8, -1211312.4, -61352.156, 0.049134903, 0.08591278, -1044141.4, 84397.516, 0.0, 10.00086, 9.998975 
3.150333e+2, 1.948432e+2, -923142.7, -1099536.6, -32997.32, 0.15639293, 0.058428682, -917172.06, 113374.164, 0.0, 10.001195, 9.998915 
3.1502843e+2, 2.0484209e+2, -880879.25, -1033454.94, -48633.344, 0.15118143, 0.06521943, -866695.9, 65860.65, 0.0, 10.000864, 9.998846 
3.1502223e+2, 2.1484056e+2, -917921.1, -1008458.06, -32028.654, 0.021084432, -0.0038436952, -907736.25, -73164.234, 0.0, 9.999956, 9.998786 
3.1501728e+2, 2.2484016e+2, -795562.3, -809975.1, 5628.041, -0.030307868, 0.04501041, -793625.0, -57049.414, 0.0, 9.99974, 9.999583 
3.1501368e+2, 2.3484074e+2, -640169.94, -688394.25, 44616.055, 0.00061102374, 0.112603806, -613567.3, 25001.252, 0.0, 10.000149, 9.999552 
3.150095e+2, 2.4484034e+2, -562094.1, -665465.8, -9648.541, 0.036644034, 0.15451904, -561201.25, -20629.203, 0.0, 10.0003195, 9.998934 
3.1500462e+2, 2.5483876e+2, -483904.66, -580537.25, -1253.5402, 0.07314797, 0.07130572, -483888.4, -41300.473, 0.0, 10.000197, 9.998906 
3.1499952e+2, 2.648381e+2, -446589.72, -586128.06, 11362.451, 0.029434651, 0.15204377, -445670.53, -101073.98, 0.0, 10.000085, 9.998254 
3.149943e+2, 2.7483797e+2, -391385.6, -516703.38, -2563.5413, -0.076932475, 0.27893025, -391333.16, -144731.2, 0.00000000001473293, 9.999809, 9.998198 
3.1499103e+2, 2.848364e+2, -221402.44, -282976.25, 17498.693, -0.0441815, 0.2661478, -216776.95, -68159.46, 0.000000108201135, 9.999899, 9.999072 
3.1498927e+2, 2.9483345e+2, -99341.78, -178170.1, 52066.523, 0.07249538, 0.01860128, -73453.58, -22810.59, 0.0000023186144, 10.000061, 9.999044 
3.1498358e+2, 3.0483344e+2, -97308.016, -211049.95, -48390.273, -0.10066405, 0.14655218, -79506.87, -79506.87, 0.000012381474, 9.999979, 9.998561 
3.1497952e+2, 3.1483173e+2, -126892.59, -29749.244, 28506.66, 0.008159705, 0.08763115, -22001.854, -22001.854, 0.000038038284, 9.998856, 10.000349 
3.250623e+2, 1.2485322e+2, -1624104.5, -1757518.3, 67939.11, 0.014377272, 0.087085664, -1595598.4, 120852.914, 0.0001575099, 10.0008745, 9.9992695 
3.2505828e+2, 1.3485335e+2, -1423314.8, -1637335.3, -23313.94, 0.10138272, 0.15802023, -1420804.5, 197646.19, 0.00006189271, 10.001766, 9.998997 
3.2505262e+2, 1.4485152e+2, -1281561.4, -1502571.3, 28238.527, 0.014977112, 0.07518909, -1278010.4, 242457.64, 0.000012633238, 10.001995, 9.999123 
3.2504824e+2, 1.548504e+2, -1197170.6, -1425089.4, -1509.1365, 0.00831574, 0.01172798, -1197160.6, 225316.36, 0.0000008198343, 10.001964, 9.998999 
3.2504475e+2, 1.6484953e+2, -1149756.8, -1361877.9, 51524.445, 0.039027184, 0.04068723, -1137903.8, 186581.34, 0.000000004124255, 10.0016985, 9.998874 
3.250417e+2, 1.7484874e+2, -1122133.0, -1306827.0, 44009.598, 0.073468365, 0.041594084, -1112182.3, 114312.555, 0.0, 10.001236, 9.998811 
3.250382e+2, 1.8484832e+2, -1047460.3, -1144878.3, 28814.06, 0.12162908, 0.09177104, -1039575.9, 88923.25, 0.0, 10.0007515, 9.999475 
3.2503423e+2, 1.9484812e+2, -1040688.3, -1094809.4, 28061.75, 0.1939668, 0.08587243, -1028765.06, 1734.2515, 0.0, 10.000146, 9.99944 
3.2502913e+2, 2.0484737e+2, -956277.5, -1059600.4, 47356.176, 0.17249347, 0.0977742, -937856.75, -5350.973, 0.0, 10.000281, 9.998952 
3.2502285e+2, 2.1484588e+2, -752114.0, -915866.06, 40309.81, 0.046035443, 0.020816758, -742729.06, 91791.88, 0.0, 10.001035, 9.998904 
3.250178e+2, 2.2484535e+2, -616671.4, -740593.06, 76409.41, -0.005342649, 0.05807783, -580257.7, 156267.69, 0.0, 10.001045, 9.999423 
3.2501408e+2, 2.348456e+2, -628090.1, -699891.56, 26731.43, 0.029374031, 0.105630934, -619231.1, 19289.736, 0.0, 10.00031, 9.999386 
3.2500988e+2, 2.448449e+2, -598546.44, -703325.56, -16648.922, 0.05978963, 0.1326515, -595964.6, -55437.59, 0.0, 10.000133, 9.998776 
3.2500502e+2, 2.5484303e+2, -425277.72, -568381.94, -31803.074, 0.084062666, 0.031250175, -418528.22, 24017.723, 0.0, 10.000642, 9.998782 
3.249999e+2, 2.648424e+2, -338976.5, -538542.8, 20436.494, 0.030361507, 0.12245216, -336905.22, 7649.375, 0.0, 10.000842, 9.998221 
3.2499456e+2, 2.7484265e+2, -254425.64, -451144.22, 27921.555, -0.07103739, 0.29395694, -250539.33, -3982.9463, 0.00000000010851988, 10.000757, 9.998189 
3.2499126e+2, 2.848412e+2, -167637.63, -276745.8, 83100.29, -0.025281737, 0.30142558, -122784.445, 25787.242, 0.00000014604628, 10.000335, 9.998917 
3.2498965e+2, 2.9483804e+2, -182258.38, -230175.44, 54130.2, 0.14446832, 0.047642358, -147021.56, -96421.5, 0.0000023415487, 9.999539, 9.998942 
3.2498342e+2, 3.0483803e+2, -133384.61, -184475.58, -7819.097, -0.07754677, 0.16260847, -132214.75, -132214.75, 0.000012312151, 9.999591, 9.998902 
3.2497934e+2, 3.1483743e+2, 18633.166, -13791.256, 35019.066, 0.056961104, 0.17600189, 41010.73, 41010.73, 0.000036624067, 10.000145, 9.9998045 
3.3506352e+2, 1.2485733e+2, -1606369.0, -1701481.8, 12338.515, -0.030458651, 0.10650202, -1604794.5, 111620.14, 0.00013854062, 10.00081, 9.999678 
3.3505985e+2, 1.3485853e+2, -1380777.1, -1529869.9, 12543.484, 0.04646439, 0.20957544, -1379729.1, 238671.97, 0.000055370125, 10.001715, 9.999741 
3.3505383e+2, 1.4485738e+2, -1318357.8, -1564025.3, 5235.9985, -0.10490474, 0.17826864, -1318246.1, 202165.63, 0.000011804474, 10.001931, 9.998733 
3.3504984e+2, 1.5485582e+2, -1225702.6, -1474286.9, 12490.171, -0.06556837, 0.10924074, -1225076.6, 197350.95, 0.00000057438905, 10.0019245, 9.998678 
3.3504623e+2, 1.6485493e+2, -1137302.6, -1323243.6, 19853.074, -0.016105024, 0.13300242, -1135206.5, 189229.77, 0.00000000201948, 10.001638, 9.999171 
3.3504286e+2, 1.7485465e+2, -1107348.8, -1268606.8, 43756.934, 0.02630479, 0.15579583, -1096240.6, 130198.17, 0.0, 10.001199, 9.999093 
3.3503836e+2, 1.8485458e+2, -1031128.9, -1079834.6, -11448.663, 0.027864683, 0.20251007, -1028572.0, 99866.234, 0.0, 10.000618, 9.999988 
3.3503273e+2, 1.9485447e+2, -1019192.2, -1025186.1, 18814.021, -0.0030250365, 0.1547092, -1003137.94, 27299.178, 0.0, 10.000041, 9.999968 
3.3502796e+2, 2.048542e+2, -965725.4, -1041730.25, 59387.453, 0.0022578707, 0.17808923, -933222.06, -783.3811, 0.0, 10.000126, 9.999148 
3.3502406e+2, 2.1485353e+2, -765349.0, -897927.06, 83291.74, 0.033215124, 0.16185446, -725187.3, 109258.07, 0.0, 10.000843, 9.999119 
3.350195e+2, 2.2485211e+2, -712011.1, -896663.4, 34033.72, 0.029891253, 0.14885081, -705938.0, 30520.465, 0.0, 10.000871, 9.998433 
3.3501437e+2, 2.3484974e+2, -726429.56, -856160.2, 10529.944, -0.00030723168, 0.032144263, -725580.44, -87100.4, 0.0, 10.0001135, 9.998404 
3.3500975e+2, 2.4484801e+2, -612757.8, -716356.9, -12797.086, 0.00659195, 0.009769176, -611200.5, -70704.24, 0.0, 10.000054, 9.998726 
3.3500555e+2, 2.548468e+2, -450114.72, -586130.1, 596.8733, 0.03881469, -0.021956848, -450112.1, -7603.5415, 0.0, 10.000499, 9.998728 
3.3500066e+2, 2.6484603e+2, -308200.88, -459436.03, 1891.3932, -0.0062844465, 0.03013039, -308177.22, 36339.17, 0.0, 10.00078, 9.998791 
3.3499518e+2, 2.7484524e+2, -233467.14, -375034.78, 39422.85, -0.12016308, 0.037598584, -223229.3, 23294.549, 0.000000000044508567, 10.000621, 9.998775 
3.3499196e+2, 2.84844e+2, -204975.34, -349261.5, 38958.016, -0.01992736, 0.059187654, -195128.48, -46591.2, 0.00000018851506, 10.0002985, 9.998441 
3.3499047e+2, 2.948426e+2, -226086.56, -310447.84, 43755.543, 0.22884284, 0.02715994, -207490.94, -156936.2, 0.0000023038672, 9.999474, 9.998433 
3.3498317e+2, 3.0484375e+2, -92314.79, -91248.81, 4987.0117, -0.09360263, 0.25403395, -86766.39, -86766.39, 0.000011796056, 9.999562, 9.999555 
3.349785e+2, 3.14843e+2, -28692.578, -84462.67, 69299.086, -0.11526695, 0.19432658, 18121.361, 18121.361, 0.000034748333, 10.000017, 9.999391 
3.450653e+2, 1.2486245e+2, -1478856.9, -1624902.9, 37606.1, 0.047826257, 0.18414211, -1469742.4, 246625.27, 0.00012841672, 10.001628, 9.999807 
3.4506136e+2, 1.3486326e+2, -1477100.5, -1555850.9, -13915.283, 0.0830522, 0.22553691, -1474714.0, 143642.48, 0.00005393956, 10.000937, 9.999959 
3.4505537e+2, 1.4486253e+2, -1493190.8, -1623370.3, 31172.72, -0.06606894, 0.21653032, -1486111.1, 34251.195, 0.00001321429, 10.000644, 9.998931 
3.450517e+2, 1.5486147e+2, -1340504.6, -1514722.4, 34813.11, -0.01851925, 0.18153213, -1333805.8, 88568.16, 0.00000089811203, 10.001084, 9.998799 
3.4504798e+2, 1.6486058e+2, -1186019.4, -1328392.9, 63699.176, 0.02658675, 0.19047864, -1161680.5, 162701.36, 0.0000000015154811, 10.001204, 9.999353 
3.4504396e+2, 1.748598e+2, -1137019.1, -1258625.8, 52988.09, 0.039896034, 0.14315414, -1117170.3, 109216.7, 0.0, 10.000891, 9.9993105 
3.450389e+2, 1.8485959e+2, -1038268.2, -1096822.3, -28.227802, 0.027558703, 0.16974501, -1038268.2, 90119.14, 0.0, 10.000618, 9.999878 
3.450329e+2, 1.948596e+2, -987455.8, -1026659.75, -43974.105, 0.002955486, 0.146196, -958912.6, 71473.94, 0.0, 10.000315, 9.999835 
3.4502828e+2, 2.0485944e+2, -951241.9, -1034315.5, 22507.846, 0.0250005, 0.18758188, -945535.6, -13147.665, 0.0, 10.00023, 9.999144 
3.450251e+2, 2.1485886e+2, -843384.56, -937853.06, -852.91986, 0.089364074, 0.18240343, -843376.9, -8982.832, 0.0, 10.000317, 9.999095 
3.4502068e+2, 2.2485739e+2, -767779.8, -925362.0, -19458.525, 0.08946786, 0.1661299, -765412.6, -29004.922, 0.0, 10.000489, 9.998427 
3.4501508e+2, 2.3485479e+2, -635190.44, -813398.1, 4606.9565, 0.035514824, 0.02802975, -635071.44, 3359.9539, 0.0, 10.0007305, 9.99841 
3.4501037e+2, 2.4485306e+2, -536146.3, -686483.56, 54076.14, 0.039821938, 0.008685045, -518716.06, 21731.525, 0.0, 10.000624, 9.998653 
3.4500647e+2, 2.54852e+2, -499303.5, -625775.1, 33193.027, 0.10204511, 0.0031111666, -491121.22, -48662.4, 0.0, 10.0002165, 9.998601 
3.450018e+2, 2.6485097e+2, -387848.78, -505130.22, 44465.4, 0.06299418, 0.044417817, -372896.66, -28428.0, 0.0, 10.0002775, 9.998716 
3.4499648e+2, 2.7484968e+2, -201949.78, -364899.3, 1910.4418, -0.054073755, 0.005965234, -201927.38, 44553.305, 0.0, 10.0008745, 9.998721 
3.449928e+2, 2.8484833e+2, -171479.56, -337201.34, -24462.154, 0.030438183, 0.020737657, -167944.14, -19448.814, 0.00000016974016, 10.000578, 9.998373 
3.4499025e+2, 2.948472e+2, -232241.78, -320286.72, -17931.129, 0.27079135, 0.030053155, -228730.03, -178219.56, 0.0000020169734, 9.99948, 9.998353 
3.4498268e+2, 3.048486e+2, -93540.664, -73949.0, 39728.113, -0.07959851, 0.2761094, -42826.848, -42826.848, 0.0000103175025, 9.999446, 9.999746 
3.4497935e+2, 3.1484735e+2, -34566.348, -75496.26, -13975.635, -0.0104265865, 0.13955683, -30249.602, -30249.602, 0.000031962787, 9.999907, 9.999505 
3.5506687e+2, 1.2486845e+2, -1500857.6, -1659275.6, -87394.48, -0.045987517, 0.31108692, -1462118.1, 254193.38, 0.00012227354, 10.001578, 9.999595 
3.5506234e+2, 1.3486752e+2, -1484451.5, -1572524.1, -26581.258, 0.04979977, 0.2011337, -1477050.9, 141265.61, 0.00005490219, 10.00096, 9.9998255 
3.5505673e+2, 1.4486715e+2, -1451802.3, -1541608.3, 29094.682, -0.040096622, 0.20069395, -1443200.3, 77117.67, 0.000015641235, 10.000653, 9.999496 
3.550534e+2, 1.5486725e+2, -1303743.4, -1445227.6, 65879.84, 0.0025474846, 0.23290178, -1277818.0, 144498.64, 0.0000017221555, 10.001104, 9.999272 
3.5504946e+2, 1.6486637e+2, -1185502.5, -1306188.0, 33800.69, 0.020026991, 0.21236715, -1176680.8, 147642.05, 0.000000007086625, 10.001115, 9.999545 
3.5504445e+2, 1.7486426e+2, -1130670.5, -1231017.6, 56648.48, -0.031280622, 0.009660208, -1105170.9, 121167.97, 0.0, 10.000828, 9.999529 
3.5503927e+2, 1.848634e+2, -1109512.0, -1214739.3, -23298.873, -0.02296432, -0.003654133, -1104584.0, 23761.857, 0.0, 10.000491, 9.999129 
3.5503423e+2, 1.9486368e+2, -1057269.9, -1145125.5, -39167.37, 0.07568879, 0.07628936, -1042344.2, -11998.788, 0.0, 10.0002, 9.999077 
3.5502973e+2, 2.0486327e+2, -993745.9, -1086322.5, 11358.766, 0.117812626, 0.14501837, -992372.56, -60021.227, 0.0, 10.000071, 9.998866 
3.550257e+2, 2.1486193e+2, -885827.75, -988668.9, 18146.016, 0.08825669, 0.08840743, -882719.9, -48353.594, 0.0, 10.000154, 9.998827 
3.5502103e+2, 2.2486122e+2, -720810.0, -791693.9, -21889.314, 0.048471086, 0.113350585, -714595.3, 21777.47, 0.0, 10.000337, 9.999416 
3.5501572e+2, 2.3486093e+2, -591863.06, -682019.9, 28502.766, -0.00056266534, 0.10746641, -583607.94, 54765.16, 0.0, 10.000556, 9.999394 
3.5501114e+2, 2.4486016e+2, -570340.6, -725468.44, 26628.152, 0.025376078, 0.14314666, -565897.1, -25517.037, 0.0, 10.000493, 9.998445 
3.5500726e+2, 2.5485858e+2, -537382.7, -669710.0, 32771.49, 0.1301083, 0.109465815, -529711.4, -87314.68, 0.0, 10.000073, 9.998364 
3.5500288e+2, 2.6485732e+2, -444274.84, -609835.1, 53628.348, 0.11226779, 0.17140643, -428421.56, -84010.9, 0.0, 10.000217, 9.998028 
3.5499802e+2, 2.7485606e+2, -268462.0, -479629.84, 41775.055, -0.019843915, 0.20464852, -260498.05, -14072.527, 0.0, 10.00077, 9.997984 
3.549933e+2, 2.8485405e+2, -160903.84, -304267.13, -78066.36, -0.009525239, 0.18438023, -126601.47, 21844.486, 0.00000011654808, 10.000533, 9.998622 
3.549885e+2, 2.9485172e+2, -230343.73, -292935.28, -37536.45, 0.10255565, 0.04224154, -212768.14, -162299.19, 0.0000016052002, 9.999384, 9.998588 
3.549815e+2, 3.0485252e+2, -93712.09, -78016.47, 50138.125, -0.17609696, 0.21816492, -35115.688, -35115.688, 0.000008325357, 9.999449, 9.999723 
3.5498077e+2, 3.1485137e+2, -7265.51, 1377.4495, -5085.4087, 0.06337396, 0.092523575, 3729.542, 3729.542, 0.000028551576, 9.999809, 10.000088 
3.6506885e+2, 1.248736e+2, -1683547.0, -1771300.4, -28958.494, 0.07341042, 0.27843833, -1674852.3, 41406.74, 0.000118926524, 10.00041, 9.999403 
3.650638e+2, 1.3487199e+2, -1404807.8, -1571989.6, 1741.2104, 0.0755605, 0.13776177, -1404789.6, 213481.48, 0.000056465244, 10.001669, 9.999488 
3.650589e+2, 1.4487153e+2, -1275954.8, -1463075.1, 48205.504, 0.060028814, 0.14727886, -1264266.3, 256007.55, 0.00001794202, 10.001878, 9.999452 
3.6505505e+2, 1.5487163e+2, -1305678.9, -1446386.3, 12804.685, 0.06904228, 0.18240906, -1304523.1, 117749.875, 0.000002788093, 10.001091, 9.999276 
3.650507e+2, 1.64871e+2, -1265787.0, -1310980.6, -6836.4644, 0.077359326, 0.17358764, -1264775.5, 59501.313, 0.00000008230677, 10.000426, 9.999843 
3.6504522e+2, 1.7486945e+2, -1259054.6, -1256610.1, -14009.32, 0.024317184, -0.0033370706, -1243769.8, -17482.48, 0.0, 9.9998, 9.999845 
3.6504003e+2, 1.8486872e+2, -1158939.6, -1261086.9, -3053.3938, 0.024095522, -0.008632794, -1158848.5, -30555.11, 0.0, 10.000255, 9.998924 
3.6503544e+2, 1.9486864e+2, -844846.0, -1065352.9, -5147.661, 0.10625515, 0.058027714, -844725.9, 185571.22, 0.0, 10.001763, 9.998872 
3.6503083e+2, 2.0486805e+2, -733965.3, -954713.75, 61150.68, 0.14259632, 0.11478245, -718157.6, 214147.6, 0.0, 10.001821, 9.998932 
3.6502618e+2, 2.1486664e+2, -861621.0, -967818.6, 60366.37, 0.12568133, 0.044711795, -834323.44, -2.9025269, 0.0, 10.000278, 9.998913 
3.6502147e+2, 2.2486627e+2, -766625.4, -799581.6, 79574.164, 0.08419945, 0.09214502, -701841.1, 34483.176, 0.0, 9.999959, 9.999547 
3.650167e+2, 2.3486675e+2, -530120.0, -637044.5, 37073.36, 0.033094063, 0.15171762, -518523.47, 119794.92, 0.0, 10.000914, 9.999531 
3.6501226e+2, 2.4486612e+2, -447880.06, -690858.0, 2302.212, 0.054197818, 0.20429835, -447858.25, 92466.43, 0.0, 10.001417, 9.998252 
3.6500815e+2, 2.5486413e+2, -355741.9, -596013.0, -15929.048, 0.15345947, 0.14641754, -354690.47, 87654.88, 0.0, 10.001385, 9.9982395 
3.6500368e+2, 2.648628e+2, -310666.97, -549235.2, 69259.03, 0.13201502, 0.20593892, -292018.06, 52342.242, 0.0, 10.001165, 9.997977 
3.64999e+2, 2.7486163e+2, -268856.28, -484318.22, 76880.2, 0.009838952, 0.26059446, -244237.23, 2136.7966, 0.0, 10.000793, 9.997937 
3.6499387e+2, 2.8485975e+2, -143524.58, -290801.5, -13220.604, -0.0016399097, 0.24816418, -142347.22, 6045.692, 0.000000055764154, 10.000606, 9.9986925 
3.64988e+2, 2.948574e+2, -57976.742, -203815.94, -15938.192, 0.06946538, 0.09864509, -56255.24, -5841.211, 0.0000011855267, 10.000537, 9.998647 
3.6498153e+2, 3.048571e+2, -23428.596, -65877.766, 98402.36, -0.1336476, 0.17234018, 56012.145, 56012.145, 0.0000067298934, 10.000054, 9.999501 
3.6498106e+2, 3.1485614e+2, -136448.27, -27457.084, -64537.484, 0.17674409, 0.08116905, 2515.4023, 2515.4023, 0.00002565761, 9.998803, 10.000369 
3.7507015e+2, 1.2487817e+2, -1688723.4, -1784219.6, -47471.176, 0.084422484, 0.14270853, -1669141.0, 47066.63, 0.0001191897, 10.000414, 9.999306 
3.7506512e+2, 1.3487664e+2, -1435624.4, -1636367.8, 57930.316, 0.005210993, 0.046202064, -1420106.5, 198114.03, 0.00005856906, 10.00167, 9.99904 
3.7506133e+2, 1.4487569e+2, -1326156.8, -1546857.3, -615.474, 0.07406254, 0.05581072, -1326155.0, 194074.78, 0.000020069963, 10.001794, 9.998916 
3.750562e+2, 1.5487461e+2, -1340115.3, -1519781.3, 975.8705, 0.035822377, 0.02711804, -1340110.0, 82132.75, 0.0000038584762, 10.001096, 9.998772 
3.7505126e+2, 1.648745e+2, -1251620.3, -1266929.5, -43988.07, 0.057641685, 0.07542632, -1214625.8, 109617.9, 0.00000020238203, 10.000364, 10.000173 
3.7504584e+2, 1.748754e+2, -1244646.6, -1218346.3, -21801.625, 0.06922002, 0.1122585, -1206036.0, 20195.951, 0.0, 9.999757, 10.00013 
3.7504065e+2, 1.8487547e+2, -1149072.6, -1213237.5, 38730.223, 0.028538026, 0.15372409, -1130862.8, -2632.3438, 0.0, 10.000137, 9.999307 
3.75036e+2, 1.9487438e+2, -836907.5, -1017443.06, 68200.984, -0.043669835, 0.078170374, -814039.75, 216202.94, 0.0, 10.001632, 9.999261 
3.7503123e+2, 2.0487362e+2, -731168.4, -913034.06, -9133.048, -0.029749785, 0.08313666, -730710.9, 201539.86, 0.0, 10.001663, 9.999296 
3.7502605e+2, 2.14873e+2, -862581.3, -926192.56, 15607.121, 0.05728267, 0.0568213, -858958.44, -24701.621, 0.0, 10.0000925, 9.999288 
3.7502152e+2, 2.2487256e+2, -839071.7, -915468.06, 97106.9, 0.06915284, 0.1144791, -772920.2, -36658.113, 0.0, 9.999802, 9.998831 
3.7501758e+2, 2.3487209e+2, -602709.4, -754671.6, 86358.78, 0.00029753722, 0.1480116, -563664.5, 74604.5, 0.0, 10.000762, 9.9988 
3.7501338e+2, 2.4487092e+2, -470124.5, -711497.75, -11931.987, -0.00539159, 0.1882814, -469536.1, 70745.88, 0.0, 10.001307, 9.998164 
3.750086e+2, 2.548687e+2, -383694.34, -623110.06, -1164.2649, 0.028561387, 0.11848168, -383688.7, 58615.457, 0.0, 10.0012455, 9.998123 
3.7500376e+2, 2.6486725e+2, -279784.28, -469055.75, 42648.848, -0.008829484, 0.14578953, -270618.06, 73700.55, 0.0, 10.001094, 9.998563 
3.7499893e+2, 2.748663e+2, -238254.17, -400534.97, 80087.66, -0.11130763, 0.1593531, -205386.69, 40941.188, 0.0, 10.000702, 9.998559 
3.749939e+2, 2.8486538e+2, -147555.52, -291219.28, -27916.748, -0.093846925, 0.21051319, -142321.42, 6014.9077, 0.00000003400916, 10.0005665, 9.998711 
3.7498826e+2, 2.9486448e+2, -78939.375, -225790.42, 115.66983, -0.00058965554, 0.20579422, -78939.28, -28594.703, 0.000000899484, 10.000434, 9.998551 
3.749822e+2, 3.0486247e+2, -68210.555, -143360.08, 48079.344, -0.10071135, 0.14496042, -44764.945, -44764.945, 0.000005766145, 9.999996, 9.998995 
3.7497923e+2, 3.1486103e+2, -168090.97, -69997.92, -84592.875, 0.043392334, 0.054028157, -21261.443, -21261.443, 0.000023929499, 9.998705, 10.000125 
3.850722e+2, 1.248829e+2, -1567575.5, -1731986.6, -24131.84, 0.21925883, 0.10528741, -1564106.8, 152052.69, 0.00012316402, 10.001292, 9.999236 
3.850664e+2, 1.3488162e+2, -1469812.5, -1687999.5, 21596.672, -0.02000826, 0.061966717, -1467695.4, 150476.97, 0.000061385945, 10.001573, 9.998743 
3.850634e+2, 1.4488067e+2, -1396556.4, -1552695.8, -26712.62, 0.1426965, 0.07535555, -1392112.8, 128070.09, 0.000022093489, 10.001199, 9.999154 
3.850572e+2, 1.5488008e+2, -1447102.0, -1541420.0, -14247.345, 0.08120355, 0.070244335, -1444996.9, -22806.172, 0.000004863891, 10.000249, 9.999021 
3.850517e+2, 1.6488011e+2, -1287395.5, -1303376.5, 15213.27, 0.08200193, 0.12684813, -1278202.0, 45988.63, 0.00000029520132, 10.000177, 10.000028 
3.8504612e+2, 1.7488085e+2, -1076812.6, -1151513.4, -20278.25, 0.06967285, 0.16104807, -1071662.9, 154518.44, 0.0, 10.000957, 10.000018 
3.8504097e+2, 1.84881e+2, -1047170.1, -1142518.1, 48759.508, 0.023309488, 0.20479698, -1026651.06, 101528.52, 0.0, 10.000733, 9.999507 
3.8503662e+2, 1.9488007e+2, -1144631.1, -1147583.5, 31621.896, -0.025565045, 0.12409655, -1114451.0, -84260.78, 0.0, 9.999419, 9.99944 
3.8503188e+2, 2.0487957e+2, -1022884.5, -1039836.2, -30539.402, -0.016209854, 0.13874106, -999666.56, -67470.91, 0.0, 9.999603, 9.999417 
3.8502654e+2, 2.1487932e+2, -674547.75, -826514.4, -49636.52, 0.04393469, 0.13937005, -659771.8, 174426.14, 0.0, 10.001331, 9.999383 
3.850221e+2, 2.2487882e+2, -580365.25, -802460.0, 71166.195, 0.06558861, 0.19043258, -559518.2, 176685.61, 0.0, 10.001634, 9.998716 
3.8501862e+2, 2.3487787e+2, -652188.3, -788217.56, 75737.77, 0.049617633, 0.18599585, -618408.06, 19807.086, 0.0, 10.000476, 9.998698 
3.8501453e+2, 2.4487667e+2, -615287.25, -753750.0, 55419.12, 0.04326846, 0.21445842, -595838.0, -55609.984, 0.0, 10.000212, 9.998381 
3.8500968e+2, 2.548748e+2, -416836.7, -620888.8, 57675.82, 0.035065517, 0.15694454, -401662.84, 40583.19, 0.0, 10.000935, 9.998283 
3.8500458e+2, 2.6487318e+2, -313952.78, -478300.53, 87059.336, -0.013074551, 0.15458454, -276410.84, 67850.54, 0.0, 10.000817, 9.998643 
3.8499945e+2, 2.7487165e+2, -358208.22, -446244.47, 54781.473, -0.077144034, 0.102486916, -331951.13, -85676.21, 0.0, 9.999826, 9.998667 
3.8499442e+2, 2.8487092e+2, -269408.44, -362942.88, -7300.0513, -0.051096868, 0.17076345, -268842.13, -120560.555, 0.000000026095549, 9.999795, 9.998586 
3.8498917e+2, 2.948707e+2, -45785.176, -220413.02, -16204.835, 0.04119644, 0.2487625, -44294.156, 5989.6006, 0.00000066980994, 10.000716, 9.998447 
3.8498378e+2, 3.0486795e+2, 50802.418, -124610.19, 26553.586, 0.02133206, 0.13758433, 54733.926, 54733.926, 0.000005131084, 10.000971, 9.998655 
3.8497883e+2, 3.1486675e+2, 26426.484, -18029.576, -151749.45, 0.07344554, 0.099333055, 157567.23, 157567.23, 0.000023471404, 10.000224, 9.999747 
3.9507434e+2, 1.2488806e+2, -1596620.8, -1762832.6, -22577.504, 0.22644562, 0.17287898, -1593608.5, 122503.05, 0.0001272644, 10.001203, 9.999063 
3.9506707e+2, 1.3488701e+2, -1494852.3, -1719346.3, 47153.223, -0.14056678, 0.1752158, -1485350.3, 132775.48, 0.00006380605, 10.001513, 9.99855 
3.9506462e+2, 1.4488655e+2, -1350225.4, -1441399.5, -80008.91, 0.101226136, 0.2084198, -1303727.6, 216404.47, 0.000023677207, 10.001119, 9.999961 
3.9505753e+2, 1.5488791e+2, -1388197.6, -1418633.6, -35646.02, 0.046151794, 0.31084982, -1364657.1, 57461.297, 0.000005569423, 10.000241, 9.999867 
3.9505154e+2, 1.6488764e+2, -1329866.9, -1372578.5, 24522.41, 0.014376267, 0.31777075, -1318704.8, 5415.116, 0.00000035120044, 10.000103, 9.999588 
3.950457e+2, 1.7488576e+2, -1121983.6, -1221264.5, 24966.232, -0.099345766, 0.13680775, -1116058.9, 110077.26, 0.0, 10.000861, 9.999585 
3.9504066e+2, 1.8488522e+2, -1067209.6, -1154604.8, -13913.783, -0.11291896, 0.13592207, -1065047.9, 63093.695, 0.0, 10.000601, 9.999493 
3.9503682e+2, 1.948858e+2, -1163445.1, -1152981.8, -4192.1978, 0.018691186, 0.20986289, -1151509.3, -121370.57, 0.0, 9.99928, 9.999469 
3.9503244e+2, 2.0488599e+2, -1050540.6, -1058302.5, 17798.693, 0.051865634, 0.29316404, -1036204.6, -104065.74, 0.0, 9.999437, 9.999372 
3.9502722e+2, 2.1488558e+2, -708583.2, -845990.25, 32985.758, -0.049252607, 0.28213695, -701074.94, 133069.14, 0.0, 10.00112, 9.999348 
3.950229e+2, 2.2488505e+2, -568529.9, -740296.5, 17100.922, -0.04950681, 0.30648094, -566843.9, 169305.22, 0.0, 10.001469, 9.999226 
3.9501938e+2, 2.3488408e+2, -639714.7, -724752.0, 49160.426, 0.047909714, 0.25418904, -617236.56, 20920.373, 0.0, 10.000315, 9.999212 
3.950154e+2, 2.448833e+2, -595980.7, -688896.3, 68168.93, 0.07520395, 0.27601823, -559944.06, -19780.627, 0.0, 10.000102, 9.998885 
3.9501083e+2, 2.5488237e+2, -398031.3, -552295.0, 100247.54, 0.02553745, 0.26153257, -348676.44, 93495.234, 0.0, 10.000803, 9.998823 
3.9500573e+2, 2.648806e+2, -354717.7, -545710.25, 37047.063, -0.0076953187, 0.23622657, -347783.38, -3595.184, 0.0, 10.000738, 9.998221 
3.9500007e+2, 2.7487767e+2, -406134.2, -523328.0, 33387.227, -0.030242609, 0.09105837, -397289.97, -151074.58, 0.0, 9.99972, 9.998196 
3.9499497e+2, 2.8487623e+2, -296653.66, -397044.72, 13310.355, -0.0069366433, 0.12429025, -294918.88, -146689.56, 0.000000010243951, 9.999713, 9.998385 
3.949902e+2, 2.9487607e+2, -76706.63, -247891.39, 38938.992, 0.036188073, 0.23164971, -68265.51, -18033.7, 0.0000005130985, 10.000571, 9.998326 
3.949858e+2, 3.048736e+2, 40975.254, -142005.33, -8592.926, 0.09820603, 0.15307687, 41377.9, 41377.9, 0.0000059963604, 10.000952, 9.998546 
3.9497888e+2, 3.148729e+2, -24474.094, -96302.56, -116653.0, -0.010166094, 0.18758237, 61668.03, 61668.03, 0.000027747768, 10.000113, 9.999261 
4.0507638e+2, 1.248926e+2, -1558558.3, -1735994.9, 61936.945, 0.32315505, 0.17493773, -1539077.1, 176991.17, 0.0001282802, 10.001392, 9.999166 
4.0506786e+2, 1.3489237e+2, -1696616.8, -1794704.4, 34273.824, -0.12015119, 0.23573412, -1685827.5, -67752.65, 0.00006493345, 10.000019, 9.998755 
4.050656e+2, 1.4489195e+2, -1546943.9, -1517450.3, -35188.723, 0.16816454, 0.25294444, -1494043.3, 26037.29, 0.00002457309, 9.9996805, 10.000137 
4.0505755e+2, 1.5489307e+2, -1345529.0, -1379999.0, -73717.234, 0.027575476, 0.31211996, -1287058.9, 135008.98, 0.000005781208, 10.000438, 10.000048 
4.0505165e+2, 1.648927e+2, -1287061.0, -1366700.9, 12133.186, 0.0039520073, 0.30883232, -1285253.5, 38816.71, 0.0000003430959, 10.000463, 9.999448 
4.0504655e+2, 1.7489088e+2, -1291408.9, -1321170.6, -414.15372, -0.03487833, 0.14538367, -1291403.1, -65315.16, 0.0, 9.999765, 9.999424 
4.050415e+2, 1.8489039e+2, -1191338.3, -1217087.9, -12005.21, -0.037775293, 0.1589606, -1186609.5, -58515.867, 0.0, 9.999776, 9.999456 
4.0503684e+2, 1.9489098e+2, -993584.7, -1076278.4, -27256.906, 0.043542728, 0.24057336, -985408.8, 44681.234, 0.0, 10.000475, 9.999421 
4.050324e+2, 2.0489103e+2, -893731.8, -994842.1, 48864.887, 0.059310623, 0.31813058, -873976.25, 58115.176, 0.0, 10.000567, 9.999254 
4.0502807e+2, 2.1489029e+2, -875296.1, -941388.3, 26286.691, -0.013332327, 0.28446603, -866116.25, -32016.078, 0.0, 10.000038, 9.999209 
4.0502402e+2, 2.2488974e+2, -748242.94, -799166.5, -4086.3005, -0.0055702855, 0.30091175, -747917.1, -11811.925, 0.0, 10.000116, 9.999475 
4.0502027e+2, 2.3488909e+2, -551315.56, -661060.75, -18593.506, 0.08779453, 0.2553605, -548251.0, 89858.12, 0.0, 10.000816, 9.999417 
4.050161e+2, 2.4488847e+2, -488371.0, -621615.6, 14013.43, 0.11190018, 0.2784887, -486913.16, 53200.29, 0.0, 10.000769, 9.999028 
4.0501153e+2, 2.548878e+2, -505234.34, -578080.1, -6293.278, 0.065216884, 0.27017495, -504694.66, -62575.09, 0.0, 9.999981, 9.999032 
4.0500674e+2, 2.6488632e+2, -413357.8, -558006.4, -24832.566, 0.05135969, 0.25693437, -409213.44, -65080.59, 0.0, 10.000255, 9.998364 
4.0500164e+2, 2.7488366e+2, -127664.89, -376861.06, -10263.408, 0.07371683, 0.12203737, -127242.9, 118914.055, 0.0, 10.001561, 9.998313 
4.0499622e+2, 2.8488216e+2, -30074.49, -289725.6, 17242.78, 0.06526811, 0.15333214, -28934.445, 119236.87, 0.0000000008315615, 10.00162, 9.998206 
4.0499067e+2, 2.9488164e+2, -104439.766, -271785.3, 12527.94, 0.045138527, 0.23649743, -103507.086, -53329.176, 0.0000007104038, 10.000415, 9.998233 
4.0498668e+2, 3.0487916e+2, -88669.03, -195357.02, 4344.098, 0.15162764, 0.15333012, -88492.44, -88492.44, 0.000009515816, 10.000018, 9.998633 
4.049795e+2, 3.1487855e+2, 2847.4314, -77788.664, -88410.35, 0.048998576, 0.1928129, 59699.004, 59699.004, 0.000039448827, 10.000233, 9.999344 
4.1507745e+2, 1.2489627e+2, -1515681.8, -1659360.8, 52800.242, 0.20776156, 0.10113737, -1498365.4, 217666.89, 0.00012596608, 10.001426, 9.999675 
4.1506824e+2, 1.3489775e+2, -1635876.1, -1692481.5, -8278.584, -0.12741123, 0.25815228, -1634690.3, -16670.56, 0.00006410072, 10.000091, 9.999429 
4.1506577e+2, 1.4489684e+2, -1578391.4, -1570440.1, -23687.813, 0.17582451, 0.2099183, -1550396.6, -30368.197, 0.00002430965, 9.999645, 9.999785 
4.1505706e+2, 1.5489568e+2, -1381378.9, -1434311.0, -27471.49, -0.103552476, 0.079958834, -1369698.8, 52338.81, 0.0000053776803, 10.000367, 9.999704 
4.1505155e+2, 1.6489543e+2, -1298426.3, -1366514.6, -27893.8, -0.085507125, 0.103259, -1288458.4, 35582.258, 0.0000002359893, 10.000359, 9.999498 
4.1504815e+2, 1.748963e+2, -1297291.0, -1315682.8, -10719.93, 0.111571945, 0.20302549, -1292363.1, -66327.35, 0.0, 9.999693, 9.9994955 
4.150429e+2, 1.848965e+2, -1205522.4, -1224911.6, -1809.0276, 0.096278064, 0.2796152, -1205355.0, -77319.4, 0.0, 9.999684, 9.999444 
4.150362e+2, 1.948956e+2, -1012672.9, -1085710.0, 12414.164, -0.09751519, 0.2127748, -1010620.5, 19423.408, 0.0, 10.000355, 9.999407 
4.1503146e+2, 2.0489468e+2, -931027.2, -1044381.25, 15410.824, -0.12281354, 0.20798482, -928969.4, 3083.8555, 0.0, 10.000433, 9.998988 
4.1502863e+2, 2.148935e+2, -919501.4, -986903.4, 19160.33, 0.008896005, 0.15591815, -914435.44, -80369.58, 0.0, 9.999838, 9.998994 
4.150251e+2, 2.2489296e+2, -777528.5, -817873.8, 8244.368, 0.06321871, 0.1865971, -775908.8, -39837.523, 0.0, 9.999935, 9.999435 
4.1502076e+2, 2.3489277e+2, -576514.2, -675906.7, 23129.473, 0.027698485, 0.19019933, -571395.4, 66676.85, 0.0, 10.000658, 9.999392 
4.150161e+2, 2.4489217e+2, -514023.38, -650116.3, -26730.547, 0.0055149435, 0.22006334, -508961.4, 31116.645, 0.0, 10.00066, 9.998883 
4.1501123e+2, 2.5489086e+2, -533176.8, -608294.9, -19560.277, 0.0014129421, 0.16584831, -528388.6, -86297.37, 0.0, 9.999856, 9.998884 
4.150071e+2, 2.6489013e+2, -371638.97, -448468.94, 11955.463, 0.033448547, 0.19489285, -369821.6, -25724.08, 0.0, 10.000167, 9.999154 
4.150037e+2, 2.748897e+2, -90045.28, -267974.9, 54265.367, 0.08279135, 0.20323619, -74801.33, 171297.73, 0.0, 10.001445, 9.999109 
4.1499785e+2, 2.848889e+2, -38116.535, -312750.75, -44109.5, 0.026565993, 0.26706868, -31205.922, 116900.72, 0.00000000001177225, 10.001629, 9.998054 
4.1498983e+2, 2.9488742e+2, -128450.336, -301090.28, -18267.906, -0.12467615, 0.2734088, -126538.49, -76416.47, 0.0000013022876, 10.000316, 9.998086 
4.1498578e+2, 3.048846e+2, -62071.09, -129747.1, 3552.668, 0.024784515, 0.14185089, -61885.1, -61885.1, 0.000014575742, 9.999985, 9.999091 
4.149798e+2, 3.1488433e+2, 39610.734, 35750.246, 29150.209, -0.019390482, 0.16753438, 66894.54, 66894.54, 0.000055427667, 10.000097, 10.000176 
4.250781e+2, 1.2490041e+2, -1647422.8, -1709329.6, 129042.555, 0.19353892, 0.10050642, -1545673.1, 170319.1, 0.00012015749, 10.000453, 9.999803 
4.2506915e+2, 1.3490205e+2, -1562354.8, -1630178.4, -100469.08, -0.053013384, 0.24604616, -1490228.6, 127748.914, 0.00006079175, 10.000477, 9.999665 
4.2506623e+2, 1.4490116e+2, -1492385.8, -1529006.1, -58818.31, 0.23654386, 0.18880026, -1449093.5, 70892.164, 0.00002257458, 10.000238, 9.99978 
4.2505723e+2, 1.5489969e+2, -1507613.3, -1492597.4, -80248.3, -0.06782351, 0.02447908, -1419506.6, 2491.1614, 0.0000044461326, 9.999499, 9.999716 
4.250517e+2, 1.6489965e+2, -1410671.3, -1421767.1, -30004.81, -0.056664124, 0.07094867, -1385705.8, -61706.617, 0.00000009724189, 9.99961, 9.9994755 
4.2504877e+2, 1.749011e+2, -1166538.0, -1252989.6, -46951.26, 0.16582562, 0.23237938, -1145944.6, 80045.19, 0.0, 10.000603, 9.999487 
4.2504358e+2, 1.8490142e+2, -1026982.4, -1131510.3, -12267.278, 0.14195415, 0.31840172, -1025562.0, 102426.76, 0.0, 10.000865, 9.999524 
4.2503643e+2, 1.9490017e+2, -1010244.3, -1077970.5, -18891.645, -0.09907481, 0.20867082, -1005331.06, 24669.2, 0.0, 10.000322, 9.999483 
4.2503178e+2, 2.0489927e+2, -939409.44, -1006913.44, 31046.523, -0.1169471, 0.1800672, -927302.06, 4706.1563, 0.0, 10.000208, 9.99935 
4.250294e+2, 2.1489838e+2, -800432.75, -893677.4, 52025.61, 0.079400875, 0.12594812, -777195.9, 56819.363, 0.0, 10.0005, 9.999319 
4.2502582e+2, 2.2489788e+2, -716763.1, -802205.9, 96914.66, 0.12826334, 0.14979547, -653571.5, 82448.516, 0.0, 10.000422, 9.9993 
4.250208e+2, 2.3489758e+2, -690607.8, -742142.5, 70458.51, 0.013659284, 0.15624413, -641352.75, -3328.868, 0.0, 9.999937, 9.999276 
4.2501622e+2, 2.4489702e+2, -596692.25, -682853.3, 46768.18, -0.010290353, 0.19478662, -576186.7, -36156.758, 0.0, 10.000057, 9.998955 
4.2501217e+2, 2.5489584e+2, -386367.47, -533850.56, 41398.543, 0.07172685, 0.1491451, -375541.56, 66499.73, 0.0, 10.000834, 9.998933 
4.250082e+2, 2.648951e+2, -285567.88, -402213.8, 86807.92, 0.10723867, 0.17508675, -239309.86, 104737.8, 0.0, 10.000734, 9.99921 
4.2500427e+2, 2.748946e+2, -340646.53, -380905.44, 46240.223, 0.0935114, 0.16872494, -310344.3, -64293.113, 0.0, 9.999693, 9.999185 
4.2499843e+2, 2.8489396e+2, -260449.61, -375100.16, -29229.22, 0.015681101, 0.2300532, -253427.89, -105371.56, 0.0000000012455732, 9.999942, 9.99842 
4.2499107e+2, 2.948929e+2, 73232.77, -165515.6, -678.3044, -0.084885545, 0.24531928, 73234.7, 123300.51, 0.0000019825331, 10.00154, 9.998426 
4.2498678e+2, 3.0489007e+2, 146099.52, -38791.86, 19671.969, 0.06855348, 0.09646698, 148169.39, 148169.39, 0.000019679212, 10.001465, 9.999003 
4.2498064e+2, 3.1489e+2, -36720.53, -25877.621, -1756.9238, 0.095543295, 0.14790995, -25600.045, -25600.045, 0.00007104561, 9.99967, 9.999966 
4.350777e+2, 1.24905005e+2, -1668176.9, -1734817.0, 167903.83, 0.030960869, 0.16653562, -1530318.9, 185629.53, 0.00011272219, 10.000407, 9.999644 
4.3507028e+2, 1.3490534e+2, -1575816.3, -1652385.0, -81843.21, -0.028557483, 0.19779982, -1523745.8, 94201.84, 0.00005585788, 10.000468, 9.9995165 
4.3506643e+2, 1.4490482e+2, -1481550.8, -1496507.6, -98128.76, 0.18890645, 0.17455745, -1390615.9, 129337.055, 0.000019900395, 10.000185, 10.000033 
4.3505746e+2, 1.5490499e+2, -1483249.8, -1449521.9, -92282.88, -0.032354698, 0.14812586, -1372574.8, 49374.184, 0.0000034951138, 9.999519, 10.000006 
4.3505162e+2, 1.6490519e+2, -1425250.6, -1433674.9, -8732.761, -0.062784724, 0.20440868, -1419767.3, -95819.96, 0.000000032016867, 9.999538, 9.999424 
4.3504792e+2, 1.7490524e+2, -1183329.9, -1266649.4, 5506.778, -0.014041404, 0.2304917, -1182967.5, 42982.445, 0.0, 10.000517, 9.999431 
4.3504295e+2, 1.849052e+2, -1035434.3, -1117060.8, -46052.074, -0.03707508, 0.27539724, -1014712.9, 113239.8, 0.0, 10.000729, 9.99969 
4.3503708e+2, 1.9490483e+2, -1017321.06, -1059653.5, -23592.771, -0.0983158, 0.2351432, -1006791.44, 23166.361, 0.0, 10.000187, 9.999674 
4.350328e+2, 2.0490481e+2, -897611.44, -883578.8, 26360.604, -0.060769923, 0.24145852, -863316.75, 68638.92, 0.0, 10.000049, 10.000272 
4.3502995e+2, 2.1490487e+2, -760896.25, -773274.94, 76852.16, 0.0563081, 0.18577506, -689984.6, 143964.22, 0.0, 10.000335, 10.000223 
4.3502572e+2, 2.2490454e+2, -759839.8, -854235.25, 65073.996, 0.0511386, 0.19599758, -726649.44, 9301.151, 0.0, 10.000259, 9.999022 
4.3502006e+2, 2.3490348e+2, -733948.8, -793706.2, 67021.336, -0.08804334, 0.15570463, -690447.7, -52483.695, 0.0, 9.99977, 9.999002 
4.350161e+2, 2.4490301e+2, -600618.75, -660819.8, 61402.473, -0.061360873, 0.20636357, -562335.75, -22366.555, 0.0, 9.999935, 9.999158 
4.3501392e+2, 2.5490284e+2, -392233.7, -512677.1, 85374.26, 0.13123134, 0.23549138, -347978.5, 93990.125, 0.0, 10.000699, 9.999137 
4.3500957e+2, 2.649014e+2, -338355.72, -500964.53, 35943.82, 0.13948691, 0.2132684, -330764.88, 13216.971, 0.0, 10.000681, 9.998561 
4.350028e+2, 2.7489835e+2, -397515.8, -479208.5, 24144.78, -0.055618573, 0.018325644, -390913.3, -144901.05, 0.0, 9.999599, 9.998557 
4.349974e+2, 2.848974e+2, -211630.28, -258884.27, 18618.68, -0.115800574, 0.038538553, -205175.89, -57155.76, 0.000000012355592, 9.99989, 9.999237 
4.3499398e+2, 2.9489833e+2, 113161.664, -59150.44, 75609.91, 0.011624555, 0.16589154, 141634.25, 191641.73, 0.0000027662056, 10.001451, 9.999197 
4.3498936e+2, 3.0489567e+2, 95095.6, -146604.39, -59082.25, 0.14611611, 0.030789556, 108764.875, 108764.875, 0.000024180765, 10.001464, 9.998266 
4.34981e+2, 3.1489518e+2, -153238.14, -240064.39, 18906.406, 0.08824914, 0.12018501, -149299.9, -149299.9, 0.00008333817, 9.999557, 9.9985485 
4.4507882e+2, 1.2490961e+2, -1662062.1, -1712355.8, 269311.25, 0.12195168, 0.18507367, -1416726.3, 299177.53, 0.00010688196, 10.000417, 9.999777 
4.4507056e+2, 1.3490984e+2, -1768354.1, -1722947.5, -68924.79, 0.038257677, 0.1896696, -1673083.1, -55178.363, 0.000051033883, 9.999079, 9.999702 
4.4506496e+2, 1.449097e+2, -1597087.8, -1549746.0, 7413.783, 0.07614295, 0.19581053, -1548612.1, -28704.969, 0.000017295639, 9.999375, 10.000057 
4.4505844e+2, 1.5491046e+2, -1241201.5, -1329799.5, -45151.87, 0.041069597, 0.22144163, -1222246.4, 199651.86, 0.0000027656245, 10.001161, 10.000037 
4.4505292e+2, 1.6491047e+2, -1170074.8, -1310124.8, 35185.996, 0.037510242, 0.25468606, -1161731.6, 162165.89, 0.000000035556127, 10.001256, 9.999461 
4.4504726e+2, 1.7490952e+2, -1309747.9, -1325775.9, 28761.0, -0.0724623, 0.17703362, -1287905.3, -61998.11, 0.0, 9.9996195, 9.99947 
4.450421e+2, 1.8490937e+2, -1269532.8, -1220277.4, 21273.727, -0.0999436, 0.20700799, -1212361.4, -84451.38, 0.0, 9.999104, 9.999751 
4.4503796e+2, 1.949097e+2, -1088751.8, -1088128.3, 2198.1533, 0.0049741156, 0.23423338, -1086219.9, -56310.85, 0.0, 9.999684, 9.999711 
4.4503406e+2, 2.0490998e+2, -875767.7, -864855.7, 54752.14, 0.060457725, 0.2647329, -815288.4, 116616.21, 0.0, 10.000187, 10.000322 
4.4503027e+2, 2.1490987e+2, -719330.4, -744490.9, 9528.93, 0.05044922, 0.18812974, -716128.9, 117770.375, 0.0, 10.000594, 10.000288 
4.450258e+2, 2.2490954e+2, -713357.1, -823685.2, -26551.434, 0.02434329, 0.19307236, -707299.8, 28600.531, 0.0, 10.000545, 9.999091 
4.450206e+2, 2.3490871e+2, -696533.2, -771396.56, -27380.604, -0.013000041, 0.16821243, -687587.9, -49676.703, 0.0, 10.000005, 9.999042 
4.450169e+2, 2.4490817e+2, -589454.75, -653666.5, 42817.92, 0.029796043, 0.20692916, -568042.75, -28126.127, 0.0, 10.0, 9.999179 
4.4501472e+2, 2.549077e+2, -417937.88, -521033.2, 24930.754, 0.15847637, 0.20245509, -412225.56, 29693.191, 0.0, 10.000506, 9.999172 
4.4501024e+2, 2.6490626e+2, -344634.47, -527985.3, -31606.668, 0.14535245, 0.18829143, -339338.97, 4594.0366, 0.0, 10.0007515, 9.998333 
4.450032e+2, 2.7490354e+2, -239718.19, -431446.9, -44331.31, -0.026430326, 0.05087289, -229964.17, 15998.621, 0.0, 10.00081, 9.998299 
4.4499817e+2, 2.849026e+2, -69670.35, -176967.94, 10519.432, -0.062136896, 0.08125909, -68648.76, 79322.75, 0.00000003062236, 10.0007925, 9.999375 
4.4499594e+2, 2.9490325e+2, -13909.21, -95859.16, -21253.307, 0.120028734, 0.1670179, -8725.202, 41235.79, 0.0000032986038, 10.000484, 9.999405 
4.4499055e+2, 3.049013e+2, 30958.313, -169861.98, -140799.48, 0.15676355, 0.09095222, 103483.68, 103483.68, 0.000027227657, 10.000985, 9.998328 
4.4498268e+2, 3.1490073e+2, 243145.33, -83677.555, -28559.463, 0.17248477, 0.16069773, 245622.23, 245622.23, 0.000091368296, 10.002437, 9.998222 
4.5508054e+2, 1.2491415e+2, -1644820.8, -1673731.5, 195081.61, 0.17072605, 0.14067684, -1463659.8, 252199.33, 0.000102696926, 10.000397, 10.0000515 
4.5506936e+2, 1.3491549e+2, -1731670.1, -1662623.3, -103187.42, -0.028026205, 0.21644948, -1588337.1, 29512.453, 0.000047349753, 9.99913, 10.000097 
4.5506138e+2, 1.4491566e+2, -1614991.3, -1576710.0, 64592.42, -0.267225, 0.24152926, -1528481.9, -8632.043, 0.000015080613, 9.999338, 9.999887 
4.5505977e+2, 1.5491599e+2, -1261729.8, -1360545.1, 39075.977, 0.014005842, 0.24430433, -1248145.0, 173701.48, 0.0000021144335, 10.001118, 9.999843 
4.5505518e+2, 1.6491546e+2, -1166592.4, -1286939.1, -43610.215, 0.10284455, 0.22430576, -1152451.0, 171398.95, 0.00000004449902, 10.001181, 9.999658 
4.550465e+2, 1.7491393e+2, -1299625.5, -1301009.4, -16904.02, -0.14849259, 0.06916019, -1283399.3, -57537.844, 0.0, 9.999597, 9.999652 
4.5504072e+2, 1.8491387e+2, -1291363.5, -1243870.8, 27649.36, -0.1830231, 0.105379835, -1231170.3, -103309.07, 0.0, 9.999012, 9.99963 
4.5503855e+2, 1.9491494e+2, -1120738.3, -1118214.4, 36187.59, 0.06271419, 0.21302088, -1083266.6, -53413.53, 0.0, 9.999535, 9.999571 
4.5503497e+2, 2.0491485e+2, -958338.44, -998963.5, 54833.96, 0.10625605, 0.26065496, -920175.6, 11678.281, 0.0, 10.000023, 9.999483 
4.5502988e+2, 2.1491346e+2, -806727.1, -875425.25, 39298.0, -0.0795578, 0.13564166, -788882.44, 44983.2, 0.0, 10.000382, 9.999487 
4.5502555e+2, 2.2491302e+2, -710475.75, -781135.75, -59828.977, -0.080748774, 0.14941041, -676324.0, 59544.543, 0.0, 10.000378, 9.999471 
4.5502198e+2, 2.3491327e+2, -688380.8, -721823.94, -32029.717, 0.0941901, 0.19261748, -668970.5, -31105.143, 0.0, 9.999858, 9.999455 
4.5501816e+2, 2.449125e+2, -618091.56, -680067.06, 48601.715, 0.1295648, 0.19702989, -591439.3, -51567.41, 0.0, 9.999866, 9.999066 
4.5501417e+2, 2.5491035e+2, -444872.94, -543763.0, 60260.12, 0.021371718, 0.041822203, -416368.66, 25522.996, 0.0, 10.000363, 9.999091 
4.5500988e+2, 2.6490954e+2, -354251.34, -524771.4, -40257.207, 0.0018442101, 0.09100182, -345225.0, -1323.1095, 0.0, 10.000657, 9.998394 
4.550051e+2, 2.7490997e+2, -254811.38, -436140.75, -22448.557, 0.044083815, 0.25600833, -252073.58, -6169.5356, 0.0, 10.000699, 9.998313 
4.550004e+2, 2.8490952e+2, -110132.92, -254892.86, -13764.369, 0.045012463, 0.36013255, -108835.77, 39074.64, 0.000000022691747, 10.000753, 9.998863 
4.5499638e+2, 2.9490763e+2, -49471.563, -163886.69, -16314.777, 0.06985604, 0.2448081, -47190.664, 2735.6887, 0.0000033720132, 10.000436, 9.998972 
4.549898e+2, 3.0490693e+2, 89698.96, -36816.96, -93970.234, -0.052855138, 0.26461363, 139719.3, 139719.3, 0.000028360193, 10.000953, 9.999247 
4.5498493e+2, 3.1490633e+2, 281467.75, 16370.637, 65432.105, 0.07749523, 0.24081247, 296738.28, 296738.28, 0.00009465621, 10.002351, 9.998947 
4.6508005e+2, 1.2491908e+2, -2032733.8, -1815787.1, 165124.19, 0.24032006, 0.18072867, -1726694.1, -10879.954, 0.00009773488, 9.9975, 10.000474 
4.6506992e+2, 1.3492076e+2, -1622736.9, -1557817.5, -129171.055, 0.1059571, 0.23295465, -1457090.1, 160709.28, 0.000043477085, 9.999608, 10.000596 
4.6506038e+2, 1.4492108e+2, -1463936.3, -1519137.4, 94144.875, -0.34498844, 0.25501063, -1393429.5, 126368.13, 0.000012657647, 10.000444, 9.99975 
4.6506044e+2, 1.5492149e+2, -1444588.5, -1463086.1, 32871.89, 0.044511713, 0.27954176, -1419689.0, 2105.701, 0.0000014631825, 9.999931, 9.999713 
4.6505657e+2, 1.6492102e+2, -1322245.1, -1367118.4, -57304.152, 0.18685383, 0.27424294, -1283141.8, 40655.926, 0.000000030371112, 10.000154, 9.999592 
4.6504775e+2, 1.7491943e+2, -1081799.1, -1201728.4, -83391.086, -0.052443236, 0.11971979, -1039051.4, 186757.17, 0.0, 10.00113, 9.999588 
4.6504173e+2, 1.849189e+2, -947262.7, -1126709.1, -13223.643, -0.10354607, 0.12959307, -946293.44, 181518.63, 0.0, 10.001555, 9.999226 
4.6503907e+2, 1.9491906e+2, -882973.5, -1050873.3, -51093.45, 0.08277899, 0.19173576, -868647.6, 161163.75, 0.0, 10.001338, 9.999185 
4.6503532e+2, 2.0491861e+2, -883547.94, -1004746.3, -11125.908, 0.111908585, 0.23561902, -882535.06, 49281.47, 0.0, 10.000703, 9.999122 
4.6503022e+2, 2.1491721e+2, -941157.44, -987329.1, -25320.37, -0.035867468, 0.15083832, -929978.5, -96148.125, 0.0, 9.999649, 9.999081 
4.6502608e+2, 2.2491662e+2, -817251.06, -818827.56, -67653.51, -0.0156199895, 0.16562748, -750381.2, -14546.289, 0.0, 9.999603, 9.999569 
4.6502295e+2, 2.3491663e+2, -568518.56, -652304.7, -93393.18, 0.17517425, 0.17363426, -508052.88, 129779.516, 0.0, 10.000648, 9.999543 
4.6501884e+2, 2.4491584e+2, -511029.34, -645757.94, -17545.871, 0.18000776, 0.17921174, -508781.8, 31057.533, 0.0, 10.000665, 9.998911 
4.6501386e+2, 2.5491402e+2, -566671.5, -621449.94, -38385.45, 0.0020088772, 0.06732155, -546905.5, -105046.68, 0.0, 9.999602, 9.998918 
4.6500975e+2, 2.649136e+2, -481452.66, -534865.1, -71797.1, -0.013552467, 0.13877326, -431555.72, -87690.195, 0.0, 9.999541, 9.998876 
4.6500632e+2, 2.7491438e+2, -262756.0, -385368.0, -45853.777, 0.123087555, 0.29934946, -247504.88, -1644.0695, 0.0, 10.000398, 9.998817 
4.6500182e+2, 2.849139e+2, -133463.45, -269094.3, 4076.2988, 0.12974535, 0.37588105, -133341.06, 14525.333, 0.00000001636591, 10.000615, 9.998826 
4.6499676e+2, 2.9491156e+2, -67951.69, -164201.22, -8533.846, 0.081910186, 0.21301597, -67200.91, -17313.57, 0.0000038591365, 10.000288, 9.999028 
4.6498993e+2, 3.0491135e+2, 48926.324, -118540.76, -26780.068, -0.11799204, 0.30416036, 53104.547, 53104.547, 0.000029778155, 10.000899, 9.998747 
4.6498832e+2, 3.1490982e+2, 258764.89, 4120.834, -43620.156, 0.20734991, 0.24587148, 266029.72, 266029.72, 0.00009717631, 10.002181, 9.998966 
4.7507644e+2, 1.2492433e+2, -2002519.3, -1715042.8, 110919.94, 0.049833365, 0.30927846, -1677221.4, 38548.434, 0.00009217974, 9.997374, 10.00121 
4.750718e+2, 1.3492566e+2, -1572131.9, -1440084.5, -31840.861, 0.29044473, 0.2466954, -1432807.6, 184946.4, 0.00003847725, 9.999585, 10.001398 
4.7506145e+2, 1.4492604e+2, -1472150.5, -1535670.6, 58570.066, -0.3335848, 0.24187432, -1437283.5, 82466.336, 0.000009911169, 10.000422, 9.999658 
4.750601e+2, 1.5492694e+2, -1442671.1, -1470071.5, 27846.424, -0.022827348, 0.32247624, -1425337.1, -3593.8835, 0.0000009593812, 9.999963, 9.999658 
4.7505677e+2, 1.6492705e+2, -1355604.3, -1421565.0, -35916.508, 0.1553693, 0.3947674, -1339822.9, -16081.097, 0.000000014696447, 10.0000925, 9.999251 
4.7505057e+2, 1.7492595e+2, -1116764.9, -1258884.5, -30143.395, 0.082166076, 0.32732987, -1110635.9, 115113.71, 0.0, 10.001067, 9.99923 
4.7504452e+2, 1.8492442e+2, -1003131.4, -1220365.5, -34290.31, -0.009158512, 0.28747526, -997847.2, 129915.27, 0.0, 10.001454, 9.998634 
4.7503918e+2, 1.9492221e+2, -939631.5, -1145590.6, -43008.477, -0.07377928, 0.17011984, -931011.25, 98771.89, 0.0, 10.001234, 9.998589 
4.7503462e+2, 2.0492123e+2, -901576.8, -1005878.4, -63979.426, -0.05242468, 0.19054627, -871186.25, 60605.98, 0.0, 10.000552, 9.999182 
4.7503093e+2, 2.1492124e+2, -962471.06, -987612.3, -48880.293, 0.03781082, 0.2371966, -924570.9, -90778.19, 0.0, 9.999469, 9.99916 
4.75027e+2, 2.2492042e+2, -853240.06, -866390.9, -42889.176, 0.08226054, 0.23898576, -816425.2, -80626.05, 0.0, 9.999471, 9.999315 
4.7502303e+2, 2.3491864e+2, -608634.9, -699818.75, -38884.5, 0.08836288, 0.09304851, -594304.94, 43508.566, 0.0, 10.000486, 9.999299 
4.7501847e+2, 2.4491806e+2, -544366.7, -688229.56, -69407.336, 0.044612855, 0.14073443, -516340.56, 23479.79, 0.0, 10.000543, 9.998681 
4.7501332e+2, 2.5491846e+2, -603348.94, -672432.44, -62088.38, -0.048173852, 0.27203822, -566840.7, -125018.46, 0.0, 9.99948, 9.998631 
4.7500938e+2, 2.6491818e+2, -426358.6, -396218.47, -54329.234, -0.03492065, 0.3287116, -354907.94, -11082.865, 0.0, 9.999446, 9.999869 
4.7500643e+2, 2.749169e+2, -204978.13, -239253.95, 3326.9023, 0.062060874, 0.17712657, -204658.2, 41174.59, 0.0, 10.000295, 9.999866 
4.7500205e+2, 2.8491578e+2, -113876.58, -225804.63, -23683.777, 0.05551066, 0.12080635, -109071.42, 38768.383, 0.0000000367379, 10.000594, 9.999138 
4.7499654e+2, 2.949147e+2, -62849.348, -135445.14, -4274.9775, -0.007904697, 0.051237993, -62598.473, -12751.265, 0.000004901276, 10.000189, 9.999284 
4.7499058e+2, 3.0491433e+2, -93808.81, -389312.06, 8269.508, -0.17082582, 0.2066378, -93577.58, -93577.58, 0.000032907166, 10.000808, 9.996922 
4.749919e+2, 3.1491107e+2, 199875.25, -97513.28, 8386.301, 0.27114648, 0.16241628, 200111.55, 200111.55, 0.00010232853, 10.00211, 9.998291 
4.8507428e+2, 1.2492871e+2, -1885377.9, -1677057.6, 113622.984, 0.07013607, 0.32911876, -1627076.5, 88652.336, 0.00008688649, 9.998252, 10.001063 
4.850725e+2, 1.3493003e+2, -1500103.9, -1419544.1, -33193.41, 0.39233127, 0.28388143, -1407629.5, 210083.86, 0.000032757685, 10.000128, 10.001299 
4.8506215e+2, 1.4493042e+2, -1389098.6, -1495826.4, -13785.935, -0.3194401, 0.2848926, -1387346.6, 132362.19, 0.000007215262, 10.001005, 9.999641 
4.850609e+2, 1.5493079e+2, -1281222.0, -1399282.5, -82030.91, 0.014952464, 0.31371596, -1239189.6, 182517.02, 0.00000059770906, 10.001101, 9.999594 
4.8505774e+2, 1.6493075e+2, -1191794.3, -1347739.9, -69855.67, 0.19697134, 0.37655765, -1165079.0, 158627.27, 0.0000000048834687, 10.001249, 9.999194 
4.8505214e+2, 1.7492998e+2, -1060077.5, -1233414.8, -67120.086, 0.12118475, 0.34508565, -1037126.06, 188584.89, 0.0, 10.001485, 9.999188 
4.850463e+2, 1.8492846e+2, -1033185.1, -1231424.6, -49152.117, 0.039459717, 0.30776593, -1021667.4, 106056.125, 0.0, 10.001259, 9.998633 
4.8504058e+2, 1.9492596e+2, -1043748.2, -1189447.1, -40853.85, -0.011188343, 0.1577143, -1033074.7, -3328.1655, 0.0, 10.000522, 9.998608 
4.8503566e+2, 2.0492487e+2, -897698.75, -1009027.25, -1971.7601, -0.0032601315, 0.16709241, -897663.9, 34092.633, 0.0, 10.000584, 9.999161 
4.850315e+2, 2.1492493e+2, -696567.1, -858604.3, -16494.209, 0.06906626, 0.22301275, -694905.2, 138850.64, 0.0, 10.001283, 9.999181 
4.8502752e+2, 2.2492413e+2, -615426.75, -777571.75, 23460.688, 0.10754634, 0.23443882, -612100.44, 123662.17, 0.0, 10.001211, 9.999092 
4.8502365e+2, 2.3492217e+2, -646735.56, -748767.56, -1204.7329, 0.11592018, 0.097216256, -646721.4, -8941.403, 0.0, 10.000336, 9.999044 
4.8501915e+2, 2.4492152e+2, -599775.7, -711500.7, -5036.8574, 0.087100744, 0.15113355, -599549.06, -59761.605, 0.0, 10.000152, 9.99871 
4.8501402e+2, 2.549221e+2, -433824.78, -584823.06, -11531.799, 0.023946162, 0.3015314, -432949.16, 8837.262, 0.0, 10.000635, 9.998674 
4.850098e+2, 2.649216e+2, -267001.5, -327939.4, 12096.092, 0.0143717155, 0.33559728, -264688.25, 79102.34, 0.0, 10.000575, 9.999792 
4.8500642e+2, 2.7491954e+2, -257606.11, -275355.0, -44573.65, 0.05480747, 0.114095986, -221032.05, 24772.922, 0.0, 9.9999695, 9.99978 
4.850024e+2, 2.849181e+2, -187212.16, -291382.8, -93334.375, 0.0581553, 0.044961285, -132413.5, 15401.419, 0.00000008825205, 10.000211, 9.998874 
4.8499802e+2, 2.949175e+2, 76080.31, -102634.266, -154504.14, 0.074737795, 0.050341543, 165206.22, 215025.02, 0.0000056092463, 10.001285, 9.998981 
4.8499218e+2, 3.049165e+2, 13408.582, -354422.84, -58823.32, -0.11297524, 0.166396, 22586.559, 22586.559, 0.000035389916, 10.001614, 9.996764 
4.8499396e+2, 3.1491348e+2, 70274.016, -132279.02, -13195.843, 0.33273405, 0.16116491, 71130.07, 71130.07, 0.00010599746, 10.001091, 9.998542 
4.9507216e+2, 1.24932095e+2, -1949730.9, -1820641.9, -24413.576, -0.053532008, 0.24298339, -1816179.0, -100486.49, 0.00007926606, 9.998295, 10.000055 
4.9507156e+2, 1.3493393e+2, -1562971.3, -1551691.4, 49345.51, 0.25486326, 0.3372799, -1507664.5, 110012.5, 0.000026309035, 10.000134, 10.000385 
4.950622e+2, 1.449343e+2, -1405248.3, -1511185.9, -26189.957, -0.46178573, 0.38377059, -1399127.3, 120546.65, 0.0000047383246, 10.000928, 9.999574 
4.9506232e+2, 1.5493314e+2, -1291926.8, -1412025.0, -62328.863, 0.007436354, 0.26646662, -1265426.5, 156257.19, 0.0000002991547, 10.001064, 9.999521 
4.95059e+2, 1.6493228e+2, -1178848.6, -1308828.8, -76850.61, 0.16455749, 0.23803195, -1143192.1, 180497.13, 0.0000000005507737, 10.001192, 9.999491 
4.9505216e+2, 1.7493151e+2, -1048533.5, -1194224.8, -45576.992, -0.059809424, 0.17825575, -1035450.4, 190242.08, 0.0, 10.001418, 9.999491 
4.950467e+2, 1.8493095e+2, -1007659.94, -1152192.6, -89825.47, -0.07879513, 0.1902122, -964639.5, 163056.36, 0.0, 10.001148, 9.9992285 
4.9504283e+2, 1.9493024e+2, -1017092.2, -1110623.4, -55646.04, 0.12675199, 0.15788299, -991170.1, 38532.78, 0.0, 10.000418, 9.9992 
4.950378e+2, 2.0492946e+2, -919373.06, -1020212.75, 8030.2266, 0.12925987, 0.16957493, -918737.56, 12972.178, 0.0, 10.000431, 9.999162 
4.950316e+2, 2.1492839e+2, -719456.0, -874800.06, 25469.979, -0.07904676, 0.11310996, -715386.56, 118332.375, 0.0, 10.001134, 9.999147 
4.950271e+2, 2.249277e+2, -661190.1, -830788.25, -21177.615, -0.081901856, 0.15054935, -658585.7, 77140.02, 0.0, 10.00104, 9.998803 
4.9502432e+2, 2.349271e+2, -691470.7, -800571.75, -16148.299, 0.119930364, 0.17609327, -689130.75, -51398.26, 0.0, 10.000161, 9.998771 
4.9502042e+2, 2.4492629e+2, -602435.3, -683527.6, -518.58, 0.16992244, 0.21264061, -602432.0, -62691.74, 0.0, 10.000016, 9.998965 
4.9501544e+2, 2.549249e+2, -432006.78, -555063.6, 23733.027, 0.06862732, 0.1427498, -427588.22, 14164.273, 0.0, 10.000523, 9.998933 
4.9501055e+2, 2.6492363e+2, -363514.4, -504065.75, -26277.098, 0.00007999288, 0.14588049, -358762.38, -14998.294, 0.0, 10.000481, 9.998623 
4.950057e+2, 2.7492225e+2, -365015.56, -460174.22, -50720.32, -0.046039708, 0.108003944, -343051.06, -97273.18, 0.0, 9.999817, 9.998577 
4.9500233e+2, 2.8492108e+2, -254279.23, -412549.6, -64638.004, -0.005394367, 0.1667453, -231235.9, -83446.1, 0.00000018947561, 10.000137, 9.998075 
4.9500063e+2, 2.9492003e+2, 8976.837, -227762.67, -94009.01, 0.16532134, 0.2112093, 41766.242, 91567.86, 0.000005650319, 10.001229, 9.998144 
4.9499455e+2, 3.049179e+2, 122561.164, -133062.13, -85514.69, -0.07366278, 0.18256181, 148530.47, 148530.47, 0.00003451672, 10.001625, 9.998281 
4.9499342e+2, 3.1491697e+2, 142858.92, 35640.055, -6832.159, 0.09205377, 0.22121765, 143292.53, 143292.53, 0.00010176044, 10.001011, 9.999732 
5.0507087e+2, 1.24936245e+2, -1817589.4, -1792280.4, -127413.93, -0.045924615, 0.29638916, -1676894.0, 38758.04, 0.000066640154, 9.999374, 9.999717 
5.050715e+2, 1.3493693e+2, -1613321.6, -1624682.1, 59088.688, 0.26231727, 0.31962606, -1559640.9, 58007.03, 0.0000195532, 9.999991, 9.999954 
5.05064e+2, 1.4493704e+2, -1500863.9, -1541425.9, 11080.261, -0.32488415, 0.35731113, -1498034.5, 21612.17, 0.0000028130235, 10.0002165, 9.999703 
5.0506335e+2, 1.5493599e+2, -1371364.0, -1430952.1, -48300.633, 0.04515142, 0.23752855, -1344407.4, 77246.77, 0.00000011765629, 10.000453, 9.9996805 
5.050598e+2, 1.6493526e+2, -1262801.3, -1303564.6, -28581.855, 0.16423261, 0.19227083, -1248078.3, 75579.42, 0.000000000026416515, 10.000404, 9.999912 
5.050532e+2, 1.7493458e+2, -1224033.1, -1233985.6, -17144.355, -0.013304485, 0.10057586, -1211157.4, 14502.512, 0.0, 9.999998, 9.999911 
5.050478e+2, 1.8493451e+2, -1129714.8, -1195990.0, -36825.582, -0.027111923, 0.13235, -1113312.3, 14347.184, 0.0, 10.000234, 9.999379 
5.050437e+2, 1.9493473e+2, -905235.0, -1040120.3, -61621.12, 0.14285453, 0.18386449, -881322.94, 148335.88, 0.0, 10.001109, 9.999357 
5.0503856e+2, 2.0493428e+2, -816763.44, -967972.25, 2746.8325, 0.13803999, 0.21952538, -816713.56, 114949.71, 0.0, 10.001148, 9.999155 
5.0503254e+2, 2.1493287e+2, -856322.8, -940357.3, -16243.312, -0.040149868, 0.13045219, -853292.4, -19616.97, 0.0, 10.000219, 9.999122 
5.0502807e+2, 2.249321e+2, -777085.4, -894532.25, -18013.273, -0.043864418, 0.16535306, -774384.75, -38701.688, 0.0, 10.000272, 9.998742 
5.050251e+2, 2.3493177e+2, -545065.1, -729676.25, -28696.186, 0.13757671, 0.2214841, -540707.44, 96980.23, 0.0, 10.00119, 9.998753 
5.050211e+2, 2.4493064e+2, -413103.9, -595824.3, 12492.875, 0.18376613, 0.22980615, -412253.7, 127443.445, 0.0, 10.001321, 9.998941 
5.0501627e+2, 2.5492835e+2, -411829.5, -545674.7, -11187.737, 0.10706719, 0.07109473, -410900.78, 30814.434, 0.0, 10.00066, 9.998931 
5.0501144e+2, 2.6492682e+2, -397666.4, -585113.9, -18138.092, 0.04603743, 0.073304325, -395927.4, -52198.0, 0.0, 10.000508, 9.998068 
5.050063e+2, 2.7492577e+2, -264268.72, -475655.9, -32141.053, -0.0012065972, 0.12975341, -259489.78, -13747.558, 0.00000000061010413, 10.000768, 9.998021 
5.050033e+2, 2.8492454e+2, -180832.81, -399520.53, 55318.45, 0.055760786, 0.21447481, -167636.03, -19879.252, 0.00000027597625, 10.000744, 9.997875 
5.0500226e+2, 2.9492283e+2, -121619.98, -316356.25, 36017.04, 0.24983555, 0.21550635, -115172.02, -65396.887, 0.0000049916057, 10.000448, 9.997918 
5.04996e+2, 3.049204e+2, 20219.982, -124220.75, 48811.652, -0.030739836, 0.14452265, 35168.18, 35168.18, 0.000030276777, 10.000677, 9.998796 
5.0499433e+2, 3.1492025e+2, 147267.23, 45481.477, -33758.504, 0.098500006, 0.20600708, 157445.8, 157445.8, 0.000090633286, 10.001011, 9.999798 
5.150691e+2, 1.249412e+2, -1797905.5, -1757795.9, -271197.22, -0.23643461, 0.49439982, -1505912.9, 209694.02, 0.000052165007, 9.999391, 9.999947 
5.15072e+2, 1.3493915e+2, -1607233.6, -1621204.5, 96187.18, 0.26650113, 0.23498496, -1517778.5, 99846.266, 0.000013925394, 10.000029, 9.99996 
5.1506716e+2, 1.4493875e+2, -1482190.0, -1500891.0, -1046.209, -0.07969633, 0.20933004, -1482131.6, 37494.688, 0.000001645238, 10.000202, 9.999994 
5.150636e+2, 1.5493928e+2, -1357607.1, -1391184.5, -22521.113, -0.010664384, 0.21945387, -1346305.6, 75312.91, 0.00000003629146, 10.000403, 9.999981 
5.150595e+2, 1.649396e+2, -1240300.0, -1232976.5, -56228.855, 0.06032694, 0.23427565, -1180290.4, 143322.38, 0.0, 10.000305, 10.00044 
5.150548e+2, 1.7493924e+2, -1199539.3, -1164172.6, -16776.965, 0.10918776, 0.11799805, -1157480.4, 68132.39, 0.0, 9.999927, 10.000418 
5.1504916e+2, 1.849393e+2, -1161314.0, -1240636.3, -18835.98, 0.0485786, 0.15258677, -1157068.4, -29456.22, 0.0, 10.000139, 9.999115 
5.150426e+2, 1.949395e+2, -934527.9, -1085030.5, -12497.88, -0.10741093, 0.22503403, -933497.1, 96116.695, 0.0, 10.001031, 9.999087 
5.150376e+2, 2.0493923e+2, -854395.94, -1006545.4, -46085.71, -0.10681008, 0.2998601, -841525.4, 90092.56, 0.0, 10.0009775, 9.998973 
5.15034e+2, 2.149382e+2, -889160.9, -972449.06, -37026.188, 0.05108111, 0.26035163, -875080.94, -41453.74, 0.0, 10.000059, 9.99898 
5.1502997e+2, 2.2493717e+2, -783061.3, -877855.3, -261.49774, 0.09833358, 0.2696311, -783060.56, -47424.37, 0.0, 10.000136, 9.998929 
5.150254e+2, 2.3493597e+2, -551836.6, -714803.4, 21331.455, 0.020229276, 0.22273098, -549090.7, 88556.27, 0.0, 10.001056, 9.998926 
5.150207e+2, 2.4493448e+2, -443343.16, -633112.6, -25993.33, -0.017732013, 0.19706607, -439847.2, 99811.86, 0.0, 10.001214, 9.9987335 
5.1501614e+2, 2.5493243e+2, -446683.53, -586823.9, -19415.893, -0.016091935, 0.07896535, -444043.28, -2368.06, 0.0, 10.000519, 9.998717 
5.1501185e+2, 2.649311e+2, -409125.44, -585359.8, -22433.9, 0.009077131, 0.113574654, -406314.53, -62627.586, 0.0, 10.000413, 9.998113 
5.15008e+2, 2.7493015e+2, -273808.75, -476025.2, -598.9896, 0.052593023, 0.1743715, -273806.97, -28108.361, 0.0000000018853024, 10.000677, 9.998069 
5.150048e+2, 2.849284e+2, -160430.92, -348696.4, 29291.422, 0.09808673, 0.19151624, -155978.88, -8262.851, 0.00000034894228, 10.000712, 9.998235 
5.1500213e+2, 2.9492578e+2, -112468.586, -277452.13, 47433.137, 0.15038267, 0.05965554, -99803.67, -50063.273, 0.000004315403, 10.000358, 9.998227 
5.14996e+2, 3.0492386e+2, -18794.29, -189498.88, 56536.465, -0.13950726, 0.044525243, -1767.9417, -1767.9417, 0.000026122347, 10.000629, 9.998369 
5.1499593e+2, 3.1492302e+2, 53292.69, -118310.18, 1815.9036, 0.07704772, 0.08809019, 53311.906, 53311.906, 0.000081293096, 10.0008955, 9.998726 
5.250697e+2, 1.2494429e+2, -1719248.4, -1711339.1, -211791.38, -0.13365546, 0.43037486, -1503465.5, 212108.34, 0.000041919076, 9.99989, 10.00002 
5.250715e+2, 1.3494231e+2, -1499051.4, -1584010.5, 136344.33, 0.1856017, 0.19162017, -1398722.4, 218868.72, 0.000010470756, 10.000838, 9.99982 
5.250693e+2, 1.4494205e+2, -1421740.9, -1444205.4, 27823.904, 0.10598491, 0.17498693, -1402967.6, 116623.836, 0.0000009776196, 10.000498, 10.00024 
5.2506375e+2, 1.5494297e+2, -1498541.5, -1429596.4, -30128.371, 0.038361523, 0.19696592, -1418286.0, 3294.1287, 0.000000005050013, 9.999302, 10.000245 
5.2505904e+2, 1.6494364e+2, -1416776.8, -1325447.4, -26865.602, 0.057778444, 0.23876935, -1318130.8, 5441.4756, 0.0, 9.9991255, 10.0003805 
5.2505517e+2, 1.7494366e+2, -1190402.0, -1168001.5, -65335.71, 0.1600581, 0.1664132, -1112913.0, 112658.234, 0.0, 10.0000105, 10.000361 
5.250499e+2, 1.8494383e+2, -1086188.1, -1179916.4, -34849.277, 0.102587536, 0.20751558, -1074650.9, 52918.93, 0.0, 10.000557, 9.999336 
5.250433e+2, 1.9494396e+2, -980107.8, -1079238.4, -25665.734, -0.10904574, 0.2555147, -973856.94, 55713.56, 0.0, 10.000625, 9.999322 
5.2503854e+2, 2.0494342e+2, -859752.75, -1024872.0, -30718.621, -0.10266963, 0.30001503, -854223.06, 77353.18, 0.0, 10.000998, 9.99884 
5.250355e+2, 2.149419e+2, -668694.3, -884528.3, -45720.586, 0.12487142, 0.22748126, -659408.7, 174181.38, 0.0, 10.001639, 9.998827 
5.250315e+2, 2.2494082e+2, -568953.6, -769175.94, 21592.44, 0.16768283, 0.23608956, -566651.5, 168948.16, 0.0, 10.001608, 9.99895 
5.250264e+2, 2.3493987e+2, -570782.3, -725188.5, -1902.4905, 0.021593826, 0.2134226, -570758.9, 66849.28, 0.0, 10.000934, 9.998911 
5.2502155e+2, 2.449385e+2, -520662.1, -696337.94, -41371.895, -0.033525128, 0.20972335, -511406.6, 28213.527, 0.0, 10.00079, 9.998511 
5.250171e+2, 2.5493652e+2, -370895.06, -574438.0, -65355.6, 0.010622572, 0.12268189, -351717.0, 89920.234, 0.0, 10.00115, 9.998501 
5.2501285e+2, 2.649351e+2, -287786.66, -504032.97, -26542.936, 0.046949092, 0.14873697, -284576.34, 59073.27, 0.0, 10.001153, 9.998303 
5.250091e+2, 2.7493396e+2, -245504.94, -429950.3, -25884.492, 0.09658279, 0.16817555, -241941.25, 3719.3452, 0.00000000009174081, 10.000767, 9.998318 
5.250059e+2, 2.8493223e+2, -166441.16, -352717.5, 31461.902, 0.14365476, 0.17036456, -161270.78, -13593.302, 0.00000033351301, 10.000675, 9.998222 
5.25003e+2, 2.9492968e+2, -40039.117, -241828.5, -12222.35, 0.18584561, 0.049380008, -39301.508, 10400.475, 0.0000041082662, 10.000851, 9.998231 
5.2499694e+2, 3.049284e+2, 40684.33, -146153.27, 45643.223, -0.10427815, 0.09281267, 51238.484, 51238.484, 0.000024723933, 10.000962, 9.99852 
5.249968e+2, 3.149269e+2, -3548.1958, -122631.47, -66202.79, 0.123580575, 0.057511628, 25949.574, 25949.574, 0.00007789345, 10.000396, 9.99895 
5.3507113e+2, 1.2494547e+2, -1708723.3, -1700147.1, -229558.42, -0.072827004, 0.10451335, -1474836.8, 240716.53, 0.000035694404, 9.999945, 10.000069 
5.3506964e+2, 1.3494644e+2, -1529592.3, -1635620.5, 177633.72, -0.11091731, 0.19748893, -1397230.5, 220315.55, 0.000008273398, 10.00079, 9.9994955 
5.350698e+2, 1.4494699e+2, -1418834.4, -1419106.0, -33983.297, 0.06908439, 0.26737702, -1384986.6, 134554.39, 0.00000061502607, 10.000415, 10.000446 
5.3506356e+2, 1.5494715e+2, -1491508.3, -1407065.6, -59848.86, 0.04700299, 0.18436612, -1376044.0, 45494.055, 0.00000000036285042, 9.999268, 10.000413 
5.350581e+2, 1.6494744e+2, -1470810.3, -1427255.1, -11879.719, 0.020588243, 0.2154402, -1424225.6, -100689.75, 0.0, 9.999079, 9.999706 
5.35054e+2, 1.7494771e+2, -1243822.5, -1271267.0, -16221.192, 0.009772349, 0.23968305, -1236298.0, -10761.992, 0.0, 9.999973, 9.999675 
5.3504974e+2, 1.8494803e+2, -1053798.1, -1092057.4, -45783.934, -0.00048513256, 0.29539132, -1023308.06, 104224.664, 0.0, 10.000468, 9.99998 
5.350453e+2, 1.9494805e+2, -952927.0, -999521.4, -7716.9136, -0.0021310481, 0.2652389, -951682.2, 77847.27, 0.0, 10.000517, 9.999925 
5.350409e+2, 2.049469e+2, -888559.5, -1040279.0, -20535.768, 0.009131516, 0.22030425, -885829.06, 45709.09, 0.0, 10.000814, 9.9988165 
5.350366e+2, 2.1494432e+2, -697513.56, -902116.75, -8248.592, 0.043026824, 0.044808965, -697181.56, 136379.97, 0.0, 10.00146, 9.998789 
5.350321e+2, 2.2494325e+2, -609995.94, -820664.7, -17370.393, 0.04093846, 0.06976576, -608573.25, 126998.62, 0.0, 10.001453, 9.998674 
5.350273e+2, 2.3494346e+2, -612978.75, -771627.8, -11439.529, -0.00071605475, 0.18668081, -612158.1, 25413.32, 0.0, 10.000754, 9.998677 
5.3502303e+2, 2.4494258e+2, -558386.4, -743970.25, -41206.9, 0.0084598595, 0.25840005, -549648.25, -10067.103, 0.0, 10.000666, 9.998242 
5.35019e+2, 2.5494036e+2, -407744.25, -624414.0, -34146.453, 0.049150433, 0.17478445, -402490.28, 39113.387, 0.0, 10.001037, 9.998211 
5.350142e+2, 2.6493865e+2, -270900.72, -450791.0, -56577.49, 0.033950455, 0.16733135, -254586.08, 89032.4, 0.0, 10.001075, 9.998708 
5.3500897e+2, 2.749371e+2, -232547.53, -381078.28, -23583.1, -0.028605325, 0.10616661, -228893.03, 16736.389, 0.0, 10.000661, 9.998714 
5.350059e+2, 2.849357e+2, -195255.63, -400743.22, 26280.533, 0.044254005, 0.13827989, -191947.77, -44304.29, 0.00000019037492, 10.00063, 9.9979105 
5.350045e+2, 2.9493436e+2, -78674.85, -301241.06, 20101.82, 0.20668994, 0.16972071, -76873.86, -27212.174, 0.0000040138116, 10.000759, 9.9978695 
5.349986e+2, 3.0493394e+2, 83746.57, -56659.21, 20278.898, -0.06847337, 0.2849372, 86616.79, 86616.79, 0.000024880646, 10.000957, 9.999136 
5.34996e+2, 3.149317e+2, 97555.45, 77251.24, -68804.125, -0.08114884, 0.11456278, 156952.42, 156952.42, 0.00007745561, 10.000418, 10.000319 
5.4507256e+2, 1.2494876e+2, -1681387.9, -1685582.9, -151859.75, 0.087741904, 0.0020758589, -1531611.1, 183906.7, 0.00003031358, 10.000115, 10.000123 
5.450682e+2, 1.3495064e+2, -1797842.1, -1761020.3, 149841.11, -0.22831576, 0.19219048, -1628463.3, -10961.124, 0.000006366235, 9.998939, 9.999533 
5.4507023e+2, 1.4495127e+2, -1692940.4, -1561617.9, -6689.067, 0.17575592, 0.27371523, -1561278.0, -41780.61, 0.00000037085837, 9.998576, 10.000364 
5.450636e+2, 1.5495133e+2, -1419337.0, -1377252.0, -86743.32, 0.10750246, 0.19214395, -1309035.4, 112461.125, 0.00000000007720086, 9.999779, 10.000376 
5.450579e+2, 1.6495152e+2, -1289628.0, -1350806.4, 25957.73, 0.036697775, 0.21827058, -1280098.6, 43397.445, 0.0, 10.0004015, 9.999577 
5.4505396e+2, 1.7495166e+2, -1197820.8, -1260199.1, 27156.82, -0.0058764103, 0.24391665, -1187654.6, 37842.605, 0.0, 10.000372, 9.999546 
5.4505014e+2, 1.8495171e+2, -1061053.4, -1099296.6, 10111.714, 0.007565251, 0.28033224, -1058544.5, 68951.734, 0.0, 10.000416, 9.999968 
5.450466e+2, 1.9495142e+2, -943254.2, -991926.2, -28300.406, 0.0848121, 0.21721973, -930265.25, 99229.91, 0.0, 10.000556, 9.99996 
5.450424e+2, 2.0495039e+2, -908613.6, -1034539.06, -20687.145, 0.09843498, 0.1759552, -905302.2, 26200.027, 0.0, 10.000606, 9.998967 
5.450377e+2, 2.1494833e+2, -839735.06, -948341.25, -21397.764, 0.063063934, 0.038288087, -835671.3, -2150.7224, 0.0, 10.000399, 9.998981 
5.45033e+2, 2.2494738e+2, -735734.44, -886907.2, 1473.4674, 0.029992186, 0.06678329, -735720.06, -189.94081, 0.0, 10.000607, 9.99863 
5.4502827e+2, 2.3494723e+2, -549896.0, -751516.3, -8708.962, 0.00018700719, 0.15525624, -549520.5, 88013.26, 0.0, 10.001227, 9.998594 
5.450241e+2, 2.4494645e+2, -453543.63, -678370.1, 13393.985, 0.02885226, 0.23563795, -452748.5, 86794.4, 0.0, 10.00132, 9.998378 
5.4502046e+2, 2.5494483e+2, -422637.44, -617304.75, 16512.48, 0.108411275, 0.19783726, -421246.72, 20313.309, 0.0, 10.000874, 9.998341 
5.4501563e+2, 2.649432e+2, -326859.16, -491312.4, 21630.865, 0.08752092, 0.19792362, -324061.6, 19512.822, 0.0, 10.000756, 9.998578 
5.450099e+2, 2.7494118e+2, -187454.19, -371158.66, -18356.602, -0.010173314, 0.09891114, -185637.88, 59952.355, 0.0, 10.001025, 9.998606 
5.4500645e+2, 2.8493968e+2, -190798.67, -394631.56, 41655.348, 0.048679847, 0.12581477, -182614.58, -35009.254, 0.00000011177434, 10.000652, 9.997946 
5.45005e+2, 2.949387e+2, -240392.73, -368188.2, 34036.688, 0.24798347, 0.19463252, -231892.84, -182273.34, 0.0000045059896, 9.999631, 9.997942 
5.4499984e+2, 3.049382e+2, -81671.586, -173088.61, 83904.984, 0.021206716, 0.31361705, -31832.652, -31832.652, 0.000026381855, 9.99998, 9.998794 
5.4499716e+2, 3.1493604e+2, 190342.83, 133450.0, -164397.16, -0.02206363, 0.17467046, 328736.53, 328736.53, 0.00007890932, 10.001032, 10.000383 
5.550732e+2, 1.2495444e+2, -1665288.1, -1647703.1, -132535.56, 0.06806728, 0.16508745, -1523668.8, 191795.83, 0.000026661766, 10.000104, 10.000383 
5.550666e+2, 1.349549e+2, -1778908.0, -1722332.0, 108701.17, -0.31058687, 0.18511234, -1638298.4, -20838.844, 0.0000052899522, 9.998934, 9.999809 
5.550703e+2, 1.4495474e+2, -1719850.8, -1599560.4, 15079.165, 0.27644622, 0.18761732, -1597698.9, -78237.25, 0.00000021782215, 9.998513, 10.000128 
5.550635e+2, 1.5495558e+2, -1445017.6, -1419143.6, -22356.453, 0.08311429, 0.21293439, -1406250.9, 15204.437, 0.00000000000011946363, 9.999734, 10.000112 
5.5505794e+2, 1.6495594e+2, -1269761.6, -1302357.5, 9825.99, -0.03625755, 0.25178212, -1267028.8, 56423.383, 0.0, 10.000366, 9.9999275 
5.550545e+2, 1.7495543e+2, -1183938.4, -1218192.5, 39378.04, -0.02269111, 0.17718852, -1158124.0, 67331.73, 0.0, 10.000311, 9.999867 
5.5505085e+2, 1.8495488e+2, -1116381.8, -1187509.0, 378.53806, 0.0000342279, 0.16495895, -1116379.8, 11080.431, 0.0, 10.0003, 9.999419 
5.5504686e+2, 1.9495404e+2, -998723.56, -1084673.9, -7025.2036, 0.019215183, 0.10714382, -998153.1, 31314.705, 0.0, 10.000453, 9.99938 
5.550426e+2, 2.049538e+2, -904311.44, -987625.1, -42173.87, 0.030439038, 0.15523915, -886689.9, 44779.41, 0.0, 10.000449, 9.999361 
5.5503815e+2, 2.149539e+2, -838838.94, -905316.25, -13664.931, 0.043053035, 0.19232002, -836139.6, -2671.9927, 0.0, 10.000218, 9.999364 
5.5503356e+2, 2.2495309e+2, -754988.94, -884543.8, 10442.829, 0.001173003, 0.21078594, -754152.56, -18676.986, 0.0, 10.000426, 9.998734 
5.550287e+2, 2.3495111e+2, -571345.44, -747931.25, 30589.576, -0.11024095, 0.10740143, -566196.6, 71299.016, 0.0, 10.001022, 9.998715 
5.550245e+2, 2.4495015e+2, -438166.8, -615940.0, -15433.051, -0.09671312, 0.13765846, -436836.97, 102668.12, 0.0, 10.001179, 9.998882 
5.550209e+2, 2.549499e+2, -404662.47, -549948.7, 18240.596, 0.037744045, 0.18915331, -402407.38, 39099.234, 0.0, 10.000736, 9.998875 
5.550165e+2, 2.6494867e+2, -384843.34, -591800.6, 17451.658, 0.07397583, 0.23076397, -383382.06, -39863.82, 0.0, 10.000675, 9.997925 
5.550114e+2, 2.7494597e+2, -253309.5, -485314.94, 8160.0127, 0.009518854, 0.13776496, -253022.84, -7478.4185, 0.0, 10.000927, 9.997871 
5.550074e+2, 2.8494394e+2, -168423.55, -338046.13, -12626.072, 0.03868918, 0.1291565, -167488.86, -19924.395, 0.00000024371042, 10.000605, 9.998362 
5.550039e+2, 2.9494253e+2, -218712.48, -311515.97, 16566.318, 0.12957455, 0.10962889, -215843.9, -166265.86, 0.0000058589785, 9.999568, 9.998369 
5.55e+2, 3.0494106e+2, -177361.52, -354695.1, 117653.96, 0.009430249, 0.17545843, -118704.67, -118704.67, 0.000029984647, 9.999918, 9.997569 
5.549995e+2, 3.1493956e+2, 79933.85, -71850.31, -106627.734, 0.029747104, 0.22164431, 134919.89, 134919.89, 0.00008416486, 10.00092, 9.999032 
5.650744e+2, 1.24959655e+2, -1473535.5, -1590970.3, 27937.46, 0.119949035, 0.23329462, -1467228.0, 248185.98, 0.000022362967, 10.00157, 10.000051 
5.650659e+2, 1.3495933e+2, -1643914.0, -1670019.1, 33457.074, -0.30692863, 0.18454336, -1621053.5, -3637.5908, 0.000004259607, 9.999925, 9.999668 
5.650697e+2, 1.449586e+2, -1636254.5, -1574402.9, 54674.54, 0.3487615, 0.14245488, -1542513.8, -23090.996, 0.00000013010742, 9.999123, 10.000023 
5.6506336e+2, 1.5495944e+2, -1470805.9, -1437326.5, 3146.7378, 0.1154293, 0.17474899, -1437033.3, -15617.579, 0.0, 9.999574, 10.0000725 
5.650582e+2, 1.6495983e+2, -1338672.8, -1344061.5, 38210.945, -0.021760678, 0.22319606, -1303061.3, 20350.412, 0.0, 9.999914, 9.999866 
5.6505495e+2, 1.7495932e+2, -1195012.5, -1225831.8, 10334.377, 0.0075965645, 0.15145734, -1191868.0, 33547.223, 0.0, 10.000234, 9.999848 
5.6505144e+2, 1.8495876e+2, -1119816.9, -1205347.0, -3607.0737, 0.038033348, 0.14458515, -1119665.1, 7755.157, 0.0, 10.000358, 9.999255 
5.6504744e+2, 1.9495791e+2, -1056310.9, -1124804.3, -6845.569, 0.055279266, 0.09810341, -1055633.4, -26204.75, 0.0, 10.000127, 9.999244 
5.650433e+2, 2.0495783e+2, -927387.44, -997058.4, -2239.8977, 0.06655803, 0.16597933, -927315.5, 4114.1875, 0.0, 10.00029, 9.999368 
5.650391e+2, 2.1495831e+2, -753485.6, -860281.06, -30228.592, 0.09617731, 0.24255024, -745523.06, 87902.14, 0.0, 10.000797, 9.999389 
5.650346e+2, 2.2495757e+2, -701196.75, -845482.5, 4501.9106, 0.060954653, 0.26138833, -701056.44, 34376.324, 0.0, 10.000747, 9.998846 
5.6502986e+2, 2.3495528e+2, -700740.7, -796068.6, -4053.0906, -0.038492043, 0.113730885, -700568.6, -63113.19, 0.0, 10.000077, 9.998837 
5.650255e+2, 2.4495429e+2, -567140.94, -639106.2, -17487.568, -0.053698007, 0.119594105, -563116.5, -23652.406, 0.0, 10.000153, 9.999197 
5.650216e+2, 2.549543e+2, -334808.4, -482381.06, -33443.207, 0.021259932, 0.16719227, -327583.2, 113878.42, 0.0, 10.001086, 9.999158 
5.650175e+2, 2.6495326e+2, -281732.28, -562023.7, -1123.743, 0.07051082, 0.22044201, -281727.78, 61744.34, 0.0, 10.001464, 9.997749 
5.6501335e+2, 2.7495077e+2, -216356.44, -481750.03, -440.1744, 0.10260576, 0.1619772, -216355.72, 29142.85, 0.0, 10.001248, 9.997733 
5.6500894e+2, 2.849486e+2, -58024.543, -298439.25, 7607.5557, 0.10468586, 0.15115401, -57784.055, 89736.55, 0.00000046127252, 10.001393, 9.998261 
5.6500393e+2, 2.9494676e+2, 116842.305, -165111.28, -29558.158, 0.067174084, 0.09550342, 119907.66, 169445.33, 0.000007820285, 10.001919, 9.99825 
5.650008e+2, 3.049453e+2, 33273.836, -274203.7, 124764.586, 0.03297884, 0.17574093, 77529.54, 77529.54, 0.00003595913, 10.001446, 9.997394 
5.6500053e+2, 3.1494454e+2, -133127.36, -193188.22, -86562.7, 0.13364905, 0.31652623, -71533.95, -71533.95, 0.000094486146, 9.999533, 9.998867 
5.750757e+2, 1.2496409e+2, -1537631.9, -1707865.8, 68727.01, 0.019807694, 0.17761895, -1513349.1, 202020.23, 0.000015098279, 10.00151, 9.999268 
5.750655e+2, 1.3496377e+2, -1690750.8, -1763636.4, -25858.486, -0.37903455, 0.1886939, -1682508.8, -65135.598, 0.0000026568694, 9.999905, 9.999034 
5.750682e+2, 1.4496276e+2, -1628681.8, -1549166.3, 46468.13, 0.24513921, 0.13852173, -1527768.8, -8386.765, 0.000000050157187, 9.999086, 10.000212 
5.750628e+2, 1.5496287e+2, -1466381.4, -1417861.1, 35027.49, 0.06918867, 0.08407513, -1399512.9, 21865.29, 0.0, 9.999531, 10.00023 
5.7505804e+2, 1.6496317e+2, -1372166.8, -1396407.6, 31834.84, -0.055051655, 0.13137284, -1350223.0, -26847.896, 0.0, 9.999838, 9.99954 
5.7505494e+2, 1.7496336e+2, -1228375.9, -1282910.0, 36877.035, -0.056906477, 0.16098055, -1209780.0, 15595.955, 0.0, 10.000175, 9.999486 
5.7505155e+2, 1.8496339e+2, -1113130.1, -1167866.8, -25355.717, -0.014592549, 0.22073878, -1103189.8, 24186.105, 0.0, 10.000261, 9.9995575 
5.7504785e+2, 1.94963e+2, -1053974.4, -1088253.5, -739.61194, 0.04967142, 0.19091009, -1053958.4, -24580.424, 0.0, 9.999994, 9.9995575 
5.7504404e+2, 2.0496249e+2, -977419.7, -1059123.8, 425.7077, 0.08323046, 0.21665107, -977417.5, -46034.645, 0.0, 10.000107, 9.99903 
5.7504004e+2, 2.1496166e+2, -807509.25, -926476.3, 3534.3315, 0.08232708, 0.1976667, -807404.3, 25988.176, 0.0, 10.000599, 9.99903 
5.750358e+2, 2.2496086e+2, -713131.9, -831999.75, -34973.418, 0.075782046, 0.22070403, -703605.44, 31795.996, 0.0, 10.000574, 9.999023 
5.7503116e+2, 2.3495977e+2, -712504.75, -781153.8, -12603.016, 0.060720637, 0.17442323, -710264.1, -72851.37, 0.0, 9.999905, 9.999023 
5.7502663e+2, 2.4495889e+2, -579230.44, -644446.0, 1951.2969, 0.012676897, 0.18169934, -579172.1, -39752.16, 0.0, 10.000053, 9.999216 
5.75022e+2, 2.5495797e+2, -352691.63, -489282.66, 19587.09, -0.08155435, 0.13080102, -349938.34, 91487.664, 0.0, 10.000944, 9.999185 
5.750181e+2, 2.649569e+2, -263357.66, -512058.25, -23693.145, -0.046841722, 0.16432954, -261120.58, 82315.75, 0.0, 10.001401, 9.99813 
5.7501507e+2, 2.749554e+2, -196438.17, -428661.34, 4958.8057, 0.114568695, 0.16435476, -196332.34, 49121.777, 0.0, 10.001178, 9.998142 
5.750106e+2, 2.849536e+2, -101188.71, -371985.22, 11586.096, 0.10011173, 0.19238107, -100693.9, 46780.543, 0.0000006054728, 10.001328, 9.997788 
5.750045e+2, 2.949513e+2, 64972.86, -249194.78, 11581.927, -0.10790889, 0.14434803, 65399.254, 114898.27, 0.000009307056, 10.0018215, 9.997719 
5.7500184e+2, 3.0495083e+2, 87129.46, -149190.84, 46883.28, -0.039949954, 0.31039515, 96090.76, 96090.76, 0.000040671366, 10.001396, 9.998279 
5.749998e+2, 3.1495062e+2, -82788.695, -67012.69, -103001.875, 0.028770614, 0.4151726, 28402.78, 28402.78, 0.000103750725, 9.999439, 9.999785 
5.850763e+2, 1.2496835e+2, -1844562.6, -1878589.4, 145808.3, 0.04437842, 0.184311, -1714778.5, 548.47736, 0.000008007214, 9.999468, 9.999098 
5.850666e+2, 1.3496788e+2, -1578521.3, -1710756.8, -72081.59, -0.28527555, 0.1857387, -1546826.4, 70505.61, 0.0000012151539, 10.0006695, 9.999036 
5.8506775e+2, 1.4496692e+2, -1404859.4, -1458418.5, 57641.953, 0.2224952, 0.15022187, -1368080.0, 151260.25, 0.000000012980553, 10.000736, 10.000011 
5.850629e+2, 1.549668e+2, -1383607.8, -1394654.0, -19239.42, 0.108154595, 0.087366395, -1369114.4, 52224.11, 0.0, 10.000197, 10.000039 
5.8505845e+2, 1.6496694e+2, -1351602.8, -1399017.0, 19242.703, 0.00557682, 0.13148378, -1344776.1, -21438.734, 0.0, 10.000026, 9.999437 
5.850554e+2, 1.7496711e+2, -1227091.8, -1289826.3, 14953.302, -0.016181868, 0.17264363, -1223709.9, 1629.1677, 0.0, 10.000213, 9.999423 
5.850523e+2, 1.8496718e+2, -1066311.6, -1116481.4, -19219.842, 0.02796087, 0.2222457, -1059795.0, 67543.48, 0.0, 10.000449, 9.999828 
5.8504885e+2, 1.9496672e+2, -936660.9, -1006442.44, -27781.984, 0.12482692, 0.16297275, -926951.1, 102388.44, 0.0, 10.000673, 9.999807 
5.850448e+2, 2.0496616e+2, -907440.25, -1015551.9, 18829.129, 0.13877366, 0.16471097, -904254.75, 27089.447, 0.0, 10.000539, 9.999119 
5.850402e+2, 2.1496524e+2, -881425.2, -955722.4, 26163.275, 0.074262254, 0.1268932, -873136.6, -39781.97, 0.0, 10.0000515, 9.999097 
5.850359e+2, 2.2496468e+2, -776496.9, -861043.4, 27298.523, 0.0631641, 0.16875531, -768448.75, -33086.934, 0.0, 10.00014, 9.999037 
5.8503187e+2, 2.3496413e+2, -581750.44, -721910.25, 3167.8594, 0.10210723, 0.17942436, -581678.9, 55689.992, 0.0, 10.000812, 9.999002 
5.8502764e+2, 2.449633e+2, -468194.78, -589555.8, 47971.297, 0.07855964, 0.19283995, -451523.06, 87853.305, 0.0, 10.000811, 9.99922 
5.850231e+2, 2.5496197e+2, -451628.28, -532543.25, 32871.45, -0.012935869, 0.09797632, -439957.66, 1429.222, 0.0, 10.000256, 9.999207 
5.850193e+2, 2.6496106e+2, -408245.75, -537733.25, 24551.182, -0.005260061, 0.12758423, -403747.06, -60351.035, 0.0, 10.000234, 9.998509 
5.850161e+2, 2.749603e+2, -223618.47, -395360.1, 23059.236, 0.117805794, 0.16699892, -220576.25, 24830.266, 0.0, 10.000819, 9.998532 
5.8501136e+2, 2.849591e+2, -151926.73, -374495.28, 75927.15, 0.07305395, 0.22641216, -128492.33, 18928.793, 0.00000055145284, 10.00089, 9.997974 
5.850053e+2, 2.949572e+2, -149228.8, -331624.28, 91623.35, -0.12512733, 0.1940353, -111152.16, -61709.633, 0.000008783807, 10.000259, 9.997901 
5.850034e+2, 3.0495653e+2, -49848.18, -191135.44, 149769.34, 0.0377584, 0.3177486, 45102.215, 45102.215, 0.000039667964, 10.000351, 9.998487 
5.850002e+2, 3.1495598e+2, 174980.73, 104981.695, -79153.84, 0.06671009, 0.36712545, 226527.72, 226527.72, 0.00010388018, 10.001011, 10.000196 
5.9507585e+2, 1.2497242e+2, -1792814.8, -1772433.5, 217157.13, -0.026582304, 0.25737888, -1565228.0, 150059.02, 0.0000033727015, 9.999494, 9.999806 
5.950688e+2, 1.3497171e+2, -1538216.8, -1621012.4, -21210.596, -0.16536984, 0.17153718, -1533099.4, 84193.08, 0.00000044999516, 10.000653, 9.99966 
5.950679e+2, 1.4497112e+2, -1452385.5, -1543840.8, 15059.744, 0.12241439, 0.16874722, -1449969.5, 69328.125, 0.000000014541682, 10.000679, 9.999449 
5.9506327e+2, 1.549712e+2, -1432945.9, -1487969.3, -24659.418, 0.080750406, 0.18266992, -1423512.0, -2214.7222, 0.0, 10.000155, 9.999421 
5.9505904e+2, 1.6497117e+2, -1349703.9, -1376082.3, 10843.669, 0.02116742, 0.23576947, -1345818.6, -22520.621, 0.0, 9.999957, 9.999621 
5.950561e+2, 1.7497072e+2, -1223251.9, -1263110.4, 37438.777, -0.003557181, 0.19296917, -1200768.5, 24535.064, 0.0, 10.000141, 9.999638 
5.950531e+2, 1.8497008e+2, -1066919.5, -1093052.5, -28201.031, 0.03179926, 0.15189938, -1048905.0, 78403.016, 0.0, 10.000342, 10.000042 
5.950498e+2, 1.9496903e+2, -943865.56, -985829.1, -5335.1074, 0.12458369, 0.00869972, -943197.9, 86116.03, 0.0, 10.000525, 10.000018 
5.9504515e+2, 2.0496881e+2, -892828.94, -947012.7, -13968.662, 0.092172794, 0.00849898, -889439.75, 41874.09, 0.0, 10.000372, 9.999672 
5.950392e+2, 2.1496913e+2, -868552.75, -886795.9, 23337.385, -0.06116574, 0.038258467, -852617.6, -19306.682, 0.0, 9.999873, 9.999656 
5.9503466e+2, 2.2496907e+2, -810694.5, -900979.3, 36223.727, -0.1060758, 0.113872394, -797957.8, -62644.586, 0.0, 9.999995, 9.998839 
5.9503144e+2, 2.3496833e+2, -623735.9, -767639.56, 44486.03, -0.05315774, 0.12659158, -611094.1, 26229.66, 0.0, 10.000627, 9.998784 
5.950281e+2, 2.4496749e+2, -485699.94, -598618.75, 13258.757, 0.005366204, 0.1479394, -484164.0, 55169.44, 0.0, 10.000689, 9.999221 
5.950246e+2, 2.5496632e+2, -468664.9, -537766.6, 25079.836, 0.06928244, 0.06973049, -460521.97, -19177.633, 0.0, 10.000124, 9.999236 
5.950205e+2, 2.649658e+2, -390351.2, -483865.9, 29885.09, 0.05862156, 0.11379133, -381616.5, -38265.73, 0.0, 10.000163, 9.998917 
5.9501565e+2, 2.7496558e+2, -212951.9, -349684.44, 63306.21, -0.03883977, 0.16916442, -188142.94, 57212.742, 0.0, 10.000718, 9.9988985 
5.9501076e+2, 2.849652e+2, -103927.65, -255933.36, 40182.363, -0.111160755, 0.2499227, -93959.25, 53401.598, 0.0000003359344, 10.000814, 9.998821 
5.950057e+2, 2.9496428e+2, -103850.82, -207050.88, 84365.875, -0.15592963, 0.23517567, -56556.137, -7186.96, 0.000006914508, 10.00014, 9.998807 
5.950049e+2, 3.0496222e+2, -85566.016, -262939.7, 164162.55, 0.12809247, 0.19302, 12334.112, 12334.112, 0.000035638073, 10.000324, 9.998013 
5.950008e+2, 3.149606e+2, 166310.88, 103720.19, 42095.7, -0.06306432, 0.18179601, 187469.77, 187469.77, 0.00009897654, 10.000937, 10.000221 
6.0507625e+2, 1.2497491e+2, -1565185.4, -1618383.6, 241494.9, 0.0112471795, 0.2102732, -1348829.1, 366433.06, 0.0000011596172, 10.000864, 10.000212 
6.050708e+2, 1.3497455e+2, -1642456.8, -1619675.4, -94662.07, 0.030091202, 0.12268491, -1535721.1, 81542.086, 0.00000014603442, 9.999742, 10.000093 
6.050673e+2, 1.4497444e+2, -1621607.8, -1605448.8, 8243.284, 0.067900054, 0.13717766, -1601985.8, -82722.42, 0.0000000031309833, 9.999401, 9.999669 
6.050629e+2, 1.5497488e+2, -1396794.8, -1446275.5, -9136.096, 0.036599606, 0.17020185, -1395161.8, 26097.555, 0.0, 10.000282, 9.999665 
6.050591e+2, 1.6497491e+2, -1283039.8, -1330464.5, 71869.945, 0.023633046, 0.20925082, -1231071.4, 92187.52, 0.0, 10.00033, 9.999773 
6.050565e+2, 1.7497422e+2, -1311537.3, -1288938.0, 67004.375, 0.06910629, 0.12695563, -1232287.1, -7021.7856, 0.0, 9.999448, 9.999806 
6.050535e+2, 1.8497376e+2, -1233104.4, -1172162.6, 45976.07, 0.10087318, 0.094108544, -1147476.6, -20207.838, 0.0, 9.999218, 10.000032 
6.050497e+2, 1.9497323e+2, -1067899.8, -1044594.4, 20237.988, 0.11962229, 0.0072303666, -1032894.06, -3621.925, 0.0, 9.999684, 10.000016 
6.050452e+2, 2.0497333e+2, -929057.4, -949598.5, 494.716, 0.08602606, 0.030082388, -929045.44, 2224.5964, 0.0, 10.000062, 9.999812 
6.0503983e+2, 2.1497361e+2, -802614.9, -842085.4, -24907.346, 0.0038634262, 0.04642602, -790571.9, 42694.48, 0.0, 10.000266, 9.9997835 
6.050354e+2, 2.2497351e+2, -759327.56, -849621.2, 32186.201, -0.034003116, 0.10067512, -749029.06, -13760.867, 0.0, 10.000253, 9.999051 
6.0503185e+2, 2.3497273e+2, -689995.06, -767822.56, 40927.42, -0.03248866, 0.08564946, -672434.6, -35156.367, 0.0, 10.000062, 9.999034 
6.050285e+2, 2.4497212e+2, -583664.7, -655523.06, 40379.145, 0.018169599, 0.12334235, -565544.06, -26257.547, 0.0, 10.000071, 9.999126 
6.050253e+2, 2.5497144e+2, -450211.34, -541683.75, 16583.904, 0.12560162, 0.107045405, -447297.5, -6002.0435, 0.0, 10.00031, 9.999125 
6.050211e+2, 2.6497126e+2, -345979.1, -420341.88, 53887.484, 0.11155966, 0.17273147, -317690.5, 25608.775, 0.0, 10.000283, 9.999296 
6.0501605e+2, 2.7497122e+2, -295837.03, -348608.88, 52448.17, -0.023518013, 0.20774364, -263511.56, -18210.447, 0.0, 9.999954, 9.999279 
6.0501134e+2, 2.849708e+2, -198433.34, -285517.34, 31511.83, -0.0882582, 0.25876883, -188226.84, -40921.617, 0.00000016006682, 10.000099, 9.998969 
6.0500693e+2, 2.9496974e+2, -451.77063, -137301.19, -9987.113, -0.06297366, 0.21287699, 273.23648, 49587.008, 0.0000052467194, 10.000762, 9.998994 
6.050064e+2, 3.0496696e+2, 36171.246, -191827.77, 106432.96, 0.21603568, 0.087218665, 78132.836, 78132.836, 0.000031333126, 10.001124, 9.998115 
6.050014e+2, 3.149658e+2, 139392.77, 64488.367, 14188.714, -0.07949346, 0.12578225, 141990.38, 141990.38, 0.00009226463, 10.000857, 10.00001 
6.150769e+2, 1.2497582e+2, -1543131.6, -1568397.1, 119478.664, -0.0874735, 0.052461293, -1435619.8, 279632.38, 0.000000319301, 10.000853, 10.000552 
6.1507213e+2, 1.3497645e+2, -1634332.5, -1600692.0, -125850.36, 0.15098284, 0.045887586, -1490542.8, 126701.555, 0.000000018009526, 9.999738, 10.000225 
6.150655e+2, 1.4497694e+2, -1554117.6, -1468140.9, 15534.599, -0.10280609, 0.07015747, -1465420.1, 53816.92, 0.0, 9.999405, 10.00061 
6.150616e+2, 1.5497781e+2, -1327656.9, -1308825.6, 35764.18, -0.16106945, 0.04855445, -1281258.4, 139967.33, 0.0, 10.00029, 10.000611 
6.150583e+2, 1.6497813e+2, -1277967.0, -1304532.1, 22326.598, -0.122330785, 0.056852464, -1265270.6, 57949.95, 0.0, 10.000266, 9.999982 
6.150563e+2, 1.7497762e+2, -1307365.8, -1271518.1, 49217.71, 0.06391286, -0.027413558, -1237062.1, -11837.365, 0.0, 9.999402, 9.999951 
6.1505294e+2, 1.8497814e+2, -1267945.0, -1216482.5, 49849.24, 0.09741929, 0.046906516, -1186115.3, -58893.992, 0.0, 9.999099, 9.999783 
6.1504835e+2, 1.9497947e+2, -1101169.1, -1092634.8, 55739.934, -0.022613814, 0.1678957, -1040998.94, -11785.925, 0.0, 9.999589, 9.999735 
6.1504453e+2, 2.0497978e+2, -970474.75, -999957.56, -5708.794, -0.015294746, 0.24173906, -969407.94, -38196.355, 0.0, 9.99991, 9.999537 
6.150416e+2, 2.1497871e+2, -850803.0, -898348.3, -2596.8972, 0.13032266, 0.14911355, -850661.56, -17441.043, 0.0, 10.000076, 9.99949 
6.1503774e+2, 2.2497799e+2, -742723.5, -773957.0, 13804.586, 0.14121315, 0.12477618, -737496.75, -2270.2039, 0.0, 10.000077, 9.999654 
6.1503273e+2, 2.3497732e+2, -674607.56, -691274.06, 49898.543, 0.015977627, 0.059977684, -632351.25, 4880.9063, 0.0, 9.999872, 9.999649 
6.1502844e+2, 2.4497722e+2, -613448.5, -689694.4, 32044.701, -0.024594208, 0.123818025, -601769.6, -62533.93, 0.0, 9.999949, 9.998951 
6.150248e+2, 2.5497735e+2, -484056.75, -583622.25, 40565.945, 0.010000591, 0.20665208, -469621.78, -28381.541, 0.0, 10.000184, 9.9989 
6.150208e+2, 2.6497748e+2, -335774.94, -380238.75, 27457.645, 0.01872216, 0.29837224, -322677.25, 20564.44, 0.0, 10.000202, 9.999609 
6.150166e+2, 2.7497724e+2, -292990.16, -311929.94, 57449.79, 0.0026443824, 0.27884272, -244235.0, 1007.937, 0.0, 9.999824, 9.99959 
6.1501265e+2, 2.8497598e+2, -245332.9, -370806.78, 39786.2, -0.0049650194, 0.25949803, -233780.78, -86527.04, 0.00000012615395, 10.000042, 9.998409 
6.1500853e+2, 2.9497364e+2, -49511.99, -216321.78, 34234.105, -0.024923064, 0.1351583, -42759.516, 6515.3403, 0.000004351736, 10.00067, 9.998488 
6.1500734e+2, 3.0497077e+2, 74391.625, -114269.17, 86540.6, 0.16001835, -0.0017601338, 108074.9, 108074.9, 0.000027327982, 10.001121, 9.998663 
6.150009e+2, 3.1497198e+2, 95090.164, -3955.7986, 98782.98, -0.29156727, 0.22532012, 156068.78, 156068.78, 0.00008384043, 10.000757, 9.999593 
6.250781e+2, 1.2498066e+2, -1623071.5, -1620660.8, 190037.97, -0.0083382055, 0.10008685, -1431824.4, 283382.1, 0.00000004128188, 10.000353, 10.000448 
6.250735e+2, 1.3498145e+2, -1569500.6, -1585637.0, -65028.117, 0.30032316, 0.12790895, -1512042.0, 105155.836, 0.000000000001578113, 10.000229, 10.000109 
6.250646e+2, 1.4498141e+2, -1492786.5, -1425259.3, 118079.84, -0.13816626, 0.09879526, -1336210.8, 182984.34, 0.0, 9.99977, 10.0007305 
6.2506145e+2, 1.5498172e+2, -1427388.0, -1332852.6, 52168.324, -0.15780017, 0.0072873053, -1309723.1, 111463.18, 0.0, 9.99953, 10.000797 
6.250584e+2, 1.6498207e+2, -1367037.0, -1315477.6, 17770.572, -0.09245076, -0.0043639247, -1309946.3, 13233.099, 0.0, 9.99955, 10.000233 
6.2505627e+2, 1.7498216e+2, -1239118.8, -1203437.4, 7023.0366, 0.11493345, -0.053036235, -1202104.8, 23072.598, 0.0, 9.999761, 10.000225 
6.2505275e+2, 1.8498303e+2, -1179007.6, -1208329.3, 59138.547, 0.14278838, 0.053872425, -1132739.8, -5568.116, 0.0, 9.999819, 9.999509 
6.250479e+2, 1.9498435e+2, -1115825.4, -1126429.1, 39664.027, -0.017840007, 0.19860332, -1081110.5, -51945.164, 0.0, 9.999582, 9.99951 
6.250443e+2, 2.0498446e+2, -1000066.56, -1019880.7, 25159.951, -0.011880425, 0.26467043, -982933.44, -51766.8, 0.0, 9.999718, 9.999501 
6.250422e+2, 2.1498297e+2, -829348.0, -885028.0, 18717.707, 0.1789083, 0.13369095, -823640.75, 9538.44, 0.0, 10.000211, 9.999515 
6.250385e+2, 2.2498225e+2, -691074.2, -733664.06, 35782.59, 0.20779216, 0.10200274, -670729.4, 64455.598, 0.0, 10.000361, 9.9998 
6.250333e+2, 2.3498201e+2, -622927.1, -655081.06, 10268.419, 0.083577275, 0.06732362, -619927.7, 17259.234, 0.0, 10.000164, 9.99977 
6.250287e+2, 2.449821e+2, -559102.1, -660104.3, 33986.582, 0.0016387342, 0.14313391, -548730.8, -9542.066, 0.0, 10.000291, 9.998998 
6.250247e+2, 2.5498226e+2, -389305.1, -529800.4, 26712.164, -0.040798116, 0.22319391, -384397.75, 56795.242, 0.0, 10.000793, 9.998977 
6.250208e+2, 2.6498216e+2, -268249.3, -371731.22, -491.34998, -0.017209787, 0.30362526, -268246.97, 74949.29, 0.0, 10.000753, 9.999406 
6.250173e+2, 2.749815e+2, -268513.9, -324976.94, -42532.05, 0.08522402, 0.26165983, -245696.48, -494.16394, 0.0, 10.000085, 9.999379 
6.250137e+2, 2.8498027e+2, -225567.9, -341531.94, 28810.725, 0.10887258, 0.24317676, -218804.48, -71591.18, 0.000000116905284, 10.000096, 9.998587 
6.2500995e+2, 2.9497823e+2, -21790.555, -192945.52, 41184.07, 0.05233947, 0.14193286, -12396.288, 36833.926, 0.000004287332, 10.000791, 9.99861 
6.2500817e+2, 3.0497608e+2, 37034.53, -98248.016, 92656.234, 0.16973326, 0.05429468, 84112.56, 84112.56, 0.000025852014, 10.000742, 9.998938 
6.250015e+2, 3.1497684e+2, -60744.395, -85195.63, 60869.617, -0.24409524, 0.2049076, -10884.78, -10884.78, 0.00007870898, 9.999732, 9.999514 
6.35079e+2, 1.24989405e+2, -1653984.8, -1697222.0, 15260.2, -0.031917263, 0.36743113, -1649141.3, 65983.81, 0.000000010756334, 10.0004, 9.999907 
6.350744e+2, 1.3498937e+2, -1600878.9, -1657017.5, -69181.62, 0.33678535, 0.3602457, -1554289.1, 62837.17, 0.0, 10.000246, 9.9996195 
6.3506424e+2, 1.4498779e+2, -1533051.8, -1493354.0, 86116.56, -0.18865678, 0.22545595, -1424828.4, 94309.336, 0.0, 9.999712, 10.000287 
6.3506204e+2, 1.5498668e+2, -1464400.0, -1407907.5, 62682.33, -0.09180932, 0.038997807, -1367401.1, 53739.24, 0.0, 9.99952, 10.000288 
6.35059e+2, 1.6498673e+2, -1361173.9, -1295104.3, 8752.323, -0.021334477, 0.014059669, -1293964.5, 29170.863, 0.0, 9.999506, 10.000398 
6.3505614e+2, 1.749877e+2, -1231642.6, -1183459.5, 30566.426, 0.08945889, 0.038190328, -1168631.8, 56493.027, 0.0, 9.999727, 10.000388 
6.350525e+2, 1.8498816e+2, -1206732.5, -1239841.8, 34531.336, 0.09798417, 0.10348196, -1184992.6, -57870.574, 0.0, 9.999714, 9.999339 
6.3504785e+2, 1.949877e+2, -1146878.0, -1163616.4, 43848.64, -0.01128761, 0.088523164, -1110607.0, -81476.39, 0.0, 9.999463, 9.999312 
6.35044e+2, 2.0498721e+2, -1010129.9, -999614.75, 28384.055, -0.03954733, 0.09502138, -976005.44, -44869.074, 0.0, 9.99954, 9.9997225 
6.35041e+2, 2.1498635e+2, -841631.8, -864179.2, 53613.2, 0.011950568, 0.001167147, -798119.8, 35022.67, 0.0, 10.00001, 9.999753 
6.350374e+2, 2.2498633e+2, -740321.9, -791318.44, 14446.599, 0.03666205, 0.04094645, -736513.7, -1370.3193, 0.0, 10.000174, 9.999492 
6.350332e+2, 2.3498674e+2, -674577.25, -716106.06, 20574.484, 0.028945256, 0.101012975, -666110.3, -28967.46, 0.0, 9.999968, 9.999444 
6.3502896e+2, 2.4498676e+2, -564915.4, -640205.06, 39685.984, -0.039640866, 0.17556615, -547860.0, -8714.479, 0.0, 10.000158, 9.999196 
6.350245e+2, 2.549861e+2, -397596.0, -510985.1, 60321.465, -0.17028351, 0.15685186, -371508.0, 69645.69, 0.0, 10.000641, 9.999179 
6.350208e+2, 2.649854e+2, -332042.8, -479411.88, -42022.96, -0.12616397, 0.19827294, -320902.0, 22261.016, 0.0, 10.000652, 9.998711 
6.350177e+2, 2.7498418e+2, -335702.44, -435709.28, -50146.164, 0.0796985, 0.16708209, -314889.34, -69711.055, 0.0, 9.999966, 9.998673 
6.350143e+2, 2.849836e+2, -169430.13, -209348.53, 38495.85, 0.117079504, 0.20616767, -146026.89, 1156.7555, 0.0000001448745, 10.000035, 9.999525 
6.3501054e+2, 2.9498377e+2, 15840.277, -77323.82, 89781.69, -0.009341066, 0.23096326, 70404.84, 119582.95, 0.000005079309, 10.000651, 9.999464 
6.350084e+2, 3.049831e+2, 25632.938, -131307.2, 48288.63, 0.07802565, 0.27042535, 39300.504, 39300.504, 0.000027855136, 10.000749, 9.998722 
6.350019e+2, 3.1498054e+2, -78902.27, -103922.69, 96636.9, -0.25478852, 0.08859544, 6030.8135, 6030.8135, 0.00008149468, 9.999635, 9.999438 
6.4507973e+2, 1.2499523e+2, -1871766.9, -1856674.3, -4640.093, 0.07818786, 0.33568063, -1855361.9, -140297.36, 0.0000000047013002, 9.999148, 9.99941 
6.4507484e+2, 1.349951e+2, -1453058.1, -1614601.8, -29574.697, 0.31392097, 0.3517455, -1447813.9, 169254.55, 0.0, 10.001424, 9.999321 
6.4506483e+2, 1.4499335e+2, -1277873.3, -1418757.8, 100435.2, -0.19521293, 0.2332187, -1225639.8, 293443.88, 0.0, 10.001673, 9.999851 
6.450633e+2, 1.5499203e+2, -1403725.9, -1428211.8, 40247.902, 0.065549836, 0.06879626, -1373900.0, 47189.79, 0.0, 10.000139, 9.999853 
6.450599e+2, 1.6499196e+2, -1388202.3, -1319684.0, 49528.38, 0.13053676, 0.06087736, -1293720.6, 29365.951, 0.0, 9.999369, 10.000299 
6.4505535e+2, 1.7499298e+2, -1287422.1, -1218231.1, 25636.77, 0.06315502, 0.09907195, -1209767.5, 15308.09, 0.0, 9.999381, 10.000316 
6.450516e+2, 1.8499304e+2, -1207112.3, -1230515.9, 60184.83, 0.047877375, 0.12617022, -1157502.3, -30426.822, 0.0, 9.999679, 9.999417 
6.4504844e+2, 1.9499183e+2, -1039169.56, -1099444.1, 53843.984, 0.07496959, 0.02727597, -1007602.5, 21486.822, 0.0, 10.000172, 9.999403 
6.450448e+2, 2.0499137e+2, -900767.2, -934251.3, 71751.04, 0.056043845, 0.025141293, -843830.8, 87263.234, 0.0, 10.000243, 9.9998255 
6.450407e+2, 2.1499127e+2, -865409.8, -867837.8, 53225.91, -0.0014061866, -0.0017540487, -813384.06, 19709.133, 0.0, 9.999813, 9.999819 
6.4503694e+2, 2.2499156e+2, -803499.9, -853287.8, 45650.9, -0.0016988835, 0.07981048, -776396.56, -41304.266, 0.0, 9.999843, 9.999235 
6.450336e+2, 2.3499188e+2, -635954.3, -722564.56, 23906.123, 0.061964825, 0.1506174, -629793.94, 7300.8354, 0.0, 10.000322, 9.9992285 
6.4502966e+2, 2.4499178e+2, -533769.5, -596230.8, 75479.266, 0.020517513, 0.21224262, -483314.94, 55783.316, 0.0, 10.000266, 9.999448 
6.4502513e+2, 2.54991e+2, -516073.88, -536513.5, 73022.76, -0.113340765, 0.15595946, -452559.25, -11454.081, 0.0, 9.999704, 9.9994545 
6.450214e+2, 2.6499012e+2, -476635.66, -556961.44, 29071.848, -0.07879778, 0.16983598, -467218.0, -124102.94, 0.0, 9.999696, 9.99864 
6.4501834e+2, 2.749887e+2, -292256.6, -422673.66, 30539.37, 0.1402262, 0.13155884, -285459.53, -40327.31, 0.000000000000000000046744374, 10.000299, 9.998607 
6.45015e+2, 2.8498825e+2, -76830.945, -166695.22, 153472.84, 0.16521135, 0.18674433, 38151.926, 185288.95, 0.00000034821963, 10.000672, 9.99951 
6.4501125e+2, 2.949887e+2, 15300.078, -88727.83, 97165.4, -0.0009111245, 0.24031334, 73497.586, 122627.68, 0.0000068469953, 10.000683, 9.999372 
6.45009e+2, 3.0498835e+2, -18181.941, -156441.08, 28231.484, 0.08811043, 0.31777954, -12639.467, -12639.467, 0.00003364889, 10.000492, 9.998653 
6.4500326e+2, 3.149854e+2, 13502.8125, -14712.207, 36214.742, -0.08732739, 0.104660265, 38260.832, 38260.832, 0.000093661416, 10.000084, 9.999823 
6.5507877e+2, 1.2499808e+2, -1892672.6, -1900026.4, -68979.24, 0.002650152, -0.0052473643, -1827272.4, -112246.74, 0.000000001405694, 9.999149, 9.999109 
6.550743e+2, 1.3499886e+2, -1454188.4, -1617281.6, 64050.844, 0.07749414, 0.10544351, -1432041.4, 184981.78, 0.0, 10.001429, 9.999293 
6.550658e+2, 1.4499818e+2, -1324687.8, -1501771.0, 22552.926, -0.30425617, 0.123267226, -1321860.6, 197171.06, 0.0, 10.001609, 9.999319 
6.550649e+2, 1.5499777e+2, -1447711.3, -1511582.6, -1836.2976, 0.16968302, 0.103608906, -1447658.5, -26623.871, 0.0, 10.000099, 9.999309 
6.550604e+2, 1.6499773e+2, -1414955.6, -1360484.5, 32006.906, 0.2136371, 0.13841212, -1345693.8, -22659.945, 0.0, 9.999305, 10.000047 
6.5505326e+2, 1.7499793e+2, -1312415.8, -1260159.0, 42205.176, -0.1127492, 0.12075366, -1236649.0, -11618.695, 0.0, 9.99934, 10.000044 
6.550497e+2, 1.8499774e+2, -1200132.8, -1192920.8, 62952.51, -0.14250861, 0.1214927, -1133471.0, -6439.6885, 0.0, 9.999579, 9.9997225 
6.550492e+2, 1.9499679e+2, -1031395.3, -1057279.3, 89934.26, 0.10175741, 0.015146343, -953476.56, 75564.23, 0.0, 10.00006, 9.999747 
6.550462e+2, 2.0499684e+2, -929291.2, -958045.4, 40008.4, 0.14554887, 0.052611034, -901155.06, 29885.15, 0.0, 10.000091, 9.999741 
6.550408e+2, 2.1499756e+2, -899996.6, -892038.8, 52070.605, -0.006959023, 0.11670164, -843795.3, -10762.324, 0.0, 9.999613, 9.999749 
6.5503675e+2, 2.2499791e+2, -845823.3, -891662.44, 49393.176, -0.03726574, 0.21433485, -814291.1, -79258.84, 0.0, 9.999636, 9.999065 
6.55034e+2, 2.3499748e+2, -677048.7, -760298.4, 56855.035, 0.037064012, 0.2287907, -648209.9, -11167.846, 0.0, 10.000124, 9.999061 
6.5503037e+2, 2.4499722e+2, -530753.3, -557026.3, 37189.645, 0.044458598, 0.26685724, -504448.25, 34598.07, 0.0, 10.000127, 9.999782 
6.550261e+2, 2.549968e+2, -514602.47, -496352.38, 68863.26, -0.02430996, 0.2113685, -436012.22, 5035.795, 0.0, 9.99955, 9.9998 
6.550221e+2, 2.6499626e+2, -450495.78, -488704.9, 36320.695, -0.00859178, 0.21269391, -428561.63, -85509.15, 0.0, 9.999628, 9.999145 
6.550186e+2, 2.7499518e+2, -270167.72, -358552.25, 74103.21, 0.102373235, 0.1604108, -228079.97, 16983.006, 0.0000000002377775, 10.000211, 9.999095 
6.550152e+2, 2.849943e+2, -157177.48, -308741.5, 138927.94, 0.08165007, 0.19459774, -74706.89, 72365.55, 0.0000008000927, 10.00058, 9.9985695 
6.550114e+2, 2.9499316e+2, -73887.43, -238227.83, 114710.625, -0.09208269, 0.17920762, -14953.165, 34131.855, 0.000010270006, 10.000542, 9.9984045 
6.5500945e+2, 3.0499184e+2, -20180.957, -162603.06, 3640.4834, 0.04752199, 0.21444213, -20087.96, -20087.96, 0.00004390313, 10.000488, 9.998621 
6.550048e+2, 3.1499082e+2, 58727.047, 97903.67, 86053.336, -0.020851294, 0.19288561, 166569.98, 166569.98, 0.00011355634, 10.000004, 10.000638 
6.6507787e+2, 1.2500271e+2, -1734998.9, -1787217.9, -128034.336, -0.036453906, -0.07192078, -1630439.0, 84538.38, 0.00000000035571668, 10.000075, 9.999427 
6.650745e+2, 1.350037e+2, -1665702.4, -1687802.4, 41124.973, 0.054927543, 0.023365045, -1634168.8, -17196.43, 0.0, 9.999816, 9.9996 
6.6506773e+2, 1.4500368e+2, -1623687.3, -1645569.5, 10300.544, -0.15466161, 0.08912663, -1619601.4, -100625.76, 0.0, 9.999564, 9.9993105 
6.6506505e+2, 1.5500376e+2, -1483744.1, -1527605.1, -10710.237, 0.20155849, 0.11670928, -1481268.5, -60292.402, 0.0, 9.999863, 9.999301 
6.6505986e+2, 1.6500369e+2, -1331875.9, -1349507.3, 103253.66, 0.20018123, 0.16337128, -1237062.3, 85914.14, 0.0, 10.0, 9.999787 
6.65053e+2, 1.7500329e+2, -1257202.8, -1263906.5, 78703.625, -0.08814358, 0.1113697, -1181779.6, 43198.707, 0.0, 9.999838, 9.99978 
6.6504955e+2, 1.8500292e+2, -1205704.1, -1207651.0, 123121.31, -0.10231816, 0.11303027, -1083552.4, 43428.805, 0.0, 9.999614, 9.9996 
6.6504914e+2, 1.9500221e+2, -1147736.1, -1130784.9, 83377.71, 0.13543105, 0.044807505, -1055453.0, -26464.35, 0.0, 9.999335, 9.999594 
6.650463e+2, 2.0500228e+2, -994904.25, -1001801.44, 49084.17, 0.17188236, 0.095238656, -949147.7, -18159.438, 0.0, 9.999688, 9.999642 
6.65041e+2, 2.1500279e+2, -764362.1, -839132.4, 27121.629, 0.020436151, 0.15127969, -755560.4, 77422.31, 0.0, 10.000596, 9.999646 
6.650369e+2, 2.250028e+2, -713366.75, -826380.3, 41233.855, -0.015681695, 0.2194324, -699921.75, 35062.797, 0.0, 10.000554, 9.999076 
6.650339e+2, 2.3500195e+2, -762451.7, -802855.75, 32083.498, 0.05495614, 0.19564258, -744739.7, -107742.86, 0.0, 9.999556, 9.999049 
6.650305e+2, 2.4500152e+2, -656404.7, -617131.7, 41807.223, 0.08760534, 0.21868227, -590579.06, -51577.17, 0.0, 9.9992285, 9.999811 
6.6502655e+2, 2.5500122e+2, -523144.78, -501972.0, 14093.885, 0.08729655, 0.17065051, -494931.44, -53928.6, 0.0, 9.999463, 9.999816 
6.6502285e+2, 2.6500082e+2, -390233.97, -445253.47, 17886.691, 0.09045435, 0.18260804, -384930.28, -41925.223, 0.0, 9.999977, 9.999276 
6.6501915e+2, 2.7500018e+2, -173611.34, -291314.22, -4485.2246, 0.112151936, 0.1539052, -173440.67, 71569.72, 0.0000000023427176, 10.000803, 9.999261 
6.650157e+2, 2.849991e+2, -134730.25, -349365.16, 66850.47, 0.065915674, 0.18661766, -115611.87, 31409.719, 0.0000014418595, 10.00094, 9.998126 
6.650121e+2, 2.949971e+2, -141705.03, -311266.88, 44195.094, -0.047387164, 0.1273979, -130877.33, -81833.22, 0.000014823799, 10.000252, 9.998041 
6.6501004e+2, 3.0499533e+2, -65784.06, -164441.3, 5394.4077, 0.08728327, 0.12043522, -65489.98, -65489.98, 0.000057815294, 10.000087, 9.998801 
6.6500556e+2, 3.149956e+2, 75339.33, 109190.75, 47856.39, 0.06828978, 0.21364896, 143026.39, 143026.39, 0.00014076945, 10.000092, 10.000675 
6.750758e+2, 1.2500918e+2, -1687883.3, -1681805.5, -221064.13, -0.32755244, 0.11862848, -1463759.4, 251159.72, 0.0000000023126079, 10.000052, 10.000159 
6.750751e+2, 1.3500963e+2, -1625408.1, -1597490.8, 39546.76, 0.10034481, 0.0928728, -1569511.5, 47404.652, 0.0, 9.999799, 10.000225 
6.750701e+2, 1.4500985e+2, -1596286.5, -1572751.8, -155.96104, 0.08249264, 0.12782423, -1572750.8, -53835.617, 0.0, 9.999498, 9.999841 
6.750633e+2, 1.5501012e+2, -1443441.5, -1441814.0, 18323.371, -0.0011272832, 0.12578434, -1424286.4, -3373.4717, 0.0, 9.999859, 9.999889 
6.7505777e+2, 1.6501002e+2, -1355509.5, -1390599.6, 80643.72, -0.045692515, 0.15037881, -1290524.4, 32388.545, 0.0, 9.999959, 9.999529 
6.7505413e+2, 1.7500922e+2, -1282988.6, -1303035.6, 87514.63, 0.001002831, 0.08155216, -1204925.4, 19992.986, 0.0, 9.999778, 9.999538 
6.7505085e+2, 1.8500867e+2, -1260101.0, -1298755.0, 92550.91, 0.031533275, 0.106376186, -1184880.6, -57956.566, 0.0, 9.9995165, 9.999026 
6.7504776e+2, 1.9500819e+2, -1210546.0, -1223694.9, 87285.14, 0.027671358, 0.12292973, -1129588.0, -100655.91, 0.0, 9.999182, 9.99903 
6.750445e+2, 2.0500775e+2, -1031110.56, -1042478.25, 68375.805, -0.00035677705, 0.16246645, -968182.75, -37245.7, 0.0, 9.999526, 9.999448 
6.7504114e+2, 2.1500702e+2, -803979.9, -876806.1, 75582.64, -0.057523753, 0.10869982, -756496.3, 76445.61, 0.0, 10.000401, 9.999482 
6.7503726e+2, 2.250063e+2, -729424.3, -815430.75, -11860.36, -0.062216762, 0.1055843, -727818.75, 7129.5537, 0.0, 10.000362, 9.999245 
6.75033e+2, 2.3500526e+2, -779780.3, -790570.9, 12300.376, -0.02435321, 0.044934347, -771744.0, -134784.78, 0.0, 9.9993515, 9.999231 
6.750293e+2, 2.4500476e+2, -703123.8, -675140.0, 38738.535, 0.023631535, 0.06582054, -647943.94, -108979.484, 0.0, 9.999066, 9.99949 
6.7502624e+2, 2.550044e+2, -571506.7, -566632.25, 39661.53, 0.07367475, 0.0453079, -529333.1, -88364.945, 0.0, 9.999307, 9.999448 
6.7502296e+2, 2.650041e+2, -424325.16, -486145.38, 32295.066, 0.077794135, 0.094734535, -410531.72, -67560.61, 0.0, 9.999854, 9.999053 
6.7501944e+2, 2.750036e+2, -205137.69, -331756.94, 44731.094, 0.028618012, 0.10716499, -190929.7, 54045.547, 0.0000000015372758, 10.000693, 9.999039 
6.750162e+2, 2.8500268e+2, -131078.45, -330693.9, 26946.998, -0.0059309616, 0.15581217, -127504.734, 19480.17, 0.0000017821444, 10.0008955, 9.998274 
6.750129e+2, 2.9500082e+2, -145513.33, -290994.22, 40720.523, -0.04692668, 0.09872664, -134891.11, -85886.14, 0.000019076204, 10.000132, 9.998238 
6.750099e+2, 3.0499873e+2, -57993.2, -129247.055, -3090.2834, 0.034926698, 0.033547662, -57859.426, -57859.426, 0.000073988194, 10.000013, 9.999074 
6.750045e+2, 3.149996e+2, 14297.133, 15253.585, 104786.195, -0.13041961, 0.17064072, 119562.64, 119562.64, 0.00017626988, 9.999966, 10.000082 
6.85076e+2, 1.2501472e+2, -1802625.4, -1693816.6, -147589.13, -0.24804747, 0.14820799, -1590923.9, 123942.1, 0.0000000036242784, 9.999046, 10.000581 
6.850741e+2, 1.3501526e+2, -1792088.5, -1645602.4, 17410.23, 0.098337345, 0.11026595, -1643561.5, -26700.914, 0.0, 9.998537, 10.000493 
6.850703e+2, 1.4501579e+2, -1701292.5, -1598274.6, 41812.797, 0.19987084, 0.15226765, -1583440.0, -64584.715, 0.0, 9.998663, 10.0000725 
6.850625e+2, 1.5501593e+2, -1441804.5, -1418788.8, 4950.527, -0.049927186, 0.11261786, -1417769.1, 3084.7244, 0.0, 9.999756, 10.000111 
6.850572e+2, 1.6501565e+2, -1338588.9, -1408850.5, 50448.598, -0.09419864, 0.11773188, -1312244.3, 10611.524, 0.0, 10.000183, 9.999301 
6.8505496e+2, 1.7501464e+2, -1282438.9, -1336099.0, 25430.852, 0.10569346, 0.053973332, -1272301.8, -47437.75, 0.0, 9.999913, 9.99926 
6.850517e+2, 1.8501404e+2, -1191966.3, -1294202.9, 90444.15, 0.14904901, 0.100885004, -1139194.1, -12323.177, 0.0, 10.000095, 9.998777 
6.850474e+2, 1.9501352e+2, -1015997.4, -1156559.1, 80725.99, 0.015980788, 0.13492478, -979245.1, 49634.68, 0.0, 10.00062, 9.998795 
6.85044e+2, 2.0501286e+2, -904028.7, -972911.75, 107053.32, -0.03751054, 0.1617232, -826013.0, 104873.57, 0.0, 10.000404, 9.999474 
6.850414e+2, 2.1501172e+2, -930193.5, -936757.7, 96985.2, -0.013732556, 0.06615303, -836434.9, -3540.1433, 0.0, 9.999544, 9.99947 
6.8503773e+2, 2.250109e+2, -826040.3, -842398.1, 44601.633, -0.004536059, 0.044662476, -788873.9, -53973.176, 0.0, 9.999598, 9.999431 
6.850329e+2, 2.3501016e+2, -598269.2, -683632.5, 38601.926, -0.008999215, -0.0045609483, -583402.3, 53504.42, 0.0, 10.000495, 9.999418 
6.850292e+2, 2.4500957e+2, -488508.13, -632038.7, 91757.35, 0.034090586, 0.02533263, -443784.5, 95128.55, 0.0, 10.000816, 9.99893 
6.850266e+2, 2.5500885e+2, -412368.16, -547146.9, 45753.535, 0.1202102, 0.022276267, -398303.75, 42618.906, 0.0, 10.000675, 9.998905 
6.8502355e+2, 2.6500812e+2, -322045.34, -475518.3, 75959.516, 0.119368024, 0.07648105, -290808.06, 52122.63, 0.0, 10.000707, 9.998719 
6.850203e+2, 2.7500713e+2, -221175.95, -377405.53, 46527.77, 0.05486582, 0.071245424, -208369.06, 36570.883, 0.00000000039754933, 10.000726, 9.998715 
6.8501717e+2, 2.850062e+2, -148712.6, -323368.5, 28756.354, 0.016264549, 0.124279246, -144099.81, 2850.062, 0.000001935021, 10.000705, 9.998412 
6.850137e+2, 2.9500479e+2, -27695.559, -216673.47, 6990.804, -0.0002833637, 0.10257035, -27437.303, 21527.744, 0.000022833043, 10.00085, 9.998405 
6.8501025e+2, 3.0500308e+2, 56195.133, -84416.805, -14256.27, 0.043301858, 0.07263871, 57625.977, 57625.977, 0.00009092674, 10.000854, 9.998972 
6.8500507e+2, 3.1500265e+2, 7628.435, -28327.02, 28540.232, -0.056927312, 0.096393675, 23381.162, 23381.162, 0.00021663251, 10.000068, 9.99975 
6.950775e+2, 1.2501946e+2, -1783806.9, -1652765.9, -168771.38, -0.08856599, 0.029131172, -1537243.0, 177574.2, 0.00000000017840025, 9.999057, 10.000843 
6.950711e+2, 1.3502079e+2, -1794712.3, -1655667.1, 8508.934, -0.09312463, 0.081879504, -1655148.4, -38344.324, 0.0, 9.998564, 10.000405 
6.950679e+2, 1.4502156e+2, -1706789.0, -1607782.6, 64283.023, 0.050418723, 0.14992805, -1576150.9, -57354.625, 0.0, 9.998649, 10.000016 
6.9506234e+2, 1.5502112e+2, -1451104.3, -1438970.4, 63097.402, -0.081207156, 0.05899867, -1381648.9, 39150.746, 0.0, 9.999748, 9.999983 
6.9505775e+2, 1.6502053e+2, -1367897.6, -1450488.8, 25326.617, -0.09233933, 0.055878565, -1360749.9, -37944.707, 0.0, 10.000111, 9.999043 
6.95055e+2, 1.7501971e+2, -1310288.5, -1377489.4, 35131.035, 0.08705316, 0.038743276, -1295276.4, -70462.91, 0.0, 9.999846, 9.999006 
6.950517e+2, 1.8501914e+2, -1201010.3, -1285160.3, 97153.445, 0.11169724, 0.09278238, -1137212.3, -10391.799, 0.0, 9.99998, 9.998889 
6.950478e+2, 1.9501834e+2, -1030944.0, -1153278.3, 114767.51, -0.039669976, 0.08714601, -962061.1, 66768.98, 0.0, 10.0004835, 9.998874 
6.9504434e+2, 2.0501766e+2, -912803.2, -961048.5, 56811.605, -0.07490079, 0.099636495, -875205.0, 55631.344, 0.0, 10.000263, 9.999627 
6.950415e+2, 2.1501681e+2, -948472.25, -928649.06, 78427.71, 0.008334066, 0.019469842, -859509.1, -26667.32, 0.0, 9.999344, 9.999621 
6.950379e+2, 2.2501661e+2, -839276.4, -825737.3, 63172.977, 0.025128024, 0.039820872, -768972.2, -34130.55, 0.0, 9.999406, 9.999635 
6.950334e+2, 2.3501663e+2, -611351.94, -667559.8, 85883.96, -0.037669923, 0.045083962, -549090.56, 87748.87, 0.0, 10.000313, 9.999611 
6.9502985e+2, 2.4501604e+2, -558294.0, -750725.25, 72584.09, -0.018290289, 0.10238904, -533986.2, 4860.711, 0.0, 10.000695, 9.998175 
6.9502723e+2, 2.5501448e+2, -479632.0, -662858.75, 58048.28, 0.08014874, 0.08879651, -462789.78, -21922.656, 0.0, 10.000561, 9.998169 
6.950243e+2, 2.6501286e+2, -370011.78, -547493.1, 64424.55, 0.09204161, 0.11257881, -349091.94, -6207.0854, 0.0, 10.000596, 9.998273 
6.950211e+2, 2.7501082e+2, -273356.53, -455299.75, 64072.035, 0.026604401, 0.049038, -253057.95, -8153.932, 0.0000000054780975, 10.000602, 9.998237 
6.950179e+2, 2.8500965e+2, -150546.4, -312936.22, 17029.55, -0.020507468, 0.09805601, -148779.77, -1863.4711, 0.000002364329, 10.000644, 9.99851 
6.950142e+2, 2.9500905e+2, -36948.688, -209514.89, 36560.105, -0.08762513, 0.14077127, -29522.584, 19401.572, 0.000027093956, 10.000739, 9.998504 
6.950107e+2, 3.0500835e+2, 17325.559, -158584.3, -48599.9, -0.02937769, 0.23242804, 29859.533, 29859.533, 0.00010798756, 10.000818, 9.998478 
6.950067e+2, 3.1500524e+2, -18945.121, -63167.69, 65730.08, 0.023472967, 0.034976814, 28293.084, 28293.084, 0.00025661878, 9.999977, 9.999551 
7.050772e+2, 1.2502398e+2, -1874098.0, -1718951.9, -130467.43, 0.022634378, -0.027114065, -1644737.9, 70033.46, 0.0, 9.998507, 10.000674 
7.050698e+2, 1.3502559e+2, -1587664.1, -1597942.5, -78733.92, -0.14474612, 0.09162784, -1513901.9, 102854.78, 0.0, 10.000139, 10.0000515 
7.050672e+2, 1.45026e+2, -1501496.1, -1529301.9, -17218.436, 0.057707228, 0.15191534, -1493268.4, 25484.479, 0.0, 10.000147, 9.999827 
7.050621e+2, 1.5502523e+2, -1548365.4, -1499094.3, -59112.938, -0.04365315, 0.043582004, -1459688.8, -38928.68, 0.0, 9.999157, 9.999836 
7.050577e+2, 1.650248e+2, -1474568.5, -1485454.0, -30640.59, -0.060665045, 0.056974355, -1448891.0, -126126.72, 0.0, 9.99932, 9.999173 
7.0505506e+2, 1.7502452e+2, -1210016.8, -1307972.8, -26972.941, 0.08849085, 0.077336326, -1203080.6, 21687.184, 0.0, 10.000459, 9.999171 
7.050519e+2, 1.8502401e+2, -1129619.1, -1235478.4, 49837.375, 0.11622658, 0.12070397, -1109848.6, 16924.916, 0.0, 10.000399, 9.999033 
7.0504797e+2, 1.9502276e+2, -1214209.4, -1228479.5, 40358.766, 0.008386591, 0.061282832, -1180359.9, -151573.9, 0.0, 9.999153, 9.999012 
7.050445e+2, 2.0502208e+2, -1083542.9, -1042477.44, 29245.082, -0.01308442, 0.06570109, -1027276.9, -96485.3, 0.0, 9.999062, 9.99966 
7.050416e+2, 2.150217e+2, -844500.7, -874532.9, 12943.34, 0.054321073, 0.026829427, -839692.25, -6899.586, 0.0, 10.000018, 9.999678 
7.050381e+2, 2.250215e+2, -726267.8, -791240.75, 16628.543, 0.06743989, 0.054537125, -722259.3, 12533.6045, 0.0, 10.000286, 9.999436 
7.0503396e+2, 2.350211e+2, -677522.44, -720036.06, -22899.703, 0.010462111, 0.03680148, -667534.25, -30738.432, 0.0, 9.999958, 9.999414 
7.0503056e+2, 2.4502046e+2, -639804.2, -788477.2, 4028.855, 0.018800084, 0.09906938, -639695.06, -100891.05, 0.0, 10.000123, 9.9981985 
7.05028e+2, 2.5501928e+2, -450811.06, -644905.56, 17891.81, 0.10450388, 0.12136767, -449175.56, -8355.087, 0.0, 10.000738, 9.998214 
7.0502514e+2, 2.650177e+2, -313587.28, -514785.28, 89748.695, 0.10879167, 0.14317755, -279371.66, 63465.797, 0.0, 10.000958, 9.998328 
7.050219e+2, 2.750154e+2, -239559.64, -428760.3, 93031.84, 0.045400154, 0.047162056, -201479.36, 43379.047, 0.000000016182126, 10.000795, 9.998321 
7.0501876e+2, 2.85014e+2, -160775.75, -351973.22, 87686.68, 0.007764947, 0.08557592, -126651.42, 20221.451, 0.0000030357212, 10.000706, 9.998224 
7.050153e+2, 2.950133e+2, -92441.12, -269082.2, 45164.99, -0.021779021, 0.14774665, -81562.9, -32680.258, 0.000031540207, 10.000488, 9.998224 
7.050116e+2, 3.0501232e+2, -81711.27, -236207.19, -27554.62, 0.016846595, 0.23613848, -76943.96, -76943.96, 0.00012311795, 10.000263, 9.99821 
7.050078e+2, 3.1500924e+2, -21805.879, -23989.412, 47037.492, 0.16027884, 0.061335865, 24152.516, 24152.516, 0.0002906225, 9.999798, 9.999892 
7.150745e+2, 1.2502833e+2, -1896213.5, -1766712.3, -59219.66, -0.17468047, 0.0016183413, -1743715.4, -28987.268, 0.0, 9.998518, 10.000335 
7.150698e+2, 1.350295e+2, -1620921.6, -1677211.5, -10216.289, -0.20172736, 0.1239194, -1619124.8, -2405.1274, 0.0, 10.000171, 9.999497 
7.1506786e+2, 1.4502914e+2, -1524486.8, -1570467.8, -75523.82, 0.05833866, 0.14940381, -1468531.6, 50193.55, 0.0, 10.000126, 9.999547 
7.1506125e+2, 1.5502839e+2, -1570010.0, -1540547.5, -78240.26, -0.08233677, 0.069962054, -1475663.8, -54929.938, 0.0, 9.99914, 9.999558 
7.1505666e+2, 1.6502845e+2, -1448983.6, -1411740.1, -3543.943, -0.13249286, 0.11981641, -1411405.9, -88672.77, 0.0, 9.999243, 9.999713 
7.1505475e+2, 1.75029e+2, -1185931.4, -1239850.9, 29854.201, -0.023020728, 0.16821872, -1172665.5, 52061.617, 0.0, 10.000391, 9.999668 
7.150518e+2, 1.8502857e+2, -1128781.1, -1212817.4, -13392.9795, 0.02892254, 0.18685646, -1126698.4, 32.346302, 0.0, 10.000308, 9.999236 
7.1504754e+2, 1.950269e+2, -1222854.5, -1208966.8, 10299.897, 0.017134432, 0.063300885, -1203488.6, -174742.34, 0.0, 9.998999, 9.999222 
7.150441e+2, 2.0502633e+2, -1114553.3, -1061763.9, 50906.582, 0.0064649535, 0.070034996, -1030816.1, -100065.65, 0.0, 9.998878, 9.999612 
7.150412e+2, 2.1502648e+2, -885134.75, -899971.5, 62122.65, -0.0072861663, 0.09006231, -829989.1, 2757.2373, 0.0, 9.999783, 9.999611 
7.150379e+2, 2.2502571e+2, -793601.9, -893842.5, -13671.91, -0.0069161793, 0.09756324, -791770.56, -57017.21, 0.0, 10.000117, 9.998817 
7.15034e+2, 2.3502368e+2, -748759.56, -823809.5, -20464.33, -0.0041580414, -0.021869674, -743542.1, -106767.38, 0.0, 9.999765, 9.998797 
7.1503097e+2, 2.4502297e+2, -610150.8, -687935.2, 11206.795, 0.014499663, 0.025558634, -608568.44, -69784.94, 0.0, 9.999956, 9.998972 
7.150285e+2, 2.5502324e+2, -421105.9, -544150.4, 56758.27, 0.043925468, 0.121152505, -398923.38, 41859.445, 0.0, 10.000579, 9.998981 
7.1502566e+2, 2.6502267e+2, -279778.16, -435042.9, 66339.08, 0.028952705, 0.17577857, -255294.61, 87493.586, 0.0, 10.000909, 9.998904 
7.150223e+2, 2.7502087e+2, -216210.78, -354003.56, 105025.61, -0.033381976, 0.06690451, -159500.28, 85302.99, 0.000000020828322, 10.000678, 9.998896 
7.1501946e+2, 2.8501922e+2, -217833.45, -447968.22, 65377.254, -0.024860403, 0.08479421, -200557.77, -53737.62, 0.0000037854625, 10.000622, 9.997601 
7.150167e+2, 2.9501754e+2, -158504.22, -376376.44, 60505.418, 0.021148803, 0.11481875, -142829.02, -93988.0, 0.000035842306, 10.000377, 9.997535 
7.150123e+2, 3.0501515e+2, -87169.45, -251891.48, -55188.08, 0.019955143, 0.10146481, -70388.85, -70388.85, 0.000135526, 10.00027, 9.998108 
7.150074e+2, 3.1501368e+2, 7307.1455, 59131.5, 75907.7, 0.060426217, 0.09709422, 113427.93, 113427.93, 0.00031586387, 9.999685, 10.000531 
7.250737e+2, 1.2503272e+2, -1742300.1, -1711451.0, 33388.555, -0.13974367, 0.031910058, -1690096.4, 24588.063, 0.0, 9.99962, 10.000211 
7.250692e+2, 1.3503325e+2, -1897356.9, -1800451.4, 5810.947, -0.16230753, 0.09066804, -1800104.3, -183422.89, 0.0, 9.998256, 9.999569 
7.250673e+2, 1.4503258e+2, -1796111.9, -1696411.0, 17913.523, 0.09723462, 0.078940615, -1693290.1, -174600.56, 0.0, 9.99823, 9.999616 
7.2506124e+2, 1.5503272e+2, -1474852.4, -1482683.8, 10788.271, -0.020787856, 0.08739886, -1467291.1, -46601.867, 0.0, 9.999737, 9.999679 
7.2505665e+2, 1.6503283e+2, -1334711.9, -1393468.8, 99679.86, -0.088065974, 0.1477193, -1260171.3, 62517.594, 0.0, 10.00014, 9.9994335 
7.250543e+2, 1.7503247e+2, -1346358.3, -1345616.9, 44671.01, -0.049249407, 0.13393594, -1301315.0, -76622.77, 0.0, 9.999388, 9.999442 
7.250514e+2, 1.8503202e+2, -1250939.3, -1251696.5, -15580.298, 0.022647068, 0.15190725, -1235732.9, -109036.63, 0.0, 9.999381, 9.9994135 
7.250478e+2, 1.9503112e+2, -1053199.0, -1105120.0, -26258.537, 0.10781622, 0.08777737, -1042234.5, -13530.036, 0.0, 10.000066, 9.999417 
7.2504425e+2, 2.0503065e+2, -939046.94, -999264.94, 58085.816, 0.08593565, 0.104221575, -903730.3, 26977.88, 0.0, 10.000195, 9.999411 
7.250407e+2, 2.1503015e+2, -905377.9, -935988.56, 29627.365, -0.03370019, 0.082584806, -887336.06, -54624.66, 0.0, 9.999755, 9.999384 
7.2503746e+2, 2.2502923e+2, -835817.75, -920709.7, -1905.7705, -0.038331922, 0.089671575, -835775.0, -101054.03, 0.0, 9.999855, 9.998768 
7.2503483e+2, 2.3502758e+2, -646449.8, -780938.7, 545.8868, 0.07816528, 0.016241537, -646447.6, -9707.986, 0.0, 10.000491, 9.998752 
7.2503203e+2, 2.4502707e+2, -491548.84, -577099.8, 74191.33, 0.112253, 0.060997795, -448684.97, 90060.734, 0.0, 10.000556, 9.999432 
7.250289e+2, 2.5502732e+2, -448399.66, -508860.97, 65231.645, 0.05065086, 0.10892704, -406734.16, 34008.49, 0.0, 10.000181, 9.9994135 
7.2502595e+2, 2.6502696e+2, -398839.9, -478533.9, 69307.85, 0.01421418, 0.15505363, -358740.9, -15995.271, 0.0, 10.00005, 9.999012 
7.2502327e+2, 2.7502555e+2, -277395.3, -372608.03, 36411.297, 0.026397865, 0.078427024, -265067.16, -20308.871, 0.000000011844985, 10.000206, 9.998999 
7.250207e+2, 2.850242e+2, -208503.86, -416975.56, 59255.004, 0.053727444, 0.10773644, -192838.63, -46066.348, 0.000004675658, 10.000591, 9.997818 
7.2501796e+2, 2.9502258e+2, -20121.055, -284045.9, 77349.17, 0.07807971, 0.1221911, 877.2206, 49667.76, 0.000040333267, 10.001229, 9.997752 
7.2501284e+2, 3.0501953e+2, 55166.563, -201008.88, 2842.9197, 0.0040314766, 0.0451022, 55198.105, 55198.105, 0.00014552829, 10.001332, 9.9979515 
7.250085e+2, 3.1501952e+2, 104990.695, 59431.66, 50761.316, 0.16895717, 0.20197676, 137849.45, 137849.45, 0.00033116215, 10.000564, 10.000112 
7.350744e+2, 1.2503739e+2, -1732688.8, -1681600.5, -24386.947, -0.10246518, 0.09089289, -1671828.5, 42809.855, 0.0, 9.999592, 10.000419 
7.350677e+2, 1.3503686e+2, -1867342.8, -1740762.8, -40927.117, -0.16942675, -0.0011704791, -1728682.6, -112040.83, 0.0, 9.998255, 9.999982 
7.3506504e+2, 1.450361e+2, -1775833.3, -1633077.8, 52806.19, 0.009490503, -0.06686834, -1615667.6, -97019.484, 0.0, 9.998151, 10.000077 
7.3506147e+2, 1.5503806e+2, -1452366.5, -1432434.8, 85173.38, -0.005343702, 0.07556429, -1356646.1, 63982.832, 0.0, 9.999721, 10.0000305 
7.3505735e+2, 1.6503783e+2, -1405025.1, -1532377.4, 53196.887, -0.06771665, 0.13471358, -1385728.0, -63095.492, 0.0, 10.000112, 9.998491 
7.3505336e+2, 1.7503513e+2, -1423533.4, -1488818.5, 33982.906, -0.12049849, -0.01850106, -1409055.1, -184393.86, 0.0, 9.999311, 9.998499 
7.350505e+2, 1.8503453e+2, -1264321.3, -1244729.4, -4127.3667, -0.042472754, 0.025207836, -1243895.4, -117226.49, 0.0, 9.99924, 9.999523 
7.350486e+2, 1.950356e+2, -1069783.5, -1100989.4, 13122.448, 0.14201415, 0.14703232, -1064998.9, -36339.85, 0.0, 9.999913, 9.999511 
7.3504484e+2, 2.050352e+2, -984688.4, -1061253.9, 24699.41, 0.09877491, 0.18394896, -977412.06, -46748.5, 0.0, 10.000048, 9.999057 
7.3503923e+2, 2.1503295e+2, -957691.75, -995668.0, 28735.352, -0.17214045, 0.018452711, -942237.6, -109552.0, 0.0, 9.999547, 9.999071 
7.350364e+2, 2.2503228e+2, -833936.5, -866879.9, 6568.7075, -0.16068476, 0.04389506, -832675.06, -97981.73, 0.0, 9.999642, 9.999238 
7.35036e+2, 2.3503287e+2, -644771.5, -725768.7, 41455.477, 0.1202405, 0.14527087, -627315.9, 9374.264, 0.0, 10.0002775, 9.9992285 
7.350335e+2, 2.4503277e+2, -496426.0, -561925.9, 45203.723, 0.17186984, 0.2008541, -473355.38, 65335.35, 0.0, 10.000441, 9.999593 
7.3502874e+2, 2.5503165e+2, -463624.63, -499421.88, 66304.78, -0.009636054, 0.0908016, -412845.13, 27853.617, 0.0, 10.000004, 9.999564 
7.350256e+2, 2.6503074e+2, -445424.94, -547135.6, 62693.38, -0.051059827, 0.099023275, -415554.03, -72846.41, 0.0, 9.999928, 9.998597 
7.3502415e+2, 2.7502963e+2, -322060.94, -442118.63, 65445.902, 0.061355494, 0.09455797, -293283.1, -48561.332, 0.000000051096855, 10.000108, 9.998568 
7.3502195e+2, 2.85029e+2, -129635.5, -259923.95, 68214.42, 0.08119596, 0.16391048, -100455.94, 46272.152, 0.0000058850314, 10.000607, 9.998893 
7.350186e+2, 2.9502848e+2, 41898.26, -140122.13, 124460.89, -0.02470597, 0.17743576, 105074.21, 153804.61, 0.000044056193, 10.001154, 9.99878 
7.350127e+2, 3.0502555e+2, 30371.297, -247010.03, -31803.766, -0.1771322, 0.076892175, 33971.11, 33971.11, 0.00015023243, 10.0013075, 9.997645 
7.350096e+2, 3.1502628e+2, -14984.438, -164243.9, 51722.08, 0.1371789, 0.33868608, 1186.5469, 1186.5469, 0.0003329124, 10.000454, 9.998625 
7.4507403e+2, 1.2504089e+2, -1894392.0, -1748806.3, -27470.955, -0.02178734, 0.12864932, -1743795.1, -29189.598, 0.0, 9.998461, 10.000483 
7.4506736e+2, 1.3504052e+2, -1628809.6, -1574252.5, -130643.625, -0.092827745, 0.011235425, -1468069.9, 148535.45, 0.0, 9.999698, 10.000414 
7.4506384e+2, 1.4503977e+2, -1538974.4, -1533807.9, -1865.3542, 0.002707989, -0.072967574, -1533204.9, -14593.563, 0.0, 9.999839, 9.999938 
7.450611e+2, 1.550414e+2, -1542590.8, -1484670.8, -52208.73, 0.02305164, 0.047664028, -1453927.9, -33332.363, 0.0, 9.999155, 9.999928 
7.4505734e+2, 1.6504107e+2, -1519905.3, -1551732.0, -36730.13, -0.018448876, 0.086667255, -1495789.4, -173190.53, 0.0, 9.999178, 9.998804 
7.4505335e+2, 1.7503846e+2, -1309982.6, -1394982.4, 4568.5996, -0.06629394, -0.09275133, -1309737.9, -85112.875, 0.0, 9.999927, 9.998842 
7.450505e+2, 1.8503796e+2, -1136804.4, -1193987.0, 46112.02, 0.00081815245, -0.05130665, -1111139.1, 15491.955, 0.0, 10.000145, 9.999444 
7.450486e+2, 1.9503912e+2, -1093644.3, -1126951.6, 22708.396, 0.16326225, 0.08885783, -1082137.4, -53515.832, 0.0, 9.999788, 9.999404 
7.4504495e+2, 2.0503893e+2, -1028463.25, -1076588.5, 63602.926, 0.122994415, 0.15012087, -984523.4, -53898.234, 0.0, 9.999717, 9.999098 
7.4503946e+2, 2.1503706e+2, -896512.8, -964684.94, 60903.83, -0.117180884, 0.019196797, -860805.4, -28160.7, 0.0, 9.999953, 9.9990835 
7.450367e+2, 2.2503659e+2, -752401.94, -820477.8, 87482.79, -0.103627145, 0.058688205, -692568.6, 42082.316, 0.0, 10.000175, 9.999292 
7.4503654e+2, 2.3503715e+2, -629307.0, -717405.25, 56681.14, 0.15232825, 0.15067357, -601571.2, 35076.39, 0.0, 10.000358, 9.999252 
7.45034e+2, 2.4503693e+2, -526859.5, -595456.25, 39147.133, 0.1917739, 0.20086025, -509111.03, 29538.385, 0.0, 10.000309, 9.9994335 
7.4502903e+2, 2.550356e+2, -446377.94, -505570.53, 3248.8672, 0.021279354, 0.090247706, -446200.16, -5540.7085, 0.0, 10.000182, 9.999437 
7.4502605e+2, 2.6503462e+2, -395779.97, -533297.0, 53866.492, -0.0052297055, 0.09916811, -377192.44, -34522.465, 0.0, 10.000321, 9.998499 
7.450252e+2, 2.7503353e+2, -239670.89, -404745.63, 46414.586, 0.1315638, 0.10587857, -227515.44, 17169.07, 0.00000017449423, 10.000713, 9.998517 
7.450231e+2, 2.8503302e+2, -104657.375, -188346.14, 59587.977, 0.14302759, 0.16181451, -73689.125, 73000.05, 0.0000070145306, 10.000527, 9.999423 
7.4501944e+2, 2.9503262e+2, -111854.84, -147346.55, 39546.9, 0.018525897, 0.13571852, -86254.734, -37566.9, 0.00004543542, 9.999809, 9.999379 
7.4501336e+2, 3.0503052e+2, -65188.105, -251147.67, -47446.598, -0.18127519, 0.065185584, -53781.973, -53781.973, 0.00014809403, 10.000466, 9.998021 
7.450117e+2, 3.150305e+2, 193654.44, -83632.27, -4174.1704, 0.23673533, 0.2178901, 193717.25, 193717.25, 0.00032280377, 10.001983, 9.998432 
7.5507194e+2, 1.2504308e+2, -1901699.5, -1751052.9, -22806.92, -0.15068267, 0.110637575, -1747675.8, -33088.438, 0.0, 9.998408, 10.000492 
7.5506765e+2, 1.3504423e+2, -1602728.6, -1522585.8, -71141.516, -0.070050284, 0.107410714, -1481006.5, 135565.89, 0.0, 9.999699, 10.000775 
7.550635e+2, 1.4504352e+2, -1596435.9, -1638959.4, -47676.902, -0.063687086, 0.04895908, -1565494.6, -46915.938, 0.0, 9.999785, 9.99924 
7.550596e+2, 1.5504298e+2, -1598919.3, -1587884.6, -62604.37, -0.08581147, 0.024065329, -1530554.9, -109968.71, 0.0, 9.9991, 9.9992485 
7.5505626e+2, 1.6504265e+2, -1415140.9, -1321133.5, -27195.465, -0.0846928, 0.013256707, -1313833.0, 8754.148, 0.0, 9.999119, 10.000417 
7.55054e+2, 1.7504236e+2, -1209210.3, -1171949.5, 47838.31, -0.02905077, -0.08911095, -1139241.8, 85341.836, 0.0, 9.999868, 10.000401 
7.550511e+2, 1.8504222e+2, -1163162.9, -1225878.5, 14392.909, 0.015842095, -0.0793942, -1160017.5, -33434.066, 0.0, 10.000046, 9.999277 
7.550474e+2, 1.9504179e+2, -1124777.5, -1155659.6, 25142.238, 0.03627129, -0.08244319, -1110713.4, -82122.46, 0.0, 9.9996395, 9.999278 
7.55044e+2, 2.0504199e+2, -1030058.8, -1039410.9, 56720.99, 0.030350635, 0.008292829, -977821.44, -47229.848, 0.0, 9.999537, 9.999445 
7.550408e+2, 2.1504256e+2, -905094.06, -926246.94, 84374.23, -0.0053889956, 0.08515852, -830635.94, 1952.364, 0.0, 9.999724, 9.999455 
7.5503826e+2, 2.2504221e+2, -804959.6, -886954.75, 79813.516, 0.0016669638, 0.13735507, -756229.9, -21636.473, 0.0, 9.999988, 9.99893 
7.5503606e+2, 2.3504062e+2, -686619.6, -785139.06, 80131.484, 0.043276515, 0.05365276, -641817.8, -5207.609, 0.0, 10.000141, 9.998893 
7.550331e+2, 2.450398e+2, -582744.06, -678810.6, 19611.361, 0.03998592, 0.08707683, -578894.75, -40275.586, 0.0, 10.000165, 9.99893 
7.5502926e+2, 2.550393e+2, -500050.75, -589483.1, 14477.597, -0.010424468, 0.105959475, -497765.47, -57140.56, 0.0, 10.000062, 9.998919 
7.550269e+2, 2.6503858e+2, -386177.3, -498654.78, 53795.508, 0.006247001, 0.15579462, -364590.9, -21957.938, 0.0, 10.000259, 9.998768 
7.550259e+2, 2.7503732e+2, -241355.98, -379537.4, 79296.66, 0.094508104, 0.119633004, -205273.1, 39373.234, 0.0000002213921, 10.000587, 9.998754 
7.550236e+2, 2.850363e+2, -115817.99, -197218.84, 19376.229, 0.11360165, 0.11363464, -111441.12, 35213.97, 0.000006961638, 10.000458, 9.9994 
7.5501984e+2, 2.95035e+2, -119276.89, -150184.8, 37748.9, 0.03119259, 0.0038947451, -93941.09, -45277.773, 0.00004401986, 9.999741, 9.999401 
7.5501424e+2, 3.0503416e+2, -1041.728, -94879.914, 3329.5325, -0.17280933, -0.001519796, -923.73914, -923.73914, 0.0001416952, 10.000391, 9.999116 
7.550135e+2, 3.1503338e+2, 248291.4, 62124.3, 56416.363, 0.14638512, -0.032787587, 264053.4, 264053.4, 0.0003069929, 10.00186, 9.999481 
7.6507074e+2, 1.2504588e+2, -1893194.1, -1779109.0, 91958.92, -0.1064304, 0.06939817, -1727937.4, -13378.7705, 0.00000000032551553, 9.998547, 10.000247 
7.6506793e+2, 1.3504751e+2, -1711107.4, -1584292.4, -40500.484, 0.03831957, 0.11895537, -1572461.6, 44080.105, 0.0, 9.998975, 10.000701 
7.6506335e+2, 1.4504735e+2, -1678654.1, -1672472.0, 11425.469, -0.01300462, 0.11293302, -1663726.9, -145183.44, 0.0, 9.999165, 9.999327 
7.6505905e+2, 1.5504624e+2, -1511075.1, -1535978.3, 25106.092, -0.05800748, 0.022426082, -1495502.4, -74947.36, 0.0, 9.999634, 9.999365 
7.650559e+2, 1.6504611e+2, -1320184.4, -1241155.3, 90646.5, -0.04727937, 0.00981775, -1181785.1, 140768.44, 0.0, 9.999633, 10.0007105 
7.650542e+2, 1.750467e+2, -1293462.9, -1180430.1, 37658.45, 0.046036825, -0.035823967, -1169032.9, 55508.83, 0.0, 9.999155, 10.000683 
7.650512e+2, 1.850467e+2, -1281328.5, -1274432.1, -4354.2505, 0.07046521, -0.030142412, -1272326.1, -145786.33, 0.0, 9.999211, 9.999335 
7.650468e+2, 1.950457e+2, -1100417.1, -1140553.9, -11749.369, 0.012545303, -0.09670287, -1097230.8, -68678.51, 0.0, 9.999788, 9.999311 
7.650435e+2, 2.0504579e+2, -960789.75, -1007021.8, 43798.297, 0.017380908, -0.018549023, -934381.6, -3828.128, 0.0, 10.000028, 9.999433 
7.650414e+2, 2.1504657e+2, -874012.94, -919347.94, 16129.472, 0.07719126, 0.08317937, -868860.0, -36312.25, 0.0, 9.999952, 9.999405 
7.65039e+2, 2.2504619e+2, -799703.94, -868606.25, 47493.555, 0.083767235, 0.1276889, -775482.06, -40929.668, 0.0, 9.9999695, 9.999064 
7.6503605e+2, 2.350444e+2, -679306.3, -762510.1, 51146.59, 0.03355088, 0.010073337, -654978.75, -18408.86, 0.0, 10.000125, 9.999045 
7.6503325e+2, 2.4504343e+2, -559389.94, -693428.56, 50022.176, 0.036410116, 0.03020686, -542780.25, -4199.6772, 0.0, 10.000436, 9.9987 
7.650306e+2, 2.550429e+2, -404504.28, -569493.9, 38032.28, 0.091450036, 0.07264992, -396159.4, 44428.3, 0.0, 10.000831, 9.998688 
7.650282e+2, 2.6504222e+2, -283234.4, -438068.1, 107516.18, 0.09070926, 0.1331823, -228163.14, 114432.4, 0.0, 10.000922, 9.998866 
7.65026e+2, 2.7504104e+2, -218273.27, -358249.44, 85017.39, 0.049336985, 0.09490298, -178141.92, 66465.15, 0.00000016204108, 10.000702, 9.99885 
7.650237e+2, 2.8503987e+2, -128198.086, -234140.27, 26833.299, 0.0784811, 0.08805273, -121789.37, 24827.979, 0.000006290961, 10.000509, 9.999113 
7.650211e+2, 2.950385e+2, -63168.793, -144178.4, -8973.049, 0.16272527, -0.009224642, -62186.793, -13557.99, 0.000041719115, 10.000252, 9.999171 
7.650162e+2, 3.050378e+2, 66750.33, -62484.992, 5938.1064, -0.026601832, 0.01348295, 67022.59, 67022.59, 0.00013461517, 10.000835, 9.99914 
7.65015e+2, 3.150364e+2, 242063.16, 115183.836, -108121.336, 0.13767964, -0.08211787, 303982.25, 303982.25, 0.00029005748, 10.001556, 10.000012 
7.750694e+2, 1.2504917e+2, -1934743.4, -1844492.9, 14680.865, -0.17973597, -0.006641965, -1842164.9, -127644.164, 0.0000000023621072, 9.998467, 9.999839 
7.750676e+2, 1.3505033e+2, -1751458.9, -1663481.3, -19778.313, 0.07265702, 0.05503927, -1659239.4, -42725.633, 0.0, 9.998963, 10.000166 
7.750629e+2, 1.4505114e+2, -1603193.5, -1513198.8, 5015.6514, -0.017423613, 0.1150311, -1512920.1, 5586.2275, 0.0, 9.999148, 10.000428 
7.750593e+2, 1.5505126e+2, -1440209.9, -1385209.4, 60543.617, -0.04390515, 0.04420347, -1346213.0, 74288.58, 0.0, 9.999617, 10.000407 
7.7505594e+2, 1.6505156e+2, -1398014.3, -1385972.9, 54076.895, -0.04074082, 0.072223775, -1337582.5, -15085.233, 0.0, 9.999566, 9.999748 
7.7505344e+2, 1.7505158e+2, -1366199.9, -1316547.0, 37920.84, 0.022827405, 0.06637079, -1296048.6, -71550.82, 0.0, 9.999097, 9.999775 
7.750503e+2, 1.8505152e+2, -1280337.9, -1249761.6, 2862.8215, 0.024811199, 0.096472934, -1249495.9, -122996.89, 0.0, 9.999104, 9.999566 
7.750463e+2, 1.95051e+2, -1104396.8, -1117214.4, 26069.602, -0.04888175, 0.056895018, -1083959.8, -55455.62, 0.0, 9.999648, 9.999542 
7.750431e+2, 2.050504e+2, -1015198.3, -1074534.8, 24737.176, -0.05870177, 0.0741857, -1006238.44, -75728.32, 0.0, 9.999838, 9.999058 
7.750408e+2, 2.1504936e+2, -932044.44, -986878.56, 27192.242, -0.0011998456, 0.032198403, -920846.56, -88325.91, 0.0, 9.999735, 9.999041 
7.750385e+2, 2.2504881e+2, -789379.2, -800539.0, 36299.227, 0.012424477, 0.04929896, -758233.5, -23708.063, 0.0, 9.999764, 9.999636 
7.750359e+2, 2.3504838e+2, -665622.06, -692481.56, 72164.73, -0.02194708, 0.009369296, -605648.1, 30879.92, 0.0, 9.999942, 9.9996195 
7.75034e+2, 2.450477e+2, -577772.3, -691148.44, 49213.04, 0.04118421, 0.027255932, -559390.7, -20856.19, 0.0, 10.000269, 9.9987955 
7.7503276e+2, 2.5504652e+2, -423431.72, -566270.25, 69914.91, 0.19437608, -0.0038845232, -394906.97, 45640.188, 0.0, 10.000655, 9.998792 
7.750298e+2, 2.650456e+2, -307009.22, -464355.1, 84928.42, 0.1276346, 0.03584593, -269914.0, 72642.97, 0.0, 10.000823, 9.998735 
7.7502495e+2, 2.7504447e+2, -242046.44, -384267.5, 94007.695, -0.15852666, 0.015481656, -195283.5, 49285.332, 0.00000014054619, 10.000598, 9.998725 
7.750226e+2, 2.850436e+2, -178670.42, -316733.28, 2779.0525, -0.11389901, 0.06959126, -178614.5, -32036.486, 0.0000059856334, 10.000419, 9.998584 
7.750226e+2, 2.950428e+2, -112594.46, -233796.11, 3658.7642, 0.24878734, 0.083851546, -112484.12, -63897.44, 0.0000396548, 10.00019, 9.998586 
7.750188e+2, 3.050414e+2, -8411.372, -198524.06, 25655.584, 0.12568003, 0.11185208, -5010.0215, -5010.0215, 0.00012692052, 10.000765, 9.998239 
7.750153e+2, 3.150394e+2, 209013.67, 80269.65, -51892.047, -0.06954858, 0.04857614, 227325.05, 227325.05, 0.00027215088, 10.001411, 9.999847 
7.850684e+2, 1.2505211e+2, -2082338.8, -1861885.9, -9180.512, -0.043905932, -0.0022245988, -1861504.3, -147012.14, 0.0000000040597263, 9.997272, 10.000272 
7.8506655e+2, 1.3505316e+2, -1704154.4, -1611388.8, -19271.97, 0.07059046, 0.026102373, -1607544.4, 8940.715, 0.0, 9.999197, 10.000389 
7.85062e+2, 1.4505439e+2, -1488555.8, -1429655.9, -2374.3926, -0.048234425, 0.10421065, -1429560.3, 88912.83, 0.0, 9.999826, 10.000669 
7.8505945e+2, 1.5505491e+2, -1454547.4, -1367515.4, -47241.895, 0.037054323, 0.052927345, -1346801.9, 73662.79, 0.0, 9.999424, 10.000617 
7.850563e+2, 1.6505525e+2, -1460957.1, -1447659.1, -31380.217, 0.062325776, 0.08874331, -1422231.1, -99770.19, 0.0, 9.999263, 9.999468 
7.8505284e+2, 1.7505503e+2, -1370098.8, -1349769.0, -36283.383, 0.052206933, 0.08515816, -1322253.6, -97787.766, 0.0, 9.99921, 9.999489 
7.850498e+2, 1.8505496e+2, -1193521.4, -1192362.9, 15447.384, 0.048982475, 0.12417716, -1177483.9, -51016.563, 0.0, 9.99964, 9.999695 
7.8504705e+2, 1.9505471e+2, -985447.25, -1042872.56, -590.763, 0.03740941, 0.09709612, -985441.2, 43027.906, 0.0, 10.00041, 9.999674 
7.8504413e+2, 2.0505394e+2, -886126.1, -1007464.5, 12220.814, 0.027503397, 0.08772898, -884907.56, 45567.938, 0.0, 10.000691, 9.999114 
7.850411e+2, 2.1505232e+2, -837701.1, -933429.25, 16439.088, 0.026847405, -0.016263623, -834956.75, -2466.8086, 0.0, 10.000349, 9.999114 
7.8503853e+2, 2.250517e+2, -736970.94, -782850.06, 58512.9, 0.02916327, -0.008127061, -697061.6, 37433.5, 0.0, 10.0001545, 9.999565 
7.850363e+2, 2.3505168e+2, -655795.44, -698067.75, 14832.6455, 0.027404726, 0.0025167905, -651110.2, -14615.635, 0.0, 10.000053, 9.999529 
7.850347e+2, 2.4505115e+2, -579453.9, -681267.1, 12978.517, 0.098217815, 0.036534235, -577825.5, -39325.473, 0.0, 10.000217, 9.99888 
7.8503376e+2, 2.550498e+2, -419991.6, -557257.9, -813.93207, 0.23744996, -0.021932688, -419986.75, 20527.844, 0.0, 10.000639, 9.99886 
7.8503084e+2, 2.650488e+2, -315842.06, -473702.47, 26105.75, 0.16277188, 0.0062069306, -311636.9, 30888.22, 0.0, 10.000791, 9.998684 
7.8502595e+2, 2.750477e+2, -235521.33, -386540.44, 8479.018, -0.11310294, -0.00409335, -235046.75, 9489.191, 0.0000001311964, 10.000671, 9.99867 
7.850236e+2, 2.850467e+2, -98384.9, -327861.38, -20233.127, -0.086424425, 0.06149617, -96614.586, 49931.99, 0.0000058891046, 10.00118, 9.998152 
7.8502375e+2, 2.950457e+2, 142638.11, -165623.5, -48792.72, 0.25234297, 0.10623573, 150176.83, 198734.63, 0.000037489564, 10.002169, 9.998115 
7.8502095e+2, 3.0504337e+2, 193147.61, -146809.64, 20934.371, 0.19419955, 0.08267484, 194431.88, 194431.88, 0.00011865352, 10.002326, 9.997842 
7.8501743e+2, 3.1504193e+2, 169621.83, 26420.67, -100686.23, 0.028132534, 0.10966542, 221570.27, 221570.27, 0.00025448482, 10.001274, 9.999538 
7.9506665e+2, 1.2505522e+2, -1984946.1, -1687832.0, -19111.93, -0.035046663, 0.10964272, -1686607.6, 27859.838, 0.0000000034592607, 9.997376, 10.001423 
7.9506415e+2, 1.350561e+2, -1629243.6, -1470399.6, 62413.082, -0.12907103, 0.024074197, -1448810.5, 167644.44, 0.0, 9.999248, 10.001335 
7.9506016e+2, 1.4505717e+2, -1545090.3, -1531874.3, -41178.652, -0.25971642, 0.07635094, -1496776.8, 21666.32, 0.0, 9.99977, 9.999989 
7.9505926e+2, 1.5505727e+2, -1500992.3, -1458636.1, -43540.824, 0.035538174, 0.040850904, -1431396.1, -10952.468, 0.0, 9.999409, 9.999992 
7.9505646e+2, 1.6505732e+2, -1438022.3, -1397979.6, -50561.7, 0.111003436, 0.060210045, -1363619.5, -41176.008, 0.0, 9.999242, 9.999827 
7.950518e+2, 1.7505708e+2, -1343866.3, -1298881.6, -22508.203, -0.01112886, 0.021019736, -1289553.8, -65108.688, 0.0, 9.999211, 9.999842 
7.9504925e+2, 1.8505707e+2, -1214553.9, -1206488.4, 28587.791, -0.0012049356, 0.050866637, -1181650.3, -55205.348, 0.0, 9.99952, 9.999652 
7.9504865e+2, 1.9505684e+2, -1002030.44, -1049355.1, 43045.883, 0.11991525, 0.025999585, -976572.0, 51875.207, 0.0, 10.000296, 9.99968 
7.9504615e+2, 2.0505641e+2, -874047.8, -941349.9, -18050.459, 0.13104172, 0.021998296, -869512.3, 60937.29, 0.0, 10.000515, 9.999652 
7.950417e+2, 2.1505538e+2, -830119.9, -872542.5, 19065.889, 0.023562126, -0.079392, -822810.56, 9645.688, 0.0, 10.000154, 9.999626 
7.9503864e+2, 2.2505483e+2, -821433.7, -906643.94, 41519.57, -0.0009881603, -0.051197235, -804548.7, -70087.26, 0.0, 9.999933, 9.998821 
7.9503685e+2, 2.3505442e+2, -731598.8, -816895.0, 29201.885, 0.047322653, -0.0055459086, -722559.25, -86090.85, 0.0, 9.999883, 9.998796 
7.9503495e+2, 2.4505383e+2, -599891.6, -684889.9, 13752.52, 0.06938799, 0.05562897, -597721.9, -59245.12, 0.0, 10.000055, 9.998933 
7.9503304e+2, 2.550527e+2, -441913.6, -564418.1, 31586.71, 0.06396635, 0.013317999, -434248.8, 6241.635, 0.0, 10.000476, 9.99889 
7.9503083e+2, 2.6505172e+2, -322528.53, -470012.66, 7695.752, 0.05030148, 0.044229515, -322128.03, 20371.842, 0.0, 10.000707, 9.998751 
7.9502845e+2, 2.7505073e+2, -246241.27, -390356.5, 26721.898, 0.03414619, 0.037057515, -241446.03, 3062.1077, 0.000000103459534, 10.000586, 9.998687 
7.950262e+2, 2.8504926e+2, -131310.72, -382753.78, 4189.819, 0.022597212, 0.07448984, -131240.92, 15280.79, 0.0000054454867, 10.001122, 9.997802 
7.9502374e+2, 2.950472e+2, 103312.09, -223007.47, 13333.355, -0.009689106, 0.040276445, 103855.99, 152398.34, 0.00003447301, 10.002061, 9.997775 
7.9502183e+2, 3.0504373e+2, 186594.48, -140896.5, -21512.123, 0.018986642, -0.08014691, 188001.52, 188001.52, 0.0001104858, 10.002241, 9.99792 
7.9502064e+2, 3.1504235e+2, 108659.89, -70147.27, -95356.87, 0.13725264, -0.056041263, 149969.48, 149969.48, 0.000240168, 10.001143, 9.998937 
8.050655e+2, 1.2505801e+2, -1806835.1, -1558875.4, 65543.695, 0.07894617, 0.119624086, -1542616.3, 171824.31, 0.0000000057252847, 9.998423, 10.001821 
8.0506325e+2, 1.3505872e+2, -1825253.8, -1554649.3, 55684.69, -0.06277926, 0.0087957205, -1543638.5, 72789.25, 0.0, 9.997841, 10.001461 
8.050597e+2, 1.450595e+2, -1802823.6, -1678825.6, -21092.854, -0.18960111, 0.03665382, -1675335.9, -156917.22, 0.0, 9.998106, 9.999782 
8.050588e+2, 1.5505941e+2, -1500953.9, -1489255.8, -35936.777, 0.0465241, 0.009871244, -1458695.1, -38273.04, 0.0, 9.999535, 9.999729 
8.050561e+2, 1.6505946e+2, -1261329.3, -1284730.3, -13834.255, 0.10822236, 0.03075129, -1254911.0, 67511.06, 0.0, 10.0003605, 10.000063 
8.050519e+2, 1.7505941e+2, -1119272.9, -1169506.0, -31648.205, 0.019335238, -0.008151527, -1103985.9, 120434.61, 0.0, 10.000676, 10.000029 
8.0504966e+2, 1.8505943e+2, -1075421.9, -1153249.8, 35470.574, 0.04487115, 0.023411306, -1061681.8, 64738.344, 0.0, 10.00055, 9.999517 
8.050491e+2, 1.9505912e+2, -1075069.5, -1106411.9, 4014.7886, 0.16573258, 0.010661204, -1074563.4, -46138.81, 0.0, 9.999894, 9.99949 
8.0504656e+2, 2.0505898e+2, -964568.6, -959695.94, -48959.086, 0.17352097, 0.033010416, -913112.6, 17312.855, 0.0, 9.999783, 9.999882 
8.0504215e+2, 2.1505858e+2, -823674.1, -843651.94, -70394.305, 0.069633655, -0.026231578, -762563.56, 69862.8, 0.0, 10.000092, 9.999852 
8.050393e+2, 2.2505803e+2, -746860.0, -869427.8, 4699.1025, 0.057280988, -0.010026811, -746680.1, -12248.918, 0.0, 10.000442, 9.998825 
8.0503786e+2, 2.3505701e+2, -606145.75, -754527.8, 17194.264, 0.12432163, -0.02653249, -604179.4, 32263.564, 0.0, 10.000749, 9.998798 
8.050358e+2, 2.4505648e+2, -473944.44, -651961.56, 56647.914, 0.110523924, 0.05003908, -457447.03, 81004.51, 0.0, 10.001019, 9.998706 
8.050334e+2, 2.55056e+2, -351732.34, -546100.1, 22357.908, 0.030217454, 0.09647353, -349193.72, 91267.46, 0.0, 10.001192, 9.998681 
8.0503166e+2, 2.650551e+2, -225897.56, -434609.34, 6065.8257, 0.040465333, 0.14574386, -225721.42, 116749.57, 0.0, 10.001407, 9.998667 
8.0503064e+2, 2.750534e+2, -91876.73, -321429.28, -15579.307, 0.15083048, 0.079489045, -90824.21, 153660.31, 0.00000004701224, 10.001653, 9.998652 
8.050286e+2, 2.850516e+2, -41433.418, -335429.47, 23418.504, 0.13288336, 0.07993187, -39579.688, 106920.484, 0.000004093495, 10.001719, 9.99784 
8.0502546e+2, 2.9504934e+2, 54216.87, -238519.78, 23759.563, -0.019025384, 0.024336103, 56132.746, 104653.48, 0.000029631305, 10.001694, 9.997842 
8.0502397e+2, 3.0504623e+2, 168401.95, -130074.21, 12663.781, 0.038563743, -0.075581856, 168938.3, 168938.3, 0.00010221737, 10.002023, 9.998117 
8.0502325e+2, 3.1504473e+2, 245586.88, -32451.432, -97750.54, 0.24469276, -0.08028484, 276513.28, 276513.28, 0.00023173698, 10.002207, 9.998696 
8.1506383e+2, 1.250608e+2, -1830947.1, -1625863.0, -24125.643, -0.012636265, 0.05724835, -1623063.1, 91345.32, 0.000000004999778, 9.998488, 10.001331 
8.1506306e+2, 1.3506122e+2, -1863121.9, -1643267.3, 44663.805, 0.09926165, -0.019805843, -1634540.1, -18138.438, 0.0, 9.997894, 10.000821 
8.1506e+2, 1.4506158e+2, -1789626.4, -1662494.9, 11004.023, -0.017362008, -0.004893193, -1661549.4, -143152.17, 0.0, 9.998144, 9.999882 
8.1505746e+2, 1.5506154e+2, -1489658.5, -1466162.4, 32960.695, -0.08193979, -0.039228983, -1442918.8, -22519.92, 0.0, 9.999534, 9.999889 
8.150549e+2, 1.6506182e+2, -1272830.5, -1293583.1, -19900.47, -0.087172575, -0.0015482107, -1260763.6, 61632.023, 0.0, 10.000296, 10.00003 
8.1505275e+2, 1.7506208e+2, -1126439.6, -1170289.4, -3260.761, -0.0068044793, -0.012804504, -1126198.4, 98192.914, 0.0, 10.000622, 10.000043 
8.150505e+2, 1.8506214e+2, -1113040.6, -1212901.8, -4052.1626, 0.039636422, 0.039083235, -1112876.5, 13515.346, 0.0, 10.000459, 9.999158 
8.15048e+2, 1.9506164e+2, -1115921.0, -1168109.9, -2916.9778, 0.026676023, 0.04375195, -1115758.4, -87357.875, 0.0, 9.999785, 9.999119 
8.150452e+2, 2.0506172e+2, -1006331.44, -1002284.8, -53734.703, 0.025995253, 0.11837499, -950535.4, -20133.32, 0.0, 9.999592, 9.999683 
8.150422e+2, 2.1506198e+2, -864201.1, -880087.7, -41592.62, 0.03238291, 0.14189607, -829800.06, 2599.7244, 0.0, 9.999885, 9.9997015 
8.150401e+2, 2.2506134e+2, -727390.94, -773928.1, -1122.0742, 0.064299524, 0.11843059, -727363.9, 7040.1504, 0.0, 10.000211, 9.999592 
8.150387e+2, 2.3505941e+2, -585810.75, -659983.8, 44319.324, 0.107217714, -0.06510756, -565107.9, 71310.625, 0.0, 10.000525, 9.999553 
8.150369e+2, 2.45059e+2, -537647.1, -739133.9, 46656.9, 0.08438485, 0.013400234, -527367.56, 11057.328, 0.0, 10.000826, 9.998201 
8.150346e+2, 2.5505978e+2, -413044.75, -634399.06, 45130.33, 0.0005845782, 0.23552977, -404197.13, 36229.3, 0.0, 10.001024, 9.998157 
8.15033e+2, 2.6505882e+2, -252391.11, -460766.25, 76.18594, 0.003833706, 0.31229952, -252391.08, 90047.38, 0.0, 10.00129, 9.998539 
8.15032e+2, 2.7505577e+2, -131382.39, -355534.97, 13499.159, 0.08338993, 0.1223101, -130572.36, 113892.55, 0.000000004527389, 10.001458, 9.998508 
8.150304e+2, 2.8505364e+2, -24993.352, -284164.28, 7042.2524, 0.0982363, 0.07996527, -24802.139, 121680.15, 0.0000024308686, 10.0016365, 9.998236 
8.1502825e+2, 2.9505235e+2, 57446.113, -203572.48, 47229.063, 0.049365308, 0.079602905, 65728.97, 114221.414, 0.00002455122, 10.001572, 9.998143 
8.1502706e+2, 3.0505076e+2, 187014.77, -81641.695, 9491.943, 0.10498875, 0.10263297, 187349.72, 187349.72, 0.00009685274, 10.001993, 9.998457 
8.1502384e+2, 3.1504858e+2, 227726.42, -12272.991, -17690.037, 0.007982358, -0.0021642905, 229023.33, 229023.33, 0.00023260372, 10.001987, 9.998935 
8.2506263e+2, 1.2506269e+2, -1922825.4, -1734970.5, -39966.02, 0.055742264, -0.01619134, -1726821.3, -12434.454, 0.0000000017683296, 9.998129, 10.000752 
8.2506204e+2, 1.3506371e+2, -1673683.9, -1635300.5, -22952.854, 0.1398524, 0.03472838, -1624573.0, -8195.137, 0.0, 9.999536, 10.000092 
8.250599e+2, 1.4506376e+2, -1528582.8, -1505554.3, -5137.93, 0.08510899, 0.040342025, -1504459.9, 13917.272, 0.0, 9.999813, 10.000149 
8.2505745e+2, 1.550634e+2, -1504324.1, -1446085.4, -14419.914, -0.013116666, -0.0486126, -1442710.6, -22331.559, 0.0, 9.99933, 10.000115 
8.2505494e+2, 1.6506356e+2, -1427998.8, -1389853.5, -41275.63, -0.047719255, -0.028041529, -1363457.0, -41080.195, 0.0, 9.999297, 9.999856 
8.2505286e+2, 1.7506386e+2, -1292564.5, -1277409.6, -71482.37, 0.006984226, -0.016285293, -1213104.1, 11269.384, 0.0, 9.999565, 9.999829 
8.2505065e+2, 1.8506396e+2, -1179922.9, -1220776.4, -40996.47, 0.051527306, 0.040347937, -1154546.1, -28172.637, 0.0, 9.999887, 9.999378 
8.250482e+2, 1.950635e+2, -1034007.25, -1106103.5, -30950.885, 0.06120296, 0.02521314, -1022543.0, 5837.2417, 0.0, 10.000244, 9.999321 
8.250454e+2, 2.0506352e+2, -899911.44, -974779.6, -16881.129, 0.061351016, 0.0947382, -896281.2, 34101.293, 0.0, 10.00043, 9.999455 
8.250425e+2, 2.1506374e+2, -805553.9, -881026.0, -44920.05, 0.05974657, 0.13650808, -784622.9, 47760.02, 0.0, 10.000411, 9.999441 
8.2504076e+2, 2.2506319e+2, -642064.2, -727992.25, 14187.631, 0.09518653, 0.13304408, -639782.3, 94604.74, 0.0, 10.000753, 9.999663 
8.2504016e+2, 2.3506151e+2, -450397.06, -589163.7, -25014.223, 0.16555046, -0.03268813, -446025.7, 190373.23, 0.0, 10.001412, 9.999627 
8.2503843e+2, 2.4506094e+2, -454219.7, -703443.5, -23380.396, 0.14355469, 0.027955046, -452045.28, 86360.79, 0.0, 10.001422, 9.998156 
8.2503575e+2, 2.5506115e+2, -439833.88, -648724.5, -24143.36, 0.032334834, 0.19854374, -437079.75, 3331.92, 0.0, 10.000857, 9.998134 
8.2503414e+2, 2.650601e+2, -327018.03, -503679.72, 972.37195, 0.022295833, 0.27043548, -327012.66, 15411.849, 0.0, 10.00081, 9.998473 
8.250335e+2, 2.7505738e+2, -169240.33, -379067.97, -15361.3, 0.116922855, 0.117094226, -168121.72, 76327.34, 0.0, 10.001224, 9.998454 
8.250323e+2, 2.850555e+2, -29931.557, -248559.0, 5569.3164, 0.1475398, 0.080551356, -29789.777, 116675.04, 0.000001518397, 10.001445, 9.998572 
8.250305e+2, 2.9505408e+2, 62244.133, -162816.36, 4861.5205, 0.13417207, 0.039461352, 62349.098, 110823.98, 0.000022026383, 10.001423, 9.998498 
8.250297e+2, 3.050532e+2, 96604.07, -169668.45, -6757.4883, 0.20288318, 0.13685167, 96775.45, 96775.45, 0.00009707927, 10.001575, 9.998043 
8.2502586e+2, 3.1505078e+2, 192124.6, -36800.594, -127185.46, 0.043119635, 0.038477898, 248769.64, 248769.64, 0.00024343749, 10.001754, 9.998871 
8.3506066e+2, 1.250643e+2, -1978851.1, -1840185.6, -34850.28, -0.032841064, -0.045648497, -1831919.6, -117549.945, 0.000000000051048894, 9.99809, 10.00005 
8.350598e+2, 1.3506636e+2, -1710304.8, -1712856.8, 44459.348, -0.07835906, 0.17480232, -1667103.1, -50748.63, 0.0, 9.999554, 9.999545 
8.350589e+2, 1.450661e+2, -1516903.3, -1477367.6, -45358.887, -0.041192, 0.16597664, -1447656.3, 70700.94, 0.0, 9.999794, 10.000351 
8.3505815e+2, 1.5506504e+2, -1488768.3, -1409908.6, -16998.535, 0.08687758, -0.022380298, -1406400.5, 13962.216, 0.0, 9.999313, 10.000367 
8.3505577e+2, 1.6506468e+2, -1461943.8, -1440096.9, -49136.563, 0.07285787, -0.049198266, -1400684.3, -78318.94, 0.0, 9.999211, 9.999557 
8.350521e+2, 1.7506492e+2, -1319704.4, -1320103.6, -43482.563, -0.068544865, -0.011288441, -1276421.0, -52055.477, 0.0, 9.999516, 9.999557 
8.350499e+2, 1.8506509e+2, -1142024.1, -1122442.8, -45316.17, -0.045425005, 0.029699977, -1085871.8, 40491.746, 0.0, 9.9998, 10.000101 
8.350494e+2, 1.9506471e+2, -1000962.75, -1001236.94, -2009.268, 0.12269218, -0.053307645, -999085.94, 29277.988, 0.0, 10.000095, 10.000111 
8.3504695e+2, 2.0506442e+2, -949658.4, -1036222.4, -34915.41, 0.13749579, -0.03784694, -937330.9, -6964.1377, 0.0, 10.000242, 9.999128 
8.350426e+2, 2.1506388e+2, -856074.4, -940122.94, -28972.373, -0.0008110009, -0.03925153, -847055.1, -14680.0205, 0.0, 10.000214, 9.999128 
8.350409e+2, 2.2506365e+2, -713378.94, -831332.25, 22129.355, 0.011285362, 0.0328585, -709363.9, 25015.645, 0.0, 10.000554, 9.999053 
8.350418e+2, 2.3506334e+2, -522783.22, -694729.06, 17444.998, 0.15680313, 0.064891286, -521031.16, 115352.21, 0.0, 10.00121, 9.999002 
8.350402e+2, 2.4506234e+2, -449183.47, -655456.6, -59804.797, 0.14340985, 0.09285059, -433098.56, 105295.445, 0.0, 10.001254, 9.998567 
8.350364e+2, 2.5506026e+2, -433925.66, -605093.7, -26609.03, -0.024208259, -0.0079885945, -429884.53, 10530.8545, 0.0, 10.000714, 9.998504 
8.350346e+2, 2.6505905e+2, -342214.88, -510581.47, 2262.1255, -0.03788551, 0.031949814, -342184.47, 243.56264, 0.0, 10.000701, 9.99848 
8.3503485e+2, 2.750584e+2, -189542.63, -389549.03, 20987.775, 0.091293916, 0.08008258, -187364.0, 57071.973, 0.0, 10.001086, 9.99845 
8.350339e+2, 2.850571e+2, -17092.91, -200858.39, -10829.645, 0.12924704, 0.089133166, -16456.9, 129990.27, 0.0000012583888, 10.001358, 9.998941 
8.3503175e+2, 2.9505482e+2, 60710.938, -127848.99, 24586.37, 0.071166046, -0.076003574, 63864.03, 112330.04, 0.000022671806, 10.001263, 9.998819 
8.3503133e+2, 3.0505374e+2, 11984.734, -328611.6, -5740.0913, 0.17994824, 0.039858922, 12081.445, 12081.445, 0.0001036696, 10.001506, 9.996983 
8.3502823e+2, 3.1505337e+2, 135358.92, -109635.625, -36901.125, 0.020209951, 0.25686258, 140796.31, 140796.31, 0.00026239955, 10.001575, 9.998451 
8.450599e+2, 1.2506497e+2, -1777625.4, -1730592.1, -90594.12, 0.03587178, 0.010108604, -1660512.1, 53852.9, 0.0, 9.999401, 10.00017 
8.450589e+2, 1.3506614e+2, -1748121.4, -1705203.0, -21450.742, -0.08930746, 0.11114248, -1696320.3, -79963.48, 0.0, 9.999178, 9.999781 
8.4505856e+2, 1.4506598e+2, -1612702.4, -1503587.1, -63664.938, -0.011107956, 0.09297811, -1474301.1, 44056.68, 0.0, 9.999051, 10.000528 
8.4505796e+2, 1.5506622e+2, -1463374.0, -1384191.5, -77879.14, 0.13897948, 0.019225452, -1336417.8, 83933.95, 0.0, 9.999421, 10.0005 
8.4505564e+2, 1.6506629e+2, -1390997.0, -1385517.8, -50430.84, 0.13146038, 0.020403752, -1337752.1, -15401.966, 0.0, 9.999634, 9.999718 
8.4505194e+2, 1.7506605e+2, -1302472.5, -1296148.0, -48475.367, -0.02318178, -0.0023518607, -1250731.9, -26377.48, 0.0, 9.999586, 9.999682 
8.4505004e+2, 1.85066e+2, -1143698.4, -1108429.6, -23785.05, 0.0005978105, 0.002253726, -1096455.0, 29898.602, 0.0, 9.999731, 10.000223 
8.4505e+2, 1.9506563e+2, -1007167.2, -999113.25, -59539.582, 0.1848028, -0.08995442, -943464.6, 84888.08, 0.0, 10.000021, 10.000167 
8.4504783e+2, 2.0506524e+2, -908993.3, -1032769.5, -76705.625, 0.20109804, -0.08027933, -872322.4, 58033.848, 0.0, 10.0006, 9.9989805 
8.450439e+2, 2.1506447e+2, -703558.9, -887951.5, -95542.84, 0.054487713, -0.08583937, -662982.5, 169384.98, 0.0, 10.001358, 9.998938 
8.450421e+2, 2.2506422e+2, -629256.44, -812178.0, -11876.441, 0.04820012, 0.00767068, -628488.56, 105884.59, 0.0, 10.001242, 9.998839 
8.450426e+2, 2.3506428e+2, -682114.94, -789226.4, -24709.207, 0.17504191, 0.09790672, -676689.7, -40314.313, 0.0, 10.000222, 9.998814 
8.4504116e+2, 2.4506328e+2, -527144.7, -643613.4, -28033.648, 0.15809612, 0.11240244, -520748.38, 17636.857, 0.0, 10.000508, 9.99901 
8.4503794e+2, 2.550608e+2, -213310.92, -443704.72, -25659.963, 0.008947263, -0.0725481, -210487.66, 229919.3, 0.0, 10.00201, 9.998981 
8.450363e+2, 2.650596e+2, -129970.3, -404707.75, 7809.0654, -0.0056920713, -0.06080003, -129748.516, 212669.88, 0.0, 10.0021305, 9.998519 
8.4503603e+2, 2.7505928e+2, -210140.0, -397185.78, -3839.3442, 0.11746038, 0.024853943, -210061.22, 34362.13, 0.0000000050987805, 10.000915, 9.99849 
8.4503514e+2, 2.8505844e+2, -110740.445, -272280.47, 12344.347, 0.15806246, 0.084000655, -109802.58, 36629.965, 0.0000017149706, 10.000819, 9.998706 
8.450337e+2, 2.9505655e+2, 116556.53, -115271.375, -35069.734, 0.124726474, -0.0237897, 121745.555, 170195.92, 0.0000255943, 10.001718, 9.9986725 
8.4503317e+2, 3.050551e+2, 116061.03, -263919.56, -17068.262, 0.1960509, 0.050891772, 116826.17, 116826.17, 0.000114914044, 10.00214, 9.997132 
8.450302e+2, 3.1505454e+2, 180428.61, -44004.125, 11867.884, 0.06718374, 0.23458107, 181054.44, 181054.44, 0.00028702893, 10.001655, 9.998879 
8.550594e+2, 1.2506464e+2, -1732918.6, -1623499.8, -131254.83, -0.03667914, 0.11897203, -1536008.8, 178364.81, 0.0, 9.999355, 10.000921 
8.550587e+2, 1.3506319e+2, -1680748.6, -1548743.6, -19943.541, -0.062568136, -0.14598301, -1545796.4, 70586.555, 0.0, 9.999136, 10.000856 
8.5505825e+2, 1.4506365e+2, -1604107.9, -1486759.1, -69969.75, 0.01063422, -0.16501004, -1454118.5, 64258.242, 0.0, 9.999039, 10.000662 
8.550564e+2, 1.5506709e+2, -1450088.4, -1357679.5, -42721.566, 0.00018468457, 0.07060127, -1340955.6, 79388.85, 0.0, 9.999426, 10.00068 
8.550543e+2, 1.6506843e+2, -1367048.6, -1325614.8, -70968.48, -0.005254426, 0.16929013, -1272401.3, 49929.645, 0.0, 9.999587, 10.000154 
8.5505205e+2, 1.7506728e+2, -1274766.1, -1227952.0, -35260.31, -0.0029593804, 0.0039148657, -1209036.8, 15303.233, 0.0, 9.999542, 10.000169 
8.550505e+2, 1.8506673e+2, -1193292.8, -1192744.8, -28962.027, 0.034344766, -0.038455885, -1164055.5, -37712.094, 0.0, 9.999636, 9.999698 
8.5504943e+2, 1.9506644e+2, -1054082.5, -1077386.5, -33422.316, 0.09694769, -0.07046047, -1030339.3, -1994.6958, 0.0, 9.999929, 9.999675 
8.5504794e+2, 2.0506614e+2, -940409.7, -1060709.9, -66082.32, 0.11922684, -0.019365283, -911201.5, 19147.285, 0.0, 10.000436, 9.998873 
8.5504586e+2, 2.1506542e+2, -739962.1, -910608.44, -50756.563, 0.090177625, -0.0146082835, -726006.5, 106353.664, 0.0, 10.001133, 9.99889 
8.550439e+2, 2.2506489e+2, -652061.25, -809513.4, -66574.61, 0.07503755, 0.047283437, -627685.56, 106682.516, 0.0, 10.0010195, 9.998969 
8.5504204e+2, 2.3506434e+2, -698728.94, -782187.0, -43924.813, 0.07331345, 0.061635066, -679871.6, -43496.453, 0.0, 10.000037, 9.998954 
8.5504085e+2, 2.4506378e+2, -521419.9, -588498.3, 12511.893, 0.04709802, 0.09058304, -519162.1, 19217.645, 0.0, 10.000329, 9.999475 
8.5504013e+2, 2.550627e+2, -209982.8, -390673.38, 46871.426, -0.0027942462, -0.00067355984, -198547.92, 241838.86, 0.0, 10.001812, 9.999442 
8.550388e+2, 2.6506156e+2, -142817.06, -398927.06, -55475.035, 0.0050089457, -0.013725377, -131317.19, 211079.69, 0.0, 10.001987, 9.998633 
8.550366e+2, 2.7506003e+2, -221777.19, -392473.03, -28230.832, 0.051321782, -0.059754256, -217229.34, 27183.1, 0.0000001292932, 10.000793, 9.998583 
8.5503566e+2, 2.8505954e+2, -174383.89, -387670.03, 34008.063, 0.08701176, 0.068400614, -169092.64, -22672.19, 0.0000031613251, 10.000744, 9.99795 
8.550357e+2, 2.9505926e+2, 48867.215, -235770.47, 19834.207, 0.10740416, 0.19845209, 50242.664, 98671.02, 0.000030116835, 10.001618, 9.997897 
8.5503453e+2, 3.050571e+2, 196821.08, -58426.977, -44104.004, 0.09934989, 0.16630498, 204226.89, 204226.89, 0.00012742863, 10.00201, 9.998595 
8.55031e+2, 3.1505445e+2, 216489.55, 82371.09, 62331.63, -0.0987421, 0.0032792552, 240984.52, 240984.52, 0.00031382052, 10.00146, 9.999836 
8.6505955e+2, 1.2506546e+2, -1683746.8, -1613017.6, 54058.773, 0.044810575, 0.12881096, -1583783.4, 130582.87, 0.00000000000000000000885557, 9.999739, 10.000811 
8.650584e+2, 1.3506405e+2, -1704724.5, -1574952.4, 18602.734, 0.017568095, -0.12617086, -1572338.4, 44035.56, 0.0, 9.998995, 10.000765 
8.650579e+2, 1.4506438e+2, -1668683.8, -1531882.6, -5594.258, 0.09887126, -0.14988905, -1531654.3, -13285.186, 0.0, 9.998661, 10.000529 
8.6505574e+2, 1.5506728e+2, -1511763.6, -1415676.4, -42311.41, 0.014625913, 0.05049305, -1399700.9, 20641.926, 0.0, 9.999104, 10.000451 
8.650539e+2, 1.6506833e+2, -1368863.4, -1324764.6, -69458.46, 0.0068295123, 0.13109058, -1273939.8, 48392.316, 0.0, 9.999564, 10.000165 
8.650526e+2, 1.7506722e+2, -1198964.8, -1195928.6, -103390.58, 0.07488732, -0.028796175, -1094045.0, 130294.73, 0.0, 10.000069, 10.000135 
8.65051e+2, 1.8506674e+2, -1112352.5, -1179014.9, -76914.45, 0.09535997, -0.04992216, -1061857.6, 64485.48, 0.0, 10.000324, 9.99945 
8.650491e+2, 1.9506663e+2, -1015727.5, -1088476.1, -92802.17, 0.057169914, -0.037804507, -952425.7, 75919.71, 0.0, 10.000339, 9.999394 
8.6504775e+2, 2.0506659e+2, -947965.75, -1025874.3, -68436.29, 0.07820679, 0.035132345, -908173.9, 22174.047, 0.0, 10.000223, 9.999208 
8.650468e+2, 2.1506621e+2, -902144.7, -958224.3, -58688.555, 0.14484122, 0.04182368, -865141.6, -32786.844, 0.0, 9.999879, 9.999169 
8.650451e+2, 2.2506562e+2, -747226.9, -818472.56, -27291.617, 0.13599908, 0.06725591, -737974.1, -3612.4768, 0.0, 10.000228, 9.999283 
8.650425e+2, 2.350646e+2, -497139.78, -650835.4, -27982.598, 0.05691249, 0.0049050967, -492203.66, 144167.17, 0.0, 10.001286, 9.99925 
8.6504143e+2, 2.4506417e+2, -402815.5, -541140.75, 48717.63, 0.041650355, 0.035470724, -387379.8, 150994.36, 0.0, 10.00119, 9.999379 
8.6504185e+2, 2.5506386e+2, -478006.72, -531655.94, 7952.738, 0.0874061, 0.033329967, -476852.66, -36476.598, 0.0, 10.000025, 9.999335 
8.650408e+2, 2.6506287e+2, -378631.9, -485922.34, -71174.5, 0.09795525, 0.03300681, -343150.16, -765.7564, 0.0000000005766255, 10.000269, 9.998855 
8.6503816e+2, 2.7506092e+2, -39918.723, -281350.97, -78269.79, 0.07703796, -0.080343254, -16764.969, 227637.28, 0.000000514823, 10.001951, 9.998782 
8.65037e+2, 2.8506017e+2, 47586.043, -297890.28, 34989.617, 0.08270717, 0.025161495, 51094.15, 197506.27, 0.0000054394536, 10.002352, 9.997801 
8.6503744e+2, 2.9506013e+2, 16785.15, -262289.97, 31577.826, 0.13493274, 0.19637752, 20313.625, 68733.09, 0.000035908153, 10.001459, 9.997797 
8.6503583e+2, 3.0505812e+2, 77726.516, -71242.31, -21790.123, 0.09260272, 0.16291653, 80848.4, 80848.4, 0.00014009468, 10.000977, 9.999008 
8.650326e+2, 3.1505594e+2, 69456.52, 49135.105, -47932.906, -0.0150204925, 0.0027057233, 108293.81, 108293.81, 0.00033844914, 10.000312, 10.000144 
8.7505937e+2, 1.250677e+2, -1756797.9, -1759824.6, -7408.898, -0.023102878, 0.07689335, -1750749.4, -36409.28, 0.0000000055054987, 9.999717, 9.999812 
8.7505776e+2, 1.3506874e+2, -1775881.3, -1708921.4, 3412.9377, 0.013171642, 0.15700094, -1708747.9, -92418.21, 0.0, 9.998958, 9.999849 
8.75057e+2, 1.4506823e+2, -1716202.9, -1630333.9, -9695.058, 0.100545034, 0.13091956, -1629252.9, -110918.89, 0.0, 9.998651, 9.999862 
8.750553e+2, 1.550669e+2, -1556709.5, -1500850.8, -9287.415, 0.028402867, -0.032835696, -1499347.0, -79001.33, 0.0, 9.999079, 9.999872 
8.750539e+2, 1.6506627e+2, -1404565.6, -1391106.3, -68252.68, 0.013778326, -0.07180083, -1329252.3, -6901.4424, 0.0, 9.999517, 9.999738 
8.75053e+2, 1.7506616e+2, -1234803.8, -1261881.5, -69155.766, 0.07257222, -0.086769395, -1177874.0, 46476.77, 0.0, 10.000029, 9.999702 
8.7505114e+2, 1.8506633e+2, -1128904.6, -1192671.4, -91723.57, 0.048379377, -0.019324692, -1063681.0, 62669.406, 0.0, 10.000236, 9.999399 
8.7504846e+2, 1.9506623e+2, -1036510.56, -1096383.8, -73542.305, -0.07112468, -0.0042278855, -987045.2, 41309.547, 0.0, 10.000194, 9.999406 
8.750469e+2, 2.0506659e+2, -925373.56, -938240.56, -96070.984, -0.05719247, 0.07202354, -835520.94, 94832.2, 0.0, 10.000042, 9.999901 
8.7504625e+2, 2.1506709e+2, -882010.94, -871462.1, -56610.902, 0.0776219, 0.10059277, -819880.44, 12468.343, 0.0, 9.999682, 9.999861 
8.750451e+2, 2.2506668e+2, -749241.25, -776459.25, -4712.9277, 0.09767076, 0.09028027, -748448.3, -14097.482, 0.0, 10.000023, 9.999672 
8.750434e+2, 2.3506501e+2, -504059.8, -610051.44, 29063.969, -0.0061483835, -0.07558818, -496613.3, 139749.11, 0.0, 10.001047, 9.999645 
8.750426e+2, 2.4506433e+2, -470710.84, -646395.7, -11820.232, 0.010098021, -0.058008067, -469919.13, 68450.03, 0.0, 10.001023, 9.998741 
8.750426e+2, 2.550643e+2, -545743.8, -635006.75, -16991.918, 0.1310047, 0.03108415, -542618.7, -102244.76, 0.0, 9.999863, 9.998702 
8.750417e+2, 2.6506367e+2, -372491.5, -461677.7, -23408.156, 0.1371663, 0.08597749, -366721.03, -24340.992, 0.0000000691861, 10.000204, 9.999057 
8.7504005e+2, 2.7506196e+2, -44551.527, -258959.36, 3726.6892, 0.03462525, -0.029126462, -44486.773, 199905.66, 0.000001269736, 10.001808, 9.999004 
8.75039e+2, 2.8506058e+2, 69673.48, -235274.31, -14112.89, 0.011772171, -0.023049543, 70325.23, 216731.03, 0.000008255043, 10.002272, 9.998276 
8.750385e+2, 2.9505906e+2, 39072.934, -199371.63, 21780.646, 0.05321102, -0.04394441, 41046.15, 89471.27, 0.000042714033, 10.001378, 9.998274 
8.750366e+2, 3.0505818e+2, 23821.516, -162190.64, -53336.715, 0.039510485, 0.03800987, 38029.875, 38029.875, 0.00015288098, 10.000891, 9.99842 
8.7503403e+2, 3.1505716e+2, 11114.563, -54929.32, -35190.492, 0.02059153, 0.05944091, 26350.465, 26350.465, 0.00035815634, 10.000224, 9.999477 
8.8505906e+2, 1.2506844e+2, -1901590.8, -1851388.3, -65113.227, 0.038457796, 0.039479733, -1806705.5, -92375.26, 0.00000006865043, 9.998826, 9.999618 
8.85058e+2, 1.3506964e+2, -1572822.9, -1644883.3, -80671.88, 0.0808473, 0.16571063, -1520500.8, 95819.8, 0.0, 10.000491, 9.9995575 
8.8505715e+2, 1.4506903e+2, -1451729.6, -1515433.4, -35904.695, 0.1602983, 0.15434287, -1435584.8, 82742.01, 0.0, 10.000555, 9.999717 
8.8505465e+2, 1.5506719e+2, -1501870.5, -1491620.6, -40296.598, 0.038478144, -0.045325104, -1456124.4, -35781.04, 0.0, 9.99955, 9.999694 
8.850534e+2, 1.6506647e+2, -1426603.3, -1392854.9, 2083.488, 0.031829335, -0.087145716, -1392726.8, -70377.18, 0.0, 9.999337, 9.99981 
8.8505346e+2, 1.750668e+2, -1255035.3, -1265749.8, 3639.8684, 0.13798401, -0.064343736, -1253915.8, -29569.434, 0.0, 9.9998665, 9.999758 
8.850519e+2, 1.850672e+2, -1157908.4, -1194646.1, 10009.8955, 0.11871559, 0.019495994, -1155358.0, -29014.172, 0.0, 9.99998, 9.999508 
8.850486e+2, 1.9506712e+2, -1103992.6, -1120212.8, 3314.835, -0.038042016, 0.028195571, -1103341.4, -74993.8, 0.0, 9.999686, 9.999489 
8.8504684e+2, 2.0506738e+2, -958227.3, -938761.94, 3680.852, -0.045582216, 0.08238296, -938089.2, -7742.91, 0.0, 9.999751, 10.000037 
8.850463e+2, 2.150677e+2, -801211.1, -819333.8, -27340.004, 0.09605702, 0.080235824, -781470.0, 50872.668, 0.0, 10.00018, 9.999984 
8.8504547e+2, 2.250674e+2, -702686.9, -744403.8, 38740.145, 0.12777716, 0.07188025, -679546.8, 54796.004, 0.0, 10.000294, 9.999756 
8.850444e+2, 2.3506616e+2, -636253.3, -669642.06, 11283.642, 0.044872142, -0.06251491, -632797.7, 3552.618, 0.0, 10.000106, 9.999689 
8.8504374e+2, 2.4506544e+2, -577590.1, -738148.06, -14600.328, 0.059104417, -0.032273594, -576273.25, -37915.03, 0.0, 10.000469, 9.998369 
8.8504344e+2, 2.5506482e+2, -334192.7, -576362.56, -35432.582, 0.15596105, 0.031373747, -329114.9, 111255.64, 0.00000000006372724, 10.00148, 9.998325 
8.850428e+2, 2.6506406e+2, -178564.5, -348670.03, 15505.893, 0.16544612, 0.085836045, -177162.63, 165215.44, 0.00000025387644, 10.001458, 9.999224 
8.8504183e+2, 2.7506277e+2, -216268.92, -320910.63, 1526.25, 0.10044598, -0.0004533809, -216246.67, 28138.408, 0.0000021793016, 10.000538, 9.999188 
8.850406e+2, 2.8506145e+2, -225217.94, -341843.94, -12887.776, 0.06123882, -0.015532782, -223810.75, -77413.82, 0.000011106664, 10.000113, 9.998562 
8.8503915e+2, 2.9505965e+2, -107230.305, -238902.03, -29653.18, 0.04649085, -0.08971397, -100860.41, -52442.8, 0.000049522223, 10.000248, 9.998537 
8.850374e+2, 3.0505896e+2, 34489.992, -185549.97, -37899.4, 0.035357714, 0.011236404, 40834.785, 40834.785, 0.00016467013, 10.0010805, 9.998178 
8.8503665e+2, 3.1505862e+2, 279727.5, 67591.445, -67275.45, 0.16778673, 0.12681198, 299263.66, 299263.66, 0.00037312726, 10.002103, 9.999426 
8.950576e+2, 1.250677e+2, -1879029.8, -1783217.5, -40158.82, -0.07094517, 0.017463833, -1768611.8, -54275.406, 0.00000033567557, 9.998757, 10.000106 
8.950587e+2, 1.3506716e+2, -1548993.4, -1587183.9, -10145.617, 0.07456013, -0.066582456, -1546465.5, 69877.26, 0.00000000007521531, 10.000467, 9.999957 
8.950575e+2, 1.4506729e+2, -1438484.9, -1477070.4, -94734.22, 0.10274855, -0.042134766, -1361098.9, 157243.81, 0.0, 10.000508, 10.000004 
8.950532e+2, 1.5506832e+2, -1490006.9, -1456801.8, -56764.156, -0.09731421, 0.022029195, -1414262.0, 6071.867, 0.0, 9.999511, 9.999951 
8.9505196e+2, 1.65069e+2, -1400244.5, -1326813.6, 4110.025, -0.08840534, 0.08419792, -1326584.3, -4256.5967, 0.0, 9.999289, 10.000284 
8.950537e+2, 1.750691e+2, -1231782.5, -1195505.8, 40930.47, 0.13921529, 0.031123849, -1168874.8, 55451.5, 0.0, 9.999781, 10.000276 
8.9505273e+2, 1.8506941e+2, -1158819.6, -1172272.9, -18264.672, 0.17102769, 0.06853413, -1146082.4, -19759.31, 0.0, 9.999866, 9.999721 
8.950491e+2, 1.9506952e+2, -1114779.9, -1101351.0, 6556.447, 0.003806147, 0.07552393, -1098680.9, -70358.65, 0.0, 9.999512, 9.999699 
8.95047e+2, 2.0506918e+2, -1009584.6, -1008543.75, 2682.9597, -0.031208526, 0.08019588, -1006331.25, -76005.76, 0.0, 9.999586, 9.999641 
8.950464e+2, 2.1506806e+2, -858770.94, -886701.25, 7171.5723, 0.05967759, -0.028920539, -857037.1, -24700.992, 0.0, 9.999962, 9.999623 
8.9504576e+2, 2.2506785e+2, -753670.0, -805894.7, 16123.356, 0.09738128, 0.0053705187, -749093.3, -14756.082, 0.0, 10.000091, 9.999439 
8.95045e+2, 2.3506822e+2, -685523.7, -723385.2, 19934.549, 0.065943584, 0.06092247, -676963.4, -40630.992, 0.0, 9.999895, 9.999423 
8.9504445e+2, 2.4506758e+2, -607098.8, -764649.25, 5423.6143, 0.046449166, 0.11714927, -606912.3, -68572.29, 0.0, 10.000315, 9.998267 
8.95044e+2, 2.550655e+2, -372896.88, -607439.75, 19175.074, 0.0285783, 0.047216278, -371339.56, 69024.93, 0.0000000002378373, 10.001269, 9.9982195 
8.950435e+2, 2.650643e+2, -184785.84, -333825.0, -33672.59, 0.055639207, 0.053035278, -177531.28, 164844.7, 0.00000030747992, 10.001339, 9.999384 
8.950429e+2, 2.7506354e+2, -230103.34, -316526.1, -10495.878, 0.12560782, 0.00848739, -228846.9, 15532.293, 0.0000026197797, 10.000402, 9.999283 
8.9504135e+2, 2.8506273e+2, -229962.23, -345038.6, -24292.564, 0.080139466, 0.044805247, -225044.27, -78658.016, 0.000013171274, 10.00007, 9.998566 
8.9503866e+2, 2.9506174e+2, -119930.17, -242043.72, -4736.951, -0.07467156, 0.04430906, -119746.695, -71347.555, 0.000055655084, 10.000135, 9.998572 
8.9503783e+2, 3.0506048e+2, 20711.467, -172270.88, -10548.519, -0.06160715, 0.07871552, 21286.342, 21286.342, 0.00017580122, 10.000929, 9.99833 
8.950391e+2, 3.1505853e+2, 286726.63, 150163.22, -964.8257, 0.13003333, 0.016881878, 286733.47, 286733.47, 0.00038747952, 10.001848, 10.000096 
9.050574e+2, 1.2506709e+2, -1774811.8, -1680662.6, 49282.688, 0.02650397, -0.033993363, -1659584.5, 54757.063, 0.0000010657902, 9.999195, 10.000613 
9.0505815e+2, 1.35067e+2, -1830626.3, -1679315.3, 20459.785, 0.091868415, -0.11604087, -1676597.6, -60254.266, 0.000000007369457, 9.998328, 10.000358 
9.0505683e+2, 1.4506787e+2, -1737156.3, -1578924.6, -33015.93, 0.10731125, -0.058306165, -1572312.0, -53975.8, 0.0, 9.998243, 10.000406 
9.050528e+2, 1.5506968e+2, -1514601.4, -1426041.5, -24016.86, -0.060199708, 0.03794893, -1419947.6, 372.76614, 0.0, 9.9991255, 10.000361 
9.0505147e+2, 1.6507071e+2, -1368802.4, -1327748.6, 70919.29, -0.06644224, 0.12522823, -1274445.4, 47866.023, 0.0, 9.999572, 10.000153 
9.0505284e+2, 1.7507063e+2, -1265699.6, -1225589.9, 21709.648, 0.100971185, 0.06993323, -1216089.6, 8222.957, 0.0, 9.999604, 10.000157 
9.0505224e+2, 1.8507075e+2, -1165144.5, -1159677.8, -42223.39, 0.1528013, 0.08492598, -1120099.4, 6211.2817, 0.0, 9.9997425, 9.999868 
9.050495e+2, 1.9507068e+2, -1031288.2, -1052118.1, -52174.676, 0.07697691, 0.05829248, -988499.1, 39810.355, 0.0, 10.00001, 9.999812 
9.050478e+2, 2.050701e+2, -961583.3, -1033784.06, -19988.984, 0.0686501, 0.056474436, -956418.75, -26103.87, 0.0, 10.000134, 9.999193 
9.05047e+2, 2.1506862e+2, -860314.4, -939880.9, -60661.133, 0.12138177, -0.041403234, -827554.6, 4776.033, 0.0, 10.0001745, 9.999154 
9.050462e+2, 2.2506826e+2, -734521.3, -811090.94, -21975.434, 0.12704459, 0.006462393, -728662.6, 5672.002, 0.0, 10.000306, 9.999295 
9.050452e+2, 2.3506865e+2, -590196.0, -695803.3, -39036.117, 0.075449936, 0.08426449, -577333.5, 58996.715, 0.0, 10.000639, 9.999255 
9.05045e+2, 2.4506803e+2, -527459.2, -672340.6, 14724.656, 0.062370446, 0.12830204, -525977.8, 12358.622, 0.0, 10.000642, 9.9987335 
9.050453e+2, 2.5506607e+2, -473307.06, -600954.25, 34238.152, 0.08651557, 0.024105739, -464703.44, -24347.045, 0.0, 10.0003605, 9.998691 
9.0504485e+2, 2.6506495e+2, -357014.94, -454474.25, -8027.078, 0.11616644, 0.032300003, -356358.22, -13990.574, 0.0000002007212, 10.000338, 9.999035 
9.0504366e+2, 2.7506417e+2, -225973.33, -347283.78, -56061.074, 0.15775941, 0.02189013, -204033.77, 40341.035, 0.0000025589381, 10.00059, 9.998974 
9.0504193e+2, 2.850635e+2, -101280.734, -260638.75, -17812.777, 0.10843915, 0.07354654, -99313.92, 47067.605, 0.000014749117, 10.000846, 9.998786 
9.050398e+2, 2.950628e+2, 27295.238, -139522.5, -19344.996, -0.009786154, 0.08245623, 29509.195, 77898.11, 0.00006245814, 10.001023, 9.998851 
9.050395e+2, 3.050612e+2, 45856.37, -158461.25, 24377.207, 0.021114638, 0.06367143, 48724.563, 48724.563, 0.00018874744, 10.001077, 9.99837 
9.050404e+2, 3.1505924e+2, 98927.41, 50539.2, -49084.43, 0.16737038, 0.006554413, 129456.57, 129456.57, 0.0004049675, 10.000544, 10.000076 
9.150571e+2, 1.2506689e+2, -1737575.9, -1591133.1, -35472.047, 0.009172638, -0.094771326, -1582993.4, 131349.47, 0.000002613721, 9.999169, 10.00123 
9.150559e+2, 1.3506904e+2, -1800419.3, -1608616.8, 344.76324, -0.0143531645, -0.0011242167, -1608616.1, 7707.1665, 0.00000007607973, 9.998304, 10.00085 
9.150545e+2, 1.4507051e+2, -1708878.9, -1504577.3, -21547.395, 0.006694836, 0.06541251, -1502329.4, 15980.535, 0.0, 9.998179, 10.000945 
9.1505283e+2, 1.5507135e+2, -1480327.1, -1345740.1, 26189.002, -0.0072648204, 0.010352508, -1340823.6, 79478.125, 0.0, 9.999096, 10.000922 
9.1505146e+2, 1.650719e+2, -1426319.4, -1443075.1, 51766.965, -0.05796006, 0.058242477, -1382256.8, -59958.832, 0.0, 9.99955, 9.9993725 
9.150506e+2, 1.7507175e+2, -1327732.1, -1343602.3, 39782.18, -0.123045035, 0.07319094, -1295101.4, -70798.95, 0.0, 9.999556, 9.999371 
9.1504997e+2, 1.8507144e+2, -1171187.3, -1151556.4, -47929.703, -0.08444817, 0.08022293, -1112447.4, 13857.437, 0.0, 9.99965, 9.999971 
9.150495e+2, 1.950707e+2, -1050192.8, -1051160.1, -24448.94, 0.043266967, -0.022509951, -1026222.75, 2085.4592, 0.0, 9.999843, 9.999898 
9.150487e+2, 2.0507024e+2, -1030620.44, -1136146.1, -33756.195, 0.1140307, 0.015654344, -1020746.25, -90433.15, 0.0, 9.999957, 9.998576 
9.150476e+2, 2.1506964e+2, -936206.6, -1045648.0, -44337.28, 0.13681287, 0.064577974, -920499.0, -88175.16, 0.0, 9.999956, 9.998529 
9.150462e+2, 2.250688e+2, -759553.8, -826545.44, -27403.654, 0.074340805, 0.09531279, -749772.25, -15439.012, 0.0, 10.000134, 9.999279 
9.150447e+2, 2.3506746e+2, -621808.3, -713133.8, -8154.6304, -0.069541596, 0.0028663569, -621085.9, 15257.778, 0.0, 10.000429, 9.999237 
9.1504496e+2, 2.4506693e+2, -481832.72, -540063.06, -11521.862, -0.033838797, 0.006326706, -479635.8, 58710.1, 0.0, 10.000473, 9.999727 
9.150469e+2, 2.550667e+2, -428728.75, -473379.84, 40924.47, 0.17720866, -0.023961186, -404436.25, 35908.633, 0.0, 10.0002, 9.999648 
9.1504633e+2, 2.6506606e+2, -429401.22, -579126.06, -14921.446, 0.20219967, 0.029469382, -427928.66, -85576.18, 0.00000011562638, 10.000232, 9.998227 
9.150435e+2, 2.7506474e+2, -300538.0, -470142.44, -26490.906, 0.045388907, 0.040352196, -296496.63, -52124.46, 0.0000025826089, 10.000454, 9.998198 
9.150421e+2, 2.8506374e+2, -82829.336, -196248.53, -27961.965, 0.0042774635, 0.075741716, -76310.38, 70072.04, 0.000017159802, 10.000742, 9.999274 
9.1504204e+2, 2.9506296e+2, 38959.047, -89000.164, 10117.46, 0.07432427, 0.025707336, 39754.074, 88139.83, 0.00007135739, 10.000915, 9.99925 
9.150419e+2, 3.05061e+2, 19109.805, -187665.47, -4143.873, 0.12722118, -0.03310918, 19192.816, 19192.816, 0.00020564985, 10.000974, 9.998208 
9.150396e+2, 3.1506076e+2, 42112.375, -10441.595, -10059.851, -0.039555773, 0.08551891, 43972.207, 43972.207, 0.00042848263, 10.000329, 9.99974 
9.250565e+2, 1.2506776e+2, -1840119.4, -1636873.4, 42713.01, 0.07959308, -0.116334386, -1628262.0, 86071.39, 0.0000053718704, 9.99844, 10.001282 
9.2505425e+2, 1.3507059e+2, -1731728.6, -1569148.9, -10731.792, -0.0053330217, 0.03747433, -1568443.6, 47863.793, 0.00000033393198, 9.998737, 10.000935 
9.25053e+2, 1.45072e+2, -1624041.3, -1486040.1, 2568.028, 0.01134751, 0.105501406, -1485992.4, 32302.766, 0.0, 9.998869, 10.000737 
9.2505234e+2, 1.5507247e+2, -1474176.3, -1369643.1, -47509.688, 0.038464222, 0.035853725, -1351277.1, 69014.44, 0.0, 9.999259, 10.000674 
9.250514e+2, 1.6507258e+2, -1450242.0, -1454441.5, -10085.398, 0.00022622346, 0.051668994, -1442040.1, -119748.766, 0.0, 9.99938, 9.999371 
9.250502e+2, 1.7507206e+2, -1369842.8, -1367791.4, -741.2645, -0.10074655, 0.030127557, -1367551.6, -143254.38, 0.0, 9.999276, 9.999343 
9.2504954e+2, 1.8507166e+2, -1208937.9, -1183452.4, -23611.377, -0.07238713, 0.03715907, -1169364.6, -43064.074, 0.0, 9.999466, 9.999836 
9.2504954e+2, 1.95071e+2, -1053715.6, -1064051.6, -55382.305, 0.07487018, -0.04341563, -1003260.75, 25044.424, 0.0, 9.999879, 9.999784 
9.2504895e+2, 2.0507073e+2, -980227.1, -1114297.6, -19870.6, 0.13718067, 0.019219846, -977344.1, -47035.16, 0.0, 10.000313, 9.998561 
9.2504776e+2, 2.1507047e+2, -805781.94, -982110.3, -11310.427, 0.12373186, 0.10618496, -805059.4, 27256.322, 0.0, 10.000845, 9.998542 
9.250465e+2, 2.2506942e+2, -675781.3, -804168.7, 38867.63, 0.06732365, 0.123718716, -664931.5, 69395.24, 0.0, 10.000781, 9.999118 
9.2504525e+2, 2.3506734e+2, -681412.44, -763889.7, 9561.924, -0.03426946, -0.027093755, -680318.4, -43973.746, 0.0, 10.000096, 9.999054 
9.2504555e+2, 2.4506667e+2, -569882.44, -552815.5, 10330.041, 0.019142754, -0.04117224, -547950.1, -9602.168, 0.0, 9.999742, 10.0 
9.250472e+2, 2.5506696e+2, -466155.97, -458508.47, -25927.17, 0.22237238, -0.044559177, -436124.6, 4216.2466, 0.0, 9.999808, 9.999943 
9.250467e+2, 2.6506668e+2, -439352.22, -572954.9, -21952.932, 0.23109388, 0.022357905, -435837.5, -93492.5, 0.00000007319143, 10.000084, 9.998352 
9.2504406e+2, 2.7506545e+2, -278165.44, -446200.66, 5221.7607, 0.06909681, 0.028150551, -278003.34, -33639.07, 0.0000027897247, 10.00052, 9.998338 
9.250429e+2, 2.8506458e+2, -88740.14, -216121.95, 44864.49, 0.018194305, 0.072338946, -74524.984, 71849.32, 0.000020180585, 10.000777, 9.999115 
9.25043e+2, 2.950638e+2, 26923.637, -114062.84, -4678.8765, 0.085645385, 0.043439787, 27078.742, 75456.484, 0.00008285034, 10.000903, 9.999081 
9.250431e+2, 3.0506158e+2, 33106.01, -177168.66, -15184.256, 0.15896894, -0.03683827, 34196.832, 34196.832, 0.0002292469, 10.001014, 9.998269 
9.2504084e+2, 3.1506097e+2, 77817.54, -36138.523, -50075.805, 0.042952813, 0.035954263, 96695.17, 96695.17, 0.0004645645, 10.000718, 9.999386 
9.350543e+2, 1.2506944e+2, -1881552.3, -1692724.4, 4546.1685, -0.057959974, -0.12583071, -1692615.0, 21700.611, 0.000009857008, 9.998341, 10.000935 
9.35053e+2, 1.3507183e+2, -1745017.5, -1596656.8, 12249.095, -0.040472843, 0.0010202957, -1595652.3, 20641.393, 0.0000009955157, 9.998762, 10.000721 
9.3505174e+2, 1.4507255e+2, -1696353.6, -1642941.8, -2578.0156, -0.04566601, 0.07087256, -1642817.6, -124528.15, 0.00000000002439963, 9.998896, 9.999652 
9.35051e+2, 1.5507303e+2, -1552244.9, -1519981.4, -16012.922, -0.062471148, 0.10954251, -1513383.3, -93093.84, 0.0, 9.999212, 9.999665 
9.3505085e+2, 1.6507278e+2, -1403589.0, -1344168.0, -34457.824, -0.031936027, 0.09725652, -1328380.6, -6089.528, 0.0, 9.999315, 10.000164 
9.350511e+2, 1.7507164e+2, -1318863.0, -1256476.9, 12660.329, 0.027979018, -0.063681886, -1254005.5, -29709.078, 0.0, 9.999248, 10.000124 
9.350505e+2, 1.8507145e+2, -1254079.1, -1257529.8, -21634.18, 0.043166313, -0.048741706, -1234101.6, -107804.21, 0.0, 9.999383, 9.999372 
9.350492e+2, 1.9507168e+2, -1106847.8, -1142620.8, -24426.807, 0.020095563, 0.0041417237, -1094458.9, -66159.43, 0.0, 9.999743, 9.999313 
9.350481e+2, 2.0507166e+2, -953367.8, -1024951.9, -16756.848, -0.0063136695, 0.079625644, -949639.44, -19337.908, 0.0, 10.00016, 9.9992485 
9.350472e+2, 2.1507113e+2, -788011.6, -903488.44, 26138.588, -0.046853464, 0.07266672, -782370.6, 49935.543, 0.0, 10.000654, 9.999179 
9.350466e+2, 2.2507015e+2, -733341.4, -873590.75, -2367.793, -0.028236682, 0.08562611, -733301.4, 1013.9296, 0.0, 10.000566, 9.998746 
9.350464e+2, 2.3506837e+2, -736979.75, -831404.4, -851.67395, 0.043510646, -0.0022028151, -736972.06, -100639.3, 0.0, 9.999889, 9.9986925 
9.350461e+2, 2.4506734e+2, -624861.0, -629808.1, -4550.3823, 0.07642714, -0.009496024, -622155.3, -83813.69, 0.0, 9.99958, 9.99955 
9.350459e+2, 2.5506678e+2, -523632.66, -540042.44, -5146.65, 0.07548199, -0.053162497, -522152.1, -81806.72, 0.0, 9.999637, 9.999473 
9.3504554e+2, 2.6506665e+2, -383308.0, -416885.4, -18603.135, 0.07748226, -0.006386885, -375038.03, -32691.572, 0.00000003612581, 9.999924, 9.999496 
9.3504506e+2, 2.750665e+2, -227947.4, -299770.7, 42209.414, 0.080633685, -0.0035092963, -208439.92, 35909.758, 0.0000027030533, 10.000353, 9.999418 
9.3504393e+2, 2.850661e+2, -157443.6, -341652.44, 34519.99, 0.006753703, 0.07922861, -151187.19, -4831.989, 0.000022488803, 10.000692, 9.998296 
9.3504196e+2, 2.9506537e+2, -43474.81, -241682.89, 23986.738, -0.15181614, 0.13220976, -40613.293, 7750.8433, 0.00009525127, 10.000815, 9.998248 
9.3504256e+2, 3.050629e+2, 41628.68, -139771.56, -35966.67, -0.031912092, 0.053634495, 48499.625, 48499.625, 0.00025879213, 10.000943, 9.998556 
9.35043e+2, 3.1506085e+2, 34284.84, -83508.15, 14329.548, 0.11186424, -0.047065318, 36002.97, 36002.97, 0.0005142612, 10.000551, 9.999134 
9.4505256e+2, 1.2507074e+2, -1885645.8, -1722871.5, -16999.717, -0.05552481, -0.06455395, -1721115.1, -6810.908, 0.000016753027, 9.998407, 10.000703 
9.4505197e+2, 1.350721e+2, -1679589.0, -1598370.6, -68470.92, -0.033927865, -0.013594088, -1559372.1, 56919.367, 0.000002343361, 9.999336, 10.000434 
9.4505113e+2, 1.4507227e+2, -1599448.0, -1614689.4, -25185.586, -0.025090002, 0.019699719, -1580755.4, -62463.047, 0.0000000053592455, 9.999626, 9.999501 
9.4505036e+2, 1.5507276e+2, -1500249.8, -1523461.6, -11865.974, -0.064644046, 0.078771986, -1495257.5, -74965.9, 0.0, 9.999661, 9.999445 
9.450506e+2, 1.6507256e+2, -1323810.3, -1266172.6, 15199.33, 0.000010022363, 0.06632387, -1262410.1, 59881.586, 0.0, 9.9997, 10.000506 
9.450516e+2, 1.7507148e+2, -1221372.5, -1173230.4, -8183.155, 0.14405754, -0.12213921, -1171877.4, 52417.13, 0.0, 9.999767, 10.00044 
9.450509e+2, 1.8507147e+2, -1219477.5, -1272671.8, -14966.068, 0.13297279, -0.09140238, -1215556.0, -89261.445, 0.0, 9.999782, 9.999059 
9.450485e+2, 1.9507203e+2, -1116129.4, -1179715.0, -37755.996, -0.020464588, 0.026701806, -1098563.4, -70266.78, 0.0, 9.999844, 9.998997 
9.450475e+2, 2.0507197e+2, -946404.06, -970327.2, 2193.896, -0.06711309, 0.09167687, -946204.56, -15905.836, 0.0, 9.99998, 9.99971 
9.450478e+2, 2.1507113e+2, -843596.7, -876810.75, -3899.643, -0.009084912, 0.004352845, -843145.0, -10841.821, 0.0, 10.000044, 9.99965 
9.450477e+2, 2.2507037e+2, -777407.6, -897062.4, -5349.5444, 0.0405319, 0.01857284, -777168.94, -42859.508, 0.0, 10.000295, 9.998706 
9.450471e+2, 2.3506935e+2, -605593.5, -771393.1, -12837.605, 0.08513129, 0.014551457, -604605.4, 31715.705, 0.0, 10.000823, 9.998648 
9.4504637e+2, 2.4506834e+2, -497930.4, -617370.25, 15611.172, 0.09806734, 0.032372247, -495923.7, 42408.047, 0.0, 10.00066, 9.999109 
9.450457e+2, 2.5506702e+2, -527211.4, -583780.75, -14655.939, 0.09551114, -0.04364105, -523639.84, -83295.39, 0.0, 9.999796, 9.999083 
9.450453e+2, 2.6506674e+2, -395381.44, -381288.78, 8969.042, 0.08160309, -0.014423457, -376929.22, -34582.63, 0.000000027783642, 9.999655, 9.999876 
9.450451e+2, 2.7506703e+2, -232636.86, -261709.48, -24099.596, 0.0684124, -0.005291705, -219029.0, 25314.01, 0.000002329391, 10.000134, 9.999796 
9.4504446e+2, 2.8506666e+2, -195298.23, -361413.44, -3919.7852, 0.014276107, 0.06522974, -195205.8, -48858.61, 0.000023981273, 10.000449, 9.99828 
9.450433e+2, 2.9506555e+2, -86887.91, -266056.2, 5695.393, -0.072973974, 0.08627891, -86707.04, -38346.367, 0.00010679835, 10.000533, 9.998225 
9.4504404e+2, 3.0506358e+2, 92242.22, -113087.42, 19690.656, 0.020343518, 0.057370365, 94113.45, 94113.45, 0.00028981623, 10.001307, 9.998565 
9.4504464e+2, 3.1506166e+2, 308334.0, 39752.215, 3031.3015, 0.14447807, -0.026134066, 308368.22, 308368.22, 0.00057081727, 10.002489, 9.999051 
9.5504993e+2, 1.2507181e+2, -1916801.3, -1765824.3, -33252.12, -0.23134649, 0.07342133, -1758825.1, -44527.79, 0.00002677623, 9.998353, 10.00041 
9.550507e+2, 1.3507158e+2, -1713880.3, -1644732.6, -21243.785, -0.12431105, -0.008906747, -1638727.5, -22428.059, 0.0000047533053, 9.999258, 10.0001335 
9.5505065e+2, 1.450711e+2, -1561747.4, -1521880.5, -47189.75, -0.08280399, -0.058999743, -1490586.9, 27716.928, 0.000000046136613, 9.999552, 10.000179 
9.5504975e+2, 1.550718e+2, -1449453.4, -1422553.8, 5831.4805, -0.12869036, -0.0497754, -1421343.9, -1047.1796, 0.0, 9.999681, 10.000127 
9.5505005e+2, 1.6507211e+2, -1337523.8, -1293628.5, 516.5993, -0.06032211, -0.03331942, -1293622.4, 28668.607, 0.0, 9.999691, 10.000323 
9.5505154e+2, 1.750717e+2, -1240161.0, -1201486.3, 9663.616, 0.116316214, -0.14098054, -1199206.1, 25084.197, 0.0, 9.999718, 10.00027 
9.5505035e+2, 1.8507178e+2, -1241633.0, -1304717.6, -28681.867, 0.06863976, -0.083284, -1230542.4, -104251.42, 0.0, 9.999707, 9.998881 
9.5504695e+2, 1.9507197e+2, -1142606.9, -1211972.3, -19078.137, -0.19850701, 0.015089037, -1137705.9, -109409.04, 0.0, 9.999736, 9.998831 
9.5504665e+2, 2.0507166e+2, -951650.9, -942861.44, -13344.889, -0.18040773, 0.047969595, -933206.25, -2905.4326, 0.0, 9.999815, 9.999981 
9.550493e+2, 2.150705e+2, -859126.7, -855195.75, 13759.89, 0.10337877, -0.095860794, -843261.6, -10955.247, 0.0, 9.999812, 9.999912 
9.550493e+2, 2.2507018e+2, -789927.06, -871633.1, -1965.6324, 0.146129, -0.06657479, -789879.8, -55571.57, 0.0, 10.000072, 9.998988 
9.5504683e+2, 2.3507029e+2, -620990.3, -752440.5, 25591.223, -0.048672087, 0.016115226, -616183.9, 20126.166, 0.0, 10.000601, 9.998886 
9.550458e+2, 2.450696e+2, -554394.75, -684305.2, -30924.102, -0.05219395, 0.07308726, -547409.2, -9090.349, 0.0, 10.000454, 9.998742 
9.550462e+2, 2.5506777e+2, -579384.9, -653859.25, -28238.025, 0.1289726, -0.01806817, -569888.9, -129550.805, 0.0, 9.999637, 9.9986725 
9.5504546e+2, 2.6506704e+2, -443671.84, -450126.94, 10561.835, 0.10790082, 0.009251317, -435855.4, -93510.34, 0.000000030362223, 9.999524, 9.999463 
9.550436e+2, 2.7506694e+2, -281558.44, -327921.06, 14996.06, -0.1278021, 0.021974448, -277130.78, -32786.46, 0.000002140531, 9.99999, 9.999404 
9.5504403e+2, 2.8506613e+2, -157213.31, -258106.17, -17249.354, -0.10761158, 0.025593951, -154345.73, -7994.7646, 0.000025889522, 10.000344, 9.99904 
9.5504665e+2, 2.9506442e+2, -50654.3, -166030.48, 33151.957, 0.15752527, -0.093538575, -41806.926, 6559.8257, 0.00011778403, 10.000427, 9.9989605 
9.5504725e+2, 3.0506375e+2, 57588.57, -161742.94, 59218.223, 0.17732172, -0.01018713, 72555.78, 72555.78, 0.00031950467, 10.001208, 9.998278 
9.550446e+2, 3.1506324e+2, 280623.22, 22644.9, 110566.11, -0.18151902, 0.07235799, 321525.4, 321525.4, 0.00062882464, 10.002318, 9.999014 
9.6504927e+2, 1.2507182e+2, -1820118.3, -1741047.6, -183.56207, -0.15232678, 0.10700655, -1741047.1, -26747.316, 0.000040530904, 9.999059, 10.000272 
9.650498e+2, 1.3507156e+2, -1779332.4, -1683525.8, -18994.102, -0.10356633, 0.032792315, -1679897.5, -63595.676, 0.000008656152, 9.998814, 10.000105 
9.6505004e+2, 1.4507103e+2, -1693322.6, -1535855.6, -5821.932, -0.03442353, -0.04147464, -1535640.6, -17335.053, 0.00000019058375, 9.998479, 10.000572 
9.650493e+2, 1.5507162e+2, -1598858.4, -1451199.5, -19845.926, -0.07380646, -0.08068743, -1448578.6, -28281.018, 0.0, 9.998511, 10.000472 
9.6504945e+2, 1.6507217e+2, -1508225.8, -1393631.4, -1370.5625, -0.030418167, -0.049199942, -1393615.0, -71324.91, 0.0, 9.998625, 10.000141 
9.6505046e+2, 1.7507231e+2, -1379550.1, -1292498.8, -30870.486, 0.09560571, -0.07939682, -1282662.8, -58375.875, 0.0, 9.998877, 10.000046 
9.6504974e+2, 1.8507244e+2, -1283226.3, -1289762.4, -15643.857, 0.066954605, -0.024346162, -1270512.8, -144225.8, 0.0, 9.99924, 9.9992285 
9.6504736e+2, 1.9507214e+2, -1129125.3, -1172058.8, 2890.2783, -0.11926488, -0.0051236385, -1128931.6, -100637.695, 0.0, 9.999658, 9.999161 
9.650473e+2, 2.050717e+2, -958856.3, -965487.0, 35412.184, -0.09269925, 0.007964406, -926604.6, 3693.7742, 0.0, 9.999885, 9.999775 
9.650495e+2, 2.1507072e+2, -847709.56, -872167.9, -12306.617, 0.14635135, -0.09813285, -842589.2, -10285.232, 0.0, 10.000008, 9.999689 
9.6504945e+2, 2.2507042e+2, -788927.94, -848205.6, -9677.685, 0.1662702, -0.06512196, -787388.0, -53081.844, 0.0, 9.999967, 9.999206 
9.6504724e+2, 2.3507044e+2, -724980.75, -771788.44, -18867.635, -0.018087503, -0.015846647, -718322.56, -82014.164, 0.0, 9.999747, 9.999163 
9.650463e+2, 2.4506995e+2, -605132.44, -704179.06, -33622.04, -0.022083545, 0.04115126, -594797.6, -56482.684, 0.0, 10.000066, 9.998809 
9.6504664e+2, 2.550687e+2, -396007.56, -562586.6, -30506.176, 0.15991402, 0.006366888, -390596.63, 49731.57, 0.0, 10.000874, 9.998719 
9.650461e+2, 2.6506773e+2, -270953.34, -443119.34, 49331.25, 0.14688581, 0.041951444, -257820.13, 84517.76, 0.000000012060779, 10.0010395, 9.998777 
9.6504444e+2, 2.7506652e+2, -253404.48, -394850.38, -6728.7075, -0.06293863, 0.013634049, -253085.11, -8736.308, 0.0000023356135, 10.000527, 9.998685 
9.650451e+2, 2.8506497e+2, -109698.99, -258131.63, -28769.934, -0.042872757, -0.009411125, -104317.76, 42045.24, 0.000028869204, 10.000777, 9.998815 
9.6504813e+2, 2.95063e+2, 121820.91, -107918.125, -99595.95, 0.21034971, -0.13364413, 158985.47, 207367.03, 0.00012892728, 10.001739, 9.998712 
9.6504873e+2, 3.0506262e+2, 162058.25, -112827.21, -74871.78, 0.18760101, -0.009584004, 181128.4, 181128.4, 0.00034703137, 10.001895, 9.998292 
9.6504664e+2, 3.1506234e+2, 69961.24, -38398.31, -59789.31, -0.11324416, 0.09340026, 96467.336, 96467.336, 0.0006841425, 10.000668, 9.999392 
9.7504944e+2, 1.2507047e+2, -1806376.8, -1694547.1, -70428.766, -0.120700404, 0.022490412, -1660536.0, 53778.707, 0.000058506626, 9.998992, 10.000617 
9.750487e+2, 1.3507223e+2, -1744066.9, -1611021.9, -18046.813, -0.12649873, 0.10664323, -1608617.4, 7679.8433, 0.00001444443, 9.998827, 10.000589 
9.750487e+2, 1.4507236e+2, -1699096.9, -1549156.5, -21536.805, -0.05962358, 0.07628736, -1546124.4, -27829.643, 0.0000005546723, 9.998483, 10.000483 
9.750486e+2, 1.5507238e+2, -1609354.8, -1464536.3, 1401.7605, -0.035341393, -0.011122441, -1464522.8, -44230.273, 0.0, 9.99848, 10.000394 
9.7504836e+2, 1.6507278e+2, -1530749.5, -1434823.5, -12139.163, -0.041486908, 0.022113603, -1433311.1, -111023.02, 0.0, 9.998589, 9.999883 
9.7504824e+2, 1.750733e+2, -1399638.8, -1330455.5, -6878.4063, -0.053196955, 0.055776697, -1329778.3, -105493.875, 0.0, 9.998853, 9.999801 
9.7504854e+2, 1.850734e+2, -1236565.9, -1169967.3, -13607.108, -0.010392941, 0.0787717, -1167294.4, -41011.85, 0.0, 9.999142, 10.000097 
9.7504926e+2, 1.9507273e+2, -1088796.3, -1053238.4, 35999.64, 0.07572761, -0.031879988, -1030866.75, -2580.6755, 0.0, 9.999511, 10.000042 
9.750491e+2, 2.0507233e+2, -1039442.4, -1094257.6, 22137.45, 0.07000875, -0.01754908, -1031618.7, -101329.34, 0.0, 9.999707, 9.998984 
9.750481e+2, 2.150718e+2, -930899.5, -1000891.94, 8234.46, -0.024254335, 0.0010644624, -929943.8, -97647.75, 0.0, 9.999812, 9.998904 
9.750475e+2, 2.2507107e+2, -803746.75, -830865.75, -36531.465, -0.039984647, 0.02041691, -778339.5, -44035.78, 0.0, 9.999759, 9.999423 
9.7504765e+2, 2.3506983e+2, -746144.1, -757814.75, -12349.386, 0.023712382, -0.080875956, -738320.8, -102004.77, 0.0, 9.999505, 9.999372 
9.7504735e+2, 2.450695e+2, -595027.94, -645518.06, -20336.484, 0.051427387, -0.039216757, -587855.6, -49537.0, 0.0, 9.999897, 9.999297 
9.7504663e+2, 2.5506976e+2, -383139.16, -500643.56, 18239.418, 0.039704565, 0.026167357, -380373.1, 59942.11, 0.0, 10.00072, 9.99922 
9.750466e+2, 2.6506862e+2, -356852.22, -595841.4, 13776.258, 0.059797663, 0.06831647, -356060.72, -13734.144, 0.0000000034767167, 10.000923, 9.997785 
9.75047e+2, 2.750657e+2, -337212.7, -545322.6, -3643.2478, 0.10745853, -0.034633536, -337148.9, -92792.625, 0.0000028342504, 10.000421, 9.997704 
9.750473e+2, 2.8506333e+2, -211403.06, -448188.44, -6102.7324, 0.056649975, -0.030979108, -211245.88, -64864.12, 0.000032313746, 10.00069, 9.997552 
9.750472e+2, 2.9506117e+2, 13974.531, -302456.3, -35295.344, -0.104825355, -0.040148523, 17863.646, 66269.43, 0.0001399921, 10.001616, 9.997435 
9.750479e+2, 3.050599e+2, 161276.05, -81733.98, -130830.38, -0.11475897, 0.0435421, 218320.9, 218320.9, 0.00037284024, 10.001761, 9.998568 
9.7504944e+2, 3.150581e+2, 92029.734, 52148.69, -49254.707, 0.018481899, -0.03666028, 125227.25, 125227.25, 0.00073526404, 10.000485, 10.000094 
9.8504937e+2, 1.2507035e+2, -1844940.9, -1697304.1, 5387.013, 0.0052683377, 0.005888765, -1697107.9, 17207.623, 0.00008108169, 9.998655, 10.000757 
9.8504746e+2, 1.350723e+2, -1724449.0, -1595653.9, -23410.959, -0.118192725, 0.09858903, -1591530.5, 24765.813, 0.000022462764, 9.998911, 10.000663 
9.850475e+2, 1.4507271e+2, -1621077.3, -1522374.9, 5368.157, -0.044210657, 0.0954302, -1522083.8, -3791.8203, 0.0000013019285, 9.9990425, 10.000403 
9.850481e+2, 1.55073e+2, -1474696.0, -1410916.9, -12778.121, 0.030921822, 0.041128308, -1408452.1, 11835.833, 0.0, 9.999433, 10.000306 
9.8504794e+2, 1.6507338e+2, -1406662.0, -1367018.4, 21003.87, 0.028209278, 0.07325798, -1357960.0, -35675.867, 0.0, 9.999406, 9.999952 
9.8504716e+2, 1.7507362e+2, -1365611.4, -1302793.5, 17493.113, -0.04188958, 0.074350655, -1298250.6, -73968.14, 0.0, 9.99905, 9.999888 
9.8504776e+2, 1.8507367e+2, -1212252.9, -1130422.9, 46714.113, 0.001430712, 0.07434329, -1109239.1, 17040.932, 0.0, 9.99921, 10.000323 
9.850494e+2, 1.9507311e+2, -1039513.6, -1007599.6, 8607.262, 0.1396646, -0.0450068, -1005426.25, 22854.67, 0.0, 9.999771, 10.000226 
9.8504955e+2, 2.0507285e+2, -995790.7, -1079029.6, 14668.308, 0.14025903, -0.023592874, -993281.5, -62998.867, 0.0, 10.000008, 9.998953 
9.850481e+2, 2.1507251e+2, -930901.94, -1004084.3, 26639.541, 0.002518394, 0.016130049, -922231.9, -89943.33, 0.0, 9.999819, 9.998883 
9.850475e+2, 2.2507176e+2, -782219.0, -831073.06, 37013.074, -0.021540476, 0.037110887, -762299.1, -28002.223, 0.0, 9.999939, 9.99934 
9.85048e+2, 2.350703e+2, -632418.9, -713769.2, 10084.425, 0.07172947, -0.07598829, -631187.44, 5123.4106, 0.0, 10.000324, 9.999285 
9.85048e+2, 2.450698e+2, -499330.6, -615776.0, 17899.498, 0.09181962, -0.038915187, -496641.28, 41673.754, 0.0, 10.000651, 9.999124 
9.850473e+2, 2.550698e+2, -361315.38, -511911.25, -32891.75, 0.030597704, 0.017664406, -354444.9, 85869.57, 0.0, 10.000969, 9.999018 
9.850477e+2, 2.6506838e+2, -297460.7, -608341.06, -24744.742, 0.060851373, 0.06350857, -295503.44, 46825.637, 0.00000001775074, 10.001517, 9.997417 
9.850492e+2, 2.7506533e+2, -88941.07, -468490.34, -36162.38, 0.19635314, -0.0115946205, -85526.34, 158834.88, 0.000003544514, 10.002309, 9.997331 
9.8504937e+2, 2.8506294e+2, -19227.205, -379312.5, 44905.95, 0.13615909, 0.017988374, -13711.508, 132675.88, 0.00003520851, 10.002091, 9.997375 
9.8504823e+2, 2.9506078e+2, -117562.914, -388660.2, 62350.906, -0.111049235, 0.026845852, -103910.12, -55498.99, 0.00014922032, 10.000786, 9.997262 
9.8504853e+2, 3.0505896e+2, 3287.678, -156915.69, 43383.08, -0.15822, 0.064532585, 14281.392, 14281.392, 0.00039592202, 10.000695, 9.9985485 
9.8505116e+2, 3.1505716e+2, 239995.6, 145940.48, 30617.188, 0.11024775, -0.013330115, 249084.02, 249084.02, 0.0007798097, 10.001427, 10.000277 
9.9504787e+2, 1.2507147e+2, -1866829.4, -1731089.9, -41575.184, -0.0925859, 0.054756537, -1719368.1, -5065.988, 0.000108580556, 9.998622, 10.00053 
9.950459e+2, 1.3507189e+2, -1749953.1, -1634897.1, -2587.6514, -0.2077179, 0.013706117, -1634839.0, -18540.549, 0.000033028722, 9.998869, 10.0004015 
9.950462e+2, 1.4507213e+2, -1629417.1, -1539038.3, -4882.0923, -0.1330996, 0.015566304, -1538775.3, -20478.71, 0.0000026281716, 9.99903, 10.000303 
9.9504745e+2, 1.5507352e+2, -1474927.3, -1414014.9, 16653.582, -0.021340625, 0.07969326, -1409759.0, 10524.69, 0.00000000019976186, 9.999438, 10.000286 
9.950477e+2, 1.6507407e+2, -1385903.3, -1310551.3, -10231.192, 0.022463955, 0.108262464, -1309186.8, 13090.294, 0.0, 9.999357, 10.00036 
9.9504703e+2, 1.7507343e+2, -1342648.1, -1245990.4, 21134.1, 0.00080040604, -0.021218011, -1241571.5, -17291.484, 0.0, 9.999013, 10.000296 
9.950469e+2, 1.8507321e+2, -1263701.8, -1215034.0, 49469.19, -0.03074917, -0.039483108, -1184237.8, -57957.656, 0.0, 9.999117, 9.999789 
9.950475e+2, 1.9507311e+2, -1093067.9, -1087735.9, 45903.383, -0.06752896, -0.059364304, -1044421.1, -16140.993, 0.0, 9.999639, 9.999739 
9.950482e+2, 2.0507312e+2, -975474.9, -985335.06, -11510.742, -0.02292756, -0.02409492, -967882.9, -37603.297, 0.0, 9.999795, 9.999694 
9.9504906e+2, 2.1507286e+2, -911120.6, -907844.25, 34050.613, 0.09328072, -0.052565143, -875392.44, -43110.61, 0.0, 9.999591, 9.999647 
9.9504894e+2, 2.2507259e+2, -839890.4, -894267.75, 34603.27, 0.09777293, -0.0060002888, -823072.1, -88787.39, 0.0, 9.9997, 9.999021 
9.950478e+2, 2.3507197e+2, -689133.25, -776993.56, 42239.156, -0.012207402, -0.0019183175, -672120.75, -35828.984, 0.0, 10.000097, 9.998958 
9.9504757e+2, 2.4507086e+2, -588119.1, -762213.5, 13272.985, -0.04436273, 0.035116047, -587113.0, -48808.945, 0.0, 10.000482, 9.998201 
9.950482e+2, 2.5506884e+2, -450487.78, -655176.3, -2982.046, -0.005013751, -0.018611325, -450444.34, -10118.733, 0.0, 10.000782, 9.998126 
9.950491e+2, 2.650672e+2, -314234.9, -602467.25, -10242.854, 0.022032052, 0.039561298, -313871.34, 28472.658, 0.000000028595345, 10.001352, 9.997534 
9.950503e+2, 2.7506545e+2, -105274.92, -465425.56, 14307.436, 0.040483378, 0.08655201, -104707.44, 139656.13, 0.000003781716, 10.002161, 9.99742 
9.9505085e+2, 2.8506368e+2, 32697.61, -248030.63, -18812.488, 0.04154623, 0.1328377, 33952.684, 180333.73, 0.000036350866, 10.001987, 9.998325 
9.950508e+2, 2.9506177e+2, -60527.832, -248331.05, 38591.293, 0.022988867, 0.06579467, -52907.03, -4509.2495, 0.00015456251, 10.000691, 9.998269 
9.950503e+2, 3.0505988e+2, -43266.9, -229727.19, 63491.34, -0.087803245, 0.06519327, -23700.723, -23700.723, 0.00041193186, 10.000604, 9.998089 
9.9505043e+2, 3.1505886e+2, 182691.81, 83232.04, 101358.73, -0.18059365, 0.113420874, 245863.02, 245863.02, 0.0008105773, 10.001203, 9.999947 
1.0050464e+3, 1.2507103e+2, -1969741.4, -1758119.4, -64843.973, -0.040370464, 0.04375347, -1739830.9, -25524.803, 0.00014134821, 9.997817, 10.000736 
1.00504525e+3, 1.3507164e+2, -1763661.5, -1620973.3, -42093.215, -0.13593534, 0.0025940305, -1609481.3, 6818.019, 0.000046426092, 9.998688, 10.000582 
1.005046e+3, 1.4507191e+2, -1671826.4, -1555301.1, 6023.2095, -0.036320046, -0.0015194339, -1554990.6, -36693.582, 0.00000474816, 9.998758, 10.000302 
1.0050467e+3, 1.5507314e+2, -1616161.6, -1486067.1, -15528.061, 0.014227081, 0.05124409, -1484239.4, -63952.785, 0.000000004412824, 9.998502, 10.000241 
1.005047e+3, 1.6507365e+2, -1471005.6, -1344166.5, -16448.896, 0.052976035, 0.07532475, -1342068.0, -19787.947, 0.0, 9.998719, 10.000448 
1.005047e+3, 1.7507312e+2, -1283990.4, -1208130.0, -41403.387, 0.079362646, -0.053895578, -1189909.1, 34371.695, 0.0, 9.999357, 10.000399 
1.005047e+3, 1.8507291e+2, -1222110.4, -1220450.6, 21844.496, 0.05140143, -0.065159775, -1199420.3, -73139.11, 0.0, 9.99952, 9.999551 
1.00504726e+3, 1.950727e+2, -1161969.4, -1147902.3, 4897.613, -0.02618, -0.072852656, -1146365.0, -118080.945, 0.0, 9.9992895, 9.999488 
1.005048e+3, 2.0507275e+2, -989178.94, -959834.56, -21978.924, 0.00552271, -0.03640119, -948080.5, -17797.12, 0.0, 9.99955, 9.999991 
1.00504935e+3, 2.1507265e+2, -799940.5, -829154.2, -46120.355, 0.13582082, -0.074538834, -766169.2, 66113.77, 0.0, 10.000217, 9.999901 
1.00504935e+3, 2.2507252e+2, -718305.06, -838229.7, -19169.23, 0.13786896, -0.025029296, -715315.5, 18968.566, 0.0, 10.000565, 9.998984 
1.0050483e+3, 2.3507196e+2, -610607.5, -746513.7, -31948.596, 0.010897295, -0.009282702, -603471.75, 32818.668, 0.0, 10.000671, 9.998893 
1.0050484e+3, 2.450706e+2, -538064.44, -773446.1, 11312.88, -0.021046862, 0.024835069, -537522.0, 783.2396, 0.0, 10.0009775, 9.997888 
1.0050497e+3, 2.550682e+2, -369754.72, -642576.5, 4868.2983, 0.04721159, -0.035105485, -369667.88, 70663.04, 0.0, 10.001475, 9.997866 
1.005051e+3, 2.6506647e+2, -246897.98, -557255.7, 55883.59, 0.064814985, 0.01939338, -237142.14, 105208.31, 0.000000017098808, 10.001751, 9.997652 
1.005052e+3, 2.750648e+2, -164726.5, -473929.5, 47837.395, 0.034589875, 0.055572547, -157494.63, 86874.37, 0.000003428396, 10.001665, 9.997593 
1.0050526e+3, 2.850633e+2, -13862.385, -241582.61, -10798.64, 0.049839992, 0.10365477, -13351.452, 133032.0, 0.00003625069, 10.001559, 9.998563 
1.0050528e+3, 2.950617e+2, 54536.293, -167460.9, -50547.43, 0.12990832, 0.04909289, 65503.805, 113899.734, 0.00015744341, 10.001369, 9.998494 
1.005052e+3, 3.0505946e+2, 25585.965, -231682.92, 19036.922, 0.01665804, 0.013932059, 26986.996, 26986.996, 0.00042211023, 10.001191, 9.997824 
1.005052e+3, 3.150583e+2, 82817.45, -7816.087, 6147.169, -0.098723724, 0.083270624, 83232.48, 83232.48, 0.0008305699, 10.000639, 9.999638 
1.0150441e+3, 1.2506922e+2, -1929603.6, -1658054.1, -98944.92, -0.133104, -0.025161494, -1625826.3, 88499.08, 0.0001798155, 9.997766, 10.001436 
1.01504505e+3, 1.3507165e+2, -1718301.6, -1524469.5, 4554.063, -0.06435175, 0.050569884, -1524362.6, 91935.27, 0.000062927356, 9.998684, 10.001239 
1.0150462e+3, 1.4507209e+2, -1683078.0, -1570241.9, -27388.219, 0.053350486, 0.030525915, -1563945.4, -45652.55, 0.000007860604, 9.998724, 10.000214 
1.0150453e+3, 1.5507196e+2, -1627163.9, -1503600.6, -7843.431, -0.0062078796, -0.041760746, -1503104.8, -82808.97, 0.000000028517778, 9.998486, 10.000124 
1.01504534e+3, 1.6507228e+2, -1488360.3, -1375979.8, -10471.677, -0.014090032, -0.020168243, -1375012.4, -52720.316, 0.0, 9.998696, 10.000243 
1.0150463e+3, 1.7507277e+2, -1299079.0, -1237456.5, -2022.4606, 0.05199578, -0.02945195, -1237390.3, -13105.72, 0.0, 9.999343, 10.000205 
1.01504736e+3, 1.850728e+2, -1235607.0, -1226219.1, -5315.187, 0.09972698, -0.006558826, -1223822.0, -97538.99, 0.0, 9.999425, 9.9995575 
1.0150484e+3, 1.95072e+2, -1180991.5, -1154794.8, 11415.038, 0.12244147, -0.07604652, -1150518.8, -122227.3, 0.0, 9.999152, 9.999504 
1.0150487e+3, 2.0507185e+2, -1025286.2, -997312.2, -14388.173, 0.08418031, -0.049261652, -991232.9, -60940.168, 0.0, 9.999388, 9.999812 
1.01504825e+3, 2.1507204e+2, -839829.8, -863610.44, -6854.688, -0.012446064, -0.044999365, -837995.5, -5705.029, 0.0, 10.000018, 9.999755 
1.0150484e+3, 2.250717e+2, -745188.94, -840394.44, -34299.28, -0.039001845, -0.013599446, -734119.2, 174.04996, 0.0, 10.000333, 9.999082 
1.0150491e+3, 2.3507042e+2, -634134.8, -742662.8, -12621.098, -0.0021996633, -0.08177715, -632686.4, 3618.5542, 0.0, 10.000446, 9.999024 
1.0150502e+3, 2.4506928e+2, -546528.4, -745727.94, 10533.278, 0.025877025, -0.049040977, -545972.94, -7656.514, 0.0, 10.000782, 9.998175 
1.0150515e+3, 2.550679e+2, -372554.47, -614001.56, 40069.28, 0.04068901, -0.037315547, -366078.47, 74252.664, 0.0, 10.001322, 9.99814 
1.0150528e+3, 2.6506606e+2, -250392.38, -530852.7, 39149.938, 0.046574924, -0.013712579, -245029.89, 97320.16, 0.000000011022683, 10.001609, 9.9979 
1.015054e+3, 2.7506346e+2, -168421.11, -444830.53, 67455.72, 0.0321528, -0.10036756, -152837.61, 91539.21, 0.0000031084232, 10.001509, 9.997867 
1.0150543e+3, 2.8506172e+2, -70605.15, -331452.38, -34260.05, 0.02771204, -0.06174909, -66180.445, 80213.94, 0.000035475467, 10.001442, 9.997998 
1.0150536e+3, 2.9506055e+2, -11031.948, -265318.97, -35118.05, 0.030034792, -0.019254168, -6271.139, 42134.805, 0.00015874387, 10.001213, 9.997892 
1.0150533e+3, 3.050576e+2, 6639.758, -244708.78, -10104.151, -0.0069918074, -0.08654015, 7045.288, 7045.288, 0.00042931808, 10.001085, 9.997781 
1.01505466e+3, 3.1505552e+2, 27413.143, -50701.918, 31025.75, 0.037965603, -0.111040026, 38236.348, 38236.348, 0.00084597926, 10.000357, 9.999464 
1.0250436e+3, 1.2506893e+2, -1767604.6, -1573366.8, -17627.605, 0.0051071984, -0.02204618, -1571780.0, 142548.45, 0.00022439056, 9.998833, 10.001512 
1.0250437e+3, 1.3507132e+2, -1797134.3, -1558976.8, -7500.2573, -0.023095958, 0.04937292, -1558740.8, 57560.563, 0.0000828242, 9.998131, 10.001277 
1.0250447e+3, 1.4507174e+2, -1755605.4, -1607493.6, 128.27097, 0.07307882, 0.026792772, -1607493.5, -89197.81, 0.000012107546, 9.998202, 10.000236 
1.0250447e+3, 1.5507133e+2, -1502010.4, -1441868.6, -7051.838, 0.046911944, -0.0784968, -1441052.8, -20752.508, 0.00000009714164, 9.999313, 10.000161 
1.0250451e+3, 1.650716e+2, -1357378.9, -1322427.5, 27937.969, 0.04418169, -0.0573496, -1306949.8, 15347.517, 0.0, 9.999675, 10.000114 
1.0250459e+3, 1.7507233e+2, -1293015.4, -1244501.3, 2541.9504, 0.076477684, -0.027911656, -1244368.4, -20079.42, 0.0, 9.999465, 10.000079 
1.02504715e+3, 1.8507256e+2, -1199188.1, -1185559.1, 34654.93, 0.13139088, 0.0072557856, -1157055.0, -30769.303, 0.0, 9.999556, 9.999781 
1.0250485e+3, 1.9507192e+2, -1061767.8, -1074331.1, 38505.652, 0.18519664, -0.06737318, -1029034.75, -743.7709, 0.0, 9.999857, 9.999727 
1.0250487e+3, 2.0507163e+2, -990059.1, -1017978.1, 46609.88, 0.13392453, -0.04788977, -955363.2, -25069.412, 0.0, 9.999817, 9.999463 
1.0250478e+3, 2.1507132e+2, -951055.2, -958906.1, 2219.4219, -0.0163156, -0.05190296, -950471.25, -118173.27, 0.0, 9.999454, 9.9993725 
1.02504835e+3, 2.2507074e+2, -811342.4, -851176.8, 19524.887, -0.047951743, -0.034155402, -803368.44, -69065.64, 0.0, 9.9997835, 9.9992695 
1.0250498e+3, 2.3506954e+2, -586424.4, -699578.44, 16741.178, 0.023371115, -0.11266439, -583999.5, 52312.316, 0.0, 10.000691, 9.9992 
1.0250514e+3, 2.4506854e+2, -468499.13, -688082.4, 62056.313, 0.059981566, -0.08252131, -452174.97, 86145.98, 0.0, 10.001251, 9.998327 
1.025053e+3, 2.5506735e+2, -348009.28, -588761.4, 41382.344, 0.06124678, -0.06562516, -341094.75, 99239.305, 0.0, 10.001434, 9.998257 
1.0250543e+3, 2.6506567e+2, -287067.2, -522414.75, 41812.49, 0.057633918, -0.0435079, -279859.4, 62492.11, 0.00000001218603, 10.001249, 9.998129 
1.0250553e+3, 2.7506322e+2, -272564.78, -465948.13, 31041.76, 0.0598528, -0.13817914, -267704.16, -23327.658, 0.0000027111198, 10.000682, 9.998115 
1.02505565e+3, 2.8506172e+2, -163445.73, -397808.03, 5003.15, 0.055056248, -0.07919911, -163338.97, -16946.105, 0.00003356842, 10.000891, 9.997816 
1.0250552e+3, 2.9506078e+2, 52603.934, -254324.64, -7645.8604, 0.047631133, 0.008083076, 52794.28, 101198.69, 0.00015737157, 10.001732, 9.997726 
1.02505505e+3, 3.050578e+2, 134946.2, -166063.3, 42408.715, 0.032416537, -0.062678166, 140806.98, 140806.98, 0.00043278775, 10.001912, 9.997906 
1.0250566e+3, 3.1505555e+2, 128363.78, -13754.786, 23909.713, 0.18073587, -0.12197635, 132278.47, 132278.47, 0.00085735595, 10.001086, 9.999358 
1.0350438e+3, 1.2506993e+2, -1801451.9, -1650961.9, -110925.984, 0.05776886, 0.033381693, -1592168.1, 122149.695, 0.00027553758, 9.998861, 10.000964 
1.0350408e+3, 1.3507073e+2, -1842766.8, -1652944.8, -25843.482, -0.15891069, 0.00663577, -1649489.1, -33180.504, 0.000106410545, 9.998128, 10.000633 
1.0350413e+3, 1.4507098e+2, -1739408.8, -1574277.6, 18430.783, -0.14067118, -0.00870378, -1572245.6, -53940.9, 0.000017580353, 9.998208, 10.000461 
1.0350442e+3, 1.5507129e+2, -1482551.4, -1402826.6, 50856.43, 0.026318388, -0.06733554, -1378071.8, 42228.242, 0.00000023822265, 9.999313, 10.000433 
1.0350453e+3, 1.6507165e+2, -1377387.5, -1349021.4, -1110.6168, 0.068316445, -0.044303603, -1348978.0, -26682.26, 0.0, 9.999619, 9.999955 
1.03504516e+3, 1.7507182e+2, -1314059.6, -1272469.3, 10506.669, 0.023660323, -0.055103432, -1269965.6, -45671.39, 0.0, 9.999402, 9.999915 
1.03504576e+3, 1.8507224e+2, -1180112.0, -1123984.1, 25843.95, 0.011625366, -0.014031455, -1113897.1, 12391.337, 0.0, 9.99946, 10.000251 
1.035047e+3, 1.9507253e+2, -1046956.3, -1016843.5, 61465.074, 0.02685887, -0.045732774, -968617.6, 59664.527, 0.0, 9.999738, 10.000182 
1.0350476e+3, 2.0507205e+2, -1064864.8, -1127758.6, 14084.106, 0.01985465, -0.033821955, -1061854.9, -131568.2, 0.0, 9.999618, 9.998806 
1.0350477e+3, 2.1507043e+2, -1017100.94, -1061540.3, 7253.1514, -0.00057916605, -0.10705877, -1015947.1, -183640.92, 0.0, 9.999295, 9.998748 
1.0350486e+3, 2.2506958e+2, -820818.94, -820460.5, 37584.23, -0.0266392, -0.100399144, -783055.06, -48741.57, 0.0, 9.999574, 9.999578 
1.0350499e+3, 2.3506926e+2, -595220.94, -668023.4, 66893.79, -0.05818041, -0.12443317, -555465.56, 80846.05, 0.0, 10.000481, 9.999516 
1.0350518e+3, 2.4506837e+2, -510190.22, -722836.25, 56068.777, -0.061792735, -0.090740606, -496312.2, 42007.08, 0.0, 10.001033, 9.998193 
1.0350538e+3, 2.5506663e+2, -382532.2, -616266.56, 68143.51, -0.035142038, -0.118473135, -364116.44, 76222.78, 0.0, 10.00125, 9.998153 
1.0350549e+3, 2.650654e+2, -292703.6, -502711.44, 3588.3801, -0.027004221, -0.06130704, -292642.3, 49711.477, 0.00000000560088, 10.001115, 9.998327 
1.03505544e+3, 2.750641e+2, -283115.53, -449194.1, 29012.377, -0.034924176, -0.05538167, -278193.22, -33825.414, 0.0000022721786, 10.000525, 9.998301 
1.0350562e+3, 2.8506327e+2, -164983.42, -374212.1, 20561.027, -0.013856068, 0.0480104, -162982.02, -16602.9, 0.000031172072, 10.000774, 9.998035 
1.035057e+3, 2.9506263e+2, 43053.203, -235830.25, 50319.996, 0.017485095, 0.14115605, 51854.848, 100244.24, 0.00015322318, 10.001567, 9.997933 
1.03505686e+3, 3.0506003e+2, 128418.08, -145761.22, 2371.7456, -0.00730364, 0.091665246, 128438.59, 128438.59, 0.00043103905, 10.001778, 9.998104 
1.03505686e+3, 3.1505853e+2, 86608.34, -28660.77, 42328.96, 0.012256587, 0.08902724, 100482.414, 100482.414, 0.00086192216, 10.0008135, 9.999372 
1.0450429e+3, 1.2507041e+2, -1935737.4, -1755311.0, -95651.16, 0.12680991, 0.064519376, -1714042.0, 270.8206, 0.0003338259, 9.998083, 10.000637 
1.04504004e+3, 1.3507046e+2, -1663858.5, -1606764.8, -30717.787, -0.1050143, -0.0025607024, -1593377.1, 22935.52, 0.00013404706, 9.999493, 10.000302 
1.0450402e+3, 1.450708e+2, -1512593.9, -1446419.1, 68845.17, -0.13094951, -0.00041965055, -1403123.0, 115184.75, 0.000024406929, 9.99971, 10.000594 
1.04504354e+3, 1.5507169e+2, -1497607.5, -1386182.5, 48182.582, 0.053584095, -0.014995355, -1368237.4, 52058.47, 0.0000004785213, 9.999146, 10.000606 
1.04504496e+3, 1.6507196e+2, -1458275.1, -1422978.3, 21363.086, 0.09802912, 0.0039647957, -1412916.6, -90624.38, 0.0, 9.999192, 9.999673 
1.0450448e+3, 1.750713e+2, -1262840.3, -1280619.6, -7097.975, 0.029532967, -0.06061972, -1260354.1, -36054.375, 0.0, 9.999877, 9.999644 
1.04504526e+3, 1.8507147e+2, -1127074.0, -1087502.4, 6227.4966, 0.0031985475, -0.036337648, -1086545.5, 39750.996, 0.0, 9.999795, 10.000334 
1.04504615e+3, 1.9507205e+2, -1144580.4, -1053164.6, -25834.018, 0.013298779, -0.04424825, -1046369.06, -18082.664, 0.0, 9.999032, 10.000268 
1.0450471e+3, 2.0507175e+2, -1085619.0, -1127861.5, 4827.97, 0.023934243, -0.025366515, -1085074.3, -154785.64, 0.0, 9.999432, 9.998888 
1.0450481e+3, 2.1507017e+2, -782122.25, -934234.1, 17958.701, 0.037794903, -0.10266424, -780030.75, 52275.73, 0.0, 10.000865, 9.998853 
1.0450493e+3, 2.2506921e+2, -593437.3, -761375.3, 62937.074, 0.011969823, -0.09220679, -572468.9, 161846.86, 0.0, 10.001337, 9.999147 
1.04505055e+3, 2.3506846e+2, -569781.1, -706372.7, 1512.9702, -0.054311905, -0.11302549, -569764.3, 66555.8, 0.0, 10.000848, 9.999091 
1.0450523e+3, 2.4506742e+2, -568248.5, -743817.5, 997.8305, -0.06623348, -0.077193335, -568242.8, -29912.703, 0.0, 10.00059, 9.998275 
1.0450548e+3, 2.5506583e+2, -475554.0, -649230.3, -4959.382, -0.017921777, -0.09859227, -475412.5, -35064.285, 0.0, 10.000562, 9.998262 
1.0450561e+3, 2.6506466e+2, -322538.47, -518594.34, -41897.246, -0.0043896292, -0.036022462, -313960.3, 28401.37, 0.0000000009945924, 10.000898, 9.998342 
1.0450564e+3, 2.750634e+2, -142011.52, -386598.94, -63729.56, -0.018788973, -0.028821426, -126402.33, 117973.86, 0.0000020282196, 10.001473, 9.998298 
1.04505725e+3, 2.8506258e+2, -76984.83, -296348.4, -43147.23, 0.0025616393, 0.06591062, -68803.23, 77583.51, 0.00002862313, 10.001229, 9.998347 
1.0450582e+3, 2.9506215e+2, -140518.16, -280604.44, -48251.066, 0.06168346, 0.14612655, -125507.16, -77112.76, 0.00014660136, 10.000134, 9.998305 
1.0450584e+3, 3.0506006e+2, -72965.64, -230821.31, -42967.44, 0.05507641, 0.11784276, -62028.0, -62028.0, 0.00042212423, 10.000331, 9.998217 
1.04505874e+3, 3.1505916e+2, 166942.06, 1075.3745, -77390.555, 0.10604007, 0.16596985, 197442.56, 197442.56, 0.00085377786, 10.001361, 9.999329 
1.05503954e+3, 1.2507029e+2, -1932023.6, -1745257.6, -94627.53, -0.086368024, 0.048671853, -1705694.3, 8619.76, 0.00039971265, 9.998085, 10.000698 
1.0550409e+3, 1.3507065e+2, -1666885.1, -1602319.1, 37579.727, -0.00944699, 0.011568589, -1585059.9, 31251.938, 0.00016604259, 9.999455, 10.000349 
1.055041e+3, 1.4507145e+2, -1520882.9, -1457321.6, 24088.379, -0.06357324, 0.057208613, -1449224.1, 69078.74, 0.000032768716, 9.9996805, 10.000534 
1.0550424e+3, 1.5507263e+2, -1508620.6, -1405089.3, 41842.17, -0.012613004, 0.07868338, -1390293.3, 29993.879, 0.0000008393984, 9.999122, 10.000491 
1.05504334e+3, 1.650726e+2, -1486177.6, -1472056.3, 27917.762, -0.018738246, 0.090988204, -1450320.1, -128033.86, 0.0, 9.999155, 9.999351 
1.05504416e+3, 1.7507097e+2, -1289683.8, -1330421.1, 33855.684, -0.050171897, -0.042226035, -1270541.9, -46237.97, 0.0, 9.999848, 9.999315 
1.0550449e+3, 1.850704e+2, -1169042.6, -1148737.6, -43049.59, -0.04091296, -0.056782596, -1114659.5, 11648.82, 0.0, 9.999681, 9.999969 
1.0550454e+3, 1.9507052e+2, -1184892.8, -1112509.9, -37885.254, 0.0043528215, -0.07497471, -1096307.5, -68004.25, 0.0, 9.99892, 9.999916 
1.0550466e+3, 2.0507075e+2, -1055937.6, -1026026.44, 39691.09, 0.010955688, -0.02459366, -998566.75, -68268.234, 0.0, 9.999257, 9.999675 
1.0550487e+3, 2.1507064e+2, -757706.8, -839472.5, 86046.69, -0.021831546, -0.03609459, -703324.56, 128973.914, 0.0, 10.000664, 9.999606 
1.0550502e+3, 2.2506957e+2, -714588.94, -955602.06, 28691.742, -0.058759116, -0.010977465, -711220.4, 23089.707, 0.0, 10.001096, 9.997923 
1.05505124e+3, 2.3506719e+2, -684284.2, -894117.8, -549.09436, -0.09838568, -0.07591231, -684282.75, -47945.96, 0.0, 10.000637, 9.997898 
1.05505295e+3, 2.4506578e+2, -577287.9, -717510.2, -17746.678, -0.08997837, -0.031707387, -575076.75, -36724.37, 0.0, 10.000399, 9.998546 
1.0550554e+3, 2.55065e+2, -483524.63, -624361.44, 8577.03, -0.031697176, -0.002602786, -483004.2, -42643.75, 0.0, 10.000384, 9.998516 
1.0550571e+3, 2.6506355e+2, -360460.97, -558118.1, -35287.258, -0.012022879, 0.031091306, -354350.16, -11974.845, 0.000000000012280949, 10.000735, 9.998141 
1.0550581e+3, 2.7506122e+2, -178277.81, -423154.13, -19342.174, -0.03888533, -0.054977227, -176759.44, 67640.45, 0.0000016155456, 10.00131, 9.998118 
1.0550583e+3, 2.8506005e+2, -68590.71, -248225.56, -98385.55, -0.03335427, -0.006094909, -25190.693, 121221.94, 0.000025306648, 10.001101, 9.998741 
1.05505824e+3, 2.9505962e+2, -133873.9, -237688.94, -61897.363, 0.01197597, 0.03415282, -104999.78, -56581.543, 0.00013793015, 10.0000105, 9.998665 
1.05505906e+3, 3.0505785e+2, -83009.08, -228702.39, -10168.733, 0.05737771, 0.022132806, -82302.766, -82302.766, 0.00040720604, 10.00023, 9.998278 
1.0550613e+3, 3.1505758e+2, 120084.234, -37466.813, 14134.012, 0.14648835, 0.12565197, 121342.164, 121342.164, 0.0008331317, 10.001112, 9.999183 
1.06503785e+3, 1.2506923e+2, -1902897.6, -1731775.4, -77051.48, -0.061671652, 0.02815202, -1702194.8, 12129.387, 0.00047318285, 9.998319, 10.000673 
1.0650407e+3, 1.350702e+2, -1816403.8, -1666236.9, -26955.941, 0.09620197, 0.051695228, -1661544.8, -45227.797, 0.00020250746, 9.998424, 10.000401 
1.0650405e+3, 1.4507104e+2, -1696304.9, -1552785.3, -27092.213, -0.009253667, 0.104753256, -1547841.3, -29533.639, 0.000042863663, 9.998508, 10.000459 
1.0650417e+3, 1.5507148e+2, -1534258.3, -1423944.5, -51139.367, 0.03184585, 0.05983555, -1403885.0, 16413.64, 0.0000013547858, 9.998965, 10.000444 
1.0650426e+3, 1.650713e+2, -1489036.3, -1463524.3, 5095.1196, 0.007551106, 0.05253313, -1462544.4, -140245.78, 0.0, 9.999086, 9.999447 
1.0650434e+3, 1.7507008e+2, -1424188.5, -1383882.4, 3791.727, -0.04915022, -0.042861264, -1383528.8, -159217.9, 0.0, 9.998877, 9.999423 
1.0650447e+3, 1.8506938e+2, -1230612.1, -1218440.1, -17457.547, -0.016160283, -0.058653176, -1206038.1, -79721.66, 0.0, 9.999419, 9.9996195 
1.06504604e+3, 1.9506884e+2, -943717.1, -1036195.44, -45203.8, 0.09390815, -0.1106809, -925292.25, 103026.77, 0.0, 10.000735, 9.999569 
1.0650474e+3, 2.0506872e+2, -836484.6, -935618.7, 24129.441, 0.08935311, -0.06845054, -830923.44, 99394.51, 0.0, 10.000835, 9.99953 
1.0650488e+3, 2.1506876e+2, -893963.4, -917936.6, -36359.855, -0.021400927, -0.050782476, -867665.3, -35348.668, 0.0, 9.999795, 9.99948 
1.0650503e+3, 2.2506784e+2, -920625.94, -1052402.0, -47356.3, -0.07117633, -0.0056718388, -905373.06, -171045.73, 0.0, 9.999664, 9.99795 
1.06505215e+3, 2.3506565e+2, -718738.44, -903598.5, -13727.694, -0.05470924, -0.053234283, -717724.56, -81371.51, 0.0, 10.000378, 9.9979515 
1.0650541e+3, 2.4506438e+2, -498019.66, -649422.75, 41238.47, -0.032102574, -0.014405346, -487516.0, 50851.043, 0.0, 10.000802, 9.998821 
1.06505625e+3, 2.5506356e+2, -386421.38, -553799.7, 33815.68, -0.006217975, -0.011731625, -379847.72, 60525.977, 0.0, 10.000923, 9.9987545 
1.065058e+3, 2.6506212e+2, -319538.84, -522988.03, 41444.492, -0.00086976093, 0.0039020448, -311420.2, 30967.24, 0.0, 10.000951, 9.99827 
1.0650593e+3, 2.7505994e+2, -245998.55, -434254.75, 35110.348, -0.009289328, -0.08142886, -239663.53, 4746.5283, 0.00000091217555, 10.000772, 9.998289 
1.0650596e+3, 2.850587e+2, -114108.125, -299769.75, -39410.938, -0.0018702634, -0.03676769, -106088.64, 40335.004, 0.000020761427, 10.000901, 9.99849 
1.0650591e+3, 2.950579e+2, 41535.77, -181933.23, -86668.09, 0.03440292, -0.00851502, 71208.336, 119642.15, 0.00012637535, 10.001312, 9.998427 
1.0650602e+3, 3.0505615e+2, 91929.18, -121183.89, 8924.237, 0.1028023, -0.016885146, 92302.234, 92302.234, 0.00038601994, 10.00133, 9.99848 
1.0650631e+3, 3.15056e+2, 65188.867, -40256.164, -18740.387, 0.26789448, 0.073343046, 68420.49, 68420.49, 0.0008001297, 10.00064, 9.999373 
1.0750371e+3, 1.2506698e+2, -1918507.9, -1753626.1, -78320.17, -0.050024547, -0.026310837, -1722354.4, -8008.7607, 0.00055371417, 9.998298, 10.000522 
1.0750389e+3, 1.3506918e+2, -1827914.5, -1679600.6, -15656.709, 0.048296366, 0.12400993, -1677965.8, -61638.316, 0.00024334127, 9.998392, 10.000317 
1.07503824e+3, 1.450697e+2, -1695344.0, -1557274.3, -36801.184, -0.1430977, 0.15093982, -1548077.8, -29756.39, 0.00005483326, 9.99852, 10.00043 
1.07504115e+3, 1.5506832e+2, -1532189.3, -1425241.6, -17674.023, 0.034955304, -0.07484661, -1422396.5, -2067.0215, 0.000002073113, 9.998977, 10.000436 
1.0750423e+3, 1.6506813e+2, -1463756.5, -1395490.5, -23254.697, 0.03941652, -0.105222866, -1388321.6, -65993.625, 0.0000000000166348, 9.99903, 9.999936 
1.07504226e+3, 1.7506872e+2, -1397500.9, -1313425.8, 13468.535, -0.09358902, -0.07386798, -1311320.9, -87000.57, 0.0, 9.998817, 9.99993 
1.075044e+3, 1.850685e+2, -1273162.4, -1279127.9, 14875.099, -0.057757854, -0.04775467, -1260974.0, -134653.42, 0.0, 9.999306, 9.999256 
1.0750476e+3, 1.9506702e+2, -991136.0, -1096259.8, 18578.215, 0.1398968, -0.15756318, -987949.3, 40383.785, 0.0, 10.000579, 9.999228 
1.075049e+3, 2.050658e+2, -942081.2, -1115036.4, -35895.914, 0.12622221, -0.15333872, -934927.1, -4581.418, 0.0, 10.000659, 9.998388 
1.0750481e+3, 2.150645e+2, -998491.25, -1090720.6, -59591.723, -0.094966516, -0.15653141, -969255.2, -136893.75, 0.0, 9.999598, 9.998393 
1.0750494e+3, 2.2506402e+2, -862807.75, -875752.3, -34856.105, -0.15338035, -0.08050177, -833828.1, -99460.49, 0.0, 9.999425, 9.999278 
1.0750528e+3, 2.3506398e+2, -660211.9, -728337.7, 33654.926, -0.05561914, -0.049306564, -646390.2, -10021.974, 0.0, 10.000148, 9.999267 
1.07505515e+3, 2.4506325e+2, -519973.97, -639163.6, 31970.06, -0.027619343, -0.027234524, -511940.2, 26433.666, 0.0, 10.000571, 9.998997 
1.0750569e+3, 2.550615e+2, -395236.2, -531454.25, 56975.258, -0.07145692, -0.13830179, -374547.6, 65840.55, 0.0, 10.0007515, 9.998984 
1.07505836e+3, 2.650604e+2, -322537.47, -483779.78, 17729.436, -0.08711592, -0.123824365, -320611.03, 21787.076, 0.000000000031670343, 10.000763, 9.9986315 
1.0750597e+3, 2.750595e+2, -247666.81, -401170.84, 50919.367, -0.07691779, -0.11595999, -232312.08, 12095.717, 0.00000057346807, 10.000617, 9.998596 
1.0750603e+3, 2.8505847e+2, -187186.52, -425541.2, -41760.63, -0.056761384, -0.018344916, -180081.69, -33661.066, 0.000016841232, 10.000791, 9.997676 
1.07506014e+3, 2.9505712e+2, -35098.938, -305333.16, -46357.664, -0.028795859, 0.031792954, -27367.646, 21071.842, 0.000114238224, 10.001159, 9.997653 
1.07506126e+3, 3.0505502e+2, 94513.99, -91863.88, -21765.375, 0.047732785, 0.0117660165, 97022.02, 97022.02, 0.0003625103, 10.001228, 9.998729 
1.0750636e+3, 3.1505418e+2, 47733.15, -35247.047, 16421.768, 0.16316085, 0.0014667907, 50864.824, 50864.824, 0.00076317973, 10.00046, 9.9995 
1.0850359e+3, 1.2506576e+2, -1769552.9, -1718005.4, 62566.36, -0.03659149, -0.05202981, -1676112.0, 38242.098, 0.00064071716, 9.999425, 10.000245 
1.0850378e+3, 1.3506731e+2, -1773040.1, -1678924.1, 2187.8528, 0.086832866, 0.05467756, -1678873.3, -62531.16, 0.00028839763, 9.99885, 10.000114 
1.085037e+3, 1.4506757e+2, -1689948.4, -1561091.5, 50958.65, -0.10934588, 0.07190102, -1543374.9, -25035.77, 0.00006873226, 9.998632, 10.000321 
1.08504064e+3, 1.5506665e+2, -1501835.5, -1421764.9, 16218.945, 0.08554692, -0.09707621, -1418604.4, 1740.0282, 0.0000030594845, 9.999262, 10.000306 
1.08504236e+3, 1.6506653e+2, -1360480.4, -1356124.4, 2597.5059, 0.10957883, -0.11201324, -1354912.6, -32570.102, 0.000000000186287, 9.999774, 9.999849 
1.08504236e+3, 1.7506683e+2, -1201131.5, -1231745.3, -41925.598, -0.018096907, -0.10187488, -1171805.9, 52530.848, 0.0, 10.000207, 9.999824 
1.0850441e+3, 1.8506652e+2, -1163556.6, -1245140.9, -9803.853, -0.007685647, -0.06951685, -1162395.0, -36056.887, 0.0, 10.000137, 9.999097 
1.0850475e+3, 1.9506527e+2, -1154345.1, -1191343.1, -25766.398, 0.13186368, -0.13639148, -1141124.8, -112775.02, 0.0, 9.999545, 9.999074 
1.0850489e+3, 2.0506407e+2, -1085941.0, -1188176.8, -14072.21, 0.11587271, -0.12016678, -1084039.4, -153676.52, 0.0, 9.9997, 9.99834 
1.0850486e+3, 2.150625e+2, -860936.1, -1032394.9, 2896.0178, -0.055716876, -0.14623834, -860887.25, -28505.824, 0.0, 10.0005865, 9.998313 
1.08504996e+3, 2.2506195e+2, -659537.9, -762210.9, 58662.195, -0.10439125, -0.079986945, -632921.25, 101466.73, 0.0, 10.000753, 9.999424 
1.0850531e+3, 2.3506206e+2, -644130.7, -706487.56, -2524.9937, -0.0332353, -0.043521505, -644028.6, -7642.4434, 0.0, 10.000195, 9.999403 
1.0850557e+3, 2.4506125e+2, -593332.4, -684244.44, -18136.252, -0.0029985812, -0.03360389, -589847.9, -51455.258, 0.0, 10.0000925, 9.998938 
1.08505785e+3, 2.5505918e+2, -467535.53, -571735.6, -43086.59, -0.009911268, -0.1670326, -452027.38, -11616.895, 0.0, 10.000281, 9.998944 
1.0850594e+3, 2.6505834e+2, -366497.06, -452848.72, -68351.375, -0.022125276, -0.1458586, -328826.97, 13590.326, 0.000000020287489, 10.000231, 9.999096 
1.0850603e+3, 2.7505824e+2, -310801.88, -381768.3, -67070.34, -0.036772877, -0.10412999, -270406.97, -25989.291, 0.0000009682407, 9.999956, 9.999047 
1.08506106e+3, 2.8505734e+2, -274095.72, -476107.03, -61697.195, -0.026821973, -0.016162325, -256743.08, -110314.47, 0.000016002106, 10.000245, 9.997585 
1.08506165e+3, 2.9505542e+2, -73156.555, -324995.2, -60426.05, 0.026654484, -0.0128112035, -59408.477, -10956.286, 0.00010691048, 10.000923, 9.9976225 
1.08506285e+3, 3.05053e+2, 102305.78, -86929.12, -11405.662, 0.097544044, -0.06256528, 102990.75, 102990.75, 0.00034615427, 10.001284, 9.998757 
1.0850645e+3, 3.1505212e+2, 129185.484, 649.0294, -52640.414, 0.19227067, -0.06582073, 147992.03, 147992.03, 0.00073994894, 10.001054, 9.999472 
1.0950342e+3, 1.2506554e+2, -1787353.4, -1743131.3, 62926.832, -0.22661823, -0.0574923, -1698543.9, 15806.078, 0.000734217, 9.999373, 10.0001 
1.0950367e+3, 1.3506486e+2, -1782791.1, -1708722.0, -9743.34, 0.06563839, -0.15451199, -1707461.9, -91103.64, 0.00033773432, 9.998876, 9.999904 
1.0950365e+3, 1.4506479e+2, -1717530.6, -1610931.9, 51189.26, -0.07178931, -0.14156613, -1590331.5, -71971.93, 0.0000845864, 9.998607, 9.9999895 
1.0950398e+3, 1.5506643e+2, -1535432.5, -1474689.5, 57115.33, 0.038246166, -0.020186154, -1440372.6, -20028.979, 0.0000043925156, 9.999202, 9.999969 
1.0950421e+3, 1.6506645e+2, -1408949.4, -1453328.8, -2035.566, 0.070195034, 0.030795427, -1408856.3, -86513.914, 0.0000000006358386, 9.999749, 9.999199 
1.0950436e+3, 1.7506438e+2, -1247567.3, -1327488.8, -8885.145, 0.04212411, -0.13146263, -1246591.4, -22231.27, 0.0, 10.000193, 9.999177 
1.09504454e+3, 1.850636e+2, -1172865.1, -1246593.4, -52597.28, -0.0053819306, -0.11586362, -1145499.6, -19132.121, 0.0, 10.000065, 9.999119 
1.0950453e+3, 1.9506375e+2, -1170850.3, -1192120.8, -30598.203, -0.063249595, -0.047892828, -1149091.6, -120724.055, 0.0, 9.999405, 9.999133 
1.095047e+3, 2.0506355e+2, -1044547.1, -1066735.0, 1143.6317, -0.074279346, 0.019357683, -1044488.3, -114118.45, 0.0, 9.9995365, 9.999256 
1.0950495e+3, 2.1506265e+2, -823801.25, -912805.7, 52036.4, -0.042232174, -0.03136454, -799832.75, 32544.893, 0.0, 10.000396, 9.999229 
1.0950514e+3, 2.250615e+2, -777315.0, -950527.3, 18297.057, -0.06175879, -0.010962984, -775403.3, -41013.88, 0.0, 10.000516, 9.998242 
1.0950526e+3, 2.3505971e+2, -759199.75, -892138.4, -7131.1406, -0.1306883, -0.05062103, -758818.3, -122409.18, 0.0, 9.999964, 9.998238 
1.09505504e+3, 2.450582e+2, -643068.6, -732407.9, -27641.676, -0.09843589, -0.041387334, -635207.94, -96782.94, 0.0, 9.999864, 9.998713 
1.095059e+3, 2.5505662e+2, -514201.3, -619083.3, -15933.175, 0.03729945, -0.106157266, -511834.25, -71393.984, 0.0, 10.000073, 9.998716 
1.0950608e+3, 2.650562e+2, -360420.06, -392119.16, -90702.67, 0.059279464, -0.058914714, -284192.56, 58250.523, 0.00000010014453, 10.000029, 9.999608 
1.0950607e+3, 2.7505633e+2, -294524.3, -315672.0, -51923.625, -0.035962645, -0.042158123, -252108.83, -7670.203, 0.0000018117424, 9.999815, 9.999572 
1.0950613e+3, 2.850551e+2, -256540.86, -408100.3, -52298.65, -0.055839114, -0.03822193, -240246.08, -93797.04, 0.000017402066, 10.0001135, 9.998111 
1.095063e+3, 2.950524e+2, -57405.844, -261488.97, -13015.428, 0.020976305, -0.17415172, -56579.133, -8103.3535, 0.00010435712, 10.000787, 9.998124 
1.09506436e+3, 3.0504993e+2, 63253.27, -132532.1, -35216.24, 0.09153675, -0.24149923, 69395.01, 69395.01, 0.00033796718, 10.001145, 9.998504 
1.09506495e+3, 3.1504968e+2, 71444.1, -69254.71, -8352.446, 0.06367115, -0.15172689, 71938.2, 71938.2, 0.00073108607, 10.000836, 9.9991 
1.1050332e+3, 1.2506369e+2, -2043347.1, -1835025.6, 73099.016, -0.14655553, -0.08357775, -1811934.9, -97568.99, 0.00083503575, 9.997516, 10.000324 
1.10503554e+3, 1.3506338e+2, -1768443.3, -1677942.6, -91301.766, 0.06691899, -0.16701424, -1621293.0, -4923.577, 0.0003918232, 9.99889, 10.000087 
1.1050366e+3, 1.4506322e+2, -1605853.3, -1616266.8, 24326.318, 0.03520404, -0.15283486, -1586182.8, -67810.34, 0.000102570426, 9.999582, 9.999508 
1.1050396e+3, 1.5506439e+2, -1472382.4, -1501128.1, -13344.781, 0.0721911, -0.02843725, -1467142.4, -46779.65, 0.0000061708192, 9.99984, 9.999498 
1.105042e+3, 1.6506413e+2, -1384050.1, -1450158.5, -17622.633, 0.081606425, 0.02249779, -1379645.9, -57280.727, 0.0000000015512864, 9.999974, 9.999098 
1.1050442e+3, 1.7506206e+2, -1251424.1, -1333953.9, -23032.451, 0.08585248, -0.13325562, -1245431.4, -21047.98, 0.0, 10.000212, 9.999106 
1.1050451e+3, 1.8506128e+2, -1153365.5, -1241459.5, -44164.83, 0.034401596, -0.11213185, -1135037.3, -8646.407, 0.0, 10.000224, 9.999073 
1.1050448e+3, 1.9506136e+2, -1085558.4, -1155353.1, -64643.78, -0.07499955, -0.047534388, -1046993.9, -18602.047, 0.0, 10.00001, 9.999092 
1.10504664e+3, 2.0506112e+2, -972049.2, -1023344.25, 6851.136, -0.08331139, 0.01401283, -971149.9, -40755.727, 0.0, 9.999992, 9.999339 
1.10505015e+3, 2.1506022e+2, -840217.3, -912347.2, -41302.938, 0.0016279874, -0.04172848, -821449.7, 10951.525, 0.0, 10.000236, 9.999314 
1.1050524e+3, 2.2505906e+2, -803767.0, -961469.1, -58253.758, 0.0032643236, -0.027231256, -784582.4, -50169.605, 0.0, 10.000331, 9.998248 
1.1050531e+3, 2.3505731e+2, -712786.9, -867300.6, -28689.768, -0.073556565, -0.06482823, -707631.8, -71199.54, 0.0, 10.000282, 9.998246 
1.1050555e+3, 2.4505608e+2, -591531.56, -675700.7, 55858.64, -0.04725133, -0.04242352, -563678.3, -25232.99, 0.0, 10.000094, 9.998976 
1.1050593e+3, 2.55055e+2, -536305.9, -598848.2, 59185.145, 0.08809679, -0.0813365, -500638.5, -60183.32, 0.0, 9.999796, 9.998975 
1.10506125e+3, 2.6505443e+2, -387024.0, -426912.53, 15432.895, 0.113007866, -0.052626293, -381750.25, -39290.586, 0.00000018749917, 9.999931, 9.999427 
1.1050614e+3, 2.750539e+2, -227489.38, -299974.7, -35382.105, 0.0334419, -0.08704371, -213082.02, 31380.926, 0.0000025365616, 10.000357, 9.99942 
1.1050625e+3, 2.8505275e+2, -126759.59, -295649.5, -5713.113, 0.022835273, -0.09170573, -126566.555, 19905.531, 0.000019295574, 10.000775, 9.998582 
1.1050647e+3, 2.950508e+2, 16528.777, -177394.44, -11782.621, 0.1119471, -0.18696454, 17242.057, 65730.89, 0.00010487227, 10.00108, 9.998573 
1.1050662e+3, 3.0504847e+2, 98267.836, -155405.08, -16768.145, 0.1465427, -0.24937707, 99371.43, 99371.43, 0.00033641586, 10.001512, 9.998174 
1.105066e+3, 3.1504774e+2, 151642.56, -54098.656, -54408.117, 0.07746174, -0.19161348, 165144.66, 165144.66, 0.0007307893, 10.001485, 9.998874 
1.115032e+3, 1.250607e+2, -2007551.5, -1761677.8, 88049.836, -0.11341315, -0.12542363, -1733398.8, -19001.76, 0.000944546, 9.997525, 10.000827 
1.1150337e+3, 1.3506293e+2, -1745304.9, -1631576.6, -24808.441, -0.049216338, 0.014424083, -1626400.5, -10025.219, 0.00045159098, 9.998888, 10.000414 
1.11503676e+3, 1.4506279e+2, -1637965.9, -1677456.8, 8751.359, 0.04707794, 0.03455438, -1636113.4, -117735.74, 0.00012308804, 9.999569, 9.999091 
1.1150396e+3, 1.5506075e+2, -1507928.0, -1569718.5, 11494.229, 0.043889828, -0.11629322, -1505859.1, -85460.01, 0.000008505592, 9.999824, 9.999035 
1.1150416e+3, 1.6505982e+2, -1360696.5, -1394607.1, -30447.53, -0.0015649463, -0.12906855, -1342801.6, -20393.203, 0.0000000033697685, 9.999935, 9.999506 
1.1150436e+3, 1.7505988e+2, -1226638.0, -1274890.1, 2249.9966, -0.024942914, -0.10949793, -1226533.4, -2127.4897, 0.0, 10.000167, 9.999545 
1.11504495e+3, 1.850595e+2, -1172814.6, -1264744.4, -70529.21, -0.03437821, -0.065315224, -1134594.4, -8185.6616, 0.0, 10.000148, 9.998951 
1.1150454e+3, 1.9505821e+2, -1117311.6, -1188647.9, -57595.875, -0.04878336, -0.12533283, -1085233.9, -56812.684, 0.0, 9.999872, 9.998928 
1.1150471e+3, 2.0505694e+2, -1047441.0, -1144280.6, -6124.108, -0.056758113, -0.11963921, -1047055.25, -116621.1, 0.0, 9.99984, 9.998579 
1.11505e+3, 2.1505526e+2, -926819.06, -1039012.75, -14461.945, -0.060839962, -0.18366823, -924984.94, -92533.17, 0.0, 10.000009, 9.998551 
1.1150525e+3, 2.250547e+2, -751627.75, -801664.44, -76058.23, -0.04502294, -0.12962264, -696578.8, 37878.563, 0.0, 10.0001135, 9.99945 
1.1150544e+3, 2.35055e+2, -662373.5, -707973.44, -12848.406, 0.0035925873, -0.081884846, -659002.5, -22548.225, 0.0, 10.0000515, 9.999453 
1.1150565e+3, 2.4505495e+2, -576531.44, -597299.0, 29455.666, 0.013944516, -0.03296009, -555682.9, -17229.945, 0.0, 9.9998865, 9.999615 
1.1150584e+3, 2.550542e+2, -518696.34, -523573.13, 67502.38, -0.0074743005, -0.106548786, -453588.3, -13131.277, 0.0, 9.999621, 9.9995775 
1.11506015e+3, 2.650529e+2, -472596.63, -565865.1, 14092.645, -0.008791862, -0.13179621, -470513.78, -128044.81, 0.00000020790911, 9.999765, 9.998549 
1.1150619e+3, 2.7505073e+2, -307509.84, -432550.75, 3221.0867, 0.01244178, -0.24789585, -307426.9, -62934.637, 0.0000030041283, 10.000205, 9.998582 
1.11506395e+3, 2.850502e+2, -126395.375, -248046.14, -9587.542, 0.064572506, -0.17062868, -125644.4, 20853.143, 0.000021785861, 10.000588, 9.998993 
1.1150664e+3, 2.9505083e+2, 19484.041, -132047.39, 30296.797, 0.13230892, -0.05058924, 25316.975, 73806.914, 0.00010887074, 10.0009165, 9.998962 
1.1150676e+3, 3.0504867e+2, 46709.613, -228464.13, -24976.605, 0.11621674, -0.09047527, 48958.28, 48958.28, 0.00034133886, 10.001372, 9.997736 
1.1150668e+3, 3.150457e+2, 89670.2, -134305.22, 13026.701, -0.07830141, -0.20860267, 90425.305, 90425.305, 0.0007375019, 10.001271, 9.998428 
1.1250321e+3, 1.2505826e+2, -1848625.3, -1656375.5, 85404.055, 0.11763215, -0.07567222, -1623916.4, 90506.734, 0.0010643419, 9.998486, 10.001103 
1.1250315e+3, 1.3506006e+2, -1805423.8, -1631393.0, -59067.938, -0.115636945, -0.0015744906, -1613238.5, 3165.4185, 0.00051804923, 9.998353, 10.000678 
1.1250361e+3, 1.4506014e+2, -1758158.8, -1706076.9, 51199.184, 0.0824504, 0.01511875, -1674676.6, -156273.55, 0.00014661087, 9.998621, 9.999344 
1.1250393e+3, 1.5505838e+2, -1528229.5, -1546791.4, 62068.496, 0.06639912, -0.13961837, -1474751.9, -54330.434, 0.00001150662, 9.999557, 9.999308 
1.1250416e+3, 1.650578e+2, -1408590.4, -1417096.8, 43895.53, 0.029359495, -0.13152115, -1368742.5, -46314.676, 0.0000000061074554, 9.999603, 9.999514 
1.1250435e+3, 1.750582e+2, -1411800.6, -1360718.4, 9688.065, 0.016787857, -0.08045411, -1358942.6, -134518.89, 0.0, 9.998885, 9.999572 
1.12504505e+3, 1.8505783e+2, -1298003.8, -1317219.1, -5036.369, 0.013410469, -0.03929736, -1296763.8, -170337.2, 0.0, 9.999252, 9.999025 
1.1250462e+3, 1.950562e+2, -985029.4, -1124747.8, -10288.094, -0.002381515, -0.13964076, -984275.9, 44165.38, 0.0, 10.000744, 9.998965 
1.1250477e+3, 2.0505483e+2, -902316.25, -1085768.0, 70808.5, -0.0220698, -0.13762337, -878165.1, 52289.914, 0.0, 10.000906, 9.998458 
1.1250502e+3, 2.1505336e+2, -946197.1, -1055527.3, 68899.98, -0.040889163, -0.16777523, -912910.6, -80438.93, 0.0, 9.999927, 9.998467 
1.1250525e+3, 2.2505286e+2, -809930.9, -799811.44, 49887.383, -0.019960007, -0.12202176, -754727.8, -20251.25, 0.0, 9.999564, 9.999741 
1.1250548e+3, 2.3505305e+2, -660905.2, -673480.8, 10669.716, 0.04808191, -0.11084998, -654808.3, -18336.166, 0.0, 9.999898, 9.999767 
1.1250569e+3, 2.4505307e+2, -541775.8, -570374.94, 24257.352, 0.062893055, -0.075673066, -527916.94, 10552.591, 0.0, 10.00009, 9.999705 
1.1250586e+3, 2.5505263e+2, -437881.47, -473644.72, -11475.05, 0.030232027, -0.1262122, -434516.22, 5955.473, 0.0, 10.000147, 9.999672 
1.1250603e+3, 2.650516e+2, -414729.06, -523481.2, -2630.0308, 0.015694179, -0.13435784, -414665.5, -72184.3, 0.00000016860811, 10.000111, 9.998671 
1.1250619e+3, 2.7504963e+2, -332242.5, -431676.72, 16154.4, 0.023225509, -0.23914582, -329683.84, -85181.81, 0.0000038179373, 9.9999895, 9.998686 
1.1250644e+3, 2.850491e+2, -171271.84, -299680.16, 66261.7, 0.07972053, -0.15192698, -143211.23, 3297.2236, 0.000026510976, 10.000395, 9.99873 
1.12506784e+3, 2.950497e+2, 33104.74, -147990.52, 13030.794, 0.18374199, -0.017517257, 34037.57, 82542.14, 0.00011807009, 10.001114, 9.998746 
1.1250693e+3, 3.050478e+2, 86503.625, -176223.72, -18379.104, 0.15975064, -0.02999448, 87783.1, 87783.1, 0.0003550206, 10.001525, 9.998024 
1.1250684e+3, 3.1504574e+2, 108593.3, -97229.016, 9548.161, -0.03974256, -0.07883145, 109035.29, 109035.29, 0.0007557848, 10.001275, 9.998697 
1.13503076e+3, 1.25056e+2, -1850079.0, -1653406.8, -54007.1, 0.05380511, 0.030946638, -1639552.1, 74895.21, 0.0011953667, 9.998479, 10.001118 
1.1350283e+3, 1.3505483e+2, -1788138.4, -1587668.3, -51536.633, -0.3010826, -0.22081278, -1575195.3, 41259.54, 0.00059164723, 9.998332, 10.000984 
1.13503404e+3, 1.4505558e+2, -1688204.1, -1558969.9, 67158.47, -0.03198594, -0.20478383, -1530390.3, -11944.529, 0.00017336896, 9.998613, 10.000359 
1.1350386e+3, 1.5505752e+2, -1460188.6, -1401901.0, 117487.3, 0.00035793768, -0.08650152, -1309996.8, 110430.24, 0.000015247707, 9.999538, 10.000313 
1.1350415e+3, 1.6505818e+2, -1441561.9, -1480160.4, -4041.6614, 0.015105544, 0.016376061, -1441143.3, -118720.95, 0.000000009421829, 9.999578, 9.999091 
1.1350432e+3, 1.7505711e+2, -1445783.4, -1428040.8, -3211.3345, 0.06454705, -0.03641058, -1427477.4, -203041.72, 0.0, 9.998872, 9.999114 
1.1350448e+3, 1.850563e+2, -1284834.4, -1276053.9, 30429.3, 0.037657496, -0.031997394, -1249699.8, -123255.71, 0.0, 9.999187, 9.999344 
1.1350464e+3, 1.950554e+2, -988366.0, -1087966.0, 62559.957, -0.07548771, -0.092348315, -958204.9, 70246.27, 0.0, 10.000554, 9.999311 
1.1350481e+3, 2.0505494e+2, -901726.4, -1042118.6, 13958.891, -0.11488658, -0.03868336, -900351.9, 30103.813, 0.0, 10.000721, 9.99885 
1.13505006e+3, 2.1505457e+2, -954023.0, -1016719.75, 45448.234, -0.064836495, 0.00490557, -930160.3, -97699.17, 0.0, 9.999693, 9.998849 
1.13505185e+3, 2.2505353e+2, -879686.75, -897604.8, 41965.305, -0.054006107, 0.008193578, -845734.8, -111264.61, 0.0, 9.999354, 9.999169 
1.1350537e+3, 2.3505144e+2, -738370.75, -779287.56, 40087.906, -0.08177183, -0.15508048, -713822.6, -77335.99, 0.0, 9.999656, 9.99916 
1.1350562e+3, 2.4505046e+2, -606601.56, -653930.7, 9414.136, -0.049651522, -0.16498046, -604797.75, -66302.586, 0.0, 9.99987, 9.999234 
1.1350593e+3, 2.550503e+2, -494950.84, -550208.6, 8633.548, 0.06081923, -0.14232689, -493633.34, -53134.656, 0.0, 9.999962, 9.999236 
1.135061e+3, 2.650505e+2, -363324.2, -382454.9, -21622.857, 0.050939556, -0.061997276, -349245.4, -6749.4565, 0.00000020663475, 9.99996, 9.999716 
1.1350613e+3, 2.7505046e+2, -284234.56, -301682.53, 35396.93, -0.08259154, -0.06982211, -256502.4, -12009.598, 0.0000055002247, 9.999852, 9.999651 
1.1350636e+3, 2.8504935e+2, -260257.7, -444362.7, 74170.164, -0.07878745, -0.04741346, -234094.83, -87588.695, 0.000033703815, 10.000236, 9.997806 
1.13506846e+3, 2.95047e+2, -56538.773, -291644.03, 62127.098, 0.08658201, -0.11149976, -41131.27, 7405.068, 0.00013271971, 10.000928, 9.997849 
1.1350708e+3, 3.0504566e+2, 126298.24, -43385.94, -40080.84, 0.118018664, -0.07939083, 135289.27, 135289.27, 0.00037893685, 10.001319, 9.999034 
1.13506936e+3, 3.1504768e+2, 148390.48, 42958.03, 50521.625, -0.13508764, 0.17816293, 168690.94, 168690.94, 0.00079122034, 10.001032, 9.999777 
1.1450306e+3, 1.2505445e+2, -1966012.1, -1790267.1, 18055.557, 0.23769967, 0.07879989, -1788431.3, -73970.0, 0.0013373722, 9.997994, 10.000435 
1.1450271e+3, 1.3505214e+2, -1648434.4, -1574482.6, 311.1379, -0.29797333, -0.24144116, -1574481.4, 42000.516, 0.000672049, 9.999484, 10.00054 
1.1450329e+3, 1.4505279e+2, -1517216.5, -1443692.4, 80844.305, -0.053616676, -0.22721548, -1391644.3, 126830.086, 0.0002032588, 9.999657, 10.000643 
1.1450382e+3, 1.550556e+2, -1556121.4, -1417756.9, 26935.582, 0.05676014, -0.047700863, -1412698.3, 7748.5103, 0.000019742625, 9.998758, 10.00058 
1.14504136e+3, 1.650565e+2, -1525238.5, -1512491.4, -49930.098, 0.08955373, 0.063678004, -1468529.8, -146090.2, 0.000000013934886, 9.99898, 9.999158 
1.145043e+3, 1.7505513e+2, -1213925.9, -1304914.6, -41882.254, 0.08563101, -0.028199125, -1197582.9, 26873.273, 0.0, 10.000426, 9.999206 
1.1450447e+3, 1.8505445e+2, -1123659.8, -1176837.9, 19812.434, 0.058446642, -0.023816468, -1117090.0, 9373.809, 0.0, 10.000211, 9.999522 
1.14504635e+3, 1.9505416e+2, -1294395.5, -1202719.1, -128.91983, -0.014568051, -0.04475845, -1202719.0, -174253.14, 0.0, 9.998352, 9.999559 
1.1450482e+3, 2.0505407e+2, -1217531.0, -1172995.5, 4824.1665, -0.04621331, 0.023327172, -1172479.0, -242012.58, 0.0, 9.998427, 9.999072 
1.14505045e+3, 2.1505383e+2, -831073.1, -932025.25, -3134.4749, -0.021339806, 0.054559276, -830975.9, 1493.3005, 0.0, 10.000394, 9.999106 
1.1450524e+3, 2.2505255e+2, -684975.75, -841956.25, 3535.593, -0.012082383, 0.039887905, -684896.2, 49584.176, 0.0, 10.000888, 9.9988 
1.14505395e+3, 2.3504987e+2, -710748.9, -800212.8, -23677.209, -0.024974868, -0.14617626, -704869.0, -68365.54, 0.0, 10.000016, 9.998833 
1.14505626e+3, 2.4504864e+2, -647739.75, -709007.6, 12613.77, -0.008627, -0.14968099, -645244.44, -106728.98, 0.0, 9.999721, 9.998935 
1.1450591e+3, 2.5504863e+2, -502376.5, -579496.5, -8908.17, 0.04949057, -0.083942, -501360.9, -60842.195, 0.0, 10.000025, 9.998999 
1.1450612e+3, 2.6504877e+2, -317576.06, -372299.75, -44098.42, 0.052459154, 0.0039550373, -293040.5, 49476.77, 0.00000038376965, 10.000312, 9.9996195 
1.1450622e+3, 2.750485e+2, -185960.77, -259620.94, -105013.53, 0.0033000181, -0.021698821, -111506.09, 133010.05, 0.0000075917305, 10.000548, 9.999603 
1.14506446e+3, 2.850474e+2, -239624.94, -418239.1, -23668.912, -0.0074119116, 0.0020156144, -236541.7, -90013.125, 0.000041535674, 10.000301, 9.99796 
1.14506826e+3, 2.9504547e+2, -261873.39, -369829.4, 3633.4634, 0.06357395, -0.03504121, -261751.23, -213196.6, 0.00014998692, 9.999434, 9.998031 
1.1450712e+3, 3.050442e+2, -79385.6, -109336.52, -23257.438, 0.12055382, -0.025537461, -66699.305, -66699.305, 0.00040888134, 9.99973, 9.99935 
1.14507176e+3, 3.1504604e+2, 126961.87, 82253.88, -54102.42, 0.032498952, 0.18190406, 163146.52, 163146.52, 0.0008408799, 10.000684, 10.000199 
1.1550287e+3, 1.2505285e+2, -2049020.3, -1954226.3, -55434.813, 0.17114814, -0.0110323, -1928688.4, -214216.06, 0.001489488, 9.997966, 9.999316 
1.1550274e+3, 1.3505222e+2, -1725534.3, -1727218.5, 71538.06, -0.25843424, -0.059854418, -1654833.4, -38350.25, 0.00075867696, 9.999467, 9.999487 
1.1550321e+3, 1.4505184e+2, -1560052.5, -1539593.3, 26296.586, -0.15336783, -0.064880095, -1521606.6, -3117.7686, 0.0002361324, 9.999667, 9.999992 
1.1550376e+3, 1.5505257e+2, -1591306.8, -1500777.3, 8941.569, 0.079619214, -0.031978864, -1499902.5, -79421.25, 0.000024990082, 9.998786, 10.000006 
1.1550408e+3, 1.650528e+2, -1478901.4, -1411525.3, -15331.442, 0.0931402, 0.005747681, -1408200.6, -85721.61, 0.000000023716384, 9.998967, 9.99985 
1.15504235e+3, 1.7505231e+2, -1179175.5, -1212691.0, 29356.625, -0.053017143, -0.063386925, -1162130.4, 62353.74, 0.0, 10.00035, 9.999868 
1.1550439e+3, 1.8505238e+2, -1143334.6, -1196837.0, -69513.06, -0.06776357, -0.013995598, -1095603.0, 30881.639, 0.0, 10.000122, 9.999426 
1.15504555e+3, 1.9505249e+2, -1317952.1, -1223987.3, -57048.04, 0.028221214, 0.01170782, -1197065.5, -168580.55, 0.0, 9.998231, 9.999472 
1.1550477e+3, 2.0505226e+2, -1219325.1, -1141988.9, 54669.28, 0.03028044, 0.054383136, -1113694.6, -183207.73, 0.0, 9.998274, 9.99936 
1.1550508e+3, 2.1505131e+2, -847367.6, -912355.44, 86073.29, -0.047932167, -0.012548888, -787859.0, 44635.426, 0.0, 10.0001545, 9.99936 
1.1550534e+3, 2.2505008e+2, -737061.94, -895698.94, -47495.477, -0.028317586, -0.023077141, -723929.1, 10576.553, 0.0, 10.000654, 9.998543 
1.1550554e+3, 2.3504826e+2, -761497.2, -856005.2, -39577.973, 0.085530825, -0.096446544, -747112.25, -110588.68, 0.0, 9.9998045, 9.998552 
1.1550569e+3, 2.4504754e+2, -679625.2, -728088.3, 2567.0103, 0.051567316, -0.03159791, -679489.6, -140958.28, 0.0, 9.999516, 9.998902 
1.1550576e+3, 2.5504762e+2, -535105.25, -606143.56, 18662.861, -0.13665119, 0.04433368, -530500.7, -89968.37, 0.0, 9.999836, 9.99891 
1.1550601e+3, 2.6504636e+2, -427146.56, -553913.7, -49798.4, -0.1133033, 0.057899453, -409923.94, -67378.336, 0.0000005356376, 10.000122, 9.998457 
1.1550642e+3, 2.750435e+2, -286653.8, -428992.78, -73971.93, 0.117569685, -0.11715175, -255173.67, -10599.696, 0.000008957139, 10.000379, 9.998519 
1.1550666e+3, 2.8504333e+2, -170786.11, -237137.42, -70733.8, 0.13697042, -0.013966053, -125834.336, 20741.645, 0.000047577858, 10.00014, 9.99928 
1.15506686e+3, 2.950453e+2, -188794.7, -202133.8, 755.112, -0.06239894, 0.20894583, -188752.1, -140194.14, 0.00016516355, 9.999349, 9.999231 
1.1550699e+3, 3.050434e+2, -145739.98, -198950.25, 2099.1936, 0.0037950918, 0.12873259, -145657.3, -145657.3, 0.00043860512, 9.999546, 9.998809 
1.1550741e+3, 3.150405e+2, 58503.375, -876.2698, 38406.64, 0.12584803, -0.09156398, 77357.92, 77357.92, 0.0008954558, 10.000432, 9.9997425 
1.1650269e+3, 1.2504993e+2, -1790129.9, -1822901.6, -138301.05, 0.12109979, -0.07686157, -1667247.4, 47253.348, 0.0016512593, 9.999719, 9.999362 
1.1650281e+3, 1.3505052e+2, -1814084.8, -1790168.4, 10017.108, -0.094969645, 0.02062234, -1786527.1, -170026.4, 0.0008513687, 9.998966, 9.999291 
1.1650315e+3, 1.4504983e+2, -1685587.0, -1620836.4, 43934.65, -0.12476924, 0.0039842273, -1598636.8, -80126.516, 0.00027198074, 9.998917, 9.999783 
1.16503686e+3, 1.5504952e+2, -1459168.5, -1462098.0, 15076.141, 0.081514955, -0.046515502, -1445486.1, -24973.56, 0.00003101119, 9.999808, 9.99977 
1.16504006e+3, 1.6504961e+2, -1367068.3, -1326697.3, 23240.498, 0.10578692, -0.026643444, -1316100.1, 6411.322, 0.00000004774233, 9.999584, 10.000145 
1.165042e+3, 1.7504984e+2, -1456518.9, -1319475.6, 1651.4702, -0.0032421441, -0.05228079, -1319455.8, -94946.695, 0.0, 9.9983, 10.000143 
1.1650438e+3, 1.8505014e+2, -1375627.5, -1303916.6, -70534.555, -0.005525068, 0.005797087, -1260647.3, -134140.4, 0.0, 9.998504, 9.99947 
1.16504505e+3, 1.9505014e+2, -1010644.1, -1071210.4, -79617.92, 0.068497404, 0.018795265, -955744.6, 72763.49, 0.0, 10.000317, 9.999519 
1.1650475e+3, 2.050497e+2, -883966.75, -979017.6, 73958.2, 0.072663054, 0.03789824, -843580.4, 86932.086, 0.0, 10.000599, 9.999344 
1.16505116e+3, 2.1504843e+2, -960471.7, -961043.4, 37957.44, 0.015358694, -0.06179503, -922799.0, -90275.695, 0.0, 9.999387, 9.99938 
1.1650539e+3, 2.250476e+2, -906338.1, -958269.0, -56848.676, 0.038381774, -0.042019356, -869805.75, -135274.56, 0.0, 9.999388, 9.998734 
1.165056e+3, 2.3504682e+2, -635445.0, -773949.56, -43055.867, 0.14567293, -0.031905383, -623151.7, 13388.281, 0.0, 10.000562, 9.998761 
1.1650575e+3, 2.4504626e+2, -474652.8, -641725.4, 43205.477, 0.10557115, 0.043293506, -464141.13, 74404.914, 0.0, 10.0009775, 9.998787 
1.16505824e+3, 2.5504565e+2, -419743.47, -562464.3, 16480.438, -0.084502585, 0.063070305, -417865.16, 22687.393, 0.0, 10.000676, 9.998803 
1.1650607e+3, 2.650439e+2, -385817.8, -560119.2, 15969.133, -0.073434144, 0.04765369, -384366.84, -41796.85, 0.00000056359414, 10.000522, 9.998223 
1.1650648e+3, 2.7504086e+2, -296569.06, -461126.38, 19226.14, 0.14647533, -0.117371626, -294352.63, -49752.004, 0.00000928475, 10.000441, 9.998272 
1.1650671e+3, 2.8504056e+2, -69853.56, -161354.67, 40597.773, 0.17434305, -0.031641807, -54438.01, 92164.99, 0.000050789153, 10.000696, 9.9995365 
1.16506785e+3, 2.950425e+2, 95010.44, -32329.486, -10116.9795, 0.015724795, 0.16072008, 95809.2, 144391.45, 0.00017624088, 10.001167, 9.999514 
1.1650709e+3, 3.050404e+2, 73187.414, -160742.22, 14951.77, 0.06711197, 0.07428981, 74139.195, 74139.195, 0.00046429865, 10.001316, 9.998236 
1.1650747e+3, 3.1503692e+2, 50307.242, -45718.016, -8842.436, 0.15345375, -0.13568053, 51114.707, 51114.707, 0.00094360544, 10.000538, 9.999403 
1.1750256e+3, 1.2504584e+2, -1718015.5, -1641930.6, -137512.75, -0.06270818, -0.12150505, -1537295.1, 177249.84, 0.0018234614, 9.9996195, 10.000645 
1.17502905e+3, 1.3504717e+2, -1772350.1, -1703274.5, -4447.013, 0.070758946, -0.0047085704, -1702989.4, -86455.65, 0.0009506097, 9.998978, 9.999881 
1.1750308e+3, 1.4504689e+2, -1675531.9, -1592149.0, 59318.62, -0.13730413, -0.019981408, -1561336.1, -42798.953, 0.00031097958, 9.998888, 9.999987 
1.1750354e+3, 1.5504655e+2, -1451073.9, -1441907.0, 67648.56, -0.07924302, -0.09159409, -1378686.8, 41853.07, 0.00003785508, 9.999792, 9.999914 
1.1750388e+3, 1.6504686e+2, -1385713.0, -1358047.5, -44274.344, -0.021129798, -0.044062696, -1325495.3, -2958.1313, 0.00000010132158, 9.999553, 9.999941 
1.17504165e+3, 1.750476e+2, -1474950.9, -1343600.8, -28772.379, 0.09686138, -0.007709044, -1337574.6, -113043.43, 0.0, 9.998239, 10.000004 
1.1750437e+3, 1.8504786e+2, -1370024.4, -1274453.1, -21661.473, 0.09842536, 0.039689757, -1269772.8, -143243.89, 0.0, 9.998428, 9.99971 
1.1750447e+3, 1.9504724e+2, -1013686.44, -1049411.4, 8189.5806, -0.029259978, -0.032308966, -1011898.5, 16635.582, 0.0, 10.000191, 9.999734 
1.1750471e+3, 2.0504646e+2, -938466.5, -1052690.8, 8756.464, -0.058915712, -0.03523055, -937799.1, -7257.119, 0.0, 10.000432, 9.998916 
1.1750509e+3, 2.150452e+2, -1019876.6, -1039386.94, 8419.201, 0.026554544, -0.09330964, -1016745.9, -184190.16, 0.0, 9.999186, 9.998942 
1.1750537e+3, 2.25045e+2, -888429.0, -863204.56, -32570.744, 0.04891842, -0.026205633, -840889.4, -106331.24, 0.0, 9.9991455, 9.999501 
1.1750556e+3, 2.3504558e+2, -617637.4, -673888.25, 18261.121, 0.004278608, 0.042164184, -612229.06, 24323.125, 0.0, 10.000301, 9.999566 
1.1750579e+3, 2.450449e+2, -527187.75, -698696.44, 13810.564, 0.0076648057, 0.07759855, -526082.8, 12475.877, 0.0, 10.000746, 9.998513 
1.17506064e+3, 2.5504267e+2, -458048.03, -602072.25, 21811.828, 0.059156947, -0.040608387, -454817.2, -14236.857, 0.0, 10.000502, 9.998615 
1.1750627e+3, 2.6504138e+2, -368903.94, -488245.7, -5672.594, 0.047756482, -0.03360043, -368634.9, -26043.125, 0.0000005132723, 10.000359, 9.998802 
1.1750636e+3, 2.7504054e+2, -275784.0, -389830.88, 37077.883, -0.05441312, -0.036812775, -264789.47, -20191.75, 0.000009286575, 10.000313, 9.998827 
1.17506616e+3, 2.8503907e+2, -156977.45, -302336.7, 42808.285, -0.033355176, -0.048400257, -145307.34, 1302.7811, 0.000051726838, 10.000529, 9.998647 
1.1750704e+3, 2.950367e+2, 26723.6, -149579.1, 30469.193, 0.12238925, -0.1992253, 31840.852, 80471.81, 0.00018255804, 10.001051, 9.998767 
1.17507346e+3, 3.0503476e+2, 12130.034, -237718.63, -23313.492, 0.16275755, -0.21602729, 14286.809, 14286.809, 0.0004800074, 10.001126, 9.997789 
1.1750728e+3, 3.1503546e+2, 4225.324, -69571.18, 5692.994, -0.16627859, 0.031935774, 4661.9243, 4661.9243, 0.0009690312, 10.000252, 9.999366 
1.18502416e+3, 1.2504245e+2, -1829237.6, -1660416.3, 3576.671, -0.10214308, -0.12423185, -1660340.5, 54237.563, 0.0020081834, 9.998663, 10.000994 
1.18502855e+3, 1.3504376e+2, -1767917.4, -1689948.6, -38434.438, 0.15182553, -0.030637283, -1674188.3, -57622.07, 0.0010574218, 9.998932, 10.000007 
1.18503004e+3, 1.4504394e+2, -1693522.5, -1604538.4, 64457.703, -0.08025371, -0.004028716, -1570708.5, -52143.613, 0.00035351914, 9.998755, 9.99998 
1.18503466e+3, 1.5504365e+2, -1648898.9, -1530331.3, 18892.81, -0.05496524, -0.07398061, -1527393.6, -106825.88, 0.00004562391, 9.998405, 9.999982 
1.1850381e+3, 1.6504388e+2, -1538377.4, -1434270.0, -71532.984, 0.007933911, -0.036262468, -1397855.9, -75289.81, 0.00000019883093, 9.998528, 9.999913 
1.1850408e+3, 1.7504428e+2, -1329497.4, -1270806.8, -83516.19, 0.14015405, -0.03250221, -1211630.4, 12932.545, 0.0, 9.999237, 10.000015 
1.1850431e+3, 1.850445e+2, -1194529.1, -1180929.8, 378.4479, 0.14368229, 0.0062293275, -1180919.3, -54358.516, 0.0, 9.999584, 9.999801 
1.1850448e+3, 1.9504416e+2, -1095620.9, -1075838.4, -19326.04, 0.0045923125, -0.047627233, -1064019.4, -35456.31, 0.0, 9.999566, 9.999856 
1.1850473e+3, 2.050436e+2, -1041330.6, -1111399.3, -19791.057, -0.02935718, -0.029842243, -1036127.06, -105557.61, 0.0, 9.999756, 9.998851 
1.18505076e+3, 2.150425e+2, -877159.7, -970389.7, -21243.447, 0.05975225, -0.06403771, -872547.3, -39964.59, 0.0, 10.000174, 9.998939 
1.1850536e+3, 2.2504237e+2, -717471.25, -752968.0, -3446.0222, 0.079699956, -0.0026256235, -717139.8, 17444.74, 0.0, 10.0002, 9.999745 
1.1850557e+3, 2.3504283e+2, -674529.0, -675487.75, -32801.805, 0.024434105, 0.028441438, -642203.06, -5624.3843, 0.0, 9.999795, 9.999799 
1.1850585e+3, 2.4504215e+2, -616419.44, -729101.3, -9451.197, 0.041170005, 0.045474894, -615632.2, -77047.81, 0.0, 10.000086, 9.998623 
1.185062e+3, 2.5504e+2, -371264.44, -558200.44, -10578.773, 0.12778758, -0.07034618, -370667.7, 69937.34, 0.0, 10.001082, 9.998649 
1.1850641e+3, 2.6503885e+2, -224897.38, -390996.38, -34796.727, 0.1216795, -0.0575987, -217902.28, 124711.875, 0.0000005059796, 10.001246, 9.999029 
1.1850645e+3, 2.7503836e+2, -221215.17, -343243.2, -63370.04, -0.0011184856, -0.047955416, -194260.6, 50355.44, 0.000009353779, 10.0006075, 9.999001 
1.1850669e+3, 2.8503662e+2, -200185.39, -363828.7, 14698.632, -0.00064187904, -0.07448156, -198875.63, -52244.32, 0.000051580555, 10.00043, 9.9982605 
1.1850717e+3, 2.9503357e+2, -56052.0, -235361.92, -2031.4275, 0.15783921, -0.2556557, -56028.99, -7368.0176, 0.00018437536, 10.000695, 9.998343 
1.1850746e+3, 3.0503184e+2, -371.27924, -210785.95, -15958.018, 0.18882507, -0.24528094, 832.1073, 832.1073, 0.00048100852, 10.000874, 9.998106 
1.18507326e+3, 3.1503332e+2, 84240.3, 13609.737, -5506.601, -0.14100194, 0.052673716, 84667.03, 84667.03, 0.00096257555, 10.000573, 9.999795 
1.1950236e+3, 1.2503946e+2, -1870615.4, -1740832.3, 38100.816, -0.11217634, -0.12359708, -1730473.6, -15870.446, 0.0022081332, 9.998649, 10.000438 
1.1950263e+3, 1.3504013e+2, -1777981.3, -1713627.8, -17594.139, -0.014908483, -0.07997194, -1709131.6, -92532.125, 0.0011730703, 9.998935, 9.999841 
1.1950288e+3, 1.4504088e+2, -1709762.5, -1633041.0, 29046.293, -0.12951286, 0.02144409, -1623284.9, -104690.6, 0.00040013902, 9.998738, 9.999791 
1.19503416e+3, 1.550409e+2, -1660066.5, -1558406.3, 23093.684, 0.022090387, 0.0028120854, -1553406.1, -132810.95, 0.00005450229, 9.99842, 9.999785 
1.1950374e+3, 1.6504072e+2, -1527672.0, -1410967.1, -66762.695, 0.05046179, -0.0021201246, -1380650.3, -58053.043, 0.00000035173326, 9.998518, 10.000082 
1.1950389e+3, 1.7503996e+2, -1327451.0, -1258082.1, -41180.37, -0.005372247, -0.12544143, -1238925.8, -14322.484, 0.0, 9.999193, 10.000129 
1.1950414e+3, 1.8504013e+2, -1212549.0, -1200002.0, -18943.105, -0.013798706, -0.09222854, -1186320.6, -59718.902, 0.0, 9.999509, 9.999703 
1.1950449e+3, 1.9504088e+2, -1120921.0, -1098873.3, -3767.248, 0.024491353, -0.028572204, -1098247.4, -69652.1, 0.0, 9.999436, 9.999761 
1.1950479e+3, 2.050411e+2, -1039016.7, -1064800.9, -24435.367, 0.018414253, 0.05086233, -1024281.0, -93686.31, 0.0, 9.999582, 9.99925 
1.1950504e+3, 2.1504045e+2, -883040.9, -930827.5, 11343.962, -0.023319814, 0.021067439, -880484.75, -47881.355, 0.0, 9.999951, 9.999316 
1.1950532e+3, 2.2503975e+2, -777299.1, -821101.9, -38500.594, -0.0069727628, 0.024567112, -754906.4, -20296.281, 0.0, 9.999959, 9.999393 
1.19505614e+3, 2.350387e+2, -729581.25, -736132.75, -34414.52, 0.06845025, -0.0638214, -698286.94, -61668.953, 0.0, 9.99957, 9.999487 
1.19505905e+3, 2.4503814e+2, -620087.94, -684775.25, 9590.455, 0.06508104, -0.03896698, -618696.0, -80074.164, 0.0, 9.999862, 9.999041 
1.1950619e+3, 2.5503772e+2, -371538.7, -505342.47, 45798.047, -0.025369765, -0.022884822, -357364.53, 83260.664, 0.0, 10.00086, 9.999115 
1.19506456e+3, 2.6503655e+2, -276076.88, -450718.56, -75261.984, 0.008035583, -0.02221558, -248118.5, 94516.84, 0.0000006389743, 10.001041, 9.998723 
1.195067e+3, 2.7503437e+2, -260292.63, -386031.84, -67103.72, 0.16117688, -0.15504141, -231208.45, 13446.891, 0.000009301616, 10.000448, 9.998782 
1.19506896e+3, 2.8503332e+2, -216572.34, -368592.8, 10965.535, 0.14011449, -0.10375942, -215785.45, -69119.36, 0.00005191434, 10.000298, 9.998296 
1.1950707e+3, 2.9503295e+2, -77686.04, -247965.86, 34608.1, -0.04430745, -0.020953143, -70920.98, -22248.418, 0.00018470343, 10.000545, 9.998335 
1.1950737e+3, 3.0503154e+2, 24512.152, -101625.64, -34762.016, -0.004722708, -0.019279277, 33457.723, 33457.723, 0.00047307427, 10.000646, 9.998955 
1.1950752e+3, 3.150305e+2, 100151.8, 120239.914, 31332.521, -0.07103583, -0.06599479, 143098.89, 143098.89, 0.0009340092, 10.0002775, 10.000659 
1.20502286e+3, 1.2503603e+2, -1983811.5, -1824888.3, 40684.438, -0.0024092288, -0.07744199, -1815078.5, -100442.65, 0.0024257244, 9.998012, 10.0001745 
1.2050244e+3, 1.3503613e+2, -1776430.0, -1683199.0, -57434.87, -0.07747875, -0.10447718, -1655843.1, -39206.08, 0.0012988481, 9.998844, 10.000082 
1.2050286e+3, 1.4503692e+2, -1665425.1, -1602585.3, 30710.639, -0.032633822, -0.01735374, -1590069.4, -71438.75, 0.00045139206, 9.998988, 9.999885 
1.2050338e+3, 1.5503696e+2, -1589307.9, -1510745.6, 405.45163, 0.13872689, -0.047391824, -1510743.5, -90112.58, 0.00006471426, 9.998838, 9.999912 
1.2050369e+3, 1.6503693e+2, -1487873.9, -1394870.8, -17447.857, 0.14025347, -0.041099027, -1391705.1, -69073.75, 0.00000057087306, 9.998813, 10.00004 
1.205038e+3, 1.7503648e+2, -1349684.9, -1267780.3, -41635.508, -0.0031260552, -0.13272224, -1250332.1, -25696.69, 0.0, 9.999052, 10.00012 
1.2050405e+3, 1.8503664e+2, -1251211.6, -1219271.4, 989.6984, -0.032010123, -0.095735565, -1219240.8, -92606.89, 0.0, 9.99926, 9.999681 
1.20504454e+3, 1.950371e+2, -1107802.0, -1089643.0, -12133.873, 0.046397373, -0.06299844, -1083567.8, -54937.195, 0.0, 9.999529, 9.999767 
1.2050481e+3, 2.0503743e+2, -977025.5, -1022764.44, 10574.853, 0.07529959, 0.019474039, -974698.94, -44069.863, 0.0, 9.999927, 9.99938 
1.2050514e+3, 2.1503724e+2, -802249.3, -881832.0, -11284.467, 0.057427987, 0.022907706, -800680.2, 31953.379, 0.0, 10.000425, 9.999436 
1.2050541e+3, 2.2503658e+2, -688708.5, -788163.25, -47881.17, 0.061294712, 0.028640497, -669403.9, 65236.254, 0.0, 10.000611, 9.9993105 
1.2050564e+3, 2.3503512e+2, -595727.8, -685085.2, -58434.402, 0.09223762, -0.0850632, -566848.6, 69803.13, 0.0, 10.000543, 9.999377 
1.2050592e+3, 2.4503456e+2, -524147.25, -587228.8, 43597.49, 0.076210424, -0.078219235, -501877.6, 36777.45, 0.0, 10.000319, 9.999468 
1.20506234e+3, 2.5503445e+2, -478181.66, -512033.6, 38666.664, -0.00982869, -0.074670196, -452898.63, -12244.611, 0.00000000020898414, 9.999942, 9.999498 
1.2050653e+3, 2.6503357e+2, -402469.0, -523765.9, -48739.81, 0.03812007, -0.0609505, -385311.25, -42649.375, 0.00000074892756, 10.000212, 9.998622 
1.2050682e+3, 2.750317e+2, -173892.34, -356164.8, -63351.26, 0.22309926, -0.15320621, -154036.7, 90644.4, 0.000009032264, 10.001073, 9.998686 
1.2050702e+3, 2.8503105e+2, -66457.695, -267363.72, 49080.816, 0.19362922, -0.072848216, -55108.496, 91580.34, 0.000052136886, 10.001207, 9.998557 
1.20507106e+3, 2.9503122e+2, -66888.1, -210770.11, 42758.332, -0.04791134, 0.04152243, -55140.5, -6451.0063, 0.0001849306, 10.000506, 9.998602 
1.2050745e+3, 3.0502966e+2, 31101.045, -106822.76, 9105.692, 0.011418155, 0.022692887, 31699.604, 31699.604, 0.0004665325, 10.000717, 9.998885 
1.2050772e+3, 3.1502715e+2, 236537.34, 182077.64, -64164.26, 0.06115353, -0.16475281, 279010.56, 279010.56, 0.00090609276, 10.001251, 10.000608 
1.21502005e+3, 1.2503102e+2, -1973848.5, -1788739.1, -59499.477, -0.15515776, -0.1032555, -1771264.0, -56576.67, 0.0026624324, 9.9979725, 10.000433 
1.2150227e+3, 1.3503192e+2, -1740473.8, -1606144.9, -18597.904, -0.16405208, -0.10279822, -1603617.6, 13059.75, 0.0014356553, 9.99884, 10.000614 
1.21502906e+3, 1.4503218e+2, -1629457.6, -1527451.3, 1796.8544, 0.06361385, -0.121887125, -1527419.6, -8746.463, 0.0005075534, 9.99899, 10.000396 
1.2150333e+3, 1.5503183e+2, -1560510.8, -1450540.9, 15603.308, 0.15626152, -0.23789735, -1448369.9, -27694.973, 0.000076397075, 9.998833, 10.000332 
1.2150359e+3, 1.6503246e+2, -1506082.4, -1427605.4, -26281.402, 0.12024106, -0.17231163, -1419617.1, -96947.75, 0.0000008702971, 9.998798, 9.999815 
1.2150375e+3, 1.7503378e+2, -1376124.5, -1307298.3, -15792.588, 0.010764282, -0.06270691, -1303847.6, -79188.31, 0.0, 9.998986, 9.999881 
1.21503994e+3, 1.8503404e+2, -1253505.0, -1204645.3, -7806.403, -0.054021057, -0.015475906, -1203428.3, -76770.47, 0.0, 9.999179, 9.999822 
1.2150432e+3, 1.9503285e+2, -1119616.8, -1083914.1, 16258.472, -0.074009664, -0.15748604, -1077619.9, -48951.3, 0.0, 9.999399, 9.999871 
1.2150476e+3, 2.050326e+2, -1015481.4, -1058472.0, 9550.672, -0.0014819035, -0.12766464, -1013455.1, -82782.74, 0.0, 9.99974, 9.999223 
1.2150531e+3, 2.1503304e+2, -847771.4, -914547.8, 22255.24, 0.15780075, -0.05201003, -841033.94, -8362.006, 0.0, 10.000162, 9.999334 
1.2150558e+3, 2.2503302e+2, -714144.06, -786257.06, -69943.45, 0.14772166, 0.015673619, -671510.25, 63162.703, 0.0, 10.000368, 9.999446 
1.2150559e+3, 2.3503226e+2, -616603.0, -676759.56, -42382.063, -0.029818581, -0.043933213, -594710.7, 41968.152, 0.0, 10.000319, 9.999542 
1.21505834e+3, 2.4503146e+2, -540888.0, -561597.06, 14573.378, -0.067900576, -0.084029175, -533365.2, 5318.455, 0.0, 10.000059, 9.999766 
1.21506296e+3, 2.5503024e+2, -485250.3, -482541.03, 41452.887, 0.036644284, -0.22446217, -442420.66, -1729.6829, 0.00000000018849695, 9.99975, 9.99979 
1.2150663e+3, 2.6503e+2, -424381.1, -524607.5, -33332.24, 0.075057104, -0.16619915, -414308.16, -71615.18, 0.00000061447383, 10.000016, 9.998714 
1.2150679e+3, 2.750303e+2, -189465.83, -352169.1, -10504.656, 0.044983752, -0.04935381, -188790.42, 55903.34, 0.000008322687, 10.000907, 9.998799 
1.2150698e+3, 2.8502977e+2, -79522.39, -233347.56, 6699.5776, 0.009324348, 0.021743229, -79231.16, 67468.39, 0.000050710027, 10.000963, 9.9989 
1.2150723e+3, 2.950283e+2, -62993.586, -164778.83, 41835.563, -0.0199943, -0.06631802, -48005.457, 706.70703, 0.00018357177, 10.000352, 9.998986 
1.2150763e+3, 3.050261e+2, -65792.76, -269606.75, 17946.873, 0.092312165, -0.1116386, -64224.516, -64224.516, 0.00046227945, 10.000556, 9.9978485 
1.2150782e+3, 3.1502303e+2, 127695.95, 28079.71, -4074.9126, -0.028875707, -0.25464612, 127862.36, 127862.36, 0.0008888424, 10.000949, 9.999694 
1.22501954e+3, 1.2502791e+2, -1868492.6, -1712597.1, 36268.46, -0.009861537, -0.05551071, -1704572.5, 10146.691, 0.0029179724, 9.998559, 10.000674 
1.2250226e+3, 1.350282e+2, -1716470.4, -1578490.4, 45092.07, -0.0448523, -0.13203464, -1565061.3, 51650.742, 0.0015834377, 9.998925, 10.000767 
1.2250287e+3, 1.4502798e+2, -1635076.8, -1542547.8, 46194.293, 0.14469385, -0.20084657, -1523434.0, -4722.3154, 0.00056846405, 9.999026, 10.000267 
1.225032e+3, 1.5502822e+2, -1515067.1, -1428594.5, -30484.41, 0.13174143, -0.24944484, -1418928.3, 1780.5718, 0.00008951281, 9.999185, 10.00029 
1.2250347e+3, 1.6502902e+2, -1444937.4, -1423730.5, -38559.83, 0.10289273, -0.15603791, -1394342.8, -71640.64, 0.0000012652538, 9.999282, 9.999641 
1.2250375e+3, 1.7503005e+2, -1325990.0, -1297363.0, -54328.125, 0.09662225, -0.059603862, -1255494.4, -30799.666, 0.0, 9.999369, 9.999781 
1.2250402e+3, 1.8503015e+2, -1220284.6, -1188833.1, -13390.622, 0.050337296, -0.024584549, -1183904.4, -57209.652, 0.0, 9.999381, 9.9998455 
1.2250429e+3, 1.950289e+2, -1126126.4, -1086743.0, -34197.98, -0.043394074, -0.17474659, -1066972.5, -38266.273, 0.0, 9.999334, 9.999896 
1.22504696e+3, 2.0502871e+2, -1022204.56, -1014028.2, 28609.066, -0.011671173, -0.1592164, -989216.7, -58508.105, 0.0, 9.999508, 9.99963 
1.2250527e+3, 2.1502936e+2, -858729.0, -872576.06, 45892.543, 0.13766716, -0.10280159, -819240.6, 13463.836, 0.0, 9.999909, 9.999733 
1.2250559e+3, 2.2502968e+2, -753011.9, -790121.9, -13193.725, 0.15422747, -0.029877435, -748799.3, -14097.226, 0.0, 10.000023, 9.999583 
1.2250565e+3, 2.350293e+2, -682125.9, -697844.8, -28159.078, 0.02977297, -0.064115696, -660750.0, -24044.822, 0.0, 9.999803, 9.999653 
1.2250591e+3, 2.4502854e+2, -554483.25, -592260.4, 58536.78, 0.008077849, -0.09596833, -511863.0, 26847.34, 0.0, 10.000046, 9.999582 
1.2250637e+3, 2.550271e+2, -347446.9, -434287.8, 17739.258, 0.08965412, -0.24080063, -343963.03, 96757.51, 0.0, 10.000767, 9.999643 
1.225067e+3, 2.6502675e+2, -265669.16, -443469.72, -34129.39, 0.10333885, -0.18572617, -259342.98, 83380.68, 0.0000003685213, 10.001112, 9.998729 
1.2250687e+3, 2.750271e+2, -172700.02, -339483.94, -61286.707, 0.035976477, -0.062254205, -152601.5, 92122.3, 0.0000073761885, 10.001049, 9.998796 
1.22507066e+3, 2.8502637e+2, -65742.07, -237645.4, -56500.32, 0.010174505, -0.010793176, -48834.73, 97896.63, 0.000049087277, 10.001063, 9.99883 
1.2250735e+3, 2.950244e+2, 22772.98, -140146.63, -85907.23, 0.05010585, -0.14007436, 59701.313, 108449.38, 0.00018153466, 10.000975, 9.998872 
1.2250779e+3, 3.0502254e+2, 20192.385, -223080.38, -20490.467, 0.18285972, -0.14916466, 21906.191, 21906.191, 0.00045750884, 10.00114, 9.997869 
1.22508034e+3, 3.150198e+2, 148907.61, 12516.3, -49813.637, 0.0880496, -0.262629, 165163.4, 165163.4, 0.0008772591, 10.001171, 9.999479 
1.2350196e+3, 1.2502699e+2, -1833667.9, -1665186.3, -39212.426, 0.044515368, 0.08388664, -1656507.1, 58221.203, 0.0031899144, 9.99864, 10.000969 
1.2350233e+3, 1.3502495e+2, -1726359.4, -1612112.4, 66872.336, 0.10426635, -0.2064556, -1581287.0, 35454.094, 0.0017411282, 9.998958, 10.0005245 
1.23502694e+3, 1.4502417e+2, -1686814.1, -1661387.8, 28128.244, 0.020064756, -0.2782051, -1643233.1, -124485.6, 0.0006337289, 9.999065, 9.999441 
1.2350294e+3, 1.5502596e+2, -1566248.6, -1545008.9, -13083.559, -0.07047771, -0.08767032, -1538777.6, -118043.15, 0.00010392506, 9.999207, 9.999494 
1.2350327e+3, 1.6502644e+2, -1434492.9, -1402720.3, -61320.285, -0.051759798, 0.0049073, -1355261.9, -32530.4, 0.0000017603737, 9.999286, 9.99978 
1.2350372e+3, 1.7502527e+2, -1320879.6, -1286661.5, -36343.83, 0.10631575, -0.13231125, -1263601.0, -38859.043, 0.0, 9.999357, 9.999863 
1.23504065e+3, 1.8502496e+2, -1238905.8, -1212130.5, -32827.3, 0.12497795, -0.13407353, -1190065.9, -63320.813, 0.0, 9.999316, 9.999716 
1.2350428e+3, 1.9502525e+2, -1150176.8, -1107637.3, -18890.248, -0.0056232046, -0.12016867, -1100459.8, -71716.3, 0.0, 9.999208, 9.999811 
1.235046e+3, 2.0502579e+2, -981441.0, -887826.56, 22481.365, -0.09054409, -0.079202056, -882707.6, 48030.01, 0.0, 9.999327, 10.0005865 
1.23505026e+3, 2.1502621e+2, -825310.44, -753121.9, 77652.42, -0.12991436, -0.13641202, -703585.0, 129146.18, 0.0, 9.999689, 10.000661 
1.2350542e+3, 2.2502652e+2, -780420.75, -795832.2, -38050.734, -0.054616783, -0.11455747, -749303.3, -14575.815, 0.0, 9.999796, 9.99966 
1.2350576e+3, 2.3502633e+2, -709688.6, -704627.2, -16508.113, 0.13192819, -0.13881086, -690456.94, -53726.98, 0.0, 9.99958, 9.999718 
1.2350608e+3, 2.450259e+2, -632015.56, -697909.44, 69610.83, 0.14787726, -0.10740383, -587948.44, -49214.367, 0.0, 9.999808, 9.998971 
1.235064e+3, 2.5502494e+2, -419142.94, -534777.7, 64839.52, 0.0089318715, -0.14384572, -390086.78, 50655.984, 0.0, 10.000551, 9.999062 
1.2350672e+3, 2.6502374e+2, -318004.4, -489243.8, -51272.273, -0.021824386, -0.13514768, -303826.4, 38927.957, 0.00000016286783, 10.000848, 9.998541 
1.23507015e+3, 2.75022e+2, -216446.42, -384397.56, -41430.902, 0.04994858, -0.20239338, -206782.17, 37990.227, 0.000006622681, 10.0008545, 9.99858 
1.23507254e+3, 2.8502068e+2, -123476.96, -308718.78, -70538.7, 0.046966657, -0.17751326, -99674.76, 47110.84, 0.000048750662, 10.00086, 9.998441 
1.2350743e+3, 2.9501948e+2, -26930.072, -206351.2, -61106.242, -0.01354478, -0.19308974, -8095.909, 40701.434, 0.00018217463, 10.000809, 9.998502 
1.2350787e+3, 3.0501887e+2, 54280.543, -108593.734, -24241.033, 0.11285186, -0.10727092, 57811.84, 57811.84, 0.00045752534, 10.000957, 9.998744 
1.2350825e+3, 3.1501722e+2, 133780.19, 53260.3, -9326.263, 0.11421488, -0.19846033, 134846.3, 134846.3, 0.00087459444, 10.000873, 9.999899 
1.2450187e+3, 1.2502344e+2, -1843077.3, -1678575.3, -10836.083, 0.114106484, 0.03253199, -1677864.5, 36896.2, 0.003475539, 9.99865, 10.000858 
1.2450231e+3, 1.3502172e+2, -1819146.5, -1687618.5, -2016.8232, 0.21239832, -0.20148851, -1687587.6, -70815.51, 0.0019075654, 9.998452, 10.000257 
1.2450256e+3, 1.450212e+2, -1747593.9, -1676754.5, 55469.156, 0.0037397083, -0.23845492, -1646360.9, -127584.5, 0.0007030745, 9.998591, 9.999558 
1.2450286e+3, 1.5502287e+2, -1519834.6, -1515699.9, 43126.348, -0.081235476, -0.07101006, -1474591.4, -53827.27, 0.00011956255, 9.999479, 9.999567 
1.24503225e+3, 1.6502316e+2, -1393481.6, -1378398.4, 31121.791, -0.033261262, -0.0035318334, -1353917.4, -31154.69, 0.0000023468863, 9.999571, 9.999793 
1.245037e+3, 1.7502178e+2, -1372156.0, -1307438.6, 8163.152, 0.17179981, -0.16167066, -1306424.9, -81650.07, 0.0, 9.999011, 9.999873 
1.2450405e+3, 1.8502142e+2, -1297068.9, -1256595.0, 57020.742, 0.20325059, -0.16438058, -1216326.6, -89548.19, 0.0, 9.998997, 9.999559 
1.2450426e+3, 1.9502161e+2, -1113342.9, -1110604.6, 34346.53, 0.047437634, -0.14066553, -1077599.9, -48822.605, 0.0, 9.999547, 9.999628 
1.24504566e+3, 2.050222e+2, -939311.8, -857664.0, 65008.93, -0.063174576, -0.09062221, -821723.6, 109047.664, 0.0, 9.999571, 10.000673 
1.2450497e+3, 2.1502282e+2, -917157.8, -785900.94, 18384.168, -0.12252068, -0.1406325, -783374.6, 49389.0, 0.0, 9.999005, 10.000765 
1.2450537e+3, 2.2502325e+2, -836235.0, -807126.1, -69450.11, -0.049177565, -0.11595314, -750721.75, -15963.012, 0.0, 9.999379, 9.999766 
1.2450577e+3, 2.3502316e+2, -539641.9, -604178.7, -84063.03, 0.14891754, -0.14259684, -481866.7, 154893.67, 0.0, 10.000703, 9.999846 
1.2450617e+3, 2.4502295e+2, -472471.5, -632652.0, 36217.63, 0.19938053, -0.090855256, -464663.16, 74100.234, 0.0, 10.000958, 9.9988575 
1.2450652e+3, 2.5502238e+2, -490301.06, -576913.1, 31712.008, 0.105014995, -0.0775402, -479931.56, -39161.387, 0.0, 10.0001135, 9.998968 
1.2450682e+3, 2.6502112e+2, -426848.38, -521729.06, -5800.3936, 0.057972696, -0.08306859, -426495.1, -83712.81, 0.000000050542315, 9.99998, 9.998747 
1.2450708e+3, 2.750188e+2, -255122.45, -385168.84, 403.53912, 0.055121914, -0.22605991, -255121.2, -10317.87, 0.0000061370592, 10.000471, 9.99878 
1.24507345e+3, 2.8501737e+2, -111104.96, -309888.6, 37218.9, 0.06126751, -0.22064953, -104364.875, 42451.99, 0.000049451548, 10.000997, 9.998359 
1.2450764e+3, 2.9501635e+2, 75113.12, -157187.81, 24540.502, 0.08680462, -0.20266649, 77677.3, 126503.78, 0.00018750013, 10.001546, 9.998466 
1.2450808e+3, 3.0501592e+2, 163470.83, -51490.65, 69073.72, 0.20351431, -0.1026417, 183752.7, 183752.7, 0.000470274, 10.001657, 9.998819 
1.24508396e+3, 3.1501463e+2, 148275.44, 17429.338, -46874.375, 0.17594622, -0.16023292, 163334.58, 163334.58, 0.0008945071, 10.001146, 9.999537 
1.2550181e+3, 1.2501736e+2, -1872425.4, -1757381.3, 50095.53, 0.10611158, -0.21517779, -1738625.3, -23809.46, 0.0037739007, 9.998715, 10.000288 
1.2550214e+3, 1.3501874e+2, -1830924.4, -1720848.6, 2501.368, 0.16183859, -0.11526233, -1720791.8, -103989.336, 0.0020822603, 9.9984865, 10.000014 
1.2550242e+3, 1.4501932e+2, -1669647.5, -1522199.9, 68927.26, -0.052166793, -0.08306087, -1494997.1, 23798.998, 0.0007764397, 9.998619, 10.000605 
1.2550287e+3, 1.5501913e+2, -1446202.6, -1363760.3, 93436.16, -0.05862996, -0.20688803, -1302856.5, 117939.95, 0.00013646827, 9.999483, 10.000607 
1.2550327e+3, 1.650193e+2, -1410381.9, -1416880.1, -11760.62, 0.014703468, -0.18922836, -1401429.9, -78634.94, 0.0000030208696, 9.9995775, 9.999531 
1.2550364e+3, 1.7501971e+2, -1388945.0, -1340267.0, 1442.8246, 0.17118526, -0.14506471, -1340224.3, -115432.12, 0.0, 9.998995, 9.999657 
1.2550394e+3, 1.8501945e+2, -1313781.1, -1280014.4, 57250.016, 0.1596486, -0.12008344, -1237210.1, -110415.125, 0.0, 9.998945, 9.999428 
1.2550418e+3, 1.9501805e+2, -1136980.1, -1138106.9, 71542.234, -0.019300146, -0.24455, -1065999.0, -37191.195, 0.0, 9.99945, 9.999488 
1.2550454e+3, 2.0501806e+2, -1022723.56, -987131.75, 25347.684, -0.06726054, -0.20476566, -973956.75, -43147.688, 0.0, 9.999383, 9.999879 
1.2550503e+3, 2.1501921e+2, -1005995.56, -918413.2, 14981.264, 0.013441594, -0.11812156, -915921.5, -83120.56, 0.0, 9.998779, 9.99997 
1.255054e+3, 2.2501986e+2, -866072.3, -808514.7, -36896.85, 0.015269445, -0.037357725, -790500.4, -55704.313, 0.0, 9.999124, 9.999876 
1.2550567e+3, 2.3501967e+2, -564116.8, -604276.06, -15592.94, -0.052192423, -0.08659567, -558773.4, 78024.234, 0.0, 10.000483, 9.999952 
1.255061e+3, 2.4501958e+2, -478293.34, -590239.4, -13055.308, 0.0210596, -0.04865086, -476791.0, 62008.06, 0.0, 10.000722, 9.999263 
1.2550668e+3, 2.5501928e+2, -496494.84, -543835.8, 17461.455, 0.2337057, -0.046016984, -490751.16, -49947.457, 0.0, 9.999905, 9.999299 
1.2550698e+3, 2.6501864e+2, -414887.03, -444416.47, -5606.5967, 0.19172895, -0.03563961, -413858.38, -71049.336, 0.00000007625481, 9.999758, 9.999383 
1.2550701e+3, 2.7501738e+2, -236064.08, -301789.22, 39762.23, -0.09928477, -0.14024039, -217341.94, 27475.912, 0.0000061507535, 10.000282, 9.999444 
1.2550732e+3, 2.850163e+2, -129007.76, -305071.47, 42659.39, -0.10250875, -0.13739403, -119216.14, 27609.646, 0.000051588533, 10.000818, 9.998473 
1.2550794e+3, 2.9501498e+2, 60358.97, -152698.03, 66415.19, 0.19334719, -0.17325996, 79366.516, 128203.54, 0.00020006, 10.001395, 9.998566 
1.2550837e+3, 3.0501357e+2, 93684.14, -167218.17, 36649.71, 0.30222487, -0.13656703, 98734.664, 98734.664, 0.0005036429, 10.001526, 9.998084 
1.2550835e+3, 3.1501207e+2, 21101.596, -182742.25, -23525.582, -0.057417247, -0.15056127, 23781.45, 23781.45, 0.0009532297, 10.000866, 9.998298 
1.2650174e+3, 1.2501274e+2, -1951032.5, -1781716.3, 133552.55, 0.20505935, -0.30184063, -1708250.1, 6607.939, 0.004085261, 9.998129, 10.0004225 
1.2650196e+3, 1.3501509e+2, -1685668.9, -1607557.1, 24053.688, 0.115348026, -0.12419242, -1600744.3, 16092.065, 0.0022650692, 9.999336, 10.000372 
1.2650236e+3, 1.4501601e+2, -1591427.3, -1475746.9, 90662.82, 0.025066748, -0.080897935, -1426045.3, 92781.9, 0.00085386867, 9.999118, 10.000689 
1.265028e+3, 1.5501562e+2, -1676743.8, -1463297.9, 3019.1016, 0.005979828, -0.23138478, -1463255.1, -42425.406, 0.00015477135, 9.997868, 10.000702 
1.265032e+3, 1.6501595e+2, -1621502.0, -1508369.8, -51770.953, 0.067572296, -0.20457125, -1488255.0, -165427.89, 0.0000038088367, 9.998102, 9.999602 
1.2650359e+3, 1.7501684e+2, -1231990.8, -1260748.8, -52949.094, 0.17371817, -0.120129146, -1191503.0, 33317.945, 0.0, 10.000061, 9.99969 
1.265039e+3, 1.850167e+2, -1070615.5, -1145917.8, 23227.48, 0.16035241, -0.089809954, -1064027.3, 62795.047, 0.0, 10.000538, 9.999579 
1.2650417e+3, 1.9501519e+2, -1114507.3, -1108912.3, 20471.53, 0.023188092, -0.23780324, -1091048.0, -62213.215, 0.0, 9.9995365, 9.999641 
1.2650453e+3, 2.05015e+2, -1043809.1, -1023112.8, 52547.984, -0.0066536744, -0.21414119, -979903.75, -49066.215, 0.0, 9.999351, 9.999643 
1.26505e+3, 2.150158e+2, -851148.0, -869948.8, 45864.418, 0.06226751, -0.14361687, -813730.56, 19103.367, 0.0, 9.999953, 9.999731 
1.2650539e+3, 2.2501627e+2, -696038.9, -724511.44, 72654.82, 0.046741813, -0.070548445, -636238.7, 98591.945, 0.0, 10.000265, 9.999914 
1.2650572e+3, 2.3501617e+2, -593647.4, -612912.56, 56123.094, -0.045493867, -0.11144076, -546336.25, 90494.01, 0.0, 10.000246, 10.000016 
1.2650615e+3, 2.4501619e+2, -534497.4, -609764.6, 37616.105, 0.029410893, -0.07253876, -518921.4, 19909.547, 0.0, 10.000288, 9.999351 
1.2650673e+3, 2.5501594e+2, -418276.16, -497930.94, 14127.131, 0.27389583, -0.07054741, -415844.84, 24991.264, 0.0, 10.00039, 9.999394 
1.2650706e+3, 2.650157e+2, -283084.75, -373640.06, 25204.918, 0.24848214, -0.030807424, -276542.0, 66296.91, 0.00000015326442, 10.000644, 9.99944 
1.265071e+3, 2.7501506e+2, -124375.3, -235789.69, -16506.285, -0.04777756, -0.07671058, -121981.29, 122861.16, 0.0000068361555, 10.001015, 9.999534 
1.2650745e+3, 2.8501406e+2, -78687.75, -267565.72, -8473.629, -0.056614906, -0.074621685, -78308.36, 68540.8, 0.000055437977, 10.001087, 9.998613 
1.2650809e+3, 2.9501235e+2, 14257.458, -162977.45, -20800.357, 0.23976763, -0.15601787, 16665.87, 65528.684, 0.00021969865, 10.001006, 9.998697 
1.2650853e+3, 3.050104e+2, 86368.03, -152478.45, 7802.2554, 0.32736298, -0.18902658, 86622.63, 86622.63, 0.00055763865, 10.001416, 9.998229 
1.2650856e+3, 3.1500977e+2, 174826.11, -104457.9, -67394.48, 0.021569453, -0.12528548, 190238.63, 190238.63, 0.001054668, 10.00193, 9.998314 
1.2750156e+3, 1.2501013e+2, -1862343.9, -1616887.0, 59417.164, 0.14357409, -0.17207558, -1603260.5, 111621.74, 0.0044096503, 9.998209, 10.001511 
1.2750173e+3, 1.3501088e+2, -1633235.5, -1498833.9, 77818.34, -0.08823484, -0.23199697, -1463216.1, 153656.56, 0.0024558255, 9.999327, 10.001126 
1.2750234e+3, 1.4501135e+2, -1644199.9, -1598381.6, 22644.5, 0.045634966, -0.2307261, -1589079.0, -70209.8, 0.00093550276, 9.9991665, 9.999824 
1.2750259e+3, 1.5501247e+2, -1732334.4, -1589490.1, -26582.412, -0.01832416, -0.14521898, -1584703.6, -163841.16, 0.00017466526, 9.997907, 9.999819 
1.2750296e+3, 1.650131e+2, -1586379.4, -1451763.4, 2209.4036, -0.016177736, -0.06189388, -1451727.1, -128867.87, 0.0000047674703, 9.998162, 9.999966 
1.275035e+3, 1.7501307e+2, -1208290.3, -1211025.4, 37876.55, 0.046858225, -0.10622024, -1171756.6, 53104.938, 0.0, 10.000049, 10.000039 
1.2750389e+3, 1.8501318e+2, -1059624.3, -1099901.6, -30146.145, 0.05831841, -0.087241404, -1043508.94, 83351.055, 0.0, 10.000444, 9.999936 
1.2750417e+3, 1.950131e+2, -1103939.6, -1062272.5, 1047.5549, 0.030163424, -0.1306995, -1062246.1, -33388.43, 0.0, 9.99943, 10.0000105 
1.2750448e+3, 2.0501302e+2, -1048174.06, -993364.44, 55824.266, -0.02661784, -0.13012367, -958581.06, -27723.55, 0.0, 9.999186, 9.999928 
1.2750486e+3, 2.1501257e+2, -866716.6, -847037.6, 83787.016, -0.106593005, -0.21103548, -772514.3, 60348.22, 0.0, 9.999716, 10.000005 
1.2750532e+3, 2.2501254e+2, -730646.75, -736994.6, 54504.414, -0.088729896, -0.20260012, -679223.94, 55638.05, 0.0, 10.000014, 9.999947 
1.2750584e+3, 2.3501264e+2, -628464.7, -630003.7, 73201.53, 0.025396692, -0.2288348, -556028.6, 80830.516, 0.0, 10.00001, 10.000012 
1.2750626e+3, 2.4501267e+2, -587745.06, -661988.6, 26522.637, 0.078380376, -0.17361121, -579243.6, -40383.49, 0.0, 10.000044, 9.9991045 
1.275066e+3, 2.550124e+2, -463759.13, -539951.06, 37938.01, 0.080220826, -0.15655088, -448090.84, -7223.71, 0.0, 10.000168, 9.99921 
1.2750699e+3, 2.6501226e+2, -358791.34, -476981.6, 23186.379, 0.07898923, -0.063610226, -354405.44, -11534.437, 0.00000020123079, 10.000417, 9.998837 
1.2750734e+3, 2.750118e+2, -198735.73, -342048.6, 18401.068, 0.06479137, -0.03701425, -196410.8, 48466.027, 0.0000077157165, 10.000812, 9.998899 
1.275077e+3, 2.8501064e+2, -94149.82, -263676.6, -29617.252, 0.053380955, -0.025924996, -89124.49, 57762.496, 0.000060411407, 10.000928, 9.998715 
1.2750804e+3, 2.9500863e+2, -7965.808, -159343.86, 2355.4773, 0.056223296, -0.15289874, -7929.1655, 40973.855, 0.00024271311, 10.000793, 9.998823 
1.275085e+3, 3.0500644e+2, 110440.195, -59951.91, 17627.51, 0.12827994, -0.2505024, 112244.695, 112244.695, 0.0006225909, 10.001238, 9.998949 
1.2750892e+3, 3.1500822e+2, 190364.78, 17738.713, -3117.502, 0.13999891, -0.025935167, 190421.06, 190421.06, 0.0011840118, 10.001573, 9.999312 
1.2850156e+3, 1.2500663e+2, -1753423.6, -1577078.9, 65664.984, 0.29498014, -0.17128168, -1555313.8, 159600.63, 0.0047468157, 9.998968, 10.001422 
1.285016e+3, 1.3500698e+2, -1794687.8, -1607181.6, 23817.049, -0.07734352, -0.25012392, -1604203.8, 12707.109, 0.0026545508, 9.998317, 10.000866 
1.2850226e+3, 1.4500748e+2, -1750233.4, -1646529.9, -772.5066, 0.08907186, -0.23504744, -1646524.1, -127616.64, 0.0010215283, 9.998456, 9.999831 
1.285025e+3, 1.5500869e+2, -1412094.8, -1427755.3, -23028.617, -0.0024177898, -0.14051537, -1395601.6, 25297.637, 0.00019628371, 10.000087, 9.999872 
1.2850289e+3, 1.6500925e+2, -1307123.9, -1325383.1, 59692.563, -0.000726301, -0.06433521, -1255866.9, 67029.914, 0.0000059623408, 10.0000925, 9.99992 
1.2850343e+3, 1.7500907e+2, -1433277.4, -1320823.0, 28124.934, 0.06401185, -0.11604155, -1314181.3, -89280.14, 0.0, 9.998506, 10.000034 
1.2850384e+3, 1.8500946e+2, -1346655.5, -1201619.6, -18891.012, 0.08536574, -0.08343553, -1199199.4, -72301.99, 0.0, 9.99834, 10.000244 
1.2850416e+3, 1.9501004e+2, -1030292.6, -990189.75, -28246.19, 0.06298963, -0.092275634, -975601.5, 53287.66, 0.0, 9.999804, 10.00032 
1.2850448e+3, 2.0501015e+2, -894802.75, -922150.06, 35821.82, 0.012017399, -0.08326152, -870133.6, 60753.01, 0.0, 10.000246, 9.999909 
1.2850486e+3, 2.1500951e+2, -875630.1, -847373.9, 10061.854, -0.068595394, -0.1823599, -844157.1, -11264.48, 0.0, 9.999649, 10.000031 
1.2850533e+3, 2.2500938e+2, -780791.75, -751443.75, 16105.668, -0.038517013, -0.19232027, -744329.75, -9437.075, 0.0, 9.999624, 10.000035 
1.2850592e+3, 2.3500943e+2, -600711.9, -603420.06, 2915.652, 0.101605095, -0.23129414, -598851.2, 38038.67, 0.0, 10.00015, 10.000121 
1.2850632e+3, 2.450094e+2, -524325.8, -632115.4, -505.6262, 0.11192383, -0.18630247, -524323.44, 14567.288, 0.0, 10.000487, 9.999092 
1.2850656e+3, 2.5500908e+2, -404268.94, -511290.9, -12487.867, 0.0013732188, -0.17284316, -402831.13, 38066.34, 0.0, 10.000587, 9.999199 
1.2850696e+3, 2.650087e+2, -333211.66, -491653.3, 31725.43, 0.019818775, -0.094785474, -327095.28, 15808.796, 0.00000014147287, 10.000695, 9.998608 
1.2850752e+3, 2.7500784e+2, -203830.61, -370281.03, 17057.555, 0.1636344, -0.082551755, -202100.55, 42814.316, 0.000007879153, 10.00088, 9.998678 
1.2850791e+3, 2.8500676e+2, -66356.74, -264687.9, 6008.0693, 0.16703123, -0.03902369, -66174.91, 80749.76, 0.00006527563, 10.001191, 9.998579 
1.2850814e+3, 2.9500526e+2, 91242.67, -125264.64, -27053.273, 0.038008574, -0.104282215, 94571.875, 143508.6, 0.000269289, 10.001534, 9.998697 
1.2850861e+3, 3.050024e+2, 198957.31, -66717.31, -5141.0493, 0.071323685, -0.24281219, 199056.75, 199056.75, 0.0006978728, 10.002034, 9.998536 
1.2850924e+3, 3.1500363e+2, 337461.22, 86144.695, -179649.63, 0.26808587, -0.024350101, 431037.97, 431037.97, 0.0013327203, 10.002526, 9.999351 
1.295013e+3, 1.2500267e+2, -1849174.0, -1765279.1, -95703.73, 0.06310608, -0.2834287, -1702733.5, 12216.979, 0.0050962004, 9.998942, 10.000138 
1.2950158e+3, 1.3500357e+2, -1895212.6, -1800444.0, 9447.228, 0.03580832, -0.17775154, -1799511.4, -182562.9, 0.0028611089, 9.998264, 9.999565 
1.2950207e+3, 1.4500448e+2, -1693953.4, -1529229.4, 35334.72, 0.004077348, -0.09160068, -1521969.8, -3028.4063, 0.00111182, 9.998458, 10.000633 
1.2950246e+3, 1.5500434e+2, -1360655.3, -1314058.1, 57885.56, -0.08388739, -0.21261318, -1274958.3, 145980.92, 0.000219555, 10.000059, 10.000669 
1.2950289e+3, 1.6500449e+2, -1333101.1, -1379895.3, -21797.9, -0.045776334, -0.20002308, -1324520.5, -1582.095, 0.0000074533, 10.00009, 9.999544 
1.2950334e+3, 1.7500494e+2, -1465035.0, -1383880.4, -16807.338, 0.083808504, -0.15195295, -1380537.3, -155598.28, 0.0, 9.998488, 9.99961 
1.2950373e+3, 1.8500564e+2, -1336483.6, -1178767.9, 17174.945, 0.08809892, -0.07724862, -1176919.1, -49985.24, 0.0, 9.998324, 10.000411 
1.2950408e+3, 1.9500606e+2, -1031925.2, -974990.0, 42090.402, -0.009038035, -0.11868604, -952644.1, 76284.2, 0.0, 9.999709, 10.000474 
1.2950449e+3, 2.0500644e+2, -941910.44, -975383.5, -6034.42, -0.029981812, -0.07647874, -940855.8, -9931.15, 0.0, 10.000061, 9.999627 
1.2950495e+3, 2.1500653e+2, -928559.8, -902905.75, 2193.102, 0.027841607, -0.07557642, -902719.6, -69794.375, 0.0, 9.999418, 9.999757 
1.2950541e+3, 2.2500665e+2, -810843.4, -751428.3, 19406.432, 0.049569067, -0.053286083, -745651.4, -10727.685, 0.0, 9.999358, 10.000163 
1.2950589e+3, 2.3500651e+2, -626508.5, -599393.25, 42972.54, 0.0387778, -0.124730594, -567890.4, 69032.305, 0.0, 9.9999, 10.00027 
1.2950626e+3, 2.4500643e+2, -557850.3, -628182.3, -14384.716, -0.014443005, -0.10338495, -555022.0, -16099.385, 0.0, 10.000187, 9.999256 
1.2950654e+3, 2.5500593e+2, -432778.84, -505711.44, 10283.712, -0.10451024, -0.123431906, -431356.53, 9571.191, 0.0, 10.000326, 9.999354 
1.2950698e+3, 2.650049e+2, -353662.8, -495217.0, 20560.879, -0.06569845, -0.11880495, -350736.8, -7798.5454, 0.000000052302592, 10.000513, 9.998678 
1.2950759e+3, 2.7500322e+2, -227620.52, -370846.9, 43780.773, 0.10120653, -0.19879691, -215297.98, 29657.482, 0.000007172051, 10.000662, 9.998782 
1.2950802e+3, 2.8500256e+2, -131211.47, -345633.84, 2590.625, 0.12817895, -0.10489973, -131180.17, 15781.799, 0.00006969282, 10.0009575, 9.998136 
1.295083e+3, 2.9500228e+2, 23026.607, -213254.1, 11729.6455, 0.019244693, 0.0020174684, 23607.47, 72570.81, 0.0003009035, 10.0013075, 9.9982 
1.2950876e+3, 3.0499825e+2, 71120.04, -302476.6, -836.82605, 0.0029469547, -0.14700468, 71121.914, 71121.914, 0.0007869782, 10.001903, 9.996983 
1.2950942e+3, 3.1499654e+2, 230643.53, -52167.684, -106511.24, 0.12931418, -0.07966881, 266269.53, 266269.53, 0.0015032826, 10.002175, 9.998566 
1.3050108e+3, 1.2499892e+2, -2025456.8, -1882490.4, -120911.07, 0.019853434, -0.22880042, -1813512.4, -98522.87, 0.0054552136, 9.997888, 9.999836 
1.3050157e+3, 1.3499941e+2, -1735110.5, -1739196.1, -29579.9, 0.1628878, -0.14515118, -1707503.0, -90511.4, 0.003073975, 9.999454, 9.999402 
1.3050197e+3, 1.4500031e+2, -1550055.1, -1454160.3, 61444.215, 0.034280166, -0.055871528, -1424169.6, 94814.305, 0.0012055306, 9.999395, 10.000701 
1.3050245e+3, 1.5499993e+2, -1571120.3, -1403725.8, -4294.8794, -0.011697668, -0.21420428, -1403615.6, 17367.887, 0.000244213, 9.99855, 10.000779 
1.305029e+3, 1.6500008e+2, -1535005.1, -1433751.1, -67423.72, 0.028790375, -0.22399023, -1400063.0, -77081.81, 0.000009295233, 9.998564, 9.999897 
1.3050324e+3, 1.7500068e+2, -1262328.9, -1240301.0, -46070.29, 0.08301983, -0.19264467, -1203946.4, 21031.219, 0.0, 9.999724, 9.999986 
1.3050364e+3, 1.8500142e+2, -1085754.1, -1078383.6, 65383.582, 0.08162187, -0.12365499, -1016581.56, 110390.23, 0.0, 10.0001135, 10.000249 
1.305041e+3, 1.9500189e+2, -1048043.2, -995638.94, 32759.111, 0.04447584, -0.14558424, -979892.1, 49075.055, 0.0, 9.999656, 10.00036 
1.3050453e+3, 2.0500226e+2, -1000781.4, -996910.9, 201.1945, 0.039115977, -0.10084061, -996900.44, -65936.45, 0.0, 9.9996195, 9.999698 
1.3050495e+3, 2.1500228e+2, -841550.5, -852275.4, -3390.081, 0.06317697, -0.113196, -840568.75, -7604.0596, 0.0, 9.99998, 9.999837 
1.3050541e+3, 2.2500251e+2, -717333.5, -733626.2, 56763.316, 0.08749129, -0.072611414, -668134.94, 66827.87, 0.0, 10.000103, 9.999927 
1.3050595e+3, 2.350026e+2, -642672.25, -634435.25, 15753.808, 0.11567779, -0.099056594, -622270.5, 14690.834, 0.0, 9.999891, 10.000033 
1.3050635e+3, 2.450024e+2, -570396.1, -625272.5, -17370.797, 0.06720361, -0.08299859, -565359.75, -26397.393, 0.0, 10.000039, 9.999357 
1.3050662e+3, 2.5500154e+2, -389080.22, -476808.38, -30658.61, -0.05686606, -0.14912163, -379427.88, 61541.477, 0.0, 10.000569, 9.999449 
1.3050708e+3, 2.650004e+2, -274326.72, -460452.44, 6711.954, -0.034327984, -0.16116422, -274085.0, 68894.78, 0.000000026393016, 10.001071, 9.9986515 
1.3050771e+3, 2.7499866e+2, -101008.305, -319227.56, -20035.47, 0.12704279, -0.24154004, -99184.03, 145812.39, 0.0000066700077, 10.001547, 9.998723 
1.3050818e+3, 2.8499767e+2, -1671.1787, -310509.72, -15116.055, 0.15967073, -0.16145574, -933.0897, 146072.48, 0.00007506801, 10.001966, 9.997881 
1.3050853e+3, 2.94997e+2, 174259.75, -169386.5, -34127.023, 0.07118076, -0.06982549, 177616.08, 226627.69, 0.00033561388, 10.002467, 9.997935 
1.3050899e+3, 3.0499294e+2, 133388.52, -313210.53, 27830.629, 0.01628306, -0.19153206, 135116.14, 135116.14, 0.0008838956, 10.00251, 9.996615 
1.3050967e+3, 3.1499055e+2, 220464.33, -37056.15, -54878.51, 0.1744361, -0.15462866, 231671.4, 231671.4, 0.0016899819, 10.002008, 9.998762 
1.3150087e+3, 1.2499393e+2, -1968984.6, -1780819.0, 41257.91, -0.06857908, -0.16844381, -1772170.3, -57124.36, 0.005819013, 9.997945, 10.000508 
1.3150156e+3, 1.349945e+2, -1670511.9, -1612142.6, 37864.06, 0.15309554, -0.1614582, -1593521.1, 23518.578, 0.0032902497, 9.99947, 10.000273 
1.3150193e+3, 1.4499499e+2, -1583381.5, -1524920.6, -1461.0017, -0.0024456359, -0.13271363, -1524884.1, -5848.9478, 0.0013013786, 9.999415, 10.000201 
1.3150243e+3, 1.5499562e+2, -1614288.9, -1486364.5, -24183.277, 0.08131262, -0.13470474, -1481945.5, -60915.19, 0.00026992275, 9.998524, 10.000227 
1.3150284e+3, 1.6499607e+2, -1460421.8, -1290650.1, -45126.406, 0.08610461, -0.1349056, -1279400.8, 43623.543, 0.00001153221, 9.998596, 10.000869 
1.315031e+3, 1.749962e+2, -1191764.5, -1095483.3, 12869.252, -0.06158845, -0.25386807, -1093792.8, 131225.72, 0.0, 9.999718, 10.000985 
1.3150352e+3, 1.8499677e+2, -1125531.3, -1141286.6, 28362.416, -0.07028629, -0.23121427, -1103972.8, 23038.818, 0.0, 10.000037, 9.999849 
1.3150413e+3, 1.9499746e+2, -1094535.4, -1063727.0, 28878.19, 0.08094784, -0.19093814, -1046401.4, -17394.695, 0.0, 9.9995365, 9.9999485 
1.3150457e+3, 2.0499761e+2, -999841.56, -954250.56, -1949.9056, 0.075886995, -0.16716349, -954167.3, -23162.268, 0.0, 9.999447, 10.000072 
1.315048e+3, 2.1499687e+2, -847462.25, -820432.8, 28126.193, -0.090295956, -0.292982, -802742.9, 30267.627, 0.0, 9.999781, 10.0001545 
1.315053e+3, 2.2499697e+2, -798751.06, -837012.56, 30772.082, -0.06117161, -0.25017363, -781647.75, -46637.625, 0.0, 9.999834, 9.999341 
1.3150603e+3, 2.349976e+2, -722594.25, -740019.3, 27214.596, 0.18356748, -0.16516627, -702731.56, -65724.62, 0.0, 9.9996395, 9.999428 
1.3150652e+3, 2.4499738e+2, -606131.9, -637262.8, -16098.521, 0.20397687, -0.12146607, -599304.4, -60294.484, 0.0, 9.999773, 9.999403 
1.3150676e+3, 2.549961e+2, -420533.8, -486301.53, 7548.0566, -0.0020924616, -0.23532543, -419678.66, 21341.973, 0.0, 10.000326, 9.999504 
1.3150722e+3, 2.6499516e+2, -321260.38, -501800.34, 8031.6885, -0.03654951, -0.22267927, -320903.75, 22124.813, 0.000000066602475, 10.000836, 9.998476 
1.3150786e+3, 2.749941e+2, -150935.75, -361649.2, 22306.477, 0.09390187, -0.2162041, -148600.23, 96437.34, 0.0000067822207, 10.001302, 9.998542 
1.3150838e+3, 2.8499237e+2, -33719.133, -341437.7, -11368.058, 0.11514737, -0.19361472, -33299.734, 113753.64, 0.000081610815, 10.0018, 9.997757 
1.3150878e+3, 2.949896e+2, 125281.55, -207581.6, 8697.768, 0.03191582, -0.30761144, 125508.664, 174588.25, 0.00036944333, 10.002192, 9.99781 
1.3150921e+3, 3.049865e+2, 149180.83, -233590.06, -1713.5482, -0.044431977, -0.35606357, 149188.5, 149188.5, 0.000976967, 10.002314, 9.997252 
1.3150987e+3, 3.149853e+2, 239838.08, 99713.6, -6121.5923, 0.105892606, -0.26382113, 240105.0, 240105.0, 0.0018699723, 10.0016165, 9.999883 
1.3250081e+3, 1.24989465e+2, -1728533.9, -1644283.6, 200535.75, 0.026558898, -0.11727958, -1481496.3, 233595.86, 0.006183249, 9.999467, 10.000737 
1.3250141e+3, 1.3498986e+2, -1697164.5, -1575094.6, 41161.887, 0.089151934, -0.16728713, -1562511.9, 54573.254, 0.0035072896, 9.999084, 10.000706 
1.3250187e+3, 1.4499025e+2, -1724354.6, -1604509.4, 7907.8027, 0.042973507, -0.16584192, -1603989.8, -84908.77, 0.0013982238, 9.998492, 10.000099 
1.3250233e+3, 1.5499145e+2, -1627785.9, -1500984.8, -11250.074, 0.13569729, -0.102773644, -1499994.3, -78921.875, 0.00029637254, 9.998467, 10.000149 
1.3250275e+3, 1.6499205e+2, -1446093.1, -1266551.9, 39692.555, 0.14040226, -0.09320368, -1258168.3, 64896.78, 0.000014169166, 9.998621, 10.001016 
1.3250305e+3, 1.7499185e+2, -1280679.8, -1129623.1, -3111.9915, -0.042525727, -0.2585586, -1129559.0, 95501.79, 0.0, 9.999048, 10.001081 
1.325035e+3, 1.8499218e+2, -1228797.0, -1209204.5, -10470.686, -0.06813219, -0.2554144, -1204662.0, -77606.39, 0.0, 9.99941, 9.999687 
1.325041e+3, 1.9499274e+2, -1062034.6, -1068943.4, -27191.268, 0.085564606, -0.21018802, -1038079.2, -9027.08, 0.0, 9.999839, 9.999769 
1.3250455e+3, 2.0499277e+2, -930917.0, -940478.44, -32940.16, 0.09816321, -0.18191157, -902412.44, 28639.5, 0.0, 10.000029, 9.999876 
1.3250485e+3, 2.1499197e+2, -827629.8, -829765.94, -76224.25, -0.043439396, -0.29151812, -752466.1, 80591.61, 0.0, 10.000023, 9.999967 
1.3250531e+3, 2.2499189e+2, -786223.4, -829617.44, -50261.09, -0.023411293, -0.25794038, -753176.1, -18116.992, 0.0, 9.999925, 9.99935 
1.3250598e+3, 2.3499225e+2, -703657.25, -723493.06, -46609.664, 0.17843981, -0.19989964, -665922.0, -28863.85, 0.0, 9.999757, 9.999481 
1.325065e+3, 2.4499203e+2, -580201.8, -654267.4, -8875.154, 0.21119805, -0.14326021, -579153.1, -40091.652, 0.0, 10.000081, 9.999133 
1.3250688e+3, 2.5499097e+2, -357175.25, -481924.47, -45202.08, 0.065461926, -0.21085456, -342518.56, 98553.5, 0.0, 10.000883, 9.999255 
1.3250737e+3, 2.6498997e+2, -280271.2, -472327.66, -37704.73, 0.03306307, -0.19279021, -273134.16, 69946.32, 0.0000000978673, 10.001092, 9.998544 
1.3250796e+3, 2.7498868e+2, -222050.8, -384188.75, -46841.06, 0.11059176, -0.21822786, -209491.45, 35599.168, 0.000006920427, 10.000776, 9.998631 
1.3250852e+3, 2.849868e+2, -150272.34, -390633.25, -4808.864, 0.123984344, -0.21805175, -150176.17, -3068.6318, 0.000086783395, 10.000997, 9.997803 
1.3250902e+3, 2.94984e+2, 84921.87, -223695.3, -21635.824, 0.07894422, -0.33076048, 86431.27, 135565.75, 0.0003950438, 10.001906, 9.997839 
1.3250947e+3, 3.0498168e+2, 131235.52, -216996.4, -39348.176, 0.00934308, -0.31550196, 135626.27, 135626.27, 0.0010503886, 10.002107, 9.997456 
1.3251011e+3, 3.1497994e+2, 237572.75, 130840.62, -131352.81, 0.21789761, -0.2948394, 325986.44, 325986.44, 0.0020140882, 10.001458, 10.000168 
1.3350078e+3, 1.24985896e+2, -1722921.1, -1630608.3, 72743.97, -0.025913563, -0.039682627, -1590613.0, 124511.96, 0.0065457188, 9.999457, 10.000833 
1.3350108e+3, 1.3498546e+2, -1705456.3, -1589014.9, 27314.95, -0.17428683, -0.16497949, -1582925.8, 34201.95, 0.0037237175, 9.99907, 10.000616 
1.3350172e+3, 1.4498591e+2, -1681203.0, -1529260.6, -17451.865, 0.0050734286, -0.17849702, -1527281.9, -8158.835, 0.0014951822, 9.99854, 10.000602 
1.3350208e+3, 1.549875e+2, -1592227.1, -1431888.1, 4840.22, 0.01144242, -0.12272946, -1431742.3, -10633.145, 0.00032323142, 9.998474, 10.000626 
1.3350256e+3, 1.6498813e+2, -1503531.0, -1381815.3, 35228.09, 0.041459847, -0.09406793, -1372354.5, -49252.313, 0.000017128494, 9.998605, 10.000233 
1.3350303e+3, 1.7498772e+2, -1344121.5, -1246384.4, 28138.426, 0.0025687108, -0.20482096, -1238862.3, -13758.758, 0.00000000003443261, 9.998987, 10.000307 
1.3350348e+3, 1.849878e+2, -1236188.8, -1212013.3, -13235.135, -0.05361081, -0.1905704, -1206176.8, -79074.8, 0.0, 9.999348, 9.999704 
1.3350396e+3, 1.9498788e+2, -1076830.5, -1074391.8, 4352.1904, -0.07495888, -0.1940105, -1071091.4, -41989.453, 0.0, 9.999721, 9.999794 
1.3350445e+3, 2.0498784e+2, -1010047.1, -1062493.3, -52588.613, -0.02845773, -0.13648371, -977506.2, -46402.945, 0.0, 9.999847, 9.999128 
1.3350499e+3, 2.1498746e+2, -914632.56, -958173.1, -58540.613, 0.06732409, -0.12925613, -873945.25, -40837.496, 0.0, 9.999795, 9.999201 
1.335054e+3, 2.2498709e+2, -779927.25, -761607.5, -69303.03, 0.05351898, -0.11229244, -700861.6, 34249.285, 0.0, 9.999684, 9.999928 
1.3350576e+3, 2.3498651e+2, -696310.1, -658182.94, -33215.49, -0.0408963, -0.20980355, -638949.2, -1834.3254, 0.0, 9.999534, 10.000037 
1.3350627e+3, 2.4498631e+2, -653942.4, -751567.25, 4538.6177, -0.061638467, -0.15313148, -653731.8, -114614.086, 0.0, 9.999851, 9.9985695 
1.3350692e+3, 2.549861e+2, -431596.28, -583226.5, 3860.2869, -0.009115537, -0.07786054, -431498.06, 9625.396, 0.0, 10.000659, 9.998663 
1.335075e+3, 2.6498488e+2, -294546.78, -455318.25, -66803.4, 0.024483737, -0.06218892, -270411.9, 72723.125, 0.00000008871969, 10.000889, 9.99876 
1.33508e+3, 2.7498233e+2, -240420.02, -362900.78, -38070.258, 0.032693658, -0.24113823, -229551.25, 15604.104, 0.000006673535, 10.000529, 9.998892 
1.3350856e+3, 2.8498083e+2, -169671.6, -386940.6, 9469.728, 0.03251747, -0.22261612, -169259.63, -22090.979, 0.00008871381, 10.000803, 9.997923 
1.3350922e+3, 2.949802e+2, 55644.13, -225304.27, 37788.7, 0.038006846, -0.13692436, 60638.094, 109815.06, 0.00040777776, 10.001651, 9.997954 
1.3350971e+3, 3.0497855e+2, 91003.15, -255118.0, -72260.984, -0.000025457122, -0.04949806, 105483.54, 105483.54, 0.0010944809, 10.001912, 9.997283 
1.3351032e+3, 3.1497404e+2, 134785.28, 10415.635, -65734.766, 0.21090865, -0.29093078, 163088.08, 163088.08, 0.002108087, 10.001056, 9.999536 
1.3450082e+3, 1.2498147e+2, -1855621.3, -1687167.3, 30250.498, 0.12638827, -0.075767264, -1681899.6, 33266.887, 0.0069055543, 9.998532, 10.000876 
1.3450092e+3, 1.3498132e+2, -1839459.1, -1647674.8, 26938.21, -0.17020836, -0.17541845, -1643962.9, -26795.467, 0.0039389143, 9.998151, 10.000645 
1.3450159e+3, 1.4498195e+2, -1707144.8, -1540930.4, 43397.04, 0.034967285, -0.1744959, -1530282.0, -11120.587, 0.0015916337, 9.998369, 10.000606 
1.3450202e+3, 1.5498328e+2, -1386205.3, -1332621.9, -7353.617, 0.03389843, -0.14291534, -1331631.0, 89518.49, 0.0003501717, 9.999896, 10.000624 
1.345025e+3, 1.6498381e+2, -1336679.3, -1375106.1, 7892.48, 0.07010508, -0.08990542, -1335121.4, -11976.735, 0.000020254476, 10.000057, 9.999585 
1.3450296e+3, 1.7498341e+2, -1412019.9, -1348218.3, -28434.682, 0.049598705, -0.13266326, -1337385.1, -112236.68, 0.0000000014653116, 9.998827, 9.999683 
1.3450342e+3, 1.8498313e+2, -1336822.6, -1259406.0, 8999.782, 0.0045466064, -0.12278022, -1258373.5, -131222.86, 0.0, 9.998643, 9.999716 
1.3450395e+3, 1.9498259e+2, -1092385.4, -1079768.1, -7487.0474, -0.036331765, -0.19185528, -1076286.3, -47130.84, 0.0, 9.999605, 9.999809 
1.345045e+3, 2.049824e+2, -957937.94, -1036052.75, -22404.557, 0.016362337, -0.15091209, -951968.2, -20811.053, 0.0, 10.000179, 9.999151 
1.3450505e+3, 2.1498238e+2, -824490.8, -905506.25, -9539.278, 0.14151333, -0.11605102, -823382.75, 9775.144, 0.0, 10.000365, 9.999279 
1.3450547e+3, 2.2498195e+2, -707868.94, -761378.8, 354.27414, 0.118677735, -0.09392545, -707866.56, 27294.941, 0.0, 10.000334, 9.999621 
1.3450575e+3, 2.3498088e+2, -631480.7, -656489.1, -59930.777, -0.031446803, -0.20877118, -582763.56, 54407.227, 0.0, 10.000121, 9.999763 
1.3450626e+3, 2.4498041e+2, -582141.9, -708566.75, 35048.027, -0.06908173, -0.16794163, -573075.9, -33899.723, 0.0, 10.000313, 9.998651 
1.34507e+3, 2.5498024e+2, -390761.5, -551523.06, 46739.31, 0.0030141056, -0.095197275, -378160.4, 63020.203, 0.0, 10.000901, 9.998769 
1.3450761e+3, 2.649792e+2, -232559.6, -434315.44, -355.12918, 0.035384707, -0.05956434, -232558.97, 110631.64, 0.000000062099474, 10.001356, 9.998679 
1.3450809e+3, 2.749769e+2, -68881.05, -292620.0, -37223.625, 0.030946521, -0.2062005, -62850.664, 182359.97, 0.0000065347235, 10.001742, 9.9987955 
1.345087e+3, 2.8497544e+2, -12517.42, -274581.7, 55299.93, 0.060916636, -0.19515349, -1326.1292, 145897.84, 0.00008986311, 10.001709, 9.998261 
1.3450943e+3, 2.9497495e+2, 31062.867, -185651.94, 51770.047, 0.12594095, -0.12851284, 42794.863, 92024.586, 0.00041373618, 10.001266, 9.9984045 
1.3450992e+3, 3.0497405e+2, 45402.28, -245875.33, 920.3504, 0.064191364, -0.009784017, 45405.19, 45405.19, 0.001115336, 10.001421, 9.997597 
1.3451047e+3, 3.1497028e+2, 266956.1, 62245.98, -7252.9434, 0.23058717, -0.21171108, 267212.75, 267212.75, 0.0021558118, 10.00201, 9.999418 
1.3550061e+3, 1.2497602e+2, -1856389.9, -1686707.3, -126617.74, -0.012852206, -0.27758163, -1619134.4, 96084.34, 0.0072628423, 9.998541, 10.000876 
1.3550094e+3, 1.3497761e+2, -1838730.4, -1639809.4, 20249.18, -0.017497253, -0.20625499, -1637769.0, -20566.24, 0.004152666, 9.998135, 10.000706 
1.355014e+3, 1.4497839e+2, -1756947.0, -1633514.6, 74832.09, -0.035725303, -0.15584315, -1598232.3, -79036.445, 0.0016872559, 9.998326, 9.999987 
1.3550207e+3, 1.5497878e+2, -1427369.9, -1417378.9, 67569.2, 0.059804883, -0.1639563, -1354620.8, 66572.84, 0.0003769789, 9.99989, 10.000044 
1.3550256e+3, 1.6497901e+2, -1369133.1, -1445139.1, -60066.496, 0.08578157, -0.091170624, -1336057.3, -12864.243, 0.000023370363, 10.000063, 9.999105 
1.355028e+3, 1.7497878e+2, -1454668.5, -1425861.8, -59844.043, -0.02151866, -0.06689176, -1378712.3, -153515.2, 0.0000000068048798, 9.998775, 9.999179 
1.3550328e+3, 1.8497816e+2, -1350968.9, -1265660.9, 26848.502, -0.039685518, -0.06416433, -1257914.4, -130711.83, 0.0, 9.998552, 9.999712 
1.3550404e+3, 1.9497688e+2, -1112087.0, -1090256.1, 47353.707, 0.060746733, -0.2085438, -1052576.1, -23363.55, 0.0, 9.9994755, 9.999799 
1.3550462e+3, 2.0497647e+2, -930568.7, -937406.9, -34714.418, 0.089666836, -0.2273432, -899105.4, 32108.326, 0.0, 10.000001, 9.999912 
1.3550502e+3, 2.1497665e+2, -806419.2, -813198.7, 10917.835, 0.050815176, -0.24700218, -798377.0, 34831.652, 0.0, 10.000126, 10.000029 
1.3550544e+3, 2.2497635e+2, -827742.2, -945563.9, -30007.086, 0.04085771, -0.1938968, -820540.1, -85328.19, 0.0, 10.00006, 9.998486 
1.3550588e+3, 2.349753e+2, -746804.4, -838805.3, -51479.766, 0.06590019, -0.19562748, -723767.1, -86540.945, 0.0, 9.999881, 9.998624 
1.3550644e+3, 2.4497437e+2, -568679.44, -623688.5, 39189.21, 0.042969156, -0.17543736, -548306.06, -9070.216, 0.0, 10.000067, 9.999353 
1.3550706e+3, 2.5497335e+2, -374305.6, -461624.97, 88062.04, -0.040248565, -0.2632414, -319674.4, 121569.23, 0.0, 10.000664, 9.999502 
1.3550767e+3, 2.6497278e+2, -294106.56, -512489.53, -3320.932, -0.07565956, -0.1989797, -294056.06, 49193.43, 0.000000036385206, 10.001139, 9.99825 
1.3550822e+3, 2.7497226e+2, -138816.05, -379039.8, 543.9213, -0.045784064, -0.118404664, -138814.83, 106442.55, 0.0000068750182, 10.0014925, 9.998323 
1.3550888e+3, 2.8497073e+2, -6285.673, -211255.53, 20974.506, 0.03762228, -0.11791477, -4161.3735, 143111.03, 0.00009120505, 10.001495, 9.998797 
1.3550963e+3, 2.949681e+2, 26510.555, -129380.836, 59664.78, 0.16361608, -0.31721023, 46725.02, 96020.234, 0.00041573873, 10.000982, 9.998931 
1.3551009e+3, 3.0496794e+2, 59186.652, -147669.36, 6958.2617, 0.051225036, -0.19118398, 59420.453, 59420.453, 0.0011165407, 10.001148, 9.998393 
1.3551047e+3, 3.1496802e+2, 206383.98, 46213.67, 80379.51, -0.045866642, -0.08698774, 239764.67, 239764.67, 0.0021572434, 10.001569, 9.999512 
1.3650033e+3, 1.24972254e+2, -2052049.3, -1795517.1, -75425.23, -0.06302976, -0.23881514, -1774984.1, -59726.703, 0.0076198755, 9.997229, 10.000767 
1.3650097e+3, 1.3497351e+2, -1712793.9, -1619118.8, -56332.53, 0.15877116, -0.17690824, -1592695.8, 24549.227, 0.004366158, 9.999118, 10.000395 
1.3650131e+3, 1.4497389e+2, -1630953.6, -1604866.0, 33708.395, -0.00577513, -0.13487117, -1581765.8, -62524.082, 0.0017823466, 9.999323, 9.999697 
1.3650203e+3, 1.5497391e+2, -1613855.1, -1536808.4, 19285.69, 0.09407295, -0.15365617, -1532250.5, -111007.82, 0.0004035849, 9.998744, 9.999767 
1.3650258e+3, 1.6497383e+2, -1484813.5, -1501923.6, -53204.71, 0.13467802, -0.097823605, -1439480.4, -116235.445, 0.000026350568, 9.999269, 9.999101 
1.3650283e+3, 1.7497341e+2, -1134172.9, -1268112.4, -56334.44, 0.026884498, -0.09233353, -1113629.6, 111621.06, 0.000000016360648, 10.000963, 9.999208 
1.3650331e+3, 1.8497287e+2, -1010110.9, -1131182.5, 59073.184, 0.008090817, -0.06951593, -986064.06, 141192.08, 0.0, 10.00104, 9.999429 
1.3650401e+3, 1.9497192e+2, -1120488.1, -1117462.1, 22257.988, 0.098737314, -0.15483946, -1096665.8, -67402.07, 0.0, 9.999549, 9.999561 
1.3650459e+3, 2.0497142e+2, -1052030.5, -997400.94, -37375.62, 0.114109844, -0.1716667, -978422.8, -47156.734, 0.0, 9.999156, 9.99992 
1.3650502e+3, 2.149711e+2, -842023.6, -831039.75, -79888.9, 0.050441764, -0.24066705, -756454.25, 76811.49, 0.0, 9.999869, 10.000042 
1.365055e+3, 2.2497068e+2, -750909.75, -915508.44, -73671.35, 0.06239057, -0.19642518, -722752.5, 12517.236, 0.0, 10.000618, 9.998422 
1.3650602e+3, 2.3496991e+2, -531940.3, -748802.3, -57255.2, 0.14482345, -0.16251285, -517752.22, 119528.71, 0.0, 10.001397, 9.99852 
1.3650657e+3, 2.4496898e+2, -371083.1, -516826.9, 70784.24, 0.120759524, -0.14327809, -342364.03, 196926.19, 0.0, 10.001378, 9.999451 
1.3650714e+3, 2.5496763e+2, -372266.88, -448451.5, 32867.063, -0.025329689, -0.27152503, -360047.47, 81252.836, 0.0, 10.000626, 9.999607 
1.3650775e+3, 2.6496714e+2, -367343.06, -542681.6, -943.40784, -0.07251196, -0.20911437, -367338.0, -24032.367, 0.000000033203506, 10.000617, 9.998295 
1.3650839e+3, 2.7496716e+2, -137066.0, -365678.75, 1116.8148, -0.016524183, -0.083000466, -137060.55, 108248.695, 0.0000069323874, 10.001459, 9.9984255 
1.3650908e+3, 2.8496575e+2, -22265.824, -213334.83, 16484.445, 0.08283866, -0.07841556, -20854.063, 126469.08, 0.00008948749, 10.001395, 9.998817 
1.3650978e+3, 2.949628e+2, -26532.783, -145195.92, -23585.775, 0.23373806, -0.31152603, -22016.691, 27331.82, 0.00040625758, 10.000591, 9.999 
1.3651024e+3, 3.049624e+2, 52448.137, -108837.055, -2718.6577, 0.12720563, -0.23062414, 52493.953, 52493.953, 0.0010893871, 10.000921, 9.998786 
1.3651069e+3, 3.1496346e+2, 286408.25, 83033.805, -16068.153, -0.007735654, -0.046834197, 287669.94, 287669.94, 0.00210587, 10.002079, 9.999567 
1.3750027e+3, 1.2496987e+2, -2079545.9, -1841826.9, 144009.72, 0.073574714, 0.0028046174, -1773960.9, -58675.082, 0.0079810945, 9.99721, 10.000441 
1.3750093e+3, 1.3496898e+2, -1755270.1, -1707140.4, 16282.509, 0.1766099, -0.092614286, -1702149.5, -84855.305, 0.0045821774, 9.999116, 9.999785 
1.3750125e+3, 1.4496854e+2, -1625363.5, -1598687.3, -18565.158, -0.037010174, -0.10691951, -1589165.6, -69867.336, 0.0018779465, 9.999341, 9.999736 
1.3750185e+3, 1.5496866e+2, -1612743.0, -1535992.1, 14675.392, 0.0066586225, -0.116521806, -1533281.8, -111985.01, 0.00043006244, 9.998742, 9.999779 
1.3750248e+3, 1.6496833e+2, -1453626.0, -1434151.5, -11129.848, 0.06429793, -0.10831229, -1429100.6, -105800.69, 0.000029160963, 9.999251, 9.9995775 
1.37503e+3, 1.7496745e+2, -1104430.4, -1198146.6, 24634.62, 0.05685216, -0.20021692, -1098349.4, 126959.15, 0.000000027808229, 10.0009165, 9.999718 
1.3750345e+3, 1.8496731e+2, -1057476.5, -1214515.8, -16167.299, 0.0026670974, -0.13553245, -1055829.3, 71481.6, 0.0, 10.000983, 9.99888 
1.3750385e+3, 1.949675e+2, -1182157.5, -1214631.9, -21151.988, -0.053344186, -0.047523614, -1171729.1, -142418.08, 0.0, 9.999416, 9.9989605 
1.3750435e+3, 2.0496708e+2, -1119502.5, -1098414.6, -28151.037, -0.059352253, 0.005539195, -1078897.8, -147581.75, 0.0, 9.998988, 9.999309 
1.3750497e+3, 2.149658e+2, -921946.9, -941395.4, -33923.39, -0.0075681075, -0.097866744, -896381.5, -63053.547, 0.0, 9.999628, 9.999404 
1.3750555e+3, 2.2496516e+2, -729121.4, -801772.0, -59587.8, 0.031059325, -0.091291785, -695659.6, 39673.52, 0.0, 10.000332, 9.999336 
1.375061e+3, 2.349648e+2, -511511.56, -635463.9, -7911.1963, 0.060331177, -0.104776114, -511008.7, 126325.59, 0.0, 10.001106, 9.999431 
1.3750663e+3, 2.4496418e+2, -447028.6, -618805.94, 21352.95, 0.020738455, -0.070574805, -444414.06, 94925.38, 0.0, 10.001128, 9.998876 
1.3750717e+3, 2.5496316e+2, -445070.75, -548965.56, 21208.361, -0.085455775, -0.11273072, -440908.2, 442.02853, 0.0, 10.000404, 9.999026 
1.3750781e+3, 2.649624e+2, -355878.4, -475541.16, 14590.121, -0.10103378, -0.07221171, -354125.16, -10767.191, 0.000000022673568, 10.000426, 9.998846 
1.3750854e+3, 2.749615e+2, -133874.53, -300971.13, 53330.152, -0.027648434, -0.09693829, -118304.6, 127062.375, 0.0000066245593, 10.001218, 9.998983 
1.375092e+3, 2.8496042e+2, -74166.24, -288255.97, -32889.492, 0.051547095, -0.06812403, -69227.52, 78149.61, 0.00008473701, 10.001239, 9.998382 
1.375098e+3, 2.9495904e+2, -91078.66, -225111.19, -28662.297, 0.15888728, -0.10154447, -85206.6, -35817.406, 0.00038290335, 10.000354, 9.99857 
1.3751034e+3, 3.0495736e+2, 18744.605, -133385.72, 32588.906, 0.11198734, -0.12279103, 25431.76, 25431.76, 0.0010283956, 10.000731, 9.998698 
1.3751096e+3, 3.1495637e+2, 206645.38, 46924.16, 97047.09, 0.0067837685, -0.14019194, 252466.33, 252466.33, 0.0019973381, 10.00156, 9.999543 
1.3850008e+3, 1.2496463e+2, -1878517.9, -1779450.8, 185509.34, 0.11349076, 0.06640437, -1636975.8, 78361.85, 0.008351057, 9.998744, 10.000139 
1.3850081e+3, 1.3496317e+2, -1768695.3, -1722619.0, -19762.018, 0.16569884, -0.07092451, -1715304.4, -97951.266, 0.004803759, 9.999073, 9.999708 
1.385013e+3, 1.4496271e+2, -1692256.3, -1604488.0, -30241.209, 0.11571287, -0.094288886, -1595077.1, -75719.836, 0.0019753822, 9.998763, 9.999984 
1.3850173e+3, 1.5496309e+2, -1588707.8, -1492949.9, -20182.375, 0.017004145, -0.10581734, -1488870.0, -67518.0, 0.00045665295, 9.998775, 10.000062 
1.3850233e+3, 1.6496311e+2, -1516438.5, -1433619.3, 39579.32, 0.03992611, -0.08834586, -1417746.5, -94394.94, 0.00003186285, 9.998725, 9.999818 
1.3850303e+3, 1.7496265e+2, -1410336.8, -1316297.8, 14957.1875, 0.1147524, -0.1631608, -1313976.1, -88619.08, 0.000000039188958, 9.998712, 9.999958 
1.3850352e+3, 1.849627e+2, -1302015.4, -1313227.1, -10144.594, 0.086725004, -0.10172438, -1296030.9, -168673.52, 0.0, 9.999191, 9.999085 
1.3850386e+3, 1.9496298e+2, -1018874.56, -1105572.8, 18375.34, -0.028735837, -0.029309578, -1015140.75, 14214.43, 0.0, 10.000385, 9.999251 
1.3850436e+3, 2.0496249e+2, -897910.44, -1043010.7, 96865.85, -0.04150792, 0.025262594, -849437.75, 81923.31, 0.0, 10.000747, 9.998832 
1.3850501e+3, 2.1496098e+2, -840281.9, -948717.6, 64026.074, 0.052805327, -0.056859568, -810601.5, 22776.1, 0.0, 10.000404, 9.998968 
1.3850564e+3, 2.2496012e+2, -711371.7, -773788.0, 67705.27, 0.095612556, -0.061883803, -668028.2, 67356.63, 0.0, 10.000345, 9.999534 
1.385062e+3, 2.3495957e+2, -552055.75, -632251.8, 35160.055, 0.0829363, -0.113390066, -538823.9, 98561.65, 0.0, 10.000708, 9.999656 
1.3850674e+3, 2.4495895e+2, -505489.28, -694106.75, 52684.94, 0.02864654, -0.07025893, -491770.97, 47619.832, 0.0, 10.000931, 9.998448 
1.3850723e+3, 2.5495806e+2, -374086.7, -565074.8, 19997.328, -0.079649284, -0.05467364, -372015.3, 69387.5, 0.0, 10.001091, 9.998586 
1.385079e+3, 2.649571e+2, -249811.7, -393582.22, 62353.598, -0.07338521, -0.03042792, -226536.77, 116876.02, 0.0000000049794013, 10.00102, 9.999127 
1.3850872e+3, 2.749556e+2, -169461.48, -288958.66, 43089.49, 0.04389058, -0.13827342, -155544.63, 89879.74, 0.0000064670485, 10.00082, 9.99927 
1.385094e+3, 2.8495458e+2, -89252.586, -351493.13, -18195.824, 0.11370158, -0.09068112, -87996.07, 59437.52, 0.00007994395, 10.001363, 9.997908 
1.3850993e+3, 2.9495376e+2, 245274.95, -105777.75, -58191.76, 0.14817661, -0.019195253, 254669.61, 304112.16, 0.00035496187, 10.002838, 9.9982 
1.3851053e+3, 3.0495116e+2, 278341.75, -91939.27, -11103.553, 0.12904233, -0.08382119, 278674.44, 278674.44, 0.00095268304, 10.002867, 9.997954 
1.385112e+3, 3.149485e+2, 119522.68, -48594.957, -53602.23, 0.12136614, -0.19150142, 135158.81, 135158.81, 0.001860375, 10.001151, 9.999084 
1.3949984e+3, 1.2495547e+2, -1900344.5, -1814919.3, -12390.359, -0.08554415, -0.13196197, -1813158.5, -97735.43, 0.008733579, 9.998724, 9.999891 
1.3950056e+3, 1.3495594e+2, -1736045.6, -1648042.4, -8038.1934, -0.02243116, -0.12941903, -1647314.1, -29891.156, 0.005033633, 9.999051, 10.000225 
1.3950141e+3, 1.4495651e+2, -1654092.4, -1529675.6, -59385.387, 0.29585662, -0.10289282, -1505881.0, 13537.161, 0.002076125, 9.998781, 10.000487 
1.395016e+3, 1.5495722e+2, -1559161.5, -1425010.6, -1699.9647, -0.036747806, -0.12885283, -1424989.0, -3581.0789, 0.00048381835, 9.998747, 10.000542 
1.3950211e+3, 1.6495803e+2, -1522791.0, -1447065.8, 16355.924, -0.100844465, -0.052846473, -1443684.1, -120283.21, 0.000034571214, 9.998725, 9.999727 
1.395029e+3, 1.7495872e+2, -1434061.1, -1345240.5, 27041.188, 0.07946241, 0.0020839998, -1337655.6, -112256.67, 0.00000005013657, 9.998627, 9.999803 
1.3950351e+3, 1.84959e+2, -1222964.0, -1137862.6, 11502.926, 0.11228795, 0.033896904, -1136335.1, -8939.282, 0.0, 9.999143, 10.000311 
1.3950399e+3, 1.9495854e+2, -957187.06, -944324.2, 77681.2, 0.027527269, -0.0879551, -872808.6, 156585.75, 0.0, 10.000238, 10.000434 
1.3950452e+3, 2.049578e+2, -945328.06, -1104958.0, 64280.098, 0.018333735, -0.100730844, -922662.0, 8738.204, 0.0, 10.000586, 9.998483 
1.3950513e+3, 2.1495652e+2, -903368.6, -1022811.75, 64952.023, 0.08912658, -0.12098817, -874855.1, -41439.43, 0.0, 10.000162, 9.998576 
1.395057e+3, 2.2495547e+2, -767101.1, -845411.4, 64109.223, 0.10394968, -0.10499958, -731135.6, 4290.301, 0.0, 10.000139, 9.999145 
1.3950628e+3, 2.3495439e+2, -611080.6, -706548.2, 68769.88, 0.07605356, -0.17716837, -575101.75, 62331.266, 0.0, 10.000488, 9.999253 
1.3950682e+3, 2.4495348e+2, -565896.9, -761043.6, 41236.227, -0.006947147, -0.12759447, -557541.06, -18098.625, 0.0, 10.000683, 9.998107 
1.3950732e+3, 2.5495237e+2, -442676.75, -639381.3, 44380.33, -0.13817039, -0.09763511, -433127.3, 8331.009, 0.0, 10.00081, 9.998206 
1.3950798e+3, 2.649511e+2, -284817.75, -418015.3, 37767.996, -0.11909394, -0.07489059, -274854.03, 68616.414, 0.0000000011462398, 10.000807, 9.999065 
1.3950884e+3, 2.749496e+2, -207907.4, -314209.72, 56230.414, 0.061949275, -0.18522206, -183683.47, 61796.793, 0.0000063015364, 10.000581, 9.999215 
1.3950956e+3, 2.8494847e+2, -162932.05, -448755.88, 18964.998, 0.11288268, -0.1177098, -161679.17, -14188.406, 0.000075522126, 10.00113, 9.997348 
1.3951014e+3, 2.9494715e+2, 157977.08, -216858.66, 22648.387, 0.037032373, -0.041020002, 159340.58, 208847.94, 0.00033164787, 10.002547, 9.997574 
1.3951074e+3, 3.0494383e+2, 154065.22, -300869.75, -91631.01, 0.027903643, -0.07682343, 171827.61, 171827.61, 0.0008920203, 10.002651, 9.996625 
1.395113e+3, 3.1494054e+2, -8897.188, -196571.7, -64973.13, 0.05292942, -0.11822878, 11401.169, 11401.169, 0.0017485601, 10.000667, 9.998295 
1.4049993e+3, 1.24948114e+2, -2002875.6, -1836384.8, -37716.93, 0.20544809, -0.17312834, -1828238.9, -112742.99, 0.009133226, 9.997868, 10.000159 
1.4050046e+3, 1.349496e+2, -1750548.0, -1608991.8, 1693.1791, -0.002333732, -0.1161153, -1608971.5, 8513.505, 0.005275387, 9.998729, 10.000652 
1.4050126e+3, 1.449505e+2, -1617516.6, -1480848.1, -36412.773, 0.2774297, -0.09440129, -1471752.0, 47724.402, 0.0021822979, 9.998912, 10.000753 
1.4050151e+3, 1.5495135e+2, -1532438.6, -1386164.5, -42275.297, 0.019451233, -0.12654267, -1374825.4, 46639.367, 0.00051218417, 9.998827, 10.000766 
1.4050204e+3, 1.6495207e+2, -1526393.5, -1459353.1, 13669.836, -0.03549842, -0.06586709, -1456672.9, -133214.53, 0.000037386584, 9.998729, 9.999645 
1.405028e+3, 1.7495252e+2, -1385170.8, -1320938.0, -5518.9883, 0.11284834, -0.039224558, -1320467.3, -95008.65, 0.00000006103049, 9.998953, 9.999809 
1.4050344e+3, 1.849528e+2, -1217873.8, -1110393.9, 8552.597, 0.15218742, -0.019090196, -1109717.6, 17737.49, 0.0, 9.9990835, 10.000523 
1.40504e+3, 1.9495264e+2, -1081782.8, -976016.2, -37180.188, 0.08677129, -0.13428976, -964254.25, 65196.26, 0.0, 9.999267, 10.000682 
1.405046e+3, 2.0495212e+2, -1047246.1, -1150652.9, -46597.53, 0.078311585, -0.14016843, -1029346.56, -97892.484, 0.0, 9.9998665, 9.998525 
1.405052e+3, 2.1495096e+2, -759213.06, -940981.4, -48176.832, 0.115581, -0.15524413, -747233.5, 86234.805, 0.0, 10.0011, 9.998688 
1.405058e+3, 2.2494993e+2, -592921.1, -816172.8, -11638.875, 0.1208842, -0.1158688, -592316.0, 143163.6, 0.0, 10.001589, 9.998639 
1.405064e+3, 2.3494874e+2, -515232.47, -707236.6, -54051.465, 0.09918261, -0.14753944, -501062.16, 136428.16, 0.0, 10.001363, 9.998817 
1.4050695e+3, 2.4494767e+2, -463984.34, -693633.1, -27654.932, 0.038748037, -0.10074994, -460701.0, 78800.66, 0.0, 10.0013, 9.998278 
1.4050749e+3, 2.549464e+2, -332680.5, -559137.0, -16191.933, -0.071051896, -0.105597734, -331528.63, 109988.195, 0.0, 10.001457, 9.998443 
1.4050816e+3, 2.649449e+2, -175393.63, -391103.66, 26277.916, -0.059589226, -0.10495508, -172238.58, 171291.53, 0.0000000047036606, 10.001676, 9.998829 
1.4050898e+3, 2.7494326e+2, -14798.794, -241102.03, -16258.051, 0.08231962, -0.20620033, -13636.752, 231905.06, 0.000006310061, 10.002018, 9.999016 
1.4050971e+3, 2.8494197e+2, 2999.4756, -377760.44, 25168.473, 0.10797602, -0.13939671, 4655.9214, 152209.81, 0.00007178299, 10.002298, 9.997269 
1.4051037e+3, 2.949404e+2, 131000.35, -244357.53, 31662.127, 0.017287366, -0.08033284, 133652.38, 183225.67, 0.0003183702, 10.002414, 9.997455 
1.40511e+3, 3.0493745e+2, 126815.68, -336763.84, -38463.203, 0.04722618, -0.060976222, 129985.3, 129985.3, 0.0008620041, 10.002567, 9.996413 
1.4051153e+3, 3.1493413e+2, 317429.84, -19823.408, -10310.966, 0.12217517, -0.08566141, 317744.8, 317744.8, 0.0016920328, 10.002811, 9.998483 
1.4149985e+3, 1.24942444e+2, -1925002.5, -1685277.3, -139240.81, 0.24472015, -0.0985746, -1621414.4, 94142.89, 0.009556688, 9.997899, 10.001196 
1.4150046e+3, 1.349443e+2, -1734983.4, -1566145.4, 48141.113, 0.09075078, -0.030658402, -1553383.4, 64153.688, 0.0055341963, 9.998689, 10.000969 
1.415008e+3, 1.4494461e+2, -1613232.9, -1481692.9, -65115.145, -0.12630916, -0.08589696, -1454912.0, 64620.48, 0.0022969088, 9.998951, 10.000729 
1.4150147e+3, 1.5494545e+2, -1544664.4, -1407969.3, -31703.912, 0.05104129, -0.107523255, -1400974.1, 20548.896, 0.0005425403, 9.998811, 10.000626 
1.4150208e+3, 1.649454e+2, -1511006.0, -1434007.0, -3957.7102, 0.08939973, -0.1238718, -1433804.1, -110281.414, 0.000040406845, 9.998754, 9.999813 
1.4150268e+3, 1.7494427e+2, -1386516.1, -1303979.4, 18828.514, 0.075438224, -0.26724032, -1299887.0, -74353.71, 0.00000007226826, 9.998867, 9.999974 
1.4150329e+3, 1.8494429e+2, -1279924.3, -1225031.1, -3725.65, 0.055192567, -0.24248552, -1224779.4, -97246.445, 0.0, 9.999025, 9.999761 
1.415039e+3, 1.949452e+2, -1158947.4, -1107112.4, -16292.073, 0.017285015, -0.16984554, -1102417.0, -72892.914, 0.0, 9.999142, 9.999844 
1.4150454e+3, 2.0494531e+2, -1031332.8, -1083309.8, -23565.602, -0.0035987599, -0.096428126, -1022239.4, -90715.63, 0.0, 9.999713, 9.999061 
1.4150524e+3, 2.149443e+2, -761627.6, -888223.2, 14197.535, 0.009476963, -0.15065944, -760054.94, 73479.93, 0.0, 10.000843, 9.999179 
1.4150588e+3, 2.2494343e+2, -671924.25, -918521.75, -39956.09, 0.014765558, -0.09212283, -665611.8, 69934.07, 0.0, 10.001325, 9.99806 
1.4150648e+3, 2.3494253e+2, -602193.4, -822284.75, -46538.246, 0.020333601, -0.03496906, -592757.44, 44801.234, 0.0, 10.001088, 9.9981575 
1.4150709e+3, 2.4494159e+2, -438543.88, -595128.5, -36572.75, 0.0046191057, 0.020507911, -430422.94, 109145.07, 0.0, 10.001092, 9.999055 
1.415077e+3, 2.5494027e+2, -304853.63, -459483.25, 9065.451, -0.027725697, -0.0703204, -304323.94, 137253.38, 0.0, 10.001268, 9.999219 
1.4150837e+3, 2.6493856e+2, -241603.97, -478846.0, 20173.16, -0.038838424, -0.10742315, -239900.83, 103690.22, 0.000000079284355, 10.001464, 9.998327 
1.415091e+3, 2.7493635e+2, -92560.73, -342005.78, 19735.945, -0.036095183, -0.21109472, -91008.88, 154602.05, 0.000007370644, 10.001759, 9.998448 
1.415098e+3, 2.8493485e+2, 10572.948, -312740.4, 13348.726, -0.061291154, -0.16234764, 11123.145, 158748.53, 0.00007207351, 10.002084, 9.997816 
1.4151055e+3, 2.9493347e+2, 122987.19, -195440.7, 61121.633, -0.07496419, -0.14109007, 134316.3, 183957.06, 0.00031938194, 10.002125, 9.997932 
1.4151126e+3, 3.049318e+2, 128008.586, -263227.5, -39606.094, 0.020167777, -0.04760617, 131977.77, 131977.77, 0.00086451345, 10.002288, 9.997035 
1.415118e+3, 3.1492922e+2, 295913.0, 62876.406, 44850.8, 0.06094264, -0.072994396, 304247.03, 304247.03, 0.0016914787, 10.002308, 9.99927 
1.4249967e+3, 1.24935605e+2, -1821638.9, -1582354.0, -58123.27, 0.25477853, -0.09407316, -1568982.8, 146644.58, 0.010011913, 9.998411, 10.001658 
1.4250033e+3, 1.3493769e+2, -1991538.0, -1666633.3, -34838.12, 0.20490038, -0.014475706, -1662939.8, -45337.266, 0.0058154534, 9.996868, 10.001149 
1.4250048e+3, 1.449378e+2, -1956760.8, -1675999.0, -76828.81, -0.22118963, -0.08439897, -1656350.3, -136750.98, 0.002423067, 9.996722, 10.000467 
1.4250135e+3, 1.5493828e+2, -1683931.9, -1502904.1, -99237.586, 0.10289241, -0.11747626, -1459101.8, -37506.3, 0.00057589856, 9.997982, 10.000363 
1.4250202e+3, 1.6493843e+2, -1487725.6, -1372153.4, -34719.65, 0.17278688, -0.12271314, -1362525.1, -38932.375, 0.00004378684, 9.998693, 10.0002575 
1.4250259e+3, 1.7493811e+2, -1309393.3, -1212800.9, -28040.148, 0.09462116, -0.2340382, -1205251.1, 20341.797, 0.00000008454083, 9.999156, 10.000453 
1.4250322e+3, 1.8493809e+2, -1252064.6, -1262735.1, 5537.9507, 0.073072076, -0.21706496, -1249710.1, -122117.1, 0.0, 9.999425, 9.999313 
1.4250387e+3, 1.9493821e+2, -1110955.1, -1126894.9, -12141.745, 0.07046832, -0.18221593, -1104401.3, -74806.87, 0.0, 9.999659, 9.9994545 
1.4250456e+3, 2.0493828e+2, -985865.75, -1047204.0, 42204.9, 0.038766604, -0.100510955, -964363.56, -32768.16, 0.0, 9.999959, 9.999189 
1.4250527e+3, 2.1493788e+2, -809556.4, -897087.5, 13718.841, -0.0064626816, -0.10489654, -807456.56, 26143.291, 0.0, 10.000432, 9.99932 
1.4250597e+3, 2.2493704e+2, -756057.8, -967451.0, -29259.012, 0.008137244, -0.04756161, -752082.75, -16472.346, 0.0, 10.000778, 9.997998 
1.4250663e+3, 2.3493558e+2, -598600.7, -825496.3, -28809.79, 0.07512901, -0.038546447, -594999.75, 42629.05, 0.0, 10.001122, 9.998133 
1.4250727e+3, 2.4493457e+2, -410812.34, -561407.4, 15769.235, 0.08904342, 0.0026324377, -409178.8, 130459.45, 0.0, 10.0012045, 9.99923 
1.425079e+3, 2.549337e+2, -304301.53, -439321.16, -22897.045, 0.046724502, -0.06000408, -300524.25, 141117.66, 0.00000000006254562, 10.0011835, 9.999402 
1.4250857e+3, 2.649322e+2, -280447.3, -538797.56, 16506.617, 0.017999856, -0.071216136, -279396.94, 64257.58, 0.00000036239143, 10.001367, 9.997959 
1.425093e+3, 2.7492994e+2, -112754.99, -388167.1, -5672.587, -0.0039350423, -0.1442165, -112638.2, 133038.97, 0.000010087366, 10.001765, 9.998126 
1.4251001e+3, 2.8492826e+2, -13068.849, -287377.03, 12796.495, -0.037561737, -0.11591195, -12473.186, 135220.22, 0.00007872079, 10.0017605, 9.998157 
1.4251074e+3, 2.949266e+2, 68901.29, -178673.92, -9970.442, -0.049288526, -0.15496992, 69302.17, 119010.79, 0.00033516844, 10.001566, 9.998317 
1.4251153e+3, 3.0492532e+2, 143849.5, -222265.67, -50401.664, 0.07906295, -0.05659808, 150661.36, 150661.36, 0.0008965645, 10.002205, 9.997385 
1.4251216e+3, 3.1492236e+2, 473713.6, 165091.2, -52082.996, 0.13912499, -0.15859567, 482266.1, 482266.1, 0.0017444047, 10.003414, 9.999469 
1.4349961e+3, 1.2492886e+2, -1823218.5, -1598103.6, 150886.47, 0.26970774, -0.04568795, -1522416.8, 193277.0, 0.010506618, 9.998451, 10.001532 
1.4350003e+3, 1.3492987e+2, -2001955.0, -1684544.1, -72456.4, 0.19484383, -0.06134654, -1668786.5, -51106.918, 0.006123269, 9.996852, 10.001027 
1.4350024e+3, 1.4493023e+2, -1968926.9, -1715653.9, -50943.88, -0.17768767, -0.093121834, -1705791.0, -186115.58, 0.002563054, 9.996777, 10.000176 
1.4350112e+3, 1.5493007e+2, -1715839.5, -1560753.1, -34813.87, 0.030317623, -0.15087485, -1553296.6, -131617.03, 0.0006133788, 9.99794, 9.999994 
1.4350182e+3, 1.6493131e+2, -1441576.3, -1271901.4, -40829.758, 0.053040203, -0.06293805, -1262587.6, 61079.86, 0.000047750204, 9.998677, 10.000954 
1.4350247e+3, 1.749338e+2, -1268396.0, -1119698.6, 2310.6785, 0.032874383, 0.04015037, -1119662.8, 105977.37, 0.00000010052836, 9.999116, 10.001116 
1.4350319e+3, 1.8493406e+2, -1260702.9, -1264092.1, -8596.463, 0.058937315, 0.051884305, -1253635.6, -125998.96, 0.0, 9.999357, 9.999334 
1.435039e+3, 1.9493175e+2, -1132674.0, -1138837.5, 11912.39, 0.10250432, -0.16039146, -1123451.1, -93790.72, 0.0, 9.9995165, 9.999441 
1.4350459e+3, 2.0493107e+2, -1024626.25, -1091200.3, 38931.97, 0.04562661, -0.1432325, -1006691.0, -75022.6, 0.0, 9.999798, 9.998963 
1.4350528e+3, 2.1493173e+2, -866668.7, -958968.2, 47445.055, -0.0772756, -0.016487839, -846630.6, -12967.497, 0.0, 10.000183, 9.999015 
1.4350602e+3, 2.2493082e+2, -763421.8, -917347.75, -33710.36, -0.05004729, 0.027497798, -756362.9, -20690.06, 0.0, 10.0005045, 9.998468 
1.4350682e+3, 2.3492806e+2, -607942.2, -775230.4, 2631.4294, 0.1305807, -0.14377774, -607900.8, 29799.088, 0.0, 10.000837, 9.99861 
1.435075e+3, 2.4492666e+2, -477921.78, -643599.25, -5573.356, 0.15133794, -0.14273569, -477734.5, 61978.14, 0.0, 10.000955, 9.998789 
1.43508e+3, 2.549265e+2, -380336.4, -529799.56, -5881.879, 0.017183002, -0.087809674, -380105.3, 61607.26, 0.000000006122379, 10.000898, 9.998917 
1.4350869e+3, 2.6492572e+2, -315911.28, -566982.2, 15790.599, -0.027218796, 0.0048756297, -314922.06, 28798.674, 0.0000008787704, 10.001163, 9.99787 
1.4350954e+3, 2.7492404e+2, -152233.19, -421409.9, 30934.426, 0.030162035, 0.000032247455, -148723.88, 97016.38, 0.000014147242, 10.001552, 9.99801 
1.4351028e+3, 2.8492212e+2, -39834.145, -295278.4, -12668.234, 0.016848879, 0.008425655, -39207.426, 108550.7, 0.000090681104, 10.001555, 9.998198 
1.4351091e+3, 2.9491955e+2, 19323.643, -215848.16, 7929.8906, -0.067148454, -0.12797584, 19590.73, 69369.45, 0.0003647409, 10.001276, 9.998205 
1.4351176e+3, 3.0491796e+2, 127022.23, -188356.16, -20508.145, 0.055297703, -0.06465228, 128350.22, 128350.22, 0.0009617202, 10.001935, 9.997736 
1.4351249e+3, 3.149138e+2, 386360.3, 105100.82, 40173.293, 0.072992586, -0.32577077, 391985.88, 391985.88, 0.001861219, 10.002906, 9.9993 
1.4449927e+3, 1.2492092e+2, -2115470.3, -1747229.6, 215158.39, 0.20287476, -0.012543067, -1648165.5, 67606.016, 0.011047917, 9.996453, 10.001469 
1.4449964e+3, 1.349221e+2, -1849996.6, -1593157.0, -129746.266, 0.08293561, -0.03792553, -1539023.5, 78734.555, 0.00646129, 9.997785, 10.001209 
1.4450023e+3, 1.4492278e+2, -1690158.9, -1532066.3, -12711.1045, 0.04246348, -0.06593337, -1531050.8, -11300.057, 0.0027186894, 9.998495, 10.000589 
1.4450097e+3, 1.549229e+2, -1612813.3, -1458558.4, 10212.441, 0.08521508, -0.14435308, -1457885.1, -36135.4, 0.0006559602, 9.998424, 10.000459 
1.4450164e+3, 1.6492414e+2, -1518930.9, -1331440.4, 34061.1, 0.048859853, -0.06794694, -1325444.3, -1707.232, 0.000052490832, 9.998244, 10.000758 
1.4450239e+3, 1.7492643e+2, -1385393.3, -1189529.4, -21040.154, 0.06423381, 0.031879332, -1187294.6, 38418.65, 0.00000012546444, 9.99839, 10.00098 
1.4450315e+3, 1.8492691e+2, -1301987.1, -1282724.9, -8641.072, 0.10513313, 0.06978225, -1279416.6, -151708.05, 0.0, 9.999051, 9.999364 
1.445039e+3, 1.9492522e+2, -1016538.56, -1075614.9, -21902.617, 0.122995764, -0.084593624, -1009304.1, 20422.139, 0.0, 10.000271, 9.999513 
1.4450462e+3, 2.0492451e+2, -903483.75, -1036771.56, 21102.068, 0.059170753, -0.0709427, -900222.6, 31512.014, 0.0, 10.000664, 9.9989195 
1.445053e+3, 2.1492454e+2, -845726.6, -944702.75, 6925.038, -0.058937263, -0.004056524, -845244.44, -11508.349, 0.0, 10.000334, 9.999035 
1.4450608e+3, 2.2492371e+2, -735641.0, -849797.7, -9577.531, -0.028144747, 0.02327181, -734843.0, 900.80896, 0.0, 10.000455, 9.998961 
1.4450692e+3, 2.349217e+2, -539835.6, -686479.06, -5180.6187, 0.14549547, -0.12466057, -539652.8, 98108.164, 0.0, 10.001048, 9.99912 
1.4450762e+3, 2.449203e+2, -458205.03, -684990.56, 6621.9644, 0.17424613, -0.12784207, -458011.84, 81761.71, 0.0, 10.001313, 9.998329 
1.4450814e+3, 2.5491932e+2, -335579.78, -561934.44, -29025.375, 0.052547168, -0.10852207, -331917.13, 109866.82, 0.000000012932129, 10.001414, 9.998456 
1.4450887e+3, 2.6491833e+2, -249167.55, -539725.44, 46965.496, 0.021229077, -0.010500168, -241764.7, 102030.695, 0.0000016431604, 10.00165, 9.997822 
1.4450976e+3, 2.7491713e+2, -61051.766, -377574.56, 21901.871, 0.08300745, 0.03738413, -59543.45, 186267.0, 0.000019343763, 10.002186, 9.997997 
1.4451054e+3, 2.8491506e+2, 83795.4, -220130.11, -1628.1158, 0.08975304, 0.02667404, 83804.12, 231632.47, 0.00010742439, 10.002345, 9.998325 
1.445112e+3, 2.94912e+2, 143521.58, -132375.47, -5034.63, 0.054311983, -0.17241009, 143613.42, 193464.27, 0.0004102239, 10.002041, 9.998395 
1.4451204e+3, 3.0491072e+2, 136949.22, -178967.31, 50265.94, 0.15084633, -0.097035326, 144754.27, 144754.27, 0.001066146, 10.001979, 9.9977865 
1.4451273e+3, 3.1490773e+2, 244199.98, -2679.583, -7501.806, 0.08484241, -0.2466359, 244427.73, 244427.73, 0.0020519032, 10.0021105, 9.998929 
1.4549889e+3, 1.24911234e+2, -2109530.0, -1755895.1, 43841.7, 0.092561916, -0.08153961, -1750540.9, -34674.973, 0.011640448, 9.996539, 10.001367 
1.454991e+3, 1.3491455e+2, -1826827.3, -1528019.0, -53319.113, -0.27469602, 0.05031921, -1518789.9, 99046.25, 0.0068325973, 9.997711, 10.001697 
1.4550035e+3, 1.4491567e+2, -1617443.8, -1384323.4, -31416.207, 0.2555982, -0.0013847423, -1380163.8, 139659.5, 0.0028915813, 9.998506, 10.001599 
1.455009e+3, 1.5491663e+2, -1536658.5, -1293853.4, 21260.541, 0.11186591, -0.10895443, -1292005.9, 129801.23, 0.00070428615, 9.998397, 10.001601 
1.4550148e+3, 1.6491696e+2, -1578759.4, -1463575.5, 12367.818, 0.006432733, -0.13716245, -1462262.4, -138461.08, 0.000058062662, 9.998276, 9.999839 
1.4550224e+3, 1.7491618e+2, -1462823.0, -1336646.3, 984.2123, 0.054351278, -0.24739341, -1336638.5, -110827.75, 0.00000016567238, 9.998332, 10.000001 
1.4550306e+3, 1.8491676e+2, -1301694.5, -1271293.3, 17962.84, 0.062373627, -0.15525135, -1262962.5, -135155.02, 0.0, 9.9990015, 9.99947 
1.4550383e+3, 1.9491862e+2, -1031460.8, -1077187.6, 39752.832, -0.0036912337, 0.041178316, -1008465.5, 21326.574, 0.0, 10.000137, 9.999575 
1.455046e+3, 2.0491858e+2, -924264.44, -1032193.6, -11228.387, -0.06514404, 0.1141704, -923108.7, 8686.183, 0.0, 10.000467, 9.999042 
1.4550534e+3, 2.1491626e+2, -876619.25, -945389.7, 11496.867, -0.08956786, -0.07032576, -874748.1, -40928.53, 0.0, 10.000067, 9.999158 
1.455061e+3, 2.249156e+2, -729778.5, -775729.8, -6101.122, -0.07483383, -0.06458357, -728982.25, 6842.746, 0.0, 10.000188, 9.999598 
1.4550689e+3, 2.349165e+2, -545311.6, -622007.44, 35476.145, -0.021453196, 0.019851644, -531418.56, 106393.53, 0.0, 10.000732, 9.999712 
1.455076e+3, 2.449155e+2, -525952.06, -770727.8, -5093.7993, 0.0044543836, 0.050813604, -525846.1, 13974.641, 0.0, 10.001065, 9.997865 
1.4550827e+3, 2.5491226e+2, -400894.3, -647877.94, -5004.549, 0.01554423, -0.10699635, -400792.97, 41061.652, 0.000000017460069, 10.001196, 9.997975 
1.4550906e+3, 2.6491016e+2, -284165.9, -565298.2, 50515.977, 0.011764843, -0.093322344, -275364.38, 68512.49, 0.000002726617, 10.001444, 9.997744 
1.4550993e+3, 2.7490902e+2, -108759.055, -411328.78, 63168.785, -0.0026005404, -0.033461314, -96100.62, 149788.67, 0.000025176965, 10.001912, 9.99789 
1.4551075e+3, 2.8490704e+2, 73273.695, -178658.78, -30307.74, 0.03642241, -0.052043863, 76868.46, 224773.28, 0.00012773139, 10.002075, 9.99874 
1.4551152e+3, 2.9490402e+2, 140601.19, -82104.3, 8417.126, 0.14484742, -0.29351097, 140918.86, 190844.33, 0.00046808438, 10.001795, 9.998863 
1.4551231e+3, 3.049035e+2, 77467.68, -248636.8, 41218.684, 0.20431983, -0.14472915, 82596.93, 82596.93, 0.00120209, 10.001746, 9.99742 
1.4551282e+3, 3.1490356e+2, 103650.91, -190164.2, 39771.01, -0.105346955, 0.05089565, 108939.16, 108939.16, 0.0023053363, 10.001656, 9.997865 
1.4649875e+3, 1.249038e+2, -2052313.6, -1742482.3, 83186.43, 0.29570678, -0.09348696, -1721560.4, -5621.7573, 0.012283002, 9.997015, 10.001225 
1.4649886e+3, 1.3490729e+2, -1761751.0, -1502620.4, 43554.207, -0.29561752, 0.06075317, -1495495.8, 122412.59, 0.00723705, 9.998209, 10.00162 
1.4650024e+3, 1.4490816e+2, -1657647.5, -1420606.0, 9717.395, 0.33235428, 0.00110458, -1420208.3, 99690.18, 0.0030819494, 9.998279, 10.001476 
1.4650078e+3, 1.5490955e+2, -1539047.8, -1290567.3, -63149.15, 0.18652625, -0.06461135, -1275439.4, 146438.53, 0.0007585455, 9.998343, 10.001658 
1.4650142e+3, 1.6490978e+2, -1507082.1, -1454410.3, -22025.754, 0.094852805, -0.09764477, -1446413.8, -122540.75, 0.00006440502, 9.99887, 9.999612 
1.465022e+3, 1.749082e+2, -1218824.6, -1248194.3, -16300.386, 0.09524638, -0.2641693, -1211569.9, 14320.177, 0.00000022299002, 10.000111, 9.999753 
1.4650302e+3, 1.8490845e+2, -1103573.1, -1173423.4, 48519.332, 0.0763814, -0.19128318, -1078716.3, 49173.81, 0.0, 10.000395, 9.999448 
1.4650385e+3, 1.9491054e+2, -1052307.8, -1080678.3, 23856.043, 0.012169735, 0.02457525, -1038738.2, -8865.553, 0.0, 10.000001, 9.999596 
1.4650464e+3, 2.0491067e+2, -1045687.6, -1070492.8, -19518.273, -0.01031586, 0.10485332, -1034964.7, -103091.08, 0.0, 9.999533, 9.999236 
1.465054e+3, 2.1490851e+2, -1002268.06, -978052.5, -20067.805, 0.025776746, -0.08288599, -966722.8, -132826.66, 0.0, 9.999083, 9.999408 
1.4650616e+3, 2.2490808e+2, -809505.9, -788784.2, 38930.92, 0.012064891, -0.07865253, -758859.0, -22960.08, 0.0, 9.999535, 9.99982 
1.4650692e+3, 2.3490915e+2, -479382.0, -564628.94, 13502.727, -0.057846475, -0.0016684931, -477294.38, 160589.69, 0.0, 10.001059, 9.99995 
1.465077e+3, 2.4490838e+2, -411603.3, -725202.7, -22767.773, -0.048010428, 0.0432726, -409958.97, 129932.24, 0.0, 10.001899, 9.997774 
1.4650846e+3, 2.5490552e+2, -268562.22, -587020.0, -31643.244, 0.038167365, -0.066783875, -265448.47, 176474.38, 0.000000044837254, 10.002134, 9.997931 
1.465093e+3, 2.6490346e+2, -161961.53, -472866.4, 84998.88, 0.090386905, -0.062103264, -140240.97, 203702.92, 0.0000038968087, 10.002139, 9.998046 
1.4651021e+3, 2.74902e+2, -81765.41, -366171.94, 95031.37, 0.10762649, -0.0642087, -52934.38, 193022.11, 0.000030518888, 10.001939, 9.9981985 
1.4651102e+3, 2.8489986e+2, 39942.76, -239329.86, 25273.594, 0.12100292, -0.088977866, 42211.54, 190184.86, 0.00014669454, 10.002037, 9.998345 
1.4651172e+3, 2.9489717e+2, 212510.14, -87395.44, -55460.47, 0.13950925, -0.25290313, 222437.63, 272432.16, 0.00052534003, 10.002478, 9.998491 
1.4651251e+3, 3.0489618e+2, 222554.92, -169354.6, -4203.45, 0.1973892, -0.13936801, 222600.02, 222600.02, 0.0013448142, 10.002715, 9.997482 
1.4651316e+3, 3.1489664e+2, 217894.2, -139413.72, -42264.71, 0.060756627, 0.09681247, 222825.48, 222825.48, 0.0025808995, 10.002455, 9.997819 
1.4749837e+3, 1.24898165e+2, -2046889.3, -1743372.6, -101219.06, 0.12765777, -0.08478089, -1712714.3, 3280.0825, 0.012969953, 9.997078, 10.001175 
1.4749886e+3, 1.3490032e+2, -1820716.8, -1610608.5, 82991.19, -0.14968257, 0.0028722647, -1581782.4, 36192.336, 0.0076708426, 9.998165, 10.000884 
1.4749989e+3, 1.449002e+2, -1714793.0, -1565084.5, -19248.176, 0.089747064, -0.063411154, -1562649.4, -42672.82, 0.0032881629, 9.998371, 10.000447 
1.4750063e+3, 1.5490185e+2, -1613844.4, -1440082.1, -45003.445, 0.16220169, -0.0038846466, -1429118.4, -7157.809, 0.00081847684, 9.998315, 10.00065 
1.4750141e+3, 1.6490279e+2, -1467163.9, -1380507.8, 3426.455, 0.15006518, 0.059839174, -1380372.4, -56422.145, 0.000071419374, 9.998901, 10.000102 
1.4750218e+3, 1.7490265e+2, -1196583.3, -1183786.4, 45432.195, 0.042171255, -0.012339375, -1144304.3, 81645.14, 0.0000002932695, 10.000039, 10.000223 
1.4750303e+3, 1.849021e+2, -1118263.6, -1204237.3, 12814.758, -0.0018333696, -0.031222817, -1116394.3, 11560.448, 0.0, 10.000379, 9.999251 
1.475039e+3, 1.9490089e+2, -1081252.5, -1117206.9, 24802.299, 0.025968602, -0.12893118, -1068597.5, -38628.97, 0.0, 9.999887, 9.999407 
1.475047e+3, 2.0490068e+2, -1041484.6, -1024416.6, -58317.688, 0.06514861, -0.091626994, -974011.8, -42040.207, 0.0, 9.999371, 9.999627 
1.4750543e+3, 2.1490137e+2, -1013181.2, -943392.9, -23442.877, 0.13373701, -0.03587352, -936249.3, -102283.95, 0.0, 9.998839, 9.99976 
1.475062e+3, 2.2490118e+2, -856679.6, -835834.06, 75783.516, 0.081381194, -0.0137784, -769759.94, -33794.332, 0.0, 9.9993, 9.999618 
1.4750701e+3, 2.3489973e+2, -527010.4, -610393.7, 88338.02, -0.10289271, -0.16934569, -471019.88, 166956.03, 0.0, 10.000822, 9.999757 
1.4750782e+3, 2.4489902e+2, -426282.7, -700804.2, -33825.582, -0.14478903, -0.12370881, -422176.25, 117807.37, 0.0, 10.001661, 9.998055 
1.4750864e+3, 2.5489888e+2, -289307.78, -569643.44, -6621.3867, -0.027130805, 0.0071661575, -289151.47, 152838.97, 0.000000082863835, 10.001873, 9.998177 
1.4750956e+3, 2.6489797e+2, -147618.25, -384651.75, 63132.477, 0.105730675, 0.07998526, -131851.97, 212146.7, 0.0000048986644, 10.001883, 9.998774 
1.4751059e+3, 2.748959e+2, -64156.188, -271971.03, 113109.195, 0.25427473, -0.061468642, -14471.807, 231540.33, 0.00003489947, 10.001693, 9.998959 
1.4751132e+3, 2.8489363e+2, -98696.984, -472528.34, 21983.037, 0.17281815, -0.068795845, -97408.72, 50623.992, 0.00016199093, 10.001796, 9.9968605 
1.4751174e+3, 2.948912e+2, 66446.04, -324235.25, -15818.232, -0.13892382, -0.061315473, 67085.45, 117145.98, 0.0005773318, 10.002189, 9.997002 
1.475126e+3, 3.0488843e+2, 221046.53, -105706.52, -27586.264, -0.03446903, -0.07843238, 223359.14, 223359.14, 0.0014793195, 10.002424, 9.998059 
1.4751369e+3, 3.148868e+2, 216940.81, -29948.557, 1047.9906, 0.25246897, -0.11952736, 216945.27, 216945.27, 0.0028372656, 10.001979, 9.9988 
1.4849809e+3, 1.2489226e+2, -1983856.6, -1714411.6, -98831.164, 0.11907857, -0.047585428, -1682048.1, 34006.01, 0.013700781, 9.997488, 10.001191 
1.4849885e+3, 1.3489358e+2, -1823737.1, -1644058.8, 68968.41, 0.029558185, -0.011902028, -1620638.4, -2598.7605, 0.00813248, 9.998236, 10.000639 
1.484997e+3, 1.4489302e+2, -1751947.8, -1650239.3, 45309.484, 0.06563018, -0.07878091, -1632982.5, -112936.76, 0.0035089266, 9.998453, 9.999803 
1.4850053e+3, 1.5489401e+2, -1459387.6, -1433209.6, 5791.665, 0.17886482, -0.022391919, -1431985.5, -9946.464, 0.0008836724, 9.999688, 10.000021 
1.4850138e+3, 1.6489495e+2, -1329347.4, -1279941.5, 80939.4, 0.20104703, 0.06209626, -1220019.3, 104010.305, 0.00007901186, 9.999745, 10.000377 
1.4850217e+3, 1.7489557e+2, -1347588.9, -1221366.6, 66677.914, 0.08958901, 0.037125822, -1192668.4, 33351.586, 0.00000037325287, 9.998879, 10.0005245 
1.4850302e+3, 1.8489522e+2, -1323846.3, -1288876.3, 87673.44, 0.04297259, 0.016444864, -1216961.3, -88938.72, 0.0, 9.998896, 9.99939 
1.485039e+3, 1.948937e+2, -1040900.5, -1078747.8, 88488.086, 0.051889356, -0.12434939, -969335.2, 60704.04, 0.0, 10.000076, 9.999582 
1.4850472e+3, 2.0489354e+2, -854426.4, -931897.94, 16993.453, 0.09321094, -0.094080456, -850862.75, 81178.766, 0.0, 10.000661, 9.999635 
1.4850545e+3, 2.1489458e+2, -743745.2, -808422.25, -14012.802, 0.17786172, -0.0041442686, -740839.7, 93190.695, 0.0, 10.00067, 9.999803 
1.4850625e+3, 2.2489415e+2, -716816.7, -804508.3, 135706.16, 0.14717077, 0.008744615, -618048.94, 117984.0, 0.0, 10.000423, 9.999284 
1.4850713e+3, 2.3489206e+2, -660167.1, -709840.06, 101641.77, -0.024358343, -0.17563337, -580371.4, 57679.945, 0.0, 10.000068, 9.999433 
1.4850797e+3, 2.4489127e+2, -588978.25, -741516.25, 10831.104, -0.080436714, -0.1381624, -588213.0, -48153.074, 0.0, 10.000378, 9.998401 
1.4850882e+3, 2.5489166e+2, -335994.06, -550146.75, 5992.668, -0.007549979, 0.014066373, -335826.5, 106233.44, 0.00000011463164, 10.001374, 9.998554 
1.4850976e+3, 2.6489082e+2, -175252.47, -412162.75, 48032.484, 0.13029921, 0.07905498, -165884.53, 178182.86, 0.000005857849, 10.001771, 9.99863 
1.4851081e+3, 2.748883e+2, -91304.87, -303797.13, -17534.633, 0.32364532, -0.083910815, -89867.65, 156218.11, 0.000039275426, 10.001601, 9.998779 
1.4851156e+3, 2.8488618e+2, -102620.05, -486963.47, -27213.059, 0.24632166, -0.06541604, -100702.82, 47404.027, 0.00017769585, 10.001818, 9.996751 
1.4851199e+3, 2.9488432e+2, 89885.234, -329760.0, -2699.331, -0.0989222, 0.01841352, 89902.6, 140033.88, 0.0006303682, 10.002401, 9.996878 
1.4851284e+3, 3.0488122e+2, 279283.47, -63587.7, 37903.926, -0.023932738, -0.030738177, 283423.72, 283423.72, 0.0016042597, 10.002739, 9.998212 
1.4851396e+3, 3.148791e+2, 351547.88, 106626.19, -59310.36, 0.32859403, -0.1369119, 365154.56, 365154.56, 0.003054721, 10.002586, 9.999448 
1.4949775e+3, 1.24886654e+2, -1934968.4, -1634083.5, 20194.799, -0.05475648, 0.07905651, -1632734.1, 83378.52, 0.014485426, 9.997584, 10.001692 
1.4949876e+3, 1.3488762e+2, -1812811.1, -1606503.6, 92412.16, 0.07594758, 0.04960337, -1571163.0, 46934.758, 0.008627366, 9.998185, 10.0009165 
1.4949962e+3, 1.4488694e+2, -1753194.1, -1689802.0, 57796.438, 0.085380524, -0.030576171, -1655580.9, -135478.16, 0.0037456865, 9.998585, 9.999478 
1.4950044e+3, 1.5488628e+2, -1490123.8, -1497709.1, 67197.29, 0.08400386, -0.10031074, -1426612.3, -4500.698, 0.0009542572, 9.9996805, 9.999589 
1.4950126e+3, 1.6488647e+2, -1314195.6, -1264888.4, 27260.07, 0.076572195, -0.07274751, -1252787.3, 71322.04, 0.00008722728, 9.999806, 10.000451 
1.4950211e+3, 1.7488696e+2, -1349467.6, -1214897.8, 47755.723, 0.103183195, -0.11657128, -1199672.9, 26428.695, 0.0000004647829, 9.9988365, 10.000586 
1.4950295e+3, 1.8488786e+2, -1290418.0, -1220120.3, 109686.58, 0.05510735, -0.039199468, -1140088.5, -11995.537, 0.0, 9.998889, 9.99987 
1.4950383e+3, 1.948891e+2, -1029728.4, -1024228.2, 146330.53, -0.06231628, 0.045458924, -880621.94, 149462.48, 0.0, 9.999939, 10.000026 
1.4950465e+3, 2.048893e+2, -901676.9, -991532.44, -2324.777, -0.075090155, 0.10687508, -901616.8, 30465.936, 0.0, 10.000491, 9.999309 
1.4950539e+3, 2.1488816e+2, -800986.25, -873724.0, 1202.0294, 0.038957834, 0.011568952, -800966.4, 33124.516, 0.0, 10.000444, 9.99946 
1.4950626e+3, 2.2488709e+2, -787615.5, -898607.06, 102589.92, 0.07650817, 0.00290811, -726473.06, 9627.008, 0.0, 10.000186, 9.998757 
1.4950721e+3, 2.3488599e+2, -732470.44, -802975.1, 104811.98, 0.03128232, -0.033869922, -657141.25, -19029.666, 0.0, 9.999821, 9.998914 
1.495081e+3, 2.4488504e+2, -599379.9, -703252.7, 33236.1, -0.011317697, -0.0032037317, -589655.7, -49534.8, 0.0, 10.000116, 9.99879 
1.4950894e+3, 2.5488392e+2, -343906.4, -512854.63, 64313.695, -0.042743064, -0.0463158, -322210.25, 119921.1, 0.00000015644366, 10.001134, 9.99893 
1.4950985e+3, 2.64882e+2, -299090.16, -603360.7, 23312.59, 0.01820314, -0.048169658, -297314.38, 46835.57, 0.000006865855, 10.001494, 9.997445 
1.4951085e+3, 2.7487907e+2, -215806.89, -498161.8, -3340.8826, 0.16868503, -0.13336605, -215767.36, 30411.445, 0.00004412461, 10.001337, 9.997568 
1.4951171e+3, 2.848773e+2, -51764.883, -324919.25, -22685.232, 0.17943601, -0.077259935, -49893.71, 98303.66, 0.00019465707, 10.001568, 9.997988 
1.4951244e+3, 2.948765e+2, 141435.44, -161736.52, 49498.46, 0.06903572, -0.020343209, 149312.33, 199519.72, 0.0006807664, 10.002131, 9.998166 
1.4951321e+3, 3.0487454e+2, 194505.19, -159257.98, 17929.15, 0.037357647, 0.004718659, 195411.53, 195411.53, 0.0017053906, 10.00241, 9.997706 
1.4951396e+3, 3.1487316e+2, 277607.22, 60914.008, -13294.606, -0.021288816, 0.024912525, 278419.84, 278419.84, 0.0032076885, 10.002127, 9.999353 
1.5049751e+3, 1.2487798e+2, -2004085.3, -1713716.0, 29411.326, -0.022344004, 0.069621876, -1710766.9, 5429.643, 0.015336173, 9.997317, 10.001275 
1.5049861e+3, 1.3487917e+2, -1730104.9, -1557089.1, -32432.414, 0.10087758, 0.046222493, -1551209.4, 66971.77, 0.0091627855, 9.998679, 10.0010395 
1.5049952e+3, 1.4487876e+2, -1656893.0, -1598092.1, -28558.975, 0.12628236, -0.031961218, -1586504.8, -66321.3, 0.0040015904, 9.999075, 9.9998665 
1.5050039e+3, 1.5487838e+2, -1597134.1, -1497836.3, -596.9329, 0.11587241, -0.11247796, -1497832.6, -75645.3, 0.001031135, 9.998744, 10.000034 
1.5050122e+3, 1.6487868e+2, -1468488.9, -1361451.8, 7015.434, 0.10293039, -0.08730139, -1360994.0, -36810.223, 0.000096309515, 9.9988165, 10.000277 
1.5050206e+3, 1.7487912e+2, -1234247.9, -1175251.6, -27352.404, 0.1396535, -0.12156716, -1164521.6, 61656.176, 0.000000575819, 9.999674, 10.000459 
1.5050294e+3, 1.8487999e+2, -1172384.3, -1162660.6, 57917.305, 0.11519168, -0.041822806, -1109401.5, 18768.223, 0.0, 9.999713, 9.999852 
1.5050383e+3, 1.9488119e+2, -1141584.0, -1075257.8, 24218.111, -0.007835817, 0.039434727, -1067356.3, -37195.824, 0.0, 9.999169, 10.0000305 
1.505047e+3, 2.0488107e+2, -1023781.8, -1055258.6, -72767.055, -0.031372637, 0.071572155, -965070.6, -32909.895, 0.0, 9.999684, 9.999259 
1.505055e+3, 2.1487938e+2, -662039.2, -814183.4, -87197.69, 0.05235492, -0.06935027, -622394.4, 211778.95, 0.0, 10.001432, 9.999396 
1.5050638e+3, 2.2487833e+2, -566595.4, -813513.8, 12964.609, 0.09748747, -0.062245097, -565916.5, 170266.48, 0.0, 10.001818, 9.998546 
1.5050729e+3, 2.3487777e+2, -606686.94, -765650.75, -2698.0562, 0.08957835, -0.022813804, -606641.1, 31549.91, 0.0, 10.000795, 9.998693 
1.5050821e+3, 2.4487677e+2, -542879.2, -675620.56, 9871.694, 0.070068136, 0.013734274, -542149.06, -1947.8468, 0.0, 10.000512, 9.998782 
1.505091e+3, 2.5487506e+2, -353937.9, -515608.16, -29097.688, 0.027610958, -0.08417796, -348860.3, 93355.484, 0.00000020302433, 10.001068, 9.998934 
1.5051001e+3, 2.6487303e+2, -304505.4, -627425.25, -33921.863, 0.041576896, -0.09006145, -300980.5, 43255.746, 0.0000077496, 10.001537, 9.997264 
1.5051095e+3, 2.748704e+2, -139861.25, -484643.13, -17458.8, 0.11418702, -0.12759957, -138979.44, 107285.375, 0.000048509926, 10.001927, 9.99739 
1.5051185e+3, 2.8486878e+2, 12379.439, -259198.27, 5613.921, 0.16782415, -0.061234225, 12495.438, 160778.05, 0.00020995413, 10.00188, 9.998278 
1.5051275e+3, 2.948681e+2, 76146.82, -150147.22, -51606.3, 0.21456589, -0.022603549, 87360.0, 137650.31, 0.0007220719, 10.001543, 9.998496 
1.5051353e+3, 3.0486643e+2, 109315.62, -222631.52, -54821.586, 0.14946908, 0.020797793, 118135.164, 118135.164, 0.0017709631, 10.001895, 9.997537 
1.5051413e+3, 3.1486407e+2, 322573.3, 80222.48, -118857.32, -0.058091566, -0.026281994, 371134.56, 371134.56, 0.0032780797, 10.002427, 9.999367 
1.5149745e+3, 1.2486666e+2, -2066799.9, -1891115.6, -29049.664, 0.091813125, -0.06254944, -1886436.8, -170135.34, 0.016257107, 9.997511, 9.999972 
1.5149836e+3, 1.348685e+2, -1758618.6, -1589740.1, 49488.637, -0.045106497, -0.012361032, -1576306.5, 41980.45, 0.009740974, 9.998589, 10.00085 
1.5149936e+3, 1.4486884e+2, -1561638.8, -1437145.9, -65741.92, -0.008759143, -0.053840265, -1408857.1, 111426.86, 0.0042781597, 9.999207, 10.0009165 
1.5150031e+3, 1.5487035e+2, -1515078.6, -1336429.5, 1437.6726, 0.12534471, -0.057388347, -1336417.9, 85848.57, 0.0011151112, 9.998772, 10.001132 
1.5150116e+3, 1.648716e+2, -1477571.6, -1402177.8, 14266.695, 0.11195362, 0.02288859, -1399568.4, -75315.64, 0.000106548556, 9.998899, 9.999957 
1.5150198e+3, 1.7487213e+2, -1263950.0, -1231838.1, 19239.26, 0.06735243, 0.026868282, -1222835.3, 3412.5989, 0.0000007145684, 9.999641, 10.000091 
1.515029e+3, 1.8487169e+2, -1204818.8, -1228138.1, 18371.168, 0.06547237, 0.016293576, -1194719.6, -66468.04, 0.0, 9.999704, 9.999407 
1.5150388e+3, 1.9487002e+2, -1191885.6, -1151764.3, 17862.422, 0.07467028, -0.14098796, -1144964.3, -114697.68, 0.0, 9.999053, 9.99956 
1.515048e+3, 2.04869e+2, -1038348.1, -1045320.06, -28856.455, 0.07021246, -0.18432073, -1012767.8, -80493.67, 0.0, 9.999507, 9.999416 
1.515057e+3, 2.1486846e+2, -687446.2, -804427.9, -5178.3784, 0.07490345, -0.23024076, -687217.44, 147058.63, 0.0, 10.001162, 9.999595 
1.5150653e+3, 2.2486803e+2, -605002.6, -827756.5, -41808.605, 0.05397217, -0.17420529, -597414.06, 138866.23, 0.0, 10.001531, 9.9985895 
1.5150732e+3, 2.3486748e+2, -639676.7, -779631.1, -22946.178, 0.015008574, -0.1344468, -636010.6, 2278.7249, 0.0, 10.000562, 9.998712 
1.5150823e+3, 2.4486655e+2, -609471.5, -761925.1, 10502.34, 0.008776681, -0.06873444, -608751.4, -68451.31, 0.0, 10.000277, 9.998309 
1.5150927e+3, 2.5486505e+2, -420736.4, -599825.9, 10308.412, 0.048392005, -0.10394717, -420145.0, 22169.479, 0.00000026346208, 10.000823, 9.998478 
1.5151021e+3, 2.6486367e+2, -285403.25, -518369.9, -33088.61, 0.044509027, -0.06113013, -280794.78, 63533.742, 0.000008336701, 10.001248, 9.998153 
1.5151106e+3, 2.7486232e+2, -119214.46, -372901.03, 21951.287, 0.0053645847, -0.06399385, -117329.05, 129014.84, 0.00005112129, 10.001647, 9.998292 
1.5151195e+3, 2.848608e+2, -84277.68, -397469.75, -25442.244, 0.035740834, 0.007410931, -82224.336, 66136.74, 0.00022272031, 10.001605, 9.997458 
1.5151289e+3, 2.9485896e+2, -24195.158, -297267.06, -37824.902, 0.15834291, 0.00995623, -19052.639, 31328.848, 0.0007570033, 10.001277, 9.99761 
1.5151373e+3, 3.0485657e+2, 77065.055, -207417.52, -47618.176, 0.14204308, 0.016522396, 84824.016, 84824.016, 0.001811775, 10.001573, 9.997783 
1.515144e+3, 3.1485188e+2, 269373.63, 98697.375, -28224.408, -0.090804465, -0.3013982, 273919.94, 273919.94, 0.0032877466, 10.001917, 9.99972 
1.5249732e+3, 1.2485586e+2, -2030366.8, -1931379.4, 33298.23, 0.19368385, -0.16078457, -1921220.8, -204818.7, 0.017244658, 9.998046, 9.999419 
1.5249813e+3, 1.3485834e+2, -1863570.5, -1582106.1, 100109.76, -0.068072796, -0.1005209, -1550131.9, 68252.23, 0.010359608, 9.997644, 10.00134 
1.5249917e+3, 1.4485992e+2, -1795524.5, -1528808.5, 28214.912, -0.025293007, -0.04592663, -1525856.4, -5486.455, 0.0045741852, 9.997531, 10.001082 
1.5250023e+3, 1.5486185e+2, -1487522.6, -1292873.6, -14718.216, 0.15446004, -0.03376862, -1291767.0, 130580.63, 0.0012060112, 9.998818, 10.001408 
1.5250112e+3, 1.6486281e+2, -1447584.3, -1429898.6, 3489.7166, 0.17458978, 0.022272425, -1429235.0, -104897.64, 0.000118081814, 9.999327, 9.999551 
1.5250197e+3, 1.7486264e+2, -1306181.4, -1291048.6, -34876.11, 0.09372134, 0.0010610458, -1262927.6, -36587.11, 0.0000008766353, 9.999553, 9.999716 
1.525029e+3, 1.8486185e+2, -1179771.1, -1216440.8, -7696.825, 0.086754024, -0.025157105, -1178221.1, -49873.3, 0.0, 9.999871, 9.99942 
1.5250388e+3, 1.948602e+2, -974383.1, -1048571.94, -9347.026, 0.1180237, -0.17964193, -973223.6, 57137.867, 0.0, 10.00054, 9.999571 
1.5250483e+3, 2.0485924e+2, -864505.56, -954990.06, 15054.901, 0.11997946, -0.21874397, -862066.44, 70301.82, 0.0, 10.000644, 9.999494 
1.5250576e+3, 2.1485887e+2, -820384.5, -861059.9, -2218.532, 0.08860247, -0.2588914, -820263.9, 14105.365, 0.0, 10.000188, 9.9996805 
1.5250663e+3, 2.2485863e+2, -759686.06, -900373.75, -27503.809, 0.07049371, -0.18919027, -754500.3, -18128.35, 0.0, 10.000446, 9.998622 
1.5250745e+3, 2.3485833e+2, -502825.25, -709168.3, -43485.246, 0.059032492, -0.12571499, -494035.5, 144342.92, 0.0, 10.0014715, 9.998761 
1.5250838e+3, 2.4485725e+2, -411239.63, -678950.06, 35883.766, 0.06291494, -0.071531855, -406513.22, 133877.5, 0.0, 10.001729, 9.9981575 
1.5250939e+3, 2.5485516e+2, -368687.88, -586820.75, 20250.78, 0.082776345, -0.14764114, -366823.78, 75587.12, 0.0000003530132, 10.001261, 9.998337 
1.5251034e+3, 2.6485395e+2, -283580.78, -488354.8, 9389.125, 0.07569267, -0.09971779, -283151.2, 61272.59, 0.000008619123, 10.001108, 9.998433 
1.5251122e+3, 2.748535e+2, -154733.77, -347805.25, -22233.467, 0.03216495, -0.041075267, -152206.52, 94223.734, 0.000051931653, 10.00123, 9.998652 
1.5251213e+3, 2.8485227e+2, -63964.75, -382811.25, -20358.863, 0.06424214, 0.036993094, -62670.063, 85774.39, 0.00023518385, 10.001708, 9.997531 
1.525131e+3, 2.9485e+2, 158874.64, -211690.63, -5693.3003, 0.19229215, -0.002408351, 158962.1, 209430.98, 0.000791527, 10.002504, 9.997647 
1.52514e+3, 3.0484793e+2, 236106.47, -126742.95, 43584.742, 0.20793945, 0.03078769, 241268.34, 241268.34, 0.0018473114, 10.00263, 9.997843 
1.525147e+3, 3.1484327e+2, 236468.67, 40445.77, -31184.275, 0.048651733, -0.28708604, 241310.05, 241310.05, 0.0032831845, 10.00184, 9.999371 
1.5349707e+3, 1.2484665e+2, -2010087.6, -1921589.1, 21126.736, 0.056822084, -0.136981, -1916804.3, -200316.28, 0.018294634, 9.998172, 9.999428 
1.5349789e+3, 1.348489e+2, -1786078.4, -1424821.8, 87705.21, -0.11940796, -0.2060157, -1404654.6, 213815.73, 0.011016667, 9.997656, 10.002425 
1.5349889e+3, 1.4485231e+2, -1816971.4, -1614331.5, 44627.152, -0.11772207, 0.013403792, -1604938.6, -84500.305, 0.0048880493, 9.997695, 10.000425 
1.5350004e+3, 1.5485312e+2, -1538292.9, -1381368.3, 45491.03, 0.055275127, -0.024224957, -1369134.6, 53294.207, 0.0013030368, 9.998756, 10.000832 
1.5350108e+3, 1.6485256e+2, -1474958.0, -1506843.3, -12046.114, 0.13773045, -0.06437206, -1470918.6, -146483.9, 0.00013086536, 9.999399, 9.998994 
1.5350194e+3, 1.748507e+2, -1351942.5, -1376603.0, -13650.803, 0.08212249, -0.19682488, -1345877.6, -119422.164, 0.0000010420176, 9.999513, 9.999147 
1.5350285e+3, 1.848505e+2, -1150884.9, -1159864.8, -6019.3496, 0.021665841, -0.15516666, -1147865.4, -19406.969, 0.0, 9.999877, 9.999808 
1.5350384e+3, 1.9485162e+2, -954961.56, -988044.1, 28768.814, -0.014651584, -0.07789792, -938317.6, 92128.22, 0.0, 10.000444, 10.000034 
1.5350479e+3, 2.0485172e+2, -890988.7, -963690.9, -19588.693, -0.035167873, -0.03855021, -886046.7, 46396.82, 0.0, 10.000446, 9.999525 
1.5350568e+3, 2.1485054e+2, -859462.56, -881725.2, -4048.859, -0.0442445, -0.15919253, -858749.06, -24295.588, 0.0, 9.999932, 9.999657 
1.5350662e+3, 2.2485013e+2, -799434.8, -917185.1, -7652.542, -0.010983674, -0.10539816, -798939.56, -62481.543, 0.0, 10.000159, 9.998645 
1.5350766e+3, 2.3485032e+2, -534237.8, -717509.2, 14467.886, 0.08440821, -0.0038674497, -533102.75, 105356.18, 0.0, 10.00122, 9.998828 
1.5350859e+3, 2.4484877e+2, -453081.7, -689735.0, 3202.6611, 0.07825725, -0.002433474, -453038.34, 87436.11, 0.0, 10.001414, 9.998228 
1.5350945e+3, 2.5484532e+2, -406066.97, -602532.8, 22778.848, -0.010075269, -0.22284041, -403460.5, 39046.145, 0.0000004707298, 10.001008, 9.998346 
1.5351038e+3, 2.6484376e+2, -337436.72, -542833.2, -6239.064, -0.030487724, -0.19584967, -337247.38, 7275.4014, 0.0000086272985, 10.00086, 9.998178 
1.5351136e+3, 2.7484393e+2, -204373.83, -401893.5, -1537.1731, 0.024444645, -0.048950553, -204361.86, 42162.516, 0.000052741245, 10.001019, 9.998382 
1.5351236e+3, 2.848431e+2, -39540.1, -273507.1, -7629.4053, 0.08268177, 0.034626752, -39291.582, 109243.14, 0.00024875673, 10.00145, 9.998411 
1.5351334e+3, 2.948411e+2, 177015.89, -103193.09, 53197.02, 0.14696632, -0.067217045, 186775.3, 237329.14, 0.00082812813, 10.002201, 9.998537 
1.5351425e+3, 3.048404e+2, 169671.11, -192073.08, -1747.3955, 0.16999203, 0.07195446, 169679.56, 169679.56, 0.001892961, 10.002325, 9.997535 
1.5351494e+3, 3.148378e+2, 88239.09, -138768.86, 404.5911, 0.028592523, -0.014135409, 88239.81, 88239.81, 0.0033092082, 10.001311, 9.99838 
1.544969e+3, 1.2483749e+2, -2144011.5, -1956183.1, 87504.51, 0.14113075, -0.1510409, -1921734.9, -205160.17, 0.019406972, 9.997122, 9.999694 
1.5449773e+3, 1.3483879e+2, -1701093.3, -1420117.9, -6761.6465, -0.06545612, -0.2925046, -1419955.3, 198610.61, 0.0117135905, 9.998348, 10.002135 
1.5449876e+3, 1.4484303e+2, -1751380.6, -1602605.5, -10969.783, -0.04554249, 0.035547767, -1601801.0, -81275.53, 0.0052204016, 9.998252, 10.000236 
1.544999e+3, 1.548426e+2, -1531960.5, -1392914.5, -4684.279, 0.058625873, -0.11248571, -1392756.9, 29771.17, 0.0014059248, 9.998851, 10.000716 
1.54501e+3, 1.6484185e+2, -1473528.5, -1481801.6, 5778.754, 0.151867, -0.17724194, -1470558.3, -146022.05, 0.00014487762, 9.999316, 9.999195 
1.5450196e+3, 1.7484097e+2, -1289885.3, -1327033.1, 22680.09, 0.14746378, -0.23367096, -1279144.1, -52596.344, 0.000001197513, 9.999841, 9.9993305 
1.545029e+3, 1.848412e+2, -1167759.0, -1171031.3, 75585.98, 0.09069763, -0.15220056, -1093791.5, 34755.613, 0.0, 9.999799, 9.999759 
1.5450384e+3, 1.9484241e+2, -1098612.0, -1057790.4, 40184.21, -0.004850177, -0.06376061, -1033130.5, -2595.2734, 0.0, 9.999485, 10.000009 
1.5450476e+3, 2.0484266e+2, -991814.4, -1016005.4, 5849.9478, -0.052269943, -0.007359038, -990474.0, -57941.05, 0.0, 9.999786, 9.999484 
1.5450567e+3, 2.1484172e+2, -734183.4, -827147.75, -20204.875, -0.06568927, -0.0953889, -729981.9, 104560.21, 0.0, 10.000825, 9.999606 
1.5450668e+3, 2.2484124e+2, -642771.94, -821629.1, 17827.81, -0.007913305, -0.05458737, -641012.25, 95535.234, 0.0, 10.001178, 9.998793 
1.5450779e+3, 2.3484103e+2, -565349.44, -708533.44, 3022.424, 0.11919212, -0.005401686, -565285.7, 73264.57, 0.0, 10.000942, 9.999002 
1.5450875e+3, 2.4483964e+2, -523792.28, -711364.56, 7809.704, 0.1391845, -0.0037271983, -523467.66, 17096.174, 0.000000000009610117, 10.000841, 9.998379 
1.5450959e+3, 2.5483692e+2, -413176.66, -590488.9, 6833.625, 0.05478296, -0.16525804, -412913.66, 29676.344, 0.0000005675007, 10.00086, 9.998525 
1.5451053e+3, 2.6483545e+2, -302946.44, -502314.4, 51692.164, 0.026744397, -0.14670853, -290340.72, 54263.96, 0.000008574752, 10.001019, 9.998379 
1.5451148e+3, 2.7483493e+2, -139282.88, -358552.2, 51350.004, 0.043413922, -0.08130904, -127853.164, 118757.83, 0.00005426492, 10.001403, 9.998508 
1.545125e+3, 2.8483385e+2, -43982.875, -258776.58, 61550.414, 0.09469029, -0.030459821, -27595.492, 121026.836, 0.00026286932, 10.001377, 9.998514 
1.5451351e+3, 2.9483235e+2, -965.4364, -177428.34, 13705.505, 0.16290629, -0.10096647, 92.6966, 50730.69, 0.0008685198, 10.000952, 9.998603 
1.5451446e+3, 3.0483192e+2, 94098.67, -195781.97, 4295.225, 0.21438833, 0.0494636, 94162.305, 94162.305, 0.001959959, 10.001651, 9.997843 
1.5451527e+3, 3.1483078e+2, 363665.38, -42089.215, -31892.979, 0.15386726, 0.08910505, 366156.94, 366156.94, 0.0033945085, 10.003342, 9.9980755 
1.5549658e+3, 1.24827966e+2, -2052002.9, -1800219.5, -9251.13, 0.010699301, -0.22924553, -1799880.1, -83214.12, 0.020587768, 9.997286, 10.000682 
1.5549757e+3, 1.348282e+2, -1820572.0, -1645347.4, 11337.375, -0.09031861, -0.32439396, -1644616.9, -25948.16, 0.012455585, 9.998279, 10.000608 
1.554987e+3, 1.4483207e+2, -1710874.4, -1541145.3, -23476.684, 0.018305749, 0.024980133, -1537957.9, -17326.396, 0.0055746003, 9.998335, 10.000623 
1.5549979e+3, 1.5483043e+2, -1507579.6, -1339316.0, 36310.133, 0.012957153, -0.28609845, -1331815.0, 90829.16, 0.001515748, 9.998847, 10.001084 
1.5550089e+3, 1.648309e+2, -1388186.1, -1328165.5, 6682.903, 0.051368304, -0.2955373, -1327430.4, -2791.0334, 0.00016035176, 9.999408, 10.000211 
1.5550199e+3, 1.7483349e+2, -1226704.9, -1182905.0, 53457.313, 0.15734905, -0.10218906, -1147035.6, 79581.15, 0.0000013687348, 9.999787, 10.000347 
1.5550297e+3, 1.848342e+2, -1207842.3, -1242298.4, 42821.387, 0.14506194, -0.005187502, -1178913.3, -50301.02, 0.0, 9.999751, 9.999291 
1.5550382e+3, 1.9483265e+2, -1162450.3, -1149187.0, 44335.51, 0.003952497, -0.13651493, -1110989.9, -80361.16, 0.0, 9.999321, 9.999456 
1.5550475e+3, 2.0483208e+2, -1023642.44, -1052643.9, 25223.047, -0.08676286, -0.12196032, -1009048.94, -76412.8, 0.0, 9.999641, 9.999313 
1.5550575e+3, 2.1483244e+2, -773571.2, -862356.75, 36585.742, -0.107095696, -0.066317074, -760438.0, 74196.74, 0.0, 10.000609, 9.999478 
1.5550676e+3, 2.24832e+2, -672436.2, -819369.94, -7810.8286, -0.07876406, -0.022317603, -672022.1, 64617.26, 0.0, 10.000901, 9.99894 
1.5550782e+3, 2.3483041e+2, -592056.4, -715592.4, 10730.073, 0.020248102, -0.12474663, -591131.3, 47521.957, 0.0, 10.000724, 9.999065 
1.5550882e+3, 2.4482976e+2, -538805.1, -680337.0, -5904.6445, 0.079042636, -0.07180447, -538559.25, 2101.0564, 0.0, 10.000571, 9.998722 
1.5550978e+3, 2.548299e+2, -420876.25, -552109.56, 25399.582, 0.12476547, 0.020570233, -416131.8, 26529.438, 0.0000005355393, 10.000626, 9.998901 
1.5551071e+3, 2.6482892e+2, -304972.53, -445543.53, 51933.39, 0.085912116, 0.03806527, -287867.34, 56803.28, 0.000008556659, 10.000759, 9.998889 
1.5551157e+3, 2.7482644e+2, -142764.84, -304800.75, 89630.58, -0.042365614, -0.14906858, -102962.48, 143728.11, 0.000056489618, 10.001146, 9.998995 
1.5551251e+3, 2.8482464e+2, -141832.02, -398391.72, 29963.64, -0.053185586, -0.15319736, -138379.03, 10328.61, 0.00027893353, 10.001108, 9.997682 
1.5551354e+3, 2.948235e+2, -94744.45, -306043.5, 20907.756, 0.06802231, -0.1065232, -92695.52, -41973.004, 0.0009153457, 10.00068, 9.997843 
1.5551463e+3, 3.0482242e+2, 98557.74, -115643.25, 49399.605, 0.16736259, -0.018709498, 109401.45, 109401.45, 0.0020538478, 10.001365, 9.998522 
1.5551564e+3, 3.148218e+2, 291833.47, -36420.28, 74442.336, 0.12496474, -0.0015783412, 307926.72, 307926.72, 0.003548839, 10.002721, 9.998395 
1.5649645e+3, 1.2481891e+2, -1971474.1, -1731513.6, -56895.547, 0.1432651, -0.13787349, -1718707.0, -1948.2239, 0.021849003, 9.997713, 10.00096 
1.564975e+3, 1.3481821e+2, -1780543.5, -1686227.5, -12842.2705, -0.00036914894, -0.26056218, -1684510.1, -65741.33, 0.013250772, 9.998811, 10.000083 
1.5649855e+3, 1.4482066e+2, -1613015.5, -1481804.8, -5187.015, 0.022195654, -0.040617492, -1481600.0, 39144.62, 0.0059556314, 9.998958, 10.000727 
1.5649968e+3, 1.5481956e+2, -1616406.8, -1391766.6, -14935.145, 0.079446405, -0.2981851, -1390778.0, 31973.621, 0.0016345053, 9.9981, 10.001076 
1.5650079e+3, 1.648205e+2, -1566718.5, -1385313.9, -10174.255, 0.0906748, -0.27294225, -1384745.0, -60003.31, 0.00017771397, 9.998044, 10.000491 
1.5650192e+3, 1.7482346e+2, -1256395.1, -1165123.5, -42179.246, 0.12897861, -0.07454775, -1148616.5, 78098.93, 0.0000016137079, 9.999417, 10.000662 
1.5650293e+3, 1.8482427e+2, -1178572.4, -1192398.3, -64933.727, 0.1310502, 0.001150335, -1120184.6, 8524.5205, 0.0, 9.99979, 9.999616 
1.5650378e+3, 1.9482264e+2, -1141460.8, -1107760.9, -34046.68, 0.0483402, -0.17498322, -1086622.8, -55896.844, 0.0, 9.999302, 9.999758 
1.5650475e+3, 2.0482221e+2, -1077123.6, -1058908.1, 72345.57, -0.019923553, -0.16510482, -995099.25, -62367.855, 0.0, 9.999248, 9.999432 
1.5650581e+3, 2.1482313e+2, -847672.94, -873045.2, 63886.91, -0.06853686, -0.06983798, -795224.75, 39500.203, 0.0, 10.000054, 9.999641 
1.5650685e+3, 2.248227e+2, -722132.44, -840603.44, 25909.977, -0.05341502, -0.03477875, -716713.7, 20015.578, 0.0, 10.000516, 9.998999 
1.5650788e+3, 2.3482068e+2, -606323.6, -706749.94, 15437.024, 0.03162266, -0.18865386, -604004.3, 34742.31, 0.0, 10.000548, 9.99921 
1.5650888e+3, 2.4482016e+2, -546840.9, -669312.3, 21594.293, 0.10959899, -0.13607801, -543144.9, -2392.62, 0.0, 10.000439, 9.998864 
1.5650986e+3, 2.5482103e+2, -478661.44, -560541.0, 2656.1057, 0.1806946, 0.011798313, -478575.38, -35827.926, 0.00000039469393, 10.000146, 9.999066 
1.5651083e+3, 2.6482025e+2, -346682.9, -471813.78, 59037.95, 0.15511934, 0.047737204, -323225.6, 21529.22, 0.000008163994, 10.000491, 9.998842 
1.5651174e+3, 2.7481756e+2, -103028.61, -291175.63, 15152.371, 0.016290162, -0.15557337, -101816.13, 144960.83, 0.000058543963, 10.001436, 9.998951 
1.5651271e+3, 2.848156e+2, -2148.1602, -346815.22, -24034.47, -0.014516481, -0.16489515, -480.24945, 148315.17, 0.00029613846, 10.00213, 9.997567 
1.565137e+3, 2.9481435e+2, 184847.52, -184160.84, -29608.502, 0.07613528, -0.107540235, 187208.14, 238019.2, 0.00096601876, 10.002645, 9.997754 
1.5651481e+3, 3.048125e+2, 300059.94, -2300.9607, 63427.78, 0.17080827, -0.10381555, 312826.47, 312826.47, 0.002166349, 10.002663, 9.998675 
1.5651591e+3, 3.1481275e+2, 195566.97, -74973.195, -27818.992, 0.19219466, -0.00844923, 198397.9, 198397.9, 0.0037553748, 10.001953, 9.99852 
1.5749627e+3, 1.2480927e+2, -1984092.5, -1785903.8, -41798.45, 0.12334118, 0.035356827, -1777449.1, -60585.676, 0.023204513, 9.997815, 10.000546 
1.5749745e+3, 1.3480915e+2, -1738204.9, -1600810.8, 45911.69, 0.034822892, -0.065464355, -1586881.1, 31981.875, 0.014108494, 9.998824, 10.00066 
1.5749829e+3, 1.4480905e+2, -1596749.3, -1486546.1, -57042.566, -0.19983499, -0.13860258, -1462337.9, 58524.234, 0.0063687824, 9.999118, 10.000621 
1.5749958e+3, 1.5481001e+2, -1655559.8, -1462395.1, -39377.59, 0.13272376, -0.14306627, -1454676.3, -31825.682, 0.00176415, 9.998064, 10.0006075 
1.5750065e+3, 1.6481072e+2, -1579920.6, -1428413.3, 15478.135, 0.112026565, -0.10172464, -1426848.3, -102004.695, 0.00019721544, 9.998101, 10.000169 
1.5750168e+3, 1.7481098e+2, -1282297.1, -1211370.9, 25987.465, -0.07983908, -0.14592807, -1202868.4, 23974.34, 0.0000019795527, 9.999385, 10.000358 
1.5750271e+3, 1.8481165e+2, -1093092.3, -1020118.8, -100398.92, -0.10790971, -0.12657157, -949782.2, 179053.6, 0.0, 9.999801, 10.000797 
1.5750368e+3, 1.948126e+2, -1080049.1, -946394.3, -39615.906, -0.011838599, -0.16056365, -935534.4, 95289.72, 0.0, 9.999158, 10.000936 
1.5750471e+3, 2.0481326e+2, -1080206.0, -1030922.4, 80524.25, -0.01636322, -0.11745221, -971353.9, -38537.246, 0.0, 9.999085, 9.999705 
1.5750581e+3, 2.148135e+2, -866976.7, -861002.25, 106766.57, -0.09338646, -0.11161997, -757181.1, 77634.07, 0.0, 9.999825, 9.99984 
1.575069e+3, 2.2481306e+2, -744147.44, -828758.56, 13205.079, -0.08839763, -0.09821755, -742134.44, -5315.1235, 0.0, 10.000269, 9.999196 
1.5750794e+3, 2.3481174e+2, -632508.7, -700827.44, 30601.36, 0.013032875, -0.20300391, -620806.25, 18024.846, 0.0, 10.000289, 9.999376 
1.5750892e+3, 2.4481083e+2, -597173.4, -703813.2, -6782.5386, 0.07500435, -0.1917779, -596743.7, -55903.4, 0.0, 10.000136, 9.998771 
1.5750983e+3, 2.548102e+2, -521888.63, -597411.06, 7407.0557, 0.09955864, -0.18489227, -521169.03, -78320.5, 0.00000029448665, 9.999915, 9.998922 
1.5751085e+3, 2.6480952e+2, -430691.28, -589244.7, 75955.516, 0.099214, -0.10103852, -400177.13, -55320.063, 0.000007127328, 10.000245, 9.998157 
1.5751198e+3, 2.748083e+2, -179963.31, -398807.7, 71068.3, 0.065856546, -0.09273186, -158909.75, 87960.11, 0.000059012113, 10.001216, 9.998318 
1.5751301e+3, 2.848067e+2, -3731.098, -302131.28, -22857.926, 0.03559, -0.056980576, -1990.3, 146895.61, 0.00030982727, 10.001914, 9.997979 
1.5751395e+3, 2.9480496e+2, 164150.84, -149776.73, 18063.555, 0.021040497, -0.09638891, 165186.81, 216089.8, 0.0010139579, 10.002313, 9.99815 
1.5751497e+3, 3.0480212e+2, 223485.72, -76304.8, 24144.45, 0.045615446, -0.18990348, 225417.81, 225417.81, 0.002282176, 10.002322, 9.998312 
1.5751603e+3, 3.1480342e+2, 109048.84, -109094.0, 1326.5245, 0.044732954, 0.037577022, 109056.914, 109056.914, 0.0039773253, 10.001369, 9.998538 
1.5849605e+3, 1.2479788e+2, -1874536.3, -1748554.8, 100992.664, 0.09202024, 0.014670028, -1692518.8, 24457.715, 0.024665277, 9.998639, 10.000388 
1.5849727e+3, 1.3479903e+2, -1837435.8, -1569560.4, 91153.26, 0.041108947, -0.028920952, -1541485.0, 77477.21, 0.0150364665, 9.997791, 10.001369 
1.5849821e+3, 1.4479889e+2, -1736009.5, -1574756.3, 16396.748, -0.13232915, -0.13922714, -1573105.9, -52143.613, 0.0068181083, 9.998243, 10.00044 
1.5849955e+3, 1.5480034e+2, -1422269.4, -1388189.8, -31.91903, 0.22864275, -0.061253227, -1388189.8, 34758.652, 0.0019058621, 9.999803, 10.000289 
1.585006e+3, 1.6480082e+2, -1353391.9, -1317484.8, 94157.734, 0.17546073, -0.02355681, -1239584.3, 85359.484, 0.0002187055, 9.999672, 10.000163 
1.5850152e+3, 1.748001e+2, -1456811.6, -1288966.3, 87372.42, -0.10434582, -0.16872999, -1251740.5, -24789.906, 0.000002466339, 9.998186, 10.000396 
1.5850256e+3, 1.8480064e+2, -1363971.5, -1146952.9, -19428.182, -0.12374389, -0.16546506, -1145227.4, -16282.95, 0.0, 9.997937, 10.00082 
1.5850365e+3, 1.9480237e+2, -1043291.94, -923841.75, -78182.555, 0.03934167, -0.12309243, -885181.9, 145744.2, 0.0, 9.999391, 10.000972 
1.5850472e+3, 2.048032e+2, -937744.7, -929469.25, 28336.525, 0.062265776, -0.0836249, -904969.94, 27946.293, 0.0, 9.9998865, 10.000032 
1.5850583e+3, 2.1480289e+2, -887908.2, -835709.6, 35303.957, -0.03450613, -0.16670978, -817905.1, 17011.783, 0.0, 9.999477, 10.000197 
1.5850693e+3, 2.2480269e+2, -848905.3, -854161.44, -14722.328, -0.033581126, -0.15846168, -836578.3, -99659.91, 0.0, 9.999477, 9.999401 
1.58508e+3, 2.3480245e+2, -634706.0, -685989.4, -33376.844, 0.055757258, -0.16412053, -618258.4, 20663.63, 0.0, 10.000201, 9.999537 
1.5850899e+3, 2.4480172e+2, -503896.72, -654308.25, -46350.617, 0.100978315, -0.14568165, -490760.63, 50169.785, 0.0, 10.000775, 9.998795 
1.5850987e+3, 2.5480038e+2, -325642.97, -505678.25, -63713.594, 0.08512636, -0.20923622, -305376.44, 137567.75, 0.00000023115544, 10.001277, 9.998903 
1.5851092e+3, 2.647994e+2, -255682.5, -510888.5, 80159.25, 0.09580482, -0.14676797, -232593.66, 112361.61, 0.0000061293663, 10.001484, 9.998088 
1.5851216e+3, 2.7479842e+2, -132936.9, -379095.56, 77572.15, 0.12712348, -0.10352028, -110530.984, 136435.8, 0.000060026516, 10.001572, 9.998268 
1.5851326e+3, 2.847972e+2, -55587.918, -332618.22, 6543.4956, 0.13552435, -0.028831443, -55433.445, 93546.53, 0.0003212461, 10.00159, 9.997911 
1.5851422e+3, 2.947957e+2, 42233.043, -215960.23, -36441.74, 0.12022596, -0.034793966, 47277.906, 98272.13, 0.0010570007, 10.001492, 9.998082 
1.5851521e+3, 3.0479196e+2, 182162.56, -135588.81, 4839.0215, 0.06343513, -0.19725572, 182236.23, 182236.23, 0.0023874303, 10.002166, 9.998009 
1.585162e+3, 3.1479183e+2, 427211.03, 75420.945, -97247.414, -0.0043747397, -0.07261407, 452303.84, 452303.84, 0.0041719265, 10.0034, 9.998856 
1.59496e+3, 1.24785684e+2, -1850352.3, -1756215.9, 131320.67, 0.084643014, -0.15453368, -1663783.0, 53305.684, 0.026239868, 9.99885, 10.000253 
1.5949696e+3, 1.3478799e+2, -1793170.4, -1480304.1, 92712.26, -0.08754152, -0.1563404, -1454894.3, 164170.48, 0.016040104, 9.997804, 10.001981 
1.5949826e+3, 1.4478998e+2, -1732171.1, -1610923.9, 53817.586, 0.034704175, -0.062212646, -1590482.4, -69435.85, 0.0073062, 9.998414, 10.000116 
1.5949957e+3, 1.5479083e+2, -1425407.5, -1406395.6, 70764.2, 0.21837845, -0.03295745, -1344501.8, 78540.38, 0.002060233, 9.999845, 10.000148 
1.5950055e+3, 1.647913e+2, -1321630.6, -1275884.5, 15870.738, 0.12426607, -0.0030350871, -1270917.6, 54120.387, 0.00024185247, 9.999768, 10.000404 
1.5950142e+3, 1.7479101e+2, -1448434.0, -1264195.6, 44313.45, -0.06646245, -0.12551272, -1254091.4, -27053.89, 0.0000030340082, 9.998153, 10.000582 
1.5950245e+3, 1.8479124e+2, -1439469.5, -1305405.4, 14128.76, -0.07631755, -0.11062602, -1303932.5, -174897.36, 0.0, 9.99794, 9.999732 
1.5950365e+3, 1.9479194e+2, -1143846.5, -1097410.4, -7314.051, 0.06263132, -0.059704956, -1096285.6, -65253.656, 0.0, 9.999249, 9.9998455 
1.5950474e+3, 2.0479216e+2, -927672.06, -870897.6, -1953.652, 0.066380985, -0.047226056, -870830.44, 62198.117, 0.0, 9.999724, 10.000509 
1.595058e+3, 2.1479158e+2, -893659.6, -780309.9, 34098.06, -0.030518327, -0.21159004, -770843.06, 64184.27, 0.0, 9.999197, 10.000709 
1.595069e+3, 2.2479185e+2, -878349.0, -858099.8, -5543.5723, -0.045638315, -0.1859315, -856681.5, -119657.84, 0.0, 9.999218, 9.9995 
1.59508e+3, 2.3479295e+2, -669033.1, -696902.8, 14782.105, 0.024006272, -0.07293538, -662653.2, -23634.72, 0.0, 9.999936, 9.999592 
1.5950902e+3, 2.4479291e+2, -546983.3, -675249.06, -39829.355, 0.03090486, 0.01294471, -535621.8, 5399.374, 0.0, 10.000485, 9.998785 
1.5950993e+3, 2.547914e+2, -366786.22, -519496.53, -27579.938, -0.0065534497, -0.07043633, -361957.88, 81076.81, 0.00000009760233, 10.000988, 9.998935 
1.5951101e+3, 2.647898e+2, -265106.97, -474747.97, 67678.44, 0.0020276173, -0.08934972, -245156.84, 99892.76, 0.0000054247644, 10.001234, 9.998459 
1.5951228e+3, 2.7478802e+2, -147414.42, -348468.78, 102483.15, 0.05843482, -0.17332394, -104384.96, 142682.16, 0.0000627863, 10.0013, 9.9986105 
1.5951344e+3, 2.8478694e+2, -145720.0, -439706.4, -16105.795, 0.12123397, -0.071506664, -144840.28, 4238.6025, 0.0003316825, 10.001255, 9.9973345 
1.5951447e+3, 2.9478613e+2, -43836.805, -318695.56, -11869.026, 0.19284374, 0.051814046, -43325.223, 7763.302, 0.0010854213, 10.001174, 9.997529 
1.5951543e+3, 3.047818e+2, 101212.32, -215311.45, 33672.145, 0.03850318, -0.12565017, 104754.76, 104754.76, 0.0024525027, 10.001811, 9.9976225 
1.5951635e+3, 3.1477836e+2, 361472.94, 94914.28, 3900.6057, -0.25519064, -0.3018392, 361530.0, 361530.0, 0.0042836345, 10.002768, 9.999283 
1.6049589e+3, 1.2477487e+2, -1842426.3, -1736523.1, 125443.11, 0.12014246, -0.1965208, -1653313.6, 63878.75, 0.027939666, 9.99887, 10.000389 
1.6049683e+3, 1.3477673e+2, -1705307.9, -1475213.5, -17593.676, -0.021950979, -0.2063255, -1473876.0, 145298.44, 0.01712635, 9.998593, 10.001635 
1.6049825e+3, 1.4477919e+2, -1764842.3, -1605344.4, 21119.803, 0.20705222, -0.048641853, -1602595.3, -81442.695, 0.007836914, 9.998136, 10.000271 
1.6049941e+3, 1.5478005e+2, -1575039.9, -1441829.5, 24757.758, 0.15301573, -0.047977313, -1437377.0, -14228.755, 0.0022287087, 9.998683, 10.00045 
1.6050042e+3, 1.6478072e+2, -1447657.9, -1326353.9, -43357.434, 0.067314684, -0.017744454, -1312450.4, 12691.708, 0.00026665046, 9.998875, 10.000476 
1.6050136e+3, 1.7478089e+2, -1286532.8, -1175997.6, -61663.074, 0.024540367, -0.10036168, -1148459.3, 78677.58, 0.0000036433328, 9.999229, 10.000659 
1.6050245e+3, 1.847811e+2, -1241281.3, -1254034.6, 15625.677, 0.053380918, -0.07140026, -1230781.3, -101646.54, 0.0, 9.999479, 9.999344 
1.6050364e+3, 1.9478114e+2, -1067591.8, -1103098.9, 16121.268, 0.11168603, -0.052373633, -1061364.4, -30225.736, 0.0, 9.999928, 9.999485 
1.6050474e+3, 2.0478092e+2, -923905.9, -883126.6, 8724.526, 0.09457935, -0.056678936, -881338.44, 51801.484, 0.0, 9.999831, 10.000372 
1.6050576e+3, 2.1478033e+2, -876490.8, -780532.2, -41188.984, 0.001030888, -0.20602538, -765277.44, 69861.77, 0.0, 9.999375, 10.000612 
1.6050683e+3, 2.2478066e+2, -857264.75, -838666.9, -32538.082, -0.027938783, -0.17403747, -814125.0, -76989.79, 0.0, 9.999313, 9.999584 
1.6050796e+3, 2.3478195e+2, -680992.25, -679258.56, -44758.957, 0.001709904, -0.05555254, -635358.06, 3769.9875, 0.0, 9.999766, 9.999771 
1.6050903e+3, 2.4478209e+2, -563295.4, -660497.8, -58232.48, 0.022407439, 0.028379701, -536047.44, 5080.7856, 0.0, 10.000278, 9.998991 
1.6051006e+3, 2.547807e+2, -357382.5, -492417.88, -63196.84, 0.05004214, -0.056203585, -332420.56, 110718.56, 0.000000007673713, 10.000946, 9.999147 
1.6051118e+3, 2.6477918e+2, -278878.1, -476944.5, 32949.984, 0.069036245, -0.081347115, -273540.44, 71612.58, 0.0000049768487, 10.001113, 9.99851 
1.6051237e+3, 2.747776e+2, -235538.08, -391442.3, -8272.709, 0.06827971, -0.14269772, -235100.33, 12069.176, 0.00006482946, 10.000683, 9.998633 
1.6051354e+3, 2.847764e+2, -163804.56, -417423.47, -37384.008, 0.12634996, -0.06435381, -158408.88, -9227.07, 0.00033743004, 10.000945, 9.997661 
1.6051468e+3, 2.947753e+2, 106927.46, -205484.97, -12092.623, 0.24456368, -0.0052062836, 107394.83, 158587.72, 0.0010902435, 10.002013, 9.997915 
1.6051568e+3, 3.047717e+2, 111422.9, -243061.03, 96631.97, 0.110623285, -0.118334725, 136053.3, 136053.3, 0.0024557933, 10.002023, 9.997327 
1.6051665e+3, 3.1476796e+2, 75631.25, -41828.742, -13755.43, -0.10385023, -0.2857386, 77220.61, 77220.61, 0.004283157, 10.000749, 9.999326 
1.6149555e+3, 1.2476528e+2, -1772622.1, -1676331.8, -101540.22, -0.20495626, -0.13119891, -1612101.0, 105188.37, 0.02978273, 9.999203, 10.000665 
1.6149685e+3, 1.347656e+2, -1788349.6, -1657320.0, -37160.06, 0.10276704, -0.15735315, -1647515.0, -28227.285, 0.018308382, 9.99864, 10.000352 
1.6149808e+3, 1.4476706e+2, -1704703.8, -1508478.8, 18412.584, 0.1839514, -0.060173623, -1506766.0, 14508.82, 0.008418617, 9.998243, 10.000889 
1.6149905e+3, 1.5476802e+2, -1528519.3, -1350074.9, 62646.895, -0.11044648, -0.11149515, -1330277.6, 92988.75, 0.0024150687, 9.998702, 10.001073 
1.6150014e+3, 1.6476898e+2, -1430540.1, -1331832.4, -53432.18, -0.16304433, -0.07920427, -1308448.4, 16808.516, 0.0002938315, 9.999034, 10.000365 
1.6150133e+3, 1.7476976e+2, -1295297.5, -1196830.6, -36398.64, 0.040612098, -0.09028693, -1184836.8, 42411.164, 0.000004294035, 9.999224, 10.000525 
1.615025e+3, 1.8477018e+2, -1219767.6, -1207444.5, 13871.42, 0.10746566, -0.04878142, -1198427.8, -69184.48, 0.0, 9.999473, 9.999663 
1.615036e+3, 1.9476998e+2, -1061192.0, -1065049.8, 47345.504, 0.051394977, -0.090516336, -1015736.1, 15509.691, 0.0, 9.999822, 9.999799 
1.6150466e+3, 2.0476963e+2, -1005434.3, -1009305.75, -28795.742, -0.012482417, -0.085536785, -978509.3, -45260.273, 0.0, 9.999645, 9.999594 
1.6150565e+3, 2.1476911e+2, -968430.6, -919409.56, -44024.22, -0.06709641, -0.15009393, -893532.6, -58279.25, 0.0, 9.999155, 9.9997635 
1.6150668e+3, 2.2476909e+2, -895408.06, -845143.7, -33396.625, -0.11769129, -0.113974884, -828479.2, -91225.664, 0.0, 9.999012, 9.9996805 
1.615078e+3, 2.3476943e+2, -714495.75, -681022.3, -9232.895, -0.1576695, -0.10194872, -678644.56, -39393.52, 0.0, 9.999487, 9.999889 
1.6150898e+3, 2.4476923e+2, -571882.8, -624740.56, -51335.39, -0.090866975, -0.07678508, -540572.5, 679.47314, 0.0, 10.000033, 9.99936 
1.6151024e+3, 2.547683e+2, -369002.06, -457648.22, -17241.828, 0.10716548, -0.16157095, -365766.6, 77490.94, 0.00000000987263, 10.000686, 9.999512 
1.6151139e+3, 2.6476762e+2, -355834.94, -561984.4, -872.02625, 0.13517709, -0.10397405, -355831.25, -10566.453, 0.000004852571, 10.000801, 9.998068 
1.6151239e+3, 2.7476683e+2, -302820.47, -471257.66, -1048.466, -0.007926526, -0.039270706, -302813.94, -55537.33, 0.00006465758, 10.0004425, 9.998189 
1.6151352e+3, 2.847655e+2, -126941.734, -278002.16, -18809.434, -0.021330746, -0.005942697, -124634.89, 24654.8, 0.0003366383, 10.000674, 9.99875 
1.6151477e+3, 2.9476345e+2, 140401.56, -61717.03, 52363.31, 0.10068368, -0.16619618, 153161.84, 204466.4, 0.0010768002, 10.001689, 9.999062 
1.6151588e+3, 3.047614e+2, 32227.883, -313667.1, 27565.422, 0.09023157, -0.16595927, 34410.88, 34410.88, 0.0024103601, 10.001645, 9.997002 
1.61517e+3, 3.1476057e+2, -39171.047, -120073.14, 10012.32, 0.09609842, -0.017990218, -37950.355, -37950.355, 0.0041886293, 10.000123, 9.999053 
1.6249552e+3, 1.2475575e+2, -1959339.5, -1745625.9, -79330.05, -0.08526971, -0.0420422, -1719397.6, -2012.7229, 0.03179242, 9.997845, 10.000791 
1.624968e+3, 1.3475503e+2, -1702969.5, -1684736.6, -2017.3802, 0.15966739, -0.12605149, -1684516.0, -65122.695, 0.019603958, 9.999496, 9.99974 
1.6249788e+3, 1.4475574e+2, -1583841.1, -1439789.8, 83671.414, 0.11910829, -0.07673173, -1401413.5, 119973.54, 0.009062119, 9.999054, 10.00096 
1.6249894e+3, 1.5475708e+2, -1591317.3, -1360623.9, 62616.492, -0.07455702, -0.10522183, -1344723.9, 78649.55, 0.002624408, 9.998203, 10.00123 
1.6250007e+3, 1.6475806e+2, -1565111.3, -1417640.0, -8499.75, -0.08338782, -0.06955898, -1417151.8, -91788.04, 0.00032476612, 9.998201, 10.000183 
1.6250128e+3, 1.7475864e+2, -1299003.8, -1212255.6, -32179.879, 0.058692023, -0.08476327, -1201621.8, 25736.342, 0.000005034694, 9.999266, 10.000394 
1.6250242e+3, 1.8475886e+2, -1205288.4, -1188306.4, 23920.242, 0.10670901, -0.062044762, -1171414.8, -42059.684, 0.0, 9.999523, 9.999778 
1.6250356e+3, 1.9475852e+2, -1138315.8, -1076242.0, 9499.655, 0.05856336, -0.12976553, -1074820.8, -43464.336, 0.0, 9.99921, 10.000009 
1.6250463e+3, 2.047584e+2, -1079734.0, -1078970.1, -23421.912, 0.015986256, -0.09836916, -1055927.0, -122569.766, 0.0, 9.999263, 9.999307 
1.6250563e+3, 2.1475838e+2, -896607.5, -921321.75, -29916.78, -0.022987012, -0.081809446, -876596.25, -41236.566, 0.0, 9.999781, 9.999461 
1.625067e+3, 2.2475812e+2, -748640.9, -782287.56, 33121.164, -0.05378363, -0.05180158, -728315.4, 9047.003, 0.0, 10.000043, 9.999617 
1.6250783e+3, 2.3475738e+2, -638429.8, -655150.1, 6794.368, -0.08979379, -0.13980933, -636017.06, 3350.3813, 0.0, 10.000038, 9.999809 
1.6250905e+3, 2.447567e+2, -549698.94, -638369.1, -19750.049, -0.023784133, -0.14762191, -545498.9, -4126.295, 0.0, 10.00029, 9.999142 
1.6251034e+3, 2.5475594e+2, -353752.8, -477220.25, -71673.36, 0.13513929, -0.1891205, -320892.03, 122486.48, 0.000000011745934, 10.000896, 9.999279 
1.6251148e+3, 2.6475525e+2, -292067.13, -524467.1, -53075.42, 0.15257132, -0.120815516, -280519.56, 64866.57, 0.0000048598445, 10.001215, 9.998129 
1.625125e+3, 2.747543e+2, -179001.95, -406888.1, -57454.527, 0.02925018, -0.07889644, -165336.06, 82062.55, 0.00006306325, 10.001264, 9.998236 
1.6251364e+3, 2.8475302e+2, -40007.867, -214110.7, -27717.484, 0.013520218, -0.04983877, -35701.7, 113709.41, 0.00033149842, 10.001199, 9.998921 
1.625149e+3, 2.9475138e+2, 62269.17, -83158.17, -87363.78, 0.08861138, -0.18025555, 103220.4, 154644.34, 0.0010554205, 10.001092, 9.999193 
1.6251603e+3, 3.0475026e+2, 38795.08, -228804.6, -94095.625, 0.097468115, -0.1272529, 68569.03, 68569.03, 0.0023409713, 10.001312, 9.997762 
1.6251722e+3, 3.147501e+2, 234632.27, 49137.64, -104015.555, 0.25909626, 0.020452125, 281245.28, 281245.28, 0.0040352517, 10.001785, 9.999452 
1.6349559e+3, 1.2474616e+2, -1925013.4, -1700038.5, 62184.633, 0.104215614, 0.034518875, -1683994.4, 33485.96, 0.03398967, 9.997957, 10.00105 
1.6349661e+3, 1.3474493e+2, -1698726.9, -1681412.6, 47036.47, -0.026126632, -0.11905237, -1642243.3, -22751.05, 0.02102759, 9.999523, 9.999748 
1.6349757e+3, 1.4474511e+2, -1583944.6, -1489033.3, 14463.114, -0.14666563, -0.09737273, -1486878.3, 34611.83, 0.009775217, 9.999241, 10.000543 
1.6349897e+3, 1.547473e+2, -1611129.0, -1409774.5, 41771.26, 0.10605041, -0.006954353, -1401452.9, 22015.64, 0.002860367, 9.99823, 10.000886 
1.6350016e+3, 1.6474804e+2, -1567346.9, -1439012.5, 8571.153, 0.13659906, 0.028502548, -1438442.6, -112981.04, 0.00036087315, 9.998267, 10.000009 
1.6350113e+3, 1.747474e+2, -1320803.4, -1251567.4, 17355.27, -0.05217534, -0.082697906, -1247460.5, -19992.232, 0.000005927034, 9.99924, 10.000136 
1.6350222e+3, 1.8474701e+2, -1199986.8, -1184360.9, -8364.825, -0.10230586, -0.11027909, -1180727.8, -51256.766, 0.0, 9.999549, 9.999796 
1.6350345e+3, 1.9474661e+2, -1151707.6, -1082538.4, 11306.21, 0.0011873315, -0.18417445, -1080737.1, -49265.57, 0.0, 9.999113, 10.000017 
1.635046e+3, 2.04747e+2, -1088730.9, -1057221.4, -21385.598, 0.03289674, -0.11540459, -1046413.75, -112946.5, 0.0, 9.999087, 9.999545 
1.6350566e+3, 2.1474804e+2, -910657.25, -902683.44, 7615.9907, -0.0022177505, -0.016071659, -898073.94, -62614.367, 0.0, 9.999568, 9.999697 
1.6350679e+3, 2.2474772e+2, -819453.25, -854541.7, 18138.318, -0.0035661613, 0.013377464, -811762.6, -74300.22, 0.0, 9.999726, 9.9992695 
1.6350801e+3, 2.3474577e+2, -701775.2, -722691.25, 23101.012, 0.065046504, -0.16526578, -686875.25, -47397.63, 0.0, 9.99977, 9.99947 
1.635092e+3, 2.4474445e+2, -658654.2, -790155.06, -15585.912, 0.0699374, -0.17766823, -656832.1, -115341.71, 0.0, 9.999977, 9.998246 
1.6351031e+3, 2.547436e+2, -449352.66, -618924.1, -28658.371, -0.003641823, -0.13693249, -444640.22, -1138.0665, 0.000000006263202, 10.000667, 9.99841 
1.6351146e+3, 2.6474229e+2, -291697.3, -476670.0, -66965.164, -0.02797708, -0.10884673, -269999.34, 75516.125, 0.000005059976, 10.000994, 9.99857 
1.6351266e+3, 2.7474013e+2, -178166.84, -351950.44, -26970.527, 0.02758965, -0.24205554, -174077.36, 73455.66, 0.000060994436, 10.00102, 9.998734 
1.6351382e+3, 2.84739e+2, -150596.84, -364733.03, -47721.008, 0.043942273, -0.18558156, -140443.48, 9101.819, 0.0003219481, 10.000879, 9.998032 
1.6351497e+3, 2.947389e+2, -55558.98, -243883.48, -59460.203, 0.021839518, -0.06699197, -38356.76, 13195.374, 0.0010251604, 10.000754, 9.998242 
1.6351604e+3, 3.0473822e+2, 96421.336, -16797.156, -95387.15, -0.046543956, 0.0012255679, 150732.39, 150732.39, 0.0022563916, 10.000926, 9.999402 
1.6351733e+3, 3.1473663e+2, 231432.3, 183955.42, -8625.776, 0.11640903, -0.17436323, 232950.89, 232950.89, 0.003853191, 10.001196, 10.000657 
1.6449542e+3, 1.2473441e+2, -1914826.5, -1659149.1, 94027.52, 0.16127034, -0.034879357, -1628293.5, 89300.06, 0.036383986, 9.997904, 10.00137 
1.644964e+3, 1.3473423e+2, -1899476.0, -1745115.0, 8085.589, -0.078297496, -0.11099849, -1744692.6, -125098.305, 0.022584815, 9.998013, 10.000045 
1.6449751e+3, 1.4473401e+2, -1726674.3, -1600250.0, 3091.0469, -0.08992518, -0.12812006, -1600174.4, -78578.266, 0.010560797, 9.998437, 10.000172 
1.6449896e+3, 1.5473574e+2, -1470808.1, -1386939.9, -7444.8823, 0.21146205, -0.044942345, -1386284.1, 37295.414, 0.0031241647, 9.999372, 10.000496 
1.6450013e+3, 1.6473632e+2, -1395552.1, -1380579.0, 6107.4683, 0.23771831, 0.0018148917, -1378403.8, -52828.598, 0.0004029895, 9.999563, 9.999783 
1.6450106e+3, 1.7473574e+2, -1325683.5, -1284171.6, -18548.082, -0.02899208, -0.07728652, -1277091.6, -49508.89, 0.0000070009137, 9.999336, 9.999875 
1.6450214e+3, 1.8473545e+2, -1219349.3, -1179076.3, -21577.967, -0.097533055, -0.083150215, -1169698.6, -40113.855, 0.0, 9.999368, 9.999902 
1.6450343e+3, 1.9473529e+2, -1022507.25, -1006877.5, -32207.85, 0.024229849, -0.14801519, -981549.94, 50032.832, 0.0, 9.999954, 10.000116 
1.645046e+3, 2.047354e+2, -961902.4, -1012314.2, -42455.535, 0.08950692, -0.1039676, -937734.1, -4153.3887, 0.0, 10.000036, 9.999385 
1.6450569e+3, 2.1473569e+2, -907752.9, -911005.3, -79521.97, 0.07963811, -0.06629371, -829840.5, 5739.004, 0.0, 9.999654, 9.999578 
1.6450684e+3, 2.2473517e+2, -820696.06, -867563.5, -29111.246, 0.089413054, -0.04533114, -806758.6, -69174.87, 0.0, 9.999761, 9.999178 
1.6450807e+3, 2.3473358e+2, -616052.06, -694443.06, -37891.355, 0.127131, -0.17577304, -600731.1, 38864.49, 0.0, 10.000406, 9.9993725 
1.6450928e+3, 2.4473247e+2, -548102.0, -753435.7, -2388.2512, 0.11367733, -0.15294874, -548074.25, -6467.025, 0.0, 10.000808, 9.998096 
1.645104e+3, 2.5473166e+2, -413841.38, -625182.56, -688.9099, 0.01263191, -0.092657976, -413839.13, 29781.773, 0.000000005166704, 10.001005, 9.998208 
1.6451159e+3, 2.6473027e+2, -264947.3, -418766.16, -2436.703, 0.0012558417, -0.07383762, -264908.72, 80725.42, 0.000005473011, 10.001001, 9.99895 
1.645128e+3, 2.7472818e+2, -163562.55, -292130.88, -22028.066, 0.08032368, -0.24384677, -159893.14, 87755.41, 0.000058881178, 10.000931, 9.999166 
1.6451396e+3, 2.8472695e+2, -170521.81, -405263.94, 12477.89, 0.108617604, -0.20441861, -169860.4, -20200.014, 0.0003079229, 10.000864, 9.997783 
1.645151e+3, 2.947266e+2, -104185.68, -300372.3, 1305.7683, 0.09230047, -0.07605328, -104176.99, -52506.69, 0.0009851817, 10.000556, 9.997963 
1.6451618e+3, 3.047255e+2, 116316.21, -5668.755, 23041.02, 0.018037071, -0.040942922, 120523.2, 120523.2, 0.0021654046, 10.001017, 9.999449 
1.6451752e+3, 3.1472397e+2, 333921.16, 198552.27, -101570.62, 0.17864355, -0.21541665, 388293.16, 388293.16, 0.003679341, 10.002059, 10.000334 
1.654951e+3, 1.2472106e+2, -1870451.0, -1624405.8, -87960.914, -0.02603298, -0.19194911, -1596194.5, 121524.24, 0.03897044, 9.998116, 10.0015335 
1.6549619e+3, 1.3472341e+2, -1854948.6, -1650924.4, 33503.586, -0.13399468, -0.05914613, -1645563.5, -25868.254, 0.024272982, 9.998002, 10.000703 
1.654976e+3, 1.4472255e+2, -1731787.9, -1630068.4, 14554.014, 0.11392832, -0.1685145, -1628026.9, -106323.09, 0.0114189135, 9.998523, 9.999923 
1.6549882e+3, 1.547225e+2, -1500807.4, -1454422.3, 41121.234, 0.09920637, -0.21598738, -1430404.1, -6698.601, 0.0034161112, 9.999401, 10.000017 
1.6549997e+3, 1.6472296e+2, -1396904.3, -1412373.3, -24590.186, 0.054752856, -0.13830759, -1378860.9, -53157.28, 0.00045137366, 9.999676, 9.999515 
1.6550104e+3, 1.747237e+2, -1342145.6, -1309279.5, -14292.02, -0.00057239627, -0.07009701, -1303934.0, -76233.55, 0.000008273259, 9.999301, 9.999716 
1.655022e+3, 1.8472424e+2, -1209203.0, -1165396.9, -15821.346, -0.02524029, 0.0089225285, -1160280.4, -30584.613, 0.0, 9.999386, 9.999994 
1.6550341e+3, 1.9472449e+2, -1030759.6, -1003143.0, 1999.9127, -0.00885138, -0.02166616, -1002998.9, 28691.396, 0.0, 9.999853, 10.000197 
1.6550456e+3, 2.0472361e+2, -1027897.44, -1105875.8, -71538.63, 0.022333227, -0.051726628, -985413.1, -51715.94, 0.0, 9.999852, 9.99883 
1.6550569e+3, 2.1472129e+2, -979402.4, -1006256.44, -78697.19, 0.09336644, -0.22371212, -912995.0, -77275.15, 0.0, 9.999425, 9.999034 
1.6550682e+3, 2.247203e+2, -848787.0, -861973.6, -24208.09, 0.07446096, -0.23017064, -830290.4, -92562.0, 0.0, 9.999486, 9.999351 
1.6550799e+3, 2.3472069e+2, -639719.8, -683791.8, 6655.774, -0.041346624, -0.1817469, -638736.6, 985.94257, 0.0, 10.00015, 9.999572 
1.6550921e+3, 2.4472071e+2, -560198.5, -708474.75, -6009.482, -0.06472966, -0.07725351, -559955.3, -18231.76, 0.0, 10.000508, 9.998548 
1.6551057e+3, 2.5472006e+2, -421483.56, -575826.3, 24956.047, 0.044193085, -0.052207585, -417548.7, 26186.322, 0.00000000856411, 10.000738, 9.998667 
1.655118e+3, 2.647192e+2, -295971.0, -424980.38, -23255.47, 0.087539665, -0.013344767, -291906.94, 53836.523, 0.0000057188686, 10.000742, 9.999036 
1.6551289e+3, 2.7471802e+2, -185137.9, -286828.66, -1858.4852, 0.045714032, -0.10145515, -185103.95, 62645.043, 0.00005720022, 10.000705, 9.999314 
1.65514e+3, 2.8471655e+2, -191461.25, -375160.53, -20643.62, 0.044330493, -0.114123486, -189169.95, -39409.957, 0.0002952708, 10.000546, 9.998143 
1.6551521e+3, 2.9471436e+2, -114701.84, -267566.8, 19942.828, 0.115822084, -0.21078554, -112142.93, -60361.92, 0.00095047243, 10.00031, 9.998312 
1.6551638e+3, 3.0471182e+2, -58702.984, -272354.9, 41887.945, 0.07280977, -0.254135, -50784.07, -50784.07, 0.0020977776, 10.000629, 9.997791 
1.6551776e+3, 3.1471112e+2, 108191.44, -133949.86, 7943.565, 0.13412024, -0.1734139, 108451.75, 108451.75, 0.00356369, 10.00147, 9.998328 
1.6649501e+3, 1.2470813e+2, -2010400.4, -1716090.5, -67757.08, 0.12489122, -0.29134235, -1701240.5, 16601.055, 0.041736465, 9.997254, 10.001301 
1.664961e+3, 1.3471138e+2, -1733536.3, -1572774.5, 8008.5854, -0.054608796, -0.09003404, -1572376.5, 47433.152, 0.026087236, 9.998726, 10.000904 
1.6649748e+3, 1.4471091e+2, -1769510.0, -1649233.1, -494.29248, 0.16669512, -0.16555703, -1649231.1, -127416.11, 0.012349877, 9.9983, 9.999879 
1.6649868e+3, 1.5471022e+2, -1675097.9, -1532007.9, 29801.238, 0.09171718, -0.28134608, -1526049.3, -102225.96, 0.003737191, 9.998198, 10.0000515 
1.6649987e+3, 1.6471075e+2, -1557470.1, -1450272.4, 36394.93, 0.06389776, -0.21530537, -1439083.8, -113263.71, 0.00050616945, 9.998426, 9.9998455 
1.6650099e+3, 1.7471196e+2, -1341803.8, -1274593.1, 49885.688, 0.023988659, -0.13307536, -1248049.5, -20239.393, 0.000009797576, 9.9991455, 10.00003 
1.6650218e+3, 1.847126e+2, -1252985.3, -1219262.8, 87976.49, 0.03129685, -0.044790916, -1146546.4, -16741.701, 0.0, 9.999247, 9.999682 
1.6650344e+3, 1.947127e+2, -1150535.6, -1093202.4, 41735.41, 0.080105886, -0.060803127, -1071236.8, -39433.63, 0.0, 9.999184, 9.999889 
1.6650462e+3, 2.047117e+2, -1073459.6, -1126895.8, 4469.6187, 0.11227897, -0.0893217, -1073088.4, -139276.34, 0.0, 9.999537, 9.99884 
1.665057e+3, 2.1470937e+2, -828652.44, -933691.7, 7821.591, 0.12266784, -0.2605424, -828073.2, 7760.633, 0.0, 10.000454, 9.999041 
1.6650684e+3, 2.2470835e+2, -677804.0, -799179.3, 99141.39, 0.08976823, -0.26028538, -622250.5, 115592.41, 0.0, 10.000756, 9.999151 
1.6650803e+3, 2.3470874e+2, -606464.94, -685472.2, 61066.83, -0.0052803596, -0.19516082, -573238.25, 66600.24, 0.0, 10.000462, 9.99939 
1.665093e+3, 2.4470864e+2, -552955.0, -693922.06, 55428.816, -0.011192404, -0.09971572, -533770.9, 8069.712, 0.0, 10.000485, 9.998684 
1.6651067e+3, 2.547078e+2, -393677.03, -546099.6, 32418.285, 0.08298713, -0.10146756, -387068.6, 56783.492, 0.0000000057748837, 10.000845, 9.998839 
1.6651192e+3, 2.64707e+2, -265937.7, -434716.66, -9596.184, 0.12896466, -0.055449937, -265393.84, 80466.52, 0.0000055479773, 10.001046, 9.998824 
1.6651303e+3, 2.747061e+2, -145675.34, -310068.34, -58561.68, 0.0962428, -0.08554406, -126947.44, 120918.19, 0.000055377644, 10.001122, 9.998974 
1.6651417e+3, 2.847045e+2, -32836.07, -289296.84, -54304.99, 0.10870234, -0.096151724, -21811.068, 128066.83, 0.00028510438, 10.001593, 9.998208 
1.6651538e+3, 2.9470193e+2, 200662.9, -101304.734, -94117.63, 0.16361915, -0.23705886, 227595.47, 279494.88, 0.000926934, 10.002458, 9.998388 
1.6651657e+3, 3.0469874e+2, 206759.55, -207801.8, -3098.5554, 0.120475695, -0.3259955, 206782.7, 206782.7, 0.00206355, 10.002708, 9.997236 
1.6651799e+3, 3.1469873e+2, 121301.6, -172160.98, -35056.15, 0.23221916, -0.11888251, 125431.195, 125431.195, 0.003521676, 10.001746, 9.997927 
1.6749488e+3, 1.2469593e+2, -2021258.0, -1766444.3, 18625.283, 0.16869374, -0.3379844, -1765090.1, -47131.094, 0.044670317, 9.9973755, 10.000889 
1.674961e+3, 1.3469824e+2, -1751038.0, -1625654.6, 34129.79, 0.04160357, -0.21570562, -1616966.4, 2970.6885, 0.028026333, 9.998792, 10.0005045 
1.6749707e+3, 1.4469917e+2, -1742960.3, -1617140.0, -38458.25, -0.1308006, -0.12771678, -1606316.0, -84386.97, 0.013357116, 9.998391, 10.000058 
1.6749848e+3, 1.54699e+2, -1639656.4, -1462795.1, 44036.363, 0.044300817, -0.23754226, -1452437.3, -28505.232, 0.004090086, 9.998207, 10.000526 
1.674998e+3, 1.646996e+2, -1477517.1, -1309353.5, 44056.703, 0.10098427, -0.23630004, -1298510.4, 27414.707, 0.0005678562, 9.998527, 10.000768 
1.6750082e+3, 1.7470062e+2, -1287452.8, -1150843.1, 86923.64, -0.08814239, -0.25733718, -1108598.1, 119312.75, 0.000011659807, 9.999101, 10.000901 
1.6750203e+3, 1.8470076e+2, -1303411.0, -1328737.5, 65526.906, -0.09457027, -0.22704522, -1249335.0, -119425.805, 0.0, 9.999254, 9.998937 
1.6750346e+3, 1.9469987e+2, -1223025.0, -1215744.5, 51857.387, 0.15695237, -0.26325446, -1167399.8, -135478.0, 0.0, 9.99906, 9.999114 
1.675047e+3, 2.0469958e+2, -1053515.6, -1054389.0, 20764.316, 0.21005596, -0.21058981, -1033183.44, -99257.41, 0.0, 9.9993925, 9.999413 
1.6750568e+3, 2.1469977e+2, -820585.1, -867572.75, 59563.38, 0.027980126, -0.1868336, -780049.56, 55873.23, 0.0, 10.000229, 9.99961 
1.6750683e+3, 2.2469923e+2, -768203.1, -912324.7, 74257.02, -0.02845427, -0.13932854, -736789.94, 1137.9482, 0.0, 10.000435, 9.998526 
1.675082e+3, 2.3469771e+2, -690093.4, -803421.94, 64803.043, 0.092918314, -0.19927636, -660674.7, -20730.924, 0.0, 10.000221, 9.998693 
1.675095e+3, 2.446963e+2, -607411.0, -737315.4, 49348.777, 0.10673672, -0.19144467, -590790.56, -48832.33, 0.0, 10.000189, 9.998525 
1.6751069e+3, 2.5469497e+2, -441763.22, -580480.3, 67741.92, -0.009723584, -0.23452017, -414170.34, 29801.56, 0.0000000017385277, 10.000566, 9.998733 
1.675119e+3, 2.6469374e+2, -355908.22, -550476.9, -22930.48, -0.03238977, -0.19410242, -353242.3, -7257.724, 0.0000048816705, 10.000734, 9.998184 
1.6751315e+3, 2.7469233e+2, -225028.52, -428796.03, -30491.553, 0.07728727, -0.20794483, -220563.63, 27435.965, 0.000051551386, 10.00091, 9.998269 
1.6751437e+3, 2.846907e+2, -116858.54, -380093.44, -36688.598, 0.107486345, -0.15830083, -111840.69, 38174.0, 0.0002714196, 10.001242, 9.997752 
1.6751556e+3, 2.9468894e+2, 133154.88, -172856.02, -29773.502, 0.060252275, -0.18426211, 136024.78, 188053.72, 0.0008994481, 10.002145, 9.9980545 
1.6751672e+3, 3.0468577e+2, 167775.1, -169364.11, -53714.88, -0.025845997, -0.28433964, 176126.38, 176126.38, 0.002033432, 10.002223, 9.9977255 
1.6751812e+3, 3.146861e+2, 124348.02, -51475.98, -6365.4688, 0.12943791, -0.09314735, 124578.18, 124578.18, 0.003509679, 10.001277, 9.998972 
1.6849464e+3, 1.2468493e+2, -1922721.3, -1683176.0, 91757.734, 0.18654862, -0.2342059, -1652068.0, 65999.87, 0.04776628, 9.997921, 10.001191 
1.684959e+3, 1.3468574e+2, -1954031.1, -1710473.4, 11558.4375, 0.028853135, -0.2810128, -1709926.1, -89867.24, 0.030093629, 9.997364, 10.000595 
1.6849697e+3, 1.446874e+2, -1882847.6, -1677464.4, 18233.371, -0.0044002356, -0.13074404, -1675858.3, -153815.23, 0.0144471, 9.997381, 10.000142 
1.684984e+3, 1.5468763e+2, -1564124.3, -1412732.4, 47228.547, 0.13384138, -0.21227539, -1399207.3, 24835.084, 0.004479329, 9.998662, 10.00066 
1.6849972e+3, 1.6468807e+2, -1421465.1, -1310123.9, 15177.687, 0.15507296, -0.21953118, -1308092.0, 17944.975, 0.0006375465, 9.999022, 10.00053 
1.6850075e+3, 1.7468856e+2, -1346873.0, -1202445.4, -56043.555, -0.0384882, -0.27273783, -1183249.6, 44778.402, 0.00001399049, 9.998787, 10.000695 
1.6850199e+3, 1.8468852e+2, -1334805.8, -1306605.8, -49710.12, -0.028326744, -0.26920003, -1269034.6, -139007.13, 0.0, 9.998881, 9.999261 
1.6850345e+3, 1.9468772e+2, -1125052.5, -1134541.9, -8898.213, 0.21238141, -0.32711482, -1119713.1, -87675.83, 0.0, 9.999576, 9.999424 
1.685047e+3, 2.0468774e+2, -959006.75, -998437.56, 21761.477, 0.2474739, -0.26266682, -949357.94, -15319.834, 0.0, 10.000002, 9.9995 
1.685057e+3, 2.1468869e+2, -823877.2, -853377.44, -15547.519, 0.035302475, -0.17547882, -817196.25, 18832.504, 0.0, 10.0001545, 9.999734 
1.6850689e+3, 2.246882e+2, -762076.0, -946336.6, 19691.36, -0.0058751036, -0.11432138, -759995.1, -21961.074, 0.0, 10.000607, 9.998237 
1.6850832e+3, 2.3468591e+2, -550578.75, -773650.06, 10666.1, 0.14121298, -0.21512517, -550069.94, 89987.91, 0.0, 10.001318, 9.998397 
1.6850962e+3, 2.4468422e+2, -414409.16, -641675.1, 40434.91, 0.15718074, -0.21925358, -407429.38, 134645.5, 0.0, 10.0015, 9.998534 
1.6851076e+3, 2.5468308e+2, -354658.9, -544978.25, 23795.928, 0.0024493113, -0.24627897, -351728.78, 92357.0, 0.0000000018399801, 10.001164, 9.998689 
1.6851199e+3, 2.6468158e+2, -301661.25, -560663.5, 689.0018, -0.025382165, -0.21450458, -301659.4, 44441.93, 0.0000039092515, 10.00126, 9.997864 
1.685133e+3, 2.7467957e+2, -92199.61, -385206.34, -22955.207, 0.09622179, -0.25980344, -90412.12, 157711.52, 0.000046409757, 10.001958, 9.998039 
1.6851456e+3, 2.8467795e+2, 43851.773, -316788.56, 41917.367, 0.12834747, -0.19314487, 48659.746, 198799.48, 0.00025645504, 10.002378, 9.997667 
1.6851577e+3, 2.946769e+2, 153902.2, -171415.55, 26007.469, 0.06016926, -0.13511866, 155968.25, 208116.1, 0.0008664291, 10.002306, 9.998008 
1.6851693e+3, 3.046737e+2, 169831.5, -195768.8, 5360.74, -0.02339067, -0.22452962, 169910.08, 169910.08, 0.0019907402, 10.002304, 9.997538 
1.6851836e+3, 3.1467274e+2, 258091.69, 25465.766, -76875.69, 0.21068126, -0.12260557, 281201.03, 281201.03, 0.0034830444, 10.002076, 9.999171 
1.6949424e+3, 1.24674164e+2, -1838159.6, -1552409.0, 17573.47, -0.09994447, -0.06468268, -1551332.4, 166845.14, 0.051028147, 9.998076, 10.002058 
1.6949531e+3, 1.3467367e+2, -1907912.0, -1612429.6, -6884.0327, -0.31377155, -0.29327548, -1612269.3, 7908.0894, 0.032295942, 9.99735, 10.00128 
1.6949718e+3, 1.4467548e+2, -1857222.8, -1655010.5, 41456.19, 0.4039023, -0.18296997, -1646841.5, -124683.414, 0.015627254, 9.997504, 10.000241 
1.694984e+3, 1.5467623e+2, -1578854.8, -1453486.6, 107152.24, 0.22497748, -0.18543777, -1392030.0, 32122.717, 0.004910431, 9.998707, 10.000359 
1.6949956e+3, 1.6467628e+2, -1495018.8, -1483760.1, -13810.789, 0.051014762, -0.15423514, -1474475.4, -148321.05, 0.0007170378, 9.999108, 9.999296 
1.6950075e+3, 1.746759e+2, -1438362.9, -1386112.3, -49521.945, 0.041781455, -0.17321685, -1356246.9, -128086.22, 0.000016975888, 9.998761, 9.999445 
1.6950202e+3, 1.8467593e+2, -1234688.1, -1109901.4, -43909.285, 0.070138544, -0.16110435, -1095999.6, 34159.3, 0.0, 9.998919, 10.000597 
1.6950332e+3, 1.9467622e+2, -1041084.94, -936291.56, 27112.475, 0.09853437, -0.25320035, -929692.5, 102457.78, 0.0, 9.99947, 10.000835 
1.6950455e+3, 2.046763e+2, -1020433.56, -1076415.9, 7807.706, 0.06798879, -0.23563991, -1019365.06, -85217.64, 0.0, 9.9997835, 9.999076 
1.6950572e+3, 2.1467604e+2, -887894.1, -942984.1, 6165.0273, 0.0017810086, -0.21588986, -887212.6, -51060.617, 0.0, 9.999951, 9.999226 
1.6950697e+3, 2.2467512e+2, -798971.25, -943310.56, 29063.635, -0.020976093, -0.18017913, -793338.9, -55176.453, 0.0, 10.00028, 9.998406 
1.6950834e+3, 2.3467328e+2, -585833.1, -768675.44, 59228.426, 0.004308384, -0.2576046, -568323.9, 71857.414, 0.0, 10.000996, 9.998579 
1.6950965e+3, 2.4467222e+2, -466635.0, -661500.2, 15339.641, -0.006881447, -0.21134406, -465434.88, 76757.51, 0.0, 10.001122, 9.998584 
1.6951089e+3, 2.5467196e+2, -388928.44, -557796.4, 32050.781, -0.021548655, -0.14910547, -383049.9, 61145.84, 0.0000000033657745, 10.000915, 9.998724 
1.6951215e+3, 2.6467043e+2, -351378.4, -589090.3, 10827.13, -0.029411051, -0.12059596, -350886.28, -4674.906, 0.0000030031388, 10.000948, 9.997811 
1.6951343e+3, 2.7466744e+2, -134484.7, -409203.7, 26335.639, 0.003426389, -0.26084918, -131982.84, 116258.0, 0.000041455987, 10.00169, 9.997997 
1.6951472e+3, 2.8466576e+2, 9859.212, -303068.56, 18877.488, 0.0061302204, -0.21601862, 10993.889, 161251.08, 0.00024337543, 10.002019, 9.997935 
1.6951597e+3, 2.9466528e+2, 132981.2, -155300.38, 47256.566, -0.017660884, -0.1251585, 140530.06, 192791.2, 0.0008331997, 10.002028, 9.998263 
1.6951714e+3, 3.046621e+2, 28193.77, -366338.5, -19376.605, -0.0783155, -0.17744446, 29143.125, 29143.125, 0.0019314514, 10.001814, 9.996581 
1.6951856e+3, 3.146593e+2, 144068.5, -55069.742, -21377.97, 0.14182033, -0.17622913, 146337.63, 146337.63, 0.0034111522, 10.001439, 9.998899 
1.70494e+3, 1.246631e+2, -1955183.3, -1607286.6, 84511.95, -0.08140563, -0.04368502, -1587843.4, 130440.12, 0.054460447, 9.997292, 10.002056 
1.7049505e+3, 1.3466188e+2, -1812631.6, -1614470.5, 1415.4641, -0.3483368, -0.28823492, -1614460.4, 5831.539, 0.034638863, 9.998216, 10.000855 
1.7049715e+3, 1.446631e+2, -1678879.8, -1567782.1, 28422.758, 0.56171197, -0.21822964, -1560932.9, -38654.082, 0.016903277, 9.998758, 10.000226 
1.7049828e+3, 1.5466407e+2, -1664480.8, -1505777.1, 63950.258, 0.2732859, -0.18980283, -1483215.6, -58944.887, 0.00538814, 9.998188, 10.000237 
1.7049943e+3, 1.6466407e+2, -1641691.1, -1570202.5, 24592.193, 0.06287247, -0.14860724, -1562559.8, -236286.88, 0.0008082668, 9.998172, 9.999148 
1.7050071e+3, 1.746635e+2, -1385806.0, -1370212.0, 41960.574, 0.11186562, -0.17591938, -1335330.1, -107047.91, 0.000020835996, 9.999164, 9.999361 
1.70502e+3, 1.8466358e+2, -1159711.1, -1068343.9, 73003.37, 0.15575945, -0.15834184, -1027908.5, 102371.82, 0.0, 9.9994135, 10.000656 
1.7050326e+3, 1.9466408e+2, -1092628.0, -958701.06, 11663.5625, 0.115385965, -0.22964257, -957692.9, 74575.63, 0.0, 9.999099, 10.000878 
1.7050451e+3, 2.0466396e+2, -1094069.5, -1127056.8, -81.09404, 0.08798435, -0.22606885, -1094069.3, -159802.08, 0.0, 9.999351, 9.998921 
1.7050579e+3, 2.1466315e+2, -836244.06, -936408.56, -13159.059, 0.07213394, -0.24768794, -834544.1, 1733.3463, 0.0, 10.000405, 9.99904 
1.7050707e+3, 2.246621e+2, -700265.1, -867422.8, 39752.984, 0.051487766, -0.22798033, -691292.75, 46996.285, 0.0, 10.000832, 9.998658 
1.7050841e+3, 2.3466063e+2, -642186.9, -760398.4, 36744.746, 0.01870743, -0.29804328, -631696.2, 8607.4, 0.0, 10.000462, 9.998881 
1.7050974e+3, 2.4465995e+2, -534688.2, -691692.75, 36482.867, 0.016701236, -0.23075494, -526624.8, 15686.365, 0.0, 10.000648, 9.99861 
1.7051107e+3, 2.5466004e+2, -300876.13, -503322.94, 17856.62, 0.040257778, -0.13450307, -299313.2, 144999.06, 0.0000000026261497, 10.001493, 9.998809 
1.7051235e+3, 2.6465872e+2, -206937.86, -505863.9, 36468.08, 0.044288643, -0.09702579, -202553.17, 143772.63, 0.0000021613648, 10.001862, 9.997959 
1.7051362e+3, 2.7465573e+2, -136106.0, -398789.0, 27871.584, 0.028528504, -0.24884823, -133181.3, 115172.555, 0.000036656253, 10.001607, 9.998129 
1.7051491e+3, 2.8465387e+2, -75983.95, -350327.16, 50632.797, 0.043147195, -0.22151183, -66937.47, 83434.32, 0.00022921336, 10.001463, 9.997869 
1.7051621e+3, 2.9465303e+2, 40463.586, -208649.8, 4287.494, 0.06834717, -0.15569004, 40537.355, 92918.63, 0.00079328316, 10.001459, 9.998156 
1.705174e+3, 3.0465025e+2, 94462.93, -320391.4, 24620.111, -0.006525616, -0.16740723, 95918.94, 95918.94, 0.0018438247, 10.002192, 9.996702 
1.7051883e+3, 3.1464717e+2, 443932.0, 120329.68, 2734.6045, 0.17787714, -0.21033394, 443955.1, 443955.1, 0.0032716861, 10.003395, 9.999127 
1.7149384e+3, 1.2465148e+2, -1977276.5, -1697357.0, -86994.8, -0.066167764, -0.22577772, -1672523.5, 45864.973, 0.058051143, 9.997462, 10.001343 
1.7149508e+3, 1.3465098e+2, -1940260.5, -1871593.5, 84408.78, -0.15759978, -0.22482294, -1814802.8, -194406.33, 0.037118543, 9.998196, 9.999097 
1.7149676e+3, 1.4465049e+2, -1661831.1, -1575676.4, -3143.8613, 0.25173163, -0.22327578, -1575561.8, -53159.016, 0.018276531, 9.998925, 10.000098 
1.71498e+3, 1.54651e+2, -1660622.9, -1505173.5, 58781.664, 0.12339624, -0.24103285, -1485448.6, -61051.285, 0.005915651, 9.99821, 10.000235 
1.7149927e+3, 1.6465145e+2, -1563642.5, -1422500.9, 37286.816, 0.03727163, -0.20242831, -1413256.0, -86863.54, 0.0009130136, 9.998237, 10.000126 
1.7150058e+3, 1.7465155e+2, -1323127.8, -1225036.0, 91366.22, 0.03899733, -0.26713988, -1170383.9, 58007.41, 0.000025810483, 9.99911, 10.000378 
1.715019e+3, 1.8465155e+2, -1245234.9, -1245714.5, 45925.703, 0.06214897, -0.2493409, -1199548.4, -69157.83, 0.0, 9.999408, 9.999443 
1.7150322e+3, 1.9465134e+2, -1195570.6, -1151512.4, 14962.461, 0.12540229, -0.26585543, -1146911.5, -114519.945, 0.0, 9.999007, 9.999599 
1.7150454e+3, 2.0465076e+2, -1118013.5, -1135779.4, 21329.766, 0.13723639, -0.24230188, -1103790.9, -169394.02, 0.0, 9.999175, 9.998948 
1.7150588e+3, 2.1464977e+2, -870112.6, -941549.06, 41261.72, 0.10441533, -0.28997612, -851256.9, -14849.539, 0.0, 10.000128, 9.999138 
1.7150721e+3, 2.2464883e+2, -722450.7, -841318.25, 12400.113, 0.06709711, -0.280896, -721170.94, 17245.59, 0.0, 10.000511, 9.998999 
1.715085e+3, 2.3464786e+2, -653174.3, -732120.0, 39258.816, 0.04143965, -0.33218774, -636975.25, 3450.3906, 0.0, 10.00023, 9.999195 
1.7150985e+3, 2.4464734e+2, -582088.44, -706603.8, 47933.527, 0.03210827, -0.2692115, -565773.56, -23341.62, 0.0, 10.000301, 9.998667 
1.7151125e+3, 2.5464714e+2, -343634.56, -524225.9, 67114.61, 0.048328232, -0.20875853, -321423.9, 123013.39, 0.0000000000058928205, 10.001203, 9.998805 
1.7151256e+3, 2.646461e+2, -229737.7, -479917.47, 9930.633, 0.035325915, -0.15682301, -229344.14, 117103.945, 0.0000014626683, 10.001549, 9.998287 
1.7151378e+3, 2.7464414e+2, -150678.44, -365873.06, 36868.99, 0.011091691, -0.24005315, -144537.0, 103927.92, 0.000032258973, 10.001331, 9.998488 
1.7151509e+3, 2.8464216e+2, -166175.92, -454819.88, 30455.143, 0.043277767, -0.22012691, -162997.58, -12512.89, 0.00021422842, 10.001103, 9.997326 
1.7151645e+3, 2.9463995e+2, -36668.184, -305484.78, 35645.84, 0.12571631, -0.24205671, -32021.756, 20488.016, 0.00074612966, 10.001177, 9.997628 
1.7151766e+3, 3.046378e+2, 80107.875, -230087.45, 50798.496, -0.00038966615, -0.20912588, 88214.91, 88214.91, 0.001733618, 10.001715, 9.9975395 
1.7151907e+3, 3.1463546e+2, 381343.88, 179795.38, 102408.31, 0.010061785, -0.26772207, 424246.03, 424246.03, 0.0030848195, 10.002628, 9.999887 
1.724936e+3, 1.2463778e+2, -2081117.0, -1737230.8, -228509.23, -0.0027306734, -0.33849475, -1623200.3, 95318.766, 0.06177432, 9.996691, 10.001448 
1.7249505e+3, 1.3463809e+2, -1858603.8, -1830739.4, 55158.03, -0.014147913, -0.28536275, -1787781.3, -167260.67, 0.039721623, 9.998737, 9.999097 
1.7249656e+3, 1.4463802e+2, -1655269.5, -1591277.5, 20142.355, 0.16477887, -0.22842437, -1585465.3, -62942.246, 0.019743169, 9.999032, 9.999953 
1.7249782e+3, 1.5463805e+2, -1473566.0, -1404412.9, 41330.867, 0.0869037, -0.2973684, -1385102.8, 39418.9, 0.006494274, 9.999417, 10.000372 
1.7249918e+3, 1.6463862e+2, -1411586.5, -1356597.6, 43279.07, 0.08237912, -0.25002465, -1332818.0, -6302.809, 0.001032908, 9.999305, 10.000073 
1.7250052e+3, 1.7463893e+2, -1329224.0, -1236482.3, -16984.9, 0.077667765, -0.2863162, -1233469.5, -4957.3687, 0.00003215152, 9.999091, 10.000313 
1.7250185e+3, 1.8463878e+2, -1320872.6, -1319985.6, -49814.29, 0.09814724, -0.26500875, -1270612.9, -140098.95, 0.0, 9.999047, 9.999105 
1.7250314e+3, 1.9463831e+2, -1131505.4, -1152965.0, -44515.8, 0.14199823, -0.27292144, -1096444.5, -63925.367, 0.0, 9.999595, 9.9993 
1.7250453e+3, 2.0463765e+2, -1005760.9, -1070788.1, 50177.297, 0.18226019, -0.2476439, -978484.06, -43958.387, 0.0, 9.999897, 9.999057 
1.7250599e+3, 2.1463653e+2, -857522.4, -925886.75, 45672.934, 0.20848508, -0.31549338, -834656.9, 1879.3683, 0.0, 10.000157, 9.999245 
1.7250736e+3, 2.2463572e+2, -748534.56, -855388.25, 13624.612, 0.1820076, -0.2958876, -746824.7, -8280.27, 0.0, 10.000372, 9.99895 
1.7250858e+3, 2.346353e+2, -597550.56, -712833.7, -30881.152, 0.075846165, -0.28419077, -589799.5, 50750.11, 0.0, 10.0006695, 9.999102 
1.7250991e+3, 2.4463467e+2, -504804.1, -677146.06, 9158.375, 0.046978343, -0.22476739, -504318.78, 38238.742, 0.0, 10.00084, 9.9986105 
1.7251138e+3, 2.5463372e+2, -404225.4, -554229.94, -4738.7803, 0.094307624, -0.23766163, -404075.84, 40493.523, 0.0000000000049057277, 10.000779, 9.998797 
1.7251271e+3, 2.6463282e+2, -297299.94, -455287.38, -36179.816, 0.08241074, -0.19538358, -289408.78, 57169.27, 0.0000011502509, 10.000859, 9.9987755 
1.7251389e+3, 2.746319e+2, -151634.53, -315780.06, -41413.68, 0.012505631, -0.21989487, -141777.81, 106806.47, 0.000029351942, 10.00111, 9.998938 
1.7251521e+3, 2.846302e+2, -100866.58, -428903.34, 26777.938, 0.05373173, -0.18827523, -98695.05, 51906.137, 0.00020332959, 10.001601, 9.997246 
1.7251669e+3, 2.9462743e+2, 139815.33, -231746.4, 3165.8792, 0.19026221, -0.25222024, 139842.3, 192474.94, 0.00070578046, 10.00247, 9.997489 
1.7251791e+3, 3.0462563e+2, 219535.55, -147022.08, 38327.613, 0.059441026, -0.18241155, 223500.23, 223500.23, 0.0016366781, 10.002548, 9.997744 
1.7251928e+3, 3.1462383e+2, 185079.44, 38401.016, -39539.73, 0.045939244, -0.19580607, 195059.08, 195059.08, 0.002919005, 10.001372, 9.999583 
1.7349322e+3, 1.24622054e+2, -2037693.9, -1662596.9, -58844.84, -0.13632932, -0.38940296, -1653582.0, 65092.934, 0.06561491, 9.996777, 10.001895 
1.7349492e+3, 1.3462293e+2, -1738345.0, -1589268.1, 90000.57, -0.075565055, -0.48711297, -1546947.4, 73719.74, 0.042436883, 9.998759, 10.000764 
1.7349647e+3, 1.4462529e+2, -1650054.3, -1600030.5, 131.13075, 0.11425415, -0.2496494, -1600030.1, -77386.61, 0.021297567, 9.999119, 9.9998455 
1.7349774e+3, 1.5462519e+2, -1455676.5, -1369757.4, 67353.13, 0.010634351, -0.35465878, -1332829.6, 91813.664, 0.0071235094, 9.999432, 10.0006 
1.7349909e+3, 1.6462567e+2, -1461167.3, -1496940.9, 16185.922, 0.020884069, -0.28263268, -1454931.0, -128290.75, 0.0011691477, 9.999449, 9.999046 
1.735005e+3, 1.7462562e+2, -1409017.4, -1409973.9, -13696.895, 0.10022439, -0.2380863, -1395790.4, -167145.06, 0.00004011834, 9.999112, 9.999118 
1.7350179e+3, 1.846253e+2, -1284992.1, -1247370.6, -52463.867, 0.09306579, -0.19319162, -1210447.1, -79797.055, 0.0, 9.999055, 9.9995985 
1.7350301e+3, 1.9462495e+2, -1113908.9, -1081413.8, -12395.259, 0.021271596, -0.2502758, -1077225.4, -44573.535, 0.0, 9.999441, 9.999866 
1.7350443e+3, 2.046245e+2, -1018936.1, -1055387.5, 42510.742, 0.059569847, -0.24438731, -990908.8, -56253.93, 0.0, 9.999707, 9.999253 
1.7350607e+3, 2.1462359e+2, -876471.6, -919112.8, 70886.89, 0.23743816, -0.31288305, -823768.44, 12894.594, 0.0, 9.999956, 9.999386 
1.7350745e+3, 2.2462292e+2, -829768.3, -955996.4, 8687.939, 0.21277292, -0.25809273, -829173.2, -90502.15, 0.0, 10.00008, 9.998398 
1.7350857e+3, 2.3462266e+2, -671534.3, -810262.56, -1214.3193, -0.022897135, -0.17887996, -671523.7, -30845.318, 0.0, 10.00042, 9.998553 
1.7350988e+3, 2.446217e+2, -558608.56, -707042.06, -5232.98, -0.09543379, -0.12160032, -558424.3, -15734.205, 0.0, 10.000501, 9.998567 
1.7351142e+3, 2.5461987e+2, -446404.03, -573861.56, 16394.154, 0.028161695, -0.2209082, -444329.13, 378.64633, 0.000000000000012544113, 10.000495, 9.998797 
1.7351276e+3, 2.646189e+2, -316105.03, -406684.1, -42013.625, 0.017743755, -0.21049598, -299618.47, 47097.066, 0.0000010511417, 10.000489, 9.999283 
1.7351389e+3, 2.74619e+2, -157129.84, -255760.3, -7699.195, -0.124137536, -0.1888075, -156532.47, 92179.14, 0.000029114979, 10.00082, 9.999477 
1.7351526e+3, 2.8461787e+2, -146945.39, -450916.88, 35117.027, -0.10256994, -0.13147351, -142941.17, 7781.7124, 0.00019954766, 10.00128, 9.997252 
1.7351685e+3, 2.9461497e+2, 80266.016, -262083.3, 61885.098, 0.0836979, -0.21619372, 91109.3, 143864.42, 0.0006844002, 10.00207, 9.997474 
1.735181e+3, 3.0461344e+2, 108450.43, -251696.08, -26549.361, -0.040927973, -0.09444532, 110397.08, 110397.08, 0.0015865878, 10.002036, 9.997252 
1.7351934e+3, 3.1461123e+2, 1121.8733, -151312.52, -19246.217, -0.0864552, -0.117298305, 3514.3323, 3514.3323, 0.0028415923, 10.000609, 9.99861 
1.7449313e+3, 1.2460904e+2, -2056763.5, -1766661.8, 47516.293, 0.085086964, -0.24966873, -1759077.3, -40270.64, 0.06957688, 9.997114, 10.000985 
1.7449485e+3, 1.3460986e+2, -1853877.5, -1536923.1, 73468.9, 0.06136788, -0.43299457, -1520721.4, 100076.02, 0.045260757, 9.997502, 10.001747 
1.7449632e+3, 1.4461245e+2, -1738878.9, -1655742.5, 925.9599, 0.09854473, -0.22564101, -1655732.1, -132960.88, 0.022935338, 9.998579, 9.999703 
1.7449766e+3, 1.5461218e+2, -1540575.6, -1434677.8, -17168.318, 0.04280847, -0.3277282, -1431964.0, -7190.954, 0.0078018596, 9.998963, 10.000351 
1.7449905e+3, 1.6461235e+2, -1545484.9, -1530796.5, -31593.322, 0.061142668, -0.27794996, -1505705.0, -178932.61, 0.0013223152, 9.998845, 9.999111 
1.7450042e+3, 1.7461222e+2, -1430882.5, -1404670.8, 1114.6626, 0.12639771, -0.24974914, -1404623.4, -175847.1, 0.000049909977, 9.9989, 9.999263 
1.7450173e+3, 1.8461193e+2, -1258927.1, -1239808.3, 58271.48, 0.1316491, -0.20730123, -1190317.3, -59537.074, 0.0000000000000006446772, 9.999277, 9.999527 
1.7450303e+3, 1.9461149e+2, -1000444.3, -1035070.3, 14944.256, 0.056225795, -0.26637518, -994886.56, 37897.035, 0.0, 10.000271, 9.999764 
1.7450446e+3, 2.0461111e+2, -915176.5, -1013186.4, 34306.582, 0.08764835, -0.24419616, -904361.5, 30425.041, 0.0, 10.000438, 9.999199 
1.7450604e+3, 2.1461065e+2, -901320.1, -931646.2, 9658.519, 0.2363281, -0.26242954, -898505.25, -61714.695, 0.0, 9.999784, 9.999385 
1.7450744e+3, 2.2461006e+2, -854909.0, -986916.06, 22240.346, 0.21651112, -0.19505437, -851262.7, -112463.95, 0.0, 9.999965, 9.998258 
1.7450866e+3, 2.3460938e+2, -578321.94, -778533.25, 16193.9795, -0.0042789862, -0.14072263, -577020.56, 63790.89, 0.0, 10.001116, 9.99844 
1.7451e+3, 2.446083e+2, -440976.28, -608953.3, 17511.28, -0.05347697, -0.10598823, -439170.2, 103653.09, 0.0, 10.001174, 9.998901 
1.7451148e+3, 2.5460657e+2, -502816.63, -561678.0, 19940.639, 0.078382455, -0.22458267, -496697.44, -51861.164, 0.0, 9.999981, 9.999118 
1.7451283e+3, 2.6460543e+2, -405594.34, -497870.9, 29976.168, 0.0731015, -0.22791606, -396711.63, -49866.484, 0.0000010008785, 10.000055, 9.998875 
1.7451403e+3, 2.74605e+2, -66354.4, -264073.22, -42698.36, -0.10265287, -0.21320583, -57527.54, 191321.89, 0.000030147008, 10.001639, 9.999033 
1.7451543e+3, 2.8460392e+2, 13256.84, -342775.34, -17526.336, -0.0901502, -0.1436496, 14117.525, 164978.73, 0.00019899277, 10.002213, 9.997562 
1.7451704e+3, 2.946016e+2, 11704.461, -274386.1, -21822.469, 0.10447424, -0.1980978, 13359.466, 66245.695, 0.00068156485, 10.001451, 9.997717 
1.7451829e+3, 3.0459997e+2, 52088.66, -225014.89, -15453.552, 0.0024823647, -0.117096454, 52947.813, 52947.813, 0.0015937911, 10.001394, 9.997762 
1.7451961e+3, 3.1459826e+2, 304643.22, 9962.716, -27764.18, 0.04435178, -0.13869777, 307236.3, 307236.3, 0.002881364, 10.00259, 9.998777 
1.7549291e+3, 1.2459696e+2, -2164733.8, -2030196.6, -260300.7, 0.07768192, -0.06332408, -1828612.9, -109681.414, 0.07366958, 9.997259, 9.99912 
1.7549475e+3, 1.3459885e+2, -1827533.0, -1479466.1, 133688.03, 0.1810869, -0.1322067, -1434045.4, 186867.06, 0.048192136, 9.997486, 10.0021715 
1.7549609e+3, 1.4459993e+2, -1723551.0, -1660972.8, 9779.748, -0.05496256, -0.11802058, -1659479.9, -136578.47, 0.024652572, 9.998729, 9.999603 
1.7549762e+3, 1.5459901e+2, -1589453.5, -1550474.1, 5893.556, 0.05320909, -0.20932114, -1549602.5, -124691.78, 0.008527423, 9.99901, 9.999547 
1.7549893e+3, 1.6459838e+2, -1450875.4, -1345777.3, -62094.965, 0.024362225, -0.25103763, -1316980.3, 9934.252, 0.0014925194, 9.998904, 10.000348 
1.7550021e+3, 1.7459865e+2, -1337549.0, -1194206.4, 17133.627, 0.014529241, -0.3280229, -1192186.9, 36719.203, 0.00006156021, 9.998842, 10.000729 
1.7550163e+3, 1.8459868e+2, -1302338.4, -1329985.0, 75777.695, 0.05435552, -0.3017364, -1239133.5, -108229.46, 0.0000000010737394, 9.999273, 9.998911 
1.7550313e+3, 1.9459796e+2, -1069927.5, -1158820.0, 64272.516, 0.10473704, -0.31255, -1036230.1, -3315.8481, 0.0, 10.000179, 9.9989605 
1.7550454e+3, 2.045975e+2, -962996.1, -1074319.6, -5785.8545, 0.09970029, -0.23907523, -962696.2, -27775.506, 0.0, 10.000273, 9.998857 
1.7550588e+3, 2.1459748e+2, -953433.8, -987888.56, -1273.7844, 0.07582477, -0.18778884, -953386.8, -116465.12, 0.0, 9.999557, 9.999109 
1.755073e+3, 2.2459692e+2, -879872.44, -968829.94, 47013.883, 0.038581986, -0.11600739, -859631.3, -120701.625, 0.0, 9.999665, 9.998527 
1.7550878e+3, 2.3459558e+2, -596944.44, -758444.3, 77066.1, -0.016085474, -0.15701872, -566071.2, 74876.62, 0.0, 10.000857, 9.998705 
1.7551018e+3, 2.4459448e+2, -455071.9, -559451.7, -37965.707, -0.017010838, -0.16356665, -442723.6, 100233.73, 0.0, 10.000836, 9.999404 
1.7551151e+3, 2.5459355e+2, -501602.7, -502467.44, -7970.4824, 0.08351668, -0.2565377, -494052.88, -49094.793, 0.0, 9.999738, 9.9996395 
1.7551287e+3, 2.64592e+2, -540818.0, -718745.5, 64404.656, 0.07133647, -0.26231804, -519952.3, -172980.88, 0.00000094846536, 9.99979, 9.997491 
1.7551425e+3, 2.745898e+2, -207623.05, -487197.4, 38647.113, -0.07968943, -0.28244418, -202379.02, 46619.38, 0.000030605133, 10.001343, 9.997642 
1.7551567e+3, 2.845884e+2, -1664.6279, -291045.7, -57048.758, -0.10179183, -0.20178375, 9175.901, 160191.19, 0.00020047408, 10.001858, 9.998088 
1.7551716e+3, 2.9458737e+2, -7034.9766, -221895.38, -25959.76, 0.0446996, -0.1877154, -3942.975, 49082.4, 0.00069770816, 10.00107, 9.998254 
1.7551842e+3, 3.045856e+2, 58549.938, -101218.74, -5041.326, -0.04617555, -0.20054491, 58708.85, 58708.85, 0.001653074, 10.000933, 9.998824 
1.7552e+3, 3.145854e+2, 240639.48, 78373.93, 91983.164, 0.104411595, -0.20938905, 282158.38, 282158.38, 0.0030124004, 10.0017805, 9.99961 
1.7649257e+3, 1.2458244e+2, -2111354.8, -1980749.9, -232682.23, -0.0020023948, -0.13319933, -1804380.1, -85302.016, 0.07790593, 9.997494, 9.999347 
1.7649466e+3, 1.3458598e+2, -1712262.0, -1435975.5, 163743.73, 0.3086926, -0.023167139, -1359886.3, 261154.95, 0.05123237, 9.998308, 10.002095 
1.7649586e+3, 1.4458588e+2, -1750367.6, -1658413.6, 24644.908, -0.13616008, -0.13721107, -1652225.0, -129183.81, 0.026445003, 9.998478, 9.999753 
1.764975e+3, 1.545855e+2, -1683742.8, -1583626.6, 31802.959, 0.087066256, -0.17945527, -1574378.4, -149333.11, 0.009296644, 9.9983425, 9.999639 
1.7649888e+3, 1.6458522e+2, -1488930.0, -1341511.3, 12770.045, 0.103543304, -0.20000103, -1340413.3, -13368.17, 0.0016790463, 9.998557, 10.000535 
1.7650017e+3, 1.7458528e+2, -1241859.0, -1132008.6, -38453.875, 0.06663376, -0.31708604, -1119885.5, 109151.72, 0.000074904594, 9.999421, 10.000874 
1.7650162e+3, 1.8458514e+2, -1260064.8, -1316963.0, 18562.852, 0.09765515, -0.3137102, -1254544.3, -123508.12, 0.000000009428086, 9.999589, 9.9988575 
1.7650312e+3, 1.9458443e+2, -1186571.6, -1218865.0, 26911.482, 0.1249484, -0.315995, -1171334.5, -138288.23, 0.0, 9.999392, 9.998941 
1.7650452e+3, 2.0458387e+2, -1038479.2, -1098112.3, 24199.133, 0.100718796, -0.25592235, -1029894.9, -94841.664, 0.0, 9.999716, 9.998956 
1.7650585e+3, 2.1458356e+2, -778974.94, -891221.06, 25183.918, 0.039380454, -0.23878092, -773583.56, 63472.223, 0.0, 10.000719, 9.999207 
1.765073e+3, 2.2458294e+2, -727869.9, -899849.8, 102056.61, 0.031222913, -0.1749493, -680406.4, 58657.652, 0.0, 10.000741, 9.998473 
1.7650887e+3, 2.3458187e+2, -762426.8, -841644.94, 65880.984, 0.05926705, -0.18033454, -725164.7, -84084.49, 0.0, 9.999753, 9.998658 
1.7651032e+3, 2.4458082e+2, -588380.5, -637338.94, -47828.31, 0.09070345, -0.1758153, -559131.0, -16041.242, 0.0, 9.999926, 9.999332 
1.765116e+3, 2.545797e+2, -263810.2, -401065.84, -86564.3, 0.13084447, -0.27943647, -221970.13, 223122.39, 0.0, 10.001381, 9.999567 
1.7651297e+3, 2.64578e+2, -237676.2, -594648.0, 56969.254, 0.105305366, -0.28514746, -228804.92, 118302.625, 0.0000007067664, 10.001991, 9.99727 
1.7651443e+3, 2.7457565e+2, -179807.34, -498458.63, 70841.75, -0.024014764, -0.29943684, -164767.81, 84369.29, 0.000029110019, 10.001656, 9.997405 
1.7651589e+3, 2.8457424e+2, -41738.1, -273586.22, 9320.864, -0.034532707, -0.21850613, -41363.98, 109789.836, 0.0002034409, 10.001447, 9.998402 
1.7651735e+3, 2.9457358e+2, 79135.01, -148615.16, -38286.746, 0.1083383, -0.18905832, 85399.05, 138558.45, 0.0007263894, 10.001548, 9.998525 
1.765186e+3, 3.045712e+2, 208827.94, -39381.48, 26666.873, 0.015560226, -0.2735522, 211660.61, 211660.61, 0.0017327985, 10.001978, 9.9987545 
1.765203e+3, 3.145707e+2, 340903.78, 116088.78, -36642.6, 0.20841518, -0.29009777, 346725.4, 346725.4, 0.003152883, 10.002448, 9.9995775 
1.7749235e+3, 1.24568395e+2, -1934294.6, -1670508.9, -91095.586, -0.060038064, -0.20392454, -1642107.9, 77110.02, 0.08231803, 9.997679, 10.001449 
1.7749459e+3, 1.3457172e+2, -1753134.3, -1529426.1, 205073.42, 0.37145403, -0.08327337, -1407685.6, 213493.92, 0.054393712, 9.99835, 10.001419 
1.7749554e+3, 1.4456983e+2, -1712291.5, -1602148.1, -3479.1138, -0.36542732, -0.33447152, -1602038.3, -78843.68, 0.02831169, 9.998571, 10.000095 
1.7749727e+3, 1.545716e+2, -1613230.5, -1444812.3, 38950.176, -0.018374503, -0.25103098, -1436240.5, -11063.186, 0.010105246, 9.9983635, 10.000585 
1.7749882e+3, 1.645729e+2, -1542596.4, -1466570.3, 24181.416, 0.14167914, -0.12788679, -1459530.8, -132366.84, 0.0018804772, 9.998614, 9.99965 
1.7750023e+3, 1.7457214e+2, -1324663.8, -1298586.0, 7319.0796, 0.14565726, -0.21417738, -1296672.3, -67502.55, 0.00008970714, 9.999401, 9.999739 
1.775016e+3, 1.8457131e+2, -1225079.0, -1246795.0, -5975.327, 0.08988994, -0.24310239, -1223543.4, -92366.62, 0.000000028818846, 9.9995985, 9.999334 
1.7750295e+3, 1.9457075e+2, -1157667.9, -1135875.8, 34810.445, -0.024494324, -0.28743592, -1110295.9, -77114.92, 0.0, 9.999291, 9.99956 
1.7750438e+3, 2.0457007e+2, -1031730.9, -1040625.94, 41679.246, -0.068800926, -0.29843226, -994262.5, -59077.082, 0.0, 9.999536, 9.999432 
1.775059e+3, 2.1456884e+2, -788577.9, -850510.75, 75920.12, -0.008856195, -0.41955268, -737551.7, 99641.97, 0.0, 10.000465, 9.999601 
1.7750742e+3, 2.2456813e+2, -804819.8, -998288.56, 52346.098, 0.03552046, -0.3602422, -791564.9, -52362.547, 0.0, 10.000464, 9.997933 
1.775089e+3, 2.3456803e+2, -825270.3, -934053.56, 47047.887, 0.08316018, -0.22099091, -807745.7, -166534.16, 0.0, 9.999569, 9.998118 
1.7751035e+3, 2.4456705e+2, -671358.25, -733086.6, -13337.22, 0.10418902, -0.15638624, -668599.8, -125376.25, 0.0, 9.999609, 9.99882 
1.7751172e+3, 2.5456506e+2, -342246.9, -497340.5, -12417.379, 0.09133791, -0.2961226, -341259.03, 103979.95, 0.0, 10.001105, 9.999034 
1.7751312e+3, 2.6456353e+2, -237329.67, -513040.25, 33528.258, 0.021992654, -0.2929189, -233310.98, 113941.734, 0.00000032366296, 10.001651, 9.997991 
1.7751455e+3, 2.745625e+2, -176967.03, -408802.1, 81222.74, -0.09765849, -0.25165161, -151343.03, 97922.625, 0.00002512301, 10.001317, 9.998173 
1.7751603e+3, 2.8456137e+2, -105186.48, -326098.38, -12522.261, -0.084035724, -0.1702196, -104478.92, 46798.676, 0.00020101898, 10.0011, 9.998209 
1.7751753e+3, 2.9456013e+2, 20763.607, -192741.77, -10415.215, 0.10592879, -0.19383955, 21270.479, 74559.85, 0.0007432089, 10.001223, 9.998373 
1.7751881e+3, 3.045567e+2, 54547.094, -251712.2, 26180.87, -0.015512998, -0.31534052, 56769.07, 56769.07, 0.0017748394, 10.001529, 9.997507 
1.7752045e+3, 3.1455612e+2, 156392.4, -42144.027, 66737.65, 0.05429988, -0.21347249, 176740.64, 176740.64, 0.0031987038, 10.001559, 9.998881 
1.7849222e+3, 1.2455542e+2, -1927572.9, -1578031.5, -35385.313, 0.06470724, -0.118818514, -1574485.4, 144859.3, 0.08696164, 9.997356, 10.002262 
1.7849441e+3, 1.3455753e+2, -1845845.3, -1668945.8, 127964.2, 0.37521735, -0.027878102, -1601837.8, 19480.643, 0.057701517, 9.998195, 10.000458 
1.7849547e+3, 1.4455391e+2, -1773577.1, -1610895.6, -60549.29, -0.25473318, -0.40565816, -1590833.6, -67482.53, 0.030258754, 9.99807, 10.000275 
1.7849715e+3, 1.5455668e+2, -1526811.3, -1369839.0, -94742.22, 0.00985147, -0.25535405, -1325296.0, 100028.36, 0.0109521225, 9.998804, 10.000893 
1.784987e+3, 1.6455862e+2, -1482342.5, -1456422.8, -72464.58, 0.14931889, -0.07624825, -1395768.3, -68462.6, 0.0020959692, 9.999115, 9.99947 
1.7850019e+3, 1.7455776e+2, -1375370.6, -1343252.5, -63330.145, 0.18526953, -0.15601729, -1293977.0, -64662.117, 0.000105867584, 9.99916, 9.9995365 
1.785016e+3, 1.845569e+2, -1247068.4, -1202366.5, -18259.936, 0.15901902, -0.19642623, -1195855.9, -64534.26, 0.0000000562377, 9.999207, 9.999835 
1.7850293e+3, 1.9455667e+2, -1078882.4, -1034776.0, -8490.983, 0.033700302, -0.26564506, -1033197.8, 121.8393, 0.0, 9.999548, 10.000132 
1.7850436e+3, 2.0455615e+2, -992459.44, -1023274.06, 29479.809, -0.01831714, -0.28892374, -974603.5, -39282.047, 0.0, 9.999812, 9.999417 
1.7850593e+3, 2.1455489e+2, -828365.56, -874159.75, -5900.2983, 0.01120123, -0.40922365, -827617.56, 9713.946, 0.0, 10.000207, 9.999566 
1.7850746e+3, 2.245541e+2, -778531.25, -941095.06, -17285.22, 0.053278137, -0.37085602, -776713.7, -37373.67, 0.0, 10.000467, 9.998327 
1.7850894e+3, 2.3455401e+2, -647699.6, -802837.1, 8527.499, 0.10924783, -0.2689097, -647232.3, -5886.25, 0.0, 10.000608, 9.998521 
1.7851038e+3, 2.4455316e+2, -547442.94, -718665.9, 54210.895, 0.1452884, -0.1896542, -531722.56, 11634.725, 0.0, 10.000674, 9.998396 
1.7851184e+3, 2.545514e+2, -433842.25, -593508.56, 23573.818, 0.13372372, -0.2572571, -430434.44, 14940.589, 0.0, 10.000717, 9.9985485 
1.7851329e+3, 2.6455006e+2, -325222.53, -511255.13, 60408.992, 0.07886386, -0.23397374, -307327.7, 40060.773, 0.00000018370703, 10.000824, 9.998421 
1.785147e+3, 2.7454883e+2, -183919.13, -371682.6, 50635.4, -0.04982192, -0.2530169, -171134.45, 78265.22, 0.000020759246, 10.00104, 9.998593 
1.7851618e+3, 2.8454754e+2, -54622.26, -330642.1, 11457.155, -0.04644796, -0.19637206, -54147.508, 97264.98, 0.00019262578, 10.001587, 9.9979315 
1.7851774e+3, 2.9454634e+2, 203349.39, -144124.86, -48641.938, 0.124135226, -0.18033917, 210030.19, 263456.44, 0.00073903677, 10.002642, 9.99802 
1.7851904e+3, 3.0454305e+2, 235739.67, -152364.0, 32647.348, 0.028032152, -0.27113676, 238466.81, 238466.81, 0.0017591042, 10.002736, 9.9976 
1.785207e+3, 3.1454214e+2, 148657.75, -33659.816, 75401.24, 0.17049423, -0.19233544, 175800.58, 175800.58, 0.003118364, 10.001408, 9.999037 
1.7949206e+3, 1.245404e+2, -1941645.5, -1650422.6, -176243.05, 0.06867438, -0.20452093, -1567420.3, 152068.39, 0.09190124, 9.997561, 10.001666 
1.79494e+3, 1.3454331e+2, -1908896.4, -1836739.9, 134286.7, 0.0950024, 0.12310434, -1733769.4, -112310.26, 0.06119029, 9.998321, 9.999258 
1.7949562e+3, 1.4453822e+2, -1773607.4, -1619468.4, -66905.59, 0.040822174, -0.35108414, -1594478.8, -70969.41, 0.03230053, 9.998117, 10.000189 
1.794971e+3, 1.5454084e+2, -1558058.5, -1428493.8, -52314.664, 0.044944745, -0.18083389, -1410008.0, 15477.592, 0.011841973, 9.998791, 10.000486 
1.794985e+3, 1.6454238e+2, -1433486.0, -1378741.8, -91066.48, -0.035824683, -0.039417785, -1311022.6, 16448.34, 0.0023264778, 9.999203, 9.999969 
1.7950001e+3, 1.7454189e+2, -1325300.4, -1244704.0, -52171.344, 0.0576464, -0.14357813, -1219079.5, 10395.335, 0.00012352158, 9.999172, 10.000216 
1.7950155e+3, 1.8454176e+2, -1202479.0, -1113281.8, -26313.926, 0.13994165, -0.17934789, -1106097.5, 25375.14, 0.000000085167756, 9.999228, 10.000431 
1.7950304e+3, 1.9454211e+2, -1059105.6, -969167.94, 13989.146, 0.1543242, -0.24423553, -967042.25, 66420.484, 0.0, 9.999445, 10.000629 
1.795045e+3, 2.0454216e+2, -1051012.8, -1104302.9, 24419.68, 0.08074944, -0.21281429, -1041515.3, -106054.805, 0.0, 9.999631, 9.998953 
1.7950593e+3, 2.1454173e+2, -894054.3, -961056.1, 23660.988, -0.03795529, -0.20087038, -886541.2, -49072.47, 0.0, 9.999986, 9.9990835 
1.795074e+3, 2.2454087e+2, -743839.06, -795237.94, -28383.17, -0.07028762, -0.20128666, -731249.3, 8228.115, 0.0, 10.000153, 9.99948 
1.7950891e+3, 2.3453963e+2, -603258.2, -644834.6, 30248.752, 0.0058265734, -0.33583018, -587343.06, 54142.715, 0.0, 10.00033, 9.999736 
1.795104e+3, 2.4453892e+2, -626898.6, -807956.9, 41719.902, 0.057399288, -0.28673252, -617747.9, -74254.445, 0.0, 10.000347, 9.997941 
1.7951192e+3, 2.545387e+2, -507774.0, -685199.7, 41986.492, 0.11084025, -0.15062317, -498339.84, -52838.18, 0.0, 10.000459, 9.998039 
1.7951342e+3, 2.6453733e+2, -362789.38, -517882.6, 50971.47, 0.096314825, -0.10547764, -347537.47, -20.639614, 0.00000013255313, 10.000513, 9.998527 
1.7951484e+3, 2.7453458e+2, -213918.13, -360273.66, 76321.586, -0.036805645, -0.2998039, -181360.52, 68179.18, 0.0000188634, 10.000741, 9.998806 
1.7951632e+3, 2.8453287e+2, -143862.5, -435150.88, 28661.129, -0.10409947, -0.27304962, -141069.19, 10487.679, 0.00018772876, 10.001232, 9.99739 
1.7951787e+3, 2.945324e+2, 102868.555, -245057.03, 22900.297, -0.029377034, -0.1305676, 104369.37, 157937.47, 0.00073121197, 10.002197, 9.997532 
1.7951925e+3, 3.0453026e+2, 226007.06, -62578.484, -34109.85, -0.07931863, -0.120951064, 229983.92, 229983.92, 0.0017173345, 10.002244, 9.998464 
1.7952089e+3, 3.145292e+2, 152251.6, 131243.31, 102758.41, 0.16577631, -0.1757355, 245041.34, 245041.34, 0.002973509, 10.000779, 10.000448 
1.80492e+3, 1.2452447e+2, -1746912.5, -1574135.9, -178494.67, 0.20287198, -0.2584518, -1462223.3, 257421.89, 0.097200245, 9.999031, 10.001519 
1.8049373e+3, 1.3452733e+2, -1959859.4, -1865674.4, 94555.51, 0.030162819, 0.084514625, -1807133.3, -185517.58, 0.06490086, 9.998009, 9.999203 
1.8049553e+3, 1.4452286e+2, -1866311.6, -1645669.0, 21816.355, 0.18751684, -0.3424147, -1643532.5, -119872.63, 0.034457777, 9.997378, 10.000371 
1.8049702e+3, 1.5452573e+2, -1660153.6, -1462034.0, 47271.84, 0.14633907, -0.16011387, -1451332.9, -25699.424, 0.0127833225, 9.998012, 10.000632 
1.804984e+3, 1.6452713e+2, -1526884.6, -1404289.1, 49656.94, 0.0123485355, -0.04909447, -1386699.5, -59079.477, 0.0025744103, 9.998481, 10.000146 
1.8049993e+3, 1.7452659e+2, -1318377.6, -1214038.3, 21056.342, 0.07412897, -0.18236195, -1209949.1, 19674.82, 0.00014305822, 9.999107, 10.000449 
1.805015e+3, 1.8452646e+2, -1177265.9, -1118635.5, 29333.43, 0.17170341, -0.22348274, -1106479.9, 25142.012, 0.00000010953618, 9.999469, 10.000282 
1.8050303e+3, 1.9452679e+2, -1034532.0, -974086.1, -16253.123, 0.19858585, -0.2739783, -969993.06, 63620.258, 0.0, 9.999694, 10.000476 
1.805045e+3, 2.0452715e+2, -1039915.44, -1082934.4, 16100.191, 0.14670242, -0.20936108, -1034557.2, -98947.99, 0.0, 9.999629, 9.999117 
1.8050598e+3, 2.1452752e+2, -972839.44, -977084.0, 33804.156, 0.037936855, -0.13538483, -941091.0, -103480.07, 0.0, 9.999348, 9.999288 
1.8050745e+3, 2.2452697e+2, -810522.56, -804741.2, 21827.38, 0.001091997, -0.12550275, -785613.9, -45997.18, 0.0, 9.999607, 9.999665 
1.8050897e+3, 2.3452538e+2, -540593.3, -596415.8, -29352.191, 0.025106436, -0.31009117, -528000.4, 113627.086, 0.0, 10.0006895, 9.9998865 
1.8051048e+3, 2.445246e+2, -472994.06, -722686.5, -28773.7, 0.05772123, -0.280702, -469721.16, 73914.164, 0.0, 10.001336, 9.998074 
1.80512e+3, 2.5452456e+2, -365331.78, -609290.25, -16807.842, 0.108567804, -0.1306139, -364179.22, 81462.81, 0.0, 10.001378, 9.998148 
1.8051353e+3, 2.6452342e+2, -218849.8, -444194.3, 51102.473, 0.12135428, -0.06804257, -207802.61, 139852.78, 0.00000007008213, 10.001504, 9.998544 
1.8051504e+3, 2.7452084e+2, -57340.047, -294658.3, 16825.828, 0.03283575, -0.23383984, -56153.035, 193523.86, 0.000018211349, 10.001853, 9.998726 
1.8051654e+3, 2.8451905e+2, -61662.83, -380665.63, 18110.762, -0.010140375, -0.21974726, -60637.918, 91057.02, 0.00018396454, 10.001719, 9.997533 
1.805181e+3, 2.94518e+2, -27507.322, -296746.3, 12763.266, 0.039915506, -0.13523772, -26903.633, 26806.277, 0.0007180549, 10.00123, 9.997655 
1.8051954e+3, 3.045161e+2, 178883.56, -102107.47, -2018.2955, 0.01482418, -0.10652539, 178898.06, 178898.06, 0.0016645552, 10.002014, 9.998289 
1.8052119e+3, 3.1451502e+2, 590151.4, 289273.5, -54820.754, 0.24979031, -0.119686164, 599828.6, 599828.6, 0.002832551, 10.003919, 10.000076 
1.8149193e+3, 1.2450922e+2, -1716117.8, -1566594.3, -51509.68, 0.13478103, -0.11218738, -1550567.4, 169230.75, 0.10291468, 9.999204, 10.001485 
1.814936e+3, 1.3450937e+2, -1889454.6, -1720140.9, 58990.582, 0.059373856, -0.14705287, -1701615.0, -79824.92, 0.06887483, 9.998011, 10.000201 
1.8149513e+3, 1.4450745e+2, -1804156.8, -1533597.8, 14952.564, -0.0027977845, -0.40192452, -1532773.9, -8968.093, 0.036753505, 9.997447, 10.001109 
1.8149689e+3, 1.545112e+2, -1597288.1, -1343855.8, 84270.695, 0.16354404, -0.20945029, -1318392.6, 107376.91, 0.01378539, 9.99805, 10.00144 
1.8149841e+3, 1.6451289e+2, -1521977.9, -1413284.1, 52827.992, 0.114035994, -0.111201964, -1391839.4, -64086.574, 0.002842686, 9.998561, 10.000044 
1.8149991e+3, 1.7451183e+2, -1338851.0, -1258413.5, 58488.758, 0.10798661, -0.26822677, -1227650.0, 2111.9368, 0.00016504708, 9.999105, 10.000149 
1.8150143e+3, 1.8451111e+2, -1237900.1, -1244118.3, 19385.21, 0.10462039, -0.31279984, -1221376.3, -89608.125, 0.00000012908751, 9.999464, 9.999425 
1.8150286e+3, 1.9451079e+2, -1101600.5, -1099515.4, 4858.055, 0.037567087, -0.34540403, -1095589.3, -61818.7, 0.0, 9.999629, 9.999649 
1.8150437e+3, 2.0451112e+2, -1014117.9, -987031.3, -9118.092, 0.019766547, -0.27668318, -984247.94, -48480.473, 0.0, 9.999453, 9.999857 
1.81506e+3, 2.1451212e+2, -951717.7, -877995.7, 39272.78, 0.109066024, -0.21809563, -860994.94, -23235.717, 0.0, 9.99911, 10.000081 
1.8150756e+3, 2.2451226e+2, -916304.9, -948419.4, 45053.72, 0.112702906, -0.14440659, -884532.5, -144773.08, 0.0, 9.99928, 9.998836 
1.8150906e+3, 2.3451127e+2, -644990.94, -750531.7, 28437.396, 0.023647813, -0.17662789, -637816.3, 3954.1462, 0.0, 10.000419, 9.998959 
1.8151055e+3, 2.4451013e+2, -482201.34, -666052.7, -38050.18, -0.031521834, -0.1591258, -474637.6, 69145.64, 0.0, 10.001013, 9.998612 
1.8151204e+3, 2.5450885e+2, -352772.78, -521661.28, 2903.8286, -0.014229521, -0.2092086, -352722.88, 93074.484, 0.0, 10.00112, 9.998863 
1.815136e+3, 2.645081e+2, -291494.88, -516594.56, 46488.77, -0.00061865203, -0.13076457, -282271.7, 65534.246, 0.0000000874347, 10.001161, 9.998215 
1.8151522e+3, 2.745077e+2, -134288.69, -371088.47, 52247.457, 0.0026276712, -0.05184216, -123273.24, 126537.57, 0.00001648955, 10.001509, 9.998357 
1.815168e+3, 2.845062e+2, -74078.016, -329345.63, -19265.275, 0.028677635, -0.009385354, -72632.234, 79192.88, 0.00017264318, 10.001373, 9.998056 
1.8151835e+3, 2.9450342e+2, -19845.957, -216142.72, 21327.584, 0.1258906, -0.17327796, -17555.45, 36294.84, 0.000683164, 10.000945, 9.998344 
1.8151984e+3, 3.0450076e+2, 8738.31, -355435.8, 44859.016, 0.07179393, -0.18716103, 14182.657, 14182.657, 0.0015935485, 10.001596, 9.996747 
1.8152136e+3, 3.144975e+2, 352964.84, 26600.64, 64031.96, -0.04439742, -0.26428756, 365078.16, 365078.16, 0.0027236447, 10.003012, 9.998659 
1.8249182e+3, 1.2449307e+2, -1902285.4, -1736419.6, 87925.28, 0.17617588, -0.03322981, -1698486.0, 21469.473, 0.10907774, 9.998308, 10.000641 
1.8249339e+3, 1.3449244e+2, -1767160.4, -1560217.0, -17426.535, 0.056654416, -0.24304992, -1558759.8, 63195.742, 0.07313931, 9.998341, 10.001188 
1.8249497e+3, 1.4449263e+2, -1760706.1, -1471405.4, 8837.756, 0.09747698, -0.3596275, -1471135.6, 52814.453, 0.039204508, 9.99759, 10.0014715 
1.824967e+3, 1.5449597e+2, -1636630.3, -1332546.9, 4473.9653, 0.21207283, -0.23271322, -1332481.1, 93435.516, 0.014855209, 9.99768, 10.001685 
1.8249826e+3, 1.6449751e+2, -1569831.0, -1426102.8, 6196.576, 0.15290387, -0.16441552, -1425836.1, -97934.96, 0.0031336718, 9.998187, 10.00013 
1.8249987e+3, 1.7449716e+2, -1301038.9, -1227917.8, 5049.3555, 0.1487637, -0.2623432, -1227570.8, 2333.7712, 0.00019006866, 9.999323, 10.00025 
1.8250142e+3, 1.8449678e+2, -1222759.1, -1269316.3, 1702.7577, 0.15281712, -0.2618794, -1222696.9, -90788.195, 0.00000015151502, 9.999712, 9.999129 
1.8250284e+3, 1.9449621e+2, -1151496.4, -1153550.1, -8972.619, 0.051831257, -0.28519937, -1143492.0, -109576.766, 0.0, 9.999451, 9.9993515 
1.8250433e+3, 2.044961e+2, -1006731.25, -996055.5, 1646.1147, 0.027111916, -0.24150917, -995807.44, -59890.227, 0.0, 9.999565, 9.99972 
1.8250595e+3, 2.1449628e+2, -801843.8, -815291.7, -48217.723, 0.11294032, -0.256985, -759883.44, 78032.18, 0.0, 10.0001955, 9.999965 
1.8250756e+3, 2.2449632e+2, -754848.1, -891772.9, -9810.236, 0.14187059, -0.17995146, -754148.8, -14231.951, 0.0, 10.000448, 9.99868 
1.8250912e+3, 2.3449613e+2, -680985.25, -778889.75, -108.39849, 0.08167349, -0.121272266, -680985.1, -39063.043, 0.0, 10.000209, 9.998873 
1.8251064e+3, 2.4449518e+2, -568436.6, -689803.7, -18867.71, 0.018513652, -0.08773649, -565571.1, -21638.098, 0.0, 10.000335, 9.998771 
1.825121e+3, 2.5449336e+2, -375086.9, -514687.34, -48812.563, -0.044136923, -0.20877568, -359712.38, 86238.73, 0.0, 10.00088, 9.99902 
1.8251367e+3, 2.6449245e+2, -285443.9, -489840.8, 13304.518, -0.026967207, -0.1611847, -284581.53, 63378.594, 0.00000011582431, 10.001114, 9.998416 
1.8251538e+3, 2.744924e+2, -190649.13, -382540.9, 11485.744, 0.052678194, -0.05838075, -189964.1, 59997.477, 0.000015405387, 10.001045, 9.99851 
1.8251702e+3, 2.8449103e+2, -33154.426, -277131.75, 5788.3315, 0.1290631, -0.026389893, -33017.176, 118956.81, 0.00016033741, 10.001536, 9.998329 
1.8251859e+3, 2.944882e+2, 256793.75, -65285.86, -31960.145, 0.19731635, -0.2105328, 259934.55, 313932.34, 0.00064014964, 10.002765, 9.998511 
1.8252017e+3, 3.044855e+2, 242369.11, -268606.5, 71426.8, 0.17041354, -0.22228763, 252165.7, 252165.7, 0.0015227182, 10.003301, 9.9965315 
1.8252169e+3, 3.1448218e+2, 312262.5, -53968.9, 44253.21, 0.028081758, -0.26581293, 317533.9, 317533.9, 0.0026622775, 10.00292, 9.998202 
1.8349162e+3, 1.24475315e+2, -2006834.3, -1983475.5, 99853.78, 0.045233134, -0.09285427, -1894620.4, -174496.94, 0.11569034, 9.998433, 9.998872 
1.8349308e+3, 1.3447663e+2, -1671990.4, -1399814.5, -30475.904, -0.12834609, -0.19639346, -1396443.9, 225667.36, 0.07769921, 9.9984255, 10.002348 
1.8349497e+3, 1.4447856e+2, -1749624.1, -1477676.5, -22100.783, 0.28483194, -0.20757167, -1475892.1, 48199.348, 0.04181763, 9.997711, 10.001368 
1.8349645e+3, 1.5448001e+2, -1660537.8, -1395987.9, 22485.336, 0.14383096, -0.2301635, -1394090.4, 31984.803, 0.015997248, 9.997728, 10.001224 
1.8349795e+3, 1.6448088e+2, -1533906.5, -1373779.1, 26921.672, -0.031863093, -0.21519469, -1369374.1, -41307.816, 0.0034491862, 9.998281, 10.000445 
1.8349974e+3, 1.7448226e+2, -1261047.0, -1156371.1, 57824.836, 0.063213915, -0.18486813, -1130715.6, 99338.56, 0.00021871291, 9.999359, 10.000729 
1.8350142e+3, 1.8448313e+2, -1209804.6, -1239604.5, -24770.402, 0.13515034, -0.0976147, -1195798.1, -63751.277, 0.00000018976193, 9.999704, 9.999335 
1.8350285e+3, 1.9448285e+2, -1155846.6, -1143977.6, -7533.3477, 0.10038794, -0.10590759, -1140322.0, -106271.945, 0.0, 9.999367, 9.999458 
1.835043e+3, 2.0448183e+2, -1094364.6, -1139901.9, 6678.969, 0.010531361, -0.11474773, -1093405.1, -157344.25, 0.0, 9.999399, 9.998815 
1.835058e+3, 2.1447992e+2, -899724.7, -967948.2, -12936.477, -0.08890307, -0.24391569, -897354.06, -59273.387, 0.0, 9.999977, 9.9990225 
1.8350741e+3, 2.2447915e+2, -761942.44, -836285.75, -30200.234, -0.076896496, -0.22083975, -751220.6, -11131.695, 0.0, 10.000143, 9.999212 
1.8350917e+3, 2.344797e+2, -670235.0, -702925.94, 7950.7397, 0.068920575, -0.1528368, -668403.9, -26319.596, 0.0, 9.999975, 9.999515 
1.8351075e+3, 2.4447948e+2, -629004.3, -738685.56, -15818.7295, 0.055010565, -0.07220648, -626768.44, -82681.086, 0.0, 10.000001, 9.998602 
1.8351212e+3, 2.544782e+2, -441680.53, -577970.94, -8038.8765, -0.12406919, -0.11147129, -441208.0, 4893.691, 0.0, 10.000564, 9.998739 
1.835137e+3, 2.644768e+2, -300880.88, -453122.47, -1023.132, -0.14557548, -0.11651793, -300874.0, 47240.918, 0.000000090536304, 10.000805, 9.998822 
1.8351547e+3, 2.744751e+2, -184396.44, -316577.03, 33440.277, 0.021357777, -0.2339714, -176417.98, 73710.59, 0.00001528185, 10.0008135, 9.999075 
1.8351719e+3, 2.8447345e+2, -92167.414, -325192.8, 25117.424, 0.09972817, -0.25360212, -89490.8, 62651.65, 0.00015301355, 10.001207, 9.99816 
1.8351878e+3, 2.9447207e+2, 185226.77, -118430.55, 43257.18, 0.07905557, -0.27626595, 191268.7, 245423.27, 0.0006077412, 10.002361, 9.998332 
1.8352045e+3, 3.0447045e+2, 194991.23, -237766.67, 39628.766, 0.08940351, -0.19301063, 198590.2, 198590.2, 0.0014712458, 10.002753, 9.997003 
1.8352197e+3, 3.1446928e+2, 213236.1, -89526.055, 64607.234, -0.0466023, -0.099303514, 226446.4, 226446.4, 0.0026387856, 10.002221, 9.998276 
1.8449149e+3, 1.2445616e+2, -2312022.3, -2262356.3, 97754.67, 0.16795306, -0.2453878, -2186329.5, -466022.88, 0.12272786, 9.996947, 9.997674 
1.8449296e+3, 1.3446018e+2, -1681608.6, -1244717.4, -27172.402, -0.04722539, -0.21874487, -1243033.9, 379238.03, 0.08254445, 9.997671, 10.0038595 
1.844949e+3, 1.4446388e+2, -1643207.8, -1464120.0, -2446.0896, 0.41493198, -0.11237329, -1464086.5, 60149.94, 0.04459436, 9.998578, 10.001057 
1.8449622e+3, 1.5446427e+2, -1552083.5, -1381029.8, 12959.778, 0.124748655, -0.20865053, -1380053.5, 46177.137, 0.017215712, 9.998628, 10.000894 
1.8449774e+3, 1.6446476e+2, -1549513.4, -1387914.9, 57183.516, -0.05501399, -0.21296595, -1369726.9, -41501.094, 0.0037916328, 9.998218, 10.000384 
1.8449965e+3, 1.7446628e+2, -1488477.3, -1268632.4, 16416.66, 0.11557818, -0.1611375, -1267413.3, -37200.156, 0.00025177147, 9.9978285, 10.000695 
1.845014e+3, 1.8446726e+2, -1384390.9, -1277220.5, -37910.098, 0.22172402, -0.07947924, -1265166.1, -132961.75, 0.00000025167606, 9.998307, 9.999746 
1.8450287e+3, 1.9446714e+2, -1013039.4, -1027746.06, -26841.158, 0.15315768, -0.11641572, -992562.56, 41642.13, 0.0, 10.000134, 9.999885 
1.8450433e+3, 2.0446636e+2, -895537.0, -1059759.8, 30091.848, 0.04961544, -0.117747694, -890196.7, 46016.273, 0.0, 10.000839, 9.998676 
1.8450582e+3, 2.1446483e+2, -845640.1, -962107.2, 33771.496, -0.07725171, -0.18751886, -836556.06, 1674.0863, 0.0, 10.000449, 9.998844 
1.8450743e+3, 2.2446398e+2, -734531.8, -821714.44, 59834.81, -0.06149682, -0.16286914, -704093.4, 36146.008, 0.0, 10.000337, 9.999207 
1.845092e+3, 2.3446377e+2, -572902.0, -658799.4, 21129.105, 0.087599345, -0.17118706, -567986.0, 74255.48, 0.0, 10.0006485, 9.999479 
1.8451081e+3, 2.444634e+2, -525286.5, -664517.75, 14417.025, 0.09825326, -0.11887545, -523809.3, 20436.352, 0.0, 10.000633, 9.998789 
1.8451221e+3, 2.5446275e+2, -470131.72, -573397.3, 13559.012, -0.0672796, -0.10881185, -468381.06, -22127.729, 0.0, 10.000284, 9.998902 
1.845138e+3, 2.6446155e+2, -340132.34, -466975.22, 76218.71, -0.0889497, -0.10848725, -304399.5, 43865.07, 0.00000009817215, 10.000522, 9.998861 
1.8451561e+3, 2.7445954e+2, -81350.88, -266986.0, 39274.734, 0.038308304, -0.25531977, -73383.51, 176897.58, 0.000013983738, 10.00153, 9.999065 
1.8451734e+3, 2.8445795e+2, -21616.504, -304684.75, 34325.344, 0.11431745, -0.2601428, -17513.621, 134781.8, 0.00014297613, 10.001749, 9.998044 
1.8451896e+3, 2.944572e+2, -15059.701, -222792.56, -2656.8523, 0.11041135, -0.20322794, -15025.726, 39278.258, 0.0005747027, 10.001016, 9.998268 
1.8452069e+3, 3.0445552e+2, 11667.385, -240603.4, 67075.67, 0.16298562, -0.16220243, 28393.057, 28393.057, 0.0014161514, 10.00111, 9.997781 
1.8452224e+3, 3.144545e+2, 271242.38, 20120.744, -24324.107, 0.018393863, -0.11245352, 273576.75, 273576.75, 0.0025925355, 10.002235, 9.999026 
1.8549114e+3, 1.2443776e+2, -2331882.0, -2372554.3, -85119.23, 0.048407633, -0.29486868, -2264703.5, -544219.1, 0.13014582, 9.997187, 9.996829 
1.8549296e+3, 1.3444299e+2, -1570711.9, -1033187.75, 38825.21, 0.14976333, -0.3334096, -1030397.9, 592040.9, 0.08765755, 9.997681, 10.00547 
1.8549472e+3, 1.4444855e+2, -1652184.9, -1512665.3, -10032.782, 0.3213772, -0.09273105, -1511947.5, 12438.503, 0.04753598, 9.998715, 10.000647 
1.8549602e+3, 1.5444873e+2, -1556291.1, -1408972.6, 24831.38, 0.008709268, -0.17925759, -1404899.8, 21483.604, 0.01851746, 9.998707, 10.000666 
1.8549755e+3, 1.644491e+2, -1571546.9, -1451599.8, 17178.563, -0.10702947, -0.16550247, -1449188.0, -120807.625, 0.0041650403, 9.998296, 9.9999075 
1.8549952e+3, 1.7444918e+2, -1533140.1, -1359446.3, 15542.469, 0.17219773, -0.20086609, -1358066.5, -127684.875, 0.00029041685, 9.997813, 10.000082 
1.8550129e+3, 1.844491e+2, -1339390.1, -1183290.9, 6671.0693, 0.25257573, -0.21853206, -1183006.3, -50624.453, 0.0000003514084, 9.998305, 10.000395 
1.8550283e+3, 1.9444913e+2, -976084.44, -925372.0, 52409.184, 0.07523779, -0.31634188, -892507.44, 141871.44, 0.0, 10.000021, 10.000645 
1.8550438e+3, 2.044497e+2, -889539.8, -1000479.0, 1938.5875, -0.02085982, -0.24509265, -889506.0, 46867.383, 0.0, 10.000639, 9.999179 
1.8550599e+3, 2.1445088e+2, -845749.3, -907864.1, 32967.754, 0.019598719, -0.09380841, -831513.94, 6851.4087, 0.0, 10.000217, 9.999326 
1.855076e+3, 2.2445062e+2, -807990.75, -909192.56, 55432.59, 0.028299253, -0.016936107, -783536.8, -43166.383, 0.0, 10.000047, 9.998751 
1.855092e+3, 2.3444834e+2, -647789.3, -757046.56, 49899.336, -0.0013019316, -0.17414522, -628429.9, 13963.758, 0.0, 10.000396, 9.998932 
1.8551078e+3, 2.4444707e+2, -548262.5, -635591.56, -10735.157, -0.02032144, -0.1983099, -546962.25, -2555.8525, 0.0, 10.000302, 9.999145 
1.8551233e+3, 2.5444698e+2, -474143.94, -519254.0, 17750.502, -0.0062557105, -0.18581356, -467996.9, -21590.225, 0.0, 10.000025, 9.999392 
1.8551396e+3, 2.6444653e+2, -411059.38, -542180.9, 91615.8, -0.012392512, -0.11813964, -363962.8, -15552.31, 0.00000008466028, 10.000216, 9.998492 
1.8551572e+3, 2.7444544e+2, -157570.69, -353345.2, 99969.95, -0.0401131, -0.1339558, -115544.016, 134877.34, 0.000011476472, 10.001231, 9.998612 
1.8551742e+3, 2.844443e+2, -102036.125, -385702.53, -11059.029, -0.009635756, -0.04887632, -101605.63, 50828.477, 0.00012753624, 10.001373, 9.997674 
1.855191e+3, 2.944434e+2, -74076.086, -265077.66, -6355.058, 0.10595754, 0.01629493, -73864.87, -19418.064, 0.0005324824, 10.000678, 9.99814 
1.8552084e+3, 3.0444065e+2, 3112.1743, -153712.36, 78760.84, 0.15475774, -0.08789129, 35838.355, 35838.355, 0.0013398622, 10.000663, 9.9985895 
1.8552251e+3, 3.1443962e+2, 250910.3, 170539.55, 36541.918, -0.0021930665, -0.122195475, 265040.44, 265040.44, 0.0024846024, 10.001447, 10.000422 
1.8649097e+3, 1.2442239e+2, -2287740.5, -2342552.8, -31706.674, 0.14021173, -0.24258094, -2273237.0, -552602.5, 0.1378835, 9.9975, 9.996852 
1.8649271e+3, 1.3442694e+2, -1474734.5, -983573.7, 83562.35, 0.11546797, -0.36937076, -969746.3, 652848.56, 0.09301642, 9.998401, 10.00551 
1.8649454e+3, 1.4443293e+2, -1732148.0, -1589276.3, 2599.917, 0.30469242, -0.06959598, -1589228.9, -64690.605, 0.050644647, 9.998347, 10.000289 
1.8649594e+3, 1.5443279e+2, -1552922.9, -1445270.0, -13857.707, 0.059819695, -0.15733336, -1443514.8, -16973.943, 0.01991141, 9.998905, 10.000319 
1.8649751e+3, 1.6443288e+2, -1462976.0, -1406988.5, 3626.1267, -0.0020268192, -0.14583027, -1406754.6, -78213.97, 0.0045744055, 9.9990635, 9.999838 
1.8649939e+3, 1.7443267e+2, -1366072.0, -1277695.5, 12993.768, 0.21713425, -0.21241115, -1275824.6, -45281.168, 0.0003360051, 9.998962, 10.000073 
1.8650116e+3, 1.8443261e+2, -1273209.1, -1135500.4, 82491.734, 0.28159133, -0.23872627, -1096903.3, 35639.883, 0.00000050835786, 9.998684, 10.000544 
1.865028e+3, 1.9443299e+2, -1181904.9, -1007922.0, 54071.242, 0.11338512, -0.3175001, -992486.8, 42050.246, 0.0, 9.998524, 10.000808 
1.8650441e+3, 2.0443387e+2, -1120532.1, -1061819.0, -4325.778, 0.040467978, -0.24677366, -1061502.0, -124974.13, 0.0, 9.998823, 9.999638 
1.8650602e+3, 2.1443513e+2, -862594.94, -866604.2, -4732.2246, 0.066845916, -0.13533497, -859460.25, -20942.684, 0.0, 9.999863, 9.999787 
1.8650764e+3, 2.2443512e+2, -782137.25, -895165.9, 49194.293, 0.078727484, -0.057619024, -763725.3, -23205.26, 0.0, 10.00023, 9.998763 
1.8650927e+3, 2.3443355e+2, -726368.3, -796245.0, 41184.445, 0.047818284, -0.13934027, -707298.8, -64760.305, 0.0, 9.999879, 9.998918 
1.8651086e+3, 2.444324e+2, -594751.7, -673252.2, 20906.705, 0.047352318, -0.1413585, -589530.94, -44980.203, 0.0, 10.00004, 9.999019 
1.8651243e+3, 2.5443166e+2, -368101.97, -485670.8, -21188.71, 0.065530434, -0.17487296, -364399.8, 82156.695, 0.0, 10.00083, 9.999237 
1.865141e+3, 2.6443088e+2, -253726.61, -482998.44, 82335.91, 0.053407513, -0.12823659, -227222.19, 121341.92, 0.000000065173005, 10.001366, 9.998347 
1.8651587e+3, 2.744299e+2, -108861.164, -350336.6, 66089.25, -0.013196324, -0.109374285, -91956.65, 158617.83, 0.000009433609, 10.001644, 9.998443 
1.865176e+3, 2.8442892e+2, -51495.563, -367928.5, -21071.443, 0.018518852, 0.0014445483, -50098.57, 102487.68, 0.00011541344, 10.0017605, 9.997595 
1.8651924e+3, 2.944278e+2, 73584.984, -207524.73, -56082.813, 0.13957314, 0.0633585, 84360.73, 138961.61, 0.0004967766, 10.001752, 9.998011 
1.8652093e+3, 3.044243e+2, 175689.6, -91934.81, 80492.195, 0.1509562, -0.10390662, 198033.39, 198033.39, 0.0012631787, 10.001926, 9.998401 
1.8652275e+3, 3.144241e+2, 392064.47, 230141.25, -153150.55, 0.074823305, -0.0350827, 484336.4, 484336.4, 0.0023412816, 10.002402, 10.0003805 
1.8749093e+3, 1.24409236e+2, -2183831.0, -2151457.8, -218895.69, 0.26584214, -0.24077578, -1948151.1, -227385.14, 0.14588223, 9.99762, 9.998103 
1.874922e+3, 1.3441211e+2, -1579784.3, -1216424.8, 91579.89, -0.28160188, -0.34895667, -1194648.3, 428091.8, 0.0986057, 9.998461, 10.003742 
1.874943e+3, 1.4441717e+2, -1740271.8, -1634331.9, -338.48468, 0.1530717, -0.04117769, -1634330.8, -109638.11, 0.053927336, 9.998458, 9.999929 
1.8749595e+3, 1.544163e+2, -1579678.8, -1509748.1, 24401.21, 0.13382363, -0.1539777, -1502075.5, -75371.32, 0.021407956, 9.998933, 9.999868 
1.8749757e+3, 1.644161e+2, -1415679.1, -1327409.9, -13947.767, 0.10109908, -0.170959, -1325258.4, 3448.5588, 0.0050250688, 9.999147, 10.000346 
1.8749923e+3, 1.7441678e+2, -1328957.5, -1199601.8, 22186.643, 0.109895214, -0.19948755, -1195902.1, 34796.563, 0.00038988978, 9.998949, 10.000627 
1.8750091e+3, 1.8441758e+2, -1297470.3, -1181582.8, 55309.508, 0.11497086, -0.15599464, -1159422.8, -26732.543, 0.000000733184, 9.99867, 10.000235 
1.8750268e+3, 1.9441865e+2, -1228491.8, -1075783.9, 59999.438, 0.1327753, -0.121749945, -1055030.4, -20350.215, 0.0, 9.998408, 10.000399 
1.8750435e+3, 2.0441882e+2, -1107622.1, -1004185.06, 12429.106, 0.07139408, -0.12319664, -1002712.56, -66034.84, 0.0, 9.998681, 10.000107 
1.875059e+3, 2.144177e+2, -861310.9, -810639.9, 46718.387, -0.07201409, -0.29968515, -782829.4, 55856.285, 0.0, 9.999634, 10.000282 
1.8750753e+3, 2.244177e+2, -808786.0, -880391.7, 20638.14, -0.08160313, -0.25922576, -803263.56, -62577.05, 0.0, 9.999915, 9.999021 
1.8750931e+3, 2.3441912e+2, -743755.1, -771883.7, 42141.3, 0.09642787, -0.07181087, -713393.1, -70715.055, 0.0, 9.999619, 9.999207 
1.8751098e+3, 2.44419e+2, -684007.8, -785208.2, 30910.646, 0.13539608, 0.03928219, -675313.44, -130631.03, 0.0, 9.999718, 9.998412 
1.8751247e+3, 2.5441664e+2, -454573.94, -597647.75, 26962.08, 0.0027128228, -0.09111149, -449661.63, -2956.7712, 0.0, 10.000546, 9.998605 
1.8751414e+3, 2.6441458e+2, -304618.3, -521753.75, 78097.84, -0.06147869, -0.1331109, -279446.63, 69278.19, 0.00000004605578, 10.0010605, 9.998237 
1.8751603e+3, 2.7441305e+2, -154907.7, -376909.28, 99539.74, -0.034731515, -0.16416818, -116813.43, 133925.9, 0.000008319171, 10.001341, 9.998412 
1.8751778e+3, 2.844119e+2, -102654.945, -389118.1, -38074.824, -0.012044576, -0.074264385, -97680.664, 55070.6, 0.00010877433, 10.001392, 9.99763 
1.8751934e+3, 2.9441038e+2, 10649.976, -244216.58, -25101.408, 0.038384404, -0.05500462, 13098.647, 67866.46, 0.00047285456, 10.00136, 9.997946 
1.8752095e+3, 3.044062e+2, 20742.742, -299566.97, 73932.67, -0.07960708, -0.22385344, 36984.082, 36984.082, 0.0011966277, 10.001453, 9.997197 
1.8752308e+3, 3.144071e+2, 164845.61, -24820.016, -73074.89, 0.09877643, 0.07227327, 189734.14, 189734.14, 0.0021936095, 10.001527, 9.999025 
1.8849081e+3, 1.24396056e+2, -1963245.4, -1813080.5, -219405.1, 0.3702329, -0.20148578, -1656266.5, 64632.344, 0.15411249, 9.998052, 10.000302 
1.8849203e+3, 1.3439757e+2, -1780847.9, -1539359.1, 51056.227, -0.2612518, -0.23723537, -1529008.4, 93876.28, 0.10442951, 9.998112, 10.001478 
1.8849416e+3, 1.443999e+2, -1713043.0, -1605373.8, -31663.29, 0.19450702, -0.09029588, -1596752.5, -71889.8, 0.057399224, 9.998616, 10.000026 
1.8849583e+3, 1.543995e+2, -1700884.6, -1535670.4, -246.50797, 0.17770043, -0.17990841, -1535670.0, -108801.47, 0.023018045, 9.998016, 10.000097 
1.8849747e+3, 1.6439962e+2, -1586848.0, -1408261.9, 26425.625, 0.15573564, -0.18004145, -1404433.6, -75565.86, 0.005521801, 9.997956, 10.000365 
1.8849915e+3, 1.7440045e+2, -1284961.3, -1176456.3, -4151.412, 0.15600984, -0.19697273, -1176297.6, 54560.76, 0.0004532519, 9.9992285, 10.000655 
1.8850085e+3, 1.8440142e+2, -1178240.0, -1145746.0, 16131.776, 0.15819964, -0.12835875, -1139097.6, -6248.8403, 0.0000010252129, 9.99958, 10.000033 
1.8850257e+3, 1.9440252e+2, -1133163.4, -1049056.8, 10734.203, 0.1352974, -0.07730345, -1047708.4, -12868.62, 0.0, 9.999144, 10.000215 
1.8850423e+3, 2.044025e+2, -1063643.9, -975758.75, 21681.717, 0.07826781, -0.08984931, -970700.9, -33861.984, 0.0, 9.998959, 10.000166 
1.8850586e+3, 2.1440095e+2, -901412.1, -822984.2, -8711.529, -0.03616147, -0.3159987, -822028.2, 16822.107, 0.0, 9.999322, 10.000352 
1.8850754e+3, 2.244008e+2, -860693.3, -876072.75, -50611.33, -0.028378693, -0.30315563, -817190.9, -76339.53, 0.0, 9.999462, 9.999248 
1.8850927e+3, 2.3440242e+2, -747722.3, -753214.0, -65454.297, 0.10055687, -0.1148761, -684956.3, -42116.184, 0.0, 9.999512, 9.999379 
1.8851097e+3, 2.4440238e+2, -652422.8, -784461.44, 4757.885, 0.15140674, 0.0042704446, -652251.56, -107408.234, 0.0, 10.000011, 9.998265 
1.8851262e+3, 2.5440007e+2, -385436.47, -590949.7, -8476.801, 0.07649602, -0.10170138, -385087.4, 61778.918, 0.0, 10.001131, 9.998369 
1.8851435e+3, 2.643979e+2, -269998.53, -495707.28, 48956.27, 0.037642833, -0.14645526, -259837.34, 89050.555, 0.000000017635879, 10.001291, 9.998284 
1.8851614e+3, 2.7439612e+2, -287984.6, -422300.5, 39273.12, 0.001953348, -0.21055147, -277344.28, -26439.611, 0.000007223604, 10.00039, 9.9985285 
1.8851788e+3, 2.8439495e+2, -191395.56, -401088.3, 3594.6353, -0.00033321953, -0.13775355, -191333.95, -38418.23, 0.00010058898, 10.000668, 9.997892 
1.8851957e+3, 2.9439366e+2, 205220.66, -128802.88, -11730.821, 0.07295426, -0.12437622, 205632.14, 260561.05, 0.00044370364, 10.002588, 9.998153 
1.885211e+3, 3.0439e+2, 235948.73, -181824.88, 120183.81, -0.11140045, -0.25634807, 268055.38, 268055.38, 0.0011208182, 10.002814, 9.997392 
1.8852332e+3, 3.1439054e+2, -24037.096, -168979.03, -17805.455, 0.24526975, -0.009510965, -21881.824, -21881.824, 0.002039731, 10.0004015, 9.9986105 
1.894904e+3, 1.2438197e+2, -1713123.6, -1421655.3, -108713.945, 0.054469146, -0.2056769, -1385573.1, 335468.9, 0.16258536, 9.998357, 10.00322 
1.8949212e+3, 1.343836e+2, -1953066.0, -1891062.9, 107047.24, -0.015567412, 0.0075238906, -1810618.5, -187592.81, 0.110513955, 9.9981165, 9.999005 
1.8949415e+3, 1.4438112e+2, -1657358.1, -1499855.4, -57359.72, 0.25447592, -0.23198824, -1481180.3, 43868.82, 0.06108175, 9.99866, 10.000741 
1.8949555e+3, 1.5438229e+2, -1646527.1, -1423678.8, -11351.352, 0.055768747, -0.24015929, -1423102.1, 3932.942, 0.024752133, 9.99802, 10.000865 
1.8949714e+3, 1.6438328e+2, -1590518.0, -1450468.6, 48181.344, -0.029107522, -0.17759, -1435494.0, -106469.12, 0.0060684755, 9.9980955, 10.000011 
1.8949918e+3, 1.7438358e+2, -1312440.9, -1237243.3, 53891.47, 0.21930483, -0.20779654, -1209130.9, 21892.857, 0.0005270964, 9.999241, 10.000235 
1.8950096e+3, 1.8438403e+2, -1168131.3, -1130444.8, -14947.722, 0.2524834, -0.17228246, -1125235.9, 7784.5054, 0.0000013718216, 9.999615, 10.000115 
1.8950234e+3, 1.943848e+2, -1143013.4, -1044245.5, 3220.029, -0.02427545, -0.16504799, -1044140.6, -9127.125, 0.0, 9.9990425, 10.000291 
1.8950397e+3, 2.0438513e+2, -1114280.0, -1048219.6, 17785.758, -0.12054703, -0.1272542, -1043735.5, -106725.64, 0.0, 9.998805, 9.999751 
1.8950589e+3, 2.1438487e+2, -960983.4, -898576.5, 21096.703, 0.045451846, -0.1813311, -892113.94, -53102.813, 0.0, 9.999108, 9.999941 
1.8950762e+3, 2.2438437e+2, -898359.5, -881389.2, -65107.293, 0.07482732, -0.18931165, -824216.44, -83201.195, 0.0, 9.999147, 9.999362 
1.8950906e+3, 2.3438361e+2, -773505.2, -748400.7, -43895.043, -0.08319045, -0.2563032, -715298.44, -72275.69, 0.0, 9.999263, 9.999529 
1.8951078e+3, 2.4438287e+2, -691085.2, -799316.8, 27379.379, -0.08041337, -0.21774352, -684553.25, -139522.58, 0.0, 9.999715, 9.998315 
1.8951283e+3, 2.5438204e+2, -421358.88, -601442.1, 50221.242, 0.1519718, -0.18650585, -408300.22, 38740.12, 0.0, 10.000854, 9.998432 
1.8951467e+3, 2.6438063e+2, -306813.6, -498252.03, 1594.8555, 0.18563743, -0.1574506, -306800.3, 42254.57, 0.0000000071100716, 10.00097, 9.998422 
1.8951616e+3, 2.743788e+2, -320941.2, -414801.0, 23918.906, -0.058169078, -0.24896221, -315197.28, -64124.094, 0.0000064443307, 10.000075, 9.998726 
1.8951784e+3, 2.843779e+2, -212415.69, -363517.78, 45576.992, -0.14542466, -0.1846696, -199732.83, -46650.883, 0.0000894982, 10.000306, 9.998327 
1.8951984e+3, 2.9437733e+2, 160624.48, -119172.055, 91146.75, 0.04929226, -0.14598167, 187697.03, 242784.14, 0.00040238924, 10.002144, 9.998437 
1.8952133e+3, 3.043755e+2, 252856.56, -18695.365, 23705.328, -0.2138358, -0.17280878, 254910.4, 254910.4, 0.0010279405, 10.002297, 9.998741 
1.8952335e+3, 3.143745e+2, -151048.3, -214257.55, 6937.991, 0.18919289, -0.23213787, -150295.72, -150295.72, 0.0018811835, 9.999556, 9.998669 
1.9049008e+3, 1.24366336e+2, -1788592.5, -1296693.8, -46527.89, -0.014159586, -0.24442866, -1292331.4, 428866.72, 0.1713416, 9.997062, 10.004851 
1.9049202e+3, 1.3436842e+2, -2102925.3, -2081415.6, 137963.64, 0.10334966, 0.08781459, -1953788.3, -330612.28, 0.11689223, 9.997672, 9.997872 
1.9049403e+3, 1.4436357e+2, -1803418.3, -1604904.9, -1365.9613, 0.33554283, -0.30075252, -1604895.5, -79673.93, 0.06499328, 9.997767, 10.0004635 
1.9049537e+3, 1.5436526e+2, -1580296.0, -1383915.4, -47918.28, 0.07994158, -0.26811472, -1372846.8, 54354.98, 0.026617203, 9.998378, 10.001009 
1.9049697e+3, 1.6436675e+2, -1555863.5, -1436417.8, 54449.32, -0.002427714, -0.15939459, -1415322.6, -86136.41, 0.0066676727, 9.998362, 9.99998 
1.9049908e+3, 1.743668e+2, -1464901.0, -1310362.1, 58751.54, 0.2623738, -0.20804457, -1290562.9, -59375.195, 0.0006122247, 9.998219, 10.000214 
1.9050089e+3, 1.8436696e+2, -1362030.1, -1233292.5, 10982.176, 0.30076268, -0.19844498, -1232362.4, -99174.52, 0.0000017786746, 9.998333, 10.000035 
1.9050226e+3, 1.9436757e+2, -1129273.6, -1050088.3, -17881.334, -0.018353852, -0.19097361, -1046237.6, -11054.482, 0.0, 9.999191, 10.000196 
1.905039e+3, 2.0436807e+2, -1048816.8, -1027466.5, 20177.883, -0.09323711, -0.12315419, -1015313.9, -78135.23, 0.0, 9.999336, 9.999614 
1.9050588e+3, 2.1436825e+2, -1003460.8, -934723.94, 5621.298, 0.13202387, -0.11886094, -934267.3, -95090.92, 0.0, 9.99891, 9.99977 
1.9050762e+3, 2.2436754e+2, -895824.1, -899893.7, -21738.535, 0.15959884, -0.13147424, -876025.3, -134843.13, 0.0, 9.999225, 9.999209 
1.9050904e+3, 2.3436575e+2, -593992.2, -684449.3, -50953.707, -0.09131539, -0.2858569, -571089.2, 72108.76, 0.0, 10.000563, 9.999356 
1.9051078e+3, 2.4436483e+2, -495440.88, -670381.7, 30181.893, -0.09893592, -0.2704149, -490380.13, 54826.293, 0.0, 10.000935, 9.998599 
1.9051291e+3, 2.5436473e+2, -482203.75, -590516.44, 35617.918, 0.19238284, -0.19729303, -471540.75, -24332.145, 0.0, 10.000278, 9.998773 
1.9051477e+3, 2.643638e+2, -421170.72, -545601.25, 17942.621, 0.2500798, -0.14333853, -418635.13, -69416.47, 0.000000016068412, 10.000123, 9.998514 
1.905162e+3, 2.7436212e+2, -226548.89, -374210.3, -9397.503, -0.035489887, -0.22157557, -225953.22, 25283.48, 0.000006020835, 10.000678, 9.998742 
1.9051793e+3, 2.8436124e+2, -94381.72, -265699.5, 82064.84, -0.09542111, -0.17615847, -61414.793, 91831.45, 0.00007835106, 10.000926, 9.99871 
1.905201e+3, 2.9436076e+2, 18711.973, -134871.0, 76819.12, 0.17176121, -0.16689543, 50539.586, 105790.25, 0.00035568743, 10.000947, 9.998899 
1.9052158e+3, 3.0436036e+2, 192150.45, 18033.52, -15211.016, -0.1312828, -0.101413414, 193469.31, 193469.31, 0.00092660607, 10.001604, 9.9993305 
1.9052354e+3, 3.1435806e+2, 352057.16, 22022.959, -161199.5, 0.26223677, -0.3363828, 417725.8, 417725.8, 0.001727788, 10.002953, 9.998701 
1.9148995e+3, 1.2435096e+2, -1832860.9, -1382356.6, -55448.652, 0.048249982, -0.16321397, -1375632.4, 345716.88, 0.18042894, 9.9971075, 10.004143 
1.9149171e+3, 1.3435149e+2, -2102365.8, -2082594.5, 155384.72, 0.0013543312, -0.038767103, -1936781.3, -313440.63, 0.12358676, 9.99769, 9.997851 
1.9149375e+3, 1.4434695e+2, -1854121.3, -1757858.0, -6758.5337, 0.2114596, -0.30449212, -1757385.9, -232002.48, 0.069141634, 9.997965, 9.999323 
1.9149525e+3, 1.5434836e+2, -1602259.6, -1434005.1, -16644.686, 0.0872877, -0.2550455, -1432374.4, -5005.2925, 0.028615344, 9.998403, 10.000643 
1.9149694e+3, 1.6435018e+2, -1517434.9, -1384862.1, 28516.303, 0.06264278, -0.11355352, -1378988.5, -49637.996, 0.0073205116, 9.99848, 10.000275 
1.9149883e+3, 1.7435025e+2, -1451606.4, -1278088.3, 62686.26, 0.14371197, -0.18718787, -1257811.3, -26461.863, 0.00070924795, 9.9982, 10.00044 
1.915006e+3, 1.8435025e+2, -1378293.0, -1276945.0, 19031.957, 0.12802684, -0.18896316, -1273488.9, -140138.06, 0.0000023137907, 9.998366, 9.999725 
1.9150223e+3, 1.9435085e+2, -1164902.1, -1097842.4, 25848.598, 0.02274454, -0.15001014, -1089035.5, -53687.25, 0.0, 9.999077, 9.999926 
1.9150396e+3, 2.0435123e+2, -1073635.3, -1044117.1, -9476.889, -0.006663476, -0.081908785, -1041336.5, -103990.37, 0.0, 9.999176, 9.999578 
1.9150575e+3, 2.1435098e+2, -1032888.44, -949362.6, 1237.4755, 0.08444322, -0.12072967, -949344.3, -109997.414, 0.0, 9.998703, 9.999768 
1.9150749e+3, 2.2435024e+2, -967716.2, -976871.56, 10418.818, 0.07042666, -0.12084661, -960913.75, -219560.9, 0.0, 9.998912, 9.998836 
1.9150914e+3, 2.343489e+2, -666009.94, -762170.4, 14904.485, -0.056760874, -0.18906863, -663752.75, -20387.66, 0.0, 10.000268, 9.9989605 
1.9151093e+3, 2.443481e+2, -514276.53, -630411.0, -5884.8555, -0.07926343, -0.15731479, -513979.1, 31392.861, 0.0, 10.000589, 9.9990425 
1.9151282e+3, 2.54348e+2, -482888.88, -528606.3, 28159.008, 0.047253925, -0.1362057, -469478.44, -22106.19, 0.0, 10.00001, 9.999325 
1.9151463e+3, 2.6434743e+2, -468808.84, -573680.25, 15729.333, 0.05586688, -0.077366024, -466500.47, -117121.74, 0.000000038925435, 9.999811, 9.998478 
1.9151624e+3, 2.7434614e+2, -277467.06, -408520.84, 28762.488, -0.09352596, -0.11096702, -271432.44, -20037.766, 0.0000054500297, 10.000382, 9.998646 
1.915181e+3, 2.8434494e+2, -130160.41, -261793.7, 61875.35, -0.059025727, -0.09887218, -105642.18, 47766.47, 0.00006657065, 10.000588, 9.998901 
1.915203e+3, 2.9434377e+2, -30059.412, -133540.97, 102363.625, 0.24835148, -0.17971478, 32896.89, 88317.39, 0.00030471265, 10.000517, 9.999115 
1.9152181e+3, 3.0434474e+2, 102676.57, -57177.813, 3844.048, -0.09796535, 0.02335961, 102768.95, 102768.95, 0.000814986, 10.001132, 9.99903 
1.915235e+3, 3.14343e+2, 225057.16, -11084.973, -6876.673, -0.1132471, -0.14938067, 225257.25, 225257.25, 0.0015623207, 10.002038, 9.998872 
1.9248992e+3, 1.2433557e+2, -2030740.6, -1555887.4, -34315.324, 0.3857319, 0.08662295, -1553420.4, 168078.22, 0.18987963, 9.996215, 10.003152 
1.9249167e+3, 1.343336e+2, -2016560.5, -1967494.8, 48263.176, 0.17911227, -0.12876445, -1937887.1, -314371.97, 0.13060497, 9.997924, 9.998546 
1.9249344e+3, 1.4433058e+2, -1912516.5, -1828984.9, -2069.2021, 0.11711398, -0.24843146, -1828933.6, -303389.7, 0.07352615, 9.997788, 9.998897 
1.9249517e+3, 1.5433155e+2, -1628700.5, -1462097.5, -27122.473, 0.17898618, -0.22444856, -1457793.3, -30257.621, 0.030745408, 9.9983225, 10.000468 
1.9249693e+3, 1.6433282e+2, -1516430.3, -1387241.9, 19586.352, 0.21913897, -0.12787981, -1384337.6, -54814.746, 0.008026891, 9.998503, 10.000241 
1.9249864e+3, 1.7433311e+2, -1399200.6, -1257661.3, 170.39563, 0.13553885, -0.17726223, -1257661.1, -26142.543, 0.0008187495, 9.998573, 10.000405 
1.925004e+3, 1.8433322e+2, -1364429.6, -1296925.8, 11430.714, 0.086125895, -0.15641795, -1295042.8, -161524.47, 0.0000031359323, 9.998546, 9.999506 
1.9250216e+3, 1.9433346e+2, -1196854.9, -1133752.5, -1296.008, 0.053038538, -0.14018776, -1133725.9, -98206.3, 0.0, 9.998912, 9.999756 
1.9250394e+3, 2.0433357e+2, -1025954.5, -1045023.7, -13984.037, 0.06362953, -0.082409255, -1018563.9, -81043.8, 0.0, 9.999601, 9.999372 
1.9250575e+3, 2.1433328e+2, -708463.1, -817179.25, -47062.195, 0.11432805, -0.10212241, -690920.9, 148601.11, 0.0, 10.001034, 9.9995575 
1.9250752e+3, 2.2433256e+2, -638617.94, -823307.56, -21235.771, 0.11394808, -0.085633956, -636207.7, 105320.33, 0.0, 10.001217, 9.998771 
1.9250922e+3, 2.3433113e+2, -722287.7, -794070.1, -28672.748, 0.019679075, -0.15300342, -712240.9, -68700.18, 0.0, 9.999909, 9.998914 
1.9251099e+3, 2.4433011e+2, -650982.5, -684720.56, -8028.541, -0.0056302873, -0.14930373, -649169.4, -103620.27, 0.0, 9.999576, 9.999163 
1.9251283e+3, 2.543297e+2, -383117.06, -477824.34, -36095.676, 0.028673539, -0.16711779, -370928.56, 76622.72, 0.0, 10.000646, 9.999387 
1.9251464e+3, 2.6432922e+2, -289188.9, -480091.06, -33990.215, 0.04402155, -0.10700109, -283317.5, 66239.445, 0.000000047147957, 10.001035, 9.998525 
1.9251636e+3, 2.7432832e+2, -239121.0, -386549.03, -54670.293, -0.008936874, -0.102759115, -221060.3, 30509.953, 0.0000044268, 10.000636, 9.998675 
1.9251825e+3, 2.8432736e+2, -141570.78, -263890.72, 17513.318, 0.045738343, -0.06568189, -139112.69, 14469.959, 0.000054025306, 10.000518, 9.998904 
1.9252037e+3, 2.943266e+2, 46395.813, -107879.05, -7639.61, 0.24190594, -0.101427406, 46773.2, 102364.95, 0.00025237876, 10.001069, 9.999025 
1.92522e+3, 3.0432647e+2, 153465.06, -67707.17, -35889.35, -0.02946829, 0.013017999, 159143.02, 159143.02, 0.0006960178, 10.001615, 9.998735 
1.9252385e+3, 3.1432617e+2, 249419.45, 26310.102, -115608.016, 0.056483842, 0.025006626, 298518.63, 298518.63, 0.0013738545, 10.001991, 9.9992 
1.9348952e+3, 1.24314286e+2, -2102177.8, -1701499.8, 47614.926, 0.2719945, -0.079986155, -1695919.1, 25784.77, 0.1997211, 9.996332, 10.001876 
1.9349168e+3, 1.3431475e+2, -1916390.9, -1750656.6, 64511.94, 0.37613463, -0.18386516, -1728505.9, -104806.445, 0.13795441, 9.997892, 10.000046 
1.9349302e+3, 1.443148e+2, -1866252.0, -1778395.9, -11065.59, -0.13524464, -0.10305584, -1777023.6, -251323.81, 0.07814733, 9.997967, 9.999165 
1.934951e+3, 1.5431483e+2, -1625891.0, -1474854.0, 4036.0947, 0.22668362, -0.16526361, -1474746.3, -47045.305, 0.033007, 9.998384, 10.00036 
1.9349688e+3, 1.643145e+2, -1518685.1, -1420016.5, 4766.072, 0.27283916, -0.20778264, -1419786.9, -90082.05, 0.008786739, 9.998613, 9.9999695 
1.9349849e+3, 1.7431526e+2, -1412150.5, -1290597.8, 12639.097, 0.1029572, -0.18497817, -1289297.4, -57601.055, 0.00094156526, 9.998591, 10.000177 
1.9350019e+3, 1.8431583e+2, -1356779.6, -1292120.5, 6108.663, -0.0054072463, -0.10943267, -1291548.4, -157857.44, 0.0000044945964, 9.99859, 9.999518 
1.9350196e+3, 1.9431554e+2, -1216360.1, -1152504.5, 25195.01, -0.0636715, -0.14343324, -1143760.9, -108065.52, 0.0, 9.998811, 9.999682 
1.9350383e+3, 2.0431526e+2, -1076249.0, -1111371.9, 19285.271, -0.056020517, -0.100874335, -1067727.4, -130028.12, 0.0, 9.999433, 9.999001 
1.9350585e+3, 2.1431519e+2, -776198.0, -896537.8, 20875.96, 0.08410461, -0.057282086, -772679.4, 67021.74, 0.0, 10.000772, 9.999138 
1.9350767e+3, 2.2431435e+2, -681540.6, -824673.5, -78447.125, 0.1103402, -0.03737399, -646919.94, 94789.08, 0.0, 10.000844, 9.9989395 
1.935092e+3, 2.3431242e+2, -743067.44, -777984.75, -61359.617, -0.009008557, -0.17891558, -696731.06, -53005.563, 0.0, 9.999658, 9.999144 
1.9351092e+3, 2.443109e+2, -713407.7, -743662.1, 8759.064, -0.062274907, -0.22552535, -711054.8, -165316.95, 0.0, 9.999268, 9.998912 
1.9351289e+3, 2.5430983e+2, -442627.06, -537970.06, 20312.736, -0.004008229, -0.27917558, -438479.84, 9265.725, 0.0, 10.000379, 9.999103 
1.9351476e+3, 2.6430908e+2, -345586.2, -507045.25, -64141.76, 0.04303471, -0.23068342, -323206.94, 26547.027, 0.00000001782158, 10.000659, 9.998516 
1.9351652e+3, 2.743086e+2, -287373.44, -399426.13, -52379.56, 0.062635556, -0.18691203, -266701.88, -14938.198, 0.0000033385966, 10.00029, 9.998739 
1.9351831e+3, 2.843087e+2, -211250.56, -337100.06, 7374.346, 0.024406899, -0.032679297, -210819.92, -57053.426, 0.00004416703, 10.000197, 9.998564 
1.9352022e+3, 2.943092e+2, -24523.021, -168528.9, 35118.44, -0.040847875, 0.085249916, -16415.236, 39349.027, 0.00021030588, 10.0007105, 9.998777 
1.9352208e+3, 3.04306e+2, 50358.37, -177290.27, -44324.31, -0.15040915, -0.07333293, 58684.04, 58684.04, 0.00059174973, 10.001168, 9.998197 
1.935243e+3, 3.143058e+2, 142749.16, 26126.03, -21732.084, 0.25599623, 0.00094630814, 146667.19, 146667.19, 0.0011892852, 10.001118, 9.999583 
1.9448899e+3, 1.2429043e+2, -2116253.0, -1863198.9, 23436.748, 0.08559953, -0.32018325, -1861046.6, -139109.17, 0.20999403, 9.996927, 10.000438 
1.9449137e+3, 1.3429503e+2, -2000848.8, -1590359.8, -57313.563, 0.36172608, -0.16921934, -1582507.6, 41386.645, 0.14565058, 9.996388, 10.001939 
1.9449288e+3, 1.4429685e+2, -1914596.1, -1739038.6, -55191.1, -0.037581064, -0.050798494, -1723129.6, -197251.8, 0.083007626, 9.997332, 9.999764 
1.9449496e+3, 1.5429735e+2, -1684538.0, -1486023.0, -67957.43, 0.3003226, -0.090795, -1464988.1, -37113.29, 0.03539992, 9.997886, 10.000538 
1.9449674e+3, 1.6429676e+2, -1617908.8, -1487361.3, -21140.623, 0.30732274, -0.15783826, -1484023.1, -154141.94, 0.009600047, 9.998018, 9.999799 
1.9449838e+3, 1.7429729e+2, -1396486.9, -1300648.8, -37658.15, 0.119414605, -0.14149301, -1287622.1, -55746.707, 0.0010784023, 9.998778, 10.000017 
1.9450012e+3, 1.8429771e+2, -1257594.4, -1230777.6, -17177.555, 0.04288234, -0.07692246, -1222394.9, -88524.67, 0.0000066792873, 9.999239, 9.999621 
1.9450194e+3, 1.9429709e+2, -1093895.8, -1076761.1, -19005.574, -0.0040904996, -0.1548769, -1064481.1, -28606.174, 0.0, 9.99962, 9.999799 
1.9450381e+3, 2.0429659e+2, -1055424.6, -1089946.0, 33451.305, 0.009323837, -0.14485161, -1035043.3, -97163.7, 0.0, 9.999538, 9.999098 
1.9450586e+3, 2.1429636e+2, -1008596.44, -995048.56, 42123.09, 0.114464134, -0.123328134, -959158.25, -119274.99, 0.0, 9.999127, 9.999254 
1.945077e+3, 2.242958e+2, -887578.44, -921098.94, -24631.53, 0.1536207, -0.08384749, -874545.8, -132656.4, 0.0, 9.999396, 9.998975 
1.9450928e+3, 2.3429465e+2, -593459.9, -707792.06, -50945.23, 0.07489286, -0.14800645, -574053.25, 69846.99, 0.0, 10.0006695, 9.999149 
1.9451104e+3, 2.442933e+2, -474863.63, -646550.44, 51822.88, 0.038019896, -0.16799329, -460433.9, 85477.98, 0.0, 10.001009, 9.998737 
1.9451295e+3, 2.5429156e+2, -466928.78, -575149.06, 32027.016, 0.032245547, -0.26812762, -458160.97, -10234.774, 0.0, 10.000329, 9.998869 
1.9451483e+3, 2.642902e+2, -393161.25, -533293.44, -16534.922, 0.06308302, -0.2640739, -391236.66, -41297.313, 0.000000002142629, 10.000317, 9.99851 
1.9451661e+3, 2.7428958e+2, -150632.66, -343468.28, -41409.098, 0.10135198, -0.23224004, -142116.64, 109832.0, 0.0000030022966, 10.001222, 9.998702 
1.9451845e+3, 2.8428963e+2, -36975.766, -278471.06, 51535.83, 0.086358964, -0.07117505, -26437.709, 127513.15, 0.00003904193, 10.001495, 9.998347 
1.9452034e+3, 2.9429024e+2, 17959.734, -169761.75, 35661.035, 0.00020848158, 0.085217156, 24505.906, 80452.664, 0.00018459432, 10.001071, 9.998608 
1.945223e+3, 3.0428556e+2, 48184.426, -225272.84, 31647.475, -0.036127802, -0.1951705, 51799.234, 51799.234, 0.0005147773, 10.001384, 9.997741 
1.9452454e+3, 3.1428543e+2, 373078.63, 102449.0, -40867.156, 0.31618926, -0.046680264, 379115.22, 379115.22, 0.0010277403, 10.002799, 9.999313 
1.9548887e+3, 1.2426751e+2, -2157666.8, -2053136.4, -17278.049, 0.17008561, -0.2989384, -2050354.5, -328189.2, 0.22070916, 9.997298, 9.998993 
1.954907e+3, 1.3427462e+2, -1817885.9, -1296207.8, -17061.11, 0.014326418, -0.078327246, -1295650.4, 328447.66, 0.15369554, 9.996508, 10.0042715 
1.9549292e+3, 1.442768e+2, -1823442.8, -1591466.8, -32645.38, 0.21478587, -0.10460773, -1586960.1, -60882.26, 0.08810495, 9.997514, 10.000688 
1.9549474e+3, 1.5427904e+2, -1649860.3, -1425333.4, -39067.55, 0.24639529, -0.015189391, -1418729.9, 9327.625, 0.037922986, 9.997928, 10.00094 
1.9549643e+3, 1.6427968e+2, -1602576.3, -1490706.8, -20311.68, 0.13003454, 0.022353487, -1487133.0, -157081.25, 0.010466628, 9.998163, 9.999711 
1.9549823e+3, 1.7427929e+2, -1402906.8, -1326838.6, 2842.818, 0.056251083, -0.037407868, -1326732.6, -94677.44, 0.0012294218, 9.998821, 9.999822 
1.955001e+3, 1.8427886e+2, -1235639.3, -1198814.5, -16197.711, 0.05529449, -0.05492418, -1192703.8, -58647.09, 0.000009908067, 9.999301, 9.999807 
1.9550203e+3, 1.9427805e+2, -1094449.6, -1054353.5, 5445.494, 0.09221904, -0.1695422, -1053627.1, -17567.816, 0.0, 9.999522, 9.999999 
1.9550389e+3, 2.0427726e+2, -1047212.94, -1027467.2, 1475.5032, 0.084878005, -0.22258471, -1027357.56, -89293.76, 0.0, 9.99934, 9.999622 
1.9550574e+3, 2.1427664e+2, -1003397.3, -926859.8, 39527.06, 0.061385717, -0.3008064, -910111.44, -70041.62, 0.0, 9.998888, 9.999832 
1.9550759e+3, 2.2427677e+2, -939264.4, -955520.1, 4132.9995, 0.06780768, -0.22240713, -938273.94, -196203.33, 0.0, 9.999074, 9.9988985 
1.9550943e+3, 2.3427774e+2, -644734.44, -745527.0, 10726.702, 0.12835284, -0.060117427, -643605.5, 460.26306, 0.0, 10.000386, 9.999021 
1.9551124e+3, 2.4427727e+2, -547338.1, -711890.8, 15847.385, 0.10129603, 0.025028933, -545825.8, 246.26266, 0.0, 10.000642, 9.998464 
1.9551297e+3, 2.5427467e+2, -523076.2, -627712.1, 23149.307, -0.011045905, -0.13855349, -518183.47, -70088.46, 0.0, 10.000063, 9.998628 
1.9551475e+3, 2.6427266e+2, -443590.47, -564830.9, -6324.1724, -0.06992573, -0.1871706, -443261.5, -93148.836, 0.00000003752054, 9.999994, 9.998453 
1.9551663e+3, 2.742713e+2, -193737.45, -368477.94, 9828.642, -0.04042657, -0.22615635, -193186.36, 58938.37, 0.0000033251551, 10.000953, 9.998656 
1.9551858e+3, 2.8427035e+2, -118809.36, -351398.84, 17014.96, 0.026226854, -0.14887044, -117571.234, 36562.31, 0.000036409245, 10.001082, 9.998043 
1.9552064e+3, 2.9427007e+2, -53658.37, -218040.83, 45295.266, 0.16710676, -0.055981807, -42003.664, 14132.407, 0.00016708692, 10.000657, 9.998466 
1.9552259e+3, 3.0426538e+2, -60502.996, -348268.4, 48238.582, 0.065732226, -0.3067487, -52631.973, -52631.973, 0.00045041234, 10.000922, 9.997131 
1.9552463e+3, 3.142646e+2, 226273.13, -33931.074, 42419.05, 0.057911083, -0.16313216, 233013.75, 233013.75, 0.00087258307, 10.002128, 9.998674 
1.9648884e+3, 1.24248326e+2, -2256143.0, -2214339.5, 97616.29, 0.43937752, -0.102679215, -2135412.3, -413055.53, 0.23177752, 9.997204, 9.997875 
1.9649033e+3, 1.3425428e+2, -1692289.9, -1170490.5, 28375.674, -0.016998485, -0.051957253, -1168951.9, 455348.3, 0.1620495, 9.9970665, 10.005005 
1.964927e+3, 1.4425619e+2, -1892471.5, -1607575.3, -26248.559, 0.2882071, -0.15326773, -1605177.0, -78894.87, 0.093428105, 9.996995, 10.000798 
1.9649455e+3, 1.5425935e+2, -1627641.6, -1410782.9, -108371.9, 0.26141536, 0.023409026, -1365910.6, 62342.305, 0.04057487, 9.998079, 10.000951 
1.964963e+3, 1.6426022e+2, -1540241.3, -1453578.0, -80473.99, 0.17810556, 0.07361756, -1405511.1, -75266.445, 0.011385711, 9.99857, 9.999763 
1.9649813e+3, 1.7425913e+2, -1430330.0, -1332403.3, -69925.97, 0.08483985, -0.058606565, -1296002.4, -63748.87, 0.0013940044, 9.998614, 9.999875 
1.9650003e+3, 1.8425857e+2, -1303898.0, -1211580.1, -47881.25, 0.096744835, -0.10312378, -1191231.4, -56975.766, 0.000014255441, 9.998742, 9.999992 
1.9650206e+3, 1.9425821e+2, -1099066.5, -1036738.1, -56796.145, 0.19177045, -0.1892093, -1003117.94, 33135.324, 0.0, 9.999398, 10.000183 
1.9650394e+3, 2.0425777e+2, -982171.5, -983304.9, -70374.89, 0.19080932, -0.22446296, -912361.0, 25893.53, 0.0, 9.999715, 9.999743 
1.9650565e+3, 2.1425723e+2, -881934.94, -861670.94, -96865.766, 0.053461153, -0.30332384, -774408.75, 65851.41, 0.0, 9.999656, 9.999919 
1.965075e+3, 2.2425745e+2, -845790.8, -908810.1, -80520.016, 0.042623308, -0.2185721, -790834.7, -48574.066, 0.0, 9.999716, 9.998911 
1.9650947e+3, 2.3425852e+2, -672884.75, -763601.56, -101281.84, 0.1510471, -0.04530192, -607268.44, 36987.61, 0.0, 10.000196, 9.998995 
1.9651134e+3, 2.442581e+2, -553905.0, -724632.1, -91183.45, 0.176552, 0.052013114, -514363.16, 31899.3, 0.0, 10.000593, 9.998425 
1.9651307e+3, 2.542559e+2, -419470.84, -588416.2, -105403.65, 0.070298284, -0.06101364, -368867.38, 79414.56, 0.0, 10.000794, 9.9985695 
1.9651487e+3, 2.6425394e+2, -300746.94, -494557.16, -62810.54, 0.010358126, -0.09835599, -282171.47, 68126.945, 0.00000006167767, 10.000994, 9.998446 
1.9651675e+3, 2.74252e+2, -148724.42, -349244.25, -91200.77, -0.015929405, -0.19364752, -113449.73, 138864.42, 0.000003603985, 10.001293, 9.99861 
1.9651872e+3, 2.8425005e+2, -86945.68, -352909.56, -69895.95, 0.056977335, -0.20175402, -69695.664, 84634.99, 0.00003430298, 10.001373, 9.997896 
1.965208e+3, 2.9424882e+2, 19744.4, -211742.47, -84847.83, 0.24861024, -0.17985088, 47512.973, 103855.34, 0.00015136057, 10.001277, 9.998227 
1.9652279e+3, 3.042454e+2, 61242.098, -301920.72, 21491.99, 0.1446435, -0.27820078, 62509.57, 62509.57, 0.00039140973, 10.001788, 9.997053 
1.965248e+3, 3.142439e+2, 317711.56, 10096.274, -93954.04, 0.01338337, -0.18473773, 344137.5, 344137.5, 0.00072701665, 10.002693, 9.998745 
1.9748853e+3, 1.2423264e+2, -2249007.8, -2288490.8, -71032.66, 0.28597903, 0.21550421, -2195024.3, -472510.06, 0.24301729, 9.997572, 9.997194 
1.9749025e+3, 1.3423394e+2, -1735218.9, -1287292.5, 20927.807, 0.15104033, -0.096112035, -1286316.9, 338184.44, 0.17062773, 9.997236, 10.004007 
1.9749212e+3, 1.4423488e+2, -1911081.3, -1679160.3, -17079.822, -0.05025877, -0.21691121, -1677909.1, -151417.17, 0.09895461, 9.997127, 10.000251 
1.9749433e+3, 1.542383e+2, -1648323.8, -1460861.4, -57260.625, 0.2008954, 0.0291951, -1444754.9, -16293.984, 0.04335473, 9.9981165, 10.000577 
1.9749631e+3, 1.642383e+2, -1497080.4, -1396569.0, -94266.18, 0.28580976, -0.00043226415, -1339998.9, -9538.461, 0.012356995, 9.998717, 10.000082 
1.97498e+3, 1.7423677e+2, -1406257.9, -1284279.3, -58589.516, 0.07194324, -0.20566212, -1260696.5, -28225.41, 0.0015709848, 9.99863, 10.000197 
1.9749987e+3, 1.8423666e+2, -1283929.1, -1186016.6, -44668.043, -0.004325959, -0.22579116, -1168701.1, -34232.54, 0.000019593592, 9.998797, 10.00015 
1.9750197e+3, 1.9423744e+2, -1097285.8, -1013789.4, -19514.592, 0.1443289, -0.21703883, -1009453.6, 27004.762, 0.0, 9.999313, 10.000383 
1.9750391e+3, 2.0423792e+2, -1032440.5, -1040897.75, -82930.62, 0.14641319, -0.15625805, -953630.75, -15177.384, 0.0, 9.999515, 9.999443 
1.9750555e+3, 2.1423829e+2, -941149.94, -927621.56, -86055.45, -0.041468386, -0.11611118, -848064.9, -7612.049, 0.0, 9.999411, 9.999583 
1.9750735e+3, 2.2423814e+2, -901379.6, -946333.1, -80118.555, -0.10760592, -0.047253262, -840644.7, -98187.79, 0.0, 9.999372, 9.998822 
1.975094e+3, 2.34237e+2, -706552.25, -784937.6, -63108.625, 0.016586026, -0.09207051, -671456.56, -26986.057, 0.0, 9.99998, 9.998953 
1.9751135e+3, 2.4423602e+2, -593547.5, -737199.6, -100305.016, 0.095702246, -0.055017125, -542003.9, 4477.192, 0.0, 10.000287, 9.998487 
1.9751324e+3, 2.5423542e+2, -442521.03, -586466.6, -82971.72, 0.12921524, -0.019249313, -404655.8, 43830.066, 0.0, 10.000576, 9.998687 
1.975151e+3, 2.6423407e+2, -365624.94, -547778.1, -70820.41, 0.10204391, 0.0068205083, -341330.5, 9166.105, 0.000000055759365, 10.000641, 9.998249 
1.9751695e+3, 2.742316e+2, -203671.2, -389221.2, -59878.41, 0.017466228, -0.12907952, -186025.98, 66490.445, 0.0000036492006, 10.000978, 9.998478 
1.9751883e+3, 2.8422895e+2, -153754.17, -413929.97, -94582.586, -0.010083632, -0.19706817, -123004.484, 31535.5, 0.00003270768, 10.001027, 9.997651 
1.9752079e+3, 2.9422632e+2, -34319.684, -267527.6, -57595.33, 0.07093157, -0.29471502, -20870.941, 35694.906, 0.00013942833, 10.00103, 9.997964 
1.9752282e+3, 3.0422562e+2, -35031.973, -366461.66, 32502.672, -0.04893461, -0.10082802, -31874.578, -31874.578, 0.00034788318, 10.001242, 9.996857 
1.9752522e+3, 3.1422356e+2, 252179.58, 95604.305, -19751.598, 0.102178246, -0.072846174, 254632.77, 254632.77, 0.0006200004, 10.001805, 9.999727 
1.9848825e+3, 1.2421185e+2, -2220511.3, -2117234.8, -1395.1226, 0.28797945, -0.006140755, -2117215.8, -394496.44, 0.25424254, 9.997071, 9.998638 
1.9849013e+3, 1.3421375e+2, -1640592.5, -1374729.3, 1045.9148, 0.26262733, -0.12615377, -1374725.1, 249974.94, 0.17932345, 9.998493, 10.002721 
1.9849187e+3, 1.442154e+2, -1805205.8, -1647173.3, 11705.891, -0.039056227, -0.100809276, -1646310.9, -119627.414, 0.104643695, 9.997945, 10.000083 
1.9849412e+3, 1.5421733e+2, -1599506.6, -1441412.9, -14465.012, 0.17349353, 0.0030899022, -1440100.3, -11433.775, 0.046255346, 9.99847, 10.000552 
1.9849618e+3, 1.6421697e+2, -1461818.6, -1374478.9, -34687.746, 0.27879542, -0.06674224, -1362378.8, -31708.992, 0.013380272, 9.998941, 10.00012 
1.9849797e+3, 1.7421637e+2, -1283333.4, -1222133.6, -50812.94, 0.13412593, -0.18382159, -1193418.3, 39253.91, 0.0017591557, 9.999458, 10.000226 
1.9849984e+3, 1.8421672e+2, -1209550.4, -1171802.1, -34061.47, 0.07909485, -0.15046915, -1151735.0, -17068.559, 0.0000256483, 9.9993925, 9.999957 
1.9850187e+3, 1.9421725e+2, -1159845.4, -1068385.4, -67299.95, 0.1337455, -0.15035878, -1032748.8, 3912.1038, 0.0, 9.99896, 10.000184 
1.9850378e+3, 2.0421764e+2, -1114199.3, -1067483.3, -93195.23, 0.117562234, -0.09478996, -994763.44, -56105.754, 0.0, 9.998903, 9.999559 
1.985055e+3, 2.1421823e+2, -890062.2, -886682.3, -95376.61, -0.029881533, -0.039004546, -792980.7, 47672.68, 0.0, 9.999704, 9.999721 
1.9850735e+3, 2.2421792e+2, -744160.3, -872219.8, -30245.506, -0.08239916, 0.007416501, -737376.25, 5281.165, 0.0, 10.000455, 9.998808 
1.9850938e+3, 2.3421617e+2, -545376.6, -713498.75, -42442.797, -0.016246239, -0.093624026, -535269.5, 109405.56, 0.0, 10.001114, 9.998896 
1.985114e+3, 2.4421483e+2, -479178.63, -692081.0, -84505.32, 0.08330118, -0.083036095, -449714.38, 96974.055, 0.0, 10.001165, 9.998347 
1.9851334e+3, 2.5421396e+2, -452370.97, -611520.8, -125754.805, 0.1824643, -0.05482926, -383129.1, 65567.836, 0.0, 10.000621, 9.998481 
1.9851524e+3, 2.6421255e+2, -389007.22, -548441.9, -69910.26, 0.1984114, -0.027144425, -362694.88, -11985.743, 0.00000004684117, 10.000438, 9.998337 
1.9851708e+3, 2.7421048e+2, -226111.3, -391066.2, -81229.5, 0.08520926, -0.12727234, -192827.08, 59898.51, 0.000003631824, 10.0007925, 9.9985485 
1.9851899e+3, 2.842084e+2, -99691.305, -372224.47, -59902.03, 0.05971983, -0.14708157, -87106.164, 67637.85, 0.000030883682, 10.001356, 9.9977665 
1.98521e+3, 2.9420602e+2, 123784.85, -186555.33, -58866.05, 0.13460134, -0.21825913, 134575.5, 191342.66, 0.00012822116, 10.002135, 9.99797 
1.9852298e+3, 3.0420497e+2, 126395.63, -235039.78, 86874.63, -0.011539706, -0.0835439, 146192.48, 146192.48, 0.0003141248, 10.002074, 9.997367 
1.9852544e+3, 3.1420287e+2, 123827.3, 66635.75, -21216.857, 0.21514626, -0.107337676, 130838.734, 130838.734, 0.00054966006, 10.000706, 10.000077 
1.994879e+3, 1.2419185e+2, -1943611.1, -1642640.6, 31535.37, 0.13151266, -0.15165937, -1639371.9, 83542.445, 0.26535824, 9.997359, 10.001964 
1.9948986e+3, 1.3419348e+2, -1731362.3, -1548363.1, 6911.699, 0.123189375, -0.15664683, -1548102.4, 76796.16, 0.18805622, 9.998576, 10.001239 
1.9949193e+3, 1.441977e+2, -1759133.1, -1595845.9, -11496.024, 0.16175821, 0.18981385, -1595040.5, -68183.35, 0.11045076, 9.998136, 10.000345 
1.9949387e+3, 1.541963e+2, -1572852.8, -1391570.0, 17044.42, 0.047873434, -0.066681154, -1389981.4, 38889.637, 0.04926506, 9.998499, 10.00089 
1.9949582e+3, 1.6419597e+2, -1457953.0, -1390417.4, -28868.799, -0.018121969, -0.1414379, -1379759.1, -48884.453, 0.014456319, 9.999043, 9.999962 
1.9949794e+3, 1.7419787e+2, -1296607.4, -1247207.6, -23692.127, 0.14114405, 0.008212065, -1237681.8, -4824.686, 0.0019582892, 9.999456, 10.000049 
1.9949993e+3, 1.8419863e+2, -1242238.1, -1249772.8, -64618.63, 0.185519, 0.11960754, -1181277.1, -46426.75, 0.000032105352, 9.999437, 9.999401 
1.995017e+3, 1.9419757e+2, -1214846.1, -1156686.8, -73828.89, 0.035745095, 0.017817877, -1106417.0, -69555.53, 0.0, 9.9988575, 9.999622 
1.9950353e+3, 2.0419699e+2, -1108206.8, -1017577.94, -86775.59, -0.062710285, -0.014648302, -964997.5, -26131.246, 0.0, 9.9987335, 9.999985 
1.9950548e+3, 2.14197e+2, -882761.3, -825682.3, -51693.227, -0.049685158, -0.07137582, -795173.56, 45689.254, 0.0, 9.999503, 10.000236 
1.9950745e+3, 2.2419673e+2, -791071.5, -894630.94, -18392.287, -0.06053498, -0.050337296, -787902.0, -45038.76, 0.0, 10.000129, 9.998812 
1.9950946e+3, 2.3419605e+2, -585034.5, -737709.44, 731.9258, -0.08592308, -0.043829393, -585031.0, 59838.734, 0.0, 10.000856, 9.998854 
1.9951142e+3, 2.4419442e+2, -570629.06, -795373.56, -117429.164, -0.04711258, -0.038944393, -520467.8, 26418.264, 0.0, 10.000789, 9.997823 
1.9951335e+3, 2.5419146e+2, -524751.44, -705654.7, -127116.16, 0.10878222, -0.16650583, -459190.2, -10274.325, 0.0, 10.000376, 9.997952 
1.9951525e+3, 2.6418933e+2, -432584.66, -556830.3, -73540.83, 0.1411502, -0.1884303, -398439.63, -47503.164, 0.000000042002604, 10.0000925, 9.998443 
1.9951715e+3, 2.7418852e+2, -255117.16, -381900.3, -48390.324, 0.03540388, -0.18502071, -238758.39, 14184.183, 0.0000035134383, 10.000509, 9.998742 
1.9951916e+3, 2.84188e+2, -151098.63, -392929.44, -53852.72, 0.044817924, -0.059546437, -139648.44, 15297.988, 0.00002820436, 10.000981, 9.997806 
1.9952135e+3, 2.941873e+2, 72267.61, -204623.88, -7477.108, 0.23233901, 0.019783473, 72469.375, 129421.92, 0.00011358975, 10.001742, 9.9980345 
1.9952327e+3, 3.0418324e+2, 96756.875, -135151.1, 18834.344, 0.010284533, -0.19494466, 98276.54, 98276.54, 0.00027761882, 10.001421, 9.998349 
1.995253e+3, 3.141819e+2, -32687.283, -79510.43, 34853.01, -0.07236425, -0.2733316, -14112.737, -14112.737, 0.0004902181, 9.999996, 9.999383 
2.0048761e+3, 1.2417324e+2, -1740699.1, -1528705.9, 41802.14, 0.0639063, -0.04363395, -1520760.9, 202332.45, 0.27641812, 9.998524, 10.002462 
2.0048979e+3, 1.3417287e+2, -1851423.4, -1687701.1, -58304.215, 0.2195711, -0.18093076, -1669060.4, -43961.004, 0.1968332, 9.998182, 10.000336 
2.0049168e+3, 1.4417726e+2, -1851270.5, -1616335.1, -2039.0779, 0.15816914, 0.21631908, -1616317.5, -89260.336, 0.11636926, 9.997396, 10.000558 
2.0049374e+3, 1.541755e+2, -1584254.1, -1376774.3, 15224.979, 0.08360037, -0.102644674, -1375663.0, 53410.23, 0.05238356, 9.9983, 10.001103 
2.0049573e+3, 1.6417542e+2, -1497145.0, -1422914.8, -7096.668, 0.011355564, -0.16065331, -1422242.4, -91168.04, 0.015589432, 9.998797, 9.999871 
2.0049785e+3, 1.7417762e+2, -1342998.5, -1284227.9, -25222.742, 0.13307905, 0.025055733, -1274887.5, -41832.824, 0.0021699998, 9.999153, 9.99996 
2.0049988e+3, 1.8417828e+2, -1277395.4, -1274356.3, -31632.223, 0.20579141, 0.13381429, -1244207.1, -109157.57, 0.00003871999, 9.999259, 9.999307 
2.0050167e+3, 1.9417699e+2, -1097642.1, -1115014.0, -40047.043, 0.08455845, 0.023256257, -1065349.9, -28286.69, 0.0, 9.999751, 9.9994755 
2.0050351e+3, 2.041761e+2, -955074.3, -972424.06, -20481.434, -0.002028108, -0.017395962, -941506.4, -2435.2244, 0.0, 9.999929, 9.999715 
2.0050545e+3, 2.1417563e+2, -842383.4, -839613.3, -71914.07, -0.03315656, -0.09108034, -769070.94, 72001.56, 0.0, 9.99993, 9.99994 
2.0050746e+3, 2.2417514e+2, -838140.5, -888740.44, -48355.203, -0.030224439, -0.08468859, -808866.56, -65791.91, 0.0, 9.999707, 9.999044 
2.0050952e+3, 2.3417467e+2, -783117.5, -796433.6, -47273.625, -0.026917964, -0.08208097, -742035.4, -96957.664, 0.0, 9.999382, 9.999145 
2.0051152e+3, 2.4417344e+2, -722963.7, -850017.56, -97717.09, 0.028909318, -0.059282877, -669938.94, -122849.46, 0.0, 9.999626, 9.998019 
2.0051341e+3, 2.541711e+2, -484972.0, -664789.7, -87509.445, 0.13559453, -0.14398043, -449415.7, -301.5709, 0.0, 10.000544, 9.998151 
2.0051531e+3, 2.641692e+2, -322101.94, -536587.4, 9578.821, 0.15261611, -0.1452268, -321675.0, 29458.734, 0.000000029896977, 10.000968, 9.998172 
2.0051719e+3, 2.741676e+2, -231751.44, -416606.2, -32148.71, 0.038103107, -0.17964506, -226319.94, 26828.84, 0.0000031274246, 10.000821, 9.998378 
2.0051928e+3, 2.8416693e+2, -148753.34, -353660.66, 1926.5424, 0.09600779, -0.06840531, -148735.22, 6419.423, 0.000025154262, 10.000821, 9.998158 
2.0052157e+3, 2.9416686e+2, -13181.131, -207662.38, 9605.773, 0.33106145, 0.042686265, -12707.836, 44445.813, 0.00009776422, 10.000985, 9.998379 
2.0052348e+3, 3.0416274e+2, 164717.48, -16135.614, 60357.906, 0.12254203, -0.2339507, 183010.94, 183010.94, 0.00024035286, 10.001487, 9.999159 
2.0052542e+3, 3.1416228e+2, 260891.33, -12875.367, 6918.925, -0.042713214, -0.2789889, 261066.08, 261066.08, 0.000433908, 10.002284, 9.99878 
2.0148727e+3, 1.2415248e+2, -1915040.3, -1854194.6, 57794.242, -0.21989127, -0.10281176, -1819304.9, -96013.91, 0.28771394, 9.998682, 9.999635 
2.0148988e+3, 1.3415201e+2, -1883996.3, -1780976.8, -97015.33, 0.4527548, -0.20476587, -1722644.6, -97343.29, 0.20582092, 9.998279, 9.99966 
2.0149107e+3, 1.4415367e+2, -1817031.5, -1584408.3, -7240.425, -0.25501364, -0.04580926, -1584183.1, -56895.773, 0.12247417, 9.997557, 10.000703 
2.0149365e+3, 1.5415484e+2, -1564688.1, -1338116.3, 54775.895, 0.13491091, -0.0998284, -1325568.5, 103705.69, 0.055639356, 9.9983015, 10.001386 
2.0149586e+3, 1.6415542e+2, -1474872.3, -1399531.0, -9012.575, 0.19309784, -0.108425565, -1398468.0, -67200.85, 0.016791714, 9.998896, 9.999989 
2.0149767e+3, 1.7415571e+2, -1340685.5, -1271208.6, -2011.6604, -0.0049158684, -0.11846383, -1271150.5, -37886.52, 0.0023981123, 9.999127, 10.000062 
2.0149961e+3, 1.8415579e+2, -1246274.3, -1230608.1, -38211.145, -0.032835353, -0.0909976, -1199435.5, -64172.34, 0.000045425786, 9.999332, 9.999579 
2.0150173e+3, 1.9415544e+2, -1092488.6, -1086661.4, -13663.717, 0.13605085, -0.13021669, -1075604.1, -38337.08, 0.0, 9.999672, 9.999711 
2.0150366e+3, 2.0415498e+2, -1048780.4, -1127210.8, -35306.313, 0.12082351, -0.09616028, -1035228.5, -95956.13, 0.0, 9.999753, 9.99874 
2.015054e+3, 2.1415415e+2, -956756.8, -1020908.75, -57635.11, -0.10858591, -0.09501684, -922873.2, -81590.875, 0.0, 9.999688, 9.998813 
2.0150733e+3, 2.2415309e+2, -866448.94, -873942.44, -73688.39, -0.16879575, -0.09702721, -796412.1, -53120.027, 0.0, 9.999379, 9.99931 
2.0150954e+3, 2.341518e+2, -780911.7, -749728.9, -43248.73, 0.030640818, -0.21786447, -719347.0, -74045.84, 0.0, 9.999182, 9.999568 
2.015116e+3, 2.4415153e+2, -716749.2, -754778.2, -78612.81, 0.13059132, -0.16048399, -654884.0, -107581.5, 0.0, 9.999282, 9.998836 
2.0151347e+3, 2.541526e+2, -463325.6, -557799.0, -39108.027, 0.11688691, 0.008647954, -449237.4, 57.11353, 0.0, 10.000284, 9.99901 
2.0151533e+3, 2.6415157e+2, -418133.94, -655073.44, -10551.207, 0.04305152, 0.081773825, -417665.0, -66358.81, 0.0000000091701935, 10.000623, 9.997525 
2.0151721e+3, 2.7414775e+2, -328087.28, -544732.44, -16664.46, -0.058371715, -0.10763682, -326812.94, -73468.03, 0.0000023642951, 10.000524, 9.997637 
2.015193e+3, 2.841454e+2, -187895.03, -335249.56, -13728.481, -0.0042873914, -0.1342515, -186626.9, -31260.334, 0.000021595964, 10.000402, 9.998481 
2.0152162e+3, 2.941446e+2, -28960.826, -174070.95, 39631.285, 0.2525181, -0.14642906, -18842.58, 38528.945, 0.000083873885, 10.000678, 9.998766 
2.0152362e+3, 3.041428e+2, 97007.22, -17692.773, 62626.16, 0.06132041, -0.22417906, 124575.17, 124575.17, 0.00020823602, 10.000927, 9.999395 
2.0152554e+3, 3.14146e+2, 87481.49, -111217.88, 147404.69, -0.20740935, 0.05723235, 165891.48, 165891.48, 0.00038362973, 10.00125, 9.998558 
2.0248711e+3, 1.2413082e+2, -1993539.4, -2013173.8, 18642.791, -0.23789068, -0.10462047, -1982286.9, -258786.25, 0.29983783, 9.998693, 9.998516 
2.024896e+3, 1.3413158e+2, -1801949.1, -1657716.8, -106308.086, 0.34923807, -0.1785343, -1601372.3, 24126.105, 0.21537028, 9.998499, 10.000413 
2.0249103e+3, 1.4413172e+2, -1541731.4, -1546208.3, 45101.926, -0.15393229, -0.17817307, -1498812.4, 28687.92, 0.12892798, 9.999863, 9.999866 
2.0249355e+3, 1.5413368e+2, -1535620.8, -1432309.8, -33444.41, 0.17395923, -0.051097225, -1422428.1, 7055.1016, 0.05909158, 9.999004, 10.000355 
2.0249572e+3, 1.6413416e+2, -1565908.4, -1406234.4, -105438.45, 0.2343594, -0.027442863, -1353817.1, -22338.766, 0.018083457, 9.998152, 10.000278 
2.0249757e+3, 1.7413354e+2, -1371080.4, -1236823.8, -99547.836, 0.019123232, -0.16689605, -1183885.5, 49595.35, 0.0026487417, 9.998754, 10.000456 
2.0249955e+3, 1.8413356e+2, -1278171.6, -1220642.0, -103740.4, -0.007391516, -0.17750739, -1141752.4, -6273.401, 0.000052423693, 9.998995, 9.999807 
2.0250167e+3, 1.9413392e+2, -1166075.6, -1106851.0, -110922.484, 0.15362054, -0.16433978, -1021656.1, 15820.036, 0.0, 9.999076, 9.999862 
2.0250365e+3, 2.0413393e+2, -1125510.4, -1168042.6, -71481.1, 0.17564303, -0.09374972, -1072199.0, -132721.27, 0.0, 9.999248, 9.998694 
2.0250544e+3, 2.1413322e+2, -944070.3, -1025242.75, -50487.74, -0.022228848, -0.07262254, -919878.0, -78390.55, 0.0, 9.999814, 9.998714 
2.0250738e+3, 2.241321e+2, -767816.56, -818871.94, -15930.632, -0.07443384, -0.08027214, -763253.56, -19755.496, 0.0, 10.00002, 9.999373 
2.025095e+3, 2.3413058e+2, -674473.06, -688514.75, -37569.746, 0.05186732, -0.2329138, -643273.8, 2235.0278, 0.0, 9.999872, 9.999648 
2.0251156e+3, 2.441303e+2, -620068.3, -690915.75, -52228.54, 0.14407417, -0.18913752, -592383.7, -44873.855, 0.0, 9.999888, 9.99897 
2.0251353e+3, 2.541315e+2, -456684.78, -545829.6, -94068.06, 0.15203035, -0.014142403, -397163.5, 52336.777, 0.0, 10.000297, 9.999083 
2.0251547e+3, 2.641307e+2, -416696.0, -639521.5, -65195.09, 0.13111174, 0.0715236, -399022.72, -47512.668, 0.000000001074916, 10.000577, 9.99765 
2.0251738e+3, 2.741273e+2, -303462.63, -515036.28, -52711.887, 0.05204329, -0.07927718, -291057.25, -37512.156, 0.0000018159459, 10.000642, 9.997769 
2.0251939e+3, 2.8412512e+2, -148346.72, -302743.28, 11615.286, 0.052538376, -0.106609404, -147477.78, 8088.1807, 0.000018189116, 10.0005865, 9.998625 
2.0252152e+3, 2.9412404e+2, -76601.5, -164670.66, 3044.2236, 0.11780072, -0.1613766, -76496.4, -18923.367, 0.000072171526, 10.000223, 9.999038 
2.0252372e+3, 3.0412254e+2, 43412.21, -96765.08, 81392.17, 0.095584735, -0.20862265, 80734.48, 80734.48, 0.00017993047, 10.000713, 9.998994 
2.025258e+3, 3.1412548e+2, 195138.16, -21197.8, -3426.4365, -0.077123754, 0.112302944, 195192.4, 195192.4, 0.00033599298, 10.001731, 9.9989805 
2.0348732e+3, 1.241064e+2, -1939191.4, -1976735.8, -23614.15, -0.016095731, -0.25141153, -1927797.0, -204056.33, 0.3135409, 9.998964, 9.998668 
2.0348889e+3, 1.3411148e+2, -1612500.3, -1366598.5, -23608.416, -0.26643252, -0.107952334, -1364352.4, 261339.06, 0.22593072, 9.998645, 10.0028305 
2.0349151e+3, 1.4411137e+2, -1625209.5, -1789256.0, 33033.9, 0.25812173, -0.18139505, -1618807.3, -91110.87, 0.13594478, 10.000145, 9.998047 
2.0349339e+3, 1.5411206e+2, -1687511.4, -1767628.3, -67574.56, 0.06703291, 0.044029746, -1649014.1, -219314.02, 0.06282382, 9.999092, 9.998003 
2.0349531e+3, 1.6411145e+2, -1524609.6, -1346714.9, -118558.98, -0.054553337, 0.06881199, -1287446.6, 44262.65, 0.019494196, 9.998262, 10.000636 
2.0349753e+3, 1.7411101e+2, -1314859.5, -1129653.9, -64378.043, 0.06661275, -0.121551536, -1109474.5, 124231.87, 0.0029308582, 9.998788, 10.001174 
2.0349962e+3, 1.8411154e+2, -1259557.9, -1191096.1, -112816.79, 0.10409631, -0.13288276, -1107431.4, 28266.39, 0.00006041413, 9.999034, 9.999993 
2.0350146e+3, 1.9411251e+2, -1172644.6, -1095959.4, -97274.01, 0.009598853, -0.06973709, -1029743.94, 7946.434, 0.0, 9.998976, 9.999985 
2.0350341e+3, 2.0411293e+2, -1094294.6, -1058138.1, -69613.91, -0.021441214, -0.0017571114, -1004293.4, -64605.977, 0.0, 9.999061, 9.9995365 
2.0350556e+3, 2.1411268e+2, -913304.8, -904749.7, -15969.718, 0.09129329, -0.02549475, -892494.56, -50805.133, 0.0, 9.999576, 9.999656 
2.0350756e+3, 2.2411211e+2, -828437.25, -856249.1, -31429.084, 0.07211742, -0.028600706, -807975.1, -64281.645, 0.0, 9.999656, 9.999285 
2.0350936e+3, 2.3411092e+2, -732139.2, -741951.9, -24460.459, -0.09583415, -0.12627889, -712097.8, -66396.43, 0.0, 9.999599, 9.999406 
2.0351133e+3, 2.4410957e+2, -710735.25, -805167.4, -54257.113, -0.11526416, -0.14740846, -686026.44, -138313.48, 0.0, 9.999569, 9.998341 
2.0351352e+3, 2.5410792e+2, -533439.25, -656234.06, -64373.55, 0.103937514, -0.1954824, -505878.25, -56147.79, 0.0, 10.00008, 9.998433 
2.0351563e+3, 2.6410666e+2, -426098.66, -570686.4, -75676.09, 0.21488889, -0.14909269, -393734.63, -41990.234, 0.000000023664393, 10.000212, 9.998289 
2.0351762e+3, 2.74106e+2, -284807.4, -419315.7, -30864.932, 0.20396873, -0.11502072, -278063.16, -24309.709, 0.0000019634658, 10.000393, 9.998545 
2.0351948e+3, 2.841055e+2, -213274.39, -334920.28, -21696.352, 0.061202247, -0.016048446, -209520.53, -53762.133, 0.000016146072, 10.000167, 9.998597 
2.0352122e+3, 2.94105e+2, -123616.85, -184144.3, 15398.74, -0.23508096, -0.0067780865, -119924.51, -62164.36, 0.00006227005, 9.999879, 9.999074 
2.0352365e+3, 3.0410177e+2, -144414.39, -319513.72, 97150.414, -0.0779517, -0.16934563, -101185.055, -101185.055, 0.00015437642, 10.000035, 9.997767 
2.0352621e+3, 3.1409913e+2, 152257.38, 107044.305, 67013.62, 0.100229, -0.2986705, 200374.81, 200374.81, 0.00029131802, 10.000864, 10.000247 
2.0448741e+3, 1.2408314e+2, -2081214.5, -2067677.6, 98712.125, 0.25995782, -0.33385178, -1975502.1, -251534.3, 0.3294151, 9.998105, 9.998484 
2.0448862e+3, 1.3408951e+2, -1570919.6, -1312837.6, -83494.055, -0.37917474, -0.06873212, -1288181.5, 337725.2, 0.23787552, 9.998851, 10.003256 
2.044916e+3, 1.4408946e+2, -1726727.8, -1795439.9, -62035.5, 0.40051845, -0.17448263, -1690170.3, -162259.52, 0.14372098, 9.999266, 9.99843 
2.044933e+3, 1.5409029e+2, -1602099.4, -1685365.1, -30500.57, 0.07187065, 0.027424183, -1592122.4, -162210.98, 0.06692591, 9.999496, 9.998376 
2.0449516e+3, 1.6408978e+2, -1409728.4, -1319100.9, 54213.773, -0.05076734, 0.052218433, -1293757.3, 38162.223, 0.021061258, 9.99915, 10.00041 
2.0449747e+3, 1.7408939e+2, -1343297.9, -1179339.9, 9421.785, 0.14852352, -0.10546607, -1178800.3, 55118.28, 0.003256253, 9.998738, 10.000864 
2.0449959e+3, 1.8409002e+2, -1317578.6, -1203270.1, -50581.945, 0.21265996, -0.0942762, -1184101.8, -48191.543, 0.00007088071, 9.998583, 10.000125 
2.0450136e+3, 1.9409114e+2, -1122694.3, -1047134.56, -59491.688, 0.017402068, -0.034479566, -1014440.5, 23460.14, 0.0, 9.999236, 10.000185 
2.0450333e+3, 2.0409153e+2, -996714.9, -973184.3, -16906.535, -0.024456918, 0.007042581, -964352.2, -24455.438, 0.0, 9.999547, 9.9999 
2.0450556e+3, 2.1409114e+2, -871725.2, -833202.56, -31951.91, 0.14973612, -0.075241886, -815155.4, 26743.35, 0.0, 9.999644, 10.0001135 
2.045076e+3, 2.240909e+2, -798513.25, -855368.7, -45167.867, 0.15964185, -0.064581715, -773571.75, -29672.424, 0.0, 9.999902, 9.999187 
2.0450938e+3, 2.340905e+2, -613270.25, -702943.2, -61710.934, -0.07559611, -0.06636355, -581827.3, 64074.707, 0.0, 10.000477, 9.999262 
2.0451133e+3, 2.4408911e+2, -554700.06, -727239.8, -41466.758, -0.10822747, -0.08518931, -545251.7, 2662.6357, 0.0, 10.00062, 9.998377 
2.0451355e+3, 2.5408638e+2, -510380.63, -634796.7, -33294.695, 0.119966276, -0.24325663, -502031.06, -52091.285, 0.0, 10.000198, 9.998521 
2.0451568e+3, 2.640849e+2, -411949.03, -532116.3, 15211.045, 0.25117028, -0.23988077, -410053.5, -58098.777, 0.00000011200642, 10.000149, 9.998588 
2.0451769e+3, 2.740851e+2, -215972.73, -356508.06, -11866.0205, 0.2352474, -0.14378934, -214977.88, 38977.62, 0.000002326167, 10.000725, 9.998818 
2.0451957e+3, 2.8408492e+2, -89756.05, -279356.6, -9953.704, 0.10301791, -0.02382026, -89234.92, 66722.85, 0.000014696717, 10.00101, 9.998577 
2.0452128e+3, 2.940842e+2, 900.3226, -125864.266, -26566.469, -0.19196849, -0.025002146, 6242.787, 64205.797, 0.00005375532, 10.0007515, 9.999052 
2.0452382e+3, 3.040819e+2, -43816.953, -283885.1, 170593.92, 0.0762494, -0.09640114, 44740.6, 44740.6, 0.00013254509, 10.000763, 9.99766 
2.0452638e+3, 3.1407776e+2, 176543.38, 94944.12, 4600.6343, 0.19178252, -0.33883497, 176801.94, 176801.94, 0.00025431596, 10.001063, 10.000084 
2.0548698e+3, 1.2406327e+2, -2055264.5, -2100773.5, 110226.06, -0.10260312, -0.09571138, -1965468.8, -241308.58, 0.3476065, 9.9984665, 9.998085 
2.0548874e+3, 1.3406585e+2, -1636247.3, -1458384.3, -53262.805, -0.182047, -0.029343357, -1443654.0, 182488.4, 0.2513395, 9.998945, 10.001934 
2.0549123e+3, 1.4406575e+2, -1524969.0, -1425128.1, -59126.434, 0.04334397, -0.18878262, -1397666.5, 130479.07, 0.15236652, 9.999428, 10.001023 
2.0549326e+3, 1.5406847e+2, -1375653.3, -1238185.3, -7468.1377, 0.03363987, -0.101716354, -1237780.6, 192334.95, 0.071473114, 9.999564, 10.001514 
2.0549527e+3, 1.6406931e+2, -1450564.9, -1449497.3, 20244.732, 0.054308333, -0.070631795, -1429779.3, -97672.16, 0.022826005, 9.999334, 9.999428 
2.0549737e+3, 1.7406867e+2, -1437174.0, -1382784.6, 2137.0293, 0.12865591, -0.11341966, -1382700.9, -148583.77, 0.0036400491, 9.998768, 9.999456 
2.0549941e+3, 1.8406878e+2, -1307590.4, -1201877.8, -47452.703, 0.1267352, -0.07096127, -1183702.0, -47584.137, 0.00008593674, 9.998652, 10.000108 
2.0550135e+3, 1.9406956e+2, -1111339.3, -1014344.4, -25895.955, 0.03252817, -0.070012726, -1007863.6, 30245.96, 0.0, 9.999183, 10.000442 
2.0550331e+3, 2.0406957e+2, -1032891.56, -1003208.56, -27307.33, -0.019732568, -0.08102131, -986970.2, -46862.016, 0.0, 9.999353, 9.999786 
2.0550542e+3, 2.1406844e+2, -917622.56, -872525.94, -14972.589, 0.0110273985, -0.22162865, -868007.56, -25890.889, 0.0, 9.999401, 9.99996 
2.0550747e+3, 2.2406824e+2, -860802.0, -898844.94, -41251.42, 0.0033777645, -0.19334628, -834397.75, -90279.41, 0.0, 9.999539, 9.999061 
2.055095e+3, 2.340692e+2, -657521.94, -732600.75, -24832.443, -0.03164576, -0.04960991, -650051.8, -3940.137, 0.0, 10.000214, 9.999186 
2.055115e+3, 2.4406882e+2, -564403.94, -659557.56, -69105.39, -0.024256554, 0.005322317, -528081.4, 20033.518, 0.0, 10.000253, 9.999013 
2.0551352e+3, 2.5406653e+2, -503956.9, -552810.9, -31985.555, 0.06469461, -0.18259382, -488137.75, -38005.547, 0.0, 9.999914, 9.999215 
2.0551555e+3, 2.64065e+2, -477856.06, -576011.44, 16705.055, 0.070543915, -0.21533653, -475090.9, -122945.94, 0.00000017468948, 9.999758, 9.998469 
2.0551756e+3, 2.7406445e+2, -274210.72, -414548.75, 28480.297, 0.003292516, -0.17389649, -268651.16, -14497.678, 0.0000023499456, 10.000448, 9.998556 
2.0551959e+3, 2.8406337e+2, -183595.7, -355327.72, -31054.148, -0.04145999, -0.11840696, -178152.73, -21987.002, 0.000012296112, 10.0005245, 9.998278 
2.0552161e+3, 2.9406148e+2, -67870.81, -190476.66, -10710.62, 0.022655202, -0.22134952, -66942.19, -8758.85, 0.000044415407, 10.000422, 9.998761 
2.0552415e+3, 3.0406165e+2, -94585.695, -240029.19, 151987.95, 0.27260765, -0.062366396, 1182.2969, 1182.2969, 0.00011238728, 10.000165, 9.998227 
2.0552622e+3, 3.1406027e+2, -102211.52, -255463.05, -43555.723, -0.13190165, -0.102670565, -90697.58, -90697.58, 0.00022372513, 10.000134, 9.998102 
2.0648679e+3, 1.2403891e+2, -2098562.3, -2193262.5, 37701.793, -0.11360317, -0.15681027, -2085385.8, -360989.84, 0.36771804, 9.998482, 9.997405 
2.0648897e+3, 1.3404249e+2, -1501912.1, -1352606.8, -23464.666, 0.12082743, -0.053070348, -1349005.9, 277364.6, 0.26616043, 9.999836, 10.002508 
2.06491e+3, 1.4404334e+2, -1678578.1, -1437745.5, 11210.972, -0.07140239, -0.17896974, -1437224.8, 91139.17, 0.1618756, 9.998054, 10.001597 
2.0649314e+3, 1.5404575e+2, -1472151.0, -1203879.5, -107122.87, 0.03079577, -0.19736242, -1166353.6, 263980.44, 0.07651462, 9.998507, 10.0022955 
2.0649521e+3, 1.640472e+2, -1506639.5, -1468315.9, -124861.94, 0.12458916, -0.15205361, -1361154.0, -28835.314, 0.024829434, 9.998944, 9.999469 
2.064973e+3, 1.7404722e+2, -1392423.5, -1369045.3, -80104.37, 0.16841607, -0.12168519, -1299781.6, -65457.1, 0.0041003036, 9.999131, 9.99936 
2.0649932e+3, 1.8404727e+2, -1252746.5, -1187887.1, -26811.646, 0.17440419, -0.07290839, -1178238.9, -41911.598, 0.000108260756, 9.999094, 9.999976 
2.0650132e+3, 1.9404753e+2, -1074377.9, -1003596.25, -56868.5, 0.08444759, -0.11441451, -972005.44, 66318.78, 0.0, 9.999471, 10.000369 
2.0650332e+3, 2.0404752e+2, -992661.06, -981523.8, -56804.09, 0.029847436, -0.12330539, -930016.06, 10307.311, 0.0, 9.99962, 9.999799 
2.0650534e+3, 2.1404697e+2, -875701.75, -855261.94, -66162.21, -0.011156266, -0.20431514, -798534.94, 43792.047, 0.0, 9.99971, 9.99993 
2.0650741e+3, 2.2404681e+2, -822469.44, -888481.25, -40797.355, 0.0010249862, -0.16299282, -802998.56, -58669.766, 0.0, 9.99983, 9.998995 
2.0650959e+3, 2.3404714e+2, -689516.8, -754538.3, -54163.7, 0.07213495, -0.075141385, -658855.94, -12527.184, 0.0, 10.000029, 9.999117 
2.0651168e+3, 2.440469e+2, -562088.0, -634358.7, -105309.375, 0.11678348, -0.013491159, -486886.78, 61444.242, 0.0, 10.000163, 9.9992285 
2.0651355e+3, 2.5404558e+2, -437119.44, -489202.72, -138529.97, 0.09117232, -0.1254558, -322204.63, 128133.875, 0.0, 10.000241, 9.999489 
2.065155e+3, 2.6404428e+2, -411268.34, -518119.9, -55222.57, 0.05129053, -0.16496861, -387857.63, -35509.14, 0.00000012472299, 10.000083, 9.998726 
2.0651753e+3, 2.7404302e+2, -365976.1, -420223.1, -40570.832, -0.014903405, -0.21493812, -344297.16, -89935.35, 0.0000018192295, 9.999658, 9.9988985 
2.0651963e+3, 2.840421e+2, -253927.39, -375069.1, -12990.864, 0.015822185, -0.1727559, -252549.95, -96177.79, 0.000008845643, 9.999963, 9.998429 
2.0652182e+3, 2.9404104e+2, 39820.38, -134274.08, -23247.582, 0.16430022, -0.19583286, 42871.26, 101254.89, 0.000033872344, 10.001145, 9.998802 
2.0652422e+3, 3.0404076e+2, 209286.95, -28414.994, 178394.7, 0.27435103, -0.10947861, 304796.03, 304796.03, 0.00009226976, 10.001886, 9.998898 
2.0652637e+3, 3.1404102e+2, 123616.14, -142763.4, -174931.95, -0.058300063, -0.0515321, 210291.55, 210291.55, 0.0001939828, 10.001603, 9.998205 
2.0748672e+3, 1.24011e+2, -2158142.8, -2389659.0, -168290.86, -0.16310944, -0.47322655, -2069641.8, -344976.0, 0.38886976, 9.998795, 9.99591 
2.0748924e+3, 1.3401914e+2, -1381337.6, -1123914.9, -56191.875, 0.350081, -0.17283747, -1112183.6, 514409.38, 0.28190908, 9.999951, 10.0047035 
2.0749077e+3, 1.4402226e+2, -1749585.0, -1605072.4, -37705.0, -0.14916645, -0.117501415, -1595826.4, -67261.13, 0.17213808, 9.998213, 10.000255 
2.0749292e+3, 1.5402198e+2, -1567395.3, -1399456.1, -80330.15, -0.088993646, -0.2547771, -1367219.8, 63348.61, 0.08207624, 9.998553, 10.000827 
2.0749502e+3, 1.6402324e+2, -1408029.6, -1299378.1, -128610.8, -0.030636946, -0.2019396, -1214090.1, 118466.73, 0.027111659, 9.999094, 10.000572 
2.074972e+3, 1.7402497e+2, -1300451.1, -1182165.8, -66417.31, 0.13538638, -0.12744947, -1152375.1, 82166.18, 0.0046569863, 9.999156, 10.000628 
2.074993e+3, 1.8402551e+2, -1261601.9, -1227278.4, -32874.082, 0.18251358, -0.08582629, -1207356.0, -70818.34, 0.00014131474, 9.999182, 9.999664 
2.0750125e+3, 1.9402495e+2, -1119133.8, -1081461.6, -34531.887, 0.044404406, -0.1616904, -1060962.6, -22417.242, 0.0000000002137382, 9.999401, 9.99987 
2.0750323e+3, 2.0402522e+2, -1013320.56, -985910.75, -71642.89, -0.057144597, -0.1182286, -926673.7, 13870.307, 0.0, 9.999445, 9.999856 
2.075053e+3, 2.1402648e+2, -896122.75, -849752.1, -48109.008, -0.060368717, -0.032589395, -819533.0, 22998.693, 0.0, 9.999497, 10.00007 
2.0750742e+3, 2.240264e+2, -882116.75, -927034.0, -43213.27, -0.02051887, 0.00863986, -855874.5, -111341.914, 0.0, 9.999475, 9.998896 
2.0750964e+3, 2.3402427e+2, -741762.2, -791874.6, -30043.934, 0.10164437, -0.13769642, -727697.4, -81143.695, 0.0, 9.99974, 9.998993 
2.0751172e+3, 2.4402319e+2, -637639.06, -698127.3, -114345.664, 0.12947029, -0.14136586, -549605.4, -1041.4597, 0.0, 9.999767, 9.998979 
2.0751357e+3, 2.540234e+2, -491374.63, -544816.5, -119009.33, 0.05196114, -0.075772546, -396123.3, 54437.07, 0.0, 10.0, 9.99922 
2.0751551e+3, 2.6402265e+2, -429176.13, -460066.84, -87681.17, -0.0037779412, -0.0746441, -355590.3, -3024.463, 0.000000021824269, 9.999689, 9.99931 
2.0751755e+3, 2.740206e+2, -356940.84, -330172.16, -38777.64, 0.017335817, -0.27792966, -302534.0, -47950.977, 0.00000084431264, 9.999367, 9.999654 
2.075197e+3, 2.840205e+2, -296929.84, -351536.13, 3010.2446, 0.04405822, -0.21128452, -296764.4, -140181.13, 0.000005133315, 9.999497, 9.998804 
2.0752187e+3, 2.940222e+2, -1321.467, -144372.05, 44280.297, 0.07174105, 0.010878954, 11275.844, 69845.3, 0.000023723636, 10.000806, 9.998899 
2.0752402e+3, 3.040192e+2, 130594.52, 1976.8123, 146034.88, -0.1459937, -0.19802104, 225853.25, 225853.25, 0.00007270888, 10.001122, 9.999439 
2.0752658e+3, 3.140212e+2, 75528.26, 24528.77, -114324.61, -0.07380667, -0.0663192, 167162.42, 167162.42, 0.00016093491, 10.000564, 9.999803 
2.084866e+3, 1.2399083e+2, -1871235.5, -2098604.3, 115965.48, -0.19783281, -0.405951, -1822525.0, -97662.914, 0.40993002, 10.000125, 9.997252 
2.0848899e+3, 1.3399632e+2, -1622908.0, -1337454.4, -79247.21, 0.20792888, -0.28012192, -1316929.6, 309883.56, 0.29801235, 9.998253, 10.003543 
2.0849082e+3, 1.4399992e+2, -1805787.6, -1651395.0, -80879.586, 0.09597337, -0.1119893, -1616784.4, -88002.8, 0.18298064, 9.997947, 10.0000515 
2.0849277e+3, 1.5399936e+2, -1621668.5, -1466956.6, -56195.586, -0.057654437, -0.24184088, -1448699.4, -17908.607, 0.088167645, 9.998372, 10.000423 
2.0849484e+3, 1.6400075e+2, -1469194.1, -1281288.0, -56166.36, -0.055357035, -0.171422, -1265779.5, 66999.695, 0.029713616, 9.998437, 10.001033 
2.0849709e+3, 1.740026e+2, -1291527.9, -1112391.0, -79222.2, 0.1353238, -0.14320903, -1082382.4, 152377.9, 0.005333032, 9.9989, 10.001258 
2.0849922e+3, 1.8400343e+2, -1275006.1, -1191904.6, -26105.578, 0.21022674, -0.12674658, -1184384.4, -47631.746, 0.00018960002, 9.998916, 10.000044 
2.0850118e+3, 1.9400343e+2, -1169115.8, -1069603.3, 7369.9746, 0.061537527, -0.17577745, -1069060.4, -30306.244, 0.000000020895914, 9.998924, 10.000175 
2.085032e+3, 2.0400405e+2, -1069952.1, -1014175.75, 32811.77, -0.009777287, -0.112304345, -999001.6, -58252.027, 0.0, 9.999101, 9.99981 
2.0850532e+3, 2.1400522e+2, -846833.44, -833102.06, 6352.0493, 0.014554034, -0.02582343, -830614.4, 12124.76, 0.0, 9.999886, 9.999984 
2.0850746e+3, 2.2400509e+2, -763652.4, -845575.06, 21480.166, 0.076751, 0.0033713598, -758361.94, -13621.24, 0.0, 10.000161, 9.999137 
2.0850967e+3, 2.3400296e+2, -715594.25, -748875.7, 31982.377, 0.15821859, -0.16999994, -696182.44, -49422.188, 0.0, 9.999761, 9.99929 
2.0851173e+3, 2.4400182e+2, -649912.56, -721263.4, 16558.75, 0.17126118, -0.19216321, -646257.0, -97485.93, 0.0, 9.999749, 9.998829 
2.0851357e+3, 2.5400183e+2, -444427.6, -549020.06, -13057.159, 0.057676654, -0.121921934, -442822.2, 7949.376, 0.0, 10.000431, 9.998985 
2.0851552e+3, 2.640013e+2, -282376.94, -381920.75, 4626.344, 0.016381249, -0.08604792, -282162.38, 70613.36, 0.0, 10.000663, 9.999378 
2.0851758e+3, 2.7400002e+2, -230168.31, -262568.53, -30922.426, 0.06223601, -0.21833327, -211459.39, 43325.664, 0.000000115745564, 10.000204, 9.999715 
2.0851976e+3, 2.8399974e+2, -209201.52, -320260.72, 44048.484, 0.13437921, -0.17049767, -193852.31, -37065.754, 0.0000020138657, 10.000117, 9.998728 
2.0852202e+3, 2.9400045e+2, -56292.94, -168832.89, 13142.827, 0.16334462, -0.03321076, -54778.453, 4002.7166, 0.000014504671, 10.000433, 9.998907 
2.0852405e+3, 3.0399853e+2, 104957.56, 13912.824, 124654.75, -0.184039, -0.15636992, 192141.98, 192141.98, 0.000053405533, 10.000776, 9.999718 
2.0852678e+3, 3.1399915e+2, 120238.11, -10852.842, -223521.8, 0.07580369, -0.15938124, 287626.53, 287626.53, 0.000125829, 10.00098, 9.999416 
2.0948677e+3, 1.23976626e+2, -1594305.0, -1511890.4, 127487.28, -0.16840784, -0.15202175, -1419116.3, 305885.78, 0.42994058, 10.000258, 10.002322 
2.0948821e+3, 1.3397408e+2, -1919597.6, -1866464.0, -138394.61, -0.4438621, -0.3726398, -1752109.4, -125078.164, 0.31401625, 9.998347, 9.999023 
2.0949101e+3, 1.4397615e+2, -1717787.4, -1524473.1, -81008.01, 0.42677513, -0.16264236, -1495015.6, 33999.15, 0.19429262, 9.998148, 10.000882 
2.0949267e+3, 1.5397783e+2, -1564657.6, -1373120.6, -34700.965, -0.03964779, -0.14795016, -1367027.6, 63974.594, 0.094824284, 9.9984455, 10.001079 
2.0949468e+3, 1.6397971e+2, -1452639.5, -1289702.3, -64901.68, -0.14527862, -0.05001433, -1267010.5, 65975.39, 0.032688897, 9.998615, 10.000892 
2.0949693e+3, 1.739802e+2, -1286727.5, -1110702.9, -54032.023, 0.033918235, -0.15396719, -1095440.8, 139540.22, 0.0061590113, 9.998932, 10.001256 
2.0949902e+3, 1.8398109e+2, -1186668.1, -1032507.4, -42844.965, 0.065673664, -0.18126118, -1021400.0, 115571.29, 0.00026052183, 9.999014, 10.001092 
2.0950103e+3, 1.9398306e+2, -1101751.5, -916799.4, 15932.698, -0.007755623, -0.14442205, -915436.9, 123512.96, 0.00000016154512, 9.998865, 10.001254 
2.0950314e+3, 2.0398399e+2, -1118208.0, -1070894.6, 43388.43, -0.011283511, -0.09588125, -1045132.7, -104192.72, 0.0, 9.998914, 9.999511 
2.095054e+3, 2.1398315e+2, -917539.8, -917278.75, 47332.492, 0.080881126, -0.16772343, -870076.6, -27126.688, 0.0, 9.999626, 9.999524 
2.0950757e+3, 2.2398277e+2, -775690.06, -788797.56, -2706.0764, 0.113279946, -0.16376927, -775153.3, -30199.248, 0.0, 9.999808, 9.999696 
2.095096e+3, 2.3398302e+2, -706932.1, -667961.8, 31566.928, 0.092662714, -0.16797584, -650350.56, -3400.5874, 0.0, 9.99949, 9.999977 
2.095116e+3, 2.4398255e+2, -716901.0, -767099.1, 22928.46, 0.04297198, -0.15596418, -708004.8, -159050.67, 0.0, 9.99935, 9.998707 
2.0951355e+3, 2.5398076e+2, -494770.53, -596602.5, 28338.574, -0.030311663, -0.24892613, -487415.5, -36442.65, 0.0, 10.000181, 9.99878 
2.0951553e+3, 2.6398012e+2, -373459.4, -481146.94, -26189.621, -0.08568553, -0.19336024, -367427.9, -14448.184, 0.0, 10.00029, 9.998871 
2.0951752e+3, 2.7398098e+2, -312874.9, -372382.16, -31380.645, -0.038532957, -0.05811217, -299384.78, -44413.086, 0.0, 9.999944, 9.999082 
2.0951974e+3, 2.839797e+2, -323966.4, -441523.78, 31979.531, 0.08430183, -0.044858404, -315830.03, -158846.63, 0.00000039293647, 9.999628, 9.998128 
2.0952217e+3, 2.9397604e+2, -124434.94, -230511.2, 53646.633, 0.24252512, -0.2982953, -102034.32, -43017.55, 0.000007667558, 10.00009, 9.998651 
2.0952417e+3, 3.0397722e+2, -34048.22, -72530.46, 109082.516, -0.18389562, -0.09766389, 57477.152, 57477.152, 0.000037309022, 9.999974, 9.999482 
2.09527e+3, 3.139745e+2, -146293.34, -295860.75, 11235.107, 0.11530375, -0.3929048, -145454.1, -145454.1, 0.0000961441, 9.999928, 9.997922 
2.1048696e+3, 1.23956405e+2, -1712377.0, -1435668.0, 40945.445, 0.16680282, -0.0005171489, -1429736.3, 295465.84, 0.44859928, 9.997761, 10.004554 
2.1048795e+3, 1.3395111e+2, -1921039.6, -1982460.3, -208417.19, -0.55668867, -0.44902685, -1741082.4, -113825.58, 0.3298663, 9.99881, 9.99802 
2.1049094e+3, 1.4395386e+2, -1496308.0, -1414074.1, -18116.115, 0.49604005, -0.11943482, -1410260.0, 118973.27, 0.20615475, 9.999634, 10.001068 
2.1049255e+3, 1.5395607e+2, -1496603.0, -1279673.0, -43409.043, 0.0111544905, -0.109794244, -1271309.0, 159905.47, 0.10215144, 9.998643, 10.0016775 
2.104945e+3, 1.6395767e+2, -1560840.9, -1335320.0, -3389.1272, -0.12258283, -0.07505486, -1335269.0, -2068.2388, 0.036114734, 9.997874, 10.000899 
2.1049678e+3, 1.7395835e+2, -1328429.1, -1132176.9, -13497.446, 0.016118139, -0.16216277, -1131252.9, 103941.81, 0.007176738, 9.998655, 10.001226 
2.1049893e+3, 1.8395959e+2, -1167928.1, -1021370.3, -29593.752, 0.06958047, -0.15491195, -1015620.2, 121561.805, 0.0003661867, 9.99913, 10.001115 
2.1050097e+3, 1.9396141e+2, -996432.5, -863165.0, -83135.12, 0.020710805, -0.13190949, -823255.3, 215906.73, 0.00000091193453, 9.999575, 10.001282 
2.1050313e+3, 2.0396216e+2, -970363.6, -971129.56, -43640.26, 0.05409705, -0.11780067, -927104.6, 14048.745, 0.0, 9.999758, 9.999814 
2.1050544e+3, 2.1396106e+2, -867582.94, -866779.6, -7479.5493, 0.15611693, -0.24368453, -859690.94, -16527.299, 0.0, 9.999799, 9.999823 
2.1050762e+3, 2.2396097e+2, -799993.0, -783347.06, -35494.344, 0.19996044, -0.23088618, -755212.94, -10048.365, 0.0, 9.999597, 9.999818 
2.1050957e+3, 2.3396221e+2, -709729.44, -657278.1, -83955.02, 0.12457912, -0.1443938, -595547.94, 51605.332, 0.0, 9.999446, 10.000053 
2.1051157e+3, 2.4396218e+2, -654549.5, -690363.9, -48229.12, 0.07589366, -0.106911704, -621010.44, -71857.17, 0.0, 9.999551, 9.999152 
2.1051359e+3, 2.539603e+2, -504258.06, -549134.3, -18725.816, 0.011679062, -0.25380856, -497470.75, -46300.176, 0.0, 9.999882, 9.999262 
2.105156e+3, 2.639594e+2, -387177.78, -560947.6, -26138.371, -0.01918897, -0.21915518, -383331.2, -30151.871, 0.0, 10.000491, 9.998236 
2.1051763e+3, 2.7395964e+2, -137161.52, -378604.66, -82070.38, 0.0042886278, -0.06336492, -111906.21, 143273.6, 0.0, 10.001531, 9.998281 
2.1051988e+3, 2.8395778e+2, 19929.45, -274134.5, 17468.123, 0.13621116, -0.06138633, 20963.463, 178161.39, 0.00000006547354, 10.002024, 9.998096 
2.1052231e+3, 2.939534e+2, 99566.56, -127947.98, 12269.714, 0.30282044, -0.38045436, 100226.35, 159463.58, 0.000004738257, 10.001695, 9.998562 
2.105244e+3, 3.0395496e+2, 122417.88, -62360.707, 92695.55, -0.005002004, -0.10807504, 160903.52, 160903.52, 0.00002905632, 10.001296, 9.99892 
2.10527e+3, 3.1395194e+2, 37470.39, -78271.43, -64406.9, 0.10207356, -0.3741365, 66186.375, 66186.375, 0.00007991688, 10.000601, 9.999095 
2.1148655e+3, 1.2392458e+2, -1895441.1, -1685915.9, 94383.055, -0.15532044, -0.49917614, -1649670.1, 75847.1, 0.46656317, 9.997946, 10.001525 
2.1148807e+3, 1.3392706e+2, -1715539.3, -1595098.4, -116215.914, -0.3597001, -0.53111684, -1524427.1, 103066.695, 0.34608045, 9.998938, 10.000882 
2.114906e+3, 1.4393297e+2, -1489171.1, -1454222.0, -34397.496, 0.09628367, 0.005162507, -1433114.9, 96322.66, 0.21890919, 9.99992, 10.000598 
2.114924e+3, 1.539341e+2, -1436713.4, -1202098.0, -74695.055, -0.052503422, -0.12475387, -1180335.8, 251091.84, 0.110347085, 9.998805, 10.002209 
2.1149428e+3, 1.6393444e+2, -1519987.6, -1293869.4, -6491.4424, -0.18629321, -0.266276, -1293683.3, 39742.55, 0.040102176, 9.998047, 10.001115 
2.114966e+3, 1.7393693e+2, -1329256.5, -1144874.8, 25580.9, -0.05664115, -0.16575524, -1141391.5, 94011.03, 0.008443992, 9.998691, 10.001127 
2.1149886e+3, 1.8393879e+2, -1231209.5, -1165374.9, -32230.037, 0.034138303, -0.04664277, -1152223.5, -14837.504, 0.00052604213, 9.999184, 10.000098 
2.1150096e+3, 1.9393843e+2, -1087001.3, -1026029.1, -58870.93, 0.009231053, -0.13295543, -990219.0, 49172.625, 0.0000034897541, 9.999473, 10.000207 
2.115031e+3, 2.039384e+2, -944869.2, -863236.94, -58038.16, 0.0037140467, -0.17610411, -833099.6, 108291.375, 0.0, 9.999524, 10.000667 
2.1150537e+3, 2.1393901e+2, -832267.94, -726202.2, 4730.162, 0.09976333, -0.2383537, -725991.7, 117387.92, 0.0, 9.999535, 10.000907 
2.1150754e+3, 2.2393976e+2, -885190.0, -877947.75, -54621.016, 0.1398379, -0.18249169, -826827.94, -81456.7, 0.0, 9.999235, 9.999345 
2.1150954e+3, 2.3394033e+2, -789526.75, -772072.2, -73624.85, 0.11763681, -0.09725056, -706659.2, -59287.977, 0.0, 9.999219, 9.999376 
2.1151155e+3, 2.4394053e+2, -644795.44, -582866.25, -50115.492, 0.06798575, -0.044290803, -554921.0, -5550.9893, 0.0, 9.999181, 10.000061 
2.1151362e+3, 2.5394014e+2, -459905.1, -404474.84, 7042.6616, 0.035930153, -0.15614842, -403594.06, 47773.48, 0.0, 9.999662, 10.000351 
2.1151572e+3, 2.6393893e+2, -509830.53, -714982.94, -3604.2222, 0.015032104, -0.17692357, -509767.22, -156390.19, 0.0, 10.0000725, 9.997372 
2.1151783e+3, 2.7393618e+2, -241662.89, -536133.75, -20440.133, 0.023893964, -0.22087346, -240250.86, 15156.85, 0.0, 10.001275, 9.997317 
2.1152002e+3, 2.839337e+2, -41898.06, -293792.53, -6904.0776, 0.031847622, -0.24011672, -41708.97, 115724.48, 0.00000005479561, 10.001556, 9.998187 
2.1152237e+3, 2.9393178e+2, 43866.7, -172822.84, 31401.473, 0.15084386, -0.33889693, 48325.484, 107775.39, 0.0000044706885, 10.0013685, 9.998418 
2.115246e+3, 3.039313e+2, -101321.96, -286925.94, 38210.785, 0.031556856, -0.18970782, -93763.234, -93763.234, 0.000027145721, 10.000342, 9.9978 
2.1152675e+3, 3.1393135e+2, 57993.477, 230134.73, 28555.47, -0.271865, -0.0974834, 234748.0, 234748.0, 0.00007500438, 9.999543, 10.001691 
2.1248657e+3, 1.23910494e+2, -1701519.4, -1535380.5, 35561.29, 0.03166405, 0.24586332, -1528088.8, 197568.03, 0.48543465, 9.998491, 10.0031595 
2.1248806e+3, 1.3390532e+2, -1669275.5, -1498986.1, -18460.299, -0.23725218, -0.5821256, -1497007.9, 130698.94, 0.3637423, 9.998713, 10.001859 
2.1249034e+3, 1.439125e+2, -1914177.9, -1652202.6, 67959.56, 0.0044313483, 0.036027703, -1635622.4, -105985.52, 0.23315269, 9.996955, 10.000525 
2.1249229e+3, 1.5391289e+2, -1515993.4, -1246087.6, -25469.629, -0.013077369, -0.16105253, -1243705.3, 187928.2, 0.1197026, 9.998243, 10.002177 
2.1249421e+3, 1.6391274e+2, -1407222.5, -1264128.6, 38890.473, -0.093515225, -0.33991644, -1254242.0, 79393.73, 0.044803485, 9.998898, 10.000942 
2.1249649e+3, 1.7391528e+2, -1323382.8, -1173211.0, 31671.252, -0.0499793, -0.20658861, -1166804.8, 68807.82, 0.01004214, 9.998861, 10.000858 
2.1249872e+3, 1.839172e+2, -1321132.1, -1228509.1, 19509.514, 0.037852436, -0.058956776, -1224567.5, -86971.17, 0.0007722133, 9.998647, 9.99992 
2.125009e+3, 1.9391677e+2, -1184174.0, -1096451.9, 34593.344, 0.054982357, -0.13678332, -1084451.6, -44848.13, 0.000010944595, 9.998885, 10.000017 
2.1250308e+3, 2.0391674e+2, -1012787.1, -890839.2, 64243.215, 0.082063206, -0.16906564, -863241.06, 78361.99, 0.0, 9.999058, 10.000686 
2.1250533e+3, 2.1391743e+2, -842015.44, -720960.7, 16921.986, 0.10836946, -0.23024876, -718639.7, 124950.31, 0.0, 9.999452, 10.000958 
2.1250747e+3, 2.2391793e+2, -806674.06, -845139.4, -42563.13, 0.14131477, -0.20177665, -779200.0, -33616.574, 0.0, 9.9997835, 9.999311 
2.1250947e+3, 2.3391795e+2, -673041.7, -718943.9, -42108.938, 0.11309423, -0.16565342, -648035.4, -447.1089, 0.0, 10.0000305, 9.9993515 
2.1251152e+3, 2.4391812e+2, -507874.56, -539210.2, 1582.6846, 0.09047213, -0.106162556, -507794.8, 41793.13, 0.0, 10.000245, 9.999838 
2.1251364e+3, 2.539183e+2, -361932.53, -389149.9, -76691.71, 0.06497102, -0.124827616, -297651.47, 153930.58, 0.0, 10.000495, 10.000055 
2.1251585e+3, 2.6391712e+2, -391045.34, -635407.3, -71756.82, 0.094254486, -0.13180347, -371532.16, -17940.314, 0.0, 10.000803, 9.997559 
2.1251802e+3, 2.7391356e+2, -259275.28, -518511.25, -43328.48, 0.119511165, -0.2708848, -252225.13, 3403.603, 0.0, 10.001067, 9.997529 
2.125202e+3, 2.8391144e+2, -96046.23, -329764.9, 13257.6455, 0.10298209, -0.26585186, -95296.59, 62354.098, 0.000000117451826, 10.001183, 9.99815 
2.1252242e+3, 2.93911e+2, -15423.665, -211227.55, -19812.996, 0.09929004, -0.19682032, -13438.946, 46214.973, 0.0000050467984, 10.000985, 9.998352 
2.1252479e+3, 3.0390862e+2, 5565.5547, -332615.28, 65502.176, 0.14186683, -0.19677937, 17809.371, 17809.371, 0.00002697455, 10.001373, 9.997064 
2.1252693e+3, 3.1390944e+2, 330868.47, 323635.97, -94050.45, -0.13472718, 0.0770816, 421372.2, 421372.2, 0.00007158717, 10.001441, 10.001507 
2.1348791e+3, 1.3388707e+2, -1743072.8, -1602476.6, -122838.83, -0.29463947, -0.44031107, -1531243.1, 96641.09, 0.38411817, 9.998768, 10.000894 
2.1349008e+3, 1.43892e+2, -1881972.3, -1627653.3, 46486.96, -0.019087203, -0.048289534, -1619422.3, -89586.73, 0.24951555, 9.997128, 10.000606 
2.1349217e+3, 1.5389225e+2, -1536358.5, -1310721.8, 28812.396, -0.019626295, -0.21647434, -1307100.8, 124732.82, 0.13052814, 9.998363, 10.001623 
2.1349424e+3, 1.6389264e+2, -1411801.1, -1322142.5, 26092.26, -0.041533712, -0.29296902, -1315102.0, 18728.727, 0.050404422, 9.999111, 10.0004225 
2.1349634e+3, 1.7389339e+2, -1352485.8, -1239567.4, 36945.168, -0.10175557, -0.28894803, -1228553.6, 7271.489, 0.012084308, 9.998889, 10.000383 
2.1349852e+3, 1.8389466e+2, -1268496.5, -1139869.9, 11344.763, -0.10954771, -0.2054576, -1138876.9, -1062.7888, 0.001155736, 9.998732, 10.000487 
2.1350078e+3, 1.9389638e+2, -1146142.0, -1005857.44, 54047.82, 0.018914085, -0.13613287, -987449.7, 52348.367, 0.000030850606, 9.998829, 10.0006695 
2.1350303e+3, 2.0389704e+2, -1101650.4, -1024543.25, 62919.742, 0.0808009, -0.09777443, -989304.75, -47514.035, 0.0, 9.998843, 9.999871 
2.1350525e+3, 2.1389605e+2, -948304.44, -880806.0, 44285.945, 0.0612682, -0.22834858, -858875.3, -15077.776, 0.0, 9.999196, 9.999981 
2.1350737e+3, 2.2389546e+2, -837694.06, -810978.25, -43208.08, 0.019930478, -0.27707747, -779110.4, -33308.88, 0.0, 9.999376, 9.999734 
2.1350938e+3, 2.3389511e+2, -671690.44, -660058.94, -19450.57, -0.023979867, -0.3338444, -645573.3, 2231.036, 0.0, 9.999793, 9.99987 
2.1351145e+3, 2.4389488e+2, -666582.9, -785549.1, -4272.819, -0.061192106, -0.27510643, -666429.6, -116621.42, 0.0, 9.999893, 9.998313 
2.1351363e+3, 2.5389466e+2, -513767.38, -656411.6, -51189.33, -0.034855235, -0.16386165, -497298.88, -45483.844, 0.0, 10.000286, 9.998317 
2.1351586e+3, 2.6389366e+2, -385830.44, -531244.3, -74525.55, 0.024770245, -0.09853434, -354420.34, -593.5903, 0.0, 10.00042, 9.998451 
2.1351819e+3, 2.738913e+2, -216291.95, -372700.44, -15210.742, 0.14260706, -0.24137913, -214826.44, 41021.58, 0.00000000014169585, 10.00082, 9.9986515 
2.1352033e+3, 2.8389013e+2, -200261.03, -414767.44, -11467.639, 0.09193041, -0.18221024, -199649.7, -41791.402, 0.000000256191, 10.000655, 9.997798 
2.1352242e+3, 2.9389057e+2, -81012.28, -274661.3, 8799.005, -0.03355682, 0.003992592, -80613.3, -20758.953, 0.0000052967753, 10.000667, 9.998064 
2.135248e+3, 3.0388582e+2, -164463.3, -456690.56, 64337.133, -0.035950504, -0.20875289, -150925.88, -150925.88, 0.000025200057, 10.000483, 9.996598 
2.1352717e+3, 3.138825e+2, -48006.703, -131157.11, -56103.035, -0.09804179, -0.28744927, -19753.201, -19753.201, 0.00006359548, 10.000138, 9.99895 
2.1448782e+3, 1.338682e+2, -1996207.8, -1671378.1, -69430.65, -0.12637463, -0.31700864, -1657160.0, -29092.08, 0.40760165, 9.996838, 10.001011 
2.1448992e+3, 1.4387038e+2, -1673786.1, -1552608.1, 27576.861, 0.04087257, -0.2049385, -1546627.5, -16582.068, 0.26811564, 9.998666, 10.000379 
2.1449204e+3, 1.5387155e+2, -1487791.1, -1335066.9, 13473.707, 0.023942398, -0.23961759, -1333887.3, 98147.914, 0.14296411, 9.998925, 10.001164 
2.1449421e+3, 1.6387266e+2, -1482560.5, -1396496.5, 13860.903, 0.07685173, -0.19707012, -1394319.3, -60293.168, 0.057087187, 9.998833, 10.000032 
2.1449631e+3, 1.7387252e+2, -1372726.9, -1282466.9, -462.2758, -0.015313133, -0.2539609, -1282464.5, -46434.55, 0.014719365, 9.99893, 10.000056 
2.1449843e+3, 1.8387297e+2, -1241428.3, -1147032.8, -5976.831, -0.044314247, -0.22497626, -1146655.8, -8629.2295, 0.0017550356, 9.99901, 10.000303 
2.1450073e+3, 1.9387442e+2, -1023403.6, -961596.75, -47962.203, 0.061950225, -0.16684763, -935444.1, 104567.33, 0.00008036648, 9.999749, 10.00052 
2.14503e+3, 2.03875e+2, -978233.5, -989454.56, -42996.277, 0.1372214, -0.1191889, -940483.25, 1521.5234, 0.000000018813253, 9.999797, 9.999657 
2.145052e+3, 2.1387409e+2, -968740.0, -917574.94, -33021.355, 0.107706904, -0.2204068, -901385.75, -57373.023, 0.0, 9.999154, 9.999762 
2.1450733e+3, 2.238734e+2, -879159.9, -832726.7, -52413.188, 0.07231418, -0.26126695, -798618.3, -52600.395, 0.0, 9.999101, 9.9997225 
2.1450937e+3, 2.3387292e+2, -621340.9, -633237.06, -95332.93, -0.011754173, -0.32758236, -531770.7, 116250.234, 0.0, 10.00014, 9.999889 
2.1451147e+3, 2.4387236e+2, -569738.94, -786220.44, -59451.473, -0.047295414, -0.28284213, -554486.6, -4458.6104, 0.0, 10.000752, 9.997902 
2.1451367e+3, 2.5387153e+2, -483695.16, -695102.5, -44775.996, -0.036279753, -0.18345395, -474602.7, -22559.816, 0.0, 10.000714, 9.9978485 
2.1451594e+3, 2.6387048e+2, -303700.44, -455898.72, -3680.0232, 0.03506779, -0.114103906, -303611.53, 50444.31, 0.0, 10.000804, 9.998796 
2.1451828e+3, 2.7386904e+2, -146433.8, -285144.6, -34080.98, 0.14931788, -0.20441961, -138512.52, 117554.055, 0.00000000016893417, 10.001071, 9.999134 
2.1452048e+3, 2.838683e+2, -102990.93, -381397.28, -20597.955, 0.15579732, -0.12801868, -101475.234, 56596.566, 0.0000002738674, 10.001332, 9.997716 
2.1452259e+3, 2.938679e+2, 49592.76, -208841.95, -28163.813, 0.036732167, -0.0057033803, 52626.4, 112702.625, 0.0000047479944, 10.001556, 9.998081 
2.1452495e+3, 3.0386344e+2, 151560.36, -188829.36, 131149.19, 0.02706143, -0.25914186, 196229.17, 196229.17, 0.000021563434, 10.002042, 9.997732 
2.1452741e+3, 3.1386074e+2, 189470.98, -83494.84, -22156.145, 0.06313975, -0.36044538, 191257.66, 191257.66, 0.000054127682, 10.0019655, 9.99841 
2.1548772e+3, 1.3384837e+2, -1907853.4, -1574113.3, 41181.727, -0.029956343, -0.230087, -1569106.8, 59154.95, 0.43279883, 9.997047, 10.001868 
2.154897e+3, 1.4384727e+2, -1644854.6, -1593706.3, -2302.8916, -0.15011849, -0.47899395, -1593602.9, -63333.08, 0.28823382, 9.999076, 9.999906 
2.1549192e+3, 1.5385084e+2, -1503445.3, -1392715.1, 26043.25, -0.03889037, -0.2305643, -1386895.6, 45342.414, 0.15688464, 9.99906, 10.000648 
2.1549414e+3, 1.6385287e+2, -1478353.8, -1437905.8, 26.40709, 0.047022358, -0.05616684, -1437905.6, -103684.15, 0.06501248, 9.999055, 9.999638 
2.1549632e+3, 1.7385256e+2, -1393708.5, -1326441.1, 5452.7856, 0.059129763, -0.09261866, -1326002.0, -89774.19, 0.018139776, 9.998941, 9.999741 
2.1549849e+3, 1.8385197e+2, -1290985.0, -1270517.1, -60.585503, 0.042396963, -0.11135995, -1270516.9, -132281.98, 0.0026903055, 9.999089, 9.999423 
2.1550073e+3, 1.938509e+2, -1096899.3, -1096242.3, -11193.309, 0.036625274, -0.21552002, -1085372.6, -45128.855, 0.00019736934, 9.999678, 9.999627 
2.1550293e+3, 2.038506e+2, -979291.06, -953115.2, -78947.37, 0.049936365, -0.22258459, -886178.25, 56067.023, 0.0000007869328, 9.999624, 9.999992 
2.1550512e+3, 2.1385133e+2, -963186.3, -861867.25, -47897.08, 0.10155176, -0.20733793, -842809.4, 1427.7655, 0.0, 9.998956, 10.000242 
2.155073e+3, 2.2385165e+2, -965885.06, -933911.6, -34306.402, 0.0877157, -0.1527272, -912049.94, -165816.03, 0.0, 9.998757, 9.999192 
2.1550943e+3, 2.338512e+2, -698915.5, -738364.3, -40207.49, 0.00072201405, -0.1592883, -673854.94, -25615.168, 0.0, 9.999894, 9.999285 
2.1551158e+3, 2.4385035e+2, -592340.1, -733855.75, -69889.09, -0.064482465, -0.13578223, -563643.6, -13394.211, 0.0, 10.0003395, 9.998453 
2.1551372e+3, 2.5384867e+2, -469880.78, -614374.6, -31602.047, -0.07046683, -0.18954685, -463271.44, -11003.799, 0.0, 10.000488, 9.99851 
2.1551594e+3, 2.6384726e+2, -376719.8, -516629.1, -4727.076, -0.08021521, -0.18277866, -376560.28, -22278.686, 0.0, 10.000421, 9.99856 
2.1551824e+3, 2.738464e+2, -201768.63, -347196.44, -6132.693, -0.012766939, -0.1899198, -201510.47, 54777.9, 0.0, 10.000834, 9.998825 
2.1552058e+3, 2.8384522e+2, -178666.73, -408456.3, -27812.676, 0.060627494, -0.14157692, -175348.33, -17050.025, 0.000000100631844, 10.000817, 9.997758 
2.1552286e+3, 2.9384288e+2, -13370.624, -238560.8, 15275.593, 0.11880655, -0.22049697, -12339.142, 47981.254, 0.0000031808167, 10.001129, 9.99808 
2.1552509e+3, 3.0384013e+2, 151615.23, 59796.684, 109166.21, -0.08825951, -0.3996075, 224132.83, 224132.83, 0.000016664693, 10.001044, 9.999885 
2.1552746e+3, 3.1384477e+2, 71552.46, -92312.914, 141075.47, -0.16188791, -0.04310953, 152761.6, 152761.6, 0.000045618737, 10.000995, 9.998797 
2.1648757e+3, 1.338278e+2, -1703772.4, -1536900.8, 68114.27, 0.060302995, -0.18980154, -1512628.1, 115837.03, 0.45757636, 9.998684, 10.001686 
2.1648952e+3, 1.4382583e+2, -1757083.4, -1630079.5, -37164.17, -0.16665815, -0.4816185, -1620003.9, -89523.87, 0.3088363, 9.998251, 10.00006 
2.1649185e+3, 1.5382908e+2, -1464092.4, -1392688.3, -8065.407, -0.03598971, -0.27111888, -1391788.6, 40661.81, 0.17204043, 9.999419, 10.000463 
2.164941e+3, 1.6383083e+2, -1421845.5, -1435461.8, -27678.201, 0.09288825, -0.100401245, -1400150.5, -65714.484, 0.07433442, 9.999514, 9.999446 
2.1649626e+3, 1.7383075e+2, -1289040.1, -1286504.1, -17613.992, 0.0932225, -0.10728101, -1270112.6, -33673.03, 0.022589553, 9.9996605, 9.999695 
2.1649846e+3, 1.8383007e+2, -1243196.5, -1267219.8, 45883.99, 0.09726155, -0.122138076, -1207778.0, -69330.54, 0.00413868, 9.999539, 9.999222 
2.1650073e+3, 1.9382828e+2, -1135984.4, -1150331.3, 47341.125, 0.08693724, -0.26596278, -1095276.3, -54812.977, 0.00045452762, 9.9995775, 9.999312 
2.1650295e+3, 2.0382755e+2, -1014096.06, -1008163.75, -13084.061, 0.12427863, -0.28267485, -997713.9, -55244.203, 0.000007502901, 9.99953, 9.999661 
2.1650513e+3, 2.1382847e+2, -869490.9, -853211.06, -72275.63, 0.1661064, -0.21405998, -788618.44, 55843.055, 0.0, 9.999756, 9.999914 
2.1650727e+3, 2.2382894e+2, -816550.5, -878980.94, -27432.729, 0.15147753, -0.11729945, -806209.25, -59750.92, 0.0, 9.999867, 9.999027 
2.1650942e+3, 2.3382849e+2, -693708.1, -756489.75, -25220.107, 0.021979516, -0.10808792, -684831.9, -36366.652, 0.0, 10.000014, 9.9991045 
2.1651159e+3, 2.4382767e+2, -576714.56, -664835.3, -28232.23, -0.034278978, -0.09521279, -568445.44, -17971.344, 0.0, 10.000162, 9.999019 
2.165138e+3, 2.5382617e+2, -444709.97, -515124.34, -20901.195, -0.037685066, -0.1988944, -438973.22, 13514.159, 0.0, 10.000312, 9.999262 
2.1651602e+3, 2.63825e+2, -346685.78, -541191.3, 47054.664, -0.039812334, -0.19788189, -335900.4, 18597.365, 0.0, 10.000778, 9.998223 
2.1651836e+3, 2.7382392e+2, -97670.945, -351708.7, 6710.2227, -0.018949574, -0.17001326, -97493.82, 159014.53, 0.0, 10.001785, 9.998335 
2.1652073e+3, 2.8382212e+2, 5475.3496, -311995.7, -24040.992, 0.08200629, -0.16592136, 7285.57, 165811.11, 0.0000000029805467, 10.002022, 9.997852 
2.1652298e+3, 2.938192e+2, -33391.063, -226288.75, -29412.094, 0.15663356, -0.30652452, -29006.127, 31546.967, 0.000001345268, 10.000912, 9.9982605 
2.1652524e+3, 3.038193e+2, 135378.47, 114271.555, 95501.766, 0.0016687968, -0.24594827, 220908.11, 220908.11, 0.000010778314, 10.000646, 10.000454 
2.1652764e+3, 3.1382206e+2, 198120.11, -58282.543, -70926.41, -0.12553887, -0.10720917, 216432.05, 216432.05, 0.00003608632, 10.001982, 9.998558 
2.174875e+3, 1.3380843e+2, -1786883.5, -1677558.0, -138343.72, 0.023191066, 0.0228103, -1583469.3, 45190.543, 0.48078975, 9.9991, 9.999971 
2.174894e+3, 1.4380689e+2, -1702904.1, -1599207.4, 25795.803, -0.23181769, -0.20304283, -1593144.8, -62476.637, 0.32934, 9.998622, 10.000085 
2.1749175e+3, 1.5380642e+2, -1472703.0, -1423630.3, 29999.504, -0.10338631, -0.34269956, -1409411.0, 23259.883, 0.18832743, 9.999493, 10.000184 
2.1749403e+3, 1.6380626e+2, -1391060.8, -1421757.9, -39137.23, -0.014602936, -0.33501437, -1364370.0, -29698.322, 0.0852701, 9.999717, 9.99944 
2.1749611e+3, 1.7380713e+2, -1248239.9, -1221560.0, 1219.7688, -0.06761046, -0.29030654, -1221504.3, 15160.301, 0.028395085, 9.999741, 10.000096 
2.1749829e+3, 1.838073e+2, -1216961.6, -1236698.5, 31089.162, -0.074637376, -0.25329906, -1194212.3, -55548.81, 0.006367479, 9.999641, 9.999378 
2.1750069e+3, 1.9380634e+2, -1135466.9, -1137129.0, 56345.086, 0.070425935, -0.3278752, -1079946.8, -39274.695, 0.0009868387, 9.999529, 9.999418 
2.1750298e+3, 2.0380564e+2, -1111189.4, -1172879.1, -19594.445, 0.15311722, -0.30090344, -1105491.9, -162811.88, 0.000047582707, 9.999358, 9.99862 
2.1750513e+3, 2.1380539e+2, -979665.2, -1028890.2, -53332.43, 0.16499257, -0.23880239, -945539.94, -100853.27, 0.00000000032497088, 9.999523, 9.998822 
2.1750723e+3, 2.2380511e+2, -873368.4, -900759.8, -33957.813, 0.08655385, -0.15857932, -850448.44, -103755.74, 0.0, 9.999463, 9.99907 
2.1750934e+3, 2.338045e+2, -720428.06, -746602.7, -5354.4375, -0.086477056, -0.18644062, -719375.1, -70674.51, 0.0, 9.999744, 9.999294 
2.1751152e+3, 2.4380395e+2, -607116.4, -616970.9, -37227.098, -0.16833976, -0.18151036, -574491.9, -23786.236, 0.0, 9.999699, 9.999562 
2.175138e+3, 2.5380367e+2, -438018.16, -440073.22, -1618.4293, -0.07560186, -0.22840318, -437128.63, 15576.597, 0.0, 10.0000515, 9.999899 
2.1751614e+3, 2.6380327e+2, -451289.4, -644524.7, 64755.86, -0.043247852, -0.16520089, -431595.84, -76887.8, 0.0, 10.000318, 9.997723 
2.1751855e+3, 2.738016e+2, -194376.03, -474384.88, 64645.03, -0.026903246, -0.13667303, -180172.1, 76555.22, 0.0, 10.001475, 9.997629 
2.1752085e+3, 2.8379875e+2, -74132.82, -349910.1, -72030.055, -0.028629756, -0.19251059, -56452.805, 102303.42, 0.0, 10.001497, 9.997834 
2.175229e+3, 2.9379624e+2, -78394.734, -249749.0, -53604.313, -0.05977767, -0.3181988, -63007.566, -2227.6404, 0.00000028754212, 10.000611, 9.99824 
2.1752532e+3, 3.0379927e+2, -72029.8, -133070.55, 97917.12, -0.036216635, 0.117736556, 13.247551, 13.247551, 0.0000061263827, 9.9999275, 9.9990635 
2.1752796e+3, 3.1379586e+2, -19573.889, -238877.95, 117777.22, -0.07787099, -0.25294536, 31693.441, 31693.441, 0.000027574106, 10.00087, 9.997825 
2.1848933e+3, 1.4378662e+2, -1756207.6, -1616256.5, -121557.4, -0.10821605, -0.06355692, -1545972.4, -15103.483, 0.34983045, 9.998134, 10.000191 
2.1849182e+3, 1.5378323e+2, -1502824.1, -1478721.5, -45354.625, 0.039269377, -0.41825742, -1443844.4, -10946.106, 0.2059314, 9.999441, 9.9998255 
2.1849392e+3, 1.637838e+2, -1574573.9, -1501984.6, -60692.734, -0.011413746, -0.32804912, -1467562.3, -132671.02, 0.09816949, 9.998448, 9.999493 
2.1849611e+3, 1.7378417e+2, -1257794.4, -1219832.6, -59245.805, -0.03075646, -0.33119008, -1176601.5, 60287.32, 0.036017943, 9.999714, 10.000105 
2.1849832e+3, 1.8378423e+2, -1113844.1, -1204331.8, -59854.574, -0.04697461, -0.30139527, -1084057.4, 54831.83, 0.009796201, 10.00038, 9.999261 
2.1850069e+3, 1.9378404e+2, -1054056.9, -1112439.5, -79223.82, 0.08687707, -0.28843963, -998817.5, 42074.035, 0.0020521113, 10.000107, 9.999315 
2.1850298e+3, 2.0378354e+2, -1029540.06, -1150316.3, -77851.32, 0.19432081, -0.22903001, -991401.25, -48503.055, 0.00020967671, 10.0000105, 9.998459 
2.185051e+3, 2.137824e+2, -797019.25, -960397.4, -72065.086, 0.15173, -0.23954597, -769774.94, 75138.445, 0.00000086887735, 10.000866, 9.998651 
2.185072e+3, 2.237816e+2, -647781.44, -789961.3, -14674.688, 0.06354951, -0.2010652, -646282.7, 100641.17, 0.0, 10.000975, 9.999115 
2.185093e+3, 2.337813e+2, -666273.9, -704938.06, -22287.479, -0.104336284, -0.20267181, -656102.4, -7174.633, 0.0, 10.000055, 9.99943 
2.1851149e+3, 2.4378105e+2, -594381.2, -620221.2, -18352.354, -0.13653307, -0.17496558, -584857.1, -33927.04, 0.0, 9.999814, 9.999491 
2.1851392e+3, 2.5378084e+2, -342288.6, -409575.3, -65460.39, -0.0030173282, -0.20035745, -302332.1, 150598.31, 0.0, 10.000755, 9.999779 
2.185163e+3, 2.6378068e+2, -317685.78, -554649.1, 3661.0771, 0.07213617, -0.12528594, -317629.22, 37302.61, 0.0, 10.00109, 9.997989 
2.185187e+3, 2.7377912e+2, -295667.4, -490340.0, 39550.777, 0.01612974, -0.099520214, -287938.88, -30990.756, 0.0, 10.000618, 9.99795 
2.1852097e+3, 2.837763e+2, -160562.58, -391815.0, -30781.21, -0.019375518, -0.17841953, -156535.53, 2440.4775, 0.0, 10.000868, 9.997869 
2.1852303e+3, 2.9377297e+2, 143911.39, -170029.55, -74130.85, -0.06209136, -0.36297515, 160535.6, 221543.13, 0.000000027227998, 10.002226, 9.998028 
2.1852554e+3, 3.0377588e+2, 249884.16, -120933.914, 108849.234, 0.07470889, 0.12332406, 279474.34, 279474.34, 0.0000044959556, 10.002665, 9.997876 
2.185281e+3, 3.1377122e+2, 88723.414, -70919.16, -11651.601, -0.011591619, -0.22647083, 89569.33, 89569.33, 0.000025056477, 10.000971, 9.999006 
2.1948914e+3, 1.4376311e+2, -1645901.0, -1418829.3, -300629.34, -0.23158142, -0.04876107, -1211011.1, 320090.44, 0.371045, 9.998305, 10.002323 
2.1949202e+3, 1.5375878e+2, -1484501.5, -1473618.1, -78478.664, 0.22886364, -0.50380784, -1400392.8, 32747.969, 0.22535217, 9.999601, 9.999823 
2.1949373e+3, 1.6376331e+2, -1537846.6, -1460091.5, -73344.72, -0.1121287, -0.061745573, -1415957.5, -80861.96, 0.113554515, 9.998604, 9.999703 
2.1949622e+3, 1.7376156e+2, -1298029.4, -1300496.4, -1002.5279, 0.07564287, -0.22938475, -1297673.4, -60557.977, 0.046104282, 9.999707, 9.999544 
2.1949844e+3, 1.8376037e+2, -1118222.5, -1229483.8, -70641.96, -0.00968248, -0.28097984, -1083936.3, 55193.37, 0.015073848, 10.00045, 9.999058 
2.1950063e+3, 1.9376142e+2, -1069302.6, -1130739.3, -85302.016, 0.000027425893, -0.13126521, -1009356.44, 31765.207, 0.004138987, 10.000056, 9.999215 
2.1950288e+3, 2.0376135e+2, -1016176.3, -1080106.4, -72266.61, 0.032566782, -0.04981048, -969120.94, -25997.303, 0.00072646124, 9.999833, 9.9990225 
2.1950506e+3, 2.1375923e+2, -791990.25, -885850.2, -31012.705, -0.024507754, -0.22145437, -782668.94, 62474.953, 0.000022642807, 10.0006, 9.999281 
2.1950716e+3, 2.2375822e+2, -701421.25, -806289.8, -54464.453, -0.11639315, -0.24521351, -678253.1, 68900.266, 0.000000000011542125, 10.000565, 9.999198 
2.1950926e+3, 2.3375884e+2, -695711.56, -715022.2, -44969.086, -0.1784335, -0.16377714, -659372.9, -10225.223, 0.0, 9.999834, 9.999464 
2.195115e+3, 2.437589e+2, -715775.1, -766807.9, -7834.4204, -0.1624371, -0.07232556, -714599.5, -163451.16, 0.0, 9.999375, 9.998688 
2.1951404e+3, 2.5375763e+2, -443542.4, -563537.94, -16210.457, 0.026276482, -0.11613624, -441391.06, 11772.35, 0.0, 10.000512, 9.998837 
2.1951646e+3, 2.6375678e+2, -336173.47, -474069.06, -24318.426, 0.078942284, -0.086530045, -332010.5, 23161.475, 0.0, 10.000604, 9.998758 
2.195187e+3, 2.7375615e+2, -266644.34, -351037.8, 38413.51, -0.05242242, -0.084551364, -251778.3, 5396.1616, 0.0, 10.000304, 9.999037 
2.1952097e+3, 2.8375405e+2, -242425.31, -441858.22, -6684.238, -0.13449943, -0.14995651, -242201.53, -83009.45, 0.0, 10.000381, 9.997747 
2.1952331e+3, 2.937496e+2, 56408.7, -265076.9, 2807.3318, -0.036023468, -0.41612545, 56433.215, 117668.02, 0.000000020729713, 10.001865, 9.997542 
2.1952575e+3, 3.0374864e+2, 45161.59, -352346.84, 57305.97, -0.031190978, -0.22056662, 53258.074, 53258.074, 0.0000055230016, 10.001886, 9.996626 
2.1952797e+3, 3.1374604e+2, -14569.915, -200.85266, -50217.742, -0.27795, -0.2792384, 43343.69, 43343.69, 0.000029811183, 9.999849, 9.999978 
2.2048889e+3, 1.4373924e+2, -1451654.1, -1257436.9, -75234.69, -0.317233, -0.27888203, -1231702.8, 299629.2, 0.39437363, 9.999078, 10.003391 
2.2049184e+3, 1.5373608e+2, -1697395.8, -1713450.9, -66137.516, 0.15359573, -0.4385341, -1638800.5, -205437.88, 0.24751917, 9.99874, 9.998553 
2.2049372e+3, 1.6373959e+2, -1340265.1, -1376630.6, -112692.766, -0.03425452, -0.041409634, -1244297.6, 91032.6, 0.13222682, 10.000032, 9.999651 
2.2049624e+3, 1.7373815e+2, -1246622.5, -1323527.5, -44060.547, 0.11003642, -0.14552368, -1226594.9, 10753.436, 0.059555795, 10.0001955, 9.999194 
2.2049852e+3, 1.8373707e+2, -1181938.1, -1239572.6, -83025.21, 0.06821369, -0.17355321, -1122871.3, 16490.887, 0.023171267, 9.99991, 9.999263 
2.2050066e+3, 1.9373775e+2, -1018099.44, -1072580.9, -98845.58, 0.013316406, -0.089888774, -942809.6, 98547.42, 0.008108057, 10.000263, 9.999539 
2.2050284e+3, 2.0373784e+2, -923950.2, -996649.44, -41029.133, 0.0058151484, -0.023724774, -905484.8, 37871.688, 0.0021629941, 10.000294, 9.999383 
2.2050503e+3, 2.1373655e+2, -829035.94, -869738.06, -44108.73, -0.07128141, -0.1449051, -800809.75, 44558.207, 0.00023583506, 10.000175, 9.999607 
2.205072e+3, 2.2373559e+2, -754193.44, -841238.4, -77743.8, -0.11117442, -0.17776696, -708618.75, 38757.773, 0.0000019906881, 10.000241, 9.999122 
2.2050935e+3, 2.337355e+2, -564869.0, -672523.8, -119232.15, -0.10838295, -0.14786486, -487877.1, 161500.38, 0.0, 10.000808, 9.999304 
2.205116e+3, 2.4373515e+2, -504723.66, -685497.1, -31331.887, -0.056394245, -0.07589464, -499447.2, 51935.195, 0.0, 10.000899, 9.99852 
2.2051404e+3, 2.5373423e+2, -481117.6, -585622.9, -16047.095, 0.010713363, -0.072485976, -478709.03, -25313.852, 0.0, 10.000328, 9.998753 
2.2051643e+3, 2.6373336e+2, -374472.44, -456717.6, 15157.733, 0.03971697, -0.053708334, -371767.8, -16364.243, 0.0, 10.000171, 9.999095 
2.2051877e+3, 2.7373224e+2, -161040.42, -269288.88, 4711.519, -0.026488934, -0.13213316, -160835.73, 96572.95, 0.0, 10.000852, 9.999355 
2.2052117e+3, 2.837308e+2, -88804.61, -365632.78, -5727.721, -0.017086456, -0.15656073, -88686.15, 70733.47, 0.0, 10.001425, 9.997767 
2.2052361e+3, 2.937274e+2, 101907.945, -243668.97, -32260.686, 0.0656824, -0.29739678, 104893.78, 166347.95, 0.00000007580395, 10.002184, 9.9975395 
2.2052595e+3, 3.0372497e+2, 119733.68, -329920.6, 62503.848, -0.021891879, -0.2532641, 128260.3, 128260.3, 0.0000083740215, 10.002409, 9.99656 
2.205282e+3, 3.1372336e+2, 292681.7, 190168.6, -122082.08, -0.13596353, -0.17041714, 373830.84, 373830.84, 0.000042885644, 10.001714, 10.000398 
2.2148906e+3, 1.4371884e+2, -1464489.6, -1283788.4, 64476.91, -0.16590303, -0.36079147, -1263141.1, 268381.66, 0.4221777, 9.999044, 10.003254 
2.2149128e+3, 1.5371484e+2, -1901263.3, -2125439.8, 22946.453, -0.32359037, -0.23365031, -1898938.5, -465371.03, 0.27423543, 9.998712, 9.9957485 
2.2149383e+3, 1.6371232e+2, -1326215.5, -1394371.6, -107085.445, -0.0009876527, -0.26026753, -1247916.5, 87681.516, 0.15564767, 10.000258, 9.999412 
2.2149609e+3, 1.7371397e+2, -1239892.5, -1312265.3, -40939.805, -0.08537438, -0.07180058, -1221438.9, 16148.496, 0.07778218, 10.000221, 9.999249 
2.2149849e+3, 1.8371433e+2, -1142137.1, -1167395.9, -93924.984, -0.01876743, 0.02331935, -1059996.3, 79590.42, 0.035576556, 9.999958, 9.999745 
2.2150068e+3, 1.9371295e+2, -991891.75, -986304.5, -75361.97, -0.010515441, -0.15919551, -913684.4, 127913.875, 0.0154146915, 10.000136, 10.000192 
2.2150281e+3, 2.0371285e+2, -942019.2, -990675.9, -53480.28, -0.08698506, -0.15965982, -907593.75, 36004.996, 0.005714695, 10.000101, 9.9995165 
2.21505e+3, 2.1371418e+2, -857041.8, -878109.8, -37014.52, -0.14526477, -0.02180345, -829091.56, 16495.574, 0.0013616167, 9.999959, 9.99965 
2.2150722e+3, 2.2371389e+2, -849155.06, -937676.8, -76140.78, -0.14617647, 0.028218234, -805345.25, -57753.938, 0.00013056793, 9.999811, 9.998666 
2.2150952e+3, 2.3371111e+2, -636894.2, -758431.25, -83498.445, -0.038201686, -0.16668874, -594392.2, 55226.9, 0.0000045921656, 10.000531, 9.998847 
2.2151174e+3, 2.437097e+2, -555423.44, -668341.4, -68507.65, -0.036184702, -0.1871615, -523107.9, 28525.674, 0.000000030624218, 10.000398, 9.998868 
2.2151391e+3, 2.5371036e+2, -488111.7, -528568.1, -25702.848, -0.18322548, -0.076157905, -475631.84, -22003.617, 0.0, 10.000039, 9.999273 
2.215162e+3, 2.6370987e+2, -452551.7, -511194.03, 14377.485, -0.23817357, -0.042629138, -449216.4, -93584.37, 0.0, 9.999731, 9.998924 
2.2151884e+3, 2.7370742e+2, -222898.98, -323230.63, 42220.285, -0.060465213, -0.23756717, -207496.81, 50154.24, 0.0, 10.000552, 9.999117 
2.2152144e+3, 2.837065e+2, -190477.63, -438994.34, 1330.765, 0.060471475, -0.18890429, -190470.5, -30811.215, 0.0, 10.000859, 9.997521 
2.2152385e+3, 2.9370585e+2, 40096.246, -275058.63, 20746.56, 0.062022205, -0.044548977, 41456.12, 103126.516, 0.00000027397763, 10.001789, 9.9975 
2.2152606e+3, 3.037042e+2, 87370.46, -224893.73, 23196.582, -0.21962781, 0.019037647, 89084.22, 89084.22, 0.000015050563, 10.001719, 9.997582 
2.2152835e+3, 3.137013e+2, 57938.766, -20780.154, 23672.7, -0.21952797, -0.13484144, 64509.293, 64509.293, 0.00007034586, 10.000601, 9.99945 
2.224894e+3, 1.4368726e+2, -1997917.4, -1650335.1, 90518.67, 0.36719728, -0.30288947, -1628174.9, -96337.59, 0.45833316, 9.99617, 10.000809 
2.2249109e+3, 1.5368843e+2, -1439891.0, -1622624.6, -209983.92, -0.46213144, -0.22421642, -1302257.5, 131570.03, 0.30885017, 10.000971, 9.998197 
2.2249402e+3, 1.636868e+2, -1344172.4, -1420542.1, -103846.68, 0.1872772, -0.27216065, -1271712.8, 64134.25, 0.18666483, 10.000177, 9.999269 
2.2249606e+3, 1.7368814e+2, -1223217.6, -1276909.8, -86408.52, -0.11527585, -0.12652434, -1159580.9, 78258.61, 0.103338934, 10.00027, 9.999478 
2.2249842e+3, 1.8368885e+2, -1152804.8, -1136593.5, -113165.78, -0.05373686, -0.029103104, -1031243.44, 108591.52, 0.054786276, 9.99971, 10.000101 
2.2250068e+3, 1.9368795e+2, -1055515.8, -980560.06, -134273.83, 0.019007834, -0.19899254, -878631.9, 163208.81, 0.028543482, 9.99951, 10.000546 
2.2250283e+3, 2.03688e+2, -1034956.44, -1023980.94, -97654.4, -0.028136007, -0.21272415, -931660.2, 12179.168, 0.013685946, 9.999409, 9.999623 
2.2250496e+3, 2.1368934e+2, -899010.6, -892389.3, -113105.72, -0.15837301, -0.07583252, -782545.8, 63282.82, 0.005262215, 9.999654, 9.999707 
2.2250721e+3, 2.2368929e+2, -830383.7, -919799.3, -90440.17, -0.13959612, -0.008905313, -774204.4, -26373.197, 0.001420654, 9.999869, 9.99877 
2.2250962e+3, 2.33687e+2, -696535.3, -770761.3, -73239.93, 0.04101781, -0.16804495, -651541.9, -1687.8611, 0.0002619265, 10.000023, 9.999017 
2.2251189e+3, 2.4368569e+2, -561755.0, -666193.3, -25136.145, 0.07631861, -0.18731362, -556020.2, -4153.064, 0.000035642544, 10.000322, 9.998926 
2.2251396e+3, 2.53686e+2, -311029.53, -440276.56, -37232.734, -0.16940953, -0.12000932, -301071.03, 152793.61, 0.0000011567587, 10.00119, 9.999353 
2.2251625e+3, 2.6368538e+2, -189444.16, -408929.66, 12288.392, -0.24046825, -0.09210189, -188758.3, 167111.9, 0.0, 10.001634, 9.998719 
2.2251897e+3, 2.7368337e+2, -55123.36, -258955.8, -2597.1763, -0.04373736, -0.2115021, -55090.27, 202797.13, 0.0, 10.001816, 9.998946 
2.2252159e+3, 2.8368273e+2, -64973.348, -335841.4, -9195.173, 0.1146079, -0.14013164, -64661.555, 95232.24, 0.0, 10.001515, 9.997935 
2.22524e+3, 2.936819e+2, -35233.766, -255649.2, 17858.781, 0.088939786, -0.051114593, -33796.164, 28110.166, 0.00000073017384, 10.0010395, 9.997994 
2.2252631e+3, 3.0368137e+2, 68837.76, -178344.4, 46460.918, -0.0832566, 0.0551114, 77282.17, 77282.17, 0.00002755439, 10.001325, 9.998117 
2.2252852e+3, 3.1367695e+2, 318428.7, 115642.01, -119266.125, -0.17786573, -0.23749113, 373576.13, 373576.13, 0.000118261974, 10.002276, 9.999632 
2.2349128e+3, 1.5365759e+2, -1097704.1, -838515.1, -221981.05, -0.431337, -0.30875987, -711068.1, 723068.2, 0.35698506, 10.000691, 10.00581 
2.2349426e+3, 1.6366218e+2, -1363006.9, -1461632.6, -123257.25, 0.31150767, -0.14619009, -1279563.9, 56521.402, 0.23053116, 10.000192, 9.998981 
2.2349614e+3, 1.7366035e+2, -1217075.8, -1239151.5, -82252.16, -0.11885166, -0.331786, -1145124.1, 92983.234, 0.14104874, 10.0001745, 9.9998 
2.2349824e+3, 1.8366048e+2, -1145547.9, -1112252.4, -136579.55, -0.26204336, -0.3386698, -991309.75, 148798.36, 0.08532412, 9.999682, 10.00031 
2.2350061e+3, 1.9366264e+2, -1069350.9, -981464.9, -132538.2, -0.039849207, -0.20776114, -885774.94, 156310.06, 0.05187056, 9.999391, 10.000617 
2.2350281e+3, 2.0366342e+2, -1071831.8, -1043074.1, -106346.586, -0.027189191, -0.14969526, -950138.75, -6061.7104, 0.030293982, 9.999165, 9.999608 
2.2350486e+3, 2.136619e+2, -927949.94, -897156.7, -94351.43, -0.24586004, -0.30706894, -816953.94, 29139.86, 0.015773455, 9.9994135, 9.999789 
2.2350706e+3, 2.236616e+2, -852768.75, -853288.1, -95765.55, -0.28919408, -0.29642525, -757262.5, -9164.572, 0.0069356123, 9.999398, 9.999443 
2.2350956e+3, 2.3366308e+2, -675826.7, -668782.25, -52202.984, -0.026779903, -0.1639531, -619982.8, 30100.592, 0.002541045, 9.999771, 9.99983 
2.2351193e+3, 2.4366315e+2, -660337.8, -754502.56, -15337.172, 0.052132882, -0.07328943, -657902.7, -105819.55, 0.00075579167, 9.999839, 9.998542 
2.2351418e+3, 2.5366116e+2, -382952.16, -513474.97, 8275.834, -0.10994955, -0.20555747, -382429.5, 71674.33, 0.00014769337, 10.000869, 9.998997 
2.2351651e+3, 2.636599e+2, -319327.28, -534897.6, -6388.4097, -0.21159682, -0.19435243, -319138.13, 36979.656, 0.000007045108, 10.001044, 9.998121 
2.2351909e+3, 2.7365986e+2, -140892.95, -352410.6, 16469.764, -0.13645406, -0.07533382, -139618.22, 118501.94, 0.00000000065814787, 10.00146, 9.998462 
2.2352158e+3, 2.8365907e+2, -106263.69, -265237.84, -59155.59, -0.090209164, -0.03364217, -86667.07, 73461.5, 0.0, 10.000891, 9.998695 
2.23524e+3, 2.9365554e+2, -63754.887, -185192.4, 19684.27, -0.05287895, -0.31034452, -60643.887, 1517.7183, 0.0000012574419, 10.000525, 9.998699 
2.2352661e+3, 3.0365577e+2, -121873.28, -356950.72, 52009.766, 0.024465472, -0.12663081, -110880.42, -110880.42, 0.000044073433, 10.000446, 9.99729 
2.2352879e+3, 3.1365326e+2, 160838.8, 112845.93, 13904.312, -0.20944788, -0.16015317, 164576.08, 164576.08, 0.00018419352, 10.000988, 10.000196 
2.2449143e+3, 1.536364e+2, -1213168.1, -1241564.6, 12919.606, -0.46426436, -0.1451248, -1208169.9, 226174.27, 0.42759266, 10.001982, 10.000995 
2.244943e+3, 1.6363649e+2, -1521212.3, -1474505.9, -3655.357, 0.417352, -0.25063306, -1474221.5, -137888.36, 0.29616648, 9.998739, 9.999572 
2.2449622e+3, 1.7363606e+2, -1139184.8, -1144591.5, 46380.07, -0.05490154, -0.36220333, -1095429.4, 142911.72, 0.19952731, 10.000528, 10.000403 
2.2449827e+3, 1.8363656e+2, -999073.25, -1045207.1, -27409.328, -0.22581787, -0.36145204, -986316.25, 154021.84, 0.13536815, 10.000821, 10.000259 
2.2450057e+3, 1.9363841e+2, -1031104.44, -981247.4, -74811.375, -0.038243186, -0.25231197, -927320.5, 114997.68, 0.09319166, 9.999719, 10.000488 
2.2450279e+3, 2.0363908e+2, -1070491.0, -1069914.3, 8422.524, 0.031583138, -0.19145349, -1061775.1, -117463.74, 0.06306426, 9.99924, 9.999418 
2.2450498e+3, 2.1363741e+2, -862552.8, -893969.4, -25756.049, -0.08622694, -0.33427784, -848092.8, -1762.7832, 0.0400799, 9.99996, 9.999566 
2.245072e+3, 2.2363676e+2, -708383.56, -787432.6, -50948.227, -0.12186865, -0.33785972, -683426.2, 64911.68, 0.023131557, 10.000379, 9.999448 
2.2450955e+3, 2.3363808e+2, -622342.6, -633858.5, -105719.98, -0.03752261, -0.2311939, -522223.9, 128101.9, 0.011994159, 10.0000925, 9.999932 
2.2451189e+3, 2.436381e+2, -584821.8, -731922.8, -35022.824, 0.015988654, -0.14206402, -576909.0, -24582.766, 0.0054928027, 10.000345, 9.9984865 
2.2451434e+3, 2.5363648e+2, -319588.63, -481357.2, -5772.399, -0.047410913, -0.23174627, -319382.9, 134959.63, 0.002050329, 10.001276, 9.999038 
2.2451672e+3, 2.6363534e+2, -316213.78, -556239.4, -11040.94, -0.07534492, -0.19339722, -315706.97, 40648.293, 0.0004876709, 10.001141, 9.997941 
2.2451924e+3, 2.7363494e+2, -292433.1, -431603.4, 19953.041, -0.07421452, -0.09849393, -289628.9, -31266.074, 0.000047167257, 10.000427, 9.998431 
2.2452165e+3, 2.8363428e+2, -171091.16, -235520.97, -5315.383, -0.048228823, -0.07601716, -170655.6, -10285.041, 0.00000034188096, 10.00016, 9.999263 
2.2452413e+3, 2.936314e+2, 209102.77, -13342.322, 7518.692, -0.04874781, -0.31530422, 209356.61, 271752.06, 0.0000013302117, 10.002175, 9.999114 
2.2452684e+3, 3.0363128e+2, 185716.19, -254794.5, 60837.195, 0.12555064, -0.1864621, 193963.75, 193963.75, 0.0000584347, 10.002691, 9.9969225 
2.2452913e+3, 3.136289e+2, 168890.31, 207800.19, -94324.6, 0.07538702, -0.12656295, 284655.3, 284655.3, 0.00025945, 10.000534, 10.001076 
2.2549397e+3, 1.636108e+2, -1559001.0, -1446158.0, 378.61258, 0.12130453, -0.46897885, -1446156.6, -109576.86, 0.39765337, 9.998282, 9.999959 
2.254963e+3, 1.7361511e+2, -1108604.8, -1064793.1, 80085.02, -0.07789807, -0.221247, -1003671.94, 234870.25, 0.29298013, 10.000499, 10.001281 
2.2549854e+3, 1.8361679e+2, -1090160.6, -1160574.9, -95813.9, -0.17078234, -0.11765176, -1023290.1, 117237.62, 0.21888196, 10.00053, 9.999562 
2.255005e+3, 1.936148e+2, -1106696.3, -1063590.6, -115850.94, -0.13262838, -0.3584323, -967304.75, 75240.08, 0.16615056, 9.999427, 10.000048 
2.2550264e+3, 2.0361462e+2, -1157246.9, -1163552.3, 15164.441, -0.08640775, -0.3561865, -1144910.9, -200364.73, 0.12546477, 9.99888, 9.998926 
2.2550522e+3, 2.1361554e+2, -943010.06, -997877.0, 14311.347, 0.13722752, -0.19341063, -939501.5, -92961.04, 0.0914258, 9.999705, 9.998951 
2.2550754e+3, 2.2361471e+2, -853191.3, -972709.3, -68706.45, 0.12730403, -0.13729294, -821891.44, -73339.74, 0.062582165, 9.999876, 9.998413 
2.255095e+3, 2.3361184e+2, -716142.9, -767056.0, -104457.14, -0.11521772, -0.36949846, -634085.1, 16497.236, 0.039919913, 9.999815, 9.999148 
2.255117e+3, 2.4361044e+2, -690398.2, -769959.56, -28580.654, -0.25463364, -0.3775019, -681195.6, -128598.6, 0.023601582, 9.9995985, 9.998568 
2.2551438e+3, 2.5361192e+2, -350741.2, -443468.4, 36417.01, -0.14441979, -0.21041684, -338149.03, 116432.055, 0.012405956, 10.000874, 9.999473 
2.2551687e+3, 2.6361153e+2, -414589.7, -606350.2, -70807.914, -0.06456601, -0.10590571, -391277.72, -34692.758, 0.005154125, 10.000515, 9.997884 
2.2551931e+3, 2.7360865e+2, -340590.13, -409539.38, 2802.5164, -0.046773657, -0.3019505, -340476.4, -81860.42, 0.0013586987, 9.999936, 9.998799 
2.255217e+3, 2.8360814e+2, -304503.75, -317638.03, 7048.504, -0.051487014, -0.27783185, -301437.16, -140815.05, 0.00015517221, 9.9993725, 9.999055 
2.2552432e+3, 2.9360947e+2, 122015.53, -49562.87, 106810.77, -0.09009442, -0.07829004, 173223.88, 235831.44, 0.0000026982873, 10.001632, 9.999085 
2.2552693e+3, 3.0360806e+2, 40749.93, -356282.4, -31630.72, -0.1401791, -0.08684058, 43254.09, 43254.09, 0.000065484004, 10.0019, 9.996579 
2.2552922e+3, 3.1360066e+2, 47372.527, 211624.45, 35329.184, 0.03392238, -0.466421, 218901.1, 218901.1, 0.00034262822, 9.999521, 10.001568 
2.264958e+3, 1.7358595e+2, -1789922.5, -1253649.6, 64437.547, -0.32093114, -0.6236036, -1246015.6, -7191.484, 0.44342524, 9.994298, 10.002661 
2.2649868e+3, 1.8359588e+2, -1067517.3, -1261615.5, -84960.09, -0.11265721, -0.0057624583, -1035582.9, 105150.23, 0.3585124, 10.001232, 9.998554 
2.2650047e+3, 1.9359182e+2, -1021458.56, -1141613.0, -225845.17, -0.14622003, -0.28965983, -847836.56, 194934.8, 0.29413474, 10.00083, 9.998924 
2.2650246e+3, 2.0358929e+2, -930898.0, -1045492.7, -84687.0, -0.21421243, -0.47361112, -885946.25, 58849.598, 0.24160613, 10.000355, 9.999121 
2.2650476e+3, 2.1358988e+2, -980165.5, -999209.44, -65780.42, -0.26334798, -0.3525753, -923221.44, -76429.34, 0.1940874, 9.99929, 9.999194 
2.2650713e+3, 2.2358951e+2, -864069.8, -1016873.8, -18331.203, -0.25470212, -0.2549307, -861901.44, -113103.375, 0.14888066, 9.999906, 9.998125 
2.2650945e+3, 2.3358773e+2, -478832.4, -712497.4, -67117.01, -0.2466643, -0.30324504, -460926.2, 189892.2, 0.108788945, 10.001885, 9.998546 
2.2651184e+3, 2.4358626e+2, -284389.28, -576820.56, -3617.9133, -0.19794755, -0.26977587, -284344.53, 268489.3, 0.07581198, 10.0025, 9.998524 
2.2651453e+3, 2.5358662e+2, -301638.7, -426091.38, -4970.318, -0.08064272, -0.21648781, -301440.5, 153388.02, 0.048806984, 10.00116, 9.999537 
2.2651692e+3, 2.6358566e+2, -391456.75, -585669.3, -84088.03, -0.045254283, -0.16921176, -360109.03, -3272.0244, 0.026684597, 10.000528, 9.998065 
2.2651933e+3, 2.7358323e+2, 12138.535, -225120.52, -44882.89, -0.11356316, -0.3392595, 20345.275, 279207.28, 0.010897145, 10.002217, 9.9990225 
2.2652173e+3, 2.8358272e+2, -11905.328, -206629.77, -44803.582, -0.03465081, -0.31141454, -2091.2307, 158776.53, 0.002788968, 10.001461, 9.998846 
2.2652468e+3, 2.9358414e+2, 144115.7, -50493.56, 77212.21, 0.10397444, -0.066002965, 171028.3, 233882.22, 0.0003034348, 10.001854, 9.998984 
2.2652724e+3, 3.0358204e+2, 145671.53, -272143.88, -67813.766, 0.00062432844, -0.19630355, 156402.47, 156402.47, 0.000074942734, 10.002513, 9.996886 
2.2652937e+3, 3.135753e+2, 530494.1, 294573.6, -56011.6, 0.04108818, -0.36169976, 543116.9, 543116.9, 0.00045627946, 10.00333, 10.000426 
2.2750284e+3, 2.0356652e+2, -800052.2, -1051044.4, -6604.7173, 0.034827672, -0.14324749, -799878.5, 145148.3, 0.4526298, 10.002555, 9.997923 
2.2750476e+3, 2.1356556e+2, -834095.9, -842333.44, -107555.57, -0.21964476, -0.28517467, -730580.25, 116454.55, 0.38963944, 10.000167, 9.999987 
2.2750732e+3, 2.2356622e+2, -1145552.1, -1200308.4, -148244.05, -0.116889566, -0.16155595, -1022179.25, -273151.66, 0.32267725, 9.99822, 9.997618 
2.2750986e+3, 2.3356609e+2, -789698.2, -922442.7, -28222.105, -0.047959782, -0.025672738, -783947.2, -132916.63, 0.25840095, 9.999873, 9.997984 
2.275123e+3, 2.4356395e+2, -590354.2, -889617.9, -32221.936, -0.097541764, 0.043118216, -586924.1, -33871.832, 0.20062341, 10.000947, 9.997088 
2.2751479e+3, 2.535603e+2, -460104.75, -535632.0, -34437.62, -0.00040071912, -0.3161539, -446760.25, 8327.596, 0.14660953, 10.000211, 9.999178 
2.2751687e+3, 2.635583e+2, -715318.9, -829377.56, -84935.18, -0.2349966, -0.32708552, -670043.1, -312936.5, 0.09444842, 9.998733, 9.9972105 
2.2751932e+3, 2.7355942e+2, -85889.75, -265652.9, 19763.643, -0.40973407, -0.16750596, -83742.53, 175350.66, 0.04983968, 10.001617, 9.998978 
2.2752173e+3, 2.835586e+2, -245802.2, -418555.16, -155407.4, -0.25071698, -0.12436601, -154380.05, 6720.889, 0.019500945, 10.000343, 9.997894 
2.2752503e+3, 2.935558e+2, -3442.5742, -165469.67, 109795.14, 0.25123093, -0.30879092, 51992.285, 115123.62, 0.004786881, 10.001096, 9.998522 
2.2752766e+3, 3.0355316e+2, -58888.715, -359528.3, -106869.61, 0.096551575, -0.5031143, -24771.11, -24771.11, 0.0007184054, 10.0011835, 9.996867 
2.2752935e+3, 3.1355363e+2, 8898.588, -307190.16, 104784.836, -0.3940343, 0.055878732, 40479.863, 40479.863, 0.0007782504, 10.001498, 9.997059 
2.2851257e+3, 2.4353972e+2, -892567.8, -1082142.6, -312505.8, 0.08479319, -0.11111033, -660790.5, -107498.95, 0.45869297, 9.998025, 9.99779 
2.2851379e+3, 2.5353175e+2, -953669.1, -770079.9, -83353.38, -0.8272941, -0.649284, -737882.4, -282513.13, 0.36361384, 9.996699, 9.999414 
2.285176e+3, 2.6353738e+2, -339397.06, -569255.9, 73486.875, 0.45536956, 0.04294764, -317911.34, 39400.438, 0.26167566, 10.000802, 9.998102 
2.2852026e+3, 2.7353528e+2, 365085.84, -60125.766, 159269.42, 0.22759049, -0.0948523, 418126.38, 677454.4, 0.1640845, 10.005459, 9.998935 
2.2852214e+3, 2.8353143e+2, 307573.97, -102873.35, -109592.04, -0.043705985, -0.3221971, 335002.78, 496366.88, 0.0825175, 10.004136, 9.9983425 
2.2852503e+3, 2.935309e+2, 556672.5, 189554.36, 317699.25, -0.01794267, -0.33984494, 740028.56, 803400.7, 0.030766662, 10.004502, 9.999482 
2.2852798e+3, 3.0353212e+2, 575935.56, 190530.34, 138168.13, 0.17003275, -0.28988937, 620350.5, 620350.5, 0.009050694, 10.004299, 9.999255 
2.2852969e+3, 3.1353232e+2, 60637.348, 99772.28, 112181.28, -0.13879938, 0.04528941, 194079.86, 194079.86, 0.0039682016, 10.000139, 10.000505 
2.2952053e+3, 2.7350906e+2, -1084806.4, -753759.3, -996801.7, -0.0795526, -0.23337044, 91168.35, 350751.56, 0.4346383, 9.995006, 9.999833 
2.2952278e+3, 2.8349918e+2, -1027749.6, -1057429.1, -471801.72, 0.07213423, -1.1238146, -570554.3, -408877.66, 0.25421605, 9.996062, 9.99554 
2.2952469e+3, 2.935128e+2, 420654.84, 312992.22, 395849.22, -0.9021423, -0.13443436, 766316.25, 829860.8, 0.12189548, 10.003158, 10.001114 
2.2952822e+3, 3.0352217e+2, -482004.5, -535304.8, -30288.555, -0.19297713, 0.75278085, -468310.78, -468310.78, 0.054294243, 9.998127, 9.997081 
2.2953057e+3, 3.135103e+2, 12863.28, 844852.3, -277899.16, 0.5368802, -0.8526091, 929137.06, 929137.06, 0.03203363, 9.9967785, 10.007199 
2.305265e+3, 2.9350322e+2, -810046.75, -1018658.2, -664496.3, 0.3835377, 0.750822, -241719.56, -178075.84, 0.36357632, 9.996798, 9.995321 
2.3052952e+3, 3.034793e+2, 606029.2, 226278.6, -102803.37, 0.17928289, -1.9571769, 632073.25, 632073.25, 0.21849893, 10.005244, 9.999504 
2.3052981e+3, 3.1349835e+2, -74882.96, -1178494.3, 342103.4, -0.50349337, 0.44632992, 22560.357, 22560.357, 0.17193125, 10.003577, 9.99089 
2.3440117e+3, 2.88711e+2, -1481729.6, -593489.94, -848947.1, -0.11462838, 0.024006072, -79510.83, 31097.916, 0.4759339, 9.989711, 10.00093 
2.3575395e+3, 1.7907579e+2, -952522.56, -157180.78, 480613.13, -0.58189017, -1.1376055, 68952.08, 1253968.8, 0.4365881, 9.994987, 10.01434 
2.3572256e+3, 1.8907198e+2, -1385236.8, -1584467.1, 157894.05, 0.16559924, -1.1196705, -1298160.5, -211101.78, 0.3777324, 9.999157, 9.996278 
2.356904e+3, 1.9907866e+2, -831780.94, -1121337.3, -165045.88, 0.3767149, 0.15065609, -757012.2, 231995.84, 0.3336362, 10.002101, 9.997644 
2.3565723e+3, 2.0906885e+2, -634892.3, -519401.0, -295765.56, -0.540919, -0.44039178, -275796.63, 615308.1, 0.30109763, 10.000654, 10.002585 
2.3562554e+3, 2.1907184e+2, -1390341.4, -923552.3, 123745.7, 0.20010406, -0.03645834, -892776.44, -99703.27, 0.2783399, 9.994245, 10.001513 
2.3559365e+3, 2.2907433e+2, 28341.865, -174477.55, -23084.512, -0.15728287, 0.48892164, 30936.117, 725978.25, 0.2613125, 10.00493, 10.002027 
2.3556182e+3, 2.3906216e+2, -131193.64, -307753.88, -421975.63, -0.72775984, -0.6515013, 211637.36, 808790.0, 0.24582522, 10.002827, 10.001058 
2.3553096e+3, 2.4905977e+2, -346749.56, -445306.53, -391463.7, 0.25294715, -0.47339764, -1474.9052, 497700.72, 0.2302187, 10.0009575, 9.999849 
2.3549905e+3, 2.590571e+2, -1527416.6, -1099771.5, -386082.4, 0.09583942, -0.31403962, -872255.5, -471052.38, 0.21018535, 9.991941, 9.998772 
2.3546633e+3, 2.690523e+2, 291011.66, 90157.125, -192825.84, -0.22788417, -0.41013435, 407995.16, 711242.94, 0.1767482, 10.003522, 10.001277 
2.3543479e+3, 2.7904236e+2, 601998.2, -835645.3, 362947.78, -0.17432792, -0.7023574, 688431.56, 893775.7, 0.13579682, 10.010325, 9.99049 
2.3540239e+3, 2.8903395e+2, 1432862.8, 371167.13, 77011.42, 0.067497514, -0.3743124, 1438419.9, 1545854.9, 0.12680572, 10.012795, 9.997296 
2.3537095e+3, 2.990346e+2, -322384.25, 72639.266, 673701.4, 0.1679892, -0.21783957, 577184.8, 586622.56, 0.18573105, 9.996534, 10.002978 
2.3533951e+3, 3.0902994e+2, 225268.8, 325956.6, -688261.6, -0.1793573, -0.37474883, 965713.1, 965713.1, 0.30996668, 10.002149, 10.002985 
2.3681752e+3, 1.5943393e+2, -2036132.1, -2132968.3, 378473.03, -1.02189, 0.11724186, -1702992.6, -325459.84, 0.40917933, 9.996406, 9.996152 
2.3678665e+3, 1.6942407e+2, -1481335.6, -1811385.4, -411239.4, 0.10926933, 0.026360907, -1203245.4, 76373.97, 0.31914386, 10.000252, 9.995757 
2.3675488e+3, 1.7942134e+2, -1108446.4, -1782416.9, -197002.56, 0.8093744, 0.60036874, -1055086.8, 126546.53, 0.25440213, 10.002922, 9.994116 
2.3672229e+3, 1.8940797e+2, -912500.94, -1343444.9, 54073.848, 0.36578053, 0.28017235, -905819.44, 177952.27, 0.20803183, 10.002697, 9.996405 
2.3668963e+3, 1.9939649e+2, -738782.6, -1005725.56, 36302.387, -0.103923626, -0.0908515, -733933.8, 251961.19, 0.17323136, 10.00211, 9.998478 
2.366571e+3, 2.0938991e+2, -368253.38, -322082.6, -105966.13, -0.18243705, -0.3881274, -236716.36, 651240.75, 0.14628568, 10.002114, 10.003049 
2.36625e+3, 2.1938458e+2, -378054.38, -509777.84, -84455.88, 0.233778, -0.7298969, -336815.38, 453189.5, 0.12553912, 10.002158, 10.000778 
2.3659372e+3, 2.2938111e+2, -582225.4, -752909.75, 261244.97, 0.365782, -0.5045067, -392736.28, 299307.25, 0.108313076, 10.00082, 9.998812 
2.3656218e+3, 2.393758e+2, -722998.6, -721012.1, 146420.88, 0.12646936, -0.43894503, -575581.1, 18520.268, 0.092006706, 9.998704, 9.999371 
2.3652962e+3, 2.493749e+2, -176084.78, 110146.79, -45274.793, -0.420274, -0.2691932, 117137.414, 613246.2, 0.07587349, 9.999768, 10.00419 
2.3649746e+3, 2.5937364e+2, -168256.5, -277686.34, 91328.336, -0.6592074, -0.15375438, -116507.4, 281610.66, 0.059167173, 10.001069, 9.999943 
2.3646604e+3, 2.6937115e+2, 111580.76, 380757.25, 3753.3875, -0.2536056, -0.14478171, 380809.56, 680945.0, 0.040480368, 10.00038, 10.004151 
2.3643525e+3, 2.79367e+2, -568536.3, -598809.3, 73914.72, 0.2091392, -0.380781, -508224.16, -306055.38, 0.022792675, 9.998187, 9.997584 
2.3640262e+3, 2.8935704e+2, 105024.26, -390880.34, -272895.47, 0.0006905126, -0.55415475, 225789.03, 330056.13, 0.018048033, 10.003098, 9.99584 
2.3637004e+3, 2.9934937e+2, 123384.82, -344745.63, 314893.47, -0.28820297, -0.81214565, 281677.13, 288023.38, 0.038622376, 10.002682, 9.996179 
2.3633903e+3, 3.0935115e+2, -431919.06, -274852.88, 23322.422, -0.066078715, 0.16593789, -271462.94, -271462.94, 0.08553702, 9.997717, 9.998856 
2.3784865e+3, 1.4974163e+2, -524660.6, -851254.7, 129938.54, -0.12761015, -0.18454254, -479271.44, 993247.7, 0.38968346, 10.009157, 10.001978 
2.3781767e+3, 1.5973851e+2, -1911932.9, -1701811.5, -55992.496, -0.26723155, -0.35249075, -1687822.3, -313281.06, 0.27836236, 9.996177, 9.99919 
2.3778589e+3, 1.6973242e+2, -1493770.9, -1251417.6, -132453.97, -0.17302649, -0.47762835, -1193073.1, 83525.46, 0.19862524, 9.997682, 10.000818 
2.3775384e+3, 1.7972843e+2, -1143568.4, -1319968.1, -91835.89, -0.14114851, -0.5582871, -1104437.9, 74198.375, 0.1461588, 10.000595, 9.998327 
2.3772146e+3, 1.8972412e+2, -947116.9, -1117594.8, 25267.426, -0.3452959, -0.3305046, -943450.7, 137227.11, 0.11113541, 10.001265, 9.9985895 
2.3768917e+3, 1.9971777e+2, -1057069.8, -1271596.6, -8201.271, -0.39044148, -0.39267844, -1056756.8, -74016.805, 0.08556882, 10.000093, 9.997587 
2.3765709e+3, 2.0971271e+2, -773888.25, -903240.5, -127672.95, -0.0015110209, -0.2587363, -695444.2, 189345.42, 0.065839775, 10.000829, 9.998973 
2.3762475e+3, 2.1970725e+2, -847345.7, -1021781.6, -69087.61, 0.11606286, -0.268257, -823297.9, -36454.03, 0.050802168, 9.999976, 9.997997 
2.3759288e+3, 2.2970387e+2, -793972.2, -663084.06, 182873.0, -0.18712947, -0.08739327, -534297.7, 154586.42, 0.03888462, 9.998611, 10.000353 
2.375614e+3, 2.3970048e+2, -1137129.0, -896823.8, 97536.555, -0.24531166, 0.021286959, -862218.44, -271294.56, 0.028499532, 9.9959755, 9.999441 
2.3752952e+3, 2.4969673e+2, -362993.13, -27616.639, -30426.387, -0.13158044, -0.084206395, -24878.617, 468076.25, 0.019239584, 9.998836, 10.003318 
2.3749782e+3, 2.5969148e+2, -509173.97, -591071.75, 53223.66, -0.038794626, -0.32940304, -482969.53, -87969.805, 0.01143259, 9.999479, 9.998452 
2.3746604e+3, 2.696877e+2, -311326.8, -271713.7, -170077.05, 0.10659805, -0.14941229, -120293.78, 176744.06, 0.005417436, 9.999607, 9.999768 
2.3743445e+3, 2.7968326e+2, -785039.4, -634695.3, -96685.63, 0.06285695, -0.1563536, -587397.2, -388314.25, 0.0017240121, 9.9964905, 9.998162 
2.3740208e+3, 2.896771e+2, 438701.13, 304495.6, -167482.14, -0.4147234, -0.26098225, 552023.0, 653161.8, 0.0009965353, 10.0030575, 10.000677 
2.3737027e+3, 2.9967603e+2, 582542.7, 33154.684, 148505.81, -0.4925006, -0.20638932, 620115.8, 623261.9, 0.0037784507, 10.005055, 9.997696 
2.3733911e+3, 3.0966607e+2, 26677.719, -235801.03, -4786.0728, -0.10552713, -0.16603108, 26764.959, 26764.959, 0.011109927, 10.001545, 9.997422 
2.3888047e+3, 1.400601e+2, -1608631.0, -1091420.5, 152253.73, 0.3480636, -0.022795975, -1049929.4, 517479.75, 0.42782903, 9.995928, 10.006993 
2.3884843e+3, 1.5005901e+2, -1529840.1, -1161761.8, 199161.45, -0.10466372, -0.12555547, -1074626.3, 394786.13, 0.29985446, 9.997406, 10.003867 
2.3881714e+3, 1.6005729e+2, -1568421.9, -1322546.3, 108487.85, -0.10811422, -0.18172072, -1281522.8, 89900.64, 0.19614406, 9.997334, 10.001474 
2.3878528e+3, 1.700532e+2, -1268636.1, -1034095.75, 17480.146, -0.1678583, -0.2864343, -1032800.1, 240661.97, 0.12585048, 9.998403, 10.00223 
2.3875329e+3, 1.8004867e+2, -1211646.5, -1185908.1, -22276.445, -0.22509956, -0.4749834, -1173050.8, 2454.9539, 0.083471425, 9.999186, 9.999976 
2.3872115e+3, 1.900439e+2, -984568.94, -1048381.25, -61549.203, -0.2582616, -0.41282475, -947147.56, 130402.67, 0.057587944, 10.000439, 9.999518 
2.3868895e+3, 2.0003845e+2, -824101.0, -1120838.3, -140939.14, -0.26706877, -0.4168778, -767830.7, 211770.25, 0.03970386, 10.001411, 9.99804 
2.3865664e+3, 2.1003343e+2, -560074.7, -887051.2, -169623.7, -0.12630846, -0.258404, -487977.25, 393672.1, 0.026570952, 10.00251, 9.998331 
2.3862436e+3, 2.2002845e+2, -371166.63, -766056.4, 16933.357, -0.008613751, -0.11642565, -370441.84, 413256.6, 0.017417854, 10.003116, 9.998262 
2.3859248e+3, 2.3002464e+2, -431811.7, -474142.2, 152726.98, -0.11077693, 0.014877885, -298790.38, 386950.25, 0.011141793, 10.001055, 10.000482 
2.3856084e+3, 2.4002014e+2, -682836.06, -660618.44, 116439.85, -0.14506982, 0.045916878, -554758.7, 33030.67, 0.0065593217, 9.99901, 9.9995775 
2.3852915e+3, 2.5001493e+2, -278461.38, -149728.64, 6419.675, 0.0063323886, -0.10738726, -149409.3, 340426.6, 0.0032030866, 10.000078, 10.001832 
2.3849766e+3, 2.6000902e+2, -367183.3, -564849.2, 20316.799, 0.17142569, -0.28869963, -365116.7, 26771.607, 0.0011282732, 10.000605, 9.998056 
2.3846567e+3, 2.700036e+2, -132211.19, -388349.75, -65948.1, 0.15006356, -0.14616929, -116228.766, 177715.64, 0.00023273825, 10.001642, 9.9980135 
2.3843384e+3, 2.7999774e+2, -88090.445, -198160.4, 126370.51, 0.017160183, -0.13564983, -5290.913, 190714.5, 0.000018977813, 10.000706, 9.999139 
2.3840179e+3, 2.899941e+2, 153308.34, 363410.53, 416.21802, -0.43550292, -0.16482507, 363411.34, 461450.16, 0.000039610317, 10.000187, 10.002444 
2.3837034e+3, 2.999959e+2, -317307.2, -385938.44, -84604.02, -0.18172482, 0.15956064, -260324.39, -260307.89, 0.00031053094, 9.998738, 9.997814 
2.3833904e+3, 3.0998027e+2, 98425.93, -22585.627, -469766.84, 0.24736905, -0.45007345, 511567.53, 511567.53, 0.0010092406, 10.00147, 9.998705 
2.399131e+3, 1.3037896e+2, -1679372.0, -1432813.3, -23116.559, 0.17889756, -0.34791273, -1430664.6, 231609.98, 0.4904385, 9.998083, 10.003057 
2.3987913e+3, 1.403807e+2, -1652160.0, -1504132.1, -47719.477, -0.36151704, -0.2022965, -1490082.4, 74175.65, 0.36336115, 9.998582, 10.000848 
2.3984773e+3, 1.5038016e+2, -1530609.1, -1218540.0, 310005.78, -0.12802386, 0.00026734784, -1027515.0, 438751.6, 0.24041095, 9.998215, 10.002621 
2.3981653e+3, 1.6037896e+2, -1732085.4, -1399368.6, 169836.81, 0.010137737, 0.04835725, -1327988.4, 40292.426, 0.14389461, 9.99652, 10.001106 
2.3978479e+3, 1.7037718e+2, -1282751.6, -962480.7, 99645.484, -0.006961056, 0.12778941, -934009.2, 336286.1, 0.08188297, 9.998221, 10.002692 
2.3975295e+3, 1.8037346e+2, -1342978.4, -1331875.6, 7008.051, 0.0067122173, 0.012401278, -1328486.6, -156158.11, 0.047678713, 9.998736, 9.999204 
2.3972094e+3, 1.903669e+2, -1117020.9, -1154612.1, -20874.582, 0.017350746, -0.057572942, -1107726.9, -33334.84, 0.028905774, 9.999799, 9.999037 
2.3968881e+3, 2.0036054e+2, -1117623.9, -1289576.3, -127148.03, -0.009414113, -0.13401096, -1050112.3, -73658.766, 0.017015342, 9.9996605, 9.997682 
2.396564e+3, 2.1035452e+2, -675686.6, -805636.2, -137902.8, -0.086253196, -0.15314585, -588218.3, 290290.7, 0.00915297, 10.001271, 9.999416 
2.3962413e+3, 2.2034809e+2, -697597.2, -969317.7, -28269.293, -0.030476306, -0.24010912, -694687.25, 85881.625, 0.0045936005, 10.001196, 9.997778 
2.3959224e+3, 2.3034246e+2, -617585.1, -658069.44, 46307.785, 0.054750968, -0.23353508, -587288.6, 95334.71, 0.0022051786, 10.000282, 9.999537 
2.3956043e+3, 2.403362e+2, -999894.25, -1003817.1, 65728.13, 0.042132802, -0.29573402, -936098.25, -351413.25, 0.0009056362, 9.99777, 9.997817 
2.3952864e+3, 2.5033236e+2, -490819.56, -411769.9, 23702.416, -0.029701248, -0.16604601, -405207.7, 81516.26, 0.00023937336, 9.99954, 10.000168 
2.3949699e+3, 2.6032776e+2, -594664.1, -738763.06, 5875.7505, -0.09020864, -0.1276986, -594424.94, -205655.66, 0.000025130046, 9.999414, 9.997442 
2.3946509e+3, 2.703207e+2, -20487.193, -168792.64, -30000.76, -0.16710167, -0.2290521, -14648.218, 276186.3, 0.00000030344088, 10.001785, 9.999424 
2.3943327e+3, 2.8031412e+2, -174632.77, -287801.44, 77900.805, -0.27842525, -0.4398613, -134934.6, 57962.58, 0.0000000068303647, 10.000379, 9.998706 
2.394016e+3, 2.9030943e+2, -124919.25, -65929.6, -22016.652, -0.19096549, -0.38198516, -58618.48, 36333.832, 0.0000039429096, 9.999654, 9.999719 
2.3937012e+3, 3.003078e+2, -644848.0, -656662.25, 3451.5596, -0.06767547, -0.08020327, -643913.5, -643913.5, 0.00006190627, 9.997036, 9.996759 
2.3933882e+3, 3.10298e+2, 623571.25, 759080.44, 57691.746, -0.087091014, -0.4646072, 780314.75, 780314.75, 0.0002690841, 10.002572, 10.0035715 
2.4091196e+3, 1.3071191e+2, -2197949.0, -1868037.8, -190639.94, -0.2583701, -0.040920842, -1780894.3, -121885.46, 0.44510007, 9.99575, 10.0001135 
2.4087861e+3, 1.4070594e+2, -1219887.9, -1461484.3, 63005.113, -0.65045065, -0.22818102, -1204444.3, 356626.84, 0.31930807, 10.003309, 9.9991255 
2.4084729e+3, 1.5070337e+2, -1156809.5, -1169277.1, 265406.2, -0.20902672, -0.06755813, -897564.0, 565534.06, 0.20041417, 10.001647, 10.001198 
2.4081604e+3, 1.6070022e+2, -1469502.1, -1399962.4, 250062.1, 0.09610015, -0.032102145, -1182264.5, 182866.03, 0.110025235, 9.998811, 10.000074 
2.407843e+3, 1.7069715e+2, -1089616.9, -1017988.1, 157587.67, 0.028565215, 0.062388934, -892196.4, 374962.72, 0.054970514, 10.000224, 10.001306 
2.4075249e+3, 1.806932e+2, -1029446.3, -1225527.3, -16225.788, -0.06676904, 0.06929615, -1028112.7, 141084.16, 0.027314784, 10.000969, 9.998896 
2.4072044e+3, 1.9068672e+2, -1029365.9, -1162825.0, -69682.84, -0.030477898, 0.031349678, -999614.7, 71647.734, 0.013986388, 10.000499, 9.998713 
2.4068832e+3, 2.0067997e+2, -1035102.2, -1169029.8, -112765.16, -0.035974327, -0.037825134, -970916.7, 2413.0022, 0.006556314, 9.999783, 9.99847 
2.4065605e+3, 2.1067427e+2, -671904.6, -722279.7, -142678.11, -0.053934082, -0.10137016, -552207.9, 323173.44, 0.002469395, 10.000942, 10.0001545 
2.4062385e+3, 2.2066812e+2, -500628.0, -828934.5, -47279.113, -0.053799585, -0.18783957, -493955.0, 283481.72, 0.00078321603, 10.00219, 9.998297 
2.4059197e+3, 2.306613e+2, -264014.4, -591425.8, -17518.564, 0.06703687, -0.26880872, -263079.72, 416420.22, 0.00023610769, 10.002921, 9.998811 
2.4056016e+3, 2.4065419e+2, -237762.08, -664870.8, 49719.746, 0.12736747, -0.3440304, -232050.58, 349516.8, 0.000047296035, 10.002918, 9.99771 
2.4052823e+3, 2.506495e+2, -264495.34, -409584.84, 50020.64, -0.04981425, -0.21977413, -248921.95, 234694.63, 0.0000020598873, 10.001484, 9.999293 
2.4049644e+3, 2.606447e+2, -442779.4, -543007.6, 101966.33, -0.19948144, -0.14255999, -379277.7, 6388.583, 0.0, 9.999838, 9.9985895 
2.404647e+3, 2.7063856e+2, -69392.83, -87535.17, 55410.652, -0.22393581, -0.2519004, -22315.746, 265405.34, 0.0, 10.000968, 10.000392 
2.4043301e+3, 2.806327e+2, -26649.96, -242745.39, 31765.014, -0.20578554, -0.4121451, -22077.408, 167698.27, 0.0, 10.001386, 9.998545 
2.4040137e+3, 2.9062697e+2, 118080.086, -169253.48, -63820.02, -0.014067258, -0.31845155, 131617.44, 223463.81, 0.00000028208012, 10.002143, 9.9978695 
2.403699e+3, 3.0062407e+2, -53945.13, -269638.6, 169052.36, 0.25660416, 0.016374378, 38731.492, 38731.492, 0.000017512673, 10.000508, 9.99779 
2.403387e+3, 3.1061512e+2, 452040.9, 943010.9, 29693.148, 0.0247397, -0.485611, 944800.1, 944800.1, 0.0001005609, 10.000185, 10.006057 
2.4191196e+3, 1.3103673e+2, -2211753.3, -1971901.5, -53183.246, 0.6573579, -0.014534229, -1960638.0, -304809.38, 0.41411307, 9.996083, 9.999134 
2.4187839e+3, 1.4103082e+2, -1561097.6, -1854356.8, -59082.18, -0.66467077, -0.17098175, -1549642.0, 8248.828, 0.28877336, 10.000804, 9.997281 
2.4184698e+3, 1.5102623e+2, -1315421.9, -1339411.4, 56673.863, -0.18051273, -0.12767708, -1269487.4, 190445.55, 0.17287979, 10.0007305, 10.000157 
2.4181566e+3, 1.6102095e+2, -1616712.5, -1741342.3, 93624.87, 0.29715142, -0.1772838, -1566560.6, -204578.69, 0.08747846, 9.998903, 9.997657 
2.4178389e+3, 1.7101584e+2, -1331725.5, -1334925.0, 146596.86, 0.06713237, -0.10176007, -1186719.8, 77313.2, 0.038149297, 9.999503, 9.999314 
2.4175198e+3, 1.8101087e+2, -1422697.4, -1554804.1, -50868.176, -0.14761929, -0.039965145, -1405380.4, -239296.63, 0.01570925, 9.998975, 9.99753 
2.4171984e+3, 1.9100472e+2, -1149673.0, -1223541.8, -101816.33, -0.14892305, -0.03563724, -1078299.0, -10149.73, 0.0064830934, 9.999755, 9.998583 
2.4168774e+3, 2.0099823e+2, -1208909.1, -1312544.0, -111359.836, -0.093194835, -0.07944017, -1137901.3, -167684.78, 0.0021827125, 9.998946, 9.997865 
2.4165559e+3, 2.1099323e+2, -710784.6, -733287.1, -103678.05, -0.08947271, -0.08061511, -617749.1, 254511.81, 0.00044835047, 10.000676, 10.0001745 
2.4162354e+3, 2.2098799e+2, -778654.8, -1039931.3, -44137.945, -0.07806057, -0.0921172, -771400.0, 2906.973, 0.000068581576, 10.000757, 9.99751 
2.4159169e+3, 2.3098171e+2, -405093.75, -665957.8, -20322.182, -0.0004135986, -0.09023732, -403520.1, 272843.72, 0.0000096515805, 10.002237, 9.99851 
2.4155991e+3, 2.4097463e+2, -535232.56, -881542.1, -21217.188, 0.07470457, -0.15409036, -533937.5, 44492.355, 0.00000040342232, 10.0013895, 9.996916 
2.4152778e+3, 2.5096756e+2, -358972.8, -475278.53, -25881.379, -0.13584816, -0.25470164, -353473.47, 127028.28, 0.0, 10.001026, 9.999009 
2.4149585e+3, 2.6096123e+2, -670928.06, -697077.5, 51892.57, -0.32434952, -0.33225507, -630488.44, -247922.27, 0.0, 9.998571, 9.998152 
2.4146444e+3, 2.709583e+2, -166422.73, -115654.21, 90953.86, -0.10462745, -0.14641124, -46608.793, 237985.11, 0.0, 10.000355, 10.000424 
2.4143298e+3, 2.809549e+2, -343656.0, -586623.06, 43548.66, 0.017774519, -0.013114569, -336086.3, -149457.61, 0.0, 10.000125, 9.996793 
2.41401e+3, 2.9094893e+2, 58237.344, -239667.83, -27458.072, -0.16907334, 0.14510909, 60747.027, 149447.47, 0.0000000009564638, 10.00207, 9.997349 
2.4136943e+3, 3.0094442e+2, -202284.73, -390841.2, 161126.89, -0.18047595, 0.33287293, -109880.72, -109880.72, 0.0000015325257, 9.999843, 9.997266 
2.4133813e+3, 3.1093666e+2, 113876.625, 486825.06, -72007.33, -0.3054334, -0.04742821, 500245.06, 500245.06, 0.000021924814, 9.999098, 10.003472 
2.4291067e+3, 1.3135001e+2, -1780759.6, -1699891.0, -264005.75, -0.08182102, -0.19648702, -1473241.1, 179527.66, 0.3927152, 9.998823, 10.000203 
2.4287863e+3, 1.4134897e+2, -1726862.6, -1842061.4, -222671.05, -0.035571918, 0.11914692, -1554461.8, 321.47052, 0.26710206, 9.999165, 9.998192 
2.428468e+3, 1.5134336e+2, -1306997.5, -1423370.8, -177809.53, 0.0030167073, 0.08691856, -1178096.3, 278740.3, 0.15331793, 10.001098, 9.999461 
2.4281506e+3, 1.6133718e+2, -1207254.3, -1412725.8, -181918.61, 0.043778356, -0.015566041, -1101066.5, 257826.88, 0.07196278, 10.001153, 9.998898 
2.4278331e+3, 1.7133169e+2, -1339455.1, -1218638.5, -86959.19, 0.02441836, -0.117370486, -1173164.5, 87776.234, 0.027363949, 9.998899, 10.00041 
2.4275143e+3, 1.8132633e+2, -1602417.1, -1496936.0, -89724.38, -0.070111394, -0.1919796, -1445599.5, -282609.9, 0.009079448, 9.99703, 9.998855 
2.4271937e+3, 1.9132212e+2, -1087253.5, -1088603.4, -68388.39, -0.13374731, -0.09405888, -1019536.7, 45499.836, 0.002868925, 9.999627, 9.99961 
2.426873e+3, 2.0131741e+2, -770078.5, -1066101.3, -54493.44, -0.16727114, -0.011769025, -760365.7, 206721.72, 0.00059867656, 10.001648, 9.998297 
2.4265528e+3, 2.113116e+2, -549763.06, -783776.7, -107150.71, -0.094661824, -0.01824305, -508113.4, 361029.53, 0.000045539302, 10.00213, 9.999231 
2.4262328e+3, 2.2130573e+2, -534936.8, -843729.1, -77656.055, -0.033917263, -0.02545399, -516507.53, 254689.69, 0.0000022398012, 10.001967, 9.998288 
2.4259146e+3, 2.3129961e+2, -410556.4, -585134.0, -21600.389, 0.023526208, -0.08052908, -407923.53, 265327.06, 0.000000052409952, 10.0018015, 9.99931 
2.4255961e+3, 2.4129325e+2, -449503.16, -704368.75, 2653.4104, 0.07218708, -0.12833837, -449475.53, 125832.414, 0.0, 10.001321, 9.998159 
2.4252748e+3, 2.5128663e+2, -396470.1, -497326.53, -18225.559, -0.049432006, -0.20169172, -393277.66, 84097.72, 0.0, 10.000693, 9.9990635 
2.424955e+3, 2.612804e+2, -382233.63, -529856.8, 118561.375, -0.16807339, -0.23929404, -316385.1, 63054.234, 0.0, 10.00028, 9.998492 
2.4246408e+3, 2.712767e+2, 107175.195, -86953.83, 103058.34, -0.12457158, -0.072937265, 151682.38, 433159.5, 0.0, 10.002521, 9.99963 
2.4243268e+3, 2.8127307e+2, 184192.33, -309540.7, -11151.327, -0.017484644, 0.12001159, 184444.06, 367959.94, 0.0, 10.0035095, 9.997086 
2.4240078e+3, 2.912669e+2, 170853.6, -192541.45, -59985.18, -0.16809687, 0.2512098, 180499.25, 266084.94, 0.0, 10.002684, 9.997467 
2.4236915e+3, 3.012612e+2, -60155.625, -277150.56, 116758.42, -0.1535962, 0.32175586, -9266.048, -9266.048, 0.000000086511356, 10.000458, 9.997796 
2.4233794e+3, 3.112558e+2, 62424.945, 240050.17, -439258.03, -0.0017106723, 0.30902386, 599384.06, 599384.06, 0.0000026170453, 9.999479, 10.001695 
2.4394248e+3, 1.21672705e+2, -1825897.9, -2271043.8, 491018.03, 0.5694104, 0.45075482, -1509362.8, 238245.03, 0.4945634, 10.002426, 9.99519 
2.4390933e+3, 1.3166143e+2, -1675416.4, -1524208.3, -204317.31, -0.85407776, -0.3289313, -1381955.6, 267772.13, 0.3775347, 9.999183, 10.001502 
2.4387896e+3, 1.416654e+2, -1886544.3, -1922848.6, -124766.8, 0.86188364, 0.43318197, -1778616.0, -226922.89, 0.25111946, 9.99825, 9.998022 
2.4384665e+3, 1.5165906e+2, -1439975.0, -1567884.1, -66520.16, 0.25050607, 0.37983474, -1411652.1, 42104.1, 0.13882844, 10.000486, 9.998568 
2.4381442e+3, 1.6165197e+2, -1285646.1, -1354042.5, -180272.73, -0.19552568, 0.21835761, -1136356.5, 219465.84, 0.060861234, 10.000279, 9.999676 
2.4378268e+3, 1.7164607e+2, -1226437.9, -937960.94, -173622.27, 0.04153759, -0.1329143, -856479.6, 401384.44, 0.02025213, 9.998766, 10.002393 
2.4375093e+3, 1.8164109e+2, -1588687.3, -1367212.9, -91053.84, 0.19860922, -0.35073566, -1334585.1, -174683.78, 0.0052852775, 9.996688, 9.999919 
2.4371892e+3, 1.9163978e+2, -1065768.3, -919465.3, -14528.954, -0.0394268, -0.11150575, -918036.44, 143882.19, 0.0012089658, 9.9992, 10.000954 
2.4368699e+3, 2.0163736e+2, -1050806.5, -1279607.1, -70190.94, -0.15351078, 0.12381783, -1030989.8, -67042.0, 0.00012403581, 10.000248, 9.997461 
2.4365503e+3, 2.1163036e+2, -790175.94, -1026739.44, -123069.63, -0.037256487, 0.08656393, -737762.94, 128256.516, 0.000001917801, 10.001222, 9.997879 
2.4362312e+3, 2.2162296e+2, -809984.44, -1010600.06, -89409.59, 0.08008963, 0.008257864, -775920.6, -7828.7856, 0.000000018702426, 10.000375, 9.997852 
2.4359116e+3, 2.3161632e+2, -404305.66, -443553.53, -36118.316, 0.05748839, -0.21081416, -382824.44, 287323.06, 0.0, 10.001294, 10.000469 
2.4355926e+3, 2.4161044e+2, -657923.0, -809601.0, -45494.492, 0.06316011, -0.3226665, -645323.9, -73125.69, 0.0, 10.000013, 9.998055 
2.435273e+3, 2.5160745e+2, -462342.78, -501661.28, -59331.47, 0.18485688, -0.06207567, -419498.38, 54732.105, 0.0, 10.000278, 9.999177 
2.4349539e+3, 2.6160297e+2, -707935.0, -921276.2, 158724.9, 0.11763331, 0.12058693, -623366.94, -247089.08, 0.0, 9.999196, 9.996312 
2.4346358e+3, 2.7159423e+2, -80631.19, -402619.03, 186157.33, -0.45002827, -0.020265874, 4491.9165, 282857.2, 0.0, 10.002297, 9.997534 
2.4343199e+3, 2.8158593e+2, -8631.154, -468723.2, -63243.82, -0.6928611, -0.15454498, -96.05146, 180352.16, 0.0, 10.002579, 9.9964485 
2.4340068e+3, 2.9157886e+2, 77274.57, -178413.31, -116545.15, -0.085188545, -0.18952063, 122424.4, 204942.88, 0.0, 10.001893, 9.997915 
2.4336919e+3, 3.0157226e+2, -478621.66, -599307.06, 77566.85, 0.14954476, -0.18540955, -440689.97, -440689.97, 0.0, 9.998232, 9.996651 
2.433376e+3, 3.1156525e+2, -125413.23, 64516.934, -65230.64, -0.09856482, -0.37384257, 84762.11, 84762.11, 0.00000012758136, 9.998748, 10.000743 
2.4494189e+3, 1.2198112e+2, -1569853.6, -1626310.3, -68244.97, 0.048461914, -0.06498387, -1524229.3, 220362.52, 0.48541045, 10.001462, 10.000561 
2.4490891e+3, 1.319786e+2, -1483595.5, -1327128.3, -141609.64, -0.7793278, -0.17292301, -1243578.8, 403041.63, 0.3659335, 9.999881, 10.003153 
2.4487805e+3, 1.41982e+2, -1565855.1, -1614462.0, 33848.453, 0.428929, 0.41129765, -1548488.8, 99.6296, 0.23856215, 9.999674, 9.999489 
2.4484624e+3, 1.5197515e+2, -1307646.3, -1404679.5, 142062.89, 0.18691276, 0.22573838, -1206043.9, 244608.23, 0.1275105, 10.00098, 9.999577 
2.448143e+3, 1.6196789e+2, -1162877.3, -1313025.3, -524.95526, -0.029180624, 0.019822026, -1162875.5, 189843.16, 0.052560914, 10.001125, 9.999542 
2.4478222e+3, 1.7196241e+2, -1105563.9, -1043016.06, -144919.75, 0.06139237, -0.14798361, -926034.2, 328728.94, 0.01541553, 10.000144, 10.001069 
2.4475022e+3, 1.8195762e+2, -1256415.6, -1198310.1, -94924.17, 0.09373065, -0.2343828, -1128092.3, 28710.885, 0.0031067657, 9.998816, 10.000089 
2.4471846e+3, 1.919553e+2, -1017617.4, -905294.56, -55054.754, 0.0040063695, -0.09695376, -882810.4, 176017.56, 0.00048131414, 9.999479, 10.000982 
2.4468666e+3, 2.0195207e+2, -1031607.25, -1138306.0, -164591.86, -0.051886816, 0.03332033, -911934.56, 48927.504, 0.000015932997, 9.999722, 9.99868 
2.4465467e+3, 2.1194601e+2, -928303.2, -980425.1, -159280.72, 0.028128456, -0.014770524, -792965.5, 69957.87, 0.0000000054715246, 9.999755, 9.99892 
2.446227e+3, 2.2193967e+2, -804382.7, -908154.4, -28719.273, 0.083369456, -0.059035968, -796964.75, -31978.857, 0.0, 9.999833, 9.998847 
2.4459079e+3, 2.3193368e+2, -484025.56, -515679.66, -57268.49, 0.05172408, -0.20337074, -440437.3, 226601.77, 0.0, 10.000748, 10.000314 
2.4455889e+3, 2.4192812e+2, -395612.2, -667125.2, -153961.39, 0.02885035, -0.2579146, -326103.16, 242986.38, 0.0, 10.001536, 9.99836 
2.4452691e+3, 2.5192425e+2, -76313.375, -373009.56, -200221.73, 0.11545753, -0.053784817, 24529.02, 495657.78, 0.0, 10.002977, 9.9988785 
2.4449505e+3, 2.6191953e+2, -80278.25, -563662.9, 24964.473, 0.070388794, 0.11950482, -78992.375, 294184.4, 0.0, 10.003111, 9.996926 
2.4446331e+3, 2.7191004e+2, -331749.13, -566084.94, 167227.98, -0.42374578, -0.09332806, -244727.13, 30543.002, 0.0, 10.000645, 9.997264 
2.4443172e+3, 2.8190094e+2, -375021.34, -549622.8, 27452.955, -0.6487351, -0.28861922, -370806.6, -193447.48, 0.0, 9.999473, 9.997421 
2.4440044e+3, 2.9189417e+2, 220594.66, -36575.67, -47722.145, -0.061787166, -0.35390064, 229164.69, 308587.03, 0.0, 10.002374, 9.998731 
2.4436902e+3, 3.018877e+2, 197360.88, -245471.6, 137564.17, 0.29804453, -0.37024808, 236615.02, 236615.02, 0.0, 10.002531, 9.997059 
2.4433723e+3, 3.118803e+2, 53047.313, 180012.22, 56548.82, -0.019471196, -0.4765405, 201546.19, 201546.19, 0.000000000000427524, 9.999616, 10.001177 
2.4594189e+3, 1.22296855e+2, -1746700.9, -1512252.0, -278995.7, 0.4241201, -0.03927498, -1326854.4, 414646.06, 0.47723737, 9.998435, 10.003839 
2.4590869e+3, 1.3229784e+2, -1443608.8, -1207650.8, -71965.77, -0.47794303, 0.05731298, -1187433.9, 456056.5, 0.3557266, 9.99971, 10.004412 
2.4587703e+3, 1.4229871e+2, -1468278.6, -1463968.5, 40156.945, -0.11588397, 0.296608, -1425908.8, 119570.695, 0.22774403, 10.000102, 10.000464 
2.4584585e+3, 1.5229145e+2, -1295822.4, -1252233.8, 129978.2, 0.18274175, -0.07784106, -1142235.4, 305305.53, 0.11809006, 10.000494, 10.000895 
2.4581434e+3, 1.6228461e+2, -1477361.8, -1659120.0, -81989.14, 0.38567227, -0.26580068, -1445843.0, -96241.54, 0.04605504, 9.999835, 9.9977455 
2.457818e+3, 1.7228028e+2, -1279087.8, -1391327.6, -195719.98, 0.10643219, -0.10981489, -1131600.8, 120045.33, 0.012013259, 10.000213, 9.998571 
2.4574946e+3, 1.8227573e+2, -1348956.1, -1420309.9, -74269.23, -0.05562505, 0.035057023, -1302239.1, -148546.7, 0.0018483637, 9.999069, 9.998417 
2.4571797e+3, 1.9226992e+2, -1051662.3, -1008444.5, -20154.982, 0.06902714, -0.106043264, -1000504.0, 55244.2, 0.00018026956, 9.999674, 10.00014 
2.4568635e+3, 2.0226455e+2, -1124538.5, -1102575.1, -170116.52, 0.16920094, -0.17566627, -943086.2, 14713.468, 0.0000007906511, 9.998869, 9.9993305 
2.456542e+3, 2.1226019e+2, -846042.2, -713199.44, -174381.89, 0.09164797, -0.25048637, -593017.4, 266822.47, 0.0, 9.99944, 10.0009 
2.4562214e+3, 2.2225578e+2, -1062766.4, -1103304.9, -37831.1, 0.043561716, -0.21116908, -1040116.7, -278234.28, 0.0, 9.998585, 9.998083 
2.4559036e+3, 2.322519e+2, -682402.06, -716789.6, -43654.01, 0.03519178, -0.060249567, -652677.9, 11245.932, 0.0, 10.000112, 9.9991255 
2.4555847e+3, 2.4224664e+2, -734055.75, -996403.25, -128480.5, -0.032345343, 0.038909666, -681616.3, -115639.26, 0.0, 10.000116, 9.996741 
2.455263e+3, 2.5223768e+2, -228511.06, -543374.06, -161312.34, -0.30088228, -0.19366987, -160539.9, 307523.5, 0.0, 10.002415, 9.997941 
2.4549441e+3, 2.6222992e+2, -279323.38, -607956.5, -54192.926, -0.39726645, -0.29590222, -270617.38, 99520.11, 0.0, 10.001644, 9.997303 
2.4546333e+3, 2.7222446e+2, -316344.2, -356655.44, 67119.64, 0.007157407, -0.29006705, -266419.2, 5768.69, 0.0, 9.999992, 9.99896 
2.4543203e+3, 2.8221953e+2, -578066.94, -589350.0, 98393.71, 0.14478827, -0.18982986, -485153.16, -310919.1, 0.0, 9.997993, 9.997836 
2.4539992e+3, 2.9221532e+2, 176762.06, 23978.922, 102833.78, -0.36439192, -0.10199354, 228473.8, 304749.63, 0.0, 10.001842, 9.999356 
2.4536832e+3, 3.0220878e+2, -159509.1, -548536.8, 53359.15, -0.3488747, -0.09936587, -152323.08, -152323.08, 0.0, 10.000838, 9.995759 
2.4533693e+3, 3.1220192e+2, -304919.38, 62854.09, 64136.48, 0.04233946, -0.1562537, 73718.016, 73718.016, 0.0, 9.997232, 10.001401 
2.4694091e+3, 1.22623e+2, -1821720.8, -1591365.5, -39669.03, 0.040043645, -0.15514731, -1584725.6, 153569.17, 0.4678526, 9.997638, 10.002761 
2.4690865e+3, 1.3262245e+2, -1577497.3, -1691256.1, 120486.734, -0.13604377, 0.33227926, -1501138.8, 139167.66, 0.34520847, 10.000965, 9.998994 
2.468772e+3, 1.4261448e+2, -1330316.0, -1524700.6, 34757.957, 0.28910556, 0.093908876, -1324287.9, 218098.27, 0.21743059, 10.001914, 9.999053 
2.4684541e+3, 1.5260799e+2, -1309951.9, -1291856.9, 34794.21, 0.15166304, -0.15257122, -1264953.1, 179486.77, 0.109704144, 10.000514, 10.00056 
2.468136e+3, 1.6260241e+2, -1398079.1, -1496477.6, -101627.484, 0.085016765, -0.22678752, -1334368.3, 12118.967, 0.040704507, 9.99978, 9.998896 
2.4678138e+3, 1.725987e+2, -873778.6, -1110346.9, -88334.61, 0.00911701, -0.081173345, -844434.4, 404089.56, 0.00953522, 10.002585, 9.999424 
2.4674924e+3, 1.8259414e+2, -685145.3, -1096735.0, 59517.074, -0.07513853, 0.048189886, -676711.8, 473858.28, 0.0011160366, 10.003536, 9.998502 
2.4671757e+3, 1.9258696e+2, -785508.2, -989420.5, 70795.85, 0.02033409, -0.12496587, -763339.0, 289302.38, 0.00006263998, 10.001904, 9.999239 
2.4668583e+3, 2.0258105e+2, -835923.56, -895748.2, -62065.363, 0.098183684, -0.1797099, -796938.44, 157761.52, 0.0000000031066179, 10.000445, 10.000019 
2.4665381e+3, 2.1257804e+2, -547368.0, -542276.6, -131173.6, 0.1301022, -0.13737309, -413624.03, 443105.56, 0.0, 10.001238, 10.001285 
2.4662177e+3, 2.2257432e+2, -607006.44, -825228.8, -48379.477, 0.09066407, -0.049177326, -596761.75, 162004.83, 0.0, 10.001318, 9.998722 
2.465899e+3, 2.3256941e+2, -606970.3, -710030.1, -16384.738, 0.00770392, 0.018820062, -604428.1, 56389.13, 0.0, 10.000623, 9.999012 
2.4655801e+3, 2.4256366e+2, -639980.06, -869907.56, -3439.9854, -0.099405885, 0.08379763, -639928.6, -77053.2, 0.0, 10.000278, 9.997556 
2.4652596e+3, 2.5255498e+2, -421715.34, -620254.5, 26664.299, -0.33440465, -0.12516823, -418196.63, 46762.273, 0.0, 10.000904, 9.998185 
2.4649416e+3, 2.6254696e+2, -268762.97, -505922.22, 110941.32, -0.3802844, -0.26352412, -224956.94, 142078.34, 0.0, 10.001111, 9.998297 
2.4646313e+3, 2.7254173e+2, -107400.9, -219651.89, 68766.94, 0.2006646, -0.26373926, -74762.875, 194319.47, 0.0, 10.00112, 9.999424 
2.4643177e+3, 2.8253794e+2, -155246.08, -276192.13, 76634.16, 0.3876864, -0.09843886, -118098.51, 53018.6, 0.0, 10.0003, 9.998891 
2.4639934e+3, 2.9253462e+2, -160765.55, -119782.06, 52133.93, -0.5624035, 0.057539634, -84257.22, -11105.393, 0.0, 9.999309, 9.999669 
2.4636777e+3, 3.0252817e+2, -372832.25, -568451.06, -40087.484, -0.5179352, 0.05384387, -364936.0, -364936.0, 0.0, 9.998845, 9.996629 
2.463365e+3, 3.1251964e+2, 188254.2, 305902.63, -144821.28, 0.12032202, -0.14043708, 403390.56, 403390.56, 0.0, 10.000256, 10.001754 
2.4794017e+3, 1.2295413e+2, -1756745.1, -1874998.4, -171220.14, -0.1117248, 0.12469705, -1634730.1, 100309.31, 0.45571712, 10.000364, 9.998794 
2.479087e+3, 1.32946e+2, -1829379.6, -2566037.0, 96112.54, 0.26516584, 0.44079873, -1817046.1, -179913.14, 0.33319858, 10.0021305, 9.992271 
2.4787761e+3, 1.4293015e+2, -1501443.4, -1853080.1, 5931.8896, 0.9789947, -0.101094835, -1501343.4, 37951.67, 0.20679392, 10.001511, 9.996939 
2.4784496e+3, 1.529251e+2, -1377734.3, -1404756.0, -22795.309, 0.12681037, -0.12952717, -1364746.6, 76589.945, 0.10179194, 10.000406, 9.999746 
2.4781272e+3, 1.6292076e+2, -1465052.0, -1406576.9, -52961.7, -0.2748159, -0.07085979, -1375318.4, -31946.826, 0.036105353, 9.998931, 9.999895 
2.4778105e+3, 1.7291741e+2, -931132.75, -918247.2, -26353.877, -0.04580981, -0.09057989, -897560.0, 347838.78, 0.0076701324, 10.001379, 10.001269 
2.4774924e+3, 1.8291284e+2, -1011501.56, -1354592.3, -8242.963, 0.071612924, -0.035347037, -1011303.6, 136137.84, 0.000687035, 10.001862, 9.997497 
2.4771719e+3, 1.929056e+2, -1001855.3, -1203061.0, -18723.86, -0.053650152, -0.13712251, -1000127.75, 49389.504, 0.000019881356, 10.001031, 9.998116 
2.4768525e+3, 2.0290004e+2, -1084896.3, -1134149.3, -71501.336, -0.024236381, -0.053785883, -1033899.3, -82321.93, 0.0, 9.999386, 9.998828 
2.4765347e+3, 2.1289851e+2, -718539.4, -690345.44, -107713.91, 0.17882553, 0.18149479, -595809.94, 257789.14, 0.0, 10.0004835, 10.000518 
2.4762154e+3, 2.2289494e+2, -851277.9, -990142.1, -71705.14, 0.23234941, 0.33631065, -820897.94, -65260.867, 0.0, 9.999955, 9.998199 
2.4758941e+3, 2.3288654e+2, -659574.9, -696801.5, -47440.332, -0.06217208, 0.003711531, -627227.0, 30488.252, 0.0, 10.00013, 9.999308 
2.4755745e+3, 2.4287984e+2, -831352.44, -915729.6, -5564.621, -0.19047548, -0.06851888, -830987.0, -271208.28, 0.0, 9.998936, 9.997849 
2.4752586e+3, 2.5287652e+2, -445114.63, -497327.8, 44425.457, -0.021814132, 0.12714237, -419692.8, 42120.047, 0.0, 10.000322, 9.999216 
2.4749422e+3, 2.6287112e+2, -602803.44, -834946.0, 103960.336, 0.030869152, 0.23805699, -563053.4, -199187.1, 0.0, 9.999719, 9.996683 
2.4746248e+3, 2.728618e+2, -328463.63, -488549.0, 65665.46, -0.0891247, -0.029551523, -304974.75, -39019.676, 0.0, 10.00045, 9.997862 
2.4743068e+3, 2.8285462e+2, -440332.2, -560890.9, 413.50003, -0.2904745, -0.058542058, -440330.78, -272306.22, 0.0, 9.999084, 9.997516 
2.473987e+3, 2.9285014e+2, -359930.4, -237347.88, -12695.851, -0.6456945, -0.0009908464, -236046.78, -165976.73, 0.0, 9.998185, 9.999334 
2.4736753e+3, 3.0284512e+2, -735563.56, -725966.75, -20839.223, -0.19848394, 0.14201228, -709380.6, -709380.6, 0.0, 9.996437, 9.996683 
2.473359e+3, 3.1283775e+2, 3837.8691, 277810.2, -63387.246, -0.23876546, -0.074101694, 291764.9, 291764.9, 0.0, 9.998837, 10.00223 
2.4894042e+3, 1.23265855e+2, -1480736.6, -1955676.8, -301148.9, 0.14589068, -0.08530712, -1334693.1, 397287.8, 0.43991777, 10.004818, 9.996307 
2.4890837e+3, 1.3325849e+2, -1438843.8, -2059183.0, -96426.49, 0.011412764, 0.06947826, -1424200.8, 209864.98, 0.31901658, 10.0042715, 9.994758 
2.4887705e+3, 1.4324848e+2, -1391356.5, -1695282.1, -28718.365, 0.6220794, -0.061052244, -1388666.6, 147503.7, 0.19536594, 10.001946, 9.997847 
2.4884462e+3, 1.532444e+2, -1323361.3, -1374345.3, -18772.713, 0.18828689, 0.013202704, -1317194.8, 121012.305, 0.094030365, 10.0007, 9.999884 
2.4881245e+3, 1.6323996e+2, -1385655.0, -1343956.4, 13153.448, -0.07580761, 0.062301923, -1340154.0, 92.01114, 0.032013185, 9.999305, 10.000144 
2.4878061e+3, 1.7323509e+2, -1186867.8, -1072621.5, -15023.88, -0.056800596, -0.07773404, -1070678.9, 171608.44, 0.0062260167, 9.999669, 10.001046 
2.4874875e+3, 1.8322986e+2, -1240531.5, -1343709.0, -70515.69, -0.046846855, -0.113240115, -1204748.3, -60412.977, 0.00043419475, 9.999645, 9.998655 
2.4871682e+3, 1.9322346e+2, -1099447.4, -1162223.5, -28447.559, 0.016575016, -0.21114269, -1088474.3, -42074.047, 0.0000058323185, 9.999864, 9.999003 
2.4868484e+3, 2.0321846e+2, -1017366.25, -1110337.4, 11962.882, 0.013444648, -0.100732446, -1015851.6, -67397.23, 0.000000000090419006, 9.999787, 9.998806 
2.4865283e+3, 2.132163e+2, -749333.6, -811608.6, -20331.012, -0.049114663, 0.16966552, -743283.8, 107201.06, 0.0, 10.000593, 9.999688 
2.4862087e+3, 2.2321236e+2, -580138.0, -727948.56, -86.96382, -0.08978197, 0.3082228, -580137.94, 172388.67, 0.0, 10.001126, 9.999437 
2.4858901e+3, 2.3320453e+2, -352709.1, -466742.7, 50585.87, -0.07513926, -0.03497899, -333503.53, 321090.8, 0.0, 10.00177, 10.000161 
2.4855725e+3, 2.4319799e+2, -325090.4, -670333.8, 93711.914, -0.041052025, -0.105791256, -301293.72, 255361.94, 0.0, 10.00229, 9.997916 
2.4852566e+3, 2.531947e+2, -120443.68, -460344.3, -10394.101, 0.0795577, 0.17957184, -120126.125, 338571.34, 0.0, 10.002909, 9.998292 
2.4849394e+3, 2.631896e+2, -133319.25, -577903.3, -55232.945, 0.07517875, 0.37769392, -126560.14, 234192.4, 0.0, 10.002633, 9.997077 
2.4846192e+3, 2.731806e+2, -216433.64, -464266.6, 6636.5234, -0.25815862, 0.14269286, -216256.05, 46582.902, 0.0, 10.001156, 9.997775 
2.4843003e+3, 2.8317267e+2, -249493.23, -391489.5, 46363.645, -0.4848362, 0.03994294, -235695.6, -70780.54, 0.0, 9.999883, 9.998341 
2.4839833e+3, 2.9316714e+2, -88749.15, -82276.625, 45354.805, -0.44910604, -0.022418069, -40042.77, 26926.19, 0.0, 9.999778, 9.999704 
2.483672e+3, 3.0316252e+2, -202935.5, -317237.28, 163983.16, 0.09126389, 0.10117814, -86429.555, -86429.555, 0.0, 9.9993515, 9.998091 
2.4833527e+3, 3.131566e+2, 1262.0327, 293339.7, 1858.3173, -0.29009336, 0.030270815, 293351.5, 293351.5, 0.0, 9.998475, 10.002629 
2.4994041e+3, 1.2357239e+2, -1876311.8, -2189534.5, -131405.86, 0.17910741, -0.5608762, -1828485.9, -99509.86, 0.42027465, 10.000346, 9.996483 
2.4990799e+3, 1.3357052e+2, -1453475.6, -1590365.4, -115090.13, -0.2355711, -0.259188, -1388016.0, 242986.58, 0.30251706, 10.00202, 9.999211 
2.4987632e+3, 1.4356802e+2, -1463724.6, -1653370.0, -103981.5, 0.18718314, 0.091405176, -1417822.4, 115209.78, 0.18302314, 10.000992, 9.998621 
2.4984436e+3, 1.5356413e+2, -1374994.0, -1383205.8, -112859.28, 0.35326663, 0.12799418, -1266165.9, 168906.05, 0.08629053, 10.000232, 10.000054 
2.4981235e+3, 1.6355939e+2, -1525230.1, -1526413.3, -28752.207, 0.38504153, 0.17552194, -1497063.4, -159945.88, 0.028287582, 9.998889, 9.999072 
2.4978013e+3, 1.7355262e+2, -1267230.8, -1246958.9, -20720.408, -0.02733588, -0.08592262, -1234028.1, 5150.851, 0.0050760456, 9.9996605, 9.9998455 
2.4974813e+3, 1.835464e+2, -1283601.1, -1273116.4, -66279.04, -0.15627047, -0.17633855, -1211872.8, -70636.98, 0.00028139996, 9.999129, 9.999345 
2.4971648e+3, 1.9354138e+2, -1065050.0, -947194.44, -63392.72, 0.18453734, -0.3145426, -919570.94, 123711.305, 0.0000014559199, 9.999431, 10.000625 
2.496845e+3, 2.0353666e+2, -1208207.0, -1305384.9, -4810.5356, 0.19531299, -0.22924232, -1207969.5, -262639.1, 0.0, 9.999068, 9.997797 
2.4965198e+3, 2.1353266e+2, -897855.06, -958189.2, -7206.9414, -0.44816163, -0.08587447, -897006.1, -49627.13, 0.0, 10.0001, 9.998856 
2.4961998e+3, 2.2352864e+2, -750899.44, -775501.7, 1992.2313, -0.61277366, 0.083932705, -750739.1, -1319.7589, 0.0, 9.999957, 9.99967 
2.4958877e+3, 2.3352383e+2, -400795.66, -357703.6, 50760.36, -0.0040853857, -0.07926807, -324105.78, 327347.34, 0.0, 10.000989, 10.001245 
2.4955727e+3, 2.435178e+2, -751917.9, -1178011.1, 86808.66, 0.23884752, -0.054933995, -734911.0, -181399.55, 0.0, 10.000758, 9.995162 
2.4952525e+3, 2.535096e+2, -456311.44, -924212.06, 6330.528, -0.13527748, -0.004384006, -456225.78, -613.2665, 0.0, 10.002024, 9.995491 
2.4949332e+3, 2.635032e+2, -309678.94, -602173.94, -110349.72, -0.34949914, 0.20361248, -272717.84, 84968.836, 0.0, 10.001303, 9.997522 
2.4946158e+3, 2.7349892e+2, -194600.08, -280340.8, -30697.984, -0.2598286, 0.2724771, -184742.52, 74982.8, 0.0, 10.000615, 9.999287 
2.4942985e+3, 2.8349358e+2, -380177.63, -372696.47, 21187.65, -0.19766861, 0.3158486, -354921.75, -193148.45, 0.0, 9.998776, 9.99897 
2.4939813e+3, 2.934868e+2, -126810.71, 5046.8413, 79151.664, -0.21097095, 0.0071242787, 42130.637, 105964.516, 0.0, 9.999155, 10.00056 
2.493666e+3, 3.0348116e+2, -367438.66, -341598.44, 123321.65, -0.060308818, -0.0317863, -230521.94, -230521.94, 0.0, 9.998168, 9.998453 
2.4933481e+3, 3.1347623e+2, -352663.94, 64662.688, 112728.266, -0.26202905, -0.08933315, 93166.07, 93166.07, 0.0, 9.996606, 10.00186 
2.509396e+3, 1.23897664e+2, -2166944.8, -1704269.4, 35956.785, -0.022853086, 0.3386329, -1701491.8, 24301.338, 0.39734322, 9.995481, 10.002273 
2.5090778e+3, 1.3388714e+2, -1613844.6, -1606654.9, 15081.383, -0.040811647, -0.32210013, -1594745.9, 33148.555, 0.28406283, 9.999956, 10.000002 
2.508759e+3, 1.4388487e+2, -1428971.3, -1608092.8, -117766.96, 0.058177255, 0.0036114198, -1370578.6, 159340.23, 0.16993596, 10.001089, 9.998896 
2.5084382e+3, 1.538798e+2, -1342413.8, -1383295.4, -148717.17, 0.24348012, -0.06656187, -1212739.3, 219235.77, 0.078587286, 10.000454, 9.999984 
2.508118e+3, 1.6387555e+2, -1314312.4, -1310464.4, -3173.1685, 0.269468, -0.002943106, -1308677.5, 25340.832, 0.024857625, 9.999767, 10.000146 
2.5077975e+3, 1.738716e+2, -1063684.5, -1054803.0, 85885.37, -0.0111285895, -0.04197159, -973243.6, 262807.94, 0.0041356636, 10.000597, 10.000754 
2.507477e+3, 1.8386662e+2, -1085721.0, -1202501.6, -8062.576, -0.14509566, -0.029674705, -1085167.0, 52931.086, 0.00018434241, 10.000508, 9.999185 
2.507159e+3, 1.9386083e+2, -974522.44, -1013365.9, -85701.625, 0.104770534, -0.13423423, -906069.44, 134087.36, 0.00000026313862, 10.000416, 9.999766 
2.5068396e+3, 2.0385526e+2, -908768.94, -1080623.9, -59100.156, 0.0740932, -0.10656577, -890406.6, 51806.168, 0.0, 10.00068, 9.998594 
2.506517e+3, 2.1384983e+2, -616437.7, -803859.94, -14535.557, -0.39529812, -0.11975009, -615317.1, 228950.64, 0.0, 10.0018425, 9.99916 
2.5061974e+3, 2.2384445e+2, -465069.66, -718035.2, -65576.586, -0.5084796, -0.059546385, -449080.75, 297238.38, 0.0, 10.002068, 9.999111 
2.5058842e+3, 2.3383892e+2, -509026.25, -567796.9, -185624.78, 0.01675275, -0.16353482, -350475.25, 297890.63, 0.0, 10.000746, 9.999995 
2.5055683e+3, 2.4383302e+2, -763275.8, -1103772.8, -107004.83, 0.17303433, -0.09241383, -732440.75, -182015.11, 0.0, 10.000231, 9.995945 
2.5052482e+3, 2.5382537e+2, -512903.34, -908884.94, 12834.725, -0.29543832, -0.027142247, -512487.78, -59968.734, 0.0, 10.001348, 9.995981 
2.5049287e+3, 2.6381922e+2, -206774.06, -429228.75, -66577.47, -0.47049478, 0.144636, -188370.84, 166219.19, 0.0, 10.001377, 9.998695 
2.5046122e+3, 2.738157e+2, -286472.9, -270658.75, -114458.14, -0.13802274, 0.26062232, -163834.89, 92787.1, 0.0, 9.9996805, 9.999857 
2.504295e+3, 2.838112e+2, -329136.13, -284989.06, -48982.594, 0.012301259, 0.34310916, -253336.11, -94674.1, 0.0, 9.9987, 9.999637 
2.503976e+3, 2.9380456e+2, -83163.695, -1292.9309, -85105.52, -0.18305539, 0.036518887, 52210.32, 112931.164, 0.0, 9.999331, 10.00053 
2.5036603e+3, 3.0379918e+2, -99880.72, -197544.75, -61806.72, -0.06646413, 0.018188069, -69943.22, -69943.22, 0.0, 9.999763, 9.998706 
2.5033468e+3, 3.137945e+2, 152533.05, 253192.66, -159364.81, 0.23667778, -0.033307858, 369986.25, 369986.25, 0.0, 10.000065, 10.00153 
2.5193906e+3, 1.2421447e+2, -1572547.0, -1349911.6, 36370.28, 0.23001912, 0.11883507, -1344120.8, 378571.75, 0.3720952, 9.999242, 10.00425 
2.5190753e+3, 1.34205e+2, -1527502.6, -1628807.5, 114498.08, 0.14758462, -0.38818395, -1452953.4, 171821.7, 0.26429757, 10.001174, 9.999293 
2.5187567e+3, 1.44202e+2, -1497633.0, -1655896.5, -152596.56, 0.19531986, -0.08716522, -1404870.8, 121932.88, 0.15642525, 10.00078, 9.998616 
2.5184324e+3, 1.5419525e+2, -1448746.4, -1452278.8, -191886.9, 0.10227224, -0.33310702, -1258617.5, 170262.8, 0.071005836, 9.999987, 9.999613 
2.5181115e+3, 1.6419166e+2, -1365716.3, -1226871.5, 35014.36, 0.11580269, -0.21273664, -1218541.3, 112377.44, 0.021693112, 9.999117, 10.001009 
2.517794e+3, 1.7419162e+2, -1036434.8, -856334.0, 67824.82, 0.08726042, -0.008880566, -833648.94, 399263.84, 0.00335279, 10.00023, 10.00223 
2.5174743e+3, 1.8418868e+2, -1296683.1, -1542670.1, -53916.805, 0.038440086, 0.22520198, -1285384.3, -150441.98, 0.00011963712, 10.0001545, 9.996992 
2.5171527e+3, 1.9418131e+2, -1140898.4, -1330797.6, -103667.555, -0.05908881, 0.13723691, -1095269.3, -58244.637, 0.00000002568285, 10.00032, 9.997586 
2.5168338e+3, 2.0417449e+2, -1025237.9, -1149792.0, -6110.1235, -0.06604752, 0.15533398, -1024938.9, -85845.625, 0.0, 10.000001, 9.998424 
2.516517e+3, 2.1416755e+2, -710867.56, -785460.5, 6609.645, -0.032622557, -0.09001481, -710286.44, 130865.45, 0.0, 10.000947, 9.999682 
2.5161994e+3, 2.2415999e+2, -952006.44, -1294697.4, -113261.13, -0.027392462, -0.13882266, -917956.3, -174732.5, 0.0, 10.00038, 9.995899 
2.515879e+3, 2.3415123e+2, -843275.1, -1061533.3, -228871.86, -0.07018656, -0.29575905, -698846.56, -53530.934, 0.0, 10.000025, 9.996894 
2.5155607e+3, 2.4414538e+2, -804063.6, -897076.6, -75382.56, -0.15874802, -0.12746714, -761995.94, -214618.06, 0.0, 9.999129, 9.997869 
2.5152436e+3, 2.5414252e+2, -418681.2, -507873.78, 57186.164, -0.37463456, 0.079720244, -390757.9, 58653.266, 0.0, 10.000582, 9.999066 
2.514926e+3, 2.6413766e+2, -477720.94, -654201.6, -146603.8, -0.3963744, 0.25454444, -394850.13, -43387.94, 0.0, 10.00009, 9.997721 
2.5146073e+3, 2.7413e+2, -483324.97, -458297.47, -178924.56, -0.088631324, 0.0092780525, -291449.6, -37911.86, 0.0, 9.998883, 9.998869 
2.5142884e+3, 2.8412375e+2, -583687.06, -530852.9, -57400.156, -0.097179376, 0.022622809, -494082.63, -338483.97, 0.0, 9.997676, 9.998388 
2.5139678e+3, 2.9411945e+2, -242488.16, -174853.02, -49252.277, -0.50774556, 0.0286235, -148926.0, -91285.3, 0.0, 9.998815, 9.999526 
2.5136536e+3, 3.04116e+2, -250508.27, -365301.66, -72658.14, -0.3343452, 0.30443984, -215311.3, -215311.3, 0.0, 9.999303, 9.9977255 
2.513341e+3, 3.141071e+2, 18801.31, 102149.37, -33033.742, -0.0884253, -0.12268322, 113653.836, 113653.836, 0.0, 9.999724, 10.000587 
2.529389e+3, 1.24531314e+2, -1203850.0, -1355260.6, -75679.09, 0.05629447, -0.32880715, -1172510.4, 547078.75, 0.34545994, 10.004255, 10.0016365 
2.5290728e+3, 1.3452488e+2, -1405080.4, -1705870.6, 135525.75, 0.09988939, -0.36287427, -1353025.8, 268619.47, 0.24384509, 10.00281, 9.997997 
2.528753e+3, 1.445212e+2, -1492616.3, -1593406.4, -159753.55, 0.14322785, -0.06633274, -1375497.5, 148183.27, 0.14280653, 10.000512, 9.999195 
2.5284252e+3, 1.5451674e+2, -1413051.8, -1387102.3, -154008.38, -0.16395046, -0.102046974, -1245523.0, 180209.31, 0.06363834, 9.99998, 10.000083 
2.528104e+3, 1.6451256e+2, -1280312.9, -1261823.0, 109027.96, -0.16334045, -0.026686126, -1161648.8, 166126.06, 0.0187796, 9.999914, 10.00042 
2.5277904e+3, 1.7450854e+2, -950352.94, -943594.75, 59396.652, 0.09145393, -0.1034443, -887481.1, 342326.72, 0.0026956536, 10.001184, 10.00125 
2.527472e+3, 1.84504e+2, -1023910.56, -1366551.8, -121540.66, 0.11488136, 0.007822981, -985176.7, 146675.53, 0.00007576087, 10.00178, 9.997411 
2.5271502e+3, 1.9449776e+2, -825984.56, -1177069.0, -89043.17, -0.053385872, 0.038045008, -804692.44, 229228.69, 0.00000000011876218, 10.00237, 9.997689 
2.5268304e+3, 2.0449147e+2, -732680.06, -1009354.56, 9401.402, -0.11069643, 0.11302388, -732361.0, 203624.13, 0.0, 10.001908, 9.998479 
2.5265133e+3, 2.1448469e+2, -778689.5, -893500.56, -26864.46, -0.029961893, -0.0372976, -772714.5, 65331.58, 0.0, 10.000654, 9.999138 
2.5261953e+3, 2.2447756e+2, -865069.4, -1171455.3, -73530.016, -0.029387629, -0.04209331, -848336.6, -108220.79, 0.0, 10.000519, 9.996682 
2.525875e+3, 2.3446956e+2, -496265.03, -898461.4, -4538.8164, -0.11300828, -0.10527807, -496213.8, 145987.66, 0.0, 10.002267, 9.997007 
2.5255564e+3, 2.4446349e+2, -265259.1, -503297.88, 164874.56, -0.20457621, 0.008789839, -180933.36, 363331.56, 0.0, 10.002098, 9.999165 
2.52524e+3, 2.544601e+2, -465150.03, -449260.7, 119164.63, -0.2977554, 0.12576266, -337776.2, 108521.44, 0.0, 9.99979, 9.99989 
2.5249222e+3, 2.6445487e+2, -555797.1, -634408.8, -121779.555, -0.29491383, 0.19750245, -467137.3, -118788.336, 0.0, 9.999131, 9.9983635 
2.524602e+3, 2.744462e+2, -251582.61, -360892.34, -112668.13, -0.10631263, -0.12053527, -181012.64, 69422.23, 0.0, 10.000359, 9.998894 
2.5242826e+3, 2.8444007e+2, -61799.54, -249019.14, 133613.67, -0.12892906, -0.09721915, 7732.9536, 160229.9, 0.0, 10.001072, 9.998675 
2.5239632e+3, 2.9443702e+2, 158241.14, -14908.169, 130219.22, -0.5040034, 0.08556366, 228038.53, 282568.22, 0.0, 10.001649, 9.999286 
2.5236496e+3, 3.0443302e+2, -2204.3801, -320440.06, 149934.8, -0.3096159, 0.38413164, 57307.438, 57307.438, 0.0, 10.001249, 9.997129 
2.5233382e+3, 3.1442505e+2, -95028.71, -53117.54, 92622.63, 0.08602432, 0.19756317, 20890.496, 20890.496, 0.0, 9.999229, 9.999855 
2.5393918e+3, 1.2485682e+2, -1510690.0, -1648899.8, -78637.305, 0.43168175, 0.20466283, -1475108.1, 241293.1, 0.31815657, 10.002093, 9.999476 
2.5390714e+3, 1.348457e+2, -1613630.4, -1899015.6, 84143.46, 0.24288233, -0.2743676, -1590668.8, 27839.145, 0.22319712, 10.001306, 9.997271 
2.538748e+3, 1.4484128e+2, -1468182.4, -1542253.3, -140233.8, 0.09797694, -0.029299444, -1360175.9, 160375.92, 0.12934339, 10.000542, 9.999532 
2.5384182e+3, 1.5484002e+2, -1239295.0, -1283143.1, -188206.58, -0.3482834, 0.21555786, -1071739.8, 350827.88, 0.05657354, 10.001127, 10.000297 
2.5380978e+3, 1.6483483e+2, -1330076.8, -1488115.8, 149719.58, -0.30698457, 0.28018835, -1239803.5, 84814.59, 0.016116831, 10.000555, 9.998504 
2.5377867e+3, 1.7482483e+2, -1157644.9, -1250702.1, 86321.18, 0.10441601, -0.25067657, -1106111.0, 120599.77, 0.0021455006, 10.000693, 9.999339 
2.5374702e+3, 1.8481775e+2, -1153896.6, -1383911.1, -86999.69, 0.24105558, -0.305892, -1124697.1, 4080.2634, 0.000046550977, 10.000766, 9.997773 
2.537149e+3, 1.94813e+2, -845753.0, -1098842.6, -72212.3, 0.09216128, -0.22791572, -826598.8, 204225.39, 0.0, 10.00192, 9.998439 
2.536828e+3, 2.0480789e+2, -939273.25, -1255957.1, -36534.953, -0.046158135, 0.006734576, -935112.94, -2235.19, 0.0, 10.001289, 9.997014 
2.536507e+3, 2.1480179e+2, -959393.1, -1102197.9, -83923.695, -0.25037214, 0.0041978783, -920607.06, -85663.305, 0.0, 10.000091, 9.997908 
2.5361884e+3, 2.247968e+2, -892869.8, -976946.0, -22712.197, -0.26024383, 0.19975246, -887126.7, -150131.16, 0.0, 9.9995775, 9.99844 
2.5358725e+3, 2.3479234e+2, -494303.5, -628907.25, 55862.527, -0.120845504, 0.23431116, -474140.16, 164899.19, 0.0, 10.001281, 9.99927 
2.535555e+3, 2.4478623e+2, -610092.6, -851317.75, 64853.46, -0.07630206, 0.3155229, -593762.25, -52663.023, 0.0, 10.000699, 9.997385 
2.5352362e+3, 2.547777e+2, -718517.8, -741105.1, 34405.934, -0.1809975, 0.039461337, -693599.4, -250416.75, 0.0, 9.998895, 9.998262 
2.5349167e+3, 2.6477104e+2, -690616.9, -621762.0, -96407.89, -0.26018223, 0.031937968, -553818.9, -208571.22, 0.0, 9.998029, 9.998934 
2.5345963e+3, 2.747658e+2, -287985.3, -257154.22, -42690.074, -0.25150946, -0.08689785, -227181.64, 20117.662, 0.0, 9.999699, 9.99989 
2.5342786e+3, 2.8476185e+2, -168859.3, -301899.4, 157802.52, -0.23175317, 0.11734961, -64129.375, 85209.45, 0.0, 10.000452, 9.998595 
2.533963e+3, 2.9475805e+2, 135895.66, 12817.314, 204081.14, -0.27713373, 0.17302075, 287514.13, 338891.56, 0.0, 10.001422, 9.999563 
2.5336483e+3, 3.0475098e+2, -162683.05, -443110.78, 99270.336, -0.161918, 0.18189402, -131098.98, -131098.98, 0.0, 10.000495, 9.996605 
2.5333324e+3, 3.1474492e+2, -233994.02, -6240.143, 144468.47, -0.059808575, 0.20933394, 63836.977, 63836.977, 0.0, 9.997894, 10.000799 
2.5493875e+3, 1.2517329e+2, -1570737.0, -1582068.6, 308314.2, 0.16663177, -0.14350258, -1268036.6, 445268.9, 0.29081753, 10.0008745, 10.000985 
2.549067e+3, 1.3517137e+2, -1505481.5, -1563089.6, 184656.03, 0.13706937, 0.034548298, -1347396.5, 267919.94, 0.2027681, 10.000897, 10.000017 
2.5487426e+3, 1.4516523e+2, -1356493.3, -1662416.6, 19912.67, -0.17902966, 0.075619556, -1355202.6, 162171.19, 0.11625642, 10.002071, 9.997929 
2.5484204e+3, 1.5515839e+2, -918674.75, -1338826.1, -74135.43, 0.015240467, -0.037262257, -905977.3, 513465.38, 0.04988728, 10.004254, 9.998419 
2.5480998e+3, 1.6515203e+2, -946098.25, -1362884.0, 101687.9, 0.02666056, 0.04123841, -922611.8, 398894.6, 0.013707004, 10.003468, 9.997967 
2.5477812e+3, 1.7514485e+2, -1177823.1, -1366725.6, 91943.55, -0.07908997, -0.08792995, -1140461.5, 83115.75, 0.0016894786, 10.000973, 9.998436 
2.5474638e+3, 1.8513815e+2, -1058414.3, -1222222.9, 47240.14, -0.05269234, -0.101269774, -1045767.25, 79871.92, 0.000027889511, 10.000841, 9.998866 
2.547147e+3, 1.9513188e+2, -618743.56, -923501.25, 70571.09, 0.0887365, -0.21904835, -603195.06, 424498.53, 0.0, 10.003112, 9.999116 
2.5468272e+3, 2.0512559e+2, -618056.9, -1151333.6, -4833.6934, 0.031377085, -0.10942392, -618013.06, 311744.8, 0.0, 10.003621, 9.996625 
2.5465044e+3, 2.1511847e+2, -616074.06, -1052412.3, -39594.355, -0.21422334, -0.090277925, -612510.3, 219328.23, 0.0, 10.002808, 9.996986 
2.546185e+3, 2.2511342e+2, -477814.6, -667790.7, 16841.514, -0.2553469, 0.10078213, -476333.13, 257558.66, 0.0, 10.001885, 9.999472 
2.545869e+3, 2.3510994e+2, -490629.56, -579701.6, -14325.122, -0.09152062, 0.20808898, -488382.4, 147540.42, 0.0, 10.001016, 9.999782 
2.5455517e+3, 2.4510397e+2, -545880.8, -790468.1, -48636.203, -0.04157751, 0.2505518, -536564.4, 1416.2482, 0.0, 10.000822, 9.997836 
2.545232e+3, 2.5509474e+2, -402061.97, -628292.94, -16876.12, -0.1286259, -0.058564592, -400810.0, 39262.8, 0.0, 10.001019, 9.998136 
2.5449118e+3, 2.6508835e+2, -270067.5, -311265.34, -66157.14, -0.19646564, -0.074303, -221376.58, 120758.71, 0.0, 10.000377, 9.999968 
2.5445914e+3, 2.7508488e+2, -319305.16, -240010.5, -97556.64, -0.21398741, -0.023144448, -174352.52, 69816.07, 0.0, 9.999256, 10.000285 
2.5442743e+3, 2.8508136e+2, -318123.88, -297427.94, 137904.72, -0.18552105, 0.16964285, -169483.5, -23280.41, 0.0, 9.998931, 9.999424 
2.5439602e+3, 2.950769e+2, -139664.23, -94082.625, 125067.16, -0.1621781, 0.13554353, 10253.338, 58501.617, 0.0, 9.999285, 9.999936 
2.5436455e+3, 3.050702e+2, -95823.71, -230778.22, 45610.85, 0.036177963, 0.075418025, -81854.484, -81854.484, 0.0, 10.000007, 9.998377 
2.5433242e+3, 3.1506336e+2, -10873.501, -42776.645, 28009.045, -0.28495467, -0.05805477, 5407.8184, 5407.8184, 0.0, 9.9998045, 9.999735 
2.5593832e+3, 1.2549807e+2, -1514040.1, -1315685.8, -214282.73, 0.106824085, 0.19224504, -1178741.8, 531384.8, 0.26403108, 10.000027, 10.003519 
2.5590613e+3, 1.354977e+2, -1356758.1, -1322815.4, 44780.727, -0.06512263, 0.3054597, -1291897.9, 320218.34, 0.18292536, 10.001345, 10.00167 
2.5587395e+3, 1.4548974e+2, -1542168.6, -2012842.1, -39789.816, -0.23556642, 0.21139689, -1538828.5, -24640.209, 0.1037245, 10.00181, 9.995613 
2.5584254e+3, 1.5547544e+2, -1208221.9, -1749861.8, -99833.516, 0.58011895, -0.46277988, -1190406.8, 225922.05, 0.043632858, 10.00335, 9.995979 
2.5581032e+3, 1.6546848e+2, -1111472.0, -1497985.3, -1393.3108, 0.5261403, -0.29642737, -1111467.0, 206933.98, 0.011545959, 10.002688, 9.997353 
2.557775e+3, 1.7546669e+2, -1268996.8, -1487507.3, -6073.862, -0.29432458, 0.15440714, -1268828.0, -48402.313, 0.0013158798, 10.000799, 9.997638 
2.5574562e+3, 1.8546124e+2, -1076479.0, -1163014.8, 126535.016, -0.40113857, 0.28380755, -986018.75, 136456.16, 0.000016496271, 10.0006, 9.999342 
2.5571448e+3, 1.9545227e+2, -741832.06, -964144.7, 104102.94, 0.059655756, -0.17831649, -700695.4, 323853.72, 0.0, 10.002305, 9.999206 
2.556827e+3, 2.0544387e+2, -865967.8, -1357962.3, -66762.805, 0.19439766, -0.21759693, -857069.2, 69562.51, 0.0, 10.002454, 9.995735 
2.556504e+3, 2.1543528e+2, -870467.6, -1264508.8, -80681.42, -0.0077049085, -0.29567552, -854587.75, -25860.066, 0.0, 10.001602, 9.996078 
2.5561836e+3, 2.2542892e+2, -730519.8, -906303.56, -18302.117, -0.07831254, -0.12405147, -728634.44, 2158.6406, 0.0, 10.000785, 9.998311 
2.5558653e+3, 2.3542367e+2, -734850.0, -810991.8, -43952.742, -0.0687853, -0.13579765, -714772.5, -81931.984, 0.0, 9.999928, 9.998672 
2.5555468e+3, 2.4541825e+2, -676960.94, -743300.25, -43830.29, -0.074167036, -0.027115753, -655164.0, -120269.83, 0.0, 9.999586, 9.998697 
2.555228e+3, 2.5541162e+2, -510289.78, -586251.8, -10037.603, -0.16616939, -0.20503232, -508985.78, -72022.664, 0.0, 9.999996, 9.998872 
2.5549078e+3, 2.6540682e+2, -497764.1, -487828.47, -129749.24, -0.16460921, -0.054370075, -362951.97, -23940.998, 0.0, 9.999291, 9.9991865 
2.554587e+3, 2.7540272e+2, -472807.88, -395738.88, -114784.99, -0.078841396, -0.038770966, -313192.8, -72143.39, 0.0, 9.998671, 9.999447 
2.554269e+3, 2.8539774e+2, -422781.75, -321390.88, 115045.305, -0.15192333, 0.041937303, -246366.61, -103267.69, 0.0, 9.998224, 9.999548 
2.5539526e+3, 2.9539227e+2, -265409.13, -164907.89, 128822.65, -0.3739312, -0.13035624, -76881.98, -31726.533, 0.0, 9.998537, 9.999767 
2.5536406e+3, 3.0538943e+2, -63225.027, -5509.502, 24790.691, -0.008783744, 0.12845781, 3676.7732, 3676.7732, 0.0, 9.999538, 10.000041 
2.553324e+3, 3.153857e+2, -91888.016, -192795.19, 110787.83, 0.026575318, 0.08010649, -20606.203, -20606.203, 0.0, 9.999972, 9.998515 
2.569379e+3, 1.2581427e+2, -1708027.0, -1816586.6, 146195.75, 0.016647996, -0.10111661, -1606359.8, 100659.555, 0.23823552, 10.0004225, 9.999042 
2.569059e+3, 1.3581102e+2, -1432831.4, -1609022.8, -133596.34, -0.030691685, 0.018452764, -1360899.5, 248146.19, 0.16394834, 10.001884, 9.99909 
2.568739e+3, 1.458034e+2, -1425637.6, -1732731.8, -227360.44, -0.04265511, -0.0398797, -1304831.9, 206285.06, 0.09188186, 10.001726, 9.99763 
2.5684217e+3, 1.5579447e+2, -1206529.9, -1574374.3, -145283.05, 0.38158306, -0.3381634, -1156070.9, 257132.63, 0.03784501, 10.002509, 9.997648 
2.5680992e+3, 1.6578855e+2, -1051234.4, -1359897.9, -60923.242, 0.30049118, -0.20856902, -1039644.7, 275616.9, 0.009625426, 10.002581, 9.998372 
2.5677726e+3, 1.7578459e+2, -1024824.7, -1319618.0, 17415.316, -0.2685451, -0.015806388, -1023799.44, 193502.52, 0.0010124295, 10.002164, 9.998183 
2.567454e+3, 1.8577833e+2, -929665.75, -1170902.0, 156434.1, -0.37247238, 0.052177995, -852748.2, 266612.2, 0.000009793076, 10.001875, 9.998698 
2.5671414e+3, 1.9576965e+2, -846462.94, -1118872.6, 87864.61, -0.036852017, -0.25906363, -820581.56, 200856.98, 0.0, 10.001907, 9.998387 
2.5668237e+3, 2.0576227e+2, -847287.7, -1250188.3, -114244.32, 0.07572297, -0.21983689, -817147.8, 106366.266, 0.0, 10.002033, 9.9967165 
2.5665018e+3, 2.1575542e+2, -693178.06, -1124359.8, -56369.336, 0.0134162195, -0.1491851, -685930.56, 139661.7, 0.0, 10.002427, 9.996715 
2.5661805e+3, 2.2574854e+2, -484087.03, -689726.9, 43753.152, -0.08634369, -0.11529723, -475164.94, 252493.66, 0.0, 10.001885, 9.999321 
2.56586e+3, 2.3574121e+2, -609894.7, -726566.0, 101303.12, -0.18417554, -0.3446224, -551331.4, 78389.22, 0.0, 10.000456, 9.999089 
2.5655416e+3, 2.4573587e+2, -576400.0, -667613.25, 155219.14, -0.16164616, -0.2393539, -460226.06, 71547.89, 0.0, 10.000085, 9.998973 
2.5652242e+3, 2.557315e+2, -402233.7, -547214.6, 85108.25, -0.08439732, -0.14450383, -362928.44, 70897.13, 0.0, 10.000688, 9.998834 
2.5649044e+3, 2.657263e+2, -245195.2, -415098.13, -71809.44, -0.0666407, -0.014793693, -218911.11, 116967.89, 0.0, 10.00111, 9.998818 
2.564583e+3, 2.7571982e+2, -96237.45, -291865.66, -98125.53, -0.026597695, -0.13826497, -55501.14, 182439.0, 0.0, 10.001463, 9.998815 
2.5642642e+3, 2.857143e+2, -66160.48, -149022.23, 112530.305, -0.123224676, -0.08793742, 12323.5625, 152318.48, 0.0, 10.000604, 9.999577 
2.563947e+3, 2.9570943e+2, -239702.77, -197481.69, 63052.367, -0.33098727, -0.14436346, -152099.7, -110053.77, 0.0, 9.998804, 9.999432 
2.563634e+3, 3.0570605e+2, -241160.61, -67251.336, 80.39701, -0.10587443, 0.057422165, -67251.305, -67251.305, 0.0, 9.998043, 10.000392 
2.563319e+3, 3.1570667e+2, -156912.7, 174924.88, -202654.47, 0.038657352, 0.44780248, 270918.03, 270918.03, 0.0, 9.997545, 10.002284 
2.5793758e+3, 1.2613332e+2, -1857288.8, -2195535.8, -43909.355, 0.03224666, 0.17774543, -1851681.6, -147797.53, 0.21373183, 10.000598, 9.996232 
2.5790584e+3, 1.361218e+2, -1617614.3, -1959037.5, -134202.69, 0.20208439, -0.34298447, -1571178.9, 34821.797, 0.14603193, 10.001485, 9.996799 
2.5787386e+3, 1.4611565e+2, -1326077.6, -1382180.8, -129358.07, 0.24404454, -0.29735726, -1221764.5, 286296.84, 0.080827504, 10.001189, 10.0002985 
2.578416e+3, 1.5611474e+2, -1201840.1, -1327810.4, -133779.44, 0.05170148, -0.05392026, -1116960.3, 293108.0, 0.032553293, 10.001564, 9.999775 
2.5780934e+3, 1.6610967e+2, -1059497.1, -1251492.5, -86742.41, -0.014899376, 0.013250652, -1026112.4, 285999.8, 0.007938516, 10.002115, 9.999274 
2.5777718e+3, 1.7610112e+2, -995256.0, -1252509.6, -47491.11, -0.07088277, -0.38285843, -986768.75, 227419.13, 0.00076767127, 10.002216, 9.998563 
2.5774533e+3, 1.8609357e+2, -1040129.6, -1397640.5, 129475.27, -0.117747515, -0.3691322, -998165.0, 118096.984, 0.000005913737, 10.001998, 9.997022 
2.5771374e+3, 1.9608623e+2, -1071473.0, -1393435.5, 53768.555, -0.12295501, -0.41994646, -1062730.9, -44392.016, 0.0, 10.001249, 9.996745 
2.5768188e+3, 2.060815e+2, -908645.7, -1171120.3, -103787.266, -0.08371838, -0.082738556, -872565.8, 47827.125, 0.0, 10.001238, 9.997599 
2.5764984e+3, 2.1607758e+2, -813449.9, -1077622.1, -64936.42, -0.054581452, 0.13937852, -798350.75, 24090.49, 0.0, 10.001223, 9.997585 
2.5761762e+3, 2.2607091e+2, -605889.44, -570580.9, -27672.492, -0.18183811, 0.07426391, -555410.8, 169088.52, 0.0, 10.000522, 10.000716 
2.5758532e+3, 2.3606178e+2, -755396.5, -683870.06, 37157.984, -0.4083475, -0.50468194, -668060.75, -41490.535, 0.0, 9.999184, 9.999929 
2.5755355e+3, 2.4605699e+2, -826351.56, -925046.7, 157752.45, -0.29729137, -0.30074868, -710408.44, -181789.38, 0.0, 9.999127, 9.997605 
2.575221e+3, 2.560541e+2, -670572.44, -844237.44, 110801.9, 0.018591333, 0.038305927, -616632.25, -185970.13, 0.0, 9.999698, 9.9972315 
2.5749013e+3, 2.6604703e+2, -461762.03, -629295.6, -66810.82, 0.011457289, 0.11465509, -438381.44, -105644.91, 0.0, 10.0002, 9.997769 
2.5745782e+3, 2.7603695e+2, -307175.22, -526302.7, -66694.016, -0.19900402, -0.2958525, -288472.4, -53639.09, 0.0, 10.000699, 9.997549 
2.5742596e+3, 2.860317e+2, -194302.11, -264460.7, 48246.742, -0.23362769, -0.12727697, -169729.88, -32844.605, 0.0, 10.00007, 9.999 
2.573943e+3, 2.960285e+2, -385774.34, -366708.4, 49969.105, -0.21631317, 0.017959118, -325371.06, -286452.03, 0.0, 9.998311, 9.998493 
2.5736237e+3, 3.0602008e+2, -440434.1, -298580.78, -13112.568, -0.4587885, -0.16660152, -297378.88, -297378.88, 0.0, 9.997377, 9.999079 
2.5733078e+3, 3.1601575e+2, -353718.84, 57805.13, -139110.77, -0.47145963, -0.16516902, 100417.45, 100417.45, 0.0, 9.9964285, 10.001989 
2.589373e+3, 1.2644595e+2, -1422218.6, -1476441.5, -138151.06, -0.062294886, -0.036003586, -1308543.9, 392283.28, 0.19077115, 10.001706, 10.001022 
2.589055e+3, 1.3644113e+2, -1410921.5, -1522493.0, -3846.9822, 0.12235593, -0.18812908, -1410789.0, 192081.47, 0.12932457, 10.001535, 9.999898 
2.588735e+3, 1.4643589e+2, -1356943.1, -1408094.4, -18504.785, 0.17297144, -0.17273219, -1350950.8, 153971.56, 0.07062259, 10.000919, 10.000267 
2.5884128e+3, 1.5643348e+2, -1303578.6, -1396808.3, -43129.293, 0.08348072, -0.027863324, -1286686.9, 120261.484, 0.027766839, 10.000829, 9.99968 
2.5880912e+3, 1.66428e+2, -1030882.75, -1254974.0, -40436.168, -0.03158225, 0.00840473, -1023809.5, 285189.13, 0.0064744665, 10.00227, 9.999224 
2.587771e+3, 1.764198e+2, -674781.7, -1127526.1, -42405.324, -0.08703341, -0.30717975, -670844.1, 540227.9, 0.0005723583, 10.004388, 9.998431 
2.5874525e+3, 1.86413e+2, -703054.3, -1232999.1, 22480.547, -0.109099105, -0.2256428, -702102.4, 411038.34, 0.0000035552432, 10.0042095, 9.997116 
2.587135e+3, 1.964066e+2, -865612.5, -1303274.9, 30660.324, -0.13774714, -0.14094985, -863475.0, 151736.3, 0.0, 10.002523, 9.99682 
2.5868157e+3, 2.0640142e+2, -774175.9, -993010.7, -97250.06, -0.11517096, 0.081175566, -737204.25, 180062.64, 0.0, 10.00159, 9.998693 
2.586495e+3, 2.1639682e+2, -748339.8, -970371.25, -74804.6, -0.03589639, 0.1987478, -725489.1, 93826.46, 0.0, 10.001192, 9.998406 
2.5861728e+3, 2.2639017e+2, -578488.06, -590918.0, -137829.78, -0.10734629, 0.10226366, -446733.22, 274641.03, 0.0, 10.00075, 10.000488 
2.5858495e+3, 2.3638175e+2, -591825.06, -641158.56, -175038.73, -0.27021435, -0.34105933, -439723.56, 183719.53, 0.0, 10.000337, 9.999708 
2.5855312e+3, 2.46377e+2, -547918.1, -673689.94, -163.39331, -0.22846659, -0.20900096, -547917.94, -22428.32, 0.0, 10.000421, 9.998753 
2.5852162e+3, 2.56374e+2, -463725.78, -665667.56, 59644.33, -0.025415711, 0.05951018, -447425.34, -19897.242, 0.0, 10.000674, 9.998023 
2.584897e+3, 2.6636684e+2, -299330.7, -552601.9, -5410.51, -0.039386977, 0.08887089, -299215.16, 30386.982, 0.0, 10.001219, 9.99784 
2.5845748e+3, 2.763568e+2, -155913.97, -491307.75, 18225.621, -0.1722569, -0.2549726, -154926.48, 76774.81, 0.0, 10.001758, 9.9973545 
2.5842562e+3, 2.863517e+2, 28934.414, -162590.22, 97484.04, -0.173081, -0.06121898, 69823.33, 203576.08, 0.0, 10.0015135, 9.999045 
2.5839385e+3, 2.963488e+2, -91371.98, -281111.97, 52301.383, -0.14676407, 0.16811714, -77910.305, -42126.74, 0.0, 10.000428, 9.9981165 
2.583617e+3, 3.0633792e+2, -102049.914, -219933.22, 34482.4, -0.5273335, -0.19641964, -92704.27, -92704.27, 0.0, 10.000046, 9.998361 
2.5833058e+3, 3.16333e+2, -105972.336, 90834.0, -89896.23, 0.08532411, -0.110923305, 125714.42, 125714.42, 0.0, 9.998358, 10.001366 
2.5993723e+3, 1.2676105e+2, -1351610.3, -1214756.5, -30132.148, 0.13015014, -0.15676737, -1208415.9, 489331.06, 0.16949552, 10.001166, 10.003381 
2.5990504e+3, 1.3676247e+2, -1395944.9, -1298734.5, -51890.055, 0.021665294, -0.009657402, -1276240.9, 323479.5, 0.11391175, 10.000621, 10.002054 
2.5987303e+3, 1.4675815e+2, -1507894.1, -1552068.4, -48390.793, 0.117023095, 0.05501403, -1476788.1, 24975.4, 0.061296463, 10.000291, 9.999434 
2.5984108e+3, 1.567518e+2, -1473359.1, -1629484.1, -77153.83, 0.2934756, -0.12646106, -1441665.1, -37831.813, 0.023481611, 10.0004015, 9.998231 
2.5980905e+3, 1.6674598e+2, -1165849.0, -1390385.6, 25130.818, 0.16345163, -0.016934555, -1163070.6, 142821.28, 0.005220199, 10.001702, 9.99857 
2.5977704e+3, 1.7673989e+2, -956536.3, -1366341.6, -19144.39, -0.08270798, -0.06538327, -955643.9, 252306.0, 0.00041937284, 10.002959, 9.997495 
2.5974515e+3, 1.8673445e+2, -867348.1, -1262685.3, -28505.379, -0.12362716, 0.16982813, -865303.3, 244703.63, 0.0000020172258, 10.002954, 9.99747 
2.597133e+3, 1.9672863e+2, -1043679.5, -1384370.5, -27432.537, -0.07293149, 0.2555015, -1041484.75, -29413.992, 0.0, 10.001376, 9.9967785 
2.5968128e+3, 2.0672181e+2, -848510.56, -952092.5, -99208.79, -0.005317525, 0.28712684, -788387.75, 125748.52, 0.0, 10.000908, 9.999242 
2.5964925e+3, 2.1671425e+2, -950822.56, -1077116.1, -85773.02, 0.082692094, 0.030019898, -907458.7, -91253.305, 0.0, 10.000011, 9.998187 
2.5961706e+3, 2.26708e+2, -841137.3, -924731.56, -147401.48, 0.10035356, 0.1018188, -729721.5, -11455.037, 0.0, 9.999955, 9.998535 
2.5958484e+3, 2.3670161e+2, -896644.4, -965573.8, -176497.95, 0.08611916, 0.018697951, -751277.6, -130947.17, 0.0, 9.999126, 9.998024 
2.5955287e+3, 2.4669649e+2, -548426.7, -407618.22, 8738.898, -0.061097816, 0.057018623, -407077.94, 115298.24, 0.0, 9.99939, 10.001038 
2.5952095e+3, 2.5669152e+2, -546890.4, -524296.7, 76158.55, -0.2827378, -0.12977181, -458601.7, -34183.43, 0.0, 9.999406, 9.999591 
2.5948912e+3, 2.6668587e+2, -418653.6, -569010.5, 3482.4924, -0.24057654, -0.02855283, -418573.0, -92097.84, 0.0, 10.000366, 9.998091 
2.5945732e+3, 2.7667895e+2, -287843.06, -578667.25, 45754.426, -0.053160235, -0.10880027, -280814.53, -52266.793, 0.0, 10.001037, 9.997093 
2.5942543e+3, 2.866743e+2, -115413.984, -311613.0, 38343.58, -0.054826025, 0.18615164, -108186.65, 22412.074, 0.0, 10.000971, 9.99826 
2.5939333e+3, 2.9667053e+2, -279790.1, -494900.63, 8523.0625, -0.2814075, 0.39259243, -279452.9, -246812.55, 0.0, 9.99979, 9.996932 
2.5936148e+3, 3.0665848e+2, -217725.39, -396944.4, -23125.451, -0.30149335, 0.025854694, -214789.5, -214789.5, 0.0, 9.9999485, 9.997116 
2.5932926e+3, 3.1665525e+2, -118043.07, 148283.14, -10539.876, -0.760313, 0.3556271, 148699.61, 148699.61, 0.0, 9.998192, 10.00178 
2.6093698e+3, 1.27084e+2, -1481051.8, -1428850.6, 27746.475, 0.09743073, -0.11035142, -1416857.9, 277718.7, 0.14988421, 10.000754, 10.0018 
2.6090452e+3, 1.3708322e+2, -1618505.9, -1624525.0, -44865.438, -0.059973467, 0.07368598, -1576549.1, 20033.172, 0.09979623, 9.999856, 9.999989 
2.6087248e+3, 1.4707883e+2, -1619692.9, -1664164.9, -50203.254, 0.025335487, 0.2467008, -1587021.6, -88390.71, 0.05285716, 9.999721, 9.998964 
2.6084068e+3, 1.5707201e+2, -1484406.5, -1718042.0, -46561.305, 0.2508206, 0.11466719, -1475469.1, -74762.3, 0.019694533, 10.000567, 9.997598 
2.6080874e+3, 1.670653e+2, -1245695.8, -1468490.8, 25095.914, 0.13421178, 0.17266437, -1242903.9, 59871.336, 0.004163879, 10.001272, 9.998236 
2.6077676e+3, 1.7705852e+2, -1152776.9, -1454500.4, -5873.887, -0.14355044, 0.1137062, -1152662.5, 52178.176, 0.00030229846, 10.001522, 9.997589 
2.6074487e+3, 1.8705334e+2, -894009.9, -1059865.3, -17000.979, -0.15320857, 0.24717206, -892285.1, 214604.5, 0.0000010444409, 10.001718, 9.999514 
2.6071307e+3, 1.9704828e+2, -870702.1, -1126500.5, 65701.63, -0.0537748, 0.25731128, -854813.6, 154124.03, 0.0, 10.001639, 9.998478 
2.60681e+3, 2.070412e+2, -638893.4, -856896.1, 8980.205, -0.006092214, 0.18931146, -638524.06, 272479.16, 0.0, 10.002223, 9.999311 
2.606489e+3, 2.1703283e+2, -530968.94, -898620.4, -13698.248, 0.026441006, -0.105477065, -530459.3, 282620.84, 0.0, 10.002809, 9.998115 
2.6061666e+3, 2.2702692e+2, -539396.4, -875055.3, -84061.23, 0.06565022, 0.046106488, -519521.25, 195621.72, 0.0, 10.002293, 9.997809 
2.605844e+3, 2.3702182e+2, -630259.94, -899979.3, -47432.945, 0.115810916, 0.21987867, -622161.56, -4959.2783, 0.0, 10.001024, 9.997628 
2.605524e+3, 2.4701649e+2, -356847.25, -237842.86, 105115.66, -0.008369419, 0.21258487, -176556.75, 342693.6, 0.0, 10.000295, 10.001779 
2.6052052e+3, 2.5701067e+2, -403914.16, -408051.1, 36487.832, -0.22839715, -0.078928314, -369436.22, 51860.703, 0.0, 10.000013, 10.000152 
2.6048875e+3, 2.6700538e+2, -385290.38, -515368.63, -36860.12, -0.16674623, 0.00059878285, -375571.53, -52222.566, 0.0, 10.000282, 9.998572 
2.6045707e+3, 2.7699998e+2, -327098.88, -566143.6, -26683.584, 0.09406027, 0.06397134, -324156.5, -98749.07, 0.0, 10.000488, 9.997491 
2.604251e+3, 2.8699446e+2, -136594.34, -352388.16, 1381.2267, 0.0035643252, 0.26270515, -136585.5, -9119.898, 0.0, 10.000917, 9.998005 
2.6039284e+3, 2.9698905e+2, -120032.66, -472650.6, -8041.701, -0.33842835, 0.37966475, -119849.35, -90326.836, 0.0, 10.001027, 9.996515 
2.603612e+3, 3.0697817e+2, -127215.11, -389284.66, 44736.645, -0.12078612, 0.1542713, -119788.77, -119788.77, 0.0, 10.000487, 9.996979 
2.6032957e+3, 3.1697252e+2, -65329.414, 197727.25, 26153.633, 0.13993704, 0.2966233, 200302.3, 200302.3, 0.0, 9.9983015, 10.002069 
2.6193655e+3, 1.2740651e+2, -1898461.1, -1866019.0, -65052.598, 0.11563284, -0.14747125, -1815195.5, -123785.484, 0.13183987, 9.999018, 9.999199 
2.6190406e+3, 1.3740405e+2, -1813432.4, -1993940.9, -103336.984, -0.022737894, 0.11062271, -1766484.8, -173040.06, 0.08692974, 9.999878, 9.997357 
2.6187202e+3, 1.4739943e+2, -1561124.0, -1732131.0, 17380.324, 0.054835584, 0.41446102, -1559375.4, -63875.125, 0.045284748, 10.000513, 9.998138 
2.6184025e+3, 1.5739319e+2, -1542932.9, -1847096.4, 10069.106, 0.24897876, 0.40959638, -1542600.0, -145028.55, 0.01638905, 10.000636, 9.996696 
2.6180834e+3, 1.6738547e+2, -1313588.4, -1548304.5, 112799.266, 0.110332996, 0.43387476, -1268168.6, 31480.604, 0.0032885466, 10.001096, 9.997747 
2.6177642e+3, 1.7737696e+2, -1281315.9, -1525935.9, 65508.133, -0.14475286, 0.23503323, -1264877.8, -63146.15, 0.00021471751, 10.000736, 9.997483 
2.6174462e+3, 1.8737157e+2, -821321.7, -750904.94, 20657.096, -0.112688705, 0.20256658, -745292.44, 358481.75, 0.00000047553752, 10.001099, 10.001907 
2.617128e+3, 1.9736725e+2, -946268.1, -1010555.75, 43782.62, 0.028030924, 0.03795677, -924096.7, 81706.62, 0.0, 10.000576, 9.999768 
2.6168072e+3, 2.0736052e+2, -820095.3, -1002816.6, 12178.474, -0.025870444, -0.006712687, -819287.2, 88577.69, 0.0, 10.001332, 9.998693 
2.6164848e+3, 2.1735246e+2, -865026.94, -1159603.6, -34877.992, -0.14273283, -0.24085873, -860953.7, -51010.41, 0.0, 10.001072, 9.997134 
2.6161617e+3, 2.2734709e+2, -719015.06, -961119.1, -136101.88, -0.14344952, 0.014966359, -657920.7, 54083.36, 0.0, 10.001222, 9.997671 
2.6158378e+3, 2.3734261e+2, -901403.1, -1095007.3, -76488.23, -0.105425194, 0.24179906, -874831.4, -260771.7, 0.0, 9.999616, 9.996922 
2.6155192e+3, 2.4733739e+2, -566950.25, -471235.4, 100906.22, -0.050677836, 0.3457692, -407412.94, 108698.08, 0.0, 9.999571, 10.000456 
2.615203e+3, 2.5733152e+2, -704058.44, -720030.8, 32422.484, 0.0027125075, 0.15616354, -678653.06, -260489.2, 0.0, 9.998817, 9.998539 
2.614885e+3, 2.6732603e+2, -476193.1, -523415.3, -35221.777, 0.044033058, 0.2670391, -457400.7, -137183.25, 0.0, 9.999595, 9.998787 
2.6145664e+3, 2.7732012e+2, -464464.84, -643931.0, -3677.1082, 0.06906851, 0.22764117, -464389.53, -242112.75, 0.0, 9.999689, 9.9973 
2.6142457e+3, 2.8731188e+2, -175878.34, -304267.06, 11908.862, -0.18031311, 0.12904137, -174783.06, -50427.277, 0.0, 10.0005045, 9.998474 
2.6139233e+3, 2.973029e+2, -179797.1, -469571.4, 27215.871, -0.54689693, -0.18449244, -177263.11, -150822.05, 0.0, 10.000579, 9.996737 
2.6136062e+3, 3.0729955e+2, -141394.4, -251581.44, -9438.839, -0.27900758, 0.25899675, -140591.7, -140591.7, 0.0, 9.999839, 9.998224 
2.613283e+3, 3.1729576e+2, -402235.7, -249489.97, -73223.44, -0.5655521, 0.48011824, -220058.83, -220058.83, 0.0, 9.997343, 9.999458 
2.6293588e+3, 1.2772706e+2, -2075438.9, -1840561.3, -104781.74, -0.0066348705, -0.03523498, -1800611.8, -112340.24, 0.11528824, 9.997293, 10.0002165 
2.6290375e+3, 1.3772224e+2, -1603485.4, -1798176.8, 12149.783, 0.028519172, -0.11313208, -1602730.1, -12405.86, 0.07524984, 10.000788, 9.998307 
2.628718e+3, 1.4771795e+2, -1310628.1, -1564229.1, 105195.08, 0.09931486, 0.16355158, -1272673.1, 219699.83, 0.038529176, 10.002039, 9.998601 
2.6283997e+3, 1.5771309e+2, -1233986.9, -1614683.0, 159079.45, 0.21711317, 0.27631453, -1176265.0, 218162.58, 0.013527696, 10.002317, 9.997529 
2.6280802e+3, 1.6770592e+2, -1115684.0, -1358491.1, 255450.56, 0.086723916, 0.271536, -954255.8, 342241.34, 0.0025719018, 10.001937, 9.998711 
2.627761e+3, 1.776978e+2, -1195259.5, -1426046.3, 285823.34, -0.14584361, 0.066754974, -1002414.94, 196158.06, 0.00015054179, 10.00093, 9.998132 
2.6274425e+3, 1.8769161e+2, -918957.56, -956024.1, 144227.48, -0.120458715, 0.023730189, -792077.5, 308550.06, 0.0000001940375, 10.001012, 10.000577 
2.627124e+3, 1.9768602e+2, -940545.75, -1093283.8, 28206.678, -0.032072593, -0.120160654, -935503.25, 67171.875, 0.0, 10.000818, 9.999137 
2.6268026e+3, 2.0768052e+2, -949916.44, -1053205.5, -43045.98, -0.053007763, -0.038630657, -934329.2, -29599.635, 0.0, 10.000306, 9.998883 
2.626481e+3, 2.1767464e+2, -989786.2, -1156538.9, -35098.934, -0.13542613, -0.045369916, -982699.56, -175908.66, 0.0, 9.99979, 9.997824 
2.6261574e+3, 2.2766848e+2, -686502.8, -843623.6, -74977.77, -0.17495793, 0.03422348, -656465.8, 52389.617, 0.0, 10.000879, 9.998699 
2.6258337e+3, 2.3766236e+2, -431017.88, -790991.2, 41306.242, -0.18956336, 0.042867757, -426338.88, 184581.44, 0.0, 10.002325, 9.997766 
2.6255158e+3, 2.476572e+2, -202481.38, -439240.2, 210779.8, -0.06508737, 0.19222435, -79113.375, 433859.63, 0.0, 10.0025625, 9.999291 
2.6252e+3, 2.576521e+2, -256715.05, -579245.2, 153333.28, 0.09682628, 0.23462625, -195454.8, 219568.78, 0.0, 10.002066, 9.997987 
2.624881e+3, 2.6764607e+2, -204580.42, -416104.72, 77952.01, 0.054398306, 0.32946292, -178957.08, 138126.02, 0.0, 10.001482, 9.998645 
2.624561e+3, 2.7763948e+2, -286595.1, -536870.56, 48789.656, -0.06324441, 0.27068618, -277420.22, -58271.883, 0.0, 10.000682, 9.997601 
2.624241e+3, 2.8763017e+2, -72399.26, -233485.4, 60292.945, -0.2296078, 0.030744318, -52332.066, 68904.375, 0.0, 10.000982, 9.998785 
2.623921e+3, 2.9762024e+2, 3098.1797, -265920.0, 14752.53, -0.4112273, -0.3866814, 3904.7666, 27233.977, 0.0, 10.001228, 9.997862 
2.6236016e+3, 3.0762154e+2, 176549.78, 31172.943, -55175.207, -0.2802673, 0.3791777, 195118.73, 195118.73, 0.0, 10.001392, 9.999453 
2.6232836e+3, 3.1760797e+2, -57978.273, -94636.625, -149841.2, 0.13372763, -0.4126804, 74650.63, 74650.63, 0.0, 9.9995775, 9.999505 
2.6393524e+3, 1.2804718e+2, -1830792.8, -1581076.0, -13939.238, 0.031086626, 0.09824171, -1580300.3, 104838.68, 0.10017185, 9.998312, 10.001612 
2.6390347e+3, 1.3804044e+2, -1579953.5, -1663629.5, -31924.006, 0.1730507, -0.32590586, -1569164.9, 18037.705, 0.06469282, 10.000511, 9.999353 
2.6387164e+3, 1.4803645e+2, -1354569.5, -1513497.9, 21013.115, 0.22833902, -0.11776482, -1351838.1, 137404.56, 0.032530583, 10.001487, 9.999146 
2.6383978e+3, 1.580324e+2, -1354726.8, -1628721.8, 36943.74, 0.2681444, -0.0024913566, -1349832.9, 41451.563, 0.011066901, 10.001366, 9.997846 
2.6380777e+3, 1.6802639e+2, -1062373.4, -1184786.4, 117601.01, 0.13221975, -0.0051625157, -991004.5, 302333.56, 0.0019930317, 10.00173, 9.9999485 
2.637758e+3, 1.7801951e+2, -1242321.9, -1492466.1, 130361.07, -0.06742868, -0.20926909, -1186736.8, 8661.335, 0.00010503105, 10.000851, 9.997704 
2.6374385e+3, 1.8801247e+2, -1178264.1, -1359759.6, 80898.4, -0.1108862, -0.17254132, -1147440.0, -49970.64, 0.00000008640195, 10.000638, 9.997869 
2.637119e+3, 1.9800532e+2, -1297299.3, -1521896.6, -14289.046, -0.08254526, -0.22860822, -1296393.9, -296849.4, 0.0, 9.999642, 9.996706 
2.6367983e+3, 2.0800163e+2, -992262.3, -1017449.1, -58355.05, -0.027199283, 0.08739762, -945157.25, -43568.758, 0.0, 9.999827, 9.99934 
2.6364774e+3, 2.1799856e+2, -1157948.1, -1202811.3, -46051.55, 0.034740306, 0.2955946, -1129155.4, -325528.88, 0.0, 9.998563, 9.998102 
2.6361543e+3, 2.2799075e+2, -697801.1, -672190.44, -25415.082, -0.06660003, 0.09600216, -656537.0, 49161.47, 0.0, 10.000136, 10.000177 
2.635831e+3, 2.3798159e+2, -659026.0, -877843.94, 71372.53, -0.19581644, -0.3662297, -637804.3, -30023.775, 0.0, 10.000765, 9.997905 
2.6355127e+3, 2.4797669e+2, -406924.44, -657373.1, 177829.9, -0.124078415, -0.12412316, -314652.53, 195178.06, 0.0, 10.001779, 9.998132 
2.635196e+3, 2.5797266e+2, -561486.75, -886398.8, 127300.44, -0.02034963, 0.117170125, -517551.47, -105676.58, 0.0, 10.000766, 9.996499 
2.634875e+3, 2.6796556e+2, -375346.53, -573534.94, 38688.41, -0.1786776, 0.19949703, -368061.9, -54115.613, 0.0, 10.000777, 9.997848 
2.6345536e+3, 2.779574e+2, -544101.0, -789488.25, 44962.098, -0.4042668, 0.05046124, -536122.06, -320095.38, 0.0, 9.999592, 9.996382 
2.6342374e+3, 2.8794992e+2, -198043.88, -328262.8, 67416.95, -0.19907436, 0.06385139, -169428.81, -51327.098, 0.0, 10.000361, 9.998402 
2.633922e+3, 2.9794294e+2, -133103.66, -334082.66, 22152.836, 0.0059152693, -0.050109297, -130690.83, -110519.03, 0.0, 10.000393, 9.9977865 
2.6335993e+3, 3.0794242e+2, 257911.83, 238157.22, -69580.164, -0.1893185, 0.41847017, 318312.25, 318312.25, 0.0, 10.001345, 10.000834 
2.6332742e+3, 3.17932e+2, -145020.45, -324236.78, -146541.9, -0.4252286, -0.18313979, -62860.89, -62860.89, 0.0, 9.999903, 9.997733 
2.6493472e+3, 1.2836379e+2, -1694373.0, -1599003.5, -53814.508, -0.09319283, 0.053098686, -1574786.6, 107256.19, 0.08643013, 9.999547, 10.000915 
2.6490304e+3, 1.3836099e+2, -1513031.4, -1677436.8, -76727.18, 0.04862813, 0.112138264, -1482787.0, 101284.984, 0.055199515, 10.001045, 9.999081 
2.648712e+3, 1.4835544e+2, -1377830.6, -1503548.8, -122739.48, 0.12534726, 0.13387129, -1302790.3, 183334.06, 0.027235242, 10.001129, 9.999432 
2.6483938e+3, 1.5834841e+2, -1419513.6, -1627557.9, -98571.32, 0.18520333, -0.07110782, -1380228.8, 7961.4624, 0.0089680515, 10.000658, 9.99822 
2.648075e+3, 1.683425e+2, -1058518.4, -1202949.0, -82349.47, 0.09802399, -0.08103854, -1021205.25, 269038.66, 0.0015322798, 10.00188, 9.999732 
2.6477557e+3, 1.7833671e+2, -906242.56, -1254767.9, -155340.86, -0.07202893, -0.16665818, -847056.56, 345239.44, 0.00007382683, 10.002748, 9.998435 
2.6474354e+3, 1.883318e+2, -933881.25, -1071539.3, -154256.48, -0.08535057, -0.068197295, -833794.6, 260550.08, 0.000000036839044, 10.001512, 9.999468 
2.6471144e+3, 1.9832698e+2, -1183941.6, -1295606.8, -42380.84, -0.085268125, -0.023306124, -1169678.5, -173283.45, 0.0, 9.99955, 9.998333 
2.6467934e+3, 2.0832275e+2, -935662.4, -943406.7, -24781.943, -0.009165681, 0.14665607, -914451.9, -16008.676, 0.0, 9.999922, 9.999831 
2.6464728e+3, 2.1831873e+2, -811557.1, -967553.56, 706.8836, 0.04774737, 0.23935242, -811553.9, -11063.788, 0.0, 10.00052, 9.9988 
2.6461503e+3, 2.2831203e+2, -536893.44, -626027.44, -33845.574, -0.0680512, 0.13547967, -525498.5, 177053.6, 0.0, 10.001263, 10.000006 
2.6458275e+3, 2.3830427e+2, -439128.56, -737955.8, -33177.137, -0.22319075, -0.15338801, -435489.4, 169131.48, 0.0, 10.00195, 9.99835 
2.6455095e+3, 2.4829823e+2, -362932.1, -633676.6, 68969.26, -0.15328096, -0.06698008, -346375.4, 160303.75, 0.0, 10.001911, 9.998313 
2.6451924e+3, 2.5829262e+2, -399146.4, -792396.8, 90786.87, -0.039281406, 0.037702225, -379198.94, 29536.795, 0.0, 10.001608, 9.996801 
2.6448715e+3, 2.6828465e+2, -87076.03, -506381.94, 58475.902, -0.23040748, 0.04753022, -79073.77, 231741.06, 0.0, 10.002927, 9.997316 
2.6445505e+3, 2.7827603e+2, 123633.9, -460087.06, 43709.1, -0.41581684, -0.07285139, 126888.69, 339788.75, 0.0, 10.003973, 9.996569 
2.6442343e+3, 2.8827012e+2, -32850.723, -247555.05, 64386.95, -0.12373061, 0.07360861, -15022.353, 99939.87, 0.0, 10.001376, 9.998497 
2.643918e+3, 2.9826525e+2, -467916.78, -439567.03, 63000.41, 0.16790996, 0.19483063, -389166.53, -372151.72, 0.0, 9.997696, 9.998386 
2.6435953e+3, 3.0826202e+2, 9211.428, 202470.72, -20975.281, -0.12055553, 0.32007882, 204721.06, 204721.06, 0.0, 9.99916, 10.001683 
2.64327e+3, 3.182566e+2, 199079.05, -93448.06, -188851.39, -0.47637373, 0.15894884, 291683.4, 291683.4, 0.0, 10.001802, 9.9984455 
2.659343e+3, 1.2868027e+2, -1781059.5, -1749182.6, -17156.467, -0.06524545, 0.05243326, -1741703.6, -62755.258, 0.073999934, 9.999496, 9.999764 
2.659026e+3, 1.3868193e+2, -1642634.6, -1886056.3, -90331.11, -0.0053882385, 0.6275526, -1612776.3, -31836.736, 0.04671151, 10.00079, 9.997737 
2.6587078e+3, 1.4867449e+2, -1348982.8, -1443158.8, -124128.266, 0.054726887, 0.49108174, -1263311.3, 219697.33, 0.022592498, 10.0012865, 9.999736 
2.6583895e+3, 1.5866438e+2, -1470833.8, -1688154.0, -104290.12, 0.17528756, -0.04221459, -1428883.6, -43782.637, 0.0071954923, 10.000584, 9.99784 
2.658072e+3, 1.6865794e+2, -1222802.5, -1381458.8, 118.61557, 0.121294044, -0.03536622, -1222802.4, 64361.38, 0.001170623, 10.001232, 9.998802 
2.6577544e+3, 1.7865278e+2, -1183997.9, -1353283.1, -117459.26, 0.03148579, -0.0015273723, -1123861.1, 65354.094, 0.00005271245, 10.000825, 9.998659 
2.6574323e+3, 1.8865086e+2, -820677.9, -657272.3, -201469.81, 0.011300489, 0.1661601, -521568.97, 569660.6, 0.000000014947995, 10.000817, 10.002616 
2.65711e+3, 1.9864956e+2, -1184834.8, -1111181.1, -100336.04, 0.044148806, 0.26191652, -1041127.0, -47889.24, 0.0, 9.998872, 9.999915 
2.6567888e+3, 2.0864375e+2, -963400.2, -890639.25, -33114.688, 0.02777387, 0.1781536, -877825.0, 17471.637, 0.0, 9.999654, 10.000202 
2.6564676e+3, 2.1863689e+2, -1103957.6, -1203921.4, -24601.332, -0.0019764598, -0.05831059, -1098231.3, -300863.25, 0.0, 9.999129, 9.997773 
2.6561454e+3, 2.2863325e+2, -738147.44, -854657.1, -26986.06, -0.13605894, 0.25384933, -732200.5, -32792.88, 0.0, 10.000609, 9.998649 
2.6558238e+3, 2.3862976e+2, -749416.3, -997113.3, -30289.746, -0.27429846, 0.4877934, -745766.1, -144321.77, 0.0, 10.000453, 9.997248 
2.655506e+3, 2.4862157e+2, -404840.88, -527917.44, 37236.94, -0.1727447, 0.31385267, -394451.78, 109066.95, 0.0, 10.001198, 9.999329 
2.655189e+3, 2.5861222e+2, -644755.56, -910317.44, 103672.74, -0.06476628, -0.06618186, -609076.4, -203473.3, 0.0, 10.000083, 9.996687 
2.6548707e+3, 2.6860398e+2, -229462.58, -587912.94, 126927.88, -0.13837442, -0.06705374, -189069.1, 118613.99, 0.0, 10.002211, 9.997003 
2.654552e+3, 2.7859604e+2, -42356.496, -573513.4, 55755.7, -0.22338302, -0.112286426, -36566.91, 173194.97, 0.0, 10.003153, 9.996136 
2.6542306e+3, 2.88591e+2, -59273.055, -170799.23, -88021.19, -0.18998921, 0.077557944, -10838.012, 100976.81, 0.0, 10.0009775, 9.999129 
2.6539066e+3, 2.9858688e+2, -693012.2, -596513.44, 21336.906, -0.29289508, 0.2099776, -592006.1, -578146.56, 0.0, 9.99652, 9.997837 
2.6535878e+3, 3.0857986e+2, -175694.44, -13894.48, 76104.62, -0.28273356, 0.047966667, 16276.328, 16276.328, 0.0, 9.998546, 10.000424 
2.6532704e+3, 3.1857395e+2, 66840.21, -238351.33, 29605.535, -0.2466705, -0.0783697, 69685.61, 69685.61, 0.0, 10.001374, 9.997617 
2.6693392e+3, 1.2899625e+2, -1687501.0, -1584571.1, -90884.29, -0.092118, 0.14670964, -1531591.8, 144263.05, 0.062782116, 9.99958, 10.000944 
2.669024e+3, 1.3899456e+2, -1577331.4, -1739905.5, -41419.254, 0.095419295, 0.32113922, -1567387.1, 10485.972, 0.039146993, 10.000683, 9.998836 
2.668704e+3, 1.4898928e+2, -1282025.0, -1360864.8, -75966.984, 0.0011239736, 0.3316559, -1235859.1, 244063.97, 0.018543638, 10.001559, 10.000174 
2.668384e+3, 1.5898266e+2, -1220954.6, -1467227.0, -34807.137, -0.112038836, 0.13032183, -1216129.6, 165855.3, 0.005710664, 10.001795, 9.998798 
2.6680672e+3, 1.6897744e+2, -1192846.8, -1246409.1, 71015.52, -0.019269977, 0.14638504, -1143730.4, 140305.78, 0.0008890518, 10.000799, 9.99997 
2.66775e+3, 1.7897274e+2, -1338004.9, -1306382.9, 53451.09, 0.06019463, 0.14126101, -1266453.3, -80370.92, 0.000037964888, 9.999111, 9.99982 
2.6674286e+3, 1.8896925e+2, -899512.3, -691212.2, -89025.85, 0.035578407, 0.12055422, -658348.25, 429761.63, 0.0000000057994387, 10.000147, 10.00276 
2.6671058e+3, 1.9896612e+2, -825096.4, -921066.56, -114441.32, 0.000030091158, 0.04471585, -748987.25, 241146.34, 0.0, 10.001115, 10.00018 
2.6667848e+3, 2.0896102e+2, -738115.25, -885977.7, -137507.78, 0.031093873, 0.08289971, -655924.06, 236263.36, 0.0, 10.001592, 9.9993515 
2.6664641e+3, 2.1895511e+2, -702434.7, -1003518.75, -199167.03, 0.03377309, 0.03320183, -603316.1, 190935.34, 0.0, 10.001679, 9.997978 
2.666142e+3, 2.2895086e+2, -643645.3, -784672.4, -154427.02, -0.08953006, 0.24056488, -544394.7, 151902.19, 0.0, 10.001028, 9.998999 
2.6658204e+3, 2.389469e+2, -705074.0, -917738.4, -73587.3, -0.21438493, 0.42699364, -682094.06, -83755.64, 0.0, 10.000344, 9.997885 
2.665503e+3, 2.4893956e+2, -388238.84, -515342.7, -48525.79, -0.13336831, 0.3073954, -371830.78, 128575.68, 0.0, 10.001223, 9.999416 
2.665186e+3, 2.589312e+2, -274639.97, -624782.8, -56395.87, -0.040206105, 0.015471139, -265780.72, 136701.95, 0.0, 10.002043, 9.997716 
2.664868e+3, 2.6892376e+2, -342823.84, -546603.25, 27591.268, -0.10121678, -0.014763682, -339154.16, -34600.87, 0.0, 10.000877, 9.998 
2.66455e+3, 2.7891663e+2, -492443.84, -657130.4, 2558.4785, -0.13037851, -0.06076169, -492404.13, -285781.22, 0.0, 9.999353, 9.997436 
2.664226e+3, 2.889117e+2, -25886.355, -136321.89, -167494.17, -0.22972733, 0.07979014, 95257.16, 203929.66, 0.0, 10.00101, 9.999444 
2.6639e+3, 2.9890728e+2, 166375.69, -159464.13, -64297.688, -0.43121883, 0.1826269, 178604.55, 189322.73, 0.0, 10.00217, 9.99818 
2.663582e+3, 3.0889907e+2, 269749.38, 95760.9, 89668.97, -0.38744548, -0.054166026, 307689.2, 307689.2, 0.0, 10.0020075, 9.999546 
2.6632693e+3, 3.1889483e+2, 29829.459, -213623.08, 131072.9, -0.02493469, 0.09905436, 86981.336, 86981.336, 0.0, 10.000771, 9.99813 
2.6793364e+3, 1.2931222e+2, -1607447.0, -1410027.8, 60948.84, 0.12504831, 0.26091167, -1392727.3, 280032.16, 0.05267765, 9.999596, 10.002171 
2.6790226e+3, 1.3930608e+2, -1480166.0, -1597105.8, -22247.156, 0.336228, -0.15231039, -1476076.6, 98737.875, 0.03242507, 10.001071, 9.99957 
2.6787004e+3, 1.4930382e+2, -1271000.6, -1312830.1, -30477.363, -0.015561291, 0.09203078, -1254952.0, 221885.6, 0.015032841, 10.001455, 10.000492 
2.6783785e+3, 1.5930182e+2, -1366240.0, -1477517.8, -32749.629, -0.34066254, 0.29158717, -1357317.0, 21542.01, 0.0044764117, 10.000615, 9.99926 
2.6780617e+3, 1.6929829e+2, -1191170.4, -1044349.56, 5904.6494, -0.12981993, 0.34629616, -1044112.5, 236779.56, 0.00066900725, 10.000081, 10.001656 
2.6777452e+3, 1.792943e+2, -1465416.4, -1335034.3, -13774.577, 0.15621923, 0.25942963, -1333595.0, -150666.28, 0.000027210404, 9.998217, 10.000042 
2.6774237e+3, 1.8928759e+2, -1067262.1, -896482.4, -75620.195, 0.055514917, -0.023455849, -867811.5, 217174.97, 0.000000001728097, 9.999641, 10.001551 
2.6771012e+3, 1.9928089e+2, -1170650.9, -1306684.4, -116386.38, -0.06144429, -0.33150434, -1103863.9, -116818.63, 0.0, 9.999828, 9.998124 
2.6767814e+3, 2.0927726e+2, -936771.2, -1168939.3, -131637.92, 0.05568134, 0.01884759, -877344.4, 11745.089, 0.0, 10.001097, 9.997612 
2.6764622e+3, 2.1927366e+2, -990959.56, -1250764.5, -194918.36, 0.18680866, 0.34750092, -886623.2, -95488.08, 0.0, 10.000267, 9.996961 
2.6761395e+3, 2.2926596e+2, -640716.25, -642414.5, -185709.67, 0.057515707, 0.1279563, -455853.75, 237354.88, 0.0, 10.000491, 10.000199 
2.675817e+3, 2.3925811e+2, -973511.25, -1092322.3, -78519.81, -0.087004974, -0.18547896, -934456.75, -339174.75, 0.0, 9.998826, 9.9974 
2.6754996e+3, 2.4925382e+2, -574781.06, -693272.75, -2049.0342, -0.07863923, 0.062549695, -574745.6, -77417.59, 0.0, 10.000483, 9.998445 
2.6751825e+3, 2.5924993e+2, -529839.44, -773219.6, -51998.39, -0.07698752, 0.26649496, -519195.44, -119824.74, 0.0, 10.000543, 9.997381 
2.6748624e+3, 2.6924425e+2, -300120.56, -288991.1, -51120.805, -0.21914573, 0.25930595, -243133.05, 58290.664, 0.0, 10.000231, 10.000037 
2.6745424e+3, 2.79238e+2, -645938.44, -673141.56, -14797.694, -0.33904114, 0.10887404, -639440.9, -435959.22, 0.0, 9.998132, 9.997913 
2.674221e+3, 2.8923163e+2, -111300.28, -210180.45, -101409.93, -0.30906278, 0.095654845, -47920.617, 57621.953, 0.0, 10.000634, 9.999078 
2.673899e+3, 2.9922575e+2, 92867.21, -263413.03, -43728.645, -0.36641362, 0.07632135, 98155.81, 105754.984, 0.0, 10.00206, 9.997508 
2.6735795e+3, 3.092212e+2, 265206.03, 55958.965, 24445.486, -0.43803844, 0.23210534, 268023.94, 268023.94, 0.0, 10.002227, 9.999127 
2.6732635e+3, 3.1921637e+2, -99942.21, -174873.84, 147436.05, -0.3048996, 0.32993397, 14713.88, 14713.88, 0.0, 9.999614, 9.998919 
2.6893348e+3, 1.2962957e+2, -1658808.4, -1631955.1, 176838.69, 0.2683248, 0.12643494, -1468034.1, 201611.33, 0.043619167, 10.00014, 10.0002775 
2.6890156e+3, 1.3962382e+2, -1395943.6, -1584129.6, 29833.426, -0.114857204, -0.087671764, -1391327.3, 180373.44, 0.02648621, 10.001712, 9.999361 
2.6886964e+3, 1.4962171e+2, -1219567.6, -1186293.4, -33029.06, -0.11613793, 0.10409152, -1165947.9, 307773.44, 0.012009438, 10.001275, 10.001502 
2.6883778e+3, 1.5961978e+2, -1391723.9, -1415624.8, -13389.385, -0.034906507, 0.23936673, -1385727.5, -9987.207, 0.003455713, 9.999976, 10.000025 
2.688058e+3, 1.6961567e+2, -1252770.5, -1124271.9, -34123.03, -0.003131954, 0.229493, -1115772.6, 162008.28, 0.00049606664, 9.999711, 10.001354 
2.6877382e+3, 1.7961128e+2, -1335222.8, -1317709.5, -82915.484, -0.022170678, 0.14506122, -1243089.6, -63265.93, 0.00001910138, 9.999139, 9.999765 
2.6874173e+3, 1.8960564e+2, -1054163.1, -998288.44, -133627.84, -0.07602855, 0.032034308, -889708.75, 192166.89, 0.0000000002885943, 10.000036, 10.000731 
2.6870963e+3, 1.9960003e+2, -1023870.75, -1211843.3, -149584.25, -0.13405316, -0.09216104, -941196.7, 42730.61, 0.0, 10.000582, 9.998443 
2.6867777e+3, 2.095955e+2, -803290.7, -1010760.3, -64781.035, 0.038173817, 0.0972582, -784724.7, 101251.484, 0.0, 10.001524, 9.998525 
2.686459e+3, 2.1959102e+2, -657152.1, -1017401.7, -46575.06, 0.20360169, 0.28331015, -651228.06, 136798.05, 0.0, 10.002126, 9.997679 
2.686136e+3, 2.2958328e+2, -527217.3, -668734.25, -146235.27, 0.092468485, 0.10589694, -435521.13, 254580.27, 0.0, 10.00149, 9.999616 
2.6858127e+3, 2.3957558e+2, -662307.3, -841457.4, -95262.54, -0.049210083, -0.13724229, -621120.6, -28945.244, 0.0, 10.000374, 9.998422 
2.6854953e+3, 2.4957202e+2, -566663.44, -597261.0, 99658.125, -0.07462777, 0.082370885, -481136.66, 13077.454, 0.0, 9.999984, 9.999443 
2.6851782e+3, 2.5956896e+2, -542124.3, -653069.3, 124217.15, -0.093757756, 0.3251555, -461556.0, -65307.406, 0.0, 9.999732, 9.9986515 
2.684858e+3, 2.6956424e+2, -271725.44, -217348.08, 17269.902, -0.18864445, 0.35409027, -212326.92, 85966.18, 0.0, 10.00008, 10.000657 
2.6845375e+3, 2.795588e+2, -299997.13, -437131.94, -14686.366, -0.27039257, 0.259812, -298441.94, -98098.86, 0.0, 10.000095, 9.998594 
2.684217e+3, 2.8955078e+2, -34405.516, -202036.5, -35640.07, -0.32689473, 0.07496444, -27142.736, 75275.375, 0.0, 10.001189, 9.998882 
2.683896e+3, 2.995436e+2, 80959.33, -240551.33, -31585.154, -0.3687833, -0.04986843, 84032.87, 88518.26, 0.0, 10.001744, 9.997814 
2.6835775e+3, 3.095425e+2, 61278.62, -20818.662, -4276.109, -0.27059063, 0.4231182, 61500.746, 61500.746, 0.0, 10.000633, 9.999395 
2.6832566e+3, 3.1953567e+2, -375413.38, -220431.25, 42688.582, -0.41475186, 0.31118038, -209450.95, -209450.95, 0.0, 9.997236, 9.999752 
2.6993325e+3, 1.2994851e+2, -1561531.8, -1835425.1, 234577.11, 0.42944255, 0.057903785, -1426852.3, 239664.61, 0.03555016, 10.001978, 9.997947 
2.6990086e+3, 1.3994378e+2, -1522104.8, -1762988.1, 63331.727, -0.50514644, 0.12946185, -1506468.8, 62098.766, 0.021269776, 10.001346, 9.998325 
2.698693e+3, 1.4994074e+2, -1191218.1, -1056527.4, -46176.742, -0.09013357, 0.17327681, -1042216.9, 428377.4, 0.009415533, 10.001011, 10.002517 
2.6983786e+3, 1.5993747e+2, -1508563.4, -1497432.0, -56312.754, 0.51412845, 0.10587905, -1446410.5, -73787.055, 0.0026134893, 9.999379, 9.999738 
2.698055e+3, 1.6993214e+2, -1311072.9, -1239273.9, -59245.348, 0.19285525, 0.031641614, -1205900.1, 68778.83, 0.0003600524, 9.999802, 10.000448 
2.6977304e+3, 1.7992695e+2, -1488368.9, -1521511.1, -67883.83, -0.22017226, -0.0378984, -1435062.9, -258329.0, 0.000012952271, 9.998791, 9.998494 
2.697411e+3, 1.8992423e+2, -1109758.8, -1087174.1, -73158.53, -0.20001751, 0.20840514, -1024441.5, 54322.207, 0.000000000007316074, 10.000082, 10.000024 
2.6970923e+3, 1.9992147e+2, -1148833.0, -1261218.3, -86943.59, -0.10805788, 0.42195702, -1101503.6, -120710.94, 0.0, 9.9997835, 9.9984865 
2.6967743e+3, 2.099148e+2, -734661.1, -741484.9, -32944.44, 0.027431916, 0.22577342, -704952.4, 177901.98, 0.0, 10.0010605, 10.00056 
2.6964557e+3, 2.1990791e+2, -931604.6, -1186956.1, -59065.43, 0.15083997, 0.013017844, -918604.06, -133684.89, 0.0, 10.000563, 9.9972315 
2.6961318e+3, 2.2990288e+2, -772241.56, -969457.6, -181213.33, 0.052627496, 0.22306028, -664544.44, 22430.2, 0.0, 10.000799, 9.9977665 
2.6958078e+3, 2.3989819e+2, -910555.94, -1006041.8, -97421.484, -0.0815158, 0.41523784, -849807.7, -260781.39, 0.0, 9.999006, 9.997919 
2.6954898e+3, 2.4989328e+2, -477670.63, -277999.84, 82347.97, -0.13143255, 0.316876, -248420.03, 242651.22, 0.0, 9.999512, 10.001804 
2.6951727e+3, 2.598886e+2, -778160.1, -748489.0, 112164.71, -0.14109412, 0.18796241, -650182.94, -257069.33, 0.0, 9.998202, 9.998692 
2.694855e+3, 2.6988417e+2, -459586.56, -424781.63, 27160.86, -0.03584866, 0.31243956, -409926.4, -114769.17, 0.0, 9.999436, 9.999464 
2.694536e+3, 2.7987918e+2, -521441.88, -645583.06, 21839.729, -0.013788944, 0.35589892, -517711.78, -320506.0, 0.0, 9.999174, 9.997578 
2.694213e+3, 2.8986976e+2, -94586.695, -207442.98, 6711.1387, -0.36000592, 0.04601229, -94189.01, 5104.55, 0.0, 10.000845, 9.998947 
2.6938906e+3, 2.998613e+2, -77278.92, -315956.16, -29227.176, -0.67767143, -0.20908412, -73752.02, -72380.9, 0.0, 10.00079, 9.997742 
2.693576e+3, 3.0986252e+2, 11798.616, 54520.402, -60122.566, 0.00070990465, 0.41379023, 96963.984, 96963.984, 0.0, 9.999961, 10.000214 
2.6932472e+3, 3.1985065e+2, -721236.5, -587979.7, -157205.94, -0.6432434, -0.2276687, -483865.44, -483865.44, 0.0, 9.995892, 9.99787 
2.70933e+3, 1.3027042e+2, -1131163.6, -1471745.5, 82521.17, 0.09331932, 0.2846291, -1112222.5, 551151.2, 0.028415078, 10.004269, 9.999402 
2.70901e+3, 1.4026502e+2, -1387558.6, -1626566.5, 105129.78, -0.16111326, 0.19753449, -1347897.8, 217526.4, 0.016713178, 10.001918, 9.999006 
2.7086896e+3, 1.5026094e+2, -1194340.1, -1115531.0, -364.66125, -0.055910483, 0.15473802, -1115529.3, 351930.7, 0.0071980846, 10.001146, 10.002087 
2.7083707e+3, 1.6025685e+2, -1386148.3, -1436123.4, -12821.572, 0.12627439, 0.06317913, -1383050.8, -13553.559, 0.0019202423, 10.000115, 9.999832 
2.7080494e+3, 1.702531e+2, -1142386.6, -1160930.9, 28924.25, 0.0541365, 0.15349881, -1121284.6, 150254.63, 0.00025324232, 10.000948, 10.00047 
2.7077278e+3, 1.8024923e+2, -1102955.8, -1289110.6, 43687.543, -0.11362295, 0.24144934, -1093213.0, 80369.734, 0.000008369746, 10.001145, 9.998968 
2.707408e+3, 1.902446e+2, -939432.25, -1005939.56, 63399.04, -0.090639785, 0.2940829, -901095.06, 174532.95, 0.0, 10.001226, 10.000043 
2.7070892e+3, 2.0024015e+2, -934071.56, -1120459.8, 74288.805, -0.06004473, 0.3583844, -908085.25, 69586.08, 0.0, 10.000981, 9.998901 
2.70677e+3, 2.1023412e+2, -664297.25, -747653.1, 40879.008, -0.048041184, 0.25604433, -647595.9, 232133.63, 0.0, 10.001556, 10.000366 
2.7064508e+3, 2.2022803e+2, -677972.06, -970112.6, -95174.77, -0.054439735, 0.13787282, -649701.4, 132086.97, 0.0, 10.001738, 9.998195 
2.7061275e+3, 2.3022294e+2, -580198.5, -832267.7, -130862.7, -0.04245198, 0.29670557, -524547.2, 159294.78, 0.0, 10.001827, 9.998283 
2.705804e+3, 2.4021819e+2, -439077.75, -683746.7, 44036.9, -0.05573134, 0.46489626, -431393.1, 154499.17, 0.0, 10.001693, 9.998858 
2.7054855e+3, 2.5021306e+2, -284181.8, -176752.27, 99748.0, -0.102641, 0.33262816, -117175.64, 370762.66, 0.0, 10.000713, 10.001968 
2.7051678e+3, 2.602082e+2, -511641.4, -532524.8, 28983.965, -0.10874889, 0.18339527, -491275.66, -101294.15, 0.0, 9.999561, 9.999514 
2.7048504e+3, 2.7020413e+2, -333735.38, -372190.06, 22137.115, -0.001724609, 0.31319642, -323641.34, -31618.5, 0.0, 10.000218, 9.999491 
2.7045318e+3, 2.8019926e+2, -285721.28, -465577.06, 53519.52, 0.08909475, 0.37706968, -271000.4, -76928.26, 0.0, 10.000359, 9.998266 
2.704209e+3, 2.9018995e+2, -336926.28, -279013.06, 58339.99, -0.28154147, 0.040999137, -242838.72, -146679.88, 0.0, 9.998926, 9.999426 
2.7038857e+3, 3.0018193e+2, -493302.8, -427188.5, 42928.56, -0.62178904, -0.19701485, -406064.13, -406064.13, 0.0, 9.99742, 9.998639 
2.703572e+3, 3.1018478e+2, 39916.41, 115909.36, -14022.882, 0.13305889, 0.5495337, 118414.41, 118414.41, 0.0, 9.999858, 10.000737 
2.70324e+3, 3.201683e+2, -50657.117, -360038.38, -307968.16, -0.66279143, -0.5328133, 139287.67, 139287.67, 0.0, 10.000811, 9.997085 
2.7193275e+3, 1.3059276e+2, -1387767.5, -1378437.5, 110123.3, -0.057115212, 0.5040106, -1272880.5, 387346.28, 0.02219124, 10.001608, 10.001295 
2.7190134e+3, 1.4058657e+2, -1358787.0, -1610144.8, 26611.832, 0.46114522, 0.19632055, -1356000.4, 206277.4, 0.01278431, 10.002135, 9.999021 
2.7186868e+3, 1.5058176e+2, -1165141.8, -1188225.4, -46245.285, 0.0066497633, 0.12984727, -1129019.8, 335301.06, 0.00532732, 10.001832, 10.001215 
2.718361e+3, 1.6057743e+2, -1434387.0, -1522960.6, -27307.996, -0.3430638, 0.09677029, -1426644.5, -60283.133, 0.0013580795, 10.0001955, 9.999179 
2.7180442e+3, 1.7057604e+2, -1118739.6, -1125425.0, 25677.463, -0.056529947, 0.40272194, -1096188.1, 172194.13, 0.00016970174, 10.001108, 10.000597 
2.7177274e+3, 1.8057394e+2, -1218887.5, -1376839.9, 15579.141, 0.21438539, 0.6601535, -1217365.5, -46957.043, 0.0000049540654, 10.00058, 9.998633 
2.7174067e+3, 1.9056547e+2, -954942.2, -991092.06, 15116.819, 0.14251317, 0.29425418, -949454.0, 123030.48, 0.0, 10.001065, 10.000181 
2.717086e+3, 2.0055735e+2, -1209685.8, -1386079.3, 48686.92, 0.05819767, 0.005788222, -1197139.9, -222581.64, 0.0, 9.999816, 9.997591 
2.7167657e+3, 2.1055403e+2, -908872.4, -992467.25, 38416.29, -0.12648734, 0.28238773, -893899.8, -17301.799, 0.0, 10.000635, 9.999025 
2.716445e+3, 2.2055055e+2, -994790.44, -1150439.9, -95360.26, -0.25744793, 0.5241387, -949528.75, -170890.38, 0.0, 9.999831, 9.997859 
2.7161232e+3, 2.3054324e+2, -551182.56, -607178.06, -129355.82, -0.117308475, 0.30699572, -446829.25, 233876.2, 0.0, 10.001223, 10.000074 
2.7158016e+3, 2.4053636e+2, -727937.8, -883614.75, 28902.58, 0.0016387224, 0.1373483, -722745.06, -139976.7, 0.0, 10.000157, 9.998177 
2.7154818e+3, 2.5053206e+2, -531620.44, -480340.38, 57300.777, -0.04230305, 0.20380244, -443204.7, 41605.31, 0.0, 9.999948, 10.000174 
2.7151626e+3, 2.6052818e+2, -795779.9, -774621.9, 26630.674, -0.1054134, 0.3009761, -756545.9, -369697.7, 0.0, 9.998167, 9.998535 
2.7148443e+3, 2.7052423e+2, -341425.34, -242719.06, 55352.18, -0.14615797, 0.3623715, -217912.94, 70976.17, 0.0, 9.999713, 10.000589 
2.7145255e+3, 2.8051963e+2, -426743.47, -507024.8, 18374.156, -0.1591126, 0.36324424, -422738.0, -231801.69, 0.0, 9.999383, 9.998447 
2.714204e+3, 2.9051203e+2, -399484.5, -249349.84, -32454.666, -0.18655543, 0.12441784, -242634.48, -149625.92, 0.0, 9.998287, 9.999903 
2.713881e+3, 3.0050626e+2, -697915.2, -540435.75, 64535.598, -0.3606862, 0.068399444, -517367.9, -517367.9, 0.0, 9.996185, 9.998431 
2.7135646e+3, 3.1050968e+2, -25260.672, 82320.734, 96380.86, -0.09544941, 0.856201, 138905.34, 138905.34, 0.0, 9.999507, 10.00061 
2.7132377e+3, 3.204928e+2, 5660.294, -338997.1, -222043.8, -0.65312076, -0.26370463, 114402.1, 114402.1, 0.0, 10.001373, 9.996894 
2.7293235e+3, 1.3091502e+2, -1836296.1, -1731447.8, 253257.27, -0.12271624, 0.49470237, -1525245.8, 131819.67, 0.016854309, 9.99908, 10.00005 
2.7290106e+3, 1.4090772e+2, -1188693.0, -1609435.8, 38725.906, 0.22880833, 0.19918604, -1185158.3, 373976.47, 0.009467287, 10.003612, 9.9983225 
2.7286848e+3, 1.5090345e+2, -1020941.8, -1200269.1, -106541.125, 0.019472705, 0.26037496, -971355.4, 489820.4, 0.0037924994, 10.003188, 10.000463 
2.72836e+3, 1.6089933e+2, -1210475.6, -1455896.0, -51326.28, -0.1779617, 0.3220127, -1200173.9, 163042.58, 0.0009170214, 10.001858, 9.998829 
2.728041e+3, 1.7089549e+2, -969638.56, -1119185.0, 3068.2615, -0.06882828, 0.44649225, -969575.7, 295683.0, 0.0001065257, 10.00233, 10.00008 
2.727723e+3, 1.8089162e+2, -937507.7, -1206719.9, -64165.004, 0.043695886, 0.56044644, -922996.56, 244303.39, 0.0000025959862, 10.002256, 9.999011 
2.7274033e+3, 1.9088428e+2, -832435.5, -923100.5, -84795.28, 0.117337525, 0.3006628, -781615.6, 287749.44, 0.0, 10.001745, 10.000405 
2.7270827e+3, 2.0087726e+2, -1030540.06, -1217158.6, -50295.45, 0.110623665, 0.09906897, -1017848.1, -46419.402, 0.0, 10.00057, 9.998406 
2.726761e+3, 2.108737e+2, -994704.94, -1041469.25, 9336.805, -0.11487063, 0.3359069, -992909.7, -119438.17, 0.0, 9.999967, 9.999073 
2.7264398e+3, 2.2087015e+2, -927097.44, -1020298.4, -49208.88, -0.30021283, 0.5708861, -905925.4, -130412.555, 0.0, 9.999732, 9.998814 
2.7261192e+3, 2.3086329e+2, -496696.13, -519991.47, -120260.76, -0.14182563, 0.3372507, -387520.28, 290053.25, 0.0, 10.001214, 10.000705 
2.7257985e+3, 2.4085668e+2, -370321.7, -605797.4, -73205.76, 0.018705588, 0.13126104, -349418.7, 230212.58, 0.0, 10.002019, 9.999203 
2.725477e+3, 2.5085208e+2, -457171.4, -452432.78, 16061.955, -0.048623495, 0.15930271, -438566.3, 43108.02, 0.0, 10.00037, 10.000233 
2.7251565e+3, 2.6084808e+2, -655054.44, -618902.9, 126783.71, -0.11531887, 0.2510456, -508912.88, -125199.65, 0.0, 9.998604, 9.999418 
2.7248383e+3, 2.708447e+2, -472460.84, -271523.38, 152200.73, -0.16305944, 0.3433913, -189621.53, 96128.19, 0.0, 9.998562, 10.001002 
2.72452e+3, 2.8084064e+2, -473497.28, -463945.13, 41290.57, -0.15042005, 0.38250482, -427155.3, -239362.75, 0.0, 9.998642, 9.999128 
2.7241984e+3, 2.9083374e+2, -106364.375, -117621.91, -78192.51, -0.14308925, 0.20937352, -33598.297, 56262.3, 0.0, 10.000199, 9.999937 
2.723876e+3, 3.0082896e+2, -23542.063, -153241.53, 14376.06, -0.22250086, 0.24216446, -21967.71, -21967.71, 0.0, 10.000424, 9.999062 
2.7235582e+3, 3.1083193e+2, -183387.77, -7336.9956, 71247.78, -0.16158013, 0.9667391, 17883.875, 17883.875, 0.0, 9.998312, 10.000667 
2.7232355e+3, 3.2081783e+2, -311155.22, -313382.06, -172156.38, -0.43533382, 0.11451604, -140108.67, -140108.67, 0.0, 9.998179, 9.998707 
2.7393207e+3, 1.3123669e+2, -1715403.9, -1840380.1, 395723.34, 0.052999277, 0.456947, -1377265.4, 276642.3, 0.012358647, 10.000732, 9.998442 
2.7390057e+3, 1.4122865e+2, -1625812.1, -1956265.6, 21924.51, -0.06681493, 0.23283622, -1624363.9, -68370.27, 0.0067449408, 10.001242, 9.99703 
2.7386835e+3, 1.5122539e+2, -1129848.1, -1319643.1, -161193.05, 0.093047075, 0.42939907, -1037692.94, 420335.3, 0.0025850076, 10.002714, 9.999835 
2.7383617e+3, 1.6122149e+2, -1223732.3, -1567457.3, -44636.87, 0.26669967, 0.58327174, -1218030.1, 142038.1, 0.0005889778, 10.002274, 9.99784 
2.7380392e+3, 1.7121385e+2, -1036857.3, -1241155.0, 40184.91, -0.0060993726, 0.38359663, -1029237.25, 232907.44, 0.00006228534, 10.002279, 9.999254 
2.737718e+3, 1.8120699e+2, -1177377.4, -1393071.8, -40394.637, -0.19622338, 0.28839955, -1170060.6, -5848.1865, 0.0000011486238, 10.001026, 9.998299 
2.737399e+3, 1.9120306e+2, -942442.2, -944049.2, -77802.99, 0.053181875, 0.3395216, -865438.56, 200809.38, 0.0, 10.000984, 10.000544 
2.7370796e+3, 2.0119907e+2, -1201404.0, -1296651.8, -34026.473, 0.23172565, 0.42897028, -1190497.3, -222212.05, 0.0, 9.999528, 9.998326 
2.736757e+3, 2.1119332e+2, -1007166.44, -985756.5, 7189.4395, -0.025761964, 0.378788, -983566.4, -113220.37, 0.0, 9.99965, 9.999576 
2.7364352e+3, 2.2118795e+2, -1170434.5, -1189444.1, -7491.773, -0.24486084, 0.40846217, -1167837.0, -395434.8, 0.0, 9.998398, 9.998273 
2.7361155e+3, 2.3118326e+2, -646652.7, -611345.5, -58751.535, -0.13274361, 0.3906128, -567652.56, 106791.37, 0.0, 10.000395, 10.000408 
2.7357948e+3, 2.4117847e+2, -628074.75, -721438.94, -91258.77, -0.036157694, 0.38541377, -572251.3, 4234.0527, 0.0, 10.000329, 9.999203 
2.7354714e+3, 2.511728e+2, -460279.66, -281835.94, -64802.844, -0.1421386, 0.15150502, -260785.63, 217747.88, 0.0, 9.999706, 10.001662 
2.735149e+3, 2.6116815e+2, -887449.44, -758101.06, 93604.586, -0.23955481, 0.07054261, -709001.06, -328426.53, 0.0, 9.9972725, 9.999064 
2.7348325e+3, 2.711656e+2, -600866.8, -383604.25, 152604.47, -0.113578126, 0.261388, -304915.28, -22312.072, 0.0, 9.9979725, 10.000467 
2.734515e+3, 2.811622e+2, -719034.8, -713222.7, 76669.21, -0.04547407, 0.43528166, -639404.5, -454762.94, 0.0, 9.997682, 9.997841 
2.7341932e+3, 2.9115474e+2, -175949.52, -215702.16, -4576.494, -0.24315508, 0.25448066, -175429.45, -88711.086, 0.0, 10.000134, 9.999242 
2.73387e+3, 3.0114913e+2, -107647.85, -254201.06, -47057.28, -0.46256253, 0.2731003, -93839.16, -93839.16, 0.0, 10.000237, 9.998438 
2.7335513e+3, 3.1115028e+2, -277843.97, -11749.864, -61169.62, -0.18554065, 0.7637553, 1638.189, 1638.189, 0.0, 9.997622, 10.000889 
2.7332294e+3, 3.211408e+2, -227932.34, 146027.88, 170524.98, -0.36676803, 0.23412791, 212109.69, 212109.69, 0.0, 9.997108, 10.002316 
2.7493215e+3, 1.315526e+2, -1285142.3, -1524156.4, 83387.88, 0.22828749, 0.18899298, -1258925.4, 391886.34, 0.008685479, 10.003105, 9.999539 
2.748997e+3, 1.415495e+2, -1833688.4, -1886276.8, 13141.644, -0.5633001, 0.3464447, -1830587.3, -277736.25, 0.0045926278, 9.99899, 9.998621 
2.748681e+3, 1.515459e+2, -1073061.4, -1171221.3, 946.1302, 0.037430447, 0.38528076, -1073052.3, 381832.0, 0.0016782226, 10.002466, 10.00105 
2.748364e+3, 1.6154154e+2, -836773.3, -1298980.4, 49654.9, 0.5140276, 0.41647658, -831499.06, 525427.0, 0.0003582281, 10.004525, 9.998599 
2.7480382e+3, 1.7153506e+2, -995367.1, -1219904.6, 98919.914, 0.06573393, 0.33516783, -958004.94, 300989.16, 0.000033741435, 10.002557, 9.999266 
2.7477133e+3, 1.8152922e+2, -1231401.6, -1355852.6, 71075.86, -0.31637275, 0.34701353, -1199161.4, -38106.688, 0.00000040337267, 10.000315, 9.998893 
2.747394e+3, 1.9152564e+2, -994524.25, -966430.44, 66391.67, -0.030266812, 0.4329019, -912615.94, 150472.28, 0.0, 10.000511, 10.00065 
2.747075e+3, 2.015218e+2, -1003195.6, -1168628.0, 96352.8, 0.17872038, 0.5469656, -958924.25, 6200.6333, 0.0, 10.000618, 9.998702 
2.7467528e+3, 2.115149e+2, -821026.4, -912235.44, 117762.125, -0.032470267, 0.40597817, -740346.75, 126848.18, 0.0, 10.00086, 9.999557 
2.746431e+3, 2.215087e+2, -745295.25, -883402.1, 89219.81, -0.2045429, 0.33712685, -701527.8, 67729.56, 0.0, 10.000723, 9.9993 
2.7461115e+3, 2.3150499e+2, -605189.1, -552403.1, 98856.625, -0.087234505, 0.39978367, -476476.9, 194813.97, 0.0, 10.000347, 10.000944 
2.7457908e+3, 2.4150118e+2, -615005.7, -658243.8, 62334.71, -0.012903664, 0.47272357, -570647.5, 2677.625, 0.0, 10.00003, 9.999815 
2.7454665e+3, 2.514953e+2, -347608.28, -308931.6, -59982.773, -0.14097601, 0.29378617, -265246.88, 210132.55, 0.0, 10.000724, 10.001065 
2.745144e+3, 2.614901e+2, -293665.66, -418688.4, -5119.9917, -0.21274859, 0.21366344, -293456.34, 83970.945, 0.0, 10.000984, 9.9996395 
2.7448273e+3, 2.714869e+2, -271463.4, -225280.06, 56619.79, -0.06745344, 0.32484514, -187224.16, 92234.805, 0.0, 10.000108, 10.000577 
2.74451e+3, 2.81483e+2, -465031.03, -519265.94, 55479.953, 0.01716093, 0.4356663, -430395.9, -248897.03, 0.0, 9.999003, 9.9985485 
2.7441874e+3, 2.914756e+2, -304036.1, -255231.27, 52069.6, -0.27813452, 0.24951237, -222129.58, -138554.31, 0.0, 9.999129, 9.999487 
2.7438647e+3, 3.0146986e+2, -211169.75, -215322.06, 8913.192, -0.5165151, 0.2410267, -204094.11, -204094.11, 0.0, 9.999058, 9.9993 
2.743545e+3, 3.1147e+2, 122307.23, 241168.48, -38981.914, -0.18410127, 0.5921553, 252812.39, 252812.39, 0.0, 10.000019, 10.001518 
2.743226e+3, 3.2146376e+2, 39375.453, 353311.25, 326770.16, -0.06779555, 0.34792686, 558859.06, 558859.06, 0.0, 9.998492, 10.003066 
2.7593222e+3, 1.318692e+2, -1253968.1, -1352288.0, -23674.545, 0.44931486, -0.0020595263, -1248564.5, 399145.84, 0.0058229333, 10.002767, 10.000794 
2.7589884e+3, 1.4187129e+2, -1474932.5, -1585381.9, -20014.9, -0.865762, 0.5411623, -1471417.4, 78281.72, 0.0029696852, 10.00103, 9.999664 
2.7586785e+3, 1.5186623e+2, -1006122.4, -946856.5, 67601.586, 0.045195963, 0.26861542, -902678.3, 549061.8, 0.0010279784, 10.002255, 10.00262 
2.7583656e+3, 1.6186126e+2, -1165336.3, -1435713.6, -23720.203, 0.76702404, 0.12826842, -1163271.1, 190512.66, 0.0002033788, 10.002223, 9.998775 
2.7580363e+3, 1.7185771e+2, -1118258.3, -1270881.6, -36664.023, 0.1631922, 0.3085172, -1109907.5, 145919.88, 0.000016580547, 10.001685, 9.999333 
2.7577087e+3, 1.8185417e+2, -1314704.1, -1411612.6, 20631.916, -0.30375335, 0.543843, -1310494.5, -152625.27, 0.00000009587778, 9.999931, 9.998674 
2.7573895e+3, 1.918496e+2, -1021217.0, -970216.06, 26058.2, -0.054529365, 0.51349676, -959256.94, 100655.6, 0.0, 10.000394, 10.000652 
2.75707e+3, 2.0184468e+2, -1191163.0, -1341258.6, 82748.35, 0.13510138, 0.5528584, -1154499.4, -192539.92, 0.0, 9.99979, 9.997907 
2.7567485e+3, 2.1183749e+2, -950048.25, -1007074.75, 95791.66, -0.02202954, 0.3966842, -878616.3, -14585.6, 0.0, 10.000228, 9.999166 
2.7564275e+3, 2.2183129e+2, -989191.2, -968563.06, 63660.824, -0.110468514, 0.34657744, -914386.2, -148294.89, 0.0, 9.999129, 9.999421 
2.7561072e+3, 2.3182806e+2, -668193.2, -467762.97, 68347.41, -0.015532371, 0.34270972, -446675.0, 221445.34, 0.0, 9.999582, 10.0018215 
2.7557862e+3, 2.4182484e+2, -977416.7, -1051963.5, 53731.688, 0.024835294, 0.48826465, -949295.94, -379143.88, 0.0, 9.998676, 9.997707 
2.7554628e+3, 2.5181937e+2, -626619.94, -734610.5, -38273.387, -0.08052539, 0.56133324, -614431.06, -142216.97, 0.0, 10.00015, 9.998361 
2.7551407e+3, 2.6181376e+2, -576078.1, -681372.75, -13479.211, -0.16453472, 0.65010095, -574380.0, -200106.66, 0.0, 9.999722, 9.998428 
2.7548224e+3, 2.7180836e+2, -356463.0, -208465.61, 10261.061, -0.09155606, 0.5060954, -207757.56, 68561.03, 0.0, 9.999442, 10.000964 
2.7545032e+3, 2.8180283e+2, -598580.9, -531884.0, 15415.435, -0.07763227, 0.41918674, -528493.44, -350127.1, 0.0, 9.997994, 9.998931 
2.754181e+3, 2.9179603e+2, -322382.38, -150104.61, 44143.164, -0.35145426, 0.17712331, -139452.34, -59020.617, 0.0, 9.998555, 10.000473 
2.7538586e+3, 3.0179125e+2, -295821.53, -161143.1, 22920.674, -0.5659937, 0.17371702, -157349.14, -157349.14, 0.0, 9.9981785, 10.000078 
2.753541e+3, 3.117921e+2, 179909.58, 388515.44, 19391.086, -0.14174677, 0.4704482, 390302.63, 390302.63, 0.0, 9.999974, 10.002534 
2.753221e+3, 3.2178304e+2, -568558.44, -710670.25, 216220.53, -0.03513281, 0.09385022, -412017.66, -412017.66, 0.0, 9.997836, 9.996012 
2.769317e+3, 1.3219172e+2, -1489078.8, -1893278.3, 48371.02, -0.048732426, 0.1060306, -1483370.8, 161179.3, 0.0036893368, 10.002971, 9.996962 
2.768994e+3, 1.4219207e+2, -988071.8, -1423700.3, -92215.74, -0.2947899, 0.7568868, -969355.3, 577211.3, 0.001804221, 10.004699, 9.998985 
2.7686748e+3, 1.521859e+2, -1064739.6, -971602.1, -91666.98, -0.0741524, 0.37393698, -915353.1, 533263.5, 0.00058557204, 10.001837, 10.002639 
2.7683556e+3, 1.6218053e+2, -1469104.0, -1457472.4, -175111.16, 0.120828636, 0.1511014, -1288080.5, 62581.08, 0.00010501939, 9.999513, 9.999946 
2.76803e+3, 1.7217828e+2, -1138361.1, -1147791.9, -111515.016, -0.12224902, 0.3328522, -1031461.8, 221226.02, 0.0000068884756, 10.00084, 10.000664 
2.7677056e+3, 1.8217549e+2, -1039500.8, -1213053.8, -51804.418, -0.2906714, 0.54478467, -1025213.7, 129504.766, 0.00000000965895, 10.0014515, 9.999328 
2.7673858e+3, 1.921698e+2, -882587.94, -937995.6, -34250.633, -0.023700865, 0.4233138, -866239.44, 190532.38, 0.0, 10.001411, 10.000439 
2.767066e+3, 2.0216416e+2, -986690.7, -1178978.5, -14086.219, 0.12622353, 0.38846695, -985664.3, -26838.914, 0.0, 10.000819, 9.998547 
2.766744e+3, 2.1215804e+2, -951771.75, -1002321.3, 17312.74, -0.03510152, 0.33871362, -946410.9, -85525.07, 0.0, 10.000092, 9.999332 
2.766422e+3, 2.2215267e+2, -893495.9, -870827.3, -25470.422, -0.12957376, 0.34897357, -854283.1, -91344.59, 0.0, 9.999435, 9.999972 
2.766102e+3, 2.321487e+2, -672235.3, -516649.88, -71531.64, 0.0003876608, 0.3036626, -488761.56, 176213.89, 0.0, 9.999598, 10.00156 
2.7657816e+3, 2.4214494e+2, -692026.44, -848010.94, -54905.586, 0.06274314, 0.39063066, -674638.3, -107625.14, 0.0, 10.000191, 9.998423 
2.7654594e+3, 2.5214046e+2, -289830.44, -564257.5, 30741.43, -0.06092521, 0.56445897, -286428.94, 182636.81, 0.0, 10.002323, 9.998537 
2.765138e+3, 2.6213554e+2, -49472.95, -381521.7, 77862.26, -0.13133843, 0.7145463, -32121.688, 338998.06, 0.0, 10.003068, 9.998869 
2.7648175e+3, 2.7212915e+2, -234840.56, -204738.11, 6235.6943, -0.08140562, 0.5370634, -203497.52, 69677.95, 0.0, 10.000423, 10.000576 
2.764497e+3, 2.8212288e+2, -488421.2, -373715.4, 46373.375, -0.05427181, 0.38903034, -357313.0, -182083.66, 0.0, 9.998151, 9.999964 
2.7641758e+3, 2.9211676e+2, -245023.66, -50229.49, 56092.773, -0.24160902, 0.13996233, -35231.773, 42052.33, 0.0, 9.998578, 10.001243 
2.7638543e+3, 3.0211255e+2, -154227.56, 5073.7524, 39577.47, -0.3829203, 0.11678792, 14364.669, 14364.669, 0.0, 9.998615, 10.001006 
2.7635363e+3, 3.1211326e+2, 140851.88, 417450.34, -29109.318, -0.057299674, 0.34849077, 420480.63, 420480.63, 0.0, 9.99945, 10.002974 
2.763215e+3, 3.2210314e+2, -509703.75, -954471.2, 65639.82, -0.061329115, -0.06143686, -500218.75, -500218.75, 0.0, 9.999319, 9.993605 
2.7793124e+3, 1.3251491e+2, -1690411.6, -2411157.5, 170320.67, -0.34516373, 0.2714343, -1652189.8, -10805.257, 0.00217142, 10.003476, 9.993136 
2.7790016e+3, 1.4251234e+2, -1321181.5, -1759309.4, -61397.28, 0.50866497, 0.909975, -1312740.3, 230698.61, 0.0010072395, 10.0031185, 9.997489 
2.7786702e+3, 1.5250573e+2, -1139827.9, -1068789.1, -134057.58, -0.20147234, 0.5294994, -965625.2, 479869.0, 0.00030058212, 10.001516, 10.002184 
2.7783427e+3, 1.6250028e+2, -1436342.1, -1332716.4, -92306.61, -0.6021955, 0.30972862, -1278675.1, 68863.305, 0.000046417692, 9.99935, 10.0008745 
2.778023e+3, 1.7249845e+2, -1076570.5, -924656.4, -43357.895, -0.3822265, 0.3585111, -913152.7, 336401.13, 0.0000020738605, 10.000531, 10.002313 
2.777703e+3, 1.8249561e+2, -1214404.8, -1318253.4, -23020.041, -0.174276, 0.48412755, -1209530.6, -57951.395, 0.00000000000031198744, 10.000449, 9.999053 
2.7773833e+3, 1.9248873e+2, -1009202.1, -1027015.2, -53606.59, 0.06659753, 0.24161382, -963767.2, 89875.74, 0.0, 10.000774, 10.000072 
2.7770624e+3, 2.0248261e+2, -1159475.1, -1307851.3, -34624.75, 0.19928712, 0.20189455, -1151792.9, -196092.3, 0.0, 9.999971, 9.998032 
2.7767387e+3, 2.1247779e+2, -976180.56, -988205.2, -26540.352, -0.042442936, 0.24475768, -954980.06, -97231.195, 0.0, 9.999936, 9.9994545 
2.776416e+3, 2.224731e+2, -1119873.9, -1118682.5, -31941.07, -0.16597356, 0.37046987, -1087331.5, -327536.1, 0.0, 9.998579, 9.998652 
2.7760968e+3, 2.324675e+2, -836532.75, -711833.5, -72656.38, 0.009993236, 0.23472284, -678441.7, -16591.533, 0.0, 9.999065, 10.000416 
2.775777e+3, 2.4246289e+2, -827290.44, -797203.3, 4687.0747, 0.09780608, 0.2713257, -796490.06, -232595.27, 0.0, 9.998928, 9.999342 
2.775457e+3, 2.5245956e+2, -262122.31, -281879.06, 106951.29, -0.07558509, 0.32000673, -164594.17, 301332.47, 0.0, 10.001486, 10.000848 
2.7751356e+3, 2.6245546e+2, -345221.06, -603891.7, 10610.015, -0.18411547, 0.4538201, -344786.63, 23180.295, 0.0, 10.001554, 9.99801 
2.7748126e+3, 2.7244908e+2, -456981.1, -459561.22, -97793.984, -0.10951168, 0.36514643, -360468.66, -90436.46, 0.0, 9.999648, 9.999137 
2.7744907e+3, 2.824431e+2, -656805.94, -455477.88, 24593.885, -0.03694007, 0.33949143, -452517.06, -280428.03, 0.0, 9.997162, 9.999836 
2.7741724e+3, 2.9243767e+2, -302799.22, 15549.063, 85573.79, 0.035168935, 0.07644379, 37093.71, 111226.44, 0.0, 9.997955, 10.001913 
2.7738515e+3, 3.0243382e+2, -333825.9, -159060.61, 51823.504, -0.091085136, 0.081716925, -144848.95, -144848.95, 0.0, 9.997887, 10.000195 
2.7735296e+3, 3.1243238e+2, -43817.188, 236627.14, -11639.53, -0.19089536, 0.16650073, 237109.39, 237109.39, 0.0, 9.998694, 10.002071 
2.7732077e+3, 3.2242742e+2, -184757.11, -79041.86, 102150.5, -0.34197104, 0.12906745, -16883.605, -16883.605, 0.0, 9.998627, 9.99994 
2.7893144e+3, 1.3283518e+2, -1240294.1, -1714326.3, 36796.113, -0.23553368, 0.18015064, -1237454.9, 400795.7, 0.0011689387, 10.0043955, 9.997546 
2.788996e+3, 1.4283368e+2, -1372938.0, -1658734.3, 36401.957, 0.14577477, 0.6604759, -1368374.4, 171902.42, 0.0005049565, 10.002176, 9.99865 
2.7886668e+3, 1.5282942e+2, -1176580.9, -1118949.1, 15425.518, -0.22249518, 0.5435944, -1115080.1, 327237.53, 0.00013439951, 10.001371, 10.001931 
2.7883407e+3, 1.6282511e+2, -1283728.9, -1289377.9, 72712.51, -0.3832905, 0.49048817, -1213786.0, 130571.07, 0.000016423304, 10.000465, 10.000644 
2.7880213e+3, 1.7282116e+2, -1105256.8, -995432.9, 76546.17, -0.1428107, 0.40318015, -956139.5, 290251.7, 0.0000003300107, 10.000513, 10.001857 
2.7877006e+3, 1.8281688e+2, -1230213.8, -1333539.4, 3811.447, -0.008487452, 0.41759843, -1230073.3, -81644.05, 0.0, 10.000253, 9.999088 
2.7873787e+3, 1.9281007e+2, -1066859.1, -1122573.0, -9567.508, 0.013609737, 0.26045984, -1065261.9, -14768.475, 0.0, 10.000505, 9.999652 
2.787057e+3, 2.0280388e+2, -982647.1, -1117641.4, 7427.1426, 0.02406436, 0.22138722, -982239.75, -29688.201, 0.0, 10.000684, 9.998982 
2.786735e+3, 2.1279874e+2, -658475.0, -786122.94, 49896.566, -0.04909167, 0.20547773, -641285.6, 213314.14, 0.0, 10.001862, 9.999937 
2.786413e+3, 2.2279371e+2, -543121.94, -852278.2, 33529.367, -0.09859819, 0.28012607, -539527.3, 217121.0, 0.0, 10.002437, 9.998658 
2.786092e+3, 2.32788e+2, -489445.16, -661949.56, -2346.6409, -0.054257266, 0.24535473, -489413.25, 169292.33, 0.0, 10.00179, 9.99952 
2.7857712e+3, 2.4278283e+2, -537944.75, -592879.3, 43946.7, -0.027767485, 0.27503282, -513587.7, 47168.207, 0.0, 10.000558, 9.999957 
2.785452e+3, 2.5277805e+2, -622803.3, -416393.9, 4171.983, -0.09770926, 0.16536175, -416309.63, 46489.6, 0.0, 9.998756, 10.001269 
2.7851313e+3, 2.6277354e+2, -786535.9, -758901.6, -166980.22, -0.12930706, 0.19450322, -605167.8, -240325.1, 0.0, 9.998132, 9.998634 
2.784808e+3, 2.7276838e+2, -314039.56, -422619.9, -190474.55, -0.07950184, 0.2549018, -170269.2, 96629.6, 0.0, 10.0005865, 9.999023 
2.7844858e+3, 2.8276357e+2, -16402.08, -75108.15, -14337.72, 0.02355698, 0.32694933, -13087.534, 155859.44, 0.0, 10.001172, 10.000516 
2.784167e+3, 2.9275903e+2, -87261.86, 141376.64, -21184.217, 0.1344801, 0.14577484, 143322.86, 214304.13, 0.0, 9.999277, 10.002153 
2.783846e+3, 3.0275476e+2, -329899.7, -165292.14, -27610.516, 0.05835718, 0.09205427, -160784.33, -160784.33, 0.0, 9.997787, 10.000238 
2.7835232e+3, 3.127509e+2, -162316.13, 88289.47, -78247.31, -0.18381955, -0.0012669266, 110714.234, 110714.234, 0.0, 9.99807, 10.001452 
2.7832025e+3, 3.2275057e+2, 147752.3, 548560.4, -31183.766, -0.2753379, 0.32812756, 550972.06, 550972.06, 0.0, 9.998718, 10.004274 
2.7993166e+3, 1.331566e+2, -1154389.0, -1074075.8, 67422.49, 0.05908021, 0.12440554, -1035757.25, 599345.94, 0.0005685035, 10.002429, 10.002846 
2.7989885e+3, 1.4315617e+2, -1468253.4, -1655853.4, 9208.164, -0.32853281, 0.3442908, -1467802.5, 69296.09, 0.00022583413, 10.001404, 9.998978 
2.7986643e+3, 1.5315422e+2, -1197323.6, -1207808.0, -57099.96, -0.10191281, 0.49788603, -1145225.8, 293900.94, 0.00005282333, 10.00163, 10.001141 
2.798342e+3, 1.6315076e+2, -1355986.1, -1468305.8, 29093.314, 0.17937188, 0.6328539, -1348897.8, -7732.834, 0.000004777361, 10.000725, 9.999204 
2.798021e+3, 1.731444e+2, -1148115.0, -1153895.3, 26182.969, 0.2887908, 0.3961636, -1124663.1, 118559.18, 0.00000002399446, 10.000886, 10.000519 
2.7976987e+3, 1.8313856e+2, -1288662.8, -1475093.4, -8882.79, 0.2540479, 0.38517436, -1288240.4, -142964.64, 0.0, 10.000482, 9.997953 
2.7973735e+3, 1.9313262e+2, -1051112.4, -1156535.3, -26543.756, -0.04162467, 0.3400395, -1044806.3, 2526.909, 0.0, 10.000917, 9.999161 
2.7970508e+3, 2.0312676e+2, -1032332.06, -1145523.5, 44159.5, -0.15956758, 0.370223, -1017142.44, -67754.36, 0.0, 10.000447, 9.998882 
2.7967322e+3, 2.131201e+2, -722292.0, -753552.2, 76229.71, 0.019217247, 0.12025442, -660106.44, 191340.19, 0.0, 10.0012, 10.000447 
2.796412e+3, 2.231145e+2, -862404.2, -1092262.5, 19503.094, 0.064043604, 0.14753512, -860761.1, -107263.07, 0.0, 10.00083, 9.997719 
2.7960873e+3, 2.3310988e+2, -695584.4, -838591.3, -34358.848, -0.15631887, 0.27342978, -687757.7, -32211.777, 0.0, 10.000877, 9.998696 
2.7957645e+3, 2.4310428e+2, -863206.25, -950119.6, -11061.724, -0.25642627, 0.39747646, -861820.5, -304218.1, 0.0, 9.999336, 9.998053 
2.795445e+3, 2.530958e+2, -865764.0, -701724.25, -58397.926, -0.12592696, 0.045201547, -683058.56, -223373.78, 0.0, 9.997923, 9.999663 
2.795125e+3, 2.6308987e+2, -962867.9, -797681.3, -112637.336, -0.05646008, 0.02021659, -740600.6, -378856.6, 0.0, 9.996868, 9.998942 
2.7948034e+3, 2.730873e+2, -345557.25, -292804.06, -85491.99, -0.061717466, 0.18830064, -229712.19, 34061.605, 0.0, 9.999864, 10.000223 
2.7944815e+3, 2.8308454e+2, -171775.42, -222000.6, -74350.3, -0.08974132, 0.42866653, -118411.21, 47390.547, 0.0, 10.000544, 9.999775 
2.7941588e+3, 2.9308033e+2, -216820.7, 1679.3224, -112935.06, -0.17068902, 0.32985488, 49559.49, 117396.09, 0.0, 9.9988165, 10.00139 
2.793836e+3, 3.0307522e+2, -496385.6, -271998.72, -87374.89, -0.26848665, 0.25254244, -241989.0, -241989.0, 0.0, 9.996927, 9.999849 
2.7935174e+3, 3.130681e+2, -318547.84, 22614.258, -77328.13, -0.0748142, -0.18231426, 39323.184, 39323.184, 0.0, 9.997094, 10.001396 
2.7931973e+3, 3.2306913e+2, -128233.375, 168559.36, 165153.23, -0.31251416, 0.35571566, 242192.44, 242192.44, 0.0, 9.998162, 10.001806 
2.8093147e+3, 1.3348575e+2, -1411588.8, -1154204.9, 122360.27, 0.11817715, 0.3996248, -1105319.6, 526555.7, 0.00025074874, 10.000346, 10.003372 
2.8089845e+3, 1.4348003e+2, -1586779.3, -1851615.6, -1555.2633, -0.4478327, 0.13726902, -1586770.0, -52856.25, 0.00009142473, 10.001159, 9.997769 
2.8086618e+3, 1.5347588e+2, -1279431.5, -1489253.4, -62909.45, -0.09242497, 0.28023407, -1262015.4, 173952.02, 0.000018191195, 10.002043, 9.99906 
2.8083396e+3, 1.6347125e+2, -1115850.8, -1395106.9, -32227.041, 0.16248512, 0.43864208, -1112179.9, 225840.72, 0.000001253609, 10.002473, 9.998889 
2.8080165e+3, 1.7346588e+2, -911084.2, -1106292.4, 9736.662, 0.07894911, 0.3663681, -910599.75, 329471.25, 0.0000000065346386, 10.0026865, 10.000041 
2.8076938e+3, 1.834603e+2, -897945.3, -1223284.1, -8424.599, 0.010252648, 0.39472935, -897727.3, 244396.36, 0.0, 10.002851, 9.998532 
2.807372e+3, 1.934535e+2, -580762.75, -918634.25, 27578.979, -0.012032675, 0.26558512, -578526.4, 465662.44, 0.0, 10.004032, 9.999325 
2.80705e+3, 2.0344785e+2, -503354.34, -838106.25, 19141.65, -0.02945462, 0.29128385, -502263.34, 443978.6, 0.0, 10.003775, 9.999388 
2.8067285e+3, 2.1344309e+2, -691790.9, -758326.06, 15709.414, -0.027545618, 0.25991026, -688268.25, 160015.56, 0.0, 10.001387, 10.000371 
2.8064066e+3, 2.2343771e+2, -900870.3, -1065796.0, -8652.04, -0.06695254, 0.3004111, -900417.7, -150084.58, 0.0, 10.000283, 9.998182 
2.8060836e+3, 2.3343083e+2, -542163.5, -775864.94, 499.41336, -0.19616249, 0.22485924, -542162.44, 110238.1, 0.0, 10.001866, 9.998693 
2.805761e+3, 2.4342428e+2, -416407.22, -748782.2, 6420.6646, -0.21791473, 0.2547499, -416283.22, 138182.64, 0.0, 10.002298, 9.998043 
2.8054407e+3, 2.5341725e+2, -483620.7, -613004.56, -4406.433, -0.02876078, 0.14478134, -483470.8, -26933.35, 0.0, 10.000784, 9.99897 
2.8051198e+3, 2.6341167e+2, -471362.63, -480767.25, 60144.508, 0.053659994, 0.17914864, -415736.9, -57143.03, 0.0, 9.999742, 9.999789 
2.8047985e+3, 2.7340806e+2, -310152.3, -217557.45, 39257.02, -0.044083495, 0.22022282, -203154.27, 57475.58, 0.0, 9.999689, 10.000899 
2.8044763e+3, 2.8340465e+2, -336349.6, -316466.25, -48543.668, -0.11650007, 0.360935, -276856.7, -114193.93, 0.0, 9.999306, 9.99979 
2.804152e+3, 2.934003e+2, -276861.44, -138816.13, -128192.414, -0.2174232, 0.35313067, -62245.44, 2457.1394, 0.0, 9.998692, 10.00059 
2.8038287e+3, 3.0339506e+2, -238169.45, -161956.64, -24972.742, -0.29642448, 0.32600257, -154502.81, -154502.81, 0.0, 9.998698, 9.999743 
2.8035116e+3, 3.1338766e+2, 226491.34, 229917.38, -81704.86, -0.044216927, -0.0784817, 309927.2, 309927.2, 0.0, 10.000982, 10.000985 
2.8031927e+3, 3.2338744e+2, -10047.726, 12741.873, 102751.52, -0.23532248, 0.43605214, 104728.49, 104728.49, 0.0, 9.999736, 10.000034 
2.8193116e+3, 1.3381435e+2, -1413314.3, -1186077.9, 61495.316, 0.28489456, 0.6173653, -1170503.3, 458148.34, 0.00010745089, 10.000683, 10.002901 
2.8189817e+3, 1.4380397e+2, -1712177.6, -2131274.5, -88491.47, -0.33838046, 0.020020775, -1694258.9, -163527.36, 0.00003510944, 10.001373, 9.995695 
2.8186592e+3, 1.5379661e+2, -1404534.9, -1769857.5, -89695.96, -0.027474748, 0.016517373, -1383700.5, 49117.723, 0.0000055355054, 10.002262, 9.996983 
2.8183365e+3, 1.6379084e+2, -1227529.4, -1500547.8, 7403.5586, 0.09535663, 0.20544799, -1227328.8, 107555.9, 0.0000002527922, 10.002047, 9.998361 
2.8180107e+3, 1.737874e+2, -1049567.3, -1183520.0, 17681.854, -0.24558818, 0.33212423, -1047272.6, 189647.23, 0.0, 10.00192, 9.99987 
2.8176886e+3, 1.8378255e+2, -1054527.8, -1275294.4, 68259.85, -0.29556715, 0.447766, -1035127.1, 103839.78, 0.0, 10.001761, 9.998686 
2.8173727e+3, 1.9377409e+2, -720025.6, -952895.75, 95594.46, 0.15673251, 0.0981066, -685810.7, 355236.1, 0.0, 10.002978, 9.999594 
2.8170517e+3, 2.0376869e+2, -773529.7, -1049638.8, -27133.066, 0.2867785, 0.18398619, -770888.6, 172209.64, 0.0, 10.002437, 9.99851 
2.8167236e+3, 2.1376713e+2, -866847.2, -908686.56, -68925.01, -0.11259651, 0.50185025, -815737.06, 29377.066, 0.0, 10.00062, 9.999637 
2.8163993e+3, 2.2376215e+2, -1041742.25, -1139495.9, 46185.895, -0.31653708, 0.644452, -1023372.7, -276211.5, 0.0, 9.99949, 9.998008 
2.8160805e+3, 2.3375072e+2, -650952.56, -757463.2, 64293.914, -0.15822352, 0.03445921, -620722.4, 28546.37, 0.0, 10.000979, 9.999172 
2.8157604e+3, 2.4374378e+2, -631935.6, -867545.4, -41098.457, -0.02614126, 0.015750747, -624972.44, -73635.91, 0.0, 10.001053, 9.997771 
2.8154376e+3, 2.537421e+2, -617205.56, -676505.9, -64555.074, 0.11220075, 0.40972474, -575817.06, -122457.65, 0.0, 9.999977, 9.998874 
2.8151155e+3, 2.6373833e+2, -678846.6, -631432.8, 43193.902, 0.105300464, 0.66437876, -605867.7, -250469.81, 0.0, 9.99872, 9.999177 
2.8147927e+3, 2.7373043e+2, -445649.22, -298181.66, 49642.934, -0.11720456, 0.26832512, -283027.38, -25557.918, 0.0, 9.998972, 10.000623 
2.81447e+3, 2.8372404e+2, -552729.44, -523350.8, -89798.28, -0.19979961, 0.18261687, -447048.34, -287519.53, 0.0, 9.998453, 9.9987135 
2.8141478e+3, 2.9371858e+2, -446581.2, -290768.97, -141270.73, -0.022670927, 0.1099165, -207346.9, -145764.55, 0.0, 9.997979, 9.9998255 
2.8138247e+3, 3.037144e+2, -410890.22, -434807.25, 47597.277, -0.15982993, 0.31493664, -373772.2, -373772.2, 0.0, 9.998418, 9.997992 
2.8135046e+3, 3.1371123e+2, 77109.78, -22588.674, 15923.462, -0.45042026, 0.4718193, 79591.25, 79591.25, 0.0, 10.0007925, 9.999328 
2.8131884e+3, 3.2370263e+2, -166019.67, -65874.66, -72592.04, -0.2516738, 0.24147092, -27760.656, -27760.656, 0.0, 9.998899, 9.999817 
2.8293085e+3, 1.3413268e+2, -1421084.1, -1381167.4, -125355.23, 0.17840302, 0.40586433, -1274191.6, 351341.34, 0.000050640916, 10.0013275, 10.001306 
2.82898e+3, 1.4412583e+2, -1378526.6, -1746662.0, -239652.92, -0.30271146, 0.18962885, -1260411.5, 267175.4, 0.00001538915, 10.002677, 9.997706 
2.828657e+3, 1.5411958e+2, -1205066.3, -1493958.6, -94249.84, -0.05942235, 0.11433407, -1177037.1, 252619.13, 0.0000020566958, 10.002786, 9.998663 
2.8283337e+3, 1.6411464e+2, -1130557.5, -1337492.5, 18869.773, 0.040280018, 0.24895324, -1128850.9, 202859.44, 0.00000005936716, 10.002155, 9.99944 
2.828008e+3, 1.7411116e+2, -1147950.4, -1210356.6, 72001.92, -0.20903215, 0.3547608, -1100681.1, 133064.66, 0.0, 10.0010805, 10.000122 
2.8276858e+3, 1.8410677e+2, -1136278.6, -1233324.3, 168389.28, -0.24611846, 0.47253823, -1009560.44, 126228.33, 0.0, 10.000758, 9.999496 
2.8273693e+3, 1.9409987e+2, -902938.9, -1013493.5, 217192.84, 0.08816364, 0.26374748, -734099.44, 303754.53, 0.0, 10.001508, 9.999935 
2.827048e+3, 2.0409426e+2, -819265.44, -1035483.7, 34150.914, 0.17322384, 0.29600424, -813999.6, 125907.22, 0.0, 10.001845, 9.998954 
2.8267196e+3, 2.1408999e+2, -682155.06, -861553.75, 41662.273, -0.1767708, 0.41140395, -672951.9, 168995.28, 0.0, 10.001927, 9.999404 
2.8263956e+3, 2.2408412e+2, -655122.3, -916856.56, 195334.34, -0.30248082, 0.4685278, -550868.8, 193135.11, 0.0, 10.001861, 9.998438 
2.826078e+3, 2.3407435e+2, -596063.6, -783324.94, 175767.6, -0.08863302, 0.083658256, -490543.72, 155555.13, 0.0, 10.001398, 9.998879 
2.825758e+3, 2.4406776e+2, -499805.06, -745384.6, 28563.164, 0.0514658, 0.09419619, -496526.66, 51637.855, 0.0, 10.001597, 9.998391 
2.8254342e+3, 2.5406525e+2, -170120.48, -487416.0, 1508.5594, 0.10748, 0.4383236, -170113.31, 280080.7, 0.0, 10.003012, 9.998789 
2.8251112e+3, 2.64061e+2, -106227.45, -349329.78, 62299.293, 0.08642137, 0.6517205, -91192.06, 261043.94, 0.0, 10.00256, 9.999265 
2.8247872e+3, 2.7405304e+2, -402224.25, -367844.8, 337.32523, -0.1151194, 0.33413786, -367841.5, -113533.08, 0.0, 9.9995985, 9.999863 
2.8244644e+3, 2.8404567e+2, -509702.97, -511161.94, -52329.777, -0.14078046, 0.19163527, -458097.6, -301720.97, 0.0, 9.998692, 9.998688 
2.824143e+3, 2.9403856e+2, -60064.5, -201345.7, -100806.445, 0.060414273, 0.030997321, -7611.5054, 50834.063, 0.0, 10.000915, 9.999057 
2.8238204e+3, 3.0403414e+2, -58175.184, -315933.0, 149207.88, -0.085931614, 0.27400175, 10107.674, 10107.674, 0.0, 10.000965, 9.997601 
2.8234997e+3, 3.1403312e+2, -293462.84, -349847.44, 132609.45, -0.46957794, 0.75925773, -186082.02, -186082.02, 0.0, 9.998751, 9.9981 
2.8231838e+3, 3.2401967e+2, -360185.34, -5342.066, -100499.68, -0.052184183, 0.052574426, 21144.664, 21144.664, 0.0, 9.996738, 10.00134 
2.8393048e+3, 1.3445026e+2, -1471670.3, -1630428.6, 68641.95, 0.15545584, 0.19085981, -1446107.6, 176315.78, 0.000026719768, 10.001876, 9.9993725 
2.838979e+3, 1.4444795e+2, -1378248.6, -1490474.0, -122758.35, -0.14521566, 0.4468136, -1299386.4, 225055.83, 0.000008259606, 10.001598, 9.999965 
2.838655e+3, 1.5444358e+2, -1120048.4, -1170739.5, -88097.7, -0.014181419, 0.2975527, -1053722.8, 372763.1, 0.0000013335809, 10.002167, 10.0011635 
2.8383312e+3, 1.6443972e+2, -1176682.8, -1288904.9, -38830.418, 0.09275765, 0.38106257, -1164557.1, 163967.11, 0.000000073245815, 10.001659, 9.999954 
2.8380063e+3, 1.7443539e+2, -1169124.1, -1202054.6, -32299.117, 0.048641745, 0.35082006, -1149335.6, 81231.555, 0.0, 10.000939, 10.000207 
2.837684e+3, 1.8443166e+2, -1209646.1, -1240719.4, 153418.92, -0.010574883, 0.5232224, -1070979.1, 61624.355, 0.0, 10.00026, 9.999616 
2.8373644e+3, 1.9442736e+2, -1063026.0, -1080353.4, 177236.39, -0.052528128, 0.5126627, -894241.7, 140402.64, 0.0, 10.0004635, 9.999917 
2.8370422e+3, 2.0442118e+2, -976157.75, -1086867.8, -3405.5386, -0.093808845, 0.48113674, -976053.06, -39352.082, 0.0, 10.000786, 9.999064 
2.8367165e+3, 2.1441184e+2, -822543.3, -925598.25, 3864.8323, -0.1576894, 0.03452726, -822398.56, 16386.77, 0.0, 10.00108, 9.99932 
2.836394e+3, 2.244054e+2, -881323.6, -1111272.4, 163754.03, -0.14486559, 0.08561898, -796211.75, -55363.492, 0.0, 10.000814, 9.997568 
2.8360748e+3, 2.3440102e+2, -828839.5, -1003093.94, 146163.0, -0.015475496, 0.28510544, -745805.7, -102906.74, 0.0, 10.000372, 9.997837 
2.8357536e+3, 2.4439503e+2, -677986.7, -868608.7, 70900.08, 0.0028051315, 0.4438032, -654507.94, -109547.23, 0.0, 10.000664, 9.997977 
2.8354308e+3, 2.543864e+2, -345107.78, -609162.7, 48787.527, -0.05279288, 0.16352056, -336382.0, 110661.66, 0.0, 10.002099, 9.99837 
2.8351068e+3, 2.6438034e+2, -354188.56, -575502.4, -53365.44, -0.07654587, 0.27181956, -341992.63, 7110.066, 0.0, 10.001479, 9.998168 
2.8347823e+3, 2.743759e+2, -639138.94, -622689.1, -108218.97, -0.07130668, 0.38070613, -522382.97, -271235.84, 0.0, 9.998704, 9.998493 
2.8344586e+3, 2.8436986e+2, -633812.8, -602471.94, 17980.611, -0.10704875, 0.470472, -594291.5, -441087.66, 0.0, 9.998111, 9.998298 
2.8341368e+3, 2.9436088e+2, -147557.94, -286564.5, 8597.903, -0.19686106, 0.120111085, -147028.16, -91741.77, 0.0, 10.000616, 9.998593 
2.8338155e+3, 3.043546e+2, -113235.23, -312235.66, 58411.746, -0.25238666, 0.20662086, -97356.83, -97356.83, 0.0, 10.000625, 9.997734 
2.8334987e+3, 3.1435096e+2, -537448.7, -479509.84, 59819.016, 0.07023527, 0.39678913, -442014.7, -442014.7, 0.0, 9.99728, 9.997874 
2.8331727e+3, 3.2434452e+2, -251642.81, 568260.2, 11499.174, -0.38437212, 0.1296476, 568421.44, 568421.44, 0.0, 9.995457, 10.005794 
2.849301e+3, 1.3477592e+2, -1304765.9, -1533675.0, 9584.94, -0.1407022, 0.22591363, -1304365.1, 314863.8, 0.000013315561, 10.002832, 9.999657 
2.8489786e+3, 1.4477307e+2, -1539165.3, -1627276.8, 30946.105, 0.14851633, 0.4963916, -1529382.6, -8127.5996, 0.0000038169696, 10.000673, 9.9994955 
2.8486532e+3, 1.547679e+2, -1268286.9, -1382361.0, 9126.72, 0.07241184, 0.38242128, -1267561.4, 155747.0, 0.0000005153316, 10.00165, 9.999998 
2.8483286e+3, 1.6476287e+2, -1135267.3, -1338063.8, -99531.01, 0.08937598, 0.43253833, -1094581.0, 230778.4, 0.00000002542409, 10.002164, 9.999388 
2.8480038e+3, 1.7475742e+2, -1070740.1, -1252928.3, -112428.82, 0.0717626, 0.38156065, -1017133.25, 210280.38, 0.0, 10.001944, 9.999408 
2.8476802e+3, 1.8475273e+2, -1032019.6, -1079978.9, 12843.473, -0.024001496, 0.4547841, -1028796.75, 100661.32, 0.0, 10.001064, 10.000354 
2.8473583e+3, 1.9474795e+2, -1167330.5, -1085628.0, 60352.355, -0.17752904, 0.3659876, -1053601.0, -22100.09, 0.0, 9.999414, 10.000425 
2.8470367e+3, 2.0474243e+2, -1108279.4, -1083279.5, -72649.164, -0.19202985, 0.32865712, -1022062.8, -88512.2, 0.0, 9.999488, 9.999746 
2.8467143e+3, 2.1473482e+2, -747485.06, -852569.44, -52039.293, -0.06435955, 0.03281083, -726076.1, 109543.64, 0.0, 10.001281, 9.99978 
2.8463924e+3, 2.2472942e+2, -674315.94, -954450.1, 66792.234, 0.012211652, 0.12759924, -659205.75, 78467.99, 0.0, 10.001942, 9.9981 
2.846071e+3, 2.3472597e+2, -650515.1, -898051.1, 94882.164, -0.009883994, 0.4319298, -618330.75, 21385.498, 0.0, 10.001398, 9.998096 
2.8457493e+3, 2.4471977e+2, -561551.5, -782591.4, 85001.766, -0.060117893, 0.52660805, -532644.2, 9135.55, 0.0, 10.001196, 9.998359 
2.8454265e+3, 2.5470966e+2, -463623.25, -666417.6, 74989.72, -0.15860581, 0.13069586, -438906.0, 4968.9453, 0.0, 10.0011425, 9.998493 
2.8451028e+3, 2.647026e+2, -377519.88, -592389.25, -57152.277, -0.14345156, 0.12386986, -363263.97, -17321.354, 0.0, 10.001255, 9.998207 
2.844778e+3, 2.746985e+2, -156690.75, -422476.28, -79309.64, -0.0077492925, 0.3489282, -134824.0, 113160.06, 0.0, 10.002039, 9.998325 
2.8444546e+3, 2.8469282e+2, -102173.06, -347326.8, 149107.92, -0.028070208, 0.4812897, -31725.943, 118312.62, 0.0, 10.001665, 9.998384 
2.8441316e+3, 2.9468417e+2, -206145.22, -331504.0, 103544.4, -0.2763549, 0.22415626, -147786.81, -95668.17, 0.0, 10.000219, 9.998503 
2.843811e+3, 3.04677e+2, -255098.63, -343098.94, 75897.32, -0.21968082, 0.20203051, -211369.56, -211369.56, 0.0, 9.999357, 9.998188 
2.8434962e+3, 3.1467134e+2, -289104.16, -350266.56, 38492.83, 0.49931005, 0.19795062, -270523.3, -270523.3, 0.0, 9.998829, 9.998079 
2.8431624e+3, 3.246697e+2, 74004.75, 811533.2, -205508.08, -0.5441465, 0.35359123, 864930.8, 864930.8, 0.0, 9.997093, 10.006785 
2.859298e+3, 1.3510284e+2, -1457339.9, -1528591.9, -125176.516, -0.1934694, 0.28274456, -1362818.4, 253202.64, 0.0000059672575, 10.0015955, 10.000232 
2.858978e+3, 1.4509882e+2, -1526534.3, -1802770.5, 66436.914, 0.5138381, 0.5010702, -1511386.4, 6672.468, 0.0000015122073, 10.001641, 9.997782 
2.8586513e+3, 1.5509215e+2, -1367650.3, -1650726.8, 44986.875, 0.22347194, 0.40186054, -1360672.9, 59457.39, 0.0000000966577, 10.001988, 9.997961 
2.858326e+3, 1.650854e+2, -1236967.3, -1508054.8, -54546.77, 0.14223157, 0.4438329, -1226403.4, 95797.086, 0.00000000026919006, 10.002051, 9.998269 
2.8580007e+3, 1.7507863e+2, -1219474.0, -1471844.3, -81035.72, 0.096283, 0.35645017, -1195694.3, 28574.646, 0.0, 10.001615, 9.998054 
2.8576759e+3, 1.8507263e+2, -1053446.0, -1022314.7, 10944.356, -0.058923207, 0.3549528, -1018852.25, 107472.34, 0.0, 10.00078, 10.000848 
2.8573522e+3, 1.9506629e+2, -1182734.4, -1051442.1, 1224.3761, -0.21307057, 0.041546505, -1051430.6, -23051.572, 0.0, 9.999284, 10.000686 
2.8570315e+3, 2.0506224e+2, -1115307.6, -1053207.4, 6264.9434, -0.13080673, 0.13617882, -1052581.8, -122166.76, 0.0, 9.999378, 9.999982 
2.8567123e+3, 2.1505904e+2, -866120.4, -916967.5, 2283.5132, 0.15583487, 0.22680627, -866018.0, -33571.625, 0.0, 10.000552, 9.999693 
2.8563908e+3, 2.2505492e+2, -793842.9, -954863.25, 46484.05, 0.18079005, 0.44056702, -781387.2, -46897.996, 0.0, 10.001004, 9.998468 
2.8560674e+3, 2.3504935e+2, -782039.1, -927068.75, 55215.26, -0.02468249, 0.43785387, -763410.5, -126861.59, 0.0, 10.000516, 9.99824 
2.855744e+3, 2.4504319e+2, -711919.1, -819202.5, 66768.62, -0.17265639, 0.5230535, -679913.4, -141302.84, 0.0, 10.000234, 9.998434 
2.8554213e+3, 2.5503507e+2, -667817.2, -784467.06, 68794.51, -0.2576037, 0.2704062, -635950.75, -195263.5, 0.0, 9.999989, 9.99814 
2.8550985e+3, 2.650277e+2, -486100.2, -633677.1, -39995.215, -0.19081436, 0.25810683, -475958.0, -133202.58, 0.0, 10.00055, 9.998219 
2.8547755e+3, 2.7502042e+2, -278272.2, -500465.94, -37071.984, 0.021745272, 0.111937, -272250.13, -27427.807, 0.0, 10.001334, 9.9981165 
2.854452e+3, 2.8501445e+2, -235823.05, -454758.13, 84760.3, 0.02548677, 0.25768134, -206844.03, -59963.113, 0.0, 10.001116, 9.997837 
2.8541276e+3, 2.9500842e+2, -403299.66, -515555.34, 56198.05, -0.2176327, 0.28722432, -380001.1, -331056.5, 0.0, 9.999375, 9.9976 
2.8538057e+3, 3.0500206e+2, -371409.06, -359095.4, 52589.69, -0.2011927, 0.3839577, -312303.38, -312303.38, 0.0, 9.998558, 9.9983835 
2.8534883e+3, 3.149958e+2, -473306.53, -460467.22, 55991.188, 0.28387138, 0.26586798, -410528.88, -410528.88, 0.0, 9.997817, 9.997746 
2.8531578e+3, 3.249899e+2, -424845.16, -47717.3, -254663.77, -0.2719945, 0.26970056, 80594.12, 80594.12, 0.0, 9.996534, 10.001085 
2.869295e+3, 1.3542725e+2, -1507384.0, -1488224.3, -39890.824, -0.24198532, 0.16092804, -1456779.1, 156059.95, 0.0000021514043, 10.000812, 10.000968 
2.868976e+3, 1.454226e+2, -1182529.1, -1597728.4, 63379.133, 0.4337502, 0.28609556, -1173070.0, 341810.53, 0.00000043033984, 10.003746, 9.99821 
2.8686473e+3, 1.5541613e+2, -1215357.6, -1593232.8, 126883.98, -0.029927677, 0.21980757, -1176705.8, 240242.02, 0.000000019645139, 10.003006, 9.997909 
2.868322e+3, 1.6540949e+2, -1153975.1, -1483096.0, 29461.191, -0.043332685, 0.28696418, -1151358.6, 167658.73, 0.0, 10.002664, 9.998153 
2.8679982e+3, 1.7540255e+2, -1169574.6, -1482444.1, 59443.04, 0.08104521, 0.2613758, -1158661.5, 62428.25, 0.0, 10.002044, 9.997806 
2.8676733e+3, 1.8539673e+2, -908733.06, -1031815.56, 115370.85, -0.005402881, 0.31799188, -839515.94, 283630.53, 0.0, 10.001945, 10.000298 
2.8673488e+3, 1.9539076e+2, -872397.56, -1008474.9, 98246.87, -0.20319834, 0.16421159, -820930.1, 204269.98, 0.0, 10.001653, 9.999942 
2.8670275e+3, 2.0538619e+2, -728403.9, -844422.06, 93158.58, -0.16004479, 0.23148252, -676669.75, 250572.73, 0.0, 10.00192, 10.000192 
2.8667086e+3, 2.1538225e+2, -568014.2, -775692.3, 77763.62, 0.039447244, 0.29368016, -542123.8, 287156.88, 0.0, 10.002522, 9.999744 
2.866387e+3, 2.2537723e+2, -521887.4, -832090.56, 34043.184, 0.089564405, 0.41122964, -518195.28, 213136.95, 0.0, 10.002716, 9.998567 
2.8660643e+3, 2.3537083e+2, -503709.47, -798508.06, 11245.327, 0.0005440119, 0.37007576, -503281.13, 130118.24, 0.0, 10.002249, 9.998371 
2.865741e+3, 2.453649e+2, -510496.25, -690901.4, -19726.516, -0.111646794, 0.43716353, -508364.4, 27095.334, 0.0, 10.0013485, 9.9988165 
2.8654173e+3, 2.5535843e+2, -584455.7, -717048.2, -43003.164, -0.24047634, 0.3632459, -571730.0, -134206.83, 0.0, 10.000297, 9.9985 
2.865094e+3, 2.6535174e+2, -409832.1, -475793.28, -55210.94, -0.20621738, 0.32220617, -378501.22, -38918.09, 0.0, 10.000386, 9.999445 
2.8647715e+3, 2.7534404e+2, -207436.61, -373711.0, -14854.827, -0.026418911, 0.072625235, -206119.92, 35528.527, 0.0, 10.001235, 9.999095 
2.8644484e+3, 2.8533787e+2, -223364.14, -429771.78, 90332.82, 0.05050517, 0.13249162, -189414.6, -45705.87, 0.0, 10.001061, 9.998044 
2.8641245e+3, 2.953325e+2, -264290.66, -446647.3, 76890.23, -0.028838592, 0.2583329, -236197.89, -190428.6, 0.0, 10.000211, 9.997709 
2.8638008e+3, 3.0532765e+2, -32786.26, -82736.29, 187989.08, -0.14489865, 0.45421025, 131879.56, 131879.56, 0.0, 10.000296, 9.999494 
2.8634793e+3, 3.1532323e+2, 74220.64, -104955.33, 184098.63, -0.08920066, 0.4819361, 189372.27, 189372.27, 0.0, 10.001036, 9.998702 
2.8631547e+3, 3.253126e+2, 8305.895, -344042.84, -110011.414, 0.033166766, 0.20756978, 39833.04, 39833.04, 0.0, 10.001541, 9.99667 
2.8792915e+3, 1.3575113e+2, -1633765.5, -1453996.6, 145577.14, -0.15485992, 0.037511323, -1372790.6, 236872.3, 0.00000033823923, 9.999628, 10.001716 
2.8789735e+3, 1.4574651e+2, -1271717.4, -1563876.9, -16132.237, 0.34640256, 0.10486611, -1270829.4, 240872.45, 0.000000039050374, 10.002887, 9.998816 
2.878643e+3, 1.5574045e+2, -1302043.1, -1622603.9, 16111.428, -0.2453254, 0.022679424, -1301235.4, 112526.14, 0.0000000006124831, 10.002409, 9.997992 
2.878318e+3, 1.6573435e+2, -1234450.4, -1537749.6, -31876.623, -0.19927621, 0.14873129, -1231136.4, 84688.79, 0.0, 10.002276, 9.997891 
2.8779957e+3, 1.7572752e+2, -1241324.4, -1578653.9, -1246.4203, 0.15664925, 0.1210127, -1241319.8, -23421.23, 0.0, 10.001887, 9.997175 
2.877671e+3, 1.857225e+2, -1039585.75, -1212349.5, 96329.29, 0.12494173, 0.34352434, -996580.0, 123371.04, 0.0, 10.001741, 9.999074 
2.8773466e+3, 1.9571805e+2, -1069963.3, -1270878.3, 58607.375, -0.098117806, 0.43324798, -1054117.1, -32121.607, 0.0, 10.001175, 9.998326 
2.8770238e+3, 2.0571227e+2, -880931.5, -975975.3, 111430.35, -0.19982743, 0.4942156, -807312.75, 116737.63, 0.0, 10.001268, 9.999556 
2.8767034e+3, 2.1570481e+2, -824602.25, -1009581.25, 77889.6, -0.21132755, 0.23610328, -796174.06, 29946.129, 0.0, 10.001391, 9.99864 
2.8763828e+3, 2.2569801e+2, -728604.5, -954631.25, 10461.179, -0.10579112, 0.24732491, -728121.4, 67.10446, 0.0, 10.001577, 9.998211 
2.8760624e+3, 2.3569125e+2, -807248.06, -1046923.25, -11539.003, 0.105928324, 0.18340912, -806693.8, -176433.66, 0.0, 10.000785, 9.997327 
2.875739e+3, 2.4568571e+2, -662037.94, -767166.1, -50191.094, 0.07003804, 0.35643104, -641923.8, -109604.695, 0.0, 10.000428, 9.998725 
2.8754133e+3, 2.5568026e+2, -787767.6, -861060.3, -64047.965, -0.14781608, 0.37475652, -750623.06, -316246.4, 0.0, 9.999215, 9.998032 
2.8750888e+3, 2.6567537e+2, -421646.06, -274570.3, -22288.186, -0.25901923, 0.44147807, -271266.9, 65151.348, 0.0, 9.999559, 10.001172 
2.8747654e+3, 2.7566993e+2, -325018.16, -308355.3, 29511.559, -0.26012275, 0.22268744, -286021.7, -47564.055, 0.0, 10.000036, 10.000087 
2.8744432e+3, 2.8566346e+2, -275934.66, -384010.97, 61185.766, -0.070408314, 0.17759584, -248340.6, -107823.58, 0.0, 10.000457, 9.99862 
2.8741223e+3, 2.9565564e+2, -366818.16, -489012.6, 84865.21, 0.20540047, -0.018182505, -323344.94, -280747.8, 0.0, 9.999539, 9.997743 
2.8737965e+3, 3.056533e+2, 13781.777, 116240.555, 211645.72, -0.13622497, 0.33937913, 282768.75, 282768.75, 0.0, 10.000008, 10.00097 
2.8734696e+3, 3.1565422e+2, -66977.95, -151023.36, 251832.55, -0.74292946, 0.76026976, 146313.94, 146313.94, 0.0, 10.000092, 9.998837 
2.873151e+3, 3.256421e+2, -160687.7, -534627.9, 81145.64, -0.15915294, 0.30788976, -143838.19, -143838.19, 0.0, 10.00117, 9.995396 
2.8892902e+3, 1.3607699e+2, -1897940.1, -1707860.6, 272172.1, 0.17915365, 0.34817997, -1514612.0, 91862.8, 0.0000000032251708, 9.998253, 10.000689 
2.8889692e+3, 1.4607069e+2, -1401529.5, -1598260.9, -133976.25, 0.13454677, 0.28196532, -1333686.1, 174849.38, 0.0, 10.001822, 9.999111 
2.8886417e+3, 1.5606442e+2, -1376006.0, -1633333.1, -80405.07, -0.14061654, 0.17331608, -1352948.5, 57648.44, 0.0, 10.001673, 9.998324 
2.8883165e+3, 1.6605932e+2, -1092583.8, -1319791.0, -103982.13, -0.12517998, 0.28539267, -1052180.6, 260467.52, 0.0, 10.002493, 9.999328 
2.8879926e+3, 1.7605455e+2, -909131.5, -1296584.8, -8590.728, -0.024142964, 0.35316613, -908941.06, 305755.84, 0.0, 10.003493, 9.998394 
2.8876683e+3, 1.8604815e+2, -824826.94, -1237759.5, 33923.367, 0.008130897, 0.43059728, -822058.56, 294702.88, 0.0, 10.003631, 9.99804 
2.8873447e+3, 1.9604076e+2, -904591.1, -1292072.5, 15070.644, -0.026467804, 0.3723074, -904005.9, 114829.33, 0.0, 10.0026, 9.997546 
2.887022e+3, 2.0603421e+2, -814702.1, -997275.7, 64504.098, -0.100159585, 0.39801896, -794212.06, 126686.56, 0.0, 10.001795, 9.999203 
2.8866997e+3, 2.1602738e+2, -870825.56, -1053954.0, 64147.16, -0.2346976, 0.26918876, -850591.44, -27628.207, 0.0, 10.000977, 9.9985895 
2.8863788e+3, 2.260213e+2, -742821.0, -891716.0, 18103.203, -0.15345182, 0.30577564, -740651.56, -15626.432, 0.0, 10.001049, 9.99895 
2.8860587e+3, 2.3601547e+2, -625733.2, -854074.25, 57487.86, 0.063818574, 0.3096172, -612076.6, 15011.264, 0.0, 10.001386, 9.998428 
2.8857347e+3, 2.4601021e+2, -443071.4, -571562.3, 70597.02, 0.04340424, 0.4053895, -411863.13, 117279.23, 0.0, 10.001468, 9.999615 
2.8854087e+3, 2.5600466e+2, -400813.94, -570134.25, 103718.65, -0.17561369, 0.39117613, -351590.2, 79607.875, 0.0, 10.001268, 9.999106 
2.8850845e+3, 2.6600018e+2, -253881.19, -152237.11, 123248.76, -0.21541357, 0.43566558, -69743.22, 263493.0, 0.0, 10.000502, 10.00156 
2.884761e+3, 2.7599597e+2, -351138.13, -267301.06, 48234.98, -0.17190675, 0.35219014, -245315.16, -10049.022, 0.0, 9.999533, 10.000639 
2.8844395e+3, 2.859896e+2, -318800.25, -344403.78, 63181.8, -0.00080795225, 0.25438067, -267136.3, -129813.54, 0.0, 9.99972, 9.999315 
2.8841186e+3, 2.9598135e+2, -184298.42, -316791.22, 89988.03, 0.28506204, -0.028169474, -138802.13, -99399.74, 0.0, 10.000271, 9.998626 
2.8837925e+3, 3.059776e+2, -7934.0703, -27146.943, 133071.1, -0.073959135, 0.20023653, 115876.88, 115876.88, 0.0, 10.0003805, 9.999865 
2.883465e+3, 3.159772e+2, -126000.32, -226133.8, -63706.555, -0.7427467, 0.62936926, -95041.12, -95041.12, 0.0, 9.999767, 9.998586 
2.8831494e+3, 3.259701e+2, -12378.854, -33415.6, -104776.375, 0.06755117, 0.54578596, 82405.79, 82405.79, 0.0, 10.000122, 9.999602 
2.899288e+3, 1.3640213e+2, -1716783.9, -1810828.1, 507923.22, 0.52465993, 0.63035, -1253710.9, 349583.7, 0.000000008553674, 10.000341, 9.998997 
2.8989646e+3, 1.4639443e+2, -1486119.1, -1608952.9, -85581.93, 0.022179343, 0.47996202, -1442197.1, 63178.47, 0.0, 10.001189, 9.999326 
2.8986412e+3, 1.5638822e+2, -1458289.3, -1644866.1, -29604.078, 0.15880714, 0.34699315, -1453704.6, -46267.184, 0.0, 10.001081, 9.998502 
2.898316e+3, 1.6638464e+2, -1070950.9, -1129700.9, -20688.96, 0.07823195, 0.5228414, -1064396.4, 245074.55, 0.0, 10.002001, 10.000813 
2.8979892e+3, 1.7638206e+2, -1011752.8, -1259173.6, 11455.749, -0.17674652, 0.6443454, -1011223.5, 200269.73, 0.0, 10.002506, 9.999109 
2.8976652e+3, 1.8637373e+2, -1014557.2, -1449092.9, 7947.8374, -0.12923083, 0.5612254, -1014411.9, 99162.18, 0.0, 10.002924, 9.99688 
2.8973436e+3, 1.9636178e+2, -1072520.4, -1506104.0, 544.84705, 0.13843182, 0.12970787, -1072519.6, -56828.414, 0.0, 10.002123, 9.996245 
2.897021e+3, 2.0635487e+2, -880445.25, -1068404.1, 73838.195, 0.107195266, 0.18954441, -854908.1, 62851.305, 0.0, 10.001617, 9.998731 
2.896697e+3, 2.1635023e+2, -1055089.0, -1212206.9, 75537.56, -0.06945473, 0.30402693, -1024664.4, -204859.08, 0.0, 10.000139, 9.997853 
2.896375e+3, 2.263466e+2, -773921.3, -747377.6, 73116.21, -0.11755655, 0.53945255, -686338.5, 35506.305, 0.0, 10.000332, 10.000192 
2.8960532e+3, 2.3634295e+2, -776459.6, -846231.9, 83659.8, -0.076458335, 0.61320436, -720703.56, -96817.2, 0.0, 10.000124, 9.999051 
2.895729e+3, 2.4633783e+2, -491973.38, -429408.94, 62415.137, -0.161488, 0.61805934, -390875.47, 135059.0, 0.0, 10.000595, 10.000901 
2.8954032e+3, 2.5633118e+2, -597970.8, -598933.1, 88720.64, -0.31183687, 0.3304646, -509730.0, -81736.89, 0.0, 9.999795, 9.999543 
2.8950804e+3, 2.6632592e+2, -483503.34, -418742.06, 89980.3, -0.13168491, 0.35653543, -355493.44, -25452.613, 0.0, 9.999715, 10.000054 
2.8947598e+3, 2.763212e+2, -621031.56, -593218.94, 38007.656, 0.21500257, 0.34589458, -566653.44, -334569.3, 0.0, 9.998619, 9.998829 
2.8944355e+3, 2.8631604e+2, -330619.22, -224856.9, 69167.86, 0.1342399, 0.38991004, -190671.36, -56541.645, 0.0, 9.999255, 10.000314 
2.8941098e+3, 2.9630986e+2, -329455.8, -420678.16, 126002.59, -0.1391033, 0.21643592, -241063.14, -204878.52, 0.0, 9.999564, 9.998211 
2.8937855e+3, 3.063009e+2, -304655.97, -693581.06, 88988.73, -0.30246478, 0.18312562, -285261.84, -285261.84, 0.0, 10.000828, 9.994854 
2.893463e+3, 3.1629163e+2, -503594.03, -986044.25, -90326.11, -0.46788603, 0.20892926, -487237.4, -487237.4, 0.0, 9.999882, 9.993182 
2.893148e+3, 3.2628593e+2, 231910.98, 1394839.3, -80101.21, 0.39949128, -0.2836377, 1400330.5, 1400330.5, 0.0, 9.996632, 10.010749 
2.9092827e+3, 1.3672419e+2, -1408925.0, -1737567.1, 251419.88, 0.10153992, 0.52418613, -1272890.6, 327243.75, 0.000000011355019, 10.00263, 9.99847 
2.908962e+3, 1.4671537e+2, -1464773.5, -1415674.3, -2362.8657, 0.16263476, 0.19656701, -1415560.9, 86664.87, 0.0, 10.000435, 10.001075 
2.9086372e+3, 1.5671387e+2, -1341759.0, -1447075.3, 114437.2, 0.06569238, 0.3873451, -1268445.9, 135793.56, 0.0, 10.001147, 9.999882 
2.9083127e+3, 1.6670969e+2, -1189176.6, -1323052.8, 53433.203, 0.02434437, 0.5150998, -1170465.4, 135815.52, 0.0, 10.001712, 9.999645 
2.907987e+3, 1.7670408e+2, -1166993.8, -1411464.4, 6852.7754, -0.14719047, 0.4681861, -1166801.9, 41534.836, 0.0, 10.001645, 9.998518 
2.907664e+3, 1.8669683e+2, -944849.0, -1303484.6, 15741.396, -0.084045105, 0.44743764, -944159.4, 166249.2, 0.0, 10.002806, 9.9979925 
2.9073423e+3, 1.9668826e+2, -719532.1, -1202915.9, 106870.164, 0.1109355, 0.27749994, -696958.6, 315534.63, 0.0, 10.003835, 9.997555 
2.9070187e+3, 2.0668179e+2, -489647.34, -817655.4, 167813.45, 0.10076468, 0.29180664, -419005.5, 495550.44, 0.0, 10.00389, 9.999408 
2.9066944e+3, 2.1667641e+2, -579449.44, -884430.2, 225738.27, -0.07920892, 0.30560336, -459522.7, 357085.0, 0.0, 10.002827, 9.998854 
2.906371e+3, 2.2667238e+2, -562311.5, -651242.25, 212638.7, -0.1435146, 0.47354826, -389538.78, 329111.4, 0.0, 10.001722, 10.000225 
2.906048e+3, 2.3666866e+2, -676141.1, -754790.5, 169574.86, -0.17995822, 0.57486683, -541390.94, 79301.016, 0.0, 10.000465, 9.999567 
2.9057246e+3, 2.4666356e+2, -503586.9, -488183.66, 87233.984, -0.17536439, 0.5851758, -408312.0, 114427.99, 0.0, 10.000546, 10.000601 
2.9054007e+3, 2.5665742e+2, -364171.1, -469175.34, 1250.1445, -0.16445884, 0.39363894, -364156.22, 60638.06, 0.0, 10.001113, 9.99985 
2.905077e+3, 2.666514e+2, -261063.3, -397281.2, 8311.132, -0.045510117, 0.3491852, -260558.08, 66292.37, 0.0, 10.001377, 9.999492 
2.9047543e+3, 2.766455e+2, -231768.69, -425077.44, 15725.67, 0.15978536, 0.2895435, -230497.75, -1589.8945, 0.0, 10.001187, 9.998799 
2.904432e+3, 2.8664115e+2, 1030.907, -66902.31, 75592.98, 0.25337696, 0.40829134, 49937.87, 180884.73, 0.0, 10.001492, 10.000336 
2.9041046e+3, 2.966367e+2, -53251.926, -226729.78, 80463.65, -0.20532548, 0.42490262, -21677.543, 11307.275, 0.0, 10.000967, 9.998896 
2.919278e+3, 1.3704568e+2, -1528550.5, -1792450.1, 1922.4241, -0.13653485, 0.3555132, -1528536.5, 68442.52, 0.00000000463828, 10.001898, 9.998371 
2.91896e+3, 1.4703688e+2, -1266484.3, -1133068.8, 15384.089, 0.4092627, -0.09471201, -1131317.9, 367749.53, 0.0, 10.001059, 10.002651 
2.9186326e+3, 1.5704e+2, -1352289.6, -1376699.4, 44554.188, -0.013401372, 0.39444488, -1318298.9, 82733.7, 0.0, 10.000817, 10.000495 
2.918309e+3, 1.670342e+2, -1338248.5, -1616676.9, 4525.2354, -0.030768547, 0.44095793, -1338175.0, -35082.426, 0.0, 10.001662, 9.997654 
2.917986e+3, 1.7702396e+2, -1284597.5, -1641911.0, 8212.208, 0.052128967, 0.11206181, -1284408.9, -79209.45, 0.0, 10.001677, 9.996913 
2.917663e+3, 1.8701954e+2, -901175.9, -1056144.6, 64691.805, 0.05501026, 0.31200072, -877720.4, 229525.69, 0.0, 10.002276, 9.999858 
2.9173407e+3, 1.9701704e+2, -923863.8, -1179869.8, 110105.68, 0.10713965, 0.54607296, -883023.6, 126248.805, 0.0, 10.001966, 9.998607 
2.9170167e+3, 2.0701136e+2, -651005.1, -774123.94, 114013.34, 0.02813671, 0.5297609, -582993.7, 328331.53, 0.0, 10.002411, 10.000367 
2.9166913e+3, 2.1700402e+2, -811843.6, -974193.0, 147827.94, -0.12458779, 0.2339014, -724369.5, 89022.58, 0.0, 10.00127, 9.998971 
2.916367e+3, 2.2699802e+2, -750532.8, -832262.3, 135777.94, -0.20901115, 0.23890328, -649603.44, 65847.914, 0.0, 10.000931, 9.999308 
2.9160428e+3, 2.3699239e+2, -987615.2, -1069417.5, 113434.195, -0.24253349, 0.2164251, -907933.5, -290423.63, 0.0, 9.999192, 9.997975 
2.9157212e+3, 2.469877e+2, -721750.0, -754905.1, 98510.21, -0.057616774, 0.4079371, -638432.25, -118874.28, 0.0, 9.999879, 9.999019 
2.9154003e+3, 2.5698313e+2, -681760.6, -812780.3, 25651.578, 0.18955086, 0.4965889, -676917.5, -255313.47, 0.0, 9.999874, 9.99806 
2.9150733e+3, 2.669767e+2, -344455.84, -352347.3, -971.54425, -0.07252831, 0.43843704, -344337.97, -20673.93, 0.0, 10.000655, 10.000022 
2.9147437e+3, 2.7696913e+2, -423621.94, -537690.25, 40005.88, -0.5363229, 0.13192138, -410989.97, -185256.28, 0.0, 10.000099, 9.998505 
2.9144293e+3, 2.8696483e+2, -164003.55, -316335.94, 89027.445, 0.30031848, 0.34947103, -123006.72, 4767.9966, 0.0, 10.001215, 9.998685 
2.914102e+3, 2.9696035e+2, -113813.87, -116765.37, 197987.8, -0.14537206, 0.41901615, 82703.67, 112522.414, 0.0, 10.000124, 10.000013 
2.9292762e+3, 1.3736866e+2, -1521792.9, -1644081.4, -50904.473, -0.10023633, 0.3586008, -1503376.6, 90447.18, 0.0, 10.0012, 9.999781 
2.928958e+3, 1.4736103e+2, -1216525.8, -1287272.4, -92121.99, 0.4799874, 0.061276518, -1153219.1, 342678.22, 0.0, 10.002043, 10.001185 
2.9286295e+3, 1.5736017e+2, -1393651.1, -1471502.0, -122204.62, -0.0053603193, 0.30335045, -1304322.3, 93580.87, 0.0, 10.000729, 9.999938 
2.928306e+3, 1.6735567e+2, -1127996.8, -1305879.3, -49266.133, -0.053123917, 0.36832222, -1115263.5, 184684.67, 0.0, 10.002116, 9.999614 
2.9279828e+3, 1.7734887e+2, -852018.6, -1241220.3, 74103.11, -0.095850214, 0.21813595, -838387.0, 363630.56, 0.0, 10.003688, 9.998742 
2.9276595e+3, 1.8734412e+2, -908965.5, -1082928.4, -7297.8184, -0.048978534, 0.32217416, -908659.9, 195407.28, 0.0, 10.0022335, 9.999731 
2.927336e+3, 1.9734028e+2, -1319080.1, -1312438.3, -13724.61, 0.054628786, 0.45214236, -1301638.5, -295530.88, 0.0, 9.998884, 9.999208 
2.9270127e+3, 2.0733579e+2, -1044067.25, -931366.4, 14557.271, 0.042711705, 0.4939483, -929516.4, -21365.422, 0.0, 9.999467, 10.000765 
2.9266885e+3, 2.1733046e+2, -777806.8, -892012.94, 13157.918, -0.08681421, 0.3749531, -776310.5, 33889.914, 0.0, 10.000995, 9.999749 
2.926364e+3, 2.2732459e+2, -557553.44, -740638.3, 722.2849, -0.16640547, 0.34232348, -557550.6, 154705.08, 0.0, 10.002004, 9.999569 
2.926039e+3, 2.373184e+2, -446007.72, -751788.4, 43818.832, -0.24543118, 0.2666042, -439852.34, 174462.61, 0.0, 10.0024, 9.998722 
2.9257175e+3, 2.4731252e+2, -327882.2, -634287.0, 94392.875, -0.08282627, 0.32882386, -301137.4, 215235.42, 0.0, 10.002742, 9.998534 
2.925397e+3, 2.5730667e+2, -212378.14, -590380.6, 45200.2, 0.17383401, 0.3749576, -207048.4, 211382.97, 0.0, 10.002916, 9.998195 
2.9250696e+3, 2.6730075e+2, -47720.23, -219001.75, 8487.786, -0.09253899, 0.36256692, -47300.65, 273186.2, 0.0, 10.002595, 10.000073 
2.9247394e+3, 2.7729434e+2, -82748.56, -342974.53, 1464.2808, -0.60095024, 0.1853539, -82740.32, 139805.17, 0.0, 10.002099, 9.998942 
2.9244268e+3, 2.872892e+2, -75460.45, -427833.5, 85230.305, 0.375127, 0.37187728, -55928.06, 68669.01, 0.0, 10.002245, 9.997558 
2.9240987e+3, 2.9728252e+2, 118127.95, 94019.83, 39766.324, -0.104720235, 0.35166427, 147627.0, 174292.5, 0.0, 10.000997, 10.001137 
2.939275e+3, 1.3769288e+2, -1528595.5, -1501196.1, 106843.26, 0.11429323, 0.4972521, -1407177.9, 183480.16, 0.0, 10.000577, 10.001054 
2.938956e+3, 1.4768593e+2, -1409262.6, -1565405.8, -10642.738, 0.5935244, 0.3221573, -1408540.6, 84182.22, 0.0, 10.001672, 9.999394 
2.938627e+3, 1.5767969e+2, -1399586.8, -1570436.5, 932.6676, 0.14964706, 0.20201842, -1399581.6, -4797.048, 0.0, 10.00123, 9.998987 
2.9383034e+3, 1.6767754e+2, -970422.2, -901854.2, 119528.34, -0.03836218, 0.3683018, -811790.2, 485013.28, 0.0, 10.001901, 10.002431 
2.93798e+3, 1.7767604e+2, -1017929.6, -1149991.3, 110632.766, -0.24291301, 0.46501693, -955120.7, 243694.4, 0.0, 10.001925, 10.000158 
2.9376552e+3, 1.8766953e+2, -1102078.8, -1292403.4, -94686.8, -0.16273402, 0.40084714, -1062997.1, 37884.02, 0.0, 10.001505, 9.998605 
2.9373306e+3, 1.9766133e+2, -1378765.0, -1458466.9, -47334.344, 0.11623581, 0.19398428, -1356740.0, -353774.6, 0.0, 9.9991255, 9.998058 
2.937008e+3, 2.0765819e+2, -1034664.0, -913130.8, 100709.05, 0.14097255, 0.38855895, -856275.6, 48724.38, 0.0, 9.999607, 10.000747 
2.9366857e+3, 2.176563e+2, -1051367.0, -1093312.3, 64615.49, 0.07091134, 0.61484545, -1004405.75, -197384.28, 0.0, 9.9995365, 9.999051 
2.9363617e+3, 2.2765188e+2, -642444.5, -658832.94, 31749.809, -0.044688553, 0.680503, -617848.5, 91211.53, 0.0, 10.001079, 10.000451 
2.936037e+3, 2.3764622e+2, -665743.4, -844809.7, 68039.93, -0.18173821, 0.5413304, -642823.75, -31715.51, 0.0, 10.001031, 9.998664 
2.9357132e+3, 2.4763766e+2, -473790.13, -695331.3, 96533.64, -0.24957745, 0.33283815, -437629.22, 75557.31, 0.0, 10.0019045, 9.998422 
2.9353908e+3, 2.5762826e+2, -500571.97, -782823.25, 47633.93, -0.230486, 0.013164551, -492749.84, -77475.79, 0.0, 10.001375, 9.997569 
2.935067e+3, 2.6762393e+2, -178505.88, -329071.3, -13957.016, -0.09987886, 0.19600362, -177223.02, 140092.78, 0.0, 10.0019865, 9.999597 
2.9347426e+3, 2.77621e+2, -349571.28, -576350.6, 7124.5386, -0.041267116, 0.40132222, -349347.66, -130002.56, 0.0, 10.000869, 9.997909 
2.9344225e+3, 2.8761366e+2, -192366.97, -542217.4, 88811.96, 0.19129169, 0.43659306, -171112.69, -49692.707, 0.0, 10.001892, 9.996859 
2.934094e+3, 2.9760402e+2, -55664.727, 111320.41, -425283.7, -0.21429233, 0.18528043, 461229.75, 484745.8, 0.0, 9.999666, 10.001805 
2.949271e+3, 1.380197e+2, -1515315.0, -1347469.8, 138661.27, 0.075073294, 0.59752804, -1269312.4, 318147.78, 0.0, 9.999929, 10.002473 
2.9489505e+3, 1.4801617e+2, -1337686.1, -1414618.0, 147765.0, 0.3398814, 0.65042245, -1223462.4, 266026.16, 0.0, 10.00162, 10.000491 
2.948622e+3, 1.5800948e+2, -1123161.8, -1371680.5, 239033.11, -0.14410259, 0.4267372, -978019.56, 413536.53, 0.0, 10.002722, 9.999695 
2.9482988e+3, 1.6800614e+2, -1071821.3, -1085275.8, 213594.2, -0.17996347, 0.53310317, -864848.4, 428740.66, 0.0, 10.001631, 10.001382 
2.9479757e+3, 1.7800385e+2, -1397722.9, -1366453.1, 111958.0, -0.2919253, 0.67716783, -1269043.6, -73432.945, 0.0, 9.999305, 9.999992 
2.947652e+3, 1.8799761e+2, -1075450.3, -1216959.1, 1112.4319, -0.12600489, 0.6030763, -1075441.5, 22230.928, 0.0, 10.001297, 9.999271 
2.9473287e+3, 1.979899e+2, -636298.8, -1047774.25, 96216.88, 0.14776315, 0.4140183, -614911.7, 384837.6, 0.0, 10.003837, 9.998653 
2.9470047e+3, 2.0798528e+2, -617348.44, -807955.1, 156467.44, 0.12130539, 0.506541, -529444.9, 372352.13, 0.0, 10.00273, 10.000043 
2.9466802e+3, 2.1798162e+2, -962436.75, -1053977.6, 111537.32, -0.050850436, 0.6539909, -887643.94, -83808.56, 0.0, 9.999988, 9.999147 
2.946358e+3, 2.2797665e+2, -718440.94, -742923.2, 97854.3, -0.03614503, 0.68801564, -632065.06, 73815.51, 0.0, 10.000649, 10.000138 
2.946036e+3, 2.3797105e+2, -461177.72, -722649.5, 29261.43, -0.0057615377, 0.6061627, -457943.06, 149986.39, 0.0, 10.002159, 9.999006 
2.9457113e+3, 2.4796253e+2, -468372.66, -754164.5, 10472.565, -0.14271207, 0.41279697, -467989.4, 42018.094, 0.0, 10.001991, 9.998108 
2.945387e+3, 2.579528e+2, -445779.88, -720578.56, -50615.098, -0.27174938, 0.10996129, -436753.56, -24655.92, 0.0, 10.001363, 9.998098 
2.9450643e+3, 2.679484e+2, -212612.38, -309316.72, -68475.8, -0.034101132, 0.22793266, -177138.14, 137001.39, 0.0, 10.001457, 10.000046 
2.9447412e+3, 2.7794588e+2, -177737.02, -417020.3, -1756.4395, 0.20063166, 0.4583167, -177724.13, 38440.56, 0.0, 10.001556, 9.998719 
2.9444167e+3, 2.8793776e+2, -220113.0, -510669.78, 194151.63, -0.03919994, 0.3576384, -122902.914, -4655.8306, 0.0, 10.001339, 9.997445 
2.9440898e+3, 2.9793057e+2, 394245.6, 307363.78, -492112.06, -0.21569526, 0.36050025, 844830.4, 865151.0, 0.0, 10.002502, 10.0019 
2.9592675e+3, 1.3834602e+2, -1437483.0, -1181663.6, 105280.17, 0.20544228, 0.62310183, -1143908.5, 440355.38, 0.00000000001490612, 10.000014, 10.003557 
2.9589438e+3, 1.4834623e+2, -1434598.0, -1294790.4, 131284.7, 0.0600435, 0.9134394, -1215958.8, 270295.47, 0.0, 10.000317, 10.001921 
2.958617e+3, 1.5834044e+2, -1420002.4, -1499852.9, 128058.14, -0.3816515, 0.6506533, -1325790.0, 62523.895, 0.0, 10.00069, 9.999775 
2.9582942e+3, 1.6833545e+2, -1371376.5, -1452336.9, 59818.668, -0.26816615, 0.70517266, -1339628.5, -49262.156, 0.0, 10.000615, 9.999312 
2.9579714e+3, 1.7833081e+2, -1524399.6, -1559887.8, 82704.836, -0.1490659, 0.7926633, -1457556.9, -265141.75, 0.0, 9.999108, 9.998737 
2.9576495e+3, 1.8832628e+2, -1038252.3, -1044808.56, 94684.82, -0.00016874116, 0.8278064, -946788.94, 147669.45, 0.0, 10.001029, 10.00051 
2.9573286e+3, 1.9832104e+2, -903345.1, -1201320.1, 111269.5, 0.27520537, 0.7805874, -866380.5, 130126.75, 0.0, 10.002241, 9.998342 
2.9570016e+3, 2.0831397e+2, -804201.44, -1009834.94, 39150.938, 0.07941174, 0.69826716, -796999.6, 101575.42, 0.0, 10.002118, 9.998857 
2.9566732e+3, 2.1830633e+2, -1166296.6, -1332294.1, 59808.23, -0.24508584, 0.54965526, -1146992.9, -346344.28, 0.0, 9.999573, 9.997368 
2.956353e+3, 2.2829953e+2, -822471.44, -922980.75, 149525.88, -0.062851764, 0.52381164, -714981.0, -12266.056, 0.0, 10.000599, 9.99887 
2.9560357e+3, 2.382934e+2, -800367.2, -1057410.3, 51871.598, 0.26693544, 0.49331602, -790294.2, -185519.39, 0.0, 10.000703, 9.997395 
2.9557112e+3, 2.4828716e+2, -579585.0, -828054.4, -18819.668, 0.15065347, 0.581488, -578167.6, -71332.47, 0.0, 10.001441, 9.997791 
2.955385e+3, 2.5828034e+2, -682799.4, -884896.2, -43389.676, -0.058253273, 0.580644, -673877.56, -264976.75, 0.0, 10.000117, 9.997515 
2.955061e+3, 2.6827443e+2, -258477.53, -216607.47, -56510.094, -0.043051377, 0.4906643, -177279.19, 133675.44, 0.0, 10.000783, 10.000918 
2.954735e+3, 2.78269e+2, -330124.38, -410491.34, -7610.935, -0.10699199, 0.33323935, -329409.97, -116406.164, 0.0, 10.000329, 9.999306 
2.9544094e+3, 2.8826296e+2, -124552.43, -180555.73, 184735.4, -0.39110902, 0.22077222, 34291.477, 149357.25, 0.0, 10.000933, 9.999817 
2.95409e+3, 2.9825994e+2, 65458.098, -278450.4, -31655.365, -0.05649729, 0.47066498, 68347.56, 85450.7, 0.0, 10.002269, 9.997935 
2.9692635e+3, 1.3866822e+2, -1425838.5, -1261869.6, -281011.88, 0.1123339, 0.35591114, -1051127.0, 529973.0, 0.00000010737005, 10.000375, 10.002864 
2.9689357e+3, 1.4866704e+2, -1856533.9, -1683369.9, 25082.074, -0.17879425, 0.63083833, -1679810.1, -196700.36, 0.0, 9.998141, 10.000332 
2.968613e+3, 1.5866116e+2, -1772013.0, -1703100.4, -72794.62, -0.26752552, 0.49961656, -1657019.1, -271847.16, 0.0, 9.998309, 9.99956 
2.9682922e+3, 1.686564e+2, -1350542.4, -1282438.6, -50012.01, -0.0058079795, 0.4567867, -1255986.5, 31231.705, 0.0, 9.999959, 10.000855 
2.9679704e+3, 1.7865157e+2, -1095020.1, -1249057.8, 55165.957, 0.11302159, 0.40142897, -1077301.5, 111962.945, 0.0, 10.00146, 9.999777 
2.9676467e+3, 1.8864746e+2, -958469.06, -1052488.1, 20232.451, 0.054754466, 0.47107208, -954300.0, 137005.84, 0.0, 10.001626, 10.000235 
2.967323e+3, 1.9864315e+2, -1057761.1, -1238676.0, -18499.428, 0.0062982654, 0.53513825, -1055888.9, -62539.496, 0.0, 10.000826, 9.99882 
2.966998e+3, 2.0863684e+2, -696198.7, -976101.6, -44080.066, -0.0759155, 0.51947033, -689420.94, 205987.6, 0.0, 10.002828, 9.998807 
2.9666716e+3, 2.1862996e+2, -352136.97, -935496.7, 9847.74, -0.22342809, 0.46482918, -351970.75, 445502.28, 0.0, 10.004968, 9.997556 
2.966351e+3, 2.2862281e+2, -361027.25, -867413.0, 77259.38, -0.10351885, 0.49713832, -349502.06, 350044.66, 0.0, 10.004327, 9.997548 
2.966031e+3, 2.3861575e+2, -461208.28, -871041.94, -27708.875, 0.06289117, 0.50869054, -459343.38, 142276.94, 0.0, 10.002764, 9.997718 
2.9657066e+3, 2.486104e+2, -297253.84, -494934.88, -78.63317, -0.025890036, 0.56135213, -297253.8, 206417.56, 0.0, 10.002408, 9.999657 
2.9653808e+3, 2.5860557e+2, -245049.61, -489160.28, 55078.29, -0.16211846, 0.6141006, -233197.81, 172518.55, 0.0, 10.002151, 9.999274 
2.9650563e+3, 2.686004e+2, -201659.97, -235134.13, 32801.65, -0.07636107, 0.57297295, -181572.08, 126192.14, 0.0, 10.001178, 10.000712 
2.964731e+3, 2.7859482e+2, -288856.03, -310487.97, 30751.389, -0.092797205, 0.44968784, -267073.94, -57258.01, 0.0, 10.000051, 10.000207 
2.964405e+3, 2.8859082e+2, 81582.695, 99349.49, 159639.34, -0.4735078, 0.40839812, 250352.4, 362208.3, 0.0, 10.001457, 10.001558 
2.9640898e+3, 2.9858905e+2, -151005.5, -574684.56, 40688.77, 0.18959461, 0.7086738, -147133.28, -133251.25, 0.0, 10.00147, 9.996334 
2.979259e+3, 1.3899112e+2, -1585209.1, -1475663.8, -625000.6, 0.13078818, 0.24151772, -903040.4, 674889.75, 0.00000019973128, 9.999944, 10.0016165 
2.9789284e+3, 1.4898653e+2, -1721930.3, -1818276.8, 34927.4, -0.26503187, 0.34818614, -1710600.8, -230622.14, 0.000000000008976791, 10.000015, 9.998498 
2.9786098e+3, 1.589804e+2, -1648225.8, -1686564.6, 26800.0, 0.054575283, 0.3319328, -1634445.1, -252400.95, 0.0, 9.99943, 9.999154 
2.9782912e+3, 1.6897613e+2, -1098449.9, -883266.9, 54649.152, 0.3718586, 0.1820456, -870183.4, 413896.3, 0.0, 10.000616, 10.003254 
2.9779708e+3, 1.7897151e+2, -1186658.8, -1254972.5, 94321.28, 0.49831608, -0.050155494, -1120500.1, 65617.14, 0.0, 10.000783, 10.000071 
2.9776436e+3, 1.8896677e+2, -1109050.6, -1226127.9, -229.28903, 0.10591722, 0.013034658, -1109050.1, -20881.775, 0.0, 10.001148, 9.999253 
2.9773158e+3, 1.989625e+2, -1231196.6, -1383295.5, 13117.216, -0.3031666, 0.14926817, -1230073.8, -239857.1, 0.0, 10.000036, 9.998192 
2.9769942e+3, 2.0895746e+2, -769697.25, -982377.5, 52680.797, -0.21193765, 0.23635048, -757363.5, 134900.0, 0.0, 10.002203, 9.999069 
2.9766738e+3, 2.1895295e+2, -724605.0, -1191379.6, 47718.75, 0.03886814, 0.38628298, -719776.6, 74527.54, 0.0, 10.002862, 9.996808 
2.9763496e+3, 2.289467e+2, -669323.4, -1146729.4, 37666.375, -0.13017376, 0.5961986, -666369.8, 30003.322, 0.0, 10.002963, 9.996217 
2.9760236e+3, 2.3893893e+2, -777132.4, -1058604.8, -27685.205, -0.42419076, 0.6606556, -774435.2, -175977.1, 0.0, 10.000929, 9.997289 
2.9756984e+3, 2.4893317e+2, -249854.52, -88484.016, -859.6535, -0.5496173, 0.44376394, -88479.44, 412029.06, 0.0, 10.001284, 10.0029335 
2.9753742e+3, 2.5892866e+2, -491867.78, -516549.03, 34777.258, -0.5547591, 0.26434547, -467306.53, -64762.25, 0.0, 10.000226, 9.999999 
2.975052e+3, 2.6892602e+2, -405143.63, -439491.97, -26798.342, -0.12856784, 0.5046245, -390488.5, -85916.836, 0.0, 10.000427, 9.999602 
2.9747286e+3, 2.7892318e+2, -592347.3, -590994.44, 39664.12, 0.16516998, 0.75163853, -552001.0, -345398.7, 0.0, 9.998749, 9.998883 
2.9744032e+3, 2.8892055e+2, -34976.62, 68366.01, 211448.47, -0.30467847, 0.8709249, 234365.05, 342989.28, 0.0, 10.0007305, 10.001663 
2.974084e+3, 2.9891482e+2, -200376.5, -299578.4, -111910.98, -0.101480074, 0.7079245, -127567.0, -116885.26, 0.0, 10.0001545, 9.998792 
2.9892612e+3, 1.3931793e+2, -1786118.0, -1817314.9, -441914.34, 0.71398354, 0.75319827, -1359526.9, 215210.83, 0.000000019519112, 9.999592, 9.999525 
2.9889268e+3, 1.4931065e+2, -1179892.0, -1250321.0, 19110.998, -0.19087428, 0.47914153, -1175040.4, 301768.94, 0.0, 10.002426, 10.001309 
2.9886028e+3, 1.5930684e+2, -1245962.5, -1366575.8, 159551.27, -0.3780704, 0.48105788, -1135701.0, 243140.31, 0.0, 10.0015955, 10.000337 
2.9882836e+3, 1.6930574e+2, -1074374.0, -1003225.44, 95171.66, -0.06812483, 0.7196754, -937196.7, 343654.44, 0.0, 10.001345, 10.002093 
2.9879633e+3, 1.7930548e+2, -1142757.0, -1182563.0, 24708.324, 0.040160064, 1.016661, -1130932.5, 51920.56, 0.0, 10.000818, 10.0005665 
2.9876372e+3, 1.8930142e+2, -997649.2, -1063539.9, 1732.7441, -0.1993492, 1.0770327, -997603.6, 87289.375, 0.0, 10.001381, 10.000335 
2.9873115e+3, 1.9929591e+2, -1101191.0, -1251860.1, 68203.02, -0.37425992, 1.0386351, -1074904.0, -87956.28, 0.0, 10.00053, 9.998899 
2.9869917e+3, 2.0928608e+2, -934783.3, -1065707.6, 127511.83, -0.1497644, 0.6573775, -856911.75, 32129.13, 0.0, 10.001043, 9.999105 
2.9866716e+3, 2.1927558e+2, -821959.56, -1122392.4, 71146.11, 0.035317566, 0.22654149, -805963.0, -14822.324, 0.0, 10.001506, 9.997991 
2.98635e+3, 2.2926906e+2, -717215.94, -983826.5, 162822.77, 0.17977925, 0.2795595, -640089.44, 53121.543, 0.0, 10.001682, 9.998051 
2.986028e+3, 2.392646e+2, -513913.47, -784838.56, 233499.25, 0.2689001, 0.53688294, -379427.88, 215834.08, 0.0, 10.001929, 9.998768 
2.9856998e+3, 2.4926126e+2, -439577.34, -356600.0, 54678.19, -0.027911087, 0.6636074, -329451.84, 167839.16, 0.0, 10.000651, 10.001476 
2.9853714e+3, 2.5925672e+2, -716932.6, -681182.4, -133809.47, -0.32259715, 0.62266946, -564059.4, -164729.64, 0.0, 9.99872, 9.999686 
2.985049e+3, 2.6924962e+2, -352213.25, -463529.1, -143713.72, 0.0014126891, 0.47970062, -253756.16, 47645.28, 0.0, 10.000921, 9.999323 
2.9847258e+3, 2.7924368e+2, 153028.44, -163314.52, -58677.547, 0.26391533, 0.45576364, 163561.64, 367023.94, 0.0, 10.003386, 9.999735 
2.9843995e+3, 2.892378e+2, 123234.72, 195829.02, 132300.3, -0.26179636, 0.18794711, 296720.97, 402234.97, 0.0, 10.001465, 10.002422 
2.9840776e+3, 2.9923192e+2, 41315.91, -95475.38, -103189.74, -0.30285698, 0.0035595465, 96718.836, 104289.336, 0.0, 10.0011, 10.000044 
2.9992536e+3, 1.3964035e+2, -1867612.3, -2241951.3, 115175.98, 0.4159729, 0.6070058, -1835013.9, -263426.53, 0.000000013810121, 10.00049, 9.996225 
2.9989225e+3, 1.4963795e+2, -1065186.5, -937189.94, 266526.22, -0.2560448, 0.7203481, -727086.06, 746520.56, 0.0, 10.002137, 10.00349 
2.9986006e+3, 1.5963286e+2, -1411887.0, -1620576.8, 123736.164, -0.28924987, 0.43706745, -1354372.4, 21268.518, 0.0, 10.001112, 9.998766 
2.9982784e+3, 1.6962586e+2, -1515249.0, -1715132.6, -298114.84, -0.16571178, 0.39411002, -1300769.5, -23048.037, 0.0, 10.000456, 9.997476 
2.997959e+3, 1.7962144e+2, -1386113.1, -1455989.1, -569634.25, -0.012392054, 0.5549827, -850346.44, 329430.66, 0.0, 9.999732, 9.999188 
2.9976398e+3, 1.8961927e+2, -1350926.8, -893057.2, -268816.66, 0.46858975, 0.4956675, -768900.56, 312887.72, 0.0, 9.997454, 10.003278 
2.997317e+3, 1.996142e+2, -1730717.1, -1644713.8, 191497.73, 0.58231115, 0.3232232, -1491449.0, -507622.3, 0.0, 9.996561, 9.998062 
2.9969916e+3, 2.0960821e+2, -936464.6, -1120177.1, 288557.9, 0.19971439, 0.35788578, -725495.44, 160385.77, 0.0, 10.001364, 9.998389 
2.9966655e+3, 2.195996e+2, -431737.4, -989575.7, 87963.914, -0.31566635, 0.19386816, -418195.38, 369768.03, 0.0, 10.004451, 9.997415 
2.99634e+3, 2.2959873e+2, -451570.13, -545730.7, -95301.69, -0.46606168, 0.5723118, -392353.8, 297620.4, 0.0, 10.002251, 10.000601 
2.9960236e+3, 2.3959707e+2, -944330.2, -1082442.9, -139399.39, 0.16188185, 0.82472444, -857819.94, -265826.3, 0.0, 9.999401, 9.997852 
2.9956904e+3, 2.4958272e+2, -489705.44, -923775.6, 66091.625, -0.49678966, 0.12519294, -479865.38, 14272.477, 0.0, 10.00273, 9.996379 
2.9953653e+3, 2.5958052e+2, -753300.8, -1093985.3, 39223.1, -0.35629004, 0.74990505, -748843.4, -352680.97, 0.0, 10.000319, 9.995936 
2.9950467e+3, 2.695694e+2, -10795.542, -276974.03, 137055.84, 0.21531199, 0.25504112, 47157.23, 345427.03, 0.0, 10.003389, 9.99916 
2.9947233e+3, 2.7956322e+2, -428081.2, -472029.38, -42586.97, 0.13330878, 0.19497961, -402133.38, -201805.7, 0.0, 9.99962, 9.999316 
2.994396e+3, 2.8956854e+2, -45355.4, 192119.13, 198894.22, -0.22047223, 0.9423177, 305022.63, 407293.13, 0.0, 10.000278, 10.00271 
2.9940748e+3, 2.9955912e+2, -52081.17, -436749.88, -24965.33, -0.2112311, 0.43028054, -50467.668, -46101.637, 0.0, 10.002088, 9.996983 
