coord_x,coord_y,stress_xx,stress_yy,tau_xy,velocity_x,velocity_y,stress_1,eps,damage,lx,ly
5.000684e+0, 1.24617614e+2, -1625360.9, -1834233.1, 62684.926, 0.0035650993, 0.047829896, -1607992.6, 110756.984, 0.0027102246, 10.001115, 9.998636 
5.000768e+0, 1.3461912e+2, -1350522.1, -1507175.8, 793.05316, -0.01704998, 0.099184774, -1350518.1, 270214.53, 0.0016001622, 10.001782, 9.999874 
5.0007e+0, 1.4461593e+2, -1342329.0, -1554779.9, -37371.645, -0.016686242, -0.14809984, -1335946.8, 186816.52, 0.00071385584, 10.001628, 9.998934 
5.0003225e+0, 1.5461718e+2, -1401748.1, -1535666.4, -45397.336, -0.00050614035, 0.0023204861, -1387809.6, 36944.137, 0.00020880907, 10.000562, 9.998908 
5.000003e+0, 1.6461797e+2, -1300500.5, -1277477.1, -14076.834, 0.0005628266, 0.12973395, -1270804.4, 55942.363, 0.00003056022, 9.999909, 10.000323 
4.999712e+0, 1.7461725e+2, -1239282.9, -1206002.0, -36605.242, -0.017869394, -0.04351562, -1182432.4, 46320.457, 0.0000010193884, 9.999695, 10.000245 
4.9997044e+0, 1.8461746e+2, -1152954.0, -1143169.3, -20075.44, -0.021959772, -0.027269581, -1127398.6, 3352.5232, 0.0, 9.999755, 9.9999695 
5.0000036e+0, 1.946185e+2, -1009762.7, -1040957.94, -39566.832, -0.010796874, 0.019562658, -982830.1, 49912.96, 0.0, 10.000138, 9.99982 
5.000151e+0, 2.0461914e+2, -920294.4, -990656.4, -32525.68, -0.0028155297, 0.12731989, -907562.75, 27176.012, 0.0, 10.000272, 9.999421 
5.000064e+0, 2.1461868e+2, -849492.0, -920179.6, -36137.965, -0.0051810932, 0.07686093, -834287.44, 2457.2295, 0.0, 10.000147, 9.999294 
5.000003e+0, 2.2461879e+2, -700976.9, -681998.2, -29209.785, -0.0035323035, 0.116618, -660775.0, 77967.8, 0.0, 9.999999, 10.000328 
5.000007e+0, 2.346192e+2, -632393.75, -601423.94, -73792.64, 0.005849808, 0.053944927, -541509.0, 99226.336, 0.0, 9.999807, 10.000301 
5.000001e+0, 2.4461903e+2, -645935.06, -759096.8, -48312.027, 0.00083391846, 0.09905723, -628115.3, -85378.11, 0.0, 9.9999075, 9.998497 
4.9999803e+0, 2.5461754e+2, -505740.63, -671330.75, -18197.29, -0.022644734, 0.047203425, -503764.44, -59008.203, 0.000000000017365094, 10.000324, 9.998231 
5.0000477e+0, 2.6461628e+2, -394944.78, -554083.2, 23623.594, -0.017253563, 0.1009131, -391511.97, -44739.266, 0.000000288742, 10.000359, 9.998339 
5.0002205e+0, 2.746152e+2, -362823.84, -492793.56, 46163.184, 0.021001257, 0.09592822, -348096.28, -99309.914, 0.0000033591298, 9.999926, 9.998294 
5.0001407e+0, 2.846148e+2, -142351.9, -92710.21, 51174.47, 0.023649486, 0.12475536, -60654.87, 90131.96, 0.000018802597, 9.999723, 10.000461 
4.9996686e+0, 2.9461342e+2, -5357.943, 53318.805, -31984.113, -0.031237016, -0.13997495, 67382.32, 120171.22, 0.000081046455, 9.999841, 10.00074 
4.9996328e+0, 3.046148e+2, -205522.42, -460715.1, -28452.068, -0.043077704, 0.09872167, -202388.72, -202388.72, 0.0003038914, 10.0000305, 9.996783 
5.0000805e+0, 3.146105e+2, -3313.9006, -54253.125, 43742.727, -0.0024054989, -0.043534704, 21833.947, 21833.947, 0.00078894256, 9.999991, 9.999619 
1.5002014e+1, 1.2461749e+2, -1738820.5, -1969690.4, 40626.59, 0.01078994, -0.09496813, -1731880.0, -13136.457, 0.0026043395, 10.000751, 9.997902 
1.5002392e+1, 1.3461904e+2, -1446112.9, -1650086.3, 41562.85, -0.037972942, 0.119452804, -1437969.0, 182762.89, 0.0015429672, 10.001596, 9.999007 
1.5002081e+1, 1.4461611e+2, -1355516.8, -1517801.5, -89127.87, -0.049836364, -0.07656152, -1316127.5, 206635.86, 0.0006869522, 10.00138, 9.999323 
1.5000953e+1, 1.5461633e+2, -1405847.0, -1491877.3, -68188.98, -0.0015506443, -0.028373897, -1368239.3, 56524.164, 0.0001968844, 10.000367, 9.999316 
1.5000015e+1, 1.6461699e+2, -1342720.9, -1304195.8, -37423.71, 0.0055085374, 0.06535654, -1281368.3, 45390.227, 0.000026649353, 9.999682, 10.000261 
1.499917e+1, 1.7461765e+2, -1272334.4, -1223913.1, -29658.445, -0.04908313, 0.075856194, -1209838.3, 18914.13, 0.00000066228677, 9.999501, 10.000232 
1.4999077e+1, 1.8461812e+2, -1194059.1, -1160565.1, -20737.29, -0.0659948, 0.1157271, -1150656.9, -19907.938, 0.0, 9.999504, 9.999978 
1.5e+1, 1.946182e+2, -1045867.06, -1053994.8, -9021.423, -0.029835429, 0.099540554, -1040036.4, -7286.1074, 0.0, 9.999907, 9.999853 
1.500043e+1, 2.046179e+2, -928546.25, -945869.4, -48803.555, -0.009245875, 0.09218233, -887641.6, 47111.832, 0.0, 10.00004, 9.999849 
1.5000172e+1, 2.1461701e+2, -852201.7, -865991.94, -24663.678, -0.016678147, -0.010737947, -833487.44, 3273.1763, 0.0, 9.999919, 9.999785 
1.4999998e+1, 2.246169e+2, -778355.2, -781712.8, -52531.97, -0.007397418, 0.0055562747, -727475.2, 11286.133, 0.0, 9.999773, 9.9997635 
1.4999993e+1, 2.3461758e+2, -714992.2, -708504.56, -65393.965, 0.017790427, 0.070120946, -646274.0, -5518.2373, 0.0, 9.999566, 9.999691 
1.5000013e+1, 2.4461783e+2, -596704.75, -604110.06, -48172.07, 0.004871615, 0.13266663, -552093.25, -9339.215, 0.0, 9.999712, 9.999668 
1.4999934e+1, 2.5461733e+2, -448821.44, -486818.66, 10765.728, -0.06551472, 0.088295445, -445983.2, -1224.0131, 0.0, 10.0000725, 9.999631 
1.5000145e+1, 2.6461738e+2, -345156.8, -397304.0, -5139.449, -0.049921554, 0.13615917, -344655.13, 2104.083, 0.00000013049092, 10.000166, 9.999519 
1.5000682e+1, 2.7461785e+2, -325140.03, -351579.94, 40974.92, 0.06576283, 0.20904809, -295305.22, -46551.152, 0.0000024373799, 9.999683, 9.999394 
1.5000384e+1, 2.8461644e+2, -289309.25, -346165.5, 41915.316, 0.06968793, 0.16149315, -267091.03, -116323.85, 0.000015368285, 9.9995365, 9.998824 
1.4998992e+1, 2.9461205e+2, -170153.17, -217109.34, -4144.6406, -0.0955709, -0.19295128, -169790.14, -116981.55, 0.000069496324, 9.999553, 9.999038 
1.4998972e+1, 3.04615e+2, -87144.69, -136449.52, -40952.46, -0.11351731, 0.1842217, -63997.043, -63997.043, 0.00026841622, 9.999784, 9.999149 
1.5000196e+1, 3.146154e+2, 28866.951, 148838.95, 99188.305, -0.0016144017, 0.3203424, 204769.47, 204769.47, 0.0007052667, 9.999497, 10.001275 
2.5003275e+1, 1.2461703e+2, -1553990.6, -1836076.3, -38166.207, 0.023935068, -0.09747238, -1548917.9, 169830.4, 0.0024837567, 10.0018635, 9.998253 
2.5003874e+1, 1.346186e+2, -1582132.0, -1713993.3, 1416.2155, 0.010273064, 0.097696654, -1582116.8, 38619.97, 0.0014731403, 10.000697, 9.998981 
2.500328e+1, 1.446164e+2, -1548435.1, -1592379.4, -54123.6, 0.0130744, -0.030948622, -1511993.6, 10767.478, 0.00065158884, 10.000009, 9.99945 
2.5001386e+1, 1.5461627e+2, -1452594.1, -1502964.6, -74272.195, 0.032712467, -0.040409274, -1399353.3, 25411.33, 0.0001815959, 10.000021, 9.999392 
2.4999946e+1, 1.6461682e+2, -1290336.9, -1308932.8, 13031.153, 0.015610389, 0.054874796, -1283626.6, 43134.113, 0.000022322774, 10.000179, 9.999976 
2.4999109e+1, 1.7461772e+2, -1149901.6, -1192305.6, -9627.915, -0.044313297, 0.103677385, -1147818.0, 80934.72, 0.00000035252413, 10.00048, 9.999958 
2.4998994e+1, 1.846181e+2, -1087366.5, -1143583.1, 18217.89, -0.05886651, 0.1630812, -1081979.0, 48771.62, 0.0, 10.000375, 9.999668 
2.4999869e+1, 1.9461773e+2, -1103961.0, -1113084.5, -7484.0796, -0.010692052, 0.1214511, -1099758.0, -67001.0, 0.0, 9.999642, 9.999558 
2.5000426e+1, 2.0461737e+2, -1000090.7, -963765.2, -9614.59, 0.022712817, 0.11371097, -961377.4, -26616.506, 0.0, 9.999482, 9.999988 
2.5000557e+1, 2.1461673e+2, -841071.9, -847001.75, -21342.725, 0.037281998, 0.011943972, -822489.1, 14275.361, 0.0, 9.999942, 9.999899 
2.5000373e+1, 2.2461645e+2, -731828.3, -811301.44, -18164.58, 0.032743093, 0.029245824, -727873.4, 10893.494, 0.0, 10.000316, 9.99928 
2.499989e+1, 2.346164e+2, -611931.56, -721255.9, -33969.797, 0.0098764915, 0.058767192, -602236.1, 38533.734, 0.0, 10.000533, 9.9991255 
2.4999796e+1, 2.446166e+2, -493403.94, -508501.3, -3758.798, -0.0067663104, 0.12742282, -492519.88, 50248.75, 0.0, 10.000247, 10.000047 
2.5000083e+1, 2.5461683e+2, -519069.1, -474318.6, -26130.309, -0.014455061, 0.10201618, -462292.6, -17527.508, 0.0, 9.999401, 10.000022 
2.5000215e+1, 2.6461715e+2, -493245.72, -441636.9, -65030.07, 0.00504995, 0.15251932, -397478.63, -50718.195, 0.00000003137998, 9.999052, 9.999739 
2.5000134e+1, 2.746175e+2, -366751.28, -348193.7, -104895.02, 0.07082143, 0.18026885, -252167.88, -3411.8518, 0.0000016497497, 9.999312, 9.999587 
2.4999754e+1, 2.84616e+2, -327829.2, -413058.66, -41089.223, 0.06507219, 0.13634127, -311246.44, -160475.4, 0.000012071121, 9.999495, 9.998371 
2.4999101e+1, 2.946121e+2, -222780.17, -302315.28, -10239.606, -0.023499308, -0.13382435, -221483.05, -168671.58, 0.00005739791, 9.999485, 9.998467 
2.4999273e+1, 3.0461532e+2, -72637.43, -43341.984, -3651.3945, -0.03184198, 0.26930943, -42893.73, -42893.73, 0.00023072664, 9.999527, 9.999912 
2.4999611e+1, 3.1461513e+2, 24983.127, 139691.14, -23258.676, 0.015349886, 0.23559815, 144227.75, 144227.75, 0.000617959, 9.999532, 10.001169 
3.5004067e+1, 1.2461605e+2, -1470139.0, -1609946.3, -133913.56, -0.15480238, -0.035913046, -1388981.8, 329784.25, 0.0023583595, 10.001662, 9.9999 
3.5004777e+1, 1.3461775e+2, -1503136.4, -1525049.9, -32824.02, -0.006297531, 0.06230317, -1479488.6, 141258.64, 0.0013953737, 10.000613, 10.000311 
3.5003883e+1, 1.446166e+2, -1559057.5, -1579231.4, -73747.72, 0.028985051, -0.03716726, -1494710.1, 28048.342, 0.0006105934, 9.999865, 9.999606 
3.5001191e+1, 1.5461692e+2, -1453489.0, -1480664.9, -57868.44, -0.027484601, -0.010505271, -1407634.6, 17123.39, 0.00016453842, 9.999934, 9.999579 
3.4999523e+1, 1.6461736e+2, -1316114.8, -1337104.1, 5927.226, -0.081836395, 0.06759193, -1314556.6, 12198.296, 0.000017966355, 10.000064, 9.999846 
3.4999177e+1, 1.7461725e+2, -1174266.3, -1225729.1, 17937.629, -0.122324035, 0.04120384, -1168631.1, 60124.57, 0.00000014192928, 10.000404, 9.99977 
3.499911e+1, 1.846172e+2, -1129779.8, -1192290.4, -22580.94, -0.11780357, 0.08140377, -1122476.0, 8282.067, 0.0, 10.000216, 9.999406 
3.499924e+1, 1.9461712e+2, -1141866.1, -1157758.5, -20145.174, -0.071122155, 0.102759615, -1128156.6, -95393.15, 0.0, 9.999504, 9.999316 
3.4999818e+1, 2.0461746e+2, -1014354.06, -954169.56, -11228.632, -0.015473118, 0.1694853, -952142.9, -17381.008, 0.0, 9.999321, 10.000132 
3.5000905e+1, 2.1461786e+2, -853698.7, -832426.4, 11002.37, 0.04689072, 0.16321625, -827759.6, 8996.409, 0.0, 9.999772, 10.00008 
3.5000792e+1, 2.2461739e+2, -767192.2, -833546.2, -20160.258, 0.013192483, 0.15578805, -761547.2, -22787.184, 0.0, 10.000111, 9.999221 
3.499931e+1, 2.346158e+2, -644118.25, -736948.56, -10836.287, -0.1340983, 0.045899298, -642870.06, -2093.6252, 0.0, 10.000329, 9.999109 
3.4999046e+1, 2.4461538e+2, -529766.25, -551185.4, -47666.652, -0.13597867, 0.062358998, -491620.88, 51159.92, 0.0, 10.000103, 9.999827 
3.500011e+1, 2.5461602e+2, -561479.1, -520548.94, -42373.742, 0.016337113, 0.11079149, -493957.13, -49183.758, 0.0, 9.999226, 9.999789 
3.4999925e+1, 2.6461577e+2, -540836.75, -518186.6, -69652.05, 0.04141499, 0.13806278, -458944.94, -112169.516, 0.0000000045955626, 9.998956, 9.999257 
3.4998143e+1, 2.7461424e+2, -418360.3, -421478.16, -76942.67, -0.09439995, 0.030922592, -342960.78, -94169.984, 0.0000011896407, 9.999167, 9.999151 
3.4997937e+1, 2.8461352e+2, -270107.22, -270286.47, -54179.207, -0.09942838, 0.03608232, -216017.55, -65219.535, 0.000009641755, 9.999406, 9.999393 
3.4999606e+1, 2.9461354e+2, -182017.05, -182016.84, 3568.5813, 0.03786251, 0.058284763, -178448.36, -125650.41, 0.0000464018, 9.99934, 9.999366 
3.5000014e+1, 3.0461556e+2, -110337.33, -112397.92, -15392.512, 0.059376836, 0.3224184, -95940.67, -95940.67, 0.00019513248, 9.999469, 9.999462 
3.4997535e+1, 3.1461024e+2, -105251.21, -113320.484, 24230.105, -0.21939693, -0.18299131, -84722.125, -84722.125, 0.00053834624, 9.999437, 9.999475 
4.500527e+1, 1.24616496e+2, -1700626.6, -1610435.6, 9462.206, -0.06687329, 0.022301693, -1609453.6, 109312.43, 0.0022337737, 9.999623, 10.000861 
4.5005086e+1, 1.346181e+2, -1633848.6, -1539061.3, -22952.963, 0.04071802, 0.06635229, -1533795.6, 86950.75, 0.0013153872, 9.999513, 10.000738 
4.500408e+1, 1.446176e+2, -1549942.0, -1571333.6, -12285.709, 0.078890614, 0.00557489, -1544348.6, -21598.367, 0.00056916923, 9.999893, 9.999664 
4.500187e+1, 1.5461764e+2, -1298569.3, -1407570.4, -39828.484, 0.010373645, 0.006922145, -1285567.0, 139184.64, 0.00014812649, 10.000985, 9.999596 
4.5000353e+1, 1.6461776e+2, -1177636.4, -1298133.9, 16902.33, -0.045138907, 0.06696293, -1175310.4, 151440.67, 0.000013959289, 10.001149, 9.999588 
4.4999814e+1, 1.7461725e+2, -1213695.6, -1276133.3, -12679.872, -0.07997627, 0.028757678, -1211218.9, 17536.879, 0.000000037538413, 10.000273, 9.99949 
4.4999453e+1, 1.8461685e+2, -1162071.9, -1210454.4, -13288.698, -0.08144784, 0.053447686, -1158662.3, -27901.305, 0.0, 10.000004, 9.999394 
4.499915e+1, 1.9461665e+2, -1026139.2, -1104036.0, -17228.713, -0.058349043, 0.060913097, -1022498.75, 10267.784, 0.0, 10.000303, 9.999309 
4.499966e+1, 2.0461704e+2, -864945.8, -908482.06, 33191.055, -0.0077563007, 0.14750358, -847021.44, 87743.45, 0.0, 10.000448, 9.999909 
4.5001113e+1, 2.1461786e+2, -792188.0, -828424.2, -2979.24, 0.077993765, 0.20476821, -791944.7, 44812.977, 0.0, 10.000298, 9.999858 
4.5001087e+1, 2.2461762e+2, -762414.1, -807302.8, -14703.597, 0.04796306, 0.2210281, -758026.7, -19266.574, 0.0, 10.000032, 9.999451 
4.499937e+1, 2.34616e+2, -735366.94, -756547.25, -9564.501, -0.11206307, 0.086682595, -731687.1, -90911.66, 0.0, 9.999597, 9.999343 
4.4998962e+1, 2.4461539e+2, -635398.6, -625162.1, -12130.055, -0.11129576, 0.08427281, -617114.75, -74333.625, 0.0, 9.999481, 9.999615 
4.4999996e+1, 2.5461558e+2, -501564.2, -522996.44, -35561.21, 0.065852374, 0.10827619, -475139.56, -30360.467, 0.0, 9.999762, 9.999516 
4.4999683e+1, 2.6461512e+2, -428393.28, -455022.56, -4776.3857, 0.09506439, 0.12321392, -427562.47, -80778.984, 0.000000013083459, 9.999696, 9.99933 
4.49979e+1, 2.7461374e+2, -383929.84, -396671.3, 4335.0044, -0.032638058, 0.025195526, -382594.84, -133798.28, 0.0000010541644, 9.99937, 9.999228 
4.49978e+1, 2.8461337e+2, -249472.44, -254768.2, 55884.188, -0.04794028, 0.058380924, -196173.44, -45373.387, 0.000008106713, 9.999523, 9.999453 
4.499952e+1, 2.9461387e+2, -53720.22, -120657.24, 7163.513, 0.064161114, 0.12791358, -52962.176, -167.41309, 0.000037622078, 10.000221, 9.999369 
4.500001e+1, 3.0461428e+2, 16062.357, -75806.79, -16454.02, 0.07729625, 0.24566782, 18920.404, 18920.404, 0.00016443121, 10.00044, 9.999236 
4.499803e+1, 3.1460926e+2, -73120.31, -174330.22, -3631.0378, -0.12553546, -0.21951339, -72990.21, -72990.21, 0.00047154687, 9.999986, 9.998783 
5.500541e+1, 1.2461859e+2, -1692494.8, -1609981.8, -47142.137, -0.111597136, 0.07486138, -1588592.6, 130153.37, 0.0021078985, 9.999666, 10.000853 
5.5004257e+1, 1.3461965e+2, -1656685.8, -1608393.1, -11927.081, -0.046420947, 0.1129081, -1605608.0, 15126.084, 0.0012334009, 9.99959, 10.00023 
5.5003446e+1, 1.4461936e+2, -1552680.8, -1577035.4, 4681.293, -0.029087959, 0.097197354, -1551811.9, -29075.494, 0.00052778376, 9.999888, 9.999628 
5.5002904e+1, 1.5461852e+2, -1304344.4, -1420499.1, 17256.715, -0.029416228, 0.017683292, -1301834.8, 122909.55, 0.00013278752, 10.000982, 9.99951 
5.500177e+1, 1.6461815e+2, -1224291.8, -1375184.4, -28869.406, -0.058419198, 0.05662946, -1218956.9, 107791.17, 0.0000106646075, 10.001068, 9.999092 
5.5000424e+1, 1.746177e+2, -1251092.6, -1343061.6, -31141.95, -0.08718482, 0.0694295, -1241539.8, -12786.535, 0.000000007551507, 10.000233, 9.999043 
5.4999566e+1, 1.846171e+2, -1157173.4, -1178595.6, -20047.441, -0.10782195, 0.07998493, -1145155.0, -14396.001, 0.0, 9.9999075, 9.999661 
5.4999113e+1, 1.9461623e+2, -1017604.75, -1065884.8, 6644.3525, -0.12984684, -0.003160624, -1016707.06, 16059.547, 0.0, 10.0002165, 9.999612 
5.4999447e+1, 2.0461616e+2, -927680.8, -998969.8, 15720.329, -0.10514843, 0.046389062, -924368.2, 10401.164, 0.0, 10.000288, 9.999361 
5.5000675e+1, 2.1461675e+2, -853383.2, -922602.44, 5620.9263, -0.030365333, 0.14014043, -852929.7, -16160.39, 0.0, 10.000162, 9.999274 
5.5000764e+1, 2.2461714e+2, -744453.25, -739327.6, -43532.87, -0.020776479, 0.22396554, -698282.2, 40485.246, 0.0, 9.999903, 9.99998 
5.499963e+1, 2.3461714e+2, -715803.06, -685225.0, -10767.084, -0.07813452, 0.19459929, -681814.2, -41048.656, 0.0, 9.999464, 9.999896 
5.499901e+1, 2.4461669e+2, -666014.9, -665546.2, -13503.021, -0.08923685, 0.19100374, -652275.5, -109506.13, 0.0, 9.999387, 9.99938 
5.4999113e+1, 2.5461546e+2, -544228.6, -565793.0, -10891.742, -0.03644745, 0.09803197, -539684.9, -94902.586, 0.0, 9.999581, 9.999299 
5.4999083e+1, 2.6461518e+2, -392032.44, -371721.13, -30478.666, 0.028124135, 0.11514621, -349750.7, -2966.7473, 0.000000016276152, 9.999649, 9.999931 
5.4999036e+1, 2.7461588e+2, -353450.9, -314721.34, 7538.7856, 0.10554886, 0.16075572, -313305.66, -64531.62, 0.00000094951764, 9.999276, 9.999844 
5.499879e+1, 2.846154e+2, -316869.53, -383263.75, 66803.516, 0.062767796, 0.19342624, -275469.34, -124691.35, 0.0000068871877, 9.99948, 9.998585 
5.4998267e+1, 2.946131e+2, -131071.07, -258681.8, 48990.082, -0.12802677, 0.075059354, -114432.96, -61630.883, 0.00003070153, 10.000118, 9.99847 
5.4998803e+1, 3.046115e+2, 17019.547, -56117.977, -39741.414, -0.122571856, 0.02935517, 34456.844, 34456.844, 0.00013855331, 10.000376, 9.999405 
5.5000186e+1, 3.1461188e+2, -69289.16, -131951.39, 24755.025, 0.017769836, 0.09588671, -60689.703, -60689.703, 0.0004144919, 9.999852, 9.999136 
6.5005857e+1, 1.24620184e+2, -1703775.1, -1669635.0, -24232.74, -0.016437732, 0.08384129, -1657063.6, 61666.113, 0.0019834668, 9.999783, 10.000409 
6.500456e+1, 1.3462025e+2, -1593277.1, -1677457.8, -62920.82, -0.001220857, 0.11594038, -1559666.5, 61064.543, 0.001149572, 10.000427, 9.999369 
6.500386e+1, 1.4462e+2, -1436944.0, -1514071.0, -4169.9844, -0.002343527, 0.1456653, -1436719.3, 86014.75, 0.00048384682, 10.000672, 9.999675 
6.500353e+1, 1.5461935e+2, -1327726.6, -1419210.5, -21168.352, -0.0415219, 0.07885426, -1323065.9, 101672.91, 0.00011744106, 10.000796, 9.99959 
6.500268e+1, 1.6461888e+2, -1240887.1, -1389981.8, -47163.008, -0.057851706, 0.10598225, -1227220.8, 99521.91, 0.000008467286, 10.000975, 9.999039 
6.500148e+1, 1.7461793e+2, -1141035.3, -1300121.3, -48476.516, -0.034303565, 0.07706649, -1127427.5, 101324.82, 0.000000004638606, 10.001029, 9.998957 
6.500045e+1, 1.8461715e+2, -1021481.3, -1108702.8, 7295.109, -0.044959, 0.071253166, -1020875.4, 109883.78, 0.0, 10.000833, 9.999687 
6.499948e+1, 1.9461635e+2, -1004071.5, -1058042.1, -17512.662, -0.10792402, -0.0082514575, -998886.94, 33877.313, 0.0, 10.000306, 9.999622 
6.4999396e+1, 2.0461607e+2, -998309.3, -1041515.0, 16529.873, -0.10489699, 0.024269434, -992710.7, -57942.49, 0.0, 9.999833, 9.999286 
6.5000314e+1, 2.146162e+2, -991827.06, -995157.56, 20072.67, -0.026527625, 0.07998992, -973350.7, -136578.05, 0.0, 9.999243, 9.999212 
6.5000457e+1, 2.246166e+2, -813990.25, -761165.06, 23723.168, -0.004098517, 0.16235629, -752075.4, -13304.575, 0.0, 9.999362, 10.000094 
6.499978e+1, 2.3461719e+2, -587488.7, -606377.9, -3837.9404, -0.039835416, 0.17488746, -586738.7, 54024.61, 0.0, 10.000261, 10.000053 
6.499918e+1, 2.4461697e+2, -532732.8, -619034.56, -11578.1, -0.047924075, 0.19340396, -531206.5, 11558.664, 0.0, 10.000358, 9.999256 
6.4998794e+1, 2.5461563e+2, -565630.3, -592511.9, -28922.234, -0.0100619225, 0.10539684, -547178.3, -102398.41, 0.0, 9.999483, 9.9991865 
6.499881e+1, 2.6461524e+2, -446521.25, -400520.84, -21127.807, 0.06304669, 0.117740855, -392289.78, -45506.523, 0.00000000394634, 9.999291, 9.999911 
6.499937e+1, 2.7461585e+2, -241030.31, -256012.98, -58239.28, 0.18382056, 0.15807328, -189802.55, 58971.297, 0.0000007712445, 10.000049, 9.999866 
6.499915e+1, 2.846153e+2, -230332.7, -368373.84, 22940.482, 0.12716725, 0.19365826, -226620.17, -75841.52, 0.000006042053, 10.00019, 9.998344 
6.499809e+1, 2.9461285e+2, -234147.64, -322971.97, 24966.691, -0.11296244, 0.08515599, -227611.05, -174806.38, 0.000026519589, 9.9994955, 9.998319 
6.4998513e+1, 3.0461088e+2, -112687.93, -90007.67, 566.5649, -0.12326686, -0.011661062, -89993.52, -89993.52, 0.00012024143, 9.999349, 9.999676 
6.50011e+1, 3.146132e+2, -70849.46, -83746.336, 20750.918, 0.15712535, 0.23467126, -55568.13, -55568.13, 0.00036921015, 9.999597, 9.999619 
7.5005746e+1, 1.2462107e+2, -1741173.3, -1753378.1, -61313.016, -0.092456475, 0.05379102, -1685659.8, 33059.85, 0.0018629195, 9.999819, 9.99981 
7.5005347e+1, 1.3461976e+2, -1669346.5, -1845179.3, -32485.486, -0.010417825, 0.060276404, -1663536.6, -42798.313, 0.0010666472, 10.00047, 9.998198 
7.5004506e+1, 1.446195e+2, -1437089.8, -1502011.1, -16522.19, -0.051168382, 0.1461176, -1433126.9, 89616.38, 0.0004391749, 10.00062, 9.999783 
7.5003296e+1, 1.5462e+2, -1313282.6, -1400748.1, 887.9856, -0.18985763, 0.17872135, -1313273.6, 111462.83, 0.00010226521, 10.000832, 9.999707 
7.500258e+1, 1.6461985e+2, -1223806.4, -1337284.8, -61135.16, -0.20380431, 0.21082014, -1197137.9, 129598.47, 0.000007138289, 10.000909, 9.999428 
7.500255e+1, 1.7461802e+2, -1122232.0, -1249868.8, -33930.22, -0.06958958, 0.05339302, -1113772.9, 114979.87, 0.00000003688298, 10.000981, 9.999325 
7.500164e+1, 1.8461697e+2, -1053475.5, -1157890.8, -25858.979, -0.044096816, 0.019263715, -1047422.3, 83339.09, 0.0, 10.00075, 9.999396 
7.4999785e+1, 1.9461682e+2, -1030420.1, -1102916.0, -23490.277, -0.14540498, 0.032883223, -1023474.25, 9286.952, 0.0, 10.00026, 9.99934 
7.49991e+1, 2.0461667e+2, -983920.0, -986193.4, -17703.697, -0.15178697, 0.07119665, -967316.5, -32554.223, 0.0, 9.999724, 9.999717 
7.499961e+1, 2.1461618e+2, -976390.75, -937875.44, 11330.338, -0.05647358, 0.017099487, -934789.56, -98021.46, 0.0, 9.999126, 9.999664 
7.49997e+1, 2.2461602e+2, -852123.44, -809463.25, 43449.543, -0.0468322, 0.032008942, -782390.5, -43620.32, 0.0, 9.999231, 9.999825 
7.499938e+1, 2.3461607e+2, -630901.3, -663571.75, 46269.72, -0.13913554, 0.021656184, -598167.94, 42601.582, 0.0, 10.000112, 9.999736 
7.499899e+1, 2.4461626e+2, -547721.94, -627457.0, -54506.45, -0.13293494, 0.09546987, -520058.9, 22709.68, 0.0, 10.000261, 9.99924 
7.4998593e+1, 2.5461623e+2, -589310.25, -610144.8, -47666.176, -0.0119025055, 0.1384405, -550936.3, -106165.484, 0.0, 9.999341, 9.999135 
7.499829e+1, 2.6461542e+2, -508013.4, -502143.22, -8093.901, 0.050888177, 0.14594337, -496468.7, -149689.27, 0.00000000015133415, 9.999191, 9.999256 
7.499834e+1, 2.7461368e+2, -309688.1, -366903.38, -11522.822, 0.037756752, 0.016026003, -307454.63, -58659.047, 0.00000065427645, 9.999917, 9.999165 
7.4998474e+1, 2.8461307e+2, -202006.77, -302812.53, -13427.28, 0.0041506966, 0.06083291, -200248.9, -49447.023, 0.0000058927376, 10.000154, 9.9988165 
7.499851e+1, 2.9461315e+2, -209005.42, -249368.73, 16410.725, -0.06362484, 0.15252203, -203175.33, -150372.58, 0.000025865007, 9.999385, 9.998887 
7.4998593e+1, 3.0461225e+2, -101838.78, -46920.42, 5806.4653, -0.08445914, 0.11650828, -46313.223, -46313.223, 0.00011203884, 9.999274, 9.999995 
7.4999815e+1, 3.14613e+2, -45217.77, 9236.978, 76433.78, -0.001623613, 0.17602941, 63148.082, 63148.082, 0.00034091447, 9.999432, 10.000328 
8.500654e+1, 1.2462167e+2, -1652728.3, -1703769.1, -81422.195, -0.008705526, 0.09882809, -1592920.6, 125796.44, 0.0017451695, 10.000419, 9.99985 
8.500633e+1, 1.3462e+2, -1587374.9, -1833379.5, -45708.914, 0.023223588, 0.10090655, -1579156.5, 41582.2, 0.0009891815, 10.001176, 9.997926 
8.500554e+1, 1.4461929e+2, -1360968.6, -1469592.5, 1696.8589, -0.02227915, 0.15537697, -1360942.1, 161805.23, 0.000399723, 10.001136, 9.99977 
8.5004294e+1, 1.5461946e+2, -1389920.5, -1439544.5, -25008.527, -0.13627638, 0.15794274, -1379503.8, 45239.42, 0.00008899464, 10.000311, 9.999695 
8.5003644e+1, 1.6461952e+2, -1316705.5, -1350038.4, -44969.05, -0.13872759, 0.19853987, -1285413.8, 41327.098, 0.000006071428, 10.00014, 9.999709 
8.500386e+1, 1.7461845e+2, -1158172.3, -1229467.0, -54444.83, -0.0052928594, 0.08798768, -1128743.0, 100007.06, 0.000000076650345, 10.000584, 9.99965 
8.500287e+1, 1.8461767e+2, -1046109.25, -1170795.3, -34068.33, 0.008855709, 0.0715933, -1037407.94, 93348.234, 0.0, 10.000863, 9.999257 
8.500059e+1, 1.9461733e+2, -961227.56, -1087675.9, -48075.105, -0.10849234, 0.082896106, -945025.56, 87732.41, 0.0, 10.00081, 9.999181 
8.499949e+1, 2.046169e+2, -855627.3, -930831.6, -39324.938, -0.12222182, 0.104910105, -838820.1, 95940.87, 0.0, 10.00064, 9.999656 
8.4999555e+1, 2.1461609e+2, -811478.75, -867496.2, -81359.54, -0.024080034, 0.027240094, -753441.75, 83326.7, 0.0, 10.0003, 9.999586 
8.499947e+1, 2.2461565e+2, -763706.7, -769997.7, -15723.791, -0.01568897, 0.020933839, -750816.9, -12044.332, 0.0, 9.999867, 9.99978 
8.4999347e+1, 2.3461555e+2, -757991.56, -726173.5, -20904.424, -0.102879174, 0.0020443024, -715812.94, -75039.414, 0.0, 9.999266, 9.999702 
8.499905e+1, 2.4461569e+2, -667637.75, -657398.8, -81532.49, -0.09781469, 0.06088203, -580825.25, -38052.914, 0.0, 9.999316, 9.999479 
8.499859e+1, 2.5461587e+2, -450438.3, -511285.56, -82518.92, 0.022926858, 0.09831793, -392913.25, 51857.305, 0.0, 10.000175, 9.999397 
8.4998083e+1, 2.6461506e+2, -356692.13, -509226.34, 5243.162, 0.05386342, 0.12294759, -356512.1, -9731.987, 0.0000000019213902, 10.000533, 9.998577 
8.499782e+1, 2.746129e+2, -338383.6, -461900.44, -29451.021, -0.0011095038, 0.021328358, -331720.78, -82916.18, 0.0000006294421, 10.000034, 9.99847 
8.499807e+1, 2.8461212e+2, -244179.55, -274876.7, -21217.549, -0.015933184, 0.06169623, -233341.05, -82527.03, 0.0000062489003, 9.999652, 9.9992485 
8.499876e+1, 2.9461256e+2, -122059.16, -150295.02, -22889.479, 0.019566545, 0.14088541, -109283.89, -56474.793, 0.000027811611, 9.999738, 9.999393 
8.499854e+1, 3.0461276e+2, -69040.47, -70543.586, -27426.033, -0.021275226, 0.21123189, -42355.703, -42355.703, 0.00011222166, 9.999646, 9.999669 
8.499892e+1, 3.1461138e+2, -154290.0, -34837.75, -58572.934, 0.022639276, 0.08474994, -10909.833, -10909.833, 0.00032900518, 9.998647, 10.000394 
9.5007235e+1, 1.2462214e+2, -1616186.3, -1618353.6, -103267.664, -0.060200203, 0.2306667, -1513996.6, 204723.9, 0.0016362383, 10.000375, 10.000458 
9.500691e+1, 1.3462092e+2, -1536373.8, -1754017.9, -4358.4453, -0.08005456, 0.22568119, -1536286.5, 84445.97, 0.0009229167, 10.001276, 9.9984255 
9.500651e+1, 1.4461936e+2, -1371461.4, -1486195.8, -42248.645, -0.08323519, 0.17032072, -1357582.9, 165163.61, 0.00036888671, 10.001119, 9.999662 
9.500606e+1, 1.5461783e+2, -1402669.0, -1468173.6, -39709.258, -0.03208123, 0.020752965, -1383947.6, 40810.43, 0.00007923838, 10.000318, 9.999496 
9.500553e+1, 1.64618e+2, -1312561.6, -1329074.8, -42332.61, 0.00043197782, 0.07608891, -1277688.0, 49067.164, 0.0000051224774, 10.000082, 9.999884 
9.5004916e+1, 1.7461927e+2, -1144078.1, -1200904.6, -21063.395, 0.0020721431, 0.18030088, -1137122.3, 91621.23, 0.00000007826353, 10.000582, 9.999849 
9.500363e+1, 1.8461931e+2, -1059129.1, -1181546.4, -48385.07, -0.034252185, 0.23506133, -1042314.7, 88427.984, 0.0, 10.00079, 9.999218 
9.500149e+1, 1.9461788e+2, -975576.1, -1100928.5, -35117.36, -0.1363234, 0.13886532, -966408.5, 66345.96, 0.0, 10.000733, 9.9991255 
9.5000154e+1, 2.046168e+2, -919361.0, -1035744.8, -65249.793, -0.15207781, 0.13027878, -890123.9, 44640.258, 0.0, 10.000515, 9.998998 
9.4999665e+1, 2.1461579e+2, -876986.6, -975551.75, -78035.57, -0.0769889, 0.09825141, -833974.44, 2800.3496, 0.0, 10.000175, 9.998907 
9.499929e+1, 2.2461535e+2, -771814.3, -758423.1, -49166.875, -0.054922074, 0.11984866, -715498.06, 23280.955, 0.0, 9.999744, 9.999916 
9.499915e+1, 2.3461537e+2, -763873.1, -714921.1, -31002.363, -0.0833137, 0.093329996, -699897.5, -59119.695, 0.0, 9.999153, 9.999837 
9.499888e+1, 2.4461511e+2, -646032.4, -587479.1, -64644.703, -0.0782912, 0.08060784, -545790.56, -3012.7798, 0.0, 9.999207, 10.000012 
9.499839e+1, 2.5461435e+2, -424102.97, -440217.9, -31394.697, -0.05175909, -0.03313009, -399748.25, 45032.617, 0.0, 10.000089, 9.999932 
9.4997805e+1, 2.6461384e+2, -415221.3, -606726.1, -24637.209, -0.05867635, 0.024347097, -412102.5, -65314.52, 0.0000000017799018, 10.000444, 9.997943 
9.499729e+1, 2.7461332e+2, -407481.16, -572995.2, -35637.38, -0.09220216, 0.15431245, -400134.06, -151331.34, 0.0000005677249, 9.999899, 9.997769 
9.499744e+1, 2.8461236e+2, -227888.45, -227882.47, -34678.848, -0.07868004, 0.20027943, -193206.61, -42391.508, 0.0000064583187, 9.999596, 9.999597 
9.4998354e+1, 2.9461095e+2, -117769.59, -112264.19, 5605.5073, -0.037180062, 0.04916461, -108771.97, -55947.473, 0.000029725905, 9.999607, 9.999718 
9.4997907e+1, 3.046125e+2, -136800.38, -196123.42, -67248.35, -0.08120536, 0.27378732, -92962.61, -92962.61, 0.0001135958, 9.999585, 9.998827 
9.49974e+1, 3.1460845e+2, -223484.3, -146559.03, -61173.797, -0.067989394, -0.029053526, -112760.97, -112760.97, 0.00032168903, 9.9985075, 9.999692 
1.050082e+2, 1.2462172e+2, -1618404.6, -1573830.1, -38378.797, 0.030487211, 0.2540447, -1551736.6, 166990.86, 0.0015480418, 10.000137, 10.000885 
1.0500796e+2, 1.346211e+2, -1595305.3, -1716302.4, 11576.882, -0.053540513, 0.25287607, -1594207.5, 26522.928, 0.00087241904, 10.000583, 9.999021 
1.05007805e+2, 1.4461951e+2, -1413348.4, -1514759.0, -18760.701, -0.042230703, 0.16783182, -1409989.0, 112754.09, 0.0003471946, 10.000886, 9.999567 
1.0500729e+2, 1.5461773e+2, -1289559.5, -1438937.8, -49185.008, 0.028356984, 0.012852853, -1274819.1, 149938.8, 0.000073446034, 10.001204, 9.999271 
1.0500633e+2, 1.6461761e+2, -1164020.8, -1292537.4, -23077.676, 0.023039376, 0.065877534, -1160002.4, 166756.25, 0.000004420773, 10.001261, 9.999558 
1.0500507e+2, 1.7461869e+2, -1108100.4, -1224429.4, -71348.21, -0.052193113, 0.18421651, -1074212.3, 154537.83, 0.000000050630582, 10.001012, 9.999477 
1.05004e+2, 1.8461868e+2, -1025731.8, -1138726.1, -90097.54, -0.07551795, 0.24246632, -975882.9, 154867.0, 0.0, 10.0009165, 9.999444 
1.0500302e+2, 1.9461739e+2, -951243.06, -1058675.1, -88133.27, -0.049471505, 0.13396406, -901746.25, 131013.016, 0.0, 10.000786, 9.999379 
1.05001695e+2, 2.0461631e+2, -907948.4, -1047196.7, -67418.12, -0.047083553, 0.1192107, -880656.44, 54112.26, 0.0, 10.000669, 9.998846 
1.0500001e+2, 2.146152e+2, -854126.9, -980763.06, -71683.914, -0.061318807, 0.09462483, -821801.06, 14979.757, 0.0, 10.000405, 9.998759 
1.0499915e+2, 2.2461465e+2, -732010.2, -753639.2, -13493.794, -0.051757377, 0.11909715, -725532.06, 13254.293, 0.0, 10.000072, 9.999807 
1.0499931e+2, 2.3461463e+2, -699271.25, -694031.1, -44081.598, 0.0016390843, 0.103111275, -652491.75, -11706.17, 0.0, 9.999648, 9.99975 
1.0499901e+2, 2.446142e+2, -596625.4, -572728.9, -42389.09, 0.003184111, 0.08329948, -540636.3, 2151.114, 0.0, 9.999588, 9.999932 
1.04998276e+2, 2.546131e+2, -459403.03, -462806.94, -81517.21, -0.053932805, -0.05380872, -379570.0, 65224.06, 0.0, 9.999889, 9.999868 
1.04997575e+2, 2.6461282e+2, -480446.3, -615469.1, -79528.11, -0.0906963, 0.020191463, -443638.44, -96839.57, 0.00000000014537505, 9.999919, 9.998129 
1.0499715e+2, 2.7461314e+2, -424801.5, -559453.1, -55190.97, -0.07626992, 0.21416903, -405070.97, -156266.11, 0.00000042821608, 9.999705, 9.997949 
1.04997315e+2, 2.846119e+2, -224065.3, -248742.61, 5667.8403, -0.04821654, 0.23190062, -222825.77, -72005.82, 0.0000059800022, 9.999699, 9.999414 
1.0499816e+2, 2.946091e+2, -107676.414, -136314.86, -31866.31, -0.01498374, -0.038506772, -87059.95, -34216.43, 0.000029321069, 9.999786, 9.9994755 
1.04997784e+2, 3.046116e+2, -118396.27, -211549.23, -92659.55, -0.051342897, 0.30749723, -61265.668, -61265.668, 0.000109980174, 9.999825, 9.998605 
1.0499707e+2, 3.1460783e+2, -39971.34, -58125.684, -95012.73, 0.0013366485, 0.047523845, 46396.83, 46396.83, 0.0003078243, 9.999769, 9.999695 
1.1500849e+2, 1.24620214e+2, -1596447.1, -1545316.6, -73042.33, -0.037928186, 0.16088782, -1493494.8, 225245.08, 0.0014882531, 10.000196, 10.00106 
1.1500904e+2, 1.3462038e+2, -1540832.5, -1615459.0, 37153.613, -0.044889707, 0.17590971, -1525489.6, 95244.1, 0.000840427, 10.000628, 9.999692 
1.1500908e+2, 1.4461961e+2, -1432485.3, -1536682.5, -24617.744, -0.04528829, 0.14247777, -1426961.8, 95776.77, 0.00033535642, 10.00081, 9.9994545 
1.1500732e+2, 1.546191e+2, -1299940.9, -1458661.1, -18743.953, -0.13074756, 0.12736346, -1297757.4, 126985.734, 0.0000716502, 10.001206, 9.999128 
1.1500557e+2, 1.6461833e+2, -1230277.0, -1425024.5, -44864.11, -0.21808706, 0.16718733, -1220438.6, 106312.836, 0.0000041980056, 10.001231, 9.99867 
1.15004e+2, 1.7461662e+2, -1172009.3, -1352745.1, -67000.67, -0.29813632, 0.09262358, -1149880.8, 78889.98, 0.000000024917117, 10.000993, 9.998605 
1.15003675e+2, 1.8461575e+2, -1013232.6, -1082868.6, -109072.95, -0.22977279, 0.091213, -933555.25, 197222.95, 0.0, 10.000791, 9.999891 
1.15004666e+2, 1.9461575e+2, -925745.75, -989358.44, -78368.74, -0.0019713012, 0.06322717, -872974.94, 159798.39, 0.0, 10.000716, 9.999891 
1.15003645e+2, 2.0461534e+2, -903160.7, -1010585.2, -92391.52, 0.04987788, 0.074794054, -850002.94, 84772.19, 0.0, 10.00055, 9.999157 
1.1500018e+2, 2.1461415e+2, -851765.9, -946027.4, -69904.19, -0.11556223, 0.008005779, -814588.25, 22199.695, 0.0, 10.000271, 9.999064 
1.1499864e+2, 2.2461347e+2, -778429.3, -816135.7, -43271.633, -0.13548456, 0.024068613, -750082.1, -11287.116, 0.0, 9.999931, 9.999442 
1.1499937e+2, 2.3461324e+2, -745453.7, -759422.06, -44841.195, 0.010722878, 0.021042185, -707056.0, -66258.43, 0.0, 9.999509, 9.999371 
1.1499908e+2, 2.4461284e+2, -664382.0, -683012.56, -45745.563, 0.019809246, 0.05868651, -627012.94, -84210.875, 0.0, 9.999468, 9.999229 
1.14997715e+2, 2.5461212e+2, -529622.8, -576480.5, -59172.81, -0.13157067, 0.028544871, -489409.44, -44598.83, 0.0, 9.999754, 9.999151 
1.1499697e+2, 2.64612e+2, -420690.7, -475319.88, -99021.91, -0.17310137, 0.110702395, -345285.16, 1527.7961, 0.0, 9.999846, 9.999132 
1.1499699e+2, 2.746123e+2, -366385.78, -412588.84, -44541.004, -0.09719766, 0.19829378, -339311.8, -90500.336, 0.0000002594802, 9.999585, 9.999024 
1.1499721e+2, 2.8461063e+2, -287644.94, -358763.8, -2616.12, -0.06162869, 0.14998886, -287548.84, -136719.53, 0.000005001763, 9.999615, 9.998699 
1.1499768e+2, 2.9460692e+2, -195647.73, -281447.28, -14244.023, -0.08083414, -0.12502189, -193344.81, -140477.75, 0.000026475647, 9.999631, 9.998556 
1.1499773e+2, 3.0461007e+2, -99098.305, -149534.73, -97401.375, -0.071266815, 0.3186107, -23703.47, -23703.47, 0.000100772006, 9.999752, 9.999058 
1.1499703e+2, 3.146094e+2, -6823.154, 44007.59, -60644.65, -0.052710153, 0.30460593, 84347.17, 84347.17, 0.00028477798, 9.999636, 10.000459 
1.2500946e+2, 1.2461932e+2, -1536008.8, -1545631.1, -19526.408, 0.024486702, 0.10758818, -1520709.5, 198036.23, 0.0014562852, 10.000768, 10.00077 
1.2501013e+2, 1.3461947e+2, -1509071.0, -1596593.4, -5702.7676, 0.00679887, 0.120585084, -1508701.0, 112039.83, 0.0008261713, 10.000835, 9.999722 
1.250103e+2, 1.4461906e+2, -1425703.6, -1532978.4, -44644.91, 0.008805838, 0.11859404, -1409554.6, 113188.695, 0.00033346904, 10.00085, 9.999459 
1.2500842e+2, 1.5461913e+2, -1307920.5, -1462916.5, -64515.465, -0.12877832, 0.16196351, -1284581.1, 140162.1, 0.00007407354, 10.001151, 9.999122 
1.2500666e+2, 1.6461827e+2, -1238857.1, -1434488.0, -49846.81, -0.22120544, 0.19445746, -1226888.4, 99863.94, 0.000004716059, 10.00118, 9.998642 
1.2500513e+2, 1.7461582e+2, -1211623.8, -1379232.3, -34267.36, -0.26215437, 0.05196466, -1204888.4, 23889.068, 0.000000012759114, 10.000729, 9.998568 
1.250047e+2, 1.8461469e+2, -1053863.9, -1101665.5, -16993.58, -0.18134944, 0.024564093, -1048438.4, 82348.96, 0.0, 10.000503, 9.999894 
1.2500557e+2, 1.9461507e+2, -963043.0, -1010109.44, -53804.555, 0.038780745, 0.035654273, -927850.2, 104929.27, 0.0, 10.000464, 9.999869 
1.2500437e+2, 2.0461492e+2, -908940.94, -994107.5, -71773.88, 0.0822191, 0.06651026, -868068.7, 66710.33, 0.0, 10.000435, 9.999319 
1.2500073e+2, 2.1461394e+2, -833980.6, -917723.8, -89161.37, -0.081022985, 0.005013934, -777348.5, 59441.05, 0.0, 10.000316, 9.99923 
1.2499895e+2, 2.2461337e+2, -734838.94, -814537.94, -31983.96, -0.10810125, 0.029971397, -723590.94, 15205.0625, 0.0, 10.00031, 9.999263 
1.24999404e+2, 2.3461318e+2, -623937.6, -717268.75, -46907.668, 0.028040325, 0.051511247, -604436.7, 36362.266, 0.0, 10.000433, 9.999198 
1.24999054e+2, 2.4461281e+2, -577933.8, -677885.6, 563.18787, 0.042573478, 0.11315861, -577930.6, -35125.89, 0.0, 10.000213, 9.998909 
1.2499795e+2, 2.54612e+2, -574526.06, -638920.44, -10774.004, -0.066383034, 0.11212868, -572771.25, -127955.375, 0.0, 9.999606, 9.998803 
1.24997154e+2, 2.646117e+2, -452999.75, -434498.72, -20882.393, -0.10739019, 0.16678149, -420909.66, -74090.29, 0.0, 9.999384, 9.999626 
1.2499682e+2, 2.746116e+2, -322600.47, -328969.47, -36656.3, -0.065335825, 0.15982698, -288990.6, -40173.21, 0.00000012209664, 9.999638, 9.999559 
1.2499677e+2, 2.846101e+2, -304910.47, -400697.0, 25348.73, -0.057975706, 0.11556633, -298615.9, -147783.25, 0.000003888246, 9.999654, 9.998385 
1.2499731e+2, 2.9460725e+2, -254113.48, -342607.28, 18815.395, -0.05658713, -0.042398233, -250279.13, -197413.98, 0.00002250982, 9.999387, 9.998243 
1.2499772e+2, 3.0460927e+2, -175574.31, -159923.44, -13045.295, 0.0013644568, 0.29392785, -152536.47, -152536.47, 0.000088219014, 9.9990635, 9.999348 
1.2499685e+2, 3.1460875e+2, -163402.1, 5334.3057, -54933.703, 0.044557195, 0.2601049, 21642.344, 21642.344, 0.00025421134, 9.998395, 10.000797 
1.3501023e+2, 1.2461889e+2, -1601671.1, -1673679.4, -73230.54, -0.053815246, 0.07890615, -1556072.5, 162674.31, 0.0014504807, 10.000732, 9.999907 
1.3501066e+2, 1.3461839e+2, -1540932.1, -1669887.8, 7549.5615, -0.063126326, 0.08157949, -1540491.6, 80260.016, 0.0008289551, 10.0008745, 9.999194 
1.35011e+2, 1.4461793e+2, -1420206.1, -1530184.1, -52673.004, -0.05195881, 0.101987265, -1399048.9, 123707.32, 0.0003411424, 10.000873, 9.999474 
1.3501023e+2, 1.5461779e+2, -1307116.1, -1457741.0, -38753.04, -0.10072437, 0.11701461, -1297730.5, 127027.63, 0.00008049032, 10.001126, 9.999175 
1.3500914e+2, 1.646174e+2, -1197590.6, -1315950.9, -81315.45, -0.1223664, 0.15207794, -1156200.0, 170561.34, 0.0000062176173, 10.001052, 9.99951 
1.350078e+2, 1.7461629e+2, -1158486.6, -1254084.8, -33780.1, -0.10268723, 0.05721986, -1147755.0, 81015.43, 0.000000017143847, 10.000681, 9.999442 
1.3500647e+2, 1.846156e+2, -1095722.9, -1177485.3, -32035.76, -0.09163826, 0.052246124, -1084666.0, 46109.824, 0.0, 10.00044, 9.99941 
1.3500515e+2, 1.946153e+2, -1010353.4, -1092240.5, -38975.367, -0.090121366, 0.045797613, -994768.56, 38009.383, 0.0, 10.000388, 9.999344 
1.3500342e+2, 2.0461504e+2, -926811.44, -1005868.6, -91901.305, -0.08807687, 0.09253837, -866298.25, 68482.28, 0.0, 10.0003195, 9.999298 
1.3500114e+2, 2.146145e+2, -854329.5, -926357.44, -77546.27, -0.10484958, 0.07552438, -804842.4, 31943.902, 0.0, 10.000167, 9.999245 
1.3499962e+2, 2.2461434e+2, -753344.5, -826782.7, -42252.254, -0.104839966, 0.1404686, -734085.5, 4703.5864, 0.0, 10.000187, 9.999241 
1.3499889e+2, 2.346144e+2, -643775.3, -728980.7, -27567.121, -0.10036785, 0.18654902, -635634.2, 5156.21, 0.0, 10.000297, 9.999185 
1.3499849e+2, 2.4461398e+2, -586944.44, -674236.2, -34390.63, -0.06611291, 0.23913974, -575023.44, -32226.762, 0.0, 10.000114, 9.99898 
1.3499853e+2, 2.546128e+2, -589603.94, -638109.9, -17189.219, -0.0006403428, 0.1913155, -584130.25, -139319.95, 0.0, 9.999467, 9.998874 
1.3499774e+2, 2.6461187e+2, -470822.34, -450231.94, -26305.314, -0.019253453, 0.18586239, -432278.94, -85460.42, 0.0, 9.999298, 9.999556 
1.3499604e+2, 2.746109e+2, -346504.22, -345841.2, -13243.002, -0.14097492, 0.096351646, -332925.56, -84101.625, 0.000000046518082, 9.999501, 9.999504 
1.3499556e+2, 2.8461018e+2, -297325.1, -378643.53, 2889.1992, -0.17881118, 0.12323662, -297222.56, -146391.3, 0.0000029362805, 9.999621, 9.998553 
1.3499658e+2, 2.9460979e+2, -250928.69, -316482.4, 26135.725, -0.1099775, 0.19178574, -241784.2, -188944.1, 0.000019015239, 9.9992895, 9.998475 
1.3499728e+2, 3.046091e+2, -173172.16, -131283.58, -46931.05, 0.02401448, 0.22905368, -100835.39, -100835.39, 0.000075927965, 9.99898, 9.999575 
1.3499562e+2, 3.1460577e+2, -196954.64, -28722.084, -38197.633, 0.00866102, -0.096829794, -20455.424, -20455.424, 0.0002226974, 9.998248, 10.000631 
1.4501163e+2, 1.2461949e+2, -1597707.4, -1735621.9, 46634.45, 0.019363038, 0.06013715, -1583418.8, 135318.63, 0.0014659849, 10.001047, 9.999328 
1.450117e+2, 1.3461865e+2, -1452625.1, -1670042.3, 80904.55, -0.076457426, 0.06530918, -1425823.3, 194924.52, 0.0008466132, 10.001672, 9.9988 
1.4501217e+2, 1.4461835e+2, -1325354.4, -1491076.3, 38327.51, -0.046556488, 0.12451532, -1316919.5, 205832.34, 0.00035647568, 10.00155, 9.999419 
1.4501156e+2, 1.5461776e+2, -1369925.9, -1488490.6, 15569.46, -0.046102535, 0.099740155, -1367915.5, 56842.137, 0.00008921642, 10.000694, 9.999174 
1.4501064e+2, 1.6461734e+2, -1284999.9, -1337727.3, -11470.804, -0.03188613, 0.121733725, -1282612.5, 44148.23, 0.000008328298, 10.000361, 9.99969 
1.4500953e+2, 1.7461678e+2, -1156667.5, -1232498.1, -48202.746, 0.015636554, 0.06083078, -1133255.3, 95509.016, 0.0000000715251, 10.000599, 9.999628 
1.4500786e+2, 1.8461643e+2, -1044659.3, -1160821.9, -28324.396, -0.007667143, 0.08221421, -1038120.9, 92646.234, 0.0, 10.00083, 9.999347 
1.4500539e+2, 1.9461608e+2, -926793.2, -1065044.6, -31799.23, -0.12478778, 0.08394244, -919829.75, 112941.44, 0.0, 10.001007, 9.99925 
1.450034e+2, 2.046157e+2, -832159.2, -955005.7, -47556.89, -0.1458865, 0.12245704, -815900.56, 118874.47, 0.0, 10.000947, 9.999341 
1.4500189e+2, 2.1461506e+2, -799952.94, -895384.9, -62653.848, -0.055144947, 0.089793116, -768914.1, 67866.27, 0.0, 10.000525, 9.999281 
1.4500046e+2, 2.2461459e+2, -754411.4, -857860.4, 5993.1016, -0.038597178, 0.13662888, -754065.3, -15279.427, 0.0, 10.000326, 9.998959 
1.4499912e+2, 2.3461409e+2, -648609.3, -769097.75, -33357.96, -0.10468216, 0.15959294, -639990.44, 803.43713, 0.0, 10.000426, 9.998854 
1.4499843e+2, 2.4461353e+2, -537873.0, -633949.7, -40149.03, -0.08948229, 0.20956157, -523304.44, 19496.998, 0.0, 10.000375, 9.999136 
1.4499852e+2, 2.546127e+2, -474180.5, -560647.25, -45488.78, 0.026124887, 0.18042292, -454657.56, -9847.533, 0.0, 10.000168, 9.999068 
1.4499775e+2, 2.6461184e+2, -385927.9, -426766.2, -8485.677, 0.026853915, 0.1786798, -384234.88, -37417.547, 0.0, 9.9999485, 9.9994135 
1.4499596e+2, 2.7461073e+2, -322498.56, -356383.63, -30333.158, -0.10200057, 0.0898844, -304697.03, -55871.574, 0.00000002138944, 9.9997425, 9.999334 
1.4499535e+2, 2.8461015e+2, -298488.2, -364117.22, 1379.2905, -0.14988433, 0.13660179, -298459.22, -147627.52, 0.0000023054517, 9.999538, 9.998695 
1.4499623e+2, 2.946104e+2, -215794.77, -269448.94, -13403.383, -0.068832494, 0.2504704, -212632.81, -159798.42, 0.000016570593, 9.999408, 9.998731 
1.4499688e+2, 3.046091e+2, -108684.484, -69282.41, -59709.734, 0.08454116, 0.19686262, -26107.506, -26107.506, 0.0000664134, 9.999312, 9.999829 
1.4499465e+2, 3.146061e+2, -81328.51, 42420.297, -97583.875, 0.066707104, -0.11047629, 96092.66, 96092.66, 0.0001967113, 9.998991, 10.00076 
1.5501295e+2, 1.2462153e+2, -1610458.4, -1788199.5, 20082.033, -0.03560598, 0.08661894, -1608217.6, 110495.9, 0.0014879738, 10.001138, 9.998937 
1.5501276e+2, 1.346203e+2, -1473966.1, -1718858.0, 110860.24, -0.17491055, 0.08762465, -1431236.5, 189492.06, 0.0008684092, 10.001682, 9.998471 
1.550133e+2, 1.4462028e+2, -1333224.3, -1493452.6, -10949.587, -0.13061559, 0.19261847, -1332479.4, 190250.6, 0.00037251608, 10.001497, 9.999423 
1.5501189e+2, 1.5461914e+2, -1375485.5, -1486637.8, -1077.8975, -0.12429195, 0.111272596, -1375475.1, 49265.527, 0.00009664872, 10.000649, 9.999201 
1.5501076e+2, 1.646183e+2, -1330253.8, -1418125.9, -18367.514, -0.092236675, 0.11252303, -1326569.0, 179.88538, 0.000009881803, 10.0002985, 9.999175 
1.5500998e+2, 1.7461747e+2, -1204473.8, -1314825.1, -22860.488, -0.03428848, 0.07872437, -1199925.4, 28832.248, 0.00000020107916, 10.000525, 9.999102 
1.5500842e+2, 1.8461719e+2, -1036420.25, -1124310.9, -36157.863, -0.06586028, 0.123773575, -1023457.06, 107303.74, 0.0, 10.000742, 9.99964 
1.5500586e+2, 1.9461736e+2, -918286.5, -1024250.75, -8405.33, -0.2101382, 0.1433519, -917623.94, 115135.52, 0.0, 10.0009165, 9.999571 
1.5500388e+2, 2.0461693e+2, -843241.75, -951922.3, -75131.48, -0.22281276, 0.1581109, -804858.75, 129903.5, 0.0, 10.000828, 9.999426 
1.5500244e+2, 2.1461566e+2, -815246.94, -891705.5, -64055.047, -0.08501614, 0.054066785, -778880.44, 57891.055, 0.0, 10.000374, 9.999379 
1.5500104e+2, 2.246142e+2, -818773.6, -965124.8, -5596.4946, -0.04273685, 0.026766093, -818559.94, -79773.71, 0.0, 10.000205, 9.998284 
1.549997e+2, 2.3461224e+2, -717498.9, -882607.44, -14279.72, -0.11950918, -0.024797138, -716272.94, -75463.19, 0.0, 10.000292, 9.998142 
1.5499842e+2, 2.4461146e+2, -533225.3, -602214.06, -62431.074, -0.15723284, 0.025430633, -496392.97, 46426.527, 0.0, 10.000278, 9.9994 
1.549974e+2, 2.546117e+2, -475204.06, -531382.4, -36905.188, -0.13717443, 0.07284492, -456914.4, -12098.36, 0.0, 10.000025, 9.999343 
1.5499663e+2, 2.6461166e+2, -413413.63, -464007.53, -29376.045, -0.11068801, 0.1488075, -399943.47, -53127.715, 0.0, 9.999868, 9.999191 
1.5499611e+2, 2.74611e+2, -364355.47, -413442.7, -20100.135, -0.09058759, 0.13077502, -357175.22, -108352.6, 0.000000019825112, 9.999611, 9.999005 
1.549957e+2, 2.8460997e+2, -298966.13, -353943.9, -15488.705, -0.101978816, 0.14884524, -294902.84, -144068.27, 0.0000019865888, 9.999487, 9.998791 
1.5499577e+2, 2.9460892e+2, -215907.98, -247970.47, -505.56827, -0.10060386, 0.11926179, -215900.02, -163050.2, 0.000014949104, 9.999304, 9.998934 
1.549961e+2, 3.0460924e+2, -99964.21, -26368.07, -81069.84, 0.04491942, 0.1987556, 25864.29, 25864.29, 0.000059797247, 9.999233, 10.000143 
1.5499295e+2, 3.1460977e+2, -80303.68, 91103.71, -65074.063, -0.06757703, 0.21409471, 113009.29, 113009.29, 0.00017773658, 9.998816, 10.001162 
1.6501455e+2, 1.24622196e+2, -1576681.6, -1723861.4, -38499.57, 0.023168145, 0.11589877, -1567219.1, 151487.92, 0.0014964563, 10.001169, 9.999352 
1.6501427e+2, 1.346202e+2, -1510735.3, -1714722.9, 45786.63, -0.16192253, 0.014626982, -1500929.5, 119797.48, 0.0008776996, 10.001317, 9.998681 
1.6501501e+2, 1.4462036e+2, -1365754.4, -1511096.6, -46964.496, -0.087472156, 0.12863582, -1351899.4, 170826.58, 0.00037921302, 10.001305, 9.999387 
1.6501342e+2, 1.5461962e+2, -1257911.4, -1436975.0, -77187.07, -0.067326516, 0.09271611, -1229232.5, 195501.61, 0.00009882513, 10.00149, 9.999137 
1.650118e+2, 1.646188e+2, -1178026.9, -1355628.4, -42685.26, -0.06196025, 0.10679331, -1168300.4, 158442.44, 0.000009884257, 10.001387, 9.999075 
1.6501011e+2, 1.7461771e+2, -1159190.6, -1303823.5, -46003.016, -0.082072146, 0.054971065, -1145798.6, 82955.695, 0.0000002904704, 10.000873, 9.999008 
1.6500849e+2, 1.8461736e+2, -1085437.9, -1144334.5, -18266.79, -0.10689125, 0.09455258, -1080232.5, 50525.895, 0.0, 10.000407, 9.999643 
1.6500694e+2, 1.9461764e+2, -1049901.3, -1083298.4, -41641.1, -0.137637, 0.12124394, -1021735.3, 11020.718, 0.0, 10.000003, 9.999586 
1.6500515e+2, 2.0461726e+2, -961493.75, -1010934.7, -87757.58, -0.13086039, 0.14043689, -895041.3, 39717.457, 0.0, 10.000048, 9.999392 
1.6500296e+2, 2.1461597e+2, -780064.3, -879879.0, -116095.54, -0.07340715, 0.040757522, -703603.44, 133165.36, 0.0, 10.000644, 9.999332 
1.650015e+2, 2.2461458e+2, -701036.8, -896237.2, -7789.0415, -0.04680631, 0.01939111, -700726.5, 38056.14, 0.0, 10.000956, 9.998398 
1.6500075e+2, 2.3461296e+2, -620340.56, -817319.4, 16866.303, -0.063626826, -0.011581525, -618906.8, 21895.133, 0.0, 10.000885, 9.998302 
1.6499934e+2, 2.4461214e+2, -493314.4, -587761.0, 5936.7197, -0.101372495, 0.03073065, -492942.7, 49868.617, 0.0, 10.000583, 9.999349 
1.6499726e+2, 2.5461206e+2, -471456.88, -528439.8, -28340.139, -0.14442894, 0.050606783, -459762.2, -14951.722, 0.0, 10.000063, 9.999333 
1.6499625e+2, 2.646118e+2, -443136.16, -522498.34, 2488.579, -0.124224685, 0.12090893, -443058.22, -96245.234, 0.0, 9.999831, 9.998815 
1.6499645e+2, 2.7461088e+2, -335782.22, -433361.56, -28138.922, -0.026413517, 0.11108455, -328249.3, -79425.49, 0.000000024295247, 9.999955, 9.998689 
1.6499579e+2, 2.8460974e+2, -262127.78, -282849.84, 5826.386, -0.031492244, 0.11040619, -260601.94, -109765.055, 0.0000019697127, 9.999519, 9.999265 
1.6499487e+2, 2.9460883e+2, -282933.53, -214740.92, 18346.97, -0.07318256, 0.04903065, -210118.13, -157269.97, 0.000013995548, 9.99856, 9.999528 
1.6499501e+2, 3.0461055e+2, -253543.45, -131475.48, -10514.217, 0.075505644, 0.24482815, -130576.47, -130576.47, 0.000055183133, 9.998263, 9.999908 
1.6499206e+2, 3.146106e+2, -88196.21, 93575.23, -68513.84, -0.011842507, 0.23990825, 116506.734, 116506.734, 0.00016346599, 9.998684, 10.001257 
1.750154e+2, 1.2462151e+2, -1492836.6, -1548671.8, -77047.78, -0.083210155, 0.14991635, -1438804.5, 279912.72, 0.0014785845, 10.001161, 10.000557 
1.7501563e+2, 1.3461849e+2, -1463632.8, -1600702.4, 58991.855, -0.19348028, -0.14374541, -1441740.4, 179001.16, 0.00086354057, 10.001266, 9.999475 
1.7501694e+2, 1.4461872e+2, -1382849.0, -1538907.4, -57423.652, -0.06661591, -0.05348267, -1363996.6, 158741.78, 0.00037008742, 10.001255, 9.999228 
1.750157e+2, 1.5461919e+2, -1270587.1, -1458150.0, -53003.68, -0.025695909, 0.045464862, -1256645.1, 168092.8, 0.000094032526, 10.001466, 9.999003 
1.750133e+2, 1.6461895e+2, -1157897.9, -1308637.9, -75893.24, -0.08510596, 0.109109506, -1126308.0, 200433.75, 0.000008393363, 10.001351, 9.999422 
1.7500946e+2, 1.7461763e+2, -1140187.5, -1253412.8, -50307.363, -0.27006343, -0.0008567527, -1121064.9, 107688.414, 0.00000020811186, 10.000826, 9.999377 
1.7500764e+2, 1.8461706e+2, -1113350.9, -1186387.8, -46534.883, -0.26626402, 0.008029287, -1090716.3, 40042.617, 0.0, 10.00033, 9.999396 
1.7500816e+2, 1.9461706e+2, -1083998.0, -1126925.1, -42231.24, -0.050311137, 0.034497667, -1058088.9, -25329.215, 0.0, 9.999887, 9.999343 
1.7500673e+2, 2.0461676e+2, -993113.94, -1050744.8, -83946.46, -0.0060235476, 0.0843279, -933175.0, 1588.7274, 0.0, 9.9999275, 9.999178 
1.7500304e+2, 2.1461588e+2, -816787.56, -924301.0, -78741.984, -0.1607337, 0.045641333, -775202.3, 61571.145, 0.0, 10.000506, 9.999093 
1.7500132e+2, 2.2461574e+2, -651765.06, -764926.4, -23550.52, -0.18765332, 0.114209786, -647059.5, 91716.1, 0.0, 10.000827, 9.999362 
1.750018e+2, 2.3461619e+2, -570388.06, -681985.3, 28670.451, -0.07828252, 0.18977143, -563453.25, 77318.086, 0.0, 10.000743, 9.999301 
1.7500067e+2, 2.4461561e+2, -536174.75, -655937.5, -27053.188, -0.055518884, 0.22580813, -530347.25, 12429.3955, 0.0, 10.000493, 9.99892 
1.7499773e+2, 2.5461376e+2, -529482.25, -614324.2, -34423.746, -0.13495612, 0.11549543, -517272.34, -72478.41, 0.0, 9.999916, 9.998814 
1.7499636e+2, 2.6461217e+2, -476182.94, -585739.9, -9363.193, -0.12857807, 0.09951142, -475388.47, -128578.695, 0.0, 9.999798, 9.998398 
1.749965e+2, 2.746103e+2, -376784.1, -499170.13, -10300.806, -0.052804492, 0.039042827, -375923.16, -127093.78, 0.000000035492793, 9.999862, 9.998287 
1.7499514e+2, 2.8460944e+2, -203131.27, -153479.9, -44549.094, -0.08338779, 0.03769745, -127306.21, 23532.004, 0.0000021240596, 9.9994955, 10.000158 
1.7499281e+2, 2.946102e+2, -235800.38, -86303.664, -1254.6437, -0.17320351, 0.046677455, -86293.13, -33464.02, 0.000013429294, 9.998444, 10.000456 
1.7499323e+2, 3.0461296e+2, -302853.84, -230205.3, -6613.156, 0.04027906, 0.33170688, -229608.22, -229608.22, 0.000050919698, 9.998245, 9.999242 
1.749911e+2, 3.1460902e+2, -115224.41, 74696.46, 33007.63, -0.05009618, 0.0024549658, 80269.54, 80269.54, 0.00014908816, 9.998553, 10.001177 
1.8501674e+2, 1.2462182e+2, -1461931.0, -1505379.6, 108175.44, -0.05786759, 0.068784855, -1373320.0, 345392.44, 0.0014297328, 10.001247, 10.000812 
1.8501723e+2, 1.3461968e+2, -1526970.0, -1636591.4, 119620.766, -0.12548377, -0.12944233, -1450200.5, 170528.2, 0.00082590414, 10.000856, 9.999422 
1.8501888e+2, 1.4461988e+2, -1466934.8, -1580019.1, 33544.508, 0.04165984, -0.039721575, -1457733.1, 64993.258, 0.00034715154, 10.00067, 9.999222 
1.850172e+2, 1.5461998e+2, -1340844.4, -1490496.1, 19702.186, 0.012867034, 0.01739464, -1338293.9, 86435.734, 0.0000844504, 10.000961, 9.999028 
1.850144e+2, 1.6461982e+2, -1225135.4, -1337881.6, -4580.5166, -0.07956742, 0.08459049, -1224949.6, 101783.4, 0.000006352812, 10.000912, 9.999415 
1.8501031e+2, 1.7461897e+2, -1177049.1, -1272852.3, -35766.87, -0.24826534, 0.023834215, -1165169.1, 63570.758, 0.000000056960435, 10.000597, 9.999345 
1.850083e+2, 1.8461834e+2, -1100300.5, -1202180.1, -8007.3706, -0.23472673, 0.03780265, -1099675.0, 31071.145, 0.0, 10.000527, 9.99919 
1.8500863e+2, 1.9461776e+2, -987728.8, -1103784.0, -29453.463, -0.022034172, 0.028783346, -980681.8, 52071.06, 0.0, 10.000653, 9.999135 
1.8500727e+2, 2.0461728e+2, -916020.1, -1026478.56, -29784.977, 0.03679791, 0.07385468, -908500.56, 26258.936, 0.0, 10.000497, 9.999073 
1.8500392e+2, 2.1461664e+2, -898709.8, -975613.2, -42230.71, -0.08717767, 0.06980252, -880047.9, -43279.945, 0.0, 9.999975, 9.9990015 
1.8500204e+2, 2.2461665e+2, -779385.0, -790639.7, 23431.688, -0.14072146, 0.14273001, -760914.44, -22146.082, 0.0, 9.999802, 9.99968 
1.8500178e+2, 2.3461717e+2, -650278.94, -684544.7, -3504.001, -0.11277729, 0.19127378, -649924.3, -9162.613, 0.0, 10.000039, 9.999623 
1.8500054e+2, 2.4461666e+2, -595656.44, -687840.25, -58277.383, -0.09134168, 0.21885356, -567446.8, -24680.936, 0.0, 10.0000925, 9.998898 
1.849983e+2, 2.5461486e+2, -530695.9, -617744.5, -58246.184, -0.059618685, 0.11472847, -501508.53, -56724.977, 0.0, 9.999905, 9.998798 
1.8499699e+2, 2.646134e+2, -449101.56, -524880.3, 58675.035, -0.03957036, 0.09635008, -417145.63, -70348.2, 0.0, 9.999809, 9.9988 
1.8499641e+2, 2.7461192e+2, -327310.63, -426291.5, 91305.64, -0.04417679, 0.03160625, -272945.28, -24133.572, 0.000000044067633, 10.00001, 9.998715 
1.849945e+2, 2.8461087e+2, -161775.6, -138067.11, 41596.9, -0.10265755, -0.005644018, -106668.32, 44152.13, 0.000002141611, 9.99977, 10.000144 
1.8499164e+2, 2.9461104e+2, -179385.3, -67240.69, -27732.248, -0.14431365, -0.052996647, -60757.566, -7941.1157, 0.000012353572, 9.998838, 10.00041 
1.8499188e+2, 3.046143e+2, -316727.72, -257967.52, 24033.732, 0.09407782, 0.29558396, -249389.61, -249389.61, 0.00004451732, 9.998234, 9.999059 
1.8498975e+2, 3.1460944e+2, -176754.45, 2653.9797, 101226.5, -0.011458475, -0.10050985, 48203.785, 48203.785, 0.00012893318, 9.998249, 10.000864 
1.9501765e+2, 1.2462331e+2, -1525601.6, -1615069.8, 47618.656, -0.16897558, -0.10066299, -1505000.6, 213690.11, 0.0013506947, 10.001165, 10.000093 
1.9501871e+2, 1.3462383e+2, -1600408.8, -1774774.3, 112716.664, -0.09694374, 0.0590223, -1545092.8, 75595.63, 0.00077082973, 10.000815, 9.998487 
1.9502032e+2, 1.4462389e+2, -1459535.3, -1553029.4, 25379.184, 0.0775961, 0.17345609, -1453090.3, 69599.6, 0.0003170448, 10.000613, 9.999437 
1.9501747e+2, 1.5462217e+2, -1328493.6, -1454505.5, 43623.934, -0.09303659, 0.021859478, -1314865.4, 109842.516, 0.000073711046, 10.000919, 9.999295 
1.9501469e+2, 1.6462155e+2, -1258099.1, -1398301.5, -27860.24, -0.17728376, 0.04980904, -1252765.9, 73949.15, 0.0000047225935, 10.000861, 9.999035 
1.9501226e+2, 1.7462178e+2, -1211658.5, -1333494.9, -30309.113, -0.1500278, 0.13484627, -1204535.0, 24178.773, 0.0000000036456946, 10.000542, 9.9989605 
1.9501005e+2, 1.8462123e+2, -1126202.9, -1235372.0, -17903.303, -0.14506955, 0.18793741, -1123341.8, 7378.5386, 0.0, 10.000434, 9.999014 
1.9500796e+2, 1.9461969e+2, -1015613.06, -1138859.0, -9923.0205, -0.18511255, 0.09840232, -1014819.25, 17917.11, 0.0, 10.000552, 9.998949 
1.9500634e+2, 2.046188e+2, -935457.5, -1028840.3, -60112.938, -0.13545303, 0.110887945, -906032.9, 28713.22, 0.0, 10.0003395, 9.999128 
1.9500525e+2, 2.1461831e+2, -915369.06, -975296.94, -47773.48, 0.016105998, 0.11710363, -888940.25, -52188.56, 0.0, 9.9998255, 9.999075 
1.9500326e+2, 2.2461745e+2, -829803.56, -857465.75, 16203.843, -0.027098985, 0.11715297, -822330.56, -83570.695, 0.0, 9.999647, 9.999292 
1.9500019e+2, 2.3461595e+2, -702165.4, -751024.5, 19045.33, -0.3037387, 0.0033613017, -695618.7, -54845.97, 0.0, 9.99987, 9.999244 
1.9499853e+2, 2.4461527e+2, -582571.75, -633092.1, -78325.484, -0.3280155, 0.012270019, -525533.94, 17244.852, 0.0, 9.999974, 9.9993305 
1.949985e+2, 2.546154e+2, -521380.8, -560833.8, -51623.89, -0.06232039, 0.05505523, -485842.88, -41064.414, 0.0, 9.999746, 9.999264 
1.9499768e+2, 2.6461568e+2, -374780.56, -359585.3, 51023.508, 0.016848879, 0.12839553, -315596.84, 31177.299, 0.0, 9.999755, 9.999969 
1.949958e+2, 2.7461553e+2, -258539.48, -266152.8, 117669.4, -0.14043829, 0.08612949, -144615.19, 104155.836, 0.000000036761158, 9.999926, 9.999864 
1.949935e+2, 2.8461388e+2, -238287.92, -282884.84, -3246.3752, -0.21156816, -0.025757331, -238052.84, -87267.86, 0.0000018181237, 9.999713, 9.999176 
1.9499099e+2, 2.9461133e+2, -273795.0, -228335.27, -47862.1, -0.13227344, -0.23929876, -198079.97, -145270.22, 0.000010151812, 9.998697, 9.999368 
1.9499059e+2, 3.0461466e+2, -299851.88, -208791.78, 9025.851, 0.1071906, 0.14752972, -207905.77, -207905.77, 0.00003534469, 9.998189, 9.999409 
1.949872e+2, 3.1461224e+2, -214309.94, -32832.965, 189649.97, -0.1588629, -0.0479141, 86667.9, 86667.9, 0.000103030594, 9.998104, 10.000669 
2.050193e+2, 1.2462528e+2, -1561691.8, -1657907.5, -10516.115, -0.097489014, -0.09391682, -1560555.9, 158115.67, 0.0012481128, 10.001042, 9.999859 
2.050196e+2, 1.3462617e+2, -1548198.0, -1773379.4, 46762.996, -0.09777084, 0.12243035, -1538873.0, 81794.05, 0.0007037624, 10.001261, 9.998301 
2.0502125e+2, 1.4462559e+2, -1401133.6, -1487111.0, 27370.955, 0.104443654, 0.17127827, -1393159.6, 129514.9, 0.00028324383, 10.000866, 9.999768 
2.050179e+2, 1.5462424e+2, -1419207.9, -1458449.5, 12547.631, -0.09261877, 0.024408124, -1415538.8, 9148.034, 0.000063005726, 10.000135, 9.999643 
2.0501535e+2, 1.6462366e+2, -1329488.0, -1430878.6, 11966.438, -0.1641499, 0.035444226, -1328094.9, -1402.4248, 0.0000035155435, 10.000365, 9.999053 
2.0501393e+2, 1.7462349e+2, -1062463.9, -1264395.4, 7581.4043, -0.078574754, 0.085631736, -1062179.6, 166515.06, 0.0000000004928599, 10.001576, 9.998943 
2.0501177e+2, 1.8462288e+2, -968863.75, -1175205.1, 27320.246, -0.06515727, 0.1395798, -965307.75, 165394.36, 0.0, 10.001575, 9.998874 
2.0500863e+2, 1.9462167e+2, -1080098.3, -1188263.9, 6457.2056, -0.14728361, 0.09758166, -1079714.1, -46997.94, 0.0, 10.000178, 9.998788 
2.0500648e+2, 2.0462088e+2, -1002403.3, -1055969.9, 18050.281, -0.12310817, 0.12747392, -996888.6, -62163.277, 0.0, 9.999857, 9.999177 
2.0500563e+2, 2.1462035e+2, -785353.4, -904967.0, 5670.4985, 0.037305474, 0.12184172, -785085.2, 51646.117, 0.0, 10.000693, 9.999139 
2.0500371e+2, 2.246194e+2, -692174.8, -807403.56, 85176.78, 0.01135973, 0.11758273, -646956.8, 91783.44, 0.0, 10.000656, 9.999147 
2.0500058e+2, 2.3461774e+2, -757925.2, -799135.06, 76834.14, -0.22674373, 0.0026642736, -698981.1, -58226.09, 0.0, 9.999565, 9.999065 
2.0499876e+2, 2.4461687e+2, -692621.9, -673420.0, 22110.172, -0.25339234, -0.0041796323, -658916.2, -116153.15, 0.0, 9.999167, 9.999438 
2.0499846e+2, 2.546168e+2, -528518.1, -551023.94, -5819.8877, -0.028250838, 0.007958005, -527102.2, -82337.766, 0.0, 9.99965, 9.999374 
2.0499736e+2, 2.6461747e+2, -391100.0, -340027.38, 60098.316, 0.030748175, 0.10333395, -300265.06, 46491.176, 0.0, 9.999518, 10.000217 
2.049953e+2, 2.7461842e+2, -430607.2, -319576.1, 23746.188, -0.108130366, 0.14130177, -314710.72, -65967.84, 0.00000002096579, 9.998616, 10.000123 
2.0499311e+2, 2.846168e+2, -413521.63, -404496.4, -57116.477, -0.16076605, 0.03863331, -351714.56, -200957.6, 0.0000012828043, 9.998691, 9.998826 
2.0499091e+2, 2.946132e+2, -104039.69, -185036.13, -78352.44, -0.066672035, -0.24243073, -56338.08, -3545.3062, 0.000007381431, 10.000037, 9.999017 
2.0498972e+2, 3.0461645e+2, 14739.851, -41843.84, -147.14711, 0.1098936, 0.14947546, 14740.233, 14740.233, 0.00002618385, 10.000281, 9.999561 
2.04986e+2, 3.1461462e+2, -94200.445, -4764.07, 136367.05, -0.12197475, -0.0058074757, 94029.72, 94029.72, 0.000078949044, 9.999088, 10.000382 
2.1502063e+2, 1.246277e+2, -1554228.6, -1631783.5, -40479.35, -0.14320281, 0.08875479, -1536950.1, 181704.69, 0.0011286415, 10.000987, 10.00007 
2.1501955e+2, 1.3462678e+2, -1499483.3, -1684013.0, 67994.54, -0.26509812, 0.064417765, -1477135.4, 143528.4, 0.00062779407, 10.001301, 9.998898 
2.1502115e+2, 1.4462523e+2, -1383379.3, -1442393.9, -17556.473, -0.033410184, -0.030729158, -1378551.4, 144126.77, 0.00024660726, 10.000828, 10.000092 
2.1501808e+2, 1.5462634e+2, -1393220.1, -1409357.3, 933.8602, -0.12670298, 0.033257615, -1393166.3, 31499.139, 0.000052325075, 10.000148, 9.999974 
2.150159e+2, 1.6462615e+2, -1316609.1, -1387915.0, 41055.82, -0.17668243, 0.049888387, -1297886.4, 28778.91, 0.000002586899, 10.000295, 9.999379 
2.1501489e+2, 1.7462404e+2, -1048288.06, -1217146.1, 69003.336, -0.17140368, -0.13223411, -1023677.1, 205006.16, 0.000000000052014764, 10.001504, 9.999295 
2.1501301e+2, 1.8462321e+2, -994373.9, -1204471.4, -34194.375, -0.1290388, -0.11047181, -988948.7, 141743.66, 0.0, 10.001466, 9.998729 
2.150102e+2, 1.9462366e+2, -1097030.1, -1210635.4, -30268.445, -0.044235993, 0.024212318, -1089468.9, -56775.625, 0.0, 10.000114, 9.998666 
2.1500735e+2, 2.0462357e+2, -1013915.44, -1052616.1, 32337.422, -0.051625025, 0.12645255, -995581.0, -60883.535, 0.0, 9.99974, 9.999254 
2.1500462e+2, 2.1462266e+2, -799204.94, -900725.5, 49375.855, -0.16404219, 0.075160034, -779151.5, 57556.06, 0.0, 10.000549, 9.999235 
2.1500295e+2, 2.2462237e+2, -711966.3, -807404.44, 33242.402, -0.15520921, 0.1280114, -701529.0, 37181.797, 0.0, 10.000485, 9.999226 
2.1500255e+2, 2.3462258e+2, -778383.2, -797562.44, 51570.91, -0.015666515, 0.18951662, -735517.9, -94809.67, 0.0, 9.99938, 9.999159 
2.1500085e+2, 2.4462155e+2, -726358.6, -721693.5, 23929.955, 0.0095661385, 0.17678523, -699982.7, -157265.1, 0.0, 9.999072, 9.999157 
2.1499775e+2, 2.5461906e+2, -568368.44, -601114.6, 28126.371, -0.0966417, -0.023063868, -552196.6, -107455.27, 0.0, 9.999511, 9.9991 
2.1499562e+2, 2.6461878e+2, -451271.56, -444471.5, 13917.484, -0.12646118, 0.023714159, -433544.75, -86801.02, 0.0, 9.999432, 9.9995365 
2.1499445e+2, 2.7462044e+2, -501700.13, -434166.88, 5262.4673, -0.08762571, 0.20021114, -433759.28, -185031.34, 0.00000000626477, 9.998475, 9.999401 
2.149929e+2, 2.8461954e+2, -391661.44, -350409.44, -24276.383, -0.08567366, 0.18919364, -339179.9, -188442.89, 0.00000075455597, 9.998654, 9.999214 
2.1499108e+2, 2.946167e+2, -91488.18, -142251.3, -12033.997, -0.09221189, -0.058924057, -88779.87, -36014.652, 0.0000049684672, 9.999965, 9.999347 
2.1498896e+2, 3.046198e+2, 2911.9482, -69481.92, -53226.348, -0.021188078, 0.31297857, 31083.191, 31083.191, 0.000019575336, 10.000287, 9.9993725 
2.1498543e+2, 3.1461656e+2, -151858.39, -105769.25, 158541.14, -0.15933667, 0.036032937, 31393.365, 31393.365, 0.00006230811, 9.999003, 9.999735 
2.2502276e+2, 1.2462949e+2, -1456482.3, -1603520.4, 37827.094, -0.047779515, 0.1589984, -1447321.5, 271319.63, 0.0009987325, 10.001722, 9.999911 
2.2502021e+2, 1.3462837e+2, -1584316.4, -1688288.1, 38816.83, -0.27969313, 0.08230839, -1571423.4, 49227.465, 0.0005469882, 10.000579, 9.999202 
2.2502162e+2, 1.4462662e+2, -1480392.8, -1490952.1, -14375.244, -0.026813183, -0.049962845, -1470358.3, 52308.555, 0.00020906689, 10.000174, 10.000081 
2.2501886e+2, 1.5462825e+2, -1297265.5, -1366878.5, -52513.04, -0.08849945, 0.070971474, -1269071.1, 155578.58, 0.000042237294, 10.00083, 9.999943 
2.250168e+2, 1.6462843e+2, -1236645.3, -1299801.6, 8907.924, -0.12500073, 0.10679231, -1235412.9, 91232.62, 0.0000020119714, 10.000632, 9.99981 
2.250156e+2, 1.7462651e+2, -1322429.5, -1301041.5, 12111.183, -0.14134438, -0.10241186, -1295578.8, -66918.47, 0.0, 9.999419, 9.999714 
2.2501361e+2, 1.8462574e+2, -1278956.1, -1306235.0, -48257.94, -0.10406318, -0.11273401, -1242447.1, -111779.77, 0.0, 9.999359, 9.999047 
2.250108e+2, 1.946262e+2, -1024654.9, -1140823.3, -41308.26, -0.00400558, -0.006622571, -1011463.94, 21202.746, 0.0, 10.000477, 9.998973 
2.2500785e+2, 2.0462617e+2, -863538.06, -985458.9, 66008.48, -0.021620158, 0.09036849, -834646.94, 100022.46, 0.0, 10.000785, 9.999226 
2.2500476e+2, 2.1462539e+2, -878168.75, -945577.2, 49471.42, -0.17010479, 0.05454041, -852011.5, -15332.706, 0.0, 10.000029, 9.999188 
2.2500302e+2, 2.2462524e+2, -791905.3, -830239.1, 44599.645, -0.15854466, 0.11873445, -762528.44, -23847.906, 0.0, 9.99986, 9.999375 
2.250029e+2, 2.3462565e+2, -632031.94, -707993.0, 37306.258, 0.04332652, 0.18550038, -616774.5, 23901.47, 0.0, 10.000308, 9.999327 
2.2500114e+2, 2.4462472e+2, -559247.6, -673747.44, 52488.957, 0.07454599, 0.18612401, -538827.44, 3857.4954, 0.0, 10.000356, 9.998866 
2.2499749e+2, 2.5462204e+2, -523652.7, -618372.5, 26508.34, -0.08619767, -0.000025223693, -516738.72, -72027.68, 0.0, 9.999967, 9.998768 
2.2499508e+2, 2.6462126e+2, -444404.97, -482468.03, 32753.398, -0.12841895, 0.028028082, -425555.3, -78835.766, 0.0, 9.999661, 9.999163 
2.2499403e+2, 2.7462208e+2, -364202.7, -407815.0, 18209.627, -0.022746975, 0.15675572, -357599.38, -108886.48, 0.00000000006385136, 9.999588, 9.999045 
2.2499281e+2, 2.8462124e+2, -275118.7, -294547.0, 56360.242, 0.010035728, 0.17126799, -227641.56, -76919.67, 0.00000032397858, 9.999448, 9.999219 
2.2499123e+2, 2.9461947e+2, -211460.83, -205959.14, 7179.8325, -0.024601616, 0.028385472, -201021.22, -148281.1, 0.000003287384, 9.999175, 9.999282 
2.2498825e+2, 3.046219e+2, -171488.95, -189047.56, -53626.19, -0.056705642, 0.3573327, -125928.18, -125928.18, 0.00001601569, 9.999244, 9.999047 
2.2498536e+2, 3.146179e+2, -65709.99, -66089.41, 118323.17, -0.07781796, 0.021059236, 52423.625, 52423.625, 0.000054019332, 9.999592, 9.9997225 
2.3502505e+2, 1.2463058e+2, -1499909.5, -1690024.3, -26276.273, -0.06837293, 0.10017077, -1496344.6, 222286.89, 0.0008678289, 10.001711, 9.999328 
2.3502107e+2, 1.3463083e+2, -1582569.4, -1697361.4, -2084.42, -0.2859829, 0.17792772, -1582531.5, 38098.02, 0.00046623294, 10.000615, 9.999134 
2.3502208e+2, 1.4462951e+2, -1513748.5, -1533010.8, -8911.053, -0.0322721, 0.10162801, -1510258.5, 12384.717, 0.00017258529, 10.000066, 9.999845 
2.3501982e+2, 1.5462984e+2, -1322751.8, -1411531.0, -9823.457, -0.11142114, 0.12439744, -1321677.8, 102963.11, 0.000033446406, 10.000796, 9.999656 
2.3501764e+2, 1.6463037e+2, -1219840.4, -1241541.1, -50119.684, -0.13953607, 0.19051535, -1179410.1, 147224.47, 0.0000017722703, 10.000538, 10.0002575 
2.3501565e+2, 1.7463072e+2, -1292398.6, -1226117.0, -19062.342, -0.1110446, 0.15973553, -1221025.9, 7601.747, 0.0000000001389195, 9.999363, 10.00026 
2.3501313e+2, 1.8463042e+2, -1248245.3, -1212938.6, -22577.402, -0.116847195, 0.13188466, -1201932.3, -71304.52, 0.0, 9.999238, 9.999747 
2.3500998e+2, 1.9462916e+2, -987319.7, -1046107.0, 14076.297, -0.1648345, 0.00074913405, -984123.0, 48514.75, 0.0, 10.0004, 9.999662 
2.3500744e+2, 2.0462859e+2, -894555.0, -1009637.56, 26428.066, -0.16522534, 0.008810373, -888776.1, 45866.67, 0.0, 10.000618, 9.999136 
2.3500563e+2, 2.1462846e+2, -910395.8, -973769.6, 37600.375, -0.11490091, 0.051231842, -892911.1, -56265.89, 0.0, 9.99986, 9.999075 
2.3500356e+2, 2.2462802e+2, -805024.94, -817258.44, 49407.535, -0.1187865, 0.08233826, -761356.94, -22707.475, 0.0, 9.999692, 9.999546 
2.350012e+2, 2.3462698e+2, -639144.3, -692022.94, 70664.914, -0.18866232, -0.009351463, -590134.56, 50523.68, 0.0, 10.000173, 9.999505 
2.3499909e+2, 2.4462625e+2, -593875.94, -723525.44, 25126.959, -0.20034276, 0.01702785, -589176.5, -46510.46, 0.0, 10.0002575, 9.998572 
2.3499721e+2, 2.5462574e+2, -566184.0, -671976.2, 25630.92, -0.14674328, 0.07568674, -560301.4, -115627.23, 0.0, 9.999816, 9.998471 
2.3499532e+2, 2.6462495e+2, -461846.47, -497982.7, 14837.013, -0.10003262, 0.12266205, -456535.25, -109852.19, 0.0, 9.999577, 9.999099 
2.3499367e+2, 2.7462327e+2, -384896.94, -423181.66, 32908.43, -0.051483113, 0.011187709, -365968.38, -117270.336, 0.0, 9.999465, 9.999004 
2.3499231e+2, 2.8462198e+2, -307046.4, -348360.1, 33792.28, -0.01827005, -0.0053900974, -288097.38, -137386.36, 0.00000009734078, 9.999396, 9.998873 
2.3499084e+2, 2.9462156e+2, -261203.27, -287257.9, 12751.987, -0.02448762, 0.025378175, -256000.83, -203283.11, 0.0000024854203, 9.99907, 9.998782 
2.3498704e+2, 3.0462283e+2, -193363.33, -228155.73, -49627.457, -0.13565022, 0.28429314, -158171.39, -158171.39, 0.000014818684, 9.999223, 9.998789 
2.3498505e+2, 3.1461883e+2, -27323.932, 29118.035, 174347.08, -0.1400663, -0.029282646, 177513.39, 177513.39, 0.00005156838, 9.999518, 10.000419 
2.450273e+2, 1.2463257e+2, -1555947.0, -1730961.1, 24293.373, 0.014320496, 0.11936944, -1552637.4, 165977.17, 0.00074233726, 10.001422, 9.999174 
2.450222e+2, 1.3463299e+2, -1527652.3, -1660896.9, -22890.35, -0.24035606, 0.20696102, -1523829.5, 96781.195, 0.00038816038, 10.000967, 9.999212 
2.4502249e+2, 1.446321e+2, -1477696.1, -1487246.1, 57276.094, 0.0067470046, 0.15628, -1424996.4, 97623.37, 0.00013769997, 10.000177, 10.000102 
2.450199e+2, 1.5463229e+2, -1530507.3, -1483432.5, 64976.51, -0.09423254, 0.13486618, -1437861.6, -13243.65, 0.000025817635, 9.999259, 9.999893 
2.4501772e+2, 1.6463284e+2, -1410206.1, -1338644.6, 59103.867, -0.11196009, 0.19519211, -1305334.6, 21276.88, 0.0000016011192, 9.999245, 10.000228 
2.4501634e+2, 1.7463355e+2, -1183269.8, -1176467.9, 21249.238, -0.0058435644, 0.20436087, -1158349.1, 70253.375, 0.0000000006420841, 10.000125, 10.000241 
2.450138e+2, 1.8463333e+2, -1073550.1, -1108548.1, 21117.023, -0.01991491, 0.17844221, -1063623.9, 66977.31, 0.0, 10.00036, 9.999916 
2.4500987e+2, 1.946318e+2, -1069764.6, -1065373.6, -6884.3066, -0.17503439, 0.0016027556, -1060343.3, -27732.182, 0.0, 9.999761, 9.999827 
2.4500726e+2, 2.0463103e+2, -994549.9, -1040886.6, 9982.961, -0.19812642, -0.026233133, -992490.6, -57874.598, 0.0, 9.9998665, 9.999275 
2.4500641e+2, 2.1463086e+2, -789037.4, -898391.4, 7821.639, -0.052672792, -0.0025839347, -788480.75, 48137.023, 0.0, 10.000634, 9.999211 
2.4500445e+2, 2.2463031e+2, -684417.9, -793037.06, 30603.676, -0.03936026, 0.025192065, -676388.75, 62234.88, 0.0, 10.000668, 9.999242 
2.4500129e+2, 2.3462914e+2, -712086.44, -760523.1, -8907.707, -0.17226583, -0.049694818, -710500.2, -69864.016, 0.0, 9.9998255, 9.9992 
2.4499884e+2, 2.4462862e+2, -694745.4, -741052.7, -21470.44, -0.2007551, 0.001631977, -686322.56, -143679.94, 0.0, 9.999428, 9.998863 
2.449972e+2, 2.5462875e+2, -585927.44, -643386.0, -2133.5254, -0.10346098, 0.09281335, -585848.3, -141204.98, 0.0, 9.999525, 9.998812 
2.4499533e+2, 2.6462793e+2, -461247.1, -522081.0, 40398.227, -0.054386992, 0.13011438, -441095.22, -94443.3, 0.0, 9.999666, 9.9988985 
2.4499342e+2, 2.7462572e+2, -342694.75, -422593.34, 18371.123, -0.031413022, -0.014192555, -338673.1, -90000.945, 0.0, 9.999845, 9.998824 
2.4499214e+2, 2.8462434e+2, -224785.78, -315176.56, 52975.008, 0.0054161316, -0.029755866, -200346.6, -49660.895, 0.00000009803459, 9.999979, 9.998829 
2.4499084e+2, 2.9462385e+2, -117924.125, -221877.17, 26487.889, 0.03018125, -0.0032017925, -111563.98, -58872.32, 0.0000023443192, 10.000066, 9.998754 
2.449862e+2, 3.0462396e+2, -130303.61, -232404.55, 13179.836, -0.15726015, 0.1597349, -128629.72, -128629.72, 0.000014153015, 9.999806, 9.998481 
2.4498484e+2, 3.1462178e+2, -103392.99, 34967.996, 154986.98, -0.063140035, 0.050894015, 135513.47, 135513.47, 0.00004937861, 9.998847, 10.000769 
2.5502852e+2, 1.2463557e+2, -1545558.0, -1702269.3, -3454.6921, -0.077457085, 0.21885712, -1545481.9, 173107.63, 0.00062344765, 10.001388, 9.9993925 
2.5502324e+2, 1.3463475e+2, -1503285.5, -1607548.5, -30331.504, -0.26233536, 0.1527631, -1495103.8, 125491.95, 0.0003143659, 10.00096, 9.999582 
2.5502262e+2, 1.4463432e+2, -1439690.5, -1392574.3, 3800.3235, -0.040354222, 0.098241456, -1392269.8, 130327.44, 0.00010539114, 10.000114, 10.000777 
2.550185e+2, 1.5463546e+2, -1486733.1, -1380561.4, 43691.9, -0.1948489, 0.09935805, -1364893.4, 59688.867, 0.000019009012, 9.999212, 10.000616 
2.5501657e+2, 1.6463582e+2, -1454443.1, -1410196.4, 74679.48, -0.18136023, 0.12163507, -1354432.3, -27855.432, 0.0000013062046, 9.999159, 9.999778 
2.5501722e+2, 1.7463505e+2, -1226042.6, -1255020.1, 70926.19, 0.036616042, 0.036611523, -1168140.4, 60443.984, 0.000000000635992, 10.000083, 9.999722 
2.5501522e+2, 1.8463455e+2, -1110943.4, -1165662.9, -11235.82, 0.052286867, 0.02816581, -1108726.1, 21861.025, 0.0, 10.000267, 9.999569 
2.5501004e+2, 1.9463407e+2, -1104086.6, -1116138.6, -13864.507, -0.17089833, -0.016828977, -1094995.3, -62407.844, 0.0, 9.999665, 9.999524 
2.5500703e+2, 2.0463343e+2, -1003124.9, -1016510.3, 25672.852, -0.23708187, -0.026460957, -983286.7, -48696.65, 0.0, 9.99969, 9.999526 
2.5500664e+2, 2.1463242e+2, -789767.75, -866385.56, 50630.57, -0.1216423, -0.11568239, -764586.3, 72011.6, 0.0, 10.000492, 9.999498 
2.5500524e+2, 2.24632e+2, -755515.06, -908217.2, -13588.444, -0.053478844, -0.055018395, -754315.3, -15711.14, 0.0, 10.000528, 9.998518 
2.5500268e+2, 2.3463199e+2, -786924.3, -881704.2, -25924.523, -0.043738645, 0.060276475, -780296.75, -139685.67, 0.0, 9.999675, 9.998441 
2.5500005e+2, 2.4463171e+2, -650462.56, -622106.2, -33624.734, -0.05163581, 0.13237512, -599792.7, -57176.87, 0.0, 9.999317, 9.99973 
2.5499713e+2, 2.5463086e+2, -543991.6, -521631.8, 13579.704, -0.09301992, 0.03644082, -515221.97, -70601.37, 0.0, 9.999375, 9.999721 
2.5499463e+2, 2.646301e+2, -498185.2, -571441.5, 31966.166, -0.1206747, 0.047626235, -486197.94, -139570.89, 0.0, 9.999559, 9.998608 
2.5499287e+2, 2.7462924e+2, -383753.56, -479642.53, 40398.44, -0.10521623, 0.071368046, -369002.72, -120365.55, 0.0, 9.99972, 9.998497 
2.549919e+2, 2.8462815e+2, -215702.28, -277877.28, 41648.363, -0.050825123, 0.087746985, -194818.45, -44170.914, 0.00000013920514, 9.999908, 9.999114 
2.5499076e+2, 2.9462627e+2, -119387.8, -185858.02, 43837.586, -0.021249333, -0.05724412, -97611.03, -44948.066, 0.0000022917138, 9.999907, 9.999074 
2.549853e+2, 3.0462515e+2, -161507.75, -284837.9, -28548.342, -0.2575994, -0.01881238, -155219.97, -155219.97, 0.0000129202135, 9.999758, 9.998138 
2.5498375e+2, 3.1462604e+2, -132596.05, -6710.0615, 133662.33, -0.12532932, 0.22723138, 78088.07, 78088.07, 0.000045825393, 9.998766, 10.000522 
2.6503e+2, 1.2463904e+2, -1536767.8, -1683272.8, 151929.08, -0.04778884, 0.21806103, -1441353.8, 277200.56, 0.00051409315, 10.001335, 9.999561 
2.6502457e+2, 1.3463792e+2, -1530238.4, -1623023.0, 19906.564, -0.19895205, 0.113275975, -1526147.9, 94415.08, 0.0002486299, 10.000739, 9.9995985 
2.6502326e+2, 1.4463764e+2, -1430645.5, -1414468.3, 56817.465, 0.014168819, 0.08469084, -1365166.6, 157395.98, 0.00007773356, 10.000297, 10.000539 
2.6501894e+2, 1.546383e+2, -1293515.1, -1318183.1, -7376.3447, -0.13359055, 0.06327887, -1291477.6, 133074.56, 0.000013419433, 10.000652, 10.000361 
2.6501685e+2, 1.6463837e+2, -1256327.3, -1341652.3, 45252.98, -0.13534935, 0.08081688, -1236797.1, 89752.74, 0.0000010267595, 10.00064, 9.999527 
2.650172e+2, 1.7463763e+2, -1232917.6, -1285995.1, 30301.78, 0.029727152, 0.019960184, -1219176.1, 9381.86, 0.0000000012219834, 10.000155, 9.999465 
2.6501542e+2, 1.8463707e+2, -1113537.9, -1188164.4, -12626.989, 0.05108069, 0.027298361, -1111459.3, 19102.805, 0.0, 10.000348, 9.999377 
2.6501122e+2, 1.9463648e+2, -896420.1, -1038095.4, -38417.08, -0.08356933, -0.0040775356, -886673.4, 145890.23, 0.0, 10.001188, 9.999331 
2.6500824e+2, 2.0463562e+2, -813291.3, -948534.2, 5401.059, -0.14501399, -0.016922647, -813075.94, 121492.984, 0.0, 10.001082, 9.99933 
2.6500672e+2, 2.1463427e+2, -912699.1, -949994.6, -33717.28, -0.11939984, -0.11893065, -892816.44, -56236.008, 0.0, 9.99975, 9.999288 
2.650049e+2, 2.2463389e+2, -903043.7, -934074.0, -43045.64, -0.072210714, -0.061826218, -872802.44, -134216.92, 0.0, 9.999307, 9.998936 
2.6500285e+2, 2.3463447e+2, -732322.75, -809439.06, 956.7579, 0.0056160465, 0.06939416, -732310.9, -91726.03, 0.0, 9.999843, 9.998862 
2.6500043e+2, 2.4463424e+2, -537763.4, -578687.6, 40958.066, 0.02285315, 0.13130715, -512440.53, 30147.67, 0.0, 10.000151, 9.999622 
2.6499742e+2, 2.546329e+2, -427238.2, -478057.03, -15110.026, -0.035291836, -0.00404657, -423084.94, 21513.504, 0.0, 10.000241, 9.999596 
2.6499477e+2, 2.6463196e+2, -408285.53, -519791.13, -157.72064, -0.082996115, -0.0066129086, -408285.3, -61678.633, 0.0, 10.000135, 9.998685 
2.649929e+2, 2.7463153e+2, -358822.78, -450517.22, 7718.185, -0.07228259, 0.05136197, -358177.66, -109565.32, 0.0, 9.999834, 9.998632 
2.649918e+2, 2.8463075e+2, -260619.0, -281948.7, 48278.305, -0.020611957, 0.082544476, -221841.61, -71222.16, 0.00000017298198, 9.999521, 9.99927 
2.649905e+2, 2.946288e+2, -197736.05, -197016.05, 13210.339, 0.006984734, -0.08723897, -184160.8, -131525.67, 0.000002277503, 9.999245, 9.999319 
2.649846e+2, 3.0462754e+2, -232864.19, -320873.22, -28190.055, -0.26061785, -0.07999746, -224609.0, -224609.0, 0.000011809922, 9.999248, 9.998158 
2.649833e+2, 3.1462824e+2, -131153.58, -10173.944, 84723.72, -0.033059895, 0.1530298, 33437.758, 33437.758, 0.000042458643, 9.998752, 10.000522 
2.7503118e+2, 1.24642976e+2, -1527410.8, -1663378.5, 106374.88, -0.143707, 0.114543214, -1469151.1, 249357.95, 0.00042131313, 10.001321, 9.99971 
2.7502543e+2, 1.3464265e+2, -1544582.9, -1655688.4, 1230.0697, -0.22429588, 0.11007921, -1544569.3, 75941.99, 0.0001952308, 10.000751, 9.999368 
2.7502385e+2, 1.4464217e+2, -1516156.6, -1583577.4, 46488.92, -0.0017797197, 0.13036555, -1492442.3, 30072.691, 0.000056360343, 10.000261, 9.999397 
2.750209e+2, 1.5464096e+2, -1381248.9, -1488644.8, 23526.85, -0.040276174, 0.03927031, -1376321.1, 48205.355, 0.000009372096, 10.000611, 9.99921 
2.750182e+2, 1.6464065e+2, -1265881.6, -1348393.9, 14854.57, -0.09914396, 0.08018341, -1263288.9, 63240.445, 0.0000008660051, 10.000584, 9.999506 
2.750157e+2, 1.7464124e+2, -1242766.0, -1291683.1, 26971.27, -0.1728501, 0.1502586, -1230814.8, -2291.144, 0.000000004874734, 10.000095, 9.9994545 
2.75014e+2, 1.8464077e+2, -1139358.1, -1213702.1, 2837.413, -0.1564117, 0.17470491, -1139250.0, -8723.32, 0.0, 10.000229, 9.999258 
2.7501306e+2, 1.9463897e+2, -918472.25, -1060363.4, 10272.32, -0.050464425, 0.03311347, -917732.44, 114808.39, 0.0, 10.001094, 9.999221 
2.7501053e+2, 2.046376e+2, -877511.1, -1051845.0, -56120.242, -0.052071385, 0.008055731, -861007.7, 73545.055, 0.0, 10.000956, 9.99868 
2.7500615e+2, 2.1463639e+2, -983678.25, -1055772.9, -69152.76, -0.18302764, -0.016033262, -941741.5, -105175.82, 0.0, 9.999574, 9.998643 
2.7500302e+2, 2.2463602e+2, -826188.75, -732421.56, -39036.1, -0.21992935, 0.0034591507, -718297.9, 20269.875, 0.0, 9.9991255, 10.000409 
2.7500135e+2, 2.3463643e+2, -647481.3, -595359.25, 34266.297, -0.15838628, -0.03622559, -578369.7, 62189.555, 0.0, 9.999675, 10.000417 
2.7499956e+2, 2.446361e+2, -629599.56, -740682.6, 31942.879, -0.10487037, -0.013115552, -621069.2, -78508.086, 0.0, 10.0000305, 9.998566 
2.7499762e+2, 2.5463465e+2, -527912.6, -658099.5, 4023.9478, -0.07456797, -0.043264095, -527788.4, -83210.14, 0.0, 10.000109, 9.998427 
2.7499533e+2, 2.646334e+2, -392176.38, -461963.75, -28361.354, -0.070602916, -0.039845664, -382104.13, -35512.64, 0.0, 10.000041, 9.999124 
2.7499303e+2, 2.7463236e+2, -347936.2, -395939.66, 9252.214, -0.07229713, -0.09235457, -346214.66, -97614.27, 0.00000000009324417, 9.999699, 9.999072 
2.7499154e+2, 2.8463182e+2, -262735.94, -272455.47, 21214.043, -0.033159837, -0.060866755, -245832.14, -95227.29, 0.00000023612336, 9.999463, 9.99936 
2.7498963e+2, 2.9463124e+2, -199526.78, -182874.4, 24234.639, -0.051367417, -0.10025379, -165575.55, -112965.54, 0.0000024951785, 9.999156, 9.999462 
2.7498364e+2, 3.0463117e+2, -201173.34, -232736.14, -49687.805, -0.312662, -0.019044546, -164820.97, -164820.97, 0.0000116764495, 9.999184, 9.998777 
2.749825e+2, 3.146286e+2, -148152.83, 9494.891, 74628.91, -0.05746566, -0.16257855, 39219.063, 39219.063, 0.000040637482, 9.998541, 10.00075 
2.8503293e+2, 1.24646105e+2, -1583141.0, -1687187.8, 68490.16, -0.06880373, 0.040748555, -1549156.6, 169317.9, 0.00034670465, 10.000965, 9.999697 
2.8502694e+2, 1.3464619e+2, -1468757.8, -1642156.3, -112214.66, -0.16527921, 0.10216651, -1413651.3, 206822.34, 0.00015383656, 10.001404, 9.999127 
2.8502446e+2, 1.4464547e+2, -1399800.6, -1591166.9, -2685.993, -0.006305777, 0.13666616, -1399762.9, 122718.19, 0.00004093297, 10.001334, 9.998827 
2.8502187e+2, 1.546438e+2, -1361679.1, -1538648.5, -12453.132, -0.01173036, 0.054731328, -1360807.1, 63691.434, 0.0000066741927, 10.000996, 9.998683 
2.850191e+2, 1.6464303e+2, -1256248.5, -1356704.1, 18245.928, -0.06156314, 0.08247779, -1253037.1, 73468.86, 0.00000074756446, 10.0007105, 9.999396 
2.850162e+2, 1.7464313e+2, -1184937.4, -1279219.6, -7291.4063, -0.14630297, 0.11910094, -1184376.9, 44127.043, 0.000000006090155, 10.000549, 9.999335 
2.850145e+2, 1.8464258e+2, -1131990.1, -1212391.9, 20580.64, -0.12354278, 0.14175156, -1127028.3, 3479.653, 0.0, 10.000294, 9.999231 
2.850141e+2, 1.9464105e+2, -1096775.1, -1151331.6, 7301.001, 0.013760002, 0.03165725, -1095814.9, -63294.05, 0.0, 9.999883, 9.99918 
2.8501156e+2, 2.0464e+2, -1000543.44, -1084696.3, -21449.979, 0.011572723, 0.02643901, -995391.44, -60861.03, 0.0, 10.000011, 9.9989 
2.850065e+2, 2.1463917e+2, -812775.9, -948924.44, 1559.0863, -0.14623211, 0.020355059, -812758.0, 23780.697, 0.0, 10.000645, 9.998859 
2.8500292e+2, 2.2463864e+2, -625253.8, -650501.44, 45170.504, -0.20594577, 0.02142209, -590976.3, 147565.22, 0.0, 10.000585, 10.000261 
2.85001e+2, 2.3463836e+2, -648084.6, -610562.5, -39208.637, -0.15436788, -0.071625955, -585857.56, 54681.45, 0.0, 9.99975, 10.000268 
2.8499928e+2, 2.4463771e+2, -722300.56, -792875.25, -30694.232, -0.09915905, -0.07246562, -710818.94, -168274.83, 0.0, 9.999409, 9.998506 
2.8499773e+2, 2.546365e+2, -599929.94, -694198.2, -4646.033, -0.03801424, -0.07627403, -599701.5, -155142.06, 0.0, 9.999631, 9.998401 
2.8499538e+2, 2.6463568e+2, -434457.72, -435687.84, 17027.686, -0.036775474, -0.04690067, -418034.0, -71465.89, 0.0, 9.999541, 9.999551 
2.8499255e+2, 2.746351e+2, -411142.38, -376899.84, 22179.156, -0.04729025, -0.09763968, -366002.3, -117430.97, 0.0000000018932573, 9.999027, 9.9995365 
2.8499073e+2, 2.846346e+2, -403954.47, -354097.63, 71123.01, -0.0056342627, -0.082978435, -303660.88, -153084.63, 0.00000028816427, 9.998555, 9.999238 
2.849889e+2, 2.9463404e+2, -316004.9, -244483.6, 29725.7, 0.011840061, -0.110185444, -233742.19, -181157.95, 0.0000027347362, 9.998403, 9.99939 
2.8498328e+2, 3.0463505e+2, -238039.38, -222141.7, -37389.85, -0.23138864, 0.069227174, -191865.1, -191865.1, 0.000012525966, 9.998783, 9.999046 
2.8498173e+2, 3.146316e+2, -87429.15, 82424.84, -7905.9966, 0.017385922, -0.18891628, 82792.04, 82792.04, 0.00004059471, 9.998764, 10.001136 
2.9503405e+2, 1.2464868e+2, -1592867.1, -1722440.5, 39001.17, -0.13630345, 0.018526807, -1582033.6, 136414.22, 0.00028489743, 10.001014, 9.999436 
2.9502875e+2, 1.3464853e+2, -1492925.5, -1697820.5, -87909.445, -0.16471706, 0.08538285, -1460378.4, 160072.05, 0.000121053716, 10.001427, 9.998734 
2.9502484e+2, 1.4464743e+2, -1397316.5, -1585819.6, -36652.965, -0.14866243, 0.101199366, -1390440.5, 132021.63, 0.000029834508, 10.001323, 9.998875 
2.9502133e+2, 1.546467e+2, -1362438.8, -1532296.5, -12676.02, -0.20121986, 0.104868345, -1361498.0, 62971.48, 0.000004731658, 10.000962, 9.998744 
2.9501906e+2, 1.6464546e+2, -1281809.4, -1389688.0, -995.20575, -0.16697209, 0.09257538, -1281800.1, 44680.45, 0.00000054097734, 10.000637, 9.999197 
2.9501823e+2, 1.7464353e+2, -1206412.5, -1306879.1, 4994.702, -0.034587856, -0.058814663, -1206164.8, 22332.04, 0.0000000012704189, 10.000493, 9.999162 
2.950165e+2, 1.8464267e+2, -1141145.1, -1213714.3, -9662.613, 0.016485414, -0.05934471, -1139880.6, -9376.607, 0.0, 10.00021, 9.999269 
2.9501382e+2, 1.9464274e+2, -1108715.1, -1152028.3, 5599.298, -0.03594006, -0.013583101, -1108003.0, -75498.94, 0.0, 9.999781, 9.999225 
2.9501086e+2, 2.0464274e+2, -949083.56, -940249.94, -12210.951, -0.086420335, 0.035017166, -931681.5, 2820.8237, 0.0, 9.99985, 9.99997 
2.9500738e+2, 2.1464251e+2, -762491.06, -801435.75, 41721.855, -0.15269612, -0.021274392, -735921.2, 100579.41, 0.0, 10.000462, 9.999959 
2.9500422e+2, 2.2464177e+2, -777215.9, -922264.4, 711.71094, -0.1636596, -0.013797036, -777212.4, -38705.418, 0.0, 10.0004015, 9.998481 
2.9500148e+2, 2.3464024e+2, -806869.2, -898309.1, -54902.883, -0.111717395, -0.04175986, -781142.4, -140617.72, 0.0, 9.999576, 9.998373 
2.9499924e+2, 2.4463911e+2, -668607.44, -658007.2, -39513.68, -0.07538412, -0.039784696, -623439.75, -80903.09, 0.0, 9.999304, 9.999487 
2.9499736e+2, 2.5463828e+2, -542802.75, -548120.94, 16648.139, -0.072311476, -0.109746724, -528602.7, -84059.18, 0.0, 9.999507, 9.999471 
2.9499447e+2, 2.646386e+2, -409849.53, -364836.4, -13863.769, -0.113589175, -0.046465915, -360909.1, -14370.25, 0.0, 9.99946, 10.000073 
2.949908e+2, 2.7463984e+2, -395508.2, -310475.4, 16178.529, -0.15755609, 0.030922718, -307501.28, -58975.918, 0.0000000016821552, 9.998887, 10.000057 
2.949889e+2, 2.8463927e+2, -430731.9, -402806.03, 49313.324, -0.07814377, 0.031088376, -365516.97, -214985.22, 0.00000022409213, 9.99852, 9.998925 
2.94988e+2, 2.9463702e+2, -359996.44, -323207.78, 51321.99, 0.034294132, -0.12545042, -287083.3, -234524.88, 0.0000026534976, 9.998328, 9.9988985 
2.9498315e+2, 3.0463898e+2, -243627.08, -216716.13, -38259.78, -0.1570237, 0.17561954, -189614.72, -189614.72, 0.00001292508, 9.99872, 9.999105 
2.9497987e+2, 3.1463706e+2, -65789.33, 150227.39, 36598.504, -0.12512927, 0.04692299, 156259.63, 156259.63, 0.000040888393, 9.998665, 10.001645 
3.050356e+2, 1.2465131e+2, -1578620.4, -1726330.0, 85896.57, -0.078044675, -0.001326597, -1539193.5, 179228.17, 0.00023189843, 10.001173, 9.999336 
3.0503124e+2, 1.3465114e+2, -1435631.5, -1667572.8, -62027.37, -0.06317605, 0.06306475, -1420085.6, 200338.03, 0.000094942065, 10.001803, 9.998764 
3.050265e+2, 1.4464968e+2, -1341728.9, -1540667.1, 7662.6597, -0.12193055, 0.0349445, -1341434.1, 181003.88, 0.000021738364, 10.001652, 9.999012 
3.0502233e+2, 1.5464935e+2, -1344883.8, -1509870.0, -4791.0483, -0.1895274, 0.065581374, -1344744.8, 79696.21, 0.0000030875526, 10.001025, 9.998861 
3.050199e+2, 1.6464823e+2, -1265682.4, -1396190.4, 64441.88, -0.14503595, 0.06409055, -1239225.8, 87225.016, 0.0000002653173, 10.000782, 9.999088 
3.0501938e+2, 1.7464611e+2, -1157086.9, -1296301.0, 46425.223, 0.023146397, -0.09422921, -1143025.3, 85444.36, 0.0, 10.000869, 9.999061 
3.0501744e+2, 1.846453e+2, -1036122.56, -1152265.1, 56888.11, 0.06310657, -0.09066611, -1012900.94, 117575.73, 0.0, 10.000882, 9.999369 
3.0501384e+2, 1.9464564e+2, -967315.06, -1081428.0, 44966.73, -0.053123914, -0.024623772, -951725.5, 80748.42, 0.0, 10.000717, 9.999272 
3.050107e+2, 2.0464574e+2, -871839.94, -901743.8, 34310.61, -0.1057858, 0.028975211, -849364.94, 85106.88, 0.0, 10.000372, 9.999987 
3.0500808e+2, 2.146454e+2, -855356.75, -849634.2, -25483.06, -0.08498359, -0.037084438, -826852.25, 9619.298, 0.0, 9.999826, 9.99994 
3.050052e+2, 2.2464468e+2, -888595.5, -1003078.5, -31898.477, -0.06433605, -0.017257182, -880307.6, -141828.6, 0.0, 9.999743, 9.998251 
3.05002e+2, 2.3464325e+2, -737411.94, -892699.06, 8998.907, -0.033591963, -0.012149113, -736892.2, -96394.8, 0.0, 10.000162, 9.998137 
3.0499923e+2, 2.4464235e+2, -555557.44, -526446.44, 99428.016, -0.021913664, -0.005513398, -440514.16, 101992.26, 0.0, 9.999786, 10.000144 
3.049967e+2, 2.5464192e+2, -607729.06, -495761.44, 96916.83, -0.04100558, -0.10620511, -439820.9, 4685.4224, 0.0, 9.998732, 10.000192 
3.0499366e+2, 2.6464233e+2, -560527.2, -482423.22, 70464.52, -0.09416666, -0.053163376, -440912.78, -94412.49, 0.0, 9.99862, 9.999671 
3.0499026e+2, 2.746433e+2, -309183.28, -317483.06, 1939.3191, -0.13382535, 0.046262708, -308752.5, -60260.953, 0.00000000014964384, 9.999694, 9.999617 
3.0498832e+2, 2.8464258e+2, -210406.7, -301959.94, 16892.451, -0.055907346, 0.052646123, -207389.33, -56888.332, 0.00000013461268, 10.000074, 9.998862 
3.049872e+2, 2.9464027e+2, -193046.38, -245725.45, 13526.39, 0.07119508, -0.105411224, -189776.2, -137248.7, 0.0000024184974, 9.99952, 9.998838 
3.049824e+2, 3.0464208e+2, -188373.94, -192564.16, -25090.771, -0.10881504, 0.18919669, -165290.95, -165290.95, 0.00001259153, 9.999088, 9.999117 
3.0497897e+2, 3.1464052e+2, -128165.32, 105403.41, -4406.694, -0.044598076, 0.09333359, 105486.516, 105486.516, 0.000039642433, 9.998271, 10.001558 
3.1503677e+2, 1.2465419e+2, -1569325.4, -1709296.8, 33057.49, -0.15250736, 0.00299939, -1561910.9, 156483.11, 0.0001887222, 10.001188, 9.999441 
3.1503388e+2, 1.3465421e+2, -1415950.3, -1608993.3, -29346.137, -0.013546643, 0.046162274, -1411587.8, 208803.81, 0.00007509751, 10.001748, 9.999187 
3.1502882e+2, 1.4465235e+2, -1339780.9, -1529529.3, -33141.64, -0.0987197, -0.048928335, -1334158.9, 188249.13, 0.00001598166, 10.001612, 9.999107 
3.150244e+2, 1.546517e+2, -1342435.5, -1500347.4, -12964.058, -0.12534572, -0.06168708, -1341378.4, 83035.09, 0.00000170519, 10.001009, 9.998932 
3.150213e+2, 1.6465127e+2, -1273989.9, -1401486.8, 45512.598, -0.120117836, 0.0028981727, -1259410.4, 67007.12, 0.000000057148895, 10.000724, 9.999085 
3.150193e+2, 1.7465085e+2, -1164496.4, -1297723.3, 60425.906, -0.1041418, 0.014353722, -1141173.0, 87249.61, 0.0, 10.000808, 9.99908 
3.1501675e+2, 1.846505e+2, -1042720.4, -1140793.9, 36257.043, -0.1236993, 0.055773873, -1030772.1, 99653.55, 0.0, 10.000771, 9.999502 
3.150136e+2, 1.9464986e+2, -970399.56, -1062074.4, 53814.508, -0.18256482, 0.0062033804, -945547.0, 86882.83, 0.0, 10.00061, 9.9994545 
3.1501067e+2, 2.046491e+2, -973927.44, -1072692.3, -838.8626, -0.17105246, 0.019644445, -973920.3, -39483.117, 0.0, 10.000201, 9.998896 
3.1500825e+2, 2.14648e+2, -960502.6, -1025498.44, -30315.217, -0.08353035, -0.010894658, -948558.1, -112107.84, 0.0, 9.999649, 9.9988165 
3.150054e+2, 2.2464749e+2, -811380.06, -809634.75, -30853.21, -0.04575163, 0.023793718, -779641.9, -41185.637, 0.0, 9.999598, 9.999654 
3.150021e+2, 2.3464748e+2, -655874.06, -686121.56, 40169.07, -0.067268044, 0.022394743, -628076.0, 12380.208, 0.0, 10.0, 9.9996395 
3.1499878e+2, 2.4464743e+2, -547299.6, -492476.9, 47583.117, -0.07969408, 0.023730645, -464974.38, 77479.12, 0.0, 9.999707, 10.000417 
3.1499526e+2, 2.5464725e+2, -612736.56, -472671.78, 69337.72, -0.08747668, -0.07108873, -444153.4, 295.33414, 0.0, 9.998582, 10.000425 
3.1499243e+2, 2.6464683e+2, -660114.4, -672168.0, 93892.31, -0.107178584, -0.05650075, -572055.7, -225603.3, 0.0, 9.998547, 9.9984045 
3.149905e+2, 2.7464557e+2, -417328.88, -519831.53, 57912.633, -0.11437653, -0.05040421, -391246.06, -142775.73, 0.00000000001473293, 9.999591, 9.9982815 
3.149885e+2, 2.846444e+2, -206825.75, -280035.47, -16610.074, -0.07773162, -0.026130294, -203233.47, -52748.613, 0.000000108201135, 10.000016, 9.999036 
3.149858e+2, 2.946435e+2, -197775.42, -228580.72, 12058.021, -0.06228295, -0.06572983, -193616.95, -141122.69, 0.0000023186144, 9.999398, 9.999018 
3.1498057e+2, 3.046442e+2, -187552.92, -182351.22, -62920.26, -0.23332725, 0.10451279, -121978.08, -121978.08, 0.000012381474, 9.999051, 9.999204 
3.149784e+2, 3.1464174e+2, -172731.56, 22638.137, 23829.48, -0.004432593, -0.092706986, 25502.648, 25502.648, 0.000038038284, 9.998223, 10.001012 
3.2503873e+2, 1.2465817e+2, -1458731.6, -1678979.5, 76720.31, -0.10287255, 0.06338038, -1434642.0, 283713.72, 0.0001575099, 10.002016, 9.999259 
3.2503617e+2, 1.3465768e+2, -1395140.4, -1595090.8, -35202.074, 0.050496303, 0.049337406, -1389124.0, 231233.52, 0.00006189271, 10.001838, 9.999251 
3.250307e+2, 1.4465569e+2, -1350204.1, -1551534.5, -32528.994, -0.05876793, -0.056869037, -1345078.9, 177296.0, 0.000012633238, 10.001592, 9.998981 
3.2502633e+2, 1.5465483e+2, -1238751.6, -1462130.4, -56128.664, -0.060378823, -0.07668324, -1225441.3, 198940.53, 0.0000008198343, 10.001751, 9.998847 
3.2502282e+2, 1.6465446e+2, -1181600.0, -1346760.4, 24227.719, -0.062826276, -0.0057023354, -1178119.4, 148265.89, 0.000000004124255, 10.001348, 9.999148 
3.2501984e+2, 1.7465442e+2, -1232208.5, -1327991.8, 7658.3438, -0.10023926, 0.04080071, -1231600.0, -3212.8347, 0.0, 10.000342, 9.999096 
3.2501695e+2, 1.8465403e+2, -1139822.5, -1188885.4, 28451.916, -0.1403452, 0.07963737, -1126786.6, 3604.246, 0.0, 10.000114, 9.99948 
3.250142e+2, 1.9465305e+2, -963214.3, -1056540.6, -545.8856, -0.17553733, -0.003172928, -963211.06, 69187.13, 0.0, 10.000674, 9.999449 
3.2501134e+2, 2.0465218e+2, -915421.3, -1064263.0, -32146.666, -0.139307, 0.0054315813, -908775.1, 25631.807, 0.0, 10.000667, 9.998734 
3.2500845e+2, 2.1465124e+2, -944312.2, -1034976.3, -15727.385, -0.02565437, 0.0077263108, -941661.44, -105242.414, 0.0, 9.999828, 9.998668 
3.2500526e+2, 2.246509e+2, -815202.94, -761482.8, 48601.61, 0.00084310345, 0.043964885, -732812.9, 5610.3804, 0.0, 9.99936, 10.000092 
3.2500172e+2, 2.3465098e+2, -716631.25, -662836.5, 14513.083, -0.06656635, 0.0038376243, -659170.9, -18750.12, 0.0, 9.99936, 10.000098 
3.2499835e+2, 2.4465102e+2, -609209.06, -577374.25, -36563.89, -0.0745742, 0.011349486, -553413.3, -10995.743, 0.0, 9.999494, 9.999949 
3.2499513e+2, 2.546509e+2, -453991.38, -451033.97, -91190.734, -0.016152851, -0.034908656, -361309.97, 83104.9, 0.0, 9.999879, 9.999956 
3.249922e+2, 2.6465017e+2, -470591.84, -585051.7, 4848.446, -0.041204404, -0.017647974, -470386.8, -123965.33, 0.0, 9.999866, 9.998373 
3.2498983e+2, 2.7464843e+2, -438279.06, -528582.94, 39485.656, -0.1233792, -0.058146156, -423449.22, -175006.02, 0.00000000010851988, 9.999447, 9.998289 
3.249877e+2, 2.846471e+2, -331685.25, -339483.44, 15618.092, -0.1039763, -0.053006794, -319486.9, -169028.42, 0.00000014604628, 9.999139, 9.999062 
3.249854e+2, 2.9464632e+2, -257350.0, -248496.08, 1424.0355, -0.008257318, -0.08074471, -248272.67, -195808.1, 0.0000023415487, 9.998947, 9.999102 
3.2497975e+2, 3.0464694e+2, -188334.83, -179976.77, -47675.703, -0.20216212, 0.07206862, -136297.28, -136297.28, 0.000012312151, 9.999081, 9.99918 
3.249777e+2, 3.1464493e+2, -106804.5, -43269.086, -43850.453, 0.073755406, -0.08118582, -20888.389, -20888.389, 0.000036624067, 9.999151, 10.000081 
3.3504036e+2, 1.24663144e+2, -1504148.3, -1752514.9, -22276.027, -0.21402596, 0.18617955, -1502166.1, 216141.56, 0.00013854062, 10.0019455, 9.99878 
3.3503768e+2, 1.3466169e+2, -1422076.8, -1633803.9, -39714.246, -0.018775579, 0.098565266, -1414872.5, 205448.08, 0.000055370125, 10.001795, 9.998989 
3.350318e+2, 1.4465973e+2, -1373260.0, -1586863.6, -49708.492, -0.14914832, 0.0224624, -1362258.8, 160079.45, 0.000011804474, 10.001538, 9.998765 
3.3502772e+2, 1.54659e+2, -1253260.5, -1483120.9, -35301.69, -0.13511053, 0.032678377, -1247961.1, 176382.48, 0.00000057438905, 10.001717, 9.998719 
3.3502397e+2, 1.6465804e+2, -1189341.8, -1350548.5, -26548.693, -0.114566736, 0.049254265, -1185082.0, 141269.66, 0.00000000201948, 10.00129, 9.999152 
3.3502054e+2, 1.7465673e+2, -1238169.8, -1333208.3, -13334.739, -0.10369444, -0.028609576, -1236334.3, -7970.238, 0.0, 10.000307, 9.99908 
3.3501756e+2, 1.8465579e+2, -1176883.5, -1234830.3, 30318.111, -0.12462081, -0.030645622, -1163920.6, -33547.54, 0.0, 9.999982, 9.99923 
3.3501524e+2, 1.9465502e+2, -996112.06, -1099625.9, 34320.258, -0.17138535, -0.07036864, -985767.0, 46614.035, 0.0, 10.000567, 9.999203 
3.350122e+2, 2.0465481e+2, -880789.9, -954643.44, -77234.43, -0.14397714, -0.020775229, -832108.56, 102273.945, 0.0, 10.00051, 9.999561 
3.3500835e+2, 2.1465507e+2, -910135.3, -918989.5, -32605.055, -0.04533272, 0.011993469, -881658.2, -45279.273, 0.0, 9.999639, 9.999556 
3.350044e+2, 2.246548e+2, -881012.9, -856680.8, 32381.234, -0.049120046, 0.037545703, -834255.56, -95874.46, 0.0, 9.999188, 9.999519 
3.350004e+2, 2.3465374e+2, -788279.94, -763263.3, 26043.494, -0.16093011, -0.05574339, -746880.06, -106488.46, 0.0, 9.999163, 9.9995 
3.3499756e+2, 2.446531e+2, -693783.9, -736410.25, -36906.465, -0.13241708, -0.034684557, -672478.56, -130079.68, 0.0, 9.999415, 9.998897 
3.3499587e+2, 2.5465277e+2, -551248.94, -619267.7, -63512.117, 0.041431017, 0.005580405, -513213.7, -68809.484, 0.0, 9.999736, 9.998868 
3.3499265e+2, 2.6465252e+2, -399672.44, -422266.03, -25256.375, -0.012639204, 0.07050525, -383301.53, -36894.86, 0.0, 9.999803, 9.9995165 
3.3498776e+2, 2.7465194e+2, -372497.4, -358826.84, 38287.348, -0.30996925, 0.023421802, -326769.44, -78358.93, 0.000000000044508567, 9.999307, 9.999519 
3.3498552e+2, 2.846507e+2, -334558.72, -339764.13, -6144.4087, -0.26842332, -0.026661, -330488.5, -180067.28, 0.00000018851506, 9.9991, 9.999083 
3.3498558e+2, 2.94649e+2, -268039.0, -260443.33, 13958.1875, 0.072311856, -0.14682773, -249775.53, -197338.58, 0.0000023038672, 9.998883, 9.999061 
3.3497962e+2, 3.046502e+2, -217229.78, -231940.92, -52429.188, -0.15699932, 0.08174326, -171642.7, -171642.7, 0.000011796056, 9.999051, 9.998836 
3.3497587e+2, 3.146497e+2, -227287.06, -264759.28, -28225.67, -0.097296774, 0.12584832, -212145.0, -212145.0, 0.000034748333, 9.999019, 9.998633 
3.4504268e+2, 1.24666326e+2, -1632175.0, -1835613.0, -28850.523, -0.121402666, 0.14065358, -1628162.6, 90111.0, 0.00012841672, 10.001164, 9.998585 
3.4503958e+2, 1.346648e+2, -1414037.0, -1658019.9, -56920.57, 0.0017017678, 0.06889904, -1401411.0, 218878.25, 0.00005393956, 10.001942, 9.998774 
3.4503376e+2, 1.4466327e+2, -1321352.9, -1560186.6, -30990.063, -0.11329577, 0.046019766, -1317397.3, 204906.98, 0.00001321429, 10.001909, 9.998755 
3.4502947e+2, 1.546625e+2, -1320062.1, -1522648.0, -49436.35, -0.09825815, 0.058512032, -1308642.1, 115668.57, 0.00000089811203, 10.001302, 9.99864 
3.4502545e+2, 1.646614e+2, -1258601.8, -1397054.1, -28405.088, -0.06470604, 0.06811184, -1253000.8, 73320.01, 0.0000000015154811, 10.000852, 9.99905 
3.450215e+2, 1.7465979e+2, -1216920.0, -1330267.8, -48996.152, -0.038363248, -0.032015286, -1198677.0, 29658.725, 0.0, 10.000486, 9.999013 
3.4501818e+2, 1.8465891e+2, -1143488.6, -1199594.3, 65410.887, -0.057048663, -0.03340548, -1100368.8, 29975.148, 0.0, 10.000119, 9.999413 
3.4501588e+2, 1.9465847e+2, -1112193.9, -1138334.0, 77343.77, -0.111583136, -0.05463021, -1046823.6, -14475.402, 0.0, 9.99968, 9.999375 
3.450127e+2, 2.0465843e+2, -957943.0, -953543.56, -14095.592, -0.10383253, -0.01464618, -941477.06, -7129.9546, 0.0, 9.999822, 9.999895 
3.450085e+2, 2.146586e+2, -752426.9, -807200.6, -41993.168, -0.03250402, -0.024689486, -729679.25, 106663.125, 0.0, 10.0005665, 9.999872 
3.4500432e+2, 2.2465818e+2, -704545.0, -830420.5, 19516.703, -0.03885719, -0.0055454136, -701588.44, 36757.375, 0.0, 10.000647, 9.999003 
3.4500024e+2, 2.3465689e+2, -711518.1, -788258.06, -8518.33, -0.12013054, -0.06639245, -710583.94, -70223.266, 0.0, 9.999939, 9.998964 
3.4499747e+2, 2.4465609e+2, -645104.5, -714196.56, 22731.748, -0.092304245, -0.033005707, -638296.44, -95925.47, 0.0, 9.999769, 9.998876 
3.4499598e+2, 2.5465554e+2, -473534.94, -589255.8, 46326.31, 0.05551934, -0.006912222, -457274.16, -12895.11, 0.0, 10.00029, 9.9988165 
3.4499255e+2, 2.6465553e+2, -350711.7, -374143.94, 75515.266, -0.0069237608, 0.07174808, -286009.06, 60370.656, 0.0, 10.000044, 9.999729 
3.4498712e+2, 2.7465567e+2, -408228.25, -347719.94, 31363.31, -0.27578688, 0.07557707, -334396.9, -86021.08, 0.0, 9.998955, 9.999764 
3.4498468e+2, 2.8465453e+2, -421161.38, -381139.97, 7851.208, -0.22699293, 0.026815593, -379654.88, -229270.05, 0.00000016974016, 9.998536, 9.999056 
3.4498492e+2, 2.946523e+2, -247969.97, -253835.98, -1134.3995, 0.118260995, -0.14183035, -247758.23, -195352.4, 0.0000020169734, 9.999055, 9.999015 
3.4497908e+2, 3.0465338e+2, -129337.14, -192575.67, -17929.016, -0.13282041, 0.083384074, -124607.71, -124607.71, 0.0000103175025, 9.999636, 9.99884 
3.4497613e+2, 3.1465277e+2, -145414.69, -234759.58, -48304.11, 0.018362317, 0.103197716, -124292.64, -124292.64, 0.000031962787, 9.999601, 9.998559 
3.5504466e+2, 1.24667615e+2, -1634695.3, -1833570.0, -91925.58, -0.12161179, -0.07699377, -1598714.4, 119540.15, 0.00012227354, 10.001131, 9.998614 
3.5504138e+2, 1.3466707e+2, -1413123.5, -1656061.6, -14819.732, -0.048468724, -0.04351959, -1412222.9, 208040.23, 0.00005490219, 10.001958, 9.998772 
3.5503608e+2, 1.4466648e+2, -1321520.9, -1563040.1, -70444.55, -0.12050677, 0.0241826, -1302475.9, 219795.23, 0.000015641235, 10.001911, 9.998743 
3.5503122e+2, 1.5466532e+2, -1324504.1, -1538587.0, -57625.375, -0.09576947, 0.006142013, -1309978.5, 114305.19, 0.0000017221555, 10.001322, 9.998528 
3.550267e+2, 1.6466443e+2, -1276265.4, -1414195.0, -60241.297, -0.058617637, 0.05012026, -1253659.8, 72633.5, 0.000000007086625, 10.00077, 9.998969 
3.550222e+2, 1.7466362e+2, -1228405.4, -1341428.8, -47007.676, -0.04949069, 0.03421584, -1211410.0, 16891.732, 0.0, 10.000431, 9.998961 
3.5501838e+2, 1.8466339e+2, -1120047.5, -1122277.0, 37337.863, -0.08051352, 0.07143176, -1083807.8, 46495.137, 0.0, 9.999997, 10.000002 
3.550157e+2, 1.9466366e+2, -1086222.0, -1057004.5, 76745.24, -0.13061863, 0.059079856, -993489.94, 38807.832, 0.0, 9.999561, 9.99999 
3.5501245e+2, 2.0466325e+2, -997630.2, -999049.5, -1779.6893, -0.13894352, 0.04208798, -996423.9, -62125.05, 0.0, 9.99966, 9.999664 
3.5500854e+2, 2.1466187e+2, -794072.06, -856284.9, 1680.7582, -0.1122528, -0.097566664, -794026.7, 42282.36, 0.0, 10.000402, 9.999617 
3.5500467e+2, 2.2466104e+2, -758060.56, -905546.5, -16676.041, -0.09261081, -0.08278515, -756198.56, -17881.215, 0.0, 10.000494, 9.998559 
3.5500088e+2, 2.3466061e+2, -770669.9, -869506.4, -20612.607, -0.08000239, -0.012951533, -766543.4, -126217.27, 0.0, 9.9997635, 9.998489 
3.5499755e+2, 2.446601e+2, -601788.94, -591580.44, 28514.555, -0.08694491, 0.0312598, -567716.9, -25384.21, 0.0, 9.999636, 9.999777 
3.5499483e+2, 2.5465927e+2, -429780.66, -462683.94, 80730.95, -0.116551735, -0.069502085, -363842.1, 80497.25, 0.0, 10.000145, 9.999752 
3.5499147e+2, 2.646592e+2, -407336.53, -478706.16, 23926.89, -0.14897953, -0.007991761, -400057.4, -53717.37, 0.0, 9.999982, 9.999042 
3.549875e+2, 2.7465966e+2, -478814.88, -470131.6, 7468.4688, -0.16628286, 0.10356385, -465834.5, -217496.69, 0.0, 9.998847, 9.998976 
3.549847e+2, 2.8465858e+2, -439862.1, -409072.97, 12150.533, -0.11257722, 0.10623928, -404855.6, -254506.25, 0.00000011654808, 9.998491, 9.998885 
3.5498285e+2, 2.9465604e+2, -275302.2, -286871.25, 40187.098, -0.03678873, -0.07959394, -240485.44, -188112.6, 0.0000016052002, 9.998957, 9.998836 
3.5497767e+2, 3.0465654e+2, -85420.42, -103851.54, -23666.697, -0.26959366, 0.066165775, -69238.37, -69238.37, 0.000008325357, 9.999635, 9.999456 
3.549775e+2, 3.14655e+2, -71046.125, -59742.64, -58024.28, 0.11380699, -0.070288286, -7095.502, -7095.502, 0.000028551576, 9.999503, 9.999815 
3.650469e+2, 1.24670446e+2, -1562409.5, -1750685.6, -90610.59, -0.010727074, -0.12545846, -1525886.8, 192341.63, 0.000118926524, 10.001408, 9.9990635 
3.6504307e+2, 1.3467063e+2, -1520670.4, -1678232.6, -20529.195, -0.019765109, -0.041814573, -1518039.5, 102189.42, 0.000056465244, 10.001091, 9.999038 
3.6503834e+2, 1.4467052e+2, -1468105.8, -1614069.6, -41746.39, -0.02024023, 0.05157171, -1457009.6, 65222.24, 0.00001794202, 10.000812, 9.998929 
3.650322e+2, 1.5466933e+2, -1398483.8, -1550172.0, -41287.125, -0.08785949, 0.010345253, -1387974.1, 36271.16, 0.000002788093, 10.000709, 9.998748 
3.650274e+2, 1.6466852e+2, -1269376.0, -1400256.3, 21534.271, -0.0568965, 0.048611872, -1265924.0, 60330.16, 0.00000008230677, 10.000778, 9.999061 
3.6502352e+2, 1.7466798e+2, -1145906.4, -1289854.8, 9715.827, 0.023909109, 0.052461896, -1145253.5, 83006.07, 0.0, 10.000955, 9.999061 
3.6501944e+2, 1.8466784e+2, -1030495.25, -1082245.5, 81662.414, 0.0024972502, 0.09415627, -970706.7, 159552.9, 0.0, 10.000633, 9.9999695 
3.6501542e+2, 1.9466789e+2, -1075348.6, -1054610.6, 43973.316, -0.108542554, 0.065765195, -1019800.3, 12455.593, 0.0, 9.999656, 9.999961 
3.650119e+2, 2.0466736e+2, -1057968.9, -1042710.06, 20857.08, -0.1325446, 0.042667747, -1028130.75, -93872.22, 0.0, 9.999302, 9.999541 
3.6500895e+2, 2.1466587e+2, -920434.94, -930007.44, 3545.1697, -0.06274064, -0.09390428, -919265.0, -82993.945, 0.0, 9.999589, 9.999504 
3.6500534e+2, 2.2466506e+2, -816005.6, -916194.44, 19522.164, -0.043573685, -0.08191413, -812336.06, -74056.68, 0.0, 10.00002, 9.998717 
3.650011e+2, 2.3466472e+2, -636414.44, -784984.44, 34149.22, -0.06510314, -0.017001312, -628941.06, 11344.515, 0.0, 10.000602, 9.998666 
3.6499736e+2, 2.4466436e+2, -489292.53, -536653.6, 95648.34, -0.099403426, 0.030644413, -414436.9, 127853.23, 0.0, 10.000382, 9.99981 
3.649941e+2, 2.546638e+2, -563617.1, -515701.47, 52545.22, -0.14605477, -0.045917287, -481910.03, -37615.754, 0.0, 9.99918, 9.999854 
3.6499092e+2, 2.6466367e+2, -556172.3, -575854.3, 17545.416, -0.14851359, 0.010997102, -545896.5, -199600.11, 0.0, 9.999085, 9.9987955 
3.6498794e+2, 2.7466348e+2, -283142.4, -403585.63, 9193.463, -0.070132725, 0.08596082, -282444.7, -34143.44, 0.0, 10.0003195, 9.998719 
3.64985e+2, 2.8466243e+2, -162960.28, -261658.86, 60930.582, -0.013965131, 0.098702356, -133901.1, 16411.518, 0.000000055764154, 10.000306, 9.999037 
3.649817e+2, 2.9466072e+2, -288427.97, -276432.22, 84045.22, -0.025202373, -0.025405075, -198171.13, -145843.27, 0.0000011855267, 9.99879, 9.998989 
3.6497694e+2, 3.046605e+2, -241401.98, -142591.81, 84304.5, -0.23233908, 0.031489026, -94282.47, -94282.47, 0.0000067298934, 9.998436, 9.999754 
3.6497718e+2, 3.1465918e+2, -77896.08, 29560.684, -67303.47, 0.17114438, -0.1206208, 61951.38, 61951.38, 0.00002565761, 9.999082, 10.0006275 
3.7504813e+2, 1.2467508e+2, -1495581.0, -1614239.5, -150348.56, -0.103588246, 0.04820949, -1393279.0, 324913.47, 0.0001191897, 10.001411, 9.999992 
3.7504408e+2, 1.3467546e+2, -1477357.4, -1588043.5, -23105.613, -0.06698056, 0.08248574, -1472727.8, 147458.94, 0.00005856906, 10.001089, 9.999652 
3.7504002e+2, 1.4467543e+2, -1446423.6, -1549860.9, -65452.008, 0.027821762, 0.12718467, -1414723.0, 107463.38, 0.000020069963, 10.000732, 9.999406 
3.7503198e+2, 1.546745e+2, -1361358.4, -1476314.3, -27462.611, -0.21864432, 0.06574031, -1355134.6, 69061.36, 0.0000038584762, 10.000719, 9.999251 
3.750271e+2, 1.6467366e+2, -1264573.4, -1376855.8, 14161.579, -0.19852856, 0.06372315, -1262814.8, 63388.867, 0.00000020238203, 10.000721, 9.999247 
3.7502503e+2, 1.7467296e+2, -1143468.3, -1275347.1, 31951.7, 0.045230586, 0.03374729, -1136134.8, 92074.12, 0.0, 10.000907, 9.999185 
3.7502086e+2, 1.846722e+2, -1089993.5, -1177895.0, 32238.664, 0.05322148, 0.03736458, -1079437.4, 50777.066, 0.0, 10.000513, 9.999369 
3.750146e+2, 1.946711e+2, -1136824.3, -1153214.0, 23523.76, -0.18345396, -0.04660622, -1120108.9, -87885.42, 0.0, 9.999535, 9.99934 
3.7501064e+2, 2.0467062e+2, -1083364.6, -1062066.4, 16831.096, -0.21425465, -0.026379623, -1052798.4, -118571.06, 0.0, 9.999156, 9.999481 
3.7500915e+2, 2.1467064e+2, -949970.1, -947313.75, 27748.982, -0.028152287, -0.0073302514, -920861.2, -84633.016, 0.0, 9.999403, 9.999475 
3.7500587e+2, 2.2467023e+2, -784643.5, -816077.3, 23963.176, -0.018084405, 0.009775813, -771702.9, -33471.15, 0.0, 9.99986, 9.999485 
3.7500054e+2, 2.3466906e+2, -601722.4, -680263.2, 69120.43, -0.21140777, -0.09158353, -561495.6, 78745.16, 0.0, 10.000451, 9.999461 
3.749964e+2, 2.4466878e+2, -557721.75, -653215.1, 39108.97, -0.26098406, -0.03888665, -543749.25, -1505.3169, 0.0, 10.000273, 9.999063 
3.7499332e+2, 2.5466925e+2, -642491.4, -647932.0, 22805.951, -0.17550525, 0.06850754, -622244.06, -178000.88, 0.0, 9.999039, 9.999016 
3.7499043e+2, 2.6466876e+2, -553204.4, -553840.3, 48352.625, -0.13452598, 0.12659338, -505168.66, -158918.84, 0.0, 9.999015, 9.998981 
3.74988e+2, 2.746669e+2, -278723.06, -374034.44, 72880.734, -0.13303497, 0.008313022, -239300.25, 8967.581, 0.0, 10.000227, 9.998969 
3.7498498e+2, 2.846661e+2, -125946.875, -176650.9, -4587.9243, -0.07795406, 0.0025198585, -125535.086, 24739.691, 0.00000003400916, 10.000267, 9.999642 
3.74981e+2, 2.9466638e+2, -267258.34, -210321.34, 45326.66, -0.017398933, 0.025530213, -185264.52, -132994.6, 0.000000899484, 9.998684, 9.9995 
3.7497628e+2, 3.0466542e+2, -258521.6, -162363.61, 102471.14, -0.16789456, -0.014926089, -97252.83, -97252.83, 0.000005766145, 9.998376, 9.999645 
3.7497434e+2, 3.1466466e+2, -82993.96, 42342.945, -15806.727, -0.09378889, -0.09867814, 44305.656, 44305.656, 0.000023929499, 9.9989805, 10.000766 
3.8504985e+2, 1.2468063e+2, -1538527.9, -1601203.1, 40568.25, -0.0374975, 0.12167255, -1518603.1, 199536.63, 0.00012316402, 10.000989, 10.00028 
3.8504437e+2, 1.3468063e+2, -1594633.3, -1632112.3, 46684.746, -0.088265985, 0.1025247, -1563067.4, 57068.55, 0.000061385945, 10.000216, 9.999781 
3.8504118e+2, 1.4468019e+2, -1544502.8, -1573534.1, 39305.363, 0.11835231, 0.09234404, -1517118.4, 5019.9653, 0.000022093489, 9.999967, 9.999604 
3.8503304e+2, 1.5467985e+2, -1391187.1, -1466084.6, 11909.955, -0.15910134, 0.06825496, -1389338.9, 34803.316, 0.000004863891, 10.000426, 9.999452 
3.8502818e+2, 1.646791e+2, -1282006.1, -1406418.3, 52267.875, -0.14901562, 0.07105448, -1262962.5, 63186.83, 0.00000029520132, 10.0006695, 9.9990835 
3.8502625e+2, 1.7467795e+2, -1197961.3, -1318411.4, 22083.629, 0.09989031, 0.01431977, -1194040.0, 34118.836, 0.0, 10.000592, 9.999048 
3.8502178e+2, 1.8467699e+2, -1106172.3, -1208156.1, 34338.48, 0.10181979, 0.012300629, -1095688.1, 34478.92, 0.0, 10.000489, 9.999174 
3.8501486e+2, 1.9467574e+2, -1035711.8, -1131426.0, 24054.836, -0.14287287, -0.06597167, -1030006.44, 2171.5894, 0.0, 10.000324, 9.999115 
3.850107e+2, 2.0467527e+2, -923984.94, -1020946.3, 86377.805, -0.18355621, -0.020180775, -873412.6, 60771.05, 0.0, 10.000406, 9.999161 
3.850094e+2, 2.1467544e+2, -779606.94, -905921.7, 51848.184, -0.0022216851, 0.047615767, -761050.9, 75134.43, 0.0, 10.000734, 9.999126 
3.850061e+2, 2.2467509e+2, -670732.75, -716291.1, 39335.832, -0.003124179, 0.07114815, -648056.5, 90131.52, 0.0, 10.000455, 9.999876 
3.8500047e+2, 2.3467399e+2, -706496.7, -681415.25, 24654.059, -0.2101129, -0.06701096, -666295.7, -26102.043, 0.0, 9.99953, 9.999888 
3.849963e+2, 2.4467367e+2, -682736.9, -733977.56, 29410.666, -0.2520184, -0.034572057, -669352.2, -127156.086, 0.0, 9.999524, 9.998847 
3.849936e+2, 2.5467384e+2, -432745.22, -580138.4, 24549.02, -0.118436664, 0.06791157, -428764.0, 15434.797, 0.0, 10.000618, 9.998716 
3.849908e+2, 2.6467305e+2, -318032.7, -426955.66, 100518.586, -0.06897002, 0.10541814, -258169.92, 88038.08, 0.0, 10.000561, 9.99912 
3.8498804e+2, 2.7467108e+2, -416249.8, -420244.3, 89603.66, -0.08827843, -0.042358313, -328621.16, -80395.484, 0.0, 9.999196, 9.999149 
3.849845e+2, 2.8467056e+2, -363535.88, -282964.28, -2015.1187, -0.060970094, -0.02817948, -282913.9, -132684.63, 0.000000026095549, 9.99861, 9.999705 
3.8497972e+2, 2.9467148e+2, -236554.55, -184851.94, -21748.895, -0.010897806, 0.04752008, -176920.05, -124700.0, 0.00000066980994, 9.9988575, 9.999586 
3.849757e+2, 3.0467016e+2, -177675.31, -113532.26, 93032.9, -0.073292315, -0.03346991, -47197.977, -47197.977, 0.000005131084, 9.998879, 9.999738 
3.8497308e+2, 3.1467065e+2, -171457.58, 7948.8066, -64599.445, -0.06823492, -0.010698151, 28788.598, 28788.598, 0.000023471404, 9.998345, 10.00083 
3.9505136e+2, 1.2468734e+2, -1588110.1, -1674659.5, 14752.458, -0.059651673, 0.104648694, -1585664.6, 132403.44, 0.0001272644, 10.000898, 9.999813 
3.9504358e+2, 1.3468619e+2, -1632009.1, -1691434.3, 31464.893, -0.22328576, 0.012982341, -1618445.0, 1630.6947, 0.00006380605, 10.000166, 9.999391 
3.950413e+2, 1.4468493e+2, -1571492.6, -1617608.6, 36804.46, 0.08777441, -0.04496508, -1551119.8, -29032.877, 0.000023677207, 9.999901, 9.999339 
3.9503476e+2, 1.5468529e+2, -1408012.6, -1500631.5, 43393.305, -0.06890294, 0.02171468, -1390859.1, 33225.94, 0.000005569423, 10.00042, 9.999219 
3.9503023e+2, 1.6468462e+2, -1317768.0, -1461268.0, 31084.063, -0.04529778, 0.06356149, -1311324.1, 14768.711, 0.00000035120044, 10.000594, 9.998742 
3.950268e+2, 1.7468292e+2, -1234119.6, -1371102.6, 34826.24, 0.06304872, -0.012922246, -1225773.9, 2336.3972, 0.0, 10.0005045, 9.998728 
3.9502186e+2, 1.8468212e+2, -1111942.5, -1193111.5, 14250.357, 0.028012203, 0.008442345, -1109513.4, 20604.973, 0.0, 10.000366, 9.999342 
3.950157e+2, 1.9468194e+2, -1040915.8, -1108321.9, 31317.566, -0.12662032, 0.022405261, -1028611.44, 3507.689, 0.0, 10.000183, 9.99934 
3.9501148e+2, 2.046814e+2, -984273.2, -1106744.4, 82962.67, -0.1696463, 0.07393045, -942394.25, -8267.973, 0.0, 10.000237, 9.998653 
3.9500925e+2, 2.1468024e+2, -846925.7, -995596.3, 81658.836, -0.11879528, 0.06150903, -810835.0, 25307.613, 0.0, 10.000526, 9.998608 
3.9500567e+2, 2.246797e+2, -691553.6, -723452.5, -5592.531, -0.12107086, 0.08922594, -690601.56, 47546.58, 0.0, 10.000295, 9.9999075 
3.9500046e+2, 2.3467954e+2, -727045.56, -685740.2, 6775.5767, -0.1930063, 0.045131385, -684657.1, -44512.87, 0.0, 9.999366, 9.999938 
3.949967e+2, 2.4467896e+2, -678046.1, -699437.2, 55049.43, -0.19481853, 0.037081096, -632662.9, -90515.48, 0.0, 9.9994135, 9.999145 
3.9499456e+2, 2.5467756e+2, -427521.66, -540374.44, 81189.555, -0.12030043, -0.048078462, -385076.0, 59085.62, 0.0, 10.000488, 9.999057 
3.9499158e+2, 2.646766e+2, -322779.34, -419690.66, 38922.97, -0.0774279, -0.048806198, -309082.38, 37088.03, 0.0, 10.000482, 9.999211 
3.9498767e+2, 2.74676e+2, -428285.9, -422220.53, 53982.535, -0.077042684, -0.06474374, -371185.56, -123010.67, 0.0, 9.999086, 9.999195 
3.9498305e+2, 2.8467584e+2, -406389.8, -349072.63, -7885.8877, -0.09509165, 0.002751277, -348007.47, -197830.7, 0.000000010243951, 9.998526, 9.999288 
3.9497745e+2, 2.9467595e+2, -284517.34, -247160.27, 7736.49, -0.16334765, 0.044516318, -245621.45, -193442.89, 0.0000005130985, 9.998709, 9.9992285 
3.9497483e+2, 3.046748e+2, -154948.23, -61909.234, 65631.52, -0.08126105, -0.0217061, -27982.727, -27982.727, 0.0000059963604, 9.998856, 10.000106 
3.9497253e+2, 3.1467667e+2, -189568.25, 110.22629, -22414.908, -0.024085613, 0.111361, 2723.075, 2723.075, 0.000027747768, 9.998223, 10.0008335 
4.050526e+2, 1.246922e+2, -1674882.6, -1742229.0, -28788.795, 0.022542538, 0.07613961, -1664253.8, 53765.09, 0.0001282802, 10.0003805, 9.999611 
4.050435e+2, 1.3469106e+2, -1666721.4, -1713931.8, -118083.984, -0.21730462, -0.014367784, -1569906.4, 50120.664, 0.00006493345, 9.999939, 9.99935 
4.050416e+2, 1.4468962e+2, -1580289.4, -1623185.5, -5679.727, 0.14616756, -0.087274715, -1579550.1, -57510.28, 0.00002457309, 9.999838, 9.999335 
4.0503582e+2, 1.5468998e+2, -1450688.1, -1523673.1, -14085.367, 0.02107588, -0.020842355, -1448064.1, -24026.844, 0.000005781208, 10.000114, 9.999218 
4.0503138e+2, 1.6468953e+2, -1344396.0, -1448055.9, 25454.611, 0.030430902, 0.031146094, -1338482.8, -12439.885, 0.0000003430959, 10.000301, 9.998967 
4.050269e+2, 1.7468825e+2, -1227635.5, -1344738.9, 35737.703, 0.038064156, -0.028650137, -1217590.8, 10466.149, 0.0, 10.000439, 9.998939 
4.05022e+2, 1.8468767e+2, -1079395.4, -1190494.0, 55253.426, 0.0021300598, 0.0127350595, -1056595.1, 73468.36, 0.0, 10.000663, 9.999211 
4.0501705e+2, 1.9468753e+2, -943675.4, -1078973.6, 24973.768, -0.03350011, 0.045983393, -939212.8, 92852.68, 0.0, 10.000934, 9.999183 
4.0501288e+2, 2.0468704e+2, -897708.94, -1052618.9, 102942.63, -0.071733095, 0.10631602, -846336.6, 87735.83, 0.0, 10.000782, 9.9987545 
4.0500933e+2, 2.1468595e+2, -893307.06, -1007956.2, 116607.13, -0.1335881, 0.087497346, -820695.75, 15391.563, 0.0, 10.000164, 9.998692 
4.0500548e+2, 2.2468525e+2, -746654.25, -802998.75, 63863.125, -0.14999406, 0.1209158, -705025.5, 33069.145, 0.0, 10.000148, 9.999433 
4.0500125e+2, 2.3468478e+2, -554760.2, -665046.1, 8967.829, -0.114417076, 0.09506727, -554035.75, 86060.53, 0.0, 10.000804, 9.999396 
4.0499768e+2, 2.4468386e+2, -499573.56, -618374.4, 59737.22, -0.09156205, 0.0855516, -474730.6, 67372.52, 0.0, 10.000655, 9.999105 
4.0499493e+2, 2.5468236e+2, -550073.56, -591915.0, 36341.215, -0.08134727, -0.012858067, -529061.44, -84944.055, 0.0, 9.99964, 9.999101 
4.0499148e+2, 2.646815e+2, -482207.25, -481854.16, -6774.9023, -0.067959026, -0.017944273, -475253.5, -129128.88, 0.0, 9.999312, 9.999341 
4.0498725e+2, 2.74681e+2, -330798.03, -363752.94, -13431.238, -0.04963278, -0.03494809, -326017.44, -77890.36, 0.0, 9.99969, 9.999304 
4.0498227e+2, 2.8468072e+2, -240133.63, -299776.3, -12528.268, -0.07776637, 0.025905084, -237608.88, -87478.71, 0.0000000008315615, 9.999784, 9.999022 
4.0497676e+2, 2.9468033e+2, -168184.23, -212436.03, -15498.668, -0.13609363, 0.043701362, -163295.98, -111159.03, 0.0000007104038, 9.999587, 9.99904 
4.0497464e+2, 3.0467916e+2, -81825.13, -23169.607, 51726.29, 0.004162939, -0.022460178, 6964.6074, 6964.6074, 0.000009515816, 9.999339, 10.000142 
4.049713e+2, 3.1468117e+2, -91590.65, 47984.383, -60802.91, 0.017420528, 0.12630223, 70756.53, 70756.53, 0.000039448827, 9.998848, 10.0008745 
4.150527e+2, 1.2469497e+2, -1652573.9, -1710863.5, -2781.0046, -0.089453846, 0.024650684, -1652441.5, 65552.88, 0.00012596608, 10.000424, 9.9998045 
4.1504368e+2, 1.3469526e+2, -1625796.9, -1653558.5, -124813.1, -0.23820747, 0.03293878, -1514095.1, 105894.14, 0.00006410072, 10.000014, 9.999734 
4.1504171e+2, 1.4469424e+2, -1562947.5, -1574928.8, -10694.746, 0.1285249, -0.037427202, -1556679.9, -34682.566, 0.00002430965, 9.999803, 9.999679 
4.1503593e+2, 1.5469407e+2, -1436067.3, -1474338.4, 14065.7295, -0.016849235, -0.0583516, -1431453.9, -7456.2866, 0.0000053776803, 10.000051, 9.999582 
4.1503116e+2, 1.646939e+2, -1310869.4, -1357172.5, 16152.377, -0.05591573, -0.02523836, -1305791.6, 20206.521, 0.0000002359893, 10.000207, 9.999637 
4.1502613e+2, 1.7469402e+2, -1188945.9, -1247543.0, 56710.305, -0.12189526, -0.016151035, -1154412.9, 73584.49, 0.0, 10.000367, 9.999639 
4.1502172e+2, 1.846937e+2, -1121004.5, -1253702.0, 50130.652, -0.124729455, 0.03233582, -1104195.4, 25806.814, 0.0, 10.000566, 9.998821 
4.1501856e+2, 1.946925e+2, -991144.0, -1148181.5, 48305.48, -0.009852734, 0.0010977938, -977474.8, 54542.207, 0.0, 10.000816, 9.998755 
4.1501448e+2, 2.0469217e+2, -872484.44, -972919.06, 66709.914, -0.019091016, 0.06952683, -839203.25, 94819.1, 0.0, 10.00065, 9.999374 
4.1500926e+2, 2.1469258e+2, -872892.44, -918643.56, 105762.28, -0.18782996, 0.1344437, -787560.06, 48459.14, 0.0, 9.999961, 9.999403 
4.1500518e+2, 2.2469188e+2, -844698.4, -963709.6, 73205.875, -0.22166432, 0.17858072, -809864.06, -71837.0, 0.0, 9.999965, 9.99842 
4.1500235e+2, 2.3468965e+2, -652138.44, -830178.06, 48680.47, -0.114168935, 0.08351409, -639697.3, 352.96793, 0.0, 10.000647, 9.998338 
4.1499868e+2, 2.4468844e+2, -536147.44, -669942.06, 11690.257, -0.089603096, 0.10977946, -535133.7, 6929.7593, 0.0, 10.000547, 9.998801 
4.1499418e+2, 2.5468808e+2, -587686.6, -641419.4, 14109.632, -0.15316567, 0.1573202, -584206.94, -140139.27, 0.0, 9.999513, 9.998822 
4.1499007e+2, 2.6468745e+2, -479007.78, -451031.97, -5750.1567, -0.16992694, 0.17690426, -449896.2, -103823.34, 0.0, 9.999221, 9.999592 
4.1498622e+2, 2.7468616e+2, -331105.2, -332807.4, 15960.912, -0.15701285, 0.054798886, -315972.72, -67891.016, 0.0, 9.99957, 9.999566 
4.1498175e+2, 2.846853e+2, -244298.4, -314699.1, -35677.043, -0.14641847, 0.05027328, -229379.73, -79291.195, 0.00000000001177225, 9.999792, 9.998925 
4.1497698e+2, 2.946847e+2, -188600.08, -234094.55, -8230.105, -0.118405975, 0.05614555, -187157.0, -135062.0, 0.0000013022876, 9.999487, 9.998947 
4.1497457e+2, 3.0468324e+2, -95957.97, -42066.4, 24542.86, 0.028851755, -0.03170305, -32564.586, -32564.586, 0.000014575742, 9.999307, 10.000019 
4.149686e+2, 3.1468484e+2, -96837.09, 75605.64, 29604.934, -0.21450247, 0.08699754, 80546.63, 80546.63, 0.000055427667, 9.998708, 10.00112 
4.250535e+2, 1.2469911e+2, -1735139.1, -1784978.9, 201369.0, -0.017568486, -0.0132318735, -1557153.9, 160798.36, 0.00012015749, 9.999998, 9.999501 
4.2504472e+2, 1.3469987e+2, -1550838.4, -1640526.1, -90007.2, -0.15283507, 0.05820605, -1495122.5, 124822.92, 0.00006079175, 10.000627, 9.999521 
4.2504197e+2, 1.4469907e+2, -1422611.5, -1502962.4, 14187.819, 0.13775161, 0.020135295, -1420179.9, 101772.3, 0.00002257458, 10.000749, 9.999714 
4.2503628e+2, 1.5469848e+2, -1436730.6, -1466316.8, -27722.766, 0.02807058, -0.048637055, -1420101.0, 3854.4014, 0.0000044461326, 10.000019, 9.999646 
4.2503154e+2, 1.6469829e+2, -1356833.1, -1377858.3, -5879.735, -0.010813382, -0.021330854, -1355300.5, -29344.371, 0.00000009724189, 9.999903, 9.999636 
4.2502668e+2, 1.7469856e+2, -1172462.5, -1237395.6, -44310.266, -0.10047187, 0.006611728, -1149997.5, 77956.75, 0.0, 10.000483, 9.999651 
4.2502236e+2, 1.8469833e+2, -1106671.5, -1243547.9, -49088.215, -0.11270817, 0.06056511, -1090887.1, 39071.4, 0.0, 10.000635, 9.998867 
4.2501915e+2, 1.9469713e+2, -1068531.6, -1182907.0, -43104.51, 0.005458714, 0.023198606, -1054106.3, -22132.645, 0.0, 10.000254, 9.998796 
4.250151e+2, 2.0469676e+2, -927661.5, -960862.5, 2068.9788, 0.015421238, 0.0678872, -927533.06, 6444.9478, 0.0, 10.0001135, 9.999711 
4.2500994e+2, 2.1469705e+2, -816294.2, -857828.4, -12232.806, -0.11659368, 0.091035075, -812959.1, 23013.914, 0.0, 10.000204, 9.999708 
4.250061e+2, 2.2469632e+2, -775460.4, -948295.9, 32424.842, -0.14582773, 0.12360534, -769577.5, -31596.74, 0.0, 10.000526, 9.998246 
4.2500356e+2, 2.3469427e+2, -602344.0, -823279.6, 41984.19, -0.06971368, 0.0652225, -594634.75, 45369.67, 0.0, 10.001076, 9.998172 
4.2499962e+2, 2.446931e+2, -475756.94, -672315.2, 15052.3545, -0.06994482, 0.119123004, -474610.94, 67407.95, 0.0, 10.001095, 9.998528 
4.2499423e+2, 2.5469255e+2, -457295.34, -614192.56, -13016.142, -0.14300777, 0.17802328, -456222.84, -12196.715, 0.0, 10.000547, 9.99852 
4.2498988e+2, 2.646919e+2, -377117.63, -415199.56, 5245.067, -0.14137197, 0.22046621, -376408.44, -30376.027, 0.0, 9.999971, 9.99949 
4.2498657e+2, 2.746909e+2, -373232.4, -362782.53, -26305.416, -0.05843533, 0.13396223, -341188.16, -93148.14, 0.0, 9.999323, 9.999488 
4.249821e+2, 2.846899e+2, -328298.63, -348692.4, -47492.58, -0.05590173, 0.121478565, -289920.6, -139873.84, 0.0000000012455732, 9.999223, 9.998947 
4.2497674e+2, 2.9468876e+2, -151441.92, -215178.05, -47119.35, -0.09276163, 0.06937041, -126425.83, -74370.37, 0.0000019825331, 9.999746, 9.998948 
4.249738e+2, 3.0468658e+2, -49586.6, -67341.54, -7217.13, 0.009629885, -0.06814343, -47023.074, -47023.074, 0.000019679212, 9.999834, 9.999594 
4.2496827e+2, 3.146881e+2, -24983.094, 46100.855, -30289.943, -0.13842711, 0.08302499, 57256.98, 57256.98, 0.00007104561, 9.999463, 10.000562 
4.3505433e+2, 1.24704584e+2, -1795304.4, -1891644.8, 241889.8, -0.011416047, -0.043643877, -1596835.0, 121057.77, 0.00011272219, 9.999949, 9.998788 
4.3504637e+2, 1.3470487e+2, -1606247.0, -1751445.0, -49248.188, -0.091693625, 0.060017742, -1591119.1, 28775.871, 0.00005585788, 10.000626, 9.998759 
4.3504193e+2, 1.4470398e+2, -1452536.4, -1556721.1, -23440.383, 0.013658646, 0.07160259, -1447505.5, 74399.836, 0.000019900395, 10.000703, 9.999371 
4.350363e+2, 1.547032e+2, -1453993.1, -1508386.4, -39881.12, -0.0088130925, 0.013967001, -1432918.1, -9007.066, 0.0000034951138, 10.000034, 9.999354 
4.3503204e+2, 1.6470255e+2, -1412552.8, -1474100.4, -1070.4063, 0.014426662, 0.038169894, -1412534.1, -86616.34, 0.000000032016867, 9.999826, 9.999008 
4.3502808e+2, 1.7470188e+2, -1229258.3, -1335723.8, -7683.2173, -0.041911334, 0.035706017, -1228706.6, -779.2349, 0.0, 10.000404, 9.999011 
4.3502343e+2, 1.8470159e+2, -1092365.9, -1184068.8, -76271.05, -0.10051809, 0.09580345, -1049225.0, 80707.22, 0.0, 10.000508, 9.999337 
4.3501842e+2, 1.9470151e+2, -1050743.3, -1114657.6, -41928.277, -0.12206548, 0.1172258, -1029981.9, 1952.3751, 0.0, 10.000125, 9.999328 
4.3501434e+2, 2.0470087e+2, -951396.25, -973157.0, -10095.507, -0.10204118, 0.10747728, -947434.06, -13495.269, 0.0, 9.999954, 9.999702 
4.3501103e+2, 2.1469933e+2, -843509.94, -876442.44, 5030.1978, -0.060465697, -0.051418483, -842758.75, -6809.6514, 0.0, 10.000041, 9.999657 
4.3500775e+2, 2.2469865e+2, -755762.2, -869161.75, 39454.355, -0.060799543, -0.039362825, -743385.9, -5430.9995, 0.0, 10.000361, 9.998869 
4.3500447e+2, 2.3469867e+2, -580241.25, -738694.5, 77708.77, -0.11454973, 0.04238246, -548492.6, 91465.8, 0.0, 10.000907, 9.998833 
4.3500012e+2, 2.4469787e+2, -518055.22, -729510.4, -18381.988, -0.15750015, 0.11719384, -516469.16, 25500.287, 0.0, 10.00097, 9.998188 
4.3499458e+2, 2.546959e+2, -503686.75, -677119.94, -18896.832, -0.19462126, 0.06384575, -501651.7, -57659.89, 0.0, 10.000412, 9.998146 
4.349904e+2, 2.6469508e+2, -414146.06, -481169.5, -31002.623, -0.11367735, 0.12807985, -402004.78, -56002.953, 0.0, 9.999917, 9.999065 
4.349877e+2, 2.7469525e+2, -414062.16, -427607.3, -33534.805, 0.0874892, 0.20285451, -386622.88, -138622.03, 0.0, 9.9992285, 9.999091 
4.3498266e+2, 2.8469458e+2, -332925.2, -342659.8, -40376.37, 0.0474858, 0.23581448, -297123.8, -147119.33, 0.000000012355592, 9.999167, 9.99901 
4.349757e+2, 2.946926e+2, -165048.86, -219065.73, -11801.591, -0.21315905, 0.09557398, -162583.02, -110566.18, 0.0000027662056, 9.999652, 9.998963 
4.3497193e+2, 3.0468926e+2, -106833.89, -187078.23, -32977.133, -0.1911097, -0.11844639, -95020.72, -95020.72, 0.000024180765, 9.999829, 9.998776 
4.349693e+2, 3.1469062e+2, -148605.88, -182436.94, 43639.586, -0.05582578, 0.10361306, -118718.11, -118718.11, 0.00008333817, 9.999348, 9.999045 
4.4505474e+2, 1.2470857e+2, -1855495.4, -1858489.4, 142225.3, 0.08908204, 0.024726175, -1714759.1, 3096.6177, 0.00010688196, 9.999316, 9.999305 
4.450475e+2, 1.3470867e+2, -1721639.9, -1745303.4, -139090.34, 0.026212297, 0.0569316, -1593879.0, 25978.54, 0.000051033883, 9.999594, 9.999302 
4.4504118e+2, 1.4470795e+2, -1541341.5, -1615534.3, -30487.07, -0.09268322, 0.06458017, -1530421.1, -8555.155, 0.000017295639, 10.000157, 9.9992285 
4.4503656e+2, 1.5470731e+2, -1348478.0, -1474628.3, -77012.61, -0.02021854, 0.033535242, -1312007.1, 111864.96, 0.0000027656245, 10.000826, 9.999205 
4.4503286e+2, 1.6470666e+2, -1251059.6, -1401510.9, 26969.219, 0.06838862, 0.06683199, -1246371.4, 79508.02, 0.000000035556127, 10.000926, 9.998993 
4.4502908e+2, 1.7470586e+2, -1229228.0, -1339817.9, 40553.516, 0.027325481, 0.05118874, -1215950.9, 11938.773, 0.0, 10.000401, 9.998998 
4.4502434e+2, 1.8470556e+2, -1101574.0, -1173423.1, 15586.068, -0.04224693, 0.10467373, -1098338.6, 31555.412, 0.0, 10.000403, 9.999446 
4.4501913e+2, 1.9470546e+2, -927587.06, -1043542.56, -13245.796, -0.09506845, 0.1168892, -926093.2, 105802.02, 0.0, 10.000934, 9.999415 
4.4501492e+2, 2.0470473e+2, -831252.06, -934201.8, 8645.338, -0.07784908, 0.10327178, -830531.06, 103369.72, 0.0, 10.000885, 9.999511 
4.4501168e+2, 2.14703e+2, -839345.75, -893721.06, -19334.146, 0.003255105, -0.053438116, -833172.1, 2741.9226, 0.0, 10.000165, 9.99947 
4.4500828e+2, 2.2470242e+2, -841970.06, -873331.06, 40057.84, 0.00079495495, -0.038489293, -814633.0, -76714.06, 0.0, 9.999609, 9.999201 
4.4500473e+2, 2.3470286e+2, -802466.5, -809848.6, 27004.344, -0.08857787, 0.05184892, -778902.1, -138984.61, 0.0, 9.999226, 9.999153 
4.4500047e+2, 2.4470228e+2, -730252.5, -780499.25, -29664.275, -0.1290238, 0.10953018, -716502.3, -174577.63, 0.0, 9.999287, 9.998652 
4.4499543e+2, 2.547004e+2, -561202.6, -650844.4, 5080.7183, -0.11198784, 0.015818624, -560915.56, -116971.64, 0.0, 9.9997835, 9.998629 
4.449913e+2, 2.6469943e+2, -406246.2, -521192.4, 48428.746, -0.02132543, 0.06217661, -388562.78, -42608.117, 0.0, 10.000171, 9.998659 
4.4498804e+2, 2.746993e+2, -257085.42, -402494.56, 12854.333, 0.14135125, 0.15176633, -255957.83, -7999.106, 0.0, 10.00053, 9.998632 
4.4498295e+2, 2.846984e+2, -122546.28, -279656.03, 30858.055, 0.08625644, 0.20074618, -116702.766, 33263.563, 0.00000003062236, 10.000763, 9.998684 
4.449765e+2, 2.9469624e+2, -40776.344, -186540.58, -7012.8936, -0.13708524, 0.07564676, -40439.723, 11541.436, 0.0000032986038, 10.000636, 9.998709 
4.4497168e+2, 3.0469352e+2, -109618.89, -190189.36, -13941.353, -0.18615803, -0.06519834, -107274.78, -107274.78, 0.000027227657, 9.999816, 9.998751 
4.4496953e+2, 3.1469434e+2, -324525.03, -310377.88, 97348.234, 0.09907428, 0.10418708, -219846.56, -219846.56, 0.000091368296, 9.998337, 9.998639 
4.5505387e+2, 1.24711044e+2, -1742983.1, -1628170.5, 101222.07, -0.0102461185, 0.17142147, -1569209.3, 148632.05, 0.000102696926, 9.999322, 10.000883 
4.5504746e+2, 1.3471128e+2, -1591948.5, -1492220.8, -111604.43, 0.026135108, 0.044371456, -1419847.3, 199985.55, 0.000047349753, 9.999645, 10.001018 
4.5503923e+2, 1.4471082e+2, -1542764.6, -1607257.5, -14690.812, -0.34691033, -0.010440705, -1539575.9, -17740.73, 0.000015080613, 10.000116, 9.999303 
4.5503652e+2, 1.5471071e+2, -1353539.6, -1474909.4, -34887.73, -0.1432379, 0.008948463, -1344225.9, 79613.32, 0.0000021144335, 10.00079, 9.999216 
4.5503357e+2, 1.6471061e+2, -1214007.8, -1309834.9, -9464.42, 0.011623872, 0.0658517, -1213082.0, 112758.9, 0.00000004449902, 10.000856, 9.999657 
4.5502928e+2, 1.747105e+2, -1186116.4, -1245288.0, 36842.27, -0.029642414, 0.0492946, -1168451.0, 59390.066, 0.0, 10.000373, 9.9996605 
4.5502478e+2, 1.8471013e+2, -1139653.8, -1228600.6, 20007.87, -0.07217507, 0.07870294, -1135360.4, -5515.8467, 0.0, 10.000302, 9.999113 
4.5502076e+2, 1.9470908e+2, -977413.75, -1108874.8, 19023.0, -0.060803607, 0.029125545, -974716.4, 57139.58, 0.0, 10.000776, 9.999038 
4.5501631e+2, 2.0470846e+2, -883790.75, -1004694.7, -32078.383, -0.052067216, 0.06672188, -875806.94, 58056.09, 0.0, 10.000715, 9.99911 
4.5501143e+2, 2.1470812e+2, -894875.1, -959435.9, -31856.463, -0.0666437, 0.0869542, -881802.94, -45935.88, 0.0, 9.999957, 9.999115 
4.5500726e+2, 2.247077e+2, -865655.44, -886430.7, 12184.159, -0.08874824, 0.13364649, -860031.94, -122159.625, 0.0, 9.999445, 9.999197 
4.550038e+2, 2.3470683e+2, -821256.6, -815851.6, 28079.803, -0.13385718, 0.092568986, -790344.56, -150462.66, 0.0, 9.999077, 9.9991865 
4.5500016e+2, 2.4470636e+2, -659160.1, -598503.0, -24497.291, -0.11534318, 0.09630988, -589845.2, -47960.63, 0.0, 9.999147, 9.999972 
4.5499638e+2, 2.54706e+2, -484969.44, -458510.97, 40070.15, -0.025798136, 0.02561472, -429542.7, 14339.937, 0.0, 9.999638, 10.000026 
4.5499212e+2, 2.6470494e+2, -456276.7, -601862.56, 51219.305, 0.013184711, 0.013559997, -440062.72, -94170.95, 0.0, 10.000076, 9.998144 
4.5498714e+2, 2.7470294e+2, -316945.94, -499768.5, 46073.164, -0.0338874, -0.030477308, -305991.4, -58076.492, 0.0, 10.000417, 9.998013 
4.549825e+2, 2.8470135e+2, -175257.92, -382656.0, 13989.986, -0.07080519, 0.017445184, -174318.48, -24386.23, 0.000000022691747, 10.000724, 9.998 
4.5497864e+2, 2.9469967e+2, -88317.57, -279513.88, 4838.1387, -0.03157168, 0.006737547, -88195.22, -36246.863, 0.0000033720132, 10.000588, 9.998104 
4.5497245e+2, 3.0469918e+2, -57797.04, -71141.0, -75761.18, -0.12512141, 0.07881811, 11585.377, 11585.377, 0.000028360193, 9.999782, 9.999575 
4.549682e+2, 3.1469893e+2, -292465.22, -220331.81, 80142.37, 0.05686292, 0.052889783, -168514.45, -168514.45, 0.00009465621, 9.998238, 9.999302 
4.6505255e+2, 1.2471372e+2, -1753686.0, -1606026.4, 225610.02, -0.047891043, 0.14676723, -1442473.1, 275343.0, 0.00009773488, 9.99909, 10.001147 
4.650492e+2, 1.3471425e+2, -1536593.8, -1433290.5, -69258.81, 0.23783112, 0.01037982, -1398543.8, 221260.03, 0.000043477085, 9.999841, 10.001339 
4.650399e+2, 1.4471418e+2, -1523330.3, -1573420.6, 10661.691, -0.28212994, -0.03505286, -1521155.4, 646.9303, 0.000012657647, 10.000147, 9.999522 
4.6503705e+2, 1.5471457e+2, -1460720.3, -1500963.4, -33019.81, -0.11907471, 0.015147514, -1442174.1, -18372.428, 0.0000014631825, 9.999949, 9.999445 
4.6503398e+2, 1.6471477e+2, -1328981.6, -1349605.9, 4286.294, 0.017379498, 0.08083463, -1328126.3, -2325.732, 0.000000030371112, 10.000019, 9.999776 
4.650299e+2, 1.7471452e+2, -1178586.8, -1226747.8, -24912.51, 0.0042026094, 0.041829128, -1168019.0, 59781.555, 0.0, 10.000375, 9.99978 
4.6502557e+2, 1.8471399e+2, -1125320.4, -1217548.6, -18505.357, -0.01641027, 0.043292556, -1121745.8, 8059.2026, 0.0, 10.000355, 9.999181 
4.650215e+2, 1.9471273e+2, -1107301.0, -1165436.5, -12414.575, -0.0056511243, -0.031544216, -1104761.0, -72943.055, 0.0, 9.999827, 9.9991255 
4.65017e+2, 2.0471236e+2, -1010783.44, -1073388.8, -1896.1245, -0.0038074586, 0.02773448, -1010726.06, -76902.8, 0.0, 9.999861, 9.999055 
4.6501198e+2, 2.147127e+2, -817121.75, -935414.0, -10876.517, -0.024739303, 0.12349952, -816130.06, 19692.88, 0.0, 10.000534, 9.99901 
4.6500754e+2, 2.247123e+2, -692838.94, -792953.94, 59498.047, -0.054399557, 0.17662859, -665141.9, 72685.97, 0.0, 10.000604, 9.999267 
4.6500364e+2, 2.3471083e+2, -678161.56, -738617.56, 48085.58, -0.09756478, 0.068031944, -651592.06, -11750.8955, 0.0, 10.000038, 9.999246 
4.65e+2, 2.447102e+2, -562849.5, -551666.75, 6030.9844, -0.06653141, 0.051201787, -549034.0, -7189.1855, 0.0, 9.999797, 9.999974 
4.6499687e+2, 2.5471026e+2, -445709.84, -441091.78, -60218.215, 0.057360932, 0.018865015, -383138.34, 60701.84, 0.0, 9.9999075, 10.000009 
4.6499258e+2, 2.6470935e+2, -447684.13, -586414.75, -56481.06, 0.062381677, 0.018037554, -427597.47, -81749.56, 0.0, 10.000066, 9.99827 
4.649869e+2, 2.7470723e+2, -345592.97, -498781.66, -32671.527, -0.08108297, -0.052687224, -338915.94, -91044.59, 0.0, 10.000145, 9.99816 
4.6498245e+2, 2.8470573e+2, -268660.7, -410478.56, 14597.392, -0.10001731, -0.011195522, -267173.78, -117285.4, 0.00000001636591, 10.000015, 9.998144 
4.6498004e+2, 2.9470444e+2, -191466.28, -300096.53, 22477.236, 0.09927245, 0.0016524773, -186999.11, -135096.42, 0.0000038591365, 9.999768, 9.998345 
4.649728e+2, 3.04705e+2, -44443.2, -79265.51, -43767.62, -0.061276365, 0.1660259, -14750.715, -14750.715, 0.000029778155, 9.999896, 9.999499 
4.6496746e+2, 3.1470385e+2, 15465.538, -25084.26, -27790.623, 0.08353852, 0.07100416, 29591.078, 29591.078, 0.00009717631, 10.000132, 9.999751 
4.7504985e+2, 1.2471652e+2, -1835989.0, -1738650.4, 101051.05, -0.30971104, -0.03840338, -1675159.0, 42621.957, 0.00009217974, 9.998962, 10.000283 
4.7505218e+2, 1.3471757e+2, -1600337.9, -1554658.3, -22308.715, 0.5135019, -0.036720786, -1545571.0, 74199.5, 0.00003847725, 9.999825, 10.000498 
4.7504264e+2, 1.44718e+2, -1498493.3, -1521750.3, -12663.681, -0.07374341, -0.0050394177, -1492929.0, 28838.078, 0.000009911169, 10.000127, 9.999896 
4.7503754e+2, 1.5471886e+2, -1423118.3, -1433041.4, -25419.104, -0.10392962, 0.046876054, -1402181.0, 21579.03, 0.0000009593812, 9.999978, 9.999905 
4.750337e+2, 1.64719e+2, -1369210.8, -1418161.3, 3020.4512, -0.04805923, 0.1031599, -1369025.1, -43265.957, 0.000000014696447, 9.999957, 9.99934 
4.7503054e+2, 1.7471789e+2, -1221652.9, -1301173.0, 5281.3804, -0.0017013191, 0.030212417, -1221303.6, 6465.144, 0.0, 10.000313, 9.999303 
4.7502622e+2, 1.8471713e+2, -1100326.3, -1143500.6, -50304.105, -0.019940004, 0.008303212, -1067173.0, 62602.215, 0.0, 10.000256, 9.99974 
4.75021e+2, 1.9471647e+2, -1080599.4, -1087764.8, -16256.621, -0.06938321, -0.06667992, -1067535.4, -35754.66, 0.0, 9.999727, 9.999711 
4.7501656e+2, 2.0471643e+2, -1016149.25, -1048946.0, 8960.16, -0.06327737, -0.014462691, -1013861.0, -80079.25, 0.0, 9.999712, 9.99929 
4.7501293e+2, 2.1471679e+2, -827516.1, -912491.94, 30380.371, -0.012752523, 0.060193755, -817771.94, 18008.965, 0.0, 10.000351, 9.99925 
4.7500867e+2, 2.2471632e+2, -706708.8, -792829.9, 25379.47, -0.03130407, 0.08861385, -699786.1, 37999.03, 0.0, 10.000464, 9.999343 
4.7500375e+2, 2.3471472e+2, -695645.3, -738533.7, 41758.426, -0.12059142, -0.040335085, -670146.75, -30350.023, 0.0, 9.999875, 9.999329 
4.749996e+2, 2.4471366e+2, -674989.44, -757592.5, -2805.3992, -0.11858331, -0.0385114, -674894.3, -133087.3, 0.0, 9.999674, 9.998622 
4.7499645e+2, 2.5471294e+2, -564516.9, -662043.4, -39728.24, -0.009807439, -0.010018612, -550381.9, -106563.4, 0.0, 9.999783, 9.998557 
4.7499228e+2, 2.6471254e+2, -402583.88, -467220.25, -67567.89, -0.006254371, 0.07365469, -360002.9, -14178.605, 0.0, 9.999965, 9.999132 
4.749867e+2, 2.7471212e+2, -293708.25, -363994.78, -12982.066, -0.14715868, 0.08189917, -291387.1, -43559.277, 0.0, 10.000039, 9.999132 
4.7498244e+2, 2.847114e+2, -211107.81, -287576.4, -10163.766, -0.13594116, 0.107178375, -209779.97, -59944.855, 0.0000000367379, 9.99999, 9.999005 
4.7498015e+2, 2.9471022e+2, -148137.28, -191124.45, 29757.01, 0.09184609, 0.03986077, -132923.19, -81075.76, 0.000004901276, 9.999665, 9.999154 
4.7497228e+2, 3.0471063e+2, -121588.914, -213248.56, -47995.88, -0.12744153, 0.19435821, -101056.266, -101056.266, 0.000032907166, 9.999802, 9.998614 
4.7496644e+2, 3.14709e+2, 21107.777, 6527.7134, -15492.815, -0.11111327, 0.14793675, 30940.008, 30940.008, 0.00010232853, 10.000064, 9.99999 
4.8505005e+2, 1.2472115e+2, -1861523.9, -1789355.9, 45542.934, -0.16556402, -0.044203337, -1767334.8, -49600.453, 0.00008688649, 9.998951, 9.999955 
4.8505273e+2, 1.3472232e+2, -1574455.0, -1582640.8, 29682.266, 0.5857847, 0.0094915, -1548584.8, 71140.88, 0.000032757685, 10.000166, 10.000161 
4.8504296e+2, 1.4472285e+2, -1412671.5, -1472891.1, 48986.875, -0.07115586, 0.067558944, -1385280.8, 136441.23, 0.000007215262, 10.000696, 9.9999485 
4.850384e+2, 1.5472332e+2, -1305770.5, -1374612.5, -32578.9, -0.04486769, 0.07341045, -1292797.5, 130920.42, 0.00000059770906, 10.000773, 9.999921 
4.8503458e+2, 1.6472319e+2, -1265510.9, -1355291.1, 35311.453, 0.020968534, 0.097754225, -1253286.9, 72431.69, 0.0000000048834687, 10.000622, 9.999445 
4.8503116e+2, 1.7472208e+2, -1226205.4, -1287233.6, 55879.566, 0.042726293, 0.009160228, -1193051.4, 34676.496, 0.0, 10.000231, 9.999425 
4.8502663e+2, 1.8472156e+2, -1135980.3, -1155691.6, 22294.955, 0.018913563, 0.003884032, -1121459.8, 8272.245, 0.0, 10.000014, 9.999753 
4.850212e+2, 1.9472146e+2, -1046071.5, -1063828.0, -13691.239, -0.023253655, -0.018808916, -1038631.9, -6899.0747, 0.0, 9.99996, 9.999741 
4.8501676e+2, 2.0472136e+2, -958405.1, -1032553.6, 34322.516, -0.030534806, 0.030008268, -944956.75, -11222.231, 0.0, 10.000143, 9.999212 
4.8501343e+2, 2.1472096e+2, -823094.75, -915811.6, 10635.371, 0.0074798684, 0.03660865, -821890.4, 13849.764, 0.0, 10.000399, 9.999214 
4.8500922e+2, 2.2472034e+2, -726852.1, -787817.7, -15952.451, -0.006250447, 0.045174316, -722930.25, 14814.798, 0.0, 10.00026, 9.999479 
4.850039e+2, 2.3471917e+2, -716127.8, -738109.8, -26512.104, -0.07434924, -0.050688826, -698418.75, -58666.816, 0.0, 9.99967, 9.999438 
4.8499957e+2, 2.4471821e+2, -724817.94, -824630.5, 25155.096, -0.07463449, -0.02666317, -718836.7, -177074.33, 0.0, 9.99952, 9.998238 
4.8499635e+2, 2.5471732e+2, -588146.6, -715516.4, 31397.21, 0.0066390317, 0.026822403, -580827.6, -137049.38, 0.0, 9.999817, 9.998172 
4.8499206e+2, 2.6471698e+2, -424735.7, -433112.1, 35964.6, 0.0020824957, 0.11686656, -392716.22, -46932.21, 0.0, 9.999618, 9.999531 
4.849865e+2, 2.747168e+2, -433070.13, -385799.1, 19246.498, -0.1025074, 0.10720952, -378954.03, -131170.66, 0.0, 9.998877, 9.999548 
4.8498237e+2, 2.8471622e+2, -353126.78, -329613.63, 33844.406, -0.08103808, 0.11505336, -305542.0, -155753.6, 0.00000008825205, 9.998893, 9.999246 
4.849801e+2, 2.9471537e+2, -126587.26, -158675.86, -9904.6455, 0.12850034, 0.058484305, -123776.28, -71978.195, 0.0000056092463, 9.999714, 9.999352 
4.849719e+2, 3.047151e+2, -127292.484, -230663.7, -62386.395, -0.1293114, 0.14307457, -97962.88, -97962.88, 0.000035389916, 9.999822, 9.998477 
4.8496658e+2, 3.147138e+2, -108791.63, -27032.418, -52630.637, -0.032721054, 0.14133108, -1270.2479, -1270.2479, 0.00010599746, 9.999036, 10.000254 
4.9505168e+2, 1.2472744e+2, -1842174.5, -1760137.9, -112221.95, 0.020630429, 0.124726966, -1681672.9, 36004.79, 0.00007926606, 9.998995, 10.0001335 
4.9505037e+2, 1.3472846e+2, -1557363.8, -1550508.3, 87400.7, 0.30148837, 0.13906223, -1466468.0, 153201.2, 0.000026309035, 10.000178, 10.000373 
4.9504054e+2, 1.4472876e+2, -1451056.4, -1534928.4, 35797.9, -0.42712232, 0.18222804, -1437855.1, 83811.86, 0.0000047383246, 10.000622, 9.999558 
4.950391e+2, 1.5472801e+2, -1341213.5, -1437993.9, -13585.554, -0.09017493, 0.10755498, -1339342.5, 84331.836, 0.0000002991547, 10.000736, 9.999501 
4.950361e+2, 1.647275e+2, -1222872.6, -1255349.9, 5375.5405, 0.077689946, 0.0807323, -1222006.0, 103671.57, 0.0000000005507737, 10.000567, 10.00016 
4.9503145e+2, 1.7472701e+2, -1181891.6, -1182140.4, 53512.773, 0.01093427, -0.020298978, -1128503.1, 99175.13, 0.0, 10.000173, 10.000175 
4.950266e+2, 1.8472715e+2, -1187084.3, -1237310.3, 6752.0654, -0.021739606, 0.02657543, -1186192.4, -56516.02, 0.0, 9.999911, 9.99924 
4.9502167e+2, 1.9472763e+2, -1099947.0, -1151573.0, -2879.3416, -0.008337851, 0.115936, -1099786.9, -68111.695, 0.0, 9.999854, 9.999189 
4.9501708e+2, 2.0472713e+2, -999918.6, -1085609.4, 27866.727, -0.032869644, 0.16612792, -991653.56, -57971.67, 0.0, 9.999992, 9.998924 
4.9501303e+2, 2.1472527e+2, -864751.75, -971987.0, 35873.85, -0.101126134, 0.055441327, -853857.5, -18157.752, 0.0, 10.000254, 9.998905 
4.950086e+2, 2.2472432e+2, -745126.06, -784771.8, -49039.05, -0.12174782, 0.04265704, -712054.94, 25652.898, 0.0, 10.0000925, 9.999576 
4.9500367e+2, 2.347241e+2, -733354.94, -732028.5, -30903.74, -0.09559352, 0.027324498, -701780.9, -62073.332, 0.0, 9.999493, 9.999563 
4.949994e+2, 2.4472387e+2, -706257.6, -752065.4, 22145.398, -0.070699185, 0.08983561, -697302.3, -155591.84, 0.0, 9.999382, 9.9988 
4.94996e+2, 2.5472325e+2, -564346.06, -639974.25, 59624.402, -0.04271936, 0.1155997, -531555.8, -87835.234, 0.0, 9.999703, 9.998745 
4.9499154e+2, 2.6472244e+2, -445878.6, -452159.8, -6549.788, -0.045717083, 0.13248736, -441755.38, -96026.336, 0.0, 9.999521, 9.999442 
4.949858e+2, 2.7472112e+2, -465871.1, -414728.9, 7932.413, -0.09380592, 0.020692902, -413526.78, -165788.25, 0.0, 9.99872, 9.999418 
4.9498162e+2, 2.8472033e+2, -388505.72, -384415.28, 52000.668, -0.078041986, 0.031164968, -334419.63, -184673.3, 0.00000018947561, 9.9988165, 9.998903 
4.949794e+2, 2.947199e+2, -162748.89, -218767.53, 40886.56, 0.0443397, 0.05787675, -141197.81, -89443.516, 0.000005650319, 9.999656, 9.998962 
4.9497142e+2, 3.0471843e+2, -80693.11, -139048.66, -97694.68, -0.1951517, 0.00984491, -7912.102, -7912.102, 0.00003451672, 9.999832, 9.999104 
4.9496695e+2, 3.147181e+2, -98836.87, 12201.977, -56611.77, 0.021830047, 0.027870823, 35975.043, 35975.043, 0.00010176044, 9.99895, 10.000563 
5.0505257e+2, 1.2473247e+2, -1790905.9, -1715283.0, -142763.72, 0.20537443, 0.14711644, -1605408.4, 112222.32, 0.000066640154, 9.999283, 10.000288 
5.05049e+2, 1.3473324e+2, -1554664.6, -1546839.4, 103797.28, 0.1621306, 0.13443352, -1446881.0, 172742.78, 0.0000195532, 10.000183, 10.000396 
5.050407e+2, 1.4473358e+2, -1524325.0, -1561127.1, 52459.62, -0.43330023, 0.1768981, -1487132.8, 34487.707, 0.0000028130235, 10.000092, 9.99963 
5.0504005e+2, 1.5473272e+2, -1535797.6, -1519744.9, 1532.3619, 0.011204918, 0.08337425, -1519599.9, -95971.47, 0.00000011765629, 9.999365, 9.999597 
5.050369e+2, 1.6473228e+2, -1412413.4, -1336345.9, 61525.008, 0.1724936, 0.055721425, -1302047.8, 23582.662, 0.000000000026416515, 9.99921, 10.000261 
5.0503105e+2, 1.7473207e+2, -1251086.0, -1206004.3, 32727.016, -0.006690349, -0.02702151, -1188806.6, 38822.0, 0.0, 9.999638, 10.000276 
5.050262e+2, 1.8473224e+2, -1155123.9, -1263537.0, 11438.598, -0.057043552, 0.03486722, -1153930.1, -24302.809, 0.0, 10.000297, 9.998886 
5.0502264e+2, 1.9473253e+2, -932818.94, -1112317.4, -9550.673, 0.046859168, 0.14620923, -932312.2, 99317.26, 0.0, 10.001173, 9.998832 
5.050183e+2, 2.047318e+2, -832341.2, -998169.1, 33155.223, 0.037041925, 0.19136617, -825957.94, 107680.32, 0.0, 10.001141, 9.998951 
5.0501317e+2, 2.1472971e+2, -901959.9, -984679.06, 28131.37, -0.091758914, 0.051152155, -893299.56, -57642.508, 0.0, 10.000004, 9.998921 
5.050084e+2, 2.2472875e+2, -834036.4, -854957.94, -15867.423, -0.11277872, 0.050415147, -825491.8, -87826.125, 0.0, 9.999593, 9.999342 
5.050041e+2, 2.3472892e+2, -698299.75, -734714.9, -56259.316, -0.007987359, 0.09565076, -657375.06, -17710.604, 0.0, 9.999842, 9.999368 
5.0499976e+2, 2.4472876e+2, -622249.75, -669816.3, 12359.766, 0.015369352, 0.1570307, -619229.94, -77563.58, 0.0, 9.999769, 9.999181 
5.049955e+2, 2.5472787e+2, -584678.2, -602815.44, 9952.44, -0.035217073, 0.113847084, -580282.4, -136606.98, 0.0, 9.999362, 9.999164 
5.0499076e+2, 2.6472694e+2, -478833.84, -470802.9, -34475.16, -0.055112496, 0.0985244, -440110.16, -94426.69, 0.0, 9.99929, 9.999439 
5.049853e+2, 2.7472576e+2, -354820.72, -364365.9, -49080.33, -0.04135524, -0.0000034565237, -310281.47, -62588.473, 0.00000000061010413, 9.999479, 9.999407 
5.049813e+2, 2.8472537e+2, -328065.72, -338424.3, 60488.492, -0.004361363, 0.043188475, -272535.2, -122837.63, 0.00000027597625, 9.999163, 9.999057 
5.0497866e+2, 2.9472563e+2, -351159.8, -296172.4, 52757.445, 0.081752226, 0.12462698, -264174.5, -212475.5, 0.0000049916057, 9.998307, 9.999089 
5.0497097e+2, 3.0472395e+2, -177883.22, -163728.31, -20484.86, -0.17381996, 0.042751472, -149132.73, -149132.73, 0.000030276777, 9.999076, 9.999296 
5.0496787e+2, 3.147232e+2, 210080.2, 131074.83, -97702.875, 0.12376185, -0.0044737067, 275964.03, 275964.03, 0.000090633286, 10.001204, 10.000294 
5.1505125e+2, 1.2473638e+2, -1783196.8, -1708612.3, -248856.3, 0.06604418, 0.036709797, -1494269.5, 223322.77, 0.000052165007, 9.99931, 10.000323 
5.1504815e+2, 1.3473682e+2, -1563217.4, -1573149.0, 151140.31, 0.022215582, 0.00032427988, -1416961.3, 202626.95, 0.000013925394, 10.000215, 10.0002 
5.15043e+2, 1.4473738e+2, -1491503.0, -1489893.6, 5150.572, -0.2585214, 0.053007517, -1485485.3, 36096.813, 0.000001645238, 10.000072, 10.0001335 
5.150408e+2, 1.5473737e+2, -1504155.4, -1445819.8, -9167.623, 0.12033422, -0.005776867, -1444413.0, -20832.227, 0.00000003629146, 9.999329, 10.000125 
5.150364e+2, 1.647375e+2, -1461323.8, -1417375.1, 64028.387, 0.17101726, 0.019673564, -1371655.3, -46077.105, 0.0, 9.999126, 9.999741 
5.1502955e+2, 1.7473736e+2, -1302062.1, -1293540.1, 64529.324, -0.15677024, -0.003234921, -1233131.3, -5552.9165, 0.0, 9.99957, 9.9997015 
5.1502514e+2, 1.8473706e+2, -1179957.0, -1294039.8, 29766.12, -0.2286044, 0.048984546, -1172657.5, -43074.746, 0.0, 10.000202, 9.998719 
5.150237e+2, 1.9473627e+2, -954249.1, -1140758.9, 39616.453, -0.0039049895, 0.06388104, -946183.06, 85411.72, 0.0, 10.001094, 9.998675 
5.1501983e+2, 2.0473537e+2, -845790.3, -986457.3, -22065.824, 0.04682696, 0.091203734, -842410.1, 91194.25, 0.0, 10.00097, 9.999114 
5.1501346e+2, 2.1473409e+2, -910614.75, -965402.44, -927.28186, -0.09705688, 0.011459054, -910599.06, -74985.086, 0.0, 9.999839, 9.999134 
5.150084e+2, 2.2473347e+2, -891106.9, -944058.6, -24350.744, -0.09995888, 0.060638085, -881611.5, -143991.47, 0.0, 9.999455, 9.998803 
5.1500475e+2, 2.3473345e+2, -757747.56, -829103.94, -31705.287, 0.039975915, 0.14357495, -745695.7, -106071.57, 0.0, 9.999707, 9.998792 
5.1500005e+2, 2.4473275e+2, -617303.94, -634521.5, -16214.124, 0.037155528, 0.16906337, -607554.9, -65923.98, 0.0, 9.999665, 9.99947 
5.149943e+2, 2.547311e+2, -583151.06, -568163.94, 11090.381, -0.12538874, 0.013584984, -562272.8, -118629.3, 0.0, 9.999219, 9.999473 
5.149892e+2, 2.6473048e+2, -488958.1, -467309.6, -41709.902, -0.16839477, 0.010703798, -435042.3, -89394.58, 0.0, 9.999191, 9.999512 
5.149847e+2, 2.747306e+2, -363320.3, -362062.38, -20451.146, -0.08137019, 0.040972553, -342230.53, -94583.11, 0.0000000018853024, 9.999387, 9.999473 
5.149808e+2, 2.8473127e+2, -290184.63, -250946.78, 13976.451, -0.0024281216, 0.15576129, -246477.45, -96835.17, 0.00000034894228, 9.99913, 9.999669 
5.149772e+2, 2.947324e+2, -324046.44, -218787.05, 42746.258, 0.064257264, 0.25697312, -203614.63, -151981.66, 0.000004315403, 9.998212, 9.999664 
5.149699e+2, 3.0473152e+2, -200999.83, -194938.97, 52640.906, -0.21983784, 0.23644035, -145241.34, -145241.34, 0.000026122347, 9.999024, 9.9991045 
5.149686e+2, 3.1472874e+2, 131726.02, -790.9271, 5604.9194, -0.0017769231, 0.01753707, 131962.66, 131962.66, 0.000081293096, 10.001091, 9.999439 
5.25051e+2, 1.24742165e+2, -1728342.3, -1676912.4, -190554.64, 0.108709276, 0.051782507, -1510345.4, 207192.33, 0.000041919076, 9.9996605, 10.000367 
5.250471e+2, 1.3474253e+2, -1714642.4, -1661294.1, 175608.28, -0.045413353, 0.023109445, -1510345.6, 109188.195, 0.000010470756, 9.999246, 10.000056 
5.250449e+2, 1.4474294e+2, -1593496.5, -1534623.4, 57956.785, -0.03127521, 0.06514041, -1499056.1, 22472.682, 0.0000009776196, 9.999353, 10.000172 
5.2504104e+2, 1.54743e+2, -1322155.0, -1351906.9, -24495.473, 0.15430784, 0.00779134, -1308372.3, 115154.125, 0.000000005050013, 10.0005455, 10.000179 
5.25036e+2, 1.6474324e+2, -1225858.6, -1334111.6, 59611.324, 0.1340326, 0.055339824, -1199466.9, 126056.305, 0.0, 10.000868, 9.999481 
5.250297e+2, 1.7474328e+2, -1221805.0, -1286370.5, 47936.348, -0.118069895, 0.07878008, -1196294.4, 31228.604, 0.0, 10.000237, 9.99944 
5.250257e+2, 1.8474266e+2, -1216071.1, -1307570.8, 78783.87, -0.16978624, 0.11158817, -1170716.9, -41186.195, 0.0, 9.999948, 9.9987545 
5.250242e+2, 1.9474101e+2, -1125972.8, -1216116.5, 70014.305, 0.009146404, 0.042172827, -1087777.1, -56227.887, 0.0, 9.99991, 9.998727 
5.2502036e+2, 2.0474008e+2, -958342.56, -1030353.4, 16872.13, 0.056705635, 0.059329703, -954585.44, -21027.027, 0.0, 10.000138, 9.999218 
5.250141e+2, 2.1473962e+2, -791908.1, -900242.5, 5396.004, -0.042898744, 0.05466911, -791640.06, 43919.934, 0.0, 10.000604, 9.999219 
5.250089e+2, 2.2473909e+2, -753766.1, -910774.5, 19155.484, -0.043309648, 0.120442525, -751462.9, -13897.055, 0.0, 10.0005665, 9.998478 
5.2500474e+2, 2.3473814e+2, -735849.94, -860056.9, -3639.431, 0.06610433, 0.14637865, -735743.4, -96163.71, 0.0, 10.00004, 9.998415 
5.249998e+2, 2.4473704e+2, -636650.6, -648332.0, 21451.617, 0.05811382, 0.15228201, -620258.75, -78668.35, 0.0, 9.999546, 9.999441 
5.249939e+2, 2.5473568e+2, -609590.6, -581778.2, -5696.7373, -0.074559696, 0.030397415, -580656.56, -137057.34, 0.0, 9.999047, 9.999463 
5.2498865e+2, 2.6473504e+2, -557021.9, -541888.44, -30002.453, -0.11806347, 0.04551794, -518513.25, -172909.31, 0.0, 9.998908, 9.9991255 
5.249843e+2, 2.747349e+2, -425854.66, -425605.6, -74754.74, -0.037274152, 0.08506138, -350975.28, -103367.61, 0.00000000009174081, 9.999135, 9.999135 
5.2498007e+2, 2.847352e+2, -281914.38, -220177.55, -67621.4, 0.022844724, 0.16477886, -176712.17, -27106.313, 0.00000033351301, 9.999073, 9.999905 
5.249755e+2, 2.9473576e+2, -239613.45, -147826.78, -101647.2, 0.051477566, 0.18217418, -82192.76, -30593.4, 0.0000041082662, 9.998662, 9.99993 
5.2496886e+2, 3.047358e+2, -192032.17, -176217.53, 21553.2, -0.20906557, 0.23620026, -161166.92, -161166.92, 0.000024723933, 9.999011, 9.999252 
5.249697e+2, 3.147337e+2, -77609.83, -79415.6, -97035.54, 0.09854328, 0.07392828, 18527.027, 18527.027, 0.00007789345, 9.999549, 9.999654 
5.3505063e+2, 1.247497e+2, -1708568.3, -1647132.1, -228989.47, 0.015308432, 0.18194306, -1446809.5, 270658.8, 0.000035694404, 9.999717, 10.000543 
5.350453e+2, 1.3475043e+2, -1729599.1, -1684844.9, 164272.16, -0.17413975, 0.20915806, -1541432.8, 78027.34, 0.000008273398, 9.999215, 9.999916 
5.3504586e+2, 1.4475034e+2, -1631425.3, -1598637.4, 83181.99, 0.08255641, 0.22723204, -1530249.1, -8789.445, 0.00000061502607, 9.999289, 9.999758 
5.350401e+2, 1.5474969e+2, -1360970.9, -1423552.1, 35402.504, -0.028208308, 0.1361901, -1345012.8, 78451.79, 0.00000000036285042, 10.000506, 9.999703 
5.350351e+2, 1.6474953e+2, -1236323.6, -1342415.6, 19624.47, -0.07099288, 0.16959353, -1232809.9, 92655.58, 0.0, 10.000809, 9.9994545 
5.350313e+2, 1.7474975e+2, -1228896.1, -1292323.4, 39211.17, -0.023295034, 0.21280986, -1210178.9, 17284.629, 0.0, 10.000196, 9.999423 
5.3502744e+2, 1.8474895e+2, -1216145.4, -1288367.5, 62835.41, -0.018510075, 0.2215573, -1179783.8, -50312.227, 0.0, 9.999864, 9.998924 
5.350238e+2, 1.9474667e+2, -1131501.6, -1205424.3, 84001.836, -0.0500699, 0.07023331, -1076689.1, -45195.293, 0.0, 9.999807, 9.998853 
5.350195e+2, 2.0474592e+2, -977277.3, -1026349.7, 20172.781, -0.069705516, 0.09384937, -970049.3, -36548.805, 0.0, 9.99996, 9.999325 
5.3501475e+2, 2.147466e+2, -811111.44, -898502.2, 36029.71, -0.06736912, 0.19116792, -798172.6, 37320.0, 0.0, 10.000426, 9.999312 
5.3500944e+2, 2.2474574e+2, -793257.2, -958545.56, -13700.732, -0.06716493, 0.23337522, -792129.2, -54627.72, 0.0, 10.000412, 9.998228 
5.350038e+2, 2.3474297e+2, -777317.6, -903922.6, -7887.4243, -0.07006833, 0.09800581, -776828.1, -137296.86, 0.0, 9.999857, 9.9982 
5.349986e+2, 2.4474153e+2, -682241.0, -711510.1, -10512.001, -0.047037866, 0.09838692, -678856.9, -137311.28, 0.0, 9.999418, 9.999066 
5.349938e+2, 2.5474137e+2, -654559.44, -648094.7, -7184.0967, -0.01883094, 0.1370605, -643449.3, -199904.23, 0.0, 9.998932, 9.999063 
5.3498876e+2, 2.6474053e+2, -622708.25, -659857.94, -37805.703, -0.02856262, 0.19171825, -599160.7, -253607.5, 0.0, 9.998829, 9.998355 
5.349835e+2, 2.7473858e+2, -496541.84, -550099.56, -49435.074, -0.068467125, 0.12701693, -467098.53, -219523.45, 0.0, 9.999027, 9.998341 
5.349785e+2, 2.847369e+2, -294742.7, -234468.13, -94396.84, -0.07642852, 0.05650729, -165514.44, -15923.709, 0.00000019037492, 9.999025, 9.9998255 
5.34973e+2, 2.9473543e+2, -260597.78, -170220.27, -91771.94, -0.104780674, -0.11805919, -113114.78, -61514.41, 0.0000040138116, 9.998569, 9.999825 
5.349675e+2, 3.047366e+2, -166484.63, -122168.48, 37012.67, -0.28409016, 0.033907384, -101188.19, -101188.19, 0.000024880646, 9.999001, 9.999626 
5.3497016e+2, 3.147379e+2, 6761.4155, 86999.66, -58653.848, 0.10784213, 0.16476128, 117942.61, 117942.61, 0.00007745561, 9.999564, 10.000795 
5.450508e+2, 1.2475491e+2, -1754693.6, -1719510.0, -213043.1, 0.08052044, 0.22208783, -1523333.6, 194086.34, 0.00003031358, 9.999609, 10.000135 
5.4504466e+2, 1.3475546e+2, -1588069.4, -1658344.8, 8626.121, -0.20742226, 0.2773926, -1587026.1, 32388.28, 0.000006366235, 10.000373, 9.999546 
5.45047e+2, 1.4475481e+2, -1534970.8, -1558367.0, -23431.102, 0.24988295, 0.26287106, -1520479.9, 939.4035, 0.00000037085837, 9.999975, 9.999712 
5.4503953e+2, 1.5475395e+2, -1577248.0, -1528256.6, -74653.72, -0.05085021, 0.15490621, -1474182.5, -50757.645, 0.00000000007720086, 9.999019, 9.999706 
5.4503435e+2, 1.6475363e+2, -1480999.8, -1458006.1, -26633.898, -0.13287368, 0.17200945, -1440493.6, -115066.77, 0.0, 9.999152, 9.999443 
5.450322e+2, 1.747538e+2, -1197737.9, -1274762.4, -42110.973, 0.048031073, 0.2132317, -1179184.1, 48241.66, 0.0, 10.000436, 9.999414 
5.4502875e+2, 1.8475318e+2, -1071259.9, -1199316.3, -16015.3, 0.0873633, 0.22987595, -1069287.3, 60144.438, 0.0, 10.000755, 9.999117 
5.450239e+2, 1.9475138e+2, -1080392.6, -1154265.9, -20518.436, -0.018795945, 0.104477614, -1075076.3, -43628.168, 0.0, 10.0000305, 9.999099 
5.4501927e+2, 2.047507e+2, -1020557.2, -1052885.8, -33671.77, -0.06444191, 0.12321471, -999370.8, -65916.76, 0.0, 9.999684, 9.999286 
5.450151e+2, 2.147509e+2, -934993.56, -957272.8, -54939.27, -0.028443687, 0.1790136, -890075.94, -54624.207, 0.0, 9.999586, 9.999311 
5.450099e+2, 2.2475012e+2, -867097.1, -939782.3, -69624.18, -0.02195603, 0.20387891, -824901.1, -87442.266, 0.0, 9.999658, 9.998725 
5.450038e+2, 2.3474795e+2, -738263.25, -833277.3, -39042.85, -0.045205176, 0.080826394, -724278.3, -84798.664, 0.0, 9.999893, 9.998676 
5.4499865e+2, 2.4474666e+2, -614813.0, -724357.1, 14233.337, -0.005123584, 0.09170831, -612993.8, -71501.77, 0.0, 10.000076, 9.998661 
5.449945e+2, 2.5474614e+2, -499713.8, -622988.44, -20232.564, 0.09427912, 0.13846262, -496478.06, -52980.63, 0.0, 10.000209, 9.998623 
5.449892e+2, 2.6474515e+2, -445536.53, -579915.9, 9812.864, 0.08464229, 0.19956757, -444823.75, -99315.27, 0.0, 10.000076, 9.998299 
5.449833e+2, 2.7474314e+2, -400228.16, -506442.16, 21658.098, -0.016327623, 0.13289446, -395981.63, -148451.42, 0.0, 9.999704, 9.998313 
5.4497784e+2, 2.8474113e+2, -265037.72, -270059.9, 15240.23, -0.056505334, 0.053142358, -252103.1, -102554.26, 0.00000011177434, 9.999453, 9.999379 
5.4497236e+2, 2.9473913e+2, -180093.3, -175079.56, -39602.4, -0.05517403, -0.12986918, -137904.77, -86341.07, 0.0000045059896, 9.999339, 9.999408 
5.449674e+2, 3.0473968e+2, -145533.47, -157155.36, 100376.664, -0.19943972, 0.0021210266, -50799.69, -50799.69, 0.000026381855, 9.999338, 9.999213 
5.4496956e+2, 3.1474093e+2, -114216.945, 32776.797, -141512.08, 0.13952245, 0.16491252, 118739.82, 118739.82, 0.00007890932, 9.99874, 10.000796 
5.550507e+2, 1.247582e+2, -1809883.4, -1833026.4, -106411.625, 0.03459442, 0.22192909, -1714416.0, 2972.8079, 0.000026661766, 9.999608, 9.999352 
5.550446e+2, 1.3475765e+2, -1638182.4, -1762898.3, 40431.098, -0.28681445, 0.23914558, -1626222.1, -6825.9243, 0.0000052899522, 10.000365, 9.998841 
5.5504817e+2, 1.4475627e+2, -1514583.6, -1497019.9, -79743.62, 0.32606557, 0.16537477, -1425576.0, 95832.13, 0.00000021782215, 9.999908, 10.000159 
5.5503887e+2, 1.5475585e+2, -1552120.3, -1465718.6, -91660.84, -0.050486706, 0.05880538, -1407588.1, 15818.672, 0.00000000000011946363, 9.998978, 10.000157 
5.550332e+2, 1.6475567e+2, -1488279.6, -1467656.3, 4570.2227, -0.19468656, 0.07002261, -1466688.9, -141282.6, 0.0, 9.999125, 9.999392 
5.5503213e+2, 1.7475545e+2, -1213186.1, -1293893.5, 19877.918, -0.036704063, 0.078972705, -1208555.9, 18854.096, 0.0, 10.000376, 9.999316 
5.5502915e+2, 1.8475534e+2, -1065680.1, -1160629.1, -56255.953, 0.024691373, 0.13836509, -1039543.8, 89867.516, 0.0, 10.000639, 9.999441 
5.5502415e+2, 1.9475512e+2, -1073883.6, -1118159.3, -32123.809, -0.029366072, 0.14035243, -1057008.4, -25595.914, 0.0, 9.999926, 9.999404 
5.5501926e+2, 2.0475431e+2, -1051698.9, -1080230.5, -51604.26, -0.063141584, 0.13685738, -1012424.8, -79004.984, 0.0, 9.99953, 9.999168 
5.550146e+2, 2.147525e+2, -970917.7, -990927.75, -43090.637, -0.06617711, 0.0052201767, -936685.8, -101248.39, 0.0, 9.999407, 9.999167 
5.5500966e+2, 2.247521e+2, -811488.7, -781577.5, -75039.29, -0.039493497, 0.01797062, -720018.0, 17421.041, 0.0, 9.9994755, 9.9999 
5.550045e+2, 2.3475301e+2, -682019.75, -668765.3, -14282.431, 0.0057843323, 0.083080284, -659647.44, -20222.135, 0.0, 9.999691, 9.999902 
5.549997e+2, 2.4475245e+2, -667778.94, -804439.25, 7171.396, 0.059398774, 0.12812352, -667403.6, -125974.055, 0.0, 9.999938, 9.998186 
5.549952e+2, 2.5474998e+2, -553793.3, -704393.4, 3157.2393, 0.114563726, 0.0319232, -553727.2, -110270.6, 0.0, 10.000069, 9.998136 
5.549897e+2, 2.6474875e+2, -411492.0, -488357.28, -17647.264, 0.08974213, 0.05953146, -407634.06, -62163.61, 0.0, 9.999991, 9.998965 
5.5498326e+2, 2.747484e+2, -370861.78, -422856.3, 23961.857, -0.02166302, 0.09409014, -361503.28, -114028.93, 0.0, 9.999606, 9.998937 
5.5497783e+2, 2.847477e+2, -327132.84, -388526.2, -5191.477, -0.03421774, 0.15207855, -326696.94, -177215.53, 0.00000024371042, 9.999403, 9.998594 
5.549729e+2, 2.9474655e+2, -245883.67, -299895.4, -23074.115, 0.02298372, 0.13591947, -237368.67, -185877.02, 0.0000058589785, 9.999275, 9.9985895 
5.5496794e+2, 3.0474484e+2, -236066.77, -325614.34, 72366.15, -0.108371116, 0.13985877, -195743.25, -195743.25, 0.000029984647, 9.999269, 9.998081 
5.549668e+2, 3.147425e+2, -220302.39, -159301.27, -146856.69, -0.0768663, 0.056341127, -39811.258, -39811.258, 0.00008416486, 9.998613, 9.999541 
5.6505114e+2, 1.24761045e+2, -1574130.6, -1735578.0, 60870.082, 0.05607259, 0.16869129, -1553753.0, 163605.61, 0.000022362967, 10.001295, 9.999189 
5.6504446e+2, 1.3476087e+2, -1767017.0, -1816892.0, 56361.383, -0.27761137, 0.21365614, -1730322.6, -110959.16, 0.000004259607, 9.999456, 9.998886 
5.6504804e+2, 1.4475971e+2, -1667132.5, -1570509.5, 13156.123, 0.38820636, 0.15936457, -1568750.3, -47376.105, 0.00000013010742, 9.99883, 10.000192 
5.6503916e+2, 1.547596e+2, -1412607.3, -1388306.8, -55747.34, 0.045837663, 0.07774532, -1343401.0, 79969.49, 0.0, 9.999883, 10.00026 
5.6503344e+2, 1.6475943e+2, -1331751.9, -1380840.9, 79805.016, -0.12370946, 0.077279784, -1272802.3, 52567.496, 0.0, 10.000134, 9.999508 
5.6503195e+2, 1.7475875e+2, -1311007.6, -1323369.9, 83535.54, -0.04523498, 0.02523307, -1233424.9, -6048.2974, 0.0, 9.999616, 9.999477 
5.6502885e+2, 1.8475884e+2, -1221278.3, -1199986.5, 19979.9, -0.003158032, 0.07920774, -1187993.3, -58617.617, 0.0, 9.999428, 9.999741 
5.6502396e+2, 1.9475955e+2, -1121849.3, -1101206.5, 16988.086, -0.010983882, 0.14045823, -1091650.0, -60281.91, 0.0, 9.999439, 9.999737 
5.650193e+2, 2.0475903e+2, -1046485.94, -1065238.0, 49754.016, -0.008122327, 0.144001, -1005232.2, -71859.555, 0.0, 9.99952, 9.99927 
5.6501496e+2, 2.1475692e+2, -932351.94, -958743.94, 47805.91, 0.02995197, -0.027112827, -895954.2, -60561.77, 0.0, 9.999623, 9.999278 
5.6501013e+2, 2.2475643e+2, -772695.8, -765634.0, 18312.75, 0.0569562, -0.027006285, -750514.9, -13120.5, 0.0, 9.999763, 9.999868 
5.650049e+2, 2.3475745e+2, -655012.3, -657644.6, -43519.707, 0.074244455, 0.050660677, -612788.9, 26590.803, 0.0, 9.99989, 9.999878 
5.649999e+2, 2.4475679e+2, -692768.6, -811197.0, -32571.08, 0.104052626, 0.08561732, -684401.75, -143016.97, 0.0, 9.99977, 9.9982 
5.6499517e+2, 2.5475398e+2, -642242.1, -746943.75, -32151.074, 0.15159173, -0.04572863, -633157.6, -189742.47, 0.0, 9.9994755, 9.998117 
5.649897e+2, 2.647528e+2, -484712.03, -518114.1, -23778.3, 0.12271955, -0.011413316, -472355.7, -126927.28, 0.0, 9.999458, 9.999018 
5.6498325e+2, 2.7475318e+2, -348502.63, -400403.56, -56751.68, 0.01945229, 0.0847962, -312049.72, -64624.195, 0.0, 9.999717, 9.99903 
5.6497777e+2, 2.847528e+2, -275421.38, -406115.3, -52713.887, 0.0036892404, 0.18710653, -256810.13, -107379.71, 0.00000046127252, 9.999913, 9.998236 
5.6497294e+2, 2.9475158e+2, -159025.25, -303776.0, -62978.867, 0.07410938, 0.20055306, -135460.38, -84017.06, 0.000007820285, 10.000049, 9.9981985 
5.649687e+2, 3.0474943e+2, -164685.88, -299367.97, 97404.516, 0.024880696, 0.18273696, -113610.47, -113610.47, 0.00003595913, 9.999783, 9.998021 
5.649659e+2, 3.147466e+2, -217873.69, -163932.9, -107040.625, -0.020788392, 0.048245095, -80517.164, -80517.164, 0.000094486146, 9.998649, 9.999495 
5.7505196e+2, 1.2476311e+2, -1542454.0, -1657114.4, 88872.37, -0.07209774, 0.028246058, -1494024.8, 223307.94, 0.000015098279, 10.001249, 9.99974 
5.750436e+2, 1.3476491e+2, -1721412.3, -1717222.0, -10350.932, -0.33931386, 0.19813408, -1708756.3, -89438.086, 0.0000026568694, 9.999433, 9.999579 
5.7504624e+2, 1.4476503e+2, -1688686.9, -1604149.9, 26436.406, 0.28962716, 0.24438846, -1596563.5, -75245.125, 0.000000050157187, 9.998787, 9.99998 
5.7504e+2, 1.5476516e+2, -1438386.3, -1430869.8, -1332.8452, 0.102404036, 0.21498385, -1430640.4, -7324.0317, 0.0, 9.999837, 9.999993 
5.750346e+2, 1.647648e+2, -1312384.0, -1323460.5, 43170.914, -0.054549474, 0.18981926, -1274397.6, 50920.24, 0.0, 10.000057, 9.999936 
5.7503116e+2, 1.7476363e+2, -1290161.9, -1267981.9, 78463.13, -0.11945381, 0.04578889, -1199828.9, 27496.922, 0.0, 9.999558, 9.999887 
5.750273e+2, 1.8476367e+2, -1210028.1, -1152807.6, 6785.7173, -0.13175827, 0.055110965, -1152013.9, -22689.785, 0.0, 9.9993305, 10.00011 
5.750228e+2, 1.9476464e+2, -1115425.4, -1055515.0, 32079.354, -0.10549476, 0.10812371, -1041579.44, -10264.022, 0.0, 9.999305, 10.0001135 
5.7501894e+2, 2.0476492e+2, -1048373.9, -1027276.06, 36964.934, -0.021122402, 0.15431274, -999384.3, -66072.48, 0.0, 9.999337, 9.9996195 
5.750157e+2, 2.1476421e+2, -937841.8, -924586.6, 65807.734, 0.12017691, 0.088719256, -865073.56, -29757.4, 0.0, 9.999428, 9.999607 
5.75011e+2, 2.2476313e+2, -879176.94, -949068.3, 8465.521, 0.13457777, 0.06907671, -878166.2, -140841.13, 0.0, 9.999594, 9.998693 
5.750044e+2, 2.3476128e+2, -764531.3, -845599.75, -22379.93, 0.007960214, -0.015467116, -758763.44, -119421.19, 0.0, 9.999717, 9.9986725 
5.749988e+2, 2.4475968e+2, -678544.75, -761366.2, -58858.574, -0.0138080055, -0.034080304, -647988.94, -106631.305, 0.0, 9.999667, 9.9986 
5.7499415e+2, 2.54758e+2, -630203.8, -692642.4, -25709.85, 0.06575646, -0.095734134, -620980.06, -177605.88, 0.0, 9.999338, 9.998563 
5.7498884e+2, 2.647573e+2, -527361.8, -594794.1, -29278.955, 0.05938375, -0.015158567, -516423.34, -171040.7, 0.0, 9.999396, 9.9985285 
5.749827e+2, 2.747573e+2, -391367.53, -477304.38, -33818.633, -0.04689021, 0.09742081, -379655.2, -132269.89, 0.0, 9.999644, 9.998547 
5.749771e+2, 2.8475636e+2, -270934.72, -380442.63, -62948.258, -0.08775013, 0.15751147, -242259.2, -92862.41, 0.0000006054728, 9.999847, 9.998444 
5.74972e+2, 2.9475418e+2, -160996.45, -284816.34, -36620.25, -0.06990474, 0.05361839, -150976.69, -99557.12, 0.000009307056, 9.999954, 9.998373 
5.7496923e+2, 3.0475348e+2, -100339.57, -152235.2, 49512.23, 0.06918446, 0.12557864, -70387.92, -70387.92, 0.000040671366, 9.999732, 9.999059 
5.74966e+2, 3.147528e+2, -156664.52, -13808.825, -94032.875, 0.051115565, 0.10018994, 32848.55, 32848.55, 0.000103750725, 9.99855, 10.000579 
5.850529e+2, 1.2476632e+2, -1618285.9, -1681094.9, 145376.81, -0.051514845, 0.025446724, -1500960.3, 216339.08, 0.000008007214, 10.000641, 9.999887 
5.8504415e+2, 1.3476795e+2, -1686510.4, -1668955.5, -139837.88, -0.22775811, 0.15320636, -1537619.9, 81665.52, 0.0000012151539, 9.999524, 9.999875 
5.850446e+2, 1.4476831e+2, -1647357.6, -1584125.5, 20943.059, 0.24037279, 0.21235076, -1577818.1, -56534.594, 0.000000012980553, 9.99911, 9.999932 
5.850398e+2, 1.5476866e+2, -1419489.9, -1422095.0, -28475.723, 0.10108758, 0.2046047, -1392287.0, 30994.441, 0.0, 9.999994, 9.999949 
5.8503497e+2, 1.6476867e+2, -1282064.5, -1258482.1, -883.34845, -0.01783655, 0.19461843, -1258449.1, 66830.54, 0.0, 10.000041, 10.000395 
5.8503115e+2, 1.7476815e+2, -1310697.9, -1221260.9, 9007.924, -0.054569412, 0.067958854, -1220362.6, 6917.4316, 0.0, 9.999169, 10.000397 
5.8502704e+2, 1.8476833e+2, -1247142.1, -1171618.5, -6310.821, -0.07079939, 0.067555405, -1171094.8, -41818.457, 0.0, 9.999071, 10.000115 
5.8502257e+2, 1.9476892e+2, -1051668.5, -1030960.56, -38596.47, -0.07459267, 0.083501376, -1001353.4, 29918.635, 0.0, 9.99975, 10.000084 
5.850187e+2, 2.0476925e+2, -953703.56, -959662.25, -42615.44, 0.0012265177, 0.12733233, -913963.44, 19304.2, 0.0, 9.999885, 9.999818 
5.8501554e+2, 2.1476914e+2, -922897.3, -898242.9, -52324.797, 0.1673223, 0.09849569, -856812.8, -21547.408, 0.0, 9.9994335, 9.99979 
5.8501107e+2, 2.2476812e+2, -921824.06, -1001433.9, -34325.957, 0.19756147, 0.09036988, -909067.56, -171793.19, 0.0, 9.999447, 9.998407 
5.850048e+2, 2.3476577e+2, -750845.06, -877418.2, -29702.805, 0.07502421, -0.01156711, -744221.4, -104922.484, 0.0, 9.99997, 9.998341 
5.849991e+2, 2.4476416e+2, -578312.25, -704101.3, -25229.14, 0.02206455, -0.016536022, -573440.75, -32125.406, 0.0, 10.000321, 9.998669 
5.849938e+2, 2.547631e+2, -438074.9, -587204.94, -50822.066, 0.040756397, -0.028383596, -422402.34, 20923.125, 0.0, 10.000613, 9.998659 
5.8498836e+2, 2.647622e+2, -366080.97, -527597.5, -20959.135, 0.02175303, 0.034561314, -363405.53, -18070.605, 0.0, 10.000566, 9.99842 
5.8498275e+2, 2.747612e+2, -318962.84, -451866.34, -25045.81, -0.025854561, 0.058160633, -314399.6, -67053.11, 0.0, 10.000208, 9.99844 
5.8497703e+2, 2.847601e+2, -244015.16, -346708.38, -11903.51, -0.07547317, 0.09913099, -242653.44, -93294.09, 0.00000055145284, 9.999946, 9.998621 
5.849713e+2, 2.9475862e+2, -199521.33, -282895.6, -22862.852, -0.10556098, 0.04408148, -193663.47, -142287.31, 0.000008783807, 9.999599, 9.998553 
5.8496916e+2, 3.047582e+2, -153680.95, -148849.61, 49560.793, 0.13164547, 0.120176844, -101645.65, -101645.65, 0.000039667964, 9.999238, 9.999314 
5.849654e+2, 3.1475782e+2, -100689.85, 66652.85, -181684.14, 0.14172468, 0.098814614, 183006.56, 183006.56, 0.00010388018, 9.998711, 10.001041 
5.950538e+2, 1.24770656e+2, -1615454.5, -1674224.9, 110255.29, -0.10859184, 0.16727921, -1530735.8, 186522.86, 0.0000033727015, 10.000655, 9.999919 
5.950454e+2, 1.3477e+2, -1694703.3, -1683226.5, -176007.83, -0.08245705, 0.075861245, -1512863.5, 106401.266, 0.00000044999516, 9.999521, 9.999779 
5.950426e+2, 1.4476961e+2, -1643086.6, -1566997.8, 31333.469, 0.08397196, 0.05719763, -1555755.6, -34486.5, 0.000000014541682, 9.999075, 10.000064 
5.9503806e+2, 1.5477009e+2, -1419344.9, -1412287.0, 19740.086, -0.10614367, 0.049344145, -1395762.9, 27502.715, 0.0, 9.999951, 10.000039 
5.95034e+2, 1.6477111e+2, -1254584.1, -1181788.9, -47985.574, -0.14910124, 0.10795979, -1157958.6, 167295.9, 0.0, 9.9999695, 10.00095 
5.950313e+2, 1.7477232e+2, -1279426.1, -1139120.0, -8932.584, 0.016770381, 0.098593354, -1138553.6, 88685.12, 0.0, 9.9991045, 10.000988 
5.9502757e+2, 1.8477282e+2, -1288115.1, -1234262.8, 397.10165, 0.046306875, 0.11695525, -1234259.9, -105027.53, 0.0, 9.998974, 9.999733 
5.950226e+2, 1.9477226e+2, -1101730.0, -1099761.5, 839.61707, -0.07446959, 0.05806334, -1099452.0, -68213.23, 0.0, 9.999605, 9.99968 
5.950181e+2, 2.0477203e+2, -970929.56, -957548.4, -73167.62, -0.08198355, 0.05996565, -890766.06, 42474.043, 0.0, 9.999719, 9.999914 
5.9501404e+2, 2.1477179e+2, -941231.9, -894026.9, -53897.71, 0.03911717, 0.010613926, -858790.25, -23551.12, 0.0, 9.999254, 9.999905 
5.950099e+2, 2.2477151e+2, -903400.25, -932438.8, -31612.955, 0.11711628, 0.045330435, -883131.8, -145890.63, 0.0, 9.999303, 9.998957 
5.950057e+2, 2.347709e+2, -739134.2, -812226.5, 5717.1133, 0.13541688, 0.058561742, -738689.75, -99440.0, 0.0, 9.999788, 9.998881 
5.9500027e+2, 2.447702e+2, -612854.1, -749520.56, -27953.73, 0.07226659, 0.13114467, -607357.5, -66099.22, 0.0, 10.000201, 9.998419 
5.9499353e+2, 2.5476924e+2, -473692.34, -631393.94, -26865.715, -0.07899739, 0.15607457, -469241.22, -25972.1, 0.0, 10.000483, 9.99842 
5.949878e+2, 2.6476762e+2, -356072.22, -489269.06, -50301.914, -0.12419004, 0.14081845, -339210.28, 6074.5664, 0.0, 10.000492, 9.998721 
5.949829e+2, 2.7476493e+2, -314552.1, -419430.88, -20492.9, -0.067400105, -0.034466952, -310690.1, -63381.04, 0.0, 10.000109, 9.998713 
5.949772e+2, 2.8476405e+2, -245190.42, -330308.13, -36978.89, -0.09375029, 0.008505938, -231369.38, -82051.23, 0.0000003359344, 9.99987, 9.998766 
5.949704e+2, 2.9476476e+2, -204316.73, -261509.5, -19538.396, -0.20343663, 0.1637154, -198279.28, -146965.47, 0.000006914508, 9.9994755, 9.998754 
5.949682e+2, 3.0476347e+2, -195384.36, -230516.19, 19327.797, 0.07561311, 0.16240413, -186832.75, -186832.75, 0.000035638073, 9.999203, 9.9987755 
5.949629e+2, 3.147616e+2, -115090.85, 54556.05, -105307.87, -0.058675505, 0.050925836, 104953.77, 104953.77, 0.00009897654, 9.998633, 10.000993 
6.050539e+2, 1.2477433e+2, -1891748.3, -1801807.3, 204439.81, -0.053661082, 0.17212033, -1637450.3, 79771.85, 0.0000011596172, 9.998736, 9.999978 
6.0504663e+2, 1.3477345e+2, -1571235.3, -1612420.6, -131839.89, 0.058086246, 0.056496035, -1458389.5, 160840.7, 0.00000014603442, 10.000345, 9.999854 
6.0504115e+2, 1.44773e+2, -1449907.4, -1452387.6, 103908.97, -0.01969246, 0.018136228, -1347231.1, 174003.22, 0.0000000031309833, 10.0002775, 10.000298 
6.0503733e+2, 1.5477346e+2, -1560052.5, -1453491.1, 63736.375, -0.1093001, -0.012933882, -1423698.6, -468.3532, 0.0, 9.998854, 10.000304 
6.0503376e+2, 1.6477469e+2, -1451979.8, -1285758.0, 27175.64, -0.095980614, 0.05927193, -1281427.9, 43789.14, 0.0, 9.998628, 10.0009 
6.0503113e+2, 1.747765e+2, -1206917.8, -1110888.3, -8165.2935, 0.071064875, 0.11233233, -1110199.0, 116997.79, 0.0, 9.999616, 10.000947 
6.0502756e+2, 1.8477689e+2, -1177174.0, -1198502.3, 11716.455, 0.1075927, 0.13203348, -1171995.3, -42803.55, 0.0, 9.999831, 9.999557 
6.050227e+2, 1.9477549e+2, -1169114.1, -1150090.4, -3154.7427, 0.0018858843, 0.007988233, -1149580.9, -118374.945, 0.0, 9.999234, 9.999509 
6.05018e+2, 2.0477499e+2, -1079219.0, -1023744.7, -52399.316, -0.0168888, -0.0018734445, -992194.06, -58983.965, 0.0, 9.999037, 9.999798 
6.0501343e+2, 2.1477504e+2, -960008.2, -919069.3, -81499.54, 0.064547114, -0.00883425, -855507.94, -20300.547, 0.0, 9.999187, 9.999776 
6.050093e+2, 2.2477494e+2, -884771.6, -910290.8, -33769.39, 0.130178, 0.046128083, -861431.6, -124223.21, 0.0, 9.999394, 9.999048 
6.050057e+2, 2.3477443e+2, -742407.0, -795013.6, -61426.773, 0.1726348, 0.058892526, -701888.8, -62672.617, 0.0, 9.999712, 9.999016 
6.0500044e+2, 2.4477403e+2, -691602.3, -757304.8, -83382.37, 0.112750374, 0.1404345, -634833.1, -93611.04, 0.0, 9.999545, 9.998681 
6.049934e+2, 2.547735e+2, -690264.8, -708106.0, -71090.51, -0.050479867, 0.18557745, -627537.4, -184308.81, 0.0, 9.998882, 9.99867 
6.049878e+2, 2.647721e+2, -588026.44, -574041.06, -40734.605, -0.07926597, 0.16994333, -539703.3, -194461.64, 0.0, 9.99878, 9.998965 
6.049835e+2, 2.747694e+2, -420583.06, -445220.2, -49028.992, 0.038066342, -0.028630454, -382348.8, -135083.64, 0.0, 9.999254, 9.998954 
6.0497767e+2, 2.8476864e+2, -315749.13, -342836.97, -49239.434, 0.006092615, 0.004178097, -278224.88, -128952.766, 0.00000016006682, 9.999298, 9.998961 
6.049699e+2, 2.9476967e+2, -271117.22, -268552.22, -61149.617, -0.16321911, 0.17067538, -208671.64, -157408.2, 0.0000052467194, 9.998907, 9.998986 
6.049674e+2, 3.047678e+2, -234329.67, -233690.86, 43993.05, 0.1071185, 0.09351587, -190016.06, -190016.06, 0.000031333126, 9.998884, 9.998905 
6.049621e+2, 3.1476617e+2, -81689.72, 46256.59, -42529.95, -0.0059148734, 0.0042956728, 59103.754, 59103.754, 0.00009226463, 9.998957, 10.0008 
6.150526e+2, 1.2477739e+2, -1870286.9, -1754382.8, 165216.38, -0.13664667, 0.05362853, -1637249.5, 79940.36, 0.000000319301, 9.998731, 10.000299 
6.150472e+2, 1.3477829e+2, -1564314.9, -1594815.3, -60890.516, 0.04780717, 0.100447945, -1516793.9, 102387.96, 0.000000018009526, 10.000339, 9.999976 
6.1503977e+2, 1.4477849e+2, -1427873.1, -1409989.5, 26488.078, -0.23053546, 0.107079335, -1390974.6, 130204.95, 0.0, 10.000283, 10.000586 
6.1503714e+2, 1.5477861e+2, -1534817.8, -1409976.6, 21414.951, -0.04899563, 0.0124422535, -1406405.4, 16771.293, 0.0, 9.998874, 10.0006 
6.150337e+2, 1.647794e+2, -1499331.3, -1371108.8, 46347.004, 0.002819853, 0.050195348, -1356110.5, -30943.127, 0.0, 9.998574, 10.0003395 
6.150301e+2, 1.7478062e+2, -1258124.9, -1208104.4, 44574.195, -0.02841996, 0.105592035, -1182003.3, 45151.07, 0.0, 9.999569, 10.000306 
6.1502635e+2, 1.8478057e+2, -1194461.8, -1206320.3, -22748.549, -0.022541396, 0.11141266, -1176882.4, -47727.977, 0.0, 9.999712, 9.9995575 
6.150224e+2, 1.9477877e+2, -1183313.1, -1158661.6, -8022.927, 0.020776896, -0.054359917, -1156280.5, -125108.57, 0.0, 9.99914, 9.999497 
6.1501807e+2, 2.047783e+2, -1124024.9, -1082124.3, -61254.855, 0.060305174, -0.04269082, -1038336.06, -105159.836, 0.0, 9.99889, 9.999467 
6.150133e+2, 2.1477892e+2, -1012125.9, -984433.25, -61207.008, 0.10623678, 0.03913274, -935525.94, -100356.18, 0.0, 9.9990015, 9.999418 
6.150087e+2, 2.2477841e+2, -937124.5, -978216.8, -33047.406, 0.1019221, 0.089525394, -918756.94, -181581.16, 0.0, 9.999221, 9.998665 
6.150044e+2, 2.3477642e+2, -796709.56, -862765.75, -33044.39, 0.041415393, -0.0066778613, -783017.4, -143819.4, 0.0, 9.999521, 9.998641 
6.149992e+2, 2.4477565e+2, -654524.4, -652731.3, -124664.84, 0.0035009715, 0.016772067, -528959.75, 12246.908, 0.0, 9.999424, 9.999457 
6.149929e+2, 2.5477588e+2, -655512.44, -607204.06, -81147.336, -0.019506047, 0.05680333, -546692.4, -103488.54, 0.0, 9.998754, 9.999428 
6.1498785e+2, 2.647757e+2, -590186.2, -558700.9, -37674.418, 0.021587666, 0.116414435, -533612.3, -188406.9, 0.0, 9.998694, 9.99911 
6.149841e+2, 2.7477473e+2, -431007.97, -435460.8, -13672.075, 0.13180684, 0.07306351, -419382.22, -172167.48, 0.0, 9.999121, 9.999081 
6.14978e+2, 2.8477398e+2, -308100.25, -314582.3, -79450.984, 0.08024019, 0.09326302, -231824.22, -82603.555, 0.00000012615395, 9.999239, 9.999183 
6.1496925e+2, 2.9477343e+2, -264912.97, -233101.0, -56774.195, -0.16229543, 0.07089074, -190046.73, -138822.94, 0.000004351736, 9.998816, 9.999268 
6.1496645e+2, 3.0477118e+2, -187556.92, -137586.17, 35707.195, 0.08529866, -0.09038569, -118990.9, -118990.9, 0.000027327982, 9.9988785, 9.999582 
6.149618e+2, 3.147718e+2, -117395.32, -3288.6968, 54753.03, -0.0071027162, -0.013354862, 18733.744, 18733.744, 0.00008384043, 9.998854, 10.000515 
6.2505156e+2, 1.2478122e+2, -1782198.9, -1654445.0, 133365.3, -0.10498661, 0.03399494, -1570448.5, 146704.45, 0.00000004128188, 9.999078, 10.000832 
6.250482e+2, 1.3478306e+2, -1624786.8, -1565124.3, -40144.51, 0.1637772, 0.12439534, -1544940.6, 74194.16, 0.000000000001578113, 9.999648, 10.000529 
6.2503964e+2, 1.4478347e+2, -1506463.5, -1460692.8, 33366.1, -0.24016197, 0.13232893, -1443117.9, 78011.96, 0.0, 9.999801, 10.000472 
6.2503725e+2, 1.547838e+2, -1356709.0, -1327215.8, -28141.771, 0.014065071, 0.06756862, -1310191.0, 112933.64, 0.0, 10.000138, 10.000543 
6.2503374e+2, 1.6478413e+2, -1301022.8, -1301317.8, 51363.457, 0.08401494, 0.075390786, -1249806.6, 75312.98, 0.0, 10.000078, 10.000076 
6.250301e+2, 1.7478421e+2, -1288909.3, -1246256.4, 32821.316, 0.022220606, 0.04192897, -1228441.4, -1323.6328, 0.0, 9.999498, 10.000059 
6.250261e+2, 1.8478402e+2, -1249877.4, -1220973.3, -3100.1475, 0.020266186, 0.042037115, -1220644.5, -91525.74, 0.0, 9.999241, 9.999701 
6.2502205e+2, 1.947832e+2, -1159672.3, -1126665.9, -1990.0526, 0.07221066, -0.044877943, -1126546.3, -95419.91, 0.0, 9.999191, 9.999698 
6.250178e+2, 2.0478298e+2, -1014821.0, -1053137.5, 20609.13, 0.11490553, -0.011132469, -1005840.75, -72711.85, 0.0, 9.99973, 9.999267 
6.250137e+2, 2.1478298e+2, -746723.2, -872155.6, 3416.3303, 0.1654827, 0.032596294, -746630.25, 88499.18, 0.0, 10.0008955, 9.999272 
6.250091e+2, 2.2478232e+2, -703544.44, -865716.7, 34588.984, 0.14367704, 0.072811656, -696475.25, 40662.367, 0.0, 10.000817, 9.998674 
6.250039e+2, 2.3478056e+2, -818658.8, -877177.94, 37162.563, 0.051970504, 0.0018303958, -800619.56, -161462.16, 0.0, 9.99937, 9.99863 
6.2499833e+2, 2.4477975e+2, -716973.56, -661941.75, -10667.282, 0.012157026, 0.013181511, -659946.4, -118780.32, 0.0, 9.998889, 9.9996605 
6.249925e+2, 2.547797e+2, -526180.5, -518593.72, -44121.66, 0.027325986, 0.005077593, -478102.7, -34937.617, 0.0, 9.999522, 9.999665 
6.2498736e+2, 2.6477978e+2, -459790.25, -482894.5, 129.82652, 0.07188142, 0.07373046, -459789.53, -114625.82, 0.0, 9.999518, 9.999238 
6.2498313e+2, 2.7477962e+2, -476517.34, -444857.9, -9128.275, 0.15888421, 0.09917654, -442414.56, -195248.78, 0.0, 9.998741, 9.999204 
6.249771e+2, 2.847789e+2, -398301.2, -330792.4, -32980.527, 0.11462242, 0.10332996, -317354.9, -168183.81, 0.000000116905284, 9.998507, 9.999427 
6.2496895e+2, 2.9477745e+2, -243113.28, -204752.17, -45986.33, -0.06796757, -0.027981143, -174106.67, -122925.56, 0.000004287332, 9.998862, 9.999457 
6.249659e+2, 3.047758e+2, -130959.53, -82946.52, 63358.15, 0.14412032, -0.14876804, -39199.3, -39199.3, 0.000025852014, 9.999173, 9.999798 
6.2496126e+2, 3.1477717e+2, -75400.11, 3582.6963, 24336.99, 0.05353207, -0.025292171, 10479.438, 10479.438, 0.00007870898, 9.999219, 10.000371 
6.3505006e+2, 1.2478588e+2, -1720588.9, -1543095.9, -19810.947, -0.24297589, 0.12988527, -1540911.5, 176199.13, 0.000000010756334, 9.999142, 10.001571 
6.350493e+2, 1.347876e+2, -1565015.3, -1444484.6, -17983.74, 0.2634437, 0.12493987, -1441858.6, 177231.88, 0.0, 9.999653, 10.001364 
6.350403e+2, 1.4478798e+2, -1536447.0, -1504746.0, 22211.793, -0.19770941, 0.10078839, -1493309.1, 27775.684, 0.0, 9.999731, 10.000199 
6.3503706e+2, 1.5478908e+2, -1383403.3, -1380418.4, 3683.1897, -0.051755443, 0.14687479, -1377936.8, 45136.773, 0.0, 10.000128, 10.000184 
6.3503355e+2, 1.647889e+2, -1312452.1, -1318093.4, 13635.011, 0.019658534, 0.1247397, -1301349.0, 23724.688, 0.0, 10.00004, 9.999983 
6.3503057e+2, 1.7478709e+2, -1298960.0, -1262964.6, 26199.373, 0.090974055, -0.086883485, -1249176.8, -22088.4, 0.0, 9.999468, 9.999968 
6.350265e+2, 1.847871e+2, -1236718.6, -1168737.9, -21367.71, 0.09771409, -0.084225915, -1162579.5, -33492.895, 0.0, 9.99914, 10.000104 
6.350209e+2, 1.9478863e+2, -1149748.6, -1078769.1, 8863.252, 0.014207821, 0.024213757, -1077679.1, -46608.23, 0.0, 9.999073, 10.000084 
6.3501686e+2, 2.0478883e+2, -1044343.0, -1073691.0, 48036.31, 0.014217982, 0.08594069, -1008789.4, -75719.93, 0.0, 9.999554, 9.999208 
6.350143e+2, 2.1478724e+2, -779210.1, -893407.06, 63241.09, 0.10404498, -0.02896781, -751104.9, 83981.7, 0.0, 10.000695, 9.999222 
6.3500994e+2, 2.2478667e+2, -702838.0, -819355.2, -32027.066, 0.12435195, 0.0032990174, -694615.06, 42479.02, 0.0, 10.000628, 9.99908 
6.3500357e+2, 2.3478682e+2, -819669.75, -832406.9, -172.19673, 0.062142547, 0.07805017, -819667.4, -180572.52, 0.0, 9.99917, 9.99903 
6.349974e+2, 2.4478635e+2, -767133.6, -734275.2, -1855.1079, 0.0029916787, 0.124808915, -734170.75, -193070.66, 0.0, 9.998756, 9.999226 
6.349915e+2, 2.5478497e+2, -580102.94, -595128.6, -5778.413, -0.05272462, 0.029923093, -578137.75, -135025.45, 0.0, 9.9993725, 9.999212 
6.349859e+2, 2.6478443e+2, -465031.63, -470119.9, -44542.668, -0.057967126, 0.050387416, -422960.5, -77843.74, 0.0, 9.999422, 9.999369 
6.3498044e+2, 2.7478424e+2, -485048.72, -433474.4, -21155.836, -0.024832586, 0.05848522, -425906.7, -178789.17, 0.0, 9.99862, 9.999338 
6.3497454e+2, 2.8478342e+2, -388288.44, -292806.56, -36886.203, -0.02681231, 0.029221272, -280216.8, -131093.48, 0.0000001448745, 9.998438, 9.999721 
6.3496834e+2, 2.9478192e+2, -250849.88, -183172.39, -9999.6875, -0.057068035, -0.12797423, -181725.8, -130592.266, 0.000005079309, 9.998723, 9.999665 
6.349652e+2, 3.0478194e+2, -160519.5, -153350.56, 58875.89, 0.118108824, -0.065606646, -97950.125, -97950.125, 0.000027855136, 9.999179, 9.999327 
6.3495934e+2, 3.1478232e+2, -112827.52, -54533.496, 99491.1, -0.14061943, -0.008421438, 19992.184, 19992.184, 0.00008149468, 9.999119, 10.000027 
6.4505e+2, 1.24791086e+2, -1677067.9, -1570092.3, 42934.57, -0.17194432, 0.11144781, -1554992.0, 162064.92, 0.0000000047013002, 9.999654, 10.001133 
6.4504904e+2, 1.347925e+2, -1639779.4, -1503422.4, 9359.96, 0.31133088, 0.102853954, -1502782.9, 116257.266, 0.0, 9.999273, 10.0011215 
6.4504045e+2, 1.4479254e+2, -1595189.3, -1559261.0, 74438.34, -0.12758368, 0.06640977, -1500649.9, 20388.438, 0.0, 9.999442, 9.999963 
6.4503783e+2, 1.5479319e+2, -1341236.5, -1387846.3, 24755.373, 0.0014885144, 0.09014953, -1330542.1, 92489.305, 0.0, 10.0005245, 9.999946 
6.4503425e+2, 1.6479288e+2, -1229471.9, -1312093.8, 14487.911, 0.06056468, 0.08430364, -1227005.0, 98028.53, 0.0, 10.000756, 9.999683 
6.4503056e+2, 1.7479138e+2, -1228454.1, -1259443.8, -15794.56, 0.12222198, -0.06656305, -1221823.0, 5223.594, 0.0, 10.000087, 9.999693 
6.4502627e+2, 1.8479145e+2, -1118645.3, -1101621.4, -25461.775, 0.12895247, -0.046867065, -1083286.5, 45758.156, 0.0, 9.999917, 10.000187 
6.45021e+2, 1.9479287e+2, -980729.6, -983813.0, -53013.742, 0.062180553, 0.039035283, -929235.1, 101794.336, 0.0, 10.000197, 10.000184 
6.4501673e+2, 2.0479305e+2, -994946.2, -1039061.6, 8047.5854, 0.045412127, 0.08883661, -993524.0, -60495.64, 0.0, 9.999854, 9.999293 
6.450138e+2, 2.1479152e+2, -1059590.3, -1022856.7, 43.84855, 0.0915393, -0.026200242, -1022856.6, -187810.66, 0.0, 9.998746, 9.999269 
6.450093e+2, 2.2479136e+2, -945844.9, -872080.1, -61906.17, 0.10171673, 0.016319064, -836902.25, -99853.04, 0.0, 9.998652, 9.999679 
6.450031e+2, 2.3479234e+2, -701782.4, -703449.75, -47564.547, 0.07901468, 0.1069843, -655044.2, -16004.161, 0.0, 9.999652, 9.999682 
6.4499706e+2, 2.4479201e+2, -604484.8, -689369.6, 12903.027, 0.037381466, 0.15084915, -602566.8, -61523.848, 0.0, 10.000037, 9.998918 
6.449914e+2, 2.5479004e+2, -542897.9, -610347.56, -7884.03, -0.0106520485, 0.030931724, -541988.56, -98927.266, 0.0, 9.999784, 9.998908 
6.449854e+2, 2.6478902e+2, -467563.13, -459234.22, -41529.35, -0.04278894, 0.0146706775, -421661.06, -76590.96, 0.0, 9.999359, 9.999473 
6.449789e+2, 2.7478856e+2, -450421.2, -404073.47, -58752.582, -0.04297251, -0.015647296, -364089.63, -117016.8, 0.000000000000000000046744374, 9.998807, 9.999453 
6.4497316e+2, 2.8478795e+2, -315912.88, -270280.44, -12211.959, -0.027927656, -0.020418104, -267217.84, -118141.305, 0.00000034821963, 9.99898, 9.999615 
6.4496815e+2, 2.947872e+2, -106333.03, -135245.2, -50634.484, 0.012749562, -0.09507818, -68131.45, -17049.62, 0.0000068469953, 9.999795, 9.999479 
6.449648e+2, 3.047874e+2, -121231.195, -161655.38, 7793.3013, 0.15804856, 0.009223987, -119780.78, -119780.78, 0.00003364889, 9.999594, 9.999049 
6.44958e+2, 3.1478667e+2, -220393.66, -84441.11, 12599.078, -0.12372423, -0.01780922, -83283.38, -83283.38, 0.000093661416, 9.998294, 10.000205 
6.5505e+2, 1.2479665e+2, -1778281.1, -1779326.1, -113455.48, -0.21269445, -0.038323764, -1665346.9, 51646.47, 0.000000001405694, 9.999651, 9.999696 
6.5504706e+2, 1.3479789e+2, -1719868.0, -1675739.1, 2775.4734, 0.15339965, 0.056192532, -1675565.3, -56582.215, 0.0, 9.999304, 9.999917 
6.550398e+2, 1.4479724e+2, -1621121.9, -1607106.4, 93406.84, -0.17569709, 0.027785532, -1520444.8, 544.48285, 0.0, 9.999413, 9.999655 
6.55039e+2, 1.5479614e+2, -1367260.6, -1434865.8, 81006.73, 0.029670011, -0.093242966, -1313286.8, 109711.27, 0.0, 10.000487, 9.999648 
6.550353e+2, 1.6479607e+2, -1267455.4, -1375284.6, -27548.824, 0.058039986, -0.039891634, -1260824.8, 64174.52, 0.0, 10.000688, 9.999279 
6.550295e+2, 1.74797e+2, -1263888.0, -1323267.1, -25342.1, -0.03312508, 0.092252016, -1254543.0, -27549.662, 0.0, 10.000046, 9.99927 
6.5502495e+2, 1.8479712e+2, -1150002.4, -1144801.3, -31516.521, -0.020349618, 0.15099463, -1115778.3, 13214.43, 0.0, 9.999823, 9.999935 
6.5502167e+2, 1.9479595e+2, -1011121.5, -1021964.5, -24954.023, 0.07749821, 0.0007474947, -991006.8, 39994.438, 0.0, 10.000091, 9.999974 
6.550172e+2, 2.0479557e+2, -1005928.5, -1027352.25, -47892.06, 0.07966532, -0.0019576182, -967565.0, -34559.3, 0.0, 9.999704, 9.99945 
6.550118e+2, 2.147957e+2, -1076802.4, -1010450.5, -26752.8, -0.016348744, 0.0341229, -1001007.75, -165998.77, 0.0, 9.998544, 9.999451 
6.5500665e+2, 2.2479637e+2, -918426.1, -765824.1, -40040.44, -0.051814478, 0.107757926, -755956.2, -18952.764, 0.0, 9.9984455, 10.000503 
6.550018e+2, 2.347972e+2, -671905.7, -594434.5, 4860.2344, -0.041610967, 0.10091433, -594130.75, 44861.535, 0.0, 9.999456, 10.000522 
6.549968e+2, 2.4479683e+2, -635148.2, -720878.0, -12641.648, -0.021377452, 0.10493459, -633322.94, -92328.94, 0.0, 9.999901, 9.998764 
6.549916e+2, 2.5479487e+2, -576890.1, -643739.56, -447.3736, 0.0007188221, -0.0003534201, -576887.2, -133874.7, 0.0, 9.99963, 9.998748 
6.5498537e+2, 2.6479355e+2, -474893.44, -460313.9, -77578.9, -0.013842085, -0.038489766, -389683.03, -44659.31, 0.0, 9.9992895, 9.999502 
6.549779e+2, 2.747926e+2, -461658.9, -408866.9, -58848.758, -0.05853633, -0.11788788, -370765.44, -123734.93, 0.0000000002377775, 9.998716, 9.999469 
6.549722e+2, 2.8479266e+2, -364097.8, -345789.8, 2746.0688, -0.058885295, -0.03591498, -345386.78, -196357.11, 0.0000008000927, 9.998887, 9.999131 
6.54968e+2, 2.9479337e+2, -163545.77, -219423.34, -2906.8787, -0.028028622, 0.08014873, -163394.95, -112370.016, 0.000010270006, 9.999658, 9.9989605 
6.549643e+2, 3.0479226e+2, -134638.9, -190403.42, -49607.47, 0.11127667, 0.09362845, -105614.92, -105614.92, 0.00004390313, 9.999585, 9.998863 
6.549566e+2, 3.1478962e+2, -186354.73, 7672.0547, 27927.52, -0.17364249, -0.11481702, 11611.843, 11611.843, 0.00011355634, 9.998203, 10.000883 
6.6505045e+2, 1.2480254e+2, -1913616.1, -1911699.1, -132447.44, -0.07946712, -0.08491421, -1780206.8, -63275.152, 0.00000000035571668, 9.999016, 9.999084 
6.6504693e+2, 1.348032e+2, -1354283.5, -1576298.5, 27332.918, 0.08261486, 0.012976417, -1350968.0, 267960.2, 0.0, 10.002121, 9.999254 
6.650413e+2, 1.4480223e+2, -1218757.1, -1477613.9, 96693.016, -0.10497764, 0.013863393, -1186626.8, 334312.06, 0.0, 10.002461, 9.999067 
6.6504014e+2, 1.5480044e+2, -1422649.8, -1524976.3, 25717.934, 0.111617796, -0.120092414, -1416549.8, 6405.536, 0.0, 10.000398, 9.999062 
6.6503614e+2, 1.6480017e+2, -1374264.8, -1414241.4, -9072.539, 0.11721911, -0.06317104, -1372302.1, -47343.52, 0.0, 9.999901, 9.999391 
6.6502994e+2, 1.7480132e+2, -1121335.1, -1242378.6, -470.1161, -0.024622006, 0.07887965, -1121333.4, 105616.37, 0.0, 10.00096, 9.999388 
6.6502523e+2, 1.848014e+2, -1003360.3, -1104797.5, 22434.871, -0.029857859, 0.14268115, -998619.94, 130329.85, 0.0, 10.000978, 9.999649 
6.650216e+2, 1.9479994e+2, -1064539.3, -1084776.0, -9631.771, 0.0863285, -0.0059509696, -1060688.0, -29724.484, 0.0, 9.99988, 9.999647 
6.650169e+2, 2.0479964e+2, -1013709.0, -986496.1, 512.2394, 0.098991536, -0.004810868, -986486.5, -53519.18, 0.0, 9.999454, 9.999861 
6.650111e+2, 2.148003e+2, -882010.2, -870993.06, 8059.8203, 0.0149255255, 0.04200307, -866739.2, -31775.84, 0.0, 9.9996805, 9.999869 
6.650058e+2, 2.2480105e+2, -757472.25, -690778.25, 28830.625, -0.028958635, 0.10680068, -680043.2, 56912.91, 0.0, 9.999577, 10.000478 
6.6500103e+2, 2.3480162e+2, -728613.2, -628187.9, -21326.709, -0.039207503, 0.083470255, -623846.5, 15101.705, 0.0, 9.999107, 10.000464 
6.6499627e+2, 2.4480128e+2, -727881.7, -722614.44, -31293.525, -0.011636991, 0.07415822, -693843.9, -152894.53, 0.0, 9.999045, 9.999175 
6.649916e+2, 2.5479963e+2, -591189.4, -608972.7, -11051.466, 0.062066015, -0.041617114, -585896.6, -142933.19, 0.0, 9.999316, 9.999152 
6.649855e+2, 2.6479858e+2, -453134.16, -466600.72, -51496.355, 0.06521297, -0.06793739, -407932.75, -62960.53, 0.0, 9.999505, 9.999358 
6.6497767e+2, 2.7479795e+2, -337791.22, -360612.13, -79004.2, 0.006293705, -0.10101532, -269377.72, -22400.736, 0.0000000023427176, 9.999633, 9.999349 
6.6497153e+2, 2.8479797e+2, -312675.66, -351751.72, 32486.107, -0.020507766, -0.0027714837, -294304.8, -145327.19, 0.0000014418595, 9.99936, 9.998871 
6.649672e+2, 2.947981e+2, -343033.0, -326103.0, 8782.49, -0.007888561, 0.07884216, -322370.1, -271390.53, 0.000014823799, 9.998516, 9.9987755 
6.6496325e+2, 3.0479655e+2, -286730.5, -224636.55, 11692.854, 0.116238795, 0.034366854, -222507.67, -222507.67, 0.000057815294, 9.998368, 9.999215 
6.6495603e+2, 3.1479493e+2, -109034.94, 67438.414, 73700.56, -0.0576222, -0.097848654, 94169.055, 94169.055, 0.00014076945, 9.998621, 10.001099 
6.7505044e+2, 1.2480885e+2, -1913477.9, -1909408.8, -88388.38, -0.059528813, -0.037269846, -1823031.5, -106161.414, 0.0000000023126079, 9.999019, 9.999096 
6.750482e+2, 1.3480845e+2, -1366738.9, -1596761.4, 152323.92, -0.040858816, -0.034229804, -1290883.3, 327992.38, 0.0, 10.00211, 9.999117 
6.750445e+2, 1.4480756e+2, -1288205.1, -1605075.1, 714.9494, -0.080053166, 0.024167346, -1288203.5, 232682.89, 0.0, 10.002393, 9.998224 
6.7504066e+2, 1.5480623e+2, -1479267.8, -1641617.5, -34141.723, 0.083136365, 0.024810364, -1472380.0, -49478.418, 0.0, 10.0004, 9.998258 
6.750362e+2, 1.6480532e+2, -1334933.3, -1325945.3, 12675.902, 0.09949847, 0.02644124, -1316990.3, 7919.58, 0.0, 9.9998665, 10.000017 
6.7503166e+2, 1.7480452e+2, -1083167.5, -1148254.8, 54568.07, 0.014749935, -0.09482019, -1052175.6, 174738.17, 0.0, 10.000898, 10.000061 
6.750264e+2, 1.8480444e+2, -1042952.3, -1164322.5, -37153.29, -0.032821555, -0.06338538, -1032482.3, 96432.625, 0.0, 10.000877, 9.999293 
6.7502034e+2, 1.9480495e+2, -1114012.4, -1149016.9, -36850.07, -0.059438124, 0.026953569, -1090719.3, -59804.094, 0.0, 9.9997225, 9.999283 
6.7501533e+2, 2.0480534e+2, -995692.4, -914696.75, -6966.568, -0.032400653, 0.089970924, -914101.94, 18810.266, 0.0, 9.999291, 10.000439 
6.7501134e+2, 2.1480532e+2, -865706.6, -793127.8, 30350.18, 0.046714947, 0.0041096467, -782109.1, 52799.74, 0.0, 9.999489, 10.000497 
6.7500633e+2, 2.248055e+2, -847639.56, -835011.0, -4009.061, 0.044955663, 0.024784917, -833845.8, -96939.46, 0.0, 9.999391, 9.999578 
6.7500025e+2, 2.3480563e+2, -823230.6, -775867.9, -21602.176, -0.054130394, 0.04854146, -767495.2, -128587.35, 0.0, 9.9989, 9.999549 
6.749951e+2, 2.4480546e+2, -687537.7, -599401.4, -33662.082, -0.059845574, 0.055619135, -588015.56, -47106.957, 0.0, 9.998879, 10.0001 
6.749909e+2, 2.5480452e+2, -549806.44, -486713.78, 15783.866, 0.026185518, -0.08285439, -482985.44, -40072.49, 0.0, 9.999157, 10.000069 
6.749852e+2, 2.6480427e+2, -493579.16, -519707.1, -63001.414, 0.05463026, -0.058691222, -442301.5, -97387.63, 0.0, 9.999379, 9.999052 
6.7497766e+2, 2.7480456e+2, -376795.1, -416484.7, -56092.387, 0.011162488, 0.031230561, -337140.56, -90227.57, 0.0000000015372758, 9.999524, 9.999021 
6.749711e+2, 2.8480387e+2, -315585.3, -346317.97, -12642.408, -0.03635126, 0.072622314, -311053.03, -162132.19, 0.0000017821444, 9.999313, 9.998928 
6.7496514e+2, 2.9480162e+2, -353839.7, -318409.88, -783.14166, -0.106144875, -0.08730922, -318392.56, -267449.1, 0.000019076204, 9.998387, 9.998889 
6.749608e+2, 3.0480012e+2, -244881.1, -116684.94, 12143.779, 0.0013448864, -0.17337485, -115544.73, -115544.73, 0.000073988194, 9.998287, 9.999991 
6.749552e+2, 3.1480268e+2, -134516.16, 47879.633, 140630.94, -0.0832202, 0.03812814, 124294.73, 124294.73, 0.00017626988, 9.998493, 10.001017 
6.850517e+2, 1.2481491e+2, -1485419.6, -1728912.3, -47831.758, 0.030806672, 0.03735027, -1476360.6, 240451.38, 0.0000000036242784, 10.002032, 9.9989 
6.850489e+2, 1.3481319e+2, -1593531.8, -1744600.1, 98510.82, -0.09064121, -0.05307046, -1544929.8, 73900.92, 0.0, 10.000738, 9.998754 
6.850467e+2, 1.4481232e+2, -1543414.6, -1681955.1, -18239.953, 0.012162524, 0.0070222723, -1541053.5, -20213.201, 0.0, 10.000435, 9.998644 
6.8504196e+2, 1.548119e+2, -1281228.3, -1501311.8, 9982.498, 0.12863941, 0.055842906, -1280776.4, 142068.44, 0.0, 10.001548, 9.998681 
6.85037e+2, 1.6481104e+2, -1116783.3, -1244172.6, 113658.055, 0.12293322, 0.050429244, -1050189.1, 274662.75, 0.0, 10.001456, 9.999819 
6.850322e+2, 1.748094e+2, -1226459.8, -1248640.9, 57188.33, 0.025069268, -0.13103282, -1179296.5, 47568.04, 0.0, 10.000035, 9.999803 
6.850267e+2, 1.8480912e+2, -1233004.3, -1259999.5, -26747.428, -0.018366033, -0.1039383, -1216541.8, -87673.38, 0.0, 9.99958, 9.99926 
6.850205e+2, 1.9480997e+2, -1064900.1, -1127501.4, -28936.143, -0.023287019, 0.020336742, -1053574.1, -22708.508, 0.0, 10.000056, 9.999266 
6.850152e+2, 2.048105e+2, -876122.44, -857892.1, 31470.506, -0.0055631003, 0.09693055, -834243.3, 98617.625, 0.0, 10.000159, 10.000382 
6.8501085e+2, 2.1481028e+2, -804602.06, -772687.94, -13153.18, 0.032661483, 0.0022596186, -767965.7, 66892.016, 0.0, 9.999959, 10.000398 
6.850058e+2, 2.2480991e+2, -821656.44, -878967.6, -42132.023, 0.03573773, -0.0042673363, -799358.6, -62497.938, 0.0, 9.999796, 9.999083 
6.85e+2, 2.3480915e+2, -752977.7, -799765.1, -59674.383, 0.003091183, -0.020232307, -712275.4, -73402.78, 0.0, 9.999613, 9.999045 
6.849948e+2, 2.4480909e+2, -577609.1, -496972.4, -26691.916, 0.00474242, 0.003814297, -488937.6, 51935.45, 0.0, 9.999439, 10.00052 
6.849902e+2, 2.548095e+2, -484791.25, -400973.63, -45528.027, 0.038866844, -0.04493459, -381002.3, 61861.883, 0.0, 9.9994, 10.000524 
6.849844e+2, 2.6480976e+2, -467701.66, -510078.2, -96353.62, 0.03863918, 0.007555855, -390234.16, -45373.426, 0.0, 9.999555, 9.999036 
6.849773e+2, 2.7480957e+2, -345859.16, -405154.38, -99692.305, 0.023644011, 0.050321687, -271499.38, -24633.645, 0.00000000039754933, 9.999732, 9.999003 
6.8497074e+2, 2.8480873e+2, -264658.38, -292200.53, -35456.934, -0.0038815178, 0.060705245, -240392.14, -91516.8, 0.000001935021, 9.999534, 9.999191 
6.849644e+2, 2.9480663e+2, -221518.22, -222496.25, -43352.254, -0.046378605, -0.10312584, -178652.22, -127757.39, 0.000022833043, 9.999141, 9.999188 
6.8495935e+2, 3.0480593e+2, -117142.445, -42319.95, 16127.069, -0.00082520593, -0.1293848, -38991.98, -38991.98, 0.00009092674, 9.999121, 10.000097 
6.849538e+2, 3.1480828e+2, -92362.24, 50563.723, 56794.29, -0.072694145, 0.058243766, 70383.54, 70383.54, 0.00021663251, 9.998833, 10.000888 
6.950534e+2, 1.2482082e+2, -1501637.4, -1761577.0, -91147.516, -0.080922894, 0.14641543, -1472862.0, 243894.23, 0.00000000017840025, 10.0020485, 9.998654 
6.9504875e+2, 1.3481753e+2, -1633277.5, -1829311.4, 59948.973, -0.21190813, -0.0401047, -1616397.9, 2393.9297, 0.0, 10.000755, 9.998158 
6.950476e+2, 1.448165e+2, -1427973.6, -1439374.3, 4327.391, 0.020081582, -0.05080057, -1426517.1, 94283.32, 0.0, 10.000415, 10.000321 
6.9504374e+2, 1.5481737e+2, -1165943.0, -1263218.4, 69204.64, 0.11540375, -0.044271767, -1129994.0, 292791.63, 0.0, 10.001541, 10.000325 
6.9503796e+2, 1.6481729e+2, -1202941.4, -1404334.4, 47068.703, 0.045211647, -0.000044371325, -1192483.8, 132301.3, 0.0, 10.001387, 9.998746 
6.950309e+2, 1.7481613e+2, -1315183.4, -1416302.4, 23422.7, -0.13174333, -0.020791786, -1310021.4, -83220.88, 0.0, 9.9999695, 9.998681 
6.950255e+2, 1.8481556e+2, -1225983.8, -1218840.4, -22787.822, -0.12571728, 0.016224898, -1199346.0, -70537.36, 0.0, 9.99947, 9.99959 
6.950217e+2, 1.9481517e+2, -1061450.5, -1088126.6, 3365.808, 0.05600615, -0.019388324, -1061032.4, -30219.037, 0.0, 9.999929, 9.999588 
6.9501615e+2, 2.0481512e+2, -948787.8, -980557.6, 6990.318, 0.045836277, 0.022504464, -947317.75, -14504.637, 0.0, 10.000026, 9.999608 
6.950091e+2, 2.1481517e+2, -889453.1, -902681.7, -6692.813, -0.16800159, 0.032284133, -886657.7, -51847.28, 0.0, 9.999759, 9.9996 
6.950036e+2, 2.2481433e+2, -855775.44, -905992.44, -63849.902, -0.18590419, 0.02381973, -812274.56, -75455.91, 0.0, 9.999605, 9.998987 
6.9499975e+2, 2.3481219e+2, -785725.8, -825071.8, -52845.195, -0.005009553, -0.12325991, -749010.5, -110168.23, 0.0, 9.999432, 9.998954 
6.94995e+2, 2.448123e+2, -598050.56, -513642.47, -41951.3, 0.045706842, -0.07397484, -496339.44, 44502.15, 0.0, 9.999321, 10.0004635 
6.9498914e+2, 2.5481454e+2, -503176.6, -414638.88, -29597.97, -0.04660924, 0.06095536, -405655.78, 37162.074, 0.0, 9.999284, 10.000488 
6.9498277e+2, 2.6481494e+2, -465569.63, -477990.3, -102248.27, -0.10552272, 0.11650696, -369343.28, -24529.438, 0.0, 9.999443, 9.999306 
6.94976e+2, 2.74813e+2, -347502.22, -378042.6, -76606.23, -0.11976633, -0.04294272, -284659.06, -37823.945, 0.0000000054780975, 9.999606, 9.999247 
6.949699e+2, 2.8481245e+2, -242817.31, -232017.69, -67080.77, -0.07507995, -0.033838406, -170119.73, -21278.525, 0.000002364329, 9.99947, 9.999633 
6.949644e+2, 2.9481325e+2, -206528.6, -165039.88, -34163.254, -0.0061568893, 0.036672596, -145816.05, -94982.84, 0.000027093956, 9.999031, 9.999633 
6.949585e+2, 3.0481404e+2, -162666.47, -130723.04, 264.7024, -0.031013956, 0.16471037, -130720.85, -130720.85, 0.00010798756, 9.999087, 9.999504 
6.9495124e+2, 3.1481227e+2, -127682.03, -1314.0789, 111897.125, -0.29211122, 0.004865919, 64005.57, 64005.57, 0.00025661878, 9.998738, 10.000574 
7.0505565e+2, 1.2482521e+2, -1559614.0, -1760230.6, -31259.178, -0.01492963, 0.09679565, -1554856.1, 161858.92, 0.0, 10.001497, 9.998949 
7.050499e+2, 1.3482288e+2, -1533334.9, -1768130.8, 65745.055, -0.19861577, -0.0027065177, -1516179.1, 102560.375, 0.0, 10.001359, 9.998297 
7.050487e+2, 1.4482185e+2, -1362163.4, -1383209.0, 63318.836, 0.080576524, -0.03165954, -1308499.0, 212248.47, 0.0, 10.000764, 10.000532 
7.050445e+2, 1.5482242e+2, -1328366.0, -1310535.0, -14593.605, 0.10379023, -0.078562826, -1302349.1, 120386.93, 0.0, 10.000312, 10.000574 
7.050384e+2, 1.6482264e+2, -1360974.1, -1476983.6, -45782.063, 0.018218128, -0.020145971, -1345083.4, -20350.176, 0.0, 10.0002985, 9.99876 
7.0503145e+2, 1.7482224e+2, -1222046.8, -1363187.6, -19349.008, -0.10268696, 0.033397205, -1219442.3, 7299.6846, 0.0, 10.000588, 9.99873 
7.0502603e+2, 1.8482171e+2, -1051226.8, -1140920.0, 21089.256, -0.07910868, 0.074446455, -1046515.6, 82233.49, 0.0, 10.000693, 9.999539 
7.0502216e+2, 1.9482058e+2, -965741.9, -1050621.5, -12023.109, 0.08537791, -0.02784818, -964071.7, 66687.46, 0.0, 10.000608, 9.999531 
7.0501655e+2, 2.0482002e+2, -903600.5, -1014798.56, 7769.1333, 0.061875597, -0.010694342, -903060.3, 29703.82, 0.0, 10.000551, 9.999132 
7.0500916e+2, 2.1481983e+2, -822568.25, -923528.3, -11262.673, -0.16040373, 0.024427626, -821327.06, 13438.652, 0.0, 10.000426, 9.9991455 
7.050036e+2, 2.2481912e+2, -751293.25, -806085.5, -12564.176, -0.16659936, 0.030017525, -748549.56, -11776.884, 0.0, 10.000127, 9.999412 
7.0499974e+2, 2.3481748e+2, -710634.3, -737767.8, 6432.8555, 0.04438607, -0.111130424, -709186.44, -70397.56, 0.0, 9.99974, 9.999397 
7.0499456e+2, 2.448176e+2, -616199.5, -553569.4, 57543.777, 0.08152715, -0.071050785, -519371.72, 21415.959, 0.0, 9.999323, 10.000197 
7.04988e+2, 2.5481933e+2, -588479.44, -485989.22, 23014.521, -0.056013826, 0.041404136, -481058.44, -38287.727, 0.0, 9.998823, 10.000228 
7.049817e+2, 2.6481962e+2, -534815.06, -485297.3, -6010.5127, -0.12097457, 0.087112024, -484578.2, -139809.6, 0.0, 9.998852, 9.999545 
7.0497566e+2, 2.74818e+2, -349560.25, -346959.3, -15563.993, -0.09414943, -0.061542664, -332641.53, -85855.41, 0.000000016182126, 9.999459, 9.999526 
7.0496976e+2, 2.8481787e+2, -214088.48, -223540.48, -17798.021, -0.03989868, -0.026276631, -200399.69, -51611.234, 0.0000030357212, 9.999677, 9.999602 
7.0496374e+2, 2.9481912e+2, -173375.38, -153906.05, -54544.88, 0.025354926, 0.094996616, -108233.96, -57457.93, 0.000031540207, 9.999269, 9.999603 
7.049574e+2, 3.048195e+2, -228495.52, -217237.22, 3371.679, -0.025582975, 0.20731041, -216304.69, -216304.69, 0.00012311795, 9.998872, 9.99901 
7.0495087e+2, 3.1481692e+2, -188902.89, -15489.561, 67096.06, -0.1646165, 0.00926021, 7439.204, 7439.204, 0.0002906225, 9.99827, 10.000686 
7.1505773e+2, 1.2482812e+2, -1481636.5, -1600776.1, -26028.03, -0.035150625, -0.084866986, -1476198.5, 240489.36, 0.0, 10.00151, 10.000031 
7.1505165e+2, 1.348291e+2, -1461175.3, -1631638.9, 67186.2, -0.19480397, 0.04568967, -1437878.5, 180796.66, 0.0, 10.001404, 9.999216 
7.150495e+2, 1.4482835e+2, -1446977.8, -1557552.9, 25093.143, 0.034935985, 0.056045733, -1441549.8, 79131.87, 0.0, 10.000763, 9.99933 
7.150437e+2, 1.5482715e+2, -1417621.0, -1492419.1, -14491.994, -0.04958451, -0.04344405, -1414911.4, 7783.3975, 0.0, 10.000295, 9.999332 
7.15038e+2, 1.6482705e+2, -1294576.3, -1318001.0, -51459.637, -0.0914724, -0.009931813, -1253512.9, 71183.4, 0.0, 10.000218, 9.9998865 
7.150332e+2, 1.748277e+2, -1152955.8, -1202981.4, 5381.8345, -0.020810567, 0.03206945, -1152383.4, 74306.0, 0.0, 10.000527, 9.999857 
7.1502763e+2, 1.8482757e+2, -1091696.8, -1205992.0, 2043.5526, -0.012542489, 0.07485144, -1091660.1, 37030.086, 0.0, 10.000611, 9.999137 
7.1502143e+2, 1.9482628e+2, -1019249.6, -1123699.9, 1399.2876, -0.07519522, 0.0010847009, -1019230.9, 11471.604, 0.0, 10.000452, 9.999107 
7.150158e+2, 2.0482533e+2, -941412.9, -1047248.94, -10925.226, -0.09584243, 0.007939729, -940296.9, -7584.6167, 0.0, 10.000363, 9.998996 
7.1501076e+2, 2.1482442e+2, -869369.8, -961579.1, -2846.546, -0.075986505, -0.017967805, -869282.0, -34559.32, 0.0, 10.00019, 9.998992 
7.1500534e+2, 2.2482443e+2, -710536.5, -684696.1, -44839.35, -0.036698624, 0.024825916, -650952.6, 85768.99, 0.0, 9.99996, 10.00033 
7.1499944e+2, 2.3482512e+2, -673066.44, -615362.25, 6313.2705, 0.012372061, 0.023728913, -614679.6, 24031.908, 0.0, 9.999546, 10.000335 
7.1499324e+2, 2.4482504e+2, -676326.6, -638425.94, 22792.77, -0.016759241, 0.021224009, -627734.7, -87023.984, 0.0, 9.999152, 9.9997 
7.149863e+2, 2.5482383e+2, -650261.75, -574522.75, 19819.95, -0.13664305, -0.104513414, -569649.6, -126926.62, 0.0, 9.998662, 9.999697 
7.149806e+2, 2.648238e+2, -524868.56, -455341.03, -572.35657, -0.14739929, -0.07412234, -455336.3, -110611.66, 0.0, 9.998803, 9.99978 
7.14976e+2, 2.7482468e+2, -348678.8, -319319.53, 25672.277, -0.043126676, -0.002290095, -304426.25, -57707.703, 0.000000020828322, 9.999343, 9.999777 
7.1497e+2, 2.848249e+2, -260106.02, -296003.38, -46594.28, -0.022832496, 0.08224106, -228122.92, -79405.55, 0.0000037854625, 9.99959, 9.999141 
7.149619e+2, 2.9482424e+2, -230191.22, -240121.56, -46720.867, -0.128217, 0.06098701, -188172.42, -137448.47, 0.000035842306, 9.999149, 9.999062 
7.1495545e+2, 3.0482247e+2, -259112.3, -284945.56, -29696.043, -0.14552625, 0.013326989, -239645.38, -239645.38, 0.000135526, 9.998876, 9.998551 
7.149519e+2, 3.148213e+2, -185678.97, 15767.992, 90009.86, 0.024948953, -0.0068587237, 50125.95, 50125.95, 0.00031586387, 9.998149, 10.000973 
7.250597e+2, 1.2483357e+2, -1398808.5, -1540559.5, 79970.49, 0.006443141, -0.06353062, -1362826.1, 353810.6, 0.0, 10.001957, 10.0002575 
7.2505385e+2, 1.3483484e+2, -1433184.5, -1566109.5, 17442.506, -0.10013828, 0.06095576, -1430933.8, 187684.9, 0.0, 10.001394, 9.999664 
7.250508e+2, 1.4483385e+2, -1465917.6, -1617315.1, 19555.553, 0.08986458, 0.047822837, -1463432.5, 57194.87, 0.0, 10.000841, 9.998899 
7.250437e+2, 1.5483277e+2, -1413237.4, -1535377.5, 9661.803, -0.07739317, 0.0045914, -1412477.8, 10164.298, 0.0, 10.000515, 9.998942 
7.250381e+2, 1.6483252e+2, -1244544.4, -1272104.6, 26941.064, -0.103462495, 0.034643296, -1228063.8, 96581.41, 0.0, 10.000425, 10.000128 
7.2503453e+2, 1.7483282e+2, -1130607.1, -1161287.6, -11938.723, 0.07337732, 0.014959144, -1126508.9, 100130.74, 0.0, 10.0005245, 10.000158 
7.2502905e+2, 1.8483272e+2, -1114676.1, -1215090.5, -18438.355, 0.0845299, 0.043839365, -1111397.5, 17241.717, 0.0, 10.000441, 9.999154 
7.2502136e+2, 1.9483182e+2, -1065721.9, -1141716.3, -18096.81, -0.098285586, 0.006601681, -1061632.5, -30984.838, 0.0, 10.000112, 9.999144 
7.2501564e+2, 2.0483097e+2, -987476.06, -1050177.5, 34770.246, -0.118822776, 0.013195246, -972009.75, -39353.32, 0.0, 9.999981, 9.999165 
7.250119e+2, 2.1482977e+2, -881441.2, -951102.44, 38566.258, 0.04213757, -0.05493933, -864305.2, -29635.783, 0.0, 10.000036, 9.999145 
7.2500646e+2, 2.2482988e+2, -717867.44, -697361.4, -6327.3706, 0.09050357, -0.0053256466, -695566.1, 41101.633, 0.0, 9.999947, 10.000258 
7.249991e+2, 2.3483111e+2, -656429.9, -617351.3, -64989.4, 0.027753392, 0.057390865, -569027.44, 69625.875, 0.0, 9.999695, 10.000259 
7.2499245e+2, 2.44831e+2, -629700.3, -639193.44, -37498.0, -0.020194935, 0.06435926, -596649.7, -55996.1, 0.0, 9.999589, 9.999471 
7.2498614e+2, 2.5482908e+2, -506569.1, -533762.94, -48814.266, -0.06777476, -0.10657942, -469493.47, -26820.582, 0.0, 9.999769, 9.99944 
7.249804e+2, 2.648289e+2, -426225.72, -408568.88, -34453.44, -0.07739674, -0.08122024, -381830.75, -37154.395, 0.0, 9.999506, 9.999753 
7.249752e+2, 2.748301e+2, -424968.0, -360078.88, -65186.22, -0.020753508, 0.031284694, -319709.34, -73042.984, 0.000000011844985, 9.998833, 9.999745 
7.2496915e+2, 2.8483042e+2, -367376.97, -346327.66, -82724.21, -0.011031326, 0.12160658, -273461.28, -124796.98, 0.000004675658, 9.998867, 9.999134 
7.249618e+2, 2.948293e+2, -154928.45, -203327.6, -86900.625, -0.073185176, 0.060123455, -88920.83, -38246.734, 0.000040333267, 9.999676, 9.999054 
7.249547e+2, 3.0482638e+2, -114450.914, -193549.52, -21188.916, -0.13398942, -0.112670854, -109132.44, -109132.44, 0.00014552829, 9.999782, 9.998752 
7.249514e+2, 3.1482604e+2, -96862.73, 51369.223, 68612.53, 0.15548694, -0.06687993, 78252.54, 78252.54, 0.00033116215, 9.998792, 10.000911 
7.350612e+2, 1.24841645e+2, -1437796.1, -1613356.9, 50634.97, -0.112352006, 0.18157966, -1424239.0, 292321.6, 0.0, 10.001935, 9.999758 
7.3505604e+2, 1.348401e+2, -1453035.0, -1607207.3, 995.0082, -0.055834576, 0.048560284, -1453028.6, 165541.31, 0.0, 10.001383, 9.999392 
7.350519e+2, 1.448382e+2, -1452286.5, -1565860.9, -13994.944, 0.07989004, -0.06373661, -1450587.5, 69998.95, 0.0, 10.000753, 9.999284 
7.350441e+2, 1.5483902e+2, -1393765.6, -1492709.6, 16187.8, -0.12476641, 0.04513634, -1391184.5, 31395.422, 0.0, 10.0005045, 9.999238 
7.3503834e+2, 1.6483898e+2, -1282777.8, -1346772.5, 13204.604, -0.156513, 0.10707241, -1280160.3, 44420.277, 0.0, 10.000406, 9.999621 
7.3503524e+2, 1.7483777e+2, -1178862.9, -1244114.3, 9292.139, 0.051568616, -0.013608235, -1177565.4, 49025.77, 0.0, 10.000446, 9.99963 
7.350297e+2, 1.8483731e+2, -1108152.6, -1165892.8, -44822.51, 0.07449205, -0.01108371, -1083707.3, 44887.297, 0.0, 10.000295, 9.999557 
7.3502153e+2, 1.9483735e+2, -1060336.4, -1092586.3, -16943.97, -0.12175871, 0.0017730051, -1053070.9, -22477.414, 0.0, 9.999961, 9.999546 
7.350157e+2, 2.0483707e+2, -974255.8, -990031.06, 19900.766, -0.13324505, 0.021701362, -960736.56, -28141.11, 0.0, 9.999835, 9.999648 
7.350123e+2, 2.148361e+2, -875356.7, -889098.56, 55893.453, 0.04768211, -0.07348388, -825913.44, 8690.523, 0.0, 9.999826, 9.999667 
7.350066e+2, 2.248357e+2, -826508.6, -872346.8, -31280.723, 0.08308461, -0.049575374, -810649.25, -74040.19, 0.0, 9.999731, 9.999159 
7.3499835e+2, 2.3483552e+2, -767195.75, -794786.44, -57611.676, -0.045787852, -0.015216907, -721750.75, -83136.86, 0.0, 9.999479, 9.99914 
7.349919e+2, 2.4483551e+2, -641757.9, -638928.4, -45696.582, -0.067266494, 0.056623705, -594624.7, -54008.707, 0.0, 9.999474, 9.99953 
7.349871e+2, 2.5483528e+2, -527390.8, -535986.94, -26818.2, 0.018006967, 0.043567967, -504528.44, -61909.582, 0.0, 9.999593, 9.999511 
7.3498064e+2, 2.648351e+2, -468074.47, -468374.06, -71929.9, -0.02638003, 0.084422894, -396294.22, -51672.684, 0.0, 9.999388, 9.999397 
7.349727e+2, 2.7483448e+2, -466873.84, -423117.88, -67994.266, -0.1900518, 0.05060964, -373568.5, -126940.21, 0.000000051096855, 9.998732, 9.99936 
7.349669e+2, 2.848344e+2, -330528.78, -275589.75, -67932.234, -0.16579464, 0.10042757, -229783.33, -81155.0, 0.0000058850314, 9.998878, 9.999618 
7.349629e+2, 2.9483446e+2, -132635.72, -142593.78, -33072.613, 0.020358687, 0.10172219, -104169.445, -53543.984, 0.000044056193, 9.999603, 9.999511 
7.3495483e+2, 3.0483127e+2, -63321.94, -82236.35, -63088.563, -0.13611896, -0.15988894, -8985.688, -8985.688, 0.00015023243, 9.999759, 9.999524 
7.349482e+2, 3.1483072e+2, -142768.98, -16804.078, 60873.92, -0.12612934, -0.21027009, 7805.8413, 7805.8413, 0.0003329124, 9.998675, 10.000496 
7.450633e+2, 1.2484805e+2, -1615978.9, -1758149.5, 124325.95, -0.033862356, 0.23055513, -1543850.9, 172645.13, 0.0, 10.000992, 9.999198 
7.450579e+2, 1.3484573e+2, -1546888.1, -1672131.9, -4676.566, 0.02907114, 0.040547404, -1546713.8, 71801.766, 0.0, 10.000853, 9.9991865 
7.4505275e+2, 1.4484377e+2, -1410807.5, -1494873.9, 38131.375, 0.09978937, -0.09108422, -1396088.6, 124443.84, 0.0, 10.000818, 9.999732 
7.450458e+2, 1.5484504e+2, -1265102.1, -1372622.8, 34674.973, -0.03470916, 0.015391057, -1254889.6, 167628.89, 0.0, 10.001153, 9.999734 
7.450397e+2, 1.6484518e+2, -1242280.1, -1360885.3, 62190.504, -0.07583841, 0.08310157, -1215649.9, 108866.76, 0.0, 10.000837, 9.999314 
7.450351e+2, 1.7484371e+2, -1283395.8, -1325815.3, 41477.645, 0.038477145, -0.031451564, -1258019.6, -31488.154, 0.0, 9.9998665, 9.999346 
7.450294e+2, 1.8484321e+2, -1196432.6, -1178662.4, 41366.156, 0.061851718, -0.034715235, -1145237.9, -16702.166, 0.0, 9.999547, 9.999837 
7.4502236e+2, 1.9484329e+2, -1053678.5, -1062554.3, 33230.21, -0.029547585, -0.042965252, -1024591.2, 5941.803, 0.0, 9.999869, 9.999806 
7.450164e+2, 2.048433e+2, -952642.94, -969082.3, 78910.97, -0.040004745, -0.014390804, -881524.7, 51007.38, 0.0, 9.999931, 9.999733 
7.4501187e+2, 2.1484287e+2, -882854.75, -887484.56, 48441.38, 0.035579134, -0.06488929, -836673.0, -2136.619, 0.0, 9.9997425, 9.999716 
7.4500585e+2, 2.2484246e+2, -818489.8, -878001.25, 18095.316, 0.042413853, -0.03950194, -813419.7, -76877.61, 0.0, 9.999834, 9.999062 
7.449982e+2, 2.3484172e+2, -669180.0, -763647.0, 34714.473, -0.03217881, -0.05252994, -657795.25, -19242.482, 0.0, 10.000201, 9.999009 
7.4499214e+2, 2.4484167e+2, -531578.8, -608717.7, 108810.0, -0.024664454, 0.032476097, -454704.7, 85851.16, 0.0, 10.000324, 9.999335 
7.449875e+2, 2.54842e+2, -429466.97, -507558.75, 73765.18, 0.07278937, 0.09791807, -385051.0, 57502.95, 0.0, 10.000341, 9.999347 
7.4498063e+2, 2.6484162e+2, -388339.66, -453173.22, 29531.623, 0.011785807, 0.13653433, -376904.8, -32346.281, 0.0, 10.000044, 9.999184 
7.449717e+2, 2.7484003e+2, -382426.5, -397230.9, 10921.86, -0.19287772, 0.024177497, -376634.78, -130061.36, 0.00000017449423, 9.999405, 9.999199 
7.449656e+2, 2.848396e+2, -353899.28, -292358.44, 55703.344, -0.16233623, 0.050762832, -259491.75, -110914.77, 0.0000070145306, 9.998747, 9.999567 
7.4496245e+2, 2.9484e+2, -347601.53, -243634.13, 14519.421, 0.10223825, 0.08751261, -241644.52, -191071.86, 0.00004543542, 9.9981165, 9.999534 
7.4495417e+2, 3.0483806e+2, -216454.39, -111811.9, -7002.938, -0.10701894, -0.066634625, -111345.32, -111345.32, 0.00014809403, 9.998513, 9.999919 
7.449474e+2, 3.148376e+2, -39145.5, 16440.156, -2161.1553, -0.105276376, -0.14789094, 16524.055, 16524.055, 0.00032280377, 9.999468, 10.00033 
7.550652e+2, 1.2485261e+2, -1661543.3, -1841273.6, 73882.38, -0.017315106, 0.05095821, -1635071.3, 81373.586, 0.0, 10.000946, 9.99865 
7.5505894e+2, 1.3485166e+2, -1560281.5, -1705054.8, 3255.5469, 0.018740805, 0.019756496, -1560208.3, 58247.7, 0.0, 10.000865, 9.998961 
7.550531e+2, 1.448505e+2, -1380529.5, -1420413.5, 30701.006, 0.010887402, -0.04335635, -1363862.3, 156603.73, 0.0, 10.000775, 10.000263 
7.5504804e+2, 1.5485105e+2, -1235996.8, -1297150.8, 61748.723, 0.04094878, -0.06359369, -1197669.1, 224786.64, 0.0, 10.001092, 10.000284 
7.5504154e+2, 1.6485114e+2, -1253264.5, -1369323.3, 6967.453, -0.0075301095, -0.027051585, -1252847.8, 71605.53, 0.0, 10.000773, 9.999289 
7.5503385e+2, 1.7485063e+2, -1296966.3, -1341095.1, 19955.172, -0.10592856, -0.037135772, -1289281.0, -62820.17, 0.0, 9.999813, 9.999267 
7.550278e+2, 1.8485032e+2, -1191809.3, -1149292.9, 34883.883, -0.08719529, -0.027764065, -1129700.1, -1236.8551, 0.0, 9.99946, 10.000085 
7.550232e+2, 1.9484977e+2, -1054917.6, -1030145.2, 61086.605, 0.04140022, -0.12529102, -980201.7, 50263.39, 0.0, 9.999724, 10.000098 
7.550174e+2, 2.0484978e+2, -1006470.0, -1040283.3, 56385.055, 0.031991802, -0.09129374, -964511.44, -32046.273, 0.0, 9.999752, 9.999336 
7.550102e+2, 2.1485007e+2, -944282.6, -958224.3, 56034.797, -0.1283481, -0.027297594, -894786.75, -60320.54, 0.0, 9.999512, 9.999339 
7.550039e+2, 2.2485024e+2, -782535.44, -761217.75, 17299.607, -0.15984525, 0.029995453, -751556.94, -15090.972, 0.0, 9.999647, 9.999957 
7.549984e+2, 2.3484987e+2, -636583.9, -644977.94, 65177.465, -0.06264928, -0.034634788, -575468.44, 62999.64, 0.0, 9.999986, 9.999928 
7.549927e+2, 2.4484971e+2, -585754.2, -688666.1, 94994.38, -0.025748815, 0.016207222, -529174.75, 11295.915, 0.0, 10.000181, 9.998855 
7.549869e+2, 2.548493e+2, -483527.3, -591752.56, 90111.414, -0.05691985, 0.0548118, -432529.3, 9949.05, 0.0, 10.00022, 9.998827 
7.5497985e+2, 2.6484844e+2, -398481.84, -459271.56, -9150.208, -0.10727018, 0.07601649, -397134.4, -52646.844, 0.0, 9.99998, 9.999172 
7.549717e+2, 2.748468e+2, -403304.97, -411623.8, 5214.2246, -0.16993515, -0.04160092, -400794.4, -154292.98, 0.0000002213921, 9.999278, 9.999164 
7.5496507e+2, 2.8484604e+2, -406208.44, -385955.13, 18798.896, -0.12500118, -0.016263936, -374728.84, -226219.14, 0.000006961638, 9.998675, 9.998962 
7.5495994e+2, 2.9484582e+2, -398288.5, -333725.75, 15774.277, -0.0047713188, 0.023337236, -330077.84, -279561.66, 0.00004401986, 9.998038, 9.9989605 
7.549519e+2, 3.0484655e+2, -226139.63, -106909.71, 22441.182, -0.21046191, 0.15713985, -102825.766, -102825.766, 0.0001416952, 9.998429, 9.999978 
7.549478e+2, 3.14848e+2, -57212.1, 12971.449, 37041.277, -0.09670054, 0.2566948, 28904.07, 28904.07, 0.0003069929, 9.999338, 10.000358 
7.650675e+2, 1.248584e+2, -1546419.4, -1788028.3, 116122.42, 0.09898056, -0.04609693, -1499658.5, 216726.81, 0.00000000032551553, 10.001688, 9.998672 
7.6506084e+2, 1.3485833e+2, -1445112.9, -1632174.1, 25650.713, 0.100637354, -0.010706996, -1441659.4, 176729.9, 0.0, 10.00156, 9.999126 
7.650539e+2, 1.4485782e+2, -1377243.8, -1432147.3, 90591.65, 0.0256478, -0.012890348, -1310035.9, 210357.3, 0.0, 10.000824, 10.000176 
7.6504916e+2, 1.5485758e+2, -1396697.9, -1384411.8, 45606.844, 0.10654715, -0.103825144, -1344536.1, 77854.195, 0.0, 10.000003, 10.000227 
7.650424e+2, 1.6485767e+2, -1353001.1, -1374601.1, 27526.814, 0.055914193, -0.08477552, -1334231.5, -9844.178, 0.0, 9.999914, 9.999659 
7.650341e+2, 1.7485787e+2, -1159850.1, -1233891.0, 41317.504, -0.10290474, -0.061780374, -1141394.0, 84992.66, 0.0, 10.00058, 9.99963 
7.6502776e+2, 1.8485768e+2, -1040318.75, -1124274.4, 81704.15, -0.09171094, -0.037923504, -990439.56, 137948.97, 0.0, 10.00072, 9.999639 
7.650236e+2, 1.9485663e+2, -1002934.5, -1059609.3, 20056.666, 0.08406525, -0.14033403, -996554.75, 33843.063, 0.0, 10.000312, 9.999615 
7.650176e+2, 2.0485649e+2, -988624.4, -1028673.1, 23623.496, 0.087613426, -0.09553595, -977680.3, -45280.207, 0.0, 9.999873, 9.999358 
7.650099e+2, 2.1485697e+2, -957350.7, -967806.9, 27314.75, -0.09857049, -0.017097574, -934768.2, -100369.24, 0.0, 9.999416, 9.9993305 
7.6500356e+2, 2.248571e+2, -828419.5, -784167.75, 24846.63, -0.13814352, 0.03991781, -773023.4, -36625.07, 0.0, 9.99935, 9.999942 
7.6499856e+2, 2.3485664e+2, -671839.3, -659351.8, -30588.863, -0.026914395, -0.0355552, -634375.94, 4024.971, 0.0, 9.999748, 9.999935 
7.6499283e+2, 2.4485625e+2, -637168.2, -716992.1, -7348.5967, -0.0005178565, -0.006654292, -636497.3, -96091.98, 0.0, 9.999842, 9.998825 
7.649866e+2, 2.5485563e+2, -585139.3, -644560.5, -3894.7363, -0.06505205, 0.016489992, -584885.1, -142470.33, 0.0, 9.999538, 9.998795 
7.6497954e+2, 2.6485488e+2, -468903.9, -494954.44, -59306.97, -0.10285635, 0.052800532, -421208.72, -76785.305, 0.0, 9.999508, 9.999156 
7.649718e+2, 2.748537e+2, -336539.78, -382111.1, -81295.1, -0.095724136, -0.01799837, -274897.47, -28463.332, 0.00000016204108, 9.999748, 9.9991455 
7.649649e+2, 2.8485283e+2, -262510.9, -315175.72, -20515.025, -0.04796522, -0.00009796198, -255462.75, -107019.34, 0.000006290961, 9.999657, 9.998967 
7.6495874e+2, 2.9485217e+2, -237551.52, -244885.31, -10982.314, 0.024214823, -0.012009505, -229640.1, -179186.64, 0.000041719115, 9.999126, 9.9990225 
7.649507e+2, 3.048533e+2, -185020.34, -123604.75, 71182.8, -0.18430501, 0.17279294, -76788.62, -76788.62, 0.00013461517, 9.998849, 9.999677 
7.649468e+2, 3.1485486e+2, -219053.53, -45446.69, -28644.361, -0.047262993, 0.3207547, -40842.598, -40842.598, 0.00029005748, 9.998124, 10.000561 
7.750693e+2, 1.248653e+2, -1511782.3, -1696678.9, 18177.768, 0.024840383, -0.07143249, -1510012.1, 206306.14, 0.0000000023621072, 10.001614, 9.999336 
7.750629e+2, 1.3486558e+2, -1412588.4, -1559993.6, 25630.629, 0.11676758, -0.04417744, -1408259.0, 210056.95, 0.0, 10.001547, 9.999631 
7.750547e+2, 1.4486554e+2, -1409856.3, -1497072.0, 36279.098, -0.026379433, -0.0059245373, -1396738.3, 123577.13, 0.0, 10.000808, 9.99974 
7.750487e+2, 1.5486471e+2, -1433405.8, -1458316.5, 33131.875, 0.015589473, -0.10335488, -1410465.4, 11855.97, 0.0, 9.999992, 9.999724 
7.7504194e+2, 1.6486485e+2, -1306310.8, -1262603.6, 34267.453, -0.016607156, -0.09282939, -1243814.4, 80503.086, 0.0, 9.999855, 10.000457 
7.750351e+2, 1.7486554e+2, -1108790.0, -1112482.9, 84286.914, -0.08930558, -0.10393984, -1026329.4, 199978.22, 0.0, 10.000519, 10.000491 
7.750288e+2, 1.8486539e+2, -1139042.0, -1306006.5, 52270.188, -0.09266588, -0.06286217, -1124028.3, 4282.0884, 0.0, 10.000609, 9.998454 
7.750229e+2, 1.94864e+2, -1108503.6, -1246188.3, 20869.076, -0.04031736, -0.07458385, -1105410.0, -75080.43, 0.0, 10.000168, 9.998406 
7.750168e+2, 2.0486358e+2, -986624.5, -979024.94, -9469.641, -0.013242698, -0.021072593, -972621.2, -40285.242, 0.0, 9.999681, 9.999789 
7.750105e+2, 2.1486373e+2, -957708.6, -915407.44, 23755.41, -0.007957146, -0.016231893, -904751.3, -70418.734, 0.0, 9.999199, 9.99979 
7.7500427e+2, 2.248633e+2, -926261.44, -941175.6, 22314.764, -0.024443895, 0.008318348, -910190.75, -173853.92, 0.0, 9.999146, 9.998968 
7.749981e+2, 2.3486187e+2, -767820.94, -817089.06, -494.45734, -0.069279954, -0.06554603, -767815.94, -129463.36, 0.0, 9.999565, 9.998945 
7.749921e+2, 2.4486119e+2, -629077.9, -659216.8, -33984.902, -0.086946405, -0.03793327, -606971.25, -66610.67, 0.0, 9.999673, 9.999302 
7.7498627e+2, 2.548611e+2, -576035.06, -582384.6, 1605.4236, -0.082366824, -0.011333821, -575652.25, -133289.58, 0.0, 9.999361, 9.999305 
7.749794e+2, 2.6486105e+2, -489352.38, -514776.72, -64729.5, -0.09398184, 0.07159541, -436098.6, -91733.24, 0.0, 9.99941, 9.999071 
7.749716e+2, 2.748605e+2, -357335.1, -402593.25, -55057.895, -0.12527017, 0.07968084, -320437.3, -74063.555, 0.00000014054619, 9.999647, 9.999059 
7.749646e+2, 2.8485984e+2, -230384.98, -226690.88, -54427.707, -0.0827668, 0.08428106, -174078.89, -25698.68, 0.0000059856334, 9.999568, 9.999613 
7.749584e+2, 2.9485878e+2, -203906.34, -162225.6, -8900.694, 0.02796456, -0.031241816, -160404.47, -110017.61, 0.0000396548, 9.999064, 9.9996195 
7.749501e+2, 3.0485818e+2, -234957.67, -205841.95, 36479.598, -0.15839355, -0.020618876, -181122.69, -181122.69, 0.00012692052, 9.998773, 9.999146 
7.7494377e+2, 3.1485802e+2, -228446.6, -29197.447, -27518.793, -0.23921734, 0.015915344, -25466.617, -25466.617, 0.00027215088, 9.9979725, 10.000751 
7.8507125e+2, 1.2487363e+2, -1660841.0, -1732180.5, 124720.99, 0.1317295, -0.056828734, -1566789.3, 149446.73, 0.0000000040597263, 10.000482, 9.999615 
7.8506446e+2, 1.3487373e+2, -1441121.5, -1563113.5, 67546.63, 0.1384232, -0.052946966, -1411106.1, 207128.39, 0.0, 10.00134, 9.999688 
7.850555e+2, 1.448738e+2, -1351003.8, -1498971.3, 65983.66, -0.03881357, 0.0045062616, -1325854.1, 194379.63, 0.0, 10.001355, 9.999456 
7.850492e+2, 1.5487283e+2, -1347752.9, -1451263.4, 38831.348, 0.04684371, -0.073230684, -1334805.1, 87437.49, 0.0, 10.000739, 9.999409 
7.850424e+2, 1.6487263e+2, -1272907.0, -1280374.5, 73570.02, 0.03848935, -0.06456021, -1202976.0, 121267.13, 0.0, 10.000224, 10.000154 
7.850356e+2, 1.7487285e+2, -1251724.6, -1214757.3, 1803.1163, -0.039158005, -0.09419743, -1214669.5, 11569.07, 0.0, 9.999687, 10.000185 
7.8502923e+2, 1.8487273e+2, -1276196.6, -1344549.3, 3147.7703, -0.045143083, -0.045336936, -1276051.9, -147811.22, 0.0, 9.9995575, 9.998691 
7.850233e+2, 1.9487192e+2, -1159444.1, -1241160.5, 49667.586, 0.0074043293, -0.024618972, -1135988.6, -105735.08, 0.0, 9.99971, 9.998651 
7.8501695e+2, 2.048714e+2, -943558.9, -967132.4, 92656.49, 0.027847879, 0.012134372, -861942.44, 70317.195, 0.0, 10.000005, 9.999722 
7.8501046e+2, 2.1487084e+2, -801061.1, -846697.0, 56074.305, 0.022234147, -0.049211923, -763339.94, 70922.34, 0.0, 10.000304, 9.999732 
7.8500426e+2, 2.2487012e+2, -772017.3, -903054.7, 96537.28, 0.0060967845, -0.03353582, -720864.9, 15404.11, 0.0, 10.000358, 9.998642 
7.849983e+2, 2.3486893e+2, -713807.2, -830518.75, 92638.27, -0.028668744, -0.04785511, -662676.7, -24393.127, 0.0, 10.000104, 9.998596 
7.8499204e+2, 2.4486823e+2, -643540.94, -647423.5, 77028.164, -0.042939126, -0.010556053, -568429.6, -28137.752, 0.0, 9.999499, 9.999459 
7.8498554e+2, 2.548678e+2, -686557.5, -619581.75, 53235.684, -0.03885748, -0.0377067, -590177.06, -147880.27, 0.0, 9.998525, 9.999452 
7.849786e+2, 2.6486775e+2, -640893.5, -566202.2, 52914.68, -0.04606508, 0.032281697, -538781.6, -194482.78, 0.0, 9.998283, 9.999256 
7.849714e+2, 2.748678e+2, -465954.56, -433684.88, 51938.57, -0.056101806, 0.077539384, -395432.7, -149130.58, 0.0000001311964, 9.998814, 9.999241 
7.8496444e+2, 2.8486744e+2, -262224.4, -233168.11, 59824.17, -0.03599846, 0.10124332, -186133.3, -37827.945, 0.0000058891046, 9.999308, 9.999703 
7.8495765e+2, 2.948666e+2, -119172.27, -117356.664, 25691.307, 0.029316548, 0.0028441572, -92557.125, -42247.707, 0.000037489564, 9.9996195, 9.999674 
7.849496e+2, 3.0486506e+2, -149992.02, -168371.5, 80037.71, -0.10190561, -0.08046464, -78618.2, -78618.2, 0.00011865352, 9.99935, 9.999127 
7.8494257e+2, 3.1486517e+2, -207736.13, -12817.995, -26306.852, -0.15107454, -0.025200615, -9329.946, -9329.946, 0.00025448482, 9.998067, 10.0008135 
7.950721e+2, 1.24883875e+2, -1657043.5, -1754398.4, 74246.03, 0.08680632, 0.02600769, -1616940.5, 99193.39, 0.0000000034592607, 10.000593, 9.999417 
7.9506487e+2, 1.3488284e+2, -1459043.3, -1616965.8, 109014.94, 0.0041541485, -0.044301767, -1403397.1, 214747.63, 0.0, 10.0014, 9.999292 
7.950561e+2, 1.4488259e+2, -1373045.1, -1531765.1, 19594.604, -0.16628334, 0.014841844, -1370661.9, 149485.86, 0.0, 10.001308, 9.9992485 
7.9505044e+2, 1.5488192e+2, -1361474.0, -1474249.8, 33951.03, 0.051837556, -0.02215839, -1352042.0, 70112.37, 0.0, 10.000724, 9.999251 
7.9504335e+2, 1.6488108e+2, -1374504.3, -1488108.4, 36256.695, 0.07103894, -0.0011424287, -1363919.1, -39755.14, 0.0, 10.000198, 9.998747 
7.950351e+2, 1.7487982e+2, -1350628.8, -1423410.4, -2578.225, -0.097185224, -0.034734767, -1350537.5, -124358.43, 0.0, 9.999688, 9.998757 
7.950287e+2, 1.848797e+2, -1183607.9, -1123122.6, -6711.0786, -0.0915251, 0.009408203, -1122387.0, 5792.87, 0.0, 9.999438, 10.000264 
7.9502404e+2, 1.9488035e+2, -1059523.1, -1006566.06, 70228.22, 0.077744246, 0.009575795, -957990.56, 72179.55, 0.0, 9.999598, 10.00031 
7.9501766e+2, 2.0487998e+2, -1004544.6, -1053710.5, 86644.08, 0.067020565, 0.0027161487, -939063.6, -6892.196, 0.0, 9.999833, 9.999209 
7.950093e+2, 2.1487816e+2, -868474.4, -941687.1, 82913.7, -0.14376587, -0.13273881, -814445.75, 19742.848, 0.0, 10.000109, 9.999173 
7.95003e+2, 2.2487755e+2, -784354.5, -876704.5, 74570.414, -0.17915677, -0.09186954, -742820.44, -6625.62, 0.0, 10.000135, 9.99893 
7.949986e+2, 2.3487793e+2, -717202.0, -798224.56, 101246.52, -0.03814703, 0.022560308, -648662.75, -10469.984, 0.0, 9.99993, 9.998902 
7.949922e+2, 2.4487746e+2, -681094.94, -686314.0, 25315.55, -0.006427011, 0.07291577, -658254.75, -118055.93, 0.0, 9.999336, 9.9992695 
7.949838e+2, 2.5487566e+2, -726818.25, -663599.1, 32951.227, -0.091689564, -0.06688147, -649547.44, -207329.8, 0.0, 9.998357, 9.99923 
7.9497665e+2, 2.648751e+2, -617627.25, -499390.6, 58727.14, -0.10501256, -0.06438642, -475179.13, -130955.56, 0.0, 9.998196, 9.999759 
7.9497075e+2, 2.7487558e+2, -446258.66, -372957.0, 94889.375, -0.036188126, -0.02436399, -307886.28, -61667.35, 0.000000103459534, 9.998722, 9.999703 
7.9496396e+2, 2.848758e+2, -305129.9, -308081.94, 59362.375, -0.0437877, 0.060467873, -247225.2, -99007.766, 0.0000054454867, 9.999247, 9.999218 
7.949558e+2, 2.948756e+2, -169115.4, -196894.36, 62643.703, -0.15705992, 0.071982935, -118839.86, -68618.5, 0.00003447301, 9.999512, 9.999181 
7.9494846e+2, 3.0487406e+2, -129324.29, -105636.41, 29466.094, -0.17602704, -0.01175832, -85722.99, -85722.99, 0.0001104858, 9.999265, 9.999596 
7.9494226e+2, 3.148746e+2, -241641.45, -51913.605, -29981.516, -0.06764508, 0.04102249, -47288.56, -47288.56, 0.000240168, 9.997932, 10.000608 
8.050733e+2, 1.2489211e+2, -1507795.1, -1689803.6, 17682.912, 0.11488412, 0.0006641576, -1506093.1, 209959.45, 0.0000000057252847, 10.001661, 9.999361 
8.050662e+2, 1.3489097e+2, -1545987.9, -1697884.1, 27615.613, 0.03645893, -0.044018984, -1541123.0, 76943.09, 0.0, 10.000956, 9.998977 
8.0505747e+2, 1.448907e+2, -1489307.1, -1582771.8, -16553.488, -0.10040612, 0.02746496, -1486462.0, 33608.57, 0.0, 10.000496, 9.9992895 
8.05051e+2, 1.5489042e+2, -1371914.8, -1481858.8, -30814.205, 0.05738354, 0.028270219, -1363867.4, 58206.875, 0.0, 10.000657, 9.999239 
8.050437e+2, 1.6488962e+2, -1302101.3, -1451938.4, 62357.2, 0.06948285, 0.056336556, -1279545.6, 44537.97, 0.0, 10.000716, 9.998744 
8.050357e+2, 1.7488809e+2, -1202554.8, -1358052.9, 93037.414, -0.04866185, 0.004299291, -1159056.6, 67043.96, 0.0, 10.000744, 9.998703 
8.0502915e+2, 1.8488778e+2, -1022885.1, -1016840.2, 118149.87, -0.026229527, 0.020685455, -901674.2, 226427.6, 0.0, 10.000433, 10.000511 
8.05024e+2, 1.9488835e+2, -1036939.94, -975108.56, 54034.785, 0.12630877, -0.0073949522, -943770.44, 86319.95, 0.0, 9.999669, 10.000501 
8.050175e+2, 2.0488803e+2, -1055509.0, -1098016.9, 82795.95, 0.09269575, -0.010485407, -991282.5, -59191.13, 0.0, 9.999567, 9.999036 
8.050094e+2, 2.148864e+2, -890571.8, -971385.44, 71213.76, -0.13658954, -0.10717062, -849100.0, -14990.956, 0.0, 10.000045, 9.998997 
8.0500305e+2, 2.2488585e+2, -786634.7, -822110.7, 78933.84, -0.16791624, -0.07689986, -723470.3, 12643.873, 0.0, 9.999884, 9.999418 
8.049983e+2, 2.3488614e+2, -823138.06, -792034.1, 89406.03, -0.0017481091, -0.02179845, -716837.56, -78728.29, 0.0, 9.998971, 9.999397 
8.049917e+2, 2.4488573e+2, -745225.9, -747549.0, 70515.85, 0.032434605, 0.022384861, -675862.06, -135747.97, 0.0, 9.999005, 9.999019 
8.049832e+2, 2.5488415e+2, -508071.84, -586927.9, 42739.723, -0.058964428, -0.07005515, -489351.3, -47218.055, 0.0, 9.99997, 9.998988 
8.049759e+2, 2.6488355e+2, -336694.88, -360133.3, 77693.13, -0.07975936, -0.062683046, -269842.06, 74297.836, 0.0, 10.000094, 9.99981 
8.0496997e+2, 2.748836e+2, -349255.53, -315798.13, 50414.914, -0.014390465, -0.07165523, -279408.9, -33272.02, 0.00000004701224, 9.999327, 9.999812 
8.04963e+2, 2.8488377e+2, -399497.22, -392214.78, 44909.223, -0.025723387, 0.014488867, -350799.4, -202662.67, 0.000004093495, 9.998762, 9.998875 
8.0495507e+2, 2.9488367e+2, -338888.47, -313545.8, 22460.885, -0.12454984, 0.074401304, -300428.5, -250285.88, 0.000029631305, 9.998503, 9.998864 
8.049483e+2, 3.0488265e+2, -197088.6, -135491.23, -552.3822, -0.08799332, 0.05761502, -135486.28, -135486.28, 0.00010221737, 9.998778, 9.999641 
8.049416e+2, 3.1488317e+2, -97077.66, -26748.242, -137551.28, 0.027710862, 0.1015676, 80062.09, 80062.09, 0.00023173698, 9.999118, 10.000223 
8.150737e+2, 1.2489873e+2, -1502147.6, -1694906.9, -74483.49, -0.091868035, -0.10055242, -1476720.8, 239267.45, 0.000000004999778, 10.001725, 9.999297 
8.1506795e+2, 1.3489835e+2, -1554941.6, -1724398.4, 11858.541, 0.06939169, -0.05218597, -1554115.8, 63880.773, 0.0, 10.0009985, 9.998768 
8.150593e+2, 1.4489834e+2, -1475351.1, -1562186.1, -32106.432, -0.017533053, 0.050812993, -1464769.5, 55230.48, 0.0, 10.000523, 9.999424 
8.150506e+2, 1.5489843e+2, -1358251.3, -1453780.8, -8739.362, -0.08854802, 0.07791339, -1357458.4, 64542.863, 0.0, 10.000656, 9.9994335 
8.15043e+2, 1.6489837e+2, -1224244.9, -1276629.1, 46136.523, -0.107460484, 0.10618625, -1197384.1, 126616.79, 0.0, 10.000657, 9.999973 
8.150369e+2, 1.7489773e+2, -1119258.0, -1172143.1, 110771.72, -0.041829437, 0.012671795, -1031816.5, 194186.22, 0.0, 10.000694, 9.999996 
8.150302e+2, 1.8489707e+2, -1119411.1, -1199702.9, 75108.445, 0.004531339, -0.01405519, -1074392.6, 53613.12, 0.0, 10.000345, 9.999304 
8.150228e+2, 1.94896e+2, -1139096.4, -1164417.3, 42959.04, 0.0037460397, -0.08182634, -1106971.0, -76957.414, 0.0, 9.999562, 9.999253 
8.150161e+2, 2.0489562e+2, -1080368.5, -1105215.8, 84100.734, -0.025281178, -0.028350743, -1007778.75, -75760.4, 0.0, 9.999375, 9.999081 
8.1501025e+2, 2.148956e+2, -913442.75, -971048.0, 106049.02, -0.088264346, 0.0282612, -832354.56, 1668.5386, 0.0, 9.999838, 9.999099 
8.150039e+2, 2.2489503e+2, -770435.8, -734321.56, 27580.385, -0.09928763, 0.015417379, -719413.0, 16613.89, 0.0, 9.999656, 10.000132 
8.149969e+2, 2.3489346e+2, -805769.5, -703371.9, 70333.836, -0.06998039, -0.18639176, -667575.5, -29541.934, 0.0, 9.998746, 10.000112 
8.1499004e+2, 2.4489298e+2, -795438.5, -806806.1, 90151.016, -0.06234169, -0.16908887, -710792.25, -170754.25, 0.0, 9.998813, 9.998707 
8.149834e+2, 2.548933e+2, -555757.0, -648615.06, 95548.22, -0.074380025, -0.038694177, -495954.63, -53911.375, 0.0, 9.999809, 9.998644 
8.1497616e+2, 2.6489308e+2, -373836.0, -409248.9, 34380.727, -0.09907507, 0.039301373, -352870.06, -8822.213, 0.0, 9.999983, 9.999523 
8.149683e+2, 2.7489188e+2, -400501.78, -374290.9, 40988.86, -0.1456955, -0.064996205, -344363.34, -98307.39, 0.000000004527389, 9.999132, 9.9995 
8.1496114e+2, 2.8489122e+2, -426676.72, -430967.3, 19378.367, -0.1279339, -0.034631193, -409325.25, -261261.55, 0.0000024308686, 9.998676, 9.998652 
8.149548e+2, 2.9489097e+2, -379666.53, -368290.66, 36921.82, -0.042299226, 0.031586096, -336621.22, -286548.47, 0.00002455122, 9.998374, 9.998552 
8.1494844e+2, 3.0489078e+2, -227141.34, -187829.72, 2024.2614, 0.017936107, 0.13424194, -187725.77, -187725.77, 0.00009685274, 9.998747, 9.99929 
8.149391e+2, 3.1489035e+2, -163150.34, -106981.01, -51520.777, -0.21171257, 0.11814976, -76387.414, -76387.414, 0.00023260372, 9.998899, 9.99977 
8.25075e+2, 1.2490661e+2, -1687747.0, -1732549.9, -52377.05, -0.046490945, -0.077285126, -1653182.0, 62734.32, 0.0000000017683296, 10.000219, 9.999763 
8.250695e+2, 1.3490699e+2, -1581327.1, -1702534.6, 28000.156, 0.15564136, 0.010995513, -1575171.5, 42743.2, 0.0, 10.000651, 9.999093 
8.25061e+2, 1.4490688e+2, -1454578.1, -1515509.4, 57995.47, 0.11584906, 0.06987545, -1419533.3, 100384.71, 0.0, 10.000518, 9.999741 
8.250509e+2, 1.5490687e+2, -1415373.5, -1448849.9, 51762.81, -0.0908195, 0.05769549, -1377709.9, 44209.816, 0.0, 10.000136, 9.999708 
8.250429e+2, 1.6490708e+2, -1287119.1, -1267675.5, 118573.38, -0.14091256, 0.0821269, -1158426.0, 165489.64, 0.0, 10.0000305, 10.000341 
8.250376e+2, 1.749072e+2, -1183930.9, -1169525.6, 82639.65, 0.0013711973, 0.024918485, -1093775.3, 132133.31, 0.0, 10.0000725, 10.000325 
8.2503104e+2, 1.8490633e+2, -1169148.9, -1279724.5, 60500.926, 0.07093517, -0.013377914, -1142478.8, -14565.524, 0.0, 10.000238, 9.998805 
8.250231e+2, 1.9490406e+2, -1037195.44, -1173667.6, 48271.387, 0.03939566, -0.15002818, -1021847.5, 8086.344, 0.0, 10.000507, 9.998731 
8.250162e+2, 2.049035e+2, -946602.0, -1029036.94, 154263.11, 0.0070012803, -0.093943976, -828144.8, 103796.445, 0.0, 10.000246, 9.999173 
8.250104e+2, 2.1490443e+2, -973817.75, -993243.44, 142296.34, -0.018298032, 0.049650446, -840903.1, -6965.443, 0.0, 9.999391, 9.999164 
8.2500386e+2, 2.2490416e+2, -805428.2, -742522.2, 79916.164, -0.043631595, 0.059210278, -688092.2, 47846.453, 0.0, 9.999356, 10.0002365 
8.2499623e+2, 2.349022e+2, -594694.4, -592673.44, 43667.664, -0.06950609, -0.19119295, -550004.56, 87943.914, 0.0, 10.000137, 10.0002165 
8.249894e+2, 2.449016e+2, -614459.06, -727482.25, 86612.58, -0.061331403, -0.18914852, -567552.56, -27598.635, 0.0, 10.000093, 9.998631 
8.249834e+2, 2.5490206e+2, -641758.8, -694714.8, 77245.336, -0.017015716, -0.037272274, -586579.44, -144621.58, 0.0, 9.999251, 9.998591 
8.2497627e+2, 2.649019e+2, -493108.7, -475111.4, 60195.656, -0.039298434, 0.054395456, -423245.5, -79283.76, 0.0, 9.999202, 9.999444 
8.249679e+2, 2.7490067e+2, -290027.38, -328112.44, 48921.92, -0.12453471, -0.04911356, -256572.55, -10602.157, 0.0, 9.999925, 9.99943 
8.249606e+2, 2.848998e+2, -195993.36, -321805.06, 77662.734, -0.12340914, -0.031685248, -158956.0, -10976.376, 0.000001518397, 10.000276, 9.998632 
8.249543e+2, 2.948991e+2, -115281.32, -241794.78, 73951.07, -0.010626524, -0.00924906, -81223.23, -31230.93, 0.000022026383, 10.000176, 9.998555 
8.2494813e+2, 3.048991e+2, -116721.45, -147404.67, 93552.62, 0.08845613, 0.117389776, -37260.863, -37260.863, 0.00009707927, 9.999573, 9.99916 
8.249382e+2, 3.1489775e+2, -228772.4, -113803.62, 20935.408, -0.1470576, 0.011719596, -110110.02, -110110.02, 0.00024343749, 9.998322, 9.999995 
8.3507574e+2, 1.24916255e+2, -1628170.9, -1597880.6, -81607.97, -0.06565076, 0.11863302, -1530024.4, 185807.19, 0.000000000051048894, 10.000179, 10.000706 
8.3507043e+2, 1.3491707e+2, -1501812.5, -1538238.1, 59413.098, 0.15316209, 0.14720412, -1457883.4, 159935.77, 0.0, 10.000665, 10.000208 
8.3506227e+2, 1.4491639e+2, -1438965.8, -1478489.3, 22621.299, 0.13908349, 0.07967759, -1428690.0, 91133.586, 0.0, 10.000495, 10.000005 
8.350512e+2, 1.5491569e+2, -1394438.9, -1402853.4, 52783.227, -0.112553164, -0.035593, -1345695.5, 76134.69, 0.0, 10.000125, 10.000024 
8.3504283e+2, 1.6491579e+2, -1332054.6, -1341430.4, 102246.016, -0.18047667, -0.01594265, -1234389.0, 89438.75, 0.0, 9.9999485, 9.999878 
8.350375e+2, 1.7491663e+2, -1223891.6, -1237941.0, 101816.42, -0.048728675, 0.04904865, -1128857.9, 96958.87, 0.0, 10.00002, 9.999877 
8.3503145e+2, 1.849157e+2, -1172762.0, -1268009.0, 52932.625, 0.047178354, 0.025094623, -1149182.6, -21359.838, 0.0, 10.000153, 9.998932 
8.350245e+2, 1.9491252e+2, -1044463.94, -1152840.9, 73914.61, 0.08953036, -0.2214037, -1007002.2, 22849.021, 0.0, 10.0003605, 9.998941 
8.3501714e+2, 2.0491168e+2, -967711.06, -1031210.2, 105431.76, 0.05036117, -0.2085872, -889352.1, 42508.11, 0.0, 10.000058, 9.999252 
8.350095e+2, 2.1491295e+2, -996334.3, -993555.2, 126698.17, -0.078312054, -0.042266116, -868238.94, -34386.547, 0.0, 9.99919, 9.999255 
8.350025e+2, 2.2491331e+2, -869778.6, -831309.0, 92210.34, -0.13893315, 0.05255777, -756348.7, -20499.764, 0.0, 9.999156, 9.999726 
8.349959e+2, 2.3491241e+2, -659714.2, -684680.8, 91062.21, -0.14169945, -0.041114636, -580283.6, 57569.688, 0.0, 9.999943, 9.999682 
8.349893e+2, 2.4491163e+2, -626617.1, -715550.3, 40164.555, -0.10803642, -0.038330365, -611163.25, -71302.35, 0.0, 9.9999275, 9.998793 
8.3498275e+2, 2.549105e+2, -653563.5, -686263.25, 63749.074, -0.03579427, -0.06304033, -604101.06, -162225.16, 0.0, 9.999103, 9.998722 
8.349758e+2, 2.6491013e+2, -499545.88, -462334.6, 72988.914, -0.032448508, -0.009485272, -405617.25, -61736.426, 0.0, 9.999086, 9.99959 
8.349684e+2, 2.7491006e+2, -299932.4, -318236.06, 97186.48, -0.109297164, -0.00790016, -211467.8, 34411.36, 0.0, 9.999791, 9.999563 
8.3496076e+2, 2.8490964e+2, -188753.88, -287289.28, 58989.367, -0.1629988, 0.031062238, -161164.23, -13280.457, 0.0000012583888, 10.000196, 9.998908 
8.3495307e+2, 2.9490831e+2, -122534.01, -219337.4, 90814.6, -0.19672629, -0.029809492, -68027.9, -18128.588, 0.000022671806, 10.000019, 9.998789 
8.349468e+2, 3.0490777e+2, -112926.24, -122835.42, 40870.28, -0.030460797, 0.017604848, -76711.33, -76711.33, 0.0001036696, 9.999504, 9.999359 
8.3493775e+2, 3.149074e+2, -198319.19, -3697.9578, 57123.72, -0.10179781, -0.0017991975, 11829.697, 11829.697, 0.00026239955, 9.9981365, 10.000834 
8.450772e+2, 1.2492584e+2, -1562105.8, -1529041.0, 41400.668, 0.06895888, 0.18831597, -1500993.9, 214746.58, 0.0, 10.000459, 10.001044 
8.450699e+2, 1.3492635e+2, -1711582.5, -1589087.6, 65422.918, 0.12985092, 0.13664009, -1560717.0, 57011.03, 0.0, 9.999004, 10.000662 
8.450617e+2, 1.4492558e+2, -1700163.3, -1606482.8, 73966.67, 0.13375477, 0.04072818, -1565772.6, -46040.887, 0.0, 9.9987135, 9.999985 
8.4505177e+2, 1.5492523e+2, -1411082.3, -1420158.0, 42476.91, -0.055813648, -0.035794456, -1372901.5, 48833.785, 0.0, 10.000045, 9.999952 
8.4504384e+2, 1.6492528e+2, -1281212.1, -1345359.9, 93711.52, -0.0956507, -0.0036117001, -1214237.6, 109496.57, 0.0, 10.000442, 9.999604 
8.45038e+2, 1.7492561e+2, -1286383.4, -1302131.5, 69851.53, 0.024073802, 0.04244377, -1223963.5, 1765.99, 0.0, 9.999754, 9.99956 
8.4503174e+2, 1.8492489e+2, -1212783.3, -1256050.8, 87107.19, 0.09550269, 0.03709075, -1144663.5, -16928.297, 0.0, 9.99975, 9.999201 
8.450248e+2, 1.9492255e+2, -1022515.4, -1120185.5, 84627.3, 0.1036012, -0.14817943, -973643.5, 56113.125, 0.0, 10.000406, 9.99915 
8.450174e+2, 2.0492186e+2, -886992.9, -976977.4, 109446.29, 0.053088725, -0.13743766, -813651.75, 118111.695, 0.0, 10.000557, 9.999383 
8.4500927e+2, 2.1492252e+2, -862179.25, -919512.94, 95924.336, -0.058311727, -0.04071571, -790729.8, 43028.746, 0.0, 10.000075, 9.999338 
8.450023e+2, 2.2492258e+2, -804922.7, -860220.94, 134083.34, -0.098616935, 0.047538273, -695667.4, 40091.23, 0.0, 9.999878, 9.9991665 
8.4499645e+2, 2.3492184e+2, -702654.8, -762776.3, 91784.08, -0.06892923, 0.02527317, -636134.2, 1631.4242, 0.0, 9.999925, 9.999139 
8.4498984e+2, 2.4492092e+2, -597785.4, -693060.94, 41928.285, -0.050111208, 0.03987451, -581961.8, -42186.996, 0.0, 10.00009, 9.998873 
8.449824e+2, 2.5491938e+2, -469581.38, -582867.2, 25978.807, -0.033490036, -0.036207225, -463908.03, -22117.166, 0.0, 10.000317, 9.998842 
8.449753e+2, 2.649187e+2, -374657.6, -422457.0, 64978.24, -0.032159604, -0.010122235, -329323.16, 14474.584, 0.0, 10.000019, 9.9994135 
8.4496844e+2, 2.7491856e+2, -396570.78, -386555.44, 31688.764, -0.041248333, 0.0008938707, -359481.1, -113682.41, 0.0000000050987805, 9.999203, 9.999387 
8.449609e+2, 2.8491834e+2, -355086.6, -332932.0, 21626.533, -0.08997704, 0.05412221, -319710.88, -171910.13, 0.0000017149706, 9.998897, 9.999214 
8.4495276e+2, 2.9491755e+2, -241760.28, -230465.44, 18967.691, -0.16987935, 0.0066382154, -216322.3, -166513.77, 0.0000255943, 9.999009, 9.999185 
8.449462e+2, 3.0491644e+2, -114048.01, -160810.69, -11862.259, -0.031486064, -0.006712664, -111211.03, -111211.03, 0.000114914044, 9.999637, 9.999046 
8.4493804e+2, 3.1491548e+2, 126593.69, 143723.53, -65140.613, 0.022244537, -0.05475953, 200859.88, 200859.88, 0.00028702893, 10.000363, 10.0007925 
8.5507846e+2, 1.2493522e+2, -1603195.3, -1596147.4, -45929.625, 0.063871026, 0.10212677, -1553606.8, 162037.75, 0.0, 10.000397, 10.000608 
8.550672e+2, 1.3493495e+2, -1725656.0, -1604214.1, 19557.252, -0.074686855, -0.013100375, -1601142.4, 16497.797, 0.0, 9.998975, 10.000554 
8.5505897e+2, 1.4493471e+2, -1721496.8, -1656454.1, 103001.1, -0.056519143, -0.037163623, -1580962.1, -61321.867, 0.0, 9.998721, 9.99965 
8.550521e+2, 1.5493564e+2, -1430033.5, -1461978.8, 113556.555, -0.06486759, 0.050169148, -1331331.8, 90301.98, 0.0, 10.000055, 9.999661 
8.550454e+2, 1.6493562e+2, -1307168.0, -1388226.9, 49752.91, -0.022062222, 0.10663478, -1283525.9, 40108.406, 0.0, 10.000393, 9.999335 
8.5503864e+2, 1.7493421e+2, -1307268.1, -1334732.3, 58743.02, 0.07575943, -0.0017671674, -1260673.5, -35026.88, 0.0, 9.999713, 9.999353 
8.5503155e+2, 1.8493389e+2, -1200380.3, -1212646.1, 95538.625, 0.0640852, 0.026638677, -1110778.0, 16872.26, 0.0, 9.999659, 9.999551 
8.5502386e+2, 1.9493432e+2, -1007867.7, -1070978.9, 124343.336, -0.069149755, 0.08308804, -911138.4, 118509.98, 0.0, 10.000316, 9.999533 
8.5501647e+2, 2.0493422e+2, -908430.56, -983945.25, 73712.25, -0.11794992, 0.13167469, -863368.2, 68280.85, 0.0, 10.000392, 9.99942 
8.5500926e+2, 2.149331e+2, -887677.4, -920901.0, 93973.984, -0.09202458, 0.043689016, -808858.25, 24798.371, 0.0, 9.999857, 9.999433 
8.5500294e+2, 2.2493191e+2, -882076.6, -971324.44, 119132.14, -0.051811025, 0.03464615, -799485.1, -63817.08, 0.0, 9.9996605, 9.998513 
8.549974e+2, 2.3493043e+2, -775444.06, -871253.25, 111825.65, 0.0022561362, 0.0017817137, -701694.1, -64008.254, 0.0, 9.999736, 9.998488 
8.549904e+2, 2.4492949e+2, -625445.5, -707472.0, 34356.277, -0.028312435, 0.048717108, -612957.0, -73261.09, 0.0, 9.99991, 9.998859 
8.549819e+2, 2.5492862e+2, -497713.13, -597323.06, 51096.793, -0.14469339, 0.04002968, -476163.9, -34460.953, 0.0, 10.000128, 9.998835 
8.549744e+2, 2.649275e+2, -426791.66, -500673.3, 17143.625, -0.15164185, 0.04861663, -423007.47, -79293.805, 0.0, 9.999886, 9.998946 
8.549678e+2, 2.7492598e+2, -449827.88, -466780.72, 21386.027, -0.063783824, -0.035555128, -435299.7, -189569.22, 0.0000001292932, 9.999075, 9.998899 
8.5496056e+2, 2.849259e+2, -337787.38, -277572.2, 13348.399, -0.048982054, 0.03949985, -274745.8, -127015.47, 0.0000031613251, 9.99881, 9.999637 
8.5495275e+2, 2.9492667e+2, -227692.7, -179776.5, 44238.543, -0.11405833, 0.105374865, -153425.17, -103704.86, 0.000030116835, 9.998905, 9.999588 
8.549458e+2, 3.0492494e+2, -186012.39, -273511.2, 6418.4595, -0.06406539, 0.04391599, -185544.08, -185544.08, 0.00012742863, 9.999511, 9.998322 
8.5493845e+2, 3.14922e+2, 9968.6455, -49178.3, 30417.582, -0.05868512, -0.11816934, 22819.453, 22819.453, 0.00031382052, 10.000178, 9.999549 
8.650789e+2, 1.2494463e+2, -1861175.1, -1761570.3, -27088.746, 0.17400996, 0.06264591, -1754679.8, -39129.813, 0.00000000000000000000885557, 9.998794, 10.000247 
8.6506677e+2, 1.3494428e+2, -1525194.4, -1550383.6, -38724.414, -0.07967744, -0.030698955, -1497068.0, 120479.87, 0.0, 10.000496, 10.000209 
8.650589e+2, 1.4494394e+2, -1425806.8, -1546594.6, 90917.47, -0.0350978, -0.033570364, -1377052.1, 142497.69, 0.0, 10.0008955, 9.9993515 
8.6505324e+2, 1.5494455e+2, -1415068.6, -1501362.5, 61089.867, 0.035144154, 0.055931374, -1383425.0, 38121.742, 0.0, 10.000338, 9.9992695 
8.6504644e+2, 1.6494422e+2, -1336415.0, -1400901.5, 21297.455, 0.0729768, 0.09980327, -1330016.1, -6465.369, 0.0, 10.000183, 9.999344 
8.650387e+2, 1.749426e+2, -1196931.1, -1286248.8, 13049.801, 0.078328244, -0.02977941, -1195063.5, 30501.89, 0.0, 10.000476, 9.99932 
8.650311e+2, 1.8494248e+2, -1131250.9, -1206467.6, 71110.81, 0.03519223, 0.03523248, -1088415.9, 39152.707, 0.0, 10.000275, 9.999285 
8.6502373e+2, 1.9494368e+2, -1139944.4, -1166611.3, 21516.13, -0.07037585, 0.19573422, -1127965.3, -98402.414, 0.0, 9.999566, 9.999229 
8.650165e+2, 2.0494363e+2, -1019072.06, -1009816.3, -15195.382, -0.09689594, 0.25384563, -998559.7, -66996.555, 0.0, 9.99952, 9.999657 
8.6500955e+2, 2.1494189e+2, -846797.25, -881624.56, -18122.492, -0.054349307, 0.080361865, -839078.06, -5504.2803, 0.0, 10.000045, 9.999616 
8.650032e+2, 2.2494052e+2, -809983.94, -939751.4, 63748.79, -0.0012951272, 0.04542629, -783907.2, -48321.01, 0.0, 10.000188, 9.998469 
8.649978e+2, 2.3493929e+2, -745585.3, -862525.56, 66136.67, 0.06524842, 0.04378129, -715778.5, -78175.84, 0.0, 9.999974, 9.998428 
8.649907e+2, 2.4493839e+2, -617025.1, -678832.94, 58438.117, 0.027636083, 0.085602574, -581822.56, -42210.6, 0.0, 9.999869, 9.99907 
8.649821e+2, 2.5493738e+2, -512117.88, -581751.3, 58568.535, -0.11679248, 0.04633691, -478798.88, -37180.77, 0.0, 9.999936, 9.999034 
8.6497444e+2, 2.649363e+2, -402215.53, -510679.03, 66338.5, -0.13831425, 0.055610947, -370762.5, -27134.264, 0.0000000005766255, 10.000166, 9.9987335 
8.649678e+2, 2.749348e+2, -241191.78, -391616.44, 48031.777, -0.030267395, -0.0014065008, -227163.16, 18482.523, 0.000000514823, 10.000626, 9.998663 
8.649608e+2, 2.8493434e+2, -81686.945, -182051.16, 59645.574, 0.009669634, 0.06204316, -53921.387, 93728.16, 0.0000054394536, 10.000696, 9.999393 
8.6495346e+2, 2.9493454e+2, -36667.293, -109723.51, 4941.7676, 0.0005066248, 0.09778948, -36334.53, 13310.285, 0.000035908153, 10.000324, 9.999392 
8.64946e+2, 3.0493283e+2, -73127.63, -246730.11, 25874.637, -0.027908899, 0.05953273, -69353.2, -69353.2, 0.00014009468, 10.000383, 9.998089 
8.649387e+2, 3.1493092e+2, 910.99304, -87917.45, 34481.71, -0.04518081, 0.019349365, 12724.9795, 12724.9795, 0.00033844914, 10.00029, 9.999213 
8.750778e+2, 1.24954395e+2, -1885685.0, -1811085.3, 3265.801, 0.09973994, 0.10357947, -1810942.5, -95488.85, 0.0000000055054987, 9.998785, 9.99991 
8.750681e+2, 1.3495442e+2, -1551795.3, -1589315.1, 37769.44, -0.02605993, 0.073960565, -1528383.4, 89066.81, 0.0, 10.000448, 9.99995 
8.7506104e+2, 1.4495343e+2, -1465738.1, -1625120.6, 49464.7, 0.042014994, 0.047705837, -1451634.6, 67824.12, 0.0, 10.000868, 9.998829 
8.750545e+2, 1.5495214e+2, -1450795.3, -1565761.5, 55997.164, 0.0932056, -0.01047477, -1428028.8, -6556.065, 0.0, 10.000306, 9.998835 
8.750467e+2, 1.6495137e+2, -1323419.9, -1367327.4, 14301.431, 0.039777692, -0.0034365573, -1319172.6, 4307.982, 0.0, 10.00014, 9.999601 
8.7503767e+2, 1.7495102e+2, -1184802.5, -1252309.8, 38624.895, -0.10385616, -0.029186916, -1167261.0, 58222.344, 0.0, 10.000435, 9.999572 
8.750301e+2, 1.8495096e+2, -1211154.9, -1351747.6, 28687.555, -0.12474982, 0.07569106, -1205526.5, -78038.52, 0.0, 10.000187, 9.998331 
8.750239e+2, 1.9495064e+2, -1223817.4, -1306971.3, 13028.877, -0.03580484, 0.17881262, -1221823.8, -192323.97, 0.0, 9.999428, 9.99833 
8.7501717e+2, 2.0495015e+2, -1019109.75, -970711.6, -10381.929, -0.019480022, 0.21863092, -968578.6, -37073.33, 0.0, 9.999345, 10.000013 
8.7500954e+2, 2.1494918e+2, -849776.6, -842552.25, 16060.746, -0.08593408, 0.08622684, -829702.5, 3805.1165, 0.0, 9.999846, 9.99998 
8.750029e+2, 2.249487e+2, -807042.5, -886858.44, 38667.85, -0.07940695, 0.101662315, -791382.06, -55871.992, 0.0, 9.999981, 9.998935 
8.7499726e+2, 2.3494843e+2, -746333.2, -809250.44, 75588.81, -0.011225842, 0.14795148, -695918.06, -58401.996, 0.0, 9.999739, 9.998908 
8.749905e+2, 2.4494754e+2, -608819.25, -627058.56, 44305.742, -0.01221366, 0.14528875, -572704.3, -33180.71, 0.0, 9.999706, 9.999509 
8.749825e+2, 2.5494578e+2, -505878.13, -530200.2, 79193.61, -0.09547072, -0.015788596, -437917.25, 3618.272, 0.0, 9.999768, 9.999467 
8.74975e+2, 2.649451e+2, -416146.13, -527605.0, 67978.38, -0.12648061, 0.018216157, -383973.16, -40432.484, 0.0000000691861, 10.000098, 9.998655 
8.749681e+2, 2.7494508e+2, -264096.3, -409545.13, 84471.77, -0.10051894, 0.11198618, -225356.3, 20187.625, 0.000001269736, 10.000493, 9.998604 
8.749613e+2, 2.8494385e+2, -154124.7, -318127.06, 30517.42, -0.047096148, 0.14366189, -148630.13, -1073.531, 0.000008255043, 10.000627, 9.998499 
8.749544e+2, 2.9494098e+2, -109275.67, -245967.78, 14571.747, 0.019947741, -0.03468459, -107739.55, -58155.668, 0.000042714033, 10.000253, 9.998496 
8.7494636e+2, 3.0494007e+2, -63222.758, -205791.81, 15692.696, -0.058530018, 0.0342465, -61515.887, -61515.887, 0.00015288098, 10.0003, 9.998405 
8.7493795e+2, 3.1494036e+2, 5647.4453, -58574.613, 68414.87, -0.23357287, 0.19006692, 49112.29, 49112.29, 0.00035815634, 10.000193, 9.999468 
8.8507676e+2, 1.2496261e+2, -1851705.4, -1814387.9, 2462.9204, 0.12743972, 0.12078699, -1814226.0, -98853.76, 0.00000006865043, 9.999113, 9.999732 
8.850692e+2, 1.349622e+2, -1640772.9, -1665631.3, -36966.402, 0.078984864, 0.075527, -1614202.0, 3174.096, 0.0, 9.999972, 9.999666 
8.8506246e+2, 1.4496125e+2, -1558851.5, -1618861.4, -9753.36, 0.14836957, 0.047450703, -1557306.1, -37921.44, 0.0, 10.000043, 9.999254 
8.850545e+2, 1.5496026e+2, -1494890.1, -1540471.1, 23445.148, 0.09614363, -0.019323347, -1484983.8, -63590.75, 0.0, 9.999823, 9.999228 
8.850462e+2, 1.6495973e+2, -1394320.8, -1429500.5, 52843.543, 0.009826185, 0.004478146, -1356216.4, -32817.78, 0.0, 9.9997835, 9.999344 
8.8503766e+2, 1.7495963e+2, -1282441.3, -1331326.8, 4126.966, -0.112175085, 0.030816413, -1282095.3, -56693.418, 0.0, 9.999904, 9.99929 
8.8503045e+2, 1.8495935e+2, -1201532.4, -1338467.4, 30995.068, -0.10237322, 0.12512492, -1194843.5, -67434.91, 0.0, 10.00021, 9.998409 
8.8502455e+2, 1.9495836e+2, -1032952.2, -1209667.4, 56289.652, 0.02561255, 0.15207437, -1016545.3, 12878.618, 0.0, 10.000707, 9.998383 
8.850176e+2, 2.0495752e+2, -875135.0, -938442.25, 73109.88, 0.04079843, 0.17102274, -827120.5, 104312.01, 0.0, 10.000494, 9.999681 
8.8500947e+2, 2.1495661e+2, -914687.56, -913027.25, 18565.172, -0.054472037, 0.08004962, -895273.7, -61837.117, 0.0, 9.999569, 9.999636 
8.850027e+2, 2.2495636e+2, -873293.3, -865637.1, 57541.188, -0.057190325, 0.1112422, -811796.8, -76359.82, 0.0, 9.999292, 9.999405 
8.8499725e+2, 2.3495644e+2, -722778.7, -749776.94, 56931.445, 0.026639368, 0.14508012, -677767.9, -40330.42, 0.0, 9.999679, 9.999345 
8.849908e+2, 2.4495581e+2, -580587.9, -624255.5, 43258.707, 0.03948802, 0.15280427, -553965.2, -14523.018, 0.0, 9.999953, 9.999399 
8.84983e+2, 2.549541e+2, -444655.7, -514982.16, 1391.6777, -0.031611584, 0.0052046645, -444628.16, -3172.8684, 0.00000000006372724, 10.000229, 9.99935 
8.8497573e+2, 2.6495335e+2, -383206.38, -496471.47, 10327.66, -0.07148803, 0.030762676, -382272.4, -38811.098, 0.00000025387644, 10.000266, 9.998782 
8.849687e+2, 2.7495316e+2, -300187.3, -409990.03, 4422.1094, -0.068372816, 0.09900057, -300009.53, -54545.277, 0.0000021793016, 10.000174, 9.998752 
8.849617e+2, 2.849519e+2, -221877.0, -357389.97, 18956.21, -0.0347222, 0.12033392, -219275.27, -71797.8, 0.000011106664, 10.000211, 9.998407 
8.8495475e+2, 2.949491e+2, -87802.43, -246998.28, 26153.395, 0.02944047, -0.036297116, -83615.93, -34110.65, 0.000049522223, 10.000457, 9.998381 
8.849467e+2, 3.049485e+2, 2636.4387, -162227.94, 85320.81, -0.06070686, 0.06314134, 38841.117, 38841.117, 0.00016467013, 10.000695, 9.998524 
8.849388e+2, 3.1494936e+2, 60239.37, 1131.8724, 49028.016, -0.16704917, 0.26439685, 87932.195, 87932.195, 0.00037312726, 10.000425, 9.999778 
8.95075e+2, 1.24969356e+2, -1871172.8, -1836826.8, -2898.7527, -0.040539976, 0.11609875, -1836583.9, -121278.67, 0.00000033567557, 9.999059, 9.999593 
8.9506966e+2, 1.3496803e+2, -1659308.1, -1698066.5, 3648.2966, 0.09032877, 0.004695568, -1658967.8, -41645.777, 0.00000000007521531, 9.999959, 9.999442 
8.950625e+2, 1.4496788e+2, -1474863.4, -1436474.6, -39013.645, 0.11073869, 0.0009893931, -1412189.3, 107133.66, 0.0, 10.000008, 10.0005245 
8.950528e+2, 1.5496917e+2, -1413289.3, -1361487.1, 35386.457, -0.09641104, 0.0392921, -1343535.4, 77770.02, 0.0, 9.999785, 10.000472 
8.950447e+2, 1.6496943e+2, -1461005.5, -1557342.6, 38962.996, -0.16480614, 0.1248851, -1447219.9, -123915.89, 0.0, 9.999739, 9.9984865 
8.9503825e+2, 1.7496844e+2, -1351521.6, -1454708.5, 26192.262, -0.07854571, 0.1436444, -1345253.9, -119933.07, 0.0, 9.999826, 9.998475 
8.950317e+2, 1.8496776e+2, -1142774.3, -1193785.0, 32946.902, -0.0328844, 0.18560465, -1126614.0, 715.39954, 0.0, 10.000101, 9.999459 
8.9502496e+2, 1.94967e+2, -984356.25, -1067786.5, 88997.74, -0.03612426, 0.13079475, -927782.25, 101551.53, 0.0, 10.000533, 9.999437 
8.950173e+2, 2.0496593e+2, -969572.3, -1096933.3, 21297.207, -0.05694987, 0.12351424, -966105.4, -34762.38, 0.0, 10.000324, 9.998679 
8.9500886e+2, 2.149642e+2, -1015014.7, -1069619.0, 2268.8833, -0.09908187, 0.050943825, -1014920.56, -181560.08, 0.0, 9.999352, 9.998661 
8.950022e+2, 2.249635e+2, -875071.9, -825696.4, 56902.918, -0.062748, 0.06688268, -788356.5, -52989.85, 0.0, 9.999091, 9.999784 
8.949973e+2, 2.3496352e+2, -723294.8, -701913.4, 86971.24, 0.036876705, 0.053608075, -624978.25, 12386.467, 0.0, 9.999466, 9.999778 
8.9499104e+2, 2.4496335e+2, -648566.06, -730253.5, 35838.145, 0.041607313, 0.11478228, -635072.1, -95705.86, 0.0, 9.999797, 9.998753 
8.9498335e+2, 2.549625e+2, -520905.7, -625511.7, 28555.09, -0.060013827, 0.12269894, -513618.44, -72242.48, 0.0000000002378373, 10.000025, 9.998694 
8.94976e+2, 2.6496127e+2, -375025.13, -452124.53, -7765.852, -0.10121831, 0.11257361, -374250.7, -30862.879, 0.00000030747992, 10.000149, 9.999143 
8.9496905e+2, 2.7495918e+2, -300343.28, -376263.13, 22938.0, -0.08127219, -0.04009806, -293951.1, -48545.063, 0.0000026197797, 10.000034, 9.999049 
8.9496166e+2, 2.8495842e+2, -182825.58, -268990.53, 11814.718, -0.10223786, -0.011579475, -181234.94, -33821.93, 0.000013171274, 10.000163, 9.9990425 
8.949537e+2, 2.9495886e+2, -56663.895, -158094.72, 55008.47, -0.16128843, 0.08260732, -32559.627, 16851.156, 0.000055655084, 10.00034, 9.999051 
8.949465e+2, 3.049582e+2, -24986.41, -177307.6, 64425.91, -0.17757422, 0.14483514, -1391.6344, -1391.6344, 0.00017580122, 10.000543, 9.998483 
8.949402e+2, 3.1495607e+2, 54371.273, 55384.035, 66595.445, -0.13776708, 0.04818009, 121475.02, 121475.02, 0.00038747952, 10.000178, 10.000249 
9.050752e+2, 1.2497581e+2, -1619039.8, -1714777.8, 64809.38, 0.008284641, 0.04073661, -1586337.8, 128903.305, 0.0000010657902, 10.000736, 9.999637 
9.050695e+2, 1.3497545e+2, -1725113.4, -1738414.9, 25018.586, 0.10781112, 0.028977018, -1705876.6, -88626.11, 0.000000007369457, 9.999525, 9.999375 
9.050622e+2, 1.4497584e+2, -1573407.9, -1465983.8, 9587.495, 0.12983184, 0.073158555, -1465134.9, 54112.453, 0.0, 9.999221, 10.00071 
9.050529e+2, 1.5497702e+2, -1359484.4, -1317000.3, -34799.28, -0.064257644, 0.07710848, -1297472.0, 123759.055, 0.0, 10.000043, 10.000668 
9.0504503e+2, 1.6497727e+2, -1350211.8, -1496613.0, -5326.483, -0.123182215, 0.14951336, -1350018.1, -26788.95, 0.0, 10.000467, 9.998562 
9.0503883e+2, 1.749762e+2, -1246508.1, -1394839.4, 11035.365, -0.028874528, 0.15529698, -1245691.6, -20446.025, 0.0, 10.0005045, 9.998563 
9.0503216e+2, 1.849754e+2, -1096961.4, -1151661.4, 49712.375, 0.0062666168, 0.16992715, -1067572.1, 59681.777, 0.0, 10.000319, 9.999646 
9.0502506e+2, 1.9497448e+2, -1058398.4, -1089491.3, 11434.822, -0.03361946, 0.08236634, -1054645.9, -25388.18, 0.0, 9.999928, 9.999595 
9.050176e+2, 2.049735e+2, -1034641.7, -1132535.1, -33688.285, -0.029198997, 0.07948917, -1024168.9, -92903.15, 0.0, 9.9999075, 9.998624 
9.050097e+2, 2.1497205e+2, -881032.06, -1013896.5, -22374.346, 0.014481121, 0.041026648, -877365.4, -44083.59, 0.0, 10.000308, 9.998581 
9.0500283e+2, 2.249712e+2, -720464.1, -780770.1, 85180.35, 0.035237227, 0.05978115, -660257.3, 75032.79, 0.0, 10.000302, 9.999504 
9.049968e+2, 2.3497066e+2, -668319.4, -709295.0, 31757.781, 0.022168778, 0.023269573, -651014.25, -13720.61, 0.0, 10.0, 9.999471 
9.049906e+2, 2.4497028e+2, -633194.3, -725235.3, 15247.195, 0.016706293, 0.08209907, -630734.3, -91436.44, 0.0, 9.999925, 9.998716 
9.0498406e+2, 2.5496975e+2, -511483.78, -621524.25, 18451.371, 0.018796518, 0.12121068, -508472.3, -67166.21, 0.0, 10.000109, 9.99867 
9.049769e+2, 2.6496872e+2, -356460.2, -420968.4, 22961.053, -0.013074328, 0.12699921, -349122.16, -5806.1206, 0.0000002007212, 10.000196, 9.999333 
9.0496916e+2, 2.749668e+2, -261186.25, -330745.44, 7880.772, -0.07146426, -0.030266589, -260304.56, -14972.528, 0.0000025589381, 10.000203, 9.999275 
9.049615e+2, 2.8496638e+2, -180109.03, -257939.66, 15983.431, -0.117475115, 0.013867045, -176954.5, -29618.342, 0.000014749117, 10.00013, 9.999149 
9.04954e+2, 2.9496738e+2, -111459.11, -165667.16, -18298.486, -0.13197012, 0.15667768, -105860.49, -56531.125, 0.00006245814, 9.999895, 9.999214 
9.0494734e+2, 3.0496633e+2, -91773.5, -196388.34, 14982.009, -0.10523518, 0.16534367, -89670.195, -89670.195, 0.00018874744, 10.00001, 9.998623 
9.049407e+2, 3.1496388e+2, 40073.81, 49334.51, -42344.46, -0.07061242, 0.033742797, 87301.03, 87301.03, 0.0004049675, 10.000023, 10.0003195 
9.1507614e+2, 1.24982305e+2, -1604172.9, -1671098.4, -32837.246, -0.048030086, -0.0828054, -1590752.4, 124424.27, 0.000002613721, 10.000707, 9.999941 
9.150681e+2, 1.3498439e+2, -1716106.3, -1712423.0, -8658.555, -0.014174781, 0.13189676, -1705412.4, -88249.766, 0.00000007607973, 9.999505, 9.999558 
9.1506106e+2, 1.4498492e+2, -1642305.5, -1595290.6, 18882.396, 0.040236346, 0.2246184, -1588646.0, -69485.85, 0.0, 9.999166, 9.999848 
9.150543e+2, 1.5498397e+2, -1422652.4, -1439198.0, 13491.166, 0.035216685, 0.10094059, -1415099.5, 6068.9146, 0.0, 10.000013, 9.999838 
9.150469e+2, 1.6498354e+2, -1287457.1, -1361929.0, -23886.996, -0.021683525, 0.09961137, -1280453.9, 42717.56, 0.0, 10.0004425, 9.999499 
9.150389e+2, 1.7498323e+2, -1188098.4, -1262944.6, 29088.537, -0.109704345, 0.08626546, -1178122.8, 47050.613, 0.0, 10.000457, 9.999491 
9.1503143e+2, 1.8498245e+2, -1155387.9, -1252361.1, 19502.691, -0.13315257, 0.08954718, -1151612.5, -24432.39, 0.0, 10.000227, 9.9990015 
9.1502464e+2, 1.9498092e+2, -1128789.6, -1196526.4, 14540.14, -0.10427094, 0.006275932, -1125800.5, -96605.734, 0.0, 9.999767, 9.998937 
9.15018e+2, 2.0498039e+2, -1005567.25, -1032642.6, -33567.043, -0.015009629, 0.04309613, -982910.75, -51711.547, 0.0, 9.999735, 9.999393 
9.150116e+2, 2.1498041e+2, -859636.9, -918128.0, 7037.7183, 0.14337018, 0.07358211, -858802.06, -25603.918, 0.0, 10.000092, 9.99934 
9.1500396e+2, 2.2497964e+2, -813967.0, -937631.8, 55656.918, 0.094442256, 0.110584766, -792607.2, -57401.516, 0.0, 10.000128, 9.998519 
9.1499525e+2, 2.3497784e+2, -768245.3, -868957.5, 38378.72, -0.16206498, 0.047246683, -755287.44, -118063.03, 0.0, 9.999792, 9.998473 
9.149889e+2, 2.4497674e+2, -618394.0, -657897.0, 6511.0625, -0.17583418, 0.056959625, -617348.5, -78112.73, 0.0, 9.999759, 9.999262 
9.149849e+2, 2.5497591e+2, -496427.4, -556237.0, 42352.008, 0.055760093, 0.012717487, -474486.38, -33241.918, 0.0, 9.999953, 9.999198 
9.149781e+2, 2.649758e+2, -367467.16, -418159.75, 6938.192, 0.05135191, 0.0792314, -366534.7, -23289.318, 0.00000011562638, 10.000092, 9.999401 
9.149685e+2, 2.7497604e+2, -274922.4, -327257.6, 27904.607, -0.19137949, 0.13162544, -262835.47, -17593.25, 0.0000025826089, 10.000068, 9.999366 
9.149609e+2, 2.8497577e+2, -224080.63, -321830.78, -9959.123, -0.22248134, 0.20337582, -223076.27, -75829.87, 0.000017159802, 10.00002, 9.998758 
9.1495526e+2, 2.9497474e+2, -161629.92, -242370.63, -5178.417, -0.042497482, 0.1840355, -161299.16, -112038.87, 0.00007135739, 9.999783, 9.998741 
9.149488e+2, 3.0497283e+2, -90899.77, -167984.66, 6765.519, 0.0060637123, 0.12373188, -90310.49, -90310.49, 0.00020564985, 9.999905, 9.998858 
9.149394e+2, 3.1497297e+2, 9482.763, 44308.6, 16809.137, -0.28519884, 0.21408534, 51098.094, 51098.094, 0.00042848263, 9.999802, 10.00037 
9.250764e+2, 1.249903e+2, -1809384.5, -1766716.6, -1529.0823, -0.0013650676, -0.046030834, -1766661.9, -51562.254, 0.0000053718704, 9.999274, 9.999989 
9.250678e+2, 1.3499236e+2, -1569927.4, -1635975.5, -43445.14, -0.026995614, 0.15803361, -1548379.8, 68704.12, 0.00000033393198, 10.000471, 9.999641 
9.2506075e+2, 1.4499244e+2, -1490375.6, -1586437.1, 36242.207, 0.03959034, 0.2354066, -1478236.3, 40849.934, 0.0, 10.000497, 9.999264 
9.2505485e+2, 1.549911e+2, -1500703.5, -1546574.3, 9466.058, 0.108161494, 0.1321736, -1498826.9, -77725.37, 0.0, 9.999784, 9.999208 
9.250477e+2, 1.6499044e+2, -1387783.8, -1356833.4, 3061.7422, 0.07179186, 0.11188991, -1356533.4, -33426.645, 0.0, 9.999518, 9.999973 
9.2503923e+2, 1.7499015e+2, -1260154.4, -1247843.8, -15189.932, -0.070247136, 0.053861372, -1237609.4, -12504.542, 0.0, 9.999741, 9.999942 
9.250317e+2, 1.8498957e+2, -1177465.9, -1259338.6, 8586.1875, -0.109095275, 0.054642733, -1176575.1, -49466.652, 0.0, 10.000074, 9.9990225 
9.2502517e+2, 1.9498834e+2, -1026809.75, -1141554.9, 16410.604, -0.05218147, -0.0020453667, -1024508.9, 4612.6543, 0.0, 10.000453, 9.998977 
9.2501867e+2, 2.0498797e+2, -858259.2, -962370.8, 9950.237, 0.037644755, 0.049266804, -857316.75, 73808.37, 0.0, 10.000751, 9.9993925 
9.2501235e+2, 2.149881e+2, -718102.94, -847231.4, -32563.416, 0.16985941, 0.09303727, -710355.94, 122766.83, 0.0, 10.00105, 9.999369 
9.2500484e+2, 2.2498722e+2, -686502.25, -898660.25, 26787.652, 0.12999423, 0.12798116, -683172.2, 51959.305, 0.0, 10.001091, 9.998321 
9.249962e+2, 2.3498511e+2, -631481.1, -829735.4, 31792.531, -0.08787239, 0.0521521, -626507.56, 10646.457, 0.0, 10.000826, 9.99825 
9.249895e+2, 2.449839e+2, -510957.63, -595022.0, 53240.316, -0.11856554, 0.057312775, -485157.38, 54008.99, 0.0, 10.00045, 9.999369 
9.2498463e+2, 2.5498322e+2, -472416.72, -530856.8, 20908.043, 0.03910998, 0.020981783, -465706.88, -24534.457, 0.0, 10.000064, 9.999324 
9.2497784e+2, 2.649831e+2, -381515.88, -442832.88, 3752.7676, 0.03195715, 0.08448489, -381287.03, -38113.594, 0.00000007319143, 10.000041, 9.999267 
9.249693e+2, 2.7498302e+2, -242105.92, -327438.5, -21560.842, -0.1241232, 0.118129455, -236967.58, 8206.05, 0.0000027897247, 10.000331, 9.999245 
9.249617e+2, 2.849826e+2, -184504.98, -320192.3, -33286.25, -0.15839466, 0.18895358, -176779.23, -29599.834, 0.000020180585, 10.000369, 9.998596 
9.2495495e+2, 2.9498154e+2, -111926.37, -238531.95, -49804.85, -0.059104305, 0.18437247, -94682.484, -45489.23, 0.00008285034, 10.000197, 9.998566 
9.2494893e+2, 3.0497947e+2, -18938.568, -106741.734, 16831.879, 0.028227933, 0.099029504, -15822.483, -15822.483, 0.0002292469, 10.000245, 9.999124 
9.2494106e+2, 3.1497934e+2, 49584.9, 42890.953, -16086.365, -0.09622394, 0.13813365, 62668.793, 62668.793, 0.0004645645, 10.000126, 10.000215 
9.35075e+2, 1.2499954e+2, -1829992.1, -1779232.4, -5575.1934, -0.14440134, 0.11856604, -1778627.1, -63614.46, 0.000009857008, 9.999174, 9.999941 
9.35068e+2, 1.3499954e+2, -1562394.6, -1618981.6, 13289.944, -0.08822753, 0.10856353, -1559428.8, 57583.574, 0.0000009955157, 10.00049, 9.999736 
9.350609e+2, 1.4499873e+2, -1519756.4, -1653051.1, -10383.7295, -0.038020257, 0.11610447, -1518952.4, 70.26284, 0.00000000002439963, 10.000518, 9.998801 
9.350541e+2, 1.5499848e+2, -1535694.1, -1607820.8, -659.9128, 0.01677469, 0.16645636, -1535688.1, -114658.08, 0.0, 9.99974, 9.998809 
9.3504703e+2, 1.6499797e+2, -1392723.8, -1354638.1, -8946.991, 0.019958314, 0.17798713, -1352641.1, -29606.037, 0.0, 9.999457, 10.000023 
9.350396e+2, 1.7499703e+2, -1260507.8, -1243257.1, 10313.45, -0.045742862, 0.051874522, -1238437.6, -13398.403, 0.0, 9.999714, 9.9999895 
9.350326e+2, 1.8499683e+2, -1148829.0, -1180662.9, 9437.564, -0.06403604, 0.05966343, -1146241.5, -19203.238, 0.0, 9.999992, 9.999605 
9.3502617e+2, 1.9499682e+2, -1006337.9, -1067941.5, 45765.984, -0.029370354, 0.066944905, -981973.8, 47063.715, 0.0, 10.00032, 9.999549 
9.3501914e+2, 2.0499633e+2, -925697.0, -1069312.0, 4121.874, -0.016366964, 0.11114821, -925578.75, 5463.7017, 0.0, 10.000601, 9.998732 
9.350115e+2, 2.149951e+2, -793777.6, -963607.56, -3700.9182, -0.03458275, 0.08647717, -793697.0, 39358.79, 0.0, 10.000864, 9.998665 
9.35005e+2, 2.2499396e+2, -681077.8, -837010.4, 1741.0863, 0.009382035, 0.10334285, -681058.4, 54009.313, 0.0, 10.000875, 9.998848 
9.349993e+2, 2.3499252e+2, -624302.1, -766176.6, 36708.793, 0.11067178, 0.04132632, -615366.8, 21715.092, 0.0, 10.000617, 9.99879 
9.349919e+2, 2.4499185e+2, -559991.4, -658749.75, 21288.014, 0.0465167, 0.0895279, -555598.06, -16509.512, 0.0, 10.000286, 9.999012 
9.349828e+2, 2.549916e+2, -523848.75, -600209.6, 24130.115, -0.17916924, 0.13152108, -516862.75, -75771.74, 0.0, 9.999893, 9.998936 
9.3497586e+2, 2.6499042e+2, -423458.0, -489911.8, 1967.6936, -0.19786893, 0.124623746, -423399.78, -80298.12, 0.00000003612581, 9.99988, 9.999016 
9.349711e+2, 2.7498785e+2, -287882.44, -381411.75, 9972.12, -0.01305527, -0.06372873, -286831.03, -41705.83, 0.0000027030533, 10.000168, 9.998947 
9.349634e+2, 2.8498706e+2, -192150.47, -318916.5, -54644.992, -0.06540331, -0.01732301, -171846.67, -24713.355, 0.000022488803, 10.000285, 9.998648 
9.349526e+2, 2.9498786e+2, -122208.234, -240026.77, -32688.764, -0.36303017, 0.15521039, -113746.46, -64619.176, 0.00009525127, 10.000106, 9.9986 
9.349473e+2, 3.0498615e+2, -11686.12, -70966.72, 2636.1255, -0.18988858, 0.09244712, -11569.127, -11569.127, 0.00025879213, 10.00017, 9.999402 
9.349449e+2, 3.1498396e+2, 4962.0444, -4243.3384, 54061.99, 0.20557429, -0.10650669, 54616.918, 54616.918, 0.0005142612, 9.999949, 9.999969 
9.4507396e+2, 1.250062e+2, -1887880.3, -1754935.1, -27294.746, -0.11742142, 0.16756019, -1749549.5, -34599.64, 0.000016753027, 9.998528, 10.000424 
9.4506836e+2, 1.3500588e+2, -1642548.8, -1611150.4, -36919.832, -0.05063667, 0.07768589, -1586730.5, 30219.375, 0.000002343361, 9.999723, 10.00016 
9.4506156e+2, 1.4500515e+2, -1552106.5, -1643717.4, -37903.59, 0.0044851624, 0.05976027, -1538457.6, -19499.705, 0.0000000053592455, 10.000175, 9.999037 
9.4505394e+2, 1.5500559e+2, -1446467.4, -1550162.3, -18334.951, 0.011742552, 0.15763094, -1443320.9, -22361.775, 0.0, 10.0002575, 9.998974 
9.450469e+2, 1.6500534e+2, -1298336.3, -1320908.8, 40656.773, 0.033163767, 0.19563313, -1267428.3, 55533.965, 0.0, 10.000165, 9.999905 
9.450402e+2, 1.7500426e+2, -1240399.0, -1248543.4, 10648.9, 0.046163376, 0.06800293, -1233070.3, -8101.1704, 0.0, 9.999923, 9.999847 
9.4503343e+2, 1.8500409e+2, -1137835.4, -1160750.3, 31999.506, 0.027930835, 0.0791606, -1115304.0, 11664.26, 0.0, 10.00003, 9.999708 
9.4502676e+2, 1.9500433e+2, -963127.25, -1033705.7, 1199.3354, -0.013202261, 0.10214036, -963106.9, 65857.88, 0.0, 10.000583, 9.999643 
9.450196e+2, 2.0500371e+2, -917415.8, -1062868.3, -23132.963, -0.03113078, 0.12502332, -913825.3, 17145.479, 0.0, 10.000638, 9.998758 
9.4501203e+2, 2.1500199e+2, -909958.75, -1014342.0, -11247.191, -0.0250464, 0.046315074, -908760.6, -75771.97, 0.0, 10.000043, 9.998706 
9.450056e+2, 2.2500107e+2, -781568.8, -847282.75, 62266.793, 0.032437522, 0.067661755, -744021.7, -9023.613, 0.0, 10.000043, 9.999169 
9.4500023e+2, 2.3500058e+2, -586748.94, -710988.0, 48408.047, 0.14507724, 0.072177365, -570114.6, 66888.13, 0.0, 10.000731, 9.999106 
9.449927e+2, 2.4500002e+2, -511192.78, -671224.1, 30325.254, 0.090128735, 0.1317892, -505639.03, 33369.32, 0.0, 10.000773, 9.998685 
9.4498336e+2, 2.54999e+2, -508318.78, -622951.44, 4851.675, -0.11805521, 0.13068698, -508113.8, -67095.9, 0.0, 10.0001335, 9.998651 
9.449763e+2, 2.649975e+2, -445858.72, -525718.44, 41964.53, -0.1375632, 0.11225304, -427862.63, -84830.12, 0.000000027783642, 9.999826, 9.998802 
9.4497156e+2, 2.74995e+2, -359579.53, -441868.66, 16401.727, 0.04410511, -0.04699799, -356430.84, -111374.14, 0.000002329391, 9.999776, 9.998732 
9.449639e+2, 2.8499395e+2, -230529.56, -311956.9, -5580.836, -0.013839405, -0.023199312, -230148.84, -83083.01, 0.000023981273, 9.999922, 9.998874 
9.4495326e+2, 2.949942e+2, -97086.82, -204505.81, -9687.488, -0.30446634, 0.07442685, -96220.16, -47158.53, 0.00010679835, 10.000177, 9.998819 
9.4494784e+2, 3.0499277e+2, -17998.59, -105507.82, 43162.414, -0.1511313, 0.045322295, -292.1554, -292.1554, 0.00028981623, 10.000287, 9.999107 
9.4494575e+2, 3.149905e+2, -16859.514, -56708.566, 5609.3325, 0.30536932, -0.1304474, -16084.974, -16084.974, 0.00057081727, 9.999993, 9.999591 
9.5507205e+2, 1.2501056e+2, -1839416.9, -1635190.3, -32963.117, -0.23836364, 0.11183614, -1630001.6, 84907.0, 0.00002677623, 9.99848, 10.0012455 
9.5506835e+2, 1.3501148e+2, -1598682.9, -1495588.3, 20332.455, -0.05397968, 0.062801115, -1491723.1, 125171.68, 0.0000047533053, 9.999645, 10.000971 
9.550623e+2, 1.4501168e+2, -1503086.9, -1527485.4, -58054.035, 0.011683513, 0.052773498, -1455964.1, 62928.215, 0.000000046136613, 10.000101, 9.999876 
9.550538e+2, 1.5501256e+2, -1383671.4, -1424844.6, 1032.7847, -0.06614374, 0.11071153, -1383645.5, 37241.902, 0.0, 10.00028, 9.999822 
9.550467e+2, 1.6501278e+2, -1324617.3, -1375645.0, 14188.622, -0.044785675, 0.17241621, -1320937.4, 1948.9915, 0.0, 10.000161, 9.999533 
9.5504075e+2, 1.7501198e+2, -1271302.6, -1303507.1, 16594.342, 0.073157884, 0.10678601, -1264282.3, -39389.38, 0.0, 9.999881, 9.99949 
9.5503396e+2, 1.8501146e+2, -1173718.8, -1222548.3, 36810.05, 0.037256416, 0.12075596, -1153962.8, -27065.398, 0.0, 9.999961, 9.999324 
9.5502627e+2, 1.9501081e+2, -1004161.75, -1096461.0, 38226.2, -0.15452279, 0.09322995, -990386.2, 38517.586, 0.0, 10.000477, 9.999267 
9.550194e+2, 2.0501004e+2, -890212.06, -967526.0, -63361.957, -0.14017029, 0.082563475, -854645.7, 76264.75, 0.0, 10.000471, 9.9994955 
9.550132e+2, 2.1500877e+2, -892072.3, -924388.94, -18795.299, 0.06838112, -0.024893146, -883444.5, -50523.55, 0.0, 9.999816, 9.999435 
9.550063e+2, 2.2500862e+2, -805040.9, -846121.25, 71838.695, 0.07455399, 0.03194455, -750863.6, -15941.723, 0.0, 9.999826, 9.999282 
9.5499855e+2, 2.3500924e+2, -612745.25, -715437.1, 93249.46, -0.124350645, 0.13664919, -557639.94, 79277.125, 0.0, 10.000516, 9.999182 
9.5499164e+2, 2.4500833e+2, -558760.56, -719796.9, -7354.9575, -0.12355781, 0.17184281, -558425.3, -19499.059, 0.0, 10.000567, 9.998444 
9.5498574e+2, 2.5500557e+2, -552000.7, -674302.25, -968.6253, 0.07391942, 0.014744149, -551993.0, -111039.95, 0.0, 9.9999695, 9.998371 
9.549785e+2, 2.650044e+2, -482513.4, -567882.75, 23622.836, 0.081963256, 0.05847791, -476412.63, -133447.08, 0.000000030362223, 9.999685, 9.998577 
9.5497e+2, 2.7500442e+2, -396754.84, -481837.1, 35459.86, -0.114815906, 0.17067176, -383914.13, -138946.06, 0.000002140531, 9.999625, 9.998524 
9.5496273e+2, 2.8500322e+2, -219358.25, -262823.8, -11560.162, -0.15131323, 0.16870129, -216474.95, -69497.43, 0.000025889522, 9.999809, 9.999266 
9.5495653e+2, 2.9500058e+2, -86645.5, -156689.25, 24638.523, -0.03593094, -0.060333025, -78846.95, -29851.22, 0.00011778403, 10.000068, 9.999198 
9.5495003e+2, 3.049995e+2, -96169.97, -244178.78, 27957.996, 0.014235743, -0.028854033, -91064.945, -91064.945, 0.00031950467, 10.000187, 9.998204 
9.5494217e+2, 3.149989e+2, -85714.555, -159420.38, 57631.03, -0.12993786, 0.052199308, -54160.793, -54160.793, 0.00062882464, 9.999825, 9.998964 
9.650716e+2, 1.2501618e+2, -1771103.8, -1615804.0, 82163.74, -0.13345732, 0.071554706, -1580403.5, 134448.14, 0.000040530904, 9.99896, 10.001178 
9.650674e+2, 1.3501738e+2, -1793530.4, -1589468.1, 27351.889, -0.032841112, 0.052512884, -1585865.5, 30970.928, 0.000008656152, 9.9982815, 10.001008 
9.6506166e+2, 1.4501788e+2, -1719321.4, -1562887.1, -22661.73, 0.03807506, 0.041963145, -1559670.5, -40839.49, 0.00000019058375, 9.998364, 10.000442 
9.6505386e+2, 1.5501907e+2, -1440623.0, -1389727.3, -29816.715, -0.051959984, 0.0771583, -1375975.3, 44846.074, 0.0, 9.999661, 10.0003395 
9.650469e+2, 1.6501959e+2, -1303805.0, -1361819.6, -11921.831, -0.04223456, 0.14261067, -1301450.6, 21366.697, 0.0, 10.000314, 9.999546 
9.6504074e+2, 1.7501909e+2, -1200297.3, -1272051.0, -19113.896, 0.06946477, 0.107353784, -1195523.3, 29299.41, 0.0, 10.000389, 9.999457 
9.650341e+2, 1.8501866e+2, -1128363.0, -1192642.4, 68289.68, 0.05535647, 0.12799612, -1085028.0, 41798.99, 0.0, 10.000209, 9.999427 
9.6502686e+2, 1.9501796e+2, -1105685.8, -1138929.8, 75896.04, -0.092218384, 0.085071996, -1044612.9, -15778.985, 0.0, 9.999726, 9.999355 
9.6502024e+2, 2.0501731e+2, -958149.56, -984442.75, 7060.8716, -0.06917348, 0.07904925, -956373.4, -25534.19, 0.0, 9.999972, 9.999603 
9.650142e+2, 2.1501641e+2, -712162.25, -825785.0, -34368.02, 0.12957038, -0.0038949992, -702575.6, 130270.86, 0.0, 10.0010195, 9.99952 
9.6500695e+2, 2.2501627e+2, -632109.5, -779972.44, 44990.3, 0.10170705, 0.058017712, -619496.25, 115351.31, 0.0, 10.001078, 9.999139 
9.6499854e+2, 2.3501658e+2, -673984.75, -754174.7, 15231.698, -0.14360373, 0.14437465, -671189.06, -34343.133, 0.0, 10.00013, 9.999099 
9.6499175e+2, 2.4501559e+2, -615027.8, -719652.9, -35047.695, -0.13335472, 0.16059889, -604372.56, -65517.0, 0.0, 10.000045, 9.998712 
9.649867e+2, 2.5501308e+2, -415715.06, -582818.8, -21705.16, 0.14201073, 0.007511922, -412941.78, 27937.14, 0.0, 10.000786, 9.998623 
9.6497947e+2, 2.6501217e+2, -327644.06, -488076.75, 46317.375, 0.16513157, 0.063494176, -315232.3, 27656.021, 0.000000012060779, 10.000724, 9.998621 
9.649701e+2, 2.7501243e+2, -371414.7, -469669.5, 38501.773, -0.07063251, 0.19455014, -358125.03, -113236.445, 0.0000023356135, 9.999792, 9.998527 
9.64963e+2, 2.8501105e+2, -223000.42, -268958.9, 62378.242, -0.091543004, 0.17888853, -179503.42, -32603.986, 0.000028869204, 9.999812, 9.999204 
9.6495825e+2, 2.95008e+2, 7669.4937, -119076.19, 17116.094, 0.109471515, -0.09013706, 9940.218, 58862.22, 0.00012892728, 10.000765, 9.9991045 
9.6495134e+2, 3.0500704e+2, 36196.324, -221653.97, 27325.39, 0.09560934, -0.02368379, 39060.29, 39060.29, 0.00034703137, 10.001241, 9.997859 
9.6494216e+2, 3.1500664e+2, 34475.492, -99408.26, 39806.32, -0.1306839, 0.11046296, 45416.59, 45416.59, 0.0006841425, 10.000618, 9.998995 
9.7507167e+2, 1.2502277e+2, -1823987.3, -1709364.4, -4417.148, -0.10260759, 0.030651439, -1709194.4, 5587.8745, 0.000058506626, 9.998899, 10.000561 
9.750649e+2, 1.3502376e+2, -1824452.3, -1655939.9, 11857.969, -0.13870014, 0.04300385, -1655109.5, -38336.484, 0.00001444443, 9.998302, 10.000535 
9.750592e+2, 1.4502409e+2, -1711781.8, -1549856.0, 9534.815, -0.0926482, 0.03414456, -1549296.5, -30526.232, 0.0000005546723, 9.998373, 10.000531 
9.750536e+2, 1.550253e+2, -1439426.8, -1376852.8, 38994.535, -0.07974809, 0.06143996, -1358145.3, 62613.867, 0.0, 9.999622, 10.000444 
9.7504705e+2, 1.6502589e+2, -1287132.8, -1319314.5, -29411.186, -0.08992708, 0.111498415, -1269698.5, 53055.82, 0.0, 10.000269, 9.999866 
9.750398e+2, 1.7502558e+2, -1180838.3, -1226790.0, -2569.5168, -0.09869019, 0.06608045, -1180695.0, 44063.32, 0.0, 10.000362, 9.999784 
9.750335e+2, 1.8502572e+2, -1101409.8, -1114403.9, 36037.24, -0.053393662, 0.09647361, -1071288.5, 55468.33, 0.0, 10.000113, 10.0000105 
9.750282e+2, 1.9502589e+2, -1084169.6, -1059856.0, 74819.71, 0.035710618, 0.07938017, -996211.94, 32541.693, 0.0, 9.999583, 9.999961 
9.750218e+2, 2.0502575e+2, -1027349.7, -1089888.5, 28535.498, 0.05795741, 0.12454517, -1016286.5, -85531.33, 0.0, 9.999796, 9.998972 
9.750143e+2, 2.150249e+2, -784445.8, -931705.5, 20471.77, 0.014020825, 0.114128046, -781652.8, 51112.42, 0.0, 10.000824, 9.998892 
9.7500694e+2, 2.2502397e+2, -686586.94, -844358.9, -9474.974, -0.027457155, 0.14485817, -686019.94, 48755.508, 0.0, 10.000867, 9.9987955 
9.749998e+2, 2.3502262e+2, -735083.94, -821751.7, -6501.106, -0.06304726, 0.095440514, -734599.0, -97809.62, 0.0, 9.999883, 9.998749 
9.7499275e+2, 2.4502192e+2, -585089.75, -619908.7, -24291.824, -0.07327588, 0.12109672, -572613.06, -33818.098, 0.0, 9.999875, 9.999484 
9.749857e+2, 2.5502154e+2, -381910.9, -477763.34, 24905.79, -0.06280878, 0.10493184, -375825.8, 64969.99, 0.0, 10.000633, 9.999419 
9.7497857e+2, 2.650207e+2, -325456.9, -456422.06, -4402.214, -0.026814714, 0.11088819, -325309.1, 17493.188, 0.0000000034767167, 10.000602, 9.998898 
9.7497123e+2, 2.75019e+2, -367448.5, -435216.13, 25229.586, 0.028529586, 0.01686947, -359087.25, -114268.97, 0.0000028342504, 9.999675, 9.998819 
9.749644e+2, 2.850176e+2, -279221.0, -362323.4, 85205.266, 0.019061407, 0.014114373, -225975.36, -79145.13, 0.000032313746, 9.999716, 9.9986105 
9.7495776e+2, 2.9501632e+2, -53688.063, -217468.34, 80915.94, -0.06643874, -0.016395802, -20454.86, 28386.12, 0.0001399921, 10.000646, 9.998486 
9.7495115e+2, 3.0501512e+2, 28625.377, -205655.66, -6143.615, -0.07806246, 0.049193736, 28786.371, 28786.371, 0.00037284024, 10.001109, 9.998031 
9.749448e+2, 3.1501272e+2, 49570.523, -23589.744, 71625.45, -0.013491435, -0.037125368, 93416.2, 93416.2, 0.00073526404, 10.000437, 9.999596 
9.850718e+2, 1.2502964e+2, -1856828.9, -1753627.5, 17220.918, 0.043148898, 0.036802366, -1750829.6, -36115.965, 0.00008108169, 9.998793, 10.000304 
9.8506355e+2, 1.3503046e+2, -1669056.9, -1619347.5, -5465.1104, -0.14978608, 0.061306473, -1618753.8, -2046.2476, 0.000022462764, 9.999508, 10.000212 
9.850578e+2, 1.4503068e+2, -1562809.0, -1463052.3, 48553.17, -0.10744614, 0.0481226, -1443322.8, 75383.24, 0.0000013019285, 9.999309, 10.000682 
9.850532e+2, 1.5503173e+2, -1579601.8, -1430191.8, 40921.027, -0.024722228, 0.041594613, -1419718.4, 976.4209, 0.0, 9.998578, 10.000586 
9.8504716e+2, 1.6503228e+2, -1504195.0, -1413684.6, 22968.02, -0.019078892, 0.080137484, -1408189.8, -85500.22, 0.0, 9.998735, 9.999955 
9.8503995e+2, 1.7503221e+2, -1248843.4, -1246285.9, -353.01218, -0.08201294, 0.047214862, -1246238.0, -21545.738, 0.0, 9.999851, 9.999891 
9.8503375e+2, 1.8503259e+2, -1053935.5, -1062562.1, 8070.5684, -0.041531246, 0.084774435, -1049098.0, 77590.89, 0.0, 10.000335, 10.000247 
9.8502845e+2, 1.9503303e+2, -998034.4, -995658.44, -18622.402, 0.08590111, 0.0744658, -978186.1, 50497.133, 0.0, 10.000091, 10.000154 
9.850221e+2, 2.0503317e+2, -956405.8, -1046909.0, 24334.102, 0.10712126, 0.13394234, -950277.9, -19595.643, 0.0, 10.000221, 9.99907 
9.8501503e+2, 2.1503265e+2, -806906.25, -931453.6, 40404.363, 0.017150918, 0.14419435, -794947.0, 37742.07, 0.0, 10.000615, 9.998999 
9.8500776e+2, 2.2503151e+2, -706175.8, -857285.6, 35118.223, -0.021387061, 0.14830971, -698413.0, 36287.848, 0.0, 10.0007305, 9.998779 
9.8500055e+2, 2.3502941e+2, -640844.44, -780303.94, 34381.336, -0.00106147, 0.029869849, -632829.0, 3891.8452, 0.0, 10.000534, 9.998728 
9.849933e+2, 2.4502873e+2, -537853.3, -587205.3, 61849.742, -0.00933482, 0.053537913, -495938.8, 42787.48, 0.0, 10.000185, 9.999544 
9.849858e+2, 2.5502893e+2, -510585.2, -535758.0, 17368.86, -0.05745282, 0.09102606, -501721.78, -60999.637, 0.0, 9.999737, 9.999448 
9.849787e+2, 2.650281e+2, -415907.9, -501707.06, -26183.596, -0.037038177, 0.094645366, -408548.6, -65819.52, 0.00000001775074, 10.0, 9.99888 
9.849719e+2, 2.750258e+2, -177937.97, -347845.78, -59338.023, 0.066379964, -0.04559161, -159266.75, 85483.02, 0.000003544514, 10.000994, 9.998793 
9.849651e+2, 2.8502455e+2, -103297.77, -309240.7, 31685.098, 0.065125205, -0.023314046, -98533.13, 48228.77, 0.00003520851, 10.001037, 9.998365 
9.849583e+2, 2.950239e+2, -159988.28, -299754.22, 20364.094, -0.035077725, 0.03705968, -157081.66, -108312.65, 0.00014922032, 10.000022, 9.998241 
9.8495185e+2, 3.0502248e+2, -111083.36, -261433.69, -2434.696, -0.06030924, 0.08874188, -111043.94, -111043.94, 0.00039592202, 10.00012, 9.998108 
9.849466e+2, 3.1502017e+2, 143402.58, 51867.168, -4025.4592, 0.117983565, 0.004470783, 143579.27, 143579.27, 0.0007798097, 10.000965, 9.999853 
9.950709e+2, 1.250368e+2, -1867796.6, -1764946.6, -11825.294, -0.01252185, 0.086736254, -1763604.6, -48958.76, 0.000108580556, 9.998759, 10.000231 
9.9506295e+2, 1.3503757e+2, -1684799.3, -1636422.5, 32862.367, -0.19559225, 0.10937803, -1619806.4, -3167.0522, 0.000033028722, 9.999458, 10.000107 
9.9505717e+2, 1.4503762e+2, -1551834.3, -1439144.8, -3727.3057, -0.15180168, 0.080023505, -1439021.6, 79616.18, 0.0000026281716, 9.999293, 10.000861 
9.9505204e+2, 1.5503833e+2, -1558336.3, -1391776.9, 28103.527, -0.032955125, 0.021316024, -1387162.8, 33465.313, 0.00000000019976186, 9.998598, 10.000845 
9.950466e+2, 1.6503893e+2, -1518834.6, -1433003.9, 47203.74, 0.014542311, 0.052646466, -1412123.3, -89501.125, 0.0, 9.998697, 9.999837 
9.9504095e+2, 1.7503902e+2, -1262960.3, -1265257.3, 58454.797, -0.008485408, 0.049971167, -1205642.6, 18980.818, 0.0, 9.999809, 9.99978 
9.950344e+2, 1.8503922e+2, -1085818.5, -1105091.9, -19155.605, -0.042387076, 0.087529406, -1074012.1, 52611.133, 0.0, 10.000235, 10.000005 
9.950272e+2, 1.9503921e+2, -1031025.7, -1033644.0, -11443.745, -0.082371846, 0.05524443, -1020816.44, 7808.054, 0.0, 9.999962, 9.999954 
9.95021e+2, 2.0503947e+2, -928242.7, -937713.75, 20395.18, -0.062507436, 0.094041556, -912040.5, 18581.16, 0.0, 10.000012, 9.999916 
9.950158e+2, 2.1503963e+2, -779619.44, -819124.0, 69631.336, 0.008620373, 0.08537053, -726993.06, 105625.25, 0.0, 10.000386, 9.999872 
9.9500895e+2, 2.2503898e+2, -715598.06, -820171.56, 10991.907, -0.0006772618, 0.07578895, -714455.2, 20167.688, 0.0, 10.00049, 9.999149 
9.9500036e+2, 2.3503718e+2, -649385.06, -742419.8, 44422.227, -0.09498847, -0.05099551, -631581.4, 5057.4697, 0.0, 10.000303, 9.999097 
9.94993e+2, 2.4503608e+2, -616223.94, -711339.2, 28850.322, -0.084095985, -0.04705827, -608157.2, -69508.125, 0.0, 10.0000105, 9.998778 
9.949867e+2, 2.5503528e+2, -589874.94, -657008.9, 18094.666, 0.024091475, -0.035162605, -585308.44, -144650.7, 0.0, 9.999544, 9.99871 
9.9497944e+2, 2.650344e+2, -472950.88, -579819.75, -3942.1687, 0.008916537, 0.025650147, -472805.63, -130137.984, 0.000000028595345, 9.999835, 9.998421 
9.9497133e+2, 2.7503297e+2, -233832.86, -428499.28, -1277.7958, -0.12348791, 0.013286304, -233824.48, 10858.578, 0.000003781716, 10.000853, 9.998304 
9.949647e+2, 2.850318e+2, -105903.86, -291057.5, -21301.252, -0.109305546, 0.06396034, -103484.83, 43210.633, 0.000036350866, 10.000933, 9.998538 
9.9495953e+2, 2.9503077e+2, -158518.64, -271767.0, 6969.444, 0.043995313, 0.06509002, -158091.34, -109385.25, 0.00015456251, 9.999916, 9.998482 
9.94953e+2, 3.050293e+2, -139394.6, -294677.8, 22833.576, 0.011237426, 0.10510791, -136106.66, -136106.66, 0.00041193186, 10.000021, 9.997925 
9.9494636e+2, 3.1502846e+2, 103722.984, 25299.438, 70311.13, -0.08353611, 0.18884422, 145017.23, 145017.23, 0.0008105773, 10.000743, 9.99977 
1.00507036e+3, 1.2504327e+2, -1876826.4, -1685110.5, -13092.018, 0.10095095, 0.11153298, -1684220.6, 30365.348, 0.00014134821, 9.998333, 10.000989 
1.0050622e+3, 1.3504434e+2, -1846325.6, -1632951.9, 45316.5, -0.13682571, 0.093444504, -1623726.5, -7155.619, 0.000046426092, 9.998, 10.000833 
1.0050565e+3, 1.4504442e+2, -1707047.3, -1561398.0, 77075.766, -0.09398323, 0.053147778, -1528184.5, -9616.447, 0.00000474816, 9.998471, 10.000399 
1.0050515e+3, 1.550448e+2, -1362024.4, -1352790.9, 10757.365, -0.014809379, 0.012503785, -1345701.5, 74863.15, 0.000000004412824, 10.0002, 10.000338 
1.0050462e+3, 1.6504526e+2, -1270390.9, -1292498.9, 21021.875, 0.035378758, 0.04583662, -1257693.9, 64866.773, 0.0, 10.00029, 10.000047 
1.0050407e+3, 1.7504545e+2, -1404856.3, -1310571.3, 24176.717, 0.05528203, 0.027999632, -1304733.3, -80173.74, 0.0, 9.998717, 10.000004 
1.0050343e+3, 1.8504581e+2, -1336958.8, -1225418.0, 29590.283, 0.019033462, 0.07217167, -1218054.3, -91496.57, 0.0, 9.998516, 10.000001 
1.0050271e+3, 1.9504607e+2, -1065986.5, -1051425.1, 19821.037, -0.0690636, 0.06630105, -1037589.9, -9031.624, 0.0, 9.999732, 9.999937 
1.00502096e+3, 2.0504642e+2, -884884.9, -876089.44, 55300.727, -0.0662001, 0.09583464, -825011.9, 105542.64, 0.0, 10.000123, 10.000291 
1.0050158e+3, 2.1504647e+2, -864590.4, -826486.06, 32672.86, 0.018283445, 0.042522985, -807716.25, 24834.191, 0.0, 9.999629, 10.000203 
1.0050092e+3, 2.2504625e+2, -812343.6, -825158.94, -2426.429, 0.025050258, 0.04290641, -811899.56, -77349.63, 0.0, 9.999668, 9.999506 
1.0050011e+3, 2.3504537e+2, -626558.5, -695307.06, -11494.383, -0.04971855, -0.023011494, -624687.6, 11869.172, 0.0, 10.000309, 9.999419 
1.00499354e+3, 2.4504437e+2, -523516.4, -696053.44, 12675.793, -0.059680905, -0.012119079, -522590.13, 15976.627, 0.0, 10.000776, 9.998514 
1.0049867e+3, 2.5504297e+2, -383137.78, -579113.94, 4319.3853, 0.000049620532, -0.036902282, -383042.63, 57539.707, 0.0, 10.001083, 9.998488 
1.0049797e+3, 2.6504195e+2, -297315.1, -518089.3, 62843.66, -0.009566913, 0.03293, -280680.0, 61913.98, 0.000000017098808, 10.001134, 9.998218 
1.0049724e+3, 2.7504084e+2, -253561.02, -453941.16, 52693.594, -0.08593302, 0.0659933, -240549.22, 4057.489, 0.000003428396, 10.000787, 9.998153 
1.004966e+3, 2.850395e+2, -140000.5, -339765.97, 41392.59, -0.057678957, 0.12331863, -131763.36, 14857.969, 0.00003625069, 10.000855, 9.998226 
1.0049605e+3, 2.950378e+2, 15473.681, -223368.44, -11332.499, 0.092223905, 0.09061023, 16010.176, 64649.97, 0.00015744341, 10.001262, 9.998161 
1.0049538e+3, 3.0503586e+2, 54382.86, -185215.72, 44938.258, 0.04354072, 0.09044734, 62534.016, 62534.016, 0.00042211023, 10.00125, 9.998115 
1.0049476e+3, 3.150357e+2, 71607.54, 14991.563, 55198.46, -0.0024465132, 0.23174077, 105333.51, 105333.51, 0.0008305699, 10.000443, 9.999888 
1.0150693e+3, 1.2504916e+2, -1771753.0, -1449185.0, -91794.164, 0.0896172, 0.11179978, -1424892.4, 289640.38, 0.0001798155, 9.998277, 10.0026245 
1.01506054e+3, 1.3505094e+2, -1733191.6, -1399363.6, 46357.215, -0.13439545, 0.0030795543, -1393045.8, 223455.27, 0.000062927356, 9.998013, 10.002421 
1.0150552e+3, 1.4505114e+2, -1799773.0, -1749067.1, 118215.04, -0.124621525, -0.043098714, -1653516.9, -135020.67, 0.000007860604, 9.998451, 9.999119 
1.01505116e+3, 1.550512e+2, -1457520.9, -1543035.0, 92576.74, -0.112444, 0.015125525, -1398304.4, 22199.209, 0.000000028517778, 10.000173, 9.99904 
1.01504564e+3, 1.6505142e+2, -1237202.1, -1215947.3, -56084.875, -0.088698834, 0.062245224, -1169491.8, 153012.08, 0.0, 10.000252, 10.000592 
1.01503894e+3, 1.750515e+2, -1367114.6, -1230635.4, -19244.078, -0.03070037, -0.023114396, -1227973.9, -3473.881, 0.0, 9.998706, 10.000559 
1.015033e+3, 1.850524e+2, -1336806.0, -1204652.4, 57055.777, -0.0032762485, 0.03729578, -1183427.9, -56936.3, 0.0, 9.998427, 10.000187 
1.0150276e+3, 1.9505371e+2, -1072548.5, -1032212.8, 80190.56, -0.012726935, 0.117164135, -969692.9, 58790.19, 0.0, 9.999594, 10.000133 
1.0150216e+3, 2.0505412e+2, -918251.5, -907758.0, 18820.717, -0.044368923, 0.15035681, -893466.4, 37013.16, 0.0, 9.99996, 10.000152 
1.0150145e+3, 2.1505332e+2, -900966.7, -854480.94, 28007.99, -0.09708209, 0.021830607, -841327.7, -8843.59, 0.0, 9.999433, 10.000098 
1.0150081e+3, 2.250535e+2, -831784.75, -813031.0, 2669.7268, -0.08246986, 0.057711378, -812658.3, -78177.766, 0.0, 9.999441, 9.9997 
1.01500206e+3, 2.3505424e+2, -643409.4, -677367.75, 27577.393, -0.006455567, 0.12960057, -628003.3, 8469.823, 0.0, 10.000085, 9.999647 
1.0149945e+3, 2.4505383e+2, -535713.0, -676884.7, 4721.579, -0.07051203, 0.17720105, -535555.25, 2922.0222, 0.0, 10.000583, 9.998742 
1.0149854e+3, 2.5505197e+2, -389472.28, -558221.2, 31865.943, -0.27582532, 0.08154375, -383655.34, 56840.953, 0.0, 10.000931, 9.998711 
1.0149788e+3, 2.6505062e+2, -305657.16, -501888.78, 36542.71, -0.23359765, 0.10178888, -299073.0, 43436.227, 0.000000011022683, 10.000993, 9.998395 
1.0149747e+3, 2.7504948e+2, -261253.34, -433944.34, 62638.066, 0.038061596, 0.11438888, -240926.11, 3593.7405, 0.0000031084232, 10.000635, 9.998361 
1.0149687e+3, 2.850477e+2, -220896.03, -480570.16, 40832.918, 0.091418155, 0.1592784, -214626.56, -68087.2, 0.000035475467, 10.000741, 9.997312 
1.01496056e+3, 2.9504502e+2, -74444.92, -371257.38, 26298.305, -0.07153697, 0.117834374, -72132.836, -23562.295, 0.00015874387, 10.001104, 9.997217 
1.0149536e+3, 3.0504215e+2, 78869.15, -107119.58, 5444.4307, -0.12653263, 0.046248257, 79028.38, 79028.38, 0.00042931808, 10.001141, 9.998698 
1.0149492e+3, 3.150419e+2, 57204.49, 59812.414, 69065.89, 0.05113267, 0.1145757, 127586.65, 127586.65, 0.00084597926, 10.000151, 10.000321 
1.02506764e+3, 1.2505648e+2, -1824271.0, -1538663.6, 63889.184, 0.11521612, 0.10658848, -1525023.4, 189435.13, 0.00022439056, 9.998178, 10.002067 
1.0250603e+3, 1.3505763e+2, -1491941.5, -1349985.3, -6622.803, -0.036410518, -0.00014319197, -1349676.9, 266759.16, 0.0000828242, 9.99996, 10.001829 
1.0250553e+3, 1.4505784e+2, -1590205.6, -1636300.6, 52832.973, -0.02072583, -0.0222422, -1555611.9, -37179.4, 0.000012107546, 9.999805, 9.999266 
1.0250504e+3, 1.5505823e+2, -1756441.8, -1672464.0, 98128.31, -0.08678846, 0.049529765, -1607718.5, -187281.86, 0.00000009714164, 9.998032, 9.999197 
1.02504455e+3, 1.6505863e+2, -1576573.1, -1335004.8, 31638.432, -0.08880182, 0.08922294, -1330929.8, -8495.459, 0.0, 9.99777, 10.000946 
1.025038e+3, 1.7505883e+2, -1281365.3, -1146080.6, 14866.258, -0.016299816, -0.017311912, -1144466.3, 79961.59, 0.0, 9.9991455, 10.000909 
1.02503225e+3, 1.8505976e+2, -1161324.9, -1122821.9, 124064.664, 0.035384312, 0.027688898, -1016523.94, 109894.36, 0.0, 9.999624, 10.000179 
1.0250275e+3, 1.9506101e+2, -1138006.0, -1066491.5, 103696.7, 0.04418379, 0.105541244, -992560.2, 35849.26, 0.0, 9.999142, 10.000127 
1.0250216e+3, 2.0506138e+2, -1032362.4, -980770.56, 53204.96, 0.0076807765, 0.14226915, -947437.8, -17031.135, 0.0, 9.999279, 9.999977 
1.0250144e+3, 2.1506044e+2, -829898.2, -842861.2, 20578.73, -0.07053499, 0.024292558, -814804.4, 17609.092, 0.0, 10.000037, 9.999888 
1.0250082e+3, 2.2506036e+2, -706773.0, -764522.56, 18621.213, -0.04667467, 0.0503601, -701289.4, 33123.668, 0.0, 10.000345, 9.999594 
1.0250028e+3, 2.3506077e+2, -647453.4, -692681.8, -10146.481, 0.06390074, 0.10066059, -645281.44, -8872.511, 0.0, 10.000116, 9.999525 
1.02499545e+3, 2.4506047e+2, -581952.75, -680703.6, -13070.038, -0.0033151621, 0.15679063, -580252.1, -41839.926, 0.0, 10.000206, 9.998881 
1.02498636e+3, 2.550591e+2, -434392.06, -568265.0, -32699.85, -0.24648866, 0.09998264, -426831.75, 13594.733, 0.0, 10.000574, 9.998812 
1.0249799e+3, 2.650577e+2, -313402.4, -500696.5, -18919.479, -0.21547365, 0.10838869, -311510.38, 30929.232, 0.00000001218603, 10.00092, 9.998436 
1.0249761e+3, 2.75056e+2, -173936.55, -384551.13, -40508.875, 0.092674434, 0.059392195, -166413.89, 78040.96, 0.0000027111198, 10.001213, 9.998418 
1.0249702e+3, 2.8505427e+2, -114218.54, -443910.03, 12377.767, 0.14221713, 0.1112614, -113754.484, 32719.238, 0.00003356842, 10.00153, 9.997192 
1.0249621e+3, 2.950521e+2, 11380.387, -343471.7, 18042.705, -0.057867475, 0.14037603, 12295.422, 60795.19, 0.00015737157, 10.001746, 9.9971075 
1.0249551e+3, 3.05049e+2, 159054.5, -80082.43, 5193.833, -0.107282974, 0.055131968, 159167.25, 159167.25, 0.00043278775, 10.001758, 9.99857 
1.0249508e+3, 3.150478e+2, 187335.2, 80342.74, -56765.266, 0.16552585, 0.03432472, 211839.89, 211839.89, 0.00085735595, 10.001207, 9.999947 
1.0350642e+3, 1.2506498e+2, -2006294.5, -1928834.8, 64013.875, -0.13353138, 0.07841883, -1892746.4, -178380.28, 0.00027553758, 9.998228, 9.999365 
1.0350612e+3, 1.3506453e+2, -1688349.3, -1755198.3, 67865.86, 0.010178492, 0.08703127, -1646123.5, -29748.297, 0.000106410545, 9.999949, 9.999054 
1.0350563e+3, 1.4506464e+2, -1478344.9, -1400758.1, -36651.97, 0.052027576, 0.11453418, -1386182.1, 132194.06, 0.000017580353, 9.999795, 10.000886 
1.0350488e+3, 1.550659e+2, -1638053.5, -1429557.4, 48200.84, -0.08519449, 0.107784614, -1418953.5, 1410.0803, 0.00000023822265, 9.998039, 10.000863 
1.0350423e+3, 1.6506688e+2, -1579862.4, -1329746.5, 62304.44, -0.12298274, 0.12033572, -1315085.8, 7266.037, 0.0, 9.9977255, 10.001 
1.0350373e+3, 1.750674e+2, -1287641.1, -1143433.8, 81828.16, -0.03092889, 0.0392521, -1106474.3, 117869.01, 0.0, 9.9990835, 10.000954 
1.0350318e+3, 1.8506794e+2, -1187061.4, -1154482.3, 85630.8, -0.000815854, 0.051855262, -1083605.4, 42731.418, 0.0, 9.99953, 10.000009 
1.0350261e+3, 1.9506809e+2, -1166727.0, -1100749.8, 97443.87, -0.034999516, 0.03308628, -1030861.94, -2525.4875, 0.0, 9.999028, 9.9999485 
1.03502065e+3, 2.0506817e+2, -1084635.6, -1045140.75, 63260.273, -0.045456503, 0.071040615, -998617.4, -68281.52, 0.0, 9.999084, 9.99963 
1.0350151e+3, 2.1506774e+2, -875491.56, -901967.25, 67307.49, -0.024503238, 0.037356976, -820132.5, 12206.711, 0.0, 9.999874, 9.999565 
1.0350092e+3, 2.2506675e+2, -765810.1, -834870.6, -6147.8164, -0.0038381277, 0.005668883, -765267.06, -30919.104, 0.0, 10.000129, 9.999212 
1.0350027e+3, 2.3506491e+2, -704856.4, -760999.4, -2606.1055, 0.016523289, -0.13212259, -704735.6, -68370.89, 0.0, 9.999901, 9.999156 
1.034996e+3, 2.4506426e+2, -622052.4, -712324.75, -11483.649, -0.0012507366, -0.08752495, -620614.44, -82242.555, 0.0, 9.999988, 9.998769 
1.0349891e+3, 2.5506443e+2, -466970.84, -592473.56, 1555.0181, -0.05339628, 0.017960805, -466951.6, -26579.02, 0.0, 10.000394, 9.998728 
1.0349824e+3, 2.650633e+2, -340831.22, -526087.2, -24266.945, -0.07907468, 0.058799937, -337705.22, 4679.117, 0.00000000560088, 10.000785, 9.998326 
1.03497595e+3, 2.750604e+2, -206725.55, -412261.66, -10152.428, -0.076574855, -0.09584773, -206225.3, 38186.207, 0.0000022721786, 10.001051, 9.9983015 
1.03497006e+3, 2.8505918e+2, -81693.74, -349132.16, 5076.285, -0.0532079, -0.021460533, -81597.43, 64826.94, 0.000031172072, 10.001411, 9.997901 
1.0349645e+3, 2.950594e+2, 37463.9, -253439.16, 53097.246, -0.028708095, 0.17128676, 46852.496, 95277.5, 0.00015322318, 10.001594, 9.9978 
1.0349579e+3, 3.0505654e+2, 74187.32, -225675.67, -23864.672, -0.03787613, 0.12659417, 76074.71, 76074.71, 0.00043103905, 10.001636, 9.997623 
1.0349514e+3, 3.150537e+2, 64679.168, -101756.51, -27949.414, 0.021799149, 0.037199832, 69247.31, 69247.31, 0.00086192216, 10.000932, 9.998813 
1.04506396e+3, 1.2507196e+2, -1784859.1, -1868550.3, -12909.92, -0.05384536, 0.04530121, -1782912.9, -68618.62, 0.0003338259, 9.99992, 9.998975 
1.04506075e+3, 1.3507143e+2, -1893936.0, -1901982.5, 125211.95, 0.06115719, 0.08602779, -1772682.8, -156374.47, 0.00013404706, 9.998709, 9.998655 
1.0450552e+3, 1.4507176e+2, -1667365.9, -1426949.3, 87457.59, 0.06055609, 0.12660281, -1398500.6, 119806.84, 0.000024406929, 9.998241, 10.001436 
1.04504764e+3, 1.550732e+2, -1478755.8, -1283230.4, 47245.246, -0.041392572, 0.08392774, -1272412.9, 147877.05, 0.0000004785213, 9.99887, 10.001447 
1.0450414e+3, 1.6507433e+2, -1383179.8, -1276864.8, 89889.96, -0.06503796, 0.09926241, -1225590.9, 96685.26, 0.0, 9.999234, 10.000655 
1.04503684e+3, 1.7507488e+2, -1265375.9, -1173410.6, 48773.855, 0.009597503, 0.055341877, -1152361.1, 71907.88, 0.0, 9.999391, 10.000615 
1.0450315e+3, 1.8507507e+2, -1189631.3, -1170218.3, 41749.535, 0.016047373, 0.059533514, -1137061.8, -10795.534, 0.0, 9.999592, 9.999864 
1.0450254e+3, 1.950746e+2, -1049585.9, -1058839.1, 16306.953, -0.048293576, -0.006930748, -1037261.94, -8991.006, 0.0, 9.999906, 9.999807 
1.04502015e+3, 2.0507458e+2, -967043.5, -984272.0, 41042.707, -0.034273148, 0.025255108, -933720.8, -3449.6533, 0.0, 9.999872, 9.999661 
1.0450156e+3, 2.1507463e+2, -940787.9, -924755.25, 38767.39, 0.05900891, 0.031789087, -893184.0, -60913.277, 0.0, 9.999404, 9.999622 
1.0450098e+3, 2.2507383e+2, -867323.5, -891367.94, 20365.56, 0.08383662, 0.019130394, -855696.44, -121418.36, 0.0, 9.99945, 9.999164 
1.0450028e+3, 2.3507181e+2, -695258.56, -764341.8, 13583.974, 0.040580727, -0.1284397, -692683.5, -56387.008, 0.0, 9.999978, 9.999111 
1.0449962e+3, 2.4507089e+2, -577344.4, -706249.25, 56218.813, 0.02107063, -0.10002348, -556270.94, -17964.764, 0.0, 10.000348, 9.998649 
1.04499035e+3, 2.5507078e+2, -448754.84, -594944.44, 34720.85, 0.03136211, -0.012329904, -440927.53, -617.5308, 0.0, 10.0005665, 9.9986315 
1.044984e+3, 2.650697e+2, -320977.53, -504891.47, 45670.65, 0.0067631383, 0.034239262, -310260.78, 32060.547, 0.0000000009945924, 10.0008545, 9.998457 
1.0449773e+3, 2.7506715e+2, -189375.7, -396609.94, 44338.266, -0.04608369, -0.0957405, -180287.95, 64057.527, 0.0000020282196, 10.001093, 9.998412 
1.0449714e+3, 2.8506604e+2, -64329.67, -298601.2, 91424.5, -0.047736812, -0.03278848, -32874.633, 113481.18, 0.00002862313, 10.001352, 9.998273 
1.0449663e+3, 2.9506627e+2, 64754.74, -190696.22, 72153.47, 0.0027944767, 0.119262464, 83725.96, 132079.6, 0.00014660136, 10.001583, 9.998226 
1.04495995e+3, 3.0506346e+2, 95191.57, -276936.84, 26803.564, 0.0073936353, 0.081592366, 97112.26, 97112.26, 0.00042212423, 10.002034, 9.997079 
1.0449535e+3, 3.1506044e+2, 214702.58, -112141.69, -13981.842, 0.08846774, 0.032607414, 215299.61, 215299.61, 0.00085377786, 10.002276, 9.99811 
1.0550657e+3, 1.2507734e+2, -1645841.9, -1575110.9, -109359.42, 0.053202253, -0.019288445, -1495540.8, 218702.83, 0.00039971265, 9.999911, 10.000985 
1.055059e+3, 1.3507845e+2, -1759758.6, -1614364.8, 95408.72, -0.027852464, -0.01051898, -1567113.0, 49120.977, 0.00016604259, 9.998678, 10.00064 
1.0550519e+3, 1.450794e+2, -1711867.6, -1516016.8, 87407.586, -0.15453452, 0.023973914, -1482681.0, 35543.504, 0.000032768716, 9.998225, 10.000834 
1.05504625e+3, 1.5508026e+2, -1526789.5, -1380081.6, 85112.8, -0.09551964, -0.019470999, -1341074.6, 79140.25, 0.0000008393984, 9.99885, 10.000795 
1.0550409e+3, 1.6508107e+2, -1435021.4, -1375746.1, 76799.47, -0.06715869, 0.029801667, -1323063.9, -857.38434, 0.0, 9.999198, 9.99999 
1.0550361e+3, 1.7508143e+2, -1315141.9, -1271681.3, 70096.945, -0.037467737, 0.03328606, -1220023.6, 4179.9756, 0.0, 9.999368, 9.99995 
1.05503075e+3, 1.8508136e+2, -1219066.5, -1205889.3, 33249.133, -0.058363546, 0.05370565, -1178582.3, -52377.574, 0.0, 9.999481, 9.999673 
1.0550248e+3, 1.9508058e+2, -1079230.6, -1093763.0, 44212.215, -0.13309361, -0.026890483, -1041691.5, -13479.046, 0.0, 9.999784, 9.999628 
1.05501965e+3, 2.0508064e+2, -965841.9, -940378.75, 4342.5215, -0.091786414, 0.0022089272, -939658.56, -9446.6045, 0.0, 9.999692, 10.000053 
1.05501525e+3, 2.1508108e+2, -942643.06, -885484.6, 36106.45, 0.060095094, 0.0099658985, -868015.56, -35807.83, 0.0, 9.999208, 9.999992 
1.0550095e+3, 2.250815e+2, -885675.06, -874655.4, 24984.32, 0.0903015, 0.08981215, -854580.56, -120376.805, 0.0, 9.99922, 9.999382 
1.0550026e+3, 2.3508146e+2, -709321.8, -743717.44, 49737.19, 0.0043093394, 0.1149376, -673893.06, -37689.3, 0.0, 9.999768, 9.999348 
1.05499595e+3, 2.4508047e+2, -616326.94, -742157.9, 46624.625, -0.07195634, 0.13017541, -600934.0, -62719.79, 0.0, 10.000156, 9.998493 
1.0549895e+3, 2.550782e+2, -486326.0, -631038.6, 56834.04, -0.13596992, 0.015321812, -466673.9, -26435.787, 0.0, 10.000387, 9.998468 
1.0549841e+3, 2.6507694e+2, -321440.56, -466196.47, 39179.95, -0.094401866, 0.03605663, -311516.44, 30734.17, 0.000000000012280949, 10.0006895, 9.998795 
1.05497964e+3, 2.750764e+2, -188144.97, -355363.8, 75707.69, 0.040945873, 0.06455853, -158961.7, 85293.39, 0.0000016155456, 10.000932, 9.998766 
1.0549739e+3, 2.8507513e+2, -81767.61, -304849.0, 85947.266, 0.024004877, 0.095812686, -52495.453, 93769.69, 0.000025306648, 10.001225, 9.998294 
1.0549669e+3, 2.950728e+2, 43945.215, -202442.97, 107930.3, -0.13209055, -0.008678401, 84536.76, 132821.64, 0.00013793015, 10.00145, 9.998215 
1.0549609e+3, 3.0506957e+2, 72513.42, -299790.6, 30186.697, -0.13414668, -0.07841182, 74945.1, 74945.1, 0.00040720604, 10.001928, 9.996972 
1.0549562e+3, 3.150681e+2, 157642.94, -173461.05, 48195.453, 0.05595221, 0.034830634, 164515.61, 164515.61, 0.0008331317, 10.002035, 9.997805 
1.0650654e+3, 1.250843e+2, -1776933.5, -1609618.9, 1363.297, 0.10222048, -0.030813705, -1609607.8, 104567.05, 0.00047318285, 9.998919, 10.001223 
1.0650581e+3, 1.3508564e+2, -1705138.4, -1551376.8, 285.27646, 0.01444431, -0.025081538, -1551376.3, 64785.91, 0.00020250746, 9.998924, 10.000947 
1.0650501e+3, 1.4508663e+2, -1645161.8, -1531780.4, 20204.76, -0.17991905, 0.016939789, -1528287.5, -10135.083, 0.000042863663, 9.998876, 10.000425 
1.06504545e+3, 1.5508701e+2, -1507245.8, -1414381.5, -9010.77, -0.076858826, -0.031152923, -1413515.3, 6632.5234, 0.0000013547858, 9.999166, 10.000414 
1.0650403e+3, 1.6508745e+2, -1425123.0, -1386420.3, 40160.336, -0.04402239, 0.0069839577, -1361192.1, -39048.78, 0.0, 9.999327, 9.999861 
1.0650353e+3, 1.7508759e+2, -1325258.3, -1289950.8, 34987.66, -0.04717013, 0.0051795356, -1268415.3, -44272.6, 0.0, 9.999357, 9.999837 
1.0650302e+3, 1.8508749e+2, -1237830.4, -1206454.0, 66080.0, -0.05008145, 0.022870341, -1154225.5, -28081.809, 0.0, 9.999304, 9.999758 
1.0650249e+3, 1.9508684e+2, -1156038.3, -1122768.3, 63919.51, -0.06322596, -0.053241786, -1073354.6, -45205.2, 0.0, 9.999211, 9.999709 
1.06501974e+3, 2.050869e+2, -1002282.4, -984463.9, 42802.035, -0.035887923, -0.015260321, -949653.7, -19504.316, 0.0, 9.999564, 9.999806 
1.06501475e+3, 2.1508735e+2, -785697.94, -833369.9, -10445.694, 0.03624341, 0.017326199, -783509.56, 48637.484, 0.0, 10.0004, 9.999769 
1.0650093e+3, 2.2508784e+2, -681078.06, -773853.1, -21863.48, 0.07434951, 0.11329077, -676183.8, 57959.645, 0.0, 10.000607, 9.999409 
1.0650033e+3, 2.3508796e+2, -648327.25, -707497.9, -41359.434, 0.08690532, 0.15297733, -627060.9, 9081.308, 0.0, 10.000162, 9.999402 
1.0649967e+3, 2.4508715e+2, -614509.2, -700445.25, 944.38763, 0.011752381, 0.16228068, -614498.8, -76348.66, 0.0, 9.999982, 9.998866 
1.0649895e+3, 2.5508493e+2, -511278.8, -608160.0, 17030.838, -0.1502064, 0.023257101, -508372.16, -68200.87, 0.0, 10.000043, 9.998805 
1.0649843e+3, 2.650838e+2, -361163.88, -475084.94, 50375.46, -0.119947776, 0.034295578, -342083.72, 98.18946, 0.0, 10.000371, 9.9988785 
1.0649809e+3, 2.7508348e+2, -194043.94, -342040.53, 21549.533, 0.102603756, 0.07815706, -190970.0, 53214.3, 0.00000091217555, 10.000839, 9.998892 
1.0649757e+3, 2.8508222e+2, -74108.35, -308973.78, 54837.742, 0.09699377, 0.10127882, -61935.43, 84259.664, 0.000020761427, 10.001299, 9.998237 
1.0649686e+3, 2.9507947e+2, 85626.28, -189872.72, 35075.95, -0.1167141, -0.03781509, 90021.945, 138241.39, 0.00012637535, 10.00174, 9.998167 
1.06496304e+3, 3.050765e+2, 145901.64, -213528.27, 15060.045, -0.12177339, -0.10318248, 146531.55, 146531.55, 0.00038601994, 10.00221, 9.997422 
1.0649591e+3, 3.1507558e+2, 241342.84, -80837.67, 13670.622, 0.13919552, 0.013726594, 241921.88, 241921.88, 0.0008001297, 10.002393, 9.99825 
1.0750626e+3, 1.2509254e+2, -1890260.0, -1833139.1, -4323.8096, -0.14971004, -0.019985968, -1832813.8, -118722.664, 0.00055371417, 9.998893, 9.999689 
1.0750574e+3, 1.3509305e+2, -1812506.9, -1763966.3, 7350.2217, 0.024425114, 0.046481796, -1762877.6, -146785.53, 0.00024334127, 9.998895, 9.9994955 
1.0750492e+3, 1.4509344e+2, -1654318.4, -1557243.8, 4414.6963, -0.19178133, 0.11104215, -1557043.4, -38953.02, 0.00005483326, 9.998887, 10.000253 
1.0750443e+3, 1.5509348e+2, -1515489.3, -1436013.3, 18095.564, -0.13520166, 0.042026516, -1432087.1, -11998.85, 0.000002073113, 9.999173, 10.000267 
1.0750392e+3, 1.6509357e+2, -1408476.8, -1335479.3, 20960.854, -0.13014303, 0.034448456, -1329888.6, -7802.89, 0.0000000000166348, 9.999267, 10.000235 
1.0750339e+3, 1.750934e+2, -1306524.5, -1235451.8, 53250.066, -0.14482917, -0.040156707, -1206969.4, 17116.41, 0.0, 9.999295, 10.000236 
1.0750293e+3, 1.850935e+2, -1231717.5, -1166412.6, 45235.707, -0.09346981, -0.038150273, -1143275.8, -17192.941, 0.0, 9.999191, 10.000085 
1.0750253e+3, 1.950934e+2, -1154331.9, -1082315.8, 75036.77, 0.019943763, -0.09178156, -1035094.6, -7013.431, 0.0, 9.999061, 10.000054 
1.07502e+3, 2.0509344e+2, -1093677.8, -1136606.1, 53450.08, 0.0017935935, -0.0239438, -1057543.1, -127460.625, 0.0, 9.999397, 9.998849 
1.0750136e+3, 2.1509333e+2, -878641.94, -980785.06, 35510.07, -0.14577535, 0.04312276, -867510.06, -35420.473, 0.0, 10.000197, 9.998858 
1.0750084e+3, 2.2509275e+2, -723034.0, -803334.5, -53526.094, -0.090433925, 0.084498264, -696273.2, 37824.664, 0.0, 10.000362, 9.999324 
1.0750045e+3, 2.350914e+2, -687816.5, -735486.94, -37715.785, 0.15691693, -0.018631797, -667035.6, -30924.768, 0.0, 9.999932, 9.999321 
1.0749983e+3, 2.4509096e+2, -592149.3, -599569.06, -10265.129, 0.13815393, -0.0057569123, -584944.25, -46830.777, 0.0, 9.999756, 9.999661 
1.07498996e+3, 2.5509098e+2, -476918.66, -496855.6, 38623.2, -0.14069021, -0.0044359267, -446998.28, -6888.52, 0.0, 9.999874, 9.999644 
1.0749842e+3, 2.6509026e+2, -407284.84, -526216.44, 51511.973, -0.18615769, 0.018630093, -388076.22, -45960.83, 0.000000000031670343, 10.000187, 9.998619 
1.0749811e+3, 2.7508843e+2, -237905.88, -397735.03, 61936.79, -0.008671532, -0.06501117, -216714.05, 27419.934, 0.00000057346807, 10.000689, 9.998588 
1.07497655e+3, 2.850873e+2, -95052.2, -326364.1, 53939.043, 0.01677043, -0.008770508, -83092.64, 63053.59, 0.000016841232, 10.001188, 9.998165 
1.0749708e+3, 2.9508644e+2, 61049.285, -204353.27, 76506.02, -0.10577307, 0.04891213, 81523.73, 129679.05, 0.000114238224, 10.001586, 9.99814 
1.0749658e+3, 3.0508435e+2, 196524.45, -85873.42, 17046.219, -0.09754027, 0.022198463, 197549.67, 197549.67, 0.0003625103, 10.002112, 9.998345 
1.0749612e+3, 3.150826e+2, 271375.06, 23118.578, 81399.57, 0.029206144, -0.035804942, 295684.4, 295684.4, 0.00076317973, 10.002211, 9.999058 
1.0850607e+3, 1.2509903e+2, -1986491.1, -1909668.1, -27444.73, -0.18670644, 0.0001839227, -1900871.0, -186841.81, 0.00064071716, 9.998312, 9.999467 
1.08505726e+3, 1.3509946e+2, -1776578.5, -1767059.0, -33571.098, 0.1192313, 0.073143005, -1737911.9, -121881.28, 0.00028839763, 9.999196, 9.999344 
1.0850492e+3, 1.4509965e+2, -1629508.8, -1534401.4, 44099.984, -0.08450977, 0.1225665, -1517100.1, 930.27997, 0.00006873226, 9.999057, 10.0003 
1.08504355e+3, 1.5509969e+2, -1624363.5, -1482984.3, 26932.303, -0.079155475, 0.051109605, -1478027.5, -57999.33, 0.0000030594845, 9.998429, 10.000289 
1.0850383e+3, 1.6509984e+2, -1510258.5, -1384677.3, 80112.45, -0.09638476, 0.04621041, -1345680.5, -23655.5, 0.000000000186287, 9.998558, 10.00024 
1.0850334e+3, 1.7509978e+2, -1283951.0, -1227642.4, 46468.18, -0.12279853, -0.018052056, -1201464.8, 22559.373, 0.0, 9.999448, 10.000217 
1.08502895e+3, 1.8509988e+2, -1134266.0, -1123451.1, 26372.86, -0.06736806, -0.012511985, -1101937.0, 24084.102, 0.0, 9.999877, 10.000058 
1.085025e+3, 1.950998e+2, -1044974.94, -1031527.4, -4890.13, 0.062217604, -0.059618637, -1029937.2, -1917.8914, 0.0, 9.999835, 10.000031 
1.0850199e+3, 2.0509979e+2, -1035435.06, -1086825.6, 51021.47, 0.051170997, -0.0062510623, -1004003.8, -73983.45, 0.0, 9.999715, 9.999027 
1.0850138e+3, 2.1509944e+2, -967403.2, -1007199.3, 77830.6, -0.10032442, 0.021882055, -906967.4, -74939.05, 0.0, 9.999526, 9.998998 
1.0850087e+3, 2.2509877e+2, -824540.75, -856549.75, 51234.297, -0.0639539, 0.049698092, -786869.4, -52831.652, 0.0, 9.999686, 9.9992895 
1.08500436e+3, 2.3509748e+2, -656965.2, -726538.7, 29331.752, 0.15264003, -0.040195815, -646249.5, -10197.83, 0.0, 10.000166, 9.999279 
1.08499855e+3, 2.4509712e+2, -471309.0, -551781.56, 65430.617, 0.1556856, -0.011835315, -434733.0, 103320.836, 0.0, 10.000612, 9.999597 
1.08499125e+3, 2.5509733e+2, -337488.63, -436825.3, 17275.816, -0.04446321, 0.014426705, -334569.9, 105478.08, 0.0, 10.000862, 9.999593 
1.0849857e+3, 2.650964e+2, -320362.72, -509080.3, 32259.223, -0.08727249, 0.032392163, -315000.7, 27054.8, 0.000000020287489, 10.000886, 9.998393 
1.0849819e+3, 2.75094e+2, -249817.88, -429753.6, 5297.1323, 0.02395602, -0.08652581, -249662.08, -5581.9043, 0.0000009682407, 10.000709, 9.998355 
1.08497754e+3, 2.850929e+2, -150267.75, -325456.84, 51103.68, 0.03250176, -0.02389223, -136450.31, 9641.957, 0.000016002106, 10.000703, 9.998401 
1.08497255e+3, 2.9509285e+2, -49103.34, -223048.2, 49911.977, -0.03844735, 0.08526269, -35799.105, 12295.455, 0.00010691048, 10.000697, 9.998433 
1.0849683e+3, 3.0509105e+2, 150330.97, -78195.98, 46479.113, -0.02448681, 0.06492345, 159422.47, 159422.47, 0.00034615427, 10.001676, 9.998628 
1.08496435e+3, 3.150893e+2, 448711.53, 133191.06, 218.68034, 0.08145483, -0.014432294, 448711.7, 448711.7, 0.00073994894, 10.003344, 9.999282 
1.09505944e+3, 1.2510383e+2, -1900952.1, -1724001.5, 29141.553, -0.215228, 0.021964684, -1719325.8, -5337.112, 0.000734217, 9.998275, 10.000761 
1.0950571e+3, 1.3510513e+2, -1685811.1, -1588080.8, 8970.713, 0.15305607, 0.056106992, -1587264.1, 28710.943, 0.00033773432, 9.999221, 10.0005665 
1.0950493e+3, 1.4510535e+2, -1626217.6, -1519318.4, -3069.8389, -0.020713635, 0.042527687, -1519230.4, -1258.6663, 0.0000845864, 9.999027, 10.000416 
1.0950426e+3, 1.5510562e+2, -1626397.1, -1470519.3, 21018.525, -0.05429652, -0.01414302, -1467734.8, -47767.35, 0.0000043925156, 9.998371, 10.000399 
1.0950374e+3, 1.6510627e+2, -1537316.0, -1438503.3, 92990.14, -0.09075106, 0.04312111, -1382609.4, -60648.195, 0.0000000006358386, 9.998537, 9.999886 
1.0950333e+3, 1.7510673e+2, -1309819.9, -1280610.8, 96441.78, -0.114464596, 0.06656293, -1197674.0, 26283.953, 0.0, 9.9994335, 9.999866 
1.0950288e+3, 1.851068e+2, -1173744.3, -1187075.6, 4649.622, -0.11028798, 0.10640843, -1172282.8, -46325.44, 0.0, 9.999802, 9.999654 
1.0950238e+3, 1.9510618e+2, -1091013.9, -1092670.9, 10754.543, -0.070391186, 0.043310247, -1081055.9, -53093.82, 0.0, 9.999693, 9.999677 
1.0950193e+3, 2.0510593e+2, -974394.0, -924794.6, 25927.896, -0.020845646, 0.02848045, -913715.6, 16247.391, 0.0, 9.999553, 10.000222 
1.0950149e+3, 2.1510565e+2, -910005.4, -846479.8, 87043.0, 0.035287146, -0.055516306, -785585.4, 46378.31, 0.0, 9.99934, 10.000193 
1.0950094e+3, 2.2510582e+2, -869166.56, -895267.8, 50397.734, 0.01786864, 0.003994568, -830157.1, -96193.48, 0.0, 9.999456, 9.999132 
1.0950026e+3, 2.3510599e+2, -701023.75, -764887.06, 63420.957, -0.06934777, 0.07282927, -661949.44, -25982.549, 0.0, 9.999937, 9.999125 
1.0949971e+3, 2.4510548e+2, -565683.44, -692040.25, 57769.87, -0.07553013, 0.136153, -543253.06, -5279.9155, 0.0, 10.000381, 9.99874 
1.0949928e+3, 2.5510395e+2, -427565.25, -575204.44, 45849.305, -0.00005691189, 0.07421353, -414485.53, 25500.057, 0.0, 10.000659, 9.998736 
1.09498814e+3, 2.651024e+2, -367652.9, -559520.7, 12984.773, 0.04491927, 0.082329676, -366778.13, -24777.857, 0.00000010014453, 10.000686, 9.998141 
1.0949834e+3, 2.751003e+2, -287308.88, -474214.63, 23379.182, 0.055564888, 0.019960104, -284428.84, -40406.87, 0.0000018117424, 10.000564, 9.998122 
1.0949783e+3, 2.8509897e+2, -138118.55, -267148.38, 34209.246, 0.0011196621, 0.047213, -129609.85, 16425.115, 0.000017402066, 10.000565, 9.998862 
1.09497316e+3, 2.9509822e+2, -38687.52, -168847.14, 71681.945, -0.09408468, 0.03547266, -6949.547, 41091.73, 0.00010435712, 10.000555, 9.998873 
1.0949699e+3, 3.0509648e+2, 97786.63, -152364.14, 94591.08, -0.0620495, 0.019179596, 129527.46, 129527.46, 0.00033796718, 10.001539, 9.9981785 
1.09496765e+3, 3.1509537e+2, 377986.16, 36221.27, 115557.73, 0.006531793, 0.053821143, 413390.9, 413390.9, 0.00073108607, 10.003128, 9.998722 
1.1050591e+3, 1.2510943e+2, -1873617.6, -1638840.0, 186884.73, -0.06050212, 0.064517885, -1535534.4, 178401.23, 0.00083503575, 9.998189, 10.001346 
1.1050549e+3, 1.3511074e+2, -1811002.4, -1585125.5, -4688.7407, 0.07593251, 0.038380485, -1585028.3, 30891.318, 0.0003918232, 9.998108, 10.0011015 
1.105048e+3, 1.4511102e+2, -1723088.3, -1575666.1, -14471.637, -0.011466791, 0.0050083646, -1574259.0, -56344.363, 0.000102570426, 9.99836, 10.000377 
1.1050417e+3, 1.5511157e+2, -1510712.5, -1422516.9, -33951.914, -0.01079959, -0.019697145, -1410960.9, 8947.653, 0.0000061708192, 9.999158, 10.000367 
1.1050367e+3, 1.651122e+2, -1417415.9, -1388954.9, 97498.09, -0.033378873, 0.041999742, -1304654.3, 17248.428, 0.0000000015512864, 9.9994135, 9.999788 
1.1050332e+3, 1.7511249e+2, -1324556.5, -1291653.0, 80608.445, -0.056731474, 0.05368943, -1225834.6, -1933.6237, 0.0, 9.999377, 9.999799 
1.1050287e+3, 1.8511254e+2, -1217212.3, -1205811.9, 34734.445, -0.06989699, 0.0924931, -1176313.0, -50412.176, 0.0, 9.9995, 9.999666 
1.1050233e+3, 1.9511195e+2, -1079518.0, -1085171.1, 34558.586, -0.078110136, 0.0301298, -1047670.56, -19764.713, 0.0, 9.999762, 9.999693 
1.1050189e+3, 2.0511179e+2, -922710.9, -880380.9, 54721.453, -0.01128381, 0.017434975, -842873.94, 87031.4, 0.0, 9.999818, 10.000405 
1.1050153e+3, 2.1511175e+2, -836793.56, -792255.25, 3545.0754, 0.122419, -0.060165945, -791974.9, 39927.875, 0.0, 9.999749, 10.000373 
1.1050098e+3, 2.2511207e+2, -803689.7, -883615.1, -12945.939, 0.08857633, 0.013904678, -801645.06, -67743.85, 0.0, 9.999995, 9.998945 
1.1050025e+3, 2.3511237e+2, -627104.0, -748801.1, -35549.074, -0.10419364, 0.11420098, -617480.7, 18423.605, 0.0, 10.000538, 9.998938 
1.1049972e+3, 2.4511161e+2, -516815.28, -688823.3, 3478.9543, -0.11608755, 0.17344615, -516744.94, 21168.318, 0.0, 10.00082, 9.998536 
1.10499404e+3, 2.5510955e+2, -409391.22, -587067.0, -4044.7656, 0.053859755, 0.07563259, -409299.2, 30631.781, 0.0, 10.00088, 9.998532 
1.1049899e+3, 2.6510778e+2, -299947.13, -535586.4, 26376.7, 0.13114549, 0.077511, -297030.72, 44916.5, 0.00000018749917, 10.001179, 9.99808 
1.10498495e+3, 2.7510592e+2, -144816.48, -409501.22, 13451.8545, 0.123329505, 0.047712553, -144134.6, 99831.48, 0.0000025365616, 10.001568, 9.998085 
1.10497974e+3, 2.851044e+2, -650.98114, -241526.03, 33307.777, 0.047378376, 0.07358377, 3869.9087, 149851.17, 0.000019295574, 10.001671, 9.998523 
1.1049744e+3, 2.9510295e+2, 58134.63, -163511.7, -30767.21, -0.061573587, 0.035260145, 62326.227, 110321.016, 0.00010487227, 10.001392, 9.998519 
1.1049717e+3, 3.0510107e+2, 105905.85, -149112.33, 61218.805, -0.011172005, 0.019824645, 119840.43, 119840.43, 0.00033641586, 10.001554, 9.998196 
1.1049713e+3, 3.1510034e+2, 160412.48, -54823.72, 58848.01, 0.15097049, 0.077403605, 175451.4, 175451.4, 0.0007307893, 10.001566, 9.99883 
1.11505836e+3, 1.251163e+2, -1887704.5, -1668214.0, 146553.11, -0.038742717, 0.13284421, -1594869.6, 118995.945, 0.000944546, 9.998196, 10.001145 
1.1150502e+3, 1.3511632e+2, -1836268.0, -1639724.8, 6935.3037, -0.24790378, 0.020954276, -1639480.3, -23616.818, 0.00045159098, 9.998109, 10.000735 
1.1150448e+3, 1.4511666e+2, -1723185.8, -1572380.1, -9815.294, -0.21754101, 0.008360136, -1571744.0, -53884.55, 0.00012308804, 9.998353, 10.000399 
1.11504056e+3, 1.5511775e+2, -1515383.3, -1427548.9, 10361.734, -0.08990078, 0.03752043, -1426343.1, -6493.908, 0.000008505592, 9.999144, 10.0003395 
1.1150362e+3, 1.6511789e+2, -1413781.6, -1375472.0, 73969.445, -0.0694841, 0.048551, -1318217.5, 3629.573, 0.0000000033697685, 9.999379, 9.999906 
1.1150326e+3, 1.7511709e+2, -1318365.4, -1273319.9, 95246.31, -0.08754358, -0.05741422, -1197969.6, 25883.092, 0.0, 9.999341, 9.999954 
1.1150283e+3, 1.8511702e+2, -1198268.6, -1150140.4, 25948.918, -0.09228532, -0.059754826, -1138814.8, -12962.853, 0.0, 9.999428, 10.000084 
1.1150232e+3, 1.9511716e+2, -1074773.4, -1041415.1, 58585.07, -0.103347674, -0.0896633, -997181.2, 30668.42, 0.0, 9.99962, 10.000059 
1.1150186e+3, 2.0511752e+2, -1004645.75, -1014537.2, 29264.383, -0.06276554, -0.024902444, -979912.1, -50066.07, 0.0, 9.999663, 9.999555 
1.11501426e+3, 2.151177e+2, -929333.4, -932088.7, 17951.998, 0.025749194, -0.0012758293, -912706.25, -80860.68, 0.0, 9.999526, 9.999517 
1.1150093e+3, 2.2511752e+2, -848092.94, -925500.75, -9236.531, 0.0135638835, 0.07699365, -847006.1, -113155.914, 0.0, 9.9997835, 9.998759 
1.11500345e+3, 2.3511675e+2, -672794.0, -789720.3, 1873.5986, -0.083044745, 0.087981254, -672764.0, -36901.47, 0.0, 10.00031, 9.998767 
1.1149984e+3, 2.4511567e+2, -522591.84, -653769.9, -9308.452, -0.099619135, 0.10421501, -521934.63, 15938.448, 0.0, 10.000612, 9.998878 
1.1149943e+3, 2.551139e+2, -412604.38, -554348.1, 17963.373, -0.03448535, 0.0035585435, -410363.28, 29522.37, 0.0, 10.000704, 9.998844 
1.1149903e+3, 2.651124e+2, -315690.3, -529647.94, 23783.168, 0.020889765, 0.010118414, -313078.5, 28819.594, 0.00000020790911, 10.001013, 9.998198 
1.1149863e+3, 2.7511075e+2, -155654.9, -399215.3, 49895.195, 0.06864895, -0.015739715, -145829.84, 98084.26, 0.0000030041283, 10.001421, 9.998225 
1.11498155e+3, 2.8510922e+2, -109558.11, -422736.2, 7203.816, 0.029551977, 0.060711008, -109392.5, 36538.38, 0.000021785861, 10.001491, 9.99736 
1.1149757e+3, 2.951073e+2, -47105.742, -343925.16, -10762.341, -0.10684474, 0.09093934, -46716.023, 1237.1578, 0.00010887074, 10.001233, 9.9973545 
1.1149735e+3, 3.0510497e+2, 116324.6, -94028.73, 54155.17, -0.017699704, 0.06814173, 129448.03, 129448.03, 0.00034133886, 10.001415, 9.998638 
1.1149741e+3, 3.151038e+2, 160040.16, -6899.7773, 126648.54, 0.20342934, 0.034749083, 228251.06, 228251.06, 0.0007375019, 10.001353, 9.999264 
1.1250575e+3, 1.251206e+2, -2038153.3, -1720332.1, 42993.07, 0.12834546, 0.108105294, -1714619.0, -795.3196, 0.0010643419, 9.997071, 10.001347 
1.1250477e+3, 1.3512118e+2, -1848892.5, -1625081.4, -80691.88, -0.27817696, 0.039009, -1599023.0, 16793.686, 0.00051804923, 9.997936, 10.000925 
1.1250439e+3, 1.4512196e+2, -1720139.3, -1577561.1, -19666.223, -0.12417923, 0.062952265, -1574898.3, -57089.145, 0.00014661087, 9.998409, 10.000327 
1.1250395e+3, 1.5512274e+2, -1572096.3, -1457855.6, -48515.86, -0.06265273, 0.063583896, -1440032.5, -20230.266, 0.00001150662, 9.998782, 10.00029 
1.1250355e+3, 1.651228e+2, -1444668.1, -1370626.1, 43152.71, -0.052962948, 0.06000562, -1350790.3, -28990.033, 0.0000000061074554, 9.999079, 10.000086 
1.1250324e+3, 1.7512205e+2, -1295622.4, -1239859.9, 32559.65, -0.04651392, -0.060705613, -1224875.1, -1071.077, 0.0, 9.999402, 10.000153 
1.12502836e+3, 1.851221e+2, -1191460.0, -1135222.4, -18259.791, -0.028306033, -0.06828745, -1129813.8, -4012.4165, 0.0, 9.99942, 10.000194 
1.1250233e+3, 1.9512233e+2, -1125078.0, -1062104.0, -40722.145, -0.020229867, -0.09756234, -1042115.56, -14317.58, 0.0, 9.999222, 10.000129 
1.1250185e+3, 2.0512262e+2, -1035535.4, -1058450.4, -5442.611, -0.016231876, -0.029538162, -1034308.44, -104512.91, 0.0, 9.9995985, 9.999275 
1.1250139e+3, 2.1512258e+2, -780135.1, -885602.7, -15461.139, -0.010857298, 0.001230044, -777915.25, 53882.527, 0.0, 10.000681, 9.99927 
1.1250093e+3, 2.25122e+2, -681979.0, -876710.44, -4121.495, -0.011374385, 0.064378366, -681891.75, 51914.36, 0.0, 10.00104, 9.9985 
1.1250047e+3, 2.3512073e+2, -614365.8, -789184.8, -33353.426, -0.00972161, 0.051645108, -608218.5, 27603.947, 0.0, 10.000813, 9.998533 
1.125e+3, 2.451194e+2, -487195.72, -639730.8, -24987.156, -0.011188853, 0.055956498, -483206.84, 54628.484, 0.0, 10.000877, 9.998849 
1.12499535e+3, 2.551177e+2, -340512.75, -522094.97, -58328.03, -0.011619978, -0.031171743, -323391.0, 116456.88, 0.0, 10.001227, 9.998818 
1.1249913e+3, 2.6511627e+2, -256068.98, -488511.84, -32912.03, 0.014713066, -0.021808112, -251498.77, 90360.734, 0.00000016860811, 10.001381, 9.9983 
1.1249877e+3, 2.751146e+2, -160129.05, -391780.0, -52252.297, 0.070492886, -0.055862095, -148888.23, 94986.1, 0.0000038179373, 10.001357, 9.9983015 
1.1249833e+3, 2.8511298e+2, -76230.336, -437474.03, -21940.992, 0.054540515, 0.01868842, -74902.58, 70989.18, 0.000026510976, 10.00184, 9.9970875 
1.1249783e+3, 2.9511094e+2, 136679.16, -279910.75, -15834.338, -0.031333033, 0.058584705, 137280.14, 185195.64, 0.00011807009, 10.002609, 9.99712 
1.12497605e+3, 3.051084e+2, 269016.78, -53716.613, 69985.31, 0.039750658, 0.04359294, 283539.7, 283539.7, 0.0003550206, 10.002632, 9.998331 
1.1249757e+3, 3.1510714e+2, 171251.17, -41378.285, 23180.086, 0.22614652, 0.044587333, 173748.83, 173748.83, 0.0007557848, 10.001596, 9.998926 
1.13505356e+3, 1.2512204e+2, -1999913.8, -1637738.1, -58807.027, -0.047552064, -0.04006158, -1628428.8, 85383.65, 0.0011953667, 9.997073, 10.001905 
1.13504685e+3, 1.351254e+2, -1794415.1, -1503799.9, -36096.082, -0.18666655, 0.08273059, -1499383.6, 116395.02, 0.00059164723, 9.997913, 10.001763 
1.1350451e+3, 1.4512719e+2, -1726371.8, -1589019.8, -24731.154, 0.091139376, 0.17144041, -1584702.5, -66941.766, 0.00017336896, 9.998404, 10.000255 
1.1350387e+3, 1.5512685e+2, -1578677.0, -1469368.5, -13872.036, -0.06811903, 0.07127227, -1467635.5, -47870.977, 0.000015247707, 9.998772, 10.000219 
1.1350342e+3, 1.6512714e+2, -1432625.1, -1340588.6, 34785.48, -0.14081517, 0.07894236, -1328920.5, -7160.038, 0.000000009421829, 9.999057, 10.0003 
1.1350317e+3, 1.7512754e+2, -1286840.5, -1216078.5, 57978.848, -0.07800217, 0.05182114, -1183537.8, 40215.508, 0.0, 9.99938, 10.000324 
1.1350282e+3, 1.851278e+2, -1210691.3, -1161174.3, -46481.855, -0.016675696, 0.0671505, -1133268.4, -7519.68, 0.0, 9.999354, 10.000052 
1.13502346e+3, 1.9512758e+2, -1157899.8, -1090465.8, -30642.459, 0.03109217, 0.0046874243, -1078621.9, -50871.953, 0.0, 9.999049, 10.00002 
1.13501854e+3, 2.0512722e+2, -1048432.56, -1046443.9, 15681.715, -0.007996339, 0.0061579887, -1031725.0, -101972.82, 0.0, 9.999429, 9.999442 
1.1350138e+3, 2.1512645e+2, -804245.8, -879702.1, 38019.867, -0.11229935, -0.050707325, -788411.6, 43347.07, 0.0, 10.000443, 9.999427 
1.1350095e+3, 2.251256e+2, -734337.7, -936943.94, -32967.05, -0.11764684, -0.008794029, -729108.44, 4659.8506, 0.0, 10.000825, 9.998191 
1.1350055e+3, 2.3512426e+2, -673360.0, -856658.5, -24931.445, -0.029011665, 0.0020122621, -670029.44, -34244.86, 0.0, 10.000571, 9.998188 
1.13500126e+3, 2.4512282e+2, -548070.75, -716014.25, -28744.477, -0.0019074703, 0.0337041, -543287.2, -5487.1006, 0.0, 10.000662, 9.998427 
1.13499686e+3, 2.5512096e+2, -394284.34, -591256.44, -27657.014, -0.015133736, -0.029377375, -390474.7, 49342.73, 0.0, 10.001041, 9.998433 
1.13499254e+3, 2.651194e+2, -276148.34, -495731.78, -47889.676, -0.018976286, -0.017531313, -266158.4, 75672.58, 0.00000020663475, 10.001228, 9.998328 
1.1349885e+3, 2.751175e+2, -182605.4, -407214.5, -28861.627, -0.019624686, -0.07635227, -178956.06, 64890.645, 0.0000055002247, 10.001216, 9.998269 
1.1349847e+3, 2.851155e+2, -56970.184, -358265.53, -11423.389, -0.026522633, -0.061690968, -56537.695, 89327.07, 0.000033703815, 10.001683, 9.9977 
1.1349816e+3, 2.9511344e+2, 155517.61, -201524.36, 34227.676, -0.01416547, -0.08891754, 158769.22, 206654.88, 0.00013271971, 10.002439, 9.997741 
1.1349785e+3, 3.0511105e+2, 165179.03, -222060.19, 18793.162, 0.00425923, -0.068433546, 166088.94, 166088.94, 0.00037893685, 10.002439, 9.997266 
1.1349747e+3, 3.1511036e+2, 65707.41, -202580.98, 34867.188, -0.10698244, 0.093625, 70164.75, 70164.75, 0.00079122034, 10.001352, 9.997934 
1.1450513e+3, 1.2512675e+2, -1974561.3, -1666228.4, 18297.936, 0.017575886, 0.0032140801, -1665146.3, 48620.938, 0.0013373722, 9.997383, 10.00158 
1.1450459e+3, 1.3512991e+2, -1780711.5, -1511336.9, 6764.612, -0.07168845, 0.11554833, -1511167.0, 104568.45, 0.000672049, 9.99803, 10.001674 
1.1450447e+3, 1.4513153e+2, -1719372.8, -1585199.8, 15202.003, 0.22591256, 0.1898393, -1583498.9, -65779.836, 0.0002032588, 9.99846, 10.000249 
1.1450382e+3, 1.5513094e+2, -1563594.0, -1463953.4, -18535.928, 0.010078, 0.06945586, -1460617.0, -40892.313, 0.000019742625, 9.99889, 10.0002 
1.14503354e+3, 1.6513106e+2, -1471341.3, -1356481.5, 46685.0, -0.08339588, 0.063637435, -1339900.0, -18178.535, 0.000000013934886, 9.998791, 10.000319 
1.14503115e+3, 1.7513146e+2, -1439582.5, -1284277.6, 26252.822, -0.01985141, 0.03335978, -1279959.9, -56246.074, 0.0, 9.998322, 10.000361 
1.1450278e+3, 1.8513177e+2, -1291486.6, -1216522.6, -22614.313, 0.04155835, 0.061514672, -1210229.0, -84520.07, 0.0, 9.998881, 9.99989 
1.1450234e+3, 1.9513173e+2, -970154.8, -1005467.06, -50017.008, 0.07679921, 0.028166255, -934769.06, 92940.67, 0.0, 10.000401, 9.999926 
1.1450189e+3, 2.0513126e+2, -841321.7, -974863.6, 6907.0757, 0.029058117, 0.03204135, -840965.4, 88748.34, 0.0, 10.000938, 9.999223 
1.14501454e+3, 2.1513003e+2, -799819.9, -900703.1, -26540.8, -0.0816552, -0.05016866, -793263.5, 38460.99, 0.0, 10.000539, 9.999251 
1.1450104e+3, 2.251291e+2, -753633.25, -897548.5, -55247.246, -0.09106419, -0.02690823, -734870.6, -1137.1686, 0.0, 10.000514, 9.998599 
1.14500634e+3, 2.3512806e+2, -593451.0, -766426.9, -32972.734, -0.011248866, -0.02786823, -587378.9, 48365.637, 0.0, 10.000919, 9.99863 
1.1450022e+3, 2.4512684e+2, -509237.44, -724405.75, 33054.43, 0.016556734, 0.01591358, -504274.1, 33483.625, 0.0, 10.001026, 9.998199 
1.1449979e+3, 2.5512525e+2, -428449.84, -625978.9, 15808.191, 0.0068187527, -0.0050893337, -427192.72, 12582.251, 0.0, 10.000886, 9.998264 
1.1449941e+3, 2.6512355e+2, -266985.66, -519620.38, 43664.668, 0.01589774, 0.014814264, -259651.69, 82139.234, 0.00000038376965, 10.001398, 9.998086 
1.14499085e+3, 2.7512127e+2, -11806.178, -347006.47, 9145.374, 0.04408596, -0.05832919, -11556.848, 232253.66, 0.0000075917305, 10.0024805, 9.998074 
1.1449874e+3, 2.8511915e+2, 48806.344, -316533.84, 10742.775, 0.047936313, -0.047089577, 49121.96, 194952.39, 0.000041535674, 10.002444, 9.997626 
1.144984e+3, 2.951171e+2, -27956.549, -295606.22, -36149.727, 0.07098205, -0.06070363, -23159.996, 24690.934, 0.00014998692, 10.001207, 9.997687 
1.1449807e+3, 3.0511457e+2, -6697.2427, -294330.94, 13681.686, 0.05936902, -0.057838503, -6047.921, -6047.921, 0.00040888134, 10.001176, 9.997383 
1.1449762e+3, 3.1511384e+2, 145385.48, -138557.23, 50233.26, -0.09880599, 0.08616029, 154010.42, 154010.42, 0.0008408799, 10.001801, 9.998144 
1.1550475e+3, 1.2513389e+2, -2045657.8, -1805799.5, -86739.57, -0.17269634, 0.15389614, -1777719.4, -64023.348, 0.001489488, 9.9973545, 10.00063 
1.1550442e+3, 1.3513495e+2, -1844451.3, -1638044.4, 46436.426, -0.08110705, 0.14313728, -1628078.5, -12393.311, 0.00075867696, 9.998019, 10.000795 
1.1550426e+3, 1.4513499e+2, -1726269.0, -1607897.9, 10722.656, 0.11373729, 0.10949868, -1606934.4, -89250.53, 0.0002361324, 9.998477, 10.000097 
1.1550376e+3, 1.5513489e+2, -1564655.8, -1475293.3, 12277.099, 0.017275201, 0.049997434, -1473637.3, -53953.96, 0.000024990082, 9.998915, 10.000118 
1.1550332e+3, 1.6513461e+2, -1476053.8, -1362105.3, 8840.168, -0.040411457, 0.009340332, -1361423.5, -39740.71, 0.000000023716384, 9.998781, 10.000279 
1.1550299e+3, 1.7513394e+2, -1453774.5, -1297601.3, 26736.072, -0.005593623, -0.1226198, -1293151.0, -69466.44, 0.0, 9.998262, 10.000292 
1.1550266e+3, 1.8513417e+2, -1325001.0, -1268150.4, 15586.58, 0.0025220246, -0.083175585, -1264157.5, -138476.44, 0.0, 9.998805, 9.999572 
1.15502305e+3, 1.9513482e+2, -1011092.06, -1060432.0, 18586.83, -0.03269121, -0.01791637, -1004873.9, 22803.344, 0.0, 10.00027, 9.999612 
1.1550194e+3, 2.0513469e+2, -891194.25, -1041148.1, -32589.717, -0.055839263, 0.053369034, -884417.7, 45262.645, 0.0, 10.000773, 9.998848 
1.1550156e+3, 2.1513344e+2, -859987.06, -973586.1, -25840.637, -0.056014284, 0.006907299, -854385.25, -22691.22, 0.0, 10.000306, 9.998866 
1.15501136e+3, 2.2513267e+2, -713130.9, -761469.7, -57924.965, -0.065061554, 0.0123419445, -674535.1, 59165.438, 0.0, 10.000291, 9.9996395 
1.1550068e+3, 2.3513207e+2, -554814.3, -635363.25, -1384.0354, -0.08447852, -0.0486451, -554790.56, 80912.56, 0.0, 10.000704, 9.999634 
1.1550024e+3, 2.4513143e+2, -535549.56, -730424.2, 6110.3057, -0.086633496, 0.0029871895, -535358.2, 2350.6816, 0.0, 10.0008135, 9.9982605 
1.1549982e+3, 2.5513047e+2, -455141.28, -639166.2, 26679.377, -0.08124735, 0.03950661, -451351.44, -11630.613, 0.0, 10.000694, 9.998269 
1.1549955e+3, 2.6512864e+2, -327955.9, -599485.9, 69547.41, -0.016313674, 0.07106481, -311179.2, 30560.582, 0.0000005356376, 10.001205, 9.997624 
1.1549943e+3, 2.751257e+2, -64000.684, -415574.75, 70099.234, 0.10350586, -0.027000604, -50539.246, 193229.11, 0.000008957139, 10.002312, 9.997682 
1.15499094e+3, 2.8512374e+2, -22548.182, -425174.06, -50822.785, 0.12665121, 0.050631743, -16231.992, 129557.49, 0.000047577858, 10.002276, 9.996961 
1.1549855e+3, 2.951221e+2, -93562.15, -413000.88, -52768.4, 0.047277745, 0.14588809, -85070.99, -37261.66, 0.00016516355, 10.00111, 9.996936 
1.1549821e+3, 3.0511898e+2, 42030.266, -142269.8, 26759.223, 0.040474925, 0.07556176, 45836.914, 45836.914, 0.00043860512, 10.00098, 9.998508 
1.1549789e+3, 3.1511715e+2, 192896.3, 19525.264, 130375.75, -0.08137526, -0.0104502505, 262774.56, 262774.56, 0.0008954558, 10.001551, 9.999345 
1.16504505e+3, 1.2513833e+2, -2042075.0, -1824748.0, -123810.44, -0.13889101, 0.16651845, -1768679.0, -55029.45, 0.0016512593, 9.997475, 10.000432 
1.1650437e+3, 1.351381e+2, -1740525.9, -1635274.6, -819.0154, 0.030472111, 0.07480498, -1635268.3, -19617.666, 0.0008513687, 9.998957, 10.000358 
1.1650409e+3, 1.4513753e+2, -1602905.0, -1554278.1, -12453.987, 0.06658319, 0.006624176, -1551274.0, -33618.49, 0.00027198074, 9.999368, 10.000022 
1.1650366e+3, 1.5513828e+2, -1559564.4, -1483147.3, -49319.066, 0.02916293, 0.037489925, -1458967.9, -39319.793, 0.00003101119, 9.9990015, 10.000016 
1.1650326e+3, 1.6513821e+2, -1406121.4, -1353213.9, -17466.268, 0.0065843645, 0.03227141, -1347967.9, -26321.244, 0.00000004774233, 9.999349, 10.000076 
1.1650296e+3, 1.751371e+2, -1154520.6, -1181924.9, -48021.69, 0.041826576, -0.12017012, -1118284.5, 105368.93, 0.0, 10.000404, 10.0000725 
1.16502635e+3, 1.8513699e+2, -1114150.8, -1184200.4, -21573.492, 0.032937806, -0.096814536, -1108039.8, 17614.193, 0.0, 10.000327, 9.999413 
1.1650227e+3, 1.9513747e+2, -1158630.3, -1149238.4, -38329.99, -0.04450264, -0.031040816, -1115317.8, -87665.79, 0.0, 9.99933, 9.99946 
1.1650194e+3, 2.0513746e+2, -1083079.4, -1098084.9, -22823.31, -0.04717831, 0.047054462, -1066557.3, -136903.36, 0.0, 9.999331, 9.999137 
1.16501674e+3, 2.1513669e+2, -841768.44, -925492.75, -10632.548, 0.027266666, 0.014823869, -840439.25, -8776.433, 0.0, 10.000296, 9.999186 
1.1650127e+3, 2.251361e+2, -663354.75, -761569.06, -31122.07, 0.01690595, 0.033055026, -654323.3, 79344.55, 0.0, 10.000714, 9.999445 
1.1650076e+3, 2.3513533e+2, -580586.44, -668940.2, -94990.82, -0.06859953, -0.025033373, -520002.4, 115670.6, 0.0, 10.000602, 9.999463 
1.1650034e+3, 2.4513464e+2, -517991.72, -691696.6, -86337.6, -0.065537244, 0.013620268, -482379.78, 55299.11, 0.0, 10.000805, 9.998528 
1.1650001e+3, 2.551337e+2, -343080.9, -555575.4, -86528.63, 0.016054623, 0.027498417, -312303.78, 127384.78, 0.0, 10.001331, 9.998537 
1.1649977e+3, 2.6513204e+2, -262962.03, -563264.3, 29830.23, 0.06974026, 0.06079082, -260027.56, 81678.42, 0.00000056359414, 10.001635, 9.997665 
1.16499625e+3, 2.751295e+2, -156995.83, -457088.03, 26594.064, 0.10697278, -0.000033301127, -154657.3, 89075.95, 0.00000928475, 10.001672, 9.997707 
1.1649928e+3, 2.8512776e+2, -39125.125, -409646.4, -42163.047, 0.11057837, 0.08995867, -34387.797, 111364.63, 0.000050789153, 10.00204, 9.997186 
1.1649875e+3, 2.9512638e+2, 138870.78, -271557.56, -19264.941, 0.08349013, 0.18777144, 139773.06, 187541.48, 0.00017624088, 10.002589, 9.997187 
1.16498426e+3, 3.0512315e+2, 270816.97, -39339.77, 103921.54, 0.097027995, 0.09170019, 302417.44, 302417.44, 0.00046429865, 10.002563, 9.99847 
1.16498105e+3, 3.151207e+2, 184198.52, 33029.586, 62767.83, -0.0027322692, -0.040925577, 206862.78, 206862.78, 0.00094360544, 10.001398, 9.999532 
1.1750444e+3, 1.2514025e+2, -2014480.4, -1739367.0, -38549.84, -0.03166397, 0.040155157, -1734067.4, -20441.17, 0.0018234614, 9.99739, 10.001051 
1.1750441e+3, 1.3513948e+2, -1745464.9, -1645162.6, 67791.445, 0.14102896, -0.09440994, -1610988.1, 4642.528, 0.0009506097, 9.998968, 10.000284 
1.1750392e+3, 1.4513929e+2, -1608707.5, -1557975.0, -44666.594, -0.08377209, -0.119810514, -1531974.4, -14341.552, 0.00031097958, 9.999336, 10.000006 
1.17503464e+3, 1.551412e+2, -1566318.8, -1495133.3, -43346.18, -0.09488024, 0.029999016, -1474639.1, -55021.15, 0.00003785508, 9.998992, 9.999935 
1.1750314e+3, 1.6514179e+2, -1442235.0, -1421906.3, 3402.3943, -0.08915936, 0.120228715, -1421351.9, -99738.46, 0.00000010132158, 9.999322, 9.999615 
1.1750298e+3, 1.7514092e+2, -1191712.5, -1243456.4, 7989.88, -0.012146395, 0.028081387, -1190506.9, 33113.76, 0.0, 10.000338, 9.9996805 
1.1750266e+3, 1.8514039e+2, -1121805.4, -1181751.6, -78425.36, -0.011002728, 0.02440436, -1067820.6, 57805.2, 0.0, 10.000249, 9.999469 
1.1750218e+3, 1.9513977e+2, -1172766.1, -1151656.1, -54800.676, -0.09459292, -0.021720603, -1106403.3, -78770.34, 0.0, 9.999209, 9.999505 
1.1750187e+3, 2.051397e+2, -1047861.2, -986861.7, -5657.018, -0.08605278, 0.0030258303, -986341.5, -56708.195, 0.0, 9.999171, 9.999975 
1.1750172e+3, 2.1513979e+2, -815595.44, -824803.6, 40722.277, 0.028302591, -0.02566289, -779217.8, 52412.86, 0.0, 10.000089, 9.999979 
1.1750137e+3, 2.2513928e+2, -789872.2, -966508.7, -55301.402, 0.017400952, 0.026995948, -773987.0, -40350.246, 0.0, 10.000471, 9.998153 
1.175008e+3, 2.3513794e+2, -703964.94, -864026.44, -81564.41, -0.11730959, 0.03818097, -669725.5, -34071.78, 0.0, 10.000349, 9.998238 
1.17500454e+3, 2.4513656e+2, -522729.6, -650825.0, -84057.586, -0.06717196, 0.04936549, -481099.53, 56567.273, 0.0, 10.00058, 9.998922 
1.1750032e+3, 2.5513485e+2, -335212.6, -498122.28, -50293.727, 0.15797773, -0.05833226, -320936.8, 118742.42, 0.0, 10.001153, 9.999016 
1.1750005e+3, 2.6513368e+2, -256598.52, -512200.03, 13200.938, 0.1544096, -0.025310185, -255918.53, 85772.2, 0.0000005132723, 10.001466, 9.998103 
1.1749962e+3, 2.751325e+2, -144528.89, -404076.97, 49117.91, -0.09350579, 0.010055698, -135544.61, 108161.42, 0.000009286575, 10.001548, 9.998135 
1.1749927e+3, 2.851312e+2, 7245.89, -273265.13, -36311.344, -0.14219928, 0.07359484, 11870.061, 157589.17, 0.000051726838, 10.001874, 9.998199 
1.1749899e+3, 2.9512957e+2, 202601.53, -114406.35, 23591.588, 0.009497822, 0.03782137, 204347.6, 252079.52, 0.00018255804, 10.002474, 9.998323 
1.17498696e+3, 3.0512655e+2, 166609.3, -205914.42, 51340.305, 0.08571532, -0.04270487, 173555.38, 173555.38, 0.0004800074, 10.002372, 9.997409 
1.1749817e+3, 3.1512466e+2, 95794.73, -77757.39, 62887.445, -0.1484531, -0.016652664, 116186.36, 116186.36, 0.0009690312, 10.00111, 9.998896 
1.1850431e+3, 1.2514177e+2, -1777223.8, -1613693.0, 35402.348, 0.04236336, -0.044616863, -1606357.9, 107249.76, 0.0020081834, 9.998927, 10.001188 
1.1850427e+3, 1.3514145e+2, -1913876.1, -1739009.5, 1267.7133, 0.18272133, -0.1348164, -1739000.4, -123390.93, 0.0010574218, 9.997838, 10.000197 
1.18503734e+3, 1.4514181e+2, -1812275.3, -1643336.3, -49285.973, -0.11736043, -0.10662079, -1630009.0, -112402.25, 0.00035351914, 9.997863, 10.000144 
1.1850335e+3, 1.5514348e+2, -1522295.0, -1451701.1, -74535.33, -0.1143715, 0.0035992467, -1404527.5, 15066.619, 0.00004562391, 9.999198, 10.000141 
1.1850308e+3, 1.6514431e+2, -1408479.3, -1397614.1, 33543.47, -0.07982455, 0.104527615, -1369066.1, -47478.28, 0.00000019883093, 9.999534, 9.999679 
1.1850297e+3, 1.75144e+2, -1372714.9, -1316585.8, 36462.805, 0.013442766, 0.060754675, -1298637.8, -75046.83, 0.0, 9.999051, 9.999789 
1.1850266e+3, 1.8514372e+2, -1266426.5, -1211856.3, -7214.213, 0.031567827, 0.05960279, -1210918.6, -85325.33, 0.0, 9.999075, 9.999834 
1.1850217e+3, 1.9514312e+2, -1093105.0, -1069795.4, 2322.1272, -0.03581026, -0.024769096, -1069566.3, -41967.41, 0.0, 9.999562, 9.999899 
1.1850186e+3, 2.0514308e+2, -954151.9, -950390.4, 96166.67, -0.03985984, -0.009006741, -856086.06, 73512.24, 0.0, 9.999843, 9.999914 
1.1850172e+3, 2.151433e+2, -836997.9, -835235.25, 46801.49, 0.03535895, -0.018955756, -789306.75, 42288.594, 0.0, 9.99995, 9.999974 
1.185014e+3, 2.251428e+2, -801364.3, -992818.2, -8866.183, 0.025031915, 0.044767547, -800954.6, -67352.305, 0.0, 10.000485, 9.997961 
1.185009e+3, 2.3514128e+2, -566640.4, -820572.1, 6168.9966, -0.073788054, 0.057077225, -566490.56, 69131.73, 0.0, 10.001386, 9.998036 
1.185006e+3, 2.4513972e+2, -380751.72, -577610.6, 48648.58, -0.014141998, 0.056123454, -369385.72, 168251.6, 0.0, 10.001542, 9.998961 
1.1850045e+3, 2.5513774e+2, -357070.1, -514132.34, 18414.045, 0.1939182, -0.073268175, -354940.13, 84711.05, 0.0, 10.0010195, 9.998981 
1.1850018e+3, 2.6513672e+2, -322021.7, -509689.44, 97098.71, 0.18348011, -0.036077097, -280826.1, 60834.785, 0.0000005059796, 10.000889, 9.998386 
1.1849978e+3, 2.7513617e+2, -187472.03, -397354.38, 76418.76, -0.058645368, 0.032574445, -162596.13, 81074.71, 0.000009353779, 10.001143, 9.99837 
1.1849943e+3, 2.8513497e+2, -50289.46, -251991.64, 5734.06, -0.13016702, 0.07339685, -50126.586, 95555.516, 0.000051580555, 10.00129, 9.998613 
1.1849916e+3, 2.9513305e+2, 58825.395, -142118.88, -21861.97, -0.005256172, -0.026741315, 61176.39, 108872.16, 0.00018437536, 10.001323, 9.998682 
1.184989e+3, 3.051304e+2, 78418.18, -295763.03, 17424.787, 0.09345076, -0.07266522, 79227.86, 79227.86, 0.00048100852, 10.001942, 9.99701 
1.1849844e+3, 3.1512916e+2, 314331.16, -7005.577, 5336.532, -0.055325966, 0.061677318, 314419.75, 314419.75, 0.00096257555, 10.002718, 9.998624 
1.1950421e+3, 1.251426e+2, -1801680.1, -1659506.4, 19114.863, -0.028652804, -0.1260473, -1656981.4, 56615.734, 0.0022081332, 9.998913, 10.00087 
1.1950391e+3, 1.3514382e+2, -1905084.6, -1725786.0, -27880.838, -0.005621486, -0.070932925, -1721550.5, -105962.234, 0.0011730703, 9.99785, 10.00028 
1.1950349e+3, 1.4514495e+2, -1792268.6, -1598567.0, -20954.998, -0.2080372, 0.0143799195, -1596326.0, -78747.586, 0.00040013902, 9.997854, 10.000454 
1.1950326e+3, 1.5514524e+2, -1498409.4, -1406552.8, -8026.2227, -0.15961461, -0.04437281, -1405856.6, 13718.384, 0.00005450229, 9.99921, 10.000447 
1.19503036e+3, 1.6514584e+2, -1366726.1, -1310525.1, -6733.5615, -0.10692146, -0.0121566085, -1309729.6, 11839.374, 0.00000035173326, 9.999524, 10.000285 
1.1950288e+3, 1.7514645e+2, -1339123.9, -1239897.5, 34188.67, -0.01478904, -0.022029065, -1229258.5, -5695.104, 0.0, 9.999012, 10.00034 
1.1950259e+3, 1.8514708e+2, -1232630.4, -1123498.4, -7586.3413, 0.015487794, 0.009567348, -1122973.5, 2582.5024, 0.0, 9.9990015, 10.000473 
1.1950219e+3, 1.9514745e+2, -1068653.4, -988983.9, 36108.39, -0.0111810705, -0.040342562, -975054.1, 52495.867, 0.0, 9.999432, 10.000516 
1.1950186e+3, 2.0514767e+2, -1038978.06, -1085324.9, 79597.875, -0.04912172, 0.00926771, -979248.94, -49700.047, 0.0, 9.999671, 9.999067 
1.1950162e+3, 2.1514736e+2, -928199.8, -972944.25, 67809.75, -0.09015645, 0.031975348, -879167.0, -47611.29, 0.0, 9.999729, 9.999134 
1.1950135e+3, 2.2514673e+2, -779926.25, -891660.9, 5450.0063, -0.09794998, 0.08293817, -779661.06, -46096.758, 0.0, 10.000241, 9.998773 
1.1950108e+3, 2.351455e+2, -542427.7, -714626.1, 52581.133, -0.072320685, 0.039082974, -527641.56, 107936.01, 0.0, 10.001153, 9.998871 
1.1950074e+3, 2.4514425e+2, -440371.13, -649912.3, 10268.171, -0.04529817, 0.047309812, -439869.16, 97720.086, 0.0, 10.001319, 9.998578 
1.1950037e+3, 2.551426e+2, -411251.13, -576015.5, 17825.219, -0.025820414, -0.011817924, -409344.75, 30258.03, 0.0, 10.000809, 9.998654 
1.1950014e+3, 2.6514146e+2, -354972.22, -533331.44, 90522.62, 0.014860939, 0.032835726, -317079.6, 24534.95, 0.0000006389743, 10.000692, 9.998323 
1.1950005e+3, 2.7514046e+2, -210660.48, -405407.97, 106215.84, 0.0731551, 0.060435448, -163938.94, 79688.85, 0.000009301616, 10.000978, 9.998392 
1.1949973e+3, 2.851391e+2, -89388.375, -302520.25, -6940.576, 0.019714491, 0.09496283, -89162.59, 56478.676, 0.00005191434, 10.001151, 9.998338 
1.1949921e+3, 2.9513687e+2, 16043.053, -199152.86, 5523.4043, -0.1308886, -0.010162743, 16184.728, 63844.496, 0.00018470343, 10.001174, 9.998365 
1.19499e+3, 3.0513462e+2, 48446.816, -301625.94, 38941.27, -0.032236498, 0.0030620715, 52726.24, 52726.24, 0.00047307427, 10.001718, 9.997067 
1.1949882e+3, 3.1513417e+2, 276459.22, -10711.368, 83446.63, -0.014367448, 0.19909841, 298946.44, 298946.44, 0.0009340092, 10.002417, 9.998732 
1.20504074e+3, 1.2514494e+2, -2092046.5, -1840157.1, 108151.31, 0.040686015, -0.09360021, -1800093.4, -86520.73, 0.0024257244, 9.997112, 10.0005045 
1.2050365e+3, 1.3514651e+2, -1760648.5, -1638472.8, -6913.5693, -0.070108935, -0.006732396, -1638082.8, -22519.988, 0.0012988481, 9.998791, 10.000416 
1.2050342e+3, 1.4514768e+2, -1589703.1, -1496823.1, 43514.754, -0.1226357, 0.07062977, -1479621.9, 37930.45, 0.00045139206, 9.99921, 10.000504 
1.20503195e+3, 1.5514709e+2, -1547680.1, -1421320.1, -8513.209, -0.11104761, -0.083311744, -1420749.1, -1194.0835, 0.00006471426, 9.998825, 10.000532 
1.2050296e+3, 1.6514748e+2, -1468272.9, -1342123.5, -11853.296, -0.0836937, -0.08484343, -1341019.4, -19469.283, 0.00000057087306, 9.998761, 10.000427 
1.2050277e+3, 1.7514846e+2, -1309080.1, -1203925.3, -39187.36, -0.019546812, -0.0730526, -1190928.0, 32613.23, 0.0, 9.99914, 10.000517 
1.205025e+3, 1.8514937e+2, -1180173.4, -1100874.9, -70781.87, 0.016691355, -0.02007549, -1059393.8, 66137.76, 0.0, 9.999386, 10.000434 
1.2050216e+3, 1.9514988e+2, -1046913.8, -977366.7, -111266.61, 0.022366641, -0.055415608, -895566.4, 131958.38, 0.0, 9.99959, 10.000509 
1.2050185e+3, 2.0515019e+2, -1013741.7, -1073025.6, -27896.482, -0.014984524, 0.0019997242, -1002679.06, -73155.83, 0.0, 9.999817, 9.999087 
1.205016e+3, 2.151499e+2, -878741.8, -950424.44, -11823.801, -0.091297016, 0.022529203, -876841.9, -45311.215, 0.0, 10.000038, 9.999152 
1.2050137e+3, 2.2514948e+2, -763624.9, -821916.9, -4116.943, -0.09458643, 0.06704595, -763335.56, -29799.219, 0.0, 10.000087, 9.9993305 
1.20501176e+3, 2.3514867e+2, -671073.06, -719710.1, -10105.678, -0.023941305, 0.015360222, -669056.9, -33513.457, 0.0, 10.000018, 9.9993925 
1.2050088e+3, 2.4514778e+2, -574861.56, -707807.1, -29156.525, 0.016498813, 0.032348182, -568748.25, -31196.623, 0.0, 10.000385, 9.998608 
1.20500475e+3, 2.551464e+2, -359298.16, -550051.6, -32408.584, 0.0054332614, -0.003936034, -353942.38, 85622.33, 0.00000000020898414, 10.00117, 9.998645 
1.2050026e+3, 2.651452e+2, -218601.3, -468304.78, 90575.45, 0.028965974, 0.033920296, -189206.9, 152370.42, 0.00000074892756, 10.001616, 9.998328 
1.2050019e+3, 2.751439e+2, -105479.34, -355958.38, 73933.734, 0.09003348, 0.028484281, -85284.57, 158307.63, 0.000009032264, 10.001682, 9.998395 
1.204999e+3, 2.8514242e+2, 15392.873, -280279.34, -1663.9694, 0.04388594, 0.0657033, 15402.237, 161009.31, 0.000052136886, 10.001994, 9.998092 
1.204994e+3, 2.9514045e+2, 179026.88, -145196.44, -33123.957, -0.1052987, 0.010520433, 182376.34, 230002.6, 0.0001849306, 10.002423, 9.998132 
1.20499246e+3, 3.0513835e+2, 195439.03, -199657.64, 51286.152, 0.02122919, 0.039087355, 201987.77, 201987.77, 0.0004665325, 10.00259, 9.997345 
1.2049915e+3, 3.1513733e+2, 229461.7, 6739.2705, 40380.285, 0.10875164, 0.1537723, 236556.75, 236556.75, 0.00090609276, 10.001946, 9.999065 
1.2150369e+3, 1.2514767e+2, -2111886.8, -1870179.0, 39725.625, -0.12911455, -0.064234555, -1863817.4, -150271.69, 0.0026624324, 9.997088, 10.000302 
1.21503495e+3, 1.3514966e+2, -1756954.6, -1628356.3, 62186.52, -0.1386888, 0.059019968, -1603204.0, 12327.651, 0.0014356553, 9.998786, 10.000489 
1.215035e+3, 1.451501e+2, -1594478.4, -1506217.4, 5675.6685, -0.008655247, 0.06092109, -1505853.9, 11674.035, 0.0005075534, 9.999211, 10.000435 
1.2150312e+3, 1.5514904e+2, -1559179.6, -1445209.9, -2246.0864, -0.10693651, -0.12738949, -1445165.6, -25631.572, 0.000076397075, 9.99882, 10.000374 
1.2150281e+3, 1.6514915e+2, -1491127.5, -1384454.3, -15227.439, -0.16642067, -0.13358435, -1382323.1, -60791.383, 0.0000008702971, 9.998747, 10.000136 
1.21502616e+3, 1.7515004e+2, -1340855.3, -1254273.8, -8203.71, -0.1340752, -0.09905045, -1253503.4, -29979.129, 0.0, 9.999074, 10.000202 
1.21502355e+3, 1.851506e+2, -1234728.1, -1195957.1, -81840.6, -0.10559242, -0.038375515, -1131237.5, -5717.525, 0.0, 9.999309, 9.99982 
1.2150205e+3, 1.9515043e+2, -1109156.5, -1078056.9, -85451.49, -0.08016284, -0.07702651, -1006751.94, 20770.586, 0.0, 9.999467, 9.999879 
1.215018e+3, 2.0515066e+2, -980270.5, -960868.6, -39323.664, -0.081135295, -0.03690814, -930067.0, -545.71515, 0.0, 9.999636, 9.999943 
1.2150161e+3, 2.1515098e+2, -852877.44, -836578.56, 10648.857, -0.10898211, -0.04283285, -831318.6, 200.33516, 0.0, 9.999782, 10.000053 
1.2150139e+3, 2.251512e+2, -779267.2, -799910.1, -26367.145, -0.0994575, 0.0020902196, -761273.3, -27756.361, 0.0, 9.9998455, 9.999602 
1.2150117e+3, 2.3515095e+2, -681719.7, -691312.0, 5840.168, -0.05573773, -0.020631703, -678958.7, -43440.297, 0.0, 9.9998, 9.999692 
1.2150096e+3, 2.451504e+2, -591549.56, -683048.6, -14569.764, 0.027505338, 0.0012535142, -589285.56, -51761.73, 0.0, 10.000131, 9.998897 
1.2150078e+3, 2.5514922e+2, -367818.13, -522199.47, 13345.661, 0.15357746, -0.050684087, -366672.94, 72863.695, 0.00000000018849695, 10.000975, 9.998926 
1.21500514e+3, 2.65148e+2, -242729.25, -472818.06, 75972.96, 0.09112402, -0.027485466, -219907.39, 121641.28, 0.00000061447383, 10.001415, 9.998398 
1.2150016e+3, 2.7514642e+2, -122594.086, -355930.28, 96925.164, -0.15088259, -0.06733749, -87585.12, 155978.97, 0.000008322687, 10.00152, 9.998479 
1.2149988e+3, 2.8514504e+2, -46245.41, -347703.8, -952.3074, -0.21072273, -0.008355885, -46242.402, 99336.625, 0.000050710027, 10.001753, 9.997737 
1.21499695e+3, 2.951437e+2, 134086.52, -198793.94, 8631.278, -0.09000325, 0.03297928, 134310.16, 181905.58, 0.00018357177, 10.002261, 9.997834 
1.21499635e+3, 3.0514142e+2, 198767.3, -153497.19, 16250.938, 0.11374762, 0.038083896, 199515.4, 199515.4, 0.00046227945, 10.002424, 9.9977455 
1.2149933e+3, 3.151384e+2, 224940.48, 68646.18, 56002.24, 0.02807831, -0.08755904, 242935.05, 242935.05, 0.0008888424, 10.001649, 9.999634 
1.2250347e+3, 1.2514932e+2, -1933173.6, -1758602.3, -19678.313, -0.09714852, -0.034912966, -1756411.5, -42878.945, 0.0029179724, 9.99818, 10.000542 
1.2250341e+3, 1.3515107e+2, -1813162.6, -1639195.5, 4681.055, -0.06429433, 0.048060432, -1639069.6, -23551.045, 0.0015834377, 9.9983225, 10.000641 
1.2250347e+3, 1.4515139e+2, -1723958.9, -1556695.8, -40555.45, 0.093731314, 0.026947385, -1547381.3, -29865.988, 0.00056846405, 9.998294, 10.000524 
1.2250304e+3, 1.5515131e+2, -1609536.3, -1444749.3, -78601.55, -0.043249447, -0.08041471, -1413270.5, 6242.514, 0.00008951281, 9.998411, 10.000552 
1.225027e+3, 1.651516e+2, -1504367.1, -1412801.1, -9288.051, -0.13196726, -0.06927582, -1411868.5, -90359.4, 0.0000012652538, 9.998704, 9.999994 
1.2250251e+3, 1.7515191e+2, -1323303.6, -1256724.6, -20448.973, -0.13459498, -0.079197854, -1250945.5, -27438.486, 0.0, 9.999218, 10.000132 
1.2250227e+3, 1.8515217e+2, -1229835.3, -1220511.0, -50044.87, -0.112234585, -0.03335665, -1174911.6, -49405.824, 0.0, 9.999435, 9.999602 
1.2250199e+3, 1.9515194e+2, -1134647.4, -1115962.8, -59662.367, -0.075142525, -0.056001954, -1064915.8, -37406.035, 0.0, 9.999386, 9.999671 
1.2250177e+3, 2.0515211e+2, -998541.5, -926690.1, 22213.533, -0.055947192, -0.030034682, -920377.25, 9130.808, 0.0, 9.999344, 10.000309 
1.2250161e+3, 2.1515238e+2, -897566.94, -815065.3, -1332.9377, -0.0577583, -0.07672806, -815043.8, 16460.154, 0.0, 9.999316, 10.000414 
1.2250142e+3, 2.2515279e+2, -762722.75, -752747.5, -7508.139, -0.050984435, -0.049929272, -748721.4, -15222.677, 0.0, 9.999775, 9.99996 
1.2250119e+3, 2.351529e+2, -535208.25, -586242.06, -11091.042, -0.046689764, -0.07310317, -532902.06, 102593.914, 0.0, 10.000636, 10.000018 
1.2250102e+3, 2.4515264e+2, -450178.5, -637398.4, -6650.593, 0.030740323, -0.028940964, -449942.53, 87557.44, 0.0, 10.00117, 9.998733 
1.2250092e+3, 2.5515172e+2, -312966.16, -512175.03, -44341.26, 0.17901583, -0.03375368, -303542.2, 135970.98, 0.0, 10.001409, 9.998801 
1.2250068e+3, 2.6515073e+2, -211312.88, -432421.06, 24145.877, 0.13025512, 0.0034446, -208706.77, 132817.67, 0.0000003685213, 10.001551, 9.998593 
1.2250033e+3, 2.7514923e+2, -106065.63, -323609.1, 10238.681, -0.11701073, -0.045171667, -105584.805, 137952.95, 0.0000073761885, 10.001576, 9.9986515 
1.2250006e+3, 2.8514785e+2, -42682.098, -356219.22, -27370.994, -0.19103651, 0.008055292, -40310.617, 105241.85, 0.000049087277, 10.001781, 9.997669 
1.22499906e+3, 2.9514644e+2, 88118.47, -236903.84, -30161.69, -0.080397874, 0.050372187, 90893.74, 138464.06, 0.00018153466, 10.001977, 9.997725 
1.22499876e+3, 3.051444e+2, 211311.81, -128313.945, 730.92993, 0.13455465, 0.07457056, 211313.39, 211313.39, 0.00045750884, 10.00244, 9.997896 
1.2249964e+3, 3.1514093e+2, 391097.72, 140348.27, -63015.965, 0.12630005, -0.11064373, 406043.47, 406043.47, 0.0008772591, 10.002787, 9.999584 
1.2350321e+3, 1.2515026e+2, -1866857.6, -1646673.5, -102733.836, -0.25022092, 0.015244266, -1606185.0, 107344.72, 0.0031899144, 9.998263, 10.00128 
1.2350332e+3, 1.3515078e+2, -1791352.4, -1608114.6, 18508.16, -0.02043474, -0.052605577, -1606263.9, 9259.286, 0.0017411282, 9.998359, 10.000842 
1.23503245e+3, 1.451515e+2, -1704292.1, -1528028.0, -59702.688, -0.004230151, -0.053803038, -1509709.8, 7805.5684, 0.0006337289, 9.998336, 10.000709 
1.235029e+3, 1.551537e+2, -1590848.0, -1415227.6, -62519.56, -0.055767518, 0.053285, -1395244.9, 24248.693, 0.00010392506, 9.998429, 10.000759 
1.2350263e+3, 1.6515467e+2, -1483885.8, -1371603.9, -15751.211, -0.12086074, 0.10510467, -1369436.1, -47951.97, 0.0000017603737, 9.99871, 10.000271 
1.2350244e+3, 1.7515408e+2, -1308114.9, -1226127.1, 12871.961, -0.16863416, -0.024119487, -1224153.8, -663.80383, 0.0, 9.999209, 10.000349 
1.2350221e+3, 1.8515408e+2, -1229657.9, -1205099.1, -69490.945, -0.15798783, -0.017475972, -1146811.0, -21321.318, 0.0, 9.999372, 9.999737 
1.2350193e+3, 1.9515444e+2, -1140642.3, -1099623.3, -44674.36, -0.10321871, 0.0025744122, -1070975.5, -43489.426, 0.0, 9.999261, 9.999841 
1.2350171e+3, 2.0515457e+2, -1033814.7, -957782.6, -59.224472, -0.07408619, 0.019563118, -957782.56, -28299.008, 0.0, 9.999162, 10.000184 
1.2350156e+3, 2.1515411e+2, -938371.4, -851131.9, 14872.412, -0.067528784, -0.08671817, -848666.1, -17180.76, 0.0, 9.999104, 10.00027 
1.2350139e+3, 2.2515424e+2, -767901.3, -713778.6, 8756.129, -0.08632363, -0.09678296, -712397.3, 21084.156, 0.0, 9.999555, 10.0003395 
1.235012e+3, 2.3515458e+2, -542836.8, -550871.2, 40915.316, -0.13129854, -0.1366064, -505741.94, 129733.484, 0.0, 10.000411, 10.000374 
1.2350101e+3, 2.451546e+2, -525014.6, -736659.0, -13643.849, -0.12555555, -0.052175257, -524138.7, 13340.14, 0.0, 10.00093, 9.998166 
1.2350084e+3, 2.5515398e+2, -379989.4, -604358.4, -15672.847, -0.057807226, 0.029874742, -378899.9, 60594.14, 0.0, 10.0012, 9.998273 
1.2350074e+3, 2.651533e+2, -236595.86, -423928.9, 10430.164, 0.0019219137, 0.113253035, -236016.94, 105487.81, 0.00000016286783, 10.001295, 9.998774 
1.235007e+3, 2.7515212e+2, -123153.62, -313887.94, 33078.473, 0.0499745, 0.081265375, -117579.8, 125934.94, 0.000006622681, 10.001387, 9.998808 
1.2350043e+3, 2.8515068e+2, -51718.137, -326766.75, -31385.248, -0.04282366, 0.10431492, -48182.28, 97346.97, 0.000048750662, 10.00158, 9.99797 
1.23499975e+3, 2.9514858e+2, 85136.125, -205066.31, 4003.2942, -0.25221875, 0.05091185, 85191.336, 132742.75, 0.00018217463, 10.001807, 9.998029 
1.2349994e+3, 3.0514714e+2, 164912.89, -180176.75, 8051.4126, -0.08676988, 0.13475093, 165100.64, 165100.64, 0.00045752534, 10.0022545, 9.997629 
1.23499975e+3, 3.1514475e+2, 297752.2, 19009.303, -11740.973, 0.1105579, 0.078141175, 298245.84, 298245.84, 0.00087459444, 10.002488, 9.998888 
1.245031e+3, 1.2515238e+2, -1882908.1, -1654426.3, 58631.332, -0.17596367, 0.06630364, -1640259.1, 73251.66, 0.003475539, 9.99819, 10.001246 
1.2450315e+3, 1.351521e+2, -1869483.1, -1667000.5, 55480.742, 0.0060120136, -0.060495898, -1652795.3, -37284.92, 0.0019075654, 9.997915, 10.000657 
1.2450296e+3, 1.451527e+2, -1781761.1, -1543283.9, 17137.428, -0.08876178, -0.07231759, -1542058.6, -24555.611, 0.0007030745, 9.997709, 10.0009 
1.2450275e+3, 1.5515512e+2, -1645153.0, -1426717.5, -25872.836, -0.026316302, 0.034700252, -1423694.9, -4215.245, 0.00011956255, 9.997973, 10.000905 
1.24502525e+3, 1.6515642e+2, -1567817.3, -1392769.3, 55128.844, -0.048700593, 0.10587492, -1376854.3, -55386.97, 0.0000023468863, 9.998075, 10.000416 
1.24502346e+3, 1.7515638e+2, -1452437.8, -1276646.4, 35892.598, -0.12854582, 0.019637974, -1269600.4, -46132.37, 0.0, 9.998159, 10.000495 
1.2450212e+3, 1.8515654e+2, -1322387.9, -1244454.5, -15301.97, -0.13742314, 0.027719924, -1241557.6, -116091.66, 0.0, 9.998718, 9.999778 
1.2450188e+3, 1.9515648e+2, -1069306.1, -1064174.1, -31926.67, -0.09241579, 0.0022366538, -1034710.44, -7245.4194, 0.0, 9.999742, 9.999853 
1.245017e+3, 2.0515624e+2, -904049.1, -937120.94, 15229.81, -0.04594335, 0.00030801076, -898104.3, 31361.4, 0.0, 10.000228, 9.999812 
1.24501586e+3, 2.1515545e+2, -810964.94, -829345.75, -24579.955, 0.009584159, -0.101311594, -793913.44, 37557.59, 0.0, 10.000141, 9.999921 
1.2450143e+3, 2.251555e+2, -701237.94, -691761.25, -6832.856, -0.014221679, -0.09673688, -688184.56, 45284.156, 0.0, 10.000089, 10.0002165 
1.2450122e+3, 2.3515595e+2, -598206.56, -583878.9, -50424.49, -0.118887305, -0.11363564, -540111.9, 95350.96, 0.0, 10.0000925, 10.00028 
1.24501035e+3, 2.4515615e+2, -583275.44, -728304.75, -53461.9, -0.15223841, -0.023929488, -565698.2, -28233.525, 0.0, 10.00038, 9.998481 
1.2450088e+3, 2.5515583e+2, -402818.1, -575905.6, -26303.518, -0.11621943, 0.053258557, -398909.1, 40567.12, 0.0, 10.000891, 9.998601 
1.2450083e+3, 2.6515535e+2, -227628.95, -412654.75, 53795.715, -0.022117108, 0.13382614, -213124.95, 128360.12, 0.000000050542315, 10.001291, 9.998864 
1.245009e+3, 2.7515426e+2, -96103.555, -296157.2, 37709.516, 0.12348283, 0.10239773, -89231.484, 154263.5, 0.0000061370592, 10.001511, 9.998892 
1.245007e+3, 2.8515282e+2, 20632.482, -270261.94, 17190.209, 0.056755662, 0.115838826, 21644.803, 167153.64, 0.000049451548, 10.002005, 9.998146 
1.24500245e+3, 2.951507e+2, 235634.34, -104885.81, -1598.8213, -0.19997883, 0.04008348, 235641.84, 283171.78, 0.00018750013, 10.002758, 9.998241 
1.2450023e+3, 3.0514935e+2, 310025.1, -147530.4, 35693.098, -0.057110447, 0.13702226, 312792.72, 312792.72, 0.000470274, 10.003383, 9.997329 
1.24500364e+3, 3.1514716e+2, 423708.6, -6342.835, -58775.695, 0.21011113, 0.13808966, 431596.84, 431596.84, 0.0008945071, 10.003715, 9.998138 
1.2550321e+3, 1.2515569e+2, -1931588.8, -1775165.0, 117079.32, 0.033259913, 0.11217355, -1712576.9, 898.2786, 0.0037739007, 9.998264, 10.000384 
1.2550287e+3, 1.3515529e+2, -1901456.3, -1742338.9, 57293.008, -0.1017391, 0.025256988, -1723856.4, -108378.23, 0.0020822603, 9.99795, 10.000127 
1.2550256e+3, 1.451553e+2, -1763286.0, -1511710.0, 7110.159, -0.3053187, -0.030841466, -1511509.1, 5967.191, 0.0007764397, 9.997736, 10.001103 
1.255025e+3, 1.5515573e+2, -1629894.5, -1397046.5, 684.74176, -0.11045558, -0.14323103, -1397044.5, 22425.236, 0.00013646827, 9.997983, 10.001102 
1.2550236e+3, 1.6515702e+2, -1574678.1, -1411945.6, 36979.777, -0.056873597, -0.07419265, -1403936.5, -82479.29, 0.0000030208696, 9.998089, 10.000282 
1.2550218e+3, 1.7515904e+2, -1460721.8, -1291146.5, 53981.527, -0.13543859, 0.055066857, -1275420.6, -51980.758, 0.0, 9.998142, 10.000405 
1.2550199e+3, 1.851595e+2, -1329931.4, -1248078.8, 2958.9707, -0.17519754, 0.09749074, -1247971.9, -122536.7, 0.0, 9.998663, 9.999784 
1.2550181e+3, 1.9515805e+2, -1083810.8, -1072621.0, 22523.713, -0.17816636, -0.06714015, -1055007.6, -27561.121, 0.0, 9.999643, 9.999844 
1.2550169e+3, 2.0515715e+2, -976080.06, -1043554.3, -6440.3604, -0.1069452, -0.10010502, -975470.8, -46016.875, 0.0, 10.000042, 9.999175 
1.2550165e+3, 2.1515651e+2, -889390.3, -939660.56, -10655.931, 0.03338082, -0.121614695, -887224.8, -55764.84, 0.0, 9.999912, 9.999279 
1.2550148e+3, 2.2515658e+2, -784677.44, -803615.44, -24322.309, 0.014021616, -0.051095437, -768045.94, -34585.293, 0.0, 9.99983, 9.999569 
1.2550123e+3, 2.3515694e+2, -672905.2, -689613.94, -31752.752, -0.14546838, -0.014126448, -648426.1, -12966.675, 0.0, 9.999879, 9.999658 
1.2550107e+3, 2.4515723e+2, -531448.3, -567208.75, -51676.008, -0.19331855, 0.053109914, -494646.63, 42811.83, 0.0, 10.000148, 9.999699 
1.2550098e+3, 2.551571e+2, -353359.63, -426930.6, 10060.272, -0.13654816, 0.031316042, -352008.75, 87452.125, 0.0, 10.000681, 9.999728 
1.2550093e+3, 2.6515666e+2, -257165.33, -420294.28, 43776.32, -0.09008022, 0.058976475, -246160.22, 95306.76, 0.00000007625481, 10.001065, 9.998919 
1.255009e+3, 2.751555e+2, -118723.25, -298106.63, 67135.01, -0.047840804, 0.015106466, -96380.53, 147098.7, 0.0000061507535, 10.001317, 9.998971 
1.2550081e+3, 2.8515428e+2, -8612.461, -289725.16, 30899.55, -0.048119962, 0.04875581, -5256.0947, 140235.06, 0.000051588533, 10.001829, 9.998093 
1.2550068e+3, 2.9515257e+2, 210187.64, -124487.03, 47818.06, -0.07758972, 0.013841519, 216885.8, 264392.63, 0.00020006, 10.002615, 9.998173 
1.2550074e+3, 3.0515072e+2, 266375.0, -209290.0, 35354.08, 0.07312487, 0.07977308, 268988.34, 268988.34, 0.0005036429, 10.003254, 9.9969635 
1.2550068e+3, 3.1514814e+2, 318053.78, -160470.34, -4952.899, 0.091655575, 0.069403015, 318105.03, 318105.03, 0.0009532297, 10.003429, 9.997216 
1.2650314e+3, 1.2515695e+2, -1940354.5, -1755707.1, 90996.695, 0.16968845, 0.07190248, -1718400.4, -4938.7383, 0.004085261, 9.998115, 10.000607 
1.2650266e+3, 1.3515711e+2, -1904737.3, -1691668.0, -1015.24, -0.07369733, 0.010718275, -1691663.3, -76205.1, 0.0022650692, 9.99774, 10.000565 
1.2650244e+3, 1.4515729e+2, -1784161.1, -1527218.6, 41501.52, -0.18636008, -0.04876311, -1520681.5, -3227.0403, 0.00085386867, 9.997617, 10.00106 
1.2650229e+3, 1.551576e+2, -1616672.9, -1392911.3, -23262.96, -0.106104985, -0.16494381, -1390518.4, 28931.332, 0.00015477135, 9.998101, 10.001073 
1.2650219e+3, 1.6515875e+2, -1517258.9, -1388657.1, 45080.863, -0.05914907, -0.10472034, -1374428.4, -52990.004, 0.0000038088367, 9.998519, 10.000223 
1.265021e+3, 1.7516054e+2, -1326734.9, -1237283.8, 28933.365, -0.07803242, 0.0077128233, -1228741.0, -5318.36, 0.0, 9.999114, 10.000307 
1.2650196e+3, 1.851608e+2, -1238528.0, -1225605.1, 10743.121, -0.090951934, 0.04646057, -1219530.0, -94110.23, 0.0, 9.999379, 9.99959 
1.2650181e+3, 1.9515929e+2, -1145140.1, -1122469.6, -22845.748, -0.10349785, -0.1046561, -1108301.6, -80868.77, 0.0, 9.99932, 9.999652 
1.2650172e+3, 2.0515849e+2, -1039462.56, -1081712.8, -7155.976, -0.054489594, -0.11454132, -1038283.5, -108843.66, 0.0, 9.99964, 9.999102 
1.2650168e+3, 2.1515805e+2, -838312.2, -923100.9, -6699.0776, 0.04491803, -0.11099118, -837786.2, -6341.976, 0.0, 10.000298, 9.999201 
1.2650152e+3, 2.2515787e+2, -706213.8, -818997.94, 32176.127, 0.026406744, -0.039145157, -697680.0, 35768.027, 0.0, 10.000579, 9.999115 
1.2650129e+3, 2.3515762e+2, -616857.06, -710814.7, 7322.1226, -0.09457157, -0.014780433, -616289.9, 19163.984, 0.0, 10.000458, 9.999243 
1.2650114e+3, 2.4515767e+2, -464572.78, -481084.56, 8282.202, -0.12694854, 0.021611582, -461134.47, 76319.42, 0.0, 10.000359, 10.0002 
1.2650108e+3, 2.5515762e+2, -375080.78, -383630.47, -13805.445, -0.073488705, -0.04270138, -364903.47, 74548.37, 0.0, 10.000284, 10.000231 
1.2650105e+3, 2.6515728e+2, -313202.5, -459535.25, 37365.906, -0.05170889, -0.016121294, -304213.38, 37242.133, 0.00000015326442, 10.000745, 9.998802 
1.2650104e+3, 2.7515644e+2, -73762.63, -282957.06, 4140.816, -0.060140792, -0.023152975, -73680.7, 169786.84, 0.0000068361555, 10.001671, 9.998894 
1.2650101e+3, 2.8515533e+2, 43794.9, -262683.5, -4918.0493, -0.046500187, 0.023808662, 43873.797, 189352.63, 0.000055437977, 10.002162, 9.99813 
1.26501e+3, 2.9515365e+2, 179478.9, -138647.8, -18723.158, 0.004402251, -0.0047474704, 180577.05, 228070.14, 0.00021969865, 10.00238, 9.998203 
1.2650108e+3, 3.051514e+2, 255853.61, -167939.86, 34068.293, 0.12303527, -0.000010454544, 258574.84, 258574.84, 0.00055763865, 10.002999, 9.99736 
1.2650102e+3, 3.1514952e+2, 357982.94, -117652.77, -29237.217, 0.092193864, 0.025468532, 359773.4, 359773.4, 0.001054668, 10.003628, 9.997406 
1.2750283e+3, 1.2515676e+2, -1818604.8, -1523598.5, -42256.03, -0.030600023, 0.0031627908, -1517665.1, 195799.39, 0.0044096503, 9.998197, 10.00216 
1.2750247e+3, 1.3515766e+2, -1819841.0, -1517083.6, -6382.772, -0.07187052, -0.10761779, -1516949.1, 98500.23, 0.0024558255, 9.997736, 10.001768 
1.2750252e+3, 1.4515874e+2, -1795281.6, -1564850.0, 39223.098, 0.07697594, -0.12462348, -1558356.5, -40919.645, 0.00093550276, 9.997672, 10.000775 
1.2750211e+3, 1.5516087e+2, -1632298.5, -1435079.6, 12280.955, -0.14390424, -0.030764747, -1434317.8, -14899.607, 0.00017466526, 9.998136, 10.000769 
1.2750193e+3, 1.6516161e+2, -1509970.0, -1388395.8, 47671.313, -0.19605868, 0.0022105929, -1371932.4, -50521.414, 0.0000047674703, 9.998572, 10.000203 
1.2750202e+3, 1.751608e+2, -1329035.4, -1243271.1, 68109.484, -0.08964666, -0.14247128, -1205668.5, 17748.084, 0.0, 9.99911, 10.000269 
1.2750201e+3, 1.8516046e+2, -1283621.8, -1298597.0, -6961.728, -0.032067157, -0.13896765, -1280885.4, -155465.7, 0.0, 9.999297, 9.999125 
1.2750188e+3, 1.9516024e+2, -1191238.5, -1193334.5, -6593.5894, -0.010961346, -0.117945544, -1185610.3, -158186.73, 0.0, 9.999214, 9.999214 
1.2750173e+3, 2.0516022e+2, -1031399.3, -1025816.6, -1517.0723, -0.032895118, -0.052681446, -1025431.06, -96007.32, 0.0, 9.999475, 9.999567 
1.2750159e+3, 2.1516007e+2, -841512.7, -875433.7, 33037.74, -0.08930523, -0.066207245, -821336.3, 10087.571, 0.0, 10.000064, 9.999642 
1.2750146e+3, 2.2515942e+2, -756597.75, -864526.8, 10520.376, -0.11243201, -0.0512197, -755581.9, -22151.291, 0.0, 10.00033, 9.9989195 
1.2750135e+3, 2.3515798e+2, -667653.0, -760847.4, 20497.111, -0.1046951, -0.12855782, -663344.06, -27897.355, 0.0, 10.000221, 9.999012 
1.2750125e+3, 2.4515738e+2, -516535.06, -531313.2, -9095.489, -0.09554859, -0.13050608, -512205.5, 25246.377, 0.0, 10.000118, 9.999967 
1.2750113e+3, 2.5515735e+2, -419444.6, -424237.03, 4051.5112, -0.07535438, -0.17545862, -417133.72, 22315.033, 0.0, 10.000066, 10.000054 
1.2750115e+3, 2.6515737e+2, -372838.2, -529929.1, 56571.754, -0.058407504, -0.08803665, -354586.2, -13136.402, 0.00000020123079, 10.00052, 9.998425 
1.2750123e+3, 2.7515697e+2, -131728.25, -355183.13, 59341.42, -0.053527858, -0.014620608, -116947.1, 126512.68, 0.0000077157165, 10.001469, 9.998493 
1.2750123e+3, 2.8515586e+2, 26280.668, -263228.03, -14893.744, -0.080988586, 0.046910185, 27044.857, 172517.08, 0.000060411407, 10.002004, 9.998201 
1.2750115e+3, 2.9515392e+2, 155523.88, -138552.55, 15756.732, -0.12657678, -0.018250424, 156365.72, 203854.02, 0.00024271311, 10.002167, 9.998304 
1.2750123e+3, 3.0515134e+2, 289932.97, -52646.06, 48773.402, -0.0594596, -0.0933257, 296741.56, 296741.56, 0.0006225909, 10.002814, 9.9982395 
1.2750131e+3, 3.151517e+2, 375665.16, 11468.327, 38215.88, -0.05286577, 0.0622065, 379632.03, 379632.03, 0.0011840118, 10.003261, 9.998456 
1.2850274e+3, 1.251576e+2, -1958149.3, -1555778.4, 3278.1663, 0.13960679, -0.04979364, -1555751.6, 157704.97, 0.0047468157, 9.997046, 10.002496 
1.2850231e+3, 1.3515915e+2, -1725440.1, -1454747.1, -23065.008, -0.026472647, -0.11270036, -1452795.9, 162639.05, 0.0026545508, 9.998279, 10.001933 
1.285024e+3, 1.4516073e+2, -1705491.6, -1532762.5, 14821.754, 0.16024618, -0.083937295, -1531499.9, -14082.112, 0.0010215283, 9.998367, 10.000654 
1.2850197e+3, 1.5516283e+2, -1652361.8, -1451748.0, -37688.598, -0.090308316, 0.01725573, -1444901.3, -25501.152, 0.00019628371, 9.998043, 10.000693 
1.2850183e+3, 1.651632e+2, -1557019.5, -1427579.0, 61036.59, -0.13737564, 0.024835015, -1403337.6, -81941.49, 0.0000059623408, 9.998297, 10.000085 
1.28502e+3, 1.7516187e+2, -1332332.8, -1254184.8, 37776.03, -0.017602032, -0.16057935, -1238909.9, -15503.944, 0.0, 9.99912, 10.000197 
1.28502e+3, 1.8516149e+2, -1235743.0, -1252860.0, -3049.5178, 0.03493841, -0.16467312, -1235215.9, -109807.27, 0.0, 9.999553, 9.999308 
1.2850186e+3, 1.9516167e+2, -1091077.1, -1122892.0, 9327.104, 0.022466574, -0.11963849, -1088544.3, -61135.902, 0.0, 9.999832, 9.999395 
1.2850171e+3, 2.051618e+2, -943668.4, -998136.2, 59850.586, -0.025245305, -0.03953051, -905146.8, 24260.62, 0.0, 10.000137, 9.99944 
1.285016e+3, 2.151616e+2, -793881.6, -860734.06, 18433.357, -0.10641611, -0.04685976, -789135.8, 42272.863, 0.0, 10.000439, 9.999559 
1.2850152e+3, 2.2516075e+2, -722879.6, -860322.94, -6935.5073, -0.1025746, -0.043567467, -722530.56, 10886.707, 0.0, 10.00061, 9.998814 
1.2850147e+3, 2.3515896e+2, -613593.5, -743866.06, -25567.896, -0.01862576, -0.14407365, -608755.1, 26680.787, 0.0, 10.00064, 9.998921 
1.2850137e+3, 2.4515809e+2, -433013.25, -561866.25, -18205.756, -0.011035247, -0.13646638, -430490.34, 106953.68, 0.0, 10.001001, 9.999328 
1.2850122e+3, 2.5515786e+2, -238164.97, -406222.13, -76668.6, -0.06651648, -0.13743258, -208444.36, 231000.19, 0.0, 10.001621, 9.999423 
1.2850125e+3, 2.6515743e+2, -204992.34, -470257.84, 773.4535, -0.05677321, -0.05502483, -204990.1, 136460.34, 0.00000014147287, 10.001748, 9.998248 
1.2850145e+3, 2.7515644e+2, -140913.83, -378757.47, -18016.932, 0.0110833915, -0.02175241, -139556.77, 103908.945, 0.000007879153, 10.001478, 9.998332 
1.2850147e+3, 2.851552e+2, -19378.059, -274489.6, -45876.7, -0.0036044568, 0.034819815, -11378.871, 134099.75, 0.00006527563, 10.001653, 9.99829 
1.2850139e+3, 2.951535e+2, 161512.8, -123491.42, -61530.92, -0.086330906, -0.018360524, 174229.6, 221721.83, 0.000269289, 10.002155, 9.998411 
1.2850146e+3, 3.0515042e+2, 231548.19, -60560.594, -18390.873, -0.06821248, -0.15926288, 232701.5, 232701.5, 0.0006978728, 10.002298, 9.998452 
1.2850161e+3, 3.1515118e+2, 232673.81, 3253.2825, -149875.0, 0.0024460095, 0.017746473, 306698.72, 306698.72, 0.0013327203, 10.001944, 9.999062 
1.2950248e+3, 1.2515983e+2, -2025814.9, -1686702.3, -86863.414, 0.08492133, -0.07104103, -1665747.1, 47686.996, 0.0050962004, 9.997025, 10.001604 
1.2950215e+3, 1.3516182e+2, -1799067.9, -1590059.1, 32866.625, -0.046845317, -0.0034869665, -1585012.6, 30399.959, 0.0028611089, 9.99822, 10.001029 
1.2950203e+3, 1.4516337e+2, -1708005.5, -1537122.1, -22587.553, -0.08395531, 0.07510262, -1534186.9, -16790.504, 0.00111182, 9.998367, 10.000623 
1.295018e+3, 1.551635e+2, -1657968.0, -1458525.5, -29922.525, -0.08252224, -0.017322883, -1454133.0, -34738.008, 0.000219555, 9.998025, 10.000657 
1.295018e+3, 1.6516364e+2, -1565215.1, -1446666.6, 70744.15, -0.042216357, -0.025625927, -1413647.0, -92254.266, 0.0000074533, 9.9983015, 9.9999485 
1.2950197e+3, 1.7516379e+2, -1347544.9, -1281185.6, 83142.16, -0.00018814915, -0.049138404, -1224847.0, -1457.5621, 0.0, 9.999096, 10.000023 
1.2950192e+3, 1.8516394e+2, -1187126.9, -1148652.4, -11613.414, -0.04070312, -0.029984022, -1145418.6, -20032.563, 0.0, 9.999531, 10.000036 
1.2950172e+3, 1.9516362e+2, -1054559.9, -1028930.1, 34987.945, -0.13426761, -0.108493276, -1004484.06, 22903.203, 0.0, 9.999741, 10.000088 
1.2950161e+3, 2.0516323e+2, -1018531.7, -1110245.0, 51912.992, -0.16997975, -0.07929433, -995122.25, -65731.15, 0.0, 9.999958, 9.998752 
1.2950161e+3, 2.1516253e+2, -874470.8, -973767.0, 43805.04, -0.15020272, -0.06925892, -857908.56, -26508.674, 0.0, 10.000208, 9.99889 
1.2950161e+3, 2.2516175e+2, -763742.0, -882610.6, -22572.244, -0.08770214, -0.027323332, -759600.0, -26190.809, 0.0, 10.000343, 9.998789 
1.295016e+3, 2.3516057e+2, -650692.0, -764945.8, -3918.41, 0.01834652, -0.06578692, -650557.8, -15136.178, 0.0, 10.000396, 9.998895 
1.2950149e+3, 2.4515982e+2, -554825.4, -742348.6, -12259.872, -0.019409688, 0.011305857, -554027.25, -16596.785, 0.0, 10.000707, 9.998222 
1.295013e+3, 2.5515905e+2, -354271.75, -582547.2, -34926.96, -0.18613918, 0.067792326, -349047.38, 90392.68, 0.0, 10.001359, 9.998329 
1.2950133e+3, 2.6515743e+2, -233103.83, -488456.2, -27157.111, -0.1811136, 0.087843135, -230247.58, 111210.11, 0.000000052302592, 10.001561, 9.9982195 
1.2950158e+3, 2.7515495e+2, -172375.03, -394282.0, -7781.6304, -0.015133071, -0.031715747, -172102.48, 71381.68, 0.000007172051, 10.001257, 9.998335 
1.2950172e+3, 2.8515345e+2, -51248.086, -286905.44, -42821.496, 0.028958697, -0.0044103535, -43708.195, 101789.484, 0.00006969282, 10.001419, 9.998318 
1.2950169e+3, 2.9515243e+2, 125691.06, -143657.7, -16954.383, -0.037117332, 0.0077839373, 126754.08, 174258.31, 0.0003009035, 10.001925, 9.998382 
1.2950175e+3, 3.0514863e+2, 177818.77, -140356.17, -45919.297, -0.055895824, -0.17778224, 184313.31, 184313.31, 0.0007869782, 10.002161, 9.997971 
1.2950185e+3, 3.1514832e+2, 200114.53, 18703.83, -111570.805, -0.022177916, -0.06979833, 253198.97, 253198.97, 0.0015032826, 10.001598, 9.999329 
1.305023e+3, 1.2516233e+2, -1803132.4, -1640932.6, -107976.24, 0.122758485, 0.04584604, -1586991.6, 126419.42, 0.0054552136, 9.998831, 10.001043 
1.3050205e+3, 1.3516316e+2, -1948690.1, -1707117.1, -50284.426, 0.0701706, 0.042314447, -1697068.1, -81665.71, 0.003073975, 9.997406, 10.00061 
1.3050178e+3, 1.4516425e+2, -1855158.5, -1628583.6, -1806.5747, -0.10410832, 0.10168706, -1628569.3, -111178.805, 0.0012055306, 9.99742, 10.000455 
1.305017e+3, 1.5516396e+2, -1433966.9, -1364829.5, -53001.934, -0.050306607, -0.02285946, -1336119.5, 83271.84, 0.000244213, 9.999609, 10.000536 
1.3050176e+3, 1.6516398e+2, -1376828.9, -1348933.6, 34878.59, 0.022722384, -0.036585152, -1325317.3, -3928.087, 0.000009295233, 9.999612, 9.999973 
1.3050184e+3, 1.7516425e+2, -1530705.5, -1359969.1, 22255.205, 0.04019334, -0.04827867, -1357115.9, -133730.69, 0.0, 9.997841, 10.0000725 
1.305018e+3, 1.8516457e+2, -1415784.4, -1238502.3, 2059.2112, -0.013134585, -0.023968615, -1238478.4, -113098.445, 0.0, 9.997852, 10.00024 
1.3050169e+3, 1.9516458e+2, -1078122.1, -1013184.6, -24103.096, -0.111457966, -0.09001025, -1005216.0, 22160.95, 0.0, 9.999462, 10.000332 
1.3050164e+3, 2.0516413e+2, -996488.7, -1110348.3, 1094.1245, -0.1370425, -0.073410556, -996478.2, -67096.97, 0.0, 10.000146, 9.998665 
1.3050167e+3, 2.15163e+2, -918929.56, -1004801.3, 785.2413, -0.09797698, -0.09832644, -918922.4, -87527.66, 0.0, 9.999945, 9.998808 
1.3050169e+3, 2.2516218e+2, -769530.94, -909194.9, -750.75073, -0.04489604, -0.043789703, -769526.9, -36122.207, 0.0, 10.000394, 9.99858 
1.3050169e+3, 2.3516135e+2, -523088.16, -727789.44, -33984.21, 0.025361113, -0.029464459, -517593.63, 117820.57, 0.0, 10.001365, 9.998682 
1.3050161e+3, 2.4516036e+2, -453503.16, -727912.8, -1189.9484, -0.0026586293, 0.045191437, -453498.0, 83927.88, 0.0, 10.001526, 9.997937 
1.3050146e+3, 2.5515884e+2, -430774.4, -653641.5, 5287.376, -0.12145468, 0.056225814, -430649.03, 8794.071, 0.0, 10.000958, 9.998048 
1.3050151e+3, 2.6515704e+2, -296763.4, -504343.66, 88864.46, -0.11432056, 0.06430617, -263917.94, 77544.07, 0.000000026393016, 10.0010605, 9.998355 
1.3050176e+3, 2.7515468e+2, -86527.4, -344936.16, 78056.4, 0.004641563, -0.048142463, -64779.56, 178705.81, 0.0000066700077, 10.001788, 9.998431 
1.3050191e+3, 2.851533e+2, 56435.2, -237182.64, 90063.625, 0.058353133, -0.016519865, 81859.6, 227357.58, 0.00007506801, 10.002172, 9.998285 
1.3050199e+3, 2.9515237e+2, 189123.7, -116926.52, 69226.43, 0.057803027, 0.008912155, 204053.89, 251558.44, 0.00033561388, 10.002376, 9.998339 
1.3050202e+3, 3.051486e+2, 209047.06, -174608.52, 61930.313, -0.0053475825, -0.1504204, 218796.22, 218796.22, 0.0008838956, 10.002592, 9.997527 
1.3050207e+3, 3.151475e+2, 374970.84, 118443.15, -66157.734, 0.01155658, -0.07019596, 391027.7, 391027.7, 0.0016899819, 10.002723, 9.999487 
1.3150215e+3, 1.2516363e+2, -1812032.8, -1671524.0, -58383.594, 0.022260953, 0.13870758, -1650431.1, 62970.668, 0.005819013, 9.998877, 10.000812 
1.3150191e+3, 1.351632e+2, -1947052.4, -1711545.1, -93740.64, 0.17314811, 0.014849771, -1678788.9, -63384.67, 0.0032902497, 9.997427, 10.000576 
1.315016e+3, 1.4516339e+2, -1861671.4, -1646203.4, 49912.074, -0.08185938, -0.00881765, -1635203.1, -117803.19, 0.0013013786, 9.997449, 10.000319 
1.3150163e+3, 1.5516435e+2, -1451270.8, -1393916.3, 39053.004, -0.12417746, 0.011248869, -1374142.3, 45245.1, 0.00026992275, 9.999582, 10.000352 
1.3150164e+3, 1.6516429e+2, -1365406.3, -1335789.5, -53313.766, -0.07726558, -0.0062470897, -1295265.6, 26119.53, 0.00001153221, 9.999641, 10.000054 
1.315016e+3, 1.7516312e+2, -1522267.6, -1344976.5, -27393.027, -0.020086281, -0.17398837, -1340840.5, -117446.26, 0.0, 9.997839, 10.000178 
1.3150163e+3, 1.8516332e+2, -1443180.4, -1276915.9, 43272.695, -0.019082867, -0.15520361, -1266327.8, -140937.08, 0.0, 9.997782, 10.000006 
1.3150172e+3, 1.951645e+2, -1112058.5, -1055230.4, 48790.99, -0.04975196, -0.08141904, -1027182.75, 195.50185, 0.0, 9.999344, 10.000099 
1.3150175e+3, 2.0516452e+2, -988554.0, -1053370.5, -21855.73, -0.068675466, -0.032290738, -981873.0, -52495.113, 0.0, 9.999975, 9.999137 
1.315017e+3, 2.1516307e+2, -918544.7, -960431.94, 12244.543, -0.08032297, -0.13409884, -915228.0, -83835.34, 0.0, 9.999748, 9.99921 
1.3150167e+3, 2.2516207e+2, -837099.5, -984474.1, 18441.172, -0.11256377, -0.09581301, -834827.0, -101423.09, 0.0, 10.000128, 9.998186 
1.3150169e+3, 2.351612e+2, -588334.44, -803070.7, 20842.682, -0.1428614, -0.04784166, -586330.1, 49084.73, 0.0, 10.001114, 9.998284 
1.3150169e+3, 2.4515966e+2, -453831.0, -667404.7, -41310.5, -0.10863668, -0.03229936, -446119.0, 91311.49, 0.0, 10.001264, 9.99848 
1.3150169e+3, 2.5515732e+2, -427438.66, -591544.1, 2874.6663, -0.016455367, -0.15844926, -427388.3, 12063.927, 0.0, 10.000717, 9.998592 
1.3150176e+3, 2.6515615e+2, -314051.3, -484777.47, 100005.81, -0.0051089036, -0.12667772, -267930.47, 73533.164, 0.000000066602475, 10.000829, 9.998597 
1.3150188e+3, 2.751557e+2, -106662.984, -326747.3, 129397.08, -0.075739585, -0.07556419, -46843.785, 196625.55, 0.0000067822207, 10.001549, 9.998663 
1.3150203e+3, 2.851549e+2, 23661.637, -271012.94, 82796.32, -0.06096694, 0.013394949, 45331.766, 190809.42, 0.000081610815, 10.002011, 9.998138 
1.3150224e+3, 2.9515344e+2, 139338.22, -158574.47, 101017.34, 0.03935069, -0.0073226, 170361.03, 217852.89, 0.00036944333, 10.002109, 9.998186 
1.3150224e+3, 3.0515033e+2, 143438.27, -266274.63, 56623.535, -0.068807535, -0.06221299, 151119.8, 151119.8, 0.000976967, 10.002404, 9.996984 
1.3150223e+3, 3.1514853e+2, 319395.5, 98185.945, 5317.652, -0.18894744, -0.0011437809, 319523.25, 319523.25, 0.0018699723, 10.002336, 9.999526 
1.3250196e+3, 1.2516384e+2, -2125642.3, -1858102.8, 87018.77, 0.051231597, 0.076966844, -1832289.9, -118893.69, 0.006183249, 9.99684, 10.000529 
1.3250175e+3, 1.3516368e+2, -1666599.0, -1583801.6, -74270.375, 0.18620802, -0.0057885316, -1540171.3, 75226.16, 0.0035072896, 9.999394, 10.000497 
1.325016e+3, 1.4516361e+2, -1564668.4, -1528514.8, 105415.82, 0.07217241, -0.041769113, -1439637.1, 77759.37, 0.0013982238, 9.999592, 10.000092 
1.3250162e+3, 1.5516433e+2, -1649322.3, -1511800.5, 61565.22, -0.03847305, -0.024532882, -1488266.6, -68880.305, 0.00029637254, 9.998321, 10.000146 
1.3250159e+3, 1.6516428e+2, -1577875.9, -1459292.6, -31403.146, -0.026210919, -0.023283659, -1451489.9, -130105.0, 0.000014169166, 9.998272, 9.999862 
1.3250148e+3, 1.7516327e+2, -1303094.8, -1268467.9, -64278.594, 0.0051046684, -0.15309691, -1219211.9, 4181.93, 0.0, 9.999446, 9.999936 
1.325015e+3, 1.8516326e+2, -1189235.4, -1162791.9, 58686.26, -0.0015215522, -0.13981323, -1115856.4, 9536.358, 0.0, 9.999562, 9.999933 
1.3250165e+3, 1.9516388e+2, -1193955.5, -1105274.5, 41992.973, -0.022487218, -0.11401104, -1088545.5, -61160.176, 0.0, 9.998815, 10.000014 
1.3250175e+3, 2.0516393e+2, -1098282.4, -1089529.0, 590.0025, -0.02585196, -0.064476706, -1089489.4, -160105.05, 0.0, 9.999177, 9.999263 
1.3250177e+3, 2.1516317e+2, -783724.7, -878011.44, -22653.344, -0.025063429, -0.10930412, -778564.44, 52827.953, 0.0, 10.000626, 9.999345 
1.3250175e+3, 2.2516221e+2, -696608.94, -908009.5, 10638.623, -0.0916861, -0.07689239, -696074.9, 37328.086, 0.0, 10.001062, 9.998264 
1.3250169e+3, 2.3516083e+2, -661319.56, -822849.25, 12579.595, -0.2010768, -0.08578753, -660345.75, -24927.592, 0.0, 10.000563, 9.998412 
1.3250175e+3, 2.4515934e+2, -510804.72, -669584.75, -10124.494, -0.13020118, -0.080557205, -510161.75, 27270.541, 0.0, 10.00077, 9.998696 
1.3250192e+3, 2.551575e+2, -280085.34, -493525.47, -27267.848, 0.10083977, -0.17969786, -276656.8, 162791.4, 0.0, 10.001623, 9.998819 
1.32502e+3, 2.6515654e+2, -193720.34, -436620.75, 74042.4, 0.11321585, -0.13772531, -172929.8, 168527.86, 0.0000000978673, 10.001712, 9.998491 
1.3250199e+3, 2.751559e+2, -170590.72, -365086.4, 36281.11, -0.08453965, -0.08831518, -164043.27, 79421.57, 0.000006920427, 10.001155, 9.99858 
1.3250215e+3, 2.8515494e+2, -79140.01, -338578.72, 34678.184, -0.09889591, -0.005649225, -74584.69, 70891.25, 0.000086783395, 10.00141, 9.99796 
1.325025e+3, 2.9515326e+2, 193580.75, -153397.08, 1530.3746, 0.06744975, -0.024898868, 193587.5, 241081.42, 0.0003950438, 10.002577, 9.997998 
1.3250251e+3, 3.0515087e+2, 177060.58, -234976.88, -14589.341, -0.030718867, -0.005152665, 177576.52, 177576.52, 0.0010503886, 10.002594, 9.997098 
1.3250247e+3, 3.151487e+2, 201038.45, 73350.83, -73317.67, -0.10374453, 0.0117368065, 234413.53, 234413.53, 0.0020140882, 10.001379, 9.999811 
1.3350154e+3, 1.251633e+2, -2128550.0, -1861734.4, 69923.34, -0.11966844, -0.10276226, -1844520.4, -131129.67, 0.0065457188, 9.996831, 10.000507 
1.335015e+3, 1.351646e+2, -1683101.9, -1613229.4, 19701.703, -0.034512106, -0.021595461, -1608057.1, 7324.801, 0.0037237175, 9.999375, 10.000301 
1.3350172e+3, 1.4516474e+2, -1565810.4, -1543953.4, 33257.934, 0.19393335, -0.020607274, -1519874.4, -2492.9253, 0.0014951822, 9.999634, 9.999974 
1.3350159e+3, 1.5516399e+2, -1657683.5, -1533560.3, 32086.572, 0.06658157, -0.13522665, -1525756.4, -106369.164, 0.00032323142, 9.998326, 10.0 
1.3350151e+3, 1.6516408e+2, -1621462.5, -1544556.5, -7862.463, 0.025825776, -0.08273463, -1543760.9, -222373.81, 0.000017128494, 9.998252, 9.999286 
1.3350144e+3, 1.7516482e+2, -1351010.9, -1352829.0, -6504.803, -0.019276042, 0.017794438, -1345352.0, -121969.305, 0.00000000003443261, 9.999386, 9.999383 
1.335014e+3, 1.8516457e+2, -1193727.3, -1162240.1, 11807.718, -0.09945145, 0.029422145, -1158304.3, -32919.793, 0.0, 9.999509, 9.99997 
1.3350143e+3, 1.9516288e+2, -1206479.1, -1108522.0, 30651.408, -0.16268046, -0.17787507, -1099721.6, -72325.17, 0.0, 9.998706, 10.0000515 
1.3350157e+3, 2.0516251e+2, -1139593.1, -1134458.1, 36347.676, -0.14316775, -0.16115297, -1100587.4, -171188.16, 0.0, 9.9990015, 9.999042 
1.3350181e+3, 2.1516316e+2, -832480.06, -928186.06, 48585.793, -0.06309718, -0.04256887, -812138.56, 19256.867, 0.0, 10.000401, 9.999115 
1.3350184e+3, 2.2516245e+2, -692808.56, -844148.9, -21094.318, -0.12622079, -0.0007573125, -689923.4, 43479.85, 0.0, 10.000819, 9.998816 
1.3350168e+3, 2.3516025e+2, -657112.3, -763473.8, 14020.068, -0.2939703, -0.14925458, -655295.25, -19871.166, 0.0, 10.000339, 9.998926 
1.3350177e+3, 2.4515939e+2, -552335.75, -699693.5, 5397.0254, -0.22194639, -0.104025975, -552138.4, -14706.572, 0.0, 10.000538, 9.998594 
1.3350208e+3, 2.551594e+2, -322277.8, -528555.56, 22343.729, 0.07528648, -0.008595832, -319885.3, 119545.695, 0.0, 10.001402, 9.998681 
1.3350217e+3, 2.6515812e+2, -260630.45, -529320.0, 35308.758, 0.09082626, 0.041021682, -256067.97, 85375.75, 0.00000008871969, 10.00151, 9.997953 
1.3350207e+3, 2.7515534e+2, -242308.06, -453695.94, 36477.887, -0.16555148, -0.08089212, -236190.36, 7281.5693, 0.000006673535, 10.000904, 9.998088 
1.3350223e+3, 2.8515336e+2, -127759.11, -394947.22, 58613.285, -0.2079686, -0.060783565, -115466.61, 30026.834, 0.00008871381, 10.001214, 9.997669 
1.3350269e+3, 2.9515183e+2, 136578.72, -212808.33, 69257.97, -0.0317991, -0.035678327, 149806.7, 197317.67, 0.00040777776, 10.002323, 9.997716 
1.3350277e+3, 3.0515033e+2, 205729.4, -131526.7, -69716.92, -0.06784677, 0.048412554, 219572.9, 219572.9, 0.0010944809, 10.002406, 9.997895 
1.3350275e+3, 3.1514767e+2, 172120.5, 104348.06, -30724.213, -0.02965788, -0.069334656, 183975.44, 183975.44, 0.002108087, 10.000985, 10.000217 
1.3450137e+3, 1.251629e+2, -1963021.1, -1771090.4, 6216.3984, -0.008591131, -0.18192247, -1770889.3, -57499.56, 0.0069055543, 9.997934, 10.000587 
1.3450134e+3, 1.3516463e+2, -1862300.1, -1690823.3, 9686.364, -0.055059645, -0.06491556, -1690277.8, -74900.01, 0.0039389143, 9.998133, 10.000359 
1.3450164e+3, 1.451652e+2, -1767123.9, -1640886.4, 7457.26, 0.21688916, -0.023055457, -1640447.4, -123072.45, 0.0015916337, 9.998263, 9.99997 
1.3450147e+3, 1.5516463e+2, -1565071.3, -1490452.6, -20399.725, 0.101960644, -0.117776066, -1485239.8, -65858.37, 0.0003501717, 9.998976, 9.999985 
1.3450141e+3, 1.6516481e+2, -1459941.4, -1465955.0, 41318.93, 0.058615047, -0.055949565, -1421520.0, -100138.95, 0.000020254476, 9.999348, 9.999304 
1.3450138e+3, 1.751655e+2, -1348997.8, -1347478.4, 48260.77, -0.004584477, 0.03918413, -1299971.4, -76595.21, 0.0000000014653116, 9.999388, 9.999419 
1.3450134e+3, 1.8516515e+2, -1233967.1, -1222904.4, 68817.1, -0.08118402, 0.059934437, -1159396.6, -34017.5, 0.0, 9.999408, 9.999597 
1.3450134e+3, 1.9516344e+2, -1115518.0, -1104279.4, 23190.742, -0.1431704, -0.11482295, -1086036.9, -58643.254, 0.0, 9.999505, 9.999688 
1.345015e+3, 2.0516282e+2, -1057804.4, -1088626.6, 98891.6, -0.13094975, -0.10686816, -973130.3, -43731.633, 0.0, 9.999512, 9.999114 
1.345018e+3, 2.1516308e+2, -963133.6, -976175.06, 95581.78, -0.06753372, -0.039249428, -873850.44, -42453.504, 0.0, 9.99943, 9.999246 
1.345019e+3, 2.2516245e+2, -823713.8, -908814.8, 35815.824, -0.094544046, 0.0023183539, -810646.75, -77243.03, 0.0, 9.999933, 9.998802 
1.3450186e+3, 2.3516068e+2, -557627.3, -712455.06, -1732.8116, -0.18486558, -0.09876919, -557607.94, 77813.16, 0.0, 10.001023, 9.998943 
1.3450195e+3, 2.451597e+2, -434803.22, -666473.56, -469.06256, -0.13677295, -0.055724476, -434802.28, 102627.664, 0.0, 10.001449, 9.998394 
1.3450217e+3, 2.551591e+2, -360133.66, -566194.94, -25810.438, 0.038462415, 0.0024348788, -356949.9, 82483.93, 0.0, 10.001239, 9.9985075 
1.3450228e+3, 2.6515752e+2, -273726.94, -578978.9, 19866.451, 0.045226894, 0.049053047, -272439.44, 69010.664, 0.000000062099474, 10.001612, 9.997562 
1.3450228e+3, 2.7515453e+2, -21749.096, -393516.47, -11364.94, -0.103211194, -0.053950764, -21401.992, 222080.2, 0.0000065347235, 10.002598, 9.997691 
1.3450249e+3, 2.8515223e+2, 60052.914, -285935.6, 64735.86, -0.120047584, -0.05362485, 71768.555, 217275.02, 0.00008986311, 10.002407, 9.9978485 
1.3450289e+3, 2.951506e+2, -19002.986, -255046.06, 63073.008, -0.010142394, -0.05672229, -3206.409, 44316.293, 0.00041373618, 10.001117, 9.998001 
1.3450295e+3, 3.051495e+2, 77497.92, -174723.05, -29710.65, -0.06210169, 0.03839327, 80950.46, 80950.46, 0.001115336, 10.001404, 9.998094 
1.3450304e+3, 3.1514695e+2, 454603.6, 219346.73, -85411.77, 0.07911809, -0.09568288, 482342.34, 482342.34, 0.0021558118, 10.003017, 10.000015 
1.3550115e+3, 1.2516242e+2, -1951921.1, -1744144.8, -128919.78, -0.10922702, -0.21582608, -1682464.1, 30931.373, 0.0072628423, 9.997935, 10.000772 
1.3550125e+3, 1.3516392e+2, -1849731.4, -1657299.5, 25767.697, 0.008020767, -0.14445789, -1653908.9, -38525.31, 0.004152666, 9.998113, 10.000596 
1.3550127e+3, 1.4516506e+2, -1775658.0, -1647835.5, 8755.705, -0.024200665, -0.05141633, -1647238.5, -129862.45, 0.0016872559, 9.9982195, 9.999941 
1.3550124e+3, 1.5516624e+2, -1563161.1, -1486793.3, 23076.977, -0.07312774, 0.025630273, -1480361.5, -60992.637, 0.0003769789, 9.998974, 10.0000105 
1.3550125e+3, 1.6516635e+2, -1414120.6, -1372330.4, 21655.021, -0.066454455, 0.04574947, -1363133.3, -41765.418, 0.000023370363, 9.999349, 9.9999485 
1.355013e+3, 1.7516515e+2, -1315879.5, -1265953.0, 64703.26, -0.07057958, -0.112465516, -1221564.4, 1811.2681, 0.0000000068048798, 9.999328, 10.00001 
1.3550133e+3, 1.8516497e+2, -1304872.8, -1346223.0, 54209.12, -0.09237998, -0.05994729, -1267529.9, -142152.27, 0.0, 9.999313, 9.998792 
1.3550137e+3, 1.9516553e+2, -1189489.9, -1228314.8, 44914.016, -0.10119946, 0.0695915, -1159972.6, -132595.8, 0.0, 9.999379, 9.998896 
1.3550149e+3, 2.0516488e+2, -1057670.1, -1048219.25, 76393.664, -0.12810104, 0.09492838, -976405.0, -47022.176, 0.0, 9.999341, 9.999472 
1.3550167e+3, 2.1516289e+2, -973805.56, -944770.1, 106832.55, -0.16832362, -0.098533034, -851473.4, -20075.771, 0.0, 9.999196, 9.999575 
1.3550189e+3, 2.2516207e+2, -901483.1, -1005452.44, 55150.8, -0.12897967, -0.062323976, -877678.5, -144272.97, 0.0, 9.99966, 9.998267 
1.3550216e+3, 2.351621e+2, -631417.2, -806973.3, 54981.082, -0.009495609, 0.066023216, -615619.6, 19789.822, 0.0, 10.000776, 9.998411 
1.3550223e+3, 2.4516036e+2, -492094.2, -727365.9, -26346.475, -0.0152828125, 0.07606657, -489179.94, 48246.023, 0.0, 10.001198, 9.998097 
1.3550213e+3, 2.5515667e+2, -413246.75, -621918.56, -13921.316, -0.14940883, -0.14969489, -412322.1, 27134.807, 0.0, 10.001007, 9.998237 
1.3550226e+3, 2.6515454e+2, -325235.03, -638670.56, 40094.66, -0.16340864, -0.12985814, -320187.4, 21291.432, 0.000000036385206, 10.001404, 9.997256 
1.3550262e+3, 2.751534e+2, -81887.76, -459784.8, 47846.305, -0.048624992, -0.010773545, -75923.96, 167572.27, 0.0000068750182, 10.00235, 9.997356 
1.3550287e+3, 2.851517e+2, 72642.67, -209348.08, -1505.9047, -0.006701807, 0.033793386, 72650.72, 218164.44, 0.00009120505, 10.002193, 9.998474 
1.35503e+3, 2.9514936e+2, -16574.182, -187394.61, 40571.188, -0.04326261, -0.10692085, -7427.926, 40104.105, 0.00041573873, 10.000847, 9.998597 
1.3550302e+3, 3.0514807e+2, 11589.61, -246557.83, 15478.33, -0.16237682, -0.036960013, 12514.367, 12514.367, 0.0011165407, 10.001147, 9.997715 
1.3550323e+3, 3.1514585e+2, 312241.84, 32266.943, 41550.676, -0.10338768, -0.09717987, 318278.2, 318278.2, 0.0021572434, 10.002579, 9.99893 
1.3650084e+3, 1.2516227e+2, -1996195.3, -1726870.6, -80018.3, -0.15740633, -0.15349573, -1704890.5, 8509.996, 0.0076198755, 9.997429, 10.001143 
1.3650112e+3, 1.3516347e+2, -1802017.8, -1621089.9, -30661.648, 0.07108033, -0.1360424, -1616034.9, -646.0195, 0.004366158, 9.998327, 10.000764 
1.36501e+3, 1.4516467e+2, -1748609.1, -1610792.4, -712.74, -0.10926753, -0.052772775, -1610788.8, -93409.164, 0.0017823466, 9.998301, 10.000148 
1.365011e+3, 1.5516639e+2, -1644516.4, -1499816.9, -993.5023, -0.04632035, 0.053330675, -1499810.1, -80442.414, 0.0004035849, 9.998313, 10.000229 
1.3650122e+3, 1.6516657e+2, -1501137.9, -1390392.5, 22210.592, -0.0025519945, 0.05873158, -1386104.1, -64738.625, 0.000026350568, 9.998642, 10.00017 
1.3650121e+3, 1.7516507e+2, -1303582.4, -1232469.0, -5343.6685, -0.06624973, -0.1514973, -1232069.8, -8694.837, 0.000000016360648, 9.999294, 10.0002575 
1.3650127e+3, 1.8516493e+2, -1272938.9, -1352799.9, 24323.633, -0.07617656, -0.09828219, -1266113.8, -140736.94, 0.0, 9.999645, 9.99858 
1.365014e+3, 1.9516578e+2, -1144328.6, -1221699.1, 23712.873, -0.0132256495, 0.08177641, -1137639.4, -110265.06, 0.0, 9.999784, 9.998733 
1.3650154e+3, 2.0516498e+2, -958173.5, -1014787.8, 93556.414, -0.040207114, 0.10337564, -888735.56, 40646.418, 0.0, 10.000072, 9.99936 
1.3650165e+3, 2.1516237e+2, -791848.6, -870729.44, 56867.16, -0.15647185, -0.13887969, -762083.4, 69318.47, 0.0, 10.000491, 9.99947 
1.3650192e+3, 2.2516143e+2, -745067.44, -930626.56, 65170.625, -0.116742335, -0.109013, -724466.0, 8944.425, 0.0, 10.000735, 9.9982605 
1.3650231e+3, 2.3516183e+2, -628745.0, -812303.7, 63353.46, 0.06454042, 0.05661361, -609002.56, 26408.453, 0.0, 10.000806, 9.998368 
1.3650243e+3, 2.4515994e+2, -493056.9, -731404.8, 34432.61, 0.0647497, 0.056918234, -488182.34, 49246.176, 0.0, 10.00121, 9.998058 
1.365023e+3, 2.5515565e+2, -270558.0, -556492.25, 24803.94, -0.11780979, -0.22534926, -268422.28, 171042.38, 0.0, 10.001999, 9.998205 
1.3650244e+3, 2.6515353e+2, -240367.88, -600661.06, 130576.45, -0.13753247, -0.20018306, -198021.75, 143464.47, 0.000000033203506, 10.002003, 9.99723 
1.3650285e+3, 2.7515313e+2, -223837.77, -524282.0, 122279.57, -0.002284182, -0.009304299, -180361.72, 63135.48, 0.0000069323874, 10.001367, 9.997382 
1.3650312e+3, 2.8515148e+2, -40264.332, -297251.56, 81869.945, 0.049197484, 0.05503603, -16398.84, 129115.45, 0.00008948749, 10.001596, 9.998143 
1.3650325e+3, 2.9514855e+2, 248700.53, -89138.625, 12755.475, 0.03139631, -0.11038612, 249181.44, 296719.72, 0.00040625758, 10.002815, 9.998315 
1.3650328e+3, 3.0514672e+2, 257791.31, -162768.69, 16224.825, -0.08901913, -0.068895325, 258416.31, 258416.31, 0.0010893871, 10.002993, 9.997418 
1.3650347e+3, 3.1514487e+2, 166147.69, -120420.27, -8006.3345, -0.06906244, -0.042879302, 166371.2, 166371.2, 0.00210587, 10.001878, 9.998265 
1.3750076e+3, 1.2516215e+2, -1969402.9, -1659571.1, 102078.17, -0.053455047, -0.031162567, -1628963.8, 84444.14, 0.0079810945, 9.997406, 10.001601 
1.3750088e+3, 1.3516323e+2, -1789767.3, -1594959.5, 3814.2903, -0.046682253, -0.044836234, -1594884.9, 20509.008, 0.0045821774, 9.9983225, 10.000938 
1.3750078e+3, 1.4516415e+2, -1715728.3, -1548702.8, -30935.135, -0.19982436, -0.02173375, -1543157.3, -25772.865, 0.0018779465, 9.99832, 10.000571 
1.3750109e+3, 1.5516506e+2, -1616785.0, -1444374.5, 16883.016, 0.052454997, -0.038415432, -1442736.8, -23358.934, 0.00043006244, 9.998312, 10.000614 
1.3750122e+3, 1.6516548e+2, -1515760.5, -1418166.5, 25214.096, 0.098820366, -0.016084064, -1412037.3, -90663.43, 0.000029160963, 9.998626, 9.9999895 
1.375011e+3, 1.7516539e+2, -1318034.6, -1256253.1, 35724.938, -0.12797892, -0.07109118, -1239915.6, -16542.88, 0.000000027808229, 9.999256, 10.000118 
1.3750117e+3, 1.8516503e+2, -1253269.1, -1298918.0, 10065.982, -0.17658977, -0.0518838, -1251148.1, -125772.0, 0.0, 9.999597, 9.998969 
1.3750142e+3, 1.9516402e+2, -1141167.8, -1184054.1, 41524.59, -0.012328273, -0.09285195, -1115876.6, -88488.89, 0.0, 9.999651, 9.999058 
1.375016e+3, 2.0516296e+2, -1015815.06, -1094389.0, 91581.72, -0.018473187, -0.08915306, -955449.25, -26051.453, 0.0, 9.999899, 9.998898 
1.375017e+3, 2.1516162e+2, -860512.7, -957398.0, 90994.0, -0.17832845, -0.15823142, -805869.94, 25538.617, 0.0, 10.000249, 9.998995 
1.3750193e+3, 2.2516072e+2, -754467.0, -883047.75, 51821.71, -0.20695549, -0.124789484, -736181.7, -2765.1187, 0.0, 10.000455, 9.998719 
1.3750224e+3, 2.3515993e+2, -639803.8, -766125.06, 85693.52, -0.10806922, -0.12102887, -596509.56, 38915.36, 0.0, 10.000523, 9.998815 
1.3750248e+3, 2.4515843e+2, -518518.8, -729264.2, 42586.336, -0.04068107, -0.110230625, -510238.53, 27199.25, 0.0, 10.000964, 9.998198 
1.3750264e+3, 2.5515613e+2, -293491.38, -552561.3, 69755.85, 0.00024798876, -0.21237534, -275903.3, 163553.28, 0.0, 10.001775, 9.9983425 
1.3750279e+3, 2.651547e+2, -246425.58, -570471.9, 89996.484, -0.022035273, -0.14058568, -223108.86, 118362.36, 0.000000022673568, 10.001814, 9.997527 
1.3750291e+3, 2.7515364e+2, -238346.06, -499307.34, 119086.02, -0.106978916, -0.048143033, -192172.58, 51313.62, 0.0000066245593, 10.001138, 9.997661 
1.3750316e+3, 2.851515e+2, -147152.5, -487064.94, 108350.695, -0.09349371, 0.018249102, -115552.305, 29956.896, 0.00008473701, 10.001444, 9.996918 
1.3750356e+3, 2.951483e+2, 126498.336, -283575.44, 82567.0, 0.03484186, -0.05089167, 142498.63, 190039.14, 0.00038290335, 10.002555, 9.997108 
1.3750368e+3, 3.0514538e+2, 205691.95, -221732.4, -32986.05, -0.023045208, -0.047627, 208222.64, 208222.64, 0.0010283956, 10.002785, 9.997103 
1.3750364e+3, 3.1514356e+2, 69198.31, -196499.02, 21962.809, -0.14791262, 0.011697272, 71001.54, 71001.54, 0.0019973381, 10.001376, 9.997958 
1.3850054e+3, 1.2516132e+2, -2046161.1, -1695131.6, 212732.53, 0.006082019, 0.02940707, -1594855.6, 118560.57, 0.008351057, 9.996885, 10.001616 
1.3850062e+3, 1.3516176e+2, -1838481.1, -1591900.6, 815.9955, -0.10246718, -0.06540858, -1591897.9, 23510.2, 0.004803759, 9.997887, 10.001179 
1.3850069e+3, 1.4516254e+2, -1742183.4, -1548262.8, -22663.043, -0.093829215, -0.07446837, -1545649.4, -28250.03, 0.0019753822, 9.9980755, 10.000701 
1.3850094e+3, 1.5516347e+2, -1590031.1, -1414219.9, -35041.164, 0.07944409, -0.1016869, -1407493.1, 11898.364, 0.00045665295, 9.998425, 10.0007715 
1.385011e+3, 1.6516429e+2, -1512976.4, -1422374.4, 21176.521, 0.102333196, -0.04283921, -1417669.1, -96284.84, 0.00003186285, 9.998708, 9.999904 
1.3850106e+3, 1.7516491e+2, -1358836.1, -1282051.0, -4017.1487, -0.084740564, -0.01988327, -1281841.5, -58462.652, 0.000000039188958, 9.999024, 10.000043 
1.3850117e+3, 1.8516453e+2, -1252559.6, -1259719.9, 3070.7048, -0.113631584, -0.020420969, -1251423.1, -126040.9, 0.0, 9.999404, 9.999351 
1.3850144e+3, 1.9516289e+2, -1050560.5, -1091281.0, 11219.141, 0.022372825, -0.16475686, -1047674.0, -20277.143, 0.0, 10.000043, 9.999515 
1.3850164e+3, 2.0516208e+2, -923948.56, -1064425.9, 118032.71, 0.012332308, -0.15138026, -856836.6, 72567.52, 0.0, 10.000605, 9.998753 
1.3850182e+3, 2.151618e+2, -725315.1, -901918.94, 104816.13, -0.1315072, -0.10275561, -676563.56, 154843.47, 0.0, 10.001229, 9.998893 
1.3850203e+3, 2.2516085e+2, -619676.7, -829343.6, 73076.64, -0.17454988, -0.06645069, -596720.3, 136695.8, 0.0, 10.001405, 9.998642 
1.385023e+3, 2.3515898e+2, -528637.7, -721411.56, 36257.293, -0.12547913, -0.16179983, -522043.9, 113390.07, 0.0, 10.001302, 9.998758 
1.3850258e+3, 2.451575e+2, -447606.16, -703836.5, 31768.666, -0.03659464, -0.14367805, -443726.06, 93721.125, 0.0, 10.001491, 9.998112 
1.3850291e+3, 2.551562e+2, -260773.72, -547916.06, -1610.3318, 0.077762865, -0.13638857, -260764.69, 178693.33, 0.0, 10.002032, 9.998251 
1.3850306e+3, 2.6515457e+2, -170575.16, -534452.0, -3197.2673, 0.047686312, -0.07824059, -170547.06, 170926.73, 0.0000000049794013, 10.0023365, 9.997525 
1.3850306e+3, 2.751523e+2, -33193.69, -403432.47, -33593.902, -0.12259651, -0.10786567, -30170.213, 213327.83, 0.0000064670485, 10.002533, 9.997659 
1.3850333e+3, 2.8515002e+2, 1161.9673, -439059.7, 49603.68, -0.11538836, -0.044722456, 6682.036, 152204.38, 0.00007994395, 10.002548, 9.996737 
1.3850385e+3, 2.951476e+2, 122451.016, -294707.44, 59763.234, 0.071006596, -0.02097173, 130843.99, 178392.66, 0.00035496187, 10.002552, 9.997042 
1.3850401e+3, 3.0514443e+2, 172377.28, -232432.27, -15928.314, 0.056465305, -0.039125495, 173003.06, 173003.06, 0.00095268304, 10.002523, 9.997155 
1.3850388e+3, 3.1514245e+2, 216972.56, -93335.59, 9521.928, -0.06920568, 0.0012641052, 217264.47, 217264.47, 0.001860375, 10.002217, 9.998263 
1.3950017e+3, 1.2515873e+2, -2079344.9, -1754413.0, 41137.67, -0.11852211, -0.054194685, -1749285.6, -35849.973, 0.008733579, 9.996865, 10.001203 
1.3950029e+3, 1.3515891e+2, -1817272.0, -1540175.0, 37291.055, -0.24344993, -0.21449536, -1535244.3, 80188.6, 0.005033633, 9.99786, 10.001542 
1.395007e+3, 1.451599e+2, -1747549.6, -1564031.4, -38866.176, 0.054961536, -0.21629761, -1556139.5, -38715.953, 0.002076125, 9.998094, 10.000584 
1.395006e+3, 1.5516166e+2, -1604216.5, -1436891.9, -3974.6392, -0.12570983, -0.14431252, -1436797.5, -17389.377, 0.00048381835, 9.998396, 10.000629 
1.3950074e+3, 1.6516289e+2, -1519561.8, -1436319.5, 10854.62, -0.15326323, -0.035949003, -1434927.4, -113529.11, 0.000034571214, 9.998708, 9.999809 
1.3950102e+3, 1.7516336e+2, -1381645.0, -1309194.9, 20973.105, -0.05686722, -0.012452737, -1303561.5, -80165.8, 0.00000005013657, 9.99894, 9.999899 
1.3950123e+3, 1.8516333e+2, -1213214.4, -1168141.5, 4478.4414, -0.033618957, -0.0009851332, -1167700.9, -42305.49, 0.0, 9.99936, 9.999999 
1.395014e+3, 1.9516252e+2, -1028910.06, -1015341.1, 50134.152, -0.050554074, -0.1254631, -971534.44, 55865.527, 0.0, 9.999905, 10.000107 
1.3950163e+3, 2.0516245e+2, -934630.2, -1049934.8, 122422.72, -0.09390841, -0.07686593, -856963.94, 72436.17, 0.0, 10.000444, 9.998927 
1.3950194e+3, 2.1516283e+2, -753248.3, -900629.3, 141910.36, -0.15787391, 0.021623895, -667036.25, 164361.86, 0.0, 10.000978, 9.999021 
1.3950221e+3, 2.2516178e+2, -684106.25, -917715.2, 52475.68, -0.17122483, 0.06744812, -672860.06, 60549.684, 0.0, 10.001193, 9.99814 
1.3950245e+3, 2.3515916e+2, -595745.9, -811932.1, 53137.402, -0.12318224, -0.056500472, -583391.06, 52045.418, 0.0, 10.0010805, 9.998245 
1.3950273e+3, 2.4515733e+2, -509170.13, -773724.06, 35353.023, -0.072821476, -0.031053457, -504527.28, 32927.527, 0.0, 10.0012455, 9.997749 
1.3950305e+3, 2.5515586e+2, -330918.7, -625325.5, 37245.387, -0.013391091, -0.0015958836, -326279.88, 113189.19, 0.0, 10.00175, 9.99785 
1.3950323e+3, 2.651532e+2, -227921.58, -604929.25, -12351.746, -0.055963162, -0.0076868385, -227517.34, 113976.9, 0.0000000011462398, 10.002121, 9.9971485 
1.3950329e+3, 2.7514926e+2, -94181.76, -473360.28, -4967.6577, -0.18484351, -0.16789795, -94116.68, 149414.64, 0.0000063015364, 10.002284, 9.997302 
1.3950357e+3, 2.851472e+2, 21691.992, -339213.63, 32273.342, -0.17273065, -0.10666274, 24555.264, 170107.1, 0.000075522126, 10.002309, 9.997533 
1.3950405e+3, 2.9514638e+2, 131195.64, -207404.3, 84714.33, -0.022681482, -0.0007209062, 151207.58, 198769.42, 0.00033164787, 10.002267, 9.997775 
1.3950424e+3, 3.051439e+2, 173857.0, -180283.27, -44642.887, -0.000030921543, -0.008073659, 179397.98, 179397.98, 0.0008920203, 10.002309, 9.997618 
1.3950412e+3, 3.1514224e+2, 211463.78, 16965.203, 50199.133, -0.11704754, 0.0077960137, 223655.7, 223655.7, 0.0017485601, 10.001721, 9.999253 
1.4050016e+3, 1.2515748e+2, -1955970.4, -1734055.9, 25400.602, 0.1541138, -0.068980895, -1731185.6, -17736.639, 0.009133226, 9.997844, 10.000873 
1.4050013e+3, 1.351583e+2, -1961683.6, -1630686.8, 25303.387, -0.13227381, -0.15209392, -1628763.6, -13322.446, 0.005275387, 9.996933, 10.001369 
1.405005e+3, 1.4515917e+2, -1895935.9, -1640076.0, 14354.882, 0.104419395, -0.15894885, -1639273.1, -121839.836, 0.0021822979, 9.99711, 10.000529 
1.4050043e+3, 1.5516055e+2, -1565751.8, -1427952.8, 8408.082, -0.15823139, -0.11435509, -1427441.6, -8020.769, 0.00051218417, 9.99871, 10.000536 
1.4050059e+3, 1.6516142e+2, -1449916.5, -1401825.4, 35032.367, -0.19397995, -0.036151852, -1383380.3, -61966.96, 0.000037386584, 9.999166, 9.999829 
1.4050095e+3, 1.7516163e+2, -1382826.3, -1298488.5, 23903.377, -0.012078696, -0.050070286, -1292184.9, -68772.84, 0.00000006103049, 9.998878, 9.999999 
1.4050122e+3, 1.8516167e+2, -1255115.4, -1220955.9, 50672.14, 0.032780223, -0.024096878, -1184562.4, -59150.973, 0.0, 9.999228, 9.999694 
1.405014e+3, 1.9516124e+2, -987560.8, -1023493.7, -11892.626, -0.047241457, -0.083376475, -983981.3, 43432.97, 0.0, 10.000316, 9.99985 
1.4050168e+3, 2.0516126e+2, -927444.3, -1010967.9, 33184.055, -0.08795291, -0.029680619, -915865.44, 13548.449, 0.0, 10.000336, 9.999258 
1.4050202e+3, 2.1516144e+2, -932453.5, -942342.6, 33516.78, -0.101677634, 0.015387835, -903518.5, -72105.664, 0.0, 9.999557, 9.999423 
1.4050233e+3, 2.2516064e+2, -860408.2, -973660.75, 46588.594, -0.09118279, 0.054878455, -843706.25, -110284.71, 0.0, 9.999876, 9.9983835 
1.4050263e+3, 2.3515868e+2, -548105.2, -752897.25, 64925.348, -0.052566983, -0.031670894, -529256.7, 106185.21, 0.0, 10.0012665, 9.998551 
1.4050294e+3, 2.4515702e+2, -405285.3, -754880.0, 105809.85, -0.020695742, 0.009560417, -375754.9, 161704.36, 0.0, 10.0020895, 9.997477 
1.4050324e+3, 2.5515532e+2, -246617.61, -607403.6, 84528.695, -0.005701062, 0.045207903, -227795.31, 211681.7, 0.0, 10.002435, 9.997641 
1.4050345e+3, 2.651523e+2, -170987.25, -586162.8, 75408.01, -0.039963264, 0.01863077, -157715.22, 183790.27, 0.0000000047036606, 10.002554, 9.997067 
1.4050359e+3, 2.75148e+2, -63216.67, -460139.2, 57331.758, -0.11228096, -0.16859396, -55101.55, 188442.86, 0.000006310061, 10.002527, 9.997267 
1.4050384e+3, 2.851459e+2, 30775.889, -319257.44, 108587.984, -0.10361771, -0.11897514, 61725.688, 207289.81, 0.00007178299, 10.002297, 9.997671 
1.4050424e+3, 2.9514515e+2, 68546.06, -228037.88, 79542.03, -0.017387304, -0.017537449, 88531.96, 136104.5, 0.0003183702, 10.001786, 9.997869 
1.4050445e+3, 3.0514285e+2, 118441.31, -217638.77, -33901.14, 0.023574611, -0.0075964793, 121826.89, 121826.89, 0.0008620041, 10.001976, 9.997518 
1.405044e+3, 3.1514052e+2, 401037.8, 142067.9, -59352.473, -0.040858466, -0.050763115, 413992.56, 413992.56, 0.0016920328, 10.002861, 9.999575 
1.4149997e+3, 1.2515743e+2, -1951295.1, -1733514.9, -143986.7, 0.08429045, -0.058799207, -1661880.1, 51577.28, 0.009556688, 9.9978695, 10.000878 
1.4150009e+3, 1.351601e+2, -2018776.1, -1736810.3, 6460.967, 0.096706875, 0.121839605, -1736662.3, -121231.016, 0.0055341963, 9.996888, 10.000664 
1.4150003e+3, 1.4516026e+2, -1894426.6, -1645644.0, 49427.508, -0.13155666, 0.07945133, -1636183.6, -118754.4, 0.0022969088, 9.997145, 10.000474 
1.4150034e+3, 1.5516007e+2, -1579443.1, -1452069.1, 81244.47, -0.15034635, -0.020586286, -1412524.9, 6905.5313, 0.0005425403, 9.998691, 10.0003805 
1.4150058e+3, 1.6516005e+2, -1420416.0, -1346912.1, -1390.3376, -0.16322117, -0.04113442, -1346885.8, -25457.457, 0.000040406845, 9.999188, 10.000201 
1.415008e+3, 1.7515998e+2, -1371702.4, -1255860.6, 29963.668, -0.08869168, -0.115888625, -1248569.1, -25143.668, 0.00000007226826, 9.998793, 10.00034 
1.4150107e+3, 1.8515971e+2, -1350009.9, -1403960.3, 72645.18, -0.065597594, -0.07361648, -1299493.3, -174064.55, 0.0, 9.99917, 9.998463 
1.415014e+3, 1.9515897e+2, -1095682.6, -1218258.3, 41614.242, -0.10057602, -0.038981814, -1082889.8, -55449.273, 0.0, 10.000188, 9.998575 
1.4150171e+3, 2.051584e+2, -906391.25, -933672.0, -19522.139, -0.11190221, -0.010812475, -896216.25, 33230.543, 0.0, 10.000184, 9.999862 
1.4150201e+3, 2.1515773e+2, -929070.44, -879275.44, 21302.06, -0.08561089, -0.110762335, -871406.1, -39955.44, 0.0, 9.999307, 9.999981 
1.4150238e+3, 2.2515745e+2, -826330.56, -842712.2, 78992.22, -0.06649973, -0.09961045, -755105.6, -21654.055, 0.0, 9.999619, 9.999404 
1.415028e+3, 2.3515737e+2, -523370.84, -636528.6, 132218.88, -0.045805383, -0.095087506, -436133.88, 199317.72, 0.0, 10.000994, 9.999479 
1.4150316e+3, 2.4515656e+2, -439748.6, -780457.4, 103763.6, -0.040737763, -0.009099137, -410634.94, 126825.45, 0.0, 10.00188, 9.997402 
1.4150348e+3, 2.5515473e+2, -279069.47, -632426.94, 116573.33, -0.046254747, 0.015367273, -244076.95, 195403.97, 0.0, 10.002245, 9.997561 
1.4150374e+3, 2.6515204e+2, -193853.31, -584082.94, 55637.477, -0.046875928, 0.016497623, -186075.73, 155431.16, 0.000000079284355, 10.002345, 9.997181 
1.4150393e+3, 2.751483e+2, -97589.875, -471139.03, 78826.93, -0.04857526, -0.11963156, -81636.98, 161902.61, 0.000007370644, 10.002271, 9.997315 
1.4150414e+3, 2.8514588e+2, -22818.773, -383699.66, 73005.766, -0.07109675, -0.08844154, -8609.284, 136952.73, 0.00007207351, 10.002092, 9.997325 
1.4150439e+3, 2.951439e+2, -306.12976, -309630.4, 86381.03, -0.07647885, -0.07625162, 22181.555, 69762.77, 0.00031938194, 10.001515, 9.997441 
1.4150463e+3, 3.051411e+2, 15372.793, -363685.78, -10373.207, -0.037602514, -0.04919003, 15656.451, 15656.451, 0.00086451345, 10.001709, 9.996625 
1.4150469e+3, 3.1513736e+2, 276563.28, 11830.782, 21150.256, -0.106422216, -0.153155, 278242.38, 278242.38, 0.0016914787, 10.002354, 9.998898 
1.4249964e+3, 1.2515669e+2, -1962540.6, -1751103.3, -109451.945, -0.014160773, 0.013186812, -1704650.4, 8819.381, 0.010011913, 9.997885, 10.000747 
1.4250003e+3, 1.3515888e+2, -1743757.9, -1648623.6, -89778.01, 0.24591577, 0.19430885, -1594590.0, 20857.832, 0.0058154534, 9.999004, 10.000245 
1.424998e+3, 1.4515857e+2, -1659933.8, -1542456.5, 12530.709, -0.1434269, 0.13110463, -1541134.8, -23685.1, 0.002423067, 9.9988, 10.000381 
1.4250022e+3, 1.5515816e+2, -1778582.1, -1556587.8, 3708.6526, -0.059506398, 0.017768644, -1556525.8, -137073.66, 0.00057589856, 9.997368, 10.000292 
1.4250049e+3, 1.6515815e+2, -1635097.0, -1425492.4, -12158.521, -0.07696849, -0.0075940597, -1424789.5, -103340.586, 0.00004378684, 9.997606, 10.000416 
1.4250071e+3, 1.7515838e+2, -1222132.8, -1155880.4, -29811.777, -0.09181227, -0.08131797, -1144441.0, 79001.24, 0.00000008454083, 9.999691, 10.000586 
1.4250104e+3, 1.851581e+2, -1171074.9, -1322644.0, 71763.016, -0.07161015, -0.052352577, -1142488.8, -17043.68, 0.0, 10.000407, 9.99843 
1.4250146e+3, 1.9515717e+2, -1121971.6, -1227641.9, 102502.24, -0.05262757, -0.03453125, -1059488.8, -32030.205, 0.0, 9.999992, 9.998603 
1.4250177e+3, 2.0515646e+2, -969636.9, -970254.75, 74511.92, -0.041458387, -0.019482803, -895433.25, 34032.883, 0.0, 9.999774, 9.999805 
1.4250202e+3, 2.1515557e+2, -852214.7, -848344.2, 30907.496, -0.023263253, -0.134384, -819311.4, 12160.673, 0.0, 9.999843, 9.999938 
1.4250241e+3, 2.251554e+2, -716295.0, -775954.7, 124310.48, -0.015346749, -0.119325265, -618285.44, 115186.48, 0.0, 10.000308, 9.999539 
1.4250292e+3, 2.351557e+2, -470125.9, -593003.7, 79566.58, -0.025118785, -0.08821478, -431038.3, 204429.28, 0.0, 10.00127, 9.999658 
1.4250335e+3, 2.4515508e+2, -453480.16, -756717.7, 31975.719, -0.01881925, -0.0074456707, -450145.06, 87329.28, 0.0, 10.001666, 9.997666 
1.4250371e+3, 2.5515324e+2, -341227.2, -632553.4, 30592.545, 0.0012684828, -0.010692091, -338049.3, 101445.52, 0.00000000006254562, 10.001687, 9.997832 
1.4250402e+3, 2.6515082e+2, -223508.4, -577966.3, 24807.592, 0.023004962, -0.0019196785, -221780.61, 119736.92, 0.00000036239143, 10.002043, 9.997366 
1.4250426e+3, 2.7514783e+2, -16487.773, -407477.16, 21751.547, 0.040488016, -0.09084025, -15281.412, 228261.81, 0.000010087366, 10.0027075, 9.99754 
1.4250447e+3, 2.851451e+2, 103383.56, -351994.84, 49795.703, 0.00087008614, -0.08176028, 108765.13, 254333.0, 0.00007872079, 10.003081, 9.997077 
1.4250463e+3, 2.9514214e+2, 260216.34, -207479.92, 15855.658, -0.061457235, -0.1457187, 260753.27, 308350.4, 0.00033516844, 10.003402, 9.997235 
1.425049e+3, 3.0513963e+2, 253904.3, -278278.44, 6692.3257, -0.008254306, -0.0681367, 253988.44, 253988.44, 0.0008965645, 10.003433, 9.996408 
1.42505e+3, 3.151359e+2, 337376.63, -1052.8832, 22093.574, -0.041704103, -0.15154411, 338812.88, 338812.88, 0.0017444047, 10.002911, 9.998566 
1.4349942e+3, 1.2515655e+2, -1977470.8, -1791919.5, 201907.1, -0.11059597, 0.26134968, -1662493.0, 50980.727, 0.010506618, 9.997914, 10.000452 
1.4349988e+3, 1.3515474e+2, -1766860.5, -1690893.4, -29086.865, 0.1731081, 0.07109749, -1681035.5, -65546.1, 0.006123269, 9.9989805, 9.999957 
1.4349978e+3, 1.4515421e+2, -1647509.6, -1530396.4, -62480.277, -0.098530225, -0.007504612, -1503322.1, 14171.079, 0.002563054, 9.998851, 10.000447 
1.4350003e+3, 1.5515508e+2, -1785634.0, -1561963.0, -31315.508, -0.03072058, 0.0071703685, -1557661.4, -138177.56, 0.0006133788, 9.997323, 10.000282 
1.4350028e+3, 1.6515593e+2, -1635030.9, -1421124.4, 42874.55, -0.097061105, 0.06599568, -1412850.8, -91376.984, 0.000047750204, 9.99759, 10.000454 
1.4350064e+3, 1.7515661e+2, -1226281.0, -1156623.5, 60191.16, -0.15785465, 0.037216667, -1121910.8, 101553.96, 0.00000010052836, 9.999651, 10.000606 
1.4350106e+3, 1.8515669e+2, -1088043.4, -1133924.5, 33370.45, -0.13013309, 0.037091188, -1070488.8, 54973.066, 0.0, 10.0003395, 9.999756 
1.4350149e+3, 1.9515595e+2, -1054334.4, -1053513.9, 102421.84, -0.045964673, -0.05943128, -951501.5, 75966.06, 0.0, 9.999848, 9.999867 
1.4350179e+3, 2.0515552e+2, -1039817.1, -1078984.1, 55962.543, -0.035403185, -0.047523074, -1000110.5, -70639.05, 0.0, 9.999611, 9.999137 
1.43502e+3, 2.1515505e+2, -939912.25, -974190.75, 49775.75, -0.058507618, -0.05370813, -904407.6, -72930.8, 0.0, 9.999597, 9.999192 
1.435024e+3, 2.2515453e+2, -804690.6, -896426.1, 143032.47, -0.08693502, 0.0041743135, -700351.44, 33130.57, 0.0, 10.000045, 9.998835 
1.4350298e+3, 2.3515381e+2, -560764.94, -711724.06, 133527.47, -0.12071904, -0.00063190656, -482860.2, 152628.75, 0.0, 10.000985, 9.998975 
1.4350347e+3, 2.4515255e+2, -450755.28, -693466.5, 11756.526, -0.09330467, 0.022479305, -450187.16, 87314.17, 0.0, 10.001412, 9.998225 
1.435039e+3, 2.551506e+2, -346980.78, -576840.56, 49124.824, 0.0011924044, -0.046412144, -336922.16, 102598.69, 0.000000006122379, 10.0014, 9.998351 
1.4350426e+3, 2.6514867e+2, -224425.14, -532379.44, 34047.492, 0.031565074, -0.033870086, -220705.77, 120831.89, 0.0000008787704, 10.001831, 9.997787 
1.4350453e+3, 2.7514654e+2, -22763.012, -368984.0, 67641.7, 0.010587152, -0.07358153, -10016.993, 233537.8, 0.000014147242, 10.002483, 9.997922 
1.4350475e+3, 2.851437e+2, 55075.316, -403063.1, 43458.273, -0.044576287, -0.08666077, 59161.258, 204742.75, 0.000090681104, 10.002868, 9.996826 
1.4350495e+3, 2.9513967e+2, 190408.34, -285846.5, 52424.48, -0.13150878, -0.22863233, 196110.77, 243732.64, 0.0003647409, 10.003108, 9.996844 
1.4350523e+3, 3.0513838e+2, 261890.11, -193270.42, -28572.027, -0.055947926, -0.041779272, 263676.66, 263676.66, 0.0009617202, 10.003165, 9.997109 
1.4350526e+3, 3.1513628e+2, 278692.34, -5109.5835, 49215.1, -0.12839274, -0.032542206, 286984.63, 286984.63, 0.001861219, 10.002419, 9.998774 
1.4449917e+3, 1.2515165e+2, -2032387.5, -1772746.4, 241718.9, -0.098535694, 0.19903532, -1628192.4, 85326.414, 0.011047917, 9.99731, 10.00088 
1.4449953e+3, 1.3515063e+2, -1989530.6, -1725305.6, -61768.93, 0.025449086, 0.010685172, -1711578.9, -96051.016, 0.00646129, 9.997107, 10.000628 
1.4449975e+3, 1.4515086e+2, -1808987.9, -1575704.8, -44861.88, 0.064369865, -0.0378178, -1567375.0, -49850.36, 0.0027186894, 9.997622, 10.000711 
1.4449988e+3, 1.5515225e+2, -1569648.9, -1423876.0, -44488.16, 0.045354247, -0.0012636621, -1411371.4, 8138.595, 0.0006559602, 9.998659, 10.000584 
1.4450014e+3, 1.6515324e+2, -1482719.6, -1368504.0, 113211.25, -0.038976327, 0.06515187, -1298812.4, 22687.135, 0.000052490832, 9.998729, 10.00027 
1.4450063e+3, 1.7515367e+2, -1430182.4, -1265744.8, 82608.51, -0.058709074, 0.029952459, -1231412.8, -7918.455, 0.00000012546444, 9.998319, 10.000492 
1.445011e+3, 1.8515399e+2, -1341686.4, -1201821.4, 26546.797, -0.02117338, 0.03140919, -1196952.3, -71463.1, 0.0, 9.998348, 10.000258 
1.4450148e+3, 1.9515389e+2, -1166435.1, -1048731.6, -283.62866, 0.022488657, -0.054562215, -1048731.0, -21244.09, 0.0, 9.998816, 10.000399 
1.4450179e+3, 2.0515367e+2, -1043695.75, -1124411.5, -3362.9448, 0.006487811, -0.025584599, -1043555.94, -114067.24, 0.0, 9.999786, 9.998741 
1.4450206e+3, 2.1515311e+2, -708862.75, -898256.44, -25080.781, -0.03618232, -0.0021862339, -705597.7, 125899.14, 0.0, 10.001356, 9.998861 
1.445025e+3, 2.2515215e+2, -608140.9, -849416.94, 99237.17, -0.049342327, 0.0485563, -572568.94, 160938.14, 0.0, 10.001593, 9.998417 
1.4450312e+3, 2.3515055e+2, -645167.0, -797365.06, 78113.42, -0.04443179, -0.0027062877, -612212.06, 23310.26, 0.0, 10.000584, 9.998584 
1.4450364e+3, 2.451491e+2, -563709.5, -683650.8, 17638.002, -0.016123353, -0.0077172224, -561169.56, -23634.166, 0.0, 10.000363, 9.9987955 
1.4450406e+3, 2.5514758e+2, -354699.25, -518652.03, 22390.918, 0.032048423, -0.08952283, -351696.34, 87852.61, 0.000000012932129, 10.001057, 9.998925 
1.4450444e+3, 2.6514623e+2, -257911.77, -499624.97, 47766.063, 0.070887804, -0.070384085, -248814.86, 92744.766, 0.0000016431604, 10.001399, 9.998219 
1.4450482e+3, 2.7514485e+2, -124511.766, -365624.1, 38812.406, 0.1018029, -0.07935529, -118418.055, 125151.86, 0.000019343763, 10.001567, 9.998378 
1.4450507e+3, 2.8514215e+2, -61565.832, -484980.06, 66322.39, 0.022191932, -0.08817797, -51420.38, 94175.38, 0.00010742439, 10.002184, 9.996585 
1.4450522e+3, 2.95138e+2, 184467.9, -306739.44, 45213.72, -0.15111263, -0.22193009, 188594.97, 236233.33, 0.0004102239, 10.003158, 9.99666 
1.4450555e+3, 3.0513665e+2, 318815.3, -130469.88, -35557.22, -0.05321126, -0.04387608, 321611.97, 321611.97, 0.001066146, 10.003399, 9.997437 
1.4450565e+3, 3.1513473e+2, 341519.4, 16153.245, -80736.57, 0.015888361, -0.05567189, 360451.78, 360451.78, 0.0020519032, 10.002901, 9.998679 
1.4549915e+3, 1.2514141e+2, -1945850.0, -1615813.4, 16684.426, 0.07495338, -0.26131538, -1614972.1, 98638.23, 0.011640448, 9.997395, 10.0019245 
1.454989e+3, 1.3514669e+2, -1886174.5, -1492996.3, -42079.527, -0.33959413, 0.008756907, -1488543.1, 127018.086, 0.0068325973, 9.997028, 10.002269 
1.4549968e+3, 1.4514868e+2, -1782569.5, -1522886.5, -21813.996, 0.16178904, 0.043384902, -1521066.9, -3524.8647, 0.0028915813, 9.997629, 10.001069 
1.4549977e+3, 1.5514958e+2, -1541175.0, -1357212.1, 7637.5728, 0.014380878, -0.018400405, -1356895.6, 62636.043, 0.00070428615, 9.99863, 10.001053 
1.4550003e+3, 1.6515008e+2, -1496493.0, -1405093.8, 71024.81, -0.05512221, -0.010638173, -1366336.5, -44810.363, 0.000058062662, 9.99876, 10.000007 
1.4550063e+3, 1.7514974e+2, -1460772.5, -1314818.6, 84209.51, 0.07181873, -0.094891205, -1276364.6, -52834.99, 0.00000016567238, 9.998258, 10.000187 
1.4550109e+3, 1.8515009e+2, -1366103.8, -1240997.5, 25266.797, 0.10638384, -0.06333877, -1236087.3, -110561.37, 0.0, 9.998296, 10.000018 
1.4550138e+3, 1.9515094e+2, -1205744.8, -1101561.5, 33678.16, 0.016960446, -0.022043597, -1091622.8, -64106.137, 0.0, 9.998685, 10.000107 
1.4550173e+3, 2.0515089e+2, -1081390.4, -1156382.0, 35836.484, -0.06039633, 0.046133973, -1067019.1, -137500.89, 0.0, 9.999597, 9.998609 
1.4550216e+3, 2.1514969e+2, -757015.7, -935335.6, 49481.39, -0.09277209, 0.01682529, -744205.5, 87327.34, 0.0, 10.001094, 9.998733 
1.455027e+3, 2.251481e+2, -646859.7, -869392.06, 42829.31, -0.050587486, 0.009908611, -638901.25, 94647.37, 0.0, 10.001332, 9.9984045 
1.4550331e+3, 2.3514599e+2, -695118.1, -826340.56, 59732.47, 0.05915878, -0.088072464, -672000.5, -36433.35, 0.0, 10.000272, 9.998531 
1.4550377e+3, 2.4514483e+2, -557124.1, -614561.8, 28866.494, 0.055669695, -0.08944896, -545123.9, -7548.11, 0.0, 10.0001135, 9.999395 
1.4550412e+3, 2.5514436e+2, -346118.9, -449615.66, 68428.45, -0.042145707, -0.12550741, -312074.8, 127502.91, 0.000000017460069, 10.000833, 9.999513 
1.4550453e+3, 2.6514366e+2, -261983.88, -460145.34, 37332.25, -0.0087536825, -0.0903707, -255184.06, 86397.82, 0.000002726617, 10.00119, 9.998589 
1.4550506e+3, 2.7514255e+2, -140097.6, -334344.44, 65744.766, 0.15509269, -0.11243188, -119937.875, 123652.41, 0.000025176965, 10.001301, 9.998714 
1.4550535e+3, 2.851404e+2, -102523.38, -507766.7, 84947.28, 0.054409377, -0.08174565, -85437.1, 60174.547, 0.00012773139, 10.00192, 9.996555 
1.4550544e+3, 2.9513702e+2, 148257.06, -323481.47, 106072.15, -0.28603485, -0.13654853, 171010.31, 218657.72, 0.00046808438, 10.002903, 9.996673 
1.455058e+3, 3.0513456e+2, 272667.16, -170980.19, -67783.12, -0.15784883, -0.06572878, 282792.4, 282792.4, 0.00120209, 10.00316, 9.997273 
1.455061e+3, 3.151309e+2, 215300.66, -142752.17, -57636.79, 0.1073104, -0.23225555, 224349.9, 224349.9, 0.0023053363, 10.002453, 9.997807 
1.4649905e+3, 1.251378e+2, -2103730.8, -1663641.6, 71710.5, 0.2993223, -0.29578897, -1652251.5, 61392.16, 0.012283002, 9.996215, 10.002158 
1.4649858e+3, 1.3514382e+2, -1860731.0, -1443591.0, 12525.375, -0.35581034, 0.016528508, -1443215.3, 172371.77, 0.00723705, 9.997067, 10.002579 
1.4649948e+3, 1.4514557e+2, -1799419.9, -1542912.4, 49942.35, 0.22621694, 0.02113135, -1533531.6, -15961.975, 0.0030819494, 9.99754, 10.000991 
1.4649965e+3, 1.5514632e+2, -1521557.3, -1338699.0, 6012.4785, 0.042708702, -0.06085037, -1338501.5, 81058.555, 0.0007585455, 9.998707, 10.001153 
1.4649998e+3, 1.6514681e+2, -1442892.5, -1388519.1, 53391.824, -0.0026711612, -0.054925807, -1355790.9, -34236.387, 0.00006440502, 9.999161, 9.999924 
1.4650054e+3, 1.7514652e+2, -1331475.3, -1264992.0, 44819.53, 0.13307342, -0.12770839, -1242432.3, -18873.563, 0.00000022299002, 9.999177, 10.000089 
1.46501e+3, 1.8514687e+2, -1218737.9, -1156151.8, 66541.16, 0.1406819, -0.094237946, -1113912.6, 11642.484, 0.0, 9.99929, 10.000098 
1.4650129e+3, 1.951478e+2, -1038278.1, -1002965.0, 63058.46, -0.002616082, -0.05851685, -955137.8, 72406.875, 0.0, 9.999792, 10.000231 
1.4650169e+3, 2.0514773e+2, -1009238.1, -1126879.8, 135789.92, -0.066267654, 0.0029804702, -920076.56, 9469.791, 0.0, 10.000101, 9.998577 
1.4650229e+3, 2.1514644e+2, -868074.94, -986754.94, 128145.94, -0.037355155, -0.032912455, -786196.56, 45365.496, 0.0, 10.000319, 9.998754 
1.4650284e+3, 2.25145e+2, -731304.06, -889350.6, 126502.08, 0.01094841, -0.035729535, -661171.56, 72404.66, 0.0, 10.0006695, 9.998582 
1.4650337e+3, 2.3514314e+2, -533885.4, -728581.25, 120995.03, 0.07130131, -0.12590478, -475938.72, 159652.83, 0.0, 10.00128, 9.998718 
1.4650385e+3, 2.4514204e+2, -422817.78, -590458.0, 108277.34, 0.07150052, -0.11510051, -369708.0, 167892.63, 0.0, 10.001218, 9.999028 
1.4650422e+3, 2.5514147e+2, -399123.9, -508274.25, 39955.113, 0.009042601, -0.123730674, -386061.38, 53544.14, 0.000000044837254, 10.0006275, 9.999198 
1.4650469e+3, 2.6514065e+2, -307750.7, -488408.44, 13264.319, 0.039477114, -0.084026635, -306782.0, 34830.652, 0.0000038968087, 10.000903, 9.998534 
1.465052e+3, 2.751393e+2, -36013.492, -291228.63, -20386.752, 0.15860122, -0.11795313, -34395.246, 209229.16, 0.000030518888, 10.002028, 9.99867 
1.465056e+3, 2.8513756e+2, 27991.734, -365124.84, 43608.727, 0.081287675, -0.07683575, 32771.176, 178412.16, 0.00014669454, 10.002468, 9.997275 
1.4650582e+3, 2.9513547e+2, 109107.234, -257740.64, 62159.645, -0.17447995, -0.07432166, 119353.54, 167015.61, 0.00052534003, 10.002282, 9.9974165 
1.4650619e+3, 3.051325e+2, 245348.33, -207361.16, -43805.688, -0.06596137, -0.080720596, 249548.14, 249548.14, 0.0013448142, 10.003083, 9.997045 
1.4650649e+3, 3.151283e+2, 495759.28, -48602.914, -107651.95, 0.15624332, -0.2685505, 516275.13, 516275.13, 0.0025808995, 10.004558, 9.997433 
1.4749835e+3, 1.2514035e+2, -2126833.3, -1723205.5, -126891.5, -0.11505395, 0.061261088, -1686628.3, 26994.908, 0.012969953, 9.996275, 10.001704 
1.4749849e+3, 1.3514203e+2, -1947984.8, -1608735.0, 39803.688, -0.19254676, 0.04386271, -1604127.5, 11477.491, 0.0076708426, 9.99702, 10.001449 
1.4749914e+3, 1.4514147e+2, -1805111.1, -1581169.4, 62836.594, 0.075367875, -0.10953871, -1564742.8, -47134.613, 0.0032881629, 9.997633, 10.000693 
1.474995e+3, 1.5514262e+2, -1543832.8, -1379559.5, 64784.918, -0.014919961, -0.12098962, -1357084.9, 62508.863, 0.00081847684, 9.998678, 10.000892 
1.474999e+3, 1.6514367e+2, -1428008.8, -1366264.1, 32902.016, -0.04514433, -0.057507824, -1352018.4, -30435.176, 0.000071419374, 9.999191, 10.000061 
1.4750035e+3, 1.751442e+2, -1334457.6, -1253480.8, 60498.9, -0.01897101, -0.060271237, -1221172.0, 2407.9116, 0.0000002932695, 9.999107, 10.000195 
1.4750075e+3, 1.8514448e+2, -1194687.8, -1107711.1, 64109.363, -0.06573641, -0.052989785, -1073731.8, 51843.72, 0.0, 9.99928, 10.000443 
1.4750113e+3, 1.9514437e+2, -1028798.5, -959669.44, 97046.69, -0.1780062, -0.160879, -891215.7, 136356.19, 0.0, 9.999679, 10.000589 
1.4750165e+3, 2.0514408e+2, -1019204.06, -1108970.5, 121777.41, -0.16653919, -0.14976619, -934301.94, -4727.864, 0.0, 9.999933, 9.998777 
1.4750236e+3, 2.1514341e+2, -893887.2, -981042.06, 149835.58, -0.020767383, -0.14273311, -781420.75, 50163.098, 0.0, 10.000068, 9.998911 
1.4750291e+3, 2.2514285e+2, -741129.2, -858057.25, 129553.44, -0.013534919, -0.08126342, -657459.0, 76130.82, 0.0, 10.000432, 9.99892 
1.4750332e+3, 2.3514205e+2, -543806.8, -698102.0, 160108.53, -0.14286469, -0.10209168, -443228.53, 192366.86, 0.0, 10.001052, 9.999044 
1.475038e+3, 2.4514073e+2, -546725.5, -796181.44, 65232.258, -0.12675041, -0.06388593, -530697.25, 6912.4126, 0.0, 10.000995, 9.997723 
1.4750434e+3, 2.5513873e+2, -528719.3, -719421.5, 34623.93, 0.03793702, -0.08775075, -522627.6, -82993.55, 0.000000082863835, 10.000378, 9.997869 
1.4750482e+3, 2.65137e+2, -371703.22, -565827.2, 41869.7, 0.06454599, -0.050936304, -363057.6, -21404.135, 0.0000048986644, 10.000659, 9.998118 
1.4750525e+3, 2.7513513e+2, -96201.47, -360614.63, 48128.65, -0.038787324, -0.102293715, -87713.53, 155958.3, 0.00003489947, 10.001789, 9.998302 
1.4750573e+3, 2.8513384e+2, 73992.28, -215113.38, 18120.166, -0.06344983, -0.0569949, 75123.57, 220805.67, 0.00016199093, 10.00223, 9.998421 
1.4750625e+3, 2.9513314e+2, 148502.98, -109828.32, 77870.33, -0.005206118, -0.037573326, 170160.25, 217844.69, 0.0005773318, 10.001998, 9.998567 
1.4750665e+3, 3.0513024e+2, 190501.97, -255162.17, -3516.9097, 0.05017524, -0.084000856, 190529.72, 190529.72, 0.0014793195, 10.002794, 9.996856 
1.475067e+3, 3.151267e+2, 436570.2, -59256.83, -1466.5344, -0.14937605, -0.1968309, 436574.53, 436574.53, 0.0028372656, 10.004077, 9.99759 
1.4849792e+3, 1.2513873e+2, -2211409.0, -1790401.0, -179693.78, -0.11536452, 0.1582973, -1724134.8, -10492.807, 0.013700781, 9.995785, 10.00149 
1.484984e+3, 1.3513869e+2, -1798062.6, -1594305.5, -14873.388, -0.026924327, 0.023612348, -1593225.5, 22412.215, 0.00813248, 9.998252, 10.000973 
1.4849891e+3, 1.4513753e+2, -1704518.1, -1542668.1, 45839.633, 0.044099744, -0.1577113, -1530587.1, -12941.755, 0.0035089266, 9.998413, 10.00056 
1.4849935e+3, 1.5513863e+2, -1670772.5, -1448941.3, 18168.662, 0.028118126, -0.16621652, -1447463.0, -27831.408, 0.0008836724, 9.997868, 10.000791 
1.4849982e+3, 1.6513975e+2, -1596960.0, -1426615.9, 38222.523, 0.017194742, -0.0962009, -1418432.5, -96812.805, 0.00007901186, 9.997985, 10.000218 
1.4850025e+3, 1.7514053e+2, -1340476.4, -1236131.3, 28214.904, -0.024873372, -0.0869965, -1228990.6, -5377.6523, 0.00000037325287, 9.999005, 10.000362 
1.4850067e+3, 1.8514083e+2, -1206347.3, -1139841.6, 38996.813, -0.07476398, -0.076408796, -1121845.1, 3763.782, 0.0, 9.999305, 10.000216 
1.4850108e+3, 1.9514051e+2, -1116767.3, -1023087.1, -7290.433, -0.14224695, -0.18145616, -1022523.1, 5085.543, 0.0, 9.999159, 10.000406 
1.4850165e+3, 2.051402e+2, -1052481.0, -1084309.1, 52578.063, -0.122621015, -0.18051699, -1013461.4, -83850.71, 0.0, 9.999549, 9.999122 
1.4850238e+3, 2.1513972e+2, -805792.7, -895599.75, 55129.574, -0.012864518, -0.19147943, -779593.5, 52022.98, 0.0, 10.000494, 9.999287 
1.4850296e+3, 2.2513935e+2, -696363.1, -829633.3, 53025.176, -0.009013309, -0.13319701, -677840.06, 55780.27, 0.0, 10.000711, 9.998975 
1.4850341e+3, 2.3513892e+2, -637523.06, -735010.3, 26514.488, -0.12371733, -0.1190941, -630778.3, 4845.627, 0.0, 10.000377, 9.999113 
1.485039e+3, 2.4513778e+2, -589719.44, -822911.75, 3815.637, -0.09977733, -0.06352088, -589657.06, -52019.43, 0.0, 10.00072, 9.997678 
1.4850447e+3, 2.5513577e+2, -338089.47, -630135.0, 30996.738, 0.06301737, -0.08000909, -334835.84, 104826.67, 0.00000011463164, 10.0016985, 9.997848 
1.4850499e+3, 2.6513404e+2, -180543.23, -494576.5, 134139.75, 0.08769411, -0.034063768, -131046.68, 210636.34, 0.000005857849, 10.002077, 9.997917 
1.4850545e+3, 2.751322e+2, -91073.26, -382375.88, 105663.0, -0.028634267, -0.05889066, -56782.984, 186919.56, 0.000039275426, 10.001941, 9.998077 
1.4850597e+3, 2.8513068e+2, 63513.035, -218083.95, 66292.52, -0.025756557, -0.02867439, 78338.81, 224054.34, 0.00017769585, 10.002146, 9.998441 
1.4850658e+3, 2.9512936e+2, 241929.56, -68025.1, 2641.7288, 0.10294621, -0.06246525, 241952.08, 289674.9, 0.0006303682, 10.002634, 9.998564 
1.4850701e+3, 3.0512646e+2, 264652.6, -224291.27, -37875.168, 0.13022989, -0.10654865, 267569.13, 267569.13, 0.0016042597, 10.003301, 9.996838 
1.4850715e+3, 3.151243e+2, 445999.53, -4335.823, -116550.016, -0.10192914, -0.0781145, 474375.53, 474375.53, 0.003054721, 10.003914, 9.998046 
1.4949769e+3, 1.2513347e+2, -2166828.0, -1716464.0, 3518.9463, -0.028484372, 0.057419028, -1716436.5, -2741.9597, 0.014485426, 9.995874, 10.001944 
1.4949827e+3, 1.3513432e+2, -1792618.0, -1567095.6, 71871.75, -0.021604136, -0.011574288, -1546138.4, 69541.914, 0.008627366, 9.998198, 10.001183 
1.4949872e+3, 1.451341e+2, -1684643.9, -1538044.1, -8443.939, -0.039986458, -0.10917171, -1537559.4, -19881.326, 0.0037456865, 9.998543, 10.00054 
1.4949918e+3, 1.5513454e+2, -1680124.3, -1468326.6, 12943.589, 0.01996196, -0.17724396, -1467538.6, -47867.047, 0.0009542572, 9.997856, 10.0006695 
1.4949965e+3, 1.6513522e+2, -1573806.0, -1394210.5, 55165.46, 0.01447081, -0.15402332, -1378619.1, -56956.414, 0.00008722728, 9.998042, 10.000414 
1.4950018e+3, 1.7513554e+2, -1335968.0, -1214904.1, 79700.26, -0.01717921, -0.20979986, -1175354.9, 48302.957, 0.0000004647829, 9.998958, 10.000527 
1.4950067e+3, 1.8513598e+2, -1261954.0, -1255527.9, 12151.521, -0.040984478, -0.15584669, -1246171.8, -120517.18, 0.0, 9.999296, 9.999431 
1.4950113e+3, 1.9513637e+2, -1192821.9, -1150816.3, 1604.5176, -0.048415337, -0.11019081, -1150755.0, -123100.78, 0.0, 9.999027, 9.999596 
1.4950168e+3, 2.0513624e+2, -1039163.9, -1019355.5, 68643.61, -0.08548849, -0.077637374, -959905.25, -30250.137, 0.0, 9.999384, 9.999649 
1.4950234e+3, 2.1513535e+2, -804115.0, -837317.2, 105164.48, -0.13349095, -0.18228474, -714249.4, 117410.41, 0.0, 10.000263, 9.999796 
1.4950296e+3, 2.2513455e+2, -750564.44, -886659.94, 21326.963, -0.10837597, -0.17850246, -747300.7, -13633.815, 0.0, 10.0004635, 9.998708 
1.4950357e+3, 2.351337e+2, -690971.06, -787944.06, 31670.627, -0.01652902, -0.18391925, -681544.06, -45866.47, 0.0, 10.000125, 9.998872 
1.495041e+3, 2.4513319e+2, -544886.6, -669679.6, 26720.393, -0.002266761, -0.11206553, -539406.0, -1721.5317, 0.0, 10.000458, 9.998856 
1.4950454e+3, 2.5513265e+2, -292360.3, -481618.56, 88246.125, -0.052253686, -0.10332869, -257598.38, 182092.69, 0.00000015644366, 10.001461, 9.998986 
1.495051e+3, 2.6513174e+2, -234983.88, -541429.75, 110368.49, -0.036831573, -0.021276895, -199372.3, 142329.7, 0.000006865855, 10.001801, 9.997724 
1.4950572e+3, 2.7513027e+2, -146459.7, -431945.75, 120736.734, 0.034054425, 0.010526559, -102245.695, 141473.23, 0.00004412461, 10.001672, 9.997862 
1.4950627e+3, 2.851278e+2, -46109.145, -389657.0, 67351.16, 0.029389633, 0.009936346, -33377.082, 112366.44, 0.00019465707, 10.001897, 9.997386 
1.4950675e+3, 2.951241e+2, 133890.72, -234402.52, 52224.82, -0.024236739, -0.1591915, 141153.11, 188930.69, 0.0006807664, 10.002377, 9.997549 
1.4950725e+3, 3.0512124e+2, 210120.2, -261233.66, -27690.334, -0.0062160306, -0.14781697, 211741.33, 211741.33, 0.0017053906, 10.002989, 9.996727 
1.4950767e+3, 3.151209e+2, 401950.66, 11316.615, -41231.695, -0.03210318, 0.07593499, 406255.25, 406255.25, 0.0032076885, 10.003458, 9.998371 
1.5049733e+3, 1.2512715e+2, -2164550.3, -1688448.0, 62345.195, 0.044018567, -0.027669346, -1680419.4, 33335.832, 0.015336173, 9.995776, 10.002194 
1.50498e+3, 1.3512951e+2, -2039711.6, -1603501.6, 51661.934, 0.008082868, -0.026816448, -1597466.6, 18259.078, 0.0091627855, 9.996114, 10.001955 
1.5049852e+3, 1.451301e+2, -1910241.6, -1657752.0, 251.19, -0.00614808, -0.07795802, -1657751.8, -140035.14, 0.0040015904, 9.997068, 10.000425 
1.5049905e+3, 1.5513049e+2, -1537029.8, -1405146.1, -21164.182, 0.06093402, -0.13810588, -1401833.0, 17879.25, 0.001031135, 9.998881, 10.000606 
1.5049955e+3, 1.6513105e+2, -1403937.0, -1317009.3, 36684.24, 0.055395346, -0.12360972, -1303597.4, 18107.756, 0.000096309515, 9.999203, 10.000396 
1.505001e+3, 1.7513117e+2, -1404592.6, -1246080.5, 10054.3125, 0.029718427, -0.20009665, -1245445.4, -21744.06, 0.000000575819, 9.998457, 10.00056 
1.5050063e+3, 1.8513158e+2, -1391235.8, -1325298.6, 11096.045, 0.032545093, -0.14488411, -1323481.4, -197783.11, 0.0, 9.998459, 9.99934 
1.5050112e+3, 1.9513214e+2, -1138871.3, -1129606.8, 19834.516, 0.029081704, -0.07478286, -1113870.8, -86173.29, 0.0, 9.999429, 9.999532 
1.5050171e+3, 2.0513207e+2, -959957.1, -958325.44, 140644.73, -0.011832502, -0.046763968, -818494.2, 111203.55, 0.0, 9.999834, 9.999855 
1.5050238e+3, 2.1513112e+2, -856613.94, -841793.4, 114177.94, -0.083283305, -0.17360556, -734785.5, 96915.984, 0.0, 9.999808, 9.999991 
1.5050302e+3, 2.2513032e+2, -830039.56, -904551.1, 49809.035, -0.054675598, -0.18545988, -805094.6, -71386.82, 0.0, 9.999854, 9.998866 
1.5050364e+3, 2.3512952e+2, -699486.56, -773031.4, 51981.027, 0.056177802, -0.20368773, -672586.06, -36867.867, 0.0, 9.999998, 9.999026 
1.5050419e+3, 2.451291e+2, -540327.4, -658774.75, 89059.14, 0.049933378, -0.1341636, -492597.9, 45126.297, 0.0, 10.000464, 9.998921 
1.5050465e+3, 2.551288e+2, -312162.34, -481511.72, 26187.412, -0.07570374, -0.105328195, -308205.28, 131522.94, 0.00000020302433, 10.001295, 9.999058 
1.5050523e+3, 2.651279e+2, -244639.23, -540729.1, 20525.863, -0.051125314, -0.02755952, -243223.1, 98515.51, 0.0000077496, 10.001698, 9.997783 
1.5050597e+3, 2.7512622e+2, -135462.97, -423010.84, 19537.082, 0.11599191, -0.024868155, -134141.63, 109615.45, 0.000048509926, 10.0017, 9.997923 
1.5050654e+3, 2.851238e+2, -30591.662, -400113.03, 76186.266, 0.11337541, -0.010483021, -15500.258, 130281.42, 0.00020995413, 10.002103, 9.997204 
1.5050699e+3, 2.951206e+2, 219559.14, -203472.98, 66857.21, -0.039144117, -0.11394454, 229873.94, 277687.25, 0.0007220719, 10.003057, 9.997402 
1.5050757e+3, 3.0511788e+2, 319262.88, -227111.47, 50091.914, -0.013223986, -0.074601255, 323817.38, 323817.38, 0.0017709631, 10.003797, 9.996591 
1.5050821e+3, 3.1511605e+2, 456087.2, 40591.887, -25314.705, 0.15424694, 0.02436217, 457623.84, 457623.84, 0.0032780797, 10.0037985, 9.998433 
1.5149693e+3, 1.2512027e+2, -2130147.3, -1664677.6, -33228.008, -0.018484695, -0.07577422, -1662317.6, 51501.13, 0.016257107, 9.995967, 10.002276 
1.5149754e+3, 1.3512458e+2, -1973271.1, -1438898.4, 95559.83, -0.08684061, -0.01107133, -1422323.9, 193446.97, 0.009740974, 9.9960165, 10.003135 
1.5149826e+3, 1.4512585e+2, -1907784.3, -1687684.1, 43342.77, -0.048876956, -0.03402573, -1679456.5, -161699.56, 0.0042781597, 9.997194, 10.000166 
1.5149891e+3, 1.5512651e+2, -1549001.1, -1437333.8, 60494.49, 0.002820664, -0.046792164, -1410845.0, 8908.342, 0.0011151112, 9.998904, 10.000376 
1.5149944e+3, 1.6512722e+2, -1400200.8, -1331024.0, -15876.981, -0.026775077, 0.00088559714, -1327554.1, -5807.3203, 0.000106548556, 9.999286, 10.000259 
1.5149993e+3, 1.7512749e+2, -1419193.1, -1271829.6, -3019.3848, -0.01532812, -0.05214887, -1271767.8, -48025.293, 0.0000007145684, 9.998426, 10.0004015 
1.5150048e+3, 1.8512776e+2, -1345751.0, -1229360.4, 28462.744, -0.010645783, -0.036315065, -1222772.8, -97033.8, 0.0, 9.998451, 10.000003 
1.5150103e+3, 1.9512787e+2, -1112742.6, -1046122.3, 69933.87, -0.047230266, -0.07721553, -1001970.8, 25767.432, 0.0, 9.999308, 10.000163 
1.5150167e+3, 2.0512773e+2, -997516.44, -995252.0, 118650.516, -0.052347478, -0.07613007, -877728.3, 52009.625, 0.0, 9.999654, 9.999691 
1.5150246e+3, 2.1512717e+2, -903708.6, -878627.8, 128871.305, -0.0037041963, -0.15017042, -761688.2, 70051.94, 0.0, 9.999545, 9.999866 
1.5150309e+3, 2.2512679e+2, -832512.06, -846996.0, 37690.96, -0.0031002078, -0.14301722, -801373.6, -67631.58, 0.0, 9.999578, 9.999398 
1.5150358e+3, 2.3512633e+2, -699677.3, -718853.2, 75303.58, -0.040860914, -0.17495735, -633353.75, 2392.296, 0.0, 9.999764, 9.999514 
1.5150411e+3, 2.4512549e+2, -652890.94, -839217.5, 100687.445, -0.09706259, -0.11576531, -608877.9, -71121.23, 0.0, 10.000223, 9.997805 
1.5150473e+3, 2.5512406e+2, -423113.06, -656486.2, 75266.58, -0.16097087, -0.09005903, -400944.25, 38831.164, 0.00000026346208, 10.001047, 9.99798 
1.5150538e+3, 2.6512235e+2, -257583.84, -499006.53, 6381.4194, -0.10839784, -0.064218596, -257415.28, 84379.47, 0.000008336701, 10.001412, 9.998207 
1.5150611e+3, 2.751201e+2, -146902.86, -380358.34, 44348.26, 0.065286055, -0.1578924, -138762.13, 105054.07, 0.00005112129, 10.001431, 9.998344 
1.5150672e+3, 2.8511897e+2, -36949.863, -352844.28, 93014.38, 0.05127261, -0.06288491, -11596.782, 134231.28, 0.00022272031, 10.001837, 9.997654 
1.5150726e+3, 2.9511863e+2, 207830.69, -163832.23, 127258.99, -0.12595935, 0.07009826, 247228.4, 295060.78, 0.0007570033, 10.00278, 9.997805 
1.5150793e+3, 3.0511606e+2, 262810.5, -259561.38, 35834.758, -0.0631226, 0.10866627, 265257.28, 265257.28, 0.001811775, 10.003462, 9.996515 
1.5150864e+3, 3.151097e+2, 381325.7, 13375.695, 43136.805, 0.1591213, -0.24391718, 386315.2, 386315.2, 0.0032877466, 10.003292, 9.998468 
1.5249658e+3, 1.2511408e+2, -2025739.4, -1741605.3, 45563.355, -0.02551543, -0.11217631, -1734477.6, -20603.867, 0.017244658, 9.997269, 10.001098 
1.5249725e+3, 1.3511771e+2, -1820631.9, -1381810.0, 8147.047, -0.020968718, -0.10095135, -1381658.9, 234177.66, 0.010359608, 9.997156, 10.002964 
1.5249804e+3, 1.4511983e+2, -1913782.9, -1643932.0, 24797.256, 0.046565518, -0.050261073, -1641672.3, -123856.54, 0.0045741852, 9.996971, 10.000563 
1.5249872e+3, 1.5512101e+2, -1677464.1, -1444520.6, 48803.453, -0.0076720035, -0.05762456, -1434709.3, -14903.589, 0.0012060112, 9.997775, 10.00087 
1.5249927e+3, 1.6512185e+2, -1574906.9, -1417929.5, -14280.208, -0.053662173, -0.017820524, -1416641.0, -94843.01, 0.000118081814, 9.998139, 10.000205 
1.5249975e+3, 1.7512228e+2, -1399544.0, -1260764.0, -32250.877, -0.025800196, -0.049474224, -1253635.4, -29841.646, 0.0000008766353, 9.998589, 10.000388 
1.5250036e+3, 1.8512258e+2, -1257383.5, -1177541.0, 47137.26, 0.0075167674, -0.034141358, -1155691.5, -29901.37, 0.0, 9.99901, 10.000102 
1.5250102e+3, 1.9512257e+2, -1056911.0, -1012168.7, 10609.082, 0.006583822, -0.09062544, -1009780.56, 18008.465, 0.0, 9.999646, 10.00025 
1.525017e+3, 2.051224e+2, -988096.3, -1010263.9, 37927.742, 0.019933656, -0.089067444, -959666.0, -29876.29, 0.0, 9.999779, 9.999531 
1.5250245e+3, 2.1512187e+2, -923551.25, -906784.5, 14771.272, 0.045719344, -0.1469668, -898183.44, -66389.85, 0.0, 9.999463, 9.999716 
1.5250309e+3, 2.251217e+2, -779630.94, -802523.44, -23101.15, 0.029204983, -0.11977774, -765295.8, -31502.074, 0.0, 9.999848, 9.999581 
1.525036e+3, 2.3512167e+2, -517103.5, -610044.56, -45008.508, -0.034441836, -0.12655187, -498880.3, 136912.08, 0.0, 10.000918, 9.999708 
1.525042e+3, 2.4512072e+2, -514592.6, -781583.6, 26461.885, -0.08399108, -0.083221644, -511995.2, 25808.127, 0.0, 10.001245, 9.997686 
1.5250485e+3, 2.551187e+2, -447083.6, -676158.1, 36993.67, -0.120541334, -0.10490028, -441257.6, -1430.0107, 0.0000003530132, 10.000942, 9.997877 
1.5250555e+3, 2.6511678e+2, -278345.66, -520053.56, 27257.977, -0.059143364, -0.089221366, -275309.84, 66538.63, 0.000008619123, 10.001294, 9.998126 
1.525063e+3, 2.751148e+2, -33966.363, -325390.44, -13686.718, 0.08842412, -0.15078509, -33324.98, 210542.47, 0.000051931653, 10.002215, 9.998333 
1.5250698e+3, 2.851136e+2, 107972.85, -293763.8, 43586.67, 0.08111588, -0.058893424, 112647.42, 258527.64, 0.00023518385, 10.002863, 9.997587 
1.525076e+3, 2.9511285e+2, 264907.34, -153963.6, 645.8695, -0.06077003, 0.045992855, 264908.34, 312797.84, 0.000791527, 10.003204, 9.997708 
1.5250832e+3, 3.0511078e+2, 275904.03, -182318.77, -68364.875, 0.019399881, 0.1110107, 285886.34, 285886.34, 0.0018473114, 10.003226, 9.997174 
1.5250903e+3, 3.1510487e+2, 322587.72, 9711.402, -85463.82, 0.2583629, -0.26328692, 344410.5, 344410.5, 0.0032831845, 10.002745, 9.998725 
1.5349622e+3, 1.2510961e+2, -2191380.3, -2115765.5, 44849.68, -0.20304464, -0.056360457, -2094913.8, -381003.16, 0.018294634, 9.997389, 9.998475 
1.5349708e+3, 1.3510914e+2, -1933172.5, -1614768.8, 7160.243, 0.05647753, -0.2849364, -1614607.9, 1312.6527, 0.011016667, 9.997169, 10.001342 
1.5349784e+3, 1.4511228e+2, -1811137.6, -1472097.3, 23436.277, 0.08710548, -0.1052836, -1470484.9, 47405.613, 0.0048880493, 9.997133, 10.001674 
1.5349843e+3, 1.5511423e+2, -1604130.5, -1275167.0, 90547.71, -0.11706068, -0.15329042, -1251890.5, 167976.45, 0.0013030368, 9.997709, 10.002067 
1.53499e+3, 1.6511524e+2, -1566902.5, -1420594.9, -21477.205, -0.17736112, -0.15498638, -1417507.3, -95651.195, 0.00013086536, 9.998208, 10.000159 
1.5349953e+3, 1.7511554e+2, -1410007.6, -1272616.5, -2641.131, -0.13759823, -0.19145603, -1272565.8, -48710.62, 0.0000010420176, 9.998547, 10.000326 
1.5350021e+3, 1.8511601e+2, -1292829.1, -1254615.9, 47675.176, -0.06991167, -0.1280655, -1222361.1, -96509.34, 0.0, 9.999017, 9.999573 
1.5350105e+3, 1.9511627e+2, -1102057.9, -1086347.5, 46518.246, 0.0514992, -0.112251006, -1047025.9, -19175.816, 0.0, 9.999555, 9.999786 
1.5350176e+3, 2.0511605e+2, -1024242.75, -1040745.2, 7997.098, 0.0508135, -0.08727372, -1021003.25, -91150.29, 0.0, 9.999588, 9.99941 
1.535023e+3, 2.151152e+2, -973469.06, -948885.3, 18672.156, -0.07298435, -0.16399655, -938822.3, -106960.4, 0.0, 9.999204, 9.999547 
1.5350296e+3, 2.251151e+2, -832374.1, -846474.06, -368.16306, -0.11404161, -0.11084518, -832364.5, -98502.04, 0.0, 9.999561, 9.999418 
1.535037e+3, 2.3511554e+2, -560108.94, -643261.25, 14000.476, -0.060125023, -0.06263628, -557814.94, 78042.445, 0.0, 10.0006695, 9.999603 
1.5350437e+3, 2.451147e+2, -506021.34, -688785.7, -622.6043, -0.063610874, -0.042321797, -506019.22, 31845.818, 0.0, 10.000936, 9.998466 
1.53505e+3, 2.5511253e+2, -434460.25, -589520.94, 45540.89, -0.09868235, -0.1574437, -422074.38, 17811.746, 0.0000004707298, 10.000698, 9.998585 
1.5350571e+3, 2.6511115e+2, -350298.16, -614316.1, 41417.41, -0.07047245, -0.09600904, -343953.34, -2052.5698, 0.0000086272985, 10.001055, 9.997593 
1.5350649e+3, 2.7511021e+2, -103561.36, -420006.25, 35765.09, 0.019541837, 0.0011523666, -99569.484, 144342.31, 0.000052741245, 10.002, 9.997786 
1.5350725e+3, 2.8510758e+2, 28526.127, -401113.3, 39063.063, 0.036568213, 0.00672521, 32048.879, 177988.88, 0.00024875673, 10.002607, 9.996979 
1.5350801e+3, 2.9510325e+2, 182057.83, -260585.84, 42963.246, -0.014619612, -0.19003534, 186189.31, 234173.9, 0.00082812813, 10.002923, 9.997109 
1.5350871e+3, 3.0510217e+2, 316707.3, -30011.566, -101863.51, 0.05547945, -0.053590603, 344419.2, 344419.2, 0.001892961, 10.002945, 9.998351 
1.5350923e+3, 3.1510127e+2, 279437.6, 48914.113, -43028.656, 0.1257305, -0.056714084, 287207.28, 287207.28, 0.0033092082, 10.002219, 9.999233 
1.5449595e+3, 1.2510388e+2, -2344842.5, -2153919.5, 36205.39, -0.11901355, -0.043216236, -2147284.5, -433319.56, 0.019406972, 9.9961815, 9.998791 
1.5449685e+3, 1.3510233e+2, -1802934.3, -1590749.9, 42687.504, 0.07532361, -0.35745236, -1582484.0, 33501.527, 0.0117135905, 9.998182, 10.00103 
1.5449761e+3, 1.4510636e+2, -1716631.5, -1439832.5, 83666.23, 0.11214012, -0.062191702, -1416508.6, 101438.03, 0.0052204016, 9.997858, 10.001547 
1.5449813e+3, 1.5510747e+2, -1672162.6, -1314747.9, 26811.021, -0.14487275, -0.18693784, -1312747.9, 107183.71, 0.0014059248, 9.99726, 10.002021 
1.5449879e+3, 1.6510828e+2, -1643969.6, -1444872.5, -50487.95, -0.18280475, -0.21244428, -1432801.4, -110878.45, 0.00014487762, 9.997631, 10.000262 
1.5449946e+3, 1.7510909e+2, -1318755.0, -1220848.9, -59243.715, -0.09141498, -0.20981045, -1192950.0, 30967.367, 0.000001197513, 9.999124, 10.000406 
1.545002e+3, 1.8510969e+2, -1215271.5, -1221701.4, 26658.377, -0.013864336, -0.13240083, -1191634.9, -65721.66, 0.0, 9.999592, 9.99951 
1.54501e+3, 1.9510989e+2, -1128979.8, -1102208.5, 24756.178, 0.06577701, -0.1182749, -1087450.9, -59538.133, 0.0, 9.999402, 9.999745 
1.545017e+3, 2.0510979e+2, -1043696.4, -1037965.1, 32045.635, 0.06814583, -0.085256144, -1008657.25, -78742.664, 0.0, 9.99942, 9.999509 
1.5450229e+3, 2.1510926e+2, -891991.94, -900299.3, 22692.646, -0.021350337, -0.13629168, -873075.94, -41156.074, 0.0, 9.999731, 9.99963 
1.5450299e+3, 2.2510894e+2, -801649.9, -860227.0, 66486.43, -0.04194809, -0.09578376, -758286.75, -24363.752, 0.0, 9.999924, 9.999132 
1.5450378e+3, 2.3510866e+2, -659598.5, -715921.6, 25350.5, -0.0021692866, -0.088580705, -649869.1, -13943.611, 0.0, 10.000131, 9.999344 
1.545045e+3, 2.4510768e+2, -521325.16, -676305.8, 3319.251, -0.006544001, -0.0793944, -521254.1, 16679.73, 0.000000000009610117, 10.000711, 9.998682 
1.5450515e+3, 2.5510588e+2, -280706.2, -494016.4, -18797.777, -0.044681672, -0.17417221, -279062.3, 160886.56, 0.0000005675007, 10.001629, 9.998817 
1.545059e+3, 2.6510462e+2, -213118.31, -556324.25, 15360.123, -0.023914825, -0.107722335, -212432.25, 129529.555, 0.000008574752, 10.002054, 9.99751 
1.545067e+3, 2.7510345e+2, -100884.016, -438261.8, 4894.508, 0.03738665, -0.021408329, -100813.02, 143163.33, 0.00005426492, 10.002089, 9.997632 
1.5450752e+3, 2.851006e+2, -398.75906, -389543.63, 81998.98, 0.06525645, -0.037660673, 16173.935, 162180.11, 0.00026286932, 10.002331, 9.997156 
1.5450834e+3, 2.9509622e+2, 173482.78, -244690.83, 92893.125, 0.040762354, -0.25401396, 193189.39, 241239.28, 0.0008685198, 10.002805, 9.99725 
1.5450908e+3, 3.0509517e+2, 438811.88, 28729.602, -26850.004, 0.113751896, -0.12871346, 440562.38, 440562.38, 0.001959959, 10.003775, 9.998362 
1.5450965e+3, 3.1509534e+2, 649536.5, 157024.5, -137509.52, 0.18950292, -0.010087912, 685328.1, 685328.1, 0.0033945085, 10.005052, 9.998624 
1.554956e+3, 1.2509629e+2, -2059532.3, -1599305.1, -30698.53, -0.20005225, -0.11559174, -1597266.5, 116775.984, 0.020587768, 9.996343, 10.002533 
1.5549648e+3, 1.3509741e+2, -1732912.0, -1427529.4, 88959.72, -0.14814897, -0.2822907, -1403504.9, 212524.98, 0.012455585, 9.998115, 10.002201 
1.5549728e+3, 1.4510207e+2, -1792201.4, -1618334.5, 26312.38, -0.052363057, 0.08275796, -1614439.8, -96455.35, 0.0055746003, 9.99794, 10.000283 
1.554978e+3, 1.551009e+2, -1764255.8, -1501506.4, 23034.691, -0.24133492, -0.14663956, -1499502.3, -79504.164, 0.001515748, 9.997252, 10.000739 
1.5549855e+3, 1.6510125e+2, -1607893.1, -1392055.5, -13141.029, -0.23455802, -0.16871564, -1391258.4, -69262.18, 0.00016035176, 9.997719, 10.0005865 
1.5549947e+3, 1.7510304e+2, -1305458.0, -1179166.5, 7531.046, -0.017439129, -0.09449718, -1178719.0, 45260.535, 0.0000013687348, 9.999066, 10.00072 
1.5550023e+3, 1.8510386e+2, -1193488.9, -1164996.0, -1251.2241, 0.029010274, -0.035206065, -1164941.3, -38968.887, 0.0, 9.999546, 9.999921 
1.5550081e+3, 1.9510351e+2, -1129210.8, -1062218.8, 33913.066, -0.090807535, -0.110696204, -1048048.44, -20072.14, 0.0, 9.999241, 10.0000925 
1.5550154e+3, 2.0510362e+2, -1045339.9, -1013207.6, 24777.746, -0.08117522, -0.083014876, -999743.1, -69768.9, 0.0, 9.99928, 9.999757 
1.555024e+3, 2.1510406e+2, -901745.94, -875753.7, 51321.055, 0.06868743, -0.06319589, -835808.8, -3841.483, 0.0, 9.999524, 9.9999075 
1.5550314e+3, 2.2510324e+2, -877389.25, -956672.25, 56351.88, 0.086707875, -0.061002396, -848132.4, -114157.92, 0.0, 9.9996605, 9.998597 
1.5550382e+3, 2.3510094e+2, -732404.25, -821023.56, 49324.332, -0.005299068, -0.20121197, -710409.8, -74411.84, 0.0, 9.999924, 9.998728 
1.5550452e+3, 2.4509953e+2, -575413.1, -729058.1, 23263.076, -0.07836805, -0.19114771, -571968.2, -33957.14, 0.0, 10.000453, 9.9984455 
1.5550528e+3, 2.5509888e+2, -328179.8, -539255.8, 32666.307, -0.1055709, -0.15486707, -323239.97, 116775.555, 0.0000005355393, 10.001398, 9.998618 
1.5550607e+3, 2.6509723e+2, -233701.73, -539250.5, 2834.7065, -0.076044686, -0.12743732, -233675.44, 108356.21, 0.000008556659, 10.0018, 9.9977455 
1.5550691e+3, 2.750945e+2, -122921.14, -423327.47, 30618.008, 0.0081427535, -0.2261103, -119832.26, 124228.44, 0.000056489618, 10.001833, 9.997851 
1.5550774e+3, 2.8509268e+2, 10454.413, -301762.06, 84404.17, 0.0107939765, -0.18780892, 31811.232, 177890.13, 0.00027893353, 10.002055, 9.9978895 
1.5550856e+3, 2.950916e+2, 185998.9, -147163.03, 133406.86, -0.0621858, -0.15387839, 232834.45, 280922.03, 0.0009153457, 10.00251, 9.998054 
1.555094e+3, 3.0508953e+2, 301947.0, -182871.69, 3424.9873, 0.02444656, -0.10138465, 301971.2, 301971.2, 0.0020538478, 10.003477, 9.997043 
1.5551017e+3, 3.150868e+2, 440518.56, -129841.36, -46799.367, 0.15149255, -0.14843807, 444333.06, 444333.06, 0.003548839, 10.004459, 9.996916 
1.5649533e+3, 1.2508932e+2, -2016563.0, -1505081.5, 28405.934, -0.07202132, -0.16235808, -1503508.8, 210600.3, 0.021849003, 9.996314, 10.003223 
1.5649626e+3, 1.3509117e+2, -2051515.5, -1587072.3, 3357.3054, -0.07389872, -0.23704788, -1587047.9, 29041.0, 0.013250772, 9.99596, 10.002142 
1.5649696e+3, 1.4509492e+2, -2010008.5, -1712376.5, -11983.838, -0.07310221, 0.02674111, -1711894.9, -193842.81, 0.0059556314, 9.996404, 10.000376 
1.5649755e+3, 1.550939e+2, -1712791.8, -1478905.6, 40930.535, -0.21704838, -0.18818729, -1471949.6, -51886.04, 0.0016345053, 9.997613, 10.000714 
1.5649836e+3, 1.6509436e+2, -1563193.8, -1389490.5, 92739.85, -0.20526987, -0.19048908, -1349283.6, -27223.152, 0.00017771397, 9.9980955, 10.000436 
1.5649939e+3, 1.7509614e+2, -1403063.9, -1242308.1, 54269.293, 0.030406445, -0.1030903, -1225702.6, -1658.3091, 0.0000016137079, 9.998441, 10.000602 
1.5650019e+3, 1.850969e+2, -1317623.6, -1240209.9, 14485.7295, 0.08711086, -0.038288645, -1237588.0, -111549.516, 0.0, 9.9987545, 9.999786 
1.5650074e+3, 1.9509648e+2, -1139360.6, -1086815.6, -21883.668, -0.07332429, -0.11052434, -1078895.4, -50850.816, 0.0, 9.999232, 9.999936 
1.565015e+3, 2.0509636e+2, -995966.06, -996227.2, -15203.348, -0.06057663, -0.09152233, -980892.75, -50847.832, 0.0, 9.9997015, 9.999643 
1.5650244e+3, 2.1509652e+2, -765609.5, -811608.25, -56088.383, 0.123350866, -0.09078217, -727988.06, 104051.76, 0.0, 10.000523, 9.999839 
1.5650322e+3, 2.2509553e+2, -694512.7, -905888.2, -32788.4, 0.14488837, -0.08559522, -689543.4, 44505.53, 0.0, 10.001046, 9.998293 
1.5650389e+3, 2.3509328e+2, -556070.2, -761211.94, -43700.473, 0.010270414, -0.19347054, -547148.9, 88924.52, 0.0, 10.001233, 9.998506 
1.5650463e+3, 2.4509189e+2, -453308.25, -653631.5, -7576.6875, -0.05348949, -0.17926662, -453022.1, 85064.36, 0.0, 10.001208, 9.998602 
1.5650545e+3, 2.5509116e+2, -381028.47, -543783.6, -3503.5906, -0.04979781, -0.16460855, -380953.1, 59137.51, 0.00000039469393, 10.000947, 9.998797 
1.5650627e+3, 2.650895e+2, -299288.53, -558786.25, 7679.794, -0.025146002, -0.15308407, -299061.44, 43044.797, 0.000008163994, 10.001289, 9.99786 
1.565071e+3, 2.7508682e+2, -70595.78, -385578.75, -15218.04, 0.010974678, -0.25836116, -69862.25, 174272.7, 0.000058543963, 10.002132, 9.997968 
1.5650795e+3, 2.8508532e+2, 110848.01, -225048.34, 51662.21, 0.00654443, -0.20312643, 118614.305, 264763.44, 0.00029613846, 10.002617, 9.998169 
1.5650883e+3, 2.950849e+2, 257095.55, -81921.164, 18591.352, -0.034155708, -0.12291354, 258112.03, 306262.16, 0.00096601876, 10.0028515, 9.998357 
1.5650977e+3, 3.0508205e+2, 307221.1, -206057.63, -14661.956, 0.05131341, -0.15352038, 307639.6, 307639.6, 0.002166349, 10.003603, 9.996825 
1.5651065e+3, 3.150795e+2, 459837.22, -155984.81, -61050.316, 0.18565199, -0.15429296, 465831.16, 465831.16, 0.0037553748, 10.004675, 9.996655 
1.5749498e+3, 1.2508217e+2, -2168445.0, -1842459.3, -14273.256, -0.15630598, -0.25177544, -1841835.5, -127662.91, 0.023204513, 9.996411, 10.000836 
1.5749608e+3, 1.3508393e+2, -2138774.3, -1766631.1, 7288.5767, 0.1321543, -0.18750602, -1766488.4, -150328.66, 0.014108494, 9.995961, 10.0009 
1.5749662e+3, 1.4508514e+2, -1878659.5, -1476997.3, 13168.095, -0.11152045, -0.20769775, -1476566.0, 41581.043, 0.0063687824, 9.996555, 10.001924 
1.5749738e+3, 1.5508644e+2, -1637214.1, -1311188.5, 94343.11, -0.19573446, -0.30724514, -1285856.4, 134271.97, 0.00176415, 9.997574, 10.001885 
1.5749815e+3, 1.6508761e+2, -1589233.4, -1458110.4, 81175.03, -0.25259364, -0.27160898, -1419327.8, -97211.9, 0.00019721544, 9.99815, 9.999939 
1.5749915e+3, 1.7508847e+2, -1441560.6, -1313901.8, 83093.875, -0.08983811, -0.23260053, -1272951.5, -48840.535, 0.0000019795527, 9.998406, 10.000124 
1.5750004e+3, 1.85089e+2, -1357441.4, -1328891.6, 14199.818, 0.003569764, -0.13630182, -1323031.8, -196921.64, 0.0, 9.998769, 9.999175 
1.5750076e+3, 1.9508904e+2, -1205305.6, -1189984.5, 9058.713, -0.020921247, -0.0983887, -1185781.4, -157666.34, 0.0, 9.999088, 9.999296 
1.5750153e+3, 2.050882e+2, -1060024.1, -1094645.4, -4950.391, -0.032538846, -0.09024409, -1059330.1, -129205.734, 0.0, 9.99954, 9.999049 
1.575024e+3, 2.150864e+2, -843206.5, -921691.1, -12864.761, 0.0026241536, -0.22371873, -841151.6, -9012.2, 0.0, 10.0002985, 9.999195 
1.575032e+3, 2.250856e+2, -719877.94, -902104.56, -39522.766, -0.02027013, -0.17541781, -711675.2, 22472.838, 0.0, 10.000804, 9.998434 
1.5750393e+3, 2.3508562e+2, -585283.44, -761775.06, -22579.854, -0.09197079, -0.070537604, -582440.44, 53711.78, 0.0, 10.000976, 9.998626 
1.5750474e+3, 2.450847e+2, -462628.8, -602371.1, -34348.49, -0.086783975, -0.040455792, -454642.44, 83518.0, 0.0, 10.000902, 9.999099 
1.5750562e+3, 2.5508273e+2, -383524.88, -494600.6, 2936.616, -0.0038142344, -0.20340756, -383447.28, 56727.082, 0.00000029448665, 10.0007105, 9.999246 
1.5750645e+3, 2.6508138e+2, -344022.22, -594932.8, 21799.41, -0.0073878975, -0.17501341, -342142.34, 43.677444, 0.000007127328, 10.001044, 9.997734 
1.5750723e+3, 2.7508032e+2, -106614.234, -410074.1, 35915.332, -0.10164753, -0.11127907, -102421.484, 141777.98, 0.000059012113, 10.001921, 9.997903 
1.5750812e+3, 2.850785e+2, 61470.188, -283891.88, 41312.17, -0.11637228, -0.07205051, 66343.19, 212560.31, 0.00030982727, 10.0024185, 9.997862 
1.5750915e+3, 2.9507622e+2, 187898.6, -152012.77, 55541.508, -0.042441502, -0.150135, 196743.9, 244980.0, 0.0010139579, 10.002535, 9.998028 
1.5751012e+3, 3.0507275e+2, 313454.66, -108238.055, 11865.817, 0.013135354, -0.26720938, 313788.28, 313788.28, 0.002282176, 10.003265, 9.997641 
1.5751098e+3, 3.150732e+2, 452842.66, -20155.588, 32974.5, -0.016710257, -0.06263413, 455130.38, 455130.38, 0.0039773253, 10.004074, 9.9978485 
1.5849453e+3, 1.2507348e+2, -2308494.5, -1989290.9, -55589.31, -0.1819237, -0.25152573, -1979887.0, -265629.25, 0.024665277, 9.9958, 10.000103 
1.5849572e+3, 1.3507535e+2, -1943775.9, -1650035.1, -31206.92, 0.12719974, -0.19262867, -1646756.4, -30512.625, 0.0150364665, 9.997191, 10.0011 
1.5849636e+3, 1.4507619e+2, -1707609.6, -1383575.9, -16871.852, -0.060841713, -0.27240598, -1382699.8, 135534.92, 0.0068181083, 9.997673, 10.002031 
1.584972e+3, 1.5507814e+2, -1712133.0, -1350756.8, -72137.766, -0.10063222, -0.3027189, -1336888.9, 83320.625, 0.0019058621, 9.997053, 10.00187 
1.5849799e+3, 1.6507933e+2, -1721305.4, -1507273.0, -50711.566, -0.18259126, -0.26895112, -1495865.6, -173669.75, 0.0002187055, 9.997196, 10.000056 
1.5849897e+3, 1.7507957e+2, -1419029.6, -1284178.1, -42483.113, -0.10224516, -0.3056245, -1271910.4, -47714.94, 0.000002466339, 9.998498, 10.00028 
1.5849991e+3, 1.8507999e+2, -1312766.5, -1326701.1, -56919.008, -0.00133769, -0.21967387, -1262390.0, -136194.34, 0.0, 9.99917, 9.998992 
1.5850072e+3, 1.9508037e+2, -1144076.4, -1178713.6, -61247.88, 0.024364114, -0.12730521, -1097745.6, -69547.25, 0.0, 9.999588, 9.999128 
1.5850154e+3, 2.050796e+2, -1014288.4, -1086182.3, 4041.5757, 0.0097983815, -0.09987251, -1014061.9, -83853.984, 0.0, 9.999877, 9.998961 
1.585024e+3, 2.150776e+2, -863488.7, -943138.4, 9257.076, -0.012346555, -0.24752331, -862426.94, -30201.473, 0.0, 10.000159, 9.999132 
1.5850322e+3, 2.250769e+2, -783024.0, -906267.75, 24427.832, -0.034894742, -0.19725381, -778358.8, -44125.625, 0.0, 10.000291, 9.9986515 
1.5850401e+3, 2.3507735e+2, -637281.75, -770075.9, 10688.831, -0.07587292, -0.06110781, -636426.9, -194.18094, 0.0, 10.000541, 9.998798 
1.5850487e+3, 2.4507654e+2, -466135.13, -614030.1, 6795.2793, -0.04060369, -0.022172151, -465823.56, 72416.93, 0.0, 10.00094, 9.998992 
1.5850577e+3, 2.5507447e+2, -270571.8, -458085.6, -41240.96, 0.055558607, -0.17845635, -261902.28, 178354.38, 0.00000023115544, 10.001564, 9.999092 
1.5850666e+3, 2.6507297e+2, -176381.19, -520264.8, 17372.914, 0.059724387, -0.15465239, -175505.75, 166764.13, 0.0000061293663, 10.002234, 9.997662 
1.5850754e+3, 2.7507165e+2, 67253.18, -329676.44, -8479.044, -0.035421338, -0.104280524, 67434.23, 311717.97, 0.000060026516, 10.00315, 9.997848 
1.5850846e+3, 2.8506964e+2, 146079.11, -277127.63, -20070.398, -0.04090726, -0.06611777, 147028.8, 293331.94, 0.0003212461, 10.003156, 9.997539 
1.5850946e+3, 2.9506707e+2, 123418.71, -218695.33, -53775.676, 0.043355934, -0.14157577, 131672.39, 179999.16, 0.0010570007, 10.00223, 9.997708 
1.5851045e+3, 3.050631e+2, 293444.84, -112063.21, -100.53106, 0.046781283, -0.29957715, 293444.88, 293444.88, 0.0023874303, 10.003065, 9.997737 
1.5851144e+3, 3.1506342e+2, 691452.2, 170546.67, -115214.02, 0.0021235677, -0.10177471, 715797.44, 715797.44, 0.0041719265, 10.005367, 9.998565 
1.5949428e+3, 1.2506416e+2, -2222765.0, -1865055.3, 66667.7, -0.11259417, -0.11322118, -1853034.1, -138678.33, 0.026239868, 9.995993, 10.000878 
1.5949516e+3, 1.3506562e+2, -1841539.9, -1442094.5, 54202.87, -0.19582172, -0.25639647, -1434870.0, 181469.03, 0.016040104, 9.997205, 10.002536 
1.5949614e+3, 1.4506786e+2, -1779962.3, -1578999.1, -61145.68, -0.113230765, -0.18778743, -1561857.0, -43540.336, 0.0073062, 9.997852, 10.000605 
1.5949696e+3, 1.5506926e+2, -1791429.0, -1526197.0, -84131.7, -0.07893787, -0.15395842, -1501761.5, -81457.125, 0.002060233, 9.997092, 10.000651 
1.594978e+3, 1.6506995e+2, -1658774.3, -1399535.6, -25776.82, -0.14912893, -0.14479177, -1396997.4, -74700.88, 0.00024185247, 9.997284, 10.000754 
1.5949883e+3, 1.7506965e+2, -1380874.0, -1195937.9, 19569.316, -0.12566395, -0.30331755, -1193889.8, 30406.297, 0.0000030340082, 9.998458, 10.000904 
1.594998e+3, 1.8506984e+2, -1294136.8, -1288807.6, -60094.363, -0.08497746, -0.28301683, -1231318.8, -105023.695, 0.0, 9.999168, 9.999253 
1.5950061e+3, 1.9507045e+2, -1147806.3, -1151569.6, -29700.139, -0.07509982, -0.1938835, -1119928.3, -91633.625, 0.0, 9.999448, 9.999378 
1.5950146e+3, 2.0507069e+2, -1001419.0, -1021787.1, -1389.9562, -0.08177709, -0.10424482, -1001324.56, -71030.54, 0.0, 9.999715, 9.999478 
1.5950239e+3, 2.1507034e+2, -868352.06, -886274.94, 34131.45, -0.058529347, -0.14103588, -842025.2, -9729.537, 0.0, 9.999881, 9.999652 
1.5950327e+3, 2.2506967e+2, -806814.8, -899339.75, 16957.59, -0.05497966, -0.122510545, -803804.8, -69502.91, 0.0, 10.000035, 9.998824 
1.5950409e+3, 2.3506859e+2, -665169.1, -769372.3, 41064.625, -0.07682582, -0.16197267, -650931.6, -14617.617, 0.0, 10.000283, 9.998927 
1.5950496e+3, 2.4506757e+2, -567906.1, -758281.4, 18095.127, -0.07041118, -0.107854754, -566201.5, -27876.42, 0.0, 10.000657, 9.998133 
1.5950589e+3, 2.550664e+2, -369481.2, -593330.1, -456.50208, -0.012131946, -0.09271932, -369480.25, 70857.13, 0.00000009760233, 10.001283, 9.998286 
1.595069e+3, 2.6506424e+2, -222451.7, -562654.94, 36437.97, 0.033484466, -0.08769104, -218592.73, 123764.81, 0.0000054247644, 10.001994, 9.99749 
1.5950799e+3, 2.7506098e+2, 14302.158, -379324.7, 48024.387, 0.063088536, -0.22158763, 20076.654, 264463.3, 0.0000627863, 10.00288, 9.997638 
1.5950893e+3, 2.850587e+2, 69411.49, -357519.0, -73227.17, 0.06603542, -0.17607547, 81622.19, 228030.28, 0.0003316825, 10.002826, 9.997143 
1.5950972e+3, 2.9505706e+2, 53720.66, -291198.03, -60346.9, 0.04725286, -0.12044586, 63974.133, 112399.72, 0.0010854213, 10.00193, 9.9973545 
1.5951072e+3, 3.0505285e+2, 192237.9, -239686.13, 69271.305, -0.02908551, -0.24882771, 203075.6, 203075.6, 0.0024525027, 10.002733, 9.997012 
1.5951197e+3, 3.1505063e+2, 602948.56, 141044.05, 24885.871, -0.06431751, -0.24005377, 604285.5, 604285.5, 0.0042836345, 10.004743, 9.998651 
1.6049401e+3, 1.2505521e+2, -2162734.5, -1753042.1, 189659.47, 0.048152756, -0.047526814, -1678724.1, 35722.707, 0.027939666, 9.996078, 10.001619 
1.6049482e+3, 1.3505614e+2, -1951793.4, -1469232.9, 49281.133, -0.1947788, -0.2632464, -1464251.4, 152181.44, 0.01712635, 9.996365, 10.002751 
1.6049597e+3, 1.4505869e+2, -1980809.3, -1716020.8, -52656.066, -0.01187227, -0.14883685, -1705933.8, -187526.19, 0.007836914, 9.996681, 10.000215 
1.6049677e+3, 1.5505995e+2, -1659622.6, -1487127.6, -48281.668, -0.022606263, -0.10329056, -1474533.0, -54133.656, 0.0022287087, 9.998121, 10.000411 
1.6049762e+3, 1.6506062e+2, -1502923.0, -1311082.8, 59799.035, -0.081034444, -0.091258906, -1293969.3, 28423.283, 0.00026665046, 9.998315, 10.000852 
1.6049866e+3, 1.750604e+2, -1466718.8, -1223334.5, 28209.764, -0.10803179, -0.24654105, -1220107.6, 4282.476, 0.0000036433328, 9.997823, 10.001013 
1.6049963e+3, 1.850607e+2, -1417165.9, -1290652.0, -15210.715, -0.08563056, -0.24870086, -1288849.0, -162462.88, 0.0, 9.998065, 9.999775 
1.6050056e+3, 1.9506124e+2, -1126365.4, -1081200.8, 2314.6343, -0.062253244, -0.22476175, -1081082.4, -52699.277, 0.0, 9.999309, 9.999935 
1.6050147e+3, 2.0506164e+2, -966753.7, -1021675.3, 30246.691, -0.062353805, -0.13837561, -953361.6, -22981.238, 0.0, 10.000045, 9.999318 
1.6050237e+3, 2.1506181e+2, -786664.2, -859057.2, -22320.813, -0.07903099, -0.10310955, -780335.4, 52043.418, 0.0, 10.000517, 9.999524 
1.605033e+3, 2.2506098e+2, -712661.1, -853470.56, -46785.016, -0.042646367, -0.09466884, -698533.8, 35852.902, 0.0, 10.0006695, 9.998829 
1.6050424e+3, 2.3505913e+2, -613601.2, -730989.25, -67874.516, 0.0332518, -0.21673955, -582562.6, 53841.96, 0.0, 10.00059, 9.999019 
1.6050515e+3, 2.4505799e+2, -521812.63, -774640.06, -12611.8955, 0.04417462, -0.16306174, -521185.06, 17231.775, 0.0, 10.001143, 9.99779 
1.6050608e+3, 2.5505728e+2, -230025.8, -564910.1, -26039.313, 0.0070640757, -0.06023708, -228013.17, 212413.17, 0.000000007673713, 10.002399, 9.99795 
1.6050714e+3, 2.6505485e+2, -128976.836, -512398.56, 35444.617, 0.053712234, -0.068506196, -125727.766, 216721.33, 0.0000049768487, 10.002607, 9.997547 
1.6050832e+3, 2.750508e+2, -148876.3, -457272.8, 13050.43, 0.17210887, -0.28148955, -148325.02, 96159.414, 0.00006482946, 10.001742, 9.997672 
1.6050927e+3, 2.8504822e+2, -22517.506, -459428.0, -33867.78, 0.18339796, -0.2427855, -19907.781, 126601.625, 0.00033743004, 10.002391, 9.996677 
1.6051008e+3, 2.950468e+2, 411453.5, -167667.38, -72345.35, 0.08728716, -0.11677624, 420354.28, 468881.63, 0.0010902435, 10.00458, 9.996941 
1.6051108e+3, 3.050431e+2, 421638.63, -172055.47, 83072.91, -0.01367141, -0.15511358, 433043.53, 433043.53, 0.0024557933, 10.004497, 9.996625 
1.6051242e+3, 3.1503963e+2, 213194.97, -55275.59, -21334.873, 0.06352859, -0.22321832, 214879.83, 214879.83, 0.004283157, 10.00204, 9.998613 
1.6149358e+3, 1.2504624e+2, -2074486.4, -1654515.3, -21489.584, -0.08180116, -0.09721171, -1653418.6, 61116.02, 0.02978273, 9.996407, 10.002158 
1.6149469e+3, 1.3504729e+2, -2017957.6, -1613186.3, 51277.367, -0.00034177004, -0.19129464, -1606791.4, 9730.097, 0.018308382, 9.996398, 10.001737 
1.6149575e+3, 1.4504923e+2, -1918631.5, -1612383.4, -19855.629, 0.047258254, -0.11501166, -1611101.4, -92599.43, 0.008418617, 9.996779, 10.000882 
1.6149656e+3, 1.5505026e+2, -1612455.1, -1393684.4, 23210.719, -0.074270345, -0.1570676, -1391248.9, 29245.11, 0.0024150687, 9.998141, 10.001044 
1.6149744e+3, 1.6505122e+2, -1514746.1, -1377484.8, 17553.596, -0.14581785, -0.121285714, -1375275.5, -52790.332, 0.0002938315, 9.998478, 10.00032 
1.614984e+3, 1.7505194e+2, -1503515.9, -1302016.1, 21626.713, -0.17547864, -0.13321184, -1299721.1, -75243.91, 0.000004294035, 9.997816, 10.000482 
1.6149941e+3, 1.8505254e+2, -1361744.1, -1172995.4, 13626.471, -0.1587277, -0.11822213, -1172016.8, -45547.617, 0.0, 9.998055, 10.000583 
1.6150051e+3, 1.9505274e+2, -1086921.1, -974802.8, 63420.12, -0.07096546, -0.21031919, -946217.2, 82246.34, 0.0, 9.999204, 10.000716 
1.6150148e+3, 2.0505257e+2, -1055567.5, -1163305.5, 26822.266, -0.090905815, -0.17645276, -1049259.3, -118793.625, 0.0, 9.999861, 9.998433 
1.6150232e+3, 2.1505198e+2, -884563.94, -1009345.56, 9242.246, -0.20013584, -0.13130248, -883883.06, -51407.62, 0.0, 10.000293, 9.998598 
1.615033e+3, 2.250508e+2, -766751.75, -892646.3, -67025.14, -0.13531433, -0.10334323, -737749.44, -3261.4568, 0.0, 10.000366, 9.998702 
1.6150439e+3, 2.350489e+2, -663218.8, -767759.7, -52679.375, 0.10678489, -0.21908991, -641277.94, -4772.833, 0.0, 10.000319, 9.998894 
1.615054e+3, 2.4504769e+2, -547269.3, -775422.94, 16474.11, 0.13599563, -0.17124924, -546085.9, -7569.083, 0.0, 10.000904, 9.997905 
1.6150631e+3, 2.5504708e+2, -259605.25, -567650.75, 41716.3, -0.030417684, -0.07960627, -254055.89, 186468.02, 0.00000000987263, 10.00214, 9.998055 
1.6150734e+3, 2.6504487e+2, -168546.06, -520161.16, -15555.059, -0.03615746, -0.07907524, -167859.27, 174684.86, 0.000004852571, 10.002297, 9.997635 
1.6150847e+3, 2.7504075e+2, -176268.92, -456739.1, 3459.894, 0.13009296, -0.30815735, -176226.23, 68353.73, 0.00006465758, 10.001513, 9.997773 
1.6150951e+3, 2.85038e+2, -103244.555, -567329.6, 28308.021, 0.13871858, -0.26353776, -101524.21, 45084.09, 0.0003366383, 10.002131, 9.996062 
1.6151047e+3, 2.950365e+2, 322725.7, -277332.2, 35330.79, -0.013655097, -0.097638264, 324798.78, 373428.44, 0.0010768002, 10.0042515, 9.996347 
1.6151148e+3, 3.050336e+2, 350955.63, -223472.36, -29452.557, -0.09401512, -0.0136055965, 352461.8, 352461.8, 0.0024103601, 10.004114, 9.996433 
1.6151267e+3, 3.1503052e+2, 111084.586, -107333.69, -40497.57, 0.04925154, -0.034016024, 118351.586, 118351.586, 0.0041886293, 10.001416, 9.998518 
1.624933e+3, 1.250369e+2, -2243286.0, -1693935.9, -60742.027, 0.08109011, -0.08111091, -1687299.8, 27327.932, 0.03179242, 9.99508, 10.002486 
1.6249445e+3, 1.3503776e+2, -2025809.0, -1658374.9, 24774.89, 0.14072321, -0.16888706, -1656711.9, -40095.203, 0.019603958, 9.996497, 10.001368 
1.6249542e+3, 1.4503929e+2, -1897863.0, -1563913.1, 33689.918, 0.05757218, -0.13306701, -1560548.3, -41947.32, 0.009062119, 9.996786, 10.001195 
1.6249637e+3, 1.5504086e+2, -1644266.6, -1363667.5, 27269.83, -0.042607803, -0.15795483, -1361041.8, 59544.29, 0.002624408, 9.997744, 10.0014305 
1.6249733e+3, 1.6504203e+2, -1586060.3, -1433478.1, 1127.1, -0.0878719, -0.11005827, -1433469.8, -110894.6, 0.00032476612, 9.998083, 10.000132 
1.6249824e+3, 1.7504281e+2, -1497191.6, -1312279.6, -5054.085, -0.12807998, -0.10161763, -1312141.5, -87573.45, 0.000005034694, 9.997926, 10.000353 
1.6249926e+3, 1.8504314e+2, -1364884.3, -1195878.4, 53347.54, -0.108885996, -0.09573545, -1180447.8, -53885.457, 0.0, 9.99813, 10.000398 
1.6250046e+3, 1.9504288e+2, -1127125.8, -1002505.7, -3551.9966, -0.024163315, -0.21682632, -1002404.56, 26154.957, 0.0, 9.998994, 10.00062 
1.6250148e+3, 2.0504245e+2, -1077719.3, -1179291.6, -29155.328, -0.04202838, -0.20454812, -1069945.5, -139382.34, 0.0, 9.999713, 9.998402 
1.6250238e+3, 2.1504161e+2, -877851.25, -1013027.75, -11012.785, -0.16260712, -0.17732048, -876959.9, -44384.84, 0.0, 10.000343, 9.998562 
1.625034e+3, 2.2504039e+2, -695773.6, -900482.2, -40762.824, -0.09035166, -0.13484657, -687955.3, 46633.527, 0.0, 10.001024, 9.998334 
1.6250454e+3, 2.3503858e+2, -478045.7, -723772.75, -82336.5, 0.15759462, -0.20162141, -453008.1, 183598.28, 0.0, 10.001767, 9.998507 
1.625056e+3, 2.4503702e+2, -358450.97, -670343.3, 18343.512, 0.19410424, -0.17448862, -357375.8, 181245.06, 0.0, 10.002138, 9.998033 
1.6250655e+3, 2.5503564e+2, -240066.38, -546451.56, 2196.7898, 0.0059505394, -0.17021543, -240050.63, 200582.72, 0.000000011745934, 10.002211, 9.998171 
1.6250758e+3, 2.6503357e+2, -126116.66, -522699.03, -51750.96, -0.027023686, -0.14618768, -119474.79, 223177.78, 0.0000048598445, 10.002693, 9.997429 
1.625087e+3, 2.7503055e+2, 116643.93, -341272.44, -95938.58, 0.10551938, -0.24005792, 135931.72, 380613.13, 0.00006306325, 10.003627, 9.997548 
1.6250978e+3, 2.8502798e+2, 133587.98, -422094.03, 8475.866, 0.12989262, -0.17918687, 133717.25, 280426.06, 0.00033149842, 10.003651, 9.996312 
1.6251086e+3, 2.950258e+2, 134188.05, -343517.28, 16439.756, 0.023113495, -0.103004605, 134753.14, 183488.3, 0.0010554205, 10.002858, 9.996554 
1.6251184e+3, 3.0502307e+2, 193419.84, -265019.75, -9211.141, -0.06065658, -0.028818429, 193604.84, 193604.84, 0.0023409713, 10.002854, 9.996771 
1.6251294e+3, 3.1502017e+2, 417034.56, 28550.707, -55497.063, 0.09227526, -0.055579413, 424807.1, 424807.1, 0.0040352517, 10.003512, 9.998479 
1.6349296e+3, 1.2502718e+2, -2199423.3, -1628840.3, 70092.44, 0.14044398, -0.017706739, -1620356.0, 94369.92, 0.03398967, 9.995189, 10.002889 
1.6349405e+3, 1.3502747e+2, -2006850.3, -1623380.3, 64458.95, 0.05211344, -0.20422061, -1612835.1, 3884.6377, 0.02102759, 9.996519, 10.0015955 
1.6349496e+3, 1.450287e+2, -1868595.8, -1551769.5, 30464.244, -0.13903692, -0.2040729, -1548866.9, -30160.998, 0.009775217, 9.99697, 10.0012045 
1.6349615e+3, 1.5503184e+2, -1633837.1, -1348968.9, 74165.28, -0.08137219, -0.08209296, -1330816.8, 89858.12, 0.002860367, 9.997766, 10.001528 
1.634972e+3, 1.6503318e+2, -1559321.8, -1394470.1, -25863.014, -0.075777866, -0.037959546, -1390507.8, -67846.305, 0.00036087315, 9.998147, 10.000371 
1.6349809e+3, 1.7503288e+2, -1490571.8, -1292325.5, -1606.3096, -0.097702235, -0.1517146, -1292312.5, -67648.81, 0.000005927034, 9.997899, 10.000503 
1.6349913e+3, 1.8503241e+2, -1436073.6, -1350763.3, 64321.72, -0.08918444, -0.1814601, -1316238.5, -189572.08, 0.0, 9.998156, 9.999327 
1.6350035e+3, 1.9503151e+2, -1217149.4, -1167322.1, 42674.45, -0.052294333, -0.25820965, -1142821.1, -114148.97, 0.0, 9.998894, 9.999541 
1.6350147e+3, 2.05031e+2, -1042707.0, -1065847.3, -21696.842, -0.061412055, -0.24285437, -1029688.06, -99012.45, 0.0, 9.999535, 9.99927 
1.635025e+3, 2.1503063e+2, -847994.7, -904071.5, 30992.953, -0.10148932, -0.2561516, -834239.3, -1560.4447, 0.0, 10.0001335, 9.999415 
1.6350356e+3, 2.2502969e+2, -793838.44, -1030088.3, -27652.94, -0.07269169, -0.1879296, -790644.8, -55955.258, 0.0, 10.000711, 9.997591 
1.6350465e+3, 2.3502813e+2, -568294.3, -846814.25, -37645.984, 0.053339988, -0.16090918, -563295.6, 73412.766, 0.0, 10.001497, 9.9977865 
1.6350572e+3, 2.4502593e+2, -402863.28, -687598.06, 3504.3804, 0.07018844, -0.16506532, -402820.16, 135909.27, 0.0, 10.001823, 9.99806 
1.6350676e+3, 2.5502294e+2, -270254.75, -551867.2, 24766.02, -0.026326127, -0.32386643, -268093.34, 172661.06, 0.000000006263202, 10.001981, 9.998238 
1.6350783e+3, 2.6502118e+2, -198382.3, -625020.7, -33313.902, -0.07294161, -0.2449688, -195796.67, 146976.0, 0.000005059976, 10.002469, 9.996841 
1.6350892e+3, 2.7502042e+2, 41488.914, -441452.25, -32359.58, -0.048347678, -0.067816764, 43647.527, 288434.22, 0.000060994436, 10.003372, 9.996986 
1.6351004e+3, 2.850182e+2, 146059.06, -316193.28, -37658.875, -0.022673523, 0.013977464, 149106.97, 295917.63, 0.0003219481, 10.003326, 9.997187 
1.6351117e+3, 2.9501453e+2, 143960.39, -241132.48, 17074.938, 0.011885365, -0.13992636, 144716.0, 193561.14, 0.0010251604, 10.002531, 9.997405 
1.6351213e+3, 3.0501142e+2, 186826.6, -188638.27, -4036.9453, -0.09621123, -0.18472622, 186869.98, 186869.98, 0.0022563916, 10.002477, 9.997476 
1.6351318e+3, 3.150085e+2, 341204.2, 17189.705, 47322.113, -0.07995671, -0.29630798, 347974.1, 347974.1, 0.003853191, 10.002904, 9.998686 
1.6449256e+3, 1.2501639e+2, -2168280.3, -1654895.0, 172473.33, 0.20846212, -0.06616646, -1602333.4, 112496.84, 0.036383986, 9.99562, 10.002506 
1.6449368e+3, 1.3501748e+2, -2024578.9, -1668835.8, 29062.545, 0.030809851, -0.13633357, -1666477.1, -49657.29, 0.022584815, 9.996566, 10.0012665 
1.6449471e+3, 1.4501826e+2, -1860623.8, -1527802.6, -1699.7058, -0.069713086, -0.17627625, -1527794.0, -8982.667, 0.010560797, 9.996926, 10.001397 
1.6449593e+3, 1.5502122e+2, -1757164.5, -1388403.5, 15616.276, -0.0205951, -0.09289188, -1387743.4, 33036.61, 0.0031241647, 9.996819, 10.001718 
1.6449702e+3, 1.6502255e+2, -1665591.4, -1456354.6, -42642.37, -0.016662829, -0.05478126, -1447997.9, -125232.375, 0.0004029895, 9.997477, 10.00027 
1.6449799e+3, 1.7502236e+2, -1296894.6, -1216370.0, -74533.984, -0.046476148, -0.14329202, -1171918.9, 52848.164, 0.0000070009137, 9.999301, 10.000359 
1.6449909e+3, 1.8502177e+2, -1196117.3, -1261543.0, 19717.121, -0.033201553, -0.16288912, -1190634.6, -63863.273, 0.0, 9.999931, 9.999064 
1.6450031e+3, 1.9502059e+2, -1130398.9, -1154051.1, 22623.36, -0.0063360906, -0.24512234, -1116697.1, -87916.586, 0.0, 9.999624, 9.999265 
1.6450147e+3, 2.0501985e+2, -1015390.8, -1038765.4, 6611.4556, -0.0014214822, -0.24214463, -1013650.4, -82864.58, 0.0, 9.999672, 9.999379 
1.6450259e+3, 2.1501945e+2, -833695.2, -875866.0, -33009.586, -0.02904033, -0.27336553, -815611.4, 17177.05, 0.0, 10.000165, 9.999574 
1.645037e+3, 2.2501871e+2, -748290.0, -1000100.75, -38227.125, 0.0004599343, -0.2007512, -742614.7, -7817.965, 0.0, 10.000978, 9.997682 
1.6450484e+3, 2.3501742e+2, -473709.0, -793698.06, -19615.627, 0.0930463, -0.1503751, -472511.03, 164301.42, 0.0, 10.002107, 9.997872 
1.6450594e+3, 2.4501519e+2, -317948.88, -669389.5, 38947.56, 0.10164343, -0.15451278, -313684.38, 225149.86, 0.0, 10.002503, 9.997857 
1.64507e+3, 2.550117e+2, -250056.83, -571151.4, 2661.9395, -0.00240744, -0.33716553, -250034.75, 190829.77, 0.000000005166704, 10.002237, 9.997987 
1.6450807e+3, 2.6500988e+2, -247209.64, -622644.0, 12043.741, -0.04081987, -0.26152518, -246823.67, 96060.29, 0.000005473011, 10.002038, 9.997051 
1.6450922e+3, 2.750095e+2, -135756.67, -495127.8, 18346.873, -0.023053326, -0.06318423, -134822.45, 110071.82, 0.000058881178, 10.002053, 9.9972315 
1.6451034e+3, 2.8500754e+2, 38390.883, -336478.7, 42182.016, 0.009922385, 0.013376484, 43078.766, 189994.5, 0.0003079229, 10.002437, 9.9974985 
1.6451149e+3, 2.9500383e+2, 224943.3, -171530.52, 9215.874, 0.0710981, -0.16577272, 225157.39, 274106.7, 0.0009851817, 10.002946, 9.997698 
1.6451243e+3, 3.0500102e+2, 291315.63, -74388.38, 16432.29, -0.03863582, -0.22366652, 292052.5, 292052.5, 0.0021654046, 10.002883, 9.998078 
1.6451345e+3, 3.1499946e+2, 226775.6, -10791.682, -33914.03, -0.03603079, -0.25819874, 231522.17, 231522.17, 0.003679341, 10.002003, 9.998918 
1.654922e+3, 1.250052e+2, -2234605.5, -1845378.4, 30521.926, 0.19818974, -0.15904719, -1842999.5, -128065.85, 0.03897044, 9.9958315, 10.001088 
1.6549328e+3, 1.3500834e+2, -2085218.8, -1793256.3, 86149.914, -0.059130725, 0.08141546, -1769731.4, -152819.42, 0.024272982, 9.996558, 10.0004225 
1.6549462e+3, 1.4500813e+2, -1815691.6, -1455332.8, -28517.254, 0.090723984, -0.045268267, -1453090.0, 65825.625, 0.0114189135, 9.997015, 10.001856 
1.6549566e+3, 1.5500908e+2, -1736921.5, -1351140.1, 24153.514, -0.0014729691, -0.18791977, -1349633.9, 71266.81, 0.0034161112, 9.996844, 10.001963 
1.6549677e+3, 1.6501027e+2, -1679824.6, -1513793.5, 2832.681, -0.07422298, -0.15041663, -1513745.3, -190858.5, 0.00045137366, 9.997584, 9.999828 
1.6549788e+3, 1.7501135e+2, -1325638.1, -1267260.5, 7027.757, -0.10132166, -0.07753386, -1266426.4, -41549.074, 0.000008273259, 9.999267, 10.000022 
1.6549908e+3, 1.8501133e+2, -1160861.4, -1195782.3, -7477.158, -0.0861166, -0.04900386, -1159327.8, -32451.361, 0.0, 9.99995, 9.999514 
1.655003e+3, 1.9501008e+2, -1114040.5, -1100143.0, 22875.457, -0.02198767, -0.17687102, -1083184.3, -54299.563, 0.0, 9.999527, 9.999689 
1.6550146e+3, 2.0500906e+2, -1087807.4, -1146376.5, 9226.932, -0.024693578, -0.19045186, -1086388.1, -155494.84, 0.0, 9.999492, 9.998726 
1.6550258e+3, 2.1500804e+2, -911414.06, -982604.25, 182.3536, -0.07251543, -0.22385217, -911413.6, -78509.3, 0.0, 9.999932, 9.998952 
1.655038e+3, 2.2500719e+2, -723224.3, -883123.25, -14413.795, -0.021810155, -0.17927577, -721935.44, 12977.213, 0.0, 10.000699, 9.998621 
1.6550511e+3, 2.3500632e+2, -446245.5, -675391.9, 41968.445, 0.13184945, -0.17901757, -438800.78, 198118.98, 0.0, 10.001844, 9.998814 
1.6550624e+3, 2.4500464e+2, -400271.4, -769866.25, 16771.895, 0.111441724, -0.14542818, -399511.88, 139424.17, 0.0, 10.002202, 9.997312 
1.655072e+3, 2.5500184e+2, -327546.1, -667349.75, 10830.308, -0.056251064, -0.21156745, -327201.25, 113762.805, 0.00000000856411, 10.001972, 9.997445 
1.6550829e+3, 2.6499954e+2, -232229.72, -533876.7, -5338.043, -0.07758459, -0.1940502, -232135.28, 110852.18, 0.0000057188686, 10.0017805, 9.997787 
1.655095e+3, 2.7499762e+2, -111201.76, -394160.06, 41941.875, 0.034927122, -0.22799861, -105115.766, 139891.1, 0.00005720022, 10.001828, 9.998036 
1.6551065e+3, 2.8499573e+2, -24556.33, -391242.25, 40709.63, 0.0591259, -0.17648244, -20091.105, 126935.414, 0.0002952708, 10.002109, 9.997281 
1.6551177e+3, 2.9499346e+2, 168049.72, -226285.3, 60489.965, 0.022514518, -0.19450003, 177120.08, 226170.06, 0.00095047243, 10.002662, 9.997463 
1.6551268e+3, 3.0499154e+2, 248278.66, -61788.207, -34469.92, -0.099322245, -0.16112632, 252064.44, 252064.44, 0.0020977776, 10.002474, 9.99835 
1.6551366e+3, 3.149921e+2, 146691.86, -50800.42, 2108.4063, -0.086428, -0.014337127, 146714.36, 146714.36, 0.00356369, 10.001458, 9.998904 
1.6649197e+3, 1.2499313e+2, -2046385.6, -1798880.3, -49065.887, 0.32288748, -0.21542774, -1789508.3, -74458.26, 0.041736465, 9.997294, 10.000709 
1.66493e+3, 1.3499668e+2, -2038861.6, -1771792.3, 56672.887, 0.0033150585, 0.0645546, -1760263.8, -143238.36, 0.026087236, 9.9968605, 10.000428 
1.6649434e+3, 1.449969e+2, -1947709.6, -1545723.5, -2630.3228, 0.15091726, -0.002583614, -1545706.3, -26680.104, 0.012349877, 9.996262, 10.001573 
1.6649543e+3, 1.5499765e+2, -1611157.0, -1310377.0, -18399.838, 0.03256093, -0.14568935, -1309255.6, 111758.91, 0.003737191, 9.997812, 10.001761 
1.6649662e+3, 1.6499864e+2, -1511912.0, -1423118.4, 12678.027, -0.021451598, -0.1208417, -1421343.6, -98341.164, 0.00050616945, 9.998716, 9.999892 
1.6649783e+3, 1.7499919e+2, -1353667.0, -1276621.4, 13362.049, -0.065620646, -0.1073944, -1274369.9, -49373.293, 0.000009797576, 9.999049, 10.000061 
1.6649905e+3, 1.8499914e+2, -1278768.4, -1252771.3, -8816.887, -0.05577251, -0.079983674, -1250063.1, -123067.34, 0.0, 9.99916, 9.999495 
1.6650026e+3, 1.949986e+2, -1111695.8, -1096205.8, -44747.04, -0.0026350964, -0.14011844, -1058538.4, -29539.184, 0.0, 9.999544, 9.999696 
1.6650145e+3, 2.049978e+2, -1017198.1, -1129108.9, -3430.2244, 0.0046659806, -0.12895453, -1017093.06, -86086.414, 0.0, 10.000049, 9.99858 
1.6650265e+3, 2.1499649e+2, -801280.7, -948170.3, -7450.2256, -0.03613696, -0.16949573, -800903.8, 32116.057, 0.0, 10.00076, 9.998795 
1.6650392e+3, 2.2499545e+2, -656878.7, -819138.25, -492.72702, 0.025608888, -0.14771658, -656877.2, 78152.69, 0.0, 10.00103, 9.998883 
1.6650529e+3, 2.3499455e+2, -556709.8, -693866.56, -33468.83, 0.1773067, -0.18220104, -548978.56, 88059.06, 0.0, 10.000944, 9.9991 
1.6650645e+3, 2.4499328e+2, -514241.8, -781868.3, -31510.754, 0.16937254, -0.14120147, -510581.75, 28467.738, 0.0, 10.001211, 9.997731 
1.6650742e+3, 2.5499147e+2, -319194.53, -616562.94, 2476.2876, 0.002351427, -0.14672096, -319173.9, 121893.6, 0.0000000057748837, 10.001814, 9.997889 
1.6650853e+3, 2.6498935e+2, -150450.83, -458441.94, 42057.883, -0.017924052, -0.14716618, -144810.86, 198276.92, 0.0000055479773, 10.002182, 9.998114 
1.6650975e+3, 2.7498683e+2, -17140.557, -329399.72, 11801.814, 0.08333306, -0.26580718, -16695.145, 228416.1, 0.000055377644, 10.002357, 9.998247 
1.6651092e+3, 2.8498507e+2, 38910.113, -314626.28, 52828.703, 0.11077227, -0.23069862, 46635.457, 193764.2, 0.00028510438, 10.002346, 9.997671 
1.6651203e+3, 2.949839e+2, 111963.52, -202964.52, 56815.582, 0.059559338, -0.18080951, 121900.01, 171041.38, 0.000926934, 10.002103, 9.99786 
1.6651298e+3, 3.0498162e+2, 295277.8, -91802.08, 18863.385, -0.06522164, -0.18200856, 296194.9, 296194.9, 0.00206355, 10.003002, 9.997892 
1.6651401e+3, 3.1498197e+2, 575937.44, 123027.414, -76460.04, -0.011807347, -0.006795372, 588497.06, 588497.06, 0.003521676, 10.004556, 9.998607 
1.6749157e+3, 1.24980405e+2, -1959620.6, -1653839.5, -38914.17, 0.1124147, -0.24212503, -1648965.0, 66212.21, 0.044670317, 9.997431, 10.001656 
1.674928e+3, 1.3498256e+2, -1975072.9, -1657657.5, 10292.311, 0.1005756, -0.20241752, -1657324.1, -40164.45, 0.028026333, 9.996928, 10.0011835 
1.6749378e+3, 1.4498462e+2, -2006151.8, -1688552.1, 20401.775, -0.08725319, -0.060077645, -1687247.0, -168104.66, 0.013357116, 9.996348, 10.000553 
1.6749515e+3, 1.5498704e+2, -1660516.6, -1417253.6, 58451.27, -0.06323586, 0.03790392, -1403937.9, 17182.926, 0.004090086, 9.997825, 10.001025 
1.6749653e+3, 1.6498762e+2, -1456883.6, -1333999.4, 7066.0967, -0.021903861, 0.028798996, -1333594.4, -10481.132, 0.0005678562, 9.9988165, 10.000459 
1.6749777e+3, 1.7498598e+2, -1325943.4, -1207662.1, 35287.457, -0.07096501, -0.22610848, -1197934.6, 27189.44, 0.000011659807, 9.9990015, 10.000558 
1.6749895e+3, 1.8498547e+2, -1313320.1, -1328336.9, -14923.179, -0.10764616, -0.24238397, -1304122.9, -176995.11, 0.0, 9.999165, 9.998982 
1.6750017e+3, 1.949861e+2, -1164245.6, -1177486.9, -17689.367, -0.08056053, -0.13499084, -1151978.5, -122853.99, 0.0, 9.99942, 9.999204 
1.6750143e+3, 2.0498593e+2, -1010901.5, -1085254.0, 6276.904, -0.06107851, -0.05248529, -1010375.3, -79248.82, 0.0, 9.999906, 9.998954 
1.6750272e+3, 2.1498477e+2, -810075.56, -916976.25, 36669.08, -0.060694035, -0.11621321, -798706.5, 34429.137, 0.0, 10.000535, 9.999125 
1.6750401e+3, 2.2498356e+2, -736564.9, -909918.56, -18221.734, -0.020431276, -0.104952715, -734670.25, 477.94705, 0.0, 10.000709, 9.998411 
1.6750534e+3, 2.3498213e+2, -627793.75, -784193.0, -21637.918, 0.094054595, -0.14417592, -624855.4, 12310.354, 0.0, 10.000696, 9.998597 
1.6750656e+3, 2.4498117e+2, -464084.16, -605167.3, -27714.412, 0.11396595, -0.11583529, -458835.22, 80339.055, 0.0, 10.000901, 9.999088 
1.6750765e+3, 2.5498056e+2, -263638.38, -432808.4, 46166.547, 0.030538922, -0.13806826, -251859.63, 189315.06, 0.0000000017385277, 10.001523, 9.999285 
1.6750878e+3, 2.649793e+2, -211912.95, -511466.72, 31227.072, -0.024089534, -0.119343825, -208692.31, 134492.94, 0.0000048816705, 10.001855, 9.997911 
1.6750991e+3, 2.7497694e+2, -68140.78, -383911.38, 42358.586, -0.02698448, -0.19988482, -62557.375, 182652.25, 0.000051551386, 10.002121, 9.997993 
1.6751106e+3, 2.8497535e+2, 35454.03, -235208.06, 27865.773, -0.02293579, -0.16542262, 38293.145, 185517.39, 0.0002714196, 10.001983, 9.99839 
1.6751222e+3, 2.9497463e+2, 128370.97, -103492.805, 76148.52, 0.0030101768, -0.14851281, 151143.08, 200370.9, 0.0008994481, 10.001805, 9.998694 
1.6751325e+3, 3.049708e+2, 145487.84, -286961.63, 57929.28, -0.12930387, -0.3009227, 153113.38, 153113.38, 0.002033432, 10.002529, 9.99677 
1.675144e+3, 3.1496862e+2, 462601.84, 3874.8538, 44997.047, -0.1535157, -0.26485714, 466973.97, 466973.97, 0.003509679, 10.004076, 9.998005 
1.6849127e+3, 1.24968514e+2, -2143350.0, -1692125.3, 62595.332, 0.14830573, -0.17285159, -1683602.8, 31693.531, 0.04776628, 9.995992, 10.002052 
1.6849248e+3, 1.3496979e+2, -1891638.0, -1610419.4, -87017.805, 0.058036283, -0.23737617, -1585671.3, 31613.934, 0.030093629, 9.997487, 10.00123 
1.6849352e+3, 1.4497226e+2, -1825607.4, -1623426.9, -14682.174, -0.026919361, -0.04826842, -1622366.3, -103103.57, 0.0144471, 9.99766, 10.00038 
1.6849492e+3, 1.5497395e+2, -1781339.1, -1490442.6, 42285.156, -0.02004499, -0.006041164, -1484420.6, -63172.57, 0.004479329, 9.997056, 10.0009 
1.6849636e+3, 1.6497442e+2, -1697884.8, -1437049.0, 43248.68, 0.010443309, -0.027119031, -1430065.0, -106822.984, 0.0006375465, 9.9971, 10.000586 
1.6849767e+3, 1.7497347e+2, -1426383.0, -1236543.1, 14198.491, -0.012353753, -0.22827257, -1235487.0, -10240.866, 0.00001399049, 9.998225, 10.000731 
1.6849893e+3, 1.849733e+2, -1323418.1, -1340047.8, -7357.3667, -0.03078016, -0.22023499, -1320630.4, -193383.14, 0.0, 9.9991255, 9.998915 
1.6850017e+3, 1.9497377e+2, -1084930.8, -1151212.1, -7406.3926, -0.042845197, -0.120853275, -1084113.3, -54867.04, 0.0, 10.000006, 9.999104 
1.6850145e+3, 2.0497333e+2, -945809.25, -1047769.6, 33801.027, -0.039514188, -0.062458776, -935621.7, -4370.976, 0.0, 10.000334, 9.9990015 
1.6850278e+3, 2.1497196e+2, -863706.7, -930446.75, 2837.9053, -0.03486084, -0.15295644, -863586.25, -30325.316, 0.0, 10.000132, 9.999216 
1.6850407e+3, 2.2497095e+2, -816201.8, -982194.5, -19206.398, 0.007083762, -0.11340571, -814008.5, -78735.914, 0.0, 10.000277, 9.99815 
1.6850539e+3, 2.3497006e+2, -645611.44, -826387.94, -32973.086, 0.08201628, -0.06666698, -639785.06, -2497.2449, 0.0, 10.000695, 9.998336 
1.6850662e+3, 2.4496935e+2, -447366.8, -535727.2, -28204.678, 0.11210441, -0.02487712, -439131.44, 100162.75, 0.0, 10.00075, 9.999623 
1.6850778e+3, 2.5496867e+2, -374222.72, -434822.47, -61598.324, 0.07572629, -0.11273334, -335875.4, 105417.77, 0.0000000018399801, 10.000515, 9.999758 
1.6850895e+3, 2.649674e+2, -376309.66, -571775.75, -50012.305, 0.039444793, -0.12311798, -364256.66, -20954.271, 0.0000039092515, 10.00064, 9.998086 
1.6851011e+3, 2.7496538e+2, -181359.4, -403127.38, -51529.566, 0.007220695, -0.19061552, -169970.94, 75352.63, 0.000046409757, 10.001237, 9.998263 
1.6851129e+3, 2.8496403e+2, 37123.074, -247733.36, -38509.105, 0.016082859, -0.14108948, 42237.22, 189573.36, 0.00025645504, 10.002021, 9.998313 
1.6851251e+3, 2.949635e+2, 273296.1, -42915.805, -97519.96, 0.07077202, -0.09457186, 300952.44, 350291.22, 0.0008664291, 10.002822, 9.998643 
1.6851361e+3, 3.0495933e+2, 290817.38, -248494.13, -37561.656, -0.055131413, -0.26383722, 293420.88, 293420.88, 0.0019907402, 10.003615, 9.996545 
1.685149e+3, 3.1495586e+2, 481604.56, 21107.479, -62646.613, -0.047132503, -0.30958188, 489974.94, 489974.94, 0.0034830444, 10.004103, 9.998166 
1.6949098e+3, 1.2495626e+2, -2148754.5, -1733284.6, 101080.82, 0.17185467, -0.11658542, -1709997.6, 5421.4995, 0.051028147, 9.9961195, 10.001702 
1.6949187e+3, 1.3495815e+2, -1933406.1, -1695487.9, -27772.99, -0.34376943, -0.04432731, -1692288.9, -74884.51, 0.032295942, 9.997479, 10.000647 
1.6949357e+3, 1.449597e+2, -1749808.9, -1499023.9, -60777.395, 0.18994533, 0.027057722, -1485070.9, 34317.777, 0.015627254, 9.99779, 10.001177 
1.6949472e+3, 1.5495855e+2, -1746605.4, -1427107.9, 30379.955, 0.028434297, -0.2603554, -1424244.8, -2849.5186, 0.004910431, 9.997094, 10.001317 
1.69496e+3, 1.6495912e+2, -1696613.8, -1453426.8, 63973.934, -0.09783331, -0.28074336, -1437624.3, -114236.77, 0.0007170378, 9.997177, 10.000435 
1.6949752e+3, 1.7496182e+2, -1439658.9, -1257297.3, 72183.45, -0.01983439, -0.10665105, -1232183.6, -6821.9385, 0.000016975888, 9.998197, 10.000601 
1.6949894e+3, 1.8496273e+2, -1294448.6, -1289740.5, 6741.2124, 0.016269907, -0.00042756184, -1284954.1, -157601.1, 0.0, 9.999159, 9.999248 
1.695002e+3, 1.9496158e+2, -1077623.1, -1111938.4, 35456.016, -0.03764769, -0.096047714, -1055391.5, -26027.035, 0.0, 9.9999, 9.999422 
1.6950147e+3, 2.0496003e+2, -999570.8, -1110480.5, 6072.3257, -0.08702933, -0.14815329, -999239.3, -67860.734, 0.0, 10.000118, 9.998681 
1.6950275e+3, 2.14958e+2, -916555.3, -996681.94, 11036.678, -0.09940952, -0.27050307, -915062.9, -81666.42, 0.0, 9.9999275, 9.998869 
1.6950405e+3, 2.2495745e+2, -859410.9, -992046.8, -20201.629, -0.06907587, -0.17014283, -856402.25, -120997.61, 0.0, 9.999949, 9.998232 
1.6950539e+3, 2.3495825e+2, -687350.56, -836483.0, 4468.7065, 0.0021130652, 0.033939924, -687216.75, -49811.89, 0.0, 10.00038, 9.998411 
1.6950662e+3, 2.4495769e+2, -529174.56, -618892.56, -50413.62, 0.013575444, 0.10435068, -506551.22, 32859.742, 0.0, 10.000381, 9.999233 
1.695078e+3, 2.5495562e+2, -438482.63, -511006.84, -49351.004, 0.0017461899, -0.077718325, -413503.72, 27920.559, 0.0000000033657745, 10.000271, 9.999356 
1.6950901e+3, 2.649537e+2, -387151.44, -521249.63, -42572.137, -0.0022964112, -0.15596348, -374777.8, -31338.928, 0.0000030031388, 10.000336, 9.998572 
1.6951028e+3, 2.7495193e+2, -182219.2, -346061.94, -6931.233, 0.031128427, -0.2522946, -181926.52, 63528.58, 0.000041455987, 10.000991, 9.998769 
1.6951156e+3, 2.849508e+2, -71040.46, -392764.7, -30118.033, 0.055870622, -0.16989064, -68245.266, 79221.93, 0.00024337543, 10.001681, 9.997481 
1.6951284e+3, 2.9495007e+2, 175215.53, -188465.39, -43230.094, 0.0822727, -0.056158286, 180283.6, 229761.0, 0.0008331997, 10.00255, 9.997785 
1.69514e+3, 3.0494684e+2, 247452.13, -211800.14, -35310.344, -0.046556056, -0.10958561, 250151.16, 250151.16, 0.0019314514, 10.003114, 9.997018 
1.6951539e+3, 3.149443e+2, 465677.56, 151474.27, 18062.68, -0.029184498, -0.12596144, 466712.53, 466712.53, 0.0034111522, 10.003435, 9.999363 
1.7049064e+3, 1.2494356e+2, -2206804.0, -1722010.1, 75483.67, 0.26153976, -0.024546912, -1710529.0, 5018.7324, 0.054460447, 9.9955635, 10.002056 
1.704915e+3, 1.3494492e+2, -2027008.4, -1742777.1, 3166.2522, -0.41192353, 0.012094419, -1742741.8, -125205.586, 0.034638863, 9.996856, 10.000628 
1.7049345e+3, 1.4494577e+2, -1718695.8, -1478814.9, -76114.64, 0.3016952, 0.008122126, -1456702.0, 62824.645, 0.016903277, 9.998015, 10.001204 
1.7049451e+3, 1.5494515e+2, -1575665.5, -1352767.0, -68022.586, 0.067700975, -0.22127466, -1333648.3, 87880.445, 0.00538814, 9.998321, 10.001227 
1.7049578e+3, 1.6494586e+2, -1527060.3, -1374798.9, 14091.632, -0.08642015, -0.22005562, -1373505.6, -49985.773, 0.0008082668, 9.998354, 10.0004015 
1.7049739e+3, 1.7494841e+2, -1397120.6, -1233351.1, 259.215, 0.025335042, -0.06204399, -1233350.8, -7855.0195, 0.000020835996, 9.998472, 10.000634 
1.704989e+3, 1.849492e+2, -1341091.1, -1290071.5, -24184.412, 0.079645365, 0.022186143, -1280429.8, -152942.17, 0.0, 9.998747, 9.9994545 
1.7050019e+3, 1.9494796e+2, -1130750.4, -1119217.5, -35261.992, -0.008783701, -0.09824823, -1089253.6, -59755.14, 0.0, 9.99945, 9.999608 
1.7050149e+3, 2.0494653e+2, -1037424.56, -1132769.0, -52265.164, -0.048522245, -0.14312229, -1014355.8, -82844.266, 0.0, 9.999882, 9.998628 
1.7050281e+3, 2.1494497e+2, -886823.56, -988774.06, -63031.75, -0.036903434, -0.2148711, -856734.2, -23207.393, 0.0, 10.000177, 9.998791 
1.7050411e+3, 2.2494446e+2, -768793.25, -894890.3, -33456.46, -0.019488543, -0.13110836, -760466.4, -24932.75, 0.0, 10.000338, 9.998707 
1.705054e+3, 2.3494485e+2, -665218.5, -766502.06, -17731.402, -0.004389647, -0.018608592, -662204.06, -24670.502, 0.0, 10.000282, 9.998925 
1.7050667e+3, 2.449441e+2, -511794.78, -644358.5, -12610.618, 0.006489952, 0.02157579, -510605.8, 28934.66, 0.0, 10.0006485, 9.998936 
1.7050788e+3, 2.5494206e+2, -283144.16, -459399.3, -37926.52, 0.0055382657, -0.12935002, -275329.6, 166226.22, 0.0000000026261497, 10.001464, 9.999125 
1.7050916e+3, 2.6494038e+2, -137150.58, -417591.8, -6635.7837, 0.031294953, -0.16617168, -136993.64, 206575.95, 0.0000021613648, 10.002107, 9.998447 
1.705105e+3, 2.7493903e+2, 28264.867, -264237.47, -54695.965, 0.085538715, -0.203038, 38158.03, 283740.38, 0.000036656253, 10.002499, 9.998624 
1.7051181e+3, 2.8493765e+2, 37368.977, -355752.97, -44128.996, 0.12496595, -0.124967694, 42261.68, 189858.86, 0.00022921336, 10.0025015, 9.997331 
1.705131e+3, 2.94936e+2, 97299.04, -243244.97, -56259.523, 0.13008247, -0.08403047, 106352.69, 155969.67, 0.00079328316, 10.002118, 9.997601 
1.7051432e+3, 3.0493337e+2, 195607.73, -195681.03, 34473.05, -0.0014186784, -0.08453939, 198621.64, 198621.64, 0.0018438247, 10.0025625, 9.997379 
1.7051582e+3, 3.1493154e+2, 506727.34, 228494.02, -20866.857, 0.082155444, -0.0700896, 508283.63, 508283.63, 0.0032716861, 10.003494, 9.999825 
1.7149016e+3, 1.2493025e+2, -2092625.5, -1541747.4, -100229.08, 0.13127314, 0.06335044, -1524078.0, 191606.14, 0.058051143, 9.995727, 10.003308 
1.714914e+3, 1.3493067e+2, -2006077.8, -1690893.3, 99646.516, -0.22871539, -0.032049727, -1662032.5, -44357.25, 0.037118543, 9.996829, 10.000996 
1.714931e+3, 1.4493065e+2, -1747067.1, -1576863.8, -74684.76, 0.093571454, -0.09792867, -1548739.5, -29064.586, 0.018276531, 9.99817, 10.000455 
1.7149426e+3, 1.5493365e+2, -1618438.9, -1448844.6, -40133.516, -0.05704112, 0.099809736, -1439826.8, -18177.236, 0.005915651, 9.998345, 10.000556 
1.7149565e+3, 1.6493468e+2, -1507553.3, -1349811.9, -4902.1294, -0.1087017, 0.16050921, -1349659.8, -26020.9, 0.0009130136, 9.9984255, 10.000534 
1.7149723e+3, 1.7493337e+2, -1395903.6, -1216120.3, 16407.281, -0.009383431, -0.081416175, -1214635.1, 11011.643, 0.000025810483, 9.99842, 10.000772 
1.7149872e+3, 1.8493281e+2, -1336955.4, -1280866.6, -14413.406, -0.0063899597, -0.1430575, -1277379.5, -149730.05, 0.0, 9.998739, 9.999524 
1.7150009e+3, 1.949329e+2, -1138605.9, -1114430.6, 6396.524, -0.09231179, -0.1381582, -1112842.5, -83194.67, 0.0, 9.999356, 9.999686 
1.7150147e+3, 2.0493284e+2, -1053887.9, -1125956.6, -57517.53, -0.09224425, -0.056906898, -1022049.3, -90400.09, 0.0, 9.999705, 9.998761 
1.7150289e+3, 2.1493265e+2, -915787.9, -984709.56, -37214.92, 0.011000546, -0.0067655486, -899528.94, -65874.84, 0.0, 9.999905, 9.99895 
1.715042e+3, 2.249317e+2, -753422.06, -791579.1, -50376.875, 0.01216554, -0.019463236, -718632.06, 17029.83, 0.0, 10.000021, 9.999576 
1.7150538e+3, 2.3492983e+2, -639172.56, -661973.2, -3255.8574, -0.076546066, -0.21610187, -638716.75, -1042.3846, 0.0, 10.000053, 9.999762 
1.7150664e+3, 2.4492857e+2, -573459.75, -689101.6, -547.01117, -0.10112392, -0.26175243, -573457.2, -33773.973, 0.0, 10.000304, 9.998786 
1.7150798e+3, 2.5492772e+2, -339073.6, -508912.6, 10328.957, -0.052038975, -0.2756614, -338447.72, 103242.51, 0.0000000000058928205, 10.001179, 9.998922 
1.7150934e+3, 2.64927e+2, -232301.17, -543198.25, -9501.95, -0.019602649, -0.17143501, -232011.03, 111687.32, 0.0000014626683, 10.001799, 9.997732 
1.7151071e+3, 2.749264e+2, -60123.56, -385489.75, -20508.357, 0.014935697, -0.06333198, -58835.977, 186871.6, 0.000032258973, 10.002226, 9.997923 
1.7151201e+3, 2.849245e+2, 8694.584, -332973.75, -77315.4, 0.03483775, -0.019399462, 25375.705, 173102.84, 0.00021422842, 10.002145, 9.997662 
1.7151326e+3, 2.9492113e+2, 83801.445, -207701.48, -39266.145, 0.029248677, -0.19342545, 88998.05, 138757.5, 0.00074612966, 10.001835, 9.997983 
1.715145e+3, 3.0491868e+2, 120911.78, -232302.5, 51882.906, -0.107085876, -0.19995762, 128375.06, 128375.06, 0.001733618, 10.002091, 9.997343 
1.7151614e+3, 3.1491694e+2, 384229.72, 156453.81, 68890.13, -0.021262797, -0.17713039, 403444.4, 403444.4, 0.0030848195, 10.002758, 9.999663 
1.724897e+3, 1.2491475e+2, -1946316.5, -1420477.6, -133705.97, 0.09621315, 0.043900203, -1388432.8, 327404.47, 0.06177432, 9.996465, 10.003836 
1.7249125e+3, 1.349156e+2, -1834603.8, -1574126.8, 54471.758, -0.08247415, -0.069568895, -1563194.3, 54628.13, 0.039721623, 9.997837, 10.001307 
1.7249289e+3, 1.4491618e+2, -1823747.6, -1635200.8, -96274.83, 0.09807107, -0.075338885, -1594728.8, -74912.73, 0.019743169, 9.997716, 10.000287 
1.7249411e+3, 1.5491924e+2, -1665554.9, -1463400.6, -53026.05, -0.0058782967, 0.12815374, -1450335.9, -28544.17, 0.006494274, 9.997956, 10.0006695 
1.7249557e+3, 1.6492036e+2, -1548225.0, -1390426.3, 43663.85, -0.00624852, 0.20110507, -1379150.0, -55368.75, 0.001032908, 9.998229, 10.000361 
1.7249714e+3, 1.7491865e+2, -1326246.5, -1204059.4, 7839.528, 0.026251381, -0.064131945, -1203558.5, 22235.129, 0.00003215152, 9.998977, 10.000591 
1.7249861e+3, 1.8491787e+2, -1269707.0, -1223415.3, -2745.4097, 0.007191005, -0.15063351, -1223253.0, -95454.56, 0.0, 9.999089, 9.999747 
1.7250001e+3, 1.9491822e+2, -1183605.8, -1104555.1, -3680.7178, -0.070925415, -0.14218341, -1104384.1, -74590.39, 0.0, 9.998921, 9.999957 
1.7250144e+3, 2.049187e+2, -1109932.5, -1085256.6, -7225.843, -0.051623456, -0.05229299, -1083296.4, -151507.25, 0.0, 9.99903, 9.999374 
1.725029e+3, 2.1491906e+2, -909880.75, -917003.06, 20220.918, 0.058514427, -0.0019849073, -892909.8, -59122.633, 0.0, 9.999652, 9.999549 
1.7250428e+3, 2.249183e+2, -724304.5, -762907.1, 22784.156, 0.07966761, -0.03014968, -713745.1, 22046.975, 0.0, 10.000191, 9.999672 
1.7250548e+3, 2.3491639e+2, -532875.8, -601416.06, -28313.32, -0.008774672, -0.23969404, -522692.72, 115111.33, 0.0, 10.000769, 9.999819 
1.7250678e+3, 2.44915e+2, -482232.72, -683219.6, -21989.857, -0.031819545, -0.28497326, -479854.97, 59959.406, 0.0, 10.001069, 9.998459 
1.7250814e+3, 2.5491405e+2, -384375.84, -563194.56, -50523.387, 0.000910618, -0.28171465, -371088.34, 70735.76, 0.0000000000049057277, 10.000996, 9.9986315 
1.7250952e+3, 2.649131e+2, -299319.78, -570761.9, -4608.088, 0.011056281, -0.18252406, -299241.6, 44592.605, 0.0000011502509, 10.001338, 9.997752 
1.725109e+3, 2.7491215e+2, -77343.28, -397155.9, -4366.9604, 0.005797593, -0.10578602, -77283.664, 168562.27, 0.000029351942, 10.002125, 9.997891 
1.7251225e+3, 2.849101e+2, 81819.07, -295229.78, -32327.195, 0.035537627, -0.072881915, 84570.64, 232436.95, 0.00020332959, 10.00266, 9.997655 
1.7251353e+3, 2.949068e+2, 251158.34, -127596.445, -82802.98, 0.07420005, -0.2372463, 268469.44, 318367.47, 0.00070578046, 10.003019, 9.997941 
1.7251481e+3, 3.049048e+2, 267441.06, -182795.83, 42046.703, -0.04788122, -0.19030866, 271334.06, 271334.06, 0.0016366781, 10.003131, 9.997218 
1.7251648e+3, 3.1490296e+2, 333744.03, 47116.34, -27227.256, 0.069335684, -0.14714777, 336307.47, 336307.47, 0.002919005, 10.002668, 9.999019 
1.7348923e+3, 1.24897465e+2, -1980345.9, -1504695.3, -2416.977, -0.12242716, -0.06291699, -1504683.0, 211319.94, 0.06561491, 9.996563, 10.003154 
1.7349105e+3, 1.3489944e+2, -1822195.9, -1557604.3, 64689.883, -0.13011664, -0.11587668, -1542635.1, 75345.15, 0.042436883, 9.997867, 10.001415 
1.7349274e+3, 1.44902e+2, -1777789.4, -1559346.4, -122401.78, 0.12963127, 0.06356859, -1504520.5, 15433.291, 0.021297567, 9.997802, 10.000762 
1.7349403e+3, 1.5490189e+2, -1603355.9, -1337007.4, -32534.72, 0.07005745, -0.13670994, -1333090.9, 88865.07, 0.0071235094, 9.997968, 10.001532 
1.734955e+3, 1.6490294e+2, -1556061.6, -1442739.4, 52090.133, 0.04592509, -0.09604212, -1422433.9, -98486.984, 0.0011691477, 9.998367, 9.99994 
1.7349705e+3, 1.7490415e+2, -1361325.8, -1284568.1, 47486.3, 0.0055732066, -0.015972612, -1261890.5, -35953.688, 0.00004011834, 9.998998, 10.000034 
1.7349851e+3, 1.849044e+2, -1244065.6, -1172128.1, -31360.7, -0.049858373, 0.012458715, -1160376.5, -32442.336, 0.0, 9.999098, 10.000093 
1.7349991e+3, 1.9490384e+2, -1180436.9, -1062283.6, 1053.9408, -0.08876742, -0.109444715, -1062274.3, -32337.475, 0.0, 9.998765, 10.000322 
1.7350134e+3, 2.0490396e+2, -1060098.4, -938837.6, -1606.1086, -0.08981007, -0.1311168, -938816.3, -6883.812, 0.0, 9.998837, 10.000472 
1.735028e+3, 2.1490438e+2, -863710.75, -776109.56, 58807.984, -0.039183155, -0.18715814, -746583.0, 87341.85, 0.0, 9.999454, 10.000609 
1.7350423e+3, 2.2490445e+2, -821993.6, -896716.8, 28257.777, 0.00029882262, -0.14692946, -812510.94, -76588.305, 0.0, 9.999895, 9.998893 
1.7350565e+3, 2.3490417e+2, -623601.7, -731293.9, 11394.25, 0.050180506, -0.116216205, -622409.4, 15516.419, 0.0, 10.000509, 9.999052 
1.7350699e+3, 2.4490307e+2, -560320.25, -762626.8, -37279.707, 0.052948136, -0.07587749, -553669.25, -13732.591, 0.0, 10.000726, 9.998077 
1.7350827e+3, 2.5490096e+2, -449437.22, -633962.5, -30489.793, 0.013242021, -0.1488186, -444529.78, -2572.8657, 0.000000000000012544113, 10.000728, 9.998273 
1.7350961e+3, 2.6489875e+2, -309316.1, -508087.53, 9560.085, -0.044742588, -0.19518992, -308857.38, 35119.676, 0.0000010511417, 10.000987, 9.998347 
1.7351103e+3, 2.7489638e+2, -79284.4, -326969.75, 49465.902, -0.10040784, -0.321695, -69770.84, 176226.03, 0.000029114979, 10.001824, 9.998506 
1.7351244e+3, 2.848944e+2, -13733.443, -417263.66, -41233.027, -0.05394213, -0.28229725, -9563.315, 138452.64, 0.00019954766, 10.002326, 9.996981 
1.7351387e+3, 2.9489252e+2, 147813.88, -254121.88, -42744.867, 0.079546034, -0.2441287, 152309.4, 202347.1, 0.0006844002, 10.002641, 9.997254 
1.7351516e+3, 3.048913e+2, 172186.44, -259835.77, 1777.1934, -0.042742193, -0.064161114, 172193.75, 172193.75, 0.0015865878, 10.002643, 9.996904 
1.7351672e+3, 3.1488857e+2, 162561.22, -113229.28, 19168.717, -0.014656706, -0.100260034, 163887.16, 163887.16, 0.0028415923, 10.001895, 9.998252 
1.7448905e+3, 1.24882214e+2, -1858271.6, -1625551.0, 44598.117, -0.024523096, -0.054284874, -1617297.0, 98850.66, 0.06957688, 9.998253, 10.001452 
1.7449091e+3, 1.3488369e+2, -1933333.0, -1592567.5, 66296.805, 0.0130903395, -0.15676735, -1580123.8, 38010.027, 0.045260757, 9.997044, 10.001567 
1.7449258e+3, 1.4488699e+2, -1788495.3, -1542754.0, -33710.16, 0.19402812, 0.07349913, -1538213.6, -18112.482, 0.022935338, 9.997649, 10.000927 
1.7449388e+3, 1.5488628e+2, -1490049.3, -1270296.4, -51314.79, 0.10375486, -0.19938357, -1258904.4, 163202.73, 0.0078018596, 9.998703, 10.001614 
1.7449535e+3, 1.6488738e+2, -1503609.4, -1397695.0, 38838.313, 0.0634225, -0.1675275, -1384979.8, -60882.477, 0.0013223152, 9.998647, 10.000121 
1.7449692e+3, 1.7488971e+2, -1467663.3, -1308685.5, 57725.41, 0.04270096, 0.0024960467, -1289936.4, -63858.58, 0.000049909977, 9.9981575, 10.000279 
1.7449844e+3, 1.8489054e+2, -1367012.8, -1213506.5, 41611.395, 0.0237974, 0.07050165, -1202952.4, -74882.4, 0.0000000000000006446772, 9.998197, 10.000229 
1.7449988e+3, 1.9488984e+2, -1137302.3, -1026015.0, 20638.883, -0.005197817, -0.08019974, -1022310.7, 7763.543, 0.0, 9.999007, 10.000436 
1.745013e+3, 2.0488979e+2, -997663.8, -901181.4, -298.99704, -0.023658464, -0.12845927, -901180.44, 30891.156, 0.0, 9.999218, 10.000556 
1.7450272e+3, 2.1489018e+2, -930373.9, -793450.6, -50535.582, -0.036541376, -0.19510128, -776819.1, 57244.426, 0.0, 9.99893, 10.000747 
1.7450419e+3, 2.2489047e+2, -921485.9, -942888.2, -34631.645, 0.0064426013, -0.14215769, -895939.75, -159880.02, 0.0, 9.99918, 9.998939 
1.7450571e+3, 2.3489064e+2, -695155.06, -758017.44, -17416.922, 0.10215271, -0.07045574, -690652.0, -52591.61, 0.0, 9.999983, 9.999126 
1.7450716e+3, 2.448897e+2, -550119.5, -750684.3, -4982.3496, 0.14044635, -0.017873257, -549995.8, -9925.441, 0.0, 10.000808, 9.998105 
1.7450848e+3, 2.5488743e+2, -314469.4, -565761.2, -12323.526, 0.10209114, -0.10685937, -313866.5, 128225.77, 0.0, 10.001681, 9.998271 
1.7450984e+3, 2.6488507e+2, -165959.69, -456526.94, 40635.555, 0.035092052, -0.15637682, -160383.84, 183729.88, 0.0000010008785, 10.002022, 9.99821 
1.7451122e+3, 2.7488267e+2, -85397.59, -348407.94, -12715.034, -0.07374031, -0.27362117, -84784.33, 161350.7, 0.000030147008, 10.001834, 9.99836 
1.745127e+3, 2.848807e+2, -34786.477, -441779.66, -57098.99, -0.024195844, -0.2201669, -26927.545, 121226.62, 0.00019899277, 10.002212, 9.996882 
1.7451422e+3, 2.9487878e+2, 198177.58, -257786.75, -70820.27, 0.16157319, -0.16722354, 208924.08, 259099.77, 0.00068156485, 10.00305, 9.997061 
1.7451552e+3, 3.0487692e+2, 286732.28, -190882.27, 29100.842, 0.040357262, -0.046593882, 288498.84, 288498.84, 0.0015937911, 10.00335, 9.997055 
1.7451705e+3, 3.1487417e+2, 383531.06, -31962.37, -12991.922, 0.061373595, -0.10015245, 383936.9, 383936.9, 0.002881364, 10.003478, 9.998062 
1.7548886e+3, 1.2486732e+2, -2002973.8, -1960750.8, -352105.78, -0.14690709, -0.067394964, -1629124.1, 87163.72, 0.07366958, 9.998419, 9.999063 
1.7549077e+3, 1.348682e+2, -1912093.4, -1546925.6, 68152.62, 0.1316013, -0.2080676, -1534620.6, 83663.33, 0.048192136, 9.997032, 10.001897 
1.7549232e+3, 1.4487158e+2, -1772039.3, -1544907.0, 668.75494, 0.12033533, -0.012163945, -1544905.0, -24651.549, 0.024652572, 9.997795, 10.00085 
1.7549366e+3, 1.5487246e+2, -1537191.4, -1382466.8, -3072.7583, -0.037121683, -0.05104088, -1382405.8, 39839.242, 0.008527423, 9.998753, 10.000826 
1.7549506e+3, 1.648735e+2, -1434858.8, -1266950.1, -12436.151, -0.13431156, -0.024469085, -1266034.0, 58200.707, 0.0014925194, 9.998708, 10.000986 
1.7549673e+3, 1.7487521e+2, -1404500.3, -1160472.8, 53136.242, -0.004316614, -0.014794351, -1149404.5, 76812.81, 0.00006156021, 9.998097, 10.00132 
1.7549835e+3, 1.8487631e+2, -1372280.9, -1223509.0, 53777.652, 0.06966149, 0.027312435, -1206105.5, -77899.586, 0.0000000010737394, 9.99819, 10.000164 
1.7549986e+3, 1.9487625e+2, -1162430.9, -1059010.3, 63048.434, 0.03995957, -0.046380036, -1029178.8, 1027.2743, 0.0, 9.99892, 10.000253 
1.7550126e+3, 2.0487617e+2, -1088553.3, -1052515.5, -28647.352, -0.019224687, -0.036673922, -1036691.3, -104484.94, 0.0, 9.999057, 9.999593 
1.755026e+3, 2.148762e+2, -1028084.94, -943969.4, -48229.25, -0.06566401, -0.050871577, -922035.6, -87829.52, 0.0, 9.9987, 9.999825 
1.7550406e+3, 2.2487618e+2, -904703.4, -837427.75, -20855.736, -0.057769798, -0.026563736, -831487.0, -95281.445, 0.0, 9.998878, 9.999807 
1.7550564e+3, 2.3487589e+2, -670041.25, -649569.3, 29631.912, 0.0045488076, -0.08986786, -628455.25, 9751.479, 0.0, 9.999736, 9.999992 
1.7550717e+3, 2.4487492e+2, -581494.25, -739060.44, 13728.424, 0.048041906, -0.09624818, -580307.06, -40091.883, 0.0, 10.000478, 9.998343 
1.7550868e+3, 2.5487316e+2, -335552.47, -549105.56, 37724.83, 0.10844916, -0.1611428, -329084.16, 113148.58, 0.0, 10.001421, 9.998509 
1.7551012e+3, 2.6487172e+2, -273487.03, -614780.6, 13192.689, 0.074542604, -0.08372926, -272977.84, 71270.91, 0.00000094846536, 10.001736, 9.997267 
1.7551145e+3, 2.7487075e+2, -191706.81, -498395.1, 1383.8495, -0.068022825, 0.03417815, -191700.58, 54561.61, 0.000030605133, 10.001536, 9.997471 
1.7551291e+3, 2.8486893e+2, -58464.816, -410567.5, -40576.79, -0.06393467, 0.120024025, -53849.195, 94432.34, 0.00020047408, 10.001865, 9.997262 
1.7551452e+3, 2.9486567e+2, 164994.31, -235894.25, -14713.918, 0.11638633, -0.0016820641, 165533.64, 215845.67, 0.00069770816, 10.002672, 9.997387 
1.7551582e+3, 3.0486193e+2, 233867.16, -191027.42, 3244.4194, -0.029320192, -0.08855176, 233891.94, 233891.94, 0.001653074, 10.002891, 9.997266 
1.7551737e+3, 3.148601e+2, 258941.3, -90341.05, 68156.26, -0.027343629, -0.10036448, 271769.63, 271769.63, 0.0030124004, 10.002672, 9.99802 
1.7648852e+3, 1.2485217e+2, -2183853.0, -2061918.9, -349742.5, -0.25327632, -0.15986152, -1767869.3, -51433.48, 0.07790593, 9.997195, 9.998936 
1.7649062e+3, 1.3485453e+2, -1719842.9, -1444204.8, 128444.95, 0.23708166, -0.16335939, -1393630.1, 224786.52, 0.05123237, 9.998274, 10.002048 
1.7649208e+3, 1.4485677e+2, -1679172.8, -1545850.6, 77443.32, 0.06098926, -0.07465152, -1510329.6, 10067.013, 0.026445003, 9.998629, 10.000455 
1.7649353e+3, 1.548578e+2, -1588844.3, -1457862.0, 42608.008, -0.03436042, -0.045863632, -1445221.6, -22834.926, 0.009296644, 9.998649, 10.000355 
1.7649494e+3, 1.6485867e+2, -1470336.3, -1296750.5, 17100.938, -0.0973474, -0.0054731583, -1295081.8, 29296.508, 0.0016790463, 9.99853, 10.000856 
1.7649658e+3, 1.7485955e+2, -1360218.8, -1158718.5, -40571.504, 0.03899262, -0.067535125, -1150856.4, 75513.0, 0.000074904594, 9.998478, 10.001145 
1.7649822e+3, 1.848605e+2, -1325924.1, -1185499.6, -13927.879, 0.124220446, -0.038891617, -1184131.5, -55771.99, 0.000000009428086, 9.998436, 10.000315 
1.7649977e+3, 1.9486119e+2, -1162226.9, -1037834.56, -14027.148, 0.08033232, -0.05204833, -1036272.4, -5920.141, 0.0, 9.998832, 10.000453 
1.7650121e+3, 2.048613e+2, -1065837.4, -1073269.4, -52129.836, 0.03113767, -0.017946115, -1017291.25, -84939.77, 0.0, 9.999366, 9.999295 
1.765026e+3, 2.1486087e+2, -847541.1, -890412.5, -56499.023, -0.002273611, -0.042870294, -808548.1, 25809.156, 0.0, 10.000103, 9.999509 
1.7650406e+3, 2.2486064e+2, -701709.06, -723496.94, -5080.805, 0.0027679647, -0.02833872, -700582.5, 35777.0, 0.0, 10.000216, 9.999937 
1.7650563e+3, 2.3486051e+2, -651617.75, -622646.7, -50979.535, 0.023546435, -0.08848874, -584134.6, 54224.848, 0.0, 9.9998, 10.000139 
1.765072e+3, 2.4485989e+2, -584379.5, -711829.2, -27233.22, 0.055234507, -0.083006196, -578804.25, -38439.324, 0.0, 10.000282, 9.99865 
1.7650881e+3, 2.5485867e+2, -279137.47, -492645.2, -23116.9, 0.10224379, -0.11970086, -276663.22, 165713.95, 0.0, 10.001638, 9.998815 
1.7651033e+3, 2.648576e+2, -204306.72, -551906.75, -18457.459, 0.10376839, -0.03174657, -203329.38, 141059.9, 0.0000007067664, 10.002105, 9.997509 
1.7651169e+3, 2.7485672e+2, -156043.34, -453132.84, 7203.0825, 0.031930145, 0.069626674, -155868.8, 90532.875, 0.000029110019, 10.001672, 9.997708 
1.765132e+3, 2.8485492e+2, -26204.102, -379979.06, 81142.54, 0.035814326, 0.14299357, -8480.966, 139939.28, 0.0002034409, 10.002046, 9.997382 
1.7651483e+3, 2.9485184e+2, 274629.16, -175957.66, 29667.762, 0.1378685, 0.038473487, 276574.16, 327023.0, 0.0007263894, 10.003417, 9.9974375 
1.7651615e+3, 3.0484748e+2, 383954.66, -131938.02, 26341.768, -0.022115324, -0.10846147, 385296.2, 385296.2, 0.0017327985, 10.003947, 9.997171 
1.7651775e+3, 3.148456e+2, 345556.72, -60411.758, -10795.895, 0.07541632, -0.10752806, 345843.63, 345843.63, 0.003152883, 10.003253, 9.997975 
1.7748825e+3, 1.24838956e+2, -2023469.5, -1776535.4, -215315.48, -0.31329545, -0.15009293, -1651799.1, 64771.332, 0.08231803, 9.997355, 10.000864 
1.7749052e+3, 1.3484316e+2, -1721760.1, -1459376.5, 179704.33, 0.25738278, 0.008996239, -1368071.3, 250455.1, 0.054393712, 9.998319, 10.001931 
1.7749172e+3, 1.4484213e+2, -1718276.8, -1651240.5, 54094.26, -0.20669185, -0.16066061, -1621121.8, -100587.4, 0.02831169, 9.99873, 9.999682 
1.774934e+3, 1.5484227e+2, -1598540.6, -1485214.0, 55826.617, -0.047930174, -0.1981457, -1462332.6, -39800.2, 0.010105246, 9.998669, 10.00016 
1.7749497e+3, 1.6484295e+2, -1544271.8, -1463637.8, -3507.1392, 0.021451427, -0.11629501, -1463485.5, -138957.9, 0.0018804772, 9.998587, 9.999684 
1.7749648e+3, 1.7484273e+2, -1458782.4, -1358764.1, -29472.355, 0.037767347, -0.15407616, -1350725.6, -124191.555, 0.00008970714, 9.998461, 9.99978 
1.77498e+3, 1.848431e+2, -1301060.1, -1135564.4, -17969.008, 0.016118364, -0.12796392, -1133635.8, -5104.5874, 0.000000028818846, 9.998443, 10.000653 
1.7749959e+3, 1.9484453e+2, -1146091.4, -980817.4, 16356.121, -0.02760877, -0.10778932, -979214.25, 51299.867, 0.0, 9.99873, 10.000895 
1.7750113e+3, 2.0484503e+2, -1070362.4, -1040353.1, -42599.273, -0.033029407, -0.076942116, -1010193.2, -77685.055, 0.0, 9.999188, 9.9996 
1.7750265e+3, 2.1484414e+2, -868170.94, -873861.94, -15586.02, 0.020184312, -0.17673382, -855172.8, -20655.127, 0.0, 9.999855, 9.999736 
1.7750415e+3, 2.2484387e+2, -794802.2, -856192.94, -34944.684, 0.03129031, -0.13804218, -778985.9, -42463.863, 0.0, 9.999943, 9.99916 
1.7750563e+3, 2.3484425e+2, -729170.9, -745773.4, -48481.945, 0.019845037, -0.07700745, -688284.6, -49763.44, 0.0, 9.999618, 9.999387 
1.775072e+3, 2.4484429e+2, -597638.4, -663917.94, 5896.794, -0.0036622104, 0.008069985, -597117.8, -56595.516, 0.0, 9.9999695, 9.999123 
1.7750885e+3, 2.5484395e+2, -287217.6, -442724.56, 46623.582, -0.042928364, 0.011567795, -274310.38, 168215.06, 0.0, 10.001362, 9.999286 
1.7751044e+3, 2.6484284e+2, -168446.95, -396754.47, -47629.91, -0.027533809, 0.005282945, -158908.8, 185626.02, 0.00000032366296, 10.001765, 9.998735 
1.7751192e+3, 2.7484074e+2, -117961.7, -294256.16, 12373.352, 0.060976084, -0.1382644, -117097.51, 129454.82, 0.00002512301, 10.001351, 9.998943 
1.7751348e+3, 2.8483886e+2, -104656.03, -467273.97, 105274.03, 0.07859843, -0.10913658, -76309.17, 72260.32, 0.00020101898, 10.001713, 9.996945 
1.7751512e+3, 2.9483727e+2, 196194.77, -255816.52, 104452.14, 0.04213509, -0.032549974, 219164.63, 269751.38, 0.0007432089, 10.003065, 9.997053 
1.7751646e+3, 3.0483347e+2, 278389.94, -237845.36, -17061.996, -0.13906386, -0.0863292, 278953.22, 278953.22, 0.0017748394, 10.003475, 9.996666 
1.7751813e+3, 3.1483233e+2, 221555.2, -102555.086, 46160.05, 0.057650745, 0.04475206, 228001.16, 228001.16, 0.0031987038, 10.002404, 9.99806 
1.7848818e+3, 1.2482614e+2, -1917525.4, -1701205.9, -155519.17, -0.14247788, -0.0329674, -1619933.0, 96763.67, 0.08696164, 9.99802, 10.001053 
1.784903e+3, 1.3482942e+2, -1735654.4, -1556913.8, 50779.617, 0.20716801, 0.123675466, -1543494.9, 75165.95, 0.057701517, 9.998682, 10.001016 
1.784916e+3, 1.4482586e+2, -1781536.6, -1674936.1, -44894.277, -0.17600764, -0.25054884, -1658548.4, -137855.22, 0.030258754, 9.998275, 9.999737 
1.7849329e+3, 1.5482672e+2, -1591848.0, -1462714.6, -43162.26, -0.00049180875, -0.23351848, -1449616.5, -26933.088, 0.0109521225, 9.998626, 10.000335 
1.7849487e+3, 1.6482788e+2, -1550140.4, -1484320.0, -29683.99, 0.07367871, -0.10864124, -1472910.8, -148237.19, 0.0020959692, 9.998629, 9.999514 
1.7849633e+3, 1.748274e+2, -1469054.8, -1380717.0, -10375.149, 0.068313465, -0.15493232, -1379514.8, -152832.39, 0.000105867584, 9.998485, 9.999605 
1.7849787e+3, 1.8482736e+2, -1275432.8, -1154659.5, 87756.96, 0.038994003, -0.14574297, -1108520.0, 20163.664, 0.0000000562377, 9.998747, 10.000385 
1.7849949e+3, 1.948284e+2, -1015362.2, -944876.06, 45357.215, -0.03614613, -0.1423174, -922679.1, 107991.62, 0.0, 9.999728, 10.000663 
1.7850108e+3, 2.0482883e+2, -963291.7, -989924.75, -42811.86, -0.01923309, -0.104752615, -931773.1, 892.6769, 0.0, 9.999928, 9.999591 
1.7850268e+3, 2.1482824e+2, -919208.56, -898645.4, -72128.92, 0.09002893, -0.17555173, -836068.94, -1395.7126, 0.0, 9.9995, 9.999739 
1.7850421e+3, 2.2482796e+2, -814297.94, -881055.6, -30348.754, 0.1110102, -0.12986752, -802563.6, -65885.29, 0.0, 9.999889, 9.999019 
1.7850567e+3, 2.3482808e+2, -513573.8, -658113.0, -34685.402, 0.037768368, -0.07527722, -505681.25, 132999.16, 0.0, 10.001185, 9.999237 
1.7850724e+3, 2.4482824e+2, -393494.97, -522242.38, 47273.934, -0.0057506473, 0.013625711, -378001.3, 162678.92, 0.0, 10.001205, 9.999488 
1.7850891e+3, 2.5482836e+2, -473086.9, -490593.94, 42117.15, -0.040315907, 0.025807537, -438823.22, 3854.918, 0.0, 9.999926, 9.999636 
1.7851056e+3, 2.6482728e+2, -374738.44, -482494.72, -37202.29, 0.006088576, -0.0018079103, -363142.44, -18455.986, 0.00000018370703, 10.0002575, 9.99889 
1.7851214e+3, 2.7482456e+2, 37155.16, -215849.69, -90172.36, 0.11644915, -0.21410541, 66003.69, 312712.63, 0.000020759246, 10.002346, 9.999035 
1.7851378e+3, 2.848227e+2, 126930.67, -330301.03, 16886.15, 0.14822066, -0.19862503, 127553.45, 276279.3, 0.00019262578, 10.003211, 9.997152 
1.7851546e+3, 2.9482192e+2, 181392.52, -243795.73, 7819.9434, 0.110626265, -0.057602845, 181536.3, 232271.75, 0.00073903677, 10.002875, 9.997224 
1.7851686e+3, 3.0481842e+2, 239402.11, -252571.25, -45697.81, -0.062347393, -0.08910832, 243610.83, 243610.83, 0.0017591042, 10.0032015, 9.996688 
1.785185e+3, 3.1481647e+2, 455062.0, 12135.688, -40935.668, 0.14824386, -0.022111516, 458813.53, 458813.53, 0.003118364, 10.0039625, 9.998121 
1.7948823e+3, 1.2481083e+2, -2003252.4, -1927179.3, -257742.9, -0.014061703, -0.11192373, -1704681.4, 12160.752, 0.09190124, 9.998235, 9.999363 
1.7948987e+3, 1.3481317e+2, -1833374.1, -1793163.5, 49040.8, -0.13718538, 0.15668592, -1760266.8, -141444.86, 0.06119029, 9.998806, 9.999323 
1.7949165e+3, 1.4480798e+2, -1719478.3, -1554560.1, -65980.16, -0.0006928587, -0.34721112, -1531412.0, -10539.133, 0.03230053, 9.998321, 10.000537 
1.7949317e+3, 1.5481131e+2, -1560693.0, -1392442.9, -15099.938, -0.019311132, -0.13890085, -1391098.4, 31739.988, 0.011841973, 9.9986105, 10.000822 
1.794946e+3, 1.6481344e+2, -1478931.6, -1359962.0, -56111.11, -0.10422977, 0.026468735, -1337673.4, -12857.222, 0.0023264778, 9.998715, 10.000334 
1.7949615e+3, 1.748134e+2, -1399184.5, -1240448.1, -6408.985, 0.0021331953, -0.0696117, -1240189.8, -13373.673, 0.00012352158, 9.998494, 10.000572 
1.7949778e+3, 1.8481313e+2, -1328810.9, -1269079.6, 103852.945, 0.028238904, -0.09710083, -1190883.4, -62064.813, 0.000000085167756, 9.998769, 9.999584 
1.7949943e+3, 1.9481273e+2, -1095844.1, -1087106.0, 91798.195, -0.08655162, -0.14821792, -999572.94, 31249.584, 0.0, 9.999625, 9.999734 
1.7950104e+3, 2.048128e+2, -1009019.2, -1046125.5, -77300.6, -0.095210455, -0.0850755, -948076.44, -15252.606, 0.0, 9.999754, 9.999294 
1.7950264e+3, 2.148132e+2, -966922.8, -951346.6, -74129.805, 0.06954669, -0.028723227, -884596.94, -49773.426, 0.0, 9.999292, 9.999485 
1.795042e+3, 2.2481285e+2, -834862.8, -852080.0, 427.52844, 0.086423874, 0.0049928986, -834852.2, -98023.375, 0.0, 9.999584, 9.999364 
1.7950572e+3, 2.3481177e+2, -531965.5, -628198.2, 30958.082, -0.05376121, -0.09561426, -522866.6, 115972.64, 0.0, 10.000896, 9.999578 
1.7950729e+3, 2.4481148e+2, -432989.06, -525993.25, -12846.488, -0.10792211, -0.077462725, -431247.22, 109593.945, 0.0, 10.000868, 9.999626 
1.7950894e+3, 2.5481185e+2, -498960.03, -484040.94, 10148.407, -0.03850047, -0.05826605, -478905.44, -36069.926, 0.0, 9.999674, 9.999798 
1.7951064e+3, 2.6481077e+2, -484386.1, -639124.6, 22006.621, 0.026150804, -0.046272017, -481317.22, -136471.69, 0.00000013255313, 9.999949, 9.997965 
1.7951234e+3, 2.7480814e+2, -72146.125, -363616.63, 6518.8506, 0.047789305, -0.16363896, -72000.41, 174871.67, 0.0000188634, 10.002024, 9.998165 
1.7951407e+3, 2.8480655e+2, 117366.734, -264666.6, -14721.351, 0.064807, -0.11266252, 117933.17, 266821.0, 0.00018772876, 10.002836, 9.997787 
1.7951581e+3, 2.9480597e+2, 170600.33, -163070.1, 26595.148, 0.14135697, -0.01879072, 172706.8, 223599.47, 0.00073121197, 10.002451, 9.9979725 
1.7951725e+3, 3.0480248e+2, 174944.73, -280858.7, -38434.85, -0.02367094, -0.088807434, 178162.97, 178162.97, 0.0017173345, 10.002727, 9.996732 
1.7951879e+3, 3.147986e+2, 391214.38, 42897.39, 66349.46, -0.030003909, -0.24462454, 403424.94, 403424.94, 0.002973509, 10.003305, 9.998623 
1.8048815e+3, 1.2479407e+2, -2057116.0, -1958299.0, -204459.02, 0.12693404, -0.21605788, -1797363.3, -80360.31, 0.097200245, 9.9979315, 9.999276 
1.804897e+3, 1.3479604e+2, -1869976.9, -1830750.4, 71310.625, -0.15416795, 0.047237255, -1776405.0, -157418.03, 0.06490086, 9.998662, 9.999126 
1.804916e+3, 1.4479162e+2, -1707480.6, -1558634.8, -220.1077, 0.12883516, -0.37514323, -1558634.4, -37602.875, 0.034457777, 9.998425, 10.000463 
1.8049304e+3, 1.547955e+2, -1670305.1, -1459353.8, -28158.787, 0.024007158, -0.09887448, -1455659.8, -32666.74, 0.0127833225, 9.9979105, 10.000699 
1.8049443e+3, 1.6479743e+2, -1580591.0, -1401663.8, -58101.96, -0.09748179, 0.047671095, -1384452.3, -59479.523, 0.0025744103, 9.997987, 10.000402 
1.8049607e+3, 1.7479686e+2, -1310862.6, -1181833.4, -104469.39, 0.05843307, -0.11039861, -1123563.6, 103411.91, 0.00014305822, 9.999035, 10.000706 
1.8049775e+3, 1.8479647e+2, -1257422.8, -1247383.8, 21201.764, 0.11414197, -0.15424679, -1230615.4, -101636.7, 0.00000010953618, 9.999308, 9.999476 
1.8049939e+3, 1.9479617e+2, -1207366.8, -1150680.8, 35357.39, -0.051185776, -0.18178512, -1133708.5, -102725.875, 0.0, 9.998911, 9.99964 
1.80501e+3, 2.0479636e+2, -1089488.5, -1089808.8, -55191.867, -0.06805421, -0.09955339, -1034456.5, -101473.0, 0.0, 9.999215, 9.99927 
1.8050265e+3, 2.1479695e+2, -805839.25, -874903.8, -64903.902, 0.114676684, -0.020697903, -766852.8, 68129.055, 0.0, 10.000401, 9.999482 
1.8050423e+3, 2.2479664e+2, -699352.25, -782460.5, 26699.904, 0.13157113, 0.013769464, -691513.8, 45473.15, 0.0, 10.000502, 9.999389 
1.8050574e+3, 2.3479532e+2, -723370.06, -719796.2, -1349.1512, -0.05660807, -0.1091325, -719344.06, -80344.766, 0.0, 9.999584, 9.999573 
1.8050732e+3, 2.4479479e+2, -599541.9, -622939.2, -42575.33, -0.09237111, -0.10839821, -567087.2, -26083.754, 0.0, 9.999776, 9.999511 
1.8050905e+3, 2.5479484e+2, -300522.84, -409725.13, -73804.39, 0.04600246, -0.10206649, -263317.8, 179683.31, 0.0, 10.001099, 9.999654 
1.805108e+3, 2.6479384e+2, -230091.02, -519727.9, 23625.854, 0.12264682, -0.06760637, -228176.48, 116834.19, 0.00000007008213, 10.001728, 9.997918 
1.8051255e+3, 2.7479175e+2, -125424.07, -405473.06, 23976.273, 0.07749621, -0.118435055, -123386.18, 123647.16, 0.000018211349, 10.00172, 9.99803 
1.8051428e+3, 2.8479016e+2, -5471.27, -285964.97, 20743.908, 0.07835582, -0.07594804, -3945.4543, 145103.78, 0.00018396454, 10.001815, 9.998137 
1.8051605e+3, 2.9478902e+2, 162901.36, -132845.23, -12464.319, 0.16820133, -0.06738887, 163425.73, 214484.56, 0.0007180549, 10.00223, 9.998299 
1.8051763e+3, 3.0478603e+2, 284124.5, -212479.47, 3485.956, 0.06057459, -0.10964406, 284148.97, 284148.97, 0.0016645552, 10.003433, 9.996848 
1.805193e+3, 3.1478286e+2, 655454.7, 150689.5, 5018.1743, 0.07235322, -0.17722246, 655504.56, 655504.56, 0.002832551, 10.005104, 9.99855 
1.814878e+3, 1.24777816e+2, -1936394.0, -1748977.8, -3661.2175, -0.10213403, -0.14784466, -1748906.3, -31745.959, 0.10291468, 9.998083, 10.000652 
1.8148981e+3, 1.3477784e+2, -1783076.9, -1651096.1, 102332.42, 0.038760263, -0.20994404, -1595321.8, 23835.79, 0.06887483, 9.998661, 10.000371 
1.8149139e+3, 1.4477645e+2, -1745170.5, -1654009.1, -46495.633, 0.028544584, -0.35628074, -1634478.9, -113307.23, 0.036753505, 9.998494, 9.999777 
1.8149282e+3, 1.5477914e+2, -1710629.3, -1552728.4, -34496.48, -0.019346867, -0.13111776, -1545520.9, -122372.07, 0.01378539, 9.997944, 10.000048 
1.8149428e+3, 1.6477975e+2, -1615424.3, -1490995.9, -40332.152, -0.084827945, -0.05269142, -1479066.4, -153922.75, 0.002842686, 9.99806, 9.999753 
1.8149607e+3, 1.7477782e+2, -1367556.5, -1299938.9, -51759.77, 0.11479886, -0.27351195, -1271924.5, -44763.92, 0.00016504708, 9.999027, 9.999902 
1.8149777e+3, 1.8477745e+2, -1214414.4, -1157589.8, -12070.655, 0.14966004, -0.30172238, -1155132.0, -25968.607, 0.00000012908751, 9.999303, 10.000096 
1.814993e+3, 1.9477881e+2, -1166253.0, -1052036.9, 32618.723, -0.06064121, -0.23458184, -1043377.9, -12227.544, 0.0, 9.998849, 10.00035 
1.8150093e+3, 2.0477952e+2, -1101445.6, -1072174.0, -27315.76, -0.09728694, -0.14659682, -1055820.1, -122675.25, 0.0, 9.999039, 9.999473 
1.815027e+3, 2.1477938e+2, -829998.5, -867892.4, -4136.1245, 0.100102656, -0.15917161, -829552.3, 5597.044, 0.0, 10.000155, 9.999647 
1.8150428e+3, 2.2477916e+2, -773437.7, -859607.7, -20980.762, 0.097289816, -0.10569933, -768600.75, -31446.662, 0.0, 10.000173, 9.999017 
1.8150567e+3, 2.347788e+2, -787929.75, -795460.5, -19438.852, -0.11256135, -0.09677419, -771894.94, -132735.05, 0.0, 9.999331, 9.999174 
1.8150729e+3, 2.4477811e+2, -679410.8, -718952.0, -7399.582, -0.13663813, -0.063509844, -678071.44, -136903.95, 0.0, 9.999476, 9.998989 
1.815092e+3, 2.547771e+2, -366731.63, -486782.9, -5539.6787, 0.07051391, -0.12392704, -366476.53, 76699.984, 0.0, 10.000844, 9.999236 
1.8151103e+3, 2.6477632e+2, -243282.88, -467649.44, 7671.143, 0.13856357, -0.07966387, -243020.9, 102162.86, 0.0000000874347, 10.001381, 9.998445 
1.8151271e+3, 2.7477545e+2, -135937.34, -346409.3, 45454.215, 0.0478675, -0.06824372, -126540.44, 120651.72, 0.00001648955, 10.001388, 9.998586 
1.8151441e+3, 2.8477374e+2, -66817.98, -337807.7, 15119.16, -0.012520285, -0.051594976, -65977.055, 83231.08, 0.00017264318, 10.001476, 9.997949 
1.8151616e+3, 2.9477116e+2, 113771.73, -165710.63, 29605.535, 0.0025838928, -0.18170802, 116873.414, 168105.4, 0.000683164, 10.001925, 9.998219 
1.8151791e+3, 3.0476913e+2, 200094.97, -277981.2, 44028.875, -0.037738185, -0.12018552, 204116.02, 204116.02, 0.0015935485, 10.002977, 9.996614 
1.8151978e+3, 3.1476694e+2, 513169.9, 91271.59, 112739.28, -0.026006917, -0.079666585, 541406.25, 541406.25, 0.0027236447, 10.004171, 9.998547 
1.8248762e+3, 1.2475912e+2, -1999350.9, -1750689.5, 43730.67, -0.047381792, -0.11521959, -1743223.0, -25880.002, 0.10907774, 9.997506, 10.000916 
1.8248963e+3, 1.3475873e+2, -1939846.6, -1630775.5, -113038.46, 0.09994559, -0.31072882, -1593845.9, 25498.814, 0.07313931, 9.997117, 10.001273 
1.8249123e+3, 1.4476067e+2, -1960633.9, -1713701.4, -170813.02, 0.09739606, -0.19082141, -1626404.8, -105079.09, 0.039204508, 9.996858, 10.000149 
1.8249269e+3, 1.5476167e+2, -1617912.5, -1476159.8, -121563.14, 0.032505333, -0.15904847, -1406319.9, 16998.52, 0.014855209, 9.998472, 10.00031 
1.8249421e+3, 1.6476156e+2, -1456526.1, -1433268.6, -45845.15, -0.030438278, -0.15869074, -1397600.4, -72279.555, 0.0031336718, 9.999231, 9.9995775 
1.8249601e+3, 1.7476045e+2, -1362953.3, -1314482.4, -46709.39, 0.1584527, -0.28005528, -1286095.4, -58764.293, 0.00019006866, 9.999144, 9.9997425 
1.8249774e+3, 1.8476054e+2, -1258132.3, -1169207.4, 4507.7876, 0.22387607, -0.25532445, -1168979.4, -39649.066, 0.00000015151502, 9.998962, 10.000178 
1.8249927e+3, 1.9476181e+2, -1149394.5, -1030045.2, -30596.57, 0.04334218, -0.2069788, -1022658.6, 8660.546, 0.0, 9.998935, 10.000449 
1.8250091e+3, 2.0476241e+2, -1068499.0, -1025824.44, -45365.438, -0.007764164, -0.14588605, -997028.9, -63714.79, 0.0, 9.999143, 9.999719 
1.8250267e+3, 2.1476215e+2, -882191.6, -860407.75, -45378.473, 0.100231096, -0.20125194, -824632.4, 10685.334, 0.0, 9.999672, 9.9999075 
1.8250428e+3, 2.2476202e+2, -757181.06, -880677.6, -49774.594, 0.08094458, -0.14215665, -739617.5, -2296.4316, 0.0, 10.0003805, 9.998788 
1.8250568e+3, 2.3476198e+2, -520066.3, -686876.56, -68022.56, -0.09716926, -0.08048784, -495844.84, 143480.2, 0.0, 10.001253, 9.9990015 
1.8250737e+3, 2.4476126e+2, -413104.06, -624768.75, 5785.625, -0.08675666, -0.027930263, -412946.03, 128387.55, 0.0, 10.001445, 9.998683 
1.8250933e+3, 2.5475976e+2, -385243.34, -531960.06, -14920.393, 0.13337637, -0.10268817, -383741.38, 59606.14, 0.0, 10.000864, 9.998909 
1.8251118e+3, 2.647587e+2, -305439.6, -472079.7, 17398.53, 0.19803275, -0.07902095, -303642.44, 41714.45, 0.00000011582431, 10.000858, 9.998661 
1.8251285e+3, 2.7475777e+2, -99492.12, -310421.8, -17318.348, 0.05888478, -0.087448865, -98079.66, 149285.02, 0.000015405387, 10.001551, 9.998762 
1.825146e+3, 2.8475606e+2, 23206.328, -310060.75, -9652.082, 0.0024868832, -0.07331135, 23485.637, 172866.5, 0.00016033741, 10.002182, 9.997792 
1.8251641e+3, 2.947537e+2, 221568.63, -145530.9, -50004.758, 0.03470271, -0.15699272, 228258.16, 279662.7, 0.00064014964, 10.002795, 9.997946 
1.8251827e+3, 3.0475196e+2, 215464.17, -219351.08, 23800.924, 0.056171585, -0.07116955, 216763.11, 216763.11, 0.0015227182, 10.002846, 9.997088 
1.8252015e+3, 3.147501e+2, 255206.75, -12413.851, -1351.7802, 0.06610557, -0.029434664, 255213.58, 255213.58, 0.0026622775, 10.002228, 9.998822 
1.8348755e+3, 1.2473757e+2, -2050327.4, -1885662.9, 71962.33, 0.04649281, -0.15616094, -1858646.3, -141091.03, 0.11569034, 9.997623, 9.999933 
1.8348917e+3, 1.347387e+2, -1880489.0, -1532032.3, -143388.47, -0.122084394, -0.24495988, -1480615.4, 138932.8, 0.07769921, 9.99718, 10.001983 
1.8349099e+3, 1.447444e+2, -1848117.3, -1507632.4, -145495.55, 0.12909561, 0.13373542, -1453929.6, 67563.06, 0.04181763, 9.996961, 10.001529 
1.8349257e+3, 1.5474306e+2, -1534092.3, -1318883.4, -45317.883, 0.03297076, -0.18305284, -1309729.9, 113772.586, 0.015997248, 9.998521, 10.00138 
1.8349412e+3, 1.6474266e+2, -1416074.8, -1374155.3, -67367.53, -0.09205943, -0.27773374, -1324562.3, 943.31396, 0.0034491862, 9.999334, 9.999936 
1.8349586e+3, 1.7474449e+2, -1323435.3, -1245221.3, -40346.53, 0.055471864, -0.14850949, -1228139.3, -649.84735, 0.00021871291, 9.999183, 10.000204 
1.8349761e+3, 1.8474546e+2, -1296208.1, -1243868.8, -15569.285, 0.15518987, -0.038728997, -1239587.6, -110105.02, 0.00000018976193, 9.998951, 9.999668 
1.8349928e+3, 1.9474494e+2, -1205499.8, -1126402.1, -20005.096, 0.12278321, -0.10866776, -1121630.4, -90139.195, 0.0, 9.998846, 9.99983 
1.8350092e+3, 2.0474485e+2, -1067189.8, -984334.25, -42892.633, 0.04474588, -0.107497275, -966129.5, -32636.338, 0.0, 9.998973, 10.000087 
1.8350255e+3, 2.147452e+2, -884880.25, -815630.5, -14556.625, -0.02612693, -0.13836543, -812695.06, 22792.436, 0.0, 9.9994545, 10.0003195 
1.8350418e+3, 2.2474518e+2, -805277.0, -910725.25, -30707.355, -0.08627172, -0.08509431, -796986.6, -59498.555, 0.0, 10.000077, 9.998733 
1.835058e+3, 2.347446e+2, -558198.3, -710658.7, -18640.639, -0.13849182, -0.07229801, -555952.3, 83544.56, 0.0, 10.001012, 9.998961 
1.8350753e+3, 2.4474394e+2, -467379.13, -659646.9, -31300.408, -0.09115087, -0.009531094, -462411.88, 79092.59, 0.0, 10.001107, 9.998612 
1.835094e+3, 2.5474298e+2, -438786.84, -573018.9, -17607.738, 0.095127836, -0.018582072, -436515.6, 6997.0, 0.0, 10.000569, 9.998771 
1.8351121e+3, 2.6474136e+2, -372973.13, -548685.75, 28825.08, 0.11690896, -0.022201587, -368365.28, -22838.164, 0.000000090536304, 10.000573, 9.998278 
1.8351293e+3, 2.7473882e+2, -152182.77, -365930.97, 32858.26, -0.048529528, -0.16494662, -147245.7, 100304.94, 0.00001528185, 10.001315, 9.998494 
1.8351479e+3, 2.8473702e+2, -48550.383, -382524.06, -10536.182, -0.07042723, -0.13569513, -48218.316, 101350.414, 0.00015301355, 10.001844, 9.997459 
1.8351676e+3, 2.947362e+2, 142607.58, -216849.4, 3034.4846, 0.075259775, -0.031376723, 142633.2, 194212.25, 0.0006077412, 10.002404, 9.997637 
1.8351865e+3, 3.047346e+2, 179807.34, -169084.23, -17811.328, 0.112555146, 0.056018192, 180714.27, 180714.27, 0.0014712458, 10.00232, 9.997683 
1.8352023e+3, 3.1473276e+2, 168262.73, -29575.434, 10079.541, -0.14609511, 0.013946521, 168774.95, 168774.95, 0.0026387856, 10.001558, 9.999007 
1.844875e+3, 1.2471668e+2, -2048191.4, -1910967.3, 160751.89, 0.24401547, -0.21207792, -1804797.1, -87037.24, 0.12272786, 9.997789, 9.999678 
1.8448888e+3, 1.3471858e+2, -1736156.1, -1331748.8, -53193.22, -0.14212054, -0.33949685, -1324869.0, 294876.44, 0.08254445, 9.997595, 10.003245 
1.8449074e+3, 1.4472738e+2, -1683789.0, -1407221.8, -14349.53, 0.15464105, 0.27284577, -1406479.3, 115180.32, 0.04459436, 9.997958, 10.001764 
1.8449242e+3, 1.5472476e+2, -1603222.6, -1324996.9, -13495.376, 0.065567404, -0.19743757, -1324343.9, 99337.65, 0.017215712, 9.997925, 10.001625 
1.8449403e+3, 1.6472441e+2, -1592037.9, -1425978.4, -49925.75, -0.032366164, -0.31458658, -1412124.0, -86439.55, 0.0037916328, 9.998003, 10.000226 
1.8449576e+3, 1.7472757e+2, -1361593.3, -1228143.1, -68989.3, 0.07190783, -0.07978923, -1198890.3, 28766.582, 0.00025177147, 9.99879, 10.000509 
1.844975e+3, 1.847289e+2, -1284955.0, -1255204.8, -23854.95, 0.16334553, 0.058960184, -1241967.1, -112319.64, 0.00000025167606, 9.999101, 9.9995165 
1.8449919e+3, 1.9472775e+2, -1175514.1, -1131766.5, -25719.646, 0.14655675, -0.059183422, -1119877.0, -88213.67, 0.0, 9.999129, 9.999656 
1.8450084e+3, 2.0472755e+2, -1001848.4, -940831.8, 10171.028, 0.06824859, -0.063945696, -939181.06, -5514.747, 0.0, 9.999375, 10.000198 
1.8450248e+3, 2.1472846e+2, -780089.75, -753022.56, -15012.239, -0.057525035, -0.047351327, -746344.2, 89310.21, 0.0, 10.0001335, 10.000432 
1.845042e+3, 2.2472835e+2, -748656.4, -894632.6, -16808.578, -0.08376477, -0.004502744, -746745.94, -9091.129, 0.0, 10.000525, 9.998614 
1.8450597e+3, 2.3472682e+2, -630150.56, -762999.75, -41440.37, -0.039955243, -0.07268434, -618283.8, 21387.766, 0.0, 10.0005865, 9.998795 
1.8450773e+3, 2.4472567e+2, -487286.16, -668573.6, -39879.086, 0.005872536, -0.05241561, -478901.47, 62781.746, 0.0, 10.000991, 9.998589 
1.8450947e+3, 2.5472486e+2, -255383.7, -490590.13, -60511.273, 0.046197336, -0.042651664, -240729.11, 202960.97, 0.0, 10.001848, 9.998718 
1.8451129e+3, 2.6472333e+2, -156621.75, -469223.75, 33970.41, 0.064464726, -0.023452038, -152972.78, 192731.38, 0.00000009817215, 10.002172, 9.998051 
1.8451317e+3, 2.7472094e+2, -78797.84, -360536.8, 7232.977, 0.03374823, -0.12136079, -78612.27, 169115.11, 0.000013983738, 10.001955, 9.9982195 
1.8451504e+3, 2.8471905e+2, -56201.918, -356256.25, 13458.482, 0.042703, -0.09575867, -55599.47, 94146.484, 0.00014297613, 10.001661, 9.997732 
1.8451694e+3, 2.9471803e+2, 6136.7573, -244162.84, 11166.982, 0.07626077, -0.038594708, 6633.9785, 58390.438, 0.0005747027, 10.001298, 9.997987 
1.8451883e+3, 3.047158e+2, 96182.47, -181357.48, 60784.594, 0.12289063, -0.046728037, 108911.24, 108911.24, 0.0014161514, 10.001612, 9.997947 
1.845205e+3, 3.1471395e+2, 354755.16, 79547.63, -75015.9, -0.067706846, -0.09657373, 373874.66, 373874.66, 0.0025925355, 10.002729, 9.999198 
1.8548723e+3, 1.2469831e+2, -1990333.6, -1863231.3, -55871.02, 0.10927415, -0.11888548, -1842163.8, -124224.945, 0.13014582, 9.998044, 9.999908 
1.854887e+3, 1.3469832e+2, -1619713.0, -1121418.5, -16640.91, -0.11395914, -0.62168473, -1120863.4, 499073.6, 0.08765755, 9.997617, 10.004836 
1.8549046e+3, 1.4470951e+2, -1722048.6, -1514356.5, -26609.277, 0.009718408, 0.20168819, -1511001.6, 10825.307, 0.04753598, 9.998097, 10.000933 
1.8549216e+3, 1.5470676e+2, -1637198.6, -1411347.8, -5036.142, -0.015957514, -0.21371819, -1411235.5, 12620.075, 0.01851746, 9.997993, 10.000993 
1.8549386e+3, 1.6470675e+2, -1569615.4, -1396340.0, -46990.016, -0.042232376, -0.27476603, -1384417.3, -58559.188, 0.0041650403, 9.9980755, 10.000393 
1.8549567e+3, 1.7470957e+2, -1358524.5, -1220019.5, -25639.094, 0.07630193, -0.08485534, -1215425.8, 12408.392, 0.00029041685, 9.998773, 10.000577 
1.8549739e+3, 1.8471074e+2, -1268316.6, -1219497.9, -42068.543, 0.091612294, 0.023296034, -1195270.0, -65443.617, 0.0000003514084, 9.999098, 9.999764 
1.8549897e+3, 1.947102e+2, -1170498.9, -1097027.1, -14668.067, -0.02031934, -0.06106622, -1094207.0, -62371.19, 0.0, 9.9990225, 9.999948 
1.8550065e+3, 2.0471054e+2, -1047149.8, -990234.6, 20160.738, -0.10238637, -0.011677137, -983816.9, -49983.2, 0.0, 9.999185, 9.999951 
1.8550245e+3, 2.1471184e+2, -832629.56, -808447.3, 27552.164, -0.11743712, 0.067381285, -790449.94, 45369.188, 0.0, 9.999906, 10.00016 
1.855043e+3, 2.2471134e+2, -798425.9, -932825.4, -28575.967, -0.068003535, 0.091760926, -792602.44, -54779.617, 0.0, 10.000236, 9.998497 
1.8550615e+3, 2.3470867e+2, -676566.94, -803272.4, -22585.164, 0.05583737, -0.07840988, -672661.56, -32812.71, 0.0, 10.0003395, 9.998641 
1.8550788e+3, 2.4470665e+2, -544715.7, -712462.0, -21742.563, 0.033026293, -0.12710883, -541943.3, -75.31915, 0.0, 10.000666, 9.998442 
1.855095e+3, 2.5470534e+2, -299726.94, -517777.75, -10466.346, -0.13762404, -0.15981603, -299225.72, 144654.31, 0.0, 10.001578, 9.998653 
1.8551137e+3, 2.6470453e+2, -213520.52, -512678.38, 7867.427, -0.10761868, -0.06314949, -213313.77, 132575.11, 0.00000008466028, 10.001854, 9.997906 
1.8551351e+3, 2.7470398e+2, -136565.47, -407694.25, 22696.416, 0.15395151, 0.03478797, -134678.67, 113218.13, 0.000011476472, 10.001652, 9.998037 
1.8551537e+3, 2.8470215e+2, -73388.1, -305803.06, -20278.191, 0.15342216, 0.05336682, -71632.1, 78281.11, 0.00012753624, 10.001286, 9.998265 
1.8551688e+3, 2.946992e+2, 11979.171, -152841.7, 21209.262, -0.13217512, -0.15154457, 14664.638, 66601.39, 0.0005324824, 10.000964, 9.998774 
1.8551877e+3, 3.0469567e+2, 12611.712, -252417.86, 73952.305, -0.1361506, -0.32150993, 31850.38, 31850.38, 0.0013398622, 10.001172, 9.997667 
1.8552096e+3, 3.1469542e+2, 251567.17, 57693.79, -12950.166, 0.06320184, -0.18131211, 252428.39, 252428.39, 0.0024846024, 10.001939, 9.999408 
1.8648694e+3, 1.2468212e+2, -2204005.5, -1957021.6, -18718.512, 0.092262454, 0.017189594, -1955611.1, -237513.9, 0.1378835, 9.996586, 9.999938 
1.8648843e+3, 1.3467993e+2, -1640667.5, -1142578.5, -16777.488, -0.119788766, -0.7124352, -1142014.0, 478100.53, 0.09301642, 9.997538, 10.004723 
1.8649039e+3, 1.44691e+2, -1815586.3, -1584109.8, -31797.764, 0.1709053, 0.1171119, -1579821.3, -57816.188, 0.050644647, 9.99758, 10.000695 
1.8649201e+3, 1.5468873e+2, -1605121.6, -1418159.3, -18476.844, 0.01104712, -0.22730653, -1416350.8, 7679.1387, 0.01991141, 9.998321, 10.000789 
1.8649368e+3, 1.6468874e+2, -1478453.6, -1383539.1, -15127.017, -0.057220258, -0.2632764, -1381186.6, -55152.965, 0.0045744055, 9.998824, 10.000114 
1.8649553e+3, 1.7469084e+2, -1302092.6, -1217485.4, -50182.258, 0.03664262, -0.12364921, -1194154.8, 33863.168, 0.0003360051, 9.999276, 10.000337 
1.8649727e+3, 1.8469194e+2, -1232375.6, -1196268.0, -76404.086, 0.07152687, -0.015619653, -1135813.8, -5802.437, 0.00000050835786, 9.999312, 9.999825 
1.864989e+3, 1.9469202e+2, -1138621.1, -1074660.6, -97731.7, 0.000040193154, -0.044291366, -1003809.9, 28203.867, 0.0, 9.9992, 10.000025 
1.8650062e+3, 2.0469236e+2, -1051077.9, -1020098.0, -13582.9795, -0.037436064, 0.010070942, -1014986.1, -80974.79, 0.0, 9.999265, 9.999712 
1.8650249e+3, 2.1469274e+2, -880185.94, -862478.6, -33719.348, -0.05431377, 0.02417452, -836469.94, -464.04025, 0.0, 9.999688, 9.9999 
1.8650436e+3, 2.2469206e+2, -799185.1, -880578.75, -54001.44, 0.008910041, 0.020188473, -772262.5, -34251.914, 0.0, 10.000016, 9.998966 
1.8650626e+3, 2.3469016e+2, -643585.1, -731528.0, -40755.59, 0.13894078, -0.11593339, -627602.4, 12424.685, 0.0, 10.000341, 9.999139 
1.8650801e+3, 2.4468853e+2, -530110.9, -720239.75, 32937.85, 0.11108671, -0.14494017, -524566.4, 17475.752, 0.0, 10.000821, 9.99832 
1.8650965e+3, 2.5468707e+2, -328903.78, -550725.25, 13155.779, -0.11149723, -0.17499344, -328126.25, 115930.83, 0.0, 10.001461, 9.998487 
1.8651155e+3, 2.6468614e+2, -226146.52, -495820.03, 36906.445, -0.07988431, -0.09268757, -221186.86, 124881.086, 0.000000065173005, 10.001667, 9.998114 
1.8651372e+3, 2.7468562e+2, -152644.69, -393836.72, 32250.459, 0.22165978, -0.0070742196, -148406.84, 99668.234, 0.000009433609, 10.001441, 9.99824 
1.8651558e+3, 2.8468406e+2, -28141.916, -284469.53, 36750.613, 0.24265772, 0.026507705, -22976.922, 127111.766, 0.00011541344, 10.00161, 9.99824 
1.8651709e+3, 2.946813e+2, 200123.8, -70850.266, -21144.66, -0.082918644, -0.14519198, 201763.83, 253873.9, 0.0004967766, 10.002296, 9.998688 
1.8651892e+3, 3.0467716e+2, 214255.36, -183320.25, 57869.035, -0.16353261, -0.36265916, 222507.2, 222507.2, 0.0012631787, 10.002665, 9.997418 
1.8652119e+3, 3.1467748e+2, 363916.34, 97218.29, -143288.48, 0.07977439, -0.13347201, 426305.8, 426305.8, 0.0023412816, 10.002724, 9.99931 
1.874866e+3, 1.2466638e+2, -2190546.5, -1946402.8, -156053.19, -0.0047243563, -0.045318082, -1870348.0, -152095.98, 0.14588223, 9.996676, 9.999964 
1.8748806e+3, 1.3466348e+2, -1778639.3, -1413876.9, -7518.7095, -0.2842473, -0.6275799, -1413721.9, 206555.69, 0.0986057, 9.997584, 10.00266 
1.8749046e+3, 1.4467189e+2, -1777716.3, -1532028.9, -28206.533, 0.43588823, 0.021130538, -1528832.3, -6638.7046, 0.053927336, 9.997684, 10.001005 
1.8749186e+3, 1.5467063e+2, -1582339.4, -1380384.0, 26840.6, 0.0043076538, -0.24867772, -1376877.8, 47327.766, 0.021407956, 9.998347, 10.001045 
1.8749343e+3, 1.6467035e+2, -1506598.8, -1460570.5, -12578.172, -0.23825942, -0.29686877, -1457357.5, -131146.34, 0.0050250688, 9.998908, 9.999548 
1.8749526e+3, 1.7467137e+2, -1346304.5, -1308160.4, -20324.3, -0.18994248, -0.20035158, -1299360.9, -71152.664, 0.00038988978, 9.999263, 9.99973 
1.874971e+3, 1.846723e+2, -1241306.4, -1211041.5, -101108.21, -0.09120996, -0.073049374, -1123939.6, 6264.416, 0.000000733184, 9.999299, 9.999729 
1.8749891e+3, 1.9467317e+2, -1164728.8, -1100725.3, -90223.78, 0.074530095, -0.009114911, -1036995.9, -4798.227, 0.0, 9.999085, 9.999901 
1.8750072e+3, 2.0467293e+2, -1082840.0, -1056500.6, -18095.404, 0.10258413, 0.0022133754, -1047289.9, -113089.734, 0.0, 9.999127, 9.999534 
1.8750253e+3, 2.146713e+2, -926736.5, -907931.0, -5154.96, -0.007539644, -0.16667978, -906610.6, -70396.8, 0.0, 9.999467, 9.999695 
1.8750437e+3, 2.2467065e+2, -783893.8, -780127.44, -59006.25, -0.026024751, -0.19651513, -722974.3, 15242.601, 0.0, 9.999707, 9.999809 
1.8750624e+3, 2.3467113e+2, -615555.0, -614405.1, -13925.657, 0.077149674, -0.18806665, -601042.56, 39165.46, 0.0, 10.000087, 10.000062 
1.875081e+3, 2.4467094e+2, -584483.2, -760860.94, 39357.6, 0.07891589, -0.11501068, -576099.25, -33890.227, 0.0, 10.000504, 9.998201 
1.8750991e+3, 2.546698e+2, -380674.3, -589583.1, 55497.934, -0.029688258, -0.102910995, -366846.25, 77377.25, 0.0, 10.001173, 9.998359 
1.875118e+3, 2.6466808e+2, -243599.22, -465172.53, 13461.876, -0.03037721, -0.10551365, -242784.33, 103457.0, 0.00000004605578, 10.001363, 9.99848 
1.8751375e+3, 2.7466592e+2, -161853.53, -351171.16, 45042.49, 0.09418241, -0.22449684, -151683.36, 96578.1, 0.000008319171, 10.001169, 9.998671 
1.8751565e+3, 2.8466475e+2, -125941.125, -409786.9, 42097.66, 0.10902816, -0.14360492, -119829.16, 30443.234, 0.00010877433, 10.001272, 9.997547 
1.8751746e+3, 2.9466406e+2, 81841.92, -220427.6, 34687.016, 0.03506301, -0.035083562, 85771.36, 138050.86, 0.00047285456, 10.001893, 9.997853 
1.875192e+3, 3.0465975e+2, 118105.266, -264724.72, 36372.926, -0.20461492, -0.2068563, 121530.44, 121530.44, 0.0011966277, 10.002174, 9.99709 
1.8752131e+3, 3.1465933e+2, 209928.31, -15272.728, -81969.086, -0.14804803, -0.030796122, 236603.8, 236603.8, 0.0021936095, 10.001889, 9.998918 
1.8848646e+3, 1.246505e+2, -2060073.0, -1797696.8, -147019.23, 0.19984071, -0.06945004, -1731844.4, -13436.66, 0.15411249, 9.997121, 10.000802 
1.8848786e+3, 1.3464871e+2, -1844112.8, -1607819.0, 19974.195, -0.2524189, -0.39363292, -1606142.5, 14280.103, 0.10442951, 9.997875, 10.001061 
1.8849035e+3, 1.4465202e+2, -1615237.8, -1494936.3, 11757.933, 0.4882538, -0.15628055, -1493797.9, 28590.723, 0.057399224, 9.999006, 10.000608 
1.8849173e+3, 1.5465224e+2, -1520663.3, -1379642.1, -20313.924, 0.032597672, -0.24621297, -1376774.3, 47611.875, 0.023018045, 9.998949, 10.000727 
1.8849333e+3, 1.6465253e+2, -1555599.6, -1490826.8, -36608.863, -0.21672997, -0.22201231, -1474334.9, -147948.58, 0.005521801, 9.998591, 9.999493 
1.8849516e+3, 1.7465295e+2, -1456582.9, -1365156.1, -28623.445, -0.18403563, -0.18338035, -1356934.3, -128545.766, 0.0004532519, 9.9985075, 9.999708 
1.8849699e+3, 1.8465346e+2, -1299182.9, -1251550.5, -34539.44, -0.08313611, -0.091271035, -1233412.1, -103025.06, 0.0000010252129, 9.998955, 9.999609 
1.8849887e+3, 1.9465396e+2, -983355.75, -1022179.3, -45187.02, 0.06366952, -0.05830641, -953587.4, 78795.42, 0.0, 10.000367, 9.99981 
1.8850073e+3, 2.0465353e+2, -868126.4, -974338.2, 26461.984, 0.12705278, -0.053271577, -861898.75, 72488.25, 0.0, 10.000702, 9.999335 
1.8850258e+3, 2.1465184e+2, -860960.56, -899740.75, 2990.6614, 0.08247952, -0.2039736, -860731.3, -24328.621, 0.0, 10.000015, 9.999491 
1.8850446e+3, 2.2465122e+2, -737868.5, -746921.8, -19040.398, 0.08417158, -0.22499189, -722824.06, 15582.361, 0.0, 10.000002, 9.999875 
1.8850632e+3, 2.3465171e+2, -492020.0, -552645.7, -65930.195, 0.108026914, -0.21739385, -449767.97, 190629.53, 0.0, 10.000933, 10.000074 
1.885082e+3, 2.4465176e+2, -437651.0, -653659.3, -14818.723, 0.10262086, -0.13579328, -436639.13, 105756.9, 0.0, 10.0013685, 9.998509 
1.8851009e+3, 2.5465116e+2, -344687.44, -543789.06, -11658.368, 0.03735728, -0.09774447, -344007.13, 100397.38, 0.0, 10.001292, 9.998615 
1.88512e+3, 2.6464945e+2, -245867.78, -488718.97, -31272.531, 0.041652746, -0.103279464, -241905.39, 104517.04, 0.000000017635879, 10.001476, 9.998244 
1.885139e+3, 2.7464676e+2, -43377.64, -312365.75, -84190.875, 0.08526275, -0.2525475, -19199.848, 229249.11, 0.000007223604, 10.002104, 9.99846 
1.8851583e+3, 2.846456e+2, 26561.773, -342923.94, -43564.99, 0.11635786, -0.15508913, 31628.904, 182089.98, 0.00010058898, 10.002368, 9.997472 
1.885178e+3, 2.946454e+2, 141810.48, -207336.31, -51379.395, 0.17049177, 0.011606079, 149214.33, 201679.34, 0.00044370364, 10.002361, 9.997722 
1.8851946e+3, 3.0464163e+2, 192402.38, -184572.73, 34127.16, -0.14796709, -0.115870126, 195466.95, 195466.95, 0.0011208182, 10.002436, 9.997555 
1.8852156e+3, 3.146406e+2, 239470.44, -19381.354, -116540.22, -0.06654033, -0.04282709, 284207.34, 284207.34, 0.002039731, 10.002121, 9.99881 
1.8948637e+3, 1.24633364e+2, -1920788.1, -1610885.6, -52214.242, 0.2875747, -0.15908511, -1602324.8, 116250.44, 0.16258536, 9.997423, 10.002118 
1.8948771e+3, 1.3463598e+2, -1898474.1, -1725329.8, 101953.18, -0.22031593, 0.033909354, -1678151.4, -57605.57, 0.110513955, 9.9978895, 10.000253 
1.8948996e+3, 1.4463137e+2, -1675623.0, -1628549.4, 5870.53, 0.14057274, -0.43004322, -1627828.3, -105237.68, 0.06108175, 9.999059, 9.999649 
1.894916e+3, 1.5463349e+2, -1594467.0, -1533519.6, -11519.146, -0.04022019, -0.22339855, -1531415.1, -106842.09, 0.024752133, 9.998958, 9.99966 
1.8949327e+3, 1.6463508e+2, -1493701.0, -1396310.0, -62073.27, -0.17768288, -0.041183464, -1366111.0, -39550.316, 0.0060684755, 9.998729, 10.000077 
1.8949515e+3, 1.7463547e+2, -1409418.0, -1269896.4, -21895.994, -0.07756743, -0.07340758, -1266540.8, -37981.254, 0.0005270964, 9.998515, 10.00036 
1.8949698e+3, 1.846353e+2, -1293221.5, -1243355.9, -1091.2748, -0.06010548, -0.08543377, -1243332.0, -112770.22, 0.0000013718216, 9.998983, 9.999645 
1.894987e+3, 1.946346e+2, -1000466.25, -1032266.0, 17381.902, -0.17773062, -0.17414583, -992809.0, 39758.066, 0.0, 10.000265, 9.999784 
1.8950056e+3, 2.0463431e+2, -910229.94, -1029803.94, -12350.872, -0.1464873, -0.13857625, -908967.56, 25602.797, 0.0, 10.000551, 9.999036 
1.8950261e+3, 2.146344e+2, -910073.44, -955182.8, -7278.3945, 0.08993894, -0.08316313, -908928.1, -72355.79, 0.0, 9.999808, 9.999215 
1.8950458e+3, 2.2463368e+2, -836904.6, -880310.3, -3298.1204, 0.17906211, -0.064011246, -836655.44, -98075.36, 0.0, 9.999691, 9.999109 
1.8950641e+3, 2.3463202e+2, -585172.9, -684391.5, -11037.72, 0.0832585, -0.19702013, -583959.8, 56634.453, 0.0, 10.0006695, 9.999292 
1.8950827e+3, 2.446312e+2, -447573.44, -606934.1, -32926.53, 0.0023219597, -0.18564071, -441038.28, 101562.45, 0.0, 10.001062, 9.998987 
1.8951017e+3, 2.546312e+2, -344219.44, -483218.94, 1398.0687, -0.03707091, -0.14102465, -344205.38, 100394.164, 0.0, 10.001035, 9.999157 
1.8951212e+3, 2.6463005e+2, -349167.94, -635281.94, -26882.975, -0.01969392, -0.07732912, -346663.94, -51.30806, 0.0000000071100716, 10.001181, 9.997381 
1.8951409e+3, 2.7462772e+2, -151689.25, -459952.22, -41246.426, 0.036702044, -0.10280268, -146265.78, 102374.45, 0.0000064443307, 10.001782, 9.997596 
1.8951604e+3, 2.846263e+2, 5492.199, -302924.3, -65686.5, 0.061122857, -0.011600887, 18899.283, 169555.84, 0.0000894982, 10.001996, 9.99793 
1.8951805e+3, 2.946251e+2, 104927.69, -188196.16, -20456.434, 0.13996586, 0.0029385185, 106348.41, 159016.4, 0.00040238924, 10.001943, 9.998059 
1.8951963e+3, 3.0462274e+2, 192916.4, -59620.496, 9219.501, -0.25589642, -0.051024973, 193252.55, 193252.55, 0.0010279405, 10.001937, 9.998633 
1.895219e+3, 3.1462145e+2, 86997.125, -110101.39, -11074.002, -0.01539784, -0.12986177, 87617.37, 87617.37, 0.0018811835, 10.001238, 9.998573 
1.904861e+3, 1.2461259e+2, -1919000.5, -1546728.4, -59580.35, 0.30629626, -0.38736165, -1537425.4, 181352.83, 0.1713416, 9.997199, 10.002716 
1.904876e+3, 1.3461924e+2, -1806675.6, -1744101.4, 565.2976, -0.15074928, 0.23646483, -1744096.3, -123384.78, 0.11689223, 9.998867, 9.99961 
1.9048981e+3, 1.4461118e+2, -1691480.4, -1679567.8, -100509.11, 0.108532466, -0.50865, -1584838.6, -62047.406, 0.06499328, 9.99909, 9.999313 
1.9049153e+3, 1.5461417e+2, -1631662.9, -1552347.9, -81227.65, 0.016516143, -0.2141513, -1501613.8, -76848.89, 0.026617203, 9.99865, 9.999712 
1.9049324e+3, 1.6461629e+2, -1514878.1, -1388087.3, -42844.965, -0.065971896, 0.012831674, -1374966.9, -48220.91, 0.0066676727, 9.998519, 10.000237 
1.9049509e+3, 1.7461604e+2, -1270435.8, -1180002.0, -69788.64, -0.009728444, -0.09813699, -1142062.3, 86686.47, 0.0006122247, 9.999394, 10.000544 
1.9049694e+3, 1.8461552e+2, -1194956.5, -1190551.9, -34325.563, -0.0092176115, -0.15687804, -1158358.1, -27604.93, 0.0000017786746, 9.999644, 9.999696 
1.9049871e+3, 1.9461505e+2, -1103507.4, -1079492.8, -44364.688, -0.14222296, -0.21822435, -1045539.2, -12783.422, 0.0, 9.99955, 9.999822 
1.905006e+3, 2.0461504e+2, -1066465.0, -1114506.0, -65112.117, -0.09708058, -0.14820714, -1021083.94, -86326.6, 0.0, 9.999554, 9.998912 
1.9050264e+3, 2.1461533e+2, -896266.4, -962906.75, -86821.41, 0.14586227, -0.061818518, -836590.94, 169.00398, 0.0, 9.99999, 9.999056 
1.9050461e+3, 2.2461465e+2, -750720.2, -854267.6, 3686.5315, 0.22736375, -0.021888832, -750589.1, -11820.784, 0.0, 10.000324, 9.998995 
1.9050647e+3, 2.3461294e+2, -601743.5, -710306.1, 16788.033, 0.09501232, -0.14810878, -599206.7, 41576.273, 0.0, 10.000602, 9.999161 
1.905084e+3, 2.4461186e+2, -467702.13, -632971.5, 20106.344, 0.028443653, -0.15022738, -465291.2, 77500.71, 0.0, 10.001023, 9.998813 
1.9051036e+3, 2.5461113e+2, -242186.5, -449299.9, -32662.623, 0.030140547, -0.15969718, -237157.58, 207640.0, 0.0, 10.001817, 9.999002 
1.9051233e+3, 2.646098e+2, -216291.28, -576855.1, -30868.945, 0.03801589, -0.10386695, -213667.6, 133144.44, 0.000000016068412, 10.00209, 9.997353 
1.9051422e+3, 2.7460802e+2, -145652.7, -472373.6, -24642.848, 0.0047837473, -0.07122059, -143804.47, 105030.21, 0.000006020835, 10.001824, 9.997517 
1.9051619e+3, 2.8460652e+2, -24281.662, -287533.06, 9548.659, 0.03703921, 0.0016575357, -23935.768, 126915.76, 0.00007835106, 10.001648, 9.998211 
1.9051826e+3, 2.9460478e+2, 100977.29, -148947.06, -10033.163, 0.19796608, -0.06486385, 101379.42, 154246.83, 0.00035568743, 10.001746, 9.998416 
1.905199e+3, 3.0460364e+2, 263156.06, 24360.762, 49095.1, -0.17399889, -0.036477182, 272855.78, 272855.78, 0.00092660607, 10.002213, 9.999082 
1.9052228e+3, 3.1460133e+2, 337846.72, -10259.884, -86458.73, 0.19268544, -0.2506432, 358137.6, 358137.6, 0.001727788, 10.002967, 9.99847 
1.9148573e+3, 1.245911e+2, -1975892.1, -1654864.1, -71895.03, 0.12161394, -0.4869943, -1639498.5, 79489.63, 0.18042894, 9.997254, 10.001801 
1.9148755e+3, 1.3459781e+2, -1856582.4, -1853046.0, 57566.793, -0.13186458, 0.1667863, -1797220.3, -176294.19, 0.12358676, 9.998896, 9.998844 
1.9148986e+3, 1.4459103e+2, -1632230.4, -1602855.9, -141270.77, 0.17894898, -0.39698008, -1475510.9, 47483.332, 0.069141634, 9.999288, 9.999762 
1.9149145e+3, 1.5459418e+2, -1535732.9, -1359470.8, -88882.67, 0.042086627, -0.21121472, -1322433.0, 102529.14, 0.028615344, 9.99867, 10.001043 
1.9149315e+3, 1.6459627e+2, -1516576.8, -1418158.0, -33454.535, -0.05620098, -0.05171757, -1407863.0, -80922.13, 0.0073205116, 9.99863, 9.999975 
1.9149496e+3, 1.7459473e+2, -1304723.1, -1246072.9, -27197.25, -0.1225022, -0.2502766, -1235402.4, -6446.8516, 0.00070924795, 9.999374, 10.000094 
1.9149685e+3, 1.8459412e+2, -1189976.6, -1190788.6, -58422.46, -0.105230086, -0.28975445, -1131958.8, -997.79553, 0.0000023137907, 9.99968, 9.999683 
1.9149888e+3, 1.9459538e+2, -1114000.4, -1075788.9, -36937.34, 0.041832276, -0.18525763, -1053308.6, -20360.021, 0.0, 9.999437, 9.999903 
1.9150081e+3, 2.0459566e+2, -1096675.4, -1142704.8, -65850.63, 0.11173132, -0.086097665, -1049933.5, -114984.84, 0.0, 9.999394, 9.998797 
1.9150263e+3, 2.1459453e+2, -934286.56, -993358.5, -58594.246, 0.11148737, -0.13250618, -898205.06, -61238.836, 0.0, 9.999774, 9.998951 
1.9150452e+3, 2.2459412e+2, -758307.25, -795373.6, 551.2207, 0.07488313, -0.0897684, -758299.06, -19327.34, 0.0, 10.0, 9.9995575 
1.9150648e+3, 2.345946e+2, -602735.7, -642901.25, 42334.934, 0.016364545, -0.05169436, -575961.6, 65001.188, 0.0, 10.000318, 9.999757 
1.915085e+3, 2.4459365e+2, -575938.06, -781962.8, 33290.94, 0.010317206, -0.027622642, -570692.25, -27721.523, 0.0, 10.000692, 9.997952 
1.9151062e+3, 2.5459087e+2, -344685.7, -595698.3, 15804.205, 0.08065439, -0.15293895, -343694.53, 101304.58, 0.0, 10.001534, 9.998131 
1.9151255e+3, 2.6458892e+2, -217065.45, -502610.84, -57952.523, 0.031343933, -0.15075122, -205752.02, 141267.34, 0.000000038925435, 10.001757, 9.99803 
1.9151425e+3, 2.7458775e+2, -139535.63, -388068.28, -16432.086, -0.16825853, -0.12922394, -138453.9, 110577.34, 0.0000054500297, 10.001528, 9.998235 
1.915162e+3, 2.8458625e+2, -73426.71, -313205.53, -8163.2886, -0.15429565, -0.09055081, -73149.12, 77896.805, 0.00006657065, 10.001319, 9.998195 
1.9151843e+3, 2.945843e+2, 34912.105, -184725.88, 19820.193, 0.15748568, -0.18073165, 36686.355, 89751.195, 0.00030471265, 10.00132, 9.998375 
1.915202e+3, 3.0458447e+2, 172719.38, -54823.082, 49694.13, -0.13421391, -0.0027173075, 183098.84, 183098.84, 0.000814986, 10.001748, 9.998751 
1.9152242e+3, 3.1458205e+2, 214003.31, -43526.633, 46363.78, -0.020957617, -0.21748437, 222095.98, 222095.98, 0.0015623207, 10.002077, 9.99863 
1.9248566e+3, 1.2457294e+2, -1912383.3, -1648108.0, -36886.523, 0.31554577, -0.18000467, -1643056.1, 76113.25, 0.18987963, 9.997764, 10.001624 
1.9248763e+3, 1.3457619e+2, -1940445.0, -1859024.4, 52918.152, 0.11542808, 0.07036396, -1832969.0, -211827.66, 0.13060497, 9.998137, 9.9991865 
1.9248965e+3, 1.4457189e+2, -1846211.9, -1668412.8, -53027.684, 0.15204789, -0.26576936, -1653798.6, -130614.195, 0.07352615, 9.997687, 10.000048 
1.924914e+3, 1.5457451e+2, -1442562.8, -1247131.4, -83148.54, 0.107563786, -0.1924206, -1216542.6, 208613.34, 0.030745408, 9.999039, 10.00164 
1.9249317e+3, 1.6457608e+2, -1388614.5, -1381515.5, -30701.033, 0.059583023, -0.105983734, -1354159.4, -27020.3, 0.008026891, 9.999623, 9.99974 
1.9249493e+3, 1.7457494e+2, -1285230.8, -1269638.6, -44399.83, -0.08271459, -0.23766266, -1232355.6, -3205.4563, 0.0008187495, 9.999647, 9.999804 
1.9249684e+3, 1.845745e+2, -1209114.9, -1226062.3, -48004.41, -0.06789077, -0.23704837, -1168842.0, -37687.36, 0.0000031359323, 9.99963, 9.99947 
1.924989e+3, 1.9457525e+2, -1033014.94, -1055176.0, -72790.766, 0.106981084, -0.16848592, -970466.2, 62681.79, 0.0, 10.000038, 9.999753 
1.9250084e+3, 2.0457537e+2, -961152.25, -1061369.0, -65503.516, 0.18144023, -0.08947173, -928789.06, 6360.689, 0.0, 10.000254, 9.998946 
1.9250265e+3, 2.1457452e+2, -811212.56, -917042.8, -66310.31, 0.12137087, -0.12170193, -779292.2, 57871.605, 0.0, 10.0005455, 9.999107 
1.9250454e+3, 2.2457433e+2, -648889.94, -728040.5, 13178.454, 0.07754822, -0.06857022, -646753.44, 92412.94, 0.0, 10.000717, 9.999664 
1.9250654e+3, 2.3457482e+2, -515432.5, -587079.9, -16935.043, 0.026757812, -0.03790832, -511631.3, 129525.57, 0.0, 10.000869, 9.999872 
1.9250862e+3, 2.4457386e+2, -535279.44, -766002.3, 23922.271, 0.0483929, -0.021259837, -532825.2, 10339.616, 0.0, 10.000959, 9.997939 
1.9251078e+3, 2.5457123e+2, -411511.97, -641570.1, 37431.44, 0.12674515, -0.12631357, -405574.94, 39617.625, 0.0, 10.001098, 9.998045 
1.9251275e+3, 2.6456943e+2, -268103.28, -488956.63, 1920.001, 0.09083763, -0.120610036, -268086.6, 79124.46, 0.000000047147957, 10.001262, 9.998355 
1.9251445e+3, 2.7456823e+2, -115243.1, -338884.6, -27693.244, -0.12336687, -0.1328691, -111864.91, 137356.92, 0.0000044268, 10.001539, 9.998569 
1.9251637e+3, 2.8456667e+2, -34153.895, -291983.94, 1227.2256, -0.11772617, -0.11877706, -34148.055, 117088.01, 0.000054025306, 10.001598, 9.998192 
1.9251856e+3, 2.9456484e+2, 83231.48, -175246.14, -19237.668, 0.15886967, -0.18434167, 84655.43, 137908.11, 0.00025237876, 10.001688, 9.998265 
1.9252044e+3, 3.0456385e+2, 186257.38, -110945.12, 83753.62, -0.049387258, -0.09319273, 208234.55, 208234.55, 0.0006960178, 10.002095, 9.998207 
1.9252273e+3, 3.1456286e+2, 317962.4, 2718.5203, -6150.2305, 0.08590444, -0.09665354, 318082.38, 318082.38, 0.0013738545, 10.002708, 9.9986925 
1.9348538e+3, 1.2455277e+2, -1848664.6, -1567409.6, -76991.33, 0.17040406, -0.00058302016, -1547713.1, 171661.52, 0.1997211, 9.997896, 10.002275 
1.9348769e+3, 1.3455439e+2, -1837268.5, -1634461.9, 21075.838, 0.3303265, -0.057825092, -1632294.9, -10937.714, 0.13795441, 9.998097, 10.000745 
1.9348918e+3, 1.4455414e+2, -1815253.8, -1644453.4, -32856.17, -0.1626829, -0.08858729, -1638351.0, -114992.93, 0.07814733, 9.997845, 10.000143 
1.9349131e+3, 1.5455522e+2, -1451224.1, -1283402.9, -21578.723, 0.08455476, -0.14723629, -1280672.6, 144673.14, 0.033007, 9.999098, 10.001366 
1.9349322e+3, 1.6455558e+2, -1380133.8, -1393370.0, -46438.297, 0.08845932, -0.1550936, -1339844.4, -12502.214, 0.008786739, 9.99974, 9.999609 
1.9349499e+3, 1.7455657e+2, -1286933.6, -1279549.3, -34085.715, -0.023552803, -0.06430989, -1248956.4, -19622.598, 0.00094156526, 9.999665, 9.999735 
1.9349685e+3, 1.8455659e+2, -1222217.1, -1261829.6, -51405.508, -0.075570285, -0.0036022614, -1186934.3, -55599.688, 0.0000044945964, 9.999666, 9.9992075 
1.9349875e+3, 1.9455488e+2, -1074860.3, -1118443.6, -44727.973, -0.083047345, -0.1485891, -1046897.8, -13545.72, 0.0, 9.999931, 9.999374 
1.9350067e+3, 2.0455432e+2, -957012.9, -1014946.8, -72600.305, -0.061512955, -0.13506, -907814.06, 27545.186, 0.0, 10.000086, 9.999348 
1.9350265e+3, 2.145553e+2, -818708.06, -874452.4, -42114.285, 0.038800154, -0.024128329, -796078.06, 41274.297, 0.0, 10.0002985, 9.999519 
1.9350463e+3, 2.2455515e+2, -729300.0, -811785.8, 4035.9473, 0.056103326, 0.029683394, -729103.0, 10250.684, 0.0, 10.000361, 9.99926 
1.935066e+3, 2.3455355e+2, -582723.94, -666463.75, 5228.341, -0.022401437, -0.10847924, -582398.75, 58967.11, 0.0, 10.000611, 9.99945 
1.9350865e+3, 2.4455251e+2, -530919.25, -682217.06, 11044.328, -0.041370377, -0.11184927, -530117.3, 13257.084, 0.0, 10.000634, 9.998676 
1.9351083e+3, 2.545521e+2, -395397.5, -545204.6, 57236.45, 0.0348321, -0.07565504, -376032.53, 69346.58, 0.0, 10.000833, 9.998835 
1.9351287e+3, 2.6455107e+2, -331891.38, -532768.3, -7477.1387, 0.050743535, -0.021906266, -331613.47, 15776.15, 0.00000001782158, 10.000892, 9.998227 
1.9351473e+3, 2.7454928e+2, -178277.13, -379350.63, -773.7063, -0.01989753, -0.08087272, -178274.14, 71133.86, 0.0000033385966, 10.001179, 9.998449 
1.9351663e+3, 2.8454784e+2, -93143.016, -339569.25, -24270.877, -0.056194145, -0.044968717, -90775.29, 60645.957, 0.00004416703, 10.001264, 9.9980345 
1.9351861e+3, 2.9454646e+2, 29199.38, -204382.4, 4624.93, 0.0008089621, -0.059473723, 29290.918, 82722.42, 0.00021030588, 10.001345, 9.998226 
1.9352062e+3, 3.0454215e+2, 52618.39, -286692.5, 82265.22, -0.14245752, -0.25057742, 71511.445, 71511.445, 0.00059174973, 10.001661, 9.997209 
1.93523e+3, 3.1454188e+2, 170832.36, -72369.87, 96660.75, 0.019466123, -0.08518915, 204570.0, 204570.0, 0.0011892852, 10.001795, 9.99858 
1.9448495e+3, 1.2453039e+2, -1637970.3, -1573129.4, 5482.9565, -0.12642106, -0.07964906, -1572669.0, 146926.69, 0.20999403, 9.999981, 10.001222 
1.9448748e+3, 1.3453193e+2, -1772677.6, -1545559.6, -75310.555, 0.32657957, -0.18525456, -1522856.6, 98722.17, 0.14565058, 9.998211, 10.001425 
1.9448906e+3, 1.4453496e+2, -1737275.8, -1598930.5, -60937.055, -0.073235124, 0.05636979, -1575917.5, -52369.33, 0.083007626, 9.998312, 10.000254 
1.9449124e+3, 1.545351e+2, -1545454.5, -1359121.0, -94879.65, 0.13780515, -0.07398884, -1319313.4, 106233.07, 0.03539992, 9.998573, 10.0011 
1.9449314e+3, 1.6453472e+2, -1519112.6, -1447043.3, -84181.42, 0.115957156, -0.14633575, -1391508.1, -63957.895, 0.009600047, 9.998728, 9.999734 
1.9449502e+3, 1.7453612e+2, -1245158.1, -1239584.6, -82086.414, 0.031175135, -0.031801593, -1160237.6, 69299.82, 0.0010784023, 9.9998665, 9.999913 
1.944969e+3, 1.8453647e+2, -1148538.5, -1222026.4, -77327.586, -0.003386403, 0.04969475, -1099669.0, 31866.152, 0.0000066792873, 10.000175, 9.99923 
1.9449872e+3, 1.9453466e+2, -1099047.0, -1125526.9, -77039.5, -0.08648642, -0.105178535, -1034118.0, -563.68396, 0.0, 9.999784, 9.999386 
1.9450063e+3, 2.0453408e+2, -997825.6, -1010249.6, -50812.215, -0.08223565, -0.10074931, -952847.1, -17286.72, 0.0, 9.999711, 9.99956 
1.9450267e+3, 2.1453515e+2, -803458.0, -839440.06, -64893.96, 0.0388521, -0.0022186455, -754107.4, 83442.555, 0.0, 10.000293, 9.999761 
1.945047e+3, 2.2453469e+2, -726796.5, -857737.25, -5872.7505, 0.09293128, 0.02795398, -726533.7, 13019.548, 0.0, 10.000563, 9.998847 
1.945067e+3, 2.3453227e+2, -620783.5, -739465.4, -34490.895, 0.036096092, -0.14479761, -611487.94, 30086.629, 0.0, 10.000564, 9.9989805 
1.9450876e+3, 2.4453117e+2, -513815.06, -616365.7, -3787.1907, 0.02200026, -0.15334077, -513675.4, 29908.38, 0.0, 10.00053, 9.999174 
1.945109e+3, 2.5453147e+2, -388180.63, -485203.4, -13650.229, 0.03763877, -0.093354315, -386296.75, 59283.184, 0.0, 10.000646, 9.999334 
1.9451295e+3, 2.6453075e+2, -332048.47, -514228.7, -43984.332, 0.0617833, -0.044355247, -321985.1, 25601.713, 0.000000002142629, 10.000781, 9.998418 
1.945149e+3, 2.7452898e+2, -193683.55, -378438.66, -48949.934, 0.056077175, -0.115082674, -181515.86, 68089.13, 0.0000030022966, 10.000987, 9.998574 
1.9451685e+3, 2.845277e+2, -76110.55, -352658.66, -13073.811, 0.04315305, -0.06142448, -75493.86, 76123.34, 0.00003904193, 10.001463, 9.997854 
1.945188e+3, 2.9452667e+2, 172296.48, -153336.03, -38641.625, 0.0243606, -0.013020318, 176819.13, 230443.33, 0.00018459432, 10.002379, 9.998092 
1.9452088e+3, 3.0452114e+2, 148702.88, -260078.61, 76727.586, -0.069540456, -0.31253743, 162630.02, 162630.02, 0.0005147773, 10.002434, 9.996997 
1.9452319e+3, 3.145212e+2, 144637.39, -91482.42, 46048.68, 0.052334864, -0.073111236, 153300.1, 153300.1, 0.0010277403, 10.001589, 9.998564 
1.9548497e+3, 1.24509454e+2, -1747797.8, -1914534.5, 21348.809, -0.21814463, -0.078215554, -1745107.8, -25311.81, 0.22070916, 10.000366, 9.998465 
1.95487e+3, 1.3450903e+2, -1766288.5, -1567777.8, -84300.61, -0.01709797, -0.3100984, -1536809.4, 84995.44, 0.15369554, 9.998354, 10.001201 
1.9548926e+3, 1.4451437e+2, -1702459.3, -1570021.8, -51980.67, 0.22781093, 0.15738662, -1552056.6, -28301.516, 0.08810495, 9.998502, 10.000359 
1.954911e+3, 1.545141e+2, -1562402.8, -1403990.3, -78618.27, 0.11638943, 0.014018081, -1371597.0, 54161.492, 0.037922986, 9.998613, 10.000766 
1.9549292e+3, 1.6451351e+2, -1473136.3, -1384523.4, -70321.75, -0.048548583, -0.07971, -1345714.1, -17950.484, 0.010466628, 9.998863, 10.000101 
1.9549496e+3, 1.7451361e+2, -1214691.5, -1188151.9, -27575.383, -0.04775986, -0.13337724, -1170819.6, 58941.594, 0.0012294218, 9.999906, 10.000252 
1.9549693e+3, 1.8451402e+2, -1117292.9, -1171085.5, -103559.23, -0.027020771, -0.07731719, -1037194.25, 94563.08, 0.000009908067, 10.000239, 9.999546 
1.9549878e+3, 1.9451445e+2, -1091980.0, -1088193.4, -81648.84, -0.04117843, -0.035237513, -1008415.9, 25339.51, 0.0, 9.999689, 9.999686 
1.9550066e+3, 2.0451441e+2, -1026166.1, -1024039.2, -48636.008, -0.05366128, 0.0052395076, -976455.0, -40699.406, 0.0, 9.999514, 9.999561 
1.9550265e+3, 2.1451388e+2, -837047.75, -853142.7, -29304.781, -0.021644183, -0.056488443, -814705.56, 23052.143, 0.0, 10.000057, 9.999775 
1.955047e+3, 2.2451282e+2, -801268.94, -940382.5, -18737.578, 0.012025026, -0.07142253, -798789.3, -59023.223, 0.0, 10.000245, 9.998437 
1.955068e+3, 2.3451097e+2, -691753.4, -821232.06, -19660.22, 0.061128285, -0.14541283, -688834.0, -47050.61, 0.0, 10.000294, 9.998544 
1.9550887e+3, 2.4450983e+2, -559282.0, -626339.2, -13084.152, 0.047062013, -0.13966647, -556819.44, -13026.275, 0.0, 10.000168, 9.999278 
1.9551094e+3, 2.545094e+2, -416774.97, -477925.97, 9165.325, -0.013857165, -0.17357442, -415430.8, 30364.584, 0.0, 10.000369, 9.999509 
1.9551297e+3, 2.645087e+2, -349572.06, -475111.63, -54359.035, -0.050703425, -0.15673923, -329306.0, 18494.625, 0.00000003752054, 10.000449, 9.998851 
1.9551493e+3, 2.745075e+2, -201898.8, -332094.3, -22851.316, -0.042967994, -0.21609862, -198004.53, 51806.79, 0.0000033251551, 10.000722, 9.999017 
1.9551697e+3, 2.8450647e+2, -164703.48, -439366.44, -107.1432, -0.020540627, -0.1359783, -164703.44, -12882.289, 0.000036409245, 10.001051, 9.997455 
1.955191e+3, 2.945059e+2, 89367.375, -220719.23, 23195.805, 0.045190036, -0.008062692, 91092.914, 144920.23, 0.00016708692, 10.001948, 9.997827 
1.9552116e+3, 3.045011e+2, 100930.94, -254698.56, 17322.344, -0.072455846, -0.24338824, 101772.695, 101772.695, 0.00045041234, 10.001964, 9.997273 
1.9552334e+3, 3.145004e+2, 66879.27, -89516.36, 44274.035, -0.015186781, -0.10739558, 78542.95, 78542.95, 0.00087258307, 10.000938, 9.998867 
1.964851e+3, 1.2449023e+2, -2035775.1, -2141169.5, 39972.773, -0.022330895, 0.037924055, -2022329.9, -302347.44, 0.23177752, 9.9988575, 9.997579 
1.9648685e+3, 1.344876e+2, -1647130.1, -1499043.0, -13652.073, -0.04070383, -0.40957254, -1497794.9, 124219.06, 0.1620495, 9.999163, 10.001299 
1.9648924e+3, 1.4449425e+2, -1647126.5, -1560787.5, 65245.348, 0.35679236, 0.18743932, -1525723.0, -1770.7451, 0.093428105, 9.998984, 10.000161 
1.96491e+3, 1.5449362e+2, -1494636.6, -1397534.3, -4135.996, 0.1355672, 0.032361176, -1397358.5, 28601.678, 0.04057487, 9.999211, 10.000489 
1.9649282e+3, 1.644929e+2, -1426674.0, -1326065.1, 46842.996, -0.021860704, -0.0809278, -1307632.4, 20334.502, 0.011385711, 9.999035, 10.000416 
1.9649489e+3, 1.7449321e+2, -1372082.3, -1223467.9, 60672.375, -0.030385006, -0.14645219, -1201844.4, 28117.059, 0.0013940044, 9.998665, 10.0006 
1.9649692e+3, 1.8449397e+2, -1324224.1, -1251462.8, 3967.5261, 0.0058812024, -0.08335001, -1251247.1, -119293.59, 0.000014255441, 9.998734, 9.999722 
1.9649881e+3, 1.9449481e+2, -1073072.5, -1062634.5, -15064.412, 0.03937034, -0.01820311, -1051910.6, -17963.291, 0.0, 9.9997425, 9.99984 
1.9650073e+3, 2.0449458e+2, -925060.1, -1032416.8, 31231.713, 0.04288227, 0.017851254, -916635.5, 19314.195, 0.0, 10.000437, 9.999059 
1.9650272e+3, 2.144931e+2, -764895.06, -884041.9, -18378.943, 0.0029855722, -0.08410013, -762124.5, 75837.21, 0.0, 10.000801, 9.999214 
1.9650479e+3, 2.2449172e+2, -706754.6, -883987.7, -2616.7944, 0.047578234, -0.10607602, -706716.0, 33257.336, 0.0, 10.000853, 9.998535 
1.9650693e+3, 2.3449023e+2, -615449.2, -774691.9, -1859.3326, 0.14817128, -0.15111265, -615427.5, 26558.756, 0.0, 10.000758, 9.99865 
1.96509e+3, 2.4448906e+2, -500091.6, -610379.0, 48057.79, 0.15060127, -0.15056726, -482089.03, 61906.87, 0.0, 10.000583, 9.999214 
1.9651097e+3, 2.5448838e+2, -442123.47, -504637.47, 19046.379, 0.013445974, -0.19708292, -436777.66, 9222.616, 0.0, 10.000232, 9.999415 
1.9651298e+3, 2.6448768e+2, -354617.53, -455962.47, -7867.588, -0.04119421, -0.18141975, -354010.38, -6005.543, 0.00000006167767, 10.000347, 9.999023 
1.9651502e+3, 2.7448657e+2, -134350.55, -281159.16, -43610.12, -0.021954056, -0.24217498, -122373.16, 127639.84, 0.000003603985, 10.001129, 9.999158 
1.9651711e+3, 2.8448516e+2, -99954.11, -426110.94, 14430.241, 0.012738939, -0.20076358, -99316.91, 52710.125, 0.00003430298, 10.001572, 9.997298 
1.9651929e+3, 2.9448393e+2, 35699.84, -278318.97, 4371.6377, 0.055935416, -0.1106394, 35760.688, 89802.95, 0.00015136057, 10.001705, 9.997565 
1.9652136e+3, 3.044807e+2, 114115.8, -229523.52, 2851.5544, -0.040306307, -0.17637165, 114139.46, 114139.46, 0.00039140973, 10.001948, 9.997473 
1.9652352e+3, 3.144796e+2, 242021.42, 28313.04, -131021.45, 0.04270749, -0.09501475, 304236.56, 304236.56, 0.00072701665, 10.001938, 9.999234 
1.9748501e+3, 1.2447123e+2, -1903682.8, -1951638.8, -166439.08, -0.11367217, 0.09882569, -1759503.4, -39333.195, 0.24301729, 9.999205, 9.998717 
1.9748698e+3, 1.344676e+2, -1597770.5, -1445256.5, -4463.5127, 0.14015856, -0.48436743, -1445126.0, 177080.08, 0.17062773, 9.999331, 10.001685 
1.9748893e+3, 1.4447442e+2, -1649201.1, -1599593.6, 46008.926, 0.08332518, 0.12286775, -1572128.4, -47987.746, 0.09895461, 9.999124, 9.999834 
1.9749089e+3, 1.5447368e+2, -1503176.3, -1423984.5, 16420.125, 0.05046795, -0.016229505, -1420714.9, 5435.9927, 0.04335473, 9.999254, 10.000284 
1.9749284e+3, 1.6447286e+2, -1378120.0, -1258738.6, 16831.719, 0.030103974, -0.14650823, -1256410.9, 71749.03, 0.012356995, 9.999182, 10.000812 
1.9749478e+3, 1.7447494e+2, -1344971.1, -1168034.1, 56703.785, -0.04821378, -0.06933168, -1151421.8, 78716.414, 0.0015709848, 9.998674, 10.000977 
1.9749676e+3, 1.8447624e+2, -1316915.4, -1249428.0, 20257.174, -0.073531166, 0.030625712, -1243814.4, -111689.67, 0.000019593592, 9.998778, 9.999723 
1.9749878e+3, 1.9447558e+2, -1082992.6, -1063753.9, 35791.066, 0.005178017, -0.05584801, -1036312.06, -2180.3213, 0.0, 9.999659, 9.999874 
1.9750081e+3, 2.044744e+2, -1025601.3, -1194471.6, 33914.41, 0.026398456, -0.06782932, -1019044.8, -82900.664, 0.0, 10.000238, 9.998041 
1.9750279e+3, 2.144729e+2, -876121.25, -1058128.1, 8133.478, -0.01855413, -0.067519836, -875758.5, -37597.84, 0.0, 10.000556, 9.998136 
1.9750486e+3, 2.2447154e+2, -728315.1, -849447.8, -21216.291, 0.014530922, -0.050002467, -724706.56, 15466.508, 0.0, 10.000503, 9.998944 
1.9750704e+3, 2.3447001e+2, -610397.25, -714632.44, 14076.261, 0.16820596, -0.15420786, -608529.8, 33653.906, 0.0, 10.000536, 9.999169 
1.9750911e+3, 2.444689e+2, -568420.75, -682221.75, 17264.258, 0.16309512, -0.1608409, -565859.3, -21667.75, 0.0, 10.000275, 9.998871 
1.9751099e+3, 2.544684e+2, -495380.72, -568911.2, 20030.023, -0.022730486, -0.15165079, -490278.5, -44083.81, 0.0, 10.000029, 9.999071 
1.97513e+3, 2.644676e+2, -426160.47, -526563.7, 132.60167, -0.1039336, -0.116468094, -426160.28, -77959.82, 0.000000055759365, 10.0000105, 9.998698 
1.9751514e+3, 2.744662e+2, -195750.8, -334984.13, 4974.209, -0.034478012, -0.1895468, -195573.31, 54637.34, 0.0000036492006, 10.000818, 9.998928 
1.9751725e+3, 2.8446385e+2, -163394.72, -478194.9, -2442.322, -0.045363106, -0.22093502, -163375.78, -11142.328, 0.00003270768, 10.001217, 9.997119 
1.9751932e+3, 2.9446065e+2, -15987.641, -324503.66, 39666.61, -0.122114845, -0.31890303, -10969.244, 43300.418, 0.00013942833, 10.001438, 9.997377 
1.9752142e+3, 3.0446002e+2, -1608.3545, -333844.13, -17185.607, -0.22549158, -0.0920682, -721.75806, -721.75806, 0.00034788318, 10.001399, 9.997005 
1.9752389e+3, 3.144589e+2, 164654.92, 73968.14, -91946.65, 0.15710573, 0.005979164, 221830.84, 221830.84, 0.0006200004, 10.001115, 9.999912 
1.9848497e+3, 1.24451175e+2, -2019443.4, -1786665.8, -10495.73, 0.033633593, -0.10102892, -1786193.5, -65826.29, 0.25424254, 9.997443, 10.000727 
1.9848697e+3, 1.3444883e+2, -1612000.3, -1552236.8, 5884.275, 0.2034419, -0.45271882, -1551662.9, 70725.23, 0.17932345, 9.999702, 10.000651 
1.9848879e+3, 1.444537e+2, -1626049.8, -1602563.3, 7073.5137, 0.032433968, 0.023219137, -1600597.5, -76256.945, 0.104643695, 9.999354, 9.99971 
1.9849081e+3, 1.5445326e+2, -1501195.5, -1422526.3, -20981.117, 0.07573608, -0.08461118, -1417280.4, 9067.768, 0.046255346, 9.999268, 10.0003 
1.984928e+3, 1.6445282e+2, -1387322.0, -1287490.3, -10151.58, 0.09306908, -0.16914096, -1286468.4, 41885.953, 0.013380272, 9.999232, 10.000581 
1.9849469e+3, 1.744552e+2, -1261560.3, -1156725.8, -47584.008, -0.027934415, -0.038310163, -1138348.9, 91982.625, 0.0017591557, 9.999374, 10.000714 
1.9849668e+3, 1.844564e+2, -1200133.5, -1217821.5, -46744.957, -0.051564902, 0.073878095, -1161403.3, -29083.049, 0.0000256483, 9.999675, 9.999506 
1.9849882e+3, 1.9445501e+2, -963745.1, -1031345.75, -73989.29, 0.037809283, -0.06470929, -916201.25, 118132.71, 0.0, 10.000553, 9.999671 
1.9850092e+3, 2.0445366e+2, -932411.9, -1128626.8, -44273.094, 0.094227314, -0.09220222, -922884.9, 13463.117, 0.0, 10.0007925, 9.998228 
1.9850293e+3, 2.1445277e+2, -861441.1, -1027555.3, -10179.794, 0.074086204, -0.0477157, -860819.56, -22461.516, 0.0, 10.000567, 9.998338 
1.9850498e+3, 2.2445159e+2, -733406.75, -877002.75, 20495.1, 0.09297927, -0.013150383, -730538.8, 9830.132, 0.0, 10.000571, 9.998719 
1.9850709e+3, 2.3444976e+2, -586710.44, -734105.5, -31535.732, 0.15105604, -0.1200798, -580246.7, 62136.688, 0.0, 10.0008335, 9.998888 
1.9850914e+3, 2.4444836e+2, -500323.6, -674067.7, -37507.387, 0.15795869, -0.12489072, -492572.4, 51821.86, 0.0, 10.000899, 9.998598 
1.9851111e+3, 2.5444746e+2, -389593.78, -551616.25, -66157.125, 0.060401, -0.12871057, -366012.56, 80389.1, 0.0, 10.000924, 9.998746 
1.9851315e+3, 2.6444614e+2, -314575.63, -501336.03, -35966.49, 0.012972687, -0.11093404, -307888.6, 40523.785, 0.00000004684117, 10.0009, 9.998439 
1.9851527e+3, 2.7444437e+2, -212286.22, -375335.7, -72447.586, 0.009495801, -0.18659799, -184747.05, 65679.586, 0.000003631824, 10.000848, 9.998631 
1.985174e+3, 2.8444234e+2, -150577.81, -400757.34, -23028.145, 0.0030854794, -0.20399621, -148475.81, 3970.4558, 0.000030883682, 10.001023, 9.99773 
1.9851954e+3, 2.9443964e+2, 19189.613, -240622.4, 16899.512, -0.019182513, -0.30338022, 20284.234, 74759.03, 0.00012822116, 10.001432, 9.997937 
1.9852161e+3, 3.0443886e+2, 89532.79, -269855.03, 51082.742, -0.15940565, -0.13037725, 96652.55, 96652.55, 0.0003141248, 10.001894, 9.997215 
1.9852407e+3, 3.1443784e+2, 333278.8, 148726.3, -81068.445, 0.19869958, -0.03334769, 363831.72, 363831.72, 0.00054966006, 10.002228, 9.999909 
1.9948487e+3, 1.2443506e+2, -1804197.8, -1488515.1, 38187.23, 0.08446776, -0.042768814, -1483961.4, 236562.97, 0.26535824, 9.997713, 10.003225 
1.9948673e+3, 1.3443111e+2, -1768119.4, -1884636.4, 45887.24, -0.045984272, -0.31960008, -1752218.0, -129656.76, 0.18805622, 9.999772, 9.998235 
1.9948879e+3, 1.4443198e+2, -1591357.5, -1573651.5, -36028.543, 0.039193727, -0.12398264, -1545404.3, -20851.074, 0.11045076, 9.99954, 9.999821 
1.9949079e+3, 1.5443218e+2, -1480654.8, -1384968.5, -12530.354, 0.08175866, -0.18597071, -1383354.8, 43198.832, 0.04926506, 9.999295, 10.000554 
1.9949268e+3, 1.6443256e+2, -1427741.4, -1395386.6, -19141.432, -0.004138705, -0.16369076, -1386502.0, -57949.45, 0.014456319, 9.999336, 9.999786 
1.9949459e+3, 1.7443387e+2, -1319990.0, -1276741.4, -35430.25, -0.099214815, -0.05402584, -1256857.6, -26315.13, 0.0019582892, 9.999377, 9.999884 
1.9949666e+3, 1.8443424e+2, -1225224.9, -1278743.3, -32231.035, -0.08998474, 0.04027186, -1210092.6, -77551.16, 0.000032105352, 9.999714, 9.999068 
1.9949888e+3, 1.9443308e+2, -1007152.7, -1094539.1, -31406.31, 0.012478246, -0.036986873, -997036.5, 37518.26, 0.0, 10.000448, 9.999282 
1.9950101e+3, 2.0443247e+2, -866281.1, -953894.06, -70560.945, 0.0810086, -0.029406415, -827034.25, 109525.59, 0.0, 10.000623, 9.999511 
1.995031e+3, 2.1443258e+2, -791807.56, -838376.9, -5811.3877, 0.14495277, -0.026803318, -791093.3, 47461.918, 0.0, 10.000372, 9.999729 
1.9950509e+3, 2.2443171e+2, -841259.2, -1029006.75, 16195.6, 0.10870402, 0.005158783, -839872.4, -99310.2, 0.0, 10.000258, 9.997827 
1.9950701e+3, 2.344295e+2, -692298.94, -900220.2, -3463.8904, -0.035866164, -0.0408167, -692241.25, -49656.535, 0.0, 10.000599, 9.997862 
1.9950905e+3, 2.4442737e+2, -579792.6, -757285.3, -51596.855, -0.048404563, -0.048416536, -565883.5, -21278.684, 0.0, 10.000542, 9.998202 
1.9951129e+3, 2.5442535e+2, -445242.94, -613890.8, -46523.758, 0.13477066, -0.13020103, -433260.16, 13361.72, 0.0, 10.000691, 9.99843 
1.995134e+3, 2.6442322e+2, -395693.94, -589604.5, -52355.445, 0.14372589, -0.15745807, -382461.1, -33820.113, 0.000000042002604, 10.000562, 9.997993 
1.9951533e+3, 2.7442113e+2, -283718.66, -455378.2, -54350.266, -0.041393146, -0.23108321, -267957.56, -17296.402, 0.0000035134383, 10.000569, 9.998209 
1.9951747e+3, 2.8442016e+2, -137932.22, -290507.03, -30098.84, -0.06071748, -0.15748693, -132209.2, 20459.186, 0.00002820436, 10.000658, 9.998664 
1.995199e+3, 2.944203e+2, 40582.934, -113113.33, 52942.45, 0.1554731, -0.09583629, 57054.35, 111718.33, 0.00011358975, 10.001064, 9.99899 
1.9952193e+3, 3.0441698e+2, 37673.984, -216595.6, 39573.855, -0.088256344, -0.2627798, 43690.78, 43690.78, 0.00027761882, 10.001243, 9.997877 
1.9952393e+3, 3.1441644e+2, 137273.13, -61652.39, 36614.438, -0.24550705, -0.19840905, 143798.38, 143798.38, 0.0004902181, 10.001442, 9.998811 
2.0048468e+3, 1.244158e+2, -1705572.0, -1364981.6, -76890.625, 0.12733723, 0.022936523, -1348427.6, 372288.06, 0.27641812, 9.997903, 10.004305 
2.0048675e+3, 1.3441275e+2, -1913749.4, -1943983.0, 6073.7285, 0.055045683, -0.19311225, -1912574.8, -289832.0, 0.1968332, 9.998729, 9.998315 
2.0048863e+3, 1.4441256e+2, -1728670.0, -1663745.6, 20906.568, -0.036000233, -0.10189193, -1657596.0, -132851.38, 0.11636926, 9.998698, 9.999603 
2.0049074e+3, 1.5441243e+2, -1455311.0, -1409860.9, -4530.0674, 0.101701945, -0.1712714, -1409413.8, 17334.441, 0.05238356, 9.999604, 10.000233 
2.0049268e+3, 1.6441247e+2, -1361154.3, -1428780.4, 2449.3467, 0.03851924, -0.13803755, -1361065.6, -32315.455, 0.015589432, 10.000039, 9.999232 
2.0049456e+3, 1.7441282e+2, -1221118.1, -1294667.3, -20481.582, -0.0993594, -0.076416634, -1215799.1, 14950.301, 0.0021699998, 10.000288, 9.999342 
2.0049666e+3, 1.8441258e+2, -1172660.9, -1258413.6, 44493.625, -0.070227936, -0.010668227, -1153746.8, -20992.934, 0.00003871999, 10.000126, 9.998999 
2.0049892e+3, 1.9441172e+2, -1063453.5, -1131507.0, 39394.156, 0.04633962, -0.04826307, -1045425.3, -10661.682, 0.0, 10.000127, 9.999183 
2.0050108e+3, 2.0441136e+2, -902989.75, -962430.8, -11075.029, 0.12197372, -0.01640814, -900993.3, 35773.45, 0.0, 10.000352, 9.999581 
2.0050316e+3, 2.1441144e+2, -682945.06, -779546.25, -73132.234, 0.15410079, -0.018628694, -643602.8, 195159.94, 0.0, 10.001098, 9.999791 
2.0050518e+3, 2.2441053e+2, -676241.8, -931504.4, -53288.273, 0.13662848, 0.0040472876, -665564.06, 75205.91, 0.0, 10.00134, 9.997966 
2.0050713e+3, 2.3440836e+2, -607040.56, -838252.94, -27525.639, 0.012229141, -0.04776436, -603808.8, 38982.4, 0.0, 10.001136, 9.998014 
2.005092e+3, 2.444063e+2, -500083.9, -762576.7, 6714.2905, 0.020580959, -0.041351058, -499912.28, 44899.273, 0.0, 10.001244, 9.997841 
2.0051144e+3, 2.5440422e+2, -332337.84, -603398.8, -25676.871, 0.17648768, -0.08857192, -329926.97, 116904.77, 0.0, 10.001646, 9.998041 
2.0051354e+3, 2.644021e+2, -247384.67, -520607.97, -8027.4497, 0.18701918, -0.09707901, -247149.03, 101703.03, 0.000000029896977, 10.001567, 9.997992 
2.0051545e+3, 2.7439967e+2, -221967.84, -434037.8, -9840.517, 0.003737696, -0.19925193, -221512.2, 29362.781, 0.0000031274246, 10.000983, 9.998179 
2.0051761e+3, 2.843988e+2, -100128.4, -266234.44, 65085.785, 0.020560157, -0.12032363, -77663.82, 75217.125, 0.000025154262, 10.000878, 9.998732 
2.0052008e+3, 2.943995e+2, 79694.055, -94333.14, 15905.894, 0.2387399, 0.0051995353, 81135.89, 136006.2, 0.00009776422, 10.001328, 9.998993 
2.0052212e+3, 3.0439565e+2, 102548.96, -113766.35, -14389.899, 0.020532766, -0.24748115, 103502.02, 103502.02, 0.00024035286, 10.00135, 9.998554 
2.0052414e+3, 3.1439492e+2, -18334.514, -224635.28, -65334.973, -0.1223432, -0.24913633, 616.12646, 616.12646, 0.000433908, 10.000697, 9.998091 
2.014843e+3, 1.2439116e+2, -1749492.6, -1447433.6, -125378.43, -0.14899237, -0.1835534, -1402173.4, 318790.06, 0.28771394, 9.998052, 10.00351 
2.01487e+3, 1.3439374e+2, -1737676.5, -1606324.0, 14479.482, 0.41202474, -0.086181596, -1604746.8, 18186.102, 0.20582092, 9.998812, 10.000633 
2.014882e+3, 1.4439528e+2, -1745254.0, -1735224.3, 22088.016, -0.39072758, 0.08435866, -1717588.9, -192672.31, 0.12247417, 9.998851, 9.999043 
2.0149063e+3, 1.5439399e+2, -1505582.8, -1512868.0, 36642.152, -0.011919398, -0.028695332, -1472402.6, -45470.35, 0.055639356, 9.999607, 9.9995165 
2.0149274e+3, 1.6439277e+2, -1358655.5, -1447695.9, -3884.8682, 0.042579904, -0.07570089, -1358486.3, -29540.684, 0.016791714, 10.000143, 9.999057 
2.0149457e+3, 1.7439215e+2, -1234337.4, -1315062.3, -1148.998, -0.14280963, -0.09024971, -1234321.0, -3369.886, 0.0023981123, 10.000267, 9.999211 
2.0149663e+3, 1.843916e+2, -1147630.0, -1226764.1, 20893.498, -0.16120629, -0.062136456, -1142452.4, -9496.617, 0.000045425786, 10.000198, 9.999189 
2.0149893e+3, 1.9439092e+2, -1063034.9, -1113131.1, 47437.258, -0.0015582533, -0.095694445, -1034438.8, 522.5157, 0.0, 10.000049, 9.999348 
2.0150109e+3, 2.0439029e+2, -1009837.2, -1145428.1, -400.7139, 0.041317787, -0.046872556, -1009836.0, -72867.42, 0.0, 10.000178, 9.998411 
2.015031e+3, 2.1438938e+2, -809073.8, -984811.25, -30910.135, -0.025482673, -0.019245591, -803795.6, 35184.74, 0.0, 10.000854, 9.9985 
2.0150521e+3, 2.2438805e+2, -657674.56, -818337.2, -72911.93, -0.00088013755, -0.015732095, -629519.6, 111473.17, 0.0, 10.001006, 9.998909 
2.0150742e+3, 2.3438616e+2, -556460.9, -690577.75, -19729.795, 0.16353004, -0.15143593, -553618.7, 89386.86, 0.0, 10.000934, 9.999132 
2.0150952e+3, 2.4438475e+2, -579438.8, -845109.4, 8419.323, 0.18483314, -0.12009986, -579172.25, -34153.69, 0.0, 10.000899, 9.997437 
2.015115e+3, 2.5438383e+2, -406213.9, -693823.1, 4005.9666, 0.048531618, -0.0031140558, -406158.13, 40875.23, 0.0, 10.001382, 9.997547 
2.015135e+3, 2.6438227e+2, -271851.38, -489785.56, -44167.64, -0.038080044, 0.05442136, -263240.38, 85809.74, 0.0000000091701935, 10.00122, 9.998371 
2.0151556e+3, 2.7437988e+2, -229822.66, -382327.06, -11425.681, -0.01013401, -0.08864795, -228971.39, 22098.094, 0.0000023642951, 10.000703, 9.998665 
2.0151773e+3, 2.8437835e+2, -231728.19, -445561.3, 57969.016, 0.025683109, -0.05904798, -217024.2, -63941.44, 0.000021595964, 10.000485, 9.9976845 
2.0152007e+3, 2.9437724e+2, -43709.71, -288552.97, 57326.38, 0.061349344, -0.005424672, -30952.314, 24142.3, 0.000083873885, 10.0010395, 9.997807 
2.0152219e+3, 3.0437434e+2, 42321.727, -107052.67, -60894.11, -0.092813335, -0.11290498, 63999.824, 63999.824, 0.00020823602, 10.000822, 9.998832 
2.015244e+3, 3.1437537e+2, -169687.23, -295160.9, 21626.89, 0.033583127, 0.003673228, -166064.2, -166064.2, 0.00038362973, 9.999742, 9.998021 
2.0248409e+3, 1.2436976e+2, -1768773.6, -1590373.5, 3883.8264, -0.1801006, -0.10439136, -1590289.0, 130886.12, 0.29983783, 9.998639, 10.001829 
2.0248681e+3, 1.3437232e+2, -1807717.6, -1583755.9, -77691.34, 0.38750133, -0.08439202, -1559444.1, 63702.277, 0.21537028, 9.998082, 10.001195 
2.024882e+3, 1.4437497e+2, -1666061.3, -1712667.1, -87546.984, -0.28810775, 0.16954093, -1598768.9, -73649.07, 0.12892798, 9.9994545, 9.998907 
2.0249055e+3, 1.5437336e+2, -1544045.8, -1557994.6, -82967.26, -0.01945472, 0.05027471, -1467760.3, -40622.43, 0.05909158, 9.99947, 9.999267 
2.024927e+3, 1.6437165e+2, -1507998.6, -1506605.3, -73251.5, 0.052462734, -0.033865392, -1434047.1, -104892.2, 0.018083457, 9.999104, 9.99913 
2.0249465e+3, 1.7437081e+2, -1325771.5, -1344958.5, -77787.61, -0.05350452, -0.08314723, -1256988.0, -25826.852, 0.0026487417, 9.999625, 9.999293 
2.0249672e+3, 1.8437023e+2, -1186911.9, -1226268.1, -31231.729, -0.056562867, -0.06914439, -1169676.0, -36511.81, 0.000052423693, 9.999836, 9.999362 
2.0249891e+3, 1.9436951e+2, -1063383.5, -1101726.3, -33440.9, 0.0035127604, -0.12550646, -1044008.3, -8839.972, 0.0, 9.999972, 9.999465 
2.0250106e+3, 2.0436859e+2, -1041576.8, -1209816.0, -5017.211, 0.022750694, -0.08988182, -1041427.4, -104249.24, 0.0, 10.000177, 9.997959 
2.0250316e+3, 2.1436727e+2, -862962.25, -1069030.9, -9590.665, -0.03627259, -0.055947386, -862516.9, -23320.246, 0.0, 10.000728, 9.997974 
2.0250534e+3, 2.2436577e+2, -653646.0, -813726.0, -43895.28, 0.032884125, -0.04310499, -642399.6, 98812.195, 0.0, 10.001018, 9.99893 
2.025076e+3, 2.3436415e+2, -525662.4, -668476.0, -95947.555, 0.24231465, -0.15667814, -477466.25, 165755.61, 0.0, 10.001115, 9.999188 
2.0250969e+3, 2.4436305e+2, -540513.94, -779603.4, -52755.934, 0.2743723, -0.11712528, -529390.6, 15840.715, 0.0, 10.000981, 9.997834 
2.0251158e+3, 2.5436234e+2, -479343.56, -688520.94, -21476.049, 0.04569581, -0.01562953, -477161.4, -29918.541, 0.0, 10.000708, 9.997906 
2.025136e+3, 2.6436096e+2, -316181.3, -511121.84, -16793.336, -0.03802141, 0.039758373, -314745.22, 34512.563, 0.000000001074916, 10.000924, 9.998364 
2.0251572e+3, 2.7435884e+2, -83840.0, -312741.84, -62011.125, 0.04656062, -0.07088365, -68120.29, 183155.61, 0.0000018159459, 10.001736, 9.998632 
2.025179e+3, 2.843572e+2, -37436.824, -388165.88, 37710.316, 0.074173, -0.03287879, -33428.035, 119863.42, 0.000018189116, 10.001946, 9.997382 
2.0252009e+3, 2.9435563e+2, -25542.602, -299858.88, 53178.93, -0.015954882, 0.008727012, -15594.135, 39715.145, 0.000072171526, 10.001262, 9.997609 
2.025224e+3, 3.0435285e+2, 149256.19, -111745.04, 12293.037, 0.004861999, -0.064695016, 149833.9, 149833.9, 0.00017993047, 10.001725, 9.998404 
2.0252463e+3, 3.143533e+2, 347479.7, -6625.186, -86546.61, 0.13851151, 0.060505666, 367500.53, 367500.53, 0.00033599298, 10.003034, 9.998453 
2.0348422e+3, 1.2435016e+2, -1943988.0, -1971036.3, 184872.38, -0.009409472, 0.08839347, -1772145.8, -50780.746, 0.3135409, 9.998896, 9.998742 
2.0348608e+3, 1.3434827e+2, -1864042.5, -1722919.5, -28341.021, -0.1938825, -0.19862333, -1717440.6, -94054.72, 0.22593072, 9.998222, 10.000071 
2.0348856e+3, 1.4435135e+2, -1603361.8, -1645868.6, -76049.93, 0.06655345, 0.14195585, -1545651.3, -20294.148, 0.13594478, 9.999722, 9.999237 
2.0349051e+3, 1.543505e+2, -1513761.3, -1512232.9, -84510.16, -0.051944483, 0.062325045, -1428483.4, -1117.5859, 0.06282382, 9.999543, 9.999539 
2.0349249e+3, 1.6434903e+2, -1475434.1, -1463571.9, -86037.57, -0.11575484, -0.02634424, -1383261.3, -53881.74, 0.019494196, 9.999208, 9.999373 
2.0349474e+3, 1.7434865e+2, -1297007.4, -1293457.1, -45728.38, 0.033201877, -0.056632016, -1249469.5, -18088.871, 0.0029308582, 9.999656, 9.999629 
2.0349687e+3, 1.8434843e+2, -1171438.3, -1202789.4, -38735.81, 0.066081576, -0.037653778, -1145326.4, -11946.944, 0.00006041413, 9.999873, 9.999508 
2.0349887e+3, 1.9434749e+2, -1069758.3, -1090236.8, -17813.484, -0.06716299, -0.1260079, -1059450.9, -24066.543, 0.0, 9.999871, 9.999593 
2.0350097e+3, 2.043463e+2, -1053049.1, -1188607.6, -3244.4497, -0.11786082, -0.13438338, -1052971.5, -115576.2, 0.0, 9.999991, 9.998194 
2.0350328e+3, 2.1434493e+2, -878828.7, -1046355.75, 24131.707, -0.009862989, -0.13005966, -875421.94, -36009.125, 0.0, 10.000493, 9.998242 
2.0350549e+3, 2.2434364e+2, -766729.94, -960609.9, -50807.984, 0.06049732, -0.07114717, -754222.1, -12794.52, 0.0, 10.000655, 9.998088 
2.0350759e+3, 2.3434237e+2, -635284.9, -828480.2, -72706.75, 0.11695613, -0.060216792, -610980.1, 32460.074, 0.0, 10.000835, 9.998219 
2.0350966e+3, 2.4434109e+2, -514984.0, -650907.5, -76948.336, 0.10348983, -0.033696152, -480282.0, 65169.04, 0.0, 10.000655, 9.998877 
2.0351167e+3, 2.5433978e+2, -425367.78, -529018.0, -18292.514, 0.027816882, -0.113736674, -422234.2, 25226.271, 0.0, 10.000499, 9.999105 
2.0351374e+3, 2.6433817e+2, -409058.84, -618190.06, -3893.9197, -0.014152387, -0.11834768, -408986.38, -59511.055, 0.000000023664393, 10.00057, 9.997791 
2.0351589e+3, 2.743361e+2, -167672.7, -429998.2, -12241.902, 0.0192275, -0.16381124, -167102.66, 84395.0, 0.0000019634658, 10.001486, 9.997946 
2.0351802e+3, 2.843349e+2, -75196.1, -362598.66, -5401.4614, -0.031772964, -0.064269625, -75094.62, 78416.74, 0.000016146072, 10.001521, 9.997754 
2.035201e+3, 2.943346e+2, -33880.45, -238975.97, 52768.105, -0.1677527, 0.054776642, -21100.344, 34415.45, 0.00006227005, 10.000917, 9.998198 
2.0352261e+3, 3.0433095e+2, -44078.613, -346544.3, 38432.914, 0.004593153, -0.07826488, -39271.52, -39271.52, 0.00015437642, 10.00105, 9.997093 
2.0352486e+3, 3.1432694e+2, 298498.44, 104421.37, -6060.739, -0.017712653, -0.27322766, 298687.53, 298687.53, 0.00029131802, 10.002187, 9.999591 
2.0448437e+3, 1.2432735e+2, -1971649.4, -1975459.0, 196980.36, 0.28342408, 0.104227714, -1776564.6, -54976.734, 0.3294151, 9.998685, 9.9988365 
2.0448577e+3, 1.3432409e+2, -1850086.1, -1710610.4, -45487.36, -0.3299288, -0.29113856, -1697086.9, -73464.28, 0.23787552, 9.998339, 10.000101 
2.0448853e+3, 1.4432833e+2, -1768605.5, -1679585.0, -3391.2954, 0.13617569, 0.14683042, -1679456.0, -153873.63, 0.14372098, 9.998395, 9.999644 
2.0449047e+3, 1.543276e+2, -1555724.6, -1485346.4, -68449.04, -0.015362742, 0.037437033, -1443570.9, -15981.448, 0.06692591, 9.99905, 9.999963 
2.0449246e+3, 1.643264e+2, -1483258.4, -1460314.4, -44063.453, -0.047127094, -0.051891923, -1426254.0, -96653.14, 0.021061258, 9.999103, 9.999459 
2.0449474e+3, 1.743265e+2, -1380132.0, -1331944.4, -51384.387, 0.11769705, -0.04056689, -1299285.5, -67686.32, 0.003256253, 9.999067, 9.999658 
2.044969e+3, 1.843265e+2, -1294231.5, -1271611.4, -39337.227, 0.1533178, 0.0065334686, -1241990.6, -108393.5, 0.00007088071, 9.999085, 9.9994135 
2.0449886e+3, 1.9432546e+2, -1117160.5, -1119691.1, -64077.58, -0.04771656, -0.08288539, -1054335.8, -18731.924, 0.0, 9.999598, 9.999514 
2.0450099e+3, 2.0432429e+2, -1029577.8, -1131620.1, -16737.75, -0.08854658, -0.102231294, -1026902.5, -89288.63, 0.0, 9.999935, 9.998625 
2.045034e+3, 2.143232e+2, -869125.25, -980043.8, -950.35944, 0.07904514, -0.1199679, -869117.1, -29491.178, 0.0, 10.0003, 9.99879 
2.0450564e+3, 2.2432226e+2, -771412.06, -957632.8, -17375.389, 0.15318291, -0.059512537, -769804.7, -28168.48, 0.0, 10.000584, 9.9981575 
2.0450765e+3, 2.3432112e+2, -629538.7, -821715.6, 4898.8813, 0.09175687, -0.03569558, -629413.9, 14234.325, 0.0, 10.000844, 9.998269 
2.0450969e+3, 2.4431968e+2, -463432.56, -616377.6, 28492.02, 0.071271785, -0.035306703, -458297.25, 87363.04, 0.0, 10.00096, 9.998975 
2.0451178e+3, 2.5431788e+2, -353671.22, -479028.9, -25403.18, 0.080842696, -0.17197433, -348719.03, 98953.234, 0.0, 10.00093, 9.999237 
2.045139e+3, 2.6431605e+2, -343477.25, -622098.4, 16607.992, 0.072289355, -0.19038026, -342490.78, 7198.291, 0.00000011200642, 10.001147, 9.997489 
2.0451607e+3, 2.7431408e+2, -150906.6, -465120.5, -4863.3726, 0.03454793, -0.18481465, -150831.34, 100881.695, 0.000002326167, 10.001773, 9.997568 
2.0451817e+3, 2.843129e+2, 16084.726, -294145.1, -317.99673, -0.03535469, -0.0744833, 16085.052, 169813.0, 0.000014696717, 10.002021, 9.99799 
2.0452024e+3, 2.9431263e+2, 90395.28, -144025.75, -11828.067, -0.155218, 0.026494635, 90990.58, 146722.28, 0.00005375532, 10.00163, 9.998506 
2.0452285e+3, 3.043102e+2, 79562.73, -295351.9, 113113.305, 0.12661049, 0.0030560738, 111045.734, 111045.734, 0.00013254509, 10.001915, 9.997026 
2.0452513e+3, 3.1430534e+2, 418397.0, 140058.73, -54149.945, 0.026177825, -0.25025386, 428560.6, 428560.6, 0.00025431596, 10.003034, 9.999447 
2.0548414e+3, 1.2430231e+2, -1681734.9, -1524316.8, 27694.484, 0.06387795, 0.08943347, -1519586.6, 202247.56, 0.3476065, 9.999058, 10.002476 
2.0548575e+3, 1.3430002e+2, -1724479.8, -1510453.0, -34666.95, -0.21479657, -0.32625192, -1504977.9, 118876.0, 0.2513395, 9.998429, 10.001702 
2.0548798e+3, 1.4430574e+2, -1715258.0, -1602113.1, 4844.765, -0.30617684, 0.1515815, -1601906.1, -76109.36, 0.15236652, 9.998538, 10.000105 
2.0549035e+3, 1.5430479e+2, -1509235.9, -1405229.9, -28885.406, -0.06442718, -0.026640836, -1397746.0, 30061.25, 0.071473114, 9.99911, 10.0005 
2.0549256e+3, 1.643039e+2, -1474393.6, -1486249.6, -65027.633, 0.0667751, -0.10321251, -1415024.4, -85206.31, 0.022826005, 9.99928, 9.999202 
2.0549463e+3, 1.7430429e+2, -1400302.4, -1380433.8, -44905.18, 0.06347214, -0.028624935, -1344377.1, -112560.38, 0.0036400491, 9.999087, 9.999319 
2.0549673e+3, 1.8430425e+2, -1313387.3, -1329677.6, -39120.723, 0.0137380175, 0.05448635, -1281572.8, -147754.0, 0.00008593674, 9.99915, 9.998991 
2.054988e+3, 1.9430313e+2, -1144917.8, -1167992.8, -35813.47, -0.08103741, -0.009001872, -1118829.3, -82999.85, 0.0, 9.999545, 9.999212 
2.0550105e+3, 2.0430233e+2, -1013988.44, -1055433.8, -18055.229, -0.07467187, -0.008674498, -1007226.2, -69390.11, 0.0, 9.999747, 9.999239 
2.0550346e+3, 2.1430191e+2, -856263.7, -898033.2, 26239.94, 0.08611696, -0.029404497, -843611.8, -3774.0664, 0.0, 10.00006, 9.999469 
2.0550568e+3, 2.2430131e+2, -758134.75, -845233.8, -23126.596, 0.12455742, -0.016018445, -752375.06, -10534.283, 0.0, 10.000226, 9.999099 
2.055077e+3, 2.3430029e+2, -596920.0, -693261.94, 29124.037, 0.027215762, -0.07858006, -588800.2, 55047.285, 0.0, 10.000587, 9.999275 
2.0550974e+3, 2.442987e+2, -575191.06, -762350.06, 12607.183, -0.005368323, -0.11067621, -574345.6, -28485.342, 0.0, 10.0006, 9.99814 
2.0551188e+3, 2.542963e+2, -463310.03, -640548.3, -8771.098, 0.0687405, -0.21073782, -462877.03, -14995.763, 0.0, 10.000657, 9.998256 
2.0551401e+3, 2.6429433e+2, -410498.34, -671072.25, 22527.121, 0.045601767, -0.18876608, -408565.16, -58663.19, 0.00000017468948, 10.000769, 9.997332 
2.0551616e+3, 2.742926e+2, -199160.33, -506693.6, 37988.227, -0.06050951, -0.14705874, -194537.3, 57387.113, 0.0000023499456, 10.001514, 9.997412 
2.0551829e+3, 2.84291e+2, -66642.44, -349879.13, -25642.686, -0.1584814, -0.061059777, -64339.617, 89604.06, 0.000012296112, 10.001548, 9.997823 
2.055204e+3, 2.9428947e+2, 30836.527, -189229.94, -1051.2147, -0.18163821, -0.089632116, 30841.549, 86800.78, 0.000044415407, 10.001299, 9.998347 
2.0552307e+3, 3.0428946e+2, 36336.348, -230111.7, 122662.87, 0.10269314, 0.10110715, 84205.72, 84205.72, 0.00011238728, 10.001293, 9.997752 
2.0552538e+3, 3.142874e+2, 145549.47, -188579.7, -72272.96, -0.0874902, 0.03731812, 160512.23, 160512.23, 0.00022372513, 10.002063, 9.997634 
2.0648392e+3, 1.2427823e+2, -1885039.9, -1575313.8, 25243.002, 0.052252702, 0.09087916, -1573270.0, 148801.88, 0.36771804, 9.997365, 10.002771 
2.0648584e+3, 1.3427567e+2, -1661417.1, -1456803.0, -64113.875, 0.045485888, -0.39944604, -1438373.5, 185719.58, 0.26616043, 9.998664, 10.002103 
2.0648767e+3, 1.4428294e+2, -1914769.5, -1647955.5, -26113.38, -0.38252553, 0.18319562, -1645423.8, -119403.94, 0.1618756, 9.996923, 10.000581 
2.0649019e+3, 1.5428187e+2, -1701043.0, -1421806.3, -54769.094, -0.045336988, -0.07065432, -1411448.1, 16581.904, 0.07651462, 9.997457, 10.001183 
2.0649248e+3, 1.642815e+2, -1616740.9, -1542131.3, -38407.633, 0.13224562, -0.13875638, -1525893.6, -195858.44, 0.024829434, 9.998278, 9.999284 
2.0649453e+3, 1.7428204e+2, -1381408.0, -1371988.5, -28410.252, 0.054707695, -0.04771795, -1347900.3, -115866.89, 0.0041003036, 9.999241, 9.999288 
2.0649666e+3, 1.8428206e+2, -1245327.6, -1288871.1, 33929.844, 0.019782962, 0.042130124, -1226785.1, -92749.414, 0.000108260756, 9.999595, 9.999043 
2.0649885e+3, 1.9428146e+2, -1092175.5, -1127675.3, 39921.965, 0.005732698, 0.017415894, -1066235.4, -30192.896, 0.0, 9.999845, 9.999338 
2.0650113e+3, 2.0428088e+2, -961341.2, -1012727.44, 83137.14, 0.038783416, 0.02613343, -900017.56, 38029.4, 0.0, 10.000035, 9.999385 
2.065035e+3, 2.1428017e+2, -800260.5, -859991.75, 54907.098, 0.09503823, -0.033198796, -767622.1, 72427.71, 0.0, 10.000405, 9.999563 
2.0650572e+3, 2.2427939e+2, -697951.6, -805586.4, -21607.906, 0.110655956, -0.04518495, -693775.75, 48278.3, 0.0, 10.0005865, 9.9992 
2.0650776e+3, 2.3427841e+2, -595723.5, -680492.9, -68339.945, 0.05889107, -0.11350981, -557691.75, 86369.06, 0.0, 10.000548, 9.999375 
2.0650986e+3, 2.4427705e+2, -559628.44, -781187.7, -66528.86, 0.05624367, -0.11638933, -541186.5, 4885.9487, 0.0, 10.000817, 9.997906 
2.0651199e+3, 2.5427493e+2, -352485.38, -612060.9, -70355.63, 0.087199464, -0.16239502, -334642.6, 113449.97, 0.0, 10.001528, 9.998026 
2.0651416e+3, 2.64273e+2, -249156.97, -577155.44, 25856.645, 0.060120434, -0.13331668, -247131.16, 102982.12, 0.00000012472299, 10.001788, 9.997499 
2.0651634e+3, 2.7427122e+2, -182082.94, -466327.44, 31712.926, -0.049045593, -0.1144306, -178587.72, 73546.875, 0.0000018192295, 10.001501, 9.997694 
2.0651849e+3, 2.8426972e+2, -74677.44, -373114.4, 13597.913, -0.10162831, -0.02667085, -74059.15, 80092.83, 0.000008845643, 10.001556, 9.997675 
2.0652063e+3, 2.9426807e+2, 99262.945, -186714.86, -25935.88, -0.103303395, -0.036871616, 101596.086, 157765.6, 0.000033872344, 10.001904, 9.998077 
2.065232e+3, 3.0426702e+2, 216433.66, -70936.164, 146815.55, 0.078269124, 0.03208025, 278175.53, 278175.53, 0.00009226976, 10.002133, 9.9984865 
2.0652579e+3, 3.1426632e+2, 129329.555, -182732.27, -207456.94, 0.13414602, 0.03216727, 232882.98, 232882.98, 0.0001939828, 10.001828, 9.997823 
2.0748357e+3, 1.2425678e+2, -2109689.8, -2024474.3, -227941.92, -0.1485179, 0.2096741, -1835192.1, -112907.97, 0.38886976, 9.997656, 9.998963 
2.0748599e+3, 1.342508e+2, -1735644.0, -1596882.0, -113069.49, 0.27338836, -0.5436093, -1533603.9, 90739.31, 0.28190908, 9.998774, 10.000856 
2.0748752e+3, 1.4425988e+2, -1847848.6, -1544564.5, -75088.48, -0.28945592, 0.2701098, -1526992.0, -739.4642, 0.17213808, 9.997075, 10.00122 
2.0748992e+3, 1.5425874e+2, -1625087.0, -1281992.6, -19761.457, -0.107994504, -0.08812788, -1280858.3, 147400.8, 0.08207624, 9.997489, 10.002204 
2.0749219e+3, 1.6425905e+2, -1563580.6, -1464283.8, -14808.528, -0.041642845, -0.1679898, -1462122.4, -131868.23, 0.027111659, 9.998415, 9.999752 
2.0749438e+3, 1.7425974e+2, -1356754.4, -1322890.8, 14950.981, -0.04025719, -0.09622208, -1317234.6, -84985.6, 0.0046569863, 9.99926, 9.99961 
2.0749663e+3, 1.8426003e+2, -1200249.6, -1216699.8, 25841.52, -0.0008236588, -0.016981324, -1181355.8, -47108.797, 0.00014131474, 9.999682, 9.999496 
2.0749895e+3, 1.9426034e+2, -1069934.5, -1066960.5, 57081.867, 0.08439618, 0.0034794009, -1011346.25, 24897.527, 0.0000000002137382, 9.999778, 9.999789 
2.075012e+3, 2.042598e+2, -1012055.0, -1081027.1, 77039.37, 0.07178808, 0.007366931, -962135.2, -23887.35, 0.0, 9.9998665, 9.999001 
2.0750342e+3, 2.1425782e+2, -860910.75, -937705.9, 83036.23, -0.034244396, -0.13492508, -807823.94, 32440.06, 0.0, 10.000192, 9.999132 
2.0750561e+3, 2.2425635e+2, -807924.9, -948381.2, -31575.553, -0.057671335, -0.15927425, -801152.94, -58875.316, 0.0, 10.00023, 9.998385 
2.0750783e+3, 2.3425543e+2, -696747.9, -821692.25, -53734.777, 0.05133275, -0.13912347, -676817.4, -32528.885, 0.0, 10.00027, 9.998533 
2.0750998e+3, 2.4425456e+2, -597585.8, -769157.1, -54930.043, 0.06849707, -0.060248997, -581506.4, -35208.168, 0.0, 10.000432, 9.998171 
2.0751208e+3, 2.542535e+2, -364247.0, -578550.44, -28462.13, -0.0071543837, -0.035191715, -360531.3, 87777.2, 0.0, 10.001285, 9.99837 
2.0751423e+3, 2.642519e+2, -277134.06, -538060.25, -1738.1224, -0.07353387, -0.011815025, -277122.47, 73201.91, 0.000000021824269, 10.001385, 9.997958 
2.0751646e+3, 2.742496e+2, -187270.84, -406297.1, 37229.53, -0.08674341, -0.098232195, -181115.64, 71231.14, 0.00000084431264, 10.001211, 9.998243 
2.075187e+3, 2.8424847e+2, -165072.0, -450191.47, 1658.233, -0.0932878, 0.005396631, -165062.36, -10703.028, 0.000005133315, 10.001101, 9.997355 
2.0752087e+3, 2.9424793e+2, 11190.877, -299639.53, 9991.942, -0.09604545, 0.14804326, 11511.747, 67879.586, 0.000023723636, 10.001587, 9.9974575 
2.0752317e+3, 3.0424297e+2, 139089.6, -43654.11, 111808.586, -0.18900001, -0.15774192, 192112.94, 192112.94, 0.00007270888, 10.001395, 9.998995 
2.0752612e+3, 3.1424347e+2, 87575.99, -9627.841, -145790.39, 0.21252036, -0.13742217, 192652.25, 192652.25, 0.00016093491, 10.000819, 9.999446 
2.084834e+3, 1.24236226e+2, -1886984.8, -1878065.4, -50865.063, -0.1391098, 0.28161448, -1831464.9, -108976.03, 0.40993002, 9.999032, 9.999292 
2.084857e+3, 1.3423064e+2, -2023933.4, -1841975.8, -101337.555, 0.19989212, -0.3414431, -1796769.3, -172224.33, 0.29801235, 9.997298, 9.999695 
2.0848742e+3, 1.4423694e+2, -1863806.3, -1566895.5, 26336.662, -0.07756676, 0.26014704, -1564577.5, -38095.684, 0.18298064, 9.997066, 10.001055 
2.0848972e+3, 1.5423587e+2, -1604224.9, -1310352.3, -31209.168, -0.046937965, -0.06277315, -1307074.4, 121413.4, 0.088167645, 9.997805, 10.001851 
2.0849204e+3, 1.6423644e+2, -1551670.6, -1403353.5, -42652.4, -0.014874815, -0.11684414, -1391962.5, -61484.0, 0.029713616, 9.998233, 10.00028 
2.084943e+3, 1.7423713e+2, -1328211.6, -1237502.6, -23835.836, -0.030099737, -0.109087475, -1231620.6, 848.71936, 0.005333032, 9.999113, 10.000292 
2.084966e+3, 1.8423733e+2, -1215970.9, -1227105.1, -5700.8574, 0.021683859, -0.07581659, -1213569.8, -79103.516, 0.00018960002, 9.999596, 9.999475 
2.0849897e+3, 1.9423749e+2, -1024324.9, -1058202.0, -43629.395, 0.11683331, -0.05706266, -994461.3, 42003.855, 0.000000020895914, 10.000169, 9.999656 
2.0850125e+3, 2.0423701e+2, -949457.3, -1036951.9, -18197.16, 0.119158976, -0.039970182, -945823.56, -7354.2217, 0.0, 10.000277, 9.999088 
2.0850344e+3, 2.1423541e+2, -868281.06, -926592.75, -7382.5684, -0.022710675, -0.15663834, -867360.9, -26877.57, 0.0, 10.000095, 9.999241 
2.0850566e+3, 2.2423424e+2, -806134.7, -956356.3, -38678.043, -0.038099088, -0.15094487, -796761.0, -54266.395, 0.0, 10.000258, 9.998329 
2.0850791e+3, 2.3423363e+2, -598531.5, -782207.2, -32590.932, 0.083992675, -0.093787454, -592920.06, 51582.688, 0.0, 10.000953, 9.998487 
2.085101e+3, 2.4423261e+2, -471482.56, -720482.1, 18362.127, 0.11997303, -0.023512783, -470135.75, 76378.414, 0.0, 10.001342, 9.998067 
2.0851223e+3, 2.542308e+2, -353281.1, -590467.4, -18935.246, 0.015488232, -0.057380192, -351778.97, 96753.52, 0.0, 10.001424, 9.998223 
2.0851438e+3, 2.642292e+2, -222609.17, -475853.72, 1152.1158, -0.06457308, -0.035843123, -222603.94, 127943.695, 0.0, 10.001602, 9.998281 
2.0851655e+3, 2.7422798e+2, -65425.047, -311919.0, -8781.83, -0.1350195, -0.05245692, -65112.574, 187445.89, 0.000000115745564, 10.001891, 9.998564 
2.0851888e+3, 2.8422654e+2, -27927.201, -391011.97, -7210.614, -0.058249332, 0.007104935, -27784.059, 126788.87, 0.0000020138657, 10.002044, 9.997314 
2.0852126e+3, 2.9422447e+2, 51118.59, -277166.47, -22019.092, 0.15010415, 0.009773674, 52588.895, 109185.06, 0.000014504671, 10.001861, 9.997477 
2.0852341e+3, 3.042212e+2, 251009.55, 66206.98, 147084.3, -0.08144955, -0.15954496, 332308.53, 332308.53, 0.000053405533, 10.001859, 9.999556 
2.0852622e+3, 3.1422263e+2, 256172.11, 47934.043, -175634.63, 0.19442064, -0.077964656, 356230.2, 356230.2, 0.000125829, 10.001943, 9.999356 
2.0948362e+3, 1.24212466e+2, -1594165.4, -1368056.4, 174045.58, 0.067963935, -0.110299505, -1273570.1, 449156.3, 0.42994058, 9.999158, 10.004577 
2.0948498e+3, 1.342154e+2, -2074224.4, -1966123.0, -133835.67, -0.3061354, 0.2298898, -1875835.6, -251139.9, 0.31401625, 9.997393, 9.998801 
2.0948727e+3, 1.4421406e+2, -1913105.1, -1717651.6, 37172.113, 0.0059654135, 0.15249574, -1710820.8, -184112.58, 0.19429262, 9.99726, 9.999933 
2.0948957e+3, 1.5421318e+2, -1720755.0, -1558785.9, -180.64082, -0.027114093, 0.015035593, -1558785.8, -130068.766, 0.094824284, 9.997878, 10.000032 
2.0949197e+3, 1.6421363e+2, -1481547.0, -1302205.4, -36601.94, 0.020986225, 0.025927426, -1295022.9, 35686.234, 0.032688897, 9.998412, 10.000898 
2.0949423e+3, 1.742143e+2, -1249177.8, -1082388.1, 16437.059, -0.04682873, -0.068595506, -1080783.8, 151910.27, 0.0061590113, 9.999144, 10.00135 
2.0949651e+3, 1.8421406e+2, -1237863.6, -1295203.0, -1860.9459, -0.10336055, -0.11790645, -1237803.3, -103110.52, 0.00026052183, 9.999689, 9.998963 
2.0949885e+3, 1.9421297e+2, -1084713.0, -1170299.9, -13613.925, -0.03885217, -0.15192762, -1082599.6, -45893.875, 0.00000016154512, 10.00011, 9.998915 
2.0950119e+3, 2.0421255e+2, -949309.94, -993296.8, -38396.047, 0.00021232461, -0.108670875, -927054.44, 11656.77, 0.0, 10.000089, 9.999477 
2.0950349e+3, 2.1421282e+2, -872067.56, -872994.56, -2816.743, -0.0024490478, -0.088281095, -869676.44, -28967.805, 0.0, 9.999841, 9.999726 
2.0950574e+3, 2.2421294e+2, -809279.1, -881851.44, -28167.344, -0.010439309, -0.011644425, -799629.6, -56923.39, 0.0, 9.999909, 9.999008 
2.0950796e+3, 2.3421285e+2, -588620.25, -698737.9, 8664.939, 0.008026827, 0.026585143, -587942.56, 56762.324, 0.0, 10.000683, 9.99919 
2.0951018e+3, 2.442111e+2, -565591.7, -823151.0, 8389.411, 0.011244844, 0.006903733, -565318.7, -18597.352, 0.0, 10.000944, 9.997554 
2.095124e+3, 2.5420684e+2, -430529.9, -696161.5, -82.52849, 0.01371667, -0.2122473, -430529.9, 18234.408, 0.0, 10.001184, 9.997614 
2.0951453e+3, 2.6420495e+2, -271800.38, -488034.6, -5576.8745, -0.11254168, -0.1973936, -271656.63, 79126.76, 0.0, 10.001229, 9.998371 
2.0951656e+3, 2.74206e+2, -103329.66, -322320.78, 19497.797, -0.3493522, 0.007388269, -101607.23, 151164.9, 0.0, 10.001603, 9.998627 
2.0951897e+3, 2.842039e+2, -99551.17, -413129.28, -32823.5, -0.19465554, -0.008881986, -96152.24, 58640.96, 0.00000039293647, 10.001513, 9.9974165 
2.0952177e+3, 2.9419798e+2, 28407.734, -237918.4, -218.65942, 0.4351441, -0.41665637, 28407.914, 85260.07, 0.000007667558, 10.00149, 9.997927 
2.095238e+3, 3.0420017e+2, 150236.86, 60123.01, 125822.984, 0.06228929, -0.09271098, 238827.05, 238827.05, 0.000037309022, 10.001053, 9.999874 
2.0952612e+3, 3.1420296e+2, 33915.758, -153564.44, 51528.777, -0.1656102, 0.117512316, 47144.91, 47144.91, 0.0000961441, 10.000929, 9.998416 
2.1048371e+3, 1.2419006e+2, -1761873.1, -1324607.9, 223204.28, 0.37542406, -0.021341588, -1230797.9, 492151.34, 0.44859928, 9.996835, 10.006487 
2.1048467e+3, 1.3419539e+2, -2019535.5, -1929605.8, -272890.88, -0.34215876, 0.49607137, -1698000.1, -73108.12, 0.3298663, 9.997702, 9.998919 
2.1048708e+3, 1.4418918e+2, -1735965.5, -1694788.1, -15046.463, 0.02750119, -0.040933553, -1689876.0, -162924.56, 0.20615475, 9.998753, 9.999362 
2.1048948e+3, 1.5419032e+2, -1663844.8, -1563349.3, -5061.2593, 0.08316764, 0.059052274, -1563095.0, -134153.14, 0.10215144, 9.998441, 9.999707 
2.104919e+3, 1.6419104e+2, -1546644.0, -1364826.4, 49359.695, 0.1377075, 0.12620172, -1352290.6, -21357.61, 0.036114734, 9.998128, 10.000575 
2.1049415e+3, 1.74191e+2, -1294029.6, -1135179.6, -19773.426, -0.03341473, -0.014223395, -1132755.3, 100171.17, 0.007176738, 9.998976, 10.001052 
2.1049644e+3, 1.841906e+2, -1285159.8, -1283854.1, -67750.58, -0.10726674, -0.07634892, -1216753.3, -81826.93, 0.0003661867, 9.999214, 9.999271 
2.1049881e+3, 1.941895e+2, -1218425.6, -1194288.9, -30756.25, -0.027841633, -0.14557049, -1173318.0, -136380.72, 0.00000091193453, 9.999018, 9.999277 
2.1050118e+3, 2.0418929e+2, -1077143.9, -1046394.94, 12755.283, 0.043653663, -0.10748123, -1041792.6, -102852.97, 0.0, 9.999128, 9.9996 
2.1050352e+3, 2.1419005e+2, -856565.9, -864509.5, -6210.0293, 0.05179378, -0.04374529, -853166.1, -12233.364, 0.0, 9.999889, 9.999794 
2.1050581e+3, 2.2419019e+2, -731870.8, -815815.25, -26668.328, 0.05602898, 0.020568283, -724115.1, 18814.682, 0.0, 10.000345, 9.999236 
2.1050803e+3, 2.341893e+2, -566326.75, -660401.25, -60253.71, 0.024215324, -0.040099774, -536924.4, 108009.65, 0.0, 10.00074, 9.999409 
2.1051028e+3, 2.4418741e+2, -527298.9, -782808.7, -45984.137, 0.024122756, -0.09117256, -519275.03, 27675.506, 0.0, 10.001086, 9.997779 
2.105125e+3, 2.5418413e+2, -409310.25, -663203.44, -23910.533, 0.016197251, -0.23319943, -407078.1, 41906.223, 0.0, 10.001221, 9.997835 
2.1051468e+3, 2.6418263e+2, -268194.88, -499132.94, 27458.637, -0.066850714, -0.18712303, -264974.94, 86025.59, 0.0, 10.001291, 9.998274 
2.105168e+3, 2.7418306e+2, -159050.77, -369141.66, -860.88635, -0.25235856, -0.022789847, -159047.23, 93949.695, 0.0, 10.001295, 9.99846 
2.1051921e+3, 2.841811e+2, -74970.945, -326725.78, -13282.099, -0.08988495, -0.042964537, -74272.15, 80744.41, 0.00000006547354, 10.001402, 9.9980345 
2.1052192e+3, 2.9417607e+2, 86521.59, -145151.7, -11792.7, 0.43738458, -0.4134647, 87120.33, 144184.61, 0.000004738257, 10.001651, 9.998466 
2.1052402e+3, 3.041787e+2, 244502.98, -16677.797, 122481.36, 0.16420291, -0.02521047, 292953.2, 292953.2, 0.00002905632, 10.002191, 9.998804 
2.1052632e+3, 3.141789e+2, 359528.9, 61881.246, -89267.77, -0.13740873, 0.047400326, 384248.34, 384248.34, 0.00007991688, 10.002879, 9.998963 
2.11483e+3, 1.2416561e+2, -1977299.3, -1654603.6, 246153.1, -0.1217318, 0.20516607, -1521631.1, 201559.45, 0.46656317, 9.99702, 10.00273 
2.1148469e+3, 1.3417e+2, -1910918.1, -1734395.3, -202407.67, -0.14348358, 0.41712523, -1601842.4, 23297.078, 0.34608045, 9.997828, 10.000251 
2.1148682e+3, 1.4416201e+2, -1693125.5, -1675728.1, -15325.924, -0.20936267, -0.3433444, -1666804.3, -139590.52, 0.21890919, 9.999041, 9.999358 
2.1148942e+3, 1.5416731e+2, -1553790.4, -1381020.4, -15214.213, 0.14024892, 0.07104027, -1379690.9, 49471.324, 0.110347085, 9.998605, 10.000921 
2.1149175e+3, 1.641685e+2, -1606521.3, -1530151.9, 51999.23, 0.13598913, 0.16725494, -1503823.0, -172671.5, 0.040102176, 9.998298, 9.999361 
2.11494e+3, 1.7416708e+2, -1409058.0, -1383950.6, 21325.014, -0.12789272, 0.055589076, -1371758.6, -138590.98, 0.008443992, 9.99901, 9.999328 
2.1149634e+3, 1.841668e+2, -1199740.6, -1119044.3, -92491.75, -0.17759998, 0.048869837, -1058483.0, 76685.73, 0.00052604213, 9.999266, 10.000377 
2.1149878e+3, 1.9416697e+2, -1133682.8, -994528.4, -31157.393, 0.013073583, -0.03238545, -987870.6, 49290.063, 0.0000034897541, 9.9989195, 10.0006895 
2.1150115e+3, 2.0416707e+2, -1122202.4, -1086048.9, 21082.932, 0.066954285, -0.03419465, -1076354.1, -137198.05, 0.0, 9.998899, 9.999437 
2.1150346e+3, 2.1416718e+2, -917931.2, -925398.56, 32899.54, -0.000053342003, -0.0057391813, -888554.1, -47399.066, 0.0, 9.999628, 9.999494 
2.1150579e+3, 2.2416607e+2, -811488.0, -897482.9, -24560.541, -0.034424473, -0.034956727, -804967.75, -61803.46, 0.0, 9.999978, 9.998854 
2.1150811e+3, 2.341629e+2, -628676.94, -736758.2, -29919.479, -0.0027129317, -0.2835718, -620947.3, 24243.604, 0.0, 10.0005045, 9.999001 
2.1151035e+3, 2.4416146e+2, -522580.22, -683450.9, -53108.914, -0.039235264, -0.31108266, -506628.8, 40574.27, 0.0, 10.000707, 9.998636 
2.1151252e+3, 2.5416234e+2, -374619.63, -537447.75, -5766.784, -0.11588985, -0.14010023, -374415.63, 74779.97, 0.0, 10.000997, 9.998796 
2.115148e+3, 2.6416185e+2, -357753.8, -584362.56, 13943.939, -0.123327546, -0.022842772, -356899.03, -5696.786, 0.0, 10.000872, 9.997883 
2.1151718e+3, 2.741592e+2, -222054.9, -440920.78, 20681.348, -0.021704357, -0.13434422, -220117.8, 33113.945, 0.0, 10.001041, 9.998084 
2.1151948e+3, 2.8415766e+2, -94231.3, -260650.13, -23124.363, -0.008506676, -0.12580357, -91077.85, 64169.563, 0.00000005479561, 10.000946, 9.998709 
2.1152169e+3, 2.9415783e+2, 75925.18, -105967.52, 26450.06, -0.011073878, -0.061171822, 79693.37, 136935.78, 0.0000044706885, 10.001368, 9.998878 
2.1152407e+3, 3.0415636e+2, -78696.34, -453489.88, 116140.51, -0.08018748, 0.03818195, -45625.05, -45625.05, 0.000027145721, 10.001261, 9.996216 
2.1152675e+3, 3.1415105e+2, 253147.48, 123253.82, 56928.355, -0.07446388, -0.22668886, 274565.75, 274565.75, 0.00007500438, 10.001749, 9.999895 
2.1248266e+3, 1.2413964e+2, -2092514.9, -1302736.0, 51852.22, 0.026295101, 0.09981193, -1299346.3, 424098.2, 0.48543465, 9.992869, 10.008973 
2.124846e+3, 1.3414343e+2, -1902729.1, -1650440.9, -153949.83, 0.008537976, 0.21709748, -1577555.1, 47842.355, 0.3637423, 9.9975395, 10.001033 
2.124867e+3, 1.4413777e+2, -1804224.0, -1699826.8, 6592.8467, -0.16799696, -0.3591353, -1699412.0, -171964.14, 0.23315269, 9.998141, 9.999627 
2.1248928e+3, 1.5414305e+2, -1498601.6, -1326393.1, -73824.766, 0.14119303, 0.022141764, -1299077.6, 130318.234, 0.1197026, 9.998803, 10.00129 
2.1249163e+3, 1.6414423e+2, -1511975.6, -1512721.6, 15054.578, 0.14162056, 0.10582829, -1497289.5, -165903.34, 0.044803485, 9.999046, 9.99914 
2.1249393e+3, 1.7414285e+2, -1433509.1, -1436472.9, 60602.5, -0.08121775, 0.038228307, -1374370.4, -140966.13, 0.01004214, 9.999015, 9.998973 
2.1249631e+3, 1.8414289e+2, -1210842.9, -1101718.0, -4317.8164, -0.08971095, 0.07210696, -1101547.5, 33856.258, 0.0007722133, 9.999086, 10.000578 
2.1249878e+3, 1.9414352e+2, -961479.9, -887673.5, -55513.918, 0.0676564, 0.012199727, -857916.06, 179474.06, 0.000010944595, 9.999978, 10.000924 
2.1250115e+3, 2.0414352e+2, -931017.3, -1007551.1, -29830.05, 0.12199557, -0.0046665855, -920764.25, 18621.697, 0.0, 10.000292, 9.99929 
2.1250346e+3, 2.1414271e+2, -861681.75, -914474.5, -42169.81, 0.019408293, -0.05156916, -838328.1, 3065.592, 0.0, 10.000109, 9.999312 
2.1250582e+3, 2.2414136e+2, -789118.8, -889380.94, -46200.145, 0.0041801045, -0.095290236, -771076.75, -27670.627, 0.0, 10.000133, 9.998838 
2.125082e+3, 2.3413907e+2, -635161.7, -737923.3, -46708.566, 0.043259714, -0.25467035, -617104.2, 28322.186, 0.0, 10.000452, 9.999018 
2.1251047e+3, 2.441382e+2, -501345.7, -654760.3, -56456.957, 0.017721178, -0.23413278, -482809.1, 64625.246, 0.0, 10.000803, 9.9987755 
2.1251263e+3, 2.5413904e+2, -330532.9, -503451.22, -108085.54, -0.11125796, -0.07183471, -278580.84, 170846.8, 0.0, 10.001269, 9.998898 
2.1251494e+3, 2.6413843e+2, -268124.4, -509953.9, -95665.52, -0.07185169, 0.01918226, -234856.58, 116578.41, 0.0, 10.001361, 9.998153 
2.1251741e+3, 2.7413556e+2, -240936.45, -418805.78, -84527.98, 0.12184451, -0.13230084, -207174.94, 46290.45, 0.0, 10.000801, 9.9983425 
2.1251968e+3, 2.841345e+2, -53253.977, -243752.34, -50027.273, 0.1065122, -0.08945341, -40915.36, 114560.2, 0.000000117451826, 10.001195, 9.998734 
2.1252175e+3, 2.9413566e+2, 290815.94, -4866.4326, -97881.56, -0.13137937, 0.081518866, 320281.88, 377743.13, 0.0000050467984, 10.002835, 9.9988785 
2.1252431e+3, 3.0413193e+2, 189546.27, -402780.2, 39978.56, -0.025134955, -0.014267084, 192232.39, 192232.39, 0.00002697455, 10.003321, 9.995645 
2.1252713e+3, 3.1412742e+2, 152578.4, 57550.184, -47496.117, 0.18922563, -0.111173466, 172246.67, 172246.67, 0.00007158717, 10.000993, 9.999893 
2.134844e+3, 1.3411658e+2, -1878253.1, -1613922.6, -111777.33, 0.01186249, 0.040180344, -1572993.1, 52664.145, 0.38411817, 9.997581, 10.001277 
2.1348667e+3, 1.4411618e+2, -1753763.8, -1641009.3, -20472.404, -0.087279364, -0.088628255, -1637407.3, -109750.81, 0.24951555, 9.99833, 9.999934 
2.1348901e+3, 1.5411738e+2, -1509124.5, -1375433.1, -44105.11, -0.0673856, -0.08423179, -1362193.8, 67450.89, 0.13052814, 9.998928, 10.000844 
2.1349141e+3, 1.6411808e+2, -1421333.0, -1375838.8, -2151.071, -0.04653296, -0.06241665, -1375737.3, -44099.46, 0.050404422, 9.999263, 9.999975 
2.134939e+3, 1.7411828e+2, -1358695.1, -1287807.4, 66042.55, -0.03104283, -0.07309057, -1248298.8, -14661.93, 0.012084308, 9.9990425, 9.999978 
2.1349634e+3, 1.8411872e+2, -1253433.0, -1209855.1, 11060.45, -0.031097738, -0.020001132, -1207208.5, -71576.445, 0.001155736, 9.999168, 9.999797 
2.1349873e+3, 1.9411914e+2, -1038832.6, -1036363.4, -11332.038, -0.001540394, -0.0057802196, -1026198.94, 11426.9, 0.000030850606, 9.99992, 9.999934 
2.135011e+3, 2.0411853e+2, -974672.4, -1047128.9, -48513.375, 0.0017190152, -0.019925106, -950352.8, -10722.447, 0.0, 10.000076, 9.999123 
2.1350347e+3, 2.1411641e+2, -903795.3, -942180.56, -36522.82, -0.01119501, -0.18920211, -881729.3, -40078.18, 0.0, 9.999858, 9.999242 
2.1350583e+3, 2.2411601e+2, -822547.0, -861492.0, -45694.26, -0.013787705, -0.15312552, -792349.2, -48693.32, 0.0, 9.999731, 9.999216 
2.1350825e+3, 2.3411772e+2, -645760.44, -704092.06, -20606.393, 0.025514103, 0.046810314, -639215.4, 6425.7383, 0.0, 10.0002165, 9.999365 
2.1351054e+3, 2.4411738e+2, -608220.25, -792429.2, -53305.35, -0.012854403, 0.14081849, -593907.2, -46260.855, 0.0, 10.000446, 9.997998 
2.1351276e+3, 2.5411406e+2, -421480.22, -641902.56, -73845.625, -0.11006986, -0.032340255, -399027.63, 50653.492, 0.0, 10.00105, 9.998048 
2.1351506e+3, 2.6411206e+2, -282605.5, -446082.72, -125560.484, -0.10821146, -0.06980151, -214522.1, 137179.08, 0.0, 10.000974, 9.998771 
2.1351743e+3, 2.741117e+2, -226203.88, -337498.78, -87182.34, 0.04299856, -0.045847952, -178423.1, 75279.54, 0.00000000014169585, 10.000579, 9.99901 
2.1351972e+3, 2.841109e+2, -185196.39, -388759.28, -13315.89, 0.006183414, 0.026643585, -184329.03, -28620.824, 0.000000256191, 10.000678, 9.997966 
2.1352208e+3, 2.9410937e+2, 189726.0, -127149.24, 2161.9011, -0.12480461, 0.0008932937, 189740.75, 247462.17, 0.0000052967753, 10.002453, 9.998218 
2.1352468e+3, 3.0410442e+2, 123102.805, -295270.78, -35585.754, -0.049163025, -0.24744044, 126108.05, 126108.05, 0.000025200057, 10.002359, 9.996803 
2.135272e+3, 3.1410363e+2, -91318.38, -126771.96, -102324.45, 0.07717195, -0.095612034, -5196.5693, -5196.5693, 0.00006359548, 9.999734, 9.999175 
2.1448416e+3, 1.3408956e+2, -1923033.0, -1593385.8, -54516.293, 0.0699412, -0.08277156, -1584603.9, 41314.332, 0.40760165, 9.997043, 10.001638 
2.1448661e+3, 1.440921e+2, -1954543.9, -1711152.4, -81679.01, 0.123773225, 0.044930678, -1686283.1, -158392.28, 0.26811564, 9.996841, 10.00017 
2.1448885e+3, 1.5409178e+2, -1592557.9, -1409412.0, -75586.516, -0.092040166, -0.10865591, -1382246.0, 47648.1, 0.14296411, 9.998359, 10.000863 
2.1449126e+3, 1.6409236e+2, -1432149.6, -1338346.5, -45339.58, -0.07019892, -0.11553519, -1320014.4, 11873.751, 0.057087187, 9.999031, 10.00034 
2.144939e+3, 1.7409313e+2, -1317368.4, -1213842.8, -55045.293, 0.050577596, -0.11710169, -1190045.1, 43834.258, 0.014719365, 9.999128, 10.000436 
2.1449636e+3, 1.840935e+2, -1288176.8, -1257564.3, -71628.63, 0.09122385, -0.07988049, -1199624.8, -63749.668, 0.0017550356, 9.999068, 9.9995165 
2.1449876e+3, 1.940934e+2, -1132238.1, -1116713.6, -69493.85, 0.055113822, -0.08452564, -1054549.9, -16673.73, 0.00008036648, 9.999444, 9.999601 
2.1450113e+3, 2.0409288e+2, -1027396.7, -1047479.4, -57281.125, 0.043028086, -0.08207511, -979283.44, -39402.066, 0.000000018813253, 9.999608, 9.99935 
2.1450347e+3, 2.140916e+2, -889214.2, -905463.0, -45202.656, 0.0109131625, -0.19498792, -851411.6, -9517.5205, 0.0, 9.999815, 9.999526 
2.1450584e+3, 2.2409171e+2, -768152.5, -832058.75, -13357.421, 0.017609587, -0.12421627, -765472.94, -21578.39, 0.0, 10.000089, 9.999251 
2.1450828e+3, 2.3409353e+2, -587063.9, -673937.25, -44570.914, 0.04027131, 0.09239614, -568264.6, 77615.484, 0.0, 10.00062, 9.99938 
2.1451066e+3, 2.4409327e+2, -541534.5, -745126.06, -47006.566, 0.039737396, 0.18532154, -531205.3, 16680.023, 0.0, 10.000828, 9.998148 
2.1451294e+3, 2.5408992e+2, -475848.9, -651036.56, -23158.67, -0.019512692, -0.0014405831, -472839.2, -22919.71, 0.0, 10.000595, 9.998208 
2.1451524e+3, 2.6408777e+2, -290160.94, -451098.16, -24287.723, -0.007319945, -0.06173467, -286575.44, 65364.48, 0.0, 10.000903, 9.998782 
2.1451755e+3, 2.7408722e+2, -25226.92, -237299.73, -75971.39, 0.06013381, -0.053565, -820.3418, 253121.95, 0.00000000016893417, 10.001947, 9.999042 
2.145199e+3, 2.8408647e+2, -1352.841, -320108.53, 19658.463, 0.06470853, 0.020103328, -145.03078, 155802.94, 0.0000002738674, 10.001978, 9.997827 
2.1452233e+3, 2.9408473e+2, -88607.46, -258162.34, 33568.42, 0.017504219, -0.004457343, -82203.47, -24238.79, 0.0000047479944, 10.000534, 9.998235 
2.1452492e+3, 3.0408078e+2, 35071.383, -162494.97, 77844.33, 0.074423805, -0.246229, 62057.26, 62057.26, 0.000021563434, 10.000887, 9.998469 
2.1452737e+3, 3.1408134e+2, 378245.7, 96762.65, -108746.54, 0.16113317, -0.1049341, 415363.63, 415363.63, 0.000054127682, 10.002879, 9.999209 
2.1548378e+3, 1.3406204e+2, -1887641.0, -1583603.0, -93667.46, -0.12672718, -0.16476627, -1557062.9, 69120.86, 0.43279883, 9.99728, 10.001722 
2.1548642e+3, 1.4406511e+2, -1882704.9, -1654140.6, -84856.84, 0.13324541, -0.00827624, -1626081.3, -97926.125, 0.28823382, 9.997213, 10.000388 
2.1548872e+3, 1.5406631e+2, -1549136.5, -1358320.6, -15224.294, -0.0845043, -0.05020587, -1357113.5, 73030.55, 0.15688464, 9.99848, 10.0012 
2.1549116e+3, 1.6406706e+2, -1417990.1, -1358115.5, -54860.625, -0.13921966, -0.05396125, -1325555.4, 6581.268, 0.06501248, 9.99925, 10.000093 
2.154938e+3, 1.7406724e+2, -1333089.8, -1246509.6, -50324.516, 0.01414121, -0.08502631, -1223417.5, 10715.92, 0.018139776, 9.999139, 10.0001955 
2.1549632e+3, 1.8406706e+2, -1257091.9, -1212738.8, -77993.04, 0.08559573, -0.10301596, -1153830.8, -17696.445, 0.0026903055, 9.999144, 9.999794 
2.1549876e+3, 1.940663e+2, -1115719.5, -1065130.6, -46675.13, 0.08968265, -0.21176872, -1037336.75, 804.9417, 0.00019736934, 9.999375, 9.999987 
2.1550113e+3, 2.0406654e+2, -1010752.0, -975117.7, -66187.625, 0.045973346, -0.18134217, -924391.06, 15748.207, 0.0000007869328, 9.999438, 9.999931 
2.155034e+3, 2.1406807e+2, -875921.75, -834167.94, -28082.54, -0.057203438, -0.07262146, -820052.4, 22072.234, 0.0, 9.999618, 10.0001135 
2.1550576e+3, 2.240683e+2, -845786.56, -914071.25, -8770.003, -0.107416466, -0.004989791, -844678.25, -100554.5, 0.0, 9.999744, 9.998854 
2.1550828e+3, 2.3406647e+2, -652339.3, -755131.6, -9356.745, -0.05633693, -0.11256682, -651494.56, -5350.276, 0.0, 10.0003805, 9.998937 
2.1551071e+3, 2.4406573e+2, -535076.56, -635241.44, -66939.14, -0.017005874, -0.08790428, -501558.2, 46594.348, 0.0, 10.000427, 9.999088 
2.1551307e+3, 2.5406632e+2, -433021.72, -513634.1, -18853.117, 0.030122967, 0.013067521, -428830.4, 21315.162, 0.0, 10.000383, 9.999253 
2.155154e+3, 2.6406527e+2, -390288.13, -568798.0, -836.3794, 0.022545038, 0.031203283, -390284.22, -38129.258, 0.0, 10.000523, 9.998153 
2.1551774e+3, 2.7406183e+2, -116868.016, -367221.0, -20015.04, 0.013539869, -0.17658329, -115277.97, 138909.9, 0.0, 10.001678, 9.9982815 
2.1552011e+3, 2.840604e+2, -62293.02, -310539.1, -43475.645, 0.044059493, -0.14281593, -54899.29, 101302.83, 0.000000100631844, 10.001436, 9.998134 
2.1552253e+3, 2.9406118e+2, -120610.18, -235930.11, 11896.968, 0.11181825, 0.043305196, -119395.62, -61200.117, 0.0000031808167, 10.000159, 9.998566 
2.1552493e+3, 3.0405933e+2, 13599.38, 26110.828, 119309.734, -0.06564099, -0.08558142, 139328.72, 139328.72, 0.000016664693, 9.999954, 10.000178 
2.1552752e+3, 3.1406146e+2, 218512.86, 6342.213, 130320.71, -0.075954676, -0.004501733, 280467.97, 280467.97, 0.000045618737, 10.001884, 9.999048 
2.1648355e+3, 1.3403533e+2, -1887716.1, -1607586.1, 842.5203, -0.059114736, -0.25776783, -1607583.5, 18858.207, 0.45757636, 9.997549, 10.001266 
2.164862e+3, 1.4403807e+2, -1660125.0, -1504268.5, -10405.304, 0.16090581, -0.09134554, -1503576.9, 24841.658, 0.3088363, 9.998529, 10.000865 
2.1648864e+3, 1.5404053e+2, -1434693.6, -1293408.0, 21795.793, -0.026499724, -0.052672476, -1290122.0, 140273.9, 0.17204043, 9.999172, 10.001402 
2.1649116e+3, 1.6404167e+2, -1475153.4, -1399630.8, -40409.77, -0.047111776, -0.01555926, -1382085.1, -49700.01, 0.07433442, 9.998884, 9.999995 
2.1649373e+3, 1.7404151e+2, -1359969.3, -1263818.5, -33864.176, 0.060158543, -0.08331175, -1253088.9, -18702.912, 0.022589553, 9.99893, 10.000202 
2.1649624e+3, 1.840414e+2, -1282430.6, -1187927.1, -15704.335, 0.13099113, -0.106815726, -1185385.8, -48999.125, 0.00413868, 9.998849, 10.000097 
2.164987e+3, 1.9404122e+2, -1139534.9, -1049881.8, -26347.313, 0.12643975, -0.17815451, -1042712.1, -4323.8594, 0.00045452762, 9.999115, 10.000223 
2.165011e+3, 2.0404178e+2, -1024891.25, -982358.06, -45658.715, 0.102869324, -0.12975167, -953256.1, -12873.055, 0.000007502901, 9.999323, 9.999938 
2.165034e+3, 2.140433e+2, -846925.3, -821296.25, -79782.09, -0.011659142, -0.018228592, -753306.06, 89062.54, 0.0, 9.999822, 10.000102 
2.1650581e+3, 2.240433e+2, -785794.3, -886966.9, -43603.51, -0.05496213, 0.029950798, -769595.6, -25225.701, 0.0, 10.000177, 9.998822 
2.1650834e+3, 2.3404086e+2, -635247.9, -754500.1, -42683.344, -0.02250308, -0.13363296, -621545.0, 24850.674, 0.0, 10.000529, 9.99887 
2.1651082e+3, 2.4403991e+2, -464985.5, -587654.56, -100874.05, 0.03263155, -0.13190097, -408262.84, 140142.89, 0.0, 10.00083, 9.999228 
2.1651316e+3, 2.5404087e+2, -320090.28, -428206.1, -146487.28, 0.061134607, -0.010312452, -218004.73, 232389.98, 0.0, 10.001053, 9.999502 
2.1651553e+3, 2.6404035e+2, -307994.88, -527869.2, -104984.336, 0.07476226, 0.045134548, -265919.25, 86479.914, 0.0, 10.001068, 9.998177 
2.1651793e+3, 2.7403724e+2, -242109.17, -428435.72, -97722.57, 0.08889835, -0.12245185, -200257.27, 54172.934, 0.0, 10.000824, 9.998272 
2.1652034e+3, 2.8403553e+2, -97084.516, -303985.3, -82132.93, 0.1606482, -0.13109954, -68444.78, 88003.11, 0.0000000029805467, 10.001071, 9.998364 
2.1652268e+3, 2.940357e+2, 146413.13, -76260.04, -88953.664, 0.172731, -0.014429761, 177584.75, 236031.48, 0.000001345268, 10.001873, 9.998828 
2.1652508e+3, 3.040364e+2, 325183.2, 168610.27, 31038.781, 0.012149467, 0.09039854, 331111.78, 331111.78, 0.000010778314, 10.002109, 10.000124 
2.1652773e+3, 3.1403598e+2, 141245.61, -135413.03, -167946.67, -0.030210027, -0.04443917, 220496.34, 220496.34, 0.00003608632, 10.001806, 9.998113 
2.1748364e+3, 1.3401155e+2, -1953730.6, -1751340.9, -148548.03, 0.17809108, -0.13093099, -1672794.4, -46122.664, 0.48078975, 9.997933, 9.999833 
2.1748598e+3, 1.4401174e+2, -1607704.8, -1490198.9, 38640.195, -0.024427874, -0.20758156, -1478631.3, 50042.383, 0.32934, 9.998926, 10.000842 
2.1748857e+3, 1.5401456e+2, -1449695.8, -1335035.1, 39272.645, -0.054202054, -0.10088917, -1322873.6, 107774.484, 0.18832743, 9.9992485, 10.001037 
2.1749114e+3, 1.6401604e+2, -1443726.0, -1382555.8, -57220.613, -0.018736826, -0.0022192714, -1348259.1, -15623.939, 0.0852701, 9.999079, 10.000017 
2.1749365e+3, 1.7401597e+2, -1317768.4, -1195739.8, -18073.398, 0.036394946, -0.10253372, -1193119.3, 41517.008, 0.028395085, 9.999006, 10.000632 
2.174961e+3, 1.8401654e+2, -1267644.6, -1180023.3, -22503.33, 0.03453922, -0.0869958, -1174581.8, -37950.453, 0.006367479, 9.998946, 10.000101 
2.1749854e+3, 1.9401799e+2, -1151211.6, -1062158.8, -8714.361, 0.024916984, 0.0075775236, -1061314.0, -22696.127, 0.0009868387, 9.999067, 10.0001545 
2.1750097e+3, 2.0401838e+2, -1091701.5, -1084929.3, -41756.96, 0.008260961, 0.07223655, -1046421.4, -105806.58, 0.000047582707, 9.999154, 9.999323 
2.1750344e+3, 2.1401721e+2, -920670.5, -921112.25, -50821.67, 0.010127086, -0.028579054, -870069.2, -27442.346, 0.00000000032497088, 9.999588, 9.999531 
2.175059e+3, 2.2401653e+2, -834198.2, -890234.4, -42118.3, -0.0039125383, -0.026055362, -811630.06, -66995.33, 0.0, 9.999768, 9.998995 
2.1750845e+3, 2.3401627e+2, -658675.75, -736833.3, -15548.055, 0.0006742065, 0.0032894406, -655696.3, -9057.445, 0.0, 10.000254, 9.999116 
2.175109e+3, 2.4401532e+2, -579950.2, -714410.8, -105860.53, -0.022545151, 0.020138487, -521775.7, 26873.557, 0.0, 10.000361, 9.998574 
2.1751316e+3, 2.5401336e+2, -408741.97, -549385.06, -122466.95, -0.057933655, -0.08488794, -337842.88, 112825.66, 0.0, 10.000784, 9.9987955 
2.1751556e+3, 2.640128e+2, -338727.5, -477392.78, -126261.96, -0.041025992, -0.02023094, -264014.7, 88659.65, 0.0, 10.000606, 9.998733 
2.1751806e+3, 2.740133e+2, -239717.42, -352316.75, -85980.305, 0.13056299, 0.1024554, -193244.2, 61426.273, 0.0, 10.000545, 9.998917 
2.175205e+3, 2.8401148e+2, -171616.47, -336693.72, -70206.3, 0.1646538, 0.05083741, -145796.67, 10891.856, 0.0, 10.000569, 9.998371 
2.1752273e+3, 2.9400802e+2, 85053.11, -122930.14, -40580.8, -0.009212746, -0.20864868, 92690.6, 151411.48, 0.00000028754212, 10.001527, 9.998671 
2.1752532e+3, 3.0401078e+2, 54691.92, -197311.98, -13414.8125, -0.024662638, 0.22165067, 55404.016, 55404.016, 0.0000061263827, 10.001335, 9.997945 
2.1752805e+3, 3.14008e+2, -125797.81, -434479.56, -38730.902, 0.04915023, 0.045291092, -121012.36, -121012.36, 0.000027574106, 10.00076, 9.996535 
2.1848589e+3, 1.4398828e+2, -1714159.5, -1584169.8, -54386.805, 0.057306357, -0.16010013, -1564416.4, -35512.742, 0.34983045, 9.998372, 10.000296 
2.1848853e+3, 1.5398937e+2, -1490676.6, -1451958.8, 1389.3004, -0.024984816, -0.08388063, -1451909.0, -21013.04, 0.2059314, 9.9994335, 10.000013 
2.1849103e+3, 1.6398989e+2, -1566452.8, -1426162.5, -67020.48, 0.030499678, -0.036540955, -1399291.6, -66399.0, 0.09816949, 9.998195, 10.000135 
2.1849358e+3, 1.7399038e+2, -1316041.6, -1172231.6, -57681.383, 0.075851485, -0.095023744, -1151954.9, 82932.7, 0.036017943, 9.998979, 10.000795 
2.1849602e+3, 1.8399113e+2, -1155399.6, -1140358.6, -50893.11, 0.0432667, -0.067981996, -1096433.4, 40447.313, 0.009796201, 9.99973, 10.000014 
2.1849851e+3, 1.9399245e+2, -952513.9, -978941.0, -62760.207, 0.035420705, 0.01936186, -901591.3, 137277.42, 0.0020521113, 10.000442, 10.000072 
2.1850103e+3, 2.039926e+2, -898701.25, -1010751.1, -56996.195, 0.06363866, 0.07384929, -874805.25, 66062.91, 0.00020967671, 10.000582, 9.999141 
2.1850346e+3, 2.1399094e+2, -799763.56, -885162.2, -70717.16, 0.04107187, -0.055178963, -759854.5, 83031.016, 0.00000086887735, 10.000519, 9.999333 
2.1850593e+3, 2.2399022e+2, -760447.1, -837924.2, -27166.473, 0.04322113, -0.049830426, -751870.9, -6977.1494, 0.0, 10.000175, 9.99917 
2.185085e+3, 2.3399082e+2, -738793.56, -744792.44, -27918.643, 0.07294077, 0.0423351, -713713.7, -66824.336, 0.0, 9.999579, 9.999385 
2.1851096e+3, 2.439901e+2, -687177.8, -752727.2, -42257.68, 0.07182312, 0.060754232, -666474.56, -117577.44, 0.0, 9.999555, 9.998707 
2.1851325e+3, 2.539874e+2, -448656.7, -559761.75, -30688.52, -0.022663396, -0.1251658, -440743.72, 10179.56, 0.0, 10.00045, 9.998896 
2.1851565e+3, 2.63987e+2, -277574.8, -437242.22, -19092.822, -0.0042778174, -0.060163423, -275323.47, 77604.586, 0.0, 10.000944, 9.998864 
2.1851817e+3, 2.739887e+2, -162421.75, -302915.06, -52430.914, 0.1478, 0.18120438, -145012.3, 109901.305, 0.0, 10.001002, 9.999051 
2.1852058e+3, 2.8398713e+2, -109858.31, -337211.44, -21888.133, 0.1824429, 0.1522603, -107770.234, 49159.8, 0.0, 10.001087, 9.998139 
2.1852285e+3, 2.9398197e+2, 256.31552, -220898.45, -61274.793, -0.00014655017, -0.23116381, 16098.7, 75077.99, 0.000000027227998, 10.001161, 9.998192 
2.1852556e+3, 3.039844e+2, 76246.734, -275156.84, 41497.02, 0.09992917, 0.2271842, 81080.59, 81080.59, 0.0000044959556, 10.001776, 9.997246 
2.185283e+3, 3.1398132e+2, 263915.78, -66258.87, -22661.586, 0.1331632, 0.108854644, 265463.9, 265463.9, 0.000025056477, 10.00252, 9.998294 
2.1948582e+3, 1.439654e+2, -1689970.0, -1536295.6, -327493.34, 0.022111468, 0.02582497, -1276746.4, 252385.25, 0.371045, 9.998545, 10.001152 
2.1948843e+3, 1.539643e+2, -1555894.1, -1623656.9, -41562.613, -0.10752157, 0.00041430083, -1536152.8, -105006.445, 0.22535217, 9.999592, 9.998763 
2.1949077e+3, 1.6396308e+2, -1523081.4, -1369916.5, -94856.82, -0.1167041, -0.107721925, -1324586.3, 8573.188, 0.113554515, 9.998346, 10.000453 
2.1949348e+3, 1.7396438e+2, -1336689.1, -1210935.9, -17490.799, 0.048723925, -0.06324968, -1208548.5, 26595.28, 0.046104282, 9.998971, 10.000524 
2.1949597e+3, 1.8396467e+2, -1144625.1, -1134368.5, -30933.762, -0.03330314, -0.06398577, -1108140.9, 28998.496, 0.015073848, 9.9998, 10.000025 
2.1949859e+3, 1.9396459e+2, -952936.25, -966556.06, -31373.742, 0.021310199, -0.12519866, -927641.9, 111498.8, 0.004138987, 10.000391, 10.000183 
2.195011e+3, 2.039645e+2, -917359.9, -1007442.0, -77936.28, 0.053849712, -0.10704921, -872385.6, 68756.76, 0.00072646124, 10.000405, 9.999246 
2.1950342e+3, 2.1396425e+2, -832884.94, -891338.6, -64568.547, -0.06824054, -0.10426672, -791236.5, 51910.402, 0.000022642807, 10.000258, 9.999408 
2.1950583e+3, 2.2396426e+2, -804527.9, -836149.9, -60086.016, -0.11019565, -0.041255843, -758207.44, -13059.039, 0.000000000011542125, 9.999773, 9.999374 
2.1950845e+3, 2.3396446e+2, -753897.9, -724271.56, -37552.16, 0.049789526, -0.017362293, -698716.5, -51568.855, 0.0, 9.999354, 9.999632 
2.1951096e+3, 2.4396418e+2, -703503.44, -677714.3, -30158.7, 0.09415201, 0.000025450066, -657809.25, -108659.2, 0.0, 9.999103, 9.999433 
2.1951336e+3, 2.5396284e+2, -430319.8, -465737.8, 15490.7, 0.011154326, -0.13282387, -424500.72, 26660.379, 0.0, 10.00021, 9.999656 
2.1951574e+3, 2.639625e+2, -381248.34, -535263.5, -31027.543, -0.042024747, -0.08382707, -375232.6, -22067.451, 0.0, 10.000464, 9.998405 
2.1951811e+3, 2.7396315e+2, -246646.17, -398033.47, -33571.12, -0.0148280915, 0.09952869, -239535.55, 15627.532, 0.0, 10.000686, 9.99853 
2.1952054e+3, 2.8396186e+2, -229076.23, -465977.7, -37268.094, -0.020592414, 0.15387437, -223351.75, -66172.805, 0.0, 10.000605, 9.997476 
2.1952303e+3, 2.939575e+2, -107504.72, -368466.56, -31290.658, 0.017202483, -0.07829585, -103805.26, -44582.64, 0.000000020729713, 10.000844, 9.997325 
2.1952571e+3, 3.039566e+2, -9915.153, -266532.78, 67814.37, 0.02112767, 0.09426947, 6903.355, 6903.355, 0.0000055230016, 10.001025, 9.997631 
2.1952835e+3, 3.1395394e+2, 282797.44, 270275.44, 28378.55, -0.12599246, -0.082444794, 305597.47, 305597.47, 0.000029811183, 10.001347, 10.001117 
2.2048564e+3, 1.4393823e+2, -1590290.1, -1437999.6, -277045.2, -0.00011062979, -0.11721743, -1226826.0, 302579.3, 0.39437363, 9.999038, 10.001804 
2.2048846e+3, 1.5393972e+2, -1715377.6, -1704541.6, -91080.4, 0.026524298, 0.18435858, -1618718.3, -187326.84, 0.24751917, 9.998543, 9.998711 
2.2049072e+3, 1.6393653e+2, -1346176.5, -1276524.1, -95654.34, -0.028592383, -0.14121145, -1209553.4, 123868.62, 0.13222682, 9.999503, 10.000641 
2.204934e+3, 1.7393804e+2, -1296915.4, -1226029.4, -35819.23, 0.09093734, -0.05960996, -1211081.6, 24321.762, 0.059555795, 9.999318, 10.000295 
2.2049597e+3, 1.8393838e+2, -1298929.6, -1202969.5, -11856.316, 0.058387898, -0.041840468, -1201526.3, -64128.23, 0.023171267, 9.998704, 10.000094 
2.2049858e+3, 1.9393802e+2, -1182074.4, -1062606.8, -38983.188, 0.0654125, -0.14060123, -1051011.6, -11609.664, 0.008108057, 9.99875, 10.000336 
2.205011e+3, 2.0393823e+2, -1094704.4, -1054738.3, -50345.098, 0.091966465, -0.11686789, -1020555.3, -79154.4, 0.0021629941, 9.999019, 9.9995985 
2.205035e+3, 2.1393883e+2, -848570.94, -864011.25, -40400.336, 0.011359022, -0.061383247, -815159.75, 28237.342, 0.00023583506, 9.999976, 9.9997425 
2.2050591e+3, 2.2393905e+2, -724466.75, -777888.9, -36393.395, -0.013779349, -0.004298786, -706034.06, 39362.492, 0.0000019906881, 10.000235, 9.999559 
2.2050837e+3, 2.3393898e+2, -703028.1, -686068.4, -59335.78, 0.02477343, -0.019209564, -634609.6, 12788.448, 0.0, 9.999631, 9.999778 
2.2051084e+3, 2.4393883e+2, -642684.1, -627515.25, -1911.1763, 0.06901147, -0.0021520671, -627278.1, -77879.18, 0.0, 9.999417, 9.999632 
2.205134e+3, 2.539384e+2, -458756.84, -442187.88, -24687.602, 0.06477926, -0.06574029, -424431.8, 26968.707, 0.0, 9.999911, 9.999938 
2.2051585e+3, 2.6393795e+2, -399001.75, -559844.9, -72177.94, 0.04106532, -0.034159664, -371361.84, -17956.979, 0.0, 10.000396, 9.998278 
2.2051816e+3, 2.7393717e+2, -213261.03, -415580.63, -75777.92, -0.048067708, 0.02413538, -188026.22, 67390.84, 0.0, 10.001014, 9.998273 
2.2052063e+3, 2.8393608e+2, -59505.21, -360711.25, -2541.9731, -0.023610827, 0.10387545, -59483.76, 97946.3, 0.0, 10.001666, 9.997685 
2.205233e+3, 2.939333e+2, 186497.84, -194622.5, 13155.909, 0.12737328, 0.01898621, 186951.44, 246409.27, 0.00000007580395, 10.00273, 9.997614 
2.2052595e+3, 3.039309e+2, 232712.52, -195739.94, 158809.2, 0.10032673, 0.029941408, 285156.94, 285156.94, 0.0000083740215, 10.002842, 9.997273 
2.2052863e+3, 3.1392837e+2, 305200.13, 281578.72, -105014.45, 0.043470867, -0.05526229, 399065.94, 399065.94, 0.000042885644, 10.001434, 10.00116 
2.2148569e+3, 1.4391147e+2, -1516794.0, -1385753.1, -27945.637, 0.014806422, -0.09150214, -1380042.4, 149636.75, 0.4221777, 9.99899, 10.002061 
2.2148858e+3, 1.5391521e+2, -1655364.4, -1568773.8, -14844.6455, 0.26276043, 0.45040336, -1566299.6, -134663.56, 0.27423543, 9.998512, 9.999663 
2.2149087e+3, 1.6391003e+2, -1305694.5, -1242672.8, -98071.414, 0.076414295, -0.1217937, -1171174.1, 162507.7, 0.15564767, 9.999727, 10.000805 
2.2149333e+3, 1.7391135e+2, -1293644.1, -1222445.0, -45459.5, 0.047989298, -0.07370923, -1200304.6, 35361.742, 0.07778218, 9.999339, 10.000306 
2.2149594e+3, 1.8391223e+2, -1292008.9, -1199910.0, -35499.15, 0.11548056, -0.0008160297, -1187815.3, -50158.586, 0.035576556, 9.998748, 10.000096 
2.2149844e+3, 1.939127e+2, -1194302.8, -1056354.9, -27445.885, 0.03161121, -0.022788946, -1051094.8, -11441.513, 0.0154146915, 9.998623, 10.000433 
2.2150093e+3, 2.039136e+2, -1081496.9, -984976.06, -27547.031, -0.021959987, 0.03549531, -977667.56, -36021.945, 0.005714695, 9.998829, 10.000168 
2.2150363e+3, 2.1391453e+2, -837026.9, -790017.9, 7653.9478, 0.122966856, 0.06310926, -788803.06, 54834.344, 0.0013616167, 9.99976, 10.000352 
2.2150607e+3, 2.2391474e+2, -790707.1, -815292.56, -69645.46, 0.10814559, 0.089924164, -732277.9, 13358.294, 0.00013056793, 9.999807, 9.999508 
2.2150818e+3, 2.3391409e+2, -744443.56, -712544.1, -69183.2, -0.13884449, 0.021770872, -657495.9, -9852.612, 0.0000045921656, 9.999372, 9.999722 
2.2151054e+3, 2.439138e+2, -742222.0, -715945.3, -9346.621, -0.21462175, 0.04582586, -712959.9, -163313.95, 0.000000030624218, 9.998934, 9.999247 
2.2151336e+3, 2.5391382e+2, -528410.44, -515418.66, 5969.477, 0.0010678001, 0.06327094, -513092.34, -61448.5, 0.0, 9.999622, 9.999565 
2.2151592e+3, 2.6391295e+2, -462573.0, -580527.5, -69316.89, 0.043453235, 0.067164786, -430538.47, -76886.31, 0.0, 9.999941, 9.998345 
2.2151823e+3, 2.739106e+2, -250871.23, -414325.2, -41274.74, -0.107496426, -0.045262586, -241040.02, 14636.171, 0.0, 10.000694, 9.998423 
2.2152078e+3, 2.8390974e+2, -102436.37, -308945.25, 13536.238, -0.09561869, 0.0140895955, -101552.875, 56131.848, 0.0, 10.001087, 9.998305 
2.2152361e+3, 2.9390892e+2, 188258.7, -92748.766, 74145.69, 0.147824, 0.044044394, 206622.47, 266312.13, 0.00000027397763, 10.002331, 9.998492 
2.2152622e+3, 3.0390668e+2, 60353.902, -383614.7, 93222.125, 0.011680948, 0.048981678, 79133.79, 79133.79, 0.000015050563, 10.00216, 9.996282 
2.2152881e+3, 3.1390268e+2, -92936.7, -272989.25, 15228.533, 0.0064787096, -0.053996462, -91657.78, -91657.78, 0.00007034586, 10.000337, 9.997846 
2.2248513e+3, 1.4388372e+2, -1726361.5, -1629316.6, 479021.75, -0.45768586, 0.30385584, -1196366.0, 333580.03, 0.45833316, 9.998976, 10.000671 
2.224886e+3, 1.5388532e+2, -1365794.9, -1327753.9, -76168.85, 0.37031102, 0.1769362, -1268266.6, 163659.19, 0.30885017, 10.0001335, 10.000821 
2.224908e+3, 1.638837e+2, -1645477.8, -1427625.6, -87355.87, 0.14973459, -0.07031629, -1396923.9, -62985.098, 0.18666483, 9.997449, 10.000501 
2.224933e+3, 1.738849e+2, -1324788.3, -1213120.5, -60238.688, 0.107214406, -0.04248472, -1186819.6, 49106.9, 0.103338934, 9.999036, 10.000522 
2.2249597e+3, 1.8388608e+2, -1175430.5, -1134312.8, -35362.91, 0.23545477, 0.038029507, -1113966.9, 23948.154, 0.054786276, 9.999487, 10.000208 
2.2249834e+3, 1.9388655e+2, -1061518.6, -987395.25, -49008.0, 0.0527708, 0.008603998, -963013.06, 76897.48, 0.028543482, 9.999481, 10.000504 
2.225008e+3, 2.0388727e+2, -1003548.25, -940472.9, -26117.115, -0.035914797, 0.037878864, -931062.7, 10841.631, 0.013685946, 9.9993305, 10.000235 
2.2250359e+3, 2.1388817e+2, -926222.4, -827016.4, -63442.957, 0.13208584, 0.060926773, -796086.94, 47810.047, 0.005262215, 9.999129, 10.000409 
2.2250608e+3, 2.2388843e+2, -863247.7, -857172.25, -139112.5, 0.1618672, 0.091866165, -721064.3, 24831.352, 0.001420654, 9.999306, 9.999473 
2.2250818e+3, 2.338878e+2, -641766.56, -664842.44, -157567.06, -0.101891406, 0.028317532, -495315.56, 152586.66, 0.0002619265, 10.000056, 9.999729 
2.2251052e+3, 2.4388738e+2, -527891.56, -627293.44, -55822.082, -0.18015192, 0.048149966, -502851.0, 47054.844, 0.000035642544, 10.000458, 9.999129 
2.2251333e+3, 2.5388727e+2, -383918.78, -461345.72, -41260.4, -0.011690157, 0.06027529, -366053.5, 85851.94, 0.0000011567587, 10.00063, 9.999479 
2.2251597e+3, 2.6388624e+2, -353267.9, -511276.22, -81175.63, 0.07006369, 0.05273464, -318997.44, 34916.586, 0.0, 10.000608, 9.998511 
2.2251838e+3, 2.7388403e+2, -230299.0, -371429.53, -91595.62, -0.0030997866, -0.06259411, -185238.95, 70695.914, 0.0, 10.000731, 9.998697 
2.2252098e+3, 2.8388306e+2, -147125.2, -333116.63, -17610.564, 0.034760322, -0.026362771, -145472.44, 12470.913, 0.0, 10.000771, 9.998312 
2.2252378e+3, 2.938816e+2, 27806.84, -174352.5, -47399.16, 0.13383958, -0.041974183, 38368.473, 98324.83, 0.00000073017384, 10.001255, 9.998448 
2.2252645e+3, 3.038806e+2, 73924.266, -293727.78, -34851.297, 0.07255325, 0.04087159, 77198.805, 77198.805, 0.00002755439, 10.001866, 9.997065 
2.2252898e+3, 3.1387612e+2, 206241.7, -77421.27, -96491.62, 0.067564555, -0.13315523, 235952.64, 235952.64, 0.000118261974, 10.002105, 9.998387 
2.2348845e+3, 1.5385075e+2, -1388498.5, -1265748.4, -266704.2, 0.15927742, -0.5518121, -1053448.4, 378805.0, 0.35698506, 9.999861, 10.001891 
2.2349043e+3, 1.6385661e+2, -1719092.3, -1581625.0, -74296.6, -0.03314896, -0.061747514, -1549144.5, -214943.39, 0.23053116, 9.997446, 9.999445 
2.2349326e+3, 1.7385842e+2, -1314001.9, -1175072.9, -2408.2158, 0.12698145, 0.012646416, -1175031.1, 61155.523, 0.14104874, 9.998939, 10.00086 
2.2349595e+3, 1.8385984e+2, -1165815.5, -1109330.5, -47851.492, 0.1944483, 0.07094408, -1082008.6, 56164.934, 0.08532412, 9.999463, 10.000409 
2.2349827e+3, 1.9385949e+2, -1075220.8, -990466.7, -41677.37, -0.011531428, -0.04314181, -973406.25, 66768.04, 0.05187056, 9.999367, 10.000549 
2.2350065e+3, 2.0385933e+2, -1075238.6, -1032844.4, -48702.465, -0.15705319, -0.0772859, -1000926.06, -58750.26, 0.030293982, 9.999091, 9.999714 
2.2350329e+3, 2.1385957e+2, -993717.4, -912256.5, -62397.07, -0.09243498, -0.07257936, -878472.75, -34295.098, 0.015773455, 9.998891, 9.999936 
2.2350584e+3, 2.2385989e+2, -932463.0, -887806.44, -126164.6, -0.049270038, -0.009283154, -782009.56, -35832.508, 0.0069356123, 9.998834, 9.999478 
2.2350828e+3, 2.3386006e+2, -671042.2, -666100.1, -113476.21, -0.028090209, -0.008415286, -555068.06, 93107.07, 0.002541045, 9.999802, 9.999835 
2.2351071e+3, 2.4385968e+2, -602575.44, -665145.0, -65867.695, -0.06257716, 0.014268558, -560940.44, -10762.725, 0.00075579167, 9.999971, 9.999092 
2.235133e+3, 2.5385875e+2, -421887.47, -461138.4, -22495.836, -0.12266851, -0.07224307, -411659.6, 40524.605, 0.00014769337, 10.000296, 9.999633 
2.2351587e+3, 2.638579e+2, -448342.8, -563689.25, -104946.77, -0.1078742, -0.06638014, -386266.2, -32076.11, 0.000007045108, 10.000014, 9.99842 
2.2351858e+3, 2.7385715e+2, -275860.5, -389326.78, -75038.44, 0.095770516, -0.04339744, -238522.3, 17672.795, 0.00000000065814787, 10.00041, 9.998714 
2.2352117e+3, 2.8385562e+2, -292593.03, -489269.28, -35464.94, 0.11858401, -0.039217394, -286393.38, -128182.84, 0.0, 10.000192, 9.997494 
2.2352368e+3, 2.9385138e+2, -133568.92, -376456.5, -6802.2593, -0.104511395, -0.24691875, -133378.58, -73122.336, 0.0000012574419, 10.000727, 9.997289 
2.2352657e+3, 3.03852e+2, 35045.402, -147229.67, -46043.766, -0.06153262, 0.0048734685, 46016.04, 46016.04, 0.000044073433, 10.000947, 9.998489 
2.2352922e+3, 3.138515e+2, 241750.56, 325711.1, 5877.971, 0.03104042, 0.021451373, 326120.63, 326120.63, 0.00018419352, 10.000798, 10.001751 
2.2448882e+3, 1.538314e+2, -1512365.3, -1584126.3, -169300.33, 0.4625631, -0.08012649, -1375185.1, 57255.234, 0.42759266, 10.000079, 9.998696 
2.2449045e+3, 1.6383119e+2, -1161560.4, -1324124.4, 55676.848, 0.05543525, -0.06510443, -1144319.9, 190129.52, 0.29616648, 10.001932, 9.999112 
2.2449319e+3, 1.7383221e+2, -1166568.4, -1177410.3, 46391.668, 0.1062104, -0.00862972, -1125282.0, 111162.72, 0.19952731, 10.000401, 10.00018 
2.244958e+3, 1.8383276e+2, -1211528.4, -1153581.4, -24895.748, 0.14380474, 0.01578758, -1144354.6, -5913.659, 0.13536815, 9.999253, 10.000169 
2.2449821e+3, 1.9383252e+2, -1008553.9, -980544.4, -59350.7, -0.0033264926, -0.07481886, -933568.5, 106871.24, 0.09319166, 9.999922, 10.000388 
2.2450069e+3, 2.038327e+2, -950634.5, -1002218.75, -58362.258, -0.07172832, -0.059198342, -912619.2, 29818.637, 0.06306426, 10.00003, 9.999509 
2.2450328e+3, 2.1383318e+2, -945582.2, -920054.56, -88051.34, -0.0030748544, 0.0026643127, -843846.75, 591.6454, 0.0400799, 9.999328, 9.999695 
2.2450581e+3, 2.2383331e+2, -888212.2, -872026.1, -79533.2, 0.04697622, 0.06901391, -800175.25, -53735.73, 0.023131557, 9.999127, 9.999466 
2.2450833e+3, 2.338331e+2, -698063.94, -671106.9, -106863.51, 0.048158806, 0.024835993, -576875.25, 71564.64, 0.011994159, 9.999576, 9.999922 
2.2451079e+3, 2.4383244e+2, -617888.5, -689608.06, -61054.973, 0.039462913, 0.025420872, -582941.25, -32496.834, 0.0054928027, 9.999869, 9.999005 
2.2451338e+3, 2.5383162e+2, -507752.5, -505040.16, -58642.742, -0.044165496, -0.04424669, -447737.9, 4712.8374, 0.002050329, 9.999694, 9.999637 
2.2451594e+3, 2.6383084e+2, -486450.16, -565034.5, -93732.11, -0.00808007, -0.030555436, -424107.78, -69652.0, 0.0004876709, 9.999657, 9.998596 
2.2451873e+3, 2.738301e+2, -159723.4, -292962.72, -52597.152, 0.18508352, -0.036315877, -141462.92, 114996.77, 0.000047167257, 10.001018, 9.999099 
2.2452134e+3, 2.838287e+2, -99372.53, -387632.25, 20757.148, 0.21279787, -0.048748236, -97885.51, 60587.45, 0.00000034188096, 10.001456, 9.997595 
2.2452383e+3, 2.9382464e+2, 31327.547, -323789.03, 66126.38, -0.0834852, -0.20878899, 43241.273, 103758.73, 0.0000013302117, 10.001921, 9.997105 
2.2452673e+3, 3.038246e+2, 122975.45, -116986.06, 42343.703, 0.013476087, -0.02564738, 130228.23, 130228.23, 0.0000584347, 10.001535, 9.998426 
2.2452942e+3, 3.138242e+2, 173633.94, 431312.47, -183527.06, 0.23015831, 0.04065712, 526709.1, 526709.1, 0.00025945, 9.999613, 10.0030575 
2.2549078e+3, 1.6380863e+2, -1247509.8, -1431954.9, 15292.833, 0.048673593, 0.046579927, -1246250.4, 88421.58, 0.39765337, 10.001524, 9.998497 
2.2549309e+3, 1.7380612e+2, -1270973.4, -1415051.3, -17759.941, -0.10779644, -0.11223551, -1268816.5, -32113.867, 0.29298013, 10.000387, 9.998437 
2.2549556e+3, 1.8380456e+2, -1331101.0, -1329585.3, -61245.91, -0.14392029, -0.15332793, -1269092.5, -130371.805, 0.21888196, 9.998953, 9.999088 
2.254982e+3, 1.9380514e+2, -1081570.8, -1061612.5, -38084.64, -0.08031801, -0.1156974, -1032221.25, 8490.597, 0.16615056, 9.999627, 9.999911 
2.255008e+3, 2.0380701e+2, -1004415.44, -1028053.56, -89399.88, -0.0141889, 0.07264457, -926056.7, 16637.072, 0.12546477, 9.999669, 9.999485 
2.2550346e+3, 2.1380873e+2, -988580.7, -948086.1, -102511.6, 0.21722361, 0.25474057, -863841.4, -19159.793, 0.0914258, 9.999081, 9.999597 
2.2550593e+3, 2.2380868e+2, -988703.2, -966636.8, -78685.72, 0.21944924, 0.32605016, -898214.5, -151531.08, 0.062582165, 9.99864, 9.999049 
2.2550826e+3, 2.3380671e+2, -745874.75, -709880.56, -77251.125, 0.0060012788, 0.12083874, -648557.9, 140.6288, 0.039919913, 9.999303, 9.999784 
2.2551069e+3, 2.4380548e+2, -749734.9, -783027.25, -87353.92, -0.09699991, 0.08664777, -677455.25, -126747.125, 0.023601582, 9.999126, 9.998705 
2.2551346e+3, 2.5380573e+2, -574160.6, -546427.4, -57672.895, 0.05126567, 0.12959573, -500977.5, -48271.73, 0.012405956, 9.999309, 9.999518 
2.255161e+3, 2.6380482e+2, -568218.7, -583617.06, -89160.19, 0.130439, 0.14249557, -486425.88, -131712.58, 0.005154125, 9.999044, 9.998748 
2.2551875e+3, 2.738027e+2, -191195.94, -226658.52, 9632.9795, 0.08986867, -0.07359818, -188748.2, 67981.48, 0.0013586987, 10.000486, 9.999791 
2.2552134e+3, 2.83802e+2, -200393.42, -392270.44, -8038.7007, 0.04316037, -0.077574655, -200057.22, -41323.098, 0.00015517221, 10.000625, 9.99794 
2.2552413e+3, 2.9380134e+2, -13370.173, -275958.9, 106188.65, -0.0066969064, 0.06278865, 24197.06, 84938.25, 0.0000026982873, 10.001394, 9.997645 
2.2552685e+3, 3.037986e+2, -115000.17, -423268.7, -48082.023, -0.081267126, 0.00064904714, -107674.68, -107674.68, 0.000065484004, 10.000794, 9.996652 
2.2552927e+3, 3.1379133e+2, -63687.992, 192820.98, -42257.773, 0.035011165, -0.39438504, 199603.28, 199603.28, 0.00034262822, 9.998609, 10.00188 
2.2649302e+3, 1.7378303e+2, -1290265.9, -1515454.6, -314041.75, -0.20509593, 0.48979577, -1069244.1, 167700.97, 0.44342524, 10.000505, 9.998177 
2.2649637e+3, 1.8378218e+2, -958232.06, -1122041.0, -53342.004, 0.5931379, 0.26363778, -942393.44, 196559.86, 0.3585124, 10.002043, 9.999135 
2.2649841e+3, 1.9378091e+2, -949772.75, -965100.0, -44152.56, 0.15648708, 0.13116184, -912623.7, 128332.7, 0.29413474, 10.000586, 10.000263 
2.2650063e+3, 2.037801e+2, -977860.06, -1038588.94, -61875.45, -0.14953291, 0.030995868, -939300.1, 3659.8381, 0.24160613, 9.999801, 9.999408 
2.26503e+3, 2.1378022e+2, -930400.44, -962227.0, -124483.19, -0.15708913, 0.09230942, -820817.5, 24145.105, 0.1940874, 9.999595, 9.999318 
2.2650555e+3, 2.2377968e+2, -715016.94, -839672.56, -17237.436, -0.116006054, 0.12606844, -712677.25, 34291.063, 0.14888066, 10.000528, 9.999042 
2.265082e+3, 2.3377836e+2, -423888.44, -574760.2, -46822.07, -0.08958459, 0.020973567, -410538.72, 238437.33, 0.108788945, 10.001803, 9.999583 
2.2651082e+3, 2.4377713e+2, -354647.1, -592445.56, -81694.59, -0.002946535, 0.011629117, -329286.03, 221698.89, 0.07581198, 10.001884, 9.998724 
2.2651355e+3, 2.5377733e+2, -400618.8, -468265.1, -82622.48, 0.17495449, 0.04014595, -345164.44, 107819.22, 0.048806984, 10.000421, 9.999605 
2.2651607e+3, 2.637766e+2, -471474.88, -540676.94, -26711.568, 0.20355247, 0.07778704, -462363.9, -107374.59, 0.026684597, 9.999619, 9.998812 
2.2651875e+3, 2.7377522e+2, -105528.766, -188644.66, 11338.785, 0.026662944, -0.07124634, -104009.68, 152989.95, 0.010897145, 10.000992, 9.9998665 
2.2652136e+3, 2.8377467e+2, -179593.84, -331020.1, -55342.895, 0.03879141, -0.07270349, -161523.64, -2522.0574, 0.002788968, 10.000493, 9.998458 
2.2652446e+3, 2.937744e+2, 140770.86, -116525.03, 96932.56, 0.17547852, 0.053259663, 173201.2, 234203.88, 0.0003034348, 10.002108, 9.99841 
2.2652715e+3, 3.0377105e+2, 157239.73, -370893.66, -54876.2, 0.045922082, -0.12372593, 162881.42, 162881.42, 0.000074942734, 10.003043, 9.995952 
2.2652932e+3, 3.137642e+2, 345566.53, 96570.805, -78977.57, 0.028223185, -0.20147169, 368504.0, 368504.0, 0.00045627946, 10.002527, 9.999452 
2.2750075e+3, 2.037555e+2, -887324.25, -1203485.0, 33479.46, -0.074936576, 0.21825388, -883817.8, 59384.36, 0.4526298, 10.001792, 9.997247 
2.275031e+3, 2.1375278e+2, -1002019.6, -1067318.0, -196620.02, -0.046499465, 0.041295085, -835356.5, 9875.077, 0.38963944, 9.999465, 9.998553 
2.2750598e+3, 2.2375135e+2, -1238065.3, -1146509.5, -208677.13, 0.18967472, -0.0016404202, -978648.0, -231402.78, 0.32267725, 9.997164, 9.998496 
2.2750865e+3, 2.3374853e+2, -838853.94, -811156.44, -56580.246, 0.14814459, -0.25152627, -766754.75, -117487.08, 0.25840095, 9.998955, 9.999192 
2.2751118e+3, 2.4374606e+2, -630383.1, -831064.5, -122511.1, 0.046463158, -0.31372318, -572365.94, -21077.723, 0.20062341, 10.000338, 9.997784 
2.2751367e+3, 2.5374606e+2, -522706.88, -499124.63, -113270.98, 0.1921608, -0.36945012, -397032.72, 56254.426, 0.14660953, 9.999501, 9.999806 
2.2751589e+3, 2.6374668e+2, -814411.2, -837354.5, -36730.23, -0.00223456, -0.16856386, -787402.9, -432123.1, 0.09444842, 9.997881, 9.997566 
2.2751872e+3, 2.7374843e+2, -233619.19, -311635.5, 65253.39, -0.14871015, 0.023685573, -196603.39, 60657.816, 0.04983968, 10.000428, 9.999242 
2.2752139e+3, 2.8374758e+2, -349939.84, -413155.03, -126252.3, -0.060749155, 0.031497426, -251398.75, -92131.22, 0.019500945, 9.999389, 9.998391 
2.2752471e+3, 2.937442e+2, 68753.28, -69057.086, 173494.58, 0.195909, -0.2622832, 186525.06, 247823.48, 0.004786881, 10.0013275, 9.999075 
2.2752744e+3, 3.0374184e+2, -97447.516, -550996.1, -132613.1, -0.038509827, -0.39506444, -61518.914, -61518.914, 0.0007184054, 10.001664, 9.995321 
2.2752932e+3, 3.1374347e+2, -249767.58, -644154.2, 35118.035, -0.2970705, 0.4683529, -246664.9, -246664.9, 0.0007782504, 10.000637, 9.99516 
2.2851177e+3, 2.4373114e+2, -727775.06, -417552.44, 95668.27, 0.65743524, 0.48347875, -390422.3, 161013.4, 0.45869297, 9.996191, 10.0041 
2.2851257e+3, 2.537218e+2, -742851.7, -689894.2, -34392.566, -0.7760665, -0.21495028, -672968.2, -219445.25, 0.36361384, 9.998239, 9.999222 
2.2851638e+3, 2.6372507e+2, -101148.33, -417844.97, 101759.04, 0.3652186, 0.2499925, -71270.47, 284217.75, 0.26167566, 10.002968, 9.998148 
2.2851965e+3, 2.737236e+2, 423758.06, -22617.025, 216513.34, 0.5038023, 0.16867661, 511521.8, 769022.75, 0.1640845, 10.005893, 9.999032 
2.285219e+3, 2.8372e+2, 238389.73, -115259.89, -28725.262, 0.33768368, -0.049993858, 240707.75, 400244.06, 0.0825175, 10.003521, 9.998543 
2.285248e+3, 2.9371896e+2, 478338.03, 171649.61, 345786.84, 0.033077314, -0.1384677, 703256.94, 764805.5, 0.030766653, 10.003855, 9.999668 
2.2852774e+3, 3.0371994e+2, 408130.4, 148472.11, 23967.623, 0.06435218, -0.1373762, 410324.2, 410324.2, 0.009050669, 10.002966, 9.999604 
2.285294e+3, 3.1372035e+2, -357843.13, -57399.746, 161756.53, -0.10281125, 0.1783742, 13131.206, 13131.206, 0.0039680507, 9.997074, 10.000898 
2.2951943e+3, 2.736931e+2, -818328.8, -617913.94, -960571.44, -0.33409393, -0.34231478, 247662.77, 505457.4, 0.43463716, 9.997107, 10.000149 
2.2952273e+3, 2.836896e+2, -1135977.3, -1229635.8, -385882.25, 0.7027302, -0.5718678, -794093.1, -634262.06, 0.25420374, 9.99584, 9.994465 
2.295247e+3, 2.9370183e+2, 247999.23, 70988.1, 444705.88, -0.5334761, 0.43217033, 612921.25, 674643.06, 0.12186605, 10.002612, 9.999618 
2.2952805e+3, 3.0370867e+2, -369769.2, 22756.521, -187107.69, -0.081969984, 0.95844465, 97654.87, 97654.87, 0.05425034, 9.996716, 10.001625 
2.2952975e+3, 3.1369397e+2, -23033.654, 1427602.6, -305211.66, 0.3660747, -1.4696362, 1489202.9, 1489202.9, 0.031975638, 9.9938545, 10.012755 
2.3052576e+3, 2.9368758e+2, -414600.03, -811882.3, -420612.47, -0.1383059, 0.44821313, -148081.89, -86222.23, 0.36333692, 9.999434, 9.995476 
2.3052928e+3, 3.036742e+2, 202861.14, 172871.58, 79171.31, 0.49886605, -1.2886151, 268445.16, 268445.16, 0.21821487, 10.000935, 10.001102 
2.3052941e+3, 3.1369436e+2, -28885.504, -1006300.7, 109748.43, -0.08945507, 1.098696, -16714.041, -16714.041, 0.171626, 10.003196, 9.992259 
2.3442483e+3, 2.8891033e+2, -463578.78, 302319.03, -737972.25, -0.42315868, 0.017706616, 750786.3, 859458.25, 0.47587648, 9.994431, 10.008579 
2.3576003e+3, 1.792778e+2, -1238797.4, -2269987.5, -605294.3, 0.5171668, -0.11298763, -959270.1, 223794.94, 0.43658435, 10.004508, 9.989983 
2.3572905e+3, 1.8926749e+2, -501267.16, -836185.0, 32223.361, -0.124836385, -0.31973174, -498195.03, 586979.2, 0.3777284, 10.006354, 9.998984 
2.3569919e+3, 1.992655e+2, -1291376.0, -1307224.9, -192869.98, 0.22393386, -0.20425782, -1106267.8, -119070.92, 0.33363435, 9.998021, 9.9981985 
2.3566814e+3, 2.0925893e+2, -1088792.6, -935119.06, -526553.06, -0.5149577, -0.39741218, -479826.13, 409439.88, 0.30109754, 9.998319, 10.000463 
2.3563845e+3, 2.1927048e+2, -1221553.4, -981043.06, -312400.06, 0.36532018, 0.9687472, -766551.94, 24604.594, 0.2783399, 9.996009, 10.000314 
2.3560813e+3, 2.2926976e+2, -308020.28, -390513.78, -239312.64, -0.023244096, 1.1639606, -106425.86, 586721.6, 0.2613125, 10.002117, 10.001371 
2.3557778e+3, 2.3925e+2, -1291255.5, -1019231.44, -495546.63, -0.68644965, -0.69415903, -641370.2, -46047.063, 0.24582522, 9.994567, 9.999427 
2.3554873e+3, 2.4924576e+2, -416374.16, -728184.9, -228674.98, 0.49669865, -0.5053193, -295514.75, 201858.73, 0.2302187, 10.00145, 9.997307 
2.3551863e+3, 2.592422e+2, -141985.67, -666317.4, -80018.484, 0.60886526, -0.20176297, -130045.91, 269376.22, 0.21018535, 10.00309, 9.996376 
2.3548713e+3, 2.6923656e+2, 496895.72, -4270.9653, -7399.8174, -0.009436118, -0.1876299, 497004.97, 798488.44, 0.1767482, 10.006264, 9.9991665 
2.3545672e+3, 2.792268e+2, -454201.22, -1295489.1, 482706.47, -0.3738853, -0.3449514, -234574.22, -30992.088, 0.13579644, 10.001696, 9.991442 
2.3542544e+3, 2.8922233e+2, 1034277.94, 692043.8, 13229.944, -0.34949625, -0.06492652, 1034788.6, 1140403.4, 0.12680243, 10.007135, 10.002539 
2.3539516e+3, 2.9922706e+2, -327606.06, 94776.336, 514682.75, -0.29170862, 0.030816132, 439912.44, 447467.63, 0.18572342, 9.996302, 10.003138 
2.3536584e+3, 3.092165e+2, -535760.3, -800581.2, -543248.7, 0.6673671, -0.20275405, -109018.086, -109018.086, 0.3099537, 9.999369, 9.994987 
2.3681948e+3, 1.5959094e+2, -1508762.0, -1337669.8, 252712.72, -1.3330932, 0.47930765, -1156416.6, 219584.98, 0.40917933, 9.997722, 10.001662 
2.3679063e+3, 1.6957623e+2, -888906.6, -945961.1, 50076.453, 0.56882983, -0.6746388, -859801.8, 418347.63, 0.31914386, 10.002612, 10.001543 
2.367598e+3, 1.7958328e+2, -887924.2, -1112031.3, 8775.469, 0.33585984, 0.28763324, -887581.06, 292508.28, 0.25440213, 10.0024605, 9.999071 
2.3672894e+3, 1.8958054e+2, -813368.06, -894479.4, 118043.766, -0.07270269, 0.57300836, -729107.5, 353010.63, 0.20803183, 10.001656, 10.000325 
2.3669817e+3, 1.9957846e+2, -792768.4, -912083.9, 158899.55, -0.3414353, 0.7583039, -682696.56, 301442.88, 0.17323136, 10.001062, 9.999761 
2.3666772e+3, 2.0956515e+2, -558521.0, -649327.1, 197500.1, -0.40355828, -0.11897273, -401272.3, 484998.1, 0.14628568, 10.001763, 10.000587 
2.366377e+3, 2.195508e+2, -357773.8, -542464.3, 196969.94, 0.034330264, -1.1910632, -232576.4, 555833.9, 0.12553912, 10.002531, 10.000343 
2.3660809e+3, 2.2955039e+2, -373267.25, -411246.2, 316234.72, 0.43250957, -0.83904046, -75452.36, 614951.94, 0.108313076, 10.001267, 10.0011015 
2.3657812e+3, 2.3955068e+2, -649000.7, -625208.5, 262074.25, 0.45625147, -0.4419076, -374760.47, 217631.38, 0.092006706, 9.998998, 9.999961 
2.3654737e+3, 2.495531e+2, -424600.03, -189999.8, 194970.89, -0.22957313, 0.12895574, -79763.17, 414612.72, 0.07587349, 9.9987755, 10.002447 
2.3651704e+3, 2.5955436e+2, -565060.1, -638459.1, 158866.33, -0.66473335, 0.62190443, -438709.4, -42336.07, 0.059167173, 9.998984, 9.99842 
2.3648669e+3, 2.6955086e+2, 46226.574, 191074.69, -22512.611, -0.34917265, 0.6367509, 194492.97, 492897.88, 0.040480368, 10.0006275, 10.002674 
2.3645681e+3, 2.7954477e+2, -298945.53, -456739.44, 234576.4, 0.007845595, 0.2953478, -130353.45, 70106.1, 0.022792675, 9.999988, 9.997701 
2.3642538e+3, 2.895339e+2, -12152.276, -181136.55, -117301.1, -0.33170125, -0.16484988, 47918.62, 150479.45, 0.018048033, 10.001126, 9.998224 
2.3639409e+3, 2.9952636e+2, -319217.97, -194081.02, 268549.13, -0.7222793, -0.7059928, 19092.13, 23723.38, 0.03862234, 9.997994, 9.999463 
2.3636416e+3, 3.0953255e+2, 227694.81, 488412.6, -147871.7, -0.41907713, 0.2711608, 555181.8, 555181.8, 0.085536964, 10.000318, 10.003169 
2.3784995e+3, 1.4990342e+2, -1625196.3, -1421040.3, 229359.52, -0.83473873, 0.5332786, -1272069.0, 198873.11, 0.38968346, 9.998025, 10.001319 
2.3782055e+3, 1.5988716e+2, -1736980.9, -1715539.6, 91688.81, 0.20125984, -0.8858755, -1633946.9, -260862.78, 0.27836236, 9.997804, 9.99831 
2.3778977e+3, 1.6988556e+2, -1327342.3, -1279671.8, 115935.91, -0.07303921, -0.48164025, -1185146.4, 89963.79, 0.19862524, 9.999353, 9.999792 
2.3775879e+3, 1.7988844e+2, -1162271.1, -1230923.0, 30189.71, -0.56902415, 0.14318138, -1150883.9, 26210.955, 0.1461588, 9.999995, 9.999215 
2.3772854e+3, 1.8988466e+2, -913921.0, -821514.8, 93151.22, -0.26227522, 0.1552736, -763737.75, 315393.44, 0.11113541, 10.000183, 10.001365 
2.3769851e+3, 1.9987865e+2, -1078878.4, -1058715.1, 146356.02, 0.23785691, -0.17970152, -922093.94, 59093.6, 0.08556882, 9.998997, 9.999596 
2.3766822e+3, 2.0987633e+2, -788457.25, -802295.2, 213328.42, 0.28072825, 0.055448625, -581935.6, 301273.8, 0.065839775, 10.000244, 9.999996 
2.376376e+3, 2.198727e+2, -809738.3, -956214.4, 206764.5, -0.008752451, 0.108299874, -663624.2, 121619.305, 0.050802168, 10.000065, 9.998421 
2.3760723e+3, 2.2986653e+2, -733860.8, -647549.94, 228605.02, -0.18972664, -0.023974182, -458062.6, 229233.42, 0.03888462, 9.999096, 10.000237 
2.3757724e+3, 2.3986025e+2, -1157499.5, -1054797.3, 199566.6, -0.080568574, -0.20420025, -900081.0, -310730.13, 0.028499532, 9.99648, 9.998115 
2.3754703e+3, 2.4985561e+2, -697653.2, -488460.75, 168005.47, -0.16520555, -0.20246567, -395152.44, 96251.28, 0.019239584, 9.997843, 10.00058 
2.3751701e+3, 2.5985053e+2, -807395.8, -717907.44, 127284.93, -0.27624926, -0.27281225, -627731.25, -234269.13, 0.01143259, 9.997366, 9.9986 
2.3748676e+3, 2.6985025e+2, -50706.72, 200125.34, -78096.96, 0.03428607, -0.020913145, 222453.4, 517916.84, 0.005417436, 9.999916, 10.002874 
2.3745662e+3, 2.79849e+2, -366905.94, -332301.88, 49978.453, 0.16487287, 0.012819699, -296715.28, -99242.52, 0.0017240121, 9.998928, 9.999063 
2.374251e+3, 2.8984258e+2, 94398.01, -2937.9426, -197499.47, -0.38261065, -0.0693659, 249137.55, 348671.72, 0.0009965353, 10.001299, 9.999408 
2.3739418e+3, 2.998409e+2, -208736.6, -388898.25, 188955.39, -0.5620005, -0.0025307722, -89488.266, -87937.17, 0.0037784507, 9.999776, 9.997338 
2.3736477e+3, 3.0983225e+2, 610720.25, 131530.77, 106410.8, -0.30004576, 0.079223655, 633287.5, 633287.5, 0.011109927, 10.005248, 9.998177 
2.3888142e+3, 1.4020811e+2, -1490934.5, -1721038.9, 310910.34, 0.29870048, 0.004350724, -1274471.6, 291497.72, 0.42782903, 10.001996, 9.997777 
2.38851e+3, 1.5019853e+2, -1269312.0, -1325706.3, -99891.13, 0.5323245, -0.49884856, -1193714.5, 274341.3, 0.29985446, 10.001312, 10.000304 
2.3882e+3, 1.6019548e+2, -1519872.1, -1538357.3, -176629.64, 0.13951834, -0.4184476, -1352243.4, 17837.01, 0.19614406, 9.998777, 9.999178 
2.3878914e+3, 1.7019476e+2, -1338489.1, -1180984.6, -48683.387, -0.21909621, -0.09460115, -1167151.8, 104939.46, 0.12585048, 9.998505, 10.001032 
2.3875837e+3, 1.8019384e+2, -1330705.9, -1207226.5, 12907.407, -0.4876429, 0.1136019, -1205891.8, -31786.982, 0.083471425, 9.99822, 10.000293 
2.3872812e+3, 1.901886e+2, -1034345.75, -879597.44, -11736.709, -0.22360633, -0.05934925, -878712.3, 197440.75, 0.057587944, 9.999205, 10.001339 
2.3869795e+3, 2.0018266e+2, -918684.1, -998937.8, -12462.82, 0.09295207, -0.33366254, -916793.25, 61414.313, 0.03970386, 10.000009, 9.999544 
2.3866765e+3, 2.1018168e+2, -746127.44, -842198.94, 11793.244, 0.08182558, 0.05144402, -744700.94, 135516.63, 0.026570952, 10.000607, 9.999553 
2.3863728e+3, 2.2018059e+2, -607770.56, -802525.9, 11994.511, -0.02222938, 0.41451192, -607034.6, 175193.16, 0.017417854, 10.0011215, 9.998972 
2.3860699e+3, 2.3017432e+2, -340532.1, -425410.88, 55899.496, -0.09337173, 0.22084549, -312787.03, 371493.47, 0.011141793, 10.00167, 10.0005245 
2.385768e+3, 2.4016637e+2, -360514.66, -631408.2, 128510.97, -0.083505206, -0.113048576, -309250.7, 277100.28, 0.0065593217, 10.001784, 9.998442 
2.3854658e+3, 2.501595e+2, -460470.28, -491868.13, 129051.97, -0.11622977, -0.27532834, -346165.84, 142259.27, 0.0032030866, 9.999931, 9.999544 
2.3851655e+3, 2.6015308e+2, -789947.2, -668342.25, 151438.16, -0.11906007, -0.40165523, -565956.3, -175460.47, 0.0011282732, 9.997278, 9.998949 
2.384863e+3, 2.70152e+2, -345899.78, -36111.258, -56749.836, 0.076119974, -0.18693377, -26042.564, 266462.78, 0.00023273825, 9.99822, 10.002082 
2.384561e+3, 2.8015068e+2, -358207.84, -204599.7, -70346.56, 0.18696123, -0.10435714, -177252.42, 17263.527, 0.000018977813, 9.998322, 10.000243 
2.3842488e+3, 2.9014707e+2, 146698.28, 137435.08, -245079.34, -0.27871877, -0.05825204, 387189.78, 483739.4, 0.000039610317, 10.001107, 10.000449 
2.3839429e+3, 3.001481e+2, -40810.28, -508903.56, 69092.6, -0.09721786, 0.35823604, -30824.92, -30824.92, 0.00031053094, 10.00174, 9.995525 
2.3836501e+3, 3.1013194e+2, -244664.08, -448235.38, -51364.598, 0.11202343, -0.10613459, -232438.14, -232438.14, 0.0010092406, 10.000246, 9.996364 
2.3991126e+3, 1.3051565e+2, -1404696.6, -1299384.5, 212915.0, 0.013318268, 0.21111639, -1132711.0, 528252.1, 0.4904385, 10.001551, 10.003198 
2.3988071e+3, 1.4051636e+2, -1610712.4, -1770113.3, 14437.633, -0.34263757, 0.26447904, -1609415.3, -46466.617, 0.36336115, 10.000234, 9.997961 
2.3984995e+3, 1.5051103e+2, -1573881.5, -1740056.8, -98555.13, -0.21313795, 0.4055317, -1528063.5, -63055.54, 0.24041095, 10.000165, 9.997415 
2.398191e+3, 1.6050535e+2, -1595208.5, -1529873.9, -99582.73, -0.19169617, 0.3852917, -1457737.1, -90667.52, 0.14389461, 9.998327, 9.999297 
2.3978862e+3, 1.7050263e+2, -1193789.3, -832781.6, 25205.117, -0.1193216, 0.2964823, -831030.3, 438060.25, 0.08188297, 9.998452, 10.003551 
2.3975818e+3, 1.8049899e+2, -1439586.8, -1281751.4, 24844.723, -0.061143614, 0.06114621, -1277933.0, -106813.5, 0.047678713, 9.99766, 10.000067 
2.3972754e+3, 1.904945e+2, -1165275.0, -1069981.8, 34548.496, -0.27633408, 0.05965319, -1058774.4, 14384.487, 0.028905774, 9.999002, 10.000007 
2.3969695e+3, 2.0049013e+2, -1191202.9, -1296557.5, 7846.6455, -0.4458294, 0.05778732, -1190621.8, -215423.16, 0.017015342, 9.999039, 9.997932 
2.3966694e+3, 2.1048489e+2, -910268.94, -960967.06, 37892.637, -0.21368799, 0.09130578, -890028.25, -12774.805, 0.00915297, 9.999829, 9.999042 
2.3963706e+3, 2.204794e+2, -894779.8, -957558.6, 22769.81, 0.1189818, 0.044929024, -887390.9, -108082.01, 0.0045936005, 9.999379, 9.998734 
2.396069e+3, 2.3047547e+2, -431516.22, -351488.03, 68328.77, 0.14356315, -0.0077184765, -312319.13, 369017.53, 0.0022051786, 10.000627, 10.001485 
2.3957667e+3, 2.4047059e+2, -624194.56, -756898.56, 56860.4, 0.039026227, -0.13806967, -603164.1, -19788.7, 0.0009056362, 10.000071, 9.998403 
2.3954612e+3, 2.5046712e+2, -576628.9, -518914.78, 6988.2456, -0.111835875, 0.017313436, -518080.66, -32664.334, 0.00023937336, 9.99924, 9.999575 
2.3951575e+3, 2.6046294e+2, -1061308.4, -936968.8, 77090.16, -0.2356825, 0.098566145, -900103.4, -512638.44, 0.000025130046, 9.996108, 9.997673 
2.3948538e+3, 2.7045795e+2, -461274.06, -265038.44, -17801.506, -0.2691189, 0.0774688, -263436.66, 26077.271, 0.00000030344088, 9.998267, 10.000456 
2.394551e+3, 2.8045344e+2, -463272.75, -271943.94, -54328.855, -0.32127255, -0.09080172, -257593.33, -66037.74, 0.0000000068303647, 9.997734, 10.000088 
2.3942462e+3, 2.904489e+2, 174646.19, 241396.14, -109780.79, -0.24961609, -0.20852904, 322763.1, 416354.88, 0.0000039429096, 10.00101, 10.001179 
2.3939437e+3, 3.0044708e+2, -169337.45, -618647.1, 114505.83, -0.16128133, -0.025893278, -141838.81, -141838.81, 0.00006190627, 10.001124, 9.995052 
2.3936455e+3, 3.104368e+2, -17691.035, -29522.305, 214788.56, -0.28857398, -0.12582296, 191263.34, 191263.34, 0.0002690841, 10.000231, 9.999281 
2.409108e+3, 1.3082108e+2, -1877462.6, -1557106.1, 174656.88, -0.06560576, -0.13121118, -1480298.9, 177660.47, 0.44510007, 9.996967, 10.002472 
2.4088037e+3, 1.4082271e+2, -1879804.6, -1820251.9, 24254.803, -0.22480935, 0.20790075, -1811623.4, -251677.1, 0.31930807, 9.997739, 9.9990225 
2.4084948e+3, 1.5081888e+2, -1442778.8, -1502054.6, 33759.168, -0.29585084, 0.3532374, -1427493.5, 34495.13, 0.20041417, 10.000216, 9.999113 
2.408186e+3, 1.6081357e+2, -1160790.9, -1329299.8, 146003.16, -0.38905096, 0.30988002, -1076475.6, 287569.6, 0.110025235, 10.001446, 9.999258 
2.407882e+3, 1.708102e+2, -1006988.7, -954148.6, 77272.875, -0.09897935, 0.33638886, -898904.0, 367174.4, 0.054970514, 10.000732, 10.001514 
2.4075787e+3, 1.8080603e+2, -1200481.3, -1256823.9, 13944.504, 0.104886554, 0.2525002, -1197218.9, -29102.053, 0.027314784, 9.999546, 9.999363 
2.4072725e+3, 1.9079962e+2, -881447.5, -1016066.94, 70599.97, -0.16343509, 0.11332295, -851212.56, 218959.31, 0.013986388, 10.001196, 9.9993925 
2.406967e+3, 2.0079322e+2, -703968.0, -1064361.3, 66006.984, -0.43412188, 0.00033096905, -692259.06, 279969.63, 0.006556314, 10.002312, 9.997972 
2.4066666e+3, 2.1078785e+2, -636232.4, -860695.1, 50546.4, -0.1823794, 0.045514785, -625375.06, 248910.77, 0.002469395, 10.001864, 9.998758 
2.4063669e+3, 2.207823e+2, -601468.6, -783667.2, 64533.25, 0.08788051, 0.047576346, -580927.3, 195416.08, 0.00078321603, 10.001096, 9.999136 
2.4060649e+3, 2.3077781e+2, -539054.25, -447452.66, 34044.707, 0.111383125, -0.060292915, -436185.47, 242193.94, 0.00023610769, 9.999842, 10.001285 
2.4057625e+3, 2.4077342e+2, -733722.4, -707659.56, -842.72003, 0.04729655, -0.1423111, -707632.4, -127217.055, 0.000047296035, 9.998669, 9.999465 
2.405456e+3, 2.5077143e+2, -445489.88, -368245.9, -19837.96, -0.14755416, 0.0728215, -363448.97, 118989.06, 0.0000020598873, 9.999686, 10.000444 
2.4051514e+3, 2.6076865e+2, -388958.66, -546536.06, 123758.375, -0.30143327, 0.23514943, -321037.44, 63432.504, 0.0, 10.000336, 9.998324 
2.4048486e+3, 2.707624e+2, -157327.56, -272619.13, 71671.586, -0.328014, 0.18467188, -122995.89, 163537.38, 0.0, 10.0009775, 9.999117 
2.4045464e+3, 2.8075644e+2, -45577.848, -90283.67, -25306.506, -0.3184819, 0.013795186, -34165.81, 154425.84, 0.0, 10.0005665, 9.999987 
2.4042436e+3, 2.9075065e+2, 126088.59, 215819.02, -141794.69, -0.14641152, -0.24859953, 319677.1, 410315.03, 0.00000028208012, 10.000559, 10.001281 
2.403943e+3, 3.0074778e+2, -339496.63, -510709.5, 104432.53, 0.10072541, -0.17710757, -290067.44, -290067.44, 0.000017512673, 9.998991, 9.996869 
2.4036437e+3, 3.1073934e+2, 224661.58, 350639.2, 47666.105, -0.14313424, -0.30923086, 366641.8, 366641.8, 0.0001005609, 10.000711, 10.001727 
2.4191016e+3, 1.3112688e+2, -1914657.9, -1696861.4, 200047.64, 0.0231144, -0.18558894, -1577992.4, 76961.25, 0.41411307, 9.997501, 10.00062 
2.4188015e+3, 1.4112748e+2, -1832968.3, -1759268.0, -42845.6, 0.22014779, 0.095955975, -1739605.5, -182645.78, 0.28877336, 9.997942, 9.999311 
2.4184921e+3, 1.5112484e+2, -1311759.4, -1142655.5, 14564.272, -0.12038161, 0.0778651, -1141410.4, 317572.88, 0.17287979, 9.999743, 10.002274 
2.4181828e+3, 1.6112103e+2, -1433715.0, -1657228.5, 10116.511, -0.39025012, -0.002321746, -1433258.1, -72238.484, 0.08747846, 10.000181, 9.997616 
2.4178787e+3, 1.7111783e+2, -1339644.6, -1490145.6, -34178.23, -0.049448516, 0.33772156, -1332246.6, -69185.28, 0.038149297, 10.000098, 9.997946 
2.4175754e+3, 1.8111356e+2, -1461303.4, -1586760.1, 14972.036, 0.27371395, 0.52628016, -1459541.4, -294431.8, 0.01570925, 9.998771, 9.997407 
2.4172717e+3, 1.9110376e+2, -965662.0, -1065081.6, 135052.53, 0.10061916, 0.07486251, -871461.25, 195732.77, 0.0064830934, 10.000713, 9.999219 
2.4169685e+3, 2.010944e+2, -988852.56, -1315904.5, 61963.84, -0.05358108, -0.31223267, -977506.44, -8230.676, 0.0021827125, 10.000926, 9.99689 
2.4166651e+3, 2.1109085e+2, -791117.6, -1002095.4, 30228.621, -0.068737596, -0.029862657, -786871.94, 84442.54, 0.00044835047, 10.001116, 9.998121 
2.416362e+3, 2.2108717e+2, -945909.44, -1070475.6, 13999.536, -0.058319435, 0.20018283, -944355.44, -171001.11, 0.000068581576, 9.999398, 9.997955 
2.4160586e+3, 2.3108158e+2, -709356.9, -583901.7, -28157.162, -0.06345453, 0.050294016, -577871.9, 97535.73, 0.0000096515805, 9.999163, 10.000559 
2.4157557e+3, 2.4107608e+2, -938940.3, -782405.6, -32417.54, -0.06819241, -0.12832806, -775957.75, -198499.17, 0.00000040342232, 9.997356, 9.999541 
2.4154499e+3, 2.510741e+2, -390970.1, -166295.48, 13664.403, -0.2942079, -0.05053491, -165467.48, 314006.2, 0.0, 9.999411, 10.001912 
2.415146e+3, 2.6107162e+2, -627120.94, -732446.6, 101268.23, -0.47202286, 0.026960844, -565640.75, -184144.4, 0.0, 9.999123, 9.99764 
2.4148467e+3, 2.7106643e+2, -350588.6, -508667.97, 76924.08, -0.18315047, 0.17426912, -319335.1, -35781.258, 0.0, 10.000402, 9.997702 
2.4145466e+3, 2.8106052e+2, -401188.03, -521449.1, -52019.79, 0.002144999, 0.17334802, -381809.2, -196192.84, 0.0, 9.999338, 9.997618 
2.4142402e+3, 2.9105306e+2, -8610.09, 77943.99, -158465.19, -0.1581497, -0.13166769, 198935.39, 286616.66, 0.0000000009564638, 10.000109, 10.000478 
2.413938e+3, 3.0104807e+2, -479393.44, -440913.56, 144078.98, -0.16029195, -0.2859508, -314795.56, -314795.56, 0.0000015325257, 9.997581, 9.998015 
2.4136417e+3, 3.1104323e+2, 217707.53, 424114.6, 91206.945, -0.30897552, -0.34992918, 458641.5, 458641.5, 0.000021924814, 10.000307, 10.002457 
2.4290955e+3, 1.3143475e+2, -1553555.4, -1632268.4, 93824.56, -0.27391416, 0.08134227, -1491167.1, 160774.95, 0.3927152, 10.000912, 9.999427 
2.4287976e+3, 1.4143118e+2, -1448157.3, -1548351.0, -41010.055, 0.18193835, 0.12611213, -1433512.1, 120476.13, 0.26710206, 10.000718, 9.99949 
2.4284886e+3, 1.5142734e+2, -1229034.1, -1149420.6, -156238.69, -0.09858141, 0.018152481, -1027997.4, 428024.2, 0.15331793, 10.000523, 10.001882 
2.4281794e+3, 1.6142334e+2, -1475696.6, -1593173.0, -247549.16, -0.3460337, -0.053514626, -1280012.4, 78045.32, 0.07196278, 9.99944, 9.998467 
2.4278742e+3, 1.7142001e+2, -1319773.4, -1440422.3, -192313.28, -0.0875064, 0.20220749, -1178545.3, 81552.5, 0.027363949, 10.00003, 9.998346 
2.4275698e+3, 1.8141569e+2, -1188499.8, -1387645.8, 31322.725, 0.10318519, 0.3603891, -1183689.4, -21543.865, 0.009079448, 10.000265, 9.998042 
2.427268e+3, 1.9140846e+2, -879964.94, -1000626.7, 154127.56, 0.039695483, 0.13877422, -774781.1, 289428.56, 0.002868925, 10.001109, 9.999499 
2.4269658e+3, 2.0140105e+2, -873376.0, -1175126.4, 74004.23, -0.056634404, -0.068821296, -856203.75, 110071.87, 0.00059867656, 10.001192, 9.997769 
2.426661e+3, 2.1139559e+2, -872496.0, -1034334.25, 56577.344, -0.13295507, -0.0071657165, -854678.6, 13650.362, 0.000045539302, 10.0003195, 9.998384 
2.4263564e+3, 2.2139062e+2, -923727.2, -1013652.44, 104628.516, -0.17229474, 0.09578031, -854809.3, -84430.805, 0.0000022398012, 9.999227, 9.998442 
2.4260539e+3, 2.3138595e+2, -693930.6, -632508.94, 80536.67, -0.031167086, 0.08306926, -577026.3, 95399.984, 0.000000052409952, 9.999471, 10.000107 
2.4257515e+3, 2.4138127e+2, -531722.8, -536037.0, 108664.15, 0.037500188, 0.04552637, -425194.38, 149277.98, 0.0, 9.999864, 10.000019 
2.4254464e+3, 2.513777e+2, -131632.69, -92611.05, 45815.527, -0.27320993, -0.0020294476, -62324.938, 414176.63, 0.0, 10.00132, 10.001544 
2.4251425e+3, 2.6137406e+2, -135973.88, -393597.34, -6457.951, -0.46811688, -0.013101531, -135812.08, 242721.5, 0.0, 10.001893, 9.998655 
2.4248438e+3, 2.713692e+2, -258485.48, -414733.5, 44211.434, -0.115876816, 0.09286534, -246843.06, 33743.16, 0.0, 10.000658, 9.99828 
2.4245444e+3, 2.8136417e+2, -357689.06, -446879.84, 84432.74, 0.22161819, 0.17225745, -306798.13, -124158.69, 0.0, 9.999255, 9.998191 
2.4242377e+3, 2.9135787e+2, 85326.99, 60882.72, 29973.064, -0.0018562385, 0.02560759, 105474.055, 190170.73, 0.0, 10.000831, 10.000099 
2.4239351e+3, 3.013523e+2, 76057.09, -24996.707, 312073.78, -0.06796004, -0.16108283, 341667.84, 341667.84, 0.000000086511356, 10.000586, 9.999474 
2.4236411e+3, 3.1134862e+2, 91521.09, 374014.1, -155641.47, 0.031180788, -0.15636818, 442945.72, 442945.72, 0.0000026170453, 9.999172, 10.002761 
2.4394077e+3, 1.21741414e+2, -1979086.3, -1555716.6, -787390.6, 0.5953034, -0.1297692, -952052.1, 794885.6, 0.4945548, 9.997225, 10.005535 
2.4390899e+3, 1.3174233e+2, -1786575.5, -1864210.8, 142244.81, -0.5206547, 0.39468712, -1677946.9, -29010.553, 0.3775347, 9.999648, 9.998197 
2.438794e+3, 1.4173451e+2, -1902762.6, -1924783.8, -47490.703, 0.21907473, 0.1622101, -1865022.8, -314001.53, 0.25111946, 9.998113, 9.9980755 
2.4384846e+3, 1.5172942e+2, -1514910.1, -1426838.1, -125888.34, -0.031500038, 0.061942633, -1337506.1, 115560.64, 0.13882844, 9.999162, 10.000257 
2.4381758e+3, 1.6172434e+2, -1577413.5, -1601948.4, -183878.75, -0.17184195, -0.014258822, -1405393.4, -50281.055, 0.060861234, 9.998689, 9.998703 
2.4378693e+3, 1.7172e+2, -1181304.1, -1179131.3, -139770.77, -0.09867923, -0.029912656, -1040442.7, 216712.66, 0.02025213, 10.000226, 10.000011 
2.4375641e+3, 1.817161e+2, -1195702.4, -1356033.5, 48556.53, -0.050721142, 0.03764306, -1182143.6, -22948.594, 0.0052852775, 10.000157, 9.998322 
2.4372631e+3, 1.9171412e+2, -971238.4, -1009105.06, 147498.72, -0.12415754, 0.30001193, -841462.8, 219753.16, 0.0012089658, 10.000434, 9.999743 
2.4369617e+3, 2.0171057e+2, -1118289.1, -1247817.6, 14300.582, -0.14570786, 0.43961042, -1116729.1, -153478.56, 0.00012403581, 9.999507, 9.998035 
2.4366555e+3, 2.1170183e+2, -907674.3, -929175.0, -9258.698, -0.2379744, 0.061679088, -904236.9, -38906.816, 0.000001917801, 9.99975, 9.999258 
2.4363506e+3, 2.2169411e+2, -1127740.6, -1191351.5, 74748.91, -0.21648003, -0.16730614, -1078311.9, -310910.1, 0.000000018702426, 9.998315, 9.997604 
2.4360503e+3, 2.316915e+2, -754947.1, -726449.25, 80333.65, 0.09933708, 0.069960296, -659110.6, 10320.327, 0.0, 9.999374, 9.999452 
2.4357493e+3, 2.4168818e+2, -855997.6, -929254.7, 127115.31, 0.2574684, 0.24634083, -760338.75, -188872.72, 0.0, 9.998759, 9.99784 
2.4354446e+3, 2.5168243e+2, -353064.06, -424170.28, 91474.21, -0.13528015, 0.17274801, -290476.7, 183043.2, 0.0, 10.000922, 9.999401 
2.4351406e+3, 2.6167667e+2, -325613.63, -487601.5, -40345.063, -0.43843743, 0.0830563, -316121.4, 59452.152, 0.0, 10.000744, 9.998547 
2.4348389e+3, 2.7167162e+2, -165059.08, -97890.17, -16591.34, -0.24614581, -0.034857165, -94015.48, 183604.8, 0.0, 10.000229, 10.000625 
2.4345382e+3, 2.816676e+2, -506833.5, -462999.13, 75392.26, 0.035161283, -0.05447785, -406402.9, -226744.69, 0.0, 9.998102, 9.998641 
2.4342369e+3, 2.9166606e+2, -49799.152, -37818.895, 107364.15, 0.22467802, 0.24695963, 63722.098, 145395.28, 0.0, 10.00015, 9.999721 
2.4339351e+3, 3.0166242e+2, -326895.13, -389215.16, 306389.97, 0.083207004, 0.34895584, -50084.758, -50084.758, 0.0, 9.998678, 9.997885 
2.433636e+3, 3.1165066e+2, -158016.61, 150686.66, 175066.11, -0.22542693, -0.44105938, 229728.61, 229728.61, 0.00000012758136, 9.998084, 10.001661 
2.4493982e+3, 1.2204891e+2, -1896867.1, -1399766.4, -188190.84, 0.3619445, -0.033521455, -1336558.8, 407378.2, 0.4854093, 9.995449, 10.006624 
2.4490845e+3, 1.3204785e+2, -2077603.5, -2109176.8, 104651.02, -0.4905962, 0.3758926, -1987555.1, -341606.7, 0.3659335, 9.997921, 9.997461 
2.4487868e+3, 1.4203985e+2, -2039207.5, -1881517.5, 49098.7, 0.1561145, 0.16656266, -1867479.8, -319449.25, 0.23856215, 9.996613, 9.999129 
2.4484777e+3, 1.5203646e+2, -1543264.9, -1326923.6, 75132.56, -0.17002223, 0.13683826, -1303390.9, 146666.84, 0.1275105, 9.998327, 10.001434 
2.4481702e+3, 1.620319e+2, -1421252.1, -1546128.8, 116821.61, -0.33702287, 0.07991042, -1351229.8, 867.0777, 0.052560914, 9.99974, 9.998596 
2.447867e+3, 1.7202495e+2, -955365.25, -1211318.1, 59974.49, -0.07444416, -0.06973695, -942009.1, 312153.88, 0.01541553, 10.002244, 9.998888 
2.4475634e+3, 1.8201903e+2, -837398.5, -1235065.4, 62735.805, 0.039773196, -0.08404368, -827736.06, 328485.38, 0.0031067657, 10.002735, 9.997947 
2.4472593e+3, 1.9201662e+2, -1092712.6, -1175199.1, 58757.418, -0.11612323, 0.22248739, -1062168.4, -3917.1404, 0.00048131414, 9.999975, 9.998887 
2.446956e+3, 2.0201324e+2, -1244270.9, -1188338.3, -19303.18, -0.20411935, 0.41942522, -1182323.3, -222035.98, 0.000015932997, 9.998039, 9.999146 
2.4466527e+3, 2.1200655e+2, -720445.8, -702973.8, -26800.17, -0.118279144, 0.13223217, -683521.75, 178823.52, 0.0000000054715246, 10.000418, 10.000506 
2.4463494e+3, 2.2200003e+2, -489301.25, -809712.0, 43040.28, -0.043401383, -0.061329167, -483620.44, 280783.4, 0.0, 10.002226, 9.998374 
2.4460469e+3, 2.3199572e+2, -372925.5, -621140.9, 20174.377, 0.068636335, 0.04706628, -371296.47, 295151.47, 0.0, 10.002193, 9.998898 
2.4457446e+3, 2.4199119e+2, -393161.4, -706931.5, 94546.14, 0.114105046, 0.16544056, -366874.72, 201618.66, 0.0, 10.00173, 9.997995 
2.4454424e+3, 2.5198516e+2, -286717.1, -469219.8, 170258.34, -0.0783831, 0.11643495, -184798.3, 285751.5, 0.0, 10.001506, 9.998929 
2.4451399e+3, 2.6197934e+2, -228374.33, -376885.38, 53323.85, -0.24315847, 0.06853144, -211211.5, 161392.6, 0.0, 10.000982, 9.999235 
2.4448359e+3, 2.7197394e+2, -64292.926, -54579.793, -109250.64, -0.16819108, -0.09587459, 49922.176, 324576.72, 0.0, 10.000831, 10.000691 
2.4445334e+3, 2.8196988e+2, -24850.695, -130673.6, -80980.15, 0.01686698, -0.13970324, 18971.54, 195663.17, 0.0, 10.000802, 9.999658 
2.4442339e+3, 2.919695e+2, 273214.28, 169698.14, -12154.779, 0.24270634, 0.21153712, 274622.34, 353315.88, 0.0, 10.001959, 10.000347 
2.4439336e+3, 3.0196673e+2, 47691.324, -245042.27, 183439.28, 0.2383123, 0.38790488, 136001.34, 136001.34, 0.0, 10.00119, 9.997707 
2.4436319e+3, 3.119538e+2, 30489.373, 199035.36, 61385.902, -0.18967938, -0.3489832, 219022.47, 219022.47, 0.000000000000427524, 9.999333, 10.001443 
2.4593903e+3, 1.22357056e+2, -1660836.3, -1380560.0, 106472.234, 0.32771683, 0.18344262, -1344700.9, 396227.28, 0.47723737, 9.997973, 10.005416 
2.45908e+3, 1.3235293e+2, -2053089.1, -2102615.8, -21021.693, -0.2901319, 0.31036028, -2045369.6, -402405.66, 0.3557266, 9.998177, 9.997362 
2.4587798e+3, 1.4234602e+2, -1981701.9, -1734635.9, 36437.414, 0.19920866, 0.19049603, -1729374.1, -184343.67, 0.22774403, 9.996585, 10.000138 
2.4584708e+3, 1.5234469e+2, -1399657.4, -1093994.3, 45058.06, -0.2609299, 0.1926483, -1087490.6, 359544.9, 0.11809006, 9.998669, 10.003006 
2.4581648e+3, 1.6234127e+2, -1549595.9, -1777033.3, 76592.49, -0.42241555, 0.19802943, -1526207.5, -177145.16, 0.04605504, 9.999696, 9.997007 
2.4578658e+3, 1.7233203e+2, -1155964.3, -1532203.8, 70962.91, 0.035021424, -0.009257615, -1143024.9, 108124.98, 0.012013259, 10.001922, 9.996785 
2.4575642e+3, 1.8232365e+2, -1131484.1, -1594899.8, -41894.71, 0.31003773, -0.07814402, -1127727.1, 25505.174, 0.0018483637, 10.00177, 9.995916 
2.4572556e+3, 1.9231774e+2, -1192574.5, -1388718.1, -74073.195, -0.0125684235, 0.0070490525, -1167744.3, -112445.32, 0.00018026956, 10.000055, 9.997346 
2.4569502e+3, 2.0231302e+2, -1312104.9, -1225553.0, -1293.9918, -0.1547729, 0.1544555, -1225533.6, -268183.66, 0.0000007906511, 9.997725, 9.999037 
2.4566512e+3, 2.1231085e+2, -713294.6, -577713.4, 40257.094, 0.13572462, 0.20860548, -566661.06, 292703.75, 0.0, 10.000041, 10.001542 
2.45635e+3, 2.2230688e+2, -802195.6, -1020483.3, 13210.733, 0.27047187, 0.22107553, -801399.06, -40000.836, 0.0, 10.000562, 9.997701 
2.4560429e+3, 2.3229904e+2, -556425.56, -746465.25, -18976.158, -0.082215175, 0.010583275, -554549.25, 108923.8, 0.0, 10.00137, 9.998319 
2.455738e+3, 2.4229205e+2, -635899.8, -835538.1, 62654.83, -0.278171, -0.08863095, -617865.25, -52326.664, 0.0, 10.0003, 9.997759 
2.455439e+3, 2.52287e+2, -328829.56, -407957.72, 137977.05, -0.10947742, -0.122424364, -224856.25, 242725.25, 0.0, 10.000931, 9.999589 
2.4551389e+3, 2.6228195e+2, -596605.75, -780783.56, 8089.448, 0.006375963, -0.08327354, -596251.1, -226623.39, 0.0, 9.999554, 9.997125 
2.4548347e+3, 2.7227613e+2, -320700.22, -443655.22, -117358.766, 0.06472145, -0.07903024, -249691.63, 21997.92, 0.0, 10.000329, 9.998204 
2.454531e+3, 2.8227097e+2, -231372.67, -258380.63, -46931.414, 0.046821438, -0.061293375, -196041.06, -22300.527, 0.0, 9.999669, 9.999301 
2.4542278e+3, 2.9226682e+2, 275428.84, 319805.94, 33560.96, -0.19027719, -0.23137456, 337850.1, 413620.22, 0.0, 10.001449, 10.001578 
2.4539287e+3, 3.0226114e+2, -425404.66, -718802.56, 91435.33, -0.07194804, -0.3209799, -399242.4, -399242.4, 0.0, 9.999198, 9.995379 
2.4536309e+3, 3.1225607e+2, -421717.53, -141399.92, 84526.625, 0.012961256, -0.13160612, -117884.53, -117884.53, 0.0, 9.99707, 10.000076 
2.4693845e+3, 1.22661576e+2, -1338536.3, -1269854.5, 49998.813, -0.09882193, 0.5001715, -1243539.1, 494414.78, 0.4678526, 10.00249, 10.00454 
2.4690759e+3, 1.3265562e+2, -1652563.6, -1638920.9, -143182.52, -0.21684606, 0.2440167, -1502397.4, 137603.58, 0.34520847, 9.999836, 10.000017 
2.4687737e+3, 1.426512e+2, -1849918.0, -1733138.1, 42802.492, 0.19018331, 0.23263218, -1719130.3, -177092.2, 0.21743059, 9.997663, 9.999642 
2.468467e+3, 1.5264766e+2, -1299523.4, -1229312.5, -10213.17, -0.19540744, 0.18258198, -1227857.0, 216211.77, 0.109704144, 10.000317, 10.001141 
2.468163e+3, 1.626433e+2, -1172548.1, -1539443.8, -63856.918, -0.35507268, 0.1961194, -1161751.8, 184355.78, 0.040704507, 10.002044, 9.997513 
2.467864e+3, 1.7263594e+2, -966982.4, -1376307.1, -19018.791, -0.00030713115, 0.117161006, -966100.56, 282075.7, 0.00953522, 10.002895, 9.997442 
2.4675618e+3, 1.8262845e+2, -925118.44, -1399594.0, -103510.23, 0.18080167, 0.08730905, -903520.1, 246728.63, 0.0011160366, 10.002696, 9.996828 
2.4672529e+3, 1.9262095e+2, -854693.2, -1207871.4, -99056.18, 0.0068165916, -0.0057633272, -828808.0, 223518.98, 0.00006263998, 10.00223, 9.997583 
2.4669468e+3, 2.0261501e+2, -780163.25, -978310.0, 55334.35, -0.103988215, 0.032996435, -765757.9, 188630.38, 0.0000000031066179, 10.001303, 9.999041 
2.4666467e+3, 2.126125e+2, -645713.56, -671156.94, 12762.187, 0.066454865, 0.15694772, -640415.44, 215995.36, 0.0, 10.000913, 10.00056 
2.4663454e+3, 2.226087e+2, -760093.3, -931870.9, -85396.18, 0.14521669, 0.24554968, -724864.8, 33580.11, 0.0, 10.000415, 9.998423 
2.4660406e+3, 2.3260161e+2, -606777.9, -732014.4, -80126.664, -0.0030768542, 0.06691119, -567703.8, 92807.125, 0.0, 10.000726, 9.998811 
2.4657366e+3, 2.4259473e+2, -474421.28, -674035.2, 28677.236, -0.118994914, -0.05642913, -470383.1, 92190.01, 0.0, 10.000928, 9.998585 
2.4654363e+3, 2.5258878e+2, -316128.94, -405241.72, 28130.518, -0.06867053, -0.18428843, -307991.88, 156629.6, 0.0, 10.000926, 9.999652 
2.4651353e+3, 2.625831e+2, -361894.28, -640553.56, -82780.31, 0.0023437778, -0.2079879, -339158.1, 27513.854, 0.0, 10.00086, 9.997492 
2.464832e+3, 2.725777e+2, -155999.06, -428883.34, -84198.27, 0.121437766, -0.12230169, -132110.89, 136619.45, 0.0, 10.001584, 9.997765 
2.4645281e+3, 2.8257257e+2, 57117.35, -150774.7, 32347.033, 0.06866334, -0.035045132, 62034.113, 232816.84, 0.0, 10.001662, 9.999099 
2.4642229e+3, 2.925661e+2, 225728.88, 169822.36, -94384.3, -0.40988544, -0.32463732, 296212.3, 369050.56, 0.0, 10.001518, 10.000599 
2.4639258e+3, 3.025587e+2, -92573.195, -545918.25, -113410.55, -0.07930738, -0.5080595, -65784.91, -65784.91, 0.0, 10.001251, 9.99563 
2.4636291e+3, 3.125548e+2, 287264.28, 163393.72, -120679.95, 0.26336116, -0.13647021, 360974.25, 360974.25, 0.0, 10.0017605, 10.000053 
2.479382e+3, 1.22964166e+2, -1663706.8, -1477794.4, 43546.953, -0.15346006, 0.62127143, -1468099.8, 266896.06, 0.45571712, 9.998717, 10.003596 
2.4790722e+3, 1.329577e+2, -1618326.6, -1454025.5, -234770.9, -0.110515825, 0.11615463, -1287447.1, 349595.66, 0.33319858, 9.999243, 10.002093 
2.4787684e+3, 1.4295569e+2, -1865027.1, -1923600.9, 21723.988, 0.29737675, 0.2828842, -1857849.6, -318796.5, 0.20679392, 9.998475, 9.997922 
2.4784648e+3, 1.5294908e+2, -1446711.4, -1579645.9, 50690.195, -0.031385947, 0.15603235, -1429588.0, 11530.396, 0.10179194, 10.000505, 9.998474 
2.4781631e+3, 1.6294321e+2, -1340492.9, -1582341.1, -33945.418, -0.12558761, 0.171565, -1335818.6, 7356.918, 0.036105353, 10.000803, 9.9977865 
2.4778618e+3, 1.7293893e+2, -1077677.8, -1251396.6, -14805.208, -0.037736565, 0.24394892, -1076425.0, 168789.33, 0.0076701324, 10.001503, 9.998906 
2.4775584e+3, 1.8293343e+2, -1146451.1, -1450484.5, -140762.36, 0.033028517, 0.3081219, -1091288.9, 55976.598, 0.000687035, 10.00107, 9.997221 
2.477251e+3, 1.9292553e+2, -927781.75, -1142764.6, -154614.02, 0.040027823, 0.0714448, -846965.2, 202376.4, 0.000019881356, 10.001439, 9.998333 
2.4769448e+3, 2.0291826e+2, -1067655.5, -1320183.1, 2968.1409, 0.019464402, -0.004354505, -1067620.6, -116207.68, 0.0, 10.00034, 9.997093 
2.4766406e+3, 2.1291296e+2, -900931.2, -1027133.1, -14051.968, -0.1836923, 0.026624585, -899385.5, -45917.09, 0.0, 10.000301, 9.998296 
2.4763381e+3, 2.2290838e+2, -970812.44, -1062665.3, -85169.945, -0.1660244, 0.16906358, -919975.44, -164460.67, 0.0, 9.9992075, 9.998058 
2.4760394e+3, 2.3290433e+2, -625481.5, -638931.4, -73675.9, 0.25591114, 0.19314209, -558224.25, 99326.98, 0.0, 10.000194, 9.999673 
2.4757382e+3, 2.4289882e+2, -758088.0, -896973.44, 15565.523, 0.4059027, 0.17646143, -756364.9, -196765.75, 0.0, 9.999516, 9.997699 
2.475433e+3, 2.528905e+2, -462403.94, -534638.44, 20355.137, -0.03618836, -0.15410158, -457062.9, 4605.86, 0.0, 10.000331, 9.998957 
2.4751289e+3, 2.6288334e+2, -569027.06, -720091.25, -78511.89, -0.2885494, -0.29521778, -535613.25, -171882.58, 0.0, 9.999526, 9.997562 
2.4748269e+3, 2.7287874e+2, -185521.11, -300908.0, -58137.164, -0.11943024, -0.25432914, -161309.34, 104466.41, 0.0, 10.0009165, 9.998925 
2.474524e+3, 2.8287408e+2, -396066.97, -778761.8, 4073.3293, -0.1304568, -0.04902949, -396023.63, -228198.16, 0.0, 10.000421, 9.9953785 
2.47422e+3, 2.9286763e+2, -190443.11, -477488.94, -119685.266, -0.44790635, 0.046954185, -147088.02, -77187.96, 0.0, 10.000734, 9.996462 
2.4739254e+3, 3.028612e+2, -344004.9, -609389.25, -127305.24, 0.090430915, 0.18141402, -292811.7, -292811.7, 0.0, 9.999429, 9.99605 
2.4736282e+3, 3.128542e+2, 237145.27, 377040.44, -88234.32, 0.19525754, -0.042144526, 419689.3, 419689.3, 0.0, 10.000498, 10.002118 
2.4893773e+3, 1.2326895e+2, -2235045.0, -1745583.0, 230756.19, -0.00022140316, 0.6090892, -1653948.6, 78049.15, 0.43991777, 9.995003, 10.002448 
2.4890676e+3, 1.3326026e+2, -1775169.8, -1756228.3, -234489.4, -0.07119646, 0.13612778, -1531018.4, 103061.05, 0.31901658, 9.999202, 9.999443 
2.4887621e+3, 1.4325716e+2, -1519263.6, -1752027.1, -34923.785, -0.0038609782, 0.35805959, -1514136.6, 21969.307, 0.19536594, 10.000781, 9.998019 
2.4884619e+3, 1.5325019e+2, -1322481.8, -1465766.9, 76292.22, -0.03661686, 0.16631614, -1289467.0, 148701.86, 0.094030365, 10.001132, 9.999021 
2.4881612e+3, 1.6324407e+2, -1336967.4, -1482339.0, 10105.665, -0.020958323, 0.10583742, -1336268.3, 3957.0427, 0.032013185, 10.000339, 9.998697 
2.4878576e+3, 1.7324015e+2, -1328430.0, -1320697.9, -3512.6729, -0.04495845, 0.17200957, -1319340.4, -77077.695, 0.0062260167, 9.999476, 9.99943 
2.4875532e+3, 1.8323545e+2, -1381353.0, -1495988.0, -125367.63, -0.0774335, 0.27329093, -1300821.5, -156513.47, 0.00043419475, 9.999045, 9.9979 
2.4872473e+3, 1.9322886e+2, -1040898.8, -1191264.0, -169344.58, 0.008263198, 0.15919289, -930797.8, 115575.016, 0.0000058323185, 10.000514, 9.998493 
2.4869417e+3, 2.0322224e+2, -924122.0, -1221598.9, -26608.65, -0.0076730438, 0.14264777, -921760.6, 26677.281, 0.000000000090419006, 10.001099, 9.997412 
2.486637e+3, 2.1321595e+2, -755787.1, -999600.44, 32342.406, -0.21616085, 0.10674909, -751569.8, 98931.95, 0.0, 10.001345, 9.998036 
2.4863343e+3, 2.2321053e+2, -613601.8, -819056.4, 10481.12, -0.23416497, 0.17696182, -613068.5, 139487.06, 0.0, 10.001221, 9.998766 
2.4860357e+3, 2.3320685e+2, -480082.3, -573033.06, -11041.068, 0.24541683, 0.24473022, -478788.8, 175800.55, 0.0, 10.001087, 9.99976 
2.4857354e+3, 2.4320154e+2, -474098.56, -722533.2, 70929.375, 0.444301, 0.2560921, -455274.22, 101361.89, 0.0, 10.0011835, 9.998093 
2.4854307e+3, 2.531928e+2, -232548.53, -492055.94, 66064.48, 0.0035742042, -0.06969618, -216698.19, 242012.17, 0.0, 10.002041, 9.998495 
2.4851264e+3, 2.6318502e+2, -105596.87, -499912.53, -69994.32, -0.26732388, -0.22045769, -93540.9, 267238.4, 0.0, 10.002553, 9.997647 
2.4848242e+3, 2.7317974e+2, 87174.82, -233292.98, -169056.25, -0.15169539, -0.20222189, 159867.78, 422698.97, 0.0, 10.002884, 9.998528 
2.4845217e+3, 2.8317457e+2, -51718.59, -650041.3, -100892.445, -0.14346619, -0.007826654, -35163.613, 129723.68, 0.0, 10.002764, 9.99518 
2.484218e+3, 2.9316875e+2, 34028.664, -482482.84, -11466.727, -0.3648402, 0.24966504, 34283.105, 101243.44, 0.0, 10.0026, 9.995598 
2.4839228e+3, 3.0316308e+2, 80216.234, -215454.31, 146709.27, 0.16184294, 0.4722943, 140656.92, 140656.92, 0.0, 10.00145, 9.997778 
2.4836248e+3, 3.1315503e+2, 42127.64, 377875.88, -33461.38, 0.25128436, 0.08330566, 381178.22, 381178.22, 0.0, 9.998493, 10.003195 
2.499372e+3, 1.23570606e+2, -2324486.5, -1914109.0, 250285.39, 0.3546402, 0.29504603, -1795654.1, -66624.66, 0.42027465, 9.99514, 10.000895 
2.4990635e+3, 1.3356353e+2, -1993593.5, -2185104.0, -202165.7, 0.056465395, 0.28041482, -1865652.4, -234542.97, 0.30251706, 9.999154, 9.996341 
2.4987563e+3, 1.4355822e+2, -1554366.6, -1725641.0, 6507.411, -0.21855691, 0.46793932, -1554119.8, -20956.291, 0.18302314, 10.000318, 9.998424 
2.4984588e+3, 1.5355146e+2, -1321063.3, -1338070.9, 62329.48, -0.023166476, 0.149933, -1266660.3, 168556.25, 0.08629053, 10.000534, 10.000232 
2.4981587e+3, 1.6354562e+2, -1466336.1, -1549435.8, -60295.75, 0.15132344, 0.04907207, -1434660.5, -97394.805, 0.028287582, 9.999517, 9.998611 
2.4978533e+3, 1.7354096e+2, -1356573.0, -1356306.6, -90007.695, 0.009697996, 0.010491107, -1266432.0, -27119.209, 0.0050760456, 9.999336, 9.999252 
2.4975479e+3, 1.8353638e+2, -1499726.5, -1602129.9, -125559.63, -0.07115267, 0.15190972, -1415330.1, -273969.63, 0.00028139996, 9.998616, 9.997336 
2.4972427e+3, 1.9353196e+2, -1117653.0, -1226272.0, -143047.42, -0.037085023, 0.2510325, -1018952.44, 24455.766, 0.0000014559199, 10.000162, 9.998361 
2.4969383e+3, 2.0352678e+2, -1032739.06, -1251194.6, -16831.174, -0.005178062, 0.37901968, -1031449.9, -85989.27, 0.0, 10.000403, 9.997526 
2.4966353e+3, 2.1352051e+2, -781190.25, -901091.2, 36800.57, -0.09841549, 0.24738, -770796.25, 76722.8, 0.0, 10.000896, 9.998867 
2.4963322e+3, 2.2351477e+2, -840941.7, -1016948.8, -12444.16, -0.11147215, 0.27491194, -840066.2, -90493.195, 0.0, 10.000196, 9.997895 
2.49603e+3, 2.3350957e+2, -599211.94, -682700.0, -30168.84, 0.02750946, 0.22742473, -589451.4, 62171.742, 0.0, 10.000616, 9.999191 
2.4957287e+3, 2.4350372e+2, -733005.4, -942172.25, 78401.27, 0.1070463, 0.24810022, -706881.3, -153204.53, 0.0, 9.999913, 9.997187 
2.4954282e+3, 2.5349617e+2, -394113.0, -600910.9, 92668.11, 0.010410857, 0.054862242, -358664.1, 97078.805, 0.0, 10.001186, 9.998116 
2.4951267e+3, 2.634887e+2, -474329.63, -929751.5, -69916.266, -0.064228974, 0.05691421, -463837.8, -106024.47, 0.0, 10.001247, 9.995297 
2.4948242e+3, 2.734811e+2, -140964.45, -586408.9, -141758.14, 0.0029638135, 0.04267373, -99678.04, 160216.3, 0.0, 10.0024185, 9.996314 
2.4945214e+3, 2.8347462e+2, -93001.766, -459770.66, -125277.914, -0.06366456, 0.16439648, -54295.22, 107667.375, 0.0, 10.001722, 9.996953 
2.4942163e+3, 2.9346982e+2, 142584.6, -81805.44, 17774.441, -0.42312574, 0.18635854, 143983.81, 207995.05, 0.0, 10.001942, 9.99862 
2.493916e+3, 3.0346474e+2, -133377.19, -294962.6, 48421.324, -0.29935232, 0.2893306, -119978.14, -119978.14, 0.0, 10.000063, 9.997858 
2.4936177e+3, 3.13458e+2, -410361.25, 4813.998, -3089.0225, 0.027137948, 0.034280546, 4836.98, 4836.98, 0.0, 9.996362, 10.00156 
2.5093618e+3, 1.23865634e+2, -1899451.0, -1426434.6, -13574.142, -0.010002064, -0.1164936, -1426045.4, 300094.44, 0.39734322, 9.995894, 10.005231 
2.5090602e+3, 1.3386594e+2, -1757199.5, -1934515.3, -75812.84, 0.15694082, 0.4534951, -1729204.9, -101062.21, 0.28406283, 10.000079, 9.997637 
2.5087568e+3, 1.4385779e+2, -1394042.5, -1531815.5, 65375.035, 0.049932785, 0.25228754, -1367959.3, 162263.9, 0.16993596, 10.001102, 9.999403 
2.5084552e+3, 1.5385443e+2, -1294350.6, -1273662.3, 92675.336, -0.04365365, 0.22405362, -1190755.6, 241490.33, 0.078587286, 10.000389, 10.000813 
2.5081527e+3, 1.6384977e+2, -1496858.9, -1624563.1, -49112.453, -0.04543529, 0.2469766, -1480155.9, -145869.53, 0.024857625, 9.999499, 9.998114 
2.507849e+3, 1.7384288e+2, -1318160.6, -1437193.8, -97615.44, 0.010943135, 0.09504602, -1263348.8, -26991.578, 0.0041356636, 9.999973, 9.998425 
2.5075442e+3, 1.8383718e+2, -1164374.3, -1282328.5, -131180.77, -0.037958667, 0.11934833, -1079522.6, 58892.223, 0.00018434241, 10.000149, 9.998811 
2.5072384e+3, 1.9383356e+2, -867669.6, -991717.25, -62031.637, -0.102536775, 0.202143, -841973.0, 198477.2, 0.00000026313862, 10.001275, 9.999503 
2.5069347e+3, 2.0382886e+2, -703140.4, -984355.2, 55278.56, -0.13919437, 0.293371, -692664.44, 249830.17, 0.0, 10.002108, 9.998567 
2.5066328e+3, 2.1382234e+2, -468333.1, -727112.1, 71297.555, -0.101113416, 0.12834878, -449989.78, 394564.13, 0.0, 10.002841, 9.999206 
2.5063306e+3, 2.2381635e+2, -407107.9, -898371.94, -22865.477, -0.090528466, 0.16113357, -406045.94, 340566.34, 0.0, 10.003362, 9.997253 
2.5060266e+3, 2.3381083e+2, -263721.63, -692556.56, -109207.266, -0.09739589, 0.22930515, -237512.67, 411159.44, 0.0, 10.003469, 9.997832 
2.5057247e+3, 2.4380489e+2, -260558.69, -669314.0, -23924.945, -0.06918069, 0.30246744, -259163.1, 291568.13, 0.0, 10.002857, 9.997662 
2.5054258e+3, 2.5379768e+2, -324476.75, -558822.06, -3920.9685, 0.020870656, 0.14273137, -324411.16, 128384.8, 0.0, 10.001529, 9.998296 
2.505125e+3, 2.6379073e+2, -424508.47, -785103.9, -36226.36, 0.06600515, 0.15089631, -420905.1, -66043.62, 0.0, 10.000966, 9.996451 
2.5048226e+3, 2.7378377e+2, -214656.53, -572500.9, 67796.39, 0.07014181, 0.17008822, -202242.63, 54691.18, 0.0, 10.001621, 9.996853 
2.5045195e+3, 2.8377706e+2, 9439.521, -296030.0, 129730.53, -0.03728217, 0.23528914, 57099.168, 216100.89, 0.0, 10.001779, 9.998079 
2.504214e+3, 2.93771e+2, 159775.03, -29623.016, 33563.46, -0.4027028, 0.08227781, 165546.95, 226605.86, 0.0, 10.001632, 9.999227 
2.5039127e+3, 3.0376607e+2, 33967.28, -204472.2, -67786.664, -0.28519928, 0.17259167, 51891.18, 51891.18, 0.0, 10.000984, 9.998074 
2.5036147e+3, 3.1376114e+2, 64645.758, 144863.78, -161367.95, 0.344736, 0.117075354, 271032.7, 271032.7, 0.0, 9.999737, 10.00095 
2.519351e+3, 1.2416929e+2, -1521157.0, -1176310.4, -44536.043, -0.39363453, 0.26605442, -1170651.5, 552513.94, 0.3720952, 9.998783, 10.006374 
2.5190565e+3, 1.3416757e+2, -1606667.9, -1687817.3, 24896.346, 0.19068472, 0.48828825, -1599638.8, 25542.578, 0.26429757, 10.000483, 9.999105 
2.5187588e+3, 1.4415818e+2, -1492355.4, -1530526.4, -2563.1655, 0.56931365, 0.05805797, -1492184.0, 35088.094, 0.15642525, 10.000217, 9.99971 
2.5184512e+3, 1.5415825e+2, -1371470.6, -1287421.3, -30231.428, -0.015924409, 0.32246417, -1277677.1, 151590.52, 0.071005836, 9.999921, 10.000812 
2.5181463e+3, 1.6415465e+2, -1677761.9, -1847323.1, -101075.96, -0.18095128, 0.5153711, -1630617.9, -299315.75, 0.021693112, 9.999016, 9.996786 
2.5178453e+3, 1.7414531e+2, -1475537.1, -1594848.4, -99426.55, 0.07248787, 0.21016832, -1419242.6, -185844.9, 0.00335279, 9.999492, 9.997508 
2.5175416e+3, 1.8413861e+2, -1210525.6, -1198988.6, -79489.73, 0.1279591, 0.14545673, -1125058.4, 10404.026, 0.00011963712, 9.999443, 9.999694 
2.517235e+3, 1.9413504e+2, -881960.2, -838541.8, -44241.625, -0.13377117, 0.057203043, -810970.06, 226519.19, 0.00000002568285, 10.000514, 10.000873 
2.5169313e+3, 2.0413022e+2, -932401.06, -1159226.5, 63683.277, -0.23116292, 0.07656368, -915744.56, 23785.24, 0.0, 10.000872, 9.997941 
2.5166306e+3, 2.141228e+2, -628520.1, -837706.3, 54362.785, -0.15354104, -0.17960691, -615236.06, 226361.7, 0.0, 10.001911, 9.998858 
2.516329e+3, 2.2411656e+2, -826936.3, -1350712.8, -35710.203, -0.10968565, -0.049312055, -824512.9, -80850.125, 0.0, 10.001733, 9.994868 
2.516025e+3, 2.3411165e+2, -563360.75, -1052683.0, -106006.52, -0.17224884, 0.24597034, -541382.7, 104343.98, 0.0, 10.002481, 9.995777 
2.5157225e+3, 2.4410567e+2, -503735.8, -826450.2, -73410.08, -0.13403103, 0.45354706, -487821.5, 59970.594, 0.0, 10.001509, 9.997209 
2.515423e+3, 2.5409758e+2, -432773.2, -573714.9, -50871.98, 0.020875052, 0.15426718, -416329.72, 33536.48, 0.0, 10.00074, 9.998539 
2.5151214e+3, 2.640916e+2, -451530.4, -524109.06, -34872.137, 0.024031075, 0.14241606, -437491.0, -85572.96, 0.0, 9.999766, 9.998771 
2.514818e+3, 2.7408785e+2, -112409.125, -161952.52, 102826.766, -0.1369135, 0.13578446, -31412.291, 222534.14, 0.0, 10.00092, 9.9999275 
2.5145152e+3, 2.840815e+2, -304432.28, -665221.56, 116504.26, -0.2514403, 0.15152101, -270081.78, -114074.61, 0.0, 10.000755, 9.995983 
2.514213e+3, 2.940719e+2, -108642.66, -412399.38, 56572.566, -0.2938126, -0.13015023, -98448.53, -40341.52, 0.0, 10.001041, 9.996821 
2.5139126e+3, 3.04067e+2, -96122.29, -291751.22, -116124.28, -0.03689575, 0.10648935, -42106.2, -42106.2, 0.0, 10.000361, 9.997725 
2.5136083e+3, 3.1406146e+2, -42186.434, 95744.77, -57494.938, -0.043113455, -0.039792787, 116567.375, 116567.375, 0.0, 9.999197, 10.000805 
2.5293523e+3, 1.2447233e+2, -1393684.5, -1513058.0, -159495.77, -0.16918811, 0.19933079, -1283073.3, 437113.28, 0.34545994, 10.002723, 10.000716 
2.52905e+3, 1.3446763e+2, -1632282.3, -1871729.9, 15750.442, -0.14745893, 0.31415403, -1631250.6, -9016.481, 0.24384509, 10.000864, 9.997724 
2.528752e+3, 1.4445995e+2, -1754268.8, -1807302.4, -58248.47, 0.28341046, 0.2043893, -1716785.4, -192472.92, 0.14280653, 9.998985, 9.998402 
2.5284487e+3, 1.5445572e+2, -1465955.3, -1492583.3, -128826.57, 0.12888503, 0.20590714, -1349756.5, 76601.48, 0.06363834, 9.999954, 9.999342 
2.528145e+3, 1.6445163e+2, -1307943.4, -1371639.1, -205096.17, 0.042287033, 0.296795, -1132237.0, 196159.5, 0.0187796, 10.000145, 9.9995575 
2.52784e+3, 1.7444633e+2, -1176134.3, -1168676.0, -53090.58, 0.0071772677, 0.13407457, -1119183.8, 111257.29, 0.0026956536, 10.000133, 10.00021 
2.527536e+3, 1.8444137e+2, -1169410.9, -1219099.4, 4285.7793, -0.03081228, 0.12741603, -1169044.0, -36557.76, 0.00007576087, 9.999843, 9.99936 
2.5272322e+3, 1.9443662e+2, -1011266.5, -1019792.3, -73512.3, -0.0380024, 0.048869357, -941893.6, 92638.71, 0.00000000011876218, 10.000035, 9.999897 
2.52693e+3, 2.044313e+2, -985316.6, -1189550.0, -18530.938, -0.061885826, 0.07165004, -983648.9, -47066.05, 0.0, 10.000436, 9.997947 
2.5266293e+3, 2.1442454e+2, -689769.6, -932360.9, -32166.328, -0.08564927, -0.059700523, -685577.0, 153068.92, 0.0, 10.001625, 9.998402 
2.5263268e+3, 2.2441834e+2, -672402.25, -1101636.3, -104472.34, -0.12655982, 0.02612691, -648325.0, 92383.086, 0.0, 10.001941, 9.996479 
2.5260228e+3, 2.3441276e+2, -602264.94, -971789.06, -7841.652, -0.16338113, 0.17473942, -602098.6, 40672.45, 0.0, 10.0016365, 9.996809 
2.5257203e+3, 2.4440677e+2, -428714.9, -694807.06, 124236.78, -0.13231218, 0.3066957, -379727.94, 165106.98, 0.0, 10.001463, 9.9981575 
2.5254193e+3, 2.543999e+2, -266278.53, -477718.63, 128441.34, -0.017612083, 0.1418942, -205643.83, 241258.14, 0.0, 10.00169, 9.998785 
2.525118e+3, 2.6439452e+2, -73934.76, -237335.6, 106209.23, -0.02284781, 0.15144841, -21637.574, 327311.84, 0.0, 10.001736, 9.999836 
2.524815e+3, 2.743907e+2, 31195.611, -30989.879, 19585.223, -0.13928409, 0.10180315, 36849.836, 287825.78, 0.0, 10.001473, 10.000622 
2.524513e+3, 2.8438464e+2, -195388.17, -602888.1, 13210.146, -0.17496069, 0.10487364, -194960.38, -41927.387, 0.0, 10.001403, 9.996087 
2.5242117e+3, 2.9437515e+2, -22807.354, -429623.7, 49962.29, -0.13971627, -0.119578354, -16761.2, 38373.84, 0.0, 10.001817, 9.996358 
2.5239113e+3, 3.0436933e+2, 151137.03, -237837.77, -33814.797, 0.12940109, 0.098315984, 154054.77, 154054.77, 0.0, 10.002262, 9.997212 
2.5236067e+3, 3.1436574e+2, 360522.38, 198106.19, -130710.49, 0.12759611, 0.27914864, 433197.3, 433197.3, 0.0, 10.002223, 10.000146 
2.5393534e+3, 1.24774046e+2, -1766414.6, -1953327.9, -315888.13, 0.14272632, 0.15266404, -1530448.4, 186772.52, 0.31815657, 10.00077, 9.998027 
2.5390443e+3, 1.3476768e+2, -1834645.1, -2104824.3, -166326.72, -0.29981303, 0.1755366, -1755459.8, -136172.36, 0.22319712, 10.000146, 9.99642 
2.5387433e+3, 1.4476122e+2, -1823230.1, -2034526.0, -16728.244, -0.06592623, 0.3386834, -1821914.0, -300555.22, 0.12934339, 9.999389, 9.99665 
2.538447e+3, 1.547518e+2, -1582409.0, -1773077.3, -54756.754, 0.39683363, -0.005517082, -1567802.6, -144339.27, 0.05657354, 10.000103, 9.997365 
2.538145e+3, 1.6474743e+2, -1133581.8, -906164.0, -151854.97, 0.45190173, 0.0154697895, -830163.5, 495338.1, 0.016116831, 9.999793, 10.002913 
2.537835e+3, 1.7474785e+2, -956294.7, -652932.56, -108876.734, -0.07991394, 0.019388365, -617901.9, 609573.56, 0.0021455006, 9.999918, 10.003828 
2.5375298e+3, 1.8474515e+2, -1393844.8, -1586644.3, -44195.406, -0.17981333, 0.16524822, -1384196.6, -254699.56, 0.000046550977, 9.999491, 9.997001 
2.53723e+3, 1.9473857e+2, -1201874.9, -1367619.8, -100030.82, 0.19009365, 0.10021534, -1154847.4, -123272.04, 0.0, 9.99989, 9.997576 
2.5369295e+3, 2.047328e+2, -1158322.6, -1365268.3, 27246.29, 0.29737517, 0.25791004, -1154795.6, -221156.67, 0.0, 9.999807, 9.996976 
2.5366274e+3, 2.1472727e+2, -880142.94, -1071456.9, 15204.873, 0.0421973, 0.26393294, -878942.06, -43248.605, 0.0, 10.000671, 9.997837 
2.5363246e+3, 2.2472112e+2, -718030.3, -836311.1, -111714.2, -0.083936885, 0.27325818, -650768.0, 86980.59, 0.0, 10.000536, 9.998945 
2.5360203e+3, 2.3471388e+2, -569420.44, -607583.56, -15908.866, -0.11749492, -0.069826595, -563658.56, 76150.875, 0.0, 10.000518, 9.999786 
2.5357172e+3, 2.4470866e+2, -662208.9, -823751.2, 115240.75, -0.12993245, 0.0016275155, -602251.9, -60393.28, 0.0, 10.000117, 9.997855 
2.5354153e+3, 2.5470454e+2, -409503.97, -548337.94, 136655.11, -0.17738308, 0.07930703, -325645.6, 118259.74, 0.0, 10.000827, 9.998659 
2.5351143e+3, 2.646992e+2, -415442.66, -649325.3, 82440.08, -0.12880357, 0.21492791, -389304.84, -43345.645, 0.0, 10.000614, 9.997498 
2.5348142e+3, 2.7469254e+2, -236687.61, -387311.2, 21927.277, 0.05871496, 0.05343173, -233560.44, 14460.771, 0.0, 10.000724, 9.9985 
2.5345126e+3, 2.846872e+2, -259194.8, -513755.78, 4589.15, 0.04119509, 0.20685135, -259112.1, -109038.305, 0.0, 10.000559, 9.997088 
2.5342086e+3, 2.9468164e+2, 11571.232, -222273.34, 98407.445, -0.22944565, 0.18376872, 47471.87, 99605.4, 0.0, 10.001322, 9.997998 
2.5339076e+3, 3.0467394e+2, -78824.914, -510837.6, -15666.905, -0.11523191, 0.20792258, -78257.5, -78257.5, 0.0, 10.001538, 9.99564 
2.5336066e+3, 3.1466895e+2, 234539.69, 114602.58, -21443.678, 0.1781194, 0.3845523, 238258.33, 238258.33, 0.0, 10.001568, 9.999865 
2.5493464e+3, 1.2506884e+2, -1726466.1, -1751426.3, 48935.24, -0.29436693, -0.07937024, -1688444.6, 25890.738, 0.29081753, 9.999795, 9.999765 
2.549044e+3, 1.3506483e+2, -1566377.0, -1708193.4, -122891.875, -0.027928496, -0.06646346, -1495403.6, 120968.34, 0.2027681, 10.00092, 9.998868 
2.54874e+3, 1.4505993e+2, -1414652.0, -1636477.4, 49796.023, -0.15868668, 0.051683433, -1403986.5, 114438.766, 0.11625642, 10.001379, 9.9984455 
2.548442e+3, 1.5505628e+2, -1332107.6, -1502105.1, 134233.3, 0.20553361, 0.15642844, -1258224.8, 162248.92, 0.04988728, 10.001096, 9.998806 
2.5481394e+3, 1.6505238e+2, -1118282.3, -1067199.3, -15149.149, 0.25794366, 0.24385919, -1063044.6, 259465.67, 0.013707004, 10.000618, 10.001394 
2.547832e+3, 1.7504832e+2, -920045.3, -851563.7, -153358.97, -0.047826104, 0.026151719, -728669.5, 495863.63, 0.0016894786, 10.00106, 10.001938 
2.5475276e+3, 1.8504459e+2, -1041870.9, -1327794.6, -157324.02, -0.09616228, 0.12030799, -972255.8, 154311.1, 0.000027889511, 10.001456, 9.99784 
2.547227e+3, 1.9504021e+2, -852444.9, -1150636.9, -89827.445, 0.18340702, 0.23475552, -827476.0, 201145.42, 0.0, 10.002007, 9.998086 
2.5469258e+3, 2.0503508e+2, -781547.06, -1031056.75, 96635.4, 0.21875967, 0.36498755, -748497.7, 182179.06, 0.0, 10.001634, 9.998414 
2.5466236e+3, 2.1502876e+2, -806817.0, -955197.2, 152120.73, -0.016821204, 0.23848893, -711759.06, 120978.234, 0.0, 10.000681, 9.998683 
2.546321e+3, 2.2502287e+2, -675398.6, -640531.25, -1234.3063, -0.10177777, 0.16387492, -640487.6, 94299.35, 0.0, 9.999998, 10.00057 
2.5460172e+3, 2.3501681e+2, -597044.2, -510367.4, -11781.693, -0.037625577, -0.13647509, -508794.5, 128036.87, 0.0, 9.99976, 10.000869 
2.5457138e+3, 2.4501161e+2, -642845.9, -843527.9, 87735.81, -0.08025874, -0.10974537, -609898.1, -71018.305, 0.0, 10.000191, 9.99777 
2.5454113e+3, 2.5500688e+2, -399407.2, -626843.3, 40858.824, -0.24232036, -0.01317499, -392289.66, 48646.77, 0.0, 10.001044, 9.998126 
2.545111e+3, 2.6500133e+2, -226531.86, -565828.3, 24437.445, -0.18489838, 0.123762, -224780.81, 118214.195, 0.0, 10.0018635, 9.997508 
2.5448126e+3, 2.7499464e+2, 27685.69, -352587.34, 30940.19, 0.13208576, 0.056202404, 30186.63, 275246.06, 0.0, 10.002842, 9.997791 
2.5445113e+3, 2.849893e+2, 80292.375, -302021.8, 16985.28, 0.15466541, 0.23002489, 81045.51, 228160.1, 0.0, 10.002511, 9.997672 
2.544206e+3, 2.949846e+2, 169.37292, -212101.4, -65053.074, -0.19801503, 0.29360393, 18519.418, 67686.26, 0.0, 10.001044, 9.998279 
2.5439054e+3, 3.0497745e+2, -27133.662, -334492.22, -81507.02, -0.028485684, 0.275428, -6856.868, -6856.868, 0.0, 10.001063, 9.99716 
2.5436026e+3, 3.1496978e+2, 157777.64, -45721.223, -67100.79, 0.0034767273, 0.12335299, 177911.2, 177911.2, 0.0, 10.00133, 9.99898 
2.5593415e+3, 1.2537295e+2, -1578335.5, -1448110.0, -337407.06, -0.38808805, 0.46472892, -1169590.4, 541769.4, 0.26403108, 10.000225, 10.002335 
2.5590435e+3, 1.3536264e+2, -1485303.8, -1466138.5, -45915.883, 0.27423328, -0.3501246, -1428815.9, 184634.97, 0.18292536, 10.000694, 10.000785 
2.5587386e+3, 1.4535998e+2, -1434700.1, -1426539.6, 52737.785, -0.0039151283, -0.1810338, -1377724.5, 137753.45, 0.1037245, 10.000281, 10.000447 
2.558436e+3, 1.5536375e+2, -1285039.5, -1280184.0, 48085.99, -0.06737882, 0.42131576, -1234464.5, 182987.34, 0.043632858, 10.000578, 10.000583 
2.558133e+3, 1.6535966e+2, -1421284.8, -1615392.6, -22952.234, 0.00953186, 0.5902763, -1418607.6, -99113.25, 0.011545959, 10.0004015, 9.997652 
2.5578302e+3, 1.7534834e+2, -1257542.4, -1443118.0, -119631.234, 0.118822135, 0.0026822218, -1198932.6, 22667.697, 0.0013158798, 10.0007105, 9.997989 
2.5575268e+3, 1.8534297e+2, -1036058.6, -1140349.4, -94166.96, 0.13192508, 0.061057128, -980563.1, 143089.03, 0.000016496271, 10.00087, 9.999365 
2.5572237e+3, 1.9534189e+2, -883853.1, -1010395.5, -75028.24, 0.0800587, 0.33007908, -848979.1, 176686.88, 0.0, 10.001239, 9.9994 
2.556921e+3, 2.053376e+2, -859261.75, -892563.9, 43485.49, 0.012999367, 0.42009416, -829348.4, 98358.09, 0.0, 10.000506, 9.999871 
2.5566185e+3, 2.1532993e+2, -930113.8, -847355.6, 87043.18, -0.14426868, -0.024799202, -792356.56, 37419.035, 0.0, 9.999271, 10.000068 
2.556316e+3, 2.2532487e+2, -895279.56, -806433.0, -36055.324, -0.110979356, -0.043521248, -793642.5, -61826.19, 0.0, 9.99888, 9.999915 
2.556013e+3, 2.3532118e+2, -768403.06, -662264.0, -40512.36, 0.052695315, -0.10072762, -648568.1, -14727.25, 0.0, 9.998986, 10.000149 
2.5557107e+3, 2.453154e+2, -888266.7, -1087108.6, 100438.625, 0.016616495, -0.030284043, -846363.75, -310465.06, 0.0, 9.9991865, 9.996526 
2.555408e+3, 2.553071e+2, -645988.8, -882363.56, 70845.31, -0.25693983, -0.20815125, -626381.7, -188389.48, 0.0, 10.000069, 9.9967985 
2.5551075e+3, 2.6530147e+2, -366325.3, -569873.1, 45048.293, -0.2776981, -0.0292133, -356801.06, -16750.188, 0.0, 10.000819, 9.997893 
2.5548092e+3, 2.7529693e+2, -30366.287, -339642.75, 87269.22, -0.066669226, 0.030588534, -7440.731, 234649.69, 0.0, 10.002383, 9.998051 
2.5545084e+3, 2.8529027e+2, -154036.55, -632946.3, -69957.484, 0.005351581, 0.16544211, -144026.61, 134.41231, 0.0, 10.001968, 9.995607 
2.5542042e+3, 2.952821e+2, -250286.38, -576681.5, -130180.54, -0.08961425, 0.06142698, -204724.7, -158470.11, 0.0, 10.00045, 9.996018 
2.5539047e+3, 3.0527773e+2, 92220.625, 63287.44, -106579.266, 0.20313628, 0.2931138, 185310.64, 185310.64, 0.0, 10.000624, 9.999996 
2.553601e+3, 3.152696e+2, 176198.92, 95133.11, 67020.92, -0.0070073325, -0.24983929, 213990.47, 213990.47, 0.0, 10.001128, 9.999938 
2.5693423e+3, 1.2567239e+2, -1444326.5, -1573719.9, 109979.85, -0.1638038, -0.03195918, -1381425.3, 326997.13, 0.23823552, 10.002147, 10.000098 
2.569039e+3, 1.3566917e+2, -1585807.9, -1570050.5, -34433.848, 0.163833, -0.04605766, -1542605.5, 67845.96, 0.16394834, 10.000078, 10.000207 
2.568735e+3, 1.456656e+2, -1633184.3, -1539287.4, 110432.32, 0.038259484, 0.074112386, -1466238.1, 46249.16, 0.09188186, 9.998907, 10.000311 
2.5684327e+3, 1.5566498e+2, -1298553.9, -1332174.4, 41017.766, -0.07947176, 0.2959132, -1271035.4, 143461.94, 0.03784501, 10.000592, 10.000252 
2.56813e+3, 1.6566008e+2, -1244267.9, -1473623.5, -55534.133, -0.032402333, 0.3625577, -1231528.9, 85015.34, 0.009625426, 10.001328, 9.998195 
2.5678268e+3, 1.7565054e+2, -1148748.5, -1393500.0, 24729.453, 0.0868919, -0.03501348, -1146274.9, 72357.68, 0.0010124295, 10.001374, 9.998056 
2.5675234e+3, 1.8564442e+2, -977101.4, -1120646.5, 46083.09, 0.061325595, -0.034172717, -963580.6, 157110.44, 0.000009793076, 10.001231, 9.999357 
2.5672197e+3, 1.9564083e+2, -892585.4, -1041772.6, 13326.3, -0.023432843, 0.05183718, -891404.4, 131322.88, 0.0, 10.0011635, 9.999278 
2.5669166e+3, 2.0563683e+2, -831630.75, -805036.25, -1991.0906, -0.055796776, 0.13094407, -804888.0, 119877.836, 0.0, 10.0002575, 10.000629 
2.5666144e+3, 2.1563177e+2, -944623.75, -829232.1, -4689.804, -0.04169589, -0.061903838, -829041.8, -2229.1353, 0.0, 9.99891, 10.000435 
2.566312e+3, 2.2562727e+2, -751918.4, -751971.6, -58012.094, -0.047215242, -0.051718377, -693932.94, 34918.176, 0.0, 9.9997635, 9.999912 
2.5660092e+3, 2.3562284e+2, -325147.2, -530811.2, -76577.67, -0.026120024, -0.11598088, -299766.25, 331120.2, 0.0, 10.002167, 9.999608 
2.565707e+3, 2.4561714e+2, -358236.44, -765451.94, 34206.35, -0.059149142, -0.043336388, -355383.1, 177561.52, 0.0, 10.002463, 9.997155 
2.5654054e+3, 2.5560978e+2, -444006.25, -767484.4, 65449.926, -0.18155295, -0.121632636, -431265.47, 3762.2942, 0.0, 10.001268, 9.997041 
2.565105e+3, 2.6560393e+2, -335338.47, -496000.34, 115912.55, -0.20634377, -0.00736185, -274641.8, 62444.17, 0.0, 10.000652, 9.998485 
2.5648063e+3, 2.7559873e+2, -251404.61, -431283.5, 93346.3, -0.0964819, -0.019326514, -211719.08, 27410.832, 0.0, 10.000679, 9.998236 
2.564505e+3, 2.8559133e+2, -290055.34, -736246.25, -28566.723, -0.03767379, 0.045408875, -288233.84, -147026.81, 0.0, 10.001127, 9.995296 
2.5642017e+3, 2.955821e+2, -120285.67, -594999.3, -9885.955, -0.0038069545, -0.06268774, -120079.88, -76768.15, 0.0, 10.001581, 9.995367 
2.5639012e+3, 3.055786e+2, 162793.13, 149540.86, 40953.145, 0.22170556, 0.26805556, 197652.72, 197652.72, 0.0, 10.000724, 10.000594 
2.5635958e+3, 3.155751e+2, -120281.99, 37422.996, -49308.83, -0.14314622, 0.19451071, 51570.914, 51570.914, 0.0, 9.998467, 10.000896 
2.5793436e+3, 1.25977e+2, -1707153.4, -1789070.3, -136684.42, 0.1588407, 0.07156524, -1605422.5, 100010.95, 0.21373183, 10.000305, 9.999232 
2.579034e+3, 1.3597739e+2, -1660387.6, -1692561.6, -213619.39, 0.11193755, 0.40911946, -1462250.4, 145187.03, 0.14603193, 9.999986, 9.999426 
2.5787306e+3, 1.4597176e+2, -1624929.6, -1618854.8, 125290.65, 0.15059681, 0.39667517, -1496564.8, 12928.518, 0.080827504, 9.99944, 9.99945 
2.5784305e+3, 1.5596434e+2, -1407776.0, -1501334.4, 38775.332, 0.06904921, 0.021855794, -1393794.9, 17767.654, 0.032553293, 10.000425, 9.999113 
2.5781277e+3, 1.6595905e+2, -1194380.5, -1298851.1, -84862.875, 0.053870305, 0.03564101, -1146965.3, 166642.45, 0.007938516, 10.0011015, 9.999438 
2.577823e+3, 1.7595398e+2, -1139083.9, -1286200.9, -60567.117, 0.03558249, -0.08196286, -1117357.4, 98290.83, 0.00076767127, 10.001073, 9.998883 
2.5775194e+3, 1.8594709e+2, -1119292.9, -1304712.6, -7912.0786, -0.008458522, -0.1349373, -1118955.9, -1243.444, 0.000005913737, 10.000883, 9.998203 
2.5772157e+3, 1.9593886e+2, -1138770.5, -1283430.3, -37522.285, -0.056029797, -0.44211167, -1129617.1, -109823.04, 0.0, 10.00017, 9.998025 
2.5769132e+3, 2.0593537e+2, -1000684.75, -944738.25, -61803.36, 0.0399145, -0.21650672, -904872.25, 16959.059, 0.0, 9.999444, 10.000017 
2.5766113e+3, 2.1593422e+2, -1119849.1, -993034.94, -58667.59, 0.20170936, -0.011277878, -970057.1, -146209.63, 0.0, 9.998124, 9.999658 
2.5763083e+3, 2.2592993e+2, -957703.9, -890353.1, 30050.684, 0.07413108, 0.08719577, -878894.56, -153005.44, 0.0, 9.998759, 9.999368 
2.5760043e+3, 2.3592283e+2, -589419.06, -724036.44, 6870.2227, -0.24158242, -0.21853542, -589069.4, 38885.27, 0.0, 10.000845, 9.998853 
2.575703e+3, 2.4591844e+2, -477283.13, -707248.0, -14320.2295, -0.2616667, -0.018118681, -476394.8, 53605.176, 0.0, 10.001314, 9.998049 
2.5754032e+3, 2.559149e+2, -566264.7, -748953.4, 35923.254, -0.09937224, 0.15592343, -559454.75, -127413.11, 0.0, 10.000224, 9.997633 
2.575103e+3, 2.659088e+2, -501452.7, -601086.3, 104293.35, -0.04151839, 0.23650749, -435689.16, -101589.37, 0.0, 9.999727, 9.998192 
2.5748035e+3, 2.7590072e+2, -434848.75, -570337.4, 104546.805, -0.050100993, -0.0672653, -378016.47, -141845.19, 0.0, 9.999752, 9.997704 
2.5745013e+3, 2.8589323e+2, -299296.13, -570765.44, 7814.083, -0.11809036, -0.05532992, -299071.38, -160826.77, 0.0, 10.000448, 9.996716 
2.574197e+3, 2.9588503e+2, -114467.05, -480153.25, 79814.875, -0.2691533, -0.21757194, -97805.734, -57475.477, 0.0, 10.001225, 9.996312 
2.5738937e+3, 3.058823e+2, -83522.734, -227031.83, -14448.244, -0.17799145, 0.2740914, -82082.56, -82082.56, 0.0, 10.000255, 9.998192 
2.5735918e+3, 3.158756e+2, -469125.34, -358960.13, -153718.98, -0.026039714, 0.09937629, -250752.75, -250752.75, 0.0, 9.997188, 9.998769 
2.5893387e+3, 1.2628005e+2, -1879723.3, -1853910.1, -209042.8, 0.004879541, 0.086782604, -1657375.9, 45085.82, 0.19077115, 9.998909, 9.999461 
2.5890315e+3, 1.3627833e+2, -1618432.0, -1770673.9, -207864.52, 0.21705921, 0.3466643, -1473188.8, 131302.11, 0.12932457, 10.000641, 9.998592 
2.5887275e+3, 1.4627191e+2, -1409056.9, -1516145.1, 73952.38, 0.12643704, 0.2826402, -1371299.8, 135253.78, 0.07062259, 10.0009165, 9.999489 
2.5884253e+3, 1.5626511e+2, -1312759.0, -1480001.0, 61670.438, -0.16796699, 0.009524942, -1292477.6, 116134.375, 0.027766839, 10.001113, 9.998967 
2.5881234e+3, 1.6625966e+2, -1137319.6, -1330291.8, -122444.625, -0.13768747, 0.03560347, -1077913.9, 232747.44, 0.0064744665, 10.001642, 9.999007 
2.5878224e+3, 1.7625447e+2, -986255.8, -1259736.0, -163063.73, 0.118976265, -0.017301256, -910187.0, 302522.8, 0.0005723583, 10.002173, 9.99859 
2.5875178e+3, 1.86249e+2, -926349.5, -1091977.5, -180428.47, 0.100289695, 0.0049101925, -810637.44, 304124.7, 0.0000035552432, 10.001596, 9.999352 
2.5872117e+3, 1.9624265e+2, -1061938.9, -1159406.9, -102242.45, -0.08409123, -0.18128651, -997409.8, 19414.582, 0.0, 10.000146, 9.998958 
2.586908e+3, 2.0623899e+2, -890162.6, -848416.06, -70477.445, -0.0742535, -0.051483527, -795785.9, 123075.45, 0.0, 9.999936, 10.0004835 
2.5866058e+3, 2.16237e+2, -733188.1, -799946.7, -33453.6, 0.08359582, 0.099862255, -719309.4, 101573.664, 0.0, 10.000598, 9.999864 
2.5863042e+3, 2.2623257e+2, -655133.44, -728432.94, 99336.38, 0.065193065, 0.16342482, -585901.56, 137024.42, 0.0, 10.000658, 9.999592 
2.5860026e+3, 2.3622604e+2, -642884.75, -760670.7, 100761.08, -0.08412318, -0.044990018, -585067.94, 39920.004, 0.0, 10.0004, 9.998859 
2.585701e+3, 2.462209e+2, -541974.0, -699936.44, 5096.022, -0.14003696, 0.0580347, -541809.75, -14769.915, 0.0, 10.000584, 9.998493 
2.5853997e+3, 2.5621644e+2, -430947.56, -648953.56, -16839.941, -0.09070906, 0.14893873, -429654.44, -566.80316, 0.0, 10.000894, 9.998031 
2.5850993e+3, 2.6621094e+2, -230983.36, -406834.66, 82489.77, -0.06174042, 0.2257743, -198345.83, 132793.2, 0.0, 10.001206, 9.998847 
2.5848004e+3, 2.762041e+2, -159155.28, -407567.84, 97643.9, -0.020949587, 0.050759535, -125369.375, 107829.914, 0.0, 10.0013685, 9.998118 
2.5844985e+3, 2.8619647e+2, -40089.125, -293008.9, 16454.303, -0.08164507, -0.05343421, -39023.14, 96249.05, 0.0, 10.001455, 9.99818 
2.584194e+3, 2.9618782e+2, -29966.686, -336979.0, -11895.175, -0.2800529, -0.36562756, -29506.498, 7851.5874, 0.0, 10.001222, 9.997352 
2.5838894e+3, 3.061878e+2, 18170.791, -199530.6, -89500.8, -0.24501671, 0.36101216, 50241.59, 50241.59, 0.0, 10.0010395, 9.998016 
2.583593e+3, 3.1617936e+2, -228154.8, -355413.06, -203627.58, 0.7124861, 0.10917143, -78446.5, -78446.5, 0.0, 9.999192, 9.997893 
2.5993344e+3, 1.2658411e+2, -2083515.0, -2222610.8, -216257.88, 0.09730254, 0.18235596, -1925896.9, -226415.8, 0.16949552, 9.998756, 9.99696 
2.5990295e+3, 1.3657714e+2, -1540274.5, -1925968.9, -213241.45, 0.38361135, 0.06913275, -1445611.9, 155952.38, 0.11391175, 10.002104, 9.996795 
2.5987244e+3, 1.465712e+2, -1238568.0, -1399368.4, 68630.695, 0.13073437, 0.11969009, -1213259.4, 290361.13, 0.061296463, 10.002155, 9.999628 
2.5984198e+3, 1.5656658e+2, -1377369.6, -1574554.6, 24959.68, -0.41689622, 0.037245058, -1374259.3, 31395.375, 0.023481611, 10.00103, 9.998304 
2.5981194e+3, 1.6656098e+2, -1312433.0, -1535776.1, -85306.38, -0.23784012, 0.14855002, -1283578.0, 24132.746, 0.005220199, 10.001012, 9.997905 
2.5978222e+3, 1.7655446e+2, -1254810.0, -1510634.6, -128053.33, 0.36069155, 0.067395754, -1201727.3, 8055.1724, 0.00041937284, 10.000913, 9.99749 
2.5975168e+3, 1.865513e+2, -959448.2, -931651.1, -177960.95, 0.3225382, 0.2816024, -767046.8, 344769.06, 0.0000020172258, 10.000694, 10.000839 
2.597207e+3, 1.9654916e+2, -1105008.3, -1068480.3, -137587.58, -0.08033546, 0.34895086, -947949.75, 65886.53, 0.0, 9.999468, 9.999867 
2.596902e+3, 2.065451e+2, -912864.1, -808402.25, -45023.523, -0.21335448, 0.3844687, -791675.3, 124197.35, 0.0, 9.999711, 10.000809 
2.5965992e+3, 2.1653977e+2, -880322.6, -873145.4, -23241.838, -0.17836392, 0.14148028, -853216.75, -35296.316, 0.0, 9.999761, 9.999712 
2.5963e+3, 2.2653578e+2, -749935.25, -763632.0, 69580.88, 0.023451382, 0.26110494, -686866.56, 33090.266, 0.0, 10.000075, 9.999589 
2.5960028e+3, 2.3653163e+2, -849542.44, -909506.5, 63463.137, 0.3112828, 0.26029652, -809335.5, -187339.89, 0.0, 9.999305, 9.998325 
2.5957003e+3, 2.4652433e+2, -752586.4, -871507.94, -1804.9958, 0.16491106, 0.21464661, -752559.0, -228491.81, 0.0, 9.999569, 9.997761 
2.5953948e+3, 2.565149e+2, -686949.3, -863732.25, 2074.933, -0.2243287, -0.15519054, -686924.94, -260764.11, 0.0, 9.999619, 9.997156 
2.5950938e+3, 2.665106e+2, -325566.94, -368744.0, 78345.734, -0.29061761, 0.048253715, -265889.75, 62311.004, 0.0, 10.000337, 9.999482 
2.594796e+3, 2.7650827e+2, -265783.3, -438431.44, 108081.79, -0.15071116, 0.22932492, -213783.42, 16436.668, 0.0, 10.000629, 9.998255 
2.5944963e+3, 2.8650048e+2, -142793.8, -342544.0, -23431.043, -0.021165805, 0.11783611, -140082.11, -7785.6084, 0.0, 10.000862, 9.998099 
2.5941935e+3, 2.9648978e+2, -179247.05, -412175.6, -52821.754, -0.051124107, -0.41262195, -167828.3, -133424.66, 0.0, 10.0003395, 9.997232 
2.593888e+3, 3.0649203e+2, 69119.016, 34596.83, -160205.14, -0.056772355, 0.43577218, 212990.27, 212990.27, 0.0, 10.000656, 9.999735 
2.5935763e+3, 3.1648412e+2, -81525.63, 4294.564, 21835.318, -0.6265489, 0.031155124, 9530.677, 9530.677, 0.0, 9.999138, 10.000334 
2.6093298e+3, 1.2688242e+2, -1903337.1, -1894291.3, -191103.22, 0.022742506, 0.095872894, -1707657.5, -11097.932, 0.14988421, 9.998858, 9.999201 
2.609027e+3, 1.3687795e+2, -1088646.1, -1575133.8, -63187.38, 0.10427012, 0.10635916, -1080573.0, 518039.3, 0.09979623, 10.004873, 9.997922 
2.6087236e+3, 1.4687295e+2, -910515.7, -1251675.0, -3271.341, 0.01831065, 0.20755921, -910484.3, 590176.8, 0.05285716, 10.004523, 9.9995775 
2.6084203e+3, 1.5686728e+2, -1275803.6, -1531188.5, -26846.287, -0.14513218, 0.0735106, -1273012.0, 129699.28, 0.019694533, 10.001653, 9.99836 
2.608118e+3, 1.6686223e+2, -1264407.8, -1332723.0, -50395.953, -0.07563263, 0.13891324, -1237684.4, 67077.18, 0.004163879, 10.000517, 9.999534 
2.6078165e+3, 1.7685717e+2, -1299394.5, -1384305.9, 24881.701, 0.14179853, 0.08193721, -1292640.6, -85825.13, 0.00030229846, 9.999915, 9.998845 
2.6075116e+3, 1.8685402e+2, -960258.7, -910618.75, -15312.758, 0.1249418, 0.23349074, -906275.2, 202571.69, 0.0000010444409, 10.000488, 10.001128 
2.6072043e+3, 1.968514e+2, -802362.9, -925324.5, -5592.4136, -0.06041005, 0.27919158, -802109.06, 208761.53, 0.0, 10.001391, 9.999976 
2.6068997e+3, 2.0684658e+2, -525617.94, -744261.5, 29966.11, -0.17078409, 0.28659716, -521585.3, 391330.44, 0.0, 10.002748, 9.999835 
2.606597e+3, 2.1684018e+2, -313406.9, -723843.6, -28153.6, -0.22492948, 0.07182822, -311484.75, 503490.9, 0.0, 10.004001, 9.998742 
2.606297e+3, 2.2683513e+2, -300566.97, -675516.8, -75189.87, -0.041680656, 0.17310071, -286050.9, 430974.72, 0.0, 10.00356, 9.998576 
2.605999e+3, 2.3683053e+2, -477396.4, -806230.4, -151228.6, 0.27829817, 0.2578639, -418423.53, 200648.9, 0.0, 10.001987, 9.99781 
2.6056966e+3, 2.4682412e+2, -447417.97, -556452.9, -134445.75, 0.17454676, 0.20968814, -356856.78, 164277.42, 0.0, 10.000874, 9.999304 
2.605391e+3, 2.5681603e+2, -498946.16, -647506.44, -25087.727, -0.16569006, -0.12314149, -494823.94, -71612.914, 0.0, 10.000212, 9.998404 
2.6050904e+3, 2.668118e+2, -384298.06, -329639.56, 101771.36, -0.2491462, -0.014554447, -251591.88, 73657.0, 0.0, 9.999504, 10.000218 
2.604792e+3, 2.7680948e+2, -501694.66, -466220.88, 94324.79, -0.1294301, 0.14469391, -387979.84, -160712.16, 0.0, 9.998506, 9.99913 
2.6044923e+3, 2.8680304e+2, -356461.8, -298007.6, 82522.055, -0.0030857064, 0.049407303, -239689.78, -110360.65, 0.0, 9.998715, 9.999442 
2.60419e+3, 2.9679438e+2, -278831.63, -370378.13, 134761.42, 0.038287703, -0.3425342, -182281.89, -150867.75, 0.0, 9.999168, 9.998113 
2.6038852e+3, 3.067953e+2, 115182.29, 14637.064, -14136.424, 0.03270482, 0.35664722, 117132.03, 117132.03, 0.0, 10.000921, 9.999541 
2.6035815e+3, 3.1678262e+2, 418191.9, 366627.22, 34840.08, 0.26099396, -0.48410615, 435751.9, 435751.9, 0.0, 10.001907, 10.001491 
2.6193252e+3, 1.2717889e+2, -1530494.1, -1449533.9, 70431.64, 0.006584424, -0.12255315, -1408778.3, 284878.25, 0.13183987, 10.0005665, 10.00157 
2.6190245e+3, 1.3718009e+2, -1411651.3, -1566967.0, 46972.14, -0.14549038, 0.20828103, -1398550.5, 197095.75, 0.08692974, 10.00177, 9.999394 
2.6187235e+3, 1.4717565e+2, -1239528.3, -1472472.6, -55753.2, 0.03380558, 0.34233418, -1226871.9, 270820.16, 0.045284748, 10.002375, 9.999033 
2.6184225e+3, 1.5716833e+2, -1287757.6, -1551509.6, -80113.03, 0.36581707, 0.08087072, -1265330.8, 134435.39, 0.01638905, 10.001663, 9.998231 
2.6181167e+3, 1.6716431e+2, -1067351.1, -1007544.4, -40676.113, 0.18988022, 0.1302947, -986962.5, 314841.44, 0.0032885466, 10.000969, 10.00153 
2.617809e+3, 1.7716128e+2, -1270774.6, -1228193.0, -22717.414, -0.16904253, 0.06869041, -1218349.0, -14518.595, 0.00021471751, 9.999554, 10.000094 
2.617505e+3, 1.8715696e+2, -1033207.6, -987740.2, -17085.68, -0.121235415, 0.071375825, -982035.5, 123832.96, 0.00000047553752, 10.000228, 10.000699 
2.6172027e+3, 1.9715203e+2, -1007693.9, -1152074.6, -14869.737, 0.07575129, -0.09080128, -1006178.3, 1734.3658, 0.0, 10.000642, 9.998762 
2.6169e+3, 2.0714623e+2, -779725.2, -1079781.9, 60021.777, 0.006153826, -0.010940781, -768164.2, 141806.13, 0.0, 10.002019, 9.99784 
2.616597e+3, 2.1713956e+2, -747612.7, -1193319.1, -8334.992, -0.16170737, -0.079729244, -747456.9, 64581.64, 0.0, 10.002264, 9.996332 
2.616295e+3, 2.2713247e+2, -615762.6, -1009162.25, -106628.41, -0.15455672, 0.02609269, -588720.5, 125393.805, 0.0, 10.002347, 9.996806 
2.615993e+3, 2.3712522e+2, -809261.2, -1092213.1, -163588.98, -0.07377526, -0.010456225, -734457.7, -118264.42, 0.0, 10.000429, 9.996552 
2.6156905e+3, 2.4712205e+2, -404534.38, -242376.36, -127434.39, -0.039635304, 0.16424628, -172414.56, 345807.63, 0.0, 10.000048, 10.001794 
2.6153883e+3, 2.5711998e+2, -587939.56, -507880.38, -37851.938, -0.0381525, 0.16877769, -492817.9, -72581.89, 0.0, 9.998954, 9.999927 
2.615087e+3, 2.671147e+2, -472123.72, -324304.72, 58715.51, -0.0700278, 0.08646186, -303820.75, 18460.15, 0.0, 9.998788, 10.00054 
2.6147866e+3, 2.7710783e+2, -600826.9, -451829.66, 81385.81, -0.12223033, -0.27587962, -415993.8, -191653.61, 0.0, 9.997654, 9.999598 
2.6144847e+3, 2.8710482e+2, -222665.11, 134260.0, 111028.49, -0.21273507, -0.24164657, 165978.83, 292340.5, 0.0, 9.998195, 10.002603 
2.614182e+3, 2.971029e+2, -295102.25, -227583.33, 219001.31, -0.32389092, -0.28049624, -39754.7, -11381.709, 0.0, 9.998507, 9.999399 
2.6138797e+3, 3.070988e+2, -235137.9, -560637.2, 64188.3, -0.21206708, 0.08908913, -222937.31, -222937.31, 0.0, 10.0003395, 9.995857 
2.613575e+3, 3.1708923e+2, 156791.13, -37620.156, 47707.496, -0.31900552, -0.110663846, 167867.25, 167867.25, 0.0, 10.001445, 9.99893 
2.629324e+3, 1.2748171e+2, -1228990.6, -1259171.3, -3732.1614, -0.054065507, -0.062301964, -1228535.9, 462156.03, 0.11528824, 10.002652, 10.002009 
2.6290205e+3, 1.3748126e+2, -1944528.0, -1764179.8, 50917.42, -0.09336376, 0.064083256, -1750797.4, -158107.52, 0.07524984, 9.997594, 10.000081 
2.6287192e+3, 1.4747775e+2, -1616075.6, -1557920.6, 126667.086, -0.025629036, 0.2058926, -1457036.4, 37690.01, 0.038529176, 9.999222, 10.000002 
2.6284194e+3, 1.5747231e+2, -976099.5, -1321804.4, 123263.83, 0.13762687, 0.06765103, -936650.4, 460134.63, 0.013527696, 10.003392, 9.999025 
2.6281136e+3, 1.6746858e+2, -800850.44, -987915.2, -54536.99, 0.07023736, 0.17511395, -786111.94, 512711.22, 0.0025719018, 10.003169, 10.000662 
2.6278058e+3, 1.7746541e+2, -1115479.6, -1228858.5, -94609.484, -0.12679784, 0.20823412, -1061875.6, 138978.06, 0.00015054179, 10.000803, 9.999542 
2.6275024e+3, 1.8745989e+2, -936446.9, -1019341.75, -79008.72, -0.03701676, 0.13748552, -888674.0, 214229.33, 0.0000001940375, 10.00113, 10.000085 
2.6272008e+3, 1.9745323e+2, -822480.3, -1087301.4, -73854.6, 0.13828667, -0.12450024, -803276.06, 201686.78, 0.0, 10.001852, 9.998681 
2.6268983e+3, 2.0744814e+2, -786741.56, -1011723.0, 35992.07, 0.061981637, -0.02519856, -781123.9, 125889.69, 0.0, 10.001593, 9.998547 
2.626595e+3, 2.1744321e+2, -842415.9, -1129236.1, 107489.97, -0.1299914, 0.047489416, -806603.9, 2461.4343, 0.0, 10.000999, 9.997425 
2.626292e+3, 2.2743635e+2, -676774.2, -901615.5, 142549.1, -0.18056686, 0.0582381, -607649.7, 103485.836, 0.0, 10.001223, 9.998129 
2.625989e+3, 2.3742872e+2, -548955.44, -854794.4, 240489.73, -0.17912064, -0.07862669, -416884.25, 196329.44, 0.0, 10.001556, 9.997691 
2.6256865e+3, 2.4742529e+2, -312976.16, -308412.38, 172458.52, -0.100378476, 0.10191203, -138220.66, 377027.75, 0.0, 10.001015, 10.000936 
2.6253843e+3, 2.5742355e+2, -443691.78, -457763.47, 72168.87, 0.0055514877, 0.2613536, -378216.6, 39047.785, 0.0, 9.999876, 9.999873 
2.6250827e+3, 2.674182e+2, -299671.0, -213373.9, 122320.74, -0.019859798, 0.1567075, -126814.47, 192495.45, 0.0, 9.999756, 10.000874 
2.6247814e+3, 2.77411e+2, -241956.95, -233451.83, 107584.81, -0.1071389, -0.23505528, -130035.57, 91335.62, 0.0, 9.999774, 10.000125 
2.6244792e+3, 2.8740782e+2, 75789.95, 242308.92, -26947.21, -0.25439066, -0.23829973, 246561.13, 369955.6, 0.0, 10.000264, 10.002401 
2.6241764e+3, 2.9740652e+2, 23705.383, -57711.58, -190600.7, -0.40736258, -0.2005932, 177896.39, 203295.94, 0.0, 10.000523, 9.999631 
2.6238737e+3, 3.074005e+2, -243096.89, -658650.6, -202525.69, -0.39883766, -0.038471103, -160722.28, -160722.28, 0.0, 10.000603, 9.995102 
2.623578e+3, 3.1739318e+2, -33856.355, 121345.266, 11838.484, 0.39038834, 0.09341353, 122243.086, 122243.086, 0.0, 9.998859, 10.001339 
2.6393235e+3, 1.2778656e+2, -1499364.9, -1403662.3, -120506.66, 0.0699067, 0.090913296, -1321854.0, 365853.3, 0.10017185, 10.000606, 10.001866 
2.6390162e+3, 1.3778283e+2, -1539209.4, -1556936.4, -71229.66, 0.10194468, -0.11108764, -1476293.9, 113436.32, 0.06469282, 10.00043, 10.000149 
2.6387143e+3, 1.4778027e+2, -1362403.0, -1316801.8, 239546.13, -0.03275865, 0.044380967, -1098973.6, 392782.75, 0.032530583, 10.000548, 10.001004 
2.638415e+3, 1.5777715e+2, -1357407.4, -1513114.9, 128604.305, -0.18627164, 0.03102853, -1284927.3, 108866.38, 0.011066901, 10.00085, 9.998891 
2.6381108e+3, 1.6777353e+2, -1125272.8, -1333245.8, -149566.92, -0.060378514, 0.25028414, -1047095.94, 248739.42, 0.0019930317, 10.001811, 9.99889 
2.637805e+3, 1.7776956e+2, -1207417.3, -1500138.6, -135977.0, 0.13574995, 0.37135768, -1154000.1, 43879.86, 0.00010503105, 10.001201, 9.997481 
2.6375014e+3, 1.8776299e+2, -974546.5, -1087970.4, -10767.38, 0.19861224, 0.3018107, -973533.44, 126407.88, 0.00000008640195, 10.0012865, 9.999425 
2.637199e+3, 1.9775541e+2, -1038986.7, -1242832.8, -43566.54, 0.22523843, -0.0063155144, -1030065.94, -28056.531, 0.0, 10.000753, 9.998085 
2.6368955e+3, 2.077519e+2, -733569.44, -775230.75, 30817.834, 0.10200893, 0.15705767, -717202.56, 186840.92, 0.0, 10.001104, 10.000387 
2.6365924e+3, 2.1774955e+2, -906180.6, -969638.7, 74178.69, -0.058648843, 0.28177002, -857229.94, -51161.79, 0.0, 9.99982, 9.999092 
2.6362896e+3, 2.2774467e+2, -591440.6, -522813.4, 132740.72, -0.115037166, 0.23264581, -420022.94, 288087.16, 0.0, 10.000449, 10.001049 
2.6359868e+3, 2.377386e+2, -750140.25, -868561.7, 205990.69, -0.12343302, -0.047281377, -595019.25, 15142.778, 0.0, 9.999917, 9.998371 
2.6356828e+3, 2.4773262e+2, -678036.94, -868975.94, 103136.66, -0.10700017, 0.06894846, -632966.06, -120738.0, 0.0, 10.000265, 9.99741 
2.6353785e+3, 2.577267e+2, -837192.75, -971269.44, 40872.816, -0.100488484, 0.12240254, -825715.3, -411417.63, 0.0, 9.998671, 9.996923 
2.6350772e+3, 2.6772285e+2, -400466.22, -232666.8, 116826.766, -0.12040693, 0.26151365, -172734.47, 143597.34, 0.0, 9.999084, 10.001006 
2.6347765e+3, 2.7771923e+2, -531677.9, -560714.06, 122946.625, -0.16114861, 0.21460257, -422395.13, -204036.13, 0.0, 9.998715, 9.998377 
2.6344758e+3, 2.877114e+2, -350518.34, -495661.47, -33519.152, -0.19335988, 0.12510355, -343151.4, -222714.95, 0.0, 9.999725, 9.997558 
2.634174e+3, 2.9770285e+2, -291666.47, -521097.56, -226901.69, -0.33319163, -0.13405873, -152130.1, -129605.72, 0.0, 9.999789, 9.996792 
2.6338673e+3, 3.0769956e+2, -6338.948, -70722.7, -270903.7, -0.66904676, 0.124863245, 234278.86, 234278.86, 0.0, 10.000308, 9.999216 
2.6335678e+3, 3.1769538e+2, 19992.691, 407410.06, 11674.319, -0.18523292, 0.13968971, 407761.53, 407761.53, 0.0, 9.998226, 10.0035715 
2.6493195e+3, 1.2809373e+2, -1832362.4, -1595529.1, 61395.57, 0.06459784, 0.35889435, -1580559.5, 104140.58, 0.08643013, 9.998297, 10.001548 
2.6490143e+3, 1.3808666e+2, -799495.44, -1248476.4, 82811.71, -0.12857985, -0.11030883, -784708.4, 802045.94, 0.055199515, 10.005871, 9.99983 
2.6487115e+3, 1.4808357e+2, -1058591.4, -1244444.3, 72926.47, -0.16958673, 0.034782406, -1033392.5, 455393.47, 0.027235242, 10.002917, 10.000388 
2.64841e+3, 1.5808073e+2, -1936903.3, -1798681.4, 11520.868, -0.15448518, 0.11763771, -1797727.8, -406907.03, 0.0089680515, 9.996768, 9.998925 
2.6481074e+3, 1.6807675e+2, -1392080.4, -1364932.9, -36993.055, -0.016045747, 0.23573717, -1339101.9, -46238.836, 0.0015322798, 9.999593, 9.999723 
2.6478043e+3, 1.7807208e+2, -680171.6, -1160450.0, 11995.49, 0.1208381, 0.2373046, -679872.25, 515038.72, 0.00007382683, 10.004366, 9.998303 
2.6474994e+3, 1.880661e+2, -651602.4, -955686.75, 29475.658, 0.14074004, 0.21600118, -648771.56, 448195.78, 0.000000036839044, 10.00354, 9.999286 
2.6471946e+3, 1.9805971e+2, -999994.5, -1198337.1, 65241.184, 0.07761376, 0.07349914, -980458.8, 18567.627, 0.0, 10.000783, 9.998406 
2.6468912e+3, 2.0805547e+2, -723272.75, -791450.0, 109850.97, -0.03366355, 0.162207, -642342.8, 258725.67, 0.0, 10.001169, 10.0002775 
2.6465884e+3, 2.1805209e+2, -541266.5, -748375.75, 54156.348, -0.18192284, 0.21617317, -527960.25, 275142.88, 0.0, 10.001999, 9.999594 
2.6462865e+3, 2.2804828e+2, -411203.06, -404433.56, -47666.215, -0.098227, 0.22126159, -360032.06, 345103.88, 0.0, 10.001438, 10.001443 
2.6459846e+3, 2.3804398e+2, -602729.25, -733285.25, -97246.46, 0.03521127, 0.08788002, -550883.0, 56288.758, 0.0, 10.000475, 9.99909 
2.6456797e+3, 2.4803764e+2, -556584.75, -849896.2, -76867.77, -0.06892459, 0.132058, -537661.0, -28419.205, 0.0, 10.001111, 9.997212 
2.6453736e+3, 2.580306e+2, -325116.34, -742256.8, 38879.8, -0.22767684, 0.13211219, -321523.5, 89799.91, 0.0, 10.002055, 9.99693 
2.645073e+3, 2.6802665e+2, -19887.352, -144070.97, 106929.945, -0.18624124, 0.2978552, 41671.18, 355031.53, 0.0, 10.001969, 10.000268 
2.644774e+3, 2.780236e+2, -191688.14, -449322.28, 46382.438, -0.026565041, 0.40275383, -183592.2, 31792.082, 0.0, 10.001115, 9.998017 
2.6444736e+3, 2.880149e+2, -383023.7, -658616.44, 101532.53, 0.018561557, 0.30443, -349657.28, -232183.97, 0.0, 10.000015, 9.996332 
2.644171e+3, 2.9800454e+2, -487294.06, -654177.1, 145777.23, -0.12393884, 0.042314805, -402766.88, -383185.16, 0.0, 9.998447, 9.996552 
2.643862e+3, 3.0800086e+2, -118456.664, 64600.01, -15272.629, -0.6888241, 0.18599893, 65865.48, 65865.48, 0.0, 9.99861, 10.001005 
2.6435617e+3, 3.1799644e+2, 306419.5, 834403.2, 10863.005, -0.25891152, 0.007479872, 834626.6, 834626.6, 0.0, 9.99877, 10.006286 
2.659316e+3, 1.2840042e+2, -1512227.3, -1492794.6, 284023.03, 0.19768156, 0.56727564, -1218321.8, 463374.53, 0.073999934, 10.00087, 10.000999 
2.6590136e+3, 1.3839148e+2, -1333376.0, -1645826.6, 115629.83, -0.31783876, -0.068285264, -1295239.3, 288530.5, 0.04671151, 10.002628, 9.998509 
2.6587093e+3, 1.4838764e+2, -1292138.9, -1437489.1, -145147.16, -0.22934017, 0.10506422, -1202489.1, 283320.6, 0.022592498, 10.00178, 9.999539 
2.6584053e+3, 1.5838473e+2, -1688206.1, -1720358.3, -87759.125, 0.08801091, 0.25457337, -1615062.8, -227217.84, 0.0071954923, 9.998779, 9.998489 
2.6581043e+3, 1.6837983e+2, -1202063.1, -1129847.8, 155521.22, 0.14543074, 0.20913409, -1006297.6, 283593.4, 0.001170623, 10.000329, 10.000971 
2.657804e+3, 1.7837438e+2, -988370.6, -1241066.6, 65364.637, 0.13505134, -0.00063528947, -972464.06, 219476.27, 0.00005271245, 10.002091, 9.998819 
2.6574972e+3, 1.883695e+2, -810384.9, -1032855.8, -100081.16, 0.033498187, 0.058542807, -771988.94, 321997.88, 0.000000014947995, 10.0025215, 9.999219 
2.6571894e+3, 1.9836482e+2, -1151393.6, -1371869.6, -19082.402, -0.05876696, 0.09668843, -1149754.3, -153722.44, 0.0, 10.000297, 9.99744 
2.656886e+3, 2.083589e+2, -872074.5, -964796.25, 133036.17, -0.2223566, 0.102812596, -777552.56, 120538.62, 0.0, 10.000791, 9.99915 
2.6565838e+3, 2.1835269e+2, -966902.3, -1153097.8, 52336.965, -0.37121418, -0.031348422, -953199.5, -153045.16, 0.0, 10.000138, 9.997637 
2.656283e+3, 2.283493e+2, -634701.6, -642033.6, -73546.836, -0.09665528, 0.15736279, -564729.5, 137461.36, 0.0, 10.000617, 10.000109 
2.655983e+3, 2.3834646e+2, -870550.7, -944483.6, -101800.664, 0.25609735, 0.2632334, -799212.5, -194990.53, 0.0, 9.999148, 9.998235 
2.655677e+3, 2.4834147e+2, -508236.2, -576142.44, -43085.92, -0.025087036, 0.32211292, -487333.03, 18942.387, 0.0, 10.000485, 9.999336 
2.655369e+3, 2.5833556e+2, -540485.06, -794772.6, 62874.633, -0.47580367, 0.22619453, -525788.2, -117450.1, 0.0, 10.000522, 9.997267 
2.6550698e+3, 2.683298e+2, -271518.4, -427471.03, 87619.914, -0.26449266, 0.2933069, -232202.13, 78191.53, 0.0, 10.001148, 9.998617 
2.654773e+3, 2.7832413e+2, -396536.63, -606914.94, 37810.42, 0.150821, 0.26281878, -389947.5, -177501.3, 0.0, 10.000139, 9.997355 
2.6544723e+3, 2.8831914e+2, -225963.34, -208774.34, 57457.24, 0.26744968, 0.33505008, -159272.38, -44779.53, 0.0, 9.999652, 9.999508 
2.6541677e+3, 2.9831412e+2, -594556.2, -624092.44, 160012.03, 0.06525797, 0.30988407, -448632.22, -432091.3, 0.0, 9.99752, 9.997167 
2.6538578e+3, 3.083048e+2, -422019.0, -409053.03, 18254.822, -0.532502, 0.06025515, -396164.2, -396164.2, 0.0, 9.998046, 9.997953 
2.6535574e+3, 3.182974e+2, 4332.8745, 437748.5, 84972.5, -0.24462771, -0.16578817, 453812.25, 453812.25, 0.0, 9.99791, 10.003932 
2.6693165e+3, 1.2869795e+2, -1098545.4, -1275282.9, 6148.7876, 0.17902039, 0.022341413, -1098331.8, 580441.75, 0.062782116, 10.003761, 10.001186 
2.66901e+3, 1.386962e+2, -1997996.6, -1919420.5, 14228.611, -0.24334706, 0.123892926, -1916923.4, -336137.88, 0.039146993, 9.9977, 9.999041 
2.6687053e+3, 1.4869182e+2, -1469928.1, -1454077.1, -47033.344, -0.26256058, 0.1797261, -1414306.3, 68523.46, 0.018543638, 10.000262, 10.000148 
2.6684016e+3, 1.5868683e+2, -852799.75, -1262895.1, 30858.314, -0.13953803, 0.09725475, -850490.8, 534390.9, 0.005710664, 10.004231, 9.99903 
2.6681012e+3, 1.6868222e+2, -876017.8, -1011952.0, 118934.73, 0.039645135, 0.0776985, -806999.5, 479925.72, 0.0008890518, 10.002621, 10.000709 
2.667801e+3, 1.7867765e+2, -1377679.8, -1422678.6, 23376.523, 0.15562792, -0.009834848, -1367734.1, -178766.78, 0.000037964888, 9.999257, 9.998954 
2.6674944e+3, 1.8867283e+2, -1026625.75, -1157445.6, -106041.336, 0.0057413983, 0.055817723, -967443.44, 123571.914, 0.0000000057994387, 10.001008, 9.999151 
2.6671863e+3, 1.986679e+2, -670907.7, -1076984.6, -54366.586, -0.1991551, 0.08158398, -663755.0, 329310.03, 0.0, 10.003161, 9.998127 
2.666883e+3, 2.0866214e+2, -654897.3, -809956.2, 83725.72, -0.27849993, 0.047848813, -618318.0, 276801.56, 0.0, 10.002016, 9.999666 
2.6665804e+3, 2.1865599e+2, -916020.6, -1052531.5, 88054.28, -0.34036314, -0.09375501, -872865.3, -75686.99, 0.0, 9.999988, 9.998453 
2.6662785e+3, 2.2865231e+2, -702812.8, -711744.4, 63513.406, -0.1745611, 0.063768335, -643608.4, 55610.883, 0.0, 10.000191, 9.999901 
2.6659772e+3, 2.3864926e+2, -577739.5, -797118.1, 85801.625, 0.0475854, 0.22134581, -548167.7, 53088.195, 0.0, 10.000972, 9.998408 
2.665672e+3, 2.486448e+2, -371970.72, -526418.3, 45571.684, -0.13504227, 0.34608632, -359526.84, 143779.2, 0.0, 10.001412, 9.99925 
2.6653665e+3, 2.5863978e+2, -348521.16, -644812.06, -1398.6698, -0.4388186, 0.35445285, -348514.56, 56846.242, 0.0, 10.00147, 9.997854 
2.665067e+3, 2.6863307e+2, -303375.63, -473399.47, 45992.926, -0.19635996, 0.31315053, -291731.56, 15692.822, 0.0, 10.00091, 9.998491 
2.66477e+3, 2.7862602e+2, -346327.8, -494796.16, 71406.19, 0.25384206, 0.17653017, -317559.28, -108069.62, 0.0, 9.999958, 9.9982605 
2.6644686e+3, 2.8862268e+2, -8113.886, 34317.168, 8986.904, 0.33855194, 0.29525128, 36142.105, 147660.1, 0.0, 10.000438, 10.000893 
2.6641637e+3, 2.9861987e+2, -93006.32, -286822.47, -38319.426, 0.18385231, 0.3922421, -85705.22, -72164.695, 0.0, 10.0004, 9.998159 
2.6638538e+3, 3.0860925e+2, -278171.97, -465809.44, -50243.492, -0.37275308, 0.04427952, -265565.34, -265565.34, 0.0, 9.999525, 9.996886 
2.6635534e+3, 3.186025e+2, -96980.875, 234904.88, 189257.39, -0.02979679, 0.033998094, 320666.97, 320666.97, 0.0, 9.99771, 10.0026865 
2.679317e+3, 1.2899616e+2, -1340019.5, -1374004.1, -66068.99, 0.33128276, -0.4461326, -1288792.8, 387050.88, 0.05267765, 10.001951, 10.001303 
2.6790065e+3, 1.3900144e+2, -1702240.6, -1742129.9, -13749.258, 0.029887127, 0.32533294, -1697960.6, -120164.96, 0.03242507, 9.999681, 9.999245 
2.6787016e+3, 1.4899628e+2, -1301646.8, -1292583.3, 173240.55, -0.248706, 0.22747174, -1123815.1, 356030.88, 0.015032841, 10.001087, 10.000814 
2.6783988e+3, 1.5898882e+2, -1129075.4, -1421301.8, 100821.57, -0.380186, -0.17193724, -1097666.6, 284251.63, 0.0044764117, 10.002506, 9.998735 
2.678098e+3, 1.6898493e+2, -1061569.3, -1179653.1, 9349.203, -0.06948831, -0.05275523, -1060833.6, 223123.2, 0.00066900725, 10.001822, 9.99989 
2.677797e+3, 1.7898186e+2, -1473496.1, -1563082.0, -21986.514, 0.2844224, 0.08545431, -1468391.0, -282402.9, 0.000027210404, 9.999127, 9.99804 
2.677491e+3, 1.8897666e+2, -1069579.1, -1183491.0, 4254.8135, 0.041781638, 0.13976066, -1069420.5, 18622.23, 0.000000001728097, 10.000851, 9.999003 
2.6771843e+3, 1.9897106e+2, -917883.8, -1205007.0, -20268.232, -0.26815024, 0.10460376, -916460.1, 73640.266, 0.0, 10.001647, 9.997948 
2.676881e+3, 2.0896605e+2, -670302.6, -698947.4, 3836.137, -0.22358513, 0.06097939, -669797.75, 222345.11, 0.0, 10.001457, 10.000666 
2.676578e+3, 2.1896118e+2, -1080835.6, -1100607.3, 35976.992, -0.12783083, -0.051478535, -1053410.9, -259227.95, 0.0, 9.998822, 9.998684 
2.676273e+3, 2.2895673e+2, -734317.75, -691222.7, 73937.95, -0.30116272, -0.02732139, -635756.44, 60472.9, 0.0, 9.999869, 10.000163 
2.6759684e+3, 2.389525e+2, -902922.7, -1107831.9, 89562.47, -0.46693584, -0.0052145305, -869295.06, -271018.3, 0.0, 9.999531, 9.996952 
2.675667e+3, 2.4894802e+2, -625781.9, -861093.4, 50504.145, -0.35518873, 0.2859402, -615400.4, -115068.086, 0.0, 10.000749, 9.997165 
2.6753658e+3, 2.5894332e+2, -672387.2, -955250.56, -3082.8267, -0.22708732, 0.49206752, -672353.6, -269964.13, 0.0, 10.000053, 9.996367 
2.6750648e+3, 2.6893666e+2, -322439.75, -356087.25, 4155.7905, -0.08747724, 0.41024092, -321934.1, -17484.555, 0.0, 10.0003195, 9.999536 
2.674764e+3, 2.7892956e+2, -531759.7, -614566.7, 52886.05, 0.08625622, 0.1639984, -505997.84, -299486.6, 0.0, 9.998901, 9.997945 
2.6744622e+3, 2.8892443e+2, -151191.56, -149270.3, 8676.82, 0.08836561, 0.17336455, -141501.1, -32942.285, 0.0, 10.000024, 9.999788 
2.674158e+3, 2.9892012e+2, -212776.33, -375852.13, -77230.65, -0.05725761, 0.19528137, -182006.61, -171407.42, 0.0, 9.999816, 9.997817 
2.673851e+3, 3.0891553e+2, -176630.25, -200968.6, -129467.11, -0.17907262, 0.3092979, -58761.652, -58761.652, 0.0, 9.999382, 9.998735 
2.6735497e+3, 3.1890708e+2, -385755.03, -94270.945, 292357.28, 0.11779794, -0.0023506354, 86657.375, 86657.375, 0.0, 9.996723, 10.000864 
2.689312e+3, 1.2930888e+2, -1633826.4, -1625738.0, 75063.45, 0.042819884, -0.0047311857, -1554609.9, 118169.734, 0.043619167, 10.000327, 10.00022 
2.6890036e+3, 1.3930659e+2, -1284484.9, -1606316.9, 140155.03, -0.11652234, 0.11664538, -1232006.0, 342799.7, 0.02648621, 10.002832, 9.998676 
2.6886994e+3, 1.4930211e+2, -1177239.3, -1312321.0, 242435.48, -0.26446322, 0.16007817, -993112.25, 483737.8, 0.012009438, 10.002214, 10.000175 
2.6883975e+3, 1.5929672e+2, -1420281.0, -1619462.0, 141953.69, -0.31265062, 0.050058037, -1346467.0, 32435.893, 0.003455713, 10.000605, 9.9983225 
2.688096e+3, 1.692919e+2, -1165103.6, -1342768.6, 44123.676, -0.015123021, 0.14281437, -1154748.9, 126204.625, 0.00049606664, 10.001438, 9.999023 
2.687794e+3, 1.7928745e+2, -1049953.4, -1397775.8, 35711.12, 0.24377869, 0.23673895, -1046324.75, 136676.27, 0.00001910138, 10.002038, 9.99782 
2.6874885e+3, 1.8928175e+2, -856531.94, -1075096.6, 65834.414, 0.045178037, 0.24500038, -838233.75, 246825.84, 0.0000000002885943, 10.002135, 9.999193 
2.6871824e+3, 1.992762e+2, -875281.44, -1121857.8, 45153.207, -0.2412165, 0.20676085, -867273.0, 119842.59, 0.0, 10.00153, 9.9986 
2.686878e+3, 2.0927115e+2, -593938.1, -648181.2, 17724.291, -0.2159264, 0.1334645, -588660.1, 300496.94, 0.0, 10.001839, 10.000863 
2.6865745e+3, 2.192663e+2, -575394.1, -828864.8, 18836.447, -0.15663089, 0.025058445, -574002.0, 217193.72, 0.0, 10.002049, 9.999009 
2.6862693e+3, 2.292614e+2, -467906.8, -648903.8, 3458.1567, -0.3363223, 0.052033357, -467840.78, 225404.94, 0.0, 10.00194, 9.999535 
2.6859644e+3, 2.3925665e+2, -570543.25, -919356.6, -18791.873, -0.53309274, 0.088477984, -569533.8, 25763.469, 0.0, 10.001535, 9.997327 
2.6856637e+3, 2.4925087e+2, -441231.1, -811809.94, 39871.227, -0.38824242, 0.24493676, -436989.84, 60373.82, 0.0, 10.0020275, 9.99699 
2.685364e+3, 2.5924486e+2, -256802.17, -702336.0, 57421.99, -0.17233407, 0.3695498, -249520.44, 149911.27, 0.0, 10.002496, 9.9969845 
2.685062e+3, 2.692392e+2, -56848.65, -184622.69, 10821.86, -0.045233343, 0.3444634, -55938.57, 245542.92, 0.0, 10.001857, 10.0000305 
2.6847598e+3, 2.792333e+2, -267583.1, -456463.4, 23014.174, 0.06757815, 0.21047455, -264819.34, -61288.48, 0.0, 10.000468, 9.998283 
2.6844564e+3, 2.8922614e+2, -288569.44, -326909.56, 11628.844, -0.015690675, 0.067938454, -285318.06, -179717.13, 0.0, 9.999449, 9.998866 
2.6841524e+3, 2.9921997e+2, -383198.63, -413230.66, -81987.58, -0.13038619, -0.01048559, -314863.3, -307201.34, 0.0, 9.998338, 9.99827 
2.6838484e+3, 3.0922043e+2, 26502.8, 84724.68, -155184.22, 0.080669366, 0.46852005, 213504.81, 213504.81, 0.0, 9.999867, 10.00049 
2.6835445e+3, 3.1921086e+2, -2631.993, -27360.748, 216935.66, 0.16717713, -0.056114685, 202291.36, 202291.36, 0.0, 9.99974, 9.999873 
2.6993063e+3, 1.2962325e+2, -1760424.9, -1838398.9, 81740.36, -0.15726285, 0.5233007, -1708849.9, -39149.637, 0.03555016, 10.000155, 9.998796 
2.699001e+3, 1.3961169e+2, -1466012.9, -1861797.3, 67666.76, -0.18660443, -0.15782885, -1454763.6, 117051.555, 0.021269776, 10.002283, 9.997196 
2.698698e+3, 1.4960851e+2, -1241729.5, -1439470.3, 123018.37, -0.17374685, 0.099451266, -1182774.5, 291073.94, 0.009415533, 10.002219, 9.999286 
2.6983964e+3, 1.5960604e+2, -1532087.6, -1807519.9, 73364.89, -0.03464033, 0.37937224, -1513764.9, -137889.72, 0.0026134893, 10.000508, 9.997066 
2.6980942e+3, 1.6959982e+2, -1191767.3, -1434925.4, 43885.137, 0.10613795, 0.41125074, -1184089.4, 93852.95, 0.0003600524, 10.001711, 9.998189 
2.6977912e+3, 1.795932e+2, -1193354.9, -1540048.0, 32445.598, 0.20931797, 0.36403975, -1190344.5, -10330.997, 0.000012952271, 10.00151, 9.997057 
2.6974866e+3, 1.8958761e+2, -882056.2, -1041553.25, 47039.656, 0.0909126, 0.3607693, -869216.6, 212852.77, 0.000000000007316074, 10.001922, 9.999454 
2.697181e+3, 1.995824e+2, -1067130.1, -1263973.1, 35806.67, -0.076646075, 0.34517097, -1060819.1, -76699.68, 0.0, 10.000528, 9.998109 
2.6968756e+3, 2.095769e+2, -700899.4, -737695.3, 15898.63, -0.21258387, 0.24637151, -694981.7, 191184.34, 0.0, 10.001347, 10.000451 
2.6965705e+3, 2.1957146e+2, -908006.44, -1142630.8, 18790.26, -0.30360004, 0.13279136, -906511.1, -118299.016, 0.0, 10.000586, 9.997523 
2.696267e+3, 2.2956671e+2, -683747.56, -875293.44, -5598.33, -0.29102075, 0.27957028, -683584.06, 6677.4165, 0.0, 10.00119, 9.998222 
2.695964e+3, 2.3956184e+2, -874311.25, -1166636.1, -1598.6311, -0.28591076, 0.41112483, -874302.5, -281988.9, 0.0, 10.000028, 9.996325 
2.695662e+3, 2.4955338e+2, -456535.44, -685525.06, 56650.07, -0.3223459, 0.22876763, -443287.2, 51111.44, 0.0, 10.001453, 9.998075 
2.6953605e+3, 2.595451e+2, -512369.9, -821417.8, 43729.58, -0.31622574, 0.012076075, -506301.44, -109820.04, 0.0, 10.000893, 9.996897 
2.695059e+3, 2.6954123e+2, -189987.53, -269201.66, -30246.148, -0.09431375, 0.17451786, -179759.38, 118755.35, 0.0, 10.001171, 9.999702 
2.6947564e+3, 2.795376e+2, -493655.34, -653772.7, -4683.7114, 0.09220804, 0.28654942, -493518.44, -292972.34, 0.0, 9.999456, 9.997387 
2.6944518e+3, 2.895285e+2, -418533.9, -444751.38, -30808.506, -0.0037219618, 0.015252265, -398161.25, -295523.7, 0.0, 9.998965, 9.998225 
2.6941463e+3, 2.9952013e+2, -573211.0, -537407.9, -58589.09, -0.17412618, -0.2276374, -494046.47, -489324.5, 0.0, 9.99731, 9.997898 
2.6938444e+3, 3.0952322e+2, 53478.258, 216059.25, -65268.43, 0.11555978, 0.43379575, 239019.0, 239019.0, 0.0, 9.999637, 10.001481 
2.6935393e+3, 3.1951597e+2, -114659.71, -171592.17, 141974.7, -0.05016748, 0.072256476, 1674.4115, 1674.4115, 0.0, 9.999519, 9.998982 
2.709304e+3, 1.2992455e+2, -1823061.1, -1911182.1, -36786.063, -0.1339175, 0.26355967, -1809723.5, -142981.97, 0.028415078, 9.999857, 9.998482 
2.7090013e+3, 1.3991538e+2, -1406181.3, -1799727.8, 2224.3765, -0.097637974, -0.14730446, -1406168.8, 162667.28, 0.016713178, 10.002501, 9.997536 
2.708697e+3, 1.4991234e+2, -1098739.9, -1297957.0, 32334.5, -0.14588249, 0.048797525, -1093623.1, 377243.3, 0.0071980846, 10.002807, 10.000025 
2.7083936e+3, 1.5990953e+2, -1241422.3, -1608983.9, 60802.35, -0.15803522, 0.24374017, -1231625.4, 141269.67, 0.0019202423, 10.002167, 9.997654 
2.7080914e+3, 1.699029e+2, -992427.94, -1352039.9, 87756.234, -0.032665394, 0.2302557, -972155.56, 302810.7, 0.00025324232, 10.0031185, 9.998109 
2.707789e+3, 1.7989615e+2, -892722.2, -1343476.9, 56835.57, 0.044192236, 0.19342542, -885666.25, 291372.9, 0.000008369746, 10.003268, 9.997569 
2.7074838e+3, 1.8989162e+2, -814090.9, -995700.2, 31179.748, 0.033656962, 0.2755578, -808886.9, 270199.22, 0.0, 10.002307, 9.999596 
2.7071786e+3, 1.9988741e+2, -957289.8, -1176745.8, 43899.934, -0.04853816, 0.35863256, -948833.9, 32294.164, 0.0, 10.001018, 9.998499 
2.706872e+3, 2.0988141e+2, -656886.56, -788091.1, 44200.797, -0.27490896, 0.25009662, -643385.3, 239796.11, 0.0, 10.001794, 9.999977 
2.7065665e+3, 2.1987543e+2, -618880.4, -965873.94, 18696.986, -0.4773976, 0.13220035, -617875.8, 167358.64, 0.0, 10.002252, 9.997976 
2.7062646e+3, 2.2986996e+2, -621016.4, -867197.5, 25984.105, -0.2392141, 0.22118993, -618303.7, 68986.195, 0.0, 10.001613, 9.998147 
2.7059633e+3, 2.3986435e+2, -709135.4, -1039229.25, 93353.77, -0.005302504, 0.31346428, -684563.2, -95215.3, 0.0, 10.000814, 9.99684 
2.7056608e+3, 2.4985614e+2, -579950.3, -749708.3, 114893.2, -0.12399856, 0.16104363, -521983.63, -30553.828, 0.0, 10.000538, 9.998119 
2.705358e+3, 2.5984818e+2, -575694.3, -781741.06, 21681.145, -0.24507287, -0.0068394435, -573437.6, -179929.31, 0.0, 10.000062, 9.997563 
2.7050546e+3, 2.6984453e+2, -357924.8, -391476.25, -81246.9, -0.15347417, 0.17083986, -291739.8, 3803.0522, 0.0, 10.000085, 9.999425 
2.7047512e+3, 2.7984098e+2, -383449.2, -533422.2, -73044.78, 0.010423744, 0.3207932, -353752.75, -156176.22, 0.0, 9.999783, 9.998076 
2.704447e+3, 2.89833e+2, -272725.25, -297973.7, -13657.308, 0.048741538, 0.09932237, -266751.25, -167095.28, 0.0, 9.999588, 9.998976 
2.7041417e+3, 2.998254e+2, -263697.78, -309866.16, 78673.945, 0.0031665554, -0.109552674, -204791.3, -203059.77, 0.0, 9.998972, 9.998697 
2.7038404e+3, 3.098269e+2, 153191.0, 256122.56, 55906.77, 0.1582758, 0.39395052, 280645.56, 280645.56, 0.0, 10.000267, 10.001507 
2.7035353e+3, 3.1982e+2, -91438.62, -226951.52, -12905.573, 0.009285787, 0.11475869, -90220.51, -90220.51, 0.0, 9.999872, 9.998452 
2.7193022e+3, 1.3022336e+2, -1715728.6, -1835874.8, 79253.4, 0.103408344, -0.123603, -1676353.9, -12546.783, 0.02219124, 10.000607, 9.998604 
2.7190018e+3, 1.402191e+2, -1494453.8, -1831262.3, 11607.041, 0.15750296, -0.05844469, -1494054.3, 71802.11, 0.01278431, 10.001861, 9.997636 
2.7186957e+3, 1.5021563e+2, -1160854.6, -1218517.1, -33855.52, -0.07325067, 0.002931813, -1145217.5, 322671.78, 0.00532732, 10.002003, 10.000926 
2.7183905e+3, 1.602116e+2, -1448948.3, -1679097.3, -12347.51, -0.22811346, 0.0015072613, -1448287.8, -78360.46, 0.0013580795, 10.000743, 9.997843 
2.7180886e+3, 1.7020491e+2, -1181991.8, -1419348.0, 57109.08, -0.141063, -0.061757714, -1168965.9, 103031.516, 0.00016970174, 10.001809, 9.998241 
2.7177867e+3, 1.801986e+2, -1191955.1, -1525033.3, 11247.777, -0.040809095, -0.062220924, -1191575.8, -17510.781, 0.0000049540654, 10.001464, 9.997189 
2.717481e+3, 1.901951e+2, -876913.6, -1029046.3, -51694.832, -0.016903577, 0.10786469, -861010.2, 215093.84, 0.0, 10.001927, 9.999508 
2.7171752e+3, 2.0019162e+2, -1119819.6, -1344884.0, 13785.58, -0.0144964075, 0.28295845, -1118978.4, -140836.83, 0.0, 10.0004425, 9.997573 
2.7168688e+3, 2.1018563e+2, -775553.44, -878486.94, 59084.465, -0.33020836, 0.21018761, -748663.3, 131533.28, 0.0, 10.001332, 9.9994755 
2.7165633e+3, 2.2017926e+2, -925460.94, -1184369.1, 11127.025, -0.5675903, 0.10228616, -924983.6, -142728.72, 0.0, 10.000599, 9.997256 
2.7162626e+3, 2.3017207e+2, -660225.56, -824881.44, -9197.431, -0.13149184, -0.022182012, -659713.4, 24611.486, 0.0, 10.001184, 9.998597 
2.7159625e+3, 2.4016528e+2, -983236.1, -1252151.5, 76072.1, 0.28806648, -0.06746858, -963208.06, -376815.84, 0.0, 9.999467, 9.995978 
2.7156594e+3, 2.5015965e+2, -742524.9, -913723.56, 109488.51, 0.14544638, 0.09186578, -689145.9, -200692.89, 0.0, 9.99993, 9.997207 
2.7153552e+3, 2.6015425e+2, -876088.5, -1071450.6, 16446.238, -0.081461415, 0.2672027, -874713.7, -484201.84, 0.0, 9.998729, 9.996229 
2.715049e+3, 2.70149e+2, -479045.0, -489320.94, -79970.336, -0.27409542, 0.3293425, -404047.75, -111481.1, 0.0, 9.999544, 9.998979 
2.7147433e+3, 2.8014407e+2, -526893.7, -575045.0, -87127.57, -0.34979934, 0.36924586, -460576.6, -265959.78, 0.0, 9.998786, 9.998267 
2.714442e+3, 2.901406e+2, -194954.16, -38973.777, -38370.023, 0.008854705, 0.41347176, -30046.027, 66601.54, 0.0, 9.999219, 10.000897 
2.714139e+3, 3.0013692e+2, -387433.84, -387397.22, 93769.08, 0.17842336, 0.4461372, -293646.44, -293646.44, 0.0, 9.998307, 9.998458 
2.7138364e+3, 3.1013027e+2, -12030.828, 7638.7173, 88478.56, 0.16745985, 0.23398978, 86827.42, 86827.42, 0.0, 9.999947, 9.999886 
2.7135298e+3, 3.201216e+2, -304804.5, -499160.94, -68967.02, -0.1844936, -0.07714115, -282818.75, -282818.75, 0.0, 9.999287, 9.9968 
2.7292997e+3, 1.305237e+2, -1421592.8, -1545171.1, -30372.32, -0.07790914, -0.20943183, -1414531.6, 246336.48, 0.016854309, 10.002015, 9.999914 
2.7289978e+3, 1.4052339e+2, -1502777.5, -1834726.8, -40859.984, -0.101204574, 0.16324793, -1497822.0, 65055.977, 0.009467287, 10.001748, 9.997675 
2.728693e+3, 1.5051778e+2, -1435099.6, -1505512.3, -161174.31, -0.08354411, 0.11738706, -1305331.3, 159603.63, 0.0037924994, 10.000782, 9.999527 
2.7283886e+3, 1.6051175e+2, -1599602.6, -1677751.1, -168170.16, -0.046883166, 0.00086049247, -1466027.0, -99032.62, 0.0009170214, 9.999331, 9.998527 
2.728086e+3, 1.7050707e+2, -1351144.3, -1296328.9, -29356.89, -0.015137145, -0.019743625, -1283574.3, -14534.871, 0.0001065257, 9.999679, 10.000143 
2.7277836e+3, 1.8050282e+2, -1299634.3, -1431106.6, -20310.133, -0.030640034, 0.016093368, -1296568.3, -125486.79, 0.0000025959862, 9.999987, 9.998565 
2.727478e+3, 1.9049847e+2, -838078.9, -1013304.94, -59771.16, -0.07111959, 0.080908045, -819632.3, 253495.39, 0.0, 10.002087, 9.999621 
2.7271727e+3, 2.0049429e+2, -624784.75, -1008532.56, -33764.457, -0.12602396, 0.16787869, -621836.6, 353335.47, 0.0, 10.003307, 9.998519 
2.7268678e+3, 2.1048939e+2, -555198.3, -747035.0, 28543.088, -0.22981396, 0.16683991, -551041.5, 326176.6, 0.0, 10.002632, 9.999812 
2.726563e+3, 2.2048415e+2, -692214.5, -1032643.3, 24333.305, -0.33006594, 0.1644797, -690483.94, 88783.734, 0.0, 10.001887, 9.997691 
2.72626e+3, 2.3047699e+2, -478084.6, -795514.94, -35378.61, -0.16395792, 0.077549435, -474189.34, 207150.86, 0.0, 10.002565, 9.998164 
2.7259576e+3, 2.4047022e+2, -386004.2, -850908.44, -7837.6997, 0.053789627, 0.04638426, -385872.1, 197536.84, 0.0, 10.002935, 9.997078 
2.725656e+3, 2.5046533e+2, -310016.63, -592711.44, 124409.43, 0.102698244, 0.1902247, -263064.28, 222394.19, 0.0, 10.002291, 9.998346 
2.7253526e+3, 2.6046056e+2, -424002.56, -733744.2, 134557.08, 0.070850775, 0.34836277, -373713.5, 13794.241, 0.0, 10.001167, 9.997396 
2.7250448e+3, 2.7045384e+2, -482633.34, -510835.7, 80742.75, -0.21227367, 0.27138087, -414769.7, -125193.61, 0.0, 9.999503, 9.998907 
2.7247375e+3, 2.8044763e+2, -570548.2, -507181.06, 111873.875, -0.36338547, 0.20920147, -422590.75, -230952.77, 0.0, 9.997962, 9.99916 
2.7244365e+3, 2.9044563e+2, -93057.5, 79684.09, 81626.83, -0.014804584, 0.34636775, 112152.91, 205806.23, 0.0, 9.999468, 10.001645 
2.7241346e+3, 3.0044356e+2, -63788.75, -230581.55, 130498.5, 0.23482034, 0.500777, 7685.175, 7685.175, 0.0, 10.000404, 9.998538 
2.7238324e+3, 3.1043443e+2, -39010.47, -192475.84, 110847.586, 0.19676498, 0.15853058, 19071.875, 19071.875, 0.0, 10.000407, 9.9983835 
2.7235243e+3, 3.2042727e+2, -269876.72, -423793.63, -181649.11, -0.2638962, 0.14128256, -149556.17, -149556.17, 0.0, 9.999035, 9.997533 
2.739297e+3, 1.3082552e+2, -1491311.1, -1437506.0, 71001.82, -0.11434153, -0.13732502, -1388481.0, 269435.38, 0.012358647, 10.000991, 10.001095 
2.7389935e+3, 1.4082728e+2, -1663997.0, -1990590.9, -92747.29, -0.2610939, 0.3848896, -1639496.3, -79591.57, 0.0067449408, 10.001049, 9.996888 
2.7386898e+3, 1.5081964e+2, -1455564.5, -1709689.6, -177924.53, -0.047381394, 0.2554935, -1363990.3, 97995.49, 0.0025850076, 10.001471, 9.997759 
2.738387e+3, 1.6081204e+2, -1439319.6, -1563352.4, -111639.47, 0.26639006, 0.097920336, -1373627.8, -9563.805, 0.0005889778, 10.000328, 9.998806 
2.738084e+3, 1.7080978e+2, -1094788.3, -931205.06, 3072.4978, 0.22766586, 0.11905221, -931147.4, 334932.4, 0.00006228534, 10.000423, 10.00228 
2.7377808e+3, 1.8080758e+2, -1337900.6, -1389152.5, 10807.677, 0.11654032, 0.2035142, -1335714.8, -167619.06, 0.0000011486238, 9.999576, 9.999024 
2.7374756e+3, 1.9080207e+2, -951194.8, -1042105.2, 5341.6577, -0.08120821, 0.09849654, -950882.06, 119269.45, 0.0, 10.001331, 9.999702 
2.7371708e+3, 2.0079686e+2, -881285.0, -1130065.4, -19054.61, -0.19998081, 0.07431234, -879834.06, 92370.555, 0.0, 10.0016775, 9.998433 
2.736868e+3, 2.1079327e+2, -621752.75, -719663.94, -25383.361, -0.009232093, 0.13057564, -615563.44, 258676.14, 0.0, 10.001955, 10.000292 
2.7365646e+3, 2.2078954e+2, -989965.1, -1290703.0, 10712.18, 0.085677736, 0.2739224, -989584.06, -213306.78, 0.0, 10.000445, 9.9965925 
2.7362567e+3, 2.3078363e+2, -703525.6, -1016639.6, -13326.683, -0.30912507, 0.3877029, -702959.44, -24615.658, 0.0, 10.001626, 9.997035 
2.73595e+3, 2.4077778e+2, -640690.1, -936388.94, -1590.5173, -0.5790597, 0.51861835, -640681.56, -60274.074, 0.0, 10.001143, 9.997335 
2.7356508e+3, 2.507726e+2, -254533.84, -266196.75, 91839.59, -0.18501382, 0.38206062, -168340.77, 314109.97, 0.0, 10.001479, 10.000918 
2.7353504e+3, 2.607673e+2, -606030.3, -747247.5, 68834.414, 0.1301702, 0.27750805, -578029.8, -193535.23, 0.0, 9.999743, 9.997948 
2.7350414e+3, 2.7075914e+2, -572426.06, -537151.0, 10959.319, -0.031141844, -0.0023511269, -534023.44, -247453.8, 0.0, 9.998886, 9.998976 
2.7347332e+3, 2.8075138e+2, -794366.06, -710993.6, 128140.26, -0.19157247, -0.20660418, -617929.5, -429287.88, 0.0, 9.997, 9.998187 
2.734431e+3, 2.9074702e+2, -193161.81, -45811.8, 164116.66, -0.08636639, -0.25267684, 60408.39, 151090.3, 0.0, 9.999246, 10.000841 
2.7341285e+3, 3.0074394e+2, -269128.63, -516538.06, 146248.53, -0.060188524, -0.08826662, -201283.13, -201283.13, 0.0, 9.999933, 9.996779 
2.7338266e+3, 3.1074154e+2, -199710.3, -412848.8, 97126.516, -0.0049592177, 0.3540995, -162090.22, -162090.22, 0.0, 10.000061, 9.996953 
2.7335188e+3, 3.2073396e+2, -174943.9, -10331.32, -239078.7, -0.33052266, 0.291594, 160212.05, 160212.05, 0.0, 9.998272, 10.000676 
2.749293e+3, 1.3113189e+2, -1701804.0, -1736717.9, 115189.66, -0.2710729, 0.1540053, -1602756.0, 52162.46, 0.008685479, 10.000273, 9.999446 
2.7489948e+3, 1.4112747e+2, -1564859.8, -1869694.5, -28603.063, 0.07183453, 0.17128266, -1562199.0, -5235.218, 0.0045926278, 10.0013275, 9.997606 
2.748688e+3, 1.5112281e+2, -1094617.5, -1363116.6, -1727.4431, -0.09309898, 0.20330657, -1094606.4, 364406.9, 0.0016782226, 10.00311, 9.999417 
2.7483818e+3, 1.611178e+2, -918056.8, -1273449.8, 83009.75, -0.1447165, 0.21465619, -899624.1, 461440.84, 0.0003582281, 10.003697, 9.999171 
2.7480802e+3, 1.7111398e+2, -866182.1, -942721.8, 65519.137, 0.044299353, 0.17888181, -828574.8, 434525.2, 0.000033741435, 10.002519, 10.00119 
2.7477774e+3, 1.8111041e+2, -1120696.5, -1251711.1, -6769.08, 0.103659466, 0.20992193, -1120347.8, 44784.426, 0.00000040337267, 10.000859, 9.999344 
2.747472e+3, 1.9110532e+2, -1013939.7, -1027818.5, 19481.566, -0.1260234, 0.110659935, -1000198.5, 66983.37, 0.0, 10.000603, 10.000186 
2.7471668e+3, 2.0110048e+2, -1029424.8, -1187138.9, -14013.004, -0.30449474, 0.095958106, -1028189.4, -58959.586, 0.0, 10.000466, 9.998648 
2.7468643e+3, 2.110962e+2, -706924.8, -840098.5, -64437.883, -0.11044049, 0.14343952, -680850.7, 190422.8, 0.0, 10.001572, 9.99971 
2.7465615e+3, 2.2109205e+2, -625496.1, -945185.4, -81529.28, 0.030376025, 0.24003986, -605904.6, 167411.11, 0.0, 10.002064, 9.99823 
2.7462542e+3, 2.31087e+2, -656143.44, -785730.94, 38932.375, -0.2295284, 0.27948454, -645346.44, 30019.926, 0.0, 10.000904, 9.999072 
2.7459478e+3, 2.410822e+2, -711603.2, -772704.1, 179676.0, -0.45168468, 0.35011625, -559898.94, 17515.531, 0.0, 9.999662, 9.999205 
2.7456468e+3, 2.510775e+2, -503901.3, -359377.8, 146371.52, -0.17489539, 0.23741567, -268402.38, 211053.0, 0.0, 9.999543, 10.001287 
2.7453455e+3, 2.6107273e+2, -540001.7, -602273.2, 378.23157, 0.09938237, 0.15736784, -539999.4, -158503.17, 0.0, 9.999573, 9.999058 
2.745037e+3, 2.7106607e+2, -297761.44, -364188.28, -71235.52, 0.010522203, -0.016511101, -252376.95, 31179.2, 0.0, 10.000469, 9.999451 
2.744729e+3, 2.81059e+2, -237481.48, -420942.63, 82148.48, -0.07022446, -0.18546912, -206074.45, -20453.486, 0.0, 10.000617, 9.998447 
2.7444267e+3, 2.9105192e+2, -173645.39, -134249.86, 109549.586, -0.04280257, -0.42031848, -42641.234, 45047.99, 0.0, 9.99977, 10.000015 
2.7441236e+3, 3.0104718e+2, -420330.38, -562279.7, 106387.35, -0.09143939, -0.35041073, -363415.75, -363415.75, 0.0, 9.998685, 9.997098 
2.7438205e+3, 3.1104958e+2, -284573.4, -403250.13, 174466.23, -0.13499266, 0.53845006, -159630.7, -159630.7, 0.0, 9.999152, 9.997512 
2.7435145e+3, 3.2104072e+2, 166648.47, 476835.8, -123068.15, -0.20213698, 0.2484037, 519731.56, 519731.56, 0.0, 9.999092, 10.003631 
2.7592903e+3, 1.3143887e+2, -1488418.6, -1796698.0, 158483.38, -0.23554435, 0.44907537, -1421479.1, 230434.22, 0.0058229333, 10.002572, 9.99784 
2.758997e+3, 1.414282e+2, -1589889.4, -1824480.3, 34672.99, 0.58928233, -0.07302526, -1584872.0, -30856.371, 0.0029696852, 10.001031, 9.998024 
2.7586856e+3, 1.5142703e+2, -1132662.9, -1104412.8, 54298.105, -0.10626967, 0.099713534, -1062432.5, 393594.5, 0.0010279784, 10.001804, 10.001754 
2.7583766e+3, 1.6142522e+2, -1314405.0, -1565566.8, 57600.32, -0.58943623, 0.30053368, -1301825.3, 56220.645, 0.0002033788, 10.001452, 9.998254 
2.7580753e+3, 1.714188e+2, -1163094.6, -1347278.3, 10344.584, -0.19291094, 0.19356142, -1162515.4, 97597.516, 0.000016580547, 10.001612, 9.998847 
2.7577743e+3, 1.8141294e+2, -1262375.5, -1399720.8, -8377.355, 0.12195061, 0.17708749, -1261866.5, -99693.37, 0.00000009587778, 10.000349, 9.998554 
2.757468e+3, 1.9140871e+2, -1028693.5, -962331.2, 7752.513, -0.11227342, 0.11461337, -961437.56, 102774.734, 0.0, 10.000295, 10.000754 
2.7571625e+3, 2.0140447e+2, -1264928.3, -1412403.5, 30740.139, -0.33323523, 0.16611435, -1258777.3, -292524.56, 0.0, 9.999438, 9.997588 
2.756859e+3, 2.113986e+2, -924933.3, -1066571.1, 3962.3674, -0.32033816, 0.1447125, -924822.56, -56508.53, 0.0, 10.0007105, 9.998527 
2.7565563e+3, 2.2139315e+2, -804143.2, -839655.56, -61988.82, -0.2023849, 0.14329658, -757417.6, 12949.976, 0.0, 10.00023, 9.999778 
2.7562532e+3, 2.3138864e+2, -525766.44, -286427.56, -7218.094, 0.03875048, -0.13565546, -286210.1, 386187.06, 0.0, 10.000076, 10.002831 
2.755949e+3, 2.4138469e+2, -937789.75, -889079.4, 137696.08, 0.16545899, -0.22561333, -773601.1, -199176.11, 0.0, 9.99833, 9.998993 
2.7556437e+3, 2.513807e+2, -724060.6, -648821.4, 131312.66, 0.00881952, -0.17344733, -549845.8, -73375.83, 0.0, 9.998909, 9.999549 
2.7553383e+3, 2.6137713e+2, -801378.5, -825874.6, 16497.438, -0.12765864, 0.008963907, -793079.56, -414568.94, 0.0, 9.99833, 9.998107 
2.7550316e+3, 2.7137494e+2, -371583.75, -330248.75, -44971.773, -0.13039592, 0.23481654, -301422.75, -20888.828, 0.0, 9.999832, 9.999942 
2.7547252e+3, 2.81371e+2, -465088.94, -637626.0, 46214.977, -0.08886175, 0.38498065, -453489.78, -270916.63, 0.0, 9.999648, 9.997408 
2.7544227e+3, 2.9136097e+2, -345257.9, -364526.6, 50021.316, 0.026467245, -0.051777795, -303951.56, -219279.28, 0.0, 9.999275, 9.998657 
2.754119e+3, 3.01354e+2, -474123.3, -436086.88, 70938.96, -0.0064114323, -0.14701578, -381661.06, -381661.06, 0.0, 9.997775, 9.9983835 
2.7538154e+3, 3.1135818e+2, -143046.34, 51478.684, 196025.58, -0.13787451, 0.595076, 173044.92, 173044.92, 0.0, 9.998541, 10.000908 
2.7535075e+3, 3.2134843e+2, 120261.9, 544688.56, 80194.95, -0.44424835, -0.060615122, 559335.8, 559335.8, 0.0, 9.998591, 10.004273 
2.7692908e+3, 1.3174193e+2, -903447.1, -1285197.3, -81664.52, -0.41021353, 0.32647523, -886711.0, 762232.6, 0.0036893368, 10.005605, 9.999882 
2.7689922e+3, 1.4173326e+2, -1523337.0, -1691046.3, 36257.72, 0.32146966, -0.14249858, -1515834.0, 35185.414, 0.001804221, 10.001059, 9.998904 
2.7686828e+3, 1.5173154e+2, -1457683.9, -1287621.5, 44266.164, -0.044803433, -0.018326612, -1276789.3, 176247.2, 0.00058557204, 9.999682, 10.001506 
2.768375e+3, 1.6172929e+2, -1693254.8, -1763582.9, 19620.758, -0.3435079, 0.16577443, -1688151.1, -333089.72, 0.00010501939, 9.998835, 9.99817 
2.7680725e+3, 1.7172351e+2, -1323983.5, -1479324.9, 68064.14, -0.16924128, 0.1630407, -1298380.5, -41252.676, 0.0000068884756, 10.000612, 9.998499 
2.7677697e+3, 1.8171829e+2, -1056494.4, -1244768.5, 50460.12, -0.029800566, 0.23443566, -1043823.2, 115362.76, 0.00000000965895, 10.001437, 9.999118 
2.7674642e+3, 1.9171475e+2, -937736.6, -889170.1, 71702.7, -0.11570678, 0.22646883, -837750.3, 223467.47, 0.0, 10.000707, 10.001116 
2.767159e+3, 2.0171098e+2, -1124520.3, -1196584.3, 114638.53, -0.22133158, 0.2749078, -1040384.44, -77132.6, 0.0, 9.999664, 9.998983 
2.7668563e+3, 2.1170531e+2, -1030053.5, -1018627.5, 204560.31, -0.20363463, 0.20235713, -819700.44, 45607.563, 0.0, 9.999464, 9.999527 
2.766553e+3, 2.2169973e+2, -895514.06, -843269.7, 142698.58, -0.14751476, 0.1398776, -724322.06, 43038.66, 0.0, 9.999302, 10.000226 
2.7662486e+3, 2.3169412e+2, -602320.8, -424298.72, -15231.942, 0.030768132, -0.15442924, -423004.84, 246397.88, 0.0, 9.999826, 10.002086 
2.765944e+3, 2.4168935e+2, -626159.6, -697701.7, -41568.73, 0.14369485, -0.29056242, -607089.75, -35650.043, 0.0, 10.000134, 9.999483 
2.7656385e+3, 2.5168616e+2, -529899.2, -558318.94, 25873.293, -0.034318555, -0.15265124, -514590.47, -41113.387, 0.0, 10.000146, 9.99963 
2.7653334e+3, 2.6168308e+2, -511084.06, -651590.75, -17949.314, -0.16620247, 0.074071586, -508827.34, -133313.34, 0.0, 10.000105, 9.998443 
2.7650282e+3, 2.716801e+2, -252715.77, -334291.06, -131083.78, -0.07514964, 0.27859595, -156220.53, 121327.08, 0.0, 10.000825, 9.999494 
2.764723e+3, 2.816762e+2, -217159.69, -479775.7, -76808.18, 0.048953045, 0.45394048, -196345.08, -16755.98, 0.0, 10.001031, 9.997851 
2.7644193e+3, 2.9166767e+2, -104184.445, -278400.97, -20965.979, 0.100733675, 0.1639822, -101696.83, -20022.932, 0.0, 10.000816, 9.998602 
2.764114e+3, 3.0166128e+2, -99651.13, -125055.91, 62346.69, 0.03398952, 0.09779915, -48726.004, -48726.004, 0.0, 9.999662, 9.999608 
2.7638093e+3, 3.1166372e+2, -85108.53, 233737.89, 6614.627, -0.15516825, 0.5321168, 233875.06, 233875.06, 0.0, 9.998219, 10.002304 
2.763501e+3, 3.2165462e+2, -57333.746, 334819.56, -208079.11, -0.4947585, -0.1295479, 424650.2, 424650.2, 0.0, 9.997818, 10.00318 
2.7792907e+3, 1.320447e+2, -1290826.8, -1191025.3, -156023.03, -0.44755524, 0.14189029, -1077117.4, 568857.25, 0.00217142, 10.001792, 10.002331 
2.7789858e+3, 1.4203943e+2, -1557138.8, -1733416.4, -65345.875, 0.04207053, -0.15991111, -1535557.3, 12454.793, 0.0010072395, 10.0008955, 9.998738 
2.77868e+3, 1.520362e+2, -1417383.5, -1383505.4, -29113.406, 0.13276778, -0.12202786, -1366761.8, 83283.19, 0.00030058212, 10.000388, 10.000567 
2.778375e+3, 1.6203281e+2, -1671804.9, -1773521.5, 56125.477, 0.18753752, 0.025479782, -1646922.6, -294838.94, 0.000046417692, 9.999145, 9.997948 
2.77807e+3, 1.7202857e+2, -1321398.6, -1428722.9, 121444.66, -0.005024041, 0.12493112, -1242288.6, 11851.143, 0.0000020738605, 10.000514, 9.998861 
2.7777657e+3, 1.8202491e+2, -1209826.9, -1318603.1, 63240.313, -0.15058972, 0.34352574, -1180803.9, -24618.012, 0.00000000000031198744, 10.00049, 9.999033 
2.7774608e+3, 1.920221e+2, -1005431.3, -886885.75, 18574.42, -0.07221539, 0.35282, -884043.5, 174167.03, 0.0, 10.000202, 10.001312 
2.777157e+3, 2.0201907e+2, -1180573.8, -1130883.0, 86818.17, 0.03348972, 0.43639898, -1065425.1, -105189.07, 0.0, 9.999022, 9.999705 
2.776854e+3, 2.1201429e+2, -920370.56, -759592.3, 144055.73, 0.1027934, 0.26345226, -675013.4, 187263.64, 0.0, 9.9994545, 10.001258 
2.7765498e+3, 2.2200914e+2, -1188941.4, -1254757.0, 105066.375, 0.09555567, 0.21907486, -1111749.9, -347426.34, 0.0, 9.998549, 9.997733 
2.7762416e+3, 2.3200177e+2, -946769.6, -986829.7, -16264.662, -0.15701395, 0.05170637, -940997.7, -274601.6, 0.0, 9.999266, 9.998433 
2.7759352e+3, 2.4199599e+2, -883331.4, -890961.44, -31488.703, -0.31274188, 0.07409197, -855427.44, -286974.88, 0.0, 9.99883, 9.998747 
2.7756324e+3, 2.5199375e+2, -559250.3, -423754.38, 22967.52, -0.21727827, 0.19071318, -419967.06, 50506.266, 0.0, 9.9994335, 10.000866 
2.7753296e+3, 2.6198998e+2, -803522.2, -907198.06, -7875.2886, -0.095742635, 0.319302, -802927.4, -430416.75, 0.0, 9.998763, 9.997274 
2.775026e+3, 2.719808e+2, -467764.97, -600359.0, -99952.18, 0.09571703, 0.012870078, -414121.47, -139517.1, 0.0, 10.000159, 9.997927 
2.7747217e+3, 2.8197378e+2, -336605.56, -474348.5, -86928.664, 0.20205255, -0.038613934, -294572.25, -117896.28, 0.0, 10.000103, 9.998295 
2.7744156e+3, 2.919719e+2, -74012.52, -49444.094, -22149.604, 0.08560285, 0.15161887, -36400.32, 42294.047, 0.0, 10.000274, 10.000357 
2.7741078e+3, 3.0196935e+2, -292966.53, -334069.5, 8438.619, -0.19906838, 0.40313265, -291301.5, -291301.5, 0.0, 9.999006, 9.998453 
2.7738002e+3, 3.119638e+2, -355314.75, -118512.414, -76815.375, -0.4379452, 0.20564787, -95777.336, -95777.336, 0.0, 9.997438, 10.000237 
2.7734977e+3, 3.219606e+2, -646985.4, -592977.4, -163033.19, -0.25898895, 0.48527884, -454726.94, -454726.94, 0.0, 9.996714, 9.9973345 
2.7892885e+3, 1.323501e+2, -1993281.5, -1698936.9, 29100.625, -0.21469758, -0.05852348, -1696087.4, -53112.3, 0.0011689387, 9.997596, 10.000928 
2.7889824e+3, 1.4234813e+2, -1401497.5, -1706002.0, -51697.676, -0.13040546, 0.118172236, -1392959.8, 152033.16, 0.0005049565, 10.002125, 9.998351 
2.7886763e+3, 1.5234333e+2, -1208376.0, -1303787.1, -29531.762, 0.049445443, 0.023545282, -1199975.0, 247064.95, 0.00013439951, 10.00188, 10.000419 
2.7883717e+3, 1.6233884e+2, -1340143.6, -1551539.5, 83523.41, 0.18904136, 0.06356838, -1311126.3, 37961.316, 0.000016423304, 10.001089, 9.998547 
2.7880666e+3, 1.7233509e+2, -1212381.4, -1309567.0, 177839.56, -0.025586242, 0.16979158, -1076615.4, 174520.56, 0.0000003300107, 10.000906, 9.999516 
2.7877617e+3, 1.8233167e+2, -1175732.3, -1252764.8, 74219.24, -0.20382439, 0.34861788, -1130630.3, 22547.021, 0.0, 10.000397, 9.999573 
2.7874574e+3, 1.9232754e+2, -983987.56, -928556.4, 30827.38, -0.055012748, 0.28486004, -914817.4, 140397.06, 0.0, 10.000411, 10.001031 
2.7871534e+3, 2.0232359e+2, -954470.2, -1000814.25, 72712.984, 0.06090527, 0.30196542, -901326.3, 55923.055, 0.0, 10.000434, 9.999906 
2.78685e+3, 2.1231917e+2, -601376.9, -661985.7, 54629.48, 0.040283922, 0.22002664, -569209.4, 290079.6, 0.0, 10.001843, 10.000796 
2.7865458e+3, 2.223145e+2, -568913.3, -928654.4, -70529.18, -0.005239461, 0.23794726, -555579.9, 205752.98, 0.0, 10.0025425, 9.99808 
2.786238e+3, 2.3230855e+2, -634209.5, -872554.8, -36706.59, -0.14954777, 0.23521936, -628684.5, 34711.54, 0.0, 10.001405, 9.998259 
2.7859315e+3, 2.4230327e+2, -611807.44, -701084.5, 78947.34, -0.26620305, 0.3133303, -565752.6, -302.37076, 0.0, 10.000366, 9.999305 
2.785628e+3, 2.5229925e+2, -378748.4, -333065.2, 56855.324, -0.23689197, 0.2733493, -294634.72, 172850.52, 0.0, 10.000582, 10.000962 
2.785325e+3, 2.6229432e+2, -437976.7, -664136.9, 14315.483, -0.12188985, 0.2616255, -437074.16, -67543.3, 0.0, 10.000838, 9.997984 
2.7850226e+3, 2.7228543e+2, -251559.33, -500266.72, 41945.367, 0.119885474, -0.004286193, -244675.63, 26945.742, 0.0, 10.001476, 9.998066 
2.784719e+3, 2.8227848e+2, -135784.05, -307107.6, 69790.98, 0.28749004, -0.062353123, -110952.74, 62739.285, 0.0, 10.001106, 9.998954 
2.7844113e+3, 2.9227743e+2, -146353.72, -62429.707, -30717.756, 0.109935716, 0.2252916, -52387.96, 23313.98, 0.0, 9.99963, 10.000584 
2.7841026e+3, 3.0227467e+2, -300196.97, -374986.8, -29255.5, -0.1967555, 0.44714248, -290112.8, -290112.8, 0.0, 9.998957, 9.998235 
2.7837947e+3, 3.1226528e+2, 136903.48, -22688.953, -54500.098, -0.4557027, -0.019681375, 153739.03, 153739.03, 0.0, 10.001228, 9.999167 
2.7834958e+3, 3.2226613e+2, -320113.5, -696979.3, -1534.2069, 0.15050933, 0.86220115, -320107.25, -320107.25, 0.0, 9.999905, 9.995147 
2.7992865e+3, 1.3265723e+2, -1807095.9, -1874103.0, 234865.63, 0.18395206, -0.11804182, -1603356.3, 36603.273, 0.0005685035, 10.0000305, 9.998515 
2.79898e+3, 1.4265734e+2, -1596277.0, -1894163.3, -11083.472, -0.14131916, 0.4164311, -1595865.3, -53893.66, 0.00022583413, 10.001284, 9.997403 
2.798673e+3, 1.5265095e+2, -1240655.8, -1344245.1, -58159.76, -0.03038224, 0.17466296, -1214570.8, 229461.42, 0.00005282333, 10.001825, 10.000113 
2.798368e+3, 1.6264537e+2, -1356587.3, -1528445.0, 88388.0, 0.12612025, 0.12409473, -1319243.3, 26844.086, 0.000004777361, 10.000977, 9.9986725 
2.7980632e+3, 1.7264205e+2, -1207974.1, -1234246.3, 154422.34, -0.017633516, 0.18752103, -1066130.1, 181996.38, 0.00000002399446, 10.000694, 10.000065 
2.7977586e+3, 1.8263833e+2, -1283002.3, -1367289.9, 68828.35, -0.106121205, 0.33149856, -1244440.1, -94273.484, 0.0, 10.00007, 9.998891 
2.797454e+3, 1.9263232e+2, -990753.25, -984117.1, 4411.195, 0.014517893, 0.107506946, -981915.4, 70306.4, 0.0, 10.000714, 10.000444 
2.7971494e+3, 2.0262691e+2, -1106358.4, -1272254.4, 106868.39, 0.059641562, 0.089857, -1054024.4, -99751.77, 0.0, 10.000329, 9.998072 
2.796845e+3, 2.1262182e+2, -846863.8, -962680.2, 104028.34, -0.15643126, 0.07484253, -785712.1, 70612.32, 0.0, 10.000988, 9.999114 
2.7965415e+3, 2.2261785e+2, -828238.44, -965808.2, -72140.6, -0.2257251, 0.245063, -797345.7, -38979.715, 0.0, 10.000593, 9.9987 
2.7962366e+3, 2.3261508e+2, -669940.44, -660411.44, -81442.78, 0.0410197, 0.35977057, -583593.94, 76802.42, 0.0, 10.000343, 10.000175 
2.795931e+3, 2.4261098e+2, -858831.25, -906506.06, 77650.98, 0.13405317, 0.48332447, -801441.25, -239003.9, 0.0, 9.999187, 9.998423 
2.7956247e+3, 2.5260276e+2, -594615.06, -563445.3, 71167.13, -0.16616012, 0.1023006, -506176.6, -41664.234, 0.0, 9.99975, 9.999734 
2.7953196e+3, 2.6259688e+2, -601843.94, -659761.5, 29640.729, -0.31792423, 0.04940787, -589363.8, -222796.83, 0.0, 9.9995, 9.998622 
2.795018e+3, 2.725946e+2, -256327.42, -296728.72, 76190.87, -0.0692649, 0.2500285, -197704.77, 70887.25, 0.0, 10.000678, 9.999805 
2.794714e+3, 2.8259096e+2, -373359.13, -585309.06, 15068.139, 0.11578102, 0.4786378, -372293.25, -201662.8, 0.0, 10.000309, 9.997392 
2.794406e+3, 2.9258335e+2, -387947.84, -405084.56, -97412.55, 0.0773114, 0.28474727, -298727.53, -226021.25, 0.0, 9.999043, 9.9984865 
2.7940983e+3, 3.0257633e+2, -447430.44, -465080.66, -632.41113, -0.12259604, 0.22249576, -447407.8, -447407.8, 0.0, 9.998198, 9.99791 
2.7937946e+3, 3.1256956e+2, 131543.8, 51368.227, 64231.844, -0.24605958, -0.053308066, 167171.0, 167171.0, 0.0, 10.001, 9.999708 
2.7934915e+3, 3.2256705e+2, -124336.95, -142041.47, -131182.22, 0.013486712, 0.29968187, -1708.6532, -1708.6532, 0.0, 9.999541, 9.999007 
2.809284e+3, 1.3296568e+2, -1430165.3, -1849186.3, 42445.56, -0.039292756, 0.08009351, -1425908.9, 211027.13, 0.00025074874, 10.003168, 9.997248 
2.808979e+3, 1.4296041e+2, -1609105.6, -1800659.0, -52701.87, 0.048615478, 0.13235973, -1595563.3, -56561.664, 0.00009142473, 10.00074, 9.9983225 
2.8086707e+3, 1.5295604e+2, -1208489.4, -1259160.0, 6940.4844, -0.036528185, 0.023482054, -1207556.0, 233483.89, 0.000018191195, 10.001676, 10.000824 
2.8083646e+3, 1.629519e+2, -1146552.8, -1327907.0, 111482.03, -0.020556878, 0.0524802, -1093526.8, 249552.0, 0.000001253609, 10.00191, 9.999621 
2.8080606e+3, 1.7294925e+2, -1101286.6, -1136065.6, 186531.89, 0.014184428, 0.15029034, -931335.44, 313775.03, 0.0000000065346386, 10.001114, 10.000594 
2.8077564e+3, 1.8294564e+2, -1177781.0, -1362801.5, 127309.3, -0.009742057, 0.30252656, -1112919.8, 34230.37, 0.0, 10.000946, 9.998493 
2.8074512e+3, 1.9293885e+2, -682378.25, -988145.44, 80365.33, -0.059962656, 0.14486235, -662542.44, 386674.94, 0.0, 10.003419, 9.999146 
2.8071466e+3, 2.0293264e+2, -569607.4, -992422.0, 50184.875, -0.08157315, 0.12108174, -563732.44, 387546.3, 0.0, 10.003842, 9.998299 
2.806842e+3, 2.1292695e+2, -947336.25, -1029505.0, 96661.05, -0.1400876, 0.07440658, -883390.75, -30054.598, 0.0, 10.00026, 9.999055 
2.8065374e+3, 2.2292274e+2, -1072870.6, -962958.1, 23873.223, -0.13914406, 0.19208068, -957996.8, -202617.88, 0.0, 9.9983, 9.999848 
2.8062332e+3, 2.3292057e+2, -585834.9, -534376.3, 414.34644, 0.08073797, 0.31567502, -534372.94, 123027.66, 0.0, 10.000429, 10.00105 
2.805928e+3, 2.4291664e+2, -467951.78, -700659.25, 99583.63, 0.16333322, 0.39064425, -431154.97, 128283.59, 0.0, 10.00163, 9.998698 
2.8056213e+3, 2.5290802e+2, -468675.75, -581832.7, 108904.69, -0.12500183, 0.047570653, -402529.5, 58989.906, 0.0, 10.000785, 9.9991865 
2.8053156e+3, 2.6290214e+2, -439506.56, -508504.7, 94043.39, -0.28830442, 0.008349476, -373834.06, -10258.824, 0.0, 10.000148, 9.999403 
2.8050134e+3, 2.729013e+2, -268013.34, -244088.06, 43797.133, -0.1042196, 0.3228931, -210649.22, 54936.523, 0.0, 10.000181, 10.00048 
2.80471e+3, 2.8289822e+2, -330757.03, -556079.75, -40813.973, 0.07749886, 0.55423534, -323592.0, -155973.72, 0.0, 10.000389, 9.997625 
2.8044027e+3, 2.9288843e+2, -73192.73, -344951.47, -60427.41, 0.13694662, 0.2219118, -60362.06, 9353.78, 0.0, 10.001407, 9.997867 
2.804095e+3, 3.028804e+2, 2015.7999, -216905.22, 150723.58, 0.024567869, 0.101261094, 78832.51, 78832.51, 0.0, 10.0010805, 9.99822 
2.8037915e+3, 3.1287625e+2, -73904.69, -51748.918, 137346.73, -0.12932152, 0.10949531, 74965.96, 74965.96, 0.0, 9.999503, 9.9997635 
2.8034866e+3, 3.2287008e+2, 84471.99, 161479.11, -365785.66, -0.002519303, 0.02654287, 490782.13, 490782.13, 0.0, 9.99994, 10.000963 
2.8192818e+3, 1.3327304e+2, -1661061.5, -1993504.1, -6190.6772, -0.108299196, 0.18740731, -1660946.3, -27021.71, 0.00010745089, 10.001933, 9.996764 
2.8189784e+3, 1.4326328e+2, -1499772.3, -1669655.5, 1248.1493, 0.36285213, -0.18745041, -1499763.1, 36268.496, 0.00003510944, 10.001279, 9.99891 
2.8186685e+3, 1.5326104e+2, -1146413.0, -1120605.5, 36858.438, 0.051942956, -0.1874077, -1094457.4, 343588.5, 0.0000055355054, 10.001765, 10.001685 
2.8183615e+3, 1.6325885e+2, -1219844.6, -1327768.1, 96419.41, -0.040204793, -0.016095906, -1163314.0, 176750.13, 0.0000002527922, 10.0013685, 9.999874 
2.8180587e+3, 1.7325668e+2, -1100444.6, -1089838.4, 90146.914, 0.14024362, 0.083772056, -1004838.75, 237252.48, 0.0, 10.001057, 10.000931 
2.8177544e+3, 1.8325344e+2, -1317074.4, -1568372.8, 160391.84, 0.14670952, 0.30791408, -1238975.6, -94846.17, 0.0, 10.000671, 9.997202 
2.8174496e+3, 1.9324638e+2, -982063.75, -1307845.3, 179654.17, -0.12081195, 0.2489375, -902448.8, 143756.48, 0.0, 10.002159, 9.997557 
2.8171444e+3, 2.0323983e+2, -866358.7, -1143422.5, 1954.6213, -0.19405657, 0.3048422, -866344.9, 81928.54, 0.0, 10.002006, 9.998077 
2.8168392e+3, 2.1323338e+2, -988995.25, -982348.7, -23039.23, 0.049723774, 0.10102246, -962394.25, -112059.445, 0.0, 9.999839, 9.999508 
2.816534e+3, 2.2322851e+2, -1107682.4, -987661.2, 80598.85, 0.13615017, 0.14427787, -947185.7, -194805.47, 0.0, 9.99824, 9.999657 
2.816228e+3, 2.3322514e+2, -668626.94, -542190.75, 81914.37, 0.0068409992, 0.09816936, -501936.66, 152473.28, 0.0, 9.999886, 10.0011835 
2.8159225e+3, 2.4322134e+2, -686137.0, -843144.2, 79385.6, -0.09437486, 0.20687808, -652994.3, -96549.33, 0.0, 10.000462, 9.998228 
2.8156173e+3, 2.5321478e+2, -611816.56, -662189.3, 68627.08, -0.1291347, 0.05138763, -563900.06, -105390.8, 0.0, 9.999968, 9.998979 
2.815313e+3, 2.632093e+2, -668356.1, -714001.56, 78386.63, -0.1408406, 0.11799055, -609537.3, -248974.05, 0.0, 9.999169, 9.998394 
2.8150097e+3, 2.7320498e+2, -432012.13, -389265.1, 56136.77, -0.07244513, 0.11533098, -350570.6, -87962.85, 0.0, 9.999486, 9.999751 
2.8147054e+3, 2.8320035e+2, -419185.03, -525299.0, -27249.61, 0.015990896, 0.22975548, -412596.53, -247942.08, 0.0, 9.999659, 9.998121 
2.8144002e+3, 2.9319325e+2, -66671.02, -181717.83, -4965.3877, 0.17378479, 0.011086521, -66457.12, 267.33725, 0.0, 10.000914, 9.999162 
2.8140923e+3, 3.0318812e+2, -128189.086, -384186.06, 90937.05, 0.016061317, 0.15023445, -99174.33, -99174.33, 0.0, 10.000728, 9.997229 
2.8137842e+3, 3.131861e+2, -350200.84, -324143.7, 65250.406, -0.38869163, 0.4728072, -270633.84, -270633.84, 0.0, 9.998267, 9.998473 
2.8134823e+3, 3.2317707e+2, -196456.52, -232617.45, -70780.77, -0.09776295, 0.2652592, -141483.44, -141483.44, 0.0, 9.999339, 9.998465 
2.829282e+3, 1.3357866e+2, -1681192.3, -1767833.4, 77825.805, 0.11055993, -0.0773759, -1635442.5, -4508.572, 0.000050640916, 10.000673, 9.998967 
2.8289735e+3, 1.4357555e+2, -1218931.9, -1498801.5, 77776.016, -0.044237927, 0.116387516, -1198770.3, 334198.78, 0.00001538915, 10.003036, 9.999234 
2.8286657e+3, 1.5357096e+2, -1175818.6, -1242855.9, 76018.08, -0.014101487, -0.027888115, -1126257.5, 308749.72, 0.0000020566958, 10.001969, 10.00078 
2.82836e+3, 1.6356659e+2, -1313263.4, -1513951.5, 74156.42, 0.018515294, 0.031606123, -1288835.3, 48214.387, 0.00000005936716, 10.00128, 9.998653 
2.8280544e+3, 1.735619e+2, -1099143.5, -1307998.9, 18652.79, -0.031220924, 0.07016674, -1097490.8, 141614.72, 0.0, 10.001936, 9.999041 
2.82775e+3, 1.835579e+2, -1012446.9, -1191519.4, 30626.396, -0.050508346, 0.22625495, -1007353.75, 133797.02, 0.0, 10.001683, 9.99934 
2.827447e+3, 1.9355339e+2, -1154284.8, -1149733.1, 209546.94, -0.027217325, 0.20825182, -942449.6, 100745.11, 0.0, 9.999845, 9.999804 
2.8271428e+3, 2.0354863e+2, -1102017.9, -1123238.0, 171026.61, -0.02156307, 0.2654758, -941272.5, 3968.5906, 0.0, 9.999696, 9.99939 
2.826836e+3, 2.1354264e+2, -505765.8, -720572.7, 187447.9, -0.02583929, 0.109619096, -397131.72, 450166.34, 0.0, 10.0028925, 9.999911 
2.8265303e+3, 2.2353727e+2, -244105.27, -641877.75, 214410.75, -0.0035254087, 0.110903196, -150540.3, 598809.7, 0.0, 10.004356, 9.999125 
2.8262252e+3, 2.3353209e+2, -379299.34, -599604.06, 121743.81, -0.00813744, 0.06867218, -325271.63, 326129.66, 0.0, 10.002542, 9.999593 
2.82592e+3, 2.4352735e+2, -510829.6, -714958.7, 61741.387, -0.033066634, 0.15500997, -493608.03, 59839.973, 0.0, 10.001373, 9.99871 
2.825615e+3, 2.535219e+2, -340235.88, -545816.6, 60023.01, -0.023791876, 0.13026705, -323994.22, 131507.77, 0.0, 10.0017395, 9.999003 
2.8253108e+3, 2.6351643e+2, -258448.5, -506263.94, 98581.38, -0.007493058, 0.1853101, -224016.67, 133540.06, 0.0, 10.001872, 9.99852 
2.8250062e+3, 2.7351016e+2, -147041.67, -342587.9, 50394.137, -0.045031175, 0.07393329, -134818.66, 124801.19, 0.0, 10.001767, 9.998993 
2.8247017e+3, 2.8350478e+2, -103257.19, -261484.34, -13052.77, 0.014544885, 0.10628332, -102187.65, 59486.21, 0.0, 10.001258, 9.999166 
2.8243965e+3, 2.9349977e+2, -46004.473, -122794.26, -49009.19, 0.17430052, 0.041495312, -22141.285, 41582.098, 0.0, 10.0007105, 9.999693 
2.8240886e+3, 3.0349603e+2, -95671.31, -347841.0, 44571.56, -0.0033241448, 0.27127516, -88025.04, -88025.04, 0.0, 10.000763, 9.997482 
2.823779e+3, 3.134942e+2, 154760.45, -176041.61, 35619.074, -0.45281044, 0.667578, 158552.27, 158552.27, 0.0, 10.002007, 9.997729 
2.8234795e+3, 3.2348308e+2, -228779.11, -339475.9, 59124.06, 0.10724676, 0.32538086, -203139.23, -203139.23, 0.0, 9.999346, 9.997794 
2.839282e+3, 1.3388558e+2, -1426632.3, -1425291.0, 203318.75, 0.41973528, -0.25308505, -1222641.8, 405289.06, 0.000026719768, 10.001389, 10.00102 
2.8389674e+3, 1.4388919e+2, -1391834.3, -1640656.3, 5870.3486, -0.46400392, 0.5229884, -1391695.9, 138197.56, 0.000008259606, 10.002119, 9.998686 
2.8386635e+3, 1.538818e+2, -1311587.4, -1436039.5, -20523.76, 0.006451034, 0.18777795, -1308290.1, 123670.95, 0.0000013335809, 10.001594, 9.99962 
2.838358e+3, 1.6387452e+2, -1525721.6, -1853155.4, 103137.31, 0.1748431, 0.11907364, -1495943.0, -161907.53, 0.000000073245815, 10.000966, 9.996421 
2.8380498e+3, 1.7386636e+2, -1348867.0, -1714469.5, 79439.58, -0.21850021, 0.035019174, -1332352.0, -96221.65, 0.0, 10.001538, 9.996407 
2.837745e+3, 1.8386145e+2, -923919.4, -832000.7, 44115.09, -0.2655352, 0.13728024, -814254.44, 323928.6, 0.0, 10.00105, 10.002045 
2.8374445e+3, 1.9386001e+2, -976759.9, -687839.3, 110649.64, 0.20323534, 0.05022724, -650332.25, 389853.5, 0.0, 9.999543, 10.003059 
2.8371412e+3, 2.0385784e+2, -1082746.6, -1010788.56, 221951.92, 0.27883857, 0.14315106, -821918.44, 120281.81, 0.0, 9.999501, 10.000211 
2.8368324e+3, 2.1385328e+2, -632166.7, -740110.9, 253846.48, -0.21679695, 0.04356083, -426618.0, 417625.8, 0.0, 10.001979, 10.000163 
2.8365263e+3, 2.2384804e+2, -636884.1, -1087238.8, 138970.83, -0.34857476, 0.15437423, -597452.8, 148845.95, 0.0, 10.002897, 9.996732 
2.8362235e+3, 2.3384061e+2, -744465.44, -1088229.6, 42347.477, 0.047400147, 0.113276385, -739325.6, -90944.49, 0.0, 10.00149, 9.996717 
2.8359193e+3, 2.4383461e+2, -667564.6, -827009.4, 72168.51, 0.2167559, 0.26127648, -639751.2, -89305.56, 0.0, 10.000579, 9.998306 
2.8356138e+3, 2.538293e+2, -489767.8, -620888.5, 71845.66, 0.12929536, 0.21111195, -458065.84, -5568.968, 0.0, 10.000855, 9.998892 
2.8353086e+3, 2.638238e+2, -463007.75, -656989.06, 84855.695, 0.032102525, 0.30499253, -431127.63, -76576.195, 0.0, 10.000856, 9.9979105 
2.835003e+3, 2.738167e+2, -336524.63, -518453.7, 50850.387, -0.069520466, 0.13402316, -323276.34, -66652.64, 0.0, 10.000959, 9.998124 
2.8346974e+3, 2.8381166e+2, -209161.77, -306671.38, -44809.0, -0.087189734, 0.25289825, -191698.16, -33021.992, 0.0, 10.00064, 9.999109 
2.834391e+3, 2.9380825e+2, -165557.55, -188694.28, -61267.008, -0.015607369, 0.31903234, -114776.31, -54064.3, 0.0, 10.000039, 9.999542 
2.834083e+3, 3.0380443e+2, -143065.38, -284055.47, 89366.07, -0.19962384, 0.5238358, -99736.664, -99736.664, 0.0, 10.000236, 9.9981165 
2.8337783e+3, 3.137988e+2, 108673.17, -144645.55, 122511.03, -0.37093213, 0.44935277, 158228.3, 158228.3, 0.0, 10.001613, 9.998089 
2.8334755e+3, 3.237888e+2, -223605.67, -10786.681, -191154.94, 0.16520657, 0.018650286, 101580.4, 101580.4, 0.0, 9.99819, 10.0005045 
2.8492796e+3, 1.3419753e+2, -1301921.1, -1450869.5, 41072.86, 0.30241254, 0.23671173, -1291346.0, 333532.8, 0.000013315561, 10.002506, 10.000381 
2.8489634e+3, 1.4419189e+2, -1432975.3, -1573641.9, -115213.04, -0.6777303, 0.12220813, -1368324.0, 158604.0, 0.0000038169696, 10.001393, 9.999516 
2.8486606e+3, 1.5418817e+2, -1303573.6, -1417375.4, -46274.938, -0.011617638, 0.10429618, -1287132.3, 141829.2, 0.0000005153316, 10.001478, 9.999844 
2.848356e+3, 1.6418287e+2, -1325202.4, -1618685.3, 141792.94, 0.23034583, 0.16549647, -1267889.3, 63125.72, 0.00000002542409, 10.001676, 9.9977 
2.848047e+3, 1.7417528e+2, -1228771.5, -1547850.4, 271778.44, -0.25493377, 0.050838396, -1073166.0, 159932.13, 0.0, 10.001801, 9.997457 
2.8477412e+3, 1.8417019e+2, -851150.25, -843957.4, 184938.55, -0.38729408, 0.10185721, -662580.3, 472570.4, 0.0, 10.001661, 10.001689 
2.8474393e+3, 1.941677e+2, -789295.25, -703410.9, 98272.73, 0.0118834395, 0.03490213, -639107.75, 398060.22, 0.0, 10.001143, 10.002223 
2.8471363e+3, 2.0416534e+2, -818840.4, -848633.94, 136380.9, 0.1446327, 0.12729606, -696545.06, 242641.28, 0.0, 10.001069, 10.000598 
2.8468308e+3, 2.1416178e+2, -682094.94, -741456.94, 159804.56, -0.13930182, 0.11825317, -549238.4, 291981.47, 0.0, 10.001385, 10.000497 
2.846526e+3, 2.241569e+2, -772467.9, -1140583.3, 19647.133, -0.19607407, 0.22676894, -771422.25, -28149.568, 0.0, 10.001862, 9.996865 
2.8462213e+3, 2.3414925e+2, -575539.1, -1035290.4, 45827.523, 0.05168131, 0.21316597, -571015.6, 74345.46, 0.0, 10.002656, 9.996552 
2.8459165e+3, 2.4414283e+2, -325739.1, -644145.6, 131812.17, 0.19629683, 0.31418982, -278253.88, 269177.38, 0.0, 10.00271, 9.998582 
2.845611e+3, 2.5413755e+2, -389646.9, -583211.94, 114569.305, 0.15328749, 0.31312186, -336452.8, 113029.516, 0.0, 10.001443, 9.998923 
2.8453052e+3, 2.64132e+2, -431855.16, -562096.56, 180951.5, 0.039358445, 0.35993046, -304663.25, 46873.574, 0.0, 10.000637, 9.998716 
2.844999e+3, 2.7412516e+2, -257117.0, -418692.56, 211742.66, -0.15622917, 0.21799678, -111273.77, 142330.95, 0.0, 10.001123, 9.9987955 
2.8446934e+3, 2.8412032e+2, -102967.734, -247942.38, 120659.68, -0.1762313, 0.3237128, -34695.793, 120959.5, 0.0, 10.0012245, 9.999283 
2.8443867e+3, 2.9411742e+2, -85751.64, -168227.17, 41045.3, -0.039480455, 0.50359106, -68806.33, -11117.2295, 0.0, 10.000587, 9.999451 
2.8440797e+3, 3.0411288e+2, -96511.14, -166980.95, 244507.97, -0.15348561, 0.6046628, 115287.64, 115287.64, 0.0, 10.000014, 9.999084 
2.843776e+3, 3.1410533e+2, -110581.78, -173226.88, 251364.14, -0.2427402, 0.28679037, 111403.85, 111403.85, 0.0, 9.999658, 9.9989 
2.8434703e+3, 3.2409868e+2, -32489.684, 155930.44, -481977.03, 0.2517451, 0.11857215, 552818.5, 552818.5, 0.0, 9.998953, 10.0013895 
2.8592777e+3, 1.3450849e+2, -1528948.9, -1668227.0, 39117.94, 0.29263535, 0.64978546, -1518714.3, 103122.266, 0.0000059672575, 10.0015545, 9.999295 
2.8589597e+3, 1.444934e+2, -1564210.6, -1557978.3, -45018.22, -0.68879366, -0.3621249, -1515968.5, 8006.707, 0.0000015122073, 10.000247, 10.000136 
2.858658e+3, 1.544939e+2, -1257634.8, -1337787.5, -34831.58, 0.043109857, -0.03616863, -1244613.5, 181355.11, 0.0000000966577, 10.001619, 10.00029 
2.8583544e+3, 1.6449142e+2, -1135303.8, -1305694.8, 148327.72, 0.32205498, 0.19280335, -1049445.5, 278546.1, 0.00000000026919006, 10.002084, 9.999646 
2.8580457e+3, 1.7448552e+2, -1145664.1, -1296235.5, 216507.56, -0.14669764, 0.020876456, -991726.2, 238322.2, 0.0, 10.001516, 9.99931 
2.857738e+3, 1.8448074e+2, -1090963.4, -1197861.3, 125681.45, -0.4109935, 0.110150136, -1007837.75, 124258.75, 0.0, 10.00119, 9.999452 
2.857433e+3, 1.9447619e+2, -1059715.9, -1143266.5, 34638.098, -0.28877932, 0.07337599, -1047223.6, -13079.541, 0.0, 10.000771, 9.999345 
2.8571305e+3, 2.0447278e+2, -905420.06, -918189.56, 144549.94, -0.072752155, 0.23530297, -767113.94, 169064.19, 0.0, 10.000671, 10.000291 
2.856831e+3, 2.1446933e+2, -861380.75, -873821.44, 136569.44, 0.20132917, 0.21772395, -730890.06, 107319.89, 0.0, 10.000404, 10.000065 
2.8565273e+3, 2.2446479e+2, -895035.6, -1107435.8, 25310.709, 0.23404552, 0.35527125, -892061.1, -151801.45, 0.0, 10.000753, 9.997546 
2.856219e+3, 2.3445787e+2, -704871.9, -1014130.9, 51075.043, 0.021871153, 0.27913955, -696655.0, -54313.84, 0.0, 10.001579, 9.997133 
2.855912e+3, 2.444521e+2, -512834.03, -730486.94, 77124.91, -0.048116058, 0.41706866, -488275.88, 56129.313, 0.0, 10.001631, 9.998373 
2.8556067e+3, 2.5444654e+2, -615439.6, -759925.9, 65859.555, 0.045536306, 0.37015793, -589925.1, -143465.36, 0.0, 10.000346, 9.99814 
2.8553006e+3, 2.6444134e+2, -460981.88, -447908.44, 189170.61, -0.04622229, 0.4499028, -265161.66, 83347.336, 0.0, 9.999972, 9.999776 
2.854994e+3, 2.7443555e+2, -309977.06, -337134.94, 240744.55, -0.3521666, 0.24835236, -82428.8, 168133.36, 0.0, 10.000345, 9.999719 
2.8546885e+3, 2.8443098e+2, -271904.66, -398011.47, 89345.6, -0.32643798, 0.3711938, -225603.73, -72994.75, 0.0, 10.000545, 9.998505 
2.854384e+3, 2.9442674e+2, -289091.97, -395451.97, 35876.32, 0.039107986, 0.47758475, -278121.97, -223462.81, 0.0, 9.999873, 9.998188 
2.854077e+3, 3.044214e+2, -156794.97, -94447.02, 216331.95, -0.031413842, 0.5311965, 92945.54, 92945.54, 0.0, 9.999337, 9.999827 
2.8537697e+3, 3.1441468e+2, -330261.0, -227172.78, 257848.67, -0.39849082, 0.17995507, -15766.818, -15766.818, 0.0, 9.998087, 9.999223 
2.8534645e+3, 3.2441318e+2, -271210.16, -150205.08, -379947.63, 0.19160111, 0.575099, 174027.03, 174027.03, 0.0, 9.9983425, 9.999514 
2.8692737e+3, 1.3481493e+2, -1552072.3, -1519714.5, -151558.27, 0.11083359, 0.3498187, -1383474.0, 235362.47, 0.0000021514043, 10.000554, 10.000875 
2.8689596e+3, 1.4480543e+2, -1742466.4, -1714630.0, 149246.16, -0.2498077, -0.12959626, -1578654.4, -57734.707, 0.00000043033984, 9.999244, 9.999579 
2.8686544e+3, 1.5480311e+2, -1202715.9, -1429848.6, 145226.61, -0.18071167, 0.029084444, -1131923.6, 291018.28, 0.000000019645139, 10.002415, 9.999317 
2.8683504e+3, 1.647991e+2, -900658.2, -1178438.6, 90132.37, -0.0041376217, 0.14769877, -873975.7, 451003.3, 0.0, 10.003612, 9.999793 
2.8680447e+3, 1.74793e+2, -1069709.1, -1259159.5, 97279.13, -0.035692535, -0.018463966, -1028654.75, 198379.42, 0.0, 10.001967, 9.999379 
2.867738e+3, 1.8478799e+2, -1056164.0, -1276830.0, 15690.178, -0.14636198, 0.059165824, -1055054.0, 74030.086, 0.0, 10.001679, 9.998747 
2.867431e+3, 1.9478299e+2, -910236.75, -1205881.1, 30747.56, -0.24786721, 0.10433949, -907072.8, 124066.195, 0.0, 10.002162, 9.998346 
2.8671274e+3, 2.0477803e+2, -732693.8, -891059.06, 101603.336, -0.14175414, 0.1783837, -683062.1, 250127.72, 0.0, 10.00208, 9.999798 
2.8668272e+3, 2.1477239e+2, -779314.25, -910653.56, 59534.77, 0.130841, 0.047633674, -756344.8, 78898.375, 0.0, 10.001209, 9.999453 
2.866524e+3, 2.2476819e+2, -721664.4, -880673.06, -36778.047, 0.20115618, 0.17637806, -713569.8, 23719.15, 0.0, 10.001135, 9.998996 
2.866217e+3, 2.3476484e+2, -578175.9, -796500.0, 18854.299, 0.031131467, 0.34839278, -576559.56, 62774.36, 0.0, 10.00157, 9.998714 
2.8659096e+3, 2.4476048e+2, -397926.72, -572474.1, 29557.664, -0.062286835, 0.48091933, -393057.3, 148325.63, 0.0, 10.001849, 9.99939 
2.8656027e+3, 2.5475436e+2, -268372.44, -507434.53, 54724.813, -0.056657817, 0.34474504, -256440.66, 187001.83, 0.0, 10.002222, 9.999013 
2.8652963e+3, 2.6474968e+2, -105518.73, -199699.17, 196544.88, -0.14262208, 0.3816284, 49498.39, 394985.2, 0.0, 10.001915, 10.000612 
2.8649902e+3, 2.7474558e+2, -214909.2, -231147.22, 169776.03, -0.35238028, 0.3237981, -53058.156, 194465.14, 0.0, 10.000548, 10.00041 
2.8646848e+3, 2.8474116e+2, -337223.5, -425451.66, 46437.035, -0.28429958, 0.41089767, -317287.22, -167718.53, 0.0, 10.000023, 9.998576 
2.86438e+3, 2.9473573e+2, -169200.83, -352579.34, 31871.164, 0.06676276, 0.4356427, -163819.55, -112189.414, 0.0, 10.000659, 9.998141 
2.864072e+3, 3.0473086e+2, 49080.81, 98374.01, 213899.42, -0.049720258, 0.4954429, 289042.1, 289042.1, 0.0, 10.000244, 10.000766 
2.8637627e+3, 3.147265e+2, -189146.72, -66551.03, 185535.16, -0.52750075, 0.34418955, 67549.99, 67549.99, 0.0, 9.998512, 10.000183 
2.863461e+3, 3.2472497e+2, 186073.02, 59868.28, -227387.66, 0.35866073, 0.6970797, 358951.7, 358951.7, 0.0, 10.001389, 9.999521 
2.8792694e+3, 1.3512193e+2, -1572364.6, -1320554.5, -335011.9, 0.10618921, 0.061957624, -1088569.8, 527260.7, 0.00000033823923, 9.999597, 10.002652 
2.8789604e+3, 1.4511968e+2, -1464629.4, -1701925.4, 199984.58, 0.30454484, 0.28179187, -1350745.3, 167098.19, 0.000000039050374, 10.001756, 9.998415 
2.8786507e+3, 1.5511316e+2, -1267850.8, -1638297.0, 188753.98, -0.3620296, 0.1417347, -1188620.4, 231287.27, 0.0000000006124831, 10.00278, 9.997707 
2.878346e+3, 1.6510673e+2, -1084345.5, -1345289.1, 17030.08, -0.31819776, 0.13637511, -1083238.8, 238729.13, 0.0, 10.002784, 9.998973 
2.8780442e+3, 1.7509964e+2, -1290717.5, -1488684.9, 14524.941, 0.19083938, -0.08428276, -1289657.5, -65625.74, 0.0, 10.001053, 9.9981985 
2.877739e+3, 1.8509421e+2, -1190123.1, -1353278.9, 53768.746, 0.25205776, 0.019423598, -1173997.3, -47911.805, 0.0, 10.000998, 9.998469 
2.877431e+3, 1.9508947e+2, -1041254.7, -1332279.1, 47768.855, 0.00072276057, 0.08995332, -1033614.5, -5476.4033, 0.0, 10.001692, 9.997659 
2.877125e+3, 2.0508277e+2, -902834.25, -1121549.0, 105465.34, -0.11919445, 0.10102787, -860264.06, 69941.74, 0.0, 10.001695, 9.998355 
2.8768215e+3, 2.1507336e+2, -1022696.56, -1224650.9, 56010.633, -0.1151843, -0.2888961, -1008202.6, -175906.31, 0.0, 10.000542, 9.997576 
2.876518e+3, 2.2506973e+2, -734758.8, -679582.8, 5789.933, -0.036264796, -0.09362696, -678981.75, 55353.73, 0.0, 10.000333, 10.0007 
2.8762147e+3, 2.350711e+2, -736519.8, -744298.56, 34075.863, 0.12991449, 0.35657948, -706112.1, -69780.71, 0.0, 10.00011, 9.999731 
2.8759083e+3, 2.4506858e+2, -474890.34, -467493.8, 42149.285, 0.07183272, 0.5715684, -428880.88, 109478.91, 0.0, 10.000814, 10.000598 
2.8755993e+3, 2.550616e+2, -406720.5, -491271.6, 73311.95, -0.1854304, 0.20838295, -364368.22, 76058.31, 0.0, 10.001031, 9.999698 
2.8752926e+3, 2.650576e+2, -263163.9, -275777.63, 144355.22, -0.2820085, 0.28348988, -124977.84, 217487.27, 0.0, 10.000978, 10.000486 
2.8749874e+3, 2.750554e+2, -462455.97, -424462.22, 130769.62, -0.22146681, 0.40987185, -311316.84, -66830.0, 0.0, 9.999303, 9.999647 
2.8746817e+3, 2.8505108e+2, -380939.0, -369226.63, 65360.977, -0.16917674, 0.51205575, -309460.03, -162928.63, 0.0, 9.999455, 9.999206 
2.8743744e+3, 2.9504398e+2, -265710.88, -386829.56, 83969.375, -0.13603902, 0.2800603, -222741.05, -174136.08, 0.0, 10.000007, 9.99822 
2.8740653e+3, 3.0504093e+2, -34829.37, 77785.555, 123606.89, -0.33382913, 0.50198627, 157305.9, 157305.9, 0.0, 9.999739, 10.000835 
2.8737563e+3, 3.1504065e+2, -498853.1, -334281.5, 122029.555, -0.5992997, 0.7580049, -269386.56, -269386.56, 0.0, 9.997018, 9.999062 
2.8734604e+3, 3.2503092e+2, 315749.5, 561646.7, 219494.95, 0.46587837, 0.07138821, 690281.9, 690281.9, 0.0, 10.000698, 10.003164 
2.8892645e+3, 1.3543247e+2, -1810165.3, -1731071.3, -2649.7402, 0.034490734, 0.31925246, -1730982.5, -118193.42, 0.0000000032251708, 9.999146, 10.000099 
2.8889593e+3, 1.4542753e+2, -911723.2, -1446982.3, 45811.02, 0.13602787, 0.4018984, -907830.7, 607005.75, 0.0, 10.005558, 9.998348 
2.8886524e+3, 1.5542078e+2, -1175115.5, -1619076.5, 97433.47, -0.14647812, 0.27224952, -1154673.6, 262228.16, 0.0, 10.003409, 9.997586 
2.8883463e+3, 1.6541469e+2, -1130963.8, -1301640.9, -69370.55, -0.13551342, 0.2562899, -1106325.3, 212632.81, 0.0, 10.002071, 9.999657 
2.8880396e+3, 1.7540891e+2, -1253698.1, -1410123.8, -2374.0686, 0.016000904, 0.13554561, -1253662.1, -32653.258, 0.0, 10.0009, 9.998864 
2.8877342e+3, 1.8540339e+2, -1072786.8, -1260492.8, 137667.13, 0.05959495, 0.17447095, -1000024.56, 123038.24, 0.0, 10.001521, 9.9988985 
2.8874293e+3, 1.9539797e+2, -795016.9, -1162362.3, 166809.52, -0.021591058, 0.18196021, -730574.5, 294545.9, 0.0, 10.003031, 9.998229 
2.887124e+3, 2.0539206e+2, -612458.4, -943372.25, 180787.7, -0.07019019, 0.21720724, -532843.5, 394335.66, 0.0, 10.003364, 9.998823 
2.886819e+3, 2.1538478e+2, -677471.44, -1000974.8, 244031.75, -0.13250785, 0.046384156, -546451.75, 282796.0, 0.0, 10.00247, 9.99824 
2.886515e+3, 2.2537966e+2, -582367.06, -689195.1, 160256.8, -0.042182278, 0.09961842, -466857.13, 264443.53, 0.0, 10.00161, 10.000076 
2.886211e+3, 2.3537676e+2, -683381.75, -749099.9, 79749.95, 0.16297841, 0.234403, -629986.7, 3349.5203, 0.0, 10.000414, 9.999622 
2.8859046e+3, 2.4537367e+2, -535734.94, -445816.34, 49775.125, 0.100563735, 0.35716882, -423701.8, 111667.39, 0.0, 10.0000925, 10.001144 
2.8855953e+3, 2.5536904e+2, -433304.6, -431693.7, 21805.71, -0.23077828, 0.21624385, -410678.56, 26734.98, 0.0, 10.000379, 10.000489 
2.8852886e+3, 2.653657e+2, -311811.6, -240391.4, 44951.316, -0.30061272, 0.2763685, -218692.16, 120753.03, 0.0, 10.0003605, 10.001026 
2.884984e+3, 2.7536333e+2, -275002.84, -277490.6, 45720.27, -0.16678219, 0.37421325, -230509.55, 10958.388, 0.0, 10.000257, 10.000223 
2.8846782e+3, 2.8535926e+2, -170750.16, -237970.31, 64564.47, -0.0865024, 0.45240238, -131571.45, 11937.435, 0.0, 10.00058, 9.999636 
2.8843713e+3, 2.9535314e+2, -50265.793, -215724.72, 57610.91, -0.075469375, 0.29716182, -32182.65, 13388.721, 0.0, 10.00103, 9.998959 
2.8840628e+3, 3.0534866e+2, 85543.92, 23100.137, -5771.9927, -0.17463067, 0.37861392, 86072.98, 86072.98, 0.0, 10.000996, 9.999917 
2.8837544e+3, 3.1534585e+2, -121692.75, -212171.61, -96997.33, -0.18841527, 0.5255233, -59903.734, -59903.734, 0.0, 9.999753, 9.998686 
2.8834593e+3, 3.2533854e+2, 614989.9, 740871.9, 72682.77, 0.5902694, 0.13921641, 774078.44, 774078.44, 0.0, 10.002378, 10.003828 
2.89926e+3, 1.357414e+2, -1728491.5, -2061760.4, 393046.2, -0.00493632, 0.52791566, -1468215.6, 141548.03, 0.000000008553674, 10.001314, 9.996812 
2.898958e+3, 1.4573327e+2, -1152502.0, -1541824.4, -69184.4, -0.06437426, 0.42398858, -1140573.1, 371277.1, 0.0, 10.003883, 9.998491 
2.8986555e+3, 1.5572736e+2, -1396662.8, -1714416.5, -21364.691, 0.2864975, 0.34882268, -1395232.6, 18673.781, 0.0, 10.001929, 9.997619 
2.8983474e+3, 1.657228e+2, -1151327.8, -1205347.5, -119802.71, 0.22897969, 0.4339751, -1055527.9, 260419.42, 0.0, 10.001601, 10.000491 
2.8980342e+3, 1.7571886e+2, -1199594.5, -1336288.8, -62396.24, -0.18577895, 0.39249185, -1175396.4, 42584.613, 0.0, 10.001153, 9.999236 
2.897728e+3, 1.857137e+2, -1019824.1, -1186347.4, 173333.8, -0.26359385, 0.42961147, -910791.44, 209239.02, 0.0, 10.001745, 9.999253 
2.8974274e+3, 1.9570735e+2, -901198.25, -1181979.1, 181333.64, -0.04226104, 0.27103594, -812260.6, 209834.2, 0.0, 10.00226, 9.998405 
2.897124e+3, 2.0570385e+2, -674120.56, -841484.3, 119500.53, 0.03875906, 0.46515226, -611915.4, 312212.78, 0.0, 10.00248, 9.999879 
2.8968185e+3, 2.1570164e+2, -863581.4, -1032128.5, 167751.48, 0.044571616, 0.66547096, -760124.8, 66021.51, 0.0, 10.00107, 9.998647 
2.896513e+3, 2.2569402e+2, -885569.25, -1044859.4, 104608.3, 0.08356416, 0.54440445, -833737.2, -105514.5, 0.0, 10.000613, 9.998018 
2.8962067e+3, 2.3568213e+2, -1050614.3, -1201250.9, 43839.688, 0.15827124, -0.041506346, -1038784.6, -408439.53, 0.0, 9.999199, 9.997064 
2.8958994e+3, 2.4567735e+2, -674334.3, -517076.1, 67751.92, 0.042140763, 0.036698844, -491912.8, 40482.203, 0.0, 9.999335, 10.00091 
2.895591e+3, 2.5567687e+2, -705179.44, -628722.6, 38329.45, -0.20953579, 0.30118573, -612816.4, -178415.45, 0.0, 9.9989605, 9.999744 
2.8952843e+3, 2.656736e+2, -387916.38, -199245.61, 53384.824, -0.29980472, 0.36961284, -185187.7, 151241.83, 0.0, 9.99962, 10.001611 
2.8949788e+3, 2.756682e+2, -410747.72, -338852.28, 63489.266, -0.27338246, 0.079765044, -301840.25, -63364.02, 0.0, 9.999401, 10.000201 
2.894674e+3, 2.856651e+2, -219724.84, -214414.92, 63250.41, -0.12553807, 0.23424752, -153763.77, -13257.101, 0.0, 10.0001955, 9.999935 
2.8943703e+3, 2.9566285e+2, -206340.16, -343369.75, 84500.38, 0.12710007, 0.4304655, -166068.05, -123534.266, 0.0, 10.000323, 9.998382 
2.894063e+3, 3.056543e+2, 4251.5645, -218027.7, -48454.73, 0.18264498, 0.20536278, 14354.989, 14354.989, 0.0, 10.001537, 9.997783 
2.8937533e+3, 3.1564233e+2, -383050.72, -852812.4, -70403.55, 0.07141208, -0.35011882, -372726.2, -372726.2, 0.0, 10.000383, 9.993855 
2.893454e+3, 3.256429e+2, -366887.47, -563497.8, 205937.97, 0.14004572, 0.54142463, -236994.6, -236994.6, 0.0, 9.999678, 9.995803 
2.9092565e+3, 1.3604173e+2, -1331394.3, -1769094.9, 136776.11, -0.35192874, 0.3626122, -1292168.8, 314648.63, 0.000000011355019, 10.003462, 9.997852 
2.908956e+3, 1.4603503e+2, -1406454.4, -1543029.5, -192685.56, -0.082891695, 0.29148665, -1270313.6, 238575.75, 0.0, 10.001516, 9.999673 
2.908651e+3, 1.5603146e+2, -1512022.9, -1641193.0, -97424.914, 0.09136645, 0.342278, -1459719.8, -48794.535, 0.0, 10.000466, 9.998875 
2.908344e+3, 1.6602741e+2, -1138862.3, -1166780.3, -128461.48, 0.1576528, 0.38756517, -1023603.6, 289358.34, 0.0, 10.00149, 10.000831 
2.9080343e+3, 1.7602286e+2, -839960.6, -1114111.9, -81122.484, -0.038899265, 0.26933223, -817754.8, 397246.2, 0.0, 10.003285, 9.999777 
2.9077283e+3, 1.8601826e+2, -680234.25, -986064.94, 68861.42, -0.14565492, 0.30371258, -665444.5, 451600.0, 0.0, 10.003805, 9.999691 
2.9074252e+3, 1.9601353e+2, -782549.06, -1061904.4, 87940.36, -0.16464852, 0.28195897, -757171.1, 261921.23, 0.0, 10.002665, 9.999087 
2.907121e+3, 2.0600975e+2, -716810.5, -859930.0, -53298.184, -0.0745897, 0.3996283, -699143.06, 221987.5, 0.0, 10.002038, 10.000012 
2.9068154e+3, 2.1600655e+2, -801241.9, -943788.75, -56660.17, 0.014199827, 0.49903333, -781464.4, 41698.277, 0.0, 10.001098, 9.999281 
2.9065096e+3, 2.2600092e+2, -806181.8, -905538.56, -50941.34, 0.13161346, 0.4795518, -784705.7, -59484.676, 0.0, 10.000632, 9.999004 
2.9062033e+3, 2.3599246e+2, -777907.75, -932028.0, 50035.305, 0.2228558, 0.17116868, -763088.7, -135779.9, 0.0, 10.000315, 9.998424 
2.9058954e+3, 2.4598816e+2, -471919.16, -405572.8, 184005.25, 0.06577044, 0.22402667, -251774.34, 277578.0, 0.0, 10.000468, 10.001209 
2.9055864e+3, 2.55987e+2, -369208.7, -389415.75, 181647.38, -0.2546566, 0.42321497, -197384.06, 233979.16, 0.0, 10.000719, 10.00059 
2.9052806e+3, 2.6598266e+2, -196917.3, -152035.81, 197981.25, -0.280025, 0.36374894, 24772.436, 358172.84, 0.0, 10.00089, 10.001417 
2.9049757e+3, 2.7597594e+2, -186040.47, -209401.28, 136804.81, -0.13402173, -0.015908085, -60418.33, 175039.67, 0.0, 10.000665, 10.000537 
2.904669e+3, 2.8597298e+2, -215032.86, -190743.22, 127348.58, -0.18389608, 0.12873437, -74961.66, 62525.195, 0.0, 10.000096, 10.000156 
2.9043624e+3, 2.9597202e+2, -362371.84, -304330.9, 179764.52, -0.2095693, 0.4615786, -151259.47, -111757.336, 0.0, 9.998542, 9.99953 
2.919255e+3, 1.3634156e+2, -1421144.9, -1601077.4, 64433.74, -0.44217035, 0.19614242, -1400451.1, 203424.61, 0.00000000463828, 10.002025, 9.999629 
2.9189536e+3, 1.4633706e+2, -1421857.3, -1412801.4, -129216.42, -0.019877104, 0.18090156, -1288033.5, 217890.03, 0.0, 10.000877, 10.000817 
2.9186442e+3, 1.5633543e+2, -1431325.3, -1508899.0, -72384.1, -0.14905797, 0.31219178, -1387991.0, 19951.736, 0.0, 10.000682, 9.999652 
2.91834e+3, 1.6633105e+2, -1137686.4, -1181054.4, -28659.158, 0.048783503, 0.2927661, -1123432.3, 186550.67, 0.0, 10.001577, 10.000689 
2.9180366e+3, 1.7632471e+2, -1052263.3, -1249313.3, -20730.816, 0.33866075, -0.0027580804, -1050105.9, 161933.02, 0.0, 10.00206, 9.999427 
2.9177302e+3, 1.8632106e+2, -848402.25, -997026.6, 50825.547, 0.14761513, 0.093690865, -832683.7, 281388.94, 0.0, 10.002495, 10.00016 
2.9174227e+3, 1.9631831e+2, -1015613.44, -1208068.6, 61272.98, -0.22656569, 0.21469532, -997761.56, 18338.52, 0.0, 10.001269, 9.99875 
2.9171166e+3, 2.0631269e+2, -895925.56, -989268.94, -46480.203, -0.24628338, 0.18437019, -876728.75, 41431.47, 0.0, 10.001136, 9.999512 
2.916811e+3, 2.1630523e+2, -1054389.1, -1127954.9, -55429.527, -0.063979864, -0.1104437, -1024648.25, -204407.64, 0.0, 9.999758, 9.998649 
2.9165056e+3, 2.2630411e+2, -741201.9, -585922.5, -37635.35, 0.13409321, 0.20046818, -577281.6, 144975.44, 0.0, 9.999941, 10.001481 
2.9162e+3, 2.3630598e+2, -843980.7, -756353.44, 42532.945, 0.34646466, 0.65344083, -739104.1, -114860.72, 0.0, 9.999119, 10.000163 
2.9158917e+3, 2.463034e+2, -543604.75, -359506.72, 181485.89, 0.11504313, 0.7474031, -248060.89, 278206.13, 0.0, 9.999766, 10.00179 
2.9155815e+3, 2.5629824e+2, -583089.94, -494859.75, 187108.08, -0.39254248, 0.45894256, -346736.53, 81575.45, 0.0, 9.999386, 10.000481 
2.915277e+3, 2.66293e+2, -369391.56, -287135.22, 180026.7, -0.28486073, 0.3340279, -143598.45, 186758.38, 0.0, 10.000146, 10.000722 
2.914975e+3, 2.762871e+2, -447622.03, -455055.28, 143332.75, 0.14601341, 0.07723079, -307957.72, -75550.17, 0.0, 9.999523, 9.999355 
2.9146618e+3, 2.8628322e+2, -315821.88, -263117.1, 95495.83, -0.47304848, 0.18442813, -190404.34, -55957.89, 0.0, 9.999638, 9.999807 
2.9143512e+3, 2.9627943e+2, -402648.88, -85687.086, 301189.25, -0.7670455, 0.16535841, 96171.79, 132661.17, 0.0, 9.99741, 10.001537 
2.929256e+3, 1.366474e+2, -1591403.0, -1498318.0, -57384.96, -0.08159443, 0.24857025, -1470973.9, 129912.07, 0.0, 9.99995, 10.001386 
2.928948e+3, 1.4664315e+2, -1490573.3, -1396206.9, -849.8424, -0.18550584, 0.16135696, -1396199.3, 106723.414, 0.0, 10.00006, 10.001393 
2.928641e+3, 1.5664107e+2, -1240983.4, -1366917.5, 48520.25, -0.2527242, 0.22058097, -1224457.9, 180484.88, 0.0, 10.001642, 10.000217 
2.9283375e+3, 1.6663718e+2, -1100303.8, -1234332.8, 16640.053, 0.017885506, 0.262951, -1098268.8, 208712.03, 0.0, 10.002057, 10.000134 
2.9280338e+3, 1.7663185e+2, -1199667.8, -1326430.6, 32499.21, 0.26525658, 0.15092444, -1191821.4, 17211.107, 0.0, 10.000947, 9.999478 
2.927727e+3, 1.866277e+2, -1056068.8, -1024867.6, 67816.01, 0.10751391, 0.15577349, -970880.94, 140190.84, 0.0, 10.000664, 10.000888 
2.9274192e+3, 1.96624e+2, -1088575.0, -1105644.4, 91908.41, -0.24587443, 0.13374338, -1004805.9, 8300.849, 0.0, 10.000053, 10.000066 
2.9271132e+3, 2.066204e+2, -919088.9, -871785.8, 44897.566, -0.22369856, 0.18445162, -844691.06, 70456.36, 0.0, 10.000344, 10.000745 
2.9268074e+3, 2.1661623e+2, -838880.94, -876581.3, 125667.31, -0.064683266, 0.13878922, -730657.94, 86539.28, 0.0, 10.000389, 10.000145 
2.9265013e+3, 2.266145e+2, -489787.88, -440637.4, 137578.4, 0.057448626, 0.32299477, -325456.56, 393760.03, 0.0, 10.001307, 10.001973 
2.9261947e+3, 2.3661458e+2, -293428.6, -405272.06, 115939.87, 0.13242465, 0.5860938, -220628.56, 400586.78, 0.0, 10.002267, 10.001171 
2.925887e+3, 2.4661131e+2, -314835.88, -396708.22, 94855.93, 0.0039030593, 0.63582486, -252459.83, 270787.22, 0.0, 10.001828, 10.00061 
2.9255787e+3, 2.5660565e+2, -437389.4, -486444.2, -37282.535, -0.2720691, 0.4327685, -417289.66, 8012.146, 0.0, 10.000455, 10.000095 
2.9252744e+3, 2.6660103e+2, -349762.63, -261864.28, -16591.62, -0.11459649, 0.35139415, -258836.73, 68505.43, 0.0, 10.000074, 10.000996 
2.9249722e+3, 2.7659655e+2, -241556.55, -287212.8, -19327.47, 0.2770332, 0.21634167, -234473.56, -5094.676, 0.0, 10.000438, 10.000127 
2.9246572e+3, 2.8659344e+2, -185525.16, -251529.13, -51002.645, -0.50066876, 0.37619445, -157778.48, -26368.127, 0.0, 10.000501, 9.999609 
2.9243553e+3, 2.9658747e+2, -29908.904, 124494.15, 175732.0, 0.15906894, 0.18387808, 239234.84, 272709.63, 0.0, 9.999523, 10.002067 
2.9392555e+3, 1.3695493e+2, -1594603.9, -1344698.4, -92103.25, 0.3258785, 0.39657578, -1314421.6, 283459.13, 0.0, 9.999309, 10.002744 
2.9389435e+3, 1.4695017e+2, -1425093.4, -1301010.8, 108777.29, -0.23497185, 0.16591212, -1237825.8, 262087.84, 0.0, 10.000385, 10.001833 
2.9386392e+3, 1.5694757e+2, -1381431.0, -1434122.0, 90079.41, -0.16042629, 0.13103436, -1313923.5, 88010.9, 0.0, 10.000802, 10.000131 
2.938335e+3, 1.6694464e+2, -1268007.6, -1376042.9, 7092.302, 0.04472057, 0.30835748, -1267544.0, 36422.39, 0.0, 10.00128, 9.999476 
2.9380292e+3, 1.7694102e+2, -1353853.4, -1479830.8, 32474.848, 0.15893473, 0.41442236, -1345974.6, -139965.94, 0.0, 10.000342, 9.998658 
2.9377225e+3, 1.86936e+2, -1064144.4, -962520.44, 89229.92, 0.0265775, 0.32578847, -910649.2, 197408.53, 0.0, 10.000422, 10.001393 
2.937416e+3, 1.969303e+2, -1155567.9, -1075704.9, 92679.03, -0.113459826, 0.041663606, -1014721.0, -4610.6514, 0.0, 9.999471, 10.000519 
2.93711e+3, 2.0693079e+2, -854781.06, -623421.56, 45799.418, -0.07984415, 0.34467748, -614685.06, 297425.06, 0.0, 9.999973, 10.002558 
2.936804e+3, 2.1693344e+2, -999504.3, -890924.0, 103328.445, 0.04508966, 0.80184, -828491.5, -14399.192, 0.0, 9.99913, 10.000636 
2.9364964e+3, 2.269283e+2, -652007.56, -575276.9, 160614.83, -0.06020847, 0.6412815, -448508.88, 267630.0, 0.0, 10.000626, 10.00125 
2.9361883e+3, 2.369197e+2, -622806.7, -744288.9, 132579.34, -0.2679198, 0.080912575, -537716.5, 80497.54, 0.0, 10.0009775, 9.999384 
2.9358822e+3, 2.4691436e+2, -638391.8, -847710.5, 39963.055, -0.19823591, 0.14562173, -631021.6, -110750.14, 0.0, 10.001081, 9.997777 
2.935577e+3, 2.5691026e+2, -841485.56, -953735.25, -61987.113, 0.015523166, 0.3594058, -813989.8, -391667.63, 0.0, 9.999063, 9.997513 
2.9352725e+3, 2.6690698e+2, -361658.0, -145013.84, -1002.86865, 0.12884934, 0.4409939, -145009.2, 179343.66, 0.0, 9.999552, 10.002037 
2.9349673e+3, 2.769038e+2, -415841.94, -318365.16, 3048.0796, 0.15271793, 0.31806216, -318269.94, -91893.625, 0.0, 9.999163, 10.000504 
2.9346555e+3, 2.8690335e+2, -273866.75, -294147.9, -72615.13, -0.26189175, 0.72554594, -210687.55, -82305.64, 0.0, 10.0001, 9.999422 
2.934351e+3, 2.9689604e+2, -350602.3, -266081.13, 202700.2, 0.1436611, 0.45111236, -101282.97, -70822.54, 0.0, 9.998653, 9.999699 
2.9492468e+3, 1.3726534e+2, -1594563.9, -1299056.1, 76043.15, -0.15644713, 0.5968163, -1280636.1, 314208.56, 0.0, 9.999012, 10.00325 
2.9489434e+3, 1.4725833e+2, -1366901.0, -1365359.3, 90748.87, 0.075994216, 0.1715756, -1275378.0, 221519.25, 0.0, 10.001145, 10.001062 
2.9486352e+3, 1.5725604e+2, -1540824.8, -1550473.6, 55250.477, -0.20618944, 0.26467183, -1490188.5, -91272.07, 0.0, 9.999758, 9.999897 
2.948331e+3, 1.6725247e+2, -1370393.0, -1360705.0, 8159.647, -0.004960605, 0.344825, -1356059.9, -55106.715, 0.0, 10.000149, 10.000205 
2.9480258e+3, 1.7724845e+2, -1239133.5, -1325131.4, 88223.336, 0.13205993, 0.36379448, -1183988.4, 19008.457, 0.0, 10.000547, 9.999676 
2.947719e+3, 1.8724425e+2, -932052.7, -891313.56, 148425.69, 0.019961724, 0.30761102, -761866.2, 343172.13, 0.0, 10.001177, 10.001565 
2.9474127e+3, 1.9723989e+2, -856972.2, -888947.5, 136501.33, -0.16394815, 0.16300929, -735525.44, 271554.34, 0.0, 10.001177, 10.001024 
2.9471058e+3, 2.0723951e+2, -663135.4, -546237.56, 10602.021, -0.15555768, 0.37188888, -545283.75, 363802.4, 0.0, 10.001185, 10.002588 
2.9467982e+3, 2.172407e+2, -726154.9, -709819.94, -6550.3804, -0.12049737, 0.69715667, -707517.7, 103561.2, 0.0, 10.000617, 10.001209 
2.946493e+3, 2.2723566e+2, -564999.44, -619471.25, 65004.668, -0.106805205, 0.5581936, -521755.53, 191370.6, 0.0, 10.001494, 10.000579 
2.9461876e+3, 2.3722751e+2, -345023.72, -604965.5, -5413.5195, -0.14976966, 0.11813473, -344911.03, 270289.25, 0.0, 10.002692, 9.999558 
2.9458806e+3, 2.4722242e+2, -349911.0, -670078.4, -2391.645, -0.11471038, 0.1724354, -349893.13, 167359.48, 0.0, 10.00269, 9.99835 
2.945574e+3, 2.572185e+2, -291024.38, -612299.75, 103915.96, 0.022405215, 0.3883171, -260342.97, 158955.19, 0.0, 10.00228, 9.998402 
2.9452685e+3, 2.6721424e+2, -37784.383, -60495.215, 180104.94, 0.11187055, 0.388292, 131322.77, 452663.4, 0.0, 10.001943, 10.001528 
2.9449624e+3, 2.772102e+2, -76045.83, -158643.17, 50055.77, 0.06288133, 0.26332477, -52451.043, 170926.42, 0.0, 10.001355, 10.000592 
2.9446527e+3, 2.872101e+2, -157559.77, -224626.08, -25334.396, -0.13389017, 0.687717, -149065.5, -23686.096, 0.0, 10.000661, 9.999738 
2.9443392e+3, 2.97203e+2, -183354.13, -196195.92, 228707.03, -0.58086276, 0.47122955, 39022.12, 66475.234, 0.0, 9.99951, 9.999875 
2.9592404e+3, 1.3757432e+2, -1588228.8, -1286973.9, 219643.63, -0.30804697, 0.67631835, -1171270.9, 420550.28, 0.00000000001490612, 9.999115, 10.003273 
2.9589435e+3, 1.4756593e+2, -1438016.6, -1510869.6, -5782.567, 0.43638492, 0.17286867, -1437560.5, 56326.914, 0.0, 10.001213, 10.00001 
2.958631e+3, 1.5756397e+2, -1564770.9, -1646799.3, -17375.385, -0.16715626, 0.4014614, -1561242.3, -165335.6, 0.0, 10.000028, 9.999087 
2.9583263e+3, 1.6755971e+2, -1297624.5, -1198503.5, -4536.961, -0.011371026, 0.36181575, -1198296.3, 99650.68, 0.0, 10.00018, 10.0012665 
2.9580227e+3, 1.7755471e+2, -1323061.0, -1281958.8, 84122.39, 0.25757328, 0.16788186, -1215913.5, -15919.266, 0.0, 9.999709, 10.000357 
2.957716e+3, 1.8755236e+2, -1040641.06, -926356.2, 130815.086, 0.061298955, 0.23950757, -840747.6, 261270.53, 0.0, 10.000488, 10.001588 
2.957409e+3, 1.9755043e+2, -1131418.6, -1122067.3, 119808.76, -0.17160162, 0.3456946, -1006843.0, -2804.2893, 0.0, 9.999853, 10.000037 
2.9571012e+3, 2.0754683e+2, -837845.6, -714996.06, -9915.251, -0.28385043, 0.30853567, -714200.94, 191873.11, 0.0, 10.000543, 10.001643 
2.956792e+3, 2.1754262e+2, -982214.44, -985974.9, -3909.1243, -0.34251317, 0.17132914, -979756.9, -171641.9, 0.0, 9.999727, 9.99967 
2.9564902e+3, 2.2753954e+2, -693018.56, -765531.56, 115558.18, -0.067192756, 0.32001558, -608162.6, 101986.76, 0.0, 10.001081, 9.99972 
2.95619e+3, 2.3753692e+2, -630422.6, -794418.94, 31177.105, 0.32382986, 0.4935101, -624695.56, -12515.7295, 0.0, 10.00109, 9.999015 
2.9558808e+3, 2.4753371e+2, -231371.61, -250037.27, -16498.283, 0.1058259, 0.53878695, -221749.36, 292456.44, 0.0, 10.002067, 10.001462 
2.9555687e+3, 2.5752977e+2, -408236.4, -522644.06, 107063.66, -0.2727037, 0.44236115, -344052.8, 72183.336, 0.0, 10.001011, 9.999572 
2.955263e+3, 2.6752308e+2, -315357.75, -438724.13, 162721.64, -0.20891891, 0.27428624, -203020.39, 115284.22, 0.0, 10.001225, 9.999185 
2.9549572e+3, 2.7751577e+2, -425533.28, -562900.9, 12259.342, -0.13981827, 0.044345185, -424447.78, -204065.34, 0.0, 10.000136, 9.998352 
2.954647e+3, 2.8751388e+2, -145123.48, -77580.27, -54329.543, -0.3305515, 0.2593811, -47381.41, 75018.52, 0.0, 10.000299, 10.000831 
2.9543394e+3, 2.975092e+2, -167676.92, 116928.81, 69495.88, -0.15714447, 0.12613261, 132991.92, 157432.67, 0.0, 9.998475, 10.002482 
2.9692405e+3, 1.3787825e+2, -1511705.1, -1260104.1, 149113.94, 0.044362586, 0.5984626, -1190813.0, 398030.13, 0.00000010737005, 9.999601, 10.00325 
2.9689366e+3, 1.4787161e+2, -1445264.4, -1555215.4, -88432.49, 0.033582773, 0.28043225, -1396112.0, 94784.48, 0.0, 10.001268, 9.999705 
2.9686278e+3, 1.578689e+2, -1293842.9, -1489693.0, -101252.29, -0.22367871, 0.47134528, -1250908.6, 142018.39, 0.0, 10.001668, 9.999406 
2.9683226e+3, 1.6786557e+2, -1055711.8, -992260.56, -95551.36, -0.059041347, 0.44103038, -923305.6, 371650.0, 0.0, 10.001346, 10.002179 
2.9680175e+3, 1.7786165e+2, -1141920.9, -1094164.0, -31686.742, 0.036093652, 0.27784196, -1078365.9, 118621.81, 0.0, 10.000377, 10.001363 
2.9677108e+3, 1.8786044e+2, -1044200.06, -884437.7, 11895.274, -0.084920466, 0.3969108, -883556.9, 215441.77, 0.0, 10.000136, 10.00211 
2.967404e+3, 1.9785963e+2, -1118068.4, -1037642.6, 25018.096, -0.25572655, 0.56735253, -1030495.4, -29487.867, 0.0, 9.999421, 10.000878 
2.9670978e+3, 2.0785458e+2, -837106.4, -797281.44, -38022.703, -0.2467576, 0.40497044, -774272.7, 128784.086, 0.0, 10.000795, 10.001016 
2.9667908e+3, 2.1784838e+2, -544553.56, -744401.7, -22611.578, -0.2229499, 0.13183485, -542027.1, 263089.9, 0.0, 10.002423, 10.000095 
2.9664883e+3, 2.2784552e+2, -424741.75, -584803.2, 124752.11, -0.039066236, 0.26298508, -356556.38, 350593.1, 0.0, 10.002533, 10.000358 
2.9661864e+3, 2.378439e+2, -402898.63, -535710.94, 101274.84, 0.1752248, 0.49828333, -348199.97, 260971.14, 0.0, 10.001841, 10.000468 
2.965878e+3, 2.4784134e+2, -108773.42, -22946.086, 15479.18, 0.036932535, 0.47328684, -20239.715, 490949.7, 0.0, 10.002057, 10.003073 
2.9655668e+3, 2.5783828e+2, -75900.53, -177055.84, 492.77756, -0.23304644, 0.32852188, -75898.13, 337310.06, 0.0, 10.002318, 10.001339 
2.9652599e+3, 2.6783302e+2, -376826.7, -486234.28, 120355.36, -0.17250179, 0.24783285, -299326.4, 15936.457, 0.0, 10.000692, 9.999223 
2.964953e+3, 2.7782673e+2, -610843.9, -614015.25, 163475.55, -0.1045324, 0.15860476, -448946.34, -231613.1, 0.0, 9.99848, 9.998879 
2.9646432e+3, 2.878246e+2, -118592.484, -28679.654, 133056.25, -0.26045293, 0.33403462, 66809.805, 186161.13, 0.0, 10.000221, 10.001274 
2.9643402e+3, 2.978205e+2, 345804.44, 456476.03, -88931.21, 0.33536556, 0.26088458, 505881.88, 527263.8, 0.0, 10.001479, 10.003414 
2.9792392e+3, 1.3818322e+2, -1406222.5, -1200084.1, 234144.27, 0.29954788, 0.66090894, -1047327.56, 538525.9, 0.00000019973128, 10.00036, 10.0033045 
2.9789296e+3, 1.4817762e+2, -1593860.0, -1621484.3, 31746.986, -0.35370573, 0.46727756, -1573050.8, -85149.56, 0.000000000008976791, 10.000312, 9.999709 
2.9786262e+3, 1.5817416e+2, -1500612.9, -1573423.3, 7440.7285, -0.10133651, 0.56788874, -1499860.3, -109917.2, 0.0, 10.000263, 9.999529 
2.9783195e+3, 1.6817175e+2, -1091666.8, -917580.8, -40025.316, -0.034187224, 0.5717551, -908819.25, 383141.4, 0.0, 10.000825, 10.002916 
2.9780114e+3, 1.781691e+2, -1231756.6, -1148945.5, 15655.221, -0.13767546, 0.48559314, -1146084.8, 47891.945, 0.0, 9.999924, 10.001212 
2.977705e+3, 1.8816832e+2, -1051709.3, -829207.94, 26079.826, -0.21246755, 0.62516236, -826192.0, 269789.03, 0.0, 9.999951, 10.002558 
2.9773992e+3, 1.9816828e+2, -1237974.3, -1087203.6, 37040.83, -0.22968422, 0.80913836, -1078595.0, -80614.47, 0.0, 9.998702, 10.000867 
2.9770958e+3, 2.0816246e+2, -926007.0, -914256.2, 40794.38, -0.08040804, 0.5887322, -878916.3, 21121.805, 0.0, 10.000511, 10.000353 
2.9767925e+3, 2.1815594e+2, -798782.06, -898754.2, 46294.99, 0.18167472, 0.32116535, -780637.1, 21465.967, 0.0, 10.000937, 9.999745 
2.9764864e+3, 2.2815296e+2, -504437.3, -441438.9, 119245.125, -0.013312457, 0.3275187, -349602.78, 354530.5, 0.0, 10.001395, 10.00182 
2.9761785e+3, 2.3814993e+2, -688094.06, -621100.44, 101907.516, -0.33955014, 0.30364528, -547325.75, 58838.03, 0.0, 9.99984, 10.000819 
2.9758728e+3, 2.481469e+2, -291590.9, -54864.9, 26651.79, -0.19796628, 0.1761173, -51901.41, 456288.78, 0.0, 10.000761, 10.00342 
2.9755676e+3, 2.5814453e+2, -397411.66, -334667.78, -9773.591, 0.07610231, 0.09106823, -333180.63, 77028.22, 0.0, 10.000288, 10.00122 
2.975259e+3, 2.6814398e+2, -343031.13, -194047.48, 23677.94, 0.14504734, 0.3084259, -190374.89, 121841.52, 0.0, 9.999925, 10.0015335 
2.9749486e+3, 2.7814314e+2, -780668.44, -615848.3, 144321.56, 0.03950393, 0.5445474, -532065.3, -317836.53, 0.0, 9.997173, 9.999473 
2.9746425e+3, 2.8814232e+2, -320421.72, -243485.66, 227842.56, 0.07962396, 0.8958462, -50886.55, 65347.574, 0.0, 9.999521, 10.000104 
2.9743356e+3, 2.9813176e+2, -15165.755, -39246.336, -45819.535, 0.09499724, 0.30432275, 20169.035, 38499.19, 0.0, 10.000697, 10.000317 
2.989229e+3, 1.384899e+2, -1386680.5, -1211263.4, 92517.92, -0.5624773, 0.4346594, -1171487.1, 411351.1, 0.000000019519112, 10.000559, 10.003216 
2.988928e+3, 1.484864e+2, -1813331.4, -1607258.1, 169088.55, -0.023149736, 0.42554453, -1512285.9, -27419.102, 0.0, 9.998303, 10.000848 
2.9886258e+3, 1.5848386e+2, -1791878.5, -1670855.8, 207903.4, 0.2838237, 0.55391014, -1514836.6, -127939.33, 0.0, 9.998031, 9.999967 
2.9883197e+3, 1.6847797e+2, -1370320.8, -1164223.9, 119862.16, 0.37881655, 0.29126975, -1109202.9, 179750.63, 0.0, 9.999395, 10.001927 
2.9880115e+3, 1.7847228e+2, -1134041.0, -1106629.6, 103835.78, 0.1442604, 0.0018002276, -1015598.94, 175406.58, 0.0, 10.000573, 10.001205 
2.9877028e+3, 1.8846697e+2, -934621.7, -819299.94, 75417.1, -0.06032144, -0.26078695, -782026.56, 311027.63, 0.0, 10.000897, 10.002245 
2.987396e+3, 1.9846271e+2, -1099096.9, -983855.75, 51807.273, -0.13768063, -0.43254283, -963990.06, 31103.008, 0.0, 9.999401, 10.001282 
2.9870918e+3, 2.0846295e+2, -797208.7, -714076.1, 168890.55, -0.12553452, -0.11819709, -581712.0, 315377.8, 0.0, 10.000758, 10.001658 
2.986787e+3, 2.1846284e+2, -459283.34, -585504.56, 189248.42, -0.1878758, 0.17424802, -322899.8, 476190.9, 0.0, 10.002439, 10.001231 
2.9864794e+3, 2.2846155e+2, -472149.9, -359605.72, 169197.64, -0.39428607, 0.28994784, -237567.98, 463535.53, 0.0, 10.001177, 10.002587 
2.9861715e+3, 2.3846099e+2, -685354.06, -519723.4, 131039.94, -0.61073196, 0.4488396, -447523.1, 155586.06, 0.0, 9.999251, 10.00188 
2.985866e+3, 2.4845825e+2, -754435.44, -407697.3, 15525.823, -0.38432074, 0.41813195, -407003.53, 98131.43, 0.0, 9.998057, 10.002376 
2.985561e+3, 2.5845405e+2, -849815.1, -522881.8, -66138.47, -0.028478155, 0.25102776, -510008.9, -102833.99, 0.0, 9.996854, 10.001672 
2.985254e+3, 2.6845157e+2, -235340.56, -831.6786, -49218.363, 0.105240315, 0.2092985, 9079.329, 318279.28, 0.0, 9.999972, 10.00296 
2.984945e+3, 2.7845058e+2, 265847.88, 44975.914, -29847.709, 0.053271946, 0.31671825, 269810.28, 481020.78, 0.0, 10.003503, 10.001109 
2.9846394e+3, 2.884445e+2, -24415.166, -126090.234, 95420.24, 0.21336767, 0.09388689, 32865.184, 146136.95, 0.0, 10.0015335, 10.000176 
2.984328e+3, 2.984353e+2, -213990.81, -112597.625, -32165.816, -0.21453737, -0.30201915, -103254.36, -87895.84, 0.0, 9.998894, 10.000987 
2.9992318e+3, 1.3879798e+2, -1319515.8, -1531425.3, -341300.7, 0.039532606, 0.19636072, -1068101.5, 511712.47, 0.000000013810121, 10.002332, 10.000216 
2.9989266e+3, 1.487957e+2, -1313721.0, -1427784.9, -39229.35, 0.45557895, 0.38242966, -1301531.6, 180297.8, 0.0, 10.002022, 10.00018 
2.998616e+3, 1.5878737e+2, -1270221.5, -1579527.5, -233366.13, -0.14045517, -0.05101927, -1144915.1, 238996.3, 0.0, 10.002207, 9.99852 
2.9983088e+3, 1.6878688e+2, -1190692.4, -1256348.8, -216770.47, -0.21629001, 0.28852594, -1004278.44, 281642.16, 0.0, 10.001382, 10.00018 
2.9980037e+3, 1.7878482e+2, -1218845.3, -1367578.8, -105739.92, -0.29818857, 0.4656892, -1163939.6, 24005.457, 0.0, 10.000839, 9.999263 
2.9976976e+3, 1.8878543e+2, -867518.8, -893881.4, -188096.47, -0.2580546, 0.8196396, -692142.3, 397793.34, 0.0, 10.001778, 10.001192 
2.9973903e+3, 1.9877778e+2, -741157.6, -1013120.3, -171132.3, -0.3208605, 0.44233444, -658559.0, 333446.28, 0.0, 10.002678, 9.999454 
2.9970878e+3, 2.0877385e+2, -688488.2, -439303.2, 35638.33, -0.16417378, 0.19097821, -434306.4, 459733.34, 0.0, 10.000629, 10.003429 
2.9967827e+3, 2.1877487e+2, -1032121.8, -909530.8, -7654.9536, -0.44628885, 0.4576335, -909054.7, -113028.18, 0.0, 9.9987335, 10.000721 
2.9964778e+3, 2.28768e+2, -558402.1, -446093.9, -268156.88, -0.20687434, -0.012185391, -228274.67, 469820.03, 0.0, 10.000868, 10.001953 
2.9961738e+3, 2.3876761e+2, -500263.28, -570022.25, -283777.7, 0.09882585, 0.1394609, -249229.58, 350870.3, 0.0, 10.00118, 10.000506 
2.995863e+3, 2.4876475e+2, 182196.19, -159761.55, 184977.63, -0.0268073, 0.16782366, 263111.13, 765238.1, 0.0, 10.005448, 10.000321 
2.9955548e+3, 2.5876266e+2, -217819.61, -416513.9, 271419.63, 0.035904024, 0.37989786, -28136.54, 376010.38, 0.0, 10.002183, 9.999696 
2.9952478e+3, 2.6875564e+2, 138640.23, 208418.73, 304249.9, -0.047750946, -0.11462308, 479773.28, 785988.1, 0.0, 10.002621, 10.002876 
2.994943e+3, 2.7875614e+2, -328967.9, -288689.38, 5962.4297, -0.08275039, 0.1262367, -287825.28, -79615.1, 0.0, 9.999722, 10.000525 
2.994636e+3, 2.8875652e+2, -189764.1, -128685.984, 145421.98, 0.21656464, 0.46199083, -10631.007, 99584.555, 0.0, 10.000363, 10.00047 
2.9943222e+3, 2.9875416e+2, 166569.17, 675351.44, -421515.8, -0.2114112, 0.5989644, 913291.94, 925533.56, 0.0, 9.999255, 10.005997 
