coord_x,coord_y,stress_xx,stress_yy,tau_xy,velocity_x,velocity_y,stress_1,eps,damage,lx,ly
4.9989924e+0, 1.2544686e+2, -1823764.4, -1480884.5, 37473.61, -0.001658981, 0.12641284, -1476836.8, 233797.52, 0.0013801174, 9.998009, 10.002563 
4.998907e+0, 1.3544668e+2, -1814031.8, -1585793.5, -3604.5005, -0.014550433, -0.008603753, -1585736.6, 26893.813, 0.0008364695, 9.998098, 10.001124 
4.99896e+0, 1.454494e+2, -1750857.6, -1580258.3, -7656.1475, -0.013668895, 0.1851447, -1579915.4, -65311.33, 0.00038681776, 9.998187, 10.000442 
4.999136e+0, 1.5544961e+2, -1645650.3, -1486472.1, 17212.402, -0.00014579977, 0.16226332, -1484632.1, -68025.0, 0.00011816065, 9.99827, 10.000372 
4.999287e+0, 1.6545019e+2, -1476705.3, -1296975.5, 22822.125, 0.0030192016, 0.15630104, -1294122.8, 24479.78, 0.000016018055, 9.99851, 10.000886 
4.999419e+0, 1.754508e+2, -1326322.0, -1177603.4, -299.3344, -0.0026698268, 0.122389816, -1177602.8, 42991.336, 0.00000013955699, 9.998887, 10.000852 
4.9995822e+0, 1.8545105e+2, -1242206.4, -1174098.9, -8665.421, -0.00046650466, 0.103464656, -1173013.6, -50423.01, 0.0, 9.99917, 10.000068 
4.999776e+0, 1.9545107e+2, -1117923.9, -1068331.6, -753.75836, 0.008885136, 0.09352792, -1068320.1, -43729.75, 0.0, 9.9993725, 10.000024 
4.9998385e+0, 2.0545116e+2, -1028947.6, -1025364.94, 3021.915, 0.007255667, 0.12437436, -1023643.3, -97052.31, 0.0, 9.999529, 9.999569 
4.9997848e+0, 2.1545126e+2, -914582.0, -921120.3, 3514.2769, -0.0040189875, 0.17082232, -913051.44, -84458.78, 0.0, 9.999648, 9.999554 
4.9998885e+0, 2.2545074e+2, -783032.7, -809660.2, 5046.2764, -0.005814643, 0.16663255, -782108.44, -51510.348, 0.0, 9.99989, 9.99953 
5.000119e+0, 2.354497e+2, -636656.8, -690319.9, -3452.477, 0.00026406287, 0.1022483, -636435.6, -3828.7004, 0.0, 10.000231, 9.999512 
5.0001794e+0, 2.45449e+2, -538276.44, -626445.75, -9411.562, -0.001224166, 0.097443074, -537283.0, -2669.683, 0.0, 10.000381, 9.999207 
5.0001013e+0, 2.5544858e+2, -443921.8, -535501.2, -3176.8638, -0.008940568, 0.12949398, -443811.72, -7193.988, 0.0, 10.00038, 9.999159 
5.0003535e+0, 2.6544788e+2, -323142.06, -480110.47, 10904.379, -0.0030898363, 0.16925809, -322388.16, 16237.144, 0.0, 10.000766, 9.998679 
5.000882e+0, 2.7544695e+2, -123518.74, -335222.0, 4302.0435, 0.014454953, 0.20336181, -123431.36, 117203.76, 0.0, 10.001473, 9.99866 
5.0010246e+0, 2.8544515e+2, -16948.53, -286016.0, -11878.5625, 0.014391483, 0.18024908, -16425.143, 126226.875, 0.000000004221918, 10.00176, 9.998187 
5.000843e+0, 2.954424e+2, 73422.55, -190671.89, -11858.736, -0.0010208258, 0.08130769, 73953.98, 118630.44, 0.0000065845143, 10.001702, 9.998196 
5.000926e+0, 3.0544046e+2, 36726.727, -364572.78, 3457.1487, -0.0022543648, 0.14653629, 36756.504, 36756.504, 0.00007542163, 10.001895, 9.99658 
5.001212e+0, 3.1543693e+2, 290773.56, 75613.58, 15700.112, 0.00731772, 0.13743225, 291913.16, 291913.16, 0.00027006015, 10.00227, 9.999423 
1.4996968e+1, 1.2544782e+2, -1901190.4, -1638817.8, 37661.074, -0.0057630986, 0.128803, -1633518.9, 77101.83, 0.00135349, 9.998, 10.001483 
1.4996724e+1, 1.3544683e+2, -1885099.9, -1731716.9, -39.604454, -0.043529496, 0.020143533, -1731716.9, -119086.516, 0.0008181531, 9.998095, 10.000126 
1.499688e+1, 1.4544906e+2, -1703893.6, -1480920.3, -5434.0884, -0.041035607, 0.1756009, -1480788.0, 33820.754, 0.00037595516, 9.998179, 10.001127 
1.4997408e+1, 1.5544917e+2, -1602602.1, -1395653.0, 21139.164, -0.0003656708, 0.077576675, -1393515.8, 23091.814, 0.00011312574, 9.998264, 10.0009985 
1.4997862e+1, 1.6544978e+2, -1518388.4, -1382178.1, 36054.83, 0.009116201, 0.07506472, -1373223.3, -54620.836, 0.000014709239, 9.998505, 10.000305 
1.4998257e+1, 1.7545055e+2, -1365958.1, -1258816.3, 13807.542, -0.0079678325, 0.11691885, -1257065.4, -36469.35, 0.00000010097208, 9.998883, 10.000297 
1.4998746e+1, 1.8545099e+2, -1227091.8, -1140967.5, -1491.0018, -0.001426046, 0.13163611, -1140941.6, -18349.484, 0.0, 9.999164, 10.0002985 
1.4999329e+1, 1.9545123e+2, -1102561.9, -1035401.6, 7283.752, 0.026656166, 0.12198535, -1034620.75, -10031.328, 0.0, 9.999368, 10.000253 
1.4999513e+1, 2.054512e+2, -1027482.7, -1020689.2, 6792.407, 0.021672985, 0.12784342, -1016491.56, -89900.98, 0.0, 9.999522, 9.999605 
1.4999357e+1, 2.154509e+2, -913884.3, -918410.5, 9118.809, -0.011890978, 0.13183305, -906751.94, -78156.62, 0.0, 9.999643, 9.999577 
1.4999661e+1, 2.2545053e+2, -796733.25, -836138.7, 17139.55, -0.01761206, 0.15045133, -790321.56, -59721.586, 0.0, 9.999883, 9.999352 
1.5000358e+1, 2.3545015e+2, -649985.7, -716763.44, 9428.288, 0.0008438104, 0.17251852, -648680.06, -16075.729, 0.0, 10.000226, 9.999333 
1.5000537e+1, 2.454495e+2, -527708.25, -603230.25, -10390.715, -0.0038344513, 0.1716881, -526304.7, 8305.473, 0.0, 10.000377, 9.999369 
1.5000302e+1, 2.5544855e+2, -432918.22, -511147.25, -1592.8203, -0.026976274, 0.13753538, -432885.8, 3731.7534, 0.0, 10.000373, 9.99933 
1.500106e+1, 2.6544732e+2, -332588.06, -498211.84, 37073.305, -0.009210772, 0.12002585, -324668.28, 13960.987, 0.0, 10.00076, 9.998558 
1.5002644e+1, 2.7544582e+2, -134766.3, -356807.88, 30133.543, 0.04314149, 0.112164244, -130749.51, 109894.63, 0.0, 10.001467, 9.998516 
1.5003076e+1, 2.8544432e+2, -17561.83, -285735.6, -14961.5, 0.043440584, 0.12592189, -16729.705, 125929.4, 0.0000000059189293, 10.001754, 9.998193 
1.5002523e+1, 2.954427e+2, 75142.12, -185374.7, -12241.398, -0.0035459902, 0.13804448, 75716.06, 120390.91, 0.0000065077284, 10.001697, 9.998236 
1.5002781e+1, 3.0544087e+2, 57564.65, -319438.16, 17175.72, -0.006206074, 0.2015684, 58345.535, 58345.535, 0.000074265045, 10.001888, 9.996894 
1.5003626e+1, 3.1543672e+2, 310717.38, 120171.336, 34763.2, 0.021110091, 0.095686994, 316861.44, 316861.44, 0.00026651216, 10.002258, 9.999736 
2.4994864e+1, 1.2544797e+2, -1922723.1, -1680615.5, -5436.0605, -0.016022498, 0.11399474, -1680493.5, 30123.557, 0.0013145427, 9.997992, 10.0012 
2.4994978e+1, 1.3544676e+2, -1883887.5, -1763567.4, 15017.308, -0.035074122, 0.014110259, -1761721.4, -149090.48, 0.0007913486, 9.998244, 9.999837 
2.4995245e+1, 1.4544877e+2, -1659011.9, -1456274.3, 10914.185, -0.037031278, 0.16160183, -1455688.4, 58923.05, 0.00036019128, 9.998474, 10.001156 
2.4995722e+1, 1.5544881e+2, -1538904.1, -1362536.5, -12456.484, -0.01691719, 0.051693436, -1361661.0, 54948.855, 0.00010584406, 9.998692, 10.00102 
2.4996296e+1, 1.6544938e+2, -1491080.4, -1381348.6, 958.7327, -0.010281904, 0.050557755, -1381340.3, -62735.465, 0.000012859098, 9.998747, 10.000195 
2.4996963e+1, 1.7545016e+2, -1404578.9, -1289730.9, 13877.84, -0.015032359, 0.10488662, -1288077.8, -67478.56, 0.00000006033416, 9.998672, 10.000187 
2.4997668e+1, 1.8545066e+2, -1280426.0, -1172493.6, 9431.809, -0.008601827, 0.13240881, -1171675.6, -49080.137, 0.0, 9.998822, 10.000247 
2.4998406e+1, 1.9545099e+2, -1135603.4, -1056544.3, -3879.964, 0.0075582946, 0.13646914, -1056354.3, -31761.633, 0.0, 9.999165, 10.000205 
2.4998912e+1, 2.0545092e+2, -1023916.9, -1017357.56, -14208.69, 0.008601239, 0.14142719, -1006054.94, -79460.85, 0.0, 9.99954, 9.9996195 
2.4999222e+1, 2.1545048e+2, -870054.94, -895432.0, -14283.556, -0.0042461343, 0.13076033, -863638.0, -35038.387, 0.0, 9.999937, 9.999593 
2.499972e+1, 2.2545016e+2, -769250.94, -823116.8, -2214.9065, -0.00937576, 0.15268138, -769160.0, -38556.188, 0.0, 10.000072, 9.999351 
2.500038e+1, 2.3545e+2, -685158.9, -734689.94, 3566.0505, -0.0075434474, 0.1950775, -684903.5, -52297.023, 0.0, 9.9999895, 9.999325 
2.5000855e+1, 2.454493e+2, -546355.1, -628721.75, -13032.136, -0.006776038, 0.20090164, -544342.4, -9729.546, 0.0, 10.000319, 9.999222 
2.5001183e+1, 2.5544816e+2, -353162.84, -487451.34, -28742.758, -0.0068406654, 0.15878367, -347269.44, 89353.13, 0.0, 10.000984, 9.999198 
2.500217e+1, 2.654467e+2, -280563.16, -467062.7, 1525.4948, 0.009150072, 0.120619975, -280550.66, 58085.414, 0.0, 10.001092, 9.998613 
2.5003716e+1, 2.7544495e+2, -235335.64, -400344.16, 8667.164, 0.039497748, 0.08132149, -234881.66, 5770.701, 0.0, 10.000754, 9.998561 
2.5004438e+1, 2.8544348e+2, -113370.85, -330358.0, -18985.021, 0.037528686, 0.09843962, -111722.305, 30944.334, 0.0000000086392555, 10.001089, 9.998206 
2.500442e+1, 2.954422e+2, 114176.75, -164418.08, -17670.91, 0.0035638826, 0.14349188, 115293.125, 159972.95, 0.0000063841276, 10.001955, 9.998256 
2.500493e+1, 3.0544055e+2, 118147.72, -268923.78, -3911.0525, 0.003619196, 0.20948344, 118187.234, 118187.234, 0.00007245626, 10.002215, 9.997084 
2.500574e+1, 3.1543645e+2, 286083.9, 130828.58, 6766.24, 0.01989846, 0.09581918, 286378.22, 286378.22, 0.0002610093, 10.001995, 9.999935 
3.4992677e+1, 1.2544726e+2, -1887108.9, -1605909.1, -225.31044, -0.036615625, 0.07796622, -1605908.9, 104714.58, 0.0012623775, 9.997989, 10.001715 
3.499366e+1, 1.3544646e+2, -1853722.5, -1701282.0, 25385.4, 0.0076330947, -0.027663702, -1697165.9, -84533.914, 0.000755357, 9.998246, 10.000263 
3.4994048e+1, 1.4544858e+2, -1701739.8, -1545157.1, 17767.258, -0.0057023712, 0.14229055, -1543166.4, -28554.209, 0.00033918672, 9.998476, 10.0005455 
3.4994075e+1, 1.5544853e+2, -1579517.8, -1445943.8, -4551.4297, -0.05189952, 0.08684789, -1445788.9, -29174.895, 0.00009620481, 9.998689, 10.00045 
3.4994584e+1, 1.6544901e+2, -1466069.8, -1327952.5, -2366.11, -0.057632484, 0.082545474, -1327912.0, -9302.035, 0.000010539653, 9.99874, 10.000564 
3.499553e+1, 1.7544964e+2, -1381127.3, -1240337.1, 12432.779, -0.026479697, 0.08580965, -1239247.6, -18644.217, 0.000000028001644, 9.99867, 10.000526 
3.4996334e+1, 1.8545005e+2, -1303863.6, -1220044.9, 21709.021, -0.024950152, 0.104662396, -1214756.0, -92155.336, 0.0, 9.998818, 9.999923 
3.4997e+1, 1.9545034e+2, -1158587.6, -1103133.6, 9739.733, -0.049973972, 0.13769315, -1101472.8, -76872.61, 0.0, 9.99916, 9.999888 
3.4998032e+1, 2.0545033e+2, -1024879.9, -1017180.44, 378.84628, -0.03433864, 0.16452996, -1017161.8, -90560.23, 0.0, 9.999532, 9.999624 
3.4999374e+1, 2.1545005e+2, -869768.5, -893757.3, 620.2247, 0.016797598, 0.1679689, -869752.5, -41146.96, 0.0, 9.999932, 9.999606 
3.5000053e+1, 2.2544965e+2, -756325.9, -794782.8, -5970.505, 0.016057923, 0.17125522, -755420.25, -24810.65, 0.0, 10.000066, 9.999549 
3.5000187e+1, 2.3544922e+2, -673843.3, -710604.5, 2522.892, -0.026633447, 0.17010063, -673671.0, -41057.6, 0.0, 9.999986, 9.999493 
3.5001123e+1, 2.4544847e+2, -578433.0, -693337.0, 11648.364, -0.012472623, 0.18350816, -577264.0, -42642.8, 0.0, 10.000312, 9.998781 
3.5002732e+1, 2.5544742e+2, -384181.66, -549745.1, -4917.14, 0.048940666, 0.19445549, -384035.75, 52596.973, 0.0, 10.000977, 9.998774 
3.500367e+1, 2.6544598e+2, -264339.03, -432451.75, -12048.181, 0.049081963, 0.17030556, -263479.97, 75165.836, 0.0, 10.001088, 9.998853 
3.5004088e+1, 2.7544427e+2, -218697.45, -364250.63, -1182.7323, 0.0003677538, 0.11205103, -218687.84, 21971.824, 0.0, 10.000749, 9.998812 
3.5005102e+1, 2.8544262e+2, -112233.52, -326444.16, 13471.0205, -0.0056798737, 0.09671435, -111389.695, 31284.912, 0.000000011844628, 10.001083, 9.998236 
3.5006514e+1, 2.9544094e+2, 114022.016, -162169.9, 13786.955, 0.016915701, 0.09825197, 114708.52, 159399.95, 0.0000061783935, 10.001946, 9.998275 
3.500737e+1, 3.0543938e+2, 122241.586, -259171.36, -13474.724, 0.025479792, 0.1696932, 122717.03, 122717.03, 0.00006980898, 10.002211, 9.997153 
3.5007536e+1, 3.154362e+2, 292407.06, 145376.17, 3905.8157, -0.0020116838, 0.14100014, 292510.75, 292510.75, 0.00025310565, 10.00199, 10.000037 
4.4990522e+1, 1.2544641e+2, -1924062.5, -1598172.3, -29691.385, -0.032004047, 0.08021389, -1595489.3, 115144.234, 0.0011988538, 9.9976225, 10.001948 
4.4991693e+1, 1.3544595e+2, -1891517.4, -1699651.5, -25455.09, 0.0034012094, -0.00969296, -1696331.8, -83693.945, 0.0007112032, 9.997902, 10.000442 
4.4992316e+1, 1.4544812e+2, -1744062.0, -1569380.1, -17197.941, -0.0129616195, 0.15857466, -1567703.0, -53085.723, 0.00031351, 9.998202, 10.000512 
4.499263e+1, 1.5544802e+2, -1603412.8, -1461332.1, 1774.2383, -0.057306662, 0.09985505, -1461310.0, -44690.27, 0.000084590996, 9.998541, 10.000418 
4.499328e+1, 1.6544847e+2, -1454889.6, -1319255.4, 4311.8857, -0.064400576, 0.09456187, -1319118.4, -502.61044, 0.000007991499, 9.998804, 10.000594 
4.499425e+1, 1.7544915e+2, -1329603.1, -1212110.0, -6870.165, -0.03809738, 0.09904687, -1211709.6, 8899.123, 0.000000008983813, 9.999009, 10.000557 
4.4995216e+1, 1.8544947e+2, -1264569.3, -1208335.0, 6666.5483, -0.03348403, 0.11097286, -1207555.5, -84948.9, 0.0, 9.999119, 9.999859 
4.4996148e+1, 1.9544956e+2, -1164131.6, -1112906.6, 13852.721, -0.050368357, 0.13065451, -1109400.4, -84792.914, 0.0, 9.999152, 9.9998255 
4.4997478e+1, 2.0544949e+2, -1055535.5, -1034958.44, 20184.953, -0.03234451, 0.15587012, -1022591.1, -95981.766, 0.0, 9.999333, 9.999599 
4.4999152e+1, 2.1544926e+2, -915225.5, -918451.7, 16766.6, 0.016660333, 0.16830763, -899994.56, -71382.0, 0.0, 9.999633, 9.999581 
4.500013e+1, 2.2544876e+2, -775669.25, -818529.06, -9373.888, 0.02093955, 0.16718087, -773708.75, -43090.75, 0.0, 9.999994, 9.999421 
4.5000535e+1, 2.3544805e+2, -620771.3, -698148.3, -25678.127, -0.011570831, 0.14941965, -613025.25, 19599.53, 0.0, 10.000408, 9.999375 
4.500172e+1, 2.4544725e+2, -538956.56, -678868.4, -3403.5825, 0.0018958113, 0.16788319, -538873.8, -4240.4644, 0.0, 10.000602, 9.998741 
4.5003566e+1, 2.554464e+2, -439139.25, -581068.25, 9278.116, 0.05278951, 0.20212823, -438535.3, -1891.7174, 0.0, 10.000619, 9.998732 
4.500464e+1, 2.6544514e+2, -288045.06, -450244.5, -2066.315, 0.044526525, 0.20113641, -288018.75, 50636.668, 0.0, 10.000953, 9.998796 
4.5005128e+1, 2.754436e+2, -107344.87, -316166.16, -14289.812, -0.0100590335, 0.16351253, -106371.54, 134296.58, 0.0, 10.001536, 9.998763 
4.500638e+1, 2.854418e+2, -31054.682, -286787.44, -4118.654, -0.013778433, 0.13046204, -30988.367, 111696.125, 0.000000014278152, 10.00164, 9.99824 
4.500818e+1, 2.9543957e+2, 30525.525, -203634.95, -6787.0034, 0.017402275, 0.08224993, 30722.078, 75427.086, 0.0000058442592, 10.001377, 9.998265 
4.500931e+1, 3.054378e+2, 25962.182, -312036.88, -43116.938, 0.030679304, 0.13835298, 31375.701, 31375.701, 0.00006621042, 10.001576, 9.997096 
4.5009625e+1, 3.1543508e+2, 305071.34, 147502.19, -34312.996, 0.0032123162, 0.1609536, 312219.25, 312219.25, 0.0002425997, 10.002091, 10.000007 
5.4988337e+1, 1.2544544e+2, -1925555.1, -1602938.3, -21551.816, -0.01449295, 0.12294946, -1601504.9, 109142.02, 0.0011275938, 9.997631, 10.001912 
5.498907e+1, 1.3544527e+2, -1895887.6, -1707972.6, -15214.632, -0.04961467, 0.07209897, -1706748.8, -94100.35, 0.00066134764, 9.997899, 10.000387 
5.499004e+1, 1.454474e+2, -1706046.0, -1489236.3, -4647.2183, -0.061793447, 0.21038514, -1489136.8, 25490.143, 0.00028458898, 9.998197, 10.001065 
5.4991364e+1, 1.5544721e+2, -1567491.4, -1387381.9, 15290.697, -0.039673056, 0.089333706, -1386093.0, 30534.564, 0.00007188515, 9.998543, 10.000924 
5.499237e+1, 1.6544777e+2, -1475850.3, -1363022.6, 11258.6455, -0.03726824, 0.08587362, -1361910.1, -43287.62, 0.0000055425044, 9.998805, 10.000293 
5.499313e+1, 1.754487e+2, -1349776.1, -1252913.9, 783.62305, -0.051938396, 0.14583941, -1252907.6, -32292.563, 0.00000000116644, 9.999004, 10.000279 
5.4994303e+1, 1.8544893e+2, -1251655.0, -1179656.6, 7562.0767, -0.037785854, 0.15201475, -1178870.9, -56257.74, 0.0, 9.999112, 10.000059 
5.4995835e+1, 1.9544864e+2, -1151152.8, -1085233.9, 16157.519, 0.00209001, 0.114748985, -1081486.5, -56871.465, 0.0, 9.99915, 10.000016 
5.499725e+1, 2.054484e+2, -1058818.0, -1040907.7, 31133.314, 0.010401545, 0.11404161, -1017467.2, -90849.63, 0.0, 9.9993305, 9.99956 
5.499855e+1, 2.1544819e+2, -920639.06, -928398.56, 28969.574, -0.0077545424, 0.13134749, -895290.56, -66669.65, 0.0, 9.999627, 9.9995165 
5.499994e+1, 2.2544749e+2, -808019.7, -883396.9, 5774.4893, 0.0015586119, 0.13970584, -807579.9, -76950.92, 0.0, 9.999986, 9.99898 
5.500141e+1, 2.3544645e+2, -649850.9, -757833.1, -10226.669, 0.034302168, 0.13379827, -648890.9, -16250.214, 0.0, 10.000405, 9.998966 
5.500263e+1, 2.4544568e+2, -512881.4, -624212.1, -3293.6497, 0.032080077, 0.15269719, -512784.06, 21865.174, 0.0, 10.0006, 9.999118 
5.500367e+1, 2.5544512e+2, -415794.2, -531654.7, 11521.504, 0.00085682963, 0.18185657, -414659.56, 21995.646, 0.0, 10.000614, 9.999074 
5.5005074e+1, 2.654442e+2, -312773.84, -500415.06, 19766.795, -0.007973715, 0.21185064, -310714.16, 27950.844, 0.0, 10.000948, 9.998453 
5.500681e+1, 2.754429e+2, -131917.95, -365509.3, 6519.809, 0.0038344322, 0.23642583, -131736.13, 108941.48, 0.0, 10.001531, 9.998426 
5.5008245e+1, 2.8544086e+2, -33011.28, -290967.28, -14900.212, 0.007963009, 0.20006362, -32153.46, 110542.766, 0.000000014996283, 10.001639, 9.998213 
5.5009395e+1, 2.9543808e+2, 28563.984, -207024.22, -13848.812, 0.00016383921, 0.09756261, 29375.28, 74095.664, 0.0000053587105, 10.001374, 9.998243 
5.501073e+1, 3.0543587e+2, 12908.232, -338585.44, -23618.463, 0.014438792, 0.11432998, 14488.163, 14488.163, 0.000061679886, 10.0015745, 9.996915 
5.5011964e+1, 3.1543308e+2, 293666.0, 125294.85, -9583.845, 0.026257554, 0.15172377, 294209.78, 294209.78, 0.00022953504, 10.002087, 9.999856 
6.498623e+1, 1.254445e+2, -1865652.1, -1578971.1, -3596.928, -0.009611773, 0.15706226, -1578926.0, 131731.58, 0.001052614, 9.998064, 10.001865 
6.498688e+1, 1.3544422e+2, -1862574.6, -1699909.8, 1473.5708, -0.07141962, 0.10339273, -1699896.5, -87235.95, 0.00060904585, 9.998163, 10.000314 
6.498803e+1, 1.4544623e+2, -1698160.1, -1465227.8, -3059.2544, -0.08064421, 0.22193131, -1465187.6, 49452.223, 0.000254567, 9.998165, 10.0012455 
6.498978e+1, 1.5544617e+2, -1620114.4, -1394238.6, -11201.08, -0.029662758, 0.095648006, -1393684.6, 22953.568, 0.00005931439, 9.998104, 10.001088 
6.4991134e+1, 1.6544671e+2, -1557841.9, -1420929.6, -14255.013, -0.017344974, 0.0918803, -1419461.3, -100828.164, 0.0000034805446, 9.9983225, 10.000128 
6.499214e+1, 1.7544752e+2, -1393012.8, -1291202.4, -15396.845, -0.03991837, 0.1549112, -1288924.9, -68297.336, 0.00000000000024211628, 9.998784, 10.000123 
6.499353e+1, 1.8544766e+2, -1240066.1, -1165622.0, -13579.228, -0.027707249, 0.15785976, -1163222.4, -40596.38, 0.0, 9.999157, 10.0001335 
6.499527e+1, 1.9544737e+2, -1101477.3, -1053359.6, -15123.631, 0.015787216, 0.11061288, -1049001.0, -24373.979, 0.0, 9.999458, 10.000086 
6.4996773e+1, 2.0544706e+2, -1018017.44, -1033429.44, -4899.1406, 0.013519461, 0.1051691, -1016591.94, -89961.95, 0.0, 9.999664, 9.999451 
6.4998055e+1, 2.1544673e+2, -903552.06, -931754.0, -12335.485, -0.028420212, 0.12310202, -898918.0, -70283.17, 0.0, 9.999796, 9.999412 
6.4999723e+1, 2.2544603e+2, -808472.94, -887416.5, -15085.584, -0.018347343, 0.13668409, -805688.4, -75045.13, 0.0, 9.999999, 9.998945 
6.5001756e+1, 2.3544502e+2, -673168.94, -772047.8, -1200.103, 0.035875086, 0.13761921, -673154.4, -40499.76, 0.0, 10.000258, 9.9989395 
6.5003264e+1, 2.4544422e+2, -519949.16, -623586.6, 441.96225, 0.038654327, 0.15336923, -519947.28, 14715.991, 0.0, 10.000533, 9.999155 
6.5004367e+1, 2.554436e+2, -382576.97, -511193.53, -10020.985, -0.0013384, 0.1713002, -381800.9, 54868.645, 0.0, 10.000824, 9.999114 
6.5006036e+1, 2.6544264e+2, -303704.22, -500956.94, 7720.428, -0.010618887, 0.20050617, -303402.5, 35277.14, 0.0, 10.001033, 9.998409 
6.500821e+1, 2.7544138e+2, -185255.06, -396579.7, 15766.459, 0.008146381, 0.23165756, -184085.23, 56607.57, 0.0, 10.001188, 9.998378 
6.500986e+1, 2.8543943e+2, -59168.31, -305996.97, -5298.553, 0.014944127, 0.2088119, -59054.62, 83656.31, 0.000000013847158, 10.0014715, 9.99819 
6.501104e+1, 2.9543686e+2, 94831.31, -176739.61, -4477.745, 0.004459729, 0.12685865, 94905.12, 139638.58, 0.0000047556837, 10.001837, 9.998229 
6.501245e+1, 3.0543438e+2, 57469.387, -321723.47, -2727.5085, 0.013137622, 0.12222667, 57489.004, 57489.004, 0.000056396846, 10.001902, 9.996873 
6.501377e+1, 3.1543157e+2, 240146.48, 96066.69, 23018.012, 0.016581465, 0.1595537, 243734.45, 243734.45, 0.00021421611, 10.001734, 9.999824 
7.498419e+1, 1.2544361e+2, -1869219.9, -1587108.3, -2813.732, -0.023073561, 0.17719485, -1587080.3, 123585.72, 0.0009783517, 9.998066, 10.001808 
7.498505e+1, 1.3544282e+2, -1867725.1, -1713412.1, 5790.2285, -0.07200018, 0.0808318, -1713195.1, -100520.87, 0.00055803865, 9.998174, 10.000216 
7.498622e+1, 1.4544459e+2, -1710914.0, -1493015.4, -6053.5493, -0.07956943, 0.19109993, -1492847.4, 21809.035, 0.00022607559, 9.998171, 10.001052 
7.498791e+1, 1.5544489e+2, -1633196.0, -1420760.3, -12436.675, -0.027854346, 0.12012619, -1420034.6, -3383.0198, 0.000048170983, 9.998101, 10.000909 
7.498957e+1, 1.654453e+2, -1560104.9, -1423879.1, 2947.9878, -0.006029143, 0.11313987, -1423815.3, -105167.836, 0.0000019773436, 9.998316, 10.000111 
7.499125e+1, 1.7544559e+2, -1394723.6, -1294854.1, 2547.3296, -0.007920847, 0.12572265, -1294789.3, -74143.016, 0.0, 9.998784, 10.000097 
7.4992883e+1, 1.8544568e+2, -1243626.6, -1172995.1, -2405.18, -0.009873474, 0.127145, -1172913.3, -50268.07, 0.0, 9.999157, 10.000083 
7.499447e+1, 1.9544572e+2, -1105833.5, -1061478.9, -3734.8296, -0.011398311, 0.118912704, -1061166.6, -36522.996, 0.0, 9.999454, 10.000032 
7.4996054e+1, 2.0544545e+2, -1031010.94, -1058859.0, -263.9361, -0.02530619, 0.12954631, -1031008.44, -104361.664, 0.0, 9.999658, 9.999278 
7.499764e+1, 2.1544492e+2, -914583.5, -953789.2, -6548.0483, -0.049793933, 0.14399727, -913518.75, -84864.48, 0.0, 9.999792, 9.999261 
7.499949e+1, 2.2544433e+2, -781835.5, -831532.8, -5651.035, -0.043330397, 0.1574474, -781201.0, -50540.055, 0.0, 9.999996, 9.9993305 
7.500156e+1, 2.3544374e+2, -648828.4, -720953.1, 9092.614, -0.009580357, 0.1603194, -647699.75, -15032.863, 0.0, 10.000255, 9.999292 
7.50036e+1, 2.4544288e+2, -541369.9, -666633.0, 11009.7705, 0.018931935, 0.16832998, -540409.56, -5733.9404, 0.0, 10.000527, 9.998862 
7.500563e+1, 2.554418e+2, -401989.44, -550667.7, 825.28406, 0.041835953, 0.1714327, -401984.84, 34701.688, 0.0, 10.00082, 9.998844 
7.500751e+1, 2.6544052e+2, -285676.44, -463282.6, 12836.452, 0.032490693, 0.16785401, -284753.47, 53945.87, 0.0, 10.001032, 9.998668 
7.500932e+1, 2.7543905e+2, -169145.11, -362008.5, 22855.785, 0.00009925661, 0.14951225, -166473.53, 74240.19, 0.0, 10.0011835, 9.998617 
7.501123e+1, 2.854375e+2, -60713.723, -308196.0, 8021.8335, 0.003496706, 0.15609126, -60453.98, 82274.72, 0.000000011324871, 10.001468, 9.998177 
7.50131e+1, 2.9543585e+2, 94057.8, -177289.95, 8753.85, 0.025791513, 0.16916844, 94339.91, 139084.17, 0.000004098041, 10.001834, 9.998227 
7.5014436e+1, 3.0543342e+2, 63846.203, -308678.03, -9692.331, 0.020615408, 0.16295876, 64098.207, 64098.207, 0.000050636394, 10.001902, 9.996962 
7.501502e+1, 3.1543058e+2, 246154.97, 109555.3, 21962.115, -0.0338831, 0.18742831, 249599.14, 249599.14, 0.00019719645, 10.00173, 9.999917 
8.4981513e+1, 1.25442e+2, -1964898.4, -1633089.1, -9218.086, -0.06430583, 0.14721347, -1632833.1, 77847.38, 0.00090933184, 9.997409, 10.00181 
8.4983337e+1, 1.3544132e+2, -1911287.9, -1739869.4, 3761.906, -0.04624665, 0.06583169, -1739786.8, -127098.66, 0.0005120121, 9.997899, 10.000167 
8.498484e+1, 1.4544295e+2, -1686255.4, -1506861.6, -6934.948, -0.048188224, 0.17667516, -1506593.9, 8078.2153, 0.00020159004, 9.998452, 10.000821 
8.4986377e+1, 1.5544325e+2, -1505698.0, -1384107.1, -17900.076, -0.04079197, 0.12989277, -1381526.8, 35141.39, 0.000039447743, 9.999084, 10.000686 
8.4988165e+1, 1.6544355e+2, -1412224.9, -1346205.9, -4325.815, -0.026934844, 0.11954465, -1345923.6, -27258.871, 0.0000010481418, 9.999304, 10.000167 
8.499026e+1, 1.7544363e+2, -1335032.1, -1260787.1, 71.714264, -0.005022987, 0.1061426, -1260787.1, -40122.85, 0.0, 9.999172, 10.000144 
8.49921e+1, 1.8544364e+2, -1251372.3, -1201039.8, -5420.2285, -0.006140183, 0.107583135, -1200462.6, -77798.34, 0.0, 9.999208, 9.999866 
8.4993714e+1, 1.9544369e+2, -1129046.6, -1095122.5, -19670.38, -0.028903496, 0.12226527, -1086110.8, -61446.793, 0.0, 9.9993925, 9.99983 
8.499555e+1, 2.0544346e+2, -1035110.4, -1054393.5, -14119.117, -0.038215175, 0.14174095, -1027654.94, -100987.54, 0.0, 9.999602, 9.999335 
8.4997594e+1, 2.1544293e+2, -905628.4, -943326.1, -4077.2683, -0.035093814, 0.1532535, -905192.44, -76518.195, 0.0, 9.999826, 9.999317 
8.4999675e+1, 2.2544241e+2, -772267.1, -820190.25, -5825.401, -0.026527101, 0.1666118, -771569.1, -40889.074, 0.0, 10.000033, 9.999391 
8.500177e+1, 2.3544192e+2, -648372.5, -714187.0, -16452.729, -0.012619687, 0.1734077, -644488.7, -11803.912, 0.0, 10.000231, 9.99935 
8.5004044e+1, 2.4544097e+2, -559377.75, -688842.94, -15804.112, 0.01344824, 0.17664386, -557476.44, -22782.168, 0.0, 10.000463, 9.998741 
8.5006464e+1, 2.5543967e+2, -424371.66, -574150.25, -14047.96, 0.047867067, 0.16840388, -423065.47, 13642.155, 0.0, 10.000721, 9.998731 
8.5008484e+1, 2.654383e+2, -314593.2, -462936.53, -10761.883, 0.04038295, 0.15486111, -313816.53, 24904.621, 0.0, 10.000771, 9.998796 
8.501026e+1, 2.7543685e+2, -239041.4, -380867.22, -10646.262, 0.0033627374, 0.12763117, -238246.69, 2488.08, 0.0, 10.000638, 9.998751 
8.501238e+1, 2.8543556e+2, -142101.7, -340633.88, -8402.521, 0.0022773484, 0.14803405, -141746.72, 1001.0479, 0.000000007967864, 10.000877, 9.9982395 
8.5014653e+1, 2.9543433e+2, 41084.91, -195748.58, -4133.9424, 0.018026428, 0.1970173, 41157.043, 85917.195, 0.0000034232567, 10.001438, 9.998291 
8.501617e+1, 3.0543175e+2, 66130.08, -289755.78, -32427.832, 0.0077099423, 0.1700436, 69060.72, 69060.72, 0.00004462947, 10.00184, 9.997122 
8.5016763e+1, 3.1542915e+2, 302819.25, 150887.14, 6611.991, -0.049041823, 0.19927277, 303106.47, 303106.47, 0.00017905688, 10.002057, 10.000044 
9.4978124e+1, 1.2543969e+2, -1960425.1, -1624420.6, 5541.4507, -0.14577125, 0.06777871, -1624329.3, 86372.45, 0.0008487081, 9.997411, 10.001869 
9.498179e+1, 1.3543972e+2, -1910898.6, -1740277.5, 22699.266, 0.0072799637, 0.05852898, -1737309.3, -124607.125, 0.00047347447, 9.997903, 10.000163 
9.4983923e+1, 1.4544132e+2, -1704625.4, -1544944.9, 16434.957, 0.013084325, 0.17972751, -1543270.9, -28583.799, 0.00018256163, 9.998452, 10.00056 
9.498511e+1, 1.5544125e+2, -1523247.9, -1421709.8, 5778.0444, -0.07737539, 0.12333338, -1421382.0, -4694.0503, 0.00003354367, 9.999089, 10.000425 
9.498686e+1, 1.6544147e+2, -1404068.5, -1329243.4, -9392.126, -0.08957768, 0.1093697, -1328082.4, -9397.171, 0.00000057940093, 9.999304, 10.000282 
9.498917e+1, 1.7544167e+2, -1327982.1, -1245749.5, -3998.834, -0.032382753, 0.09585786, -1245555.5, -24873.719, 0.0, 9.99917, 10.000248 
9.499119e+1, 1.8544155e+2, -1277911.8, -1255484.0, 1006.19824, -0.018326072, 0.1004403, -1255439.0, -132755.63, 0.0, 9.999206, 9.999493 
9.499299e+1, 1.9544129e+2, -1153587.6, -1146005.8, -12098.095, -0.04095658, 0.120722495, -1137118.5, -112430.28, 0.0, 9.9993925, 9.999481 
9.4995254e+1, 2.0544104e+2, -1015939.3, -1013876.6, -5900.44, -0.02899938, 0.14192645, -1008918.06, -82226.17, 0.0, 9.9995985, 9.999616 
9.4997907e+1, 2.1544078e+2, -887724.0, -905513.44, 4895.105, 0.012807249, 0.15059637, -886466.0, -57771.234, 0.0, 9.999824, 9.999579 
9.500026e+1, 2.2544026e+2, -791798.2, -859506.1, 1157.8777, 0.028977215, 0.16426294, -791778.44, -61077.844, 0.0, 10.000028, 9.999124 
9.500237e+1, 2.3543954e+2, -666547.94, -750980.44, -8547.873, 0.023978412, 0.17627177, -665691.25, -32982.746, 0.0, 10.000227, 9.999099 
9.500457e+1, 2.454385e+2, -555966.56, -681182.75, -6621.521, 0.01943969, 0.1789227, -555617.4, -20898.045, 0.0, 10.00046, 9.998795 
9.5006853e+1, 2.5543717e+2, -421913.63, -567937.8, -4363.857, 0.013986383, 0.16081013, -421783.34, 14949.566, 0.0, 10.000716, 9.9987755 
9.5008963e+1, 2.6543593e+2, -315935.38, -464559.5, -16162.137, 0.010944845, 0.16048731, -314198.13, 24547.033, 0.0, 10.000766, 9.998789 
9.501101e+1, 2.7543482e+2, -238221.7, -379084.94, -14317.912, 0.013318019, 0.16626313, -236781.11, 3974.8716, 0.0, 10.000638, 9.998764 
9.501331e+1, 2.854336e+2, -132078.8, -319595.25, 11661.789, 0.006002904, 0.18615168, -131356.33, 11411.755, 0.0000000042394483, 10.000877, 9.9983835 
9.501571e+1, 2.9543224e+2, 48675.76, -177997.58, 17392.99, -0.021313958, 0.21016288, 50002.586, 94783.69, 0.000002739973, 10.00143, 9.998417 
9.501766e+1, 3.054295e+2, 81311.23, -255922.69, -24447.404, -0.028008468, 0.14289351, 83074.3, 83074.3, 0.000038513957, 10.001831, 9.997357 
9.501896e+1, 3.1542727e+2, 313527.3, 174203.52, 19619.416, -0.037015278, 0.19163635, 316237.38, 316237.38, 0.00016021931, 10.002053, 10.000206 
1.0497609e+2, 1.2543772e+2, -1907712.0, -1602281.5, -18869.973, -0.10906913, 0.086005874, -1601120.1, 109601.31, 0.00079770345, 9.997788, 10.001838 
1.0497968e+2, 1.3543767e+2, -1832472.0, -1708399.6, -7569.084, -0.022374855, 0.07099731, -1707939.6, -95217.484, 0.0004431459, 9.998468, 10.000108 
1.0498214e+2, 1.4543897e+2, -1671264.6, -1539652.0, -19648.965, -0.024185037, 0.16952278, -1536781.1, -22071.229, 0.00016917764, 9.998727, 10.0004635 
1.04984e+2, 1.5543883e+2, -1597104.8, -1467993.1, -19046.252, -0.072647005, 0.1166335, -1465242.0, -48530.15, 0.000030278157, 9.998628, 10.00033 
1.04986005e+2, 1.6543908e+2, -1475375.8, -1360213.9, -34632.617, -0.079897635, 0.11026803, -1350601.3, -31892.371, 0.0000004316036, 9.998799, 10.000315 
1.0498816e+2, 1.7543943e+2, -1320496.0, -1238748.8, -36615.086, -0.050982192, 0.108970106, -1224746.9, -4043.3228, 0.0, 9.9992075, 10.000278 
1.04990356e+2, 1.8543929e+2, -1247511.0, -1245074.8, -20671.58, -0.033056784, 0.11000053, -1225585.4, -102880.04, 0.0, 9.999433, 9.9994545 
1.04992606e+2, 1.9543882e+2, -1140077.5, -1143754.4, -9640.685, -0.023822904, 0.11280225, -1132101.5, -107389.36, 0.0, 9.999503, 9.999444 
1.0499509e+2, 2.0543851e+2, -1008935.9, -1007004.4, 1616.7809, -0.006877808, 0.12955067, -1006086.9, -79370.84, 0.0, 9.999631, 9.999648 
1.0499775e+2, 2.1543835e+2, -888187.8, -902086.56, -7098.15, 0.015690709, 0.14483294, -885203.56, -56485.957, 0.0, 9.999806, 9.99961 
1.0500026e+2, 2.2543778e+2, -798198.0, -873764.94, -10621.644, 0.0260789, 0.15642063, -796733.4, -66009.18, 0.0, 10.000032, 9.9990225 
1.05002664e+2, 2.3543686e+2, -662589.94, -760118.0, -8765.204, 0.026363106, 0.15934777, -661808.44, -29073.719, 0.0, 10.000301, 9.9990015 
1.0500502e+2, 2.454359e+2, -544713.4, -662866.7, 42.34829, 0.017601507, 0.16843484, -544713.4, -9968.223, 0.0, 10.000481, 9.99891 
1.05007365e+2, 2.5543487e+2, -432636.16, -561062.94, 5418.5425, 0.00043429155, 0.16892488, -432407.94, 4347.732, 0.0, 10.00059, 9.998883 
1.0500968e+2, 2.654337e+2, -314944.66, -483145.16, -10976.279, 0.002141628, 0.1791642, -314231.4, 24536.213, 0.0, 10.000853, 9.99862 
1.0501204e+2, 2.7543247e+2, -163614.6, -361373.63, -22490.563, 0.023146015, 0.18944849, -161089.06, 79691.42, 0.0, 10.001228, 9.998603 
1.05014436e+2, 2.8543115e+2, -75130.21, -281971.9, -4653.6875, 0.013962157, 0.20632145, -75025.555, 67767.63, 0.0000000012344323, 10.001224, 9.998477 
1.0501676e+2, 2.954299e+2, -21951.29, -201918.7, -2471.1658, -0.03155965, 0.2234767, -21917.365, 22887.95, 0.0000020653147, 10.000898, 9.99851 
1.05018996e+2, 3.0542678e+2, -25326.873, -297146.6, -39393.688, -0.038101323, 0.118777305, -19732.836, -19732.836, 0.00003243676, 10.001051, 9.997453 
1.05020925e+2, 3.1542486e+2, 242127.98, 137627.5, -5565.862, -0.020991843, 0.18397583, 242423.6, 242423.6, 0.00014106146, 10.001571, 10.000188 
1.1497541e+2, 1.2543614e+2, -1916500.6, -1621164.3, 4983.0703, 0.041417364, 0.20046003, -1621080.3, 89659.78, 0.0007564602, 9.997791, 10.001706 
1.1497693e+2, 1.3543512e+2, -1840238.8, -1724341.3, 17393.246, -0.14446504, 0.10188197, -1721787.3, -109039.04, 0.00042056636, 9.9984665, 10.0 
1.1497941e+2, 1.4543582e+2, -1668093.8, -1531861.6, -23428.09, -0.1707778, 0.14429346, -1527945.3, -13204.459, 0.00016082273, 9.998722, 10.00052 
1.149831e+2, 1.5543595e+2, -1592437.4, -1459219.3, -21177.957, -0.02773743, 0.10920415, -1455933.5, -39193.367, 0.000029173776, 9.9986315, 10.000389 
1.1498563e+2, 1.654364e+2, -1477722.4, -1365683.6, -20037.068, 0.0013769717, 0.123320185, -1362208.0, -43472.367, 0.0000005105562, 9.998801, 10.000277 
1.1498723e+2, 1.7543694e+2, -1322697.5, -1243650.8, -21185.463, -0.06600791, 0.14617816, -1238330.9, -17601.094, 0.0, 9.999208, 10.000245 
1.14989564e+2, 1.8543683e+2, -1227995.4, -1203656.6, -18268.805, -0.05636904, 0.13585842, -1193875.1, -71144.58, 0.0, 9.999429, 9.999741 
1.1499256e+2, 1.9543622e+2, -1121138.5, -1104228.3, -6281.2656, 0.020420792, 0.097545646, -1102150.4, -77414.43, 0.0, 9.999501, 9.999716 
1.1499505e+2, 2.0543586e+2, -1024752.06, -1038834.8, 7730.2393, 0.025847178, 0.10463715, -1021336.94, -94597.125, 0.0, 9.999627, 9.999432 
1.1499711e+2, 2.1543564e+2, -902771.1, -931555.2, 164.13791, -0.029000849, 0.13566574, -902770.2, -74027.336, 0.0, 9.999803, 9.99941 
1.1499966e+2, 2.2543496e+2, -794530.1, -865012.06, -871.1721, -0.037964247, 0.14273492, -794519.3, -63768.254, 0.0, 10.000028, 9.999085 
1.15002625e+2, 2.3543386e+2, -658664.6, -751023.94, 1655.1838, -0.007933171, 0.12287452, -658634.94, -25871.46, 0.0, 10.000297, 9.999065 
1.1500539e+2, 2.4543315e+2, -533703.4, -639058.06, 3653.9658, 0.0054111932, 0.14565986, -533576.8, 1194.7833, 0.0, 10.000477, 9.999076 
1.15008e+2, 2.5543275e+2, -421796.78, -537882.1, 10399.078, 0.0032615631, 0.19287783, -420872.56, 15903.426, 0.0, 10.000587, 9.999044 
1.1501063e+2, 2.6543158e+2, -338220.8, -530627.4, 2420.5, 0.010933275, 0.21136598, -338190.38, 598.2943, 0.0, 10.000849, 9.998296 
1.1501335e+2, 2.754298e+2, -187442.95, -409420.25, -9058.879, 0.030696759, 0.19549082, -187073.88, 53734.598, 0.0, 10.001222, 9.998276 
1.1501577e+2, 2.8542826e+2, -73445.1, -276428.03, -17590.16, 0.02464668, 0.20669553, -71932.05, 70891.17, 0.00000000006210851, 10.001215, 9.998519 
1.150178e+2, 2.9542714e+2, -18083.148, -193733.64, -12163.474, -0.018423364, 0.23749232, -17244.852, 27587.8, 0.0000014487281, 10.000898, 9.998567 
1.15020156e+2, 3.0542377e+2, -28442.025, -302319.72, -20301.91, -0.027406886, 0.09915041, -26945.271, -26945.271, 0.000026628812, 10.001047, 9.997418 
1.1502265e+2, 3.154219e+2, 226610.52, 108426.27, 18294.176, -0.0074208905, 0.17466266, 229377.55, 229377.55, 0.00012208533, 10.001559, 9.999993 
1.2497361e+2, 1.254332e+2, -1772595.3, -1558275.4, -20259.422, 0.031373605, 0.21750754, -1556377.1, 154392.94, 0.0007247361, 9.998807, 10.00165 
1.24975264e+2, 1.3543221e+2, -1862955.6, -1740874.6, -3297.3794, -0.14976446, 0.12794697, -1740785.6, -128007.81, 0.00040489552, 9.998337, 9.999949 
1.2497787e+2, 1.4543268e+2, -1729670.5, -1558129.4, -40562.758, -0.17312336, 0.14681476, -1549021.4, -34249.047, 0.00015657058, 9.998283, 10.000551 
1.24981746e+2, 1.5543278e+2, -1595486.9, -1457688.1, -41571.03, -0.024129517, 0.10576595, -1446118.5, -29346.908, 0.000029665785, 9.998598, 10.000416 
1.24984525e+2, 1.6543326e+2, -1475082.9, -1370915.5, -34805.344, 0.00876488, 0.12329638, -1360356.4, -41589.555, 0.0000007617598, 9.998846, 10.000219 
1.24986425e+2, 1.7543387e+2, -1351773.1, -1263250.5, -38519.406, -0.05746188, 0.15769717, -1248836.4, -28075.36, 0.0, 9.999032, 10.000196 
1.24988995e+2, 1.8543376e+2, -1229971.4, -1187243.4, -41735.92, -0.05158399, 0.14525203, -1161721.3, -38960.15, 0.0, 9.999339, 9.999898 
1.2499213e+2, 1.954332e+2, -1074738.8, -1065010.6, -40656.152, 0.015717767, 0.09402688, -1028928.56, -4163.42, 0.0, 9.999747, 9.9998665 
1.2499472e+2, 2.0543277e+2, -993937.06, -1030521.56, -31695.916, 0.018205673, 0.09233821, -975633.7, -48864.535, 0.0, 9.9998665, 9.999373 
1.24996826e+2, 2.1543245e+2, -915598.6, -943767.0, -28583.121, -0.03436827, 0.117770165, -897818.1, -69044.53, 0.0, 9.999739, 9.999357 
1.24999516e+2, 2.2543189e+2, -818410.25, -862267.25, -12659.065, -0.04327011, 0.1338032, -815018.56, -84237.8, 0.0, 9.999801, 9.999214 
1.2500271e+2, 2.3543115e+2, -689525.9, -751944.25, -6220.3765, -0.015395613, 0.13516277, -688912.06, -56122.04, 0.0, 10.000026, 9.99919 
1.2500572e+2, 2.4543054e+2, -568699.44, -659218.44, -11303.853, 0.0027855055, 0.16314614, -567309.2, -32511.744, 0.0, 10.000251, 9.999047 
1.250086e+2, 2.5543004e+2, -441318.53, -550186.94, -20247.83, 0.010641518, 0.20354883, -437674.7, -871.3607, 0.0, 10.000465, 9.99902 
1.2501132e+2, 2.654289e+2, -364428.16, -519522.78, -12041.085, 0.010454053, 0.21434869, -363498.9, -24683.299, 0.0, 10.000567, 9.9985075 
1.2501402e+2, 2.754272e+2, -266876.84, -426127.47, 15134.722, 0.008761587, 0.1881579, -265451.22, -24617.658, 0.0, 10.000583, 9.998469 
1.2501667e+2, 2.8542575e+2, -137732.98, -323586.4, 15403.941, 0.0131660085, 0.20485488, -136464.92, 6382.761, 0.0, 10.000841, 9.998376 
1.2501913e+2, 2.954247e+2, 25801.756, -187998.0, 5146.6016, 0.006841351, 0.25780174, 25925.572, 70782.7, 0.00000094519226, 10.0012665, 9.998429 
1.2502158e+2, 3.054211e+2, 41271.98, -255001.55, 4351.289, -0.00939907, 0.09763296, 41335.87, 41335.87, 0.000021325412, 10.001468, 9.997542 
1.2502404e+2, 3.1541947e+2, 208043.84, 88815.07, 56252.723, -0.020032795, 0.18548661, 230394.36, 230394.36, 0.000103857135, 10.001476, 9.9999 
1.349706e+2, 1.2542897e+2, -1773313.8, -1558086.9, -42623.043, -0.14955369, 0.13975751, -1549953.3, 160858.14, 0.0007016644, 9.9988, 10.001655 
1.3497472e+2, 1.3542895e+2, -1861668.5, -1740746.6, -18867.365, -0.04037188, 0.14933565, -1737871.1, -125060.17, 0.00039489288, 9.998347, 9.999946 
1.3497756e+2, 1.4542952e+2, -1727446.0, -1555062.3, -30154.373, -0.03382738, 0.17719594, -1549939.6, -35134.92, 0.00015526546, 9.998291, 10.000568 
1.349799e+2, 1.5542932e+2, -1595601.9, -1457382.1, -29411.46, -0.06872276, 0.10675435, -1451384.1, -34578.145, 0.000031126172, 9.998595, 10.00042 
1.3498263e+2, 1.654296e+2, -1481613.0, -1383307.9, -28165.188, -0.06534974, 0.10952676, -1375810.3, -57007.523, 0.0000011270397, 9.998841, 10.000137 
1.3498577e+2, 1.7543012e+2, -1356352.1, -1273236.6, -30595.557, -0.02749242, 0.14191315, -1263188.8, -42391.21, 0.0, 9.999034, 10.000127 
1.3498865e+2, 1.854301e+2, -1227187.8, -1181528.6, -26874.79, -0.020704051, 0.13772929, -1169095.8, -46298.57, 0.0, 9.999339, 9.999937 
1.3499132e+2, 1.9542971e+2, -1072339.1, -1060067.0, -25582.8, -0.040831532, 0.102420345, -1039894.7, -15094.855, 0.0, 9.999747, 9.999901 
1.3499407e+2, 2.0542929e+2, -987932.4, -1016973.4, -36944.25, -0.03361492, 0.092318796, -962757.5, -35953.395, 0.0, 9.999862, 9.999469 
1.3499689e+2, 2.1542877e+2, -909421.1, -929834.56, -32070.316, -0.0028371261, 0.090747446, -885972.5, -57162.605, 0.0, 9.999734, 9.999455 
1.3499983e+2, 2.254286e+2, -806099.6, -835213.7, -4614.195, 0.0069798916, 0.13024208, -805385.9, -74572.625, 0.0, 9.999795, 9.999403 
1.350029e+2, 2.3542869e+2, -676861.56, -725427.1, 2801.2246, 0.0007795144, 0.19544984, -676700.56, -43886.156, 0.0, 10.000024, 9.999373 
1.3500601e+2, 2.4542803e+2, -584828.94, -691830.25, -3632.4712, 0.006369236, 0.21962816, -584705.75, -49882.805, 0.0, 10.000247, 9.998825 
1.3500915e+2, 2.554267e+2, -455314.2, -578271.9, -12035.318, 0.019907895, 0.20029786, -454147.22, -17309.473, 0.0, 10.000462, 9.998829 
1.3501178e+2, 2.654256e+2, -313741.47, -413149.63, -12026.575, -0.0015152756, 0.1876775, -312307.16, 26541.24, 0.0, 10.000563, 9.999241 
1.3501406e+2, 2.754247e+2, -216959.19, -322426.38, 17297.848, -0.048114542, 0.16837187, -214194.61, 26661.152, 0.0, 10.000583, 9.999182 
1.3501714e+2, 2.8542358e+2, -161332.2, -371522.4, 30813.83, -0.025156898, 0.20149936, -156908.03, -14041.446, 0.0, 10.000836, 9.99805 
1.3502073e+2, 2.9542252e+2, 2292.1543, -235276.33, 21284.682, 0.04014913, 0.28237885, 4184.065, 49063.06, 0.0000005800232, 10.00126, 9.998108 
1.3502328e+2, 3.0541876e+2, 59316.414, -214668.7, 3787.363, 0.013484769, 0.11104248, 59368.758, 59368.758, 0.000016654767, 10.001456, 9.997824 
1.3502504e+2, 3.154176e+2, 209164.78, 92854.77, 60679.574, -0.06779079, 0.21459284, 235057.47, 235057.47, 0.000086807726, 10.001471, 9.999929 
1.449686e+2, 1.2542562e+2, -1896910.8, -1625211.9, -21257.404, -0.1897673, 0.12064989, -1623558.8, 87284.74, 0.0006852014, 9.997983, 10.001587 
1.4497334e+2, 1.3542572e+2, -1861815.0, -1744041.0, 1381.253, -0.012844386, 0.14455633, -1744024.9, -131182.23, 0.00038852147, 9.998359, 9.999917 
1.449765e+2, 1.4542623e+2, -1662226.1, -1527233.6, 2416.5708, 0.0070014065, 0.16843712, -1527190.4, -12353.169, 0.00015533686, 9.998753, 10.000538 
1.4497888e+2, 1.5542622e+2, -1519910.1, -1425588.6, -2125.6602, -0.05661648, 0.12215049, -1425540.6, -8704.872, 0.00003278088, 9.999134, 10.000378 
1.4498171e+2, 1.654263e+2, -1417403.1, -1367614.0, -10342.433, -0.067589864, 0.11300898, -1365551.1, -46716.902, 0.0000015078091, 9.999347, 10.000001 
1.4498495e+2, 1.7542627e+2, -1308218.1, -1264828.0, -18278.334, -0.033373695, 0.10411281, -1258154.5, -37320.38, 0.0, 9.999427, 9.999995 
1.4498791e+2, 1.8542627e+2, -1228896.3, -1185810.4, -20164.078, -0.02817333, 0.11010817, -1177845.9, -55011.75, 0.0, 9.999341, 9.9999075 
1.4499068e+2, 1.9542637e+2, -1166443.8, -1108675.9, -24945.01, -0.04848543, 0.12706316, -1099395.3, -74561.99, 0.0, 9.999114, 9.999873 
1.4499363e+2, 2.0542602e+2, -1059196.6, -1041710.44, -32706.48, -0.037341937, 0.12236855, -1016598.6, -89761.79, 0.0, 9.9993305, 9.999555 
1.4499673e+2, 2.154253e+2, -875912.1, -903857.56, -29804.38, 0.00014653307, 0.08848024, -856967.7, -28123.42, 0.0, 9.999923, 9.999542 
1.4499983e+2, 2.254251e+2, -761634.06, -808765.6, -15449.17, 0.013723675, 0.12011537, -757021.44, -26173.945, 0.0, 10.000078, 9.999449 
1.4500292e+2, 2.3542535e+2, -697671.75, -729989.2, -19300.498, 0.008050122, 0.19681337, -688658.8, -55811.74, 0.0, 9.999857, 9.999423 
1.4500615e+2, 2.4542476e+2, -619384.5, -693324.56, -5392.557, 0.01077652, 0.21907052, -618993.3, -84138.71, 0.0, 9.999945, 9.9989605 
1.4500952e+2, 2.5542343e+2, -470645.4, -571495.44, 11554.584, 0.01835383, 0.1873976, -469338.53, -32469.822, 0.0, 10.000296, 9.998955 
1.4501226e+2, 2.6542237e+2, -327774.47, -417409.3, -13912.538, -0.004893535, 0.16982989, -325664.7, 13214.418, 0.0, 10.000455, 9.999263 
1.4501454e+2, 2.7542147e+2, -238291.19, -329329.44, -38304.426, -0.049769796, 0.15029515, -224318.98, 16567.707, 0.0, 10.0004225, 9.999211 
1.4501783e+2, 2.8542063e+2, -170706.48, -355453.56, -10905.226, -0.0300532, 0.19548161, -170065.0, -27169.592, 0.0, 10.000685, 9.998232 
1.4502186e+2, 2.9541996e+2, 8282.681, -214220.45, 15656.29, 0.028614225, 0.3001845, 9378.924, 54282.6, 0.00000034163278, 10.001222, 9.998271 
1.4502454e+2, 3.0541626e+2, 48795.0, -202530.05, -11159.07, 0.0011768801, 0.117545165, 49289.5, 49289.5, 0.000012640429, 10.001308, 9.997979 
1.4502633e+2, 3.1541523e+2, 117388.22, 31141.484, 34914.47, -0.058864716, 0.22109109, 129750.39, 129750.39, 0.00007115946, 10.000915, 9.999773 
1.5496753e+2, 1.2542313e+2, -1904844.8, -1643012.5, -9216.787, -0.09862636, 0.156975, -1642688.5, 68178.32, 0.0006719969, 9.997988, 10.001462 
1.5497108e+2, 1.3542251e+2, -1865106.3, -1750977.1, 15987.354, -0.07434787, 0.11336242, -1748780.0, -135906.81, 0.00038301162, 9.998358, 9.99987 
1.5497462e+2, 1.4542277e+2, -1668395.5, -1538964.1, 16443.182, -0.05769281, 0.12020085, -1536907.8, -22037.988, 0.00015494693, 9.998749, 10.000459 
1.5497868e+2, 1.5542348e+2, -1525050.3, -1437564.5, 12477.536, 0.009387344, 0.15139037, -1435819.6, -18958.344, 0.000033834087, 9.999139, 10.000294 
1.5498173e+2, 1.6542332e+2, -1429807.3, -1394451.0, -8143.9346, -0.0013246986, 0.13305217, -1392665.3, -73803.62, 0.0000017896223, 9.9993515, 9.999814 
1.5498392e+2, 1.754223e+2, -1321421.1, -1292076.9, -15260.621, -0.07969944, 0.04456472, -1285579.3, -64708.41, 0.0, 9.999427, 9.999808 
1.5498675e+2, 1.8542227e+2, -1236487.0, -1200913.0, -29177.838, -0.07934049, 0.062260017, -1184528.1, -61656.113, 0.0, 9.999338, 9.999805 
1.5499018e+2, 1.9542317e+2, -1173076.6, -1122166.6, -31750.307, -0.009920981, 0.1672689, -1106927.1, -82061.78, 0.0, 9.999113, 9.999782 
1.5499339e+2, 2.05423e+2, -1054414.5, -1030817.56, -10771.547, 0.004279025, 0.1822391, -1026640.06, -99772.61, 0.0, 9.999326, 9.999632 
1.5499638e+2, 2.1542196e+2, -871156.56, -893850.1, -8135.669, -0.028499266, 0.10982834, -868541.3, -39664.297, 0.0, 9.999921, 9.999612 
1.5499951e+2, 2.2542135e+2, -768689.94, -822233.2, -24259.395, -0.026714064, 0.101983786, -759333.5, -28449.732, 0.0, 10.000073, 9.999358 
1.5500274e+2, 2.3542112e+2, -703219.56, -740731.7, -26216.293, 0.0045563006, 0.13917279, -689740.8, -56852.797, 0.0, 9.999853, 9.999351 
1.5500614e+2, 2.4542074e+2, -585961.8, -622790.1, 7485.535, 0.013038237, 0.16190092, -584498.5, -49606.25, 0.0, 9.99994, 9.999447 
1.5500964e+2, 2.5542027e+2, -439626.22, -506824.97, 24939.662, 0.0012326615, 0.1649829, -431381.78, 5514.461, 0.0, 10.000294, 9.9994 
1.5501273e+2, 2.6541916e+2, -376339.47, -517281.03, -15337.967, -0.004074134, 0.1598023, -374689.63, -35781.74, 0.0, 10.000451, 9.998579 
1.5501545e+2, 2.7541754e+2, -283029.97, -421191.0, -38357.438, 0.0002008815, 0.13286847, -273095.25, -32168.81, 0.0, 10.000419, 9.998581 
1.5501878e+2, 2.854168e+2, -123467.99, -256870.08, 8678.215, -0.004354122, 0.18508081, -122905.81, 20028.45, 0.0, 10.000682, 9.998912 
1.5502247e+2, 2.95417e+2, 54467.586, -118612.13, 36382.977, -0.033043027, 0.31164256, 61804.605, 106735.76, 0.00000019535571, 10.001222, 9.998928 
1.5502532e+2, 3.0541354e+2, 49344.97, -200013.05, -25906.607, -0.052424036, 0.117692456, 52008.047, 52008.047, 0.000009261703, 10.001303, 9.997998 
1.550278e+2, 3.1541237e+2, 93620.88, -17036.621, 24342.559, -0.004346889, 0.20377941, 98739.055, 98739.055, 0.00005700469, 10.00091, 9.999443 
1.6496614e+2, 1.2541972e+2, -1894718.8, -1653108.8, -32811.44, -0.04282017, 0.15858507, -1648732.1, 62167.37, 0.00065754744, 9.998121, 10.001328 
1.6496962e+2, 1.3541916e+2, -1799985.1, -1727267.6, -9843.74, -0.0809295, 0.12788299, -1725958.6, -113053.266, 0.00037533476, 9.998838, 9.9998 
1.6497329e+2, 1.4541915e+2, -1628100.0, -1531577.8, -25998.76, -0.08161265, 0.11560776, -1525020.3, -10115.389, 0.00015252095, 9.999076, 10.000351 
1.6497773e+2, 1.5541965e+2, -1568038.4, -1469225.3, -33780.645, 0.010886152, 0.1389076, -1458780.9, -41882.563, 0.000033788867, 9.998892, 10.000195 
1.64981e+2, 1.6541952e+2, -1484114.1, -1410538.4, -40973.84, 0.010745279, 0.122914284, -1392260.8, -73362.53, 0.0000018950186, 9.998935, 9.999905 
1.6498329e+2, 1.7541872e+2, -1353671.3, -1299011.1, -28486.928, -0.07158572, 0.046064474, -1286864.1, -65958.87, 0.0, 9.999167, 9.999886 
1.6498624e+2, 1.854186e+2, -1233692.9, -1217988.8, -38393.813, -0.06936089, 0.062114067, -1186652.3, -63745.063, 0.0, 9.999437, 9.99964 
1.6498975e+2, 1.9541922e+2, -1091133.8, -1099842.6, -46642.508, 0.005928698, 0.15510353, -1048642.9, -23738.904, 0.0, 9.999749, 9.999628 
1.6499305e+2, 2.054191e+2, -988381.75, -992340.9, -22998.844, 0.016181523, 0.17729732, -967277.44, -40371.293, 0.0, 9.99975, 9.999692 
1.6499607e+2, 2.1541834e+2, -930336.4, -915761.25, -22356.56, -0.029284615, 0.12774749, -899534.44, -70621.45, 0.0, 9.999485, 9.999672 
1.6499929e+2, 2.254177e+2, -829187.8, -848669.94, -33646.57, -0.03374869, 0.114436105, -803900.56, -72980.93, 0.0, 9.999647, 9.999382 
1.6500267e+2, 2.3541723e+2, -654723.6, -714015.5, -28179.205, -0.003466909, 0.12385962, -643467.9, -10541.895, 0.0, 10.000174, 9.99938 
1.6500609e+2, 2.4541686e+2, -522888.94, -576018.44, -6316.1846, -0.0021237575, 0.13884634, -522148.38, 12781.155, 0.0, 10.000301, 9.999594 
1.6500956e+2, 2.5541663e+2, -460677.5, -501273.9, -14268.556, -0.026568497, 0.15090002, -456164.25, -19233.648, 0.0, 10.000082, 9.999539 
1.6501293e+2, 2.654156e+2, -400733.47, -543927.8, -33777.45, -0.02326666, 0.15428212, -393165.8, -54224.176, 0.0, 10.000349, 9.998445 
1.6501626e+2, 2.754139e+2, -203162.55, -397412.44, -17726.133, 0.008333783, 0.13465606, -201558.2, 39403.543, 0.0, 10.00103, 9.998449 
1.6501969e+2, 2.8541306e+2, -73823.99, -226595.13, 10064.732, 0.002262577, 0.17980582, -73163.77, 69807.07, 0.0, 10.000996, 9.998967 
1.6502304e+2, 2.9541317e+2, -72519.12, -173689.39, -9614.239, -0.05279814, 0.2891126, -71613.58, -26645.094, 0.00000010392393, 10.000324, 9.9989805 
1.650261e+2, 3.0540988e+2, -33389.984, -211325.19, -67757.67, -0.06894216, 0.098636046, -10525.852, -10525.852, 0.0000064948904, 10.000612, 9.998251 
1.6502945e+2, 3.1540906e+2, 202992.58, 23356.44, -2057.232, 0.030063784, 0.1932083, 203016.13, 203016.13, 0.000044405664, 10.001713, 9.999333 
1.749644e+2, 1.2541537e+2, -1905224.9, -1674473.0, -10613.79, -0.030269394, 0.12638168, -1673985.9, 36955.6, 0.0006370072, 9.998119, 10.001182 
1.7496891e+2, 1.3541563e+2, -1805775.8, -1741240.9, 16844.896, -0.035852294, 0.18768173, -1737108.6, -124169.08, 0.00036284848, 9.998845, 9.999701 
1.749725e+2, 1.4541528e+2, -1637197.4, -1551355.9, -34087.76, -0.0694132, 0.1534228, -1539466.4, -24523.604, 0.00014707113, 9.99908, 10.000214 
1.7497593e+2, 1.5541475e+2, -1576080.6, -1486099.9, -39824.656, -0.058010384, 0.08491106, -1471005.8, -54059.004, 0.00003249045, 9.998892, 10.000079 
1.7497946e+2, 1.654149e+2, -1458119.4, -1356251.6, -32933.414, -0.036946543, 0.08261822, -1346531.9, -27587.635, 0.0000018022155, 9.998933, 10.000278 
1.7498307e+2, 1.7541549e+2, -1329518.8, -1248681.6, -19100.217, -0.011608887, 0.10872771, -1244395.8, -23458.404, 0.0, 9.999166, 10.000232 
1.7498636e+2, 1.8541528e+2, -1249920.0, -1251605.4, -27067.521, -0.0020099084, 0.11017456, -1223682.0, -100742.2, 0.0, 9.999436, 9.99941 
1.7498943e+2, 1.9541453e+2, -1106536.9, -1131649.8, -35285.75, -0.0034532088, 0.08997576, -1081640.0, -56690.914, 0.0, 9.999748, 9.999411 
1.7499259e+2, 2.0541428e+2, -985380.9, -985479.4, -33411.934, -0.004434159, 0.10687462, -952018.2, -25065.266, 0.0, 9.999747, 9.999741 
1.7499581e+2, 2.1541442e+2, -927576.1, -908851.9, -30489.77, -0.0052932147, 0.14192624, -886319.25, -57367.04, 0.0, 9.99948, 9.9997225 
1.7499918e+2, 2.2541417e+2, -820319.1, -828940.8, -14220.391, -0.010764075, 0.157785, -809770.56, -78815.34, 0.0, 9.999641, 9.99952 
1.750027e+2, 2.3541366e+2, -646139.8, -696061.6, -8876.696, -0.019163154, 0.14928691, -644608.44, -11647.265, 0.0, 10.000172, 9.999504 
1.7500605e+2, 2.4541308e+2, -536434.1, -603654.75, -15012.718, -0.037922833, 0.14824769, -533233.7, 1733.058, 0.0, 10.000299, 9.999405 
1.7500924e+2, 2.5541252e+2, -472216.8, -524633.06, -20756.646, -0.0677801, 0.14487717, -464992.84, -28021.113, 0.0, 10.00008, 9.99938 
1.7501286e+2, 2.6541167e+2, -372226.3, -484474.4, -8554.494, -0.0648405, 0.152794, -371578.1, -32597.666, 0.0, 10.000347, 9.998855 
1.7501692e+2, 2.754106e+2, -177257.16, -343530.34, 6796.725, -0.029351316, 0.15519294, -176979.78, 64013.0, 0.0, 10.001029, 9.99882 
1.7502052e+2, 2.8540942e+2, -114435.05, -310228.84, -15758.504, -0.0155932, 0.17982753, -113174.83, 29830.426, 0.0, 10.000993, 9.998394 
1.7502356e+2, 2.9540843e+2, -110807.22, -252684.13, -31335.33, -0.03537532, 0.23252253, -104194.61, -59178.84, 0.00000004563321, 10.000323, 9.998439 
1.7502686e+2, 3.0540526e+2, 1177.9467, -140475.27, -26354.504, -0.05335876, 0.05992635, 5922.2876, 5922.2876, 0.000004309572, 10.000615, 9.998736 
1.7503124e+2, 3.1540534e+2, 212659.2, 42054.605, 41084.492, 0.035829887, 0.19379751, 222037.52, 222037.52, 0.000033397264, 10.001717, 9.99946 
1.8496294e+2, 1.2541088e+2, -1805778.0, -1623170.6, -34646.19, -0.02240675, 0.117482886, -1616818.1, 94167.36, 0.0006065531, 9.998787, 10.001212 
1.8496792e+2, 1.3541116e+2, -1856548.3, -1753497.4, 9910.878, 0.0005096443, 0.16940147, -1752552.9, -139570.44, 0.00034376056, 9.998445, 9.999809 
1.8497163e+2, 1.4541073e+2, -1707566.9, -1581286.8, -26657.074, -0.040394727, 0.12046377, -1575890.3, -60904.043, 0.00013809917, 9.99858, 10.000249 
1.8497491e+2, 1.5541035e+2, -1543801.4, -1466896.0, -20637.037, -0.05879807, 0.0633731, -1461708.1, -44718.75, 0.000029920388, 9.999098, 10.000112 
1.8497856e+2, 1.654107e+2, -1407740.0, -1342537.8, -27865.402, -0.039482992, 0.08339642, -1332251.6, -13265.793, 0.0000015280342, 9.999324, 10.000184 
1.8498246e+2, 1.7541151e+2, -1314747.8, -1250416.6, -50459.49, 0.006014463, 0.14297341, -1222742.5, -1764.6412, 0.0, 9.999306, 10.000153 
1.8498589e+2, 1.854113e+2, -1243129.9, -1225199.1, -51000.355, 0.009559422, 0.13613024, -1182382.1, -59402.063, 0.0, 9.999383, 9.999618 
1.8498889e+2, 1.9541031e+2, -1122958.3, -1117465.5, -27230.363, -0.02083399, 0.071064405, -1092843.4, -67853.414, 0.0, 9.999539, 9.999608 
1.8499216e+2, 2.0541005e+2, -1003845.2, -1003637.5, -26022.238, -0.017310835, 0.08270731, -977718.9, -50725.473, 0.0, 9.9996605, 9.999658 
1.8499562e+2, 2.154104e+2, -892483.0, -900298.94, -33759.05, 0.014066449, 0.14709431, -862406.44, -33414.81, 0.0, 9.999757, 9.999648 
1.849991e+2, 2.2541027e+2, -786792.5, -803264.25, -9204.277, 0.007380227, 0.17143472, -782677.3, -51683.496, 0.0, 9.99983, 9.999606 
1.8500261e+2, 2.3540972e+2, -682814.6, -704993.44, -8735.57, -0.030218692, 0.15437402, -679787.2, -46787.973, 0.0, 9.999883, 9.999582 
1.8500607e+2, 2.454091e+2, -583673.75, -640806.25, -23176.883, -0.05178641, 0.15087435, -575454.2, -40448.684, 0.0, 10.000038, 9.999275 
1.8500948e+2, 2.5540844e+2, -451170.6, -527629.7, -25652.932, -0.06212482, 0.15020683, -443361.34, -6349.012, 0.0, 10.000281, 9.999262 
1.8501322e+2, 2.6540765e+2, -361190.38, -456514.4, -10043.72, -0.063594244, 0.15898605, -360143.63, -21123.26, 0.0, 10.000326, 9.999056 
1.850173e+2, 2.7540678e+2, -285611.1, -374359.06, -11195.131, -0.052579373, 0.16105206, -284220.66, -43190.76, 0.0, 10.000194, 9.99901 
1.8502115e+2, 2.8540558e+2, -181589.25, -354923.44, -27907.541, -0.03143677, 0.17889525, -177206.83, -34164.33, 0.0, 10.000586, 9.998282 
1.8502462e+2, 2.9540431e+2, 41057.063, -192192.39, -10486.873, -0.016530681, 0.22068954, 41527.6, 86583.164, 0.000000013949684, 10.001422, 9.998324 
1.8502802e+2, 3.0540144e+2, 139967.03, -67049.23, 2223.3794, -0.046095096, 0.07765533, 139990.9, 139990.9, 0.0000026617806, 10.00154, 9.9987955 
1.8503243e+2, 3.1540146e+2, 94626.52, -40067.676, 35201.375, 0.017269872, 0.19941558, 103271.33, 103271.33, 0.000023992492, 10.001018, 9.99923 
1.9496171e+2, 1.2540622e+2, -1790264.1, -1591774.5, -51848.895, -0.025240531, 0.1319604, -1579046.8, 131984.92, 0.0005643703, 9.99879, 10.001426 
1.9496663e+2, 1.3540572e+2, -1834221.0, -1707268.9, -968.7617, 0.024624296, 0.07252233, -1707261.5, -94227.33, 0.00031730495, 9.9984455, 10.000126 
1.9497064e+2, 1.4540547e+2, -1692566.1, -1550219.5, -7323.339, 0.00089453044, 0.01594029, -1549843.6, -34808.23, 0.00012543245, 9.998579, 10.000463 
1.9497468e+2, 1.5540645e+2, -1530445.9, -1440182.0, -1069.2076, 0.0060674828, 0.074019715, -1440169.4, -23143.396, 0.000026112697, 9.999102, 10.000293 
1.949783e+2, 1.654069e+2, -1447528.1, -1425310.1, -29144.805, -0.00017866069, 0.12506485, -1405228.9, -86205.66, 0.0000011234973, 9.999325, 9.999616 
1.9498152e+2, 1.7540678e+2, -1350927.5, -1325390.3, -50447.28, -0.02135229, 0.14898281, -1286120.8, -65093.79, 0.0, 9.999306, 9.999639 
1.9498481e+2, 1.8540664e+2, -1197436.4, -1129865.1, -45526.063, -0.038424067, 0.13981983, -1106957.8, 16070.329, 0.0, 9.999381, 10.000273 
1.9498816e+2, 1.9540656e+2, -1080124.5, -1028002.0, -21093.24, -0.048740096, 0.09877936, -1020535.44, 4490.971, 0.0, 9.999537, 10.000224 
1.9499174e+2, 2.0540643e+2, -1019373.7, -1035022.06, -22764.826, -0.02545842, 0.105789535, -1003126.0, -76098.35, 0.0, 9.999657, 9.999444 
1.949955e+2, 2.1540628e+2, -907025.75, -929868.94, -29441.361, 0.025963362, 0.14208616, -886868.1, -57836.65, 0.0, 9.999754, 9.999446 
1.9499904e+2, 2.2540595e+2, -784857.75, -798572.44, -7869.1084, 0.018089605, 0.15473846, -781277.4, -50241.668, 0.0, 9.999827, 9.9996395 
1.950024e+2, 2.3540547e+2, -680975.2, -700441.5, -5985.4375, -0.039323114, 0.13931464, -679282.06, -46241.895, 0.0, 9.999879, 9.999615 
1.9500616e+2, 2.4540494e+2, -589293.25, -651941.3, -14544.251, -0.046327483, 0.14731008, -586081.3, -51035.48, 0.0, 10.000036, 9.9992 
1.9501026e+2, 2.5540438e+2, -456871.1, -538937.2, -16569.389, -0.012870983, 0.16620182, -453651.97, -16599.484, 0.0, 10.000279, 9.999186 
1.9501396e+2, 2.6540354e+2, -362300.13, -458610.75, -15732.832, -0.0225596, 0.17272066, -359795.25, -20733.69, 0.0, 10.000325, 9.9990425 
1.9501738e+2, 2.7540243e+2, -285079.4, -373243.22, -14537.119, -0.06419986, 0.15196653, -282744.28, -41671.055, 0.0, 10.000193, 9.999019 
1.9502155e+2, 2.854015e+2, -157737.92, -304645.88, 3211.164, -0.048553854, 0.17687693, -157667.77, -14585.051, 0.0, 10.000583, 9.99863 
1.9502622e+2, 2.9540092e+2, 61972.54, -148387.69, 20218.836, -0.00006732927, 0.2525688, 63898.25, 108986.41, 0.0000000023315327, 10.00142, 9.998627 
1.9502953e+2, 3.053984e+2, 114162.9, -120472.85, -18559.695, -0.051332507, 0.15176776, 115621.9, 115621.9, 0.0000014940416, 10.00154, 9.998428 
1.9503295e+2, 3.1539753e+2, 53131.215, -127056.63, 16353.291, -0.03352943, 0.21839869, 54603.363, 54603.363, 0.00001627015, 10.00102, 9.998632 
2.049607e+2, 1.2540205e+2, -1818604.8, -1615505.4, -1732.556, 0.0018596814, 0.12604478, -1615490.5, 95581.516, 0.0005112227, 9.998641, 10.001335 
2.0496549e+2, 1.3540153e+2, -1759856.6, -1670816.1, 26649.908, 0.04041741, 0.06464254, -1663449.4, -50374.605, 0.00028397882, 9.998953, 10.000133 
2.0496956e+2, 1.4540127e+2, -1629562.8, -1528810.8, 6817.7974, 0.01187601, 0.011258985, -1528351.5, -13275.103, 0.000109345056, 9.99905, 10.000383 
2.0497388e+2, 1.5540251e+2, -1558565.0, -1461524.0, -10304.24, 0.023933899, 0.10208985, -1460441.9, -43376.938, 0.000021261263, 9.998942, 10.000224 
2.049776e+2, 1.6540281e+2, -1490388.0, -1450394.3, -28067.568, 0.010780683, 0.14486584, -1435928.6, -116865.08, 0.00000067965186, 9.99905, 9.999577 
2.0498073e+2, 1.7540225e+2, -1347216.3, -1327882.4, -10558.705, -0.032054365, 0.12716573, -1323233.8, -102162.42, 0.0, 9.99935, 9.9996 
2.0498414e+2, 1.8540214e+2, -1185186.3, -1124483.1, -16207.249, -0.044996127, 0.12259838, -1120427.0, 2645.3743, 0.0, 9.999467, 10.000269 
2.0498784e+2, 1.9540249e+2, -1095090.9, -1035118.1, -42252.65, -0.029510899, 0.12512532, -1013292.6, 11774.392, 0.0, 9.999434, 10.000224 
2.049915e+2, 2.0540236e+2, -1025261.6, -1032403.7, -49484.473, -0.011196441, 0.12997076, -979219.5, -52151.543, 0.0, 9.999593, 9.999494 
2.0499514e+2, 2.1540186e+2, -880559.0, -912095.06, -37466.6, 0.008119567, 0.1254673, -855677.56, -26603.25, 0.0, 9.999915, 9.999491 
2.0499873e+2, 2.254014e+2, -765370.2, -798097.94, -18966.227, -0.0028048703, 0.12849845, -756684.25, -25604.688, 0.0, 10.0, 9.999559 
2.050023e+2, 2.3540102e+2, -685595.1, -710716.3, -26626.598, -0.03882858, 0.1292652, -668715.2, -35631.434, 0.0, 9.999883, 9.999543 
2.0500621e+2, 2.4540058e+2, -594444.1, -644774.0, -21914.973, -0.041482214, 0.1456706, -586239.3, -51150.64, 0.0, 9.999959, 9.999287 
2.0501044e+2, 2.5540012e+2, -462664.75, -533058.3, -12692.029, -0.017789982, 0.16727036, -460446.28, -23352.309, 0.0, 10.000202, 9.999264 
2.050143e+2, 2.6539925e+2, -352942.97, -463393.4, -15396.633, -0.025768694, 0.17307563, -350836.84, -11733.746, 0.0, 10.000428, 9.9989605 
2.0501788e+2, 2.7539805e+2, -226868.88, -353788.66, -20870.852, -0.055530395, 0.1498251, -223524.95, 17590.951, 0.0, 10.00063, 9.998942 
2.050223e+2, 2.8539705e+2, -124713.01, -282313.97, -994.9549, -0.04147082, 0.17126024, -124706.73, 18419.057, 0.0, 10.000781, 9.998688 
2.0502731e+2, 2.953965e+2, -12486.597, -178972.92, -6603.097, -0.005473054, 0.24272257, -12225.118, 32905.844, 0.000000000097020676, 10.000886, 9.998673 
2.0503077e+2, 3.053944e+2, 62066.305, -150894.42, -57782.184, -0.06446389, 0.18196738, 76733.984, 76733.984, 0.00000072960836, 10.0012045, 9.998383 
2.050344e+2, 3.1539306e+2, 135005.27, -108822.8, -3480.465, -0.023377404, 0.2070648, 135054.94, 135054.94, 0.00001031642, 10.001674, 9.9984455 
2.1495987e+2, 1.2539837e+2, -1847490.6, -1675361.4, 6591.5796, 0.05214497, 0.09924668, -1675109.3, 35997.26, 0.00045034575, 9.99864, 10.000925 
2.149645e+2, 1.3539863e+2, -1781832.8, -1717613.5, 39064.375, 0.045024987, 0.1464123, -1699155.8, -86051.625, 0.0002457903, 9.998958, 9.999809 
2.1496838e+2, 1.4539817e+2, -1654857.5, -1582048.1, 2187.465, -0.011614426, 0.10812652, -1581982.4, -66873.336, 0.00009091271, 9.999054, 10.000016 
2.1497251e+2, 1.5539853e+2, -1581547.4, -1508778.1, -13151.422, -0.008104181, 0.14830944, -1506474.3, -89367.86, 0.000015871614, 9.99894, 9.999902 
2.1497644e+2, 1.6539845e+2, -1455943.6, -1378367.5, -17094.912, -0.010801049, 0.14250502, -1374767.5, -55660.516, 0.00000031009594, 9.999048, 10.000072 
2.1498011e+2, 1.7539792e+2, -1315721.3, -1263372.4, 867.8745, -0.028691314, 0.07682761, -1263358.0, -42246.94, 0.0, 9.999352, 10.000042 
2.1498396e+2, 1.8539777e+2, -1231909.4, -1221425.5, -17595.564, -0.0137657765, 0.084159, -1208307.6, -85194.91, 0.0, 9.999467, 9.999603 
2.1498793e+2, 1.9539809e+2, -1138974.3, -1125756.6, -42303.08, 0.034942836, 0.14986631, -1089549.3, -64437.453, 0.0, 9.999433, 9.999603 
2.1499145e+2, 2.0539784e+2, -1003971.25, -987047.3, -37722.53, 0.023091286, 0.15501861, -956849.3, -29734.85, 0.0, 9.999589, 9.999806 
2.1499456e+2, 2.153971e+2, -860607.44, -869767.06, -25360.941, -0.042103276, 0.0980631, -839416.1, -10295.92, 0.0, 9.999911, 9.9997835 
2.1499819e+2, 2.2539662e+2, -779728.56, -826899.5, -23908.28, -0.05809669, 0.09290535, -769730.06, -38604.695, 0.0, 9.999995, 9.999364 
2.1500225e+2, 2.3539633e+2, -698919.94, -737338.4, -29985.23, -0.03116826, 0.12346335, -682518.6, -49388.61, 0.0, 9.999879, 9.999362 
2.150062e+2, 2.45396e+2, -577646.94, -609285.2, -13500.427, -0.039359514, 0.14625172, -572669.25, -37535.336, 0.0, 9.999956, 9.999532 
2.1501003e+2, 2.5539565e+2, -446403.63, -498496.97, -3185.5044, -0.07951806, 0.15310802, -446209.56, -9072.6455, 0.0, 10.000198, 9.999503 
2.1501423e+2, 2.6539484e+2, -364933.13, -487374.25, -8181.864, -0.075806886, 0.16021957, -364388.8, -25243.697, 0.0, 10.000424, 9.998797 
2.1501876e+2, 2.753936e+2, -239218.94, -378990.9, -12835.345, -0.030392308, 0.15386109, -238050.03, 3108.1128, 0.0, 10.0006275, 9.998771 
2.1502338e+2, 2.853923e+2, -140777.03, -315173.56, 1703.3262, -0.013523758, 0.16212727, -140760.39, 2411.4646, 0.0, 10.000779, 9.998464 
2.150279e+2, 2.953911e+2, -26635.746, -208786.13, -1721.5414, -0.036650803, 0.19081296, -26619.477, 18564.633, 0.0, 10.000887, 9.998469 
2.1503171e+2, 3.0538943e+2, 80613.02, -110695.16, -40036.242, -0.089192875, 0.16800475, 88653.71, 88653.71, 0.0000002906552, 10.001199, 9.998661 
2.1503672e+2, 3.1538814e+2, 149611.03, -78172.62, 12518.567, 0.038463123, 0.17277893, 150296.95, 150296.95, 0.0000060416633, 10.001673, 9.998656 
2.2495855e+2, 1.2539415e+2, -1837649.8, -1699513.3, -44873.813, 0.046559986, 0.10136148, -1686216.0, 24931.88, 0.0003861587, 9.998836, 10.000665 
2.2496365e+2, 1.353946e+2, -1742804.1, -1716842.6, 1353.9783, 0.047860585, 0.18554778, -1716772.1, -103627.21, 0.00020573656, 9.999306, 9.999646 
2.2496767e+2, 1.4539401e+2, -1606272.8, -1563966.4, -36428.25, -0.0066180136, 0.14326762, -1542995.0, -27843.424, 0.00007189719, 9.999411, 9.9999695 
2.2497165e+2, 1.5539409e+2, -1545834.4, -1495251.5, -29140.455, 0.00017757983, 0.15966898, -1481957.8, -64806.66, 0.000010694928, 9.999202, 9.999868 
2.249757e+2, 1.6539395e+2, -1428958.8, -1350529.0, -22132.793, 0.0061444063, 0.14178443, -1344714.3, -25562.912, 0.000000092361944, 9.999168, 10.000206 
2.2497973e+2, 1.7539352e+2, -1317096.8, -1250031.5, -32266.902, -0.00088338176, 0.07489118, -1237028.3, -15875.051, 0.0, 9.999283, 10.000167 
2.249836e+2, 1.8539335e+2, -1245341.8, -1252154.6, -46960.25, 0.0041033193, 0.08162434, -1201664.5, -78508.8, 0.0, 9.999479, 9.999387 
2.2498742e+2, 1.9539341e+2, -1106561.9, -1132778.6, -38547.785, 0.024462918, 0.14600158, -1078954.6, -53796.184, 0.0, 9.999753, 9.999401 
2.2499105e+2, 2.0539318e+2, -958275.75, -952179.0, -24938.82, 0.012514074, 0.15639813, -930102.94, -2941.787, 0.0, 9.999846, 9.999922 
2.2499456e+2, 2.1539268e+2, -871015.7, -862836.6, -28728.06, -0.028874291, 0.11084979, -837908.44, -8744.646, 0.0, 9.999788, 9.999889 
2.2499827e+2, 2.2539224e+2, -804777.8, -849411.1, -32211.71, -0.043980267, 0.11135579, -787907.44, -56739.035, 0.0, 9.999868, 9.99927 
2.2500217e+2, 2.3539187e+2, -678147.25, -737754.8, -31363.549, -0.035996947, 0.14286606, -664685.1, -31510.656, 0.0, 10.000066, 9.9992695 
2.2500618e+2, 2.4539138e+2, -558878.25, -602113.75, -19798.05, -0.044316724, 0.15499595, -551182.4, -16002.496, 0.0, 10.000093, 9.999516 
2.2501022e+2, 2.553908e+2, -480718.2, -516825.03, -30694.887, -0.068369195, 0.14072637, -463161.2, -25976.73, 0.0, 9.999971, 9.999487 
2.2501463e+2, 2.6539e+2, -394612.7, -496140.13, -24628.506, -0.067041464, 0.14673045, -388953.75, -49761.703, 0.0, 10.000197, 9.998846 
2.2501935e+2, 2.7538902e+2, -222498.4, -366253.72, -14154.116, -0.0400346, 0.15813893, -221118.05, 20084.328, 0.0, 10.000723, 9.998812 
2.2502412e+2, 2.8538755e+2, -132504.8, -324685.78, -405.5815, -0.022563837, 0.15566804, -132503.94, 10713.68, 0.0, 10.000894, 9.998343 
2.250288e+2, 2.9538584e+2, -57003.344, -237142.05, 2339.8289, -0.027274596, 0.14698954, -56972.957, -11737.765, 0.0, 10.000736, 9.998347 
2.2503288e+2, 3.0538455e+2, 62516.945, -115370.8, -17693.318, -0.0849719, 0.16584158, 64259.71, 64259.71, 0.000000085825576, 10.001055, 9.998699 
2.2503848e+2, 3.1538314e+2, 175303.17, -51980.656, 12090.907, 0.04279195, 0.15549214, 175944.56, 175944.56, 0.0000031779714, 10.001789, 9.99878 
2.3495671e+2, 1.253894e+2, -1844800.4, -1714638.8, -34244.6, -0.023511956, 0.13654247, -1706179.0, 5016.8247, 0.00032267286, 9.998837, 10.00056 
2.3496296e+2, 1.3538946e+2, -1743603.0, -1717499.4, 18636.598, 0.04598265, 0.1819638, -1707798.8, -94601.445, 0.0001666326, 9.999301, 9.999644 
2.349674e+2, 1.4538877e+2, -1587851.6, -1524612.6, -44658.12, 0.023510233, 0.115351975, -1501513.4, 13690.878, 0.00005400246, 9.999406, 10.000242 
2.3497133e+2, 1.5538916e+2, -1527346.3, -1458451.4, -35912.18, 0.045556996, 0.1352571, -1443136.3, -25937.133, 0.000006396683, 9.999208, 10.000118 
2.349754e+2, 1.6538927e+2, -1443936.8, -1382681.9, -18378.877, 0.057379864, 0.14258704, -1377590.6, -58393.613, 0.000000013163342, 9.999173, 9.999983 
2.3497951e+2, 1.7538908e+2, -1331006.3, -1278843.9, -27306.629, 0.049073577, 0.12189896, -1267164.3, -45966.45, 0.0, 9.999283, 9.9999695 
2.3498309e+2, 1.8538879e+2, -1229265.6, -1217660.1, -37063.28, 0.0055669886, 0.11492426, -1185948.1, -62746.695, 0.0, 9.9994755, 9.999625 
2.3498628e+2, 1.9538845e+2, -1090960.6, -1100298.6, -28278.88, -0.06374168, 0.11412803, -1066967.9, -41760.92, 0.0, 9.999752, 9.999624 
2.3499033e+2, 2.0538838e+2, -964483.75, -964507.5, -27435.006, -0.046157617, 0.1343022, -937060.6, -9852.542, 0.0, 9.999845, 9.999838 
2.3499507e+2, 2.1538855e+2, -877542.7, -874978.06, -29820.83, 0.044791214, 0.16349034, -846412.0, -17206.701, 0.0, 9.999783, 9.999809 
2.3499894e+2, 2.2538827e+2, -804993.2, -848566.06, -25316.176, 0.036871675, 0.18416369, -793379.7, -62171.125, 0.0, 9.999863, 9.999279 
2.3500204e+2, 2.3538765e+2, -678057.75, -737020.4, -23716.598, -0.05539838, 0.1882016, -669702.25, -36485.227, 0.0, 10.000064, 9.999275 
2.3500612e+2, 2.4538672e+2, -579345.75, -644531.3, -24910.148, -0.059150495, 0.1718803, -570916.56, -35690.063, 0.0, 10.0000925, 9.999226 
2.35011e+2, 2.5538558e+2, -500567.6, -557316.2, -33958.66, 0.011749852, 0.12987241, -484689.3, -47452.582, 0.0, 9.999968, 9.99921 
2.3501547e+2, 2.6538473e+2, -376626.06, -457538.94, -5716.941, -0.0030100716, 0.1330091, -376224.13, -36980.188, 0.0, 10.000193, 9.999114 
2.3501961e+2, 2.753842e+2, -204218.63, -327114.03, 5175.5386, -0.08773838, 0.1619498, -204001.05, 37247.66, 0.0, 10.000719, 9.999083 
2.3502453e+2, 2.8538275e+2, -134898.64, -328893.75, -6492.409, -0.071612135, 0.15108533, -134681.6, 8581.54, 0.0, 10.00089, 9.998318 
2.3502998e+2, 2.953807e+2, -60012.41, -243950.67, -1783.5674, 0.017879847, 0.110709615, -59995.117, -14710.719, 0.0, 10.000738, 9.998301 
2.3503424e+2, 3.0537972e+2, 48696.4, -142652.33, 8771.963, -0.054673206, 0.17414871, 49097.688, 49097.688, 0.000000016806371, 10.00105, 9.998514 
2.3503967e+2, 3.1537816e+2, 176285.34, -47108.85, 36329.375, -0.019055352, 0.16208297, 182044.89, 182044.89, 0.0000014346882, 10.001779, 9.998818 
2.4495547e+2, 1.2538446e+2, -1839510.8, -1701772.5, -28769.674, -0.030965993, 0.14600635, -1696004.9, 15240.085, 0.00026299746, 9.998827, 10.000654 
2.4496204e+2, 1.3538441e+2, -1826986.8, -1736581.4, 42345.02, 0.059016556, 0.16011688, -1719845.5, -106599.0, 0.0001305452, 9.998638, 9.999834 
2.4496672e+2, 1.4538372e+2, -1650249.8, -1549183.9, -16661.113, 0.038204424, 0.08143032, -1546508.1, -31255.107, 0.000038366878, 9.998954, 10.000293 
2.4497084e+2, 1.553843e+2, -1457196.0, -1419345.0, -26051.936, 0.054207064, 0.116678014, -1406069.9, 11175.911, 0.000003303544, 9.999667, 10.000166 
2.4497494e+2, 1.6538446e+2, -1372104.5, -1373402.3, -29372.115, 0.063465156, 0.13839024, -1343374.1, -24130.172, 0.00000000018007511, 9.999776, 9.999756 
2.4497886e+2, 1.7538422e+2, -1330688.1, -1301940.3, -39618.336, 0.052262533, 0.13313094, -1274168.9, -52922.14, 0.0, 9.999386, 9.999762 
2.4498248e+2, 1.8538398e+2, -1237944.1, -1199804.9, -36590.15, 0.005536527, 0.13014813, -1177613.3, -54363.35, 0.0, 9.99932, 9.999823 
2.4498591e+2, 1.9538376e+2, -1110222.6, -1088517.4, -31619.559, -0.06636837, 0.12292763, -1065939.9, -40686.938, 0.0, 9.99953, 9.999812 
2.4499008e+2, 2.0538364e+2, -985010.25, -983751.0, -36981.97, -0.049108144, 0.13440952, -947393.3, -20139.16, 0.0, 9.999744, 9.999755 
2.4499492e+2, 2.1538362e+2, -856374.5, -873466.6, -40550.793, 0.04250962, 0.15258315, -823479.0, 5774.859, 0.0, 9.999966, 9.999733 
2.4499893e+2, 2.2538337e+2, -774013.1, -824182.8, -31570.27, 0.040601093, 0.17516463, -758775.1, -27518.342, 0.0, 10.000035, 9.999364 
2.4500221e+2, 2.3538293e+2, -685713.94, -732563.2, -25563.016, -0.040599145, 0.1912483, -674466.1, -41203.65, 0.0, 9.999976, 9.999348 
2.4500641e+2, 2.4538197e+2, -583028.1, -669396.75, -17271.543, -0.043866746, 0.17748536, -579702.3, -44429.92, 0.0, 10.000167, 9.999018 
2.4501131e+2, 2.5538057e+2, -425920.22, -543994.8, -20583.264, 0.017323859, 0.13107568, -422434.94, 14850.709, 0.0, 10.000578, 9.999008 
2.4501593e+2, 2.6537958e+2, -322650.2, -441851.84, -3523.2346, 0.003263636, 0.13203458, -322546.16, 16748.695, 0.0, 10.0006075, 9.9990225 
2.4502027e+2, 2.7537894e+2, -271479.56, -368969.53, -21554.623, -0.07137275, 0.16020921, -266926.56, -25625.814, 0.0, 10.000297, 9.999 
2.4502534e+2, 2.8537756e+2, -189374.95, -339074.94, -34879.027, -0.057140905, 0.15209664, -181647.3, -38332.914, 0.0, 10.000446, 9.998461 
2.450309e+2, 2.953757e+2, -11765.762, -206114.3, -17854.26, 0.021119883, 0.11677756, -10139.154, 35194.17, 0.0, 10.001008, 9.99843 
2.4503525e+2, 3.05375e+2, 63367.746, -145276.14, 7364.4634, -0.06530627, 0.2055907, 63627.367, 63627.367, 0.0000000018495133, 10.001194, 9.9984255 
2.4504097e+2, 3.1537297e+2, 78135.44, -72968.22, 33386.734, -0.027067648, 0.15936363, 85183.56, 85183.56, 0.00000052479436, 10.001011, 9.99901 
2.5495481e+2, 1.253793e+2, -1819882.6, -1658611.1, -41414.72, 0.01977403, 0.12639448, -1648597.5, 62698.133, 0.000209724, 9.9988165, 10.000956 
2.5496092e+2, 1.353794e+2, -1799515.3, -1681444.8, 37481.273, 0.081775725, 0.11856778, -1670551.4, -57258.64, 0.00009902971, 9.998644, 10.00021 
2.549656e+2, 1.4537881e+2, -1661329.4, -1573229.1, 9763.351, 0.030780295, 0.041148465, -1572160.1, -56862.227, 0.000025643241, 9.998959, 10.000125 
2.549702e+2, 1.5537953e+2, -1468460.5, -1442096.6, -574.0358, 0.022345375, 0.1046206, -1442084.1, -24793.13, 0.0000014046367, 9.999664, 10.000011 
2.549743e+2, 1.6537954e+2, -1389143.5, -1407766.8, -44859.883, 0.021116931, 0.12949531, -1352639.0, -33346.855, 0.0, 9.999772, 9.999522 
2.549778e+2, 1.7537887e+2, -1345966.0, -1334562.9, -53027.64, 0.0048488574, 0.10805118, -1286931.3, -65630.81, 0.0, 9.99939, 9.9995365 
2.5498176e+2, 1.8537882e+2, -1226466.1, -1176160.3, -28982.0, -0.00025497962, 0.1266582, -1162938.4, -39636.793, 0.0, 9.999322, 9.999984 
2.5498623e+2, 1.953793e+2, -1099617.1, -1065886.9, -23267.49, 0.014185109, 0.172242, -1054015.1, -28718.777, 0.0, 9.999528, 9.999969 
2.5499034e+2, 2.0537893e+2, -991746.5, -996397.94, -28918.697, 0.0015218979, 0.15630466, -965060.2, -37760.777, 0.0, 9.999739, 9.999671 
2.549941e+2, 2.1537788e+2, -861835.2, -883943.1, -31914.365, -0.038407885, 0.079029985, -839114.7, -9805.149, 0.0, 9.999962, 9.999662 
2.549982e+2, 2.2537751e+2, -763013.9, -800936.06, -34399.65, -0.035910122, 0.08428581, -742695.75, -11382.647, 0.0, 10.000033, 9.999525 
2.5500265e+2, 2.3537776e+2, -676321.25, -711876.44, -26614.559, 0.0049815243, 0.15207462, -662092.94, -28781.951, 0.0, 9.99997, 9.999493 
2.55007e+2, 2.4537714e+2, -591926.2, -686824.06, -2361.0898, -0.002634871, 0.17236403, -591867.5, -56549.984, 0.0, 10.000163, 9.9989 
2.550112e+2, 2.553758e+2, -434567.6, -561368.6, -5498.012, -0.05390931, 0.14381957, -434329.66, 3001.59, 0.0, 10.000576, 9.99889 
2.55016e+2, 2.6537448e+2, -354482.4, -508644.06, -15462.675, -0.050654795, 0.14272663, -352946.78, -13601.984, 0.0, 10.00061, 9.998564 
2.550213e+2, 2.753732e+2, -302231.38, -433327.6, -31673.203, 0.0035989613, 0.15325662, -294980.13, -53621.67, 0.0, 10.000298, 9.998558 
2.5502652e+2, 2.8537193e+2, -167756.03, -293016.53, -14755.191, 0.015374457, 0.15894273, -166041.4, -22670.021, 0.0, 10.0004425, 9.998779 
2.5503147e+2, 2.953708e+2, 9329.869, -159967.08, 3034.132, -0.021639869, 0.16405919, 9384.2295, 54766.293, 0.0, 10.000999, 9.998751 
2.550359e+2, 3.053703e+2, 62398.234, -146777.75, 1061.0358, -0.120050624, 0.25845796, 62403.613, 62403.613, 0.000000000039700524, 10.00119, 9.998418 
2.5504237e+2, 3.153676e+2, 102149.59, -24721.402, 23163.148, 0.009448432, 0.14568792, 106246.266, 106246.266, 0.00000015406697, 10.001017, 9.99934 
2.6495397e+2, 1.2537439e+2, -1796331.5, -1646447.6, -23142.998, 0.047130138, 0.110464595, -1642955.5, 68387.76, 0.0001649167, 9.998973, 10.000964 
2.6495993e+2, 1.353748e+2, -1681367.9, -1614494.4, 38563.758, 0.08100458, 0.121150605, -1596890.1, 16446.693, 0.000073287774, 9.999412, 10.000299 
2.649646e+2, 1.4537418e+2, -1611651.3, -1568800.0, 2225.625, 0.012547634, 0.045893203, -1568684.8, -53342.27, 0.000016155976, 9.999384, 9.99995 
2.649693e+2, 1.5537465e+2, -1582595.8, -1514205.1, -11157.121, 0.00067966233, 0.10146255, -1512431.0, -95091.96, 0.00000046134082, 9.998956, 9.999859 
2.6497364e+2, 1.6537464e+2, -1474191.5, -1437746.5, -40662.48, 0.0079724835, 0.12710917, -1411410.0, -92069.484, 0.0, 9.999142, 9.999621 
2.6497746e+2, 1.7537418e+2, -1272836.8, -1289288.3, -24760.83, 0.0075603477, 0.11440416, -1254971.1, -33624.645, 0.0, 9.999848, 9.999626 
2.6498157e+2, 1.8537407e+2, -1129460.3, -1140275.0, -4994.533, 0.013319924, 0.12863627, -1127506.6, -4158.916, 0.0, 10.000034, 9.999887 
2.649861e+2, 1.9537428e+2, -1069025.5, -1062016.3, -19756.94, 0.033716917, 0.15805718, -1045455.5, -20110.951, 0.0, 9.999784, 9.999872 
2.649902e+2, 2.0537385e+2, -1001777.9, -1015549.94, -28500.814, 0.014245808, 0.14620437, -979343.0, -51994.348, 0.0, 9.999731, 9.999543 
2.6499394e+2, 2.1537288e+2, -887555.5, -910392.56, -35287.242, -0.043533873, 0.09028193, -861885.3, -32526.354, 0.0, 9.9998455, 9.999537 
2.6499817e+2, 2.2537236e+2, -756157.5, -799073.25, -46393.176, -0.043600857, 0.08779765, -726500.1, 4863.6973, 0.0, 10.000087, 9.999512 
2.6500288e+2, 2.3537229e+2, -608872.75, -680830.56, -52635.957, 0.0069613173, 0.12351889, -581094.06, 52269.754, 0.0, 10.000441, 9.99948 
2.6500735e+2, 2.4537164e+2, -543273.8, -669379.6, -30799.889, 0.0013817664, 0.14665994, -536153.4, -782.9975, 0.0, 10.000523, 9.998847 
2.6501167e+2, 2.553706e+2, -468367.5, -583632.2, -30275.705, -0.05362672, 0.14969501, -460899.1, -23516.742, 0.0, 10.000369, 9.9988365 
2.650166e+2, 2.653693e+2, -375115.44, -531694.6, -26206.451, -0.05006822, 0.15830109, -370845.75, -31449.568, 0.0, 10.0005245, 9.9984455 
2.6502198e+2, 2.753678e+2, -214590.58, -403740.22, -16872.572, 0.0070513296, 0.16143765, -213097.3, 28314.35, 0.0, 10.000956, 9.998444 
2.6502725e+2, 2.8536633e+2, -100581.35, -265688.7, -1400.0756, 0.02122366, 0.15830967, -100569.48, 42856.547, 0.0, 10.000928, 9.998732 
2.650323e+2, 2.9536507e+2, -70925.12, -203737.9, -13352.744, -0.012262264, 0.1508416, -69595.96, -24157.838, 0.0, 10.000471, 9.998705 
2.6503676e+2, 3.053644e+2, -38676.195, -201071.84, -23903.709, -0.11596044, 0.2380074, -35230.805, -35230.805, 0.0, 10.000521, 9.998367 
2.6504344e+2, 3.1536183e+2, 127744.69, 22047.852, -12608.657, 0.010703623, 0.13456762, 129227.97, 129227.97, 0.000000038019415, 10.001048, 9.999644 
2.7495295e+2, 1.2536977e+2, -1815133.8, -1685857.0, -16979.031, 0.042278506, 0.0988978, -1683664.3, 27723.764, 0.00012966055, 9.998976, 10.000691 
2.749591e+2, 1.353706e+2, -1695169.5, -1642529.1, 53590.16, 0.05235727, 0.16985224, -1609144.5, 4234.1045, 0.00005392466, 9.999409, 10.000109 
2.7496365e+2, 1.4536981e+2, -1624473.8, -1594550.5, -14913.832, -0.020955335, 0.096984684, -1588386.9, -73000.19, 0.0000098627, 9.99938, 9.999776 
2.749681e+2, 1.5536965e+2, -1593211.1, -1536400.0, -25373.44, -0.0155105945, 0.10635632, -1526717.8, -109327.586, 0.00000011248763, 9.998957, 9.999706 
2.749729e+2, 1.6536976e+2, -1443863.1, -1374984.9, -14591.724, 0.019363599, 0.13007313, -1372021.3, -52631.875, 0.0, 9.999142, 10.0000515 
2.7497777e+2, 1.7537008e+2, -1243897.0, -1229423.5, 751.6123, 0.058218025, 0.15286529, -1229384.5, -7999.465, 0.0, 9.999849, 10.000037 
2.7498192e+2, 1.8536969e+2, -1155116.5, -1192935.0, -15076.862, 0.043371968, 0.13680921, -1149841.6, -26453.352, 0.0, 10.000032, 9.999527 
2.749854e+2, 1.9536869e+2, -1094219.3, -1114052.8, -28320.123, -0.010984636, 0.08080914, -1074129.8, -48732.14, 0.0, 9.9997835, 9.999515 
2.7498966e+2, 2.0536837e+2, -1013870.06, -1039703.8, -24490.18, -0.01415929, 0.10387496, -999099.1, -71697.03, 0.0, 9.999727, 9.999379 
2.7499446e+2, 2.153686e+2, -899870.75, -934811.7, -29968.105, 0.024550576, 0.18608013, -882652.5, -53250.188, 0.0, 9.99984, 9.9993725 
2.7499884e+2, 2.2536792e+2, -770637.2, -827476.3, -33302.58, 0.014323521, 0.18555674, -755276.2, -23867.21, 0.0, 10.00008, 9.99932 
2.7500287e+2, 2.3536648e+2, -621460.44, -706581.25, -39340.438, -0.036258906, 0.10546151, -606063.44, 27357.656, 0.0, 10.000439, 9.999304 
2.7500755e+2, 2.453655e+2, -542394.9, -667675.8, -37195.54, -0.033993047, 0.09960551, -532183.9, 3247.1958, 0.0, 10.000524, 9.998858 
2.7501273e+2, 2.553649e+2, -468014.47, -582173.7, -34947.664, 0.013118238, 0.14907429, -458165.63, -20726.555, 0.0, 10.000365, 9.998849 
2.7501762e+2, 2.6536396e+2, -359864.66, -498267.2, -10625.124, 0.0000069283997, 0.17962366, -359053.72, -19604.793, 0.0, 10.000518, 9.998678 
2.7502224e+2, 2.753627e+2, -200266.13, -372187.1, -891.9851, -0.0628317, 0.1841204, -200261.5, 41198.85, 0.0, 10.000949, 9.998663 
2.7502754e+2, 2.853608e+2, -130034.06, -326962.78, -18471.736, -0.041346718, 0.1485446, -128316.414, 15162.07, 0.0, 10.000927, 9.998312 
2.7503335e+2, 2.9535845e+2, -99405.8, -264271.63, -28666.104, 0.043624263, 0.077975385, -94563.68, -49062.188, 0.0, 10.000475, 9.998288 
2.7503788e+2, 3.053574e+2, -45395.12, -215368.69, -5071.1074, -0.06014878, 0.14593624, -45243.96, -45243.96, 0.0, 10.000523, 9.998267 
2.7504402e+2, 3.1535548e+2, 144343.75, 59151.51, 1928.6594, -0.03318616, 0.1193197, 144387.39, 144387.39, 0.00000000643165, 10.001038, 9.999904 
2.8495172e+2, 1.2536497e+2, -1841919.4, -1722320.0, -30621.23, 0.029563485, 0.09735207, -1714935.9, -3502.1, 0.00010364884, 9.998895, 10.00048 
2.8495818e+2, 1.3536574e+2, -1743578.3, -1677610.4, 51288.957, 0.03926603, 0.17276715, -1649614.9, -36188.55, 0.000040612387, 9.999127, 10.000004 
2.8496298e+2, 1.4536497e+2, -1626060.0, -1594662.3, -22421.098, -0.02668924, 0.106087655, -1582990.4, -67555.62, 0.0000062724685, 9.999368, 9.999782 
2.8496748e+2, 1.553649e+2, -1504214.5, -1492264.5, -20167.018, -0.0014995687, 0.12354834, -1477205.9, -59768.86, 0.000000028346124, 9.999562, 9.999717 
2.849724e+2, 1.6536495e+2, -1376287.6, -1339424.1, -2342.281, 0.03369762, 0.13915464, -1339275.9, -19839.607, 0.0, 9.999595, 10.000077 
2.849774e+2, 1.7536508e+2, -1291130.3, -1249547.9, -19619.846, 0.054056473, 0.14113237, -1241752.1, -20319.213, 0.0, 9.999516, 10.000059 
2.8498167e+2, 1.8536456e+2, -1216128.8, -1235017.0, -49079.305, 0.033554845, 0.11678458, -1175593.3, -52155.87, 0.0, 9.999669, 9.999413 
2.849853e+2, 1.9536348e+2, -1068277.3, -1114717.4, -44696.395, -0.015724711, 0.06381205, -1041129.25, -15681.073, 0.0, 10.000018, 9.999397 
2.8498966e+2, 2.0536314e+2, -953659.25, -1024357.5, -28845.348, -0.010160749, 0.09909855, -943383.7, -15930.577, 0.0, 10.000199, 9.999258 
2.8499466e+2, 2.1536346e+2, -850406.25, -923707.6, -32036.541, 0.03991204, 0.20121029, -838378.25, -8925.471, 0.0, 10.000236, 9.999257 
2.849991e+2, 2.2536273e+2, -749896.2, -824109.5, -23378.68, 0.024937477, 0.20357893, -743145.5, -11685.366, 0.0, 10.00025, 9.999262 
2.8500316e+2, 2.3536111e+2, -654105.4, -729068.1, -20206.02, -0.044053227, 0.111537434, -649005.8, -15531.784, 0.0, 10.000243, 9.999245 
2.8500795e+2, 2.4536002e+2, -563262.75, -685166.4, -19049.807, -0.03824551, 0.10046912, -560355.2, -24870.01, 0.0, 10.000412, 9.998793 
2.8501344e+2, 2.5535935e+2, -418119.97, -564493.9, -23526.482, 0.03038022, 0.15160918, -414431.53, 23062.172, 0.0, 10.000736, 9.998792 
2.8501835e+2, 2.6535842e+2, -316453.2, -460134.28, -4443.6475, 0.011592076, 0.1785235, -316315.88, 23187.135, 0.0, 10.000743, 9.998832 
2.8502277e+2, 2.7535725e+2, -261159.39, -384692.6, -2104.173, -0.07883949, 0.173201, -261123.56, -19610.514, 0.0, 10.000458, 9.998814 
2.8502816e+2, 2.853554e+2, -190533.66, -366321.9, -10903.26, -0.055231635, 0.13759048, -189859.95, -46329.387, 0.0, 10.000556, 9.99822 
2.850342e+2, 2.9535303e+2, -27562.023, -239497.94, 2715.8462, 0.057165537, 0.07697866, -27527.227, 18026.379, 0.0, 10.001014, 9.998197 
2.850388e+2, 3.0535156e+2, 3654.8884, -206124.8, 36073.92, -0.041513465, 0.1140574, 9684.868, 9684.868, 0.0, 10.000923, 9.998137 
2.8504476e+2, 3.1534976e+2, 42690.816, 20616.29, 31452.646, -0.026413318, 0.11679566, 64986.57, 64986.57, 0.00000000043435586, 10.000292, 9.999999 
2.9495034e+2, 1.2536003e+2, -1852421.5, -1744887.0, -31711.572, -0.00045970257, 0.10549077, -1736232.0, -24751.408, 0.000085497144, 9.9988985, 10.000324 
2.949573e+2, 1.3536021e+2, -1745656.0, -1681334.5, 60646.516, 0.03809803, 0.12773548, -1644848.9, -31369.08, 0.000032281903, 9.9991255, 9.99998 
2.9496253e+2, 1.4535965e+2, -1613577.4, -1568596.9, -15089.028, -0.0074997973, 0.07223269, -1564004.0, -48517.617, 0.0000046245973, 9.999366, 9.999961 
2.9496744e+2, 1.5536043e+2, -1492011.5, -1467112.3, -13067.514, 0.03816146, 0.15553315, -1461513.3, -44033.727, 0.00000001715619, 9.999563, 9.999889 
2.9497212e+2, 1.6536021e+2, -1403246.0, -1395358.0, -6460.917, 0.045485213, 0.15701298, -1391732.4, -72251.19, 0.0, 9.999595, 9.999694 
2.9497632e+2, 1.7535916e+2, -1317616.0, -1303441.8, -21672.008, -0.008655458, 0.077718414, -1287727.5, -66237.19, 0.0, 9.999511, 9.999691 
2.949808e+2, 1.8535864e+2, -1208423.6, -1217642.5, -36086.414, -0.019536205, 0.066630244, -1176653.4, -53158.26, 0.0, 9.999663, 9.999535 
2.9498562e+2, 1.9535862e+2, -1060112.4, -1097354.3, -31510.781, 0.017779326, 0.10698987, -1042131.8, -16635.445, 0.0, 10.000016, 9.999518 
2.949902e+2, 2.053582e+2, -959811.3, -1036007.4, -27830.033, 0.02391942, 0.13217168, -950729.2, -23227.516, 0.0, 10.000195, 9.99918 
2.9499447e+2, 2.1535745e+2, -855963.5, -934507.75, -30078.41, -0.00039445155, 0.1352157, -845768.3, -16257.846, 0.0, 10.000232, 9.999186 
2.9499897e+2, 2.2535677e+2, -744944.25, -812643.0, -24239.883, -0.015323422, 0.14097106, -737160.06, -5642.592, 0.0, 10.000245, 9.999343 
2.9500362e+2, 2.3535615e+2, -649755.5, -719142.6, -19543.568, -0.019701974, 0.14137429, -644629.5, -11106.81, 0.0, 10.000238, 9.999315 
2.950086e+2, 2.4535519e+2, -574042.4, -706460.5, -7224.679, -0.014710354, 0.14928688, -573649.4, -38116.72, 0.0, 10.000407, 9.998649 
2.9501382e+2, 2.5535396e+2, -427971.03, -584216.7, -11405.443, -0.0036195517, 0.1563201, -427142.88, 10403.603, 0.0, 10.000733, 9.998657 
2.950188e+2, 2.653527e+2, -311997.53, -450329.75, -15673.408, -0.01666659, 0.15359694, -310243.94, 29314.758, 0.0, 10.000741, 9.9989 
2.9502356e+2, 2.753514e+2, -256052.84, -373790.1, -11667.096, -0.046948295, 0.12920551, -254907.84, -13338.069, 0.0, 10.000457, 9.998889 
2.9502898e+2, 2.8535002e+2, -174442.42, -332300.25, 5149.235, -0.02693202, 0.12686193, -174274.64, -30692.37, 0.0, 10.000554, 9.998455 
2.9503492e+2, 2.9534873e+2, -13075.486, -206981.28, 19399.387, 0.025462592, 0.1466774, -11153.713, 34441.035, 0.0, 10.001003, 9.9984255 
2.9503947e+2, 3.0534685e+2, -8681.74, -229823.45, 12501.751, -0.06144135, 0.14132471, -7977.226, -7977.226, 0.0, 10.000915, 9.997979 
2.9504555e+2, 3.1534457e+2, 40673.77, 14019.2295, 4010.0452, 0.021693893, 0.11011543, 41263.992, 41263.992, 0.0, 10.000302, 9.999949 
3.0494902e+2, 1.253545e+2, -1794435.8, -1719809.8, -62555.08, -0.04491828, 0.08913468, -1684284.6, 27249.256, 0.000073591786, 9.999313, 10.000295 
3.049565e+2, 1.3535464e+2, -1731999.5, -1667968.6, 45476.277, 0.041145477, 0.10042061, -1644368.6, -30834.822, 0.000027638554, 9.999189, 10.000041 
3.0496204e+2, 1.4535421e+2, -1615028.8, -1557128.8, -20732.31, 0.011325408, 0.051004812, -1550470.8, -34932.03, 0.000004191702, 9.999306, 10.000069 
3.0496705e+2, 1.5535526e+2, -1479411.1, -1450167.1, -28056.977, 0.040693913, 0.1504944, -1433150.6, -15621.944, 0.000000032166714, 9.999604, 9.999986 
3.0497175e+2, 1.6535497e+2, -1401059.0, -1412858.6, -27485.156, 0.042863544, 0.14789449, -1378847.6, -59316.277, 0.0, 9.999691, 9.999527 
3.0497587e+2, 1.7535354e+2, -1316159.1, -1320618.0, -27073.572, -0.011097258, 0.04809684, -1291223.4, -69678.445, 0.0, 9.9995985, 9.999532 
3.049805e+2, 1.8535315e+2, -1205000.0, -1204272.9, -20777.893, -0.015011887, 0.050953146, -1183855.4, -60306.23, 0.0, 9.999637, 9.9996395 
3.0498573e+2, 1.9535367e+2, -1083266.8, -1095868.5, -18633.48, 0.036026053, 0.13565722, -1069897.6, -44352.523, 0.0, 9.999805, 9.999629 
3.0499035e+2, 2.0535319e+2, -985304.9, -1040220.4, -14249.523, 0.032491036, 0.14423491, -981827.56, -54277.09, 0.0, 9.999986, 9.999251 
3.0499443e+2, 2.1535182e+2, -860155.0, -929803.25, -6113.9507, -0.023236008, 0.079449214, -859622.4, -30058.531, 0.0, 10.0001745, 9.999247 
3.0499905e+2, 2.2535113e+2, -741412.94, -830394.2, -5161.372, -0.034895424, 0.09015256, -741114.56, -9543.341, 0.0, 10.000352, 9.99917 
3.0500415e+2, 2.3535101e+2, -619920.94, -722750.1, -20709.438, -0.00628968, 0.15840428, -615906.8, 17666.543, 0.0, 10.000522, 9.999154 
3.0500925e+2, 2.4535012e+2, -549833.25, -685316.44, -6418.467, 0.000060286224, 0.17746232, -549529.9, -13947.182, 0.0, 10.000533, 9.9987335 
3.0501428e+2, 2.553486e+2, -470066.34, -596000.6, 5737.323, -0.014108596, 0.14629245, -469805.53, -32207.482, 0.0, 10.000407, 9.9987335 
3.0501935e+2, 2.6534718e+2, -360602.28, -494560.63, -2992.8142, -0.02398461, 0.13271509, -360535.47, -20923.521, 0.0, 10.000498, 9.998713 
3.050244e+2, 2.7534583e+2, -221326.89, -376617.7, -19703.098, -0.027059346, 0.12221915, -218865.98, 22758.82, 0.0, 10.000782, 9.998713 
3.050298e+2, 2.853446e+2, -136031.05, -296252.84, -12323.976, -0.009952459, 0.13484906, -135088.64, 8547.398, 0.0, 10.000743, 9.998611 
3.0503553e+2, 2.953436e+2, -89821.96, -227000.73, -5599.1787, 0.016518451, 0.17059541, -89593.805, -43949.164, 0.0, 10.000403, 9.998578 
3.0504012e+2, 3.053414e+2, -72155.8, -258142.88, -11958.439, -0.06784295, 0.12390239, -71390.055, -71390.055, 0.0, 10.000468, 9.998 
3.0504632e+2, 3.1533948e+2, 123038.984, 52611.445, -15472.563, 0.03793387, 0.12606452, 126288.31, 126288.31, 0.0, 10.000874, 9.999939 
3.1494772e+2, 1.2534842e+2, -1788122.1, -1706889.1, -78162.75, -0.10701112, 0.04921575, -1659419.9, 52173.59, 0.00006650563, 9.999313, 10.000384 
3.1495568e+2, 1.3534907e+2, -1719066.6, -1643345.0, 42790.15, 0.039138522, 0.09384448, -1624070.5, -10482.916, 0.000025576577, 9.999199, 10.000206 
3.1496146e+2, 1.4534873e+2, -1612780.9, -1553902.0, -10116.602, 0.018908663, 0.045333773, -1552212.3, -36621.164, 0.000004447986, 9.999311, 10.000089 
3.149663e+2, 1.553494e+2, -1479227.3, -1447789.9, -16906.76, 0.0034273702, 0.106348544, -1440423.6, -22839.125, 0.00000006594377, 9.999596, 10.000006 
3.1497124e+2, 1.6534922e+2, -1399479.5, -1408011.1, -31457.018, 0.024003478, 0.110512726, -1372000.4, -52413.69, 0.0, 9.999683, 9.999564 
3.1497598e+2, 1.7534825e+2, -1313122.6, -1314584.0, -29799.432, 0.04303852, 0.053787712, -1284044.9, -62448.23, 0.0, 9.999599, 9.999573 
3.1498072e+2, 1.8534808e+2, -1198641.6, -1191270.1, -15191.168, 0.04157183, 0.07243149, -1179324.0, -55724.965, 0.0, 9.999637, 9.999729 
3.1498554e+2, 1.953486e+2, -1077179.0, -1082416.4, -11790.655, 0.036140684, 0.14850976, -1067719.8, -42125.086, 0.0, 9.999801, 9.999724 
3.1499013e+2, 2.0534806e+2, -971096.6, -1008562.9, -7373.716, 0.01242281, 0.13416651, -969697.6, -42097.95, 0.0, 9.999977, 9.999473 
3.1499457e+2, 2.1534656e+2, -847032.0, -901402.6, 1720.4946, -0.031295866, 0.033485323, -846977.56, -17364.738, 0.0, 10.000169, 9.999444 
3.1499943e+2, 2.2534579e+2, -772085.4, -893022.94, 971.61224, -0.036783922, 0.05100624, -772077.6, -40456.12, 0.0, 10.000348, 9.998742 
3.1500468e+2, 2.353457e+2, -648277.6, -781312.4, -14148.287, -0.006197394, 0.16230413, -646789.56, -13163.416, 0.0, 10.00052, 9.998754 
3.150098e+2, 2.453448e+2, -528366.06, -640090.2, -11850.875, 0.0032206438, 0.18435784, -527122.9, 8512.6, 0.0, 10.00053, 9.999045 
3.150148e+2, 2.5534326e+2, -449923.75, -553474.9, 1835.8954, -0.0063094124, 0.121444084, -449891.22, -12242.747, 0.0, 10.000404, 9.999027 
3.1501997e+2, 2.6534185e+2, -392108.97, -559488.06, 7141.956, -0.014666931, 0.11652736, -391804.78, -52142.074, 0.0, 10.000496, 9.998268 
3.150252e+2, 2.7534053e+2, -252204.63, -439383.88, -8927.76, -0.021865036, 0.15130675, -251779.77, -10101.516, 0.0, 10.000776, 9.998284 
3.150306e+2, 2.853391e+2, -132208.88, -286394.25, -25696.434, -0.005656335, 0.16060828, -128039.09, 15652.966, 0.0, 10.000735, 9.998683 
3.15036e+2, 2.9533768e+2, -83356.65, -214903.34, -16702.041, 0.02375828, 0.14830929, -81269.17, -35565.863, 0.0, 10.000409, 9.998657 
3.1504062e+2, 3.053352e+2, -57733.35, -229939.73, 2725.5789, -0.06679529, 0.061723344, -57690.223, -57690.223, 0.0, 10.000475, 9.998191 
3.1504697e+2, 3.1533435e+2, 124346.43, 58384.645, -5475.5313, 0.013353535, 0.15246244, 124797.87, 124797.87, 0.0, 10.00086, 9.999986 
3.2494718e+2, 1.2534286e+2, -1857633.0, -1737044.8, -75254.13, -0.0670666, 0.061597772, -1700909.9, 10738.702, 0.00006287029, 9.998824, 10.000411 
3.249548e+2, 1.3534363e+2, -1678061.3, -1611012.5, 50880.758, 0.02184031, 0.10565722, -1583604.6, 30036.404, 0.000025189593, 9.999426, 10.000319 
3.2496056e+2, 1.4534323e+2, -1569898.3, -1533494.5, -12957.842, -0.0131033305, 0.045412187, -1529353.4, -13708.62, 0.0000050024137, 9.999608, 10.000085 
3.249655e+2, 1.5534358e+2, -1514646.5, -1463926.9, -23184.615, -0.018906485, 0.07246839, -1454926.1, -37284.914, 0.000000115129794, 9.999349, 10.000014 
3.2497072e+2, 1.6534358e+2, -1425855.6, -1401863.1, -26100.55, 0.018004587, 0.0872623, -1385134.0, -65492.523, 0.0, 9.999423, 9.999731 
3.2497582e+2, 1.753433e+2, -1270907.6, -1275971.6, -16021.7295, 0.05640042, 0.0823886, -1257219.0, -35574.137, 0.0, 9.999812, 9.999734 
3.249806e+2, 1.8534315e+2, -1164190.6, -1186821.0, -8889.941, 0.05364623, 0.099871844, -1161116.0, -37468.695, 0.0, 9.999927, 9.9996195 
3.2498524e+2, 1.9534309e+2, -1084373.6, -1097856.4, -21676.213, 0.026485717, 0.12953085, -1068414.6, -42765.89, 0.0, 9.999803, 9.999618 
3.2499e+2, 2.0534258e+2, -988716.3, -1013542.8, -25058.895, 0.0051626167, 0.122675076, -973164.6, -45511.055, 0.0, 9.999839, 9.999506 
3.249948e+2, 2.1534166e+2, -867135.06, -906770.94, -31213.34, -0.015140504, 0.07687655, -849979.7, -20318.543, 0.0, 10.000013, 9.999481 
3.2499984e+2, 2.2534086e+2, -801107.4, -911289.4, -22704.357, -0.017262962, 0.089014165, -796612.25, -64941.99, 0.0, 10.000168, 9.998704 
3.250051e+2, 2.3534013e+2, -681777.1, -801160.6, -9294.278, -0.001373919, 0.14250779, -681057.9, -47377.125, 0.0, 10.000306, 9.99872 
3.2501027e+2, 2.4533917e+2, -528375.44, -630632.3, -5061.59, 0.0022594014, 0.15380149, -528125.56, 7565.0825, 0.0, 10.00049, 9.999129 
3.2501534e+2, 2.55338e+2, -399366.8, -520194.9, -9969.566, -0.005944304, 0.12168964, -398549.75, 39149.918, 0.0, 10.000713, 9.999107 
3.2502064e+2, 2.6533672e+2, -353949.63, -542282.2, 6376.0586, -0.010226059, 0.12615001, -353734.0, -14021.4, 0.0, 10.000762, 9.998259 
3.2502607e+2, 2.7533525e+2, -270144.47, -449448.06, 21833.566, -0.009627137, 0.15142742, -267524.1, -25794.848, 0.0, 10.000657, 9.998273 
3.2503143e+2, 2.8533378e+2, -140984.73, -300999.34, 10176.637, 0.004901431, 0.1593892, -140340.11, 3403.924, 0.0, 10.00072, 9.9985895 
3.2503667e+2, 2.9533237e+2, -16801.744, -192818.05, 4917.6367, 0.024802418, 0.1542253, -16664.459, 29091.66, 0.0, 10.000911, 9.998569 
3.250412e+2, 3.0532968e+2, -13262.795, -189553.9, 17499.35, -0.06592258, 0.044051416, -11542.527, -11542.527, 0.0, 10.000699, 9.99836 
3.2504743e+2, 3.1532928e+2, 12126.947, -7032.551, 273.60257, 0.01154474, 0.16051115, 12130.854, 12130.854, 0.0, 10.000136, 9.999885 
3.349473e+2, 1.2533793e+2, -1860503.3, -1744942.6, -64494.895, 0.06028518, 0.12876137, -1716131.1, -4432.465, 0.000061273975, 9.998833, 10.000353 
3.349539e+2, 1.3533838e+2, -1675750.5, -1604328.0, 74449.32, -0.0101794675, 0.13614812, -1557468.1, 56225.72, 0.000025556885, 9.999417, 10.000368 
3.3495948e+2, 1.4533776e+2, -1572667.5, -1537887.6, -22042.371, -0.084893115, 0.05161084, -1527201.3, -11501.802, 0.0000055599335, 9.999601, 10.000058 
3.3496472e+2, 1.5533778e+2, -1514420.4, -1464027.5, -31197.428, -0.03511006, 0.05071157, -1449122.4, -31423.707, 0.00000016881297, 9.9993515, 10.000011 
3.3497012e+2, 1.653381e+2, -1404287.0, -1358367.3, -12122.646, 0.0142665785, 0.0808461, -1355363.4, -35668.06, 0.0, 9.999427, 10.000029 
3.3497533e+2, 1.7533869e+2, -1251885.3, -1235883.3, -1301.8594, 0.027510168, 0.13214266, -1235778.0, -14088.402, 0.0, 9.999808, 10.000012 
3.349802e+2, 1.8533832e+2, -1187385.3, -1233144.8, -13892.738, 0.018892074, 0.13224664, -1183497.6, -59803.504, 0.0, 9.999919, 9.999306 
3.349848e+2, 1.9533713e+2, -1106872.3, -1144255.3, -25319.316, 0.003835411, 0.078617714, -1094092.5, -68384.984, 0.0, 9.999801, 9.999301 
3.3498985e+2, 2.0533676e+2, -1000371.94, -1036424.0, -18804.645, 0.0064783036, 0.11064622, -992348.94, -64636.785, 0.0, 9.999833, 9.9993515 
3.3499518e+2, 2.1533714e+2, -876907.44, -926597.25, -24022.14, 0.02193328, 0.20903932, -867193.25, -37484.29, 0.0, 10.0000105, 9.999347 
3.350004e+2, 2.2533627e+2, -776988.8, -860143.6, -18030.926, 0.020093706, 0.20383038, -773247.4, -41529.6, 0.0, 10.000163, 9.999057 
3.350055e+2, 2.3533432e+2, -658160.25, -751579.06, -3396.7893, 0.0055208527, 0.0989158, -658036.9, -24299.65, 0.0, 10.000303, 9.999062 
3.350107e+2, 2.4533321e+2, -539306.56, -652507.1, 2983.6858, -0.005793947, 0.08594347, -539228.0, -3479.741, 0.0, 10.000486, 9.9989805 
3.3501595e+2, 2.5533283e+2, -409425.4, -539823.44, -1290.579, -0.015832173, 0.14698893, -409412.63, 28338.963, 0.0, 10.000709, 9.998975 
3.3502138e+2, 2.6533177e+2, -325775.8, -482186.13, 1662.2671, -0.012633881, 0.16134338, -325758.13, 14003.572, 0.0, 10.000755, 9.998674 
3.3502686e+2, 2.753301e+2, -241613.5, -389882.9, 18643.77, 0.004502104, 0.12194895, -239305.13, 2472.8596, 0.0, 10.000656, 9.998683 
3.3503225e+2, 2.8532872e+2, -159372.13, -338902.44, 16895.586, 0.016453635, 0.13108656, -157795.92, -14003.831, 0.0, 10.000718, 9.99833 
3.350375e+2, 2.9532763e+2, -35719.645, -230010.55, 12328.814, 0.015815746, 0.18827586, -34940.438, 10862.637, 0.0, 10.000901, 9.998317 
3.3504188e+2, 3.0532482e+2, -5004.858, -170481.81, -4757.5405, -0.06794197, 0.07002524, -4868.1895, -4868.1895, 0.0, 10.000691, 9.998495 
3.350477e+2, 3.1532413e+2, -2601.3542, -38604.813, -23174.168, 0.021978794, 0.14327171, 8741.496, 8741.496, 0.0, 10.000142, 9.999665 
3.449466e+2, 1.2533244e+2, -1787762.0, -1719534.8, -45844.574, 0.07847578, 0.11468883, -1696504.1, 15247.62, 0.000060228966, 9.999373, 10.000265 
3.449533e+2, 1.353331e+2, -1706770.0, -1619950.0, 98658.516, 0.00013719936, 0.14260617, -1555573.5, 58171.88, 0.000025763518, 9.999205, 10.000364 
3.4495905e+2, 1.453326e+2, -1613944.3, -1559445.0, -3636.169, -0.075304836, 0.07276823, -1559203.4, -43453.438, 0.000005876301, 9.999326, 10.000042 
3.4496415e+2, 1.5533255e+2, -1474433.6, -1446219.4, -15195.034, -0.04186623, 0.06306528, -1439592.5, -21842.338, 0.0000002059256, 9.999632, 9.999998 
3.449695e+2, 1.6533273e+2, -1367885.1, -1346364.9, -5150.3447, -0.0017577253, 0.08237725, -1345195.8, -25447.625, 0.0, 9.999701, 9.999978 
3.4497482e+2, 1.7533316e+2, -1287315.4, -1258424.1, -21691.316, 0.004525615, 0.12344457, -1246808.5, -25064.664, 0.0, 9.999588, 9.999964 
3.4497985e+2, 1.8533275e+2, -1214953.4, -1253051.8, -34604.332, 0.0038127375, 0.12430844, -1194501.5, -70752.94, 0.0, 9.999758, 9.999246 
3.4498486e+2, 1.953316e+2, -1056611.1, -1125716.1, -27442.967, 0.010670726, 0.08183424, -1047038.94, -21277.38, 0.0, 10.000173, 9.999247 
3.4499004e+2, 2.0533118e+2, -940860.8, -1015887.0, -12254.857, 0.022511348, 0.11323673, -938909.8, -11142.806, 0.0, 10.0002775, 9.999278 
3.4499535e+2, 2.1533136e+2, -866368.6, -928886.9, -12285.656, 0.03387645, 0.20045675, -864041.0, -34275.023, 0.0, 10.000114, 9.999281 
3.4500054e+2, 2.2533056e+2, -778352.1, -843524.56, -6750.726, 0.024501322, 0.19695275, -777660.2, -45886.098, 0.0, 10.000079, 9.999212 
3.450057e+2, 2.353289e+2, -669453.2, -740218.8, -8470.4795, -0.00051247206, 0.10549372, -668453.44, -34663.145, 0.0, 10.0001545, 9.999211 
3.4501106e+2, 2.4532793e+2, -585138.7, -679026.8, -3900.4963, -0.005360201, 0.10233265, -584976.9, -49176.746, 0.0, 10.00019, 9.998941 
3.4501663e+2, 2.5532758e+2, -486558.47, -579891.25, -859.22784, 0.006230928, 0.16953583, -486550.56, -48746.27, 0.0, 10.000191, 9.998949 
3.45022e+2, 2.6532653e+2, -376080.2, -468959.56, 475.14178, 0.0024569337, 0.16848534, -376077.75, -36263.92, 0.0, 10.000248, 9.999009 
3.4502718e+2, 2.7532485e+2, -264408.66, -365271.13, 9910.541, -0.01309208, 0.09469733, -263444.1, -21615.658, 0.0, 10.000345, 9.9990015 
3.450327e+2, 2.8532368e+2, -200735.19, -358655.47, 20830.785, 0.0020554597, 0.111190155, -198033.67, -54193.445, 0.0, 10.000433, 9.998333 
3.450384e+2, 2.9532307e+2, -89696.664, -255863.02, 33948.29, 0.037667368, 0.2123243, -83028.516, -37180.133, 0.0, 10.000528, 9.99832 
3.4504285e+2, 3.0532047e+2, 8248.57, -143243.1, 18006.682, -0.04038385, 0.1032572, 10359.477, 10359.477, 0.0, 10.000693, 9.99868 
3.450481e+2, 3.153195e+2, 89718.69, -13414.001, -4740.856, 0.01257653, 0.13681902, 89936.16, 89936.16, 0.0, 10.000861, 9.999491 
3.54945e+2, 1.2532641e+2, -1795910.5, -1736042.4, -63127.066, -0.017937733, 0.017234562, -1696111.8, 15696.353, 0.00005843651, 9.999372, 10.000154 
3.5495293e+2, 1.3532782e+2, -1709044.6, -1626166.3, 95303.54, 0.041615963, 0.12556958, -1563682.5, 50113.137, 0.000025162195, 9.99921, 10.0003195 
3.5495916e+2, 1.4532787e+2, -1613907.6, -1561212.3, 8732.621, 0.003605, 0.110554464, -1559802.9, -44006.977, 0.0000057861466, 9.999332, 10.000028 
3.549638e+2, 1.5532787e+2, -1477018.5, -1450754.5, -3440.1145, -0.03831282, 0.10942409, -1450311.4, -32515.73, 0.00000020730299, 9.999628, 9.9999695 
3.5496894e+2, 1.6532746e+2, -1396675.0, -1405261.5, -10088.404, -0.030572047, 0.09248773, -1390004.3, -70204.46, 0.0, 9.999697, 9.999576 
3.5497418e+2, 1.753267e+2, -1314024.0, -1314311.0, -24551.408, -0.018520026, 0.05610913, -1289615.6, -67808.27, 0.0, 9.99959, 9.999579 
3.549796e+2, 1.8532641e+2, -1200716.8, -1223475.6, -19246.213, 0.0011450278, 0.07643253, -1189737.6, -65926.61, 0.0, 9.999757, 9.99945 
3.549854e+2, 1.9532652e+2, -1042322.6, -1096121.4, -11911.155, 0.044626012, 0.13794704, -1039803.44, -13992.444, 0.0, 10.000171, 9.999452 
3.549906e+2, 2.053258e+2, -940928.5, -1014696.75, -18846.938, 0.050977122, 0.12961161, -936392.25, -8573.857, 0.0, 10.000272, 9.999289 
3.5499534e+2, 2.1532434e+2, -866670.9, -928384.9, -17389.068, 0.018013531, 0.051127598, -862108.44, -32276.205, 0.0, 10.000109, 9.999288 
3.5500035e+2, 2.2532374e+2, -782490.1, -850867.06, -4364.656, -0.0072828615, 0.06824364, -782212.6, -50373.387, 0.0, 10.000073, 9.999164 
3.5500562e+2, 2.3532386e+2, -673004.0, -747242.2, -5252.2295, -0.022372687, 0.16201593, -672634.25, -38794.24, 0.0, 10.000153, 9.999165 
3.5501128e+2, 2.4532335e+2, -580606.75, -668770.06, -4557.8516, 0.00091604464, 0.20265888, -580371.75, -44525.22, 0.0, 10.000186, 9.999014 
3.5501733e+2, 2.5532228e+2, -480868.06, -567154.0, -458.56302, 0.05680272, 0.1888001, -480865.63, -43007.77, 0.0, 10.000187, 9.999038 
3.5502255e+2, 2.6532102e+2, -358816.94, -432096.97, 3953.1438, 0.031041548, 0.14695258, -358604.3, -18735.248, 0.0, 10.000244, 9.999265 
3.5502702e+2, 2.7531952e+2, -247812.11, -329870.44, 14404.729, -0.06562318, 0.069966175, -245356.92, -3476.4624, 0.0, 10.000341, 9.999247 
3.550327e+2, 2.8531873e+2, -184177.86, -322966.56, 23243.44, -0.04098506, 0.10013378, -180388.66, -36500.31, 0.0, 10.000427, 9.99858 
3.5503945e+2, 2.953186e+2, -72539.99, -219142.72, 38287.277, 0.08502301, 0.2263975, -63143.08, -17251.008, 0.0, 10.000524, 9.998574 
3.5504407e+2, 3.053165e+2, 23339.62, -111179.72, 24097.633, 0.010704734, 0.14354688, 27526.146, 27526.146, 0.0, 10.000689, 9.998902 
3.550486e+2, 3.1531549e+2, 80824.17, -30602.918, -1684.4915, -0.027583113, 0.14521283, 80849.625, 80849.625, 0.0, 10.000855, 9.999375 
3.6494404e+2, 1.2532094e+2, -1846995.5, -1760355.1, -112882.73, -0.037212953, 0.034364957, -1682765.6, 29096.395, 0.000055122826, 9.999021, 10.0001545 
3.6495215e+2, 1.3532187e+2, -1658813.3, -1594375.3, 65666.125, 0.024715794, 0.08697805, -1553449.9, 60403.906, 0.000023501116, 9.999521, 10.000388 
3.6495873e+2, 1.453221e+2, -1554418.4, -1534184.9, -18005.719, 0.0065507363, 0.08881673, -1523648.5, -7796.306, 0.00000526637, 9.999747, 10.000012 
3.649635e+2, 1.5532264e+2, -1473575.1, -1450601.3, -32335.729, -0.033135504, 0.1430062, -1427772.8, -9925.289, 0.00000017249042, 9.999657, 9.999956 
3.6496872e+2, 1.6532217e+2, -1408193.3, -1427059.9, -29986.594, -0.020534618, 0.1276832, -1386191.1, -66338.55, 0.0, 9.999688, 9.99943 
3.6497402e+2, 1.7532082e+2, -1288467.8, -1316757.4, -25823.76, -0.0036726024, 0.046093166, -1273168.6, -51302.594, 0.0, 9.99983, 9.999445 
3.649795e+2, 1.8532045e+2, -1171119.8, -1189579.3, -4697.995, 0.008987667, 0.05649367, -1169992.9, -46123.03, 0.0, 9.999874, 9.999626 
3.6498526e+2, 1.9532095e+2, -1076952.3, -1093676.3, -811.4348, 0.03280902, 0.13908853, -1076913.0, -51047.742, 0.0, 9.999849, 9.999624 
3.6499053e+2, 2.0532027e+2, -986044.5, -1039524.06, -14799.717, 0.030460121, 0.12812847, -982222.06, -54350.152, 0.0, 9.999973, 9.999264 
3.649953e+2, 2.1531856e+2, -851635.25, -923533.7, -16939.055, -0.0013267184, 0.026676679, -847844.3, -17955.664, 0.0, 10.000222, 9.999267 
3.6500046e+2, 2.25318e+2, -753011.0, -839210.4, -4658.2305, -0.012943615, 0.050371908, -752760.0, -20864.36, 0.0, 10.000287, 9.999141 
3.6500597e+2, 2.3531844e+2, -668821.0, -747260.56, -4606.0425, -0.0035320625, 0.17698666, -668551.44, -34657.633, 0.0, 10.00019, 9.999146 
3.6501163e+2, 2.4531798e+2, -578070.75, -651249.75, 1410.3965, 0.01880972, 0.21679069, -578043.56, -42143.996, 0.0, 10.0001335, 9.99916 
3.650174e+2, 2.5531673e+2, -481486.72, -551974.1, 9788.888, 0.05061665, 0.1718698, -480152.53, -42240.67, 0.0, 10.000115, 9.999178 
3.6502272e+2, 2.653156e+2, -370071.47, -440224.34, 10749.708, 0.028200854, 0.13688675, -368461.25, -28539.098, 0.0, 10.000176, 9.999243 
3.6502758e+2, 2.753145e+2, -251825.05, -333351.97, -810.7715, -0.040335886, 0.10119378, -251816.98, -9886.087, 0.0, 10.0003195, 9.999234 
3.6503333e+2, 2.8531373e+2, -174737.25, -291922.63, -3613.2173, -0.019532295, 0.120620295, -174625.95, -30687.404, 0.0, 10.000377, 9.998819 
3.6503977e+2, 2.9531327e+2, -86402.19, -200377.95, 9688.106, 0.07545126, 0.1879595, -85584.55, -39640.15, 0.0, 10.000318, 9.998803 
3.6504456e+2, 3.0531168e+2, 10405.043, -106541.88, 4735.922, 0.00020975311, 0.14341296, 10596.517, 10596.517, 0.0, 10.000552, 9.9990015 
3.650495e+2, 3.15311e+2, 108142.555, -33029.58, -37216.293, -0.03135292, 0.16987084, 117352.76, 117352.76, 0.0, 10.001106, 9.99924 
3.7494355e+2, 1.2531602e+2, -1840749.4, -1745586.4, -107536.54, 0.010557353, 0.16856344, -1675574.9, 36338.68, 0.00005010573, 9.999013, 10.000259 
3.749509e+2, 1.353152e+2, -1645918.3, -1568276.6, 85880.31, -0.050891984, 0.027723165, -1512850.5, 101069.25, 0.000020857056, 9.999522, 10.0005665 
3.7495774e+2, 1.4531529e+2, -1554957.1, -1535314.1, -21494.967, -0.06889664, 0.00753904, -1521503.1, -5584.1113, 0.000004428325, 9.999747, 10.000005 
3.7496316e+2, 1.5531686e+2, -1473123.0, -1449702.8, -34987.336, -0.034111004, 0.16363905, -1424517.9, -6612.3145, 0.00000011962439, 9.999658, 9.999963 
3.7496883e+2, 1.6531685e+2, -1399907.9, -1410286.6, -24946.857, 0.019987676, 0.18885133, -1379616.4, -59709.89, 0.0, 9.999688, 9.999545 
3.749744e+2, 1.7531548e+2, -1280007.0, -1299678.9, -20051.531, 0.048125807, 0.09337719, -1267508.9, -45589.035, 0.0, 9.999831, 9.999562 
3.7497953e+2, 1.8531486e+2, -1160992.4, -1168129.8, -6377.6753, 0.024920683, 0.06450537, -1157252.9, -33327.43, 0.0, 9.999872, 9.999774 
3.749845e+2, 1.9531488e+2, -1067578.9, -1073541.3, -819.2009, -0.028202062, 0.08524493, -1067468.4, -41544.1, 0.0, 9.9998455, 9.999764 
3.7498978e+2, 2.0531459e+2, -990864.9, -1048363.7, -5703.0015, -0.04278077, 0.10875753, -990304.7, -62376.992, 0.0, 9.999969, 9.999206 
3.7499526e+2, 2.1531402e+2, -855940.1, -931496.5, -7315.09, -0.027554035, 0.12655935, -855238.44, -25303.12, 0.0, 10.000218, 9.999214 
3.7500092e+2, 2.2531335e+2, -753484.94, -839254.8, -9011.349, 0.0043940283, 0.14338541, -752548.44, -20605.086, 0.0, 10.000282, 9.999143 
3.750067e+2, 2.3531261e+2, -668314.5, -745391.3, -7848.45, 0.053509578, 0.15031867, -667523.44, -33571.637, 0.0, 10.000186, 9.999161 
3.7501204e+2, 2.4531181e+2, -563274.25, -619545.8, 343.97702, 0.045345932, 0.14418349, -563272.2, -27312.715, 0.0, 10.00013, 9.999379 
3.7501687e+2, 2.5531098e+2, -467693.94, -523216.84, 9753.543, -0.014896381, 0.119111404, -466030.38, -28064.072, 0.0, 10.000114, 9.999375 
3.7502253e+2, 2.6531032e+2, -391754.25, -485051.47, 15267.162, -0.008347218, 0.13873, -389319.47, -49346.42, 0.0, 10.000175, 9.998935 
3.750289e+2, 2.7530977e+2, -272143.47, -374053.75, 4851.9077, 0.058237586, 0.18738255, -271913.0, -29933.166, 0.0, 10.000313, 9.998958 
3.7503448e+2, 2.8530863e+2, -158825.25, -256943.3, -6031.7666, 0.061242655, 0.17178075, -158455.84, -14464.952, 0.0, 10.000368, 9.999063 
3.750394e+2, 2.95307e+2, -70725.016, -167890.0, 8788.099, 0.0050335536, 0.0982026, -69936.57, -23931.496, 0.0, 10.000319, 9.999025 
3.7504438e+2, 3.0530602e+2, 8505.179, -110714.95, 24072.959, -0.07509456, 0.10349512, 13182.493, 13182.493, 0.0, 10.000554, 9.998972 
3.7505087e+2, 3.1530622e+2, 95597.05, -55372.066, -19073.01, -0.008385765, 0.219793, 97969.4, 97969.4, 0.0, 10.001092, 9.999092 
3.849428e+2, 1.2531018e+2, -1800921.4, -1728964.0, -94576.92, 0.023364246, 0.18818018, -1663753.5, 48218.723, 0.00004363311, 9.999299, 10.000234 
3.849501e+2, 1.3530944e+2, -1692517.8, -1587392.6, 98983.99, -0.067444526, 0.051210806, -1527880.9, 86096.62, 0.000017489165, 9.999186, 10.000598 
3.8495725e+2, 1.4530952e+2, -1612293.9, -1559685.3, -15258.296, -0.072604895, 0.028050294, -1555580.1, -39603.66, 0.0000034194288, 9.999339, 10.000034 
3.8496286e+2, 1.5531074e+2, -1479643.8, -1448791.5, -29643.186, -0.026729256, 0.14444713, -1430800.9, -12834.56, 0.00000006772674, 9.999595, 9.999999 
3.8496864e+2, 1.6531089e+2, -1380587.5, -1383322.6, -14023.179, 0.02822193, 0.17473796, -1367865.4, -47899.6, 0.0, 9.999743, 9.999704 
3.849742e+2, 1.7531013e+2, -1266850.0, -1275770.5, -6605.8306, 0.046048608, 0.12533545, -1263339.6, -41366.35, 0.0, 9.999844, 9.999722 
3.8497934e+2, 1.8530965e+2, -1163663.4, -1172064.3, -3281.7563, 0.019261036, 0.10330392, -1162533.4, -38555.742, 0.0, 9.999865, 9.999751 
3.8498428e+2, 1.9530936e+2, -1075896.3, -1079831.6, -11272.483, -0.032303594, 0.09602034, -1066421.0, -40441.72, 0.0, 9.999799, 9.999743 
3.849896e+2, 2.0530908e+2, -1015524.94, -1063060.6, -11592.026, -0.0486347, 0.123734236, -1012848.75, -84865.76, 0.0, 9.999812, 9.999179 
3.8499522e+2, 2.153088e+2, -903092.56, -956592.5, -12376.684, -0.038442627, 0.17481683, -900368.06, -70379.66, 0.0, 9.999905, 9.999192 
3.8500097e+2, 2.2530815e+2, -784516.8, -840988.8, -12861.174, -0.0026167599, 0.18769777, -781725.7, -49729.61, 0.0, 10.000012, 9.999262 
3.8500693e+2, 2.3530716e+2, -667570.7, -732253.94, -4201.4146, 0.057226736, 0.1572264, -667298.94, -33293.14, 0.0, 10.000135, 9.999276 
3.850123e+2, 2.4530622e+2, -549388.75, -617353.0, -594.94446, 0.051414765, 0.13409881, -549383.5, -13369.314, 0.0, 10.000243, 9.99934 
3.8501713e+2, 2.5530538e+2, -437778.94, -513330.88, -11584.027, -0.013719146, 0.11074954, -436042.72, 1978.6422, 0.0, 10.0003395, 9.999334 
3.850228e+2, 2.653048e+2, -376243.53, -484234.9, -5734.93, -0.007308843, 0.14542727, -375939.84, -35912.266, 0.0, 10.000311, 9.998876 
3.8502917e+2, 2.7530447e+2, -298208.3, -392874.84, 1447.1614, 0.063411914, 0.22073978, -298186.2, -56153.105, 0.0, 10.00016, 9.998902 
3.8503474e+2, 2.8530326e+2, -180122.45, -264336.13, -4219.352, 0.05698403, 0.19876176, -179911.58, -35866.742, 0.0, 10.000208, 9.99909 
3.850395e+2, 2.953013e+2, -49282.777, -155805.67, -7865.9014, -0.020024877, 0.088031754, -48705.07, -2643.464, 0.0, 10.000456, 9.9990425 
3.8504496e+2, 3.0530056e+2, 22047.75, -106591.56, 10324.618, -0.07576959, 0.11971534, 22871.137, 22871.137, 0.0, 10.000656, 9.998951 
3.850522e+2, 3.1530023e+2, 50984.5, -76612.77, -36798.527, 0.033671316, 0.18460773, 60836.375, 60836.375, 0.000000000002787424, 10.000783, 9.999096 
3.9494187e+2, 1.2530339e+2, -1813225.9, -1753198.4, -111631.17, -0.0045173885, 0.08988189, -1667616.5, 44421.844, 0.0000362571, 9.999295, 10.000069 
3.9494967e+2, 1.3530459e+2, -1700419.4, -1603686.5, 97159.74, -0.028913751, 0.15761913, -1543520.4, 70506.66, 0.000013744367, 9.999185, 10.000488 
3.949572e+2, 1.4530483e+2, -1609655.1, -1552610.8, -4281.347, -0.010389226, 0.15209699, -1552291.3, -36266.758, 0.0000023661473, 9.999331, 10.000087 
3.9496258e+2, 1.5530424e+2, -1475282.4, -1439899.6, -19661.555, -0.013986427, 0.085243024, -1431141.9, -13112.148, 0.000000028035489, 9.999596, 10.000059 
3.9496812e+2, 1.6530421e+2, -1366104.0, -1353433.5, -11614.854, 0.00013999874, 0.08492251, -1346538.5, -26508.084, 0.0, 9.999744, 9.999909 
3.9497346e+2, 1.7530476e+2, -1253245.5, -1246850.9, -2497.9119, -0.0133118145, 0.14217563, -1245990.9, -23964.533, 0.0, 9.999841, 9.999922 
3.949789e+2, 1.8530479e+2, -1177548.9, -1200238.4, -5833.531, -0.0123241525, 0.17355089, -1176136.9, -52110.527, 0.0, 9.999862, 9.999559 
3.949846e+2, 1.9530436e+2, -1089328.5, -1106952.9, -13032.436, 0.017814824, 0.1715094, -1082408.6, -56378.168, 0.0, 9.999796, 9.999558 
3.9499e+2, 2.0530374e+2, -1015869.1, -1062645.5, -8704.3125, 0.009997517, 0.17336398, -1014301.94, -86264.086, 0.0, 9.999807, 9.999185 
3.9499512e+2, 2.1530294e+2, -902847.3, -955042.7, -8147.9116, -0.036860164, 0.1717165, -901605.0, -71556.94, 0.0, 9.9999, 9.999206 
3.9500064e+2, 2.2530241e+2, -768718.6, -807042.44, -8612.621, -0.0372657, 0.18301584, -766872.06, -34818.18, 0.0, 10.000008, 9.999497 
3.9500654e+2, 2.3530209e+2, -652574.56, -700585.2, 858.8068, 0.0056769117, 0.19701423, -652559.25, -18503.291, 0.0, 10.000133, 9.999495 
3.9501235e+2, 2.4530123e+2, -571104.2, -661635.25, 2393.82, 0.03459672, 0.18649602, -571040.94, -34977.043, 0.0, 10.00024, 9.999038 
3.950181e+2, 2.5529993e+2, -458543.94, -554637.5, -7816.2417, 0.050089523, 0.14652169, -457912.3, -19835.262, 0.0, 10.000332, 9.999055 
3.9502344e+2, 2.6529908e+2, -363480.84, -456183.5, -11673.057, 0.02761318, 0.1566101, -362033.56, -21947.844, 0.0, 10.000304, 9.999071 
3.9502844e+2, 2.7529866e+2, -285486.1, -367111.38, -3224.004, -0.02696499, 0.20208001, -285358.94, -43268.39, 0.0, 10.000163, 9.999078 
3.9503402e+2, 2.852976e+2, -193585.92, -292821.22, 4331.2173, -0.034908656, 0.20185737, -193397.23, -49296.973, 0.0, 10.000211, 9.998893 
3.9504012e+2, 2.952961e+2, -64551.88, -184164.23, 2218.6086, -0.0054353527, 0.15712811, -64510.74, -18396.771, 0.0, 10.000442, 9.998855 
3.950463e+2, 3.0529532e+2, 19580.828, -108468.56, 14883.1045, -0.007496773, 0.1915163, 21287.924, 21287.924, 0.0, 10.000643, 9.998944 
3.9505354e+2, 3.1529316e+2, 60968.117, -54947.082, -32673.994, 0.08420369, 0.073936835, 69543.766, 69543.766, 0.000000001718879, 10.000782, 9.999244 
4.04941e+2, 1.2529747e+2, -1817315.8, -1753282.4, -119678.95, -0.019488258, 0.07761272, -1661411.5, 50685.313, 0.000028702449, 9.99926, 10.000086 
4.049491e+2, 1.3529901e+2, -1661279.0, -1578981.0, 113649.79, -0.016258644, 0.17410856, -1499260.1, 114822.02, 0.000010028613, 9.999427, 10.000543 
4.04957e+2, 1.4529938e+2, -1578276.6, -1534973.6, 22780.701, 0.024918139, 0.17746645, -1525196.8, -9118.555, 0.0000013962007, 9.999535, 10.000111 
4.0496218e+2, 1.552984e+2, -1484337.1, -1441312.8, 1838.7235, -0.010459821, 0.06774104, -1441234.4, -23147.87, 0.000000006286357, 9.999519, 10.000087 
4.0496758e+2, 1.652983e+2, -1399271.6, -1376454.0, -2415.3909, -0.016782926, 0.061731894, -1376201.1, -56113.332, 0.0, 9.999546, 9.999847 
4.049729e+2, 1.7529905e+2, -1292756.6, -1273102.3, -14981.2, -0.04186152, 0.14630954, -1265012.6, -42930.383, 0.0, 9.9996, 9.999858 
4.0497848e+2, 1.8529911e+2, -1199563.3, -1214702.5, -20515.281, -0.032932892, 0.18645304, -1185265.6, -61183.22, 0.0, 9.999728, 9.999524 
4.049845e+2, 1.9529858e+2, -1068813.8, -1100342.3, -17101.34, 0.022507183, 0.17646322, -1061319.3, -35231.33, 0.0, 9.99995, 9.999529 
4.049901e+2, 2.0529793e+2, -981600.8, -1036695.8, -6106.048, 0.029704787, 0.17136936, -980932.25, -52836.77, 0.0, 10.000002, 9.999269 
4.0499526e+2, 2.1529715e+2, -896991.1, -942601.06, -186.47551, -0.013133304, 0.1632034, -896990.4, -66885.72, 0.0, 9.9999, 9.999291 
4.0500072e+2, 2.2529666e+2, -777278.94, -808282.7, 371.67554, -0.028306862, 0.17404671, -777274.5, -45164.69, 0.0, 9.999937, 9.999522 
4.0500644e+2, 2.3529641e+2, -656002.44, -699625.44, -6941.637, -0.01625922, 0.19330885, -654924.44, -20813.076, 0.0, 10.000099, 9.999517 
4.0501243e+2, 2.4529566e+2, -582072.5, -675845.7, -5271.18, 0.017929569, 0.19469415, -581777.1, -45658.2, 0.0, 10.000203, 9.998958 
4.050186e+2, 2.5529444e+2, -474178.38, -570246.56, -45.77989, 0.070469424, 0.17189598, -474178.34, -36046.58, 0.0, 10.000258, 9.998983 
4.0502396e+2, 2.6529345e+2, -348447.4, -441677.4, -2206.8608, 0.046821337, 0.16979532, -348395.2, -8253.846, 0.0, 10.000376, 9.999137 
4.050286e+2, 2.7529272e+2, -223077.31, -330389.0, -4797.566, -0.043029845, 0.17821501, -222863.25, 19284.824, 0.0, 10.000564, 9.999138 
4.050342e+2, 2.8529173e+2, -156177.13, -281119.28, 2294.437, -0.05225267, 0.1786786, -156135.02, -11977.331, 0.0, 10.000494, 9.998837 
4.0504056e+2, 2.9529044e+2, -107354.53, -210642.31, 10586.55, 0.0069686887, 0.16358085, -106280.62, -60110.742, 0.0, 10.000173, 9.998803 
4.0504703e+2, 3.052899e+2, -35738.164, -155480.52, 40974.184, 0.016745241, 0.23272248, -23059.762, -23059.762, 0.0, 10.00035, 9.998762 
4.0505436e+2, 3.1528705e+2, 100847.22, -26936.133, -25589.906, 0.077258855, 0.0662249, 105781.336, 105781.336, 0.00000001196501, 10.001015, 9.999326 
4.1494015e+2, 1.2529244e+2, -1804210.5, -1723921.4, -126034.94, -0.03004116, 0.15034044, -1631792.0, 80355.83, 0.000021697306, 9.999252, 10.00029 
4.1494837e+2, 1.3529274e+2, -1644506.3, -1545976.5, 121643.42, -0.0336957, 0.09852852, -1464000.6, 150142.7, 0.000006740833, 9.9994335, 10.000767 
4.1495657e+2, 1.4529319e+2, -1578863.1, -1536434.6, 22630.748, 0.02784413, 0.102075174, -1526629.6, -10491.996, 0.0000006540361, 9.9995365, 10.0001 
4.1496164e+2, 1.5529323e+2, -1485156.5, -1442299.8, 1882.9161, -0.017976185, 0.09259726, -1442217.3, -24080.66, 0.0000000002364484, 9.9995165, 10.000082 
4.1496703e+2, 1.6529316e+2, -1423780.1, -1426064.0, -850.87994, -0.025529517, 0.10646909, -1423498.0, -103359.95, 0.0, 9.999541, 9.999509 
4.1497248e+2, 1.7529301e+2, -1316383.1, -1321074.1, -12365.504, -0.0433489, 0.13798612, -1306142.6, -84001.37, 0.0, 9.999597, 9.99953 
4.149781e+2, 1.8529263e+2, -1191421.9, -1197313.5, -12909.695, -0.047032267, 0.14162321, -1181126.1, -56980.254, 0.0, 9.999726, 9.999644 
4.1498405e+2, 1.9529203e+2, -1060665.4, -1082507.9, -8534.975, -0.020409625, 0.11125624, -1057725.9, -31574.086, 0.0, 9.999947, 9.999654 
4.149899e+2, 2.0529161e+2, -970394.44, -1012352.1, -10353.018, 0.007837127, 0.117994785, -967978.94, -39823.016, 0.0, 9.999997, 9.999438 
4.149956e+2, 2.1529141e+2, -886608.9, -919640.7, -3239.336, 0.030149871, 0.14918861, -886294.2, -56135.824, 0.0, 9.999894, 9.999452 
4.1500115e+2, 2.2529091e+2, -790929.06, -835565.3, 6109.745, 0.021466443, 0.16058797, -790107.9, -57943.97, 0.0, 9.999932, 9.999337 
4.1500658e+2, 2.3529014e+2, -668669.8, -725063.56, -348.081, -0.011797817, 0.14666916, -668667.6, -34495.594, 0.0, 10.000095, 9.999345 
4.1501242e+2, 2.4528949e+2, -572442.9, -654873.44, -3627.1938, -0.0020672905, 0.1590262, -572283.6, -36104.324, 0.0, 10.000198, 9.999104 
4.1501862e+2, 2.552889e+2, -464933.0, -550626.25, 2550.7832, 0.04538676, 0.18613087, -464857.16, -26671.549, 0.0, 10.000257, 9.999119 
4.1502434e+2, 2.6528797e+2, -353884.4, -451923.16, 4297.1646, 0.048001815, 0.18445444, -353696.4, -13501.882, 0.0, 10.000372, 9.999067 
4.1502973e+2, 2.7528673e+2, -229494.89, -340424.56, 2727.4446, 0.010435203, 0.1498779, -229427.88, 12777.83, 0.0, 10.000549, 9.999075 
4.1503522e+2, 2.8528553e+2, -151169.66, -268193.94, -10418.231, -0.00000073608993, 0.12991959, -150249.39, -6032.2783, 0.0, 10.0004835, 9.998931 
4.150408e+2, 2.952843e+2, -100711.54, -197218.88, -684.61993, 0.013631814, 0.10921185, -100706.68, -54477.49, 0.0, 10.0001745, 9.998894 
4.1504714e+2, 3.0528426e+2, -60176.22, -206925.92, 65440.496, -0.0060580433, 0.24465743, -35233.59, -35233.59, 0.0, 10.000353, 9.998407 
4.1505465e+2, 3.152819e+2, 98928.414, -26737.326, -1465.8375, 0.0040320894, 0.15952392, 98945.51, 98945.51, 0.000000036873733, 10.000998, 9.999333 
4.2493954e+2, 1.2528694e+2, -1807188.3, -1719397.0, -116938.67, -0.012989572, 0.15999435, -1638386.8, 73815.79, 0.000015823704, 9.999209, 10.000341 
4.2494753e+2, 1.3528717e+2, -1651167.9, -1542104.5, 128569.18, -0.052954804, 0.0940186, -1456980.5, 157217.69, 0.0000041887733, 9.999356, 10.000831 
4.2495602e+2, 1.4528777e+2, -1591081.9, -1560957.4, 14085.523, 0.020542903, 0.11549951, -1555397.4, -39206.156, 0.00000021832761, 9.999534, 9.999933 
4.249611e+2, 1.5528773e+2, -1483235.6, -1458883.0, -21741.703, -0.029186625, 0.11694765, -1446140.1, -27948.734, 0.0, 9.999606, 9.999925 
4.2496663e+2, 1.652875e+2, -1403156.3, -1410459.4, -12009.106, -0.026753636, 0.11942914, -1394255.9, -74061.73, 0.0, 9.9996605, 9.999558 
4.2497236e+2, 1.752871e+2, -1292019.9, -1304420.5, 4397.089, -0.022519536, 0.1197028, -1290619.0, -68420.43, 0.0, 9.999743, 9.999574 
4.2497802e+2, 1.8528661e+2, -1191839.0, -1212736.9, 10026.606, -0.028239409, 0.118114404, -1187806.4, -63602.33, 0.0, 9.999789, 9.999508 
4.2498383e+2, 1.9528604e+2, -1091334.0, -1111664.3, -5920.806, -0.027470201, 0.106382206, -1089735.4, -63524.813, 0.0, 9.999799, 9.999524 
4.2498973e+2, 2.0528565e+2, -979799.0, -1000835.25, -21125.451, -0.0031320774, 0.113846496, -966718.06, -38503.746, 0.0, 9.999866, 9.99958 
4.2499557e+2, 2.1528544e+2, -864143.56, -893826.25, -16935.31, 0.03591338, 0.12929264, -856466.7, -26251.096, 0.0, 9.999984, 9.999585 
4.2500132e+2, 2.252849e+2, -780693.1, -846807.0, -1949.5631, 0.03848225, 0.13844231, -780635.7, -48414.27, 0.0, 10.0000725, 9.999192 
4.2500693e+2, 2.352841e+2, -671879.1, -741624.3, -6745.9277, 0.010830021, 0.13583013, -671232.6, -37001.47, 0.0, 10.000139, 9.999209 
4.250127e+2, 2.4528351e+2, -560561.9, -637181.4, -10398.812, 0.00580044, 0.15525432, -559175.6, -22937.566, 0.0, 10.000229, 9.99921 
4.2501864e+2, 2.5528306e+2, -445181.16, -529821.6, -8359.786, 0.020125505, 0.18466651, -444363.38, -6120.757, 0.0, 10.000343, 9.99922 
4.2502448e+2, 2.6528215e+2, -378517.8, -466460.3, -11462.446, 0.029508721, 0.18371607, -377048.34, -36797.387, 0.0, 10.000213, 9.999045 
4.2503017e+2, 2.7528092e+2, -331786.38, -391506.13, -10078.053, 0.035337508, 0.14860132, -330131.5, -87868.91, 0.0, 9.999854, 9.99906 
4.2503577e+2, 2.8527966e+2, -215885.14, -300182.16, -13129.241, 0.029896157, 0.12479464, -213887.6, -69612.945, 0.0, 10.000042, 9.998924 
4.2504126e+2, 2.952783e+2, -19506.514, -158380.7, -13540.192, 0.014337434, 0.09568506, -18198.666, 28089.08, 0.0, 10.000732, 9.998892 
4.2504764e+2, 3.0527845e+2, -9345.762, -188240.2, 55415.992, -0.01171581, 0.24839093, 6429.343, 6429.343, 0.0, 10.000728, 9.998356 
4.2505497e+2, 3.1527632e+2, -10581.034, -42896.523, 8949.875, -0.018798448, 0.19254883, -8267.91, -8267.91, 0.00000007454206, 10.000088, 9.999662 
4.3493918e+2, 1.2528098e+2, -1815815.4, -1736853.8, -123149.21, 0.02463309, 0.10541003, -1647011.5, 65249.16, 0.0000113764345, 9.999208, 10.000221 
4.349467e+2, 1.3528234e+2, -1657917.8, -1557505.3, 136680.16, -0.076446556, 0.16220595, -1462102.0, 152144.48, 0.0000025044064, 9.99936, 10.000725 
4.3495536e+2, 1.4528307e+2, -1613799.5, -1607740.3, 17677.098, -0.001426699, 0.21970394, -1592835.1, -76595.984, 0.000000047491298, 9.999532, 9.999613 
4.3496048e+2, 1.552819e+2, -1505134.6, -1503553.9, -18682.104, -0.04910796, 0.13987434, -1485645.4, -67394.3, 0.0, 9.999603, 9.9996195 
4.349663e+2, 1.652813e+2, -1373430.8, -1348086.4, -9636.4375, -0.025976889, 0.09946442, -1344838.6, -24582.498, 0.0, 9.999658, 9.999988 
4.349725e+2, 1.7528127e+2, -1263284.9, -1244411.6, 8224.253, 0.018476723, 0.091936976, -1241330.8, -19076.535, 0.0, 9.999742, 9.999987 
4.349783e+2, 1.8528105e+2, -1220291.0, -1270812.4, 9920.9, 0.020173775, 0.11748313, -1218412.8, -94155.73, 0.0, 9.999785, 9.999111 
4.3498388e+2, 1.9528066e+2, -1119090.9, -1167946.6, -5123.844, -0.0014941695, 0.16241544, -1118559.3, -92294.99, 0.0, 9.999794, 9.99914 
4.3498954e+2, 2.0528004e+2, -972646.94, -984479.75, -16917.055, -0.005815604, 0.1586595, -960641.56, -32370.824, 0.0, 9.999859, 9.999696 
4.3499523e+2, 2.1527922e+2, -857189.1, -878166.44, -11838.281, 0.00072542415, 0.10383029, -851861.44, -21585.113, 0.0, 9.999979, 9.999695 
4.350012e+2, 2.2527865e+2, -788699.9, -862661.6, -78.316086, 0.019004822, 0.10842675, -788699.8, -56417.344, 0.0, 10.000069, 9.999085 
4.3500745e+2, 2.3527828e+2, -679431.1, -756602.56, -3854.4595, 0.049588386, 0.15975024, -679239.1, -44950.234, 0.0, 10.000135, 9.999108 
4.3501326e+2, 2.4527769e+2, -556668.0, -628052.3, -6502.473, 0.039392393, 0.18261495, -556080.5, -19784.934, 0.0, 10.000225, 9.999275 
4.3501872e+2, 2.552769e+2, -441371.44, -520706.13, -3882.4626, -0.0095406175, 0.16876282, -441181.9, -2879.0767, 0.0, 10.000339, 9.999285 
4.3502426e+2, 2.6527604e+2, -377064.3, -462424.03, -25617.799, -0.012285115, 0.16841434, -369966.25, -29655.555, 0.0, 10.000209, 9.999075 
4.3502995e+2, 2.752752e+2, -330018.0, -387430.72, -22519.23, 0.028866824, 0.17398208, -322239.13, -79920.26, 0.0, 9.999852, 9.999089 
4.3503585e+2, 2.8527406e+2, -223992.66, -315701.03, 12320.311, 0.034253668, 0.16277725, -222366.36, -78035.96, 0.0, 10.000037, 9.998819 
4.350419e+2, 2.9527253e+2, -27771.9, -172870.02, 12231.709, 0.0045642094, 0.12264386, -26747.998, 19597.643, 0.0, 10.000722, 9.998797 
4.3504843e+2, 3.052724e+2, 6895.7134, -151890.8, 30299.205, -0.0048660063, 0.24410652, 12480.872, 12480.872, 0.0, 10.000717, 9.99861 
4.3505523e+2, 3.1527027e+2, 33221.605, 49830.688, -13188.372, -0.00053296954, 0.16101673, 57111.348, 57111.348, 0.0000001100893, 10.000081, 10.000301 
4.4493854e+2, 1.2527551e+2, -1808785.4, -1760321.8, -137331.97, 0.031920724, 0.11820716, -1645100.1, 67213.8, 0.000008277144, 9.999376, 9.999978 
4.4494614e+2, 1.3527644e+2, -1615797.1, -1563526.0, 121698.65, -0.08645122, 0.15788347, -1465188.1, 149116.66, 0.0000015575915, 9.999762, 10.000491 
4.4495517e+2, 1.4527719e+2, -1567695.9, -1580350.5, -373.72217, 0.010976566, 0.22659005, -1567684.9, -51387.406, 0.000000013935479, 9.999827, 9.999659 
4.449601e+2, 1.5527608e+2, -1514830.8, -1502839.0, -12008.445, -0.044655018, 0.14658979, -1495412.8, -77104.16, 0.0, 9.999515, 9.999667 
4.4496593e+2, 1.6527544e+2, -1391892.4, -1361017.4, 5533.3438, -0.024701694, 0.10192308, -1360055.6, -39741.89, 0.0, 9.999549, 9.99995 
4.449724e+2, 1.752753e+2, -1240393.3, -1236669.3, -12607.311, 0.021751504, 0.087949336, -1225787.1, -3474.4849, 0.0, 9.999915, 9.999955 
4.4497827e+2, 1.8527515e+2, -1175661.1, -1240896.4, -16969.824, 0.026077457, 0.117869325, -1171510.8, -47196.195, 0.0, 10.000057, 9.999185 
4.4498387e+2, 1.9527495e+2, -1083886.4, -1143307.5, 2725.2573, 0.0068891738, 0.17555691, -1083761.6, -57442.016, 0.0, 10.000003, 9.999208 
4.449895e+2, 2.0527431e+2, -964876.94, -996042.44, 1712.9423, -0.0023248005, 0.17342062, -964783.06, -36456.59, 0.0, 9.999979, 9.999558 
4.449951e+2, 2.1527329e+2, -866066.0, -897428.44, -13051.193, -0.0077822246, 0.11097094, -861345.44, -31010.527, 0.0, 9.999983, 9.99956 
4.4500118e+2, 2.2527267e+2, -788366.44, -860238.6, -3057.5027, 0.011548006, 0.117659, -788236.6, -55895.16, 0.0, 10.000064, 9.9991045 
4.4500765e+2, 2.3527244e+2, -667353.1, -749384.1, 1335.7706, 0.054436542, 0.17810614, -667331.4, -32984.99, 0.0, 10.000213, 9.999121 
4.450136e+2, 2.4527174e+2, -565760.8, -641180.9, -6337.0815, 0.053541362, 0.1943374, -565232.06, -28878.057, 0.0, 10.000199, 9.999198 
4.450191e+2, 2.5527066e+2, -490002.78, -551964.8, -15429.581, 0.011766095, 0.16101162, -486373.16, -48009.063, 0.0, 10.000039, 9.999214 
4.4502452e+2, 2.652698e+2, -394030.53, -481007.97, -45489.707, -0.0039055196, 0.16568787, -374586.1, -34213.465, 0.0, 10.000137, 9.998981 
4.450299e+2, 2.7526912e+2, -245587.88, -357112.2, -52756.605, 0.0062960926, 0.19944628, -224586.27, 17793.309, 0.0, 10.000476, 9.998997 
4.4503576e+2, 2.85268e+2, -168288.94, -274891.94, -9331.145, 0.006139985, 0.18957241, -167478.33, -23087.857, 0.0, 10.000359, 9.998946 
4.4504204e+2, 2.9526636e+2, -150987.61, -216811.05, 6293.163, -0.0045177606, 0.12441408, -150391.33, -103985.53, 0.0, 9.999809, 9.998936 
4.450489e+2, 3.0526587e+2, -122078.984, -212806.97, 21792.479, 0.014076608, 0.20178424, -117116.01, -117116.01, 0.00000000000009396187, 9.999825, 9.998622 
4.4505563e+2, 3.1526396e+2, 95833.9, 116429.62, -41752.35, 0.018980552, 0.1397542, 149135.3, 149135.3, 0.00000013361628, 10.000354, 10.000628 
4.5493758e+2, 1.2527047e+2, -1832880.5, -1811467.3, -133400.77, -0.0010544229, 0.19684894, -1688344.1, 24018.455, 0.0000061456926, 9.999381, 9.999624 
4.5494592e+2, 1.3526945e+2, -1640878.8, -1616001.5, 137680.58, -0.08529717, 0.07838166, -1490198.9, 124174.625, 0.0000010596042, 9.999762, 10.000133 
4.5495546e+2, 1.4527011e+2, -1539413.5, -1520658.1, -10819.521, 0.05421779, 0.13386573, -1515717.9, 648.81555, 0.000000007555667, 9.999823, 10.000071 
4.5495987e+2, 1.5527026e+2, -1487525.8, -1445589.9, -22055.568, -0.019870434, 0.13844398, -1436125.9, -17762.12, 0.0, 9.999513, 10.000061 
4.5496544e+2, 1.6526991e+2, -1426918.3, -1433755.3, 18604.563, -0.027432527, 0.12944503, -1411420.8, -91054.05, 0.0, 9.99955, 9.999452 
4.549719e+2, 1.752692e+2, -1274494.5, -1306469.3, 1444.5658, -0.015146009, 0.107737295, -1274429.4, -52055.34, 0.0, 9.99991, 9.999478 
4.5497793e+2, 1.852689e+2, -1138372.1, -1161682.8, -19169.668, -0.013842737, 0.11792422, -1127592.6, -3215.5627, 0.0, 10.00005, 9.999732 
4.5498374e+2, 1.9526896e+2, -1047740.5, -1067203.6, 1245.5363, -0.0058991266, 0.14568654, -1047661.1, -21284.629, 0.0, 9.999999, 9.999732 
4.5498952e+2, 2.052685e+2, -993118.2, -1053572.3, 1256.2732, 0.0035562648, 0.15858798, -993092.06, -64710.67, 0.0, 9.999973, 9.999166 
4.5499527e+2, 2.1526764e+2, -892936.4, -952258.5, -12196.986, 0.008464811, 0.15116721, -890526.5, -60135.29, 0.0, 9.999979, 9.999186 
4.550013e+2, 2.25267e+2, -779767.06, -841096.44, 2152.536, 0.014480826, 0.16604881, -779691.56, -47293.043, 0.0, 10.000058, 9.999239 
4.5500758e+2, 2.3526654e+2, -658931.06, -731274.56, 7010.3315, 0.022983687, 0.19182506, -658258.0, -23854.229, 0.0, 10.00021, 9.999247 
4.5501372e+2, 2.4526563e+2, -581368.8, -673013.44, -13134.777, 0.04534229, 0.19157824, -579523.44, -43110.16, 0.0, 10.000196, 9.9989805 
4.5501983e+2, 2.5526434e+2, -505910.03, -583211.9, -20920.65, 0.08069957, 0.16012144, -500611.34, -62184.72, 0.0, 10.000031, 9.999003 
4.550252e+2, 2.6526338e+2, -410145.72, -513120.28, -33069.754, 0.052064978, 0.17467308, -400440.28, -60003.234, 0.0, 10.000132, 9.998764 
4.5502996e+2, 2.7526268e+2, -260423.7, -387722.6, -39700.93, -0.036137953, 0.22495613, -249057.05, -6612.259, 0.0, 10.000475, 9.998788 
4.5503548e+2, 2.8526154e+2, -144031.73, -223244.19, -30702.797, -0.058077037, 0.20511594, -133524.94, 10929.999, 0.0, 10.000354, 9.999303 
4.5504174e+2, 2.9525986e+2, -126429.86, -164318.27, -13501.421, -0.017386716, 0.102110274, -122110.98, -75642.7, 0.0, 9.999803, 9.999299 
4.5504898e+2, 3.0525884e+2, -139528.98, -246687.34, 41212.02, 0.04079847, 0.122254744, -125512.61, -125512.61, 0.00000000000087855477, 9.999816, 9.998393 
4.5505613e+2, 3.1525725e+2, 95179.984, 118126.5, -18881.836, 0.031448655, 0.115919866, 128747.57, 128747.57, 0.00000014519496, 10.000342, 10.000645 
4.6493712e+2, 1.2526439e+2, -1775952.1, -1782758.4, -177345.6, -0.0032591964, 0.21806994, -1601977.0, 110445.734, 0.000004581255, 9.999773, 9.99963 
4.649454e+2, 1.3526298e+2, -1693478.5, -1643771.9, 128074.19, -0.09499546, 0.06286552, -1538161.9, 76275.47, 0.0000007444035, 9.99941, 10.000112 
4.649553e+2, 1.4526373e+2, -1573147.4, -1519330.3, -14040.571, 0.07360632, 0.12062045, -1515887.4, 541.96826, 0.0000000034677494, 9.9995165, 10.000227 
4.6495965e+2, 1.5526414e+2, -1408135.1, -1389439.0, -47048.52, -0.014542583, 0.13506117, -1350818.9, 67604.586, 0.0, 9.999981, 10.00022 
4.6496513e+2, 1.6526394e+2, -1355990.6, -1400621.9, 3803.366, -0.0359965, 0.13278033, -1355668.9, -35243.996, 0.0, 10.000041, 9.999442 
4.6497157e+2, 1.7526324e+2, -1299337.0, -1319425.8, 23022.053, -0.034471538, 0.11494494, -1284263.6, -61831.38, 0.0, 9.999743, 9.99947 
4.6497765e+2, 1.8526281e+2, -1190069.1, -1185324.8, 1132.1072, -0.028100181, 0.11113901, -1185068.5, -60632.223, 0.0, 9.999689, 9.999743 
4.649837e+2, 1.9526258e+2, -1065894.5, -1075057.8, -19069.926, -0.0028626008, 0.11042391, -1050863.5, -24425.99, 0.0, 9.99987, 9.99974 
4.649896e+2, 2.0526215e+2, -996319.9, -1062721.6, -26263.604, 0.012443109, 0.12735738, -987187.9, -58745.402, 0.0, 9.999986, 9.999097 
4.649953e+2, 2.1526155e+2, -889964.9, -958357.56, -17079.719, 0.011568454, 0.15309194, -885936.75, -55486.2, 0.0, 10.000032, 9.999118 
4.650013e+2, 2.2526093e+2, -772348.6, -825928.0, 10524.579, 0.012979568, 0.16709417, -770355.44, -37897.82, 0.0, 10.000057, 9.999343 
4.6500766e+2, 2.3526025e+2, -673563.1, -727003.94, 12583.936, 0.017631209, 0.16215064, -670748.2, -36284.508, 0.0, 10.000062, 9.999347 
4.6501392e+2, 2.4525937e+2, -586654.0, -693811.9, -5248.9634, 0.039889462, 0.16654392, -586397.5, -49924.207, 0.0, 10.00024, 9.9988165 
4.6502012e+2, 2.5525826e+2, -436893.9, -568568.2, -10527.15, 0.07803007, 0.17104396, -436057.6, 2428.5933, 0.0, 10.000585, 9.998837 
4.6502563e+2, 2.6525724e+2, -336799.56, -470906.47, -11343.421, 0.05937803, 0.18417385, -335846.84, 4650.5957, 0.0, 10.000606, 9.998826 
4.650306e+2, 2.7525625e+2, -277912.5, -389021.3, 1163.2932, -0.011518654, 0.19957234, -277900.3, -35393.227, 0.0, 10.000326, 9.998849 
4.6503595e+2, 2.8525516e+2, -167669.53, -246908.75, -6087.808, -0.043426916, 0.18753901, -167204.55, -22687.805, 0.0, 10.000244, 9.999193 
4.650416e+2, 2.9525384e+2, -56719.9, -141829.72, -25017.95, -0.036845084, 0.13152742, -49910.67, -3383.3076, 0.0, 10.000328, 9.999202 
4.6504888e+2, 3.0525237e+2, -98191.3, -236804.53, 30398.35, 0.03497631, 0.11176245, -91817.88, -91817.88, 0.00000000000042122027, 10.00014, 9.998306 
4.6505633e+2, 3.1525084e+2, 1640.0826, 75236.73, -18658.123, 0.050046086, 0.12505968, 79696.64, 79696.64, 0.00000014428599, 9.999687, 10.000667 
4.7493714e+2, 1.2525724e+2, -1751245.9, -1730822.1, -199726.81, 0.01615424, 0.18044515, -1541046.3, 171448.45, 0.0000033199578, 9.999768, 9.999989 
4.7494453e+2, 1.3525707e+2, -1670810.0, -1597889.3, 117520.27, -0.12297878, 0.11597387, -1511303.5, 103192.66, 0.00000048107097, 9.999413, 10.000426 
4.749547e+2, 1.452581e+2, -1578454.9, -1532495.9, 3920.95, 0.060690586, 0.19284517, -1532163.8, -15678.684, 0.000000000765976, 9.999524, 10.0001335 
4.7495946e+2, 1.552577e+2, -1414015.1, -1400894.9, -29563.662, -0.030668229, 0.13557933, -1377172.3, 41315.484, 0.0, 9.999978, 10.000143 
4.7496507e+2, 1.6525748e+2, -1322451.8, -1330037.1, -7667.878, -0.05260055, 0.11073655, -1317689.9, 2798.6228, 0.0, 10.000036, 9.999928 
4.7497123e+2, 1.7525744e+2, -1267011.5, -1251693.0, 13073.639, -0.04225059, 0.11003446, -1244200.3, -21712.914, 0.0, 9.999742, 9.999935 
4.749774e+2, 1.8525691e+2, -1226875.4, -1261384.5, 7460.9707, -0.023376908, 0.099591166, -1225331.4, -100839.24, 0.0, 9.999687, 9.999223 
4.7498375e+2, 1.9525588e+2, -1101187.0, -1148272.0, -11564.763, 0.014974478, 0.06982339, -1098499.9, -71997.07, 0.0, 9.999869, 9.999238 
4.7498968e+2, 2.0525526e+2, -980774.5, -1028422.06, -24827.23, 0.022432743, 0.07937431, -970189.5, -41679.863, 0.0, 9.999977, 9.999336 
4.749952e+2, 2.15255e+2, -873731.56, -924017.5, -15016.547, -0.001881146, 0.116845936, -869588.6, -39075.62, 0.0, 10.00003, 9.999355 
4.7500128e+2, 2.2525445e+2, -767497.7, -814812.94, 9892.516, 0.0025448212, 0.121176384, -765512.6, -32994.008, 0.0, 10.000052, 9.999422 
4.750079e+2, 2.3525357e+2, -668371.1, -715315.3, 13497.26, 0.035931088, 0.08820253, -664767.06, -30240.883, 0.0, 10.000057, 9.99943 
4.750141e+2, 2.452529e+2, -596266.2, -712609.7, 7130.402, 0.034601193, 0.11832398, -595830.8, -59296.668, 0.0, 10.000235, 9.99869 
4.7501993e+2, 2.5525242e+2, -445378.2, -586019.56, 2298.1218, 0.0007947084, 0.1945625, -445340.66, -6797.8477, 0.0, 10.000584, 9.998719 
4.7502583e+2, 2.6525137e+2, -313720.38, -422274.16, -22399.453, 0.015296052, 0.1954218, -309280.0, 31273.814, 0.0, 10.000603, 9.999162 
4.750318e+2, 2.7524984e+2, -256697.75, -342779.63, -8789.785, 0.07527831, 0.1238595, -255809.4, -13242.74, 0.0, 10.000317, 9.999171 
4.7503707e+2, 2.8524888e+2, -208646.94, -329788.6, -3417.9556, 0.04555654, 0.13687599, -208550.58, -63974.49, 0.0, 10.000235, 9.998629 
4.7504166e+2, 2.952483e+2, -94789.81, -220793.7, -21263.236, -0.067168616, 0.21000738, -91298.375, -44714.98, 0.0, 10.000328, 9.998659 
4.750486e+2, 3.0524632e+2, -95172.2, -229254.47, 12647.772, -0.006672568, 0.1671157, -93989.586, -93989.586, 0.0, 10.000135, 9.99836 
4.7505617e+2, 3.1524462e+2, 3360.4648, 81704.15, -29011.58, 0.06536951, 0.15665856, 91277.61, 91277.61, 0.00000012581201, 9.999676, 10.000716 
4.84937e+2, 1.2525079e+2, -1743376.6, -1709389.8, -158375.86, 0.028894901, 0.146029, -1567098.3, 145459.34, 0.0000022837717, 9.999751, 10.000142 
4.84944e+2, 1.3525118e+2, -1610705.5, -1557836.8, 146077.9, -0.1326776, 0.12535036, -1435820.8, 178732.6, 0.0000002759338, 9.999776, 10.000526 
4.8495445e+2, 1.4525233e+2, -1557170.9, -1536477.6, 35486.01, 0.07269585, 0.21611553, -1509860.6, 6680.4854, 0.000000000009128432, 9.999733, 10.000005 
4.8495913e+2, 1.5525146e+2, -1491022.0, -1452151.5, -3923.007, -0.038256064, 0.124649405, -1451759.5, -33210.855, 0.0, 9.99951, 10.000018 
4.8496473e+2, 1.6525118e+2, -1390879.3, -1355927.4, -2863.6414, -0.06258798, 0.09673725, -1355694.3, -35143.92, 0.0, 9.9995365, 9.999992 
4.8497108e+2, 1.7525148e+2, -1247651.1, -1235521.1, -15202.493, -0.035512283, 0.123575814, -1225218.5, -2672.3372, 0.0, 9.999845, 9.999997 
4.8497733e+2, 1.85251e+2, -1176320.5, -1238032.8, -10555.4375, -0.016229646, 0.11476337, -1174565.0, -50014.625, 0.0, 10.000037, 9.999215 
4.8498365e+2, 1.9524974e+2, -1067361.8, -1132367.3, 7858.5474, 0.0037481966, 0.064469665, -1066425.3, -39862.723, 0.0, 10.000103, 9.999235 
4.849896e+2, 2.0524904e+2, -949592.6, -1000612.4, 5916.412, 0.010723242, 0.061111473, -948915.5, -20346.148, 0.0, 10.000134, 9.999453 
4.8499534e+2, 2.1524885e+2, -851100.4, -900729.5, 6191.4556, 0.0028380116, 0.09327025, -850339.6, -19768.373, 0.0, 10.000132, 9.999467 
4.8500147e+2, 2.2524826e+2, -762049.6, -833215.7, 17776.316, 0.009476987, 0.09889351, -757856.44, -25279.053, 0.0, 10.000181, 9.999232 
4.85008e+2, 2.3524727e+2, -649009.75, -726866.1, -992.2949, 0.029464247, 0.07288145, -648997.1, -14409.849, 0.0, 10.000279, 9.999243 
4.850142e+2, 2.4524663e+2, -591543.56, -700087.44, -7057.6636, 0.02125983, 0.10782302, -591086.56, -54491.082, 0.0, 10.000222, 9.998782 
4.8502007e+2, 2.5524622e+2, -521764.0, -612062.44, 3442.702, -0.013552627, 0.18653858, -521632.94, -83030.45, 0.0, 10.000013, 9.998814 
4.8502597e+2, 2.652452e+2, -399851.9, -458852.25, -29175.635, 0.0028600262, 0.1824838, -387861.38, -47248.3, 0.0, 9.99999, 9.999205 
4.8503196e+2, 2.752436e+2, -281207.75, -350847.34, -38095.77, 0.06699287, 0.098832645, -264416.44, -21789.701, 0.0, 10.000132, 9.999207 
4.8503736e+2, 2.8524277e+2, -204148.52, -336361.03, -15274.941, 0.04846343, 0.1270145, -202406.7, -57771.336, 0.0, 10.000303, 9.99855 
4.8504227e+2, 2.952425e+2, -75155.016, -218967.34, 549.0442, -0.04596201, 0.24246398, -75152.92, -28512.78, 0.0, 10.000496, 9.99859 
4.8504907e+2, 3.052402e+2, -46986.34, -211395.22, 31451.77, 0.0087914895, 0.16760783, -41174.965, -41174.965, 0.0, 10.00049, 9.998312 
4.8505574e+2, 3.1523874e+2, 75925.5, 94920.9, -15135.032, 0.02721846, 0.18734813, 103291.484, 103291.484, 0.00000009052117, 10.000268, 10.000522 
4.949367e+2, 1.2524508e+2, -1748005.4, -1719238.9, -161138.3, 0.019631669, 0.11573356, -1571843.3, 140767.84, 0.0000015131136, 9.999752, 10.000074 
4.949439e+2, 1.3524525e+2, -1620062.0, -1576838.6, 148951.52, -0.12453503, 0.0888231, -1447939.1, 166670.08, 0.00000014199817, 9.999773, 10.000399 
4.9495453e+2, 1.4524637e+2, -1569246.5, -1560843.5, 28199.807, 0.10769829, 0.18946542, -1536533.9, -19936.191, 0.0, 9.999729, 9.999841 
4.9495858e+2, 1.5524542e+2, -1503019.6, -1476537.0, -11139.797, -0.045248896, 0.10474599, -1472474.4, -53868.223, 0.0, 9.999508, 9.999851 
4.9496415e+2, 1.6524506e+2, -1416031.5, -1409290.3, 7541.897, -0.074820995, 0.09584119, -1404400.1, -83790.055, 0.0, 9.999541, 9.999624 
4.9497113e+2, 1.7524531e+2, -1272173.3, -1286474.0, -3020.4626, -0.014865639, 0.15556766, -1271561.5, -48952.625, 0.0, 9.999845, 9.999648 
4.9497744e+2, 1.85245e+2, -1141761.0, -1164724.8, -8196.355, -0.008253658, 0.15684618, -1139135.6, -14524.503, 0.0, 10.0000305, 9.999722 
4.949833e+2, 1.9524413e+2, -1032425.8, -1059994.0, 10786.99, -0.040822387, 0.09375039, -1028706.75, -2089.7783, 0.0, 10.000103, 9.999732 
4.9498937e+2, 2.0524351e+2, -950103.9, -1000635.0, 5192.8213, -0.028255546, 0.07227281, -949575.8, -20954.068, 0.0, 10.00013, 9.9994545 
4.9499565e+2, 2.152431e+2, -851830.5, -901996.8, 7044.5557, 0.02393755, 0.0808408, -850860.06, -20234.709, 0.0, 10.00013, 9.999459 
4.9500185e+2, 2.2524238e+2, -796486.6, -903199.44, 20928.96, 0.030310277, 0.09863215, -792528.7, -59894.85, 0.0, 10.0001745, 9.998755 
4.9500793e+2, 2.3524135e+2, -681272.4, -794052.8, 2823.892, -0.0038593449, 0.11673939, -681201.7, -46554.902, 0.0, 10.000279, 9.998782 
4.9501416e+2, 2.4524048e+2, -570270.7, -655161.9, -15464.28, -0.002892239, 0.13588399, -567541.4, -30884.17, 0.0, 10.000218, 9.999093 
4.9502054e+2, 2.5523973e+2, -500881.4, -568045.44, -3651.3914, 0.031151991, 0.1467504, -500683.47, -62018.19, 0.0, 10.0000105, 9.999118 
4.950261e+2, 2.6523873e+2, -418079.47, -495906.97, -24511.14, 0.018058335, 0.14439593, -411003.28, -70327.87, 0.0, 9.999988, 9.998952 
4.95031e+2, 2.7523753e+2, -298091.44, -385954.3, -32082.156, -0.038798053, 0.12262348, -287624.0, -44936.535, 0.0, 10.000132, 9.998965 
4.950368e+2, 2.8523678e+2, -177424.11, -279581.8, -8431.483, -0.036489986, 0.15705352, -176732.9, -32038.299, 0.0, 10.000298, 9.998943 
4.9504343e+2, 2.9523653e+2, -48476.395, -161345.27, 8587.188, 0.021528361, 0.23142967, -47826.813, -1129.3065, 0.0, 10.000487, 9.998991 
4.9505022e+2, 3.0523396e+2, -59466.24, -234720.22, 22924.91, 0.076902896, 0.11596375, -56517.066, -56517.066, 0.0, 10.00048, 9.998156 
4.9505505e+2, 3.1523302e+2, 45978.355, 35013.19, -16106.6, -0.07217166, 0.20822401, 57509.92, 57509.92, 0.000000050936965, 10.00026, 10.0001135 
5.049364e+2, 1.252394e+2, -1793584.6, -1756230.8, -174636.88, 0.029144244, 0.11684748, -1599274.9, 113390.76, 0.0000009949754, 9.999508, 9.999936 
5.0494355e+2, 1.3523924e+2, -1597461.8, -1587469.5, 131809.86, -0.14599805, 0.075826585, -1460561.1, 154106.84, 0.000000065122016, 10.000018, 10.000209 
5.049545e+2, 1.452403e+2, -1502705.1, -1514841.9, 3070.2693, 0.11476095, 0.17501318, -1501972.6, 14684.053, 0.0, 10.000126, 9.999965 
5.049583e+2, 1.5523951e+2, -1443597.1, -1434949.6, -17750.918, -0.04163293, 0.09287941, -1421003.4, -2340.9758, 0.0, 9.999859, 9.999968 
5.049639e+2, 1.6523907e+2, -1383424.1, -1419830.4, 37010.31, -0.07433443, 0.08124284, -1360382.6, -39715.496, 0.0, 9.999877, 9.999391 
5.0497115e+2, 1.7523901e+2, -1247361.3, -1299914.6, 35564.668, -0.012791839, 0.13454553, -1229419.1, -6749.163, 0.0, 10.000124, 9.999422 
5.049776e+2, 1.8523873e+2, -1122946.5, -1144458.5, 8007.3174, -0.0033302421, 0.14414994, -1120293.3, 4379.175, 0.0, 10.000111, 9.999823 
5.0498337e+2, 1.952382e+2, -1056783.0, -1061015.1, -4445.767, -0.03497163, 0.104273304, -1053975.4, -27300.566, 0.0, 9.999889, 9.999828 
5.049894e+2, 2.0523761e+2, -991768.7, -1034264.2, -22264.678, -0.025922151, 0.0881583, -982240.06, -53560.824, 0.0, 9.9999, 9.999335 
5.049957e+2, 2.1523696e+2, -862691.0, -920378.7, -31473.469, 0.01701158, 0.08576035, -848843.56, -18157.975, 0.0, 10.000111, 9.999342 
5.050019e+2, 2.2523616e+2, -801237.7, -909757.06, -7083.758, 0.021721551, 0.10436796, -800777.25, -68082.12, 0.0, 10.000159, 9.998719 
5.050081e+2, 2.3523523e+2, -716244.44, -814287.94, 7339.445, -0.006960668, 0.13369797, -715698.06, -80990.445, 0.0, 10.000055, 9.998751 
5.0501436e+2, 2.4523437e+2, -572021.9, -642993.7, -473.7744, -0.0037135107, 0.15049835, -572018.75, -35301.17, 0.0, 10.000152, 9.999208 
5.0502074e+2, 2.552336e+2, -431182.66, -522397.22, -4295.683, 0.028484484, 0.14660053, -430980.8, 7744.499, 0.0, 10.000437, 9.999226 
5.0502634e+2, 2.652326e+2, -348881.3, -467720.94, -25714.916, 0.0150780855, 0.14324786, -343555.7, -2820.5183, 0.0, 10.000485, 9.998904 
5.050312e+2, 2.7523145e+2, -275152.7, -380072.16, -19852.879, -0.0409813, 0.13148594, -271521.78, -28774.559, 0.0, 10.000313, 9.998917 
5.0503707e+2, 2.852307e+2, -174776.39, -271187.03, 4692.535, -0.04187009, 0.16062237, -174548.53, -29793.871, 0.0, 10.000285, 9.999006 
5.0504375e+2, 2.9523033e+2, -60567.313, -158929.8, -4241.212, 0.010566222, 0.2192879, -60384.777, -13627.027, 0.0, 10.000369, 9.9990635 
5.050506e+2, 3.0522758e+2, -57744.23, -213180.27, 3130.7966, 0.070292935, 0.07421704, -57681.195, -57681.195, 0.0, 10.000402, 9.998342 
5.0505525e+2, 3.1522715e+2, 51235.215, 18941.77, -8221.732, -0.08425384, 0.1966312, 53207.918, 53207.918, 0.000000020855737, 10.000376, 9.9999485 
5.1493615e+2, 1.2523371e+2, -1809485.5, -1786328.0, -159292.86, 0.04787888, 0.14831695, -1638193.6, 74528.31, 0.00000067894854, 9.999495, 9.999736 
5.14943e+2, 1.3523316e+2, -1612935.6, -1620931.8, 151843.4, -0.2055213, 0.09178026, -1465037.6, 149691.61, 0.000000029496794, 10.000022, 9.999978 
5.149543e+2, 1.452342e+2, -1473591.6, -1456717.9, -8096.0596, 0.08245871, 0.17954546, -1453461.8, 63255.902, 0.0, 10.000134, 10.0003605 
5.149583e+2, 1.5523371e+2, -1416357.3, -1378295.1, -26952.906, -0.02972255, 0.088810354, -1364331.6, 54386.21, 0.0, 9.999858, 10.000357 
5.1496387e+2, 1.6523314e+2, -1389841.8, -1432171.0, 45796.2, -0.06310129, 0.052533176, -1360556.0, -39834.023, 0.0, 9.999873, 9.999308 
5.14971e+2, 1.7523257e+2, -1253064.8, -1312328.9, 45012.67, -0.03490409, 0.059577886, -1228806.3, -6076.76, 0.0, 10.000126, 9.999335 
5.1497763e+2, 1.8523216e+2, -1144485.8, -1189739.3, -1249.9008, -0.008934252, 0.07738645, -1144451.3, -19717.262, 0.0, 10.000113, 9.999511 
5.149838e+2, 1.952319e+2, -1078842.0, -1106445.6, -11899.812, 0.020122929, 0.09535802, -1074420.4, -47684.41, 0.0, 9.999887, 9.999518 
5.1498973e+2, 2.0523132e+2, -1010649.7, -1071142.3, -14845.185, 0.015765736, 0.10821319, -1007203.0, -78460.88, 0.0, 9.99989, 9.999087 
5.149954e+2, 2.1523045e+2, -879284.2, -954571.7, -23316.414, -0.020717746, 0.10782856, -872648.06, -41896.063, 0.0, 10.000109, 9.999109 
5.1500165e+2, 2.2522965e+2, -773307.1, -850732.3, -11533.713, -0.019896306, 0.11569753, -771625.5, -38864.254, 0.0, 10.000155, 9.999126 
5.150084e+2, 2.3522888e+2, -688525.7, -756544.94, 4449.416, 0.017359657, 0.12265072, -688235.9, -53466.043, 0.0, 10.000053, 9.999148 
5.150147e+2, 2.4522828e+2, -578534.44, -655699.9, 9524.054, 0.014591819, 0.14952525, -577376.3, -40599.473, 0.0, 10.000149, 9.999123 
5.150206e+2, 2.552278e+2, -437436.5, -534696.94, 6517.1885, -0.024047157, 0.18523121, -437001.72, 1780.8619, 0.0, 10.000434, 9.999144 
5.150266e+2, 2.6522684e+2, -339427.75, -447000.06, -32384.016, -0.008251409, 0.1790354, -330431.13, 10361.24, 0.0, 10.000481, 9.999049 
5.1503253e+2, 2.752254e+2, -265593.56, -359901.5, -25219.803, 0.055717416, 0.12611744, -259272.9, -16466.865, 0.0, 10.000311, 9.999057 
5.15038e+2, 2.852244e+2, -194591.7, -310766.8, 7549.424, 0.026998147, 0.13776007, -194103.17, -49287.504, 0.0, 10.000279, 9.998737 
5.150432e+2, 2.9522383e+2, -79087.266, -195405.23, -13.547547, -0.08264078, 0.20443782, -79087.26, -32266.137, 0.0, 10.000361, 9.998817 
5.150502e+2, 3.0522108e+2, -22918.268, -138528.27, 1287.9558, -0.014094666, 0.04061229, -22903.922, -22903.922, 0.0, 10.000393, 9.998859 
5.150563e+2, 3.15221e+2, 57729.563, 34165.55, -1281.0883, -0.01779159, 0.15113851, 57799.008, 57799.008, 0.0000000053166334, 10.000369, 10.000056 
5.24936e+2, 1.2522803e+2, -1703866.1, -1737121.1, -160665.3, 0.05158216, 0.18140778, -1558970.3, 153807.86, 0.0000005002885, 10.000231, 9.999717 
5.2494264e+2, 1.3522701e+2, -1705311.1, -1673607.1, 159579.19, -0.2128777, 0.083131276, -1529094.5, 85695.15, 0.000000016983103, 9.999422, 9.999907 
5.249543e+2, 1.4522792e+2, -1568436.4, -1504212.0, 6176.4985, 0.10281122, 0.16347434, -1503623.4, 13155.787, 0.0, 9.999491, 10.000344 
5.249584e+2, 1.5522769e+2, -1357550.4, -1351227.4, -45809.715, -0.024172666, 0.10065805, -1308470.1, 110306.93, 0.0, 10.000267, 10.000345 
5.249639e+2, 1.6522717e+2, -1314060.0, -1379474.4, 7587.054, -0.06255537, 0.060964663, -1313191.6, 7588.7783, 0.0, 10.000322, 9.999454 
5.2497107e+2, 1.7522642e+2, -1296441.4, -1318218.4, 22109.908, -0.024453025, 0.036567535, -1282684.3, -59896.035, 0.0, 9.999762, 9.999472 
5.249777e+2, 1.8522595e+2, -1209836.0, -1237117.8, 1088.7603, 0.0039996183, 0.04883169, -1209792.6, -84999.38, 0.0, 9.999732, 9.99937 
5.249838e+2, 1.9522575e+2, -1047470.3, -1106660.0, 2082.794, 0.024296585, 0.085812874, -1047397.1, -20601.436, 0.0, 10.000169, 9.999381 
5.249898e+2, 2.0522512e+2, -964089.1, -1059396.3, 8805.135, 0.018557647, 0.10724888, -963282.44, -34479.492, 0.0, 10.000257, 9.998991 
5.249956e+2, 2.1522416e+2, -897421.56, -973102.6, 10597.515, -0.011590402, 0.10699571, -895965.6, -65151.074, 0.0, 10.000028, 9.99902 
5.250019e+2, 2.2522339e+2, -776349.1, -829716.7, 23314.178, -0.009713132, 0.11181985, -767598.8, -34775.76, 0.0, 10.000037, 9.999328 
5.250086e+2, 2.3522274e+2, -643132.5, -712758.2, 22561.475, 0.022080354, 0.11140278, -636461.0, -1632.0371, 0.0, 10.000272, 9.999345 
5.250148e+2, 2.4522217e+2, -567267.2, -659589.25, 20025.46, 0.010437369, 0.13562015, -563110.6, -26275.176, 0.0, 10.000266, 9.99904 
5.250207e+2, 2.5522164e+2, -501100.84, -574259.8, 15719.837, -0.04018594, 0.17412037, -497866.13, -59023.54, 0.0, 10.000036, 9.999063 
5.250268e+2, 2.6522076e+2, -386125.34, -466580.84, -23331.213, -0.0199398, 0.17815095, -379849.16, -38996.957, 0.0, 10.000147, 9.999076 
5.25033e+2, 2.7521947e+2, -227125.45, -337845.47, -25880.4, 0.063825235, 0.13981038, -221374.69, 21489.781, 0.0, 10.000562, 9.999086 
5.2503854e+2, 2.8521848e+2, -153653.14, -294894.75, 3638.681, 0.03261171, 0.1506919, -153559.47, -8685.262, 0.0, 10.000578, 9.998702 
5.2504325e+2, 2.952178e+2, -101479.59, -210599.14, 11757.428, -0.100835964, 0.20770809, -100227.13, -53346.42, 0.0, 10.000226, 9.998777 
5.2505034e+2, 3.0521512e+2, -29456.662, -117961.74, 20775.33, -0.026630284, 0.047236484, -24822.582, -24822.582, 0.0, 10.000244, 9.999072 
5.250569e+2, 3.1521523e+2, 74313.65, 22781.893, 515.2071, -0.00626662, 0.1537411, 74318.8, 74318.8, 0.00000000056215, 10.000565, 9.999885 
5.3493595e+2, 1.2522244e+2, -1692991.0, -1717950.0, -191238.81, 0.021697275, 0.218963, -1513824.9, 199008.77, 0.00000041209, 10.000244, 9.999842 
5.3494245e+2, 1.3522075e+2, -1701180.8, -1665140.1, 130680.77, -0.169657, 0.04816382, -1551243.1, 63606.508, 0.000000018082496, 9.99942, 9.999967 
5.3495455e+2, 1.4522146e+2, -1598589.4, -1564408.6, 35319.598, 0.1736958, 0.12541986, -1542261.9, -25420.229, 0.0, 9.999481, 9.999936 
5.349586e+2, 1.5522148e+2, -1384941.1, -1408455.5, -17407.361, -0.030828394, 0.12935106, -1375692.5, 43147.633, 0.0, 10.00027, 9.999951 
5.349641e+2, 1.6522115e+2, -1288169.3, -1326966.3, -15173.862, -0.080675974, 0.109654285, -1282939.5, 37902.44, 0.0, 10.000327, 9.999812 
5.3497124e+2, 1.7522058e+2, -1271886.5, -1266773.8, 2232.4001, 0.016432233, 0.06624313, -1265936.3, -43090.125, 0.0, 9.999759, 9.999826 
5.3497773e+2, 1.852201e+2, -1208293.6, -1232421.1, 17103.36, 0.032617584, 0.058779046, -1199427.5, -74577.48, 0.0, 9.999725, 9.999405 
5.349835e+2, 1.9521971e+2, -1045246.56, -1101933.0, 18359.773, -0.026379587, 0.074385345, -1039819.7, -12965.608, 0.0, 10.000168, 9.999414 
5.349897e+2, 2.0521903e+2, -960606.6, -1051364.5, -476.21027, -0.022095168, 0.084732346, -960604.1, -31742.217, 0.0, 10.000253, 9.999047 
5.3499615e+2, 2.1521811e+2, -894392.94, -965740.75, 2808.2605, 0.0415096, 0.08275007, -894282.56, -63409.387, 0.0, 10.000022, 9.999073 
5.350025e+2, 2.2521739e+2, -777449.25, -830837.2, 31286.152, 0.04876871, 0.0915645, -763016.7, -30135.982, 0.0, 10.000032, 9.999323 
5.3500867e+2, 2.3521683e+2, -643804.1, -714184.4, 31479.467, 0.004778463, 0.09960127, -631778.75, 3106.269, 0.0, 10.000271, 9.999336 
5.350148e+2, 2.4521607e+2, -573488.6, -671880.8, 11076.81, -0.018800704, 0.10846554, -572257.0, -35363.59, 0.0, 10.000263, 9.998957 
5.3502095e+2, 2.552151e+2, -507224.7, -587005.75, 8218.447, -0.023563012, 0.11313384, -506386.88, -67481.5, 0.0, 10.000035, 9.998976 
5.350269e+2, 2.6521432e+2, -393210.25, -480399.28, -8085.8853, -0.023622997, 0.13937762, -392466.7, -51551.82, 0.0, 10.000143, 9.998982 
5.3503275e+2, 2.752137e+2, -233742.1, -350288.4, -10336.023, -0.019211736, 0.17117825, -232832.53, 10090.248, 0.0, 10.000556, 9.999004 
5.350385e+2, 2.852129e+2, -140727.89, -266549.38, -10154.792, -0.028071467, 0.1987639, -139913.58, 5016.871, 0.0, 10.00057, 9.9989 
5.350441e+2, 2.9521215e+2, -88726.44, -184355.52, 550.84515, -0.04839631, 0.22862959, -88723.266, -41786.664, 0.0, 10.000226, 9.998959 
5.3505117e+2, 3.0520976e+2, -37114.316, -132408.77, 32721.139, 0.027564868, 0.09222206, -26960.756, -26960.756, 0.0, 10.000239, 9.998974 
5.3505695e+2, 3.1520984e+2, 42131.945, -40944.574, 21263.055, -0.057906765, 0.20440415, 47257.85, 47257.85, 0.0000000000003731001, 10.000552, 9.999452 
5.44936e+2, 1.2521632e+2, -1783158.3, -1744588.1, -180223.8, 0.031358477, 0.19287743, -1582620.5, 130272.82, 0.00000036785775, 9.999555, 9.999991 
5.449423e+2, 1.3521495e+2, -1571265.3, -1592314.9, 139845.81, -0.16670206, 0.045547657, -1441548.8, 173355.9, 0.000000024396927, 10.000268, 10.000057 
5.4495466e+2, 1.4521556e+2, -1504752.6, -1547937.9, 58118.508, 0.20110379, 0.12281243, -1464345.3, 52552.766, 0.0, 10.00025, 9.999678 
5.449586e+2, 1.5521528e+2, -1501115.1, -1492739.0, 12749.465, -0.020739956, 0.120381735, -1483507.4, -64605.754, 0.0, 9.999594, 9.999699 
5.449641e+2, 1.6521497e+2, -1400717.9, -1366232.8, 6471.815, -0.076649316, 0.10825402, -1365058.1, -44154.402, 0.0, 9.999491, 9.999946 
5.4497117e+2, 1.7521472e+2, -1247312.0, -1239375.4, 6446.3906, 0.030992532, 0.08511735, -1235773.9, -12870.003, 0.0, 9.999864, 9.999963 
5.4497766e+2, 1.8521434e+2, -1165885.3, -1199042.1, 26654.268, 0.042471252, 0.0729978, -1151074.3, -26167.867, 0.0, 9.999961, 9.99952 
5.449834e+2, 1.9521378e+2, -1087640.4, -1109787.0, 32528.084, -0.03843662, 0.06123933, -1064352.5, -37440.984, 0.0, 9.999823, 9.999527 
5.449897e+2, 2.0521311e+2, -1002028.56, -1072798.5, 12736.782, -0.03209904, 0.06905012, -999806.06, -70886.93, 0.0, 9.999974, 9.999035 
5.449965e+2, 2.1521239e+2, -841176.0, -941437.7, 9967.045, 0.05564031, 0.086712115, -840194.75, -9265.649, 0.0, 10.000393, 9.999063 
5.450029e+2, 2.2521171e+2, -725583.7, -807819.75, 30778.385, 0.06592186, 0.10181052, -715340.25, 17596.002, 0.0, 10.000397, 9.999304 
5.4500884e+2, 2.3521109e+2, -680828.3, -733818.44, 28666.885, 0.0051533347, 0.10416422, -668287.75, -33346.73, 0.0, 10.000025, 9.999318 
5.450149e+2, 2.4521019e+2, -620427.56, -696854.06, 13190.746, -0.023101667, 0.10365831, -618215.0, -81264.55, 0.0, 9.999952, 9.998934 
5.45021e+2, 2.552091e+2, -491571.34, -581570.06, 14733.637, -0.021709783, 0.09519478, -489220.72, -50256.832, 0.0, 10.000154, 9.998955 
5.45027e+2, 2.6520833e+2, -376782.8, -476823.8, 12936.518, -0.03112692, 0.1252296, -375137.03, -34163.535, 0.0, 10.000276, 9.998943 
5.450329e+2, 2.7520782e+2, -270718.28, -372996.8, 12700.523, -0.050148495, 0.17621978, -269164.75, -26184.473, 0.0, 10.000322, 9.998961 
5.450388e+2, 2.8520703e+2, -142241.7, -264692.03, 444.15448, -0.04756183, 0.20415325, -142240.1, 2748.084, 0.0, 10.000549, 9.998923 
5.4504484e+2, 2.9520616e+2, 14407.136, -131750.06, -3100.6758, -0.024659278, 0.219314, 14472.886, 61468.32, 0.0, 10.000925, 9.998981 
5.450519e+2, 3.0520412e+2, 53902.23, -89417.09, 25054.541, 0.04645616, 0.119465336, 58155.92, 58155.92, 0.0, 10.000868, 9.998966 
5.450571e+2, 3.1520408e+2, 4138.525, -88752.805, 25238.512, -0.08668989, 0.21823655, 10552.885, 10552.885, 0.000000000015387011, 10.00042, 9.9991865 
5.54936e+2, 1.252096e+2, -1769581.4, -1714386.6, -150516.5, 0.0751996, 0.098679, -1588958.4, 123999.195, 0.0000003291145, 9.999546, 10.000202 
5.549422e+2, 1.3520965e+2, -1558728.1, -1568657.5, 166142.86, -0.20991522, 0.0766668, -1397475.9, 217478.73, 0.000000025104656, 10.000278, 10.000215 
5.549547e+2, 1.4521031e+2, -1513121.8, -1567651.4, 31982.467, 0.17643063, 0.15807275, -1498359.9, 18587.906, 0.0, 10.000258, 9.999538 
5.5495846e+2, 1.5520906e+2, -1510617.8, -1512112.8, -10757.11, 0.0029350931, 0.07330828, -1500582.1, -81620.62, 0.0, 9.999591, 9.999568 
5.5496377e+2, 1.652086e+2, -1407846.9, -1378831.8, 20022.98, -0.05337787, 0.055514984, -1368613.0, -47647.164, 0.0, 9.999481, 9.999863 
5.5497086e+2, 1.7520888e+2, -1253195.9, -1250978.1, 20388.557, 0.015404781, 0.09295854, -1231668.4, -8707.114, 0.0, 9.999861, 9.999884 
5.549775e+2, 1.8520865e+2, -1152833.6, -1171525.4, 20641.541, 0.028705323, 0.09181914, -1139520.8, -14558.715, 0.0, 9.999959, 9.99971 
5.5498344e+2, 1.9520795e+2, -1075272.0, -1083068.9, 28170.09, -0.014051791, 0.046758804, -1050731.9, -23763.979, 0.0, 9.999818, 9.999713 
5.549898e+2, 2.0520741e+2, -1008043.56, -1083911.8, 28031.95, -0.014201975, 0.05983265, -998810.0, -69835.34, 0.0, 9.999969, 9.998961 
5.5499667e+2, 2.1520698e+2, -847395.6, -952992.0, 25691.719, 0.02741415, 0.11833865, -841476.56, -10494.199, 0.0, 10.000387, 9.998986 
5.55003e+2, 2.2520636e+2, -728488.8, -812902.25, 16154.683, 0.03827307, 0.14225326, -725502.8, 7486.9375, 0.0, 10.000393, 9.999271 
5.55009e+2, 2.352055e+2, -683386.8, -738840.06, 15345.894, 0.020355858, 0.12531447, -679423.3, -44426.38, 0.0, 10.000023, 9.999285 
5.55015e+2, 2.4520457e+2, -617864.1, -691074.5, 20252.057, -0.005215236, 0.120475814, -612635.3, -75628.76, 0.0, 9.99995, 9.998975 
5.55021e+2, 2.5520357e+2, -488830.1, -575343.44, 22711.238, -0.037390552, 0.11942816, -483230.44, -44212.203, 0.0, 10.000152, 9.998999 
5.550272e+2, 2.6520273e+2, -376246.38, -475338.44, 14121.509, -0.045801166, 0.1354489, -374273.25, -33245.066, 0.0, 10.000274, 9.998955 
5.550334e+2, 2.7520192e+2, -271164.84, -373807.78, 15420.8125, -0.033399135, 0.1540283, -268898.13, -25860.986, 0.0, 10.00032, 9.998957 
5.550395e+2, 2.8520086e+2, -154990.33, -289171.03, 14364.735, -0.029506834, 0.16604373, -153469.73, -8422.192, 0.0, 10.000541, 9.998759 
5.550457e+2, 2.9519984e+2, 2044.0286, -154965.84, 10922.417, -0.033157684, 0.1808479, 2800.2065, 49857.55, 0.0, 10.000915, 9.998827 
5.550526e+2, 3.0519828e+2, 59082.566, -76040.42, 6632.155, 0.026523996, 0.1314507, 59407.31, 59407.31, 0.0, 10.000856, 9.9990635 
5.550574e+2, 3.1519803e+2, -772.7284, -98651.516, 16224.977, -0.1018659, 0.20126417, 1846.7191, 1846.7191, 0.0000000020600701, 10.000418, 9.999119 
5.649355e+2, 1.2520325e+2, -1718215.5, -1678469.9, -145996.44, 0.059061494, 0.06187685, -1551000.0, 162019.0, 0.00000027083397, 9.999852, 10.000299 
5.649419e+2, 1.3520384e+2, -1654949.1, -1608963.8, 151049.39, -0.23056386, 0.0858536, -1479167.1, 135844.16, 0.000000017878008, 9.999589, 10.000272 
5.649547e+2, 1.4520454e+2, -1616935.9, -1613820.6, 3184.431, 0.18883523, 0.16756707, -1611833.3, -94829.06, 0.0, 9.999529, 9.999574 
5.6495833e+2, 1.552032e+2, -1492602.8, -1499084.0, -25986.262, 0.021690514, 0.06920806, -1469655.8, -50636.97, 0.0, 9.999698, 9.999604 
5.649635e+2, 1.6520265e+2, -1357371.3, -1358886.1, 32504.266, -0.045046892, 0.04600866, -1325615.6, -4592.036, 0.0, 9.999849, 9.999821 
5.6497073e+2, 1.752029e+2, -1237984.5, -1249179.5, 33030.36, 0.004163983, 0.08541626, -1210080.6, 12938.5, 0.0, 9.9999895, 9.999834 
5.649774e+2, 1.8520269e+2, -1170757.0, -1196798.0, 4621.8154, 0.027925918, 0.09304934, -1169961.1, -44940.36, 0.0, 9.9999075, 9.999562 
5.6498355e+2, 1.95202e+2, -1113802.1, -1117309.3, -13992.42, 0.01969117, 0.06364019, -1101453.8, -74426.03, 0.0, 9.99962, 9.999573 
5.649899e+2, 2.0520146e+2, -1049881.3, -1084385.8, 4090.5056, 0.017252622, 0.076177545, -1049402.9, -120368.67, 0.0, 9.999597, 9.999138 
5.649967e+2, 2.1520106e+2, -917586.2, -967259.1, 19242.012, 0.02366609, 0.11884041, -911004.44, -79964.25, 0.0, 9.999822, 9.999161 
5.6500304e+2, 2.2520044e+2, -778054.0, -843568.75, 6015.5586, 0.020986773, 0.13927159, -777506.2, -44458.836, 0.0, 10.000082, 9.99921 
5.650091e+2, 2.3519962e+2, -635334.0, -721932.25, 2560.5637, 0.00913066, 0.13081478, -635258.4, -202.56801, 0.0, 10.0003805, 9.9992285 
5.6501514e+2, 2.451988e+2, -541385.75, -649083.3, 10477.598, -0.010683198, 0.13829413, -540375.9, -3311.2249, 0.0, 10.000453, 9.999022 
5.650212e+2, 2.5519803e+2, -460890.2, -557146.44, 11879.223, -0.0373682, 0.15335284, -459445.8, -20371.887, 0.0, 10.000321, 9.9990425 
5.6502753e+2, 2.651971e+2, -362779.25, -460378.84, 8119.9614, -0.039123416, 0.16030219, -362108.3, -21024.95, 0.0, 10.000331, 9.999029 
5.6503385e+2, 2.7519605e+2, -245650.53, -352474.72, 13485.9, -0.019223567, 0.1450244, -243974.31, -880.6398, 0.0, 10.00046, 9.999034 
5.650402e+2, 2.8519478e+2, -163818.67, -309362.34, 22471.924, -0.025634004, 0.13820872, -160428.0, -15321.962, 0.0, 10.000549, 9.998615 
5.6504625e+2, 2.951936e+2, -53150.645, -199675.1, 18812.648, -0.054261968, 0.15308695, -50773.797, -3655.7913, 0.0, 10.000612, 9.998667 
5.650531e+2, 3.051924e+2, 42180.62, -77045.38, 207.68939, 0.0053103934, 0.14556503, 42180.984, 42180.984, 0.0, 10.000709, 9.999129 
5.650582e+2, 3.1519172e+2, 60687.29, -64724.895, 10920.707, -0.09104747, 0.16185902, 61631.145, 61631.145, 0.000000017271022, 10.000819, 9.999161 
5.749345e+2, 1.2519737e+2, -1720463.6, -1687752.6, -151541.9, -0.028653393, 0.08521243, -1551686.1, 161390.47, 0.00000019303324, 9.99987, 10.000229 
5.7494146e+2, 1.3519749e+2, -1659888.1, -1619593.8, 140544.11, -0.23143438, 0.07331, -1497760.1, 117314.73, 0.000000007774616, 9.999589, 10.0002 
5.749547e+2, 1.4519824e+2, -1602671.4, -1581948.6, 8069.576, 0.23537663, 0.15113275, -1579177.0, -62109.492, 0.0, 9.99952, 9.999797 
5.749581e+2, 1.5519768e+2, -1476954.6, -1466406.1, -19090.912, 0.031467028, 0.108963646, -1451874.3, -32801.1, 0.0, 9.999698, 9.999828 
5.749633e+2, 1.6519721e+2, -1358395.4, -1361494.3, 37228.863, -0.056289025, 0.08079889, -1322683.8, -1607.161, 0.0, 9.99985, 9.999804 
5.7497066e+2, 1.7519686e+2, -1239778.1, -1253457.3, 38593.477, -0.00508518, 0.06242422, -1207422.9, 15654.683, 0.0, 9.99999, 9.999805 
5.749774e+2, 1.8519643e+2, -1205926.1, -1268877.8, -6830.1636, 0.0364661, 0.076352336, -1205193.6, -80111.17, 0.0, 9.999904, 9.999069 
5.7498354e+2, 1.951959e+2, -1147891.1, -1186685.3, -24278.242, 0.0595062, 0.11184387, -1136212.8, -109121.555, 0.0, 9.999615, 9.999099 
5.749899e+2, 2.0519528e+2, -1020646.5, -1022668.8, 11793.921, 0.059399467, 0.11830647, -1009820.44, -80722.62, 0.0, 9.999592, 9.999564 
5.749967e+2, 2.151946e+2, -888865.56, -906613.75, 28131.225, 0.041313082, 0.08933908, -868241.94, -37139.39, 0.0, 9.999817, 9.999579 
5.75003e+2, 2.2519399e+2, -784295.6, -855628.4, 16727.143, 0.011110586, 0.09338038, -780568.0, -47458.902, 0.0, 10.000078, 9.999129 
5.750091e+2, 2.3519342e+2, -641555.56, -733682.4, 14042.223, -0.030633258, 0.119860515, -639462.75, -4345.2046, 0.0, 10.000376, 9.99915 
5.750153e+2, 2.4519289e+2, -538326.9, -642211.94, 4890.4995, -0.042328678, 0.15656507, -538097.2, -972.3091, 0.0, 10.00045, 9.999069 
5.7502174e+2, 2.551924e+2, -458435.53, -551348.44, 7567.056, -0.025347829, 0.19682431, -457823.28, -18692.32, 0.0, 10.000319, 9.9990835 
5.750281e+2, 2.6519156e+2, -354246.78, -441914.63, 12603.3125, -0.013874043, 0.19992018, -352470.9, -11331.802, 0.0, 10.000327, 9.999158 
5.7503444e+2, 2.7519023e+2, -236305.22, -332162.44, 18565.773, -0.010482342, 0.15016288, -232835.0, 10314.914, 0.0, 10.000456, 9.999175 
5.750406e+2, 2.8518882e+2, -172107.81, -325785.13, 23747.248, -0.03924706, 0.12201632, -168521.9, -23358.203, 0.0, 10.0005455, 9.998506 
5.750464e+2, 2.9518747e+2, -63141.758, -220081.47, 22239.11, -0.093833655, 0.13323978, -60051.23, -12873.577, 0.0, 10.000609, 9.998528 
5.750535e+2, 3.051865e+2, 41574.0, -76960.625, 3799.9604, -0.02150573, 0.15867995, 41695.695, 41695.695, 0.00000000021282408, 10.000702, 9.999133 
5.750593e+2, 3.151852e+2, 67002.26, -47860.277, 21824.988, -0.060649596, 0.10611091, 71009.42, 71009.42, 0.0000000699572, 10.000804, 9.999283 
5.8493435e+2, 1.251918e+2, -1745791.1, -1726146.1, -134003.36, -0.03156843, 0.121587016, -1601605.8, 111525.64, 0.00000011738098, 9.999811, 9.999991 
5.84941e+2, 1.351914e+2, -1668689.3, -1650077.3, 134672.17, -0.23558697, 0.08077165, -1524390.0, 90746.26, 0.0000000014227642, 9.999645, 9.999962 
5.849544e+2, 1.4519192e+2, -1575788.9, -1554489.3, 10062.578, 0.24682811, 0.14412728, -1550487.4, -33356.438, 0.0, 9.999643, 9.999925 
5.849579e+2, 1.5519181e+2, -1442748.9, -1436315.8, -26697.13, 0.03228157, 0.13195206, -1412642.1, 6489.276, 0.0, 9.999874, 9.99995 
5.849631e+2, 1.6519135e+2, -1372927.0, -1378893.0, 12001.025, -0.05737515, 0.10416063, -1363543.9, -42409.51, 0.0, 9.999794, 9.999712 
5.849705e+2, 1.7519063e+2, -1327354.3, -1305681.8, 7397.0957, 0.006760394, 0.057506107, -1303397.8, -80258.62, 0.0, 9.999433, 9.999715 
5.849772e+2, 1.8519014e+2, -1252042.5, -1295671.1, -11043.541, 0.04513158, 0.07354729, -1249406.4, -124261.375, 0.0, 9.999608, 9.999026 
5.8498335e+2, 1.9518986e+2, -1054807.3, -1145926.8, 4453.2065, 0.04657717, 0.13849774, -1054590.1, -27438.2, 0.0, 10.000273, 9.999062 
5.849897e+2, 2.0518926e+2, -895384.5, -947084.1, 36687.793, 0.042006753, 0.13927704, -876354.44, 52803.63, 0.0, 10.000387, 9.999699 
5.849965e+2, 2.1518832e+2, -853465.9, -874772.3, 29845.637, 0.036190737, 0.07238614, -832429.1, -1265.6222, 0.0, 9.999996, 9.99971 
5.85003e+2, 2.2518772e+2, -831426.6, -883684.8, 17473.252, 0.015004195, 0.07254607, -826122.56, -92952.57, 0.0, 9.999777, 9.999083 
5.850092e+2, 2.3518737e+2, -739949.06, -786190.0, 16385.824, -0.021458259, 0.12598866, -734731.4, -99553.85, 0.0, 9.999722, 9.999106 
5.8501554e+2, 2.4518694e+2, -606148.06, -658827.1, 13931.924, -0.034864254, 0.16668007, -602690.5, -65506.51, 0.0, 9.999915, 9.999213 
5.8502203e+2, 2.551864e+2, -445817.47, -529165.0, 23129.031, -0.02689739, 0.18951325, -439829.38, -640.152, 0.0, 10.000337, 9.999227 
5.850286e+2, 2.651855e+2, -322373.97, -447638.88, 21668.18, -0.015915588, 0.19009629, -318731.72, 22466.086, 0.0, 10.000637, 9.998968 
5.8503515e+2, 2.7518415e+2, -193786.98, -332975.97, 2233.461, -0.0035272292, 0.15290256, -193751.16, 49459.164, 0.0, 10.000838, 9.998986 
5.850414e+2, 2.8518274e+2, -114834.6, -281451.53, -2002.5009, -0.030246526, 0.13021992, -114810.54, 30413.428, 0.0, 10.000866, 9.998655 
5.850472e+2, 2.951815e+2, -39478.453, -193929.38, 14005.958, -0.090850264, 0.1379445, -38218.637, 9017.619, 0.0, 10.00071, 9.998659 
5.8505416e+2, 3.0518082e+2, 16493.742, -112833.836, 3658.6475, -0.02828314, 0.19255893, 16597.162, 16597.162, 0.000000006848287, 10.000634, 9.998919 
5.8506e+2, 3.151789e+2, 48049.84, -58410.758, 9044.643, -0.062332, 0.10200934, 48812.785, 48812.785, 0.00000018333391, 10.000679, 9.99927 
5.9493494e+2, 1.2518659e+2, -1772681.4, -1784101.3, -130605.805, 0.047357403, 0.17344591, -1647660.8, 65522.047, 0.000000058921596, 9.999819, 9.999591 
5.949406e+2, 1.3518554e+2, -1696324.8, -1708345.6, 127914.38, -0.24634288, 0.10723141, -1574279.6, 40915.563, 0.000000000010343272, 9.999648, 9.99956 
5.949537e+2, 1.4518563e+2, -1574832.5, -1552133.6, 17474.094, 0.21839976, 0.14559673, -1542646.8, -25452.357, 0.0, 9.999641, 9.999942 
5.9495765e+2, 1.5518558e+2, -1441820.8, -1434735.5, -17639.14, 0.021119593, 0.13762987, -1420286.8, -1093.4469, 0.0, 9.999874, 9.999961 
5.949629e+2, 1.651851e+2, -1385596.6, -1404336.9, -2446.8206, -0.0522214, 0.11528958, -1385282.5, -64085.72, 0.0, 9.99979, 9.999538 
5.9497017e+2, 1.7518422e+2, -1338371.4, -1328321.5, -5189.4946, 0.036528304, 0.07081803, -1326122.8, -102918.625, 0.0, 9.999432, 9.99956 
5.9497684e+2, 1.8518385e+2, -1223400.5, -1235379.3, 13717.019, 0.050014544, 0.084440306, -1214422.3, -89213.88, 0.0, 9.999604, 9.999443 
5.949829e+2, 1.9518393e+2, -1026463.1, -1087177.1, 29261.992, -0.022051398, 0.14441592, -1014656.0, 12553.563, 0.0, 10.000273, 9.999465 
5.949893e+2, 2.0518339e+2, -907213.2, -970732.44, 21235.611, -0.03780038, 0.13955045, -900767.75, 28446.893, 0.0, 10.000383, 9.999538 
5.949962e+2, 2.1518223e+2, -865469.94, -898216.94, 15777.851, 0.005726487, 0.06715811, -859105.1, -27881.88, 0.0, 9.99999, 9.999553 
5.9500295e+2, 2.2518162e+2, -833158.3, -886083.75, 14526.005, 0.02969602, 0.07589946, -829433.6, -96203.52, 0.0, 9.999772, 9.999069 
5.9500945e+2, 2.3518148e+2, -741187.7, -788164.7, 14978.365, 0.03306801, 0.15006, -736818.3, -101582.664, 0.0, 9.999719, 9.999094 
5.950159e+2, 2.4518093e+2, -589843.94, -624411.7, 29452.102, 0.00794776, 0.16983819, -572978.75, -35736.832, 0.0, 9.999913, 9.999452 
5.9502214e+2, 2.5518006e+2, -429832.1, -495073.38, 39225.44, -0.04400977, 0.1326931, -411435.7, 27812.91, 0.0, 10.000333, 9.999463 
5.950289e+2, 2.65179e+2, -357963.75, -520877.1, 28505.8, -0.04703778, 0.13193218, -353119.94, -11860.47, 0.0, 10.000633, 9.998467 
5.9503603e+2, 2.7517775e+2, -229467.36, -405994.7, 10455.678, -0.003919729, 0.15157576, -228850.23, 14424.712, 0.0, 10.0008335, 9.998487 
5.9504247e+2, 2.8517658e+2, -89206.77, -226376.61, -8449.644, -0.0046663955, 0.16076222, -88688.234, 56598.69, 0.0, 10.000858, 9.999039 
5.950483e+2, 2.9517576e+2, -14732.426, -139732.64, 7769.339, -0.048300672, 0.16985624, -14251.377, 33042.25, 0.0, 10.000697, 9.999037 
5.9505486e+2, 3.051753e+2, -13935.111, -173454.64, 4129.2637, -0.01653048, 0.25146613, -13828.294, -13828.294, 0.000000033052434, 10.000623, 9.998508 
5.950602e+2, 3.1517288e+2, 39491.32, -74863.914, 17640.395, -0.105148315, 0.15033141, 42150.676, 42150.676, 0.00000037488923, 10.000674, 9.99916 
6.0493493e+2, 1.2518047e+2, -1819266.6, -1797016.3, -155202.75, 0.08230369, 0.18248278, -1652540.5, 60703.18, 0.000000021349177, 9.99946, 9.999676 
6.049402e+2, 1.3517947e+2, -1692667.6, -1697114.3, 124292.25, -0.25039035, 0.11413436, -1570578.8, 44675.918, 0.0, 9.999635, 9.999643 
6.049533e+2, 1.451794e+2, -1577863.8, -1561342.6, 34914.168, 0.21166208, 0.13550255, -1533725.1, -16469.797, 0.0, 9.999656, 9.999872 
6.049574e+2, 1.5517932e+2, -1473203.4, -1456920.8, -6712.982, 0.015432822, 0.13364922, -1454510.0, -35255.227, 0.0, 9.999692, 9.999896 
6.049627e+2, 1.6517887e+2, -1381656.6, -1408057.3, 4054.882, -0.055856656, 0.12007596, -1381047.9, -59789.67, 0.0, 9.999841, 9.999489 
6.0497e+2, 1.7517807e+2, -1249934.8, -1290881.8, 9062.64, 0.039567247, 0.08673537, -1248018.6, -24753.08, 0.0, 10.000061, 9.999514 
6.049767e+2, 1.851777e+2, -1159873.3, -1182152.8, 31956.752, 0.05338291, 0.09261472, -1137170.3, -11901.042, 0.0, 9.999943, 9.999645 
6.049828e+2, 1.9517773e+2, -1121609.6, -1111334.6, 30019.926, -0.0266626, 0.12769389, -1086015.8, -58746.223, 0.0, 9.999526, 9.999659 
6.0498923e+2, 2.0517725e+2, -1032677.25, -1050015.0, 12610.995, -0.046770863, 0.12788329, -1026042.94, -96768.73, 0.0, 9.999603, 9.999371 
6.0499614e+2, 2.1517625e+2, -857036.2, -912988.6, 5683.0747, -0.0041471417, 0.08777822, -856464.8, -25181.754, 0.0, 10.000129, 9.999385 
6.05003e+2, 2.2517565e+2, -743619.25, -835514.9, 3851.0388, 0.029873077, 0.10237399, -743458.1, -10168.107, 0.0, 10.000355, 9.999135 
6.050097e+2, 2.3517539e+2, -651989.4, -738147.5, 9096.334, 0.052503366, 0.15776251, -651039.5, -15743.919, 0.0, 10.000301, 9.999155 
6.050162e+2, 2.4517465e+2, -540162.3, -612459.2, 25010.264, 0.027751977, 0.161275, -532353.7, 4949.551, 0.0, 10.000306, 9.999344 
6.050226e+2, 2.5517353e+2, -432615.6, -508841.56, 7060.719, -0.040712018, 0.11124334, -431967.1, 7345.447, 0.0, 10.000367, 9.999352 
6.050293e+2, 2.6517257e+2, -391655.6, -531673.25, -771.93646, -0.05418395, 0.122222, -391651.34, -50328.38, 0.0, 10.000376, 9.99852 
6.0503644e+2, 2.7517167e+2, -300314.56, -434686.22, 21599.12, -0.016616741, 0.17602625, -296928.03, -53592.938, 0.0, 10.000321, 9.998538 
6.0504305e+2, 2.851705e+2, -158615.23, -269153.4, 6290.977, -0.011450168, 0.18422902, -158258.36, -12910.835, 0.0, 10.000422, 9.998955 
6.050491e+2, 2.9516926e+2, -23670.504, -155662.4, -14214.672, -0.038465995, 0.15893134, -22157.031, 25201.213, 0.00000000003092486, 10.000684, 9.998935 
6.050557e+2, 3.051688e+2, 11948.591, -174694.02, -22461.797, -0.012398833, 0.2513871, 14613.734, 14613.734, 0.00000008707832, 10.00086, 9.998385 
6.0506105e+2, 3.1516656e+2, 93051.25, -28237.615, 12516.831, -0.10625451, 0.18166527, 94329.5, 94329.5, 0.0000006525611, 10.000954, 9.999346 
6.149343e+2, 1.2517343e+2, -1779960.5, -1714978.6, -138878.7, 0.07127795, 0.15134269, -1604840.9, 108472.88, 0.0000000039655865, 9.999456, 10.000241 
6.149398e+2, 1.351732e+2, -1653601.1, -1615016.6, 129494.81, -0.25124612, 0.102169655, -1503384.9, 111929.41, 0.0, 9.999631, 10.000208 
6.149531e+2, 1.4517324e+2, -1589147.0, -1585170.1, 33895.203, 0.22195266, 0.11368731, -1553205.1, -35891.617, 0.0, 9.999656, 9.999709 
6.1495703e+2, 1.5517306e+2, -1483366.9, -1479133.9, -4257.871, 0.011862639, 0.11868858, -1476495.5, -57179.844, 0.0, 9.999694, 9.999743 
6.149624e+2, 1.6517271e+2, -1376626.3, -1397249.9, 12202.427, -0.07295197, 0.118193485, -1370962.1, -49643.24, 0.0, 9.99984, 9.999563 
6.1496973e+2, 1.7517218e+2, -1244807.6, -1280723.8, 17361.621, 0.013103371, 0.105209075, -1237787.4, -14464.161, 0.0, 10.000063, 9.999582 
6.1497664e+2, 1.851717e+2, -1162161.8, -1186255.8, 15209.44, 0.051816467, 0.097797565, -1154806.3, -29478.775, 0.0, 9.99994, 9.999619 
6.1498284e+2, 1.9517125e+2, -1123740.1, -1115276.6, 15309.934, 0.030257683, 0.08724834, -1103624.4, -76292.516, 0.0, 9.999524, 9.999633 
6.1498946e+2, 2.0517083e+2, -1046053.25, -1075905.4, 31806.412, 0.011952719, 0.10299047, -1025844.75, -96507.81, 0.0, 9.999596, 9.999196 
6.149964e+2, 2.1517038e+2, -869321.3, -937483.44, 25528.686, 0.0031154978, 0.13500777, -860820.3, -29477.402, 0.0, 10.000125, 9.999218 
6.1500317e+2, 2.251698e+2, -735094.9, -816429.5, 1081.0262, 0.0119701885, 0.15352513, -735080.5, -1730.8707, 0.0, 10.000349, 9.999269 
6.1500984e+2, 2.3516907e+2, -643085.25, -719072.8, 7569.1284, 0.035601452, 0.14929028, -642338.6, -6981.3247, 0.0, 10.000299, 9.999288 
6.1501646e+2, 2.4516806e+2, -572635.0, -679336.2, 26583.783, 0.023172123, 0.14083205, -566378.7, -29010.72, 0.0, 10.000303, 9.998886 
6.1502314e+2, 2.5516683e+2, -464510.53, -574253.75, 9925.619, -0.021652754, 0.12369181, -463620.06, -24238.932, 0.0, 10.000363, 9.998905 
6.150299e+2, 2.6516616e+2, -350722.6, -445777.2, -3035.2537, -0.04254148, 0.15969014, -350625.75, -9237.472, 0.0, 10.000372, 9.999112 
6.150365e+2, 2.75166e+2, -259701.63, -349182.72, 19953.355, -0.042872578, 0.2287305, -255453.88, -12063.295, 0.0, 10.000317, 9.999128 
6.150431e+2, 2.8516456e+2, -196880.38, -347549.72, 15511.927, -0.051119115, 0.20387824, -195299.94, -49894.504, 0.0, 10.000416, 9.998419 
6.150495e+2, 2.9516202e+2, -62432.09, -235461.28, -3354.9182, -0.06670554, 0.10405576, -62367.066, -14937.045, 0.0000000010306047, 10.000681, 9.998388 
6.1505646e+2, 3.0516127e+2, 19090.785, -157824.34, -19432.926, -0.022913232, 0.18980564, 21200.209, 21200.209, 0.00000016756015, 10.000852, 9.998506 
6.150623e+2, 3.1515992e+2, 120906.83, 35210.336, 20120.164, -0.07326799, 0.19485457, 125395.59, 125395.59, 0.000001002472, 10.000931, 9.999792 
6.2493366e+2, 1.2516643e+2, -1779405.4, -1693704.9, -126944.61, 0.06406851, 0.13361949, -1602573.5, 110809.664, 0.00000000008306351, 9.999366, 10.000431 
6.249394e+2, 1.3516663e+2, -1665856.9, -1596700.5, 96748.64, -0.24829239, 0.103774644, -1528536.5, 86841.945, 0.0, 9.999441, 10.000425 
6.2495273e+2, 1.4516668e+2, -1617531.5, -1603181.0, -5929.5723, 0.23207645, 0.111820795, -1601048.0, -83670.78, 0.0, 9.999478, 9.999671 
6.249567e+2, 1.5516658e+2, -1495408.1, -1488580.1, -34391.906, 0.017589834, 0.12656526, -1457433.1, -38053.52, 0.0, 9.999627, 9.999711 
6.249621e+2, 1.6516627e+2, -1390829.4, -1399149.1, -12015.33, -0.07728994, 0.12956566, -1382274.3, -60891.28, 0.0, 9.9997225, 9.999607 
6.249695e+2, 1.7516576e+2, -1283514.0, -1294530.9, -10730.804, -0.0027278871, 0.11359373, -1276960.4, -53573.492, 0.0, 9.999778, 9.999625 
6.2497646e+2, 1.8516526e+2, -1167939.5, -1196855.3, -23115.613, 0.043460775, 0.10663886, -1155132.8, -29741.299, 0.0, 9.999932, 9.99955 
6.2498283e+2, 1.9516478e+2, -1035224.4, -1080294.3, -27413.63, 0.04361167, 0.09941026, -1022272.25, 5124.133, 0.0, 10.000163, 9.999566 
6.249895e+2, 2.051644e+2, -957369.6, -1017679.2, 9058.41, 0.033871938, 0.11678996, -956038.5, -26637.54, 0.0, 10.000136, 9.999335 
6.2499654e+2, 2.151641e+2, -896144.2, -934984.56, 25140.707, 0.02081642, 0.14858289, -883796.5, -52391.246, 0.0, 9.999874, 9.999356 
6.2500334e+2, 2.2516352e+2, -794359.1, -848518.44, 8107.387, 0.014000261, 0.1613256, -793171.56, -59759.72, 0.0, 9.999958, 9.999237 
6.250099e+2, 2.3516265e+2, -637039.2, -720325.9, 470.31058, 0.010577148, 0.14679551, -637036.5, -1615.7488, 0.0, 10.000358, 9.999251 
6.250166e+2, 2.4516167e+2, -556451.94, -681364.6, 19482.41, 0.0014548044, 0.1484586, -553483.8, -16052.465, 0.0, 10.000456, 9.998798 
6.250235e+2, 2.551606e+2, -484800.16, -593762.8, 29450.691, -0.012663349, 0.1583604, -477349.6, -37906.094, 0.0, 10.000266, 9.998818 
6.250303e+2, 2.6515993e+2, -364277.4, -448466.25, 14405.905, -0.028969944, 0.19357555, -361880.56, -20429.684, 0.0, 10.000263, 9.999145 
6.250368e+2, 2.7515957e+2, -239194.31, -336007.84, -5671.3813, -0.048764158, 0.23807769, -238863.22, 4591.1616, 0.0, 10.0004425, 9.999158 
6.250435e+2, 2.85158e+2, -165579.02, -342176.28, -5390.6406, -0.05991668, 0.2083059, -165414.63, -19944.936, 0.0, 10.000672, 9.998332 
6.2505037e+2, 2.951555e+2, -30789.924, -230914.94, 7173.919, -0.06307913, 0.117729284, -30533.088, 16961.338, 0.000000004235602, 10.000944, 9.998293 
6.250574e+2, 3.0515435e+2, 19090.123, -175559.94, -14159.185, -0.018114194, 0.17824678, 20114.693, 20114.693, 0.000000262113, 10.000927, 9.998347 
6.250633e+2, 3.1515285e+2, 88673.89, 31029.363, 5470.261, -0.055030882, 0.18293507, 89188.41, 89188.41, 0.0000013873902, 10.000657, 9.999895 
6.34933e+2, 1.2515946e+2, -1791328.1, -1719931.6, -112372.54, 0.05742024, 0.12801675, -1637723.4, 75728.63, 0.0, 9.99937, 10.000251 
6.3493884e+2, 1.3515972e+2, -1675741.5, -1617177.1, 97613.29, -0.24535286, 0.118066795, -1544548.5, 70898.9, 0.0, 9.999441, 10.000284 
6.349523e+2, 1.451598e+2, -1611637.4, -1590703.0, -3443.9993, 0.23793924, 0.13066667, -1590150.9, -72704.53, 0.0, 9.999477, 9.999757 
6.349565e+2, 1.5515989e+2, -1489817.1, -1476526.6, -28762.049, 0.029788889, 0.15753444, -1453652.1, -34205.19, 0.0, 9.999624, 9.999795 
6.3496184e+2, 1.6515957e+2, -1390357.5, -1397746.4, -11102.305, -0.073479965, 0.15383543, -1382351.1, -60900.645, 0.0, 9.99972, 9.999619 
6.349692e+2, 1.7515878e+2, -1282427.6, -1293093.9, -8223.736, -0.011265055, 0.110900976, -1277959.1, -54502.215, 0.0, 9.99978, 9.999635 
6.349762e+2, 1.8515839e+2, -1176751.0, -1214154.4, -15075.945, 0.023647267, 0.11834097, -1171431.0, -45969.996, 0.0, 9.999928, 9.999432 
6.3498265e+2, 1.9515835e+2, -1042819.9, -1095919.5, -18866.477, 0.01032638, 0.16520555, -1036799.2, -9336.136, 0.0, 10.000162, 9.999458 
6.3498944e+2, 2.0515801e+2, -926577.5, -952905.56, -1919.5836, 0.0150380265, 0.1704523, -926438.3, 3027.772, 0.0, 10.000133, 9.999783 
6.349967e+2, 2.1515739e+2, -865552.25, -871297.7, 16033.896, 0.046339944, 0.12701412, -852135.75, -20665.578, 0.0, 9.999873, 9.999794 
6.350035e+2, 2.2515675e+2, -809557.3, -878391.9, 22522.99, 0.032753624, 0.12351406, -802842.7, -69365.81, 0.0, 9.99995, 9.999035 
6.350099e+2, 2.351561e+2, -651136.9, -748741.06, 15843.956, -0.025791371, 0.14995138, -648629.3, -13143.437, 0.0, 10.000354, 9.999058 
6.350167e+2, 2.451555e+2, -538133.56, -642476.5, 11770.282, -0.04151639, 0.18453296, -536822.3, 671.0673, 0.0, 10.000452, 9.999068 
6.350237e+2, 2.5515494e+2, -466283.22, -555041.94, 22815.059, -0.015685255, 0.21700531, -460762.13, -21262.646, 0.0, 10.000264, 9.999084 
6.350306e+2, 2.6515386e+2, -400980.88, -524386.94, 20777.918, -0.015388797, 0.22584648, -397576.4, -56065.824, 0.0, 10.000261, 9.998625 
6.3503736e+2, 2.7515233e+2, -275631.47, -410883.4, 2103.547, -0.03938066, 0.203171, -275598.75, -32072.264, 0.0, 10.000439, 9.998646 
6.350444e+2, 2.851509e+2, -142103.9, -292006.6, 4696.9497, -0.043960992, 0.194462, -141956.88, 3583.5203, 0.0, 10.000667, 9.99868 
6.3505155e+2, 2.9514965e+2, -8674.79, -181972.56, 17650.701, -0.029952975, 0.20076522, -6895.3057, 40656.1, 0.000000008608103, 10.000932, 9.998635 
6.3505846e+2, 3.051481e+2, -12043.863, -238009.58, -24668.91, -0.00007411369, 0.22031601, -9382.087, -9382.087, 0.00000035003856, 10.0009165, 9.997924 
6.350639e+2, 3.1514537e+2, 73085.25, -20.8139, -550.8621, -0.05985436, 0.14613888, 73089.4, 73089.4, 0.0000017531552, 10.000651, 9.999685 
6.4493257e+2, 1.2515289e+2, -1735290.8, -1714979.0, -86853.234, 0.056606613, 0.14647979, -1637689.9, 75826.58, 0.0, 9.999848, 10.000054 
6.4493835e+2, 1.3515298e+2, -1663750.9, -1628784.3, 103684.86, -0.24701974, 0.13747029, -1541119.0, 74395.31, 0.0, 9.999602, 10.000126 
6.4495176e+2, 1.4515287e+2, -1612904.3, -1591764.0, 9367.855, 0.23566347, 0.13689029, -1588210.3, -70694.516, 0.0, 9.999472, 9.999752 
6.4495623e+2, 1.5515298e+2, -1488195.8, -1475890.9, -23223.65, 0.038240008, 0.16492873, -1458018.5, -38502.344, 0.0, 9.999638, 9.999793 
6.4496166e+2, 1.6515274e+2, -1380876.8, -1376122.5, -7413.2734, -0.06534257, 0.16335176, -1370714.5, -49196.113, 0.0, 9.99971, 9.999772 
6.449689e+2, 1.7515212e+2, -1287438.8, -1278824.0, 4791.5444, -0.011568137, 0.12285412, -1276688.4, -53165.637, 0.0, 9.999673, 9.999784 
6.4497596e+2, 1.851518e+2, -1200526.6, -1225574.5, 16842.025, 0.016683625, 0.12856884, -1192062.4, -66536.414, 0.0, 9.999766, 9.999432 
6.449826e+2, 1.9515169e+2, -1067321.6, -1107300.0, 20503.574, -0.003847284, 0.1709872, -1058675.9, -31147.479, 0.0, 9.999995, 9.999459 
6.4498943e+2, 2.0515129e+2, -940531.75, -966567.2, 8030.522, 0.0017813437, 0.1717504, -938254.06, -8721.895, 0.0, 10.000068, 9.999719 
6.449966e+2, 2.1515056e+2, -853917.56, -873124.94, -13956.936, 0.04134589, 0.1230683, -846579.4, -15041.747, 0.0, 9.999985, 9.999728 
6.450035e+2, 2.2514994e+2, -798541.44, -866444.06, 699.45233, 0.03358893, 0.122949675, -798534.2, -64990.184, 0.0, 9.999996, 9.999096 
6.450101e+2, 2.3514947e+2, -684633.44, -757985.1, 12151.418, -0.02230379, 0.16091318, -682672.9, -47121.504, 0.0, 10.000095, 9.999119 
6.45017e+2, 2.4514894e+2, -561027.7, -648688.4, 1691.0267, -0.040660266, 0.19704941, -560995.1, -23437.291, 0.0, 10.000275, 9.99911 
6.4502406e+2, 2.5514835e+2, -425178.4, -531067.8, -5583.172, -0.023790853, 0.22163686, -424884.84, 14678.833, 0.0, 10.000528, 9.999123 
6.4503115e+2, 2.6514706e+2, -352954.8, -519852.44, 713.83685, -0.015702508, 0.21551758, -352951.75, -11375.051, 0.0, 10.000672, 9.998457 
6.450381e+2, 2.751451e+2, -247409.11, -415451.13, 7120.9526, -0.015287033, 0.17091548, -247107.89, -3511.22, 0.0, 10.000712, 9.998482 
6.450453e+2, 2.8514376e+2, -145718.14, -290343.47, 8489.035, -0.017644187, 0.17740022, -145221.56, 388.51944, 0.0, 10.000627, 9.998711 
6.450523e+2, 2.9514307e+2, -81394.1, -213617.1, -3517.1438, -0.023457024, 0.23165071, -81300.61, -33684.09, 0.000000011710588, 10.000417, 9.998665 
6.4505917e+2, 3.051412e+2, -67131.77, -275109.03, -38901.2, -0.0055489885, 0.22742774, -60093.656, -60093.656, 0.00000040808163, 10.000583, 9.99783 
6.4506495e+2, 3.1513852e+2, 141141.75, 30586.396, 8623.111, -0.04638202, 0.16424975, 141810.3, 141810.3, 0.0000020409286, 10.001127, 9.999667 
6.549325e+2, 1.2514678e+2, -1749043.8, -1746187.5, -84199.52, 0.06317261, 0.18928744, -1663404.0, 50172.324, 0.0, 9.999859, 9.999837 
6.5493786e+2, 1.3514648e+2, -1677862.6, -1656559.8, 92098.0, -0.2576233, 0.16163324, -1574499.3, 41079.473, 0.0, 9.999597, 9.999937 
6.549511e+2, 1.4514591e+2, -1620615.6, -1606412.8, 12181.552, 0.2202689, 0.12859721, -1599413.9, -81828.805, 0.0, 9.999466, 9.999655 
6.5495586e+2, 1.5514582e+2, -1494612.6, -1489910.4, -16540.79, 0.038755592, 0.1482288, -1475554.4, -55967.242, 0.0, 9.9996395, 9.999696 
6.5496147e+2, 1.651458e+2, -1360604.0, -1334221.0, -9775.469, -0.057240274, 0.15856893, -1330993.8, -9406.998, 0.0, 9.99971, 10.000059 
6.549686e+2, 1.751458e+2, -1267595.9, -1237532.6, 3458.7588, -0.0062563545, 0.14908499, -1237139.9, -13555.61, 0.0, 9.999671, 10.00007 
6.549758e+2, 1.8514548e+2, -1192725.9, -1208222.5, 24301.281, 0.018738065, 0.13659807, -1174967.5, -49381.363, 0.0, 9.999761, 9.999554 
6.549826e+2, 1.9514485e+2, -1059795.5, -1091412.0, 29261.584, -0.0011905838, 0.11458681, -1042345.0, -14752.742, 0.0, 9.999993, 9.99957 
6.5498936e+2, 2.0514424e+2, -982538.25, -1052358.1, 4352.926, -0.008862473, 0.118587285, -982267.94, -52668.695, 0.0, 10.000062, 9.999132 
6.5499616e+2, 2.151436e+2, -894647.9, -957079.6, -16529.174, 0.0032773754, 0.13689205, -890541.75, -58934.434, 0.0, 9.999982, 9.999153 
6.5500325e+2, 2.251431e+2, -776804.1, -820178.9, 3538.394, 0.012851123, 0.16052498, -776517.4, -42904.168, 0.0, 9.999991, 9.999415 
6.5501064e+2, 2.3514277e+2, -662525.7, -712411.25, 16311.828, 0.018789507, 0.1794473, -657665.5, -22048.469, 0.0, 10.000095, 9.999432 
6.550177e+2, 2.4514198e+2, -574963.3, -676868.9, 10739.694, 0.00039973683, 0.18508838, -573843.75, -36219.004, 0.0, 10.000271, 9.998919 
6.550244e+2, 2.551408e+2, -438815.63, -558108.3, 4526.632, -0.04009586, 0.17146114, -438644.1, 991.9269, 0.0, 10.000523, 9.9989395 
6.550316e+2, 2.651395e+2, -341574.06, -494971.8, 1911.6118, -0.03241193, 0.16135165, -341550.22, 99.02928, 0.0, 10.000668, 9.998631 
6.5503925e+2, 2.7513796e+2, -236604.88, -391188.63, 9293.633, 0.020489346, 0.1432548, -236048.14, 7616.5938, 0.0, 10.000705, 9.998652 
6.550462e+2, 2.851367e+2, -166304.19, -332002.1, 431.3776, 0.0146000935, 0.16103113, -166303.06, -20624.684, 0.0, 10.000622, 9.998427 
6.550525e+2, 2.9513565e+2, -101234.76, -253918.97, -10197.548, -0.047452696, 0.2112923, -100556.69, -52867.066, 0.000000011654482, 10.000413, 9.99839 
6.550594e+2, 3.051337e+2, -51571.355, -241199.69, -18553.031, -0.037576042, 0.19729322, -49773.2, -49773.2, 0.00000041978168, 10.000577, 9.998065 
6.550664e+2, 3.151322e+2, 150768.8, 55838.9, 31601.25, -0.019675497, 0.23156838, 160326.31, 160326.31, 0.000002202322, 10.001106, 9.99985 
6.6493213e+2, 1.2513973e+2, -1801063.0, -1773095.3, -100645.875, 0.058864735, 0.17690101, -1685466.5, 28178.764, 0.0, 9.999508, 9.999823 
6.6493744e+2, 1.351398e+2, -1695465.6, -1661830.5, 72271.74, -0.24960057, 0.18092379, -1604445.4, 11199.534, 0.0, 9.999465, 9.999964 
6.6495043e+2, 1.4513916e+2, -1628818.1, -1603561.5, 18870.969, 0.2145573, 0.1406835, -1593483.3, -75831.914, 0.0, 9.999381, 9.999715 
6.6495526e+2, 1.5513894e+2, -1520480.0, -1495953.9, 3186.0237, 0.023658097, 0.13954547, -1495546.8, -75892.89, 0.0, 9.999434, 9.999754 
6.64961e+2, 1.6513886e+2, -1379676.4, -1354257.9, 3051.5786, -0.068775065, 0.14547564, -1353896.6, -32242.674, 0.0, 9.999628, 9.99996 
6.649685e+2, 1.7513888e+2, -1234042.5, -1231586.9, -14811.931, -0.0019699796, 0.14633763, -1217951.9, 5700.308, 0.0, 9.999949, 9.999974 
6.6497576e+2, 1.8513855e+2, -1152674.5, -1180622.4, -13389.372, 0.031836696, 0.13557146, -1147295.3, -21641.111, 0.0, 10.000002, 9.999626 
6.649827e+2, 1.9513792e+2, -1082726.5, -1095235.4, -13890.827, 0.012944617, 0.106671825, -1073747.0, -46087.75, 0.0, 9.9998045, 9.999635 
6.649894e+2, 2.0513724e+2, -1021205.2, -1091708.4, -20030.969, -0.0033644068, 0.110879384, -1015911.56, -86244.57, 0.0, 9.999885, 9.998948 
6.6499615e+2, 2.151365e+2, -870779.0, -964751.3, -11399.476, -0.009816084, 0.13743763, -869415.94, -37738.82, 0.0, 10.000231, 9.998979 
6.650033e+2, 2.2513598e+2, -718167.75, -790513.25, 9371.223, 0.0009432438, 0.16537234, -716973.56, 16709.88, 0.0, 10.000389, 9.999427 
6.650109e+2, 2.3513563e+2, -622586.44, -692165.3, -2100.697, 0.025584156, 0.18401477, -622523.06, 13163.457, 0.0, 10.000366, 9.99944 
6.6501814e+2, 2.4513473e+2, -563219.4, -670914.6, -7519.55, 0.013942505, 0.176018, -562696.9, -25001.82, 0.0, 10.00035, 9.998921 
6.6502494e+2, 2.5513327e+2, -464993.34, -570062.94, -769.0615, -0.030619377, 0.13515782, -464987.72, -25279.033, 0.0, 10.00034, 9.998945 
6.6503215e+2, 2.6513204e+2, -385323.84, -506203.13, -3223.3523, -0.028500034, 0.12823859, -385237.97, -43516.7, 0.0, 10.000324, 9.998717 
6.6503966e+2, 2.7513096e+2, -289898.5, -407062.9, -3278.5178, 0.016388549, 0.1429428, -289806.84, -46073.734, 0.0, 10.000297, 9.998738 
6.6504675e+2, 2.851298e+2, -185028.77, -342958.47, 377.01385, 0.0098068025, 0.17225817, -185027.88, -39282.38, 0.0, 10.000504, 9.998407 
6.6505325e+2, 2.9512867e+2, -23256.86, -217597.73, 7553.179, -0.04551016, 0.21130365, -22963.742, 24794.236, 0.000000008469742, 10.000956, 9.998377 
6.650602e+2, 3.051264e+2, 26938.303, -184493.95, 6913.2437, -0.03385209, 0.16011074, 27164.105, 27164.105, 0.00000038345433, 10.001036, 9.998233 
6.650675e+2, 3.1512532e+2, 96441.9, 32272.115, 50188.023, 0.0053089606, 0.21883771, 123924.43, 123924.43, 0.0000022156387, 10.000721, 9.999873 
6.749315e+2, 1.2513177e+2, -1787989.1, -1745619.4, -90707.77, 0.041620612, 0.106384456, -1673655.4, 40067.586, 0.0, 9.999503, 10.000015 
6.749371e+2, 1.3513291e+2, -1678048.6, -1626187.0, 68862.33, -0.22868781, 0.19537203, -1578535.0, 37177.336, 0.0, 9.999469, 10.000206 
6.749498e+2, 1.451327e+2, -1612612.6, -1571242.8, 17390.666, 0.21354102, 0.17366332, -1564903.6, -47189.8, 0.0, 9.999386, 9.999935 
6.7495435e+2, 1.5513235e+2, -1506216.8, -1465754.9, 5588.5396, -0.010864244, 0.1377067, -1464997.1, -45281.336, 0.0, 9.999431, 9.999963 
6.7496026e+2, 1.6513191e+2, -1415252.8, -1425869.6, 14256.739, -0.10469739, 0.122443706, -1405348.3, -83628.31, 0.0, 9.999619, 9.999473 
6.749684e+2, 1.7513135e+2, -1267835.1, -1301499.5, -2527.0505, -0.001727064, 0.11414023, -1267646.5, -43920.063, 0.0, 9.9999485, 9.999495 
6.74976e+2, 1.8513101e+2, -1152403.6, -1179806.8, -21913.83, 0.05239632, 0.12535006, -1140260.5, -14530.965, 0.0, 10.0, 9.999633 
6.749827e+2, 1.951309e+2, -1082774.6, -1094615.5, -21206.691, 0.03587315, 0.14773865, -1066677.5, -38948.184, 0.0, 9.999801, 9.999642 
6.749895e+2, 2.0513032e+2, -1006253.4, -1058983.8, -8019.7554, 0.015076868, 0.1493081, -1005060.6, -75325.44, 0.0, 9.999878, 9.999177 
6.7499644e+2, 2.1512927e+2, -855677.1, -932732.2, 1759.7053, 0.00007927793, 0.123202935, -855637.0, -23890.076, 0.0, 10.000227, 9.999201 
6.7500365e+2, 2.2512856e+2, -739895.8, -834210.4, 7775.5303, -0.00520013, 0.1355545, -739259.06, -5504.1777, 0.0, 10.000383, 9.999129 
6.75011e+2, 2.3512813e+2, -643416.06, -734853.4, -2367.0977, -0.0034766465, 0.17445184, -643354.8, -7595.167, 0.0, 10.000363, 9.999149 
6.750183e+2, 2.451272e+2, -550220.75, -643099.8, -8406.5625, -0.0020623805, 0.16931786, -549466.0, -11697.4795, 0.0, 10.000346, 9.999114 
6.7502564e+2, 2.551258e+2, -452371.16, -543094.7, -595.40436, 0.0008279537, 0.11333951, -452367.25, -12585.75, 0.0, 10.000337, 9.999132 
6.7503273e+2, 2.6512477e+2, -385756.38, -506278.56, -4536.754, -0.008739005, 0.11712392, -385585.84, -43793.293, 0.0, 10.000321, 9.998719 
6.750395e+2, 2.75124e+2, -290126.03, -406194.25, -3464.9028, -0.02995893, 0.16864525, -290022.7, -46220.863, 0.0, 10.000291, 9.998747 
6.750468e+2, 2.851231e+2, -169036.6, -308551.5, 16811.373, -0.03306316, 0.20853344, -167039.44, -21227.85, 0.0, 10.000499, 9.998646 
6.750544e+2, 2.9512203e+2, -8871.761, -184341.3, 25440.992, -0.02180221, 0.23237465, -5257.5625, 42563.996, 0.0000000040864183, 10.000941, 9.998612 
6.7506164e+2, 3.0511934e+2, 32543.367, -170349.47, -4630.362, 0.00003368803, 0.11811888, 32648.984, 32648.984, 0.0000003121116, 10.001025, 9.998335 
6.750684e+2, 3.1511793e+2, 85859.06, 12944.43, 40193.418, 0.019087294, 0.13347757, 103666.34, 103666.34, 0.0000020914758, 10.0007105, 9.999744 
6.849309e+2, 1.2512444e+2, -1812356.1, -1745742.6, -85365.43, 0.045975804, 0.1152448, -1687416.5, 26378.705, 0.0, 9.999286, 10.000119 
6.8493664e+2, 1.3512544e+2, -1683227.1, -1612904.6, 48776.33, -0.21769314, 0.1771042, -1587937.3, 27847.889, 0.0, 9.999367, 10.000345 
6.8494916e+2, 1.4512527e+2, -1600763.9, -1549386.6, -4930.3535, 0.20895846, 0.14544018, -1548917.8, -31132.271, 0.0, 9.999398, 10.000078 
6.8495387e+2, 1.5512528e+2, -1478538.3, -1437012.1, -22283.14, -0.007440654, 0.12921742, -1427318.0, -7534.476, 0.0, 9.999557, 10.000099 
6.8495995e+2, 1.6512486e+2, -1427878.3, -1456329.8, -2023.8999, -0.100822926, 0.12180525, -1427735.0, -105947.39, 0.0, 9.9996395, 9.999252 
6.849682e+2, 1.7512402e+2, -1326894.0, -1354390.1, -816.2161, -0.004388634, 0.109193176, -1326869.8, -103071.52, 0.0, 9.999649, 9.999275 
6.849758e+2, 1.8512356e+2, -1183395.6, -1197381.0, -15346.436, 0.0466156, 0.120250106, -1173523.9, -47720.816, 0.0, 9.999799, 9.999609 
6.8498254e+2, 1.951235e+2, -1041671.25, -1075930.9, -16890.21, 0.027875202, 0.14689092, -1034744.7, -6942.4688, 0.0, 10.000092, 9.999628 
6.849895e+2, 2.0512296e+2, -956616.94, -1027166.1, -6087.9883, 0.015796244, 0.15015234, -956095.44, -26288.162, 0.0, 10.000186, 9.999245 
6.8499684e+2, 2.1512197e+2, -870170.44, -932738.3, -10171.325, 0.01946438, 0.123030216, -868558.44, -36740.492, 0.0, 10.000097, 9.999264 
6.8500406e+2, 2.2512116e+2, -785200.06, -865147.9, -3654.4036, 0.009955056, 0.12675825, -785033.4, -51206.55, 0.0, 10.000111, 9.999049 
6.8501115e+2, 2.3512049e+2, -668698.56, -754843.9, 1149.1941, -0.014758633, 0.1498039, -668683.25, -32849.098, 0.0, 10.000225, 9.999078 
6.850185e+2, 2.4511965e+2, -564168.75, -647368.1, -5655.6353, -0.01595621, 0.156017, -563786.06, -25943.361, 0.0, 10.000241, 9.999134 
6.850259e+2, 2.551186e+2, -476042.5, -551892.9, -11197.713, 0.005734351, 0.13661094, -474423.94, -34571.42, 0.0, 10.000164, 9.999154 
6.850331e+2, 2.651177e+2, -384350.97, -500783.44, -10305.041, -0.003047707, 0.14912002, -383445.94, -41583.418, 0.0, 10.000311, 9.998761 
6.8503994e+2, 2.7511686e+2, -230180.56, -372597.44, -7847.846, -0.039046288, 0.18203074, -229749.42, 14123.391, 0.0, 10.000682, 9.99879 
6.8504745e+2, 2.851159e+2, -125991.32, -277522.75, 6038.238, -0.033507045, 0.21313925, -125751.09, 20131.244, 0.0, 10.000751, 9.998737 
6.8505543e+2, 2.9511493e+2, -64333.703, -199832.52, 2630.3254, 0.0075982567, 0.23627156, -64282.664, -16391.61, 0.0000000009738006, 10.000513, 9.998712 
6.8506265e+2, 3.0511224e+2, -29012.945, -179708.64, -32001.322, 0.023061492, 0.111032, -22498.82, -22498.82, 0.00000022618863, 10.000515, 9.998516 
6.8506914e+2, 3.1511104e+2, 88212.44, 4975.908, 15167.555, 0.023887169, 0.13323337, 90890.164, 90890.164, 0.0000018666766, 10.000767, 9.999662 
6.949305e+2, 1.2511776e+2, -1811749.1, -1747594.8, -70375.34, 0.07003086, 0.20162739, -1702330.9, 11530.367, 0.0, 9.999296, 10.000103 
6.94936e+2, 1.351174e+2, -1682472.5, -1608988.8, 49595.2, -0.22097842, 0.124363646, -1584008.4, 31854.742, 0.0, 9.999358, 10.000376 
6.9494843e+2, 1.451169e+2, -1597401.9, -1539739.1, -1828.4966, 0.19646074, 0.05328395, -1539681.3, -21815.02, 0.0, 9.999388, 10.00015 
6.949538e+2, 1.5511772e+2, -1472889.1, -1426247.4, -15138.413, 0.030136801, 0.114048354, -1421764.8, -1908.2053, 0.0, 9.999561, 10.000171 
6.9495994e+2, 1.6511774e+2, -1425768.8, -1452510.1, -2850.1936, -0.06247613, 0.14378786, -1425468.4, -103611.46, 0.0, 9.999641, 9.999278 
6.9496775e+2, 1.7511693e+2, -1325921.0, -1351337.1, -619.092, -0.013928772, 0.13180465, -1325905.9, -102038.555, 0.0, 9.999643, 9.999299 
6.9497526e+2, 1.8511625e+2, -1187112.6, -1202860.4, -5304.983, 0.009946074, 0.120191105, -1185492.3, -59617.85, 0.0, 9.999789, 9.999576 
6.9498223e+2, 1.9511569e+2, -1044423.9, -1080868.1, -5584.078, -0.013035268, 0.10245084, -1043587.44, -15709.457, 0.0, 10.000088, 9.999597 
6.949895e+2, 2.0511514e+2, -964009.44, -1041878.75, -10376.787, -0.00396622, 0.1116208, -962650.3, -32767.178, 0.0, 10.000183, 9.9991455 
6.9499713e+2, 2.1511458e+2, -877821.1, -947788.1, -13143.568, 0.04459735, 0.13733792, -875433.5, -43543.457, 0.0, 10.0000925, 9.999163 
6.9500446e+2, 2.2511376e+2, -775825.3, -844801.4, -250.07983, 0.04230474, 0.13954589, -775824.44, -41925.42, 0.0, 10.000107, 9.999191 
6.950115e+2, 2.3511271e+2, -659350.6, -735374.7, 5705.019, -0.010932723, 0.11019003, -658924.9, -23014.979, 0.0, 10.000223, 9.999212 
6.9501853e+2, 2.4511206e+2, -574075.7, -667680.0, -9015.923, -0.031016301, 0.13537581, -573215.2, -35297.71, 0.0, 10.000239, 9.998996 
6.950258e+2, 2.5511178e+2, -485935.1, -571796.25, -13267.293, -0.018082956, 0.20371217, -483931.78, -44010.0, 0.0, 10.000161, 9.999019 
6.9503325e+2, 2.651109e+2, -379264.8, -489149.78, 3365.583, -0.013498238, 0.22251235, -379161.84, -37230.62, 0.0, 10.000306, 9.998843 
6.950408e+2, 2.751094e+2, -226467.02, -362818.8, 6754.529, -0.015465558, 0.18447013, -226133.22, 17812.557, 0.0, 10.000673, 9.99886 
6.950485e+2, 2.851082e+2, -130679.9, -285671.38, -2823.11, 0.0027955614, 0.18780616, -130628.49, 15328.982, 0.0, 10.000744, 9.998685 
6.9505626e+2, 2.951073e+2, -67838.34, -205617.55, -4962.6035, 0.038167395, 0.22368711, -67659.83, -19693.498, 0.000000000021633938, 10.000506, 9.998675 
6.9506323e+2, 3.0510512e+2, -11326.23, -141964.84, -23359.133, 0.032586683, 0.13797568, -7275.076, -7275.076, 0.00000014519733, 10.000511, 9.998776 
6.9506985e+2, 3.1510487e+2, 83043.51, -1993.9197, 24889.09, 0.012001579, 0.22422984, 89792.51, 89792.51, 0.0000015881137, 10.0007515, 9.999621 
7.0492995e+2, 1.251102e+2, -1777100.0, -1732462.1, -44952.227, 0.07443345, 0.18375158, -1704593.0, 9341.319, 0.0, 9.99954, 10.00009 
7.0493543e+2, 1.3511002e+2, -1666945.3, -1598856.3, 57989.95, -0.21257904, 0.12403745, -1565656.0, 50278.13, 0.0, 9.999457, 10.000395 
7.0494777e+2, 1.4510943e+2, -1609183.6, -1564060.8, 4684.0728, 0.19095802, 0.051305708, -1563579.6, -45641.04, 0.0, 9.999389, 9.999982 
7.0495343e+2, 1.5510997e+2, -1493645.0, -1454802.9, -26708.63, 0.042696226, 0.10057644, -1441200.9, -21268.045, 0.0, 9.999499, 10.000004 
7.0495975e+2, 1.6511004e+2, -1416743.0, -1423588.8, -18562.541, -0.046830498, 0.13224824, -1401290.4, -79357.76, 0.0, 9.999598, 9.999498 
7.049674e+2, 1.751096e+2, -1306351.1, -1317066.3, -1939.1682, -0.013474877, 0.13471311, -1306011.0, -82072.57, 0.0, 9.999673, 9.99952 
7.0497495e+2, 1.85109e+2, -1194951.1, -1215377.6, 6931.2397, 0.0044185384, 0.126916, -1192821.3, -66876.97, 0.0, 9.999775, 9.9994955 
7.0498216e+2, 1.9510831e+2, -1076168.0, -1105827.4, 552.409, -0.015668374, 0.10225873, -1076157.8, -48207.53, 0.0, 9.99991, 9.999511 
7.049895e+2, 2.0510764e+2, -996685.2, -1058411.8, -11871.17, -0.008580169, 0.10561577, -994480.8, -64524.207, 0.0, 9.999961, 9.99914 
7.0499706e+2, 2.1510704e+2, -900877.75, -958672.4, -8142.917, 0.032665644, 0.12550652, -899752.4, -67788.47, 0.0, 9.999935, 9.999164 
7.0500445e+2, 2.2510634e+2, -786728.56, -841020.5, 14513.499, 0.034601144, 0.1341456, -783092.3, -49120.52, 0.0, 9.999993, 9.99927 
7.050117e+2, 2.3510554e+2, -667086.75, -730473.3, 14852.128, -0.003920755, 0.12398783, -663779.4, -27799.082, 0.0, 10.0001335, 9.9992895 
7.05019e+2, 2.4510497e+2, -565635.4, -675636.75, -426.22534, -0.020459345, 0.15832676, -565633.75, -27646.355, 0.0, 10.00035, 9.998889 
7.0502627e+2, 2.5510457e+2, -422065.6, -552691.56, -4013.2583, -0.014760175, 0.22563179, -421942.4, 18050.92, 0.0, 10.000649, 9.998915 
7.0503384e+2, 2.651035e+2, -328082.22, -461198.38, 9346.073, -0.0040306603, 0.22853167, -327429.25, 14575.083, 0.0, 10.000644, 9.998873 
7.0504165e+2, 2.7510172e+2, -273300.44, -381460.6, 8553.372, 0.01229382, 0.16009344, -272628.22, -28607.79, 0.0, 10.000337, 9.998895 
7.050493e+2, 2.851005e+2, -192460.06, -309193.6, 1950.9808, 0.02565119, 0.15597266, -192427.47, -46395.605, 0.0, 10.000293, 9.99874 
7.050567e+2, 2.950998e+2, -61084.023, -195621.13, 6528.5117, 0.034980632, 0.2073743, -60767.965, -12729.253, 0.0, 10.000524, 9.998736 
7.0506376e+2, 3.0509794e+2, 25059.887, -116370.55, -6969.9507, 0.023080407, 0.14515017, 25402.549, 25402.549, 0.00000008201181, 10.000726, 9.99885 
7.050708e+2, 3.1509754e+2, 87504.47, -20151.006, 23202.793, 0.033092838, 0.21437603, 92292.39, 92292.39, 0.0000012936833, 10.000868, 9.999442 
7.1492934e+2, 1.2510172e+2, -1778343.1, -1735042.6, -38129.508, 0.055179413, 0.05677716, -1712845.5, 1168.6759, 0.0, 9.999538, 10.000073 
7.1493506e+2, 1.3510336e+2, -1664831.4, -1595950.5, 54344.984, -0.19834125, 0.1769478, -1566051.9, 49945.72, 0.0, 9.999465, 10.000411 
7.1494716e+2, 1.4510293e+2, -1639415.4, -1627194.1, 5822.083, 0.18529403, 0.14054431, -1624864.6, -106862.484, 0.0, 9.999391, 9.999547 
7.1495277e+2, 1.5510201e+2, -1524356.5, -1517549.4, -22258.492, 0.025862137, 0.088379614, -1498435.8, -78423.57, 0.0, 9.999495, 9.999576 
7.149592e+2, 1.6510175e+2, -1387133.8, -1360092.5, -16130.436, -0.058422066, 0.08536519, -1352565.6, -30550.756, 0.0, 9.999589, 9.999938 
7.149672e+2, 1.7510203e+2, -1275720.3, -1253575.4, 1788.9552, -0.005458849, 0.11656946, -1253431.8, -29420.725, 0.0, 9.999673, 9.999956 
7.14975e+2, 1.851019e+2, -1205915.4, -1237731.8, 11272.561, 0.026099833, 0.13927908, -1202326.4, -76314.06, 0.0, 9.999773, 9.999343 
7.1498245e+2, 1.9510137e+2, -1087572.4, -1128498.5, 5801.6245, 0.016230732, 0.14776127, -1086765.9, -58747.41, 0.0, 9.999905, 9.999358 
7.1498954e+2, 2.051005e+2, -990796.44, -1044679.6, -13823.354, -0.0014713604, 0.13330781, -987457.06, -57429.61, 0.0, 9.999954, 9.999238 
7.1499646e+2, 2.1509932e+2, -894694.4, -944945.94, -8779.1045, -0.01830289, 0.08681812, -893204.8, -61165.293, 0.0, 9.99993, 9.999261 
7.1500397e+2, 2.2509882e+2, -785131.0, -837195.6, 18930.998, -0.015657973, 0.10944601, -778975.4, -44930.105, 0.0, 9.999991, 9.999298 
7.150119e+2, 2.3509897e+2, -666029.5, -727354.9, 20748.65, 0.0034983822, 0.19087821, -659669.1, -23624.059, 0.0, 10.000129, 9.999313 
7.1501964e+2, 2.4509837e+2, -572233.5, -687931.5, 10243.63, 0.012059214, 0.22496153, -571333.56, -33281.22, 0.0, 10.000344, 9.998807 
7.1502715e+2, 2.55097e+2, -428742.1, -565734.7, 7550.2505, 0.012413365, 0.20403203, -428327.22, 11739.74, 0.0, 10.000647, 9.998827 
7.150347e+2, 2.650955e+2, -329024.16, -462758.88, -2516.8767, 0.02237786, 0.16820915, -328976.8, 13104.907, 0.0, 10.000642, 9.998864 
7.1504223e+2, 2.7509382e+2, -273965.63, -381905.06, -2211.4905, 0.04105312, 0.108663, -273920.34, -29823.643, 0.0, 10.000333, 9.998895 
7.150496e+2, 2.8509277e+2, -181687.72, -285895.78, 10086.1045, 0.03187541, 0.11750302, -180720.48, -34614.992, 0.0, 10.000289, 9.998902 
7.1505684e+2, 2.9509243e+2, -51406.035, -173372.25, 16311.538, -0.005024641, 0.18855648, -49262.242, -1154.1466, 0.0, 10.000515, 9.998893 
7.1506417e+2, 3.0509067e+2, 16253.981, -132757.48, -1671.041, -0.008392439, 0.13303412, 16272.719, 16272.719, 0.00000004119849, 10.000717, 9.998742 
7.1507215e+2, 3.150893e+2, 63035.6, -67774.51, 28359.025, 0.07806509, 0.11649858, 68919.086, 68919.086, 0.0000010048329, 10.0008545, 9.999122 
7.249287e+2, 1.2509406e+2, -1799989.3, -1763144.3, -41827.87, 0.04035541, 0.034835704, -1735861.6, -21774.014, 0.0, 9.999462, 9.99992 
7.249349e+2, 1.3509563e+2, -1640658.3, -1598685.4, 25316.984, -0.17199321, 0.16171727, -1586787.5, 29285.104, 0.0, 9.999695, 10.000279 
7.2494674e+2, 1.4509527e+2, -1592105.6, -1600493.1, -11020.036, 0.19203752, 0.13746542, -1584508.4, -66431.37, 0.0, 9.999699, 9.999581 
7.249522e+2, 1.5509456e+2, -1504113.1, -1504279.8, -3009.931, 0.013411177, 0.102429114, -1501185.4, -81100.07, 0.0, 9.9996195, 9.999606 
7.249587e+2, 1.6509429e+2, -1379749.1, -1352977.8, 8596.027, -0.06711909, 0.09501181, -1350455.4, -28367.457, 0.0, 9.999624, 9.9999695 
7.2496706e+2, 1.7509434e+2, -1268172.9, -1246871.8, -6479.2417, 0.009292697, 0.10035848, -1245055.8, -20970.162, 0.0, 9.999711, 9.999984 
7.2497493e+2, 1.8509413e+2, -1209114.6, -1240453.1, -6312.084, 0.04136958, 0.115580074, -1207891.1, -81803.66, 0.0, 9.999756, 9.999333 
7.249822e+2, 1.9509369e+2, -1108232.0, -1138596.3, -1137.693, 0.0094597265, 0.13332276, -1108189.4, -80096.11, 0.0, 9.999765, 9.999354 
7.2498935e+2, 2.0509303e+2, -989907.5, -1036337.44, -12179.174, -0.014838408, 0.13527595, -986906.7, -56805.926, 0.0, 9.999927, 9.999308 
7.249965e+2, 2.1509217e+2, -846562.3, -914338.4, -10545.164, -0.024056075, 0.11268362, -844959.5, -12849.519, 0.0, 10.000228, 9.999328 
7.250041e+2, 2.250916e+2, -758127.4, -836938.1, 3938.821, -0.012085564, 0.13425736, -757931.0, -23814.92, 0.0, 10.000231, 9.999186 
7.2501206e+2, 2.350914e+2, -698418.44, -755040.7, -6271.2534, 0.0181227, 0.18908253, -697732.2, -61612.76, 0.0, 9.999958, 9.999206 
7.2501993e+2, 2.4509062e+2, -627709.6, -699141.94, -1496.8278, 0.029503837, 0.20447813, -627678.25, -89550.52, 0.0, 9.999895, 9.998947 
7.250276e+2, 2.5508928e+2, -508688.4, -588317.06, 12248.851, 0.024167528, 0.17309652, -506846.8, -66705.74, 0.0, 10.000029, 9.99897 
7.250352e+2, 2.6508793e+2, -386226.16, -494794.5, 3126.8887, 0.025482746, 0.14604181, -386136.16, -43981.75, 0.0, 10.000269, 9.998824 
7.2504264e+2, 2.7508646e+2, -234875.44, -367737.78, -564.2617, 0.032759536, 0.11378894, -234873.05, 9294.88, 0.0, 10.000621, 9.998854 
7.250501e+2, 2.8508535e+2, -115308.21, -256222.8, 6259.7344, 0.030208198, 0.11733319, -115030.69, 31146.977, 0.0, 10.000753, 9.998883 
7.2505766e+2, 2.9508463e+2, -28870.307, -164674.95, -1426.0815, 0.016522417, 0.15123212, -28855.332, 19328.277, 0.0, 10.000678, 9.998875 
7.25065e+2, 3.0508313e+2, 13842.523, -130710.375, -17885.068, 0.0056041665, 0.12407514, 16022.51, 16022.51, 0.000000018939705, 10.000688, 9.998771 
7.2507286e+2, 3.1508175e+2, 45809.453, -85702.39, 18242.068, 0.070334546, 0.102420695, 48292.92, 48292.92, 0.0000007295325, 10.000776, 9.999037 
7.349279e+2, 1.2508722e+2, -1821962.0, -1808138.6, -23374.563, 0.021643499, 0.118025035, -1790675.3, -76520.75, 0.0, 9.999458, 9.999614 
7.349349e+2, 1.350868e+2, -1660832.4, -1639529.1, 32470.168, -0.13676228, 0.076034434, -1616008.1, 151.11147, 0.0, 9.999692, 10.0 
7.349466e+2, 1.4508645e+2, -1555117.9, -1523577.0, -16057.843, 0.20705035, 0.038528193, -1516840.5, 1322.7627, 0.0, 9.999699, 10.000109 
7.3495173e+2, 1.5508765e+2, -1467558.4, -1429846.9, -4652.3677, 0.0013138034, 0.14226696, -1429281.4, -9129.505, 0.0, 9.999624, 10.000114 
7.3495823e+2, 1.6508767e+2, -1408393.5, -1412254.1, 11227.05, -0.07811474, 0.16106258, -1398932.0, -76780.65, 0.0, 9.999623, 9.999563 
7.3496693e+2, 1.7508653e+2, -1296452.8, -1305247.0, -3110.3772, 0.027885279, 0.087165646, -1295463.9, -71302.12, 0.0, 9.999709, 9.999584 
7.3497474e+2, 1.8508574e+2, -1199394.8, -1219087.8, -6898.423, 0.04682689, 0.055583507, -1197218.8, -71049.336, 0.0, 9.99975, 9.999483 
7.349815e+2, 1.9508529e+2, -1098146.5, -1117165.9, -461.9173, -0.0389145, 0.057341304, -1098135.3, -69960.586, 0.0, 9.999763, 9.999503 
7.3498887e+2, 2.0508523e+2, -987331.0, -1029973.8, -1612.4891, -0.052368425, 0.11004117, -987270.1, -57093.63, 0.0, 9.999922, 9.999354 
7.349971e+2, 2.1508555e+2, -844629.7, -909026.06, 1012.2811, 0.012096777, 0.2038978, -844613.8, -12438.651, 0.0, 10.000222, 9.999368 
7.350049e+2, 2.2508475e+2, -777062.94, -875041.2, -7413.294, 0.04238043, 0.20960428, -776505.2, -42321.125, 0.0, 10.000225, 9.998926 
7.350123e+2, 2.3508282e+2, -716297.7, -792116.25, -16132.353, 0.037590194, 0.119579345, -713007.9, -76804.72, 0.0, 9.999958, 9.998952 
7.3501986e+2, 2.4508172e+2, -601300.3, -644385.94, 2971.1006, 0.02910828, 0.09706854, -601096.44, -62882.844, 0.0, 9.999895, 9.999323 
7.350276e+2, 2.5508144e+2, -483047.34, -533869.06, 17795.54, 0.01717088, 0.1321602, -477435.75, -37220.176, 0.0, 10.000024, 9.999347 
7.350353e+2, 2.6508078e+2, -392587.1, -506460.34, 16025.986, 0.002154952, 0.16133162, -390374.66, -48152.31, 0.0, 10.000262, 9.998747 
7.350428e+2, 2.750797e+2, -241821.48, -380869.7, 13286.222, -0.014568505, 0.17608236, -240563.36, 3670.6025, 0.0, 10.000615, 9.998766 
7.350508e+2, 2.8507823e+2, -128829.125, -283077.53, 3191.121, 0.017663533, 0.15537281, -128763.14, 17485.123, 0.0, 10.000749, 9.998701 
7.3505914e+2, 2.9507634e+2, -41873.457, -190216.61, -2812.75, 0.09406997, 0.094376594, -41820.145, 6444.8804, 0.0, 10.000671, 9.998703 
7.3506624e+2, 3.0507538e+2, 22901.547, -110619.26, -14434.964, 0.05924511, 0.117441334, 24444.29, 24444.29, 0.0000000073965225, 10.000682, 9.998911 
7.35073e+2, 3.15075e+2, 50928.93, -70980.734, 20700.908, 0.002852898, 0.18420134, 54348.156, 54348.156, 0.0000004773962, 10.00076, 9.9991455 
7.449276e+2, 1.2507948e+2, -1769050.6, -1761802.6, -34032.617, 0.034074027, 0.13830067, -1731201.6, -16970.436, 0.0, 9.999732, 9.999799 
7.449344e+2, 1.3507898e+2, -1700525.0, -1636937.4, 44281.906, -0.14205879, 0.06682399, -1614217.6, 2017.9714, 0.0, 9.999328, 10.000193 
7.449458e+2, 1.4507864e+2, -1608827.8, -1544331.8, 7069.79, 0.18217596, 0.020426676, -1543565.9, -25327.197, 0.0, 9.999306, 10.000157 
7.4495155e+2, 1.5507999e+2, -1438970.6, -1410823.1, -17009.639, 0.013470145, 0.13299443, -1402819.8, 17406.443, 0.0, 9.999798, 10.000162 
7.4495816e+2, 1.6508006e+2, -1365673.1, -1400766.6, -13343.541, -0.06446231, 0.15975581, -1361175.9, -38950.453, 0.0, 9.999956, 9.999481 
7.4496645e+2, 1.750789e+2, -1290456.5, -1311382.3, -4140.102, 0.0052944236, 0.092643514, -1289667.1, -65430.777, 0.0, 9.99979, 9.999502 
7.4497426e+2, 1.850781e+2, -1198729.5, -1214086.9, 3847.5168, 0.024552569, 0.059864614, -1197819.5, -71575.07, 0.0, 9.999733, 9.999526 
7.449814e+2, 1.9507757e+2, -1092689.6, -1110346.3, 879.9724, -0.026461376, 0.052214514, -1092645.9, -64396.24, 0.0, 9.999781, 9.999542 
7.4498904e+2, 2.0507748e+2, -1011216.7, -1049007.6, -3630.7773, -0.028474748, 0.10190858, -1010871.0, -80619.14, 0.0, 9.99979, 9.999287 
7.449972e+2, 2.1507777e+2, -914992.44, -949685.6, -10673.525, 0.024467584, 0.19821462, -911971.7, -79720.29, 0.0, 9.999769, 9.999306 
7.4500495e+2, 2.2507691e+2, -812950.44, -887790.5, -13109.367, 0.044145472, 0.1993488, -810720.56, -76459.836, 0.0, 9.999959, 9.998968 
7.4501234e+2, 2.3507492e+2, -657566.5, -759041.6, -57.343613, 0.029326305, 0.098555565, -657566.44, -21286.73, 0.0, 10.00034, 9.998995 
7.450199e+2, 2.4507381e+2, -527572.7, -612519.06, 11784.95, 0.02080539, 0.07447832, -525968.0, 12322.059, 0.0, 10.000419, 9.9992895 
7.450277e+2, 2.5507358e+2, -458382.8, -526110.2, -5841.4463, 0.018606944, 0.11685025, -457882.7, -17590.596, 0.0, 10.000211, 9.99931 
7.450356e+2, 2.6507303e+2, -404245.75, -512673.5, -8573.821, 0.0111562805, 0.16138561, -403571.97, -61273.99, 0.0, 10.000183, 9.998743 
7.450434e+2, 2.750722e+2, -282398.78, -401360.03, -6484.4063, 0.00010375136, 0.1990908, -282046.38, -37738.453, 0.0, 10.000339, 9.998759 
7.450515e+2, 2.8507063e+2, -175590.1, -317127.97, -18234.871, 0.030719664, 0.17585984, -173278.58, -26955.121, 0.0, 10.000476, 9.998599 
7.450597e+2, 2.9506838e+2, -60955.57, -210469.78, -20251.219, 0.09889179, 0.08830689, -58261.164, -9916.996, 0.0, 10.000587, 9.998604 
7.4506694e+2, 3.050677e+2, 43757.96, -101821.83, -24903.824, 0.05541764, 0.14631191, 47900.305, 47900.305, 0.0000000015345106, 10.000831, 9.9989 
7.450739e+2, 3.1506726e+2, 123841.73, -28942.59, -5997.771, -0.0011590756, 0.20519425, 124076.81, 124076.81, 0.00000026410652, 10.001231, 9.999207 
7.5492775e+2, 1.2507087e+2, -1722552.9, -1666505.4, -42487.49, 0.06684921, 0.0941021, -1643632.0, 70685.3, 0.0, 9.999736, 10.000451 
7.5493324e+2, 1.3507216e+2, -1655247.3, -1541016.1, 28049.742, -0.19257613, 0.13498852, -1534500.1, 81801.01, 0.0, 9.99932, 10.000854 
7.5494444e+2, 1.450719e+2, -1640528.1, -1608510.1, 23473.174, 0.11245756, 0.08436018, -1596106.5, -77803.49, 0.0, 9.999299, 9.99972 
7.5495166e+2, 1.5507159e+2, -1468281.9, -1472193.3, 1965.5085, 0.04720596, 0.07470573, -1467464.9, -47156.832, 0.0, 9.9998, 9.999741 
7.549585e+2, 1.6507146e+2, -1347079.6, -1362987.8, -20529.355, -0.030262098, 0.08941796, -1333017.3, -10707.323, 0.0, 9.999959, 9.99974 
7.549656e+2, 1.750715e+2, -1272757.4, -1275581.3, -10092.837, -0.06235669, 0.11549486, -1263978.3, -39668.707, 0.0, 9.999792, 9.999747 
7.549734e+2, 1.8507122e+2, -1204514.4, -1224667.5, 4817.394, -0.030625472, 0.12756076, -1203422.0, -77109.89, 0.0, 9.999727, 9.999456 
7.549819e+2, 1.9507062e+2, -1098304.1, -1121186.5, 2839.891, 0.045255672, 0.11901111, -1097957.0, -69639.164, 0.0, 9.999777, 9.99947 
7.549896e+2, 2.0506983e+2, -1024738.94, -1076007.1, -5517.2495, 0.055689663, 0.111520275, -1024151.94, -93825.32, 0.0, 9.999785, 9.9991045 
7.5499684e+2, 2.150688e+2, -927764.6, -975388.8, -11351.913, 0.009477504, 0.09547034, -925197.1, -92858.48, 0.0, 9.999765, 9.999132 
7.550044e+2, 2.250681e+2, -789069.06, -836762.25, 417.9847, -0.011150285, 0.10286508, -789065.44, -54719.355, 0.0, 9.999952, 9.999322 
7.550123e+2, 2.350677e+2, -634399.25, -709440.75, 14398.833, -0.008942507, 0.12533098, -631731.3, 4617.7173, 0.0, 10.000334, 9.999338 
7.5502014e+2, 2.4506688e+2, -559738.4, -678201.25, 3393.0476, 0.0031269325, 0.136536, -559641.25, -21284.115, 0.0, 10.000414, 9.99884 
7.55028e+2, 2.5506568e+2, -490327.8, -591841.3, -13042.735, 0.025261013, 0.12772515, -488678.84, -48308.453, 0.0, 10.000208, 9.998859 
7.550361e+2, 2.650647e+2, -399237.94, -501913.06, -2969.3142, 0.048344545, 0.14652425, -399152.13, -56771.008, 0.0, 10.00018, 9.998818 
7.5504446e+2, 2.750639e+2, -277015.63, -389413.4, 685.5487, 0.071960196, 0.18091175, -277011.47, -32621.758, 0.0, 10.000335, 9.998843 
7.550523e+2, 2.8506255e+2, -179645.61, -324134.75, -13775.084, 0.06551717, 0.17823234, -178344.06, -31941.012, 0.0, 10.00047, 9.998553 
7.550597e+2, 2.9506072e+2, -65835.78, -218854.25, -14638.1045, 0.028705752, 0.13651316, -64448.05, -16027.412, 0.0, 10.00058, 9.99855 
7.550671e+2, 3.0506015e+2, 33433.855, -120687.97, -10429.468, -0.00960308, 0.21411492, 34136.418, 34136.418, 0.00000000001992495, 10.00082, 9.998775 
7.550757e+2, 3.1505856e+2, 122466.04, -27150.033, 9373.553, 0.049015786, 0.17169963, 123051.01, 123051.01, 0.000000109993245, 10.001211, 9.9992285 
7.649274e+2, 1.250629e+2, -1754471.8, -1694774.9, -14998.108, 0.0644853, 0.084095605, -1691218.6, 23176.756, 0.0, 9.999569, 10.00034 
7.6493293e+2, 1.3506429e+2, -1589654.1, -1521103.6, -14059.099, -0.17998073, 0.14649698, -1518332.3, 98046.66, 0.0, 9.999822, 10.000748 
7.649438e+2, 1.4506403e+2, -1589388.0, -1583553.8, -24260.2, 0.10311723, 0.10038604, -1562036.0, -43655.133, 0.0, 9.999649, 9.9997225 
7.6495105e+2, 1.5506351e+2, -1557504.5, -1515001.5, -12794.983, 0.034000956, 0.07102898, -1511447.0, -91059.49, 0.0, 9.999186, 9.9997425 
7.64958e+2, 1.6506338e+2, -1445391.9, -1397573.3, -17590.596, -0.037230175, 0.07918795, -1391799.5, -69410.31, 0.0, 9.999226, 9.999857 
7.649654e+2, 1.750636e+2, -1269124.4, -1260475.1, -18532.49, -0.058496993, 0.111343384, -1245769.4, -21382.246, 0.0, 9.999759, 9.999868 
7.6497334e+2, 1.8506345e+2, -1167337.5, -1205167.0, -11623.813, -0.023958957, 0.13113306, -1164051.4, -37663.184, 0.0, 9.999976, 9.999471 
7.6498175e+2, 1.9506297e+2, -1081432.1, -1111526.9, -8039.192, 0.04772799, 0.13155001, -1079419.3, -51026.688, 0.0, 9.9998865, 9.999483 
7.649895e+2, 2.0506205e+2, -1003315.56, -1073901.8, -2737.6882, 0.054704282, 0.11460347, -1003209.56, -72807.016, 0.0, 9.999968, 9.999031 
7.6499677e+2, 2.1506068e+2, -869471.0, -955846.2, -1670.9694, 0.0043318095, 0.07078811, -869438.7, -37020.62, 0.0, 10.000202, 9.999056 
7.6500434e+2, 2.2506003e+2, -748765.4, -808230.9, 2705.9573, -0.0192458, 0.084186144, -748642.5, -14217.658, 0.0, 10.000193, 9.9994 
7.6501226e+2, 2.3506008e+2, -685550.44, -725952.0, -5734.506, -0.019019516, 0.14515151, -684752.25, -48329.14, 0.0, 9.9999485, 9.999411 
7.650203e+2, 2.4505931e+2, -629179.94, -735165.5, -15695.09, -0.0018658377, 0.16660307, -626904.56, -88473.375, 0.0, 10.000037, 9.998631 
7.6502836e+2, 2.5505772e+2, -469097.28, -605045.56, -15218.653, 0.031719435, 0.14028844, -467414.47, -26965.518, 0.0, 10.000455, 9.99865 
7.6503664e+2, 2.650565e+2, -337935.97, -469104.47, -881.1273, 0.05966665, 0.14489189, -337930.03, 4531.898, 0.0, 10.000589, 9.998845 
7.650449e+2, 2.7505565e+2, -259885.95, -377866.28, -3039.9854, 0.08279484, 0.16847694, -259807.69, -15337.084, 0.0, 10.00044, 9.998871 
7.6505286e+2, 2.8505436e+2, -171848.8, -313527.06, -7126.0313, 0.07185925, 0.1673978, -171491.28, -25008.348, 0.0, 10.000494, 9.998615 
7.650603e+2, 2.9505274e+2, -33893.855, -197351.42, -1367.7114, 0.026157629, 0.14027, -33882.414, 14616.017, 0.0, 10.000772, 9.998606 
7.650678e+2, 3.050522e+2, 16269.536, -150635.08, 472.46368, -0.018716626, 0.22879036, 16270.873, 16270.873, 0.0, 10.000793, 9.998583 
7.6507646e+2, 3.1504986e+2, 25432.787, -69608.53, 10883.433, 0.043284096, 0.13061355, 26663.15, 26663.15, 0.000000028836135, 10.0005245, 9.999268 
7.749264e+2, 1.2505564e+2, -1818499.8, -1825395.0, 372.60727, 0.017707605, 0.11428192, -1818479.6, -104014.91, 0.00000000003061157, 9.999559, 9.999449 
7.7493346e+2, 1.3505538e+2, -1652084.6, -1650727.5, -5631.7153, -0.108272776, 0.1004976, -1645733.6, -29264.988, 0.0, 9.999825, 9.999857 
7.749439e+2, 1.4505503e+2, -1556226.9, -1516331.4, -44608.93, 0.14806609, 0.06683858, -1487413.3, 31059.12, 0.0, 9.999655, 10.000181 
7.749496e+2, 1.5505578e+2, -1526774.4, -1451485.0, -29927.914, -0.029887388, 0.12080724, -1441038.0, -20573.643, 0.0, 9.999185, 10.00018 
7.749567e+2, 1.6505586e+2, -1448391.4, -1401764.6, 1640.9844, -0.08961111, 0.12883893, -1401707.0, -79243.86, 0.0, 9.999218, 9.999832 
7.749659e+2, 1.7505524e+2, -1270390.3, -1262623.5, 1701.9858, 0.014909839, 0.080459505, -1262266.9, -37798.113, 0.0, 9.999757, 9.999854 
7.749739e+2, 1.8505484e+2, -1160565.9, -1190538.6, -15882.792, 0.04168774, 0.069728695, -1153715.3, -27242.969, 0.0, 9.999972, 9.999573 
7.749809e+2, 1.9505464e+2, -1074726.1, -1097335.6, -11221.346, -0.022572787, 0.08903345, -1070102.4, -41628.543, 0.0, 9.999885, 9.999582 
7.749886e+2, 2.0505418e+2, -1001844.44, -1068918.4, 5136.0186, -0.036332402, 0.11031244, -1001453.44, -70973.92, 0.0, 9.999959, 9.999069 
7.7499694e+2, 2.1505342e+2, -868188.3, -951848.0, 7175.1987, 0.0066105123, 0.124378935, -867577.4, -35087.953, 0.0, 10.000196, 9.999085 
7.750049e+2, 2.2505274e+2, -763889.3, -838859.0, -7473.4834, 0.017940529, 0.14335877, -763151.56, -28654.781, 0.0, 10.000189, 9.999192 
7.750124e+2, 2.3505212e+2, -700117.4, -755579.7, -14339.202, -0.004506403, 0.15828751, -696629.44, -60127.684, 0.0, 9.999946, 9.999208 
7.7502036e+2, 2.4505112e+2, -628167.9, -731640.9, -568.5799, 0.0013237005, 0.164539, -628164.75, -89652.64, 0.0, 10.000031, 9.998658 
7.750289e+2, 2.550497e+2, -467640.7, -600750.9, 1160.5254, 0.035328258, 0.15305054, -467630.6, -27102.88, 0.0, 10.000449, 9.998682 
7.7503705e+2, 2.6504847e+2, -340969.44, -474438.1, -6574.9414, 0.04407243, 0.15666358, -340646.3, 1893.9963, 0.0, 10.000585, 9.998812 
7.7504486e+2, 2.7504742e+2, -263613.38, -384294.66, -7595.7583, 0.0285683, 0.16542344, -263137.16, -18586.908, 0.0, 10.000433, 9.998831 
7.750531e+2, 2.85046e+2, -159279.4, -285661.2, 2755.4497, 0.043504987, 0.14562419, -159219.36, -12656.519, 0.0, 10.000486, 9.998811 
7.750617e+2, 2.9504433e+2, -21708.146, -170818.7, 11107.255, 0.086710796, 0.09286405, -20885.309, 27692.633, 0.0, 10.000766, 9.998792 
7.7506906e+2, 3.050438e+2, -5078.447, -193009.2, -8621.704, 0.024740132, 0.18715605, -4683.7373, -4683.7373, 0.0, 10.000785, 9.998296 
7.7507627e+2, 3.1504124e+2, 23809.719, -71098.5, 524.20593, -0.029143872, 0.09250977, 23812.615, 23812.615, 0.0000000029769756, 10.000516, 9.999263 
7.8492606e+2, 1.2504777e+2, -1806029.4, -1822185.4, -24084.506, 0.022497442, 0.12765475, -1788704.3, -74161.836, 0.0000000009851104, 9.999655, 9.999426 
7.849331e+2, 1.3504742e+2, -1719659.3, -1687674.0, 25361.21, -0.10401369, 0.11016884, -1673684.1, -57136.402, 0.0, 9.99938, 9.999817 
7.849432e+2, 1.4504708e+2, -1592482.8, -1531624.9, 2169.7515, 0.12605882, 0.07835859, -1531547.6, -12996.266, 0.0, 9.999394, 10.000203 
7.849488e+2, 1.5504786e+2, -1437840.1, -1405998.4, -15400.3, -0.050417162, 0.13197175, -1399768.8, 20773.863, 0.0, 9.9997835, 10.000204 
7.849561e+2, 1.6504793e+2, -1364274.3, -1360899.0, 8533.481, -0.097021505, 0.13669288, -1353887.9, -31346.656, 0.0, 9.999795, 9.999834 
7.849656e+2, 1.7504728e+2, -1315853.4, -1284644.3, 8483.157, 0.028570643, 0.08417692, -1282487.4, -57940.33, 0.0, 9.999446, 9.999853 
7.849738e+2, 1.850468e+2, -1233041.6, -1226503.0, -9185.619, 0.05392775, 0.06727822, -1220022.3, -93471.02, 0.0, 9.999478, 9.999564 
7.8498065e+2, 1.9504651e+2, -1074917.8, -1098166.3, -13777.177, -0.03483549, 0.07761321, -1068516.0, -39962.27, 0.0, 9.9998865, 9.999576 
7.8498834e+2, 2.0504613e+2, -987765.0, -1066812.3, -5413.8774, -0.056138, 0.110087894, -987395.94, -56837.266, 0.0, 10.000077, 9.999026 
7.84997e+2, 2.1504565e+2, -891247.0, -968357.5, -10518.27, -0.0043804883, 0.15553945, -889838.0, -57272.01, 0.0, 10.000062, 9.999037 
7.8500515e+2, 2.2504483e+2, -781656.6, -867343.06, -30877.39, 0.022273876, 0.17234486, -771689.25, -37114.598, 0.0, 10.000153, 9.999014 
7.850128e+2, 2.3504367e+2, -653168.56, -752554.9, -37505.46, 0.020553801, 0.15116829, -640603.6, -4018.8005, 0.0, 10.000354, 9.999032 
7.8502077e+2, 2.4504246e+2, -576869.5, -697978.4, -15264.833, 0.020726018, 0.14264712, -574975.1, -36378.418, 0.0, 10.000346, 9.998736 
7.8502905e+2, 2.5504118e+2, -509155.4, -612356.44, -11492.683, 0.023438502, 0.13816087, -507891.06, -67280.56, 0.0, 10.000129, 9.998756 
7.8503716e+2, 2.6504004e+2, -406329.3, -505852.1, -17485.348, 0.021750113, 0.14669634, -403346.66, -60724.754, 0.0, 10.000134, 9.998813 
7.850451e+2, 2.7503902e+2, -271587.38, -388377.1, -16952.873, 0.015664399, 0.15874688, -269176.3, -24544.994, 0.0, 10.000379, 9.998829 
7.8505355e+2, 2.8503758e+2, -163468.92, -293398.38, -11210.008, 0.039451804, 0.13377295, -162508.84, -15864.08, 0.0, 10.000482, 9.998759 
7.850623e+2, 2.9503566e+2, -76922.81, -202716.17, -22900.863, 0.09298494, 0.066782564, -72883.39, -24221.25, 0.0, 10.000411, 9.998742 
7.850699e+2, 3.050351e+2, -34189.03, -211176.1, -39339.766, 0.037058875, 0.16363467, -25838.758, -25838.758, 0.0, 10.000603, 9.998259 
7.850773e+2, 3.1503272e+2, 124173.37, 4180.139, -17584.154, -0.011836776, 0.088746496, 126697.12, 126697.12, 0.0, 10.00109, 9.999503 
7.949262e+2, 1.2503934e+2, -1744166.1, -1695603.5, -30858.715, 0.06426575, 0.12531327, -1680618.5, 34009.664, 0.0000000034592607, 9.9996605, 10.000293 
7.949318e+2, 1.350405e+2, -1661043.9, -1566203.4, 14372.971, -0.17030366, 0.17531699, -1564073.0, 52542.652, 0.0, 9.99938, 10.000651 
7.949417e+2, 1.4504029e+2, -1622352.4, -1592418.0, 15039.178, 0.033035412, 0.13559265, -1586167.5, -67550.32, 0.0, 9.999391, 9.999787 
7.949488e+2, 1.5503982e+2, -1465813.8, -1463817.4, -82.74876, -0.03292203, 0.10437872, -1463814.0, -43192.234, 0.0, 9.9997835, 9.999806 
7.949563e+2, 1.6503963e+2, -1362693.1, -1357849.8, -5757.93, -0.0648095, 0.10222791, -1354024.9, -31401.725, 0.0, 9.999795, 9.999856 
7.9496455e+2, 1.7503971e+2, -1315010.9, -1283191.9, -4373.924, -0.020032587, 0.12251877, -1282601.5, -57979.902, 0.0, 9.999445, 9.999864 
7.9497284e+2, 1.8503937e+2, -1242419.0, -1244314.9, 5334.31, 0.008667944, 0.12351115, -1237949.0, -111324.49, 0.0, 9.999472, 9.999445 
7.9498094e+2, 1.9503857e+2, -1084047.6, -1115816.6, 1576.8401, 0.008216878, 0.09670106, -1083969.6, -55337.477, 0.0, 9.999881, 9.999456 
7.9498893e+2, 2.0503792e+2, -997259.3, -1085552.3, -7072.463, -0.0070493333, 0.11336262, -996696.4, -66056.625, 0.0, 10.0000725, 9.998899 
7.9499674e+2, 2.1503738e+2, -900763.8, -986953.8, -10914.468, -0.031350803, 0.16436091, -899403.2, -66755.57, 0.0, 10.000056, 9.998913 
7.9500496e+2, 2.250363e+2, -793729.6, -890722.9, -24370.305, -0.010309577, 0.17092018, -787950.75, -53292.43, 0.0, 10.000146, 9.998857 
7.950135e+2, 2.3503473e+2, -664493.3, -775523.2, -29702.857, 0.054082833, 0.12399599, -657046.56, -20374.598, 0.0, 10.000351, 9.998876 
7.950214e+2, 2.4503337e+2, -568474.7, -680269.3, -23834.443, 0.054021522, 0.10180317, -563605.3, -24920.4, 0.0, 10.000344, 9.998859 
7.9502887e+2, 2.5503224e+2, -501421.53, -595331.2, -18887.639, -0.009154914, 0.09714294, -497765.1, -57068.086, 0.0, 10.000123, 9.998877 
7.95037e+2, 2.6503125e+2, -404212.75, -500077.28, -8875.041, -0.012956847, 0.11465016, -403398.03, -60691.434, 0.0, 10.000129, 9.998857 
7.950458e+2, 2.7503043e+2, -269060.2, -382498.16, -6602.3345, 0.041543163, 0.14299813, -268677.22, -23963.113, 0.0, 10.000376, 9.998872 
7.950542e+2, 2.8502893e+2, -186274.77, -339766.9, -13001.355, 0.057804752, 0.12978896, -185181.28, -38452.566, 0.0, 10.000477, 9.998444 
7.950622e+2, 2.9502684e+2, -99688.06, -248515.81, -23788.523, 0.03641181, 0.06956109, -95978.2, -47227.984, 0.0, 10.000403, 9.998432 
7.950702e+2, 3.050262e+2, -18586.922, -176269.38, -21973.79, 0.00826427, 0.16422944, -15582.035, -15582.035, 0.0, 10.000593, 9.998503 
7.9507935e+2, 3.1502417e+2, 156920.89, 75538.61, 1186.1425, 0.0864085, 0.104051545, 156938.17, 156938.17, 0.0, 10.001076, 10.000001 
8.049257e+2, 1.2503122e+2, -1755902.9, -1686219.4, -1491.1948, 0.054257415, 0.11678061, -1686187.5, 28520.71, 0.0000000057252847, 9.999514, 10.00043 
8.0493104e+2, 1.3503277e+2, -1646670.4, -1546226.3, -19241.998, -0.1864456, 0.19472836, -1542666.3, 74025.414, 0.0, 9.999424, 10.000767 
8.049409e+2, 1.4503263e+2, -1629644.6, -1601397.8, -14546.673, 0.0124050025, 0.15879884, -1595246.1, -76553.8, 0.0, 9.999366, 9.999737 
8.049486e+2, 1.5503182e+2, -1520161.4, -1496422.0, -3888.142, -0.013941821, 0.09928419, -1495801.4, -75101.31, 0.0, 9.999438, 9.999749 
8.049562e+2, 1.6503151e+2, -1395840.1, -1389644.4, -10733.109, -0.046230707, 0.09467463, -1381571.0, -58868.086, 0.0, 9.999635, 9.999716 
8.04964e+2, 1.7503166e+2, -1250962.6, -1267989.8, -22415.648, -0.046137728, 0.13718931, -1235498.3, -10797.064, 0.0, 9.999953, 9.999724 
8.049723e+2, 1.850313e+2, -1174883.6, -1223372.1, -13040.18, -0.019817155, 0.14770545, -1171599.1, -44894.633, 0.0, 9.999987, 9.99934 
8.049809e+2, 1.9503038e+2, -1110526.9, -1140521.3, -16787.666, 0.020021612, 0.11811404, -1103013.1, -74299.92, 0.0, 9.999752, 9.999349 
8.0498916e+2, 2.050295e+2, -1034034.75, -1104981.8, -16027.845, 0.016257532, 0.119052686, -1030581.9, -99859.42, 0.0, 9.999828, 9.998884 
8.0499697e+2, 2.1502864e+2, -879280.8, -977736.56, -12840.972, -0.026869822, 0.14093351, -877633.56, -44900.973, 0.0, 10.000211, 9.9989 
8.0500513e+2, 2.2502749e+2, -758474.0, -869094.0, -17860.527, -0.017869882, 0.13661072, -755661.75, -20918.025, 0.0, 10.000368, 9.998898 
8.0501366e+2, 2.3502603e+2, -668756.3, -773248.2, -9380.036, 0.041984342, 0.098326825, -667920.94, -31164.979, 0.0, 10.000303, 9.998914 
8.0502164e+2, 2.4502479e+2, -586425.56, -699481.75, -10546.166, 0.049571227, 0.08946927, -585450.2, -46682.223, 0.0, 10.000267, 9.998765 
8.0502915e+2, 2.550237e+2, -486943.34, -599023.4, -23472.453, 0.0047302954, 0.10114757, -482226.13, -41446.188, 0.0, 10.00027, 9.99878 
8.050374e+2, 2.6502267e+2, -383322.47, -498443.97, -15206.106, 0.004689058, 0.121343575, -381347.8, -38557.277, 0.0, 10.000308, 9.99878 
8.050462e+2, 2.7502167e+2, -275397.5, -393845.8, -23308.85, 0.050038997, 0.13946201, -270975.72, -26175.568, 0.0, 10.000368, 9.998796 
8.050546e+2, 2.850202e+2, -202076.25, -350110.9, -29212.139, 0.05957084, 0.1339597, -196520.25, -49705.555, 0.0, 10.0003805, 9.998419 
8.050625e+2, 2.9501835e+2, -107535.03, -255181.2, -20386.906, 0.032477606, 0.09930588, -104771.734, -55937.793, 0.0, 10.000362, 9.998405 
8.050707e+2, 3.0501744e+2, -52605.09, -196102.39, -6507.0605, 0.008295355, 0.17187272, -52310.625, -52310.625, 0.0, 10.000375, 9.998472 
8.050802e+2, 3.1501526e+2, 68341.195, 55383.324, -7912.7036, 0.103082, 0.09754958, 72089.06, 72089.06, 0.0, 10.000371, 10.0002 
8.149244e+2, 1.2502351e+2, -1799478.3, -1775804.3, -2176.094, -0.023703942, 0.10791018, -1775605.9, -60824.855, 0.000000004999778, 9.999512, 9.999816 
8.1493074e+2, 1.3502426e+2, -1691839.5, -1637556.0, -23382.781, -0.15797977, 0.16771452, -1628872.8, -12097.259, 0.0, 9.999417, 10.000142 
8.149407e+2, 1.4502414e+2, -1607970.9, -1556376.1, -13921.308, 0.058731474, 0.14858432, -1552859.6, -34082.883, 0.0, 9.999363, 10.000049 
8.1494826e+2, 1.5502392e+2, -1498128.4, -1452775.6, -161.63382, 0.004945463, 0.11688656, -1452775.0, -31997.729, 0.0, 9.999445, 10.000047 
8.1495583e+2, 1.650236e+2, -1417535.5, -1434770.5, 420.57156, -0.044603903, 0.11291212, -1417525.3, -94745.2, 0.0, 9.999636, 9.999405 
8.149639e+2, 1.7502317e+2, -1272983.4, -1312124.8, -10364.097, -0.054070022, 0.12644035, -1270408.5, -45623.133, 0.0, 9.999947, 9.999423 
8.149721e+2, 1.850226e+2, -1182266.0, -1237419.9, -22947.334, -0.036099374, 0.13919622, -1173967.3, -47176.473, 0.0, 9.999981, 9.999247 
8.1498045e+2, 1.9502194e+2, -1117528.0, -1154647.1, -25562.646, -0.0017402498, 0.14316335, -1104498.0, -75701.414, 0.0, 9.999749, 9.999254 
8.149889e+2, 2.0502089e+2, -1028165.94, -1091691.4, -2580.7456, 0.010770099, 0.12771687, -1028061.3, -97254.78, 0.0, 9.999824, 9.998978 
8.149975e+2, 2.1501946e+2, -873337.1, -964494.2, 1582.3301, 0.0058799824, 0.0848549, -873309.6, -40488.85, 0.0, 10.000206, 9.998993 
8.150056e+2, 2.2501837e+2, -741781.0, -833886.2, -21200.615, -0.0038349745, 0.06929318, -737135.4, -2304.6248, 0.0, 10.000365, 9.999141 
8.1501335e+2, 2.350176e+2, -652396.9, -738560.7, -11438.667, -0.018646024, 0.073724, -650904.2, -14067.674, 0.0, 10.000299, 9.999154 
8.1502146e+2, 2.450167e+2, -609566.25, -746741.6, -11288.255, 0.0038891074, 0.103989996, -608643.56, -69797.66, 0.0, 10.000263, 9.998443 
8.1503004e+2, 2.550156e+2, -509607.6, -645672.44, -22988.955, 0.06308951, 0.1484809, -505828.44, -64969.2, 0.0, 10.000267, 9.998462 
8.150383e+2, 2.6501435e+2, -397828.0, -527820.75, -12726.1455, 0.0722716, 0.16757548, -396593.84, -53720.34, 0.0, 10.000304, 9.998581 
8.1504637e+2, 2.750128e+2, -290377.22, -423578.84, -19678.783, 0.0333303, 0.15292703, -287530.75, -42641.813, 0.0, 10.000361, 9.998596 
8.150548e+2, 2.8501138e+2, -183121.61, -309755.7, -30561.547, 0.036516655, 0.14785376, -176131.78, -29229.33, 0.0, 10.000376, 9.998698 
8.1506336e+2, 2.950101e+2, -89355.14, -217141.44, -19433.035, 0.07888359, 0.14711078, -86465.23, -37551.152, 0.0, 10.00036, 9.998669 
8.150713e+2, 3.0500883e+2, -75888.305, -242987.0, -5097.769, 0.03624998, 0.18062384, -75732.93, -75732.93, 0.0, 10.000369, 9.998152 
8.150798e+2, 3.1500593e+2, 58291.55, 37274.754, -7822.5967, 0.025113238, 0.06892105, 60883.51, 60883.51, 0.0000000016901937, 10.00036, 10.000082 
8.2492346e+2, 1.2501526e+2, -1863595.1, -1817410.4, -37510.61, -0.048753258, 0.10496653, -1796453.9, -81592.695, 0.0000000017683296, 9.999119, 9.999718 
8.249304e+2, 1.3501556e+2, -1690930.1, -1652557.4, -27504.5, -0.13657281, 0.13409424, -1638208.5, -21348.254, 0.0, 9.999489, 10.000005 
8.249403e+2, 1.450155e+2, -1562004.1, -1529590.1, -10826.75, 0.066831805, 0.1246379, -1526306.4, -7445.206, 0.0, 9.999658, 10.000091 
8.249476e+2, 1.5501568e+2, -1458017.5, -1428460.1, -18150.688, -0.019440455, 0.12950899, -1419832.4, 1025.528, 0.0, 9.9997, 10.000091 
8.249553e+2, 1.6501535e+2, -1405443.1, -1441470.3, -12745.427, -0.068409234, 0.12933376, -1401390.1, -78529.27, 0.0, 9.999774, 9.99929 
8.2496387e+2, 1.7501454e+2, -1289034.3, -1333243.3, -10104.03, -0.047362532, 0.11600903, -1286834.5, -61964.496, 0.0, 9.999895, 9.999303 
8.249722e+2, 1.8501385e+2, -1165051.9, -1226628.3, -17307.11, -0.026892047, 0.11783151, -1160520.9, -33644.063, 0.0, 10.000089, 9.999269 
8.249803e+2, 1.9501321e+2, -1026958.0, -1108494.6, -12348.815, -0.018749133, 0.12518527, -1025128.8, 3752.8337, 0.0, 10.0003605, 9.999275 
8.2498884e+2, 2.0501225e+2, -962466.9, -1056948.1, 11063.728, -0.00076491473, 0.11587414, -961188.6, -30298.275, 0.0, 10.000261, 9.999004 
8.249977e+2, 2.1501097e+2, -931328.6, -989529.44, 9466.452, 0.031283796, 0.083311975, -929827.6, -96924.7, 0.0, 9.999796, 9.999019 
8.25006e+2, 2.2500989e+2, -841835.94, -896633.0, -22248.17, 0.024833001, 0.07402095, -833940.56, -99027.34, 0.0, 9.999741, 9.999011 
8.250136e+2, 2.3500897e+2, -691309.56, -771521.0, -41988.92, -0.021277545, 0.07903579, -673350.3, -36428.824, 0.0, 10.000094, 9.999026 
8.250217e+2, 2.45008e+2, -595300.25, -734097.0, -43544.105, -0.008830334, 0.10740309, -582770.5, -43838.914, 0.0, 10.000337, 9.998493 
8.250304e+2, 2.5500697e+2, -475968.34, -623401.6, -28427.732, 0.061943114, 0.14926374, -470676.9, -29733.268, 0.0, 10.000472, 9.998515 
8.2503873e+2, 2.6500562e+2, -379543.66, -531213.5, -3989.2244, 0.07543806, 0.1652333, -379438.78, -36480.656, 0.0, 10.000484, 9.998469 
8.250468e+2, 2.7500394e+2, -296474.88, -438729.84, -5684.9287, 0.03331498, 0.14704832, -296248.06, -51272.7, 0.0, 10.000374, 9.998485 
8.250552e+2, 2.850025e+2, -175069.48, -296075.6, -16662.613, 0.037445642, 0.13988349, -172816.97, -25827.82, 0.0, 10.000389, 9.998786 
8.250638e+2, 2.9500127e+2, -59241.902, -192231.14, -20763.367, 0.08548382, 0.13734071, -56075.543, -7075.8066, 0.0, 10.000524, 9.99876 
8.250717e+2, 3.0499983e+2, -68952.52, -260353.19, -11421.527, 0.035443705, 0.15672846, -68273.375, -68273.375, 0.0, 10.0005045, 9.997968 
8.2508e+2, 3.1499743e+2, 45854.113, 23719.262, -9831.2705, 0.0036936754, 0.11356481, 49590.125, 49590.125, 0.000000023716037, 10.000307, 10.000013 
8.3492273e+2, 1.2500648e+2, -1833802.3, -1755626.5, -21242.652, -0.035417765, 0.10879773, -1750227.1, -35278.855, 0.000000000051048894, 9.999115, 10.000145 
8.3493e+2, 1.3500673e+2, -1662027.6, -1596190.0, -12603.278, -0.12591366, 0.092331536, -1593859.9, 23085.775, 0.0, 9.999501, 10.000386 
8.349396e+2, 1.4500672e+2, -1579618.0, -1566944.4, -11204.714, 0.031127194, 0.08394805, -1560408.6, -41462.984, 0.0, 9.999663, 9.999831 
8.349465e+2, 1.5500712e+2, -1475807.6, -1463214.4, -16557.256, -0.0913018, 0.13628557, -1451796.9, -30854.895, 0.0, 9.999692, 9.999856 
8.349545e+2, 1.6500683e+2, -1399423.8, -1427994.5, -8940.3125, -0.12259251, 0.14552087, -1396856.8, -73911.88, 0.0, 9.999768, 9.999387 
8.349639e+2, 1.7500587e+2, -1282420.5, -1320938.1, -4855.4424, -0.029051088, 0.10799714, -1281817.9, -56863.49, 0.0, 9.999899, 9.999386 
8.349726e+2, 1.8500501e+2, -1156456.3, -1208507.1, -7808.321, 0.003972625, 0.08346875, -1155310.1, -28347.92, 0.0, 10.000088, 9.9993925 
8.3498055e+2, 1.9500422e+2, -1018820.3, -1090131.9, -2124.8354, -0.034082726, 0.062336393, -1018757.06, 10211.352, 0.0, 10.000355, 9.999404 
8.349889e+2, 2.0500362e+2, -965619.7, -1062700.8, -7631.801, -0.021560306, 0.08285884, -965023.44, -34049.57, 0.0, 10.0002575, 9.998967 
8.3499765e+2, 2.1500315e+2, -934281.0, -995152.25, -8340.483, 0.046594378, 0.1366124, -933158.9, -100180.305, 0.0, 9.999793, 9.998981 
8.350061e+2, 2.2500204e+2, -878114.25, -971323.6, -10121.964, 0.06529188, 0.15049736, -877027.75, -142037.0, 0.0, 9.999738, 9.998501 
8.3501416e+2, 2.350002e+2, -727257.75, -845724.25, -28600.738, 0.03207906, 0.11474172, -720714.25, -83703.69, 0.0, 10.000092, 9.998519 
8.350222e+2, 2.449988e+2, -565811.75, -672288.75, -39062.355, 0.009243171, 0.101951614, -553018.4, -13993.859, 0.0, 10.000334, 9.9989195 
8.350302e+2, 2.5499776e+2, -447198.47, -562520.6, -22555.75, -0.0030274056, 0.104573905, -442943.78, -1910.9557, 0.0, 10.000467, 9.998936 
8.350386e+2, 2.6499656e+2, -381648.72, -535412.06, -8534.907, 0.009708941, 0.11344748, -381176.4, -38132.03, 0.0, 10.000483, 9.998443 
8.350473e+2, 2.7499506e+2, -298819.13, -443228.88, -9064.085, 0.048235938, 0.11828698, -298252.44, -53192.785, 0.0, 10.000371, 9.998456 
8.3505577e+2, 2.8499353e+2, -183970.89, -312926.13, -11229.608, 0.06057981, 0.10954728, -183000.31, -35925.477, 0.0, 10.000382, 9.998673 
8.35064e+2, 2.949919e+2, -68150.92, -208097.92, -14209.637, 0.04495422, 0.07684731, -66722.71, -17632.346, 0.0, 10.000512, 9.998657 
8.350719e+2, 3.0499047e+2, -71666.734, -265125.16, -18693.666, -0.0013834527, 0.10496586, -69876.945, -69876.945, 0.0, 10.0005, 9.997938 
8.350805e+2, 3.1498954e+2, 45509.38, 23071.713, -16553.604, 0.029436499, 0.21220458, 54287.645, 54287.645, 0.00000010288848, 10.000305, 10.0000105 
8.4492207e+2, 1.24997824e+2, -1772085.1, -1701225.0, -2204.3774, -0.028245796, 0.11421548, -1701156.5, 13877.625, 0.0, 9.999431, 10.000366 
8.4492916e+2, 1.3499834e+2, -1664940.4, -1575407.1, -13610.405, -0.15283236, 0.10477607, -1573383.9, 43643.695, 0.0, 9.99939, 10.00058 
8.4493876e+2, 1.4499834e+2, -1616898.9, -1600477.1, -14798.653, -0.008341282, 0.095265515, -1591764.1, -72736.805, 0.0, 9.9994755, 9.99969 
8.449462e+2, 1.5499839e+2, -1479534.4, -1480738.1, -11998.384, -0.09386881, 0.12782402, -1468122.8, -47095.11, 0.0, 9.999735, 9.999714 
8.449545e+2, 1.6499807e+2, -1371622.8, -1398657.4, 601.0917, -0.109851845, 0.13185295, -1371609.4, -48578.387, 0.0, 9.99989, 9.999529 
8.4496385e+2, 1.7499731e+2, -1264931.8, -1296525.3, 7000.2993, -0.027032452, 0.10228693, -1263450.1, -38412.844, 0.0, 9.99995, 9.999528 
8.4497267e+2, 1.8499655e+2, -1177437.3, -1232669.9, -50.96045, 0.0050491514, 0.086838186, -1177437.3, -50393.094, 0.0, 10.000003, 9.9992695 
8.4498084e+2, 1.9499576e+2, -1073022.0, -1129925.4, -13586.851, -0.024212407, 0.07666648, -1069944.4, -40892.64, 0.0, 10.00004, 9.999283 
8.449891e+2, 2.0499507e+2, -978463.0, -1065612.0, -35480.43, -0.017929923, 0.09375347, -965845.0, -34787.008, 0.0, 10.0001545, 9.998997 
8.449976e+2, 2.1499445e+2, -851679.94, -952238.56, -32214.316, 0.028250895, 0.12765019, -842245.2, -9181.694, 0.0, 10.000345, 9.99901 
8.450061e+2, 2.2499329e+2, -789826.3, -938238.7, -4850.8594, 0.05504062, 0.14103758, -789667.94, -54592.094, 0.0, 10.000385, 9.998414 
8.4501463e+2, 2.3499158e+2, -706340.0, -845420.9, 6837.265, 0.060120102, 0.12622614, -706004.7, -68909.664, 0.0, 10.0002775, 9.998431 
8.4502274e+2, 2.4499016e+2, -571479.94, -670590.0, -2041.2817, 0.036420953, 0.11521056, -571437.94, -32328.777, 0.0, 10.000277, 9.998959 
8.4503055e+2, 2.54989e+2, -457127.44, -562803.75, -15762.424, -0.015873564, 0.09879551, -454826.47, -13708.083, 0.0, 10.0003805, 9.998975 
8.4503883e+2, 2.6498765e+2, -384770.47, -530411.8, -18394.281, -0.014627848, 0.08995343, -382483.22, -39352.598, 0.0, 10.000434, 9.998499 
8.450476e+2, 2.7498606e+2, -283026.28, -428848.5, -14143.954, 0.041247692, 0.079558656, -281667.06, -36520.863, 0.0, 10.000453, 9.998514 
8.450562e+2, 2.8498465e+2, -188400.4, -335787.0, -11828.797, 0.056320213, 0.08904464, -187457.1, -40296.434, 0.0, 10.0004425, 9.998486 
8.450643e+2, 2.9498336e+2, -100779.7, -244328.56, -22208.723, 0.030884113, 0.10689731, -97422.27, -48247.754, 0.0, 10.000378, 9.998472 
8.4507227e+2, 3.0498156e+2, -74839.945, -245728.75, -23838.355, -0.0062685655, 0.10017117, -71576.89, -71576.89, 0.00000000024035085, 10.000389, 9.998123 
8.450811e+2, 3.1498057e+2, 81746.664, 57499.043, -9374.602, 0.04794144, 0.18327695, 84948.32, 84948.32, 0.00000026211356, 10.000481, 10.000162 
8.549214e+2, 1.24989346e+2, -1772043.1, -1702406.1, -4978.0273, -0.04519621, 0.12227024, -1702052.1, 13065.866, 0.0, 9.999436, 10.000355 
8.549279e+2, 1.3499042e+2, -1668483.0, -1581481.3, -15731.482, -0.21825804, 0.17348604, -1578724.0, 38381.746, 0.0, 9.999385, 10.000541 
8.549378e+2, 1.449904e+2, -1616947.5, -1599566.0, -6121.764, -0.054775055, 0.16179143, -1597626.4, -78520.77, 0.0, 9.99947, 9.9997 
8.549466e+2, 1.5498957e+2, -1479114.1, -1482219.9, -820.9977, -0.03205385, 0.10459906, -1478910.5, -57795.848, 0.0, 9.9997425, 9.999701 
8.5495514e+2, 1.6498905e+2, -1360034.8, -1375062.4, 2279.9749, -0.035275765, 0.08592064, -1359696.5, -36577.51, 0.0, 9.999893, 9.99969 
8.5496366e+2, 1.7498891e+2, -1253068.0, -1270711.0, 9354.872, -0.042702522, 0.09732818, -1249031.4, -23912.717, 0.0, 9.999946, 9.999708 
8.5497236e+2, 1.8498853e+2, -1203425.6, -1285323.9, 618.7262, -0.026620748, 0.1282229, -1203421.0, -76298.41, 0.0, 9.999996, 9.998911 
8.549812e+2, 1.9498788e+2, -1098519.9, -1182903.4, -12198.045, 0.007848115, 0.16994871, -1096792.0, -67661.016, 0.0, 10.00004, 9.9989195 
8.549895e+2, 2.0498668e+2, -972104.44, -1051897.4, -29382.523, 0.0072074193, 0.14908373, -962452.4, -31309.94, 0.0, 10.000152, 9.999093 
8.549974e+2, 2.1498488e+2, -845551.6, -938425.8, -25071.148, -0.026374163, 0.05661449, -839215.94, -6058.7534, 0.0, 10.00034, 9.999108 
8.550058e+2, 2.249837e+2, -767527.06, -890828.5, -10192.184, -0.008754795, 0.046931595, -766690.25, -31522.248, 0.0, 10.00038, 9.998743 
8.550149e+2, 2.3498315e+2, -683439.75, -797445.4, 3053.8174, 0.059625994, 0.112420954, -683358.0, -46183.17, 0.0, 10.000276, 9.998761 
8.550234e+2, 2.4498214e+2, -596405.3, -722378.4, 1299.2056, 0.06899913, 0.14467695, -596391.9, -57206.496, 0.0, 10.000276, 9.998605 
8.5503125e+2, 2.5498065e+2, -482300.9, -614309.9, -11517.81, 0.020343121, 0.13187298, -481303.5, -40103.426, 0.0, 10.000376, 9.998624 
8.5503936e+2, 2.6497895e+2, -375686.16, -510608.16, -18434.992, 0.0005467431, 0.09709485, -373212.66, -29996.209, 0.0, 10.00043, 9.998637 
8.550477e+2, 2.7497697e+2, -274599.16, -409643.56, -12483.511, 0.007744171, 0.03331056, -273454.88, -28220.178, 0.0, 10.000445, 9.99865 
8.550562e+2, 2.8497583e+2, -207215.02, -374143.47, -13773.911, 0.019855617, 0.078289405, -206086.11, -58839.54, 0.0, 10.000439, 9.998224 
8.5506475e+2, 2.9497555e+2, -119777.516, -282973.63, -22963.201, 0.038009197, 0.22250643, -116607.94, -67355.375, 0.0, 10.000373, 9.998209 
8.5507286e+2, 3.0497307e+2, -48554.17, -190045.98, -20017.518, 0.0172236, 0.13937803, -45776.72, -45776.72, 0.0000000059514194, 10.000384, 9.9985075 
8.550816e+2, 3.1497043e+2, 100309.88, 100336.12, -5190.1895, 0.050739102, 0.021828854, 105513.2, 105513.2, 0.0000005093443, 10.0004635, 10.000464 
8.6492044e+2, 1.24980606e+2, -1801403.8, -1720919.6, -17150.443, -0.072238654, 0.12749971, -1717417.4, -2214.254, 0.00000000000000000000885557, 9.999256, 10.000314 
8.6492735e+2, 1.3498151e+2, -1667944.5, -1589589.4, -33216.867, -0.21252525, 0.16833621, -1577403.1, 39789.62, 0.0, 9.999425, 10.000465 
8.649374e+2, 1.4498153e+2, -1593740.9, -1580261.9, -14983.9795, -0.04191277, 0.16208541, -1570571.5, -51379.44, 0.0, 9.999594, 9.999772 
8.649465e+2, 1.5498081e+2, -1466234.1, -1468044.6, -6004.402, -0.017166328, 0.108635604, -1461067.1, -39867.063, 0.0, 9.999797, 9.999772 
8.649551e+2, 1.6498037e+2, -1354562.9, -1374283.4, -11615.996, -0.024316944, 0.09289734, -1349186.5, -25982.648, 0.0, 9.999936, 9.999676 
8.6496365e+2, 1.7498022e+2, -1244494.1, -1267410.9, -18309.725, -0.044989407, 0.10786853, -1234352.9, -9149.625, 0.0, 10.000008, 9.999701 
8.649723e+2, 1.8497981e+2, -1195806.3, -1279819.8, -20298.9, -0.036050625, 0.13418199, -1191158.9, -63951.33, 0.0, 10.000042, 9.998926 
8.649811e+2, 1.9497904e+2, -1098020.4, -1181479.0, -6019.7363, -0.0020659878, 0.1617034, -1097588.4, -68371.38, 0.0, 10.000037, 9.998931 
8.649896e+2, 2.0497777e+2, -979363.1, -1058248.6, -6887.282, 0.0017813054, 0.13530554, -978766.4, -47537.234, 0.0, 10.0001135, 9.999068 
8.649977e+2, 2.14976e+2, -858096.3, -947101.3, -12827.799, -0.024066169, 0.048190963, -856284.44, -23040.588, 0.0, 10.000266, 9.999084 
8.6500615e+2, 2.2497484e+2, -763817.3, -871470.0, -16987.629, -0.009043639, 0.0339736, -761200.3, -25946.383, 0.0, 10.000329, 9.9989 
8.6501503e+2, 2.3497428e+2, -668756.3, -772408.0, -18223.342, 0.04666647, 0.08225915, -665645.75, -28386.135, 0.0, 10.000299, 9.998921 
8.6502355e+2, 2.4497329e+2, -599797.75, -738684.6, -11147.434, 0.059493057, 0.115248755, -598908.75, -59638.715, 0.0, 10.000317, 9.998472 
8.650317e+2, 2.549719e+2, -489086.72, -632605.25, -8913.276, 0.02932168, 0.123219945, -488535.25, -47249.902, 0.0, 10.000395, 9.998489 
8.6503994e+2, 2.649703e+2, -372855.84, -502993.28, -14023.632, 0.012935239, 0.10611191, -371361.78, -28060.611, 0.0, 10.000423, 9.998692 
8.650482e+2, 2.749685e+2, -279483.0, -406088.56, -15531.265, 0.010143892, 0.05591278, -277605.53, -32287.79, 0.0, 10.000385, 9.998703 
8.6505663e+2, 2.849674e+2, -203997.7, -357765.1, -3657.193, 0.01858303, 0.0929056, -203910.78, -56581.598, 0.0, 10.000398, 9.998357 
8.6506516e+2, 2.9496694e+2, -94195.67, -255274.08, 14548.487, 0.03768823, 0.20699638, -92892.21, -43556.24, 0.0, 10.0004835, 9.998344 
8.6507326e+2, 3.0496427e+2, -42182.16, -178506.95, 17600.1, 0.0133899255, 0.09493907, -39946.58, -39946.58, 0.000000027135602, 10.000392, 9.998583 
8.650817e+2, 3.149622e+2, 35268.53, 60989.484, 5248.4224, 0.036017325, 0.026122512, 62019.21, 62019.21, 0.00000083365, 10.00005, 10.000393 
8.749192e+2, 1.2497163e+2, -1805567.3, -1728263.4, -9912.327, -0.12341924, 0.1293187, -1727012.6, -11723.177, 0.0000000055054987, 9.999249, 10.000267 
8.7492746e+2, 1.349716e+2, -1673580.8, -1601976.9, -26224.28, -0.14166331, 0.085731514, -1593399.9, 23888.488, 0.0, 9.999428, 10.00038 
8.7493765e+2, 1.4497174e+2, -1586751.4, -1566318.4, -8274.182, 0.023389747, 0.0919565, -1563388.0, -44101.258, 0.0, 9.999596, 9.999867 
8.74946e+2, 1.5497215e+2, -1457825.5, -1450607.4, 1960.1288, -0.0498995, 0.14067394, -1450109.5, -28825.66, 0.0, 9.999796, 9.999892 
8.749545e+2, 1.6497202e+2, -1366083.1, -1397738.5, -10004.454, -0.07892205, 0.15562037, -1363186.4, -39901.06, 0.0, 9.999934, 9.9995165 
8.749637e+2, 1.7497134e+2, -1256623.0, -1293052.5, -15411.272, -0.038441192, 0.13527077, -1250978.0, -25687.213, 0.0, 10.00001, 9.999524 
8.749724e+2, 1.8497044e+2, -1169570.6, -1224680.9, -21340.541, -0.028227262, 0.10409363, -1162273.1, -34974.37, 0.0, 10.000038, 9.999307 
8.7498057e+2, 1.9496925e+2, -1071435.5, -1125485.0, -6167.131, -0.0562447, 0.05083854, -1070740.8, -41431.21, 0.0, 10.000033, 9.999318 
8.7498933e+2, 2.0496838e+2, -990475.56, -1080218.8, -2217.93, -0.03727195, 0.052135076, -990420.8, -59103.05, 0.0, 10.000109, 9.99892 
8.749985e+2, 2.1496783e+2, -868472.1, -968545.7, -7202.685, 0.03208147, 0.10149262, -867956.4, -34633.24, 0.0, 10.000265, 9.998939 
8.750071e+2, 2.2496672e+2, -765344.9, -874197.0, -19341.273, 0.05115616, 0.10054194, -762010.4, -26677.0, 0.0, 10.000327, 9.998883 
8.750151e+2, 2.3496503e+2, -670525.0, -775215.94, -19231.215, 0.019822242, 0.03746893, -667104.1, -29755.15, 0.0, 10.000295, 9.998904 
8.750233e+2, 2.4496369e+2, -593851.25, -725761.9, -9223.778, 0.0057260348, 0.030494228, -593209.4, -53846.96, 0.0, 10.000313, 9.998563 
8.750319e+2, 2.5496268e+2, -483621.4, -620523.25, -5308.813, 0.0073468075, 0.07308694, -483415.84, -42041.93, 0.0, 10.000391, 9.998573 
8.750404e+2, 2.6496172e+2, -376185.3, -509183.8, -14999.545, 0.018736897, 0.11443967, -374514.66, -31129.803, 0.0, 10.00042, 9.9986515 
8.750489e+2, 2.7496073e+2, -282458.9, -411319.22, -15728.091, 0.043473326, 0.14516778, -280566.97, -35171.523, 0.0, 10.000381, 9.99867 
8.7505734e+2, 2.8495935e+2, -168826.19, -284110.47, -1152.2698, 0.04790137, 0.13366292, -168814.67, -21406.314, 0.0, 10.000394, 9.998864 
8.7506557e+2, 2.9495758e+2, -59322.313, -180692.47, 19002.604, 0.027329244, 0.065194346, -56416.688, -6992.285, 0.0, 10.000475, 9.998861 
8.750733e+2, 3.049552e+2, -58802.184, -211161.31, 6072.354, -0.019345578, -0.030677432, -58560.55, -58560.55, 0.00000006425192, 10.000384, 9.998362 
8.7508136e+2, 3.149557e+2, 6193.5454, 1422.8469, -5915.259, -0.007033245, 0.17929775, 10186.298, 10186.298, 0.0000011924308, 10.000048, 9.999984 
8.849185e+2, 1.2496232e+2, -1811162.1, -1735045.3, -7197.9463, -0.113600545, 0.11142377, -1734370.5, -18991.719, 0.00000006865043, 9.9992285, 10.000232 
8.8492703e+2, 1.3496204e+2, -1657505.3, -1602398.3, -26033.115, -0.13063227, 0.04943916, -1592045.1, 25335.717, 0.0, 9.999574, 10.000306 
8.8493735e+2, 1.4496222e+2, -1558656.6, -1542981.1, -11014.186, 0.018969897, 0.057833876, -1537300.6, -17921.809, 0.0, 9.999746, 9.999956 
8.849455e+2, 1.5496281e+2, -1453168.1, -1437544.6, -2413.0613, -0.072842255, 0.11572139, -1437180.4, -15806.938, 0.0, 9.999783, 9.999988 
8.849542e+2, 1.6496275e+2, -1371761.4, -1394229.5, -6485.627, -0.098448135, 0.13168646, -1370023.6, -46649.67, 0.0, 9.999869, 9.99957 
8.8496375e+2, 1.7496206e+2, -1254698.0, -1287245.6, 3054.1133, -0.033024658, 0.10330304, -1254413.9, -29033.596, 0.0, 10.0, 9.99957 
8.849726e+2, 1.8496121e+2, -1157772.5, -1211399.9, -8124.3267, -0.013588972, 0.07213707, -1156568.8, -29180.867, 0.0, 10.000085, 9.999376 
8.8498074e+2, 1.9496019e+2, -1052639.0, -1107837.9, -17533.104, -0.0513128, 0.028200557, -1047540.7, -18143.824, 0.0, 10.000127, 9.999393 
8.8498944e+2, 2.0495945e+2, -992830.6, -1075509.0, -17371.295, -0.034838695, 0.037837334, -989329.1, -57925.453, 0.0, 10.000069, 9.998971 
8.849987e+2, 2.1495901e+2, -916935.06, -986300.06, -8593.832, 0.03994883, 0.09270951, -915886.2, -82477.85, 0.0, 9.999908, 9.998987 
8.850073e+2, 2.2495793e+2, -809582.4, -899862.7, -5316.443, 0.05442941, 0.09421056, -809270.4, -73851.695, 0.0, 10.000042, 9.998844 
8.850153e+2, 2.349562e+2, -647070.3, -768514.75, -8816.457, 0.0069872155, 0.03331315, -646433.56, -8998.668, 0.0, 10.000476, 9.998864 
8.850236e+2, 2.4495487e+2, -552540.2, -695884.6, -10619.493, -0.009022573, 0.023413436, -551757.7, -12309.194, 0.0, 10.000554, 9.9986515 
8.8503224e+2, 2.5495386e+2, -494470.06, -615337.9, -7857.214, 0.005624821, 0.055767868, -493961.4, -52501.637, 0.0, 10.000273, 9.998667 
8.850407e+2, 2.6495293e+2, -401801.9, -510275.97, -5223.696, 0.017811943, 0.09198999, -401550.94, -58080.836, 0.0, 10.0001955, 9.998753 
8.850491e+2, 2.7495205e+2, -282142.94, -399599.6, 2976.2698, 0.029703619, 0.123815134, -282067.56, -36587.9, 0.0, 10.000335, 9.998772 
8.8505757e+2, 2.8495085e+2, -162838.28, -270288.56, 7003.9395, 0.03193139, 0.12034381, -162383.67, -14892.829, 0.0, 10.00039, 9.9989605 
8.8506585e+2, 2.9494935e+2, -73423.46, -176987.06, -5238.2114, 0.02189234, 0.06768903, -73159.19, -23654.81, 0.0, 10.000331, 9.998957 
8.850737e+2, 3.0494702e+2, -37365.836, -203053.22, -22789.318, -0.02083366, -0.027019123, -34288.457, -34288.457, 0.00000010587227, 10.00054, 9.998343 
8.8508177e+2, 3.1494775e+2, 133404.58, 38014.97, -23557.578, -0.019652348, 0.20669323, 138905.2, 138905.2, 0.0000015115112, 10.001028, 9.9997635 
8.9491826e+2, 1.2495271e+2, -1814976.3, -1741896.5, 2307.3625, -0.062012885, 0.07180252, -1741823.8, -26352.604, 0.00000033567557, 9.999225, 10.000187 
8.949262e+2, 1.3495287e+2, -1664156.4, -1616324.5, -12847.492, -0.18012302, 0.0636871, -1613092.1, 4377.3633, 0.00000000007521531, 9.999575, 10.00021 
8.9493626e+2, 1.4495298e+2, -1549235.6, -1525430.8, -11923.58, -0.056529965, 0.06430519, -1520485.6, -1017.94464, 0.0, 9.999753, 10.000073 
8.9494514e+2, 1.549528e+2, -1446176.4, -1423270.4, -863.28754, -0.09241737, 0.032471504, -1423237.9, -1769.1556, 0.0, 9.9997835, 10.000087 
8.9495414e+2, 1.6495259e+2, -1354799.8, -1358108.5, -1980.076, -0.08972733, 0.0173845, -1353873.9, -30404.014, 0.0, 9.999866, 9.99982 
8.9496374e+2, 1.7495236e+2, -1236698.5, -1249340.8, 8242.899, -0.030854814, 0.010565043, -1232632.0, -7160.481, 0.0, 9.999998, 9.999831 
8.9497286e+2, 1.8495214e+2, -1174910.6, -1246611.0, -7703.467, 0.0044689453, 0.03898959, -1174092.4, -46617.99, 0.0, 10.000082, 9.999137 
8.949815e+2, 1.9495186e+2, -1069476.0, -1143095.8, -16307.48, 0.010608277, 0.09453156, -1066025.5, -36547.004, 0.0, 10.000127, 9.999152 
8.949899e+2, 2.0495102e+2, -975773.5, -1039613.75, -24934.885, 0.007061198, 0.09249899, -967188.8, -35702.184, 0.0, 10.000066, 9.999219 
8.949982e+2, 2.1494956e+2, -900254.9, -950464.0, -14875.365, -0.0034082124, 0.022600729, -896178.7, -62679.555, 0.0, 9.999903, 9.999236 
8.950068e+2, 2.2494851e+2, -814740.56, -909572.6, 9735.235, -0.0035153853, 0.016659604, -813751.5, -78242.12, 0.0, 10.000037, 9.99878 
8.9501584e+2, 2.3494785e+2, -652088.9, -778524.6, 7832.184, 0.0047642016, 0.06863498, -651605.56, -14088.269, 0.0, 10.000473, 9.998796 
8.950244e+2, 2.4494684e+2, -547413.1, -684723.56, -21569.627, 0.012228244, 0.09109768, -544104.56, -4576.273, 0.0, 10.000551, 9.99873 
8.9503264e+2, 2.549454e+2, -488790.47, -602920.8, -17718.676, 0.02078003, 0.07128205, -486102.94, -44560.16, 0.0, 10.000269, 9.998754 
8.9504075e+2, 2.6494396e+2, -384705.78, -474610.53, -877.25195, 0.006422024, 0.04165136, -384697.22, -41140.62, 0.0, 10.000194, 9.998999 
8.9504886e+2, 2.7494255e+2, -266019.34, -364994.28, 9030.924, -0.032825112, -0.004831763, -265202.06, -19632.1, 0.0, 10.00033, 9.999012 
8.950573e+2, 2.8494194e+2, -185408.13, -316061.63, 5763.6694, -0.03095289, 0.053760298, -185154.36, -37578.023, 0.0, 10.000384, 9.998649 
8.9506614e+2, 2.949422e+2, -95623.15, -222602.58, -5376.0337, 0.014509353, 0.2106262, -95395.945, -45820.0, 0.0, 10.000328, 9.998645 
8.9507455e+2, 3.049397e+2, -26682.557, -180154.11, -4906.1206, 0.0009115074, 0.10312871, -26525.879, -26525.879, 0.00000013409642, 10.000536, 9.998503 
8.950829e+2, 3.1493828e+2, 127299.33, 30603.086, -3608.3071, -0.009916591, 0.10338643, 127433.79, 127433.79, 0.0000016978646, 10.001006, 9.9997225 
9.049178e+2, 1.2494342e+2, -1755773.0, -1712686.1, 8181.331, -0.049995903, 0.06309404, -1711185.0, 4376.461, 0.0000010657902, 9.999623, 10.000197 
9.049257e+2, 1.3494363e+2, -1680571.8, -1626496.0, -1426.7335, -0.17954424, 0.062858455, -1626458.4, -8899.153, 0.000000007369457, 9.999471, 10.00019 
9.049359e+2, 1.4494383e+2, -1575914.9, -1525750.3, 5051.0435, -0.05887606, 0.06586839, -1525246.8, -5690.2695, 0.0, 9.999518, 10.000183 
9.04945e+2, 1.5494353e+2, -1440346.4, -1409028.3, 14453.612, -0.08120098, 0.013343353, -1403377.4, 18180.57, 0.0, 9.999772, 10.000191 
9.0495414e+2, 1.6494331e+2, -1358904.9, -1362907.8, 366.00485, -0.07635181, -0.005895457, -1358871.8, -35312.484, 0.0, 9.999848, 9.999796 
9.049636e+2, 1.7494321e+2, -1272460.8, -1268198.1, -11994.843, -0.031518795, 0.00013783746, -1258146.6, -32586.195, 0.0, 9.999762, 9.999814 
9.049728e+2, 1.849431e+2, -1211267.9, -1249439.1, -21172.66, 0.00091278926, 0.036478147, -1201848.4, -74286.266, 0.0, 9.999772, 9.999266 
9.0498155e+2, 1.94943e+2, -1096231.6, -1142257.4, -2641.8496, 0.01697311, 0.095118344, -1096080.5, -66516.266, 0.0, 9.999885, 9.999274 
9.049901e+2, 2.0494214e+2, -977920.4, -1044838.75, -8317.786, 0.012405585, 0.08736942, -976902.0, -45329.406, 0.0, 10.00007, 9.999182 
9.049982e+2, 2.1494052e+2, -840875.7, -926199.7, -21901.277, -0.012339791, 0.003924886, -835582.4, -1995.093, 0.0, 10.00033, 9.999197 
9.050068e+2, 2.2493955e+2, -777299.56, -881718.3, -3584.824, -0.013275275, 0.00602569, -777176.7, -41579.688, 0.0, 10.000253, 9.998867 
9.05016e+2, 2.3493928e+2, -738529.7, -810387.06, 4846.773, 0.008305021, 0.08672395, -738204.25, -100602.49, 0.0, 9.999838, 9.998883 
9.0502465e+2, 2.4493842e+2, -640108.4, -718600.7, -13491.101, 0.017805347, 0.11670471, -637854.3, -98243.1, 0.0, 9.999869, 9.998825 
9.050329e+2, 2.5493696e+2, -469727.97, -583034.6, -10195.999, 0.016223978, 0.08373165, -468817.78, -27192.027, 0.0, 10.000355, 9.998849 
9.050411e+2, 2.649355e+2, -334279.53, -452902.34, -5665.6216, -0.003021735, 0.04591715, -334009.53, 9630.456, 0.0, 10.000552, 9.998974 
9.0504915e+2, 2.74934e+2, -249676.77, -359947.28, -17169.227, -0.04145754, -0.0037012363, -247065.34, -1411.2705, 0.0, 10.000453, 9.998987 
9.0505755e+2, 2.8493342e+2, -182046.1, -321295.0, -20418.992, -0.04392469, 0.05835683, -179113.69, -31453.002, 0.0, 10.000436, 9.9985895 
9.050664e+2, 2.9493368e+2, -74794.336, -218277.08, -14411.605, -0.00860303, 0.22444332, -73361.125, -23701.033, 0.0, 10.000498, 9.998592 
9.050749e+2, 3.049312e+2, -33948.094, -165729.02, 1695.0892, -0.0066878074, 0.112990804, -33926.293, -33926.293, 0.0000001316986, 10.000411, 9.99866 
9.050837e+2, 3.1492975e+2, -1256.5454, -38356.914, -896.58185, 0.01664973, 0.10103033, -1234.8909, -1234.8909, 0.0000016698094, 10.00015, 9.999662 
9.1491705e+2, 1.2493451e+2, -1744508.5, -1694076.6, -316.87344, -0.09265466, 0.088105984, -1694074.6, 21574.54, 0.000002613721, 9.999642, 10.000317 
9.149256e+2, 1.3493438e+2, -1675387.6, -1614375.3, -7645.632, -0.13477956, 0.045313824, -1613431.8, 4217.7725, 0.00000007607973, 9.999465, 10.000277 
9.149361e+2, 1.4493477e+2, -1571184.4, -1514260.3, 14531.583, 0.0051308544, 0.059594497, -1510765.3, 8879.487, 0.0, 9.999511, 10.000266 
9.149451e+2, 1.5493509e+2, -1433913.4, -1395569.3, 24848.105, -0.04158736, 0.060255956, -1383356.6, 38283.867, 0.0, 9.999772, 10.000282 
9.149542e+2, 1.6493504e+2, -1379034.5, -1406278.4, -4326.2593, -0.061135672, 0.06655409, -1378364.0, -54722.816, 0.0, 9.999853, 9.999497 
9.149633e+2, 1.7493464e+2, -1293760.3, -1312544.0, -15595.409, -0.03825629, 0.07449459, -1284947.0, -59300.57, 0.0, 9.999761, 9.999511 
9.1497225e+2, 1.8493417e+2, -1176655.8, -1176740.3, -18222.188, -0.028123142, 0.065273866, -1158475.8, -30825.156, 0.0, 9.999768, 9.999766 
9.149809e+2, 1.9493362e+2, -1061694.9, -1069420.9, 1465.8129, -0.035749964, 0.029382948, -1061426.1, -31772.244, 0.0, 9.999879, 9.999778 
9.1498977e+2, 2.0493287e+2, -1002574.56, -1095078.4, 343.45172, -0.023581685, 0.022533938, -1002573.25, -70912.21, 0.0, 10.000064, 9.998839 
9.149987e+2, 2.1493188e+2, -865122.75, -976039.44, -12302.728, 0.010324388, 0.03622067, -863774.56, -30102.078, 0.0, 10.000327, 9.998857 
9.150075e+2, 2.2493109e+2, -761269.2, -848262.56, -20538.918, 0.023428204, 0.06140897, -756663.8, -20982.434, 0.0, 10.000251, 9.999098 
9.150159e+2, 2.349305e+2, -722148.2, -775856.56, -10615.198, 0.015248553, 0.08847118, -720126.3, -82438.336, 0.0, 9.999835, 9.999123 
9.1502434e+2, 2.4492966e+2, -632199.1, -702012.06, 3988.2832, 0.0036802166, 0.10225896, -631972.06, -92275.2, 0.0, 9.999868, 9.99894 
9.15033e+2, 2.5492853e+2, -463071.9, -568261.6, 8674.011, -0.011321268, 0.09370907, -462361.44, -20653.045, 0.0, 10.00035, 9.998953 
9.150415e+2, 2.6492745e+2, -355521.88, -496122.34, -9063.675, -0.013438858, 0.1031323, -354940.0, -11219.902, 0.0, 10.000547, 9.99868 
9.1504997e+2, 2.749264e+2, -270581.1, -402626.34, -19408.51, -0.0019299093, 0.12360488, -267787.44, -22055.443, 0.0, 10.000449, 9.998696 
9.150584e+2, 2.849252e+2, -170505.69, -295778.66, -18754.541, -0.013741581, 0.13287222, -167758.2, -20014.46, 0.0, 10.000429, 9.998768 
9.150664e+2, 2.949238e+2, -63368.91, -191871.08, -10848.871, -0.049968764, 0.11411855, -62459.426, -12703.197, 0.0, 10.000486, 9.998779 
9.1507494e+2, 3.0492154e+2, -22694.115, -141561.63, -7416.0454, -0.04482815, 0.006718132, -22233.22, -22233.22, 0.00000009563079, 10.000406, 9.998829 
9.1508424e+2, 3.1492218e+2, -4233.4536, -44844.945, -7817.7617, 0.04822688, 0.18609972, -2780.5066, -2780.5066, 0.0000014046396, 10.000152, 9.999618 
9.249167e+2, 1.2492535e+2, -1788786.4, -1708853.4, 8057.434, -0.0738955, 0.087629706, -1708049.3, 7689.312, 0.0000053718704, 9.999314, 10.00037 
9.249252e+2, 1.3492514e+2, -1635449.5, -1592611.3, -4339.2144, -0.13030738, 0.03294613, -1592176.1, 25563.043, 0.00000033393198, 9.999727, 10.000299 
9.2493576e+2, 1.4492555e+2, -1528511.1, -1512263.1, 7049.043, 0.0018123855, 0.057079326, -1509631.3, 10103.127, 0.0, 9.999886, 10.000099 
9.2494494e+2, 1.5492588e+2, -1441937.8, -1417177.5, -4231.1924, -0.038450107, 0.07666835, -1416474.4, 5256.6987, 0.0, 9.999797, 10.00012 
9.2495406e+2, 1.649259e+2, -1383406.3, -1394249.6, -30376.727, -0.053903475, 0.0905986, -1357971.1, -34239.64, 0.0, 9.999768, 9.999619 
9.249632e+2, 1.749256e+2, -1278641.3, -1292063.3, -10312.678, -0.03025529, 0.09628252, -1273048.3, -47312.902, 0.0, 9.999809, 9.999628 
9.249721e+2, 1.8492505e+2, -1163403.1, -1168214.4, -10337.944, -0.022474706, 0.07121806, -1155194.6, -27454.625, 0.0, 9.99985, 9.999785 
9.2498076e+2, 1.949242e+2, -1058009.1, -1065083.4, -29136.035, -0.03775488, 0.0059161996, -1032196.3, -2450.8213, 0.0, 9.999895, 9.999799 
9.249897e+2, 2.0492357e+2, -1020011.9, -1090741.5, -29336.252, -0.025240228, 0.0041708085, -1009427.94, -77676.34, 0.0, 9.999891, 9.998952 
9.249988e+2, 2.149231e+2, -928464.44, -994248.7, -8766.462, 0.017167963, 0.058430266, -927316.25, -93557.75, 0.0, 9.99984, 9.998966 
9.2500764e+2, 2.2492233e+2, -793990.94, -858859.25, -10130.589, 0.028142037, 0.07790513, -792445.6, -56678.406, 0.0, 10.000006, 9.999144 
9.2501587e+2, 2.3492125e+2, -638485.6, -730551.3, -16926.633, 0.006641397, 0.05178845, -635472.25, 2305.7576, 0.0, 10.000389, 9.9991665 
9.250244e+2, 2.4492049e+2, -543370.8, -645561.5, -5503.5767, -0.006276144, 0.06437961, -543075.25, -3289.1157, 0.0, 10.000419, 9.999063 
9.250332e+2, 2.5492004e+2, -490799.0, -567901.0, -1017.076, -0.010977493, 0.10960802, -490785.6, -48993.906, 0.0, 10.0001, 9.999077 
9.2504185e+2, 2.6491913e+2, -439772.88, -548245.0, -11475.924, -0.008042535, 0.13704658, -438572.06, -94770.016, 0.0, 10.000018, 9.998577 
9.250504e+2, 2.7491775e+2, -318439.47, -437045.22, -9195.597, 0.003261678, 0.13795455, -317730.75, -71913.33, 0.0, 10.00017, 9.998594 
9.250587e+2, 2.849164e+2, -180255.84, -283622.53, 617.8155, -0.00950998, 0.1278684, -180252.16, -32421.63, 0.0, 10.000291, 9.998918 
9.250669e+2, 2.9491502e+2, -67591.04, -176729.67, 4031.2476, -0.04651411, 0.092088275, -67442.34, -17600.438, 0.0, 10.000382, 9.998934 
9.2507535e+2, 3.0491287e+2, 468.28928, -137559.28, -1967.3317, -0.04757929, -0.0051113903, 496.3243, 496.3243, 0.00000004550982, 10.000596, 9.998767 
9.2508453e+2, 3.1491357e+2, 91795.375, -25757.385, -21782.246, 0.026036697, 0.18453185, 95701.766, 95701.766, 0.0000009683944, 10.000929, 9.999374 
9.349167e+2, 1.2491599e+2, -1792686.0, -1714174.1, 19729.965, -0.009913656, 0.053354826, -1709494.9, 6334.5366, 0.000009857008, 9.999303, 10.0003395 
9.3492454e+2, 1.3491602e+2, -1639011.6, -1601165.1, 12357.905, -0.17016234, 0.028793408, -1597487.3, 20339.99, 0.0000009955157, 9.999735, 10.0002365 
9.3493485e+2, 1.4491631e+2, -1555274.9, -1572311.5, 2268.085, -0.07413845, 0.06399111, -1554978.1, -35153.664, 0.00000000002439963, 9.999902, 9.99968 
9.349444e+2, 1.5491602e+2, -1472136.1, -1479646.4, -7758.4497, -0.07624395, 0.063186705, -1467271.9, -45442.83, 0.0, 9.999794, 9.999694 
9.349538e+2, 1.6491595e+2, -1346045.8, -1315399.4, -29677.674, -0.059339225, 0.06528754, -1297322.5, 26507.342, 0.0, 9.999763, 10.000162 
9.3496317e+2, 1.7491613e+2, -1240651.6, -1212410.9, -8547.605, -0.01087528, 0.06417395, -1210025.3, 15801.389, 0.0, 9.999806, 10.000175 
9.349723e+2, 1.8491577e+2, -1197673.9, -1238949.5, -9654.846, 0.013395105, 0.05443283, -1195527.1, -67697.586, 0.0, 9.999847, 9.999302 
9.3498117e+2, 1.949148e+2, -1091643.5, -1135032.9, -27799.11, 0.009143875, 0.025377309, -1078075.6, -48236.883, 0.0, 9.999895, 9.999319 
9.3498987e+2, 2.049143e+2, -980354.44, -1008544.25, -32945.49, 0.006018461, 0.033012997, -958615.4, -26771.47, 0.0, 9.999891, 9.999517 
9.349986e+2, 2.1491423e+2, -889062.25, -911735.75, -10858.627, 0.005518267, 0.07131312, -884700.9, -50855.98, 0.0, 9.999836, 9.999536 
9.3500733e+2, 2.2491334e+2, -805346.6, -881189.94, 3054.3276, -0.003002406, 0.056702524, -805223.8, -69369.93, 0.0, 10.0, 9.998993 
9.35016e+2, 2.3491158e+2, -650453.06, -753986.3, -2295.8079, -0.02008372, -0.022691496, -650402.2, -12530.745, 0.0, 10.000382, 9.999009 
9.350248e+2, 2.4491094e+2, -534965.94, -627564.4, -18105.852, -0.014641476, 0.0035761388, -531551.56, 8327.169, 0.0, 10.000416, 9.999188 
9.3503356e+2, 2.5491142e+2, -481412.72, -548383.6, -12249.047, 0.013974298, 0.13019316, -479242.7, -37367.203, 0.0, 10.000098, 9.999212 
9.35042e+2, 2.6491055e+2, -434057.22, -535499.25, -6205.3413, 0.009456951, 0.14738543, -433679.03, -89793.45, 0.0, 10.000015, 9.998667 
9.3505025e+2, 2.7490819e+2, -313694.13, -425956.53, -2506.8562, -0.028960804, 0.042325474, -313638.2, -67728.305, 0.0, 10.000165, 9.998673 
9.350588e+2, 2.8490707e+2, -171670.61, -265557.97, 3924.0105, -0.03470337, 0.04619652, -171506.89, -23586.342, 0.0, 10.000288, 9.999043 
9.350677e+2, 2.9490727e+2, -58786.84, -158398.28, 9019.487, -0.0059453933, 0.15537299, -57976.742, -8059.63, 0.0, 10.0003805, 9.999062 
9.3507624e+2, 3.0490518e+2, -22482.63, -182727.83, 9800.018, -0.022410858, 0.07413547, -21885.523, -21885.523, 0.000000010385675, 10.000586, 9.998461 
9.3508464e+2, 3.1490383e+2, 56731.46, -92567.586, -6570.0854, -0.057027183, 0.09142166, 57020.027, 57020.027, 0.00000050425, 10.000903, 9.998927 
9.449162e+2, 1.2490688e+2, -1727074.8, -1696121.6, 17139.686, -0.0065596323, 0.0626595, -1688505.0, 27413.26, 0.000016753027, 9.999811, 10.000219 
9.4492435e+2, 1.3490659e+2, -1627177.5, -1611344.8, 4603.969, -0.16758575, 0.020724067, -1610103.4, 7816.2134, 0.000002343361, 9.999886, 10.000093 
9.449347e+2, 1.4490677e+2, -1560738.8, -1565043.8, -3900.738, -0.070953846, 0.049255315, -1558436.0, -38518.613, 0.0000000053592455, 9.999826, 9.999764 
9.4494414e+2, 1.5490645e+2, -1489431.4, -1478362.3, 23621.498, -0.07121336, 0.03640242, -1459635.6, -37714.113, 0.0, 9.999636, 9.999779 
9.449535e+2, 1.6490637e+2, -1369890.1, -1333363.3, 9627.356, -0.054341834, 0.03505278, -1330981.1, -7058.7705, 0.0, 9.999627, 10.000104 
9.4496304e+2, 1.7490655e+2, -1243836.6, -1220063.3, -16902.646, -0.009936102, 0.03905495, -1211286.1, 14633.81, 0.0, 9.999812, 10.000119 
9.449722e+2, 1.849063e+2, -1180948.0, -1219276.9, -20735.525, 0.019425415, 0.03946305, -1171877.1, -43955.234, 0.0, 9.999915, 9.999403 
9.449813e+2, 1.9490562e+2, -1078504.0, -1117579.0, 4626.3247, 0.029079925, 0.026851067, -1077963.8, -48035.316, 0.0, 9.999939, 9.999417 
9.4499004e+2, 2.0490517e+2, -962303.94, -997814.8, 1685.8989, 0.02568628, 0.0351166, -962224.1, -30290.96, 0.0, 10.000007, 9.999535 
9.449986e+2, 2.1490496e+2, -846552.3, -889413.9, -19930.715, 0.009539335, 0.057883624, -838716.9, -4780.862, 0.0, 10.000121, 9.999551 
9.450073e+2, 2.2490424e+2, -786540.5, -852841.2, -13240.688, -0.0037127312, 0.0500799, -783994.06, -48050.598, 0.0, 10.000046, 9.999166 
9.450161e+2, 2.3490295e+2, -726380.6, -771231.25, 5008.126, -0.014736874, 0.0016358446, -725828.2, -87872.55, 0.0, 9.999779, 9.999182 
9.450249e+2, 2.4490227e+2, -637652.94, -688242.9, -9185.942, -0.0072526955, 0.020243404, -636036.6, -96073.414, 0.0, 9.99976, 9.999088 
9.450336e+2, 2.5490215e+2, -504788.06, -570854.44, -22770.02, 0.019517915, 0.0974302, -497700.63, -55734.402, 0.0, 9.999988, 9.999111 
9.4504213e+2, 2.6490122e+2, -392725.94, -491076.34, -12475.938, 0.010318805, 0.10468126, -391168.03, -47191.52, 0.0, 10.000193, 9.998886 
9.450504e+2, 2.7489942e+2, -265281.03, -377433.0, 860.435, -0.03535906, 0.03270263, -265274.44, -19280.045, 0.0, 10.000389, 9.998899 
9.4505906e+2, 2.848985e+2, -161525.05, -287824.7, -4796.3022, -0.039457712, 0.055288505, -161343.17, -13339.459, 0.0, 10.000475, 9.998801 
9.450681e+2, 2.9489848e+2, -69958.44, -191005.31, -29082.525, 0.00018301049, 0.16804832, -63333.684, -13329.476, 0.0, 10.000422, 9.998818 
9.4507676e+2, 3.048965e+2, -41589.31, -160432.9, -16122.906, -0.015501484, 0.09749745, -39440.836, -39440.836, 0.00000000032400083, 10.0003195, 9.998743 
9.450851e+2, 3.1489524e+2, -36454.27, -118816.09, 7958.32, -0.06384739, 0.0914079, -35692.336, -35692.336, 0.00000016973306, 10.000183, 9.999094 
9.549153e+2, 1.2489817e+2, -1738383.0, -1725108.6, 12791.304, -0.08672576, 0.12065896, -1717335.1, -1331.178, 0.00002677623, 9.999833, 10.0000105 
9.5492476e+2, 1.3489695e+2, -1644105.6, -1645916.6, 7446.7393, -0.12457681, 0.009481967, -1637509.5, -19494.31, 0.0000047533053, 9.999882, 9.999859 
9.549354e+2, 1.4489704e+2, -1520367.4, -1479486.5, -11425.383, 0.00943934, 0.0115162395, -1476510.0, 43502.668, 0.000000046136613, 9.999818, 10.000356 
9.549442e+2, 1.5489729e+2, -1447635.1, -1391049.0, 17295.027, -0.026111193, -0.0041657346, -1386181.6, 35826.117, 0.0, 9.999634, 10.000379 
9.5495325e+2, 1.6489725e+2, -1416873.6, -1431532.1, 16087.462, -0.043649435, 0.0013162751, -1406524.5, -82516.266, 0.0, 9.999628, 9.999431 
9.549626e+2, 1.7489691e+2, -1291287.5, -1319049.4, -9587.123, -0.029802034, 0.021907458, -1288298.5, -62284.016, 0.0, 9.999813, 9.99944 
9.5497185e+2, 1.8489671e+2, -1133133.0, -1119905.6, -20978.113, -0.007967711, 0.027727501, -1104523.4, 23493.064, 0.0, 9.999914, 10.000086 
9.549811e+2, 1.9489668e+2, -1030520.44, -1017404.9, 5381.4136, 0.01906132, 0.010816225, -1015479.5, 14534.367, 0.0, 9.999935, 10.000107 
9.549901e+2, 2.0489621e+2, -1001160.8, -1077554.4, 4693.124, 0.030055342, 0.010417657, -1000873.6, -68854.8, 0.0, 10.000002, 9.99899 
9.549989e+2, 2.1489531e+2, -885719.5, -969777.6, -15847.25, 0.026257997, 0.017713932, -882831.06, -48799.477, 0.0, 10.000116, 9.9990015 
9.550076e+2, 2.2489502e+2, -752591.75, -781687.7, -24735.793, 0.02299338, 0.057832386, -738443.0, -2407.4065, 0.0, 10.000042, 9.999657 
9.5501626e+2, 2.3489538e+2, -690896.9, -697789.8, -4841.969, 0.019830447, 0.12295456, -688400.06, -50369.645, 0.0, 9.999779, 9.999686 
9.5502484e+2, 2.448945e+2, -661134.75, -736512.25, -1273.2238, 0.012753849, 0.11264046, -661113.25, -121073.914, 0.0, 9.999757, 9.998758 
9.550334e+2, 2.548923e+2, -529714.4, -621500.5, -13574.577, 0.0019357865, 0.013903005, -527748.9, -85685.53, 0.0, 9.999982, 9.998766 
9.550421e+2, 2.6489127e+2, -368118.5, -439850.0, -5619.571, -0.009064768, 0.012363825, -367680.9, -23606.79, 0.0, 10.000191, 9.99924 
9.5505095e+2, 2.7489147e+2, -239866.98, -324093.3, 9128.922, -0.020689739, 0.106093094, -238888.89, 7182.0947, 0.0, 10.000384, 9.999269 
9.550597e+2, 2.8489065e+2, -205292.6, -376185.53, -6686.5, -0.027993368, 0.15054692, -205031.36, -56951.215, 0.0, 10.000464, 9.998199 
9.5506823e+2, 2.948887e+2, -114676.6, -281190.7, -29312.404, -0.031547215, 0.13106143, -109667.27, -59564.61, 0.0, 10.00041, 9.998204 
9.5507693e+2, 3.0488694e+2, 17445.088, -36725.445, -21427.486, -0.03082449, 0.067544244, 24896.018, 24896.018, 0.0, 10.000313, 9.999597 
9.550859e+2, 3.1488773e+2, 16173.813, -7322.3403, 5920.456, -0.0084469095, 0.18033361, 17581.31, 17581.31, 0.000000027453995, 10.000173, 9.999865 
9.6491504e+2, 1.24888815e+2, -1749713.6, -1731186.1, 17064.9, -0.08678414, 0.10587708, -1721032.6, -4938.2153, 0.000040530904, 9.999763, 10.0 
9.649249e+2, 1.3488771e+2, -1676291.0, -1663484.3, 32222.027, -0.08869465, 0.008535244, -1637035.5, -18930.236, 0.000008656152, 9.999672, 9.999838 
9.6493554e+2, 1.4488792e+2, -1526389.5, -1482990.9, 3861.1675, 0.047554202, 0.02256111, -1482650.1, 37451.973, 0.00000019058375, 9.999782, 10.000348 
9.649441e+2, 1.5488814e+2, -1384850.8, -1361236.1, -16361.303, -0.019875012, 0.0052550063, -1352866.6, 69230.586, 0.0, 10.000068, 10.000373 
9.64953e+2, 1.6488805e+2, -1355719.1, -1397857.9, -18103.564, -0.05014243, 0.0056692837, -1349009.8, -24911.799, 0.0, 10.000031, 9.999467 
9.6496236e+2, 1.748877e+2, -1308686.5, -1322643.6, 10023.204, -0.031314146, 0.018471047, -1303451.8, -77347.414, 0.0, 9.999675, 9.999481 
9.6497166e+2, 1.8488754e+2, -1170939.5, -1129522.9, 12996.989, -0.0069610286, 0.023348039, -1125782.1, 2323.619, 0.0, 9.999618, 10.000163 
9.6498096e+2, 1.9488765e+2, -1033706.06, -1010032.1, -8188.215, 0.019098109, 0.012546068, -1007476.0, 22626.123, 0.0, 9.999877, 10.000185 
9.649901e+2, 2.0488723e+2, -998146.0, -1081318.3, -13872.173, 0.02811278, 0.0148740765, -995893.3, -63786.477, 0.0, 10.000047, 9.998941 
9.6499896e+2, 2.1488626e+2, -888115.94, -976491.1, 2395.2932, 0.020519624, 0.02139939, -888051.06, -53930.793, 0.0, 10.000125, 9.998951 
9.6500766e+2, 2.2488597e+2, -738057.8, -778067.94, -14386.585, 0.017537821, 0.064731754, -733421.94, 2702.7778, 0.0, 10.000157, 9.999626 
9.650162e+2, 2.3488635e+2, -640460.25, -676703.5, -36950.33, 0.018090386, 0.13583244, -617427.06, 20692.78, 0.0, 10.000139, 9.999657 
9.6502477e+2, 2.4488549e+2, -603950.06, -706107.25, -30406.068, 0.010708731, 0.12742132, -595584.94, -55456.125, 0.0, 10.000138, 9.998782 
9.650335e+2, 2.5488332e+2, -502057.9, -604996.6, -15773.94, -0.004321386, 0.028691499, -499695.03, -57542.797, 0.0, 10.00016, 9.998793 
9.650423e+2, 2.6488233e+2, -375698.78, -441507.03, -7732.6587, -0.011294211, 0.028019482, -374802.4, -30640.0, 0.0, 10.000132, 9.999257 
9.650513e+2, 2.7488253e+2, -290821.06, -346632.38, -20769.758, -0.009895731, 0.12145258, -283940.13, -37781.33, 0.0, 10.000027, 9.999287 
9.6506006e+2, 2.8488162e+2, -259510.06, -396232.34, -23559.691, -0.015629236, 0.15312548, -255564.19, -107395.53, 0.0, 10.000066, 9.998254 
9.650686e+2, 2.948795e+2, -128707.984, -281618.7, 1411.52, -0.028702702, 0.10902591, -128694.95, -78501.98, 0.0, 10.000287, 9.9982605 
9.6507734e+2, 3.048779e+2, 31320.01, -26279.693, -888.91595, -0.028231453, 0.058031086, 31333.727, 31333.727, 0.0, 10.000394, 9.999629 
9.6508616e+2, 3.148789e+2, 37895.598, -573.01416, -37249.492, 0.00057373964, 0.19305435, 60583.64, 60583.64, 0.00000000015790982, 10.0003395, 9.999832 
9.7491544e+2, 1.24878824e+2, -1736503.8, -1702058.4, 7797.7817, -0.023429627, 0.009511733, -1700375.4, 15814.489, 0.000058506626, 9.999755, 10.000204 
9.7492474e+2, 1.3487898e+2, -1662241.5, -1634299.6, 30571.055, -0.06490999, 0.017982481, -1614658.4, 3530.4119, 0.00001444443, 9.999671, 10.000038 
9.7493523e+2, 1.448795e+2, -1570416.0, -1574966.0, 14700.765, 0.036058232, 0.08508866, -1557815.3, -37630.93, 0.0000005546723, 9.999783, 9.999717 
9.749439e+2, 1.548791e+2, -1429849.5, -1454764.8, -5037.4375, -0.055986103, 0.066746034, -1428869.6, -6680.3687, 0.0, 10.000068, 9.999731 
9.7495276e+2, 1.6487888e+2, -1302667.6, -1287715.6, -32611.316, -0.078051396, 0.05046009, -1261734.4, 62456.508, 0.0, 10.0000305, 10.000223 
9.749622e+2, 1.7487894e+2, -1255001.5, -1210601.1, -3372.008, -0.016873917, 0.029525248, -1210346.5, 15842.454, 0.0, 9.999671, 10.000253 
9.7497153e+2, 1.8487884e+2, -1208920.6, -1207428.1, 21564.998, 0.018868743, 0.025922408, -1186596.5, -58406.973, 0.0, 9.999613, 9.999631 
9.7498095e+2, 1.9487855e+2, -1072166.5, -1089462.3, 1452.5872, 0.026756743, 0.03146312, -1072045.4, -41852.66, 0.0, 9.999874, 9.999641 
9.7499e+2, 2.0487824e+2, -967148.94, -1016258.75, -12397.562, 0.016549723, 0.048486702, -964196.7, -31999.924, 0.0, 10.000043, 9.999391 
9.749988e+2, 2.1487787e+2, -856323.5, -910001.9, 5098.807, -0.0105035305, 0.069130294, -855843.44, -21641.85, 0.0, 10.000122, 9.99941 
9.750074e+2, 2.248771e+2, -777874.5, -859799.25, -16313.3955, -0.023367502, 0.070481025, -774745.56, -38535.195, 0.0, 10.000153, 9.999066 
9.7501594e+2, 2.3487593e+2, -681451.3, -760404.25, -37460.176, -0.022139685, 0.04257076, -666506.7, -28283.316, 0.0, 10.000133, 9.999085 
9.7502464e+2, 2.448753e+2, -578056.94, -651584.94, -30422.4, -0.015657287, 0.06743002, -567101.8, -26870.842, 0.0, 10.0001335, 9.99916 
9.7503364e+2, 2.548752e+2, -474501.03, -547578.75, -14353.237, -0.0030798027, 0.13815574, -471783.0, -29550.059, 0.0, 10.000158, 9.999188 
9.750425e+2, 2.6487434e+2, -398704.4, -488176.94, -11305.295, 0.00011972241, 0.14618029, -397298.03, -53056.5, 0.0, 10.000127, 9.9989395 
9.7505134e+2, 2.7487266e+2, -314393.22, -395001.16, -23204.158, -0.0072745755, 0.0800274, -308190.8, -61933.6, 0.0, 10.000024, 9.998956 
9.750602e+2, 2.8487146e+2, -211404.88, -296691.7, -15802.44, -0.0069903736, 0.06799563, -208571.06, -60302.594, 0.0, 10.000066, 9.998939 
9.750692e+2, 2.9487082e+2, -80452.97, -179925.47, 11039.467, 0.0015383321, 0.10380194, -79242.53, -28967.457, 0.0, 10.000279, 9.998963 
9.750778e+2, 3.0486935e+2, -24566.121, -139381.16, -2834.7944, -0.013099794, 0.06893519, -24496.172, -24496.172, 0.0, 10.0003805, 9.998858 
9.750861e+2, 3.1486878e+2, -21123.322, -120356.96, -36016.492, -0.044487383, 0.12010868, -9429.323, -9429.323, 0.0, 10.000327, 9.999015 
9.849157e+2, 1.2486924e+2, -1709909.9, -1691487.9, -18705.81, 0.010090442, -0.014449764, -1679848.3, 36434.71, 0.00008108169, 9.999946, 10.000184 
9.8492444e+2, 1.3486962e+2, -1612855.3, -1614478.1, -10143.741, -0.08345476, 0.018234026, -1603490.5, 14789.68, 0.000022462764, 10.000026, 10.000005 
9.8493475e+2, 1.448702e+2, -1552477.8, -1567620.8, -11293.1875, 0.005289568, 0.09465763, -1546452.8, -26177.416, 0.0000013019285, 9.999911, 9.999705 
9.849437e+2, 1.5486963e+2, -1503577.4, -1490480.9, 15839.853, -0.054995485, 0.06260687, -1479889.1, -57607.38, 0.0, 9.999564, 9.999728 
9.8495275e+2, 1.6486943e+2, -1363106.8, -1309158.3, -9298.582, -0.060286943, 0.042493574, -1307600.5, 16682.883, 0.0, 9.999584, 10.000291 
9.8496217e+2, 1.7486961e+2, -1203233.0, -1178020.0, -34834.87, 0.0022046773, 0.026925199, -1153580.8, 72699.32, 0.0, 9.999994, 10.00032 
9.849716e+2, 1.8486957e+2, -1139850.3, -1184983.1, -17738.668, 0.033618372, 0.03105363, -1133713.0, -5432.5967, 0.0, 10.0001335, 9.999535 
9.849809e+2, 1.9486931e+2, -1061340.1, -1094811.5, -4984.9346, 0.028500084, 0.04727358, -1060613.5, -30328.902, 0.0, 9.999993, 9.999548 
9.8498994e+2, 2.0486902e+2, -969491.25, -991609.3, -9295.371, 0.009952929, 0.06096406, -966103.6, -33815.613, 0.0, 9.999915, 9.999621 
9.8499864e+2, 2.1486868e+2, -871015.25, -890615.5, -9989.107, -0.021680405, 0.06227825, -866821.7, -32530.93, 0.0, 9.9999075, 9.999645 
9.850074e+2, 2.248679e+2, -818381.6, -894757.25, -23427.623, -0.03206514, 0.054110806, -811768.06, -75468.31, 0.0, 9.999942, 9.998927 
9.8501605e+2, 2.3486659e+2, -708002.4, -789250.5, -13844.626, -0.020434773, 0.029041471, -705708.06, -67392.74, 0.0, 10.000021, 9.99894 
9.8502487e+2, 2.4486606e+2, -575324.75, -638459.94, 1351.4595, -0.009176646, 0.066642195, -575295.8, -34973.617, 0.0, 10.000103, 9.999264 
9.850338e+2, 2.548663e+2, -464380.38, -530988.5, -6206.985, 0.0009667359, 0.15761836, -463806.9, -21486.486, 0.0, 10.000177, 9.999293 
9.8504275e+2, 2.6486537e+2, -392839.53, -492143.0, -8697.864, 0.0049298406, 0.15882058, -392083.47, -47754.297, 0.0, 10.000196, 9.998878 
9.850515e+2, 2.7486327e+2, -296932.4, -393126.8, -2371.784, 0.0022639483, 0.059069723, -296873.97, -50525.1, 0.0, 10.0001745, 9.998895 
9.8506033e+2, 2.848621e+2, -189380.48, -283096.84, -753.7564, -0.0018393786, 0.04814696, -189374.42, -41014.453, 0.0, 10.000206, 9.998963 
9.850694e+2, 2.9486185e+2, -83023.4, -178394.45, -24846.748, -0.0060455836, 0.12158456, -76938.39, -26576.314, 0.0, 10.000251, 9.998988 
9.850783e+2, 3.0486026e+2, -18511.941, -158163.28, -36511.867, -0.01760697, 0.083663, -9542.05, -9542.05, 0.0, 10.000517, 9.998664 
9.850869e+2, 3.1485873e+2, 69107.43, -102589.58, -30191.166, -0.031159675, 0.061896835, 74261.52, 74261.52, 0.0, 10.001057, 9.998786 
9.949155e+2, 1.2486012e+2, -1728918.4, -1730782.3, -24595.277, -0.0048582694, 0.03298842, -1705237.4, 11135.742, 0.000108580556, 9.999946, 9.999914 
9.9492383e+2, 1.3485965e+2, -1633052.4, -1656654.5, -6072.997, -0.14827138, 0.010580171, -1631581.5, -13202.453, 0.000033028722, 10.000027, 9.999715 
9.9493414e+2, 1.4486004e+2, -1508068.1, -1475573.0, -25071.525, -0.049780283, 0.051453143, -1461944.8, 58429.855, 0.0000026281716, 9.999911, 10.000338 
9.9494356e+2, 1.5485984e+2, -1458392.3, -1395752.1, 3292.331, -0.020232, -0.009322989, -1395579.6, 26794.59, 0.00000000019976186, 9.999558, 10.000381 
9.949529e+2, 1.6485974e+2, -1408543.0, -1402018.1, 5180.759, -0.0006630037, -0.021159079, -1399158.1, -74783.19, 0.0, 9.999577, 9.999657 
9.9496233e+2, 1.7485975e+2, -1248912.1, -1273156.3, -19252.404, 0.022795869, 0.010093607, -1238283.4, -11906.303, 0.0, 9.999994, 9.999668 
9.949717e+2, 1.848598e+2, -1115641.9, -1134820.1, -24243.03, 0.032097816, 0.039826833, -1099160.4, 29217.482, 0.0, 10.0001335, 9.999879 
9.949808e+2, 1.9485992e+2, -1036464.3, -1042933.1, -10728.457, 0.021957502, 0.061206374, -1028493.3, 1883.7201, 0.0, 9.999991, 9.999905 
9.949898e+2, 2.048596e+2, -969003.0, -989793.44, -11307.217, 0.005425386, 0.052362673, -964038.7, -31658.713, 0.0, 9.999911, 9.999636 
9.9499863e+2, 2.1485877e+2, -871059.75, -889305.75, -10717.97, -0.015520611, 0.0010282754, -866107.8, -31720.578, 0.0, 9.999901, 9.999658 
9.950075e+2, 2.2485834e+2, -799681.44, -854805.5, -21928.334, -0.011446091, 0.015915323, -792022.5, -55630.043, 0.0, 9.999936, 9.999205 
9.950164e+2, 2.3485835e+2, -688252.5, -748086.9, -10770.002, 0.019554794, 0.09287841, -686372.94, -47977.473, 0.0, 10.000019, 9.999225 
9.950253e+2, 2.4485779e+2, -588266.0, -664310.4, 3706.2737, 0.02571997, 0.12202448, -588085.8, -47683.28, 0.0, 10.000098, 9.999089 
9.9503404e+2, 2.548566e+2, -477527.06, -557703.9, -2437.1084, 0.00493066, 0.090256795, -477453.06, -35039.055, 0.0, 10.0001745, 9.999111 
9.950429e+2, 2.648555e+2, -380449.75, -466964.44, -9888.288, 0.0010550932, 0.07186991, -379333.94, -34909.543, 0.0, 10.000197, 9.999051 
9.950518e+2, 2.7485445e+2, -284758.34, -366859.97, -2348.1235, 0.01366972, 0.05951469, -284691.25, -38257.61, 0.0, 10.000169, 9.999079 
9.9506056e+2, 2.848535e+2, -233191.8, -371569.47, 1512.6293, -0.0055257725, 0.09008876, -233175.27, -84731.79, 0.0, 10.000195, 9.998361 
9.9506915e+2, 2.9485252e+2, -125686.914, -266920.25, -20567.42, -0.056093775, 0.15804987, -122752.695, -72298.83, 0.0, 10.000251, 9.99838 
9.950785e+2, 3.0485064e+2, 5081.504, -109745.695, -16072.433, -0.046054013, 0.100270644, 7288.7437, 7288.7437, 0.0, 10.000518, 9.998997 
9.9508864e+2, 3.1484887e+2, 87109.68, -58257.57, -5915.8813, 0.029402724, 0.018713947, 87350.04, 87350.04, 0.0, 10.001026, 9.999105 
1.004915e+3, 1.2485076e+2, -1802008.1, -1751189.6, -23177.008, -0.017694838, 0.05854956, -1742206.9, -25741.271, 0.00014134821, 9.999378, 10.000051 
1.00492395e+3, 1.3485001e+2, -1653362.6, -1651577.1, 35666.902, -0.12543806, -0.004723694, -1616791.8, 1681.2164, 0.000046426092, 9.999824, 9.999849 
1.0049344e+3, 1.4485036e+2, -1484940.6, -1458701.5, -3945.6294, -0.022468792, 0.022808297, -1458121.0, 62347.36, 0.00000474816, 10.000046, 10.000388 
1.0049434e+3, 1.5485026e+2, -1393860.5, -1359898.5, -24786.951, -0.013374293, -0.031669784, -1346833.8, 75633.016, 0.000000004412824, 9.999979, 10.000426 
1.00495264e+3, 1.6485023e+2, -1359821.4, -1379860.0, -6959.7827, -0.0049855136, -0.037905935, -1357641.4, -33174.426, 0.0, 9.999915, 9.999647 
1.00496225e+3, 1.7485029e+2, -1267883.8, -1282495.5, 16854.549, 0.016201524, -0.0008094239, -1256819.8, -30351.154, 0.0, 9.999866, 9.999665 
1.00497164e+3, 1.8485035e+2, -1154040.8, -1156328.9, 16345.972, 0.025072208, 0.032288462, -1138798.9, -10329.445, 0.0, 9.999884, 9.999851 
1.0049807e+3, 1.9485046e+2, -1040822.9, -1048079.25, -177.46922, 0.015483395, 0.053436454, -1040818.56, -10349.213, 0.0, 9.999975, 9.999877 
1.0049897e+3, 2.0485015e+2, -954607.6, -978198.44, -13490.929, -0.0011777475, 0.045023143, -948482.75, -16010.174, 0.0, 9.999991, 9.999676 
1.00499846e+3, 2.1484938e+2, -863818.1, -881217.0, -11828.82, -0.023153875, -0.0036334372, -857834.2, -23354.826, 0.0, 9.999931, 9.999698 
1.0050074e+3, 2.2484913e+2, -786152.1, -831208.3, -20399.627, -0.016448772, 0.019521264, -778288.44, -41805.77, 0.0, 9.999957, 9.999356 
1.0050165e+3, 2.3484941e+2, -669702.7, -722199.2, -21059.527, 0.019564992, 0.107606664, -662298.7, -23816.193, 0.0, 10.000074, 9.999375 
1.00502536e+3, 2.4484876e+2, -590339.3, -666846.5, -9169.411, 0.028351177, 0.12071037, -589255.7, -48765.8, 0.0, 10.000092, 9.999073 
1.00503415e+3, 2.5484714e+2, -503527.63, -571597.6, -4391.1655, 0.007997917, 0.04742909, -503245.53, -60740.43, 0.0, 10.000005, 9.999096 
1.0050431e+3, 2.64846e+2, -395027.06, -486842.1, -8795.265, 0.0023357526, 0.032875188, -394192.16, -49676.277, 0.0, 10.000155, 9.998933 
1.0050521e+3, 2.7484533e+2, -240426.03, -359221.56, -24929.61, 0.01109136, 0.070242845, -235406.56, 11115.602, 0.0, 10.000533, 9.998955 
1.00506105e+3, 2.8484425e+2, -171336.72, -358756.13, -21190.521, -0.0026592894, 0.10320059, -168970.69, -20437.244, 0.0, 10.000694, 9.998208 
1.00506976e+3, 2.948427e+2, -78793.63, -261243.44, -13099.868, -0.03821005, 0.12331014, -77857.87, -27307.984, 0.0, 10.000647, 9.998227 
1.00507915e+3, 3.0484086e+2, 12188.08, -88156.07, 5754.0396, -0.026730454, 0.07348088, 12516.957, 12516.957, 0.0, 10.000488, 9.999159 
1.0050892e+3, 3.1483972e+2, -28154.16, -96773.46, 2355.207, 0.03657705, 0.038223896, -28073.418, -28073.418, 0.0, 10.000162, 9.999256 
1.0149141e+3, 1.24841124e+2, -1762907.3, -1666492.3, -15458.512, -0.05099215, 0.057467297, -1664074.4, 52486.383, 0.0001798155, 9.999365, 10.000638 
1.0149249e+3, 1.3484073e+2, -1612644.0, -1565506.5, 54356.7, -0.017684173, -0.02951404, -1529828.9, 88732.69, 0.000062927356, 9.999817, 10.000442 
1.01493545e+3, 1.4484121e+2, -1524555.1, -1540872.1, -6073.45, 0.08429139, 0.007293132, -1522542.8, -1986.9773, 0.000007860604, 10.000044, 9.9998255 
1.0149431e+3, 1.5484098e+2, -1434452.1, -1445187.3, -26946.117, -0.039131697, -0.002581089, -1412344.1, 10214.754, 0.000000028517778, 9.999983, 9.99984 
1.0149518e+3, 1.64841e+2, -1315516.4, -1288621.1, -10138.344, -0.08037168, -0.0041365046, -1285227.6, 39330.91, 0.0, 9.999917, 10.000273 
1.01496175e+3, 1.7484133e+2, -1222395.3, -1187748.6, 14887.179, -0.020969197, -0.0052441973, -1182230.6, 44323.29, 0.0, 9.999864, 10.000318 
1.0149713e+3, 1.8484132e+2, -1182669.8, -1214884.3, 18427.11, 0.009433574, 0.006786653, -1174302.5, -45747.9, 0.0, 9.999879, 9.999452 
1.0149806e+3, 1.9484095e+2, -1070241.5, -1108681.9, 2974.3835, 0.0053501967, 0.022957968, -1070012.6, -39451.6, 0.0, 9.999972, 9.999463 
1.01498954e+3, 2.0484072e+2, -950445.1, -969023.94, -17185.39, -0.01424795, 0.03896693, -940199.1, -7633.95, 0.0, 9.999989, 9.999741 
1.0149982e+3, 2.1484059e+2, -859124.0, -871081.75, -14385.291, -0.047995817, 0.048328422, -849524.56, -14957.937, 0.0, 9.999928, 9.999769 
1.01500705e+3, 2.2484031e+2, -786055.06, -829475.44, -17497.885, -0.051125184, 0.064460166, -779881.44, -43311.465, 0.0, 9.99995, 9.999372 
1.01501614e+3, 2.3483983e+2, -668845.44, -719920.56, -16457.172, -0.021843715, 0.07496927, -664002.0, -25426.314, 0.0, 10.000072, 9.999392 
1.0150252e+3, 2.4483904e+2, -581169.75, -647611.0, -13159.091, -0.0030220812, 0.065768, -578658.44, -38074.906, 0.0, 10.00009, 9.999207 
1.0150341e+3, 2.548379e+2, -494236.5, -551907.3, -7176.6025, 0.0052940114, 0.028082183, -493356.84, -50763.324, 0.0, 10.000002, 9.999233 
1.0150432e+3, 2.6483688e+2, -423951.28, -545034.94, 5476.081, 0.0030650282, 0.037477314, -423704.13, -79100.4, 0.0, 10.000147, 9.998538 
1.0150524e+3, 2.7483597e+2, -268372.7, -417451.8, -8646.842, -0.010173644, 0.08908266, -267872.84, -21258.684, 0.0, 10.000533, 9.998554 
1.0150617e+3, 2.8483447e+2, -153409.47, -323219.38, -22333.96, 0.002014289, 0.08955953, -150521.17, -1891.9169, 0.0, 10.000699, 9.99845 
1.0150712e+3, 2.9483232e+2, -63839.016, -226405.06, -13080.185, 0.040251724, 0.025716323, -62793.3, -12143.839, 0.0, 10.000629, 9.998476 
1.0150803e+3, 3.0483094e+2, 10055.426, -87161.12, -5450.482, 0.03318554, 0.008577307, 10360.055, 10360.055, 0.0, 10.000465, 9.999176 
1.01508886e+3, 3.1483117e+2, -27433.97, -94133.23, -6001.5967, -0.021530561, 0.108488515, -26898.25, -26898.25, 0.0, 10.000158, 9.999275 
1.0249139e+3, 1.24831796e+2, -1672316.6, -1636620.5, 17751.914, -0.029311838, 0.04359119, -1629295.5, 87354.7, 0.00022439056, 10.000048, 10.000512 
1.0249248e+3, 1.348313e+2, -1623017.8, -1585649.5, 37987.137, -0.0030530933, -0.039695654, -1562000.3, 56652.76, 0.0000828242, 9.999809, 10.000308 
1.0249354e+3, 1.4483175e+2, -1570449.3, -1573609.0, -34303.375, 0.08438899, 0.004270805, -1537689.4, -17041.053, 0.000012107546, 9.999773, 9.999732 
1.024943e+3, 1.5483154e+2, -1452723.6, -1463716.5, -19828.94, -0.042533744, 0.0076102577, -1437643.4, -14992.112, 0.00000009714164, 9.999901, 9.999751 
1.0249516e+3, 1.6483158e+2, -1305762.0, -1276341.8, -5707.2266, -0.086364046, 0.007473676, -1275273.4, 49377.29, 0.0, 9.999953, 10.000339 
1.02496155e+3, 1.7483184e+2, -1207484.6, -1173531.9, -25987.133, -0.026959062, -0.0057523903, -1159467.5, 67178.766, 0.0, 9.999934, 10.000381 
1.02497116e+3, 1.8483175e+2, -1175481.3, -1203405.4, -23858.182, 0.002713191, -0.007967733, -1161800.0, -33152.793, 0.0, 9.999894, 9.999523 
1.0249803e+3, 1.9483131e+2, -1083293.5, -1106483.5, -3786.5356, -0.00488524, -0.0073746284, -1082690.9, -52036.914, 0.0, 9.999847, 9.999537 
1.0249894e+3, 2.0483121e+2, -974635.7, -988954.44, -10150.149, -0.021109622, 0.02229578, -969374.0, -36716.836, 0.0, 9.999859, 9.999666 
1.02499805e+3, 2.1483146e+2, -863568.75, -881708.9, -19733.168, -0.045143522, 0.07512273, -850921.0, -16264.372, 0.0, 9.999935, 9.999693 
1.0250071e+3, 2.2483112e+2, -773375.0, -818603.3, -22917.963, -0.044768542, 0.08741524, -763792.4, -27131.7, 0.0, 10.000017, 9.999413 
1.0250162e+3, 2.3483017e+2, -660946.6, -710906.5, -21008.867, -0.018860986, 0.047060903, -653286.56, -14616.941, 0.0, 10.000106, 9.999436 
1.0250254e+3, 2.4482933e+2, -559522.5, -641357.1, -23903.035, -0.0011628687, 0.034120955, -553052.25, -12374.853, 0.0, 10.000258, 9.999167 
1.0250344e+3, 2.548286e+2, -429083.44, -525447.94, -32996.52, 0.0073230145, 0.04001277, -418867.9, 23816.133, 0.0, 10.00047, 9.999188 
1.0250436e+3, 2.648276e+2, -371170.94, -522611.03, -10287.875, 0.0018624737, 0.056464043, -370475.22, -25781.09, 0.0, 10.000523, 9.998509 
1.0250529e+3, 2.7482635e+2, -289323.9, -429866.03, 1131.6686, -0.018170003, 0.07687746, -289314.78, -42607.13, 0.0, 10.000402, 9.99853 
1.0250623e+3, 2.8482476e+2, -195675.64, -328260.34, -8300.169, -0.0044479375, 0.06276377, -195158.05, -46434.844, 0.0, 10.000345, 9.998585 
1.02507174e+3, 2.9482275e+2, -94451.42, -225872.05, -7818.4824, 0.044846967, 0.0010431004, -93987.92, -43246.793, 0.0, 10.000354, 9.9986105 
1.0250808e+3, 3.0482155e+2, 14018.71, -88447.06, -1792.653, 0.045817886, -0.0050978577, 14050.0625, 14050.0625, 0.0, 10.000507, 9.9991455 
1.0250895e+3, 3.1482178e+2, 61618.992, -56981.848, -11255.454, -0.0049396376, 0.096604064, 62677.707, 62677.707, 0.0, 10.000793, 9.999225 
1.0349147e+3, 1.2482283e+2, -1735015.3, -1766985.0, -977.4013, 0.0321237, 0.013459776, -1734985.4, -18252.19, 0.00027553758, 10.00005, 9.999616 
1.0349237e+3, 1.348218e+2, -1686101.5, -1716122.0, 29980.172, -0.08861072, -0.03360486, -1667583.9, -48837.3, 0.000106410545, 9.999807, 9.9994135 
1.0349341e+3, 1.4482203e+2, -1544064.3, -1518110.6, -30205.162, -0.030434208, 0.017013047, -1498212.6, 22532.602, 0.000017580353, 9.999769, 10.000115 
1.0349431e+3, 1.5482204e+2, -1423870.1, -1403110.1, -14611.342, -0.0261944, -0.0023005297, -1395567.1, 27176.32, 0.00000023822265, 9.999897, 10.000169 
1.03495225e+3, 1.64822e+2, -1340933.4, -1350034.9, -7541.7383, -0.024353078, -0.005812403, -1336675.8, -11932.547, 0.0, 9.999955, 9.999833 
1.03496164e+3, 1.748219e+2, -1244349.1, -1250106.4, -26906.807, -0.0053755883, -0.002706717, -1220167.4, 6577.543, 0.0, 9.999934, 9.999856 
1.0349711e+3, 1.8482175e+2, -1138135.5, -1125637.1, -27089.557, -0.00049000245, -0.010207962, -1104085.3, 24661.068, 0.0, 9.999892, 10.000058 
1.0349801e+3, 1.9482161e+2, -1044728.1, -1025857.6, -6029.936, -0.017324539, -0.036501277, -1024095.4, 6651.878, 0.0, 9.999845, 10.0000925 
1.0349893e+3, 2.0482169e+2, -990498.4, -1020811.8, -8886.701, -0.023926659, -0.0053207506, -988085.25, -55337.266, 0.0, 9.999854, 9.999451 
1.0349983e+3, 2.14822e+2, -879815.44, -914975.94, -17174.635, -0.017039355, 0.07569451, -872818.6, -38069.715, 0.0, 9.999933, 9.999466 
1.0350075e+3, 2.2482158e+2, -769088.8, -809164.75, -21016.496, -0.0009245247, 0.089047566, -760088.6, -23334.47, 0.0, 10.000014, 9.999479 
1.03501685e+3, 2.3482046e+2, -656376.6, -701148.56, -17505.242, 0.025037993, 0.022965914, -650344.94, -11581.018, 0.0, 10.000103, 9.999506 
1.0350259e+3, 2.4481966e+2, -575233.75, -672619.5, -16279.684, 0.029157711, 0.022544682, -572584.44, -31813.168, 0.0, 10.000252, 9.998957 
1.0350349e+3, 2.5481927e+2, -443872.06, -556779.7, -23768.535, 0.0110118305, 0.082321055, -439072.5, 3703.707, 0.0, 10.000472, 9.998973 
1.035044e+3, 2.6481825e+2, -349600.03, -478190.5, -14378.205, -0.004056191, 0.09248125, -348011.97, -3225.6147, 0.0, 10.000524, 9.998815 
1.0350532e+3, 2.7481657e+2, -268884.56, -385023.97, -2353.1243, -0.016799716, 0.03880733, -268836.9, -22034.746, 0.0, 10.00039, 9.998845 
1.0350624e+3, 2.8481513e+2, -193631.13, -320925.22, -7763.2646, -0.026049202, 0.02350835, -193159.4, -44344.15, 0.0, 10.000332, 9.998642 
1.0350713e+3, 2.9481402e+2, -89090.984, -216021.95, -4707.9346, -0.02918448, 0.04238238, -88916.6, -38091.426, 0.0, 10.00036, 9.998675 
1.0350809e+3, 3.048127e+2, 7695.272, -104628.6, 10228.183, 0.0059856265, 0.027628727, 8619.051, 8619.051, 0.0, 10.000519, 9.99903 
1.03509106e+3, 3.1481162e+2, 48786.563, -79033.19, 2839.7034, 0.07768086, 0.010626487, 48849.62, 48849.62, 0.0, 10.000773, 9.9990835 
1.04491465e+3, 1.2481302e+2, -1771717.3, -1804009.4, -66668.266, 0.036828727, -0.026877377, -1719267.8, -2440.1926, 0.0003338259, 9.999876, 9.999446 
1.04492344e+3, 1.3481233e+2, -1684697.1, -1733872.3, 26879.465, -0.10427969, -0.023640735, -1672855.9, -54016.75, 0.00013404706, 9.999895, 9.999249 
1.0449337e+3, 1.4481263e+2, -1507650.8, -1491604.3, -5394.0884, -0.052573588, 0.037394825, -1489959.6, 30877.977, 0.000024406929, 9.999983, 10.000194 
1.04494326e+3, 1.5481237e+2, -1391074.8, -1378887.5, -17972.46, -0.008864752, -0.016320497, -1366003.8, 56833.758, 0.0000004785213, 10.000084, 10.000246 
1.0449524e+3, 1.6481215e+2, -1344137.0, -1373226.3, -19698.768, -0.0024929554, -0.031798497, -1334195.1, -9356.068, 0.0, 10.000026, 9.9996395 
1.04496144e+3, 1.7481199e+2, -1274473.5, -1286046.0, -15719.597, -0.01632997, -0.014730304, -1263509.0, -36666.62, 0.0, 9.999821, 9.999663 
1.0449706e+3, 1.8481198e+2, -1147315.1, -1105866.4, -10177.741, -0.019361766, -0.010475014, -1103502.0, 25340.525, 0.0, 9.999727, 10.000272 
1.04497984e+3, 1.9481215e+2, -1041034.3, -999375.0, -14987.397, -0.018875772, -0.027422769, -994543.5, 36295.746, 0.0, 9.9997635, 10.000313 
1.04498915e+3, 2.048122e+2, -999767.3, -1033095.56, -20586.227, -0.013496852, -0.007007313, -989945.9, -57106.152, 0.0, 9.999825, 9.999378 
1.0449984e+3, 2.148121e+2, -886968.25, -926606.9, -18652.877, -0.0007251864, 0.0434891, -879571.1, -44726.605, 0.0, 9.999921, 9.999391 
1.0450077e+3, 2.2481167e+2, -765814.25, -807342.3, -17354.504, 0.012856509, 0.057720747, -759516.8, -22666.67, 0.0, 10.000036, 9.999481 
1.04501694e+3, 2.3481087e+2, -646235.8, -695894.0, -20706.111, 0.026531637, 0.024696197, -638734.94, 121.64011, 0.0, 10.000171, 9.999509 
1.0450261e+3, 2.4481007e+2, -573908.2, -679155.44, -14009.925, 0.02614219, 0.026722593, -572075.2, -31211.082, 0.0, 10.000291, 9.998892 
1.0450353e+3, 2.5480932e+2, -459902.56, -570985.9, -11675.089, 0.011203893, 0.057823706, -458688.75, -15815.952, 0.0, 10.000392, 9.998913 
1.0450446e+3, 2.648083e+2, -359651.38, -462554.72, -11863.433, 0.0037681886, 0.061553784, -358301.4, -13418.545, 0.0, 10.000368, 9.998996 
1.0450537e+3, 2.7480698e+2, -281651.06, -370456.2, -10254.076, 0.0034186537, 0.023519473, -280482.4, -33587.734, 0.0, 10.000214, 9.999029 
1.04506284e+3, 2.848057e+2, -196031.48, -327125.94, -9433.278, -0.011163552, 0.017073188, -195356.16, -46450.12, 0.0, 10.000337, 9.998596 
1.0450718e+3, 2.9480457e+2, -37934.36, -196468.22, -17651.31, -0.03767978, 0.038252223, -35992.82, 14923.627, 0.0, 10.000733, 9.998629 
1.04508154e+3, 3.0480313e+2, 40095.863, -96429.54, -14299.565, 0.000042036034, 0.016265057, 41577.508, 41577.508, 0.0, 10.000774, 9.998962 
1.0450919e+3, 3.1480172e+2, -3396.6702, -112646.555, -17920.701, 0.101444736, -0.023609787, -532.1715, -532.1715, 0.0, 10.000451, 9.999006 
1.05491385e+3, 1.2480236e+2, -1730607.0, -1717047.1, -73845.32, -0.0372806, -0.08124961, -1649671.3, 67262.17, 0.00039971265, 9.999868, 10.000047 
1.0549238e+3, 1.3480297e+2, -1641974.3, -1645731.8, 29324.07, -0.050250348, -0.010016409, -1614468.9, 4461.08, 0.00016604259, 9.999896, 9.999854 
1.05493434e+3, 1.4480357e+2, -1523897.5, -1526874.0, -1544.3273, 0.017448762, 0.06493523, -1523241.1, -2316.681, 0.000032768716, 9.999989, 9.9999485 
1.0549435e+3, 1.5480259e+2, -1410784.0, -1418683.6, -13894.202, 0.0047028153, -0.03362737, -1400289.1, 22643.596, 0.0000008393984, 10.000079, 9.999975 
1.0549523e+3, 1.648021e+2, -1336602.9, -1357043.6, -28453.686, -0.02772711, -0.067437775, -1316589.6, 8347.665, 0.0, 10.000023, 9.999752 
1.0549608e+3, 1.7480217e+2, -1265620.9, -1267422.3, -23574.078, -0.062396437, -0.041177638, -1242930.3, -15992.356, 0.0, 9.999819, 9.999792 
1.05496995e+3, 1.8480244e+2, -1155036.5, -1121899.5, -10244.663, -0.056631736, -0.009790829, -1118988.0, 9947.349, 0.0, 9.999725, 10.000163 
1.0549797e+3, 1.9480295e+2, -1049149.1, -1016053.0, -13909.601, -0.012728624, 0.018115228, -1010983.56, 19945.887, 0.0, 9.999763, 10.000199 
1.0549891e+3, 2.0480277e+2, -995348.25, -1023431.1, -18441.053, 0.006209392, 0.018109309, -986211.4, -53279.613, 0.0, 9.999822, 9.999447 
1.0549983e+3, 2.1480185e+2, -882608.0, -916848.2, -15228.478, 0.0008737688, -0.020912541, -876815.1, -41872.223, 0.0, 9.999917, 9.99946 
1.0550076e+3, 2.248014e+2, -771055.4, -817362.44, -13550.331, -0.0067768106, -0.007903747, -767381.75, -30433.545, 0.0, 10.000031, 9.999415 
1.05501674e+3, 2.3480147e+2, -650681.44, -705558.7, -15455.581, -0.016565524, 0.05110381, -646627.94, -7680.658, 0.0, 10.000172, 9.999442 
1.0550261e+3, 2.4480063e+2, -568791.44, -668324.56, -10638.239, -0.012947919, 0.04838812, -567667.1, -26711.71, 0.0, 10.00029, 9.998968 
1.0550357e+3, 2.5479883e+2, -455031.7, -559935.4, -7150.1724, 0.00507084, -0.0313463, -454546.6, -11573.241, 0.0, 10.000386, 9.998992 
1.05504505e+3, 2.6479778e+2, -355528.1, -452481.34, -17583.326, 0.021900898, -0.037881337, -352437.72, -7454.159, 0.0, 10.0003605, 9.999069 
1.0550543e+3, 2.747976e+2, -275713.56, -359302.5, -14426.413, 0.03663441, 0.02688237, -273293.78, -26308.584, 0.0, 10.000217, 9.9991045 
1.0550636e+3, 2.8479648e+2, -208117.17, -352993.63, 5951.1934, 0.033818938, 0.04215746, -207873.13, -58877.918, 0.0, 10.0003395, 9.998417 
1.05507314e+3, 2.9479447e+2, -53180.855, -225257.53, -906.17633, 0.0148297, -0.0050216364, -53176.082, -2161.9146, 0.0, 10.00072, 9.998438 
1.0550825e+3, 3.0479285e+2, 38195.426, -97243.3, -25823.313, 0.0243559, -0.033932664, 42951.96, 42951.96, 0.0, 10.000761, 9.998964 
1.0550921e+3, 3.1479213e+2, -636.98816, -108989.484, -26380.766, 0.057036895, -0.009314185, 5444.632, 5444.632, 0.0, 10.00046, 9.999028 
1.06491305e+3, 1.2479256e+2, -1772530.4, -1691229.9, -53707.38, -0.06677387, -0.066838816, -1664523.4, 52507.316, 0.00047318285, 9.999388, 10.000454 
1.0649239e+3, 1.3479313e+2, -1627063.9, -1592894.4, 39283.67, -0.02013398, -0.038239673, -1567141.1, 51883.34, 0.00020250746, 9.999801, 10.000264 
1.0649346e+3, 1.4479382e+2, -1545940.8, -1559691.4, -7032.9707, 0.04228532, 0.03193101, -1542980.9, -21963.025, 0.000042863663, 9.999932, 9.99975 
1.0649432e+3, 1.5479304e+2, -1482523.1, -1476321.5, -17743.03, -0.004648592, -0.02548791, -1461410.4, -38384.273, 0.0000013547858, 9.999688, 9.999766 
1.06495194e+3, 1.6479264e+2, -1375641.6, -1360082.9, -22928.701, -0.043587048, -0.04673247, -1343649.8, -18619.297, 0.0, 9.99969, 9.999889 
1.0649608e+3, 1.7479266e+2, -1231595.3, -1234885.4, -17464.414, -0.054864775, -0.03980424, -1215698.6, 11331.866, 0.0, 9.999984, 9.999935 
1.06497e+3, 1.8479282e+2, -1127803.4, -1136389.0, -12238.237, -0.03902506, -0.015584227, -1119126.9, 9902.079, 0.0, 10.000032, 9.999915 
1.0649796e+3, 1.9479313e+2, -1056950.5, -1048200.2, -27969.234, -0.0014393204, 0.020116746, -1024265.94, 6759.6953, 0.0, 9.999832, 9.999944 
1.06498905e+3, 2.0479283e+2, -985852.9, -1008952.2, -27228.324, 0.009831608, 0.01571094, -967825.9, -34796.785, 0.0, 9.999845, 9.999536 
1.0649983e+3, 2.1479182e+2, -850229.2, -890663.9, -23195.72, -0.005024215, -0.041036457, -839676.75, -4636.7764, 0.0, 10.000093, 9.999555 
1.0650076e+3, 2.247914e+2, -746074.44, -801340.7, -20674.639, -0.016645305, -0.033936594, -739196.25, -2151.482, 0.0, 10.000186, 9.999451 
1.0650167e+3, 2.3479156e+2, -656387.4, -703877.8, -16384.523, -0.025192507, 0.033178683, -651283.2, -12240.131, 0.0, 10.000115, 9.99948 
1.0650262e+3, 2.4479087e+2, -595729.3, -668426.2, -5980.281, -0.014834745, 0.036384534, -595240.6, -54190.797, 0.0, 10.000051, 9.999082 
1.065036e+3, 2.547892e+2, -503205.56, -570148.9, -1246.5542, 0.015909273, -0.041327477, -503182.34, -60116.242, 0.0, 10.0, 9.999107 
1.06504545e+3, 2.6478815e+2, -390718.84, -486703.28, -13306.567, 0.0326749, -0.0470257, -388908.28, -43831.67, 0.0, 10.000192, 9.998916 
1.0650547e+3, 2.7478778e+2, -228117.39, -353518.16, -29097.463, 0.034710735, 0.018947605, -221694.69, 25385.807, 0.0, 10.000619, 9.998951 
1.0650642e+3, 2.8478664e+2, -152805.13, -316067.25, -11471.575, 0.039919678, 0.03356235, -152003.02, -2912.0457, 0.0, 10.000676, 9.9985075 
1.065074e+3, 2.947847e+2, -98564.81, -236287.0, 1752.059, 0.04973097, -0.018001866, -98542.52, -47433.844, 0.0, 10.000362, 9.998533 
1.0650835e+3, 3.0478302e+2, -3910.292, -125303.67, -8905.107, 0.054726556, -0.05354658, -3260.5142, -3260.5142, 0.0, 10.0005045, 9.998894 
1.0650927e+3, 3.147823e+2, 82037.06, -77245.3, -20639.393, 0.051003315, -0.021078967, 84668.0, 84668.0, 0.0, 10.001064, 9.998956 
1.0749125e+3, 1.2478378e+2, -1761247.9, -1665995.5, -45675.54, -0.06418593, 0.02039859, -1647633.0, 69485.01, 0.00055371417, 9.999381, 10.00063 
1.0749238e+3, 1.3478297e+2, -1614951.9, -1565140.0, 56589.03, -0.018787824, -0.10826214, -1528218.5, 90903.56, 0.00024334127, 9.99979, 10.00046 
1.0749342e+3, 1.4478345e+2, -1557558.0, -1582504.0, -15673.174, 0.014554632, -0.061476454, -1550000.4, -28883.3, 0.00005483326, 9.999927, 9.999597 
1.07494265e+3, 1.547838e+2, -1493292.1, -1498735.5, -26701.113, -0.040102545, 0.009174397, -1469174.4, -46057.2, 0.000002073113, 9.999688, 9.999613 
1.0749515e+3, 1.6478384e+2, -1363692.3, -1336090.6, -13489.827, -0.052977633, 0.030592244, -1330592.8, -5474.813, 0.0000000000166348, 9.999693, 10.000053 
1.0749613e+3, 1.7478353e+2, -1220414.8, -1211237.5, -6253.665, 0.003923381, -0.0110055255, -1208069.6, 19050.086, 0.0, 9.999981, 10.000099 
1.0749707e+3, 1.8478318e+2, -1156074.8, -1194553.5, -20815.74, 0.028918138, -0.026194451, -1146969.0, -17846.254, 0.0, 10.00003, 9.999518 
1.0749796e+3, 1.947828e+2, -1086129.3, -1108143.4, -35886.543, 0.012331083, -0.020276196, -1059599.6, -28472.477, 0.0, 9.999829, 9.999535 
1.0749888e+3, 2.0478241e+2, -978850.6, -994062.56, -19782.088, -0.0054402794, -0.01441818, -965262.7, -32131.297, 0.0, 9.999842, 9.9996395 
1.07499816e+3, 2.1478207e+2, -842177.75, -873843.94, -14279.632, -0.021143878, -0.018291594, -836689.6, -1554.2502, 0.0, 10.000092, 9.999671 
1.0750077e+3, 2.2478168e+2, -736581.44, -781558.4, -24540.854, -0.020073943, -0.019637661, -725783.5, 11355.829, 0.0, 10.000184, 9.999588 
1.0750171e+3, 2.3478122e+2, -647046.8, -684193.0, -18838.254, -0.0019504207, -0.027995074, -639165.44, -22.132614, 0.0, 10.000113, 9.999618 
1.0750266e+3, 2.4478081e+2, -585479.0, -646886.0, -8547.06, 0.017613363, -0.010702765, -584311.56, -43164.42, 0.0, 10.000049, 9.999231 
1.07503615e+3, 2.5478044e+2, -492591.0, -548638.25, -2502.1729, 0.03923271, 0.024956334, -492479.5, -49328.566, 0.0, 10.000001, 9.999255 
1.0750457e+3, 2.6477942e+2, -417672.44, -542373.94, 2872.8296, 0.032720175, 0.03319712, -417606.28, -72444.58, 0.0, 10.00019, 9.998535 
1.0750549e+3, 2.7477768e+2, -256581.94, -411069.9, -11672.998, -0.0040850197, 0.0016411053, -255704.9, -8524.895, 0.0, 10.00061, 9.99856 
1.0750645e+3, 2.8477627e+2, -129110.14, -264574.66, -23262.482, 0.0051209135, -0.008392965, -125226.74, 23966.246, 0.0, 10.000666, 9.998867 
1.07507445e+3, 2.9477525e+2, -71207.67, -180362.06, -8092.7393, 0.061696637, -0.004808487, -70610.94, -19410.904, 0.0, 10.000365, 9.998916 
1.07508436e+3, 3.0477366e+2, -15293.199, -149325.33, 13077.247, 0.086297765, -0.04551303, -14029.198, -14029.198, 0.0, 10.000505, 9.998729 
1.075094e+3, 3.1477234e+2, 67703.586, -104138.234, 3276.1423, 0.0758539, -0.05234339, 67766.016, 67766.016, 0.0, 10.00105, 9.998777 
1.0849125e+3, 1.2477445e+2, -1679466.1, -1649482.8, -35517.164, -0.04266627, 0.038511284, -1625922.9, 91286.17, 0.00064071716, 10.000043, 10.000424 
1.08492345e+3, 1.3477331e+2, -1646096.6, -1601021.5, 43009.906, -0.026965275, -0.10479941, -1575002.0, 44214.984, 0.00028839763, 9.999668, 10.000271 
1.0849337e+3, 1.447736e+2, -1592545.9, -1587899.4, -31755.11, -0.017737743, -0.07157305, -1558382.6, -37169.035, 0.00006873226, 9.99964, 9.999696 
1.0849424e+3, 1.5477395e+2, -1450958.3, -1467070.9, -26677.229, -0.03542102, -0.010360514, -1431147.4, -7934.749, 0.0000030594845, 9.999931, 9.999712 
1.0849515e+3, 1.6477405e+2, -1330276.9, -1337146.9, -13290.808, -0.0326644, 0.01827975, -1319984.4, 5228.681, 0.000000000186287, 9.999996, 9.9999 
1.08496144e+3, 1.7477384e+2, -1255258.4, -1245448.1, -31823.363, 0.017218562, 0.003225149, -1218154.0, 9060.5, 0.0, 9.99982, 9.999941 
1.0849708e+3, 1.8477339e+2, -1174894.8, -1202233.1, -41751.742, 0.035517402, -0.015124647, -1144631.5, -15412.657, 0.0, 9.999896, 9.999529 
1.0849796e+3, 1.9477265e+2, -1021733.8, -1075349.4, -25669.283, 0.01014, -0.046171993, -1011425.94, 19800.285, 0.0, 10.000264, 9.99955 
1.0849888e+3, 2.0477231e+2, -919699.2, -960600.44, -1075.9937, -0.005091061, -0.039724525, -919670.94, 13558.893, 0.0, 10.000228, 9.999682 
1.0849983e+3, 2.1477243e+2, -887793.8, -890722.2, -2204.9878, -0.0067887236, -0.0009048224, -886611.1, -51381.92, 0.0, 9.999758, 9.999716 
1.0850078e+3, 2.2477208e+2, -810684.9, -825578.56, -11629.711, 0.0018441364, 0.0034030993, -804322.1, -67089.28, 0.0, 9.999712, 9.999513 
1.0850175e+3, 2.3477119e+2, -648591.3, -693851.44, -23971.186, 0.019874306, -0.04017991, -638255.7, 985.52783, 0.0, 10.00014, 9.999538 
1.085027e+3, 2.4477069e+2, -546069.0, -631931.1, -36816.17, 0.032004185, -0.027144095, -532444.75, 8801.496, 0.0, 10.000336, 9.999196 
1.08503625e+3, 2.5477058e+2, -455668.88, -534375.2, -45538.215, 0.03852077, 0.039170373, -434835.66, 8411.787, 0.0, 10.000271, 9.999224 
1.0850458e+3, 2.6476955e+2, -418485.9, -538589.3, -23622.135, 0.033337004, 0.04877131, -414006.9, -68749.08, 0.0, 10.000168, 9.99857 
1.0850554e+3, 2.7476755e+2, -336221.94, -445519.25, -7365.6675, 0.014968808, -0.014058956, -335727.78, -88449.54, 0.0, 10.000048, 9.998594 
1.0850651e+3, 2.8476608e+2, -196187.17, -304601.5, -19404.896, 0.020970061, -0.028942505, -192818.58, -43526.58, 0.0, 10.000237, 9.998798 
1.0850749e+3, 2.9476523e+2, -25260.3, -166459.69, -39980.6, 0.053939905, 0.000703622, -14725.754, 36572.434, 0.0, 10.000717, 9.998842 
1.0850848e+3, 3.047637e+2, 33076.023, -104061.766, -23187.25, 0.07731314, -0.039649405, 36890.426, 36890.426, 0.0, 10.000744, 9.998925 
1.0850949e+3, 3.147626e+2, -21800.732, -122451.76, -7268.99, 0.08920606, -0.04455318, -21278.477, -21278.477, 0.0, 10.00033, 9.998998 
1.0949128e+3, 1.24764636e+2, -1721068.3, -1734328.4, -56035.93, -0.012676126, -0.017247224, -1671271.5, 46032.035, 0.000734217, 10.000037, 9.999845 
1.0949229e+3, 1.3476427e+2, -1686333.9, -1685175.8, 30581.186, -0.048634283, -0.025037235, -1655168.1, -35860.066, 0.00033773432, 9.99967, 9.999693 
1.09493285e+3, 1.4476442e+2, -1568178.6, -1536965.3, -21360.861, -0.0595275, 0.0047033993, -1526117.1, -4810.896, 0.0000845864, 9.9996395, 10.000046 
1.0949428e+3, 1.5476361e+2, -1426912.5, -1416117.1, -15061.626, 0.006524653, -0.085259125, -1405515.3, 17796.922, 0.0000043925156, 9.999927, 10.000065 
1.094952e+3, 1.6476335e+2, -1364157.3, -1407118.3, -20591.506, 0.012917116, -0.084998205, -1355881.8, -30566.701, 0.0000000006358386, 9.999994, 9.999421 
1.0949608e+3, 1.747637e+2, -1290177.4, -1317992.5, -38661.105, -0.01842323, 0.0034670904, -1262998.4, -35683.816, 0.0, 9.999819, 9.999444 
1.0949701e+3, 1.847635e+2, -1145750.1, -1141171.4, -29836.361, -0.024400324, 0.017402774, -1113536.6, 15780.352, 0.0, 9.999893, 9.999949 
1.09497964e+3, 1.9476275e+2, -990915.06, -1010882.7, -12162.46, -0.0104940245, -0.05858359, -985163.5, 46158.984, 0.0, 10.000261, 9.999993 
1.0949891e+3, 2.0476256e+2, -920953.25, -963138.2, -19678.164, 0.007994774, -0.059821285, -913199.2, 20124.676, 0.0, 10.000226, 9.999667 
1.0949984e+3, 2.1476299e+2, -890312.75, -895367.0, -20042.889, 0.03494942, 0.012144492, -872638.3, -37317.45, 0.0, 9.999754, 9.999687 
1.09500796e+3, 2.2476266e+2, -831854.94, -869009.4, 2251.2295, 0.045638584, 0.03572412, -831719.0, -94394.26, 0.0, 9.999709, 9.999216 
1.0950177e+3, 2.3476152e+2, -670106.94, -738082.94, -7789.6357, 0.037629083, -0.0043944553, -669225.75, -29889.248, 0.0, 10.000137, 9.999236 
1.09502725e+3, 2.4476053e+2, -561495.6, -663734.75, -39154.88, 0.02596021, -0.012988508, -548223.3, -6876.649, 0.0, 10.000334, 9.99898 
1.0950363e+3, 2.5475973e+2, -470786.25, -564996.0, -47164.62, 0.011327993, 0.002371915, -451232.5, -7877.462, 0.0, 10.000266, 9.999016 
1.095046e+3, 2.647587e+2, -388316.4, -475023.56, -28364.488, 0.03128879, 0.00037253604, -379861.9, -34497.43, 0.0, 10.000164, 9.999009 
1.09505616e+3, 2.7475744e+2, -304500.28, -379576.4, -10404.532, 0.086605564, -0.028799096, -303085.03, -55710.14, 0.0, 10.000048, 9.999047 
1.0950661e+3, 2.8475612e+2, -231518.78, -377430.28, -689.13153, 0.08396274, -0.027880702, -231515.53, -82127.9, 0.0, 10.000235, 9.998301 
1.0950753e+3, 2.9475474e+2, -63174.582, -242995.58, -19588.361, 0.022422042, -0.0023717275, -61065.51, -9662.74, 0.0, 10.000707, 9.9983225 
1.0950851e+3, 3.0475324e+2, 68611.57, -27571.45, -38845.223, 0.02299143, -0.03798027, 82340.32, 82340.32, 0.0, 10.000731, 9.999456 
1.0950951e+3, 3.1475317e+2, 20914.082, -34364.105, -19965.816, 0.08313288, 0.003383795, 27371.225, 27371.225, 0.0, 10.000332, 9.999601 
1.10491246e+3, 1.24754965e+2, -1787100.1, -1783574.3, -70767.4, -0.035424512, -0.040047668, -1714547.8, 2849.3335, 0.00083503575, 9.999659, 9.999688 
1.104923e+3, 1.3475484e+2, -1648200.4, -1682556.3, 52034.105, -0.026884515, -0.011174888, -1610582.1, 8818.836, 0.0003918232, 9.999995, 9.999556 
1.10493295e+3, 1.4475493e+2, -1482337.0, -1499667.8, 11265.729, -0.04626676, 0.022487234, -1476789.5, 44610.266, 0.000102570426, 10.000245, 10.0000105 
1.104943e+3, 1.5475382e+2, -1378547.9, -1396278.6, -14426.178, 0.022007268, -0.094646774, -1370480.8, 52926.754, 0.0000061708192, 10.000276, 10.000031 
1.10495225e+3, 1.6475338e+2, -1330648.1, -1400239.1, -28195.344, 0.021894975, -0.106834285, -1320658.5, 4753.193, 0.0000000015512864, 10.000267, 9.999335 
1.1049608e+3, 1.7475367e+2, -1233516.3, -1300370.3, -16883.467, -0.027749218, -0.015035155, -1229494.5, -2082.301, 0.0, 10.000251, 9.999356 
1.1049698e+3, 1.8475354e+2, -1122897.3, -1127528.5, -2700.5518, -0.03938976, 0.009182223, -1121655.4, 7758.7314, 0.0, 10.000038, 9.999973 
1.1049795e+3, 1.94753e+2, -1083235.5, -1052171.6, -17212.045, -0.01839525, -0.048105896, -1044519.6, -13101.862, 0.0, 9.999615, 10.000021 
1.1049891e+3, 2.047528e+2, -996632.7, -1007272.6, -36113.973, 0.009712421, -0.04905605, -965448.94, -32029.568, 0.0, 9.999741, 9.999598 
1.1049987e+3, 2.1475294e+2, -789931.1, -854956.7, -41571.973, 0.0480211, 0.0018767612, -769667.8, 65751.086, 0.0, 10.000479, 9.999615 
1.1050082e+3, 2.2475252e+2, -710851.75, -821507.0, -20302.639, 0.057449654, 0.024169963, -707244.3, 30179.533, 0.0, 10.000587, 9.999119 
1.1050178e+3, 2.347515e+2, -696742.56, -761777.25, -16017.871, 0.033951186, 0.0047979346, -693011.44, -53576.813, 0.0, 10.000002, 9.999138 
1.1050272e+3, 2.4475038e+2, -630650.94, -703673.94, -23498.877, 0.017148249, -0.0072166338, -623742.56, -82296.57, 0.0, 9.999888, 9.9989195 
1.1050365e+3, 2.547492e+2, -468686.13, -571035.44, -21996.691, 0.007331397, -0.021874331, -464158.9, -20701.031, 0.0, 10.000311, 9.998953 
1.1050463e+3, 2.6474816e+2, -337790.34, -441925.0, -21909.027, 0.03549632, -0.026408946, -333368.66, 12098.717, 0.0, 10.000472, 9.999088 
1.10505655e+3, 2.747473e+2, -259065.38, -348522.53, -33081.684, 0.104826, -0.02621538, -248160.84, -686.9832, 0.0, 10.00032, 9.999129 
1.1050664e+3, 2.8474608e+2, -247016.5, -386246.94, -8857.207, 0.10464256, -0.016629752, -246455.31, -96969.99, 0.0, 10.000135, 9.998287 
1.1050757e+3, 2.9474452e+2, -175411.13, -299105.28, 7991.936, 0.030649925, -0.00765353, -174896.9, -123394.56, 0.0, 9.999945, 9.998303 
1.10508546e+3, 3.0474275e+2, -10155.0, -78267.01, -11427.067, 0.021361709, -0.06297033, -8289.015, -8289.015, 0.0, 10.000245, 9.999343 
1.1050957e+3, 3.1474277e+2, 119311.53, 4799.62, -46600.91, 0.07911478, -0.0035346686, 135878.94, 135878.94, 0.0, 10.001042, 9.999529 
1.1149113e+3, 1.24745466e+2, -1768877.3, -1743695.6, -63435.08, -0.12221086, -0.034288604, -1691613.9, 25875.736, 0.000944546, 9.99965, 9.999966 
1.1149236e+3, 1.3474505e+2, -1627000.8, -1638574.3, 67435.55, 0.035308175, -0.06561932, -1565104.1, 54390.906, 0.00045159098, 9.999994, 9.999859 
1.1149339e+3, 1.447452e+2, -1511368.9, -1559756.4, 13042.022, 0.019397836, -0.020621771, -1508077.5, 13416.1, 0.00012308804, 10.000244, 9.999599 
1.1149431e+3, 1.5474467e+2, -1408245.3, -1458378.5, -13198.566, 0.00603021, -0.036462616, -1404982.8, 18515.297, 0.000008505592, 10.0002775, 9.999605 
1.1149521e+3, 1.6474418e+2, -1309381.9, -1356072.0, -30336.002, -0.012388084, -0.04491891, -1294448.1, 31054.375, 0.0000000033697685, 10.000267, 9.999639 
1.1149612e+3, 1.747438e+2, -1210898.8, -1253286.9, -17489.787, -0.013009353, -0.052715413, -1204614.0, 22892.648, 0.0, 10.00025, 9.99968 
1.1149702e+3, 1.8474355e+2, -1149147.9, -1181752.3, -19715.016, -0.012266334, -0.0400746, -1139868.0, -10358.366, 0.0, 10.000036, 9.999602 
1.1149792e+3, 1.9474347e+2, -1111076.4, -1109779.5, -33491.426, -0.016644057, -0.013708892, -1076930.3, -45418.81, 0.0, 9.999613, 9.999627 
1.1149888e+3, 2.0474307e+2, -1006700.5, -1027279.56, -11077.362, -0.0042100265, -0.006829687, -1001871.06, -68355.3, 0.0, 9.999736, 9.999463 
1.11499906e+3, 2.1474232e+2, -799230.1, -873234.44, -14229.969, 0.030216338, -0.031928252, -796588.2, 38934.938, 0.0, 10.000474, 9.999492 
1.1150085e+3, 2.2474168e+2, -703810.5, -806112.8, -42557.203, 0.034805283, -0.031712327, -688421.75, 49107.906, 0.0, 10.000583, 9.999228 
1.11501746e+3, 2.3474115e+2, -689097.8, -745418.06, -37853.6, 0.006408835, -0.011994248, -670078.6, -30543.441, 0.0, 9.999999, 9.999252 
1.115027e+3, 2.4474029e+2, -625304.75, -691808.0, -9146.691, 0.0017963502, -0.008535604, -624069.7, -82525.984, 0.0, 9.999885, 9.999002 
1.115037e+3, 2.5473908e+2, -463706.47, -560259.5, -5153.1587, 0.02334963, -0.033648204, -463432.22, -19876.61, 0.0, 10.000308, 9.999028 
1.1150469e+3, 2.64738e+2, -357897.97, -482987.75, -26740.152, 0.044057295, -0.032407813, -352421.53, -6855.3086, 0.0, 10.000469, 9.998808 
1.1150565e+3, 2.747371e+2, -280339.7, -390643.44, -37533.344, 0.06584157, -0.008955099, -268779.63, -21204.61, 0.0, 10.000311, 9.998844 
1.11506626e+3, 2.8473598e+2, -216008.22, -320282.47, -16490.79, 0.0772324, 0.0030651074, -213462.39, -63877.48, 0.0, 10.000128, 9.998744 
1.115076e+3, 2.9473466e+2, -141002.9, -229260.81, 3001.787, 0.074094675, -0.012423121, -140900.94, -89304.48, 0.0, 9.99995, 9.998781 
1.11508615e+3, 3.0473235e+2, -62784.03, -187925.22, 18706.668, 0.069678724, -0.11004627, -60047.516, -60047.516, 0.0, 10.000246, 9.9985895 
1.11509666e+3, 3.1473148e+2, 66083.65, -101328.7, -12872.368, 0.06766488, -0.05793533, 67067.625, 67067.625, 0.0, 10.001022, 9.99881 
1.124911e+3, 1.2473579e+2, -1728377.9, -1735661.3, -53314.773, -0.12084124, -0.04396301, -1678580.6, 39002.613, 0.0010643419, 9.99998, 9.999862 
1.1249237e+3, 1.3473508e+2, -1588650.6, -1628712.9, 51203.01, 0.04075068, -0.09406726, -1553700.0, 65891.2, 0.00051804923, 10.000297, 9.999781 
1.12493396e+3, 1.4473523e+2, -1494438.4, -1565120.3, -19940.564, -0.008228009, -0.040931385, -1489200.9, 32389.79, 0.00014661087, 10.00042, 9.999477 
1.1249433e+3, 1.5473506e+2, -1424015.8, -1480522.9, -27441.066, -0.008551771, -0.0070942435, -1412883.1, 10709.699, 0.00001150662, 10.000231, 9.9994755 
1.1249523e+3, 1.647346e+2, -1324131.0, -1351830.8, -36842.65, -0.015554524, -0.011496636, -1298621.0, 26976.018, 0.0000000061074554, 10.000115, 9.999742 
1.12496145e+3, 1.7473388e+2, -1226917.3, -1248816.0, -41060.15, -0.008082326, -0.06602071, -1195371.6, 32231.7, 0.0, 10.000088, 9.999789 
1.1249705e+3, 1.8473351e+2, -1138781.9, -1194124.4, -45050.895, -0.00187231, -0.06378436, -1113582.6, 16024.521, 0.0, 10.000183, 9.999446 
1.12497926e+3, 1.9473353e+2, -1004112.0, -1076385.4, -43395.3, -0.0054177735, -0.008416054, -983777.4, 47831.203, 0.0, 10.000426, 9.999465 
1.1249888e+3, 2.0473306e+2, -915050.5, -986019.56, 3753.6262, 0.0004925043, 0.0012405544, -914852.56, 18761.31, 0.0, 10.000379, 9.999436 
1.12499915e+3, 2.1473204e+2, -868297.0, -908884.3, 7890.6523, 0.019079482, -0.04977858, -866816.94, -31193.39, 0.0, 10.0000105, 9.99947 
1.12500876e+3, 2.2473131e+2, -784153.56, -843525.56, -28148.107, 0.021412587, -0.057058945, -772930.2, -35299.598, 0.0, 10.000026, 9.999239 
1.1250177e+3, 2.3473093e+2, -618884.3, -709776.0, -33924.543, 0.0045387805, -0.023453861, -607618.56, 32016.043, 0.0, 10.000475, 9.999268 
1.12502724e+3, 2.4473019e+2, -537638.6, -651926.25, -10710.301, 0.009215117, -0.008841425, -536643.56, 4998.5903, 0.0, 10.000498, 9.9989805 
1.1250374e+3, 2.5472903e+2, -505124.84, -582358.44, -14923.74, 0.037566952, -0.026422517, -502341.47, -58687.75, 0.0, 10.000035, 9.999007 
1.1250471e+3, 2.647279e+2, -448055.38, -541072.7, -31030.434, 0.052473195, -0.02292689, -438653.9, -92988.67, 0.0, 9.999915, 9.998675 
1.1250567e+3, 2.747268e+2, -308392.9, -419942.75, -32397.652, 0.053618126, -0.0031725967, -299666.28, -51989.895, 0.0, 10.000187, 9.998703 
1.1250664e+3, 2.8472564e+2, -180462.5, -298224.47, -24563.158, 0.07099614, 0.0077136084, -175544.42, -25857.46, 0.0, 10.00035, 9.998789 
1.12507656e+3, 2.947244e+2, -75173.15, -192304.22, -39417.71, 0.1051184, -0.0045326822, -63143.516, -11446.316, 0.0, 10.000381, 9.998827 
1.1250868e+3, 3.0472198e+2, -55696.555, -184410.39, 927.01434, 0.09390588, -0.11261482, -55689.88, -55689.88, 0.0, 10.000297, 9.998589 
1.1250969e+3, 3.1472132e+2, -63801.734, -153266.61, 25395.355, 0.038337175, -0.043091398, -57095.71, -57095.71, 0.0, 10.000088, 9.998902 
1.13491185e+3, 1.2472598e+2, -1762710.9, -1805162.5, -43992.777, -0.032504167, -0.06774723, -1735091.0, -17413.98, 0.0011953667, 9.999974, 9.999387 
1.1349235e+3, 1.3472503e+2, -1620723.6, -1695456.9, 64784.86, -0.017765224, -0.09502966, -1583301.6, 36387.234, 0.00059164723, 10.000297, 9.999323 
1.1349331e+3, 1.4472508e+2, -1483487.4, -1541741.5, -26373.924, -0.13881518, -0.036963258, -1473321.0, 48369.035, 0.00017336896, 10.000417, 9.9996395 
1.1349434e+3, 1.5472504e+2, -1411866.5, -1455495.4, -34295.48, -0.025258312, -0.007738094, -1393035.5, 30655.648, 0.000015247707, 10.000232, 9.999648 
1.1349526e+3, 1.6472468e+2, -1331553.1, -1366663.8, -39336.984, 0.009183581, -0.0081309285, -1306031.9, 19662.87, 0.000000009421829, 10.000113, 9.999641 
1.1349614e+3, 1.7472391e+2, -1234617.4, -1264539.8, -42270.453, -0.017324729, -0.0543255, -1204738.6, 22962.795, 0.0, 10.000086, 9.999681 
1.1349705e+3, 1.8472342e+2, -1135393.6, -1186775.5, -37896.58, -0.014055891, -0.06128565, -1115300.6, 14405.548, 0.0, 10.000181, 9.999498 
1.1349799e+3, 1.9472325e+2, -999926.25, -1067393.3, -34722.805, 0.013239106, -0.032228228, -985248.75, 46459.984, 0.0, 10.000424, 9.999528 
1.1349894e+3, 2.0472284e+2, -909296.56, -973323.4, -11126.5625, 0.021139845, -0.024899479, -907418.06, 26295.0, 0.0, 10.000375, 9.999526 
1.134999e+3, 2.1472216e+2, -862604.44, -896879.8, -6186.5557, 0.011113114, -0.051034335, -861522.0, -25802.518, 0.0, 10.000009, 9.999554 
1.1350086e+3, 2.2472149e+2, -791242.4, -857538.56, -13518.496, 0.012493131, -0.050867695, -788591.75, -50865.758, 0.0, 10.000023, 9.999145 
1.1350185e+3, 2.3472089e+2, -626283.06, -724550.4, -16978.604, 0.025992926, -0.0302058, -623432.2, 16300.452, 0.0, 10.000471, 9.999168 
1.1350279e+3, 2.4472007e+2, -546917.3, -669836.3, -27816.459, 0.036700845, -0.010164667, -540915.5, 825.69025, 0.0, 10.000493, 9.99886 
1.1350375e+3, 2.5471908e+2, -514259.28, -599799.9, -31590.47, 0.046050232, -0.0013402656, -503857.63, -60105.695, 0.0, 10.000029, 9.998891 
1.13504715e+3, 2.647179e+2, -447831.22, -539260.3, -21478.693, 0.055736028, 0.0029210148, -443036.8, -97272.89, 0.0, 9.999908, 9.998692 
1.1350569e+3, 2.7471656e+2, -306428.88, -417403.16, -19999.68, 0.06392285, -0.00582164, -302934.56, -55157.367, 0.0, 10.000192, 9.998719 
1.1350669e+3, 2.8471515e+2, -207601.33, -354781.25, -22758.885, 0.08256339, -0.0006667562, -204162.39, -54371.59, 0.0, 10.000352, 9.9984 
1.1350772e+3, 2.947137e+2, -105323.695, -251336.63, -36365.906, 0.1175087, 0.010452781, -96767.77, -44963.08, 0.0, 10.000366, 9.998429 
1.135087e+3, 3.0471167e+2, -6601.816, -78213.43, -6718.822, 0.08703861, -0.07664312, -5976.889, -5976.889, 0.0, 10.000277, 9.999328 
1.13509655e+3, 3.1471235e+2, 356.14386, -21343.602, 21207.918, -0.016914472, 0.049835775, 13328.436, 13328.436, 0.0, 10.000091, 9.999808 
1.14491224e+3, 1.24715805e+2, -1660528.8, -1749194.1, -90716.88, -0.028893977, -0.066413194, -1603891.4, 113885.83, 0.0013373722, 10.0006485, 9.999446 
1.1449237e+3, 1.34715e+2, -1640389.4, -1695319.8, 57497.676, -0.0075453348, -0.08714021, -1604133.9, 15652.717, 0.000672049, 10.000118, 9.999413 
1.14493296e+3, 1.4471498e+2, -1540297.6, -1568054.8, -10854.81, -0.16627955, -0.041936062, -1536556.9, -14768.652, 0.0002032588, 10.000021, 9.999651 
1.14494346e+3, 1.547147e+2, -1401401.1, -1449141.4, -33622.414, -0.039385654, -0.036755882, -1384037.1, 39754.707, 0.000019742625, 10.0002985, 9.999659 
1.14495285e+3, 1.6471435e+2, -1290323.4, -1347935.3, -43612.105, 0.0029694303, -0.03496148, -1266862.8, 58932.8, 0.000000013934886, 10.0004, 9.999632 
1.1449616e+3, 1.747139e+2, -1201609.3, -1250372.4, -40591.965, -0.02571488, -0.04940103, -1178639.4, 49160.1, 0.0, 10.000319, 9.999668 
1.1449706e+3, 1.8471347e+2, -1117967.4, -1175241.4, -24798.25, -0.024572546, -0.050520763, -1108722.6, 21080.902, 0.0, 10.000289, 9.999525 
1.1449801e+3, 1.947131e+2, -1011636.2, -1069916.8, -25055.018, 0.00070653006, -0.04449291, -1002345.9, 29461.713, 0.0, 10.000331, 9.999555 
1.1449897e+3, 2.0471264e+2, -922344.75, -994561.0, -22195.74, 0.014626383, -0.036485814, -916068.4, 17744.293, 0.0, 10.00035, 9.999391 
1.1449993e+3, 2.147121e+2, -823530.8, -893175.7, -36392.242, 0.018318178, -0.034451745, -807984.7, 27833.986, 0.0, 10.000343, 9.999417 
1.145009e+3, 2.247115e+2, -747952.0, -832169.6, -33017.156, 0.025895191, -0.025122201, -736551.2, 1273.9974, 0.0, 10.000302, 9.999183 
1.1450188e+3, 2.3471078e+2, -659888.56, -735779.75, -25978.018, 0.03586904, -0.017584955, -651848.0, -12015.715, 0.0, 10.000221, 9.999211 
1.1450283e+3, 2.4470991e+2, -600002.9, -700942.6, -44010.434, 0.039483152, -0.003553815, -583509.1, -41667.875, 0.0, 10.000153, 9.99881 
1.1450375e+3, 2.547089e+2, -507995.7, -602928.75, -45821.246, 0.03757605, 0.00854788, -489487.53, -45635.344, 0.0, 10.000098, 9.9988365 
1.1450471e+3, 2.6470762e+2, -411236.66, -522893.9, -15796.862, 0.049009234, 0.00680405, -409044.8, -63179.824, 0.0, 10.000164, 9.998682 
1.1450572e+3, 2.747061e+2, -282339.94, -406064.8, -16785.932, 0.073338956, -0.019004002, -280103.03, -32223.275, 0.0, 10.0003605, 9.998714 
1.1450674e+3, 2.847047e+2, -211988.94, -375462.0, -22565.879, 0.09317454, -0.0069913734, -208931.13, -59037.332, 0.0, 10.000403, 9.998232 
1.1450774e+3, 2.9470336e+2, -134707.27, -285744.3, -20821.39, 0.11310687, 0.03593256, -131889.48, -79982.234, 0.0, 10.000252, 9.998248 
1.145087e+3, 3.0470124e+2, -25059.459, -72498.484, -6688.9614, 0.074507795, -0.059598282, -24134.348, -24134.348, 0.0, 10.000088, 9.999458 
1.1450964e+3, 3.147019e+2, -3553.252, 9877.9795, -30737.451, -0.025522688, 0.051663123, 34624.887, 34624.887, 0.0, 9.999925, 10.000102 
1.154912e+3, 1.24705315e+2, -1619813.4, -1662461.8, -111187.06, -0.11964839, -0.037595317, -1527924.1, 189959.06, 0.001489488, 10.00064, 10.000045 
1.1549247e+3, 1.3470505e+2, -1595652.1, -1602467.1, 39047.27, 0.069470346, -0.07077592, -1559864.0, 60020.016, 0.00075867696, 10.000118, 10.00005 
1.1549337e+3, 1.4470495e+2, -1549577.8, -1587352.9, -931.1122, -0.09109857, -0.056782804, -1549554.8, -27670.326, 0.0002361324, 10.00002, 9.999519 
1.1549436e+3, 1.5470412e+2, -1411906.6, -1470778.5, -22820.947, -0.05448189, -0.094149135, -1404096.5, 19797.719, 0.000024990082, 10.000297, 9.999512 
1.1549529e+3, 1.6470374e+2, -1285246.1, -1336703.9, -47596.965, -0.040494874, -0.09160646, -1256869.1, 69029.48, 0.000000023716384, 10.000397, 9.99971 
1.15496166e+3, 1.747039e+2, -1196090.3, -1238320.9, -43795.09, -0.03606198, -0.05087472, -1168586.0, 59310.78, 0.0, 10.000316, 9.999752 
1.1549707e+3, 1.8470374e+2, -1118697.6, -1176142.5, -24641.209, -0.03695763, -0.031364944, -1109576.1, 20322.465, 0.0, 10.000285, 9.999521 
1.15498e+3, 1.9470316e+2, -1012362.4, -1071451.5, -23658.646, -0.046775926, -0.045633696, -1004057.06, 27847.51, 0.0, 10.00033, 9.999546 
1.1549896e+3, 2.0470254e+2, -948306.75, -1048185.06, -24006.602, -0.023681562, -0.03358946, -942836.2, -8924.284, 0.0, 10.000348, 9.999024 
1.1549999e+3, 2.1470194e+2, -850192.5, -947735.44, -37171.21, 0.03866424, -0.0005680171, -837642.25, -1721.5566, 0.0, 10.000339, 9.999045 
1.15500964e+3, 2.2470133e+2, -736835.2, -806932.25, -37438.89, 0.059265055, 0.01916915, -720599.5, 17328.275, 0.0, 10.000294, 9.999361 
1.155019e+3, 2.3470068e+2, -647003.8, -708205.56, -28754.514, 0.03158652, 0.014204268, -635613.75, 4319.3115, 0.0, 10.000217, 9.999403 
1.1550282e+3, 2.4469976e+2, -599876.25, -699556.2, -46357.074, 0.013728532, 0.011867641, -581650.06, -39708.355, 0.0, 10.000147, 9.998823 
1.1550372e+3, 2.5469854e+2, -507256.84, -602484.06, -46888.08, 0.008308039, 0.0034400234, -488045.72, -44091.684, 0.0, 10.000101, 9.998838 
1.155047e+3, 2.6469707e+2, -414917.97, -530288.7, -8815.399, 0.028907038, -0.013037182, -414248.25, -68280.055, 0.0, 10.000163, 9.998631 
1.1550576e+3, 2.7469543e+2, -287475.4, -413756.56, -8433.073, 0.07803369, -0.04549539, -286914.72, -38930.63, 0.0, 10.000348, 9.998668 
1.15506776e+3, 2.8469428e+2, -208230.58, -364034.44, -27169.12, 0.09820019, -0.013114337, -203628.73, -53632.832, 0.0, 10.000386, 9.998319 
1.1550773e+3, 2.946935e+2, -127526.07, -272930.3, -23074.438, 0.08548104, 0.07500224, -123952.195, -71948.16, 0.0, 10.000259, 9.998334 
1.1550869e+3, 3.0469078e+2, -61492.664, -149552.77, -12413.468, 0.050777815, -0.058626965, -59776.246, -59776.246, 0.0, 10.000093, 9.998927 
1.1550967e+3, 3.1469e+2, -31021.244, -44486.895, -34088.105, 0.0032525863, -0.03334332, -3007.4182, -3007.4182, 0.0, 9.999913, 9.999735 
1.1649121e+3, 1.2469506e+2, -1668538.9, -1679058.9, -59699.65, -0.15225308, -0.04964073, -1613867.9, 104115.62, 0.0016512593, 10.000275, 10.000107 
1.164925e+3, 1.3469498e+2, -1534218.0, -1563155.5, 43238.29, 0.08324632, -0.07286965, -1503091.9, 116890.65, 0.0008513687, 10.000496, 10.000138 
1.164934e+3, 1.4469498e+2, -1477911.8, -1546007.4, -4408.68, -0.09870345, -0.058493756, -1477627.5, 44354.434, 0.00027198074, 10.000483, 9.99958 
1.1649439e+3, 1.5469421e+2, -1432836.1, -1474188.4, -13672.391, -0.051663548, -0.094300576, -1428724.5, -4734.1714, 0.00003101119, 10.000123, 9.999573 
1.1649531e+3, 1.6469383e+2, -1336605.4, -1366732.0, -28092.729, -0.033062413, -0.09129544, -1319792.3, 6202.4307, 0.00000004774233, 10.000068, 9.999663 
1.16496205e+3, 1.7469396e+2, -1189992.9, -1240838.1, -35530.43, -0.036248233, -0.051745247, -1171726.6, 56267.703, 0.0, 10.000382, 9.999702 
1.1649711e+3, 1.8469371e+2, -1096314.0, -1166423.3, -27967.174, -0.041851696, -0.034955963, -1086524.6, 43472.39, 0.0, 10.0004425, 9.999513 
1.1649802e+3, 1.946931e+2, -1029174.25, -1079925.3, -27919.262, -0.053735476, -0.052755475, -1016821.75, 15181.299, 0.0, 10.000217, 9.999541 
1.16498984e+3, 2.0469256e+2, -969983.5, -1053703.8, -5374.2705, -0.027593292, -0.037220884, -969639.94, -35630.254, 0.0, 10.00018, 9.999066 
1.1650003e+3, 2.1469207e+2, -843573.6, -939944.7, 12222.207, 0.042972963, 0.0060254484, -842047.75, -6030.868, 0.0, 10.000364, 9.999086 
1.1650099e+3, 2.246914e+2, -738252.2, -823856.56, 8292.932, 0.059191726, 0.024286583, -737456.25, 568.5106, 0.0, 10.000354, 9.999215 
1.16501905e+3, 2.3469049e+2, -671891.5, -736867.4, -11576.791, 0.013260643, 0.0065588853, -669890.44, -29857.27, 0.0, 10.000119, 9.999252 
1.1650282e+3, 2.446895e+2, -594963.0, -692219.25, -29541.842, -0.0038614061, 0.003154406, -586692.8, -44650.254, 0.0, 10.000159, 9.998868 
1.1650376e+3, 2.5468844e+2, -444190.0, -565914.25, -26655.842, 0.011381554, 0.0057086144, -438608.7, 5444.3477, 0.0, 10.00051, 9.998892 
1.1650475e+3, 2.6468703e+2, -371749.9, -520283.16, 2418.8826, 0.038764194, -0.0055138897, -371710.53, -25643.568, 0.0, 10.000509, 9.998532 
1.1650579e+3, 2.7468526e+2, -333212.84, -448579.16, -3164.3037, 0.0814671, -0.037953902, -333126.13, -85041.664, 0.0, 10.000089, 9.998554 
1.165068e+3, 2.8468418e+2, -251141.55, -359836.78, -11587.495, 0.094539575, -0.0020569074, -249919.98, -99824.6, 0.0, 9.999983, 9.998543 
1.16507754e+3, 2.946837e+2, -112241.88, -239064.81, 102.61788, 0.07301644, 0.09177895, -112241.805, -60141.906, 0.0, 10.000252, 9.998569 
1.165087e+3, 3.046807e+2, -62626.43, -189726.28, 11852.056, 0.05148584, -0.062343463, -61530.67, -61530.67, 0.0, 10.0002575, 9.998571 
1.16509706e+3, 3.1467927e+2, -45576.37, -72481.805, 3486.9854, 0.049306177, -0.068956986, -45131.797, -45131.797, 0.0, 9.999902, 9.999549 
1.17491275e+3, 1.24685146e+2, -1703675.3, -1750742.6, -45185.945, -0.12772168, -0.10054423, -1676261.8, 41815.42, 0.0018234614, 10.00027, 9.999618 
1.17492504e+3, 1.3468489e+2, -1567131.4, -1631504.1, 53352.957, 0.027432257, -0.093385704, -1537008.0, 83073.22, 0.0009506097, 10.000494, 9.999671 
1.1749335e+3, 1.446851e+2, -1460921.5, -1509738.5, -17593.025, -0.1971866, -0.045592222, -1455242.0, 66837.66, 0.00031097958, 10.000478, 9.999831 
1.1749441e+3, 1.5468507e+2, -1414253.8, -1434898.6, -27213.715, -0.034488067, -0.03627496, -1395470.6, 28608.922, 0.00003785508, 10.00012, 9.999844 
1.1749537e+3, 1.6468474e+2, -1349454.9, -1393551.5, -18179.07, 0.021596776, -0.03429865, -1342926.9, -16843.559, 0.00000010132158, 10.000067, 9.999481 
1.1749625e+3, 1.7468408e+2, -1203396.6, -1268959.4, -23592.25, -0.029065933, -0.05250408, -1195789.8, 32301.793, 0.0, 10.000381, 9.999511 
1.1749715e+3, 1.8468349e+2, -1097510.9, -1168164.9, -37324.97, -0.043880258, -0.06081521, -1081445.8, 48652.34, 0.0, 10.000439, 9.999502 
1.1749807e+3, 1.94683e+2, -1030074.5, -1080756.6, -36829.047, -0.022205114, -0.06516528, -1010710.44, 21391.988, 0.0, 10.000213, 9.999538 
1.1749904e+3, 2.046827e+2, -939105.5, -988614.3, -304.22433, 0.00052320136, -0.047220577, -939103.6, -4998.3584, 0.0, 10.000175, 9.999516 
1.1750004e+3, 2.1468256e+2, -811442.2, -872816.0, 19018.86, 0.027410751, -0.015526054, -806026.44, 30080.242, 0.0, 10.000362, 9.999549 
1.1750099e+3, 2.2468178e+2, -772502.1, -894158.06, -1361.7041, 0.020981604, -0.009587561, -772486.94, -34371.477, 0.0, 10.000349, 9.998735 
1.1750188e+3, 2.3468022e+2, -707492.6, -810805.25, -20486.86, -0.022083325, -0.041371286, -703578.4, -63446.066, 0.0, 10.000117, 9.998746 
1.1750282e+3, 2.4467915e+2, -590062.0, -680755.7, -17912.197, -0.016212637, -0.030897371, -586652.44, -44508.832, 0.0, 10.000154, 9.998949 
1.17503844e+3, 2.546786e+2, -437871.44, -551308.0, -12620.201, 0.04384908, 0.0148974, -436484.38, 7664.493, 0.0, 10.000504, 9.998996 
1.17504835e+3, 2.6467746e+2, -382235.6, -540673.8, -11836.54, 0.07560955, 0.029136073, -381356.2, -35195.313, 0.0, 10.000502, 9.998397 
1.17505796e+3, 2.7467564e+2, -342982.3, -469875.22, -16719.71, 0.07560456, 0.003081511, -340816.25, -92636.016, 0.0, 10.000091, 9.998408 
1.1750677e+3, 2.8467444e+2, -230387.03, -316769.53, -2232.6863, 0.07471132, 0.024759088, -230329.38, -80137.53, 0.0, 9.999983, 9.998839 
1.1750778e+3, 2.9467395e+2, -92057.45, -193646.84, 11096.542, 0.072335646, 0.08431634, -90859.516, -38664.305, 0.0, 10.0002365, 9.998888 
1.17508754e+3, 3.0467102e+2, -72234.66, -205632.14, 233.45992, 0.073140904, -0.073210366, -72234.25, -72234.25, 0.0, 10.000238, 9.998472 
1.1750974e+3, 3.1466976e+2, -38145.277, -58334.406, -4538.825, 0.09712937, -0.050580908, -37171.82, -37171.82, 0.0, 9.999907, 9.999644 
1.1849134e+3, 1.24675505e+2, -1627956.8, -1753907.6, -48555.83, -0.11936611, -0.10983455, -1611411.3, 106758.21, 0.0020081834, 10.000964, 9.999259 
1.1849254e+3, 1.3467492e+2, -1618742.9, -1692622.1, 48293.766, 0.031197632, -0.101662345, -1594881.0, 25297.625, 0.0010574218, 10.000298, 9.999346 
1.1849333e+3, 1.4467503e+2, -1501652.8, -1510334.8, -10789.891, -0.23019174, -0.05770458, -1494363.4, 27815.242, 0.00035351914, 10.000117, 10.0 
1.18494436e+3, 1.5467517e+2, -1352084.4, -1383639.6, -28769.244, -0.04270249, -0.04820835, -1335050.4, 89124.875, 0.00004562391, 10.000456, 10.000032 
1.184954e+3, 1.6467495e+2, -1301928.9, -1386363.8, -20482.174, 0.022477275, -0.03837278, -1297222.8, 28955.295, 0.00000019883093, 10.000461, 9.99934 
1.1849626e+3, 1.7467433e+2, -1256621.9, -1311118.0, -23714.742, -0.042899817, -0.038275637, -1247747.3, -19559.78, 0.0, 10.000089, 9.999363 
1.1849717e+3, 1.8467373e+2, -1151040.4, -1186898.1, -29121.326, -0.051581357, -0.043319255, -1134771.4, -4576.6865, 0.0, 10.000042, 9.999564 
1.1849812e+3, 1.9467315e+2, -1000424.25, -1059096.6, -24487.646, 0.00016285917, -0.063023835, -991547.1, 40651.875, 0.0, 10.000383, 9.999604 
1.18499085e+3, 2.0467278e+2, -898006.0, -964209.7, -2677.2595, 0.021549353, -0.05654761, -897897.9, 36303.875, 0.0, 10.000436, 9.999558 
1.1850005e+3, 2.1467265e+2, -837667.5, -879881.56, -16479.066, 0.009500757, -0.030025253, -831996.44, 4206.2207, 0.0, 10.00016, 9.999597 
1.18500985e+3, 2.2467183e+2, -804977.8, -909998.1, -32879.93, -0.001376267, -0.029350748, -795533.1, -57321.703, 0.0, 10.000128, 9.998733 
1.185019e+3, 2.346702e+2, -670458.5, -793396.5, -15142.709, -0.010837738, -0.06721677, -668620.75, -28391.9, 0.0, 10.000374, 9.998742 
1.1850287e+3, 2.4466918e+2, -561354.8, -669729.9, 4245.604, 0.0021260504, -0.05075607, -561188.75, -18948.803, 0.0, 10.000363, 9.998922 
1.1850387e+3, 2.5466883e+2, -505052.78, -587146.6, -2440.1719, 0.040502124, 0.01607148, -504980.3, -60736.496, 0.0, 10.000057, 9.998965 
1.18504845e+3, 2.646677e+2, -448776.0, -570140.25, -3506.2224, 0.061337695, 0.034043334, -448674.8, -102419.15, 0.0, 10.000032, 9.998421 
1.185058e+3, 2.746657e+2, -304538.34, -447776.75, 2355.605, 0.061089776, -0.010073029, -304499.63, -56223.33, 0.0, 10.000342, 9.998438 
1.1850679e+3, 2.8466445e+2, -191374.47, -302143.28, 9705.589, 0.0721193, 0.00547423, -190530.5, -40241.74, 0.0, 10.000272, 9.998798 
1.1850779e+3, 2.94664e+2, -167968.98, -236027.83, -3468.8135, 0.09894587, 0.07397369, -167792.64, -115500.19, 0.0, 9.99974, 9.9988365 
1.1850876e+3, 3.0466145e+2, -141676.75, -219776.92, -9398.633, 0.091265775, -0.056886707, -140561.64, -140561.64, 0.0, 9.99968, 9.998644 
1.1850972e+3, 3.1466064e+2, 29856.193, 19542.494, 1563.6573, 0.06768978, -0.005238752, 30088.047, 30088.047, 0.0, 10.000181, 10.000046 
1.1949142e+3, 1.2466627e+2, -1645217.5, -1789108.6, -63185.33, -0.13538367, -0.074235335, -1621410.5, 96848.8, 0.0022081332, 10.00096, 9.99902 
1.1949264e+3, 1.3466519e+2, -1632453.1, -1720991.1, 23726.168, 0.09184398, -0.09730109, -1626495.9, -6222.072, 0.0011730703, 10.000296, 9.999152 
1.1949338e+3, 1.446648e+2, -1495502.0, -1497830.6, 282.88242, -0.20078975, -0.09565757, -1495468.1, 26810.023, 0.00040013902, 10.000117, 10.000087 
1.1949443e+3, 1.5466459e+2, -1344433.8, -1368322.0, -15772.812, -0.07969601, -0.13128336, -1336593.0, 87684.08, 0.00005450229, 10.000458, 10.000137 
1.19495384e+3, 1.6466457e+2, -1308953.3, -1400828.5, -34852.39, -0.036047626, -0.10312029, -1297228.4, 29049.777, 0.00000035173326, 10.000459, 9.999242 
1.1949623e+3, 1.7466478e+2, -1264625.1, -1327075.0, -37939.49, -0.08092562, -0.008649914, -1246713.5, -18432.146, 0.0, 10.000085, 9.999255 
1.1949716e+3, 1.8466449e+2, -1142749.1, -1169190.5, -18338.145, -0.069297135, 0.01666229, -1133362.9, -3076.8506, 0.0, 10.000039, 9.999687 
1.1949817e+3, 1.946636e+2, -991297.7, -1039902.25, -11910.465, 0.009725446, -0.04739495, -988536.0, 43756.324, 0.0, 10.0003805, 9.999738 
1.1949913e+3, 2.0466289e+2, -924358.75, -1018015.56, -13836.809, 0.031195413, -0.06419943, -922357.25, 11941.196, 0.0, 10.000432, 9.999191 
1.1950005e+3, 2.1466239e+2, -864897.1, -935987.94, -27373.838, -0.012546528, -0.037577637, -855578.25, -19273.93, 0.0, 10.000157, 9.999213 
1.19501e+3, 2.246616e+2, -772393.1, -841317.8, -25641.633, -0.01037515, -0.035436474, -763900.3, -25588.066, 0.0, 10.000123, 9.999207 
1.19502e+3, 2.346605e+2, -635262.7, -720204.06, -5658.376, 0.044266332, -0.07154145, -634887.4, 5435.005, 0.0, 10.000372, 9.999246 
1.19502954e+3, 2.4465966e+2, -572101.2, -691319.9, -7169.968, 0.048096493, -0.056265578, -571671.5, -29340.574, 0.0, 10.00036, 9.998776 
1.1950382e+3, 2.5465912e+2, -517242.3, -611811.6, -13273.3955, -0.004316645, 0.008517597, -515414.63, -71077.1, 0.0, 10.000052, 9.998797 
1.1950477e+3, 2.646578e+2, -438654.88, -548253.4, 7088.3403, -0.008829902, 0.008060915, -438198.3, -91847.24, 0.0, 10.000028, 9.998573 
1.1950581e+3, 2.7465558e+2, -293622.28, -423529.3, 14815.549, 0.037555672, -0.07567597, -291954.03, -43581.555, 0.0, 10.000335, 9.998608 
1.1950682e+3, 2.846543e+2, -213919.72, -348507.1, -8729.981, 0.085611224, -0.058289807, -213355.81, -62969.914, 0.0, 10.000268, 9.998483 
1.1950781e+3, 2.9465398e+2, -192225.83, -286372.9, -20556.416, 0.1391205, 0.059791874, -187933.19, -135542.31, 0.0, 9.999739, 9.998492 
1.1950874e+3, 3.0465195e+2, -119452.88, -173076.22, 8421.941, 0.0939298, -0.014639407, -118161.266, -118161.266, 0.0, 9.999677, 9.998966 
1.1950963e+3, 3.1465188e+2, 67697.52, 102348.07, 22751.434, -0.038048096, 0.0746551, 113619.875, 113619.875, 0.0, 10.000164, 10.000623 
1.2049149e+3, 1.246564e+2, -1655505.4, -1779269.4, -78311.5, -0.1519393, -0.0792949, -1617577.3, 100779.12, 0.0024257244, 10.000829, 9.999149 
1.204927e+3, 1.3465557e+2, -1566579.9, -1669441.0, 21821.791, 0.115008794, -0.09494846, -1562141.9, 58225.313, 0.0012988481, 10.000662, 9.99933 
1.20493405e+3, 1.4465512e+2, -1463747.3, -1501002.9, 21199.012, -0.20163132, -0.100041345, -1454154.6, 68217.35, 0.00045139206, 10.000415, 9.999921 
1.2049445e+3, 1.5465468e+2, -1413908.3, -1421071.5, -18028.85, -0.09909021, -0.14323595, -1399108.8, 25265.736, 0.00006471426, 10.000065, 9.999964 
1.204954e+3, 1.6465457e+2, -1362817.1, -1408913.4, -38703.63, -0.04947677, -0.12126808, -1340818.8, -14442.447, 0.00000057087306, 10.000014, 9.999399 
1.20496266e+3, 1.746549e+2, -1215993.6, -1285212.0, -22399.938, -0.06905066, -0.031489678, -1209377.1, 19000.025, 0.0, 10.0003395, 9.999418 
1.2049718e+3, 1.8465476e+2, -1091295.6, -1152208.8, 5736.561, -0.059692536, 0.0027463792, -1090760.1, 39620.09, 0.0, 10.000425, 9.999618 
1.2049818e+3, 1.9465403e+2, -1018986.75, -1060947.1, -4263.687, -0.013512237, -0.03607291, -1018557.9, 13827.695, 0.0, 10.000226, 9.999666 
1.2049915e+3, 2.0465325e+2, -981138.1, -1057710.9, -12351.906, 0.0071186763, -0.05247948, -979194.94, -44802.05, 0.0, 10.000096, 9.99908 
1.2050006e+3, 2.1465234e+2, -888477.6, -960382.9, -6990.3833, -0.002305106, -0.05392056, -887804.4, -51401.883, 0.0, 10.000051, 9.999097 
1.2050103e+3, 2.2465152e+2, -780011.9, -831023.8, 3108.616, 0.009735411, -0.056327254, -779823.1, -41412.68, 0.0, 10.00001, 9.999332 
1.20502025e+3, 2.3465079e+2, -683440.06, -727806.44, -6089.091, 0.046284135, -0.06898434, -682619.56, -42203.066, 0.0, 9.999976, 9.999384 
1.2050296e+3, 2.4464999e+2, -620213.1, -719419.3, -23597.77, 0.04043412, -0.053672675, -614886.06, -72461.805, 0.0, 10.000052, 9.998732 
1.20503835e+3, 2.5464913e+2, -492006.97, -604834.06, -22637.146, -0.013446216, -0.017415127, -487634.6, -43200.53, 0.0, 10.00025, 9.99875 
1.2050478e+3, 2.646477e+2, -405609.63, -526633.06, 1976.3619, -0.015567206, -0.025770836, -405577.38, -59129.086, 0.0, 10.000233, 9.998622 
1.2050583e+3, 2.746457e+2, -343997.97, -442560.88, 416.70868, 0.04088234, -0.093504764, -343996.22, -95528.77, 0.0, 9.999966, 9.998655 
1.2050684e+3, 2.8464442e+2, -255013.48, -369663.25, -20207.88, 0.08328113, -0.07598126, -251555.97, -101075.305, 0.0, 9.999992, 9.99847 
1.2050779e+3, 2.946439e+2, -101752.016, -244509.2, -12251.491, 0.110861376, 0.023162995, -100708.22, -48220.305, 0.0, 10.000369, 9.998474 
1.20508716e+3, 3.0464193e+2, -43012.188, -162967.34, 12557.147, 0.06998761, -0.032561462, -41711.777, -41711.777, 0.0, 10.000318, 9.998726 
1.2050965e+3, 3.1464174e+2, 1651.4387, 64189.98, -15349.652, -0.0127741145, 0.06817955, 67754.305, 67754.305, 0.0, 9.999735, 10.000568 
1.2149155e+3, 1.2464601e+2, -1621861.5, -1708167.1, -74960.23, -0.17280373, -0.12209632, -1578520.4, 139939.27, 0.0026624324, 10.000822, 9.999641 
1.2149275e+3, 1.3464615e+2, -1526791.5, -1587999.1, 15787.596, 0.09561821, -0.09510475, -1522959.3, 97498.94, 0.0014356553, 10.000665, 9.999887 
1.2149341e+3, 1.4464611e+2, -1493321.9, -1563015.3, 7378.6226, -0.23945189, -0.07048975, -1492549.3, 29910.063, 0.0005075534, 10.000417, 9.999495 
1.2149444e+3, 1.5464547e+2, -1446989.9, -1488787.9, -31109.26, -0.10385913, -0.08334005, -1430411.5, -5944.866, 0.000076397075, 10.00006, 9.999502 
1.2149543e+3, 1.6464502e+2, -1335425.4, -1351151.8, -28879.723, -0.021799784, -0.09299822, -1313357.5, 13114.3, 0.0000008702971, 10.00001, 9.999799 
1.21496364e+3, 1.7464474e+2, -1185814.0, -1222748.5, -10218.924, -0.009593527, -0.10702769, -1183175.3, 45299.066, 0.0, 10.0003395, 9.999847 
1.21497266e+3, 1.8464458e+2, -1109553.1, -1189613.1, -2299.0388, -0.02639961, -0.083781675, -1109487.3, 20989.176, 0.0, 10.0004225, 9.999362 
1.21498145e+3, 1.9464453e+2, -1038770.4, -1102067.3, -12079.275, -0.0717725, -0.029192515, -1036543.56, -4065.4019, 0.0, 10.000225, 9.999385 
1.21499084e+3, 2.0464389e+2, -971220.06, -1037290.25, -15778.499, -0.05415557, -0.022461247, -967645.4, -33160.594, 0.0, 10.000096, 9.99922 
1.2150011e+3, 2.1464258e+2, -877860.0, -937837.6, -9003.089, 0.036268562, -0.0798531, -876537.75, -40041.1, 0.0, 10.000047, 9.999254 
1.2150107e+3, 2.2464164e+2, -797291.25, -865301.25, 339.91736, 0.055340346, -0.09161999, -797289.56, -58784.047, 0.0, 10.000003, 9.999101 
1.2150197e+3, 2.346411e+2, -700980.25, -763604.44, -7269.529, -0.0071576666, -0.06024377, -700147.5, -59636.688, 0.0, 9.999972, 9.99914 
1.21502906e+3, 2.4464022e+2, -617059.25, -712142.0, -17129.117, -0.023669057, -0.044421937, -614067.56, -71547.94, 0.0, 10.000048, 9.998784 
1.2150388e+3, 2.5463888e+2, -487321.8, -595343.4, -14284.508, 0.011026286, -0.060454406, -485464.78, -40931.84, 0.0, 10.00025, 9.998816 
1.2150486e+3, 2.646375e+2, -409186.5, -534245.4, -7348.3906, 0.039045423, -0.0664455, -408756.2, -62209.38, 0.0, 10.000233, 9.99857 
1.2150585e+3, 2.7463612e+2, -349305.9, -451197.0, -7826.133, 0.060656276, -0.06566251, -348708.28, -100147.49, 0.0, 9.999954, 9.998602 
1.215068e+3, 2.8463492e+2, -240521.63, -337603.56, -6463.8623, 0.05536809, -0.049556173, -240093.14, -89520.266, 0.0, 9.999982, 9.998695 
1.2150773e+3, 2.9463384e+2, -86004.586, -209977.78, 3193.4216, 0.01654735, -0.033163104, -85922.38, -33338.824, 0.0, 10.000361, 9.998715 
1.2150869e+3, 3.0463144e+2, -92589.72, -265438.8, -7204.2046, 0.020682573, -0.10611683, -92289.98, -92289.98, 0.0, 10.000315, 9.998024 
1.2150975e+3, 3.1463042e+2, -40090.117, -19047.664, -31359.734, 0.12119997, -0.016168185, 3508.7312, 3508.7312, 0.0, 9.999721, 10.000003 
1.224916e+3, 1.24636054e+2, -1707514.8, -1721652.3, -50484.527, -0.1740754, -0.129644, -1663606.5, 54951.836, 0.0029179724, 10.000114, 9.999888 
1.2249278e+3, 1.3463666e+2, -1570838.5, -1573660.5, 4840.4375, 0.08743683, -0.08721011, -1567207.6, 53343.605, 0.0015834377, 10.000211, 10.000204 
1.2249342e+3, 1.4463677e+2, -1531283.1, -1591686.0, -6228.28, -0.2581485, -0.058784105, -1530647.6, -8096.991, 0.00056846405, 10.000204, 9.999399 
1.2249448e+3, 1.5463617e+2, -1444243.3, -1499901.3, -20165.986, -0.081938215, -0.058280993, -1437704.9, -13145.767, 0.00008951281, 10.000134, 9.999389 
1.2249546e+3, 1.6463563e+2, -1309008.0, -1325825.0, 1943.5066, 0.00710239, -0.07427064, -1308786.4, 17778.28, 0.0000012652538, 10.000136, 9.99991 
1.22496374e+3, 1.746352e+2, -1197052.9, -1213858.1, -3475.7441, -0.016329093, -0.11507521, -1196362.4, 32204.074, 0.0, 10.000202, 9.999973 
1.22497275e+3, 1.8463492e+2, -1151016.1, -1230221.5, -14898.767, -0.0422899, -0.102846555, -1148306.4, -17736.941, 0.0, 10.000229, 9.999177 
1.2249817e+3, 1.9463472e+2, -1051650.1, -1130500.6, -20111.086, -0.06824519, -0.04279996, -1046817.0, -14242.968, 0.0, 10.000233, 9.9991865 
1.2249911e+3, 2.0463409e+2, -943213.0, -1004076.9, -17039.34, -0.042550184, -0.034173038, -938767.4, -4186.6597, 0.0, 10.000203, 9.999396 
1.2250012e+3, 2.1463294e+2, -852132.4, -903240.7, -8552.853, 0.0425588, -0.092275, -850739.06, -14149.707, 0.0, 10.000131, 9.999451 
1.22501075e+3, 2.2463207e+2, -790890.4, -876235.75, 9371.243, 0.051484864, -0.101987965, -789873.5, -51276.316, 0.0, 10.000108, 9.998974 
1.22501954e+3, 2.3463143e+2, -687228.2, -772779.8, 7695.0815, -0.027052077, -0.06575036, -686541.56, -45937.65, 0.0, 10.000134, 9.998999 
1.2250289e+3, 2.4463035e+2, -614849.6, -718811.75, -32.745934, -0.038527876, -0.05958916, -614849.6, -72234.62, 0.0, 10.000095, 9.998715 
1.2250391e+3, 2.5462872e+2, -529012.4, -622558.1, -8414.04, 0.025865136, -0.101041086, -528261.56, -83630.35, 0.0, 9.999995, 9.998751 
1.225049e+3, 2.646274e+2, -435425.47, -533180.9, -4997.4307, 0.059005264, -0.10116672, -435170.66, -88526.46, 0.0, 9.999993, 9.9986925 
1.2250584e+3, 2.7462655e+2, -321082.03, -423018.72, 5118.2188, 0.05681582, -0.060645334, -320825.72, -72172.5, 0.0, 10.000087, 9.99873 
1.2250679e+3, 2.846255e+2, -233794.13, -330602.47, 13791.839, 0.038224548, -0.038405888, -231867.61, -81203.82, 0.0, 10.000014, 9.998727 
1.22507714e+3, 2.9462415e+2, -172107.03, -248855.75, 7426.7915, -0.0005946912, -0.051902257, -171394.97, -118718.21, 0.0, 9.999758, 9.998738 
1.2250869e+3, 3.0462176e+2, -183606.92, -313700.44, 3686.4355, 0.015596242, -0.12221125, -183502.55, -183502.55, 0.0, 9.999709, 9.997984 
1.2250976e+3, 3.1462023e+2, -8892.303, 5565.3604, 25831.975, 0.14843868, -0.08020853, 25160.9, 25160.9, 0.0, 9.999893, 10.000089 
1.23491615e+3, 1.24626644e+2, -1710517.4, -1724886.3, -33250.555, -0.1661774, -0.10075676, -1683684.0, 34967.438, 0.0031899144, 10.000101, 9.999873 
1.2349281e+3, 1.3462716e+2, -1568118.4, -1566062.5, 8297.41, 0.08807574, -0.070694506, -1558729.6, 61915.813, 0.0017411282, 10.000201, 10.000261 
1.2349343e+3, 1.446272e+2, -1516277.8, -1558912.5, -10782.178, -0.26215732, -0.06422653, -1513706.0, 8939.363, 0.0006337289, 10.0001955, 9.999628 
1.2349453e+3, 1.546268e+2, -1427419.3, -1466032.4, -22470.043, -0.036774907, -0.068218805, -1417100.6, 7550.394, 0.00010392506, 10.000136, 9.99962 
1.23495504e+3, 1.646265e+2, -1321410.1, -1351303.5, 3458.4531, 0.032358978, -0.06486372, -1321015.1, 5638.8174, 0.0000017603737, 10.000134, 9.999737 
1.23496324e+3, 1.7462638e+2, -1210674.9, -1241837.6, -1063.1578, -0.0927765, -0.055681024, -1210638.6, 18014.266, 0.0, 10.000199, 9.9997835 
1.23497225e+3, 1.8462579e+2, -1160187.4, -1248611.6, -16496.83, -0.11280058, -0.055599578, -1157209.9, -26551.068, 0.0, 10.000225, 9.999053 
1.2349825e+3, 1.9462466e+2, -1060524.4, -1148391.5, -20418.922, -0.0057964004, -0.07690901, -1056011.1, -23338.416, 0.0, 10.00023, 9.999066 
1.2349922e+3, 2.046239e+2, -928926.0, -973595.4, -21026.549, 0.039826322, -0.086268745, -920585.75, 14094.516, 0.0, 10.000199, 9.999608 
1.2350011e+3, 2.1462353e+2, -836328.25, -870519.75, -11606.243, 0.014028271, -0.091658294, -832760.75, 3919.5173, 0.0, 10.00013, 9.999676 
1.23501025e+3, 2.2462286e+2, -792617.5, -879743.06, 9055.571, -0.005334441, -0.0883633, -791686.25, -53001.207, 0.0, 10.000107, 9.998951 
1.2350198e+3, 2.3462187e+2, -689963.6, -778278.75, 9021.54, -0.016607858, -0.08553477, -689051.5, -48356.08, 0.0, 10.000133, 9.998962 
1.2350293e+3, 2.4462047e+2, -629429.7, -748585.06, -4501.718, -0.007177744, -0.0986841, -629259.9, -86550.06, 0.0, 10.0000925, 9.998512 
1.2350391e+3, 2.5461861e+2, -544331.3, -652851.75, -11213.967, 0.025939135, -0.14001162, -543184.6, -98456.03, 0.0, 9.999988, 9.998547 
1.2350487e+3, 2.6461747e+2, -417256.06, -493741.28, -1405.0101, 0.039490126, -0.13113429, -417230.25, -70489.81, 0.0, 9.999985, 9.998968 
1.2350582e+3, 2.7461705e+2, -300412.78, -380419.22, 10004.741, 0.028685832, -0.07592438, -299180.66, -50436.23, 0.0, 10.000087, 9.999023 
1.2350678e+3, 2.8461617e+2, -243573.27, -351286.34, 4536.6074, 0.029613322, -0.040326368, -243382.53, -92629.336, 0.0, 10.000015, 9.998585 
1.2350774e+3, 2.9461485e+2, -185370.69, -273455.9, 1.7121658, 0.046778433, -0.036501843, -185370.69, -132603.19, 0.0, 9.999745, 9.998576 
1.2350869e+3, 3.0461287e+2, -147239.2, -235592.4, 10659.191, 0.04222477, -0.08415386, -145971.44, -145971.44, 0.0, 9.999697, 9.998527 
1.2350967e+3, 3.1461123e+2, 35114.57, 98257.55, 36982.645, 0.068096526, -0.110612296, 115311.92, 115311.92, 0.0, 9.9998865, 10.000729 
1.2449165e+3, 1.24617405e+2, -1619398.1, -1709960.6, 14698.83, -0.1848565, -0.1029688, -1617072.1, 101668.77, 0.003475539, 10.000856, 9.99961 
1.2449285e+3, 1.3461779e+2, -1587577.3, -1599749.6, 16207.929, 0.10493073, -0.06456239, -1576350.5, 44387.227, 0.0019075654, 10.000174, 10.000043 
1.2449346e+3, 1.4461766e+2, -1542752.3, -1562359.6, -241.29959, -0.2498829, -0.06774436, -1542749.3, -20009.725, 0.0007030745, 9.999973, 9.999711 
1.2449455e+3, 1.5461738e+2, -1384816.6, -1433805.6, -23091.928, -0.03998013, -0.06896457, -1375647.8, 49095.05, 0.00011956255, 10.000381, 9.9997225 
1.2449553e+3, 1.6461705e+2, -1283166.1, -1356430.8, -11452.368, 0.02785882, -0.06382965, -1281417.6, 45328.11, 0.0000023468863, 10.000501, 9.999524 
1.2449635e+3, 1.7461671e+2, -1212250.4, -1267901.4, -20345.287, -0.08949757, -0.055165403, -1205605.8, 23142.004, 0.0, 10.000299, 9.999556 
1.2449725e+3, 1.8461604e+2, -1164106.4, -1239139.3, -27132.516, -0.1033559, -0.056532685, -1155323.1, -24568.563, 0.0, 10.00015, 9.999153 
1.2449828e+3, 1.94615e+2, -1080468.1, -1144861.5, -14363.92, 0.00969555, -0.07934309, -1077409.3, -44642.55, 0.0, 10.000038, 9.999182 
1.2449923e+3, 2.0461422e+2, -958537.1, -995368.06, -12045.267, 0.048479676, -0.091138944, -954947.6, -20173.76, 0.0, 10.00003, 9.999539 
1.2450011e+3, 2.1461374e+2, -838751.44, -880207.56, -26938.273, -0.001562701, -0.101180464, -825489.44, 11285.781, 0.0, 10.00015, 9.999599 
1.2450103e+3, 2.2461301e+2, -789345.75, -881395.94, -20876.416, -0.017483655, -0.101449974, -784832.4, -46051.355, 0.0, 10.000143, 9.998922 
1.24502e+3, 2.3461197e+2, -710852.7, -790528.75, -21541.361, 0.006765421, -0.10063655, -705401.6, -64609.63, 0.0, 10.0, 9.998941 
1.2450296e+3, 2.4461065e+2, -643803.1, -743425.8, -21675.393, 0.01792869, -0.107694626, -639291.44, -96486.12, 0.0, 9.999944, 9.998619 
1.24503896e+3, 2.5460908e+2, -539075.44, -638024.0, -6931.291, 0.013788882, -0.13343623, -538592.25, -93771.195, 0.0, 9.999971, 9.998655 
1.24504834e+3, 2.646079e+2, -429477.9, -500851.66, 6067.9497, 0.012338056, -0.12786837, -428965.7, -82133.336, 0.0, 9.999907, 9.998956 
1.24505796e+3, 2.7460724e+2, -349638.16, -405656.34, -6388.437, 0.01267358, -0.09870712, -348918.84, -100080.02, 0.0, 9.999756, 9.999008 
1.2450677e+3, 2.8460628e+2, -274454.94, -360315.9, -16888.822, 0.030916234, -0.075587675, -271252.34, -120403.66, 0.0, 9.999778, 9.998636 
1.24507755e+3, 2.9460505e+2, -149942.78, -249995.1, -8871.578, 0.07221835, -0.066215254, -149162.23, -96299.87, 0.0, 9.999962, 9.9986315 
1.2450868e+3, 3.0460364e+2, -105667.19, -205607.42, -2759.3325, 0.054806564, -0.0668283, -105591.06, -105591.06, 0.0, 9.99994, 9.998613 
1.2450962e+3, 3.1460196e+2, 14822.198, 100023.945, -10681.506, 0.033401508, -0.1048085, 101342.64, 101342.64, 0.0, 9.999698, 10.000831 
1.254917e+3, 1.2460849e+2, -1655820.4, -1787362.1, 2939.3418, -0.23743102, -0.13416702, -1655754.6, 63070.93, 0.0037739007, 10.00086, 9.999078 
1.2549289e+3, 1.3460863e+2, -1622792.1, -1674121.8, -10320.199, 0.13376951, -0.070094235, -1620794.9, 32.486176, 0.0020822603, 10.000176, 9.999532 
1.2549348e+3, 1.446082e+2, -1548058.5, -1572362.5, 11837.725, -0.22639222, -0.072145104, -1543245.8, -20413.115, 0.0007764397, 9.999969, 9.999645 
1.2549454e+3, 1.54608e+2, -1387665.8, -1439495.1, -7390.9614, -0.09524237, -0.061746597, -1386632.4, 38201.367, 0.00013646827, 10.000379, 9.999685 
1.2549554e+3, 1.6460736e+2, -1302174.4, -1394845.8, -20224.89, -0.011588834, -0.07240511, -1297952.8, 28886.707, 0.0000030208696, 10.000495, 9.999264 
1.2549646e+3, 1.7460626e+2, -1230791.0, -1307049.9, -28227.375, -0.008971244, -0.112927824, -1221479.5, 7370.922, 0.0, 10.0003, 9.999287 
1.2549736e+3, 1.8460572e+2, -1141223.0, -1191563.0, -32552.22, -0.016422039, -0.10480914, -1125244.8, 5611.278, 0.0, 10.000148, 9.999481 
1.2549825e+3, 1.9460578e+2, -1055957.8, -1093927.9, -18863.016, -0.024820782, -0.05054964, -1048180.0, -15324.349, 0.0, 10.000036, 9.999533 
1.2549917e+3, 2.0460515e+2, -983986.75, -1047547.1, -9442.27, -0.02120056, -0.049924046, -982613.75, -47752.453, 0.0, 10.000026, 9.999184 
1.2550011e+3, 2.1460366e+2, -866470.3, -936713.06, -22657.139, -0.0067424984, -0.120811865, -859796.25, -22922.475, 0.0, 10.000145, 9.999214 
1.2550107e+3, 2.246025e+2, -792268.0, -886952.94, -27388.898, 0.012768995, -0.14078633, -784916.25, -46031.563, 0.0, 10.000139, 9.998886 
1.2550204e+3, 2.3460175e+2, -712405.56, -793273.44, -26738.25, 0.040110998, -0.11113599, -704364.4, -63470.953, 0.0, 9.999996, 9.998925 
1.2550296e+3, 2.4460095e+2, -615572.6, -683991.44, -21221.084, 0.033254016, -0.08704022, -609525.1, -66623.875, 0.0, 9.999939, 9.99903 
1.2550385e+3, 2.546001e+2, -509357.47, -576615.2, -4930.152, -0.013516007, -0.08121674, -508998.0, -64089.723, 0.0, 9.999971, 9.999078 
1.2550479e+3, 2.6459885e+2, -450481.8, -544682.56, 481.17633, -0.025554776, -0.09104499, -450479.38, -103559.68, 0.0, 9.999907, 9.998655 
1.2550576e+3, 2.7459717e+2, -373498.38, -453357.63, -10489.457, 0.0027793879, -0.12986845, -372143.6, -123207.375, 0.0, 9.999747, 9.998686 
1.2550674e+3, 2.8459576e+2, -260382.86, -328626.28, -9477.533, 0.036087453, -0.14505194, -259091.1, -108140.83, 0.0, 9.999766, 9.998859 
1.2550776e+3, 2.9459476e+2, -132913.34, -214486.06, -97.36289, 0.072623804, -0.13779017, -132913.23, -79952.09, 0.0, 9.99996, 9.998877 
1.2550867e+3, 3.04594e+2, -128611.086, -253084.48, -11550.325, 0.05001034, -0.06742051, -127548.37, -127548.37, 0.0, 9.999939, 9.998289 
1.2550959e+3, 3.1459248e+2, -15818.712, 39432.113, -14353.078, 0.03167862, -0.05956609, 42938.266, 42938.266, 0.0, 9.999684, 10.000421 
1.2649176e+3, 1.24599285e+2, -1772999.1, -1853008.3, -27591.574, -0.21419792, -0.12861869, -1764406.8, -45491.105, 0.004085261, 10.000092, 9.998999 
1.2649293e+3, 1.3459933e+2, -1547957.5, -1644522.0, -25562.021, 0.13605042, -0.06736999, -1541608.3, 79309.97, 0.0022650692, 10.000721, 9.999471 
1.264935e+3, 1.4459862e+2, -1432691.3, -1530891.8, 15285.246, -0.24047767, -0.089462124, -1430367.0, 92559.07, 0.00085386867, 10.000824, 9.999516 
1.2649457e+3, 1.545983e+2, -1395780.6, -1458811.8, -11906.724, -0.10989713, -0.07699238, -1393606.4, 31321.508, 0.00015477135, 10.000391, 9.999545 
1.2649557e+3, 1.6459756e+2, -1345754.9, -1421599.8, -20657.918, -0.016518362, -0.08839382, -1340493.4, -13558.49, 0.0000038088367, 10.000221, 9.99921 
1.2649651e+3, 1.7459635e+2, -1227478.5, -1310519.6, -13572.76, 0.0066127502, -0.13274363, -1225316.4, 3630.8552, 0.0, 10.000347, 9.99924 
1.2649742e+3, 1.8459585e+2, -1097967.3, -1163075.4, -18460.48, 0.0036245256, -0.12147621, -1093097.3, 37855.156, 0.0, 10.000414, 9.999548 
1.2649828e+3, 1.945961e+2, -994602.0, -1056080.6, -27439.387, -0.022133522, -0.057729747, -984136.6, 48812.793, 0.0, 10.000423, 9.999604 
1.2649918e+3, 2.0459549e+2, -944029.06, -1045521.56, -18866.06, -0.023878781, -0.050883967, -940635.56, -5680.726, 0.0, 10.000376, 9.999028 
1.2650013e+3, 2.1459387e+2, -863315.25, -953227.3, -16526.77, -0.0006519621, -0.119054504, -860373.7, -23403.781, 0.0, 10.000246, 9.999051 
1.2650108e+3, 2.2459266e+2, -796286.94, -887053.9, -14659.706, 0.018510358, -0.13718992, -793978.0, -54996.117, 0.0, 10.000105, 9.998901 
1.2650202e+3, 2.3459192e+2, -717243.56, -793148.7, -13132.527, 0.034221772, -0.10689388, -715035.7, -74045.65, 0.0, 9.999953, 9.998946 
1.2650296e+3, 2.4459115e+2, -619832.94, -679737.7, -11706.821, 0.028203933, -0.0846896, -617626.44, -74629.06, 0.0, 9.999882, 9.999086 
1.2650387e+3, 2.545903e+2, -512759.6, -571283.75, -23859.926, -0.0043501244, -0.08367052, -504265.0, -59261.273, 0.0, 9.999919, 9.99914 
1.265048e+3, 2.64589e+2, -456215.9, -551570.94, -29251.992, -0.01382723, -0.09780798, -447957.53, -100942.37, 0.0, 9.999886, 9.998618 
1.2650573e+3, 2.7458724e+2, -377361.0, -459754.44, -21159.96, 0.004961263, -0.14094558, -372244.53, -123211.984, 0.0, 9.99974, 9.998645 
1.2650672e+3, 2.8458577e+2, -275330.03, -329293.7, -5103.041, 0.027353024, -0.16512007, -274851.7, -123804.31, 0.0, 9.999636, 9.998918 
1.265077e+3, 2.9458472e+2, -180825.64, -230612.14, -10415.801, 0.051622577, -0.16925701, -178734.4, -125675.78, 0.0, 9.999601, 9.998939 
1.2650862e+3, 3.0458438e+2, -167353.86, -272590.38, -20937.486, 0.032517944, -0.061743483, -163341.22, -163341.22, 0.0, 9.999677, 9.998281 
1.2650958e+3, 3.145827e+2, -1504.0508, 29204.635, 53.732285, 0.041172687, -0.065742835, 29204.729, 29204.729, 0.0, 9.999856, 10.000268 
1.2749186e+3, 1.24589905e+2, -1748065.5, -1797447.0, 8090.1074, -0.11992077, -0.08289298, -1746773.9, -27763.723, 0.0044096503, 10.000074, 9.999389 
1.2749298e+3, 1.3458999e+2, -1519449.0, -1585627.0, -2519.6563, 0.10885996, -0.056351922, -1519353.3, 101656.33, 0.0024558255, 10.000724, 9.999874 
1.2749353e+3, 1.4458898e+2, -1445449.9, -1559160.4, -1866.2269, -0.2981649, -0.11985705, -1445419.3, 77599.805, 0.00093550276, 10.00083, 9.99932 
1.2749463e+3, 1.5458834e+2, -1412259.1, -1494030.4, -28229.807, -0.08842039, -0.11513205, -1403460.1, 21564.54, 0.00017466526, 10.000393, 9.999304 
1.2749562e+3, 1.6458768e+2, -1336154.0, -1400623.4, -17925.178, 0.0094509255, -0.11245075, -1331505.3, -4474.102, 0.0000047674703, 10.0002165, 9.999358 
1.2749648e+3, 1.7458709e+2, -1215812.1, -1285848.8, -9059.049, -0.04618541, -0.114631064, -1214659.4, 14378.28, 0.0, 10.000344, 9.999411 
1.274974e+3, 1.8458654e+2, -1112573.4, -1192540.3, -19536.309, -0.049014166, -0.1072566, -1108055.9, 22987.236, 0.0, 10.000409, 9.999348 
1.2749836e+3, 1.94586e+2, -1009645.0, -1087473.8, -27342.584, 0.015604402, -0.10028344, -1000999.44, 32048.031, 0.0, 10.000423, 9.99939 
1.274993e+3, 2.045853e+2, -940784.4, -1038936.75, -24764.535, 0.038882736, -0.09345732, -934890.06, 164.035, 0.0, 10.000375, 9.999074 
1.2750018e+3, 2.145844e+2, -859847.56, -945408.8, -21717.506, 0.013498425, -0.09595935, -854650.75, -17587.71, 0.0, 10.000241, 9.999107 
1.2750107e+3, 2.2458346e+2, -792648.94, -878203.9, -21704.361, -0.0048653483, -0.09072159, -787457.75, -48385.527, 0.0, 10.000099, 9.998965 
1.2750198e+3, 2.3458251e+2, -713101.25, -784415.06, -18612.19, -0.013131686, -0.08758941, -708535.94, -67454.336, 0.0, 9.999951, 9.999007 
1.2750292e+3, 2.4458128e+2, -640877.3, -723529.94, -11167.632, -0.00003148339, -0.100044474, -639395.0, -96301.8, 0.0, 9.999881, 9.998786 
1.2750389e+3, 2.5457972e+2, -534932.3, -616439.4, -21325.773, 0.037161052, -0.14021309, -529689.8, -84582.695, 0.0, 9.999913, 9.998833 
1.2750484e+3, 2.6457846e+2, -441811.7, -520378.63, -33832.035, 0.043727264, -0.14813292, -429251.2, -82132.59, 0.0, 9.999879, 9.9988365 
1.2750572e+3, 2.7457753e+2, -360335.8, -424835.16, -24802.975, 0.014232964, -0.13152376, -351900.97, -102773.35, 0.0, 9.999741, 9.998885 
1.2750666e+3, 2.8457633e+2, -282203.1, -344563.63, -6569.4097, 0.00023643556, -0.13572943, -281518.56, -130378.695, 0.0, 9.999639, 9.998813 
1.2750761e+3, 2.9457492e+2, -190448.22, -248145.14, -9944.516, 0.0040406785, -0.16239703, -188782.31, -135627.52, 0.0, 9.999589, 9.998824 
1.2750857e+3, 3.0457467e+2, -149599.58, -232632.13, -12947.708, -0.0017365635, -0.05177848, -147627.4, -147627.4, 0.0, 9.999663, 9.998562 
1.2750956e+3, 3.1457275e+2, 2404.042, 40060.914, 13765.484, 0.05161934, -0.10877477, 44556.254, 44556.254, 0.0, 9.999845, 10.000347 
1.2849188e+3, 1.2457994e+2, -1662011.0, -1731117.8, 15605.67, -0.1207532, -0.07077978, -1658650.3, 60459.566, 0.0047468157, 10.000563, 9.999607 
1.2849303e+3, 1.3458031e+2, -1582527.0, -1592603.6, -26544.234, 0.10970809, -0.035458844, -1560547.1, 60557.8, 0.0026545508, 10.00019, 10.000083 
1.2849359e+3, 1.445793e+2, -1548309.0, -1596044.9, -29958.898, -0.28443193, -0.117730275, -1533872.6, -10758.816, 0.0010215283, 10.00007, 9.999433 
1.284947e+3, 1.5457867e+2, -1411183.5, -1481621.6, -31410.705, -0.063877, -0.12153127, -1399211.4, 25907.79, 0.00019628371, 10.00035, 9.999409 
1.2849566e+3, 1.6457814e+2, -1294324.6, -1377764.8, -5602.8945, 0.026749544, -0.11273042, -1293950.0, 33174.336, 0.0000059623408, 10.000493, 9.99938 
1.2849651e+3, 1.745778e+2, -1197756.1, -1274948.4, -9234.171, -0.060416702, -0.090919234, -1196666.8, 32461.77, 0.0, 10.000461, 9.999429 
1.284974e+3, 1.8457718e+2, -1117323.3, -1206576.6, -23331.68, -0.07248601, -0.08631838, -1111592.1, 19542.496, 0.0, 10.000429, 9.999241 
1.2849839e+3, 1.9457619e+2, -1021484.7, -1105647.4, -24767.65, 0.009801529, -0.113762945, -1014737.0, 18406.15, 0.0, 10.000397, 9.999277 
1.2849933e+3, 2.0457532e+2, -955670.5, -1045467.2, -25233.49, 0.045354817, -0.117426984, -949065.56, -13914.2, 0.0, 10.000271, 9.999079 
1.285002e+3, 2.145746e+2, -888293.56, -957283.7, -27251.082, 0.023857785, -0.102589555, -878828.06, -41669.094, 0.0, 10.00004, 9.999123 
1.2850109e+3, 2.2457382e+2, -798055.2, -876717.9, -19996.408, 0.00059209194, -0.085549876, -793263.9, -54097.09, 0.0, 10.000046, 9.999001 
1.2850198e+3, 2.3457296e+2, -656053.8, -752228.2, -19965.787, -0.023559708, -0.07692196, -652073.6, -10898.89, 0.0, 10.000325, 9.999047 
1.2850292e+3, 2.4457161e+2, -589764.94, -710933.25, -15437.237, -0.011142069, -0.09760519, -587829.06, -44641.758, 0.0, 10.000285, 9.998678 
1.2850389e+3, 2.545697e+2, -550585.94, -636933.4, -13083.999, 0.043532982, -0.16168158, -548646.9, -103441.8, 0.0, 9.999862, 9.998716 
1.2850483e+3, 2.6456845e+2, -466560.97, -523408.16, -15779.574, 0.055992667, -0.165796, -462474.63, -115257.98, 0.0, 9.99967, 9.998916 
1.285057e+3, 2.7456796e+2, -350900.34, -410317.47, -19306.852, 0.018470507, -0.11444256, -345177.94, -95956.55, 0.0, 9.999763, 9.998974 
1.2850662e+3, 2.8456682e+2, -259668.61, -337355.25, -4230.452, -0.0066370848, -0.11236269, -259438.9, -108206.26, 0.0, 9.999809, 9.998779 
1.2850757e+3, 2.9456514e+2, -165849.75, -240709.97, -3836.0142, -0.016165752, -0.16463149, -165653.7, -112403.32, 0.0, 9.999776, 9.998786 
1.2850851e+3, 3.0456507e+2, -128017.36, -188135.8, 1144.1888, -0.023521032, -0.052925415, -127995.59, -127995.59, 0.0, 9.999666, 9.998864 
1.2850952e+3, 3.1456318e+2, -43048.223, 22281.373, 28889.814, 0.041771855, -0.13932876, 33224.03, 33224.03, 0.0, 9.999515, 10.000384 
1.2949184e+3, 1.2456952e+2, -1659730.9, -1728337.5, 12139.68, -0.23061481, -0.09130464, -1657646.3, 61567.336, 0.0050962004, 10.000568, 9.999624 
1.2949307e+3, 1.345704e+2, -1584085.5, -1593169.4, -42198.895, 0.13501252, -0.0050159595, -1546184.8, 75018.836, 0.0028611089, 10.000178, 10.000084 
1.2949368e+3, 1.4456962e+2, -1520914.6, -1536224.9, -22860.86, -0.20260492, -0.08294998, -1504461.3, 18748.568, 0.00111182, 10.000055, 9.99985 
1.2949476e+3, 1.5456937e+2, -1378891.6, -1414866.9, -20502.96, -0.03906971, -0.095115066, -1369604.3, 55606.1, 0.000219555, 10.000351, 9.999867 
1.2949573e+3, 1.64569e+2, -1301292.6, -1392837.0, -7545.904, 0.030494832, -0.08914136, -1300674.9, 26538.893, 0.0000074533, 10.000494, 9.999277 
1.2949659e+3, 1.745686e+2, -1207314.5, -1295175.0, -10734.642, -0.038924605, -0.06181495, -1206022.0, 23197.43, 0.0, 10.000462, 9.99929 
1.2949745e+3, 1.8456785e+2, -1119241.1, -1210301.4, -25936.62, -0.06939608, -0.058753043, -1112371.8, 18854.871, 0.0, 10.000427, 9.999217 
1.2949838e+3, 1.9456674e+2, -1023089.06, -1108323.4, -26336.395, -0.042748604, -0.09748122, -1015608.06, 17627.76, 0.0, 10.000393, 9.999261 
1.294993e+3, 2.0456563e+2, -958846.4, -1051102.4, -35160.957, -0.009397771, -0.122096926, -946973.7, -11727.606, 0.0, 10.000266, 9.999043 
1.2950021e+3, 2.1456456e+2, -890809.2, -962635.4, -36270.734, 0.028130205, -0.13949294, -875679.94, -38422.707, 0.0, 10.000039, 9.999086 
1.2950112e+3, 2.2456376e+2, -797734.6, -875815.1, -11415.805, 0.0326178, -0.122161694, -796099.8, -56834.63, 0.0, 10.000044, 9.999008 
1.2950204e+3, 2.345633e+2, -655853.1, -751144.0, -9008.559, -0.00008495191, -0.07507269, -655008.94, -13739.845, 0.0, 10.00032, 9.999058 
1.2950294e+3, 2.4456218e+2, -585252.8, -700433.0, -30694.174, -0.008835484, -0.07768682, -577583.75, -34304.215, 0.0, 10.000278, 9.998754 
1.2950385e+3, 2.5456026e+2, -545040.6, -625757.1, -28109.809, 0.011606144, -0.14804026, -536216.06, -90918.51, 0.0, 9.999862, 9.998794 
1.2950476e+3, 2.6455906e+2, -470414.56, -532475.0, -13081.186, 0.020000663, -0.15112762, -467769.97, -120460.8, 0.0, 9.999673, 9.998853 
1.2950568e+3, 2.745586e+2, -356592.7, -419990.06, -14134.833, 0.013177321, -0.08947552, -353584.0, -104270.41, 0.0, 9.999752, 9.998914 
1.295066e+3, 2.8455737e+2, -259340.7, -334263.75, -4136.4326, 0.0023801767, -0.094944224, -259113.03, -107787.39, 0.0, 9.999798, 9.998807 
1.2950754e+3, 2.9455546e+2, -163660.44, -235246.19, -2641.2698, -0.015160104, -0.17330812, -163563.13, -110218.02, 0.0, 9.999772, 9.998825 
1.2950847e+3, 3.0455554e+2, -105128.734, -142325.53, -4740.736, -0.038028885, -0.063103735, -104534.03, -104534.03, 0.0, 9.999671, 9.999178 
1.2950943e+3, 3.1455395e+2, -46333.973, 20619.883, 28699.037, 0.002887365, -0.14742112, 31237.62, 31237.62, 0.0, 9.999492, 10.000384 
1.304919e+3, 1.24560066e+2, -1656797.6, -1740025.0, 77253.945, -0.22872563, -0.087511316, -1610662.4, 108642.68, 0.0054552136, 10.000647, 9.999508 
1.3049312e+3, 1.345605e+2, -1516813.3, -1579348.3, -4882.4375, 0.13324349, -0.029103655, -1516434.4, 104865.195, 0.003073975, 10.000723, 9.999916 
1.3049372e+3, 1.4455953e+2, -1429244.0, -1492873.1, 4901.27, -0.19751938, -0.11618705, -1428868.6, 94439.26, 0.0012055306, 10.00069, 9.999842 
1.3049477e+3, 1.5455969e+2, -1344615.4, -1398591.5, -27413.31, -0.051482867, -0.08662363, -1333134.6, 92170.516, 0.000244213, 10.000588, 9.999865 
1.3049576e+3, 1.6455945e+2, -1307591.3, -1396550.4, -35760.07, 0.022787511, -0.068818994, -1294998.8, 32308.947, 0.000009295233, 10.000457, 9.999269 
1.3049664e+3, 1.7455877e+2, -1229839.3, -1307007.5, -30812.285, -0.015501111, -0.06479069, -1219046.0, 10269.552, 0.0, 10.000312, 9.999281 
1.3049752e+3, 1.8455803e+2, -1139397.5, -1204893.4, -31953.3, -0.040625863, -0.06961431, -1126391.4, 4931.3843, 0.0, 10.000224, 9.9993515 
1.3049841e+3, 1.9455718e+2, -1041656.4, -1100792.6, -21693.31, -0.042304564, -0.09769237, -1034551.94, -1222.7665, 0.0, 10.000196, 9.999407 
1.304993e+3, 2.0455615e+2, -969623.6, -1070376.3, -26467.348, -0.028233115, -0.1150354, -963093.94, -27755.234, 0.0, 10.000255, 9.998916 
1.3050021e+3, 2.14555e+2, -846936.7, -956980.0, -36835.582, 0.000712671, -0.1279342, -835744.75, 1606.653, 0.0, 10.000409, 9.998947 
1.3050112e+3, 2.2455406e+2, -758310.94, -852627.75, -15822.853, 0.020674173, -0.11823037, -755727.25, -16366.654, 0.0, 10.000296, 9.999046 
1.3050207e+3, 2.3455343e+2, -718144.06, -775627.7, -12454.565, 0.031269092, -0.09369886, -715561.6, -74196.06, 0.0, 9.999869, 9.999106 
1.3050298e+3, 2.4455237e+2, -653289.25, -734241.6, -32639.89, 0.02384483, -0.09102683, -641768.5, -98393.14, 0.0, 9.999816, 9.998745 
1.3050383e+3, 2.5455084e+2, -496519.47, -603755.7, -37937.99, -0.0045231315, -0.12302275, -484455.06, -39064.484, 0.0, 10.000201, 9.998782 
1.3050473e+3, 2.6454967e+2, -396657.8, -495303.2, -30801.92, -0.011486583, -0.11979165, -387829.97, -40428.133, 0.0, 10.000174, 9.998866 
1.3050564e+3, 2.745489e+2, -369751.4, -425002.56, -28451.559, 0.007016024, -0.09083859, -357720.16, -108311.36, 0.0, 9.999656, 9.998924 
1.3050656e+3, 2.845476e+2, -301894.78, -341622.13, -161.75981, 0.00806454, -0.11119908, -301894.13, -150473.03, 0.0, 9.99945, 9.998923 
1.3050751e+3, 2.9454586e+2, -176424.42, -227386.25, 6188.353, -0.013594665, -0.18373433, -175683.72, -122245.54, 0.0, 9.999624, 9.998951 
1.3050842e+3, 3.0454606e+2, -106311.57, -130116.375, -8970.992, -0.0391123, -0.074087836, -103309.414, -103309.414, 0.0, 9.99961, 9.999291 
1.3050938e+3, 3.1454465e+2, -78858.984, -20239.225, 8127.75, -0.005809317, -0.15061924, -19133.166, -19133.166, 0.0, 9.999374, 10.000162 
1.3149206e+3, 1.2455175e+2, -1677378.5, -1780528.1, 88067.86, -0.12163987, -0.053463046, -1626894.9, 92487.86, 0.005819013, 10.000634, 9.999237 
1.3149315e+3, 1.3455069e+2, -1540095.4, -1629161.0, -2231.978, 0.101268336, -0.10930529, -1540039.5, 81352.45, 0.0032902497, 10.00073, 9.999571 
1.3149372e+3, 1.4454912e+2, -1459255.3, -1557168.8, -542.7703, -0.2771846, -0.21989255, -1459252.3, 64155.168, 0.0013013786, 10.000698, 9.999397 
1.3149479e+3, 1.5454973e+2, -1378764.0, -1468225.1, -31519.912, -0.10606581, -0.096937865, -1368774.1, 56628.7, 0.00026992275, 10.000583, 9.999389 
1.3149579e+3, 1.6454953e+2, -1303356.0, -1386553.1, -43052.04, -0.00030967008, -0.0517104, -1285088.8, 42316.96, 0.00001153221, 10.00045, 9.999342 
1.314967e+3, 1.7454846e+2, -1221684.6, -1290176.0, -36548.613, 0.006677585, -0.099266246, -1205844.6, 23571.488, 0.0, 10.000311, 9.999397 
1.3149759e+3, 1.8454778e+2, -1119031.8, -1162162.6, -34434.332, 0.008335345, -0.11838472, -1099967.3, 31454.873, 0.0, 10.000221, 9.999647 
1.3149849e+3, 1.9454752e+2, -1020207.75, -1056890.9, -23113.006, 0.009020983, -0.11616989, -1009043.0, 24379.936, 0.0, 10.000197, 9.999708 
1.3149934e+3, 2.0454691e+2, -985422.9, -1103117.6, -22290.521, -0.012609064, -0.0974197, -981342.7, -45913.67, 0.0, 10.000254, 9.998692 
1.3150018e+3, 2.1454594e+2, -865011.06, -994009.06, -31006.775, -0.06111562, -0.06783675, -857945.06, -20504.078, 0.0, 10.000405, 9.998695 
1.315011e+3, 2.2454473e+2, -754730.0, -843747.6, -32301.148, -0.03964504, -0.07311021, -744244.25, -4791.583, 0.0, 10.000289, 9.999111 
1.315021e+3, 2.3454335e+2, -712802.9, -764511.1, -28393.736, 0.067611046, -0.13273804, -700255.94, -58792.027, 0.0, 9.999868, 9.999185 
1.3150303e+3, 2.4454221e+2, -659761.56, -747525.75, -19768.982, 0.08403106, -0.13826011, -655514.1, -112039.61, 0.0, 9.999815, 9.998654 
1.3150385e+3, 2.5454143e+2, -504451.3, -618361.44, -22073.174, -0.008658684, -0.086876415, -500323.63, -54839.73, 0.0, 10.000193, 9.998687 
1.3150471e+3, 2.6454034e+2, -393036.28, -486062.94, -48128.56, -0.04214956, -0.072170585, -372617.94, -25123.533, 0.0, 10.000165, 9.998935 
1.315056e+3, 2.745389e+2, -364160.75, -414217.94, -45917.563, -0.0039791907, -0.11653563, -336893.53, -87386.85, 0.0, 9.999659, 9.998998 
1.3150652e+3, 2.8453752e+2, -286580.16, -312169.2, 5298.2813, 0.006306992, -0.15889362, -285526.5, -134007.64, 0.0, 9.999457, 9.999123 
1.3150747e+3, 2.9453638e+2, -164092.84, -197762.19, 14725.495, -0.018248992, -0.19460103, -158561.33, -105031.83, 0.0, 9.999606, 9.999164 
1.315084e+3, 3.045366e+2, -115259.734, -144919.11, -15966.448, -0.03433866, -0.085505925, -108298.44, -108298.44, 0.0, 9.999592, 9.999199 
1.3150932e+3, 3.1453532e+2, -107942.79, -79995.945, 6014.018, 0.0063312748, -0.14278547, -78756.71, -78756.71, 0.0, 9.9993725, 9.999752 
1.3249218e+3, 1.24542184e+2, -1607343.9, -1754135.4, 53854.336, -0.08921015, -0.09108289, -1589705.5, 129768.695, 0.006183249, 10.001147, 9.999172 
1.3249321e+3, 1.3454126e+2, -1550100.5, -1645115.9, -29296.516, 0.090961546, -0.12172101, -1541793.6, 79688.81, 0.0035072896, 10.000711, 9.999469 
1.3249375e+3, 1.4453962e+2, -1505190.0, -1597084.3, -1884.3574, -0.28996527, -0.22581731, -1505151.4, 18347.652, 0.0013982238, 10.000461, 9.999237 
1.3249482e+3, 1.5454002e+2, -1397555.5, -1496566.6, -9924.7295, -0.12187782, -0.10771199, -1396570.4, 28926.898, 0.00029637254, 10.000537, 9.999217 
1.3249582e+3, 1.6453971e+2, -1273895.6, -1359212.3, -6988.349, -0.014296363, -0.07088731, -1273327.0, 54174.375, 0.000014169166, 10.000595, 9.999459 
1.3249674e+3, 1.7453869e+2, -1169067.5, -1249974.6, -1211.4069, 0.0014276484, -0.12855856, -1169049.4, 60461.14, 0.0, 10.000608, 9.99953 
1.3249764e+3, 1.8453805e+2, -1087042.6, -1165774.6, -15801.369, 0.014401735, -0.14005962, -1083989.8, 47526.527, 0.0, 10.0005245, 9.9994755 
1.3249852e+3, 1.945379e+2, -1012108.94, -1073725.0, -42235.54, 0.026598008, -0.10941778, -990639.06, 42878.816, 0.0, 10.000344, 9.999522 
1.324994e+3, 2.0453736e+2, -978241.25, -1076277.3, -39938.29, 0.007831526, -0.08132564, -964030.8, -28507.463, 0.0, 10.000202, 9.9989 
1.3250022e+3, 2.1453649e+2, -893858.3, -981711.75, -14293.489, -0.04915568, -0.06476463, -891591.3, -54058.363, 0.0, 10.000096, 9.998927 
1.3250111e+3, 2.2453526e+2, -793666.44, -879603.9, -9763.732, -0.04068225, -0.078330144, -792571.1, -53026.543, 0.0, 10.000096, 9.998957 
1.3250208e+3, 2.3453368e+2, -674725.7, -764973.7, -26144.775, 0.0475493, -0.13999109, -667698.7, -26140.03, 0.0, 10.000213, 9.999015 
1.32503e+3, 2.445325e+2, -612614.9, -710796.56, -14511.476, 0.06774077, -0.14552844, -610515.0, -66945.18, 0.0, 10.000079, 9.998779 
1.3250385e+3, 2.545319e+2, -572443.4, -634859.3, -1161.412, 0.005821532, -0.0931147, -572421.8, -126844.734, 0.0, 9.999658, 9.99883 
1.3250472e+3, 2.6453084e+2, -476723.25, -527745.5, -21832.824, -0.02254095, -0.08230506, -468656.25, -121069.26, 0.0, 9.9995985, 9.99892 
1.3250557e+3, 2.745293e+2, -321249.72, -395769.66, -28057.287, -0.009101221, -0.13594598, -311867.25, -62266.69, 0.0, 9.999965, 9.998977 
1.3250647e+3, 2.8452796e+2, -219459.13, -283072.0, 8155.7, -0.0075293295, -0.16993208, -218430.14, -66817.85, 0.0, 9.999936, 9.999092 
1.3250743e+3, 2.9452702e+2, -190874.55, -213116.0, -2816.029, -0.02056858, -0.17875542, -190523.55, -136902.95, 0.0, 9.999434, 9.999141 
1.3250834e+3, 3.0452704e+2, -149977.14, -150221.95, -25400.662, -0.028680254, -0.0989007, -124698.59, -124698.59, 0.0, 9.999307, 9.999299 
1.3250926e+3, 3.1452587e+2, -79609.47, -81017.4, 12489.438, -0.0006938811, -0.151751, -67804.17, -67804.17, 0.0, 9.999632, 9.9996195 
1.3349225e+3, 1.245314e+2, -1596575.3, -1733318.4, 41492.434, -0.14726126, -0.20118119, -1584970.0, 134608.88, 0.0065457188, 10.001153, 9.999312 
1.334933e+3, 1.345323e+2, -1542281.9, -1625478.6, -47381.004, 0.100728564, -0.06363452, -1520829.6, 100740.625, 0.0037237175, 10.000698, 9.99961 
1.3349384e+3, 1.4453118e+2, -1497335.1, -1578460.5, -2402.579, -0.23874505, -0.13026226, -1497264.0, 26317.863, 0.0014951822, 10.000449, 9.999371 
1.334949e+3, 1.5453066e+2, -1386536.6, -1474457.9, -6386.0273, -0.10275006, -0.1188841, -1386075.3, 39512.645, 0.00032323142, 10.000539, 9.999369 
1.3349587e+3, 1.6453002e+2, -1263540.8, -1337985.3, -7187.222, -0.026006643, -0.1268211, -1262853.3, 64740.535, 0.000017128494, 10.000595, 9.999605 
1.3349676e+3, 1.7452945e+2, -1159356.4, -1230058.4, -995.32056, -0.033993486, -0.15334955, -1159342.4, 70255.76, 0.00000000003443261, 10.000608, 9.999667 
1.3349764e+3, 1.8452889e+2, -1132189.8, -1259640.3, -23958.672, -0.025677105, -0.13502428, -1127834.8, 3769.7922, 0.0, 10.000524, 9.998833 
1.3349853e+3, 1.9452833e+2, -1059603.8, -1172638.6, -49367.53, 0.0073361685, -0.07718874, -1041078.7, -7465.1074, 0.0, 10.000344, 9.998844 
1.3349943e+3, 2.0452759e+2, -934621.06, -984504.8, -45516.773, 0.027920343, -0.065836415, -907660.44, 27960.871, 0.0, 10.000196, 9.999535 
1.3350032e+3, 2.1452668e+2, -845165.75, -880505.44, -18662.875, 0.03325986, -0.11973133, -837134.9, 492.01306, 0.0, 10.000094, 9.999624 
1.3350119e+3, 2.2452565e+2, -819374.4, -932556.9, -6826.6655, 0.015110298, -0.13567537, -818964.1, -79327.96, 0.0, 10.000094, 9.998594 
1.3350202e+3, 2.3452446e+2, -704490.9, -825934.2, -21179.164, -0.0303911, -0.1159303, -700903.3, -59253.8, 0.0, 10.000207, 9.9986 
1.3350292e+3, 2.445233e+2, -590815.2, -664426.1, -29791.486, -0.027306296, -0.11289678, -580269.06, -36608.09, 0.0, 10.000073, 9.999101 
1.3350384e+3, 2.5452223e+2, -547570.9, -583560.25, -16143.775, 0.034614082, -0.1399752, -541390.56, -95720.695, 0.0, 9.999658, 9.999182 
1.3350473e+3, 2.6452115e+2, -482306.38, -540295.25, -9049.008, 0.043098807, -0.14883037, -480927.13, -133247.52, 0.0, 9.999601, 9.998834 
1.3350557e+3, 2.7452e+2, -330351.4, -411934.2, -12248.13, -0.013790193, -0.14980382, -328552.25, -78861.78, 0.0, 9.999952, 9.998873 
1.3350643e+3, 2.845189e+2, -240531.52, -324208.97, -8194.008, -0.038715772, -0.14564942, -239736.69, -88035.23, 0.0, 9.999923, 9.9988165 
1.3350736e+3, 2.9451787e+2, -209613.08, -253335.19, -19016.643, -0.02384756, -0.1335427, -202499.34, -148788.08, 0.0, 9.999439, 9.998862 
1.3350828e+3, 3.045173e+2, -128921.44, -108098.945, -13504.81, -0.026039304, -0.11124325, -101458.1, -101458.1, 0.0, 9.999312, 9.999586 
1.3350919e+3, 3.145163e+2, -72102.52, -59276.813, 30217.162, -0.037341017, -0.17940849, -34799.51, -34799.51, 0.0, 9.999605, 9.999782 
1.3449235e+3, 1.24521665e+2, -1593422.8, -1726572.5, 31988.295, -0.16481698, -0.19708525, -1586136.5, 133538.64, 0.0069055543, 10.001155, 9.999357 
1.3449337e+3, 1.345227e+2, -1495839.5, -1599235.4, -72293.766, 0.09053776, -0.049364597, -1458660.8, 163004.56, 0.0039389143, 10.001002, 9.999644 
1.3449393e+3, 1.4452167e+2, -1434305.3, -1517193.6, -17433.246, -0.21683061, -0.12053716, -1430788.0, 92887.39, 0.0015916337, 10.000751, 9.999647 
1.3449498e+3, 1.5452124e+2, -1386135.8, -1442255.5, -12887.9795, -0.0737051, -0.1284361, -1383317.5, 42361.42, 0.0003501717, 10.000405, 9.999654 
1.3449593e+3, 1.6452073e+2, -1324059.6, -1369592.5, -9365.974, -0.0057614003, -0.14072913, -1322208.4, 5475.078, 0.000020254476, 10.000191, 9.999583 
1.344968e+3, 1.7452025e+2, -1226802.6, -1266497.0, -16687.191, -0.04117195, -0.15312776, -1220719.6, 8967.817, 0.0000000014653116, 10.000163, 9.999632 
1.3449767e+3, 1.8451968e+2, -1166995.6, -1270784.9, -19027.03, -0.043662414, -0.13513361, -1163617.4, -31923.373, 0.0, 10.00026, 9.998883 
1.3449857e+3, 1.9451901e+2, -1034635.3, -1153961.5, 9194.365, -0.0040370673, -0.09377055, -1033931.06, -227.31622, 0.0, 10.000487, 9.998902 
1.3449946e+3, 2.0451824e+2, -897054.3, -970039.9, 11322.788, 0.02706462, -0.087065294, -895338.06, 40373.55, 0.0, 10.00047, 9.999502 
1.3450034e+3, 2.1451741e+2, -838482.0, -881374.6, -18650.598, 0.046106324, -0.13158002, -831506.7, 6210.332, 0.0, 10.000157, 9.999588 
1.3450119e+3, 2.2451644e+2, -839990.5, -941720.0, -13769.459, 0.027559971, -0.13892907, -838159.7, -98433.65, 0.0, 9.99995, 9.998601 
1.3450202e+3, 2.3451532e+2, -751385.6, -846330.0, 1731.6279, -0.035511848, -0.111666724, -751354.06, -109615.09, 0.0, 9.99988, 9.998616 
1.345029e+3, 2.445142e+2, -614420.94, -670885.8, -5626.0864, -0.035989296, -0.10955646, -613865.8, -70115.62, 0.0, 9.999894, 9.999141 
1.3450383e+3, 2.5451306e+2, -494670.03, -553235.2, -16817.898, 0.039186213, -0.1484021, -490184.13, -44424.773, 0.0, 10.000003, 9.999223 
1.3450472e+3, 2.64512e+2, -430031.2, -511677.44, -9983.453, 0.05198903, -0.15620519, -428828.16, -81059.54, 0.0, 9.9999485, 9.998862 
1.3450554e+3, 2.7451107e+2, -363864.3, -424145.88, -5157.624, -0.0113814995, -0.13971758, -363426.22, -113648.125, 0.0, 9.999708, 9.998905 
1.345064e+3, 2.8451002e+2, -294168.56, -358558.66, 2153.3547, -0.040702254, -0.12799798, -294096.63, -142307.95, 0.0, 9.999595, 9.998737 
1.3450731e+3, 2.9450884e+2, -187126.39, -250858.05, 4010.9746, -0.02715478, -0.12365301, -186874.95, -133075.31, 0.0, 9.999634, 9.998785 
1.3450822e+3, 3.045078e+2, -105002.086, -83074.984, 14802.123, -0.020529242, -0.15187538, -75618.375, -75618.375, 0.0, 9.999421, 9.999705 
1.3450912e+3, 3.145074e+2, -172134.72, -95088.41, 43597.105, -0.02969649, -0.17132482, -75433.03, -75433.03, 0.0, 9.998867, 9.999891 
1.3549247e+3, 1.2451312e+2, -1600737.4, -1738588.9, 26891.348, -0.14809634, -0.071827464, -1595677.3, 124084.336, 0.0072628423, 10.001141, 9.999283 
1.3549343e+3, 1.3451253e+2, -1500453.9, -1608746.6, -78242.195, 0.055112332, -0.08047386, -1459449.4, 162317.64, 0.004152666, 10.001003, 9.9995775 
1.35494e+3, 1.4451115e+2, -1406046.6, -1460061.1, -31740.59, -0.23406242, -0.20062427, -1391378.3, 132400.9, 0.0016872559, 10.000755, 10.000038 
1.3549504e+3, 1.5451187e+2, -1358110.8, -1384085.1, -26415.633, -0.03688983, -0.13568892, -1341662.4, 84107.55, 0.0003769789, 10.000404, 10.000054 
1.35496e+3, 1.6451183e+2, -1337561.6, -1396599.3, -13048.368, 0.044779804, -0.11088138, -1334806.3, -7036.6675, 0.000023370363, 10.000186, 9.999401 
1.3549682e+3, 1.745111e+2, -1241034.9, -1296006.0, -17880.586, -0.023470368, -0.1281525, -1235730.6, -5952.6704, 0.0000000068048798, 10.000162, 9.99943 
1.3549769e+3, 1.845105e+2, -1115581.6, -1163195.4, -12199.514, -0.0465286, -0.13987851, -1112637.9, 19146.29, 0.0, 10.000256, 9.999624 
1.3549861e+3, 1.9451e+2, -979027.44, -1038913.75, 17538.523, -0.009689356, -0.16040137, -974269.1, 59518.656, 0.0, 10.000487, 9.999693 
1.3549949e+3, 2.0450936e+2, -946047.06, -1071931.8, -898.994, 0.00367103, -0.14683734, -946040.7, -10246.65, 0.0, 10.00047, 9.998803 
1.355003e+3, 2.1450867e+2, -892902.25, -994026.3, -30683.498, -0.0129360035, -0.10023828, -884320.44, -46517.57, 0.0, 10.000155, 9.9988165 
1.3550115e+3, 2.2450766e+2, -815312.1, -889328.8, -18208.316, -0.0068525216, -0.08762432, -811075.4, -71261.64, 0.0, 9.999945, 9.998963 
1.3550207e+3, 2.3450632e+2, -722653.94, -786104.25, -796.106, 0.02778165, -0.12670185, -722643.94, -80817.15, 0.0, 9.999876, 9.999032 
1.3550296e+3, 2.4450517e+2, -630714.25, -704126.4, -2172.637, 0.037424587, -0.13617353, -630650.0, -86812.41, 0.0, 9.999891, 9.998914 
1.3550381e+3, 2.5450432e+2, -513866.03, -591293.0, -11461.037, 0.016653942, -0.11984718, -512205.16, -66359.74, 0.0, 9.999995, 9.998966 
1.3550468e+3, 2.6450342e+2, -422881.94, -495301.03, -17823.537, 0.0018948147, -0.1060201, -418732.97, -70878.89, 0.0, 9.999941, 9.998979 
1.3550553e+3, 2.745025e+2, -354431.84, -404589.78, -12346.04, -0.005891938, -0.103720844, -351557.66, -101694.336, 0.0, 9.999707, 9.999041 
1.3550639e+3, 2.845013e+2, -286011.47, -342074.8, 3755.0154, -0.018812755, -0.114102446, -285761.1, -133887.1, 0.0, 9.999596, 9.998851 
1.3550726e+3, 2.9449984e+2, -181284.95, -235961.02, 7996.222, -0.03768726, -0.15113749, -180139.53, -126253.09, 0.0, 9.99962, 9.998894 
1.3550816e+3, 3.0449837e+2, -110581.484, -91695.914, -3740.0857, -0.019409264, -0.22360948, -90982.2, -90982.2, 0.0, 9.999408, 9.999654 
1.3550906e+3, 3.1449893e+2, -166641.84, -82773.6, 26905.107, 0.014019809, -0.14055946, -74884.48, -74884.48, 0.0, 9.998863, 9.999979 
1.364926e+3, 1.24504104e+2, -1642536.9, -1756913.5, 73395.77, -0.1299914, -0.05331526, -1606679.8, 113170.27, 0.0076198755, 10.000839, 9.999305 
1.3649352e+3, 1.3450326e+2, -1532487.5, -1616070.9, -25477.064, 0.05819205, -0.09207811, -1525334.1, 96523.555, 0.004366158, 10.000749, 9.999649 
1.3649407e+3, 1.4450191e+2, -1421983.3, -1467165.9, 10483.087, -0.22654721, -0.21688946, -1419669.5, 104200.125, 0.0017823466, 10.000644, 10.000043 
1.3649508e+3, 1.5450276e+2, -1329788.5, -1371053.0, -14833.458, -0.049240533, -0.13618949, -1325009.6, 100849.14, 0.0004035849, 10.000601, 10.000049 
1.3649602e+3, 1.6450274e+2, -1285827.9, -1371586.3, -4658.5625, 0.03045387, -0.10878209, -1285575.6, 42282.656, 0.000026350568, 10.000541, 9.999402 
1.3649686e+3, 1.7450191e+2, -1201483.6, -1276916.6, 4286.9478, -0.014608422, -0.13794892, -1201240.8, 28626.992, 0.000000016360648, 10.000433, 9.999431 
1.3649774e+3, 1.8450135e+2, -1103461.6, -1134154.4, 1426.6753, -0.026426341, -0.15527521, -1103395.5, 28477.477, 0.0, 10.000238, 9.999832 
1.3649864e+3, 1.9450107e+2, -1040759.8, -1044081.44, -12787.731, 0.0027351887, -0.17532866, -1029525.5, 4347.9116, 0.0, 9.999958, 9.999913 
1.3649951e+3, 2.045005e+2, -1030163.0, -1124733.1, -31127.822, 0.005048712, -0.16249762, -1020836.94, -84957.89, 0.0, 9.999947, 9.998692 
1.365003e+3, 2.1449967e+2, -886367.9, -1004335.56, -13575.868, -0.025730459, -0.11758665, -884825.7, -46935.355, 0.0, 10.000261, 9.998693 
1.3650116e+3, 2.2449869e+2, -752157.5, -846060.44, 10636.934, -0.0122926645, -0.100316696, -750967.6, -11066.442, 0.0, 10.000326, 9.999075 
1.365021e+3, 2.3449758e+2, -685084.75, -754692.3, 4117.0933, 0.054393344, -0.12763901, -684842.1, -42930.77, 0.0, 10.000077, 9.99915 
1.3650298e+3, 2.4449651e+2, -632089.1, -712949.3, 3828.0005, 0.0638009, -0.13326502, -631908.3, -87986.87, 0.0, 9.999918, 9.99884 
1.365038e+3, 2.544955e+2, -536376.2, -610383.2, 5807.7583, 0.0039258157, -0.124485806, -535923.2, -89991.87, 0.0, 9.999879, 9.998889 
1.3650462e+3, 2.644945e+2, -446591.72, -510841.16, -6458.3433, -0.023407891, -0.112821616, -445948.94, -98007.62, 0.0, 9.9998, 9.998938 
1.3650548e+3, 2.7449363e+2, -364485.25, -413560.25, -16126.784, -0.011790288, -0.10313776, -359660.16, -109709.44, 0.0, 9.9996605, 9.998999 
1.3650635e+3, 2.8449255e+2, -279711.56, -320577.84, 1559.4175, -0.0150091015, -0.10655282, -279652.16, -127692.11, 0.0, 9.999561, 9.999014 
1.3650723e+3, 2.9449126e+2, -185726.28, -217993.14, 9128.695, -0.033191305, -0.14420114, -183322.7, -129352.84, 0.0, 9.999505, 9.999072 
1.3650812e+3, 3.0448946e+2, -132643.3, -126917.01, -17865.473, -0.0037970524, -0.24852091, -111686.71, -111686.71, 0.0, 9.999362, 9.9994335 
1.3650897e+3, 3.1449032e+2, -131821.4, -64946.35, -5349.93, 0.026606139, -0.112764716, -64521.066, -64521.066, 0.0, 9.999096, 9.999989 
1.3749269e+3, 1.2449459e+2, -1635755.4, -1741626.5, 66981.53, -0.12052485, -0.15234004, -1603317.1, 116623.586, 0.0079810945, 10.000833, 9.999414 
1.3749364e+3, 1.3449503e+2, -1519356.9, -1586933.1, -29516.965, 0.099350646, -0.081737235, -1508279.8, 113656.18, 0.0045821774, 10.000741, 9.999853 
1.3749416e+3, 1.4449401e+2, -1449131.5, -1522486.3, 6702.2837, -0.1962003, -0.16516168, -1448524.1, 75421.43, 0.0018779465, 10.000639, 9.999665 
1.3749509e+3, 1.54494e+2, -1357976.8, -1429703.0, -15963.18, -0.11668601, -0.13118286, -1354584.5, 71360.52, 0.00043006244, 10.000601, 9.999647 
1.37496e+3, 1.6449355e+2, -1273960.5, -1346939.8, -9515.237, -0.057775427, -0.13630345, -1272740.3, 55208.652, 0.000029160963, 10.000539, 9.999572 
1.3749692e+3, 1.7449272e+2, -1187162.6, -1247908.8, -67.84577, -0.016364066, -0.1827637, -1187162.6, 42793.555, 0.000000027808229, 10.000435, 9.999629 
1.374978e+3, 1.8449228e+2, -1126804.4, -1182803.6, -10619.727, 0.015063947, -0.18205771, -1124858.1, 7101.9746, 0.0, 10.000238, 9.999499 
1.3749868e+3, 1.9449228e+2, -1065875.1, -1096269.5, -23881.36, 0.030171448, -0.13862616, -1052765.5, -18805.445, 0.0, 9.999957, 9.999556 
1.3749953e+3, 2.0449169e+2, -997297.75, -1055430.5, -21839.762, 0.026954705, -0.13332821, -990007.1, -54040.99, 0.0, 9.999941, 9.999171 
1.3750036e+3, 2.1449041e+2, -850405.44, -928841.25, -1774.0543, 0.0043903315, -0.18321282, -850365.4, -12386.206, 0.0, 10.000257, 9.999214 
1.3750121e+3, 2.2448951e+2, -762934.6, -867233.75, 1312.091, 0.007974904, -0.178062, -762918.1, -22929.855, 0.0, 10.00032, 9.998933 
1.375021e+3, 2.3448916e+2, -698023.0, -780606.94, -4950.25, 0.042778198, -0.11454169, -697727.4, -55735.03, 0.0, 10.0000725, 9.998975 
1.3750295e+3, 2.4448821e+2, -628170.56, -703896.25, 1667.6843, 0.041436054, -0.10115036, -628133.9, -84132.27, 0.0, 9.999913, 9.998905 
1.3750377e+3, 2.544866e+2, -531658.25, -599627.44, 5416.67, -0.0034956157, -0.15997326, -531229.3, -85212.375, 0.0, 9.999873, 9.998966 
1.375046e+3, 2.644853e+2, -460843.4, -540066.94, -11177.711, -0.028667245, -0.17441265, -459296.56, -111266.21, 0.0, 9.999797, 9.998739 
1.3750543e+3, 2.744844e+2, -380289.5, -445293.5, -19333.967, -0.034095977, -0.14036073, -374973.75, -124933.05, 0.0, 9.999655, 9.998785 
1.3750629e+3, 2.844837e+2, -266341.63, -291279.5, 287.2506, -0.034640126, -0.10810392, -266338.34, -114291.09, 0.0, 9.999555, 9.999218 
1.3750719e+3, 2.9448313e+2, -170979.16, -184757.67, 9894.557, -0.020303372, -0.09797238, -165811.72, -111762.055, 0.0, 9.999493, 9.999307 
1.3750808e+3, 3.0448106e+2, -161025.19, -185731.02, -25943.365, 0.019483209, -0.22197387, -144643.94, -144643.94, 0.0, 9.99936, 9.999031 
1.3750885e+3, 3.1448123e+2, -137702.2, -77042.54, -12689.706, -0.00053435727, -0.10980592, -74494.914, -74494.914, 0.0, 9.999094, 9.9999075 
1.384928e+3, 1.24485835e+2, -1543418.5, -1707677.9, 78317.48, -0.12908018, -0.20390196, -1512062.9, 207960.88, 0.008351057, 10.00152, 9.999315 
1.3849373e+3, 1.3448676e+2, -1499537.5, -1577725.0, -34137.23, 0.099568605, -0.08387697, -1486730.8, 135284.25, 0.004803759, 10.00088, 9.999849 
1.3849424e+3, 1.4448586e+2, -1476073.9, -1557137.1, 14859.496, -0.1790696, -0.14676207, -1473435.8, 50588.43, 0.0019753822, 10.000546, 9.999473 
1.3849515e+3, 1.5448542e+2, -1372064.4, -1459696.4, 6018.8604, -0.1184395, -0.13651438, -1371652.9, 54375.91, 0.00045665295, 10.000604, 9.99944 
1.3849604e+3, 1.6448475e+2, -1268873.9, -1341591.0, 11799.262, -0.064344995, -0.15108974, -1267007.3, 61027.434, 0.00003186285, 10.000562, 9.9995985 
1.3849697e+3, 1.7448406e+2, -1185203.5, -1242588.0, 8083.7754, -0.0096130185, -0.18970524, -1184086.5, 45953.547, 0.000000039188958, 10.000431, 9.999668 
1.3849784e+3, 1.8448357e+2, -1125715.5, -1206124.3, -4653.9546, 0.024053762, -0.18383746, -1125447.0, 6597.3604, 0.0, 10.00035, 9.999284 
1.3849868e+3, 1.9448338e+2, -1027784.7, -1103391.1, -9557.647, 0.026258849, -0.13696754, -1026595.2, 7452.316, 0.0, 10.00033, 9.999326 
1.3849954e+3, 2.0448275e+2, -940447.2, -1012758.3, -4809.2686, 0.024349036, -0.13080826, -940128.7, -4074.3997, 0.0, 10.000266, 9.999307 
1.3850039e+3, 2.1448158e+2, -855380.5, -914491.1, -13454.771, 0.018841559, -0.18393348, -852462.06, -14396.84, 0.0, 10.00015, 9.999365 
1.3850124e+3, 2.2448073e+2, -796432.7, -874261.06, -25432.322, 0.019249044, -0.18710738, -788859.06, -48785.688, 0.0, 10.0000515, 9.999015 
1.3850208e+3, 2.3448029e+2, -705206.4, -774049.0, -14656.127, 0.026192999, -0.13893017, -702216.06, -60138.28, 0.0, 9.999984, 9.999062 
1.3850291e+3, 2.444794e+2, -631122.5, -697273.1, 4223.488, 0.01833238, -0.12619705, -630853.94, -86767.6, 0.0, 9.999863, 9.998972 
1.3850375e+3, 2.5447804e+2, -556560.9, -604318.1, 6204.006, -0.007721449, -0.16692187, -555768.1, -109668.55, 0.0, 9.999674, 9.999028 
1.3850458e+3, 2.6447678e+2, -485931.97, -548797.44, 955.0043, -0.0228656, -0.18095946, -485917.44, -137804.94, 0.0, 9.999612, 9.998767 
1.3850541e+3, 2.744757e+2, -370227.1, -437199.28, 8704.732, -0.027683176, -0.170006, -369114.2, -118989.734, 0.0, 9.999711, 9.998813 
1.3850625e+3, 2.8447506e+2, -256932.63, -287145.25, 25617.094, -0.029939946, -0.13447265, -242299.47, -90168.836, 0.0, 9.999623, 9.999212 
1.3850713e+3, 2.944748e+2, -197465.34, -197306.2, 14513.13, -0.02022138, -0.08946999, -182872.42, -128742.11, 0.0, 9.999314, 9.999304 
1.3850802e+3, 3.0447257e+2, -185104.08, -226718.03, -15780.2, 0.028496707, -0.2174676, -179796.98, -179796.98, 0.0, 9.999324, 9.998766 
1.385088e+3, 3.144722e+2, -41424.477, -15825.817, 7346.0166, 0.015488524, -0.13537031, -13867.546, -13867.546, 0.0, 9.999696, 10.000036 
1.3949291e+3, 1.2447793e+2, -1565939.3, -1753962.6, 50638.668, -0.16261162, -0.20809355, -1553168.6, 166929.83, 0.008733579, 10.001516, 9.999 
1.3949376e+3, 1.3447852e+2, -1515762.0, -1609964.3, -58276.004, 0.052987583, -0.09994889, -1487932.4, 134161.61, 0.005033633, 10.0008745, 9.99963 
1.3949428e+3, 1.4447746e+2, -1478439.9, -1561173.8, 14032.51, -0.18378052, -0.16501229, -1476124.6, 47980.695, 0.002076125, 10.000542, 9.999447 
1.3949527e+3, 1.5447703e+2, -1373239.0, -1462138.4, 7926.7007, -0.055376668, -0.15155676, -1372537.8, 53572.0, 0.00048381835, 10.000603, 9.999424 
1.3949616e+3, 1.6447645e+2, -1277061.9, -1359407.9, 5427.9556, 0.009533996, -0.15098436, -1276705.6, 51409.297, 0.000034571214, 10.000565, 9.999476 
1.3949701e+3, 1.7447595e+2, -1193487.8, -1260101.3, 2935.1318, 0.0019205865, -0.15874961, -1193358.6, 36760.21, 0.00000005013657, 10.000431, 9.999549 
1.3949785e+3, 1.8447529e+2, -1133360.1, -1221320.0, -6812.4063, -0.0056014047, -0.16065338, -1132835.6, -710.3163, 0.0, 10.000346, 9.999182 
1.3949868e+3, 1.9447441e+2, -1034861.2, -1118572.5, -10394.474, -0.01181537, -0.17098208, -1033589.8, 545.4404, 0.0, 10.000331, 9.999222 
1.3949953e+3, 2.0447369e+2, -956123.1, -1044772.94, -10136.027, -0.0061843805, -0.15652256, -954979.0, -18835.78, 0.0, 10.000263, 9.999088 
1.3950041e+3, 2.1447322e+2, -871136.0, -947088.25, -17877.088, 0.015045685, -0.119820066, -867138.6, -28990.43, 0.0, 10.000148, 9.999142 
1.3950124e+3, 2.2447234e+2, -775616.25, -830937.94, -29153.408, 0.018857654, -0.1273167, -763089.5, -22933.324, 0.0, 10.00005, 9.999313 
1.3950205e+3, 2.3447102e+2, -682639.94, -726628.25, -16895.031, 0.00089685386, -0.19940454, -676899.9, -34732.527, 0.0, 9.999979, 9.99939 
1.3950287e+3, 2.4447013e+2, -626620.0, -687027.56, -2974.0134, -0.010041275, -0.20776875, -626473.94, -82298.47, 0.0, 9.999857, 9.999046 
1.3950372e+3, 2.5446984e+2, -552847.06, -596040.25, 108.196106, -0.0124399485, -0.14746884, -552846.75, -106667.43, 0.0, 9.99967, 9.999088 
1.3950455e+3, 2.64469e+2, -469344.28, -514299.84, 4750.852, -0.009542142, -0.13491414, -468847.7, -120659.73, 0.0, 9.999611, 9.999005 
1.395054e+3, 2.7446756e+2, -353477.94, -400912.88, 14487.332, 0.00082955876, -0.18734062, -349403.3, -99201.69, 0.0, 9.999702, 9.999066 
1.3950624e+3, 2.8446662e+2, -272940.44, -320734.94, 15352.083, -0.007876878, -0.18084039, -268434.06, -116224.04, 0.0, 9.999623, 9.998982 
1.3950704e+3, 2.9446626e+2, -216650.83, -237234.97, 4977.6016, -0.03922921, -0.12370794, -215510.34, -161297.53, 0.0, 9.999313, 9.999031 
1.3950793e+3, 3.0446392e+2, -192469.84, -242005.47, -2574.9421, 0.016725566, -0.23851326, -192336.36, -192336.36, 0.0, 9.999323, 9.998661 
1.3950883e+3, 3.144631e+2, -20906.176, 31832.441, 22878.2, 0.06142873, -0.19544256, 40373.766, 40373.766, 0.0, 9.999674, 10.000374 
1.4049302e+3, 1.24469675e+2, -1706707.0, -1826715.9, 9324.026, -0.15891506, -0.20167434, -1705986.9, 14191.501, 0.009133226, 10.000559, 9.998961 
1.4049383e+3, 1.3447002e+2, -1516790.5, -1600964.5, -75602.58, 0.02473381, -0.1272347, -1472349.8, 149826.67, 0.005275387, 10.000828, 9.999715 
1.4049435e+3, 1.4446893e+2, -1427391.4, -1532404.8, 16972.87, -0.19629718, -0.20045948, -1424716.3, 99471.32, 0.0021822979, 10.000876, 9.999483 
1.4049534e+3, 1.544686e+2, -1357259.4, -1450310.4, 14505.301, -0.027018946, -0.18112671, -1355050.6, 71139.97, 0.00051218417, 10.000696, 9.999459 
1.4049625e+3, 1.644681e+2, -1278635.0, -1366921.9, 16642.033, 0.04051557, -0.17099498, -1275602.3, 52592.89, 0.000037386584, 10.000585, 9.9994135 
1.4049704e+3, 1.7446767e+2, -1177989.1, -1260301.1, 16409.148, -0.008159999, -0.16489296, -1174838.5, 55360.477, 0.00000006103049, 10.00057, 9.999479 
1.4049786e+3, 1.8446693e+2, -1113098.4, -1225942.6, 10476.863, -0.028483737, -0.1632333, -1112133.9, 20072.78, 0.0, 10.000548, 9.999053 
1.4049871e+3, 1.9446585e+2, -1015575.75, -1123885.1, 3263.9287, -0.016980201, -0.18205953, -1015477.5, 18741.629, 0.0, 10.000527, 9.99909 
1.4049956e+3, 2.0446509e+2, -928787.75, -1024566.8, 8079.199, -0.0023903064, -0.16828276, -928111.06, 8116.4126, 0.0, 10.0004225, 9.999149 
1.4050043e+3, 2.1446477e+2, -855229.7, -930545.25, 21767.621, 0.017071163, -0.12325809, -849391.06, -11160.914, 0.0, 10.000222, 9.999218 
1.4050125e+3, 2.2446391e+2, -777433.56, -835422.3, 12918.389, 0.013733439, -0.13055256, -774685.9, -34448.207, 0.0, 10.000054, 9.999278 
1.4050202e+3, 2.3446247e+2, -694559.94, -737680.0, -4099.809, -0.019798553, -0.21141157, -694173.56, -51922.863, 0.0, 9.99992, 9.999342 
1.4050284e+3, 2.444616e+2, -627112.6, -684197.1, -5655.4204, -0.027606113, -0.21788344, -626557.7, -82298.63, 0.0, 9.99984, 9.999074 
1.405037e+3, 2.5446147e+2, -526938.7, -579621.2, -6260.971, -0.003848777, -0.14560656, -526204.9, -79943.43, 0.0, 9.999831, 9.999123 
1.4050454e+3, 2.6446068e+2, -437828.0, -483717.72, -3460.2607, 0.01150338, -0.13204472, -437568.53, -89299.875, 0.0, 9.999762, 9.999141 
1.4050539e+3, 2.744593e+2, -355974.8, -385237.3, -3615.498, 0.016655657, -0.19498706, -355534.72, -105253.89, 0.0, 9.999616, 9.999213 
1.4050621e+3, 2.8445825e+2, -289582.75, -339838.72, -4588.4565, -0.00032347714, -0.2013068, -289167.25, -136877.19, 0.0, 9.9995575, 9.998882 
1.4050698e+3, 2.944576e+2, -181535.22, -233838.28, -5039.492, -0.04212545, -0.1615149, -181054.1, -126757.44, 0.0, 9.999611, 9.998912 
1.4050788e+3, 3.0445555e+2, -166279.16, -226786.84, 4555.347, 0.015288983, -0.24343255, -165938.13, -165938.13, 0.0, 9.999492, 9.998685 
1.4050877e+3, 3.1445467e+2, -69885.625, 48901.28, 30774.176, 0.058809686, -0.20883746, 56400.52, 56400.52, 0.0, 9.999163, 10.000738 
1.4149311e+3, 1.2446109e+2, -1692793.5, -1793870.9, 10547.957, -0.124649465, -0.18875107, -1691704.5, 28559.021, 0.009556688, 10.000542, 9.999196 
1.4149389e+3, 1.344613e+2, -1491218.1, -1546141.4, -65835.555, 0.013344775, -0.16382015, -1447346.3, 174914.97, 0.0055341963, 10.000821, 10.000094 
1.4149441e+3, 1.4446034e+2, -1418886.1, -1516127.4, 8851.639, -0.21996777, -0.2504657, -1418087.0, 106183.125, 0.0022969088, 10.000881, 9.999594 
1.414954e+3, 1.5446016e+2, -1350716.3, -1436534.4, 7755.2334, -0.038880102, -0.22544533, -1350021.1, 76249.89, 0.0005425403, 10.000694, 9.999556 
1.414963e+3, 1.6445974e+2, -1280588.9, -1370235.5, 14246.492, 0.021709338, -0.21177693, -1278379.4, 49895.316, 0.000040406845, 10.00058, 9.999393 
1.4149708e+3, 1.7445923e+2, -1179494.8, -1264287.8, 15698.492, -0.042290404, -0.20915033, -1176681.6, 53598.316, 0.00000007226826, 10.000573, 9.999452 
1.414979e+3, 1.8445857e+2, -1124298.1, -1249888.3, 8510.991, -0.048602354, -0.19165075, -1123724.0, 8563.801, 0.0, 10.00055, 9.998888 
1.4149879e+3, 1.9445774e+2, -1027403.0, -1148999.4, 2370.7603, 0.008318097, -0.16957967, -1027356.8, 6941.8623, 0.0, 10.000528, 9.998918 
1.4149964e+3, 2.0445694e+2, -905036.44, -974938.4, -385.77774, 0.03289212, -0.16567291, -905034.3, 31272.428, 0.0, 10.00042, 9.999492 
1.4150046e+3, 2.1445626e+2, -829448.2, -876619.56, 14319.628, 0.0216221, -0.19435695, -825441.56, 12869.215, 0.0, 10.000218, 9.999591 
1.4150123e+3, 2.2445546e+2, -804671.2, -890629.6, 7049.2603, -0.00083641714, -0.19722211, -804096.94, -63779.22, 0.0, 10.000048, 9.998903 
1.4150201e+3, 2.3445462e+2, -723780.1, -798735.7, -8531.312, -0.0377119, -0.1761706, -722821.4, -80493.64, 0.0, 9.99992, 9.998923 
1.4150281e+3, 2.4445376e+2, -628563.1, -687689.1, -6188.4414, -0.036617972, -0.15848035, -627922.4, -83585.28, 0.0, 9.999841, 9.99905 
1.4150369e+3, 2.5445288e+2, -527601.6, -580181.75, -5387.463, 0.013505005, -0.15835166, -527055.3, -80709.89, 0.0, 9.999826, 9.999123 
1.4150454e+3, 2.644519e+2, -436340.56, -480390.78, -8066.9604, 0.03464031, -0.16897708, -434909.72, -86555.5, 0.0, 9.999759, 9.9991665 
1.4150535e+3, 2.744509e+2, -354399.97, -382041.13, -7412.2085, 0.015341447, -0.19625215, -352537.78, -102175.36, 0.0, 9.999615, 9.999237 
1.4150615e+3, 2.8444993e+2, -285625.47, -331905.22, -2346.205, -0.01153453, -0.19968547, -285506.84, -133135.78, 0.0, 9.9995575, 9.998937 
1.4150696e+3, 2.9444894e+2, -179280.67, -227395.08, -134.33154, -0.03532913, -0.1974003, -179280.3, -124899.21, 0.0, 9.999602, 9.9989605 
1.4150782e+3, 3.044475e+2, -158461.7, -211076.03, -5548.256, 0.017332284, -0.22519296, -157883.0, -157883.0, 0.0, 9.999493, 9.998793 
1.4150862e+3, 3.1444687e+2, -49008.168, 91824.8, 16636.54, -0.00013533057, -0.1801295, 93763.38, 93763.38, 0.0, 9.999163, 10.001034 
1.4249317e+3, 1.2445276e+2, -1697804.6, -1793104.9, 54857.016, -0.116566904, -0.1984264, -1672792.4, 47552.438, 0.010011913, 10.000495, 9.999225 
1.4249398e+3, 1.344531e+2, -1496846.0, -1532615.5, -33507.355, 0.02664428, -0.17475891, -1476749.0, 145592.14, 0.0058154534, 10.000711, 10.000241 
1.424945e+3, 1.444524e+2, -1431685.4, -1509055.0, 17355.563, -0.21049425, -0.24985394, -1427970.6, 96376.9, 0.002423067, 10.000739, 9.999709 
1.4249545e+3, 1.5445228e+2, -1358908.3, -1428023.9, 14690.936, -0.06460525, -0.22763093, -1355915.1, 70431.93, 0.00057589856, 10.000585, 9.999666 
1.4249633e+3, 1.6445185e+2, -1287404.5, -1382495.5, 29797.578, -0.011382345, -0.21764421, -1278838.8, 49512.324, 0.00004378684, 10.000573, 9.999311 
1.4249714e+3, 1.744512e+2, -1162531.6, -1265823.6, 25506.965, -0.047731962, -0.22125968, -1156576.3, 73782.25, 0.00000008454083, 10.000734, 9.999362 
1.4249797e+3, 1.8445057e+2, -1097294.8, -1225520.8, 17666.094, -0.040497858, -0.2011551, -1094905.4, 37460.82, 0.0, 10.0006895, 9.998987 
1.4249884e+3, 1.9444998e+2, -1036119.1, -1140390.5, 31542.568, 0.011241328, -0.16408932, -1027319.9, 7053.934, 0.0, 10.000416, 9.99903 
1.4249967e+3, 2.0444919e+2, -939126.44, -998637.6, 26158.91, 0.028620869, -0.16207957, -929262.8, 7118.6626, 0.0, 10.000217, 9.999426 
1.4250045e+3, 2.1444821e+2, -850973.06, -895751.7, 5256.2573, 0.0060377643, -0.21225844, -850364.4, -11975.756, 0.0, 10.000109, 9.999513 
1.4250124e+3, 2.2444734e+2, -809109.9, -906509.9, -5476.422, -0.008056315, -0.21463738, -808802.94, -68406.09, 0.0, 10.000075, 9.998781 
1.4250202e+3, 2.3444663e+2, -699838.7, -800206.06, -306.0735, -0.012710834, -0.16752437, -699837.75, -57431.76, 0.0, 10.000142, 9.998806 
1.4250283e+3, 2.4444574e+2, -592815.75, -666558.25, 12535.391, -0.0086103035, -0.14745267, -590743.1, -46327.68, 0.0, 10.00007, 9.999084 
1.4250368e+3, 2.544447e+2, -524937.9, -573561.25, 15458.749, 0.0077515948, -0.17195672, -520439.28, -74014.41, 0.0, 9.999822, 9.999169 
1.425045e+3, 2.6444358e+2, -453371.2, -500840.84, 13791.137, 0.019673537, -0.19051957, -449655.38, -101220.945, 0.0, 9.999695, 9.999057 
1.4250532e+3, 2.7444252e+2, -346391.03, -391609.1, 2476.9436, 0.02131197, -0.20884943, -346255.75, -95812.43, 0.0, 9.999724, 9.99912 
1.4250612e+3, 2.8444153e+2, -264171.56, -311417.7, 3519.255, 0.0041419575, -0.21504194, -263910.88, -111458.36, 0.0, 9.9996605, 9.999028 
1.4250693e+3, 2.9444054e+2, -190683.14, -221096.11, 6353.7427, -0.022697067, -0.22452904, -189409.11, -134946.84, 0.0, 9.999475, 9.999064 
1.4250779e+3, 3.0443963e+2, -171514.02, -232262.75, -2900.2275, 0.023656273, -0.19816728, -171375.88, -171375.88, 0.0, 9.999467, 9.998659 
1.4250855e+3, 3.1443846e+2, 19317.316, 111480.95, -4494.2993, -0.011238648, -0.19062324, 111699.59, 111699.59, 0.0, 9.999688, 10.000916 
1.434932e+3, 1.2444472e+2, -1711746.8, -1819505.9, 54901.25, -0.1383576, -0.23474878, -1688703.3, 31718.4, 0.010506618, 10.000483, 9.999049 
1.4349408e+3, 1.3444553e+2, -1503943.5, -1544787.6, -25119.393, 0.058446173, -0.15917033, -1491992.0, 130423.24, 0.006123269, 10.000702, 10.000161 
1.434946e+3, 1.4444518e+2, -1425496.9, -1495978.6, 10173.49, -0.17555213, -0.19730103, -1424057.8, 100361.016, 0.002563054, 10.000735, 9.999802 
1.4349546e+3, 1.5444505e+2, -1350787.3, -1411645.5, 8805.5205, -0.10733668, -0.1874167, -1349538.9, 76879.6, 0.0006133788, 10.000586, 9.99978 
1.4349632e+3, 1.6444452e+2, -1297750.0, -1404186.1, 33721.688, -0.062470134, -0.1867573, -1287965.6, 40457.965, 0.000047750204, 10.000573, 9.999164 
1.4349723e+3, 1.744436e+2, -1174302.6, -1289920.8, 31457.922, -0.027208915, -0.20006052, -1166297.6, 64136.37, 0.00000010052836, 10.000732, 9.999197 
1.4349808e+3, 1.8444295e+2, -1072276.3, -1173249.5, 6682.8545, -0.0077889133, -0.1909017, -1071835.9, 60605.35, 0.0, 10.000686, 9.999348 
1.4349887e+3, 1.9444263e+2, -1008163.8, -1083161.4, 21245.143, -0.011674394, -0.16730428, -1002563.7, 31880.602, 0.0, 10.000417, 9.999423 
1.4349964e+3, 2.0444188e+2, -973628.44, -1069601.9, 20933.932, -0.020227294, -0.15826276, -969261.06, -32809.523, 0.0, 10.000215, 9.998941 
1.4350043e+3, 2.1444069e+2, -888597.9, -974247.8, 1456.9813, -0.031576853, -0.17724223, -888573.1, -50109.746, 0.0, 10.000109, 9.998974 
1.4350125e+3, 2.2443955e+2, -800298.6, -888277.25, -4134.071, -0.009836822, -0.18327212, -800104.8, -59630.008, 0.0, 10.000074, 9.998908 
1.4350212e+3, 2.3443852e+2, -688862.3, -776953.56, 2771.2842, 0.051223196, -0.18432473, -688775.25, -46290.01, 0.0, 10.000138, 9.998968 
1.435029e+3, 2.4443758e+2, -586826.75, -653039.7, 3793.7627, 0.051000867, -0.18308994, -586610.06, -42116.098, 0.0, 10.000063, 9.999181 
1.4350362e+3, 2.5443682e+2, -518579.03, -560546.4, 7153.5073, -0.023761785, -0.18824711, -517393.2, -70893.22, 0.0, 9.999821, 9.99926 
1.4350443e+3, 2.6443574e+2, -469298.16, -534206.75, 14968.832, -0.03484302, -0.19942287, -466012.44, -117502.91, 0.0, 9.999695, 9.998829 
1.435053e+3, 2.744343e+2, -364401.2, -428257.13, 5853.4336, 0.030742077, -0.2293167, -363869.06, -113346.03, 0.0, 9.999721, 9.998871 
1.4350612e+3, 2.8443313e+2, -257388.95, -297451.56, -1745.1086, 0.04055338, -0.24338229, -257313.08, -104779.125, 0.0, 9.99966, 9.9991255 
1.4350688e+3, 2.9443234e+2, -183670.77, -206441.72, 1417.7539, -0.011617623, -0.2465502, -183582.83, -129041.93, 0.0, 9.999473, 9.9991665 
1.4350773e+3, 3.0443186e+2, -193137.8, -277346.47, 4843.5796, 0.02875202, -0.165713, -192860.11, -192860.11, 0.0, 9.999467, 9.99835 
1.4350854e+3, 3.144298e+2, -17587.936, 36703.04, 3428.3875, 0.018027281, -0.21822642, 36918.68, 36918.68, 0.0, 9.99968, 10.000406 
1.4449327e+3, 1.2443715e+2, -1668615.8, -1811833.9, 58136.973, -0.13356878, -0.23647526, -1647987.3, 72507.33, 0.011047917, 10.00084, 9.998928 
1.4449413e+3, 1.3443781e+2, -1542647.4, -1569270.5, -15789.597, 0.05426133, -0.16877982, -1535306.9, 87182.92, 0.00646129, 10.000462, 10.000108 
1.4449467e+3, 1.4443752e+2, -1472265.9, -1534593.9, 22997.992, -0.17768346, -0.19236127, -1464698.8, 59794.676, 0.0027186894, 10.000484, 9.999656 
1.4449555e+3, 1.5443732e+2, -1299214.4, -1402800.9, 1887.4885, -0.10649811, -0.17682333, -1299180.0, 127314.58, 0.0006559602, 10.001011, 9.999633 
1.4449641e+3, 1.6443677e+2, -1225666.6, -1366238.0, 10471.481, -0.06204267, -0.17094639, -1224890.9, 103609.305, 0.000052490832, 10.001059, 9.999187 
1.4449729e+3, 1.7443591e+2, -1199477.9, -1298612.1, 19733.947, -0.02953186, -0.18140493, -1195694.0, 34815.87, 0.00000012546444, 10.000546, 9.999227 
1.4449812e+3, 1.8443526e+2, -1116105.9, -1177290.8, -283.01526, -0.012941458, -0.17977236, -1116104.5, 16412.088, 0.0, 10.000313, 9.9995 
1.4449888e+3, 1.9443491e+2, -996312.94, -1059611.1, -5042.782, -0.024000399, -0.17387457, -995913.7, 38605.344, 0.0, 10.000423, 9.999581 
1.4449967e+3, 2.0443417e+2, -949264.44, -1076350.3, -2555.0574, -0.029611554, -0.16592115, -949213.06, -12686.75, 0.0, 10.000463, 9.998775 
1.4450045e+3, 2.1443298e+2, -856621.6, -979212.9, 3099.4307, -0.025288263, -0.16522938, -856543.3, -18004.12, 0.0, 10.000419, 9.998789 
1.4450127e+3, 2.244318e+2, -769724.44, -864278.94, 8418.787, 0.0023340054, -0.17051847, -768980.7, -28429.408, 0.0, 10.000246, 9.998989 
1.4450212e+3, 2.3443064e+2, -716056.0, -779481.5, 8540.456, 0.056092065, -0.19354206, -714926.1, -72364.26, 0.0, 9.999907, 9.999063 
1.445029e+3, 2.444296e+2, -635595.25, -686673.9, 4253.6523, 0.052120253, -0.20231937, -635243.44, -90672.35, 0.0, 9.999771, 9.999092 
1.4450361e+3, 2.5442877e+2, -514985.75, -570133.94, -8453.1, -0.022805866, -0.20361105, -513719.13, -67141.1, 0.0, 9.999893, 9.99916 
1.445044e+3, 2.6442772e+2, -438717.9, -516761.84, 451.1556, -0.03339003, -0.20599818, -438715.3, -90128.08, 0.0, 9.999892, 9.998854 
1.4450528e+3, 2.744265e+2, -360761.6, -422168.16, 10964.086, 0.034459576, -0.22136694, -358862.7, -108263.95, 0.0, 9.999727, 9.998908 
1.445061e+3, 2.844252e+2, -254939.98, -305466.3, 12618.699, 0.04475932, -0.24413466, -251963.83, -99353.48, 0.0, 9.999716, 9.9990425 
1.4450684e+3, 2.9442397e+2, -127560.33, -190429.27, -646.89136, -0.009685925, -0.28277633, -127553.67, -72932.44, 0.0, 9.999904, 9.999069 
1.445077e+3, 3.0442372e+2, -133248.02, -240935.3, 7050.222, 0.031857368, -0.18027459, -132788.4, -132788.4, 0.0, 9.999847, 9.998416 
1.4450853e+3, 3.1442136e+2, -60912.414, -7521.7744, 27884.674, 0.03442181, -0.26678237, 4385.951, 4385.951, 0.0, 9.999484, 10.0001955 
1.4549339e+3, 1.2443014e+2, -1673690.6, -1823906.1, 32639.576, -0.11090389, -0.20154159, -1666905.0, 53657.387, 0.011640448, 10.000844, 9.998845 
1.4549413e+3, 1.3443007e+2, -1546619.5, -1576856.5, -30060.963, 0.011977937, -0.20479663, -1528089.4, 94474.695, 0.0068325973, 10.000457, 10.000058 
1.4549468e+3, 1.4442948e+2, -1499933.0, -1590578.0, 38738.836, -0.21940109, -0.23469819, -1485633.1, 38937.36, 0.0028915813, 10.000479, 9.999275 
1.454957e+3, 1.5442911e+2, -1328029.9, -1461385.3, 21875.31, -0.06659354, -0.1957794, -1324533.3, 102041.9, 0.00070428615, 10.001007, 9.999232 
1.4549656e+3, 1.6442865e+2, -1212677.5, -1341045.1, -8622.158, -0.01641506, -0.16883606, -1212101.0, 116479.51, 0.000058062662, 10.001063, 9.999359 
1.454973e+3, 1.7442814e+2, -1183728.1, -1267663.0, 357.12076, -0.0588497, -0.16666459, -1183726.6, 46859.4, 0.00000016567238, 10.00055, 9.999438 
1.4549811e+3, 1.8442751e+2, -1121316.5, -1187629.9, 1410.0529, -0.061874337, -0.16774885, -1121286.5, 11305.325, 0.0, 10.00031, 9.999431 
1.4549893e+3, 1.9442688e+2, -1002216.6, -1072466.0, -622.16656, -0.027505936, -0.18373647, -1002211.06, 32386.588, 0.0, 10.000425, 9.999493 
1.4549975e+3, 2.0442605e+2, -939261.6, -1055624.1, -5272.8315, -0.0013626211, -0.18480204, -939023.2, -2417.455, 0.0, 10.000461, 9.998919 
1.4550056e+3, 2.1442512e+2, -845413.5, -955983.1, 1756.4033, 0.020262986, -0.17702776, -845385.6, -6769.6343, 0.0, 10.000417, 9.99895 
1.4550132e+3, 2.2442408e+2, -768484.9, -860362.1, -4559.1045, 0.023141447, -0.17669824, -768259.2, -27632.982, 0.0, 10.000238, 9.99902 
1.4550205e+3, 2.3442298e+2, -714051.25, -775666.9, -3562.4412, 0.00055735395, -0.19618313, -713846.0, -71210.12, 0.0, 9.999907, 9.999088 
1.4550282e+3, 2.4442181e+2, -655003.44, -727287.5, 7823.191, -0.006111059, -0.20670846, -654166.44, -109519.65, 0.0, 9.999771, 9.998814 
1.4550363e+3, 2.5442058e+2, -536376.2, -613965.8, -2432.3684, 0.0068410602, -0.2167151, -536300.0, -89641.266, 0.0, 9.999889, 9.998861 
1.4550444e+3, 2.6441962e+2, -420834.03, -478452.03, -4434.5166, 0.019105548, -0.20853555, -420494.72, -71827.39, 0.0, 9.999886, 9.99912 
1.4550525e+3, 2.7441907e+2, -340169.38, -378411.75, 6305.655, 0.027963122, -0.1866701, -339156.47, -88485.72, 0.0, 9.9997225, 9.999211 
1.4550604e+3, 2.8441775e+2, -271139.94, -339427.7, 19565.799, 0.014257456, -0.21999526, -265931.25, -113249.09, 0.0, 9.999716, 9.998811 
1.4550683e+3, 2.944155e+2, -147849.06, -231697.08, 8803.873, -0.019763056, -0.33108693, -146934.64, -92231.73, 0.0, 9.999898, 9.99879 
1.455077e+3, 3.0441517e+2, -104701.04, -181718.39, -3846.8105, 0.028484363, -0.23821707, -104509.38, -104509.38, 0.0, 9.999846, 9.998824 
1.4550847e+3, 3.1441343e+2, -61675.625, -7428.2217, 12864.616, 0.02792281, -0.30930153, -4532.037, -4532.037, 0.0, 9.9994755, 10.0002 
1.4649342e+3, 1.2442248e+2, -1741080.9, -1858972.6, 12673.649, -0.12523325, -0.20353355, -1739733.8, -19097.332, 0.012283001, 10.000387, 9.998823 
1.4649421e+3, 1.3442208e+2, -1459068.9, -1538583.5, -40995.766, 0.008871324, -0.23790136, -1441718.5, 180922.52, 0.00723705, 10.00108, 10.000022 
1.4649476e+3, 1.4442146e+2, -1396506.3, -1543847.9, 35997.113, -0.21272393, -0.2655748, -1388182.1, 136465.3, 0.0030819494, 10.001209, 9.999241 
1.4649577e+3, 1.5442108e+2, -1378008.9, -1488805.3, 44238.203, -0.054632977, -0.22645421, -1362512.9, 64139.453, 0.0007585455, 10.000679, 9.999202 
1.4649664e+3, 1.6442062e+2, -1296136.5, -1372553.0, 20324.389, -0.005831102, -0.20012182, -1291067.1, 37590.293, 0.00006440502, 10.000454, 9.999435 
1.4649737e+3, 1.7442015e+2, -1168499.8, -1250302.6, 17732.787, -0.058455084, -0.20095342, -1164821.3, 65840.78, 0.00000022299002, 10.000616, 9.999523 
1.4649814e+3, 1.8441954e+2, -1092787.4, -1193220.1, 14534.053, -0.066316925, -0.20012526, -1090726.4, 41941.91, 0.0, 10.000592, 9.999254 
1.4649896e+3, 1.9441879e+2, -1026926.0, -1105939.1, 3537.3699, -0.03179875, -0.20616859, -1026767.94, 7908.1563, 0.0, 10.000351, 9.999297 
1.4649977e+3, 2.0441803e+2, -967824.3, -1046860.44, -2945.9976, -0.00016782798, -0.20073892, -967714.7, -31030.736, 0.0, 10.000169, 9.999119 
1.4650057e+3, 2.1441732e+2, -883437.75, -949538.44, 7098.651, 0.031872675, -0.191026, -882684.0, -43992.92, 0.0, 10.00005, 9.999171 
1.4650135e+3, 2.2441639e+2, -803394.44, -892631.5, -1702.6996, 0.031835545, -0.1842159, -803362.0, -62661.69, 0.0, 10.000066, 9.998882 
1.4650203e+3, 2.3441526e+2, -676207.1, -775244.1, -16482.832, -0.010502449, -0.19253463, -673535.9, -30824.355, 0.0, 10.000244, 9.998929 
1.4650281e+3, 2.4441403e+2, -593720.44, -700212.7, -4054.544, -0.014271579, -0.19932678, -593566.3, -48842.816, 0.0, 10.000204, 9.998791 
1.4650364e+3, 2.5441274e+2, -538450.44, -616500.25, 5374.2295, 0.029993294, -0.21485072, -538082.1, -91346.375, 0.0, 9.999883, 9.998846 
1.4650445e+3, 2.6441172e+2, -441833.06, -490456.03, 8341.005, 0.047438093, -0.21113376, -440442.0, -91697.414, 0.0, 9.99975, 9.999102 
1.4650522e+3, 2.744111e+2, -321860.72, -371962.84, -6446.8247, 0.029113583, -0.19349952, -321044.47, -70296.19, 0.0, 9.999857, 9.999191 
1.4650601e+3, 2.8440973e+2, -258603.45, -333339.13, 2718.9614, 0.01235601, -0.22938481, -258504.67, -105744.75, 0.0, 9.999802, 9.998811 
1.4650683e+3, 2.944075e+2, -197866.64, -255374.58, 10152.579, 0.0055555124, -0.33930942, -196126.92, -141346.27, 0.0, 9.999555, 9.998791 
1.4650767e+3, 3.0440727e+2, -131457.83, -154729.1, 6188.6895, 0.043224275, -0.255311, -129914.38, -129914.38, 0.0, 9.999491, 9.999179 
1.465084e+3, 3.1440583e+2, -39620.848, -1172.3446, 10719.6875, 0.0056508016, -0.3346004, 1614.3909, 1614.3909, 0.0, 9.999648, 10.000158 
1.474934e+3, 1.2441426e+2, -1738985.3, -1852275.6, 27551.766, -0.17785504, -0.24052568, -1732640.1, -11924.176, 0.012969934, 10.000376, 9.998875 
1.4749435e+3, 1.3441391e+2, -1459811.4, -1539818.5, -14870.486, 0.037531212, -0.26721287, -1457136.9, 165582.8, 0.0076708426, 10.00108, 10.000013 
1.4749493e+3, 1.4441358e+2, -1373761.3, -1500251.5, 16597.83, -0.16721448, -0.28179124, -1371619.6, 153103.38, 0.0032881629, 10.001222, 9.999536 
1.4749582e+3, 1.5441324e+2, -1354991.6, -1441501.0, 24277.723, -0.073244385, -0.269619, -1348644.1, 78081.75, 0.00081847684, 10.000679, 9.999527 
1.4749667e+3, 1.6441274e+2, -1298495.5, -1376555.9, 23140.5, -0.034348972, -0.2646907, -1292151.3, 36579.363, 0.000071419374, 10.00045, 9.999411 
1.4749746e+3, 1.7441203e+2, -1171845.3, -1257690.5, 23797.969, -0.031592615, -0.28441802, -1165689.4, 65047.96, 0.0000002932695, 10.000617, 9.999472 
1.4749824e+3, 1.8441132e+2, -1112545.4, -1235498.5, 5114.851, -0.030722434, -0.27663365, -1112333.0, 20412.404, 0.0, 10.000596, 9.998963 
1.4749898e+3, 1.9441068e+2, -1047589.4, -1150269.9, -5425.838, -0.040968645, -0.24233502, -1047303.44, -12549.276, 0.0, 10.000355, 9.998992 
1.4749976e+3, 2.0441009e+2, -951322.75, -1011680.6, -8725.287, -0.031241138, -0.21468881, -950086.75, -13325.914, 0.0, 10.000163, 9.999364 
1.4750056e+3, 2.1440963e+2, -863785.8, -908989.44, 2916.421, 0.007277239, -0.20704183, -863598.44, -24834.104, 0.0, 10.000051, 9.99945 
1.4750135e+3, 2.2440878e+2, -825879.94, -939049.6, 3675.3965, 0.026654253, -0.19309345, -825760.7, -84987.35, 0.0, 10.000063, 9.998566 
1.475021e+3, 2.3440748e+2, -701209.94, -826893.06, -8902.398, 0.019037722, -0.18221527, -700582.5, -57793.734, 0.0, 10.000241, 9.998576 
1.4750287e+3, 2.4440627e+2, -579104.9, -668593.0, -15049.944, 0.023305153, -0.18034764, -576641.6, -31840.383, 0.0, 10.000197, 9.999011 
1.4750364e+3, 2.544052e+2, -520782.13, -579002.6, -5505.0186, 0.043297272, -0.19877596, -520266.16, -73456.96, 0.0, 9.999879, 9.999106 
1.4750443e+3, 2.64404e+2, -462331.2, -533623.44, 12214.767, 0.04925895, -0.21464519, -460296.47, -111477.34, 0.0, 9.999751, 9.998806 
1.4750521e+3, 2.744026e+2, -345968.28, -421302.3, -441.31308, 0.034445163, -0.23976158, -345965.7, -95134.61, 0.0, 9.999852, 9.998856 
1.4750601e+3, 2.844012e+2, -244465.03, -302995.94, -5183.23, 0.0344015, -0.2693753, -244009.56, -91166.19, 0.0, 9.999797, 9.999021 
1.4750683e+3, 2.9439995e+2, -181905.0, -220530.61, 2899.0925, 0.060388185, -0.30821952, -181688.63, -126833.83, 0.0, 9.999547, 9.999034 
1.4750764e+3, 3.043999e+2, -108162.8, -106764.74, 12033.572, 0.07201604, -0.2343625, -95409.914, -95409.914, 0.0, 9.99949, 9.99951 
1.4750832e+3, 3.1439868e+2, -44716.79, -11293.592, 16787.582, -0.04042639, -0.32062304, -4317.632, -4317.632, 0.0, 9.999644, 10.000092 
1.4849345e+3, 1.2440582e+2, -1659973.1, -1787135.1, 13397.097, -0.18818934, -0.27459356, -1658577.0, 62221.9, 0.013700743, 10.000813, 9.99911 
1.4849444e+3, 1.344061e+2, -1520236.0, -1550879.4, -9014.726, 0.045303896, -0.25671658, -1517780.8, 105015.43, 0.00813248, 10.000584, 10.000176 
1.4849503e+3, 1.4440607e+2, -1469206.4, -1540560.9, 6840.804, -0.15233405, -0.24966599, -1468556.5, 56239.4, 0.0035089266, 10.000541, 9.999587 
1.4849591e+3, 1.5440543e+2, -1343480.3, -1429597.1, -7928.779, -0.06149165, -0.27387288, -1342756.3, 84045.13, 0.0008836724, 10.000732, 9.999581 
1.4849673e+3, 1.6440478e+2, -1259719.3, -1368368.5, -14803.545, -0.028278783, -0.28087544, -1257738.4, 71069.19, 0.00007901186, 10.000765, 9.999313 
1.4849752e+3, 1.7440414e+2, -1178784.1, -1273216.9, -20111.664, -0.03584954, -0.28290915, -1174679.3, 56135.145, 0.00000037325287, 10.000623, 9.999363 
1.484983e+3, 1.8440348e+2, -1121843.8, -1232797.0, -34508.57, -0.03176215, -0.2684122, -1111986.6, 20835.596, 0.0, 10.000502, 9.999027 
1.4849904e+3, 1.9440284e+2, -1035494.7, -1135554.9, -18282.035, -0.023578405, -0.23931745, -1032259.0, 2571.2625, 0.0, 10.0004015, 9.999069 
1.4849979e+3, 2.0440224e+2, -930083.5, -1002383.6, -11797.437, -0.017136848, -0.21822171, -928207.2, 8629.832, 0.0, 10.000316, 9.999353 
1.4850056e+3, 2.1440168e+2, -837150.1, -898409.3, -23711.168, -0.0098761255, -0.21946754, -829044.9, 9796.868, 0.0, 10.000244, 9.999429 
1.4850134e+3, 2.2440085e+2, -807187.25, -922885.06, -15867.298, 0.0063757203, -0.20529953, -805050.56, -64199.832, 0.0, 10.000163, 9.998628 
1.4850213e+3, 2.3439972e+2, -722341.75, -830400.7, 1272.3468, 0.030104095, -0.18279152, -722326.75, -79462.19, 0.0, 10.000069, 9.998634 
1.4850289e+3, 2.4439861e+2, -598910.4, -678275.0, -935.5734, 0.04476472, -0.17309122, -598899.3, -54023.29, 0.0, 10.000064, 9.999008 
1.4850365e+3, 2.5439757e+2, -480383.22, -560682.8, -13790.568, 0.048883904, -0.18928424, -478080.88, -31197.063, 0.0, 10.000162, 9.999095 
1.4850442e+3, 2.643962e+2, -420934.53, -529738.56, 153.49031, 0.04856179, -0.21294479, -420934.3, -72039.016, 0.0, 10.000107, 9.998661 
1.485052e+3, 2.7439445e+2, -355124.72, -442664.63, -146.44348, 0.03913547, -0.25872442, -355124.47, -104213.445, 0.0, 9.999865, 9.998702 
1.48506e+3, 2.843931e+2, -261366.11, -303036.2, -6273.6704, 0.04334859, -0.28027204, -260442.06, -107518.91, 0.0, 9.999648, 9.999091 
1.485068e+3, 2.9439235e+2, -188556.17, -214714.6, -13075.011, 0.0723323, -0.2763404, -183141.56, -128211.99, 0.0, 9.999463, 9.999114 
1.485076e+3, 3.0439207e+2, -110552.055, -86726.44, -2790.6223, 0.073118076, -0.23714578, -86403.945, -86403.945, 0.0, 9.999384, 9.999698 
1.4850828e+3, 3.1439123e+2, -78843.14, -29400.518, -10813.913, -0.035053656, -0.30749676, -27138.797, -27138.797, 0.0, 9.999418, 10.000074 
1.4949356e+3, 1.24397285e+2, -1632730.0, -1729353.6, -8102.2983, -0.16069925, -0.30068415, -1632055.4, 88828.61, 0.014485369, 10.000812, 9.999507 
1.4949448e+3, 1.3439867e+2, -1499979.4, -1506990.4, -17731.725, 0.031937692, -0.20588176, -1485410.0, 137459.81, 0.008627366, 10.000576, 10.0004835 
1.4949507e+3, 1.4439903e+2, -1482371.8, -1567538.1, 11077.807, -0.1696892, -0.16710758, -1480954.4, 43911.19, 0.0037456865, 10.000537, 9.999404 
1.4949602e+3, 1.5439771e+2, -1358684.3, -1461472.4, -811.9705, -0.024773076, -0.23795888, -1358677.8, 68200.73, 0.0009542572, 10.000733, 9.999364 
1.4949684e+3, 1.6439684e+2, -1271799.6, -1394856.9, -21038.324, 0.0055379565, -0.24660094, -1268302.3, 60585.59, 0.00008722728, 10.000769, 9.99913 
1.4949755e+3, 1.7439654e+2, -1191347.3, -1299966.5, -25655.645, -0.07362803, -0.19615746, -1185592.4, 45300.344, 0.0000004647829, 10.000625, 9.999179 
1.494983e+3, 1.8439604e+2, -1093091.3, -1172707.4, -39701.695, -0.073307425, -0.17469224, -1076677.4, 56221.0, 0.0, 10.000499, 9.999441 
1.4949912e+3, 1.9439535e+2, -1003123.3, -1069393.4, -22026.004, 0.01740675, -0.19678466, -996470.5, 38433.582, 0.0, 10.000405, 9.999522 
1.494999e+3, 2.043945e+2, -949434.1, -1042678.25, -15415.355, 0.039219033, -0.2115228, -946951.75, -10039.496, 0.0, 10.000315, 9.999078 
1.4950058e+3, 2.1439347e+2, -859361.3, -944655.56, -26050.898, -0.022617145, -0.22851704, -852034.2, -13111.108, 0.0, 10.000243, 9.999112 
1.4950131e+3, 2.2439258e+2, -778382.4, -862146.75, -20174.453, -0.032960694, -0.22167426, -773776.6, -32844.27, 0.0, 10.000157, 9.999047 
1.4950213e+3, 2.3439199e+2, -689532.06, -761795.25, -1703.0193, 0.019878045, -0.1939338, -689491.94, -46553.055, 0.0, 10.000067, 9.999107 
1.495029e+3, 2.4439108e+2, -616184.56, -713810.7, 2577.999, 0.047592998, -0.17702456, -616116.56, -71168.67, 0.0, 10.000061, 9.998767 
1.4950366e+3, 2.5438982e+2, -501472.97, -603433.94, -8654.452, 0.04419042, -0.185296, -500743.6, -53784.07, 0.0, 10.000157, 9.998804 
1.4950442e+3, 2.6438832e+2, -421323.4, -529427.9, -7802.0938, 0.04209806, -0.20588258, -420763.22, -71790.03, 0.0, 10.000101, 9.998666 
1.4950518e+3, 2.743866e+2, -353565.75, -438843.5, -7482.8525, 0.039202385, -0.2517276, -352914.13, -101925.664, 0.0, 9.999862, 9.99873 
1.4950596e+3, 2.8438535e+2, -266239.72, -314646.4, -12411.215, 0.035875205, -0.26345444, -263243.06, -110243.42, 0.0, 9.999653, 9.99901 
1.4950672e+3, 2.943847e+2, -196131.22, -229792.42, -17869.135, 0.037106443, -0.24200168, -188414.4, -133409.34, 0.0, 9.999458, 9.999014 
1.495075e+3, 3.0438375e+2, -107609.19, -79728.375, -1483.1759, 0.041661736, -0.2619007, -79649.695, -79649.695, 0.0, 9.99938, 9.999748 
1.4950828e+3, 3.1438336e+2, -75145.2, -20714.502, -6213.133, 0.010876364, -0.29541558, -20014.295, -20014.295, 0.0, 9.999415, 10.000135 
1.5049367e+3, 1.24389715e+2, -1667204.4, -1754293.1, 13743.65, -0.13408065, -0.26517063, -1665087.0, 55871.848, 0.015336017, 10.000606, 9.999436 
1.5049456e+3, 1.3439053e+2, -1436218.9, -1496422.8, -21797.447, 0.032980163, -0.20780462, -1429155.6, 193794.34, 0.009162785, 10.001106, 10.000302 
1.5049514e+3, 1.4439072e+2, -1385547.8, -1531093.4, -14195.595, -0.18550503, -0.17388089, -1384176.1, 140771.69, 0.0040015904, 10.001251, 9.999309 
1.504961e+3, 1.5438952e+2, -1325924.3, -1455269.5, -19035.008, -0.036777165, -0.22433054, -1323181.1, 103778.73, 0.001031135, 10.000999, 9.999278 
1.5049693e+3, 1.6438872e+2, -1271456.9, -1391761.5, -31379.691, 0.0051287254, -0.22190602, -1263763.9, 65204.766, 0.000096309515, 10.000757, 9.999158 
1.5049762e+3, 1.7438844e+2, -1205493.0, -1302294.9, -20706.443, -0.05072064, -0.17303449, -1201249.8, 29723.6, 0.000000575819, 10.000508, 9.999219 
1.5049836e+3, 1.8438795e+2, -1102514.1, -1158518.8, -28666.822, -0.050619867, -0.1602834, -1090442.6, 42535.88, 0.0, 10.000356, 9.999606 
1.5049917e+3, 1.9438727e+2, -999931.75, -1049113.1, -33530.273, 0.0068231793, -0.20012996, -982941.4, 52041.75, 0.0, 10.000347, 9.999689 
1.504999e+3, 2.0438641e+2, -949460.2, -1051305.4, -29818.525, 0.024472842, -0.21872932, -941372.2, -4381.0596, 0.0, 10.000353, 9.999 
1.5050061e+3, 2.1438542e+2, -847686.2, -949621.44, -25135.72, -0.004843302, -0.22203507, -841825.1, -2822.554, 0.0, 10.000371, 9.999016 
1.5050136e+3, 2.2438464e+2, -739574.8, -819202.5, -19937.328, -0.008726032, -0.21210535, -734861.8, 6149.203, 0.0, 10.000321, 9.999263 
1.5050213e+3, 2.3438415e+2, -656529.4, -719925.9, -21110.29, 0.017281886, -0.19481023, -650143.25, -7128.3726, 0.0, 10.000183, 9.999338 
1.505029e+3, 2.4438328e+2, -627144.0, -723983.5, -16786.188, 0.036985412, -0.18480164, -624316.8, -79293.69, 0.0, 10.000009, 9.99872 
1.5050367e+3, 2.5438192e+2, -558046.7, -637894.9, -13155.436, 0.04764741, -0.19692019, -555935.06, -108898.47, 0.0, 9.999802, 9.998738 
1.5050443e+3, 2.6438043e+2, -462715.7, -541644.7, 1394.738, 0.0501747, -0.21536891, -462691.06, -113640.6, 0.0, 9.999785, 9.9987335 
1.5050519e+3, 2.743789e+2, -327338.3, -417751.56, 3881.215, 0.04124957, -0.24970452, -327172.0, -76108.29, 0.0, 10.000008, 9.998804 
1.5050593e+3, 2.843777e+2, -216293.55, -301592.66, -5816.9497, 0.031987112, -0.25516117, -215898.69, -62824.54, 0.0, 10.000045, 9.998911 
1.5050666e+3, 2.9437688e+2, -146534.52, -217988.08, -14437.252, 0.026150588, -0.23661347, -143727.72, -88647.05, 0.0, 9.999853, 9.998904 
1.5050744e+3, 3.0437535e+2, -85839.47, -102702.35, -4125.8765, 0.029095767, -0.30138308, -84884.11, -84884.11, 0.0, 9.999674, 9.99945 
1.5050824e+3, 3.1437528e+2, -70596.664, -32723.078, -36503.605, 0.03774438, -0.27024737, -10536.701, -10536.701, 0.0, 9.999506, 10.0000105 
1.5149376e+3, 1.24383256e+2, -1704742.3, -1830768.1, 16934.832, -0.10759718, -0.1575851, -1702506.3, 18515.586, 0.01625663, 10.000595, 9.998916 
1.514947e+3, 1.3438179e+2, -1482606.4, -1592573.4, -2917.8174, 0.042934515, -0.26277372, -1482529.0, 140507.05, 0.0097409645, 10.001105, 9.999637 
1.5149525e+3, 1.4438118e+2, -1387251.0, -1535220.9, -24026.213, -0.20716253, -0.27025136, -1383447.5, 141594.44, 0.0042781597, 10.001253, 9.99928 
1.5149613e+3, 1.5438087e+2, -1324205.4, -1452383.8, -28480.73, -0.099905156, -0.23341519, -1318162.0, 108883.266, 0.0011151112, 10.001001, 9.999298 
1.5149696e+3, 1.6438046e+2, -1252988.9, -1353983.0, -42153.656, -0.0330399, -0.2063501, -1237706.9, 91342.78, 0.000106548556, 10.000758, 9.999417 
1.5149775e+3, 1.743799e+2, -1186579.3, -1263263.0, -30289.37, 0.028791843, -0.21406005, -1176058.6, 54997.13, 0.0000007145684, 10.000508, 9.999487 
1.5149848e+3, 1.8437925e+2, -1109813.6, -1173468.5, -30480.205, 0.031458028, -0.22597976, -1097572.6, 35489.297, 0.0, 10.000354, 9.999506 
1.5149912e+3, 1.943786e+2, -1008414.56, -1067239.5, -33687.215, -0.057233952, -0.24911863, -993106.56, 41960.652, 0.0, 10.000348, 9.999565 
1.5149985e+3, 2.0437802e+2, -942313.75, -1036120.8, -30229.447, -0.06396854, -0.23982853, -933416.2, 3657.1792, 0.0, 10.00035, 9.999105 
1.515007e+3, 2.1437758e+2, -839838.75, -932378.7, -24188.105, 0.03981494, -0.19969907, -833897.9, 5182.0815, 0.0, 10.000366, 9.999137 
1.5150148e+3, 2.2437698e+2, -740454.1, -819582.0, -25366.078, 0.07500673, -0.17663565, -733020.75, 8065.711, 0.0, 10.000315, 9.999264 
1.5150215e+3, 2.3437624e+2, -657110.1, -721123.4, -25476.273, 0.020793622, -0.18547131, -648208.75, -5116.4033, 0.0, 10.000182, 9.9993305 
1.5150286e+3, 2.4437521e+2, -617635.44, -704181.9, -24340.912, 0.0100408755, -0.19688275, -611259.4, -66157.66, 0.0, 10.000008, 9.9988575 
1.5150365e+3, 2.5437385e+2, -547659.5, -615930.4, -19662.447, 0.05523022, -0.22389115, -542401.56, -95286.555, 0.0, 9.999799, 9.998891 
1.5150441e+3, 2.6437253e+2, -455026.9, -525357.0, 9659.912, 0.06917818, -0.24056779, -453724.25, -104597.06, 0.0, 9.9997835, 9.998846 
1.5150519e+3, 2.7437133e+2, -321007.22, -403254.88, 14185.519, 0.042401224, -0.2509057, -318629.34, -67492.4, 0.0, 10.000001, 9.998907 
1.5150593e+3, 2.8437015e+2, -224146.28, -317125.4, -11905.342, 0.028295781, -0.2535662, -222646.08, -69499.25, 0.0, 10.00004, 9.998808 
1.5150666e+3, 2.9436898e+2, -154914.0, -235511.58, -19954.617, 0.03357929, -0.26055288, -150244.14, -95087.57, 0.0, 9.999852, 9.998785 
1.515074e+3, 3.0436674e+2, -130639.87, -197153.27, -9332.907, 0.030318093, -0.35750368, -129355.125, -129355.125, 0.0, 9.999679, 9.998799 
1.515082e+3, 3.1436673e+2, -90541.055, -72082.55, -35624.51, 0.03590476, -0.25154674, -44511.188, -44511.188, 0.0, 9.999496, 9.999746 
1.5249385e+3, 1.2437557e+2, -1591822.4, -1790129.9, 9992.165, -0.1202757, -0.17156692, -1591320.3, 129775.305, 0.017243471, 10.001448, 9.998783 
1.5249482e+3, 1.3437387e+2, -1501626.0, -1628432.8, 32294.078, 0.06967913, -0.27817225, -1493875.4, 129237.37, 0.010359546, 10.001089, 9.999398 
1.524954e+3, 1.4437312e+2, -1430455.3, -1556727.9, 25865.9, -0.17470372, -0.2853844, -1425362.3, 99758.11, 0.0045741852, 10.000955, 9.999279 
1.5249623e+3, 1.5437281e+2, -1312199.3, -1443743.5, 20745.123, -0.09717467, -0.2501952, -1309005.3, 118118.24, 0.0012060112, 10.001071, 9.999324 
1.5249704e+3, 1.643724e+2, -1214668.5, -1323683.1, -5434.0957, -0.044983767, -0.22986114, -1214398.3, 114729.305, 0.000118081814, 10.000973, 9.999521 
1.524978e+3, 1.7437181e+2, -1160900.3, -1239121.5, -8267.411, 0.01903081, -0.25124514, -1160036.0, 71097.12, 0.0000008766353, 10.000634, 9.999592 
1.5249853e+3, 1.8437123e+2, -1104351.6, -1178412.3, -3578.0464, 0.02860428, -0.2594683, -1104179.1, 28959.563, 0.0, 10.0004225, 9.999439 
1.5249917e+3, 1.9437078e+2, -1011015.4, -1077236.3, -3271.4683, -0.047512498, -0.2553255, -1010854.2, 24288.854, 0.0, 10.000368, 9.999487 
1.5249988e+3, 2.0437026e+2, -947275.4, -1032460.44, 385.07123, -0.05157271, -0.23814565, -947273.6, -10124.754, 0.0, 10.000292, 9.999158 
1.5250072e+3, 2.143697e+2, -860893.56, -936549.56, -66.06978, 0.04068718, -0.21461701, -860893.5, -21737.31, 0.0, 10.000196, 9.99919 
1.525015e+3, 2.2436905e+2, -763347.4, -828843.25, -3055.5984, 0.071787134, -0.20016196, -763205.2, -22042.158, 0.0, 10.000151, 9.999278 
1.5250218e+3, 2.3436834e+2, -657750.56, -720064.3, -3923.5737, 0.021683699, -0.20766915, -657504.5, -14335.984, 0.0, 10.000174, 9.999341 
1.525029e+3, 2.4436736e+2, -584435.2, -689374.3, -6389.2427, 0.011512704, -0.2134506, -584047.6, -38870.055, 0.0, 10.000242, 9.998846 
1.5250365e+3, 2.5436613e+2, -466656.9, -578642.8, -15246.434, 0.05230364, -0.22791839, -464618.28, -17427.982, 0.0, 10.000364, 9.998874 
1.5250441e+3, 2.6436487e+2, -389245.4, -487964.44, 2160.8667, 0.06790835, -0.23835187, -389198.13, -39996.184, 0.0, 10.000213, 9.998897 
1.5250519e+3, 2.743637e+2, -360490.16, -416139.97, 780.9636, 0.05040559, -0.25361046, -360479.22, -109267.766, 0.0, 9.999705, 9.998961 
1.5250593e+3, 2.8436252e+2, -299555.56, -357224.88, -16596.191, 0.039799094, -0.25461292, -295120.53, -141899.42, 0.0, 9.99954, 9.998773 
1.5250665e+3, 2.9436144e+2, -163292.4, -244032.22, -20694.207, 0.039455883, -0.2480965, -158297.36, -103066.95, 0.0, 9.999816, 9.998744 
1.5250738e+3, 3.0435896e+2, -136212.64, -233008.31, -5545.898, 0.028116146, -0.35268694, -135895.92, -135895.92, 0.0, 9.999785, 9.998501 
1.5250814e+3, 3.1435856e+2, -100474.016, -64951.082, -2393.0564, 0.04490916, -0.25777954, -64790.594, -64790.594, 0.0, 9.999378, 9.999851 
1.5349393e+3, 1.2436669e+2, -1575625.9, -1756149.3, -18994.152, -0.17574996, -0.30837485, -1573649.0, 147530.34, 0.018292114, 10.001449, 9.999017 
1.5349497e+3, 1.3436678e+2, -1489150.0, -1604247.8, 19096.225, 0.109128155, -0.25526616, -1486064.4, 137115.48, 0.011016453, 10.001094, 9.999564 
1.5349557e+3, 1.4436659e+2, -1427446.6, -1549713.3, 27538.209, -0.09165845, -0.21804024, -1421530.5, 103651.99, 0.0048880493, 10.000953, 9.999328 
1.5349641e+3, 1.5436542e+2, -1310153.5, -1438090.3, 25239.95, -0.031624008, -0.27426687, -1305354.1, 121839.78, 0.0013030368, 10.001066, 9.999365 
1.5349714e+3, 1.6436459e+2, -1219511.4, -1333987.5, -18300.715, -0.03604441, -0.2925121, -1216656.9, 112544.77, 0.00013086536, 10.000972, 9.999452 
1.5349777e+3, 1.7436422e+2, -1165266.9, -1249675.6, -20733.982, -0.08293375, -0.28415537, -1160448.9, 70756.34, 0.0000010420176, 10.000639, 9.999518 
1.5349847e+3, 1.8436392e+2, -1106439.1, -1182953.8, -7292.108, -0.06297038, -0.25980085, -1105750.4, 27458.09, 0.0, 10.0004225, 9.999409 
1.5349928e+3, 1.943638e+2, -1013737.94, -1082238.4, -5138.84, 0.031818956, -0.21934204, -1013354.56, 21855.754, 0.0, 10.000364, 9.999455 
1.5350004e+3, 2.0436312e+2, -948801.44, -1034935.06, -3931.1587, 0.05681674, -0.21447843, -948622.4, -11404.835, 0.0, 10.000287, 9.999145 
1.5350069e+3, 2.1436182e+2, -861876.9, -938748.5, -2955.6055, -0.003908211, -0.26671925, -861763.44, -22532.332, 0.0, 10.0001955, 9.999176 
1.5350142e+3, 2.2436085e+2, -762655.44, -826959.44, -3034.56, -0.020991813, -0.28201267, -762512.56, -21272.248, 0.0, 10.000148, 9.999293 
1.5350218e+3, 2.3436046e+2, -657109.4, -717872.9, -2099.5437, 0.016975868, -0.26079872, -657036.9, -13793.598, 0.0, 10.000169, 9.99936 
1.5350294e+3, 2.4435973e+2, -597078.3, -714067.75, -2020.7347, 0.037560567, -0.23428914, -597043.4, -51792.766, 0.0, 10.000236, 9.99868 
1.5350367e+3, 2.543587e+2, -480246.38, -606465.2, -9036.784, 0.03686231, -0.20875768, -479602.66, -32340.11, 0.0, 10.000361, 9.998685 
1.5350442e+3, 2.6435745e+2, -389337.25, -488646.84, -14745.955, 0.043253757, -0.20967887, -387193.97, -37919.055, 0.0, 10.000213, 9.998892 
1.5350516e+3, 2.7435592e+2, -359523.47, -414787.72, -16466.305, 0.0594282, -0.2604129, -354989.25, -103701.805, 0.0, 9.999706, 9.998971 
1.535059e+3, 2.843548e+2, -298973.16, -355885.6, -6898.845, 0.060803562, -0.2599574, -298148.84, -144851.6, 0.0, 9.999539, 9.998783 
1.5350664e+3, 2.943543e+2, -163857.75, -243582.48, -8029.361, 0.041153602, -0.19629389, -163057.13, -107755.04, 0.0, 9.999808, 9.998752 
1.5350735e+3, 3.04352e+2, -132848.61, -224599.89, -19033.068, 0.021004852, -0.2846925, -129057.03, -129057.03, 0.0, 9.999778, 9.998564 
1.535081e+3, 3.1435034e+2, -67001.445, 5065.178, -8848.521, 0.049685143, -0.32081717, 6135.719, 6135.719, 0.0, 9.999374, 10.000335 
1.5449408e+3, 1.2435863e+2, -1619128.3, -1769194.3, -51474.83, -0.16132961, -0.3394881, -1603168.9, 118088.65, 0.019402182, 10.001111, 9.999092 
1.5449509e+3, 1.3435902e+2, -1436782.9, -1576693.1, -9213.167, 0.10546146, -0.2578197, -1436178.8, 187076.52, 0.011713042, 10.0014515, 9.999583 
1.5449567e+3, 1.4435902e+2, -1363315.6, -1509591.4, -13920.657, -0.09593966, -0.20549308, -1362002.6, 163253.42, 0.005220401, 10.001358, 9.999408 
1.544965e+3, 1.5435794e+2, -1353092.3, -1448884.4, -15848.903, -0.018888315, -0.26152143, -1350538.1, 76728.59, 0.0014059248, 10.000728, 9.9994545 
1.5449722e+3, 1.6435717e+2, -1290091.9, -1364815.4, -45578.82, -0.025797041, -0.28101966, -1268518.8, 60755.31, 0.00014487762, 10.000472, 9.999482 
1.5449782e+3, 1.7435682e+2, -1155425.0, -1241970.1, -40878.293, -0.098886974, -0.27504367, -1139169.9, 92107.37, 0.000001197513, 10.000693, 9.999545 
1.5449852e+3, 1.843564e+2, -1069805.9, -1176027.6, -28512.043, -0.077900045, -0.25647506, -1062636.6, 70644.92, 0.0, 10.000722, 9.999311 
1.5449934e+3, 1.9435608e+2, -1000265.9, -1087786.3, -33848.574, 0.048987485, -0.22639708, -988702.6, 46583.16, 0.0, 10.000509, 9.999347 
1.5450008e+3, 2.0435539e+2, -935041.94, -1014455.3, -29361.475, 0.08030563, -0.22202866, -925365.25, 11927.728, 0.0, 10.000323, 9.999267 
1.5450072e+3, 2.1435434e+2, -854683.8, -919742.5, -18428.008, -0.00737503, -0.26167446, -849826.6, -10523.484, 0.0, 10.000179, 9.999314 
1.5450142e+3, 2.2435342e+2, -775275.0, -838678.06, -9980.979, -0.033814862, -0.2793199, -773740.94, -32429.045, 0.0, 10.000087, 9.999242 
1.545022e+3, 2.3435274e+2, -677044.2, -735167.0, -16238.429, 0.016738405, -0.2795915, -672815.2, -29497.232, 0.0, 10.000066, 9.99929 
1.5450296e+3, 2.4435195e+2, -617925.5, -716012.6, -7958.852, 0.04217954, -0.25718278, -617283.9, -71958.04, 0.0, 10.000058, 9.998752 
1.545037e+3, 2.543512e+2, -517138.1, -615204.8, 2718.718, 0.03465342, -0.21304734, -517062.78, -69727.73, 0.0, 10.000071, 9.998765 
1.5450442e+3, 2.6435003e+2, -419654.44, -506252.38, -5854.3877, 0.037665542, -0.20736712, -419260.47, -69913.9, 0.0, 10.000019, 9.998865 
1.5450513e+3, 2.7434838e+2, -335222.47, -407161.9, -13118.26, 0.055059142, -0.26853952, -332905.0, -81544.18, 0.0, 9.999892, 9.998933 
1.5450586e+3, 2.8434715e+2, -265394.34, -329686.44, 10169.251, 0.059298936, -0.27968195, -263824.2, -110452.305, 0.0, 9.999729, 9.998872 
1.5450661e+3, 2.9434666e+2, -205405.47, -252688.64, 13665.014, 0.045363612, -0.22360376, -201740.33, -146363.36, 0.0, 9.999478, 9.998848 
1.545073e+3, 3.0434504e+2, -200323.53, -233585.9, 1430.9482, 0.029846445, -0.2584403, -200262.08, -200262.08, 0.0, 9.999216, 9.998771 
1.5450801e+3, 3.1434354e+2, -90574.195, 44759.91, 23693.252, 0.053806644, -0.30166143, 48788.047, 48788.047, 0.0, 9.998997, 10.000788 
1.5549427e+3, 1.2435152e+2, -1626617.3, -1780254.4, -60412.047, -0.075013876, -0.25323242, -1605708.1, 115620.914, 0.020579461, 10.001095, 9.999023 
1.554952e+3, 1.3435064e+2, -1445382.6, -1593893.3, 3528.2126, 0.0557538, -0.28556833, -1445298.9, 178039.58, 0.012454377, 10.001451, 9.999464 
1.5549573e+3, 1.4435048e+2, -1356058.6, -1496015.5, -37044.004, -0.19392732, -0.24856067, -1346858.5, 178482.38, 0.005574592, 10.001363, 9.9995 
1.5549655e+3, 1.5435043e+2, -1344128.0, -1432237.4, -39575.76, -0.06555697, -0.21271147, -1328962.3, 98379.58, 0.001515748, 10.000733, 9.999567 
1.5549728e+3, 1.6435017e+2, -1280762.0, -1345188.4, -40532.125, -0.019227933, -0.19479856, -1261201.3, 68143.125, 0.00016035176, 10.000471, 9.999618 
1.5549795e+3, 1.7434958e+2, -1146959.9, -1223475.1, -32393.432, -0.03165516, -0.22393158, -1135087.9, 96261.29, 0.0000013687348, 10.0006895, 9.999675 
1.5549864e+3, 1.8434872e+2, -1082520.1, -1201903.8, -36356.23, -0.02161189, -0.24924865, -1072320.0, 61037.516, 0.0, 10.000718, 9.999136 
1.5549935e+3, 1.9434763e+2, -1013484.7, -1115957.0, -41361.605, 0.0019623884, -0.27561697, -998873.06, 36496.03, 0.0, 10.000511, 9.999153 
1.5550005e+3, 2.0434709e+2, -917649.5, -978441.8, -35697.527, 0.01683733, -0.25991675, -901160.25, 36214.676, 0.0, 10.000322, 9.999516 
1.5550077e+3, 2.143473e+2, -836103.3, -879719.0, -23371.363, 0.026032953, -0.19984677, -825945.5, 13426.893, 0.0, 10.000172, 9.999593 
1.5550148e+3, 2.2434673e+2, -784413.06, -856376.4, -11658.219, 0.027676996, -0.19280839, -782571.56, -41193.832, 0.0, 10.00008, 9.999125 
1.555022e+3, 2.3434517e+2, -687865.44, -757641.8, -15902.082, 0.019062523, -0.26481324, -684412.2, -41019.758, 0.0, 10.000064, 9.999137 
1.5550295e+3, 2.4434406e+2, -597356.56, -673051.25, -7064.167, 0.022219356, -0.2828712, -596703.0, -51299.73, 0.0, 10.000056, 9.999049 
1.555037e+3, 2.5434357e+2, -494568.56, -567723.1, 4754.82, 0.040868662, -0.24188524, -494260.8, -46852.813, 0.0, 10.000067, 9.999094 
1.5550444e+3, 2.643426e+2, -423881.7, -513879.1, -9586.684, 0.04709785, -0.2311929, -422871.84, -73454.766, 0.0, 10.000013, 9.998816 
1.5550512e+3, 2.7434108e+2, -341677.22, -420385.16, -15515.9795, 0.03581538, -0.27439153, -338728.94, -87297.55, 0.0, 9.99989, 9.998844 
1.555058e+3, 2.843396e+2, -253281.34, -304861.47, 2353.6748, 0.03261306, -0.3119469, -253174.17, -99729.05, 0.0, 9.999728, 9.9990425 
1.5550655e+3, 2.943385e+2, -191988.89, -225226.8, 6112.841, 0.042606067, -0.33515945, -190900.31, -135444.67, 0.0, 9.999477, 9.999038 
1.5550724e+3, 3.0433804e+2, -179437.55, -189156.6, -6507.833, 0.045402177, -0.27861863, -176175.08, -176175.08, 0.0, 9.999211, 9.999079 
1.555079e+3, 3.1433803e+2, -65414.51, 97109.87, 22503.318, 0.051322363, -0.20566987, 100168.15, 100168.15, 0.0, 9.998995, 10.00115 
1.564944e+3, 1.24344125e+2, -1595854.9, -1758478.9, -45814.277, -0.06820324, -0.22535002, -1583836.3, 137565.83, 0.02183582, 10.001284, 9.999081 
1.5649532e+3, 1.3434291e+2, -1473888.5, -1606384.9, 43718.66, 0.05393141, -0.29502606, -1460763.3, 162651.1, 0.013248415, 10.001246, 9.999477 
1.5649585e+3, 1.4434262e+2, -1392570.5, -1515242.9, -14657.507, -0.19493712, -0.26841053, -1390843.4, 134573.88, 0.0059555885, 10.001118, 9.999486 
1.564966e+3, 1.5434255e+2, -1319456.4, -1421450.3, -29633.174, -0.07694873, -0.23416394, -1311471.9, 115946.58, 0.0016345053, 10.00091, 9.999555 
1.5649734e+3, 1.6434233e+2, -1240568.6, -1328707.6, -23290.83, -0.020428935, -0.20969528, -1234792.5, 94628.11, 0.00017771397, 10.000762, 9.999589 
1.5649804e+3, 1.743419e+2, -1149990.1, -1228288.1, -27911.129, 0.0043490655, -0.21961188, -1141059.3, 90364.9, 0.0000016137079, 10.000686, 9.999642 
1.5649875e+3, 1.8434106e+2, -1097326.8, -1204827.5, -37245.895, 0.013036437, -0.24312371, -1085683.3, 47749.24, 0.0, 10.000599, 9.999173 
1.5649937e+3, 1.9433981e+2, -1010130.94, -1110012.4, -26956.076, -0.014718249, -0.2896345, -1003320.4, 32125.004, 0.0, 10.000516, 9.999191 
1.5650006e+3, 2.0433927e+2, -903614.2, -962762.94, -18255.666, -0.016524682, -0.28028747, -898433.5, 39017.59, 0.0, 10.0003805, 9.999595 
1.5650079e+3, 2.1433967e+2, -829372.2, -867639.06, -22053.19, 0.01990932, -0.20903045, -819309.2, 20137.44, 0.0, 10.000181, 9.999671 
1.5650149e+3, 2.2433923e+2, -792945.06, -856325.8, -8369.263, 0.034799468, -0.1936256, -791858.56, -50407.965, 0.0, 10.000006, 9.99916 
1.565022e+3, 2.3433775e+2, -714418.7, -767064.06, -1482.8567, 0.020234235, -0.26097795, -714377.0, -70912.25, 0.0, 9.999868, 9.999166 
1.5650293e+3, 2.4433663e+2, -637659.3, -675191.8, 9800.69, 0.023252793, -0.28848457, -635254.25, -89778.94, 0.0, 9.999705, 9.999202 
1.5650369e+3, 2.5433606e+2, -563293.0, -582513.4, 8131.0, 0.049578436, -0.27419946, -560314.75, -112834.51, 0.0, 9.999517, 9.999256 
1.5650442e+3, 2.6433524e+2, -503657.66, -551051.44, -7232.543, 0.055185273, -0.2606909, -502578.5, -153090.34, 0.0, 9.999461, 9.998826 
1.5650508e+3, 2.7433404e+2, -390535.13, -444251.7, -8754.032, 0.032542426, -0.26539895, -389144.5, -137644.58, 0.0, 9.9995575, 9.99884 
1.5650576e+3, 2.8433266e+2, -277920.03, -302853.97, 3469.798, 0.026960168, -0.30028942, -277446.2, -123932.92, 0.0, 9.9995, 9.9991665 
1.565065e+3, 2.9433134e+2, -216225.27, -221057.98, 632.0751, 0.046188798, -0.3593802, -216143.95, -160618.6, 0.0, 9.999246, 9.999177 
1.5650716e+3, 3.0433133e+2, -195259.4, -193458.13, -16838.744, 0.057424285, -0.26835167, -177495.95, -177495.95, 0.0, 9.999087, 9.999109 
1.565078e+3, 3.14331e+2, -70508.086, 75094.234, -9908.309, 0.039607096, -0.22654681, 75765.41, 75765.41, 0.0, 9.9990425, 10.000977 
1.5749446e+3, 1.24336496e+2, -1584730.4, -1735386.0, -68851.01, -0.14433327, -0.25748482, -1558005.5, 163470.84, 0.023184983, 10.001285, 9.999242 
1.574955e+3, 1.3433583e+2, -1464155.5, -1587672.1, 42012.36, 0.0948906, -0.28681734, -1451220.3, 172262.02, 0.014104312, 10.00125, 9.999607 
1.5749605e+3, 1.4433551e+2, -1402469.1, -1534804.3, -24318.416, -0.10238552, -0.26382533, -1398141.8, 127343.16, 0.006368667, 10.001114, 9.999352 
1.5749674e+3, 1.5433432e+2, -1330083.1, -1443197.8, -37113.25, -0.054603387, -0.32607555, -1318993.4, 108502.83, 0.00176415, 10.000909, 9.999406 
1.574974e+3, 1.643337e+2, -1253682.1, -1356783.4, -27442.965, -0.033942234, -0.3253794, -1246832.5, 82669.94, 0.00019721544, 10.000765, 9.999396 
1.5749812e+3, 1.743338e+2, -1163752.1, -1257650.1, -30581.916, 0.0059711826, -0.2628144, -1154670.1, 76831.91, 0.0000019795527, 10.000688, 9.999441 
1.5749882e+3, 1.8433343e+2, -1080960.1, -1170811.3, -41186.387, 0.023198059, -0.23865817, -1064938.0, 68568.21, 0.0, 10.000598, 9.999408 
1.5749943e+3, 1.9433261e+2, -992500.56, -1072467.3, -29880.033, -0.0056424364, -0.26904956, -982569.1, 52945.48, 0.0, 10.000511, 9.999452 
1.5750009e+3, 2.0433192e+2, -910314.06, -976052.9, -26033.951, -0.025563953, -0.28320935, -901253.0, 36268.54, 0.0, 10.000377, 9.999506 
1.5750074e+3, 2.1433145e+2, -837769.94, -884893.2, -28659.451, -0.027580878, -0.28864112, -824230.2, 15295.574, 0.0, 10.000178, 9.999555 
1.5750144e+3, 2.2433095e+2, -781155.44, -831724.6, -13870.8, -0.014310951, -0.28101882, -777600.7, -36070.258, 0.0, 10.000004, 9.9993305 
1.5750219e+3, 2.3433046e+2, -701348.1, -739325.44, -5727.7095, 0.016884355, -0.26825503, -700503.06, -56968.145, 0.0, 9.999865, 9.999359 
1.5750292e+3, 2.4432966e+2, -636985.4, -673216.7, 3142.9626, 0.04182912, -0.2738026, -636714.75, -91172.55, 0.0, 9.9997015, 9.999218 
1.5750365e+3, 2.543286e+2, -563536.0, -583150.06, 2733.892, 0.058002397, -0.30885765, -563162.1, -115610.3, 0.0, 9.9995165, 9.999253 
1.5750436e+3, 2.643278e+2, -498957.34, -541423.25, -3062.3162, 0.058138628, -0.29673174, -498737.66, -149177.55, 0.0, 9.99946, 9.998894 
1.5750504e+3, 2.7432722e+2, -385232.3, -433684.4, -2920.6946, 0.038680527, -0.2472545, -385056.88, -133489.66, 0.0, 9.9995575, 9.998914 
1.5750572e+3, 2.8432623e+2, -273406.28, -293621.3, -4286.0728, 0.036329918, -0.24911325, -272535.1, -118958.02, 0.0, 9.999499, 9.999231 
1.5750642e+3, 2.9432514e+2, -210227.5, -210381.7, -6836.5503, 0.05404061, -0.29292306, -203467.63, -147881.4, 0.0, 9.99925, 9.999249 
1.5750708e+3, 3.0432484e+2, -210061.94, -224736.03, -18107.822, 0.06353781, -0.2246499, -197861.19, -197861.19, 0.0, 9.99909, 9.998894 
1.5750767e+3, 3.1432256e+2, -119839.69, -26788.578, -8087.8203, 0.0038511935, -0.35171703, -26090.832, -26090.832, 0.0, 9.999039, 10.000278 
1.5849458e+3, 1.24329515e+2, -1580303.9, -1729492.3, -54959.582, -0.15213785, -0.26927334, -1562243.6, 159300.19, 0.024637632, 10.001306, 9.999269 
1.5849563e+3, 1.3432877e+2, -1478441.4, -1601936.8, 58812.09, 0.10709333, -0.3003349, -1454915.1, 168635.47, 0.01502948, 10.001187, 9.999536 
1.584962e+3, 1.4432849e+2, -1404202.8, -1542442.1, -11205.288, -0.05898655, -0.2663604, -1403300.4, 122252.445, 0.0068178168, 10.001136, 9.999288 
1.5849686e+3, 1.5432718e+2, -1292845.5, -1432561.3, -20004.373, -0.034160133, -0.3343949, -1290037.8, 137527.33, 0.0019058621, 10.0012, 9.999338 
1.5849748e+3, 1.6432635e+2, -1217643.4, -1349081.3, -8311.752, -0.03225032, -0.34558317, -1217119.9, 112453.12, 0.0002187055, 10.001055, 9.999308 
1.5849818e+3, 1.7432615e+2, -1173986.3, -1272588.4, -5407.2163, -0.004867246, -0.30456167, -1173690.6, 57884.855, 0.000002466339, 10.000662, 9.99935 
1.5849885e+3, 1.843258e+2, -1109008.8, -1178935.8, -13230.843, 0.010479938, -0.27655256, -1106589.1, 26990.479, 0.0, 10.000384, 9.999454 
1.5849948e+3, 1.943254e+2, -1025510.1, -1082105.0, -18152.578, -0.008584595, -0.2691699, -1020188.25, 15395.837, 0.0, 10.000259, 9.999505 
1.585001e+3, 2.0432484e+2, -957992.06, -1005983.4, -24982.957, -0.0235846, -0.27087313, -947347.56, -9757.481, 0.0, 10.000082, 9.999441 
1.5850075e+3, 2.143241e+2, -892033.7, -919693.94, -27354.85, -0.027287632, -0.2967338, -875211.56, -35614.117, 0.0, 9.999845, 9.9994755 
1.5850143e+3, 2.2432353e+2, -816261.0, -836994.3, -7103.8047, -0.012811047, -0.2953973, -814060.56, -72457.766, 0.0, 9.999713, 9.9994335 
1.5850218e+3, 2.343233e+2, -713091.4, -731697.6, -4844.8213, 0.023199044, -0.27005234, -711905.44, -68300.76, 0.0, 9.999728, 9.999476 
1.5850289e+3, 2.4432258e+2, -637374.9, -678364.2, -2277.8535, 0.04159845, -0.27010208, -637248.6, -91637.57, 0.0, 9.9997225, 9.999172 
1.5850359e+3, 2.5432146e+2, -543681.06, -580619.4, -9459.816, 0.03567159, -0.30801213, -541399.4, -93777.34, 0.0, 9.999684, 9.999188 
1.5850428e+3, 2.6432064e+2, -478653.9, -510578.84, -13206.923, 0.036440093, -0.2969555, -473898.7, -124268.64, 0.0, 9.99951, 9.999081 
1.5850498e+3, 2.743203e+2, -428388.88, -430775.5, -4613.183, 0.04806115, -0.24599148, -424817.16, -173182.6, 0.0, 9.999163, 9.999123 
1.5850568e+3, 2.8431946e+2, -333616.84, -325847.38, 2768.4246, 0.05188551, -0.2442305, -324961.84, -171318.86, 0.0, 9.999103, 9.9992 
1.5850635e+3, 2.9431838e+2, -190795.38, -205518.84, -9634.084, 0.043892104, -0.28136194, -186032.31, -130380.04, 0.0, 9.999407, 9.999207 
1.58507e+3, 3.0431804e+2, -160023.89, -191457.28, -24657.445, 0.060922038, -0.2193427, -146500.14, -146500.14, 0.0, 9.999394, 9.998975 
1.5850759e+3, 3.143156e+2, -159665.81, -81451.81, 3827.4172, 0.01795701, -0.37054634, -81264.96, -81264.96, 0.0, 9.99892, 9.999959 
1.5949476e+3, 1.2432333e+2, -1589775.4, -1747953.5, -83205.05, -0.092760295, -0.25175098, -1554068.3, 167534.69, 0.026202215, 10.0013, 9.999147 
1.5949573e+3, 1.3432178e+2, -1496698.4, -1641736.1, 54851.367, 0.08786881, -0.33669928, -1478290.6, 145328.2, 0.016029086, 10.001193, 9.99926 
1.594963e+3, 1.4432162e+2, -1404248.5, -1543426.0, -11386.112, -0.07048735, -0.27642635, -1403323.1, 122297.4, 0.007305444, 10.00114, 9.99928 
1.5949698e+3, 1.5432116e+2, -1293036.4, -1432898.9, -17473.912, -0.019916201, -0.25872287, -1290886.3, 136738.28, 0.002060233, 10.001199, 9.999337 
1.594976e+3, 1.6432035e+2, -1217165.1, -1348229.9, -23272.305, -0.019575382, -0.2694435, -1213155.5, 116476.414, 0.00024185247, 10.001055, 9.999314 
1.5949821e+3, 1.7431898e+2, -1173764.0, -1272278.8, -19937.842, -0.03246346, -0.34421933, -1169881.9, 61762.29, 0.0000030340082, 10.000662, 9.9993515 
1.5949884e+3, 1.8431818e+2, -1118680.0, -1199055.5, -19228.857, -0.031083493, -0.35557574, -1114316.6, 19335.695, 0.0, 10.000383, 9.999316 
1.5949948e+3, 1.9431823e+2, -1036076.2, -1104269.4, -22140.857, -0.025511201, -0.28928125, -1029518.2, 6135.4233, 0.0, 10.000259, 9.999354 
1.5950014e+3, 2.0431803e+2, -962520.44, -1015712.06, -34093.273, -0.012406662, -0.24285845, -945876.4, -8219.519, 0.0, 10.000082, 9.999375 
1.5950078e+3, 2.1431758e+2, -896925.94, -928768.0, -35643.832, 0.016399506, -0.23377427, -873809.0, -34147.035, 0.0, 9.999839, 9.999416 
1.5950145e+3, 2.2431695e+2, -813838.06, -831022.75, -7521.712, 0.03428884, -0.23687842, -811010.94, -69343.01, 0.0, 9.999707, 9.999478 
1.5950216e+3, 2.3431623e+2, -709868.44, -724692.2, -2805.3557, 0.03604264, -0.26670146, -709355.3, -65681.23, 0.0, 9.999725, 9.999527 
1.5950285e+3, 2.4431539e+2, -646605.44, -697321.4, -3089.6563, 0.019200811, -0.2779008, -646417.9, -100735.805, 0.0, 9.99972, 9.999044 
1.595035e+3, 2.543145e+2, -553429.25, -600923.4, -9140.669, -0.020487972, -0.2735051, -551730.8, -104039.4, 0.0, 9.999682, 9.999051 
1.595042e+3, 2.6431382e+2, -457569.22, -467049.25, -24714.803, -0.01218054, -0.26154864, -437144.0, -87445.664, 0.0, 9.99951, 9.99938 
1.595049e+3, 2.7431333e+2, -405108.53, -383023.1, -15852.797, 0.05612208, -0.2579538, -374746.06, -123043.98, 0.0, 9.999163, 9.999451 
1.595056e+3, 2.843123e+2, -342245.78, -343953.9, 13519.879, 0.06820703, -0.2835236, -329553.03, -175841.63, 0.0, 9.999102, 9.999076 
1.5950625e+3, 2.94311e+2, -202347.66, -228995.84, 4468.7036, 0.008776433, -0.33041692, -201618.25, -145893.61, 0.0, 9.999402, 9.999048 
1.5950693e+3, 3.0431083e+2, -137176.4, -142304.05, -39139.47, 0.042826153, -0.25725713, -100516.875, -100516.875, 0.0, 9.999387, 9.999316 
1.5950753e+3, 3.143102e+2, -157302.97, -78205.73, -16456.857, 0.07683358, -0.26306432, -74918.37, -74918.37, 0.0, 9.998926, 9.999979 
1.6049494e+3, 1.2431677e+2, -1595016.1, -1750931.6, -107993.29, -0.050684884, -0.25710246, -1539782.5, 181884.22, 0.027890507, 10.00127, 9.999142 
1.6049585e+3, 1.3431506e+2, -1475800.8, -1653842.0, 50780.98, 0.07628425, -0.33643287, -1462335.4, 161349.3, 0.017110147, 10.001437, 9.999059 
1.6049643e+3, 1.4431494e+2, -1372940.1, -1521369.8, -16108.47, -0.061502334, -0.26567483, -1371212.1, 154474.31, 0.007835286, 10.001329, 9.999339 
1.604971e+3, 1.5431456e+2, -1325560.6, -1440033.8, -18448.643, -0.016943062, -0.24644586, -1322660.9, 105028.42, 0.0022287087, 10.000941, 9.99941 
1.6049771e+3, 1.6431378e+2, -1256856.3, -1370379.5, -19255.555, -0.019930996, -0.25658977, -1253679.1, 76017.164, 0.00026665046, 10.0008, 9.999282 
1.604983e+3, 1.7431243e+2, -1129038.9, -1254730.9, -21120.156, -0.03154685, -0.3284022, -1125585.0, 106123.766, 0.0000036433328, 10.00099, 9.999311 
1.6049892e+3, 1.8431152e+2, -1053462.5, -1178990.1, -27698.813, -0.026973182, -0.3416919, -1047622.25, 86095.51, 0.0, 10.000882, 9.999212 
1.6049953e+3, 1.9431137e+2, -1025284.4, -1111615.5, -29733.236, -0.018615749, -0.28492442, -1016034.94, 19686.016, 0.0, 10.000389, 9.99924 
1.6050015e+3, 2.0431101e+2, -967238.75, -1019440.94, -33131.824, -0.005129243, -0.24610952, -951161.8, -13436.441, 0.0, 10.000057, 9.999361 
1.6050076e+3, 2.1431051e+2, -882366.5, -922445.25, -31286.66, 0.020953562, -0.24099612, -865251.7, -25521.26, 0.0, 9.999944, 9.999409 
1.6050144e+3, 2.2430983e+2, -811210.94, -841080.5, -3184.4048, 0.03717169, -0.24589363, -810875.2, -69138.07, 0.0, 9.999777, 9.999375 
1.6050212e+3, 2.3430899e+2, -745845.5, -754957.75, -13116.756, 0.0372222, -0.2741789, -736516.1, -92771.17, 0.0, 9.999536, 9.99941 
1.6050279e+3, 2.4430822e+2, -689338.06, -700897.6, -8389.372, 0.015972162, -0.27932796, -684930.25, -139177.7, 0.0, 9.999354, 9.999194 
1.6050345e+3, 2.5430763e+2, -604340.8, -605980.9, 7428.0234, -0.031209035, -0.26359716, -597687.7, -149928.95, 0.0, 9.999252, 9.999223 
1.6050412e+3, 2.6430693e+2, -504097.06, -488582.63, -9172.814, -0.02907048, -0.2577986, -484326.72, -134561.67, 0.0, 9.99919, 9.999384 
1.605048e+3, 2.743062e+2, -403510.53, -383961.78, -27885.73, 0.034126848, -0.28030467, -364187.0, -112415.77, 0.0, 9.999184, 9.9994335 
1.6050547e+3, 2.8430524e+2, -350172.78, -333534.56, 568.8223, 0.050196428, -0.30509663, -333515.13, -179735.06, 0.0, 9.998987, 9.999203 
1.6050614e+3, 2.943043e+2, -319050.22, -268510.97, 11563.705, 0.008303773, -0.3220918, -265990.78, -210201.36, 0.0, 9.998531, 9.999194 
1.6050683e+3, 3.043041e+2, -237510.11, -177176.66, -16084.712, 0.05254494, -0.27278975, -173156.4, -173156.4, 0.0, 9.998641, 9.999435 
1.6050746e+3, 3.1430405e+2, -81643.84, -42060.89, -21889.205, 0.081577376, -0.23124455, -32342.373, -32342.373, 0.0, 9.999451, 9.999972 
1.6149507e+3, 1.2430993e+2, -1589475.0, -1739557.6, -121956.51, -0.032492917, -0.2810608, -1521322.1, 200411.88, 0.029721467, 10.001273, 9.999222 
1.6149598e+3, 1.343087e+2, -1485932.8, -1675963.0, 56365.906, 0.06962901, -0.29772356, -1470471.6, 153275.97, 0.018286213, 10.00144, 9.998907 
1.614966e+3, 1.443085e+2, -1364372.3, -1502927.1, -31790.225, -0.035860144, -0.23112981, -1357426.5, 168323.5, 0.008415702, 10.001327, 9.999468 
1.6149718e+3, 1.5430743e+2, -1315715.9, -1419793.1, -32662.174, -0.02936585, -0.29829973, -1306314.9, 121444.234, 0.0024150638, 10.000941, 9.99955 
1.6149777e+3, 1.643067e+2, -1261914.0, -1381272.6, -14598.961, -0.03882973, -0.3071134, -1260154.3, 69611.47, 0.0002938315, 10.0008, 9.999208 
1.6149843e+3, 1.7430645e+2, -1135744.3, -1269070.5, -13437.924, -0.0038907973, -0.25655898, -1134403.4, 97365.63, 0.000004294035, 10.00099, 9.999214 
1.6149905e+3, 1.8430582e+2, -1059138.3, -1190773.9, -45351.082, 0.019883119, -0.23438662, -1045026.7, 88749.12, 0.0, 10.000881, 9.999132 
1.614996e+3, 1.9430481e+2, -1031592.7, -1124394.0, -47896.633, 0.008109037, -0.25600505, -1011306.7, 24479.572, 0.0, 10.000387, 9.999154 
1.6150014e+3, 2.043038e+2, -964788.1, -1013999.2, -38882.973, -0.006696186, -0.27983376, -943379.4, -5583.636, 0.0, 10.000054, 9.9994 
1.6150074e+3, 2.1430291e+2, -879138.0, -915573.44, -34349.95, -0.01627625, -0.31798932, -858473.75, -18670.83, 0.0, 9.999942, 9.999457 
1.6150136e+3, 2.2430214e+2, -830546.94, -881470.3, -12092.796, -0.007321246, -0.3214801, -827821.1, -86010.695, 0.0, 9.999776, 9.9991 
1.6150206e+3, 2.343016e+2, -766682.9, -798551.4, -20954.643, 0.02418658, -0.29180473, -756292.3, -112474.83, 0.0, 9.999535, 9.999111 
1.6150273e+3, 2.4430107e+2, -660215.9, -639760.2, -12193.364, 0.02876972, -0.27357122, -634073.06, -88250.33, 0.0, 9.999351, 9.999617 
1.6150339e+3, 2.5430077e+2, -571496.5, -537147.94, 5407.1436, -0.0020878674, -0.277596, -536316.8, -88492.46, 0.0, 9.999248, 9.999698 
1.6150405e+3, 2.6430008e+2, -525604.75, -533326.7, -8729.384, -0.01996248, -0.28591466, -519920.63, -170089.94, 0.0, 9.999188, 9.999079 
1.6150466e+3, 2.7429888e+2, -428865.88, -437801.94, -25824.59, -0.020728124, -0.31533453, -407125.66, -155282.84, 0.0, 9.9991865, 9.999063 
1.6150534e+3, 2.8429818e+2, -325094.94, -282023.2, -14896.028, -0.0043144426, -0.30987853, -277373.47, -123523.78, 0.0, 9.998988, 9.999556 
1.6150603e+3, 2.9429844e+2, -289387.75, -207730.08, -4066.9656, 0.03491484, -0.25428447, -207528.02, -151680.73, 0.0, 9.998533, 9.999612 
1.6150674e+3, 3.0429775e+2, -243495.95, -190564.45, 11990.782, 0.08251331, -0.2639111, -187974.83, -187974.83, 0.0, 9.998644, 9.999342 
1.6150737e+3, 3.1429702e+2, -82204.43, -42038.516, 3901.4646, 0.028724646, -0.27912977, -41663.063, -41663.063, 0.0, 9.999445, 9.999975 
1.6249527e+3, 1.2430347e+2, -1542401.4, -1695871.5, -106561.0, 0.0098502, -0.2985053, -1487821.9, 233975.6, 0.031719536, 10.001519, 9.999403 
1.6249609e+3, 1.3430235e+2, -1499193.5, -1684739.9, 90755.72, 0.04555241, -0.3030439, -1462184.3, 161624.92, 0.019575521, 10.001359, 9.998887 
1.6249675e+3, 1.4430198e+2, -1397232.3, -1528704.5, -7654.7446, -0.02205092, -0.2476565, -1396788.1, 129024.79, 0.009057564, 10.001144, 9.999376 
1.6249728e+3, 1.5430084e+2, -1315065.6, -1430818.0, -28994.025, -0.024535818, -0.31165642, -1308209.3, 119614.17, 0.002624381, 10.000998, 9.999445 
1.6249785e+3, 1.6430011e+2, -1258701.8, -1383443.0, -9272.276, -0.037823293, -0.3135849, -1258016.3, 71814.24, 0.00032476612, 10.000839, 9.999174 
1.624985e+3, 1.7429996e+2, -1186652.3, -1297026.9, -3778.3542, -0.0012725969, -0.25106752, -1186523.0, 45310.03, 0.000005034694, 10.000657, 9.999183 
1.6249911e+3, 1.8429933e+2, -1109018.6, -1213665.1, -38677.152, 0.023638893, -0.22738388, -1096275.4, 37564.375, 0.0, 10.000536, 9.999141 
1.6249965e+3, 1.9429821e+2, -1013647.8, -1114090.9, -36570.04, 0.011990491, -0.26075283, -1001743.9, 34106.836, 0.0, 10.000506, 9.999166 
1.6250017e+3, 2.0429708e+2, -920545.25, -1005381.94, -24119.709, -0.005728528, -0.2917064, -914167.3, 23693.777, 0.0, 10.000414, 9.999286 
1.6250074e+3, 2.1429606e+2, -846407.25, -913831.2, -34111.813, -0.024095427, -0.33146602, -832159.75, 7710.1475, 0.0, 10.000228, 9.9993305 
1.6250135e+3, 2.2429524e+2, -794146.5, -862836.1, -11098.248, -0.018951764, -0.3314095, -792397.9, -50520.203, 0.0, 10.000022, 9.999107 
1.6250202e+3, 2.3429482e+2, -727505.25, -777555.4, 2075.6438, 0.015045728, -0.2907237, -727419.3, -83536.08, 0.0, 9.999797, 9.999128 
1.6250269e+3, 2.4429432e+2, -644015.56, -638264.7, 6576.636, 0.026867915, -0.2707974, -633962.4, -88073.92, 0.0, 9.999491, 9.999558 
1.6250332e+3, 2.5429386e+2, -600794.3, -558707.6, -18251.936, 0.007488774, -0.28418174, -551895.0, -104003.2, 0.0, 9.99908, 9.999629 
1.6250396e+3, 2.6429313e+2, -564296.0, -544506.4, -30080.756, -0.011674365, -0.29542652, -522734.8, -172836.27, 0.0, 9.998891, 9.999145 
1.6250457e+3, 2.7429202e+2, -455624.16, -441559.7, -15041.823, -0.028218642, -0.32077304, -431987.44, -180077.88, 0.0, 9.998965, 9.999142 
1.6250521e+3, 2.8429148e+2, -335426.0, -290408.7, -10637.851, -0.013355634, -0.30643535, -288021.47, -134106.05, 0.0, 9.998935, 9.999522 
1.625059e+3, 2.942918e+2, -259058.5, -197615.53, -36461.934, 0.03992044, -0.23640464, -180658.06, -124745.81, 0.0, 9.998763, 9.999569 
1.625066e+3, 3.0429083e+2, -231726.72, -172595.42, -4729.3545, 0.077230014, -0.2811045, -172219.55, -172219.55, 0.0, 9.998671, 9.999454 
1.6250725e+3, 3.1429017e+2, -164507.1, -36570.36, 1077.5719, 0.025705324, -0.30122727, -36561.28, -36561.28, 0.0, 9.998682, 10.000382 
1.6349548e+3, 1.24297574e+2, -1522192.0, -1652854.9, -121793.11, 0.0685877, -0.29650584, -1449314.4, 272541.06, 0.03390636, 10.001518, 9.999705 
1.634962e+3, 1.3429601e+2, -1490902.0, -1667878.5, 84270.984, -0.0014622636, -0.35588428, -1457194.6, 166674.42, 0.020992927, 10.001363, 9.999002 
1.6349684e+3, 1.442954e+2, -1420446.0, -1576758.9, -15959.724, -0.028496478, -0.31768176, -1418833.1, 107041.84, 0.009768749, 10.001142, 9.999048 
1.634974e+3, 1.5429485e+2, -1341077.9, -1485486.1, -33859.34, -0.0049312017, -0.28493583, -1333533.1, 94348.74, 0.0028602842, 10.000998, 9.999071 
1.6349795e+3, 1.6429405e+2, -1258405.4, -1382232.6, -16885.805, -0.019716943, -0.27441916, -1256144.0, 73746.3, 0.00036087315, 10.000836, 9.999184 
1.6349855e+3, 1.7429292e+2, -1184847.5, -1293219.9, -10206.674, -0.02738974, -0.31227568, -1183894.6, 48006.3, 0.000005927034, 10.000655, 9.999209 
1.6349913e+3, 1.8429202e+2, -1102572.3, -1200272.6, -40622.715, -0.02094999, -0.32118693, -1087888.6, 46020.96, 0.0, 10.000535, 9.999233 
1.6349967e+3, 1.9429155e+2, -1006682.4, -1100101.8, -36695.21, -0.009893274, -0.29917637, -993992.25, 41922.05, 0.0, 10.000506, 9.999263 
1.6350022e+3, 2.0429084e+2, -939967.4, -1045407.9, -31062.236, -0.005894439, -0.28164494, -931497.0, 6424.6465, 0.0, 10.000411, 9.999013 
1.6350077e+3, 2.142899e+2, -868377.56, -959146.25, -40182.65, -0.005549037, -0.281516, -853145.25, -13213.772, 0.0, 10.000225, 9.999022 
1.6350135e+3, 2.2428913e+2, -774554.1, -821323.1, -19750.842, -0.0014160542, -0.27523658, -767329.3, -25390.3, 0.0, 10.000017, 9.999395 
1.63502e+3, 2.3428866e+2, -704685.4, -729997.1, -5011.542, 0.005847061, -0.271999, -703729.25, -59786.52, 0.0, 9.999795, 9.999456 
1.6350262e+3, 2.442879e+2, -682557.06, -718415.1, -7971.901, 0.0057548285, -0.27131233, -680864.6, -134914.48, 0.0, 9.999489, 9.99901 
1.6350323e+3, 2.5428683e+2, -643207.3, -648394.56, -31788.232, -0.004781202, -0.28296736, -613907.06, -165945.72, 0.0, 9.999084, 9.999012 
1.6350384e+3, 2.6428604e+2, -534173.6, -482527.6, -27612.078, -0.0067132153, -0.28627, -470545.13, -120576.0, 0.0, 9.998892, 9.999571 
1.6350451e+3, 2.742856e+2, -420236.5, -368300.4, -10437.674, 0.004448473, -0.29589844, -366281.22, -114309.11, 0.0, 9.998965, 9.999646 
1.6350514e+3, 2.84285e+2, -363786.3, -350344.2, -15977.582, 0.015505331, -0.29495654, -339731.6, -185753.47, 0.0, 9.998937, 9.99911 
1.6350575e+3, 2.942844e+2, -292949.22, -269576.88, -40811.08, 0.019222416, -0.2693866, -238811.77, -182826.6, 0.0, 9.998767, 9.999074 
1.6350642e+3, 3.042832e+2, -211216.6, -129350.375, -4788.864, 0.033919435, -0.32310107, -129071.195, -129071.195, 0.0, 9.998668, 9.999751 
1.6350716e+3, 3.1428313e+2, -109311.49, 79241.6, 1719.9902, 0.063901156, -0.31700352, 79257.29, 79257.29, 0.0, 9.998678, 10.00118 
1.6449562e+3, 1.24291845e+2, -1570506.8, -1655304.5, -123241.625, 0.07728524, -0.2711117, -1482574.6, 239338.44, 0.036291655, 10.001086, 9.999899 
1.6449629e+3, 1.3429031e+2, -1494420.5, -1657984.6, 78146.49, -0.027090125, -0.3382613, -1463086.8, 160838.33, 0.022544228, 10.00129, 9.9991045 
1.64497e+3, 1.442893e+2, -1402006.3, -1587125.0, -19550.025, 0.012781902, -0.337181, -1399964.1, 125970.17, 0.010552243, 10.001353, 9.998876 
1.6449752e+3, 1.5428874e+2, -1306007.4, -1490950.5, -25120.469, 0.0068760207, -0.28468525, -1302656.0, 125285.78, 0.0031239854, 10.001337, 9.99887 
1.6449805e+3, 1.642879e+2, -1209494.5, -1355487.9, -6536.2456, -0.023947798, -0.27093422, -1209202.4, 120748.58, 0.0004029895, 10.00116, 9.99921 
1.6449863e+3, 1.7428665e+2, -1163143.0, -1277365.6, -936.07446, -0.029920397, -0.32356367, -1163135.4, 68826.78, 0.0000070009137, 10.000784, 9.999255 
1.6449918e+3, 1.8428572e+2, -1101071.6, -1206039.5, -25730.816, -0.024286367, -0.33634925, -1095103.6, 38867.355, 0.0, 10.000575, 9.999173 
1.6449971e+3, 1.9428526e+2, -1001119.25, -1105295.9, -35082.535, -0.019553525, -0.3057282, -990406.5, 45569.11, 0.0, 10.00058, 9.99919 
1.6450025e+3, 2.0428455e+2, -933578.4, -1058081.5, -35823.76, -0.011885215, -0.2780914, -924006.5, 13976.749, 0.0, 10.0005245, 9.99887 
1.6450082e+3, 2.142836e+2, -854428.25, -969077.7, -35546.742, 0.004861961, -0.2646345, -844301.56, -4307.606, 0.0, 10.000395, 9.998871 
1.6450138e+3, 2.2428276e+2, -755263.9, -814191.3, -23481.777, 0.011211882, -0.25541195, -747051.25, -5049.0747, 0.0, 10.000159, 9.999375 
1.6450197e+3, 2.3428218e+2, -707044.5, -732461.94, -36517.723, 0.00163689, -0.262895, -681087.25, -37080.953, 0.0, 9.999785, 9.999444 
1.6450255e+3, 2.4428123e+2, -676488.06, -724987.8, -32902.094, -0.0024527642, -0.274463, -659864.94, -113849.95, 0.0, 9.999573, 9.998923 
1.6450314e+3, 2.542799e+2, -581206.75, -629256.3, -19100.938, -0.0002612722, -0.30080765, -574538.94, -126510.45, 0.0, 9.9995575, 9.998915 
1.6450377e+3, 2.6427913e+2, -480188.75, -462438.4, -11660.317, 0.006921815, -0.29844472, -456659.84, -106623.25, 0.0, 9.9992895, 9.999516 
1.645044e+3, 2.7427897e+2, -462918.9, -395284.78, -37638.04, 0.022966227, -0.27593294, -378503.25, -126465.81, 0.0, 9.998701, 9.999587 
1.6450502e+3, 2.8427833e+2, -420889.13, -374025.97, -37554.17, 0.02622204, -0.2763513, -353192.94, -199149.11, 0.0, 9.998529, 9.999143 
1.6450562e+3, 2.942773e+2, -279370.63, -257602.8, -25519.738, 0.0058972514, -0.29364967, -240742.94, -184688.72, 0.0, 9.998839, 9.99912 
1.6450626e+3, 3.0427626e+2, -217307.53, -154118.11, 5326.5283, 0.0036285676, -0.32748133, -153672.25, -153672.25, 0.0, 9.998721, 9.999554 
1.6450703e+3, 3.1427616e+2, -183372.61, 49075.69, -33109.883, 0.09401804, -0.3054885, 53699.867, 53699.867, 0.0, 9.998146, 10.001227 
1.6549566e+3, 1.2428635e+2, -1563878.5, -1642206.3, -113004.48, 0.019117255, -0.22000365, -1483443.9, 238526.05, 0.038870342, 10.001089, 9.99999 
1.6549641e+3, 1.342853e+2, -1489271.8, -1648359.0, 85101.74, -0.03297333, -0.24715312, -1452327.3, 171649.56, 0.024226949, 10.001294, 9.999171 
1.6549723e+3, 1.4428373e+2, -1404170.3, -1589925.6, -21930.771, 0.099499345, -0.30447164, -1401616.1, 124374.54, 0.011408221, 10.001346, 9.99886 
1.6549766e+3, 1.5428253e+2, -1308481.8, -1496203.0, -25323.049, 0.0057796347, -0.31233057, -1305125.6, 122877.53, 0.0034157853, 10.001337, 9.998834 
1.6549814e+3, 1.6428162e+2, -1205949.1, -1348725.4, -20479.71, -0.056775108, -0.30472103, -1203069.6, 126942.99, 0.00045137366, 10.001161, 9.999257 
1.6549872e+3, 1.7428118e+2, -1159168.1, -1269726.1, -14298.19, -0.012320524, -0.2840027, -1157348.9, 74667.72, 0.000008273259, 10.000784, 9.999309 
1.6549928e+3, 1.8428041e+2, -1116300.8, -1237445.5, -26911.127, 0.009485038, -0.27153882, -1110591.8, 23432.197, 0.0, 10.000573, 9.99896 
1.6549978e+3, 1.9427933e+2, -1018356.0, -1141164.3, -34249.63, -0.019332232, -0.28047982, -1009450.06, 26584.56, 0.0, 10.000579, 9.998945 
1.655003e+3, 2.0427819e+2, -934936.3, -1060614.0, -40645.58, -0.026721548, -0.28119338, -922936.8, 15109.342, 0.0, 10.000523, 9.998854 
1.6550085e+3, 2.142771e+2, -854831.7, -969842.8, -39425.516, 0.0027981168, -0.281463, -842614.5, -2556.934, 0.0, 10.000393, 9.998867 
1.655014e+3, 2.2427611e+2, -778492.0, -862270.0, -37199.418, 0.014196398, -0.27205005, -764358.8, -22291.361, 0.0, 10.000157, 9.999047 
1.6550194e+3, 2.3427533e+2, -731282.1, -784056.44, -49129.03, -0.00024656588, -0.26318476, -701902.44, -57828.105, 0.0, 9.999788, 9.999089 
1.6550252e+3, 2.442743e+2, -650834.44, -671925.94, -33682.664, -0.0007415284, -0.28022432, -626085.2, -80001.945, 0.0, 9.999572, 9.9992895 
1.6550313e+3, 2.5427312e+2, -551732.6, -568406.9, -17811.498, 0.016241144, -0.3381943, -540403.6, -92310.0, 0.0, 9.9995575, 9.999333 
1.6550371e+3, 2.642723e+2, -517907.66, -541387.25, -31535.547, 0.02490134, -0.3319665, -495997.56, -145896.11, 0.0, 9.99929, 9.998974 
1.6550428e+3, 2.7427205e+2, -505413.56, -485654.63, -57063.313, 0.023768963, -0.25937095, -437621.88, -185515.94, 0.0, 9.998708, 9.998964 
1.6550487e+3, 2.8427136e+2, -387868.5, -307239.4, -27090.932, 0.01606389, -0.25041968, -298982.56, -144869.36, 0.0, 9.998535, 9.999599 
1.655055e+3, 2.942705e+2, -239504.05, -175982.73, -12974.477, -0.007310407, -0.31052774, -173434.84, -117314.41, 0.0, 9.998842, 9.99968 
1.6550611e+3, 3.042699e+2, -264128.13, -250455.61, -14775.145, -0.020076666, -0.29575762, -241011.84, -241011.84, 0.0, 9.998717, 9.998895 
1.6550685e+3, 3.142691e+2, -234049.44, -56036.773, -45588.68, 0.10366981, -0.2685785, -45040.832, -45040.832, 0.0, 9.998145, 10.000505 
1.6649583e+3, 1.2428039e+2, -1491270.5, -1638881.5, -92285.91, 0.02559374, -0.22397384, -1446906.9, 275122.06, 0.04162856, 10.001758, 9.999692 
1.6649652e+3, 1.3427974e+2, -1488553.4, -1670336.3, 66057.36, -0.06735206, -0.1901485, -1467084.5, 156949.0, 0.026035924, 10.001404, 9.998963 
1.664974e+3, 1.4427795e+2, -1430960.5, -1579032.0, -43122.227, 0.13308124, -0.26894906, -1419317.6, 106732.37, 0.012337034, 10.001059, 9.999073 
1.664978e+3, 1.5427673e+2, -1359037.9, -1493247.3, -26205.102, 0.022833403, -0.302229, -1354102.6, 73958.46, 0.003736676, 10.000871, 9.999079 
1.6649823e+3, 1.6427584e+2, -1265341.3, -1391395.3, -16247.108, -0.04900144, -0.2994893, -1263280.8, 66789.055, 0.00050616945, 10.000813, 9.999132 
1.6649881e+3, 1.7427552e+2, -1150635.8, -1283211.9, -27691.648, -0.0064812717, -0.25186598, -1145084.1, 86989.59, 0.000009797576, 10.000917, 9.999152 
1.6649935e+3, 1.8427473e+2, -1066394.5, -1208891.8, -37245.17, 0.017528703, -0.23581176, -1057246.8, 76834.555, 0.0, 10.0008955, 9.999001 
1.6649985e+3, 1.9427341e+2, -993937.4, -1122443.9, -23196.715, -0.0039232443, -0.27343857, -989878.4, 46214.56, 0.0, 10.000718, 9.999006 
1.6650036e+3, 2.042721e+2, -927459.3, -1059630.0, -17436.818, -0.01847153, -0.29241067, -925197.6, 12907.423, 0.0, 10.000587, 9.998829 
1.6650088e+3, 2.1427096e+2, -841102.0, -966934.6, -19976.686, -0.015845323, -0.29616517, -838006.7, 2110.1772, 0.0, 10.000505, 9.998833 
1.6650142e+3, 2.2426982e+2, -755677.94, -874646.06, -18345.291, -0.0042698644, -0.29016015, -752913.3, -10785.049, 0.0, 10.000416, 9.998837 
1.6650197e+3, 2.3426878e+2, -671128.1, -780621.2, -23095.088, 0.016547402, -0.28468874, -666456.06, -22317.941, 0.0, 10.000313, 9.998859 
1.6650252e+3, 2.4426772e+2, -588235.8, -646416.9, -17520.934, 0.02644055, -0.29249227, -583366.94, -37219.027, 0.0, 10.000022, 9.999248 
1.6650309e+3, 2.5426677e+2, -563991.25, -577674.25, -36997.88, 0.02072266, -0.32313108, -533207.6, -85051.695, 0.0, 9.99949, 9.999302 
1.6650362e+3, 2.6426592e+2, -533775.8, -558423.3, -51796.133, 0.011298143, -0.3137621, -492857.53, -142693.66, 0.0, 9.999224, 9.998888 
1.6650414e+3, 2.7426526e+2, -429196.1, -459465.3, -39556.13, 0.00014724884, -0.27380207, -401978.1, -149806.1, 0.0, 9.999277, 9.998869 
1.6650473e+3, 2.8426436e+2, -322967.66, -287513.9, -2749.5908, 0.0012827945, -0.27684104, -287301.94, -133120.42, 0.0, 9.999032, 9.999495 
1.6650537e+3, 2.9426354e+2, -312156.78, -221186.17, -39339.0, 0.010619943, -0.3164598, -206534.38, -150345.69, 0.0, 9.998389, 9.999586 
1.6650596e+3, 3.042635e+2, -320585.7, -248291.13, -30267.576, -0.00551229, -0.2594245, -237292.33, -237292.33, 0.0, 9.998204, 9.999155 
1.6650671e+3, 3.1426245e+2, -157676.06, -11831.435, 22641.553, 0.109997846, -0.28042373, -8397.322, -8397.322, 0.0, 9.998638, 10.000571 
1.6749606e+3, 1.24273896e+2, -1535976.1, -1733310.0, -84511.25, 0.08492958, -0.2917298, -1504730.4, 217360.52, 0.04455171, 10.001761, 9.999027 
1.6749658e+3, 1.3427365e+2, -1521911.5, -1741545.3, 51381.32, -0.13727075, -0.1682986, -1510485.8, 113609.7, 0.027968736, 10.001406, 9.998472 
1.6749746e+3, 1.4427193e+2, -1400509.0, -1514790.1, -52335.313, 0.10586188, -0.23294118, -1380163.9, 145948.55, 0.013341848, 10.001056, 9.9995165 
1.674979e+3, 1.5427138e+2, -1322756.8, -1417328.8, -32088.521, 0.05524588, -0.25346446, -1312897.0, 115218.34, 0.004089343, 10.000868, 9.999602 
1.6749837e+3, 1.6427058e+2, -1286938.6, -1436265.5, -13543.862, -0.0035959661, -0.25355497, -1285720.1, 44402.363, 0.0005678562, 10.000812, 9.998826 
1.6749889e+3, 1.7426969e+2, -1176942.3, -1338465.8, -23380.885, -0.015848896, -0.22709717, -1173626.0, 58507.695, 0.000011659807, 10.000918, 9.998773 
1.6749942e+3, 1.8426865e+2, -1045372.9, -1164990.1, -43644.617, -0.00408116, -0.22952732, -1031141.44, 103001.914, 0.0, 10.000894, 9.999304 
1.6749994e+3, 1.942675e+2, -969213.2, -1071387.4, -28904.09, 0.022883175, -0.28520384, -961603.3, 74547.32, 0.0, 10.000717, 9.999358 
1.6750044e+3, 2.042663e+2, -929863.3, -1064211.3, -21076.684, 0.0086321095, -0.3118314, -926634.4, 11525.889, 0.0, 10.000585, 9.998799 
1.675009e+3, 2.1426515e+2, -845942.2, -976986.6, -21949.14, -0.05318244, -0.30881315, -842363.6, -2191.5981, 0.0, 10.000504, 9.998765 
1.6750142e+3, 2.2426386e+2, -763347.06, -889753.5, -22002.404, -0.046464287, -0.3096267, -759626.8, -17442.012, 0.0, 10.000412, 9.998736 
1.6750203e+3, 2.3426248e+2, -678882.3, -796752.8, -25392.633, 0.049009416, -0.32815114, -673644.75, -29446.602, 0.0, 10.000311, 9.99875 
1.6750258e+3, 2.4426137e+2, -620395.1, -713208.9, -36037.99, 0.07540538, -0.311641, -608045.44, -61836.18, 0.0, 10.00002, 9.99879 
1.6750301e+3, 2.542608e+2, -597437.0, -648489.2, -54910.35, 0.008815504, -0.25557387, -562409.6, -114193.766, 0.0, 9.999494, 9.998815 
1.675035e+3, 2.6425987e+2, -508259.72, -506456.38, -50097.79, -0.037115857, -0.24550271, -457252.16, -107027.6, 0.0, 9.999226, 9.999246 
1.6750403e+3, 2.742585e+2, -398885.94, -397325.34, -35376.387, -0.05185997, -0.32011566, -362720.66, -110484.266, 0.0, 9.999279, 9.999295 
1.6750461e+3, 2.8425717e+2, -368973.03, -383731.97, -24306.988, -0.02251544, -0.3546015, -350950.03, -196700.64, 0.0, 9.999033, 9.998835 
1.6750525e+3, 2.9425654e+2, -362332.25, -326879.63, -60765.508, 0.05325125, -0.3066472, -281307.7, -225048.61, 0.0, 9.998394, 9.998858 
1.6750583e+3, 3.0425692e+2, -240162.94, -82357.586, -16357.008, 0.042859092, -0.21829176, -80679.97, -80679.97, 0.0, 9.998207, 10.000295 
1.6750656e+3, 3.1425646e+2, -103960.45, 99544.57, 57207.516, 0.09746266, -0.30561733, 114523.69, 114523.69, 0.0, 9.998638, 10.001337 
1.6849622e+3, 1.2426798e+2, -1566460.1, -1753951.9, -66810.27, 0.0895685, -0.296596, -1545089.1, 177059.11, 0.04763037, 10.001574, 9.998973 
1.684967e+3, 1.3426772e+2, -1531630.5, -1726747.8, 83715.555, -0.15708905, -0.19399747, -1500635.8, 123516.89, 0.030026976, 10.001256, 9.998648 
1.684976e+3, 1.4426601e+2, -1397099.9, -1520771.4, 3033.8115, 0.13680857, -0.26309222, -1397025.5, 129144.26, 0.014428621, 10.001113, 9.999448 
1.6849802e+3, 1.5426587e+2, -1265673.9, -1399000.9, -22147.049, 0.059166495, -0.23376559, -1262091.3, 166078.53, 0.0044782558, 10.001301, 9.99952 
1.6849846e+3, 1.6426517e+2, -1212975.3, -1402393.3, -17999.758, -0.010665599, -0.22038011, -1211280.0, 118896.54, 0.0006375465, 10.001328, 9.998809 
1.68499e+3, 1.7426391e+2, -1142867.0, -1322927.1, -1431.6104, -0.015685571, -0.22722359, -1142855.6, 89334.85, 0.00001399049, 10.001159, 9.998763 
1.6849953e+3, 1.8426274e+2, -1025673.25, -1153160.9, -19819.848, -0.00044716976, -0.24291602, -1022663.0, 111538.13, 0.0, 10.0010195, 9.999324 
1.6850004e+3, 1.9426177e+2, -940706.75, -1055900.0, -32136.887, 0.024202894, -0.28335416, -932347.7, 103859.19, 0.0, 10.000906, 9.999374 
1.6850051e+3, 2.0426062e+2, -907766.94, -1057744.3, -37122.69, 0.012425605, -0.30411315, -899081.25, 39134.75, 0.0, 10.000753, 9.998763 
1.6850094e+3, 2.1425937e+2, -840935.25, -978523.6, -37688.598, -0.041226234, -0.3075481, -831287.94, 8940.354, 0.0, 10.000556, 9.998729 
1.6850147e+3, 2.24258e+2, -772361.1, -898863.25, -33987.234, -0.035963107, -0.31122407, -763808.1, -21566.525, 0.0, 10.000372, 9.998692 
1.6850205e+3, 2.3425661e+2, -698846.5, -811334.3, -34198.895, 0.04528281, -0.32644844, -689265.4, -45010.28, 0.0, 10.000199, 9.998703 
1.6850257e+3, 2.442554e+2, -628122.94, -732562.0, -37609.99, 0.064047694, -0.31281015, -615988.8, -69721.41, 0.0, 10.000037, 9.998649 
1.6850297e+3, 2.5425452e+2, -552190.6, -644135.3, -34189.867, -0.0007795648, -0.2700123, -540870.75, -92593.74, 0.0, 9.99988, 9.998658 
1.6850345e+3, 2.642535e+2, -458610.47, -484911.16, -24067.432, -0.042418808, -0.2623277, -444335.06, -94048.15, 0.0, 9.9995775, 9.999223 
1.6850394e+3, 2.7425224e+2, -427358.53, -412554.03, -42892.965, -0.05052537, -0.3208688, -376429.28, -124132.07, 0.0, 9.999091, 9.999281 
1.685045e+3, 2.84251e+2, -405925.53, -409996.84, -31997.148, -0.01603201, -0.34524468, -375899.34, -221589.83, 0.0, 9.998817, 9.998757 
1.6850513e+3, 2.942502e+2, -309255.0, -308863.16, -22183.299, 0.06833058, -0.3068712, -286874.9, -230554.11, 0.0, 9.998792, 9.998791 
1.6850568e+3, 3.0425033e+2, -194248.25, -41294.44, 21549.402, 0.057645444, -0.24842216, -38316.367, -38316.367, 0.0, 9.998443, 10.000462 
1.6850635e+3, 3.142503e+2, -259364.6, 4692.655, 27337.875, 0.0775695, -0.3079716, 7493.245, 7493.245, 0.0, 9.997656, 10.00116 
1.6949633e+3, 1.24262504e+2, -1531703.9, -1678827.6, -43585.96, 0.025100242, -0.25553438, -1519760.9, 202441.53, 0.05086495, 10.00157, 9.999502 
1.6949685e+3, 1.3426197e+2, -1474668.1, -1604017.1, 69987.16, -0.13037062, -0.26624528, -1444048.4, 180156.44, 0.032215923, 10.00125, 9.999496 
1.694978e+3, 1.4426017e+2, -1439210.0, -1609146.8, 7290.3887, 0.22351539, -0.3604591, -1438897.9, 87324.23, 0.015604373, 10.001111, 9.998843 
1.6949812e+3, 1.542602e+2, -1314385.3, -1501878.6, -14698.244, 0.029558025, -0.24273059, -1313240.0, 114984.4, 0.0049088504, 10.001306, 9.998812 
1.6949852e+3, 1.6425957e+2, -1192743.3, -1361100.3, -24216.455, -0.07634346, -0.19871262, -1189329.3, 140902.73, 0.0007170378, 10.001329, 9.999093 
1.6949911e+3, 1.7425819e+2, -1117142.1, -1270360.4, -6905.4326, -0.009019608, -0.2536423, -1116831.5, 115412.766, 0.000016975888, 10.00116, 9.999125 
1.6949967e+3, 1.8425702e+2, -1045389.1, -1193496.8, -24400.553, 0.024949612, -0.2765206, -1041472.7, 92782.04, 0.0, 10.001016, 9.999049 
1.695001e+3, 1.9425622e+2, -963893.75, -1104107.4, -35641.094, -0.0022786367, -0.2679106, -955354.2, 80907.586, 0.0, 10.000904, 9.999044 
1.6950056e+3, 2.0425506e+2, -911378.56, -1064383.6, -44525.207, -0.00952579, -0.2689382, -899364.8, 38907.44, 0.0, 10.000749, 9.99872 
1.6950108e+3, 2.1425359e+2, -842778.7, -982096.94, -43938.113, 0.016454345, -0.29358888, -830079.1, 10207.03, 0.0, 10.000553, 9.998706 
1.6950154e+3, 2.2425222e+2, -771837.4, -897103.4, -40629.26, 0.022971205, -0.2958281, -759813.7, -17514.725, 0.0, 10.000368, 9.998706 
1.6950202e+3, 2.3425116e+2, -698179.7, -810172.2, -38986.473, 0.00211137, -0.28040156, -685944.5, -41635.215, 0.0, 10.000198, 9.998713 
1.695025e+3, 2.4424972e+2, -617584.25, -710224.44, -42734.348, -0.010212172, -0.2967638, -600882.3, -54559.363, 0.0, 10.000034, 9.998804 
1.6950296e+3, 2.542479e+2, -540611.56, -620334.3, -38015.703, -0.010686573, -0.3652716, -525390.06, -77050.3, 0.0, 9.99988, 9.998822 
1.6950344e+3, 2.642467e+2, -486764.97, -543911.5, -40632.324, -0.008058254, -0.36263072, -465665.13, -115313.75, 0.0, 9.999578, 9.998818 
1.6950391e+3, 2.7424645e+2, -458455.38, -478873.6, -58735.93, -0.0029572127, -0.27502725, -409047.9, -156692.94, 0.0, 9.999098, 9.998823 
1.6950442e+3, 2.842457e+2, -371272.16, -339765.1, -33382.88, 0.014998418, -0.24976502, -318605.34, -164242.55, 0.0, 9.998823, 9.999238 
1.69505e+3, 2.9424438e+2, -269535.22, -225953.17, -20791.613, 0.05142358, -0.31692484, -217625.44, -161250.53, 0.0, 9.998788, 9.999363 
1.695055e+3, 3.0424353e+2, -248792.81, -155254.98, -5564.5146, 0.03430158, -0.35388422, -154925.13, -154925.13, 0.0, 9.998445, 9.99968 
1.6950607e+3, 3.142442e+2, -326623.6, -139195.61, 15733.721, 0.035057608, -0.25118986, -137884.02, -137884.02, 0.0, 9.997673, 10.000163 
1.7049651e+3, 1.2425679e+2, -1486375.5, -1661975.8, 2312.8044, 0.033089083, -0.26396695, -1486345.0, 235912.42, 0.054258425, 10.001925, 9.9994545 
1.7049697e+3, 1.3425633e+2, -1426018.8, -1564695.1, 20528.465, -0.14707036, -0.28010428, -1423043.8, 201214.72, 0.034540452, 10.001532, 9.999637 
1.7049792e+3, 1.4425464e+2, -1422194.3, -1614539.1, -35017.75, 0.22302313, -0.36542347, -1416017.4, 110257.305, 0.016874576, 10.001292, 9.998718 
1.7049824e+3, 1.5425436e+2, -1323266.1, -1522158.6, -15060.98, 0.02444025, -0.26526976, -1322132.1, 106148.65, 0.0053858333, 10.001313, 9.998669 
1.7049865e+3, 1.6425362e+2, -1199883.1, -1348040.3, -16652.547, -0.0776967, -0.23144193, -1198034.5, 132254.73, 0.00080826663, 10.001208, 9.999242 
1.7049924e+3, 1.7425242e+2, -1136754.5, -1261157.3, -16230.909, 0.0012614247, -0.2849707, -1134671.8, 97626.96, 0.000020835996, 10.000944, 9.999292 
1.7049976e+3, 1.8425134e+2, -1088053.9, -1238913.0, -31673.732, 0.038207952, -0.29803598, -1081673.6, 52635.047, 0.0, 10.00083, 9.998828 
1.7050019e+3, 1.9425048e+2, -979528.0, -1139224.0, -38102.02, 0.0014962429, -0.26917776, -970903.06, 65415.28, 0.0, 10.000918, 9.9987955 
1.7050065e+3, 2.0424935e+2, -880940.06, -1032788.7, -42755.703, -0.007858517, -0.26059854, -869729.1, 68600.1, 0.0, 10.000887, 9.998869 
1.7050113e+3, 2.1424803e+2, -812526.9, -947670.6, -29078.332, 0.024639713, -0.28832477, -806535.75, 33804.67, 0.0, 10.000677, 9.998882 
1.705016e+3, 2.242467e+2, -761537.56, -900484.9, -19015.299, 0.028326474, -0.2954413, -758982.25, -16629.648, 0.0, 10.000476, 9.998631 
1.7050204e+3, 2.3424543e+2, -691835.25, -818316.2, -28305.219, -0.007847198, -0.2871863, -685789.75, -41424.75, 0.0, 10.000291, 9.9986105 
1.7050248e+3, 2.44244e+2, -616379.44, -704964.75, -43095.633, -0.021791888, -0.30064586, -598873.44, -52494.516, 0.0, 10.000023, 9.998845 
1.7050295e+3, 2.5424236e+2, -572262.9, -629278.4, -48670.844, -0.004768926, -0.35469896, -544365.44, -95971.79, 0.0, 9.999639, 9.998876 
1.705034e+3, 2.6424116e+2, -517414.38, -568819.44, -43108.64, 0.007089801, -0.35529232, -492927.5, -142521.77, 0.0, 9.999415, 9.998725 
1.7050384e+3, 2.7424058e+2, -424145.53, -474508.3, -37607.24, 0.009035942, -0.2908396, -404067.6, -151654.67, 0.0, 9.999388, 9.998713 
1.7050432e+3, 2.8423983e+2, -319644.25, -305640.4, -11180.06, 0.010537637, -0.25933582, -299450.63, -145030.44, 0.0, 9.99914, 9.99932 
1.7050484e+3, 2.942389e+2, -285332.66, -223369.02, -33465.03, 0.01995428, -0.2962047, -208746.22, -152318.5, 0.0, 9.998637, 9.999454 
1.7050533e+3, 3.042375e+2, -283608.53, -212424.44, -28240.414, 0.02716813, -0.3740776, -202581.75, -202581.75, 0.0, 9.99838, 9.999318 
1.7050587e+3, 3.1423813e+2, -242368.73, -117451.79, 36623.23, 0.023865292, -0.24120563, -107506.38, -107506.38, 0.0, 9.998335, 9.999992 
1.7149678e+3, 1.24250606e+2, -1532953.1, -1757255.0, 29332.248, 0.10708623, -0.34324577, -1529180.8, 193134.84, 0.05779923, 10.001913, 9.998788 
1.7149706e+3, 1.3425085e+2, -1464092.0, -1644536.4, 5013.6533, -0.2145002, -0.23279722, -1463952.8, 160360.52, 0.03699678, 10.001535, 9.999073 
1.7149796e+3, 1.4424945e+2, -1397314.5, -1562815.1, -36309.707, 0.12724975, -0.2742205, -1389698.9, 136628.42, 0.018240586, 10.001295, 9.999073 
1.7149839e+3, 1.5424833e+2, -1293433.5, -1459923.9, -13627.903, 0.040687647, -0.30348712, -1292325.4, 136013.6, 0.0059123994, 10.001313, 9.999097 
1.7149884e+3, 1.642473e+2, -1200351.5, -1348219.3, -26393.934, -0.017850023, -0.32009205, -1195781.5, 134567.2, 0.0009130127, 10.001204, 9.999244 
1.7149934e+3, 1.742466e+2, -1138817.4, -1266273.5, -25500.734, 0.011668997, -0.3206617, -1133904.6, 98449.086, 0.000025810483, 10.000946, 9.999257 
1.7149985e+3, 1.8424568e+2, -1100099.4, -1263804.9, -29887.729, 0.034189418, -0.30689776, -1094813.4, 39549.484, 0.0, 10.000828, 9.998659 
1.7150031e+3, 1.9424453e+2, -992208.9, -1165730.4, -33715.105, 0.03229283, -0.28929546, -985888.25, 50488.54, 0.0, 10.0009165, 9.998615 
1.7150076e+3, 2.0424348e+2, -857745.25, -983570.75, -49805.934, 0.013970375, -0.2802884, -840416.8, 97970.33, 0.0, 10.000881, 9.99921 
1.7150116e+3, 2.142427e+2, -786940.4, -893602.56, -35639.113, -0.019765783, -0.29153815, -776128.25, 64263.14, 0.0, 10.000672, 9.999257 
1.7150159e+3, 2.2424135e+2, -775303.5, -927767.56, -26053.336, -0.022816107, -0.30942044, -770974.4, -28571.527, 0.0, 10.000469, 9.998446 
1.7150208e+3, 2.3423943e+2, -708028.44, -851925.56, -33650.09, 0.012982919, -0.34663212, -700548.25, -56125.574, 0.0, 10.00029, 9.998382 
1.7150255e+3, 2.4423817e+2, -622105.06, -716201.94, -56379.207, 0.025946645, -0.32481453, -595722.06, -49286.203, 0.0, 10.000019, 9.99877 
1.7150292e+3, 2.542379e+2, -576808.25, -639136.94, -60952.496, 0.011151114, -0.23925947, -539515.1, -91075.86, 0.0, 9.999639, 9.998809 
1.7150334e+3, 2.642367e+2, -502869.4, -539287.1, -44156.098, -0.0011325424, -0.24231315, -473315.06, -122864.164, 0.0, 9.999416, 9.998928 
1.7150375e+3, 2.7423444e+2, -408431.25, -441969.63, -37022.7, -0.01683315, -0.36725867, -384557.03, -132085.23, 0.0, 9.999387, 9.998938 
1.7150418e+3, 2.8423333e+2, -341471.22, -350650.25, -28506.566, -0.03250338, -0.37175134, -317187.1, -162704.73, 0.0, 9.999138, 9.999011 
1.7150465e+3, 2.942337e+2, -311871.94, -279727.75, -48724.57, -0.032456286, -0.24253438, -244492.97, -188013.17, 0.0, 9.998642, 9.999064 
1.7150518e+3, 3.042322e+2, -282496.3, -212909.56, -30590.104, 0.029455543, -0.30906326, -201374.39, -201374.39, 0.0, 9.998389, 9.999311 
1.7150572e+3, 3.1423146e+2, -190243.42, -11132.594, 41005.71, 0.03291459, -0.3195309, -2191.1016, -2191.1016, 0.0, 9.998342, 10.000721 
1.72497e+3, 1.2424506e+2, -1463244.6, -1753818.0, 46988.734, 0.11070829, -0.34805697, -1455835.0, 266533.63, 0.061463173, 10.00257, 9.998496 
1.7249721e+3, 1.3424502e+2, -1441512.9, -1667957.5, -6207.8633, -0.22100228, -0.23634495, -1441342.9, 183027.75, 0.03957232, 10.001854, 9.998757 
1.7249806e+3, 1.4424375e+2, -1377757.5, -1533454.6, -24081.084, 0.10302636, -0.25628015, -1374118.1, 152265.69, 0.019698907, 10.001348, 9.99925 
1.7249852e+3, 1.5424262e+2, -1294763.5, -1436247.4, -17474.92, 0.047874097, -0.30768657, -1292637.1, 135757.58, 0.0064899237, 10.0012, 9.999315 
1.7249897e+3, 1.6424167e+2, -1204420.3, -1348163.8, -37025.47, -0.00012158187, -0.32710177, -1195443.8, 134959.52, 0.001032905, 10.001168, 9.999261 
1.7249945e+3, 1.7424117e+2, -1090718.8, -1243483.5, -35146.348, 0.008846202, -0.30902505, -1083020.6, 149386.45, 0.00003215152, 10.001279, 9.999253 
1.7249992e+3, 1.8424033e+2, -1039618.44, -1220310.0, -29218.443, 0.026220838, -0.29392532, -1035011.2, 99404.336, 0.0, 10.001182, 9.998786 
1.7250042e+3, 1.9423914e+2, -997947.1, -1153820.8, -11330.272, 0.038921345, -0.29448566, -997127.9, 39301.22, 0.0, 10.0008135, 9.998747 
1.7250085e+3, 2.0423806e+2, -899134.9, -1009820.25, -25467.785, 0.02102432, -0.2931357, -893556.1, 44883.45, 0.0, 10.000625, 9.999154 
1.7250122e+3, 2.1423723e+2, -791155.8, -903433.7, -47156.73, -0.031337596, -0.2996872, -773978.06, 66466.69, 0.0, 10.000679, 9.999185 
1.7250164e+3, 2.2423592e+2, -755091.3, -902062.94, -51151.402, -0.036546696, -0.31717876, -739041.5, 3414.4446, 0.0, 10.000541, 9.998588 
1.7250212e+3, 2.3423412e+2, -719979.06, -839438.9, -31844.775, 0.017690372, -0.35727915, -712020.3, -67546.516, 0.0, 10.000133, 9.998541 
1.7250253e+3, 2.4423294e+2, -656771.75, -734671.7, -36413.18, 0.034007967, -0.33615384, -642401.75, -95915.55, 0.0, 9.999793, 9.99875 
1.7250288e+3, 2.5423262e+2, -592552.25, -651439.7, -41291.992, 0.0035787984, -0.2502508, -571281.44, -122790.82, 0.0, 9.999554, 9.998764 
1.7250326e+3, 2.6423147e+2, -509295.97, -532172.75, -20021.236, -0.01191695, -0.24988388, -497676.03, -147174.08, 0.0, 9.999329, 9.999019 
1.7250368e+3, 2.742294e+2, -439897.4, -445502.34, -22759.66, -0.016708016, -0.36556286, -419768.3, -167247.84, 0.0, 9.999123, 9.99904 
1.7250408e+3, 2.842283e+2, -386873.16, -390589.8, -21496.607, -0.037089474, -0.3696233, -367154.7, -212623.25, 0.0, 9.998906, 9.998849 
1.725045e+3, 2.9422835e+2, -326125.9, -311540.28, -31481.518, -0.053335156, -0.2544094, -286517.9, -229984.66, 0.0, 9.998654, 9.998839 
1.7250504e+3, 3.0422702e+2, -293207.72, -227628.14, -3616.753, 0.04758224, -0.28358302, -227429.28, -227429.28, 0.0, 9.998359, 9.999226 
1.7250551e+3, 3.1422627e+2, -213945.72, 32234.64, 52266.664, 0.016902415, -0.29229823, 42871.78, 42871.78, 0.0, 9.997944, 10.001211 
1.7349719e+3, 1.242402e+2, -1465576.0, -1754387.1, 59230.6, 0.032348175, -0.2779164, -1453900.8, 268515.53, 0.06523749, 10.002557, 9.998501 
1.7349747e+3, 1.342388e+2, -1447978.4, -1679797.3, -34421.69, -0.17106542, -0.29463512, -1442975.3, 181455.44, 0.042257246, 10.001849, 9.998679 
1.7349824e+3, 1.4423749e+2, -1378717.5, -1534450.8, -31843.14, 0.14808805, -0.31387424, -1372458.1, 153986.33, 0.021244539, 10.001343, 9.999247 
1.7349865e+3, 1.5423724e+2, -1293452.6, -1435272.5, -21945.47, 0.04145172, -0.27598056, -1290134.4, 138313.45, 0.007118056, 10.001205, 9.99932 
1.7349906e+3, 1.6423678e+2, -1201908.4, -1343435.8, -34133.242, -0.032249402, -0.250266, -1194106.4, 136346.5, 0.0011691411, 10.001169, 9.999293 
1.7349955e+3, 1.7423612e+2, -1088594.1, -1239134.9, -30197.574, -0.010150532, -0.25184765, -1082762.6, 149696.33, 0.00004011834, 10.001277, 9.999285 
1.7350003e+3, 1.8423524e+2, -1011508.25, -1160896.4, -41776.13, 0.011818106, -0.2601399, -1000619.3, 133847.38, 0.0, 10.001176, 9.999198 
1.7350048e+3, 1.9423425e+2, -967778.1, -1090674.8, -23855.707, 0.017759714, -0.2838453, -963309.9, 73165.336, 0.0, 10.000811, 9.999184 
1.735009e+3, 2.0423304e+2, -932051.56, -1077256.6, -24967.604, 0.008719383, -0.29832184, -927878.4, 10608.228, 0.0, 10.000619, 9.998694 
1.7350131e+3, 2.1423158e+2, -829422.0, -982597.3, -43710.504, -0.013189278, -0.31455895, -817826.5, 22674.41, 0.0, 10.000676, 9.998644 
1.7350172e+3, 2.2423032e+2, -723070.0, -834144.8, -64892.953, -0.016466232, -0.31999075, -693193.7, 49318.77, 0.0, 10.000535, 9.999057 
1.7350212e+3, 2.3422948e+2, -682506.9, -760379.6, -45435.598, 0.0022709053, -0.31943965, -661606.5, -17087.732, 0.0, 10.000126, 9.999087 
1.7350248e+3, 2.4422823e+2, -656502.75, -733087.1, -45394.785, -0.0014033099, -0.33452886, -635406.56, -88876.195, 0.0, 9.999787, 9.998764 
1.735028e+3, 2.542265e+2, -594538.0, -656016.8, -48402.71, -0.03006276, -0.3864616, -567938.6, -119390.37, 0.0, 9.999554, 9.998733 
1.7350318e+3, 2.6422542e+2, -510987.9, -535977.06, -27075.662, -0.028250914, -0.37649, -493662.94, -143103.44, 0.0, 9.99933, 9.998993 
1.7350361e+3, 2.742254e+2, -441123.44, -449634.66, -28696.713, 0.0022787047, -0.28515765, -416368.5, -163808.7, 0.0, 9.999128, 9.999009 
1.7350401e+3, 2.842246e+2, -387725.84, -394214.28, -30334.56, -0.010426271, -0.25496018, -360462.5, -205893.92, 0.0, 9.998913, 9.998821 
1.7350435e+3, 2.9422265e+2, -330596.4, -322688.66, -38350.56, -0.047269627, -0.33499452, -288088.7, -231499.17, 0.0, 9.99866, 9.998761 
1.735049e+3, 3.0422193e+2, -305240.9, -252985.66, -18368.738, 0.07712503, -0.2916463, -247174.84, -247174.84, 0.0, 9.99836, 9.999051 
1.7350528e+3, 3.142217e+2, -199218.4, 62331.297, 17708.688, -0.024834437, -0.23326193, 63524.848, 63524.848, 0.0, 9.997948, 10.001416 
1.7449741e+3, 1.2423476e+2, -1422474.8, -1709673.4, 78918.34, -0.0034142612, -0.27854934, -1402217.9, 320251.2, 0.069128506, 10.002784, 9.998704 
1.744977e+3, 1.3423312e+2, -1418696.5, -1654342.4, -40131.04, -0.1271229, -0.3284014, -1412049.6, 212435.52, 0.045049455, 10.002021, 9.998771 
1.744984e+3, 1.4423189e+2, -1364009.4, -1533449.4, -10892.776, 0.15274665, -0.3410689, -1363312.0, 163185.98, 0.022873743, 10.001479, 9.999186 
1.7449875e+3, 1.5423195e+2, -1290543.0, -1442314.5, -7940.6743, 0.03073129, -0.26602298, -1290128.8, 138370.64, 0.0077954754, 10.001266, 9.999241 
1.7449914e+3, 1.6423158e+2, -1217994.1, -1350712.6, -18832.018, -0.050888382, -0.22734258, -1215373.8, 115130.37, 0.0013223072, 10.001057, 9.999298 
1.7449965e+3, 1.742307e+2, -1146826.8, -1266210.1, -17653.885, -0.026547201, -0.25085822, -1144270.9, 88241.695, 0.000049909977, 10.0008745, 9.999291 
1.7450012e+3, 1.842298e+2, -1057260.1, -1169802.8, -43279.38, 0.0023623796, -0.26595622, -1042541.56, 91978.75, 0.0000000000000006446772, 10.000807, 9.999313 
1.7450055e+3, 1.9422908e+2, -948174.7, -1067155.8, -51009.273, 0.019387964, -0.27674872, -929300.25, 107225.57, 0.0, 10.000887, 9.999306 
1.7450097e+3, 2.0422794e+2, -922515.1, -1075483.9, -52140.11, 0.020366376, -0.2888994, -906433.56, 32102.848, 0.0, 10.000699, 9.998667 
1.7450137e+3, 2.1422635e+2, -908728.2, -1025461.2, -35456.98, 0.0064180065, -0.31469023, -898802.3, -58249.473, 0.0, 10.000153, 9.998601 
1.7450175e+3, 2.2422516e+2, -809648.2, -847843.0, -42492.12, -0.0019935141, -0.32247558, -782159.25, -39595.35, 0.0, 9.999821, 9.999307 
1.745021e+3, 2.3422465e+2, -713076.2, -744864.0, -45853.785, -0.0060739033, -0.31694952, -680439.9, -35873.516, 0.0, 9.999787, 9.999356 
1.7450243e+3, 2.4422356e+2, -654576.8, -718746.06, -49962.266, -0.020682514, -0.33326772, -627284.25, -80708.586, 0.0, 9.999743, 9.998883 
1.7450275e+3, 2.5422192e+2, -570188.3, -632138.06, -43962.023, -0.044072896, -0.39111072, -547384.94, -98791.84, 0.0, 9.999672, 9.998838 
1.7450312e+3, 2.6422095e+2, -494124.63, -531582.0, -21361.982, -0.031686142, -0.3729657, -484443.84, -133840.5, 0.0, 9.999465, 9.998957 
1.7450354e+3, 2.742211e+2, -452181.5, -460663.4, -26618.252, 0.014108488, -0.260399, -429468.47, -176865.92, 0.0, 9.99908, 9.998956 
1.745039e+3, 2.8422016e+2, -387772.7, -372331.56, -16623.459, 0.0005117797, -0.24819955, -361723.28, -207110.84, 0.0, 9.998819, 9.999016 
1.7450422e+3, 2.9421788e+2, -312031.3, -293770.6, -7806.4893, -0.05231043, -0.38359636, -290888.28, -234252.33, 0.0, 9.998704, 9.998938 
1.7450474e+3, 3.042179e+2, -283554.2, -249045.53, 24808.857, 0.08162313, -0.2692307, -236080.81, -236080.81, 0.0, 9.998536, 9.998995 
1.7450503e+3, 3.1421712e+2, -175400.4, 53227.813, 29554.293, -0.07558035, -0.26250774, 56986.44, 56986.44, 0.0, 9.998202, 10.00123 
1.754977e+3, 1.2422885e+2, -1400425.8, -1657786.3, 78400.16, 0.0011292385, -0.3416176, -1378423.6, 344102.4, 0.0731461, 10.002768, 9.999095 
1.7549792e+3, 1.34228e+2, -1401589.5, -1617274.6, -67818.24, -0.09412046, -0.33808303, -1382037.6, 242496.08, 0.04794812, 10.002023, 9.99903 
1.754985e+3, 1.4422701e+2, -1373486.4, -1553022.3, -20965.549, 0.11008168, -0.33449185, -1371070.6, 155473.42, 0.02458278, 10.001479, 9.999052 
1.7549886e+3, 1.5422672e+2, -1303083.9, -1468169.3, -15372.667, 0.012064952, -0.27930424, -1301664.6, 126884.75, 0.008520388, 10.001264, 9.999065 
1.7549925e+3, 1.6422603e+2, -1220818.4, -1355460.8, -26370.695, -0.059735537, -0.26034427, -1215837.6, 114719.56, 0.0014925124, 10.001051, 9.999269 
1.7549972e+3, 1.7422491e+2, -1148603.9, -1269884.1, -23674.025, -0.044960953, -0.30470926, -1144146.5, 88421.44, 0.00006156021, 10.000874, 9.999268 
1.755002e+3, 1.8422404e+2, -1069961.6, -1196070.6, -41056.223, -0.008573596, -0.3103808, -1057773.4, 76803.15, 0.0000000010737394, 10.000805, 9.999135 
1.7550068e+3, 1.9422357e+2, -962128.4, -1096317.9, -46680.63, 0.04069287, -0.2748569, -947487.06, 89094.16, 0.0, 10.000886, 9.999107 
1.7550108e+3, 2.0422272e+2, -894730.1, -1017113.9, -70802.42, 0.053582225, -0.26523903, -862340.9, 76248.5, 0.0, 10.000695, 9.99907 
1.7550139e+3, 2.1422149e+2, -877826.8, -960330.4, -54478.26, 0.023669891, -0.29937747, -850744.2, -10143.321, 0.0, 10.000147, 9.999052 
1.7550173e+3, 2.242204e+2, -809008.94, -845545.0, -44779.5, 0.0023492514, -0.32433924, -778914.56, -36303.93, 0.0, 9.999816, 9.999326 
1.7550208e+3, 2.3421954e+2, -714927.1, -748881.2, -45063.563, -0.010242786, -0.3503677, -683748.75, -39131.754, 0.0, 9.999785, 9.9993305 
1.755024e+3, 2.442189e+2, -639347.9, -686344.75, -52092.32, -0.027391639, -0.33277622, -605699.25, -59076.57, 0.0, 9.99974, 9.999108 
1.755027e+3, 2.5421873e+2, -553369.25, -597147.3, -44943.293, -0.043380957, -0.26570308, -525268.0, -76642.09, 0.0, 9.999671, 9.999081 
1.7550306e+3, 2.642179e+2, -497915.97, -540068.06, -34427.004, -0.02724423, -0.24109118, -478625.97, -127991.58, 0.0, 9.999466, 9.998898 
1.7550345e+3, 2.7421638e+2, -457458.16, -472939.03, -38892.453, 0.0155174555, -0.29130995, -425543.38, -172893.86, 0.0, 9.9990835, 9.99887 
1.7550378e+3, 2.842149e+2, -359356.5, -313457.22, -21332.586, -0.0073660905, -0.34882203, -305073.72, -150409.86, 0.0, 9.998819, 9.99942 
1.7550407e+3, 2.9421386e+2, -281161.72, -232395.02, -10990.356, -0.07493693, -0.4027272, -230032.61, -173358.72, 0.0, 9.998714, 9.999354 
1.7550458e+3, 3.042149e+2, -276474.6, -235931.44, 14587.695, 0.053127486, -0.21153311, -231228.27, -231228.27, 0.0, 9.998543, 9.999083 
1.755048e+3, 3.1421322e+2, -236525.84, -71612.79, -26292.191, -0.11585521, -0.3004742, -67522.46, -67522.46, 0.0, 9.998195, 10.000376 
1.7649795e+3, 1.2422381e+2, -1453572.4, -1684044.4, 119067.16, 0.0013202644, -0.37346825, -1403108.9, 319465.75, 0.07730057, 10.002387, 9.999089 
1.7649814e+3, 1.3422336e+2, -1404562.6, -1629380.1, -74901.07, -0.082477, -0.32128167, -1381894.0, 242685.31, 0.050952706, 10.002057, 9.99893 
1.7649858e+3, 1.4422229e+2, -1327907.1, -1530229.4, -22841.36, 0.037434395, -0.32135677, -1325360.5, 201230.17, 0.026366603, 10.001802, 9.999052 
1.76499e+3, 1.5422161e+2, -1230050.4, -1431269.0, -2928.6567, 0.0051704114, -0.3030405, -1230007.8, 198590.67, 0.009289176, 10.001767, 9.999075 
1.764994e+3, 1.6422082e+2, -1148428.5, -1322017.8, -11046.444, -0.035893723, -0.2935355, -1147728.4, 182878.56, 0.0016790415, 10.001559, 9.999251 
1.7649981e+3, 1.7421997e+2, -1116352.3, -1257040.5, -11108.177, -0.039248757, -0.31073806, -1115480.6, 117135.37, 0.000074904594, 10.001109, 9.999242 
1.7650028e+3, 1.8421918e+2, -1079354.5, -1200041.6, -13343.863, -0.008906073, -0.3062552, -1077896.8, 56727.492, 0.000000009428086, 10.00074, 9.999138 
1.7650074e+3, 1.9421859e+2, -1018384.75, -1123436.1, -5276.5894, 0.050588217, -0.28210688, -1018120.4, 18510.055, 0.0, 10.000502, 9.999106 
1.7650114e+3, 2.0421784e+2, -926221.1, -1010804.1, -33557.81, 0.06546562, -0.27218747, -914524.7, 24113.168, 0.0, 10.000387, 9.999262 
1.7650142e+3, 2.1421698e+2, -820829.6, -909448.9, -38147.688, 0.025666723, -0.2912141, -806670.56, 33975.008, 0.0, 10.00044, 9.999259 
1.7650172e+3, 2.2421607e+2, -746814.25, -813212.06, -38926.613, -0.003973612, -0.30740947, -728852.1, 13801.074, 0.0, 10.000234, 9.999345 
1.7650203e+3, 2.3421524e+2, -732267.56, -756834.6, -39122.727, -0.022907859, -0.33148572, -703545.3, -58885.68, 0.0, 9.999667, 9.999331 
1.7650235e+3, 2.442146e+2, -698643.9, -707424.7, -41397.29, -0.03572453, -0.3177472, -661404.8, -114739.38, 0.0, 9.999301, 9.999174 
1.7650266e+3, 2.5421438e+2, -613924.3, -618806.1, -48023.348, -0.03406683, -0.2615967, -568279.9, -119611.06, 0.0, 9.999223, 9.999147 
1.76503e+3, 2.6421362e+2, -535256.2, -536590.44, -42220.426, -0.016549315, -0.24556307, -493697.6, -143020.81, 0.0, 9.999118, 9.999089 
1.7650333e+3, 2.7421218e+2, -462469.9, -452497.44, -27725.643, 0.009840403, -0.30440107, -429313.25, -176622.52, 0.0, 9.998953, 9.999072 
1.7650364e+3, 2.8421098e+2, -377785.1, -308732.84, -8016.311, -0.016752366, -0.35268795, -307814.44, -153111.92, 0.0, 9.998635, 9.999541 
1.7650391e+3, 2.9421046e+2, -357586.16, -257290.47, -22606.633, -0.079470605, -0.36572093, -252430.44, -195723.02, 0.0, 9.99814, 9.999459 
1.7650437e+3, 3.0421147e+2, -306994.78, -212885.44, 18457.951, 0.016268462, -0.20114107, -209394.7, -209394.7, 0.0, 9.998169, 9.99942 
1.7650467e+3, 3.142094e+2, -182157.6, -85949.586, -44565.566, -0.09808211, -0.36114746, -68478.56, -68478.56, 0.0, 9.998745, 10.00001 
1.7749819e+3, 1.2421989e+2, -1486219.6, -1748234.5, 112883.29, 0.0016554763, -0.35484195, -1444294.8, 278317.5, 0.081620745, 10.002367, 9.9986515 
1.7749834e+3, 1.3421915e+2, -1440148.5, -1704364.8, -88526.24, -0.09871055, -0.27834246, -1413230.1, 211392.03, 0.054072574, 10.002052, 9.998417 
1.7749865e+3, 1.4421766e+2, -1318170.5, -1508718.1, -27125.563, -0.07128889, -0.30196467, -1314384.3, 212253.61, 0.028222809, 10.0018, 9.999206 
1.7749918e+3, 1.5421665e+2, -1216018.8, -1402582.5, -3284.2932, 0.005982064, -0.3370071, -1215961.0, 212685.55, 0.010097322, 10.001769, 9.999273 
1.774996e+3, 1.6421597e+2, -1149215.5, -1324102.8, -26944.205, 0.015489581, -0.32683915, -1145158.4, 185494.88, 0.0018804749, 10.00156, 9.999237 
1.7749996e+3, 1.7421582e+2, -1118846.9, -1262218.3, -27160.328, -0.01240782, -0.26980263, -1113874.0, 118782.81, 0.00008970714, 10.001108, 9.9992075 
1.7750035e+3, 1.842152e+2, -1067651.6, -1175297.4, -22905.686, -0.0014706055, -0.2531881, -1062980.3, 71683.52, 0.000000028818846, 10.000736, 9.9993105 
1.775008e+3, 1.9421412e+2, -1005740.06, -1096660.4, -12806.859, 0.04531325, -0.29760545, -1003970.5, 32703.277, 0.0, 10.000498, 9.999292 
1.7750116e+3, 2.0421325e+2, -928587.06, -1015131.2, -32102.873, 0.051478684, -0.30959696, -917979.0, 20703.215, 0.0, 10.000382, 9.999234 
1.7750145e+3, 2.142127e+2, -824649.9, -917396.8, -34485.043, 0.009340024, -0.29169744, -813233.06, 27454.555, 0.0, 10.000438, 9.999206 
1.7750174e+3, 2.2421214e+2, -745642.25, -810011.7, -58097.0, -0.023869162, -0.2715902, -711410.75, 31281.537, 0.0, 10.000229, 9.99937 
1.7750198e+3, 2.3421168e+2, -730969.44, -753170.2, -58731.793, -0.04664504, -0.2606012, -682298.25, -37603.418, 0.0, 9.999661, 9.999361 
1.7750226e+3, 2.442106e+2, -705400.5, -721306.44, -45034.375, -0.048935622, -0.28968558, -667622.25, -120917.62, 0.0, 9.999299, 9.999081 
1.775026e+3, 2.542088e+2, -621751.2, -635923.06, -48615.773, -0.020958822, -0.3789706, -579707.7, -130985.19, 0.0, 9.999225, 9.99903 
1.7750293e+3, 2.64208e+2, -505064.16, -474227.7, -47447.023, -0.0044935304, -0.38492185, -439756.63, -89025.48, 0.0, 9.999119, 9.9995165 
1.7750323e+3, 2.7420846e+2, -428276.6, -383142.84, -32552.102, -0.009017744, -0.29842967, -366100.34, -113373.47, 0.0, 9.998959, 9.999546 
1.775035e+3, 2.8420827e+2, -387232.7, -329770.78, -26081.111, -0.03291073, -0.26043442, -319698.5, -164969.22, 0.0, 9.998641, 9.999394 
1.7750373e+3, 2.9420754e+2, -369799.5, -284675.88, -38641.7, -0.06826503, -0.27604547, -269751.25, -213013.77, 0.0, 9.998147, 9.999269 
1.7750414e+3, 3.042074e+2, -263475.3, -122728.586, 40932.035, -0.03429325, -0.24660134, -111690.39, -111690.39, 0.0, 9.998169, 10.00004 
1.7750466e+3, 3.1420746e+2, -174968.56, -72051.29, -52003.74, 0.010905521, -0.25912383, -50349.965, -50349.965, 0.0, 9.998752, 10.000101 
1.784984e+3, 1.24215856e+2, -1473107.6, -1742104.1, 95724.86, -0.028658573, -0.33436838, -1442521.0, 280131.63, 0.08616123, 10.002482, 9.998633 
1.784986e+3, 1.3421513e+2, -1375563.8, -1669405.0, -64723.99, -0.06689743, -0.25793493, -1361938.9, 262723.38, 0.057330903, 10.002522, 9.998427 
1.7849882e+3, 1.4421342e+2, -1258945.5, -1480571.5, 5888.775, -0.11510715, -0.30101758, -1258789.1, 267890.44, 0.030156005, 10.002229, 9.999195 
1.7849934e+3, 1.5421231e+2, -1243124.3, -1417415.1, 11856.674, -0.005216091, -0.34600675, -1242321.4, 186367.52, 0.0109433, 10.001594, 9.999253 
1.7849976e+3, 1.6421165e+2, -1206227.9, -1352769.4, -18581.95, 0.026733713, -0.33335346, -1203908.3, 126787.17, 0.0020959685, 10.001175, 9.999226 
1.7850009e+3, 1.7421167e+2, -1127398.1, -1267715.8, -18275.406, 0.00921723, -0.25755137, -1125056.9, 107640.95, 0.000105867584, 10.001058, 9.999193 
1.7850046e+3, 1.8421116e+2, -1038648.75, -1155362.8, -13730.411, 0.010651685, -0.23176414, -1037055.25, 97648.73, 0.0000000562377, 10.000913, 9.999361 
1.7850083e+3, 1.942101e+2, -966977.94, -1071843.0, -15453.317, 0.018570565, -0.28012154, -964748.1, 71965.59, 0.0, 10.00074, 9.999345 
1.7850117e+3, 2.0420916e+2, -919859.2, -1016726.9, -38908.52, 0.016741395, -0.29625228, -906166.44, 32556.043, 0.0, 10.000469, 9.999181 
1.7850147e+3, 2.1420856e+2, -882947.2, -952933.06, -43760.785, 0.00774422, -0.2803271, -861908.8, -21179.908, 0.0, 10.000071, 9.999138 
1.7850174e+3, 2.2420795e+2, -809415.1, -834988.56, -72846.336, -0.0104396865, -0.26446995, -748241.75, -5507.6704, 0.0, 9.999766, 9.999421 
1.7850193e+3, 2.3420745e+2, -735774.06, -748381.4, -73790.46, -0.04168381, -0.26313758, -668018.5, -23281.76, 0.0, 9.9995985, 9.999424 
1.785022e+3, 2.4420638e+2, -689661.3, -690376.94, -43775.59, -0.04465513, -0.30215067, -646242.06, -99496.43, 0.0, 9.999306, 9.9992895 
1.7850251e+3, 2.5420472e+2, -663659.9, -631495.7, -23659.758, -0.008615948, -0.40121222, -618969.75, -170208.5, 0.0, 9.998831, 9.999249 
1.7850281e+3, 2.6420406e+2, -572160.3, -498021.88, -9505.674, -0.003846293, -0.40782437, -496822.5, -146054.23, 0.0, 9.998621, 9.999594 
1.7850308e+3, 2.742047e+2, -449066.03, -387116.2, -25093.133, -0.03994203, -0.30887607, -378227.47, -125464.31, 0.0, 9.998789, 9.999602 
1.7850335e+3, 2.8420475e+2, -352843.78, -309627.53, -39210.35, -0.044523902, -0.25470307, -286465.53, -131701.42, 0.0, 9.99886, 9.999427 
1.7850363e+3, 2.9420426e+2, -280741.6, -234572.56, -39370.727, -0.007423284, -0.24968313, -212017.75, -155247.78, 0.0, 9.998728, 9.999332 
1.7850393e+3, 3.042035e+2, -217825.34, -76022.73, 51255.098, -0.0695433, -0.2952718, -59436.43, -59436.43, 0.0, 9.998375, 10.000262 
1.7850451e+3, 3.142046e+2, -299358.9, -113752.42, -79981.79, 0.028365126, -0.22630432, -84042.29, -84042.29, 0.0, 9.997823, 10.00026 
1.7949858e+3, 1.24211796e+2, -1449407.3, -1682686.9, 79111.59, -0.0939785, -0.30814844, -1425109.3, 297585.78, 0.09098768, 10.002462, 9.999062 
1.7949893e+3, 1.3421129e+2, -1341373.1, -1593492.4, -62142.598, 0.011041647, -0.2603605, -1326888.3, 297811.28, 0.060760994, 10.002521, 9.99896 
1.7949906e+3, 1.4420964e+2, -1272982.1, -1508438.1, -17421.982, -0.09767168, -0.31848422, -1271700.0, 255015.53, 0.03217915, 10.002226, 9.999001 
1.7949948e+3, 1.5420862e+2, -1261879.0, -1455552.4, -10930.466, -0.03362951, -0.32887885, -1261264.0, 167461.39, 0.011831271, 10.001589, 9.998994 
1.7949983e+3, 1.6420786e+2, -1207780.5, -1355066.5, -24696.773, -0.0074109305, -0.31125665, -1203749.8, 126983.945, 0.0023264778, 10.001169, 9.999212 
1.795002e+3, 1.7420751e+2, -1127194.0, -1267190.8, -21544.518, 0.022363912, -0.2729997, -1123953.4, 108785.664, 0.00012352158, 10.001056, 9.999197 
1.7950055e+3, 1.8420702e+2, -1044370.44, -1167583.0, -20020.326, 0.022720745, -0.24213551, -1041199.06, 93546.07, 0.000000085167756, 10.000913, 9.999278 
1.7950085e+3, 1.9420645e+2, -973055.3, -1085187.6, -20536.309, -0.03294499, -0.23080386, -969412.56, 67338.16, 0.0, 10.000741, 9.999253 
1.7950116e+3, 2.042056e+2, -925728.94, -1028556.4, -52881.54, -0.04177211, -0.23150316, -903387.5, 35371.574, 0.0, 10.000466, 9.999102 
1.795015e+3, 2.1420449e+2, -889506.94, -965908.4, -56636.027, 0.01837824, -0.2570341, -859392.7, -18622.936, 0.0, 10.000066, 9.999053 
1.7950176e+3, 2.2420338e+2, -804871.2, -825299.06, -79123.836, 0.03278964, -0.28739268, -735304.75, 7474.493, 0.0, 9.9997635, 9.99949 
1.7950194e+3, 2.3420246e+2, -730536.56, -737930.6, -78224.375, -0.013655999, -0.3388941, -655921.9, -11135.844, 0.0, 9.999598, 9.999496 
1.7950214e+3, 2.4420191e+2, -653320.9, -614786.6, -60165.59, -0.027897615, -0.35341287, -570878.44, -24089.29, 0.0, 9.999304, 9.99981 
1.795024e+3, 2.5420207e+2, -624138.2, -549845.1, -39926.83, 0.00014101346, -0.32723632, -532457.1, -83671.36, 0.0, 9.998831, 9.999811 
1.7950267e+3, 2.6420173e+2, -589479.8, -535787.8, -4182.1235, -0.016737154, -0.316992, -535464.06, -184674.97, 0.0, 9.998627, 9.999332 
1.795029e+3, 2.742008e+2, -472188.72, -437879.22, -15488.486, -0.08895108, -0.34305596, -431921.66, -179120.9, 0.0, 9.998798, 9.99925 
1.7950322e+3, 2.8420025e+2, -339195.3, -281491.4, -42582.992, -0.056981932, -0.3370237, -258906.55, -104098.83, 0.0, 9.998861, 9.9996195 
1.7950362e+3, 2.9420057e+2, -260568.02, -193038.9, -43672.773, 0.09483507, -0.2759567, -171600.6, -114796.09, 0.0, 9.998729, 9.999618 
1.7950374e+3, 3.041996e+2, -229122.02, -99893.18, 31144.664, -0.10154696, -0.35154727, -92778.85, -92778.85, 0.0, 9.998375, 10.000098 
1.7950422e+3, 3.1420028e+2, -251767.52, -21416.498, -62332.14, -0.05307178, -0.30143324, -5631.35, -5631.35, 0.0, 9.997848, 10.000883 
1.8049881e+3, 1.2420822e+2, -1443506.9, -1675834.0, 116481.09, -0.13107808, -0.32173148, -1395165.6, 327563.75, 0.09616451, 10.002503, 9.999095 
1.8049923e+3, 1.3420777e+2, -1350688.9, -1585237.5, -28631.387, 0.055157185, -0.28308168, -1347244.4, 277488.75, 0.06440308, 10.002403, 9.999077 
1.8049929e+3, 1.4420617e+2, -1283218.9, -1526388.1, -10081.56, -0.104798146, -0.33641884, -1282801.6, 243947.14, 0.03431206, 10.002218, 9.998876 
1.8049964e+3, 1.5420541e+2, -1211240.5, -1447176.9, 2819.5278, -0.039790355, -0.3037564, -1211206.9, 217550.2, 0.01276939, 10.002015, 9.998845 
1.8049997e+3, 1.6420457e+2, -1137425.3, -1331653.5, -2798.395, -0.016987698, -0.2815917, -1137384.9, 193381.42, 0.002574409, 10.001704, 9.999114 
1.805003e+3, 1.7420366e+2, -1103539.8, -1266421.5, -9174.582, -0.0005362411, -0.28958666, -1103024.6, 129751.74, 0.00014305822, 10.001267, 9.9991 
1.8050063e+3, 1.8420292e+2, -1046651.8, -1176800.9, -7299.3447, 0.0010811794, -0.27462375, -1046243.75, 88540.625, 0.00000010953618, 10.000934, 9.999204 
1.8050092e+3, 1.9420256e+2, -977134.2, -1095157.4, -7487.226, -0.034505837, -0.23647396, -976661.1, 60127.316, 0.0, 10.00075, 9.99918 
1.8050122e+3, 2.0420183e+2, -913488.44, -1011080.8, -38694.316, -0.035837844, -0.22592765, -900008.5, 38787.18, 0.0, 10.000503, 9.999204 
1.805015e+3, 2.1420072e+2, -866931.94, -941414.56, -30620.215, 0.013536885, -0.26261038, -855960.0, -15154.026, 0.0, 10.000165, 9.999171 
1.8050174e+3, 2.2419956e+2, -794446.94, -827319.6, -42398.13, 0.032747474, -0.30206007, -765410.7, -22594.635, 0.0, 9.9998665, 9.999426 
1.8050192e+3, 2.3419851e+2, -733189.3, -747963.44, -53435.207, 0.012782806, -0.35723126, -686633.0, -41808.52, 0.0, 9.999619, 9.999417 
1.8050212e+3, 2.4419805e+2, -632164.4, -602328.1, -60041.754, 0.0004425769, -0.3601766, -555379.0, -8551.898, 0.0, 9.99944, 9.99983 
1.8050231e+3, 2.5419855e+2, -545740.75, -508883.06, -81375.95, -0.0048739035, -0.3031632, -443875.3, 4945.214, 0.0, 9.999356, 9.999839 
1.8050253e+3, 2.641983e+2, -527444.06, -505449.0, -55805.88, -0.035299707, -0.2862307, -459567.34, -108744.35, 0.0, 9.999049, 9.999338 
1.8050277e+3, 2.7419707e+2, -527978.6, -464988.97, -43067.453, -0.08594928, -0.34083435, -443129.06, -190291.83, 0.0, 9.998416, 9.999248 
1.805031e+3, 2.8419638e+2, -429182.28, -301405.5, -44149.473, -0.032344624, -0.3571314, -287635.0, -132790.08, 0.0, 9.998142, 9.999829 
1.805035e+3, 2.9419687e+2, -300208.03, -181977.23, -47430.773, 0.1250595, -0.30424362, -165301.4, -108462.086, 0.0, 9.998326, 9.999888 
1.8050353e+3, 3.0419627e+2, -267686.53, -143714.61, 9636.266, -0.14314258, -0.35222143, -142970.06, -142970.06, 0.0, 9.99822, 9.999871 
1.8050404e+3, 3.1419715e+2, -232383.23, 4893.6597, -44244.21, -0.0059951087, -0.24903788, 12875.24, 12875.24, 0.0, 9.997909, 10.001036 
1.8149903e+3, 1.24205224e+2, -1469983.4, -1727188.4, 76690.945, -0.1474386, -0.37054664, -1448852.4, 273902.97, 0.10174683, 10.002492, 9.998729 
1.8149947e+3, 1.3420452e+2, -1372193.4, -1627390.9, -30834.566, 0.05839027, -0.32540837, -1368520.6, 256242.34, 0.06829826, 10.002398, 9.998775 
1.8149947e+3, 1.4420298e+2, -1288922.6, -1535906.8, -19458.799, -0.14554074, -0.35491124, -1287398.9, 239380.45, 0.0365772, 10.002211, 9.998815 
1.8149985e+3, 1.542027e+2, -1215057.5, -1454030.1, -3776.171, -0.02707954, -0.2707833, -1214997.9, 213786.0, 0.013766695, 10.002011, 9.9988 
1.8150015e+3, 1.6420178e+2, -1150855.5, -1360276.9, -18735.465, -0.00648208, -0.2440439, -1149192.5, 181601.25, 0.0028426799, 10.001704, 9.998919 
1.8150036e+3, 1.7420012e+2, -1117562.8, -1296350.0, -24356.102, -0.06342768, -0.30756304, -1114304.1, 118505.79, 0.00016504708, 10.001268, 9.998895 
1.8150066e+3, 1.8419889e+2, -1052098.9, -1187754.8, -14701.596, -0.059225045, -0.32777464, -1050523.9, 84298.06, 0.00000012908751, 10.000931, 9.99913 
1.8150105e+3, 1.941984e+2, -981547.7, -1104750.1, -12720.522, 0.01126207, -0.29698434, -980248.0, 56579.23, 0.0, 10.000751, 9.999115 
1.8150133e+3, 2.041978e+2, -894607.0, -971942.25, -50486.04, 0.031172303, -0.28057125, -869682.0, 69150.96, 0.0, 10.000502, 9.999474 
1.8150151e+3, 2.1419717e+2, -846073.44, -898613.7, -41636.977, -0.011204604, -0.29764035, -823111.9, 17726.463, 0.0, 10.000165, 9.999467 
1.8150169e+3, 2.241964e+2, -807534.5, -853564.4, -51585.91, -0.014692368, -0.30732676, -774062.3, -31217.182, 0.0, 9.999862, 9.999249 
1.8150191e+3, 2.3419558e+2, -748836.44, -780568.1, -60592.46, 0.03587796, -0.31861538, -702067.06, -57214.414, 0.0, 9.999618, 9.999196 
1.8150209e+3, 2.4419473e+2, -665815.1, -672969.7, -62779.004, 0.038324952, -0.32569897, -606511.56, -59651.16, 0.0, 9.999441, 9.999346 
1.8150222e+3, 2.5419408e+2, -581681.0, -584563.0, -82298.01, -0.030288137, -0.33083773, -500811.38, -51944.973, 0.0, 9.999358, 9.99932 
1.815024e+3, 2.6419365e+2, -508526.25, -466163.03, -77571.09, -0.06536129, -0.31475312, -406933.6, -56062.91, 0.0, 9.999049, 9.999608 
1.8150266e+3, 2.7419353e+2, -504181.66, -415797.28, -65282.86, -0.036318276, -0.29767078, -381155.47, -128282.586, 0.0, 9.998416, 9.999585 
1.8150297e+3, 2.8419313e+2, -409901.75, -264722.1, -37997.242, 0.024812076, -0.3142025, -255378.58, -100502.164, 0.0, 9.998153, 10.000078 
1.815033e+3, 2.9419297e+2, -276163.03, -140367.69, -38115.918, 0.078830376, -0.34591624, -130400.625, -73524.56, 0.0, 9.998358, 10.000161 
1.815033e+3, 3.041933e+2, -292870.16, -195867.83, -5726.55, -0.19741246, -0.3012607, -195530.94, -195530.94, 0.0, 9.998224, 9.999509 
1.8150386e+3, 3.1419292e+2, -260097.06, -50797.44, 21320.365, 0.019020611, -0.27858424, -48647.715, -48647.715, 0.0, 9.997895, 10.000661 
1.8249929e+3, 1.24202505e+2, -1472285.3, -1748462.8, 32497.158, -0.14950722, -0.3774874, -1468512.9, 254268.1, 0.10776605, 10.002585, 9.998525 
1.8249972e+3, 1.3420175e+2, -1318114.5, -1614276.8, -27707.525, 0.054974105, -0.32406867, -1315544.6, 309245.6, 0.072472624, 10.002871, 9.998641 
1.8249968e+3, 1.4420012e+2, -1229973.6, -1509702.1, -27984.637, -0.17991284, -0.35320646, -1227201.5, 299606.2, 0.038990494, 10.002652, 9.998785 
1.8250005e+3, 1.5419973e+2, -1235118.5, -1465809.4, -12794.855, -0.02795891, -0.27651614, -1234411.0, 194401.45, 0.01482972, 10.001884, 9.998778 
1.8250033e+3, 1.6419873e+2, -1174044.5, -1379046.0, -6756.6846, 0.0035543498, -0.25541627, -1173822.1, 157000.77, 0.0031336541, 10.00158, 9.998848 
1.8250051e+3, 1.7419697e+2, -1032083.4, -1263611.4, -3117.0242, -0.07850776, -0.31984913, -1032041.44, 200798.1, 0.00019006866, 10.001895, 9.9988165 
1.8250076e+3, 1.8419561e+2, -947121.25, -1141023.1, -3892.1296, -0.08063819, -0.34811914, -947043.1, 187809.52, 0.00000015151502, 10.001671, 9.999093 
1.8250111e+3, 1.9419491e+2, -988442.7, -1111789.3, -3233.3853, 0.008543276, -0.33369923, -988358.0, 48501.53, 0.0, 10.000722, 9.999079 
1.8250138e+3, 2.0419428e+2, -950024.6, -1006282.56, -37247.305, 0.041349787, -0.3161471, -931478.1, 7387.7026, 0.0, 10.0001545, 9.999405 
1.8250152e+3, 2.1419385e+2, -859262.9, -912409.3, -56209.734, 0.0037754704, -0.3068195, -823661.56, 17208.732, 0.0, 10.000109, 9.999398 
1.8250169e+3, 2.2419327e+2, -793585.4, -847732.56, -76702.03, -0.0082931975, -0.2942976, -739319.06, 3556.812, 0.0, 9.999961, 9.999242 
1.8250184e+3, 2.3419257e+2, -742620.5, -777276.75, -71675.62, 0.015097299, -0.29090872, -686208.2, -41326.21, 0.0, 9.9996605, 9.999197 
1.8250202e+3, 2.4419156e+2, -690519.4, -709860.2, -51385.656, 0.018337682, -0.30494395, -647902.06, -101010.54, 0.0, 9.99938, 9.999122 
1.8250217e+3, 2.541903e+2, -633978.6, -637112.3, -51078.066, -0.00988133, -0.34659162, -584443.4, -135539.38, 0.0, 9.999118, 9.999075 
1.8250233e+3, 2.6418966e+2, -519540.9, -460177.47, -46865.383, -0.030451426, -0.34355554, -434385.16, -83475.07, 0.0, 9.998926, 9.999708 
1.8250252e+3, 2.7418986e+2, -438806.3, -370101.5, -52693.97, -0.02360739, -0.30517936, -341551.25, -88643.734, 0.0, 9.998806, 9.999711 
1.8250279e+3, 2.8418952e+2, -354813.2, -269848.16, -37533.21, 0.0127969, -0.30842498, -255642.88, -100732.6, 0.0, 9.998668, 9.999795 
1.825031e+3, 2.9418904e+2, -279698.0, -175328.25, -82000.79, 0.047039296, -0.34446007, -130315.44, -73400.41, 0.0, 9.998479, 9.999862 
1.8250315e+3, 3.041894e+2, -301461.66, -183053.31, -70118.23, -0.15403777, -0.2822227, -150487.67, -150487.67, 0.0, 9.998096, 9.999657 
1.825037e+3, 3.1418854e+2, -291883.13, -56786.555, 54364.57, 0.085374996, -0.3303451, -44823.813, -44823.813, 0.0, 9.997632, 10.00075 
1.8349953e+3, 1.24200046e+2, -1480070.5, -1757990.0, -920.23773, -0.15880196, -0.34439486, -1480067.4, 242739.2, 0.11422007, 10.002569, 9.998464 
1.835e+3, 1.3419944e+2, -1319561.8, -1612958.0, -17045.457, 0.040673487, -0.27614763, -1318574.9, 306239.75, 0.07692826, 10.002864, 9.998654 
1.834999e+3, 1.441976e+2, -1231168.0, -1510574.0, -55112.098, -0.21532403, -0.32655552, -1220690.3, 306143.16, 0.041556932, 10.002649, 9.998782 
1.8350022e+3, 1.5419653e+2, -1235234.3, -1465828.6, -39969.38, -0.048105296, -0.32058263, -1228502.9, 200340.23, 0.015961973, 10.0018835, 9.99878 
1.8350048e+3, 1.6419537e+2, -1171637.3, -1373208.6, 2002.4938, 0.007006639, -0.31613743, -1171617.4, 159236.58, 0.003449119, 10.001576, 9.998891 
1.8350074e+3, 1.741942e+2, -1029162.6, -1258038.8, 9832.16, -0.048726182, -0.3271575, -1028741.06, 204124.66, 0.00021871291, 10.001896, 9.998855 
1.8350095e+3, 1.8419304e+2, -947500.94, -1142565.0, -35751.484, -0.067183934, -0.335634, -941154.8, 193722.1, 0.00000018976193, 10.001673, 9.999083 
1.8350114e+3, 1.9419207e+2, -989047.2, -1114328.9, -37539.984, -0.04653423, -0.34750807, -978659.8, 58226.027, 0.0, 10.000725, 9.999061 
1.8350135e+3, 2.0419122e+2, -978482.3, -1065015.3, -41118.55, -0.009143228, -0.33209795, -962060.25, -23165.455, 0.0, 10.000153, 9.999003 
1.8350159e+3, 2.1419068e+2, -889565.3, -975928.4, -55606.96, 0.055584103, -0.29128045, -862342.44, -21439.984, 0.0, 10.000109, 9.998963 
1.8350174e+3, 2.2419004e+2, -783326.4, -826127.94, -86446.89, 0.048809856, -0.2657347, -715670.6, 27238.428, 0.0, 9.999959, 9.999391 
1.8350175e+3, 2.3418944e+2, -728874.06, -749042.1, -81059.81, -0.054478087, -0.273899, -657273.44, -12360.387, 0.0, 9.99966, 9.999392 
1.8350187e+3, 2.4418847e+2, -687821.56, -703462.56, -60780.6, -0.063625105, -0.2964563, -634360.4, -87439.1, 0.0, 9.999376, 9.999168 
1.8350215e+3, 2.5418714e+2, -631118.1, -631935.44, -58699.86, 0.052620754, -0.34978122, -572825.5, -123891.45, 0.0, 9.99912, 9.99911 
1.8350233e+3, 2.6418617e+2, -524333.7, -472084.2, -50831.86, 0.06637294, -0.37384617, -441056.66, -90114.49, 0.0, 9.998932, 9.999624 
1.8350238e+3, 2.74186e+2, -444163.16, -384217.72, -55153.42, -0.052642055, -0.366806, -351418.9, -98476.47, 0.0, 9.998816, 9.999611 
1.8350257e+3, 2.841855e+2, -411849.66, -389873.4, -44493.848, -0.073597394, -0.34275296, -355030.97, -200083.14, 0.0, 9.998674, 9.998967 
1.8350291e+3, 2.941849e+2, -341131.94, -304349.06, -89319.02, 0.018779866, -0.2983565, -231547.66, -174590.47, 0.0, 9.998485, 9.998973 
1.835031e+3, 3.0418468e+2, -254950.9, -86090.516, -89962.38, -0.011988304, -0.28388852, -47144.5, -47144.5, 0.0, 9.998095, 10.000324 
1.8350345e+3, 3.1418484e+2, -277580.22, -35866.523, 59711.516, 0.061288577, -0.30330434, -21920.395, -21920.395, 0.0, 9.997661, 10.000885 
1.8449979e+3, 1.2419772e+2, -1482841.3, -1756326.9, -14325.59, -0.16440639, -0.33071828, -1482092.9, 240737.64, 0.121078186, 10.002554, 9.998482 
1.8450026e+3, 1.341973e+2, -1366051.5, -1620781.4, 17291.898, 0.046689328, -0.25960582, -1364883.1, 259952.92, 0.08165061, 10.002463, 9.998789 
1.8450019e+3, 1.4419541e+2, -1252782.1, -1519919.8, -26031.172, -0.19150524, -0.32232702, -1250269.1, 276585.47, 0.044275217, 10.002499, 9.998786 
1.8450046e+3, 1.54194e+2, -1117729.9, -1409934.9, -14620.033, -0.053473108, -0.3480994, -1117000.1, 311866.72, 0.017166656, 10.002713, 9.998765 
1.8450068e+3, 1.6419274e+2, -1060172.3, -1334122.4, 19306.95, -0.0007915012, -0.34673467, -1058818.3, 272060.56, 0.0037913383, 10.002411, 9.998756 
1.8450092e+3, 1.7419179e+2, -1108603.8, -1312417.8, 11897.979, -0.0317538, -0.32087576, -1107911.5, 124977.82, 0.00025177147, 10.001422, 9.998709 
1.845011e+3, 1.8419072e+2, -1055153.0, -1197816.4, -41523.797, -0.05072248, -0.3103642, -1043947.25, 90952.91, 0.00000025167606, 10.000949, 9.999051 
1.8450122e+3, 1.9418967e+2, -923737.3, -1085249.8, -46038.168, -0.06404822, -0.32800493, -911536.1, 125373.516, 0.0, 10.001185, 9.999037 
1.8450136e+3, 2.0418864e+2, -858405.56, -1023030.8, -40119.906, -0.038149547, -0.3222519, -849148.7, 89771.37, 0.0, 10.001046, 9.99886 
1.845016e+3, 2.141878e+2, -860603.9, -978861.6, -35179.97, 0.044788662, -0.2948023, -850929.75, -9999.592, 0.0, 10.000383, 9.99881 
1.8450174e+3, 2.2418697e+2, -788060.2, -834632.8, -55301.992, 0.052048802, -0.27991715, -751341.8, -8403.105, 0.0, 9.999954, 9.999334 
1.8450174e+3, 2.3418626e+2, -705950.3, -743724.44, -69532.28, -0.0425564, -0.29407054, -652785.56, -7841.689, 0.0, 9.999844, 9.999339 
1.8450183e+3, 2.4418533e+2, -648110.94, -679034.56, -61992.05, -0.05086445, -0.31063947, -599681.56, -52730.06, 0.0, 9.999627, 9.999214 
1.8450207e+3, 2.5418425e+2, -608302.44, -613852.0, -60419.78, 0.057744116, -0.34457868, -550593.75, -101632.3, 0.0, 9.999249, 9.999169 
1.8450223e+3, 2.6418325e+2, -520947.3, -491359.0, -44635.453, 0.07625691, -0.36999053, -459129.84, -108159.78, 0.0, 9.999047, 9.999435 
1.845023e+3, 2.741826e+2, -420823.0, -396994.97, -57563.363, -0.025906337, -0.38770017, -350125.63, -97150.67, 0.0, 9.999081, 9.999394 
1.8450247e+3, 2.8418195e+2, -404569.06, -399949.8, -41798.473, -0.060115617, -0.3599418, -360397.22, -205415.36, 0.0, 9.998783, 9.998846 
1.8450272e+3, 2.9418153e+2, -426008.94, -359832.3, -35035.117, -0.004676278, -0.28735772, -344730.44, -287740.53, 0.0, 9.997966, 9.998841 
1.8450294e+3, 3.0418065e+2, -339813.66, -121554.36, -13777.412, 0.040606447, -0.33006358, -120688.11, -120688.11, 0.0, 9.997493, 10.000368 
1.8450317e+3, 3.1418067e+2, -268076.03, -16875.654, 79275.586, 0.027390141, -0.374922, 6050.336, 6050.336, 0.0, 9.997663, 10.001015 
1.8550001e+3, 1.2419556e+2, -1478069.0, -1739536.9, -57549.2, -0.19623037, -0.3314976, -1465962.9, 256889.48, 0.12828696, 10.002545, 9.998611 
1.8550053e+3, 1.3419524e+2, -1350088.5, -1584137.4, 16655.613, 0.06803012, -0.2786307, -1348909.1, 275945.78, 0.08661796, 10.002459, 9.999067 
1.855005e+3, 1.4419344e+2, -1256638.1, -1523757.3, -20691.707, -0.116414845, -0.34606397, -1255044.9, 271826.97, 0.047144454, 10.002486, 9.998766 
1.8550073e+3, 1.541921e+2, -1122747.1, -1418962.4, -6066.7905, -0.04924683, -0.3585107, -1122622.9, 306261.25, 0.018449815, 10.00271, 9.998705 
1.855009e+3, 1.6419081e+2, -1081560.9, -1379119.0, -14364.418, -0.025159985, -0.343267, -1080869.1, 250028.45, 0.0041641076, 10.002412, 9.998448 
1.8550105e+3, 1.7418972e+2, -1130974.8, -1359957.4, -24021.219, -0.03101819, -0.30079103, -1128481.9, 104428.91, 0.00029041685, 10.001425, 9.998383 
1.855012e+3, 1.841886e+2, -1060011.0, -1207936.1, -36009.582, -0.035783265, -0.27348056, -1051710.9, 83211.914, 0.0000003514084, 10.000948, 9.998983 
1.8550134e+3, 1.9418764e+2, -926778.75, -1092469.1, -35329.824, -0.047486372, -0.27716362, -919560.0, 117371.68, 0.0, 10.001187, 9.998987 
1.8550147e+3, 2.0418648e+2, -850459.56, -1006805.0, -62061.543, -0.048922006, -0.28750658, -828819.44, 110122.88, 0.0, 10.001046, 9.998972 
1.8550156e+3, 2.141852e+2, -852412.06, -961783.75, -58375.77, -0.032408334, -0.31714514, -827108.7, 13845.391, 0.0, 10.000381, 9.998929 
1.8550168e+3, 2.2418396e+2, -807103.25, -873321.9, -60630.707, -0.0016624104, -0.33629286, -771130.7, -28165.166, 0.0, 9.99995, 9.999072 
1.8550181e+3, 2.3418292e+2, -726900.25, -787670.8, -71471.52, 0.047587797, -0.35254565, -679623.2, -34647.938, 0.0, 9.999844, 9.999038 
1.855019e+3, 2.4418205e+2, -645548.3, -674283.2, -74674.95, 0.053009905, -0.34945405, -583871.25, -36888.05, 0.0, 9.999628, 9.999247 
1.8550195e+3, 2.5418156e+2, -602886.9, -604148.1, -73002.78, 0.0007451506, -0.3314876, -530512.0, -81524.79, 0.0, 9.999254, 9.999235 
1.8550207e+3, 2.641807e+2, -541880.25, -535099.06, -44408.836, -0.0033448462, -0.33212364, -493951.6, -142956.72, 0.0, 9.999048, 9.999136 
1.8550229e+3, 2.7417952e+2, -443989.5, -445604.38, -53772.58, 0.053169, -0.3663236, -391018.28, -138012.28, 0.0, 9.999083, 9.999061 
1.8550245e+3, 2.8417876e+2, -363645.28, -316749.7, -70239.59, 0.047481433, -0.359254, -266147.5, -111134.04, 0.0, 9.998789, 9.999416 
1.8550248e+3, 2.9417872e+2, -381036.13, -269822.56, -67547.195, -0.033044934, -0.31464818, -237938.0, -180923.27, 0.0, 9.997978, 9.9994545 
1.8550265e+3, 3.0417717e+2, -378084.4, -204080.88, -11658.553, 0.0049832603, -0.42984566, -203303.22, -203303.22, 0.0, 9.997506, 9.999794 
1.8550299e+3, 3.1417787e+2, -248248.52, 19539.5, 36593.598, 0.0717424, -0.3420183, 24450.02, 24450.02, 0.0, 9.9976845, 10.001254 
1.8650033e+3, 1.2419394e+2, -1427289.6, -1710342.6, -43072.1, -0.1574259, -0.33936518, -1420880.5, 301987.4, 0.13577262, 10.002962, 9.998613 
1.8650077e+3, 1.3419345e+2, -1261302.9, -1524944.3, 47480.67, 0.031305235, -0.31779563, -1253012.5, 371858.5, 0.091802955, 10.003065, 9.999225 
1.8650079e+3, 1.4419182e+2, -1213136.8, -1523511.3, -3123.277, -0.109942906, -0.36922368, -1213105.4, 313781.13, 0.05016522, 10.002903, 9.998566 
1.8650098e+3, 1.5419066e+2, -1182634.1, -1474076.1, -1640.2019, -0.040087715, -0.34046644, -1182624.9, 246273.73, 0.019819729, 10.002407, 9.99847 
1.8650113e+3, 1.6418937e+2, -1118242.9, -1391843.6, -15085.836, -0.018447515, -0.31579807, -1117413.6, 213498.92, 0.0045722285, 10.002138, 9.998491 
1.8650122e+3, 1.7418797e+2, -1017646.44, -1298315.8, 724.63715, -0.04470847, -0.3078808, -1017644.56, 215282.81, 0.0003360051, 10.002172, 9.998445 
1.8650132e+3, 1.841867e+2, -932683.75, -1165914.0, 10944.486, -0.05044983, -0.2934239, -932171.3, 202769.36, 0.00000050835786, 10.001906, 9.99881 
1.8650147e+3, 1.9418573e+2, -932528.0, -1116629.5, 146.40538, -0.03461049, -0.27806228, -932527.9, 104422.234, 0.0, 10.001243, 9.998795 
1.8650159e+3, 2.0418447e+2, -885372.7, -1031665.9, -42430.016, -0.029475745, -0.28306466, -873957.3, 65004.4, 0.0, 10.000843, 9.9988985 
1.8650162e+3, 2.1418299e+2, -794784.0, -941556.5, -55180.477, -0.036089815, -0.32715553, -776352.9, 64622.082, 0.0, 10.000811, 9.99886 
1.865017e+3, 2.2418159e+2, -741265.1, -855886.8, -62297.25, -0.0065973457, -0.35203344, -713926.8, 29061.07, 0.0, 10.000465, 9.998942 
1.865018e+3, 2.341805e+2, -759236.9, -817731.0, -62805.89, 0.07047945, -0.36134836, -719202.1, -74203.31, 0.0, 9.999687, 9.998906 
1.8650186e+3, 2.441796e+2, -686649.1, -690771.0, -45024.773, 0.07620204, -0.3536227, -643638.1, -96631.19, 0.0, 9.999335, 9.999273 
1.8650186e+3, 2.5417918e+2, -556174.25, -577812.94, -45809.3, -0.010854456, -0.33341795, -519923.97, -70914.13, 0.0, 9.99956, 9.999268 
1.8650196e+3, 2.641783e+2, -505048.44, -525690.25, -21536.084, -0.020290975, -0.33266348, -491487.9, -140470.45, 0.0, 9.999339, 9.999059 
1.8650219e+3, 2.74177e+2, -537049.1, -498582.0, -14260.932, 0.069360845, -0.37012067, -493871.8, -240841.38, 0.0, 9.998482, 9.998984 
1.8650234e+3, 2.841762e+2, -442643.44, -333694.8, -25212.795, 0.075246826, -0.37385637, -328143.0, -173104.6, 0.0, 9.998158, 9.999601 
1.8650234e+3, 2.9417625e+2, -284522.22, -201219.72, -57342.645, -0.016110417, -0.3421056, -171997.8, -114959.93, 0.0, 9.998548, 9.99965 
1.8650241e+3, 3.041751e+2, -292417.56, -191516.83, -17145.463, -0.01933124, -0.41024435, -188683.0, -188683.0, 0.0, 9.998216, 9.999539 
1.8650267e+3, 3.1417593e+2, -355307.2, -32349.531, 21108.654, 0.012977503, -0.28476527, -30975.705, -30975.705, 0.0, 9.996952, 10.001248 
1.875007e+3, 1.2419266e+2, -1441526.8, -1734743.6, -62212.168, -0.08355539, -0.372812, -1428873.1, 294005.7, 0.14346069, 10.002947, 9.998454 
1.8750098e+3, 1.3419199e+2, -1263773.6, -1525336.4, 51385.496, -0.070052974, -0.3714034, -1254040.8, 370843.0, 0.09718228, 10.00306, 9.9992285 
1.87501e+3, 1.4419056e+2, -1239303.0, -1576985.8, -20115.398, -0.18110184, -0.38350487, -1238109.0, 288788.97, 0.05334204, 10.002895, 9.998202 
1.8750125e+3, 1.5418962e+2, -1210508.4, -1531801.9, -18309.766, -0.029621078, -0.29564098, -1209468.4, 219442.17, 0.021286089, 10.002403, 9.998077 
1.8750139e+3, 1.641883e+2, -1093494.4, -1338595.8, -15669.675, 0.014774747, -0.26957545, -1092496.8, 238427.78, 0.0050208755, 10.0021305, 9.998861 
1.875014e+3, 1.7418651e+2, -987810.7, -1236174.5, 3169.588, -0.076397546, -0.3432361, -987770.25, 245169.33, 0.00038988978, 10.00217, 9.998874 
1.8750148e+3, 1.8418495e+2, -951855.25, -1206006.5, -11894.967, -0.09899476, -0.36715093, -951299.75, 183654.16, 0.000000733184, 10.001906, 9.998535 
1.8750161e+3, 1.9418389e+2, -956640.4, -1166531.3, -23459.719, -0.02898167, -0.32879376, -954050.25, 82915.09, 0.0, 10.001241, 9.998454 
1.8750171e+3, 2.0418258e+2, -904108.25, -1070245.1, -45245.04, 0.016690623, -0.30892417, -892585.56, 46393.156, 0.0, 10.00084, 9.998636 
1.8750177e+3, 2.1418111e+2, -813807.0, -980395.3, -54323.8, 0.03013558, -0.32594052, -797657.75, 43335.785, 0.0, 10.000807, 9.998596 
1.8750179e+3, 2.2417979e+2, -741138.56, -855676.25, -88750.945, 0.03367174, -0.32781768, -692783.3, 50223.15, 0.0, 10.0004635, 9.998945 
1.8750173e+3, 2.341789e+2, -757349.1, -814019.4, -90251.35, 0.022445505, -0.3203596, -691089.44, -46074.043, 0.0, 9.999686, 9.998933 
1.8750174e+3, 2.4417792e+2, -685610.44, -688800.8, -38790.09, 0.016073456, -0.32359216, -648382.75, -101359.03, 0.0, 9.999334, 9.999288 
1.8750186e+3, 2.54177e+2, -555797.94, -578559.1, -35264.563, 0.018157063, -0.3509411, -530123.06, -81092.93, 0.0, 9.999565, 9.999261 
1.8750194e+3, 2.6417598e+2, -493964.97, -504361.6, -50349.867, 0.02078739, -0.37240186, -448545.78, -97507.01, 0.0, 9.999345, 9.999204 
1.87502e+3, 2.7417493e+2, -523372.38, -473256.8, -44921.76, 0.01814294, -0.40037942, -446876.7, -193827.28, 0.0, 9.998492, 9.999154 
1.8750209e+3, 2.8417414e+2, -455814.56, -362073.53, -14601.681, 0.019455785, -0.40297133, -359851.72, -204794.03, 0.0, 9.998162, 9.999404 
1.8750225e+3, 2.9417402e+2, -300979.22, -234289.75, -41304.117, 0.042987753, -0.36427677, -214550.58, -157490.67, 0.0, 9.998542, 9.999426 
1.8750222e+3, 3.0417436e+2, -286321.34, -182741.03, -60735.68, -0.03997806, -0.2748466, -154712.38, -154712.38, 0.0, 9.998228, 9.999596 
1.8750238e+3, 3.1417313e+2, -352051.88, -33185.348, -42690.61, 0.025690734, -0.35871038, -27568.76, -27568.76, 0.0, 9.996987, 10.001224 
1.8850103e+3, 1.24192335e+2, -1410320.5, -1773085.3, -37167.113, -0.06778993, -0.36476672, -1406551.6, 316329.6, 0.15130897, 10.003476, 9.997925 
1.8850125e+3, 1.341911e+2, -1279183.3, -1579784.3, 51001.434, -0.101295136, -0.3713274, -1270765.8, 354127.22, 0.1027529, 10.003189, 9.9987545 
1.8850133e+3, 1.4418969e+2, -1221164.1, -1569587.8, -31084.803, -0.14504912, -0.3579613, -1218412.6, 308495.03, 0.05668712, 10.003045, 9.998182 
1.885015e+3, 1.541884e+2, -1124951.1, -1488558.0, -4394.204, -0.028252745, -0.30384958, -1124898.0, 304024.6, 0.022858981, 10.003002, 9.998085 
1.8850163e+3, 1.6418697e+2, -1008471.4, -1296714.1, 2618.9749, 0.008523672, -0.2880626, -1008447.56, 322489.4, 0.0055146767, 10.002714, 9.998869 
1.8850164e+3, 1.7418541e+2, -995337.94, -1238736.9, -11415.273, -0.06709493, -0.34151176, -994803.75, 238145.86, 0.0004532519, 10.002115, 9.998881 
1.8850166e+3, 1.8418382e+2, -984175.3, -1226309.8, -38716.516, -0.09025845, -0.36754024, -978135.3, 156828.48, 0.0000010252129, 10.001706, 9.998492 
1.8850173e+3, 1.9418235e+2, -913032.7, -1151507.8, -30784.098, -0.041151598, -0.36362228, -909122.94, 127855.52, 0.0, 10.001565, 9.998401 
1.885018e+3, 2.0418093e+2, -855542.4, -1051682.3, -30453.686, 0.0068703913, -0.35099256, -850922.75, 88070.32, 0.0, 10.001195, 9.998592 
1.8850185e+3, 2.1417972e+2, -858826.94, -1007061.0, -25459.516, 0.053186327, -0.33680165, -854576.1, -13569.924, 0.0, 10.00052, 9.998551 
1.8850185e+3, 2.2417854e+2, -782245.75, -884440.0, -49645.94, 0.060992397, -0.31989956, -762099.4, -19081.01, 0.0, 10.000224, 9.998861 
1.8850173e+3, 2.3417754e+2, -650557.7, -772442.56, -60839.582, 0.015561882, -0.31053758, -625387.2, 19640.748, 0.0, 10.000465, 9.998841 
1.8850172e+3, 2.4417643e+2, -569511.44, -640918.6, -21016.363, 0.004168754, -0.31981117, -563785.2, -16747.395, 0.0, 10.000167, 9.999215 
1.885018e+3, 2.5417528e+2, -625688.06, -620367.3, -24822.543, 0.043236062, -0.36468604, -598063.0, -149016.22, 0.0, 9.999123, 9.9991865 
1.8850185e+3, 2.6417422e+2, -594513.56, -551249.3, -41053.652, 0.041937586, -0.38603777, -526477.2, -175421.16, 0.0, 9.99865, 9.999215 
1.8850182e+3, 2.741735e+2, -456679.28, -438390.78, -47745.84, -0.025117528, -0.38492978, -398921.44, -145857.27, 0.0, 9.998941, 9.999177 
1.8850188e+3, 2.841728e+2, -368257.72, -312806.8, -11602.52, -0.030323176, -0.38203695, -310477.0, -155405.4, 0.0, 9.998734, 9.999467 
1.8850212e+3, 2.9417238e+2, -392317.78, -271670.2, -15200.753, 0.08287636, -0.37999645, -269784.47, -212708.22, 0.0, 9.9978895, 9.999483 
1.8850198e+3, 3.0417326e+2, -397922.06, -198164.42, -37459.465, -0.041049704, -0.25944215, -191370.89, -191370.89, 0.0, 9.997296, 9.999939 
1.8850206e+3, 3.1417218e+2, -385646.84, -51424.727, 12650.103, 0.024284016, -0.35779098, -50946.613, -50946.613, 0.0, 9.996774, 10.001197 
1.895013e+3, 1.2419287e+2, -1470929.4, -1911327.1, -48819.656, -0.14566308, -0.32359013, -1465582.5, 257293.56, 0.15932071, 10.003462, 9.996984 
1.8950161e+3, 1.3419075e+2, -1342580.4, -1714872.3, 44922.754, -0.06882974, -0.32414415, -1337236.5, 287662.66, 0.108536236, 10.003179, 9.997801 
1.8950178e+3, 1.4418904e+2, -1204535.4, -1526922.9, -32783.855, -0.009540943, -0.30142513, -1201235.3, 325681.06, 0.060219586, 10.003029, 9.998484 
1.8950179e+3, 1.54187e+2, -1099584.1, -1432786.4, -5027.1, -0.04134064, -0.3633603, -1099508.4, 329426.72, 0.024547812, 10.002998, 9.998471 
1.8950184e+3, 1.6418543e+2, -1033413.8, -1347713.6, -18399.934, -0.0439721, -0.36473182, -1032340.25, 298609.38, 0.0060573337, 10.00271, 9.998521 
1.895019e+3, 1.7418465e+2, -1024791.56, -1299691.4, -32721.396, -0.020766875, -0.30117467, -1020950.4, 212007.33, 0.0005270964, 10.002112, 9.998466 
1.895019e+3, 1.841832e+2, -971693.9, -1199631.8, -45351.844, -0.02857089, -0.29787454, -963001.9, 171969.28, 0.0000013718216, 10.001701, 9.998678 
1.8950187e+3, 1.9418105e+2, -897504.4, -1118193.0, -34325.902, -0.07433678, -0.3841327, -892288.6, 144701.53, 0.0, 10.001559, 9.998632 
1.8950185e+3, 2.0417948e+2, -844388.6, -1028329.8, -53810.875, -0.062306903, -0.40830457, -829803.1, 109202.055, 0.0, 10.001193, 9.9987545 
1.8950188e+3, 2.1417877e+2, -849090.44, -985622.6, -48983.297, 0.029089432, -0.3583963, -833334.94, 7678.3955, 0.0, 10.000513, 9.998702 
1.8950188e+3, 2.2417773e+2, -794215.9, -909017.4, -42924.22, 0.072223194, -0.3278592, -779941.44, -36917.188, 0.0, 10.000221, 9.998695 
1.895018e+3, 2.3417643e+2, -665565.4, -803729.5, -49676.598, 0.04547906, -0.3320307, -649558.7, -4521.409, 0.0, 10.0004635, 9.998628 
1.8950176e+3, 2.4417512e+2, -580206.7, -663978.94, -55886.45, 0.03655724, -0.3412869, -552252.0, -5202.2695, 0.0, 10.000169, 9.999057 
1.8950175e+3, 2.541739e+2, -635179.9, -641933.06, -62456.598, 0.06079454, -0.37497175, -576008.7, -126948.1, 0.0, 9.999128, 9.999037 
1.8950172e+3, 2.6417294e+2, -601814.44, -568204.6, -33235.47, 0.040001266, -0.37541234, -547767.06, -196696.78, 0.0, 9.998655, 9.999097 
1.8950167e+3, 2.7417254e+2, -464704.9, -457870.2, -35936.402, -0.06744304, -0.32567585, -425189.03, -172113.22, 0.0, 9.99895, 9.99904 
1.895017e+3, 2.8417206e+2, -344765.78, -264280.5, -40299.754, -0.07849901, -0.3124155, -247571.05, -92489.89, 0.0, 9.998736, 9.9998 
1.8950191e+3, 2.9417118e+2, -368684.88, -224404.19, -40745.016, 0.10298795, -0.3903417, -213692.95, -156604.86, 0.0, 9.997894, 9.999806 
1.8950173e+3, 3.0417156e+2, -351985.25, -107403.055, -57564.953, -0.03550297, -0.36267743, -94531.9, -94531.9, 0.0, 9.997313, 10.000556 
1.8950173e+3, 3.1417313e+2, -415204.88, -114852.09, 61219.125, 0.013231802, -0.26166275, -102853.49, -102853.49, 0.0, 9.996784, 10.000755 
1.9050173e+3, 1.24193154e+2, -1330024.1, -1826858.0, -98500.66, -0.12810382, -0.23849699, -1311208.3, 411667.94, 0.16752878, 10.004627, 9.997021 
1.9050196e+3, 1.3419004e+2, -1273805.4, -1686365.9, 33817.65, -0.068148196, -0.32903567, -1271051.6, 353855.78, 0.11456048, 10.003769, 9.997711 
1.9050215e+3, 1.4418823e+2, -1187224.4, -1518591.3, -5354.866, 0.053931594, -0.31106773, -1187137.8, 339786.72, 0.0639551, 10.003168, 9.998476 
1.9050209e+3, 1.5418625e+2, -1126505.5, -1446819.0, -8249.193, -0.033699166, -0.36691505, -1126293.1, 302648.94, 0.02635815, 10.002818, 9.99846 
1.9050209e+3, 1.6418464e+2, -1074987.3, -1384857.8, -37398.516, -0.05747292, -0.3649013, -1070537.5, 260419.6, 0.0066510234, 10.0025, 9.998367 
1.905021e+3, 1.7418364e+2, -1017204.0, -1315062.4, -36111.2, -0.0154003315, -0.30412176, -1012888.56, 220079.22, 0.0006122247, 10.002247, 9.998296 
1.9050209e+3, 1.8418215e+2, -938700.56, -1165552.8, -36279.71, -0.010828864, -0.3028313, -933039.7, 201941.94, 0.0000017786746, 10.001849, 9.99884 
1.9050203e+3, 1.9418024e+2, -927878.25, -1111812.9, -30587.4, -0.053608187, -0.3879232, -922925.1, 114072.69, 0.0, 10.001261, 9.998819 
1.9050196e+3, 2.0417874e+2, -882477.7, -1053146.1, -55914.324, -0.056653455, -0.4092342, -865790.6, 73220.79, 0.0, 10.000962, 9.998694 
1.9050193e+3, 2.1417798e+2, -773401.7, -958078.3, -70081.49, -0.004321678, -0.35753205, -749818.56, 91201.984, 0.0, 10.001073, 9.99862 
1.905019e+3, 2.2417688e+2, -715243.3, -863077.44, -66768.375, 0.040957812, -0.33302206, -689552.4, 53479.78, 0.0, 10.00073, 9.998765 
1.9050184e+3, 2.3417549e+2, -762007.56, -841647.94, -53778.426, 0.07092301, -0.35158157, -734911.6, -89866.3, 0.0, 9.999765, 9.998704 
1.9050176e+3, 2.4417423e+2, -718263.9, -739930.0, -47450.53, 0.071984425, -0.35791826, -680425.5, -133367.73, 0.0, 9.999266, 9.998969 
1.9050166e+3, 2.5417316e+2, -602359.56, -638004.5, -52234.133, 0.048805214, -0.36686864, -564991.06, -115922.53, 0.0, 9.999409, 9.998927 
1.905016e+3, 2.6417226e+2, -515600.2, -516085.56, -4468.9097, 0.02463255, -0.35918528, -511367.38, -160289.08, 0.0, 9.999204, 9.99919 
1.9050157e+3, 2.741719e+2, -521615.0, -471461.2, 9487.409, -0.03656907, -0.31883514, -469726.47, -216642.98, 0.0, 9.998504, 9.99916 
1.9050156e+3, 2.8417164e+2, -452700.0, -297259.88, -1760.8754, -0.05888582, -0.29445466, -297239.94, -142153.72, 0.0, 9.997914, 9.999969 
1.9050166e+3, 2.9417115e+2, -419072.9, -240926.89, -16010.226, 0.066900656, -0.34819835, -239499.47, -182410.3, 0.0, 9.997518, 9.999873 
1.9050147e+3, 3.041708e+2, -349645.7, -100956.37, -60481.023, -0.02777322, -0.40008256, -87027.57, -87027.57, 0.0, 9.997305, 10.000606 
1.9050142e+3, 3.141721e+2, -398848.1, -93538.87, 61092.953, 0.03218527, -0.33903274, -81767.875, -81767.875, 0.0, 9.996844, 10.000871 
1.9150229e+3, 1.2419308e+2, -1281177.3, -1690538.8, -102657.94, -0.043370664, -0.117296346, -1256875.8, 466006.88, 0.17597292, 10.004591, 9.998 
1.915023e+3, 1.34189e+2, -1230845.9, -1582148.8, 6495.0703, -0.10495954, -0.38156423, -1230725.8, 394192.03, 0.12084207, 10.00376, 9.998468 
1.9150245e+3, 1.441873e+2, -1209076.9, -1563528.4, -18831.186, 0.039152626, -0.37956116, -1208079.3, 318852.56, 0.06789752, 10.003166, 9.998167 
1.915024e+3, 1.541861e+2, -1155389.1, -1507016.8, -20324.521, -0.012220225, -0.31654716, -1154218.3, 274725.94, 0.028290106, 10.002815, 9.99805 
1.9150236e+3, 1.6418448e+2, -1073796.5, -1380289.3, -47393.297, -0.038496874, -0.29485908, -1066635.3, 264324.8, 0.007296161, 10.002491, 9.998404 
1.9150229e+3, 1.7418239e+2, -1013139.75, -1305370.3, -43805.72, -0.054492723, -0.35110062, -1006714.5, 226265.8, 0.0007092475, 10.002241, 9.998365 
1.9150224e+3, 1.841807e+2, -930050.0, -1147335.5, -57082.125, -0.041751903, -0.37913898, -915967.0, 219028.47, 0.0000023137907, 10.001846, 9.998968 
1.9150223e+3, 1.9417982e+2, -919595.44, -1093975.0, -51489.813, 0.01616559, -0.37180758, -905526.8, 131474.81, 0.0, 10.001257, 9.998945 
1.9150214e+3, 2.0417868e+2, -902501.94, -1094289.5, -53209.293, 0.019777663, -0.35345483, -888728.75, 50283.71, 0.0, 10.000958, 9.998414 
1.9150199e+3, 2.1417727e+2, -796689.06, -1005371.2, -63653.94, -0.051058665, -0.33436146, -778805.44, 62222.984, 0.0, 10.001067, 9.998299 
1.9150189e+3, 2.2417589e+2, -694170.56, -819007.5, -99128.59, -0.036179632, -0.33448187, -639445.75, 103596.88, 0.0, 10.000727, 9.99907 
1.9150183e+3, 2.341747e+2, -736865.75, -789034.06, -88356.016, 0.08825703, -0.3692716, -670824.06, -25771.123, 0.0, 9.999762, 9.999068 
1.9150172e+3, 2.4417365e+2, -719986.9, -744108.8, -44533.234, 0.1076318, -0.37121755, -685910.3, -138847.31, 0.0, 9.999267, 9.99894 
1.9150154e+3, 2.5417292e+2, -606795.6, -649193.5, -44867.49, 0.0013728748, -0.3413069, -578371.1, -129299.51, 0.0, 9.999414, 9.998848 
1.9150148e+3, 2.6417205e+2, -493145.38, -470556.63, -28047.658, -0.008300399, -0.33607683, -451614.7, -100533.78, 0.0, 9.9992075, 9.999502 
1.9150153e+3, 2.7417138e+2, -494562.8, -417523.44, -15960.611, 0.06253491, -0.36395127, -414347.72, -161259.5, 0.0, 9.99851, 9.999529 
1.9150144e+3, 2.8417146e+2, -450481.56, -294847.28, -17889.398, 0.02386181, -0.3299, -292817.44, -137729.48, 0.0, 9.997924, 9.999981 
1.915013e+3, 2.9417217e+2, -431075.44, -270738.3, -24832.107, -0.03198673, -0.2574297, -266980.53, -209899.5, 0.0, 9.997536, 9.999661 
1.9150122e+3, 3.0417076e+2, -383009.53, -174346.16, -71630.83, -0.024216503, -0.370739, -152123.2, -152123.2, 0.0, 9.997321, 10.000094 
1.9150099e+3, 3.141713e+2, -341383.34, 21925.172, 91905.78, -0.09890983, -0.34817967, 43851.223, 43851.223, 0.0, 9.996855, 10.001662 
1.9250275e+3, 1.2419226e+2, -1336002.1, -1687414.0, -28528.96, -0.010971625, -0.17987543, -1333701.1, 389189.3, 0.1846856, 10.00402, 9.998303 
1.9250268e+3, 1.3418886e+2, -1250812.1, -1585811.0, 9488.085, -0.10243241, -0.38064846, -1250543.5, 374375.13, 0.12738572, 10.003604, 9.998516 
1.9250281e+3, 1.4418747e+2, -1195517.4, -1565423.6, -20296.623, 0.06613007, -0.34652123, -1194407.0, 332522.78, 0.07204244, 10.003322, 9.998078 
1.925027e+3, 1.5418589e+2, -1115617.4, -1500707.9, -3504.6074, -0.0040399847, -0.30883634, -1115585.4, 313360.84, 0.030339934, 10.0031595, 9.997928 
1.9250262e+3, 1.6418408e+2, -1022897.5, -1353964.1, -23023.379, -0.036004044, -0.30262363, -1021304.06, 309660.34, 0.007991714, 10.002839, 9.998416 
1.9250253e+3, 1.74182e+2, -1003396.75, -1298394.9, -25950.682, -0.050815556, -0.36000094, -1001131.25, 231852.98, 0.000818734, 10.0023, 9.998384 
1.9250244e+3, 1.8418038e+2, -936235.0, -1161941.4, -50092.656, -0.03601028, -0.37765518, -925617.06, 209381.86, 0.0000031359323, 10.001858, 9.998861 
1.9250236e+3, 1.9417961e+2, -882733.5, -1089984.1, -64671.61, 0.028003803, -0.34633416, -864208.8, 172795.89, 0.0, 10.001572, 9.99882 
1.9250226e+3, 2.0417842e+2, -867522.7, -1058648.0, -54544.85, 0.03324809, -0.33262712, -853051.94, 85963.73, 0.0, 10.001119, 9.99858 
1.9250208e+3, 2.1417679e+2, -874753.75, -1022510.06, -28841.56, -0.04363542, -0.354198, -869323.56, -28291.275, 0.0, 10.000443, 9.998481 
1.9250193e+3, 2.2417538e+2, -791262.25, -865426.94, -59667.258, -0.037037082, -0.36729363, -758093.0, -15046.612, 0.0, 10.000061, 9.999072 
1.9250181e+3, 2.3417437e+2, -691505.94, -769164.1, -78876.695, 0.07602991, -0.38191295, -642419.0, 2636.9407, 0.0, 10.000083, 9.999049 
1.9250166e+3, 2.4417354e+2, -618521.1, -674117.75, -32166.744, 0.090379775, -0.37093374, -603805.4, -56740.82, 0.0, 9.999873, 9.999128 
1.9250147e+3, 2.541731e+2, -604446.0, -625631.4, -12703.06, -0.008435331, -0.33033016, -598498.6, -149428.33, 0.0, 9.999335, 9.999047 
1.925014e+3, 2.641725e+2, -567261.25, -502056.66, -11732.198, 0.0014190002, -0.3141447, -500009.94, -148932.48, 0.0, 9.998683, 9.999537 
1.9250138e+3, 2.741718e+2, -586278.6, -458460.56, -27785.373, 0.10321516, -0.3444032, -452681.78, -199596.86, 0.0, 9.9978695, 9.999556 
1.925012e+3, 2.841718e+2, -523650.3, -314735.38, -21214.393, 0.03446149, -0.32783267, -312602.94, -157517.14, 0.0, 9.997357, 10.000116 
1.9250098e+3, 2.9417264e+2, -460304.38, -273516.63, -9222.09, -0.11040137, -0.25729853, -273062.4, -215984.6, 0.0, 9.997291, 9.999759 
1.92501e+3, 3.041714e+2, -402024.6, -200091.11, -29245.783, 0.032435894, -0.3433061, -195940.78, -195940.78, 0.0, 9.997265, 9.999944 
1.9250068e+3, 3.1417206e+2, -362550.1, 34002.266, 118169.94, -0.07524499, -0.30476296, 66545.445, 66545.445, 0.0, 9.996617, 10.001858 
1.9350311e+3, 1.24190785e+2, -1361908.6, -1732870.4, -17253.773, -0.042436626, -0.415628, -1361107.8, 361790.84, 0.19370028, 10.004007, 9.997946 
1.9350307e+3, 1.341896e+2, -1294953.0, -1676809.3, -3037.4502, -0.07241532, -0.3300168, -1294928.8, 329981.72, 0.13419868, 10.003594, 9.997858 
1.935032e+3, 1.4418872e+2, -1191350.8, -1550151.9, -25639.172, 0.12504582, -0.2158674, -1189527.9, 337391.2, 0.07638745, 10.00331, 9.998189 
1.9350302e+3, 1.5418567e+2, -1106394.9, -1477711.6, -7644.604, -0.013077951, -0.34160492, -1106237.5, 322710.84, 0.032504734, 10.003153, 9.998089 
1.9350289e+3, 1.6418344e+2, -1025240.8, -1358522.4, -42301.492, -0.05558186, -0.38331944, -1019955.56, 311014.38, 0.008736665, 10.002836, 9.998387 
1.935028e+3, 1.7418242e+2, -1006895.44, -1305720.0, -45246.492, -0.009685725, -0.32891488, -1000194.7, 232785.38, 0.0009414751, 10.002298, 9.998336 
1.9350266e+3, 1.841811e+2, -960684.06, -1212238.4, -61282.152, 0.0019275864, -0.2999613, -946549.1, 188443.78, 0.0000044945964, 10.001854, 9.998518 
1.9350247e+3, 1.941795e+2, -908959.9, -1143332.0, -73335.07, -0.021355338, -0.31379923, -887904.8, 149102.9, 0.0, 10.001566, 9.998457 
1.9350232e+3, 2.0417793e+2, -826857.56, -973429.8, -78055.24, -0.019655814, -0.34711775, -793076.06, 145945.58, 0.0, 10.001113, 9.999168 
1.9350217e+3, 2.141765e+2, -828839.6, -925726.3, -52018.36, 0.014420409, -0.41484463, -806200.8, 34831.87, 0.0, 10.000436, 9.99915 
1.9350201e+3, 2.2417529e+2, -812965.06, -910006.6, -60038.52, 0.03513326, -0.43020165, -784292.0, -41247.85, 0.0, 10.000057, 9.998768 
1.9350179e+3, 2.3417446e+2, -719282.56, -826693.9, -75646.19, 0.029758016, -0.38910192, -680216.25, -35161.12, 0.0, 10.000081, 9.998655 
1.9350159e+3, 2.4417381e+2, -590742.94, -617255.25, -50106.39, 0.016874976, -0.3556825, -552168.8, -5105.4634, 0.0, 9.999874, 9.99952 
1.9350144e+3, 2.5417364e+2, -570495.25, -557090.75, -31621.441, 0.014429823, -0.33506405, -531469.06, -82403.445, 0.0, 9.999342, 9.9995165 
1.9350131e+3, 2.641734e+2, -583255.9, -536439.4, -41205.086, 0.050097607, -0.2954708, -512457.66, -161388.55, 0.0, 9.998687, 9.9993 
1.9350114e+3, 2.7417305e+2, -608810.4, -506844.47, -57179.434, 0.07902127, -0.2606414, -481219.66, -228144.86, 0.0, 9.997874, 9.999222 
1.9350088e+3, 2.841725e+2, -503738.25, -276115.63, -27030.363, -0.032124255, -0.28870463, -272949.78, -117868.82, 0.0, 9.997367, 10.000379 
1.9350064e+3, 2.9417238e+2, -428413.28, -213601.58, -6699.3936, -0.176421, -0.3495023, -213392.84, -156311.78, 0.0, 9.9973135, 10.000161 
1.9350083e+3, 3.0417275e+2, -382990.47, -164087.72, -39987.26, 0.14209974, -0.312493, -157011.9, -157011.9, 0.0, 9.99728, 10.000184 
1.9350038e+3, 3.141727e+2, -363529.6, 26595.527, -5997.9414, -0.041257553, -0.35742864, 26687.719, 26687.719, 0.0, 9.996635, 10.0018015 
1.9450355e+3, 1.24191105e+2, -1320099.3, -1711334.8, -23484.277, -0.03997586, -0.43278584, -1318694.6, 404200.16, 0.20305724, 10.004418, 9.997913 
1.9450347e+3, 1.3419e+2, -1225775.8, -1660143.4, -9826.69, -0.06673628, -0.32053134, -1225553.6, 399353.4, 0.14129262, 10.00427, 9.997646 
1.9450355e+3, 1.4418887e+2, -1115029.3, -1501359.4, -23026.87, 0.12987675, -0.22169796, -1113661.6, 413256.63, 0.08093129, 10.00385, 9.998278 
1.945033e+3, 1.5418604e+2, -1131851.5, -1476815.6, -13611.691, -0.019678017, -0.3371236, -1131315.3, 297629.78, 0.034782283, 10.002922, 9.998205 
1.9450314e+3, 1.6418394e+2, -1098061.3, -1393391.3, -39838.258, -0.054850675, -0.37162706, -1092781.8, 238183.39, 0.009530246, 10.002337, 9.998384 
1.9450307e+3, 1.7418297e+2, -1011968.75, -1309863.0, -41205.63, 0.020744463, -0.31094536, -1006374.1, 226600.7, 0.0010781297, 10.0022745, 9.998317 
1.9450289e+3, 1.8418154e+2, -946925.4, -1214721.9, -50771.62, 0.036824156, -0.28832456, -937622.75, 197366.05, 0.0000066792873, 10.001989, 9.998435 
1.9450264e+3, 1.9417962e+2, -940092.5, -1168819.5, -44575.426, -0.017927514, -0.32619116, -931712.5, 105294.4, 0.0, 10.001398, 9.998363 
1.9450241e+3, 2.0417798e+2, -851850.0, -974555.6, -57605.664, -0.025046216, -0.36466348, -829044.75, 109976.59, 0.0, 10.000897, 9.999264 
1.9450225e+3, 2.1417686e+2, -806915.6, -902877.5, -75866.34, 0.030536223, -0.41250828, -765130.9, 75898.47, 0.0, 10.000536, 9.999257 
1.9450203e+3, 2.2417589e+2, -786808.7, -879675.75, -77976.42, 0.050402857, -0.4161351, -742487.6, 550.76373, 0.0, 10.000162, 9.998923 
1.9450176e+3, 2.3417524e+2, -753796.8, -825599.8, -52369.734, 0.016682712, -0.3734321, -726204.2, -81156.47, 0.0, 9.99977, 9.998812 
1.9450152e+3, 2.441747e+2, -671120.94, -648624.6, -27245.479, -0.0024499076, -0.34024888, -630396.75, -83341.56, 0.0, 9.999294, 9.999582 
1.9450133e+3, 2.5417453e+2, -659500.94, -594270.25, -42008.37, 0.0130875185, -0.32192793, -573702.25, -124644.484, 0.0, 9.998709, 9.999565 
1.9450116e+3, 2.6417443e+2, -613925.25, -538323.7, -48747.363, 0.042199373, -0.28029093, -514438.16, -163377.66, 0.0, 9.998422, 9.999414 
1.9450094e+3, 2.741742e+2, -512363.53, -448860.16, -34624.105, 0.04819083, -0.24222402, -433633.16, -180568.81, 0.0, 9.998489, 9.999323 
1.9450064e+3, 2.841736e+2, -430249.66, -245871.11, -8004.7354, -0.035646427, -0.28082603, -245524.25, -90453.016, 0.0, 9.997894, 10.000332 
1.9450037e+3, 2.941733e+2, -545194.5, -259731.4, -13555.576, -0.12120222, -0.35140347, -259089.16, -202016.22, 0.0, 9.996471, 10.000249 
1.9450052e+3, 3.041742e+2, -526270.5, -216999.28, -22749.455, 0.16340515, -0.28233898, -215334.83, -215334.83, 0.0, 9.996229, 10.000326 
1.9450004e+3, 3.1417444e+2, -283776.84, 62702.664, -84915.195, -0.08333258, -0.30196232, 82394.516, 82394.516, 0.0, 9.997195, 10.001779 
1.9550401e+3, 1.241933e+2, -1312543.9, -1681785.4, -6729.0527, -0.024259103, -0.22368169, -1312421.4, 410456.66, 0.21276206, 10.004398, 9.998181 
1.9550388e+3, 1.3419002e+2, -1218237.8, -1631031.8, -12113.178, -0.08990948, -0.34969127, -1217882.6, 407025.4, 0.14866354, 10.00426, 9.99785 
1.9550389e+3, 1.4418796e+2, -1113453.6, -1493668.5, -52179.69, 0.07578391, -0.35955366, -1106422.6, 420504.5, 0.0856672, 10.003847, 9.998339 
1.9550359e+3, 1.5418698e+2, -1128851.1, -1468655.3, -46937.766, -0.030660907, -0.2959257, -1122486.8, 306449.97, 0.03716917, 10.00292, 9.998263 
1.955034e+3, 1.6418554e+2, -1097345.5, -1391029.9, -44746.445, -0.04053152, -0.26935297, -1090679.1, 240271.44, 0.01037135, 10.002335, 9.998404 
1.9550331e+3, 1.7418359e+2, -1011432.2, -1308633.6, -41787.406, 0.037647605, -0.30677524, -1005668.56, 227300.48, 0.0012287758, 10.002273, 9.998327 
1.9550312e+3, 1.8418166e+2, -936118.5, -1191816.9, -70355.16, 0.06372249, -0.34170252, -918038.75, 216948.23, 0.000009908067, 10.001986, 9.998594 
1.9550282e+3, 1.941799e+2, -928870.44, -1145150.9, -64819.305, 0.03345642, -0.3805296, -910931.94, 126070.59, 0.0, 10.001394, 9.998528 
1.9550253e+3, 2.0417851e+2, -881194.5, -1035237.7, -71160.85, 0.012751491, -0.38336262, -853353.4, 85662.016, 0.0, 10.000895, 9.998849 
1.9550227e+3, 2.1417776e+2, -839706.4, -970641.56, -87220.4, 0.0007014013, -0.34841055, -796117.06, 44906.08, 0.0, 10.000533, 9.998795 
1.95502e+3, 2.2417709e+2, -743769.94, -790468.56, -91681.96, 0.0053850734, -0.32650608, -672510.75, 70519.31, 0.0, 10.00016, 9.999538 
1.9550176e+3, 2.3417662e+2, -704253.5, -722528.56, -65002.188, 0.032582156, -0.33496976, -647749.75, -2715.1475, 0.0, 9.999766, 9.999522 
1.9550148e+3, 2.4417612e+2, -690711.8, -689457.4, -47936.0, 0.027907893, -0.32493, -642144.5, -95103.53, 0.0, 9.999294, 9.999302 
1.9550118e+3, 2.5417575e+2, -684737.8, -648569.5, -61968.617, -0.01696533, -0.29102388, -602100.25, -153052.38, 0.0, 9.998715, 9.999189 
1.9550093e+3, 2.6417544e+2, -580699.0, -471198.06, -47747.41, -0.025264325, -0.26792723, -453302.63, -102250.05, 0.0, 9.998426, 9.999874 
1.9550075e+3, 2.7417517e+2, -473623.94, -372978.03, -31563.74, 0.0029945534, -0.29114214, -363898.38, -110843.39, 0.0, 9.998506, 9.999838 
1.955005e+3, 2.841749e+2, -452696.63, -295265.7, -59444.38, 0.017903287, -0.30384675, -275341.63, -120283.766, 0.0, 9.997906, 9.999987 
1.9550021e+3, 2.941754e+2, -561984.25, -295601.4, -64257.324, 0.050149437, -0.2579913, -280911.25, -223856.89, 0.0, 9.996473, 10.000003 
1.9550008e+3, 3.0417547e+2, -520330.97, -206173.95, 11927.17, 0.089565076, -0.26802728, -205721.78, -205721.78, 0.0, 9.996235, 10.000398 
1.9549976e+3, 3.1417608e+2, -302323.8, 13054.13, -137012.81, -0.06724129, -0.24052274, 64263.035, 64263.035, 0.0, 9.997241, 10.001417 
1.9650447e+3, 1.241946e+2, -1253810.4, -1654967.8, 43952.125, -0.008609775, -0.18901928, -1249051.3, 473815.66, 0.22272308, 10.004978, 9.998144 
1.9650428e+3, 1.3419127e+2, -1257242.5, -1643256.8, 11207.617, -0.07484363, -0.3254388, -1256917.4, 367979.22, 0.15626606, 10.003941, 9.997919 
1.9650424e+3, 1.4418884e+2, -1182642.5, -1531030.0, -28863.234, 0.061583053, -0.37334552, -1180267.4, 346651.38, 0.09057826, 10.00337, 9.998288 
1.9650392e+3, 1.5418799e+2, -1070603.4, -1445511.3, -35435.508, -0.020945102, -0.29154098, -1067283.4, 361644.0, 0.039660398, 10.003373, 9.998202 
1.9650368e+3, 1.6418655e+2, -998926.7, -1341756.9, -36505.953, -0.017651295, -0.2608209, -995082.5, 335858.6, 0.0112578245, 10.003015, 9.998414 
1.9650353e+3, 1.741845e+2, -1024000.44, -1312140.4, -35405.418, 0.055703316, -0.31209704, -1019713.75, 213246.55, 0.001392616, 10.002179, 9.998346 
1.9650333e+3, 1.8418252e+2, -979714.56, -1207750.8, -63537.027, 0.081961654, -0.3528417, -963206.5, 171771.7, 0.000014255441, 10.001668, 9.998636 
1.96503e+3, 1.9418088e+2, -895204.56, -1123863.0, -68561.516, 0.058932606, -0.38488925, -876222.6, 160769.86, 0.0, 10.001609, 9.998569 
1.9650266e+3, 2.0417954e+2, -832029.6, -1026064.7, -75056.69, 0.026596881, -0.3795507, -806385.4, 132620.0, 0.0, 10.001297, 9.998717 
1.965023e+3, 2.1417873e+2, -835647.75, -985523.44, -69706.6, -0.023606654, -0.33538994, -808239.7, 32775.387, 0.0, 10.000635, 9.998643 
1.9650197e+3, 2.2417809e+2, -757701.5, -775346.25, -74874.38, -0.032238588, -0.31071058, -691131.5, 51890.48, 0.0, 9.999974, 9.999731 
1.965017e+3, 2.3417778e+2, -753058.56, -721257.1, -87063.2, 0.01884667, -0.32521486, -648654.56, -3630.4722, 0.0, 9.999328, 9.999742 
1.965014e+3, 2.4417739e+2, -735804.1, -701709.75, -68752.61, 0.03490425, -0.31943357, -647922.44, -100893.58, 0.0, 9.998944, 9.999386 
1.9650108e+3, 2.5417706e+2, -652593.6, -624399.4, -49874.06, -0.0018841072, -0.28823742, -586668.44, -137632.98, 0.0, 9.998901, 9.999264 
1.9650076e+3, 2.6417682e+2, -562036.6, -438792.6, -29686.486, -0.0271578, -0.2727761, -432014.63, -80975.02, 0.0, 9.998458, 10.000079 
1.9650051e+3, 2.741767e+2, -612195.4, -415818.34, -38776.105, -0.020820593, -0.30269864, -408439.0, -155398.47, 0.0, 9.997456, 10.000047 
1.9650026e+3, 2.841767e+2, -567952.75, -354905.13, -66702.69, 0.040894024, -0.29606873, -335744.53, -180703.77, 0.0, 9.997134, 9.9999485 
1.965e+3, 2.9417747e+2, -387482.2, -206271.36, -45372.035, 0.13952167, -0.21927609, -195545.81, -138510.72, 0.0, 9.997652, 10.000047 
1.9649962e+3, 3.041775e+2, -384161.9, -129718.52, 45388.574, -0.023581494, -0.24687763, -121864.38, -121864.38, 0.0, 9.997124, 10.000495 
1.9649939e+3, 3.1417778e+2, -530692.25, -94025.836, -86055.39, -0.09930887, -0.25082782, -77678.586, -77678.586, 0.0, 9.995665, 10.001439 
1.97505e+3, 1.2419496e+2, -1275151.1, -1685882.1, 26837.05, -0.00017615657, -0.32677755, -1273405.0, 449456.97, 0.23276368, 10.004969, 9.997881 
1.9750473e+3, 1.3419372e+2, -1265767.6, -1652469.5, -20373.945, -0.030381748, -0.2471813, -1264697.1, 360175.34, 0.16401228, 10.003925, 9.997864 
1.975046e+3, 1.441915e+2, -1197424.5, -1559188.4, -30129.164, 0.077617116, -0.26307228, -1194932.5, 331960.94, 0.09563554, 10.003363, 9.9981 
1.9750428e+3, 1.5418902e+2, -1085469.1, -1475666.4, -33511.383, 0.0048336466, -0.32287905, -1082612.0, 346305.44, 0.04225016, 10.003372, 9.997996 
1.9750401e+3, 1.6418697e+2, -999982.06, -1343668.5, -65316.184, 0.0075112646, -0.343453, -987987.6, 342949.3, 0.012187517, 10.003015, 9.998403 
1.9750378e+3, 1.7418559e+2, -1023669.44, -1312259.1, -65557.26, 0.07101584, -0.3260208, -1009475.3, 223473.89, 0.0015681973, 10.002181, 9.998345 
1.9750349e+3, 1.8418404e+2, -985261.94, -1219402.6, -67526.78, 0.08796203, -0.32152402, -967183.0, 167780.19, 0.000019593592, 10.001668, 9.998557 
1.9750316e+3, 1.9418244e+2, -901354.44, -1136571.3, -68730.12, 0.054658003, -0.34175444, -882744.06, 154233.8, 0.0, 10.001607, 9.998483 
1.9750278e+3, 2.0418093e+2, -822330.7, -1005362.3, -97182.55, 0.012493007, -0.35567316, -780356.44, 158636.03, 0.0, 10.001293, 9.998863 
1.9750234e+3, 2.1417966e+2, -825336.8, -962807.94, -92080.21, -0.046632417, -0.37164712, -779166.56, 61839.145, 0.0, 10.0006275, 9.998803 
1.9750193e+3, 2.241788e+2, -775625.5, -812176.6, -98185.13, -0.06680139, -0.36680198, -694029.56, 48985.305, 0.0, 9.99997, 9.99948 
1.9750157e+3, 2.3417857e+2, -773302.3, -764078.4, -109207.6, -0.028529277, -0.3446255, -659385.44, -14368.159, 0.0, 9.99933, 9.999447 
1.9750127e+3, 2.4417837e+2, -703594.4, -636159.06, -71732.45, 0.015458077, -0.32366318, -590614.94, -43595.055, 0.0, 9.998947, 9.999836 
1.9750102e+3, 2.5417835e+2, -615222.7, -549141.9, -50300.344, 0.05144965, -0.31345534, -522000.94, -72979.3, 0.0, 9.998909, 9.999779 
1.9750069e+3, 2.641784e+2, -564284.2, -445317.44, -64969.83, 0.030316023, -0.29557192, -416713.63, -65690.79, 0.0, 9.998465, 10.000031 
1.9750026e+3, 2.7417865e+2, -618746.7, -431582.84, -75164.555, -0.02842978, -0.27873874, -405134.4, -152111.98, 0.0, 9.997463, 9.999936 
1.9749996e+3, 2.8417885e+2, -547530.6, -314365.9, -51680.637, 0.029817136, -0.25825405, -303424.4, -148403.13, 0.0, 9.997141, 10.000224 
1.9749977e+3, 2.9417938e+2, -361655.1, -159248.78, -26496.566, 0.13932711, -0.23586267, -155837.66, -98821.08, 0.0, 9.997678, 10.00036 
1.9749919e+3, 3.0418012e+2, -376342.53, -118233.39, -18337.13, -0.18550369, -0.21345451, -116937.16, -116937.16, 0.0, 9.997144, 10.000564 
1.9749913e+3, 3.1417945e+2, -495155.56, -26363.0, -25430.066, 0.06697787, -0.3220122, -24987.559, -24987.559, 0.0, 9.995685, 10.001898 
1.985055e+3, 1.2419695e+2, -1319694.0, -1726571.4, 31293.342, 0.026250318, -0.3236005, -1317301.4, 405540.8, 0.24270573, 10.004737, 9.997641 
1.985052e+3, 1.3419566e+2, -1207120.5, -1618998.3, -26184.576, 0.027394902, -0.2501392, -1205462.5, 419391.1, 0.171794, 10.004446, 9.997849 
1.9850498e+3, 1.4419335e+2, -1122544.1, -1532989.5, -21679.75, 0.094598666, -0.26650795, -1121402.1, 405473.25, 0.10079242, 10.004013, 9.997966 
1.9850461e+3, 1.5419075e+2, -1107827.0, -1500173.5, -22906.684, 0.010031962, -0.32448125, -1106494.1, 322406.56, 0.04492615, 10.003283, 9.997869 
1.9850431e+3, 1.641886e+2, -1027354.0, -1361743.8, -53478.38, 0.0070421346, -0.34435228, -1019009.56, 311911.6, 0.013157884, 10.002853, 9.998353 
1.9850403e+3, 1.741872e+2, -928975.8, -1271118.8, -59070.695, 0.07329906, -0.3257993, -919064.4, 313869.3, 0.0017538491, 10.002857, 9.998301 
1.985037e+3, 1.8418564e+2, -871353.25, -1164606.6, -62399.18, 0.08721953, -0.31917682, -858628.0, 276319.84, 0.0000256483, 10.002452, 9.998555 
1.985033e+3, 1.9418405e+2, -917602.06, -1144394.9, -58984.81, 0.04175301, -0.3369503, -903178.5, 133784.02, 0.0, 10.001496, 9.998483 
1.9850288e+3, 2.0418265e+2, -892041.25, -1025549.1, -86195.9, 0.0061165644, -0.34613582, -849773.06, 89203.22, 0.0, 10.000758, 9.9989805 
1.9850242e+3, 2.141816e+2, -860632.44, -965234.9, -86491.54, -0.020897118, -0.35388476, -811858.44, 29129.182, 0.0, 10.000325, 9.998931 
1.9850196e+3, 2.2418074e+2, -792788.25, -824069.0, -86026.31, -0.03973225, -0.35299084, -720992.1, 22004.414, 0.0, 9.99987, 9.999446 
1.985015e+3, 2.3418029e+2, -770848.06, -767941.2, -79205.19, -0.039432455, -0.34962502, -690176.06, -45175.242, 0.0, 9.999371, 9.999399 
1.9850114e+3, 2.4418001e+2, -714917.2, -626594.5, -33522.387, -0.010765385, -0.33955035, -615312.44, -68308.734, 0.0, 9.998809, 9.999967 
1.9850087e+3, 2.5418007e+2, -712028.06, -579472.06, -39814.87, 0.039415058, -0.33432943, -568432.56, -119428.836, 0.0, 9.998177, 9.999922 
1.9850048e+3, 2.6418024e+2, -657915.0, -494106.7, -73698.84, 0.024953846, -0.31142998, -465830.03, -114826.21, 0.0, 9.99784, 9.999997 
1.985e+3, 2.741807e+2, -564530.5, -411433.7, -81746.68, -0.03301649, -0.2640737, -375990.22, -122988.164, 0.0, 9.997865, 9.999879 
1.9849971e+3, 2.8418106e+2, -473851.56, -268531.34, -48308.277, 0.031660363, -0.23240148, -257733.14, -102732.8, 0.0, 9.997605, 10.000314 
1.984995e+3, 2.9418132e+2, -477901.28, -207612.05, -41532.473, 0.1528761, -0.24875633, -201374.16, -144375.92, 0.0, 9.996852, 10.0004225 
1.9849885e+3, 3.0418217e+2, -516184.6, -158733.52, -73458.29, -0.1732681, -0.22592504, -144226.2, -144226.2, 0.0, 9.99607, 10.000802 
1.9849873e+3, 3.1418216e+2, -472862.84, 14450.576, 36129.543, 0.10657699, -0.29698172, 17114.666, 17114.666, 0.0, 9.9957075, 10.002166 
1.99506e+3, 1.2420041e+2, -1342190.5, -1766600.5, 25157.438, 0.054989755, -0.19704604, -1340704.5, 382104.5, 0.2524495, 10.004705, 9.997378 
1.9950572e+3, 1.3419704e+2, -1213224.1, -1622534.9, -32646.072, 0.09067798, -0.32977462, -1210636.8, 414202.94, 0.17952684, 10.004441, 9.997823 
1.9950539e+3, 1.4419435e+2, -1127874.0, -1543452.4, -44836.387, 0.105412655, -0.3783378, -1123091.6, 403773.16, 0.105999485, 10.004024, 9.997892 
1.9950493e+3, 1.5419309e+2, -1112544.6, -1509139.4, -48323.77, -0.009233174, -0.2979246, -1106741.4, 322136.47, 0.04767174, 10.0032835, 9.997809 
1.9950457e+3, 1.641914e+2, -1035369.8, -1376573.6, -54967.6, -0.02404478, -0.26465744, -1026733.2, 304161.13, 0.0141666755, 10.002847, 9.998255 
1.9950432e+3, 1.7418922e+2, -936824.5, -1286902.4, -56761.754, 0.058331892, -0.3118881, -927851.1, 305063.38, 0.0019487245, 10.002853, 9.998195 
1.9950393e+3, 1.8418723e+2, -866921.2, -1154953.8, -94664.16, 0.07532381, -0.3459308, -838594.8, 296337.97, 0.000032105352, 10.002448, 9.998624 
1.9950344e+3, 1.9418569e+2, -912716.06, -1133724.8, -92622.76, 0.016024217, -0.36874023, -879032.4, 157914.61, 0.0, 10.001492, 9.998558 
1.9950296e+3, 2.0418464e+2, -887597.75, -1016168.06, -103296.41, 0.003455264, -0.34914845, -830216.44, 108741.11, 0.0, 10.000756, 9.999047 
1.9950251e+3, 2.1418439e+2, -856300.56, -956266.6, -100373.04, 0.04883726, -0.28315815, -794154.0, 46807.855, 0.0, 10.000324, 9.998994 
1.9950202e+3, 2.2418378e+2, -778759.56, -795345.1, -103772.42, 0.045808185, -0.2711186, -682949.06, 60019.09, 0.0, 9.99987, 9.999644 
1.9950147e+3, 2.3418279e+2, -756841.56, -738913.9, -95942.75, -0.01865749, -0.34025118, -651517.1, -6541.325, 0.0, 9.999369, 9.9996 
1.9950098e+3, 2.4418215e+2, -729114.56, -656824.06, -56792.086, -0.048788484, -0.36719802, -625650.5, -78669.3, 0.0, 9.998811, 9.999759 
1.995006e+3, 2.5418207e+2, -727965.3, -614868.4, -62112.598, -0.041525353, -0.3524301, -587418.56, -138435.6, 0.0, 9.998185, 9.999676 
1.995002e+3, 2.6418218e+2, -658832.6, -498138.9, -75236.04, -0.044203762, -0.3194581, -468412.7, -117428.95, 0.0, 9.997847, 9.999967 
1.9949979e+3, 2.7418283e+2, -565232.1, -416713.3, -79774.5, -0.041546892, -0.25649217, -381984.5, -129003.76, 0.0, 9.997879, 9.999837 
1.9949947e+3, 2.8418314e+2, -478652.3, -282061.25, -75457.41, 0.038714107, -0.2191327, -256438.14, -101458.43, 0.0, 9.99762, 10.000214 
1.994992e+3, 2.9418296e+2, -490145.1, -236663.48, -73923.266, 0.17098835, -0.26614872, -216680.47, -159697.81, 0.0, 9.996865, 10.0002165 
1.9949865e+3, 3.041835e+2, -485789.72, -98351.97, -98660.29, 0.019971954, -0.27967903, -74675.23, -74675.23, 0.0, 9.996079, 10.001213 
1.9949816e+3, 3.1418625e+2, -489657.25, -26583.537, 109790.516, -0.036135487, -0.12841237, -1871.9341, -1871.9341, 0.0, 9.995731, 10.001874 
2.0050654e+3, 1.24203086e+2, -1279198.1, -1743925.4, 43654.34, 0.07092866, -0.20936848, -1275133.0, 447648.4, 0.2620401, 10.005424, 9.997195 
2.0050621e+3, 1.3419956e+2, -1171794.8, -1609228.5, -14599.377, 0.12743618, -0.34766006, -1171308.0, 453506.72, 0.18721278, 10.004871, 9.997726 
2.0050581e+3, 1.4419712e+2, -1088289.9, -1522991.3, -29781.066, 0.10329875, -0.36366254, -1086259.0, 440578.72, 0.11124424, 10.004364, 9.997866 
2.0050529e+3, 1.5419571e+2, -1032459.5, -1470840.8, -35062.473, -0.005934672, -0.29573897, -1029672.9, 399179.13, 0.050479382, 10.003882, 9.997783 
2.0050487e+3, 1.6419396e+2, -978267.75, -1350048.3, -29587.984, -0.017562253, -0.26780394, -975927.75, 354941.34, 0.01521361, 10.003255, 9.9982395 
2.0050457e+3, 1.7419174e+2, -996623.8, -1317642.4, -26072.814, 0.067462474, -0.316007, -994520.0, 238369.92, 0.0021533365, 10.002453, 9.998176 
2.0050415e+3, 1.8418978e+2, -943493.94, -1190564.6, -67594.69, 0.08376294, -0.34763822, -926210.1, 208698.14, 0.00003871999, 10.00192, 9.998632 
2.0050359e+3, 1.9418834e+2, -874836.7, -1113566.4, -72852.734, 0.018009707, -0.3594315, -854360.56, 182560.88, 0.0, 10.001748, 9.998571 
2.0050305e+3, 2.041873e+2, -819586.75, -989415.94, -93056.62, 0.00022020287, -0.3371767, -778525.06, 160406.9, 0.0, 10.001252, 9.998991 
2.0050254e+3, 2.1418689e+2, -862266.4, -967064.9, -101704.28, 0.044492893, -0.28145605, -800256.56, 40681.402, 0.0, 10.000319, 9.998922 
2.0050201e+3, 2.241862e+2, -797070.0, -809209.4, -103022.77, 0.048575014, -0.26946384, -699938.25, 43006.57, 0.0, 9.999768, 9.999598 
2.0050144e+3, 2.3418531e+2, -704177.75, -719182.25, -114892.016, 0.0003119212, -0.3251163, -596543.3, 48408.19, 0.0, 9.999756, 9.999549 
2.005009e+3, 2.4418464e+2, -650145.5, -635408.94, -98157.95, -0.037323743, -0.3458433, -544343.1, 2614.2046, 0.0, 9.999426, 9.999609 
2.0050041e+3, 2.541844e+2, -674300.8, -606517.0, -99662.336, -0.061256953, -0.33184773, -535141.44, -86180.45, 0.0, 9.9986315, 9.9995165 
2.0049998e+3, 2.6418436e+2, -650959.8, -485881.28, -92017.37, -0.06342271, -0.30982345, -444808.53, -93845.55, 0.0, 9.9978695, 10.000037 
2.0049956e+3, 2.7418476e+2, -663324.2, -452816.38, -86961.84, -0.031656493, -0.27624762, -421539.16, -168578.34, 0.0, 9.997162, 9.999933 
2.0049918e+3, 2.8418508e+2, -612886.2, -337435.84, -74968.734, 0.022352643, -0.24887268, -318353.72, -163394.19, 0.0, 9.996661, 10.000295 
2.004988e+3, 2.9418525e+2, -569336.25, -278870.38, -66483.99, 0.09958579, -0.26695317, -264376.28, -207416.31, 0.0, 9.996342, 10.000177 
2.0049836e+3, 3.0418578e+2, -484522.88, -110062.3, -90197.25, 0.111094415, -0.2675906, -89468.8, -89468.8, 0.0, 9.996142, 10.0011015 
2.0049778e+3, 3.1418768e+2, -449397.8, -11599.246, 89873.766, -0.0040747914, -0.20065403, 6132.387, 6132.387, 0.0, 9.996037, 10.001825 
2.0150706e+3, 1.2420484e+2, -1289492.9, -1754254.6, 19310.441, 0.065506496, -0.36877075, -1288691.9, 434069.13, 0.27177387, 10.00542, 9.997118 
2.015067e+3, 1.3420314e+2, -1186760.4, -1628770.0, -28834.184, 0.13032398, -0.30785394, -1184887.3, 439891.9, 0.19501711, 10.004851, 9.9975815 
2.0150623e+3, 1.4420162e+2, -1094092.4, -1526815.3, -44841.984, 0.07966974, -0.22664973, -1089494.4, 437300.28, 0.11659469, 10.004346, 9.997849 
2.015057e+3, 1.541986e+2, -1035808.3, -1475217.3, -50414.242, 0.013225741, -0.31489962, -1030098.4, 398724.66, 0.053368576, 10.00388, 9.997756 
2.0150524e+3, 1.6419624e+2, -974790.7, -1342764.9, -58058.207, 0.019913731, -0.3488097, -965847.75, 364997.9, 0.016304638, 10.003256, 9.99829 
2.0150484e+3, 1.741947e+2, -993295.44, -1310881.0, -54459.06, 0.09650629, -0.33789766, -984216.44, 248644.25, 0.0023698893, 10.002453, 9.998223 
2.0150436e+3, 1.8419318e+2, -947099.1, -1197799.4, -75044.28, 0.10854694, -0.32486972, -926352.4, 208522.86, 0.00004542485, 10.001918, 9.998585 
2.0150378e+3, 1.9419195e+2, -879582.75, -1123051.3, -77157.45, 0.042570584, -0.3101983, -857190.3, 179696.47, 0.0, 10.001745, 9.998508 
2.0150316e+3, 2.0419054e+2, -832028.3, -1015723.75, -125037.58, -0.007355379, -0.31194478, -768729.6, 170171.03, 0.0, 10.001252, 9.998811 
2.0150249e+3, 2.1418901e+2, -876722.5, -996506.0, -134486.1, -0.03782211, -0.34778672, -789394.94, 51521.684, 0.0, 10.000314, 9.998723 
2.015019e+3, 2.2418797e+2, -819087.5, -855286.7, -105146.32, -0.03466115, -0.34613606, -730494.3, 12432.794, 0.0, 9.999767, 9.999283 
2.0150143e+3, 2.3418772e+2, -726341.4, -766363.94, -113204.96, 0.012759382, -0.30376738, -631392.56, 13536.396, 0.0, 9.99976, 9.999225 
2.0150091e+3, 2.4418734e+2, -655033.4, -647572.25, -125355.12, 0.020006096, -0.27514616, -525892.2, 21040.873, 0.0, 9.999433, 9.999523 
2.0150031e+3, 2.5418693e+2, -679221.9, -618645.0, -128763.445, -0.025712801, -0.2729589, -516655.63, -67716.8, 0.0, 9.998638, 9.999432 
2.0149978e+3, 2.641866e+2, -638304.7, -461789.8, -119696.22, -0.03713349, -0.2831853, -401330.88, -50387.984, 0.0, 9.997877, 10.0002 
2.014993e+3, 2.7418643e+2, -644754.6, -418282.7, -111979.5, -0.009141416, -0.32545274, -372264.8, -119321.0, 0.0, 9.997177, 10.000164 
2.0149879e+3, 2.8418678e+2, -593625.75, -300600.78, -89478.414, -0.02115328, -0.3210767, -275438.3, -120497.195, 0.0, 9.996674, 10.000542 
2.0149827e+3, 2.9418808e+2, -559837.2, -262929.1, -81146.08, -0.06902757, -0.24631642, -242198.95, -185267.78, 0.0, 9.996356, 10.000282 
2.0149794e+3, 3.0418885e+2, -526136.75, -200530.92, -90596.93, 0.091789305, -0.19466984, -177020.69, -177020.69, 0.0, 9.996159, 10.000473 
2.0149748e+3, 3.1418875e+2, -426509.63, 34298.37, 9043.252, 0.08732076, -0.26984406, 34475.777, 34475.777, 0.0, 9.99605, 10.002131 
2.0250762e+3, 1.24208465e+2, -1252065.4, -1722344.9, 29673.254, 0.048308875, -0.40700117, -1250200.5, 472523.88, 0.2822478, 10.005819, 9.997149 
2.025072e+3, 1.3420692e+2, -1149431.4, -1622310.1, -10467.1, 0.11893045, -0.31278512, -1149199.9, 475542.1, 0.2032878, 10.005289, 9.9974165 
2.0250665e+3, 1.4420561e+2, -1052338.9, -1505126.9, -24174.885, 0.060705982, -0.20124465, -1051051.9, 475703.75, 0.12220564, 10.004694, 9.9978485 
2.0250611e+3, 1.5420224e+2, -1025577.8, -1469204.1, -29452.818, 0.040843066, -0.32705525, -1023630.94, 405156.3, 0.056390323, 10.003963, 9.997754 
2.025056e+3, 1.6419975e+2, -959525.4, -1341987.6, -36891.07, 0.053034842, -0.3692151, -955999.44, 374811.5, 0.017454358, 10.003398, 9.998225 
2.0250511e+3, 1.7419848e+2, -908309.3, -1277382.4, -43533.31, 0.082914196, -0.32448065, -903243.94, 329580.2, 0.002602448, 10.003072, 9.998154 
2.0250456e+3, 1.8419705e+2, -862074.6, -1156617.3, -64825.004, 0.079611585, -0.29838467, -848438.75, 286399.22, 0.0000523828, 10.002503, 9.998585 
2.0250395e+3, 1.9419563e+2, -898418.0, -1132758.5, -64358.477, 0.038883585, -0.30087024, -881906.25, 154944.72, 0.0, 10.001618, 9.998503 
2.0250328e+3, 2.0419404e+2, -862882.6, -1049635.8, -105901.25, -0.0037721838, -0.3137759, -815070.44, 123796.08, 0.0, 10.001123, 9.99864 
2.0250255e+3, 2.141923e+2, -765766.44, -963463.9, -116703.05, -0.049934767, -0.35209608, -711675.06, 129209.33, 0.0, 10.001166, 9.998538 
2.0250191e+3, 2.2419111e+2, -696216.1, -810658.25, -85010.625, -0.053428777, -0.35060048, -650962.56, 91933.95, 0.0, 10.000675, 9.999151 
2.0250137e+3, 2.3419076e+2, -780497.2, -807085.56, -79651.28, 0.00063816033, -0.30563232, -713038.25, -68138.75, 0.0, 9.999452, 9.999092 
2.025008e+3, 2.4419023e+2, -782979.4, -720185.44, -81161.125, 0.023153072, -0.27937964, -664560.0, -117654.88, 0.0, 9.998604, 9.999422 
2.025002e+3, 2.5418964e+2, -738430.7, -658857.3, -87676.01, 0.0036487244, -0.2827562, -602362.8, -153450.27, 0.0, 9.998283, 9.999325 
2.024996e+3, 2.641893e+2, -639229.6, -447399.16, -83808.83, -0.0051262924, -0.29330915, -415942.3, -65026.004, 0.0, 9.9978075, 10.000332 
2.0249902e+3, 2.7418926e+2, -648582.06, -403033.1, -80728.7, -0.0013862458, -0.33714008, -378869.84, -125954.914, 0.0, 9.997078, 10.000315 
2.0249844e+3, 2.8418967e+2, -602593.3, -297335.4, -52262.13, -0.03718161, -0.34083116, -288635.72, -133724.42, 0.0, 9.996581, 10.0006075 
2.0249787e+3, 2.941911e+2, -544779.4, -241508.27, -57242.01, -0.11411015, -0.25922528, -231063.63, -174163.66, 0.0, 9.996403, 10.000404 
2.0249753e+3, 3.0419207e+2, -561093.25, -208628.5, -38186.56, 0.07653045, -0.201923, -204538.77, -204538.77, 0.0, 9.995876, 10.000556 
2.0249704e+3, 3.1419238e+2, -627851.06, -89487.53, 57372.414, 0.10212521, -0.23827647, -83441.36, -83441.36, 0.0, 9.994785, 10.001889 
2.0350815e+3, 1.24213934e+2, -1260891.1, -1715810.3, 1810.647, 0.00011296808, -0.32375762, -1260883.9, 461787.7, 0.29420298, 10.005772, 9.99723 
2.035077e+3, 1.3421088e+2, -1168022.1, -1655386.8, -23562.662, 0.08444841, -0.35580757, -1166885.5, 457817.34, 0.21246046, 10.005284, 9.9971895 
2.0350711e+3, 1.4420915e+2, -1053392.5, -1502405.3, -47096.01, 0.03809046, -0.27749255, -1048505.9, 478214.56, 0.12827723, 10.0047, 9.997869 
2.0350654e+3, 1.5420648e+2, -1026270.9, -1466903.1, -53896.492, 0.071315415, -0.33515066, -1019774.25, 408971.16, 0.05961724, 10.003958, 9.997776 
2.0350596e+3, 1.6420436e+2, -972829.75, -1367939.4, -49268.684, 0.07675311, -0.33390146, -966778.75, 363987.34, 0.018685631, 10.00339, 9.998053 
2.0350535e+3, 1.7420302e+2, -922550.06, -1305985.0, -53480.805, 0.023048583, -0.27659675, -915230.4, 317550.5, 0.002857233, 10.003067, 9.997961 
2.0350473e+3, 1.8420134e+2, -860225.1, -1152446.0, -95620.07, -0.00672106, -0.26692444, -831717.56, 303079.75, 0.000060137387, 10.002501, 9.998615 
2.0350407e+3, 1.9419938e+2, -895879.7, -1127102.8, -95413.04, 0.0023120504, -0.3282396, -861592.3, 175222.11, 0.0, 10.001616, 9.998544 
2.035034e+3, 2.0419773e+2, -874722.7, -1074872.8, -106010.086, 0.0069049294, -0.34045517, -829013.1, 109817.03, 0.0, 10.001124, 9.998467 
2.0350273e+3, 2.1419665e+2, -779577.0, -991690.2, -112470.92, 0.00326199, -0.29515693, -731044.75, 109797.695, 0.0, 10.0011635, 9.998347 
2.0350201e+3, 2.2419548e+2, -692539.75, -803504.56, -126558.39, -0.011925149, -0.28382167, -609836.3, 133017.8, 0.0, 10.000676, 9.999201 
2.0350128e+3, 2.3419428e+2, -776277.75, -798164.25, -123888.73, -0.040349368, -0.33142883, -662849.9, -17985.73, 0.0, 9.99945, 9.999155 
2.0350061e+3, 2.441932e+2, -791557.94, -739236.94, -95801.14, -0.031445075, -0.35806066, -666088.7, -119214.27, 0.0, 9.998608, 9.999291 
2.0350003e+3, 2.5419247e+2, -746502.44, -678197.06, -98380.516, 0.021597326, -0.36041015, -608209.8, -159326.58, 0.0, 9.998293, 9.999189 
2.0349942e+3, 2.641924e+2, -630570.7, -431872.2, -110433.78, 0.027856924, -0.33984607, -382675.5, -31791.2, 0.0, 9.997816, 10.000436 
2.0349872e+3, 2.7419323e+2, -641730.56, -392146.88, -107793.25, -0.015483933, -0.31188253, -352037.56, -99162.22, 0.0, 9.99709, 10.000385 
2.0349811e+3, 2.8419363e+2, -610475.6, -315926.16, -62115.72, -0.027785577, -0.30847803, -303362.8, -148491.47, 0.0, 9.99659, 10.000476 
2.0349759e+3, 2.9419413e+2, -532430.7, -220836.1, -63967.66, -0.033749968, -0.30897185, -208215.28, -151347.33, 0.0, 9.996422, 10.000538 
2.034971e+3, 3.0419534e+2, -498580.44, -80859.164, -76880.84, 0.04612524, -0.29014093, -67158.734, -67158.734, 0.0, 9.995884, 10.001431 
2.0349653e+3, 3.1419644e+2, -654415.7, -150178.56, 13456.621, 0.11881447, -0.31157324, -149819.7, -149819.7, 0.0, 9.994803, 10.001467 
2.0450877e+3, 1.2421972e+2, -1221119.9, -1684396.0, 18968.299, 0.01786722, -0.294717, -1220344.5, 502271.06, 0.30821502, 10.0062065, 9.997331 
2.0450823e+3, 1.3421628e+2, -1155766.4, -1661768.8, 11069.028, 0.07346457, -0.3523814, -1155524.4, 469125.88, 0.2228869, 10.00552, 9.997031 
2.0450757e+3, 1.4421415e+2, -1037821.25, -1507030.8, -10738.027, 0.017306667, -0.29645884, -1037575.6, 489095.7, 0.1349837, 10.004922, 9.9977255 
2.0450696e+3, 1.5421161e+2, -967034.7, -1452746.8, -29292.262, 0.063310124, -0.32671854, -965274.5, 463421.2, 0.06312121, 10.004477, 9.997621 
2.0450632e+3, 1.6420946e+2, -913133.56, -1344068.1, -25301.936, 0.07129621, -0.3174338, -911653.06, 419063.78, 0.020024566, 10.003839, 9.998 
2.0450565e+3, 1.7420787e+2, -943612.75, -1321878.4, -20905.566, 0.010010523, -0.27878973, -942460.9, 290272.75, 0.0031421313, 10.002946, 9.9979105 
2.0450495e+3, 1.8420604e+2, -885014.0, -1180255.8, -57961.875, -0.024110155, -0.27547184, -874042.6, 260708.88, 0.00006977841, 10.002398, 9.998474 
2.0450427e+3, 1.9420406e+2, -803838.75, -1098282.9, -73003.35, -0.016169079, -0.32514277, -786732.44, 250036.98, 0.0, 10.002316, 9.998403 
2.0450354e+3, 2.0420238e+2, -778649.75, -1025735.9, -86161.6, -0.0042036944, -0.33440912, -751571.75, 187213.61, 0.0, 10.001775, 9.99849 
2.0450282e+3, 2.1420123e+2, -856702.9, -1025197.75, -77246.13, 0.010660823, -0.2981008, -826649.8, 14147.564, 0.0, 10.000618, 9.99838 
2.0450206e+3, 2.2420003e+2, -805631.5, -867276.0, -87813.82, -0.00012453737, -0.2880929, -743387.75, -578.4325, 0.0, 9.999942, 9.999115 
2.0450124e+3, 2.3419881e+2, -712500.1, -777985.8, -99342.83, -0.04110377, -0.32596466, -640643.3, 4176.905, 0.0, 9.999934, 9.99906 
2.0450051e+3, 2.4419774e+2, -657826.9, -664245.6, -70856.81, -0.038918376, -0.3518612, -590106.8, -43276.395, 0.0, 9.999481, 9.999385 
2.0449987e+3, 2.5419697e+2, -719334.3, -652341.7, -54888.78, 0.01442951, -0.36738655, -621535.75, -172697.56, 0.0, 9.9984255, 9.999302 
2.0449919e+3, 2.6419687e+2, -671527.6, -477408.7, -64147.27, 0.021935457, -0.34876823, -458126.38, -107286.74, 0.0, 9.997647, 10.000204 
2.0449844e+3, 2.7419764e+2, -640209.94, -421233.34, -90499.49, -0.012355711, -0.29810667, -388672.9, -135840.67, 0.0, 9.997232, 10.000116 
2.0449778e+3, 2.841979e+2, -614826.2, -313091.94, -50883.0, -0.013611837, -0.2949885, -304742.3, -149912.61, 0.0, 9.996539, 10.00052 
2.0449719e+3, 2.94198e+2, -667594.6, -271356.78, -40757.203, -0.01737663, -0.34491697, -267207.9, -210378.53, 0.0, 9.995433, 10.000667 
2.0449662e+3, 3.0419964e+2, -626918.4, -100188.89, -73345.55, 0.037913103, -0.30930048, -90166.44, -90166.44, 0.0, 9.994826, 10.001803 
2.04496e+3, 3.1420153e+2, -587819.9, -70406.59, 1790.424, 0.080218896, -0.28157434, -70400.4, -70400.4, 0.0, 9.995061, 10.001887 
2.0550945e+3, 1.24226026e+2, -1228011.9, -1673593.8, -10997.735, 0.076881096, -0.29285184, -1227740.6, 494813.94, 0.3244502, 10.006195, 9.997456 
2.0550878e+3, 1.342229e+2, -1168905.3, -1675493.1, -7439.754, 0.07791986, -0.31001535, -1168796.0, 455789.5, 0.23469974, 10.005508, 9.996943 
2.0550804e+3, 1.4422049e+2, -1062136.5, -1550654.9, -26105.393, -0.008059401, -0.26529118, -1060745.4, 465864.2, 0.14241816, 10.00491, 9.997414 
2.0550735e+3, 1.5421756e+2, -991792.94, -1502486.1, -42617.055, 0.010492295, -0.29931167, -988261.0, 440377.53, 0.06695659, 10.004471, 9.997284 
2.0550667e+3, 1.6421501e+2, -910310.9, -1336730.6, -55705.508, 0.02978121, -0.31446984, -903153.9, 427509.44, 0.02149688, 10.003835, 9.998054 
2.0550598e+3, 1.7421296e+2, -938448.3, -1311617.8, -52485.67, 0.03823607, -0.32893577, -931206.8, 301476.1, 0.0034661766, 10.002947, 9.997981 
2.0550525e+3, 1.8421106e+2, -906066.1, -1224397.1, -62316.004, 0.022968424, -0.32392517, -894302.0, 240399.63, 0.0000827448, 10.002398, 9.998172 
2.0550449e+3, 1.9420953e+2, -828303.5, -1147750.3, -73647.63, -0.020703018, -0.29345393, -812141.9, 224574.94, 0.0, 10.00231, 9.998068 
2.0550369e+3, 2.0420784e+2, -764195.5, -995397.8, -125776.02, -0.040897395, -0.29673848, -708965.7, 229767.42, 0.0, 10.001771, 9.9987 
2.0550284e+3, 2.1420597e+2, -839973.06, -989382.4, -118304.17, -0.031438004, -0.35940826, -774761.1, 65988.93, 0.0, 10.000611, 9.998629 
2.0550203e+3, 2.2420464e+2, -822088.75, -901828.25, -90274.53, -0.020890307, -0.36115742, -763271.7, -20508.871, 0.0, 9.999942, 9.998879 
2.0550127e+3, 2.3420426e+2, -731954.9, -818550.6, -97549.945, -0.006052966, -0.2886698, -668525.56, -23756.932, 0.0, 9.999934, 9.998782 
2.0550048e+3, 2.4420373e+2, -634824.75, -617936.6, -107634.74, -0.0032900453, -0.26028362, -518415.22, 28358.924, 0.0, 9.999486, 9.999701 
2.0549968e+3, 2.5420305e+2, -693569.44, -600401.94, -93882.17, -0.022082215, -0.305019, -542181.56, -93402.875, 0.0, 9.99843, 9.999657 
2.054989e+3, 2.642025e+2, -711081.8, -560926.0, -82586.06, -0.025799878, -0.32062706, -524392.3, -173608.77, 0.0, 9.997652, 9.999629 
2.0549817e+3, 2.7420238e+2, -681296.44, -509541.3, -105817.61, 0.00090404716, -0.29796842, -459138.56, -206351.6, 0.0, 9.997243, 9.999506 
2.0549744e+3, 2.842024e+2, -596991.5, -279052.78, -91369.24, -0.0014417607, -0.30027422, -254665.67, -99878.13, 0.0, 9.996551, 10.000749 
2.0549668e+3, 2.9420257e+2, -655528.9, -251766.31, -82129.05, -0.07143298, -0.3645178, -235699.83, -178914.8, 0.0, 9.995454, 10.0007925 
2.0549612e+3, 3.042047e+2, -644821.8, -134747.98, -78392.8, 0.05705257, -0.2688834, -122971.74, -122971.74, 0.0, 9.994818, 10.00157 
2.0549542e+3, 3.1420693e+2, -533514.8, 33594.027, 52114.742, -0.018187428, -0.19991149, 38343.363, 38343.363, 0.0, 9.995083, 10.002599 
2.0651005e+3, 1.24232665e+2, -1242953.8, -1675438.6, -3970.8765, 0.07522578, -0.3126803, -1242917.4, 479572.63, 0.34261125, 10.006179, 9.9974575 
2.0650935e+3, 1.3422973e+2, -1135200.3, -1653269.4, 9106.233, 0.06939694, -0.30503255, -1135040.3, 489478.47, 0.24777634, 10.005907, 9.996904 
2.0650855e+3, 1.442271e+2, -1006793.4, -1521720.9, -679.5455, -0.0040707807, -0.27751088, -1006792.44, 519752.28, 0.15057094, 10.005414, 9.997374 
2.0650779e+3, 1.5422438e+2, -970577.75, -1496254.4, 2318.2498, -0.0054609, -0.2851733, -970567.56, 458004.28, 0.0711506, 10.004666, 9.9972315 
2.0650703e+3, 1.6422173e+2, -895240.44, -1355677.0, -8400.838, 0.00702293, -0.29618645, -895087.2, 435510.63, 0.023123596, 10.004059, 9.997816 
2.065063e+3, 1.7421925e+2, -855211.2, -1298411.0, -29612.742, 0.026546175, -0.33022192, -853241.3, 379380.47, 0.0038376064, 10.003639, 9.997738 
2.0650552e+3, 1.8421717e+2, -822295.1, -1190062.9, -37310.17, 0.022682214, -0.32733458, -818548.2, 316094.16, 0.00010035138, 10.003001, 9.9981165 
2.0650472e+3, 1.9421579e+2, -865518.3, -1170875.4, -28158.475, -0.010034534, -0.27788857, -862943.4, 173713.05, 0.0, 10.002075, 9.998023 
2.0650385e+3, 2.0421413e+2, -815643.94, -1015916.1, -81228.01, -0.035261806, -0.27676052, -786841.2, 151831.03, 0.0, 10.0014, 9.998738 
2.065029e+3, 2.1421215e+2, -768677.94, -949371.25, -93114.625, -0.050584856, -0.3547445, -729283.1, 111406.41, 0.0, 10.001079, 9.998677 
2.0650202e+3, 2.2421074e+2, -748182.25, -880237.06, -58003.51, -0.043852642, -0.36342323, -726323.25, 16379.902, 0.0, 10.000512, 9.998752 
2.0650125e+3, 2.3421025e+2, -787147.5, -860818.4, -55196.004, -0.0052967314, -0.2854432, -757624.44, -112914.14, 0.0, 9.999625, 9.998639 
2.0650041e+3, 2.442097e+2, -719941.5, -662175.6, -81041.4, 0.000120331235, -0.24986005, -605024.06, -58307.79, 0.0, 9.998918, 9.99967 
2.0649952e+3, 2.542091e+2, -693113.44, -602574.56, -98369.59, -0.039545875, -0.2829828, -539557.8, -90837.96, 0.0, 9.998446, 9.999633 
2.0649865e+3, 2.6420856e+2, -686559.94, -556853.9, -77154.48, -0.03572864, -0.29630333, -520916.38, -170191.67, 0.0, 9.997856, 9.9995575 
2.0649792e+3, 2.7420816e+2, -707845.1, -530235.44, -58172.918, 0.030507868, -0.29027483, -512878.22, -260147.97, 0.0, 9.997096, 9.999434 
2.0649709e+3, 2.8420794e+2, -619390.44, -287305.7, -39302.348, 0.0118875, -0.31466162, -282717.63, -127984.69, 0.0, 9.9963875, 10.00077 
2.064962e+3, 2.9420802e+2, -620320.6, -241391.88, -52504.504, -0.123989195, -0.39178202, -234251.39, -177520.05, 0.0, 9.9957285, 10.000729 
2.0649563e+3, 3.042107e+2, -610133.9, -135085.58, -26854.994, 0.05928042, -0.22561367, -133572.25, -133572.25, 0.0, 9.995132, 10.001414 
2.0649487e+3, 3.142112e+2, -661253.8, -60716.71, 80213.89, -0.011655182, -0.32473943, -50187.145, -50187.145, 0.0, 9.994346, 10.002308 
2.0751062e+3, 1.2423973e+2, -1262427.3, -1686104.8, -16524.531, -0.0033671649, -0.33787802, -1261783.8, 460636.88, 0.36202064, 10.006165, 9.997365 
2.075099e+3, 1.3423677e+2, -1146887.4, -1656696.4, 3792.2644, 0.03495423, -0.33137003, -1146859.1, 477590.4, 0.26177925, 10.005889, 9.996889 
2.075091e+3, 1.4423403e+2, -1001512.0, -1498166.9, -22965.979, 0.015981529, -0.32605332, -1000452.25, 526024.5, 0.1593411, 10.005403, 9.997574 
2.0750828e+3, 1.54232e+2, -959307.7, -1466580.0, -22139.854, 0.009915992, -0.28571585, -958343.25, 470153.6, 0.075702675, 10.004667, 9.997437 
2.0750745e+3, 1.6422953e+2, -930186.3, -1429684.1, -24129.32, -0.0007883895, -0.26614988, -929023.4, 401498.25, 0.024918921, 10.004063, 9.997308 
2.075066e+3, 1.7422663e+2, -894750.06, -1380184.5, -43158.047, -0.028846951, -0.28488186, -890942.9, 341608.34, 0.004262762, 10.003636, 9.99718 
2.0750576e+3, 1.8422428e+2, -810098.4, -1164034.0, -69432.07, -0.029013544, -0.28702384, -796965.1, 337609.56, 0.00012354909, 10.002996, 9.998298 
2.0750493e+3, 1.9422275e+2, -849848.0, -1137477.4, -60504.75, 0.01112379, -0.27662557, -837638.7, 198950.16, 0.0, 10.002069, 9.998256 
2.0750403e+3, 2.0422117e+2, -825628.44, -1037114.6, -93909.414, 0.008991174, -0.27250072, -789948.1, 148655.22, 0.0, 10.0014, 9.998594 
2.07503e+3, 2.1421966e+2, -782612.3, -976786.1, -102895.21, -0.051039517, -0.28461266, -738230.9, 102386.02, 0.0, 10.001071, 9.998494 
2.0750205e+3, 2.2421815e+2, -749422.94, -882944.6, -88861.016, -0.07269104, -0.2948702, -705038.44, 37592.938, 0.0, 10.000511, 9.9987335 
2.0750117e+3, 2.3421666e+2, -788319.06, -863392.1, -86343.234, -0.043769944, -0.31660733, -731706.0, -87059.58, 0.0, 9.999623, 9.998624 
2.0750026e+3, 2.4421552e+2, -746290.06, -717853.1, -100041.164, -0.033226676, -0.32053974, -631025.06, -84367.125, 0.0, 9.99892, 9.999287 
2.0749934e+3, 2.5421503e+2, -721100.3, -662649.75, -115748.88, -0.04438653, -0.30172205, -572493.6, -123830.75, 0.0, 9.998453, 9.999219 
2.0749849e+3, 2.6421484e+2, -656312.25, -495767.75, -105753.06, -0.010317114, -0.2746703, -443272.0, -92607.63, 0.0, 9.997862, 9.999975 
2.0749769e+3, 2.7421486e+2, -673137.9, -461735.22, -86053.51, 0.074629016, -0.272343, -431135.5, -178472.39, 0.0, 9.997109, 9.999899 
2.0749675e+3, 2.8421435e+2, -632494.4, -317995.66, -67355.36, 0.020429345, -0.34243318, -304177.47, -149509.72, 0.0, 9.996401, 10.000554 
2.074957e+3, 2.9421398e+2, -636787.56, -280797.72, -79353.16, -0.19612846, -0.4403139, -263910.3, -207238.95, 0.0, 9.9957485, 10.000449 
2.0749514e+3, 3.0421764e+2, -612931.2, -142209.42, -53162.78, 0.054585822, -0.15743485, -136279.97, -136279.97, 0.0, 9.995139, 10.001361 
2.0749436e+3, 3.1421682e+2, -742988.56, -231140.27, -49114.87, 0.03634207, -0.37895265, -226470.02, -226470.02, 0.0, 9.99435, 10.001134 
2.0851125e+3, 1.2424855e+2, -1203230.3, -1678783.4, 21172.256, -0.031285785, -0.31388885, -1202289.5, 520044.28, 0.38178414, 10.007166, 9.996977 
2.0851047e+3, 1.3424516e+2, -1161879.9, -1687098.8, 35226.797, 0.0072950553, -0.32788756, -1159527.8, 464839.72, 0.2762467, 10.005947, 9.996658 
2.0850964e+3, 1.44242e+2, -1041574.44, -1530932.5, 5349.7246, 0.017525515, -0.34089732, -1041515.94, 484882.97, 0.16856882, 10.005197, 9.997412 
2.0850876e+3, 1.5424013e+2, -916892.5, -1459240.0, -14425.443, -0.0017226976, -0.27121362, -916509.06, 511908.88, 0.08059049, 10.005073, 9.997292 
2.0850787e+3, 1.6423765e+2, -859604.5, -1396935.1, -20495.516, -0.013432435, -0.24381119, -858823.8, 471619.03, 0.026891423, 10.004579, 9.997283 
2.0850696e+3, 1.7423458e+2, -898769.9, -1384766.8, -2709.8557, -0.026229529, -0.27784482, -898754.8, 333718.9, 0.004747403, 10.003619, 9.997158 
2.0850605e+3, 1.8423209e+2, -830162.94, -1178615.0, -13693.378, -0.023037652, -0.29008678, -829625.7, 304872.3, 0.00015303373, 10.002878, 9.998255 
2.0850515e+3, 1.9423048e+2, -796590.2, -1115696.3, -27740.559, 0.005221943, -0.28473458, -794196.56, 242316.05, 0.0, 10.002455, 9.998219 
2.085042e+3, 2.0422879e+2, -767339.3, -1036397.06, -68085.914, 0.004181531, -0.27797845, -751091.2, 187437.06, 0.0, 10.001923, 9.998345 
2.0850314e+3, 2.1422715e+2, -773312.5, -1001697.06, -83810.1, -0.036409136, -0.2760198, -745857.3, 94686.57, 0.0, 10.001265, 9.998228 
2.0850213e+3, 2.242255e+2, -733162.3, -867264.6, -78658.08, -0.055724747, -0.2863103, -696855.1, 45704.203, 0.0, 10.00059, 9.998802 
2.0850115e+3, 2.3422392e+2, -740229.1, -829523.7, -71820.28, -0.045628544, -0.32807168, -700309.7, -55735.59, 0.0, 9.999909, 9.998717 
2.0850018e+3, 2.4422261e+2, -706335.8, -717836.2, -62432.22, -0.041411918, -0.34674114, -649389.5, -102802.56, 0.0, 9.999278, 9.999115 
2.0849922e+3, 2.542219e+2, -695311.8, -671251.6, -61139.3, -0.03908591, -0.33258542, -620970.1, -172375.0, 0.0, 9.998721, 9.99903 
2.0849827e+3, 2.6422173e+2, -636446.06, -474915.75, -65549.11, -0.009693623, -0.2964713, -451663.13, -101066.516, 0.0, 9.997951, 10.000075 
2.0849735e+3, 2.7422214e+2, -699476.0, -461266.16, -74978.945, 0.048722774, -0.26889503, -439630.78, -187039.34, 0.0, 9.996875, 10.000014 
2.0849636e+3, 2.8422174e+2, -696284.1, -341264.66, -52621.31, 0.0066241687, -0.33558798, -333629.3, -179034.63, 0.0, 9.99593, 10.000622 
2.0849529e+3, 2.9422122e+2, -729536.56, -319887.8, -41728.18, -0.14384116, -0.4511073, -315680.47, -259080.95, 0.0, 9.995086, 10.000504 
2.0849463e+3, 3.0422473e+2, -714630.06, -201524.3, 7960.513, 0.063558936, -0.18236572, -201400.83, -201400.83, 0.0, 9.994483, 10.001272 
2.0849375e+3, 3.1422484e+2, -716653.06, -153721.83, -30766.645, -0.0053098756, -0.3038851, -152045.28, -152045.28, 0.0, 9.994253, 10.001713 
2.0951197e+3, 1.2425901e+2, -1252409.6, -1753449.6, -7231.178, -0.030491948, -0.24090306, -1252305.4, 469925.28, 0.40102878, 10.007108, 9.996312 
2.0951104e+3, 1.3425475e+2, -1196042.6, -1756309.4, 1963.1635, -0.020100383, -0.29420686, -1196035.8, 428237.9, 0.29074064, 10.005934, 9.996184 
2.0951013e+3, 1.4425094e+2, -1074974.5, -1601702.8, -905.3669, -0.0046915966, -0.32492104, -1074972.9, 451339.5, 0.1781102, 10.005196, 9.996927 
2.0950921e+3, 1.5424873e+2, -949875.1, -1526948.3, -16453.568, -0.046794035, -0.24195114, -949406.4, 478929.34, 0.0858011, 10.005068, 9.996829 
2.095083e+3, 1.6424608e+2, -832407.7, -1335864.6, -52038.2, -0.037165403, -0.22753552, -827085.2, 503276.75, 0.02905597, 10.004573, 9.997707 
2.0950738e+3, 1.7424305e+2, -864553.1, -1313747.8, -36787.938, 0.029597118, -0.30725834, -861560.25, 370829.7, 0.0053003253, 10.00362, 9.997645 
2.0950639e+3, 1.8424053e+2, -848041.25, -1217667.3, -30081.387, 0.037022006, -0.33447123, -845609.1, 288803.97, 0.0001898094, 10.002885, 9.997985 
2.0950536e+3, 1.9423887e+2, -820352.3, -1164693.4, -41450.223, -0.03243162, -0.30141282, -815433.0, 220995.67, 0.0, 10.002451, 9.997885 
2.0950432e+3, 2.0423687e+2, -790744.5, -1085139.3, -91529.05, -0.053448793, -0.29326382, -764608.0, 173839.98, 0.0, 10.001922, 9.998012 
2.095033e+3, 2.1423452e+2, -797884.6, -1051584.0, -105624.92, -0.011063521, -0.3285992, -759666.25, 80805.016, 0.0, 10.001258, 9.99789 
2.0950225e+3, 2.2423278e+2, -724234.5, -848335.06, -102924.69, 0.0042095943, -0.33707988, -666102.75, 76385.03, 0.0, 10.000587, 9.998935 
2.0950118e+3, 2.3423195e+2, -729324.7, -806299.56, -95561.57, -0.01607249, -0.31973732, -664791.3, -20296.85, 0.0, 9.999906, 9.998879 
2.0950012e+3, 2.4423085e+2, -702403.56, -710766.7, -84288.73, -0.028091772, -0.32684603, -622192.75, -75688.35, 0.0, 9.999282, 9.999162 
2.0949909e+3, 2.5422955e+2, -691421.9, -666114.7, -81499.586, -0.030403964, -0.37457973, -596292.25, -147774.53, 0.0, 9.998733, 9.999061 
2.0949802e+3, 2.6422906e+2, -650133.44, -506543.97, -106099.83, -0.0402462, -0.36397952, -450230.72, -99707.734, 0.0, 9.997963, 9.999852 
2.0949693e+3, 2.742297e+2, -714103.75, -496060.9, -115318.945, -0.05593309, -0.2867525, -446387.25, -193870.06, 0.0, 9.996892, 9.999767 
2.0949592e+3, 2.8423e+2, -671301.7, -290538.5, -87179.375, -0.030594295, -0.28987443, -271527.2, -117012.57, 0.0, 9.9959345, 10.000968 
2.0949496e+3, 2.942299e+2, -700687.5, -260131.6, -74261.11, 0.035458572, -0.40404946, -247950.77, -191435.83, 0.0, 9.995086, 10.000915 
2.0949407e+3, 3.0423146e+2, -720187.4, -216033.08, -4011.575, 0.0673189, -0.34156066, -216001.16, -216001.16, 0.0, 9.9944935, 10.001169 
2.0949307e+3, 3.1423277e+2, -528253.4, 226114.06, -25327.129, -0.113252655, -0.33697635, 226963.44, 226963.44, 0.0, 9.994303, 10.004297 
2.1051267e+3, 1.2426824e+2, -1329667.3, -1797200.4, -32394.58, -0.0017730617, -0.25546026, -1327433.4, 394707.25, 0.4191249, 10.006325, 9.996395 
2.1051162e+3, 1.3426435e+2, -1153996.3, -1703786.6, -520.76135, -0.04264785, -0.29118538, -1153995.8, 470183.56, 0.30496147, 10.006357, 9.996343 
2.1051067e+3, 1.4426062e+2, -996373.1, -1559747.1, 30632.027, -0.025012812, -0.31678638, -994712.5, 531504.44, 0.18788649, 10.0059395, 9.996859 
2.1050972e+3, 1.54258e+2, -970559.7, -1545115.6, 41728.57, -0.05477446, -0.26744094, -967544.9, 460699.44, 0.09134909, 10.004971, 9.996753 
2.1050873e+3, 1.6425525e+2, -872977.25, -1355624.4, 8926.718, -0.034953453, -0.25899312, -872812.25, 457459.4, 0.03143926, 10.004295, 9.9977045 
2.1050777e+3, 1.742525e+2, -801469.4, -1281540.1, -11050.1875, 0.03854035, -0.31005085, -801215.1, 431081.6, 0.0059347195, 10.004054, 9.997657 
2.1050674e+3, 1.8425001e+2, -752132.4, -1193220.4, -16491.271, 0.046279702, -0.32652697, -751516.6, 382803.0, 0.00023581006, 10.003641, 9.997787 
2.1050563e+3, 1.94248e+2, -750721.44, -1155518.6, -20334.605, -0.03179054, -0.30539992, -749702.56, 286635.84, 0.0, 10.003036, 9.997666 
2.1050455e+3, 2.0424572e+2, -735919.4, -1068164.9, -63428.125, -0.05349104, -0.3107392, -724222.3, 214138.06, 0.0, 10.002339, 9.997927 
2.1050344e+3, 2.1424311e+2, -761989.5, -1042638.5, -61486.04, 0.0009082869, -0.36322594, -749109.94, 91275.93, 0.0, 10.001541, 9.997814 
2.1050233e+3, 2.242413e+2, -706678.6, -850059.7, -54682.367, 0.02165326, -0.3709807, -688204.4, 54198.785, 0.0, 10.000753, 9.998842 
2.1050118e+3, 2.3424064e+2, -724734.25, -813800.56, -66816.664, -0.000039707105, -0.32688144, -688970.0, -44561.54, 0.0, 9.999982, 9.99879 
2.1050005e+3, 2.4423967e+2, -719496.4, -720058.4, -64677.36, -0.015324601, -0.31666648, -655099.44, -108682.02, 0.0, 9.999171, 9.99915 
2.1049894e+3, 2.5423834e+2, -755317.56, -698119.3, -66238.3, -0.021799067, -0.3646883, -654569.8, -206139.1, 0.0, 9.998302, 9.999046 
2.104978e+3, 2.642376e+2, -710429.06, -539454.25, -88681.266, -0.038864776, -0.37662, -501765.1, -151326.58, 0.0, 9.997565, 9.999819 
2.104966e+3, 2.7423784e+2, -698974.75, -492608.88, -83013.48, -0.06440968, -0.33639804, -463360.84, -210923.78, 0.0, 9.99701, 9.999736 
2.104955e+3, 2.8423855e+2, -613433.5, -263741.25, -58757.773, -0.03802951, -0.2937362, -254132.38, -99701.875, 0.0, 9.996336, 10.000959 
2.104945e+3, 2.9423955e+2, -650521.4, -239498.9, -78407.71, 0.052277263, -0.29460835, -225049.61, -168629.48, 0.0, 9.995445, 10.000882 
2.104935e+3, 3.0423912e+2, -726247.8, -205063.67, -11278.156, 0.05173442, -0.44023082, -204819.73, -204819.73, 0.0, 9.994394, 10.001291 
2.1049243e+3, 3.142408e+2, -658713.6, 205830.1, 7740.4624, -0.13612583, -0.4089016, 205899.39, 205899.39, 0.0, 9.993231, 10.004673 
2.1151333e+3, 1.2427615e+2, -1314906.0, -1702534.5, -24296.42, 0.033833623, -0.36630327, -1313389.1, 408675.63, 0.4357918, 10.0062685, 9.997163 
2.1151224e+3, 1.342739e+2, -1128493.0, -1602163.8, 2605.5095, -0.07152553, -0.31820333, -1128478.6, 495606.38, 0.31878194, 10.006334, 9.997118 
2.1151125e+3, 1.44271e+2, -987770.6, -1519912.9, 2935.9712, -0.05210837, -0.31473592, -987754.44, 538358.44, 0.1978825, 10.005927, 9.997148 
2.1151023e+3, 1.5426785e+2, -955345.1, -1505793.9, 8717.357, -0.03206435, -0.34400898, -955207.1, 472937.47, 0.09726949, 10.004979, 9.997019 
2.1150918e+3, 1.6426505e+2, -900932.5, -1415682.6, -1572.4065, -0.012777401, -0.3355922, -900927.7, 429245.2, 0.034076963, 10.004305, 9.997289 
2.1150813e+3, 1.7426285e+2, -833077.94, -1347996.6, -18386.197, -0.003632509, -0.28634745, -832422.25, 399772.84, 0.0066686603, 10.004057, 9.997199 
2.1150705e+3, 1.8426041e+2, -760435.0, -1211233.0, -37604.293, 0.0018181425, -0.2680462, -757319.7, 376898.88, 0.00029476336, 10.003642, 9.997664 
2.1150598e+3, 1.942578e+2, -758196.0, -1170577.3, -40625.8, 0.0029124583, -0.29766974, -754231.8, 282010.88, 0.00000000000010610821, 10.003032, 9.997565 
2.1150483e+3, 2.0425524e+2, -726174.2, -1048128.5, -91695.21, 0.0008537721, -0.33037645, -701890.25, 236376.13, 0.0, 10.002338, 9.998066 
2.115036e+3, 2.1425284e+2, -752612.5, -1021489.6, -88859.91, -0.0062636826, -0.37810883, -725899.56, 114389.12, 0.0, 10.001533, 9.997965 
2.1150237e+3, 2.2425096e+2, -728115.5, -894487.5, -82893.94, -0.007744849, -0.38612583, -693865.06, 48441.48, 0.0, 10.0007515, 9.998539 
2.1150117e+3, 2.3424987e+2, -747598.25, -862806.75, -94078.92, -0.002786311, -0.34964013, -694888.9, -50571.48, 0.0, 9.999987, 9.998452 
2.1149997e+3, 2.4424891e+2, -723865.8, -730395.94, -97477.09, -0.006607798, -0.31838584, -629599.1, -83271.84, 0.0, 9.999176, 9.999077 
2.1149878e+3, 2.542481e+2, -759602.4, -709057.6, -98921.51, -0.017343985, -0.3062201, -632231.2, -183895.66, 0.0, 9.99831, 9.998968 
2.114976e+3, 2.642473e+2, -698529.9, -516161.78, -111902.55, -0.006938006, -0.33266672, -462996.6, -112652.36, 0.0, 9.997571, 9.999976 
2.1149638e+3, 2.742465e+2, -683010.56, -462698.53, -103583.54, 0.015081819, -0.41059658, -421646.4, -169294.9, 0.0, 9.997023, 9.999936 
2.1149516e+3, 2.8424734e+2, -636712.7, -316093.9, -92237.14, -0.024388807, -0.3520994, -291452.53, -137108.73, 0.0, 9.996351, 10.000593 
2.1149392e+3, 2.9425e+2, -680735.56, -309256.9, -111621.445, -0.10026341, -0.14715882, -278297.25, -221978.9, 0.0, 9.995473, 10.000391 
2.114929e+3, 3.0424798e+2, -708127.2, -166178.34, -62556.29, 0.017024042, -0.4339625, -159051.3, -159051.3, 0.0, 9.994392, 10.001558 
2.1149187e+3, 3.1425017e+2, -803018.25, -97452.66, 20052.916, -0.023864869, -0.38035938, -96883.195, -96883.195, 0.0, 9.993241, 10.002587 
2.1251398e+3, 1.2428721e+2, -1260841.8, -1652812.0, 54145.957, 0.025580171, -0.36291623, -1253499.6, 468456.44, 0.45116967, 10.006932, 9.997473 
2.1251284e+3, 1.342851e+2, -1151690.4, -1596547.8, 57012.2, -0.077740364, -0.3189842, -1144500.0, 479474.72, 0.33227834, 10.006115, 9.997287 
2.1251182e+3, 1.4428209e+2, -1052023.5, -1567379.6, 35907.04, -0.045720838, -0.32802972, -1049533.8, 476469.7, 0.20815454, 10.00549, 9.997024 
2.1251073e+3, 1.5427892e+2, -921697.2, -1499279.5, 17558.111, -0.026952095, -0.34751877, -921163.94, 506871.28, 0.10361547, 10.005322, 9.996897 
2.1250965e+3, 1.6427596e+2, -822801.25, -1409474.9, 7594.1235, -0.013413724, -0.3338251, -822703.0, 507362.16, 0.03701068, 10.00502, 9.9969845 
2.1250857e+3, 1.7427343e+2, -769894.8, -1353513.4, -208.40495, -0.016211644, -0.2837067, -769894.7, 462196.44, 0.0075251376, 10.004655, 9.996873 
2.1250744e+3, 1.842708e+2, -714259.4, -1194590.1, -30089.256, -0.006456491, -0.2674471, -712381.8, 421735.3, 0.0003731492, 10.003986, 9.997612 
2.125063e+3, 1.9426805e+2, -776054.94, -1182982.6, -31897.035, 0.020702912, -0.30567712, -773569.9, 262572.63, 0.0000000000129771185, 10.002927, 9.99753 
2.1250507e+3, 2.0426552e+2, -746786.06, -1052295.3, -72896.76, 0.022964835, -0.33499917, -730283.7, 207881.9, 0.0, 10.002174, 9.998115 
2.1250376e+3, 2.1426341e+2, -703704.2, -991324.2, -77880.64, -0.0075509083, -0.36047143, -683970.0, 156214.7, 0.0, 10.001843, 9.99802 
2.1250246e+3, 2.2426152e+2, -663183.7, -887257.56, -78610.81, -0.018989382, -0.36278757, -638356.0, 103846.766, 0.0, 10.001304, 9.998321 
2.125012e+3, 2.3426e+2, -689557.5, -861881.6, -84453.55, -0.0066267536, -0.34565908, -655070.06, -10851.25, 0.0, 10.000504, 9.998208 
2.1249993e+3, 2.442588e+2, -665927.6, -699219.0, -86225.41, -0.005323102, -0.32488343, -594755.94, -48524.688, 0.0, 9.999559, 9.999106 
2.1249864e+3, 2.5425816e+2, -738975.7, -693441.0, -80697.11, -0.0069757323, -0.30492693, -632361.0, -184123.14, 0.0, 9.998427, 9.999019 
2.1249737e+3, 2.642575e+2, -712510.25, -521943.78, -79976.22, 0.009201232, -0.31476614, -492828.1, -142583.69, 0.0, 9.997473, 9.999983 
2.1249609e+3, 2.7425683e+2, -731412.7, -484638.56, -86334.5, 0.02256125, -0.38214943, -457433.4, -205182.75, 0.0, 9.996689, 9.999944 
2.1249475e+3, 2.8425732e+2, -708229.25, -349122.16, -72623.35, -0.04428735, -0.35837057, -334991.38, -180745.17, 0.0, 9.995856, 10.000603 
2.124934e+3, 2.9425955e+2, -735552.5, -338733.8, -59422.82, -0.14153442, -0.19673055, -330026.44, -273801.44, 0.0, 9.995113, 10.0003605 
2.1249236e+3, 3.0425864e+2, -684086.4, -174038.94, -14905.79, 0.021295032, -0.36443865, -173603.7, -173603.7, 0.0, 9.9946375, 10.001387 
2.1249126e+3, 3.1426144e+2, -810410.75, -152813.22, 15242.578, 0.051982213, -0.23114571, -152460.1, -152460.1, 0.0, 9.993409, 10.002128 
2.1351463e+3, 1.2430127e+2, -1293406.3, -1675999.4, 37152.8, -0.040444236, -0.24838181, -1289831.8, 431984.78, 0.4659677, 10.006765, 9.997277 
2.1351348e+3, 1.3429786e+2, -1184073.3, -1651807.8, 34134.133, -0.07013201, -0.29331082, -1181595.3, 442254.1, 0.34586373, 10.006093, 9.996835 
2.135124e+3, 1.4429384e+2, -1084373.3, -1640076.1, 28023.227, -0.015440606, -0.3544904, -1082963.6, 442925.44, 0.21891586, 10.005506, 9.996517 
2.1351126e+3, 1.542911e+2, -953305.6, -1567638.3, 11834.047, -0.044190936, -0.2818979, -953077.75, 474839.4, 0.11049499, 10.005337, 9.996422 
2.1351013e+3, 1.6428791e+2, -838063.1, -1441097.4, -5140.2676, -0.04106712, -0.25718305, -838019.3, 491929.9, 0.04029843, 10.005028, 9.996765 
2.1350904e+3, 1.7428422e+2, -784874.5, -1384678.4, -11610.727, -0.0038186063, -0.30124712, -784649.8, 447335.7, 0.008534039, 10.004657, 9.996659 
2.1350786e+3, 1.8428108e+2, -714661.44, -1195621.1, -66719.07, 0.017164268, -0.32249483, -705577.7, 428438.34, 0.00048100972, 10.003985, 9.997606 
2.135066e+3, 1.9427869e+2, -775712.2, -1181860.3, -69389.14, 0.017112603, -0.32679528, -764184.44, 271854.16, 0.000000000014668022, 10.002924, 9.9975395 
2.1350527e+3, 2.0427649e+2, -749034.25, -1057547.4, -86229.836, 0.009685045, -0.32277864, -726568.8, 211490.19, 0.0, 10.002174, 9.998079 
2.1350396e+3, 2.1427469e+2, -706319.75, -997280.2, -87614.33, -0.0065070996, -0.31272992, -681974.3, 158100.81, 0.0, 10.001843, 9.997981 
2.1350259e+3, 2.2427282e+2, -673359.25, -908425.94, -106450.66, -0.014769314, -0.30477813, -632318.2, 109775.03, 0.0, 10.001304, 9.998176 
2.1350124e+3, 2.3427087e+2, -701897.3, -886517.4, -112957.23, -0.016156247, -0.31519088, -648329.06, -4215.148, 0.0, 10.000498, 9.998042 
2.1349986e+3, 2.4426925e+2, -656101.5, -679625.7, -128559.36, -0.014694797, -0.3335567, -538767.25, 7362.9243, 0.0, 9.999562, 9.999241 
2.1349849e+3, 2.5426832e+2, -725464.44, -668416.6, -122601.625, 0.0017688563, -0.3584964, -571064.5, -122925.93, 0.0, 9.998439, 9.9991865 
2.1349709e+3, 2.642681e+2, -721436.5, -542709.44, -111854.61, 0.0032219144, -0.324424, -488904.2, -138763.78, 0.0, 9.997481, 9.999837 
2.1349567e+3, 2.7426866e+2, -742723.1, -511534.3, -118521.74, -0.046089396, -0.25691527, -461570.66, -209434.31, 0.0, 9.996702, 9.999753 
2.1349429e+3, 2.842684e+2, -682774.5, -297281.44, -104785.46, -0.09844997, -0.31076992, -270639.7, -116500.7, 0.0, 9.995861, 10.000957 
2.1349297e+3, 2.942682e+2, -702975.06, -273439.28, -80829.234, -0.07808669, -0.4331889, -258732.52, -202591.88, 0.0, 9.995122, 10.000805 
2.1349187e+3, 3.0427068e+2, -714959.9, -241796.2, -40494.45, 0.055879537, -0.25805, -238355.61, -238355.61, 0.0, 9.99465, 10.0009165 
2.134905e+3, 3.1427163e+2, -723949.9, 28129.088, -105668.88, -0.05520038, -0.25911096, 42693.758, 42693.758, 0.0, 9.99341, 10.003365 
2.1451506e+3, 1.24312334e+2, -1570081.6, -1853767.5, 14390.698, -0.08861754, -0.29947308, -1569353.5, 152354.11, 0.4814978, 10.003146, 9.997534 
2.1451406e+3, 1.3430975e+2, -1227730.8, -1670569.4, 12469.84, -0.059160315, -0.2693983, -1227379.9, 396354.06, 0.3603876, 10.005701, 9.996887 
2.1451303e+3, 1.4430572e+2, -971031.2, -1560815.1, 3028.2378, 0.011346633, -0.33345032, -971015.6, 554758.44, 0.23060507, 10.006565, 9.996547 
2.1451184e+3, 1.543029e+2, -819160.25, -1487976.6, 16248.959, -0.060624514, -0.2723555, -818765.7, 609036.56, 0.11809428, 10.006399, 9.996455 
2.1451065e+3, 1.6429965e+2, -718460.4, -1368860.6, 8625.357, -0.067060046, -0.2584257, -718346.0, 611488.1, 0.044019815, 10.005858, 9.996859 
2.1450952e+3, 1.7429595e+2, -763825.94, -1364732.3, 21443.963, 0.0014931278, -0.3143427, -763061.6, 468808.3, 0.009732785, 10.004768, 9.99674 
2.1450828e+3, 1.8429281e+2, -727536.2, -1215887.3, -25704.156, 0.02951103, -0.3345301, -726187.0, 407713.7, 0.0006320665, 10.003962, 9.997477 
2.1450688e+3, 1.9429046e+2, -695660.4, -1159462.3, -40969.402, 0.0060566636, -0.31779957, -692069.2, 343854.47, 0.000000045114895, 10.003547, 9.997393 
2.1450552e+3, 2.0428821e+2, -644436.8, -1016846.3, -59982.586, -0.009066216, -0.30716673, -635014.06, 302931.03, 0.0, 10.002937, 9.997991 
2.1450412e+3, 2.1428618e+2, -676634.2, -992943.75, -66778.664, -0.012341075, -0.3112824, -663113.94, 176849.42, 0.0, 10.00209, 9.99789 
2.145027e+3, 2.2428423e+2, -700782.9, -921213.44, -94805.52, -0.012032899, -0.30612856, -665617.6, 76364.62, 0.0, 10.001112, 9.998181 
2.1450128e+3, 2.3428242e+2, -777218.8, -920882.5, -89816.31, -0.007091507, -0.30342016, -734042.94, -90041.18, 0.0, 9.999973, 9.998059 
2.144998e+3, 2.4428087e+2, -725796.6, -711498.8, -95600.82, -0.0023550184, -0.31810796, -622780.0, -76762.49, 0.0, 9.999079, 9.999253 
2.1449834e+3, 2.542798e+2, -713166.6, -659732.1, -100799.57, 0.008168988, -0.35455343, -582169.2, -134142.47, 0.0, 9.998513, 9.999209 
2.1449685e+3, 2.6427963e+2, -683898.4, -518809.13, -90751.695, -0.0071132807, -0.32385123, -478677.4, -128649.18, 0.0, 9.997714, 9.999888 
2.1449533e+3, 2.7428034e+2, -753613.75, -512676.1, -82555.62, -0.06767697, -0.24078704, -487103.25, -235081.33, 0.0, 9.996609, 9.999791 
2.1449387e+3, 2.8428018e+2, -714227.06, -294443.9, -61637.332, -0.09230352, -0.29657325, -285580.75, -131557.11, 0.0, 9.995567, 10.001119 
2.144925e+3, 2.9427966e+2, -762811.75, -275711.6, -49562.434, -0.03492131, -0.4649154, -270719.78, -214691.83, 0.0, 9.9945965, 10.001043 
2.1449128e+3, 3.0428284e+2, -822419.5, -274105.56, 11481.191, 0.054527856, -0.24964881, -273865.28, -273865.28, 0.0, 9.993826, 10.001092 
2.1448985e+3, 3.1428277e+2, -713058.8, 78714.42, -27587.035, -0.061229885, -0.3619541, 79674.445, 79674.445, 0.0, 9.993303, 10.0037565 
2.1551533e+3, 1.2432073e+2, -1529728.6, -1754087.8, 65740.02, -0.12939078, -0.49723408, -1511885.1, 209740.73, 0.4995025, 10.003485, 9.998157 
2.1551464e+3, 1.3432087e+2, -1206487.8, -1604164.9, 66279.945, -0.056116294, -0.24632302, -1195731.9, 427895.13, 0.37698314, 10.005808, 9.997373 
2.1551369e+3, 1.4431778e+2, -954104.3, -1497774.4, 446.72546, 0.023959877, -0.26554385, -954103.94, 571554.2, 0.24377695, 10.006565, 9.997041 
2.1551245e+3, 1.5431434e+2, -796398.9, -1420171.6, 14459.028, -0.07969341, -0.315274, -796063.9, 631626.56, 0.12663402, 10.006394, 9.99693 
2.155112e+3, 1.6431119e+2, -698055.06, -1316624.4, -26511.291, -0.09504067, -0.33335206, -696920.94, 632799.3, 0.048271738, 10.005847, 9.997228 
2.1550998e+3, 1.7430852e+2, -739805.25, -1312687.3, -17186.123, -0.0039912434, -0.32247257, -739290.1, 492455.28, 0.011169685, 10.004766, 9.997099 
2.1550867e+3, 1.8430582e+2, -745515.4, -1254026.5, -41509.457, 0.027520157, -0.30444565, -742149.25, 391622.88, 0.00084489665, 10.003963, 9.997215 
2.1550722e+3, 1.9430324e+2, -716919.8, -1204195.8, -53691.6, -0.01610278, -0.28189972, -711073.8, 324725.16, 0.0000006582863, 10.003547, 9.997087 
2.1550578e+3, 2.0430055e+2, -655961.5, -1040497.7, -89554.79, -0.036556266, -0.2908139, -636128.06, 301697.25, 0.0, 10.002934, 9.99783 
2.1550432e+3, 2.1429779e+2, -688694.94, -1015877.1, -96098.87, -0.029406002, -0.35305002, -662557.2, 177293.13, 0.0, 10.00208, 9.997739 
2.1550283e+3, 2.2429569e+2, -691103.0, -899631.25, -135561.84, -0.013437465, -0.36241445, -624346.6, 117523.84, 0.0, 10.001104, 9.998334 
2.155013e+3, 2.3429453e+2, -764032.75, -894629.94, -131201.52, 0.016056562, -0.31022084, -682778.5, -38895.117, 0.0, 9.999977, 9.998239 
2.1549976e+3, 2.4429347e+2, -732394.8, -726582.0, -119205.734, 0.028264387, -0.28135583, -610247.25, -64352.633, 0.0, 9.9990835, 9.999147 
2.154982e+3, 2.5429252e+2, -720766.3, -677367.6, -122042.56, 0.008114552, -0.29543504, -575110.3, -127206.76, 0.0, 9.99852, 9.999085 
2.154966e+3, 2.642919e+2, -664135.3, -480417.84, -132285.34, -0.024338158, -0.31361294, -411225.53, -61316.586, 0.0, 9.997725, 10.000148 
2.1549502e+3, 2.7429187e+2, -731969.4, -470555.16, -124562.55, -0.050793927, -0.33409736, -420707.1, -168798.7, 0.0, 9.99662, 10.000075 
2.1549349e+3, 2.8429258e+2, -716034.75, -298330.7, -100037.95, -0.029631283, -0.31691426, -275608.2, -121707.1, 0.0, 9.995568, 10.001091 
2.15492e+3, 2.9429394e+2, -760304.4, -272511.3, -84340.61, -0.008680395, -0.29161382, -258340.3, -202452.72, 0.0, 9.994604, 10.001061 
2.154906e+3, 3.0429494e+2, -769280.2, -164798.27, -14845.697, 0.00077536044, -0.3354963, -164433.88, -164433.88, 0.0, 9.993827, 10.001844 
2.1548913e+3, 3.1429717e+2, -756658.6, -20156.594, -2104.9495, -0.10358473, -0.29473847, -20150.576, -20150.576, 0.0, 9.993332, 10.003067 
2.1651538e+3, 1.3433422e+2, -934136.5, -1449952.9, 144021.03, -0.058189288, -0.219808, -896648.9, 726848.6, 0.39633137, 10.008928, 9.997627 
2.1651441e+3, 1.4433096e+2, -880094.06, -1449849.1, 83724.2, 0.020997189, -0.27711806, -868045.75, 657482.6, 0.2586725, 10.007314, 9.997128 
2.1651308e+3, 1.5432763e+2, -845742.44, -1442363.0, 79182.305, -0.07841091, -0.32063252, -835412.4, 592148.0, 0.13623154, 10.006048, 9.996948 
2.1651177e+3, 1.6432457e+2, -777300.94, -1351189.0, 22575.893, -0.09301331, -0.32998672, -776414.2, 553175.3, 0.053156346, 10.005279, 9.997261 
2.1651047e+3, 1.7432201e+2, -681983.7, -1279654.6, 9372.138, -0.0117264, -0.31314662, -681836.75, 549776.8, 0.012913059, 10.005157, 9.997138 
2.1650909e+3, 1.8431926e+2, -654672.4, -1222577.6, -25002.488, 0.016040206, -0.29511535, -653573.75, 480066.9, 0.0011468807, 10.0046425, 9.997104 
2.165076e+3, 1.943165e+2, -711059.8, -1216044.8, -26561.656, -0.021453476, -0.27836603, -709666.56, 326003.03, 0.0000036150457, 10.00365, 9.996956 
2.1650608e+3, 2.0431374e+2, -676589.0, -1054420.4, -50508.465, -0.03491311, -0.2857922, -669953.56, 267743.3, 0.0, 10.0028105, 9.997795 
2.1650454e+3, 2.1431103e+2, -672072.8, -1010239.9, -49666.133, -0.019405745, -0.3381559, -664929.3, 174792.17, 0.0, 10.002207, 9.997716 
2.1650295e+3, 2.2430894e+2, -642839.2, -872959.5, -98528.97, -0.008008825, -0.34613362, -606417.3, 135324.16, 0.0, 10.001424, 9.998362 
2.165013e+3, 2.3430777e+2, -696027.25, -858399.1, -106574.12, 0.0048653707, -0.30043715, -643238.56, 515.8979, 0.0, 10.00043, 9.998269 
2.1649966e+3, 2.443067e+2, -684191.1, -709056.94, -86194.766, 0.014927188, -0.27151978, -609537.25, -63771.61, 0.0, 9.999438, 9.999098 
2.1649802e+3, 2.5430572e+2, -733951.7, -688981.5, -83604.33, 0.007330258, -0.28188407, -624891.4, -177116.56, 0.0, 9.998452, 9.999039 
2.1649636e+3, 2.64305e+2, -695455.5, -479992.4, -104755.29, -0.02161792, -0.31407896, -437458.3, -87677.32, 0.0, 9.997444, 10.000285 
2.1649468e+3, 2.7430484e+2, -751364.8, -463349.38, -108455.07, -0.040260743, -0.3634413, -427077.5, -175296.08, 0.0, 9.996418, 10.000221 
2.1649304e+3, 2.8430587e+2, -744919.0, -312093.8, -87868.695, -0.009402843, -0.31950644, -294935.6, -141164.7, 0.0, 9.995372, 10.001089 
2.1649143e+3, 2.9430798e+2, -828030.44, -305621.1, -74921.93, -0.010368644, -0.21864507, -295088.44, -239337.67, 0.0, 9.994146, 10.001053 
2.1648991e+3, 3.0430812e+2, -862369.1, -165133.61, -3817.5857, -0.02147599, -0.36910114, -165112.7, -165112.7, 0.0, 9.993005, 10.002236 
2.1648836e+3, 3.1431064e+2, -868447.1, -79503.1, -13719.479, -0.1628951, -0.3427058, -79264.6, -79264.6, 0.0, 9.99259, 10.003018 
2.1751626e+3, 1.3434961e+2, -958721.7, -1449158.5, 81733.57, -0.06839069, -0.18913472, -945459.06, 677888.44, 0.41747957, 10.008884, 9.997722 
2.1751511e+3, 1.4434518e+2, -912875.6, -1487034.3, 51890.316, -0.0052223564, -0.36290753, -908223.6, 617162.8, 0.27475965, 10.00729, 9.996803 
2.175137e+3, 1.5434259e+2, -877491.75, -1503235.8, 40948.09, -0.064541824, -0.29141155, -874823.5, 552590.25, 0.14679943, 10.006055, 9.99652 
2.1751231e+3, 1.6433966e+2, -798025.5, -1392111.0, 17939.672, -0.0680481, -0.25158435, -797484.25, 531959.06, 0.058781397, 10.005288, 9.996976 
2.1751097e+3, 1.7433628e+2, -701145.0, -1319312.4, 8006.569, -0.026358731, -0.28817487, -701041.3, 530434.2, 0.015064345, 10.005162, 9.996864 
2.1750952e+3, 1.8433304e+2, -653310.44, -1219926.6, -58595.5, -0.008324928, -0.307123, -647314.4, 486192.94, 0.0015804276, 10.004644, 9.997122 
2.1750796e+3, 1.9433019e+2, -708682.2, -1211679.6, -61396.914, -0.014219397, -0.3041258, -701296.4, 334239.94, 0.000013721522, 10.003652, 9.9969845 
2.1750638e+3, 2.043277e+2, -670323.3, -1042368.94, -72737.516, -0.0074393926, -0.28917387, -656608.2, 280952.56, 0.0, 10.002812, 9.997877 
2.1750481e+3, 2.1432577e+2, -666956.06, -998685.0, -69808.07, 0.011096085, -0.27076757, -652864.5, 186713.94, 0.0, 10.0022, 9.9978 
2.175031e+3, 2.2432385e+2, -650764.3, -888325.3, -134195.77, -0.00038605425, -0.26209387, -590331.8, 151265.23, 0.0, 10.001418, 9.99826 
2.175013e+3, 2.34322e+2, -705041.44, -875928.7, -142688.0, -0.045017075, -0.27348807, -624170.7, 19445.459, 0.0, 10.000423, 9.998152 
2.1749954e+3, 2.4432044e+2, -683802.0, -708493.9, -123846.71, -0.045028877, -0.2869138, -571687.4, -26056.0, 0.0, 9.999438, 9.999103 
2.1749787e+3, 2.5431928e+2, -731464.25, -686448.3, -121058.89, -0.0011865486, -0.3133179, -585822.75, -138181.27, 0.0, 9.998463, 9.999051 
2.1749611e+3, 2.643188e+2, -694706.8, -479153.6, -145137.47, -0.002464675, -0.3253431, -406152.22, -56506.652, 0.0, 9.997447, 10.000289 
2.1749431e+3, 2.743191e+2, -749826.2, -461986.1, -145169.58, -0.037414934, -0.32692155, -401486.97, -149844.73, 0.0, 9.996425, 10.000228 
2.1749255e+3, 2.8431994e+2, -742252.56, -310535.63, -136005.38, -0.03981731, -0.30479646, -271262.06, -117627.6, 0.0, 9.995386, 10.001095 
2.1749078e+3, 2.9432157e+2, -829855.8, -313560.72, -129417.72, -0.06399745, -0.25419903, -282936.53, -227316.7, 0.0, 9.994163, 10.000992 
2.1748926e+3, 3.0432215e+2, -869881.1, -174313.03, -36636.86, 0.016613223, -0.34934762, -172388.61, -172388.61, 0.0, 9.992981, 10.002182 
2.1748774e+3, 3.1432435e+2, -798979.8, 58563.688, -88300.51, -0.039455514, -0.35692865, 67561.5, 67561.5, 0.0, 9.9926, 10.00397 
2.185171e+3, 1.3436568e+2, -1047990.56, -1539197.9, 87482.67, -0.11450304, -0.2551845, -1032875.25, 590314.3, 0.4381674, 10.00848, 9.996894 
2.1851581e+3, 1.443613e+2, -963321.3, -1546047.3, 83548.484, -0.0029642854, -0.36349207, -951579.1, 573649.3, 0.29108626, 10.007124, 9.996412 
2.1851435e+3, 1.5435843e+2, -794594.6, -1493116.4, 78984.42, -0.050120156, -0.2830651, -785774.94, 641484.1, 0.15818615, 10.006968, 9.996158 
2.1851291e+3, 1.6435523e+2, -655062.6, -1340751.8, 73160.336, -0.05142606, -0.24008167, -647343.6, 681947.94, 0.06528599, 10.006467, 9.996765 
2.1851149e+3, 1.7435159e+2, -663114.1, -1322687.1, 69768.35, -0.028634403, -0.28320262, -655814.94, 575511.56, 0.01776361, 10.005535, 9.996663 
2.1850999e+3, 1.8434817e+2, -625655.2, -1216783.4, 1965.573, -0.01979996, -0.30497226, -625648.7, 507711.1, 0.00220856, 10.004881, 9.99703 
2.1850838e+3, 1.9434524e+2, -571981.44, -1154266.1, -11057.549, -0.019033948, -0.29967183, -571771.5, 463617.38, 0.000041412426, 10.004628, 9.996908 
2.1850671e+3, 2.0434271e+2, -537281.2, -985072.4, -47626.457, -0.0060598277, -0.28145152, -532271.75, 405141.9, 0.0, 10.003758, 9.997815 
2.1850502e+3, 2.1434079e+2, -681193.1, -1012724.75, -58753.152, 0.019437782, -0.25672632, -671089.0, 168343.05, 0.0, 10.002133, 9.997735 
2.1850322e+3, 2.2433886e+2, -706608.7, -912813.4, -107908.65, 0.003849034, -0.24719314, -660465.06, 80985.96, 0.0, 10.001024, 9.998281 
2.1850131e+3, 2.3433691e+2, -677021.44, -859311.75, -105943.27, -0.058694333, -0.26825142, -628411.75, 15058.606, 0.0, 10.000604, 9.9981785 
2.1849948e+3, 2.4433534e+2, -640331.25, -677639.6, -95198.23, -0.05976684, -0.28980896, -561976.75, -16491.23, 0.0, 9.999696, 9.999189 
2.1849771e+3, 2.5433427e+2, -768181.44, -694993.3, -89489.77, 0.010597682, -0.31729445, -634904.7, -187409.9, 0.0, 9.998173, 9.999132 
2.1849588e+3, 2.643339e+2, -780297.9, -520099.97, -102037.2, 0.016711805, -0.31942314, -484858.88, -135361.2, 0.0, 9.996859, 10.000292 
2.1849392e+3, 2.7433434e+2, -840225.75, -506297.72, -101472.54, -0.03989832, -0.30680835, -477880.94, -226387.27, 0.0, 9.995809, 10.00022 
2.1849206e+3, 2.8433508e+2, -797557.94, -326535.9, -85301.77, -0.050148327, -0.29769534, -311563.72, -158076.66, 0.0, 9.994963, 10.001189 
2.1849021e+3, 2.943366e+2, -803808.56, -293025.5, -77400.31, -0.04913013, -0.26960608, -281554.44, -226080.69, 0.0, 9.994307, 10.001063 
2.1848853e+3, 3.0433747e+2, -868129.94, -178271.25, 10950.577, -0.020275623, -0.33134088, -178097.47, -178097.47, 0.0, 9.9930105, 10.002143 
2.1848693e+3, 3.1434047e+2, -998228.2, 60297.28, -28057.184, -0.018322675, -0.2565969, 61040.438, 61040.438, 0.0, 9.990814, 10.004843 
2.1951784e+3, 1.3438231e+2, -1149725.4, -1730317.5, 36079.152, -0.20745514, -0.40755868, -1147492.0, 475533.38, 0.45739192, 10.008239, 9.995257 
2.1951655e+3, 1.443791e+2, -1000895.5, -1612840.6, 77357.484, 0.014037542, -0.28463966, -991268.0, 533788.56, 0.30748218, 10.007099, 9.995961 
2.1951507e+3, 1.5437499e+2, -819664.9, -1535686.9, 76406.16, -0.039755587, -0.29546797, -811602.44, 615495.5, 0.17058022, 10.006979, 9.995861 
2.1951358e+3, 1.6437119e+2, -669149.1, -1360518.9, 42614.7, -0.047238983, -0.29333803, -666532.3, 662603.1, 0.07292651, 10.00647, 9.996627 
2.1951206e+3, 1.7436779e+2, -673358.7, -1341595.5, 37207.652, -0.023720454, -0.29724675, -671293.3, 559874.56, 0.021199252, 10.005541, 9.996531 
2.1951048e+3, 1.843645e+2, -637804.9, -1244307.1, -7617.7505, -0.022628425, -0.28822556, -637709.2, 495490.28, 0.0031198778, 10.004893, 9.996837 
2.1950881e+3, 1.9436152e+2, -586001.7, -1183160.5, -17986.67, -0.041891534, -0.2678514, -585460.44, 449768.3, 0.000106789485, 10.004626, 9.996713 
2.1950705e+3, 2.0435865e+2, -552557.56, -1015873.5, -104553.19, -0.03475614, -0.26472685, -530056.56, 407200.4, 0.000000012688071, 10.003754, 9.997606 
2.1950522e+3, 2.14356e+2, -696735.7, -1043622.9, -117190.05, 0.0020047922, -0.2920822, -660856.1, 178427.02, 0.0, 10.002127, 9.997527 
2.1950331e+3, 2.2435388e+2, -697398.75, -893364.1, -125483.36, 0.0022967611, -0.29746747, -636175.06, 105129.03, 0.0, 10.001022, 9.998416 
2.1950139e+3, 2.3435241e+2, -665606.1, -836301.1, -120149.18, -0.042814106, -0.28593975, -603576.44, 39741.863, 0.0, 10.000605, 9.998337 
2.1949947e+3, 2.4435125e+2, -628849.4, -654261.9, -151129.11, -0.034103844, -0.2820042, -489893.34, 55435.996, 0.0, 9.999698, 9.99935 
2.1949756e+3, 2.543505e+2, -757246.3, -673389.94, -147052.34, 0.036844023, -0.2934055, -562405.2, -115069.43, 0.0, 9.998177, 9.999279 
2.1949555e+3, 2.643502e+2, -779592.4, -519744.0, -144496.31, 0.031425, -0.29659417, -455350.22, -106011.84, 0.0, 9.996862, 10.000294 
2.1949348e+3, 2.7435043e+2, -838843.9, -505762.53, -140933.39, -0.05379619, -0.3054423, -454133.5, -202796.67, 0.0, 9.995818, 10.00022 
2.1949156e+3, 2.8435123e+2, -786428.56, -303229.0, -112133.73, -0.042010307, -0.3001937, -278474.84, -125145.2, 0.0, 9.994961, 10.00135 
2.1948972e+3, 2.94353e+2, -788004.0, -262085.58, -101345.57, 0.03367128, -0.26025358, -243231.95, -187919.08, 0.0, 9.994313, 10.001274 
2.194877e+3, 3.043541e+2, -859064.25, -165780.0, -65095.633, -0.15732695, -0.3163757, -159720.83, -159720.83, 0.0, 9.993037, 10.002216 
2.1948598e+3, 3.1435668e+2, -983543.4, 97490.28, -28113.723, -0.039169855, -0.2835302, 98220.92, 98220.92, 0.0, 9.9908, 10.005097 
2.2051871e+3, 1.3440019e+2, -1451018.5, -1752212.5, 71604.79, 0.073698916, -0.24825056, -1434862.0, 187989.9, 0.47678095, 10.0034895, 9.997445 
2.2051735e+3, 1.4439689e+2, -873537.5, -1512530.9, 72106.58, 0.023305258, -0.23872355, -865501.8, 659381.44, 0.3251997, 10.008516, 9.995982 
2.2051577e+3, 1.5439247e+2, -808217.75, -1530077.1, 83911.73, -0.038027953, -0.27690846, -798591.9, 628336.0, 0.18477617, 10.007191, 9.995803 
2.2051421e+3, 1.6438845e+2, -699367.9, -1385171.4, 71511.39, -0.045887835, -0.2872054, -691990.5, 636976.94, 0.08215577, 10.006344, 9.996521 
2.2051267e+3, 1.7438506e+2, -563956.1, -1298679.3, 69987.77, -0.011548374, -0.2793476, -557348.7, 673650.7, 0.025619587, 10.006384, 9.99642 
2.20511e+3, 1.8438162e+2, -505709.53, -1187891.0, 20145.871, -0.006217826, -0.27737233, -505115.13, 627916.94, 0.004432204, 10.005845, 9.996765 
2.2050928e+3, 1.9437826e+2, -594887.94, -1193921.4, 17210.752, -0.030220143, -0.28947622, -594393.9, 440670.5, 0.00024348428, 10.004593, 9.9966545 
2.205074e+3, 2.0437522e+2, -597703.1, -1049759.8, -74755.88, -0.03667782, -0.29351047, -585661.6, 351432.38, 0.00000016770439, 10.003496, 9.997497 
2.2050545e+3, 2.143727e+2, -625630.94, -1020933.94, -83446.555, -0.021010965, -0.29599717, -608737.75, 230381.88, 0.0, 10.002667, 9.997421 
2.2050345e+3, 2.2437066e+2, -611309.1, -837007.1, -75950.57, -0.012497106, -0.29392618, -588130.94, 153008.89, 0.0, 10.001552, 9.998547 
2.2050147e+3, 2.3436919e+2, -728998.8, -849538.0, -70689.95, -0.009874849, -0.29656157, -696373.3, -53219.94, 0.0, 10.000098, 9.998488 
2.2049944e+3, 2.4436809e+2, -729862.94, -696405.4, -109635.46, 0.003954509, -0.29789358, -602229.75, -57066.1, 0.0, 9.998977, 9.999408 
2.2049737e+3, 2.5436744e+2, -742213.6, -661367.0, -114840.04, 0.027627073, -0.30138347, -580043.56, -132874.03, 0.0, 9.99826, 9.999322 
2.2049524e+3, 2.643674e+2, -709992.56, -487995.13, -116343.25, 0.003803934, -0.28243172, -438194.38, -89023.95, 0.0, 9.99735, 10.000277 
2.2049306e+3, 2.743679e+2, -794944.2, -487210.6, -116001.38, -0.060827866, -0.260859, -448382.53, -197215.72, 0.0, 9.996131, 10.000196 
2.2049104e+3, 2.843684e+2, -804145.8, -289684.75, -82611.87, -0.03552211, -0.29075512, -276744.47, -123582.25, 0.0, 9.994744, 10.001548 
2.2048913e+3, 2.9436946e+2, -923951.5, -297346.2, -67720.484, 0.054576162, -0.34354648, -290110.84, -234959.31, 0.0, 9.993254, 10.001542 
2.2048698e+3, 3.0437273e+2, -1016102.8, -230989.4, -50751.19, -0.108283594, -0.20254873, -227722.36, -227722.36, 0.0, 9.991911, 10.002314 
2.204851e+3, 3.1437424e+2, -1048768.8, 23071.79, 22829.896, 0.012138772, -0.2798863, 23557.838, 23557.838, 0.0, 9.990542, 10.004708 
2.2151904e+3, 1.3441549e+2, -1301958.6, -1291084.9, 258348.36, 0.06945683, -0.16773726, -1038116.2, 584590.44, 0.49958637, 10.002845, 10.003137 
2.2151819e+3, 1.4441465e+2, -872490.25, -1469167.3, 48395.566, 0.011415344, -0.22187479, -868590.44, 656118.6, 0.34642008, 10.008519, 9.99644 
2.2151648e+3, 1.5441076e+2, -809488.7, -1503212.0, 41147.242, -0.051404014, -0.22864868, -807056.56, 619693.5, 0.20200495, 10.007208, 9.995971 
2.2151485e+3, 1.6440691e+2, -708649.9, -1396449.6, 71013.805, -0.052766714, -0.22445828, -701394.4, 627394.3, 0.093588695, 10.006376, 9.996429 
2.2151333e+3, 1.744033e+2, -572660.94, -1313031.1, 73961.39, 0.0026433668, -0.23128554, -565344.6, 665477.56, 0.031329654, 10.006399, 9.996316 
2.2151162e+3, 1.8439937e+2, -503317.56, -1180530.6, -22396.352, 0.025099577, -0.27262497, -502577.7, 630281.0, 0.0062920055, 10.005845, 9.996816 
2.2150977e+3, 1.943953e+2, -589488.06, -1183091.0, -27834.816, 0.010457883, -0.3608947, -588185.7, 446710.88, 0.00049998873, 10.004596, 9.996728 
2.2150779e+3, 2.0439231e+2, -598460.5, -1053001.3, -105880.24, -0.015712366, -0.36461437, -575007.06, 361918.5, 0.0000015186998, 10.003502, 9.997473 
2.2150566e+3, 2.1439072e+2, -627981.7, -1024804.0, -112300.69, -0.05733264, -0.2714008, -598405.06, 240537.88, 0.0, 10.002662, 9.997398 
2.2150357e+3, 2.2438902e+2, -603458.6, -819292.0, -128344.19, -0.04561715, -0.23978001, -543690.4, 197269.45, 0.0, 10.001544, 9.9986725 
2.2150151e+3, 2.3438713e+2, -719405.6, -829588.0, -123994.086, 0.035471346, -0.29945624, -638814.94, 4161.605, 0.0, 10.000096, 9.998628 
2.2149938e+3, 2.443857e+2, -733269.75, -703385.94, -139273.25, 0.05147246, -0.33644056, -578255.4, -33265.84, 0.0, 9.998976, 9.99936 
2.2149715e+3, 2.5438502e+2, -744780.2, -669382.0, -141254.47, -0.0226879, -0.3408454, -560882.44, -113885.58, 0.0, 9.998271, 9.999262 
2.214949e+3, 2.6438534e+2, -710842.94, -492288.97, -162189.27, -0.07150191, -0.27816108, -405998.0, -57003.125, 0.0, 9.997358, 10.000243 
2.2149268e+3, 2.743866e+2, -795771.06, -492946.75, -163641.44, -0.07528431, -0.17356229, -421414.6, -170430.16, 0.0, 9.996146, 10.000151 
2.2149053e+3, 2.8438658e+2, -788001.7, -256322.25, -141385.44, -0.035739455, -0.26763016, -221062.98, -68077.484, 0.0, 9.994746, 10.001776 
2.2148843e+3, 2.9438585e+2, -900710.4, -247224.69, -120852.92, 0.024595624, -0.5222604, -225590.86, -170600.11, 0.0, 9.993245, 10.001891 
2.214864e+3, 3.0439338e+2, -1005316.8, -204275.22, -102315.414, 0.11389804, 0.0051862397, -191413.2, -191413.2, 0.0, 9.991888, 10.002511 
2.2148407e+3, 3.1439292e+2, -1127509.6, -152669.34, -6360.822, -0.10790559, -0.27334213, -152627.83, -152627.83, 0.0, 9.990586, 10.003485 
2.2251897e+3, 1.4443338e+2, -890832.75, -1473229.9, 125082.28, -0.07692718, -0.31925884, -865105.2, 659419.6, 0.37321287, 10.008645, 9.99636 
2.2251728e+3, 1.5443051e+2, -636400.1, -1405486.1, 118565.24, -0.0633643, -0.21214446, -618536.56, 808020.3, 0.2234326, 10.008946, 9.995841 
2.2251563e+3, 1.6442673e+2, -446847.38, -1282815.9, 139417.8, -0.01083737, -0.18096904, -424209.16, 904386.1, 0.10785124, 10.008587, 9.99618 
2.2251399e+3, 1.7442234e+2, -517924.7, -1310697.9, 133337.44, 0.0062355646, -0.23801269, -496099.38, 734536.9, 0.038669445, 10.006942, 9.996076 
2.225122e+3, 1.8441822e+2, -529174.8, -1189257.6, 33809.152, 0.01425311, -0.2884926, -527447.6, 605227.0, 0.008868458, 10.005663, 9.996844 
2.2251025e+3, 1.9441463e+2, -513648.22, -1139429.5, 25322.418, 0.017359253, -0.3332438, -512625.2, 522082.38, 0.0009382609, 10.005091, 9.996788 
2.2250818e+3, 2.0441169e+2, -508144.5, -1021858.94, -60597.77, 0.004633551, -0.33119026, -501093.2, 435642.8, 0.000009606305, 10.004177, 9.99736 
2.2250596e+3, 2.1440955e+2, -605675.06, -1026785.56, -75878.305, -0.029019667, -0.27889806, -592420.06, 246338.64, 0.0, 10.0028715, 9.997283 
2.2250374e+3, 2.2440769e+2, -587966.44, -812858.5, -104793.914, -0.024436325, -0.25635967, -546705.4, 194071.88, 0.0, 10.0016575, 9.998662 
2.2250153e+3, 2.344061e+2, -649586.94, -796064.44, -112490.81, 0.033349853, -0.2844377, -588594.2, 54197.16, 0.0, 10.000579, 9.998624 
2.224993e+3, 2.4440484e+2, -670375.2, -650420.25, -116667.22, 0.039801672, -0.31626636, -543304.6, 1498.1257, 0.0, 9.999312, 9.99956 
2.2249694e+3, 2.54404e+2, -797917.9, -669311.7, -97999.41, -0.025213018, -0.3509023, -616402.25, -169592.02, 0.0, 9.997799, 9.999488 
2.2249459e+3, 2.6440442e+2, -834596.56, -532491.9, -102850.18, -0.06945714, -0.30228195, -500801.28, -151993.9, 0.0, 9.996427, 10.000415 
2.2249223e+3, 2.7440605e+2, -924585.56, -535860.06, -92503.28, -0.06984731, -0.18260263, -514970.06, -264175.78, 0.0, 9.995181, 10.000321 
2.2248997e+3, 2.8440633e+2, -891841.94, -292831.7, -66053.625, -0.03047309, -0.2538843, -285634.34, -132842.42, 0.0, 9.993977, 10.001896 
2.2248772e+3, 2.9440582e+2, -960853.06, -270528.03, -57499.473, 0.0209677, -0.50098133, -265771.5, -210976.11, 0.0, 9.992806, 10.001943 
2.2248557e+3, 3.0441308e+2, -997719.0, -146314.89, -42662.555, 0.12484162, -0.021647213, -144182.47, -144182.47, 0.0, 9.991711, 10.002993 
2.2248304e+3, 3.1441185e+2, -1139196.5, -167407.08, 43028.883, -0.17609107, -0.43159622, -165505.56, -165505.56, 0.0, 9.99056, 10.003389 
2.2351962e+3, 1.4445305e+2, -954273.0, -1543880.3, 118805.78, -0.26665395, -0.50944746, -931233.9, 593097.06, 0.4070015, 10.008584, 9.995798 
2.2351816e+3, 1.5445149e+2, -684798.56, -1467063.1, 132054.92, -0.07704691, -0.22688189, -663107.7, 763242.8, 0.24995998, 10.008957, 9.9954195 
2.2351658e+3, 1.6444772e+2, -486302.63, -1333582.4, 88930.77, 0.07019087, -0.15580884, -477069.06, 851320.0, 0.12555727, 10.008597, 9.995797 
2.2351468e+3, 1.744421e+2, -546254.4, -1362819.1, 72635.93, -0.009558038, -0.2984438, -539843.5, 690599.2, 0.048016675, 10.006965, 9.995705 
2.235127e+3, 1.8443805e+2, -526826.44, -1187103.9, 10897.315, -0.041897554, -0.32312945, -526646.6, 605834.2, 0.012343129, 10.0056925, 9.996844 
2.2351074e+3, 1.9443604e+2, -510581.03, -1135008.1, 6311.358, -0.012928321, -0.21097752, -510517.25, 523981.72, 0.0016260305, 10.0051, 9.996815 
2.2350861e+3, 2.0443314e+2, -523010.13, -1051518.6, -107397.29, 0.020970782, -0.19785021, -502019.78, 434507.28, 0.000035326513, 10.004172, 9.99716 
2.2350635e+3, 2.1442907e+2, -621028.6, -1057663.5, -122491.95, 0.05825919, -0.3171413, -589012.7, 249555.17, 0.0, 10.002866, 9.997074 
2.2350398e+3, 2.2442657e+2, -599773.6, -836115.5, -144576.63, 0.0467493, -0.34055263, -531218.1, 209374.83, 0.0, 10.001652, 9.998505 
2.2350156e+3, 2.3442598e+2, -660194.9, -818170.3, -151786.52, -0.022738969, -0.2529309, -568073.9, 74525.195, 0.0, 10.000579, 9.998473 
2.2349915e+3, 2.444253e+2, -638698.44, -584843.0, -173835.02, -0.035668526, -0.24025577, -435862.47, 108742.234, 0.0, 9.999312, 10.000011 
2.2349675e+3, 2.544244e+2, -761578.4, -595009.2, -155016.58, 0.012660211, -0.33230025, -502320.88, -55710.285, 0.0, 9.997802, 9.999997 
2.234943e+3, 2.6442456e+2, -809864.1, -479301.1, -151853.0, 0.008226109, -0.3547097, -420133.72, -71524.88, 0.0, 9.996419, 10.000785 
2.234918e+3, 2.7442595e+2, -896965.75, -477920.78, -139092.61, -0.04269274, -0.28964403, -435954.84, -185357.55, 0.0, 9.995178, 10.000721 
2.2348936e+3, 2.844276e+2, -890000.94, -289891.06, -111247.1, -0.02682105, -0.25202516, -269932.13, -117349.875, 0.0, 9.993977, 10.001918 
2.2348699e+3, 2.9442927e+2, -978475.75, -312770.75, -101533.57, 0.013220417, -0.27676797, -297629.22, -243063.69, 0.0, 9.992827, 10.001644 
2.2348458e+3, 3.0443165e+2, -958920.56, -63463.98, -86249.96, -0.065245904, -0.28620738, -55232.098, -55232.098, 0.0, 9.991704, 10.003563 
2.2348225e+3, 3.144343e+2, -1069821.9, -22057.145, -112578.734, -0.015244791, -0.40251276, -10097.457, -10097.457, 0.0, 9.990544, 10.004401 
2.24521e+3, 1.4447846e+2, -940007.1, -1535712.0, 152549.64, 0.19393966, -0.22350751, -903214.3, 620864.8, 0.44925857, 10.009387, 9.995563 
2.2451913e+3, 1.5447383e+2, -697681.6, -1492112.3, 188866.16, 0.0008174393, -0.2233462, -655066.94, 771062.6, 0.2827556, 10.009284, 9.995148 
2.2451736e+3, 1.6446868e+2, -512766.25, -1359658.9, 141026.72, -0.0033628629, -0.26304403, -489899.56, 838282.9, 0.1475181, 10.008646, 9.995612 
2.2451545e+3, 1.7446396e+2, -322805.0, -1260805.5, 143109.78, -0.0000011430348, -0.29792106, -301456.75, 928771.0, 0.059803143, 10.008731, 9.995561 
2.2451343e+3, 1.8446012e+2, -231036.02, -1069964.3, 67269.516, -0.0013855842, -0.28345534, -225676.25, 906588.25, 0.016883418, 10.007904, 9.996592 
2.2451131e+3, 1.9445741e+2, -405527.56, -1112655.3, 39939.57, -0.0064206747, -0.2133356, -403278.88, 631010.8, 0.0026188942, 10.005952, 9.996558 
2.2450903e+3, 2.0445427e+2, -492543.8, -1031723.1, -69865.79, 0.019379422, -0.2134437, -483637.84, 452682.4, 0.00009160923, 10.004361, 9.997205 
2.2450666e+3, 2.1445046e+2, -547737.4, -1014287.25, -66422.64, 0.08342133, -0.31001106, -538465.06, 299893.0, 0.00000000078027956, 10.003338, 9.997144 
2.2450417e+3, 2.2444807e+2, -538026.5, -801671.2, -75479.55, 0.07214095, -0.32960004, -517946.6, 222435.67, 0.0, 10.002055, 9.998547 
2.2450158e+3, 2.3444735e+2, -678456.3, -822079.0, -67331.016, -0.02707216, -0.25783867, -651828.2, -9438.058, 0.0, 10.000433, 9.998515 
2.2449905e+3, 2.4444683e+2, -671473.0, -581301.44, -90819.09, -0.042238813, -0.2384744, -524992.75, 19401.723, 0.0, 9.999006, 10.000181 
2.2449656e+3, 2.5444642e+2, -752859.0, -570942.25, -97878.49, 0.035229225, -0.30064863, -528283.2, -81887.12, 0.0, 9.997778, 10.000173 
2.2449397e+3, 2.6444665e+2, -789368.5, -431026.3, -108427.59, 0.024008682, -0.3376429, -400772.4, -52379.754, 0.0, 9.996397, 10.001125 
2.2449125e+3, 2.7444783e+2, -919795.0, -447966.56, -96384.984, -0.06151551, -0.33287558, -429036.53, -178654.44, 0.0, 9.994849, 10.001081 
2.2448875e+3, 2.8444993e+2, -906352.56, -282700.2, -51274.85, -0.022979898, -0.2753119, -278512.63, -126150.32, 0.0, 9.993804, 10.002048 
2.2448635e+3, 2.944526e+2, -931412.6, -280283.16, -37579.28, 0.07624311, -0.20793514, -278121.47, -223784.83, 0.0, 9.993114, 10.001725 
2.2448364e+3, 3.044533e+2, -1032473.0, -85734.36, -46025.71, -0.1337346, -0.39069697, -83502.086, -83502.086, 0.0, 9.991145, 10.003678 
2.244813e+3, 3.144588e+2, -1332629.6, -73333.16, -72757.6, 0.07885835, -0.2419406, -69143.42, -69143.42, 0.0, 9.98841, 10.005082 
2.2552021e+3, 1.544974e+2, -738998.94, -1510716.0, 168128.22, 0.14809552, -0.20377307, -703960.94, 721934.4, 0.3236983, 10.009369, 9.994978 
2.2551799e+3, 1.6448963e+2, -535892.4, -1361344.1, 135736.44, -0.2266988, -0.49000677, -514145.0, 813830.2, 0.17476772, 10.008679, 9.995589 
2.2551636e+3, 1.7448781e+2, -332580.38, -1256497.4, 146823.23, 0.030521987, -0.23874, -309809.34, 920183.56, 0.07441027, 10.008751, 9.9955845 
2.2551434e+3, 1.8448423e+2, -271212.66, -1143824.6, -305.41037, 0.12684928, -0.1736852, -271212.53, 860814.94, 0.022565996, 10.007905, 9.996078 
2.2551191e+3, 1.9447865e+2, -442168.03, -1188501.5, -32131.063, 0.027944755, -0.3379876, -440787.28, 593293.5, 0.003925979, 10.005956, 9.996037 
2.2550945e+3, 2.04475e+2, -473305.22, -993087.75, -108643.45, -0.003970922, -0.37241736, -451510.72, 484605.44, 0.00018703518, 10.004366, 9.997467 
2.2550696e+3, 2.1447362e+2, -526784.56, -969164.44, -101571.55, 0.04182596, -0.2604494, -504578.22, 333552.66, 0.00000005883126, 10.003329, 9.997458 
2.2550437e+3, 2.2447202e+2, -522727.22, -766424.5, -134040.61, 0.048994992, -0.22809829, -463429.56, 276717.34, 0.0, 10.002041, 9.998796 
2.2550169e+3, 2.3447011e+2, -661398.56, -785900.25, -126996.484, 0.015962418, -0.29966983, -582216.44, 59949.12, 0.0, 10.000429, 9.998767 
2.25499e+3, 2.4446936e+2, -682131.44, -602375.6, -138333.77, 0.016621144, -0.30921885, -498286.6, 45886.324, 0.0, 9.999002, 10.000039 
2.2549634e+3, 2.5446996e+2, -763611.94, -595131.0, -144577.33, 0.03546521, -0.2547917, -512042.28, -65874.82, 0.0, 9.997786, 10.000004 
2.2549355e+3, 2.6447064e+2, -766563.6, -385020.0, -168523.53, -0.029375048, -0.2519121, -321245.03, 26914.9, 0.0, 9.996401, 10.001441 
2.2549067e+3, 2.744715e+2, -898306.56, -404762.9, -152649.92, -0.13992529, -0.31333283, -361365.25, -111215.414, 0.0, 9.994853, 10.001378 
2.2548814e+3, 2.8447315e+2, -891837.9, -253269.81, -79766.42, -0.019845763, -0.32289797, -243456.64, -91323.39, 0.0, 9.993806, 10.002251 
2.2548582e+3, 2.9447567e+2, -894859.7, -207912.25, -72535.15, 0.22488637, -0.2923362, -200336.77, -146226.8, 0.0, 9.993129, 10.002216 
2.2548276e+3, 3.04478e+2, -1043408.5, -105901.81, -156851.66, -0.10034463, -0.34571907, -80355.516, -80355.516, 0.0, 9.991135, 10.003545 
2.2547998e+3, 3.144832e+2, -1287021.6, 27229.273, 65755.03, -0.07072904, -0.1818255, 30510.957, 30510.957, 0.0, 9.988382, 10.005787 
2.2652127e+3, 1.5452169e+2, -589472.6, -1467617.3, 191171.4, 0.11322187, -0.29215857, -549659.75, 875993.7, 0.37455848, 10.012015, 9.994055 
2.2651894e+3, 1.6451447e+2, -340644.72, -1269718.8, 182787.38, -0.2516488, -0.45836616, -305976.5, 1021755.0, 0.20787157, 10.010801, 9.995271 
2.265173e+3, 1.7451206e+2, -264028.9, -1246784.1, 177555.42, 0.0553258, -0.23436932, -232933.64, 996820.56, 0.091791704, 10.009545, 9.995277 
2.2651519e+3, 1.8450806e+2, -252180.6, -1147107.9, 10757.671, 0.16222452, -0.18713576, -252051.3, 879741.44, 0.029223263, 10.008152, 9.9959345 
2.2651257e+3, 1.9450232e+2, -284438.63, -1123816.4, 4294.848, 0.02729777, -0.3540394, -284416.66, 749432.25, 0.005462727, 10.007109, 9.995924 
2.2650991e+3, 2.0449878e+2, -275457.34, -870903.2, -58513.805, -0.019310163, -0.38430452, -269761.72, 666121.94, 0.0003117081, 10.005614, 9.9977045 
2.265073e+3, 2.1449777e+2, -481359.1, -918865.56, -56524.535, 0.039465137, -0.25775295, -474174.28, 363719.84, 0.00000029956155, 10.00352, 9.99771 
2.2650456e+3, 2.2449644e+2, -538363.3, -751710.3, -86251.81, 0.05474213, -0.22077407, -507855.88, 232051.38, 0.0, 10.001838, 9.998995 
2.2650173e+3, 2.3449464e+2, -622893.75, -745697.25, -82891.03, 0.027549881, -0.30023384, -581139.8, 60785.016, 0.0, 10.000601, 9.99896 
2.2649893e+3, 2.44494e+2, -655444.06, -589011.9, -89882.49, 0.02568748, -0.30921483, -526404.3, 17527.256, 0.0, 9.999181, 10.000045 
2.264961e+3, 2.5449476e+2, -803212.7, -615361.6, -84520.53, 0.031910148, -0.23795065, -582931.56, -137005.92, 0.0, 9.9975195, 9.999992 
2.2649316e+3, 2.6449555e+2, -795948.8, -387529.44, -105670.41, -0.031024788, -0.22894095, -361809.06, -13891.62, 0.0, 9.996151, 10.001542 
2.2649018e+3, 2.7449632e+2, -865851.2, -379409.44, -107667.48, -0.11674171, -0.30704704, -356644.1, -106736.91, 0.0, 9.995036, 10.001464 
2.264875e+3, 2.8449786e+2, -922885.4, -262161.66, -42508.24, -0.009177993, -0.33119985, -259438.08, -107546.78, 0.0, 9.993567, 10.002304 
2.2648501e+3, 2.945006e+2, -1081758.3, -275554.66, -53300.13, 0.17665268, -0.28946593, -272046.1, -218179.28, 0.0, 9.991751, 10.002416 
2.2648185e+3, 3.0450362e+2, -1140281.9, -136203.69, -165420.48, -0.07579449, -0.2926824, -109652.97, -109652.97, 0.0, 9.990404, 10.003685 
2.2647886e+3, 3.1450805e+2, -1104356.3, 109355.3, 169251.05, -0.096786715, -0.20248106, 132515.28, 132515.28, 0.0, 9.989668, 10.005726 
2.2752227e+3, 1.5454653e+2, -776087.3, -1721590.5, 131810.72, -0.08620192, -0.47352448, -758055.75, 667349.56, 0.43490916, 10.011517, 9.992461 
2.2752017e+3, 1.6454282e+2, -407802.94, -1338818.0, 144944.06, -0.105273426, -0.18740727, -385759.4, 941695.6, 0.24586785, 10.010899, 9.994693 
2.2751826e+3, 1.7453656e+2, -314199.75, -1327834.5, 129691.336, 0.06538467, -0.28456444, -297869.25, 931643.7, 0.11105738, 10.0096, 9.994687 
2.2751594e+3, 1.8453161e+2, -244611.05, -1119717.4, -28193.412, 0.10574708, -0.3152779, -243703.67, 887856.7, 0.036309548, 10.008162, 9.996121 
2.2751324e+3, 1.9452824e+2, -271911.06, -1090096.6, -30647.934, -0.01121983, -0.26440594, -270764.63, 762830.94, 0.0070233145, 10.007087, 9.996166 
2.2751047e+3, 2.0452538e+2, -264851.16, -842830.0, -132879.9, -0.030127173, -0.25424343, -235765.17, 699859.5, 0.0004341384, 10.005588, 9.9979105 
2.2750767e+3, 2.145228e+2, -470230.28, -891970.25, -130892.07, 0.06907704, -0.3029754, -432909.03, 404740.13, 0.0000006157358, 10.003503, 9.997905 
2.2750476e+3, 2.2452125e+2, -530007.44, -732053.75, -132388.72, 0.08363443, -0.30497, -464499.97, 275164.2, 0.0, 10.001827, 9.999135 
2.2750176e+3, 2.3452082e+2, -614360.8, -726757.44, -127597.555, 0.0008932708, -0.26097658, -531133.94, 110535.05, 0.0, 10.000594, 9.999093 
2.2749878e+3, 2.4452062e+2, -644704.44, -566280.06, -152756.39, -0.01938028, -0.24131964, -447783.3, 95888.36, 0.0, 9.999179, 10.000203 
2.2749582e+3, 2.5452068e+2, -791631.44, -592554.0, -146088.66, 0.019553129, -0.25314042, -515316.47, -69644.79, 0.0, 9.997523, 10.000148 
2.2749282e+3, 2.6452124e+2, -805063.0, -406877.94, -149545.28, 0.019238744, -0.268863, -356969.22, -9303.329, 0.0, 9.996152, 10.00141 
2.2748981e+3, 2.7452224e+2, -872204.9, -396499.34, -151001.48, 0.006088738, -0.30866504, -352615.72, -102961.31, 0.0, 9.995051, 10.00134 
2.2748686e+3, 2.8452405e+2, -928110.2, -273543.94, -112416.84, -0.0016303454, -0.301922, -254775.34, -103138.125, 0.0, 9.993567, 10.002226 
2.2748388e+3, 2.9452714e+2, -1094085.8, -294895.38, -122466.2, -0.09817736, -0.21399176, -276550.03, -222940.9, 0.0, 9.991722, 10.002298 
2.2748093e+3, 3.0453056e+2, -1122020.3, -92911.12, -198354.27, -0.039103877, -0.18906252, -56003.246, -56003.246, 0.0, 9.99038, 10.003995 
2.2747792e+3, 3.145333e+2, -1199383.9, -116380.36, 37844.816, 0.016066605, -0.3011505, -115059.51, -115059.51, 0.0, 9.989771, 10.004136 
2.2852163e+3, 1.645706e+2, 96220.234, -1074728.8, 136160.34, -0.012648216, -0.08967167, 111844.76, 1439030.5, 0.28591448, 10.016288, 9.994555 
2.2851937e+3, 1.745627e+2, 20085.56, -1171066.1, 122204.86, 0.042568892, -0.3124544, 32493.773, 1261751.1, 0.13040182, 10.012545, 9.9943905 
2.2851674e+3, 1.845575e+2, -67159.35, -1001525.7, 10218.639, 0.05282062, -0.37192863, -67047.61, 1064259.0, 0.04293736, 10.009349, 9.996396 
2.2851394e+3, 1.9455518e+2, -312332.78, -1077511.3, 14601.777, -0.0000953554, -0.24209537, -312054.25, 721277.8, 0.008328648, 10.006678, 9.9964485 
2.28511e+3, 2.0455283e+2, -360405.75, -854454.9, -72581.03, 0.0038955272, -0.20809245, -349963.53, 585392.75, 0.0005171154, 10.004782, 9.998219 
2.2850803e+3, 2.1455014e+2, -428671.1, -838783.94, -64234.996, 0.0795448, -0.2975591, -418845.53, 418536.16, 0.00000068386026, 10.003646, 9.998201 
2.2850496e+3, 2.2454871e+2, -438497.03, -663598.4, -50257.273, 0.075979985, -0.3140183, -427786.0, 311609.63, 0.0, 10.002349, 9.999354 
2.2850181e+3, 2.3454864e+2, -573674.4, -684087.0, -39029.71, -0.018401384, -0.25257012, -561271.06, 80125.625, 0.0, 10.000773, 9.9993 
2.2849868e+3, 2.4454863e+2, -623841.8, -532981.25, -64827.707, -0.038249042, -0.23366448, -499250.03, 44147.313, 0.0, 9.999221, 10.000412 
2.2849558e+3, 2.5454867e+2, -760376.75, -554585.2, -55604.14, 0.024366854, -0.26897088, -540522.1, -95125.08, 0.0, 9.997638, 10.000355 
2.2849245e+3, 2.6454931e+2, -810374.06, -417819.56, -39540.4, 0.04629864, -0.28154, -413876.44, -66485.734, 0.0, 9.996149, 10.001336 
2.2848932e+3, 2.745506e+2, -914978.6, -424304.38, -38079.656, 0.041604523, -0.28474844, -421366.72, -171988.95, 0.0, 9.994786, 10.001277 
2.2848621e+3, 2.845524e+2, -947492.06, -275963.53, -5638.4614, -0.011429645, -0.27459973, -275916.2, -124555.48, 0.0, 9.993404, 10.002288 
2.2848298e+3, 2.945552e+2, -1065035.1, -284930.38, -9901.07, -0.17690232, -0.22542985, -284804.72, -231469.25, 0.0, 9.9919405, 10.00226 
2.2848003e+3, 3.0455896e+2, -1093423.9, -70674.95, -69902.55, 0.010321127, -0.15580812, -65919.38, -65919.38, 0.0, 9.990543, 10.004067 
2.2847684e+3, 3.1456113e+2, -1332658.9, -241675.03, 86491.445, -0.02272829, -0.34549218, -234860.69, -234860.69, 0.0, 9.989122, 10.003587 
2.2952329e+3, 1.645978e+2, 32958.19, -1064474.0, 53071.44, 0.016560903, -0.153806, 35518.734, 1362441.9, 0.3232345, 10.016285, 9.994791 
2.2952053e+3, 1.7459035e+2, -9377.835, -1179585.6, 6127.9204, -0.018946778, -0.31544375, -9345.746, 1219642.6, 0.14721386, 10.0125265, 9.994338 
2.2951762e+3, 1.8458547e+2, -52804.477, -956800.06, -79958.56, -0.0039225635, -0.3617834, -45786.61, 1085246.5, 0.048084848, 10.009332, 9.996732 
2.2951464e+3, 1.9458292e+2, -294055.94, -1033482.6, -75996.78, 0.051730454, -0.2875457, -286325.94, 746734.0, 0.009146675, 10.006658, 9.996761 
2.2951157e+3, 2.0458102e+2, -334350.0, -797999.3, -113744.17, 0.07552546, -0.24346536, -307949.16, 627130.56, 0.00054144725, 10.004771, 9.998611 
2.2950837e+3, 2.1457964e+2, -404935.97, -785021.1, -101551.04, 0.06529509, -0.24253303, -379505.13, 457588.22, 0.0000004655454, 10.003625, 9.998581 
2.2950515e+3, 2.2457862e+2, -419527.5, -621113.94, -106653.51, 0.02909687, -0.25039622, -373575.22, 365528.06, 0.0, 10.002335, 9.999654 
2.2950186e+3, 2.3457798e+2, -554606.1, -642948.75, -96234.234, -0.036876865, -0.27603164, -492890.1, 148219.1, 0.0, 10.000765, 9.999587 
2.2949861e+3, 2.4457796e+2, -605683.1, -495179.7, -125236.69, -0.035568092, -0.28470895, -413548.3, 129560.93, 0.0, 9.999219, 10.000673 
2.2949536e+3, 2.5457862e+2, -740867.25, -515556.03, -115595.87, 0.03829693, -0.2833281, -466800.06, -21697.732, 0.0, 9.9976425, 10.000621 
2.2949207e+3, 2.6457968e+2, -810604.75, -419314.3, -92003.89, 0.04325721, -0.26821905, -398761.1, -51668.8, 0.0, 9.996153, 10.001326 
2.2948875e+3, 2.7458122e+2, -913633.94, -423760.03, -87618.12, -0.019165142, -0.24081069, -408560.4, -159482.52, 0.0, 9.994795, 10.001278 
2.2948553e+3, 2.84583e+2, -934862.6, -249453.06, -61496.17, -0.040386166, -0.24596475, -243979.23, -92917.81, 0.0, 9.9934025, 10.002472 
2.294823e+3, 2.9458487e+2, -1063631.1, -282772.78, -65757.02, -0.0551984, -0.3058287, -277274.03, -224230.03, 0.0, 9.991941, 10.002275 
2.2947912e+3, 3.045884e+2, -1103069.3, -95451.65, -118136.52, 0.06304865, -0.24356209, -81786.25, -81786.25, 0.0, 9.990561, 10.003891 
2.2947566e+3, 3.1459257e+2, -1279321.3, -121524.055, -8389.978, -0.11793519, -0.23379213, -121463.266, -121463.266, 0.0, 9.989095, 10.004418 
2.30525e+3, 1.6462924e+2, 7066.7495, -1114775.5, 125726.39, 0.0756309, -0.18378928, 20984.414, 1347598.4, 0.35017616, 10.016939, 9.994052 
2.3052183e+3, 1.7462145e+2, -1288.3772, -1224070.0, 82155.47, -0.014717699, -0.30598095, 4206.7363, 1232891.3, 0.15812759, 10.013003, 9.993752 
2.3051858e+3, 1.8461668e+2, 80738.75, -862936.1, 25664.148, -0.028987322, -0.3259667, 81436.195, 1212164.4, 0.05082262, 10.010193, 9.996999 
2.3051536e+3, 1.9461387e+2, -133664.63, -926445.94, 31195.252, 0.046651255, -0.30695638, -132439.02, 900316.6, 0.009376731, 10.007645, 9.997026 
2.3051207e+3, 2.0461196e+2, -230371.14, -737413.06, 19350.646, 0.07343203, -0.27890563, -229633.72, 705141.2, 0.0005139739, 10.00544, 9.998707 
2.3050871e+3, 2.1461095e+2, -434994.66, -790411.25, 10848.912, 0.049000405, -0.24845697, -434663.78, 402122.22, 0.00000020555504, 10.003379, 9.998662 
2.3050532e+3, 2.2461013e+2, -511299.94, -640237.0, -4473.3647, 0.014137691, -0.24757235, -511144.94, 227649.34, 0.0, 10.001595, 9.999879 
2.305019e+3, 2.3460959e+2, -640913.5, -659459.1, 1584.709, -0.028830595, -0.28782007, -640779.06, 20.086561, 0.0, 10.000063, 9.999813 
2.3049851e+3, 2.4460973e+2, -658240.1, -502933.38, -22528.867, -0.023152616, -0.29727235, -499731.34, 43066.09, 0.0, 9.998779, 10.000833 
2.3049511e+3, 2.5461072e+2, -716089.56, -486684.16, -22149.031, 0.03488028, -0.2801957, -484565.25, -39777.617, 0.0, 9.997737, 10.000774 
2.3049167e+3, 2.6461187e+2, -765626.25, -390450.3, -5695.5674, 0.030410934, -0.26223442, -390363.88, -43587.203, 0.0, 9.9964285, 10.001391 
2.3048821e+3, 2.7461344e+2, -909808.5, -414913.47, 3382.458, -0.028118243, -0.24095479, -414890.34, -166127.33, 0.0, 9.994791, 10.00134 
2.3048484e+3, 2.846155e+2, -977912.4, -258702.45, 23969.53, -0.036634926, -0.22562428, -257904.48, -107160.49, 0.0, 9.993057, 10.002576 
2.3048149e+3, 2.9461774e+2, -1151223.4, -307479.9, 14120.807, -0.025856799, -0.2526293, -307243.63, -254521.78, 0.0, 9.991263, 10.002434 
2.3047817e+3, 3.0462015e+2, -1146059.8, -95102.055, 16689.65, 0.08118813, -0.32502073, -94837.08, -94837.08, 0.0, 9.990164, 10.00409 
2.304746e+3, 3.146249e+2, -1222353.4, -77493.16, 43582.926, -0.09054369, -0.2654113, -75836.42, -75836.42, 0.0, 9.989422, 10.0045595 
2.3152678e+3, 1.64664e+2, -88060.96, -1271550.4, 10707.779, 0.15523064, -0.22070083, -87964.086, 1238303.8, 0.35742083, 10.016859, 9.992437 
2.3152317e+3, 1.7465557e+2, -75600.125, -1386224.0, -22718.291, 0.04387836, -0.2879242, -75206.445, 1153143.5, 0.15990263, 10.012944, 9.992659 
2.3151958e+3, 1.8465082e+2, 89795.57, -835004.94, -61105.867, -0.031902727, -0.26711312, 93815.65, 1224210.6, 0.050566074, 10.010149, 9.997222 
2.3151603e+3, 1.9464771e+2, -123188.35, -897945.25, -55248.42, -0.022731269, -0.29947227, -119268.38, 913153.6, 0.009046923, 10.007611, 9.99724 
2.3151253e+3, 2.0464541e+2, -245559.3, -764526.3, -54600.523, -0.0046678656, -0.31273988, -239877.0, 694567.0, 0.0004558531, 10.00542, 9.99853 
2.3150901e+3, 2.146439e+2, -451911.66, -820227.5, -61482.883, 0.023697343, -0.31403345, -441919.44, 394541.97, 0.00000007467327, 10.003354, 9.99847 
2.315055e+3, 2.2464316e+2, -502345.66, -619446.0, -60485.016, 0.025167951, -0.3040166, -476714.13, 261755.69, 0.0, 10.001584, 10.000028 
2.3150192e+3, 2.3464331e+2, -630102.56, -635863.7, -54050.273, -0.0013299601, -0.2889281, -578856.1, 61611.81, 0.0, 10.000056, 9.99998 
2.3149839e+3, 2.446438e+2, -654345.6, -495426.7, -63181.418, -0.004845113, -0.27269694, -473369.16, 69093.81, 0.0, 9.99878, 10.000884 
2.3149484e+3, 2.5464478e+2, -711522.7, -480155.25, -61166.156, 0.006651766, -0.26146224, -464980.2, -20526.346, 0.0, 9.997748, 10.000814 
2.3149128e+3, 2.6464587e+2, -754286.7, -368624.0, -68090.47, 0.0031575689, -0.26212522, -356955.38, -10511.29, 0.0, 9.996434, 10.001539 
2.3148772e+3, 2.7464718e+2, -899618.3, -395374.28, -58650.563, 0.005124125, -0.281564, -388642.28, -140209.4, 0.0, 9.994795, 10.001473 
2.3148416e+3, 2.846498e+2, -975685.06, -253416.92, -43112.496, -0.0035415895, -0.21751133, -250852.61, -100444.12, 0.0, 9.993053, 10.002614 
2.3148054e+3, 2.9465377e+2, -1125997.5, -257033.69, -47955.703, -0.08714233, -0.077559754, -254395.16, -202025.55, 0.0, 9.991269, 10.002779 
2.3147714e+3, 3.0465466e+2, -1100541.1, -1009.9559, -2377.8884, 0.037429262, -0.36535487, -1004.8134, -1004.8134, 0.0, 9.990161, 10.004741 
2.3147361e+3, 3.146599e+2, -1237901.9, -111442.49, -102602.99, -0.036733646, -0.29393673, -102173.22, -102173.22, 0.0, 9.989431, 10.00432 
2.3252842e+3, 1.6469878e+2, 3184.2412, -1195911.1, -127577.49, 0.10638263, -0.20979786, 16607.553, 1342533.3, 0.34064493, 10.01718, 9.993052 
2.3252447e+3, 1.7469113e+2, -57578.523, -1294812.5, -61798.945, 0.07393411, -0.27977, -54499.375, 1173501.8, 0.15134567, 10.012621, 9.993442 
2.3252061e+3, 1.8468665e+2, 8292.904, -862612.06, 3965.3374, 0.018547848, -0.2758546, 8310.958, 1138354.8, 0.047287345, 10.00947, 9.997343 
2.3251677e+3, 1.9468373e+2, -197152.08, -918466.94, 7363.452, -0.024280528, -0.2998119, -197076.92, 834992.0, 0.008259233, 10.007028, 9.997378 
2.3251301e+3, 2.0468144e+2, -308585.03, -798570.6, 32652.299, -0.029316485, -0.31477195, -306418.66, 627672.0, 0.00038747757, 10.005001, 9.998499 
2.3250933e+3, 2.1467976e+2, -468817.6, -830658.5, 37265.76, 0.006237777, -0.3266406, -465019.47, 371090.2, 0.00000003090167, 10.003248, 9.99845 
2.3250563e+3, 2.2467904e+2, -472010.16, -602491.5, 61223.04, 0.020355754, -0.31554523, -447782.34, 290335.75, 0.0, 10.0017805, 10.000051 
2.3250198e+3, 2.3467934e+2, -557772.6, -597454.44, 58740.297, 0.016743254, -0.28634855, -515612.88, 124501.664, 0.0, 10.000537, 10.000012 
2.3249829e+3, 2.4467982e+2, -620521.8, -485940.63, 41464.42, 0.00815536, -0.2692264, -474191.22, 67918.625, 0.0, 9.9990425, 10.000823 
2.3249458e+3, 2.546806e+2, -790751.7, -525250.6, 34164.3, -0.0146980835, -0.2686793, -520924.88, -76821.86, 0.0, 9.997234, 10.000752 
2.3249087e+3, 2.6468176e+2, -843174.0, -388943.03, 25908.287, -0.020810766, -0.26894104, -387470.03, -41377.527, 0.0, 9.995728, 10.00174 
2.3248719e+3, 2.7468327e+2, -926939.8, -385607.0, 35562.05, 0.018553425, -0.28711483, -383280.78, -135202.55, 0.0, 9.994509, 10.001679 
2.3248349e+3, 2.8468573e+2, -956474.44, -237926.53, 50573.023, 0.018724957, -0.24702084, -234384.55, -84329.836, 0.0, 9.993158, 10.00267 
2.3247969e+3, 2.9468963e+2, -1057355.0, -212288.34, 43923.793, -0.08898261, -0.11938536, -210011.45, -157994.45, 0.0, 9.9916935, 10.00288 
2.3247613e+3, 3.0469146e+2, -1111988.0, -13365.417, 60718.805, 0.0059360615, -0.3171834, -10019.791, -10019.791, 0.0, 9.990114, 10.004677 
2.3247248e+3, 3.14697e+2, -1332231.3, -118606.1, -87644.56, -0.04581898, -0.20156187, -112309.33, -112309.33, 0.0, 9.988629, 10.004654 
2.3352993e+3, 1.6473415e+2, 175012.9, -938434.44, -249066.48, -0.095720746, -0.089512154, 228187.05, 1553768.3, 0.3046971, 10.016919, 9.995647 
2.3352574e+3, 1.7472787e+2, 99061.32, -985162.3, -190357.97, 0.0664873, -0.28223678, 131511.4, 1359151.6, 0.13435306, 10.0125065, 9.995877 
2.3352163e+3, 1.8472391e+2, 9762.222, -857481.44, -79385.016, 0.10851584, -0.34617734, 16969.012, 1146646.3, 0.04157556, 10.009407, 9.997398 
2.3351753e+3, 1.9472162e+2, -197275.97, -911314.25, -74541.99, 0.030947248, -0.30964643, -189577.17, 842121.75, 0.0071438025, 10.006987, 9.997448 
2.3351352e+3, 2.047198e+2, -303614.22, -784457.4, -30779.941, -0.008728726, -0.28891745, -301651.9, 632065.2, 0.0003199528, 10.004983, 9.998605 
2.3350962e+3, 2.1471836e+2, -462021.9, -813159.75, -23145.89, -0.011269011, -0.28921008, -460502.78, 375230.22, 0.000000015992528, 10.003232, 9.998579 
2.3350579e+3, 2.2471759e+2, -479504.8, -617159.0, 15587.348, -0.004421352, -0.28295243, -477761.84, 259978.94, 0.0, 10.001775, 9.999952 
2.3350203e+3, 2.3471755e+2, -564825.94, -611738.75, 13354.267, 0.01711361, -0.27922082, -561290.9, 78449.11, 0.0, 10.000533, 9.999916 
2.334982e+3, 2.4471769e+2, -632607.4, -511117.03, -27333.541, 0.011101776, -0.28526044, -505250.66, 36488.035, 0.0, 9.999042, 10.000651 
2.3349428e+3, 2.547181e+2, -802296.1, -549077.7, -33626.098, -0.035671122, -0.30178654, -544688.4, -100952.66, 0.0, 9.997232, 10.00059 
2.3349041e+3, 2.647195e+2, -826665.6, -354215.88, -20953.502, -0.044431407, -0.28444102, -353288.38, -7566.005, 0.0, 9.995724, 10.001982 
2.3348662e+3, 2.7472165e+2, -904993.9, -344234.63, -10348.8, 0.0050604376, -0.2626711, -344043.7, -96344.12, 0.0, 9.994524, 10.001957 
2.3348281e+3, 2.8472337e+2, -951683.3, -230799.2, -5015.2944, 0.022870136, -0.31560862, -230764.31, -81081.75, 0.0, 9.993168, 10.002715 
2.334789e+3, 2.9472536e+2, -1068724.8, -239228.69, -8405.847, -0.04488492, -0.3798486, -239143.5, -187479.39, 0.0, 9.991705, 10.002691 
2.3347512e+3, 3.0473042e+2, -1170751.4, -134293.95, -8046.4, 0.0025289438, -0.19760975, -134231.48, -134231.48, 0.0, 9.990109, 10.003849 
2.3347133e+3, 3.1473404e+2, -1316220.9, -97897.55, 963.4418, -0.039694853, -0.20780823, -97896.79, -97896.79, 0.0, 9.988666, 10.004787 
2.3453772e+3, 1.5477146e+2, -869896.56, -1234130.9, -501645.78, 0.27714866, -0.6032828, -518332.97, 904876.75, 0.46635237, 10.00775, 9.99934 
2.3453142e+3, 1.647743e+2, -109403.586, -1043611.3, -53350.348, -0.09038895, -0.09961348, -106366.75, 1218821.3, 0.25895098, 10.013044, 9.9963 
2.3452683e+3, 1.7476873e+2, -128257.984, -1051320.6, -62070.496, 0.06325672, -0.27974868, -124102.81, 1103136.3, 0.11272064, 10.010229, 9.996412 
2.3452249e+3, 1.8476483e+2, -216010.78, -993573.7, 46923.313, 0.11229136, -0.34367937, -213189.36, 916086.7, 0.03443488, 10.007853, 9.997162 
2.3451819e+3, 1.9476242e+2, -304112.4, -986173.1, 39068.207, 0.04796693, -0.2956244, -301881.88, 729419.06, 0.0058294563, 10.006343, 9.997237 
2.3451401e+3, 2.0476057e+2, -326709.25, -800095.5, 76441.81, 0.0042749997, -0.2642339, -314671.63, 618648.44, 0.00025371526, 10.004845, 9.998563 
2.3450993e+3, 2.1475916e+2, -465749.84, -816221.6, 74123.336, -0.014822768, -0.25529072, -450717.8, 384616.66, 0.000000008769239, 10.003213, 9.998567 
2.3450595e+3, 2.2475822e+2, -502783.6, -645122.9, 118981.85, -0.012505437, -0.25734156, -435310.53, 302032.78, 0.0, 10.001689, 9.999802 
2.3450205e+3, 2.3475774e+2, -619361.94, -653651.75, 113780.664, 0.019392183, -0.28127566, -521441.7, 117905.04, 0.0, 10.000228, 9.999776 
2.344981e+3, 2.4475768e+2, -650343.1, -526354.06, 72219.74, 0.016937729, -0.2949299, -493169.78, 48177.324, 0.0, 9.99895, 10.00059 
2.3449402e+3, 2.5475818e+2, -719290.94, -513873.28, 73140.766, -0.026526649, -0.29641557, -490492.16, -47148.9, 0.0, 9.997825, 10.000546 
2.3449002e+3, 2.6475945e+2, -733586.4, -318899.47, 78819.27, -0.039981086, -0.27928862, -304423.66, 40906.62, 0.0, 9.996405, 10.001896 
2.3448606e+3, 2.7476138e+2, -893322.2, -345191.22, 60846.813, -0.0054510334, -0.27014786, -338518.0, -91208.95, 0.0, 9.994636, 10.001895 
2.3448211e+3, 2.8476292e+2, -963910.3, -251806.88, 52391.543, 0.010102581, -0.33313787, -247972.92, -98679.14, 0.0, 9.993153, 10.002578 
2.344781e+3, 2.9476455e+2, -1049988.9, -263602.6, 37053.742, -0.026628057, -0.4169739, -261860.52, -210581.36, 0.0, 9.991979, 10.002392 
2.3447412e+3, 3.0476975e+2, -1112999.8, -148213.73, 37446.56, -0.033357248, -0.1786722, -146762.48, -146762.48, 0.0, 9.990685, 10.003475 
2.3447023e+3, 3.1477255e+2, -1329177.4, -73493.06, 102781.234, 0.0036501917, -0.2511071, -65135.754, -65135.754, 0.0, 9.988452, 10.005055 
2.3553833e+3, 1.548215e+2, -863025.56, -1372356.6, -266787.25, 0.13811982, -0.33071485, -748868.7, 673853.94, 0.38824946, 10.007742, 9.997049 
2.3553288e+3, 1.6481832e+2, -110559.4, -1154692.1, -135071.78, 0.091151096, -0.24921004, -93369.17, 1231385.4, 0.21183895, 10.01286, 9.995267 
2.3552783e+3, 1.7481323e+2, -186263.63, -1211106.3, -162309.58, 0.055020083, -0.27641746, -161172.14, 1065630.3, 0.09026521, 10.010157, 9.995216 
2.355232e+3, 1.8480903e+2, -246109.22, -1065334.5, -7092.5723, 0.03313378, -0.27810624, -246047.81, 882796.06, 0.026954306, 10.007833, 9.996659 
2.355188e+3, 1.9480582e+2, -341376.1, -1061349.8, -10616.5205, 0.021402648, -0.2596751, -341219.56, 689658.25, 0.0044474876, 10.006322, 9.996731 
2.355145e+3, 2.0480351e+2, -340139.78, -825392.0, 17343.727, 0.006110949, -0.23921719, -339520.66, 593380.8, 0.00018571796, 10.004831, 9.998397 
2.3551026e+3, 2.1480203e+2, -478963.28, -839611.94, 16991.697, -0.0122499205, -0.2231827, -478164.5, 356751.16, 0.0000000022661422, 10.003193, 9.998416 
2.355061e+3, 2.248008e+2, -518555.1, -676582.9, 65508.29, -0.008958758, -0.2383795, -494931.13, 241995.88, 0.0, 10.001681, 9.999591 
2.3550208e+3, 2.3479976e+2, -634029.0, -683909.06, 60474.58, 0.016095065, -0.2948433, -593553.56, 45382.363, 0.0, 10.000225, 9.99957 
2.35498e+3, 2.4479972e+2, -646561.0, -520261.3, 28498.922, 0.021657132, -0.29844034, -514128.47, 26807.414, 0.0, 9.998955, 10.000631 
2.3549382e+3, 2.5480077e+2, -712350.25, -503532.53, 30964.752, 0.003329036, -0.25158396, -499037.63, -56111.543, 0.0, 9.997839, 10.000612 
2.3548967e+3, 2.648017e+2, -762652.94, -381895.2, 11096.223, -0.010692623, -0.25196376, -381572.1, -36655.56, 0.0, 9.996415, 10.001459 
2.354855e+3, 2.748025e+2, -922707.1, -407214.53, -6143.3203, -0.016777216, -0.30856898, -407141.34, -160234.39, 0.0, 9.994638, 10.001469 
2.3548137e+3, 2.8480443e+2, -985455.4, -297298.03, 7711.1094, -0.025617387, -0.29530302, -297211.63, -148323.38, 0.0, 9.993154, 10.002266 
2.3547724e+3, 2.948074e+2, -1073955.1, -322172.53, -2176.9185, -0.054273624, -0.21951269, -322166.22, -271305.06, 0.0, 9.992013, 10.001974 
2.3547313e+3, 3.0480945e+2, -1103960.3, -135955.25, -24159.963, -0.098403506, -0.2673725, -135352.63, -135352.63, 0.0, 9.990711, 10.003549 
2.3546904e+3, 3.1481317e+2, -1296983.3, 5316.7183, -95738.97, -0.019391498, -0.27345148, 12317.364, 12317.364, 0.0, 9.988407, 10.005614 
2.3654431e+3, 1.4487408e+2, -958290.5, -1453186.3, -164316.33, -0.15137024, -0.09030605, -908702.5, 611507.1, 0.494158, 10.009396, 9.996348 
2.3653907e+3, 1.5486899e+2, -714194.44, -1392659.9, -193821.86, 0.04777561, -0.22083963, -662728.1, 759530.0, 0.31790534, 10.009088, 9.995962 
2.3653395e+3, 1.6486363e+2, -538203.94, -1415583.0, -168842.42, 0.10801595, -0.28763455, -506833.63, 817476.0, 0.16908842, 10.008849, 9.99513 
2.3652878e+3, 1.7485867e+2, -309236.2, -1306754.5, -142586.0, 0.041773863, -0.28832752, -289255.06, 937102.25, 0.06974606, 10.00917, 9.995025 
2.3652396e+3, 1.8485442e+2, -202407.33, -1080158.6, 44674.24, 0.0057685636, -0.2667452, -200139.44, 928260.5, 0.020020392, 10.008244, 9.996352 
2.3651938e+3, 1.9485106e+2, -386631.63, -1119857.3, 54937.645, 0.0016804772, -0.230607, -382538.22, 647897.44, 0.0031368386, 10.006161, 9.996406 
2.3651497e+3, 2.0484836e+2, -409614.0, -888520.2, 99818.94, 0.001113262, -0.2173191, -389641.56, 542821.56, 0.00011840466, 10.004483, 9.99813 
2.3651059e+3, 2.1484625e+2, -481729.13, -869120.0, 91532.94, 0.0069062556, -0.23496807, -461190.6, 373292.44, 0.000000000000043364692, 10.003298, 9.998162 
2.365063e+3, 2.2484481e+2, -497495.13, -676719.44, 134607.61, 0.012082618, -0.25110206, -425399.06, 311097.06, 0.0, 10.001873, 9.999496 
2.3650208e+3, 2.3484401e+2, -647763.44, -698547.75, 139390.47, 0.020019773, -0.2735052, -531471.2, 107031.68, 0.0, 10.000168, 9.9994955 
2.3649788e+3, 2.4484392e+2, -689333.56, -562535.75, 121431.03, 0.02347726, -0.26844028, -488949.56, 51553.82, 0.0, 9.998757, 10.000435 
2.364936e+3, 2.5484455e+2, -757294.5, -545713.0, 104392.25, 0.019835312, -0.24157895, -502878.63, -60381.137, 0.0, 9.997622, 10.000425 
2.3648933e+3, 2.6484516e+2, -775772.2, -422277.38, 67276.21, 0.004204153, -0.24922197, -409906.47, -65414.95, 0.0, 9.996475, 10.00115 
2.36485e+3, 2.7484578e+2, -848550.9, -407030.53, 57993.62, -0.010463271, -0.29491547, -399540.16, -153055.1, 0.0, 9.995305, 10.001147 
2.3648071e+3, 2.848477e+2, -883203.9, -234406.64, 88064.03, -0.027963806, -0.2666813, -222665.8, -74199.86, 0.0, 9.993801, 10.002383 
2.3647642e+3, 2.9485086e+2, -1094758.3, -311009.25, 107609.15, -0.07172178, -0.18342043, -296502.94, -246067.52, 0.0, 9.991787, 10.002157 
2.3647217e+3, 3.0485198e+2, -1240991.5, -249919.48, 102607.875, -0.065839276, -0.31130677, -239407.75, -239407.75, 0.0, 9.989981, 10.003118 
2.3646791e+3, 3.148547e+2, -1179682.5, 41479.383, -68560.42, -0.035909455, -0.36940593, 45316.555, 45316.555, 0.0, 9.989303, 10.005429 
2.3754543e+3, 1.449169e+2, -876862.8, -1446496.4, -197992.11, 0.053217787, -0.3670425, -814805.75, 704981.1, 0.41485295, 10.009309, 9.99635 
2.3753992e+3, 1.5491433e+2, -662125.2, -1404061.0, -221202.52, -0.009756492, -0.24605083, -601181.4, 820631.44, 0.260083, 10.009046, 9.995889 
2.3753472e+3, 1.6491002e+2, -472218.7, -1324286.6, -161535.45, -0.023454739, -0.233609, -442622.7, 881232.56, 0.13362555, 10.008787, 9.995781 
2.3752967e+3, 1.7490491e+2, -257359.63, -1211874.6, -131565.03, 0.017466579, -0.3155756, -239557.45, 986347.5, 0.052617818, 10.009089, 9.995713 
2.3752478e+3, 1.8490085e+2, -215352.8, -1104071.0, -30216.898, 0.019592365, -0.3028722, -214326.6, 913618.9, 0.014175082, 10.00818, 9.996216 
2.3751996e+3, 1.9489795e+2, -403103.75, -1148771.8, -20895.35, -0.019275507, -0.20673414, -402518.7, 627457.44, 0.0020206715, 10.006129, 9.996224 
2.3751538e+3, 2.0489492e+2, -436811.38, -943718.7, 56318.395, -0.0138944145, -0.1997895, -430629.7, 501377.25, 0.00006133411, 10.004475, 9.997756 
2.3751093e+3, 2.1489169e+2, -510608.9, -926028.8, 50792.297, 0.034480568, -0.28995198, -504488.84, 329549.1, 0.0, 10.003282, 9.997781 
2.3750652e+3, 2.2489022e+2, -496740.4, -674476.75, 71633.414, 0.04591352, -0.29220563, -471464.38, 264587.25, 0.0, 10.001867, 9.999516 
2.375021e+3, 2.3489045e+2, -645942.5, -693898.0, 76539.42, 0.02389102, -0.21391195, -589712.94, 48335.34, 0.0, 10.000161, 9.999532 
2.3749773e+3, 2.448902e+2, -720102.7, -627364.2, 76823.24, 0.01872089, -0.20419198, -584000.94, -43950.492, 0.0, 9.998759, 9.9999895 
2.3749337e+3, 2.548895e+2, -787242.2, -609864.56, 61131.465, 0.01672812, -0.26714134, -590837.25, -148779.02, 0.0, 9.997629, 9.999983 
2.3748897e+3, 2.648898e+2, -788358.94, -450980.56, 21937.973, -0.0004142901, -0.27186596, -449560.03, -105504.14, 0.0, 9.996483, 10.000952 
2.3748451e+3, 2.7489108e+2, -860133.0, -439192.56, 16794.197, -0.0048798122, -0.23187013, -438523.6, -192479.42, 0.0, 9.995337, 10.000913 
2.374801e+3, 2.848927e+2, -842125.75, -154014.9, 10998.342, 0.0027564028, -0.25014928, -153839.16, -5811.8467, 0.0, 9.99382, 10.002928 
2.374756e+3, 2.9489496e+2, -1037260.6, -190983.86, 24279.057, -0.054988205, -0.3110744, -190287.88, -140285.81, 0.0, 9.99178, 10.002986 
2.3747127e+3, 3.0489737e+2, -1308122.9, -383504.13, 58131.51, 0.033342246, -0.32234702, -379863.7, -379863.7, 0.0, 9.989954, 10.002214 
2.3746684e+3, 3.1489924e+2, -1157828.8, 57201.15, -41631.996, -0.024902955, -0.34320244, 58625.965, 58625.965, 0.0, 9.9894085, 10.005497 
2.385522e+3, 1.3496661e+2, -1250241.5, -1366468.0, -194860.14, -0.0010730199, -0.27943236, -1105013.6, 512288.34, 0.49580345, 10.004386, 10.001292 
2.3854627e+3, 1.4496401e+2, -810351.75, -1442239.9, -150388.4, -0.030210849, -0.3846458, -776385.4, 742941.1, 0.35445413, 10.009333, 9.996301 
2.385408e+3, 1.5496142e+2, -659392.75, -1423615.5, -165018.14, -0.0023148418, -0.26246658, -625282.94, 796068.8, 0.21540934, 10.008684, 9.995847 
2.3853555e+3, 1.6495739e+2, -556525.8, -1347809.3, -77099.625, 0.00006485228, -0.23356318, -549083.5, 774307.8, 0.10598542, 10.0077915, 9.996072 
2.3853043e+3, 1.7495282e+2, -486771.3, -1301261.5, -67377.68, -0.018345512, -0.2868008, -481235.2, 744201.06, 0.03922334, 10.0072155, 9.995995 
2.3852547e+3, 1.8494888e+2, -452133.6, -1213580.1, -13398.84, -0.019039117, -0.27926582, -451897.88, 675577.75, 0.00961866, 10.006478, 9.996279 
2.3852058e+3, 1.9494565e+2, -456857.75, -1169836.6, 8076.808, -0.0020771974, -0.22180365, -456766.25, 572742.5, 0.0011746166, 10.005737, 9.996265 
2.3851584e+3, 2.049425e+2, -433487.06, -954752.56, 104715.22, 0.0215966, -0.21964107, -413237.78, 518302.34, 0.000023768298, 10.004556, 9.99764 
2.3851125e+3, 2.1493946e+2, -562495.25, -964377.94, 116020.625, 0.05234546, -0.2793255, -531406.0, 302163.6, 0.0, 10.002986, 9.997659 
2.3850669e+3, 2.249378e+2, -553798.9, -741012.25, 133267.3, 0.047211308, -0.2750841, -484548.63, 251036.95, 0.0, 10.001646, 9.999165 
2.3850213e+3, 2.3493749e+2, -613237.56, -716530.56, 110095.24, 0.012753347, -0.21300527, -543276.8, 94311.37, 0.0, 10.000553, 9.999187 
2.3849761e+3, 2.4493706e+2, -651936.5, -595642.44, 116118.51, 0.0057775523, -0.20390558, -504308.25, 35284.367, 0.0, 9.999237, 9.999976 
2.3849311e+3, 2.5493643e+2, -779659.1, -607226.7, 132025.8, 0.017734658, -0.25472534, -535759.5, -94160.2, 0.0, 9.997689, 9.99997 
2.384886e+3, 2.6493672e+2, -795954.94, -444013.6, 127583.45, -0.0011711292, -0.26542515, -402629.22, -59032.234, 0.0, 9.99639, 10.001042 
2.3848404e+3, 2.7493787e+2, -865143.8, -431019.53, 141971.36, -0.019448858, -0.24494098, -388713.5, -143127.55, 0.0, 9.99526, 10.001004 
2.384795e+3, 2.8493962e+2, -844505.06, -169513.0, 100322.86, 0.010087424, -0.24697015, -154917.78, -7349.7207, 0.0, 9.993868, 10.002796 
2.3847486e+3, 2.949421e+2, -966915.8, -167832.13, 55809.805, 0.006701303, -0.2661951, -163953.08, -114411.94, 0.0, 9.992312, 10.002887 
2.3847029e+3, 3.049441e+2, -1121751.3, -265000.34, 112826.46, 0.018277533, -0.33066007, -250391.22, -250391.22, 0.0, 9.991112, 10.002467 
2.3846567e+3, 3.149481e+2, -1105121.8, 186544.81, 63874.63, -0.12228326, -0.15128466, 189695.81, 189695.81, 0.0, 9.989335, 10.006415 
2.3955278e+3, 1.3501881e+2, -1407707.8, -1908041.1, -23472.244, 0.14758503, -0.21810946, -1406609.0, 210181.56, 0.4440682, 10.004639, 9.995767 
2.3954688e+3, 1.4501463e+2, -777017.4, -1450396.9, -174738.66, -0.34286416, -0.20631605, -734374.06, 784461.44, 0.31006336, 10.009207, 9.996232 
2.395417e+3, 1.5501004e+2, -638832.1, -1437188.0, -198928.19, 0.056026973, -0.27469754, -592010.6, 828866.1, 0.18215787, 10.008606, 9.995801 
2.3953645e+3, 1.6500565e+2, -548089.2, -1361458.3, -96393.02, 0.14649928, -0.27600712, -536821.6, 786096.8, 0.085281834, 10.007754, 9.995999 
2.3953108e+3, 1.7500225e+2, -492193.94, -1321997.9, -88291.64, -0.07427678, -0.20614734, -482903.7, 742049.4, 0.029225234, 10.00718, 9.9958725 
2.39526e+3, 1.8499832e+2, -436882.06, -1180258.6, -39375.492, -0.10718, -0.20286742, -434802.25, 692190.0, 0.00629951, 10.006449, 9.996524 
2.3952119e+3, 1.9499402e+2, -445342.72, -1139109.4, -17516.006, 0.045868915, -0.27531788, -444900.78, 584133.8, 0.00060875894, 10.005702, 9.996495 
2.3951638e+3, 2.0499104e+2, -429060.5, -941517.8, 47010.117, 0.100381404, -0.27211386, -424783.72, 506279.94, 0.0000059327685, 10.004536, 9.997741 
2.3951155e+3, 2.1498938e+2, -557843.8, -952095.44, 59433.35, 0.054938443, -0.20332432, -549079.06, 284000.34, 0.0, 10.002972, 9.997751 
2.3950681e+3, 2.2498737e+2, -604403.4, -846334.75, 92925.88, 0.013797071, -0.20252815, -572830.8, 162268.73, 0.0, 10.001644, 9.998444 
2.3950212e+3, 2.3498502e+2, -664422.1, -823363.0, 69785.92, -0.021743596, -0.27157634, -638130.44, -1006.67334, 0.0, 10.000553, 9.998456 
2.3949748e+3, 2.4498439e+2, -621983.7, -535583.1, 56221.566, -0.020305386, -0.26644742, -507881.16, 31249.379, 0.0, 9.999242, 10.000388 
2.3949288e+3, 2.5498533e+2, -749332.9, -546977.9, 74230.34, 0.014353427, -0.20218603, -522668.22, -81547.1, 0.0, 9.997698, 10.000381 
2.3948823e+3, 2.6498583e+2, -768523.9, -388723.22, 84210.02, -0.00066736195, -0.22899169, -370889.4, -27774.52, 0.0, 9.996395, 10.00142 
2.3948352e+3, 2.7498612e+2, -831023.25, -364500.25, 98464.055, -0.05522712, -0.3340146, -344569.94, -99459.92, 0.0, 9.995276, 10.001454 
2.3947886e+3, 2.8498846e+2, -905646.25, -299239.16, 41806.234, -0.013358518, -0.25706095, -296370.6, -149282.88, 0.0, 9.993876, 10.001904 
2.3947418e+3, 2.949923e+2, -1041087.06, -329947.8, 5837.95, 0.086664915, -0.053712185, -329899.9, -280846.38, 0.0, 9.992344, 10.00176 
2.3946926e+3, 3.0499238e+2, -1019248.6, -62252.79, 64796.74, -0.10362076, -0.3093546, -57885.434, -57885.434, 0.0, 9.991151, 10.003842 
2.3946458e+3, 3.1499752e+2, -1227913.6, -72471.85, -145270.31, -0.14475496, -0.17791504, -54487.363, -54487.363, 0.0, 9.989348, 10.004632 
2.4055344e+3, 1.350695e+2, -1136892.4, -1883937.4, -13467.823, 0.16660507, -0.20381138, -1136649.6, 479644.78, 0.40759337, 10.008416, 9.994107 
2.405477e+3, 1.4506489e+2, -1007077.94, -1598724.8, -140168.19, -0.28365746, -0.15848184, -975550.44, 542793.4, 0.2780577, 10.006673, 9.996296 
2.4054249e+3, 1.5505992e+2, -741456.44, -1488903.0, -144079.92, 0.04607107, -0.2702398, -714644.94, 705743.06, 0.15784939, 10.00751, 9.995938 
2.4053718e+3, 1.6505541e+2, -568687.25, -1380246.4, -42523.227, 0.13312717, -0.2926946, -566465.25, 755965.25, 0.07010266, 10.007517, 9.995978 
2.4053182e+3, 1.7505196e+2, -544498.6, -1353646.0, -30860.479, -0.033235796, -0.22322835, -543323.4, 681142.0, 0.02199664, 10.00679, 9.995839 
2.4052666e+3, 1.8504807e+2, -516629.1, -1199278.1, 13911.577, -0.061384846, -0.21984388, -516345.7, 610158.1, 0.0040188297, 10.005804, 9.996701 
2.405217e+3, 1.95044e+2, -580797.94, -1185344.8, 28201.732, 0.052018262, -0.28868076, -579485.2, 449058.88, 0.0002764939, 10.004691, 9.996663 
2.4051677e+3, 2.0504108e+2, -536723.5, -1009922.6, 80704.71, 0.08273364, -0.27730265, -523337.84, 407234.8, 0.0000006316619, 10.003871, 9.99759 
2.4051182e+3, 2.1503939e+2, -504525.47, -943147.6, 72207.88, 0.032533035, -0.19559285, -492944.1, 339645.38, 0.0, 10.003414, 9.997598 
2.4050696e+3, 2.2503726e+2, -538370.25, -814595.9, 101961.69, -0.006172913, -0.19707617, -504810.88, 229800.02, 0.0, 10.002103, 9.998439 
2.4050212e+3, 2.3503473e+2, -748996.5, -864290.7, 132758.67, -0.028362913, -0.28318706, -661909.2, -25272.55, 0.0, 9.999977, 9.99845 
2.4049737e+3, 2.4503413e+2, -721293.06, -583475.6, 149337.69, -0.024982877, -0.27236873, -487915.03, 50728.156, 0.0, 9.998563, 10.000385 
2.4049263e+3, 2.550353e+2, -731770.25, -538038.44, 134277.64, 0.0024640244, -0.18161692, -469334.13, -28702.313, 0.0, 9.997819, 10.000383 
2.4048787e+3, 2.6503587e+2, -715091.44, -346988.78, 114679.07, 0.000005753143, -0.2107218, -314184.9, 28440.293, 0.0, 9.996696, 10.00156 
2.4048308e+3, 2.7503604e+2, -830284.75, -347292.78, 107443.34, -0.01868674, -0.33948764, -324470.03, -79849.195, 0.0, 9.995215, 10.001599 
2.4047825e+3, 2.850385e+2, -902686.7, -318089.16, 65448.914, 0.000094159215, -0.24816987, -310851.4, -164253.67, 0.0, 9.99399, 10.001717 
2.4047336e+3, 2.9504243e+2, -972619.25, -317712.25, 86291.49, 0.028180534, -0.014584987, -306533.2, -257969.39, 0.0, 9.992908, 10.001571 
2.4046841e+3, 3.0504242e+2, -929717.7, 52369.855, 152689.44, -0.08086191, -0.30126527, 75561.49, 75561.49, 0.0, 9.99146, 10.00448 
2.4046372e+3, 3.150468e+2, -1231410.0, -252942.63, -108765.74, 0.050225474, -0.31101725, -240998.11, -240998.11, 0.0, 9.990102, 10.003026 
2.4155964e+3, 1.2512313e+2, -968657.7, -1577512.1, -116049.36, 0.04557681, -0.2342991, -947288.4, 766476.6, 0.49778703, 10.012117, 9.996021 
2.415542e+3, 1.3511899e+2, -1062319.1, -1690570.9, -112041.65, 0.09920716, -0.22823723, -1042935.8, 572874.5, 0.38212803, 10.008322, 9.995555 
2.415487e+3, 1.4511497e+2, -973119.3, -1562009.8, -117065.94, 0.06093857, -0.20554681, -950701.1, 567149.3, 0.25502357, 10.006721, 9.996506 
2.4154314e+3, 1.551109e+2, -711467.4, -1445535.4, -118076.39, -0.0341466, -0.25062382, -692942.06, 726945.4, 0.14006194, 10.007484, 9.99624 
2.415378e+3, 1.6510639e+2, -564108.8, -1379725.0, -67691.42, -0.018241948, -0.29191637, -558529.0, 763401.06, 0.05901289, 10.007467, 9.996009 
2.415326e+3, 1.7510186e+2, -543718.25, -1351856.5, -58189.51, 0.09163094, -0.33208394, -539549.9, 684424.3, 0.016857736, 10.006753, 9.995872 
2.415274e+3, 1.8509816e+2, -511634.53, -1186851.6, -26332.43, 0.09880611, -0.31898686, -510609.16, 615401.6, 0.0025237992, 10.005784, 9.9967985 
2.4152212e+3, 1.9509542e+2, -577752.6, -1176152.6, -12083.216, 0.010504779, -0.26199734, -577508.75, 450529.7, 0.00010707104, 10.004675, 9.996736 
2.4151704e+3, 2.0509246e+2, -565681.44, -1069028.1, 64830.688, -0.027509926, -0.23850147, -557465.44, 372603.2, 0.000000005578692, 10.003863, 9.9971895 
2.415121e+3, 2.1508938e+2, -536776.3, -1004734.44, 57098.074, -0.020701317, -0.25388622, -529910.2, 302190.34, 0.0, 10.0033865, 9.99719 
2.4150716e+3, 2.2508743e+2, -491964.3, -715203.5, 23257.209, -0.017183987, -0.2539347, -489567.13, 244552.89, 0.0, 10.002088, 9.99913 
2.4150215e+3, 2.3508653e+2, -702239.3, -766492.0, 54155.156, -0.012341287, -0.24610105, -671398.4, -35270.813, 0.0, 9.999971, 9.999126 
2.4149722e+3, 2.4508616e+2, -751183.8, -646584.4, 119924.266, -0.011040222, -0.22308828, -568051.8, -29920.307, 0.0, 9.998565, 9.999952 
2.4149238e+3, 2.550863e+2, -759378.7, -598857.94, 105152.44, -0.025586635, -0.19514115, -546835.44, -106703.13, 0.0, 9.99783, 9.999962 
2.4148752e+3, 2.650867e+2, -722784.56, -366300.75, 56898.215, -0.0033876614, -0.20970409, -357439.5, -15310.966, 0.0, 9.996707, 10.001425 
2.4148269e+3, 2.750876e+2, -841711.3, -374942.5, 51733.9, 0.081104316, -0.25506607, -369277.38, -125158.37, 0.0, 9.995228, 10.001406 
2.4147768e+3, 2.8508964e+2, -860229.06, -231726.63, 23691.441, 0.04894484, -0.22280195, -230834.83, -84735.88, 0.0, 9.993996, 10.002308 
2.4147244e+3, 2.9509237e+2, -908096.3, -191485.36, 45614.086, -0.16857062, -0.16774577, -188593.58, -140520.72, 0.0, 9.992937, 10.002425 
2.414677e+3, 3.0509433e+2, -936054.94, 31799.963, 90686.83, 0.080214046, -0.30544984, 40223.89, 40223.89, 0.0, 9.991487, 10.004329 
2.414627e+3, 3.1509933e+2, -1145017.1, -85440.07, 50651.26, 0.0074789887, -0.2095351, -83024.28, -83024.28, 0.0, 9.990152, 10.004151 
2.4256018e+3, 1.2517367e+2, -1388245.1, -1781768.4, -48507.348, -0.2918118, -0.27369156, -1382354.1, 330917.88, 0.4804096, 10.005907, 9.996716 
2.4255489e+3, 1.3517016e+2, -1093542.1, -1643515.1, -57661.23, 0.008312568, -0.27025047, -1087561.8, 527744.8, 0.3638657, 10.007467, 9.996236 
2.4254943e+3, 1.451663e+2, -868881.44, -1524304.8, -50158.566, 0.09672189, -0.25492123, -865065.1, 652279.4, 0.23799309, 10.007657, 9.996272 
2.4254388e+3, 1.5516236e+2, -782525.1, -1506763.6, -73384.34, -0.00421109, -0.2620001, -775164.2, 644218.44, 0.12673259, 10.006919, 9.996076 
2.4253848e+3, 1.6515806e+2, -687905.5, -1413896.3, -38279.223, 0.0005114337, -0.28933892, -685892.75, 635531.25, 0.05078362, 10.006392, 9.996289 
2.4253322e+3, 1.751537e+2, -608228.7, -1353246.9, -14554.122, 0.1027393, -0.34075332, -607944.5, 615521.3, 0.013204494, 10.006156, 9.996148 
2.4252793e+3, 1.8515015e+2, -537855.9, -1200699.4, 7396.882, 0.10190123, -0.32368064, -537773.3, 587727.4, 0.0015763666, 10.005607, 9.996786 
2.4252255e+3, 1.9514757e+2, -556088.9, -1167248.0, 10725.427, 0.0043747462, -0.24761362, -555900.7, 471626.47, 0.000034009845, 10.004832, 9.996719 
2.4251738e+3, 2.051446e+2, -588445.94, -1058800.3, 104298.82, -0.04270179, -0.2344246, -566355.6, 363201.78, 0.0, 10.003619, 9.9973755 
2.4251236e+3, 2.1514134e+2, -719607.1, -1072339.9, 136177.08, -0.04146306, -0.28545445, -673152.25, 158438.06, 0.0, 10.0020485, 9.997369 
2.4250728e+3, 2.2513947e+2, -655730.0, -793815.25, 87197.45, -0.0313472, -0.28279233, -613550.9, 120058.0, 0.0, 10.000964, 9.99913 
2.4250215e+3, 2.3513894e+2, -644766.9, -737891.94, 66514.92, -0.00431237, -0.23728727, -610136.4, 25477.162, 0.0, 10.000365, 9.99913 
2.4249712e+3, 2.451385e+2, -660694.94, -606504.9, 130433.31, 0.00043568728, -0.22086719, -500382.06, 37236.375, 0.0, 9.999206, 9.999917 
2.4249214e+3, 2.551381e+2, -805329.9, -624200.2, 144650.58, -0.025322512, -0.23805243, -544102.25, -104478.58, 0.0, 9.997534, 9.999928 
2.4248716e+3, 2.6513872e+2, -791719.06, -405871.47, 112835.805, -0.012717228, -0.22977024, -375296.9, -33678.184, 0.0, 9.996265, 10.001365 
2.4248217e+3, 2.7514023e+2, -837126.4, -381578.38, 111245.055, 0.0700121, -0.20234783, -355863.8, -112259.59, 0.0, 9.995298, 10.001326 
2.4247704e+3, 2.8514192e+2, -801603.5, -179437.72, 81406.85, 0.0329376, -0.21131201, -168962.47, -23375.016, 0.0, 9.994296, 10.0025215 
2.4247171e+3, 2.9514378e+2, -839263.3, -130368.195, 69964.18, -0.20054221, -0.26221296, -123529.086, -75961.22, 0.0, 9.993295, 10.002669 
2.4246694e+3, 3.051469e+2, -887692.9, -15449.638, 46949.508, 0.1452452, -0.26467878, -12929.806, -12929.806, 0.0, 9.9921255, 10.003695 
2.4246152e+3, 3.1515e+2, -1010569.25, 98255.55, 72005.63, -0.17354576, -0.29610825, 102911.945, 102911.945, 0.0, 9.990565, 10.005213 
2.4356118e+3, 1.2522621e+2, -1365780.1, -1770979.3, -17922.682, 0.12611194, -0.3444477, -1364989.0, 347765.28, 0.46724316, 10.0061, 9.996672 
2.4355549e+3, 1.3522278e+2, -1079227.5, -1639957.6, -26952.525, -0.12137909, -0.33332133, -1077935.0, 536851.9, 0.34968087, 10.007492, 9.996234 
2.4354997e+3, 1.4521866e+2, -892777.75, -1616304.6, -76081.02, -0.12431477, -0.31184265, -884864.1, 631964.06, 0.22458851, 10.007638, 9.99566 
2.4354468e+3, 1.5521431e+2, -811911.44, -1592379.6, -98977.03, 0.11833588, -0.29991773, -799555.06, 619318.75, 0.116272576, 10.006908, 9.995499 
2.4353926e+3, 1.6521046e+2, -652981.25, -1346024.4, -44230.523, 0.156666, -0.2804011, -650169.9, 670742.44, 0.044481188, 10.006381, 9.996762 
2.4353375e+3, 1.7520729e+2, -578903.56, -1288461.4, -22489.457, 0.0024594225, -0.25748247, -578191.5, 644750.3, 0.0105686905, 10.006124, 9.996611 
2.4352835e+3, 1.8520388e+2, -550989.6, -1222566.9, -20081.732, -0.0368432, -0.2442689, -550389.6, 574585.8, 0.0009884008, 10.005577, 9.996653 
2.4352305e+3, 1.9520037e+2, -569197.8, -1187931.4, -16476.195, 0.02861213, -0.24713294, -568759.4, 458251.84, 0.000008477819, 10.0048, 9.996595 
2.435178e+3, 2.0519742e+2, -539783.3, -954849.1, 46518.008, 0.026841339, -0.26214552, -534633.75, 394405.97, 0.0, 10.003604, 9.998098 
2.4351256e+3, 2.1519509e+2, -673536.3, -974620.4, 78888.05, -0.038313664, -0.2925613, -654118.8, 176941.58, 0.0, 10.002036, 9.998047 
2.4350733e+3, 2.2519323e+2, -703395.7, -893546.7, 65131.586, -0.05079084, -0.28580433, -683225.9, 49853.152, 0.0, 10.000965, 9.9984455 
2.4350217e+3, 2.3519188e+2, -692492.1, -836905.9, 43599.15, -0.012460296, -0.25439683, -680350.2, -45254.688, 0.0, 10.000361, 9.998454 
2.4349701e+3, 2.4519102e+2, -635281.5, -554329.06, 65499.484, 0.0055055683, -0.26397347, -517808.47, 19296.28, 0.0, 9.999206, 10.000277 
2.4349189e+3, 2.5519073e+2, -780087.94, -573773.0, 81829.85, -0.0029069267, -0.309874, -545258.2, -106151.61, 0.0, 9.9975395, 10.000274 
2.4348675e+3, 2.6519176e+2, -790431.4, -403973.75, 75683.43, -0.031528354, -0.27264848, -389680.63, -48584.348, 0.0, 9.996264, 10.001379 
2.4348156e+3, 2.751939e+2, -832184.3, -375935.5, 74812.42, -0.060728047, -0.18487167, -363981.5, -120904.805, 0.0, 9.995315, 10.001359 
2.4347639e+3, 2.851953e+2, -817185.56, -216811.67, 42218.438, -0.058432918, -0.21381317, -213857.4, -68793.95, 0.0, 9.994313, 10.002258 
2.4347115e+3, 2.9519665e+2, -868522.56, -197067.67, 32309.31, -0.0831667, -0.28945386, -195516.6, -148467.42, 0.0, 9.993317, 10.002202 
2.4346614e+3, 3.0520007e+2, -963244.25, -173619.42, -10508.015, 0.13538383, -0.17598999, -173479.61, -173479.61, 0.0, 9.99213, 10.002606 
2.4346067e+3, 3.1520075e+2, -1059830.6, -19651.984, -41225.445, -0.08031765, -0.35460693, -18020.652, -18020.652, 0.0, 9.990619, 10.004384 
2.4456201e+3, 1.2528032e+2, -1142254.5, -1662606.0, 5621.082, 0.2067305, -0.30790907, -1142193.8, 570030.8, 0.4554038, 10.008989, 9.996306 
2.445563e+3, 1.3527615e+2, -1022436.9, -1634730.4, -14108.892, -0.08275433, -0.3349124, -1022111.94, 592151.94, 0.337204, 10.00809, 9.995982 
2.4455073e+3, 1.4527188e+2, -899298.8, -1614038.5, -65300.574, -0.11541877, -0.323814, -893381.75, 622924.9, 0.21309042, 10.007461, 9.995751 
2.4454536e+3, 1.552678e+2, -773681.56, -1565467.5, -50472.082, 0.12048571, -0.29094553, -770477.2, 647872.56, 0.10757307, 10.007119, 9.995574 
2.4453987e+3, 1.6526416e+2, -628994.2, -1323838.8, 15291.285, 0.15006022, -0.2587001, -628657.9, 691728.8, 0.039459534, 10.006476, 9.996868 
2.4453428e+3, 1.7526115e+2, -641254.9, -1306355.9, 11196.727, -0.018031344, -0.22982351, -641066.44, 581348.9, 0.008620899, 10.005626, 9.996727 
2.4452883e+3, 1.8525784e+2, -643763.25, -1235185.0, 12029.223, -0.054775335, -0.22639395, -643518.7, 480929.03, 0.00062774384, 10.004803, 9.996937 
2.4452348e+3, 1.9525437e+2, -658252.3, -1198353.0, 42045.51, 0.032804705, -0.25284335, -654998.8, 371483.13, 0.00000143848, 10.004056, 9.996879 
2.4451815e+3, 2.0525149e+2, -594529.94, -976950.2, 78111.56, 0.032453734, -0.27538016, -579190.5, 349318.9, 0.0, 10.003216, 9.998132 
2.4451274e+3, 2.1524924e+2, -629178.1, -949672.1, 58544.42, -0.04687782, -0.29932198, -618818.7, 211710.8, 0.0, 10.002328, 9.998076 
2.4450742e+3, 2.2524752e+2, -666561.0, -867459.2, 60747.48, -0.058196183, -0.28420308, -649620.7, 82926.57, 0.0, 10.001187, 9.998515 
2.4450217e+3, 2.352463e+2, -763736.56, -863410.4, 94263.0, -0.0021203852, -0.2430594, -706946.9, -72384.266, 0.0, 9.9998455, 9.998518 
2.4449693e+3, 2.4524553e+2, -701162.5, -582081.1, 120203.12, 0.0149367275, -0.24799307, -507480.53, 29090.557, 0.0, 9.998739, 10.00031 
2.4449165e+3, 2.5524527e+2, -737812.8, -549592.44, 110117.98, -0.0074542896, -0.29264683, -498848.56, -60276.402, 0.0, 9.997815, 10.000306 
2.4448635e+3, 2.6524615e+2, -736669.4, -381228.53, 96120.08, -0.051539928, -0.2723937, -356900.4, -16337.26, 0.0, 9.996651, 10.0013485 
2.4448106e+3, 2.7524787e+2, -839393.56, -382295.7, 90796.65, -0.0933657, -0.22061294, -364920.53, -122373.47, 0.0, 9.995283, 10.001327 
2.4447581e+3, 2.852492e+2, -818283.6, -232223.2, 73939.26, -0.06528541, -0.24397923, -223038.72, -78504.56, 0.0, 9.994372, 10.002123 
2.4447054e+3, 2.952509e+2, -823910.94, -202670.4, 71156.65, -0.02736339, -0.2741015, -194624.36, -148107.02, 0.0, 9.993735, 10.001964 
2.444653e+3, 3.052538e+2, -927120.44, -226825.31, 39508.223, 0.08540746, -0.15839407, -224603.44, -224603.44, 0.0, 9.992684, 10.001972 
2.4445981e+3, 3.1525537e+2, -973312.6, -36459.44, 26114.117, -0.020557964, -0.19413662, -35732.094, -35732.094, 0.0, 9.991473, 10.003851 
2.455627e+3, 1.2533566e+2, -1152441.3, -1703935.3, -14491.567, 0.013979102, -0.1895903, -1152060.8, 559624.7, 0.4427661, 10.0089445, 9.995799 
2.4555725e+3, 1.3533038e+2, -1035804.56, -1698836.4, -35560.54, 0.08366351, -0.27975225, -1033902.75, 579833.3, 0.32483935, 10.00804, 9.995569 
2.4555163e+3, 1.4532602e+2, -860721.6, -1531886.4, -72299.05, 0.06742401, -0.291432, -853021.75, 662757.06, 0.20239682, 10.007432, 9.996337 
2.4554595e+3, 1.5532269e+2, -735944.3, -1484812.0, -60964.977, 0.010443569, -0.24189723, -731013.6, 686798.56, 0.09992668, 10.007086, 9.996148 
2.4554035e+3, 1.6531901e+2, -645270.56, -1359423.6, -13977.626, 0.0035449888, -0.22897379, -644997.1, 674852.06, 0.035298005, 10.006448, 9.996639 
2.4553488e+3, 1.7531526e+2, -658454.4, -1338635.9, -18996.777, 0.030509891, -0.2528776, -657924.25, 563962.7, 0.007142145, 10.005599, 9.99652 
2.455294e+3, 1.8531205e+2, -599278.6, -1141550.3, -14931.328, 0.03065682, -0.26214945, -598867.8, 525049.8, 0.0004079838, 10.004791, 9.997588 
2.4552386e+3, 1.9530948e+2, -618616.9, -1112205.1, 14826.327, 0.010028067, -0.26222488, -618171.94, 407768.4, 0.00000013311487, 10.004036, 9.997482 
2.4551839e+3, 2.0530666e+2, -639844.94, -1068949.0, 45630.38, -0.023823146, -0.27425572, -635046.4, 292921.3, 0.0, 10.003203, 9.997506 
2.4551293e+3, 2.1530375e+2, -674013.6, -1037875.3, 27167.676, -0.07267647, -0.30355987, -671996.4, 158001.67, 0.0, 10.002303, 9.997484 
2.4550752e+3, 2.2530226e+2, -612842.44, -755177.8, 11821.584, -0.057041034, -0.27636665, -611867.3, 120146.44, 0.0, 10.001181, 9.999291 
2.4550217e+3, 2.3530212e+2, -710957.94, -755830.5, 44759.156, 0.020465855, -0.20516875, -683326.56, -49310.637, 0.0, 9.99985, 9.999256 
2.4549678e+3, 2.4530193e+2, -721571.1, -625853.5, 83592.61, 0.02554097, -0.17334971, -577388.94, -41370.477, 0.0, 9.998742, 10.000009 
2.4549139e+3, 2.553017e+2, -757772.56, -593271.75, 73467.12, -0.047274236, -0.18039507, -565238.2, -127217.56, 0.0, 9.997822, 10.000005 
2.4548599e+3, 2.6530173e+2, -743163.8, -396235.66, 42158.21, -0.07531363, -0.2281145, -391186.13, -51166.004, 0.0, 9.996654, 10.001245 
2.4548064e+3, 2.7530196e+2, -845465.56, -397033.34, 41043.375, -0.031248115, -0.3164839, -393307.75, -151290.81, 0.0, 9.99529, 10.001224 
2.4547532e+3, 2.8530365e+2, -813226.2, -223758.66, 49711.65, 0.01917292, -0.30110747, -219595.72, -75595.805, 0.0, 9.994376, 10.002182 
2.454699e+3, 2.9530674e+2, -816541.0, -193155.52, 45259.36, -0.024642853, -0.19585328, -189886.72, -143916.88, 0.0, 9.993756, 10.002022 
2.4546443e+3, 3.053079e+2, -940901.94, -265463.53, -6655.054, -0.054505438, -0.25002384, -265397.97, -265397.97, 0.0, 9.9927225, 10.001691 
2.4545889e+3, 3.153103e+2, -928274.3, 52200.063, 2981.0361, -0.0841271, -0.16960041, 52209.125, 52209.125, 0.0, 9.991501, 10.004443 
2.4656357e+3, 1.2539063e+2, -1143485.3, -1704851.5, -9056.369, 0.030636564, -0.16772279, -1143339.1, 567809.5, 0.4281884, 10.008852, 9.995831 
2.4655809e+3, 1.3538541e+2, -1030005.2, -1692039.3, -8821.805, 0.117973275, -0.2541919, -1029887.6, 583311.0, 0.31171533, 10.00794, 9.995658 
2.4655236e+3, 1.453812e+2, -856540.5, -1501087.3, -22610.828, 0.08422181, -0.27180138, -855748.3, 659491.0, 0.19187057, 10.007241, 9.99665 
2.4654658e+3, 1.5537801e+2, -759118.94, -1464261.5, -22399.217, -0.023636717, -0.23678264, -758408.1, 658861.9, 0.09289071, 10.006717, 9.996464 
2.4654095e+3, 1.6537441e+2, -699154.5, -1393739.3, 14931.843, -0.03396297, -0.22877304, -698833.6, 620472.6, 0.031717815, 10.00608, 9.996579 
2.4653542e+3, 1.753706e+2, -696718.2, -1360809.6, 20323.049, 0.03477626, -0.25169784, -696096.9, 525248.56, 0.005985553, 10.00535, 9.996485 
2.4652983e+3, 1.8536751e+2, -610956.7, -1122691.8, 17434.64, 0.039673258, -0.25679117, -610363.4, 513011.75, 0.00027409632, 10.00461, 9.997803 
2.4652421e+3, 1.9536524e+2, -623931.2, -1092278.4, 13691.706, -0.008116416, -0.24953724, -623531.25, 401863.6, 0.000000007762139, 10.003901, 9.9976845 
2.4651866e+3, 2.0536266e+2, -669244.44, -1063232.0, 50005.207, -0.03569351, -0.25665888, -662996.8, 264423.13, 0.0, 10.002919, 9.997682 
2.4651313e+3, 2.1535993e+2, -745726.4, -1051925.3, 85613.81, -0.045923308, -0.2830846, -723414.44, 106034.15, 0.0, 10.001731, 9.99766 
2.4650764e+3, 2.2535846e+2, -665674.7, -771651.8, 72999.84, -0.03462747, -0.26408014, -628459.25, 103004.695, 0.0, 10.000783, 9.999368 
2.4650213e+3, 2.3535821e+2, -675937.44, -729783.7, 54687.426, 0.0058967657, -0.20985055, -641905.1, -8438.517, 0.0, 10.000053, 9.999335 
2.4649663e+3, 2.453581e+2, -706463.75, -614276.2, 75293.69, 0.0061797015, -0.17555927, -572087.56, -36619.51, 0.0, 9.998831, 10.000044 
2.4649112e+3, 2.5535807e+2, -849325.75, -634077.4, 89425.414, -0.043871477, -0.16813618, -601773.5, -164304.95, 0.0, 9.997184, 10.000029 
2.4648562e+3, 2.6535797e+2, -813021.94, -437414.6, 85649.61, -0.067145735, -0.2222884, -418805.88, -79336.91, 0.0, 9.996209, 10.001175 
2.4648018e+3, 2.7535796e+2, -781949.25, -375840.44, 85781.61, -0.01890236, -0.32556418, -358464.4, -116996.375, 0.0, 9.995765, 10.0011425 
2.4647479e+3, 2.853598e+2, -747158.9, -210661.66, 84744.33, 0.03552674, -0.28152853, -197593.86, -54144.035, 0.0, 9.994913, 10.002011 
2.4646924e+3, 2.9536304e+2, -836700.7, -216677.8, 57538.438, -0.0354476, -0.14467992, -211383.4, -165964.53, 0.0, 9.993686, 10.001889 
2.464636e+3, 3.0536294e+2, -925496.25, -271435.72, 14812.6, -0.14598013, -0.3093198, -271100.44, -271100.44, 0.0, 9.992893, 10.001564 
2.4645813e+3, 3.1536558e+2, -771264.9, 131087.75, 3114.3838, -0.03150565, -0.19387297, 131098.5, 131098.5, 0.0, 9.992566, 10.004471 
2.4756463e+3, 1.2544541e+2, -1113731.9, -1670687.1, -27454.336, 0.19390872, -0.21891558, -1112381.9, 598230.94, 0.41136798, 10.008807, 9.9962435 
2.4755876e+3, 1.3544112e+2, -999806.44, -1633579.5, -29339.707, 0.032097444, -0.25438267, -998451.1, 614201.8, 0.2974901, 10.007917, 9.996073 
2.4755296e+3, 1.4543723e+2, -842265.1, -1490521.5, -38457.72, -0.03715492, -0.26477972, -839991.56, 674698.56, 0.18117523, 10.00724, 9.99674 
2.4754727e+3, 1.554338e+2, -748882.06, -1450670.1, -40144.12, 0.0046177465, -0.26563874, -746593.2, 670130.1, 0.086185366, 10.006705, 9.996566 
2.4754158e+3, 1.6543035e+2, -693709.75, -1383603.0, -11310.79, 0.015916735, -0.24972299, -693524.3, 625233.6, 0.028529018, 10.0060625, 9.996658 
2.4753588e+3, 1.754271e+2, -693571.8, -1350228.5, -5875.092, -0.007395146, -0.22605659, -693519.25, 527272.7, 0.005051231, 10.005324, 9.996572 
2.4753022e+3, 1.8542412e+2, -627274.0, -1153681.8, -7120.5547, -0.021235095, -0.21540932, -627177.7, 495644.1, 0.00019149756, 10.004593, 9.997601 
2.4752459e+3, 1.9542152e+2, -640143.3, -1120039.3, -11014.856, -0.026353654, -0.2178714, -639890.6, 384955.7, 0.00000000024641142, 10.003872, 9.99751 
2.4751897e+3, 2.0541935e+2, -608483.1, -934155.1, 6465.492, -0.00901215, -0.2235127, -608354.8, 318511.94, 0.0, 10.002903, 9.998577 
2.4751338e+3, 2.1541762e+2, -689124.75, -931761.9, 42525.3, 0.02425312, -0.23900065, -681887.5, 146995.03, 0.0, 10.001716, 9.998494 
2.4750774e+3, 2.2541597e+2, -707365.1, -858452.6, 45822.305, 0.0046153795, -0.24779622, -694554.25, 36344.87, 0.0, 10.000781, 9.998775 
2.4750204e+3, 2.3541452e+2, -715644.44, -812139.4, 26156.08, -0.052890684, -0.25446236, -709010.6, -76095.44, 0.0, 10.00005, 9.998774 
2.4749646e+3, 2.4541396e+2, -682014.9, -563648.8, 11663.656, -0.044744827, -0.2552403, -562510.44, -27589.82, 0.0, 9.998828, 10.000394 
2.4749087e+3, 2.5541413e+2, -825233.75, -585763.06, 28632.848, -0.0015389133, -0.26047742, -582387.1, -145470.2, 0.0, 9.997188, 10.0003605 
2.4748525e+3, 2.654148e+2, -815235.5, -443065.3, 67539.5, -0.028873906, -0.25545853, -431187.66, -92277.32, 0.0, 9.996209, 10.001139 
2.4747969e+3, 2.75416e+2, -783711.94, -384620.22, 68557.516, -0.06586648, -0.23465492, -373171.56, -132272.02, 0.0, 9.995783, 10.001076 
2.474742e+3, 2.8541765e+2, -779687.75, -283272.78, 35685.855, -0.028833598, -0.18057904, -280720.53, -137836.11, 0.0, 9.994932, 10.001506 
2.4746856e+3, 2.9541945e+2, -859863.9, -268423.78, 7968.3896, -0.07851981, -0.13325948, -268316.44, -223448.84, 0.0, 9.993699, 10.00153 
2.4746287e+3, 3.0541927e+2, -912399.0, -244004.56, -1839.2152, -0.15983522, -0.3042604, -243999.5, -243999.5, 0.0, 9.99289, 10.001755 
2.4745749e+3, 3.1542113e+2, -799993.9, 40093.77, -42039.523, 0.06855913, -0.26711777, 42192.26, 42192.26, 0.0, 9.992669, 10.003813 
2.4856552e+3, 1.2550212e+2, -1078474.5, -1666462.8, 21039.36, 0.2286458, -0.2507937, -1077722.6, 632333.44, 0.39242914, 10.009022, 9.996172 
2.4855955e+3, 1.3549803e+2, -955531.25, -1620286.5, 5792.7935, 0.016475374, -0.25579795, -955480.75, 656614.3, 0.2821135, 10.008243, 9.996007 
2.4855366e+3, 1.454941e+2, -826425.75, -1511346.9, -14631.542, -0.05801955, -0.2515272, -826113.3, 688020.3, 0.17015989, 10.007431, 9.996469 
2.4854793e+3, 1.5549041e+2, -771717.9, -1489823.8, -38411.305, 0.020798009, -0.25140065, -769669.1, 646501.56, 0.079643875, 10.006611, 9.99634 
2.4854219e+3, 1.6548708e+2, -694281.06, -1340236.8, -9381.806, 0.039070852, -0.23580226, -694144.8, 624059.2, 0.025607238, 10.005856, 9.997056 
2.4853641e+3, 1.7548423e+2, -690743.2, -1306836.5, 14759.559, -0.002379487, -0.21014704, -690389.8, 529842.56, 0.0042723827, 10.005159, 9.99695 
2.4853067e+3, 1.8548134e+2, -672875.75, -1172454.8, 26089.412, -0.023500353, -0.20734295, -671517.0, 450743.84, 0.00013882564, 10.004269, 9.997627 
2.4852493e+3, 1.9547859e+2, -732239.94, -1158242.8, 36153.016, -0.023719324, -0.2273017, -729193.56, 295094.25, 0.00000000017417703, 10.003221, 9.997557 
2.4851921e+3, 2.0547663e+2, -672799.9, -939143.2, 36074.344, -0.009161495, -0.22455783, -668000.4, 258306.19, 0.0, 10.002353, 9.998806 
2.4851352e+3, 2.1547543e+2, -683154.4, -903936.1, 23520.754, 0.01861405, -0.21003026, -680676.4, 147640.77, 0.0, 10.00165, 9.998715 
2.4850778e+3, 2.254739e+2, -716104.44, -855126.8, 31500.584, -0.0022189103, -0.22050843, -709299.9, 21032.426, 0.0, 10.000692, 9.998837 
2.4850203e+3, 2.3547223e+2, -788053.6, -840342.25, 58042.74, -0.056192115, -0.2545929, -750538.8, -118188.67, 0.0, 9.99953, 9.998828 
2.4849631e+3, 2.4547148e+2, -692750.06, -568431.6, 49840.637, -0.040309306, -0.27454722, -550917.4, -16560.494, 0.0, 9.998756, 10.000394 
2.4849065e+3, 2.5547156e+2, -666451.44, -510130.8, 39379.824, 0.021955866, -0.29065344, -500770.8, -64416.95, 0.0, 9.998284, 10.00035 
2.4848494e+3, 2.654723e+2, -685037.56, -397731.13, 62759.582, -0.010948107, -0.26631993, -384620.13, -46273.414, 0.0, 9.997183, 10.000978 
2.4847922e+3, 2.7547368e+2, -831522.6, -424368.97, 52898.055, -0.07935495, -0.20639831, -417608.6, -177273.78, 0.0, 9.995533, 10.000918 
2.4847361e+3, 2.8547525e+2, -861514.8, -321892.3, 40780.645, -0.047728848, -0.15637365, -318827.84, -176507.0, 0.0, 9.99437, 10.001509 
2.4846794e+3, 2.9547673e+2, -867201.1, -268569.7, 52283.39, -0.0559323, -0.13965654, -264037.66, -219731.55, 0.0, 9.993633, 10.001561 
2.4846216e+3, 3.0547678e+2, -846484.9, -171316.14, 77597.75, -0.15656771, -0.31362957, -162512.56, -162512.56, 0.0, 9.993175, 10.002113 
2.4845669e+3, 3.154777e+2, -820885.25, 9038.037, 29740.875, 0.023739371, -0.40005016, 10102.457, 10102.457, 0.0, 9.992623, 10.003617 
2.4956633e+3, 1.255604e+2, -1080627.3, -1706808.1, 1162.7533, 0.15499918, -0.2620123, -1080625.0, 628857.6, 0.37165424, 10.008972, 9.995736 
2.4956037e+3, 1.3555603e+2, -963688.75, -1685480.4, -14680.245, 0.0502497, -0.25408092, -963390.3, 648136.0, 0.26569626, 10.00824, 9.995562 
2.4955444e+3, 1.4555177e+2, -851318.8, -1599558.3, -39946.395, -0.0057569966, -0.22952758, -849192.25, 664377.9, 0.15880989, 10.007441, 9.99586 
2.4954858e+3, 1.5554775e+2, -800881.0, -1565483.0, -63029.11, 0.01859763, -0.20210592, -795720.1, 619892.56, 0.07319445, 10.006607, 9.995825 
2.4954274e+3, 1.6554445e+2, -649829.6, -1249424.4, -31120.652, 0.03736196, -0.19436471, -648218.7, 669426.3, 0.022882553, 10.005843, 9.997698 
2.4953693e+3, 1.7554186e+2, -652452.94, -1221352.9, -9762.466, 0.04045706, -0.2031788, -652285.44, 567381.9, 0.003606852, 10.005127, 9.997555 
2.495311e+3, 1.8553913e+2, -660599.94, -1142286.6, -12560.842, 0.02339068, -0.22725411, -660272.6, 461420.44, 0.00010318653, 10.004244, 9.997848 
2.4952525e+3, 1.9553638e+2, -719839.4, -1129275.8, -1498.042, -0.0082336925, -0.27102998, -719833.9, 303886.28, 0.00000000005180779, 10.003202, 9.997767 
2.4951941e+3, 2.0553443e+2, -700169.6, -995974.75, 10683.3955, -0.03718869, -0.25597885, -699784.3, 225955.81, 0.0, 10.002349, 9.99842 
2.4951358e+3, 2.1553327e+2, -708991.8, -955255.4, -1200.6603, -0.06624596, -0.19729383, -708985.94, 118766.984, 0.0, 10.0016365, 9.998373 
2.4950778e+3, 2.2553217e+2, -670278.0, -759254.2, -10700.786, -0.054864787, -0.18340743, -669009.2, 60754.72, 0.0, 10.000687, 9.9995 
2.49502e+3, 2.3553124e+2, -745358.7, -752929.56, 15782.316, -0.009301259, -0.21053955, -732914.2, -101141.85, 0.0, 9.999532, 9.999429 
2.4949624e+3, 2.4553058e+2, -716379.4, -619901.7, 30341.34, 0.015534441, -0.23243767, -611153.0, -77375.13, 0.0, 9.998764, 10.000038 
2.4949045e+3, 2.5553024e+2, -688089.56, -560764.5, 19124.5, 0.015650228, -0.25359988, -557954.0, -122174.234, 0.0, 9.998305, 9.999994 
2.4948461e+3, 2.655304e+2, -704548.3, -442589.75, -2139.9336, -0.017098371, -0.25389653, -442572.28, -104793.25, 0.0, 9.997197, 10.000665 
2.4947879e+3, 2.75531e+2, -848186.9, -460779.8, -10907.9375, -0.05850671, -0.24463803, -460472.94, -220697.42, 0.0, 9.995538, 10.000668 
2.4947307e+3, 2.855325e+2, -821302.5, -237078.45, 10760.133, -0.019962285, -0.21798931, -236880.34, -95119.69, 0.0, 9.994361, 10.002098 
2.4946736e+3, 2.9553488e+2, -834164.44, -201517.89, 30840.133, 0.023858326, -0.17154953, -200018.05, -156283.25, 0.0, 9.993636, 10.002022 
2.4946147e+3, 3.0553532e+2, -822774.2, -128899.82, 59832.7, -0.12178025, -0.3343098, -123778.26, -123778.26, 0.0, 9.9932, 10.002395 
2.4945581e+3, 3.1553915e+2, -826341.9, -6364.904, -25512.74, -0.09680587, -0.16397989, -5571.868, -5571.868, 0.0, 9.9926405, 10.003504 
2.5056714e+3, 1.2561871e+2, -1050847.0, -1707158.0, -2819.7874, 0.061476268, -0.28942895, -1050834.9, 658076.7, 0.3494281, 10.009068, 9.9956875 
2.505612e+3, 1.3561492e+2, -910609.44, -1663548.0, -4372.927, 0.050996542, -0.21694984, -910584.0, 700366.4, 0.24846846, 10.008595, 9.99554 
2.5055522e+3, 1.4561073e+2, -791214.44, -1564200.1, -6413.3887, 0.02275639, -0.18660332, -791161.25, 721832.44, 0.14721254, 10.007829, 9.995912 
2.5054926e+3, 1.5560636e+2, -759890.7, -1539246.4, 12675.659, 0.020785144, -0.1974588, -759684.56, 655354.7, 0.06683289, 10.006849, 9.995885 
2.505433e+3, 1.6560291e+2, -661670.25, -1252762.0, 41328.9, 0.027672177, -0.2060217, -658794.5, 658278.06, 0.020321073, 10.005739, 9.997721 
2.505374e+3, 1.7560034e+2, -736963.25, -1256862.6, 22474.174, 0.033055052, -0.21607877, -735993.56, 483100.9, 0.0030283395, 10.004524, 9.997598 
2.505315e+3, 1.8559778e+2, -728344.2, -1156516.8, 8159.86, 0.026017295, -0.23108721, -728188.7, 392929.66, 0.00007711042, 10.003703, 9.998008 
2.5052556e+3, 1.9559537e+2, -708970.7, -1105926.4, 12983.603, 0.012239014, -0.25577593, -708546.5, 314596.0, 0.0000000000010010511, 10.003201, 9.997927 
2.5051963e+3, 2.055935e+2, -697583.5, -987646.56, 34739.23, -0.017137052, -0.24404337, -693481.0, 231681.05, 0.0, 10.00234, 9.99848 
2.5051373e+3, 2.1559218e+2, -767613.6, -975219.5, 51499.246, -0.05745663, -0.20511559, -755540.7, 71635.87, 0.0, 10.0012045, 9.998441 
2.5050783e+3, 2.2559124e+2, -705854.9, -753126.4, 40757.914, -0.047434386, -0.18761992, -682375.3, 46810.457, 0.0, 10.000345, 9.999705 
2.50502e+3, 2.3559071e+2, -706745.94, -712101.3, 35224.766, 0.008247225, -0.19463713, -674097.2, -42907.44, 0.0, 9.999704, 9.999624 
2.504961e+3, 2.4559018e+2, -727757.75, -634792.94, 49234.37, 0.019432336, -0.20586924, -613565.44, -80371.44, 0.0, 9.998731, 9.999949 
2.5049022e+3, 2.555898e+2, -815620.0, -632261.8, 55624.035, -0.007887064, -0.22148204, -616707.1, -181510.05, 0.0, 9.9974785, 9.9999 
2.504843e+3, 2.6558974e+2, -782191.44, -490675.97, 46202.746, -0.02173128, -0.23247617, -483528.47, -146329.94, 0.0, 9.996715, 10.000566 
2.5047842e+3, 2.7558994e+2, -741621.1, -418913.44, 51619.78, -0.00977448, -0.25180387, -410857.53, -171659.03, 0.0, 9.996312, 10.000581 
2.5047255e+3, 2.855912e+2, -633235.1, -140406.55, 64711.008, 0.00075747, -0.24552114, -132051.31, 9134.174, 0.0, 9.995628, 10.002149 
2.504667e+3, 2.9559362e+2, -681614.3, -128680.41, 43720.066, -0.024353793, -0.2014532, -125244.836, -82085.695, 0.0, 9.99469, 10.00201 
2.504609e+3, 3.0559483e+2, -789349.44, -98904.98, 45417.66, -0.037809443, -0.29135662, -95930.2, -95930.2, 0.0, 9.99337, 10.002517 
2.50455e+3, 3.1559935e+2, -970466.9, -77329.54, -33779.72, -0.10620517, -0.06665898, -76053.766, -76053.766, 0.0, 9.991664, 10.003484 
2.515679e+3, 1.2567706e+2, -1022068.9, -1684871.1, -15307.473, -0.065274864, -0.32852882, -1021715.56, 686626.2, 0.32622626, 10.008998, 9.995943 
2.51562e+3, 1.3567461e+2, -888557.94, -1630135.1, -16322.062, 0.020847205, -0.15009093, -888198.9, 722168.9, 0.23074904, 10.008513, 9.995809 
2.5155598e+3, 1.4567079e+2, -755357.9, -1490566.4, -37085.85, 0.029897856, -0.12539843, -753491.9, 758914.06, 0.1355232, 10.007758, 9.996476 
2.515499e+3, 1.5566607e+2, -728411.6, -1469858.6, -21203.428, 0.021591049, -0.2289585, -727805.8, 686646.56, 0.06059784, 10.0068035, 9.996385 
2.5154382e+3, 1.6566233e+2, -697502.1, -1327720.5, -2496.369, 0.006633287, -0.26114884, -697492.2, 618996.0, 0.017911838, 10.005723, 9.997207 
2.515378e+3, 1.7565954e+2, -767363.0, -1322775.8, -18488.1, -0.02324944, -0.24541491, -766748.25, 451766.28, 0.0025209885, 10.004529, 9.997145 
2.515318e+3, 1.8565722e+2, -720033.75, -1142410.3, -7988.955, -0.012049306, -0.2207521, -719882.7, 400654.7, 0.000056769743, 10.003712, 9.998103 
2.5152588e+3, 1.9565544e+2, -705175.56, -1093394.3, -4556.6533, 0.03137448, -0.18947378, -705122.1, 317433.78, 0.0, 10.003177, 9.998027 
2.5151992e+3, 2.056537e+2, -668679.44, -924798.6, -6825.244, 0.04550134, -0.19364817, -668497.7, 256075.64, 0.0, 10.002324, 9.9989195 
2.5151393e+3, 2.1565208e+2, -741235.4, -918619.6, 11206.504, 0.034998726, -0.23002556, -740530.2, 86058.62, 0.0, 10.001192, 9.998837 
2.515079e+3, 2.2565104e+2, -721501.25, -786810.1, 17259.754, 0.014210245, -0.22929178, -717220.5, 11378.21, 0.0, 10.000347, 9.9994755 
2.5150192e+3, 2.3565055e+2, -720512.44, -741914.75, 10124.889, -0.01233935, -0.20703451, -716481.7, -85878.56, 0.0, 9.999706, 9.99942 
2.514959e+3, 2.4565025e+2, -716262.1, -612116.3, 433.0709, -0.031166665, -0.19574267, -612114.5, -79508.51, 0.0, 9.998732, 10.000107 
2.5148988e+3, 2.5565022e+2, -805084.06, -611227.25, 9311.422, -0.05366545, -0.19396906, -610781.06, -176174.72, 0.0, 9.997478, 10.000046 
2.5148395e+3, 2.656503e+2, -773798.94, -473901.16, 30430.693, -0.027874764, -0.2023404, -470844.5, -134238.83, 0.0, 9.996713, 10.000683 
2.514781e+3, 2.7565056e+2, -732453.2, -406693.9, 37004.313, 0.056310937, -0.22770087, -402543.3, -163939.64, 0.0, 9.996337, 10.000655 
2.5147212e+3, 2.8565145e+2, -667989.1, -221975.8, 28677.932, 0.01185753, -0.23131837, -220139.42, -79544.5, 0.0, 9.995665, 10.001574 
2.51466e+3, 2.956531e+2, -709958.9, -198200.3, 6293.5938, -0.20005353, -0.20546716, -198122.92, -155544.73, 0.0, 9.994732, 10.001514 
2.514603e+3, 3.0565503e+2, -775909.5, -75050.4, -19572.713, 0.060308028, -0.20805584, -74504.22, -74504.22, 0.0, 9.993382, 10.002677 
2.5145411e+3, 3.1565645e+2, -969008.5, -59818.816, -22076.479, -0.13619827, -0.31323895, -59283.082, -59283.082, 0.0, 9.991612, 10.003623 
2.5256878e+3, 1.2573776e+2, -997714.8, -1663294.6, 18163.58, -0.053650774, -0.25683507, -997219.5, 710529.9, 0.30253866, 10.008871, 9.996207 
2.525628e+3, 1.3573466e+2, -960760.56, -1655305.8, 19677.621, 0.013154562, -0.16461276, -960203.5, 649576.6, 0.21287069, 10.0076065, 9.996074 
2.5255668e+3, 1.4573094e+2, -862907.0, -1523917.1, -1969.091, 0.023355667, -0.1555946, -862901.1, 648915.44, 0.1239136, 10.00672, 9.99672 
2.5255054e+3, 1.5572684e+2, -800175.4, -1481656.9, -4917.1553, 0.031122904, -0.22025552, -800139.9, 613716.5, 0.054544903, 10.006138, 9.996621 
2.5254437e+3, 1.657233e+2, -713457.75, -1332044.1, 23244.871, 0.021422297, -0.24663061, -712585.5, 603304.8, 0.015656285, 10.005587, 9.997241 
2.5253826e+3, 1.7572032e+2, -687577.44, -1279483.5, 42351.855, -0.009304621, -0.24820188, -684562.44, 533356.0, 0.0020756633, 10.00506, 9.997185 
2.5253218e+3, 1.8571799e+2, -678713.6, -1126500.0, 58083.887, -0.007480298, -0.22405168, -671302.06, 448639.78, 0.000040523177, 10.004018, 9.998063 
2.5252613e+3, 1.9571628e+2, -792439.6, -1137924.4, 51598.97, 0.02285629, -0.18195966, -784897.8, 237062.36, 0.0, 10.002592, 9.998 
2.5252008e+3, 2.0571455e+2, -738956.56, -949921.6, 42433.62, 0.045172676, -0.18422562, -730741.4, 193236.11, 0.0, 10.001808, 9.998994 
2.5251403e+3, 2.1571295e+2, -688666.5, -883415.94, 32582.563, 0.061303232, -0.22632527, -683359.9, 142632.86, 0.0, 10.001515, 9.99892 
2.5250795e+3, 2.2571194e+2, -669596.8, -755547.1, 31279.473, 0.03776993, -0.22877972, -659418.7, 68583.42, 0.0, 10.000682, 9.999526 
2.5250185e+3, 2.3571151e+2, -755986.06, -753182.2, 43559.63, -0.009780729, -0.20479299, -711001.94, -80996.164, 0.0, 9.999442, 9.999469 
2.5249577e+3, 2.4571116e+2, -731222.4, -616156.5, 40368.465, -0.03042486, -0.19985008, -603406.8, -71397.69, 0.0, 9.99862, 10.000131 
2.5248966e+3, 2.55711e+2, -711821.1, -561790.3, 38309.69, -0.03991453, -0.21274762, -552574.25, -118563.19, 0.0, 9.998104, 10.000081 
2.5248364e+3, 2.6571125e+2, -685465.6, -414291.44, 61858.094, -0.024138223, -0.21299237, -400847.38, -64839.027, 0.0, 9.997252, 10.000829 
2.5247768e+3, 2.7571195e+2, -755605.0, -404426.44, 68454.66, 0.043841545, -0.20928444, -391554.5, -153553.23, 0.0, 9.996126, 10.000769 
2.5247166e+3, 2.8571275e+2, -761579.8, -290273.84, 70096.66, 0.008646651, -0.21535122, -280069.4, -140076.03, 0.0, 9.995129, 10.00136 
2.5246543e+3, 2.9571375e+2, -804438.56, -264585.38, 73101.52, -0.19225863, -0.22934742, -254861.83, -212878.47, 0.0, 9.99418, 10.001323 
2.524596e+3, 3.0571604e+2, -756005.1, -58589.51, 46629.504, 0.028290661, -0.18947163, -55485.656, -55485.656, 0.0, 9.993496, 10.002732 
2.5245333e+3, 3.1571808e+2, -768466.4, -12599.0, 65714.586, -0.15702738, -0.23575628, -6928.362, -6928.362, 0.0, 9.993206, 10.003177 
2.5356975e+3, 1.2580031e+2, -969737.3, -1639076.6, -14038.866, 0.051540095, -0.099350296, -969442.94, 737695.9, 0.2788114, 10.008785, 9.996462 
2.5356355e+3, 1.3579507e+2, -935021.06, -1622502.4, -13382.448, 0.016223418, -0.24822806, -934760.7, 674427.2, 0.19512625, 10.0075865, 9.996309 
2.5355732e+3, 1.4579125e+2, -855521.7, -1530110.4, -20102.037, 0.0016259825, -0.25781864, -854923.2, 656301.7, 0.11253896, 10.006729, 9.996676 
2.5355116e+3, 1.5578856e+2, -797302.56, -1482520.6, -22410.557, 0.04364664, -0.17685464, -796570.44, 616681.6, 0.04873112, 10.006129, 9.996622 
2.5354496e+3, 1.6578558e+2, -682330.2, -1264577.9, 6230.7397, 0.06436955, -0.17342639, -682263.5, 633016.9, 0.013561735, 10.00556, 9.997724 
2.5353882e+3, 1.7578256e+2, -665708.9, -1221787.8, 21273.564, 0.060927935, -0.22770947, -664896.2, 552411.7, 0.0016875903, 10.005002, 9.99761 
2.535326e+3, 1.8577997e+2, -696343.3, -1155976.5, 4917.7676, 0.030898834, -0.23940721, -696290.75, 423042.56, 0.000027817368, 10.003983, 9.997878 
2.5352633e+3, 1.957778e+2, -805225.3, -1164708.5, 2999.5957, -0.0174942, -0.22508536, -805200.25, 216155.83, 0.0, 10.002589, 9.997819 
2.535202e+3, 2.0577604e+2, -755912.4, -988457.6, 32919.94, -0.015751926, -0.20984992, -751341.94, 172032.89, 0.0, 10.001819, 9.998727 
2.5351414e+3, 2.1577469e+2, -706178.3, -918092.3, 21481.836, 0.018592397, -0.19784804, -704022.6, 121366.6, 0.0, 10.001504, 9.998691 
2.5350797e+3, 2.2577386e+2, -649578.44, -713549.9, -14189.451, 0.023484576, -0.18922594, -646572.3, 80824.48, 0.0, 10.000675, 9.999819 
2.5350177e+3, 2.3577352e+2, -738364.1, -716797.75, -944.8556, 0.011669637, -0.18645406, -716756.44, -87358.35, 0.0, 9.999438, 9.999722 
2.5349566e+3, 2.4577285e+2, -738924.75, -633841.25, 19716.357, 0.019257804, -0.21729591, -630263.75, -98859.94, 0.0, 9.998625, 10.000009 
2.5348952e+3, 2.5577205e+2, -715718.56, -574705.9, 17071.576, 0.026649829, -0.27912298, -572668.5, -139256.67, 0.0, 9.998121, 9.999986 
2.5348336e+3, 2.6577252e+2, -672600.94, -391538.47, 17678.334, -0.012283758, -0.26494727, -390430.88, -55023.68, 0.0, 9.997264, 10.000982 
2.534772e+3, 2.7577403e+2, -743649.0, -381981.44, 25981.537, -0.053682916, -0.19313237, -380124.5, -142732.92, 0.0, 9.996132, 10.000922 
2.534711e+3, 2.8577498e+2, -751943.7, -268089.22, 32432.408, -0.015847897, -0.20105074, -265925.0, -126543.59, 0.0, 9.995115, 10.00152 
2.5346503e+3, 2.9577538e+2, -797846.3, -248220.7, 37849.402, -0.01133209, -0.29200423, -245626.48, -204250.34, 0.0, 9.994164, 10.001444 
2.534588e+3, 3.0577803e+2, -763706.8, -73736.26, 31751.518, -0.11145344, -0.21534379, -72278.18, -72278.18, 0.0, 9.993488, 10.002633 
2.5345272e+3, 3.1578162e+2, -847462.7, -228531.95, 90137.055, -0.089981295, -0.089223795, -215672.17, -215672.17, 0.0, 9.993387, 10.001629 
2.545706e+3, 1.2586237e+2, -986294.06, -1666685.9, 30842.008, 0.057665978, -0.13419719, -984898.8, 721630.44, 0.25540227, 10.008468, 9.996342 
2.5456434e+3, 1.3585734e+2, -900053.2, -1616793.3, 15496.598, 0.056539577, -0.24864998, -899718.3, 708858.94, 0.17774418, 10.007786, 9.996249 
2.54558e+3, 1.4585364e+2, -794758.9, -1476845.9, 20174.922, 0.029779231, -0.25686076, -794162.7, 716450.3, 0.10151898, 10.007013, 9.996927 
2.5455174e+3, 1.5585099e+2, -771226.56, -1444035.9, 37169.848, 0.030404525, -0.19399011, -769179.3, 643459.44, 0.043200027, 10.006178, 9.9968605 
2.5454548e+3, 1.6584814e+2, -751404.2, -1301074.4, 49602.918, 0.048799183, -0.18746, -746963.9, 567702.56, 0.011633959, 10.005086, 9.997696 
2.5453925e+3, 1.7584527e+2, -838253.3, -1305650.3, 30415.754, 0.071045466, -0.2244878, -836282.4, 380411.5, 0.0013537132, 10.003818, 9.997604 
2.5453296e+3, 1.8584272e+2, -790895.75, -1180432.8, 22414.85, 0.041516323, -0.23836748, -789610.25, 329108.38, 0.000018404051, 10.003245, 9.998064 
2.5452662e+3, 1.9584058e+2, -707185.6, -1097358.6, 43693.7, -0.02179522, -0.24042715, -702352.44, 318387.94, 0.0, 10.0031805, 9.997995 
2.545204e+3, 2.058389e+2, -688069.75, -956441.2, 88238.625, -0.027747996, -0.22227742, -661657.0, 261101.03, 0.0, 10.002293, 9.998715 
2.5451425e+3, 2.158377e+2, -807545.1, -967329.56, 93743.695, 0.0076739606, -0.1922849, -764268.1, 60503.098, 0.0, 10.000814, 9.998682 
2.5450802e+3, 2.2583677e+2, -735529.44, -759594.2, 60501.293, 0.021180589, -0.18882827, -685875.6, 40904.383, 0.0, 10.000111, 9.999773 
2.5450176e+3, 2.3583613e+2, -665583.8, -684883.56, 48042.566, 0.025115684, -0.20919894, -626231.56, 2552.782, 0.0, 9.999958, 9.999687 
2.5449553e+3, 2.4583556e+2, -672313.4, -595705.5, 57209.473, 0.0368855, -0.23246107, -565160.94, -34371.555, 0.0, 9.999062, 10.000057 
2.544893e+3, 2.558351e+2, -787443.7, -604683.9, 66320.78, 0.045983255, -0.26407626, -583153.5, -150359.44, 0.0, 9.997614, 10.000022 
2.5448304e+3, 2.658354e+2, -726992.0, -424577.3, 73251.22, -0.0031278294, -0.25864345, -407768.6, -72978.3, 0.0, 9.996925, 10.0009165 
2.5447682e+3, 2.758365e+2, -659431.94, -347369.97, 61525.19, -0.06678521, -0.22412357, -335677.94, -98899.24, 0.0, 9.996741, 10.000864 
2.5447062e+3, 2.858374e+2, -650855.44, -214314.6, 36848.332, -0.030551849, -0.23375095, -211226.08, -72457.37, 0.0, 9.995792, 10.001561 
2.5446442e+3, 2.9583818e+2, -775033.25, -233553.52, 35648.168, 0.007973696, -0.29538393, -231216.72, -190456.31, 0.0, 9.994309, 10.001473 
2.544581e+3, 3.0584046e+2, -733624.2, -73785.72, 54360.37, -0.12562877, -0.2440264, -69337.266, -69337.266, 0.0, 9.993768, 10.002493 
2.5445205e+3, 3.1584197e+2, -895960.75, -282816.25, 84843.516, -0.053789705, -0.31152087, -271292.66, -271292.66, 0.0, 9.993203, 10.001336 
2.5557137e+3, 1.2592421e+2, -990525.0, -1713098.0, 11494.267, -0.022527313, -0.30612037, -990342.2, 715576.7, 0.232563, 10.008422, 9.995951 
2.5556517e+3, 1.3592124e+2, -913924.44, -1668363.1, -2013.662, 0.11872793, -0.17872383, -913919.06, 694031.6, 0.1608874, 10.007702, 9.995937 
2.5555876e+3, 1.4591776e+2, -765665.25, -1418696.6, -5775.144, 0.09019141, -0.17547278, -765614.2, 744370.0, 0.09093936, 10.006937, 9.997403 
2.555523e+3, 1.559141e+2, -749082.25, -1392085.3, 7089.2627, -0.009687254, -0.26323122, -749004.1, 663013.56, 0.037982278, 10.00612, 9.997253 
2.5554588e+3, 1.6591097e+2, -786007.06, -1371830.0, 3701.07, -0.018790644, -0.27336493, -785983.7, 528064.9, 0.009875879, 10.005068, 9.997219 
2.5553957e+3, 1.7590839e+2, -861998.06, -1361163.9, -10327.159, 0.024336688, -0.23331264, -861784.5, 354291.8, 0.0010705385, 10.00384, 9.997213 
2.5553325e+3, 1.8590622e+2, -753185.9, -1107453.0, 22513.154, 0.026743794, -0.22187361, -751760.94, 366337.13, 0.000011845724, 10.003264, 9.998558 
2.5552693e+3, 1.9590448e+2, -678949.3, -1031458.9, 38427.977, 0.0016805207, -0.23174676, -674808.8, 345305.28, 0.0, 10.003145, 9.9984665 
2.555206e+3, 2.0590302e+2, -677211.0, -929210.1, 32955.492, 0.00365885, -0.22320585, -672972.5, 249155.66, 0.0, 10.002268, 9.998917 
2.555143e+3, 2.159019e+2, -797458.8, -945070.06, 43875.75, 0.021927949, -0.20626694, -785402.0, 38737.547, 0.0, 10.000805, 9.998841 
2.55508e+3, 2.2590062e+2, -761224.9, -814921.5, 55716.406, 0.026944166, -0.22470462, -726225.4, -72.92319, 0.0, 10.000116, 9.9993925 
2.5550175e+3, 2.3589933e+2, -687441.75, -732809.75, 38622.88, 0.023048079, -0.27299547, -665334.1, -37168.97, 0.0, 9.999966, 9.999357 
2.554954e+3, 2.4589922e+2, -657254.6, -566144.1, 1122.3262, 0.02010992, -0.24470767, -566130.3, -35964.12, 0.0, 9.999064, 10.000261 
2.5548902e+3, 2.5590008e+2, -776693.5, -582942.94, 15791.678, 0.011205917, -0.16447993, -581664.25, -149506.55, 0.0, 9.997613, 10.0001745 
2.5548273e+3, 2.6589996e+2, -749028.0, -471285.84, 66117.37, -0.00054736476, -0.19199799, -456349.66, -122191.805, 0.0, 9.996926, 10.000597 
2.554765e+3, 2.7589926e+2, -675424.56, -388237.16, 50016.258, -0.0009575651, -0.30497134, -379775.7, -143612.31, 0.0, 9.99677, 10.000571 
2.554702e+3, 2.8589994e+2, -654646.9, -227469.22, -21481.559, -0.033787888, -0.31698897, -226391.69, -88235.3, 0.0, 9.99581, 10.001465 
2.554637e+3, 2.95902e+2, -781177.7, -247828.13, -11976.373, -0.13678516, -0.2356918, -247559.33, -207422.48, 0.0, 9.994311, 10.001377 
2.5545758e+3, 3.0590314e+2, -762250.94, -141814.86, 48067.082, -0.040704016, -0.2748867, -138113.05, -138113.05, 0.0, 9.993799, 10.002014 
2.5545135e+3, 3.1590423e+2, -726655.44, 81960.836, -80830.23, -0.07036511, -0.34622455, 89961.555, 89961.555, 0.0, 9.993156, 10.003859 
2.5657216e+3, 1.2598851e+2, -960520.5, -1695771.1, 17069.672, -0.035762947, -0.30645683, -960124.44, 745163.3, 0.21048763, 10.008433, 9.996086 
2.5656584e+3, 1.3598543e+2, -997514.06, -1707259.5, 33158.73, 0.115724556, -0.20208022, -995968.25, 611351.75, 0.14468244, 10.006855, 9.996079 
2.5655937e+3, 1.4598198e+2, -900647.25, -1485503.3, 43274.746, 0.09386203, -0.20159546, -897462.6, 611890.94, 0.08086877, 10.005863, 9.997414 
2.5655285e+3, 1.5597838e+2, -862554.5, -1446990.9, 28425.1, -0.004699554, -0.28110537, -861175.25, 550211.75, 0.033104073, 10.00528, 9.997275 
2.5654635e+3, 1.6597545e+2, -801531.75, -1370151.6, 35331.33, -0.024355816, -0.27791905, -799344.9, 514071.84, 0.00828909, 10.004914, 9.997303 
2.5653994e+3, 1.7597312e+2, -731431.56, -1288341.0, 57440.48, 0.0031228496, -0.22043353, -725568.8, 489873.66, 0.0008334735, 10.004699, 9.997298 
2.5653353e+3, 1.8597099e+2, -695645.3, -1077675.8, 80246.2, 0.011288802, -0.20595418, -679474.0, 437989.97, 0.000007464854, 10.003655, 9.998572 
2.565272e+3, 1.959692e+2, -835159.4, -1101347.1, 62931.023, 0.009577618, -0.22250034, -821031.4, 198449.6, 0.0, 10.002052, 9.998512 
2.565208e+3, 2.0596781e+2, -787566.3, -949392.3, 52580.465, 0.015066034, -0.22344081, -771982.56, 149510.95, 0.0, 10.001374, 9.999206 
2.5651437e+3, 2.1596685e+2, -703418.2, -872085.44, 67287.04, 0.024524985, -0.21855769, -679864.4, 143637.78, 0.0, 10.001336, 9.999084 
2.5650802e+3, 2.2596563e+2, -699971.75, -802551.56, 94006.89, 0.023173055, -0.23124474, -644173.2, 81341.266, 0.0, 10.000614, 9.999235 
2.5650167e+3, 2.3596437e+2, -777733.6, -792119.7, 92647.25, 0.019396702, -0.2603419, -692000.6, -64472.63, 0.0, 9.999419, 9.99921 
2.5649527e+3, 2.4596415e+2, -697312.94, -594563.75, 45415.703, 0.019456068, -0.2305982, -577367.7, -47837.184, 0.0, 9.998835, 10.0001745 
2.5648883e+3, 2.5596482e+2, -633303.1, -522554.3, 37657.49, 0.01749099, -0.15983605, -510962.97, -79439.18, 0.0, 9.998639, 10.000092 
2.5648245e+3, 2.659647e+2, -635427.25, -422124.9, 93032.414, 0.006968037, -0.18322684, -387250.47, -53726.016, 0.0, 9.997735, 10.000543 
2.5647616e+3, 2.75964e+2, -745101.9, -429435.3, 93483.29, 0.009651049, -0.28735375, -403827.94, -168297.73, 0.0, 9.996329, 10.0005 
2.564697e+3, 2.8596464e+2, -714505.94, -274552.28, 18142.73, -0.048259858, -0.29050878, -273805.38, -136281.14, 0.0, 9.995483, 10.001296 
2.5646308e+3, 2.9596668e+2, -701917.75, -228411.16, 23182.803, -0.19165245, -0.19174571, -227278.83, -187773.5, 0.0, 9.994943, 10.001203 
2.5645697e+3, 3.0596697e+2, -761287.75, -168770.08, 106762.336, 0.022021668, -0.29122734, -150120.2, -150120.2, 0.0, 9.993925, 10.001769 
2.5645062e+3, 3.159703e+2, -639197.75, 277258.7, -63956.215, -0.058916137, -0.12098219, 281700.44, 281700.44, 0.0, 9.993102, 10.005225 
2.57573e+3, 1.2605466e+2, -929938.25, -1636590.6, -29136.102, -0.009248583, -0.18410756, -928738.94, 775902.0, 0.1893862, 10.008248, 9.996669 
2.5756645e+3, 1.3604994e+2, -961080.9, -1641967.0, -11615.845, 0.05448034, -0.29924706, -960882.75, 645802.56, 0.12926437, 10.006835, 9.996536 
2.575599e+3, 1.460464e+2, -915293.94, -1537724.0, 25382.67, 0.048723128, -0.3076435, -914260.5, 594459.6, 0.071379505, 10.00589, 9.997031 
2.575534e+3, 1.5604377e+2, -880818.06, -1490282.8, 12316.823, 0.0331881, -0.2539624, -880569.25, 530178.3, 0.02859258, 10.00527, 9.9969845 
2.5754687e+3, 1.6604134e+2, -767588.44, -1294054.3, 30486.75, 0.018739952, -0.21608937, -765828.9, 546943.6, 0.006874986, 10.004882, 9.997845 
2.575404e+3, 1.7603923e+2, -708680.3, -1226691.5, 45574.723, -0.0025615073, -0.19054347, -704701.25, 510093.03, 0.0006378406, 10.004633, 9.997755 
2.5753388e+3, 1.8603694e+2, -730436.5, -1142459.0, 20739.828, -0.0073810536, -0.19072825, -729395.2, 387422.7, 0.0000046197197, 10.00362, 9.998147 
2.5752735e+3, 1.9603468e+2, -858347.6, -1151499.9, 10980.05, -0.001208749, -0.21023543, -857936.94, 160904.27, 0.0, 10.002058, 9.998166 
2.5752088e+3, 2.0603324e+2, -760536.6, -898612.9, 52609.5, 0.0055660717, -0.22130813, -742776.0, 178078.34, 0.0, 10.001392, 9.999548 
2.575145e+3, 2.1603248e+2, -683231.0, -828276.4, 63256.15, 0.008980043, -0.23086344, -659520.2, 163339.39, 0.0, 10.001325, 9.999393 
2.5750807e+3, 2.2603177e+2, -697527.3, -796826.75, 49275.418, 0.008777854, -0.2091236, -677225.9, 47640.637, 0.0, 10.0006075, 9.99928 
2.5750157e+3, 2.360312e+2, -777804.06, -791854.3, 51160.57, 0.0094014965, -0.17134961, -733188.56, -106315.13, 0.0, 9.9994135, 9.999218 
2.5749514e+3, 2.4603027e+2, -724579.4, -652113.44, 37625.797, 0.03232209, -0.19185404, -636111.1, -107228.07, 0.0, 9.998836, 9.99978 
2.574887e+3, 2.5602925e+2, -651780.2, -567933.94, 26301.342, 0.05814203, -0.25278902, -560366.56, -129473.445, 0.0, 9.998666, 9.999769 
2.5748223e+3, 2.6602948e+2, -617639.7, -390444.7, 37849.055, 0.017968401, -0.23372167, -384305.2, -51414.492, 0.0, 9.997752, 10.000755 
2.5747573e+3, 2.760307e+2, -734828.94, -407226.2, 43784.555, -0.04421024, -0.1654338, -401475.28, -166596.34, 0.0, 9.996322, 10.000658 
2.574692e+3, 2.8603154e+2, -735537.56, -317934.25, -1188.8, -0.08232307, -0.14164197, -317930.88, -181059.61, 0.0, 9.995479, 10.001002 
2.574626e+3, 2.9603228e+2, -712296.44, -260708.39, -685.8547, -0.1646562, -0.14861196, -260707.34, -221842.55, 0.0, 9.994985, 10.000963 
2.5745642e+3, 3.0603197e+2, -737406.1, -123367.76, 60237.207, 0.08414087, -0.3110163, -117514.28, -117514.28, 0.0, 9.9939375, 10.002077 
2.574499e+3, 3.1603554e+2, -775000.44, -9458.437, -27504.674, -0.0747311, -0.13851814, -8471.512, -8471.512, 0.0, 9.993116, 10.003252 
2.5857383e+3, 1.2612075e+2, -1036731.7, -1670436.5, 22671.37, 0.06627781, -0.19857761, -1035921.7, 668072.0, 0.16946732, 10.007067, 9.99695 
2.5856712e+3, 1.3611628e+2, -907574.3, -1590756.6, 24330.084, 0.05000758, -0.31266513, -906708.94, 699326.1, 0.11477262, 10.007038, 9.996803 
2.5856045e+3, 1.4611296e+2, -847811.7, -1507327.3, 65550.03, 0.022279868, -0.31049553, -841359.7, 666708.3, 0.06254346, 10.006351, 9.997018 
2.585539e+3, 1.561105e+2, -880184.9, -1490475.1, 77363.52, 0.025414413, -0.23694916, -870530.56, 539563.6, 0.024470812, 10.00526, 9.996987 
2.585473e+3, 1.6610804e+2, -854581.0, -1326793.0, 96985.76, 0.015609698, -0.20411709, -835437.56, 476681.72, 0.005632689, 10.004237, 9.99793 
2.5854075e+3, 1.7610578e+2, -901426.94, -1310502.6, 80958.766, -0.009734495, -0.20032923, -885987.4, 328154.8, 0.00047927265, 10.003269, 9.997836 
2.585342e+3, 1.8610354e+2, -841523.7, -1197517.9, 55134.324, -0.012573093, -0.19911256, -833180.3, 282985.13, 0.0000028007903, 10.002867, 9.99813 
2.5852758e+3, 1.961014e+2, -748074.25, -1101881.6, 71164.055, 0.0013288659, -0.2025006, -734296.94, 283890.8, 0.0, 10.002833, 9.998132 
2.5852105e+3, 2.0609993e+2, -675823.0, -877601.8, 106198.44, 0.005863285, -0.2031263, -630231.06, 289970.72, 0.0, 10.002065, 9.999367 
2.5851458e+3, 2.1609905e+2, -767335.44, -883803.5, 78786.555, 0.0048581813, -0.20508559, -727597.4, 94611.55, 0.0, 10.000817, 9.999253 
2.5850806e+3, 2.2609825e+2, -746334.2, -807531.56, 53039.03, 0.000120395314, -0.19247115, -715700.4, 8516.162, 0.0, 10.000224, 9.999388 
2.5850153e+3, 2.360976e+2, -678837.9, -734734.94, 59296.504, -0.001800247, -0.17235588, -641233.44, -15010.208, 0.0, 10.000057, 9.999297 
2.5849503e+3, 2.4609664e+2, -646003.75, -625546.56, 65843.05, 0.027967807, -0.19436102, -569142.4, -40909.14, 0.0, 9.999428, 9.999676 
2.5848854e+3, 2.5609556e+2, -685212.25, -592515.75, 72303.14, 0.0694723, -0.25022307, -552980.9, -122736.516, 0.0, 9.998478, 9.999688 
2.5848195e+3, 2.6609585e+2, -655069.44, -402434.16, 60707.094, 0.018521802, -0.22448686, -388603.7, -56361.83, 0.0, 9.997476, 10.000803 
2.584753e+3, 2.7609724e+2, -721421.8, -396094.0, 56890.555, -0.0625899, -0.14238976, -386432.4, -152203.77, 0.0, 9.996399, 10.000695 
2.5846875e+3, 2.8609812e+2, -679048.8, -294153.78, 51115.414, -0.07618957, -0.113340504, -287481.16, -151260.7, 0.0, 9.995884, 10.000969 
2.5846213e+3, 2.9609862e+2, -608110.94, -216294.4, 65633.69, -0.12175495, -0.13603185, -205592.33, -167376.69, 0.0, 9.995725, 10.000911 
2.5845584e+3, 3.0609864e+2, -618975.5, -84736.13, 75270.1, 0.07013344, -0.2582131, -74333.72, -74333.72, 0.0, 9.994834, 10.001908 
2.5844917e+3, 3.1610054e+2, -850067.8, -166695.39, 29191.531, -0.10401645, -0.2319176, -165450.69, -165450.69, 0.0, 9.993131, 10.002161 
2.5957462e+3, 1.2618695e+2, -1026072.9, -1665378.1, 21657.387, 0.16331184, -0.30635318, -1025340.0, 678004.3, 0.15086226, 10.007008, 9.997008 
2.5956786e+3, 1.3618417e+2, -909035.56, -1588991.0, 19900.904, 0.081610896, -0.26117864, -908453.56, 696918.3, 0.10130761, 10.006909, 9.996877 
2.5956106e+3, 1.4618124e+2, -837122.2, -1476662.6, 26132.15, 0.007195841, -0.23603988, -836056.2, 671344.4, 0.05441569, 10.006256, 9.997286 
2.5955433e+3, 1.5617837e+2, -867255.25, -1461525.5, 37583.227, -0.02676072, -0.2298077, -864887.8, 544540.94, 0.020754188, 10.005232, 9.997201 
2.5954768e+3, 1.661755e+2, -873496.3, -1370803.6, 60597.113, -0.02887181, -0.23296264, -866219.06, 445238.84, 0.004558323, 10.004249, 9.997623 
2.5954106e+3, 1.7617281e+2, -916686.44, -1345890.1, 49418.33, -0.020691222, -0.24225906, -911069.94, 302416.1, 0.0003533734, 10.003282, 9.997589 
2.5953445e+3, 1.8617074e+2, -818432.75, -1152755.3, 54902.55, -0.008392035, -0.22696145, -809647.5, 305859.38, 0.0000016193491, 10.002876, 9.998435 
2.5952786e+3, 1.9616923e+2, -736171.44, -1073771.8, 65942.9, 0.007458275, -0.20005317, -723748.06, 293773.88, 0.0, 10.002816, 9.998336 
2.5952125e+3, 2.0616779e+2, -723184.3, -975722.56, 59372.72, 0.012378444, -0.17063066, -709922.06, 209615.02, 0.0, 10.00206, 9.998697 
2.5951463e+3, 2.1616654e+2, -807516.25, -967888.25, 38065.95, 0.0077583636, -0.14366311, -798939.56, 22611.285, 0.0, 10.000816, 9.998679 
2.5950804e+3, 2.2616504e+2, -735342.1, -786089.2, 47841.406, -0.005838052, -0.18165343, -706562.06, 17002.855, 0.0, 10.000228, 9.999536 
2.595015e+3, 2.3616353e+2, -667839.6, -713497.25, 50030.66, -0.022517059, -0.26307058, -635675.5, -10097.588, 0.0, 10.00006, 9.999444 
2.5949493e+3, 2.461632e+2, -632909.5, -600160.75, 28918.412, 0.0035223404, -0.23685424, -583302.7, -55721.395, 0.0, 9.999431, 9.999851 
2.5948834e+3, 2.5616372e+2, -674958.6, -572489.8, 35597.414, 0.04341517, -0.14685862, -561337.2, -131759.69, 0.0, 9.99848, 9.999827 
2.5948167e+3, 2.661637e+2, -666400.1, -424384.8, 19198.244, 0.0040406235, -0.15427245, -422871.34, -91293.18, 0.0, 9.997466, 10.000658 
2.5947496e+3, 2.7616343e+2, -726625.44, -409569.13, 19617.625, -0.05184881, -0.22505026, -408359.9, -174779.55, 0.0, 9.996407, 10.0006 
2.5946838e+3, 2.8616416e+2, -656583.8, -253494.44, 45530.383, -0.023080843, -0.22025083, -248415.61, -112842.47, 0.0, 9.995904, 10.001242 
2.5946176e+3, 2.9616567e+2, -590658.7, -189660.14, 59557.24, -0.052154884, -0.1678449, -181001.53, -143443.08, 0.0, 9.995762, 10.001079 
2.5945514e+3, 3.0616722e+2, -671998.8, -201358.27, 17565.963, -0.075107746, -0.10180577, -200703.55, -200703.55, 0.0, 9.994859, 10.001099 
2.5944853e+3, 3.161667e+2, -762551.25, 5734.0635, 91804.62, -0.026696816, -0.24126667, 16551.746, 16551.746, 0.0, 9.993161, 10.003336 
2.605753e+3, 1.2625532e+2, -1013476.8, -1675196.4, 48709.92, 0.1707084, -0.28662294, -1009910.44, 692765.9, 0.13359606, 10.00704, 9.996912 
2.6056844e+3, 1.3625312e+2, -1083042.6, -1689978.9, 41302.152, 0.072950676, -0.17301781, -1080244.9, 524455.2, 0.08890245, 10.0055485, 9.99683 
2.605616e+3, 1.462501e+2, -998382.75, -1545900.3, 52008.207, 0.0023047223, -0.1610765, -993486.3, 513242.97, 0.04701903, 10.005005, 9.9974 
2.6055482e+3, 1.562467e+2, -882492.56, -1459734.4, 48594.375, -0.011276886, -0.21688472, -878430.3, 530330.5, 0.017447626, 10.005074, 9.997288 
2.6054808e+3, 1.6624369e+2, -833916.9, -1363267.4, 58858.152, -0.0127195055, -0.2324023, -827451.44, 483339.6, 0.0036452555, 10.004573, 9.997518 
2.6054138e+3, 1.7624104e+2, -858557.2, -1324730.9, 61736.0, -0.014312804, -0.22471014, -850520.0, 362299.13, 0.00025570375, 10.003715, 9.997523 
2.605347e+3, 1.8623902e+2, -775888.44, -1107555.4, 90387.805, -0.008368688, -0.21441422, -752855.0, 361983.75, 0.00000086705097, 10.003068, 9.998651 
2.605281e+3, 1.9623752e+2, -762535.7, -1068211.5, 92432.734, 0.005957928, -0.20487896, -736758.8, 280093.1, 0.0, 10.002562, 9.998493 
2.6052144e+3, 2.0623598e+2, -745158.4, -1023723.3, 78682.305, 0.013983592, -0.17344896, -724470.5, 194398.19, 0.0, 10.002075, 9.998359 
2.6051474e+3, 2.1623453e+2, -714222.44, -955454.1, 78298.08, 0.016808897, -0.1306567, -691037.1, 129849.125, 0.0, 10.0016, 9.998385 
2.605081e+3, 2.2623299e+2, -666557.56, -744589.8, 99859.89, -0.0019670322, -0.16372211, -598362.4, 124538.72, 0.0, 10.000667, 9.999608 
2.6050144e+3, 2.3623152e+2, -752492.75, -744244.1, 97940.51, -0.026674591, -0.24818699, -650341.1, -25428.13, 0.0, 9.999441, 9.999528 
2.604948e+3, 2.4623121e+2, -710458.7, -631576.06, 74224.58, -0.013721939, -0.22415434, -586964.4, -60048.566, 0.0, 9.998878, 9.999899 
2.6048815e+3, 2.562318e+2, -643885.0, -555563.94, 67865.97, 0.012022842, -0.13207127, -518755.72, -89844.21, 0.0, 9.998689, 9.999841 
2.604814e+3, 2.6623166e+2, -594066.4, -413755.22, 30197.744, -0.014973464, -0.13626578, -408832.25, -77918.96, 0.0, 9.998071, 10.000438 
2.6047462e+3, 2.7623117e+2, -630733.4, -385287.3, 26550.184, -0.038225845, -0.20829807, -382448.22, -149530.16, 0.0, 9.997164, 10.0004 
2.60468e+3, 2.8623158e+2, -581355.44, -222720.08, 53581.293, 0.0065578395, -0.22487514, -214885.98, -79971.93, 0.0, 9.996451, 10.001185 
2.6046136e+3, 2.9623273e+2, -597729.5, -202810.72, 35633.91, -0.0112328, -0.20149203, -199621.19, -162718.75, 0.0, 9.995765, 10.000983 
2.6045454e+3, 3.0623505e+2, -733834.25, -269762.28, -30067.494, -0.13409568, -0.030119833, -267822.28, -267822.28, 0.0, 9.994611, 10.000743 
2.6044795e+3, 3.1623387e+2, -629475.25, 184492.03, 113415.2, 0.053791244, -0.20940448, 199999.45, 199999.45, 0.0, 9.993588, 10.0043545 
2.615759e+3, 1.2632538e+2, -1035260.1, -1707827.6, -5711.246, 0.10744232, -0.17457987, -1035211.6, 666782.1, 0.11763791, 10.006858, 9.996742 
2.615689e+3, 1.3632303e+2, -1080438.3, -1709659.8, -4589.907, 0.022292595, -0.058680102, -1080404.9, 523615.22, 0.07754066, 10.005596, 9.99667 
2.6156205e+3, 1.4631954e+2, -987353.25, -1550110.1, 53342.773, -0.0007774552, -0.08439936, -982341.56, 523711.94, 0.040344007, 10.005087, 9.997335 
2.615554e+3, 1.563155e+2, -889241.1, -1471415.3, 46962.395, 0.055641927, -0.19817728, -885477.1, 522612.75, 0.014541935, 10.005045, 9.997223 
2.615486e+3, 1.6631255e+2, -836610.5, -1361683.5, 26863.285, 0.050977297, -0.20656827, -835239.75, 474879.22, 0.0028831828, 10.004534, 9.997548 
2.6154175e+3, 1.7631036e+2, -855364.06, -1316833.5, 31952.678, -0.0008011747, -0.15612072, -853162.1, 358980.28, 0.00018209322, 10.003705, 9.997584 
2.61535e+3, 1.8630823e+2, -764426.5, -1087131.3, 71653.8, -0.015070376, -0.16808054, -749231.9, 364930.2, 0.00000042407203, 10.003078, 9.998788 
2.615283e+3, 1.9630626e+2, -756598.44, -1054655.3, 73759.44, -0.005157541, -0.21839878, -739344.2, 276833.84, 0.0, 10.002553, 9.998593 
2.615216e+3, 2.0630452e+2, -751740.6, -1035290.9, 60800.48, 0.009271296, -0.20774296, -739253.4, 178943.31, 0.0, 10.002063, 9.998286 
2.615149e+3, 2.16303e+2, -721799.2, -966354.25, 58195.227, 0.0224414, -0.16362248, -708657.06, 111558.734, 0.0, 10.001575, 9.998324 
2.6150814e+3, 2.2630203e+2, -667600.06, -746036.94, 54053.895, 0.008023196, -0.1378853, -640035.94, 82189.87, 0.0, 10.00066, 9.999602 
2.6150137e+3, 2.3630148e+2, -753482.4, -746719.5, 56672.37, -0.019295437, -0.12928899, -693327.8, -69098.64, 0.0, 9.999439, 9.999515 
2.6149467e+3, 2.463006e+2, -717388.44, -645955.56, 66519.766, -0.026737649, -0.15808028, -606170.06, -79932.63, 0.0, 9.998876, 9.999802 
2.6148796e+3, 2.5629961e+2, -650490.6, -573571.94, 56789.406, -0.033334598, -0.21021634, -543444.44, -115196.96, 0.0, 9.998704, 9.999712 
2.6148117e+3, 2.662997e+2, -614524.5, -460454.5, -5139.885, -0.03996061, -0.17101757, -460283.22, -130035.31, 0.0, 9.998085, 10.000113 
2.6147434e+3, 2.7630052e+2, -650630.0, -433141.94, -5497.9355, -0.024198754, -0.07887303, -433003.06, -200761.73, 0.0, 9.997188, 10.000061 
2.6146764e+3, 2.863003e+2, -612061.9, -291093.47, 24967.053, 0.00054438924, -0.115782544, -289162.97, -154919.4, 0.0, 9.996468, 10.00071 
2.614609e+3, 2.9629955e+2, -626896.3, -266655.56, -2154.8213, -0.032609727, -0.23653464, -266642.66, -230392.55, 0.0, 9.995774, 10.000542 
2.6145405e+3, 3.063017e+2, -728464.1, -257349.81, -85245.17, -0.046550836, -0.061859928, -242399.66, -242399.66, 0.0, 9.994601, 10.000835 
2.6144725e+3, 3.1630138e+2, -630078.6, 167702.22, -23568.305, 0.0028164533, -0.17592022, 168397.88, 168397.88, 0.0, 9.993629, 10.004233 
2.6257643e+3, 1.2639464e+2, -1220634.9, -1807569.3, 12055.299, 0.0752561, -0.1364484, -1220387.4, 480929.38, 0.102952085, 10.005319, 9.996804 
2.6256952e+3, 1.3639177e+2, -873653.2, -1597895.4, 16116.455, 0.03881162, -0.07754885, -873294.75, 730053.25, 0.067184865, 10.00704, 9.996743 
2.6256263e+3, 1.4638841e+2, -782386.5, -1437873.9, 44276.188, 0.015364795, -0.09904701, -779409.3, 725970.9, 0.034358613, 10.006472, 9.997449 
2.6255584e+3, 1.5638486e+2, -948463.3, -1487371.9, 50367.625, 0.04736016, -0.17414142, -943796.25, 463615.63, 0.012013518, 10.004572, 9.997338 
2.62549e+3, 1.6638207e+2, -918847.44, -1385087.5, 60960.12, 0.045275036, -0.17687917, -911008.8, 398430.1, 0.0022573029, 10.003902, 9.997688 
2.6254213e+3, 1.763799e+2, -809636.56, -1283211.5, 69697.77, 0.011167953, -0.13982558, -799591.94, 411869.78, 0.00012833992, 10.003977, 9.997681 
2.625353e+3, 1.8637764e+2, -742673.9, -1105465.4, 79465.664, -0.0051103146, -0.1518126, -726031.2, 387451.78, 0.00000019125741, 10.003359, 9.998524 
2.6252854e+3, 1.963755e+2, -802952.1, -1098765.1, 52894.934, -0.005913692, -0.19283964, -793778.4, 221723.44, 0.0, 10.002333, 9.998394 
2.6252174e+3, 2.0637372e+2, -800693.44, -1034253.7, 52335.805, -0.003450184, -0.18898857, -789502.4, 128018.055, 0.0, 10.001624, 9.998503 
2.6251498e+3, 2.1637227e+2, -777281.94, -971288.94, 68104.67, 0.0012323869, -0.16124061, -755761.5, 63776.19, 0.0, 10.001107, 9.998513 
2.6250818e+3, 2.2637141e+2, -674888.5, -760121.4, 57412.76, 0.0034561253, -0.1258044, -646004.0, 75542.62, 0.0, 10.00066, 9.999504 
2.6250136e+3, 2.3637106e+2, -644358.0, -705173.94, 53352.21, 0.009191121, -0.087775454, -613356.7, 10192.437, 0.0, 10.000239, 9.999412 
2.6249456e+3, 2.4637003e+2, -642327.5, -620337.1, 68201.15, -0.009464472, -0.11989153, -562250.56, -36691.707, 0.0, 9.999439, 9.999705 
2.6248777e+3, 2.5636873e+2, -701957.44, -609316.75, 58703.563, -0.047263626, -0.19792394, -580859.56, -153287.64, 0.0, 9.998403, 9.999609 
2.6248094e+3, 2.6636866e+2, -640857.0, -491369.8, 7888.0957, -0.054863624, -0.15732794, -490954.72, -161381.05, 0.0, 9.997988, 9.999945 
2.6247406e+3, 2.7636948e+2, -563387.3, -408424.34, 16370.592, -0.019251104, -0.04516915, -406713.78, -175146.64, 0.0, 9.997867, 9.999902 
2.624673e+3, 2.8636912e+2, -542987.7, -269129.44, 54121.01, 0.014750048, -0.082382165, -258821.77, -125251.375, 0.0, 9.996994, 10.000606 
2.6246047e+3, 2.9636812e+2, -642080.9, -283579.6, 53887.504, -0.010044557, -0.21808082, -275654.78, -240076.05, 0.0, 9.995714, 10.000453 
2.6245353e+3, 3.0636984e+2, -656498.25, -200124.03, -11632.731, -0.014737069, -0.09385473, -199827.7, -199827.7, 0.0, 9.995003, 10.001032 
2.6244652e+3, 3.1636938e+2, -633945.44, 62936.477, 31461.467, -0.04625347, -0.22888614, 64353.953, 64353.953, 0.0, 9.994056, 10.003303 
2.6357692e+3, 1.2646344e+2, -1181309.1, -1765477.1, 72597.66, 0.055293124, -0.15283561, -1172422.1, 528220.1, 0.08950494, 10.005459, 9.997026 
2.6357025e+3, 1.364598e+2, -875368.44, -1579671.0, 61246.156, 0.09962705, -0.19385774, -870082.1, 732597.9, 0.057793662, 10.006872, 9.996956 
2.6356328e+3, 1.46457e+2, -782412.5, -1415241.3, -25782.906, 0.04149398, -0.18110351, -781363.75, 723343.3, 0.029024515, 10.006329, 9.997679 
2.635562e+3, 1.564548e+2, -929772.3, -1453136.5, -10775.374, -0.027842687, -0.14443709, -929550.56, 477176.53, 0.009832849, 10.004579, 9.997573 
2.635493e+3, 1.6645226e+2, -899703.0, -1352945.4, 63424.895, -0.02020868, -0.14664033, -890994.9, 417756.7, 0.0017508279, 10.003931, 9.997897 
2.635425e+3, 1.7644964e+2, -808132.7, -1273554.6, 66602.22, 0.018310204, -0.17099613, -798789.44, 411987.75, 0.0000901775, 10.003945, 9.997765 
2.6353565e+3, 1.864473e+2, -792661.0, -1202726.8, 40958.87, 0.016649783, -0.15924716, -788609.9, 324191.44, 0.00000008629741, 10.003326, 9.997874 
2.6352873e+3, 1.9644524e+2, -839671.0, -1171384.0, 18664.818, -0.0056048282, -0.12989932, -838624.06, 176199.27, 0.0, 10.002314, 9.997907 
2.6352188e+3, 2.0644355e+2, -765979.25, -963671.56, 34190.625, -0.026730591, -0.12245418, -760233.06, 156607.08, 0.0, 10.001628, 9.998987 
2.6351503e+3, 2.1644221e+2, -750426.44, -915012.8, 50674.07, -0.049605407, -0.13048711, -736075.75, 82777.016, 0.0, 10.001101, 9.998904 
2.635082e+3, 2.2644107e+2, -690189.2, -791571.06, 42374.51, -0.016115634, -0.12833525, -674810.7, 46053.402, 0.0, 10.000656, 9.999291 
2.635014e+3, 2.3644017e+2, -658740.44, -735297.5, 34649.766, 0.050435636, -0.12328212, -645387.06, -22513.594, 0.0, 10.000237, 9.999208 
2.6349452e+3, 2.4643947e+2, -649046.1, -635366.6, 27644.967, 0.03631958, -0.107456975, -613727.8, -88847.414, 0.0, 9.99944, 9.999603 
2.634876e+3, 2.5643903e+2, -706709.7, -621624.56, 23715.727, -0.035686534, -0.08788297, -615460.75, -188575.95, 0.0, 9.998409, 9.999524 
2.634807e+3, 2.6643845e+2, -640887.44, -493321.34, 3368.7708, -0.063482895, -0.09489681, -493244.47, -164353.36, 0.0, 9.9979925, 9.99993 
2.6347384e+3, 2.7643788e+2, -555958.1, -401982.2, 5096.296, -0.034560286, -0.12090265, -401813.7, -170916.3, 0.0, 9.997902, 9.999931 
2.6346698e+3, 2.86438e+2, -517378.0, -220348.66, 3507.9614, 0.05387759, -0.1317225, -220307.22, -87412.3, 0.0, 9.997009, 10.000936 
2.634601e+3, 2.964387e+2, -620863.2, -236144.23, 14578.722, 0.075570226, -0.12784553, -235592.58, -200707.33, 0.0, 9.995696, 10.00079 
2.6345292e+3, 3.0643943e+2, -630462.56, -156034.53, -26450.662, -0.09624041, -0.1366779, -154564.39, -154564.39, 0.0, 9.995038, 10.001322 
2.6344594e+3, 3.1643993e+2, -742561.9, -168847.19, 53772.164, -0.016569026, -0.18338755, -163850.83, -163850.83, 0.0, 9.994096, 10.001684 
2.645776e+3, 1.2653299e+2, -881086.7, -1617171.0, 109243.28, 0.06617185, -0.19345592, -865215.94, 834743.75, 0.07724691, 10.007628, 9.997044 
2.6457083e+3, 1.3652974e+2, -1124866.4, -1704763.3, 88888.836, 0.088129476, -0.1947004, -1111547.1, 490446.53, 0.049324114, 10.005006, 9.996991 
2.6456377e+3, 1.4652708e+2, -1043040.44, -1534798.1, 118.11357, 0.022531545, -0.1726966, -1043040.44, 460979.7, 0.024304854, 10.004441, 9.997745 
2.6455665e+3, 1.565249e+2, -853089.25, -1406373.9, 1993.7297, -0.044339728, -0.14108182, -853082.06, 552959.06, 0.007970428, 10.005068, 9.997654 
2.6454967e+3, 1.6652249e+2, -807673.94, -1293158.8, 64183.375, -0.027073987, -0.1400992, -799331.94, 508732.3, 0.0013469097, 10.004502, 9.99803 
2.6454285e+3, 1.7652008e+2, -901025.94, -1306694.0, 61528.12, 0.02834758, -0.15726618, -891899.25, 318188.03, 0.00006369034, 10.003263, 9.997863 
2.6453593e+3, 1.8651775e+2, -896851.8, -1266654.3, 57374.547, 0.028311625, -0.14013742, -888154.75, 223956.95, 0.000000036839044, 10.002676, 9.997745 
2.6452896e+3, 1.9651559e+2, -823229.44, -1171590.6, 68883.25, 0.00012683109, -0.10673614, -810103.4, 204032.44, 0.0, 10.002468, 9.997828 
2.6452202e+3, 2.0651382e+2, -721261.5, -923308.4, 80368.414, -0.019905295, -0.11267717, -693192.7, 222960.13, 0.0, 10.001859, 9.999151 
2.645151e+3, 2.1651243e+2, -754496.94, -903159.9, 73762.586, -0.034520537, -0.14095478, -724109.3, 94054.94, 0.0, 10.001018, 9.999024 
2.6450822e+3, 2.2651123e+2, -736601.6, -832616.4, 67727.66, -0.018159663, -0.13906851, -701592.44, 18583.672, 0.0, 10.000421, 9.999122 
2.6450136e+3, 2.3651025e+2, -711353.75, -776470.25, 61713.992, 0.0248871, -0.124352604, -674136.25, -51949.0, 0.0, 9.9999485, 9.999063 
2.6449445e+3, 2.465095e+2, -655960.7, -642413.25, 47761.906, 0.034693267, -0.105116405, -600947.1, -76752.336, 0.0, 9.999412, 9.999567 
2.6448748e+3, 2.5650904e+2, -651681.06, -596746.4, 49801.188, 0.012373778, -0.08294427, -567340.06, -141141.25, 0.0, 9.998797, 9.999506 
2.644805e+3, 2.665083e+2, -626573.75, -477792.56, 48030.234, -0.03967139, -0.108957335, -463634.5, -135428.36, 0.0, 9.998055, 10.000006 
2.644735e+3, 2.765074e+2, -649135.5, -438805.03, 53480.53, -0.06402724, -0.17102554, -425987.66, -195772.94, 0.0, 9.997229, 10.000002 
2.6446664e+3, 2.8650782e+2, -557957.3, -239221.36, 25255.03, 0.038276214, -0.15643622, -237232.69, -105022.97, 0.0, 9.996732, 10.000937 
2.644597e+3, 2.9650918e+2, -526326.7, -185031.22, 9853.991, 0.09385224, -0.08782762, -184746.95, -150552.69, 0.0, 9.9963255, 10.000835 
2.6445246e+3, 3.0650932e+2, -602951.7, -126508.82, -49107.313, -0.063785225, -0.16926584, -121499.95, -121499.95, 0.0, 9.995157, 10.001467 
2.6444542e+3, 3.1651095e+2, -740581.56, -179688.84, 103671.01, 0.0458962, -0.111927256, -161140.48, -161140.48, 0.0, 9.994177, 10.001562 
2.6557836e+3, 1.2660328e+2, -901419.7, -1641195.5, 13712.942, 0.08751157, -0.24491031, -901165.6, 798103.75, 0.06610986, 10.007464, 9.996934 
2.655712e+3, 1.366013e+2, -1127302.5, -1719456.6, 11505.458, 0.013474015, -0.108484484, -1127079.0, 474212.84, 0.041726846, 10.0050125, 9.996882 
2.6556414e+3, 1.4659843e+2, -1042008.25, -1546782.0, 24054.936, -0.034338437, -0.09763859, -1040864.5, 462456.88, 0.020160303, 10.004478, 9.997647 
2.6555714e+3, 1.5659522e+2, -863293.1, -1420089.9, 17293.92, -0.019295473, -0.16046453, -862756.5, 542597.0, 0.006396394, 10.005023, 9.997583 
2.6555014e+3, 1.665929e+2, -810988.06, -1289026.6, 18882.36, 0.009653578, -0.14983833, -810243.4, 497132.47, 0.0010291332, 10.00445, 9.998084 
2.6554316e+3, 1.765912e+2, -898570.44, -1296669.6, 21720.568, 0.035285514, -0.10153014, -897388.9, 312002.84, 0.000045503482, 10.003239, 9.997945 
2.655362e+3, 1.8658893e+2, -875399.56, -1222695.1, 50839.3, 0.028699188, -0.09979154, -868110.4, 243304.4, 0.000000014947995, 10.002676, 9.998048 
2.655292e+3, 1.9658647e+2, -807937.8, -1137485.4, 59034.21, 0.0051695504, -0.12527098, -797681.8, 215758.63, 0.0, 10.002455, 9.99807 
2.655222e+3, 2.0658448e+2, -732978.2, -945949.06, 49451.832, 0.0131026115, -0.15483645, -722055.6, 193403.3, 0.0, 10.001847, 9.999003 
2.6551527e+3, 2.165829e+2, -767707.1, -926464.06, 45690.996, 0.03394801, -0.18841386, -755496.25, 61976.047, 0.0, 10.000997, 9.998876 
2.6550826e+3, 2.2658186e+2, -746273.3, -852659.1, 51157.945, -0.007233558, -0.15656804, -725665.0, -6182.0527, 0.0, 10.000419, 9.998986 
2.6550123e+3, 2.3658124e+2, -717868.56, -791782.9, 43627.24, -0.07581469, -0.09220006, -697649.06, -76158.06, 0.0, 9.999952, 9.998958 
2.6549432e+3, 2.4658003e+2, -653901.25, -639342.75, 24005.451, -0.016475664, -0.11626392, -621537.2, -98034.57, 0.0, 9.9994135, 9.999589 
2.6548743e+3, 2.5657865e+2, -645847.3, -588803.6, 25157.207, 0.092683405, -0.18959992, -579294.1, -153779.31, 0.0, 9.998812, 9.999555 
2.654803e+3, 2.6657814e+2, -613848.4, -452078.1, 15673.746, 0.017493496, -0.20308198, -450573.47, -123054.36, 0.0, 9.998055, 10.000185 
2.6547316e+3, 2.7657825e+2, -643217.6, -423702.97, 26165.227, -0.1174311, -0.18608274, -420627.28, -191109.38, 0.0, 9.997213, 10.000114 
2.654662e+3, 2.8657866e+2, -585472.06, -295718.56, 12576.186, -0.0465171, -0.1538066, -295173.72, -163659.33, 0.0, 9.996725, 10.000554 
2.6545924e+3, 2.965794e+2, -540968.4, -225846.88, -13597.116, 0.019621354, -0.109447464, -225261.27, -191753.53, 0.0, 9.996366, 10.000538 
2.6545215e+3, 3.0657956e+2, -595696.0, -113324.414, -110236.87, 0.13019076, -0.17890474, -89325.83, -89325.83, 0.0, 9.995159, 10.001559 
2.654448e+3, 3.1658077e+2, -621077.2, 56850.414, 200331.83, 0.021775411, -0.18630336, 111624.22, 111624.22, 0.0, 9.994211, 10.0031805 
2.6657894e+3, 1.2667485e+2, -1044152.5, -1693183.5, -20603.887, 0.0455568, -0.18508181, -1043499.06, 655071.1, 0.056025345, 10.006265, 9.997132 
2.6657173e+3, 1.3667236e+2, -1020662.9, -1645307.9, -952.2046, 0.0074867555, -0.11801456, -1020661.44, 579934.5, 0.03494424, 10.005649, 9.997085 
2.665646e+3, 1.4666958e+2, -959659.06, -1494046.0, 71607.22, -0.02207417, -0.11320172, -950230.1, 552393.75, 0.01654435, 10.00499, 9.997761 
2.665576e+3, 1.566667e+2, -956144.44, -1455056.1, 71371.86, 0.006540406, -0.15036742, -946135.1, 458517.28, 0.0050775586, 10.004336, 9.997673 
2.6655054e+3, 1.6666429e+2, -918973.8, -1347253.4, 47045.074, 0.023034776, -0.14871497, -913867.0, 392809.16, 0.0007810221, 10.003738, 9.998025 
2.6654342e+3, 1.7666227e+2, -905731.9, -1297134.3, 44798.355, 0.022610322, -0.1269551, -900669.94, 308025.97, 0.000032798478, 10.0031805, 9.997968 
2.665364e+3, 1.8666022e+2, -854337.25, -1163274.5, 92822.88, 0.018851886, -0.12899317, -828593.1, 282122.84, 0.0000000057994387, 10.002613, 9.998485 
2.6652938e+3, 1.9665827e+2, -844735.44, -1117666.0, 107783.82, 0.017639335, -0.14445315, -807303.8, 205431.13, 0.0, 10.002046, 9.998401 
2.6652238e+3, 2.066564e+2, -788139.9, -1002995.1, 88275.836, 0.02525752, -0.16004825, -756523.2, 158229.56, 0.0, 10.001605, 9.998725 
2.6651534e+3, 2.1665466e+2, -749687.8, -942500.7, 73797.5, 0.03739677, -0.17876053, -724684.75, 92084.06, 0.0, 10.001231, 9.99865 
2.6650828e+3, 2.266534e+2, -721197.44, -836930.4, 83461.31, -0.0048066545, -0.16173907, -677504.44, 41277.137, 0.0, 10.000578, 9.999015 
2.665012e+3, 2.3665251e+2, -742901.9, -800539.4, 89081.75, -0.06814289, -0.12547776, -678093.3, -57301.99, 0.0, 9.999771, 9.998982 
2.664942e+3, 2.4665135e+2, -689325.7, -658441.94, 74663.61, -0.017532788, -0.14328997, -597640.06, -74837.54, 0.0, 9.999184, 9.999567 
2.6648727e+3, 2.5665015e+2, -666625.3, -601364.06, 70312.14, 0.085235715, -0.1954523, -556479.8, -131666.11, 0.0, 9.998683, 9.999529 
2.6648012e+3, 2.6664966e+2, -611257.7, -460632.22, 39807.69, 0.022554664, -0.19940567, -450758.9, -123940.78, 0.0, 9.998119, 10.0000925 
2.664729e+3, 2.766497e+2, -611823.7, -415868.38, 29068.393, -0.09211451, -0.17791015, -411647.25, -182829.66, 0.0, 9.997465, 10.000045 
2.6646584e+3, 2.8665006e+2, -603903.4, -305097.56, 29717.072, -0.048242405, -0.14852376, -302170.78, -171355.86, 0.0, 9.996604, 10.000546 
2.6645875e+3, 2.9665068e+2, -650932.25, -286843.34, 29768.191, -0.016833944, -0.11551626, -284425.53, -251615.69, 0.0, 9.995648, 10.0004635 
2.664517e+3, 3.0665043e+2, -579653.44, -154153.05, -88619.96, 0.1771895, -0.19499578, -136433.84, -136433.84, 0.0, 9.995485, 10.001119 
2.6644418e+3, 3.1665128e+2, -478994.16, 164544.36, 175037.6, -0.048361015, -0.2032303, 209072.28, 209072.28, 0.0, 9.995024, 10.003524 
2.6757947e+3, 1.2674743e+2, -1021840.2, -1636937.4, -40357.586, -0.050725322, -0.046830885, -1019203.56, 678660.25, 0.046938155, 10.006167, 9.99758 
2.675723e+3, 1.3674319e+2, -996160.2, -1589976.8, -19085.85, 0.04544115, -0.20002402, -995547.4, 604355.44, 0.028915165, 10.005602, 9.997489 
2.6756513e+3, 1.4674073e+2, -943907.44, -1460371.4, 48518.98, 0.036600284, -0.19453464, -939388.9, 562536.75, 0.013404922, 10.004965, 9.99801 
2.6755804e+3, 1.567393e+2, -950181.06, -1433988.1, 47710.56, 0.027514223, -0.113751575, -945520.94, 458418.44, 0.003978256, 10.004291, 9.997841 
2.675509e+3, 1.6673654e+2, -935060.56, -1375591.4, 26569.268, 0.014817689, -0.14189698, -933463.9, 372502.97, 0.00058720075, 10.003712, 9.997845 
2.675437e+3, 1.7673329e+2, -911077.0, -1305276.0, 25453.398, -0.012660936, -0.22574393, -909440.25, 298559.56, 0.000023679344, 10.003164, 9.997921 
2.675366e+3, 1.8673164e+2, -817302.1, -1084627.3, 72643.914, -0.0020595437, -0.21708882, -798837.06, 311177.84, 0.000000001728097, 10.002601, 9.999032 
2.6752958e+3, 1.9673096e+2, -822145.6, -1065842.8, 88025.43, 0.030767765, -0.16117173, -793676.06, 218343.7, 0.0, 10.002021, 9.99877 
2.675225e+3, 2.0672944e+2, -818869.3, -1066202.5, 74590.484, 0.015143343, -0.13073924, -798115.8, 115919.33, 0.0, 10.001599, 9.998295 
2.675154e+3, 2.167276e+2, -773203.2, -989946.8, 58249.227, -0.028574476, -0.117935546, -758540.75, 57514.18, 0.0, 10.001222, 9.99833 
2.675083e+3, 2.2672576e+2, -708373.94, -810034.2, 53334.113, -0.010468884, -0.1577097, -685527.56, 32545.322, 0.0, 10.000574, 9.999203 
2.6750126e+3, 2.3672402e+2, -733418.0, -780053.9, 60757.625, 0.040928908, -0.22397897, -691657.4, -71568.85, 0.0, 9.9997635, 9.999128 
2.6749417e+3, 2.4672346e+2, -694845.2, -670193.9, 56164.945, 0.02782658, -0.18399376, -625018.0, -102923.32, 0.0, 9.999183, 9.999488 
2.67487e+3, 2.567236e+2, -673005.5, -619020.3, 51147.32, -0.027727578, -0.090761706, -588179.94, -164085.08, 0.0, 9.998699, 9.999401 
2.6747987e+3, 2.6672286e+2, -638917.25, -519644.78, 14622.647, -0.02991149, -0.091347866, -517878.22, -191775.03, 0.0, 9.998122, 9.999688 
2.6747274e+3, 2.7672178e+2, -629376.8, -455662.4, 1302.5533, 0.019035216, -0.14465249, -455652.66, -227537.9, 0.0, 9.997476, 9.999768 
2.6746556e+3, 2.8672197e+2, -574960.3, -244185.06, -9114.002, 0.043166302, -0.14083306, -243934.14, -113822.25, 0.0, 9.996597, 10.00097 
2.674583e+3, 2.967231e+2, -643165.1, -265341.34, 2761.1755, -0.021233015, -0.1006229, -265321.2, -233221.5, 0.0, 9.995622, 10.000626 
2.6745108e+3, 3.0672184e+2, -660442.3, -326915.47, -80299.4, 0.035556767, -0.2187483, -308589.63, -308589.63, 0.0, 9.995502, 9.999927 
2.674437e+3, 3.167228e+2, -572224.7, -34113.56, -9056.017, 0.022160584, -0.09140791, -33961.195, -33961.195, 0.0, 9.995038, 10.002155 
2.6858002e+3, 1.2681957e+2, -1099326.8, -1657020.1, 25190.305, -0.05749586, -0.07693916, -1098191.3, 598966.3, 0.038794193, 10.00547, 9.997775 
2.6857284e+3, 1.36816e+2, -1011308.5, -1577889.1, 27974.084, 0.049866788, -0.181169, -1009930.6, 589259.2, 0.023579435, 10.00538, 9.997681 
2.685656e+3, 1.4681359e+2, -975158.3, -1469829.4, 69283.56, 0.04139538, -0.18136552, -965637.75, 535574.1, 0.010689982, 10.004714, 9.998061 
2.685584e+3, 1.5681188e+2, -1020872.0, -1460470.6, 58350.11, 0.02622172, -0.13080126, -1013258.75, 389968.75, 0.0030647703, 10.003771, 9.997908 
2.6855123e+3, 1.6680932e+2, -1001013.25, -1395189.6, 58320.637, 0.027520154, -0.1466859, -992565.44, 312688.03, 0.0004351303, 10.003209, 9.99795 
2.6854402e+3, 1.7680651e+2, -948053.25, -1309854.6, 74251.84, 0.02532844, -0.19845249, -933407.5, 273875.78, 0.000016890075, 10.002858, 9.9980345 
2.6853684e+3, 1.8680488e+2, -839430.4, -1087779.6, 101587.22, 0.009951338, -0.19552046, -803170.3, 306127.66, 0.0000000002885943, 10.002421, 9.999093 
2.6852974e+3, 1.9680399e+2, -829191.1, -1061941.9, 83590.04, -0.006178517, -0.16400366, -802281.75, 209022.02, 0.0, 10.001945, 9.998831 
2.6852262e+3, 2.0680247e+2, -834880.0, -1063987.4, 86724.45, -0.010573234, -0.13991785, -805754.6, 107564.414, 0.0, 10.0014515, 9.99838 
2.6851547e+3, 2.1680076e+2, -807958.75, -997204.7, 104229.46, -0.010175836, -0.12289116, -761807.9, 53530.234, 0.0, 10.000948, 9.99841 
2.6850834e+3, 2.2679898e+2, -737247.3, -822850.4, 93809.16, 0.01346963, -0.15863931, -676936.6, 40418.734, 0.0, 10.000375, 9.999209 
2.6850122e+3, 2.3679726e+2, -735862.44, -779196.3, 89068.836, 0.057431396, -0.222841, -665863.06, -46492.434, 0.0, 9.9997425, 9.999142 
2.6849404e+3, 2.4679673e+2, -697566.25, -672519.44, 90114.555, 0.02842122, -0.17958355, -594062.25, -72685.51, 0.0, 9.999172, 9.999475 
2.6848683e+3, 2.567969e+2, -687353.94, -625471.6, 88642.89, -0.046076976, -0.080573566, -562524.94, -139147.97, 0.0, 9.998605, 9.9994 
2.6847962e+3, 2.6679626e+2, -650924.44, -519376.9, 72833.03, -0.04727566, -0.075517096, -487013.84, -161629.23, 0.0, 9.998018, 9.999738 
2.6847246e+3, 2.7679524e+2, -641194.2, -456562.38, 91731.92, 0.021071294, -0.12681991, -418736.16, -191340.67, 0.0, 9.997377, 9.999807 
2.6846522e+3, 2.8679532e+2, -548497.44, -231245.77, 65641.12, 0.06624618, -0.13327688, -218200.66, -88807.02, 0.0, 9.996784, 10.000965 
2.6845792e+3, 2.967962e+2, -568327.4, -234452.25, 49660.695, 0.023144092, -0.11006142, -227222.27, -195839.02, 0.0, 9.996165, 10.000572 
2.684505e+3, 3.0679527e+2, -614720.94, -331379.22, 33220.977, -0.086801045, -0.17950656, -327536.28, -327536.28, 0.0, 9.995938, 9.99968 
2.684433e+3, 3.1679627e+2, -500640.63, -73089.51, 7422.7944, 0.091055386, -0.018158013, -72960.68, -72960.68, 0.0, 9.995852, 10.001491 
2.695806e+3, 1.2689151e+2, -1098560.8, -1654018.8, 20053.797, -0.012730904, -0.22255763, -1097837.8, 598612.4, 0.031532153, 10.005432, 9.9978075 
2.695733e+3, 1.3689044e+2, -1013612.44, -1579996.0, 19895.57, 0.022953568, -0.08092204, -1012914.4, 585546.2, 0.018881686, 10.005341, 9.9976845 
2.6956603e+3, 1.468878e+2, -984203.75, -1487340.6, 33700.066, 0.0014892196, -0.09837865, -981956.56, 518528.84, 0.008353855, 10.004693, 9.9979515 
2.6955873e+3, 1.5688452e+2, -1024350.6, -1465067.3, 28315.605, 0.0008136979, -0.19426097, -1022538.8, 379977.22, 0.0023088965, 10.003754, 9.997886 
2.6955155e+3, 1.668827e+2, -977152.1, -1346261.5, 46637.145, 0.05531009, -0.1585899, -971350.7, 333184.8, 0.0003153354, 10.003209, 9.998287 
2.6954436e+3, 1.7688166e+2, -934956.56, -1282297.5, 60640.41, 0.12216074, -0.062047683, -924674.06, 281874.47, 0.000011633443, 10.002852, 9.998228 
2.6953712e+3, 1.8687966e+2, -869083.6, -1147514.5, 83808.35, 0.045573276, -0.08069895, -845803.56, 262763.6, 0.000000000007316074, 10.002412, 9.99869 
2.6952982e+3, 1.9687732e+2, -849305.9, -1096697.8, 66394.9, -0.096113786, -0.15641162, -832613.2, 177974.11, 0.0, 10.001912, 9.99861 
2.6952267e+3, 2.0687553e+2, -797880.1, -983049.0, 68780.48, -0.050228834, -0.18510234, -775127.56, 137476.6, 0.0, 10.0014305, 9.998947 
2.6951566e+3, 2.1687415e+2, -782287.94, -937736.94, 85695.52, 0.08199458, -0.19101317, -744319.6, 70298.6, 0.0, 10.000917, 9.998835 
2.6950842e+3, 2.2687306e+2, -752138.56, -852346.75, 71170.85, 0.06098328, -0.16210645, -715204.06, 1425.1844, 0.0, 10.000367, 9.999011 
2.695011e+3, 2.3687223e+2, -745032.4, -800349.2, 66155.336, -0.0300682, -0.11917834, -700986.4, -82348.68, 0.0, 9.999749, 9.998995 
2.694939e+3, 2.468711e+2, -693191.9, -664784.75, 67700.81, -0.016556874, -0.1322734, -609813.56, -89164.37, 0.0, 9.999175, 9.999528 
2.6948676e+3, 2.5686997e+2, -676836.44, -605501.94, 66870.8, 0.03200417, -0.17143716, -565381.0, -142720.08, 0.0, 9.99861, 9.9995365 
2.6947942e+3, 2.6686975e+2, -614124.06, -442240.6, 49847.375, -0.03180076, -0.15767868, -428830.72, -104168.234, 0.0, 9.9980135, 10.000271 
2.6947203e+3, 2.7687013e+2, -614499.75, -403947.84, 70852.37, -0.115688324, -0.1200634, -382325.88, -155667.67, 0.0, 9.997387, 10.000166 
2.6946485e+3, 2.8687006e+2, -583392.0, -307471.13, 43806.477, 0.012273313, -0.12675671, -300683.2, -172023.78, 0.0, 9.996796, 10.00044 
2.694576e+3, 2.9686996e+2, -583655.3, -274714.78, 30085.719, 0.13798779, -0.15122116, -271812.2, -241150.64, 0.0, 9.996197, 10.000282 
2.6944992e+3, 3.0687106e+2, -550023.2, -206777.2, 35591.723, -0.22011994, -0.054408256, -203125.5, -203125.5, 0.0, 9.995978, 10.000518 
2.6944286e+3, 3.168711e+2, -482506.44, -56564.016, -120468.32, 0.09230257, -0.06828476, -24853.076, -24853.076, 0.0, 9.995917, 10.001588 
2.7058113e+3, 1.269653e+2, -1101219.4, -1666191.3, 40161.066, 0.02064506, -0.22541822, -1098378.8, 597348.25, 0.025098855, 10.005421, 9.997728 
2.705738e+3, 1.3696446e+2, -1056900.0, -1601190.6, 29093.5, 0.029617319, -0.051686056, -1055349.4, 542386.8, 0.014777287, 10.005017, 9.997692 
2.7056643e+3, 1.4696185e+2, -1010921.56, -1470856.9, 39413.668, 0.010493653, -0.080921456, -1007568.5, 492192.0, 0.0063607455, 10.004376, 9.998215 
2.705591e+3, 1.5695848e+2, -1025059.4, -1442138.0, 58965.793, 0.02785544, -0.21064278, -1016883.2, 384908.16, 0.0016888677, 10.003649, 9.998092 
2.7055183e+3, 1.669568e+2, -970934.0, -1347474.1, 85230.5, 0.058675323, -0.16437536, -952540.44, 351269.0, 0.00022097028, 10.00327, 9.998248 
2.7054462e+3, 1.7695607e+2, -907223.75, -1269355.8, 70880.79, 0.085802495, -0.035154987, -893844.44, 311975.6, 0.000007542903, 10.003048, 9.99822 
2.7053732e+3, 1.8695413e+2, -896314.5, -1151748.4, 91232.734, 0.032071598, -0.05218587, -867075.94, 240762.48, 0.0, 10.00219, 9.998766 
2.7053e+3, 1.969517e+2, -969225.3, -1142287.4, 109801.06, -0.055992536, -0.14226668, -915956.9, 93902.66, 0.0, 10.0010395, 9.998715 
2.705228e+3, 2.0694995e+2, -905598.1, -1014693.4, 120542.88, -0.018304897, -0.18151696, -827835.4, 84040.39, 0.0, 10.000607, 9.999125 
2.705157e+3, 2.1694866e+2, -828211.3, -940234.6, 107713.06, 0.08164273, -0.19414334, -762817.0, 51071.34, 0.0, 10.000522, 9.999005 
2.705084e+3, 2.269478e+2, -747836.75, -838405.9, 96377.55, 0.045649722, -0.15500031, -686635.06, 29261.775, 0.0, 10.000349, 9.999113 
2.7050105e+3, 2.3694724e+2, -687046.0, -764916.6, 111898.31, -0.048533425, -0.094332345, -607502.7, 10399.945, 0.0, 10.000119, 9.999057 
2.704938e+3, 2.4694595e+2, -639731.8, -651009.94, 105432.97, -0.025275324, -0.11798969, -539787.25, -19871.23, 0.0, 9.9995985, 9.999416 
2.704866e+3, 2.5694442e+2, -636504.75, -587540.94, 90949.61, 0.04622639, -0.18510202, -517835.8, -95903.914, 0.0, 9.998897, 9.999519 
2.704792e+3, 2.6694438e+2, -571987.25, -386914.03, 56198.914, -0.028383877, -0.17583017, -371185.5, -47254.164, 0.0, 9.998157, 10.000579 
2.7047172e+3, 2.7694508e+2, -602221.94, -372294.8, 60881.086, -0.13691707, -0.13024837, -357169.44, -131247.56, 0.0, 9.997367, 10.000389 
2.7046448e+3, 2.86945e+2, -594819.44, -327993.38, 52598.234, -0.00841234, -0.14346644, -317999.28, -190075.42, 0.0, 9.996787, 10.0003 
2.704572e+3, 2.9694462e+2, -575832.7, -274940.66, 70254.96, 0.13528235, -0.18117912, -259345.2, -229415.58, 0.0, 9.996271, 10.000243 
2.704495e+3, 3.069466e+2, -514381.25, -135746.64, 81702.63, -0.2219895, -0.021262662, -118868.984, -118868.984, 0.0, 9.9959955, 10.000995 
2.704425e+3, 3.1694585e+2, -464921.38, -16106.055, -121171.59, 0.14801899, -0.15759373, 14518.349, 14518.349, 0.0, 9.995907, 10.001866 
2.7158168e+3, 1.2704043e+2, -1104770.5, -1681083.5, 25985.828, 0.03598036, -0.12674214, -1103601.1, 591390.94, 0.019466544, 10.005431, 9.997613 
2.7157432e+3, 1.3703825e+2, -1064932.6, -1605859.5, 15818.694, 0.054097064, -0.07944447, -1064470.5, 532544.1, 0.011237691, 10.004947, 9.997694 
2.715669e+3, 1.4703593e+2, -978163.1, -1396761.6, 12686.98, 0.05380714, -0.112485155, -977778.94, 521256.6, 0.00468589, 10.004338, 9.998747 
2.715595e+3, 1.5703359e+2, -999101.1, -1391353.9, 34566.03, 0.092150666, -0.18786325, -996078.4, 404976.78, 0.0011892053, 10.003657, 9.998438 
2.7155212e+3, 1.670316e+2, -997364.8, -1401409.6, 77730.805, 0.036479104, -0.16697793, -982926.75, 320149.47, 0.00014779682, 10.003264, 9.997882 
2.7154472e+3, 1.7702986e+2, -927436.4, -1299870.0, 58465.81, -0.07049975, -0.101733044, -918473.9, 286622.66, 0.0000045032148, 10.0029955, 9.998037 
2.7153742e+3, 1.8702836e+2, -864663.4, -1081142.8, 49322.41, -0.022169424, -0.09749292, -853955.44, 253155.28, 0.0, 10.002165, 9.999264 
2.715302e+3, 1.9702706e+2, -943925.2, -1091035.6, 74760.59, 0.0962783, -0.12432515, -912601.8, 96519.48, 0.0, 10.001041, 9.999067 
2.7152294e+3, 2.0702563e+2, -918293.3, -1045141.06, 117464.58, 0.072370104, -0.1331352, -848223.7, 62911.293, 0.0, 10.000622, 9.998909 
2.7151564e+3, 2.1702427e+2, -834542.4, -953516.75, 103929.51, -0.01835813, -0.13283983, -774279.56, 38869.25, 0.0, 10.00052, 9.998917 
2.7150834e+3, 2.2702318e+2, -718808.75, -779103.5, 88064.125, -0.029537885, -0.13851649, -655874.7, 59283.746, 0.0, 10.00035, 9.999521 
2.7150106e+3, 2.3702228e+2, -669651.4, -728222.1, 100514.74, -0.0032656817, -0.14887522, -594242.7, 22922.771, 0.0, 10.0001135, 9.999314 
2.7149376e+3, 2.4702129e+2, -661206.7, -695768.06, 79906.36, -0.0019384379, -0.13563903, -596733.8, -77556.71, 0.0, 9.999597, 9.99911 
2.714864e+3, 2.5702038e+2, -647649.75, -616769.1, 63924.855, -0.021860052, -0.11172597, -566446.3, -145256.94, 0.0, 9.9989195, 9.99931 
2.7147898e+3, 2.6702002e+2, -566805.3, -378715.2, 24764.842, -0.036764335, -0.12638633, -375509.16, -52317.75, 0.0, 9.998163, 10.000634 
2.7147153e+3, 2.7701998e+2, -594245.56, -358086.75, 32242.504, -0.02686231, -0.16225591, -353763.84, -128575.836, 0.0, 9.997374, 10.000485 
2.7146414e+3, 2.8702e+2, -574171.0, -285200.97, 32501.727, -0.0021622842, -0.18565175, -281590.47, -154402.92, 0.0, 9.996784, 10.000597 
2.7145663e+3, 2.9702026e+2, -556119.44, -235943.6, 54959.895, -0.040492214, -0.18897952, -226772.16, -197586.31, 0.0, 9.996276, 10.000511 
2.7144927e+3, 3.0702156e+2, -504994.38, -119473.18, 75899.48, -0.011808815, -0.11526193, -105068.67, -105068.67, 0.0, 9.996002, 10.001106 
2.7144194e+3, 3.1702182e+2, -429583.2, 59904.32, -6015.134, 0.056477483, -0.1695241, 59978.227, 59978.227, 0.0, 9.995911, 10.002378 
2.7258223e+3, 1.2711614e+2, -1017436.4, -1641029.0, 48013.566, 0.05921689, -0.07255162, -1013761.25, 680489.94, 0.014626787, 10.006014, 9.997616 
2.7257472e+3, 1.3711287e+2, -1172279.5, -1657455.3, 49594.387, 0.054152533, -0.13132122, -1167261.9, 429021.2, 0.0082480125, 10.004188, 9.9977045 
2.7256727e+3, 1.471108e+2, -1074146.0, -1450567.9, 54223.293, 0.041403946, -0.13407727, -1066490.9, 431811.75, 0.0033135389, 10.003707, 9.998676 
2.7255985e+3, 1.5710935e+2, -966820.75, -1370277.5, 35581.89, 0.074839264, -0.117910355, -963706.75, 436609.1, 0.000799113, 10.003859, 9.998484 
2.725524e+3, 1.671073e+2, -983545.0, -1344149.5, 88720.84, 0.030190337, -0.12949681, -962898.75, 339437.06, 0.00009313198, 10.003147, 9.998329 
2.7254495e+3, 1.7710511e+2, -1040861.44, -1317338.8, 121712.33, -0.05862568, -0.15107776, -994915.94, 209441.7, 0.0000024128854, 10.002062, 9.998366 
2.7253762e+3, 1.8710369e+2, -939484.3, -1134751.0, 103533.22, -0.006185434, -0.14162323, -894810.25, 211561.34, 0.0, 10.001731, 9.999103 
2.7253032e+3, 1.971027e+2, -849016.1, -1057347.9, 85997.53, 0.11498979, -0.1204586, -818103.9, 190277.2, 0.0, 10.00175, 9.998954 
2.72523e+3, 2.071014e+2, -806913.56, -987976.3, 132479.84, 0.07370942, -0.11182926, -736986.75, 173406.78, 0.0, 10.001376, 9.998936 
2.7251562e+3, 2.1710007e+2, -789934.0, -927239.06, 134201.66, -0.042478286, -0.11059058, -707844.2, 104562.27, 0.0, 10.000809, 9.998957 
2.7250832e+3, 2.2709876e+2, -739215.06, -780743.94, 102705.66, -0.04823397, -0.14227124, -655195.8, 59221.957, 0.0, 10.000178, 9.999592 
2.7250102e+3, 2.3709758e+2, -750795.1, -754311.1, 89593.734, 0.0046427017, -0.18915442, -662942.1, -46514.65, 0.0, 9.999505, 9.999425 
2.7249366e+3, 2.4709703e+2, -743660.94, -709567.25, 84719.266, -0.0027927603, -0.14968413, -640196.8, -121762.07, 0.0, 9.998924, 9.999337 
2.724862e+3, 2.5709686e+2, -718772.6, -633830.8, 107739.99, -0.044933334, -0.07192688, -560492.9, -140053.1, 0.0, 9.998364, 9.999456 
2.7247873e+3, 2.6709625e+2, -586305.25, -405108.2, 72579.19, -0.04882481, -0.10719949, -379621.28, -57177.047, 0.0, 9.998109, 10.000476 
2.7247128e+3, 2.770955e+2, -522105.7, -336266.4, 64105.95, -0.0029563594, -0.20081428, -316298.34, -91850.44, 0.0, 9.997929, 10.000365 
2.7246383e+3, 2.870956e+2, -433985.75, -214831.63, 48224.043, 0.025637994, -0.20774616, -204689.47, -78243.65, 0.0, 9.997741, 10.000615 
2.724563e+3, 2.9709637e+2, -381842.78, -152858.33, 44220.88, -0.03356589, -0.16134964, -144615.25, -116176.71, 0.0, 9.997484, 10.000495 
2.7244887e+3, 3.070966e+2, -465302.38, -116257.0, 29779.51, 0.0034464141, -0.18559963, -113734.53, -113734.53, 0.0, 9.996349, 10.0009575 
2.724413e+3, 3.1709737e+2, -511619.22, 59502.176, 11489.133, -0.09963588, -0.18471146, 59733.207, 59733.207, 0.0, 9.995192, 10.002716 
2.7358282e+3, 1.2719238e+2, -1021561.94, -1631488.8, -20690.578, 0.07759496, -0.048665483, -1020860.8, 672643.9, 0.01057343, 10.0059185, 9.997722 
2.735751e+3, 1.3718826e+2, -1171470.9, -1660835.6, -825.63446, 0.029199582, -0.20209241, -1171469.5, 424073.47, 0.005798025, 10.004199, 9.997675 
2.7356756e+3, 1.4718641e+2, -1111329.1, -1531125.1, 64478.156, -0.01748246, -0.14783248, -1101648.9, 395913.84, 0.0022306363, 10.003714, 9.998121 
2.735601e+3, 1.5718566e+2, -990890.3, -1403895.3, 37761.566, -0.012953838, -0.010715238, -987466.1, 412107.2, 0.0005081898, 10.003784, 9.99829 
2.7355272e+3, 1.6718382e+2, -911987.6, -1186990.0, 50723.74, 0.037258733, -0.059854258, -902930.06, 398658.63, 0.00005459018, 10.003108, 9.999428 
2.735453e+3, 1.7718165e+2, -989423.56, -1214259.5, 88789.85, 0.09150585, -0.18762504, -958588.44, 245016.77, 0.0000011019603, 10.002075, 9.999068 
2.7353784e+3, 1.8717997e+2, -989332.4, -1243371.9, 104662.67, 0.06401373, -0.18457434, -951766.9, 153855.4, 0.0, 10.001752, 9.998347 
2.7353036e+3, 1.9717862e+2, -887857.5, -1136395.6, 84118.53, 0.005550583, -0.1251763, -862064.1, 145574.4, 0.0, 10.00174, 9.998417 
2.7352303e+3, 2.071773e+2, -790063.1, -951849.94, 112547.55, -0.0046384614, -0.114675604, -732353.9, 177297.28, 0.0, 10.001369, 9.999188 
2.7351573e+3, 2.1717604e+2, -784023.25, -909182.4, 113279.945, -0.00018124434, -0.12894614, -717186.6, 94474.96, 0.0, 10.000781, 9.999096 
2.7350834e+3, 2.2717457e+2, -760440.06, -823588.25, 78529.87, -0.017378801, -0.16696401, -707374.5, 6300.6704, 0.0, 10.000172, 9.999301 
2.7350092e+3, 2.3717314e+2, -753079.4, -761226.5, 65121.125, -0.037868973, -0.2116262, -691904.5, -76215.85, 0.0, 9.999512, 9.999376 
2.7349347e+3, 2.4717318e+2, -688657.06, -596452.0, 62459.93, -0.029388769, -0.15948911, -564922.8, -47233.8, 0.0, 9.998925, 10.000115 
2.7348605e+3, 2.571739e+2, -682281.6, -559477.75, 90339.33, -0.02605746, -0.06747017, -511648.78, -91965.76, 0.0, 9.998367, 9.999968 
2.734785e+3, 2.6717302e+2, -615358.1, -465234.5, 67824.03, -0.07091801, -0.121606745, -439131.22, -117441.45, 0.0, 9.998107, 10.000065 
2.7347097e+3, 2.7717164e+2, -543266.3, -388415.66, 58664.598, -0.09267393, -0.24107459, -368700.78, -144999.72, 0.0, 9.997961, 9.999993 
2.7346364e+3, 2.871718e+2, -450023.5, -259667.27, 39309.277, 0.08464701, -0.20584643, -251869.2, -126170.38, 0.0, 9.997786, 10.000289 
2.7345628e+3, 2.9717284e+2, -397504.88, -201295.78, 22603.217, 0.20571382, -0.09825057, -198725.56, -171036.36, 0.0, 9.99755, 10.000133 
2.734482e+3, 3.0717164e+2, -503233.88, -193500.6, -35632.613, -0.28773367, -0.22277346, -189454.17, -189454.17, 0.0, 9.996343, 10.000431 
2.7344087e+3, 3.1717163e+2, -509611.03, 48927.645, 27194.893, -0.04520508, -0.24195273, 50248.62, 50248.62, 0.0, 9.995219, 10.002648 
2.7458334e+3, 1.2726922e+2, -1115626.3, -1657290.1, 3623.5903, 0.070063174, -0.05948235, -1115602.0, 577150.7, 0.0072904713, 10.005161, 9.99791 
2.7457553e+3, 1.3726571e+2, -1099434.6, -1608603.6, 31546.71, 0.044807527, -0.168181, -1097487.5, 497296.88, 0.0038696693, 10.004616, 9.997833 
2.745679e+3, 1.4726374e+2, -1113412.5, -1533466.9, 139068.02, -0.0027154034, -0.13238329, -1071544.1, 425261.06, 0.0014174089, 10.003711, 9.998104 
2.7456042e+3, 1.5726252e+2, -1146230.1, -1476185.0, 143651.69, -0.006187548, -0.037136484, -1092453.4, 306366.78, 0.00030295577, 10.002709, 9.99831 
2.7455294e+3, 1.6726087e+2, -997547.3, -1216858.0, 124139.33, 0.044986233, -0.07279247, -941567.94, 359265.94, 0.000029338584, 10.002473, 9.999528 
2.7454552e+3, 1.7725909e+2, -914084.25, -1171417.6, 100663.6, 0.10838157, -0.16626777, -879385.44, 323460.88, 0.00000039166414, 10.002567, 9.999123 
2.74538e+3, 1.872574e+2, -923347.44, -1228207.8, 130419.93, 0.063465916, -0.15800813, -875167.75, 229696.23, 0.0, 10.00228, 9.998196 
2.745305e+3, 1.9725586e+2, -884260.4, -1144729.6, 146317.78, -0.023836154, -0.103000306, -818612.5, 188270.22, 0.0, 10.001813, 9.998325 
2.745231e+3, 2.0725438e+2, -814257.5, -951663.2, 167126.47, -0.020970117, -0.109084085, -702263.5, 206633.08, 0.0, 10.001157, 9.99929 
2.7451578e+3, 2.1725298e+2, -829677.5, -924500.3, 158972.8, 0.02169133, -0.14534584, -711196.8, 99710.91, 0.0, 10.000443, 9.99915 
2.7450836e+3, 2.272516e+2, -767067.4, -845641.44, 137608.97, -0.0074346648, -0.16459094, -663247.1, 49673.86, 0.0, 10.000211, 9.999129 
2.7450085e+3, 2.3725034e+2, -665799.3, -729954.6, 128099.664, -0.05765804, -0.17495951, -565822.06, 49111.81, 0.0, 10.000162, 9.999276 
2.744934e+3, 2.4725017e+2, -598672.94, -538424.4, 79865.67, -0.036546737, -0.14510457, -483190.6, 33744.73, 0.0, 9.999485, 10.000242 
2.744859e+3, 2.5725055e+2, -652980.06, -534859.5, 66941.55, 0.0004177192, -0.10015469, -504648.9, -85717.67, 0.0, 9.998527, 10.000058 
2.7447832e+3, 2.6724988e+2, -581952.6, -456891.16, 71459.32, -0.05590509, -0.13490567, -424466.5, -103530.39, 0.0, 9.998376, 9.99999 
2.7447075e+3, 2.7724886e+2, -474463.16, -370074.94, 80990.53, -0.100438535, -0.20566832, -325917.13, -102972.984, 0.0, 9.998506, 9.999854 
2.7446342e+3, 2.8724858e+2, -459912.22, -302612.97, 51552.883, 0.076198064, -0.19072136, -287222.9, -162275.89, 0.0, 9.997887, 9.999944 
2.7445596e+3, 2.9724878e+2, -505201.7, -284016.53, 33090.203, 0.20018756, -0.13324706, -279172.2, -252226.17, 0.0, 9.996945, 9.999855 
2.7444777e+3, 3.0724812e+2, -435353.28, -165196.45, -8515.696, -0.3239851, -0.18787976, -164928.3, -164928.3, 0.0, 9.99683, 10.00039 
2.7444056e+3, 3.1724814e+2, -391865.22, 41916.73, 107824.95, 0.090168044, -0.19373405, 67240.36, 67240.36, 0.0, 9.996309, 10.002072 
2.755838e+3, 1.2734663e+2, -1111248.1, -1626263.6, -15534.846, 0.041026704, -0.09375669, -1110780.0, 581215.56, 0.004742523, 10.005058, 9.99817 
2.75576e+3, 1.373449e+2, -1092554.8, -1575057.9, 10247.011, 0.083211295, -0.052110903, -1092337.3, 501673.03, 0.0024253782, 10.004527, 9.998107 
2.755683e+3, 1.4734246e+2, -1088343.1, -1481414.3, 100631.34, 0.06442041, -0.09510102, -1064078.0, 431954.97, 0.00084098364, 10.003705, 9.9984665 
2.7556074e+3, 1.5733986e+2, -1129265.8, -1453564.5, 114115.47, 0.06996962, -0.17058098, -1093135.6, 304922.25, 0.00016702582, 10.002761, 9.998442 
2.7555317e+3, 1.6733839e+2, -1044739.44, -1320818.5, 127280.805, 0.049278926, -0.15187387, -995015.0, 305057.25, 0.000014111729, 10.002497, 9.998804 
2.7554563e+3, 1.7733741e+2, -954042.5, -1245360.4, 99898.99, 0.0076926956, -0.096869245, -923076.56, 279005.0, 0.00000009505926, 10.002526, 9.998636 
2.7553815e+3, 1.873359e+2, -902104.0, -1178493.5, 113879.34, 0.0016465326, -0.07237035, -861228.06, 242869.31, 0.0, 10.0022545, 9.99855 
2.755307e+3, 1.9733427e+2, -867472.3, -1106568.3, 127197.8, 0.01154864, -0.059717808, -812460.8, 193654.13, 0.0, 10.001797, 9.998596 
2.7552325e+3, 2.0733255e+2, -818315.8, -960556.56, 139777.31, 0.015522766, -0.09705926, -732605.7, 175525.05, 0.0, 10.001156, 9.999231 
2.755158e+3, 2.173309e+2, -833755.1, -932453.8, 137653.84, 0.013953025, -0.154006, -736872.0, 73272.9, 0.0, 10.000439, 9.999099 
2.755083e+3, 2.2732988e+2, -769472.44, -852877.5, 136617.84, -0.019296603, -0.13216193, -668334.06, 43821.133, 0.0, 10.000218, 9.999078 
2.7550083e+3, 2.3732916e+2, -678309.56, -755759.44, 118538.195, -0.06074167, -0.07976321, -592331.1, 21832.092, 0.0, 10.000158, 9.999103 
2.7549332e+3, 2.4732798e+2, -639141.06, -621939.7, 43386.484, -0.026777579, -0.11017194, -586309.6, -70135.29, 0.0, 9.999481, 9.999671 
2.7548572e+3, 2.5732675e+2, -674021.4, -584114.4, 39822.277, 0.023078492, -0.17102842, -569012.6, -150827.5, 0.0, 9.9985485, 9.99971 
2.7547818e+3, 2.6732677e+2, -559326.0, -414915.22, 76698.62, -0.0009213736, -0.14402373, -381781.66, -61598.195, 0.0, 9.998393, 10.000273 
2.7547067e+3, 2.7732727e+2, -460647.9, -349490.03, 76761.26, -0.022544777, -0.08697786, -310299.22, -88122.484, 0.0, 9.998537, 9.999982 
2.7546307e+3, 2.873259e+2, -487935.66, -357408.6, 13421.705, -0.022194743, -0.16589257, -356042.78, -231851.94, 0.0, 9.997872, 9.999575 
2.7545533e+3, 2.97324e+2, -522952.2, -310122.44, 9311.429, -0.11232442, -0.28137434, -309715.8, -283505.38, 0.0, 9.996897, 9.999701 
2.754478e+3, 3.0732647e+2, -385993.22, -79053.71, 5016.506, -0.005498414, -0.05071107, -78971.75, -78971.75, 0.0, 9.99689, 10.0009575 
2.7544004e+3, 3.1732666e+2, -485959.84, -142091.84, -1166.0831, -0.006668223, -0.082216114, -142087.89, -142087.89, 0.0, 9.996292, 10.000799 
2.7658415e+3, 1.2742528e+2, -1240878.0, -1676151.9, 27833.334, -0.0110982405, -0.09500755, -1239105.4, 452118.8, 0.0028676372, 10.004095, 9.998294 
2.7657643e+3, 1.3742363e+2, -1197954.1, -1612690.4, 43290.33, 0.11189541, -0.054587614, -1193483.8, 399754.9, 0.0014051697, 10.00374, 9.998228 
2.7656868e+3, 1.4742132e+2, -1100801.5, -1482185.1, 116813.39, 0.10315871, -0.09180223, -1067867.0, 427392.9, 0.00045778803, 10.003596, 9.998513 
2.7656105e+3, 1.5741877e+2, -1025060.2, -1412911.0, 109410.37, 0.09439019, -0.16431144, -996325.06, 400958.6, 0.000083043655, 10.003519, 9.998355 
2.7655342e+3, 1.674169e+2, -1030071.5, -1371340.4, 126301.9, 0.04436185, -0.14809746, -988413.0, 310889.78, 0.000005757098, 10.002851, 9.998284 
2.765458e+3, 1.7741543e+2, -1054104.8, -1323222.9, 115457.38, -0.03266841, -0.0927234, -1011360.25, 189958.36, 0.00000000965895, 10.001974, 9.998365 
2.7653828e+3, 1.8741405e+2, -947927.75, -1148585.9, 145569.94, -0.020650133, -0.07518167, -871461.6, 231870.75, 0.0, 10.001719, 9.999012 
2.7653086e+3, 1.974127e+2, -857929.6, -1068056.6, 161179.13, 0.034583792, -0.077022545, -770595.0, 234750.03, 0.0, 10.001718, 9.998897 
2.7652335e+3, 2.0741117e+2, -807578.8, -983804.25, 153679.31, 0.035153173, -0.09186778, -718544.2, 188815.67, 0.0, 10.001355, 9.998974 
2.765158e+3, 2.1740964e+2, -789594.5, -931788.56, 140655.8, 0.010778089, -0.11027069, -703088.1, 106286.5, 0.0, 10.000836, 9.998911 
2.7650833e+3, 2.274085e+2, -752714.06, -841999.1, 148203.6, -0.012043319, -0.09458017, -642575.25, 68811.07, 0.0, 10.000326, 9.999098 
2.7650085e+3, 2.3740755e+2, -729081.56, -782624.8, 134439.13, -0.026032109, -0.06687111, -618774.4, -5378.153, 0.0, 9.999825, 9.999077 
2.7649325e+3, 2.4740613e+2, -619130.75, -636751.56, 75097.89, -0.016328055, -0.10704856, -552328.25, -36918.805, 0.0, 9.999727, 9.99945 
2.764856e+3, 2.5740463e+2, -517051.28, -530008.6, 94502.42, -0.0036042028, -0.17198087, -428805.72, -11382.971, 0.0, 9.999726, 9.999512 
2.76478e+3, 2.674045e+2, -500017.13, -403686.1, 112055.58, -0.008673235, -0.13849744, -329882.9, -10460.311, 0.0, 9.9988785, 10.000114 
2.7647048e+3, 2.7740496e+2, -588147.44, -419410.13, 81349.984, 0.0067187003, -0.071291134, -386578.56, -165161.58, 0.0, 9.997702, 9.999903 
2.764628e+3, 2.8740358e+2, -523291.16, -355739.84, 38708.117, -0.0472951, -0.1543413, -347229.63, -223798.9, 0.0, 9.997556, 9.999735 
2.764549e+3, 2.974018e+2, -389808.1, -221405.81, 74271.69, -0.20474258, -0.27969074, -193330.0, -167880.55, 0.0, 9.997714, 9.999911 
2.7644753e+3, 3.0740502e+2, -324316.34, -15402.477, 78352.64, 0.09347069, 0.002870841, 3334.358, 3334.358, 0.0, 9.997175, 10.001254 
2.764395e+3, 3.1740457e+2, -447989.13, -218417.4, -43501.95, -0.17601028, -0.105117016, -210450.63, -210450.63, 0.0, 9.996971, 9.999943 
2.7758446e+3, 1.2750491e+2, -1244096.3, -1676421.0, 13309.234, -0.08772046, -0.06927917, -1243686.9, 446754.78, 0.0015775769, 10.0040655, 9.998304 
2.7757674e+3, 1.3750212e+2, -1198196.5, -1616426.8, 33804.293, 0.12517115, -0.14513017, -1195481.8, 396986.22, 0.0007344459, 10.003752, 9.998197 
2.7756903e+3, 1.4750035e+2, -1115000.3, -1513048.5, 113325.74, 0.11728752, -0.113818675, -1084997.5, 409487.94, 0.00022181487, 10.003599, 9.9983015 
2.7756137e+3, 1.5749897e+2, -1049654.5, -1453749.0, 97218.58, 0.07577789, -0.04832812, -1027481.9, 369017.63, 0.00003543484, 10.003473, 9.998098 
2.7755365e+3, 1.6749632e+2, -1055940.0, -1423933.6, 92817.484, 0.02910517, -0.07749521, -1033854.56, 264671.72, 0.0000017161015, 10.002845, 9.997927 
2.7754596e+3, 1.7749336e+2, -1057451.8, -1338007.0, 92345.77, -0.030701596, -0.14075775, -1029784.25, 170772.05, 0.00000000000031198744, 10.002007, 9.99825 
2.7753845e+3, 1.8749195e+2, -906603.0, -1067944.8, 147088.2, -0.01126662, -0.15375188, -819515.94, 283052.25, 0.0, 10.0017395, 9.999558 
2.77531e+3, 1.9749124e+2, -840341.25, -1026406.44, 155563.48, 0.041567102, -0.14572589, -752114.2, 252458.38, 0.0, 10.001694, 9.999196 
2.7752346e+3, 2.0749022e+2, -840347.4, -1050247.4, 133181.52, 0.037240252, -0.09083432, -775733.8, 130850.2, 0.0, 10.001348, 9.998522 
2.7751586e+3, 2.1748915e+2, -813982.0, -979882.9, 121210.086, 0.005811304, -0.020331439, -750056.06, 58541.484, 0.0, 10.000823, 9.998589 
2.7750835e+3, 2.274874e+2, -747593.9, -831535.06, 129456.89, 0.012393635, -0.057437874, -653474.0, 57140.992, 0.0, 10.000324, 9.999172 
2.7750087e+3, 2.3748548e+2, -720854.06, -766895.2, 119803.65, 0.034740925, -0.13427411, -621879.3, -9246.515, 0.0, 9.999828, 9.999184 
2.7749318e+3, 2.4748464e+2, -608219.44, -616664.44, 76796.09, -0.009287759, -0.13083817, -535529.9, -20889.65, 0.0, 9.999736, 9.999585 
2.7748546e+3, 2.5748423e+2, -518200.25, -538468.8, 85394.5, -0.08885435, -0.096334815, -442340.78, -25697.705, 0.0, 9.999749, 9.999444 
2.7747777e+3, 2.674831e+2, -547078.1, -500701.78, 65175.91, -0.08647249, -0.12175014, -454712.0, -136058.2, 0.0, 9.998875, 9.999451 
2.774702e+3, 2.774818e+2, -613415.25, -465352.4, 48655.176, -0.023205105, -0.1700634, -450795.03, -230128.6, 0.0, 9.997671, 9.999602 
2.7746257e+3, 2.8748176e+2, -471313.56, -249113.1, 48750.4, 0.01510373, -0.15176539, -238887.89, -116221.51, 0.0, 9.997555, 10.00047 
2.7745482e+3, 2.9748243e+2, -333521.8, -124131.46, 72030.34, -0.04966164, -0.101727895, -101746.15, -77086.47, 0.0, 9.997794, 10.000544 
2.7744702e+3, 3.0748346e+2, -328901.47, -21103.695, 48427.195, -0.10192743, -0.065431416, -13664.241, -13664.241, 0.0, 9.997161, 10.001222 
2.774392e+3, 3.1748286e+2, -451948.88, -260995.06, -18176.125, -0.14967829, -0.17463998, -259280.34, -259280.34, 0.0, 9.9970665, 9.999631 
2.7858487e+3, 1.275843e+2, -1286104.5, -1717542.0, 40694.16, -0.055893734, -0.1138045, -1282299.6, 407361.03, 0.0007658475, 10.003858, 9.998124 
2.785771e+3, 1.3758142e+2, -1180420.9, -1630599.8, 45867.98, 0.090780675, -0.17763409, -1175795.0, 415894.22, 0.0003341884, 10.003969, 9.997995 
2.785693e+3, 1.475796e+2, -1144221.9, -1561766.0, 110009.88, 0.07464592, -0.12478647, -1117011.0, 376697.8, 0.00009108268, 10.003552, 9.997988 
2.7856162e+3, 1.5757819e+2, -1131515.3, -1508196.5, 89463.414, 0.051671416, -0.032611646, -1111347.1, 284377.44, 0.000011753326, 10.002981, 9.997959 
2.785539e+3, 1.675757e+2, -1038531.44, -1384246.1, 111848.35, 0.030921673, -0.058972392, -1005501.1, 292248.22, 0.00000025139548, 10.002829, 9.998207 
2.785462e+3, 1.7757286e+2, -929895.94, -1262794.6, 147696.3, 0.0030326764, -0.13298923, -873815.3, 325961.47, 0.0, 10.002818, 9.998377 
2.785386e+3, 1.8757118e+2, -857896.4, -1077716.8, 171004.05, 0.009497808, -0.15848018, -764526.9, 337264.4, 0.0, 10.002221, 9.999257 
2.7853113e+3, 1.9757009e+2, -895223.75, -1075377.9, 127346.87, 0.031768132, -0.15974447, -829316.5, 174483.19, 0.0, 10.001423, 9.998986 
2.7852356e+3, 2.0756899e+2, -860221.7, -1061541.1, 116532.14, 0.029345995, -0.10585468, -806894.0, 98918.516, 0.0, 10.001224, 9.998503 
2.7851596e+3, 2.175679e+2, -752059.4, -946399.7, 129846.25, 0.019711856, -0.03440099, -687050.3, 120776.34, 0.0, 10.001234, 9.998619 
2.7850837e+3, 2.2756633e+2, -698341.94, -791455.25, 136918.11, 0.02262262, -0.062562555, -600281.56, 109560.54, 0.0, 10.000596, 9.999315 
2.785008e+3, 2.3756467e+2, -728339.25, -757340.06, 137450.64, 0.035736937, -0.12947935, -604626.3, 7230.952, 0.0, 9.999724, 9.999297 
2.784931e+3, 2.4756393e+2, -651901.56, -637629.9, 107168.125, -0.006932615, -0.115089186, -537360.3, -23496.646, 0.0, 9.999439, 9.999582 
2.784854e+3, 2.5756362e+2, -576160.0, -569362.6, 100303.98, -0.081637114, -0.06953004, -472399.78, -56533.52, 0.0, 9.999366, 9.999415 
2.7847767e+3, 2.675623e+2, -506032.7, -490635.34, 87205.35, -0.09163209, -0.1088818, -410789.5, -92910.64, 0.0, 9.999205, 9.999357 
2.7846998e+3, 2.7756065e+2, -438393.34, -388970.34, 112425.73, -0.035636615, -0.17954114, -298572.3, -78678.05, 0.0, 9.998918, 9.999523 
2.7846232e+3, 2.875608e+2, -410211.06, -225093.48, 89892.24, 0.023709003, -0.13820168, -188626.14, -66733.1, 0.0, 9.998003, 10.000418 
2.7845457e+3, 2.975618e+2, -461439.28, -186837.1, 54267.742, -0.019868845, -0.048125364, -176501.55, -152618.11, 0.0, 9.996923, 10.00053 
2.7844664e+3, 3.0756205e+2, -329791.53, -10056.529, 17814.08, -0.16308275, -0.09709882, -9067.077, -9067.077, 0.0, 9.997114, 10.001315 
2.7843902e+3, 3.1756195e+2, -392725.94, -195626.17, 10530.538, -0.03845032, -0.16716166, -195065.16, -195065.16, 0.0, 9.99732, 9.999955 
2.795853e+3, 1.2766351e+2, -1321501.9, -1766760.9, 35840.97, 0.045300156, -0.2058708, -1318635.3, 370245.1, 0.00031494166, 10.003756, 9.997834 
2.795774e+3, 1.3766143e+2, -1201419.1, -1676616.0, 39949.473, 0.013922492, -0.16289297, -1198084.0, 392819.16, 0.00012577252, 10.003981, 9.997674 
2.7956957e+3, 1.4765908e+2, -1168550.3, -1616849.6, 85968.46, -0.01573326, -0.12628971, -1152629.8, 340299.78, 0.00002907313, 10.00357, 9.997603 
2.7956185e+3, 1.5765674e+2, -1140377.0, -1519673.8, 75139.49, 0.012910508, -0.0944477, -1126034.0, 268922.0, 0.0000024460635, 10.00295, 9.997896 
2.795542e+3, 1.6765511e+2, -989583.75, -1274877.8, 112616.336, 0.04501473, -0.08202512, -950487.5, 346483.78, 0.0000000042322403, 10.002793, 9.998977 
2.7954653e+3, 1.7765373e+2, -916389.44, -1224196.6, 137187.56, 0.06300441, -0.07976137, -864121.44, 334861.1, 0.0, 10.002771, 9.998666 
2.7953884e+3, 1.8765156e+2, -931643.25, -1229015.8, 138463.55, 0.03590639, -0.099501915, -877155.3, 223847.9, 0.0, 10.0022135, 9.998223 
2.795312e+3, 1.9764924e+2, -940904.25, -1171182.6, 105087.31, -0.003770696, -0.12504801, -900157.6, 102868.66, 0.0, 10.001426, 9.998328 
2.7952364e+3, 2.0764746e+2, -832144.06, -1005862.94, 119299.52, 0.011604976, -0.137876, -771433.4, 133611.5, 0.0, 10.001231, 9.998882 
2.795161e+3, 2.1764602e+2, -731621.9, -898833.94, 122948.7, 0.042101443, -0.14223665, -666545.9, 140514.9, 0.0, 10.00121, 9.998958 
2.795084e+3, 2.2764537e+2, -686127.94, -764407.3, 103580.76, 0.015511474, -0.10285089, -614538.7, 94528.38, 0.0, 10.000586, 9.999507 
2.795007e+3, 2.3764504e+2, -722943.5, -744553.94, 111554.03, -0.027138747, -0.052085098, -621672.6, -10602.875, 0.0, 9.999715, 9.999391 
2.7949303e+3, 2.4764398e+2, -663899.7, -662283.3, 104629.07, -0.00889316, -0.06458674, -558459.3, -45378.805, 0.0, 9.999437, 9.999414 
2.7948537e+3, 2.5764278e+2, -572742.8, -565228.94, 96294.875, 0.013441978, -0.09625401, -472617.72, -57524.734, 0.0, 9.999377, 9.99944 
2.7947763e+3, 2.6764214e+2, -467618.34, -415202.06, 79092.984, -0.022091372, -0.095895104, -358088.13, -40990.95, 0.0, 9.999219, 9.99987 
2.7946985e+3, 2.7764174e+2, -422097.38, -367532.44, 95304.01, -0.04040464, -0.08790747, -295682.75, -76584.29, 0.0, 9.998968, 9.999647 
2.7946204e+3, 2.8764063e+2, -479555.25, -368664.6, 43171.25, -0.034121986, -0.11558115, -353839.44, -232728.52, 0.0, 9.998001, 9.999433 
2.794541e+3, 2.9763955e+2, -527917.4, -306092.53, 27220.242, -0.12833014, -0.14065887, -302801.16, -279676.7, 0.0, 9.996841, 9.999752 
2.7944642e+3, 3.0764073e+2, -316681.13, 10289.433, 41409.5, -0.07188427, -0.07293419, 15452.257, 15452.257, 0.0, 9.997135, 10.00145 
2.7943876e+3, 3.176412e+2, -328996.47, -54684.2, -26002.346, 0.008281175, -0.11487904, -52241.168, -52241.168, 0.0, 9.997307, 10.000917 
2.8058568e+3, 1.2774274e+2, -1405112.5, -1782836.8, 6116.2397, 0.082280025, -0.1945323, -1405013.5, 283091.38, 0.00010351229, 10.003076, 9.998052 
2.8057772e+3, 1.3774094e+2, -1190033.0, -1647697.1, 20637.117, -0.022186572, -0.14476277, -1189104.4, 401020.25, 0.00003585604, 10.003956, 9.997886 
2.8056982e+3, 1.4773867e+2, -1166537.1, -1592306.0, 60090.29, -0.059619453, -0.121680245, -1158218.9, 333930.94, 0.00000603324, 10.003483, 9.997813 
2.8056207e+3, 1.5773632e+2, -1186266.6, -1523157.0, 89046.26, -0.009677803, -0.11013497, -1164178.4, 229997.64, 0.00000016363987, 10.002553, 9.998065 
2.8055438e+3, 1.6773483e+2, -1064960.5, -1302222.8, 126750.12, 0.04170174, -0.09234126, -1009985.94, 286203.66, 0.0, 10.002243, 9.999052 
2.8054675e+3, 1.777337e+2, -999938.3, -1259221.3, 108527.516, 0.07513224, -0.073727556, -960508.4, 237689.9, 0.0, 10.002187, 9.998701 
2.8053907e+3, 1.8773147e+2, -951318.4, -1263662.4, 127271.1, 0.043784402, -0.0884167, -906026.7, 194193.9, 0.0, 10.002188, 9.997997 
2.8053135e+3, 1.9772892e+2, -838851.1, -1134124.9, 144863.22, 0.000086632404, -0.11488656, -779649.9, 222597.27, 0.0, 10.002174, 9.998224 
2.8052372e+3, 2.0772725e+2, -781149.0, -954691.75, 162339.19, 0.00944114, -0.12587124, -683846.25, 220417.97, 0.0, 10.00147, 9.999118 
2.8051615e+3, 2.17726e+2, -815875.8, -917072.94, 154620.98, 0.03510983, -0.12926267, -703784.94, 102491.984, 0.0, 10.000541, 9.999152 
2.8050843e+3, 2.277254e+2, -724717.4, -776870.06, 126139.984, 0.012936589, -0.097211204, -621986.6, 86296.1, 0.0, 10.000299, 9.999557 
2.8050065e+3, 2.3772505e+2, -641131.1, -706624.94, 126841.09, -0.018276326, -0.052485704, -542877.94, 67407.79, 0.0, 10.000287, 9.999374 
2.80493e+3, 2.4772394e+2, -610202.56, -659262.0, 118717.29, -0.002192696, -0.05592063, -513507.28, -1209.5405, 0.0, 9.999908, 9.999207 
2.804853e+3, 2.5772265e+2, -581617.3, -579519.1, 105482.336, 0.02067337, -0.07576167, -475080.66, -60768.715, 0.0, 9.999365, 9.999345 
2.804775e+3, 2.6772207e+2, -489666.63, -409020.7, 68081.69, -0.020776317, -0.077162735, -370216.8, -53901.4, 0.0, 9.998996, 10.00002 
2.804697e+3, 2.7772176e+2, -462123.75, -386658.84, 55384.555, -0.047423564, -0.07434813, -357374.97, -139059.72, 0.0, 9.998689, 9.999652 
2.8046188e+3, 2.877205e+2, -417691.22, -380026.38, 19883.592, -0.0149115585, -0.093633905, -371472.34, -251142.86, 0.0, 9.998606, 9.999063 
2.804539e+3, 2.9771912e+2, -310726.63, -236323.14, 55495.727, -0.0755936, -0.1117983, -206713.61, -184366.88, 0.0, 9.998487, 9.999435 
2.8044608e+3, 3.077197e+2, -279200.03, 13189.553, 84534.45, -0.13160223, -0.08111019, 35870.426, 35870.426, 0.0, 9.997457, 10.001314 
2.8043836e+3, 3.1772038e+2, -407194.97, -43811.61, -9128.651, -0.0485003, -0.09715278, -43582.43, -43582.43, 0.0, 9.996568, 10.001344 
2.815859e+3, 1.2782206e+2, -1354921.6, -1696657.0, 41448.81, 0.05896007, -0.10877321, -1349966.1, 337365.66, 0.00002429662, 10.00316, 9.998599 
2.8157806e+3, 1.3782012e+2, -1179434.3, -1580185.3, 36793.746, -0.03514008, -0.12674144, -1176084.1, 413266.56, 0.000006466996, 10.003761, 9.998443 
2.8157014e+3, 1.4781839e+2, -1140075.5, -1510789.0, 22610.809, -0.07014603, -0.11113409, -1138701.5, 352667.3, 0.00000052844416, 10.0033655, 9.99843 
2.8156227e+3, 1.5781672e+2, -1158519.6, -1473780.6, 60270.688, -0.01999114, -0.0875643, -1147390.1, 245996.4, 0.0000000005064632, 10.002587, 9.998388 
2.8155458e+3, 1.6781487e+2, -1090604.3, -1365290.1, 123594.086, 0.018206641, -0.09199277, -1043180.94, 252223.52, 0.0, 10.002285, 9.9986 
2.815469e+3, 1.77813e+2, -1016539.7, -1289276.0, 107794.81, 0.034220576, -0.10664465, -979080.4, 218341.44, 0.0, 10.002166, 9.998507 
2.8153923e+3, 1.8781102e+2, -923841.56, -1199182.1, 129142.61, 0.03458278, -0.11819449, -872750.3, 226691.6, 0.0, 10.002153, 9.998457 
2.8153157e+3, 1.9780912e+2, -822306.06, -1086817.3, 135354.13, 0.03351972, -0.12449624, -765320.3, 236141.72, 0.0, 10.002117, 9.998577 
2.8152385e+3, 2.0780826e+2, -779051.9, -946182.0, 126024.87, 0.018096859, -0.07136268, -711403.9, 192067.33, 0.0, 10.001451, 9.9991865 
2.815161e+3, 2.1780778e+2, -815919.2, -913637.56, 127973.64, -0.006287162, -0.0046969815, -727794.9, 77681.555, 0.0, 10.0005245, 9.999185 
2.8150842e+3, 2.2780633e+2, -729795.56, -789047.3, 126682.97, 0.014110807, -0.052087083, -629320.44, 78169.48, 0.0, 10.000304, 9.999472 
2.8150073e+3, 2.3780467e+2, -648431.8, -724230.25, 121714.71, 0.049154226, -0.13135263, -558852.3, 50653.016, 0.0, 10.000296, 9.99925 
2.8149295e+3, 2.4780385e+2, -627292.4, -696222.9, 98001.81, 0.00809305, -0.0848169, -557872.06, -46357.098, 0.0, 9.999911, 9.998953 
2.814851e+3, 2.5780335e+2, -598315.6, -615427.1, 86566.266, -0.07066002, -0.0013771786, -519883.3, -106360.84, 0.0, 9.999368, 9.999099 
2.814773e+3, 2.6780197e+2, -509018.4, -447528.06, 55017.64, -0.0940595, -0.054917507, -415247.78, -99713.39, 0.0, 9.998988, 9.999761 
2.814695e+3, 2.7780047e+2, -468219.88, -398955.8, 45440.73, -0.05941801, -0.14847916, -376454.34, -158907.6, 0.0, 9.998685, 9.99957 
2.814618e+3, 2.8780037e+2, -389293.53, -328891.1, 19794.928, 0.09220096, -0.06977236, -322982.03, -203433.17, 0.0, 9.998634, 9.999402 
2.8145394e+3, 2.9780075e+2, -278396.06, -193272.84, 41745.406, 0.14650118, 0.056139123, -176217.6, -154670.2, 0.0, 9.998589, 9.999683 
2.8144553e+3, 3.0779907e+2, -307173.28, -44794.824, 29898.291, -0.3791937, -0.12658614, -41431.01, -41431.01, 0.0, 9.997456, 10.0009165 
2.814379e+3, 3.1779963e+2, -420219.63, -74113.93, 90005.305, -0.11798578, -0.11566788, -52107.184, -52107.184, 0.0, 9.99656, 10.00115 
2.825862e+3, 1.2790127e+2, -1239706.3, -1597557.0, 39146.043, 0.01813333, -0.07925797, -1235474.0, 451085.2, 0.000003329977, 10.003756, 9.998997 
2.8257832e+3, 1.3789962e+2, -1435651.1, -1657208.5, 35820.57, -0.027779104, -0.10722898, -1430003.8, 158569.89, 0.00000050691085, 10.0018015, 9.9988575 
2.825704e+3, 1.478982e+2, -1299539.9, -1543286.5, 41103.09, -0.056587864, -0.10027066, -1292795.3, 197792.17, 0.0000000023756648, 10.002086, 9.998821 
2.8256255e+3, 1.5789683e+2, -1061867.8, -1397069.4, 57299.86, -0.0142601365, -0.08556986, -1052343.5, 340257.7, 0.0, 10.003127, 9.998652 
2.8255478e+3, 1.678949e+2, -1039652.6, -1360202.8, 107336.875, 0.0021406398, -0.09600318, -1007030.56, 287589.66, 0.0, 10.002718, 9.998427 
2.8254706e+3, 1.7789282e+2, -1067843.8, -1316322.1, 111136.914, -0.00052947825, -0.11358699, -1025389.2, 171251.31, 0.0, 10.001819, 9.998492 
2.8253937e+3, 1.8789119e+2, -1014343.06, -1195749.1, 145253.72, 0.02428265, -0.11835065, -933798.7, 164858.52, 0.0, 10.001333, 9.998874 
2.8253174e+3, 1.9788978e+2, -958793.8, -1115113.0, 147506.31, 0.05915799, -0.11553048, -870019.2, 130652.555, 0.0, 10.001028, 9.998901 
2.8252396e+3, 2.0788902e+2, -827565.2, -968212.3, 129740.66, 0.027176932, -0.0645275, -750314.94, 152364.66, 0.0, 10.001117, 9.999193 
2.8251615e+3, 2.178885e+2, -706406.75, -868012.3, 127748.72, -0.02307526, -0.0009124466, -636051.25, 168633.84, 0.0, 10.001308, 9.99912 
2.8250843e+3, 2.2788692e+2, -675857.4, -793986.06, 113409.484, -0.00028202622, -0.043553486, -607053.4, 99647.55, 0.0, 10.000811, 9.999192 
2.8250074e+3, 2.3788504e+2, -689308.4, -758557.4, 95426.1, 0.051656, -0.11715871, -622419.3, -13700.005, 0.0, 10.00008, 9.999117 
2.824929e+3, 2.4788426e+2, -616781.8, -667279.06, 96501.77, 0.006897871, -0.07610263, -542280.4, -31552.512, 0.0, 9.999881, 9.999166 
2.8248504e+3, 2.5788385e+2, -525490.7, -575109.25, 117924.97, -0.08201467, 0.00027119013, -429793.53, -17060.54, 0.0, 9.999844, 9.999147 
2.824772e+3, 2.678823e+2, -454817.06, -459174.1, 87262.36, -0.09776212, -0.053561818, -369706.03, -54958.074, 0.0, 9.999526, 9.999421 
2.824694e+3, 2.778805e+2, -426077.28, -396414.78, 73457.57, -0.03950693, -0.14475265, -336306.2, -119541.36, 0.0, 9.999059, 9.999404 
2.8246164e+3, 2.8788054e+2, -355693.88, -289788.22, 47636.49, 0.105767496, -0.057325006, -264817.6, -146053.06, 0.0, 9.998769, 9.999606 
2.8245375e+3, 2.978812e+2, -284935.0, -194589.6, 48506.777, 0.14371449, 0.07963763, -173478.95, -152720.23, 0.0, 9.998533, 9.999703 
2.8244528e+3, 3.0787873e+2, -238711.14, -78137.43, -8464.101, -0.36486042, -0.14958517, -77692.51, -77692.51, 0.0, 9.998214, 10.00032 
2.8243765e+3, 3.1787905e+2, -283419.88, -12675.148, 106846.53, -0.062051713, -0.10524098, 24410.77, 24410.77, 0.0, 9.997529, 10.0011 
2.8358647e+3, 1.2798049e+2, -1242595.3, -1560729.1, -36272.79, -0.03368031, -0.08319596, -1238511.9, 447273.97, 0.00000016214108, 10.003578, 9.999331 
2.8357846e+3, 1.3797948e+2, -1402921.0, -1608101.1, -4675.119, -0.019185675, -0.08208832, -1402814.5, 184978.52, 0.0000000020979667, 10.0018835, 9.999155 
2.835706e+3, 1.4797816e+2, -1275174.1, -1506830.3, 83974.805, -0.037689406, -0.09050726, -1247936.1, 241868.92, 0.0, 10.002143, 9.999045 
2.8356284e+3, 1.5797672e+2, -1061175.8, -1377829.0, 77219.734, -0.005140228, -0.10341403, -1043348.44, 348470.22, 0.0, 10.003048, 9.998823 
2.83555e+3, 1.6797498e+2, -1047416.4, -1362718.8, 72837.266, -0.007641401, -0.102725506, -1031403.6, 262432.75, 0.0, 10.002658, 9.998439 
2.8354713e+3, 1.7797318e+2, -1060774.9, -1299397.6, 83391.53, -0.031390507, -0.095795736, -1034520.6, 161334.19, 0.0, 10.001808, 9.998612 
2.8353944e+3, 1.8797189e+2, -984100.6, -1137310.4, 133234.39, 0.009176915, -0.09350608, -907018.44, 190848.56, 0.0, 10.00135, 9.999268 
2.835318e+3, 1.9797082e+2, -940839.1, -1076062.4, 140467.55, 0.06671044, -0.09417161, -852558.25, 147318.67, 0.0, 10.0010195, 9.999175 
2.8352404e+3, 2.0796955e+2, -830983.25, -974666.25, 137919.92, 0.034100708, -0.10372323, -747315.56, 154573.73, 0.0, 10.001111, 9.999153 
2.8351626e+3, 2.1796826e+2, -721402.1, -893540.25, 125358.375, -0.02950186, -0.11198773, -655410.0, 148492.11, 0.0, 10.001283, 9.998958 
2.8350845e+3, 2.2796717e+2, -711776.1, -866074.7, 85200.0, -0.03375076, -0.06605409, -673986.06, 31929.037, 0.0, 10.000798, 9.998705 
2.8350064e+3, 2.3796616e+2, -701490.9, -781053.2, 74768.9, -0.013767635, -0.008460482, -656578.9, -48651.164, 0.0, 10.000067, 9.99897 
2.8349283e+3, 2.4796513e+2, -569046.4, -569428.0, 96055.125, -0.006160735, -0.032540575, -473181.88, 36754.88, 0.0, 9.999886, 9.999836 
2.8348505e+3, 2.5796413e+2, -495413.7, -520051.8, 112692.7, -0.022034181, -0.077423364, -394368.72, 17575.4, 0.0, 9.999873, 9.999512 
2.834772e+3, 2.6796305e+2, -481880.16, -519510.47, 70065.04, -0.02962919, -0.071742095, -428147.97, -114192.336, 0.0, 9.99954, 9.9990015 
2.8346932e+3, 2.779619e+2, -440645.4, -432372.34, 58384.62, 0.004400612, -0.055290088, -377977.9, -162009.63, 0.0, 9.999083, 9.999147 
2.8346136e+3, 2.8796098e+2, -353042.6, -283415.34, 38458.613, 0.0035771972, -0.06107301, -266353.6, -148376.92, 0.0, 9.998765, 9.999652 
2.8345332e+3, 2.9796022e+2, -305661.03, -231925.53, 39547.664, -0.119441554, -0.064194866, -214726.2, -194743.47, 0.0, 9.998507, 9.999462 
2.8344545e+3, 3.0795863e+2, -293304.44, -203757.61, -20547.588, -0.023819609, -0.14236659, -199267.83, -199267.83, 0.0, 9.998261, 9.999438 
2.834374e+3, 3.1795865e+2, -283975.4, -11330.441, -2134.4004, -0.027819654, -0.05422705, -11313.732, -11313.732, 0.0, 9.99753, 10.0011015 
2.8458673e+3, 1.280612e+2, -1452499.0, -1674407.9, 10689.855, -0.05672957, -0.038721573, -1451985.3, 233011.39, 0.00000000032983427, 10.002183, 9.999227 
2.8457868e+3, 1.3805982e+2, -1266422.4, -1546249.1, 18430.752, -0.0027976693, -0.06280955, -1265213.8, 321793.38, 0.0, 10.002836, 9.999121 
2.845708e+3, 1.480584e+2, -1234224.6, -1483071.6, 105642.84, -0.009802332, -0.08107139, -1195425.5, 293594.53, 0.0, 10.002408, 9.999081 
2.8456306e+3, 1.5805699e+2, -1250528.6, -1455489.5, 85039.34, 0.025859332, -0.09694307, -1219840.3, 171193.34, 0.0, 10.001689, 9.998946 
2.845552e+3, 1.6805556e+2, -1159223.1, -1378467.4, 87145.945, 0.0049268114, -0.09053323, -1128804.5, 164243.36, 0.0, 10.00173, 9.9987755 
2.845473e+3, 1.7805414e+2, -1013995.06, -1245493.3, 117040.36, -0.044181064, -0.07859253, -965134.6, 229927.34, 0.0, 10.002003, 9.998884 
2.8453955e+3, 1.8805303e+2, -934588.94, -1111238.1, 146854.03, -0.012316957, -0.06968791, -851544.5, 245527.92, 0.0, 10.001683, 9.999286 
2.8453186e+3, 1.9805203e+2, -918396.6, -1067491.9, 133327.61, 0.050116733, -0.061718047, -840190.9, 158890.67, 0.0, 10.00118, 9.999159 
2.845241e+3, 2.080504e+2, -884165.44, -1011193.8, 130075.13, 0.032304846, -0.10174644, -802926.06, 98171.58, 0.0, 10.000793, 9.999055 
2.8451633e+3, 2.1804863e+2, -839897.7, -951015.06, 113397.61, -0.013324205, -0.14986664, -769179.75, 33935.543, 0.0, 10.000474, 9.998951 
2.845085e+3, 2.2804785e+2, -723994.2, -851974.3, 104019.71, -0.033038616, -0.08458716, -665858.0, 39266.92, 0.0, 10.00063, 9.998881 
2.8450063e+3, 2.3804739e+2, -573346.44, -704752.1, 137560.34, -0.033279568, 0.01196883, -486603.53, 120528.24, 0.0, 10.000886, 9.999098 
2.8449285e+3, 2.4804619e+2, -495714.38, -531237.1, 128586.89, -0.003652413, -0.033380974, -383667.97, 125474.05, 0.0, 10.000379, 9.99986 
2.8448504e+3, 2.5804484e+2, -533223.0, -533331.3, 101827.79, 0.022081386, -0.116450466, -431449.38, -20296.832, 0.0, 9.999598, 9.999551 
2.8447708e+3, 2.680441e+2, -484924.1, -515937.5, 80057.086, -0.020837476, -0.075255506, -418885.75, -105725.29, 0.0, 9.999498, 9.999046 
2.8446916e+3, 2.7804357e+2, -368925.78, -402882.8, 98920.58, -0.04462478, -0.0037733035, -285537.22, -70368.99, 0.0, 9.99959, 9.999109 
2.844612e+3, 2.8804192e+2, -273892.72, -268303.78, 67772.48, -0.051703006, -0.06453787, -203268.19, -86084.664, 0.0, 9.999409, 9.999446 
2.8445312e+3, 2.980402e+2, -244534.7, -230077.77, 48378.918, -0.15497676, -0.14501382, -188390.28, -169191.13, 0.0, 9.999055, 9.999206 
2.8444532e+3, 3.0804005e+2, -305671.94, -252215.95, 9840.978, 0.05900346, -0.044328943, -250461.83, -250461.83, 0.0, 9.998368, 9.999052 
2.844371e+3, 3.1803933e+2, -223372.95, 11487.747, 18461.469, -0.089541934, 0.0031284192, 12930.072, 12930.072, 0.0, 9.997974, 10.001046 
2.8558686e+3, 1.2814292e+2, -1473676.5, -1732240.3, 33083.313, -0.0847048, 0.03519052, -1469510.6, 214685.72, 0.0, 10.002248, 9.998795 
2.8557897e+3, 1.3814054e+2, -1290038.3, -1592972.6, 28528.64, 0.02325487, -0.049368232, -1287375.0, 298842.16, 0.0, 10.002828, 9.998804 
2.8557107e+3, 1.4813896e+2, -1244017.5, -1500662.3, 76286.055, 0.030834788, -0.067030005, -1223054.3, 265178.28, 0.0, 10.002395, 9.998967 
2.8556326e+3, 1.5813765e+2, -1244716.8, -1440436.0, 68850.945, 0.069393754, -0.06513054, -1222922.9, 167322.84, 0.0, 10.001675, 9.999056 
2.8555536e+3, 1.6813658e+2, -1114087.0, -1286647.6, 98777.36, 0.026827002, -0.0660185, -1069213.8, 223041.3, 0.0, 10.001738, 9.999402 
2.8554747e+3, 1.781356e+2, -990730.25, -1196222.6, 117459.54, -0.053567175, -0.06825039, -937420.25, 256842.86, 0.0, 10.001997, 9.999227 
2.855397e+3, 1.8813454e+2, -959177.5, -1160037.3, 126347.43, -0.04105789, -0.046620257, -898207.75, 198066.02, 0.0, 10.001671, 9.998959 
2.855319e+3, 1.9813342e+2, -942601.9, -1109489.6, 115540.055, 0.005356546, -0.019467833, -883524.25, 114761.16, 0.0, 10.001144, 9.998888 
2.8552416e+3, 2.0813157e+2, -895878.75, -1034828.3, 117475.9, 0.021454977, -0.061499007, -828871.56, 71432.914, 0.0, 10.000791, 9.998895 
2.8551638e+3, 2.1812956e+2, -831273.7, -931065.2, 108358.67, 0.0198872, -0.12119037, -761874.94, 40449.945, 0.0, 10.0004635, 9.999094 
2.8550854e+3, 2.2812891e+2, -666952.7, -735206.25, 116218.02, -0.0027958269, -0.10194416, -579954.44, 124376.086, 0.0, 10.000635, 9.999681 
2.855007e+3, 2.3812865e+2, -544922.1, -649406.06, 136598.1, -0.026076151, -0.058824822, -450916.8, 155415.06, 0.0, 10.0009, 9.999473 
2.8549287e+3, 2.4812743e+2, -539735.25, -622585.0, 97929.89, 0.010712471, -0.07860655, -474829.1, 33514.656, 0.0, 10.000378, 9.999234 
2.85485e+3, 2.58126e+2, -551666.8, -573002.06, 81181.79, 0.044902135, -0.11510694, -480454.78, -70096.61, 0.0, 9.999602, 9.999277 
2.8547695e+3, 2.6812562e+2, -447964.44, -440749.5, 85185.53, -0.07904429, -0.06431249, -359095.1, -46732.582, 0.0, 9.999503, 9.999562 
2.854689e+3, 2.781255e+2, -351376.84, -372681.3, 99464.805, -0.2042882, 0.006227708, -261995.5, -47631.02, 0.0, 9.999615, 9.999306 
2.854611e+3, 2.881235e+2, -308092.28, -344367.63, 56730.9, -0.05129581, -0.06568807, -266670.16, -150285.39, 0.0, 9.999429, 9.998915 
2.8545323e+3, 2.9812118e+2, -253675.95, -260942.63, 28456.07, 0.055793975, -0.1528438, -228622.2, -210214.61, 0.0, 9.999106, 9.99897 
2.8544486e+3, 3.0812323e+2, -289435.66, -216927.78, -20412.064, -0.19496226, 0.15975408, -211576.42, -211576.42, 0.0, 9.998362, 9.999299 
2.8543684e+3, 3.1812072e+2, -234685.13, -29487.305, 95824.195, -0.10060572, 0.014424618, 8301.868, 8301.868, 0.0, 9.99803, 10.000748 
2.865871e+3, 1.282237e+2, -1371638.1, -1686040.3, 33480.46, -0.08687606, 0.025684262, -1368112.4, 315291.84, 0.0, 10.002957, 9.998773 
2.8657928e+3, 1.3822109e+2, -1332134.8, -1612890.9, 42871.15, 0.08102091, -0.08111189, -1325734.4, 259693.14, 0.0, 10.002535, 9.998808 
2.8657126e+3, 1.4821981e+2, -1298184.6, -1525917.5, 83349.664, 0.051307406, -0.06701128, -1270938.5, 216502.02, 0.0, 10.002023, 9.998971 
2.8656337e+3, 1.5821892e+2, -1261825.9, -1443169.6, 91787.89, 0.0317511, -0.023106974, -1223476.8, 165973.88, 0.0, 10.001536, 9.999101 
2.865555e+3, 1.6821775e+2, -1125153.6, -1282552.5, 119188.57, 0.014677534, -0.042700972, -1061026.1, 230434.84, 0.0, 10.001621, 9.999486 
2.8654766e+3, 1.7821653e+2, -1007381.2, -1196171.8, 93492.25, -0.0153562445, -0.07551251, -968918.4, 224552.53, 0.0, 10.001845, 9.999302 
2.865398e+3, 1.8821546e+2, -999873.44, -1172968.3, 90325.61, -0.024738446, -0.06060065, -961324.2, 134157.44, 0.0, 10.001366, 9.999015 
2.8653196e+3, 1.9821441e+2, -997015.5, -1124391.5, 114994.6, -0.020647166, -0.03381753, -929250.4, 68242.445, 0.0, 10.000726, 9.998984 
2.865242e+3, 2.0821308e+2, -870100.75, -1007452.3, 154517.13, 0.006586216, -0.03627679, -769685.1, 129822.13, 0.0, 10.000907, 9.999024 
2.8651646e+3, 2.1821168e+2, -699807.44, -846442.9, 157804.2, 0.03737975, -0.04791561, -599120.44, 202401.58, 0.0, 10.001277, 9.999283 
2.865086e+3, 2.2821082e+2, -658826.3, -698764.5, 130915.48, 0.0058277207, -0.073856615, -546365.7, 157162.7, 0.0, 10.000553, 9.999971 
2.865007e+3, 2.3821013e+2, -729367.2, -720238.44, 122354.67, -0.032628734, -0.09975339, -602363.06, 3169.1636, 0.0, 9.999559, 9.99963 
2.8649285e+3, 2.4820903e+2, -615589.6, -679619.25, 108684.266, 0.0006176348, -0.10088582, -534303.0, -26759.64, 0.0, 9.999948, 9.999048 
2.8648496e+3, 2.5820783e+2, -412319.6, -523239.8, 115900.555, 0.03559162, -0.092944086, -339293.25, 70263.29, 0.0, 10.000632, 9.999124 
2.864769e+3, 2.6820728e+2, -365051.8, -406655.9, 83243.8, -0.08550124, -0.050018884, -300050.25, 11512.683, 0.0, 10.000099, 9.999508 
2.8646883e+3, 2.782069e+2, -418689.1, -405914.78, 61582.19, -0.19804098, -0.000065856155, -350389.4, -136821.97, 0.0, 9.999165, 9.99929 
2.8646103e+3, 2.8820512e+2, -349160.84, -359261.16, 56421.32, -0.03797183, -0.05660626, -297564.13, -181978.06, 0.0, 9.99913, 9.998955 
2.8645313e+3, 2.9820305e+2, -211529.02, -239908.53, 61352.375, 0.07523192, -0.12155853, -162746.84, -145140.13, 0.0, 9.999392, 9.9989805 
2.864447e+3, 3.0820477e+2, -136318.52, -149301.19, -10917.332, -0.21800567, 0.16432337, -130108.45, -130108.45, 0.0, 9.999445, 9.999241 
2.864367e+3, 3.1820136e+2, -126373.73, -15911.906, 120705.38, -0.073458456, -0.063159965, 61598.45, 61598.45, 0.0, 9.998952, 10.000393 
2.8758737e+3, 1.2830395e+2, -1365901.1, -1646279.8, 15153.958, -0.06716189, -0.03297621, -1365084.5, 317532.13, 0.0, 10.002841, 9.999098 
2.8757954e+3, 1.3830157e+2, -1328593.6, -1585361.8, 26994.781, 0.14689945, -0.14606324, -1325786.3, 258850.73, 0.0, 10.00245, 9.999037 
2.8757143e+3, 1.4830092e+2, -1293469.0, -1515175.4, 63949.88, 0.04361812, -0.0823612, -1276345.5, 210299.31, 0.0, 10.002016, 9.999048 
2.8756335e+3, 1.5830067e+2, -1261471.4, -1450838.0, 82431.0, -0.076481804, 0.021927988, -1230616.6, 158033.14, 0.0, 10.001572, 9.999032 
2.875556e+3, 1.6829902e+2, -1152649.6, -1338654.8, 131265.16, -0.022104776, -0.017777972, -1084779.5, 205886.11, 0.0, 10.001616, 9.9991045 
2.875479e+3, 1.7829707e+2, -1027190.75, -1220286.0, 93610.84, 0.061899975, -0.09242306, -989260.0, 203423.58, 0.0, 10.001772, 9.999171 
2.8753996e+3, 1.8829593e+2, -974279.0, -1116496.1, 65969.16, 0.026171478, -0.10767726, -948390.9, 146303.8, 0.0, 10.00135, 9.99941 
2.8753197e+3, 1.9829506e+2, -966764.4, -1065913.5, 103542.45, -0.039288554, -0.101086326, -901540.5, 95162.734, 0.0, 10.000744, 9.999377 
2.8752422e+3, 2.0829491e+2, -841990.25, -951637.75, 171692.66, -0.016116546, -0.023123492, -716580.8, 182125.16, 0.0, 10.000915, 9.999406 
2.8751653e+3, 2.1829489e+2, -691036.8, -819268.9, 155122.97, 0.024935832, 0.06601695, -587301.75, 213405.75, 0.0, 10.001238, 9.999489 
2.875086e+3, 2.2829354e+2, -674840.4, -727966.1, 90188.16, -0.0074984827, -0.003697332, -607384.7, 95334.21, 0.0, 10.000536, 9.999779 
2.875006e+3, 2.3829184e+2, -733287.75, -727531.06, 105511.32, -0.053587355, -0.11304925, -624858.8, -20126.02, 0.0, 9.999556, 9.999582 
2.8749275e+3, 2.4829105e+2, -597231.2, -645688.0, 139544.69, -0.039035995, -0.0985677, -479827.2, 26913.467, 0.0, 9.999963, 9.999276 
2.8748494e+3, 2.5829047e+2, -410604.3, -530106.4, 124435.21, -0.025897486, -0.046129003, -332318.0, 76429.18, 0.0, 10.000675, 9.999056 
2.8747693e+3, 2.6828915e+2, -411430.84, -504224.72, 45087.793, -0.036909968, -0.032294016, -393131.7, -82369.48, 0.0, 10.000105, 9.998835 
2.874689e+3, 2.7828774e+2, -430899.6, -433931.22, 36205.05, -0.018619299, -0.02911335, -396178.63, -183400.1, 0.0, 9.999174, 9.999094 
2.8746092e+3, 2.8828683e+2, -299286.7, -256491.86, 67869.64, -0.01985722, -0.035604533, -206726.52, -91939.164, 0.0, 9.999129, 9.999663 
2.8745285e+3, 2.9828602e+2, -190729.27, -197111.13, 69623.57, -0.12605463, -0.042491663, -124223.55, -107429.07, 0.0, 9.999396, 9.999271 
2.8744486e+3, 3.0828437e+2, -165282.69, -221082.11, -7728.9, 0.03923031, -0.06819239, -164231.94, -164231.94, 0.0, 9.999501, 9.998719 
2.874365e+3, 3.182823e+2, -144243.73, -51089.19, 17062.094, -0.1455718, -0.11787786, -48062.457, -48062.457, 0.0, 9.998952, 10.000147 
2.8858766e+3, 1.2838481e+2, -1525734.5, -1671474.1, 23062.951, 0.0140203, -0.046157215, -1522171.9, 159652.72, 0.0, 10.001514, 9.999569 
2.8857967e+3, 1.3838303e+2, -1441367.3, -1601065.1, 42592.4, 0.10628445, -0.14330088, -1430717.8, 153120.55, 0.0, 10.001507, 9.999384 
2.8857157e+3, 1.4838244e+2, -1329051.1, -1526582.6, 83948.484, 0.01023608, -0.08808896, -1298194.3, 187651.17, 0.0, 10.001748, 9.999099 
2.8856352e+3, 1.5838215e+2, -1194249.6, -1410857.1, 98318.14, -0.06743969, 0.004190407, -1156279.1, 231572.17, 0.0, 10.002001, 9.9991 
2.885557e+3, 1.6838071e+2, -1184812.1, -1346575.1, 160399.02, -0.015291799, -0.019978313, -1086056.0, 203809.45, 0.0, 10.001362, 9.999172 
2.8854796e+3, 1.7837897e+2, -1201545.4, -1298490.4, 156495.88, 0.055186834, -0.07705816, -1086187.0, 105694.94, 0.0, 10.000549, 9.999222 
2.8854004e+3, 1.8837784e+2, -1022182.6, -1138952.0, 126850.74, 0.026722772, -0.09003553, -940925.3, 152967.5, 0.0, 10.0010195, 9.999414 
2.8853208e+3, 1.9837698e+2, -811348.44, -980268.06, 131848.2, -0.021673465, -0.08420019, -739227.9, 256673.33, 0.0, 10.001763, 9.999476 
2.885243e+3, 2.083768e+2, -816022.1, -908702.8, 172744.92, -0.016587574, -0.031347156, -683509.94, 214393.52, 0.0, 10.000962, 9.999678 
2.8851652e+3, 2.1837676e+2, -886551.5, -895169.5, 154284.33, 0.0018163935, 0.03182233, -736516.0, 63388.12, 0.0, 9.999817, 9.999652 
2.885086e+3, 2.283757e+2, -734482.6, -764781.4, 100260.32, -0.011650222, -0.007755444, -648233.6, 53679.844, 0.0, 10.000163, 9.999705 
2.885006e+3, 2.3837435e+2, -543452.25, -637998.6, 126135.39, -0.027167201, -0.07555067, -456022.47, 147902.84, 0.0, 10.000868, 9.999565 
2.8849274e+3, 2.4837348e+2, -508744.4, -593386.0, 157489.86, -0.035459004, -0.07394551, -387988.22, 117945.88, 0.0, 10.000532, 9.999359 
2.884849e+3, 2.5837275e+2, -512931.9, -566696.5, 130096.65, -0.04833812, -0.04617281, -406969.2, 972.7987, 0.0, 9.999928, 9.999159 
2.884769e+3, 2.6837152e+2, -442054.06, -510208.34, 77193.81, -0.037600897, -0.031694323, -391750.3, -81794.36, 0.0, 9.999864, 9.998905 
2.8846884e+3, 2.783702e+2, -342173.28, -381517.2, 120686.26, 0.01610103, -0.024377907, -239566.2, -27594.777, 0.0, 9.999743, 9.999177 
2.8846085e+3, 2.8836957e+2, -240064.1, -235791.63, 143636.66, -0.012974995, -0.0030249897, -94275.32, 19702.824, 0.0, 9.999576, 9.999587 
2.884527e+3, 2.9836902e+2, -165726.39, -197054.22, 86950.48, -0.15774721, 0.02622834, -93040.19, -77056.766, 0.0, 9.999627, 9.999161 
2.8844482e+3, 3.0836645e+2, -156208.67, -249521.39, 11237.603, 0.07964963, -0.071892254, -154874.42, -154874.42, 0.0, 9.999718, 9.998428 
2.8843632e+3, 3.1836516e+2, 2855.825, 35208.78, -7369.327, -0.21067855, -0.017491274, 36808.28, 36808.28, 0.0, 9.9998865, 10.00031 
2.8958786e+3, 1.2846617e+2, -1486960.3, -1589619.3, 21508.775, 0.12598252, -0.02790248, -1482635.9, 198393.2, 0.0, 10.001516, 10.000126 
2.8957966e+3, 1.3846532e+2, -1411979.6, -1544054.6, 44399.805, -0.018653303, -0.08586042, -1398441.5, 184591.08, 0.0, 10.001526, 9.999764 
2.8957164e+3, 1.4846437e+2, -1332129.6, -1526023.3, 93467.62, -0.03944268, -0.08173374, -1294410.6, 190631.73, 0.0, 10.001717, 9.999118 
2.895638e+3, 1.5846342e+2, -1197401.9, -1393523.1, 93356.586, 0.032978103, -0.058750555, -1160069.3, 226984.53, 0.0, 10.001898, 9.9992695 
2.8955585e+3, 1.684627e+2, -1159390.9, -1286236.1, 124332.44, 0.018600658, -0.04723977, -1083239.3, 205822.27, 0.0, 10.001329, 9.999602 
2.895479e+3, 1.7846198e+2, -1186087.6, -1274121.5, 141965.78, -0.032522984, -0.0392033, -1081471.6, 109596.97, 0.0, 10.000583, 9.999373 
2.8954005e+3, 1.8846105e+2, -1044252.6, -1188972.1, 158413.81, -0.01585113, -0.016031576, -942454.75, 150623.34, 0.0, 10.001035, 9.999064 
2.8953227e+3, 1.9846006e+2, -830321.4, -1008127.8, 137087.38, 0.020303154, 0.006602405, -755833.25, 239254.86, 0.0, 10.001714, 9.999309 
2.8952438e+3, 2.0845869e+2, -806353.8, -884431.1, 125266.836, 0.0005782036, -0.062409595, -714183.5, 182916.48, 0.0, 10.000944, 9.999854 
2.8951645e+3, 2.1845737e+2, -879350.5, -879367.0, 132674.98, -0.036071233, -0.14388096, -746683.75, 52427.473, 0.0, 9.999812, 9.999763 
2.8950858e+3, 2.2845742e+2, -732155.8, -761971.3, 130519.02, -0.0113410475, -0.0779904, -615695.94, 85415.336, 0.0, 10.00017, 9.999722 
2.8950074e+3, 2.3845772e+2, -543513.7, -639554.3, 136831.2, 0.028963963, 0.016332207, -446521.13, 156588.42, 0.0, 10.000874, 9.999553 
2.8949282e+3, 2.484563e+2, -513237.03, -602163.25, 132375.02, 0.011216086, -0.029875474, -418057.34, 87066.875, 0.0, 10.000531, 9.9993 
2.894849e+3, 2.584546e+2, -490130.5, -521720.25, 116319.875, -0.03694598, -0.10018361, -388538.03, 18603.723, 0.0, 9.999937, 9.999463 
2.8947678e+3, 2.6845446e+2, -380800.5, -384767.2, 78413.53, -0.09845456, -0.04779341, -304345.22, 4798.1997, 0.0, 9.999867, 9.999764 
2.8946868e+3, 2.7845454e+2, -311764.6, -328889.47, 112469.87, -0.11840724, 0.021410776, -207531.7, 3611.8123, 0.0, 9.999784, 9.99952 
2.8946075e+3, 2.8845334e+2, -310424.3, -378885.3, 146828.34, -0.01818916, 0.037548356, -193889.14, -80731.086, 0.0, 9.999573, 9.998599 
2.894528e+3, 2.9845193e+2, -199968.45, -268364.13, 89557.71, -0.017766245, 0.06978052, -138301.4, -123126.12, 0.0, 9.999633, 9.998664 
2.8944454e+3, 3.0845112e+2, -152181.58, -237348.89, 12727.673, -0.14911675, 0.14898632, -150320.2, -150320.2, 0.0, 9.99971, 9.998516 
2.8943634e+3, 3.1844878e+2, 38925.445, 97940.32, 80680.625, -0.13183728, 0.106150776, 154340.11, 154340.11, 0.0, 9.999934, 10.000724 
2.90588e+3, 1.285478e+2, -1493223.8, -1617216.5, 46458.863, 0.12452307, -0.015093781, -1477747.8, 202482.31, 0.0, 10.001573, 9.999913 
2.9057977e+3, 1.3854715e+2, -1390334.1, -1540319.8, 19434.734, -0.043265387, -0.03463365, -1387856.8, 194376.2, 0.0, 10.0017, 9.999708 
2.9057175e+3, 1.4854614e+2, -1409027.5, -1540603.6, 55622.496, -0.041199073, -0.0485459, -1388664.9, 95578.125, 0.0, 10.00109, 9.999319 
2.9056388e+3, 1.5854506e+2, -1410794.8, -1476746.4, 69018.83, 0.06583819, -0.05908565, -1367278.8, 18976.291, 0.0, 10.000346, 9.999445 
2.9055592e+3, 1.6854465e+2, -1228862.0, -1303032.8, 95302.64, 0.021266052, -0.03167602, -1163683.5, 124576.29, 0.0, 10.00078, 9.999752 
2.9054794e+3, 1.7854439e+2, -1045124.8, -1186346.4, 99617.23, -0.06936846, 0.0046507176, -993631.25, 196631.38, 0.0, 10.001464, 9.999553 
2.9054013e+3, 1.8854345e+2, -1010201.9, -1150702.3, 142247.22, -0.020234535, 0.008557429, -921803.5, 170467.66, 0.0, 10.001173, 9.999262 
2.905324e+3, 1.9854231e+2, -978865.8, -1069936.9, 146321.94, 0.06528052, -0.0006746319, -871157.8, 123123.58, 0.0, 10.000648, 9.999399 
2.9052445e+3, 2.0854086e+2, -862118.06, -921985.4, 109906.9, 0.031133175, -0.07448081, -778141.44, 118152.87, 0.0, 10.000606, 9.999759 
2.9051644e+3, 2.1853949e+2, -753274.44, -819821.8, 110424.12, -0.033485703, -0.15419725, -671219.8, 127086.84, 0.0, 10.000682, 9.999753 
2.9050857e+3, 2.2853965e+2, -685327.6, -721391.4, 130347.555, -0.021627698, -0.08836228, -571770.6, 128535.22, 0.0, 10.000413, 9.999884 
2.9050073e+3, 2.3854014e+2, -651727.6, -672803.44, 141981.45, 0.019796621, 0.010752039, -519893.56, 82408.67, 0.0, 10.000051, 9.99972 
2.9049283e+3, 2.4853912e+2, -575271.9, -601753.2, 143000.19, 0.009073754, -0.017458528, -444900.66, 59412.734, 0.0, 9.999975, 9.99957 
2.9048485e+3, 2.5853783e+2, -475071.56, -475145.13, 150883.78, -0.034764193, -0.07048025, -324224.56, 82102.234, 0.0, 9.999872, 9.999814 
2.9047674e+3, 2.685381e+2, -379498.03, -324448.28, 96611.28, -0.099930875, -0.030058784, -251517.4, 56806.91, 0.0, 9.99962, 10.000295 
2.904686e+3, 2.785385e+2, -335191.0, -296305.75, 110413.5, -0.111481555, 0.020753343, -203636.13, 6684.0776, 0.0, 9.999449, 9.999899 
2.904606e+3, 2.885374e+2, -427366.97, -381122.56, 172272.47, -0.040063474, 0.016138414, -230427.52, -118093.91, 0.0, 9.998544, 9.999078 
2.9158804e+3, 1.2862968e+2, -1551922.8, -1729387.8, 50861.09, 0.039084103, 0.0015938784, -1538379.6, 141048.13, 0.0, 10.001536, 9.999157 
2.9157996e+3, 1.3862865e+2, -1428160.3, -1599670.3, 19395.34, 0.0020732526, 0.011312685, -1425994.3, 155443.45, 0.0, 10.001619, 9.999339 
2.9157186e+3, 1.4862777e+2, -1386445.8, -1493084.9, 28303.465, -0.013790455, 0.0014014164, -1379399.3, 104047.31, 0.0, 10.001087, 9.999648 
2.9156387e+3, 1.5862696e+2, -1389407.3, -1448013.3, 61560.69, 0.037092656, -0.011772051, -1350531.3, 34924.1, 0.0, 10.000413, 9.99961 
2.9155597e+3, 1.686266e+2, -1230109.9, -1312383.4, 126955.664, -0.001009457, 0.020132815, -1137792.6, 149666.84, 0.0, 10.000807, 9.999676 
2.9154804e+3, 1.7862634e+2, -1039150.3, -1161781.6, 112042.47, -0.06849068, 0.05712495, -972743.1, 216719.27, 0.0, 10.001411, 9.999746 
2.9154027e+3, 1.8862519e+2, -968194.56, -1057339.0, 121628.07, 0.00373113, -0.011407168, -883228.94, 208241.98, 0.0, 10.001145, 9.999916 
2.9153246e+3, 1.9862387e+2, -960859.0, -1029371.2, 132971.17, 0.105684794, -0.09620477, -857802.25, 135678.06, 0.0, 10.000633, 9.999684 
2.915245e+3, 2.0862333e+2, -887110.75, -973348.75, 113380.08, 0.07027757, -0.06387705, -808927.3, 86558.94, 0.0, 10.000603, 9.999409 
2.915165e+3, 2.18623e+2, -765287.06, -839333.2, 108219.65, -0.0060377, -0.009490901, -687932.7, 109558.45, 0.0, 10.000658, 9.999631 
2.9150856e+3, 2.2862229e+2, -664059.0, -675962.4, 116329.234, -0.04408007, -0.04697613, -553529.3, 145968.45, 0.0, 10.000406, 10.0002 
2.9150063e+3, 2.386216e+2, -626701.3, -621369.6, 133089.44, -0.060412575, -0.095528245, -490919.3, 110584.21, 0.0, 10.000053, 10.000071 
2.9149273e+3, 2.4862203e+2, -535399.0, -516709.2, 142932.17, -0.0489033, -0.031542085, -382816.78, 120684.086, 0.0, 9.999968, 10.0001545 
2.914848e+3, 2.5862268e+2, -446616.97, -424345.5, 142224.48, -0.055113167, 0.051893286, -292821.47, 112674.71, 0.0, 9.999903, 10.000151 
2.914767e+3, 2.686223e+2, -369698.44, -309166.47, 84483.96, -0.040239908, 0.021741377, -249690.77, 57808.5, 0.0, 9.999635, 10.000398 
2.9146865e+3, 2.786218e+2, -310092.6, -243230.69, 109115.65, 0.025636828, -0.031407215, -162539.55, 46964.02, 0.0, 9.999454, 10.00026 
2.9146037e+3, 2.8862163e+2, -288681.72, -92757.5, 96951.8, -0.08508192, -0.07470214, -52892.816, 58612.89, 0.0, 9.998559, 10.001049 
2.925881e+3, 1.2871137e+2, -1573440.0, -1707458.4, 39756.992, 0.014926331, 0.00009462485, -1562533.5, 116093.266, 0.0, 10.001248, 9.999445 
2.9258007e+3, 1.3871038e+2, -1555493.6, -1644293.3, 66707.55, 0.050349385, -0.010073964, -1519760.8, 60875.43, 0.0, 10.000671, 9.99949 
2.9257196e+3, 1.4870963e+2, -1402712.3, -1501267.3, 75959.68, -0.008332701, -0.013068216, -1361446.1, 121198.12, 0.0, 10.000976, 9.999647 
2.9256386e+3, 1.5870894e+2, -1247735.3, -1382633.5, 92301.3, -0.019743107, -0.010947976, -1200865.1, 183786.73, 0.0, 10.001394, 9.999588 
2.9255602e+3, 1.6870841e+2, -1204823.9, -1307998.9, 155213.8, -0.008913673, 0.011597788, -1092849.1, 193808.31, 0.0, 10.00101, 9.999609 
2.9254818e+3, 1.7870796e+2, -1174461.3, -1221749.3, 137251.1, -0.0045728595, 0.033493236, -1058832.4, 129829.88, 0.0, 10.000452, 9.9998 
2.9254034e+3, 1.8870705e+2, -1038696.8, -1063131.1, 122337.79, 0.03962077, -0.0283278, -927967.7, 162700.77, 0.0, 10.000537, 10.000171 
2.925325e+3, 1.987061e+2, -929814.3, -997503.5, 111643.45, 0.092797674, -0.100906655, -846998.2, 145676.23, 0.0, 10.000772, 9.999837 
2.9252455e+3, 2.087058e+2, -895527.9, -982346.6, 103168.016, 0.055563685, -0.047845315, -827008.6, 67670.12, 0.0, 10.000563, 9.999367 
2.9251653e+3, 2.1870564e+2, -824472.7, -868428.44, 118462.95, -0.0052704327, 0.029751603, -725966.1, 70716.36, 0.0, 10.00025, 9.999629 
2.9250854e+3, 2.2870484e+2, -701212.25, -681087.56, 113948.45, -0.04687942, -0.025073204, -576758.06, 121931.84, 0.0, 10.000093, 10.000317 
2.925006e+3, 2.3870403e+2, -627521.44, -600188.1, 117224.445, -0.072359934, -0.10087135, -495836.34, 104860.195, 0.0, 9.99995, 10.000269 
2.924927e+3, 2.487048e+2, -554770.7, -475087.72, 115954.41, -0.052823547, -0.03468202, -392321.0, 110368.41, 0.0, 9.99961, 10.000616 
2.9248473e+3, 2.58706e+2, -530216.06, -430200.1, 108894.84, -0.041743737, 0.059534743, -360379.53, 44299.1, 0.0, 9.999171, 10.000468 
2.9247662e+3, 2.6870567e+2, -428706.53, -309236.84, 62572.887, -0.03149624, 0.0037617278, -282463.78, 24218.06, 0.0, 9.999101, 10.000658 
2.9246855e+3, 2.787051e+2, -331548.78, -212440.8, 106065.34, 0.03759358, -0.08471942, -150353.77, 58333.01, 0.0, 9.99911, 10.000653 
2.924603e+3, 2.8870595e+2, -106004.08, 64999.766, 1723.1393, -0.06294052, -0.08275212, 65017.13, 175695.06, 0.0, 9.999492, 10.001702 
2.9358822e+3, 1.287929e+2, -1513867.3, -1563169.8, 13057.636, 0.02471518, -0.018784197, -1510622.5, 167204.72, 0.0, 10.001164, 10.000472 
2.9358014e+3, 1.3879225e+2, -1520139.4, -1572692.8, 55136.758, 0.09531777, -0.082875185, -1485338.0, 94492.23, 0.0, 10.00068, 9.999976 
2.93572e+3, 1.487916e+2, -1420790.0, -1538283.5, 91151.06, -0.022202302, -0.07579528, -1371094.6, 110742.914, 0.0, 10.000973, 9.999394 
2.935639e+3, 1.5879095e+2, -1268459.8, -1414117.9, 92843.87, -0.10331329, -0.04610242, -1223288.6, 160557.0, 0.0, 10.001346, 9.999396 
2.9355606e+3, 1.6879006e+2, -1212399.9, -1319854.0, 131470.27, -0.0072035342, -0.04910128, -1124102.1, 161752.6, 0.0, 10.000993, 9.9995365 
2.9354832e+3, 1.7878924e+2, -1178585.1, -1231734.0, 125309.57, 0.10807334, -0.05551221, -1077063.3, 110799.7, 0.0, 10.000459, 9.999728 
2.9354042e+3, 1.8878902e+2, -1044234.7, -1074797.0, 131964.72, 0.08066793, -0.04031516, -926669.3, 163194.89, 0.0, 10.000537, 10.000091 
2.9353246e+3, 1.987889e+2, -931554.56, -993180.6, 113126.33, 0.021156142, -0.027454939, -845119.94, 146744.6, 0.0, 10.000739, 9.999883 
2.9352447e+3, 2.0878819e+2, -879525.7, -946305.25, 90564.91, -0.008594788, -0.03227851, -816391.5, 77480.75, 0.0, 10.00055, 9.99962 
2.935165e+3, 2.1878749e+2, -818861.9, -853432.0, 109986.195, -0.032131836, -0.03269483, -724810.8, 71069.49, 0.0, 10.000236, 9.999739 
2.9350856e+3, 2.2878735e+2, -710281.56, -696341.75, 109122.03, -0.035149485, -0.01520617, -593967.25, 103914.44, 0.0, 10.000079, 10.000218 
2.9350057e+3, 2.3878735e+2, -624462.5, -594757.6, 108575.26, -0.026369167, -0.0023271635, -500023.66, 99857.75, 0.0, 9.99995, 10.000308 
2.9349265e+3, 2.4878742e+2, -529196.8, -426263.34, 100360.16, -0.002905798, -0.030623699, -364942.75, 136936.88, 0.0, 9.999623, 10.000949 
2.9348466e+3, 2.5878778e+2, -501615.4, -375713.63, 96421.98, -0.006923202, -0.05450825, -323512.38, 80362.53, 0.0, 9.999193, 10.00083 
2.9347646e+3, 2.6878807e+2, -397721.84, -246117.47, 63878.344, -0.088459834, -0.086290464, -222791.38, 83080.43, 0.0, 9.99911, 10.001082 
2.934683e+3, 2.7878827e+2, -288122.78, -153626.42, 103602.45, -0.11402785, -0.1361882, -97360.29, 110509.65, 0.0, 9.99923, 10.001006 
2.9346025e+3, 2.8879094e+2, -119010.44, 22116.14, 31413.193, 0.009771142, 0.055695873, 28792.52, 138636.4, 0.0, 9.999554, 10.00138 
2.9458827e+3, 1.2887417e+2, -1610334.1, -1615341.0, -7567.8384, 0.041686494, -0.03984631, -1604866.5, 72163.39, 0.0, 10.000514, 10.000437 
2.9458016e+3, 1.3887383e+2, -1502175.4, -1556109.8, -13791.255, 0.052932236, -0.074760884, -1498853.5, 80177.48, 0.0, 10.000767, 10.000051 
2.9457203e+3, 1.488734e+2, -1445165.8, -1538689.1, 32570.432, -0.043768883, -0.053735025, -1434940.6, 46095.42, 0.0, 10.000754, 9.999499 
2.9456398e+3, 1.588728e+2, -1368782.6, -1452679.3, 47642.17, -0.08357384, -0.028152965, -1347253.1, 35790.57, 0.0, 10.000612, 9.999486 
2.9455614e+3, 1.6887192e+2, -1243215.9, -1313808.5, 96167.12, -0.0021023527, -0.04835113, -1176072.3, 108979.97, 0.0, 10.000689, 9.999726 
2.945483e+3, 1.788711e+2, -1135123.8, -1203257.8, 106254.82, 0.08394825, -0.072154105, -1057608.3, 129451.51, 0.0, 10.000723, 9.999798 
2.945404e+3, 1.8887098e+2, -1072671.8, -1108873.8, 114889.24, 0.053317416, -0.03695307, -974466.3, 114594.695, 0.0, 10.0004225, 9.999915 
2.9453248e+3, 1.9887105e+2, -1012648.25, -1024176.06, 94378.055, 0.0032865012, 0.006018091, -923858.25, 67202.39, 0.0, 10.000136, 9.999965 
2.945245e+3, 2.0887035e+2, -900243.44, -908441.8, 77933.73, -0.016570592, -0.03115431, -826301.2, 66766.01, 0.0, 10.000194, 10.000056 
2.9451647e+3, 2.188696e+2, -784949.8, -815309.0, 110217.75, -0.032177314, -0.07329892, -688871.25, 106202.914, 0.0, 10.000366, 9.999943 
2.9450852e+3, 2.2886977e+2, -675653.2, -685829.6, 111405.4, -0.026382009, -0.027709045, -569219.9, 127853.05, 0.0, 10.000334, 10.000172 
2.945006e+3, 2.3887005e+2, -605554.3, -593235.2, 109739.85, -0.0012078654, 0.018829562, -489482.2, 109588.414, 0.0, 10.000108, 10.000244 
2.944926e+3, 2.488697e+2, -537085.9, -438111.16, 71199.836, 0.026061386, -0.04454347, -400889.72, 100182.97, 0.0, 9.999598, 10.000882 
2.9448456e+3, 2.5886968e+2, -507002.2, -362430.44, 46799.605, 0.020679696, -0.10489717, -348603.3, 54467.83, 0.0, 9.999087, 10.000976 
2.9447633e+3, 2.6887065e+2, -363465.06, -197070.89, 21651.729, -0.08734283, -0.09848512, -194299.66, 110761.484, 0.0, 9.999194, 10.001388 
2.9446816e+3, 2.7887118e+2, -255997.84, -137218.77, 51561.15, -0.14568587, -0.13482699, -117959.28, 89096.51, 0.0, 9.999446, 10.001008 
2.9446024e+3, 2.8887388e+2, -79338.39, 20922.625, -23370.184, 0.035301156, 0.07952626, 26102.453, 135131.98, 0.0, 9.999899, 10.001197 
2.955883e+3, 1.2895522e+2, -1666379.9, -1725460.4, -3997.792, 0.05537924, -0.05668969, -1666110.6, 10124.013, 0.0, 10.000495, 9.999688 
2.955801e+3, 1.3895518e+2, -1523817.5, -1592196.1, -6311.7466, -0.06303079, -0.0024539838, -1523239.8, 54996.895, 0.0, 10.000731, 9.99982 
2.9557204e+3, 1.4895509e+2, -1425646.8, -1488683.6, 28296.912, -0.07282578, 0.035139497, -1414808.0, 65430.62, 0.0, 10.000712, 9.999863 
2.9556412e+3, 1.5895455e+2, -1355427.3, -1411776.0, 45764.957, 0.013253024, 0.034566507, -1329859.4, 52385.547, 0.0, 10.000555, 9.999795 
2.955562e+3, 1.6895394e+2, -1219234.0, -1255366.4, 101512.3, -0.0017737839, 0.002737918, -1134192.8, 150057.16, 0.0, 10.00065, 10.000147 
2.9554823e+3, 1.789534e+2, -1130563.9, -1183904.1, 97965.93, -0.06456882, -0.02998382, -1055702.6, 130551.1, 0.0, 10.000681, 9.99995 
2.9554033e+3, 1.889529e+2, -1093212.8, -1146940.8, 101055.73, -0.03156562, -0.02095535, -1015511.25, 72747.63, 0.0, 10.000403, 9.999662 
2.955325e+3, 1.9895266e+2, -1006496.4, -1007732.44, 90782.46, 0.03279222, 0.008643205, -916329.9, 73931.76, 0.0, 10.00012, 10.000086 
2.955245e+3, 2.0895232e+2, -860144.9, -824156.25, 81939.37, 0.021094047, -0.036763415, -758258.6, 134004.38, 0.0, 10.000188, 10.000639 
2.955165e+3, 2.1895194e+2, -767182.06, -772677.3, 113647.25, -0.02123064, -0.092178196, -656249.25, 138015.33, 0.0, 10.000341, 10.000247 
2.9550853e+3, 2.2895204e+2, -676002.8, -683431.25, 106126.61, -0.022097483, -0.06512057, -573525.44, 122738.54, 0.0, 10.00032, 10.000195 
2.9550055e+3, 2.3895213e+2, -613852.4, -611879.6, 94372.58, -0.00085868675, -0.037679676, -518488.28, 79775.78, 0.0, 10.000113, 10.000114 
2.9549253e+3, 2.4895172e+2, -568609.3, -503178.84, 49183.133, 0.028055746, -0.073206455, -476824.06, 23444.164, 0.0, 9.999595, 10.000438 
2.9548445e+3, 2.5895184e+2, -509589.34, -371818.03, 37367.105, 0.032360055, -0.08269989, -362335.75, 39930.92, 0.0, 9.999103, 10.000904 
2.954763e+3, 2.6895353e+2, -342175.16, -160085.42, 37967.215, -0.026333097, -0.02464081, -152486.1, 151762.7, 0.0, 9.999225, 10.001627 
2.9546815e+3, 2.7895394e+2, -268895.7, -182685.77, 58345.37, -0.06840806, -0.07282572, -153249.56, 52992.914, 0.0, 9.999517, 10.000667 
2.954601e+3, 2.8895324e+2, -85399.75, -9501.31, 4874.8867, -0.04770532, -0.14255273, -9189.48, 99059.31, 0.0, 9.99997, 10.000957 
2.9658827e+3, 1.2903616e+2, -1631783.6, -1730571.1, -33235.496, 0.0019922922, -0.04172347, -1621643.0, 53798.586, 0.0, 10.000831, 9.999489 
2.9658008e+3, 1.3903552e+2, -1565111.8, -1623184.1, -14514.449, -0.09015525, -0.020033503, -1561686.1, 15763.843, 0.0, 10.000492, 9.999725 
2.965721e+3, 1.490356e+2, -1471290.3, -1468797.6, 15098.439, -0.03341238, 0.008864222, -1454894.1, 24555.686, 0.0, 10.0002165, 10.000241 
2.965642e+3, 1.590358e+2, -1431644.1, -1414841.1, 45482.5, 0.10840488, 0.041350327, -1376990.6, 4457.509, 0.0, 9.999881, 10.000103 
2.965562e+3, 1.6903518e+2, -1325882.0, -1319150.6, 87498.63, 0.032467242, 0.0069551277, -1234953.0, 48500.496, 0.0, 9.999965, 10.000044 
2.965482e+3, 1.7903447e+2, -1211850.0, -1218925.6, 45639.52, -0.09018664, -0.0349751, -1169611.4, 15848.2, 0.0, 10.000093, 9.999999 
2.9654032e+3, 1.8903425e+2, -1092300.0, -1097338.0, 73537.26, -0.026323644, -0.030324325, -1021238.6, 66222.664, 0.0, 10.000191, 10.000111 
2.965325e+3, 1.9903408e+2, -980491.9, -991537.56, 96693.945, 0.07235231, -0.023120392, -889163.2, 100299.484, 0.0, 10.000278, 10.000123 
2.9652452e+3, 2.0903379e+2, -878842.25, -851173.3, 50562.117, 0.050451353, -0.053556863, -812587.1, 78877.05, 0.0, 10.000134, 10.000481 
2.9651654e+3, 2.1903361e+2, -813296.5, -795876.4, 45911.14, 0.0068496475, -0.079728626, -757856.4, 35608.11, 0.0, 10.000027, 10.000241 
2.9650855e+3, 2.290337e+2, -719367.0, -708166.0, 24211.611, -0.0013524463, -0.055552542, -688915.6, 6548.929, 0.0, 10.0000305, 10.000169 
2.9650053e+3, 2.3903379e+2, -630268.75, -602675.9, 6954.777, 0.0020814613, -0.034706723, -601022.06, -3557.2554, 0.0, 9.999915, 10.00028 
2.9649246e+3, 2.4903359e+2, -534895.56, -471834.6, -2332.718, 0.01654547, -0.06655317, -471748.4, 27717.938, 0.0, 9.999748, 10.000587 
2.9648432e+3, 2.5903386e+2, -422707.47, -326647.7, 32968.46, 0.025503716, -0.07609354, -316421.34, 85041.72, 0.0, 9.999676, 10.000945 
2.9647624e+3, 2.690354e+2, -275639.22, -148029.38, 25895.229, 0.018497044, -0.018975474, -142974.8, 160470.8, 0.0, 9.999768, 10.00145 
2.964682e+3, 2.7903566e+2, -239041.02, -191742.02, 26496.693, 0.012618651, -0.072662234, -179875.7, 25565.262, 0.0, 9.999833, 10.000458 
2.9646003e+3, 2.8903368e+2, -109603.44, -40889.703, -289.72885, -0.0921644, -0.23258182, -40888.48, 66570.64, 0.0, 9.999926, 10.000763 
2.9758823e+3, 1.2911692e+2, -1655614.5, -1734572.9, -51071.51, -0.10629909, -0.013026237, -1630542.1, 44108.723, 0.0, 10.000637, 9.999553 
2.9758015e+3, 1.3911498e+2, -1583831.6, -1632777.5, -21310.258, -0.049392495, -0.117379494, -1575853.8, 816.6879, 0.0, 10.00037, 9.999718 
2.9757217e+3, 1.4911507e+2, -1429312.6, -1403788.0, 1204.3416, 0.057059895, -0.115964934, -1403731.3, 74937.86, 0.0, 10.000315, 10.000639 
2.9756424e+3, 1.5911655e+2, -1380301.5, -1358893.5, 35291.395, 0.19537833, -0.005083772, -1332718.5, 47935.566, 0.0, 10.000102, 10.000379 
2.9755622e+3, 1.6911572e+2, -1339547.0, -1384373.1, 93457.02, 0.09367296, -0.032251578, -1265853.0, 16809.762, 0.0, 10.000126, 9.9995165 
2.9754823e+3, 1.7911449e+2, -1197867.3, -1216825.0, 49322.875, -0.011035877, -0.07829677, -1157120.8, 27554.857, 0.0, 10.000212, 9.999955 
2.9754037e+3, 1.8911505e+2, -1012777.2, -943219.6, 74700.766, 0.05050413, -0.067365535, -895598.4, 191069.9, 0.0, 10.000238, 10.001144 
2.9753256e+3, 1.9911514e+2, -989461.94, -1003599.3, 92228.625, 0.105910614, -0.09797288, -904031.5, 84633.945, 0.0, 10.000251, 10.000053 
2.9752454e+3, 2.0911467e+2, -933674.3, -965797.7, 43099.14, 0.0728049, -0.087997265, -903741.3, -13070.034, 0.0, 10.000138, 9.999692 
2.9751652e+3, 2.1911465e+2, -834269.6, -838315.2, 46573.395, 0.052117955, -0.040709056, -789675.1, 2998.3909, 0.0, 10.000021, 9.999952 
2.9750854e+3, 2.2911482e+2, -723626.0, -717301.1, 25132.81, 0.03188925, 0.0054066107, -695132.56, -459.17496, 0.0, 10.00003, 10.000107 
2.975005e+3, 2.3911516e+2, -600110.6, -538258.2, -1091.8607, -0.0054485654, 0.03928631, -538238.94, 58432.41, 0.0, 9.9999075, 10.000726 
2.9749238e+3, 2.4911538e+2, -482527.22, -365360.1, -5365.7837, -0.012940929, -0.020238226, -365114.88, 133551.6, 0.0, 9.999759, 10.001312 
2.9748425e+3, 2.5911567e+2, -406184.8, -300726.97, 33044.605, -0.008862936, -0.082869716, -291228.22, 109431.75, 0.0, 9.999711, 10.001106 
2.9747623e+3, 2.6911628e+2, -311716.78, -230437.81, 31792.846, 0.038595486, -0.08984901, -219479.31, 83172.9, 0.0, 9.999799, 10.000871 
2.9746822e+3, 2.791162e+2, -234252.2, -191966.23, 25063.064, 0.078200035, -0.13269475, -180319.23, 24331.877, 0.0, 9.999892, 10.000425 
2.9746002e+3, 2.891158e+2, -126348.49, -83061.16, 16946.703, -0.07238788, -0.15061694, -77215.93, 29438.963, 0.0, 9.999986, 10.000432 
2.985885e+3, 1.2919946e+2, -1566485.3, -1654185.4, -10165.429, 0.11248884, 0.09715095, -1565322.4, 108520.68, 0.0, 10.001066, 9.999919 
2.9858014e+3, 1.3919683e+2, -1848122.9, -1726964.3, 36977.8, 0.024518419, -0.111375205, -1716570.3, -140703.78, 0.0, 9.998418, 10.000013 
2.9857197e+3, 1.4919741e+2, -1565325.9, -1490192.5, 121606.86, -0.10653038, -0.054194357, -1400482.0, 77378.86, 0.0, 9.999487, 10.000438 
2.9856396e+3, 1.5919746e+2, -1296601.1, -1340910.3, 67014.27, -0.10594566, -0.05942684, -1248174.3, 131686.84, 0.0, 10.000806, 10.000147 
2.9855612e+3, 1.6919729e+2, -1156731.9, -1281025.3, 139566.33, -0.0563471, -0.020020064, -1066101.0, 215762.19, 0.0, 10.00135, 9.999619 
2.9854828e+3, 1.7919695e+2, -930719.8, -1081293.6, 131476.0, -0.07249247, 0.010495229, -854500.75, 329365.9, 0.0, 10.0020485, 9.999985 
2.985403e+3, 1.8919666e+2, -983496.9, -985811.9, 44243.6, -0.050302047, -0.026390979, -940395.6, 145472.64, 0.0, 10.000706, 10.000618 
2.985324e+3, 1.9919707e+2, -1103452.1, -1038626.06, 36101.05, 0.020661969, -0.0032920546, -1022522.2, -34659.48, 0.0, 9.999393, 10.000223 
2.9852447e+3, 2.0919666e+2, -882082.2, -918998.0, 64016.824, 0.013036998, -0.009729733, -833915.44, 55952.58, 0.0, 10.000398, 9.99989 
2.9851645e+3, 2.191959e+2, -674142.75, -758492.6, 82931.03, -0.045460347, -0.0392104, -623278.56, 168598.52, 0.0, 10.001103, 9.999984 
2.9850847e+3, 2.2919606e+2, -677535.56, -665516.4, 70423.24, -0.033412915, -0.013318565, -600846.75, 93030.11, 0.0, 10.000222, 10.000371 
2.9850045e+3, 2.3919648e+2, -651774.3, -557830.2, 60874.906, 0.007608718, 0.013690648, -527911.9, 67961.836, 0.0, 9.999531, 10.000773 
2.984923e+3, 2.4919687e+2, -496109.6, -375237.63, 15596.809, -0.0056746486, -0.027025094, -373257.5, 124609.61, 0.0, 9.999678, 10.001285 
2.9848418e+3, 2.5919726e+2, -390089.5, -316703.0, 8539.815, -0.025378028, -0.07276093, -315722.34, 84137.58, 0.0, 9.999916, 10.000905 
2.9847616e+3, 2.691973e+2, -327852.22, -292627.28, 797.03125, 0.03360087, -0.09705651, -292609.25, 9249.378, 0.0, 9.999904, 10.000407 
2.9846817e+3, 2.7919722e+2, -234977.11, -194483.28, 398.47302, 0.07790177, -0.11428602, -194479.36, 9379.9375, 0.0, 9.999892, 10.000438 
2.9846004e+3, 2.8919715e+2, -81216.88, -109340.695, 5961.2915, -0.038896736, -0.09159663, -80005.48, 25853.766, 0.0, 10.000436, 10.000126 
2.9958853e+3, 1.2927997e+2, -1460359.1, -1495856.5, -41765.867, 0.052001484, -0.04488604, -1432727.1, 240328.17, 0.0, 10.001376, 10.0008335 
2.995799e+3, 1.3927993e+2, -1823377.6, -1649877.3, -60804.73, -0.024192847, -0.09815638, -1630689.6, -55640.105, 0.0, 9.99831, 10.000592 
2.9957214e+3, 1.4928094e+2, -1674503.1, -1633424.9, -7865.098, 0.1608181, 0.033359017, -1631970.5, -154928.17, 0.0, 9.999072, 9.9996805 
2.99564e+3, 1.5927991e+2, -1388873.0, -1476020.8, -230457.38, -0.08461381, 0.017717605, -1197906.3, 181149.6, 0.0, 10.000483, 9.999415 
2.9955623e+3, 1.6927773e+2, -1293146.9, -1294187.0, -77149.59, -0.03881621, -0.17062648, -1216515.6, 64560.535, 0.0, 10.000101, 10.000171 
2.995486e+3, 1.7928016e+2, -1338041.5, -1296208.0, -51558.117, 0.08828754, 0.07326096, -1261485.3, -78435.07, 0.0, 9.999247, 9.999903 
2.9954055e+3, 1.8927754e+2, -1182797.8, -1297542.8, -97777.37, 0.16016762, -0.06780355, -1126803.5, -41727.168, 0.0, 10.000197, 9.9987545 
2.9953232e+3, 1.9927661e+2, -1025803.3, -982901.1, -12980.103, 0.038607538, -0.08500016, -979279.7, 7806.386, 0.0, 9.999799, 10.000433 
2.9952452e+3, 2.0927733e+2, -928149.0, -830530.56, 77507.805, 0.048563473, -0.06002088, -787743.94, 101333.71, 0.0, 9.999581, 10.000899 
2.995166e+3, 2.1927726e+2, -686788.06, -735419.94, 30699.467, -0.018510781, -0.08247945, -671941.25, 119135.3, 0.0, 10.000887, 10.000245 
2.9950848e+3, 2.2927815e+2, -657977.75, -591551.94, -14740.711, -0.02133814, -0.033229683, -588427.75, 104639.914, 0.0, 10.000079, 10.000944 
2.9950044e+3, 2.392778e+2, -660453.8, -603045.4, 43393.176, 0.08019436, -0.10162081, -579721.7, 15349.258, 0.0, 9.99965, 10.000401 
2.994923e+3, 2.4927814e+2, -547363.9, -481423.38, 26521.633, 0.039271817, -0.08632114, -472080.1, 24987.44, 0.0, 9.999681, 10.000546 
2.9948413e+3, 2.592787e+2, -434583.5, -409375.1, 15101.68, -0.024788657, -0.043664314, -402308.84, -3246.9473, 0.0, 9.999909, 10.000275 
2.994761e+3, 2.6927856e+2, -352253.84, -355954.53, 3238.4678, -0.012830406, -0.037518833, -350374.38, -49309.703, 0.0, 9.999943, 9.99996 
2.9946798e+3, 2.792785e+2, -247666.67, -196793.88, 3484.4133, -0.02561891, -0.024683585, -196556.33, 6510.3765, 0.0, 9.999837, 10.000423 
2.9946002e+3, 2.8927904e+2, -87399.94, -73215.87, 63398.92, -0.02495988, 0.028027892, -16513.547, 88546.82, 0.0, 10.000295, 10.000413 
