coord_x,coord_y,stress_xx,stress_yy,tau_xy,velocity_x,velocity_y,stress_1,eps,damage,lx,ly
5.000131e+0, 1.2462966e+2, -1617816.1, -1590676.9, 20645.635, -0.0029186383, -0.04650006, -1579540.6, 139075.73, 0.0026898824, 10.000216, 10.000745 
5.00023e+0, 1.3462828e+2, -1534762.4, -1712118.5, -6199.7563, -0.033546302, -0.1365157, -1534546.0, 86085.67, 0.0015908045, 10.001073, 9.998815 
5.000356e+0, 1.4462729e+2, -1376148.0, -1531490.3, -12665.129, -0.03086365, -0.13268977, -1375122.1, 147517.92, 0.0007108368, 10.001272, 9.999275 
5.0004673e+0, 1.546257e+2, -1361712.8, -1469617.9, 23828.363, 0.01006546, -0.27225214, -1356685.1, 67965.77, 0.00020845741, 10.000682, 9.999313 
5.0003564e+0, 1.646254e+2, -1290347.9, -1328768.9, 61448.324, 0.02032827, -0.25296962, -1245177.3, 81475.3, 0.000030560106, 10.00026, 9.999813 
4.9999586e+0, 1.7462574e+2, -1230208.4, -1255341.3, 50398.816, -0.007816522, -0.24203447, -1190832.9, 37819.348, 0.0000010193884, 10.000027, 9.999758 
4.9997896e+0, 1.8462667e+2, -1115890.9, -1043608.56, 30342.533, -0.008389531, -0.16805372, -1032560.2, 98083.15, 0.0, 9.999695, 10.000694 
4.9998635e+0, 1.9462815e+2, -1090133.1, -986256.56, -22173.898, 0.022963027, -0.13087295, -981721.25, 50904.242, 0.0, 9.999221, 10.000648 
5.000111e+0, 2.0462814e+2, -1093098.0, -1101237.5, -12857.517, 0.0463583, -0.12048207, -1083681.5, -149058.36, 0.0, 9.999245, 9.999167 
5.000498e+0, 2.1462621e+2, -917292.9, -980105.94, -7099.0513, 0.055412084, -0.26324922, -916500.56, -79859.66, 0.0, 9.999837, 9.999043 
5.000254e+0, 2.2462492e+2, -827781.6, -900029.2, -9375.273, 0.031197963, -0.28463197, -826584.9, -87931.92, 0.0, 9.99984, 9.998919 
4.9993053e+0, 2.346242e+2, -830659.9, -855630.9, -9621.991, -0.030291107, -0.29111838, -827382.44, -186722.11, 0.0, 9.9991665, 9.998877 
4.9992424e+0, 2.4462387e+2, -719117.06, -716129.8, 23043.805, -0.033118065, -0.22427359, -694531.3, -151867.72, 0.0, 9.999105, 9.99919 
5.000223e+0, 2.5462362e+2, -530839.94, -586046.7, 10420.775, 0.03099223, -0.20648105, -528938.4, -84272.83, 0.000000000017365094, 9.999773, 9.99909 
5.0002456e+0, 2.6462278e+2, -428880.7, -455472.28, -8822.781, 0.038772497, -0.20782281, -426219.7, -79547.83, 0.000000288742, 9.999672, 9.999358 
4.9991694e+0, 2.7462137e+2, -480174.16, -430093.06, -8695.096, -0.018250033, -0.32490218, -428626.38, -179944.8, 0.0000032414011, 9.998648, 9.999352 
4.9989048e+0, 2.846215e+2, -337850.3, -92721.65, -4160.1284, -0.012958951, -0.33925462, -92651.06, 58024.574, 0.00001724438, 9.998018, 10.001293 
4.9994975e+0, 2.9462206e+2, -256897.28, 4923.5796, -53631.195, 0.053560663, -0.4641099, 15483.449, 68148.164, 0.000074921634, 9.997852, 10.001374 
4.9991998e+0, 3.046214e+2, -397395.56, -358371.56, -50907.195, 0.020549593, -0.5312129, -323365.13, -323365.13, 0.0002850154, 9.997932, 9.998507 
4.9979776e+0, 3.1462252e+2, -82345.836, 228410.16, -27116.99, -0.11704209, -0.30195427, 230758.67, 230758.67, 0.0007432572, 9.998167, 10.002438 
1.500035e+1, 1.2462708e+2, -1676867.1, -1661076.6, 23064.082, -0.01090733, -0.31548744, -1644593.9, 74046.484, 0.0025876667, 10.000027, 10.000363 
1.5000726e+1, 1.346284e+2, -1571322.6, -1761555.5, 33261.88, -0.09567885, -0.06500846, -1565674.5, 54960.43, 0.0015348786, 10.000985, 9.99853 
1.5001065e+1, 1.4462906e+2, -1303640.0, -1350456.9, -41035.86, -0.091606475, 0.05454019, -1279805.5, 242823.03, 0.00068435894, 10.001154, 10.000587 
1.5001404e+1, 1.5462784e+2, -1284009.0, -1282008.5, 9730.076, 0.031028533, -0.15620069, -1273227.4, 151404.22, 0.00019662973, 10.000583, 10.000659 
1.5001087e+1, 1.6462775e+2, -1306512.6, -1334063.8, 44936.61, 0.063546486, -0.18854858, -1273287.5, 53341.19, 0.000026649353, 10.000152, 9.999839 
1.4999917e+1, 1.7462821e+2, -1240674.5, -1256419.4, 49821.93, -0.020622976, -0.14261393, -1198106.9, 30519.201, 0.00000066228677, 9.999943, 9.999803 
1.499934e+1, 1.8462801e+2, -1211644.1, -1205762.0, 6549.0684, -0.025982939, -0.13498431, -1201523.9, -70895.086, 0.0, 9.9995575, 9.999652 
1.4999601e+1, 1.946271e+2, -1184366.8, -1151746.5, -31060.021, 0.070379324, -0.20636344, -1132974.6, -100337.8, 0.0, 9.999103, 9.999577 
1.5000305e+1, 2.0462663e+2, -1091315.3, -1058228.9, 2062.7134, 0.13867345, -0.20603, -1058100.8, -123460.05, 0.0, 9.999099, 9.9995365 
1.5001479e+1, 2.1462648e+2, -908756.6, -923343.94, 25452.135, 0.16585647, -0.19324474, -889573.75, -52932.395, 0.0, 9.999688, 9.99951 
1.5000758e+1, 2.2462599e+2, -823470.6, -856693.3, -41817.13, 0.09468472, -0.17981897, -795086.3, -56441.344, 0.0, 9.99971, 9.999285 
1.4997889e+1, 2.3462516e+2, -827696.8, -812541.2, -25438.994, -0.092034146, -0.20875867, -793575.3, -152923.8, 0.0, 9.999026, 9.999245 
1.4997739e+1, 2.4462445e+2, -744306.4, -740865.25, 39007.117, -0.09853533, -0.19292697, -703540.75, -160882.78, 0.0, 9.999, 9.999079 
1.500065e+1, 2.5462368e+2, -555391.8, -597325.0, 43116.71, 0.091618225, -0.19879253, -528414.2, -83748.09, 0.0, 9.999618, 9.999093 
1.5000746e+1, 2.6462242e+2, -424096.66, -415160.3, -53024.71, 0.11780589, -0.2643504, -366415.84, -19739.396, 0.00000013049092, 9.99956, 9.999695 
1.4997531e+1, 2.746206e+2, -481822.53, -396460.72, -41047.504, -0.0523734, -0.43152034, -379925.44, -131237.11, 0.0000023602508, 9.9985, 9.999663 
1.4996673e+1, 2.8462088e+2, -428687.97, -250031.45, -17881.938, -0.04167433, -0.39921594, -248259.22, -97575.79, 0.000014211254, 9.997906, 10.000272 
1.4998482e+1, 2.9462257e+2, -354219.38, -152530.44, -46634.24, 0.15845753, -0.28459564, -142269.73, -89601.76, 0.0000647229, 9.99767, 10.000388 
1.499763e+1, 3.0462274e+2, -360930.47, -237929.52, -47370.605, 0.06787207, -0.25716582, -221800.86, -221800.86, 0.00025372737, 9.997791, 9.999411 
1.4993918e+1, 3.146227e+2, -114855.62, 240757.92, 14713.954, -0.34979758, -0.20591581, 241365.69, 241365.69, 0.0006708774, 9.997872, 10.002674 
2.5000864e+1, 1.2462825e+2, -1612430.6, -1633968.4, 102298.02, 0.02292665, -0.2562286, -1520336.3, 198293.83, 0.002469487, 10.0005045, 10.000299 
2.500139e+1, 1.3462909e+2, -1696761.3, -1824373.3, 121449.875, -0.078580685, -0.06286662, -1623376.6, -2749.0212, 0.0014658497, 10.0001545, 9.998492 
2.5001767e+1, 1.4462972e+2, -1429995.0, -1395958.4, 39582.38, -0.08435827, 0.048991647, -1369890.9, 152730.45, 0.0006493342, 10.000237, 10.000702 
2.500223e+1, 1.546291e+2, -1234383.4, -1249173.6, -11807.256, 0.045384053, -0.12215501, -1227846.5, 196773.75, 0.00018140074, 10.000895, 10.000724 
2.5001714e+1, 1.6462919e+2, -1216828.4, -1277513.6, -18892.799, 0.08766358, -0.13994303, -1211427.3, 115188.016, 0.000022322774, 10.000726, 9.999935 
2.5000107e+1, 1.7462955e+2, -1293476.6, -1266657.4, -16465.555, 0.028956013, -0.12378473, -1258831.9, -30220.055, 0.00000035252413, 9.999543, 9.999905 
2.49994e+1, 1.8462889e+2, -1239523.6, -1276440.9, 28566.705, 0.026368758, -0.14180185, -1223970.8, -93352.56, 0.0, 9.999605, 9.999139 
2.499987e+1, 1.9462724e+2, -947797.5, -1093649.8, 28740.248, 0.09836539, -0.24302974, -942338.5, 90296.016, 0.0, 10.000973, 9.999063 
2.5000453e+1, 2.0462655e+2, -815574.2, -948452.3, 59213.55, 0.14863782, -0.22858368, -793016.7, 141625.14, 0.0, 10.001079, 9.999335 
2.500117e+1, 2.1462677e+2, -931908.06, -958052.2, 28134.906, 0.17434944, -0.16726504, -913956.7, -77316.086, 0.0, 9.999624, 9.999297 
2.5000358e+1, 2.2462648e+2, -855392.6, -842542.0, -18527.977, 0.10478487, -0.13545065, -829356.8, -90714.42, 0.0, 9.999357, 9.999543 
2.499782e+1, 2.3462556e+2, -608261.2, -680456.0, -14826.392, -0.06694359, -0.20682994, -605334.94, 35312.938, 0.0, 10.000409, 9.999479 
2.4997556e+1, 2.446249e+2, -570365.3, -643759.8, 52645.703, -0.07047728, -0.2039705, -542888.94, -235.64201, 0.0, 10.000147, 9.999183 
2.4999891e+1, 2.5462428e+2, -733010.44, -676378.25, 60657.582, 0.12146904, -0.20893185, -637753.0, -193092.33, 0.0, 9.998367, 9.999147 
2.4999817e+1, 2.6462328e+2, -629645.56, -482650.97, 17331.71, 0.15047266, -0.26014996, -480635.06, -133966.77, 0.00000003137998, 9.998022, 9.999964 
2.4996933e+1, 2.74622e+2, -340659.94, -296104.66, 16121.359, 0.00096727937, -0.412433, -290883.38, -42208.574, 0.0000016165861, 9.999342, 9.999937 
2.4995652e+1, 2.84622e+2, -255629.77, -266794.06, 39977.027, -0.009840237, -0.37322578, -220847.03, -70173.875, 0.000011342512, 9.99952, 9.999377 
2.4996282e+1, 2.9462293e+2, -327117.22, -240726.44, 8844.702, 0.14650752, -0.2491123, -239830.22, -187161.61, 0.00005395602, 9.998307, 9.999468 
2.4994916e+1, 3.046236e+2, -402135.44, -199092.48, 42068.77, 0.05280344, -0.15226407, -190721.31, -190721.31, 0.00022021512, 9.997264, 9.999936 
2.4991497e+1, 3.1462267e+2, -365035.84, 86797.31, 56990.82, -0.28641704, -0.2496633, 93874.84, 93874.84, 0.00059438485, 9.996317, 10.0023575 
3.500147e+1, 1.2463316e+2, -1601296.0, -1589578.4, 64400.227, -0.013349748, 0.095040925, -1530771.0, 187814.45, 0.0023442833, 10.000425, 10.000643 
3.500198e+1, 1.3463038e+2, -1660327.9, -1744490.9, 113549.625, -0.059777506, -0.11192731, -1581312.9, 39296.254, 0.0013882996, 10.000152, 9.999039 
3.5002187e+1, 1.4462921e+2, -1500121.3, -1530621.4, 54448.99, -0.09349302, -0.16485468, -1458827.0, 63791.883, 0.0006086515, 10.000193, 9.999796 
3.5002685e+1, 1.5462941e+2, -1302764.1, -1381903.9, 22975.623, -0.024208857, -0.15613706, -1296577.6, 128039.38, 0.00016439817, 10.000864, 9.999822 
3.500212e+1, 1.6462976e+2, -1201335.1, -1235071.5, -71093.05, 0.03323287, -0.12236005, -1145136.5, 181475.73, 0.000017966355, 10.000676, 10.000259 
3.500034e+1, 1.746296e+2, -1273310.9, -1219177.9, -52058.523, 0.07463526, -0.18559065, -1187570.0, 41040.816, 0.00000014192928, 9.999517, 10.00025 
3.4999752e+1, 1.8462911e+2, -1236398.6, -1248729.6, 70967.945, 0.08013956, -0.21158288, -1171328.9, -40715.54, 0.0, 9.999519, 9.999367 
3.5000455e+1, 1.9462837e+2, -940513.9, -1063508.8, 90255.125, 0.03654171, -0.24200599, -892796.3, 139823.56, 0.0, 10.000908, 9.999301 
3.5000363e+1, 2.0462778e+2, -871112.1, -1036303.2, -1624.0559, 0.013707868, -0.20602362, -871096.2, 63531.24, 0.0, 10.000969, 9.998784 
3.4999374e+1, 2.146271e+2, -988787.56, -1048796.8, -18112.602, 0.01136285, -0.1683103, -983744.44, -147106.25, 0.0, 9.999514, 9.998727 
3.499887e+1, 2.2462635e+2, -851603.0, -802838.7, 11201.369, 0.0013434914, -0.16963236, -800388.75, -61743.234, 0.0, 9.999228, 9.999878 
3.499887e+1, 2.3462547e+2, -598343.2, -628764.1, 33610.74, -0.022592828, -0.26926646, -576661.4, 63987.453, 0.0, 10.000284, 9.999892 
3.4998524e+1, 2.4462518e+2, -555169.6, -592285.56, -18227.096, -0.006117921, -0.26845708, -547715.56, -5065.9727, 0.0, 10.000059, 9.99958 
3.4997758e+1, 2.5462544e+2, -721992.4, -625812.4, 2135.4634, 0.050750565, -0.22372086, -625765.0, -181116.0, 0.0, 9.998254, 9.999548 
3.499731e+1, 2.646255e+2, -613266.5, -436918.6, 55883.66, 0.07936179, -0.20383061, -420700.8, -74054.41, 0.0000000045955626, 9.997967, 10.000309 
3.499712e+1, 2.7462548e+2, -329488.16, -250273.33, 76663.8, 0.062387533, -0.25882336, -203590.05, 45050.637, 0.0000011861115, 9.999241, 10.000303 
3.499564e+1, 2.8462493e+2, -307900.38, -358276.9, -10633.222, 0.016535832, -0.26855242, -305747.94, -155102.97, 0.000009324045, 9.999454, 9.998779 
3.4992644e+1, 2.9462314e+2, -388637.75, -347184.06, -28661.635, -0.0728726, -0.3459569, -332540.13, -279873.25, 0.00004426637, 9.998219, 9.998781 
3.4990746e+1, 3.0462372e+2, -382282.2, -152364.38, -781.409, -0.10836522, -0.23938139, -152361.72, -152361.72, 0.00018818198, 9.997229, 10.000273 
3.499027e+1, 3.146226e+2, -428946.78, -32141.184, 51695.742, -0.08391456, -0.39231372, -25516.861, -25516.861, 0.00052315294, 9.996242, 10.001578 
4.5002478e+1, 1.2463392e+2, -1438157.0, -1491389.3, 45046.383, 0.012249545, 0.085271865, -1412451.1, 306124.78, 0.0022184679, 10.001491, 10.000797 
4.5003042e+1, 1.3463071e+2, -1495835.6, -1630892.8, 36660.582, -0.0046436125, -0.19390047, -1486526.0, 134074.58, 0.0013082918, 10.001143, 9.99934 
4.5003128e+1, 1.4462915e+2, -1466381.3, -1537156.0, 24321.098, -0.023933966, -0.28962073, -1458829.4, 63784.5, 0.00056754425, 10.000518, 9.999608 
4.5003363e+1, 1.546298e+2, -1507337.1, -1508780.9, 26492.557, 0.03145571, -0.21076638, -1481556.6, -56945.87, 0.00014805637, 9.999575, 9.999588 
4.5002702e+1, 1.646303e+2, -1335495.8, -1305933.6, -22800.855, 0.076667055, -0.14567971, -1293541.9, 33064.11, 0.000013959289, 9.999786, 10.000198 
4.5001075e+1, 1.7462997e+2, -1007876.44, -1099488.9, -51879.08, 0.11169286, -0.21816964, -984475.4, 244130.55, 0.000000037538413, 10.001366, 10.000185 
4.5000467e+1, 1.8462954e+2, -952597.7, -1103247.9, 51793.03, 0.11152769, -0.23958068, -936509.5, 194098.56, 0.0, 10.0014305, 9.9994545 
4.5000926e+1, 1.9462916e+2, -1123505.4, -1140747.4, 46064.504, 0.0653284, -0.23995985, -1085262.1, -52651.043, 0.0, 9.999612, 9.999397 
4.5000377e+1, 2.0462875e+2, -1140930.8, -1154074.9, -13824.679, 0.021305889, -0.19365337, -1132195.5, -197578.8, 0.0, 9.999059, 9.998899 
4.4998738e+1, 2.146281e+2, -930066.44, -1008492.25, 5950.3916, -0.012625598, -0.1668791, -929617.56, -92990.29, 0.0, 9.99986, 9.998839 
4.4998345e+1, 2.2462727e+2, -757398.75, -782518.8, 81063.38, -0.0037313988, -0.16852023, -687928.1, 50707.85, 0.0, 9.999984, 9.999654 
4.4999364e+1, 2.3462623e+2, -760245.4, -735181.2, 42682.902, 0.05441848, -0.2599181, -703228.6, -62585.805, 0.0, 9.999298, 9.9996395 
4.4998947e+1, 2.4462603e+2, -682090.2, -610070.0, -53026.99, 0.09026542, -0.2552515, -581981.8, -39338.63, 0.0, 9.999009, 9.99996 
4.499687e+1, 2.5462657e+2, -558487.56, -505302.75, -47913.754, 0.09547949, -0.2207589, -477096.6, -32458.152, 0.0, 9.999194, 9.999922 
4.4995835e+1, 2.6462704e+2, -499644.78, -375188.94, 40785.91, 0.10331628, -0.18380086, -363013.88, -16381.865, 0.000000013083459, 9.998728, 10.000359 
4.499602e+1, 2.746276e+2, -572375.75, -365873.4, 23456.318, 0.11984174, -0.18611811, -363242.56, -114620.04, 0.0000010541644, 9.99757, 10.000318 
4.499439e+1, 2.8462687e+2, -618139.75, -502672.94, -44234.074, 0.060349155, -0.21492134, -487675.34, -337046.75, 0.000008050424, 9.997308, 9.998827 
4.4990557e+1, 2.9462424e+2, -399338.88, -350641.84, -27009.723, -0.09280281, -0.37983122, -338625.88, -285968.7, 0.00003666787, 9.998145, 9.998796 
4.4988438e+1, 3.0462512e+2, -208510.64, -93935.87, 8935.752, -0.11894364, -0.22859791, -93243.15, -93243.15, 0.00016032506, 9.998518, 10.000054 
4.4988486e+1, 3.146237e+2, -215518.33, -9450.595, -6386.8813, 0.035058208, -0.39523822, -9252.829, -9252.829, 0.00046162336, 9.998043, 10.000868 
5.500291e+1, 1.2463078e+2, -1434969.8, -1523439.4, 515.9538, -0.1579834, -0.27584234, -1434966.8, 283632.03, 0.0020911084, 10.001632, 10.000517 
5.5004245e+1, 1.3463005e+2, -1481063.9, -1628910.4, 32766.346, -0.033148266, -0.30809194, -1474127.4, 146474.67, 0.0012261746, 10.001249, 9.999308 
5.500442e+1, 1.4462954e+2, -1425674.6, -1463333.1, -21321.303, 0.02005246, -0.32354388, -1416058.5, 106547.83, 0.0005263589, 10.000561, 10.000095 
5.500392e+1, 1.5463026e+2, -1469736.1, -1437593.6, -583.07574, 0.10057962, -0.28297192, -1437583.0, -12982.022, 0.00013276051, 9.999602, 10.000064 
5.5003e+1, 1.6463083e+2, -1374123.8, -1380540.4, 25460.041, 0.10222031, -0.2112287, -1351670.8, -25074.514, 0.0000106646075, 9.999764, 9.999695 
5.500191e+1, 1.7463057e+2, -1045492.06, -1176265.8, 16041.625, 0.03129949, -0.22591941, -1043553.06, 185045.22, 0.000000007551507, 10.001364, 9.999657 
5.500125e+1, 1.8463014e+2, -961649.06, -1113464.9, -21766.803, 0.024738833, -0.21961917, -958589.8, 172012.61, 0.0, 10.001392, 9.999402 
5.5000955e+1, 1.9462961e+2, -1130236.1, -1147032.3, -15577.473, 0.08197121, -0.23278219, -1120937.1, -88329.01, 0.0, 9.999581, 9.999368 
5.500019e+1, 2.046295e+2, -1096967.9, -1043654.94, 6161.785, 0.07602608, -0.19343765, -1042952.06, -108342.414, 0.0, 9.9989805, 9.999692 
5.4998904e+1, 2.146297e+2, -881935.4, -891967.3, 44623.43, -0.0055341157, -0.16313247, -842046.9, -5438.7603, 0.0, 9.999793, 9.999669 
5.499845e+1, 2.2462924e+2, -820007.2, -898725.06, 49027.934, -0.014030964, -0.1364559, -796494.3, -57880.273, 0.0, 9.999921, 9.998888 
5.499903e+1, 2.3462798e+2, -829926.2, -861904.75, 24734.23, 0.06856283, -0.16902031, -816463.2, -175834.34, 0.0, 9.999217, 9.998809 
5.49985e+1, 2.446275e+2, -667878.2, -565656.7, -53281.496, 0.12248933, -0.16533767, -542935.06, -301.36798, 0.0, 9.998949, 10.000292 
5.499681e+1, 2.5462773e+2, -547848.0, -453112.56, -32989.125, 0.14564644, -0.19863185, -442756.94, 1871.7856, 0.0, 9.999074, 10.000332 
5.4995066e+1, 2.64628e+2, -524164.47, -420173.13, -9324.124, 0.13076705, -0.19383872, -419343.72, -72719.16, 0.000000016276152, 9.998695, 10.00007 
5.499336e+1, 2.746282e+2, -602437.25, -416145.2, -13149.0205, 0.073858194, -0.19628406, -415221.7, -166600.61, 0.00000094951764, 9.997508, 10.000007 
5.499159e+1, 2.846277e+2, -573983.6, -402171.34, -24652.527, 0.02876436, -0.21961027, -398704.03, -248079.11, 0.0000068870954, 9.997274, 9.999532 
5.498971e+1, 2.9462603e+2, -362511.4, -254631.98, 15867.247, -0.019666085, -0.35930875, -252346.6, -199705.89, 0.00003048685, 9.998056, 9.999499 
5.4987687e+1, 3.0462775e+2, -265797.38, -193111.39, -9228.973, -0.06711437, -0.13320486, -191957.89, -191957.89, 0.0001366128, 9.998445, 9.999407 
5.49855e+1, 3.1462586e+2, -267074.75, -99269.055, -5040.585, -0.11458328, -0.27889216, -99117.78, -99117.78, 0.00040785797, 9.997977, 10.0002775 
6.500515e+1, 1.2463098e+2, -1526685.8, -1625263.5, 59760.734, -0.065031275, -0.3926782, -1498510.1, 220081.83, 0.0019647046, 10.001225, 10.000021 
6.500557e+1, 1.3463138e+2, -1550317.5, -1677043.8, 57293.91, 0.0045688525, -0.29373822, -1528255.4, 92332.06, 0.0011417874, 10.000824, 9.9991865 
6.500515e+1, 1.4463103e+2, -1398364.6, -1447095.5, 14600.626, 0.03597812, -0.2890285, -1394324.9, 128265.97, 0.0004823996, 10.000745, 10.000111 
6.5004575e+1, 1.546315e+2, -1213930.0, -1309343.1, -18288.676, 0.12789416, -0.27600965, -1210544.6, 214042.1, 0.00011742101, 10.001343, 10.000095 
6.500362e+1, 1.646318e+2, -1192580.6, -1329033.4, 27598.482, 0.1246007, -0.218842, -1187210.0, 139374.67, 0.000008467286, 10.001163, 9.999377 
6.500251e+1, 1.7463131e+2, -1274180.4, -1323865.4, 18721.572, 0.031434175, -0.22217517, -1267915.9, -39325.17, 0.000000004638606, 9.99996, 9.99932 
6.500156e+1, 1.846308e+2, -1228568.1, -1228516.4, -23389.594, 0.016137077, -0.21197037, -1205152.6, -74556.22, 0.0, 9.999511, 9.999513 
6.5000623e+1, 1.9463027e+2, -1075299.8, -1108208.9, -24751.475, 0.080409564, -0.23719467, -1062032.5, -29431.088, 0.0, 9.999899, 9.999483 
6.500013e+1, 2.0463003e+2, -905559.6, -931846.56, 36334.438, 0.11573679, -0.22366075, -880064.5, 54538.754, 0.0, 10.000203, 9.999875 
6.5000147e+1, 2.1463008e+2, -796155.6, -829915.56, 14500.807, 0.11943691, -0.2270407, -790782.3, 45819.992, 0.0, 10.000292, 9.999857 
6.4999574e+1, 2.2462997e+2, -770318.06, -841175.25, 6854.094, 0.1019948, -0.18745506, -769661.2, -31056.457, 0.0, 10.000118, 9.999191 
6.4998317e+1, 2.3462969e+2, -748738.6, -786744.9, 48549.5, 0.061266154, -0.15270576, -715605.7, -74994.59, 0.0, 9.999619, 9.999136 
6.4997125e+1, 2.4462944e+2, -645911.5, -561741.44, 30828.182, 0.08860405, -0.1397523, -551658.25, -9044.072, 0.0, 9.99911, 10.000258 
6.4996064e+1, 2.546292e+2, -628202.6, -497678.5, 1604.2424, 0.19711593, -0.21813944, -497658.78, -53044.535, 0.0, 9.998539, 10.0002985 
6.499434e+1, 2.646292e+2, -579461.1, -485728.4, 19114.93, 0.2047779, -0.21607202, -481980.16, -135366.63, 0.00000000394634, 9.998476, 9.999732 
6.499195e+1, 2.746295e+2, -397818.66, -352473.0, -2253.8833, 0.10992043, -0.17206961, -352361.25, -103749.516, 0.0000007712445, 9.999073, 9.999685 
6.498997e+1, 2.8462923e+2, -303473.16, -250121.14, -7539.1333, 0.05902376, -0.17235166, -249076.25, -98461.4, 0.000006042053, 9.999034, 9.999727 
6.498855e+1, 2.9462785e+2, -339078.9, -218514.36, -23173.242, 0.06468025, -0.3047735, -214213.72, -161587.44, 0.000026514133, 9.998116, 9.999716 
6.4986455e+1, 3.0462924e+2, -373575.9, -289561.94, -36832.867, 0.0025888402, -0.10071389, -275700.8, -275700.8, 0.00011960156, 9.997891, 9.999014 
6.4983726e+1, 3.146272e+2, -194515.72, -59353.938, -44926.07, -0.10229235, -0.21825397, -45783.56, -45783.56, 0.000365328, 9.998445, 10.00034 
7.5008667e+1, 1.2463434e+2, -1551661.6, -1691198.8, 10876.933, 0.108999796, -0.26726076, -1550818.8, 167738.67, 0.0018421272, 10.001295, 9.99953 
7.5006586e+1, 1.3463464e+2, -1557559.8, -1703245.5, 43762.086, -0.0064179995, -0.1561059, -1545424.9, 75132.03, 0.0010580781, 10.000879, 9.998978 
7.500483e+1, 1.4463364e+2, -1422138.9, -1506177.6, 26556.576, -0.10117076, -0.1860687, -1414450.3, 108117.4, 0.0004375462, 10.000782, 9.99969 
7.5005007e+1, 1.5463346e+2, -1239378.5, -1376115.3, 14513.532, 0.005969488, -0.19430429, -1237855.0, 186713.3, 0.00010224, 10.001396, 9.999617 
7.500425e+1, 1.6463323e+2, -1202148.5, -1348205.4, -22912.3, 0.046526644, -0.15991032, -1198638.5, 127932.71, 0.000007138289, 10.001159, 9.999248 
7.500261e+1, 1.7463227e+2, -1280454.9, -1340469.4, -19604.205, 0.01942196, -0.20158109, -1274618.6, -46035.91, 0.00000003688298, 9.999971, 9.999201 
7.500106e+1, 1.8463151e+2, -1213908.5, -1197633.6, -17912.205, -0.0069423537, -0.2187088, -1186097.1, -55507.176, 0.0, 9.999502, 9.999733 
7.4999595e+1, 1.9463104e+2, -1060451.4, -1074713.1, -1883.8225, -0.037301525, -0.2610788, -1060206.8, -27614.846, 0.0, 9.999885, 9.9997225 
7.499989e+1, 2.0463037e+2, -945563.5, -1000112.7, 33568.605, 0.052060563, -0.28388223, -929585.9, 5011.856, 0.0, 10.000143, 9.9994335 
7.50022e+1, 2.1462928e+2, -839151.3, -902477.4, 25423.514, 0.27333525, -0.35774857, -830207.7, 6401.9844, 0.0, 10.0002165, 9.999396 
7.500137e+1, 2.2462952e+2, -688939.56, -654633.5, -17281.992, 0.2506597, -0.32264182, -647437.1, 91170.65, 0.0, 10.000043, 10.000506 
7.499694e+1, 2.3463129e+2, -665112.1, -593218.06, 39682.215, -0.058070306, -0.22236805, -575621.94, 64968.523, 0.0, 9.99953, 10.000507 
7.499449e+1, 2.4463187e+2, -684883.1, -628084.2, 2105.9656, -0.10424995, -0.17905359, -628006.25, -85421.31, 0.0, 9.99905, 9.999827 
7.499434e+1, 2.546309e+2, -675845.8, -579662.44, -13798.153, 0.14960277, -0.27977124, -577722.1, -133127.44, 0.0, 9.998461, 9.999774 
7.4993324e+1, 2.6463073e+2, -614943.56, -543117.75, 33716.01, 0.23714115, -0.24697043, -529771.06, -183172.86, 0.00000000015133415, 9.998415, 9.999365 
7.499142e+1, 2.7463162e+2, -438716.28, -413848.4, 32965.414, 0.12585935, -0.116310254, -391049.94, -142455.81, 0.00000065427645, 9.998975, 9.99931 
7.4989265e+1, 2.8463137e+2, -328272.78, -294488.8, -45794.094, 0.06281856, -0.07414602, -262570.56, -111972.555, 0.0000058927376, 9.999, 9.99944 
7.498676e+1, 2.9462954e+2, -371420.03, -270097.8, -49954.105, 0.048850987, -0.22605504, -249611.45, -196997.14, 0.000025865007, 9.998038, 9.999403 
7.4984515e+1, 3.0462945e+2, -396683.0, -326326.63, -19204.44, -0.0031031398, -0.13990946, -321425.94, -321425.94, 0.00011192772, 9.997849, 9.9987755 
7.4982595e+1, 3.1462735e+2, -162491.72, 38998.07, 1776.3674, -0.10014821, -0.24876413, 39013.727, 39013.727, 0.00033923058, 9.998308, 10.001078 
8.501013e+1, 1.2463609e+2, -1615366.4, -1727808.6, 6793.3174, 0.15656242, -0.27163512, -1614957.4, 103580.484, 0.0017237901, 10.000895, 9.999463 
8.5008067e+1, 1.3463657e+2, -1480182.0, -1637377.6, 40911.03, 0.04297947, -0.16545501, -1470172.1, 150362.52, 0.0009802121, 10.001303, 9.999218 
8.500606e+1, 1.4463513e+2, -1384490.9, -1526817.1, 63205.043, -0.07099854, -0.2333933, -1360474.9, 162074.39, 0.00039778455, 10.001197, 9.999354 
8.500597e+1, 1.5463454e+2, -1389988.8, -1487910.9, 38929.816, 0.01140583, -0.24949288, -1376398.1, 48156.58, 0.000088897265, 10.000535, 9.999263 
8.500502e+1, 1.6463411e+2, -1326386.4, -1428930.1, 7415.6313, 0.050548125, -0.20487136, -1325852.9, 707.33777, 0.000006071428, 10.000401, 9.999058 
8.5003173e+1, 1.7463326e+2, -1175114.3, -1307295.4, -11150.88, 0.044542976, -0.21628253, -1174180.3, 54391.516, 0.000000076650345, 10.000775, 9.99904 
8.500149e+1, 1.8463254e+2, -1020967.6, -1103116.1, 9999.853, 0.025445692, -0.22357507, -1019767.9, 110811.56, 0.0, 10.000824, 9.999746 
8.500007e+1, 1.9463211e+2, -978550.25, -1031271.8, -3173.8037, -0.00035791806, -0.2627785, -978359.9, 54221.168, 0.0, 10.000439, 9.99975 
8.5000044e+1, 2.0463161e+2, -955217.6, -983531.6, 49581.17, 0.06610355, -0.27911735, -917811.94, 16773.266, 0.0, 9.99998, 9.99963 
8.500153e+1, 2.1463087e+2, -955532.94, -937022.0, 73097.93, 0.23628102, -0.33538726, -872595.9, -36002.34, 0.0, 9.999319, 9.999596 
8.500047e+1, 2.2463134e+2, -846378.8, -675584.94, 30913.324, 0.22673115, -0.31235975, -670161.9, 68427.22, 0.0, 9.998734, 10.000989 
8.4996533e+1, 2.3463319e+2, -821505.94, -614872.94, 3066.8594, 0.018657709, -0.24981996, -614827.44, 25742.258, 0.0, 9.998229, 10.000981 
8.499412e+1, 2.4463382e+2, -765966.6, -682481.0, -10944.8545, -0.01746774, -0.21873066, -681070.0, -138506.61, 0.0, 9.998559, 9.999685 
8.499348e+1, 2.5463295e+2, -475829.3, -498731.4, -14845.413, 0.15252899, -0.29235885, -468531.7, -23958.832, 0.0, 9.99991, 9.999623 
8.499211e+1, 2.646328e+2, -375910.6, -448046.84, 42337.395, 0.19529448, -0.24767414, -356360.72, -9782.997, 0.0000000019213902, 10.00013, 9.999198 
8.4990036e+1, 2.7463338e+2, -460249.47, -444187.6, 36884.688, 0.09957892, -0.12573008, -414469.66, -165891.95, 0.0000006294421, 9.998903, 9.999142 
8.4987986e+1, 2.8463328e+2, -404012.06, -328121.5, -1606.5938, 0.067103244, -0.06397343, -328087.5, -177506.11, 0.0000062489003, 9.998466, 9.999467 
8.498596e+1, 2.946321e+2, -218792.9, -191178.06, 1459.0758, 0.12103912, -0.15266906, -191101.19, -138509.64, 0.000027811611, 9.999065, 9.999448 
8.498378e+1, 3.0463126e+2, -234892.0, -266977.44, 68659.555, 0.08815314, -0.13485643, -180425.83, -180425.83, 0.000112212314, 9.999031, 9.998621 
8.4981537e+1, 3.1462905e+2, -174070.13, 88395.85, 63719.363, -0.008516188, -0.24280292, 103047.25, 103047.25, 0.00032853556, 9.997991, 10.00156 
9.500897e+1, 1.2463648e+2, -1590905.3, -1683722.8, -4085.6968, -0.10247502, -0.38654223, -1590725.8, 127805.13, 0.0016162735, 10.000926, 9.999746 
9.5009583e+1, 1.3463715e+2, -1425210.9, -1545036.1, 63092.527, 0.034850597, -0.32692504, -1398116.6, 222404.1, 0.000914127, 10.00139, 9.999808 
9.5008516e+1, 1.4463554e+2, -1397629.1, -1558195.5, 31934.371, 0.028251072, -0.43128332, -1391511.0, 131024.555, 0.00036652523, 10.001219, 9.9991255 
9.5007235e+1, 1.5463477e+2, -1405454.9, -1526235.9, 23699.066, 0.056513384, -0.4374217, -1400971.3, 23574.143, 0.00007896126, 10.000563, 9.998984 
9.5005685e+1, 1.6463457e+2, -1346345.0, -1469059.3, 12873.511, 0.055358984, -0.34290352, -1345009.1, -18458.207, 0.000005121987, 10.000391, 9.998789 
9.500389e+1, 1.7463434e+2, -1189945.5, -1343384.6, 10914.636, 0.012927493, -0.26776528, -1189173.0, 39384.98, 0.00000007826353, 10.000793, 9.998783 
9.500256e+1, 1.8463391e+2, -1040981.06, -1137600.5, -10248.332, 0.03129525, -0.22195248, -1039906.0, 90658.72, 0.0, 10.0007925, 9.999524 
9.5001775e+1, 1.9463341e+2, -997925.6, -1065032.8, -8565.422, 0.10343159, -0.24922624, -996849.56, 35719.92, 0.0, 10.00041, 9.999533 
9.5000285e+1, 2.0463374e+2, -907896.25, -871008.2, 18172.598, 0.07273326, -0.20854612, -863559.6, 71006.26, 0.0, 9.999916, 10.000434 
9.499785e+1, 2.1463482e+2, -905891.1, -820511.2, 58009.574, -0.08588477, -0.16767809, -791176.5, 45378.24, 0.0, 9.999256, 10.000428 
9.499659e+1, 2.2463536e+2, -886066.56, -742797.8, 5162.719, -0.055622768, -0.16027868, -742612.0, -4062.7007, 0.0, 9.998667, 10.000559 
9.4996744e+1, 2.3463522e+2, -864088.4, -688432.4, -9472.315, 0.1952804, -0.25247508, -687923.06, -47372.348, 0.0, 9.998159, 10.00051 
9.499571e+1, 2.4463524e+2, -764537.3, -661296.0, 28919.572, 0.26718977, -0.26709786, -653747.1, -111196.68, 0.0, 9.998485, 9.999866 
9.499326e+1, 2.5463533e+2, -471926.84, -475545.72, 46368.836, 0.11745203, -0.26599193, -427332.16, 17216.941, 0.0, 9.999842, 9.999817 
9.4990504e+1, 2.646352e+2, -384885.94, -455130.6, -7268.5303, 0.0029952358, -0.22755843, -384141.72, -37588.57, 0.0000000017799018, 10.000081, 9.999171 
9.498744e+1, 2.7463466e+2, -473732.97, -452951.75, -1461.0748, -0.07127316, -0.21454422, -452849.53, -204285.53, 0.0000005677249, 9.998819, 9.999119 
9.498583e+1, 2.8463483e+2, -387080.22, -283273.3, 10393.205, -0.014482917, -0.14185914, -282242.97, -131677.6, 0.0000064583187, 9.998424, 9.999794 
9.498583e+1, 2.946355e+2, -208431.11, -148919.4, 37931.664, 0.17606814, -0.08400945, -130465.08, -77907.195, 0.000029725905, 9.998975, 9.999783 
9.4983965e+1, 3.0463478e+2, -239371.34, -270618.0, 28016.809, 0.18311918, -0.075254716, -222916.19, -222916.19, 0.00011359201, 9.999001, 9.998608 
9.497985e+1, 3.1463245e+2, -178776.92, 104586.23, 58192.81, -0.022476228, -0.18951416, 116071.46, 116071.46, 0.00032159366, 9.997874, 10.001729 
1.0500999e+2, 1.2463768e+2, -1542578.8, -1665089.1, -6125.893, -0.098213, -0.40214255, -1542273.3, 176245.23, 0.0015309328, 10.001242, 9.999736 
1.0501074e+2, 1.3463822e+2, -1465498.8, -1535982.9, 9135.586, 0.04161917, -0.38128346, -1464333.9, 156173.44, 0.0008642909, 10.000963, 10.000089 
1.05009675e+2, 1.4463672e+2, -1476090.0, -1598721.6, -25120.5, 0.053950064, -0.49037755, -1471143.8, 51377.0, 0.00034447288, 10.0007105, 9.999084 
1.0500813e+2, 1.546363e+2, -1423301.9, -1549314.0, -39262.414, 0.10108517, -0.44902405, -1412069.9, 12459.258, 0.00007296801, 10.000508, 9.998856 
1.0500635e+2, 1.6463612e+2, -1327728.6, -1440731.0, 15717.766, 0.0866019, -0.3510799, -1325583.1, 951.2301, 0.000004414203, 10.000442, 9.998953 
1.05004564e+2, 1.7463575e+2, -1219933.8, -1340919.5, 29060.283, 0.019487683, -0.30791596, -1213315.6, 15225.697, 0.000000050630582, 10.000526, 9.998923 
1.05003275e+2, 1.8463525e+2, -1096305.5, -1195829.6, 16902.146, 0.03931133, -0.2620815, -1093513.4, 37035.574, 0.0, 10.000542, 9.999244 
1.0500249e+2, 1.9463478e+2, -1040648.75, -1119013.6, -5245.9224, 0.1475511, -0.26010412, -1040299.1, -7743.1187, 0.0, 10.000257, 9.999234 
1.0500037e+2, 2.0463529e+2, -925691.56, -837254.0, -1121.2268, 0.110480495, -0.20387813, -837239.8, 97311.43, 0.0, 9.999622, 10.000804 
1.0499672e+2, 2.1463679e+2, -987284.1, -812819.56, -13585.904, -0.081097014, -0.1599094, -811767.94, 24766.523, 0.0, 9.998508, 10.000835 
1.049952e+2, 2.246373e+2, -960282.5, -832035.1, -29915.365, -0.041481398, -0.15457055, -825400.2, -86870.86, 0.0, 9.998377, 10.000097 
1.0499625e+2, 2.3463659e+2, -723914.7, -675322.3, -59120.277, 0.27564165, -0.2511182, -635700.5, 4837.564, 0.0, 9.999356, 10.00003 
1.0499539e+2, 2.4463648e+2, -601388.06, -571826.2, -7850.8237, 0.33810988, -0.25886196, -569870.6, -27330.525, 0.0, 9.999557, 9.999963 
1.0499244e+2, 2.5463694e+2, -615076.2, -533507.2, -12143.518, 0.10826334, -0.23291023, -531737.75, -87202.14, 0.0, 9.998814, 9.999913 
1.049896e+2, 2.6463702e+2, -579635.8, -517719.78, -69704.414, -0.017123334, -0.18884501, -472407.84, -125870.97, 0.00000000014537505, 9.998621, 9.999436 
1.0498701e+2, 2.7463663e+2, -409807.38, -394908.5, -61398.313, -0.0075725424, -0.19069009, -340509.34, -91963.92, 0.00000042821608, 9.999141, 9.999364 
1.0498538e+2, 2.8463662e+2, -231254.61, -211213.53, -9704.821, 0.050258335, -0.14644599, -207284.36, -56736.215, 0.0000059800022, 9.999487, 9.999789 
1.0498477e+2, 2.9463693e+2, -123161.13, -108122.24, -28269.299, 0.15000965, -0.12439245, -86389.414, -33844.598, 0.000029321069, 9.999544, 9.999798 
1.0498256e+2, 3.0463675e+2, -196042.1, -215102.77, -68380.05, 0.14302845, -0.0743772, -136531.44, -136531.44, 0.000109979665, 9.999162, 9.99891 
1.049787e+2, 3.1463563e+2, -124508.85, 136575.56, -43426.78, 0.066998966, -0.0957026, 143609.34, 143609.34, 0.000307793, 9.998222, 10.001784 
1.1501242e+2, 1.24639384e+2, -1555222.3, -1708070.4, -52346.25, -0.03510779, -0.33612397, -1539013.9, 179489.7, 0.001474528, 10.001315, 9.999403 
1.1501133e+2, 1.3463971e+2, -1456493.1, -1528407.5, 3952.1208, -0.023330063, -0.33377692, -1456276.5, 164218.63, 0.00083337264, 10.001013, 10.0001135 
1.1500935e+2, 1.4463867e+2, -1472487.8, -1589427.0, -41134.3, -0.07415542, -0.40421855, -1459468.0, 63036.9, 0.00033260565, 10.000699, 9.999155 
1.1500823e+2, 1.54639e+2, -1410844.9, -1534573.9, -34606.133, 0.032304212, -0.29469854, -1401823.5, 22682.824, 0.0000710648, 10.00056, 9.998929 
1.1500671e+2, 1.6463876e+2, -1288738.9, -1363694.8, 11142.2295, 0.052473478, -0.23426333, -1287117.6, 39393.09, 0.0000041843605, 10.000452, 9.99948 
1.1500498e+2, 1.7463744e+2, -1174756.4, -1255297.1, 40925.35, -0.016403364, -0.34316143, -1157610.9, 70911.57, 0.000000024917117, 10.000558, 9.999497 
1.15003414e+2, 1.8463656e+2, -1128532.9, -1248186.1, 627.1526, -0.020058507, -0.3483197, -1128529.6, 2002.8557, 0.0, 10.00048, 9.998918 
1.15001895e+2, 1.9463618e+2, -1068814.4, -1171843.5, -8840.78, 0.035874534, -0.2978715, -1068061.3, -35520.434, 0.0, 10.000233, 9.998884 
1.1500006e+2, 2.0463626e+2, -941856.5, -858495.2, -50342.77, 0.099625304, -0.26216173, -834817.8, 99723.29, 0.0, 9.999564, 10.000689 
1.1499785e+2, 2.146367e+2, -1003659.06, -831383.9, -49248.992, 0.16230346, -0.31748685, -818298.75, 18234.834, 0.0, 9.998437, 10.000746 
1.1499606e+2, 2.2463708e+2, -1007104.9, -910483.8, -3824.3933, 0.1918209, -0.2949636, -910332.6, -171802.61, 0.0, 9.998299, 9.999596 
1.14994764e+2, 2.346373e+2, -771939.2, -753965.7, -13047.793, 0.17229274, -0.24948366, -747109.25, -106577.4, 0.0, 9.999264, 9.999535 
1.1499299e+2, 2.4463755e+2, -614549.75, -580966.44, -41103.64, 0.12252378, -0.19360384, -553356.8, -10824.446, 0.0, 9.999479, 9.999938 
1.1499069e+2, 2.546377e+2, -625671.94, -537618.6, -35299.695, 0.032942273, -0.19821726, -525214.7, -80681.84, 0.0, 9.998737, 9.999922 
1.1498915e+2, 2.6463825e+2, -546991.9, -443693.16, -58851.16, 0.055720214, -0.13383007, -417041.1, -70511.695, 0.0, 9.9985895, 9.999965 
1.1498847e+2, 2.746392e+2, -382651.63, -322975.1, -31980.451, 0.20386995, -0.054352175, -309074.7, -60552.383, 0.0000002594802, 9.999067, 9.999899 
1.1498634e+2, 2.846386e+2, -264215.63, -265306.22, -13253.048, 0.17918546, -0.07587623, -251496.67, -100967.1, 0.000005001763, 9.9994335, 9.99944 
1.1498243e+2, 2.9463637e+2, -169583.02, -172509.28, -17007.271, -0.059910756, -0.26978475, -153976.05, -101423.695, 0.000026475647, 9.999414, 9.999416 
1.1497929e+2, 3.0463722e+2, -163541.9, -131161.5, -104001.83, -0.11892686, -0.124614, -42097.234, -42097.234, 0.000100772006, 9.9991045, 9.999509 
1.1497752e+2, 3.1463853e+2, -145815.56, 119217.56, -57738.01, 0.08013012, 0.028406892, 131249.67, 131249.67, 0.00028477213, 9.998113, 10.001716 
1.2501392e+2, 1.2464121e+2, -1645765.5, -1777309.0, -72388.805, 0.01551877, -0.2306439, -1613731.0, 104757.12, 0.0014451224, 10.000816, 9.9991665 
1.2501279e+2, 1.3464081e+2, -1534381.0, -1569477.0, -44116.242, 0.05581512, -0.29441395, -1504450.9, 116036.43, 0.000820366, 10.000501, 10.000079 
1.2501055e+2, 1.4463978e+2, -1493415.4, -1569206.5, -44615.598, -0.001317899, -0.37616313, -1472773.5, 49723.207, 0.00033115427, 10.000418, 9.999431 
1.2500902e+2, 1.5464036e+2, -1354257.8, -1477727.6, -45766.67, 0.04838502, -0.27003357, -1339143.6, 85351.445, 0.00007354598, 10.000813, 9.999195 
1.250073e+2, 1.6464035e+2, -1209963.8, -1303458.6, 1677.2616, 0.049965452, -0.20994736, -1209933.8, 116562.88, 0.0000047036624, 10.000889, 9.999691 
1.250056e+2, 1.7463933e+2, -1179161.1, -1235632.8, -9454.724, 0.0029492402, -0.3074173, -1177620.1, 50884.918, 0.000000012759114, 10.000422, 9.999708 
1.2500386e+2, 1.8463856e+2, -1148122.5, -1227667.6, -24926.27, -0.004145691, -0.32450813, -1140957.1, -10443.718, 0.0, 10.000219, 9.999181 
1.25002e+2, 1.9463816e+2, -1048958.9, -1137000.1, -4215.6816, 0.027879825, -0.29917523, -1048757.5, -16236.564, 0.0, 10.000261, 9.999111 
1.2500015e+2, 2.04638e+2, -852203.6, -874206.75, -35887.016, 0.11268156, -0.2750687, -825669.7, 108854.2, 0.0, 10.000433, 10.000157 
1.2499833e+2, 2.1463796e+2, -720191.94, -757456.06, -85240.97, 0.26071602, -0.32037154, -651570.5, 184952.11, 0.0, 10.000656, 10.000179 
1.2499623e+2, 2.2463818e+2, -686641.9, -751490.5, -1594.8923, 0.27471024, -0.28661647, -686602.7, 51918.363, 0.0, 10.000478, 9.999631 
1.24993846e+2, 2.3463865e+2, -689678.75, -708182.2, 14913.399, 0.13367422, -0.22519961, -681380.44, -40860.684, 0.0, 9.999809, 9.999579 
1.249915e+2, 2.4463886e+2, -661569.6, -592607.25, -3006.0657, 0.049707994, -0.18079789, -592476.5, -49956.344, 0.0, 9.999108, 10.000039 
1.24989286e+2, 2.546387e+2, -666841.4, -549230.75, -4534.4985, 0.040269602, -0.22389317, -549056.2, -104532.66, 0.0, 9.998409, 10.000006 
1.24988e+2, 2.646395e+2, -559808.8, -411979.44, 28638.982, 0.09858113, -0.15644178, -406625.13, -60107.91, 0.0, 9.998346, 10.000297 
1.2498783e+2, 2.7464122e+2, -365754.03, -274116.38, 26618.07, 0.24061252, -0.03514686, -266945.7, -18444.451, 0.00000012209664, 9.999023, 10.000247 
1.2498568e+2, 2.8464052e+2, -358971.06, -346448.0, 18070.285, 0.20043392, -0.067288935, -333585.16, -183075.53, 0.000003888246, 9.998947, 9.999109 
1.2498128e+2, 2.946375e+2, -397442.47, -318757.44, -1802.6216, -0.04062766, -0.30452397, -318716.16, -266173.9, 0.00002250982, 9.998018, 9.999076 
1.2497786e+2, 3.0463922e+2, -304715.53, -182596.44, -64486.41, -0.10909393, -0.06940956, -154848.52, -154848.52, 0.000088219014, 9.998027, 9.999697 
1.2497595e+2, 3.1463963e+2, -63131.477, 124033.96, -86450.1, 0.087298565, -0.020882662, 157853.53, 157853.53, 0.00025421128, 9.998827, 10.001413 
1.3501394e+2, 1.2464299e+2, -1657697.6, -1796794.3, -117708.81, -0.11472897, -0.09590073, -1590526.0, 127947.984, 0.0014399097, 10.000812, 9.999028 
1.3501474e+2, 1.346415e+2, -1527116.0, -1562318.9, -49990.832, 0.17440608, -0.26977792, -1491718.4, 128765.305, 0.0008240123, 10.000554, 10.000093 
1.3501295e+2, 1.4464007e+2, -1456082.4, -1510320.9, -40766.05, 0.1687069, -0.40698445, -1434239.1, 88256.68, 0.00033951883, 10.000483, 9.999808 
1.3501024e+2, 1.5464038e+2, -1320807.1, -1416150.6, -21622.34, 0.06245504, -0.3722499, -1316132.6, 108362.17, 0.00008018549, 10.000837, 9.99961 
1.3500786e+2, 1.6464095e+2, -1226887.5, -1322418.1, -23075.15, -0.0036127195, -0.27109173, -1221605.9, 104885.71, 0.0000062149566, 10.000831, 9.999584 
1.3500604e+2, 1.746414e+2, -1189862.5, -1255101.3, -16609.05, -0.019061528, -0.20583566, -1185877.5, 42611.93, 0.000000017143847, 10.0004225, 9.999567 
1.3500425e+2, 1.8464133e+2, -1094386.3, -1115502.9, -31847.701, -0.010319429, -0.18599485, -1071392.3, 59098.85, 0.0, 10.000205, 9.999962 
1.3500243e+2, 1.946407e+2, -993120.06, -1015928.25, 5996.302, 0.021643054, -0.26823264, -991639.7, 40856.742, 0.0, 10.000236, 9.999953 
1.3500035e+2, 2.046405e+2, -929555.9, -1021219.7, -35578.4, 0.07056525, -0.2445857, -917367.2, 17132.494, 0.0, 10.000373, 9.99918 
1.3499783e+2, 2.1464059e+2, -806012.0, -912541.0, -67604.766, 0.1236758, -0.17216815, -773209.56, 63292.145, 0.0, 10.000561, 9.999159 
1.3499543e+2, 2.2464067e+2, -658550.6, -679886.9, -34424.09, 0.12722562, -0.12669553, -633179.5, 105322.7, 0.0, 10.00041, 10.000161 
1.3499315e+2, 2.3464055e+2, -656897.3, -625485.2, -4113.243, 0.06250319, -0.18020836, -624955.56, 15546.697, 0.0, 9.999742, 10.000181 
1.3499066e+2, 2.4464034e+2, -652512.0, -562885.0, -37705.375, 0.03597499, -0.22151254, -549132.8, -6629.016, 0.0, 9.99906, 10.000268 
1.34988e+2, 2.5463998e+2, -664559.0, -523004.7, -23072.969, 0.04967129, -0.30636114, -519338.8, -74831.61, 0.0, 9.998317, 10.000231 
1.3498594e+2, 2.6464078e+2, -561399.7, -401138.28, 46375.77, 0.039554913, -0.25272346, -388685.8, -42186.17, 0.0, 9.998288, 10.000396 
1.3498472e+2, 2.746426e+2, -371438.34, -263125.4, 61121.39, 0.0051576523, -0.13534908, -235619.47, 12863.44, 0.000000046518082, 9.998928, 10.000365 
1.3498312e+2, 2.8464228e+2, -383068.06, -387742.88, -23234.068, 0.030364115, -0.12532026, -362054.13, -211564.86, 0.0000029362805, 9.998908, 9.998847 
1.3498107e+2, 2.9464015e+2, -428703.9, -367199.8, -26841.625, 0.11272432, -0.24301843, -357133.22, -304616.75, 0.000019015239, 9.997942, 9.998785 
1.3497792e+2, 3.0464256e+2, -325458.44, -208728.27, -40079.426, 0.08084608, 0.08387131, -196291.92, -196291.92, 0.000075927965, 9.997962, 9.999544 
1.3497336e+2, 3.1463894e+2, -117487.45, 34780.277, -33677.492, -0.09885562, -0.25308838, 41896.27, 41896.27, 0.00022269739, 9.998722, 10.000851 
1.4501604e+2, 1.2464294e+2, -1662095.5, -1766127.8, -49813.7, 0.038687367, -0.21183303, -1642090.3, 76383.71, 0.0014542761, 10.00063, 9.999333 
1.4501508e+2, 1.3464276e+2, -1467514.9, -1489504.8, 15681.817, 0.14959377, -0.2963015, -1459357.5, 161113.48, 0.0008417685, 10.000762, 10.000496 
1.4501294e+2, 1.4464223e+2, -1434213.0, -1512848.6, 49748.445, 0.1133364, -0.36050788, -1410121.0, 112353.72, 0.0003553583, 10.00069, 9.999696 
1.4501128e+2, 1.5464196e+2, -1387614.0, -1462026.9, 10538.945, 0.11002135, -0.36839893, -1386150.1, 38329.816, 0.00008912462, 10.000441, 9.999491 
1.4500895e+2, 1.6464232e+2, -1313583.1, -1367575.5, -3749.212, 0.05950317, -0.2790678, -1313324.1, 13155.1455, 0.000008328298, 10.000256, 9.999545 
1.4500606e+2, 1.7464308e+2, -1252216.4, -1294489.4, -11553.3955, -0.034675293, -0.18016724, -1249264.9, -20789.535, 0.0000000715251, 10.000027, 9.999489 
1.4500405e+2, 1.846433e+2, -1130819.8, -1099400.6, -17400.418, -0.027003253, -0.14081235, -1091667.4, 38806.8, 0.0, 9.999813, 10.000264 
1.4500293e+2, 1.9464287e+2, -1066350.9, -1019540.44, -34746.508, 0.08555413, -0.23199232, -1001051.44, 31424.828, 0.0, 9.999585, 10.000253 
1.4500074e+2, 2.046427e+2, -1039458.8, -1061416.4, -32697.133, 0.117786236, -0.22460964, -1015946.5, -81468.445, 0.0, 9.999576, 9.999281 
1.4499722e+2, 2.1464269e+2, -916821.25, -961857.3, 465.76425, 0.052758347, -0.17170176, -916816.4, -80336.15, 0.0, 9.999783, 9.999195 
1.4499454e+2, 2.2464263e+2, -793369.5, -760620.2, 36653.46, 0.0431785, -0.13246585, -736850.0, 1632.2184, 0.0, 9.999564, 10.0000105 
1.4499278e+2, 2.3464242e+2, -793478.75, -712679.0, -8086.2676, 0.10013125, -0.17943768, -711877.7, -71392.74, 0.0, 9.998895, 9.999995 
1.4499027e+2, 2.4464224e+2, -697469.06, -569797.06, -43579.805, 0.11241998, -0.21196947, -556339.9, -13853.733, 0.0, 9.998693, 10.000395 
1.4498684e+2, 2.546422e+2, -549876.4, -448587.78, -52391.64, 0.07139436, -0.27998102, -426364.22, 18120.764, 0.0, 9.999037, 10.000388 
1.449843e+2, 2.6464286e+2, -488852.3, -393011.13, 22806.496, 0.022461362, -0.23852807, -387860.8, -41382.11, 0.0, 9.998889, 10.000169 
1.4498289e+2, 2.7464405e+2, -502947.72, -355744.6, -3447.6099, -0.022778511, -0.1579472, -355663.88, -107194.2, 0.00000002138944, 9.998142, 10.000118 
1.4498135e+2, 2.8464395e+2, -485967.88, -370402.78, -61935.41, 0.017942913, -0.14123757, -343481.03, -193007.16, 0.0000023054517, 9.997898, 9.99946 
1.4497954e+2, 2.9464316e+2, -342833.25, -251362.06, -13677.619, 0.15739486, -0.19308808, -249360.64, -196874.1, 0.000016570593, 9.998208, 9.999452 
1.4497688e+2, 3.04646e+2, -257561.66, -187453.98, 60007.4, 0.16190723, 0.1500778, -153012.08, -153012.08, 0.0000664134, 9.998488, 9.999424 
1.4497219e+2, 3.1464046e+2, -153375.17, -3305.8933, 37371.375, -0.070602894, -0.364869, 5485.578, 5485.578, 0.0001967113, 9.998578, 10.000647 
1.5501976e+2, 1.2464136e+2, -1592552.5, -1651099.6, -80662.37, 0.29372635, -0.5553107, -1536016.0, 182469.34, 0.0014746141, 10.0007515, 10.000069 
1.5501349e+2, 1.3464469e+2, -1411228.8, -1379266.3, 24313.787, -0.10944273, -0.36211354, -1366151.8, 254296.67, 0.00086313457, 10.000783, 10.001248 
1.5501012e+2, 1.4464617e+2, -1475919.0, -1594638.5, 30305.18, -0.2617102, -0.23790881, -1468630.5, 53803.63, 0.00037152023, 10.000675, 9.999139 
1.550118e+2, 1.5464504e+2, -1428234.1, -1550339.8, 11868.976, 0.09268722, -0.2666352, -1427091.1, -2640.5728, 0.00009663115, 10.000463, 9.99887 
1.5501036e+2, 1.6464454e+2, -1316993.6, -1369824.4, -19789.004, 0.15238059, -0.23201321, -1310403.4, 16055.769, 0.000009881803, 10.000236, 9.999542 
1.5500543e+2, 1.746445e+2, -1253345.1, -1290557.5, -10644.962, -0.12231693, -0.21515714, -1250515.3, -22053.969, 0.00000020107916, 10.000004, 9.999527 
1.5500295e+2, 1.8464454e+2, -1149608.1, -1134431.1, -34050.45, -0.1385994, -0.1839614, -1107133.9, 23328.02, 0.0, 9.999794, 10.000034 
1.5500319e+2, 1.9464469e+2, -1092439.1, -1057775.3, -34248.645, 0.13238075, -0.19381541, -1036722.75, -4262.394, 0.0, 9.999529, 10.000013 
1.5500112e+2, 2.0464465e+2, -967945.3, -904664.2, -33088.2, 0.17629863, -0.21197999, -890523.2, 43935.56, 0.0, 9.999528, 10.000387 
1.549962e+2, 2.146443e+2, -844233.06, -793077.6, 15261.54, -0.048618622, -0.30994338, -788870.56, 47587.176, 0.0, 9.999705, 10.00039 
1.5499325e+2, 2.2464418e+2, -865711.56, -896781.1, 5073.6216, -0.059870724, -0.29658696, -864904.06, -126443.875, 0.0, 9.999499, 9.999109 
1.5499257e+2, 2.3464419e+2, -873507.8, -861861.4, -23826.354, 0.16923194, -0.22331974, -843156.94, -202688.98, 0.0, 9.998818, 9.999009 
1.5499003e+2, 2.4464455e+2, -703395.44, -572596.8, -39304.047, 0.2011722, -0.15364277, -561694.9, -19227.49, 0.0, 9.998646, 10.0004 
1.5498549e+2, 2.546452e+2, -557115.06, -451253.34, -29862.201, 0.013208648, -0.15678246, -443410.66, 1047.6418, 0.0, 9.998972, 10.000406 
1.5498279e+2, 2.646456e+2, -534152.75, -475217.56, -11270.124, -0.03598921, -0.11617359, -473135.9, -126680.48, 0.0, 9.998845, 9.999621 
1.5498216e+2, 2.7464545e+2, -558242.0, -451069.4, -22033.557, 0.07003927, -0.11090962, -446716.34, -198253.78, 0.000000019825112, 9.998056, 9.999505 
1.5498006e+2, 2.8464553e+2, -386327.56, -151064.86, -57308.555, 0.0794683, -0.12056325, -137847.42, 12616.606, 0.0000019865888, 9.9978485, 10.000988 
1.5497632e+2, 2.9464638e+2, -240426.0, -21099.11, 9971.9, -0.011454322, -0.16632332, -20646.662, 31807.15, 0.000014949104, 9.998127, 10.001074 
1.5497446e+2, 3.0464956e+2, -271339.8, -201047.05, 60659.44, 0.05174525, 0.13004833, -166087.53, -166087.53, 0.000059797247, 9.998437, 9.999345 
1.5497197e+2, 3.1464437e+2, -159395.8, 8397.822, 66021.01, 0.006439502, -0.337348, 31259.846, 31259.846, 0.0001777337, 9.998482, 10.000767 
1.650208e+2, 1.2464567e+2, -1448181.4, -1636514.9, 70441.49, 0.26879492, -0.5054772, -1424749.8, 293690.6, 0.0014821975, 10.001973, 9.9995775 
1.6501497e+2, 1.3464755e+2, -1356881.1, -1425257.6, 52168.46, -0.067202985, -0.3943145, -1328696.4, 291723.25, 0.0008719991, 10.001462, 10.000607 
1.6501144e+2, 1.4464884e+2, -1371231.1, -1540367.1, 61111.97, -0.22659788, -0.2582547, -1351461.1, 170946.58, 0.0003781117, 10.001404, 9.9991455 
1.6501231e+2, 1.5464795e+2, -1197262.9, -1438431.4, 70908.16, 0.023786746, -0.26577145, -1177959.6, 246460.6, 0.000098805474, 10.002057, 9.998862 
1.6501066e+2, 1.6464727e+2, -1082730.8, -1257554.3, 46986.313, 0.0847474, -0.24851412, -1070902.8, 255526.67, 0.000009884257, 10.001832, 9.999545 
1.6500625e+2, 1.7464662e+2, -1173210.5, -1247916.5, 40535.63, -0.061479036, -0.29466417, -1155442.0, 72994.56, 0.0000002904704, 10.000528, 9.999567 
1.6500364e+2, 1.8464655e+2, -1125260.5, -1140738.6, 67505.836, -0.05571426, -0.2702429, -1065051.6, 65386.848, 0.0, 10.000056, 9.999852 
1.6500306e+2, 1.9464701e+2, -960194.06, -1017076.75, 55534.605, 0.12380346, -0.2291305, -926241.5, 106193.37, 0.0, 10.000532, 9.999804 
1.6500074e+2, 2.0464708e+2, -845472.5, -817795.9, 24657.268, 0.15397792, -0.239372, -803359.06, 131073.36, 0.0, 10.000259, 10.000629 
1.649962e+2, 2.1464661e+2, -902775.2, -792719.2, -12866.584, 0.012054951, -0.37411794, -791234.94, 45196.742, 0.0, 9.99918, 10.0006485 
1.6499312e+2, 2.2464658e+2, -925664.7, -919754.3, 9969.956, 0.0019893665, -0.3667276, -912310.8, -173877.55, 0.0, 9.999077, 9.999148 
1.6499162e+2, 2.3464708e+2, -692416.0, -766850.06, 38761.58, 0.13777637, -0.24563083, -675896.94, -35459.78, 0.0, 10.000051, 9.999058 
1.649888e+2, 2.4464756e+2, -512601.84, -504876.97, 52548.16, 0.14791177, -0.15315557, -456049.5, 86387.086, 0.0, 10.000067, 10.000179 
1.6498454e+2, 2.54648e+2, -567128.56, -478011.13, 24074.19, 0.024219455, -0.1538954, -471923.56, -27492.682, 0.0, 9.999005, 10.000201 
1.649816e+2, 2.646483e+2, -600846.56, -495284.63, 68872.805, -0.008840387, -0.121682435, -461294.1, -114864.445, 0.0, 9.998328, 9.999735 
1.649802e+2, 2.746481e+2, -537610.3, -419636.1, 95027.31, 0.07231367, -0.13453917, -366776.56, -118340.6, 0.000000024295247, 9.998115, 9.9996805 
1.649777e+2, 2.8464833e+2, -363863.28, -112831.516, 80424.35, 0.06404757, -0.1512258, -89275.89, 61159.207, 0.0000019697127, 9.997894, 10.0012245 
1.6497415e+2, 2.9464945e+2, -282829.2, -6213.7134, 26175.914, -0.012770565, -0.19331755, -3758.4988, 48662.844, 0.000013995548, 9.997691, 10.001386 
1.6497284e+2, 3.0465215e+2, -357611.28, -205154.36, 64285.156, 0.09363007, 0.021648819, -181666.42, -181666.42, 0.00005518299, 9.997665, 9.999702 
1.6497064e+2, 3.146495e+2, -247696.92, 323.41333, 80962.17, 0.07324212, -0.22352885, 24412.52, 24412.52, 0.00016337763, 9.997716, 10.001088 
1.7501858e+2, 1.2465575e+2, -1562013.5, -1873282.5, 21367.2, -0.19732252, -0.08019878, -1560553.6, 157786.72, 0.001464911, 10.001984, 9.997942 
1.7501916e+2, 1.3465145e+2, -1496066.0, -1711725.9, 37048.215, 0.18515895, -0.38942072, -1489879.0, 130504.74, 0.0008580161, 10.001469, 9.998629 
1.7501675e+2, 1.446503e+2, -1332665.6, -1467867.4, 75513.836, 0.13838547, -0.41774422, -1298914.5, 223480.08, 0.00036898247, 10.001426, 9.99964 
1.7501254e+2, 1.5465061e+2, -1152410.5, -1348239.5, 105641.125, -0.18597145, -0.36431223, -1106285.8, 318103.38, 0.00009401229, 10.002066, 9.999479 
1.7500958e+2, 1.6465046e+2, -1079585.9, -1244292.6, -8047.623, -0.22815731, -0.3330619, -1079193.5, 247196.7, 0.000008393363, 10.001803, 9.999651 
1.7500822e+2, 1.7464954e+2, -1171532.8, -1238772.3, -841.35876, 0.060792748, -0.41221577, -1171522.1, 56878.3, 0.00000020811186, 10.000512, 9.999636 
1.7500588e+2, 1.846494e+2, -1135171.3, -1162544.0, 77162.96, 0.14130199, -0.39043468, -1070490.3, 59912.938, 0.0, 10.000049, 9.999711 
1.750023e+2, 1.9465001e+2, -974863.4, -1038146.1, 81654.88, -0.028314117, -0.32392204, -918933.7, 113464.85, 0.0, 10.00049, 9.9996805 
1.7499928e+2, 2.046501e+2, -898620.3, -917628.2, -23930.844, -0.03356402, -0.29224598, -882375.25, 52022.613, 0.0, 10.000208, 9.9999695 
1.7499696e+2, 2.1464956e+2, -963572.8, -901522.1, -45471.965, 0.15211359, -0.36715558, -877499.56, -41097.01, 0.0, 9.999106, 9.999937 
1.7499384e+2, 2.2464988e+2, -867410.56, -785536.3, 36401.633, 0.14900474, -0.3337299, -771692.7, -33291.836, 0.0, 9.999013, 10.000102 
1.7498972e+2, 2.3465106e+2, -628734.5, -623662.06, 83313.02, -0.07744484, -0.24776988, -542846.7, 97546.24, 0.0, 9.999994, 10.000071 
1.749863e+2, 2.4465133e+2, -553766.4, -578407.7, 7223.724, -0.1265869, -0.20540562, -551804.8, -9411.469, 0.0, 10.000018, 9.999695 
1.7498371e+2, 2.5465056e+2, -618703.7, -565255.25, -9638.949, 0.021417003, -0.27423066, -563570.1, -119166.55, 0.0, 9.998921, 9.999642 
1.7498058e+2, 2.6465082e+2, -545279.75, -374418.3, 52145.746, 0.039067, -0.25525633, -359761.13, -13359.088, 0.0, 9.998302, 10.000577 
1.7497678e+2, 2.7465194e+2, -484481.13, -295654.63, 95164.48, -0.10406011, -0.22842807, -256015.13, -7624.901, 0.000000035492793, 9.998053, 10.000564 
1.7497402e+2, 2.8465235e+2, -441361.97, -268678.3, 62864.71, -0.113616265, -0.22232492, -248217.13, -97830.1, 0.0000021240596, 9.997873, 10.000162 
1.7497262e+2, 2.9465225e+2, -369200.56, -167679.66, 27585.668, 0.044051737, -0.27531105, -163971.75, -111581.83, 0.000013429294, 9.997621, 10.000306 
1.7497185e+2, 3.0465364e+2, -299078.2, -83986.3, 59936.21, 0.21021733, -0.18018456, -68412.46, -68412.46, 0.000050917075, 9.997662, 10.000543 
1.7496753e+2, 3.1465587e+2, -225074.39, 72302.64, 124917.94, -0.0519503, -0.018280024, 117811.875, 117811.875, 0.00014886881, 9.997622, 10.001624 
1.8501994e+2, 1.2465965e+2, -1608259.5, -1919876.1, -122312.34, -0.23970589, -0.07226922, -1565985.6, 152317.25, 0.0014182838, 10.0017605, 9.997735 
1.8502125e+2, 1.3465509e+2, -1442538.8, -1736811.9, -19196.479, 0.2238334, -0.36134064, -1441291.8, 179057.95, 0.00082149997, 10.002052, 9.998173 
1.8501884e+2, 1.4465377e+2, -1331336.4, -1447743.3, 77973.516, 0.21640338, -0.39137664, -1292238.6, 230122.98, 0.00034638878, 10.001335, 9.999821 
1.850138e+2, 1.5465367e+2, -1478975.4, -1479443.0, 62641.742, -0.14345884, -0.40318245, -1416567.0, 7790.904, 0.000084445885, 9.999703, 9.99972 
1.8501025e+2, 1.6465345e+2, -1469674.4, -1453564.1, -50711.58, -0.20717092, -0.38097653, -1410271.9, -83913.08, 0.000006352812, 9.999231, 9.999448 
1.8500876e+2, 1.7465284e+2, -1249339.8, -1303615.5, -81105.87, 0.08842104, -0.40766388, -1190952.1, 37415.164, 0.000000056960435, 10.0000925, 9.9993925 
1.8500613e+2, 1.846527e+2, -1097137.1, -1115853.9, 16217.041, 0.15747437, -0.38594532, -1087771.9, 42597.85, 0.0, 10.000195, 9.999959 
1.8500198e+2, 1.9465303e+2, -1116312.0, -1074310.1, 35763.1, -0.049937304, -0.3730023, -1053837.8, -21471.857, 0.0, 9.999388, 9.999962 
1.8499877e+2, 2.0465316e+2, -1033284.94, -1002242.8, -19961.09, -0.061035257, -0.34671566, -992478.56, -58113.438, 0.0, 9.999365, 9.999795 
1.8499659e+2, 2.1465297e+2, -816391.06, -852390.75, -19052.521, 0.15512536, -0.36475086, -808180.3, 28187.955, 0.0, 10.000199, 9.99975 
1.8499334e+2, 2.2465348e+2, -717954.94, -670987.75, 69120.46, 0.1607152, -0.32082766, -621470.56, 116894.17, 0.0, 9.999848, 10.000491 
1.8498877e+2, 2.3465471e+2, -868023.3, -695286.1, 53905.875, -0.07480501, -0.27095884, -679844.2, -39490.11, 0.0, 9.998152, 10.000472 
1.849852e+2, 2.4465506e+2, -895060.44, -758711.2, -7006.569, -0.12166248, -0.23549858, -758352.1, -215998.25, 0.0, 9.997737, 9.9995575 
1.8498282e+2, 2.546544e+2, -652465.6, -598503.9, -10162.799, 0.05286282, -0.27582023, -596653.3, -152287.97, 0.0, 9.998762, 9.999491 
1.8497948e+2, 2.6465464e+2, -426883.5, -296303.63, 42097.04, 0.06660907, -0.26231384, -283908.7, 62455.9, 0.0, 9.9990225, 10.000769 
1.84975e+2, 2.7465558e+2, -416268.4, -241871.11, 16123.253, -0.10006378, -0.27035695, -240393.02, 7958.9536, 0.000000044067633, 9.99842, 10.000765 
1.8497206e+2, 2.8465608e+2, -406695.75, -308380.3, 15212.549, -0.11549971, -0.24238224, -306080.25, -155732.95, 0.000002141611, 9.998341, 9.999671 
1.8497102e+2, 2.9465628e+2, -223313.9, -158398.11, 6210.713, 0.06393969, -0.2100778, -157809.25, -105460.48, 0.000012353572, 9.998871, 9.999777 
1.8497019e+2, 3.0465612e+2, -169913.4, 31209.475, 26430.967, 0.25263575, -0.2655225, 34624.953, 34624.953, 0.0000445169, 9.9983225, 10.001006 
1.8496506e+2, 3.1465933e+2, -417421.56, -63583.32, 51791.746, 0.005718642, -0.05056357, -56158.31, -56158.31, 0.00012870552, 9.996447, 10.001273 
1.9502437e+2, 1.24657504e+2, -1518199.6, -1733908.8, -144872.28, -0.022483116, -0.46054542, -1445442.5, 272884.28, 0.0013429979, 10.001776, 9.999 
1.9502094e+2, 1.3465841e+2, -1373379.3, -1583486.4, -6703.812, -0.033279013, -0.31012562, -1373165.5, 247152.69, 0.0007683095, 10.002027, 9.999231 
1.9501752e+2, 1.4465919e+2, -1334412.5, -1455750.1, 7404.6665, -0.07623855, -0.18164441, -1333962.3, 188346.97, 0.00031677555, 10.001332, 9.999771 
1.9501576e+2, 1.546572e+2, -1484306.0, -1492626.9, 8796.916, 0.061186437, -0.3752569, -1478735.4, -54409.73, 0.000073711046, 9.999711, 9.999626 
1.9501244e+2, 1.6465639e+2, -1505965.9, -1530514.8, -26958.904, 0.06770581, -0.38139254, -1488618.6, -162284.72, 0.0000047225935, 9.999228, 9.998926 
1.9500768e+2, 1.7465664e+2, -1287164.9, -1381392.8, -38216.742, -0.05326154, -0.27048236, -1273613.8, -45277.926, 0.0000000036456946, 10.000084, 9.998866 
1.9500412e+2, 1.8465656e+2, -1058080.5, -1026706.8, -20786.164, -0.08219987, -0.24619374, -1016352.5, 113984.625, 0.0, 10.000155, 10.000593 
1.9500186e+2, 1.9465607e+2, -1075970.5, -982186.44, 14268.17, -0.020614356, -0.3816547, -980063.75, 52273.684, 0.0, 9.999347, 10.000617 
1.9499882e+2, 2.0465618e+2, -1021627.75, -959287.5, 3322.4731, -0.009347956, -0.40249982, -959110.94, -24776.658, 0.0, 9.999289, 10.000122 
1.9499485e+2, 2.1465689e+2, -805132.44, -809779.44, 20627.314, -0.058960374, -0.36777464, -786698.2, 49630.51, 0.0, 10.000118, 10.000078 
1.9499138e+2, 2.2465749e+2, -745038.9, -709277.75, -1039.8528, -0.036765113, -0.32081896, -709247.56, 29076.717, 0.0, 9.999775, 10.000263 
1.9498847e+2, 2.34658e+2, -896473.06, -734202.0, -3262.411, 0.063287236, -0.31803036, -734136.44, -93815.25, 0.0, 9.998068, 10.000242 
1.9498523e+2, 2.4465871e+2, -892111.25, -735908.25, 19970.367, 0.09222664, -0.24538581, -733395.5, -191077.14, 0.0, 9.997664, 9.999749 
1.9498153e+2, 2.5465953e+2, -649531.7, -572168.1, 36792.043, 0.031106222, -0.16012649, -557465.1, -113148.7, 0.0, 9.998676, 9.999709 
1.9497803e+2, 2.6465976e+2, -463761.44, -366994.0, 14009.997, 0.0018847471, -0.13400796, -365006.47, -18690.105, 0.0, 9.998994, 10.0003 
1.9497463e+2, 2.7465904e+2, -459014.03, -319056.6, 3428.7844, 0.00084214756, -0.25930497, -318972.63, -70651.84, 0.000000036761158, 9.9983635, 10.000266 
1.9497159e+2, 2.8465948e+2, -410564.4, -306209.66, 27311.422, -0.015593894, -0.21146204, -299493.97, -149177.89, 0.0000018181237, 9.998302, 9.9997015 
1.9496907e+2, 2.9466164e+2, -234456.1, -158391.36, 39117.055, -0.03999388, 0.011062486, -141865.45, -89568.625, 0.000010151812, 9.998782, 9.999815 
1.9496761e+2, 3.0465975e+2, -164863.45, 45916.48, -44636.227, 0.14193842, -0.22625083, 54979.29, 54979.29, 0.00003534469, 9.998303, 10.001114 
1.9496267e+2, 3.146603e+2, -502231.2, -215660.33, 23236.865, 0.079924025, -0.29285222, -213788.38, -213788.38, 0.0001028295, 9.996357, 10.000261 
2.0502712e+2, 1.2466087e+2, -1636047.0, -1684203.9, -11819.215, 0.14455712, -0.4506217, -1633302.6, 84994.72, 0.0012444656, 10.000523, 9.99994 
2.05021e+2, 1.346623e+2, -1543107.4, -1589328.0, 76358.13, -0.14702252, -0.32017693, -1486439.0, 133839.39, 0.00070293987, 10.000521, 9.999927 
2.050171e+2, 1.4466308e+2, -1477125.1, -1594617.4, 51836.57, -0.21241748, -0.19430974, -1457525.0, 64743.855, 0.00028321997, 10.000669, 9.999136 
2.0501682e+2, 1.5466094e+2, -1312007.9, -1484473.1, -14990.372, 0.12559305, -0.3358579, -1310714.6, 113577.055, 0.000063005726, 10.001219, 9.998953 
2.0501384e+2, 1.6466002e+2, -1211807.8, -1349094.6, -5852.5938, 0.19546112, -0.33421874, -1211558.8, 114743.56, 0.0000035155435, 10.001085, 9.999272 
2.050081e+2, 1.7466033e+2, -1251042.4, -1320673.8, 34533.836, -0.018057803, -0.25575665, -1236820.3, -8519.401, 0.0000000004928599, 10.0001545, 9.999247 
2.0500384e+2, 1.8466035e+2, -1169026.4, -1079446.1, 56607.242, -0.08189136, -0.23968074, -1052052.3, 78247.28, 0.0, 9.999391, 10.000599 
2.0500124e+2, 1.9466007e+2, -1157333.9, -1022569.6, 21837.268, 0.015337135, -0.35346517, -1019119.44, 13178.899, 0.0, 9.998791, 10.000607 
2.0499809e+2, 2.0466022e+2, -1118527.9, -998428.9, 36885.164, 0.028459659, -0.375473, -988005.25, -53710.246, 0.0, 9.998589, 10.0001955 
2.0499437e+2, 2.1466072e+2, -996677.94, -893616.8, 23774.777, -0.0472292, -0.36400422, -888396.7, -52106.227, 0.0, 9.998772, 10.0001545 
2.0499073e+2, 2.2466108e+2, -881125.7, -798889.44, -39119.863, -0.034129646, -0.33537987, -783253.1, -44964.86, 0.0, 9.998942, 10.000046 
2.0498723e+2, 2.346612e+2, -766379.44, -699980.0, -57495.47, 0.084751986, -0.3478008, -666787.3, -26497.83, 0.0, 9.999082, 9.99999 
2.0498392e+2, 2.4466196e+2, -642864.3, -595262.06, 32255.543, 0.11698653, -0.26730245, -578976.9, -36690.742, 0.0, 9.999286, 9.999931 
2.0498078e+2, 2.546633e+2, -498855.75, -482922.53, 33545.566, 0.042810176, -0.15140563, -456410.56, -12132.06, 0.0, 9.999629, 9.999868 
2.0497741e+2, 2.6466364e+2, -437808.28, -388164.44, -25970.668, 0.027877482, -0.103690386, -377061.38, -30784.047, 0.0, 9.99933, 9.999987 
2.0497373e+2, 2.746627e+2, -489867.78, -368895.7, -47764.367, 0.08183346, -0.22088419, -352310.38, -104024.6, 0.00000002096579, 9.998321, 9.999935 
2.0497021e+2, 2.8466275e+2, -460918.53, -311739.25, 48583.69, 0.044076912, -0.1981779, -297312.1, -147028.0, 0.0000012828043, 9.997879, 9.999867 
2.0496702e+2, 2.9466456e+2, -316141.4, -174884.53, 62874.273, -0.08422508, -0.03395791, -150953.2, -98687.65, 0.000007381431, 9.998124, 10.000016 
2.0496531e+2, 3.046626e+2, -174017.27, 53040.81, -54262.87, 0.092437774, -0.2936782, 65342.22, 65342.22, 0.000026183789, 9.998203, 10.001216 
2.049606e+2, 3.1466344e+2, -311770.84, -182262.92, -1664.1925, 0.16695608, -0.3407185, -182241.55, -182241.55, 0.00007851838, 9.997951, 9.999713 
2.1502754e+2, 1.2466973e+2, -1596330.9, -1597205.5, -49810.1, 0.09054391, -0.04841945, -1546956.3, 171258.95, 0.0011273269, 10.000506, 10.000546 
2.150212e+2, 1.3466685e+2, -1514027.6, -1535173.6, 83110.08, -0.20194605, -0.38618547, -1440820.8, 179408.66, 0.0006276391, 10.000551, 10.000284 
2.1501729e+2, 1.4466563e+2, -1566963.9, -1783148.3, 60112.34, -0.28833815, -0.41415647, -1551373.4, -29134.734, 0.0002466057, 10.000673, 9.997842 
2.150167e+2, 1.5466496e+2, -1400501.9, -1674171.1, 13888.234, -0.034563255, -0.2762283, -1399798.9, 24456.604, 0.000052325075, 10.001242, 9.9976425 
2.1501419e+2, 1.6466439e+2, -1131028.8, -1174573.6, -47629.883, 0.10098011, -0.23268053, -1100431.0, 225832.64, 0.000002586899, 10.001056, 10.000484 
2.1500978e+2, 1.746638e+2, -1164085.4, -1133356.4, 7693.2095, 0.116211735, -0.37183428, -1131537.9, 96724.75, 0.000000000052014764, 10.000129, 10.000542 
2.1500504e+2, 1.8466398e+2, -1222350.1, -1180730.3, 27058.29, 0.08042203, -0.3729619, -1167405.1, -37147.27, 0.0, 9.999346, 9.9999275 
2.1499988e+2, 1.9466497e+2, -1210718.1, -1127429.4, 7799.386, -0.02151727, -0.29019538, -1126705.3, -94455.75, 0.0, 9.998763, 9.999901 
2.1499638e+2, 2.0466517e+2, -1138536.1, -1026842.0, 33651.89, -0.017721023, -0.26216903, -1017486.75, -83238.945, 0.0, 9.998531, 10.000028 
2.1499486e+2, 2.1466446e+2, -1016928.56, -917662.0, 37523.457, 0.10513853, -0.35838124, -905074.1, -68820.086, 0.0, 9.9986925, 10.000026 
2.149911e+2, 2.2466421e+2, -909984.25, -837137.9, -41065.207, 0.09077791, -0.3734267, -818670.25, -80412.86, 0.0, 9.998851, 9.999826 
2.1498474e+2, 2.3466438e+2, -796625.44, -737100.2, -42081.31, -0.088732004, -0.3614529, -715320.06, -75061.47, 0.0, 9.998974, 9.999784 
2.1498099e+2, 2.4466486e+2, -641464.94, -582090.5, 37678.047, -0.12377468, -0.3016978, -563809.3, -21552.576, 0.0, 9.999244, 10.000043 
2.1498024e+2, 2.5466567e+2, -503164.8, -467997.63, 53709.707, 0.006808947, -0.24580514, -429066.47, 15184.706, 0.0, 9.999531, 10.000017 
2.1497738e+2, 2.6466632e+2, -460557.53, -425139.97, -69981.57, 0.074386664, -0.1693369, -370661.34, -24414.207, 0.0, 9.999283, 9.999755 
2.14972e+2, 2.746664e+2, -522165.97, -415360.16, -77051.53, 0.057042196, -0.15726341, -375014.4, -126766.42, 0.00000000626477, 9.99823, 9.99966 
2.1496768e+2, 2.8466582e+2, -435680.3, -248704.42, 47319.402, -0.017440122, -0.2052328, -237411.08, -87159.016, 0.00000075455597, 9.997837, 10.00032 
2.1496472e+2, 2.9466507e+2, -297355.5, -122081.97, 81168.82, -0.14781217, -0.34176356, -90267.57, -38013.223, 0.0000049684672, 9.998065, 10.000409 
2.1496311e+2, 3.046647e+2, -175395.31, 48309.65, -67342.91, 0.035745203, -0.46048644, 67017.67, 67017.67, 0.000019548965, 9.998205, 10.001187 
2.1495847e+2, 3.1466877e+2, -343840.8, -236154.06, 37877.367, 0.11659484, -0.18449733, -224165.81, -224165.81, 0.00006122242, 9.997888, 9.999382 
2.2502781e+2, 1.246751e+2, -1474382.9, -1569787.3, -16410.8, 0.030258503, -0.016787706, -1471638.9, 246521.52, 0.0009979393, 10.001466, 10.000277 
2.2502333e+2, 1.3467142e+2, -1392476.3, -1519528.9, 30063.068, -0.08662523, -0.3978865, -1385721.9, 234461.83, 0.0005469221, 10.001583, 9.999887 
2.2501968e+2, 1.4466952e+2, -1503446.8, -1741701.9, 40839.53, -0.13082299, -0.4775698, -1496640.9, 25558.988, 0.00020906674, 10.001065, 9.997944 
2.2501692e+2, 1.5466931e+2, -1575045.5, -1744487.6, 87069.22, -0.066001885, -0.30576518, -1538281.1, -114069.72, 0.000042237294, 9.999984, 9.997772 
2.2501364e+2, 1.6466893e+2, -1355312.8, -1295694.0, 46421.82, 0.01945829, -0.2440369, -1270334.6, 55882.836, 0.0000020119714, 9.99956, 10.000377 
2.250099e+2, 1.7466824e+2, -1225056.1, -1180438.1, -23647.176, 0.13737355, -0.38058206, -1170237.5, 57981.125, 0.0, 9.999776, 10.000394 
2.2500546e+2, 1.846682e+2, -1149187.4, -1185899.4, -25815.63, 0.15844156, -0.3803246, -1135867.0, -5650.223, 0.0, 10.000028, 9.999559 
2.2500017e+2, 1.9466883e+2, -1024681.1, -1080961.6, -34725.305, 0.061498508, -0.29469743, -1008125.5, 24086.766, 0.0, 10.000239, 9.999506 
2.2499627e+2, 2.0466879e+2, -922542.56, -944897.94, 17672.275, 0.04136337, -0.25972793, -912809.75, 21403.496, 0.0, 10.000104, 9.999838 
2.2499397e+2, 2.1466793e+2, -913461.94, -888151.5, 3926.3262, 0.113112, -0.35267875, -887556.44, -51335.234, 0.0, 9.999485, 9.99985 
2.2498992e+2, 2.2466768e+2, -846264.44, -800286.06, -38724.254, 0.071557544, -0.36261022, -778241.1, -40016.69, 0.0, 9.99926, 9.999884 
2.2498378e+2, 2.3466797e+2, -725276.94, -694513.5, -35989.035, -0.098886065, -0.34599382, -670756.9, -30533.121, 0.0, 9.99943, 9.999856 
2.249802e+2, 2.4466832e+2, -645158.7, -581014.1, 56806.06, -0.12030918, -0.3036781, -547851.75, -5630.166, 0.0, 9.999202, 10.000074 
2.2497955e+2, 2.546687e+2, -638457.6, -529844.94, 50244.43, 0.03885142, -0.29531893, -510166.94, -65948.9, 0.0, 9.998582, 10.000054 
2.2497639e+2, 2.6466903e+2, -622565.1, -515845.03, -68843.18, 0.10426442, -0.24544722, -482103.56, -135887.58, 0.0, 9.998223, 9.999641 
2.2497028e+2, 2.7466908e+2, -524648.0, -430375.1, -81438.69, 0.06530445, -0.22838756, -383415.3, -135197.33, 0.00000000006385136, 9.998263, 9.999543 
2.2496563e+2, 2.8466853e+2, -388057.38, -220313.98, 67327.734, -0.013561454, -0.2694017, -196633.44, -46411.082, 0.00000032397858, 9.998132, 10.000377 
2.2496283e+2, 2.9466787e+2, -348668.97, -148464.31, 49880.137, -0.12087175, -0.40449503, -136725.22, -84500.29, 0.000003287384, 9.997719, 10.000394 
2.2496101e+2, 3.0466846e+2, -293962.44, -20996.965, -96925.74, 0.052280013, -0.4173241, 9918.44, 9918.44, 0.00001589248, 9.997442, 10.001076 
2.2495638e+2, 3.146723e+2, -387321.25, -228681.48, 1720.1772, 0.1497478, -0.16371831, -228662.83, -228662.83, 0.000052100033, 9.9974575, 9.999643 
2.3502745e+2, 1.24677084e+2, -1546524.5, -1734032.5, -47442.945, -0.20108539, -0.34924936, -1535204.1, 182928.16, 0.0008671324, 10.00153, 9.99912 
2.3502709e+2, 1.3467596e+2, -1467528.8, -1693007.0, 32535.164, 0.107748576, -0.35105035, -1462928.0, 157213.84, 0.0004662031, 10.001643, 9.998676 
2.3502392e+2, 1.446746e+2, -1400004.1, -1516240.4, -8813.24, 0.1672785, -0.39298704, -1399339.8, 122814.42, 0.00017258529, 10.001026, 9.999507 
2.3501728e+2, 1.5467389e+2, -1457492.3, -1503303.4, 55980.445, -0.053548828, -0.43383926, -1419912.5, 4247.9106, 0.000033446406, 9.999997, 9.999419 
2.3501192e+2, 1.6467358e+2, -1464833.9, -1516005.6, 43407.094, -0.12986664, -0.37519756, -1440033.1, -113868.234, 0.0000017722703, 9.999531, 9.998882 
2.3500824e+2, 1.7467359e+2, -1331871.9, -1402495.4, -7918.451, -0.028014965, -0.28669286, -1330995.0, -102825.67, 0.0000000001389195, 9.999774, 9.998873 
2.3500489e+2, 1.8467297e+2, -1166241.0, -1205155.8, -25669.281, 0.07993288, -0.26027727, -1153488.1, -23311.844, 0.0, 9.999961, 9.999461 
2.350018e+2, 1.9467163e+2, -1033754.2, -1091291.9, -19371.928, 0.18104294, -0.3641613, -1027839.9, 4346.9097, 0.0, 10.000203, 9.999453 
2.3499736e+2, 2.0467103e+2, -946463.3, -976520.8, -12049.242, 0.12611672, -0.37540647, -942229.44, -8037.513, 0.0, 10.000028, 9.999657 
2.3499148e+2, 2.1467116e+2, -939992.8, -921744.5, -10880.28, -0.10494262, -0.3512471, -916669.0, -80477.05, 0.0, 9.999391, 9.999666 
2.3498699e+2, 2.2467153e+2, -843013.1, -766761.25, -40092.406, -0.16227284, -0.30342016, -749561.0, -11371.825, 0.0, 9.999152, 10.000165 
2.3498411e+2, 2.3467198e+2, -718123.9, -657195.9, -21408.594, -0.029111877, -0.29480806, -650425.7, -10240.957, 0.0, 9.999336, 10.000158 
2.3498124e+2, 2.4467227e+2, -652834.6, -585395.1, 25106.445, 0.04189456, -0.27510926, -577075.0, -34893.57, 0.0, 9.999152, 10.000068 
2.3497842e+2, 2.546723e+2, -654114.9, -538693.1, 34585.152, 0.04687168, -0.3014578, -529123.4, -84943.78, 0.0, 9.998481, 10.000041 
2.3497418e+2, 2.6467186e+2, -628287.94, -516546.2, -75745.8, 0.04296235, -0.32771385, -478294.9, -132111.56, 0.0, 9.998176, 9.9996605 
2.3496827e+2, 2.746707e+2, -533372.4, -431605.66, -69820.85, 0.01874089, -0.43251944, -396094.2, -147898.55, 0.0, 9.998187, 9.999574 
2.3496377e+2, 2.846709e+2, -416973.66, -271389.16, 44687.07, -0.033456896, -0.38729435, -258766.84, -108571.89, 0.00000009734078, 9.998093, 10.000045 
2.3496103e+2, 2.9467285e+2, -389700.28, -216694.66, 39986.32, -0.09687597, -0.22256768, -207899.83, -155721.81, 0.0000024854203, 9.997638, 9.999969 
2.3495872e+2, 3.046738e+2, -302209.84, -34688.348, -103381.47, 0.05966588, -0.16675691, 606.11865, 606.11865, 0.00001465121, 9.99742, 10.000996 
2.3495376e+2, 3.1467402e+2, -333752.2, -106862.65, 46707.45, 0.102005, -0.27623376, -97623.67, -97623.67, 0.000049295926, 9.997397, 10.000516 
2.4502952e+2, 1.2468164e+2, -1654105.6, -1866722.3, 34834.71, -0.11913268, -0.5061982, -1648543.9, 69537.0, 0.0007416808, 10.0011425, 9.998399 
2.4502851e+2, 1.3468163e+2, -1571878.0, -1813769.3, 130998.43, 0.11208741, -0.33172333, -1514530.5, 105556.06, 0.00038814702, 10.001235, 9.998048 
2.4502519e+2, 1.4468037e+2, -1374226.8, -1452426.4, 61826.906, 0.2013367, -0.35412523, -1340173.6, 181926.36, 0.00013769997, 10.000968, 9.999972 
2.4501848e+2, 1.5467972e+2, -1357514.4, -1401345.4, 22101.324, 0.04990227, -0.43887287, -1348305.0, 75796.516, 0.000025817635, 10.000456, 9.999895 
2.4501254e+2, 1.6467935e+2, -1387905.4, -1530117.8, 53888.8, -0.052704588, -0.38837266, -1369792.1, -43686.26, 0.0000016011192, 10.000288, 9.998419 
2.4500793e+2, 1.7467907e+2, -1278206.5, -1433287.4, 67436.805, -0.061758462, -0.2758414, -1252983.9, -24868.57, 0.0000000006420841, 10.000394, 9.9983635 
2.4500439e+2, 1.8467817e+2, -1128103.5, -1208802.4, 92414.49, 0.020325286, -0.24509759, -1067613.9, 62512.51, 0.0, 10.000317, 9.999261 
2.450019e+2, 1.9467641e+2, -1085368.4, -1138517.8, 72720.42, 0.18779358, -0.3709877, -1034519.06, -2379.1077, 0.0, 9.999946, 9.9992485 
2.4499735e+2, 2.0467548e+2, -1020070.25, -1049341.8, 69383.13, 0.14296201, -0.3886269, -963796.0, -29647.82, 0.0, 9.999688, 9.999317 
2.4499062e+2, 2.1467541e+2, -958244.0, -969209.75, 40883.01, -0.12563543, -0.34843156, -922477.9, -86327.17, 0.0, 9.999442, 9.999312 
2.4498628e+2, 2.2467563e+2, -807453.25, -759749.4, 30581.264, -0.15695636, -0.2911484, -744818.2, -6668.8174, 0.0, 9.999436, 10.000077 
2.4498467e+2, 2.3467608e+2, -676925.7, -644248.9, 9055.671, 0.08200004, -0.27893317, -641907.06, -1762.294, 0.0, 9.999653, 10.000093 
2.4498163e+2, 2.4467614e+2, -601466.25, -576945.5, 25858.512, 0.14844078, -0.26904038, -560588.06, -18445.066, 0.0, 9.999576, 9.999925 
2.4497704e+2, 2.5467578e+2, -560835.7, -510803.5, 6518.8384, 0.031433236, -0.32142782, -509968.1, -65823.27, 0.0, 9.999195, 9.99989 
2.4497227e+2, 2.6467508e+2, -493534.34, -455739.9, -71889.0, -0.00811649, -0.3637169, -400305.88, -54155.195, 0.0, 9.999113, 9.99963 
2.4496725e+2, 2.7467394e+2, -360358.75, -347023.4, -82813.44, 0.043056782, -0.46074528, -270609.66, -22447.68, 0.0, 9.999381, 9.999576 
2.4496292e+2, 2.846744e+2, -317772.1, -245432.05, 16867.959, 0.037988998, -0.38385016, -241692.19, -91532.5, 0.00000009803459, 9.998868, 9.999851 
2.4495944e+2, 2.9467654e+2, -429487.0, -256737.22, 2894.7505, -0.004096816, -0.17907186, -256688.72, -204546.38, 0.0000023443192, 9.9974575, 9.999781 
2.4495609e+2, 3.046773e+2, -393091.97, -101481.7, -71382.18, 0.08569735, -0.12302256, -84945.984, -84945.984, 0.000014050109, 9.99691, 10.000775 
2.4495097e+2, 3.1467637e+2, -304385.84, -31740.967, 51378.293, 0.0930488, -0.32790744, -22380.408, -22380.408, 0.000047419504, 9.997373, 10.001023 
2.5503337e+2, 1.2468873e+2, -1670233.9, -1903993.3, 14607.689, 0.106841445, -0.48671907, -1669324.6, 48681.758, 0.000622871, 10.0011635, 9.998132 
2.550274e+2, 1.3468827e+2, -1567079.8, -1804933.1, 138076.13, -0.14047316, -0.3581559, -1503774.3, 116245.03, 0.00031436078, 10.00125, 9.998096 
2.5502348e+2, 1.4468674e+2, -1421390.1, -1551334.0, 33480.516, -0.09360005, -0.37486568, -1413271.0, 108766.664, 0.00010539114, 10.000968, 9.999294 
2.550201e+2, 1.546868e+2, -1400720.1, -1497267.8, 11400.718, 0.145331, -0.3238346, -1399392.1, 24643.045, 0.000019009012, 10.000477, 9.999228 
2.5501516e+2, 1.6468622e+2, -1357294.5, -1454803.0, 50235.895, 0.16076356, -0.28664446, -1336044.4, -10003.801, 0.0000013062046, 10.000245, 9.998953 
2.5500867e+2, 1.746848e+2, -1239461.8, -1350238.3, 81337.234, -0.04743339, -0.34631786, -1196444.8, 31611.56, 0.000000000635992, 10.000387, 9.998932 
2.550037e+2, 1.8468377e+2, -1158116.5, -1260698.0, 72338.08, -0.102407426, -0.33782414, -1120730.6, 9336.13, 0.0, 10.00027, 9.998929 
2.5500017e+2, 1.946831e+2, -1113485.8, -1188384.5, 66461.56, -0.0017768044, -0.32296863, -1074648.9, -42576.453, 0.0, 9.999907, 9.998924 
2.54996e+2, 2.0468208e+2, -1074196.0, -1138421.4, 53145.617, 0.024305291, -0.30561882, -1044214.5, -110132.0, 0.0, 9.99959, 9.998753 
2.5499114e+2, 2.1468055e+2, -1007170.2, -1055945.8, 40058.16, -0.03582388, -0.3551078, -984659.94, -148561.36, 0.0, 9.999377, 9.998749 
2.5498748e+2, 2.2467993e+2, -846497.5, -823468.1, 30270.023, 0.003496272, -0.33340243, -802596.7, -64490.832, 0.0, 9.999361, 9.999677 
2.5498512e+2, 2.3468019e+2, -716769.44, -708206.7, 26108.805, 0.14642283, -0.3016809, -686030.56, -45926.285, 0.0, 9.999568, 9.999697 
2.5498113e+2, 2.4467997e+2, -632799.8, -629312.3, 4423.398, 0.123317905, -0.28543854, -626301.4, -84194.96, 0.0, 9.999522, 9.999589 
2.549752e+2, 2.5467905e+2, -597569.75, -566672.8, -1615.6581, -0.0934068, -0.3571861, -566588.56, -122474.305, 0.0, 9.999104, 9.999552 
2.549704e+2, 2.6467866e+2, -503900.78, -465009.56, -69969.17, -0.12589274, -0.3510726, -411834.13, -65715.85, 0.0, 9.9990635, 9.99959 
2.549669e+2, 2.7467877e+2, -372218.94, -356343.72, -63108.766, 0.0502702, -0.3202239, -300675.34, -52557.027, 0.0, 9.999309, 9.999551 
2.5496277e+2, 2.8467897e+2, -330289.8, -254566.33, -43499.895, 0.11812244, -0.2660743, -234758.73, -84641.14, 0.00000013920514, 9.998806, 9.999813 
2.5495777e+2, 2.94679e+2, -447432.78, -263873.4, -45100.523, 0.060835686, -0.2731985, -253390.83, -201272.67, 0.0000022917138, 9.997336, 9.9997835 
2.5495282e+2, 3.046788e+2, -423828.1, -160101.47, -62377.9, 0.050132204, -0.29295033, -146091.77, -146091.77, 0.000012885881, 9.996887, 10.000386 
2.5494745e+2, 3.1467897e+2, -315923.16, -43151.605, 107430.22, -0.042554073, -0.33676034, -5921.9106, -5921.9106, 0.000044516015, 9.997315, 10.000979 
2.6503682e+2, 1.24694936e+2, -1399784.8, -1747647.3, -96693.21, 0.25939175, -0.40596366, -1374714.3, 343235.53, 0.0005136847, 10.002893, 9.998364 
2.6502848e+2, 1.3469452e+2, -1489588.1, -1712301.9, 28622.5, -0.16276485, -0.33133897, -1485968.5, 133991.55, 0.0002486243, 10.001517, 9.998609 
2.6502386e+2, 1.446929e+2, -1430734.3, -1599340.3, 10772.049, -0.15292905, -0.36477816, -1430048.9, 91930.22, 0.00007773356, 10.001104, 9.998896 
2.650209e+2, 1.5469278e+2, -1172516.1, -1432474.9, -9982.799, 0.092623174, -0.28871995, -1172133.3, 251847.1, 0.000013419433, 10.002248, 9.9988165 
2.6501626e+2, 1.6469206e+2, -1064407.6, -1298695.4, 5265.154, 0.15620492, -0.2518122, -1064289.4, 261697.61, 0.0000010267595, 10.002181, 9.999099 
2.6500997e+2, 1.7469054e+2, -1193832.6, -1308438.0, -11381.983, 0.035992555, -0.3358017, -1192713.1, 35287.547, 0.0000000012219834, 10.000613, 9.999109 
2.650047e+2, 1.8468942e+2, -1156289.3, -1278893.8, 26077.73, -0.025658393, -0.3397505, -1150973.1, -20961.65, 0.0, 10.000364, 9.998761 
2.6500058e+2, 1.9468862e+2, -897138.9, -1106992.3, 15678.815, -0.025803043, -0.31737545, -895973.94, 136045.77, 0.0, 10.001488, 9.998727 
2.6499626e+2, 2.0468758e+2, -743463.5, -956837.0, 20470.805, -0.014781738, -0.301509, -741517.3, 192512.28, 0.0, 10.00177, 9.998947 
2.6499176e+2, 2.1468616e+2, -760727.6, -917110.2, 46934.598, 0.01078283, -0.35987806, -747722.75, 88319.72, 0.0, 10.000985, 9.998927 
2.6498783e+2, 2.2468531e+2, -735150.44, -813031.7, 91653.516, 0.05599356, -0.35010463, -674508.25, 63542.96, 0.0, 10.000307, 9.999294 
2.6498452e+2, 2.3468512e+2, -725610.0, -761253.44, 67648.25, 0.12714699, -0.3232141, -673475.3, -33419.83, 0.0, 9.999713, 9.999267 
2.649801e+2, 2.4468471e+2, -677675.7, -656253.3, 66302.05, 0.08752355, -0.29935983, -599802.8, -57742.887, 0.0, 9.9992485, 9.999533 
2.6497436e+2, 2.5468394e+2, -617122.8, -575998.06, 70314.375, -0.07485344, -0.3535585, -523301.16, -79235.28, 0.0, 9.998984, 9.9995365 
2.6496968e+2, 2.6468354e+2, -557836.7, -521979.5, 35484.086, -0.08962619, -0.33364242, -500151.9, -154081.83, 0.0, 9.998821, 9.99932 
2.6496622e+2, 2.7468362e+2, -467693.16, -428733.84, 5884.405, 0.08086596, -0.2768573, -427864.47, -179793.2, 0.0, 9.998776, 9.999307 
2.6496184e+2, 2.846834e+2, -347354.9, -295050.9, -4432.3765, 0.1503354, -0.23720835, -294677.94, -144603.39, 0.00000017298198, 9.998818, 9.99953 
2.6495627e+2, 2.9468247e+2, -228902.53, -182019.2, -40630.563, 0.10419166, -0.31392664, -158552.94, -106469.29, 0.000002277503, 9.998922, 9.999588 
2.6495e+2, 3.0468214e+2, -260285.75, -97776.54, -37355.19, 0.030016687, -0.3333741, -89601.164, -89601.164, 0.000011802607, 9.998065, 10.000263 
2.6494446e+2, 3.1468314e+2, -516965.34, -134993.1, 136933.39, 0.006218233, -0.27413714, -90976.125, -90976.125, 0.000041814666, 9.995893, 10.001049 
2.7503952e+2, 1.247001e+2, -1344793.9, -1640774.0, -175468.64, 0.18465042, -0.28794762, -1263240.3, 454672.6, 0.00042107303, 10.002916, 9.999089 
2.750312e+2, 1.3470045e+2, -1410499.8, -1558440.6, -24759.176, -0.062710136, -0.23797406, -1406466.0, 213441.92, 0.00019522583, 10.001558, 9.999644 
2.7502596e+2, 1.446989e+2, -1440220.0, -1620161.8, 36138.227, -0.0789277, -0.31050888, -1433233.5, 88689.7, 0.000056360343, 10.001114, 9.998746 
2.7502063e+2, 1.5469764e+2, -1185917.6, -1458316.6, 42596.52, -0.18358257, -0.3284448, -1179411.9, 244525.25, 0.000009372096, 10.002247, 9.998638 
2.750157e+2, 1.6469683e+2, -1078995.5, -1326183.5, -58999.145, -0.1375401, -0.2852042, -1065635.6, 260309.83, 0.0000008660051, 10.002169, 9.998913 
2.7501145e+2, 1.7469627e+2, -1208781.5, -1340113.9, -63136.934, 0.09709071, -0.25420326, -1183352.6, 44596.64, 0.000000004874734, 10.000617, 9.998887 
2.750072e+2, 1.8469502e+2, -1169285.5, -1291877.8, 57399.53, 0.16674642, -0.2545802, -1146605.9, -16644.922, 0.0, 10.000307, 9.998697 
2.7500284e+2, 1.9469298e+2, -903843.4, -1112290.5, 67191.04, 0.029080704, -0.3544202, -884062.1, 147919.39, 0.0, 10.001455, 9.998703 
2.749978e+2, 2.0469207e+2, -690775.8, -830302.44, -14907.098, -0.05072331, -0.36730602, -689200.9, 244787.55, 0.0, 10.001696, 9.999855 
2.7499214e+2, 2.1469219e+2, -707500.9, -783926.06, 25950.033, -0.07064058, -0.36712444, -699522.5, 136459.94, 0.0, 10.000887, 9.999888 
2.74987e+2, 2.2469176e+2, -784331.44, -887219.5, 61712.99, -0.071824595, -0.34355485, -755432.56, -17446.85, 0.0, 10.00019, 9.998842 
2.7498254e+2, 2.346907e+2, -775317.1, -839322.7, 51357.94, -0.059861686, -0.35136798, -746807.0, -106807.195, 0.0, 9.999606, 9.998783 
2.749783e+2, 2.4469021e+2, -668714.9, -622105.6, 47570.563, -0.034908615, -0.3226471, -592437.94, -50433.24, 0.0, 9.999184, 9.999797 
2.7497426e+2, 2.5469026e+2, -609643.4, -544183.3, 68286.47, -0.0042232284, -0.3263954, -501188.2, -57187.3, 0.0, 9.998908, 9.999795 
2.749698e+2, 2.646896e+2, -602881.5, -602075.2, 23268.281, 0.024199285, -0.315561, -579206.56, -233199.94, 0.0, 9.998766, 9.998796 
2.7496484e+2, 2.746883e+2, -519812.78, -519512.97, 12319.221, 0.047460854, -0.34581977, -507342.75, -259319.83, 0.00000000009324417, 9.998699, 9.998723 
2.7495992e+2, 2.8468743e+2, -386250.34, -365169.47, -9139.981, 0.054479625, -0.3149018, -361758.56, -211725.08, 0.00000023612336, 9.998776, 9.999065 
2.749546e+2, 2.9468688e+2, -264574.03, -243185.5, -26621.791, 0.01745722, -0.30961007, -225190.27, -173150.11, 0.0000024951785, 9.998864, 9.999194 
2.749472e+2, 3.0468744e+2, -246592.64, -59156.82, -124003.42, -0.07480721, -0.23710033, 2559.8054, 2559.8054, 0.000011675634, 9.9980345, 10.000534 
2.7494133e+2, 3.1468904e+2, -527469.6, -121473.87, 74428.6, 0.06123793, -0.13975504, -108259.45, -108259.45, 0.000040361934, 9.995748, 10.001205 
2.850414e+2, 1.24705754e+2, -1595250.8, -1764570.9, -102130.89, 0.17276657, -0.19129696, -1547253.1, 170612.52, 0.00034660724, 10.001221, 9.999051 
2.850332e+2, 1.3470607e+2, -1339238.6, -1498812.9, -60002.445, -0.03278703, -0.16373613, -1319194.5, 300664.84, 0.00015383559, 10.001958, 9.999849 
2.85028e+2, 1.4470488e+2, -1354409.0, -1557347.1, 12223.819, -0.0028295293, -0.21990234, -1353675.4, 168194.36, 0.00004093297, 10.001611, 9.99894 
2.8502175e+2, 1.5470351e+2, -1464995.8, -1572438.4, 28042.611, -0.18581119, -0.26856697, -1458117.0, -34232.598, 0.0000066741927, 10.00023, 9.998834 
2.8501648e+2, 1.6470268e+2, -1344475.0, -1430619.0, -22853.738, -0.17628814, -0.24512027, -1338787.5, -12895.859, 0.00000074756446, 10.000253, 9.999122 
2.8501248e+2, 1.7470223e+2, -1010428.5, -1225716.0, -14904.081, 0.08221502, -0.22088899, -1009401.6, 218491.16, 0.000000006090155, 10.001892, 9.999068 
2.8500846e+2, 1.8470095e+2, -939060.56, -1180540.8, 127188.47, 0.18789998, -0.23174675, -884429.44, 245474.55, 0.0, 10.001891, 9.998696 
2.8500426e+2, 1.9469878e+2, -1122521.5, -1221123.9, 120226.91, 0.106942505, -0.34179538, -1041880.0, -9953.577, 0.0, 9.9999695, 9.998673 
2.8499886e+2, 2.04698e+2, -1041238.06, -975865.8, 32115.947, 0.015071539, -0.3515493, -962728.2, -28795.85, 0.0, 9.99919, 10.000054 
2.8499213e+2, 2.1469861e+2, -883885.56, -846934.1, -647.89954, -0.087144114, -0.32320383, -846922.75, -11001.456, 0.0, 9.999588, 10.000076 
2.8498667e+2, 2.2469816e+2, -810328.8, -934037.25, 40132.777, -0.11948017, -0.2962634, -798449.8, -60525.38, 0.0, 10.000163, 9.998531 
2.849826e+2, 2.3469648e+2, -608886.44, -795364.5, 27972.268, -0.07106759, -0.33412647, -604780.9, 35163.188, 0.0, 10.000906, 9.998458 
2.8497833e+2, 2.4469545e+2, -467014.38, -586737.9, -6685.3394, -0.026840242, -0.31675252, -466642.22, 75312.625, 0.0, 10.000823, 9.999251 
2.849738e+2, 2.5469518e+2, -514050.9, -559381.8, -67718.13, 0.019042121, -0.29635438, -465305.8, -21350.111, 0.0, 9.999832, 9.999243 
2.84969e+2, 2.6469445e+2, -515255.6, -541299.2, -82479.125, 0.044420768, -0.27404013, -444776.66, -98814.41, 0.0, 9.999301, 9.998946 
2.8496397e+2, 2.746931e+2, -428999.97, -453961.1, -54154.605, 0.06780607, -0.32456356, -385906.38, -137929.83, 0.0000000018932573, 9.999231, 9.998911 
2.8495878e+2, 2.8469205e+2, -373368.5, -367644.47, -16719.672, 0.059671395, -0.32512772, -353543.63, -203555.22, 0.00000028816427, 9.998897, 9.998999 
2.8495297e+2, 2.946913e+2, -339164.97, -281626.88, -20139.854, 0.0005016866, -0.33003467, -275277.94, -223280.69, 0.0000027347362, 9.998369, 9.999169 
2.8494465e+2, 3.0469212e+2, -262786.47, -87118.23, -151429.25, -0.1231907, -0.2239083, 106.634544, 106.634544, 0.000012525966, 9.997993, 10.00036 
2.8493884e+2, 3.1469357e+2, -324539.4, -27039.51, -31808.088, 0.18416424, -0.119809695, -23676.666, -23676.666, 0.000040482082, 9.997152, 10.001169 
2.9504168e+2, 1.2471208e+2, -1642367.1, -1882733.1, -86916.984, 0.023396721, -0.10349359, -1614231.1, 103575.73, 0.00028487924, 10.001301, 9.998204 
2.950341e+2, 1.347114e+2, -1383981.0, -1600851.8, -30555.324, -0.16320886, -0.10850222, -1379758.3, 240055.67, 0.000121053716, 10.002002, 9.9991255 
2.9502982e+2, 1.4471075e+2, -1310438.1, -1477256.4, -52814.34, -0.013831315, -0.09991888, -1295123.1, 226696.52, 0.000029834508, 10.001646, 9.999478 
2.9502395e+2, 1.5471031e+2, -1425090.6, -1492183.6, -18956.053, -0.016733605, -0.11187354, -1420105.3, 3717.1355, 0.000004731658, 10.000238, 9.99938 
2.9501826e+2, 1.6470964e+2, -1308152.6, -1349164.5, 28382.97, -0.04515612, -0.12651713, -1293643.0, 32182.365, 0.00000054097734, 10.000231, 9.999688 
2.9501286e+2, 1.7470855e+2, -968163.2, -1134906.3, 58619.855, -0.09436151, -0.22861214, -949617.6, 278212.34, 0.0000000012704189, 10.001889, 9.999687 
2.9500827e+2, 1.8470736e+2, -942763.8, -1181620.8, 50639.992, -0.04193381, -0.26606894, -932471.2, 197368.2, 0.0, 10.001856, 9.99871 
2.9500458e+2, 1.9470595e+2, -1129767.6, -1228212.9, 56580.61, 0.117878765, -0.29524288, -1103995.4, -72140.11, 0.0, 9.999933, 9.998642 
2.949991e+2, 2.0470528e+2, -1092221.5, -1061622.1, 38115.316, 0.09951641, -0.26545718, -1035850.44, -101988.21, 0.0, 9.9991045, 9.999506 
2.9499146e+2, 2.1470533e+2, -937336.75, -932795.8, 24082.684, -0.13209449, -0.23546743, -910876.8, -75016.86, 0.0, 9.999484, 9.999534 
2.9498652e+2, 2.2470447e+2, -837943.1, -963719.1, 59305.242, -0.16798928, -0.21533605, -814390.4, -76522.6, 0.0, 10.000046, 9.9983835 
2.9498458e+2, 2.3470248e+2, -633221.94, -821203.4, 65326.164, 0.01784743, -0.27075014, -612749.75, 27138.049, 0.0, 10.000803, 9.998328 
2.949801e+2, 2.4470057e+2, -569505.8, -786990.9, -50225.7, 0.047656737, -0.27093005, -558467.06, -16558.418, 0.0, 10.000765, 9.9979105 
2.949727e+2, 2.546987e+2, -620708.8, -766132.0, -97936.78, -0.09677239, -0.26654777, -571442.56, -127511.85, 0.0, 9.9997635, 9.997864 
2.949669e+2, 2.6469788e+2, -459693.78, -418501.22, -93822.49, -0.11089918, -0.22465798, -343040.9, 2897.8267, 0.0, 9.999264, 9.999809 
2.949631e+2, 2.7469805e+2, -372992.7, -322044.78, -51820.664, 0.037641566, -0.21697547, -289775.3, -41842.52, 0.0000000016821552, 9.999161, 9.999852 
2.9495803e+2, 2.8469726e+2, -353834.66, -315642.22, -47305.246, 0.07822826, -0.25632134, -283724.2, -133785.5, 0.00000022409213, 9.998851, 9.999379 
2.9495114e+2, 2.946956e+2, -325418.34, -240492.75, -24534.777, -0.04711195, -0.38360065, -233914.3, -181958.98, 0.0000026534976, 9.99831, 9.999484 
2.9494205e+2, 3.0469605e+2, -311034.94, -177900.03, -183139.53, -0.20311874, -0.30196717, -49605.18, -49605.18, 0.00001292508, 9.997952, 9.999755 
2.949364e+2, 3.1469628e+2, -344546.44, -62598.773, -57573.04, 0.17038447, -0.26119176, -51295.633, -51295.633, 0.00004085486, 9.997117, 10.000941 
3.050433e+2, 1.2471782e+2, -1525345.5, -1828584.3, -28571.0, 0.02504961, -0.09753891, -1522677.0, 195074.44, 0.00023189351, 10.002118, 9.998195 
3.0503586e+2, 1.3471684e+2, -1471325.9, -1647784.5, 22871.418, -0.15350184, -0.12427948, -1468409.6, 151352.05, 0.000094942065, 10.001402, 9.99911 
3.0503163e+2, 1.4471656e+2, -1411502.1, -1509293.4, 11473.445, 0.044321682, -0.085693635, -1410174.0, 111589.15, 0.000021738364, 10.000913, 9.999596 
3.050255e+2, 1.5471588e+2, -1298561.8, -1422041.1, -13987.5625, 0.07807587, -0.12916274, -1296997.1, 126769.58, 0.0000030875526, 10.0010805, 9.999449 
3.0501962e+2, 1.6471502e+2, -1212096.6, -1305131.6, 53446.74, 0.043031733, -0.16586824, -1187759.1, 138012.22, 0.0000002653173, 10.000896, 9.999665 
3.050141e+2, 1.7471384e+2, -1209863.6, -1252013.1, 20742.791, -0.068396114, -0.27497002, -1201368.0, 26410.436, 0.0, 10.000236, 9.999676 
3.0500895e+2, 1.847131e+2, -1184335.8, -1260910.8, -33702.0, -0.06193559, -0.28406256, -1171615.9, -41831.86, 0.0, 10.00004, 9.999043 
3.0500418e+2, 1.9471268e+2, -1052765.8, -1157062.1, -18735.17, 0.07311207, -0.24691606, -1049502.4, -17712.926, 0.0, 10.000304, 9.99896 
3.049987e+2, 2.0471196e+2, -929724.56, -1060615.4, 30434.373, 0.08052955, -0.20299223, -922994.1, 10803.735, 0.0, 10.00055, 9.998821 
3.049923e+2, 2.1471089e+2, -805188.2, -953769.5, -13055.817, -0.056674004, -0.212829, -804049.75, 31760.223, 0.0, 10.000742, 9.998793 
3.0498743e+2, 2.2470973e+2, -778686.06, -897345.4, 31682.076, -0.08547741, -0.20116834, -770756.8, -32935.645, 0.0, 10.000286, 9.998725 
3.049844e+2, 2.3470838e+2, -857900.8, -886645.25, 58716.473, 0.0115105305, -0.23058905, -811823.1, -171990.75, 0.0, 9.999081, 9.998706 
3.049795e+2, 2.4470666e+2, -865413.06, -911436.44, 36125.688, 0.021655936, -0.23783174, -845592.44, -303742.53, 0.0, 9.998668, 9.998061 
3.0497238e+2, 2.5470448e+2, -685503.06, -775536.56, 92723.85, -0.0706167, -0.28033265, -627446.0, -183571.08, 0.0, 9.99924, 9.998043 
3.0496636e+2, 2.647036e+2, -470410.3, -423396.94, 135696.1, -0.083399594, -0.25657558, -309186.56, 36696.7, 0.0, 9.999183, 9.999819 
3.0496168e+2, 2.7470395e+2, -472507.3, -372342.6, 91335.234, 0.016798304, -0.23251286, -318259.84, -70384.65, 0.00000000014964384, 9.99848, 9.99984 
3.0495623e+2, 2.8470334e+2, -452194.1, -337907.75, 74375.49, 0.058439493, -0.26015303, -301258.3, -151379.73, 0.00000013461268, 9.998078, 9.999589 
3.049496e+2, 2.9470214e+2, -368613.25, -239985.77, 71568.03, -0.0048750523, -0.3647334, -208079.77, -156189.19, 0.0000024184974, 9.997942, 9.999654 
3.0494013e+2, 3.0470207e+2, -293981.25, -203671.33, -58575.12, -0.19616334, -0.32332453, -174866.73, -174866.73, 0.00001259153, 9.998219, 9.999456 
3.0493394e+2, 3.1470147e+2, -122512.45, 50745.68, 37980.145, 0.14674248, -0.3398607, 58705.656, 58705.656, 0.000039631555, 9.998615, 10.001012 
3.1504574e+2, 1.2472309e+2, -1451334.1, -1690702.6, -61880.234, 0.012080067, -0.150244, -1436283.5, 281415.03, 0.00018871382, 10.0021925, 9.999101 
3.1503797e+2, 1.3472266e+2, -1422527.8, -1538402.8, -2861.2986, -0.10244561, -0.1947522, -1422457.1, 197242.88, 0.00007509751, 10.00139, 9.999857 
3.1503308e+2, 1.4472255e+2, -1436867.1, -1571821.9, 5003.885, 0.073938325, -0.15744759, -1436681.8, 85016.266, 0.00001598166, 10.000941, 9.999156 
3.150261e+2, 1.5472025e+2, -1326357.4, -1488638.4, 2369.8154, 0.0061552147, -0.31978384, -1326322.8, 97394.26, 0.00000170519, 10.001117, 9.998973 
3.150204e+2, 1.6471879e+2, -1256314.8, -1399165.6, 17152.688, 0.010961678, -0.35978192, -1254284.1, 71446.02, 0.000000057148895, 10.000899, 9.999023 
3.1501603e+2, 1.747181e+2, -1256727.1, -1347095.1, 725.7269, 0.07801151, -0.3561564, -1256721.3, -28983.07, 0.0, 10.000225, 9.999029 
3.150102e+2, 1.8471818e+2, -1142725.9, -1169328.1, -33686.277, 0.040135626, -0.27858388, -1119809.8, 9927.799, 0.0, 10.000011, 9.999687 
3.150028e+2, 1.9471899e+2, -1008109.1, -1053363.1, -327.18008, -0.11828884, -0.19071674, -1008106.75, 23621.773, 0.0, 10.000257, 9.999694 
3.149974e+2, 2.0471814e+2, -1005459.44, -1193273.9, 28756.414, -0.11949203, -0.15620565, -1001155.1, -67416.695, 0.0, 10.000451, 9.997957 
3.149943e+2, 2.1471535e+2, -885809.0, -1095516.8, 2950.9045, 0.053401083, -0.2465738, -885767.5, -49996.984, 0.0, 10.000637, 9.997868 
3.1498918e+2, 2.2471404e+2, -729339.75, -775955.75, -20395.371, 0.04070239, -0.24556363, -721676.25, 16107.602, 0.0, 10.000203, 9.9996 
3.149818e+2, 2.3471421e+2, -805802.4, -758385.3, 21122.688, -0.17811309, -0.21297653, -750340.7, -110562.836, 0.0, 9.998993, 9.999632 
3.149762e+2, 2.4471371e+2, -752763.56, -667492.6, 46534.19, -0.19439426, -0.22651383, -647015.4, -105236.195, 0.0, 9.998623, 9.999755 
3.1497264e+2, 2.5471258e+2, -578187.7, -530705.5, 119400.46, 0.0111345, -0.3400654, -432708.75, 11079.331, 0.0, 9.999144, 9.999771 
3.149671e+2, 2.647117e+2, -533838.3, -544944.25, 103734.4, 0.053130683, -0.3642353, -435508.34, -89713.336, 0.0, 9.999138, 9.999009 
3.1495938e+2, 2.7471077e+2, -543996.75, -504922.75, 74544.164, -0.08282852, -0.37521172, -447397.9, -199594.45, 0.00000000001473293, 9.998409, 9.998966 
3.1495303e+2, 2.8471032e+2, -459813.06, -340650.75, 60864.973, -0.08691365, -0.34535474, -315058.78, -165250.77, 0.000000108201135, 9.998025, 9.999594 
3.1494805e+2, 2.9471081e+2, -381672.75, -251084.03, 76949.61, 0.01984643, -0.28407604, -215459.64, -163655.67, 0.0000023186144, 9.997867, 9.999617 
3.149386e+2, 3.047102e+2, -295336.1, -199701.17, -45443.125, -0.1892794, -0.29436272, -181552.08, -181552.08, 0.000012381474, 9.998188, 9.999499 
3.1493092e+2, 3.1470898e+2, -93061.984, 120991.55, 56752.62, -0.06435085, -0.38412365, 135107.63, 135107.63, 0.000038035574, 9.998567, 10.001522 
3.2504812e+2, 1.2472925e+2, -1425525.1, -1654809.4, 60386.59, 0.03519576, -0.24359399, -1410593.5, 307039.75, 0.00015750076, 10.002253, 9.999317 
3.250403e+2, 1.3472904e+2, -1305780.1, -1501162.4, 1906.2828, -0.037823915, -0.2562882, -1305761.5, 313871.3, 0.00006189271, 10.002239, 9.999715 
3.2503504e+2, 1.4472917e+2, -1304436.4, -1545104.0, 19973.42, 0.12898932, -0.1706362, -1302790.0, 218839.36, 0.000012633238, 10.001996, 9.998839 
3.250275e+2, 1.5472636e+2, -1228881.6, -1474296.0, 12708.396, 0.000415636, -0.35450587, -1228225.3, 195429.92, 0.0000008198343, 10.001915, 9.9986925 
3.2502142e+2, 1.6472475e+2, -1195836.5, -1404995.6, 36274.78, -0.004669346, -0.3803487, -1189723.9, 135947.95, 0.000000004124255, 10.001479, 9.998697 
3.2501668e+2, 1.7472439e+2, -1223563.9, -1373620.0, 24522.654, 0.10333847, -0.30823243, -1219658.0, 8021.58, 0.0, 10.00063, 9.998654 
3.2501057e+2, 1.8472444e+2, -1102207.3, -1129480.0, 31785.404, 0.072513364, -0.22105208, -1081256.6, 48423.15, 0.0, 10.000209, 9.999856 
3.2500306e+2, 1.9472495e+2, -1003444.94, -1027777.5, 5848.134, -0.108950995, -0.18417925, -1002112.4, 29559.78, 0.0, 10.000201, 9.999886 
3.249976e+2, 2.0472415e+2, -1058970.8, -1188958.4, 59855.68, -0.114210986, -0.16961436, -1035607.9, -101927.3, 0.0, 9.999944, 9.998236 
3.2499447e+2, 2.1472183e+2, -1059660.6, -1146440.1, 110132.836, 0.08131638, -0.24020763, -984678.44, -148971.0, 0.0, 9.999302, 9.998165 
3.2498908e+2, 2.2472072e+2, -898646.4, -822965.0, 113624.66, 0.08147995, -0.248551, -741045.6, -3327.0107, 0.0, 9.99889, 9.999912 
3.249811e+2, 2.3472081e+2, -814383.06, -727792.5, 93535.24, -0.13237461, -0.25730005, -668018.3, -28304.824, 0.0, 9.998779, 9.999946 
3.249752e+2, 2.4472089e+2, -728116.9, -606457.25, 94366.48, -0.15118265, -0.2525726, -555013.75, -13304.646, 0.0, 9.998571, 10.000205 
3.2497168e+2, 2.54721e+2, -662881.4, -521967.5, 59043.688, 0.049341492, -0.28659046, -500498.75, -56793.414, 0.0, 9.998334, 10.000227 
3.2496607e+2, 2.6472035e+2, -653689.94, -622875.44, 21227.863, 0.07765098, -0.3028469, -612052.8, -266342.16, 0.0, 9.998415, 9.998817 
3.2495806e+2, 2.7471852e+2, -490401.78, -501815.94, 26802.008, -0.07328351, -0.38120985, -468705.97, -220976.34, 0.00000000010851988, 9.998891, 9.998748 
3.249514e+2, 2.8471795e+2, -336088.63, -256862.64, 50298.395, -0.08189326, -0.36086184, -232451.28, -82716.06, 0.00000014604628, 9.998758, 9.999825 
3.249462e+2, 2.9471916e+2, -370893.7, -219527.25, 65105.902, 0.05654918, -0.25288197, -195376.97, -143655.1, 0.0000023415487, 9.9978285, 9.99985 
3.2493678e+2, 3.0471805e+2, -354965.7, -195387.73, 17904.17, -0.15671389, -0.33935833, -193403.61, -193403.61, 0.000012312151, 9.997657, 9.999773 
3.2492933e+2, 3.1471732e+2, -144344.34, 115962.914, 77439.25, -0.04759102, -0.4124315, 137258.3, 137258.3, 0.000036624067, 9.998164, 10.001662 
3.350498e+2, 1.24736354e+2, -1461130.4, -1731468.4, 46166.414, -0.07209293, -0.3686217, -1453463.9, 264091.72, 0.00013853858, 10.0022745, 9.998776 
3.3504272e+2, 1.3473602e+2, -1377317.0, -1642219.8, -169.93265, -0.043968383, -0.29796588, -1377316.9, 242243.08, 0.000055370125, 10.002235, 9.9987335 
3.3503723e+2, 1.4473645e+2, -1314635.1, -1566848.0, 1932.3057, 0.12353403, -0.12212198, -1314620.4, 206936.89, 0.000011804474, 10.001995, 9.998692 
3.3502936e+2, 1.5473436e+2, -1232111.6, -1481041.9, 17769.922, -0.029667582, -0.22369327, -1230849.5, 192729.97, 0.00000057438905, 10.001918, 9.998644 
3.350222e+2, 1.6473305e+2, -1202306.3, -1415259.6, -2127.4402, -0.09223028, -0.21655153, -1202285.0, 123310.06, 0.00000000201948, 10.001464, 9.998637 
3.3501574e+2, 1.7473269e+2, -1227511.9, -1382051.9, 2345.484, -0.07626232, -0.13588479, -1227476.3, 126.056725, 0.0, 10.00063, 9.998598 
3.350098e+2, 1.8473187e+2, -1137404.9, -1187883.0, 21099.578, -0.044439938, -0.11553813, -1129747.1, -136.51872, 0.0, 10.000146, 9.999488 
3.350047e+2, 1.9473042e+2, -1037953.8, -1087395.1, 12867.48, 0.013516816, -0.23568194, -1034805.44, -3184.0803, 0.0, 10.000151, 9.999501 
3.3499897e+2, 2.047299e+2, -966234.25, -978926.2, 26799.898, 0.015364932, -0.24432848, -945039.25, -11414.446, 0.0, 9.99987, 9.999714 
3.349926e+2, 2.1473031e+2, -966692.0, -927738.56, 93834.234, -0.055796083, -0.19982268, -851381.0, -15759.635, 0.0, 9.999193, 9.999718 
3.3498687e+2, 2.2472976e+2, -932831.94, -871079.3, 99503.71, -0.042227507, -0.2158978, -797771.5, -60145.59, 0.0, 9.998792, 9.999628 
3.3498198e+2, 2.3472819e+2, -851937.0, -780463.8, 94997.84, 0.06546362, -0.3595098, -714703.1, -75063.77, 0.0, 9.9986725, 9.999635 
3.349762e+2, 2.4472816e+2, -787407.1, -721361.2, 78220.66, 0.073070906, -0.31218532, -669478.4, -127838.805, 0.0, 9.998532, 9.999437 
3.3496934e+2, 2.5472978e+2, -728725.6, -641267.75, 56815.598, -0.038954612, -0.118291974, -613301.25, -169675.17, 0.0, 9.99826, 9.999442 
3.349631e+2, 2.6472953e+2, -633284.7, -572695.9, 30114.346, -0.07919452, -0.069324024, -560274.6, -214644.84, 0.0, 9.998381, 9.999178 
3.3495742e+2, 2.7472708e+2, -473243.2, -446738.72, 52971.89, -0.045974076, -0.25229108, -405386.53, -157732.11, 0.000000000044508567, 9.998807, 9.999166 
3.349511e+2, 2.8472623e+2, -301943.1, -181789.22, 9192.605, -0.010320558, -0.31095058, -181089.98, -31429.766, 0.00000018851506, 9.998731, 10.000357 
3.349437e+2, 2.9472727e+2, -343136.88, -153236.52, 38864.242, -0.0022931283, -0.27361506, -145590.56, -93946.81, 0.0000023038672, 9.997779, 10.000338 
3.349342e+2, 3.047255e+2, -334525.38, -142130.92, 30166.354, -0.19492662, -0.46669248, -137511.9, -137511.9, 0.000011796056, 9.997614, 10.000157 
3.3492863e+2, 3.147263e+2, -187789.08, 53263.938, 103773.484, 0.022984153, -0.4279413, 91783.26, 91783.26, 0.000034748333, 9.998041, 10.001296 
3.4505212e+2, 1.2474414e+2, -1394202.5, -1706719.6, 20004.89, -0.08301185, -0.34076995, -1392927.1, 324550.25, 0.00012841672, 10.002783, 9.998698 
3.4504536e+2, 1.3474247e+2, -1373986.6, -1695879.1, -46000.867, -0.0077990186, -0.35916695, -1367541.9, 251953.55, 0.00005393956, 10.002482, 9.998261 
3.4503937e+2, 1.447426e+2, -1339821.4, -1551623.5, 5102.465, 0.15731117, -0.19876309, -1339698.5, 181797.98, 0.00001321429, 10.001716, 9.998923 
3.4503105e+2, 1.5474202e+2, -1397654.9, -1539266.8, 19540.137, 0.01852034, -0.17345446, -1395008.1, 28497.81, 0.00000089811203, 10.000689, 9.9988365 
3.4502345e+2, 1.6474131e+2, -1352599.8, -1453929.4, 49703.43, -0.049622275, -0.12944914, -1332290.3, -6774.554, 0.0000000015154811, 10.000277, 9.998947 
3.450163e+2, 1.7474058e+2, -1219810.4, -1338700.1, 66459.47, -0.07339254, -0.117421746, -1190089.4, 37435.12, 0.0, 10.000519, 9.998946 
3.4500998e+2, 1.8473943e+2, -1116063.4, -1209489.8, 122052.07, -0.052852057, -0.1374593, -1032090.56, 97445.53, 0.0, 10.000428, 9.999205 
3.450049e+2, 1.9473754e+2, -1093600.4, -1150888.4, 107524.234, 0.034019515, -0.26978382, -1010970.2, 20582.674, 0.0, 9.999918, 9.999185 
3.4499907e+2, 2.0473723e+2, -1010802.3, -946483.3, 85101.88, 0.07091564, -0.26447493, -887667.2, 45887.26, 0.0, 9.999325, 10.0002 
3.4499243e+2, 2.147385e+2, -1021726.25, -900952.6, 55358.887, 0.04579865, -0.17964584, -879417.7, -43876.992, 0.0, 9.998572, 10.000205 
3.449864e+2, 2.2473831e+2, -971737.1, -913209.1, 81306.19, 0.045002654, -0.17662013, -856060.9, -118518.945, 0.0, 9.998629, 9.999417 
3.4498116e+2, 2.3473647e+2, -735872.44, -752404.1, 67607.234, 0.07860087, -0.32226643, -676027.6, -36467.64, 0.0, 9.999586, 9.999391 
3.4497505e+2, 2.4473622e+2, -625448.6, -649224.94, 56127.684, 0.056088626, -0.28160447, -579963.9, -38400.438, 0.0, 9.999681, 9.999375 
3.4496793e+2, 2.5473756e+2, -649074.06, -614109.6, 71561.36, -0.031836186, -0.10476868, -557926.0, -114373.195, 0.0, 9.998855, 9.999347 
3.4496155e+2, 2.6473755e+2, -623837.56, -544422.06, 106476.66, -0.06523185, -0.03844648, -470490.13, -124935.15, 0.0, 9.998343, 9.999391 
3.4495604e+2, 2.7473593e+2, -545648.6, -457991.34, 101087.54, -0.027228558, -0.16101009, -391639.94, -144067.28, 0.0, 9.998204, 9.999383 
3.449499e+2, 2.847353e+2, -387275.4, -229478.31, 21539.28, 0.028502095, -0.20423214, -226591.05, -77014.31, 0.00000016974016, 9.998197, 10.000279 
3.449426e+2, 2.947357e+2, -258345.19, -122368.445, -15418.188, 0.083534844, -0.21530955, -120642.12, -69076.0, 0.0000020169734, 9.998414, 10.000243 
3.4493303e+2, 3.04734e+2, -185050.64, -64025.566, -13022.029, -0.113427505, -0.4037248, -62640.28, -62640.28, 0.0000103175025, 9.998591, 10.000231 
3.4492698e+2, 3.147353e+2, -170660.05, -4097.5537, -2529.9307, 0.044362582, -0.32633576, -4059.135, -4059.135, 0.00003196276, 9.99842, 10.000717 
3.5505447e+2, 1.2475267e+2, -1362070.5, -1657658.9, 2475.188, -0.18331131, -0.15399905, -1362049.8, 355348.3, 0.00012227354, 10.002848, 9.999009 
3.550478e+2, 1.3474847e+2, -1357835.0, -1669398.5, -51408.426, -0.034307968, -0.43396002, -1349571.8, 269866.25, 0.00005490219, 10.002521, 9.998422 
3.550411e+2, 1.4474785e+2, -1301913.8, -1482539.9, -43226.195, 0.1246973, -0.3841289, -1292102.1, 229343.08, 0.000015641235, 10.001751, 9.999386 
3.550324e+2, 1.5474933e+2, -1362243.6, -1476776.8, -11044.171, 0.0584395, -0.19336446, -1361188.4, 62246.047, 0.0000017221555, 10.000733, 9.999246 
3.5502487e+2, 1.6474944e+2, -1301598.8, -1346647.3, 46753.504, 0.038794212, -0.12258411, -1272226.6, 53207.71, 0.000000007086625, 10.000266, 9.999687 
3.5501796e+2, 1.7474808e+2, -1166438.4, -1228323.9, 84291.484, 0.02209661, -0.2532379, -1107589.6, 119856.52, 0.0, 10.000518, 9.999705 
3.5501072e+2, 1.8474707e+2, -1138088.5, -1242346.6, 97577.27, -0.042684488, -0.2872882, -1079588.6, 49867.668, 0.0, 10.000373, 9.999006 
3.5500333e+2, 1.9474636e+2, -1114939.9, -1185539.9, 97369.195, -0.13340423, -0.28042573, -1046669.3, -15203.483, 0.0, 9.999876, 9.998967 
3.5499766e+2, 2.0474619e+2, -1061383.1, -1033319.9, 49208.824, -0.02048363, -0.22165908, -996181.25, -62712.67, 0.0, 9.999245, 9.999644 
3.5499376e+2, 2.1474653e+2, -1073507.9, -987219.9, 35905.426, 0.3063514, -0.17547742, -974233.6, -138768.9, 0.0, 9.99848, 9.999657 
3.5498744e+2, 2.2474645e+2, -996387.44, -946689.9, 109743.695, 0.26897684, -0.1259927, -859016.94, -121550.78, 0.0, 9.998551, 9.999226 
3.5497844e+2, 2.3474576e+2, -761425.56, -787741.06, 111394.11, -0.17132908, -0.137227, -662414.8, -22940.43, 0.0, 9.999508, 9.999186 
3.549716e+2, 2.4474509e+2, -594591.25, -570363.75, 17626.273, -0.27765092, -0.15537411, -561089.94, -19609.217, 0.0, 9.99962, 9.999944 
3.549671e+2, 2.5474432e+2, -620439.4, -532527.0, 46048.785, -0.01671209, -0.25118372, -512822.88, -69336.79, 0.0, 9.998766, 9.999946 
3.5496116e+2, 2.6474434e+2, -626717.44, -539779.2, 94959.07, 0.044844165, -0.21311395, -478812.75, -133326.33, 0.0, 9.998298, 9.999443 
3.5495368e+2, 2.7474514e+2, -556088.75, -461175.78, 105288.33, -0.10599503, -0.100140736, -393143.06, -145660.16, 0.0, 9.998128, 9.999396 
3.549475e+2, 2.847452e+2, -447783.9, -347706.84, 21214.729, -0.046162, -0.035965513, -343395.38, -193911.36, 0.00000011654808, 9.998166, 9.99948 
3.5494262e+2, 2.947444e+2, -322924.97, -240664.08, 3960.864, 0.22124393, -0.08707114, -240473.8, -188983.86, 0.0000016052002, 9.998349, 9.99946 
3.5493308e+2, 3.0474347e+2, -192853.64, -79639.625, -22260.389, 0.010204495, -0.15424438, -75420.01, -75420.01, 0.000008325357, 9.998583, 10.000132 
3.5492358e+2, 3.1474498e+2, -241238.53, -127723.375, 3550.2383, -0.18401638, -0.046530556, -127612.45, -127612.45, 0.000028550077, 9.998324, 9.999914 
3.6505762e+2, 1.2476028e+2, -1423538.9, -1649383.3, 92910.43, -0.11309649, -0.16594692, -1390229.1, 327097.78, 0.000118926524, 10.002264, 9.999348 
3.6505008e+2, 1.3475735e+2, -1481192.4, -1699909.3, 4058.3127, 0.00034956308, -0.34304765, -1481117.1, 138237.17, 0.000056465244, 10.001553, 9.998671 
3.6504206e+2, 1.4475659e+2, -1371044.3, -1477388.1, 32482.744, 0.085730396, -0.33847326, -1361907.4, 159454.56, 0.00001794202, 10.001115, 9.999728 
3.6503324e+2, 1.5475748e+2, -1303055.0, -1405734.6, 39235.504, 0.06087457, -0.24051468, -1289779.0, 133575.64, 0.000002788093, 10.0009575, 9.999626 
3.6502576e+2, 1.647576e+2, -1230867.0, -1297479.3, 113242.13, 0.08581114, -0.19583623, -1146134.6, 179219.1, 0.00000008230677, 10.000696, 9.999817 
3.6501908e+2, 1.7475682e+2, -1190580.1, -1224610.0, 82408.35, 0.09664258, -0.2791187, -1123448.5, 103911.42, 0.0, 10.000289, 9.999841 
3.6501154e+2, 1.847563e+2, -1183213.3, -1280480.4, 83055.19, 0.020603612, -0.26482373, -1135600.3, -6233.8516, 0.0, 10.000137, 9.998858 
3.6500338e+2, 1.947559e+2, -1079333.8, -1183926.0, 73936.336, -0.12514724, -0.2100103, -1041067.94, -9693.068, 0.0, 10.000193, 9.998825 
3.649975e+2, 2.0475546e+2, -900008.8, -991750.44, 57372.8, -0.019598436, -0.15373567, -872423.7, 60957.195, 0.0, 10.000517, 9.999314 
3.64994e+2, 2.1475491e+2, -715759.3, -851915.1, 42357.344, 0.35408667, -0.16300255, -703657.75, 131727.84, 0.0, 10.001107, 9.999318 
3.6498752e+2, 2.2475456e+2, -697495.7, -797590.5, 135377.64, 0.32427317, -0.12505691, -603210.7, 134178.67, 0.0, 10.000576, 9.999277 
3.6497784e+2, 2.347543e+2, -864209.0, -829629.6, 142778.61, -0.14036876, -0.09876942, -703097.7, -63704.54, 0.0, 9.998766, 9.999256 
3.649707e+2, 2.4475361e+2, -821339.75, -675073.6, 63690.63, -0.24469592, -0.12525561, -651227.6, -109828.484, 0.0, 9.998025, 10.000006 
3.649663e+2, 2.5475237e+2, -666877.2, -546497.94, 36627.336, 0.05073375, -0.27267253, -536229.4, -92820.99, 0.0, 9.998401, 10.000032 
3.6496025e+2, 2.6475236e+2, -570925.06, -492239.94, 88389.73, 0.117101505, -0.25553724, -434832.4, -89423.914, 0.0, 9.998595, 9.999624 
3.649525e+2, 2.7475345e+2, -471268.06, -398816.16, 93278.516, -0.054075025, -0.127964, -334976.13, -87575.47, 0.0, 9.998623, 9.999582 
3.6494625e+2, 2.8475353e+2, -382515.9, -356991.9, 61088.656, -0.01417471, -0.050398685, -307346.44, -157944.47, 0.000000055764154, 9.998771, 9.999131 
3.649415e+2, 2.9475266e+2, -250747.08, -242571.16, 60772.89, 0.24732563, -0.080003016, -185748.89, -134336.69, 0.0000011855267, 9.999, 9.999133 
3.64932e+2, 3.0475256e+2, -167912.81, -74571.14, 44303.324, 0.04273753, -0.043679044, -56891.754, -56891.754, 0.0000067298934, 9.998808, 10.0000515 
3.6492184e+2, 3.1475335e+2, -307304.06, -182334.63, 36528.316, -0.1626712, 0.00849034, -172440.77, -172440.77, 0.000025648078, 9.997979, 9.999714 
3.7506086e+2, 1.2476726e+2, -1388057.1, -1591434.0, 38151.543, -0.06718227, -0.33729944, -1381135.9, 336125.2, 0.0001191897, 10.00232, 9.999718 
3.7505192e+2, 1.3476919e+2, -1447090.8, -1642623.9, -16192.538, 0.000137458, -0.075169794, -1445758.9, 173485.02, 0.00005856906, 10.001602, 9.999039 
3.75042e+2, 1.4476874e+2, -1354789.6, -1437527.9, 15503.724, -0.05777233, -0.06982912, -1351980.0, 169267.7, 0.000020069963, 10.001093, 10.00001 
3.7503317e+2, 1.5476644e+2, -1277154.4, -1359027.6, 43488.645, -0.06442788, -0.32118556, -1258366.0, 164901.25, 0.0000038584762, 10.000989, 9.999932 
3.7502584e+2, 1.6476572e+2, -1269981.3, -1375135.9, 89976.03, 0.003585946, -0.34924212, -1218347.0, 106926.85, 0.00000020238203, 10.000681, 9.9992895 
3.7501928e+2, 1.7476682e+2, -1230139.5, -1310036.9, 77004.4, 0.06851731, -0.18846577, -1183338.1, 43927.293, 0.0, 10.000297, 9.999253 
3.750122e+2, 1.8476702e+2, -1194225.9, -1290912.1, 77260.28, 0.05188069, -0.0689586, -1151430.5, -22163.79, 0.0, 10.000088, 9.998807 
3.750048e+2, 1.9476607e+2, -1091758.0, -1193813.6, 85223.88, -0.02316048, -0.06627023, -1043453.3, -12173.072, 0.0, 10.000131, 9.998783 
3.7499836e+2, 2.0476496e+2, -921528.2, -1022894.8, 71041.94, -0.0019222705, -0.067977086, -884943.25, 48348.99, 0.0, 10.000454, 9.999134 
3.7499276e+2, 2.1476361e+2, -740348.6, -883074.6, 71946.11, 0.1052118, -0.13900222, -710375.94, 124927.484, 0.0, 10.001021, 9.999145 
3.7498638e+2, 2.2476265e+2, -687079.9, -756621.44, 59498.1, 0.13845761, -0.16791949, -652937.44, 84373.945, 0.0, 10.000487, 9.999602 
3.7497914e+2, 2.34762e+2, -850065.6, -782579.3, 81482.25, 0.092593774, -0.21820602, -728129.75, -88812.82, 0.0, 9.998683, 9.99962 
3.7497213e+2, 2.4476177e+2, -864402.4, -743727.56, 70317.19, 0.08110914, -0.19711177, -711409.06, -170090.2, 0.0, 9.997942, 9.999574 
3.749653e+2, 2.5476184e+2, -713357.06, -623498.4, 60297.44, 0.09094542, -0.16399209, -593231.8, -149913.05, 0.0, 9.998316, 9.999545 
3.7495863e+2, 2.6476157e+2, -557151.75, -454544.34, 82275.93, 0.07716055, -0.1615031, -408887.22, -63566.336, 0.0, 9.998558, 9.9999 
3.7495226e+2, 2.7476072e+2, -459231.53, -357773.2, 103428.69, 0.03934665, -0.25898594, -293302.78, -45975.797, 0.0, 9.998551, 9.9999 
3.7494573e+2, 2.8476036e+2, -377402.63, -334747.88, 62580.977, 0.036476362, -0.25295076, -289959.9, -140629.1, 0.00000003400916, 9.998721, 9.99931 
3.7493888e+2, 2.9476056e+2, -250434.52, -226146.14, 79440.32, 0.05955363, -0.1885707, -157927.11, -106595.12, 0.000000899484, 9.998927, 9.999285 
3.7492946e+2, 3.0476123e+2, -184640.45, -96573.96, 10164.2, -0.10933113, -0.07382237, -95416.086, -95416.086, 0.000005766145, 9.998757, 9.999926 
3.7492123e+2, 3.1476015e+2, -297632.53, -137178.83, 35833.434, -0.06336042, -0.19317262, -129539.98, -129539.98, 0.000023919054, 9.997874, 10.000073 
3.85063e+2, 1.24777384e+2, -1583843.1, -1659874.3, 119342.914, -0.0026330038, -0.3014756, -1496607.3, 220556.48, 0.00012316402, 10.000878, 9.999939 
3.8505322e+2, 1.3477972e+2, -1544308.4, -1652258.1, 35634.703, 0.019802447, -0.030462595, -1533606.3, 85535.62, 0.000061385945, 10.00077, 9.999383 
3.8504243e+2, 1.4477906e+2, -1404412.9, -1486706.0, 82972.84, -0.10796815, -0.055101115, -1352944.4, 168203.83, 0.000022093489, 10.000861, 9.999783 
3.850345e+2, 1.5477681e+2, -1299865.1, -1396110.6, 41775.074, -0.021541078, -0.27541497, -1284262.3, 138906.3, 0.000004863891, 10.0009575, 9.999687 
3.8502726e+2, 1.6477609e+2, -1200331.8, -1356177.1, 99957.375, 0.05696607, -0.28654516, -1151512.9, 173662.6, 0.00000029520132, 10.001202, 9.99918 
3.850198e+2, 1.747771e+2, -1053060.3, -1233406.3, 107884.72, 0.03166538, -0.12685257, -1002626.44, 224540.81, 0.0, 10.001541, 9.999182 
3.8501245e+2, 1.8477699e+2, -1005613.1, -1208380.0, 133004.64, 0.009716702, -0.03188432, -939757.7, 189413.0, 0.0, 10.001408, 9.998743 
3.850057e+2, 1.9477537e+2, -1012350.9, -1166864.9, 120910.34, 0.03136693, -0.08905877, -946122.8, 85066.82, 0.0, 10.000705, 9.9987 
3.849992e+2, 2.0477405e+2, -955193.6, -1047785.56, 147912.67, 0.050386544, -0.10465779, -846500.94, 86702.75, 0.0, 10.000258, 9.999058 
3.8499275e+2, 2.1477294e+2, -885427.56, -964959.1, 142487.7, 0.05238216, -0.14302433, -777260.7, 57952.78, 0.0, 10.000063, 9.999052 
3.849861e+2, 2.2477213e+2, -762444.06, -806391.3, 97636.31, 0.087969564, -0.1455401, -684339.3, 52881.65, 0.0, 10.000039, 9.999469 
3.8497928e+2, 2.3477156e+2, -634357.44, -692741.6, 61847.797, 0.16576418, -0.17261352, -595158.5, 44068.145, 0.0, 10.000241, 9.999479 
3.8497213e+2, 2.4477135e+2, -562625.6, -621198.7, 79826.734, 0.1847768, -0.13470879, -506882.72, 34346.316, 0.0, 10.000116, 9.999358 
3.849646e+2, 2.5477132e+2, -541017.56, -567285.4, 74735.195, 0.12976603, -0.09063553, -478271.0, -35041.703, 0.0, 9.999615, 9.999301 
3.8495758e+2, 2.6477072e+2, -455250.3, -419027.13, 108725.88, 0.08090235, -0.100545995, -326914.66, 18319.453, 0.0, 9.999301, 9.999794 
3.8495126e+2, 2.747694e+2, -375580.22, -326345.9, 81833.94, 0.058176182, -0.2379564, -265506.66, -18262.04, 0.0, 9.99916, 9.999825 
3.849445e+2, 2.847689e+2, -336198.1, -268507.9, 48758.168, 0.043720756, -0.25921658, -242999.39, -93750.85, 0.000000026095549, 9.99881, 9.9997225 
3.8493708e+2, 2.947694e+2, -331580.8, -218827.89, 71351.766, 0.032249995, -0.20609094, -184268.22, -133023.19, 0.00000066980994, 9.998181, 9.999692 
3.8492772e+2, 3.047703e+2, -251084.88, -149989.13, 38325.332, -0.13127556, -0.0835754, -137102.63, -137102.63, 0.000005131084, 9.998381, 9.999737 
3.8492033e+2, 3.1476888e+2, -69460.92, -667.10095, 37605.45, -0.0018692142, -0.22232303, 15899.872, 15899.872, 0.000023468077, 9.999323, 10.000309 
3.9506367e+2, 1.24790646e+2, -1591196.6, -1666854.8, 74619.16, -0.075871624, -0.065427795, -1545365.4, 171670.02, 0.0001272644, 10.000867, 9.999892 
3.9505377e+2, 1.3478898e+2, -1524600.9, -1609387.3, 41066.83, -0.024237037, -0.22001967, -1507971.4, 111077.125, 0.00006380605, 10.000778, 9.999668 
3.9504302e+2, 1.4478754e+2, -1464457.8, -1613643.6, 79827.61, -0.15886694, -0.29247764, -1429796.1, 91267.54, 0.000023677207, 10.000855, 9.998921 
3.9503685e+2, 1.5478857e+2, -1353119.8, -1521976.4, 54828.438, 0.088609815, -0.09891871, -1336878.8, 86180.16, 0.000005569423, 10.001012, 9.998802 
3.9502966e+2, 1.6478856e+2, -1177416.8, -1297127.1, 99919.664, 0.15533282, -0.01539337, -1120796.3, 204264.02, 0.00000035120044, 10.001164, 9.999599 
3.9502034e+2, 1.7478755e+2, -1026480.4, -1167456.3, 128792.45, -0.088678114, -0.100445054, -950148.56, 276917.6, 0.0, 10.001503, 9.999651 
3.9501223e+2, 1.8478608e+2, -1020757.2, -1225994.6, 99787.74, -0.17256418, -0.16046372, -980238.94, 148840.3, 0.0, 10.001345, 9.998656 
3.9500585e+2, 1.947839e+2, -1027935.44, -1182108.0, 101844.52, -0.044175502, -0.26486167, -977293.1, 53809.008, 0.0, 10.000635, 9.998627 
3.949997e+2, 2.0478278e+2, -965333.1, -1045607.25, 130562.836, 0.06219335, -0.25691614, -868877.2, 64237.39, 0.0, 10.000161, 9.99912 
3.9499363e+2, 2.1478286e+2, -899862.94, -960444.44, 144302.77, 0.116786234, -0.18283896, -782706.0, 52409.76, 0.0, 9.999924, 9.999145 
3.9498645e+2, 2.2478297e+2, -822828.1, -910182.6, 97599.266, 0.101747744, -0.06697515, -759578.7, -22460.639, 0.0, 9.999944, 9.998805 
3.9497805e+2, 2.3478293e+2, -696627.25, -799141.3, 78265.914, 0.0019936077, 0.02834828, -654327.7, -15204.45, 0.0, 10.000144, 9.998796 
3.949705e+2, 2.4478221e+2, -567722.06, -621066.0, 54153.313, -0.008266445, 0.05209144, -534028.7, 7101.9355, 0.0, 10.000068, 9.999386 
3.949639e+2, 2.5478068e+2, -546319.56, -563289.5, 63926.62, 0.07964584, -0.063154444, -490317.25, -47175.832, 0.0, 9.999543, 9.999368 
3.9495683e+2, 2.647798e+2, -497313.16, -491297.13, 96742.23, 0.056181047, -0.078920335, -397516.16, -52367.734, 0.0, 9.999236, 9.99933 
3.949492e+2, 2.747795e+2, -419915.7, -404043.25, 86186.984, -0.08580058, -0.06266466, -325427.88, -78274.33, 0.0, 9.999092, 9.999328 
3.9494225e+2, 2.847793e+2, -294892.94, -168175.48, 18178.127, -0.07738745, -0.06634222, -165619.31, -16464.498, 0.000000010243951, 9.998756, 10.000434 
3.9493588e+2, 2.9477933e+2, -297409.1, -120889.0, 60336.61, 0.07476706, -0.13246937, -102236.266, -51085.332, 0.0000005130985, 9.998072, 10.000417 
3.949266e+2, 3.0477977e+2, -274688.56, -188126.05, 70472.01, -0.09957554, -0.07721477, -148705.61, -148705.61, 0.0000059963604, 9.998332, 9.999498 
3.9491862e+2, 3.147794e+2, -72602.72, 12854.135, 105255.26, -0.14722572, -0.088588916, 83723.19, 83723.19, 0.000027743677, 9.999245, 10.000436 
4.050651e+2, 1.24801494e+2, -1581394.3, -1688020.3, 62440.926, -0.012543482, -0.06399033, -1552602.8, 164325.78, 0.0001282802, 10.001024, 9.999677 
4.050552e+2, 1.3479944e+2, -1496830.0, -1588289.9, 11878.281, 0.044520967, -0.2674098, -1495312.5, 123633.016, 0.00006493345, 10.000928, 9.999743 
4.0504402e+2, 1.4479804e+2, -1429364.8, -1643328.8, 103549.945, -0.16259554, -0.3201298, -1387458.4, 133502.27, 0.00002457309, 10.001306, 9.998495 
4.0503824e+2, 1.5479924e+2, -1236600.4, -1516751.0, 87355.91, 0.083489396, -0.0661242, -1211593.4, 211361.84, 0.000005781208, 10.0020275, 9.998347 
4.050309e+2, 1.6479895e+2, -1098606.8, -1274739.4, 115943.68, 0.1406882, 0.021283874, -1041075.6, 283884.34, 0.0000003430959, 10.001768, 9.999461 
4.0502065e+2, 1.7479727e+2, -1197916.1, -1267291.6, 79845.11, -0.14503555, -0.12009123, -1145549.4, 81424.09, 0.0, 10.000391, 9.999503 
4.0501246e+2, 1.8479586e+2, -1199007.1, -1273498.5, 75038.37, -0.20820114, -0.18361829, -1152479.4, -23493.729, 0.0, 9.999963, 9.998993 
4.0500695e+2, 1.9479445e+2, -1024301.0, -1142327.9, 98428.15, 0.015711991, -0.24163084, -968550.8, 62448.3, 0.0, 10.000501, 9.998967 
4.0500072e+2, 2.047937e+2, -899079.56, -1021213.1, 146549.98, 0.12702775, -0.212989, -801382.2, 131625.94, 0.0, 10.00065, 9.999048 
4.049935e+2, 2.1479358e+2, -847028.25, -949042.06, 128107.71, 0.098878905, -0.15096955, -760146.5, 74866.59, 0.0, 10.00034, 9.999025 
4.0498617e+2, 2.247936e+2, -776165.56, -896739.4, 130858.39, 0.06646533, -0.03241124, -692374.6, 44642.07, 0.0, 10.000305, 9.998723 
4.049786e+2, 2.3479362e+2, -636375.6, -782985.5, 143227.14, 0.02543176, 0.07979279, -548784.2, 90236.164, 0.0, 10.000603, 9.998691 
4.0497103e+2, 2.4479255e+2, -513005.2, -616831.75, 124376.77, 0.02012848, 0.083453156, -430142.47, 110888.15, 0.0, 10.000546, 9.999183 
4.049635e+2, 2.547903e+2, -469817.06, -541425.9, 97633.445, 0.059541654, -0.08323514, -401629.9, 41417.77, 0.0, 10.000156, 9.999213 
4.049559e+2, 2.647893e+2, -465274.72, -506629.47, 144543.36, 0.029948791, -0.09386135, -339937.25, 5119.337, 0.0, 9.999584, 9.999056 
4.0494826e+2, 2.7478942e+2, -481982.4, -465856.38, 137562.64, -0.06562242, -0.0077522956, -336120.63, -89061.51, 0.0, 9.9988, 9.9990425 
4.0494132e+2, 2.8478926e+2, -305703.9, -191207.69, 81713.38, -0.04048692, 0.016466187, -148683.94, 376.5754, 0.0000000008315615, 9.998748, 10.00028 
4.0493497e+2, 2.947888e+2, -98677.37, -38605.945, 39076.363, 0.1134987, -0.08446966, -19355.691, 31705.004, 0.0000007104038, 9.999483, 10.0002985 
4.0492517e+2, 3.0478895e+2, -147409.7, -126087.68, 35793.47, -0.11144166, -0.058552764, -99401.27, -99401.27, 0.000009515816, 9.999202, 9.999509 
4.049172e+2, 3.1478888e+2, -293583.03, -89150.99, 65817.94, -0.12512022, -0.03800029, -69793.516, -69793.516, 0.0000394484, 9.997687, 10.000493 
4.1506687e+2, 1.2480984e+2, -1596202.0, -1732435.9, -10069.58, 0.010245165, -0.30396184, -1595461.8, 121382.39, 0.0001259659, 10.001073, 9.999349 
4.1505712e+2, 1.3481125e+2, -1484938.3, -1586212.4, 16895.637, 0.11862787, -0.16442111, -1482194.0, 136637.5, 0.00006410072, 10.00101, 9.999719 
4.1504496e+2, 1.4481051e+2, -1430081.5, -1644448.8, 124841.8, -0.22358693, -0.14728114, -1372724.0, 148115.67, 0.00002430965, 10.001315, 9.99848 
4.1503856e+2, 1.548088e+2, -1239020.9, -1513322.6, 126220.945, -0.11338032, -0.18243726, -1189779.4, 233077.97, 0.0000053776803, 10.002002, 9.99838 
4.1503087e+2, 1.6480735e+2, -1158583.5, -1387144.9, 57781.723, -0.06413548, -0.17754896, -1144806.4, 180067.88, 0.0000002359893, 10.001714, 9.998715 
4.1502047e+2, 1.7480637e+2, -1251195.9, -1377593.4, 37224.137, -0.22759962, -0.17437612, -1241048.1, -14159.937, 0.0, 10.000387, 9.998748 
4.150128e+2, 1.8480632e+2, -1150618.4, -1162849.6, 85947.914, -0.18787828, -0.09898099, -1070568.8, 58320.977, 0.0, 9.999922, 9.99977 
4.1500866e+2, 1.9480714e+2, -974879.7, -1024198.7, 126312.3, 0.11763602, -0.01806175, -870842.3, 160037.56, 0.0, 10.000441, 9.999801 
4.1500193e+2, 2.048068e+2, -931659.4, -1072461.3, 127289.74, 0.16576569, 0.025264153, -856599.06, 76285.04, 0.0, 10.000571, 9.99874 
4.1499212e+2, 2.148051e+2, -884361.94, -1000037.7, 121827.36, -0.08948435, -0.038194872, -807340.2, 27564.629, 0.0, 10.000228, 9.998728 
4.1498497e+2, 2.2480407e+2, -755698.5, -832360.44, 133477.92, -0.09862595, -0.03324054, -655156.8, 81759.195, 0.0, 10.000208, 9.999214 
4.1498062e+2, 2.3480368e+2, -613115.5, -713381.94, 162783.97, 0.1510046, -0.017379668, -492919.75, 145998.11, 0.0, 10.000512, 9.999211 
4.149734e+2, 2.4480243e+2, -549837.3, -683770.3, 102307.07, 0.18285628, -0.037403524, -494528.53, 46399.715, 0.0, 10.000501, 9.998744 
4.14963e+2, 2.5480014e+2, -511476.84, -613115.06, 91118.26, -0.024240004, -0.16300026, -457964.2, -15015.182, 0.0, 10.000087, 9.998755 
4.149546e+2, 2.6479906e+2, -471930.66, -510107.25, 109055.875, -0.07647794, -0.15517496, -380305.16, -35345.617, 0.0, 9.999546, 9.999047 
4.1494828e+2, 2.7479923e+2, -495637.28, -473584.97, 117557.875, 0.031410057, -0.066932134, -366537.28, -119576.836, 0.0, 9.998717, 9.999027 
4.1494143e+2, 2.847989e+2, -377764.13, -342403.0, 100041.9, 0.073612384, -0.011290765, -258491.3, -109526.09, 0.00000000001177225, 9.998742, 9.99925 
4.1493392e+2, 2.9479793e+2, -180729.48, -196200.75, 75364.06, 0.03384507, -0.059707526, -112705.09, -61730.254, 0.0000013022876, 9.99942, 9.99925 
4.1492307e+2, 3.047978e+2, -125451.95, -73316.22, -23903.914, -0.26162204, -0.020748356, -64015.586, -64015.586, 0.000014575742, 9.99918, 9.999878 
4.149156e+2, 3.1479767e+2, -306713.1, -80404.51, 22478.992, -0.097922355, -0.04961619, -78193.3, -78193.3, 0.000055427667, 9.997547, 10.000615 
4.2506757e+2, 1.2482002e+2, -1814627.6, -1873175.4, -52179.383, 0.050056204, -0.295299, -1784071.4, -67325.22, 0.000120138786, 9.999709, 9.999044 
4.2505926e+2, 1.3482183e+2, -1387736.9, -1569547.0, -14359.541, 0.19988783, -0.09444589, -1386609.8, 232122.31, 0.00006079175, 10.001782, 9.99947 
4.2504713e+2, 1.4482136e+2, -1258440.4, -1508438.0, 67368.43, -0.18050742, -0.06230535, -1241442.0, 279294.94, 0.00002257458, 10.002255, 9.998965 
4.250395e+2, 1.548189e+2, -1406848.8, -1538827.9, 77694.94, -0.14143625, -0.22417438, -1370901.4, 51856.543, 0.0000044461326, 10.0006075, 9.998879 
4.2503148e+2, 1.6481742e+2, -1415388.9, -1518474.4, 76674.69, -0.07924294, -0.24168654, -1374543.0, -49769.2, 0.00000009724189, 9.999992, 9.998641 
4.2502186e+2, 1.7481707e+2, -1235261.4, -1379110.3, 90230.055, -0.13073647, -0.16454595, -1191797.0, 34986.215, 0.0, 10.000543, 9.998663 
4.2501423e+2, 1.8481734e+2, -1008324.56, -1096803.5, 175589.05, -0.083881386, -0.055034578, -871487.7, 257295.45, 0.0, 10.000905, 9.999752 
4.2500928e+2, 1.9481805e+2, -897277.0, -993512.3, 138797.42, 0.11160341, 0.018989565, -798493.2, 232281.75, 0.0, 10.000992, 9.99975 
4.250022e+2, 2.0481768e+2, -915769.6, -1067378.6, 101959.945, 0.13553725, 0.061320916, -864522.3, 68257.32, 0.0, 10.000695, 9.99871 
4.249926e+2, 2.1481599e+2, -928298.9, -1027620.9, 102476.29, -0.046462636, 0.0036931434, -864084.5, -29284.69, 0.0, 9.999952, 9.9986725 
4.2498538e+2, 2.2481467e+2, -803843.6, -806518.44, 164821.08, -0.045888357, -0.04011052, -640354.5, 96457.625, 0.0, 9.999673, 9.999645 
4.2498073e+2, 2.3481369e+2, -680331.6, -697037.0, 169290.6, 0.1487901, -0.12429519, -519187.75, 119628.6, 0.0, 9.9998455, 9.999644 
4.249735e+2, 2.448126e+2, -633629.5, -733883.56, 117535.56, 0.17002237, -0.14592023, -555978.1, -15153.164, 0.0, 9.9999695, 9.998655 
4.2496336e+2, 2.548112e+2, -518679.84, -628938.25, 116030.68, 0.0062863836, -0.17115656, -445347.6, -2507.7344, 0.0, 10.000088, 9.998647 
4.2495486e+2, 2.648102e+2, -370290.66, -482391.38, 152900.64, -0.039524224, -0.1398844, -263490.63, 81359.586, 0.0, 10.000336, 9.998864 
4.2494813e+2, 2.7480957e+2, -217079.75, -357299.06, 131915.9, 0.05127242, -0.11124335, -137800.08, 109056.83, 0.0, 10.000709, 9.998869 
4.2494097e+2, 2.8480878e+2, -213372.06, -318391.34, 136953.75, 0.09138491, -0.06746292, -119206.586, 29659.46, 0.0000000012455732, 10.000125, 9.99874 
4.2493334e+2, 2.9480764e+2, -343936.06, -333658.66, 133407.77, 0.0844684, -0.07806403, -205290.66, -154410.98, 0.0000019825331, 9.998554, 9.998724 
4.2492196e+2, 3.0480736e+2, -249231.03, -142699.16, 66512.88, -0.24017529, -0.023135245, -110752.27, -110752.27, 0.000019679212, 9.998372, 9.99979 
4.2491457e+2, 3.1480637e+2, -14436.476, 62542.086, 11033.05, -0.03787492, -0.13512455, 64092.2, 64092.2, 0.00007104561, 9.999542, 10.000635 
4.3506658e+2, 1.2483207e+2, -1838750.5, -1916745.6, -53141.44, -0.06583682, -0.045330845, -1811832.8, -95198.64, 0.000112459136, 9.999714, 9.9987335 
4.3506148e+2, 1.348313e+2, -1422150.8, -1635090.9, 79913.81, 0.21906218, -0.057631824, -1395496.4, 223149.8, 0.000055857796, 10.001775, 9.99902 
4.3505022e+2, 1.4483058e+2, -1197479.8, -1379467.1, 5186.258, -0.12232635, -0.06995931, -1197332.1, 323320.53, 0.000019900395, 10.002235, 9.999865 
4.350407e+2, 1.5482952e+2, -1332104.4, -1396707.5, 24859.86, -0.10604921, -0.1888572, -1323645.6, 99011.305, 0.0000034951138, 10.000652, 9.999838 
4.350325e+2, 1.6482909e+2, -1374684.6, -1429847.1, 86265.29, -0.00021919633, -0.18038177, -1311698.6, 12960.633, 0.000000032016867, 9.99998, 9.999253 
4.3502453e+2, 1.7482938e+2, -1195838.8, -1292415.4, 120298.33, 0.06078451, -0.09844694, -1114499.0, 112160.06, 0.0, 10.000523, 9.999268 
4.3501636e+2, 1.8482883e+2, -1077640.9, -1223988.0, 172161.69, 0.018057767, -0.059644725, -963747.56, 164919.02, 0.0, 10.000837, 9.998911 
4.350085e+2, 1.9482721e+2, -967043.2, -1121711.0, 150395.75, -0.08739097, -0.13329008, -875263.5, 155420.63, 0.0, 10.000926, 9.998899 
4.350013e+2, 2.0482638e+2, -914229.25, -1041544.25, 66255.93, -0.041336864, -0.103223465, -886005.75, 46688.41, 0.0, 10.0006, 9.998933 
4.3499464e+2, 2.1482632e+2, -924060.8, -997786.94, 82465.586, 0.14359264, -0.026109168, -870594.1, -35896.727, 0.0, 9.999863, 9.998918 
4.349871e+2, 2.2482547e+2, -801263.6, -773327.94, 162676.17, 0.14180547, -0.04589361, -624021.06, 112682.93, 0.0, 9.999554, 9.99993 
4.349786e+2, 2.348237e+2, -674409.06, -659265.5, 183356.4, -0.0658321, -0.23911555, -483324.6, 155390.84, 0.0, 9.999738, 9.999952 
4.3497097e+2, 2.4482308e+2, -629099.9, -710530.7, 113605.71, -0.0920513, -0.23753342, -549133.9, -8413.548, 0.0, 9.9999075, 9.998846 
4.3496424e+2, 2.548236e+2, -516748.2, -606395.2, 127747.16, 0.0666476, -0.09476324, -426188.97, 16530.299, 0.0, 10.0000105, 9.998837 
4.3495643e+2, 2.6482278e+2, -395258.44, -531374.75, 159723.75, 0.06604889, -0.0383673, -289697.5, 55030.332, 0.0, 10.0003195, 9.998537 
4.3494743e+2, 2.7482048e+2, -247231.64, -408350.9, 155894.95, -0.112157226, -0.14567551, -152311.67, 94436.74, 0.0, 10.000653, 9.998548 
4.3493956e+2, 2.8481898e+2, -220816.3, -322394.0, 71935.0, -0.08071504, -0.15717518, -183547.5, -34784.26, 0.000000012355592, 10.000084, 9.998728 
4.3493304e+2, 2.948182e+2, -360438.56, -347373.1, 85956.52, 0.17575426, -0.13016602, -267701.44, -216927.94, 0.0000027662056, 9.998474, 9.998666 
4.3492162e+2, 3.0481774e+2, -288567.94, -229599.95, 106122.836, -0.13269313, -0.059927072, -148941.48, -148941.48, 0.000024180765, 9.998381, 9.999194 
4.349136e+2, 3.1481484e+2, -37005.094, 28897.178, 35683.918, -0.13672097, -0.29835197, 44516.805, 44516.805, 0.00008333817, 9.999482, 10.000434 
4.4506735e+2, 1.2484247e+2, -1438127.8, -1680754.9, -78591.01, -0.080721766, 0.022552252, -1414895.4, 301639.8, 0.00010599228, 10.0023, 9.999103 
4.450627e+2, 1.3484123e+2, -1633281.9, -1706751.9, 130753.3, 0.24727093, -0.061138637, -1534201.3, 84349.33, 0.00005101591, 10.00022, 9.999274 
4.4505203e+2, 1.4484087e+2, -1536384.4, -1525688.8, 75474.24, -0.037885595, -0.055455666, -1455373.1, 65180.215, 0.000017295639, 9.999837, 10.000014 
4.4504195e+2, 1.5484044e+2, -1269982.3, -1345412.4, 11042.226, -0.055951424, -0.12973364, -1268399.0, 154153.75, 0.0000027656245, 10.000992, 10.000023 
4.4503346e+2, 1.6484024e+2, -1167428.8, -1305945.0, 54720.426, 0.03591915, -0.119703546, -1148420.1, 176131.89, 0.000000035556127, 10.0012865, 9.999479 
4.4502544e+2, 1.7484035e+2, -1162096.4, -1248774.3, 45540.637, 0.10097144, -0.08072898, -1142568.6, 83982.13, 0.0, 10.000639, 9.999509 
4.4501692e+2, 1.8483943e+2, -1196576.5, -1298601.0, 121213.5, 0.03523095, -0.083252825, -1116078.5, 12482.288, 0.0, 10.0000925, 9.998756 
4.450084e+2, 1.9483721e+2, -1175738.3, -1240570.1, 135281.78, -0.11430785, -0.19936809, -1069042.9, -38458.188, 0.0, 9.999569, 9.998737 
4.4500133e+2, 2.0483643e+2, -959294.5, -1009154.6, 125811.586, -0.065797344, -0.18226355, -855966.75, 76627.2, 0.0, 10.0000725, 9.999403 
4.4499567e+2, 2.1483698e+2, -635757.9, -805314.7, 141987.44, 0.17860699, -0.085167356, -555164.56, 279424.34, 0.0, 10.001623, 9.99939 
4.449881e+2, 2.2483674e+2, -532379.2, -678691.5, 178614.48, 0.19360018, -0.05735111, -412519.94, 324070.7, 0.0, 10.001543, 9.99962 
4.4497854e+2, 2.3483542e+2, -703793.7, -713468.75, 135394.16, -0.03718422, -0.17256472, -573150.7, 65450.695, 0.0, 9.999699, 9.999602 
4.4497064e+2, 2.4483489e+2, -687371.1, -725520.7, 114660.65, -0.08865935, -0.15351483, -590209.44, -49602.34, 0.0, 9.999447, 9.998963 
4.449644e+2, 2.54835e+2, -380429.72, -530080.8, 109527.83, 0.045681912, -0.058370385, -322608.34, 120000.46, 0.0, 10.000891, 9.99894 
4.449569e+2, 2.648341e+2, -274657.13, -464576.63, 126405.32, 0.046267185, -0.023408107, -211516.73, 133101.17, 0.0, 10.001121, 9.998599 
4.4494793e+2, 2.7483195e+2, -321735.44, -438036.72, 132994.36, -0.09450255, -0.119356446, -234734.45, 11901.839, 0.0, 10.000127, 9.9985895 
4.449397e+2, 2.848304e+2, -285891.06, -377233.56, 57848.93, -0.052897695, -0.12829116, -257857.75, -109205.8, 0.00000003062236, 9.999733, 9.998525 
4.449324e+2, 2.9482928e+2, -169931.98, -270751.9, 38058.2, 0.20179115, -0.11798052, -157178.73, -106512.4, 0.0000032986038, 9.999853, 9.998524 
4.4492093e+2, 3.048286e+2, -168964.89, -171146.28, 120493.195, -0.07289029, -0.06366341, -49557.453, -49557.453, 0.000027227657, 9.999203, 9.999195 
4.449132e+2, 3.1482586e+2, -256773.75, -23828.945, 28588.354, -0.030540664, -0.28382957, -20371.725, -20371.725, 0.000091368296, 9.997738, 10.000912 
4.5506915e+2, 1.2485115e+2, -1360877.6, -1522749.6, -235253.48, -0.18346691, -0.09545689, -1193027.0, 523423.38, 0.00010140695, 10.002313, 10.000179 
4.5506242e+2, 1.3485147e+2, -1560021.1, -1569829.1, 63334.168, 0.17510909, -0.11499624, -1501401.4, 117045.195, 0.00004730018, 10.000279, 10.000188 
4.5505223e+2, 1.4485206e+2, -1571508.8, -1601795.1, 114686.05, -0.030527625, -0.03652801, -1470970.5, 49470.445, 0.000015080613, 9.999857, 9.99948 
4.55043e+2, 1.5485168e+2, -1311738.3, -1429836.5, 65881.22, -0.07707248, -0.046159968, -1282316.3, 140129.05, 0.0000021144335, 10.00099, 9.999442 
4.5503405e+2, 1.6485094e+2, -1175466.8, -1323682.4, 21152.11, -0.053919714, -0.054470487, -1172507.3, 151944.5, 0.00000004449902, 10.001282, 9.999363 
4.550244e+2, 1.748499e+2, -1164387.9, -1263199.3, 29428.145, -0.09247344, -0.11822448, -1156287.6, 70171.59, 0.0, 10.00067, 9.999399 
4.5501578e+2, 1.8484907e+2, -1167206.1, -1223445.1, 94126.22, -0.10937261, -0.1331691, -1097088.9, 31377.574, 0.0, 10.000039, 9.999293 
4.5500875e+2, 1.9484815e+2, -1148857.5, -1167528.8, 122845.47, -0.057375044, -0.17555837, -1034993.44, -4517.193, 0.0, 9.999502, 9.999266 
4.55002e+2, 2.0484783e+2, -924354.94, -915827.6, 173357.73, -0.023452733, -0.17118794, -746681.1, 185797.7, 0.0, 9.999978, 10.0000925 
4.549954e+2, 2.1484807e+2, -602634.7, -707794.0, 209457.53, -0.028710237, -0.17824978, -439258.16, 395216.06, 0.0, 10.001499, 10.000117 
4.5498818e+2, 2.2484845e+2, -614334.1, -823078.25, 104991.34, 0.031673387, -0.07606234, -570663.25, 165808.8, 0.0, 10.0014305, 9.998688 
4.5498037e+2, 2.3484886e+2, -782194.9, -855214.2, 75761.07, 0.15631059, 0.07589323, -734605.2, -96131.18, 0.0, 9.999607, 9.998673 
4.5497218e+2, 2.4484797e+2, -696371.9, -721217.4, 159482.66, 0.10096743, 0.10412773, -548828.9, -8343.467, 0.0, 9.999357, 9.999037 
4.549636e+2, 2.548455e+2, -386136.28, -519013.56, 172688.44, -0.14529268, -0.06648062, -267546.84, 174961.6, 0.0, 10.000795, 9.9990635 
4.5495602e+2, 2.6484418e+2, -256345.69, -414962.06, 84086.47, -0.17126864, -0.09669473, -220067.02, 124453.27, 0.0, 10.001069, 9.998966 
4.5494944e+2, 2.7484402e+2, -309385.75, -393678.6, 106198.44, 0.021770563, -0.031157704, -237276.2, 9244.596, 0.0, 10.000045, 9.998933 
4.5494112e+2, 2.848431e+2, -317256.1, -430115.03, 55012.98, 0.09757189, 0.021303609, -294877.5, -146345.52, 0.000000022691747, 9.999676, 9.998191 
4.5493114e+2, 2.9484093e+2, -197013.31, -315413.0, 53891.934, 0.06485964, -0.035742924, -176157.17, -125599.42, 0.0000033720132, 9.999794, 9.998251 
4.549196e+2, 3.0483994e+2, -126066.39, -78096.836, 63565.254, -0.14698327, -0.035584122, -34141.855, -34141.855, 0.000028360193, 9.999194, 9.999835 
4.5491302e+2, 3.1483948e+2, -192475.58, 135115.52, -38705.336, 0.13490175, -0.0913138, 139626.48, 139626.48, 0.00009465621, 9.997632, 10.002055 
4.6507034e+2, 1.24861196e+2, -1859267.8, -1737718.1, -217902.03, -0.10531195, -0.14125568, -1572274.4, 144076.17, 0.000096649455, 9.998761, 10.000416 
4.650622e+2, 1.3486172e+2, -1493016.3, -1536611.9, 36093.47, 0.11255806, -0.14644499, -1472649.1, 145694.89, 0.00004344866, 10.000706, 10.000219 
4.6505278e+2, 1.448624e+2, -1380030.5, -1518101.5, 95075.586, -0.020477038, -0.056400444, -1331570.3, 188767.27, 0.000012657647, 10.001205, 9.999405 
4.6504346e+2, 1.5486214e+2, -1448973.3, -1502865.6, 60911.92, -0.07653336, -0.049535733, -1409313.4, 13028.414, 0.0000014631825, 10.000071, 9.999387 
4.6503443e+2, 1.6486138e+2, -1370371.9, -1419941.0, 69128.93, -0.07304048, -0.05627802, -1321718.8, 2630.2854, 0.000000030371112, 9.999976, 9.999326 
4.6502498e+2, 1.7486008e+2, -1116747.6, -1244531.5, 62817.816, -0.11744358, -0.14153473, -1091039.0, 135320.34, 0.0, 10.001027, 9.999353 
4.650165e+2, 1.8485938e+2, -975017.75, -1099597.6, 103943.05, -0.091913946, -0.15709981, -916129.3, 212235.27, 0.0, 10.001217, 9.99958 
4.6500963e+2, 1.9485903e+2, -994892.7, -1063666.8, 101068.48, 0.04353913, -0.16947304, -922521.56, 107845.32, 0.0, 10.000418, 9.999547 
4.6500272e+2, 2.0485877e+2, -928386.56, -928677.5, 182478.14, 0.05515614, -0.1688958, -746053.9, 186313.98, 0.0, 9.9999895, 9.999998 
4.649955e+2, 2.148585e+2, -840348.06, -837819.0, 138991.52, -0.08047218, -0.21492945, -700086.25, 134282.06, 0.0, 9.999926, 9.999984 
4.6498844e+2, 2.248586e+2, -778918.06, -937392.75, 2089.9202, -0.033303134, -0.12046032, -778890.5, -42520.125, 0.0, 10.000462, 9.998362 
4.6498147e+2, 2.3485892e+2, -507573.7, -760063.1, 1655.1561, 0.2080607, 0.05578779, -507562.84, 130812.59, 0.0, 10.001664, 9.998331 
4.6497345e+2, 2.44858e+2, -369339.22, -556430.7, 137345.34, 0.18780357, 0.096659586, -296708.7, 243679.03, 0.0, 10.001558, 9.999112 
4.6496436e+2, 2.5485563e+2, -487593.2, -558019.94, 135968.39, -0.10469497, -0.07545719, -382352.34, 60056.668, 0.0, 10.0000515, 9.999153 
4.6495655e+2, 2.6485455e+2, -444708.34, -494781.4, 48534.152, -0.15322769, -0.09423472, -415133.6, -70714.39, 0.0, 9.999714, 9.999079 
4.649499e+2, 2.748547e+2, -230360.16, -345970.44, 34668.73, 0.04934435, -0.011003393, -220760.88, 25657.97, 0.0, 10.000529, 9.999038 
4.6494126e+2, 2.8485402e+2, -166735.98, -328465.3, 10632.914, 0.10389416, 0.055337407, -166039.92, -17612.764, 0.00000001636591, 10.000572, 9.998462 
4.6493062e+2, 2.9485232e+2, -162150.53, -259486.95, 33898.93, 0.039132576, 0.011013312, -151508.27, -101060.805, 0.0000038591365, 9.99986, 9.998603 
4.6491987e+2, 3.048508e+2, 9462.464, -75124.15, 52808.063, -0.09294158, -0.033863764, 34825.754, 34825.754, 0.000029778155, 10.00039, 9.9992895 
4.6491364e+2, 3.1485087e+2, 402754.78, 352237.47, -202373.05, 0.22895467, 0.026671171, 581439.4, 581439.4, 0.00009717631, 10.002031, 10.001433 
4.7507015e+2, 1.2487252e+2, -1895840.3, -1805854.8, -205904.27, -0.051485185, -0.1110096, -1640084.9, 76151.92, 0.000091564856, 9.998749, 9.999942 
4.7506174e+2, 1.3487208e+2, -1545970.6, -1639763.9, 120426.336, -0.025990937, -0.14394204, -1463631.8, 154609.97, 0.000038474074, 10.000696, 9.999502 
4.7505352e+2, 1.4487205e+2, -1349405.0, -1458919.5, 48506.035, -0.096176416, -0.10462594, -1331010.4, 189231.2, 0.000009911169, 10.001208, 9.999818 
4.7504303e+2, 1.5487187e+2, -1406325.6, -1429409.4, 27297.334, -0.15217693, -0.13747573, -1388230.4, 34011.48, 0.0000009593812, 10.000124, 9.999871 
4.750343e+2, 1.6487151e+2, -1370224.9, -1418575.6, 98810.12, -0.106388815, -0.12822682, -1292675.6, 31569.076, 0.000000014696447, 9.99997, 9.99934 
4.750268e+2, 1.7487077e+2, -1117861.6, -1246549.3, 112370.12, -0.055910006, -0.15619415, -1052717.4, 173534.9, 0.0, 10.001027, 9.99934 
4.7501886e+2, 1.8487026e+2, -974693.56, -1087953.5, 68259.19, 0.00039052113, -0.1572091, -942631.56, 185624.38, 0.0, 10.001166, 9.999687 
4.7501087e+2, 1.9486982e+2, -992239.25, -1050720.1, 80331.76, 0.10173515, -0.18771078, -935991.7, 94264.98, 0.0, 10.0003805, 9.999657 
4.750032e+2, 2.0486924e+2, -1006040.56, -1069908.3, 172786.22, 0.088575326, -0.17803729, -862262.0, 69999.01, 0.0, 9.999907, 9.999068 
4.7499582e+2, 2.1486837e+2, -920366.44, -981804.0, 144912.08, -0.062291358, -0.19069052, -802953.0, 31317.828, 0.0, 9.999832, 9.99904 
4.7498855e+2, 2.2486712e+2, -770225.8, -904256.06, 39434.73, -0.08723438, -0.19486341, -759484.1, -23198.246, 0.0, 10.000385, 9.998632 
4.7498155e+2, 2.3486546e+2, -500880.6, -725334.44, 56000.066, 0.028827822, -0.24445035, -487684.66, 150622.23, 0.0, 10.001567, 9.99862 
4.749742e+2, 2.4486491e+2, -373153.1, -546549.56, 75276.984, 0.088709, -0.18650487, -345033.16, 195281.8, 0.0, 10.001484, 9.999213 
4.7496653e+2, 2.5486538e+2, -496873.3, -558599.9, 87808.12, 0.085056126, -0.08552136, -434662.38, 7648.69, 0.0, 9.999966, 9.999192 
4.749582e+2, 2.6486507e+2, -463490.47, -517815.53, 72108.2, 0.026290797, -0.02088045, -413598.5, -69282.766, 0.0, 9.999647, 9.998952 
4.749491e+2, 2.7486378e+2, -247276.23, -365034.88, 75119.516, -0.10796885, -0.06634653, -210710.72, 35620.586, 0.0, 10.000465, 9.998935 
4.7493982e+2, 2.848632e+2, -109185.18, -205715.9, -25294.836, -0.11885213, -0.033087574, -102958.58, 45379.613, 0.0000000367379, 10.000553, 9.999315 
4.749306e+2, 2.9486325e+2, -114255.47, -144024.38, 16386.654, 0.026301503, 0.0125424955, -107002.41, -56665.313, 0.000004901276, 9.999778, 9.999441 
4.7492135e+2, 3.0486095e+2, -122762.86, -335920.28, 108029.88, 0.0029392294, -0.065170944, -77586.914, -77586.914, 0.000032907166, 10.000333, 9.997525 
4.7491452e+2, 3.1485957e+2, 228391.5, -11915.046, -133108.19, 0.06516109, 0.034726918, 287555.25, 287555.25, 0.00010232853, 10.002034, 9.99893 
4.8506975e+2, 1.2488262e+2, -1666650.5, -1715763.8, -187221.97, -0.039830003, -0.16044375, -1502381.6, 213752.02, 0.00008660855, 10.000396, 9.999775 
4.8506176e+2, 1.3488242e+2, -1534536.0, -1663983.4, 152732.52, -0.09060574, -0.14425682, -1433379.0, 184758.22, 0.000032757685, 10.000878, 9.999265 
4.8505542e+2, 1.4488195e+2, -1403261.3, -1503634.1, 35381.676, -0.008669461, -0.129939, -1392043.0, 128099.5, 0.000007215262, 10.000934, 9.999635 
4.8504364e+2, 1.5488116e+2, -1342756.0, -1421178.3, -61013.934, -0.12614127, -0.20223823, -1309439.8, 112709.66, 0.00000059770906, 10.000667, 9.999662 
4.8503453e+2, 1.6488093e+2, -1269134.3, -1324903.6, 60612.49, -0.1017249, -0.19141549, -1230299.9, 93851.0, 0.0000000048834687, 10.000469, 9.999741 
4.850279e+2, 1.7488103e+2, -1190215.0, -1234867.6, 93362.88, -0.0065662484, -0.17743847, -1116546.0, 109602.766, 0.0, 10.000336, 9.999748 
4.8502025e+2, 1.848807e+2, -1060272.5, -1175384.5, 48236.84, 0.051889643, -0.15900613, -1042732.0, 85418.555, 0.0, 10.00078, 9.999268 
4.8501188e+2, 1.9487986e+2, -819774.1, -1010670.25, 5967.9634, 0.10178408, -0.19375505, -819587.75, 210569.27, 0.0, 10.001764, 9.999253 
4.8500386e+2, 2.048789e+2, -791568.06, -1003964.9, 83073.914, 0.08393502, -0.18656081, -762935.56, 169230.88, 0.0, 10.0015335, 9.998744 
4.8499623e+2, 2.1487762e+2, -922232.0, -1016063.4, 92460.44, -0.0062913117, -0.20611623, -865465.4, -31284.61, 0.0, 9.999963, 9.998744 
4.849888e+2, 2.2487633e+2, -847832.5, -876052.9, 104689.5, -0.056794543, -0.23052679, -756306.56, -20111.445, 0.0, 9.999573, 9.999217 
4.849816e+2, 2.3487486e+2, -627020.94, -721501.2, 129621.33, -0.05977268, -0.31992304, -536299.75, 101911.18, 0.0, 10.000418, 9.999202 
4.8497474e+2, 2.4487455e+2, -423741.72, -606931.75, 111938.9, 0.0092228195, -0.25065333, -370699.38, 169517.25, 0.0, 10.00129, 9.998892 
4.8496827e+2, 2.5487542e+2, -200421.48, -450037.47, 74838.516, 0.1586193, -0.076619, -179703.39, 262509.2, 0.0, 10.002157, 9.9988785 
4.849597e+2, 2.648752e+2, -155501.77, -348604.88, 64661.9, 0.11055787, 0.0043405625, -135849.34, 208368.19, 0.0, 10.001675, 9.999132 
4.8494878e+2, 2.7487358e+2, -328846.0, -383690.6, 76469.05, -0.147054, -0.090265065, -275031.0, -28796.143, 0.0, 9.999813, 9.999121 
4.8493925e+2, 2.8487295e+2, -230163.06, -267826.8, 9984.015, -0.18489228, -0.069347754, -227680.16, -79437.89, 0.00000008825205, 9.999751, 9.999269 
4.849314e+2, 2.948735e+2, 135264.33, -29737.781, -40702.105, 0.04626368, 0.031307183, 144758.3, 194995.95, 0.0000056092463, 10.001531, 9.999374 
4.8492324e+2, 3.0487138e+2, 79550.266, -257287.52, 86431.38, 0.09410925, -0.019849235, 100433.53, 100433.53, 0.000035389916, 10.001796, 9.997351 
4.849153e+2, 3.148695e+2, -54105.33, -227552.2, -58520.652, 0.02744504, 0.049468156, -36207.44, -36207.44, 0.00010599746, 10.000431, 9.998209 
4.9506837e+2, 1.2489151e+2, -1654469.9, -1698278.9, -195809.75, -0.2714633, -0.28854874, -1479343.3, 236697.72, 0.00007902746, 10.000437, 9.999873 
4.9506202e+2, 1.3489273e+2, -1511885.5, -1622617.8, 178320.14, -0.1775863, -0.15563136, -1380534.0, 237496.53, 0.000026309019, 10.000904, 9.999536 
4.9505803e+2, 1.44892e+2, -1469832.0, -1633320.3, 15158.42, 0.13382836, -0.13577206, -1468438.5, 51602.008, 0.0000047383246, 10.000901, 9.998757 
4.950449e+2, 1.5489005e+2, -1406547.5, -1552790.3, -63249.156, -0.09143478, -0.2385825, -1382988.0, 39076.19, 0.0000002991547, 10.000668, 9.998755 
4.9503478e+2, 1.6488966e+2, -1212529.6, -1203227.8, 46086.65, -0.1392554, -0.23685604, -1161558.0, 162509.02, 0.0000000005507737, 10.000447, 10.000589 
4.950281e+2, 1.7489082e+2, -1129231.6, -1107012.1, 95367.88, -0.044403143, -0.20400049, -1022109.06, 203940.08, 0.0, 10.00033, 10.000628 
4.950206e+2, 1.8489069e+2, -1132395.4, -1313391.3, 76500.63, -0.013675893, -0.1650626, -1104393.5, 23655.504, 0.0, 10.00073, 9.998345 
4.9501243e+2, 1.9488902e+2, -891436.5, -1150600.3, 47812.113, -0.0394641, -0.18677472, -882897.2, 147171.72, 0.0, 10.00172, 9.998318 
4.9500436e+2, 2.048876e+2, -774328.1, -951166.94, 15549.598, -0.03199832, -0.19755372, -772971.25, 159113.61, 0.0, 10.001454, 9.999149 
4.949965e+2, 2.1488634e+2, -904481.0, -963072.75, 41294.625, 0.0069003734, -0.25916815, -883145.9, -49048.207, 0.0, 9.999882, 9.999155 
4.949888e+2, 2.2488613e+2, -804916.0, -761536.56, 129917.03, -0.028627008, -0.2360683, -651511.1, 84587.82, 0.0, 9.99947, 10.00005 
4.9498132e+2, 2.3488694e+2, -585294.0, -605255.9, 170295.84, -0.14501642, -0.18099998, -424686.88, 213402.19, 0.0, 10.000297, 10.000056 
4.949748e+2, 2.4488686e+2, -483717.72, -715846.75, 137814.86, -0.13188644, -0.09987444, -419604.78, 120488.6, 0.0, 10.001225, 9.998176 
4.9496925e+2, 2.5488564e+2, -261152.2, -561088.94, 115706.31, 0.01825037, -0.055360783, -221704.45, 220409.75, 0.0, 10.002093, 9.998147 
4.9496064e+2, 2.6488483e+2, -127214.3, -278603.88, -13844.948, 0.017657954, -0.024500329, -125958.56, 218167.08, 0.0, 10.001627, 9.999638 
4.9494863e+2, 2.748841e+2, -308208.7, -315606.34, 15682.05, -0.16226523, -0.08460472, -295795.16, -49665.45, 0.0, 9.999709, 9.999637 
4.949392e+2, 2.8488344e+2, -309780.88, -416842.84, 70305.17, -0.18190585, -0.040579066, -274946.78, -126808.82, 0.00000018947561, 9.999685, 9.998276 
4.9493277e+2, 2.94883e+2, 57733.563, -181041.22, 38855.055, 0.0026345726, 0.068915114, 63897.21, 114046.69, 0.000005650319, 10.001494, 9.998349 
4.9492538e+2, 3.0488196e+2, 189427.13, -37340.297, 29309.596, 0.10510801, 0.10093647, 193154.13, 193154.13, 0.00003451672, 10.001816, 9.998857 
4.949151e+2, 3.148809e+2, 14103.211, -70316.695, -76212.81, -0.08264161, 0.08631297, 59014.285, 59014.285, 0.00010174547, 10.000358, 9.999324 
5.050706e+2, 1.2490099e+2, -1466360.0, -1627571.0, -197750.38, -0.14965083, -0.32358074, -1333418.1, 382528.84, 0.00006639799, 10.001844, 9.999671 
5.050619e+2, 1.3490215e+2, -1607588.5, -1679425.3, 90478.016, -0.23187609, -0.18414894, -1546160.1, 71777.766, 0.00001955312, 10.0002985, 9.99944 
5.0505906e+2, 1.4490148e+2, -1596095.6, -1687186.3, 13129.492, 0.19745491, -0.15704387, -1594240.9, -74293.16, 0.0000028130235, 10.000009, 9.99882 
5.0504583e+2, 1.5490021e+2, -1311128.4, -1498188.9, -15281.527, -0.08470285, -0.19578305, -1309888.3, 112076.63, 0.00000011765629, 10.001295, 9.998826 
5.0503564e+2, 1.6489981e+2, -1052213.6, -1174565.9, 71621.805, -0.16306509, -0.17893688, -1019197.44, 304770.78, 0.000000000026416515, 10.001752, 10.000156 
5.050288e+2, 1.7490014e+2, -1024496.5, -1109562.8, 4114.6924, -0.049315613, -0.18274759, -1024297.94, 201661.45, 0.0, 10.001266, 10.000166 
5.0502115e+2, 1.848996e+2, -1104209.0, -1276892.1, 16521.025, -0.02982887, -0.17034644, -1102642.6, 25320.732, 0.0, 10.000832, 9.998547 
5.050128e+2, 1.9489802e+2, -1062965.0, -1209688.0, 60128.074, -0.10527389, -0.19982994, -1041472.44, -11490.421, 0.0, 10.000455, 9.998518 
5.050048e+2, 2.04897e+2, -881983.7, -978770.8, 46925.715, -0.082239114, -0.1910383, -862968.4, 69025.484, 0.0, 10.000622, 9.9993515 
5.0499743e+2, 2.1489646e+2, -694431.1, -838302.6, 35283.14, 0.048605755, -0.20190838, -686244.1, 147755.67, 0.0, 10.001241, 9.999347 
5.049898e+2, 2.2489657e+2, -542096.56, -635142.9, 122513.836, 0.041787073, -0.15679945, -457569.94, 278427.8, 0.0, 10.0012665, 10.000057 
5.049822e+2, 2.3489727e+2, -535424.0, -579159.4, 86052.23, -0.10203445, -0.11310864, -468504.4, 169483.83, 0.0, 10.000629, 10.000074 
5.0497526e+2, 2.44897e+2, -650504.0, -763625.0, 77169.05, -0.13608377, -0.06757066, -611387.1, -71393.32, 0.0, 9.999943, 9.998466 
5.0496924e+2, 2.5489545e+2, -646107.1, -714077.25, 118559.37, -0.044764966, -0.084459834, -556758.06, -114741.055, 0.0, 9.9993105, 9.998439 
5.0496083e+2, 2.6489478e+2, -408222.1, -392742.2, 15480.124, -0.017112609, -0.064451195, -383174.88, -39148.547, 0.0, 9.999608, 9.999827 
5.0494975e+2, 2.748947e+2, -135313.8, -214428.5, -5007.088, -0.07308833, -0.07463629, -134998.16, 111025.06, 0.00000000061010413, 10.000819, 9.999799 
5.0494045e+2, 2.84894e+2, -121181.86, -351632.4, 117332.266, -0.093206175, -0.03751618, -71957.37, 76075.164, 0.00000027597625, 10.001087, 9.998053 
5.049333e+2, 2.948927e+2, -127855.836, -301645.6, 128003.52, -0.03279372, 0.010660151, -60039.3, -9986.059, 0.0000049916057, 10.000351, 9.998079 
5.0492656e+2, 3.0489224e+2, 48310.41, -23725.277, 107491.83, 0.113537334, 0.08523003, 125658.25, 125658.25, 0.000030276777, 10.000517, 9.999574 
5.0491667e+2, 3.1489152e+2, 254017.95, 145888.69, -73539.92, -0.01408389, 0.03042822, 291228.22, 291228.22, 0.000090525835, 10.001569, 10.00024 
5.1507556e+2, 1.2491095e+2, -1500375.9, -1706047.3, -237591.88, 0.10765825, -0.27200073, -1344319.5, 371533.16, 0.0000519356, 10.001874, 9.999117 
5.1506144e+2, 1.3491075e+2, -1630551.3, -1742088.0, 40905.62, -0.3373037, -0.228167, -1617157.6, 700.7709, 0.000013925394, 10.000357, 9.998983 
5.1505834e+2, 1.449104e+2, -1522830.4, -1541799.5, 47136.727, 0.094648056, -0.19275337, -1484233.5, 35630.105, 0.000001645238, 10.000034, 9.999809 
5.1504624e+2, 1.5491162e+2, -1238304.3, -1350412.1, 43291.62, -0.19249347, -0.082246974, -1223533.0, 198318.55, 0.00000003629146, 10.0013075, 9.999837 
5.150366e+2, 1.6491126e+2, -1184385.4, -1434285.1, 47823.332, -0.26321495, -0.027376553, -1175546.1, 148309.61, 0.0, 10.001696, 9.998396 
5.1502967e+2, 1.7490901e+2, -1154212.1, -1373428.8, -5104.9326, -0.108601935, -0.11294359, -1154093.4, 71785.7, 0.0, 10.001249, 9.998356 
5.150217e+2, 1.8490759e+2, -1014572.9, -1087042.8, -6789.195, -0.083719656, -0.16114719, -1013942.3, 113949.66, 0.0, 10.000811, 9.999858 
5.150127e+2, 1.9490692e+2, -970900.9, -1015626.44, 54549.117, -0.18436423, -0.23756744, -934308.56, 95586.97, 0.0, 10.000432, 9.999863 
5.15005e+2, 2.0490703e+2, -905290.3, -1003592.75, 62045.906, -0.14592534, -0.17883559, -875286.4, 56607.734, 0.0, 10.000523, 9.999228 
5.1499873e+2, 2.1490781e+2, -717143.1, -863516.06, 66564.35, 0.03921707, -0.045546226, -691399.94, 142488.77, 0.0, 10.001142, 9.999222 
5.1499164e+2, 2.2490747e+2, -609708.94, -754093.44, 89452.734, 0.08255129, -0.000037230995, -566951.1, 168941.8, 0.0, 10.001173, 9.999287 
5.149838e+2, 2.349059e+2, -603661.0, -697702.06, 68617.88, -0.02290145, -0.10779506, -567498.94, 70409.07, 0.0, 10.000533, 9.999306 
5.149759e+2, 2.4490504e+2, -564162.3, -572394.2, 44660.21, -0.09227714, -0.14507769, -523428.78, 16488.25, 0.0, 9.999889, 9.9998045 
5.149679e+2, 2.5490484e+2, -563594.06, -520105.84, 105299.98, -0.12868689, -0.16858955, -434328.38, 7592.455, 0.0, 9.999211, 9.999818 
5.1496005e+2, 2.6490507e+2, -432476.5, -428962.25, 53845.992, -0.08004797, -0.115930796, -376844.72, -32925.297, 0.0, 9.999552, 9.999606 
5.149519e+2, 2.7490535e+2, -160929.02, -251836.36, 52482.242, 0.03910511, -0.060688976, -136953.42, 108962.29, 0.0000000018853024, 10.000754, 9.999574 
5.1494265e+2, 2.8490448e+2, -86196.53, -272452.13, 81929.42, -0.002227938, -0.05601154, -55287.176, 92638.73, 0.00000034894228, 10.001058, 9.99861 
5.149324e+2, 2.949025e+2, -101923.24, -231867.88, 110893.8, -0.18086387, -0.14375518, -38369.938, 11578.94, 0.000004315403, 10.000281, 9.9985895 
5.149264e+2, 3.0490214e+2, 30149.754, -50433.08, 143179.75, 0.023105945, -0.07369983, 138599.19, 138599.19, 0.000026122347, 10.000481, 9.99941 
5.1491976e+2, 3.1490105e+2, 281780.66, 239513.11, 22787.283, 0.09514734, -0.14143415, 291725.75, 291725.75, 0.00008115159, 10.001436, 10.000943 
5.250774e+2, 1.2492172e+2, -1754671.3, -1845522.4, -141391.03, 0.20154084, -0.154518, -1651587.9, 64164.313, 0.000041741634, 10.000188, 9.998972 
5.2506196e+2, 1.3492072e+2, -1438823.8, -1651408.5, 62492.516, -0.3779239, -0.19025035, -1421814.1, 195949.9, 0.000010470756, 10.001676, 9.998968 
5.2505976e+2, 1.4492016e+2, -1246054.8, -1396695.6, 91909.94, 0.1468566, -0.18124826, -1202545.0, 317224.6, 0.0000009776196, 10.001887, 9.999909 
5.250475e+2, 1.5492152e+2, -1245737.9, -1341757.4, 2558.562, -0.19089296, -0.066028126, -1245669.8, 176084.2, 0.000000005050013, 10.001201, 9.999947 
5.250377e+2, 1.6492099e+2, -1319801.4, -1526477.6, 29634.385, -0.26824117, -0.022739554, -1315636.1, 8123.1597, 0.0, 10.000875, 9.998168 
5.2503115e+2, 1.7491823e+2, -1219967.1, -1432044.3, 74140.02, -0.06310585, -0.13475738, -1196618.9, 29169.814, 0.0, 10.000906, 9.998128 
5.2502304e+2, 1.8491681e+2, -1009680.7, -1071406.9, 96785.086, -0.018213462, -0.17653273, -938956.94, 188845.0, 0.0, 10.000791, 9.99998 
5.2501357e+2, 1.9491662e+2, -963699.25, -994528.75, 46454.2, -0.13781941, -0.21324763, -930169.06, 99630.66, 0.0, 10.00042, 10.000011 
5.2500576e+2, 2.0491661e+2, -911723.56, -1005745.06, 63872.57, -0.116151676, -0.17355998, -879426.56, 52371.527, 0.0, 10.000466, 9.999242 
5.2499986e+2, 2.1491666e+2, -748658.44, -875564.94, 63920.215, 0.05879826, -0.114488944, -722044.44, 111753.81, 0.0, 10.00091, 9.999248 
5.249929e+2, 2.2491601e+2, -689637.56, -840292.25, 77813.54, 0.108002044, -0.08223871, -656663.7, 79142.71, 0.0, 10.000836, 9.998854 
5.249846e+2, 2.3491439e+2, -681874.1, -787861.06, 64326.93, 0.027570868, -0.14642951, -651523.3, -13698.184, 0.0, 10.000221, 9.998841 
5.2497625e+2, 2.4491377e+2, -513838.56, -485115.3, 48853.07, -0.04330194, -0.16732387, -448556.63, 91275.484, 0.0, 9.999962, 10.00037 
5.2496773e+2, 2.5491408e+2, -398040.34, -377272.0, 31047.373, -0.105939075, -0.19864933, -354918.28, 86909.24, 0.0, 10.000075, 10.000383 
5.2496004e+2, 2.649144e+2, -315840.63, -407098.3, 10934.623, -0.07301329, -0.14635856, -314548.72, 29275.475, 0.0, 10.000503, 9.999295 
5.24953e+2, 2.7491453e+2, -109853.875, -259143.36, -11189.355, 0.056566104, -0.07936523, -109019.89, 136804.7, 0.00000000009174081, 10.001255, 9.999274 
5.2494395e+2, 2.8491366e+2, -5259.2656, -185709.8, -30555.166, 0.0141220465, -0.077448696, -225.84796, 147607.77, 0.00000033351301, 10.001412, 9.999029 
5.249329e+2, 2.9491183e+2, 17868.844, -134039.11, -38530.81, -0.18175802, -0.19150747, 27083.111, 76934.43, 0.0000041082662, 10.000924, 9.998954 
5.2492726e+2, 3.0491093e+2, 39678.875, -126586.49, 38678.254, 0.050398704, -0.16042767, 48236.164, 48236.164, 0.000024723933, 10.000888, 9.998691 
5.249212e+2, 3.1490958e+2, 231330.3, 189270.92, -132791.19, 0.12759304, -0.18385808, 344746.7, 344746.7, 0.000077842684, 10.001186, 10.000721 
5.350758e+2, 1.2493303e+2, -1715198.6, -1783408.6, -35151.54, -0.036417052, 0.004523155, -1700326.3, 15321.878, 0.000035627574, 10.00028, 9.999351 
5.3506315e+2, 1.34932e+2, -1409704.9, -1589180.6, 117976.72, -0.4430886, -0.07312303, -1351215.3, 266440.16, 0.000008273398, 10.001668, 9.999403 
5.3506285e+2, 1.4493068e+2, -1304946.4, -1511798.1, 56399.406, 0.24297673, -0.12248366, -1290568.1, 229097.89, 0.00000061502607, 10.001856, 9.99913 
5.350492e+2, 1.5492998e+2, -1301268.3, -1460090.5, -13370.078, -0.1649053, -0.14182858, -1300150.6, 121520.96, 0.00000000036285042, 10.00121, 9.999129 
5.3503895e+2, 1.6492905e+2, -1232885.5, -1341632.9, 20660.91, -0.2575437, -0.15826873, -1229092.5, 94586.19, 0.0, 10.000856, 9.999448 
5.3503305e+2, 1.749278e+2, -1127073.8, -1243742.6, 84668.72, 0.011473048, -0.24622416, -1082589.4, 143099.16, 0.0, 10.00092, 9.999419 
5.35025e+2, 1.8492717e+2, -1090596.1, -1232261.8, 75923.42, 0.080431774, -0.22035287, -1057594.1, 70099.59, 0.0, 10.000761, 9.998887 
5.35015e+2, 1.9492705e+2, -1051256.4, -1168340.9, 42844.65, -0.052783143, -0.14070845, -1037253.06, -7557.579, 0.0, 10.00038, 9.998841 
5.3500676e+2, 2.0492576e+2, -910308.6, -983857.3, 72717.766, -0.07817758, -0.17783277, -865595.4, 66110.64, 0.0, 10.000386, 9.999428 
5.350006e+2, 2.149232e+2, -747106.0, -853744.25, 87938.76, 0.021533916, -0.40112317, -697584.7, 136141.97, 0.0, 10.000826, 9.999438 
5.349932e+2, 2.2492224e+2, -713745.06, -869699.44, 46269.824, 0.036801968, -0.3999519, -701050.6, 34686.848, 0.0, 10.000747, 9.998695 
5.3498435e+2, 2.349228e+2, -706291.0, -815808.9, 48603.11, -0.03630678, -0.2364578, -687832.44, -50092.55, 0.0, 10.000124, 9.998693 
5.349761e+2, 2.4492307e+2, -542131.0, -529928.25, 46605.64, -0.065229245, -0.1439873, -489026.3, 50713.59, 0.0, 9.999906, 10.00009 
5.349685e+2, 2.54923e+2, -427151.84, -424399.22, 45136.457, -0.05805026, -0.18509297, -380618.1, 61120.34, 0.0, 10.000018, 10.000088 
5.349607e+2, 2.6492274e+2, -345271.16, -460342.9, 31978.209, -0.07780026, -0.15829964, -336981.63, 6759.627, 0.0, 10.000467, 9.998946 
5.3495264e+2, 2.7492213e+2, -142963.66, -313156.66, 28807.945, -0.12916432, -0.13363352, -138219.69, 107530.78, 0.0, 10.001187, 9.998939 
5.349441e+2, 2.8492147e+2, 5640.1973, -155273.33, -55941.895, -0.13820237, -0.10557436, 23177.242, 170934.03, 0.00000019037492, 10.001382, 9.999253 
5.349349e+2, 2.9492068e+2, 21289.152, -106650.69, -45819.918, -0.10496159, -0.13420814, 36006.05, 85767.25, 0.0000040138116, 10.000839, 9.999181 
5.3492904e+2, 3.0491856e+2, -58105.64, -327777.6, 47546.652, 0.11635316, -0.16747448, -49968.105, -49968.105, 0.000024880646, 10.000867, 9.997322 
5.3492033e+2, 3.149168e+2, 150599.03, 19808.08, -62454.367, -0.12775531, -0.102858126, 175630.97, 175630.97, 0.000077454766, 10.001179, 9.999562 
5.4507643e+2, 1.2494237e+2, -1546328.0, -1684135.8, 54761.625, -0.04443384, 0.0075111426, -1527217.3, 188340.45, 0.000030309948, 10.00137, 9.999527 
5.450645e+2, 1.3494158e+2, -1557641.3, -1638876.0, 57666.645, -0.41527957, -0.05830949, -1527723.5, 89837.28, 0.000006366235, 10.0005665, 9.999597 
5.450649e+2, 1.4494014e+2, -1538931.9, -1647865.1, 29821.063, 0.34738597, -0.11937093, -1531302.5, -11730.504, 0.00000037085837, 10.000343, 9.998933 
5.4505146e+2, 1.5493862e+2, -1293819.8, -1475496.9, -14712.909, -0.05814487, -0.198823, -1292635.9, 128949.945, 0.00000000007720086, 10.001345, 9.998958 
5.4504085e+2, 1.6493781e+2, -1088112.5, -1228019.4, 17007.328, -0.18813875, -0.21665981, -1086074.8, 237517.17, 0.0, 10.001675, 9.999824 
5.450341e+2, 1.7493758e+2, -1059804.9, -1164809.9, -5272.9307, 0.01780235, -0.24067785, -1059540.8, 166050.22, 0.0, 10.001201, 9.999816 
5.45026e+2, 1.849371e+2, -1029065.4, -1236350.1, 12632.71, 0.0803848, -0.2050587, -1028298.3, 99296.05, 0.0, 10.001309, 9.998605 
5.450166e+2, 1.9493628e+2, -827362.2, -1089107.1, 26641.672, -0.005456285, -0.16847926, -824678.0, 204925.11, 0.0, 10.002029, 9.998592 
5.4500836e+2, 2.0493466e+2, -704787.9, -919946.44, 73653.414, -0.032310177, -0.21253441, -681990.3, 249627.63, 0.0, 10.001951, 9.999119 
5.4500145e+2, 2.1493201e+2, -746732.6, -886469.8, 37093.66, 0.017685346, -0.4110348, -737496.44, 96144.45, 0.0, 10.000975, 9.999145 
5.449936e+2, 2.2493125e+2, -708817.1, -830276.2, 11694.151, 0.017742883, -0.391723, -707701.44, 27948.707, 0.0, 10.000621, 9.999026 
5.449849e+2, 2.349323e+2, -570774.2, -715810.25, 33249.133, -0.03350567, -0.20995222, -563515.2, 74131.65, 0.0, 10.000905, 9.999006 
5.4497665e+2, 2.4493264e+2, -439220.06, -524389.56, 58700.574, -0.048185486, -0.107921466, -409284.34, 130361.49, 0.0, 10.000797, 9.999699 
5.4496884e+2, 2.5493214e+2, -415147.9, -462190.94, 29429.4, -0.030878639, -0.1498262, -400995.13, 40653.15, 0.0, 10.000294, 9.999694 
5.44961e+2, 2.6493126e+2, -406039.9, -490927.97, 63437.11, -0.06922445, -0.16209444, -372157.25, -28501.158, 0.0, 10.00006, 9.998931 
5.449529e+2, 2.7492985e+2, -296318.88, -387743.22, 67974.695, -0.15493648, -0.22043195, -260115.45, -14443.769, 0.0, 10.000134, 9.998936 
5.4494506e+2, 2.8492913e+2, -134346.77, -243888.52, -16325.7705, -0.13074005, -0.18792492, -131965.39, 15712.197, 0.00000011177434, 10.000518, 9.999062 
5.44937e+2, 2.9492912e+2, 71308.13, -97682.09, -55152.0, 0.012537017, -0.12189416, 87714.79, 137389.27, 0.0000045059896, 10.001266, 9.999033 
5.4493093e+2, 3.0492625e+2, 30060.693, -331771.63, 80254.36, 0.19008282, -0.19996469, 47062.242, 47062.242, 0.000026381855, 10.001683, 9.996893 
5.4492104e+2, 3.1492418e+2, 147738.81, -50085.434, 28669.303, -0.1854818, -0.11619785, 151809.88, 151809.88, 0.00007890932, 10.001479, 9.998924 
5.550786e+2, 1.2495007e+2, -1538392.0, -1670516.8, 88435.555, -0.0068528, -0.100826256, -1494068.4, 221409.27, 0.000026661139, 10.001396, 9.999601 
5.550657e+2, 1.3494954e+2, -1562816.3, -1648457.3, 25374.016, -0.3740235, -0.13484432, -1555863.0, 61616.406, 0.0000052899522, 10.000572, 9.999526 
5.5506593e+2, 1.4494851e+2, -1505531.1, -1585362.0, 51192.605, 0.38444757, -0.17066674, -1480531.8, 38955.613, 0.00000021782215, 10.000366, 9.999353 
5.5505407e+2, 1.5494747e+2, -1259867.8, -1413074.1, 34817.465, 0.042312272, -0.24265581, -1252326.4, 169170.72, 0.00000000000011946363, 10.001368, 9.999383 
5.5504304e+2, 1.6494721e+2, -1126869.4, -1302997.4, -7681.308, -0.1541033, -0.20077176, -1126535.1, 196964.31, 0.0, 10.0016575, 9.999312 
5.5503404e+2, 1.749475e+2, -1099918.6, -1244114.9, -14467.76, -0.12204084, -0.12291593, -1098481.4, 127015.33, 0.0, 10.001184, 9.999279 
5.550258e+2, 1.8494661e+2, -995241.3, -1153549.1, 32182.393, -0.08765134, -0.13136013, -988949.06, 138554.64, 0.0, 10.001256, 9.9992 
5.550182e+2, 1.9494437e+2, -793162.75, -1010162.94, 62241.3, -0.071496375, -0.293443, -776577.9, 252944.4, 0.0, 10.001987, 9.999161 
5.550102e+2, 2.0494322e+2, -767710.06, -1032236.3, 30363.252, -0.06041605, -0.28086376, -764269.6, 167264.83, 0.0, 10.001876, 9.998381 
5.5500203e+2, 2.14943e+2, -815439.75, -1007191.8, 9658.606, -0.03808192, -0.16032948, -814954.44, 18587.338, 0.0, 10.000876, 9.998365 
5.54994e+2, 2.2494294e+2, -672554.94, -726379.4, 15649.709, -0.027635999, -0.071644574, -668335.5, 67209.766, 0.0, 10.0005045, 9.999793 
5.549858e+2, 2.3494291e+2, -532840.25, -610157.7, 54734.227, -0.039232343, -0.07235352, -504489.0, 133056.72, 0.0, 10.000792, 9.999784 
5.549774e+2, 2.4494252e+2, -487396.6, -608856.2, 34101.484, -0.071037695, -0.05558987, -478477.13, 61071.973, 0.0, 10.000728, 9.999155 
5.549685e+2, 2.5494155e+2, -465282.7, -547194.0, 20024.82, -0.11868658, -0.08854586, -460649.3, -19092.324, 0.0, 10.00021, 9.999151 
5.5496067e+2, 2.6494e+2, -390324.1, -448038.16, 58718.754, -0.12222813, -0.16298091, -353754.7, -10185.114, 0.0, 10.000018, 9.999245 
5.5495393e+2, 2.749376e+2, -287405.34, -353189.22, 80016.86, -0.095387824, -0.3447755, -233783.83, 11805.068, 0.0, 10.000067, 9.999206 
5.549467e+2, 2.8493658e+2, -180819.28, -335793.8, 4167.2407, -0.03419296, -0.32465214, -180707.31, -33110.79, 0.00000024371042, 10.000492, 9.998446 
5.5493903e+2, 2.949369e+2, 25431.973, -186301.75, -14879.982, 0.06256645, -0.1642114, 26472.578, 76065.49, 0.0000058589785, 10.001227, 9.998446 
5.5493265e+2, 3.0493382e+2, 60221.664, -265799.25, 69858.52, 0.17399824, -0.25808278, 74560.08, 74560.08, 0.000029984647, 10.001669, 9.997351 
5.549227e+2, 3.1493145e+2, 126769.09, -81073.445, 61898.496, -0.20608713, -0.25353488, 143806.72, 143806.72, 0.00008416486, 10.001414, 9.998747 
5.650807e+2, 1.24958366e+2, -1518113.0, -1696156.5, 195344.03, 0.056807443, -0.17390199, -1392462.6, 322927.28, 0.000022362587, 10.001668, 9.99929 
5.650668e+2, 1.3495742e+2, -1514899.6, -1666048.1, -19486.172, -0.3272893, -0.2202947, -1512427.9, 104971.61, 0.000004259607, 10.001058, 9.999168 
5.650659e+2, 1.4495677e+2, -1443755.0, -1486961.3, 71468.89, 0.34903494, -0.22822852, -1390695.5, 128709.586, 0.00000013010742, 10.000502, 9.999964 
5.6505495e+2, 1.549571e+2, -1342016.5, -1377424.0, 53856.273, 0.045652162, -0.22651139, -1303028.9, 118371.51, 0.0, 10.000495, 10.000044 
5.650446e+2, 1.649571e+2, -1268014.5, -1402516.6, 33850.35, -0.12275935, -0.17761233, -1259975.8, 63424.184, 0.0, 10.000811, 9.999048 
5.6503594e+2, 1.749565e+2, -1078711.5, -1261433.5, 28686.197, -0.06171578, -0.16201322, -1074313.9, 151092.86, 0.0, 10.001441, 9.999039 
5.650275e+2, 1.8495539e+2, -932394.75, -1108526.1, 91255.37, -0.062143307, -0.18756528, -893641.2, 233775.13, 0.0, 10.001631, 9.999322 
5.65019e+2, 1.9495364e+2, -881637.4, -1032890.75, 74374.08, -0.1486757, -0.3175352, -851193.8, 178236.27, 0.0, 10.001307, 9.999323 
5.65011e+2, 2.0495297e+2, -846518.7, -1054048.8, 53470.277, -0.12954399, -0.27161163, -833552.2, 97885.46, 0.0, 10.0012665, 9.998524 
5.650038e+2, 2.1495333e+2, -717665.25, -939553.2, 83086.016, 0.023040898, -0.10842905, -690002.4, 143437.64, 0.0, 10.001471, 9.998536 
5.649955e+2, 2.2495322e+2, -546511.75, -686082.2, 122329.22, 0.042453967, -0.024381233, -475462.28, 259981.4, 0.0, 10.00145, 9.999616 
5.6498647e+2, 2.3495248e+2, -491581.44, -606125.25, 75632.4, -0.06973558, -0.08086643, -453983.28, 183466.55, 0.0, 10.001143, 9.999638 
5.649777e+2, 2.4495158e+2, -475216.0, -628514.06, 36067.26, -0.11775905, -0.0960631, -467154.22, 72303.2, 0.0, 10.000947, 9.9989 
5.649693e+2, 2.5495023e+2, -378740.88, -537181.44, 24250.305, -0.09093818, -0.14015429, -375112.3, 66356.64, 0.0, 10.000951, 9.99886 
5.6496185e+2, 2.6494855e+2, -232095.66, -390699.78, 93652.62, -0.061234392, -0.20190023, -188680.03, 154802.44, 0.0, 10.001187, 9.999071 
5.649553e+2, 2.7494642e+2, -65065.78, -259303.05, 62606.43, -0.03557709, -0.34407178, -46635.316, 198863.44, 0.0, 10.001663, 9.99907 
5.649483e+2, 2.8494495e+2, -6792.3965, -314931.3, -1816.4186, 0.0048819287, -0.3362226, -6781.6895, 140729.8, 0.00000046127252, 10.001948, 9.997891 
5.6494075e+2, 2.9494408e+2, 107826.38, -209808.5, -31179.297, 0.07703294, -0.23512079, 110858.03, 160378.84, 0.000007820285, 10.002058, 9.9978895 
5.649341e+2, 3.0494136e+2, 96072.836, -155742.13, 44174.086, 0.1631432, -0.3106812, 103597.15, 103597.15, 0.00003595913, 10.001517, 9.998181 
5.64924e+2, 3.1494015e+2, -36072.656, -103536.59, 37303.824, -0.14323314, -0.27057862, -19511.277, -19511.277, 0.000094486146, 10.000064, 9.999239 
5.750822e+2, 1.2496709e+2, -1557860.9, -1785421.5, 216701.98, -0.009048224, -0.23019406, -1426884.8, 288411.2, 0.000015098279, 10.0017, 9.998655 
5.7506764e+2, 1.3496512e+2, -1560529.5, -1760227.6, -45407.52, -0.3766063, -0.3164011, -1550689.5, 66632.445, 0.0000026568694, 10.001051, 9.998522 
5.750647e+2, 1.4496493e+2, -1389592.8, -1369250.1, 54534.33, 0.15342966, -0.28805143, -1323946.8, 195378.33, 0.000000050157187, 10.0004835, 10.00078 
5.7505393e+2, 1.5496741e+2, -1287122.6, -1261766.3, 62628.96, -0.12508982, -0.15092374, -1210545.1, 210751.5, 0.0, 10.000491, 10.000842 
5.750451e+2, 1.6496736e+2, -1263734.6, -1392580.4, 46238.69, -0.16934906, -0.15125857, -1248858.6, 74436.15, 0.0, 10.0008, 9.999122 
5.750393e+2, 1.7496455e+2, -1076767.8, -1257530.5, 59985.395, 0.11282487, -0.36209145, -1058673.1, 166648.53, 0.0, 10.001435, 9.99907 
5.750306e+2, 1.8496351e+2, -955861.7, -1147563.0, 72968.74, 0.07096919, -0.36885253, -931247.5, 196084.17, 0.0, 10.001595, 9.999069 
5.750188e+2, 1.9496407e+2, -909497.06, -1075842.1, 71595.2, -0.32342836, -0.24044935, -882926.5, 146400.11, 0.0, 10.0012455, 9.999059 
5.750106e+2, 2.0496391e+2, -788345.6, -910607.9, 52296.44, -0.3124157, -0.18146373, -769028.44, 162299.14, 0.0, 10.001168, 9.999554 
5.7500637e+2, 2.1496297e+2, -661742.2, -799255.2, 98721.18, 0.11672111, -0.2531194, -610193.5, 223142.36, 0.0, 10.001365, 9.999551 
5.7499826e+2, 2.2496206e+2, -630241.0, -838696.0, 103113.164, 0.14972572, -0.25028598, -587854.4, 147491.39, 0.0, 10.001357, 9.998612 
5.7498634e+2, 2.3496102e+2, -578576.4, -763798.2, 73691.08, -0.21783231, -0.23406541, -552835.44, 84523.445, 0.0, 10.001043, 9.998605 
5.749773e+2, 2.449597e+2, -481646.5, -637109.0, 27763.344, -0.27619132, -0.234125, -476837.16, 62534.45, 0.0, 10.000915, 9.998863 
5.749711e+2, 2.54958e+2, -389942.38, -545777.5, 34181.875, -0.026424026, -0.3101876, -382774.4, 58610.973, 0.0, 10.000882, 9.9988365 
5.749643e+2, 2.649569e+2, -277394.72, -483707.94, 104388.7, 0.044788163, -0.28312176, -233792.03, 109602.96, 0.0, 10.001171, 9.9984455 
5.749568e+2, 2.7495617e+2, -112808.17, -353591.97, 86618.91, -0.07375983, -0.2193916, -84886.06, 160516.02, 0.0, 10.001626, 9.998448 
5.749493e+2, 2.8495413e+2, -44456.563, -379506.44, -7682.3755, -0.10489386, -0.21701527, -44280.504, 103142.49, 0.0000006054728, 10.001894, 9.997474 
5.749418e+2, 2.949507e+2, 67456.02, -277306.53, -15388.909, -0.0423288, -0.3342671, 68141.56, 117600.04, 0.000009307056, 10.001995, 9.997454 
5.7493496e+2, 3.0494875e+2, 179879.94, 15937.608, -13213.156, 0.081153244, -0.36114478, 180938.05, 180938.05, 0.000040671366, 10.0015135, 9.999373 
5.7492435e+2, 3.1495005e+2, 39947.344, 61609.055, 4532.017, -0.15994945, -0.19682619, 62519.01, 62519.01, 0.000103750725, 10.000014, 10.000409 
5.85083e+2, 1.2497525e+2, -1631126.4, -1804721.3, 221682.81, -0.056992352, -0.3028277, -1479854.4, 235359.28, 0.000008007214, 10.001098, 9.998825 
5.8506906e+2, 1.3497454e+2, -1712097.1, -1808365.5, -66107.42, -0.27844098, -0.2819075, -1678456.6, -61227.977, 0.0000012151539, 9.999902, 9.998749 
5.850646e+2, 1.4497441e+2, -1521692.3, -1447396.6, 113417.28, 0.13908166, -0.25070027, -1365198.5, 154033.0, 0.000000012980553, 9.999645, 10.000637 
5.850545e+2, 1.5497592e+2, -1250439.4, -1259926.3, 32745.428, -0.12555887, -0.20022225, -1222095.6, 199116.8, 0.0, 10.000808, 10.000692 
5.850463e+2, 1.6497579e+2, -1156386.1, -1332525.6, -4531.916, -0.15993421, -0.20409507, -1156269.6, 166941.86, 0.0, 10.001503, 9.999191 
5.85041e+2, 1.7497389e+2, -1022962.94, -1218717.6, -5506.7837, 0.12522703, -0.33496118, -1022808.2, 202422.3, 0.0, 10.001752, 9.999179 
5.8503246e+2, 1.8497303e+2, -968753.56, -1152532.9, -2411.0708, 0.10378131, -0.33022702, -968721.94, 158516.89, 0.0, 10.0015, 9.999085 
5.850204e+2, 1.9497307e+2, -989620.06, -1112717.9, -1100.6188, -0.246054, -0.25316203, -989610.25, 39627.97, 0.0, 10.000686, 9.999079 
5.850118e+2, 2.0497265e+2, -861729.56, -905641.2, 17299.473, -0.27162367, -0.24131024, -855733.1, 75506.87, 0.0, 10.0004835, 9.99992 
5.850067e+2, 2.1497165e+2, -701384.4, -777105.25, 1040.8649, 0.04402405, -0.3567229, -701370.06, 131875.6, 0.0, 10.000908, 9.999927 
5.849988e+2, 2.2497073e+2, -704037.56, -898053.3, 2806.902, 0.08992142, -0.36134487, -703997.0, 31257.217, 0.0, 10.000965, 9.998395 
5.8498794e+2, 2.3496969e+2, -651371.5, -827157.0, 14210.557, -0.13822454, -0.32052988, -650230.1, -12962.39, 0.0, 10.000662, 9.998361 
5.8497924e+2, 2.4496819e+2, -483868.1, -671415.94, 39201.84, -0.17206235, -0.31415245, -476003.75, 63279.5, 0.0, 10.001034, 9.998571 
5.8497274e+2, 2.5496614e+2, -216815.98, -493396.16, 11339.515, -0.009067422, -0.39988226, -216351.86, 224949.66, 0.0, 10.0022, 9.998559 
5.8496577e+2, 2.6496506e+2, -197384.86, -461925.6, 57916.965, 0.045695145, -0.3447207, -185260.55, 158051.36, 0.0, 10.001805, 9.998285 
5.849582e+2, 2.7496487e+2, -371970.3, -497909.47, 59425.98, -0.008426245, -0.21331298, -348356.9, -103040.82, 0.0, 9.999938, 9.998269 
5.8495057e+2, 2.8496295e+2, -279566.38, -437687.63, 100228.23, -0.07145556, -0.21261165, -230970.13, -83634.51, 0.00000055145284, 10.000045, 9.997962 
5.8494294e+2, 2.9495928e+2, 106255.91, -207316.1, 143564.97, -0.12810978, -0.39822945, 162055.77, 211426.75, 0.000008783807, 10.002043, 9.99791 
5.8493614e+2, 3.0495766e+2, 270309.34, 46866.113, 48579.66, 0.01987826, -0.40908724, 280414.25, 280414.25, 0.000039667964, 10.0021925, 9.999247 
5.8492553e+2, 3.1495944e+2, 103589.74, 91641.62, -65150.23, -0.057173748, -0.19336613, 163039.23, 163039.23, 0.00010388018, 10.000457, 10.000387 
5.95083e+2, 1.24982685e+2, -1544816.1, -1628346.8, 182932.98, -0.21953164, -0.39506358, -1398941.3, 316202.78, 0.0000033726953, 10.001127, 10.000014 
5.950707e+2, 1.349856e+2, -1634108.3, -1648747.5, -113397.1, -0.11366075, -0.12129107, -1527794.8, 89325.16, 0.00000044999516, 9.99992, 9.999834 
5.950652e+2, 1.4498518e+2, -1593425.4, -1597252.5, 142113.67, 0.20727506, -0.12496386, -1453212.4, 65912.586, 0.000000014541682, 9.99965, 9.999604 
5.9505635e+2, 1.5498266e+2, -1328102.6, -1419782.1, 83314.24, -0.051656716, -0.37102556, -1278850.1, 142297.27, 0.0, 10.000801, 9.999599 
5.9504783e+2, 1.6498254e+2, -1153987.8, -1317400.3, -4824.4326, -0.17637841, -0.32365358, -1153845.5, 169303.34, 0.0, 10.001464, 9.999314 
5.9504074e+2, 1.7498454e+2, -1015324.75, -1197917.5, 12791.869, -0.102059305, -0.07510666, -1014432.94, 210699.7, 0.0, 10.001734, 9.9993305 
5.9503263e+2, 1.8498392e+2, -953411.1, -1113286.3, -42355.0, -0.04426039, -0.06989991, -942883.44, 184254.56, 0.0, 10.001467, 9.999372 
5.950237e+2, 1.9498055e+2, -979241.0, -1077555.9, -23978.51, -0.011941574, -0.3619757, -973704.56, 55461.285, 0.0, 10.000627, 9.99935 
5.950143e+2, 2.0497912e+2, -887257.6, -941261.1, 25552.314, -0.092063926, -0.45448348, -877083.94, 54091.58, 0.0, 10.000407, 9.999713 
5.9500456e+2, 2.1497944e+2, -730042.9, -815453.6, 26489.232, -0.2758244, -0.41362327, -722494.6, 110674.19, 0.0, 10.000817, 9.999709 
5.949968e+2, 2.2497933e+2, -677682.44, -827449.1, -17362.402, -0.21588778, -0.353753, -675695.94, 59472.477, 0.0, 10.000891, 9.998919 
5.9499097e+2, 2.3497854e+2, -629908.44, -760308.6, 11228.697, 0.0842804, -0.33998567, -628948.6, 8227.944, 0.0, 10.00056, 9.998873 
5.9498334e+2, 2.4497698e+2, -526451.06, -751811.8, 75644.12, 0.11085762, -0.33877742, -503415.2, 35777.55, 0.0, 10.000992, 9.998043 
5.9497386e+2, 2.5497457e+2, -262888.22, -573338.2, 61765.547, -0.13424906, -0.40797368, -251051.0, 190166.63, 0.0, 10.002128, 9.998047 
5.949659e+2, 2.649731e+2, -183772.47, -421626.88, -21047.344, -0.14192307, -0.38314548, -181924.39, 161308.7, 0.0, 10.001758, 9.998585 
5.9495914e+2, 2.7497238e+2, -362862.38, -461612.63, -485.43503, 0.073611185, -0.33254072, -362860.0, -117618.72, 0.0, 9.999864, 9.998554 
5.949518e+2, 2.8497133e+2, -189345.33, -238463.84, 167860.9, 0.02564742, -0.3306897, -44256.598, 102992.984, 0.0000003359344, 9.999995, 9.999351 
5.949437e+2, 2.949699e+2, 192278.08, -8309.575, 227077.81, -0.2760339, -0.4378063, 340224.4, 389482.78, 0.000006914508, 10.001961, 9.999311 
5.949373e+2, 3.0496806e+2, 155250.98, -183567.63, -21944.24, -0.099340126, -0.46303558, 156666.33, 156666.33, 0.000035638073, 10.0021515, 9.997687 
5.9492695e+2, 3.1496832e+2, 2268.4678, -94807.02, -101850.375, -0.009124663, -0.2359916, 66555.414, 66555.414, 0.00009897654, 10.000357, 9.999154 
6.050845e+2, 1.249918e+2, -1705478.3, -1715646.9, 219271.25, -0.12351586, -0.3237672, -1491232.4, 223826.31, 0.0000011578151, 10.000058, 9.999944 
6.0507244e+2, 1.3499439e+2, -1428292.0, -1540675.3, -203075.63, 0.0009205872, -0.08481093, -1273777.3, 343258.94, 0.00000014603442, 10.001316, 9.999892 
6.0506487e+2, 1.4499375e+2, -1366369.9, -1521581.8, 68695.96, 0.13581659, -0.09750976, -1340333.1, 178709.97, 0.0000000031309833, 10.001348, 9.999317 
6.050572e+2, 1.5499116e+2, -1389125.5, -1480753.6, 45940.01, -0.02116764, -0.315674, -1370059.6, 51007.457, 0.0, 10.000517, 9.999325 
6.0504895e+2, 1.6499108e+2, -1346975.6, -1364767.0, 10044.772, -0.12786905, -0.27572224, -1342453.8, -19385.447, 0.0, 9.9999275, 9.999735 
6.0504097e+2, 1.7499317e+2, -1307215.4, -1294203.6, 32199.32, -0.13613269, -0.05923165, -1267859.5, -42810.113, 0.0, 9.999528, 9.99974 
6.050331e+2, 1.8499286e+2, -1147099.8, -1174507.0, 15278.401, -0.06976887, -0.05820497, -1140279.8, -13229.152, 0.0, 10.000003, 9.999654 
6.0502535e+2, 1.9498996e+2, -852252.9, -983375.7, 17850.51, 0.063592836, -0.33233204, -849866.2, 179207.08, 0.0, 10.001356, 9.999642 
6.05016e+2, 2.0498848e+2, -745866.2, -937589.8, 54307.723, -0.019105263, -0.41627374, -731551.7, 199532.42, 0.0, 10.001659, 9.99914 
6.05005e+2, 2.1498822e+2, -766778.7, -897952.75, 11206.17, -0.31144556, -0.3750475, -765828.25, 67256.74, 0.0, 10.00084, 9.999133 
6.049973e+2, 2.2498769e+2, -657129.2, -810719.94, -23597.451, -0.26311135, -0.32977843, -653585.44, 81503.06, 0.0, 10.001003, 9.998976 
6.0499275e+2, 2.3498672e+2, -389925.94, -631330.2, -45787.625, 0.13040712, -0.34272125, -381533.13, 255563.38, 0.0, 10.002166, 9.998976 
6.049852e+2, 2.4498548e+2, -414677.63, -665850.8, 13859.001, 0.16990505, -0.32884163, -413915.25, 125193.71, 0.0, 10.001648, 9.998308 
6.049746e+2, 2.5498378e+2, -627065.6, -718488.2, 42571.023, -0.13985255, -0.348178, -610312.4, -169185.06, 0.0, 9.999512, 9.998306 
6.049665e+2, 2.649823e+2, -441107.2, -533402.6, 34681.063, -0.15978818, -0.34372553, -429528.06, -86385.25, 0.0, 9.999921, 9.998712 
6.049608e+2, 2.749809e+2, 79771.79, -235745.22, 25368.15, 0.1103907, -0.37502417, 81798.414, 326955.38, 0.0, 10.002832, 9.998685 
6.049534e+2, 2.8498003e+2, 218035.44, -34441.86, 117977.17, 0.057792246, -0.36223283, 264582.22, 411745.28, 0.00000016006682, 10.002753, 9.999429 
6.049444e+2, 2.949797e+2, -128586.81, -154099.08, 57986.617, -0.29238468, -0.3632827, -81969.83, -32808.496, 0.0000052467194, 9.999703, 9.999402 
6.0493815e+2, 3.0497763e+2, -214106.16, -389838.06, -127729.44, -0.10081584, -0.40616405, -146939.1, -146939.1, 0.000031333126, 9.999747, 9.99743 
6.04929e+2, 3.149772e+2, 326151.22, 7898.1772, -136393.06, 0.040826656, -0.21796694, 376606.0, 376606.0, 0.000092264556, 10.002813, 9.998691 
6.150869e+2, 1.250027e+2, -1781720.9, -1877166.8, 219518.56, 0.07016728, -0.08296286, -1604797.8, 110158.98, 0.00000031033701, 10.000086, 9.998813 
6.150738e+2, 1.3500099e+2, -1502958.1, -1692737.4, -151836.45, -0.01982884, -0.16559263, -1418799.3, 198177.0, 0.000000018009526, 10.001316, 9.998843 
6.1506355e+2, 1.4500019e+2, -1332179.6, -1458954.1, 20414.967, -0.16039066, -0.16573179, -1328973.3, 190012.16, 0.0, 10.00137, 9.999739 
6.1505693e+2, 1.550014e+2, -1352048.1, -1417146.3, 22102.58, -0.1192818, -0.04624388, -1345253.0, 75719.32, 0.0, 10.000558, 9.999749 
6.150493e+2, 1.6500133e+2, -1299491.4, -1257600.5, -14205.313, -0.10343343, -0.06385726, -1253237.8, 69732.64, 0.0, 9.999899, 10.000483 
6.150415e+2, 1.7499973e+2, -1256837.0, -1191532.0, 25661.307, -0.05102398, -0.29044488, -1182655.1, 42326.44, 0.0, 9.999534, 10.000444 
6.150335e+2, 1.8499981e+2, -1135106.5, -1135176.3, 58145.418, -0.050250057, -0.29876333, -1076995.9, 49981.61, 0.0, 9.999943, 9.999949 
6.150253e+2, 1.950014e+2, -840559.3, -947727.9, 77892.71, -0.10019694, -0.15440153, -799599.7, 229360.06, 0.0, 10.001306, 9.999913 
6.1501664e+2, 2.0500083e+2, -822130.44, -1076962.3, 15166.35, -0.1346371, -0.11221033, -821231.0, 109733.68, 0.0, 10.001579, 9.998219 
6.150077e+2, 2.14998e+2, -848802.2, -1043957.0, -12137.703, -0.14396778, -0.23824415, -848050.2, -15056.338, 0.0, 10.000734, 9.998182 
6.149998e+2, 2.2499585e+2, -697694.1, -874098.3, 14058.918, -0.127322, -0.28727973, -696580.75, 38433.496, 0.0, 10.00091, 9.998587 
6.149929e+2, 2.3499428e+2, -430278.84, -694334.06, 7475.778, -0.08492646, -0.3231924, -430067.34, 206959.72, 0.0, 10.002073, 9.998589 
6.149845e+2, 2.4499361e+2, -351485.38, -522691.7, -76336.06, -0.07839397, -0.28271666, -322392.88, 216639.44, 0.0, 10.001594, 9.999317 
6.149746e+2, 2.5499368e+2, -568931.6, -581734.9, -31549.11, -0.108867146, -0.22964866, -543141.2, -102109.5, 0.0, 9.999438, 9.999282 
6.1496735e+2, 2.6499262e+2, -450967.25, -542438.8, 137622.19, -0.08088821, -0.22820082, -351680.16, -8638.643, 0.0, 9.999874, 9.998671 
6.149627e+2, 2.7499032e+2, 65037.324, -246515.05, 146855.69, -0.0017019177, -0.34433636, 123347.125, 368410.28, 0.0, 10.002753, 9.998646 
6.149551e+2, 2.8498912e+2, 122750.98, -224341.73, -7396.6646, -0.068758816, -0.30381545, 122908.53, 269984.22, 0.00000012615395, 10.002715, 9.998141 
6.1494446e+2, 2.949889e+2, -230887.05, -339993.66, -50798.867, -0.27514637, -0.16967896, -210897.83, -161818.64, 0.000004351736, 9.999595, 9.998174 
6.149385e+2, 3.0498657e+2, -151234.78, -250512.19, -17533.746, -0.06773412, -0.22723791, -148229.08, -148229.08, 0.000027327982, 9.999703, 9.998417 
6.1493087e+2, 3.1498614e+2, 338617.44, 52620.863, 20453.797, -0.096626796, -0.12937966, 340072.84, 340072.84, 0.00008383067, 10.002737, 9.999037 
6.2508744e+2, 1.250113e+2, -1723017.5, -1851867.6, 192476.52, 0.1052211, -0.014892512, -1584470.1, 130403.5, 0.000000031381585, 10.0004835, 9.998809 
6.2507534e+2, 1.3500857e+2, -1521383.5, -1695884.0, -94204.36, 0.02159874, -0.20408542, -1480231.8, 136669.34, 0.000000000001578113, 10.001142, 9.998921 
6.250638e+2, 1.450076e+2, -1409607.4, -1517952.5, 59068.434, -0.24633491, -0.213102, -1383631.6, 135279.67, 0.0, 10.000938, 9.999537 
6.2505794e+2, 1.5500942e+2, -1401551.1, -1457968.1, -465.91193, -0.06492124, -0.015859492, -1401547.3, 19346.717, 0.0, 10.000317, 9.999568 
6.250504e+2, 1.6500923e+2, -1254601.0, -1230276.8, -42107.18, 0.005284994, -0.037164982, -1198610.4, 124282.664, 0.0, 10.000186, 10.000532 
6.2504214e+2, 1.7500687e+2, -1130753.5, -1117548.4, -74864.22, 0.02075776, -0.34721005, -1048996.1, 175914.22, 0.0, 10.000365, 10.000541 
6.250338e+2, 1.8500699e+2, -1072486.4, -1089298.9, -31697.484, -0.023315324, -0.36415207, -1048099.44, 78805.89, 0.0, 10.000285, 10.000109 
6.2502545e+2, 1.9500937e+2, -1035679.06, -1021028.3, -35394.0, -0.13681656, -0.15873912, -992209.56, 36670.48, 0.0, 9.999869, 10.000103 
6.2501746e+2, 2.0500924e+2, -1013711.25, -1181576.8, -64599.367, -0.14239687, -0.080275506, -991729.94, -60848.227, 0.0, 10.000314, 9.998113 
6.2501e+2, 2.1500634e+2, -730643.8, -993285.1, -45312.582, -0.023696834, -0.20144118, -723046.0, 109866.51, 0.0, 10.00158, 9.99812 
6.2500197e+2, 2.2500396e+2, -625640.7, -839355.75, 26629.896, -0.017949702, -0.27163997, -622372.44, 112562.914, 0.0, 10.001408, 9.998584 
6.249934e+2, 2.350019e+2, -762497.8, -856535.4, 32735.309, -0.12106091, -0.35306066, -752224.7, -115272.58, 0.0, 9.999798, 9.998572 
6.2498486e+2, 2.4500111e+2, -574507.25, -628169.3, -49789.51, -0.12262983, -0.32566315, -544779.5, -5821.4, 0.0, 10.000033, 9.999355 
6.249763e+2, 2.5500146e+2, -172407.08, -384272.97, -93086.445, -0.018018365, -0.24934523, -137319.19, 303635.44, 0.0, 10.002127, 9.999348 
6.2496936e+2, 2.650006e+2, -121576.26, -399651.53, 69262.43, 0.017287906, -0.22440507, -105279.586, 237683.28, 0.0, 10.002201, 9.9985285 
6.24964e+2, 2.7499837e+2, -312622.72, -444373.78, 51769.543, -0.020025026, -0.32263884, -294714.75, -49729.676, 0.0, 10.000221, 9.998504 
6.249561e+2, 2.8499696e+2, -282269.7, -413433.0, -85604.086, -0.10401577, -0.29337987, -240013.42, -93014.11, 0.000000116905284, 9.999913, 9.998194 
6.2494546e+2, 2.9499635e+2, 22890.82, -217530.47, -48776.375, -0.21447873, -0.20059542, 32409.639, 81415.71, 0.000004287332, 10.001323, 9.998194 
6.249398e+2, 3.0499434e+2, 159521.11, -70611.93, 101891.65, 0.0078082406, -0.2395966, 198149.78, 198149.78, 0.000025852014, 10.00172, 9.998672 
6.2493306e+2, 3.1499392e+2, 74620.81, -96689.75, 67611.266, -0.055349264, -0.1693921, 98089.82, 98089.82, 0.00007867894, 10.001018, 9.998831 
6.3508576e+2, 1.2501751e+2, -1632738.1, -1679999.9, 129601.91, -0.16750894, -0.12317364, -1524630.4, 190180.2, 0.0000000061075784, 10.000553, 9.999953 
6.3507676e+2, 1.3501702e+2, -1441761.5, -1531879.5, -72035.67, 0.03660972, -0.20318756, -1401853.1, 214958.52, 0.0, 10.001143, 10.00005 
6.3506526e+2, 1.4501601e+2, -1463989.0, -1623964.4, 23001.295, -0.2159353, -0.23396514, -1460747.5, 58073.56, 0.0, 10.000914, 9.99882 
6.350598e+2, 1.550152e+2, -1448407.5, -1566788.3, -11075.252, 0.06361988, -0.22693376, -1447380.3, -26548.158, 0.0, 10.000358, 9.998808 
6.350519e+2, 1.6501474e+2, -1300113.0, -1320466.3, -44956.75, 0.11404987, -0.20745023, -1264195.5, 58641.5, 0.0, 10.00017, 9.999918 
6.350425e+2, 1.7501453e+2, -1172295.6, -1209273.4, -59937.164, -0.001100839, -0.24033251, -1128060.5, 96776.19, 0.0, 10.000379, 9.99991 
6.350337e+2, 1.8501428e+2, -1072428.5, -1079710.9, -54962.902, -0.07648886, -0.26522282, -1020986.3, 105849.01, 0.0, 10.00025, 10.000188 
6.3502556e+2, 1.9501384e+2, -1037819.6, -1016024.8, -43528.063, -0.12960927, -0.35081956, -982050.8, 46784.016, 0.0, 9.9998255, 10.000159 
6.3501817e+2, 2.0501354e+2, -976068.44, -1078794.4, -25931.95, -0.11696493, -0.32660675, -969893.4, -39057.254, 0.0, 10.00021, 9.998867 
6.350117e+2, 2.1501324e+2, -693950.94, -888984.56, 11409.195, -0.035061423, -0.26512054, -693285.8, 139555.13, 0.0, 10.001461, 9.998894 
6.350036e+2, 2.2501194e+2, -614599.06, -793972.8, -41707.02, -0.014787525, -0.28279158, -605375.8, 129476.64, 0.0, 10.001307, 9.998946 
6.34994e+2, 2.3500952e+2, -752283.6, -811988.2, -17686.547, -0.062382743, -0.441236, -747437.56, -110565.055, 0.0, 9.999692, 9.998932 
6.3498586e+2, 2.4500795e+2, -650301.56, -768837.94, 22711.162, -0.043204032, -0.46268123, -646099.2, -107212.625, 0.0, 9.999965, 9.998421 
6.3497925e+2, 2.550071e+2, -249129.23, -526904.25, -5814.8945, 0.046452135, -0.40999323, -249007.56, 191888.52, 0.0, 10.002052, 9.9984045 
6.3497216e+2, 2.650062e+2, -149571.27, -441052.75, -15221.842, 0.05798112, -0.3290449, -148778.5, 194128.55, 0.0, 10.002137, 9.998271 
6.3496435e+2, 2.7500504e+2, -349367.4, -490254.63, -14790.823, -0.02528261, -0.29831892, -347831.34, -102909.2, 0.0, 10.000099, 9.998245 
6.3495594e+2, 2.8500363e+2, -188566.03, -207415.75, -43190.62, -0.12419158, -0.32811064, -153783.9, -6849.9287, 0.0000001448745, 9.999865, 9.999635 
6.34947e+2, 2.9500207e+2, 107073.47, -18985.49, 16415.607, -0.21850134, -0.46672714, 109176.06, 158117.78, 0.000005079309, 10.001238, 9.999593 
6.349419e+2, 3.0500114e+2, 117149.48, -166088.1, 70716.336, 0.02080761, -0.4371452, 133823.72, 133823.72, 0.000027855136, 10.001733, 9.998017 
6.3493484e+2, 3.150005e+2, -14494.804, -249405.25, 89350.04, -0.025417965, -0.32844847, 15627.609, 15627.609, 0.00008145653, 10.000874, 9.997853 
6.4508504e+2, 1.2502334e+2, -1695338.0, -1675011.3, 57174.535, -0.25296673, -0.207308, -1627103.9, 87648.164, 0.0000000021671396, 9.999967, 10.000274 
6.4507866e+2, 1.3502401e+2, -1528783.9, -1531223.6, -171627.05, 0.15432453, -0.20455939, -1358372.4, 258369.5, 0.0, 10.00039, 10.000399 
6.450666e+2, 1.4502352e+2, -1488181.0, -1604988.8, -70955.12, -0.15149413, -0.2171615, -1454684.8, 64060.855, 0.0, 10.000615, 9.999099 
6.450602e+2, 1.550219e+2, -1381322.1, -1500141.8, -51090.516, 0.059976816, -0.3165711, -1362375.3, 58387.293, 0.0, 10.000673, 9.999113 
6.450521e+2, 1.6502152e+2, -1267878.0, -1366379.5, -15061.5625, 0.094332375, -0.2769649, -1265626.4, 57141.344, 0.0, 10.000652, 9.999373 
6.45043e+2, 1.7502226e+2, -1180691.1, -1271505.9, -37740.914, 0.009408243, -0.16008331, -1167054.5, 57707.58, 0.0, 10.000574, 9.99939 
6.4503455e+2, 1.850217e+2, -1067971.0, -1102055.6, -40603.37, -0.025201578, -0.18141265, -1040978.4, 85786.93, 0.0, 10.000386, 9.9999695 
6.4502656e+2, 1.950196e+2, -1025324.0, -1031651.2, -68277.87, -0.018005313, -0.40976268, -960136.5, 68643.28, 0.0, 10.000017, 9.999955 
6.450191e+2, 2.0501904e+2, -963955.25, -1016543.25, -7491.936, -0.03431671, -0.42859244, -962908.75, -32126.338, 0.0, 10.000048, 9.99937 
6.450122e+2, 2.1501982e+2, -817509.2, -896949.7, -8832.7705, -0.064646505, -0.30862275, -816538.94, 16236.266, 0.0, 10.000384, 9.999358 
6.4500415e+2, 2.2501928e+2, -705857.2, -843218.2, -126589.37, -0.05300104, -0.27290586, -630517.3, 104262.77, 0.0, 10.000695, 9.998906 
6.4499485e+2, 2.3501724e+2, -566586.4, -725441.9, -153647.42, 0.00014703326, -0.3889712, -473050.84, 163747.83, 0.0, 10.000976, 9.998907 
6.44987e+2, 2.450155e+2, -472976.78, -697229.56, -8664.704, 0.01790792, -0.41915748, -472642.5, 66172.46, 0.0, 10.001248, 9.998297 
6.449806e+2, 2.5501397e+2, -335718.7, -579805.1, 10894.157, 0.009952204, -0.4232208, -335233.44, 105596.53, 0.0, 10.001513, 9.9983015 
6.449732e+2, 2.6501307e+2, -281028.53, -490949.88, -32637.393, 0.007070626, -0.3461133, -276071.3, 66769.36, 0.0, 10.001167, 9.998402 
6.4496493e+2, 2.7501252e+2, -316233.5, -460293.06, -21957.264, 0.019313635, -0.26407397, -312961.16, -68111.34, 0.000000000000000000046744374, 10.0002575, 9.998382 
6.4495665e+2, 2.8501105e+2, -153089.27, -180071.28, 22806.342, -0.038485065, -0.31213972, -140082.4, 6779.6353, 0.00000034821963, 10.000061, 9.999727 
6.449485e+2, 2.950086e+2, 838.18665, -67100.1, -40611.555, -0.14945479, -0.54975, 19814.309, 68692.33, 0.0000068469953, 10.000472, 9.999639 
6.449431e+2, 3.0500838e+2, -14253.297, -196046.1, -24284.693, 0.029751332, -0.46054074, -11065.151, -11065.151, 0.00003364889, 10.000707, 9.998291 
6.4493525e+2, 3.1500784e+2, 27517.094, -161802.69, 37626.957, -0.056848537, -0.3797394, 34721.242, 34721.242, 0.000093640454, 10.000885, 9.998436 
6.5508485e+2, 1.2502876e+2, -1716034.0, -1720077.8, -31106.594, -0.31272447, -0.27285686, -1686883.6, 27814.37, 0.0000000012982254, 9.999982, 9.999954 
6.5508056e+2, 1.3502957e+2, -1550297.5, -1585698.4, -150411.58, 0.28275812, -0.21405518, -1416548.5, 200142.88, 0.0, 10.000437, 10.0 
6.550677e+2, 1.4503004e+2, -1396800.1, -1421493.4, -80497.625, -0.13267596, -0.17583208, -1327707.8, 190977.31, 0.0, 10.000639, 10.00035 
6.5505886e+2, 1.550295e+2, -1296739.4, -1325407.0, -40952.637, -0.16194157, -0.2889904, -1267684.5, 153001.33, 0.0, 10.0006695, 10.00032 
6.550506e+2, 1.6502954e+2, -1299501.0, -1426453.9, -28389.213, -0.14065108, -0.24604465, -1293441.8, 29244.402, 0.0, 10.000628, 9.998968 
6.550434e+2, 1.7503008e+2, -1209349.1, -1334397.3, -31611.053, -0.032232683, -0.1088693, -1201812.4, 22874.094, 0.0, 10.000585, 9.998952 
6.55036e+2, 1.8502918e+2, -1106952.0, -1172917.1, -62997.215, 0.053762406, -0.11760876, -1068825.5, 57869.992, 0.0, 10.000345, 9.999502 
6.550281e+2, 1.9502665e+2, -1062808.3, -1097619.3, -71864.99, 0.11259586, -0.34336695, -1006270.94, 22444.004, 0.0, 9.9999695, 9.999524 
6.550199e+2, 2.050257e+2, -962599.7, -995455.5, -2157.1812, 0.027172316, -0.38933712, -962458.7, -31737.898, 0.0, 9.999967, 9.999556 
6.550114e+2, 2.1502607e+2, -817506.06, -873328.5, 11942.81, -0.20345232, -0.33092108, -815058.3, 17657.148, 0.0, 10.000283, 9.999568 
6.550034e+2, 2.2502592e+2, -758361.94, -922544.1, -124616.82, -0.21269572, -0.24174254, -691227.4, 43490.695, 0.0, 10.000574, 9.998416 
6.5499586e+2, 2.3502508e+2, -619802.1, -804262.94, -134681.14, -0.014753171, -0.189291, -548798.2, 87932.44, 0.0, 10.000848, 9.998424 
6.549881e+2, 2.450238e+2, -434181.13, -596309.25, -8846.869, -0.014944784, -0.1866112, -433699.8, 105043.38, 0.0, 10.001161, 9.99903 
6.5498e+2, 2.5502193e+2, -296564.16, -476342.06, 29880.83, -0.21789156, -0.29627353, -291727.78, 149029.23, 0.0, 10.001423, 9.999051 
6.5497243e+2, 2.6502106e+2, -246966.78, -414375.97, -76460.9, -0.21104187, -0.28281584, -217301.5, 125462.68, 0.0, 10.001134, 9.998947 
6.5496534e+2, 2.7502093e+2, -287116.47, -387102.63, -44672.75, 0.009696569, -0.21044289, -270065.06, -25298.465, 0.0000000002377775, 10.000195, 9.9989195 
6.549578e+2, 2.8501934e+2, -251573.9, -366050.16, 29540.965, 0.046742573, -0.2326334, -244400.3, -97618.195, 0.0000008000927, 9.999991, 9.998477 
6.5494967e+2, 2.950161e+2, -108012.96, -259477.42, -15548.285, -0.10725094, -0.43052223, -106433.35, -57620.176, 0.000010270006, 10.000343, 9.998371 
6.549432e+2, 3.0501634e+2, 68061.97, -28430.363, -24057.627, -0.055261116, -0.29025632, 73727.414, 73727.414, 0.00004390313, 10.000706, 9.9994545 
6.5493375e+2, 3.150156e+2, 167738.42, 142131.64, 84416.625, -0.34225515, -0.33654535, 240317.08, 240317.08, 0.00011355579, 10.000828, 10.00056 
6.650859e+2, 1.2503658e+2, -1630328.8, -1715190.5, 48695.04, -0.22945683, -0.25712955, -1608171.8, 106447.49, 0.00000000035571668, 10.000723, 9.999626 
6.6508096e+2, 1.3503668e+2, -1540490.3, -1640393.3, -36802.11, 0.2754925, -0.22249007, -1528397.0, 88225.3, 0.0, 10.000741, 9.999489 
6.650679e+2, 1.4503711e+2, -1425135.1, -1403418.1, -6798.261, -0.14672926, -0.17481506, -1401465.5, 117151.78, 0.0, 10.0003195, 10.000623 
6.6505957e+2, 1.550371e+2, -1411261.9, -1348595.5, -58389.223, -0.10556235, -0.26514018, -1313663.6, 106948.25, 0.0, 9.999754, 10.000598 
6.650512e+2, 1.6503721e+2, -1416974.1, -1447158.9, -13402.811, -0.08602414, -0.24472658, -1411882.0, -89271.89, 0.0, 9.999672, 9.999286 
6.650435e+2, 1.7503732e+2, -1268899.0, -1324749.6, 18329.092, -0.04832859, -0.18307312, -1263421.0, -38808.074, 0.0, 10.000011, 9.9992895 
6.6503596e+2, 1.8503678e+2, -1117452.6, -1212058.1, 35349.65, 0.024456404, -0.15864319, -1105703.4, 20916.004, 0.0, 10.00043, 9.999188 
6.650286e+2, 1.9503535e+2, -943838.5, -1078762.1, 18819.127, 0.12190404, -0.24076158, -941262.75, 87368.414, 0.0, 10.000945, 9.999186 
6.650205e+2, 2.0503424e+2, -855916.7, -963586.3, 82140.33, 0.05685294, -0.2776408, -811541.44, 119098.26, 0.0, 10.000787, 9.999379 
6.650118e+2, 2.1503322e+2, -881807.5, -926183.1, 50094.816, -0.16354059, -0.33681318, -849206.75, -16559.809, 0.0, 9.99994, 9.999372 
6.65004e+2, 2.2503263e+2, -853138.06, -985848.06, -40484.3, -0.17414819, -0.27518857, -841763.0, -107108.93, 0.0, 9.999995, 9.998262 
6.649969e+2, 2.350323e+2, -630515.0, -830741.75, -40713.934, 0.0149786, -0.15289092, -622552.9, 14109.644, 0.0, 10.000859, 9.998243 
6.649891e+2, 2.4503127e+2, -485982.1, -605949.5, 55097.85, 0.0034428828, -0.124259464, -464517.56, 74155.62, 0.0, 10.000729, 9.999175 
6.649806e+2, 2.5502932e+2, -550164.0, -587902.5, 24961.846, -0.20660344, -0.25795677, -537742.0, -97054.086, 0.0, 9.999614, 9.999166 
6.6497296e+2, 2.6502827e+2, -445687.22, -487054.84, -79519.41, -0.18960841, -0.27631447, -384205.6, -41510.008, 0.0, 9.99967, 9.999153 
6.649662e+2, 2.75028e+2, -169587.05, -304395.97, -91538.86, 0.05773353, -0.2405727, -123313.35, 121384.125, 0.0000000023427176, 10.000896, 9.999144 
6.649589e+2, 2.8502667e+2, -84507.21, -335898.38, 20952.844, 0.102027446, -0.22461036, -82772.805, 63938.383, 0.0000014418595, 10.001352, 9.998029 
6.649508e+2, 2.95024e+2, -37020.688, -269255.88, 15527.666, -0.052033678, -0.32297096, -35987.08, 12753.132, 0.000014823799, 10.001026, 9.997969 
6.64944e+2, 3.0502397e+2, 60765.566, -52936.344, 1984.5288, -0.048606083, -0.18262433, 60800.195, 60800.195, 0.000057815294, 10.00076, 9.999255 
6.649345e+2, 3.1502262e+2, 131594.06, 171694.77, -22882.313, -0.32309115, -0.2677633, 182068.36, 182068.36, 0.00014076727, 10.00038, 10.000981 
6.750877e+2, 1.2504672e+2, -1654425.9, -1774260.8, -44263.87, -0.17062919, -0.17468423, -1639849.1, 74667.195, 0.0000000023126079, 10.000767, 9.999199 
6.750797e+2, 1.350453e+2, -1585321.4, -1731998.4, -33315.105, 0.050643776, -0.23234393, -1578109.1, 38426.254, 0.0, 10.000743, 9.998857 
6.7506707e+2, 1.450449e+2, -1470415.1, -1497688.9, -39206.043, -0.28760007, -0.20406093, -1442542.0, 75998.92, 0.0, 10.000319, 9.999977 
6.750618e+2, 1.550449e+2, -1448545.4, -1434065.1, -68171.54, 0.119501926, -0.22749119, -1372750.4, 47788.383, 0.0, 9.999786, 9.999996 
6.7505366e+2, 1.6504465e+2, -1338413.4, -1289939.6, -9980.723, 0.16473031, -0.26775008, -1287965.0, 34573.453, 0.0, 9.999691, 10.00036 
6.7504305e+2, 1.7504404e+2, -1195023.8, -1169588.9, 39596.434, -0.11473974, -0.3840325, -1140717.8, 83823.33, 0.0, 10.000002, 10.0003605 
6.750344e+2, 1.8504447e+2, -1134464.0, -1241465.3, 44795.72, -0.1935288, -0.30550638, -1118186.5, 8350.479, 0.0, 10.0004, 9.999002 
6.750277e+2, 1.9504572e+2, -966527.9, -1110183.5, 46633.457, -0.081904925, -0.100757234, -952717.44, 75810.76, 0.0, 10.000879, 9.9990015 
6.750207e+2, 2.050447e+2, -912243.4, -1061174.1, 42187.965, -0.025719818, -0.086021155, -901123.06, 29415.51, 0.0, 10.000696, 9.998757 
6.7501336e+2, 2.1504128e+2, -936800.6, -1019367.6, 27143.338, -0.023464331, -0.32645008, -928676.75, -96107.016, 0.0, 9.9998455, 9.998777 
6.750058e+2, 2.2503944e+2, -856677.25, -962741.56, -14830.821, -0.011738758, -0.36956263, -854642.5, -120055.14, 0.0, 9.999869, 9.998481 
6.7499787e+2, 2.3503903e+2, -633055.56, -805800.5, 3005.4163, 0.0004008526, -0.27910548, -633003.3, 3589.9836, 0.0, 10.000736, 9.99847 
6.7498994e+2, 2.4503805e+2, -537741.56, -693183.25, 6673.0933, -0.009901862, -0.23051716, -537455.6, 1148.1432, 0.0, 10.000643, 9.998616 
6.74982e+2, 2.550362e+2, -604795.4, -679148.56, -8128.176, -0.04322769, -0.2959223, -603917.2, -163296.05, 0.0, 9.999516, 9.998585 
6.749746e+2, 2.650348e+2, -465033.44, -510050.2, -41728.934, -0.009781584, -0.31403026, -440129.47, -97495.945, 0.0, 9.9995985, 9.99903 
6.749676e+2, 2.7503365e+2, -188224.06, -326266.94, -34215.008, 0.078768894, -0.35185286, -180208.97, 64433.46, 0.0000000015372758, 10.000827, 9.999027 
6.7496e+2, 2.8503296e+2, -55377.6, -275133.0, -227.3752, 0.053294137, -0.2914574, -55377.367, 91272.21, 0.0000017821444, 10.0013485, 9.998449 
6.7495173e+2, 2.950324e+2, -20563.766, -211999.25, 14311.831, -0.09023796, -0.21566293, -19499.719, 29158.025, 0.000019076204, 10.000927, 9.998411 
6.749448e+2, 3.0503118e+2, -65830.66, -300312.34, -17714.799, -0.05706337, -0.13414663, -64499.875, -64499.875, 0.000073988194, 10.000697, 9.997581 
6.7493665e+2, 3.1502864e+2, 22756.1, -23222.729, -13734.51, -0.18956614, -0.173946, 26546.34, 26546.34, 0.00017626329, 10.000259, 9.999689 
6.85089e+2, 1.2505545e+2, -1831437.4, -1817284.3, -112149.38, -0.03996223, -0.16982073, -1711988.4, 2442.495, 0.0000000036242784, 9.999361, 9.999587 
6.8507916e+2, 1.3505378e+2, -1651969.0, -1731533.0, -15978.939, -0.038338836, -0.27818304, -1648879.9, -32430.07, 0.0, 10.000157, 9.999135 
6.8506694e+2, 1.4505328e+2, -1451296.8, -1542461.3, 27820.996, -0.34316608, -0.2485811, -1443477.1, 74979.1, 0.0, 10.00067, 9.999504 
6.8506277e+2, 1.5505365e+2, -1298309.0, -1413452.1, -7535.6934, 0.18026829, -0.19119686, -1297818.0, 122635.46, 0.0, 10.001032, 9.999543 
6.850549e+2, 1.6505317e+2, -1150858.5, -1222101.6, 29798.127, 0.25409466, -0.2210629, -1140038.5, 182417.66, 0.0, 10.001073, 10.000163 
6.8504363e+2, 1.7505182e+2, -1091637.0, -1144650.6, -33089.11, -0.08843766, -0.39374426, -1075746.9, 148718.28, 0.0, 10.0008135, 10.000146 
6.850347e+2, 1.8505198e+2, -1090715.5, -1210962.5, -39847.168, -0.2141856, -0.33569288, -1078709.6, 47753.684, 0.0, 10.000663, 9.9990835 
6.850278e+2, 1.9505335e+2, -1008768.0, -1119153.4, -34114.984, -0.13650368, -0.12632604, -999075.7, 29377.676, 0.0, 10.000545, 9.999096 
6.8502104e+2, 2.0505266e+2, -955584.44, -1109179.8, -19435.537, -0.041803624, -0.07437785, -953163.25, -22701.336, 0.0, 10.000522, 9.998504 
6.850145e+2, 2.1504971e+2, -846833.8, -1003640.75, -24560.383, 0.069369204, -0.24008463, -843076.94, -10586.532, 0.0, 10.000584, 9.998528 
6.850068e+2, 2.2504774e+2, -736456.3, -885574.2, -9596.576, 0.07097741, -0.2935104, -735841.25, -1332.1978, 0.0, 10.0006, 9.998665 
6.8499804e+2, 2.350466e+2, -652810.5, -796381.25, -13722.167, -0.0348792, -0.29505724, -651510.75, -14991.182, 0.0, 10.000506, 9.99865 
6.8499017e+2, 2.4504538e+2, -545497.2, -743650.44, -11024.441, -0.049079992, -0.25600362, -544885.7, -6353.6133, 0.0, 10.000788, 9.998196 
6.8498313e+2, 2.5504392e+2, -348265.4, -599887.8, -28927.805, 0.024084758, -0.24276435, -344982.56, 95565.81, 0.0, 10.001479, 9.998177 
6.849756e+2, 2.6504233e+2, -213973.05, -412200.4, -24221.967, 0.04729449, -0.2504791, -211056.22, 131507.5, 0.0, 10.001423, 9.998818 
6.8496776e+2, 2.750404e+2, -236683.78, -372581.4, -43868.863, 0.032758694, -0.3502174, -223752.94, 20826.953, 0.00000000039754933, 10.000589, 9.998821 
6.8496007e+2, 2.8503963e+2, -201288.72, -331535.63, -16668.55, -0.016242847, -0.29058385, -199189.38, -52602.875, 0.000001935021, 10.000282, 9.998576 
6.849523e+2, 2.950398e+2, -53828.645, -211621.52, -41023.453, -0.09913398, -0.15435162, -43800.555, 4785.971, 0.000022833043, 10.000616, 9.998568 
6.849456e+2, 3.050377e+2, -85723.21, -377837.88, -30255.365, -0.05053503, -0.13443181, -82622.47, -82622.47, 0.00009092674, 10.000841, 9.996983 
6.849379e+2, 3.1503442e+2, 15725.969, -104844.53, 19015.9, -0.09529886, -0.18500806, 18653.977, 18653.977, 0.00021663119, 10.000506, 9.999025 
6.9508904e+2, 1.2506296e+2, -1733356.5, -1627100.8, -153246.14, -0.019296521, -0.23115379, -1518034.5, 196326.72, 0.00000000017840025, 9.999431, 10.000848 
6.950791e+2, 1.3506223e+2, -1568605.4, -1564889.9, 20553.227, -0.0826113, -0.35810414, -1546110.6, 70254.06, 0.0, 10.00019, 10.000258 
6.9506735e+2, 1.4506225e+2, -1464229.3, -1578157.1, 32644.148, -0.4017087, -0.31925792, -1455538.6, 62825.37, 0.0, 10.000705, 9.999245 
6.950623e+2, 1.5506326e+2, -1315805.3, -1458371.9, 17483.486, 0.00054588256, -0.17038727, -1313692.5, 106664.53, 0.0, 10.0010605, 9.999228 
6.950546e+2, 1.6506276e+2, -1255553.0, -1435947.5, 11512.587, 0.09750447, -0.11222838, -1254821.3, 67542.32, 0.0, 10.001064, 9.998694 
6.9504505e+2, 1.7506076e+2, -1196372.4, -1358564.3, -31833.947, -0.054661814, -0.20370369, -1190348.0, 34036.004, 0.0, 10.000799, 9.998685 
6.950364e+2, 1.8505935e+2, -1071160.3, -1160075.4, -50440.77, -0.12515563, -0.24648273, -1048381.3, 78015.945, 0.0, 10.000622, 9.99945 
6.950286e+2, 1.9505832e+2, -992688.8, -1072206.4, -28784.094, -0.12638667, -0.31668767, -983363.1, 45042.926, 0.0, 10.000492, 9.999441 
6.9502145e+2, 2.0505805e+2, -959749.4, -1099973.1, -26444.695, -0.0739032, -0.24188133, -954928.0, -24518.193, 0.0, 10.0004425, 9.998607 
6.9501483e+2, 2.1505845e+2, -854243.3, -996387.06, -13771.062, 0.029678354, -0.08598749, -852921.44, -20511.742, 0.0, 10.000487, 9.998623 
6.9500685e+2, 2.2505747e+2, -742915.0, -874381.06, -21157.262, -0.0003043976, -0.051799938, -739594.0, -5174.3467, 0.0, 10.000495, 9.998791 
6.949974e+2, 2.3505493e+2, -658393.9, -784199.0, -8389.185, -0.16844349, -0.20351385, -657836.94, -21395.139, 0.0, 10.000406, 9.998779 
6.9498974e+2, 2.4505335e+2, -571720.4, -779411.25, 7643.019, -0.19470549, -0.19790576, -571439.5, -32981.67, 0.0, 10.000708, 9.997991 
6.949837e+2, 2.5505248e+2, -370222.13, -633092.9, 6773.0576, -0.08904054, -0.10464645, -370047.75, 70422.016, 0.0, 10.001422, 9.997979 
6.949759e+2, 2.650508e+2, -243333.52, -461579.2, -62517.977, -0.08864296, -0.09406418, -226693.52, 115792.91, 0.0, 10.001378, 9.998499 
6.9496644e+2, 2.7504814e+2, -272827.1, -429355.0, -66054.71, -0.18149583, -0.23243892, -248677.81, -4168.1255, 0.0000000054780975, 10.000511, 9.998469 
6.949587e+2, 2.8504667e+2, -221546.64, -358454.1, -12751.743, -0.20692034, -0.21907143, -220369.05, -73846.97, 0.000002364329, 10.00022, 9.998418 
6.9495225e+2, 2.950462e+2, -75182.016, -236437.72, -12142.194, -0.19289604, -0.13210802, -74272.86, -25746.934, 0.000027093956, 10.000538, 9.998431 
6.9494593e+2, 3.0504358e+2, -51606.7, -305216.84, -45301.29, -0.11626924, -0.187147, -43757.645, -43757.645, 0.00010798756, 10.000832, 9.997488 
6.94938e+2, 3.1504032e+2, -4942.2285, -123098.66, 23896.42, -0.18285458, -0.27739105, -292.3153, -292.3153, 0.00025661878, 10.000406, 9.99895 
7.0508784e+2, 1.2507154e+2, -1796277.4, -1650605.3, -52154.965, -0.0507018, -0.27411997, -1633857.6, 80420.42, 0.0, 9.998955, 10.000933 
7.050807e+2, 1.350718e+2, -1441350.8, -1493526.3, 46346.14, 0.02144995, -0.3065375, -1414254.5, 202016.69, 0.0, 10.001013, 10.000354 
7.050701e+2, 1.450715e+2, -1367682.8, -1550102.4, -15154.208, -0.2257126, -0.29612955, -1366432.4, 151840.58, 0.0, 10.001458, 9.999067 
7.0506227e+2, 1.5507174e+2, -1377344.8, -1500993.9, -43185.9, -0.08232337, -0.20804244, -1363755.1, 56517.89, 0.0, 10.000714, 9.999087 
7.0505404e+2, 1.650711e+2, -1358136.8, -1533086.1, 26733.432, -0.03563801, -0.13501644, -1354142.9, -31861.297, 0.0, 10.00057, 9.998264 
7.0504606e+2, 1.7506945e+2, -1210096.1, -1408417.1, 42303.93, -0.025628325, -0.14646353, -1201449.3, 22850.68, 0.0, 10.000899, 9.998289 
7.05038e+2, 1.8506767e+2, -1047794.0, -1184619.9, 44885.957, -0.035667937, -0.19413115, -1034383.5, 91934.24, 0.0, 10.000929, 9.99914 
7.050297e+2, 1.9506544e+2, -986841.4, -1105481.3, -325.08197, -0.07495894, -0.35014296, -986840.5, 41497.215, 0.0, 10.000674, 9.999133 
7.0502204e+2, 2.0506498e+2, -889204.7, -1022737.2, 21318.7, -0.06648086, -0.29853377, -885883.7, 44458.66, 0.0, 10.000747, 9.998991 
7.050151e+2, 2.1506615e+2, -742700.94, -901184.75, 37572.055, -0.010073806, -0.10185672, -734244.8, 98088.16, 0.0, 10.001076, 9.998996 
7.050074e+2, 2.2506545e+2, -659647.5, -868585.56, 30530.463, -0.026771827, -0.040590696, -655277.7, 79062.81, 0.0, 10.001225, 9.998471 
7.049986e+2, 2.350628e+2, -559145.2, -770584.2, -6420.6777, -0.124349385, -0.17573363, -558950.4, 77416.2, 0.0, 10.001247, 9.998463 
7.0499104e+2, 2.4506103e+2, -510298.78, -743296.56, 27950.18, -0.15134983, -0.17484812, -506992.8, 31392.28, 0.0, 10.001106, 9.998045 
7.0498455e+2, 2.5505996e+2, -459520.84, -667528.2, 31148.658, -0.10726249, -0.10747555, -454956.56, -14558.768, 0.0, 10.00078, 9.998048 
7.049766e+2, 2.6505843e+2, -321602.3, -523209.03, -20218.56, -0.12944536, -0.07354026, -319594.66, 22818.441, 0.0, 10.000943, 9.998289 
7.049672e+2, 2.7505627e+2, -137936.03, -382734.6, -34247.043, -0.201609, -0.14049277, -133235.17, 111197.63, 0.000000016182126, 10.001526, 9.998298 
7.049592e+2, 2.8505436e+2, -78251.99, -325885.0, 32728.4, -0.22392684, -0.14940886, -73999.47, 72450.16, 0.0000030357212, 10.001345, 9.99811 
7.049525e+2, 2.950526e+2, -125065.6, -292908.25, 7553.572, -0.20917861, -0.16585404, -124726.35, -76261.66, 0.000031540207, 10.000324, 9.998152 
7.049464e+2, 3.0505e+2, -109339.8, -305133.75, 1563.1451, -0.117899485, -0.21715602, -109327.32, -109327.32, 0.00012311795, 10.000324, 9.997724 
7.0493925e+2, 3.150475e+2, 102055.67, -64519.824, 7623.101, -0.119564116, -0.25310412, 102403.805, 102403.805, 0.00029061802, 10.001123, 9.998993 
7.1508455e+2, 1.250812e+2, -1841528.4, -1762722.6, -17084.037, -0.32217714, -0.27779654, -1759178.4, -44996.824, 0.0, 9.999038, 10.000116 
7.1508354e+2, 1.3508238e+2, -1495388.3, -1620314.5, 125707.53, 0.18613344, -0.13672364, -1417480.4, 198690.02, 0.0, 10.001067, 9.999461 
7.1507496e+2, 1.4508101e+2, -1370976.9, -1562029.8, -56723.207, 0.084998876, -0.18508865, -1355405.0, 162778.52, 0.0, 10.001486, 9.998967 
7.1506244e+2, 1.5507913e+2, -1383896.4, -1515126.9, -61151.88, -0.15672885, -0.29871416, -1359818.1, 60382.777, 0.0, 10.000714, 9.99899 
7.1505284e+2, 1.6507821e+2, -1316269.0, -1440915.9, 31567.576, -0.22626425, -0.28470916, -1308730.3, 13479.652, 0.0, 10.000552, 9.998902 
7.150467e+2, 1.7507792e+2, -1168280.5, -1323660.1, 62984.1, -0.07899968, -0.22316441, -1145956.9, 78256.6, 0.0, 10.00091, 9.998866 
7.1503925e+2, 1.8507682e+2, -1117275.5, -1323882.6, 27442.2, -0.025121665, -0.18170641, -1113692.6, 12533.0625, 0.0, 10.000908, 9.998193 
7.150306e+2, 1.9507478e+2, -1063266.9, -1246023.1, 457.60562, -0.06991902, -0.22464655, -1063265.8, -35017.832, 0.0, 10.0006, 9.998203 
7.1502256e+2, 2.0507354e+2, -860266.4, -939001.3, 25699.727, -0.1023414, -0.23763941, -852620.25, 77638.4, 0.0, 10.0006485, 9.999611 
7.150152e+2, 2.1507283e+2, -719433.6, -822060.2, 55572.37, -0.12631305, -0.28836218, -695107.4, 137152.94, 0.0, 10.000951, 9.999596 
7.150082e+2, 2.2507176e+2, -727540.2, -984568.44, 22523.469, -0.085018724, -0.25711888, -725581.4, 8690.14, 0.0, 10.001116, 9.997729 
7.150014e+2, 2.3507017e+2, -625024.4, -885214.56, 3299.2688, 0.012650152, -0.20946753, -624982.56, 11311.127, 0.0, 10.00115, 9.997723 
7.1499383e+2, 2.450684e+2, -500716.03, -704858.25, 6491.2744, 0.0026651644, -0.18621616, -500509.84, 37803.78, 0.0, 10.001025, 9.998351 
7.1498543e+2, 2.550663e+2, -448582.88, -627289.6, 26625.967, -0.11880139, -0.25296614, -444700.2, -4367.02, 0.0, 10.000706, 9.998363 
7.1497744e+2, 2.6506522e+2, -331407.97, -535026.7, -7377.667, -0.15904039, -0.18978874, -331141.0, 11203.135, 0.0, 10.000905, 9.998227 
7.149698e+2, 2.750648e+2, -152942.72, -399862.16, -1271.3444, -0.11835849, -0.07521961, -152936.17, 91413.37, 0.000000020828322, 10.001463, 9.998212 
7.149616e+2, 2.8506264e+2, -110666.42, -383481.2, -14627.401, -0.14057472, -0.081453465, -109884.4, 36484.934, 0.0000037854625, 10.001308, 9.997731 
7.149527e+2, 2.950589e+2, -167909.06, -362972.7, -18273.68, -0.2478449, -0.2545362, -166211.95, -117809.164, 0.000035842306, 10.000252, 9.9977045 
7.1494657e+2, 3.0505696e+2, -111073.91, -308572.44, 27769.57, -0.15759513, -0.21748231, -107243.61, -107243.61, 0.00013552594, 10.000314, 9.997709 
7.149411e+2, 3.1505582e+2, 93497.89, -63368.62, 54605.137, -0.10105676, -0.12555857, 110633.96, 110633.96, 0.00031582415, 10.001035, 9.999049 
7.2508556e+2, 1.2509018e+2, -1607625.5, -1717651.1, -56362.434, -0.2070051, -0.24200834, -1583878.4, 130215.38, 0.0, 10.000888, 9.999566 
7.250839e+2, 1.3509098e+2, -1612734.1, -1714058.9, 89151.72, 0.14921893, -0.09801762, -1560855.3, 55233.652, 0.0, 10.000427, 9.999129 
7.250761e+2, 1.4508937e+2, -1493243.8, -1598401.0, -66241.16, 0.10441026, -0.16340919, -1461250.5, 56854.215, 0.0, 10.000536, 9.999186 
7.2506344e+2, 1.5508783e+2, -1275625.1, -1433428.8, -64191.844, -0.15351593, -0.2659193, -1252811.1, 167306.19, 0.0, 10.001326, 9.999259 
7.2505385e+2, 1.6508679e+2, -1156608.5, -1365515.6, 38354.05, -0.2355235, -0.27523535, -1149789.5, 172336.83, 0.0, 10.001639, 9.998905 
7.2504765e+2, 1.7508596e+2, -1081022.1, -1277722.4, 5581.6426, -0.09786705, -0.2674043, -1080863.8, 143270.47, 0.0, 10.001488, 9.998903 
7.250404e+2, 1.8508513e+2, -1017186.0, -1255234.0, 717.7086, -0.028534176, -0.21211833, -1017183.8, 108959.625, 0.0, 10.001501, 9.998381 
7.25032e+2, 1.9508411e+2, -900102.0, -1147567.3, 42145.855, -0.03725376, -0.17350432, -893121.06, 135034.34, 0.0, 10.001628, 9.998389 
7.250238e+2, 2.0508265e+2, -766760.2, -918408.7, 93064.44, -0.08146174, -0.20540492, -722541.5, 207625.73, 0.0, 10.001386, 9.999406 
7.250157e+2, 2.1508053e+2, -759247.2, -867359.1, 46704.26, -0.15946883, -0.37558725, -741865.56, 90315.85, 0.0, 10.000774, 9.999378 
7.2500867e+2, 2.2507915e+2, -786838.3, -1046168.7, 39349.535, -0.12719952, -0.35078856, -780999.1, -46802.344, 0.0, 10.00085, 9.997435 
7.2500277e+2, 2.3507835e+2, -579414.25, -898199.7, 35056.66, 0.018543053, -0.19384702, -575604.6, 60610.01, 0.0, 10.00161, 9.997416 
7.249955e+2, 2.4507673e+2, -394680.75, -640365.06, 34252.7, 0.038889296, -0.14667657, -389994.72, 148238.72, 0.0, 10.001698, 9.998466 
7.249867e+2, 2.5507417e+2, -371681.75, -580412.2, 24152.924, -0.07649096, -0.27086946, -368923.38, 71331.57, 0.0, 10.0011835, 9.998456 
7.249786e+2, 2.6507285e+2, -326820.22, -559964.06, 22633.9, -0.12882818, -0.22234866, -324643.22, 17624.553, 0.0, 10.001063, 9.997974 
7.249713e+2, 2.7507246e+2, -183452.22, -443700.56, -5942.8467, -0.09989506, -0.07893433, -183316.58, 60958.035, 0.000000011844985, 10.001377, 9.997953 
7.249632e+2, 2.8507018e+2, -86296.35, -388184.7, -31061.295, -0.11775212, -0.0774613, -83133.59, 63163.266, 0.000004675658, 10.001567, 9.997564 
7.2495407e+2, 2.9506603e+2, 16958.068, -294535.5, -38760.27, -0.19501674, -0.2708418, 21708.697, 70043.234, 0.000040333267, 10.001618, 9.997512 
7.249475e+2, 3.050643e+2, -52375.41, -229134.16, 44570.82, -0.10088685, -0.22415707, -41772.605, -41772.605, 0.00014552726, 10.000501, 9.998168 
7.249406e+2, 3.1506416e+2, -272375.75, -155034.25, 65053.406, -0.1000215, -0.08314002, -126102.48, -126102.48, 0.0003310756, 9.998155, 9.999809 
7.350902e+2, 1.250985e+2, -1617263.5, -1737215.9, -93342.91, 0.12715286, -0.15892157, -1566289.1, 147725.38, 0.0, 10.000903, 9.99941 
7.350814e+2, 1.3509756e+2, -1613152.6, -1713920.3, 74532.58, -0.1653431, -0.18944496, -1573571.8, 42454.97, 0.0, 10.000418, 9.999134 
7.350733e+2, 1.4509647e+2, -1457408.1, -1512117.0, -47291.684, -0.2489714, -0.23894592, -1430129.5, 87908.43, 0.0, 10.000496, 9.999789 
7.350649e+2, 1.5509772e+2, -1239005.6, -1360041.0, -22696.02, -0.16285172, -0.11942165, -1234889.8, 185133.48, 0.0, 10.001338, 9.999755 
7.350565e+2, 1.6509685e+2, -1192260.1, -1444741.9, 21877.207, -0.15111874, -0.107954614, -1190378.6, 131652.23, 0.0, 10.001658, 9.998349 
7.350487e+2, 1.7509373e+2, -1119543.4, -1356135.8, 9452.857, -0.16166812, -0.2771605, -1119166.3, 104895.5, 0.0, 10.001476, 9.998372 
7.3504114e+2, 1.8509269e+2, -935104.9, -1071979.9, -1772.3849, -0.12390905, -0.28028348, -935081.94, 190988.53, 0.0, 10.001449, 9.999662 
7.3503363e+2, 1.9509344e+2, -822360.1, -968656.2, 54807.55, -0.055444796, -0.18947811, -804105.2, 223954.47, 0.0, 10.001559, 9.999646 
7.3502535e+2, 2.0509237e+2, -846439.94, -1066454.1, 61663.145, -0.080705814, -0.19502401, -830336.4, 99731.086, 0.0, 10.001308, 9.998427 
7.350162e+2, 2.1508935e+2, -840369.4, -1010200.2, 33458.516, -0.20041494, -0.3624958, -834015.44, -1920.2351, 0.0, 10.000669, 9.998444 
7.3500866e+2, 2.2508775e+2, -795859.3, -1041875.44, 58651.21, -0.23045003, -0.3170199, -782592.1, -48477.1, 0.0, 10.000746, 9.997518 
7.350026e+2, 2.350873e+2, -588080.3, -890040.56, 71683.35, -0.18148522, -0.13455027, -571927.25, 64202.098, 0.0, 10.001496, 9.997526 
7.349957e+2, 2.4508601e+2, -409570.38, -654188.25, 7749.242, -0.12466818, -0.058640223, -409325.13, 128819.266, 0.0, 10.001623, 9.998406 
7.349883e+2, 2.5508362e+2, -390977.03, -598120.5, 13581.262, -0.058703553, -0.1573556, -390090.38, 50072.023, 0.0, 10.00109, 9.998378 
7.3498017e+2, 2.6508152e+2, -369060.47, -635076.44, 28061.223, -0.101367645, -0.15943894, -366132.6, -23950.115, 0.0, 10.001007, 9.997487 
7.349715e+2, 2.750793e+2, -225203.97, -518192.06, 18957.271, -0.24354437, -0.1472237, -223982.45, 20224.953, 0.000000051096855, 10.001322, 9.997471 
7.349636e+2, 2.8507692e+2, -80277.016, -376315.8, -36603.38, -0.25786445, -0.1421904, -75818.38, 70414.14, 0.0000058850314, 10.001564, 9.997647 
7.349564e+2, 2.9507414e+2, 13169.383, -293184.7, -24977.94, -0.15300944, -0.20928797, 15192.546, 63451.7, 0.000044056193, 10.001575, 9.997543 
7.3494893e+2, 3.0507222e+2, 3567.693, -112206.414, -47337.965, -0.03266182, -0.22013564, 20458.938, 20458.938, 0.00015023218, 10.000492, 9.998978 
7.3493713e+2, 3.1507218e+2, -196594.69, 31969.275, 3417.5945, -0.3109925, -0.1528787, 32020.365, 32020.365, 0.00033283475, 9.998025, 10.001156 
7.450927e+2, 1.2510706e+2, -1635323.4, -1748649.3, -15699.115, 0.29863063, -0.14728622, -1633188.8, 80741.07, 0.0, 10.0008135, 9.99936 
7.4508077e+2, 1.3510583e+2, -1716132.1, -1737689.8, 116461.625, -0.22486898, -0.22551353, -1609951.5, 5992.935, 0.0, 9.999627, 9.999337 
7.4507284e+2, 1.4510475e+2, -1581111.0, -1574292.9, 70597.11, -0.29353964, -0.28320232, -1507022.5, 10932.979, 0.0, 9.999652, 9.999768 
7.4506634e+2, 1.5510638e+2, -1280854.0, -1379605.6, 28363.74, -0.13164957, -0.12620509, -1273287.1, 146650.6, 0.0, 10.001051, 9.999753 
7.4505866e+2, 1.6510573e+2, -1198637.3, -1435958.6, 49105.95, -0.09184164, -0.097140424, -1188877.8, 133065.2, 0.0, 10.001567, 9.998459 
7.4505055e+2, 1.7510264e+2, -1142210.8, -1353307.5, 68186.67, -0.112805195, -0.27369115, -1122101.4, 101871.72, 0.0, 10.00126, 9.998502 
7.4504256e+2, 1.8510142e+2, -987024.25, -1098653.8, 60051.086, -0.10136183, -0.29803354, -960854.75, 165128.3, 0.0, 10.001097, 9.999649 
7.450347e+2, 1.9510184e+2, -895013.2, -1005922.3, 4500.2666, -0.07755416, -0.24225838, -894830.9, 133145.05, 0.0, 10.001065, 9.999627 
7.450263e+2, 2.0510092e+2, -871370.4, -1109528.0, 1129.947, -0.10760546, -0.21865979, -871365.0, 58618.863, 0.0, 10.001279, 9.998135 
7.450175e+2, 2.1509856e+2, -709293.3, -983305.25, 4873.517, -0.18434323, -0.28842303, -709206.6, 122801.39, 0.0, 10.001725, 9.998118 
7.4501e+2, 2.2509693e+2, -638881.25, -939636.2, 85024.21, -0.21166642, -0.24059089, -616508.94, 117518.945, 0.0, 10.001711, 9.997754 
7.450036e+2, 2.3509584e+2, -611448.9, -876322.94, 89424.39, -0.20642214, -0.14635895, -584085.1, 51960.305, 0.0, 10.001219, 9.997758 
7.4499685e+2, 2.450944e+2, -441835.25, -677987.44, 50831.063, -0.16525258, -0.092025526, -431358.8, 106702.08, 0.0, 10.001434, 9.998339 
7.449898e+2, 2.5509244e+2, -201540.84, -514665.66, 35751.484, -0.077641204, -0.14157948, -197510.73, 242565.44, 0.0, 10.002422, 9.998313 
7.4498177e+2, 2.650901e+2, -180041.48, -557193.44, 60042.6, -0.10763957, -0.15334621, -170713.4, 171385.02, 0.0, 10.0023575, 9.9973755 
7.4497265e+2, 2.7508727e+2, -239165.67, -532105.5, 61226.56, -0.2500368, -0.19800262, -226883.81, 17245.451, 0.00000017449423, 10.001267, 9.997397 
7.449646e+2, 2.8508523e+2, -213557.03, -422155.97, 49809.563, -0.25878212, -0.15972659, -202273.75, -56122.07, 0.0000070145306, 10.000567, 9.997814 
7.4495757e+2, 2.950838e+2, -158994.67, -352444.0, 47755.12, -0.122634314, -0.110912524, -147848.06, -99680.33, 0.00004543542, 10.000293, 9.997752 
7.4494946e+2, 3.0508167e+2, -114331.555, -143930.7, -32713.02, 0.026472641, -0.16533153, -93226.13, -93226.13, 0.00014809403, 9.999575, 9.999202 
7.4493563e+2, 3.150813e+2, -159080.61, 68164.78, -49426.21, -0.2639048, -0.15080577, 78449.586, 78449.586, 0.0003227844, 9.998206, 10.001316 
7.5509256e+2, 1.2511586e+2, -1631046.0, -1732173.1, -66599.914, 0.15764235, -0.20945613, -1597990.1, 115850.414, 0.0, 10.000793, 9.999477 
7.550816e+2, 1.3511567e+2, -1689042.5, -1686454.9, 76122.336, -0.12088139, -0.21966895, -1611615.4, 4228.02, 0.0, 9.999657, 9.999672 
7.5507444e+2, 1.4511412e+2, -1617788.1, -1661050.6, 109077.91, -0.12197625, -0.30495453, -1528217.4, -10358.765, 0.0, 9.999694, 9.999155 
7.550674e+2, 1.5511394e+2, -1320895.4, -1460965.5, 88858.63, -0.15750054, -0.26857835, -1277790.0, 142069.45, 0.0, 10.001041, 9.999203 
7.5506e+2, 1.6511351e+2, -1145944.9, -1323054.5, 26915.791, -0.14188312, -0.23281212, -1141944.8, 179917.45, 0.0, 10.00155, 9.999244 
7.550528e+2, 1.7511265e+2, -1094326.4, -1250700.3, 65181.93, -0.031399425, -0.25820428, -1070720.0, 153148.52, 0.0, 10.001249, 9.999211 
7.5504446e+2, 1.8511133e+2, -1077461.4, -1278618.3, 49491.27, -0.04384873, -0.26767802, -1065944.4, 59937.414, 0.0, 10.001062, 9.998433 
7.550348e+2, 1.9510931e+2, -989485.4, -1183302.0, 13284.709, -0.19235998, -0.33213404, -988579.0, 39324.82, 0.0, 10.000989, 9.9984455 
7.550264e+2, 2.0510834e+2, -862996.4, -1073778.4, 8921.116, -0.23843403, -0.2715202, -862619.44, 67296.37, 0.0, 10.001193, 9.998426 
7.550194e+2, 2.1510814e+2, -705409.9, -943706.7, 29697.844, -0.1848569, -0.1531066, -701764.56, 130155.28, 0.0, 10.0015955, 9.998452 
7.550125e+2, 2.2510678e+2, -629036.44, -890474.25, 59696.42, -0.14823566, -0.11644712, -616050.44, 117884.12, 0.0, 10.001591, 9.998149 
7.5500566e+2, 2.3510407e+2, -603371.1, -830322.44, 82367.87, -0.13928513, -0.22134608, -576628.44, 59333.32, 0.0, 10.001099, 9.998131 
7.549984e+2, 2.4510208e+2, -460685.7, -703656.1, 79622.71, -0.16754994, -0.23268007, -436917.9, 101063.62, 0.0, 10.001371, 9.998194 
7.5499094e+2, 2.5510052e+2, -217622.13, -537296.06, 81295.09, -0.2269688, -0.23065877, -198136.06, 241860.97, 0.0, 10.00237, 9.998185 
7.5498295e+2, 2.6509866e+2, -164065.3, -513854.84, 11636.81, -0.23781902, -0.20840003, -163678.58, 178337.42, 0.0, 10.002317, 9.99769 
7.549746e+2, 2.7509633e+2, -232652.55, -498258.53, 32859.03, -0.20341697, -0.22949561, -228647.83, 15392.082, 0.0000002213921, 10.001181, 9.997673 
7.549661e+2, 2.8509524e+2, -204141.13, -391766.72, 31794.771, -0.19314346, -0.11944543, -198899.66, -52846.26, 0.000006961638, 10.000517, 9.998051 
7.5495726e+2, 2.9509503e+2, -149282.61, -317786.0, 49101.117, -0.20458303, 0.028388968, -136018.83, -87958.5, 0.00004401986, 10.000219, 9.998034 
7.549487e+2, 3.0509245e+2, -152164.52, -198510.64, -87445.89, -0.026894713, -0.06885126, -84873.37, -84873.37, 0.0001416952, 9.999489, 9.9988575 
7.5493544e+2, 3.1509197e+2, -244291.33, -81177.93, -53684.57, -0.1500138, -0.029502653, -65094.836, -65094.836, 0.00030699253, 9.998101, 10.000332 
7.6509213e+2, 1.2512341e+2, -1823297.0, -1826304.5, -80270.99, 0.11921049, -0.28692982, -1744515.6, -30749.316, 0.00000000032551553, 9.999422, 9.999508 
7.650831e+2, 1.3512456e+2, -1409529.5, -1532446.8, -11478.203, -0.024551751, -0.1873683, -1408466.8, 207289.03, 0.0, 10.001449, 9.999877 
7.650767e+2, 1.4512333e+2, -1337597.0, -1522316.6, 57438.555, 0.04252321, -0.25442883, -1321193.1, 196574.13, 0.0, 10.001598, 9.999193 
7.6506865e+2, 1.5512201e+2, -1407340.6, -1500300.4, 63229.758, -0.09922841, -0.3356311, -1375345.1, 44433.53, 0.0, 10.000429, 9.999237 
7.650609e+2, 1.651215e+2, -1332351.1, -1384629.5, 25119.484, -0.1259107, -0.32253054, -1322237.9, -455.74475, 0.0, 10.000158, 9.999484 
7.65054e+2, 1.7512153e+2, -1156098.6, -1251349.9, 6613.422, -0.0012937713, -0.2838408, -1155641.6, 68138.195, 0.0, 10.00071, 9.999459 
7.650455e+2, 1.8512052e+2, -1135967.8, -1343961.8, 14024.673, -0.021228662, -0.2591517, -1135026.4, -9235.208, 0.0, 10.00082, 9.998099 
7.6503545e+2, 1.9511825e+2, -1082885.6, -1268779.4, 27345.09, -0.19586292, -0.31524917, -1078946.6, -51128.63, 0.0, 10.000509, 9.9980955 
7.6502734e+2, 2.0511721e+2, -961439.5, -1107506.6, 84115.336, -0.22539026, -0.24991304, -923076.06, 6755.4556, 0.0, 10.0004635, 9.9985485 
7.650212e+2, 2.1511708e+2, -832073.3, -994944.75, 73024.555, -0.11721794, -0.13775648, -804127.3, 27707.451, 0.0, 10.0006695, 9.998554 
7.650144e+2, 2.251157e+2, -715767.9, -892190.6, 92078.07, -0.0767276, -0.12464587, -676466.06, 57381.746, 0.0, 10.000833, 9.998502 
7.6500696e+2, 2.3511302e+2, -594275.5, -786312.5, 92917.68, -0.10663934, -0.26153907, -556677.94, 79193.62, 0.0, 10.000999, 9.998477 
7.6499957e+2, 2.4511121e+2, -550804.4, -776897.1, 119149.55, -0.16111197, -0.25850958, -499606.72, 38283.586, 0.0, 10.000891, 9.997921 
7.649922e+2, 2.5511006e+2, -507966.44, -704336.94, 93353.16, -0.23802496, -0.18739481, -470670.5, -30764.564, 0.0, 10.000508, 9.997931 
7.649844e+2, 2.6510844e+2, -365828.28, -544245.6, 23244.627, -0.23598227, -0.15494941, -362849.66, -20926.723, 0.0, 10.000648, 9.998286 
7.649763e+2, 2.7510622e+2, -177793.73, -402420.78, 47094.277, -0.14648932, -0.22379692, -168319.75, 75622.95, 0.00000016204108, 10.001266, 9.998287 
7.649672e+2, 2.8510535e+2, -60635.234, -299815.53, 77251.85, -0.16584462, -0.13561834, -37853.855, 108098.836, 0.000006290961, 10.001404, 9.998256 
7.64957e+2, 2.9510543e+2, -14384.557, -220726.03, 73641.61, -0.28858224, 0.022743583, 9201.51, 57157.4, 0.000041719115, 10.001022, 9.998303 
7.6494825e+2, 3.05103e+2, 82218.79, -88494.84, -39973.445, -0.08775252, -0.0781662, 91115.16, 91115.16, 0.00013461517, 10.0011, 9.998843 
7.649366e+2, 3.1510195e+2, 171818.23, 57870.62, 939.8129, 0.011761716, -0.086348936, 171825.98, 171825.98, 0.00029005748, 10.001229, 9.999779 
7.750908e+2, 1.2512968e+2, -1816942.3, -1814499.3, -10044.81, -0.00861376, -0.38929242, -1805601.9, -91894.18, 0.00000000045588486, 9.999435, 9.99958 
7.7508473e+2, 1.3513261e+2, -1397860.4, -1508775.8, 61933.38, -0.030021008, -0.12280169, -1370183.9, 245496.97, 0.0, 10.001453, 10.000037 
7.750793e+2, 1.4513241e+2, -1287300.8, -1419022.8, -2549.0505, 0.11119836, -0.13491908, -1287251.5, 230430.05, 0.0, 10.0016, 9.999904 
7.750699e+2, 1.5513062e+2, -1359027.9, -1404361.3, 29464.506, -0.043051247, -0.32508904, -1344520.3, 75174.5, 0.0, 10.000445, 9.999888 
7.7506125e+2, 1.6512972e+2, -1349866.1, -1420847.5, 35613.164, -0.12759224, -0.36956987, -1335078.6, -13376.781, 0.0, 10.000155, 9.999237 
7.75054e+2, 1.7512935e+2, -1172742.0, -1282617.4, 36994.77, -0.10361005, -0.35001636, -1161447.0, 62258.96, 0.0, 10.000694, 9.999251 
7.7504563e+2, 1.851291e+2, -1104969.3, -1270623.9, -5246.462, -0.114994265, -0.2653919, -1104803.3, 20907.264, 0.0, 10.000777, 9.99863 
7.7503645e+2, 1.9512877e+2, -1055876.3, -1196285.6, 24116.367, -0.17263393, -0.18074653, -1051849.5, -24132.154, 0.0, 10.000439, 9.998629 
7.750287e+2, 2.0512761e+2, -981908.75, -1125923.3, 82158.51, -0.15449323, -0.15008244, -944668.3, -14937.683, 0.0, 10.00036, 9.998472 
7.750225e+2, 2.1512541e+2, -856953.8, -1015447.8, 88709.97, -0.06528622, -0.234754, -817248.94, 14503.199, 0.0, 10.000543, 9.998472 
7.750153e+2, 2.2512382e+2, -713698.25, -861014.9, 88015.086, -0.080583446, -0.2521909, -672586.3, 61180.016, 0.0, 10.000713, 9.9987755 
7.7500725e+2, 2.3512258e+2, -590865.3, -754469.8, 107602.01, -0.19529516, -0.27458432, -537501.7, 98274.375, 0.0, 10.000888, 9.998752 
7.749999e+2, 2.4512169e+2, -591922.0, -840927.44, 95139.45, -0.23214638, -0.17242381, -559732.56, -21944.668, 0.0, 10.000801, 9.997522 
7.7499336e+2, 2.5512105e+2, -548477.3, -769002.1, 89088.24, -0.19241458, -0.0085132355, -516984.63, -77181.93, 0.0, 10.000425, 9.997525 
7.749859e+2, 2.6511952e+2, -310617.16, -422046.34, 39584.793, -0.17380501, 0.009443128, -297986.5, 43832.39, 0.0, 10.000609, 9.999147 
7.7497756e+2, 2.7511686e+2, -124739.61, -280724.7, 79574.96, -0.1769496, -0.19183522, -91309.484, 152529.94, 0.00000014054619, 10.001207, 9.999157 
7.7496773e+2, 2.851154e+2, -53274.59, -269610.6, 55233.85, -0.277406, -0.21911481, -39988.504, 105862.734, 0.0000059856334, 10.001346, 9.9984865 
7.7495646e+2, 2.951149e+2, -5182.379, -193751.58, 72478.28, -0.47023645, -0.14270028, 19456.05, 67312.305, 0.0000396548, 10.000984, 9.9985075 
7.7494806e+2, 3.0511314e+2, 101087.65, -38978.184, -37486.113, -0.23282577, -0.20029263, 110489.09, 110489.09, 0.00012692052, 10.001061, 9.999202 
7.749385e+2, 3.1511152e+2, 139252.08, 8262.32, 43926.176, 0.02644839, -0.30261794, 152618.39, 152618.39, 0.00027215088, 10.0011425, 9.999487 
7.8509164e+2, 1.25138e+2, -1504176.8, -1645605.8, 71605.2, 0.033602156, -0.31698757, -1474254.0, 239377.05, 0.0000000009851104, 10.001519, 9.999726 
7.850858e+2, 1.3514052e+2, -1644676.1, -1605206.1, 82824.99, 0.03219558, -0.1104443, -1539797.4, 75808.56, 0.0, 9.999686, 10.000216 
7.8508025e+2, 1.4514075e+2, -1630774.9, -1576298.9, 9676.911, 0.17864308, -0.09107406, -1574630.9, -57028.387, 0.0, 9.999209, 9.999974 
7.850704e+2, 1.5513937e+2, -1396965.1, -1416204.5, -21203.514, -0.008792481, -0.24752627, -1383301.1, 36313.05, 0.0, 10.000164, 9.999941 
7.850616e+2, 1.6513872e+2, -1278977.1, -1348540.1, 11978.442, -0.12274137, -0.28632742, -1276972.4, 44647.043, 0.0, 10.00048, 9.999571 
7.85054e+2, 1.7513847e+2, -1229974.4, -1273127.8, 33342.55, -0.12846395, -0.28794697, -1211836.1, 11784.67, 0.0, 10.000143, 9.999577 
7.8504634e+2, 1.8513851e+2, -1104135.4, -1226304.9, 34711.074, -0.1081261, -0.21280329, -1094962.0, 30659.389, 0.0, 10.000601, 9.999013 
7.850384e+2, 1.9513854e+2, -843797.75, -1049122.4, 35639.82, -0.07673048, -0.12788157, -837787.4, 189835.88, 0.0, 10.001717, 9.999017 
7.8503066e+2, 2.0513727e+2, -766610.0, -1035747.44, 79108.81, -0.069412455, -0.120605856, -745079.56, 184557.14, 0.0, 10.001898, 9.998347 
7.850231e+2, 2.1513455e+2, -790453.8, -997626.06, 64426.777, -0.08114398, -0.2457246, -772052.6, 59610.19, 0.0, 10.001062, 9.998342 
7.850157e+2, 2.2513291e+2, -693170.75, -853655.3, 91916.19, -0.119566195, -0.26058063, -651399.06, 82278.875, 0.0, 10.000855, 9.998757 
7.850083e+2, 2.3513211e+2, -541803.9, -731066.7, 71279.34, -0.18625723, -0.23676859, -517962.3, 117722.26, 0.0, 10.001222, 9.998752 
7.850013e+2, 2.4513133e+2, -490299.06, -739129.3, 78487.734, -0.19521962, -0.14703444, -467610.66, 70083.4, 0.0, 10.001274, 9.99799 
7.849945e+2, 2.5513044e+2, -421719.2, -655704.3, 118672.79, -0.14472303, -0.057100166, -372066.94, 67640.94, 0.0, 10.001067, 9.997991 
7.849869e+2, 2.6512918e+2, -293066.44, -428655.28, 96153.125, -0.1305643, -0.029159553, -243210.94, 98510.88, 0.0, 10.000799, 9.99901 
7.8497857e+2, 2.751273e+2, -241726.97, -352150.13, 40604.94, -0.14993104, -0.13908672, -228403.3, 15335.493, 0.0000001311964, 10.000468, 9.999022 
7.8496873e+2, 2.8512567e+2, -185741.92, -270875.75, -7240.5493, -0.24358012, -0.2020974, -185130.5, -39379.125, 0.0000058891046, 10.000159, 9.999051 
7.8495765e+2, 2.9512438e+2, -141167.27, -198642.7, 17241.537, -0.3902153, -0.25939575, -136391.89, -88632.69, 0.000037489564, 9.999794, 9.999047 
7.849493e+2, 3.0512315e+2, -20553.252, -173760.88, -50001.094, -0.18467551, -0.2568532, -5678.9077, -5678.9077, 0.00011865352, 10.000537, 9.99853 
7.8494006e+2, 3.1512156e+2, 253944.34, 8010.505, -70632.195, 0.027352821, -0.29674095, 272786.34, 272786.34, 0.0002544846, 10.002157, 9.998995 
7.950941e+2, 1.2514843e+2, -1483597.5, -1618449.1, -1728.4714, 0.07076324, -0.080695495, -1483575.3, 229960.16, 0.0000000034592607, 10.001587, 9.999885 
7.950861e+2, 1.3514836e+2, -1621692.0, -1568843.9, 18498.26, 0.063910685, -0.15319741, -1563012.5, 52518.105, 0.0, 9.999741, 10.000436 
7.950795e+2, 1.4514846e+2, -1671055.3, -1660947.8, 32883.035, 0.15527262, -0.12880726, -1632732.4, -115202.7, 0.0, 9.999215, 9.99939 
7.950701e+2, 1.5514828e+2, -1432112.1, -1491630.5, 25843.24, -0.08555318, -0.11239942, -1422457.0, -2920.2097, 0.0, 10.000175, 9.999414 
7.950616e+2, 1.651485e+2, -1222223.5, -1227492.9, -9463.226, -0.19758487, -0.079881385, -1215035.0, 106499.08, 0.0, 10.000462, 10.000416 
7.9505414e+2, 1.7514892e+2, -1169545.1, -1150771.0, 29390.328, -0.15518913, -0.09801485, -1129305.1, 94218.65, 0.0, 10.00015, 10.000418 
7.9504734e+2, 1.8514869e+2, -1097681.8, -1196606.4, 67770.984, -0.08471624, -0.10224085, -1063242.8, 62280.945, 0.0, 10.000532, 9.9992485 
7.95041e+2, 1.9514757e+2, -834660.6, -1017456.2, 85855.79, -0.0053491592, -0.1602994, -800659.94, 226875.83, 0.0, 10.001663, 9.999256 
7.950328e+2, 2.0514624e+2, -794160.7, -1067808.1, 37714.617, -0.059143383, -0.1618004, -789057.94, 140491.56, 0.0, 10.001791, 9.998179 
7.950227e+2, 2.1514443e+2, -818307.06, -1029777.7, 42025.67, -0.24178813, -0.17990747, -810261.4, 21306.06, 0.0, 10.000952, 9.998174 
7.9501516e+2, 2.2514297e+2, -733105.44, -906080.2, 98638.25, -0.27202234, -0.15336598, -688407.56, 45174.85, 0.0, 10.000726, 9.99846 
7.9501e+2, 2.3514171e+2, -576517.2, -781336.25, 95191.805, -0.16359165, -0.14457092, -539108.25, 96487.99, 0.0, 10.001124, 9.998456 
7.9500335e+2, 2.4514017e+2, -408561.28, -551670.0, 61008.188, -0.13708913, -0.1841341, -386083.6, 151525.1, 0.0, 10.001198, 9.999313 
7.949953e+2, 2.5513816e+2, -345066.28, -475780.88, 119561.04, -0.18906866, -0.33714658, -274164.94, 165457.08, 0.0, 10.000976, 9.999272 
7.949873e+2, 2.651373e+2, -378080.34, -597222.4, 74212.625, -0.19422564, -0.2721636, -355313.47, -13681.285, 0.0, 10.000757, 9.997874 
7.949792e+2, 2.7513742e+2, -330143.3, -522951.25, 39989.707, -0.15762368, -0.06765346, -322178.22, -78536.85, 0.000000103459534, 10.00041, 9.997878 
7.9497015e+2, 2.8513622e+2, -127681.234, -141885.6, -28445.178, -0.14064488, -0.07612525, -105465.01, 40187.55, 0.0000054454867, 10.000125, 9.999954 
7.9496e+2, 2.9513383e+2, -94049.19, -81391.35, 18776.441, -0.15545523, -0.33820012, -67905.88, -20240.297, 0.00003447301, 9.99971, 9.999895 
7.9495144e+2, 3.0513296e+2, -143561.33, -421885.6, 8041.557, -0.043631285, -0.2537057, -143329.17, -143329.17, 0.0001104858, 10.000499, 9.996846 
7.949407e+2, 3.1513113e+2, 172711.98, -139948.56, 26567.566, -0.17121282, -0.1522132, 174953.42, 174953.42, 0.000240168, 10.002061, 9.998028 
8.050959e+2, 1.251587e+2, -1569178.9, -1663416.8, 37629.594, 0.13290155, 0.070443094, -1555997.0, 157442.38, 0.0000000057252847, 10.001036, 9.999847 
8.050861e+2, 1.3515666e+2, -1589667.6, -1578218.4, -20774.125, 0.078966975, -0.17776936, -1562394.5, 53057.324, 0.0, 10.000057, 10.000238 
8.050788e+2, 1.4515647e+2, -1620454.6, -1657248.4, 91696.05, 0.14981423, -0.16049142, -1545328.3, -27874.494, 0.0, 9.999658, 9.9992 
8.050705e+2, 1.5515716e+2, -1473013.8, -1537493.3, 82864.09, -0.047724888, -0.034784492, -1416338.6, 3115.4136, 0.0, 10.000006, 9.999184 
8.0506223e+2, 1.6515742e+2, -1283735.3, -1251497.0, 14219.8955, -0.14527638, 0.009520412, -1246121.3, 75329.93, 0.0, 10.000014, 10.000475 
8.0505437e+2, 1.7515714e+2, -1237800.6, -1178643.6, -22335.684, -0.11756378, -0.08156729, -1171157.8, 52288.5, 0.0, 9.999664, 10.000466 
8.050476e+2, 1.8515675e+2, -1229995.0, -1239048.5, 32560.32, -0.062400647, -0.112905286, -1201648.3, -76201.086, 0.0, 9.999537, 9.9994335 
8.050417e+2, 1.95156e+2, -1135226.8, -1147264.5, 25222.787, 0.0031159746, -0.15065324, -1115314.6, -87858.65, 0.0, 9.99953, 9.9994 
8.0503386e+2, 2.0515509e+2, -1012695.4, -1111628.1, -1915.5696, -0.034345, -0.1431391, -1012658.3, -83193.75, 0.0, 10.000022, 9.998735 
8.050243e+2, 2.1515383e+2, -785688.0, -951280.94, 35955.242, -0.1658372, -0.16180472, -778218.06, 53257.266, 0.0, 10.00091, 9.998733 
8.05017e+2, 2.2515261e+2, -655996.8, -882808.7, 144986.39, -0.18598597, -0.13297936, -585332.2, 148155.78, 0.0, 10.001322, 9.998326 
8.0501163e+2, 2.351513e+2, -571520.44, -791575.4, 138033.3, -0.10484764, -0.115578525, -505028.13, 130475.984, 0.0, 10.0012245, 9.99833 
8.050048e+2, 2.4514976e+2, -401414.8, -483747.56, 82512.766, -0.096945144, -0.17951924, -350369.3, 187146.42, 0.0, 10.0009575, 9.999903 
8.049964e+2, 2.5514773e+2, -372872.6, -425742.16, 68076.4, -0.1512025, -0.3925302, -326278.66, 113247.125, 0.0, 10.0005, 9.999854 
8.04988e+2, 2.65147e+2, -438409.53, -628228.56, 68864.72, -0.16675809, -0.3460822, -416057.94, -74524.07, 0.0, 10.000353, 9.997852 
8.049798e+2, 2.7514726e+2, -309627.75, -513065.03, 101563.1, -0.13982959, -0.12648512, -267604.47, -24061.938, 0.00000004701224, 10.000544, 9.99788 
8.0497116e+2, 2.851464e+2, -14772.698, -128060.734, 58842.824, -0.091182716, -0.08254546, 10259.613, 155811.89, 0.000004093495, 10.0010805, 9.999588 
8.049621e+2, 2.9514438e+2, 216485.72, 26234.008, -12470.314, -0.02662656, -0.26959264, 217299.61, 264863.97, 0.000029631305, 10.002022, 9.999521 
8.0495363e+2, 3.0514312e+2, 112578.78, -315403.3, 23583.455, 0.041481696, -0.19771719, 113874.4, 113874.4, 0.00010221737, 10.002346, 9.996693 
8.0494255e+2, 3.1514093e+2, 184124.69, -84920.21, 134216.28, -0.18426318, -0.113229044, 239629.34, 239629.34, 0.00023173695, 10.001953, 9.998456 
8.1509644e+2, 1.2516905e+2, -1595018.9, -1727677.9, -13268.265, 0.033655863, 0.15170132, -1593704.9, 119635.58, 0.000000004999778, 10.001076, 9.99939 
8.150854e+2, 1.351655e+2, -1622261.1, -1657477.4, -51872.188, -0.019001031, -0.19094828, -1585090.0, 30279.143, 0.0, 10.000111, 9.999663 
8.1507796e+2, 1.4516492e+2, -1614648.9, -1651462.8, 92806.94, 0.068766624, -0.1859956, -1538441.1, -21067.479, 0.0, 9.999682, 9.999231 
8.1507134e+2, 1.551661e+2, -1465303.4, -1524659.9, 105779.49, 0.010121043, -0.014096175, -1385117.6, 34247.742, 0.0, 10.000021, 9.999265 
8.1506336e+2, 1.6516557e+2, -1338900.4, -1361473.5, -9564.725, -0.057393953, -0.015923195, -1335392.6, -14022.94, 0.0, 9.999994, 9.999727 
8.1505436e+2, 1.7516321e+2, -1288452.4, -1282766.9, -25532.295, -0.10886129, -0.2446977, -1259919.6, -36531.863, 0.0, 9.99966, 9.999751 
8.150466e+2, 1.8516277e+2, -1234137.1, -1236647.8, 25637.695, -0.12884049, -0.24712266, -1209724.0, -84332.86, 0.0, 9.999486, 9.999477 
8.1504e+2, 1.9516388e+2, -1136918.5, -1140528.6, 36047.32, -0.13689792, -0.10370625, -1102631.0, -75247.664, 0.0, 9.999482, 9.999469 
8.150337e+2, 2.0516391e+2, -945652.6, -946643.1, 21653.186, -0.07186989, -0.06545798, -924489.06, 4892.219, 0.0, 9.999909, 9.999925 
8.150277e+2, 2.1516278e+2, -719186.25, -787043.2, 77986.195, 0.062427796, -0.19132908, -668067.75, 163318.38, 0.0, 10.000796, 9.999916 
8.1502086e+2, 2.2516185e+2, -671479.25, -884082.6, 131629.1, 0.05103667, -0.1954488, -608587.94, 124806.52, 0.0, 10.001189, 9.998383 
8.1501305e+2, 2.3516084e+2, -584059.6, -790914.7, 143037.75, -0.10396874, -0.15426481, -510973.56, 124435.09, 0.0, 10.001109, 9.99839 
8.1500524e+2, 2.4516004e+2, -425334.63, -510727.94, 56159.605, -0.15830404, -0.13836452, -397484.1, 139931.64, 0.0, 10.000861, 9.999764 
8.149975e+2, 2.5515926e+2, -393836.63, -451056.06, 59830.227, -0.111739196, -0.21193746, -356127.63, 83290.516, 0.0, 10.0004225, 9.999719 
8.1498903e+2, 2.6515824e+2, -362800.25, -461600.2, 68449.98, -0.12369397, -0.2476651, -327786.03, 13640.252, 0.0, 10.000313, 9.999016 
8.1498e+2, 2.7515677e+2, -249826.22, -360570.38, 120923.32, -0.19620892, -0.3151257, -172200.11, 71241.76, 0.000000004527389, 10.000429, 9.9989805 
8.1497145e+2, 2.8515613e+2, -135286.03, -373108.6, 83948.39, -0.19171268, -0.22092122, -108639.0, 36811.855, 0.0000024308686, 10.001049, 9.997923 
8.149636e+2, 2.9515612e+2, 87748.92, -226287.55, 32282.975, -0.108072825, -0.036271874, 91033.266, 138488.25, 0.00002455122, 10.001958, 9.997819 
8.149556e+2, 3.0515373e+2, 211323.45, -112021.27, 4418.535, -0.01766454, -0.06526659, 211383.81, 211383.81, 0.00009685274, 10.002353, 9.998081 
8.149445e+2, 3.1515026e+2, 295396.66, 178850.25, 153340.78, -0.2249849, -0.25211564, 401163.56, 401163.56, 0.00023260323, 10.00182, 10.000331 
8.2509625e+2, 1.2517715e+2, -2073732.8, -1944078.4, 5488.129, 0.09219597, 0.082490265, -1943846.5, -230586.34, 0.0000000017683296, 9.997706, 9.999524 
8.2508606e+2, 1.351748e+2, -1514540.0, -1614543.0, -37254.645, 0.012634808, -0.14041303, -1502187.3, 113092.68, 0.0, 10.000875, 9.999589 
8.250784e+2, 1.4517441e+2, -1348994.0, -1495113.9, 93534.625, 0.07125672, -0.123421036, -1303367.5, 213914.72, 0.0, 10.0013895, 9.999476 
8.250713e+2, 1.5517479e+2, -1516218.6, -1526183.9, 98001.98, 0.032962747, -0.05615023, -1423072.6, -3793.7158, 0.0, 9.999576, 9.999466 
8.250633e+2, 1.6517414e+2, -1484086.8, -1450977.3, 61936.37, -0.010694966, -0.06876563, -1403421.4, -82137.08, 0.0, 9.999087, 9.999541 
8.2505476e+2, 1.751724e+2, -1285356.3, -1306308.4, 64842.96, -0.03477337, -0.21589696, -1230148.5, -6849.5854, 0.0, 9.9997835, 9.999529 
8.250468e+2, 1.8517195e+2, -1166748.9, -1191365.1, 140890.3, -0.07677794, -0.2153091, -1037630.1, 87672.516, 0.0, 9.999899, 9.999588 
8.2503927e+2, 1.9517243e+2, -1140507.9, -1129263.4, 136430.5, -0.1518462, -0.14449842, -998339.3, 28959.31, 0.0, 9.9994135, 9.999575 
8.2503337e+2, 2.0517239e+2, -938369.5, -916458.25, 154493.22, -0.08081362, -0.13036294, -772532.7, 156763.42, 0.0, 9.999849, 10.000152 
8.250293e+2, 2.1517175e+2, -662889.25, -737113.44, 116589.26, 0.1300633, -0.22927354, -577647.9, 253648.61, 0.0, 10.001081, 10.000121 
8.250226e+2, 2.2517125e+2, -664728.5, -825504.7, 106512.57, 0.124236, -0.22604276, -611673.06, 121626.76, 0.0, 10.00099, 9.998889 
8.250136e+2, 2.351706e+2, -763419.75, -823480.4, 131867.36, -0.08707472, -0.19725776, -658206.5, -22897.986, 0.0, 9.9996395, 9.998882 
8.250055e+2, 2.4517006e+2, -669711.8, -693411.7, 97556.586, -0.14966911, -0.15150371, -583288.1, -45972.734, 0.0, 9.999471, 9.999178 
8.249983e+2, 2.5516942e+2, -425472.56, -524543.6, 49602.117, -0.07066407, -0.15216416, -404907.16, 34415.02, 0.0, 10.000474, 9.999184 
8.249903e+2, 2.651685e+2, -204607.63, -326159.72, 32886.387, -0.06532053, -0.18156101, -196280.55, 145049.2, 0.0, 10.001143, 9.99955 
8.249815e+2, 2.7516693e+2, -62458.117, -212395.34, 21054.75, -0.12716354, -0.31000903, -59557.637, 183783.03, 0.0, 10.001464, 9.999501 
8.249731e+2, 2.8516603e+2, -98827.83, -442136.5, 28198.701, -0.158865, -0.23009548, -96527.06, 48824.625, 0.000001518397, 10.001681, 9.997144 
8.2496494e+2, 2.9516542e+2, 8550.826, -346075.44, 23514.21, -0.14488696, -0.027476821, 10103.188, 57468.234, 0.000022026383, 10.001767, 9.9970875 
8.249572e+2, 3.0516222e+2, 154714.16, -107664.27, -16137.392, -0.055811226, -0.111969925, 155702.95, 155702.95, 0.00009707927, 10.001823, 9.998361 
8.249474e+2, 3.1515968e+2, 301589.5, 194863.05, 14781.317, -0.107452445, -0.24522611, 303598.8, 303598.8, 0.00024343694, 10.001786, 10.00045 
8.350948e+2, 1.2518312e+2, -2021725.5, -1839999.1, 102400.6, 0.1223594, -0.1334894, -1793960.9, -80763.805, 0.000000000051048894, 9.997726, 10.00023 
8.3508795e+2, 1.3518463e+2, -1464675.6, -1517088.3, 86921.79, 0.08413042, -0.027586997, -1400095.5, 215087.58, 0.0, 10.000906, 10.00024 
8.3507997e+2, 1.4518504e+2, -1330192.1, -1456318.1, 13030.574, 0.058946643, 0.02189103, -1328859.9, 188318.64, 0.0, 10.001386, 9.999746 
8.3507e+2, 1.5518321e+2, -1490896.5, -1477221.8, 39932.27, -0.08060545, -0.16528954, -1443545.8, -24351.031, 0.0, 9.999588, 9.999793 
8.350618e+2, 1.6518316e+2, -1467076.9, -1404908.9, 78481.04, -0.0928637, -0.15231092, -1351580.3, -30385.555, 0.0, 9.999045, 9.99988 
8.3505535e+2, 1.7518479e+2, -1262279.9, -1254626.6, 101774.18, 0.026421795, 0.0047340984, -1156607.1, 66572.35, 0.0, 9.999776, 9.999885 
8.350478e+2, 1.851843e+2, -1161360.5, -1176658.4, 111398.195, 0.013485476, -0.019499488, -1057348.9, 67832.76, 0.0, 9.999878, 9.999704 
8.350391e+2, 1.9518153e+2, -1138145.1, -1112170.9, 128479.12, -0.13299206, -0.28594425, -996024.2, 31178.594, 0.0, 9.999359, 9.999721 
8.350327e+2, 2.0518048e+2, -1007099.7, -1034665.0, 190975.06, -0.15105246, -0.34453994, -829410.56, 99799.27, 0.0, 9.999741, 9.9993925 
8.3502877e+2, 2.1518075e+2, -729578.44, -849295.06, 170542.0, -0.049884893, -0.27684638, -608694.94, 222511.2, 0.0, 10.000969, 9.999401 
8.350221e+2, 2.251809e+2, -616954.75, -698622.56, 44326.883, -0.04323028, -0.22280729, -597520.25, 135683.02, 0.0, 10.000866, 9.999823 
8.350129e+2, 2.3518066e+2, -715830.75, -701898.2, 92090.49, -0.13341224, -0.24502417, -616510.9, 18692.268, 0.0, 9.999536, 9.99977 
8.3500504e+2, 2.4517985e+2, -753166.94, -849548.44, 126241.58, -0.15518034, -0.21763228, -666230.75, -129016.625, 0.0, 9.999394, 9.998143 
8.349985e+2, 2.5517824e+2, -510155.72, -682803.5, 97654.85, -0.113635965, -0.2129517, -466140.5, -26902.844, 0.0, 10.000393, 9.998138 
8.349915e+2, 2.6517767e+2, -218482.38, -340494.38, 38070.965, -0.070469074, -0.14692065, -207577.81, 133666.7, 0.0, 10.001081, 9.999482 
8.3498424e+2, 2.751779e+2, -78969.5, -230303.2, 45318.984, -0.02482231, -0.094842754, -66436.11, 176801.92, 0.0, 10.001394, 9.999414 
8.349758e+2, 2.8517616e+2, -92962.04, -421203.06, 22862.89, -0.08137659, -0.098587476, -91377.23, 53876.71, 0.0000012583888, 10.001646, 9.997303 
8.3496606e+2, 2.9517224e+2, 1758.0453, -335570.88, 38120.33, -0.233117, -0.24303228, 6012.2354, 53306.605, 0.000022671806, 10.001663, 9.997211 
8.349582e+2, 3.051685e+2, 90310.69, -232524.89, -20218.053, -0.1614823, -0.3441783, 91571.945, 91571.945, 0.0001036696, 10.001783, 9.997524 
8.349505e+2, 3.1517038e+2, 172534.52, -52932.633, 53432.863, -0.029141724, 0.05528301, 184556.42, 184556.42, 0.0002623637, 10.001709, 9.998786 
8.450935e+2, 1.2519008e+2, -1701476.8, -1637171.8, 141048.88, 0.13177472, -0.23247485, -1524657.1, 188466.17, 0.0, 9.999731, 10.000653 
8.450879e+2, 1.3519274e+2, -1896787.6, -1698867.3, 59015.992, 0.15111409, -0.036141656, -1682605.9, -67504.234, 0.0, 9.997843, 10.000468 
8.4507984e+2, 1.4519365e+2, -1829715.4, -1648115.0, -22878.207, 0.0948985, 0.03072271, -1645277.1, -128183.45, 0.0, 9.997754, 10.000175 
8.450694e+2, 1.5519199e+2, -1464317.1, -1421883.4, -10680.493, -0.09821574, -0.18066263, -1419346.8, -238.92848, 0.0, 9.999591, 10.000174 
8.4506124e+2, 1.6519234e+2, -1290882.0, -1307809.0, 43834.67, -0.10447991, -0.15120424, -1254701.3, 66403.24, 0.0, 10.000196, 9.999996 
8.450554e+2, 1.7519453e+2, -1296138.6, -1260503.6, 30487.855, 0.0739653, 0.05298911, -1243008.6, -19923.602, 0.0, 9.999495, 9.999985 
8.4504855e+2, 1.8519413e+2, -1170784.3, -1177981.8, 57638.85, 0.10883474, 0.030125223, -1116631.9, 8454.188, 0.0, 9.999801, 9.999727 
8.4504044e+2, 1.9519104e+2, -895548.44, -999267.8, 46009.727, -0.001609651, -0.27221516, -878080.44, 149028.31, 0.0, 10.001032, 9.999693 
8.4503376e+2, 2.0518969e+2, -828251.25, -979455.5, 129865.7, -0.08713251, -0.34415022, -753584.3, 175534.36, 0.0, 10.001105, 9.999118 
8.450283e+2, 2.1518971e+2, -888045.1, -959252.4, 122828.375, -0.14336492, -0.2708639, -795764.3, 35354.91, 0.0, 10.000027, 9.999105 
8.450216e+2, 2.251897e+2, -716290.06, -727515.3, -4081.745, -0.13308026, -0.22411609, -714962.8, 18155.438, 0.0, 10.000116, 9.999971 
8.450139e+2, 2.3518953e+2, -454242.03, -555925.4, -37835.355, -0.06591697, -0.2588108, -441708.7, 193408.2, 0.0, 10.001267, 9.999925 
8.4500664e+2, 2.4518879e+2, -454181.9, -717026.3, 33578.996, -0.036720317, -0.22609894, -449959.9, 87167.11, 0.0, 10.001493, 9.998041 
8.4499973e+2, 2.5518724e+2, -453769.7, -663779.3, 55541.887, -0.040500138, -0.2060776, -439985.16, -834.63855, 0.0, 10.00082, 9.9980545 
8.4499264e+2, 2.6518655e+2, -320564.25, -444258.9, 39205.195, -0.039757416, -0.12464066, -309184.97, 31975.016, 0.0, 10.000621, 9.998982 
8.4498537e+2, 2.7518648e+2, -180655.69, -327732.78, -2971.4783, -0.021826608, -0.048752706, -180595.67, 62562.29, 0.0000000050987805, 10.000911, 9.998972 
8.4497756e+2, 2.851846e+2, -70304.914, -346402.9, 1771.4299, -0.051437296, -0.077432, -70293.55, 74880.48, 0.0000017149706, 10.001516, 9.997881 
8.449691e+2, 2.9518053e+2, 145209.17, -193865.05, 29567.582, -0.12181588, -0.30008787, 147768.19, 194979.52, 0.0000255943, 10.002332, 9.997857 
8.449607e+2, 3.0517718e+2, 197652.95, -201844.77, 18558.938, -0.12112924, -0.3900805, 198513.27, 198513.27, 0.000114907256, 10.002611, 9.997345 
8.449519e+2, 3.1517902e+2, 196802.73, -129212.305, 112245.36, -0.07720783, 0.031157602, 231710.53, 231710.53, 0.00028673265, 10.002232, 9.998023 
8.5509187e+2, 1.2519842e+2, -1706214.1, -1651491.5, 39877.492, -0.05531756, -0.19688463, -1630491.0, 82544.36, 0.0, 9.999749, 10.00055 
8.550856e+2, 1.351992e+2, -1911172.4, -1729656.5, -6676.7827, 0.1210929, -0.16280642, -1729411.3, -114376.69, 0.0, 9.997861, 10.000242 
8.5507774e+2, 1.4520033e+2, -1783121.9, -1563005.9, 35372.59, 0.08740538, -0.09139485, -1557461.3, -40434.98, 0.0, 9.997791, 10.000749 
8.550691e+2, 1.5520117e+2, -1417649.6, -1334473.0, 71250.88, -0.113937825, -0.10931555, -1293561.1, 125456.44, 0.0, 9.99963, 10.000753 
8.550614e+2, 1.6520175e+2, -1307029.1, -1339675.8, 6184.612, -0.1295503, -0.07340348, -1305896.8, 15115.938, 0.0, 10.000184, 9.999786 
8.550546e+2, 1.7520177e+2, -1307065.8, -1283158.3, 13506.855, 0.024681985, -0.07209839, -1277075.3, -54060.586, 0.0, 9.999494, 9.99983 
8.5504866e+2, 1.852016e+2, -1184172.3, -1196635.8, 96153.125, 0.11890778, -0.059012633, -1094049.1, 30965.674, 0.0, 9.999757, 9.999623 
8.550433e+2, 1.9520107e+2, -906106.2, -1014485.75, 99744.76, 0.15077889, -0.094798796, -846781.44, 180233.9, 0.0, 10.0009985, 9.999605 
8.550362e+2, 2.0520017e+2, -830472.75, -967828.3, 78922.79, 0.031790856, -0.1226608, -794530.06, 134491.33, 0.0, 10.001028, 9.999241 
8.5502756e+2, 2.1519865e+2, -891661.56, -944260.7, 94248.805, -0.23116322, -0.21777108, -820111.75, 10923.621, 0.0, 9.999924, 9.999261 
8.5502094e+2, 2.2519767e+2, -784762.9, -835224.25, 31051.387, -0.22693114, -0.24029681, -769983.8, -36939.22, 0.0, 9.999971, 9.999302 
8.550163e+2, 2.3519711e+2, -514133.0, -655585.3, 14978.772, 0.026353523, -0.24768442, -512564.25, 122486.21, 0.0, 10.001161, 9.999291 
8.550099e+2, 2.4519683e+2, -409679.38, -602419.4, -2037.7527, 0.12329898, -0.18010686, -409657.8, 127396.69, 0.0, 10.0014, 9.998875 
8.5500187e+2, 2.5519648e+2, -412081.84, -554886.7, 38984.35, 0.074673094, -0.1260508, -402132.66, 36927.77, 0.0, 10.000722, 9.998852 
8.5499346e+2, 2.6519507e+2, -392016.66, -577974.5, 40116.26, -0.034142807, -0.110587835, -383731.6, -42655.207, 0.0, 10.000555, 9.998101 
8.5498464e+2, 2.7519262e+2, -255811.53, -461998.28, 19566.248, -0.20509842, -0.18290688, -253971.2, -10869.003, 0.0000001292932, 10.000816, 9.9981 
8.549782e+2, 2.8519133e+2, -3571.1875, -189230.89, 26363.527, -0.15829866, -0.16666771, 99.8261, 145212.42, 0.0000031613251, 10.001442, 9.998993 
8.549738e+2, 2.9519045e+2, 211551.84, -39364.563, 71612.3, 0.08746508, -0.17654425, 230551.53, 277666.0, 0.000030116835, 10.00226, 9.998954 
8.5496444e+2, 3.0518815e+2, 228653.7, -124163.586, -2203.618, -0.024316696, -0.24383686, 228667.47, 228667.47, 0.0001273879, 10.002567, 9.997897 
8.5495114e+2, 3.151862e+2, 163269.64, -156315.61, 116257.99, -0.421348, -0.24639134, 201086.75, 201086.75, 0.00031292601, 10.002065, 9.997917 
8.650907e+2, 1.2520532e+2, -1983486.1, -1780211.0, 2494.9785, -0.038407415, -0.24067953, -1780180.4, -67215.55, 0.00000000000000000000885557, 9.997816, 10.000594 
8.650835e+2, 1.3520578e+2, -1701187.0, -1634996.8, -52814.492, 0.054374583, -0.24020821, -1605764.8, 9202.1875, 0.0, 9.999296, 10.000211 
8.65076e+2, 1.4520723e+2, -1481065.8, -1375878.4, 47485.527, 0.03825653, -0.1556865, -1357613.3, 159343.39, 0.0, 9.999695, 10.001113 
8.650693e+2, 1.5520938e+2, -1453683.4, -1318867.0, 43356.625, -0.023818668, -0.07356271, -1306127.5, 112809.32, 0.0, 9.999234, 10.001061 
8.650622e+2, 1.652101e+2, -1417600.8, -1379740.8, -20963.68, -0.020315338, -0.045347765, -1370425.0, -49494.035, 0.0, 9.999378, 9.999885 
8.6505455e+2, 1.7520922e+2, -1209428.4, -1230625.3, -16710.973, 0.037968565, -0.14254966, -1200238.4, 22702.12, 0.0, 10.000138, 9.999874 
8.6504835e+2, 1.8520905e+2, -1095917.5, -1163518.8, 110177.74, 0.08921861, -0.12824602, -1014472.2, 110469.23, 0.0, 10.000416, 9.999525 
8.650436e+2, 1.9520935e+2, -1029746.6, -1083231.0, 97910.44, 0.12839185, -0.06909664, -954992.0, 71944.1, 0.0, 10.000207, 9.999505 
8.650369e+2, 2.0520887e+2, -966910.44, -999931.6, 53837.055, 0.060303938, -0.06553291, -927109.1, 1830.12, 0.0, 9.999959, 9.999523 
8.6502844e+2, 2.152074e+2, -921410.4, -928461.0, 57898.867, -0.11415499, -0.18595883, -866929.6, -35976.805, 0.0, 9.999601, 9.999515 
8.650217e+2, 2.2520654e+2, -846754.1, -874036.9, 94235.99, -0.12052245, -0.20375332, -765177.25, -32216.42, 0.0, 9.999574, 9.999237 
8.6501676e+2, 2.3520617e+2, -718010.5, -762304.0, 107022.21, 0.03539542, -0.184077, -630867.56, 4097.3833, 0.0, 9.999791, 9.999224 
8.650103e+2, 2.4520582e+2, -594556.0, -687223.4, 67008.63, 0.0950367, -0.12230894, -559422.1, -22453.379, 0.0, 10.000121, 9.998901 
8.650024e+2, 2.5520518e+2, -426429.88, -558363.56, 26989.244, 0.06181258, -0.09720261, -421122.3, 17852.79, 0.0, 10.000618, 9.998875 
8.6499435e+2, 2.6520336e+2, -327120.8, -566500.4, 62987.063, -0.026447961, -0.11436792, -311558.94, 29435.297, 0.0000000005766255, 10.0010805, 9.997924 
8.649862e+2, 2.7520034e+2, -164427.28, -436692.44, 74573.664, -0.16115372, -0.22906464, -145339.66, 97686.66, 0.000000514823, 10.001518, 9.997933 
8.6498016e+2, 2.8519925e+2, 58219.633, -165157.19, 91170.5, -0.117522, -0.18266214, 90705.984, 235742.17, 0.0000054394536, 10.001879, 9.998958 
8.649761e+2, 2.9519942e+2, 196854.19, -43392.35, 34701.926, 0.10421208, -0.08436637, 201766.22, 248796.1, 0.000035908153, 10.002142, 9.998988 
8.649668e+2, 3.0519786e+2, 244135.56, -103866.086, -94296.12, -0.041842707, -0.08689113, 268043.9, 268043.9, 0.00014004746, 10.002615, 9.998004 
8.6495394e+2, 3.1519434e+2, 306376.2, -57476.227, -50237.98, -0.38347894, -0.26586115, 313185.25, 313185.25, 0.00033713353, 10.002933, 9.998157 
8.7508917e+2, 1.2521109e+2, -1961493.4, -1745880.4, 27436.488, -0.024350343, -0.3419639, -1742443.9, -29535.107, 0.0000000055054987, 9.997856, 10.00081 
8.7508106e+2, 1.3521264e+2, -1677650.1, -1582848.8, 9248.636, -0.13927974, -0.26858822, -1581954.9, 32942.816, 0.0, 9.999289, 10.000564 
8.7507415e+2, 1.452145e+2, -1479733.6, -1376804.3, 17736.795, -0.14071389, -0.1598349, -1373833.6, 143049.61, 0.0, 9.999706, 10.001104 
8.7506986e+2, 1.5521675e+2, -1449969.5, -1308944.6, 36442.676, 0.082273364, -0.07291326, -1300084.0, 118780.24, 0.0, 9.999233, 10.001125 
8.750633e+2, 1.6521755e+2, -1392004.8, -1330716.5, -1646.4307, 0.12886183, -0.05766095, -1330672.4, -9814.91, 0.0, 9.999386, 10.000224 
8.7505484e+2, 1.7521697e+2, -1183790.9, -1182118.4, 19949.055, 0.028908322, -0.15546106, -1162988.0, 59873.76, 0.0, 10.000155, 10.0002 
8.750475e+2, 1.8521658e+2, -1107155.1, -1182122.9, 92931.03, -0.0609855, -0.17169525, -1044433.1, 80431.76, 0.0, 10.000392, 9.999411 
8.7504125e+2, 1.9521594e+2, -1040148.1, -1094991.6, 99399.79, -0.1481868, -0.19985867, -964457.0, 62413.707, 0.0, 10.000161, 9.999447 
8.7503564e+2, 2.052158e+2, -957351.94, -954669.9, 31420.352, -0.08097152, -0.18061022, -924561.94, 4310.3594, 0.0, 9.999848, 9.999887 
8.750306e+2, 2.1521595e+2, -910778.25, -881829.94, 52553.465, 0.124186255, -0.17233059, -841793.9, -10922.518, 0.0, 9.999495, 9.9998865 
8.750237e+2, 2.2521637e+2, -824921.06, -803559.7, 92319.52, 0.1082075, -0.10981402, -721305.06, 11561.305, 0.0, 9.999463, 9.999775 
8.7501526e+2, 2.3521677e+2, -698466.6, -693113.56, 124940.64, -0.11438402, -0.06873127, -570820.75, 64039.31, 0.0, 9.999666, 9.999759 
8.750077e+2, 2.4521577e+2, -666514.56, -814701.2, 76324.95, -0.1998684, -0.055560622, -634234.44, -97364.93, 0.0, 10.000022, 9.998076 
8.750009e+2, 2.5521335e+2, -498789.63, -682454.4, 56853.063, -0.16686541, -0.12562174, -482615.25, -43720.383, 0.0, 10.000506, 9.9980755 
8.7499493e+2, 2.6521143e+2, -299393.56, -497862.5, 71196.57, -0.09321247, -0.14023818, -276495.2, 64418.88, 0.0000000691861, 10.001029, 9.998422 
8.7498975e+2, 2.752097e+2, -144140.17, -374815.7, 101226.89, 0.016499234, -0.17778514, -106018.875, 136911.44, 0.000001269736, 10.001433, 9.9984 
8.749833e+2, 2.852085e+2, -21198.063, -323302.0, 89951.71, -0.0101082325, -0.10910669, 3556.703, 148500.52, 0.000008255043, 10.001846, 9.99789 
8.749758e+2, 2.952074e+2, 111478.58, -204444.73, 55863.05, -0.16639528, -0.028695447, 121065.62, 168023.98, 0.000042714033, 10.002069, 9.997921 
8.749674e+2, 3.052063e+2, 213813.33, -151165.03, -83617.055, -0.2571595, 0.081695184, 232058.08, 232058.08, 0.00015286829, 10.002547, 9.997709 
8.749598e+2, 3.1520244e+2, 310619.5, -32824.895, -25833.486, -0.14240895, -0.09639813, 312551.8, 312551.8, 0.00035722472, 10.002861, 9.998363 
8.8508767e+2, 1.2521796e+2, -1964182.9, -1677302.1, 14053.861, 0.059592303, -0.24964078, -1676615.4, 36232.527, 0.00000006865043, 9.997552, 10.0014305 
8.8508004e+2, 1.3521948e+2, -1793655.4, -1569034.1, -4152.68, -0.11066419, -0.2421465, -1568957.4, 45873.965, 0.0, 9.998189, 10.001199 
8.850732e+2, 1.452211e+2, -1659511.6, -1481962.5, -7163.6523, -0.14322592, -0.17870444, -1481673.9, 35143.746, 0.0, 9.998567, 10.000921 
8.850688e+2, 1.5522332e+2, -1500434.0, -1355032.3, -29358.465, 0.06925107, -0.07612491, -1349328.3, 69473.01, 0.0, 9.998983, 10.00092 
8.8506263e+2, 1.652244e+2, -1371854.1, -1281878.3, -34467.363, 0.1317594, -0.040361267, -1270192.5, 50599.645, 0.0, 9.99937, 10.000567 
8.8505507e+2, 1.7522444e+2, -1222017.4, -1161493.1, -30747.07, 0.064093165, -0.10919289, -1148613.9, 74175.33, 0.0, 9.999735, 10.0005455 
8.8504785e+2, 1.8522425e+2, -1182087.0, -1185677.3, 42793.7, -0.028884595, -0.13617404, -1141050.9, -16260.675, 0.0, 9.99974, 9.999701 
8.850409e+2, 1.952235e+2, -1137217.0, -1111574.5, 55156.418, -0.15487818, -0.20168354, -1067768.8, -40970.965, 0.0, 9.999372, 9.999713 
8.8503534e+2, 2.052235e+2, -997033.25, -993049.94, 17112.479, -0.080517694, -0.17181434, -977813.6, -49014.652, 0.0, 9.999648, 9.999727 
8.8503104e+2, 2.1522406e+2, -782042.5, -839706.3, -15298.648, 0.18154627, -0.10700038, -778235.06, 52560.125, 0.0, 10.000455, 9.999721 
8.850244e+2, 2.2522438e+2, -626203.7, -708772.25, -4116.089, 0.16608244, -0.043951288, -625999.0, 106791.84, 0.0, 10.000839, 9.999754 
8.850155e+2, 2.3522423e+2, -532928.5, -618191.44, -39521.09, -0.107452184, -0.05526947, -517427.72, 117360.91, 0.0, 10.000826, 9.999711 
8.85008e+2, 2.4522284e+2, -521666.63, -759668.94, -46985.75, -0.21908158, -0.07290407, -512726.63, 24074.523, 0.0, 10.001076, 9.997946 
8.850017e+2, 2.5522006e+2, -342580.25, -622302.44, -35130.297, -0.18654105, -0.16626096, -338235.72, 100593.79, 0.00000000006372724, 10.001625, 9.997953 
8.8499624e+2, 2.6521826e+2, -204238.02, -426123.5, -7135.793, -0.09040666, -0.17508864, -204008.77, 136837.88, 0.00000025387644, 10.00157, 9.998655 
8.8499147e+2, 2.752171e+2, -185426.98, -367047.13, -15751.404, 0.0699325, -0.18066564, -184071.03, 58784.98, 0.0000021793016, 10.001024, 9.998651 
8.84985e+2, 2.85216e+2, -161590.64, -380134.28, 40286.824, 0.02908134, -0.116406135, -154400.63, -9532.45, 0.000011106664, 10.000863, 9.997957 
8.849771e+2, 2.9521468e+2, -24430.434, -264771.25, 71438.266, -0.18951038, -0.06278933, -4799.7236, 42086.254, 0.000049522223, 10.001121, 9.997958 
8.8496965e+2, 3.052135e+2, 131076.66, -258746.11, 12453.867, -0.26357412, 0.06523544, 131474.13, 131474.13, 0.00016466355, 10.002266, 9.997118 
8.8496464e+2, 3.1520995e+2, 464152.56, 29414.39, 2302.7446, 0.00814667, -0.012772915, 464164.75, 464164.75, 0.00037254568, 10.003958, 9.998284 
8.950854e+2, 1.2522581e+2, -1897860.8, -1535770.0, 2699.1143, 0.035243683, 0.020914737, -1535749.9, 177033.53, 0.00000033567557, 9.997552, 10.002395 
8.9508015e+2, 1.3522649e+2, -1725691.5, -1426890.4, 23496.172, 0.060726553, -0.1517841, -1425054.0, 189712.05, 0.00000000007521531, 9.998199, 10.002163 
8.9507276e+2, 1.4522736e+2, -1686774.5, -1542593.8, -2573.0562, -0.06637042, -0.19029036, -1542547.9, -25791.227, 0.0, 9.998578, 10.000504 
8.9506584e+2, 1.552293e+2, -1529103.0, -1417662.8, -1193.5975, -0.14387181, -0.070973344, -1417650.0, 1095.6718, 0.0, 9.998996, 10.000487 
8.9505994e+2, 1.6523078e+2, -1347925.3, -1237082.8, -30833.3, -0.09842022, 0.01304873, -1229083.1, 91650.41, 0.0, 9.999383, 10.00087 
8.9505506e+2, 1.752316e+2, -1198387.1, -1112192.5, -7675.534, 0.0697437, -0.011805212, -1111514.4, 111208.12, 0.0, 9.999731, 10.000887 
8.9504915e+2, 1.852321e+2, -1144943.3, -1098828.0, 19917.297, 0.1050957, -0.02124694, -1091416.8, 33299.832, 0.0, 9.999693, 10.00032 
8.950422e+2, 1.9523205e+2, -1105144.8, -1033046.5, 50449.08, 0.015805334, -0.07699191, -1007090.4, 19626.988, 0.0, 9.999314, 10.000281 
8.950357e+2, 2.0523201e+2, -1056219.0, -1094989.3, 38233.63, -0.025831176, -0.044479366, -1032736.94, -104017.76, 0.0, 9.999558, 9.999071 
8.9502966e+2, 2.1523175e+2, -846027.3, -941419.5, 25076.807, -0.023103446, 0.0016138421, -839836.8, -9112.839, 0.0, 10.000324, 9.999083 
8.950236e+2, 2.252307e+2, -693524.3, -818819.3, -13539.406, -0.021515837, -0.0072170272, -692077.94, 40655.582, 0.0, 10.000705, 9.999066 
8.9501727e+2, 2.3522872e+2, -595417.1, -720853.5, -30240.598, -0.030289793, -0.13351154, -588507.25, 46242.105, 0.0, 10.000709, 9.999063 
8.95011e+2, 2.4522708e+2, -493105.16, -684009.56, -36272.8, -0.05029234, -0.17257251, -486445.47, 50317.688, 0.0, 10.001001, 9.998504 
8.950046e+2, 2.5522548e+2, -321627.34, -551786.56, -5660.555, -0.08345515, -0.20508298, -321488.22, 117289.555, 0.0000000002378373, 10.001511, 9.998495 
8.9499795e+2, 2.6522413e+2, -211271.25, -426998.88, -36300.633, -0.09898408, -0.19728823, -205326.72, 135462.92, 0.00000030747992, 10.001513, 9.998674 
8.94991e+2, 2.752227e+2, -200983.19, -373961.03, -24346.076, -0.09829735, -0.22527093, -197621.88, 45179.992, 0.0000026197797, 10.000923, 9.99865 
8.949849e+2, 2.852218e+2, -87407.92, -219871.61, 40363.094, -0.08986449, -0.20106608, -76077.945, 68731.39, 0.000013171274, 10.000826, 9.999078 
8.9497966e+2, 2.952212e+2, 45836.914, -107156.4, 93732.61, -0.07511453, -0.19082727, 90325.96, 137139.5, 0.000055655084, 10.001063, 9.999067 
8.9497334e+2, 3.052194e+2, 58666.406, -393916.13, 69910.29, -0.14665656, -0.13181067, 69219.37, 69219.37, 0.00017577781, 10.00221, 9.996212 
8.949678e+2, 3.1521496e+2, 420187.53, -22007.033, 79544.555, -0.11859617, -0.21685672, 434061.2, 434061.2, 0.0003866523, 10.003804, 9.9979925 
9.05083e+2, 1.2523235e+2, -1771503.8, -1482027.5, 106517.06, 0.006498575, 0.057558652, -1447057.5, 265663.72, 0.0000010657902, 9.998424, 10.002354 
9.05079e+2, 1.3523325e+2, -1713562.4, -1419398.3, 30489.68, 0.13334656, -0.09809362, -1416271.4, 198429.72, 0.000000007369457, 9.998268, 10.002182 
9.0507215e+2, 1.4523384e+2, -1712039.4, -1564128.9, 18294.428, 0.026240507, -0.16076402, -1561899.6, -45206.273, 0.0, 9.998439, 10.000421 
9.0506494e+2, 1.5523505e+2, -1523074.4, -1422632.4, 22371.396, -0.13708165, -0.10919918, -1417875.0, 813.778, 0.0, 9.999066, 10.00042 
9.050591e+2, 1.6523631e+2, -1341806.3, -1235002.1, 6364.218, -0.11889829, -0.0419429, -1234624.3, 86054.22, 0.0, 9.999428, 10.000867 
9.050547e+2, 1.7523737e+2, -1227317.5, -1126040.0, -15620.795, 0.074611545, -0.045142695, -1123685.5, 98980.37, 0.0, 9.999532, 10.000886 
9.0504926e+2, 1.8523818e+2, -1141165.6, -1132775.3, -22960.322, 0.14549069, -0.004325027, -1113630.0, 11028.476, 0.0, 9.999868, 10.000002 
9.050428e+2, 1.9523865e+2, -958245.3, -997326.44, -75488.56, 0.1001484, 0.021522015, -899809.25, 126848.32, 0.0, 10.000458, 9.99998 
9.050363e+2, 2.0523861e+2, -904917.5, -977509.75, -63521.68, 0.03576078, 0.049741846, -868053.44, 60605.53, 0.0, 10.000408, 9.999463 
9.050294e+2, 2.1523787e+2, -899361.5, -925902.44, -22151.945, -0.043033984, 0.0077592046, -886809.25, -56144.1, 0.0, 9.999779, 9.999451 
9.0502363e+2, 2.2523664e+2, -822418.5, -903238.06, 27416.129, -0.0406654, -0.02744143, -813995.94, -81320.45, 0.0, 9.999921, 9.998864 
9.050186e+2, 2.3523474e+2, -593121.44, -742889.5, 28089.83, 0.031135673, -0.123522975, -588026.4, 46665.52, 0.0, 10.000824, 9.9988575 
9.0501285e+2, 2.4523324e+2, -493966.75, -659607.6, 23899.236, 0.047359157, -0.14978589, -490587.4, 46117.668, 0.0, 10.000899, 9.998713 
9.0500635e+2, 2.5523186e+2, -487134.8, -606074.25, 8456.141, 0.010315255, -0.18068624, -486536.63, -47819.273, 0.0, 10.00027, 9.998713 
9.0499943e+2, 2.6523063e+2, -339544.66, -479835.3, 432.7062, -0.043428484, -0.17585762, -339543.3, 1184.2963, 0.0000002007212, 10.000607, 9.998748 
9.049922e+2, 2.7522916e+2, -60017.254, -298715.9, -4547.01, -0.10302974, -0.21304072, -59930.668, 182808.38, 0.0000025589381, 10.001863, 9.998715 
9.049866e+2, 2.8522795e+2, 100830.28, -174486.17, 13456.982, -0.070474565, -0.1969163, 101486.48, 246235.13, 0.000014749117, 10.002303, 9.998689 
9.049824e+2, 2.9522705e+2, 146911.6, -95472.25, -69078.09, 0.051507786, -0.18386857, 165216.14, 211972.69, 0.00006245814, 10.001924, 9.998737 
9.049765e+2, 3.052244e+2, 90594.83, -337319.7, -30888.693, -0.044051256, -0.2132023, 92813.01, 92813.01, 0.00018870574, 10.002257, 9.996578 
9.0497077e+2, 3.1522015e+2, 326046.16, -36789.258, 18266.826, -0.14897059, -0.30703437, 326963.5, 326963.5, 0.00040376265, 10.00301, 9.998284 
9.150796e+2, 1.2523806e+2, -1836147.6, -1617269.6, 66863.7, -0.22477163, -0.103765026, -1598460.3, 114197.24, 0.000002613721, 9.998446, 10.001407 
9.1507643e+2, 1.3523982e+2, -1775841.6, -1543705.4, 31015.559, 0.024740642, -0.08433606, -1539632.9, 75002.92, 0.00000007607973, 9.998252, 10.001332 
9.15071e+2, 1.4524041e+2, -1698035.0, -1529866.6, 30540.09, 0.036826067, -0.11751721, -1524492.1, -7862.806, 0.0, 9.998413, 10.0006695 
9.150655e+2, 1.5524067e+2, -1503674.1, -1384636.6, 57219.707, -0.0049904627, -0.1872825, -1361592.9, 57036.863, 0.0, 9.999075, 10.000676 
9.150597e+2, 1.6524124e+2, -1365272.8, -1281082.5, -774.9458, -0.023291077, -0.1875582, -1281075.4, 39549.6, 0.0, 9.99942, 10.000551 
9.150536e+2, 1.7524189e+2, -1256467.0, -1180864.6, -2012.9548, -0.0077423016, -0.19732536, -1180811.1, 41806.465, 0.0, 9.99951, 10.00052 
9.15048e+2, 1.8524268e+2, -1230896.5, -1309596.6, -9230.799, 0.0092074685, -0.081212245, -1229828.3, -105213.69, 0.0, 9.999825, 9.998812 
9.150427e+2, 1.9524339e+2, -1051331.8, -1169977.5, -42349.008, 0.019607108, 0.091511354, -1037766.7, -11149.241, 0.0, 10.000371, 9.998838 
9.1503674e+2, 2.0524344e+2, -824705.8, -786925.1, -95051.91, 0.024238084, 0.114073016, -708904.6, 219712.61, 0.0, 10.000303, 10.00082 
9.150301e+2, 2.1524261e+2, -824910.6, -741601.7, -36494.332, 0.031752944, -0.072569154, -727876.25, 102740.64, 0.0, 9.999655, 10.000773 
9.150243e+2, 2.2524229e+2, -816537.2, -871364.75, 50358.4, 0.01887952, -0.09391217, -786614.4, -53998.42, 0.0, 9.999826, 9.999133 
9.1501915e+2, 2.3524229e+2, -592436.0, -714597.9, 70315.664, -0.008780721, -0.027191726, -560376.3, 74239.8, 0.0, 10.000707, 9.999109 
9.150133e+2, 2.4524137e+2, -514668.3, -684948.75, -7176.971, -0.0139865875, -0.00065728027, -514366.34, 22259.496, 0.0, 10.000819, 9.998581 
9.150067e+2, 2.5523934e+2, -509693.4, -634807.75, -3450.5012, 0.00362348, -0.08382785, -509598.3, -70951.086, 0.0, 10.000188, 9.99856 
9.150006e+2, 2.6523775e+2, -338485.34, -466946.0, 39719.156, -0.007438451, -0.10742192, -327196.47, 13463.807, 0.00000011562638, 10.000561, 9.998857 
9.14995e+2, 2.7523643e+2, -65084.75, -291896.75, 53732.86, -0.038642567, -0.1466833, -52999.152, 189668.89, 0.0000025826089, 10.001787, 9.998798 
9.149899e+2, 2.8523463e+2, -41216.195, -455185.44, -10976.323, 0.0002824792, -0.10278031, -40925.367, 103760.62, 0.000017159802, 10.002243, 9.99679 
9.14985e+2, 2.9523224e+2, 3873.2566, -375761.78, -70091.53, 0.0971528, -0.041129384, 16400.771, 63115.098, 0.00007135739, 10.00185, 9.996848 
9.149789e+2, 3.0522838e+2, 187590.02, -117601.914, -6436.3467, -0.045097295, -0.17494874, 187725.69, 187725.69, 0.00020552066, 10.002183, 9.998119 
9.14973e+2, 3.1522503e+2, 390377.34, 127188.18, 63146.34, -0.27490896, -0.3412468, 404743.7, 404743.7, 0.00042645857, 10.002889, 9.999462 
9.250785e+2, 1.2524351e+2, -2029691.1, -1756796.5, -11749.217, -0.11304701, -0.15087427, -1756291.6, -43689.473, 0.0000053718704, 9.997304, 10.001006 
9.250742e+2, 1.3524522e+2, -1900624.3, -1636326.6, -37000.715, 0.028040567, -0.10862254, -1631244.5, -16660.055, 0.00000033393198, 9.997531, 10.001055 
9.2506903e+2, 1.4524606e+2, -1757851.0, -1523385.0, 33415.574, 0.03722303, -0.11866032, -1518715.8, -2139.9954, 0.0, 9.9978485, 10.000993 
9.250648e+2, 1.5524672e+2, -1567422.3, -1382819.9, 38834.883, 0.049397215, -0.17980827, -1374982.9, 43586.684, 0.0, 9.998493, 10.000973 
9.2505944e+2, 1.6524732e+2, -1439415.5, -1336675.0, -4957.2437, 0.042322323, -0.18343839, -1336436.4, -15872.665, 0.0, 9.998984, 10.0003805 
9.250533e+2, 1.7524773e+2, -1291364.6, -1216704.6, -12561.261, 0.021220617, -0.20026056, -1214647.9, 7911.8296, 0.0, 9.999345, 10.000356 
9.2504776e+2, 1.8524823e+2, -1244027.5, -1289727.3, 65406.0, 0.015566933, -0.11591323, -1197594.9, -73036.55, 0.0, 9.999626, 9.999043 
9.2504275e+2, 1.9524857e+2, -1118175.6, -1174564.0, 113724.88, 0.019575091, -0.006012026, -1029202.2, -2640.2378, 0.0, 9.999801, 9.999076 
9.250371e+2, 2.0524843e+2, -867532.06, -851975.9, 50780.6, 0.043535545, 0.005761231, -808381.1, 120182.13, 0.0, 10.000198, 10.000432 
9.2503095e+2, 2.1524762e+2, -674423.3, -709048.1, -33239.707, 0.09535336, -0.13845189, -654257.75, 176307.02, 0.0, 10.000854, 10.000426 
9.2502505e+2, 2.2524758e+2, -651342.0, -746603.5, 17962.691, 0.06802072, -0.13675311, -648067.5, 84494.5, 0.0, 10.000774, 9.999524 
9.2501926e+2, 2.3524804e+2, -661104.0, -705740.06, 25603.805, -0.03252303, -0.061427794, -649456.6, -14899.548, 0.0, 10.000052, 9.999482 
9.250137e+2, 2.4524741e+2, -586356.0, -751720.44, -22958.791, -0.032652818, -0.010348949, -583227.7, -46662.45, 0.0, 10.000464, 9.998299 
9.2500836e+2, 2.552455e+2, -270135.75, -547347.1, -47518.32, 0.060230684, -0.051190704, -262216.6, 176371.03, 0.0, 10.00196, 9.998307 
9.250029e+2, 2.6524383e+2, -80010.945, -386479.13, -8124.0884, 0.06699709, -0.05316706, -79795.734, 260807.56, 0.00000007319143, 10.002512, 9.998475 
9.2499745e+2, 2.7524212e+2, -36582.203, -318608.16, -47524.848, 0.011054404, -0.09335524, -28789.027, 213826.38, 0.0000027897247, 10.0021515, 9.998439 
9.249925e+2, 2.8523985e+2, -38443.61, -521828.72, -59696.082, 0.02810848, -0.049277157, -31180.518, 113458.586, 0.000020180585, 10.002561, 9.996173 
9.2498785e+2, 2.952369e+2, 231210.72, -334737.3, -44698.63, 0.11521777, 0.018324593, 234719.27, 281393.47, 0.00008284934, 10.003704, 9.996235 
9.2498213e+2, 3.0523297e+2, 436259.28, 37105.47, 17957.84, -0.009234596, -0.109098725, 437065.56, 437065.56, 0.00022869528, 10.003711, 9.998454 
9.2497617e+2, 3.1523016e+2, 323162.63, 87479.13, -52243.63, -0.21122529, -0.25648648, 334224.22, 334224.22, 0.00046065266, 10.002437, 9.9994135 
9.3507886e+2, 1.2524828e+2, -2023405.3, -1729367.0, -35966.594, 0.1428393, -0.1397137, -1725031.5, -12472.435, 0.000009857008, 9.997256, 10.001213 
9.350721e+2, 1.3524957e+2, -1866632.1, -1583628.6, -22521.57, 0.04627009, -0.1727908, -1581847.6, 32697.996, 0.0000009955157, 9.997612, 10.001374 
9.350661e+2, 1.4525099e+2, -1728996.9, -1477696.9, 44510.113, -0.06843405, -0.15525764, -1470046.1, 46484.563, 0.00000000002439963, 9.99791, 10.00128 
9.350625e+2, 1.5525313e+2, -1550699.3, -1340999.5, 72557.34, -0.056287903, -0.09465707, -1318342.3, 100166.42, 0.0, 9.998465, 10.001274 
9.3505824e+2, 1.6525446e+2, -1440837.3, -1330447.8, -3347.7322, -0.005561656, -0.044604525, -1330346.4, -9850.667, 0.0, 9.998944, 10.000443 
9.350534e+2, 1.7525491e+2, -1283783.1, -1202693.1, 10583.441, 0.07752862, -0.062128376, -1201334.6, 21157.354, 0.0, 9.9993515, 10.000449 
9.350481e+2, 1.8525495e+2, -1141417.6, -1067277.5, 64007.3, 0.07535914, -0.10803029, -1030380.5, 94108.695, 0.0, 9.999586, 10.000591 
9.3504256e+2, 1.9525425e+2, -1027924.25, -968872.94, 128485.4, 0.001887138, -0.25592396, -866564.4, 159926.22, 0.0, 9.999724, 10.000525 
9.3503714e+2, 2.0525363e+2, -1015914.25, -1146520.8, 63093.117, 0.0031385806, -0.25964472, -990414.1, -61917.58, 0.0, 10.000134, 9.998443 
9.350317e+2, 2.1525294e+2, -828402.75, -1003961.75, -944.3632, 0.06969048, -0.19202994, -828397.6, 2110.6184, 0.0, 10.00074, 9.998461 
9.350256e+2, 2.252525e+2, -636668.0, -687219.2, -16575.215, 0.025559807, -0.15750441, -631717.9, 100795.16, 0.0, 10.000649, 9.999991 
9.3501866e+2, 2.3525202e+2, -648412.2, -653221.06, 10300.301, -0.11577723, -0.22291814, -640239.44, -5725.036, 0.0, 9.999936, 9.999902 
9.350138e+2, 2.4525134e+2, -627937.1, -817379.3, 23194.652, -0.09278723, -0.17506066, -625138.56, -88615.766, 0.0, 10.000376, 9.997889 
9.350108e+2, 2.5525025e+2, -312133.16, -618257.75, 16943.709, 0.09327957, -0.092580035, -311198.2, 127341.53, 0.0, 10.001883, 9.997861 
9.350059e+2, 2.6524872e+2, -146071.3, -505043.2, -28039.492, 0.104643844, -0.022076221, -143894.31, 196663.28, 0.00000003612581, 10.002436, 9.997694 
9.349993e+2, 2.7524644e+2, -105191.086, -438952.94, -47745.0, -0.042759195, -0.040995527, -98495.43, 144084.16, 0.0000027030533, 10.002062, 9.997652 
9.349942e+2, 2.8524384e+2, 2417.1387, -428715.9, -24193.494, -0.075849295, -0.019635303, 3770.5342, 148376.36, 0.000022488803, 10.002517, 9.996836 
9.349907e+2, 2.9524103e+2, 269215.13, -251835.42, 11400.465, 0.0031661962, -0.009748277, 269464.44, 316100.13, 0.000095232324, 10.003677, 9.996821 
9.349858e+2, 3.0523804e+2, 365462.75, -100831.29, -33737.363, -0.034286674, -0.021394277, 367891.1, 367891.1, 0.0002574787, 10.003677, 9.9975195 
9.349798e+2, 3.1523615e+2, 216490.89, -105992.92, -77666.41, -0.13830908, 0.010674134, 234221.11, 234221.11, 0.0005076496, 10.002322, 9.998135 
9.450776e+2, 1.2525462e+2, -1901181.6, -1694384.1, 98940.56, 0.25812736, -0.08573263, -1654672.6, 57826.816, 0.000016753027, 9.9981785, 10.001019 
9.4507086e+2, 1.3525565e+2, -1646704.0, -1501020.3, 38931.953, 0.0796558, -0.12350813, -1491269.0, 123220.84, 0.000002343361, 9.999215, 10.001172 
9.450648e+2, 1.4525698e+2, -1540437.4, -1387560.4, 69897.9, -0.055020843, -0.103385374, -1360420.1, 156055.02, 0.0000000053592455, 9.999208, 10.001267 
9.450609e+2, 1.5525895e+2, -1558716.5, -1351828.4, 53619.613, -0.053274017, -0.059577975, -1338757.4, 79695.23, 0.0, 9.998432, 10.001219 
9.45057e+2, 1.652601e+2, -1531567.5, -1403569.3, 2041.7672, 0.0027939035, -0.010470299, -1403536.8, -83095.58, 0.0, 9.998457, 10.000169 
9.450529e+2, 1.7526037e+2, -1318810.1, -1248201.4, -32858.188, 0.10428349, -0.021153884, -1235276.5, -12835.706, 0.0, 9.999242, 10.000183 
9.45048e+2, 1.8526012e+2, -1140707.3, -1051594.4, -50435.02, 0.11008999, -0.08881699, -1028853.2, 95586.76, 0.0, 9.999533, 10.000717 
9.450424e+2, 1.9525911e+2, -1065429.4, -973180.2, -104642.68, 0.03286884, -0.282668, -904947.56, 121494.04, 0.0, 9.99941, 10.000644 
9.450372e+2, 2.0525856e+2, -1043402.1, -1159744.5, -91773.98, 0.013203233, -0.28607824, -992916.25, -64470.137, 0.0, 9.99995, 9.998435 
9.4503236e+2, 2.1525832e+2, -782936.4, -979459.6, -29340.26, 0.050509904, -0.17431346, -778649.44, 51804.797, 0.0, 10.00105, 9.998468 
9.4502664e+2, 2.2525775e+2, -560061.3, -713238.56, -41959.62, 0.032804035, -0.12438991, -549320.56, 183141.69, 0.0, 10.001448, 9.999431 
9.450201e+2, 2.3525669e+2, -494154.06, -634458.3, -107120.57, -0.028354898, -0.19445097, -436258.78, 198213.31, 0.0, 10.001242, 9.999398 
9.4501543e+2, 2.4525578e+2, -446998.22, -686171.75, -24428.195, -0.010385804, -0.16276254, -444528.72, 91953.48, 0.0, 10.001425, 9.998285 
9.450126e+2, 2.5525486e+2, -279050.22, -554577.8, 11143.333, 0.0940753, -0.10580482, -278600.28, 159894.03, 0.0, 10.001907, 9.9982815 
9.45008e+2, 2.6525342e+2, -170564.67, -553510.75, -3303.1438, 0.07663436, -0.029908393, -170536.19, 169975.27, 0.000000027783642, 10.002422, 9.997372 
9.4500166e+2, 2.7525115e+2, 7681.909, -417133.5, -6881.4775, -0.04531358, -0.010883182, 7793.351, 250329.7, 0.000002329391, 10.0029745, 9.997371 
9.44997e+2, 2.8524855e+2, 122787.945, -294925.72, 64433.08, -0.0699059, -0.011519104, 132501.0, 277063.16, 0.000023981273, 10.003021, 9.997516 
9.4499385e+2, 2.9524562e+2, 147415.44, -234161.67, 80353.555, 0.0045093293, -0.08251714, 163646.13, 210235.08, 0.000106754764, 10.002522, 9.997498 
9.4498956e+2, 3.0524325e+2, 219233.78, -217355.28, 63494.543, 0.017449474, -0.039640866, 228280.53, 228280.53, 0.00028782972, 10.002883, 9.997107 
9.44984e+2, 3.1524158e+2, 411742.03, -70454.6, 24841.996, -0.024757236, 0.055431273, 413018.47, 413018.47, 0.0005617916, 10.0039215, 9.997619 
9.5507395e+2, 1.2526275e+2, -1951829.8, -1799428.3, 111002.26, 0.03428384, 0.027413674, -1740988.5, -28567.629, 0.00002677623, 9.998196, 10.000277 
9.5506996e+2, 1.3526355e+2, -1706190.0, -1609770.1, 80898.49, 0.047622643, 0.037811164, -1563805.9, 50609.99, 0.0000047533053, 9.999166, 10.000439 
9.550647e+2, 1.4526397e+2, -1567667.0, -1435725.5, 27240.785, -0.011577137, 0.017220223, -1430322.6, 86087.305, 0.000000046136613, 9.9991665, 10.000961 
9.5505965e+2, 1.5526426e+2, -1572680.0, -1392905.1, 34720.746, -0.04515501, -0.07607627, -1386432.4, 31968.475, 0.0, 9.998483, 10.000914 
9.550553e+2, 1.6526441e+2, -1571713.6, -1495954.6, 21976.533, -0.03100813, -0.07610319, -1490041.1, -169642.36, 0.0, 9.998493, 9.99952 
9.550516e+2, 1.7526422e+2, -1365561.6, -1345230.8, 5225.5586, 0.027055493, -0.06819773, -1343966.4, -121561.266, 0.0, 9.999238, 9.999522 
9.550471e+2, 1.8526386e+2, -1228765.8, -1229944.1, -63521.81, 0.040447865, -0.054702047, -1165830.4, -41420.563, 0.0, 9.99951, 9.999505 
9.550419e+2, 1.9526312e+2, -1152426.6, -1141678.9, -98603.65, 0.017601505, -0.09657949, -1048302.75, -21887.707, 0.0, 9.999358, 9.999512 
9.550371e+2, 2.052632e+2, -917678.6, -881128.1, -60342.24, -0.007087777, -0.08277784, -836354.44, 92057.234, 0.0, 9.999872, 10.000389 
9.550327e+2, 2.1526375e+2, -673730.5, -721142.7, 19539.025, -0.03802549, -0.08485345, -666716.06, 163686.81, 0.0, 10.000912, 10.000313 
9.55028e+2, 2.2526337e+2, -684707.5, -940659.0, -58949.39, 0.0129280705, -0.030170253, -671783.2, 60625.973, 0.0, 10.001317, 9.9979315 
9.5502317e+2, 2.3526187e+2, -614130.06, -857336.4, -102963.54, 0.1419663, 0.01098991, -576394.56, 58036.883, 0.0, 10.001125, 9.997928 
9.550184e+2, 2.4526063e+2, -375939.6, -511704.38, -13873.284, 0.12378984, 0.013302672, -374536.44, 161907.88, 0.0, 10.001318, 9.999529 
9.5501363e+2, 2.5525934e+2, -210013.31, -389970.88, 38628.504, -0.023740338, -0.08809645, -202072.02, 236378.89, 0.0, 10.001817, 9.999454 
9.550089e+2, 2.6525795e+2, -174196.94, -540616.06, 9051.259, -0.089844525, -0.06804088, -173973.5, 166490.94, 0.000000030362223, 10.002338, 9.997499 
9.550044e+2, 2.7525622e+2, 5314.2637, -405098.2, 25889.104, -0.088650316, -0.01018419, 6940.919, 249427.72, 0.000002140531, 10.002902, 9.997489 
9.550004e+2, 2.852538e+2, 162177.56, -195717.84, 37020.19, -0.047445346, -0.036813293, 165966.77, 310476.6, 0.000025889522, 10.00295, 9.998228 
9.549968e+2, 2.9525062e+2, 184803.94, -140034.89, 74040.74, 0.030929372, -0.20137021, 200884.1, 247418.31, 0.000117742304, 10.002452, 9.998177 
9.549931e+2, 3.0524877e+2, 220042.5, -198713.1, 101078.02, 0.071167216, -0.14984322, 243163.8, 243163.8, 0.00031737162, 10.002813, 9.99727 
9.5498836e+2, 3.1524706e+2, 415578.13, -43219.55, 95488.88, -0.027226051, -0.07291539, 434658.56, 434658.56, 0.0006187205, 10.003836, 9.997849 
9.650715e+2, 1.2526822e+2, -2150200.8, -1929863.6, 63533.055, 0.029668875, 0.035631314, -1912856.9, -200492.47, 0.000040530904, 9.996974, 9.999973 
9.650684e+2, 1.3526869e+2, -1786514.5, -1677291.6, 34505.875, 0.013045854, 0.03909216, -1667303.8, -52940.3, 0.000008656152, 9.998733, 10.000185 
9.65064e+2, 1.4526878e+2, -1583122.1, -1467988.3, -40678.813, 0.0033548514, 0.00953432, -1455066.0, 61295.695, 0.00000019058375, 9.999189, 10.000715 
9.6505874e+2, 1.5526856e+2, -1553600.1, -1408061.6, -54818.105, 0.007701275, -0.10779665, -1389724.4, 28634.373, 0.0, 9.998743, 10.000672 
9.6505445e+2, 1.6526869e+2, -1483425.5, -1434169.4, 36217.414, 0.012282005, -0.10892391, -1414999.8, -94642.625, 0.0, 9.999028, 9.999684 
9.650511e+2, 1.7526886e+2, -1244222.0, -1271081.3, 60459.17, 0.018793978, -0.08122163, -1195718.9, 26640.074, 0.0, 10.000007, 9.9996605 
9.6504664e+2, 1.852687e+2, -1159092.0, -1232710.8, 26217.764, 0.021216271, -0.0356162, -1150709.5, -26347.307, 0.0, 10.0001335, 9.999195 
9.650413e+2, 1.952681e+2, -1153797.6, -1177668.5, 43172.152, 0.022229059, -0.03460817, -1120941.4, -94573.0, 0.0, 9.99949, 9.999209 
9.6503687e+2, 2.052678e+2, -978171.5, -917494.06, 98292.914, 0.0058663487, -0.03695618, -844964.25, 83404.79, 0.0, 9.999511, 10.0003 
9.6503335e+2, 2.1526763e+2, -786426.1, -783297.06, 5020.1553, -0.026636392, -0.10649475, -779603.3, 50763.426, 0.0, 10.000187, 10.000224 
9.6502906e+2, 2.252672e+2, -768569.25, -989948.4, -95998.15, 0.01656712, -0.046339706, -732739.8, -366.41168, 0.0, 10.00077, 9.997865 
9.650243e+2, 2.3526637e+2, -599205.6, -849183.8, -47750.543, 0.14121696, 0.06506154, -590394.9, 43995.14, 0.0, 10.001225, 9.997933 
9.650195e+2, 2.4526522e+2, -362312.88, -482085.56, 72685.48, 0.11442562, 0.06594185, -328020.9, 208380.39, 0.0, 10.001305, 9.999746 
9.650148e+2, 2.5526366e+2, -303192.72, -408399.6, 32947.992, -0.03798106, -0.08401377, -293726.1, 144682.81, 0.0, 10.001071, 9.999688 
9.6501076e+2, 2.6526245e+2, -292192.0, -545257.5, 18056.178, -0.08515644, -0.08099773, -290910.2, 49509.29, 0.000000012060779, 10.001293, 9.99797 
9.650072e+2, 2.7526125e+2, -113614.73, -411052.2, 39075.883, -0.039878823, -0.017107874, -108566.8, 133869.06, 0.0000023356135, 10.001856, 9.997949 
9.6500355e+2, 2.8525907e+2, 115109.49, -228275.88, 41042.54, -0.0062136617, -0.03607471, 119946.88, 264403.47, 0.000028869204, 10.002672, 9.998133 
9.6499974e+2, 2.9525596e+2, 360977.38, -66414.56, -6564.9336, 0.024341792, -0.18590166, 361078.22, 407559.94, 0.00012890252, 10.003718, 9.99807 
9.649966e+2, 3.0525434e+2, 393022.47, -105368.836, 5430.141, 0.08790098, -0.1126463, 393081.63, 393081.63, 0.00034520676, 10.003947, 9.997363 
9.6499246e+2, 3.1525242e+2, 340960.84, -31868.744, -36364.766, 0.05354068, -0.070628725, 344474.66, 344474.66, 0.0006746772, 10.003135, 9.99825 
9.7506917e+2, 1.2527083e+2, -2121147.5, -1879590.5, 98716.234, 0.05201197, -0.08466175, -1844380.8, -132048.58, 0.000058506626, 9.997015, 10.000297 
9.750661e+2, 1.3527127e+2, -1758355.9, -1623360.5, 101376.76, -0.11662147, -0.118992485, -1569066.6, 45264.08, 0.00001444443, 9.9987545, 10.000543 
9.7506225e+2, 1.452717e+2, -1602724.3, -1513158.1, -68149.15, -0.11065494, -0.11675637, -1476394.8, 39933.17, 0.0000005546723, 9.999207, 10.0004 
9.750579e+2, 1.5527205e+2, -1577245.1, -1453247.3, -59276.395, 0.027696947, -0.14688198, -1429470.0, -11145.066, 0.0, 9.998728, 10.000371 
9.7505414e+2, 1.6527294e+2, -1415786.4, -1292627.3, 59643.023, 0.052738745, -0.105797574, -1268478.6, 51837.484, 0.0, 9.999016, 10.000665 
9.7505105e+2, 1.7527418e+2, -1175721.9, -1132000.9, 101070.64, -0.0056849187, -0.06607013, -1050453.6, 171849.56, 0.0, 10.000014, 10.000613 
9.750464e+2, 1.8527463e+2, -1120699.1, -1146874.1, -6302.6006, -0.033887736, -0.038823526, -1119260.6, 5037.1, 0.0, 10.000107, 9.999796 
9.750404e+2, 1.9527407e+2, -1126171.4, -1105576.4, 29603.05, -0.034001395, -0.09416944, -1084531.0, -58229.68, 0.0, 9.999427, 9.999733 
9.750363e+2, 2.0527251e+2, -1140330.0, -1236134.6, 112668.52, -0.024487792, -0.13941829, -1065803.4, -137486.06, 0.0, 9.999429, 9.998156 
9.750339e+2, 2.1526983e+2, -946288.94, -1091950.5, 37973.168, -0.007032693, -0.24122241, -936983.94, -106637.25, 0.0, 10.000083, 9.998159 
9.7502935e+2, 2.252692e+2, -686251.56, -788952.56, -89155.02, -0.043431073, -0.17645366, -634716.2, 97639.28, 0.0, 10.000644, 9.999301 
9.750231e+2, 2.3527014e+2, -527433.7, -661785.94, -22635.36, -0.12189249, -0.031456415, -523722.63, 110625.46, 0.0, 10.001065, 9.999294 
9.7501874e+2, 2.4526967e+2, -428934.94, -600263.7, 53588.953, -0.116984, 0.010742068, -413553.97, 122798.484, 0.0, 10.001214, 9.99898 
9.7501606e+2, 2.552677e+2, -363788.47, -518535.6, 35470.24, -0.04146921, -0.103061035, -356045.6, 82323.68, 0.0, 10.001, 9.998967 
9.7501314e+2, 2.6526666e+2, -243947.13, -428469.03, 30434.375, 0.0012879686, -0.091408744, -239056.98, 101321.65, 0.0000000034767167, 10.0012245, 9.998803 
9.750098e+2, 2.7526623e+2, -68445.54, -301235.2, 71977.86, 0.013485903, -0.035360876, -47988.004, 194395.8, 0.0000028342504, 10.001788, 9.998734 
9.750063e+2, 2.8526452e+2, 44989.605, -364926.75, 71931.7, -0.026250498, 0.0007517364, 57245.664, 201647.4, 0.000032313746, 10.002633, 9.997216 
9.750022e+2, 2.952615e+2, 289298.47, -202770.03, 46223.87, -0.120764285, -0.043872766, 293602.97, 340035.6, 0.00013997531, 10.003663, 9.997163 
9.749995e+2, 3.0525964e+2, 373331.66, -120126.96, -31334.236, -0.028069127, 0.053660456, 375313.38, 375313.38, 0.00037147623, 10.003844, 9.997309 
9.7499585e+2, 3.1525707e+2, 342055.7, 7871.776, -31821.793, 0.032547913, 0.034539036, 345058.84, 345058.84, 0.00072750956, 10.002982, 9.99859 
9.850673e+2, 1.2527223e+2, -1767807.5, -1623014.4, -25076.074, 0.06852691, -0.15348916, -1618794.5, 93524.945, 0.00008108169, 9.99907, 10.001071 
9.8506373e+2, 1.352737e+2, -2033557.6, -1677428.9, -25742.346, -0.10744173, -0.15641034, -1675577.8, -61272.72, 0.000022462764, 9.996514, 10.001261 
9.8506045e+2, 1.4527473e+2, -2012853.9, -1683611.0, -93859.74, -0.060943034, -0.14048328, -1658733.4, -142437.75, 0.0000013019285, 9.9962635, 10.000653 
9.850568e+2, 1.5527542e+2, -1617341.8, -1440972.3, -64476.934, 0.076475985, -0.16517952, -1419915.0, -1624.1096, 0.0, 9.998309, 10.000654 
9.850533e+2, 1.6527669e+2, -1420274.8, -1251700.3, 51627.855, 0.08211749, -0.120421164, -1237145.4, 83133.03, 0.0, 9.998803, 10.001045 
9.8504984e+2, 1.7527835e+2, -1451227.6, -1220054.9, 31029.854, -0.017762354, -0.077218115, -1215962.3, 6297.974, 0.0, 9.997942, 10.001002 
9.8504573e+2, 1.8527883e+2, -1330852.8, -1264527.8, -84464.336, -0.03822471, -0.05625594, -1206949.0, -82694.21, 0.0, 9.998736, 9.999651 
9.850409e+2, 1.9527803e+2, -916323.0, -1020486.2, -126997.92, 0.00371146, -0.12218807, -831142.2, 195120.78, 0.0, 10.000938, 9.999591 
9.8503697e+2, 2.0527667e+2, -849963.9, -1107032.3, -2921.5396, 0.0073794667, -0.13701445, -849930.7, 78347.68, 0.0, 10.001447, 9.998081 
9.850339e+2, 2.1527459e+2, -905648.06, -1079115.3, 61877.336, -0.019964926, -0.17362961, -885838.1, -55535.902, 0.0, 10.00038, 9.998112 
9.850295e+2, 2.2527377e+2, -689590.0, -764225.7, 16894.172, -0.07965426, -0.13515374, -685944.0, 46366.973, 0.0, 10.000502, 9.999538 
9.85024e+2, 2.3527393e+2, -424410.06, -588620.3, -25809.238, -0.1596397, -0.09398565, -420449.13, 213859.1, 0.0, 10.001666, 9.999508 
9.8502016e+2, 2.452733e+2, -361960.6, -608141.5, -599.3564, -0.12628882, -0.058098435, -361959.16, 174354.77, 0.0, 10.001862, 9.998609 
9.850176e+2, 2.552717e+2, -353964.88, -557004.6, -10178.985, 0.004591159, -0.09771251, -353455.84, 84874.1, 0.0, 10.001246, 9.998588 
9.850149e+2, 2.6527056e+2, -173926.03, -379349.28, 36089.867, 0.041522898, -0.08318489, -167770.05, 172570.5, 0.00000001775074, 10.001644, 9.998943 
9.850121e+2, 2.7526975e+2, 111050.32, -199004.63, 4058.0833, 0.0065846643, -0.07851569, 111103.42, 353451.16, 0.000003544514, 10.002958, 9.9988785 
9.85009e+2, 2.8526822e+2, 141178.94, -303215.53, 11577.876, -0.03786361, -0.037845045, 141480.38, 285843.97, 0.00003520851, 10.0032215, 9.997363 
9.850056e+2, 2.9526585e+2, 131533.3, -262236.25, 47359.74, -0.09216778, -0.03312126, 137149.28, 183538.52, 0.00014919741, 10.002502, 9.997315 
9.8500293e+2, 3.0526382e+2, 214721.33, -215717.61, 30384.115, -0.011720709, 0.049286492, 216855.53, 216855.53, 0.00039500848, 10.002824, 9.997144 
9.84999e+2, 3.1526095e+2, 487774.78, 93200.836, -6468.4346, 0.0125023965, 0.01614745, 487880.8, 487880.8, 0.0007743357, 10.003884, 9.998756 
9.9506515e+2, 1.2527263e+2, -1691593.5, -1462903.1, -149577.05, -0.10498029, -0.15479194, -1388971.6, 323352.22, 0.000108580556, 9.999075, 10.002162 
9.950612e+2, 1.3527605e+2, -1958487.4, -1522100.5, -111410.53, -0.029874738, -0.072413, -1495302.8, 118982.67, 0.000033028722, 9.996525, 10.002318 
9.9505824e+2, 1.4527796e+2, -1948773.8, -1557797.8, -30777.664, 0.064116284, -0.062441807, -1555389.8, -39125.64, 0.0000026281716, 9.996288, 10.001507 
9.9505526e+2, 1.5527877e+2, -1550967.3, -1313885.8, 18590.146, 0.060890388, -0.16145808, -1312437.0, 105819.01, 0.00000000019976186, 9.998348, 10.001512 
9.9505156e+2, 1.6528003e+2, -1433636.8, -1280860.9, 8674.553, 0.005940013, -0.15045477, -1280369.9, 39873.473, 0.0, 9.998812, 10.000838 
9.9504733e+2, 1.7528139e+2, -1464294.4, -1251698.4, 9514.835, -0.08795776, -0.11801292, -1251273.5, -29043.88, 0.0, 9.997956, 10.00078 
9.9504435e+2, 1.8528134e+2, -1399455.3, -1400649.4, -12750.68, -0.06981267, -0.09212509, -1387287.6, -263054.34, 0.0, 9.998711, 9.998731 
9.950425e+2, 1.9527991e+2, -981111.75, -1143331.0, -39225.484, 0.04796862, -0.12866607, -972124.75, 54129.465, 0.0, 10.000887, 9.998774 
9.950387e+2, 2.0528023e+2, -724809.2, -820479.6, -54890.656, 0.017376123, -0.03862167, -699835.1, 228417.4, 0.0, 10.001336, 10.000101 
9.9503326e+2, 2.1528187e+2, -787564.6, -803618.3, 31609.451, -0.14403978, 0.096619904, -762978.75, 67254.34, 0.0, 10.000249, 10.000066 
9.950293e+2, 2.2528102e+2, -778021.0, -910744.8, 51384.785, -0.16618712, 0.083464056, -760452.56, -28213.342, 0.0, 10.000347, 9.998606 
9.9502677e+2, 2.3527776e+2, -507737.97, -728395.06, 24711.398, -0.064739, -0.123160616, -505004.4, 129265.56, 0.0, 10.00153, 9.998611 
9.9502337e+2, 2.4527611e+2, -377838.0, -620223.7, -35086.93, -0.004084882, -0.1453989, -372861.13, 163424.69, 0.0, 10.001767, 9.998572 
9.9501914e+2, 2.5527567e+2, -371310.0, -569230.3, -22708.03, 0.01819189, -0.06595679, -368738.06, 69552.5, 0.0, 10.001142, 9.998555 
9.950159e+2, 2.652743e+2, -227905.86, -473834.06, 77383.625, -0.037012868, -0.044995997, -205582.67, 134721.19, 0.000000028595345, 10.001569, 9.998333 
9.950135e+2, 2.7527183e+2, 57810.246, -288592.6, 63969.89, -0.1666649, -0.14246492, 69245.98, 311573.22, 0.000003781716, 10.002869, 9.998307 
9.950114e+2, 2.852701e+2, 215040.42, -128312.83, -24983.646, -0.14110719, -0.15715003, 216848.8, 361191.56, 0.000036350866, 10.003131, 9.998607 
9.950095e+2, 2.9526895e+2, 208468.03, -85236.57, 34432.105, 0.021551782, -0.1566507, 212450.64, 258802.31, 0.00015454051, 10.002435, 9.998559 
9.9500674e+2, 3.0526698e+2, 187034.69, -263168.9, 66396.375, 0.06575013, -0.11811438, 196622.69, 196622.69, 0.00041140616, 10.002783, 9.996839 
9.950011e+2, 3.152638e+2, 458199.22, 81759.23, 64859.223, -0.21416281, -0.1470891, 469060.8, 469060.8, 0.00080725906, 10.003689, 9.998765 
1.0050639e+3, 1.252769e+2, -1975194.9, -1638211.1, 105051.71, -0.03608692, -0.110894665, -1608144.8, 104137.08, 0.00014134821, 9.997296, 10.001813 
1.0050595e+3, 1.3527925e+2, -1607175.4, -1385661.0, 11406.418, 0.026524676, -0.09959071, -1385075.3, 229179.14, 0.000046426092, 9.99909, 10.002006 
1.00505665e+3, 1.4528099e+2, -1496258.5, -1334905.4, 73974.98, 0.12778182, -0.095209844, -1306124.1, 210110.9, 0.00000474816, 9.999388, 10.001536 
1.0050535e+3, 1.5528251e+2, -1527228.6, -1302056.0, 32886.93, 0.051676482, -0.121600606, -1297351.0, 120868.51, 0.000000004412824, 9.998516, 10.001515 
1.0050501e+3, 1.652836e+2, -1488882.4, -1344763.3, -12634.729, -0.0066249887, -0.11005762, -1343664.0, -23454.879, 0.0, 9.998581, 10.000523 
1.00504644e+3, 1.7528403e+2, -1262425.6, -1186192.5, -36562.445, -0.04379848, -0.13953504, -1171491.6, 50714.11, 0.0, 9.999476, 10.000503 
1.005044e+3, 1.8528418e+2, -1209252.9, -1260651.4, 46773.22, -0.027680924, -0.102680534, -1181583.8, -57375.58, 0.0, 9.999822, 9.9991455 
1.0050426e+3, 1.952839e+2, -1127820.3, -1169630.3, 98445.72, 0.035215843, -0.063347585, -1048084.4, -21867.1, 0.0, 9.999702, 9.999156 
1.00503914e+3, 2.0528454e+2, -915562.25, -904246.94, 24135.064, -0.0043416135, 0.03404264, -885115.25, 43097.008, 0.0, 9.9999895, 10.00017 
1.0050336e+3, 2.1528572e+2, -740144.9, -775165.8, -55795.28, -0.13641231, 0.11585456, -699176.9, 131019.945, 0.0, 10.000553, 10.000112 
1.0050301e+3, 2.252846e+2, -729458.75, -911191.9, -28287.557, -0.13760975, 0.08534114, -725157.5, 7047.5283, 0.0, 10.000781, 9.998397 
1.00502826e+3, 2.3528118e+2, -642645.25, -820233.75, -21191.68, -0.022974743, -0.11415354, -640151.44, -5914.5557, 0.0, 10.000709, 9.998383 
1.00502506e+3, 2.4527936e+2, -474316.44, -674917.6, -54756.9, 0.021994011, -0.13927644, -460343.13, 75911.38, 0.0, 10.001133, 9.998503 
1.0050206e+3, 2.5527877e+2, -252999.64, -514957.72, -63230.22, 0.01076567, -0.06984208, -238536.0, 199724.95, 0.0, 10.001978, 9.998517 
1.0050176e+3, 2.6527733e+2, -146439.48, -433978.66, 86936.77, -0.047390997, -0.053120434, -122198.07, 218076.48, 0.000000017098808, 10.002136, 9.998324 
1.0050159e+3, 2.7527484e+2, -120171.0, -373563.9, 96445.33, -0.15204805, -0.15283784, -87639.02, 154658.5, 0.000003428396, 10.001647, 9.998305 
1.0050139e+3, 2.8527316e+2, 30096.076, -197382.6, -5235.134, -0.13254791, -0.17091124, 30216.494, 174528.17, 0.00003625069, 10.001764, 9.998793 
1.0050117e+3, 2.952721e+2, 207867.13, -68625.71, -45974.19, 0.014730216, -0.17895363, 215311.13, 261630.14, 0.00015742959, 10.002335, 9.99873 
1.0050098e+3, 3.0526978e+2, 208247.61, -253078.48, 5262.316, 0.087313406, -0.18444078, 208307.63, 208307.63, 0.0004215928, 10.00293, 9.9968405 
1.0050059e+3, 3.1526673e+2, 419665.0, 59737.605, -9293.059, -0.079430744, -0.19889057, 419904.78, 419904.78, 0.0008275706, 10.003416, 9.998758 
1.01506285e+3, 1.2528487e+2, -2085923.0, -1878566.9, 132275.95, 0.08072818, -0.032884605, -1814179.3, -101984.34, 0.0001798155, 9.997338, 10.00014 
1.0150582e+3, 1.352833e+2, -1717644.6, -1628124.3, 82579.414, -0.035109516, -0.24773125, -1578954.5, 35257.492, 0.000062927356, 9.999134, 10.000321 
1.0150553e+3, 1.4528382e+2, -1556421.9, -1460593.8, 27896.398, 0.030714285, -0.24230501, -1453064.4, 63144.2, 0.000007860604, 9.999394, 10.000667 
1.01505145e+3, 1.552867e+2, -1589423.1, -1430408.3, 11339.839, -0.03136443, -0.044625707, -1429603.6, -11422.239, 0.000000028517778, 9.998518, 10.00063 
1.01504855e+3, 1.6528752e+2, -1511492.9, -1398586.6, 10383.002, -0.037578393, 0.0043090726, -1397639.6, -77464.92, 0.0, 9.998606, 10.000142 
1.0150469e+3, 1.7528637e+2, -1281086.3, -1232611.5, 4881.0596, 0.03174998, -0.1474286, -1232124.9, -9936.869, 0.0, 9.9995, 10.000175 
1.0150444e+3, 1.8528739e+2, -1094510.0, -1016074.56, 32204.75, 0.005432089, -0.09316846, -1004546.1, 119632.58, 0.0, 9.999793, 10.000839 
1.015041e+3, 1.9529009e+2, -1025419.4, -942395.56, 103058.96, -0.11433748, 0.073318504, -872802.1, 153349.77, 0.0, 9.999634, 10.00075 
1.0150379e+3, 2.0528962e+2, -1063318.8, -1185628.4, 35252.063, -0.1423829, 0.08014835, -1053885.9, -125728.49, 0.0, 9.999885, 9.998287 
1.0150349e+3, 2.1528612e+2, -881338.8, -1045730.25, -28378.41, -0.08502546, -0.11817141, -876577.8, -46384.477, 0.0, 10.000458, 9.998299 
1.0150316e+3, 2.2528452e+2, -715910.4, -850145.06, -41396.715, -0.07826126, -0.1350604, -704170.7, 28037.879, 0.0, 10.000643, 9.998881 
1.0150282e+3, 2.3528436e+2, -626812.94, -758748.1, -14063.904, -0.1183951, -0.058630668, -625330.44, 8877.194, 0.0, 10.0005865, 9.998861 
1.01502486e+3, 2.4528323e+2, -501504.84, -700324.25, -32949.035, -0.12504523, -0.031219361, -496186.66, 40031.47, 0.0, 10.001004, 9.998389 
1.0150216e+3, 2.55281e+2, -273933.72, -536787.25, -23127.627, -0.10824839, -0.11316264, -271914.3, 166326.56, 0.0, 10.001887, 9.99841 
1.01501964e+3, 2.652796e+2, -115245.06, -354158.0, 60781.008, -0.07674003, -0.11531635, -100671.016, 239582.44, 0.000000011022683, 10.002067, 9.998908 
1.0150189e+3, 2.7527878e+2, -90993.04, -294165.6, 92279.18, -0.0367816, -0.10942094, -55337.855, 186920.75, 0.0000031084232, 10.001565, 9.998889 
1.0150163e+3, 2.852775e+2, -41921.7, -332538.1, 7720.9375, -0.08583633, -0.07402358, -41716.72, 102553.4, 0.000035475467, 10.001706, 9.997888 
1.015012e+3, 2.9527557e+2, 124706.51, -206991.06, -11385.224, -0.2197744, -0.08133991, 125096.836, 171386.17, 0.00015859005, 10.0022, 9.997835 
1.0150115e+3, 3.0527234e+2, 213773.19, -224097.4, 17677.082, -0.048058566, -0.1403832, 214485.67, 214485.67, 0.00042792913, 10.00285, 9.99708 
1.0150128e+3, 3.1526956e+2, 401001.8, 64601.82, 44503.094, 0.22261135, -0.15505745, 406789.66, 406789.66, 0.0008407522, 10.003245, 9.998865 
1.0250614e+3, 1.2529068e+2, -2049712.0, -1918208.8, 80809.61, 0.18809696, -0.050031982, -1879780.4, -167646.45, 0.00022439056, 9.997826, 9.999641 
1.0250566e+3, 1.3528891e+2, -1930202.8, -1792250.0, 95074.82, -0.042364486, -0.2265552, -1743765.9, -129609.766, 0.0000828242, 9.99794, 9.999781 
1.0250542e+3, 1.452888e+2, -1717068.1, -1608889.3, 86847.12, 0.025423126, -0.22636762, -1560665.0, -44504.652, 0.000012107546, 9.998585, 10.000046 
1.02505066e+3, 1.5529087e+2, -1437094.0, -1425242.4, 70342.94, -0.021524908, -0.04836075, -1360576.1, 57564.94, 0.00000009714164, 9.999844, 10.000029 
1.0250481e+3, 1.6529126e+2, -1323274.3, -1323515.0, 106133.51, -0.006556572, -0.0061346446, -1217261.1, 102877.3, 0.0, 9.99998, 9.999988 
1.02504686e+3, 1.7529003e+2, -1326997.1, -1267770.0, 97020.2, 0.09460773, -0.14711906, -1195944.5, 26206.723, 0.0, 9.999257, 10.000045 
1.0250444e+3, 1.8529104e+2, -1168375.4, -1057090.4, 89167.88, 0.05874629, -0.0888067, -1007628.2, 116513.33, 0.0, 9.999296, 10.0008 
1.02504075e+3, 1.9529372e+2, -973898.4, -922622.75, 14513.908, -0.11510491, 0.08061912, -918799.56, 107314.64, 0.0, 10.000002, 10.000711 
1.025038e+3, 2.0529285e+2, -1013021.0, -1200572.0, -33062.42, -0.14882287, 0.06686729, -1007363.3, -79239.24, 0.0, 10.000411, 9.997934 
1.02503575e+3, 2.1528858e+2, -890344.7, -1089137.0, -3439.9265, -0.048109654, -0.16932154, -890285.2, -60116.49, 0.0, 10.000573, 9.997949 
1.02503285e+3, 2.2528711e+2, -678307.1, -793926.44, 35681.637, -0.027247913, -0.17326161, -668182.0, 64001.313, 0.0, 10.00074, 9.999218 
1.0250293e+3, 2.3528793e+2, -573482.8, -697230.25, 32664.85, -0.07964593, -0.029718649, -565389.75, 68783.09, 0.0, 10.000813, 9.999174 
1.025026e+3, 2.4528699e+2, -517631.2, -714682.3, 43318.383, -0.10719723, 0.0052815657, -508528.84, 27652.639, 0.0, 10.000932, 9.998317 
1.0250229e+3, 2.5528422e+2, -404547.94, -610831.4, 32260.31, -0.11943136, -0.12377301, -399620.5, 38588.98, 0.0, 10.001039, 9.998309 
1.0250212e+3, 2.6528278e+2, -197882.73, -412508.7, 98550.91, -0.08847504, -0.11656294, -159496.17, 180726.95, 0.00000001218603, 10.001569, 9.998751 
1.02502115e+3, 2.7528235e+2, 25581.436, -252906.36, 54319.387, -0.008805859, -0.057148814, 35801.44, 278027.2, 0.0000027111198, 10.00243, 9.998754 
1.0250188e+3, 2.852809e+2, 120364.65, -295578.06, -9360.42, -0.06468763, -0.010404157, 120575.195, 264814.63, 0.00003356273, 10.003016, 9.997503 
1.0250144e+3, 2.9527825e+2, 262192.44, -182681.39, -16104.99, -0.24191223, -0.046562687, 262774.72, 309040.53, 0.00015687123, 10.003331, 9.9974575 
1.0250143e+3, 3.052748e+2, 313685.88, -116743.37, 53894.914, -0.06562096, -0.13723184, 320331.56, 320331.56, 0.00042992222, 10.003298, 9.997594 
1.02501675e+3, 3.1527296e+2, 362428.16, 84490.516, 62876.875, 0.32055947, -0.11315075, 375990.75, 375990.75, 0.0008482756, 10.0028, 9.99922 
1.03505895e+3, 1.2529442e+2, -1997861.5, -1825298.4, 32188.768, 0.10663149, -0.1576627, -1819489.6, -107391.81, 0.00027553758, 9.99789, 10.000248 
1.0350545e+3, 1.3529614e+2, -1898107.6, -1725624.3, 105725.88, -0.07578254, -0.0335611, -1675427.0, -61341.2, 0.000106410545, 9.997945, 10.000237 
1.035053e+3, 1.4529593e+2, -1733266.4, -1652357.9, 120363.32, 0.014153927, -0.045095146, -1565832.3, -49742.027, 0.000017580353, 9.998624, 9.999731 
1.0350509e+3, 1.5529504e+2, -1453337.9, -1464754.3, 122305.45, -0.008870258, -0.13596421, -1336607.5, 81491.47, 0.00000023822265, 9.999862, 9.999752 
1.03504844e+3, 1.6529486e+2, -1321573.4, -1314817.9, 65446.258, -0.000989403, -0.14177448, -1252662.3, 67437.36, 0.0, 9.999966, 10.00005 
1.03504606e+3, 1.7529508e+2, -1331533.4, -1271638.6, 79667.734, 0.06760721, -0.14201769, -1216475.5, 5619.747, 0.0, 9.999238, 10.000025 
1.0350438e+3, 1.8529516e+2, -1292620.9, -1309955.9, 104637.82, 0.04829663, -0.084582135, -1196292.1, -72196.07, 0.0, 9.999273, 9.999078 
1.03504166e+3, 1.9529489e+2, -1096588.4, -1166191.8, 46491.895, -0.05435074, -0.04219929, -1073315.5, -47211.914, 0.0, 9.999949, 9.999067 
1.0350389e+3, 2.0529425e+2, -950672.5, -1046845.2, -38097.902, -0.10566458, -0.006647645, -937409.44, -9297.603, 0.0, 10.000305, 9.99904 
1.0350359e+3, 2.1529306e+2, -826362.3, -935950.44, 13087.765, -0.10283981, -0.049180634, -824820.94, 5302.419, 0.0, 10.00048, 9.999045 
1.0350333e+3, 2.252923e+2, -689682.5, -783919.06, 28791.402, -0.062499672, -0.042352665, -681582.4, 50547.664, 0.0, 10.000599, 9.999354 
1.035031e+3, 2.3529181e+2, -579427.1, -683147.6, 44650.723, 0.0043335, -0.047002133, -562853.7, 71279.97, 0.0, 10.0007, 9.999323 
1.03502795e+3, 2.4529053e+2, -545328.6, -741738.6, 39180.43, -0.014570359, -0.045311935, -537801.3, -1655.6534, 0.0, 10.000804, 9.998193 
1.03502415e+3, 2.5528836e+2, -425744.53, -635142.75, 48553.316, -0.10826408, -0.1017676, -415034.25, 23132.574, 0.0, 10.000956, 9.998182 
1.0350224e+3, 2.6528686e+2, -269340.9, -542802.44, 121231.484, -0.15795799, -0.0509493, -223335.86, 116847.086, 0.00000000560088, 10.001497, 9.997887 
1.0350221e+3, 2.7528563e+2, -53445.883, -385704.0, 97178.42, -0.16899148, 0.014420838, -27110.633, 215087.08, 0.0000022721786, 10.002311, 9.997893 
1.035021e+3, 2.8528345e+2, 116958.83, -287164.5, -6743.9487, -0.16254538, 0.023449263, 117071.34, 261290.78, 0.000031159278, 10.002946, 9.997597 
1.0350189e+3, 2.952804e+2, 257647.86, -169209.88, 10914.101, -0.15066804, -0.06524585, 257926.73, 304173.75, 0.00015252481, 10.003239, 9.997592 
1.035018e+3, 3.052773e+2, 353168.75, -26984.365, 29216.549, -0.05125005, -0.16372354, 355401.1, 355401.1, 0.00042681763, 10.003261, 9.998227 
1.03501685e+3, 3.1527704e+2, 367981.3, 153758.61, 75416.54, 0.0036692817, -0.04186706, 391868.03, 391868.03, 0.00084848254, 10.002582, 9.999785 
1.04505725e+3, 1.2529784e+2, -1787372.4, -1722267.3, -7153.2954, 0.08374595, -0.2304629, -1721490.5, -9426.849, 0.0003338259, 9.999314, 10.00027 
1.04505345e+3, 1.3530059e+2, -1598207.4, -1589937.0, 20785.6, -0.06392669, 0.0005668001, -1572879.3, 41163.188, 0.00013404706, 10.000025, 10.000162 
1.0450526e+3, 1.4530036e+2, -1548225.4, -1572869.0, 52945.707, 0.05444327, -0.0063843033, -1506186.6, 9860.672, 0.000024406929, 9.999947, 9.999637 
1.0450509e+3, 1.5529872e+2, -1531585.6, -1505553.4, 43832.773, 0.04072153, -0.16099977, -1472845.0, -54782.508, 0.0000004785213, 9.999364, 9.999704 
1.0450486e+3, 1.6529839e+2, -1343429.3, -1346341.0, 8734.725, 0.022888701, -0.17024043, -1336029.9, -15965.913, 0.0, 9.999897, 9.99987 
1.0450459e+3, 1.7529893e+2, -1024602.94, -1146542.3, -11642.852, 0.022379434, -0.12309534, -1023501.25, 198554.92, 0.0, 10.001435, 9.9998255 
1.04504384e+3, 1.8529828e+2, -1022267.75, -1269580.9, 37438.703, 0.014128787, -0.08743401, -1016724.44, 107340.17, 0.0, 10.001526, 9.998268 
1.0450422e+3, 1.9529642e+2, -1088548.4, -1244806.6, 28072.01, -0.003173274, -0.12118057, -1083658.3, -57569.254, 0.0, 10.000375, 9.998319 
1.0450398e+3, 2.0529586e+2, -958253.06, -975368.6, -9483.463, -0.024007881, -0.07582621, -954037.0, -25940.912, 0.0, 9.999922, 9.999717 
1.0450368e+3, 2.1529622e+2, -849044.94, -873248.44, -9497.652, -0.03959407, -0.030745303, -845763.0, -15672.464, 0.0, 10.0000105, 9.999701 
1.0450339e+3, 2.2529587e+2, -784116.44, -867452.7, -14132.247, -0.026741302, 0.0012105791, -781785.1, -49690.953, 0.0, 10.000103, 9.999024 
1.0450315e+3, 2.352947e+2, -676841.06, -769844.7, -53545.36, 0.004440317, -0.03655369, -652423.75, -18315.984, 0.0, 10.000182, 9.998987 
1.04502894e+3, 2.4529341e+2, -523657.28, -690174.5, -18414.428, 0.0074403766, -0.03803255, -521645.22, 14474.241, 0.0, 10.000757, 9.99858 
1.0450265e+3, 2.5529188e+2, -279279.16, -524852.8, 8570.533, -0.010823558, -0.07231896, -278980.4, 159150.72, 0.0, 10.001779, 9.998548 
1.045025e+3, 2.6529014e+2, -196656.03, -582434.9, 116693.48, -0.06925338, -0.030600034, -164104.33, 176045.42, 0.0000000009945924, 10.002325, 9.99722 
1.04502454e+3, 2.7528775e+2, -86588.766, -479981.72, 86518.79, -0.16104133, -0.0072787986, -68401.55, 173777.13, 0.0000020282196, 10.002398, 9.997218 
1.04502395e+3, 2.8528538e+2, 96577.88, -278907.84, 13747.512, -0.14631176, 0.0084470855, 97080.54, 241283.05, 0.00002862002, 10.002715, 9.997772 
1.04502335e+3, 2.9528296e+2, 267972.16, -145952.89, 10491.179, -0.035333946, -0.03526892, 268237.9, 314459.72, 0.00014590684, 10.003216, 9.997768 
1.0450219e+3, 3.0527967e+2, 360582.34, -86962.484, -18936.59, 0.01372171, -0.13355674, 361382.16, 361382.16, 0.0004168189, 10.00359, 9.997651 
1.045019e+3, 3.152786e+2, 482834.28, 123462.35, -100644.25, -0.076361075, -0.030633502, 509100.53, 509100.53, 0.0008363063, 10.003697, 9.999059 
1.0550554e+3, 1.2530103e+2, -1817075.0, -1783678.5, -40426.367, -0.084048904, -0.2754467, -1756637.5, -44606.504, 0.00039971265, 9.999323, 9.999838 
1.0550533e+3, 1.3530242e+2, -1638942.8, -1671569.6, 52922.605, -0.102562375, -0.12224632, -1599876.4, 14148.348, 0.00016604259, 10.000016, 9.999605 
1.0550529e+3, 1.4530227e+2, -1535352.1, -1555952.9, 16895.824, 0.04919343, -0.09925192, -1525864.4, -9835.217, 0.000032768716, 9.999984, 9.999737 
1.0550506e+3, 1.55302e+2, -1525442.1, -1499589.1, 33039.004, 0.046251472, -0.12724292, -1477037.9, -59007.008, 0.0000008393984, 9.999383, 9.999741 
1.0550482e+3, 1.6530186e+2, -1372186.1, -1400349.6, 55928.926, -0.02518555, -0.09826281, -1328593.5, -8562.044, 0.0, 9.999879, 9.999503 
1.055046e+3, 1.7530163e+2, -1050957.5, -1199517.8, 49785.023, -0.12319761, -0.0950125, -1035816.8, 186216.53, 0.0, 10.001429, 9.999464 
1.0550441e+3, 1.8530047e+2, -1023305.75, -1261671.8, -17672.332, -0.12608531, -0.09351868, -1022002.6, 102043.37, 0.0, 10.001485, 9.998341 
1.0550424e+3, 1.9529834e+2, -1091223.9, -1237710.9, -5008.9165, -0.049464528, -0.16403268, -1091052.8, -64982.527, 0.0, 10.0003195, 9.998394 
1.0550403e+3, 2.0529771e+2, -955988.25, -948865.06, -16894.826, 0.012924038, -0.14285406, -935160.5, -7083.987, 0.0, 9.999826, 9.999946 
1.055038e+3, 2.1529818e+2, -850601.25, -854632.1, 1547.7883, 0.06566935, -0.11053018, -850075.5, -20006.178, 0.0, 9.99991, 9.999879 
1.05503455e+3, 2.2529787e+2, -863317.56, -1001744.0, -20343.777, 0.0011484305, -0.03665625, -860389.7, -128314.58, 0.0, 9.999972, 9.998163 
1.05503015e+3, 2.3529667e+2, -747349.5, -890666.56, -39820.64, -0.1641389, 0.0043261023, -737028.6, -102934.22, 0.0, 10.000072, 9.998207 
1.05502844e+3, 2.4529575e+2, -478187.8, -572418.2, 9455.542, -0.12974195, 0.03109061, -477248.38, 58853.51, 0.0, 10.000655, 9.999438 
1.0550294e+3, 2.5529483e+2, -235376.55, -412594.2, 52905.234, 0.08541402, -0.028393755, -220784.17, 217317.13, 0.0, 10.001687, 9.999362 
1.0550292e+3, 2.6529253e+2, -247349.56, -664948.75, 111322.5, 0.09922486, -0.053990953, -219527.16, 120596.33, 0.000000000012280949, 10.002232, 9.996695 
1.0550279e+3, 2.7528882e+2, -134652.92, -557645.75, 104505.055, -0.07352821, -0.1167173, -110242.49, 131925.1, 0.0000016155456, 10.002308, 9.996723 
1.0550273e+3, 2.8528684e+2, 103929.19, -252756.8, 23204.488, -0.10210312, -0.04525296, 105432.44, 249619.89, 0.000025303238, 10.002665, 9.997978 
1.0550271e+3, 2.9528615e+2, 261263.77, -135176.73, 42908.418, 0.0061207744, 0.061921522, 265854.75, 312043.16, 0.000137169, 10.003114, 9.997893 
1.0550259e+3, 3.0528203e+2, 224610.81, -351580.5, -18354.225, 0.031376988, -0.032292828, 225194.88, 225194.88, 0.0004008363, 10.003512, 9.995871 
1.05502285e+3, 3.1527793e+2, 319696.72, -166394.16, -66178.39, -0.10645354, -0.05613648, 328545.44, 328545.44, 0.00081260194, 10.003505, 9.997156 
1.0650531e+3, 1.2530394e+2, -2135463.0, -1888371.9, -107075.734, -0.12496121, -0.21079883, -1848428.3, -136422.05, 0.00047318285, 9.996935, 10.000275 
1.06505275e+3, 1.3530502e+2, -1866818.1, -1737442.6, 47578.797, -0.07232379, -0.122454755, -1721829.4, -107829.055, 0.00020250746, 9.9982815, 9.999988 
1.0650526e+3, 1.4530489e+2, -1631015.4, -1617402.0, 29152.164, 0.06195309, -0.10900123, -1594272.5, -78268.93, 0.000042863663, 9.99939, 9.999606 
1.06505066e+3, 1.553046e+2, -1385672.5, -1445344.6, 4403.941, 0.072544545, -0.1266826, -1385349.3, 32656.293, 0.0000013547858, 10.000399, 9.999621 
1.06504835e+3, 1.6530441e+2, -1321235.5, -1401939.3, 53599.02, -0.017201416, -0.08523908, -1294496.9, 25510.875, 0.0, 10.000328, 9.999286 
1.06504604e+3, 1.753042e+2, -1371109.5, -1371395.0, 38926.902, -0.15356335, -0.055412967, -1332325.1, -110313.6, 0.0, 9.999307, 9.999312 
1.0650444e+3, 1.8530336e+2, -1254438.9, -1301471.4, 14718.424, -0.1473106, -0.051176455, -1250212.6, -126192.266, 0.0, 9.999577, 9.998991 
1.0650432e+3, 1.953017e+2, -948443.4, -1102219.6, 50917.387, -0.025663488, -0.13846153, -933112.4, 92924.23, 0.0, 10.000998, 9.999002 
1.06504105e+3, 2.0530099e+2, -803686.06, -925906.56, 26286.654, 0.055332765, -0.13235512, -798272.25, 129770.76, 0.0, 10.001094, 9.999487 
1.0650383e+3, 2.1530096e+2, -863546.8, -908733.0, -25884.807, 0.10511369, -0.10154725, -851781.94, -21739.744, 0.0, 10.000036, 9.999442 
1.0650348e+3, 2.2530037e+2, -818709.94, -970144.75, 28059.713, 0.025249803, -0.040261302, -813677.9, -81627.48, 0.0, 10.000228, 9.998262 
1.0650308e+3, 2.3529905e+2, -536169.0, -777110.4, 60407.633, -0.16621776, -0.020188397, -521872.25, 112196.66, 0.0, 10.001472, 9.998312 
1.0650298e+3, 2.4529794e+2, -316443.3, -522159.1, 103459.67, -0.11906801, -0.004238966, -273412.03, 262665.97, 0.0, 10.001895, 9.999184 
1.0650315e+3, 2.5529674e+2, -265274.78, -456816.53, 41741.76, 0.13495205, -0.06334147, -256573.48, 181508.05, 0.0, 10.001611, 9.9991 
1.0650319e+3, 2.6529434e+2, -276564.47, -652229.0, 110881.305, 0.16032782, -0.096217014, -246278.38, 93825.69, 0.0, 10.001901, 9.9969425 
1.065031e+3, 2.752908e+2, -74803.15, -497987.8, 136066.61, -0.014662193, -0.16941486, -34829.516, 207315.08, 0.00000091217555, 10.002586, 9.996996 
1.0650304e+3, 2.852889e+2, 165151.83, -236521.92, 93291.805, -0.07518642, -0.09994243, 185762.03, 329925.47, 0.000020741376, 10.003156, 9.997848 
1.0650302e+3, 2.952881e+2, 330367.84, -117748.59, 65721.54, -0.024938732, 0.010636803, 339807.8, 385974.38, 0.00012515363, 10.003653, 9.997752 
1.0650296e+3, 3.0528387e+2, 267239.94, -361330.97, 61027.93, 0.029379545, -0.07056594, 273110.3, 273110.3, 0.00037813088, 10.003923, 9.995605 
1.0650281e+3, 3.1527975e+2, 348036.63, -185124.17, 83925.75, 0.051555585, -0.07697791, 360935.44, 360935.44, 0.0007771597, 10.003823, 9.996869 
1.0750494e+3, 1.2530632e+2, -2042688.9, -1695773.4, -103324.125, -0.2236265, -0.06316584, -1667331.5, 44659.785, 0.00055371417, 9.996957, 10.0015745 
1.0750513e+3, 1.3530841e+2, -1786142.5, -1562683.8, 100592.83, -0.06370101, -0.0029720278, -1524072.3, 89896.9, 0.00024334127, 9.998265, 10.001186 
1.07505165e+3, 1.4530821e+2, -1649338.9, -1664919.8, 51086.53, 0.0024473015, -0.03545232, -1605452.3, -89482.02, 0.00005483326, 9.999416, 9.999273 
1.0750509e+3, 1.5530649e+2, -1404912.3, -1490843.5, 47563.64, 0.02765213, -0.16569862, -1383781.5, 34205.156, 0.000002073113, 10.000415, 9.999305 
1.0750487e+3, 1.6530614e+2, -1325439.4, -1408276.5, 3183.9036, -0.03546911, -0.123629384, -1325317.3, -5325.1563, 0.0000000000166348, 10.000322, 9.999242 
1.0750457e+3, 1.7530677e+2, -1370496.8, -1372755.9, 11528.705, -0.14519924, -0.009558977, -1360042.4, -138052.42, 0.0, 9.999313, 9.999299 
1.0750443e+3, 1.8530695e+2, -1176539.9, -1126508.8, 57307.973, -0.13161847, 0.036526848, -1088994.4, 34993.3, 0.0, 9.999528, 10.000212 
1.0750444e+3, 1.9530654e+2, -879205.0, -938683.06, 109262.33, -0.013365352, -0.047852732, -795706.8, 230280.88, 0.0, 10.000919, 10.000159 
1.0750421e+3, 2.0530577e+2, -901878.56, -1106488.4, -26154.748, 0.0270875, -0.040151253, -898588.2, 29406.459, 0.0, 10.000994, 9.998298 
1.0750375e+3, 2.1530454e+2, -957684.6, -1076849.4, -53813.6, 0.00018941083, -0.016127927, -936980.25, -106970.695, 0.0, 9.999916, 9.998347 
1.0750347e+3, 2.2530335e+2, -763889.7, -824977.2, 66770.95, -0.033278678, -0.016541949, -721008.06, 11012.4795, 0.0, 10.000094, 9.999325 
1.0750333e+3, 2.3530197e+2, -486312.25, -642970.0, 115872.55, -0.07240917, -0.108094744, -424777.4, 209252.89, 0.0, 10.001344, 9.999297 
1.0750327e+3, 2.453001e+2, -435894.84, -741873.7, 85812.76, -0.038097557, -0.1406472, -413471.63, 122575.43, 0.0, 10.001776, 9.99773 
1.0750326e+3, 2.5529757e+2, -370515.06, -658676.8, 44584.953, 0.058273613, -0.18747352, -363774.47, 74297.586, 0.0, 10.001539, 9.9977455 
1.0750327e+3, 2.652956e+2, -222649.97, -516826.72, 126657.27, 0.042710956, -0.16606717, -175632.56, 164459.16, 0.000000000031670343, 10.001802, 9.997922 
1.0750332e+3, 2.7529383e+2, -24669.03, -370981.22, 173438.75, -0.07123616, -0.16086677, 47254.523, 289363.66, 0.00000057346807, 10.002488, 9.997919 
1.07503295e+3, 2.852916e+2, 123607.13, -306992.9, 101626.94, -0.15580083, -0.13879904, 146387.2, 290516.97, 0.000016659129, 10.003086, 9.997396 
1.0750321e+3, 2.9528898e+2, 291222.7, -177201.88, 100190.086, -0.2239744, -0.17371275, 311752.3, 357906.84, 0.000111912384, 10.003562, 9.997387 
1.0750326e+3, 3.0528533e+2, 341825.25, -195020.19, 53816.07, -0.08645456, -0.23849817, 347166.88, 347166.88, 0.0003521945, 10.003874, 9.996775 
1.0750339e+3, 3.1528398e+2, 401216.2, -40385.3, 110967.766, 0.2064057, -0.0826268, 427532.44, 427532.44, 0.0007370222, 10.003677, 9.997938 
1.0850475e+3, 1.2530783e+2, -1861270.3, -1614787.1, -34092.047, -0.17219932, -0.020938354, -1610158.6, 101819.55, 0.00064071716, 9.998202, 10.001544 
1.0850509e+3, 1.3530955e+2, -1734463.4, -1538205.1, 46612.73, 0.0648526, 0.0010448906, -1527696.9, 86262.9, 0.00028839763, 9.998594, 10.001209 
1.0850506e+3, 1.4530973e+2, -1745642.9, -1649571.3, -4241.3257, 0.01244728, -0.019475726, -1649384.4, -133428.17, 0.00006873226, 9.998523, 9.99979 
1.0850498e+3, 1.5530865e+2, -1684553.0, -1570935.8, 23387.594, -0.004780347, -0.1336226, -1566309.9, -148344.98, 0.0000030594845, 9.998274, 9.999781 
1.08504824e+3, 1.653082e+2, -1541957.5, -1512378.3, 19444.623, -0.037626546, -0.12496208, -1502737.9, -182767.6, 0.000000000186287, 9.998842, 9.999234 
1.08504616e+3, 1.7530815e+2, -1246099.4, -1314471.8, 8866.079, -0.06851662, -0.07742592, -1244968.4, -22993.803, 0.0, 10.000185, 9.999273 
1.0850449e+3, 1.8530859e+2, -1079359.5, -1069097.6, 26936.613, -0.05196234, -0.009840548, -1046807.6, 77162.89, 0.0, 10.000141, 10.000318 
1.08504444e+3, 1.9530931e+2, -1181086.0, -1072059.9, -23339.514, 0.0068520242, 0.010472333, -1067273.6, -41312.8, 0.0, 9.998797, 10.000268 
1.08504236e+3, 2.0530853e+2, -1139404.3, -1220974.6, -110093.88, 0.03927982, 0.010025494, -1062783.8, -134816.11, 0.0, 9.999361, 9.998296 
1.08503856e+3, 2.1530613e+2, -710615.5, -961416.75, -74750.58, 0.046004515, -0.08233986, -690026.5, 139965.28, 0.0, 10.001623, 9.998317 
1.08503625e+3, 2.2530457e+2, -494956.2, -717954.3, 34055.066, 0.032496743, -0.105791144, -489871.44, 242133.94, 0.0, 10.00206, 9.999106 
1.0850353e+3, 2.3530355e+2, -561969.75, -704249.75, -35580.45, 0.00352105, -0.13686374, -553568.1, 80443.484, 0.0, 10.000946, 9.999063 
1.0850345e+3, 2.4530165e+2, -554732.8, -856359.9, -36159.508, -0.0025419127, -0.13522355, -550458.56, -14427.724, 0.0, 10.001195, 9.997234 
1.0850341e+3, 2.552988e+2, -257019.66, -656443.1, -24534.133, 0.012751548, -0.16582061, -255518.33, 182544.95, 0.0, 10.002543, 9.997284 
1.0850345e+3, 2.6529694e+2, -38987.137, -361739.72, 73906.04, 0.000096771524, -0.13870345, -22868.61, 317212.94, 0.000000020287489, 10.002782, 9.9985075 
1.0850358e+3, 2.7529567e+2, -51025.508, -322026.44, 67113.64, -0.036193192, -0.1390756, -35315.465, 206774.61, 0.0000009638229, 10.002039, 9.998467 
1.0850359e+3, 2.852938e+2, -27251.754, -386181.03, 41756.18, -0.11382952, -0.11258461, -22458.055, 121649.21, 0.00001551447, 10.002071, 9.997341 
1.0850351e+3, 2.9529116e+2, 162514.36, -242687.75, 39918.41, -0.22581403, -0.13570014, 166409.47, 212542.94, 0.000103287646, 10.0026865, 9.99736 
1.085036e+3, 3.052873e+2, 323711.47, -154606.81, -2862.31, -0.098413944, -0.2455017, 323728.6, 323728.6, 0.00033301808, 10.003563, 9.997199 
1.08503856e+3, 3.1528556e+2, 553276.6, 72460.664, -46670.29, 0.26684332, -0.16810475, 557764.75, 557764.75, 0.00070935563, 10.0045805, 9.998272 
1.09504685e+3, 1.2530833e+2, -1946789.4, -1795614.4, -26436.605, -0.09707605, -0.10454208, -1791124.6, -79156.664, 0.000734217, 9.998217, 10.000296 
1.09505124e+3, 1.3530871e+2, -1805861.8, -1692418.6, 65387.0, 0.22228776, -0.105740525, -1662579.3, -48610.21, 0.00033773432, 9.998615, 10.000142 
1.0950493e+3, 1.4530966e+2, -1659045.8, -1471382.8, -25368.371, -0.0061848382, -0.061930127, -1468013.9, 47945.46, 0.0000845864, 9.998533, 10.001005 
1.0950472e+3, 1.5531111e+2, -1603809.1, -1400099.6, 26228.145, -0.10810909, -0.043476775, -1396776.9, 21163.209, 0.0000043925156, 9.998268, 10.000951 
1.0950466e+3, 1.653107e+2, -1537936.6, -1511801.8, 57088.953, -0.10654028, -0.08779169, -1466303.8, -146361.75, 0.0000000006358386, 9.998868, 9.999229 
1.0950472e+3, 1.7530835e+2, -1243515.3, -1318207.1, 65934.43, -0.0026669556, -0.26770267, -1205084.8, 16880.703, 0.0, 10.000212, 9.99924 
1.0950459e+3, 1.8530835e+2, -1153138.3, -1213544.3, -35366.754, 0.009843137, -0.19242448, -1136832.9, -12864.69, 0.0, 10.000113, 9.999334 
1.095043e+3, 1.9531018e+2, -1256118.5, -1210009.0, -59177.605, -0.04437491, 0.03470977, -1169553.8, -143598.92, 0.0, 9.998725, 9.999353 
1.0950416e+3, 2.053093e+2, -1073375.8, -1065947.0, -36251.523, 0.012116907, 0.011172669, -1033220.06, -105258.31, 0.0, 9.99928, 9.999402 
1.0950415e+3, 2.1530585e+2, -655476.56, -819948.0, 13878.512, 0.16386789, -0.29448345, -654313.7, 175674.34, 0.0, 10.001505, 9.999348 
1.09503955e+3, 2.2530416e+2, -626347.1, -958329.6, -18991.734, 0.14080231, -0.2996576, -625264.2, 106739.77, 0.0, 10.001923, 9.997518 
1.09503604e+3, 2.3530376e+2, -687787.25, -935313.7, -64834.08, -0.031035047, -0.11454247, -671833.6, -37820.105, 0.0, 10.000817, 9.997535 
1.0950349e+3, 2.4530254e+2, -537667.94, -794009.9, 5464.576, -0.10133537, 0.0050762, -537551.5, -1521.3555, 0.0, 10.001079, 9.997719 
1.0950359e+3, 2.553004e+2, -235781.83, -592804.1, 35254.723, -0.08164529, -0.0018552133, -232333.84, 205720.86, 0.0, 10.002456, 9.997765 
1.0950371e+3, 2.652985e+2, -44468.594, -349238.38, 39058.285, -0.045578625, -0.011542816, -39542.633, 300529.8, 0.00000010014453, 10.002679, 9.998644 
1.0950384e+3, 2.7529648e+2, -49449.06, -303803.88, 56590.336, -0.0022656112, -0.10307221, -37426.758, 204660.03, 0.0000018004142, 10.001972, 9.998626 
1.09503895e+3, 2.8529522e+2, -17067.19, -350422.72, 53377.65, -0.037244283, -0.033411358, -8728.81, 135368.39, 0.000016749305, 10.0020075, 9.997618 
1.09503895e+3, 2.9529455e+2, 167132.14, -213238.25, 75542.7, -0.13246611, 0.10585632, 181585.92, 227691.34, 0.00010005187, 10.002602, 9.997603 
1.0950398e+3, 3.0528975e+2, 284503.28, -218047.81, 28878.615, -0.103915386, -0.088259846, 286157.3, 286157.3, 0.00032272984, 10.003484, 9.996802 
1.09504126e+3, 3.1528443e+2, 502332.25, -9064.341, 15532.308, 0.040318567, -0.32490033, 502803.56, 502803.56, 0.0006960895, 10.004469, 9.99777 
1.1050463e+3, 1.2530853e+2, -1925169.1, -1839306.4, 31859.393, 0.0069517023, -0.19333515, -1828776.4, -116813.9, 0.00083503575, 9.998613, 9.999788 
1.1050499e+3, 1.3530892e+2, -1833925.9, -1747319.5, 96746.22, 0.2262023, -0.15842155, -1684627.4, -70661.34, 0.0003918232, 9.998595, 9.999773 
1.10504724e+3, 1.4531001e+2, -1610122.4, -1462462.3, 9147.577, -0.08049452, -0.07648947, -1461897.8, 54058.83, 0.000102570426, 9.998912, 10.000895 
1.1050467e+3, 1.5531181e+2, -1397418.8, -1311082.3, -54938.43, -0.05228932, -0.012018228, -1284381.1, 133553.63, 0.0000061708192, 9.999718, 10.000868 
1.1050465e+3, 1.6531146e+2, -1429552.1, -1444399.4, -43253.145, -0.03394118, -0.052460466, -1393090.1, -73154.58, 0.0000000015512864, 9.999555, 9.999357 
1.1050465e+3, 1.75309e+2, -1465060.6, -1408690.3, -49390.746, -0.012606304, -0.257789, -1380008.5, -158049.95, 0.0, 9.998633, 9.9993725 
1.10504515e+3, 1.8530864e+2, -1350306.3, -1351834.1, -111074.516, -0.0039673634, -0.20535259, -1239993.0, -116027.984, 0.0, 9.998954, 9.99894 
1.10504285e+3, 1.9530988e+2, -1042231.75, -1144886.9, -110883.875, -0.0028206178, -0.00022593979, -971371.94, 54587.41, 0.0, 10.000371, 9.999001 
1.1050421e+3, 2.0530912e+2, -816218.4, -899051.06, -37930.164, 0.068194605, -0.011075937, -801474.1, 126490.414, 0.0, 10.000865, 9.999786 
1.105043e+3, 2.1530649e+2, -764236.6, -829640.7, -63407.145, 0.2000931, -0.27394128, -725595.2, 104385.83, 0.0, 10.000578, 9.999727 
1.10504135e+3, 2.2530496e+2, -737348.44, -1036063.0, -76764.7, 0.16540755, -0.27134025, -718775.94, 13219.66, 0.0, 10.001255, 9.997309 
1.1050379e+3, 2.3530413e+2, -420511.66, -832167.2, -38855.008, -0.010428138, -0.10475671, -416876.34, 217134.78, 0.0, 10.002753, 9.997316 
1.10503726e+3, 2.4530292e+2, -254483.52, -664531.3, 81736.13, -0.06272202, 0.029262273, -238791.31, 297237.44, 0.0, 10.003069, 9.997636 
1.105039e+3, 2.5530118e+2, -254616.48, -609863.3, 40469.375, -0.008047869, 0.06821683, -250064.58, 187985.25, 0.0, 10.002378, 9.99767 
1.10504e+3, 2.6529902e+2, -147862.34, -439386.28, -734.9659, 0.020072207, 0.056100998, -147860.5, 192209.92, 0.00000018749917, 10.002134, 9.998293 
1.1050407e+3, 2.7529624e+2, -45355.164, -339117.8, -40878.805, 0.026227947, -0.07395255, -39772.72, 202320.08, 0.0000025324416, 10.002164, 9.998295 
1.1050415e+3, 2.8529483e+2, 50546.6, -278208.78, -7522.631, 0.003132671, -0.022187548, 50718.645, 194823.31, 0.000018771152, 10.002315, 9.997964 
1.1050425e+3, 2.9529446e+2, 179541.23, -170836.53, -6788.164, -0.0301469, 0.11844631, 179672.69, 225781.47, 0.00010057408, 10.002542, 9.997922 
1.1050437e+3, 3.0529013e+2, 236392.25, -226838.27, 9714.393, -0.026825933, -0.047852453, 236595.88, 236595.88, 0.0003198817, 10.003068, 9.996947 
1.1050455e+3, 3.1528553e+2, 389353.22, -35702.277, -5301.8237, 0.072726026, -0.23985039, 389419.34, 389419.34, 0.0006923276, 10.003579, 9.998006 
1.11504555e+3, 1.2530844e+2, -1916447.4, -1815255.5, 64687.23, 0.018388787, -0.31511143, -1783727.1, -71766.18, 0.000944546, 9.998605, 9.999956 
1.1150465e+3, 1.3531028e+2, -1823228.4, -1722496.4, 103452.16, 0.010785226, -0.14902166, -1657801.1, -43851.68, 0.00045159098, 9.998588, 9.99995 
1.1150442e+3, 1.453109e+2, -1698505.6, -1650065.9, 23699.508, -0.29689893, -0.05585497, -1640399.6, -124452.82, 0.00012308804, 9.998929, 9.9996 
1.115048e+3, 1.55311e+2, -1484290.0, -1494350.4, -17515.473, 0.0710632, -0.032918736, -1471096.6, -53150.05, 0.000008505592, 9.999726, 9.999608 
1.1150475e+3, 1.6531076e+2, -1413740.6, -1411530.8, -92327.4, 0.08544278, -0.013509435, -1320301.6, -352.93915, 0.0000000033697685, 9.999554, 9.999587 
1.1150437e+3, 1.7531012e+2, -1448716.3, -1377069.9, -73133.336, -0.17553633, -0.05578909, -1331457.3, -109503.54, 0.0, 9.998635, 9.999597 
1.1150426e+3, 1.8530942e+2, -1337137.9, -1322334.0, -69368.46, -0.17687692, -0.057235826, -1259973.8, -136012.25, 0.0, 9.998946, 9.999146 
1.1150439e+3, 1.9530849e+2, -1038711.06, -1125425.3, -51306.656, 0.045431897, -0.08828601, -1014895.2, 11078.358, 0.0, 10.000318, 9.999161 
1.1150437e+3, 2.0530811e+2, -848455.0, -949341.5, -63014.395, 0.11980299, -0.05410231, -818180.6, 109795.086, 0.0, 10.0007925, 9.999473 
1.11504234e+3, 2.1530795e+2, -804049.06, -881558.1, -61478.418, 0.0685503, -0.038832445, -770129.6, 59842.105, 0.0, 10.000444, 9.999434 
1.1150414e+3, 2.2530685e+2, -676626.5, -877877.5, -29317.818, 0.02128689, -0.036186308, -672442.56, 59538.523, 0.0, 10.0011215, 9.998457 
1.1150408e+3, 2.353048e+2, -362776.16, -680554.44, 25338.547, -0.011145942, -0.10823988, -360768.44, 273235.13, 0.0, 10.002621, 9.998421 
1.1150415e+3, 2.4530292e+2, -324762.22, -781898.7, 46720.355, 0.030670924, -0.057175733, -320036.16, 215989.56, 0.0, 10.002945, 9.99689 
1.1150431e+3, 2.5530094e+2, -319777.4, -727146.56, 27091.305, 0.14112951, 0.03168614, -317983.66, 120066.19, 0.0, 10.002298, 9.996904 
1.1150433e+3, 2.6529834e+2, -216475.75, -564931.4, -10273.985, 0.10972782, 0.05739095, -216173.08, 123903.63, 0.00000020790911, 10.002062, 9.997464 
1.11504234e+3, 2.7529496e+2, -112677.53, -457619.1, -26304.555, -0.047422614, -0.053069804, -110683.13, 131425.08, 0.0000030041272, 10.002072, 9.997523 
1.1150431e+3, 2.8529269e+2, 60401.207, -233373.42, -7002.503, -0.083807245, -0.06873154, 60568.023, 204696.5, 0.000021469468, 10.002211, 9.998322 
1.1150454e+3, 2.9529113e+2, 196950.75, -120860.7, 20406.512, -0.015472184, -0.083610855, 198255.69, 244397.0, 0.00010458993, 10.002482, 9.998293 
1.1150477e+3, 3.0528864e+2, 273610.5, -140480.42, 23842.523, 0.04618712, -0.11811438, 274978.78, 274978.78, 0.00032358713, 10.003028, 9.99756 
1.1150507e+3, 3.1528836e+2, 422961.25, 61812.8, 42820.094, 0.1717201, 0.06439699, 427968.84, 427968.84, 0.00069615606, 10.003457, 9.998735 
1.12504296e+3, 1.2530938e+2, -2140369.5, -1909997.4, 43954.2, -0.007477693, -0.1519858, -1901896.0, -189938.25, 0.0010643419, 9.997008, 10.000082 
1.1250452e+3, 1.3531041e+2, -1852098.5, -1727177.8, -22457.41, 0.029820945, -0.07417077, -1723263.1, -109313.76, 0.00051804923, 9.998362, 10.000021 
1.1250433e+3, 1.4531015e+2, -1786730.3, -1738402.6, -60894.836, -0.2564307, -0.053746916, -1697052.5, -181098.22, 0.00014661087, 9.998526, 9.999184 
1.1250469e+3, 1.553096e+2, -1789259.4, -1685032.9, -65683.32, 0.09461426, -0.05691717, -1653300.5, -235338.13, 0.00001150662, 9.997828, 9.999212 
1.1250465e+3, 1.653095e+2, -1594737.3, -1478833.8, -78167.14, 0.11195403, -0.011302381, -1439479.3, -119515.71, 0.0000000061074554, 9.998215, 9.999774 
1.1250431e+3, 1.753097e+2, -1288898.0, -1273482.8, -78096.67, -0.14307387, 0.0075574955, -1202714.3, 19245.703, 0.0, 9.99962, 9.999828 
1.1250426e+3, 1.8530901e+2, -1116073.0, -1215172.0, -37378.246, -0.14569214, -0.0074668736, -1103555.8, 20410.67, 0.0, 10.000462, 9.99915 
1.1250447e+3, 1.9530722e+2, -959490.5, -1090809.0, -54806.56, 0.06904937, -0.12294132, -939622.6, 86361.91, 0.0, 10.000857, 9.999146 
1.1250447e+3, 2.0530674e+2, -787453.75, -941767.2, -76133.164, 0.11278763, -0.089039825, -756215.75, 171772.52, 0.0, 10.001313, 9.999272 
1.1250428e+3, 2.153071e+2, -605755.1, -801107.3, -90259.09, 0.013557814, -0.0021599845, -570437.5, 259544.4, 0.0, 10.001883, 9.999288 
1.1250424e+3, 2.253062e+2, -550251.56, -808979.6, -58029.19, -0.025790013, 0.020773273, -537832.5, 194158.05, 0.0, 10.001947, 9.998536 
1.12504296e+3, 2.3530403e+2, -500332.63, -734744.6, -102330.34, -0.0080465535, -0.07057017, -461947.03, 172066.66, 0.0, 10.001617, 9.998529 
1.1250441e+3, 2.4530198e+2, -426198.2, -798658.5, -68520.73, 0.049604222, -0.057283606, -413992.56, 122043.22, 0.0, 10.0021105, 9.99718 
1.1250458e+3, 2.5529978e+2, -150771.11, -617399.06, -28591.332, 0.14337733, -0.014193443, -149025.78, 289033.22, 0.0, 10.003338, 9.997165 
1.1250462e+3, 2.6529714e+2, -16267.913, -512965.28, -11703.606, 0.111348204, 0.015837567, -15992.295, 324093.97, 0.00000016860811, 10.003645, 9.997052 
1.12504505e+3, 2.752938e+2, 18885.75, -440404.75, -25424.59, -0.03283258, -0.0486812, 20288.873, 262408.66, 0.0000038179373, 10.003184, 9.997098 
1.1250459e+3, 2.8529117e+2, 149925.08, -227613.08, 14776.17, -0.061270427, -0.064971656, 150502.52, 294647.8, 0.000026281929, 10.002977, 9.997993 
1.1250483e+3, 2.9528892e+2, 234381.42, -134342.47, -33725.453, 0.014956118, -0.11824096, 237440.75, 283606.47, 0.00011359424, 10.002877, 9.998006 
1.12505116e+3, 3.0528665e+2, 308553.53, -90778.28, -29436.787, 0.082305565, -0.12949328, 310711.8, 310711.8, 0.00033605486, 10.003146, 9.99784 
1.12505496e+3, 3.1528744e+2, 461932.66, 112564.69, -78701.234, 0.25719595, 0.13832873, 478843.0, 478843.0, 0.0007117771, 10.003575, 9.999042 
1.13503836e+3, 1.2531145e+2, -2115885.5, -1863648.5, 132695.66, -0.21809578, 0.29591808, -1806698.8, -94747.28, 0.0011953667, 9.997048, 10.000372 
1.13504514e+3, 1.3530944e+2, -1843247.1, -1709791.1, 32052.426, 0.17010437, 0.058255836, -1702492.1, -88527.52, 0.00059164723, 9.998365, 10.000139 
1.1350441e+3, 1.4530793e+2, -1757388.8, -1675421.1, -99953.21, -0.06713782, -0.07683784, -1608375.8, -92398.2, 0.00017336896, 9.998518, 9.999621 
1.1350434e+3, 1.5530774e+2, -1756218.3, -1622796.5, -78337.42, -0.06256095, -0.08170855, -1586613.8, -168633.03, 0.000015247707, 9.997851, 9.99963 
1.1350434e+3, 1.6530785e+2, -1576157.1, -1445605.5, -37533.625, -0.050236877, -0.0483898, -1435583.9, -115604.75, 0.000000009421829, 9.998237, 9.9999895 
1.1350443e+3, 1.7530796e+2, -1272702.5, -1245864.6, -18597.902, -0.010721922, -0.060587823, -1236350.0, -14374.234, 0.0, 9.999643, 10.000007 
1.1350448e+3, 1.8530744e+2, -1125694.9, -1238209.6, -35694.73, -0.0017749852, -0.056352094, -1115326.5, 8653.027, 0.0, 10.000469, 9.998991 
1.1350448e+3, 1.9530615e+2, -982209.3, -1120161.9, -32111.785, -0.020495323, -0.107707225, -975100.8, 50891.125, 0.0, 10.000774, 9.998988 
1.1350447e+3, 2.0530508e+2, -811782.25, -970742.94, -66804.02, -0.03719212, -0.11531135, -787436.25, 140565.31, 0.0, 10.001219, 9.99912 
1.1350445e+3, 2.1530405e+2, -637783.1, -836969.75, -63051.773, -0.04245987, -0.15335062, -619502.1, 210508.44, 0.0, 10.001747, 9.99911 
1.1350441e+3, 2.2530302e+2, -632525.7, -948272.3, -83534.96, -0.061337944, -0.08743561, -611787.5, 120235.89, 0.0, 10.001812, 9.9976425 
1.13504395e+3, 2.3530181e+2, -579961.25, -869751.1, -102068.33, -0.087500036, 0.003071694, -547620.5, 86421.16, 0.0, 10.001485, 9.997667 
1.1350449e+3, 2.4530011e+2, -351444.0, -617464.2, -32466.299, -0.09815018, 0.030734563, -347539.0, 188519.77, 0.0, 10.001999, 9.998477 
1.13504715e+3, 2.5529787e+2, -72649.08, -434371.47, 25579.521, -0.08256639, -0.063070066, -70849.16, 367226.9, 0.0, 10.003248, 9.998465 
1.1350482e+3, 2.6529554e+2, -29261.586, -526434.44, -35980.785, -0.054880783, -0.06472637, -26671.127, 313427.0, 0.00000020663475, 10.003579, 9.996997 
1.1350486e+3, 2.7529278e+2, 705.2948, -464857.72, -27136.781, -0.021964708, -0.062156595, 2281.7083, 244409.28, 0.0000055002247, 10.003121, 9.996966 
1.13504946e+3, 2.8529012e+2, 65201.805, -382680.5, -1201.6118, -0.024668265, -0.018082563, 65205.027, 209361.33, 0.00003348711, 10.002896, 9.996962 
1.1350509e+3, 2.9528755e+2, 150282.84, -283629.72, -24954.234, -0.04483635, -0.004684447, 151713.25, 197897.81, 0.00012808957, 10.002769, 9.997029 
1.1350535e+3, 3.0528408e+2, 287081.75, -107663.805, -19151.445, -0.011891822, -0.08814568, 288008.72, 288008.72, 0.0003591798, 10.003031, 9.99778 
1.1350579e+3, 3.152828e+2, 440262.9, 99098.1, -37444.93, 0.14542648, -0.01779116, 444324.38, 444324.38, 0.0007452587, 10.003446, 9.999007 
1.14503734e+3, 1.2530793e+2, -1641937.3, -1549693.0, 98140.836, -0.15844703, 0.3099147, -1487376.8, 224613.55, 0.0013373722, 9.999898, 10.001175 
1.145044e+3, 1.3530663e+2, -1834931.6, -1630109.6, -37082.47, 0.23746538, 0.07062745, -1623602.6, -9608.897, 0.000672049, 9.998066, 10.000851 
1.1450436e+3, 1.4530565e+2, -1851672.9, -1670992.6, -104545.34, 0.09351046, -0.066662714, -1623162.3, -107162.96, 0.0002032588, 9.997661, 10.000065 
1.14504166e+3, 1.5530564e+2, -1617303.9, -1508236.8, -108295.04, -0.055338744, -0.097016126, -1441519.6, -23519.287, 0.000019742625, 9.998611, 10.000047 
1.14504196e+3, 1.6530575e+2, -1438205.1, -1389863.0, -30414.855, -0.06546287, -0.076204084, -1375184.4, -55185.863, 0.000000013934886, 9.999235, 9.999889 
1.1450447e+3, 1.7530575e+2, -1287089.5, -1262754.6, -53892.92, 0.07050611, -0.09166764, -1219672.6, 2323.8767, 0.0, 9.99959, 9.999915 
1.1450457e+3, 1.8530539e+2, -1190212.6, -1238217.3, -64865.246, 0.07598823, -0.08119804, -1145051.3, -21053.135, 0.0, 9.999896, 9.999265 
1.145045e+3, 1.9530454e+2, -1045755.75, -1113242.9, -51242.063, -0.042769678, -0.115713544, -1018144.75, 7859.914, 0.0, 10.000202, 9.999297 
1.145045e+3, 2.0530346e+2, -948130.75, -1078149.0, -55073.023, -0.07912944, -0.120884456, -927938.8, 76.38866, 0.0, 10.000455, 9.998754 
1.1450457e+3, 2.1530202e+2, -822532.5, -964846.75, -82751.14, -0.030140975, -0.16481479, -784551.7, 45479.313, 0.0, 10.000642, 9.998767 
1.14504606e+3, 2.2530083e+2, -698738.6, -981153.06, -53630.95, -0.025541952, -0.097168125, -688896.94, 43148.813, 0.0, 10.00136, 9.997636 
1.1450461e+3, 2.3529966e+2, -427981.13, -793660.0, -28792.32, -0.059605334, -0.00025791838, -425728.0, 208333.75, 0.0, 10.002521, 9.997689 
1.1450474e+3, 2.4529785e+2, -222634.58, -583723.0, 38069.51, -0.10211734, 0.02521178, -218664.56, 317415.9, 0.0, 10.003007, 9.99822 
1.1450494e+3, 2.5529525e+2, -132861.28, -483297.28, -41750.547, -0.14352667, -0.08199493, -127955.836, 310147.66, 0.0, 10.0029335, 9.998267 
1.1450509e+3, 2.6529336e+2, -95997.94, -494031.6, -147065.05, -0.10206036, -0.062056344, -47556.027, 292565.7, 0.00000038376965, 10.002826, 9.997589 
1.1450518e+3, 2.7529177e+2, -25615.771, -415167.78, -105765.02, 0.010750572, -0.0027460782, 1247.4164, 243385.94, 0.0000075917305, 10.002656, 9.997538 
1.145053e+3, 2.8528935e+2, 66120.61, -438660.66, 22005.88, 0.0364577, 0.06327547, 67078.14, 211243.02, 0.0000412879, 10.003137, 9.996469 
1.1450548e+3, 2.952862e+2, 310245.47, -264517.44, 12428.939, 0.010032822, 0.07308996, 310514.1, 356713.75, 0.00014511992, 10.004113, 9.99652 
1.1450572e+3, 3.0528203e+2, 486815.88, -101135.24, 26164.299, -0.010761433, -0.017191, 487977.9, 487977.9, 0.00038843177, 10.004763, 9.996998 
1.1450614e+3, 3.152797e+2, 603170.1, 102621.55, -90998.88, 0.09213953, 0.020109706, 619200.2, 619200.2, 0.0007935078, 10.004893, 9.998327 
1.15503885e+3, 1.2529883e+2, -1552364.1, -1353531.9, 11067.614, -0.037004497, -0.11824083, -1352917.6, 359157.03, 0.001489488, 9.999866, 10.002531 
1.1550412e+3, 1.3530207e+2, -1740962.3, -1439193.9, -94523.34, 0.14441048, -0.034705464, -1412031.1, 202004.16, 0.00075867696, 9.998084, 10.00215 
1.155042e+3, 1.4530334e+2, -1821161.5, -1615497.3, -81001.25, 0.13454914, -0.02894318, -1587426.3, -71406.57, 0.0002361324, 9.997686, 10.000437 
1.1550412e+3, 1.5530325e+2, -1582910.9, -1450197.3, -64416.973, 0.013916543, -0.107712, -1424072.9, -6051.389, 0.000024990082, 9.99866, 10.000425 
1.15504175e+3, 1.653032e+2, -1459133.5, -1438666.4, -30077.01, -0.035490792, -0.10527929, -1417129.6, -97107.84, 0.000000023716384, 9.999261, 9.999541 
1.1550441e+3, 1.7530309e+2, -1311472.1, -1310040.0, -32756.387, 0.023429075, -0.09684631, -1277991.9, -55969.723, 0.0, 9.999579, 9.999593 
1.155045e+3, 1.8530291e+2, -1149050.5, -1148854.9, -64770.72, 0.0077431756, -0.08313926, -1084181.9, 39839.504, 0.0, 9.999878, 9.999887 
1.155045e+3, 1.9530246e+2, -1010056.2, -1030372.8, -33063.473, -0.09223825, -0.14410114, -985625.7, 40396.617, 0.0, 10.000157, 9.99989 
1.1550454e+3, 2.0530187e+2, -991517.4, -1150946.5, -63610.527, -0.10772143, -0.10636203, -969248.06, -41218.758, 0.0, 10.00038, 9.998289 
1.1550464e+3, 2.1530093e+2, -871117.75, -1038965.3, -65664.85, -0.03665576, -0.051693287, -848481.3, -18437.451, 0.0, 10.000517, 9.998321 
1.1550477e+3, 2.252996e+2, -661231.3, -870452.94, -19634.857, -0.0018405434, -0.020880476, -659404.6, 72653.48, 0.0, 10.001223, 9.998462 
1.1550494e+3, 2.352977e+2, -392088.0, -692671.9, 23179.215, -0.005810863, -0.08011558, -390311.06, 243762.72, 0.0, 10.002409, 9.998436 
1.15505114e+3, 2.4529515e+2, -363054.38, -846798.25, 21528.834, -0.045107316, -0.07261774, -362098.13, 174003.39, 0.0, 10.002884, 9.996472 
1.15505286e+3, 2.5529188e+2, -269419.5, -739544.5, -36272.332, -0.121285, -0.072787836, -266637.38, 171504.1, 0.0, 10.002813, 9.996566 
1.1550538e+3, 2.652905e+2, -24884.324, -319858.66, -163665.92, -0.11242846, 0.020349685, 47944.184, 388101.6, 0.0000005356376, 10.002716, 9.9988365 
1.1550542e+3, 2.752906e+2, 52258.977, -229002.2, -100357.52, -0.033040956, 0.11990359, 84395.84, 326549.78, 0.000008957139, 10.002558, 9.99886 
1.1550563e+3, 2.8528884e+2, 59058.55, -430661.66, 49834.582, 0.030723799, 0.17755076, 64078.332, 208249.19, 0.00004724257, 10.003037, 9.996573 
1.1550598e+3, 2.952851e+2, 303564.25, -271755.13, 66306.01, 0.07500654, 0.12147131, 311107.16, 357316.4, 0.00015981888, 10.004073, 9.996496 
1.1550622e+3, 3.0528054e+2, 351920.78, -349905.78, 25281.053, -0.019674193, 0.08206054, 352830.28, 352830.28, 0.00041743313, 10.004641, 9.995338 
1.1550647e+3, 3.152776e+2, 475076.4, -121954.66, -54460.99, -0.11314248, 0.21992102, 480003.66, 480003.66, 0.0008473706, 10.004719, 9.9968605 
1.16503805e+3, 1.2529445e+2, -2034272.9, -1596321.6, 145179.77, 0.07421773, -0.28614354, -1552566.4, 159543.36, 0.0016512593, 9.996599, 10.002433 
1.16503805e+3, 1.3529882e+2, -1874637.9, -1493554.6, -62206.84, 0.067007065, -0.09034467, -1483657.1, 130407.03, 0.0008513687, 9.997149, 10.0022135 
1.16504066e+3, 1.4530091e+2, -1699443.3, -1550890.0, -4989.3003, 0.19445717, -0.011119918, -1550722.6, -34679.88, 0.00027198074, 9.998496, 10.000489 
1.1650414e+3, 1.553008e+2, -1329514.1, -1324764.8, -40787.83, 0.088173024, -0.09502588, -1286282.5, 131761.69, 0.00003101119, 10.000383, 10.000457 
1.16504215e+3, 1.6530067e+2, -1241285.9, -1336545.1, -49921.977, 0.0018128132, -0.10009709, -1219917.0, 100128.195, 0.00000004774233, 10.000777, 9.999508 
1.16504334e+3, 1.7530039e+2, -1257163.5, -1290473.8, -51508.07, -0.01943268, -0.10144193, -1219684.8, 2362.5955, 0.0, 9.999981, 9.999538 
1.16504446e+3, 1.8530004e+2, -1142676.8, -1163540.3, -54910.12, -0.042173322, -0.09733997, -1097216.3, 26832.63, 0.0, 9.999987, 9.999737 
1.1650454e+3, 1.952994e+2, -937819.56, -1013018.8, -99379.23, -0.09418446, -0.15734832, -869164.94, 156886.92, 0.0, 10.000719, 9.999743 
1.1650464e+3, 2.0529887e+2, -864081.94, -1083826.0, -127125.984, -0.08457399, -0.10954362, -805927.56, 122131.234, 0.0, 10.001233, 9.998335 
1.1650476e+3, 2.1529824e+2, -715262.25, -953534.8, -116227.53, -0.00783873, -0.03373431, -667958.5, 162112.38, 0.0, 10.001555, 9.9984 
1.1650496e+3, 2.2529694e+2, -539593.4, -799728.44, -35098.805, 0.027038129, -0.0067866407, -534940.9, 197142.95, 0.0, 10.002014, 9.998563 
1.1650521e+3, 2.352948e+2, -360844.22, -667539.56, -66316.84, 0.02800347, -0.09908976, -347118.75, 286981.72, 0.0, 10.002585, 9.998526 
1.1650541e+3, 2.4529238e+2, -415561.38, -874165.1, -49949.87, -0.017331224, -0.08529421, -410184.0, 125943.2, 0.0, 10.002517, 9.996469 
1.1650552e+3, 2.5528952e+2, -412468.97, -813540.7, 3265.1614, -0.111561395, -0.040268205, -412442.38, 25721.824, 0.0, 10.001829, 9.996544 
1.1650563e+3, 2.6528797e+2, -108601.69, -388742.1, -64148.594, -0.113426685, 0.048297103, -94611.18, 245571.95, 0.00000056359414, 10.00227, 9.998573 
1.1650573e+3, 2.752873e+2, 196992.55, -190766.89, -141980.98, -0.029169666, 0.10070622, 243420.86, 485609.06, 0.00000928475, 10.003694, 9.998579 
1.16505995e+3, 2.852854e+2, 260093.02, -278688.1, -27444.518, 0.048395906, 0.133288, 261487.39, 405692.63, 0.000050363375, 10.004186, 9.99706 
1.16506405e+3, 2.9528216e+2, 298046.9, -217786.1, -8845.264, 0.11495571, 0.079636246, 298198.56, 344433.66, 0.00017050822, 10.00381, 9.996983 
1.1650663e+3, 3.052781e+2, 226509.58, -427464.2, 46401.547, -0.018038832, 0.07662417, 229785.52, 229785.52, 0.00044292747, 10.003847, 9.995196 
1.1650686e+3, 3.1527525e+2, 349370.88, -188075.36, 43256.12, -0.14727527, 0.23843001, 352830.06, 352830.06, 0.00089617184, 10.00387, 9.996832 
1.17503345e+3, 1.2529433e+2, -2147500.0, -1821015.6, 71495.8, -0.10072833, -0.2468741, -1806045.4, -93945.3, 0.0018234614, 9.996567, 10.000903 
1.17503405e+3, 1.352969e+2, -1953407.5, -1666941.0, -31479.777, -0.07311221, -0.1061328, -1663522.4, -49442.082, 0.0009506097, 9.997191, 10.001003 
1.1750392e+3, 1.4529836e+2, -1715465.3, -1585090.0, 55324.25, 0.17649439, -0.02064194, -1564778.0, -48709.71, 0.00031097958, 9.998504, 10.000247 
1.175042e+3, 1.5529838e+2, -1350253.3, -1367137.9, 36504.94, 0.08648878, -0.06349792, -1321227.1, 96840.49, 0.00003785508, 10.0003805, 10.000166 
1.1750427e+3, 1.6529818e+2, -1231950.9, -1315349.1, -91779.56, -0.04500708, -0.06873218, -1172841.8, 147226.94, 0.00000010132158, 10.00077, 9.999655 
1.17504224e+3, 1.7529766e+2, -1246897.8, -1267394.6, -70835.26, -0.14196928, -0.11194266, -1185573.4, 36498.59, 0.0, 9.999974, 9.999698 
1.1750434e+3, 1.8529683e+2, -1205627.5, -1293140.0, -39378.16, -0.16144092, -0.11949558, -1190517.4, -66437.805, 0.0, 9.999979, 9.998853 
1.1750459e+3, 1.9529542e+2, -1005044.56, -1143009.6, -60605.2, -0.13005716, -0.17071965, -982203.5, 43889.832, 0.0, 10.0006695, 9.99888 
1.17504776e+3, 2.0529458e+2, -841593.94, -1015661.0, -126438.734, -0.09330834, -0.13600986, -775129.6, 152973.25, 0.0, 10.001144, 9.998845 
1.1750492e+3, 2.1529405e+2, -699274.6, -893479.56, -95517.54, -0.032564636, -0.09940358, -660169.56, 169940.88, 0.0, 10.001436, 9.998872 
1.17505126e+3, 2.2529289e+2, -601388.56, -894716.4, -25305.13, -0.018275848, -0.053456053, -599221.5, 132901.58, 0.0, 10.001872, 9.997979 
1.17505416e+3, 2.35291e+2, -417840.47, -749357.56, -34944.906, -0.0486289, -0.064302385, -414197.0, 219944.67, 0.0, 10.002432, 9.9980345 
1.1750558e+3, 2.452895e+2, -318815.13, -640986.3, -85113.086, -0.11117246, -0.018613275, -297711.78, 238445.56, 0.0, 10.002376, 9.998139 
1.17505625e+3, 2.5528815e+2, -308258.9, -578527.5, -9978.111, -0.20020895, 0.0040379413, -307891.03, 130281.164, 0.0, 10.001751, 9.998193 
1.1750581e+3, 2.6528567e+2, -249914.5, -664610.6, -21367.678, -0.1755803, 0.0154981, -248816.4, 91383.04, 0.0000005132723, 10.002189, 9.996722 
1.1750608e+3, 2.7528185e+2, 60666.117, -459386.56, -76198.625, -0.07065006, -0.061576366, 71600.89, 313841.78, 0.000009286575, 10.003628, 9.996767 
1.17506385e+3, 2.852791e+2, 297881.1, -179230.34, -49557.375, -0.0051959353, -0.06267261, 302974.22, 447241.06, 0.00005131962, 10.004095, 9.997786 
1.17506735e+3, 2.9527715e+2, 354424.63, -93417.85, -8753.818, 0.035123646, -0.067085184, 354595.7, 400875.22, 0.0001770123, 10.003768, 9.997858 
1.1750697e+3, 3.0527455e+2, 306288.22, -228529.7, 44113.316, -0.08670428, -0.051067494, 309902.4, 309902.4, 0.0004593758, 10.003724, 9.996615 
1.1750724e+3, 3.1527278e+2, 432893.13, 27676.055, 70469.85, -0.19525206, 0.08491696, 444798.5, 444798.5, 0.0009233706, 10.003711, 9.99838 
1.1850316e+3, 1.2529264e+2, -1885079.6, -1795730.1, -135321.44, -0.039676517, -0.107196294, -1697899.8, 14218.343, 0.0020081834, 9.998789, 10.000005 
1.18503235e+3, 1.3529366e+2, -1704560.5, -1625182.3, -158728.39, -0.052609786, -0.05699076, -1501256.3, 112858.91, 0.0010574218, 9.99921, 10.000329 
1.18503824e+3, 1.452943e+2, -1620512.9, -1520301.6, -10678.885, 0.20226112, -0.030493166, -1519176.3, -3065.1135, 0.00035351914, 9.999079, 10.000409 
1.1850416e+3, 1.552945e+2, -1612870.3, -1470943.8, -27160.166, 0.116773605, -0.073751085, -1465923.8, -47816.37, 0.00004562391, 9.998491, 10.000357 
1.1850427e+3, 1.6529453e+2, -1498819.8, -1435388.3, -128514.78, -0.017595384, -0.06890243, -1334733.5, -14628.289, 0.00000019883093, 9.998895, 9.999742 
1.1850423e+3, 1.7529428e+2, -1198562.4, -1232118.9, -131930.81, -0.14272691, -0.09751885, -1082347.3, 139758.8, 0.0, 10.000249, 9.999809 
1.185044e+3, 1.8529344e+2, -1110779.8, -1254863.0, -57033.043, -0.1454962, -0.10569639, -1090936.9, 33176.773, 0.0, 10.000674, 9.998776 
1.1850471e+3, 1.9529186e+2, -1056077.3, -1169832.9, -44637.58, -0.060074627, -0.16777165, -1040652.94, -14523.362, 0.0, 10.000344, 9.998844 
1.18504904e+3, 2.0529093e+2, -913410.56, -1049505.0, -64098.996, -0.041541763, -0.1424149, -887974.56, 40164.855, 0.0, 10.000647, 9.998858 
1.18505016e+3, 2.1529026e+2, -690728.2, -884398.1, -86039.11, -0.06454068, -0.11706771, -658026.56, 172119.97, 0.0, 10.00148, 9.998914 
1.1850528e+3, 2.2528908e+2, -610915.25, -893476.25, -1087.0002, -0.058611393, -0.07905031, -610911.06, 121248.11, 0.0, 10.001765, 9.998042 
1.1850563e+3, 2.3528722e+2, -536989.9, -798654.56, 12640.488, -0.034897655, -0.09453799, -536380.7, 97797.73, 0.0, 10.001561, 9.998119 
1.1850581e+3, 2.4528597e+2, -349572.7, -607892.06, -42710.97, -0.08981077, -0.05005352, -342693.97, 193496.83, 0.0, 10.001967, 9.998559 
1.1850586e+3, 2.5528502e+2, -105908.79, -443547.03, -84397.65, -0.2100565, -0.02380563, -85987.73, 352211.94, 0.0, 10.00298, 9.998531 
1.1850607e+3, 2.6528263e+2, -99762.23, -610186.75, -47172.375, -0.18379861, -0.011981154, -95439.266, 244786.73, 0.0000005059796, 10.003321, 9.996539 
1.18506424e+3, 2.7527866e+2, -37391.965, -528386.9, -7654.3545, -0.05058703, -0.086553335, -37272.664, 204997.86, 0.000009353779, 10.003063, 9.996558 
1.1850673e+3, 2.852757e+2, 161242.11, -220512.45, 56739.684, -0.007962038, -0.104286835, 169496.77, 313794.88, 0.000051335024, 10.003059, 9.997996 
1.1850703e+3, 2.9527372e+2, 291818.6, -100483.92, 34130.438, -0.02071517, -0.1324085, 294765.8, 341076.2, 0.00017979782, 10.003253, 9.998054 
1.1850727e+3, 3.0527136e+2, 274423.63, -237325.84, 31031.688, -0.12268099, -0.10215987, 276298.47, 276298.47, 0.0004625388, 10.003443, 9.996704 
1.18507676e+3, 3.1526938e+2, 395259.47, 22444.785, -79934.53, -0.10406303, 0.0038777206, 411675.25, 411675.25, 0.00092024915, 10.003352, 9.998532 
1.19503126e+3, 1.2528908e+2, -1898564.5, -1819619.0, -217230.2, -0.012790145, 0.0793548, -1638304.4, 73862.0, 0.0022081332, 9.998774, 9.999846 
1.19503275e+3, 1.3528924e+2, -1707237.9, -1629040.3, -134426.8, 0.038157072, 0.04323954, -1528141.6, 86025.875, 0.0011730703, 9.999204, 10.000302 
1.1950372e+3, 1.452888e+2, -1585606.9, -1448385.3, -43045.297, 0.16350709, -0.05977453, -1436000.1, 80170.79, 0.00040013902, 9.999078, 10.000907 
1.1950403e+3, 1.5528929e+2, -1571007.5, -1397163.4, -36004.434, 0.100820184, -0.12210233, -1390001.6, 28160.299, 0.00005450229, 9.998535, 10.00085 
1.195042e+3, 1.6528986e+2, -1485206.5, -1413689.3, -92398.07, -0.0019083674, -0.09417384, -1350371.8, -30217.973, 0.00000035173326, 9.998922, 9.999878 
1.1950432e+3, 1.7529035e+2, -1195518.9, -1219762.3, -74434.74, -0.095785886, -0.061683863, -1132225.3, 89922.95, 0.0, 10.000222, 9.999908 
1.1950454e+3, 1.8528998e+2, -1068628.3, -1164448.3, -79760.555, -0.08330504, -0.05755219, -1023494.6, 100655.73, 0.0, 10.000661, 9.999404 
1.1950485e+3, 1.9528876e+2, -1022483.44, -1088821.3, -46483.996, 0.02499172, -0.14716603, -998547.75, 27612.928, 0.0, 10.000289, 9.999432 
1.1950502e+3, 2.0528778e+2, -954446.25, -1113241.0, -46486.574, -0.016557952, -0.13272983, -941838.5, -13668.839, 0.0, 10.000559, 9.99846 
1.1950506e+3, 2.1528684e+2, -735791.3, -947865.94, -47412.043, -0.18291706, -0.09972341, -725674.3, 104505.22, 0.0, 10.001353, 9.998537 
1.19505346e+3, 2.2528546e+2, -583149.94, -805154.1, -19959.201, -0.17809685, -0.09457978, -581369.8, 150822.69, 0.0, 10.001633, 9.998712 
1.1950581e+3, 2.3528355e+2, -510118.6, -713939.5, 14369.313, -0.016458929, -0.18454327, -509110.56, 125099.23, 0.0, 10.001439, 9.998757 
1.1950607e+3, 2.4528192e+2, -427228.94, -742995.7, -17354.418, -0.043175567, -0.16540956, -426278.0, 109948.6, 0.0, 10.00185, 9.997692 
1.1950614e+3, 2.5528035e+2, -178803.2, -565210.56, -38016.363, -0.23688035, -0.117426805, -175098.52, 263146.44, 0.0, 10.002855, 9.997753 
1.19506374e+3, 2.6527894e+2, -27981.184, -436192.78, -66492.5, -0.23026398, -0.031870436, -17423.455, 322838.03, 0.0000006389743, 10.003207, 9.997795 
1.19506754e+3, 2.752775e+2, 40671.52, -344962.7, -5832.216, -0.051750794, 0.018434448, 40759.707, 283037.97, 0.000009301616, 10.002976, 9.997859 
1.1950703e+3, 2.8527516e+2, 125924.586, -277786.9, 53703.605, -0.035535004, 0.012117624, 132946.36, 277246.25, 0.000051838055, 10.002983, 9.997643 
1.1950725e+3, 2.952717e+2, 253681.73, -168231.39, 55951.957, -0.15789504, -0.12670648, 260975.7, 307304.13, 0.00018153801, 10.003191, 9.9976225 
1.1950753e+3, 3.052686e+2, 160063.9, -440217.38, 23634.293, -0.22966667, -0.0794165, 160992.98, 160992.98, 0.0004580292, 10.003307, 9.995369 
1.195081e+3, 3.1526494e+2, 288411.28, -152456.08, -44377.75, -0.047605794, -0.014562779, 292834.0, 292834.0, 0.0008969489, 10.003163, 9.997413 
1.2050299e+3, 1.2528524e+2, -2054037.0, -1858451.3, -85848.234, 0.054276146, 0.11458759, -1826115.9, -113907.39, 0.0024257244, 9.997571, 10.000166 
1.2050327e+3, 1.3528526e+2, -1747661.9, -1634242.8, -13250.942, 0.14665623, 0.062085006, -1632715.1, -18506.986, 0.0012988481, 9.998895, 10.000408 
1.2050361e+3, 1.4528446e+2, -1572145.1, -1466330.6, 33850.82, 0.1418952, -0.071318105, -1456428.1, 59786.72, 0.00045139206, 9.999259, 10.000702 
1.2050392e+3, 1.5528558e+2, -1525242.1, -1389185.9, -33428.7, 0.13095713, -0.056231152, -1381416.1, 36785.47, 0.00006471426, 9.99891, 10.000723 
1.2050415e+3, 1.6528642e+2, -1433282.4, -1343303.1, -25245.21, 0.054160547, -0.018230578, -1336704.1, -16513.238, 0.00000057087306, 9.9990835, 10.000279 
1.2050436e+3, 1.7528667e+2, -1227849.3, -1187785.4, -9709.403, -0.0582189, -0.04944961, -1185556.3, 36629.24, 0.0, 9.999804, 10.000321 
1.2050462e+3, 1.8528636e+2, -1151340.0, -1235367.0, -55393.02, -0.051548135, -0.046027232, -1123830.0, 357.30725, 0.0, 10.000231, 9.999118 
1.20504916e+3, 1.9528538e+2, -1019082.25, -1112573.8, -105518.695, 0.059094492, -0.083253644, -950418.44, 75778.53, 0.0, 10.000431, 9.999188 
1.2050512e+3, 2.0528428e+2, -920325.0, -1092743.3, -71197.66, 0.020377822, -0.07313219, -894725.75, 33481.523, 0.0, 10.000766, 9.998501 
1.2050522e+3, 2.1528283e+2, -748925.9, -951696.6, -64025.46, -0.14600737, -0.09669802, -730401.9, 99818.63, 0.0, 10.001232, 9.998574 
1.2050552e+3, 2.252814e+2, -641279.3, -843470.75, -63940.453, -0.14399172, -0.09189712, -622755.94, 109477.945, 0.0, 10.001286, 9.998618 
1.2050596e+3, 2.3527986e+2, -586339.94, -760631.44, -105270.45, 0.014425638, -0.1321014, -536824.6, 97424.625, 0.0, 10.000969, 9.998665 
1.20506264e+3, 2.4527825e+2, -543305.06, -780808.94, -73897.46, 0.0072510913, -0.11353162, -522189.72, 14076.24, 0.0, 10.000976, 9.997847 
1.20506406e+3, 2.5527635e+2, -399882.16, -655892.2, -42232.27, -0.16526599, -0.114869975, -393095.3, 45191.098, 0.00000000020898414, 10.00126, 9.997899 
1.20506644e+3, 2.6527503e+2, -261577.78, -494051.97, -73101.96, -0.18259138, -0.054379474, -240501.52, 99799.02, 0.00000074892756, 10.001367, 9.998278 
1.2050694e+3, 2.75274e+2, -166058.0, -394617.63, -93644.23, -0.05863058, -0.007667757, -132591.0, 109719.86, 0.000009032264, 10.001331, 9.998305 
1.20507285e+3, 2.8527215e+2, -13771.793, -365671.06, -4564.753, -0.02385668, 0.023258451, -13712.59, 130616.234, 0.000052112464, 10.002112, 9.997459 
1.20507665e+3, 2.952693e+2, 288219.44, -172672.23, -19546.592, -0.07143535, -0.035783406, 289046.94, 335403.0, 0.00018292993, 10.003526, 9.99743 
1.20507956e+3, 3.052662e+2, 294387.0, -371596.7, -2466.6274, -0.16934486, 0.023419289, 294396.16, 294396.16, 0.000455038, 10.0042305, 9.995382 
1.2050847e+3, 3.1526095e+2, 396857.28, -100902.74, -12883.006, -0.03393148, -0.07324617, 397190.5, 397190.5, 0.0008751653, 10.003952, 9.997367 
1.2150272e+3, 1.2528098e+2, -1995638.9, -1728245.9, -18153.04, -0.022256909, -0.02849331, -1727019.1, -14773.487, 0.0026624324, 9.997561, 10.001051 
1.21503234e+3, 1.3528183e+2, -1745772.8, -1633811.9, 40253.09, 0.20616019, -0.002496385, -1620842.1, -6605.831, 0.0014356553, 9.998906, 10.000411 
1.2150348e+3, 1.452813e+2, -1625659.4, -1570567.1, 6328.7983, 0.05647174, -0.07215752, -1569849.5, -53606.313, 0.0005075534, 9.999241, 9.9999895 
1.2150382e+3, 1.5528336e+2, -1576176.6, -1495174.9, -33529.14, 0.12089976, 0.10852602, -1483097.0, -64870.2, 0.000076397075, 9.99891, 9.999997 
1.2150409e+3, 1.6528407e+2, -1386881.9, -1247024.0, -8676.89, 0.05255695, 0.13841417, -1246487.8, 73729.7, 0.0000008702971, 9.999087, 10.000935 
1.2150432e+3, 1.7528327e+2, -1187679.4, -1101775.1, 25600.781, -0.10577446, -0.06286774, -1094724.4, 127493.36, 0.0, 9.999787, 10.000922 
1.21504575e+3, 1.8528256e+2, -1226146.3, -1388409.9, -60541.234, -0.13176654, -0.075430736, -1206047.6, -81823.14, 0.0, 10.000222, 9.998073 
1.2150488e+3, 1.9528182e+2, -1098868.9, -1268680.3, -87774.414, -0.04335998, 0.015035498, -1061654.4, -35416.17, 0.0, 10.000384, 9.998144 
1.2150516e+3, 2.0528047e+2, -905780.4, -1036664.06, -65245.297, -0.021045703, 0.031424657, -878812.4, 49439.65, 0.0, 10.000661, 9.998932 
1.2150547e+3, 2.1527842e+2, -742782.25, -903262.75, -39011.676, -0.048320062, -0.09732791, -733801.4, 96466.37, 0.0, 10.00108, 9.998976 
1.2150576e+3, 2.2527705e+2, -722578.6, -980503.8, -88233.0, -0.043933272, -0.062468998, -695283.7, 36998.273, 0.0, 10.001144, 9.997748 
1.2150604e+3, 2.352762e+2, -659589.6, -885575.8, -105226.195, -0.010467695, 0.053439576, -618180.7, 16115.486, 0.0, 10.000848, 9.997868 
1.2150635e+3, 2.4527499e+2, -488055.2, -628500.94, -69846.234, -0.024194527, 0.09161278, -459233.88, 77075.03, 0.0, 10.000821, 9.998962 
1.21506654e+3, 2.5527316e+2, -339000.66, -506633.72, -20931.535, -0.07425394, -0.014361253, -336426.56, 101896.58, 0.00000000018849695, 10.001165, 9.998965 
1.2150686e+3, 2.65271e+2, -296583.28, -547569.4, -83760.98, -0.12609246, -0.07277301, -271197.53, 69144.57, 0.00000061447383, 10.001279, 9.997956 
1.21507e+3, 2.752683e+2, -196637.63, -444210.38, -81319.11, -0.16950075, -0.16572024, -172316.39, 70051.21, 0.000008322687, 10.001265, 9.998 
1.2150747e+3, 2.8526688e+2, -43112.24, -393634.72, 40356.4, -0.07532435, -0.068964206, -38525.93, 105858.055, 0.000050693892, 10.001981, 9.997329 
1.21508256e+3, 2.9526654e+2, 272169.9, -183201.42, 49178.246, 0.14054878, 0.13662378, 277420.4, 323813.22, 0.00018223259, 10.003431, 9.997399 
1.21508546e+3, 3.0526417e+2, 355345.6, -217075.39, -19528.146, -0.026061023, 0.20957376, 356011.03, 356011.03, 0.00045375043, 10.00411, 9.996505 
1.2150869e+3, 3.1525707e+2, 435260.4, 20107.305, 13030.797, -0.2562554, -0.18481235, 435669.0, 435669.0, 0.0008639957, 10.003785, 9.998276 
1.22502625e+3, 1.2527624e+2, -1774649.8, -1608822.4, -42180.93, 0.06697929, -0.054667637, -1598709.6, 113584.13, 0.0029179724, 9.998957, 10.00122 
1.2250311e+3, 1.3527723e+2, -1870770.0, -1729790.0, -109622.02, 0.236946, 0.012029561, -1669950.4, -55666.547, 0.0015834377, 9.998183, 10.000104 
1.2250328e+3, 1.4527693e+2, -1774667.3, -1633586.8, -95888.07, -0.007416194, -0.021558711, -1585087.3, -68799.445, 0.00056846405, 9.998182, 10.000068 
1.225037e+3, 1.5527871e+2, -1533455.6, -1456706.9, -99738.234, 0.09666191, 0.11916822, -1388215.5, 30057.72, 0.00008951281, 9.99914, 10.000141 
1.22504026e+3, 1.6527936e+2, -1368442.3, -1278454.0, -62751.105, 0.07614556, 0.15023817, -1246233.0, 74032.44, 0.0000012652538, 9.999361, 10.000605 
1.2250431e+3, 1.7527863e+2, -1336944.4, -1205745.9, -116505.89, -0.040014617, -0.010623295, -1137640.6, 84626.586, 0.0, 9.998889, 10.000652 
1.22504614e+3, 1.8527801e+2, -1342484.6, -1406526.6, -140129.33, -0.06893584, -0.019674862, -1230764.3, -106490.48, 0.0, 9.999255, 9.998422 
1.22504935e+3, 1.952773e+2, -1065909.1, -1211795.6, -88871.4, -0.021194786, 0.040309325, -1023879.2, 2407.1724, 0.0, 10.000438, 9.998511 
1.2250527e+3, 2.0527628e+2, -850118.8, -1004690.2, -25587.297, 0.0036485747, 0.06576696, -845993.25, 82303.86, 0.0, 10.001005, 9.998991 
1.2250563e+3, 2.1527477e+2, -755231.3, -900110.2, -44779.773, 0.012084177, -0.012604599, -742508.0, 87800.26, 0.0, 10.000959, 9.999054 
1.2250592e+3, 2.2527358e+2, -739373.9, -975314.06, -57927.137, 0.019644793, 0.028163556, -725919.1, 6402.117, 0.0, 10.000971, 9.997864 
1.22506164e+3, 2.3527245e+2, -626024.7, -856858.25, -29798.871, 0.018568268, 0.10393201, -622239.94, 12098.051, 0.0, 10.001018, 9.997982 
1.2250647e+3, 2.4527134e+2, -435132.1, -570459.25, 39244.6, 0.0138164135, 0.13274316, -424574.84, 111774.44, 0.0, 10.001034, 9.999269 
1.22506835e+3, 2.552701e+2, -333810.9, -466344.88, 11638.276, 0.010892968, 0.054327995, -332796.66, 105560.664, 0.0, 10.001047, 9.9993 
1.2250708e+3, 2.6526803e+2, -201177.92, -506342.13, -25613.201, -0.05770918, -0.0070615085, -199043.08, 141331.22, 0.0000003685213, 10.001956, 9.997913 
1.22507215e+3, 2.7526498e+2, 135804.97, -289922.47, -27252.516, -0.18864146, -0.12743147, 137542.42, 379944.22, 0.0000073761885, 10.003588, 9.997937 
1.2250773e+3, 2.8526315e+2, 164596.64, -349268.44, 79309.03, -0.09374526, -0.04614093, 176558.6, 320982.1, 0.00004908337, 10.003624, 9.996844 
1.2250858e+3, 2.952623e+2, 47667.07, -345237.4, 39148.266, 0.20722519, 0.15480864, 51529.754, 97970.68, 0.00018069774, 10.002108, 9.99693 
1.22508936e+3, 3.052608e+2, 179988.03, -163897.23, 11096.379, 0.04623035, 0.2745597, 180345.72, 180345.72, 0.00045143487, 10.00231, 9.997735 
1.22509085e+3, 3.1525508e+2, 494496.78, 127570.74, 13639.269, -0.22582157, -0.101084255, 495003.1, 495003.1, 0.0008578977, 10.0037985, 9.999029 
1.23502836e+3, 1.2527111e+2, -1790967.6, -1647494.6, -12713.849, 0.33410692, 0.051161993, -1646376.6, 65975.48, 0.0031899144, 9.998982, 10.000934 
1.2350284e+3, 1.352713e+2, -1896819.3, -1799549.8, -140093.33, 0.12136322, 0.08768942, -1699889.3, -85537.766, 0.0017411282, 9.998236, 9.999601 
1.2350298e+3, 1.4527126e+2, -1707399.9, -1507312.1, -72295.19, -0.15848628, 0.05848654, -1483924.4, 32425.662, 0.0006337289, 9.998232, 10.000916 
1.2350351e+3, 1.5527163e+2, -1469567.1, -1338687.8, -57453.676, -0.018234583, -0.025037978, -1317045.4, 101296.07, 0.00010392506, 9.999182, 10.000942 
1.2350395e+3, 1.652722e+2, -1443246.4, -1436420.6, -95093.05, 0.046493083, 0.015871078, -1344679.3, -24343.523, 0.0000017603737, 9.999375, 9.999511 
1.2350431e+3, 1.7527281e+2, -1408706.6, -1359203.1, -124556.914, 0.047990173, 0.097767085, -1256962.5, -34628.77, 0.0, 9.998899, 9.999597 
1.23504676e+3, 1.8527271e+2, -1230449.6, -1168575.1, -106472.734, 0.042999003, 0.10819008, -1088636.1, 35699.297, 0.0, 9.999234, 10.000064 
1.23505056e+3, 1.9527179e+2, -962622.9, -984284.6, -35488.863, 0.03756246, -0.01599465, -936348.94, 89993.09, 0.0, 10.000378, 10.000105 
1.235054e+3, 2.0527159e+2, -880521.56, -1042052.9, -42003.15, 0.01044738, 0.025529439, -870252.3, 58091.3, 0.0, 10.000896, 9.998786 
1.2350569e+3, 2.1527189e+2, -786300.7, -937545.4, -37894.17, -0.03914878, 0.14893587, -777337.56, 53004.504, 0.0, 10.000836, 9.998858 
1.2350598e+3, 2.2527094e+2, -687870.6, -837407.5, -66604.3, -0.03581902, 0.17041093, -662506.9, 69845.234, 0.0, 10.000835, 9.9988785 
1.2350628e+3, 2.3526858e+2, -577982.06, -728544.75, -17127.035, 0.014618962, 0.022277692, -576058.4, 58316.72, 0.0, 10.000893, 9.998926 
1.2350659e+3, 2.4526739e+2, -483658.3, -641975.94, 28445.99, 0.02276805, 0.020338887, -478702.38, 57684.355, 0.0, 10.00091, 9.9988365 
1.23506956e+3, 2.5526708e+2, -372332.53, -530772.4, 24143.97, 0.0047118426, 0.07834935, -368735.03, 69654.664, 0.0, 10.000969, 9.998899 
1.2350729e+3, 2.65266e+2, -211655.52, -492057.28, 27798.383, -0.066930756, 0.123844005, -208926.22, 131472.36, 0.00000016286783, 10.00181, 9.998078 
1.2350758e+3, 2.7526397e+2, 127016.58, -280137.94, 44642.137, -0.19679183, 0.09144127, 131853.86, 374268.7, 0.000006622681, 10.00347, 9.998058 
1.2350803e+3, 2.8526086e+2, 87924.18, -479511.25, 14219.515, -0.16693434, 0.0813944, 88280.29, 232729.11, 0.00004875032, 10.003503, 9.996008 
1.2350864e+3, 2.9525647e+2, -15725.623, -464810.03, 1250.9043, 0.026040616, 0.01246511, -15722.14, 30778.885, 0.00018165374, 10.00205, 9.9961405 
1.2350907e+3, 3.0525595e+2, 256806.77, 15785.907, 65764.586, -0.06109686, 0.20525625, 273583.4, 273583.4, 0.00045300575, 10.002222, 9.999014 
1.2350961e+3, 3.152549e+2, 517996.2, 219122.23, 104661.11, -0.13140236, 0.16420509, 551001.94, 551001.94, 0.0008590856, 10.00362, 9.9997425 
1.2450271e+3, 1.2526648e+2, -2016620.9, -1758284.3, 85318.84, 0.39573872, 0.18267728, -1732650.3, -20247.36, 0.003475539, 9.997477, 10.000889 
1.2450265e+3, 1.3526611e+2, -1749753.4, -1702027.0, -58670.69, 0.06418284, 0.14388116, -1662552.3, -48145.49, 0.0019075654, 9.999143, 9.999837 
1.2450296e+3, 1.4526632e+2, -1518222.9, -1422435.9, 13647.032, -0.06466204, 0.13252005, -1420529.5, 95872.03, 0.0007030745, 9.999566, 10.000852 
1.2450348e+3, 1.5526578e+2, -1519708.4, -1372234.8, -64977.633, 0.0419494, -0.03591621, -1347690.3, 70710.68, 0.00011956255, 9.998888, 10.000848 
1.2450388e+3, 1.6526608e+2, -1533450.0, -1469561.6, -75614.38, 0.0754177, -0.021015579, -1419420.8, -99022.88, 0.0000023468863, 9.998729, 9.999586 
1.2450422e+3, 1.7526712e+2, -1368912.1, -1327251.9, -39885.563, 0.061830737, 0.098179385, -1303084.8, -80692.15, 0.0, 9.999141, 9.999686 
1.24504626e+3, 1.8526763e+2, -1146860.8, -1088806.9, 20829.648, 0.06608504, 0.14449368, -1082106.6, 42281.926, 0.0, 9.999625, 10.000423 
1.24505125e+3, 1.9526736e+2, -974338.94, -952867.56, -19682.852, 0.08862697, 0.04883345, -941182.94, 85205.016, 0.0, 10.000125, 10.000444 
1.2450548e+3, 2.0526725e+2, -969006.3, -1073197.1, -71755.555, 0.045077838, 0.078559846, -932429.3, -4040.829, 0.0, 10.000244, 9.998884 
1.2450571e+3, 2.1526715e+2, -900760.7, -977639.8, -68380.75, -0.05237632, 0.15025662, -860755.8, -30364.367, 0.0, 9.999991, 9.998988 
1.24506034e+3, 2.2526643e+2, -724454.7, -804894.2, -65307.26, -0.041395556, 0.16488081, -687975.94, 44423.086, 0.0, 10.00037, 9.999323 
1.2450644e+3, 2.3526485e+2, -488674.22, -635700.6, -79353.81, 0.066821784, 0.04896184, -454015.25, 180398.14, 0.0, 10.001294, 9.999367 
1.2450677e+3, 2.4526386e+2, -380323.97, -626315.7, -41083.035, 0.07065197, 0.05889377, -373644.1, 162779.28, 0.0, 10.001759, 9.998538 
1.2450707e+3, 2.5526324e+2, -275782.63, -515249.28, -56331.094, -0.016091764, 0.11575836, -263193.38, 175237.27, 0.0, 10.001769, 9.998618 
1.2450747e+3, 2.6526216e+2, -189606.17, -480201.4, -2243.2656, -0.06510582, 0.17453235, -189588.86, 150851.7, 0.000000050542315, 10.001939, 9.998101 
1.2450797e+3, 2.7526045e+2, -54073.94, -366800.84, -17852.1, -0.08351509, 0.16873562, -53058.15, 189396.88, 0.0000061370592, 10.002204, 9.998082 
1.2450843e+3, 2.852572e+2, 23705.26, -461185.5, -23554.373, -0.08171654, 0.12699018, 24846.766, 169334.73, 0.000049451537, 10.002863, 9.996442 
1.2450885e+3, 2.9525232e+2, 275310.63, -275565.72, 29605.256, -0.049247194, -0.034562938, 276897.13, 323437.66, 0.00018703903, 10.003855, 9.996567 
1.2450929e+3, 3.0525175e+2, 445592.16, 42580.21, 106552.28, -0.13591355, 0.16019493, 472029.25, 472029.25, 0.00046630288, 10.0037775, 9.998462 
1.2451001e+3, 3.152515e+2, 310839.1, 10736.284, -21764.447, -0.032714754, 0.2594844, 312409.3, 312409.3, 0.00088092365, 10.002662, 9.998778 
1.2550224e+3, 1.2526233e+2, -1996279.9, -1743084.0, 69844.445, 0.13137099, 0.33227637, -1725095.4, -12649.136, 0.0037739007, 9.997568, 10.000961 
1.2550251e+3, 1.3526176e+2, -1676280.0, -1563464.6, 10657.029, -0.003565759, 0.17842998, -1562466.8, 51981.69, 0.0020822603, 9.999187, 10.000773 
1.2550321e+3, 1.452623e+2, -1580459.8, -1558799.5, -23731.703, 0.20269348, 0.1989155, -1543543.5, -27102.352, 0.0007764397, 9.999595, 9.999901 
1.2550353e+3, 1.5526125e+2, -1580595.8, -1506681.3, -80813.19, 0.18233049, 0.07845366, -1454775.6, -36324.867, 0.00013646827, 9.998919, 9.999912 
1.2550378e+3, 1.6526099e+2, -1452249.8, -1307005.0, -74044.695, 0.07781154, 0.027701087, -1275913.3, 44538.66, 0.0000030208696, 9.998751, 10.000692 
1.2550403e+3, 1.7526157e+2, -1291614.4, -1170475.3, -16957.06, -0.06712026, -0.013220582, -1168146.4, 54297.9, 0.0, 9.999151, 10.000758 
1.2550448e+3, 1.8526271e+2, -1202755.1, -1202913.0, 27193.875, -0.07078109, 0.08603342, -1175640.0, -51206.266, 0.0, 9.999615, 9.999645 
1.2550512e+3, 1.9526406e+2, -1032622.94, -1064693.9, 7361.1104, 0.042761177, 0.22713704, -1031014.06, -4590.274, 0.0, 10.00008, 9.999698 
1.255055e+3, 2.0526333e+2, -961608.06, -1029166.94, -93089.18, 0.024485102, 0.21263333, -896359.0, 32072.352, 0.0, 10.000125, 9.999246 
1.2550567e+3, 2.1526061e+2, -896558.0, -939817.0, -67187.25, -0.11194677, -0.012158746, -847604.5, -17148.28, 0.0, 9.999866, 9.999311 
1.2550603e+3, 2.2526e+2, -752503.7, -827632.94, -42504.848, -0.08921805, 0.005689264, -733343.0, -880.50665, 0.0, 10.000218, 9.999239 
1.2550661e+3, 2.3526119e+2, -510764.56, -656304.4, -36024.414, 0.08955118, 0.1719407, -502335.8, 132117.77, 0.0, 10.001178, 9.999284 
1.2550697e+3, 2.4526072e+2, -411770.03, -657809.9, -50660.375, 0.07224565, 0.24536921, -401747.2, 134712.03, 0.0, 10.0016165, 9.998388 
1.2550715e+3, 2.552585e+2, -307480.63, -554497.75, -44261.094, -0.12852243, 0.16080809, -299789.3, 138691.05, 0.0, 10.00165, 9.998405 
1.2550762e+3, 2.652564e+2, -218438.14, -508446.72, -1311.6461, -0.13286415, 0.1380039, -218432.2, 122068.734, 0.00000007625481, 10.001803, 9.997972 
1.2550835e+3, 2.7525434e+2, -73870.83, -383579.78, 6987.392, 0.051206116, 0.105551764, -73713.266, 168808.77, 0.0000061507535, 10.002098, 9.99802 
1.2550887e+3, 2.852522e+2, 125600.43, -232571.66, 4667.9805, 0.05399935, 0.09700627, 125661.26, 270201.6, 0.000051588533, 10.002783, 9.998051 
1.255092e+3, 2.9524982e+2, 369636.6, -65377.785, 79051.41, -0.10803468, 0.016748654, 383556.5, 430115.97, 0.00019968531, 10.003785, 9.998046 
1.2550956e+3, 3.0524802e+2, 264805.3, -312951.1, 57039.23, -0.26783562, 0.13908496, 270382.7, 270382.7, 0.00050037476, 10.0036955, 9.996055 
1.2551023e+3, 3.1524494e+2, 90318.58, -405266.75, -23845.898, -0.12758346, 0.19552626, 91463.32, 91463.32, 0.00094180554, 10.002481, 9.996008 
1.2650202e+3, 1.2525582e+2, -1834699.4, -1672044.1, -9225.007, 0.1062644, 0.3208468, -1671522.6, 40987.633, 0.004085261, 9.998734, 10.000879 
1.2650248e+3, 1.3525537e+2, -1736564.3, -1534440.1, -62451.11, 0.079130314, 0.13781008, -1516701.1, 97810.0, 0.0022650692, 9.99856, 10.001255 
1.2650329e+3, 1.4525646e+2, -1708202.0, -1593118.5, -82627.09, 0.39097765, 0.1739906, -1549971.1, -33471.805, 0.00085386867, 9.998601, 10.000147 
1.265034e+3, 1.5525675e+2, -1580145.6, -1479588.9, -75298.555, 0.16601829, 0.16788755, -1439325.6, -20828.146, 0.00015477135, 9.998814, 10.000148 
1.2650362e+3, 1.6525692e+2, -1394566.4, -1246097.6, -10563.211, 0.025240216, 0.13248761, -1245349.9, 75143.914, 0.0000038088367, 9.998999, 10.00099 
1.2650399e+3, 1.7525697e+2, -1244421.3, -1118501.6, -34525.57, -0.015593947, 0.011240124, -1109656.5, 112832.08, 0.0, 9.999339, 10.00103 
1.265045e+3, 1.8525776e+2, -1262589.1, -1268489.3, 7698.2207, 0.0015248496, 0.07763219, -1257295.1, -132813.22, 0.0, 9.999372, 9.9993105 
1.2650509e+3, 1.9525895e+2, -1190718.3, -1175853.0, -6422.457, 0.053439036, 0.23868585, -1173462.6, -146986.33, 0.0, 9.999165, 9.999372 
1.265055e+3, 2.0525827e+2, -1037160.2, -1021725.5, -67716.95, 0.047278825, 0.22472847, -961287.56, -32804.047, 0.0, 9.999412, 9.9996395 
1.2650575e+3, 2.1525574e+2, -854505.94, -878355.0, -59743.973, -0.015585917, -0.01883515, -805508.1, 24995.969, 0.0, 9.999974, 9.999679 
1.2650615e+3, 2.2525512e+2, -716895.75, -857870.5, 2835.3328, -0.01218908, -0.00209451, -716838.75, 15671.995, 0.0, 10.000654, 9.998828 
1.265067e+3, 2.3525609e+2, -507813.8, -695108.25, -35909.33, 0.06246939, 0.18662758, -501165.06, 133340.61, 0.0, 10.001374, 9.998923 
1.2650707e+3, 2.4525563e+2, -359733.9, -607025.7, -57205.52, 0.017236905, 0.26581633, -347141.88, 189369.52, 0.0, 10.001863, 9.998617 
1.2650733e+3, 2.5525358e+2, -225489.81, -490774.25, -42807.43, -0.13797483, 0.1747447, -218753.28, 219776.36, 0.0, 10.002109, 9.998622 
1.2650783e+3, 2.6525143e+2, -158986.42, -500838.78, 37192.875, -0.11051706, 0.1460382, -154986.7, 185564.39, 0.00000015326442, 10.002302, 9.997787 
1.2650861e+3, 2.7524906e+2, -42803.66, -384303.4, 15461.319, 0.08920315, 0.10573666, -42105.082, 200471.67, 0.0000068361555, 10.002383, 9.997874 
1.2650919e+3, 2.8524745e+2, 136958.55, -201444.48, 4101.764, 0.09878781, 0.13685043, 137008.27, 281599.66, 0.000055437977, 10.002752, 9.998274 
1.265096e+3, 2.9524612e+2, 347806.1, -50117.617, -49433.04, -0.06014811, 0.1483161, 353855.1, 400454.1, 0.00021948728, 10.00353, 9.998264 
1.2650996e+3, 3.0524352e+2, 323282.53, -283998.88, -54293.96, -0.24781838, 0.17975454, 328098.5, 328098.5, 0.0005556109, 10.004103, 9.996046 
1.2651056e+3, 3.152395e+2, 337772.22, -300394.2, 5628.484, -0.124268696, 0.14116801, 337821.88, 337821.88, 0.0010464359, 10.004257, 9.995859 
1.2750183e+3, 1.2524734e+2, -1834244.4, -1699468.4, -166531.08, -0.0072874962, 0.15964061, -1587207.4, 125383.43, 0.0044096503, 9.998836, 10.000649 
1.275025e+3, 1.3524714e+2, -1741484.5, -1556851.5, -58126.0, 0.23153165, 0.02343479, -1540076.4, 74516.28, 0.0024558255, 9.998594, 10.001093 
1.2750319e+3, 1.4524882e+2, -1600687.9, -1381528.6, -85242.55, 0.3875947, 0.049832962, -1352277.5, 164298.53, 0.00093550276, 9.99865, 10.001575 
1.2750305e+3, 1.5525234e+2, -1482133.5, -1282256.4, -57629.266, -0.08452505, 0.22665519, -1266831.0, 151709.67, 0.00017466526, 9.9988365, 10.0014925 
1.2750335e+3, 1.6525383e+2, -1420532.0, -1311736.0, -11572.107, -0.1647545, 0.28267452, -1310518.8, 10005.252, 0.0000047674703, 9.999041, 10.000523 
1.275041e+3, 1.752534e+2, -1271375.1, -1182024.0, -13951.3, 0.12633482, 0.1579924, -1179896.3, 42628.816, 0.0, 9.999365, 10.000584 
1.2750463e+3, 1.8525288e+2, -1265286.0, -1272952.6, -10956.216, 0.1881674, 0.11532378, -1257511.9, -132980.23, 0.0, 9.999365, 9.999284 
1.27505e+3, 1.9525203e+2, -1195484.3, -1181326.8, -2843.5056, 0.03759297, 0.07629611, -1180777.0, -154231.7, 0.0, 9.999139, 9.99935 
1.2750544e+3, 2.0525202e+2, -1020554.25, -966352.25, -59298.063, 0.02751091, 0.108495064, -928255.7, 289.72943, 0.0, 9.999323, 10.000063 
1.2750593e+3, 2.1525258e+2, -844193.5, -827626.7, -30348.406, 0.14911623, 0.12922205, -804451.5, 26083.615, 0.0, 9.999845, 10.000091 
1.2750635e+3, 2.2525178e+2, -787255.0, -966875.7, 19458.002, 0.10438528, 0.14426449, -785171.3, -52628.176, 0.0, 10.000501, 9.998151 
1.2750669e+3, 2.352496e+2, -575062.8, -805425.56, 3091.1057, -0.09359802, 0.08319765, -575021.3, 59548.15, 0.0, 10.001246, 9.998227 
1.2750709e+3, 2.4524856e+2, -344217.94, -539674.0, -57614.637, -0.1737859, 0.114139885, -328499.0, 208081.39, 0.0, 10.001714, 9.99915 
1.2750754e+3, 2.5524843e+2, -201893.55, -414707.7, -21665.594, -0.1424353, 0.15654859, -199710.27, 238868.17, 0.0, 10.00199, 9.999202 
1.2750809e+3, 2.652472e+2, -194224.28, -546804.2, 30059.697, -0.098596714, 0.20256396, -191679.86, 148910.89, 0.00000020123079, 10.002188, 9.997524 
1.2750871e+3, 2.7524465e+2, -83084.484, -439683.75, 32167.484, -0.054876164, 0.1699473, -80206.01, 162413.06, 0.0000077157165, 10.002266, 9.997548 
1.2750936e+3, 2.852427e+2, 40882.16, -377851.0, 20698.14, -0.028713489, 0.24877603, 41902.79, 186544.19, 0.000060411407, 10.002652, 9.997109 
1.2751004e+3, 2.9524118e+2, 251311.1, -216686.42, -5054.737, -0.0061194575, 0.35079414, 251365.67, 298025.13, 0.0002426435, 10.003386, 9.99719 
1.2751046e+3, 3.0523825e+2, 460389.75, 27932.465, -53812.16, -0.17767881, 0.2893707, 466985.2, 466985.2, 0.0006215773, 10.003985, 9.998244 
1.2751095e+3, 3.152357e+2, 464418.38, 14953.043, 49065.73, -0.20657033, 0.16967984, 469712.25, 469712.25, 0.0011780537, 10.00405, 9.9981165 
1.285019e+3, 1.2524188e+2, -1698872.0, -1668999.3, -37815.395, 0.14058621, 0.0587766, -1643277.4, 69363.625, 0.0047468157, 9.999884, 10.00036 
1.2850244e+3, 1.352425e+2, -1788228.4, -1640538.3, 60775.86, 0.32014656, 0.061435673, -1618744.5, -4106.71, 0.0026545508, 9.998536, 10.000536 
1.285029e+3, 1.4524361e+2, -1674819.5, -1392369.9, 37818.45, 0.27792418, 0.048700914, -1387393.9, 129232.69, 0.0010215283, 9.998042, 10.001796 
1.2850292e+3, 1.5524668e+2, -1463935.0, -1243868.6, -42124.473, -0.089540936, 0.15448959, -1236080.9, 182512.28, 0.00019628371, 9.998837, 10.001755 
1.2850332e+3, 1.6524805e+2, -1419796.6, -1375548.8, -25462.074, -0.1050201, 0.21470091, -1363941.6, -43363.168, 0.0000059623408, 9.999328, 9.9999485 
1.2850408e+3, 1.7524777e+2, -1286020.4, -1251206.1, -59355.36, 0.16662939, 0.1641256, -1206758.0, 15823.789, 0.0, 9.999544, 10.000021 
1.285046e+3, 1.8524721e+2, -1208929.9, -1233533.1, -48097.176, 0.2044192, 0.14260966, -1171586.1, -46995.902, 0.0, 9.999705, 9.999388 
1.2850495e+3, 1.9524623e+2, -1080644.1, -1113613.8, -50060.293, 0.032051608, 0.07822903, -1044424.25, -17819.695, 0.0, 9.999883, 9.999454 
1.2850542e+3, 2.0524651e+2, -864980.6, -893718.9, -72091.17, 0.0330116, 0.13624975, -805840.5, 122761.516, 0.0, 10.000399, 10.000044 
1.2850602e+3, 2.1524775e+2, -645909.1, -730392.5, -97183.11, 0.19382115, 0.22755712, -582184.25, 248401.48, 0.0, 10.001203, 10.000102 
1.2850647e+3, 2.2524697e+2, -639961.7, -870739.7, -28865.475, 0.14169292, 0.22903225, -636406.06, 96186.69, 0.0, 10.001412, 9.998368 
1.285068e+3, 2.352441e+2, -587425.1, -787661.3, -1639.7147, -0.10456399, 0.08128554, -587411.75, 47211.01, 0.0, 10.00107, 9.99843 
1.2850724e+3, 2.4524261e+2, -433438.6, -627005.6, -32111.756, -0.1741998, 0.07932192, -428250.47, 108386.914, 0.0, 10.001278, 9.998766 
1.285078e+3, 2.552423e+2, -237025.67, -473999.84, -89787.836, -0.07699697, 0.13989928, -206848.55, 231790.78, 0.0, 10.001928, 9.998829 
1.2850837e+3, 2.6524112e+2, -162523.5, -515315.75, -48735.78, -0.042976066, 0.20216107, -155914.8, 184736.44, 0.00000014147287, 10.002334, 9.997667 
1.2850894e+3, 2.752389e+2, -23072.852, -396093.47, -40999.56, -0.07112069, 0.18723762, -18619.658, 224055.3, 0.000007879153, 10.00261, 9.997681 
1.285096e+3, 2.8523687e+2, -5839.6006, -432601.06, 17070.021, -0.041551415, 0.26587912, -5157.9063, 139541.22, 0.00006527563, 10.002468, 9.996827 
1.2851036e+3, 2.9523477e+2, 7708.077, -363722.6, 26679.094, 0.05376383, 0.34160224, 9614.596, 56340.473, 0.00026928063, 10.001829, 9.996935 
1.285108e+3, 3.0523184e+2, 213175.33, -2312.4077, -3917.2632, -0.12414691, 0.25287524, 213246.52, 213246.52, 0.0006972263, 10.001892, 9.999055 
1.2851126e+3, 3.1523106e+2, 334101.56, 64998.742, -39646.387, -0.21085952, 0.22889337, 339821.03, 339821.03, 0.0013269287, 10.0026245, 9.999167 
1.2950204e+3, 1.2523952e+2, -1715468.6, -1704219.8, -78688.336, 0.2325534, 0.012692107, -1630955.1, 81704.18, 0.0050962004, 9.999901, 10.000108 
1.2950228e+3, 1.352415e+2, -1861811.5, -1789819.1, 11885.8955, 0.2835454, 0.24408019, -1787907.6, -173261.7, 0.0028611089, 9.9985285, 9.999516 
1.2950243e+3, 1.452409e+2, -1740268.9, -1531339.3, 50444.082, -0.03278654, 0.16900152, -1519797.5, -3146.6892, 0.00111182, 9.998056, 10.000832 
1.2950298e+3, 1.5523997e+2, -1522640.5, -1370807.9, -1842.1105, 0.061177537, -0.03878394, -1370785.5, 47867.598, 0.000219555, 9.998857, 10.000875 
1.2950349e+3, 1.6523972e+2, -1466381.9, -1476580.8, -31300.156, 0.10875171, -0.06357259, -1439768.5, -119112.766, 0.0000074533, 9.999343, 9.9992485 
1.2950392e+3, 1.752401e+2, -1332534.8, -1352744.1, -43835.48, 0.03267006, 0.02153784, -1297654.4, -74995.77, 0.0, 9.999561, 9.999315 
1.2950437e+3, 1.852408e+2, -1193160.3, -1202883.1, -52290.734, -0.030793237, 0.15123655, -1145505.4, -20848.39, 0.0, 9.999709, 9.999599 
1.2950489e+3, 1.9524156e+2, -1069486.3, -1085480.6, -33795.29, -0.04653753, 0.23929136, -1042754.8, -16100.921, 0.0, 9.999853, 9.999665 
1.2950543e+3, 2.0524172e+2, -910442.1, -964470.8, -51864.543, -0.020746784, 0.29845777, -878978.25, 49675.03, 0.0, 10.000301, 9.999603 
1.29506e+3, 2.1524127e+2, -697477.6, -802107.25, -59286.188, 0.037796777, 0.26268727, -670724.8, 159931.25, 0.0, 10.001053, 9.9996805 
1.2950651e+3, 2.2524057e+2, -589690.8, -731055.1, -52328.71, 0.018756136, 0.24374087, -572428.3, 160231.63, 0.0, 10.001258, 9.999404 
1.2950696e+3, 2.352395e+2, -535565.1, -650574.4, -1017.1595, -0.06857429, 0.17057455, -535556.1, 99110.2, 0.0, 10.000937, 9.999437 
1.2950747e+3, 2.4523778e+2, -548612.6, -825782.94, -18362.383, -0.08368631, 0.15815422, -547401.4, -10718.202, 0.0, 10.001114, 9.997476 
1.2950806e+3, 2.552352e+2, -347041.53, -667699.75, -53589.035, -0.029080756, 0.124976665, -338322.7, 100389.2, 0.0, 10.001789, 9.9975605 
1.2950866e+3, 2.6523325e+2, -139601.16, -452493.28, -46969.777, -0.021461407, 0.14961372, -132702.4, 208029.23, 0.000000052302592, 10.002255, 9.998144 
1.2950923e+3, 2.7523184e+2, -2729.737, -328651.44, -16957.648, -0.059361994, 0.16561931, -1849.8093, 240893.64, 0.000007172051, 10.002496, 9.998202 
1.2950987e+3, 2.8522995e+2, 12620.235, -363986.13, -15431.381, -0.047683872, 0.20060562, 13251.476, 158015.28, 0.00006969282, 10.002336, 9.99736 
1.2951052e+3, 2.952271e+2, 22794.877, -304010.7, 19884.035, 0.010401692, 0.1464979, 24000.248, 70796.59, 0.00030090305, 10.001712, 9.997397 
1.2951097e+3, 3.0522445e+2, 153644.67, -102562.19, 13383.706, -0.17701413, 0.10008073, 154341.9, 154341.9, 0.0007862506, 10.001801, 9.998411 
1.2951149e+3, 3.1522575e+2, 289405.6, 37489.586, 30240.414, -0.291461, 0.34192514, 292984.84, 292984.84, 0.0014963554, 10.002365, 9.999098 
1.3050202e+3, 1.2523612e+2, -1965316.6, -1830049.8, -54436.867, 0.3103157, 0.010387237, -1810863.6, -98173.484, 0.0054552136, 9.998225, 10.000046 
1.3050224e+3, 1.3523768e+2, -1699923.9, -1760246.8, -74651.57, 0.31804073, 0.24210058, -1649570.9, -34889.473, 0.003073975, 9.999849, 9.999086 
1.3050224e+3, 1.452366e+2, -1528541.4, -1520682.4, 28173.03, -0.109487735, 0.18182954, -1496166.1, 20526.268, 0.0012055306, 9.999888, 10.000022 
1.3050298e+3, 1.5523447e+2, -1490234.0, -1438724.4, -32219.547, 0.16676152, -0.07048802, -1423231.0, -4523.0894, 0.000244213, 9.999435, 10.000127 
1.3050357e+3, 1.65234e+2, -1445494.9, -1456179.0, 1146.9629, 0.23904206, -0.0854845, -1445373.1, -124659.6, 0.000009295233, 9.999454, 9.999331 
1.3050386e+3, 1.7523502e+2, -1274620.9, -1316348.3, 24419.717, -0.0008321497, 0.057275947, -1263365.9, -40655.387, 0.0, 9.99993, 9.999385 
1.305043e+3, 1.8523575e+2, -1113825.4, -1188850.8, 44649.74, -0.09604381, 0.19671671, -1093021.6, 31686.191, 0.0, 10.000349, 9.9993925 
1.3050492e+3, 1.9523601e+2, -958182.1, -1053623.4, 10257.716, -0.027874269, 0.2548818, -957092.1, 69615.72, 0.0, 10.000708, 9.999473 
1.305055e+3, 2.0523566e+2, -877943.25, -980384.1, 290.24, 0.012916951, 0.28658152, -877942.44, 50769.863, 0.0, 10.000666, 9.999318 
1.3050604e+3, 2.152347e+2, -831229.06, -896143.6, -13141.677, 0.018247789, 0.2298669, -828669.5, 2051.9385, 0.0, 10.000272, 9.999411 
1.3050658e+3, 2.2523408e+2, -698007.0, -768029.4, -14575.148, 0.0072069913, 0.22390676, -695094.4, 37630.4, 0.0, 10.000446, 9.9995365 
1.3050711e+3, 2.3523356e+2, -503789.16, -618373.5, -53306.625, -0.0140355285, 0.19066767, -482825.4, 151899.03, 0.0, 10.001088, 9.9995775 
1.3050766e+3, 2.4523184e+2, -469165.63, -801756.7, -19502.605, -0.028132554, 0.17801043, -468025.9, 68714.586, 0.0, 10.00172, 9.997347 
1.3050826e+3, 2.552288e+2, -268679.2, -644845.44, 10632.995, -0.031519897, 0.1083744, -268378.88, 170394.9, 0.0, 10.002379, 9.997436 
1.3050888e+3, 2.6522663e+2, -83858.75, -428116.72, 37238.832, -0.022516005, 0.1173685, -79876.64, 260919.66, 0.000000026393016, 10.002656, 9.998119 
1.3050954e+3, 2.752251e+2, 11660.942, -326743.72, 1914.2898, -0.006670951, 0.12800145, 11671.771, 254482.27, 0.0000066700077, 10.002612, 9.998167 
1.3051015e+3, 2.8522354e+2, 65579.45, -288192.6, -12273.224, 0.0014057966, 0.17873974, 66004.73, 210831.72, 0.00007506801, 10.002491, 9.997801 
1.3051072e+3, 2.952217e+2, 148818.1, -198893.8, -11943.239, 0.0073680845, 0.17903163, 149227.83, 196076.08, 0.00033560226, 10.002386, 9.997793 
1.3051116e+3, 3.052189e+2, 172279.8, -153270.53, 29128.89, -0.1537576, 0.12857834, 174865.6, 174865.6, 0.0008828964, 10.002179, 9.997881 
1.305118e+3, 3.152191e+2, 204404.44, -15103.523, 20065.121, -0.18103006, 0.31523383, 206223.5, 206223.5, 0.0016816289, 10.00181, 9.999014 
1.3150175e+3, 1.2523139e+2, -1959503.0, -1819880.0, 152692.48, 0.1691477, 0.010112966, -1721796.8, -9060.447, 0.005819013, 9.998241, 10.000103 
1.3150224e+3, 1.3523106e+2, -1689303.8, -1741673.4, -21631.998, 0.3205977, 0.04350501, -1681524.0, -66779.516, 0.0032902497, 9.99986, 9.99921 
1.315023e+3, 1.4523076e+2, -1568852.8, -1606711.5, -12216.31, -0.052969128, 0.085071415, -1565253.1, -48502.64, 0.0013013786, 9.999902, 9.999426 
1.3150296e+3, 1.5523024e+2, -1532405.5, -1526313.8, -40785.723, 0.1564443, 0.057053473, -1488460.4, -69703.54, 0.00026992275, 9.999435, 9.999529 
1.315035e+3, 1.652309e+2, -1384201.8, -1337481.0, 6936.6157, 0.20170173, 0.14394924, -1336472.9, -15721.112, 0.00001153221, 9.999479, 10.000137 
1.3150385e+3, 1.7523256e+2, -1214618.6, -1198886.3, 49515.246, -0.008514679, 0.2667352, -1156616.3, 66120.695, 0.0, 9.999952, 10.000182 
1.3150437e+3, 1.852321e+2, -1161118.0, -1282360.0, 45825.344, -0.07900927, 0.28161266, -1145746.4, -21004.479, 0.0, 10.000329, 9.99876 
1.3150504e+3, 1.9522959e+2, -1008049.44, -1146735.4, 30209.07, 0.008755703, 0.12341918, -1001754.9, 25011.602, 0.0, 10.00066, 9.9988575 
1.3150562e+3, 2.0522834e+2, -898339.06, -1000500.5, -25494.193, 0.05232547, 0.09983104, -892330.44, 36448.414, 0.0, 10.000573, 9.999224 
1.3150612e+3, 2.1522816e+2, -856425.5, -923506.8, -17384.502, 0.051968485, 0.13094121, -852187.94, -21406.594, 0.0, 10.000158, 9.999281 
1.3150665e+3, 2.2522752e+2, -770880.6, -884867.3, 528.70667, 0.019932397, 0.16964862, -770878.2, -38091.426, 0.0, 10.000302, 9.998804 
1.3150722e+3, 2.3522633e+2, -574322.3, -732609.1, -16068.303, -0.028328536, 0.14327879, -572707.6, 62088.9, 0.0, 10.000952, 9.998861 
1.3150778e+3, 2.4522486e+2, -419668.75, -664761.8, -4801.785, -0.09361308, 0.14168267, -419574.72, 117234.305, 0.0, 10.001571, 9.998362 
1.3150838e+3, 2.5522313e+2, -222427.55, -512143.13, 46493.98, -0.17017415, 0.102119684, -215148.98, 223675.25, 0.0, 10.00222, 9.998426 
1.3150905e+3, 2.6522115e+2, -145477.2, -522210.88, 25209.371, -0.13678119, 0.11150452, -143797.78, 197047.83, 0.000000066602475, 10.00251, 9.997544 
1.3150981e+3, 2.7521867e+2, -49942.293, -417500.0, 15853.637, -0.0070746187, 0.080274865, -49259.758, 193616.03, 0.0000067822207, 10.002466, 9.997608 
1.3151044e+3, 2.852178e+2, 77143.63, -252405.14, -24158.293, 0.01870907, 0.21489353, 78905.195, 223792.58, 0.000081610815, 10.002421, 9.998092 
1.3151093e+3, 2.9521832e+2, 152055.33, -167430.8, 2583.357, -0.046162743, 0.42234892, 152076.22, 198959.11, 0.0003693925, 10.002267, 9.998076 
1.315114e+3, 3.0521506e+2, 119823.16, -230786.88, 10545.785, -0.16306962, 0.3306161, 120140.07, 120140.07, 0.00097559066, 10.002054, 9.997398 
1.315121e+3, 3.152111e+2, 162918.06, -35259.613, 55451.42, -0.09199995, 0.14743836, 177378.58, 177378.58, 0.0018605023, 10.001549, 9.998989 
1.3250153e+3, 1.2522611e+2, -1826022.3, -1756971.6, 188696.22, 0.10228711, 0.08651361, -1599668.3, 113123.09, 0.006183249, 9.99912, 10.000128 
1.3250211e+3, 1.3522525e+2, -1896169.6, -1789059.1, -101464.836, 0.29354203, 0.023908097, -1727883.0, -113078.73, 0.0035072896, 9.998225, 9.99966 
1.325024e+3, 1.4522567e+2, -1772260.9, -1691263.5, -11982.944, 0.13433059, 0.1059898, -1689528.0, -172724.63, 0.0013982238, 9.998447, 9.999549 
1.3250291e+3, 1.5522616e+2, -1422876.0, -1465548.8, -1361.2446, 0.15451293, 0.1695748, -1422832.6, -4031.8228, 0.00029637254, 10.000147, 9.999608 
1.3250346e+3, 1.6522683e+2, -1207885.0, -1265071.9, 36762.305, 0.16524538, 0.2614685, -1189905.4, 130889.984, 0.000014169166, 10.000753, 10.000013 
1.3250396e+3, 1.7522764e+2, -1161934.4, -1191110.1, -16081.627, 0.07129476, 0.31387284, -1154810.0, 67978.2, 0.0, 10.000391, 10.000025 
1.3250451e+3, 1.852267e+2, -1135191.6, -1243758.4, 9807.993, 0.02327908, 0.27608934, -1134312.8, -9516.789, 0.0, 10.000403, 9.998984 
1.3250513e+3, 1.9522402e+2, -972102.7, -1105011.4, 35751.56, 0.03767587, 0.08080129, -963096.06, 63722.617, 0.0, 10.000815, 9.999062 
1.3250571e+3, 2.0522273e+2, -858007.25, -1017748.06, -3222.1353, 0.06642934, 0.058738727, -857942.25, 70888.62, 0.0, 10.001, 9.998901 
1.3250622e+3, 2.152226e+2, -764519.3, -915027.8, -29317.87, 0.10214075, 0.12683637, -759010.06, 71824.72, 0.0, 10.00094, 9.998962 
1.3250677e+3, 2.2522168e+2, -647274.9, -858946.94, 51390.03, 0.07474205, 0.1683491, -635458.0, 97386.12, 0.0, 10.0013075, 9.998494 
1.325074e+3, 2.3521991e+2, -425944.25, -689293.4, 44446.363, 0.0003484455, 0.114352986, -418645.16, 216214.73, 0.0, 10.002105, 9.998599 
1.3250801e+3, 2.4521849e+2, -324727.7, -578254.2, 40199.1, -0.048218813, 0.110469684, -318506.38, 218365.19, 0.0, 10.002046, 9.99873 
1.3250864e+3, 2.5521728e+2, -348816.78, -529272.06, 21251.86, -0.0763923, 0.08749596, -346347.78, 92532.5, 0.0, 10.001172, 9.998809 
1.3250932e+3, 2.6521575e+2, -353569.72, -626015.7, 35051.18, -0.06124063, 0.12240665, -349132.53, -8234.336, 0.0000000978673, 10.001102, 9.997503 
1.3251e+3, 2.7521357e+2, -147880.27, -469504.66, 39916.195, -0.013854595, 0.12769814, -143000.39, 99927.305, 0.000006920427, 10.001806, 9.99757 
1.3251063e+3, 2.852126e+2, 55426.785, -248855.31, 25591.236, -0.010964059, 0.2500388, 57564.09, 202503.9, 0.000086783395, 10.002231, 9.998199 
1.3251115e+3, 2.9521278e+2, 198505.02, -130012.89, 4939.3867, -0.050206482, 0.40903732, 198579.27, 245515.75, 0.00039491727, 10.002533, 9.998197 
1.3251168e+3, 3.0520934e+2, 162522.22, -234934.94, 26279.6, -0.11089896, 0.30873024, 164252.27, 164252.27, 0.0010484561, 10.002454, 9.99718 
1.3251236e+3, 3.152044e+2, 213720.47, -11230.082, 54347.063, 0.0059392215, 0.050334495, 226162.33, 226162.33, 0.0020033587, 10.001885, 9.998995 
1.3350132e+3, 1.2521997e+2, -1816258.5, -1733828.5, 132322.22, -0.071396515, 0.20235075, -1636451.1, 76407.04, 0.0065457188, 9.999111, 10.00029 
1.3350181e+3, 1.3522029e+2, -1839546.5, -1674098.9, -137264.17, 0.14761384, 0.18349259, -1596558.3, 18302.23, 0.0037237175, 9.998234, 10.000444 
1.3350251e+3, 1.4522119e+2, -1699956.9, -1550101.3, 34904.035, 0.36255676, 0.22101516, -1542370.3, -25517.64, 0.0014951822, 9.998477, 10.000509 
1.3350289e+3, 1.552223e+2, -1361309.3, -1344231.9, 71170.62, 0.08078878, 0.2608808, -1281089.6, 137749.44, 0.00032323142, 10.000164, 10.000438 
1.3350344e+3, 1.6522197e+2, -1291173.8, -1435313.1, 11542.486, 0.03516148, 0.27242345, -1290255.3, 30587.768, 0.000017128494, 10.000741, 9.99885 
1.3350411e+3, 1.7522039e+2, -1237977.6, -1351101.6, -19226.135, 0.16142452, 0.19785737, -1234799.3, -11936.127, 0.00000000003443261, 10.000399, 9.998922 
1.3350467e+3, 1.8521959e+2, -1062419.8, -1095744.1, 14359.97, 0.12616527, 0.17562689, -1057085.8, 67783.46, 0.0, 10.000412, 10.0 
1.335052e+3, 1.952193e+2, -907414.75, -966431.94, 59162.465, -0.021339772, 0.11997633, -870810.1, 156054.3, 0.0, 10.000787, 10.000031 
1.3350573e+3, 2.052188e+2, -909045.2, -1101554.1, -16485.01, -0.02846918, 0.15713014, -907643.75, 21224.701, 0.0, 10.000905, 9.998372 
1.3350631e+3, 2.1521798e+2, -819392.94, -1003388.1, -21145.467, 0.08773317, 0.20848162, -816994.06, 13888.128, 0.0, 10.000821, 9.998419 
1.3350694e+3, 2.2521645e+2, -659095.25, -851503.25, 73877.57, 0.083453014, 0.21001546, -634001.6, 98896.03, 0.0, 10.001168, 9.998611 
1.3350761e+3, 2.3521425e+2, -437237.88, -683581.7, 85711.52, -0.018763645, 0.1000426, -410350.5, 224564.58, 0.0, 10.001974, 9.998702 
1.335083e+3, 2.4521261e+2, -360239.75, -621955.4, -3171.1375, 0.0035218035, 0.080542006, -360201.34, 176727.56, 0.0, 10.001917, 9.998489 
1.33509e+3, 2.5521126e+2, -381805.75, -573778.2, -118.791595, 0.14397825, 0.06763558, -381805.7, 57135.863, 0.0, 10.001069, 9.998551 
1.335096e+3, 2.6521033e+2, -332374.5, -568735.3, 52160.133, 0.103206515, 0.15657249, -321375.63, 19578.379, 0.00000008871969, 10.001036, 9.997933 
1.3351011e+3, 2.752096e+2, -132116.0, -413269.1, 80437.695, -0.112446174, 0.25866467, -110729.625, 132238.47, 0.000006673535, 10.0017, 9.998011 
1.335107e+3, 2.8520787e+2, 30690.438, -277727.88, 23615.975, -0.18791215, 0.28599486, 32488.262, 177474.22, 0.00008871381, 10.0021305, 9.99805 
1.3351136e+3, 2.9520506e+2, 165318.8, -164122.16, 32029.855, -0.11031104, 0.16327694, 168404.0, 215412.45, 0.00040757706, 10.002378, 9.99804 
1.3351195e+3, 3.0520207e+2, 150829.22, -224246.86, 2256.4521, -0.10538467, 0.10539944, 150842.8, 150842.8, 0.0010919488, 10.002317, 9.997313 
1.3351254e+3, 3.1519845e+2, 171138.73, -35656.18, 76795.66, -0.058625367, -0.0279487, 196538.05, 196538.05, 0.0020957445, 10.001623, 9.998953 
1.3450125e+3, 1.252136e+2, -2023139.5, -1832649.3, 212583.28, 0.022648364, 0.16744275, -1694949.6, 17970.998, 0.0069055543, 9.997705, 10.000279 
1.345016e+3, 1.3521507e+2, -1503317.6, -1487320.4, -46678.0, 0.015206514, 0.24532972, -1447960.6, 166951.77, 0.0039389143, 10.000445, 10.000669 
1.3450254e+3, 1.4521603e+2, -1319678.4, -1319499.3, 64857.57, 0.43968657, 0.25449574, -1254731.3, 262172.66, 0.0015916337, 10.000899, 10.000918 
1.3450283e+3, 1.5521696e+2, -1465831.3, -1352674.8, 37349.816, 0.06092127, 0.24074532, -1341458.5, 77431.96, 0.0003501717, 9.999287, 10.000791 
1.3450338e+3, 1.6521652e+2, -1521437.1, -1551267.9, 45024.22, -0.009493582, 0.22543097, -1488922.0, -168026.94, 0.000020254476, 9.999188, 9.998803 
1.3450417e+3, 1.7521478e+2, -1222144.9, -1342386.0, 74653.96, 0.18754749, 0.14107035, -1186413.0, 36503.746, 0.0000000014653116, 10.000522, 9.998917 
1.3450478e+3, 1.8521428e+2, -979518.44, -1028474.6, 112971.89, 0.17205954, 0.13530257, -888403.1, 236516.83, 0.0, 10.000868, 10.000239 
1.3450523e+3, 1.9521467e+2, -956320.2, -966030.0, 81196.516, -0.032706913, 0.12621063, -879833.56, 147075.1, 0.0, 10.000353, 10.000242 
1.345058e+3, 2.052143e+2, -925344.4, -1137906.5, 37516.613, -0.04667017, 0.1787918, -918917.1, 9994.963, 0.0, 10.000919, 9.998113 
1.345065e+3, 2.152131e+2, -599919.2, -916665.9, 28779.633, 0.11159564, 0.21689501, -597325.5, 233604.6, 0.0, 10.002437, 9.9982195 
1.3450713e+3, 2.2521155e+2, -455255.8, -766177.56, 113690.97, 0.111480884, 0.22972019, -418119.38, 314827.16, 0.0, 10.002611, 9.998509 
1.3450776e+3, 2.3520954e+2, -509344.38, -729481.94, 92982.8, -0.028138248, 0.14748406, -475326.6, 159636.45, 0.0, 10.001522, 9.998609 
1.3450845e+3, 2.4520774e+2, -439239.88, -672095.5, 26562.68, -0.00040410168, 0.12528376, -436248.22, 100730.71, 0.0, 10.001444, 9.99837 
1.3450919e+3, 2.5520602e+2, -208103.33, -502766.8, 17964.463, 0.1806799, 0.08700226, -207012.14, 231983.78, 0.0, 10.002326, 9.998436 
1.3450983e+3, 2.6520523e+2, -75521.64, -413116.94, 100112.125, 0.13959552, 0.18300578, -48066.688, 292939.63, 0.000000062099474, 10.002676, 9.998206 
1.3451032e+3, 2.752051e+2, 24011.205, -305638.2, 88649.58, -0.11040582, 0.3202843, 46338.664, 289351.25, 0.0000065347235, 10.002642, 9.998288 
1.3451093e+3, 2.8520295e+2, 88086.83, -263065.97, 42176.484, -0.17871201, 0.29736334, 93081.55, 238115.58, 0.00008986311, 10.002568, 9.997946 
1.3451165e+3, 2.95199e+2, 170837.84, -161009.73, 23075.6, -0.064833626, 0.06815186, 172434.77, 219503.08, 0.00041353333, 10.002417, 9.99804 
1.3451222e+3, 3.0519715e+2, 157566.38, -189852.36, 11687.432, -0.041810427, 0.105620086, 157959.11, 157959.11, 0.0011124206, 10.002198, 9.997627 
1.345127e+3, 3.1519568e+2, 204942.47, -12605.1045, 59437.17, -0.05999271, 0.15613884, 220122.36, 220122.36, 0.0021417562, 10.001819, 9.99902 
1.3550125e+3, 1.2520699e+2, -2034240.9, -1860011.8, 119895.336, 0.1993578, -0.05195561, -1798924.3, -85945.97, 0.0072628423, 9.9977255, 10.000086 
1.3550147e+3, 1.3520981e+2, -1529729.8, -1542003.4, 68213.5, -0.17356181, 0.19754508, -1467377.5, 147580.75, 0.004152666, 10.000455, 10.000284 
1.3550249e+3, 1.4521042e+2, -1338527.6, -1360520.0, -7026.629, 0.25796935, 0.21097782, -1336474.3, 180480.47, 0.0016872559, 10.000905, 10.000634 
1.3550273e+3, 1.5521029e+2, -1474984.9, -1382544.0, -11616.898, 0.0025899238, 0.11187055, -1381106.4, 37847.652, 0.0003769789, 9.999322, 10.000572 
1.3550328e+3, 1.6521043e+2, -1440535.3, -1393190.8, 80136.35, -0.054258343, 0.10977302, -1333303.4, -12351.264, 0.000023370363, 9.999223, 9.999877 
1.3550414e+3, 1.7521073e+2, -1150490.6, -1196770.0, 130420.66, 0.08160878, 0.12467098, -1041172.8, 181777.33, 0.0000000068048798, 10.000521, 9.999925 
1.3550478e+3, 1.8521069e+2, -1023365.25, -1110528.6, 81178.09, 0.06547495, 0.14555247, -974809.8, 150139.47, 0.0, 10.0008335, 9.999688 
1.3550524e+3, 1.9521013e+2, -998886.75, -1047604.8, 73495.305, -0.08411332, 0.09265231, -945818.9, 81132.84, 0.0, 10.000318, 9.9997 
1.3550588e+3, 2.0520923e+2, -941098.6, -1146966.4, 83580.914, -0.07340696, 0.120454386, -911438.56, 17522.898, 0.0, 10.000821, 9.998097 
1.3550673e+3, 2.1520795e+2, -620780.7, -929729.94, 92029.21, 0.09345161, 0.15218467, -595444.9, 235533.81, 0.0, 10.002301, 9.998198 
1.3550739e+3, 2.2520684e+2, -500413.6, -816801.56, 59531.906, 0.07785844, 0.22295298, -489582.78, 243409.48, 0.0, 10.002431, 9.998248 
1.3550785e+3, 2.3520574e+2, -547842.75, -777536.7, 62618.477, -0.107735366, 0.25938955, -531881.1, 103122.695, 0.0, 10.001388, 9.998342 
1.3550848e+3, 2.4520396e+2, -456969.78, -682608.56, 50215.168, -0.14191252, 0.25346667, -446299.2, 90721.67, 0.0, 10.001325, 9.998359 
1.3550922e+3, 2.5520146e+2, -227118.17, -511927.34, 63250.582, -0.04174856, 0.13768975, -213703.3, 225340.97, 0.0, 10.002195, 9.998438 
1.3550994e+3, 2.652003e+2, -88168.87, -413454.28, 88107.33, -0.034452554, 0.19126724, -65837.12, 275219.56, 0.000000036385206, 10.0025625, 9.9982605 
1.3551062e+3, 2.7520007e+2, 2199.8022, -314924.9, 101492.4, -0.09995865, 0.31649178, 31899.838, 274961.4, 0.0000068750182, 10.002486, 9.998302 
1.355113e+3, 2.8519797e+2, 64560.656, -280118.5, 28791.73, -0.09657128, 0.30109516, 66949.13, 212032.52, 0.00009120505, 10.002433, 9.997891 
1.3551195e+3, 2.9519415e+2, 149392.16, -180518.3, 34927.086, -0.024335649, 0.09447966, 153049.3, 200169.55, 0.00041554915, 10.002301, 9.997969 
1.3551249e+3, 3.0519405e+2, 173948.27, -117538.59, -12842.691, -0.02376399, 0.28597534, 174513.02, 174513.02, 0.0011133499, 10.002056, 9.998181 
1.3551278e+3, 3.1519553e+2, 160995.2, -29874.639, 80896.06, -0.20250936, 0.5710543, 190668.22, 190668.22, 0.0021414936, 10.001521, 9.999035 
1.3650109e+3, 1.2520167e+2, -1722742.4, -1636327.0, -42338.1, 0.18925127, -0.005287591, -1619041.5, 93991.89, 0.0076198755, 9.999522, 10.000765 
1.3650139e+3, 1.352038e+2, -1879747.0, -1684427.8, 28879.61, -0.17361365, 0.14332001, -1680247.1, -65232.195, 0.004366158, 9.997924, 10.000528 
1.3650236e+3, 1.4520425e+2, -1786938.4, -1608645.9, -14434.366, 0.19023845, 0.1428039, -1607484.8, -90471.73, 0.0017823466, 9.99797, 10.00034 
1.3650267e+3, 1.5520476e+2, -1406769.5, -1374761.4, -39662.62, -0.014798104, 0.13863038, -1347995.6, 71014.71, 0.0004035849, 9.999917, 10.000331 
1.3650326e+3, 1.6520528e+2, -1272190.3, -1254069.0, 43785.242, -0.03831289, 0.16030946, -1218416.8, 102588.34, 0.000026350568, 10.000125, 10.000392 
1.3650411e+3, 1.7520578e+2, -1362879.8, -1240176.6, 32008.586, 0.09740894, 0.13909872, -1232328.8, -9330.721, 0.000000016360648, 9.998815, 10.000442 
1.365048e+3, 1.8520582e+2, -1300505.1, -1276605.0, 20571.42, 0.09318529, 0.15518057, -1264764.6, -139768.25, 0.0, 9.999066, 9.999403 
1.3650534e+3, 1.9520523e+2, -951686.4, -1047625.6, 11921.745, -0.033549692, 0.12754895, -950227.1, 76774.17, 0.0, 10.000755, 9.999481 
1.3650604e+3, 2.0520422e+2, -837659.9, -1055427.3, 63186.63, -0.025982354, 0.13336451, -820653.9, 108357.93, 0.0, 10.001342, 9.998483 
1.3650692e+3, 2.1520267e+2, -798381.6, -975046.56, 83867.73, 0.10654822, 0.10183357, -764909.25, 66119.44, 0.0, 10.000901, 9.9985695 
1.3650759e+3, 2.2520171e+2, -673308.8, -894467.4, 78666.26, 0.092637695, 0.16736132, -648181.94, 84858.33, 0.0, 10.001218, 9.998293 
1.3650806e+3, 2.3520117e+2, -430513.34, -720996.6, 80078.586, -0.06312206, 0.25606805, -409900.5, 225147.6, 0.0, 10.002185, 9.998351 
1.3650867e+3, 2.4519965e+2, -287057.75, -615768.94, 107836.59, -0.1176121, 0.28126153, -254838.95, 282224.9, 0.0, 10.0025625, 9.998217 
1.365094e+3, 2.5519705e+2, -196206.81, -509892.44, 86184.74, -0.088474095, 0.16922013, -174087.4, 265001.13, 0.0, 10.002467, 9.998315 
1.3651012e+3, 2.651955e+2, -163476.1, -430744.94, 102424.664, -0.06790197, 0.1819153, -128738.984, 212364.7, 0.000000033203506, 10.001965, 9.998431 
1.3651083e+3, 2.7519476e+2, -185337.42, -377120.6, 102744.29, -0.049683068, 0.23400614, -140688.67, 102422.836, 0.0000069323874, 10.001085, 9.998544 
1.3651153e+3, 2.8519303e+2, -95497.6, -338942.13, 110613.375, -0.04155786, 0.23556677, -52746.074, 92383.61, 0.000089487476, 10.001277, 9.998036 
1.3651219e+3, 2.951904e+2, 209720.86, -124235.62, 110828.39, -0.02931351, 0.13155603, 243153.86, 290310.94, 0.00040599194, 10.002622, 9.99819 
1.3651274e+3, 3.0519068e+2, 294087.8, -25802.566, 36045.8, 0.011828774, 0.3287062, 298099.22, 298099.22, 0.0010855788, 10.002727, 9.998497 
1.3651302e+3, 3.1519198e+2, 134817.36, -57745.41, 61559.02, -0.088192254, 0.58024734, 152814.66, 152814.66, 0.0020882778, 10.001366, 9.998943 
1.375008e+3, 1.2519784e+2, -1622238.5, -1426353.4, -163961.61, -0.10813249, 0.3041573, -1333308.6, 379775.72, 0.0079810945, 9.9995365, 10.002201 
1.375013e+3, 1.3519707e+2, -1818851.5, -1562672.6, -26260.041, -0.08176027, 0.07445558, -1560008.5, 55073.824, 0.0045821774, 9.997941, 10.001356 
1.3750213e+3, 1.4519745e+2, -1804450.3, -1650854.9, 41192.887, 0.13734645, 0.04682003, -1640504.9, -123425.984, 0.0018779465, 9.997993, 10.000041 
1.3750263e+3, 1.5520036e+2, -1424049.5, -1412616.3, 42240.582, -0.0736901, 0.30540398, -1375707.1, 43352.574, 0.00043006244, 9.999924, 10.000069 
1.3750328e+3, 1.6520117e+2, -1270618.5, -1256444.3, -19078.064, -0.053434048, 0.37012863, -1243179.5, 77874.18, 0.000029160963, 10.000143, 10.000372 
1.3750407e+3, 1.7519999e+2, -1357913.6, -1239117.5, -6327.9194, 0.1500615, 0.18412293, -1238781.4, -15721.611, 0.000000027808229, 9.998838, 10.000447 
1.375048e+3, 1.8519965e+2, -1299738.6, -1273796.0, 71740.57, 0.1671922, 0.16263269, -1213863.5, -88802.87, 0.0, 9.999066, 9.99942 
1.3750549e+3, 1.951999e+2, -960009.4, -1051611.1, 80637.85, 0.03844065, 0.21819454, -913073.1, 113985.22, 0.0, 10.000695, 9.999487 
1.3750623e+3, 2.0519911e+2, -792588.56, -938730.7, 36008.273, 0.0028131926, 0.20411699, -784198.1, 144866.56, 0.0, 10.001245, 9.99933 
1.3750698e+3, 2.1519725e+2, -761078.75, -866160.0, 80015.305, 0.05848525, 0.056694333, -717896.0, 113184.1, 0.0, 10.000764, 9.999383 
1.3750769e+3, 2.2519626e+2, -679239.4, -864555.44, 106440.71, 0.05808419, 0.065620296, -630776.44, 102313.21, 0.0, 10.00104, 9.998582 
1.3750838e+3, 2.3519589e+2, -434385.9, -690723.9, 126318.13, 0.011422247, 0.14194383, -382600.56, 252494.84, 0.0, 10.002025, 9.9986315 
1.3750905e+3, 2.4519473e+2, -331935.1, -676153.94, 90334.84, -0.023793008, 0.2074808, -309668.5, 227439.95, 0.0, 10.002417, 9.997875 
1.375097e+3, 2.5519276e+2, -239052.63, -565998.94, 91067.875, -0.041532077, 0.1894634, -215397.92, 223730.9, 0.0, 10.002322, 9.998002 
1.3751034e+3, 2.65191e+2, -157892.69, -388114.5, 59942.727, -0.049572587, 0.17585678, -143220.5, 197925.69, 0.000000022673568, 10.001834, 9.998785 
1.3751096e+3, 2.7518904e+2, -181866.17, -337758.16, 82648.2, -0.0499534, 0.075056, -146206.25, 96957.51, 0.0000066245593, 10.000957, 9.998874 
1.3751163e+3, 2.85188e+2, -75103.4, -280099.03, 147507.95, -0.100423366, 0.10344405, 2021.7113, 147196.47, 0.000084736, 10.0012, 9.998481 
1.3751233e+3, 2.9518774e+2, 213790.47, -74832.18, 175842.28, -0.17682076, 0.19397216, 296957.2, 344136.16, 0.00038240635, 10.002438, 9.998625 
1.3751298e+3, 3.0518684e+2, 273995.1, -27509.258, -17925.28, -0.041170824, 0.24800518, 275057.06, 275057.06, 0.0010235131, 10.002564, 9.998555 
1.3751337e+3, 3.151849e+2, 73562.78, -119415.266, 32586.525, 0.074739866, 0.1745825, 78916.836, 78916.836, 0.0019774928, 10.001113, 9.998627 
1.3850069e+3, 1.2519337e+2, -1703147.6, -1454996.1, -25985.127, -0.11268339, 0.37382305, -1452304.3, 260827.23, 0.008351057, 9.998924, 10.002303 
1.3850121e+3, 1.3519207e+2, -1683692.8, -1504323.5, -12559.785, -0.002216067, 0.095338866, -1503448.4, 111684.37, 0.004803759, 9.998893, 10.001304 
1.3850191e+3, 1.4519241e+2, -1750717.3, -1635972.9, 131059.14, 0.10357295, 0.07371712, -1550278.4, -33149.77, 0.0019753822, 9.99841, 9.999943 
1.3850258e+3, 1.5519507e+2, -1645880.4, -1527061.3, 121951.14, -0.03073708, 0.31224176, -1450818.4, -31706.137, 0.00045665295, 9.99843, 10.000005 
1.3850331e+3, 1.6519569e+2, -1448780.4, -1370704.1, 46766.25, 0.016594065, 0.37611872, -1348823.9, -27715.354, 0.00003186285, 9.999058, 10.000111 
1.3850406e+3, 1.751945e+2, -1172280.0, -1172956.5, 16219.852, 0.17651857, 0.21324171, -1156394.9, 66720.95, 0.000000039188958, 10.000236, 10.000223 
1.3850479e+3, 1.85194e+2, -1090815.0, -1156747.3, 133816.4, 0.18415199, 0.1795585, -985963.8, 139153.88, 0.0, 10.000423, 9.999576 
1.3850555e+3, 1.9519407e+2, -1066386.5, -1079197.0, 137774.77, 0.065826766, 0.19626635, -934868.1, 92247.44, 0.0, 9.999865, 9.999696 
1.3850631e+3, 2.0519347e+2, -971060.94, -1018737.7, 79533.164, 0.043860424, 0.1901298, -911870.44, 17249.268, 0.0, 9.999995, 9.999378 
1.385071e+3, 2.1519224e+2, -750551.75, -852110.7, 41281.973, 0.112155564, 0.09692281, -735888.5, 95242.09, 0.0, 10.000797, 9.999461 
1.3850784e+3, 2.2519122e+2, -641075.1, -857121.3, 67688.75, 0.09716784, 0.102214105, -621619.8, 111521.016, 0.0, 10.001332, 9.998507 
1.3850856e+3, 2.351902e+2, -479092.16, -717975.0, 41299.258, 0.008972436, 0.12200076, -472153.66, 162998.78, 0.0, 10.001732, 9.998592 
1.3850926e+3, 2.4518913e+2, -427069.34, -681501.75, 6002.6123, -0.011248941, 0.18109122, -426927.8, 110236.33, 0.0, 10.001597, 9.998223 
1.3850993e+3, 2.5518802e+2, -400787.7, -602420.6, 30535.756, 0.027458195, 0.21290097, -396264.75, 42911.23, 0.0, 10.00104, 9.998361 
1.3851056e+3, 2.6518643e+2, -280403.88, -452901.5, 32951.16, 0.014753765, 0.20249893, -274323.75, 66867.6, 0.0000000049794013, 10.00102, 9.998729 
1.3851109e+3, 2.751841e+2, -92271.445, -302067.28, 6795.971, -0.04849513, 0.06727703, -92051.53, 151161.25, 0.0000064670485, 10.001591, 9.998818 
1.3851175e+3, 2.8518322e+2, -13209.628, -234009.83, 85883.836, -0.10422446, 0.11457939, 16262.411, 161483.63, 0.00007993784, 10.001546, 9.998639 
1.3851252e+3, 2.9518375e+2, 20051.758, -140403.67, 66511.89, -0.14212108, 0.262193, 44036.895, 91254.37, 0.00035406946, 10.000982, 9.998872 
1.3851324e+3, 3.0518156e+2, 167711.28, -94903.14, -116087.93, -0.001754887, 0.18231782, 211669.55, 211669.55, 0.00094634306, 10.001897, 9.998416 
1.3851361e+3, 3.1517783e+2, 491884.13, 65274.367, -125554.48, 0.06748434, -0.057422146, 526092.7, 526092.7, 0.0018380189, 10.004053, 9.998481 
1.395008e+3, 1.2518747e+2, -1796549.4, -1627438.4, -5990.4834, 0.048155237, 0.1324223, -1627226.5, 85956.46, 0.008733579, 9.998867, 10.001123 
1.3950108e+3, 1.3518876e+2, -1740950.5, -1625561.4, -22982.56, -0.033087518, 0.19715665, -1621152.3, -5985.7495, 0.005033633, 9.998905, 10.00046 
1.3950169e+3, 1.4518927e+2, -1735710.5, -1612894.5, 107692.34, 0.0005275807, 0.2255953, -1550332.4, -33171.184, 0.002076125, 9.998442, 10.000087 
1.3950248e+3, 1.5518895e+2, -1638328.0, -1511846.9, 133768.97, 0.008318716, 0.15630539, -1427123.0, -7955.5566, 0.00048381835, 9.998427, 10.000113 
1.3950329e+3, 1.6518892e+2, -1484114.9, -1449942.1, 76954.4, 0.05965807, 0.17687178, -1388200.0, -67030.65, 0.000034571214, 9.999079, 9.999559 
1.3950402e+3, 1.7518915e+2, -1216541.5, -1258659.6, 65242.824, 0.1023895, 0.21349087, -1169043.3, 54124.46, 0.00000005013657, 10.000206, 9.999652 
1.3950473e+3, 1.8518877e+2, -1057302.9, -1089529.9, 96801.06, 0.059736803, 0.19838697, -975283.3, 149885.16, 0.0, 10.00043, 10.000035 
1.3950546e+3, 1.9518775e+2, -1044436.44, -1024206.44, 125370.13, -0.032342378, 0.062311836, -908543.94, 118628.875, 0.0, 9.999815, 10.000103 
1.395063e+3, 2.0518741e+2, -1034302.1, -1128025.3, 98024.55, 0.011002802, 0.09663525, -972513.7, -43337.355, 0.0, 9.999904, 9.998669 
1.3950725e+3, 2.1518761e+2, -823230.94, -969328.0, 79091.09, 0.17725123, 0.22218233, -788615.7, 42564.574, 0.0, 10.000656, 9.998724 
1.3950801e+3, 2.2518654e+2, -682393.9, -917850.4, 71182.01, 0.11435131, 0.27762392, -662547.4, 70646.66, 0.0, 10.001214, 9.998148 
1.3950858e+3, 2.351842e+2, -521992.3, -778482.94, 67820.766, -0.14763266, 0.19523518, -505163.44, 130054.53, 0.0, 10.001601, 9.998242 
1.3950928e+3, 2.4518304e+2, -378137.7, -547124.4, -24293.418, -0.16895959, 0.21161716, -374714.63, 162514.3, 0.0, 10.001458, 9.999212 
1.3951007e+3, 2.5518277e+2, -359486.75, -480070.28, 21215.713, 0.034502905, 0.23507445, -355862.9, 83367.055, 0.0, 10.000892, 9.9992695 
1.395107e+3, 2.6518172e+2, -325973.66, -527142.6, 43454.03, 0.041833982, 0.25933787, -316988.56, 24251.262, 0.0000000011462398, 10.000926, 9.998266 
1.395112e+3, 2.751799e+2, -144380.56, -379375.2, 41123.22, -0.12697612, 0.21464632, -137391.98, 105866.18, 0.0000063015364, 10.001451, 9.998359 
1.3951188e+3, 2.8517896e+2, -44410.496, -265897.4, 55622.805, -0.15393238, 0.28406543, -31226.514, 114040.96, 0.00007549819, 10.001411, 9.99848 
1.3951276e+3, 2.951784e+2, -16034.337, -184144.77, 63465.414, -0.036671817, 0.34541175, 5234.4146, 52506.93, 0.0003302392, 10.000854, 9.9986315 
1.3951348e+3, 3.0517477e+2, 140669.11, -126947.63, -45181.41, 0.023870695, 0.14444351, 148091.19, 148091.19, 0.0008840725, 10.001791, 9.998245 
1.3951372e+3, 3.1517115e+2, 448367.66, 53037.45, -30369.045, -0.2696364, -0.0773057, 450687.0, 450687.0, 0.0017240412, 10.003726, 9.998551 
1.4050071e+3, 1.2518248e+2, -2062569.4, -1828948.6, -25300.152, 0.16424432, 0.10413078, -1826240.1, -113010.92, 0.009133226, 9.997334, 10.000483 
1.4050092e+3, 1.3518427e+2, -1800961.9, -1680823.1, -60800.145, -0.06936162, 0.24551557, -1655423.3, -40211.19, 0.005275387, 9.998597, 10.000232 
1.4050154e+3, 1.451847e+2, -1641318.6, -1577992.3, 95728.46, 0.0035002497, 0.2746994, -1508826.4, 8381.483, 0.0021822979, 9.99912, 10.000007 
1.405024e+3, 1.5518336e+2, -1553752.4, -1487663.6, 78096.05, 0.05206032, 0.116897896, -1435908.6, -16688.44, 0.00051218417, 9.99907, 9.999976 
1.4050321e+3, 1.6518298e+2, -1501563.6, -1491459.4, 77269.31, 0.08742907, 0.1253081, -1419077.3, -97852.24, 0.000037386584, 9.999108, 9.999249 
1.4050399e+3, 1.7518342e+2, -1334483.3, -1346102.1, 63476.254, 0.099088326, 0.20701249, -1276551.1, -53327.67, 0.00000006103049, 9.999525, 9.999372 
1.4050475e+3, 1.8518305e+2, -1145260.5, -1136227.3, 77397.45, 0.07042613, 0.20795497, -1063214.8, 62010.324, 0.0, 9.999854, 9.999987 
1.405055e+3, 1.9518194e+2, -993897.7, -1002325.6, 45874.434, 0.006636593, 0.06614103, -952044.06, 75185.89, 0.0, 10.000178, 10.000073 
1.4050634e+3, 2.051816e+2, -959735.9, -1125662.9, 67267.055, 0.02941801, 0.11566817, -935892.06, -6657.4976, 0.0, 10.00056, 9.998372 
1.4050728e+3, 2.1518187e+2, -772113.1, -969388.0, 61878.62, 0.13138783, 0.27672622, -754310.4, 76929.625, 0.0, 10.001122, 9.998494 
1.405081e+3, 2.2518098e+2, -643322.44, -843080.8, 102936.39, 0.08533071, 0.33770728, -599773.06, 133478.98, 0.0, 10.00127, 9.998622 
1.4050877e+3, 2.351789e+2, -566355.25, -738706.2, 136081.78, -0.09609535, 0.236013, -491457.84, 143813.17, 0.0, 10.001058, 9.998765 
1.4050944e+3, 2.4517769e+2, -428613.4, -587648.8, 47170.61, -0.13791455, 0.22634497, -415675.0, 121606.97, 0.0, 10.001174, 9.999079 
1.405101e+3, 2.5517702e+2, -256581.55, -443798.7, -6097.2026, -0.06025688, 0.22294697, -256383.17, 182904.5, 0.0, 10.001648, 9.999161 
1.4051078e+3, 2.651759e+2, -148755.1, -448622.3, 39790.14, -0.032906957, 0.24906115, -143565.06, 197733.52, 0.0000000047036606, 10.002168, 9.99821 
1.4051147e+3, 2.751745e+2, 55463.676, -283083.63, 33818.45, -0.046071578, 0.25293267, 58808.844, 302121.66, 0.000006310061, 10.002831, 9.998351 
1.4051218e+3, 2.851732e+2, 117903.47, -239912.14, 31539.287, -0.040311664, 0.3151172, 120662.195, 265987.28, 0.00007173929, 10.002761, 9.998002 
1.4051293e+3, 2.951716e+2, 115299.42, -172732.8, -1279.9521, -0.0029622992, 0.3180565, 115305.11, 162645.72, 0.0003165935, 10.001997, 9.998153 
1.4051367e+3, 3.0516785e+2, 174038.16, -141597.97, -19339.281, 0.033367, 0.14010224, 175218.67, 175218.67, 0.0008530648, 10.00214, 9.997982 
1.405141e+3, 3.1516567e+2, 372485.63, 35505.766, -74118.18, -0.21459116, 0.091882706, 388067.3, 388067.3, 0.0016666203, 10.003102, 9.99874 
1.4150032e+3, 1.2517804e+2, -2057077.4, -1821127.9, -58278.344, -0.0017925745, 0.23392671, -1807518.5, -94244.43, 0.009556688, 9.997347, 10.000534 
1.4150065e+3, 1.351787e+2, -1775772.8, -1623484.6, -5064.927, -0.2095919, 0.23081905, -1623316.4, -8047.4077, 0.0055341963, 9.99858, 10.000634 
1.4150149e+3, 1.4517857e+2, -1654319.5, -1613964.5, 77981.47, -0.002746314, 0.1924162, -1553592.4, -36322.418, 0.0022969088, 9.999157, 9.999743 
1.4150228e+3, 1.551784e+2, -1579923.3, -1543571.9, 84715.78, 0.018781964, 0.18917775, -1475104.0, -55833.99, 0.0005425403, 9.999078, 9.999591 
1.4150308e+3, 1.6517809e+2, -1494888.4, -1485133.6, 77465.664, 0.012448032, 0.22254287, -1412392.0, -91118.64, 0.000040406845, 9.999138, 9.999284 
1.4150396e+3, 1.751775e+2, -1337041.9, -1345477.3, 87663.92, 0.084058635, 0.20367219, -1253494.3, -30212.973, 0.00000007226826, 9.999495, 9.999395 
1.4150481e+3, 1.8517703e+2, -1185469.3, -1217630.1, 77110.84, 0.12096841, 0.22046195, -1122780.0, 2505.501, 0.0, 9.9998455, 9.999431 
1.4150561e+3, 1.951766e+2, -1041713.1, -1089769.6, 66359.88, 0.093478285, 0.2053347, -995165.25, 32122.05, 0.0, 10.000129, 9.999496 
1.415064e+3, 2.0517598e+2, -953888.5, -1101377.9, 71958.6, 0.013440848, 0.24510747, -924597.7, 4697.3525, 0.0, 10.0005, 9.99857 
1.415072e+3, 2.1517505e+2, -780827.5, -953712.44, 91325.32, -0.09673666, 0.26425818, -741521.75, 89787.8, 0.0, 10.000969, 9.998681 
1.4150809e+3, 2.2517452e+2, -577070.56, -667565.1, 82708.41, -0.0725361, 0.28546897, -528041.7, 205273.42, 0.0, 10.001107, 9.999903 
1.4150906e+3, 2.3517427e+2, -508513.94, -577379.75, 138515.28, 0.07128937, 0.24131058, -400215.94, 235096.89, 0.0, 10.000888, 9.999949 
1.415097e+3, 2.451731e+2, -523141.13, -763269.1, 54380.234, -0.022702137, 0.23697582, -511400.06, 25923.598, 0.0, 10.001073, 9.997923 
1.4151e+3, 2.551708e+2, -351698.5, -615949.25, 24072.533, -0.3362747, 0.18178664, -349523.47, 89825.17, 0.0, 10.001531, 9.998037 
1.4151075e+3, 2.6516905e+2, -151361.28, -422241.03, 55107.973, -0.28853545, 0.1876841, -140579.23, 200787.2, 0.000000079284355, 10.002034, 9.998452 
1.4151192e+3, 2.7516773e+2, 45858.32, -268530.47, 71910.42, 0.09461082, 0.17670065, 61525.68, 304903.94, 0.000007370644, 10.002688, 9.998518 
1.4151266e+3, 2.8516594e+2, 62598.56, -339771.44, -7896.2974, 0.12941444, 0.21138464, 62753.46, 208149.08, 0.00007202747, 10.002685, 9.997355 
1.4151302e+3, 2.9516336e+2, 47558.887, -287830.72, -10054.559, -0.13574448, 0.18162146, 47860.04, 95281.71, 0.0003176136, 10.001866, 9.997436 
1.4151378e+3, 3.0516058e+2, 110595.7, -227612.19, 11929.358, -0.08327426, 0.16778953, 111015.95, 111015.95, 0.00085553265, 10.001967, 9.9974575 
1.415147e+3, 3.1516126e+2, 336866.2, 27368.195, -18391.95, 0.032442834, 0.44480294, 337955.28, 337955.28, 0.0016664651, 10.002852, 9.998784 
1.4249998e+3, 1.2517218e+2, -2134340.5, -1832578.0, -40145.414, -0.040806346, 0.23062252, -1827328.5, -113998.19, 0.010011913, 9.996715, 10.000763 
1.4250053e+3, 1.3517298e+2, -1916273.8, -1665523.0, 15707.769, -0.131799, 0.22404537, -1664542.9, -49218.723, 0.0058154534, 9.9975395, 10.000837 
1.4250147e+3, 1.451724e+2, -1734324.0, -1674678.9, 95207.164, 0.09251841, 0.14198977, -1604732.8, -87403.266, 0.002423067, 9.998725, 9.999525 
1.4250225e+3, 1.5517235e+2, -1490729.4, -1525014.9, 81332.516, 0.04056115, 0.17201579, -1424752.6, -5424.033, 0.00057589856, 9.999813, 9.999349 
1.4250301e+3, 1.6517194e+2, -1359127.4, -1431095.1, 81807.07, -0.0061770696, 0.21257207, -1305739.9, 15593.007, 0.00004378684, 10.000105, 9.999192 
1.425039e+3, 1.7517115e+2, -1287887.3, -1329546.0, 63449.21, 0.080739275, 0.18078403, -1241935.9, -18592.996, 0.00000008454083, 9.999861, 9.9993305 
1.4250483e+3, 1.8517072e+2, -1182678.1, -1242263.0, 97964.81, 0.14461653, 0.21442872, -1110075.8, 15271.801, 0.0, 9.999981, 9.999195 
1.4250569e+3, 1.951705e+2, -997139.2, -1093489.3, 91423.9, 0.13877858, 0.24393031, -941974.2, 85374.24, 0.0, 10.0005455, 9.99927 
1.4250648e+3, 2.0516968e+2, -937620.25, -1052735.5, 118446.85, 0.04975161, 0.25729564, -863486.75, 65870.195, 0.0, 10.000439, 9.998933 
1.4250721e+3, 2.1516812e+2, -925904.94, -984644.0, 126556.3, -0.100220904, 0.1774541, -825355.0, 6019.539, 0.0, 9.999792, 9.999039 
1.4250812e+3, 2.2516763e+2, -762340.0, -780524.9, 103871.92, -0.07584064, 0.1952439, -667163.3, 66216.67, 0.0, 9.999933, 9.999697 
1.4250916e+3, 2.3516808e+2, -519339.06, -607207.5, 29487.316, 0.09548843, 0.24356228, -510360.9, 125013.57, 0.0, 10.000903, 9.999746 
1.4250985e+3, 2.4516724e+2, -483260.03, -735246.5, -43317.906, 0.021334756, 0.27980322, -476021.38, 61361.746, 0.0, 10.0013275, 9.99799 
1.4251019e+3, 2.55165e+2, -364930.2, -610695.8, -13900.634, -0.28149006, 0.22319707, -364146.47, 75259.68, 0.00000000006254562, 10.001399, 9.998132 
1.4251098e+3, 2.6516294e+2, -243095.61, -510538.9, 66960.31, -0.2479698, 0.2118219, -227267.39, 114159.76, 0.00000036239143, 10.00159, 9.998063 
1.4251214e+3, 2.7516097e+2, -98508.27, -377380.4, 22229.795, 0.09853706, 0.17610332, -96747.38, 146699.25, 0.000010087366, 10.001856, 9.998172 
1.4251289e+3, 2.851591e+2, 53658.746, -293942.72, -25808.855, 0.10975685, 0.19706859, 55564.563, 201028.8, 0.00007869426, 10.002408, 9.997809 
1.4251323e+3, 2.9515707e+2, 306629.97, -109611.914, 14406.838, -0.17313479, 0.17588575, 307128.03, 354610.34, 0.00033370158, 10.003425, 9.997909 
1.4251408e+3, 3.0515447e+2, 386101.25, -195086.08, 118717.45, -0.10119826, 0.20010199, 409416.03, 409416.03, 0.000888113, 10.00427, 9.996588 
1.4251517e+3, 3.151541e+2, 576418.7, 78818.08, 21268.525, 0.12416056, 0.45798457, 577326.1, 577326.1, 0.0017194995, 10.004759, 9.998234 
1.434996e+3, 1.251657e+2, -2085163.8, -1749165.0, -64429.715, -0.1591521, 0.13816284, -1737233.9, -23843.146, 0.010506618, 9.996775, 10.001309 
1.4350054e+3, 1.3516745e+2, -1930836.8, -1689538.1, 70296.98, 0.09947077, 0.23624085, -1670552.5, -55178.273, 0.006123269, 9.997517, 10.000677 
1.4350146e+3, 1.4516646e+2, -1734664.8, -1689950.5, 126885.93, 0.18107966, 0.12810081, -1583467.1, -66083.04, 0.002563054, 9.998779, 9.999401 
1.4350225e+3, 1.5516533e+2, -1499425.1, -1542754.9, 129516.07, 0.032738913, 0.064106084, -1389774.4, 29620.664, 0.0006133788, 9.999805, 9.999238 
1.43503e+3, 1.6516462e+2, -1371644.8, -1459739.8, 57345.5, -0.0673788, 0.09115326, -1343382.5, -21979.244, 0.000047750204, 10.000114, 9.998993 
1.4350384e+3, 1.751643e+2, -1300524.8, -1360109.0, 62400.105, 0.0037142162, 0.123549424, -1261169.6, -37760.14, 0.00000010052836, 9.999873, 9.999117 
1.4350475e+3, 1.8516403e+2, -1175448.8, -1225229.8, 104022.21, 0.05646262, 0.1817477, -1093380.5, 32031.4, 0.0, 9.999974, 9.999316 
1.4350568e+3, 1.9516373e+2, -1000719.75, -1082360.9, 120184.0, 0.05909877, 0.18930814, -914613.1, 112799.4, 0.0, 10.000466, 9.999387 
1.4350653e+3, 2.051628e+2, -913562.1, -983829.5, 80487.71, 0.039755397, 0.15925327, -860874.1, 68545.58, 0.0, 10.000353, 9.999448 
1.4350733e+3, 2.1516114e+2, -917160.3, -932512.9, 112194.13, 0.026170867, 0.021968422, -812380.2, 19054.271, 0.0, 9.999648, 9.999466 
1.435082e+3, 2.2516043e+2, -900273.4, -1032910.25, 127747.836, -0.017548354, 0.08233326, -822655.56, -89209.76, 0.0, 9.999788, 9.998033 
1.4350908e+3, 2.3516053e+2, -656357.5, -851269.75, 75219.734, -0.09632136, 0.25618008, -630705.1, 4749.3022, 0.0, 10.000737, 9.998149 
1.435099e+3, 2.4516022e+2, -419082.72, -573432.8, -54416.668, -0.09160183, 0.36560017, -401827.03, 135632.4, 0.0, 10.001192, 9.999171 
1.4351064e+3, 2.5515947e+2, -307117.88, -459687.06, -2093.883, -0.0014582914, 0.33960432, -307089.13, 132372.9, 0.000000006122379, 10.001266, 9.999234 
1.4351138e+3, 2.651575e+2, -313771.66, -637168.7, 65459.4, -0.009800151, 0.32976767, -301024.34, 40456.813, 0.0000008787704, 10.001497, 9.997242 
1.4351213e+3, 2.7515435e+2, -171885.34, -502821.94, 47316.285, -0.115433946, 0.26015282, -165253.13, 78263.64, 0.000014147242, 10.001734, 9.9973755 
1.4351286e+3, 2.8515276e+2, 133878.3, -102134.836, 682.4986, -0.18819468, 0.2780346, 133880.27, 279410.75, 0.000090676054, 10.002292, 9.999184 
1.4351355e+3, 2.9515237e+2, 372936.34, 56051.652, 65650.09, -0.22371791, 0.27984035, 385998.84, 433525.38, 0.00036367134, 10.003293, 9.999117 
1.4351448e+3, 3.0514923e+2, 297847.72, -339887.47, 126187.37, -0.12993838, 0.24377862, 321908.38, 321908.38, 0.00095384644, 10.004125, 9.995654 
1.4351547e+3, 3.151444e+2, 453610.38, -91187.055, 69510.445, -0.08422643, 0.14560948, 462339.3, 462339.3, 0.0018355325, 10.0044, 9.997239 
1.4449929e+3, 1.2515755e+2, -1974421.3, -1680321.0, -124022.96, -0.16282699, 0.08679704, -1635003.1, 78466.72, 0.011047917, 9.997454, 10.00146 
1.445004e+3, 1.3515933e+2, -1841064.0, -1685012.9, -62165.863, 0.18471967, 0.21299966, -1663275.9, -47822.117, 0.00646129, 9.998281, 10.00034 
1.4450131e+3, 1.4515886e+2, -1726801.8, -1643907.8, 15660.985, 0.15055329, 0.15849392, -1641047.6, -123588.164, 0.0027186894, 9.998664, 9.999761 
1.445022e+3, 1.551585e+2, -1615067.6, -1546389.0, 27862.889, 0.06361184, 0.12983996, -1536507.0, -117043.266, 0.0006559602, 9.998796, 9.999693 
1.4450303e+3, 1.6515815e+2, -1489691.9, -1506816.9, 2911.8984, 0.004024517, 0.16503163, -1489210.3, -167741.53, 0.000052490832, 9.999279, 9.9990635 
1.4450389e+3, 1.7515771e+2, -1224537.6, -1312277.1, 8953.445, 0.051366493, 0.17959286, -1223633.3, -157.88835, 0.00000012546444, 10.000363, 9.9992 
1.4450482e+3, 1.8515715e+2, -1055129.6, -1143015.5, 74167.68, 0.08670613, 0.19102232, -1012864.5, 112615.5, 0.0, 10.00068, 9.999544 
1.4450572e+3, 1.9515638e+2, -1005415.4, -1055255.6, 77448.05, 0.072566085, 0.12811694, -948976.94, 78506.75, 0.0, 10.000304, 9.999647 
1.445066e+3, 2.051557e+2, -894167.8, -999688.2, 35501.773, 0.06373251, 0.11915393, -883335.44, 46153.32, 0.0, 10.000596, 9.999222 
1.4450745e+3, 2.151549e+2, -652881.9, -827994.5, -8335.549, 0.07892215, 0.08940085, -652486.0, 179010.58, 0.0, 10.001561, 9.999262 
1.445083e+3, 2.2515403e+2, -660203.75, -962338.6, 56615.355, 0.022268655, 0.16460398, -649943.4, 83566.85, 0.0, 10.001621, 9.997639 
1.4450914e+3, 2.3515294e+2, -659357.1, -895302.7, 76540.695, -0.11502638, 0.2584507, -636702.56, -1172.0702, 0.0, 10.000885, 9.997779 
1.4451e+3, 2.4515226e+2, -420094.9, -564036.75, -6518.023, -0.08855061, 0.3442851, -419800.34, 117738.76, 0.0, 10.001153, 9.999247 
1.445109e+3, 2.5515184e+2, -124547.21, -369094.38, -53265.03, 0.0871321, 0.34584028, -113449.164, 326089.22, 0.000000012932129, 10.00249, 9.999276 
1.4451165e+3, 2.651501e+2, -142214.14, -547401.25, -7179.189, 0.060216766, 0.3508991, -142086.98, 199468.25, 0.0000016431604, 10.002655, 9.9972925 
1.4451227e+3, 2.7514708e+2, -149953.36, -482451.4, 7481.1235, -0.16142698, 0.28715372, -149785.13, 93803.66, 0.000019343763, 10.001855, 9.997446 
1.4451303e+3, 2.8514522e+2, 67692.414, -192167.6, -4645.27, -0.22858061, 0.3020578, 67775.43, 213381.61, 0.00010742276, 10.0020895, 9.998657 
1.4451393e+3, 2.9514432e+2, 324827.5, -19159.566, -91878.52, -0.13994898, 0.305296, 347829.94, 395440.1, 0.00040939415, 10.003189, 9.998638 
1.4451492e+3, 3.0514166e+2, 260327.36, -272081.06, -35492.97, -0.08064534, 0.3012144, 262683.06, 262683.06, 0.0010584168, 10.003481, 9.996445 
1.4451574e+3, 3.151368e+2, 312059.66, -80542.08, -24147.717, -0.17442945, 0.11783527, 313539.34, 313539.34, 0.0020248522, 10.003093, 9.997937 
1.4549921e+3, 1.2514834e+2, -1995350.0, -1734363.3, -5617.7197, -0.036855157, 0.106365554, -1734242.4, -20680.33, 0.011640448, 9.997511, 10.00105 
1.4550012e+3, 1.3514875e+2, -1883578.9, -1768184.8, -24768.318, 0.044764165, 0.14592668, -1763093.1, -147531.31, 0.0068325973, 9.998255, 9.999784 
1.4550094e+3, 1.4514972e+2, -1669388.1, -1525285.0, 8315.02, -0.10921494, 0.22963463, -1524806.8, -7252.0166, 0.0028915813, 9.99867, 10.000567 
1.4550208e+3, 1.5515192e+2, -1553457.3, -1413277.9, 40786.805, 0.03648544, 0.36042953, -1402274.3, 17260.186, 0.00070428615, 9.998779, 10.000611 
1.4550309e+3, 1.6515261e+2, -1454512.9, -1446483.6, 28303.742, 0.11249777, 0.4333646, -1421911.1, -100382.47, 0.000058062662, 9.999327, 9.999457 
1.4550406e+3, 1.7515156e+2, -1199701.4, -1259169.5, 59153.137, 0.14924887, 0.3498318, -1163229.6, 60309.855, 0.00000016567238, 10.000352, 9.999573 
1.4550495e+3, 1.8515018e+2, -1031515.8, -1091812.3, 48201.234, 0.14337751, 0.24353753, -1004810.94, 120739.61, 0.0, 10.000671, 9.9999 
1.455058e+3, 1.9514854e+2, -993413.75, -1017268.94, 72450.055, 0.09241348, 0.06148409, -931916.0, 95645.45, 0.0, 10.000245, 9.999941 
1.4550664e+3, 2.0514831e+2, -976523.4, -1143024.3, 59233.734, 0.03060517, 0.13533947, -957601.06, -28036.514, 0.0, 10.000484, 9.998288 
1.4550751e+3, 2.151493e+2, -737364.44, -966269.44, 36349.395, -0.022522962, 0.37272543, -731730.94, 99830.54, 0.0, 10.001409, 9.9983835 
1.455084e+3, 2.2514835e+2, -615305.1, -835912.8, 17091.762, -0.05077519, 0.43491384, -613988.8, 119585.1, 0.0, 10.001476, 9.998577 
1.4550929e+3, 2.3514551e+2, -627158.56, -782681.94, 61132.5, -0.055746436, 0.2629712, -606005.9, 29595.729, 0.0, 10.000695, 9.99864 
1.4551015e+3, 2.4514353e+2, -505766.63, -717238.25, 33995.598, -0.06769924, 0.22874008, -500435.94, 37185.1, 0.0, 10.001031, 9.99826 
1.45511e+3, 2.5514236e+2, -208275.42, -514079.66, 8121.0596, -0.08715984, 0.2510052, -208059.9, 231573.55, 0.000000017460069, 10.002362, 9.998343 
1.4551176e+3, 2.6514086e+2, -103684.62, -442013.03, -46021.56, -0.11924648, 0.28741217, -97536.21, 244111.38, 0.000002726617, 10.002537, 9.998077 
1.4551248e+3, 2.7513894e+2, -117219.33, -386175.5, -9686.066, -0.15203199, 0.2549331, -116870.95, 126793.58, 0.000025176965, 10.001733, 9.998165 
1.4551337e+3, 2.851364e+2, -99854.58, -512934.3, 27363.271, -0.116989456, 0.27419293, -98049.86, 47642.32, 0.00012772917, 10.001972, 9.996512 
1.4551441e+3, 2.951332e+2, 160740.2, -328457.6, -33041.977, -0.019011222, 0.26333153, 162961.88, 210692.28, 0.0004671954, 10.003049, 9.996587 
1.4551531e+3, 3.0513206e+2, 401199.72, 57720.977, -56564.113, -0.05205999, 0.38698098, 410274.9, 410274.9, 0.0011937756, 10.003322, 9.998785 
1.4551592e+3, 3.1513092e+2, 407587.75, 174639.38, -10926.553, -0.34404567, 0.34492517, 408099.13, 408099.13, 0.002275861, 10.002851, 9.999808 
1.4649902e+3, 1.251383e+2, -2212915.3, -1770839.0, -3844.2048, 0.119384006, 0.20517999, -1770805.5, -57139.645, 0.012283002, 9.995718, 10.001673 
1.464998e+3, 1.3513847e+2, -1952827.9, -1713906.1, -29370.346, -0.052539244, 0.14525826, -1710348.8, -94683.24, 0.00723705, 9.997406, 10.0005665 
1.4650072e+3, 1.4513999e+2, -1724309.1, -1518203.0, 44975.152, -0.16968873, 0.23463623, -1508816.4, 8834.767, 0.0030819494, 9.998122, 10.000897 
1.4650196e+3, 1.5514237e+2, -1507532.8, -1343019.4, 16542.457, 0.043476902, 0.3389943, -1341372.5, 78255.734, 0.0007585455, 9.998864, 10.001065 
1.4650306e+3, 1.6514325e+2, -1471847.6, -1420906.1, 7450.548, 0.1654928, 0.39349502, -1419838.9, -98218.914, 0.00006440502, 9.99906, 9.9997635 
1.4650404e+3, 1.7514239e+2, -1386117.0, -1316634.5, 7470.955, 0.17918365, 0.30017382, -1315840.4, -92211.445, 0.00000022299002, 9.99893, 9.999866 
1.4650495e+3, 1.8514149e+2, -1260999.3, -1238901.0, -18995.506, 0.15313119, 0.24419898, -1227974.9, -102337.4, 0.0, 9.999269, 9.999558 
1.4650582e+3, 1.9514059e+2, -1018533.3, -1060868.4, -66376.5, 0.09144224, 0.1656393, -970030.9, 57614.32, 0.0, 10.000218, 9.999645 
1.4650668e+3, 2.0514032e+2, -927062.06, -1114473.3, -27020.707, 0.015848968, 0.24719745, -923244.06, 6405.735, 0.0, 10.000797, 9.998338 
1.4650759e+3, 2.1514055e+2, -772804.7, -972560.1, 3527.0151, -0.07026346, 0.4034307, -772742.44, 58910.063, 0.0, 10.001121, 9.99848 
1.4650851e+3, 2.2513962e+2, -610302.94, -757546.2, -12381.225, -0.07431923, 0.429284, -609269.06, 124392.58, 0.0, 10.001196, 9.9992485 
1.4650942e+3, 2.3513743e+2, -516555.84, -656111.8, -7697.185, -0.002738392, 0.25769523, -516132.6, 119545.89, 0.0, 10.001133, 9.999303 
1.465103e+3, 2.4513555e+2, -514377.75, -766086.9, 44752.582, -0.01983794, 0.21890658, -506657.75, 31039.195, 0.0, 10.001173, 9.997855 
1.4651114e+3, 2.551339e+2, -369307.8, -631372.3, 36183.586, -0.12863444, 0.23742528, -364403.66, 75313.555, 0.000000044837254, 10.001438, 9.997977 
1.4651196e+3, 2.651323e+2, -150852.56, -452551.88, -26198.14, -0.15477751, 0.2753606, -148594.55, 193138.88, 0.0000038968087, 10.002166, 9.998183 
1.4651278e+3, 2.7513063e+2, 125685.77, -260721.23, -53050.855, -0.10354335, 0.25788194, 132836.92, 376583.78, 0.000030518888, 10.003356, 9.998254 
1.4651372e+3, 2.851281e+2, 131237.98, -413476.75, 60523.81, -0.037716493, 0.2813587, 137881.81, 283656.06, 0.00014669269, 10.003612, 9.996408 
1.4651477e+3, 2.9512495e+2, 154782.72, -336868.0, 105543.2, 0.03883381, 0.28523794, 176482.08, 224295.27, 0.0005242596, 10.003041, 9.996528 
1.4651565e+3, 3.051239e+2, 395649.97, 84425.734, 96520.24, -0.021772023, 0.41009519, 423153.38, 423153.38, 0.0013356343, 10.003167, 9.99903 
1.465163e+3, 3.1512302e+2, 532173.44, 198422.08, -39464.824, -0.29148382, 0.37882784, 536776.5, 536776.5, 0.0025485826, 10.003838, 9.999503 
1.4749868e+3, 1.251261e+2, -2089356.5, -1511533.9, 9315.189, 0.15036534, 0.28062966, -1511383.8, 202410.69, 0.012969953, 9.99572, 10.00345 
1.4749937e+3, 1.3512847e+2, -1804867.8, -1401818.9, 21637.145, -0.24955864, 0.21750867, -1400660.6, 215104.52, 0.0076708426, 9.997383, 10.002725 
1.475006e+3, 1.451297e+2, -1713023.4, -1514812.8, 48664.047, -0.13091655, 0.16883203, -1503509.5, 14239.465, 0.0032881629, 9.998195, 10.000891 
1.4750183e+3, 1.5513006e+2, -1514103.8, -1351838.8, 51914.746, 0.0069087925, 0.078800365, -1336650.9, 83092.24, 0.00081847684, 9.998838, 10.00102 
1.475029e+3, 1.6513032e+2, -1449128.5, -1387147.5, -11865.947, 0.06276036, 0.060464185, -1384953.5, -63212.715, 0.000071419374, 9.999106, 9.999974 
1.4750384e+3, 1.7513037e+2, -1375884.3, -1293230.0, 10145.414, 0.049788278, 0.03720911, -1292003.0, -68260.35, 0.0000002932695, 9.998918, 10.000031 
1.4750479e+3, 1.8513115e+2, -1328189.6, -1384243.5, 4301.444, 0.023002759, 0.19414161, -1327861.5, -202121.3, 0.0, 9.999286, 9.998557 
1.4750575e+3, 1.951325e+2, -1093312.5, -1205585.4, -21820.908, -0.011373584, 0.43879014, -1089220.6, -61485.574, 0.0, 10.000168, 9.998681 
1.475067e+3, 2.051317e+2, -860950.0, -961173.56, -29296.465, -0.07375107, 0.45970324, -853014.6, 76729.83, 0.0, 10.000725, 9.999425 
1.4750762e+3, 2.1512884e+2, -724399.25, -834605.25, 21784.115, -0.15305264, 0.20052819, -720249.5, 111518.54, 0.0, 10.000961, 9.999503 
1.4750858e+3, 2.2512797e+2, -607529.2, -715425.44, -26512.398, -0.13707483, 0.16438742, -601366.5, 132406.08, 0.0, 10.001032, 9.99962 
1.4750952e+3, 2.3512885e+2, -506785.22, -607973.3, 206.25323, -0.038834292, 0.2566306, -506784.78, 128975.4, 0.0, 10.001011, 9.999694 
1.4751042e+3, 2.4512829e+2, -520250.2, -757657.7, 41029.492, -0.042772964, 0.32650933, -513359.38, 24407.148, 0.0, 10.001076, 9.997962 
1.4751129e+3, 2.5512633e+2, -385164.6, -630710.8, 55391.902, -0.12954497, 0.30085903, -373247.3, 66544.04, 0.000000082863835, 10.001291, 9.998054 
1.4751221e+3, 2.6512432e+2, -207026.05, -534708.0, 10777.583, -0.14844312, 0.32066107, -206671.95, 135141.56, 0.0000048986644, 10.002016, 9.997687 
1.4751312e+3, 2.7512214e+2, 71138.09, -336698.72, 7490.3735, -0.10902365, 0.29547304, 71275.62, 315110.38, 0.00003489947, 10.0032, 9.997801 
1.4751405e+3, 2.8512034e+2, 223242.13, -194826.14, 26476.58, -0.086630724, 0.33237386, 224912.23, 370764.03, 0.00016199038, 10.003478, 9.99798 
1.4751498e+3, 2.9511905e+2, 241259.39, -122546.414, 95439.38, -0.07454107, 0.36453715, 264776.4, 312639.66, 0.0005762134, 10.002886, 9.998078 
1.4751592e+3, 3.0511686e+2, 255775.05, -163146.94, 111735.0, -0.096896306, 0.38009876, 283713.75, 283713.75, 0.0014700064, 10.002995, 9.997402 
1.475168e+3, 3.151133e+2, 322408.03, -148954.66, 19337.115, -0.20671287, 0.23953871, 323199.97, 323199.97, 0.0028040572, 10.003487, 9.997266 
1.4849839e+3, 1.2511592e+2, -1822171.8, -1431794.4, 165417.31, 0.19919652, 0.29730272, -1371128.5, 342767.63, 0.013700781, 9.997737, 10.003053 
1.4849904e+3, 1.3511878e+2, -1914583.6, -1464066.8, 34735.555, -0.26240057, 0.29824722, -1461404.3, 154459.27, 0.00813248, 9.996645, 10.002667 
1.4850049e+3, 1.4512008e+2, -1901644.3, -1570914.8, 60171.855, 0.015639221, 0.24272293, -1560307.5, -42461.16, 0.0035089266, 9.996784, 10.001169 
1.4850177e+3, 1.5511978e+2, -1508850.6, -1316181.8, 60974.86, 0.08723572, 0.05860449, -1298506.3, 121338.5, 0.0008836724, 9.998753, 10.001291 
1.4850283e+3, 1.6512014e+2, -1413122.4, -1380209.6, -38049.516, 0.085061334, 0.043203533, -1355210.3, -33368.773, 0.00007901186, 9.999429, 9.999856 
1.4850369e+3, 1.7512102e+2, -1356818.9, -1292896.8, -63134.32, 0.019922981, 0.114551306, -1254094.5, -30256.97, 0.00000037325287, 9.999104, 9.99994 
1.4850469e+3, 1.8512194e+2, -1302581.4, -1369171.8, 31867.385, -0.005325059, 0.28750518, -1289788.6, -163953.81, 0.0, 9.999448, 9.998586 
1.4850579e+3, 1.951228e+2, -1019303.9, -1164191.4, 59381.47, -0.008629984, 0.47948045, -998076.6, 29757.695, 0.0, 10.0006485, 9.998735 
1.4850679e+3, 2.051219e+2, -860648.7, -920171.3, 22663.262, -0.046415046, 0.47143722, -853002.0, 76841.19, 0.0, 10.000559, 9.999783 
1.4850768e+3, 2.1511938e+2, -941738.4, -898074.06, 1036.0922, -0.1095567, 0.20856394, -898049.5, -66188.37, 0.0, 9.999288, 9.999873 
1.4850862e+3, 2.251184e+2, -859131.94, -858477.25, -21668.623, -0.09938353, 0.15343077, -837133.5, -103267.086, 0.0, 9.999396, 9.999422 
1.4850962e+3, 2.3511887e+2, -532151.8, -639133.8, -61845.285, -0.03676865, 0.22606784, -503874.1, 131985.77, 0.0, 10.000924, 9.999518 
1.4851055e+3, 2.4511851e+2, -429232.38, -675975.75, -44260.504, -0.0422192, 0.30764958, -421533.22, 116331.16, 0.0, 10.001542, 9.998298 
1.4851144e+3, 2.551173e+2, -356315.66, -579155.06, -33124.15, -0.10829722, 0.32722387, -351496.13, 88383.93, 0.00000011463164, 10.001327, 9.998392 
1.4851241e+3, 2.651156e+2, -261844.4, -559683.0, 5287.0713, -0.120075844, 0.3606291, -261750.58, 80148.664, 0.000005857849, 10.001639, 9.997697 
1.4851342e+3, 2.751133e+2, -24578.203, -381790.1, 5027.445, -0.089434214, 0.3281166, -24507.46, 219415.53, 0.000039275426, 10.002542, 9.997809 
1.4851438e+3, 2.8511152e+2, 152798.58, -194671.58, -34784.965, -0.072300054, 0.34958586, 156246.66, 302185.7, 0.00017769578, 10.002867, 9.998264 
1.4851525e+3, 2.951102e+2, 234817.9, -94115.48, -81430.695, -0.0654105, 0.35400656, 253873.02, 301820.06, 0.0006294966, 10.002703, 9.998363 
1.4851625e+3, 3.051072e+2, 274075.63, -212690.39, 6465.0522, -0.07356267, 0.30131564, 274161.5, 274161.5, 0.0015962292, 10.003344, 9.996913 
1.485173e+3, 3.1510416e+2, 446509.38, -163845.47, -57407.277, -0.105587415, 0.26012447, 451861.9, 451861.9, 0.0030238926, 10.004644, 9.996614 
1.4949791e+3, 1.2510848e+2, -1964491.9, -1742765.4, -65012.22, -0.11575776, 0.31732345, -1725109.1, -11144.951, 0.014485426, 9.997812, 10.000856 
1.494988e+3, 1.3510989e+2, -2088597.3, -1807664.3, -2022.115, -0.18025666, 0.41558468, -1807649.8, -191693.73, 0.008627366, 9.99659, 10.000322 
1.4950036e+3, 1.4511135e+2, -1848370.5, -1485465.8, 112662.27, 0.1659167, 0.46100685, -1453335.0, 64606.156, 0.0037456865, 9.996867, 10.001729 
1.4950177e+3, 1.551117e+2, -1475980.9, -1251253.8, 142939.5, 0.18535958, 0.29048404, -1181800.8, 238130.88, 0.0009542572, 9.9987545, 10.001745 
1.4950284e+3, 1.6511284e+2, -1431870.3, -1433509.8, -66102.95, 0.11828661, 0.3524666, -1366582.0, -44660.96, 0.00008722728, 9.999489, 9.999458 
1.4950362e+3, 1.7511432e+2, -1389699.9, -1355241.4, -68240.945, 0.012848454, 0.5251427, -1302088.4, -78174.64, 0.0000004647829, 9.999082, 9.99952 
1.4950463e+3, 1.8511388e+2, -1222941.6, -1215296.6, 62160.51, -0.026722739, 0.52882934, -1156841.3, -30920.219, 0.0, 9.999486, 9.999626 
1.4950588e+3, 1.9511159e+2, -958617.8, -1024745.75, 109792.65, -0.00070544746, 0.30441126, -877018.56, 150923.5, 0.0, 10.000585, 9.999725 
1.4950691e+3, 2.0511104e+2, -894878.1, -971340.06, -38716.273, -0.0019486021, 0.29501998, -878698.06, 51247.19, 0.0, 10.000467, 9.999476 
1.4950772e+3, 2.1511205e+2, -980677.5, -950942.7, -37546.754, -0.017204449, 0.41548797, -925426.94, -93494.5, 0.0, 9.99917, 9.999565 
1.4950864e+3, 2.2511087e+2, -930359.56, -982593.1, 22040.861, -0.043749228, 0.39572194, -922302.0, -188358.84, 0.0, 9.999285, 9.99863 
1.4950968e+3, 2.3510754e+2, -609924.94, -764751.4, 4704.7637, -0.080311246, 0.16660409, -609782.06, 26194.957, 0.0, 10.000766, 9.998735 
1.4951065e+3, 2.451063e+2, -417805.38, -611504.6, -61452.49, -0.116512135, 0.17117867, -399954.28, 138035.31, 0.0, 10.001366, 9.998825 
1.4951155e+3, 2.5510693e+2, -339167.75, -514394.2, -28556.127, -0.14825736, 0.31629223, -334631.47, 105351.47, 0.00000015644366, 10.001201, 9.998897 
1.4951254e+3, 2.651062e+2, -255486.06, -516963.3, 28574.996, -0.15655513, 0.4041045, -252399.73, 89590.85, 0.000006865855, 10.00151, 9.998053 
1.4951365e+3, 2.7510414e+2, -27719.28, -347034.88, 49905.617, -0.13574643, 0.3600935, -20101.309, 223911.17, 0.00004412461, 10.002368, 9.998131 
1.4951466e+3, 2.8510162e+2, 65180.67, -342624.56, -51197.99, -0.101190925, 0.34351665, 71510.09, 217546.3, 0.00019465707, 10.002711, 9.997327 
1.4951557e+3, 2.950986e+2, 150653.06, -236303.23, -66284.9, -0.04738111, 0.26489463, 161692.6, 209754.89, 0.00068026775, 10.00256, 9.997457 
1.4951661e+3, 3.0509517e+2, 282692.47, -152448.13, 47822.016, -0.066823356, 0.1891812, 287886.13, 287886.13, 0.0016995047, 10.003176, 9.997399 
1.4951773e+3, 3.1509542e+2, 441492.88, -96353.79, 27696.947, -0.1937241, 0.4331633, 442915.4, 442915.4, 0.0031810983, 10.004325, 9.997228 
1.5049759e+3, 1.2509936e+2, -2099352.8, -1914945.0, -175291.67, -0.19250397, 0.32305196, -1809086.5, -95034.734, 0.015336173, 9.997373, 9.999872 
1.5049879e+3, 1.3509922e+2, -1687655.9, -1718619.9, 17671.361, -0.00429096, 0.34575316, -1679643.9, -63583.902, 0.0091627855, 9.999783, 9.999395 
1.5050018e+3, 1.4510027e+2, -1491512.3, -1362871.5, 137042.63, 0.1826548, 0.42158505, -1275805.6, 242245.53, 0.0040015904, 9.999553, 10.001268 
1.5050153e+3, 1.551014e+2, -1726995.0, -1416834.8, 69982.96, 0.1522637, 0.3746874, -1401775.4, 18261.023, 0.001031135, 9.997234, 10.001337 
1.5050267e+3, 1.6510254e+2, -1740333.6, -1567951.0, -76726.02, 0.10637907, 0.44803065, -1538748.1, -216721.95, 0.000096309515, 9.997287, 9.999611 
1.5050362e+3, 1.7510316e+2, -1261141.5, -1271326.9, -57644.234, 0.0861811, 0.51653945, -1208365.4, 15659.44, 0.000000575819, 9.999849, 9.999731 
1.5050468e+3, 1.8510263e+2, -1081199.4, -1107113.3, 46512.35, 0.039541863, 0.48442042, -1045872.94, 80158.65, 0.0, 10.000306, 9.999962 
1.505058e+3, 1.9510105e+2, -1176863.3, -1087738.3, 22088.582, -0.052593436, 0.29786736, -1082564.3, -54518.92, 0.0, 9.998922, 10.000082 
1.5050685e+3, 2.0510083e+2, -1092697.5, -1057160.9, -100249.49, -0.036070023, 0.29901803, -973117.25, -43071.965, 0.0, 9.999083, 9.999554 
1.5050781e+3, 2.1510176e+2, -733858.06, -825859.5, -95547.664, 0.08561502, 0.40561077, -673814.4, 158219.23, 0.0, 10.00084, 9.999623 
1.5050879e+3, 2.251008e+2, -656838.25, -885747.56, 21410.363, 0.069682114, 0.4236574, -654852.9, 79190.82, 0.0, 10.001336, 9.998294 
1.5050974e+3, 2.3509805e+2, -646840.3, -818278.94, 11062.562, -0.08730342, 0.28472474, -646129.4, -10054.475, 0.0, 10.000676, 9.998402 
1.5051073e+3, 2.4509658e+2, -471885.06, -633718.8, -29801.139, -0.14653032, 0.2811487, -466571.72, 71518.2, 0.0, 10.000982, 9.998853 
1.5051174e+3, 2.5509626e+2, -183312.86, -431871.16, -60364.008, -0.118662395, 0.33073524, -169428.63, 270661.28, 0.00000020302433, 10.002252, 9.998947 
1.505128e+3, 2.6509523e+2, -140324.11, -448893.72, -35690.6, -0.094124064, 0.38020742, -136249.77, 205849.34, 0.0000077496, 10.002254, 9.9981575 
1.5051387e+3, 2.7509344e+2, -202388.89, -420562.16, -51188.21, -0.07203886, 0.35193235, -190976.05, 53142.04, 0.000048509926, 10.001108, 9.998237 
1.505149e+3, 2.8509107e+2, -105065.984, -429419.78, -60417.797, -0.058102038, 0.34976947, -94177.414, 51962.75, 0.00020995413, 10.001572, 9.997276 
1.5051588e+3, 2.9508814e+2, 318203.16, -153487.75, -50212.78, -0.048858587, 0.28545454, 323489.2, 371654.94, 0.0007218437, 10.003728, 9.997449 
1.5051697e+3, 3.0508426e+2, 423349.06, -107611.66, 55884.94, -0.066352695, 0.17199953, 429167.3, 429167.3, 0.0017668722, 10.004222, 9.99722 
1.5051815e+3, 3.1508505e+2, 235212.89, -174775.94, -45817.02, -0.10429788, 0.49336386, 240270.63, 240270.63, 0.0032563144, 10.002785, 9.997449 
1.5149738e+3, 1.2508948e+2, -2068885.8, -1884429.9, -52189.64, -0.20022754, 0.35244286, -1870687.4, -156537.36, 0.016257107, 9.997499, 10.00003 
1.5149897e+3, 1.3508704e+2, -1669376.8, -1665268.8, 121879.78, 0.17991684, 0.09159132, -1545425.6, 70746.73, 0.009740974, 9.999733, 9.999783 
1.5149993e+3, 1.4508714e+2, -1588714.3, -1589341.3, 31674.23, -0.067576736, 0.14248437, -1557352.0, -39179.277, 0.0042781597, 9.999644, 9.999671 
1.5150101e+3, 1.55089e+2, -1826234.9, -1625507.5, -6498.478, -0.10842514, 0.31509724, -1625297.4, -205138.83, 0.0011151112, 9.997242, 9.999902 
1.5150227e+3, 1.6508934e+2, -1672994.6, -1446187.3, 3912.8694, -0.05018102, 0.33999598, -1446119.8, -123963.94, 0.000106548556, 9.997355, 10.000415 
1.5150371e+3, 1.7508778e+2, -1207614.1, -1158046.1, 45739.71, 0.15442805, 0.10538727, -1130807.4, 93361.46, 0.0000007145684, 9.999833, 10.00052 
1.515048e+3, 1.8508843e+2, -1100972.0, -1153155.4, -17355.7, 0.093227506, 0.16713898, -1095726.9, 30437.875, 0.0, 10.000322, 9.999641 
1.5150551e+3, 1.9509123e+2, -1206465.9, -1138339.1, -20435.91, -0.24423386, 0.45236653, -1132679.3, -104535.37, 0.0, 9.998876, 9.999758 
1.5150657e+3, 2.0509136e+2, -1075436.6, -1005753.06, -48530.25, -0.23736857, 0.48436013, -980852.56, -50709.703, 0.0, 9.999009, 9.999946 
1.5150794e+3, 2.1508874e+2, -727141.56, -776711.44, -21637.518, 0.11600647, 0.1986567, -719025.5, 113136.62, 0.0, 10.000685, 10.000038 
1.51509e+3, 2.2508845e+2, -677738.7, -887359.8, -13879.919, 0.14220443, 0.25550172, -676823.6, 57342.016, 0.0, 10.001154, 9.998373 
1.5150976e+3, 2.3509032e+2, -663370.44, -821363.06, -1110.1578, -0.14542441, 0.57464015, -663362.6, -27208.324, 0.0, 10.000542, 9.998446 
1.5151076e+3, 2.4508928e+2, -526271.2, -715806.25, 5450.8047, -0.22979155, 0.638171, -526114.56, 12051.511, 0.0, 10.000842, 9.998361 
1.51512e+3, 2.5508538e+2, -240515.88, -513255.1, -2222.1206, -0.109806515, 0.37745684, -240497.77, 199703.03, 0.00000026346208, 10.002084, 9.998473 
1.5151311e+3, 2.6508275e+2, -172232.78, -476404.56, -87103.555, -0.032868993, 0.29311427, -149055.6, 193169.52, 0.000008336701, 10.002085, 9.998053 
1.5151408e+3, 2.7508134e+2, -227472.08, -441813.9, -76996.09, 0.0015631308, 0.31182513, -202680.86, 41557.977, 0.00005112129, 10.000985, 9.998148 
1.5151508e+3, 2.8508e+2, -73581.484, -345126.0, 9785.472, -0.0535985, 0.38637704, -73229.305, 73020.59, 0.00022272031, 10.001476, 9.997904 
1.5151615e+3, 2.9507864e+2, 333047.47, -82384.945, 47015.242, -0.17743944, 0.41406092, 338301.8, 386561.34, 0.000756888, 10.003548, 9.998025 
1.515173e+3, 3.0507421e+2, 333322.9, -231115.64, -7595.8174, -0.17820297, 0.25495967, 333425.1, 333425.1, 0.0018087787, 10.003978, 9.996475 
1.5151854e+3, 3.150731e+2, 189433.81, -188016.47, -69748.914, -0.037111238, 0.44823807, 201910.3, 201910.3, 0.0032696738, 10.002489, 9.997474 
1.5249728e+3, 1.2507841e+2, -1813089.9, -1690818.4, 51737.85, -0.112525985, 0.32738248, -1671864.3, 42394.633, 0.017244658, 9.998978, 10.000641 
1.5249887e+3, 1.3507672e+2, -1945495.8, -1756162.5, 65724.86, 0.21752256, 0.094477914, -1735583.6, -119312.35, 0.010359608, 9.99765, 10.000164 
1.5249968e+3, 1.4507641e+2, -1938362.8, -1820040.3, 27406.2, -0.17053539, 0.119986475, -1814000.6, -295725.16, 0.0045741852, 9.99753, 9.9991 
1.5250087e+3, 1.5507758e+2, -1523727.5, -1531105.4, 38972.47, -0.09092753, 0.2680722, -1488269.8, -67999.19, 0.0012060112, 9.99954, 9.999438 
1.5250215e+3, 1.650777e+2, -1354580.0, -1260215.0, 108692.36, -0.00069792743, 0.28037083, -1188906.1, 133364.42, 0.000118081814, 9.999438, 10.000679 
1.5250354e+3, 1.7507665e+2, -1512608.8, -1270611.5, 82353.58, 0.10522174, 0.072766125, -1245245.0, -20968.285, 0.0000008766353, 9.997625, 10.000804 
1.5250464e+3, 1.8507762e+2, -1525844.6, -1372963.5, 16175.0625, 0.05936558, 0.162936, -1371270.9, -245001.72, 0.0, 9.99747, 9.999514 
1.525055e+3, 1.9508058e+2, -1183962.6, -1147041.4, 6752.519, -0.15262054, 0.4770984, -1145845.1, -117596.64, 0.0, 9.999101, 9.999602 
1.525066e+3, 2.0508057e+2, -966458.6, -974694.1, 10453.51, -0.14513193, 0.51570517, -959341.06, -29091.14, 0.0, 9.999833, 9.999761 
1.5250792e+3, 2.150777e+2, -879662.7, -868343.44, -27048.68, 0.0704663, 0.21600741, -846368.6, -14095.773, 0.0, 9.999705, 9.999874 
1.5250903e+3, 2.250772e+2, -797449.44, -924581.0, -32957.387, 0.10183034, 0.25128934, -789413.5, -55136.367, 0.0, 10.000234, 9.998566 
1.5250994e+3, 2.3507895e+2, -524296.1, -731427.7, -29754.092, -0.04759651, 0.5389416, -520106.72, 116157.266, 0.0, 10.001396, 9.998653 
1.52511e+3, 2.4507803e+2, -476355.25, -702748.44, 3911.4626, -0.08724404, 0.60976076, -476287.7, 61986.816, 0.0, 10.00125, 9.998242 
1.5251218e+3, 2.5507447e+2, -565967.25, -683102.8, -522.029, -0.023938643, 0.3953166, -565964.94, -125656.234, 0.0000003530132, 9.9999075, 9.998351 
1.5251327e+3, 2.6507175e+2, -403342.6, -585444.2, -18314.408, 0.01005986, 0.30856335, -401518.9, -59185.387, 0.000008619123, 10.000483, 9.998076 
1.5251428e+3, 2.7506986e+2, 60885.332, -295177.0, -25849.309, 0.007840825, 0.27498448, 62752.145, 307101.28, 0.000051931653, 10.002941, 9.998206 
1.5251535e+3, 2.850685e+2, 204058.95, -233367.7, 45074.184, -0.031790093, 0.35284442, 208655.28, 355015.56, 0.00023518385, 10.003487, 9.997708 
1.525165e+3, 2.9506755e+2, 120863.55, -212193.88, -2928.1772, -0.10412882, 0.44318217, 120889.29, 169258.22, 0.0007914608, 10.002194, 9.997798 
1.525177e+3, 3.0506283e+2, 191775.14, -321766.53, -22248.543, -0.115251854, 0.27851355, 192737.23, 192737.23, 0.001844471, 10.003066, 9.99631 
1.5251897e+3, 3.1506017e+2, 706047.94, 91234.62, -94236.46, -0.013101792, 0.3393012, 720167.9, 720167.9, 0.0032658037, 10.00586, 9.997803 
1.5349744e+3, 1.2506601e+2, -1742104.1, -1555133.5, 143606.48, 0.09703408, 0.2279717, -1477264.4, 237115.48, 0.018294634, 9.99902, 10.001569 
1.5349844e+3, 1.3506848e+2, -1914695.0, -1692801.5, 8535.732, -0.008555201, 0.37011546, -1692473.6, -76119.4, 0.011016667, 9.997655, 10.000595 
1.534994e+3, 1.450685e+2, -1888399.4, -1744936.4, 80786.67, -0.23205045, 0.3841919, -1708631.3, -190275.86, 0.0048880493, 9.997642, 9.999572 
1.5350105e+3, 1.5506737e+2, -1494713.6, -1456552.8, 119260.01, 0.111832775, 0.25182158, -1354856.5, 65514.145, 0.0013030368, 9.999488, 9.999976 
1.5350229e+3, 1.6506778e+2, -1367367.0, -1305045.3, 24473.797, 0.15897527, 0.28432137, -1296583.4, 25784.914, 0.00013086536, 9.999503, 10.000346 
1.5350305e+3, 1.7506976e+2, -1536619.3, -1323008.5, 22599.21, -0.14008005, 0.4158436, -1320643.8, -96295.4, 0.0000010420176, 9.997635, 10.000441 
1.535042e+3, 1.8507023e+2, -1517716.0, -1368910.5, 63797.332, -0.1577625, 0.47433773, -1345303.8, -218958.75, 0.0, 9.99752, 9.999518 
1.5350571e+3, 1.9506915e+2, -1186574.9, -1143032.5, 74249.48, 0.12710014, 0.37951258, -1087428.1, -59069.445, 0.0, 9.999059, 9.999648 
1.5350689e+3, 2.0506859e+2, -1034530.75, -1088356.0, -3926.9556, 0.13515303, 0.39471814, -1034245.75, -103879.97, 0.0, 9.999717, 9.999034 
1.5350771e+3, 2.1506849e+2, -952917.1, -987094.9, -21660.805, -0.1348056, 0.4486497, -942415.75, -110049.164, 0.0, 9.999563, 9.999126 
1.5350883e+3, 2.2506702e+2, -796947.3, -887176.9, -355.20874, -0.14259465, 0.40691215, -796945.94, -62567.06, 0.0, 10.000071, 9.998904 
1.5351027e+3, 2.350641e+2, -518796.06, -686649.56, 26113.201, 0.11970096, 0.19081116, -514827.4, 121575.45, 0.0, 10.001247, 9.999036 
1.5351142e+3, 2.4506295e+2, -491510.4, -688702.4, -56117.098, 0.17637339, 0.20803274, -476659.06, 61755.55, 0.0, 10.001061, 9.998426 
1.5351225e+3, 2.550635e+2, -573947.94, -668938.6, -38320.28, 0.045188274, 0.38680962, -560416.6, -120002.38, 0.0000004707298, 9.999784, 9.998504 
1.5351327e+3, 2.6506218e+2, -408594.34, -573950.75, 60512.36, -0.06504347, 0.42808637, -388815.56, -46389.758, 0.0000086272985, 10.0003805, 9.998207 
1.5351443e+3, 2.7505898e+2, 50327.832, -285772.44, 74076.9, -0.15013006, 0.25057718, 65930.18, 310379.94, 0.000052741245, 10.002808, 9.998336 
1.5351565e+3, 2.8505653e+2, 109200.2, -395607.78, -14646.206, -0.10499144, 0.26045436, 109624.78, 256097.47, 0.00024875673, 10.003327, 9.9966755 
1.535169e+3, 2.9505473e+2, 29604.174, -375095.1, -32412.463, 0.0603302, 0.37186214, 32183.654, 80678.27, 0.0008280687, 10.002077, 9.996737 
1.5351816e+3, 3.0505016e+2, 184290.56, -289678.22, 72618.5, 0.008979879, 0.26074812, 195167.11, 195167.11, 0.001889822, 10.002876, 9.996613 
1.5351939e+3, 3.150464e+2, 690821.6, 176221.05, 45227.098, -0.22821118, 0.16388929, 694766.25, 694766.25, 0.0032909291, 10.005398, 9.99859 
1.5449734e+3, 1.2505321e+2, -2039433.6, -1693017.5, 140023.4, 0.20369476, 0.17644688, -1643498.0, 71005.45, 0.019406972, 9.996962, 10.001593 
1.5449817e+3, 1.3505675e+2, -1807449.9, -1616597.0, -102475.03, -0.057211883, 0.4042201, -1571997.3, 44473.168, 0.0117135905, 9.998264, 10.000826 
1.5449935e+3, 1.450578e+2, -1777464.3, -1594662.8, 38641.664, -0.058345832, 0.4641719, -1586830.1, -68368.94, 0.0052204016, 9.997992, 10.000434 
1.545009e+3, 1.5505661e+2, -1771115.8, -1503624.3, 80329.664, 0.14779864, 0.24623023, -1481354.6, -60880.99, 0.0014059248, 9.997191, 10.000777 
1.5450211e+3, 1.650573e+2, -1646727.3, -1464037.8, 8032.6523, 0.13703468, 0.2766095, -1463685.3, -141216.86, 0.00014487762, 9.997703, 10.000108 
1.5450293e+3, 1.7505993e+2, -1251019.1, -1215253.5, -6996.3477, -0.13526347, 0.49686077, -1213933.6, 10510.86, 0.000001197513, 9.99971, 10.000176 
1.5450412e+3, 1.8505989e+2, -1156307.3, -1210948.6, 60223.082, -0.1048806, 0.52347815, -1117497.4, 8948.433, 0.0, 10.000087, 9.999357 
1.5450573e+3, 1.9505721e+2, -1195697.9, -1162599.1, 37738.65, 0.2304362, 0.28638762, -1137940.6, -109468.9, 0.0, 9.999077, 9.999501 
1.5450692e+3, 2.0505635e+2, -1115303.3, -1154651.9, 2981.6387, 0.22697356, 0.29084417, -1115078.6, -184596.83, 0.0, 9.9993, 9.998779 
1.5450773e+3, 2.1505725e+2, -795811.75, -939962.06, -2734.6467, -0.118522786, 0.47247833, -795759.9, 36716.29, 0.0, 10.000783, 9.998862 
1.5450886e+3, 2.2505592e+2, -628178.75, -763693.3, 36781.29, -0.1521217, 0.4422902, -618839.25, 115647.95, 0.0, 10.001061, 9.999268 
1.5451033e+3, 2.350524e+2, -649195.0, -707559.6, 35089.406, 0.11178882, 0.13065246, -632738.8, 3775.8887, 0.0, 10.000188, 9.999396 
1.5451151e+3, 2.4505119e+2, -591856.44, -765779.2, -46219.94, 0.2000202, 0.13725425, -580336.56, -41810.035, 0.000000000009610117, 10.000476, 9.998194 
1.545124e+3, 2.550522e+2, -284726.16, -556048.4, -75615.89, 0.120071806, 0.38527825, -265075.66, 175447.67, 0.0000005675007, 10.001873, 9.998285 
1.5451346e+3, 2.6505098e+2, -109154.53, -424399.28, 66332.016, -0.0021846946, 0.4417133, -95765.945, 246768.81, 0.000008574752, 10.002425, 9.99825 
1.5451466e+3, 2.750474e+2, -34607.773, -331110.88, 47572.363, -0.18159114, 0.22874583, -27162.014, 217399.77, 0.00005426492, 10.002226, 9.998318 
1.545159e+3, 2.8504458e+2, -31674.379, -500390.1, -51360.4, -0.13892846, 0.2234055, -26112.467, 120476.55, 0.00026286932, 10.002541, 9.996314 
1.5451722e+3, 2.9504254e+2, 188204.19, -342777.34, -51230.72, 0.101314045, 0.34668618, 193101.9, 241718.1, 0.0008684361, 10.003372, 9.996323 
1.545185e+3, 3.050388e+2, 230805.34, -213282.95, 135644.73, 0.08196519, 0.31710917, 268959.38, 268959.38, 0.0019566913, 10.002959, 9.997104 
1.5451978e+3, 3.1503522e+2, 121194.03, -53070.164, 69880.25, -0.15337832, 0.20017794, 145754.6, 145754.6, 0.003375287, 10.001243, 9.999028 
1.5549685e+3, 1.2504056e+2, -2085664.6, -1812189.8, 35174.953, -0.032732144, 0.24753113, -1807737.9, -93113.836, 0.020587768, 9.997059, 10.000726 
1.5549803e+3, 1.3504149e+2, -1802530.3, -1587819.1, -69047.086, -0.046996262, 0.21187901, -1567531.8, 49087.98, 0.012455585, 9.998193, 10.001059 
1.5549949e+3, 1.4504424e+2, -1675716.4, -1397945.8, -12643.43, 0.2477432, 0.3520322, -1397371.4, 121221.98, 0.0055746003, 9.998037, 10.00177 
1.5550041e+3, 1.550455e+2, -1693718.5, -1339969.6, 61440.59, -0.07978415, 0.26327947, -1329602.3, 90975.38, 0.001515748, 9.997189, 10.001897 
1.555016e+3, 1.650465e+2, -1642515.6, -1477001.6, 70930.195, -0.16798623, 0.2780388, -1450764.1, -128195.984, 0.00016035176, 9.997786, 9.999986 
1.555031e+3, 1.7504732e+2, -1260925.3, -1228757.4, 72788.63, 0.03962727, 0.3268978, -1170296.9, 54266.992, 0.0000013687348, 9.999682, 10.000098 
1.5550439e+3, 1.8504678e+2, -1178737.8, -1258761.5, 10163.155, 0.1275346, 0.32406393, -1177467.1, -50897.19, 0.0, 10.000091, 9.999028 
1.555055e+3, 1.9504485e+2, -1228906.9, -1218658.4, 9490.733, 0.07786788, 0.1957739, -1212996.9, -184409.8, 0.0, 9.999025, 9.99914 
1.5550669e+3, 2.0504394e+2, -1112601.5, -1137579.5, 46990.555, 0.039799158, 0.2085262, -1076468.6, -145871.27, 0.0, 9.999238, 9.998935 
1.5550797e+3, 2.1504405e+2, -800209.75, -923134.75, 62483.97, 0.031813774, 0.29479587, -774025.9, 58574.906, 0.0, 10.000657, 9.999046 
1.555091e+3, 2.2504397e+2, -632967.56, -734977.44, -5723.5986, -0.033102, 0.36321005, -632647.44, 101954.69, 0.0, 10.000894, 9.999546 
1.5551011e+3, 2.3504364e+2, -649200.6, -681801.6, 13666.475, -0.15127666, 0.34450144, -644229.56, -7627.8804, 0.0, 10.0000725, 9.999631 
1.5551126e+3, 2.4504256e+2, -654685.9, -862218.6, -2624.7354, -0.107073076, 0.38221127, -654652.7, -116040.13, 0.0, 10.000328, 9.997603 
1.5551262e+3, 2.5504065e+2, -342196.7, -645855.25, -11682.291, 0.11726784, 0.39391884, -341747.9, 98887.4, 0.0000005355393, 10.001746, 9.99773 
1.5551382e+3, 2.650381e+2, -140354.8, -455075.66, 52699.527, 0.09294572, 0.35604125, -131764.8, 210894.63, 0.000008556659, 10.002277, 9.99811 
1.555149e+3, 2.7503502e+2, -68072.12, -366115.8, 57415.42, -0.17212401, 0.20341969, -57394.12, 187290.5, 0.000056489618, 10.002081, 9.998143 
1.5551609e+3, 2.850326e+2, -46255.555, -493611.2, -28442.41, -0.22577819, 0.23989679, -44454.47, 102255.086, 0.00027893353, 10.00238, 9.996439 
1.555174e+3, 2.950308e+2, 178782.48, -322096.1, -3901.2754, -0.07396593, 0.3645402, 178812.86, 227547.33, 0.00091525615, 10.003206, 9.996539 
1.5551873e+3, 3.0502862e+2, 230102.11, -154803.56, 61756.48, -0.0033262344, 0.45346957, 239767.94, 239767.94, 0.0020505092, 10.002732, 9.9976015 
1.5552011e+3, 3.1502622e+2, 75616.42, -43544.832, 39421.91, 0.018733583, 0.40185046, 87477.65, 87477.65, 0.0035279482, 10.000851, 9.999255 
1.5649664e+3, 1.2502806e+2, -1972814.0, -1797154.5, 20437.217, 0.017498504, 0.261132, -1794808.1, -80064.41, 0.021849003, 9.998021, 10.000367 
1.5649787e+3, 1.3502793e+2, -1837517.5, -1590034.6, -5427.2397, -0.008883217, 0.114618465, -1589915.8, 26833.902, 0.013250772, 9.997881, 10.001207 
1.5649937e+3, 1.4503035e+2, -1675823.0, -1397570.0, -9119.111, 0.33265588, 0.21125793, -1397271.5, 121455.125, 0.0059556314, 9.998053, 10.0017605 
1.5650018e+3, 1.5503266e+2, -1505262.8, -1260994.4, -54486.71, -0.10362167, 0.23656374, -1249391.6, 171309.53, 0.0016345053, 9.998543, 10.00178 
1.5650138e+3, 1.6503385e+2, -1520233.0, -1418770.6, -22250.514, -0.2141644, 0.275689, -1414105.6, -91415.41, 0.00017771397, 9.998625, 9.9999895 
1.5650305e+3, 1.7503402e+2, -1414760.6, -1302338.6, -28469.27, 0.097001895, 0.26077664, -1295540.3, -70847.375, 0.0000016137079, 9.998611, 10.000119 
1.5650441e+3, 1.8503363e+2, -1309131.3, -1282456.0, -78868.34, 0.18948258, 0.25406116, -1215805.4, -89108.25, 0.0, 9.999023, 9.999379 
1.5650538e+3, 1.9503267e+2, -1055522.6, -1099076.6, -46666.715, 0.012456995, 0.18911771, -1025801.8, 2901.6956, 0.0, 10.000048, 9.999472 
1.565066e+3, 2.05032e+2, -966583.25, -1030299.2, 52124.496, -0.00869805, 0.19473438, -937352.0, -6641.4795, 0.0, 10.000096, 9.999244 
1.5650807e+3, 2.1503171e+2, -963483.4, -961234.6, 58924.246, 0.13185117, 0.20654212, -903424.06, -70706.66, 0.0, 9.999386, 9.999381 
1.5650924e+3, 2.2503196e+2, -823533.3, -844553.1, -4889.5874, 0.0804699, 0.29897773, -822451.56, -87734.9, 0.0, 9.999652, 9.9993925 
1.5651013e+3, 2.3503265e+2, -543218.1, -645547.06, -32606.158, -0.16276364, 0.39596704, -533711.7, 102997.43, 0.0, 10.000853, 9.999501 
1.565113e+3, 2.4503146e+2, -447101.22, -732848.4, 12444.324, -0.15542428, 0.41565362, -446560.28, 92160.15, 0.0, 10.001623, 9.9978695 
1.5651275e+3, 2.550284e+2, -285282.0, -585784.25, 42534.316, 0.090378575, 0.28701428, -279377.53, 161372.78, 0.00000039469393, 10.002001, 9.998015 
1.5651402e+3, 2.6502585e+2, -221838.7, -568793.7, 89112.24, 0.09425058, 0.2644836, -200289.45, 142486.97, 0.000008163994, 10.002041, 9.997441 
1.565151e+3, 2.7502367e+2, -170822.56, -487734.0, 31488.531, -0.14557181, 0.27270606, -167724.13, 77075.65, 0.000058543963, 10.001693, 9.997489 
1.5651631e+3, 2.8502148e+2, -58802.598, -416903.22, 15831.693, -0.22002651, 0.32879788, -58104.04, 88719.91, 0.00029613846, 10.001933, 9.997195 
1.5651762e+3, 2.9501927e+2, 173060.08, -243619.7, 50022.813, -0.13471486, 0.34706256, 178981.22, 227829.73, 0.00096595153, 10.002806, 9.997286 
1.5651895e+3, 3.0501777e+2, 273913.06, -105664.04, 74577.68, -0.050145194, 0.44712183, 288040.0, 288040.0, 0.0021626693, 10.002879, 9.997871 
1.565203e+3, 3.1501645e+2, 240031.98, 13091.27, -9368.829, 0.09872304, 0.48260537, 240418.1, 240418.1, 0.0037319711, 10.002008, 9.999111 
1.5749647e+3, 1.2501512e+2, -1946343.3, -1762683.6, -136398.95, -0.01910336, 0.13913716, -1690083.0, 24784.848, 0.023204513, 9.99809, 10.000584 
1.5749766e+3, 1.3501675e+2, -1843987.6, -1594603.4, 2396.4321, -0.028925002, 0.16488245, -1594580.3, 22272.95, 0.014108494, 9.997858, 10.001179 
1.5749896e+3, 1.4501657e+2, -1756944.5, -1596595.9, -3839.2341, 0.09232346, 0.07425442, -1596504.0, -77647.234, 0.0063687824, 9.998171, 10.000341 
1.5750016e+3, 1.5501812e+2, -1608276.0, -1471214.1, -31189.352, 0.0016904006, 0.17026228, -1464450.6, -43606.715, 0.00176415, 9.9985285, 10.000345 
1.5750138e+3, 1.6501935e+2, -1501705.5, -1391269.1, -37408.184, -0.097909495, 0.27566722, -1379790.9, -56956.117, 0.00019721544, 9.998666, 10.000158 
1.575028e+3, 1.750201e+2, -1406527.9, -1282418.3, -19430.04, -0.04730661, 0.3005131, -1279447.5, -54616.78, 0.0000019795527, 9.9986, 10.000259 
1.5750413e+3, 1.8502055e+2, -1227842.0, -1127572.3, -51264.117, -0.017363595, 0.31950143, -1106002.8, 20823.19, 0.0, 9.999074, 10.000422 
1.5750533e+3, 1.9502078e+2, -993265.8, -955762.7, -737.5026, -0.048254706, 0.27056783, -955748.2, 73071.87, 0.0, 9.999985, 10.000488 
1.5750661e+3, 2.0502067e+2, -948630.75, -974862.3, 15384.243, -0.017538508, 0.25732088, -941530.25, -10709.975, 0.0, 10.000011, 9.999664 
1.5750799e+3, 2.1502015e+2, -955212.1, -914101.1, 40571.08, 0.09843946, 0.2063052, -889175.4, -56348.55, 0.0, 9.999257, 9.999765 
1.5750924e+3, 2.250198e+2, -878394.75, -925336.06, 32476.8, 0.096354045, 0.24398652, -861795.3, -126963.37, 0.0, 9.999507, 9.998908 
1.5751037e+3, 2.3501953e+2, -600817.9, -728111.25, 21314.605, -0.017225279, 0.29136178, -597343.7, 39492.69, 0.0, 10.000694, 9.999012 
1.5751159e+3, 2.4501808e+2, -401633.3, -596317.94, 16325.392, -0.05716944, 0.25908187, -400273.84, 138574.75, 0.0, 10.001438, 9.998895 
1.5751286e+3, 2.550155e+2, -235473.4, -453074.9, 65729.45, -0.027696384, 0.07368339, -217160.19, 223708.28, 0.00000029448665, 10.001869, 9.99899 
1.5751408e+3, 2.6501396e+2, -329875.7, -761114.44, 68032.19, -0.07256825, 0.16910298, -319397.53, 23489.91, 0.000007127328, 10.001903, 9.996189 
1.5751524e+3, 2.7501324e+2, -270130.47, -666677.4, 33079.336, -0.19448397, 0.43998528, -267389.97, -22482.06, 0.000059012113, 10.001579, 9.996315 
1.5751651e+3, 2.850111e+2, 10750.459, -251657.56, 38221.223, -0.23272991, 0.49978006, 16204.249, 163137.22, 0.00030982727, 10.001833, 9.998381 
1.5751788e+3, 2.9500794e+2, 227287.8, -90941.414, 101460.84, -0.18193062, 0.3009381, 256883.97, 305843.03, 0.0010138974, 10.002627, 9.998424 
1.5751913e+3, 3.0500612e+2, 242102.94, -104273.94, 34233.79, -0.1772057, 0.3107027, 245453.97, 245453.97, 0.0022779866, 10.002623, 9.997983 
1.5752035e+3, 3.15006e+2, 157428.78, -57699.305, -13009.381, -0.10311089, 0.44256967, 158212.64, 158212.64, 0.003951802, 10.001622, 9.998781 
1.5849617e+3, 1.2500237e+2, -2176680.8, -1811041.0, -100330.38, -0.028176527, 0.06220964, -1785320.0, -70328.81, 0.024665277, 9.996248, 10.001126 
1.5849753e+3, 1.3500495e+2, -1798460.9, -1590238.5, 10239.259, 0.038965136, 0.1972234, -1589736.1, 27228.715, 0.0150364665, 9.998247, 10.001015 
1.5849873e+3, 1.4500391e+2, -1665657.6, -1614809.5, 10279.216, 0.003450251, 0.056817017, -1612810.1, -93833.4, 0.0068181083, 9.999081, 9.999768 
1.5850009e+3, 1.550049e+2, -1630811.3, -1547919.5, 18455.436, 0.0761079, 0.15493527, -1543996.3, -123024.54, 0.0019058621, 9.998651, 9.999761 
1.5850134e+3, 1.6500574e+2, -1523974.5, -1383149.1, 69536.87, 0.010067268, 0.24265136, -1354600.6, -31634.432, 0.0002187055, 9.99844, 10.000316 
1.5850267e+3, 1.750062e+2, -1366641.4, -1237821.0, 65901.06, -0.04384535, 0.21990514, -1210081.3, 14881.328, 0.000002466339, 9.998785, 10.000464 
1.5850401e+3, 1.8500689e+2, -1257317.5, -1120114.4, 31501.766, -0.01976251, 0.24099195, -1113227.3, 13728.174, 0.0, 9.998788, 10.000609 
1.5850534e+3, 1.9500786e+2, -1169202.1, -1014846.9, -1017.47064, 0.017234707, 0.2483783, -1014840.2, 14104.162, 0.0, 9.998672, 10.0007105 
1.5850662e+3, 2.0500827e+2, -1079522.9, -1028273.94, -16301.309, 0.034148693, 0.27230012, -1023528.25, -92588.06, 0.0, 9.999059, 9.99977 
1.585079e+3, 2.15008e+2, -832485.7, -847428.75, -31888.602, 0.05647216, 0.23696598, -807205.06, 25739.271, 0.0, 10.000033, 9.999867 
1.5850921e+3, 2.250074e+2, -744815.0, -847212.2, 7610.321, 0.082767285, 0.24035653, -744252.44, -9300.765, 0.0, 10.000381, 9.999028 
1.5851055e+3, 2.3500651e+2, -648358.75, -739164.94, 18466.795, 0.10222709, 0.2183435, -644746.94, -7784.894, 0.0, 10.0003195, 9.999128 
1.585118e+3, 2.450053e+2, -517836.03, -642490.9, 16932.285, 0.06343951, 0.20047085, -515577.0, 23395.854, 0.0, 10.000625, 9.998954 
1.58513e+3, 2.550038e+2, -308611.1, -484018.06, -29594.365, -0.044613924, 0.12068901, -303752.56, 137231.2, 0.00000023115544, 10.001359, 9.999014 
1.585142e+3, 2.650026e+2, -293037.75, -713886.94, -1609.3812, -0.1289316, 0.2357214, -293031.6, 49968.367, 0.0000061293663, 10.002033, 9.996442 
1.5851545e+3, 2.7500156e+2, -78362.62, -542554.3, 45889.44, -0.19210525, 0.45140234, -73869.53, 171153.06, 0.000060026516, 10.002774, 9.996581 
1.5851678e+3, 2.849996e+2, 127738.62, -208994.69, 64242.57, -0.19191848, 0.52230966, 139578.63, 286624.66, 0.0003212461, 10.002698, 9.998252 
1.5851814e+3, 2.9499698e+2, 91491.41, -164629.8, 2399.1675, -0.13693711, 0.38925946, 91513.875, 140582.2, 0.0010568721, 10.001719, 9.998348 
1.5851937e+3, 3.0499443e+2, 127853.2, -174413.05, -78367.14, -0.14990558, 0.33591408, 146962.94, 146962.94, 0.0023826924, 10.001851, 9.997913 
1.5852061e+3, 3.1499386e+2, 325012.06, -11609.54, -191381.8, -0.059160728, 0.4428439, 411565.0, 411565.0, 0.004144855, 10.002897, 9.998519 
1.594958e+3, 1.2499116e+2, -2099243.3, -1685764.4, 73115.03, -0.073390976, 0.13846613, -1673216.4, 41883.766, 0.026239868, 9.996364, 10.001948 
1.5949745e+3, 1.3499255e+2, -1826398.3, -1648519.1, 101993.266, 0.13009697, 0.19058162, -1602133.6, 14950.6875, 0.016040104, 9.998247, 10.000611 
1.5949863e+3, 1.4499241e+2, -1634654.3, -1583795.9, -18287.953, -0.04253952, 0.15253268, -1577902.6, -58816.156, 0.0073062, 9.999202, 9.999932 
1.5949993e+3, 1.5499319e+2, -1610683.5, -1515323.3, 9275.792, 0.031058133, 0.20577681, -1514429.3, -93346.87, 0.002060233, 9.998678, 9.999976 
1.5950122e+3, 1.6499329e+2, -1504683.8, -1358695.5, 66255.47, 0.013119505, 0.20274925, -1333110.1, -10028.211, 0.00024185247, 9.998506, 10.000453 
1.5950264e+3, 1.7499243e+2, -1360088.9, -1220745.6, 85804.13, 0.036026504, 0.034668434, -1179889.0, 45198.27, 0.0000030340082, 9.998772, 10.000588 
1.5950401e+3, 1.8499261e+2, -1294771.6, -1206769.1, 14045.473, 0.08566227, 0.029062232, -1204581.8, -77496.27, 0.0, 9.998821, 9.999998 
1.5950532e+3, 1.9499394e+2, -1222568.9, -1110990.0, 3818.0232, 0.12105692, 0.13017897, -1110859.5, -81783.72, 0.0, 9.998612, 10.000077 
1.5950657e+3, 2.0499489e+2, -1103650.3, -1062335.3, 10297.629, 0.054937456, 0.24934551, -1059910.8, -128840.8, 0.0, 9.998986, 9.99957 
1.5950778e+3, 2.1499535e+2, -869797.6, -885122.1, 12692.006, -0.07910981, 0.3054627, -862634.3, -29565.387, 0.0, 9.999869, 9.999685 
1.5950914e+3, 2.2499499e+2, -721570.75, -763771.0, -4738.9365, -0.057342913, 0.30551875, -721045.1, 14028.826, 0.0, 10.000219, 9.999681 
1.595106e+3, 2.3499371e+2, -627366.56, -660481.94, 29437.8, 0.11460551, 0.18090549, -610149.4, 26935.828, 0.0, 10.000164, 9.999744 
1.5951194e+3, 2.4499314e+2, -612824.44, -798657.6, 38883.242, 0.110426195, 0.2450352, -605016.6, -65923.97, 0.0, 10.000452, 9.997962 
1.5951313e+3, 2.5499314e+2, -399478.53, -632126.9, 10234.887, -0.054392308, 0.41351238, -399029.16, 42067.785, 0.00000009760233, 10.001197, 9.998068 
1.595144e+3, 2.6499167e+2, -200471.5, -494096.4, 15689.125, -0.16571598, 0.46713722, -199635.58, 143478.45, 0.0000054247644, 10.001905, 9.998015 
1.5951571e+3, 2.749887e+2, 5429.8486, -330114.56, 86836.42, -0.22914565, 0.32799262, 26570.525, 271713.88, 0.0000627863, 10.002603, 9.998124 
1.5951703e+3, 2.8498688e+2, 2891.627, -422940.97, 18184.738, -0.20676666, 0.40546358, 3666.7764, 150831.22, 0.0003316825, 10.002502, 9.996878 
1.5951836e+3, 2.9498604e+2, -24251.62, -368083.3, -14487.389, -0.11087128, 0.5877963, -23642.27, 25537.008, 0.0010852148, 10.001556, 9.997034 
1.5951964e+3, 3.0498254e+2, 69234.9, -237197.3, -48830.387, -0.08828252, 0.5183713, 76827.94, 76827.94, 0.0024471504, 10.001632, 9.997575 
1.5952103e+3, 3.149804e+2, 240008.92, -84719.26, -107210.54, 0.03918621, 0.502234, 272211.53, 272211.53, 0.004255502, 10.002499, 9.998192 
1.6049549e+3, 1.249771e+2, -1870259.3, -1593251.1, 27288.17, -0.09886784, 0.1610036, -1590588.6, 124647.48, 0.027939666, 9.998035, 10.001781 
1.6049728e+3, 1.3497773e+2, -1913302.6, -1697487.1, -30250.13, 0.16247733, 0.14671671, -1693327.3, -76097.875, 0.01712635, 9.997703, 10.000528 
1.6049854e+3, 1.4497815e+2, -1832331.0, -1622801.4, -129971.75, 0.03595812, 0.14862469, -1560628.1, -41401.688, 0.007836914, 9.997636, 10.000399 
1.6049978e+3, 1.5497953e+2, -1633348.3, -1465375.5, -112743.35, 0.049888253, 0.20898442, -1408774.6, 12441.097, 0.0022287087, 9.998283, 10.000491 
1.605011e+3, 1.6497988e+2, -1512479.0, -1361775.5, -23497.61, 0.05439618, 0.20512015, -1358196.8, -34984.414, 0.00026665046, 9.998451, 10.000458 
1.6050258e+3, 1.74979e+2, -1400510.9, -1241224.1, -33645.848, 0.12194762, 0.03627965, -1234408.8, -9190.698, 0.0000036433328, 9.998486, 10.000593 
1.6050397e+3, 1.8497913e+2, -1296438.6, -1207781.8, -63846.53, 0.15864018, 0.024896381, -1174383.8, -47166.855, 0.0, 9.998806, 9.999998 
1.6050522e+3, 1.949802e+2, -1067053.6, -1036181.25, -49428.38, 0.119416185, 0.101713166, -999834.8, 29374.602, 0.0, 9.999664, 10.000086 
1.6050649e+3, 2.0498095e+2, -948135.0, -975206.9, 14624.196, 0.04192346, 0.19731411, -941743.9, -10538.678, 0.0, 10.000017, 9.999668 
1.6050778e+3, 2.149814e+2, -843726.7, -857552.8, 15713.518, -0.06637748, 0.24094278, -833472.75, -268.7526, 0.0, 10.000001, 9.999804 
1.6050915e+3, 2.2498135e+2, -743479.94, -778133.94, -12058.6455, -0.041542582, 0.27143648, -739696.9, -4490.578, 0.0, 10.000091, 9.999634 
1.6051061e+3, 2.3498088e+2, -599617.3, -644095.7, -51423.094, 0.101117216, 0.22727135, -565830.44, 71381.016, 0.0, 10.000357, 9.9997425 
1.6051199e+3, 2.4498037e+2, -541103.2, -773431.75, 15791.358, 0.10242753, 0.300847, -540034.75, -815.84753, 0.0, 10.00097, 9.997901 
1.6051331e+3, 2.5497976e+2, -292137.0, -589427.1, 37427.508, -0.021565733, 0.41821572, -287497.44, 153731.56, 0.000000007673713, 10.001956, 9.998013 
1.6051462e+3, 2.649779e+2, -145856.33, -398258.63, 23380.715, -0.12602396, 0.40663257, -143708.78, 199538.78, 0.0000049768487, 10.001985, 9.99864 
1.6051589e+3, 2.7497482e+2, -181729.61, -357300.9, -8623.64, -0.21963905, 0.20175807, -181307.06, 63966.83, 0.00006482946, 10.00103, 9.998711 
1.6051723e+3, 2.8497332e+2, -171517.64, -521036.75, -18958.473, -0.210864, 0.2872506, -170492.31, -23201.125, 0.00033743004, 10.001353, 9.9967575 
1.6051859e+3, 2.9497328e+2, 192105.47, -273112.97, 5587.6, -0.110073715, 0.56304973, 192172.58, 241472.88, 0.001089985, 10.003094, 9.99694 
1.6051991e+3, 3.0496946e+2, 356051.4, -125287.42, 41524.82, -0.07050034, 0.4744309, 359607.47, 359607.47, 0.0024499798, 10.003714, 9.997331 
1.6052142e+3, 3.1496635e+2, 330491.53, -32397.863, -55783.887, 0.15468143, 0.38508242, 338873.13, 338873.13, 0.0042540943, 10.003043, 9.998289 
1.6149528e+3, 1.2495951e+2, -1940765.0, -1789724.0, 2451.4958, -0.16300216, 0.05554369, -1789684.3, -74278.85, 0.02978273, 9.99824, 10.000322 
1.6149694e+3, 1.3496092e+2, -1899123.6, -1670387.0, -43649.84, 0.03711437, 0.103193894, -1662340.4, -44944.977, 0.018308382, 9.997707, 10.000717 
1.6149843e+3, 1.449615e+2, -1765951.8, -1507213.4, -116807.27, 0.124379754, 0.07357302, -1462283.0, 57109.887, 0.008418617, 9.997719, 10.001159 
1.6149963e+3, 1.5496388e+2, -1578347.3, -1357190.5, -80588.95, 0.04557176, 0.16303976, -1330940.0, 90431.72, 0.0024150687, 9.998309, 10.001223 
1.6150095e+3, 1.649654e+2, -1497974.3, -1365256.4, -38978.58, 0.032322004, 0.24202728, -1354655.4, -31296.943, 0.0002938315, 9.998578, 10.00038 
1.6150247e+3, 1.749659e+2, -1404778.1, -1256793.0, -25893.994, 0.13636704, 0.22104129, -1252392.9, -27038.35, 0.000004294035, 9.9985, 10.000485 
1.6150382e+3, 1.8496637e+2, -1255037.0, -1126997.0, -42852.758, 0.10638533, 0.22332531, -1113978.6, 13371.151, 0.0, 9.998832, 10.000538 
1.6150503e+3, 1.9496673e+2, -1036438.4, -960258.4, -8152.9087, -0.06671132, 0.17130215, -959395.6, 69948.87, 0.0, 9.999615, 10.00063 
1.6150637e+3, 2.0496666e+2, -938065.94, -929683.2, 42.180336, -0.1046787, 0.1383878, -929683.0, 1661.476, 0.0, 9.99991, 10.0000305 
1.6150787e+3, 2.149662e+2, -837021.6, -815749.6, 22549.914, 0.016241625, 0.053951707, -801453.25, 31895.887, 0.0, 9.999883, 10.000145 
1.6150926e+3, 2.2496656e+2, -822851.3, -901959.44, -12589.066, 0.043674164, 0.14780359, -820896.25, -85547.64, 0.0, 9.999919, 9.998865 
1.6151054e+3, 2.3496778e+2, -674649.8, -763254.44, -30017.543, -0.026352935, 0.34997857, -665438.1, -28095.6, 0.0, 10.000205, 9.998996 
1.6151194e+3, 2.4496686e+2, -504364.25, -663668.06, 41098.203, -0.058834717, 0.3777668, -494386.44, 44966.3, 0.0, 10.000817, 9.998731 
1.615135e+3, 2.549638e+2, -259381.73, -480693.53, 87017.26, -0.04177298, 0.15666035, -229265.72, 212113.08, 0.00000000987263, 10.0017805, 9.998842 
1.6151486e+3, 2.6496145e+2, -206495.38, -475243.56, -23439.455, -0.1114154, 0.07687002, -204466.38, 138933.31, 0.000004852571, 10.00178, 9.998207 
1.6151597e+3, 2.7495977e+2, -234022.06, -426390.16, -29197.992, -0.26471788, 0.054643825, -229687.98, 15728.142, 0.00006465758, 10.000881, 9.998297 
1.6151729e+3, 2.8495893e+2, -123060.1, -392820.1, 31983.34, -0.30456442, 0.17837422, -119319.94, 28106.527, 0.0003366383, 10.001227, 9.997703 
1.6151878e+3, 2.9495886e+2, 229296.44, -151922.03, 87887.9, -0.24089457, 0.3506407, 248582.81, 298013.2, 0.0010765177, 10.002898, 9.997872 
1.6152015e+3, 3.04955e+2, 311350.94, -155312.48, 1506.2418, -0.21618135, 0.21958575, 311355.8, 311355.8, 0.0024046022, 10.0034685, 9.997224 
1.6152167e+3, 3.149519e+2, 316989.78, 35798.945, -33223.863, 0.07189111, 0.13643268, 320862.0, 320862.0, 0.004159513, 10.002684, 9.998901 
1.6249527e+3, 1.2494378e+2, -1982204.1, -1813517.0, 66620.91, 0.02027467, 0.025260728, -1790379.5, -74817.21, 0.03179242, 9.9979725, 10.000276 
1.6249658e+3, 1.3494644e+2, -1838417.5, -1575209.5, 45409.484, -0.08545775, 0.13201036, -1567595.6, 49943.934, 0.019603958, 9.997818, 10.001324 
1.624981e+3, 1.449471e+2, -1784152.5, -1478214.1, 32584.404, 0.059883326, 0.06483391, -1474782.1, 44753.49, 0.009062119, 9.997442, 10.00149 
1.6249952e+3, 1.549498e+2, -1613111.0, -1328531.3, 26150.402, 0.124437235, 0.14870316, -1326148.1, 95362.836, 0.002624408, 9.997883, 10.001624 
1.6250089e+3, 1.6495182e+2, -1541972.4, -1373552.8, 67528.516, 0.13355218, 0.2513102, -1349820.9, -26327.713, 0.00032476612, 9.998242, 10.000474 
1.6250227e+3, 1.749529e+2, -1377287.9, -1230079.1, 70321.16, 0.087310374, 0.27736932, -1201886.4, 23598.209, 0.000005034694, 9.998653, 10.000582 
1.6250364e+3, 1.8495333e+2, -1265026.1, -1141986.4, 68759.31, 0.046503607, 0.27721766, -1111242.8, 16237.39, 0.0, 9.998806, 10.000452 
1.62505e+3, 1.949532e+2, -1150423.0, -1016183.4, 38950.203, 0.0005574066, 0.17961271, -1005700.4, 23778.926, 0.0, 9.998851, 10.000608 
1.6250643e+3, 2.0495309e+2, -1030753.06, -971117.25, 31456.678, 0.004955542, 0.14209913, -957592.0, -26113.11, 0.0, 9.99926, 10.000059 
1.6250792e+3, 2.1495298e+2, -803654.2, -798196.3, 11056.449, 0.06306426, 0.09221282, -789537.0, 43942.38, 0.0, 10.000099, 10.000167 
1.625093e+3, 2.2495317e+2, -716142.75, -887688.5, -4446.988, 0.0548199, 0.1835184, -716027.56, 19453.033, 0.0, 10.000797, 9.998544 
1.6251059e+3, 2.3495363e+2, -533400.06, -736527.9, -12065.827, -0.03819409, 0.34301814, -532685.9, 104796.93, 0.0, 10.001336, 9.998643 
1.6251203e+3, 2.449525e+2, -432239.22, -589864.3, 61205.227, -0.058421165, 0.3517553, -411264.5, 128229.85, 0.0, 10.001149, 9.999072 
1.6251363e+3, 2.5494972e+2, -453483.5, -539056.9, 42024.492, -0.025082286, 0.12968162, -436297.2, 5218.272, 0.000000011745934, 10.000285, 9.999163 
1.6251501e+3, 2.6494762e+2, -386183.13, -602005.56, -46448.934, -0.074248955, 0.076604076, -376611.0, -33076.977, 0.0000048598445, 10.00072, 9.997847 
1.6251619e+3, 2.7494615e+2, -24871.371, -369999.47, -73325.11, -0.2047949, 0.113971084, -9938.961, 235611.44, 0.00006306325, 10.002495, 9.99791 
1.6251758e+3, 2.8494498e+2, 146325.9, -213471.55, -7324.0596, -0.2167541, 0.20337169, 146474.94, 294037.63, 0.00033149842, 10.002878, 9.998136 
1.6251913e+3, 2.9494402e+2, 115397.69, -161157.5, -31092.242, -0.14043, 0.24469289, 118850.19, 168421.42, 0.0010551804, 10.001917, 9.998281 
1.6252048e+3, 3.0494022e+2, 185857.53, -260277.69, -86407.92, -0.186698, 0.11781798, 202008.4, 202008.4, 0.0023358958, 10.00278, 9.996855 
1.6252199e+3, 3.1493723e+2, 725712.25, 214150.9, -183313.53, -0.01045506, 0.09531529, 784618.1, 784618.1, 0.0040083933, 10.005526, 9.998806 
1.6349526e+3, 1.2493035e+2, -1859719.6, -1584636.3, -67971.02, 0.15973356, 0.090771034, -1568757.6, 146944.77, 0.03398967, 9.998062, 10.001834 
1.634962e+3, 1.3493428e+2, -1770149.1, -1443050.4, 35893.14, -0.28395283, 0.22835071, -1439158.1, 178503.53, 0.02102759, 9.997849, 10.002232 
1.6349757e+3, 1.449349e+2, -1762788.9, -1468826.5, 22086.07, -0.2663532, 0.11431822, -1467176.4, 52479.066, 0.009775217, 9.997577, 10.001497 
1.6349939e+3, 1.5493752e+2, -1606243.8, -1315411.0, 50191.965, 0.18696272, 0.17975217, -1306992.5, 114639.1, 0.002860367, 9.997886, 10.001715 
1.6350086e+3, 1.6493933e+2, -1518379.6, -1339061.0, 71405.83, 0.25489056, 0.24678573, -1314101.1, 9513.627, 0.00036087315, 9.998297, 10.000689 
1.6350196e+3, 1.7493998e+2, -1364707.5, -1205542.4, 89803.6, -0.102292836, 0.21231514, -1165133.0, 60475.383, 0.000005927034, 9.99866, 10.000748 
1.6350338e+3, 1.8493997e+2, -1296122.5, -1221511.9, 57951.023, -0.115638204, 0.18953207, -1189896.9, -62288.047, 0.0, 9.998864, 9.999883 
1.6350515e+3, 1.949395e+2, -1193704.6, -1102421.4, 47597.98, 0.23657481, 0.11567833, -1082118.1, -52503.2, 0.0, 9.99883, 10.000032 
1.6350666e+3, 2.0494002e+2, -1063900.4, -1021075.2, 52452.926, 0.274144, 0.18652143, -985832.6, -54221.742, 0.0, 9.999177, 9.999759 
1.6350788e+3, 2.1494156e+2, -842298.56, -853320.0, 53750.125, -0.005362206, 0.33203283, -793777.4, 39819.367, 0.0, 9.999983, 9.999849 
1.6350923e+3, 2.2494105e+2, -744320.6, -899835.5, 7927.886, -0.114108056, 0.37000728, -743917.56, -8314.034, 0.0, 10.000597, 9.998555 
1.6351075e+3, 2.349385e+2, -554496.3, -742759.06, 18631.89, -0.025722183, 0.22169079, -552670.1, 84961.07, 0.0, 10.001175, 9.998675 
1.6351222e+3, 2.449373e+2, -476215.8, -636112.3, 18549.38, -0.0028418927, 0.23130177, -474092.13, 65551.24, 0.0, 10.000957, 9.998846 
1.6351363e+3, 2.5493744e+2, -483707.6, -575707.44, 21241.564, -0.05832159, 0.32676074, -479040.0, -37400.043, 0.000000006263202, 10.000181, 9.998958 
1.6351506e+3, 2.649364e+2, -423088.78, -660128.75, 9736.651, -0.10834337, 0.4050939, -422689.5, -79038.945, 0.000005059976, 10.000624, 9.997502 
1.6351652e+3, 2.7493405e+2, -69338.125, -429179.28, 13003.999, -0.14122495, 0.38096616, -68868.8, 176807.0, 0.000060994436, 10.00234, 9.997582 
1.6351801e+3, 2.849315e+2, 102842.24, -255548.97, -52237.207, -0.081096604, 0.360185, 110300.836, 258000.66, 0.0003219481, 10.002684, 9.997934 
1.6351955e+3, 2.9492873e+2, 74302.97, -204662.22, -47226.38, 0.05944167, 0.24215424, 82081.11, 131803.84, 0.0010249827, 10.001754, 9.998054 
1.6352086e+3, 3.049251e+2, 103010.45, -378134.25, 2382.8198, -0.10896974, 0.18142663, 103022.26, 103022.26, 0.0022521797, 10.002555, 9.996149 
1.6352233e+3, 3.1492218e+2, 616282.6, 97862.9, -34719.156, -0.26681602, 0.22235166, 618597.44, 618597.44, 0.0038299796, 10.005068, 9.998212 
1.6449504e+3, 1.2491861e+2, -1978506.4, -1632844.0, 59846.293, 0.17298874, 0.18032797, -1622775.8, 93045.65, 0.036383986, 9.997233, 10.0019 
1.6449606e+3, 1.3492224e+2, -1810510.1, -1436014.9, 65163.848, -0.16630618, 0.27032915, -1425000.0, 192781.2, 0.022584815, 9.997463, 10.002476 
1.6449732e+3, 1.449228e+2, -1789818.8, -1511954.1, 77225.95, -0.2637811, 0.15193251, -1491933.5, 27841.104, 0.010560797, 9.997523, 10.0012245 
1.6449916e+3, 1.54925e+2, -1488426.6, -1292511.0, 62336.043, 0.14516255, 0.20209526, -1274358.9, 147396.02, 0.0031241647, 9.998821, 10.001427 
1.6450073e+3, 1.6492644e+2, -1350683.4, -1263315.9, 59409.406, 0.2368491, 0.24560454, -1233258.5, 90483.19, 0.0004029895, 9.999469, 10.000646 
1.6450189e+3, 1.7492686e+2, -1239967.8, -1153940.5, 41495.426, -0.0819158, 0.19718216, -1137187.5, 88549.734, 0.0000070009137, 9.999543, 10.000685 
1.6450334e+3, 1.84927e+2, -1195785.5, -1205598.3, 30153.531, -0.08382297, 0.20607369, -1170141.8, -42404.254, 0.0, 9.99971, 9.999571 
1.6450511e+3, 1.9492696e+2, -1015282.2, -1050778.8, 15570.765, 0.24368383, 0.20587495, -1009420.06, 20321.303, 0.0, 10.000213, 9.999712 
1.6450663e+3, 2.0492718e+2, -912185.94, -999183.2, 49362.78, 0.27588314, 0.2843023, -889890.9, 41850.465, 0.0, 10.000437, 9.9993 
1.6450788e+3, 2.1492769e+2, -810142.44, -882489.2, 20688.799, -0.0049564173, 0.37193808, -804644.0, 29092.697, 0.0, 10.00041, 9.99943 
1.645093e+3, 2.2492677e+2, -765046.5, -897421.5, -10866.383, -0.09526702, 0.38330027, -764160.44, -28414.078, 0.0, 10.000407, 9.998671 
1.6451086e+3, 2.3492429e+2, -652083.06, -778613.6, -14371.916, 0.014709934, 0.2342754, -650471.2, -12699.9375, 0.0, 10.000458, 9.998784 
1.6451237e+3, 2.4492303e+2, -492040.53, -684464.8, -3156.3499, 0.045198012, 0.25118178, -491988.78, 47795.324, 0.0, 10.001028, 9.998479 
1.6451377e+3, 2.5492296e+2, -227419.34, -500238.25, -33662.785, -0.03517194, 0.36791557, -223327.13, 218457.64, 0.000000005166704, 10.002146, 9.998536 
1.6451524e+3, 2.649218e+2, -150462.44, -493636.9, 3588.929, -0.07989289, 0.4449386, -150424.92, 193370.9, 0.000005473011, 10.002348, 9.997804 
1.6451678e+3, 2.7491948e+2, -136005.52, -421785.1, 16340.215, -0.09522872, 0.38892865, -135074.25, 110743.72, 0.000058881178, 10.001729, 9.9979105 
1.645183e+3, 2.8491658e+2, -22717.984, -375844.66, -24637.375, -0.026997996, 0.3391561, -21007.34, 126837.87, 0.0003079229, 10.002084, 9.997398 
1.6451985e+3, 2.9491317e+2, 252539.33, -181700.4, -73546.81, 0.12168403, 0.21932949, 264657.72, 314533.94, 0.0009850244, 10.0032625, 9.997481 
1.645212e+3, 3.0491042e+2, 240638.55, -319962.94, 48995.594, -0.06103005, 0.28124258, 244888.47, 244888.47, 0.0021618162, 10.003491, 9.996113 
1.6452268e+3, 3.1490806e+2, 239428.08, -105573.12, 1472.2545, -0.27426398, 0.37593815, 239434.36, 239434.36, 0.0036592754, 10.002545, 9.998022 
1.6549452e+3, 1.2490866e+2, -2056798.1, -1820128.8, 153106.97, -0.11380397, 0.30655366, -1744956.8, -29038.385, 0.03897044, 9.997363, 10.000519 
1.6549617e+3, 1.3491069e+2, -1842828.4, -1497600.0, 56718.125, 0.17505257, 0.28254014, -1488520.5, 129374.54, 0.024272982, 9.997439, 10.002058 
1.6549733e+3, 1.4491104e+2, -1825123.1, -1592756.4, 102640.945, -0.03352562, 0.1888306, -1553911.6, -34020.8, 0.0114189135, 9.997552, 10.000656 
1.6549885e+3, 1.5491237e+2, -1537530.1, -1397134.8, 120063.43, -0.084663115, 0.22311409, -1328253.5, 93626.32, 0.0034161112, 9.998836, 10.000701 
1.6550043e+3, 1.649132e+2, -1351306.8, -1293941.1, 50397.51, -0.032701854, 0.25871038, -1264635.9, 59237.547, 0.00045137366, 9.99958, 10.000386 
1.6550201e+3, 1.749137e+2, -1251616.9, -1178126.8, 50387.17, 0.06818544, 0.23402019, -1152509.4, 73360.75, 0.000008273259, 9.999544, 10.000515 
1.6550347e+3, 1.8491447e+2, -1198472.1, -1225143.9, 39513.742, 0.05583633, 0.32035014, -1170104.5, -42238.98, 0.0, 9.999758, 9.999419 
1.6550484e+3, 1.949155e+2, -1031430.25, -1080523.5, 40888.273, -0.051778816, 0.44451326, -1008286.4, 21573.002, 0.0, 10.000183, 9.999529 
1.6550632e+3, 2.0491455e+2, -968637.25, -1092473.5, 39405.914, -0.08240324, 0.44676346, -957161.4, -25291.49, 0.0, 10.000338, 9.998705 
1.6550793e+3, 2.1491154e+2, -869241.75, -975259.75, 28010.303, -0.019036245, 0.23489277, -862296.3, -28398.322, 0.0, 10.00028, 9.998855 
1.6550946e+3, 2.2491021e+2, -772594.75, -880072.25, -19995.791, 0.0065795016, 0.22758266, -768995.2, -33085.055, 0.0, 10.000262, 9.998861 
1.6551091e+3, 2.3491076e+2, -658844.4, -761660.9, -60.45093, -0.00010894397, 0.36137077, -658844.4, -20939.074, 0.0, 10.000322, 9.998968 
1.6551243e+3, 2.4490948e+2, -557283.44, -781432.56, 33197.902, -0.020447563, 0.3992707, -552469.94, -12551.917, 0.0, 10.000863, 9.997891 
1.6551399e+3, 2.5490636e+2, -291999.56, -593043.94, 21214.883, -0.03800812, 0.26121062, -290511.88, 151437.14, 0.00000000856411, 10.001982, 9.997969 
1.655155e+3, 2.64904e+2, -120678.82, -399050.0, -29622.781, -0.07993381, 0.2092722, -117561.43, 226407.6, 0.0000057188686, 10.002197, 9.998531 
1.6551691e+3, 2.7490237e+2, -96889.5, -315969.53, 7143.564, -0.15489367, 0.15009856, -96656.81, 149321.38, 0.00005720022, 10.001615, 9.998696 
1.655184e+3, 2.8490007e+2, -105747.37, -509385.63, 5784.8945, -0.1506237, 0.15942807, -105664.48, 42335.613, 0.0002952708, 10.00191, 9.996569 
1.6552001e+3, 2.9489702e+2, 174090.64, -316236.66, -9335.91, -0.051653888, 0.15920413, 174268.34, 224302.95, 0.00095027586, 10.003126, 9.996628 
1.6552146e+3, 3.0489588e+2, 228676.19, -271674.94, 2040.4727, -0.17028646, 0.39604744, 228684.5, 228684.5, 0.0020945515, 10.003204, 9.996572 
1.6552301e+3, 3.1489444e+2, 185861.98, -130496.03, 24243.475, -0.23834737, 0.5391105, 187709.06, 187709.06, 0.003546205, 10.002178, 9.998024 
1.6649424e+3, 1.24894254e+2, -2159802.5, -1900763.3, 33153.33, -0.09192436, 0.2902812, -1896587.4, -180525.27, 0.041736465, 9.996764, 10.000266 
1.6649598e+3, 1.3489683e+2, -1834948.9, -1488303.3, -143282.52, 0.24277152, 0.31486496, -1436746.9, 181287.02, 0.026087236, 9.997444, 10.002134 
1.6649722e+3, 1.4489742e+2, -1827706.1, -1608616.9, -20445.002, 0.10977909, 0.2480056, -1606725.3, -86698.39, 0.012349877, 9.997605, 10.000516 
1.6649866e+3, 1.5489772e+2, -1688432.8, -1480745.3, 25642.063, -0.09944795, 0.1935649, -1477626.1, -55601.53, 0.003737191, 9.99786, 10.000587 
1.6650027e+3, 1.648984e+2, -1542017.4, -1395488.3, -6229.263, -0.09277842, 0.22456957, -1395223.9, -71203.76, 0.00050616945, 9.998335, 10.000279 
1.6650197e+3, 1.7489943e+2, -1300412.1, -1215963.8, -24143.08, 0.08810867, 0.26466942, -1209548.8, 16464.621, 0.000009797576, 9.999265, 10.000391 
1.6650347e+3, 1.8490036e+2, -1173791.4, -1201325.8, -886.15576, 0.088515125, 0.37100428, -1173762.9, -45755.45, 0.0, 9.999887, 9.999511 
1.6650482e+3, 1.9490132e+2, -972902.75, -1035177.2, 1680.6151, -0.11043173, 0.4773174, -972857.44, 57143.34, 0.0, 10.000534, 9.999653 
1.665063e+3, 2.0490019e+2, -912692.25, -1076368.0, 23133.748, -0.15642536, 0.45692474, -909485.4, 22526.895, 0.0, 10.000765, 9.9986105 
1.6650794e+3, 2.148969e+2, -829426.44, -966803.25, 29347.598, -0.040151905, 0.22924274, -823419.56, 10622.951, 0.0, 10.000599, 9.998759 
1.6650954e+3, 2.2489539e+2, -697022.7, -878183.06, 20349.896, 0.03510111, 0.22231884, -694764.9, 41291.625, 0.0, 10.000934, 9.99854 
1.6651107e+3, 2.348958e+2, -461366.34, -697999.25, -20827.74, 0.059553925, 0.371756, -459547.13, 178506.13, 0.0, 10.001816, 9.998672 
1.6651262e+3, 2.4489436e+2, -403348.28, -729083.7, 19968.61, 0.04733609, 0.41534865, -402128.72, 137939.14, 0.0, 10.001994, 9.997723 
1.665142e+3, 2.5489095e+2, -375389.84, -651326.75, 20443.113, -0.0027877917, 0.269206, -373883.53, 68217.99, 0.0000000057748837, 10.001472, 9.997826 
1.6651571e+3, 2.648884e+2, -215984.33, -444802.84, -26033.346, -0.046751168, 0.20696516, -213059.81, 131063.81, 0.0000055479773, 10.001558, 9.99852 
1.6651715e+3, 2.7488673e+2, 4866.9766, -280942.4, -72401.164, -0.10511303, 0.14738768, 22161.158, 268295.1, 0.000055377644, 10.002357, 9.998594 
1.6651867e+3, 2.848844e+2, 37389.426, -435107.03, -27998.363, -0.1165866, 0.16322534, 39042.72, 187198.63, 0.00028510438, 10.002864, 9.9966135 
1.6652028e+3, 2.948817e+2, 162410.89, -312211.44, -20413.705, -0.08706391, 0.19465436, 163287.27, 213474.14, 0.00092673383, 10.003028, 9.99669 
1.6652176e+3, 3.0488074e+2, 257064.77, -229848.67, 7539.8896, -0.18049407, 0.43478528, 257181.5, 257181.5, 0.0020606113, 10.00327, 9.996823 
1.6652338e+3, 3.1487924e+2, 326205.56, -77352.47, -42418.082, -0.13328806, 0.5511382, 330615.94, 330615.94, 0.003506679, 10.003221, 9.99788 
1.6749418e+3, 1.2487583e+2, -2072346.4, -1721958.3, 48487.27, 0.121754006, 0.18863854, -1715372.3, 876.5152, 0.044670317, 9.9967785, 10.001482 
1.6749543e+3, 1.3488072e+2, -1793157.6, -1408461.9, -121322.05, -0.06738204, 0.38267565, -1373396.5, 244800.63, 0.028026333, 9.997466, 10.002687 
1.6749698e+3, 1.4488177e+2, -1783446.4, -1538925.5, -27840.27, 0.06616578, 0.31039527, -1535795.8, -15611.676, 0.013357116, 9.997694, 10.000953 
1.6749859e+3, 1.548811e+2, -1657970.4, -1419747.0, 43801.773, 0.01874506, 0.115328796, -1411948.6, 10240.095, 0.004090086, 9.997861, 10.001011 
1.6750018e+3, 1.6488191e+2, -1531802.6, -1390579.9, 15665.16, -0.047983345, 0.13663775, -1388863.1, -64680.734, 0.0005678562, 9.998402, 10.000283 
1.6750172e+3, 1.7488404e+2, -1308785.6, -1225305.3, 16760.682, -0.09588246, 0.29119563, -1222065.9, 4100.867, 0.000011659807, 9.999236, 10.000341 
1.6750333e+3, 1.8488486e+2, -1141946.3, -1149209.9, 11818.728, -0.08890542, 0.37178338, -1133213.9, -5052.431, 0.0, 9.999934, 9.999855 
1.6750498e+3, 1.9488442e+2, -955931.0, -990958.7, 32667.715, -0.024518233, 0.30615923, -936378.5, 93787.39, 0.0, 10.000487, 9.999987 
1.6750652e+3, 2.0488401e+2, -891303.9, -1017084.5, 5763.77, -0.043967985, 0.31856424, -891040.3, 41129.152, 0.0, 10.000696, 9.999052 
1.6750792e+3, 2.148836e+2, -820430.75, -920964.44, 31227.313, -0.14599471, 0.33865055, -811520.75, 22651.537, 0.0, 10.000473, 9.99914 
1.6750951e+3, 2.248821e+2, -785903.9, -1015893.4, 44210.137, -0.102966666, 0.3557473, -777698.25, -41511.13, 0.0, 10.000734, 9.997688 
1.6751131e+3, 2.3487946e+2, -544682.4, -835543.3, 20700.54, 0.10712326, 0.2877389, -543216.5, 94997.945, 0.0, 10.001664, 9.997799 
1.6751292e+3, 2.4487762e+2, -408118.5, -701131.8, -11089.228, 0.14140558, 0.32078657, -407699.4, 132533.95, 0.0, 10.001828, 9.997994 
1.6751434e+3, 2.5487667e+2, -378437.1, -621438.8, 12929.098, -0.014660047, 0.3916279, -377751.13, 64491.75, 0.0000000017385277, 10.001316, 9.998104 
1.6751584e+3, 2.648749e+2, -295914.9, -574046.2, -4574.9077, -0.08389634, 0.43077824, -295839.7, 48420.742, 0.0000048816705, 10.001391, 9.997717 
1.6751745e+3, 2.7487212e+2, -70540.8, -412987.1, -23170.18, -0.047311906, 0.3479235, -68980.195, 177307.52, 0.000051551386, 10.002243, 9.997747 
1.6751905e+3, 2.8486934e+2, 55193.39, -353781.06, -28816.104, -0.05359668, 0.33067948, 57213.777, 205527.77, 0.0002714196, 10.002674, 9.997265 
1.675206e+3, 2.9486692e+2, 199279.22, -207643.38, 10154.227, -0.10848089, 0.31069824, 199532.45, 249867.97, 0.00089928973, 10.002888, 9.997483 
1.6752207e+3, 3.0486485e+2, 208893.69, -252298.7, -2331.5005, -0.22677805, 0.39548847, 208905.47, 208905.47, 0.0020308413, 10.002961, 9.996807 
1.675237e+3, 3.14862e+2, 259655.94, -147380.39, -9692.84, -0.18514866, 0.38143665, 259886.63, 259886.63, 0.0034965475, 10.002945, 9.997519 
1.6849405e+3, 1.2486049e+2, -2001504.4, -1697063.6, 165703.5, 0.29716668, 0.25485736, -1624275.9, 92125.33, 0.04776628, 9.997311, 10.001414 
1.6849509e+3, 1.3486476e+2, -1691601.0, -1348823.8, -27713.78, -0.18495263, 0.37300402, -1346597.5, 271758.56, 0.030093629, 9.998127, 10.002782 
1.6849683e+3, 1.4486606e+2, -1617385.1, -1462566.3, 24979.31, 0.11361399, 0.320715, -1458635.8, 61705.164, 0.0144471, 9.998842, 10.000931 
1.6849849e+3, 1.5486574e+2, -1520679.5, -1359030.0, 31263.94, 0.08931518, 0.16312501, -1353194.0, 69148.71, 0.004479329, 9.998827, 10.000967 
1.6850007e+3, 1.648667e+2, -1479390.5, -1349782.8, 30194.803, -0.0070213703, 0.19981751, -1343093.5, -18758.805, 0.0006375465, 9.998704, 10.000415 
1.6850163e+3, 1.7486893e+2, -1334679.1, -1213720.5, 30824.885, -0.105936944, 0.3444524, -1206318.1, 19999.168, 0.00001399049, 9.998968, 10.000538 
1.6850325e+3, 1.8486953e+2, -1269488.8, -1211982.1, 27624.701, -0.091924705, 0.39126483, -1200862.1, -72548.805, 0.0, 9.999073, 9.999833 
1.6850498e+3, 1.9486846e+2, -1150598.1, -1092320.8, 5956.3647, -0.0012572224, 0.268085, -1091718.3, -61395.203, 0.0, 9.999172, 9.999929 
1.6850656e+3, 2.0486814e+2, -1043303.0, -1082327.9, -33377.684, 0.004612181, 0.2901527, -1024152.75, -91826.74, 0.0, 9.999625, 9.999123 
1.6850804e+3, 2.1486872e+2, -815317.0, -904903.44, -56052.02, -0.07429632, 0.40407303, -788358.8, 45961.434, 0.0, 10.000463, 9.999254 
1.6850965e+3, 2.2486728e+2, -727681.3, -1000801.56, 11178.617, -0.0626386, 0.4257201, -727224.5, 9109.882, 0.0, 10.001172, 9.997598 
1.685114e+3, 2.3486367e+2, -543714.8, -846534.75, 29001.434, 0.033445407, 0.2704759, -540962.3, 97407.484, 0.0, 10.001714, 9.997714 
1.6851303e+3, 2.4486165e+2, -378718.28, -661934.6, 1300.4303, 0.06810545, 0.28172857, -378712.3, 161677.06, 0.0, 10.001928, 9.998201 
1.6851452e+3, 2.5486135e+2, -290150.84, -561672.7, -7678.246, 0.022285026, 0.39479226, -289933.88, 152458.33, 0.0000000018399801, 10.001831, 9.998267 
1.6851607e+3, 2.6485986e+2, -255051.8, -611722.5, 38310.934, -0.016411433, 0.4818638, -250983.13, 93425.484, 0.0000039092515, 10.001921, 9.997204 
1.6851768e+3, 2.7485713e+2, -93005.69, -470148.72, 16485.936, -0.046793655, 0.4540701, -92286.414, 154153.11, 0.000046409757, 10.002324, 9.997298 
1.685193e+3, 2.8485435e+2, 108752.33, -283290.16, 31907.213, -0.06309797, 0.43573567, 111332.19, 259799.2, 0.00025645504, 10.002842, 9.997678 
1.6852094e+3, 2.948518e+2, 314100.84, -99286.01, 19736.635, -0.07390897, 0.36382648, 315041.0, 365528.16, 0.0008662299, 10.0034485, 9.997962 
1.6852242e+3, 3.048491e+2, 346279.88, -153600.84, 17701.443, -0.19570157, 0.34428522, 346905.94, 346905.94, 0.0019879541, 10.003728, 9.997143 
1.68524e+3, 3.1484628e+2, 329568.3, -112773.6, -21580.38, -0.179717, 0.32350343, 330618.66, 330618.66, 0.0034694332, 10.003364, 9.997604 
1.6949369e+3, 1.2484711e+2, -2086810.1, -1907716.8, 24086.387, 0.14596641, 0.34716865, -1904533.9, -188003.67, 0.051028147, 9.997442, 9.99989 
1.6949491e+3, 1.3484883e+2, -1732591.0, -1417502.8, 26522.56, -0.20082834, 0.26423302, -1415285.9, 203225.33, 0.032295942, 9.998065, 10.002328 
1.6949679e+3, 1.4485037e+2, -1640630.4, -1529119.0, 22635.26, 0.14451982, 0.27902204, -1524699.5, -4203.4277, 0.015627254, 9.998915, 10.00044 
1.6949832e+3, 1.5485181e+2, -1557749.8, -1444265.5, 37831.504, 0.024363609, 0.35833195, -1432810.3, -10325.509, 0.004910431, 9.998859, 10.000368 
1.694999e+3, 1.6485289e+2, -1441611.4, -1291332.5, 24432.455, -0.07619674, 0.41896793, -1287460.0, 37015.934, 0.0007170378, 9.998783, 10.00078 
1.6950162e+3, 1.7485419e+2, -1307757.8, -1158983.1, 47730.863, -0.023693051, 0.43307787, -1144986.6, 81477.59, 0.000016975888, 9.998967, 10.0009165 
1.6950327e+3, 1.8485442e+2, -1287599.8, -1263666.0, 19286.014, -0.023525419, 0.44236425, -1252935.9, -124473.35, 0.0, 9.999128, 9.999455 
1.6950479e+3, 1.9485338e+2, -1185608.4, -1154198.5, 15147.961, -0.12711692, 0.36161986, -1148083.6, -117610.766, 0.0, 9.9991255, 9.999527 
1.6950645e+3, 2.0485264e+2, -1083963.6, -1137184.8, -14556.497, -0.10459031, 0.37857392, -1080242.4, -147761.31, 0.0, 9.999497, 9.998808 
1.6950823e+3, 2.1485236e+2, -856200.4, -962141.0, -15239.59, 0.07990766, 0.43557587, -854051.75, -19565.908, 0.0, 10.000337, 9.998924 
1.6950987e+3, 2.2485097e+2, -703756.25, -906608.06, 21266.66, 0.040462222, 0.44147182, -701550.6, 34947.71, 0.0, 10.000986, 9.998331 
1.6951132e+3, 2.3484835e+2, -520591.84, -754838.94, 62568.88, -0.2414331, 0.31249312, -504926.88, 133592.9, 0.0, 10.001528, 9.99843 
1.6951293e+3, 2.4484628e+2, -409954.44, -672390.56, -10772.448, -0.25856933, 0.28007215, -409513.0, 131024.42, 0.0, 10.001693, 9.998246 
1.6951473e+3, 2.548449e+2, -308043.56, -564305.1, -470.77576, 0.024470033, 0.28445905, -308042.72, 134507.44, 0.0000000033657745, 10.001686, 9.998319 
1.6951634e+3, 2.6484334e+2, -300916.0, -665242.8, 42880.17, 0.045535114, 0.3736839, -295937.2, 48630.945, 0.0000030031388, 10.001742, 9.9969225 
1.6951779e+3, 2.748416e+2, -135552.73, -521135.4, 46265.992, -0.19305804, 0.46825188, -130079.0, 116512.305, 0.000041455987, 10.002168, 9.997023 
1.6951944e+3, 2.848391e+2, 87924.51, -277740.1, 42647.586, -0.24372116, 0.48333263, 92832.63, 241450.4, 0.0002433747, 10.002628, 9.997822 
1.6952129e+3, 2.9483584e+2, 299661.22, -90103.32, 59082.574, -0.09416717, 0.33105215, 308420.44, 359066.84, 0.0008327765, 10.003267, 9.998119 
1.6952279e+3, 3.0483294e+2, 336514.38, -89319.76, -5431.4453, -0.21676147, 0.25324258, 336583.66, 336583.66, 0.0019274647, 10.003392, 9.997732 
1.6952424e+3, 3.1483245e+2, 330982.56, -15980.656, -305.59457, -0.32433173, 0.39510438, 330982.84, 330982.84, 0.0033941052, 10.0029955, 9.9984255 
1.7049335e+3, 1.248327e+2, -2179717.0, -1980597.6, -7251.831, 0.09703267, 0.3777654, -1980333.9, -263662.56, 0.054460447, 9.996914, 9.999653 
1.7049481e+3, 1.3483411e+2, -1760835.0, -1481920.8, 32695.44, -0.09566013, 0.3128899, -1478139.4, 140516.84, 0.034638863, 9.998085, 10.00187 
1.7049672e+3, 1.448344e+2, -1753701.0, -1623078.5, 5741.4033, 0.21342108, 0.24335957, -1622826.6, -102172.46, 0.016903277, 9.998342, 10.000063 
1.7049816e+3, 1.5483607e+2, -1725321.5, -1566283.5, 4865.3574, 0.020695992, 0.38569683, -1566134.8, -143493.94, 0.00538814, 9.9979, 9.999985 
1.7049971e+3, 1.6483697e+2, -1581641.6, -1369853.5, 26285.508, -0.0832624, 0.45114914, -1366640.0, -42006.19, 0.0008082668, 9.997854, 10.000692 
1.7050153e+3, 1.7483781e+2, -1388818.5, -1205279.4, 2189.2686, 0.015263114, 0.42772904, -1205253.3, 21372.266, 0.000020835996, 9.998429, 10.000868 
1.7050323e+3, 1.8483798e+2, -1289649.1, -1268696.4, -5652.0454, 0.031077122, 0.4365391, -1267269.0, -138645.13, 0.0, 9.999132, 9.999428 
1.7050478e+3, 1.9483721e+2, -1035647.2, -1084859.0, -2056.293, -0.09654627, 0.38636255, -1035561.4, -4930.2573, 0.0, 10.000164, 9.999514 
1.7050645e+3, 2.0483641e+2, -965081.0, -1095320.5, -5080.11, -0.08178259, 0.40294045, -964883.1, -32242.873, 0.0, 10.000382, 9.998658 
1.7050825e+3, 2.1483572e+2, -938674.25, -1019815.9, -12511.23, 0.08875472, 0.43431377, -936788.94, -102139.484, 0.0, 9.999853, 9.998752 
1.7050992e+3, 2.2483432e+2, -806009.94, -912139.75, 57115.848, 0.0484683, 0.42861488, -781112.6, -44450.71, 0.0, 10.000098, 9.998716 
1.7051147e+3, 2.348321e+2, -553084.44, -723882.5, 48640.953, -0.21944672, 0.29912695, -540203.6, 98474.7, 0.0, 10.001109, 9.998839 
1.7051311e+3, 2.4483022e+2, -420773.97, -701567.1, -49405.965, -0.23217529, 0.27647957, -412334.56, 128360.0, 0.0, 10.001727, 9.998033 
1.705149e+3, 2.5482872e+2, -283197.1, -571979.1, -80633.34, 0.009093323, 0.29252902, -262208.25, 180502.25, 0.0000000026261497, 10.001959, 9.99813 
1.7051652e+3, 2.6482698e+2, -199168.47, -544581.94, 11775.498, 0.029730963, 0.3408173, -198767.5, 145961.53, 0.0000021613648, 10.002125, 9.997567 
1.70518e+3, 2.7482504e+2, -81767.16, -425468.72, 56686.484, -0.18780881, 0.35146335, -72659.24, 174090.14, 0.000036656253, 10.002226, 9.997655 
1.7051971e+3, 2.8482312e+2, 11261.362, -337682.47, 101819.01, -0.20406777, 0.405368, 38798.258, 187568.45, 0.00022920681, 10.002213, 9.997603 
1.705216e+3, 2.9482114e+2, 108724.016, -212018.33, 60368.234, -0.030916596, 0.40661883, 119709.89, 170502.06, 0.00079251203, 10.002094, 9.997846 
1.7052312e+3, 3.048182e+2, 298056.3, -61333.676, 17910.486, -0.1901423, 0.32102147, 298946.7, 298946.7, 0.0018379622, 10.002908, 9.9981575 
1.7052461e+3, 3.1481692e+2, 603618.06, 188253.42, -50057.73, -0.3001855, 0.340519, 609565.6, 609565.6, 0.0032495619, 10.004554, 9.999071 
1.7149296e+3, 1.24817155e+2, -2095171.5, -1799539.3, 65239.375, -0.025025493, 0.32148197, -1785782.5, -68957.38, 0.058051143, 9.9969015, 10.000894 
1.7149478e+3, 1.348212e+2, -1802867.9, -1553146.9, 84224.61, 0.054455772, 0.5726261, -1527395.5, 91389.22, 0.037118543, 9.998044, 10.001383 
1.7149657e+3, 1.4481828e+2, -1756121.3, -1657506.4, -20612.426, 0.20057902, 0.22444716, -1653371.4, -132558.17, 0.018276531, 9.9984455, 9.999786 
1.7149793e+3, 1.5481833e+2, -1742647.6, -1604975.6, -2257.842, -0.016607555, 0.2283123, -1604938.6, -182125.48, 0.005915651, 9.997904, 9.999722 
1.7149949e+3, 1.6481894e+2, -1607618.1, -1431720.9, 33202.027, -0.1248108, 0.2990186, -1425662.4, -100853.98, 0.0009130136, 9.997892, 10.000243 
1.715013e+3, 1.7481999e+2, -1424327.0, -1273355.9, 30749.813, -0.07017778, 0.3394423, -1267333.0, -40533.215, 0.000025810483, 9.998413, 10.0004015 
1.7150311e+3, 1.8482032e+2, -1264978.8, -1225574.5, 22234.832, -0.026304236, 0.37618843, -1215568.6, -86772.125, 0.0, 9.999157, 9.999714 
1.7150491e+3, 1.9482e+2, -1017818.0, -1039691.5, 45113.39, 0.001091669, 0.3368861, -982334.6, 48463.117, 0.0, 10.000125, 9.999843 
1.7150657e+3, 2.0481946e+2, -976455.44, -1100508.0, -32683.955, -0.033393916, 0.36348823, -968371.06, -35568.0, 0.0, 10.000301, 9.998664 
1.7150804e+3, 2.148187e+2, -958700.7, -1029192.2, -23363.74, -0.123924084, 0.38790202, -951660.2, -116847.49, 0.0, 9.999712, 9.998756 
1.7150979e+3, 2.2481719e+2, -833957.8, -923440.44, 85907.875, -0.1194587, 0.37004688, -781838.6, -45011.832, 0.0, 9.999892, 9.998743 
1.715118e+3, 2.3481494e+2, -573399.0, -732150.4, 98602.07, -0.0023923432, 0.23851117, -526193.2, 112651.984, 0.0, 10.000955, 9.998863 
1.7151354e+3, 2.4481341e+2, -486378.63, -784012.25, -50166.906, 0.0062178494, 0.27055866, -478150.34, 62710.832, 0.0, 10.001502, 9.997571 
1.7151499e+3, 2.548126e+2, -342047.22, -655576.4, -58228.7, -0.104461886, 0.39904916, -331582.28, 111292.81, 0.0000000000058928205, 10.001792, 9.997636 
1.7151657e+3, 2.648105e+2, -125732.055, -345927.0, 4651.792, -0.1582465, 0.36961523, -125633.83, 219259.9, 0.0000014626683, 10.001932, 9.999023 
1.7151828e+3, 2.7480733e+2, -233.08739, -214840.39, 70812.37, -0.13499795, 0.10777946, 21026.34, 267941.34, 0.000032258973, 10.002049, 9.9991865 
1.7152007e+3, 2.8480634e+2, -66100.516, -449440.16, 85912.91, -0.07668568, 0.20524926, -47726.66, 101198.91, 0.00021422074, 10.001997, 9.9969425 
1.7152186e+3, 2.9480746e+2, 39911.234, -320247.22, 78573.68, -0.0071961875, 0.5805907, 56306.82, 107232.95, 0.0007452291, 10.001941, 9.997173 
1.7152339e+3, 3.048046e+2, 250657.33, -82689.2, 65179.52, -0.2364103, 0.5322085, 262948.72, 262948.72, 0.0017263927, 10.002601, 9.998153 
1.715251e+3, 3.1479913e+2, 568396.7, 248647.27, 54140.24, -0.3050714, 0.12636846, 577315.0, 577315.0, 0.0030576272, 10.004027, 9.999722 
1.7249271e+3, 1.2479931e+2, -2040893.9, -1744063.8, 47041.215, 0.023871724, 0.20558304, -1736787.1, -19787.82, 0.06177432, 9.99713, 10.00117 
1.7249458e+3, 1.3480467e+2, -1821060.6, -1575752.9, 12121.07, 0.05872263, 0.58812374, -1575155.4, 43793.094, 0.039721623, 9.99797, 10.00125 
1.7249642e+3, 1.4480238e+2, -1733360.3, -1608570.5, -60813.08, 0.21885501, 0.2962532, -1583837.0, -62866.605, 0.019743169, 9.99843, 10.000132 
1.7249784e+3, 1.548022e+2, -1538723.6, -1456265.9, -16211.135, 0.054720633, 0.23430514, -1453193.3, -30223.584, 0.006494274, 9.999067, 10.000194 
1.7249943e+3, 1.6480239e+2, -1442949.0, -1438333.9, 71243.516, -0.039144315, 0.27802506, -1369360.5, -44392.004, 0.001032908, 9.999397, 9.999479 
1.7250122e+3, 1.7480241e+2, -1298678.0, -1301460.8, 21378.771, -0.041581746, 0.29551852, -1278645.4, -51673.246, 0.00003215152, 9.999654, 9.999615 
1.7250307e+3, 1.8480237e+2, -1166771.5, -1162745.3, 23492.295, -0.008719699, 0.32808408, -1141180.0, -12206.689, 0.0, 9.999777, 9.999837 
1.7250495e+3, 1.9480258e+2, -1012204.4, -1019434.2, 11763.647, 0.029756077, 0.32894656, -1003512.75, 27455.887, 0.0, 10.000099, 9.999985 
1.7250662e+3, 2.0480223e+2, -940202.6, -1059630.1, -75877.06, -0.008820374, 0.35690117, -903360.4, 29610.738, 0.0, 10.000446, 9.998883 
1.7250808e+3, 2.1480122e+2, -771833.06, -917443.75, -69435.414, -0.13036215, 0.3375891, -744030.8, 90951.1, 0.0, 10.000895, 9.998965 
1.7250983e+3, 2.2479999e+2, -711262.8, -859144.5, 75143.26, -0.09556012, 0.33607253, -679781.9, 57212.16, 0.0, 10.000731, 9.998767 
1.7251194e+3, 2.3479867e+2, -712189.94, -796894.5, 64244.9, 0.09134895, 0.29644325, -677593.4, -38587.418, 0.0, 10.000013, 9.998859 
1.7251372e+3, 2.4479748e+2, -664818.4, -853326.06, -23555.723, 0.10558801, 0.35646155, -661919.44, -120899.695, 0.0, 10.000201, 9.997715 
1.7251515e+3, 2.5479645e+2, -400785.97, -663518.06, -3637.0754, -0.07805937, 0.44586563, -400735.66, 42300.004, 0.0000000000049057277, 10.001308, 9.997803 
1.7251673e+3, 2.647944e+2, -117936.55, -317331.06, 37290.883, -0.16503184, 0.3977454, -111190.62, 233862.39, 0.0000011502509, 10.001879, 9.999246 
1.7251846e+3, 2.747914e+2, -16980.023, -200728.31, -14264.564, -0.14098907, 0.13144284, -15879.246, 231191.28, 0.000029351942, 10.001832, 9.99939 
1.7252028e+3, 2.847902e+2, -33468.348, -395288.03, 16884.33, -0.060965996, 0.18725395, -32682.15, 116398.305, 0.00020332911, 10.002061, 9.997277 
1.7252211e+3, 2.9479077e+2, 155047.33, -232250.97, 41374.945, 0.03354013, 0.47671247, 159418.08, 210502.36, 0.00070499646, 10.002606, 9.997448 
1.7252369e+3, 3.0478814e+2, 304243.72, -100573.49, 106521.61, -0.20488526, 0.4605929, 330562.25, 330562.25, 0.0016286817, 10.003123, 9.9978 
1.725255e+3, 3.147829e+2, 472846.44, 159406.78, 24990.35, -0.2739093, 0.12013052, 474826.4, 474826.4, 0.0028877526, 10.003461, 9.999433 
1.7349254e+3, 1.24780364e+2, -2088045.5, -1848857.5, 84561.71, 0.08503872, 0.15085605, -1821981.6, -104799.805, 0.06561491, 9.99718, 10.000416 
1.7349415e+3, 1.347841e+2, -1815748.1, -1554105.1, 33928.566, -0.19932418, 0.33014116, -1549777.0, 69374.01, 0.042436883, 9.997924, 10.001428 
1.7349625e+3, 1.447864e+2, -1657334.5, -1462873.3, -53204.586, 0.15504745, 0.4463455, -1449268.4, 71860.34, 0.021297567, 9.998475, 10.001116 
1.7349786e+3, 1.5478776e+2, -1450047.0, -1277085.3, 13710.559, 0.13122888, 0.41568014, -1276005.1, 147104.56, 0.0071235094, 9.999085, 10.001418 
1.734995e+3, 1.6478746e+2, -1500817.1, -1584092.8, 69472.9, 0.058831196, 0.3991156, -1461460.0, -136347.22, 0.0011691477, 9.999494, 9.998439 
1.7350128e+3, 1.747851e+2, -1374633.6, -1467632.1, 38415.277, 0.025866248, 0.2904981, -1360817.8, -133675.38, 0.00004011834, 9.99968, 9.998467 
1.7350307e+3, 1.8478413e+2, -1168997.4, -1178857.4, 20986.291, -0.01600616, 0.29501274, -1152369.8, -23215.578, 0.0, 9.999823, 9.999706 
1.7350486e+3, 1.9478486e+2, -1032183.06, -1042645.56, 30189.094, -0.093544, 0.35825697, -1006775.3, 24369.533, 0.0, 10.000018, 9.999865 
1.7350657e+3, 2.0478466e+2, -928870.94, -1007657.5, -70705.86, -0.107011266, 0.38739786, -887325.0, 45819.918, 0.0, 10.000323, 9.999299 
1.7350827e+3, 2.1478339e+2, -761342.94, -864626.6, -43619.37, -0.030198991, 0.29510757, -745386.5, 89769.63, 0.0, 10.00076, 9.999392 
1.7351002e+3, 2.2478275e+2, -743807.25, -882346.44, 38622.367, -0.0053184037, 0.3358328, -733767.5, 3395.3315, 0.0, 10.000542, 9.998698 
1.7351185e+3, 2.3478301e+2, -734025.2, -813100.94, 47378.445, -0.026035774, 0.45532712, -711854.4, -72691.266, 0.0, 9.999882, 9.998811 
1.7351364e+3, 2.4478216e+2, -642253.06, -758219.44, 7214.294, -0.02811983, 0.51550746, -641805.94, -100632.836, 0.0, 10.000001, 9.998464 
1.7351536e+3, 2.5478026e+2, -372014.63, -558711.44, 49788.84, -0.013448806, 0.44031587, -359566.75, 83625.91, 0.000000000000012544113, 10.001125, 9.998607 
1.73517e+3, 2.6477847e+2, -216919.77, -475154.44, 26199.412, -0.106227025, 0.42626536, -214288.48, 130919.25, 0.0000010511417, 10.001671, 9.998263 
1.7351851e+3, 2.7477697e+2, -109774.23, -358280.3, -1527.3942, -0.30221003, 0.40910903, -109764.84, 137451.9, 0.000029114979, 10.001686, 9.998375 
1.7352031e+3, 2.8477454e+2, 8870.839, -265305.3, 20413.633, -0.25928232, 0.34272882, 10382.392, 159618.58, 0.00019954717, 10.001876, 9.998263 
1.7352237e+3, 2.9477093e+2, 193607.8, -97561.39, 75575.87, -0.010725763, 0.10586535, 212055.48, 263323.7, 0.00068326393, 10.002374, 9.9984865 
1.7352399e+3, 3.047689e+2, 199637.17, -231454.45, 101041.42, -0.24137174, 0.12943794, 222144.64, 222144.64, 0.0015767281, 10.002774, 9.997052 
1.7352572e+3, 3.1476724e+2, 336074.78, 4254.8867, 88368.914, -0.4317119, 0.21302547, 358141.34, 358141.34, 0.0028061315, 10.002955, 9.998579 
1.7449242e+3, 1.2476332e+2, -1992455.9, -1837333.9, 36649.99, 0.21691658, 0.321259, -1829110.6, -111759.7, 0.06957688, 9.997996, 10.000106 
1.744939e+3, 1.3476478e+2, -1739528.8, -1490375.5, 5668.028, -0.24732663, 0.25105515, -1490246.6, 129094.92, 0.045260757, 9.99832, 10.001698 
1.7449613e+3, 1.4476782e+2, -1597189.3, -1411001.1, -78362.66, 0.19832122, 0.4170049, -1382410.3, 138901.6, 0.022935338, 9.998808, 10.001308 
1.7449781e+3, 1.5477006e+2, -1480088.8, -1267112.5, -122033.445, 0.21345022, 0.4541273, -1211638.0, 211647.14, 0.0078018596, 9.998795, 10.001612 
1.744995e+3, 1.6477008e+2, -1559418.9, -1583971.1, -34306.426, 0.13606787, 0.44672704, -1535258.3, -209973.58, 0.0013223152, 9.998975, 9.99869 
1.7450128e+3, 1.747677e+2, -1328599.3, -1416847.4, 20218.56, 0.056641307, 0.3128634, -1324187.5, -96874.39, 0.000049909977, 9.999885, 9.998716 
1.7450309e+3, 1.8476675e+2, -1119260.1, -1172175.4, 55088.14, 0.007429666, 0.31535664, -1084605.5, 44718.89, 0.0000000000000006446772, 10.000249, 9.99954 
1.7450488e+3, 1.947674e+2, -1039992.8, -1066036.9, 38732.168, -0.05975278, 0.38527676, -1012152.25, 19164.854, 0.0, 10.000054, 9.999679 
1.7450662e+3, 2.0476715e+2, -973259.7, -996817.1, -41412.027, -0.07129249, 0.40606052, -941983.9, -8666.489, 0.0, 9.999876, 9.999584 
1.745083e+3, 2.1476603e+2, -866694.75, -876971.6, -46972.03, -0.020200811, 0.2986428, -824580.94, 10744.263, 0.0, 9.999879, 9.999723 
1.7451006e+3, 2.2476532e+2, -775906.6, -929813.94, 43894.797, 0.0008205564, 0.3282702, -764267.8, -26935.389, 0.0, 10.0004425, 9.998433 
1.7451191e+3, 2.3476519e+2, -505199.1, -735504.44, 19217.613, -0.015285279, 0.43907112, -503606.5, 135731.66, 0.0, 10.001587, 9.998532 
1.7451374e+3, 2.4476416e+2, -365585.16, -600873.06, -35582.832, 0.00093308854, 0.48558828, -360321.66, 181028.03, 0.0, 10.001814, 9.998666 
1.7451552e+3, 2.5476217e+2, -363684.8, -535267.56, -61879.69, 0.029682757, 0.38616005, -343696.9, 99670.69, 0.0, 10.001102, 9.998781 
1.745172e+3, 2.6476052e+2, -286230.9, -535108.25, -44042.7, -0.054543044, 0.3877778, -278666.75, 66714.914, 0.0000010008785, 10.001313, 9.99802 
1.7451876e+3, 2.7475923e+2, 12367.919, -332337.1, -43176.406, -0.26596132, 0.4249969, 17693.742, 265085.06, 0.000030147008, 10.002658, 9.998085 
1.7452057e+3, 2.8475666e+2, 186926.58, -186629.0, -32303.314, -0.23636171, 0.36295798, 189699.44, 339111.94, 0.00019895253, 10.003137, 9.998189 
1.7452261e+3, 2.9475257e+2, 200770.3, -115125.46, -98385.35, 0.0036208178, 0.08777462, 228906.3, 280353.2, 0.0006793162, 10.002495, 9.998314 
1.7452432e+3, 3.047505e+2, 152454.92, -286581.06, -36685.992, -0.17012537, 0.13447599, 155499.3, 155499.3, 0.001580627, 10.002566, 9.996784 
1.7452624e+3, 3.147486e+2, 435014.66, -453.5799, -63059.336, -0.23749812, 0.21994548, 443962.3, 443962.3, 0.0028399522, 10.00385, 9.998109 
1.754922e+3, 1.24746494e+2, -1978163.9, -1808375.9, -186130.06, 0.14669399, 0.55420834, -1688693.8, 28829.38, 0.07366958, 9.997996, 10.000315 
1.754938e+3, 1.3474697e+2, -1717353.9, -1438511.1, 41224.793, -0.19084722, 0.36617887, -1432544.0, 186973.5, 0.048192136, 9.998292, 10.002083 
1.7549609e+3, 1.4474708e+2, -1626094.4, -1491284.4, -83875.29, 0.23833193, 0.23950404, -1451086.0, 70429.734, 0.024652572, 9.998893, 10.000713 
1.7549773e+3, 1.5474916e+2, -1541523.1, -1399408.6, -116459.69, 0.22051005, 0.35087577, -1334040.1, 89455.33, 0.008527423, 9.998807, 10.0007 
1.7549938e+3, 1.6475005e+2, -1450358.4, -1366696.0, -22028.92, 0.08630983, 0.40787464, -1361250.1, -35763.83, 0.0014925194, 9.999014, 10.000163 
1.755012e+3, 1.747501e+2, -1220996.0, -1184265.5, 61696.65, -0.036812954, 0.3584171, -1138258.8, 89226.39, 0.00006156021, 9.999849, 10.000327 
1.7550309e+3, 1.8475023e+2, -1129854.9, -1194499.3, 39448.18, -0.04302996, 0.39162666, -1111178.3, 18305.547, 0.0000000010737394, 10.000252, 9.999385 
1.7550501e+3, 1.9475017e+2, -1064301.6, -1104989.5, 39495.625, 0.036406435, 0.4134131, -1040218.3, -8733.169, 0.0, 10.000006, 9.999435 
1.755067e+3, 2.0474966e+2, -975976.6, -984625.7, -54257.453, -0.014197128, 0.41428688, -925871.6, 7616.8066, 0.0, 9.999795, 9.999708 
1.7550814e+3, 2.1474893e+2, -872421.25, -862656.2, -40169.914, -0.18023358, 0.3299729, -827073.2, 8418.145, 0.0, 9.99976, 9.999882 
1.7550994e+3, 2.2474752e+2, -834531.6, -1010689.75, 76414.58, -0.17060114, 0.30536085, -806004.0, -68499.54, 0.0, 10.000271, 9.99796 
1.7551214e+3, 2.3474541e+2, -564398.8, -819648.56, 74799.91, 0.02469184, 0.26655972, -544094.2, 95434.98, 0.0, 10.001422, 9.998034 
1.75514e+3, 2.447436e+2, -426911.1, -682467.75, -66993.25, 0.06300474, 0.2822559, -410414.0, 131134.2, 0.0, 10.001611, 9.998205 
1.7551556e+3, 2.5474226e+2, -411483.0, -605488.7, -77634.72, -0.04911619, 0.28907382, -384241.3, 59318.688, 0.0, 10.000982, 9.998354 
1.7551729e+3, 2.647405e+2, -280649.28, -502479.22, -7287.212, -0.115350366, 0.287148, -280410.16, 65165.2, 0.00000094846536, 10.00121, 9.998299 
1.7551917e+3, 2.7473837e+2, 10806.5625, -289244.38, 22622.916, -0.14508238, 0.20177162, 12502.673, 260095.69, 0.000030605133, 10.002463, 9.99847 
1.7552102e+3, 2.8473672e+2, 75189.78, -371930.06, -63808.797, -0.12696476, 0.26398456, 84117.71, 233725.98, 0.00020031627, 10.002925, 9.997023 
1.7552282e+3, 2.9473546e+2, 90209.016, -311912.16, -105508.21, -0.06123109, 0.39379022, 116210.84, 167832.63, 0.0006943286, 10.002354, 9.997028 
1.755246e+3, 3.0473304e+2, 105233.63, -325529.75, -10502.16, -0.15950662, 0.48333672, 105489.52, 105489.52, 0.0016369632, 10.002319, 9.996629 
1.7552699e+3, 3.1472775e+2, 317711.0, -120377.336, 54452.48, 0.07742942, 0.21459751, 324377.75, 324377.75, 0.0029652813, 10.003343, 9.997515 
1.7649192e+3, 1.2472756e+2, -2106403.0, -1791205.3, -145587.88, 0.14549, 0.49791163, -1734250.5, -16537.377, 0.07790593, 9.996751, 10.001023 
1.7649382e+3, 1.3472871e+2, -1831329.0, -1524126.3, 84273.62, 0.035955604, 0.41206503, -1502526.5, 117170.914, 0.05123237, 9.99764, 10.00179 
1.7649595e+3, 1.4472823e+2, -1724973.0, -1585381.4, -49632.473, 0.24230807, 0.2577825, -1569533.5, -47832.465, 0.026445003, 9.998415, 10.000294 
1.764976e+3, 1.547295e+2, -1427600.8, -1397452.5, -75524.1, 0.16042957, 0.3384517, -1335512.9, 88178.31, 0.009296644, 9.999835, 10.000217 
1.7649926e+3, 1.6473061e+2, -1233202.4, -1210716.5, 1523.7448, 0.028295182, 0.41828522, -1210613.6, 115067.125, 0.0016790463, 10.000301, 10.000599 
1.7650114e+3, 1.747317e+2, -1213941.0, -1131737.9, -25128.563, -0.061041553, 0.42736018, -1124665.0, 103002.72, 0.000074904594, 9.999682, 10.000762 
1.7650306e+3, 1.8473199e+2, -1270709.1, -1225677.4, -65092.36, -0.023330914, 0.4396025, -1179316.6, -49653.723, 0.000000009428086, 9.999116, 9.999725 
1.7650501e+3, 1.9473132e+2, -1186435.1, -1122039.4, -43849.684, 0.10570529, 0.36674806, -1099836.0, -68167.78, 0.0, 9.998983, 9.999818 
1.7650674e+3, 2.0473073e+2, -1020236.7, -1024093.75, -74596.57, 0.06779174, 0.3478826, -947543.75, -13871.604, 0.0, 9.99958, 9.9995365 
1.7650822e+3, 2.1473044e+2, -707094.8, -804721.8, -103122.7, -0.14160399, 0.33093274, -641816.06, 193856.45, 0.0, 10.000999, 9.9996805 
1.7651005e+3, 2.2472928e+2, -650591.9, -885870.1, 26014.945, -0.15554029, 0.3232443, -647749.7, 89934.13, 0.0, 10.001385, 9.998272 
1.7651223e+3, 2.3472711e+2, -645023.44, -819742.4, 57640.715, 0.019782897, 0.24781539, -627720.94, 11986.69, 0.0, 10.000708, 9.99837 
1.7651413e+3, 2.4472536e+2, -496453.38, -737644.3, -12029.581, 0.05574334, 0.25840232, -495854.88, 45870.996, 0.0, 10.001201, 9.998041 
1.7651574e+3, 2.5472412e+2, -127989.7, -495435.16, -18663.617, -0.059583124, 0.2961039, -127044.16, 316693.25, 0.0, 10.00301, 9.998153 
1.7651753e+3, 2.6472214e+2, -18547.898, -393820.0, 33096.8, -0.08165479, 0.29406062, -15651.312, 330104.13, 0.0000007067664, 10.003106, 9.998126 
1.7651945e+3, 2.7471942e+2, -168406.36, -397926.88, -6089.164, -0.03056656, 0.16980503, -168244.92, 79534.81, 0.000029110019, 10.001332, 9.998272 
1.7652133e+3, 2.8471756e+2, -101521.94, -465818.66, -2796.741, -0.042523164, 0.22833587, -101500.47, 48297.254, 0.00020317562, 10.001755, 9.996945 
1.765231e+3, 2.9471666e+2, 431743.63, -163909.63, -3411.3052, -0.11500445, 0.41137788, 431763.16, 483571.63, 0.00072254677, 10.004778, 9.996883 
1.7652498e+3, 3.0471417e+2, 528313.6, -129141.68, 96007.76, -0.14397606, 0.5064174, 542046.7, 542046.7, 0.0017154174, 10.005259, 9.996567 
1.7652747e+3, 3.147089e+2, 189960.06, -224741.45, 116830.89, 0.27262154, 0.25806358, 220608.88, 220608.88, 0.0031026104, 10.002605, 9.997177 
1.7749158e+3, 1.2470823e+2, -2001974.4, -1603403.9, -74415.086, 0.0678293, 0.29997626, -1589963.5, 127940.85, 0.08231803, 9.99682, 10.002361 
1.7749393e+3, 1.3471013e+2, -1900224.4, -1661037.5, 119896.7, 0.3628005, 0.38506347, -1611285.8, 8594.307, 0.054393712, 9.997627, 10.00082 
1.7749567e+3, 1.4471099e+2, -1741738.6, -1626799.0, -17596.912, 0.0851854, 0.43752417, -1624165.4, -102295.17, 0.02831169, 9.998436, 10.000002 
1.7749736e+3, 1.5471117e+2, -1431944.6, -1405285.4, -11075.877, -0.07067259, 0.4136894, -1401284.3, 22587.418, 0.010105246, 9.9998255, 10.000165 
1.7749916e+3, 1.647118e+2, -1274875.8, -1306072.4, -28767.877, -0.14187294, 0.48074305, -1257749.5, 68117.64, 0.0018804772, 10.000337, 9.9999275 
1.7750108e+3, 1.7471248e+2, -1269096.0, -1240976.6, -40483.695, -0.09922663, 0.52035457, -1212180.8, 15680.08, 0.00008970714, 9.999664, 10.000018 
1.7750299e+3, 1.847121e+2, -1205869.8, -1104064.6, -83443.87, -0.037438016, 0.46508348, -1057222.9, 72638.484, 0.000000028818846, 9.999164, 10.00054 
1.7750488e+3, 1.9471087e+2, -1126798.6, -992697.3, -40436.71, 0.05664428, 0.24576248, -981447.8, 50418.57, 0.0, 9.998954, 10.000723 
1.7750672e+3, 2.0471036e+2, -1067192.5, -1100563.0, -32779.617, 0.0684764, 0.21127018, -1047095.94, -113227.31, 0.0, 9.999498, 9.999044 
1.7750849e+3, 2.1471061e+2, -772986.56, -899861.4, -42234.38, 0.0066248057, 0.30096462, -760213.44, 75654.87, 0.0, 10.000831, 9.9991 
1.775103e+3, 2.247105e+2, -611285.94, -764653.06, -6561.2065, -0.053667057, 0.38501897, -611005.75, 126865.04, 0.0, 10.001201, 9.9992 
1.7751218e+3, 2.3471008e+2, -589669.44, -680073.56, 41605.902, -0.10638347, 0.38040453, -573436.3, 66438.98, 0.0, 10.00059, 9.99939 
1.775141e+3, 2.4470907e+2, -515889.28, -733785.8, 41701.96, -0.11674845, 0.40776265, -508180.88, 33704.605, 0.0, 10.001012, 9.998156 
1.7751604e+3, 2.547076e+2, -152223.94, -496115.1, 59093.113, -0.08063898, 0.4106621, -142352.9, 301547.28, 0.0, 10.002809, 9.998239 
1.7751789e+3, 2.647054e+2, -101188.95, -517665.38, -38552.305, -0.05092419, 0.41264555, -97650.32, 248271.69, 0.00000032366296, 10.002897, 9.997378 
1.7751962e+3, 2.747023e+2, -247522.58, -521346.1, -57704.645, -0.02746203, 0.33026928, -235858.9, 12092.929, 0.00002512301, 10.001172, 9.997495 
1.7752147e+3, 2.846992e+2, -83473.25, -390800.2, 90263.31, -0.103013135, 0.27817577, -58923.574, 91057.15, 0.0002007502, 10.001584, 9.997547 
1.7752346e+3, 2.9469624e+2, 452290.13, -66195.85, 125067.06, -0.27112594, 0.17612848, 480881.66, 532888.2, 0.0007396981, 10.004543, 9.997666 
1.7752543e+3, 3.0469385e+2, 469885.56, -163719.84, -7843.466, -0.2557041, 0.23665628, 469982.66, 469982.66, 0.0017576203, 10.004898, 9.996495 
1.7752767e+3, 3.146934e+2, 112568.13, -251264.63, 72711.46, 0.17092001, 0.48800567, 126561.234, 126561.234, 0.0031470445, 10.00209, 9.997212 
1.7849138e+3, 1.246908e+2, -1733598.6, -1442924.0, 20882.46, 0.122078635, 0.41716483, -1441431.4, 276645.28, 0.08696164, 9.998506, 10.00273 
1.7849384e+3, 1.3469087e+2, -1845994.8, -1759225.5, 1334.9855, 0.47128928, 0.4294016, -1759205.0, -139134.16, 0.057701517, 9.998571, 9.999677 
1.7849545e+3, 1.4469098e+2, -1786182.0, -1625752.8, -62463.99, 0.051195018, 0.46108076, -1604300.5, -82232.555, 0.030258754, 9.998036, 10.000202 
1.7849733e+3, 1.5469122e+2, -1525090.6, -1418841.1, -39618.574, -0.047238536, 0.4124951, -1405694.6, 18373.033, 0.0109521225, 9.999037, 10.000457 
1.7849919e+3, 1.6469193e+2, -1414937.6, -1381592.8, -60625.645, -0.08896794, 0.47173688, -1335388.8, -9326.667, 0.0020959692, 9.999393, 9.999867 
1.7850102e+3, 1.7469235e+2, -1356985.1, -1292272.4, -52369.535, -0.095615305, 0.49238107, -1263069.9, -35011.297, 0.000105867584, 9.999095, 9.999942 
1.7850289e+3, 1.8469205e+2, -1200236.4, -1092783.1, -47289.008, -0.04103663, 0.44798076, -1074936.0, 55122.37, 0.0000000562377, 9.999175, 10.000615 
1.7850484e+3, 1.9469143e+2, -977946.44, -907661.75, -78876.695, 0.08214704, 0.2808979, -856452.94, 175604.27, 0.0, 9.999916, 10.000844 
1.7850673e+3, 2.0469089e+2, -962570.8, -1058309.8, -57524.336, 0.11364778, 0.23888262, -935603.56, -1543.5477, 0.0, 10.000239, 9.998991 
1.7850855e+3, 2.1469031e+2, -860957.8, -951414.7, -51472.434, 0.0370574, 0.2533923, -837666.0, -1597.919, 0.0, 10.000247, 9.999042 
1.7851038e+3, 2.2469036e+2, -698261.9, -761588.2, -23039.105, -0.034508843, 0.3398951, -690766.94, 47301.81, 0.0, 10.000424, 9.999592 
1.7851225e+3, 2.3469129e+2, -528943.7, -606759.94, -45064.19, -0.10674161, 0.4329591, -508315.1, 131744.44, 0.0, 10.000833, 9.999775 
1.785142e+3, 2.4469075e+2, -513023.06, -706570.4, -16835.26, -0.11171267, 0.47862652, -511569.6, 30495.371, 0.0, 10.000948, 9.998358 
1.7851624e+3, 2.5468865e+2, -432039.66, -612246.5, -15723.486, -0.06395659, 0.40164056, -430678.03, 13407.801, 0.0, 10.000819, 9.99839 
1.7851813e+3, 2.6468647e+2, -286388.03, -617610.2, -93602.28, -0.029859116, 0.40502143, -261766.58, 84341.336, 0.00000018370703, 10.001657, 9.997294 
1.7851983e+3, 2.7468407e+2, 108588.34, -369972.53, -87784.73, -0.036282893, 0.40463832, 124182.945, 372315.34, 0.000020759246, 10.003664, 9.997352 
1.7852172e+3, 2.8468102e+2, 274589.06, -203244.05, 119952.61, -0.1063301, 0.36192793, 303010.78, 453172.34, 0.00019246842, 10.0040045, 9.997654 
1.7852384e+3, 2.9467767e+2, 175056.58, -187418.61, 77441.945, -0.22730915, 0.2106441, 190908.61, 243100.55, 0.0007361142, 10.002593, 9.997762 
1.7852585e+3, 3.046752e+2, 220687.38, -222675.28, -70440.24, -0.20113142, 0.23204775, 231609.66, 231609.66, 0.001742138, 10.002915, 9.997042 
1.785279e+3, 3.146758e+2, 551981.9, 15889.09, -21569.295, 0.07651035, 0.5468591, 552848.3, 552848.3, 0.0030649356, 10.004842, 9.99774 
1.794914e+3, 1.2467426e+2, -1787307.8, -1547499.3, 206431.58, 0.2308129, 0.721833, -1428675.6, 289564.8, 0.09190124, 9.998559, 10.00196 
1.7949349e+3, 1.3467103e+2, -1935870.1, -1961081.1, -30966.422, 0.23800468, 0.5460791, -1915041.9, -294773.13, 0.06119029, 9.99862, 9.998279 
1.7949526e+3, 1.4466833e+2, -1744428.8, -1543455.3, -58197.105, 0.03568969, 0.33996576, -1527819.3, -5525.9136, 0.03230053, 9.998057, 10.000758 
1.7949745e+3, 1.5466973e+2, -1486436.4, -1329904.4, 7870.0522, 0.14865175, 0.34735298, -1329509.6, 94768.86, 0.011841973, 9.999003, 10.001086 
1.7949934e+3, 1.6467096e+2, -1367354.0, -1297606.5, -82078.84, 0.08822196, 0.4003186, -1243300.0, 82965.39, 0.0023264778, 9.999444, 10.000428 
1.7950092e+3, 1.7467123e+2, -1310869.8, -1203395.1, -59632.72, -0.1274342, 0.3495504, -1176859.4, 51402.133, 0.00012352158, 9.999116, 10.000548 
1.7950274e+3, 1.8467182e+2, -1238487.5, -1180669.6, -32110.822, -0.1369715, 0.38865897, -1166371.8, -36117.336, 0.000000085167756, 9.999214, 9.999991 
1.7950487e+3, 1.94673e+2, -1039228.06, -1019214.56, -44288.48, 0.09471967, 0.47196645, -983816.44, 48424.785, 0.0, 9.999849, 10.000112 
1.7950678e+3, 2.0467237e+2, -950114.94, -1010493.7, -68771.766, 0.100652345, 0.44163847, -905198.0, 29047.836, 0.0, 10.000138, 9.99937 
1.7950842e+3, 2.1466969e+2, -846373.75, -897311.4, -42144.504, -0.12870158, 0.20336367, -822600.1, 13670.169, 0.0, 10.000135, 9.999473 
1.795103e+3, 2.2466898e+2, -739422.94, -810251.8, -17475.596, -0.19332092, 0.20180185, -735345.9, 2930.9717, 0.0, 10.000265, 9.999334 
1.7951238e+3, 2.3467071e+2, -574251.56, -660824.2, -19679.367, -0.06852125, 0.40220147, -569988.1, 70272.625, 0.0, 10.000662, 9.999483 
1.7951438e+3, 2.4467029e+2, -529677.75, -696159.5, -29117.242, -0.036995832, 0.4662641, -524732.1, 17532.998, 0.0, 10.00075, 9.998529 
1.795163e+3, 2.5466743e+2, -438677.47, -592748.1, -9453.186, -0.09569829, 0.2934264, -438099.63, 6193.072, 0.0, 10.000682, 9.998589 
1.7951822e+3, 2.6466548e+2, -277350.88, -560794.0, -30541.908, -0.122709796, 0.29135656, -274097.25, 72215.086, 0.00000013255313, 10.001488, 9.997768 
1.795201e+3, 2.7466476e+2, 114353.53, -302705.66, -3051.25, -0.1520287, 0.40119588, 114375.86, 362697.25, 0.0000188634, 10.003441, 9.997913 
1.795221e+3, 2.846632e+2, 204787.08, -293840.6, 53185.027, -0.1755284, 0.49642533, 210396.83, 360736.13, 0.00018763817, 10.003757, 9.997156 
1.7952423e+3, 2.9466093e+2, 99686.41, -278670.63, 45986.45, -0.1235972, 0.50694877, 105195.49, 157560.19, 0.0007283647, 10.002324, 9.997258 
1.7952624e+3, 3.0465811e+2, 220425.88, -149549.64, -16090.647, -0.13359092, 0.4929802, 221124.36, 221124.36, 0.0016996954, 10.002584, 9.997712 
1.795281e+3, 3.1465632e+2, 582017.44, 192527.38, 81602.555, -0.25661203, 0.47074908, 598423.1, 598423.1, 0.002917638, 10.00439, 9.999153 
1.8049145e+3, 1.2465254e+2, -1737920.0, -1481538.9, 186416.31, 0.41294414, 0.65849364, -1383491.0, 334962.56, 0.097200245, 9.998708, 10.002383 
1.8049328e+3, 1.3464928e+2, -1952069.4, -1991076.6, -89593.2, 0.16670318, 0.49582905, -1879881.5, -259398.02, 0.06490086, 9.998593, 9.998094 
1.8049519e+3, 1.4464742e+2, -1720786.9, -1496022.8, -23026.262, 0.16482826, 0.36456844, -1493688.0, 28812.4, 0.034457777, 9.998057, 10.001082 
1.8049733e+3, 1.5464956e+2, -1685845.3, -1391852.3, 1976.0103, 0.21331465, 0.41168424, -1391839.0, 32639.537, 0.0127833225, 9.997491, 10.001379 
1.8049921e+3, 1.6465077e+2, -1592206.4, -1400482.8, -74751.74, 0.09652848, 0.44837704, -1374782.6, -48317.785, 0.0025744103, 9.997903, 10.000459 
1.8050086e+3, 1.7465042e+2, -1221688.9, -1148910.5, -114754.7, -0.11189899, 0.33039415, -1064913.5, 163551.95, 0.00014305822, 9.999708, 10.000626 
1.8050274e+3, 1.846508e+2, -1116052.3, -1158330.4, -111568.086, -0.094565414, 0.35904506, -1023638.25, 106822.9, 0.00000010953618, 10.000197, 9.999671 
1.8050486e+3, 1.946522e+2, -1144671.8, -1107045.4, -116885.08, 0.13353254, 0.49841788, -1007469.1, 24979.639, 0.0, 9.999287, 9.999775 
1.8050675e+3, 2.0465201e+2, -1050742.8, -1014158.0, -80402.32, 0.12132085, 0.51066244, -949993.44, -15543.859, 0.0, 9.999256, 9.999775 
1.8050842e+3, 2.1465e+2, -793641.06, -819781.44, -70998.56, -0.14540873, 0.29646254, -734519.7, 101945.375, 0.0, 10.000284, 9.9999275 
1.8051034e+3, 2.24649e+2, -687572.4, -816105.75, -45564.97, -0.18813552, 0.25487652, -673058.5, 65414.492, 0.0, 10.000769, 9.999043 
1.8051252e+3, 2.3464921e+2, -587851.75, -707415.44, -71736.92, 0.007254842, 0.3404494, -554252.3, 86219.1, 0.0, 10.000742, 9.999123 
1.8051454e+3, 2.4464831e+2, -476356.13, -671832.1, -66425.234, 0.043851487, 0.37370315, -455920.4, 86559.62, 0.0, 10.001098, 9.998546 
1.8051642e+3, 2.5464612e+2, -265829.2, -513232.03, -80798.375, -0.09512282, 0.27333555, -241779.39, 202720.5, 0.0, 10.001854, 9.998595 
1.8051839e+3, 2.6464438e+2, -175241.72, -514985.78, -85962.53, -0.13669595, 0.29323816, -154729.77, 191788.7, 0.00000007008213, 10.0022135, 9.997732 
1.8052042e+3, 2.746432e+2, -71713.76, -404695.22, -126943.77, -0.122246765, 0.36986822, -28839.055, 219695.6, 0.000018211349, 10.00221, 9.997815 
1.8052243e+3, 2.84642e+2, 4509.5894, -332288.06, -96091.33, -0.12558554, 0.48233733, 29996.574, 180546.75, 0.0001838329, 10.002121, 9.997682 
1.8052447e+3, 2.946409e+2, 106185.125, -223882.84, -60911.227, -0.09429224, 0.5656965, 117067.01, 169629.94, 0.0007150246, 10.002118, 9.997746 
1.8052655e+3, 3.046384e+2, 251552.38, -154776.89, 1613.8916, -0.08420133, 0.565703, 251558.8, 251558.8, 0.0016464369, 10.002903, 9.997515 
1.8052858e+3, 3.1463557e+2, 541562.44, 150562.42, -64338.246, -0.1938832, 0.48329154, 551877.06, 551877.06, 0.0027767506, 10.004133, 9.999029 
1.814913e+3, 1.2462588e+2, -1626258.6, -1273798.4, 51071.902, 0.3534434, 0.26751262, -1266547.1, 452166.6, 0.10291468, 9.998732, 10.003958 
1.8149313e+3, 1.3462536e+2, -1871261.4, -1813590.6, -90904.79, 0.13490319, 0.26515386, -1747057.4, -126340.055, 0.06887483, 9.998564, 9.999319 
1.814952e+3, 1.446283e+2, -1695032.0, -1460659.4, -60842.938, 0.34331167, 0.5307829, -1445806.0, 76883.17, 0.036753505, 9.998113, 10.001321 
1.8149693e+3, 1.546306e+2, -1678458.9, -1388876.6, -10372.77, 0.054991458, 0.5958961, -1388505.5, 36162.848, 0.01378539, 9.997527, 10.001393 
1.8149874e+3, 1.6463141e+2, -1622914.5, -1473544.5, -23039.324, -0.18989897, 0.6153835, -1470071.6, -143411.8, 0.002842686, 9.997943, 9.999937 
1.8150084e+3, 1.7462991e+2, -1261441.4, -1234375.9, -37691.254, -0.1229125, 0.43776083, -1207861.6, 20808.832, 0.00016504708, 9.999708, 10.000043 
1.815029e+3, 1.8462901e+2, -1111427.4, -1151391.5, -152564.4, -0.0028910916, 0.3665889, -977542.06, 153136.1, 0.00000012908751, 10.000207, 9.999717 
1.8150479e+3, 1.9462909e+2, -1141401.0, -1097392.4, -142659.95, 0.111130185, 0.3669296, -975049.7, 57629.797, 0.0, 9.99927, 9.999852 
1.8150665e+3, 2.0462975e+2, -1034444.5, -961222.7, -51877.164, 0.07477955, 0.44063237, -934338.7, 333.2272, 0.0, 9.999177, 10.0001745 
1.8150853e+3, 2.1463105e+2, -785195.6, -771557.6, -22552.734, -0.09348296, 0.51515687, -754815.56, 81838.664, 0.0, 10.000151, 10.000322 
1.8151051e+3, 2.246302e+2, -742942.56, -887430.2, -55616.094, -0.11417584, 0.48816097, -724014.44, 14644.905, 0.0, 10.000577, 9.998649 
1.8151264e+3, 2.346269e+2, -640235.8, -782385.1, -61535.273, 0.030295208, 0.26513025, -617298.75, 23391.8, 0.0, 10.000596, 9.998679 
1.8151465e+3, 2.446249e+2, -521614.75, -724115.06, -46437.9, 0.01980414, 0.22578329, -511473.38, 31235.31, 0.0, 10.000915, 9.998274 
1.8151656e+3, 2.5462458e+2, -299085.0, -547839.0, -40988.055, -0.14751971, 0.3271332, -292505.3, 152203.94, 0.0, 10.001706, 9.998424 
1.8151858e+3, 2.6462296e+2, -251509.55, -628606.4, -94487.945, -0.17379947, 0.3974051, -229158.75, 117569.375, 0.0000000874347, 10.002014, 9.997049 
1.8152072e+3, 2.7461967e+2, -153690.52, -520680.06, -110502.75, -0.053472575, 0.32460338, -122986.35, 125783.28, 0.00001648955, 10.001988, 9.997117 
1.815227e+3, 2.846178e+2, 58006.45, -169510.42, -106079.45, -0.09016956, 0.35452965, 99791.68, 250582.0, 0.00017253889, 10.001886, 9.998916 
1.8152453e+3, 2.9461798e+2, 179048.23, -30909.33, -40888.92, -0.25947556, 0.41537824, 186730.22, 239514.02, 0.000680335, 10.001938, 9.999155 
1.8152675e+3, 3.0461636e+2, 113196.8, -371469.44, 33735.457, -0.20542629, 0.49592054, 115533.7, 115533.7, 0.0015763064, 10.002609, 9.996165 
1.815291e+3, 3.146116e+2, 367009.78, -40258.254, -11156.348, -0.118063405, 0.35323125, 367315.16, 367315.16, 0.0026708827, 10.003472, 9.9979925 
1.824911e+3, 1.246062e+2, -1645468.3, -1269610.4, 223762.52, 0.30400082, 0.2951596, -1165328.9, 553577.7, 0.10907774, 9.998517, 10.004118 
1.8249299e+3, 1.3460632e+2, -1854021.5, -1815149.4, 35092.332, 0.14681283, 0.35837018, -1794470.3, -173565.31, 0.07313931, 9.99869, 9.999255 
1.8249512e+3, 1.4460823e+2, -1561187.3, -1458871.6, -108.79531, 0.38954952, 0.5473762, -1458871.5, 64016.203, 0.039204508, 9.999331, 10.0007305 
1.8249683e+3, 1.5460996e+2, -1401161.8, -1339217.5, -37785.87, 0.09022189, 0.62709993, -1321332.3, 103541.414, 0.014855209, 9.99981, 10.00063 
1.8249865e+3, 1.6461048e+2, -1368148.0, -1326840.4, -14850.738, -0.15670009, 0.6487343, -1322055.5, 4812.181, 0.0031336718, 9.999574, 10.00016 
1.8250085e+3, 1.7460923e+2, -1373219.3, -1251421.1, 19821.645, -0.028638858, 0.46282747, -1248276.5, -19402.264, 0.00019006866, 9.998782, 10.00037 
1.8250294e+3, 1.8460837e+2, -1300889.3, -1225206.5, -52464.05, 0.099565245, 0.37085503, -1198360.6, -67480.336, 0.00000015151502, 9.9988365, 9.999867 
1.8250474e+3, 1.9460823e+2, -1023068.9, -1022953.25, -59127.836, 0.103303656, 0.33776158, -963883.25, 68999.695, 0.0, 10.000029, 9.99999 
1.8250664e+3, 2.0460874e+2, -798959.94, -889266.4, 47829.28, 0.06562665, 0.40636992, -778337.4, 156539.28, 0.0, 10.000978, 9.999787 
1.825087e+3, 2.1460985e+2, -591180.7, -723831.5, 158.44783, 0.0071980744, 0.50085896, -591180.5, 245680.81, 0.0, 10.001685, 9.999902 
1.8251073e+3, 2.246088e+2, -579136.2, -866260.2, -82913.875, -0.0058992472, 0.49814272, -556912.94, 181956.69, 0.0, 10.001925, 9.998156 
1.825127e+3, 2.3460536e+2, -525156.2, -777331.8, -114854.22, 0.007246686, 0.30854124, -480687.16, 160217.02, 0.0, 10.001599, 9.998232 
1.8251471e+3, 2.4460307e+2, -421376.84, -675253.94, -44490.785, -0.03152357, 0.26331908, -413805.8, 129119.52, 0.0, 10.001609, 9.998266 
1.8251675e+3, 2.5460222e+2, -254373.47, -525940.6, -43608.098, -0.12677772, 0.3130158, -247542.72, 197386.8, 0.0, 10.002017, 9.998414 
1.8251882e+3, 2.6460063e+2, -281042.38, -644334.06, -88440.02, -0.12185172, 0.38964128, -260656.42, 86291.336, 0.00000011582431, 10.001834, 9.997022 
1.8252088e+3, 2.7459806e+2, -294852.16, -599472.0, -93991.38, -0.023279037, 0.39841837, -268185.28, -19201.23, 0.000015405387, 10.001052, 9.997034 
1.8252288e+3, 2.8459597e+2, -56548.84, -214554.13, -45220.613, -0.038273983, 0.40562877, -44522.25, 106484.66, 0.00016027999, 10.001065, 9.9990015 
1.825248e+3, 2.9459494e+2, 195968.42, -20431.428, -102080.99, -0.18853237, 0.34995896, 236522.5, 289532.22, 0.00063771853, 10.002039, 9.999186 
1.8252708e+3, 3.0459347e+2, 158048.58, -340046.47, 13644.608, -0.14135227, 0.43533355, 158422.08, 158422.08, 0.0015065027, 10.002853, 9.996267 
1.8252955e+3, 3.1458938e+2, 356646.38, -75550.44, -49047.78, 0.010427977, 0.36696538, 362142.66, 362142.66, 0.0026113694, 10.003433, 9.997823 
1.8349075e+3, 1.2459199e+2, -1741447.6, -1464683.4, 209277.83, 0.04035431, 0.5573744, -1352173.4, 366873.56, 0.11569034, 9.998551, 10.002644 
1.8349285e+3, 1.3459265e+2, -1942069.3, -1995124.6, 70630.74, 0.12626486, 0.8061255, -1893148.8, -272107.56, 0.07769921, 9.998688, 9.998014 
1.8349485e+3, 1.4458737e+2, -1662015.4, -1681473.6, 12866.654, 0.15925823, 0.41327953, -1655613.6, -132518.83, 0.04181763, 9.999396, 9.999155 
1.8349697e+3, 1.5458758e+2, -1512084.8, -1575426.3, -12003.696, 0.2224048, 0.5019082, -1509886.3, -84791.27, 0.015997248, 9.999831, 9.998994 
1.8349889e+3, 1.6458799e+2, -1287827.1, -1169486.5, -58920.75, 0.10689197, 0.5487029, -1145153.6, 181934.97, 0.0034491862, 9.999614, 10.001225 
1.8350089e+3, 1.7458817e+2, -1284768.8, -1075366.8, -3778.5242, 0.09150676, 0.38971812, -1075298.6, 153779.92, 0.00021871291, 9.998805, 10.001573 
1.8350284e+3, 1.8458858e+2, -1284700.0, -1194238.5, -20917.785, 0.0932546, 0.349736, -1189635.9, -58565.703, 0.00000018976193, 9.998853, 10.000069 
1.8350469e+3, 1.9458945e+2, -1021531.2, -1009916.75, -6657.876, 0.026125105, 0.40190503, -1006889.3, 26171.781, 0.0, 9.999985, 10.000101 
1.8350668e+3, 2.0458886e+2, -888262.25, -1055085.8, 64575.543, -0.002487368, 0.4082216, -866186.94, 68878.18, 0.0, 10.000895, 9.998689 
1.8350893e+3, 2.1458651e+2, -692254.3, -902181.8, 33450.05, 0.061216705, 0.27395636, -687053.2, 150031.88, 0.0, 10.001552, 9.99874 
1.8351097e+3, 2.245849e+2, -648224.1, -964809.44, -101638.68, 0.025175558, 0.3051028, -618402.5, 120699.72, 0.0, 10.00173, 9.997576 
1.8351273e+3, 2.3458433e+2, -585035.3, -863330.94, -114784.31, -0.13594429, 0.4530273, -543801.44, 97312.99, 0.0, 10.001436, 9.997723 
1.8351471e+3, 2.4458252e+2, -436829.2, -658295.7, -39380.12, -0.19680947, 0.4710535, -430035.22, 113097.68, 0.0, 10.001396, 9.998488 
1.8351698e+3, 2.5457925e+2, -269217.34, -508863.22, -14429.894, -0.12410779, 0.25528163, -268351.63, 176807.02, 0.0, 10.001822, 9.998624 
1.8351905e+3, 2.6457772e+2, -283061.13, -613038.8, -123364.77, -0.10019451, 0.31436628, -242039.81, 105134.875, 0.000000090536304, 10.001669, 9.997321 
1.835209e+3, 2.7457818e+2, -282486.7, -550567.9, -107028.17, -0.13191488, 0.5899562, -244999.13, 4181.1094, 0.00001528185, 10.00095, 9.997418 
1.8352295e+3, 2.8457615e+2, -153692.84, -388098.13, -28309.145, -0.0985671, 0.6333298, -150322.4, 880.74976, 0.00015297614, 10.000935, 9.997876 
1.835252e+3, 2.9457176e+2, 89472.945, -192825.66, -44573.273, -0.007615189, 0.3534477, 96343.58, 149584.7, 0.000605686, 10.001842, 9.998088 
1.8352748e+3, 3.0456996e+2, 179306.4, -217504.97, 26006.297, -0.05085346, 0.41450262, 181003.56, 181003.56, 0.001455701, 10.002519, 9.99727 
1.8352975e+3, 3.145695e+2, 303907.9, -58666.535, -23187.742, -0.16856068, 0.5825304, 305384.8, 305384.8, 0.002587497, 10.002924, 9.998164 
1.8449055e+3, 1.2457144e+2, -1827901.9, -1571244.6, 18637.105, 0.019003924, 0.58436334, -1569898.4, 149351.52, 0.12272786, 9.998235, 10.001952 
1.8449272e+3, 1.3457283e+2, -1932349.0, -2027238.5, -144734.05, 0.12503593, 0.9434101, -1827481.8, -206242.75, 0.08254445, 9.998953, 9.997659 
1.8449463e+3, 1.445656e+2, -1654872.1, -1644991.5, -92571.9, 0.01294204, 0.36540812, -1557228.1, -33917.35, 0.04459436, 9.999287, 9.999471 
1.8449695e+3, 1.545659e+2, -1556539.4, -1547475.1, 6772.24, 0.26404563, 0.42194176, -1543858.4, -118551.98, 0.017215712, 9.999313, 9.99944 
1.8449898e+3, 1.6456681e+2, -1336606.0, -1191825.4, 5157.0776, 0.24815856, 0.49547538, -1191642.0, 135652.14, 0.0037916328, 9.999289, 10.001229 
1.8450081e+3, 1.7456774e+2, -1187050.0, -1030826.8, -53446.023, 0.12700324, 0.41375837, -1014292.2, 214986.9, 0.00025177147, 9.999504, 10.00154 
1.8450278e+3, 1.8456833e+2, -1107999.0, -1113340.0, -56612.28, 0.09624835, 0.39755166, -1053994.3, 77274.81, 0.00000025167606, 10.000081, 10.000034 
1.845048e+3, 1.9456881e+2, -834175.5, -921986.06, -71053.04, 0.09234652, 0.41222337, -794557.06, 238704.75, 0.0, 10.001272, 10.000086 
1.845069e+3, 2.0456764e+2, -809587.7, -1076015.1, -5690.2295, 0.07363215, 0.3858132, -809466.2, 125805.02, 0.0, 10.00168, 9.998177 
1.8450907e+3, 2.145645e+2, -760775.4, -993950.1, -10163.936, 0.054363508, 0.22884959, -760333.2, 76967.055, 0.0, 10.001338, 9.9982195 
1.845111e+3, 2.2456269e+2, -742058.4, -1035089.56, -94900.586, 0.00966441, 0.27786678, -714008.94, 25312.143, 0.0, 10.001218, 9.997324 
1.8451291e+3, 2.345624e+2, -603268.56, -901694.6, -109934.32, -0.093018495, 0.47998714, -567143.9, 74188.77, 0.0, 10.001442, 9.997446 
1.8451492e+3, 2.4456085e+2, -416504.4, -633351.4, -4375.6284, -0.12814423, 0.53031117, -416416.16, 126933.375, 0.0, 10.00148, 9.998612 
1.8451715e+3, 2.5455788e+2, -327058.7, -521750.38, -11507.959, -0.10070387, 0.3330743, -326380.84, 118991.06, 0.0, 10.001351, 9.998762 
1.845192e+3, 2.6455623e+2, -243178.28, -554737.8, -93161.6, -0.11256149, 0.35363567, -217446.56, 129940.9, 0.00000009817215, 10.001781, 9.997664 
1.8452105e+3, 2.745561e+2, 27660.477, -365874.66, -98265.21, -0.17955342, 0.5382819, 50832.734, 300228.06, 0.000013983738, 10.0029335, 9.997727 
1.8452318e+3, 2.8455392e+2, 167479.31, -309833.28, 17679.488, -0.08055519, 0.58601683, 168133.27, 319553.16, 0.00014295103, 10.003491, 9.997178 
1.8452562e+3, 2.9455e+2, 266788.44, -184875.56, -14994.348, 0.15526874, 0.43138322, 267285.7, 320743.6, 0.00057309034, 10.003391, 9.997409 
1.845278e+3, 3.0454803e+2, 262422.75, -83814.56, 74115.125, 0.024118148, 0.4712659, 277620.63, 277620.63, 0.0014018475, 10.002696, 9.998108 
1.8452989e+3, 3.1454742e+2, 132865.39, -101999.54, -83340.56, -0.24503106, 0.5496249, 159433.03, 159433.03, 0.0025416533, 10.001566, 9.99852 
1.854906e+3, 1.2454605e+2, -1812394.9, -1572757.5, 104200.67, 0.17635062, 0.51688933, -1533786.1, 185714.77, 0.13014582, 9.998368, 10.001911 
1.8549259e+3, 1.3454649e+2, -1903739.0, -1968434.3, -117966.59, 0.06320332, 0.7310962, -1813765.4, -192264.08, 0.08765755, 9.998946, 9.998067 
1.8549442e+3, 1.445429e+2, -1494280.1, -1325843.1, -95431.984, -0.159326, 0.3943115, -1282782.4, 240753.48, 0.04753598, 9.999319, 10.0017185 
1.8549676e+3, 1.5454489e+2, -1375274.4, -1186543.4, 15400.938, 0.11580079, 0.3753618, -1185294.9, 240213.64, 0.01851746, 9.999357, 10.001933 
1.8549882e+3, 1.6454689e+2, -1403201.9, -1342997.8, -415.7351, 0.14191529, 0.47639027, -1342994.9, -15509.995, 0.0041650403, 9.999345, 10.000159 
1.8550067e+3, 1.7454785e+2, -1279332.6, -1225517.9, -36128.426, -0.0055096834, 0.526416, -1207377.9, 22098.732, 0.00029041685, 9.999508, 10.000205 
1.8550274e+3, 1.8454756e+2, -1122542.4, -1147766.6, -25016.855, 0.010869299, 0.5071702, -1107138.3, 24339.404, 0.0000003514084, 10.000103, 9.999785 
1.8550506e+3, 1.9454636e+2, -855875.75, -953265.0, -20451.69, 0.20678765, 0.37263358, -851755.25, 181729.42, 0.0, 10.001212, 9.9999 
1.855072e+3, 2.0454505e+2, -819151.06, -1075081.6, -26381.717, 0.18447758, 0.34195608, -816459.9, 119034.82, 0.0, 10.001591, 9.998227 
1.8550909e+3, 2.1454367e+2, -775232.4, -993006.9, -14289.352, -0.07942188, 0.3517762, -774298.75, 63209.297, 0.0, 10.0012045, 9.998291 
1.8551108e+3, 2.245419e+2, -763141.44, -1040292.0, -94895.08, -0.14179154, 0.39895332, -733763.8, 5764.784, 0.0, 10.001046, 9.9973755 
1.8551321e+3, 2.3453969e+2, -623435.4, -911516.6, -89857.99, 0.03449352, 0.40849414, -597705.1, 43852.5, 0.0, 10.001302, 9.997449 
1.8551527e+3, 2.4453829e+2, -444887.3, -653107.9, -18680.752, 0.048379187, 0.4799764, -443224.63, 100348.38, 0.0, 10.0013075, 9.998562 
1.8551727e+3, 2.5453803e+2, -349095.06, -528318.2, -5612.7456, -0.13482665, 0.55075455, -348919.44, 96651.33, 0.0, 10.001192, 9.998789 
1.8551926e+3, 2.6453608e+2, -244458.83, -514308.84, -63477.695, -0.24497527, 0.5190377, -230272.55, 117315.04, 0.00000008466028, 10.0015955, 9.998033 
1.8552127e+3, 2.7453196e+2, 17574.117, -330977.72, -38110.973, -0.2546157, 0.2689592, 21692.543, 271320.56, 0.000011476472, 10.002703, 9.9980755 
1.8552354e+3, 2.8452948e+2, 87040.945, -417709.63, 2482.549, -0.10513753, 0.29985777, 87053.15, 238708.34, 0.00012752597, 10.003222, 9.996574 
1.8552601e+3, 2.9452947e+2, 197822.05, -270284.56, -365.9016, 0.1899264, 0.5921926, 197822.34, 251484.2, 0.0005311809, 10.003138, 9.996947 
1.85528e+3, 3.0452758e+2, 250421.14, -36402.652, 14623.394, -0.07297606, 0.62992245, 251164.77, 251164.77, 0.0013273064, 10.00239, 9.998578 
1.8553004e+3, 3.1452513e+2, 77603.375, -89827.04, -85593.29, -0.29403538, 0.48674566, 113614.72, 113614.72, 0.0024360365, 10.001053, 9.99884 
1.8649054e+3, 1.2452143e+2, -1794438.4, -1627014.0, 111599.88, 0.27988875, 0.52030295, -1571219.0, 148524.39, 0.1378835, 9.998812, 10.001278 
1.8649246e+3, 1.345221e+2, -1877076.9, -1770565.3, -31162.48, 0.08018296, 0.59189254, -1762117.9, -140377.28, 0.09301642, 9.998326, 9.999719 
1.8649429e+3, 1.4452139e+2, -1641272.6, -1348008.8, 3795.478, -0.1542208, 0.43629673, -1347959.6, 175787.23, 0.050644647, 9.998112, 10.002126 
1.864966e+3, 1.5452431e+2, -1481144.0, -1199506.9, -66584.914, 0.07083952, 0.47452483, -1184558.3, 241153.88, 0.01991141, 9.998479, 10.0022545 
1.8649872e+3, 1.6452621e+2, -1440471.6, -1370094.3, -98346.83, 0.118386656, 0.55408186, -1300830.4, 26859.564, 0.0045744055, 9.99913, 10.000072 
1.8650065e+3, 1.7452617e+2, -1182750.0, -1185405.4, -62975.707, 0.002843837, 0.5125271, -1121088.0, 108602.06, 0.0003360051, 10.000212, 10.000126 
1.8650278e+3, 1.8452543e+2, -1021631.5, -1141903.4, 20665.088, 0.018458597, 0.4685914, -1018179.9, 113516.16, 0.00000050835786, 10.000977, 9.999408 
1.8650515e+3, 1.9452436e+2, -823518.56, -979750.06, -3616.5857, 0.16039145, 0.38590103, -823434.9, 210269.3, 0.0, 10.001616, 9.999528 
1.8650731e+3, 2.0452349e+2, -783916.0, -1034455.3, -35617.69, 0.14870568, 0.40484068, -778950.9, 156760.47, 0.0, 10.001742, 9.998426 
1.8650922e+3, 2.145227e+2, -731832.8, -948571.8, -34119.875, -0.060203686, 0.4540631, -726588.4, 111129.914, 0.0, 10.001393, 9.998506 
1.8651125e+3, 2.2452092e+2, -680702.3, -980528.75, -55911.87, -0.098987155, 0.47859034, -670615.2, 69122.695, 0.0, 10.001526, 9.997562 
1.865134e+3, 2.3451807e+2, -463083.78, -814455.5, -57393.066, 0.0475969, 0.40767536, -453946.78, 187824.17, 0.0, 10.002317, 9.997636 
1.8651548e+3, 2.4451648e+2, -265880.6, -571715.4, 9554.931, 0.07281982, 0.4529833, -265582.38, 278205.25, 0.0, 10.00256, 9.998516 
1.8651748e+3, 2.5451645e+2, -215576.11, -475749.9, -1805.9402, -0.07689925, 0.5553762, -215563.58, 230220.67, 0.0, 10.002155, 9.998691 
1.865195e+3, 2.6451454e+2, -210012.88, -505279.9, -29064.217, -0.17220862, 0.5376922, -207179.17, 140622.06, 0.000000065173005, 10.001866, 9.99796 
1.8652155e+3, 2.7451044e+2, -121520.35, -406410.0, -67444.84, -0.19831756, 0.29785106, -106360.18, 143481.28, 0.000009433609, 10.001779, 9.998003 
1.865238e+3, 2.845082e+2, -114235.63, -488261.13, -5161.4775, -0.07293707, 0.34274858, -114164.414, 37701.81, 0.00011541126, 10.001732, 9.996796 
1.8652621e+3, 2.9450837e+2, 21520.436, -326225.94, 14597.17, 0.15219992, 0.6304554, 22132.098, 76002.92, 0.0004957237, 10.001807, 9.997184 
1.865281e+3, 3.0450597e+2, 158227.58, -102871.62, 45169.02, -0.15838164, 0.6162583, 165820.8, 165820.8, 0.0012524537, 10.001831, 9.998386 
1.8653025e+3, 3.1450397e+2, 241684.03, 3907.4863, -131329.86, -0.22060654, 0.53447926, 299945.28, 299945.28, 0.0022969444, 10.002069, 9.999001 
1.8749028e+3, 1.24497026e+2, -1886940.5, -1836900.3, -93327.9, 0.08376026, 0.51873934, -1765296.9, -45314.19, 0.14588223, 9.998914, 9.999667 
1.8749231e+3, 1.3449974e+2, -1665741.1, -1365408.8, -36128.53, 0.07122226, 0.52376485, -1361123.8, 260831.53, 0.0986057, 9.998343, 10.00269 
1.8749419e+3, 1.445012e+2, -1736801.4, -1549657.5, 5283.3535, -0.08579743, 0.48896676, -1549508.5, -25566.037, 0.053927336, 9.998161, 10.000653 
1.8749645e+3, 1.5450414e+2, -1610893.9, -1469903.8, -41885.24, 0.03907231, 0.7178484, -1458399.3, -32481.63, 0.021407956, 9.998493, 10.000362 
1.8749861e+3, 1.645048e+2, -1367689.9, -1229938.6, -69991.52, 0.072280444, 0.72633344, -1200617.3, 127291.99, 0.0050250688, 9.999174, 10.001018 
1.8750075e+3, 1.745027e+2, -1105879.3, -1026915.6, -15942.157, 0.057571016, 0.3733399, -1023818.5, 206101.48, 0.00038988978, 10.000205, 10.001225 
1.8750289e+3, 1.8450183e+2, -1047319.1, -1197892.6, 32524.72, -0.004029333, 0.27726024, -1040593.94, 91331.414, 0.000000733184, 10.000993, 9.999016 
1.8750505e+3, 1.945028e+2, -868707.4, -1057149.5, 28263.781, -0.12557133, 0.4510259, -864559.5, 169361.17, 0.0, 10.001548, 9.99903 
1.8750723e+3, 2.045028e+2, -769367.8, -988528.7, -60040.027, -0.13201469, 0.5686726, -753997.56, 181924.58, 0.0, 10.001669, 9.99878 
1.8750945e+3, 2.145017e+2, -727599.1, -908047.06, -38256.746, 0.011130626, 0.5466429, -719823.4, 118107.055, 0.0, 10.001255, 9.998852 
1.8751152e+3, 2.2449987e+2, -687489.25, -954854.7, -37953.91, 0.016125131, 0.5381464, -682205.94, 57741.902, 0.0, 10.001346, 9.997828 
1.8751346e+3, 2.344974e+2, -469870.5, -783235.44, -16483.07, -0.13253525, 0.4733079, -469005.88, 172968.33, 0.0, 10.002126, 9.997938 
1.8751554e+3, 2.4449512e+2, -304290.47, -602610.56, -10968.103, -0.1497598, 0.43849096, -303887.78, 240108.36, 0.0, 10.002343, 9.998414 
1.8751776e+3, 2.5449318e+2, -250063.13, -504423.75, -2860.0647, -0.022548817, 0.35948858, -250030.97, 195981.2, 0.0, 10.001976, 9.998579 
1.8751988e+3, 2.6449177e+2, -275745.9, -604946.75, -42003.12, -0.011796288, 0.426691, -270471.2, 77555.86, 0.00000004605578, 10.001693, 9.997369 
1.8752183e+3, 2.744913e+2, -184562.39, -502084.47, -54423.45, -0.11941476, 0.6111848, -175493.22, 74544.4, 0.000008319171, 10.001621, 9.997427 
1.8752395e+3, 2.8448975e+2, -75224.51, -365594.06, -14538.868, -0.12255554, 0.7105563, -74498.36, 77557.234, 0.00010877432, 10.001549, 9.997731 
1.8752621e+3, 2.9448655e+2, 44633.09, -217289.14, 36677.082, -0.044695947, 0.5658772, 49672.055, 103758.08, 0.0004720907, 10.001555, 9.998054 
1.8752809e+3, 3.0448315e+2, 63938.438, -228029.69, 32871.234, -0.38429868, 0.44548774, 67593.49, 67593.49, 0.0011878542, 10.001533, 9.997669 
1.8753062e+3, 3.1448272e+2, 171065.6, -9097.159, -13935.532, -0.08661523, 0.5892858, 172137.13, 172137.13, 0.002155699, 10.001525, 9.999164 
1.8849011e+3, 1.24475524e+2, -2011721.9, -1871597.0, 58341.777, 0.085686676, 0.5045307, -1850486.5, -130293.9, 0.15411249, 9.997933, 9.999905 
1.8849213e+3, 1.3447823e+2, -1597576.9, -1323735.4, 8482.79, 0.05303229, 0.4787121, -1323472.8, 298692.03, 0.10442951, 9.998768, 10.002813 
1.8849409e+3, 1.444809e+2, -1622673.1, -1589813.6, -32197.309, -0.054885905, 0.6053558, -1570096.4, -45955.35, 0.057399224, 9.999358, 9.999801 
1.8849637e+3, 1.5448192e+2, -1510650.6, -1495578.9, -12237.959, 0.058892157, 0.71401095, -1488742.6, -62605.12, 0.023018045, 9.999528, 9.999677 
1.8849857e+3, 1.6448195e+2, -1336195.9, -1201732.3, 2270.8474, 0.1138886, 0.6902416, -1201694.0, 126442.4, 0.005521801, 9.999322, 10.001144 
1.8850073e+3, 1.7448105e+2, -1287682.5, -1096291.9, -30785.824, 0.10332973, 0.43764883, -1091461.8, 138673.64, 0.0004532519, 9.998868, 10.001401 
1.885029e+3, 1.844808e+2, -1367638.0, -1340429.1, 30113.691, 0.019998983, 0.3894286, -1320989.4, -188854.52, 0.0000010252129, 9.998745, 9.999117 
1.8850504e+3, 1.9448142e+2, -1187598.5, -1198068.9, 55742.65, -0.16558489, 0.51376706, -1136845.8, -102711.37, 0.0, 9.999302, 9.999141 
1.8850727e+3, 2.0448118e+2, -961745.3, -1043080.8, 4863.241, -0.1683983, 0.5845539, -961455.56, -25318.145, 0.0, 10.000181, 9.999123 
1.8850961e+3, 2.1448001e+2, -640043.56, -821850.8, 6463.269, 0.04218957, 0.5213898, -639814.06, 198329.67, 0.0, 10.001673, 9.999239 
1.8851174e+3, 2.2447853e+2, -581960.1, -881675.3, -2654.1707, 0.071142405, 0.51686573, -581936.6, 158219.89, 0.0, 10.001985, 9.998011 
1.8851359e+3, 2.3447664e+2, -633504.1, -848302.1, -10926.693, -0.13588747, 0.49797148, -632949.75, 9227.832, 0.0, 10.00093, 9.99807 
1.8851566e+3, 2.4447443e+2, -545314.1, -738031.06, 23089.195, -0.1691261, 0.46976152, -542586.5, 1613.565, 0.0, 10.000784, 9.998228 
1.8851796e+3, 2.5447184e+2, -285117.88, -548902.1, -2814.3342, -0.015212409, 0.3524778, -285087.84, 161135.78, 0.0, 10.001854, 9.998331 
1.885201e+3, 2.6447046e+2, -141212.52, -520939.34, -7383.649, 0.020848306, 0.42719156, -141068.98, 207169.36, 0.000000017635879, 10.002557, 9.9975195 
1.8852206e+3, 2.7447084e+2, 23746.342, -377888.9, 11619.367, -0.105216645, 0.67625254, 24082.21, 274321.38, 0.000007223604, 10.002974, 9.997618 
1.8852416e+3, 2.8446928e+2, 118372.73, -270454.53, 60528.22, -0.11968762, 0.76558775, 127577.18, 279833.44, 0.00010058898, 10.002899, 9.997724 
1.8852642e+3, 2.9446504e+2, 146486.1, -185410.22, 3273.9214, -0.015228708, 0.5180141, 146518.38, 200815.33, 0.00044321027, 10.002325, 9.997907 
1.8852831e+3, 3.0446154e+2, 130357.14, -201132.06, 23111.031, -0.3228224, 0.40253133, 131960.66, 131960.66, 0.0011140355, 10.001983, 9.99766 
1.8853085e+3, 3.1446075e+2, 291739.03, 154582.77, 13881.315, -0.02621881, 0.5007905, 293129.84, 293129.84, 0.0020103257, 10.001886, 10.000125 
1.8948996e+3, 1.2445766e+2, -1808807.4, -1522696.4, -428.38562, 0.0871809, 0.5074306, -1522695.8, 197670.02, 0.16258536, 9.998058, 10.002513 
1.894919e+3, 1.3445778e+2, -1805455.3, -1727807.4, 59253.66, -0.07967049, 0.46927652, -1695791.4, -73424.21, 0.110513955, 9.998757, 9.99982 
1.8949394e+3, 1.4446045e+2, -1629329.9, -1602587.9, -37101.54, -0.1815918, 0.77732706, -1576521.5, -52178.11, 0.06108175, 9.999363, 9.999706 
1.8949631e+3, 1.5445757e+2, -1478440.9, -1429705.9, 3041.5178, 0.043348994, 0.45468658, -1429516.9, -3144.301, 0.024752133, 9.999531, 10.00013 
1.8949854e+3, 1.6445757e+2, -1366723.8, -1281257.4, -22059.732, 0.12804238, 0.43173322, -1275899.4, 52473.207, 0.0060684755, 9.999391, 10.000563 
1.895006e+3, 1.7446122e+2, -1336870.8, -1197847.5, -40236.43, 0.058934744, 0.70010287, -1187042.0, 43294.402, 0.0005270964, 9.998865, 10.000706 
1.8950278e+3, 1.8446226e+2, -1317719.6, -1246381.0, 39120.324, -0.0074609006, 0.79026395, -1229109.9, -96784.4, 0.0000013718216, 9.998787, 9.999739 
1.8950509e+3, 1.9446033e+2, -1145985.9, -1101097.8, 82163.266, -0.06525122, 0.5881803, -1038368.25, -4024.35, 0.0, 9.999258, 9.999825 
1.8950741e+3, 2.044587e+2, -947642.9, -1002746.6, 49532.12, -0.08368578, 0.46907273, -918515.5, 17840.486, 0.0, 10.000122, 9.9994335 
1.8950972e+3, 2.1445765e+2, -636526.56, -785020.7, 69904.52, -0.04038656, 0.38455653, -608796.8, 229561.48, 0.0, 10.001535, 9.999561 
1.8951187e+3, 2.2445667e+2, -608654.75, -887901.1, -48110.137, -0.02503931, 0.40856895, -600598.5, 139767.97, 0.0, 10.001772, 9.998072 
1.8951377e+3, 2.344559e+2, -655902.94, -853842.56, -39914.273, -0.06513789, 0.49530962, -648157.4, -5776.924, 0.0, 10.000759, 9.99811 
1.8951581e+3, 2.444545e+2, -599033.25, -810440.56, 46570.89, -0.104140386, 0.56614727, -589228.8, -44830.688, 0.0, 10.000602, 9.997828 
1.8951805e+3, 2.544524e+2, -339420.7, -620512.1, 47714.547, -0.13029842, 0.5359658, -331542.1, 114877.65, 0.0, 10.001679, 9.997924 
1.895202e+3, 2.6445046e+2, -111718.8, -418911.56, -1506.5067, -0.16848141, 0.54268175, -111711.41, 236725.89, 0.0000000071100716, 10.002374, 9.998311 
1.8952222e+3, 2.74449e+2, 52528.758, -262596.9, 39140.117, -0.24640082, 0.5207037, 57317.38, 307764.6, 0.0000064443307, 10.002746, 9.998514 
1.8952441e+3, 2.8444684e+2, 21737.852, -420514.34, 23456.3, -0.19096938, 0.53983504, 22978.455, 175447.0, 0.0000894982, 10.002663, 9.996814 
1.8952678e+3, 2.9444346e+2, 22606.64, -380653.16, 767.20374, 0.087135315, 0.481856, 22608.102, 77114.84, 0.00040204544, 10.002049, 9.996703 
1.8952869e+3, 3.0444086e+2, 106417.78, -161309.95, 5449.5024, -0.17914823, 0.50407946, 106528.66, 106528.66, 0.0010230613, 10.001627, 9.998091 
1.8953088e+3, 3.144377e+2, 260909.92, 253530.06, 120298.516, -0.22245929, 0.29727903, 377575.1, 377575.1, 0.0018604677, 10.001255, 10.001086 
1.9048987e+3, 1.2443918e+2, -1694980.9, -1391363.5, -20445.184, 0.17760837, 0.49887338, -1389993.0, 330550.6, 0.1713416, 9.998456, 10.003416 
1.9049168e+3, 1.3443767e+2, -1859588.5, -1933490.8, 121607.57, -0.19529095, 0.4224204, -1769442.1, -146879.02, 0.11689223, 9.999197, 9.998179 
1.90494e+3, 1.4443985e+2, -1634857.0, -1660922.3, 92177.21, -0.05311058, 0.8056908, -1554795.6, -30251.299, 0.06499328, 9.999551, 9.999221 
1.9049636e+3, 1.5443614e+2, -1333254.4, -1365088.3, 71266.55, 0.08080331, 0.40404317, -1276149.0, 150431.02, 0.026617203, 10.000547, 10.000101 
1.9049852e+3, 1.6443577e+2, -1275470.9, -1332333.3, -8911.854, 0.11799775, 0.38390645, -1274106.9, 54477.703, 0.0066676727, 10.000429, 9.99971 
1.9050048e+3, 1.7443918e+2, -1331812.4, -1291275.4, -62980.67, 0.048698336, 0.71899873, -1245382.1, -14827.72, 0.0006122247, 9.999323, 9.999834 
1.905027e+3, 1.8444e+2, -1219012.6, -1186028.0, 76747.125, 0.023819925, 0.8258906, -1124021.1, 8525.357, 0.0000017786746, 9.999415, 9.999851 
1.905052e+3, 1.944379e+2, -840441.75, -937072.94, 65213.1, 0.028620563, 0.5937152, -807596.1, 226967.53, 0.0, 10.001284, 9.999979 
1.905076e+3, 2.0443627e+2, -735504.56, -899465.75, -25381.271, 0.03460078, 0.46966892, -731665.4, 204909.81, 0.0, 10.001601, 9.999416 
1.9050987e+3, 2.1443531e+2, -841582.7, -889714.1, -55621.13, 0.040177234, 0.39894655, -805044.25, 33535.09, 0.0, 10.000163, 9.999499 
1.9051199e+3, 2.244345e+2, -864731.75, -985237.25, -157941.2, 0.03340065, 0.43433732, -755940.6, -15353.384, 0.0, 9.999891, 9.998314 
1.9051391e+3, 2.3443408e+2, -579527.6, -791074.4, -154518.2, -0.015490319, 0.5301038, -498047.5, 144550.6, 0.0, 10.001164, 9.998348 
1.90516e+3, 2.4443315e+2, -394399.25, -693654.25, -2348.302, -0.0587969, 0.62858194, -394380.8, 150230.28, 0.0, 10.001945, 9.997969 
1.9051825e+3, 2.5443152e+2, -248117.61, -559465.25, 17303.248, -0.1033734, 0.6285454, -247158.92, 199468.86, 0.0, 10.002233, 9.998071 
1.9052042e+3, 2.6442927e+2, -143740.25, -427877.2, -38404.082, -0.15927495, 0.5925769, -138641.06, 210006.05, 0.000000016068412, 10.002128, 9.998364 
1.9052242e+3, 2.7442652e+2, -97308.98, -338145.72, -84107.88, -0.2742136, 0.4419748, -70843.99, 179823.52, 0.000006020835, 10.001696, 9.998514 
1.9052456e+3, 2.8442407e+2, -131239.13, -483430.78, -74836.055, -0.23159425, 0.4289576, -115997.09, 36694.164, 0.00007835106, 10.001559, 9.996917 
1.9052695e+3, 2.94422e+2, 19108.352, -366926.28, -57256.37, 0.057879627, 0.49292046, 27421.55, 82140.15, 0.00035541624, 10.001965, 9.996833 
1.905289e+3, 3.0442056e+2, 126311.805, -179989.06, -1985.2794, -0.10605572, 0.63763964, 126324.67, 126324.67, 0.000923281, 10.001891, 9.997838 
1.9053108e+3, 3.1441554e+2, 197053.02, 149017.89, 6043.5, -0.11915216, 0.28442368, 197801.72, 197801.72, 0.0017138104, 10.001055, 10.000505 
1.9148977e+3, 1.24419294e+2, -1779195.1, -1535773.3, -29783.67, 0.1785943, 0.39593217, -1532182.1, 188551.39, 0.18042894, 9.998427, 10.002234 
1.9149141e+3, 1.3441776e+2, -1881874.5, -1979743.4, 132487.44, -0.39778298, 0.32088748, -1789573.3, -166819.5, 0.12358676, 9.999203, 9.997856 
1.9149426e+3, 1.4441884e+2, -1675081.5, -1767804.8, 116254.87, 0.2207831, 0.66042256, -1596284.9, -71538.055, 0.069141634, 9.99965, 9.99844 
1.9149642e+3, 1.5441763e+2, -1368895.1, -1438783.3, 116809.12, 0.074276656, 0.5641331, -1281915.1, 144844.66, 0.028615344, 10.000549, 9.999593 
1.9149844e+3, 1.6441667e+2, -1340740.5, -1484870.4, -59507.95, -0.031900607, 0.56010836, -1319346.6, 9424.085, 0.0073205116, 10.0005, 9.998627 
1.9150038e+3, 1.7441513e+2, -1413588.3, -1457187.4, -100035.19, -0.01576604, 0.5123054, -1333004.9, -102217.27, 0.00070924795, 9.999311, 9.998697 
1.9150265e+3, 1.844141e+2, -1237810.1, -1240954.1, 129474.55, 0.010093738, 0.5134277, -1109898.0, 22899.215, 0.0000023137907, 9.999475, 9.999452 
1.9150536e+3, 1.944142e+2, -874391.94, -993442.25, 144044.19, 0.04155031, 0.5403631, -778058.3, 256734.69, 0.0, 10.001219, 9.999628 
1.9150783e+3, 2.0441386e+2, -780714.1, -974452.56, -80276.88, 0.089783214, 0.58374673, -751773.9, 185021.69, 0.0, 10.001509, 9.998947 
1.9151005e+3, 2.1441297e+2, -891779.9, -966258.3, -101370.055, 0.18592764, 0.56575936, -821025.4, 17781.271, 0.0, 10.000039, 9.999032 
1.9151211e+3, 2.2441207e+2, -862612.44, -939280.4, -120859.805, 0.14490154, 0.59642583, -774152.94, -33334.586, 0.0, 9.999708, 9.998721 
1.9151399e+3, 2.3441131e+2, -572606.56, -734387.4, -93214.2, -0.06441775, 0.6153564, -530078.44, 112750.72, 0.0, 10.000991, 9.998821 
1.9151612e+3, 2.444103e+2, -378931.38, -617626.56, 3136.1047, -0.14369388, 0.6537606, -378890.2, 165949.42, 0.0, 10.001748, 9.998588 
1.9151856e+3, 2.544092e+2, -231631.31, -477742.6, 39578.402, -0.043487813, 0.6410386, -225423.11, 221424.66, 0.0, 10.002033, 9.998725 
1.9152074e+3, 2.64407e+2, -222153.64, -542847.5, -65430.906, -0.07565206, 0.6099845, -209317.61, 139548.61, 0.000000038925435, 10.001913, 9.9976845 
1.9152257e+3, 2.7440348e+2, -180026.63, -463616.63, -86539.71, -0.3034917, 0.45197067, -155704.36, 95194.31, 0.0000054500297, 10.001504, 9.997743 
1.915246e+3, 2.8440103e+2, -95681.19, -369702.7, -72862.13, -0.37829456, 0.4426504, -77511.93, 75411.53, 0.00006657065, 10.001384, 9.997786 
1.915269e+3, 2.9440048e+2, 53730.313, -237736.23, -23274.148, -0.20042634, 0.5596449, 55577.094, 110510.92, 0.00030457476, 10.001728, 9.997832 
1.91529e+3, 3.044008e+2, 32483.424, -317919.6, -46623.723, -0.2354458, 0.86160845, 38580.95, 38580.95, 0.00081276876, 10.001638, 9.997006 
1.915311e+3, 3.1439644e+2, -1125.7867, -122634.59, 4065.7122, -0.23643939, 0.6540575, -989.89905, -989.89905, 0.0015532185, 10.000502, 9.998871 
1.9248973e+3, 1.2439947e+2, -2022086.3, -1721218.5, -106353.98, 0.3716694, 0.52172506, -1687420.1, 33510.125, 0.18987963, 9.997193, 10.00133 
1.9249135e+3, 1.343965e+2, -1794362.8, -1907668.5, 23649.123, -0.3847899, 0.27212209, -1789624.9, -166662.77, 0.13060497, 9.999657, 9.998136 
1.9249435e+3, 1.4439745e+2, -1552682.6, -1739516.3, 43448.5, 0.30827266, 0.59618706, -1543072.9, -18117.514, 0.07352615, 10.000625, 9.998162 
1.9249643e+3, 1.5439716e+2, -1472466.8, -1516406.9, 41856.15, 0.07199442, 0.61923, -1447165.0, -20204.953, 0.030745408, 9.999944, 9.99934 
1.9249846e+3, 1.6439575e+2, -1397438.5, -1568347.9, -75541.086, -0.058634948, 0.6101814, -1368836.4, -39861.098, 0.008026891, 10.000375, 9.998107 
1.9250049e+3, 1.7439246e+2, -966646.0, -1304352.6, -89729.83, -0.0003287717, 0.43892574, -944285.1, 286723.66, 0.0008187495, 10.002654, 9.99814 
1.9250281e+3, 1.843906e+2, -807013.0, -1076068.1, 148249.61, 0.06468433, 0.4050732, -741351.6, 391674.3, 0.0000031359323, 10.00262, 9.9990635 
1.9250546e+3, 1.9439088e+2, -1076882.1, -1129600.1, 142738.77, 0.08887963, 0.4841466, -958088.94, 76930.79, 0.0, 9.999992, 9.999278 
1.9250788e+3, 2.0439082e+2, -1157108.0, -1141379.1, -36265.883, 0.11947332, 0.5653144, -1112134.8, -175114.36, 0.0, 9.998859, 9.9990835 
1.9251e+3, 2.1439038e+2, -908414.06, -953532.2, -28368.309, 0.15416335, 0.5762067, -894728.5, -55699.28, 0.0, 9.999844, 9.999213 
1.9251211e+3, 2.2438985e+2, -678050.8, -826262.8, 39673.64, 0.12155504, 0.6236504, -668099.1, 72938.77, 0.0, 10.000891, 9.9989195 
1.9251418e+3, 2.3438916e+2, -404503.3, -631707.44, 29947.627, -0.019338548, 0.6298355, -400622.25, 242424.53, 0.0, 10.0020485, 9.999017 
1.9251637e+3, 2.443881e+2, -333531.66, -577573.44, 53752.016, -0.068739906, 0.64252675, -322216.97, 222839.95, 0.0, 10.001972, 9.998759 
1.925187e+3, 2.5438687e+2, -445565.75, -570493.2, 31757.959, -0.015000704, 0.60991675, -437956.06, 9109.754, 0.0, 10.000497, 9.998843 
1.9252089e+3, 2.6438498e+2, -444617.47, -642695.5, -931.0236, -0.034083944, 0.5937947, -444613.1, -95530.51, 0.000000047147957, 10.000358, 9.997747 
1.9252284e+3, 2.7438197e+2, -113147.86, -422066.2, 10203.804, -0.19503832, 0.4825226, -112811.19, 138300.27, 0.0000044268, 10.001924, 9.997827 
1.9252488e+3, 2.8437972e+2, 69579.945, -282243.5, 29538.148, -0.286407, 0.487537, 72042.65, 225176.92, 0.000054025306, 10.002509, 9.9978285 
1.9252703e+3, 2.943792e+2, 124491.46, -209623.86, -17613.957, -0.25716886, 0.60768783, 125417.47, 180560.77, 0.0002523582, 10.002222, 9.997793 
1.9252916e+3, 3.043787e+2, 120554.18, -278008.0, -26270.104, -0.26821664, 0.8341415, 122278.24, 122278.24, 0.00069489033, 10.002244, 9.996995 
1.9253138e+3, 3.143757e+2, 252688.48, -42229.125, -16999.547, -0.08514319, 0.7697014, 253665.13, 253665.13, 0.0013683941, 10.002352, 9.998568 
1.934895e+3, 1.2437855e+2, -2039608.9, -1777033.9, -46196.902, 0.3731347, 0.7756494, -1769143.3, -47997.91, 0.1997211, 9.997288, 10.000859 
1.9349147e+3, 1.343736e+2, -1735009.0, -1777799.8, 113423.26, -0.2623359, 0.2625382, -1640980.9, -17789.83, 0.13795441, 9.999629, 9.999042 
1.9349422e+3, 1.4437595e+2, -1518958.9, -1684302.6, 16529.156, 0.06419933, 0.6506955, -1517322.6, 7844.4507, 0.07814733, 10.00069, 9.99851 
1.9349636e+3, 1.5437482e+2, -1470938.4, -1518491.0, 22123.947, -0.01681222, 0.583136, -1462237.3, -35057.598, 0.033007, 9.999958, 9.999325 
1.934985e+3, 1.6437292e+2, -1382489.0, -1550943.3, -9213.488, -0.07552615, 0.52436006, -1381986.6, -52787.3, 0.008786739, 10.000429, 9.998204 
1.9350079e+3, 1.743711e+2, -961836.9, -1294304.1, 3974.3042, 0.016846621, 0.49528933, -961789.4, 269429.03, 0.00094156526, 10.002649, 9.998217 
1.935031e+3, 1.8436949e+2, -824717.5, -1122323.8, 51758.566, 0.07678214, 0.496947, -815972.8, 317260.13, 0.0000044945964, 10.002658, 9.998728 
1.9350547e+3, 1.9436799e+2, -1108403.1, -1189883.9, 51481.34, 0.08374141, 0.43598694, -1083492.1, -48248.832, 0.0, 9.999963, 9.998882 
1.9350767e+3, 2.0436715e+2, -1113205.9, -1038746.44, -18167.395, 0.016279368, 0.42649528, -1034550.2, -97300.336, 0.0, 9.998806, 9.999817 
1.9350971e+3, 2.1436748e+2, -875501.7, -851213.7, 15658.819, -0.12437585, 0.4372162, -843541.6, -4293.6226, 0.0, 9.999697, 9.9999895 
1.9351195e+3, 2.2436759e+2, -713654.5, -844617.44, 73983.6, -0.13742745, 0.50982875, -680336.2, 60912.69, 0.0, 10.000659, 9.9989 
1.9351444e+3, 2.3436747e+2, -439043.4, -654413.8, 81652.37, 0.016414024, 0.580011, -411587.16, 231665.55, 0.0, 10.001848, 9.998951 
1.935167e+3, 2.4436651e+2, -384438.0, -637747.56, -10433.499, 0.039955337, 0.61954373, -384009.0, 161254.75, 0.0, 10.001771, 9.998447 
1.9351868e+3, 2.543646e+2, -487941.97, -624081.9, -16497.287, -0.09771344, 0.5496744, -485971.34, -38689.117, 0.0, 10.000357, 9.998541 
1.9352084e+3, 2.64363e+2, -425119.3, -556410.0, 39400.793, -0.13253501, 0.5459055, -414202.7, -64905.016, 0.00000001782158, 10.000169, 9.998428 
1.935232e+3, 2.7436173e+2, -92222.945, -323108.75, 77547.07, -0.052799895, 0.5384801, -68595.32, 182713.14, 0.0000033385966, 10.001711, 9.998597 
1.9352534e+3, 2.8436017e+2, -9218.448, -411652.94, -1009.2694, -0.09610055, 0.60183614, -9215.917, 144108.64, 0.00004416703, 10.002342, 9.99703 
1.9352727e+3, 2.943582e+2, 32049.264, -344320.13, -12004.431, -0.26295725, 0.6616256, 32431.76, 87779.016, 0.00021030295, 10.001985, 9.996979 
1.9352931e+3, 3.043547e+2, 105597.47, -238579.36, -31921.197, -0.36746112, 0.61133176, 108533.01, 108533.01, 0.0005914415, 10.001944, 9.99741 
1.935317e+3, 3.143522e+2, 228462.7, 52088.06, -20428.516, -0.017314378, 0.54250836, 230797.9, 230797.9, 0.0011864149, 10.001803, 9.999447 
1.944893e+3, 1.2435376e+2, -1707827.4, -1727203.4, 33780.1, 0.30210674, 0.75914526, -1682373.5, 39017.37, 0.20999403, 10.000075, 9.999886 
1.9449167e+3, 1.3434988e+2, -1747434.6, -1697779.8, 29597.352, 0.01462423, 0.30497938, -1683975.5, -60549.047, 0.14565058, 9.999148, 9.999836 
1.9449402e+3, 1.443534e+2, -1735658.3, -1738575.8, -73808.125, -0.09026695, 0.7377521, -1663294.5, -137903.77, 0.083007626, 9.9989605, 9.998987 
1.9449632e+3, 1.5435147e+2, -1549011.0, -1535931.4, -90907.625, -0.018430859, 0.56760496, -1451328.6, -23918.125, 0.03539992, 9.999321, 9.999517 
1.944986e+3, 1.6434966e+2, -1477593.1, -1556834.4, -24227.72, 0.018487932, 0.48683482, -1470772.6, -141343.11, 0.009600047, 9.999596, 9.99857 
1.9450098e+3, 1.7434959e+2, -1271585.0, -1394769.0, 2449.6763, 0.076109074, 0.5956481, -1271536.3, -40104.324, 0.0010784023, 10.000314, 9.998646 
1.9450328e+3, 1.8434873e+2, -1102032.5, -1235685.3, -632.18634, 0.1021518, 0.63946885, -1102029.5, 31409.723, 0.0000066792873, 10.000667, 9.998911 
1.9450545e+3, 1.9434644e+2, -976968.75, -1104872.3, 19129.248, 0.043656368, 0.48084465, -974169.06, 61287.543, 0.0, 10.000786, 9.999066 
1.945076e+3, 2.0434509e+2, -851389.6, -938141.0, 14433.626, -0.029587174, 0.42146137, -849051.2, 88415.89, 0.0, 10.000722, 9.999578 
1.9450973e+3, 2.1434514e+2, -760004.2, -827180.56, -42288.105, -0.12360198, 0.43408304, -739588.25, 99878.59, 0.0, 10.000622, 9.999707 
1.9451202e+3, 2.2434497e+2, -751634.94, -873432.5, -4114.796, -0.11643102, 0.4961691, -751496.06, -10026.306, 0.0, 10.000427, 9.998819 
1.9451453e+3, 2.343445e+2, -675204.06, -778819.8, -11442.441, 0.009812668, 0.5386547, -673955.5, -30478.553, 0.0, 10.000256, 9.998877 
1.9451681e+3, 2.4434364e+2, -542943.9, -670148.25, -86049.22, 0.040229667, 0.577565, -499542.78, 45943.855, 0.0, 10.00052, 9.998821 
1.9451877e+3, 2.543423e+2, -295477.13, -490872.78, -66257.66, -0.07799743, 0.5280034, -275128.6, 172371.08, 0.0, 10.001508, 9.9989 
1.9452097e+3, 2.643411e+2, -135330.2, -416882.72, 51139.047, -0.108133174, 0.54736066, -126329.44, 223182.27, 0.000000002142629, 10.00215, 9.998432 
1.945234e+3, 2.7434033e+2, 17597.014, -285541.6, 13811.859, -0.04618104, 0.5928429, 18225.021, 269744.8, 0.0000030022966, 10.002489, 9.998502 
1.9452563e+3, 2.8433865e+2, 3638.2153, -385693.9, -89404.27, -0.04269866, 0.6479308, 23187.0, 176723.36, 0.00003904193, 10.002347, 9.997211 
1.9452757e+3, 2.9433587e+2, -2419.9126, -328783.78, -68040.3, -0.13730417, 0.6082348, 11196.98, 66760.734, 0.0001845939, 10.001595, 9.99728 
1.9452955e+3, 3.0433118e+2, 49074.957, -258487.16, 15673.579, -0.28821295, 0.413535, 49871.63, 49871.63, 0.0005147042, 10.001537, 9.997459 
1.9453198e+3, 3.1433025e+2, 390480.8, 130051.766, -67491.05, 0.019513948, 0.5206983, 406932.13, 406932.13, 0.0010263091, 10.00287, 9.999491 
1.9548903e+3, 1.2432593e+2, -1798097.4, -1956381.4, 216833.58, -0.02923852, 0.56550545, -1646414.3, 75244.2, 0.22070916, 10.000269, 9.9982605 
1.9549195e+3, 1.3432536e+2, -1681538.6, -1585574.1, 7940.86, 0.36967602, 0.4027483, -1584921.5, 38746.773, 0.15369554, 9.9992075, 10.00063 
1.9549377e+3, 1.4432977e+2, -1678058.3, -1640121.6, -66928.89, -0.27777833, 0.84290856, -1589525.0, -63898.273, 0.08810495, 9.99905, 9.999617 
1.9549625e+3, 1.543271e+2, -1522977.0, -1490122.0, -71727.29, -0.028194996, 0.56701714, -1432965.1, -5312.1216, 0.037922986, 9.999347, 9.999824 
1.9549868e+3, 1.6432594e+2, -1417477.1, -1450923.5, -11297.125, 0.10219606, 0.5037571, -1414018.9, -84353.25, 0.010466628, 9.999675, 9.999259 
1.9550104e+3, 1.7432791e+2, -1218709.6, -1294588.9, 35671.77, 0.09276651, 0.7434366, -1204573.4, 27076.127, 0.0012294218, 10.000343, 9.999323 
1.9550331e+3, 1.843282e+2, -1041916.8, -1121320.0, -4154.2593, 0.025969073, 0.83194464, -1041700.06, 91945.87, 0.000009908067, 10.000718, 9.999668 
1.955054e+3, 1.9432618e+2, -931214.1, -998431.94, 29453.705, -0.11530393, 0.62537843, -920134.4, 115525.47, 0.0, 10.000738, 9.99982 
1.955076e+3, 2.0432442e+2, -951424.56, -1119279.1, 930.6078, -0.12534963, 0.5424938, -951419.4, -13745.278, 0.0, 10.000609, 9.998387 
1.9550999e+3, 2.143233e+2, -872520.4, -1024855.2, -37408.293, 0.05362522, 0.56555367, -863829.94, -24143.611, 0.0, 10.000475, 9.998416 
1.9551226e+3, 2.243219e+2, -783987.5, -903991.1, -16187.159, 0.06619138, 0.5785324, -781842.4, -40141.1, 0.0, 10.000258, 9.998695 
1.9551443e+3, 2.343203e+2, -703113.25, -794899.1, -6605.907, -0.12527971, 0.51248944, -702640.25, -58922.176, 0.0, 10.000085, 9.998843 
1.9551665e+3, 2.4431953e+2, -514211.25, -558891.6, -59099.027, -0.1814144, 0.52181727, -473370.9, 72354.086, 0.0, 10.000295, 9.999694 
1.9551897e+3, 2.543199e+2, -256189.14, -361021.44, -18108.836, -0.05170003, 0.5455397, -253149.16, 194569.55, 0.0, 10.001313, 9.999877 
1.9552124e+3, 2.6431948e+2, -211074.06, -529550.0, 54806.836, -0.07380291, 0.6194566, -201906.2, 147817.11, 0.00000003752054, 10.001945, 9.997765 
1.9552346e+3, 2.7431792e+2, -67014.52, -412911.66, 41617.094, -0.26318255, 0.6654662, -62077.77, 189665.2, 0.0000033251551, 10.002283, 9.997726 
1.9552569e+3, 2.8431565e+2, 23209.158, -280864.72, -125589.695, -0.24453898, 0.65704584, 68372.63, 222138.45, 0.000036409245, 10.00207, 9.998065 
1.955279e+3, 2.9431263e+2, 45201.09, -174958.48, -80665.84, 0.010741825, 0.49319628, 71593.055, 127382.89, 0.00016708692, 10.001372, 9.998437 
1.955298e+3, 3.043084e+2, -6357.0527, -325040.56, 34173.613, -0.20165735, 0.29172897, -2733.6865, -2733.6865, 0.00045037686, 10.001308, 9.997123 
1.9553226e+3, 3.1430915e+2, 279727.9, 15715.835, 47395.74, -0.017827656, 0.61349136, 287978.6, 287978.6, 0.00087169104, 10.002413, 9.998906 
1.9648893e+3, 1.24298654e+2, -2082670.6, -2151287.3, 163248.06, -0.071191095, 0.5235291, -1950164.8, -228240.73, 0.23177752, 9.998533, 9.997675 
1.9649194e+3, 1.3430029e+2, -1691284.6, -1407278.4, 21641.156, 0.4845809, 0.40241113, -1405638.8, 218274.8, 0.1620495, 9.998266, 10.002518 
1.9649364e+3, 1.4430597e+2, -1777944.8, -1675255.9, 13974.058, -0.2717686, 0.8638317, -1673388.1, -147527.66, 0.093428105, 9.998343, 9.999695 
1.9649622e+3, 1.5430309e+2, -1544904.3, -1495579.6, -37025.504, 0.0070949798, 0.5664611, -1475754.6, -47865.63, 0.04057487, 9.999209, 9.9998255 
1.9649868e+3, 1.6430205e+2, -1379097.4, -1367049.3, 18200.998, 0.15862899, 0.48367843, -1353901.3, -24001.096, 0.011385711, 9.999654, 9.999846 
1.9650102e+3, 1.7430438e+2, -1282635.9, -1253530.0, 43622.914, 0.061715107, 0.69741434, -1222096.6, 9782.47, 0.0013940044, 9.9996, 9.999963 
1.9650327e+3, 1.8430527e+2, -1196019.1, -1185779.4, -8887.095, -0.020381052, 0.80516785, -1180642.9, -46772.53, 0.000014255441, 9.999611, 9.999761 
1.9650546e+3, 1.9430408e+2, -1043236.44, -1047801.7, -45325.348, -0.078541465, 0.6777423, -1000136.25, 35742.895, 0.0, 9.999945, 9.999862 
1.9650772e+3, 2.0430264e+2, -995022.8, -1146866.9, -46029.125, -0.03869126, 0.62619686, -982159.5, -44267.773, 0.0, 10.000327, 9.998339 
1.9651009e+3, 2.1430103e+2, -822419.75, -1008434.75, -10049.128, 0.114048995, 0.6071456, -821878.44, 18028.904, 0.0, 10.000833, 9.9983635 
1.9651236e+3, 2.242994e+2, -690329.56, -857619.56, 61935.926, 0.10595347, 0.5985933, -669895.06, 72028.27, 0.0, 10.000909, 9.998698 
1.9651443e+3, 2.3429768e+2, -628467.75, -763785.7, 51639.34, -0.14095496, 0.52444637, -611012.94, 32927.09, 0.0, 10.000607, 9.998811 
1.9651668e+3, 2.4429666e+2, -513807.3, -572589.25, 8166.5234, -0.18564132, 0.5140425, -512693.8, 33255.17, 0.0, 10.000334, 9.99959 
1.9651909e+3, 2.5429684e+2, -440019.4, -465905.7, -46954.438, 0.0076172547, 0.53039545, -404256.88, 43688.16, 0.0, 10.000102, 9.999748 
1.965214e+3, 2.6429644e+2, -440330.5, -595269.4, 40987.223, -0.009921121, 0.59885526, -430155.94, -80206.82, 0.00000006167767, 10.000192, 9.998156 
1.9652355e+3, 2.7429515e+2, -257069.16, -455365.47, 84386.98, -0.30050588, 0.6304545, -226019.31, 25945.982, 0.000003603985, 10.000785, 9.998145 
1.9652581e+3, 2.842931e+2, -66763.555, -311614.38, -49594.88, -0.26561168, 0.61698526, -57099.48, 96886.625, 0.00003430298, 10.001403, 9.998172 
1.9652817e+3, 2.9429066e+2, 168642.28, -109514.51, -102994.82, 0.12516314, 0.51157004, 202626.69, 258632.81, 0.00015136057, 10.002183, 9.998508 
1.9653009e+3, 3.042879e+2, 243396.94, -129494.45, 44095.535, -0.116361186, 0.4186575, 248540.42, 248540.42, 0.0003913985, 10.002695, 9.9978075 
1.965323e+3, 3.1428778e+2, 271343.88, -44717.047, 89966.664, -0.2092336, 0.6031622, 295158.47, 295158.47, 0.0007264333, 10.002547, 9.998455 
1.974891e+3, 1.2427272e+2, -2030198.1, -2086103.8, -160526.3, 0.18004456, 0.6710826, -1895209.0, -173028.95, 0.24301729, 9.998706, 9.998048 
1.9749154e+3, 1.3427483e+2, -1513257.5, -1073557.6, 23143.87, 0.2389313, 0.29939467, -1072342.8, 551818.3, 0.17062773, 9.998304, 10.005288 
1.974936e+3, 1.4428201e+2, -1797693.8, -1740677.6, 29647.482, -0.18058373, 0.79473716, -1728055.6, -201963.89, 0.09895461, 9.998432, 9.999211 
1.9749616e+3, 1.542793e+2, -1566758.4, -1553387.6, 1669.61, -0.0006652449, 0.5592671, -1553182.4, -125062.34, 0.04335473, 9.999252, 9.999415 
1.9749859e+3, 1.642778e+2, -1324706.1, -1269090.8, 8131.305, 0.07850491, 0.42286023, -1267926.3, 62208.55, 0.012356995, 9.999724, 10.000487 
1.9750082e+3, 1.7427897e+2, -1234965.5, -1153433.3, 48149.984, -0.09607296, 0.4555498, -1131109.8, 101011.164, 0.0015709848, 9.999602, 10.000648 
1.9750315e+3, 1.8427983e+2, -1232307.9, -1267725.6, -7434.204, -0.13488908, 0.55142677, -1230810.8, -96697.44, 0.000019593592, 9.999637, 9.99919 
1.9750561e+3, 1.9428007e+2, -1096903.1, -1146783.9, -23905.576, 0.050444596, 0.63398665, -1087296.5, -51180.93, 0.0, 9.999894, 9.9992075 
1.9750793e+3, 2.0427963e+2, -940164.6, -1007415.2, -33735.086, 0.10737669, 0.6688819, -926158.9, 11962.364, 0.0, 10.000221, 9.999345 
1.9751006e+3, 2.1427852e+2, -767171.7, -856126.75, 15992.134, -0.016836146, 0.5866788, -764384.0, 75744.65, 0.0, 10.000673, 9.999485 
1.9751225e+3, 2.2427748e+2, -717927.7, -870451.1, 40918.684, -0.10142527, 0.5769498, -707643.56, 34492.695, 0.0, 10.000708, 9.998711 
1.9751452e+3, 2.3427647e+2, -652186.56, -782478.75, 49956.082, -0.11907207, 0.57527435, -635237.44, 8907.432, 0.0, 10.000469, 9.99875 
1.9751681e+3, 2.4427497e+2, -614814.6, -743328.94, -10410.549, -0.084035195, 0.5693868, -613976.75, -67817.55, 0.0, 10.000161, 9.998504 
1.9751912e+3, 2.5427315e+2, -539089.1, -641215.25, -45960.355, 0.0152607225, 0.5002794, -521451.44, -73273.26, 0.0, 9.999973, 9.998607 
1.9752142e+3, 2.6427203e+2, -385666.7, -433735.8, 48524.793, -0.040006362, 0.50468266, -355550.38, -5361.7803, 0.000000055759365, 9.999985, 9.999361 
1.9752368e+3, 2.7427197e+2, -185457.17, -256562.9, 116118.234, -0.26560104, 0.50951755, -99570.96, 152616.47, 0.0000036492006, 10.00058, 9.999601 
1.9752601e+3, 2.8427106e+2, -148007.83, -432437.34, -39284.03, -0.23355225, 0.56484306, -142681.84, 11515.357, 0.00003270768, 10.001183, 9.9974575 
1.9752838e+3, 2.942696e+2, 89475.805, -235459.58, -52475.68, 0.09595373, 0.6394881, 97740.21, 153956.28, 0.00013942833, 10.002015, 9.997725 
1.9753031e+3, 3.0426943e+2, 265983.56, 10112.37, 23460.293, -0.18919766, 0.7892526, 268116.8, 268116.8, 0.00034788088, 10.002322, 9.998939 
1.9753233e+3, 3.142658e+2, 173335.17, -119618.43, 191146.9, -0.47953647, 0.4914843, 267674.88, 267674.88, 0.0006196411, 10.002032, 9.998174 
1.9848906e+3, 1.2424953e+2, -2205158.0, -2055314.6, -86492.086, 0.35366318, 0.6548033, -2015806.8, -293400.75, 0.25424254, 9.996985, 9.999115 
1.984912e+3, 1.3425152e+2, -1594149.1, -1204517.8, 65158.773, 0.090339355, 0.34427658, -1193910.0, 430479.0, 0.17932345, 9.998079, 10.004362 
1.9849354e+3, 1.4425758e+2, -1780983.5, -1689776.6, -8902.656, -0.061429888, 0.7623894, -1688915.8, -162584.81, 0.104643695, 9.998364, 9.999598 
1.9849609e+3, 1.5425585e+2, -1588130.3, -1491082.1, 31372.719, 0.031712126, 0.5666483, -1481823.6, -53475.88, 0.046255346, 9.998797, 10.000069 
1.9849852e+3, 1.642548e+2, -1456906.6, -1340853.1, 44434.406, 0.07863832, 0.4424331, -1325794.3, 4563.428, 0.013380272, 9.998856, 10.000405 
1.9850074e+3, 1.7425534e+2, -1386582.4, -1244143.4, 4302.4473, -0.084276006, 0.42584944, -1244013.5, -11662.487, 0.0017591557, 9.998632, 10.000494 
1.9850309e+3, 1.8425608e+2, -1341478.6, -1289028.1, -13034.626, -0.094844215, 0.50338787, -1285967.4, -151622.31, 0.0000256483, 9.998747, 9.999472 
1.9850563e+3, 1.9425683e+2, -1119170.4, -1123803.0, 26754.926, 0.11361903, 0.6022148, -1094631.6, -58289.375, 0.0, 9.999581, 9.99952 
1.9850798e+3, 2.0425673e+2, -950916.1, -1007933.1, 35430.203, 0.15695657, 0.6545579, -933949.0, 4395.906, 0.0, 10.000133, 9.999385 
1.9851008e+3, 2.1425577e+2, -790885.8, -868654.25, -16786.695, -0.046330906, 0.5885828, -787417.06, 52935.465, 0.0, 10.000521, 9.999472 
1.9851229e+3, 2.2425485e+2, -709212.2, -851600.06, -34400.47, -0.120833546, 0.58670205, -701336.7, 41022.79, 0.0, 10.000709, 9.998835 
1.9851467e+3, 2.3425397e+2, -617512.2, -750465.94, -33934.855, -0.02809623, 0.58635783, -609351.6, 35014.145, 0.0, 10.000648, 9.998878 
1.9851698e+3, 2.4425249e+2, -554461.8, -754055.4, -36158.098, 0.026172442, 0.5933988, -548113.44, -1733.4596, 0.0, 10.000778, 9.998117 
1.9851917e+3, 2.542503e+2, -373825.66, -612642.8, -41100.617, -0.003651042, 0.5345027, -366950.16, 81453.625, 0.0, 10.001336, 9.998144 
1.9852142e+3, 2.6424888e+2, -202531.22, -329513.03, 47837.527, -0.07336772, 0.52430415, -186526.69, 163890.67, 0.00000004684117, 10.001172, 9.999504 
1.9852376e+3, 2.742486e+2, -252796.56, -274691.0, -472.14307, -0.19590321, 0.49807775, -252786.39, -370.58957, 0.000003631824, 10.000041, 9.9997425 
1.9852613e+3, 2.842478e+2, -272713.13, -451691.0, -88919.39, -0.17972453, 0.53838235, -236047.67, -81623.58, 0.000030883682, 10.000168, 9.997805 
1.9852847e+3, 2.9424644e+2, 121552.32, -190347.95, -48871.55, -0.019482676, 0.5968146, 129030.68, 185473.14, 0.00012822116, 10.002133, 9.997965 
1.9853058e+3, 3.0424714e+2, 381482.72, 85470.7, -19529.162, -0.16536584, 0.814636, 382765.6, 382765.6, 0.00031412422, 10.003004, 9.999125 
1.9853267e+3, 3.142432e+2, 188704.19, -61656.51, 18658.146, -0.31052527, 0.47092405, 190087.05, 190087.05, 0.0005494113, 10.001873, 9.998651 
1.9948857e+3, 1.2422849e+2, -2043020.0, -1753084.4, -342480.56, 0.11357724, 0.39644006, -1526153.5, 196453.9, 0.26535824, 9.997099, 10.001475 
1.9949088e+3, 1.3423045e+2, -1913679.5, -1805948.5, 106144.21, -0.05847049, 0.5395648, -1740784.3, -116187.63, 0.18805622, 9.998138, 9.999577 
1.9949344e+3, 1.442325e+2, -1674883.0, -1501113.3, -8484.209, -0.036255836, 0.7589482, -1500700.0, 25879.307, 0.11045076, 9.998483, 10.00086 
1.9949596e+3, 1.5423267e+2, -1464148.9, -1245085.9, 53436.777, 0.0153152235, 0.58041453, -1232746.0, 195827.03, 0.04926506, 9.998815, 10.001814 
1.9949841e+3, 1.6423297e+2, -1502728.0, -1450741.1, 27165.564, 0.057926428, 0.5359052, -1439136.4, -108566.8, 0.014456319, 9.998914, 9.999624 
1.9950074e+3, 1.7423345e+2, -1451920.6, -1384188.5, -1246.0104, 0.016259756, 0.6065284, -1384165.6, -151595.75, 0.0019582892, 9.998647, 9.999525 
1.995031e+3, 1.8423386e+2, -1259091.6, -1126632.4, 7151.936, -0.002832022, 0.6549127, -1126247.4, 8319.858, 0.000032105352, 9.998788, 10.000566 
1.9950552e+3, 1.9423424e+2, -1036127.1, -937302.94, 64555.99, 0.038120184, 0.59186417, -905419.06, 131140.78, 0.0, 9.999531, 10.00082 
1.9950789e+3, 2.0423391e+2, -1029982.5, -1150961.3, 39062.215, 0.022004155, 0.5919431, -1018466.2, -79903.17, 0.0, 10.000034, 9.998453 
1.9951013e+3, 2.142327e+2, -886516.94, -1039390.25, 6913.4175, -0.06295379, 0.6098076, -886204.94, -45625.176, 0.0, 10.000399, 9.998359 
1.9951244e+3, 2.2423147e+2, -722325.4, -840389.94, -40008.902, -0.069555715, 0.62822735, -710044.8, 32548.408, 0.0, 10.000541, 9.998992 
1.9951482e+3, 2.3423031e+2, -620956.0, -722056.7, -23057.734, 0.04157255, 0.5731239, -615945.56, 28655.516, 0.0, 10.000492, 9.9991455 
1.9951707e+3, 2.4422914e+2, -577963.8, -752172.2, -27534.941, 0.027993247, 0.5892894, -573715.4, -27103.785, 0.0, 10.000554, 9.998242 
1.9951917e+3, 2.5422814e+2, -383287.8, -597248.25, -10159.884, -0.1292356, 0.6318038, -382806.44, 65816.984, 0.0, 10.001184, 9.9983225 
1.9952142e+3, 2.6422673e+2, -299269.5, -482476.28, 1783.3123, -0.20743243, 0.6570913, -299252.16, 51384.8, 0.000000042002604, 10.000971, 9.998549 
1.995238e+3, 2.74225e+2, -347569.84, -435536.63, -29130.766, -0.18615614, 0.5868739, -338797.78, -86146.96, 0.0000035134383, 9.999901, 9.998699 
1.9952612e+3, 2.8422314e+2, -231955.9, -323884.75, -35314.195, -0.24295782, 0.5359929, -219956.36, -65289.13, 0.00002820436, 9.999977, 9.9987755 
1.9952838e+3, 2.942212e+2, 155671.34, -59649.5, 43794.816, -0.33989063, 0.4060981, 164238.08, 220924.0, 0.00011358975, 10.001866, 9.998993 
1.9953087e+3, 3.042211e+2, 243718.45, -79335.51, -67615.08, -0.20705111, 0.5435035, 257299.34, 257299.34, 0.00027761376, 10.002506, 9.9982195 
1.9953313e+3, 3.142208e+2, 181199.94, 23462.398, -1938.8485, -0.07916944, 0.6217139, 181223.77, 181223.77, 0.0004898738, 10.001476, 9.999405 
2.0048834e+3, 1.2420729e+2, -1700247.3, -1422993.1, -413821.6, 0.107436776, 0.390026, -1125196.4, 597619.7, 0.27641812, 9.998817, 10.003588 
2.0049071e+3, 1.3420731e+2, -1968539.3, -2058697.6, 91941.58, -0.06313702, 0.52910554, -1911220.3, -286399.38, 0.1968332, 9.998735, 9.997545 
2.0049329e+3, 1.4420737e+2, -1726549.5, -1503582.3, 77365.98, -0.011032563, 0.6421029, -1479367.4, 47454.76, 0.11636926, 9.998035, 10.001066 
2.0049581e+3, 1.5420865e+2, -1604688.9, -1288428.5, 17645.588, 0.052381594, 0.54645336, -1287447.0, 141358.94, 0.05238356, 9.99774, 10.002021 
2.004983e+3, 1.6420957e+2, -1643952.5, -1528432.0, -12475.592, 0.10458078, 0.5585909, -1527100.1, -196302.7, 0.015589432, 9.997981, 9.999543 
2.0050071e+3, 1.7420998e+2, -1358654.4, -1347498.6, 10486.335, 0.10158908, 0.6272072, -1341198.9, -108399.23, 0.0021699998, 9.999317, 9.9994545 
2.0050308e+3, 1.8421012e+2, -1113015.8, -1048940.8, 23393.8, 0.083991885, 0.65156144, -1041308.7, 93490.94, 0.00003871999, 9.999774, 10.000616 
2.0050545e+3, 1.9421019e+2, -1049361.1, -941746.8, -28669.285, 0.018989163, 0.55176747, -934585.6, 102208.61, 0.0, 9.99944, 10.00083 
2.0050782e+3, 2.0421003e+2, -1067617.1, -1133875.6, -29017.605, -0.013116976, 0.55420244, -1056705.9, -117910.516, 0.0, 9.999628, 9.998763 
2.0051023e+3, 2.1420963e+2, -821631.9, -969417.44, 28769.03, -0.012440521, 0.62070966, -816229.0, 24575.566, 0.0, 10.000675, 9.998708 
2.005126e+3, 2.2420871e+2, -637836.9, -800193.7, 15965.124, 0.016569976, 0.6527834, -636281.9, 106533.914, 0.0, 10.001134, 9.9989805 
2.005149e+3, 2.3420717e+2, -558323.25, -694877.75, -14225.41, 0.059390597, 0.5647584, -556857.06, 87971.625, 0.0, 10.000953, 9.999106 
2.0051713e+3, 2.4420607e+2, -479751.3, -655481.75, 17873.69, 0.00962488, 0.5694013, -477951.78, 68886.305, 0.0, 10.000983, 9.998713 
2.0051925e+3, 2.5420567e+2, -344797.84, -524594.8, 43954.43, -0.17109111, 0.6243483, -334627.72, 114213.99, 0.0, 10.001196, 9.998822 
2.0052153e+3, 2.6420438e+2, -264489.16, -537311.2, 75058.78, -0.21673107, 0.6595617, -245202.42, 105651.31, 0.000000029896977, 10.00152, 9.997904 
2.0052396e+3, 2.7420175e+2, -63974.477, -387078.5, 40287.16, -0.11732174, 0.57480884, -59026.914, 193851.19, 0.0000031274246, 10.002212, 9.997924 
2.0052627e+3, 2.8419942e+2, 49304.32, -176914.47, 44547.35, -0.15355037, 0.5126411, 57760.55, 212659.52, 0.000025154262, 10.001854, 9.998888 
2.0052846e+3, 2.9419747e+2, -134668.17, -198843.88, 10944.901, -0.34689027, 0.379406, -132852.9, -75937.76, 0.00009776422, 9.999871, 9.998998 
2.0053107e+3, 3.04196e+2, -111938.77, -315119.78, -40690.7, -0.12744606, 0.4142303, -104092.7, -104092.7, 0.0002403355, 10.00031, 9.997683 
2.0053354e+3, 3.1419525e+2, 554289.9, 264803.56, -78268.1, 0.07963607, 0.5052384, 574096.0, 574096.0, 0.00043342356, 10.003747, 10.0 
2.0148829e+3, 1.2418571e+2, -1577650.4, -1260080.3, -129592.94, 0.104718186, 0.63004804, -1213909.1, 509124.66, 0.28771394, 9.998899, 10.0049095 
2.0149067e+3, 1.3418187e+2, -1895842.9, -1912553.1, 62796.637, 0.005955872, 0.29975674, -1840848.0, -215783.89, 0.20582092, 9.998753, 9.998545 
2.0149302e+3, 1.4418215e+2, -1774895.0, -1616187.8, 56148.227, -0.10345713, 0.40844142, -1598332.3, -71272.92, 0.12247417, 9.9981, 10.000227 
2.014956e+3, 1.5418372e+2, -1694160.8, -1468025.6, 11047.812, 0.046551343, 0.46711954, -1467487.1, -38439.883, 0.055639356, 9.997748, 10.00073 
2.0149814e+3, 1.6418466e+2, -1584934.4, -1425048.1, 22201.227, 0.103087075, 0.5198783, -1422022.5, -90981.78, 0.016791714, 9.99806, 10.000218 
2.0150065e+3, 1.7418489e+2, -1299491.9, -1222613.4, 67107.13, 0.099622875, 0.4919285, -1183716.0, 49324.72, 0.0023981123, 9.9993105, 10.000317 
2.0150308e+3, 1.841849e+2, -1177087.4, -1195079.0, 1311.718, 0.06256602, 0.4971037, -1176992.3, -41949.82, 0.000045425786, 9.999822, 9.999596 
2.0150536e+3, 1.9418465e+2, -1140911.9, -1121168.0, -36490.063, -0.03482634, 0.48942772, -1093238.1, -56192.734, 0.0, 9.999395, 9.999621 
2.0150776e+3, 2.0418513e+2, -976850.1, -919542.9, -2655.3337, -0.065252505, 0.55141586, -919420.1, 19620.9, 0.0, 9.999518, 10.000287 
2.0151035e+3, 2.1418661e+2, -729122.6, -733512.25, 75752.85, 0.024973579, 0.6358991, -655532.8, 185493.84, 0.0, 10.000492, 10.000415 
2.0151274e+3, 2.2418648e+2, -689487.56, -856406.94, 2096.0684, 0.034654632, 0.6670761, -689461.25, 53567.34, 0.0, 10.000901, 9.998712 
2.015149e+3, 2.3418431e+2, -605005.9, -763420.94, -12030.471, -0.052063853, 0.55840135, -604097.5, 40953.28, 0.0, 10.000815, 9.998709 
2.0151709e+3, 2.4418302e+2, -458269.4, -558124.25, 18446.959, -0.14403962, 0.5273446, -454970.53, 92091.805, 0.0, 10.000765, 9.999482 
2.0151934e+3, 2.541829e+2, -311344.16, -413248.22, 57969.51, -0.2242825, 0.5243461, -285117.34, 163941.84, 0.0, 10.001028, 9.999662 
2.015217e+3, 2.6418152e+2, -324236.03, -617288.7, 87712.21, -0.22684962, 0.5311346, -299989.4, 51081.0, 0.0000000091701935, 10.0013275, 9.997451 
2.0152423e+3, 2.741787e+2, -124859.12, -471997.06, 80072.86, -0.093819305, 0.48163065, -107279.32, 145819.39, 0.0000023642951, 10.002032, 9.997428 
2.0152657e+3, 2.8417662e+2, -49125.027, -325306.1, -37709.492, -0.07197155, 0.506269, -44068.78, 111050.46, 0.000021595964, 10.00162, 9.997975 
2.0152862e+3, 2.9417488e+2, -213938.88, -356161.13, -50089.2, -0.18380828, 0.483391, -198068.86, -140934.25, 0.000083873885, 9.999823, 9.997945 
2.0153114e+3, 3.0417135e+2, -185288.06, -398135.2, 63659.277, -0.11590975, 0.39355963, -167701.64, -167701.64, 0.00020822523, 10.000046, 9.997222 
2.015337e+3, 3.1416884e+2, 489763.22, 316960.94, -33184.414, -0.1760787, 0.32578552, 495916.75, 495916.75, 0.0003832048, 10.003024, 10.000668 
2.0248803e+3, 1.2416087e+2, -1689192.1, -1289787.5, -40391.758, 0.03618445, 0.71514386, -1285743.6, 437536.1, 0.29983783, 9.997655, 10.005284 
2.0249058e+3, 1.3415603e+2, -2018623.4, -1828788.6, -62099.15, 0.11871695, 0.1778085, -1810279.4, -184963.34, 0.21537028, 9.997306, 9.999806 
2.024929e+3, 1.4415911e+2, -1783478.9, -1633795.6, -1188.0302, -0.037552487, 0.48898673, -1633786.1, -106503.23, 0.12892798, 9.998091, 10.000117 
2.0249549e+3, 1.5415943e+2, -1609984.6, -1486725.9, -16389.563, 0.117189966, 0.47458968, -1484583.9, -55298.375, 0.05909158, 9.99858, 10.000203 
2.02498e+3, 1.6415967e+2, -1515905.0, -1370598.3, 38586.156, 0.15753995, 0.47842452, -1360987.4, -29700.508, 0.018083457, 9.998461, 10.000387 
2.0250052e+3, 1.7416045e+2, -1454980.3, -1273639.9, 23700.984, 0.11016323, 0.48440835, -1270593.4, -37313.227, 0.0026487417, 9.998166, 10.000507 
2.02503e+3, 1.8416075e+2, -1403761.8, -1310079.0, -27796.04, 0.07504544, 0.51441246, -1302452.6, -167174.58, 0.000052423693, 9.998284, 9.999546 
2.0250532e+3, 1.9416034e+2, -1170293.3, -1148158.0, 954.9493, -0.00010342756, 0.4955891, -1148116.9, -110834.01, 0.0, 9.999231, 9.999518 
2.0250775e+3, 2.0416059e+2, -988006.56, -919028.8, 43119.266, -0.012086201, 0.5347599, -898302.2, 40978.715, 0.0, 9.99942, 10.000334 
2.0251033e+3, 2.1416171e+2, -980955.6, -851089.06, -20121.543, 0.047509134, 0.5780732, -848042.9, -6773.147, 0.0, 9.998747, 10.000443 
2.0251273e+3, 2.2416179e+2, -970070.2, -941166.56, -103301.914, 0.04716525, 0.60915047, -851310.5, -108041.33, 0.0, 9.998762, 9.999153 
2.0251492e+3, 2.341607e+2, -717203.8, -762673.56, -68550.65, -0.0522195, 0.56045246, -667716.3, -22435.709, 0.0, 9.999817, 9.999186 
2.0251718e+3, 2.4415979e+2, -503758.22, -595676.0, -26559.855, -0.107816175, 0.5495915, -496635.6, 50653.313, 0.0, 10.00054, 9.99932 
2.025195e+3, 2.5415903e+2, -345749.56, -457581.34, -82923.336, -0.13782626, 0.5075739, -301651.13, 147642.72, 0.0, 10.000922, 9.999403 
2.025219e+3, 2.6415768e+2, -290195.06, -559238.2, -41305.08, -0.13897024, 0.5123244, -283996.47, 67308.94, 0.000000001074916, 10.001372, 9.997833 
2.0252441e+3, 2.7415583e+2, -137647.55, -428163.5, -3198.5613, -0.091624774, 0.51772296, -137612.33, 115710.83, 0.0000018159459, 10.001743, 9.997861 
2.025268e+3, 2.8415358e+2, 17359.615, -364952.44, -86955.96, -0.03459362, 0.53705645, 36208.266, 191552.88, 0.000018189116, 10.002364, 9.997348 
2.0252892e+3, 2.941506e+2, 262455.78, -180516.02, -113493.09, -0.028918047, 0.45982012, 289840.7, 347213.84, 0.000072171526, 10.003344, 9.997445 
2.0253134e+3, 3.041477e+2, 328974.28, -166282.14, 118209.52, -0.08524622, 0.45208684, 355742.16, 355742.16, 0.00017992307, 10.003576, 9.997152 
2.0253392e+3, 3.141459e+2, 270090.66, 76532.96, -119601.78, -0.20017964, 0.49369293, 327164.75, 327164.75, 0.0003355793, 10.002024, 9.999527 
2.0348762e+3, 1.2413299e+2, -1712259.8, -1367842.0, -45196.453, -0.21351567, 0.64817184, -1362009.9, 361541.44, 0.3135409, 9.997778, 10.00454 
2.0349036e+3, 1.3412964e+2, -1907622.4, -1615899.1, -29792.264, 0.14005671, 0.1522957, -1612887.6, 12690.936, 0.22593072, 9.997357, 10.00127 
2.0349285e+3, 1.4413816e+2, -1716000.8, -1533072.0, 10404.984, 0.06634334, 0.89257485, -1532482.1, -4987.9043, 0.13594478, 9.998252, 10.000732 
2.0349543e+3, 1.5413578e+2, -1583588.6, -1437329.0, 1095.2172, 0.18237142, 0.5747713, -1437320.9, -7799.883, 0.06282382, 9.998609, 10.000523 
2.0349786e+3, 1.6413453e+2, -1531889.5, -1424334.5, 13507.37, 0.14400597, 0.43094808, -1422664.1, -91128.09, 0.019494196, 9.998541, 9.999983 
2.0350029e+3, 1.7413653e+2, -1475795.9, -1330045.0, 18935.928, 0.041359, 0.59975094, -1327625.0, -94106.375, 0.0029308582, 9.998211, 10.0001 
2.0350279e+3, 1.841377e+2, -1334186.0, -1180236.6, -1701.9708, 0.007193914, 0.6930296, -1180217.9, -44710.91, 0.00006041413, 9.998346, 10.00041 
2.0350529e+3, 1.9413722e+2, -1106848.6, -1005791.7, 44433.402, 0.04046842, 0.5737147, -989033.8, 48473.54, 0.0, 9.999187, 10.000518 
2.0350775e+3, 2.0413628e+2, -1095965.6, -1123436.3, 12150.6875, 0.020613858, 0.5028213, -1091362.5, -151846.66, 0.0, 9.999338, 9.998968 
2.0351014e+3, 2.141349e+2, -1105654.4, -1083268.1, -37101.926, -0.031127075, 0.45018739, -1055707.8, -214173.95, 0.0, 9.998631, 9.998907 
2.0351252e+3, 2.2413473e+2, -924695.25, -793210.6, -74349.3, -0.06125072, 0.4872908, -759706.44, -16169.724, 0.0, 9.998542, 10.000271 
2.0351495e+3, 2.3413631e+2, -652379.7, -584915.0, -16664.18, -0.03053913, 0.57345337, -581023.4, 64495.11, 0.0, 9.999639, 10.000488 
2.0351736e+3, 2.4413626e+2, -612152.1, -771534.5, -18971.904, -0.0077680177, 0.62781, -609924.94, -62405.527, 0.0, 10.000325, 9.99822 
2.0351975e+3, 2.541341e+2, -453985.0, -654704.56, -57721.125, -0.0028195619, 0.57395095, -438569.94, 10975.445, 0.0, 10.000793, 9.998118 
2.0352212e+3, 2.641329e+2, -252256.03, -420702.03, -33166.64, -0.08417428, 0.6117442, -245960.86, 105597.14, 0.000000023664393, 10.001131, 9.998894 
2.0352449e+3, 2.741327e+2, -77184.97, -262372.28, 22258.207, -0.2094041, 0.6531324, -74547.26, 179007.22, 0.0000019634658, 10.00157, 9.9990835 
2.0352693e+3, 2.8412986e+2, -57290.86, -445923.9, -65466.355, -0.15590304, 0.5708435, -46559.207, 109020.05, 0.000016146072, 10.002058, 9.996936 
2.0352934e+3, 2.9412463e+2, 220231.0, -219277.8, -54697.793, 0.026884573, 0.31529507, 226935.97, 284566.94, 0.00006227005, 10.003119, 9.997293 
2.0353155e+3, 3.0412492e+2, 261757.39, -180119.33, 60224.07, -0.24625511, 0.60443723, 269818.38, 269818.38, 0.00015436458, 10.003074, 9.997276 
2.0353425e+3, 3.141232e+2, 16087.112, -314583.97, -126445.28, -0.109219454, 0.6687072, 58896.35, 58896.35, 0.00029086813, 10.001492, 9.997067 
2.0448737e+3, 1.2410753e+2, -1885280.0, -1558974.9, 33951.348, -0.2084532, 0.5799606, -1555479.8, 168317.73, 0.3294151, 9.997356, 10.0029 
2.0449017e+3, 1.3410448e+2, -1747422.0, -1531743.9, 107760.07, 0.17766303, 0.09352991, -1487131.4, 138694.53, 0.23787552, 9.998356, 10.001601 
2.0449266e+3, 1.4411482e+2, -1655083.3, -1523417.9, 71255.086, 0.036407884, 1.0096223, -1492239.0, 35486.188, 0.14372098, 9.998754, 10.0005865 
2.044953e+3, 1.5411153e+2, -1610327.4, -1466035.3, -4158.091, 0.20928416, 0.61561674, -1465915.5, -36155.11, 0.06692591, 9.99849, 10.000382 
2.0449778e+3, 1.6410986e+2, -1516563.4, -1408261.6, 34228.168, 0.20818852, 0.4286404, -1398351.0, -66571.78, 0.021061258, 9.998612, 10.000055 
2.045002e+3, 1.7411187e+2, -1256568.8, -1219488.4, 56352.85, 0.045076087, 0.59269845, -1178704.1, 55056.36, 0.003256253, 9.999696, 10.000143 
2.045027e+3, 1.8411309e+2, -1084189.0, -1066140.3, 31534.527, 0.008232419, 0.6932437, -1042364.2, 93383.945, 0.00007088071, 10.000103, 10.000344 
2.0450528e+3, 1.9411272e+2, -1020537.1, -970150.94, -18744.182, 0.084443174, 0.5898509, -963942.8, 73806.09, 0.0, 9.999825, 10.000446 
2.0450774e+3, 2.0411183e+2, -1043626.44, -1106275.4, -50397.727, 0.06744374, 0.5337978, -1015611.6, -75853.82, 0.0, 9.9997225, 9.998911 
2.0451002e+3, 2.141106e+2, -900559.1, -984058.3, -9423.432, -0.071535684, 0.50067174, -899508.9, -57734.438, 0.0, 10.000048, 9.998904 
2.0451239e+3, 2.2411035e+2, -705238.5, -705254.5, 8385.923, -0.10997551, 0.5364862, -696860.56, 46917.402, 0.0, 10.000115, 10.000123 
2.0451492e+3, 2.3411123e+2, -629924.44, -593480.25, -57617.92, -0.019521223, 0.5700416, -551271.6, 94494.22, 0.0, 9.999867, 10.000322 
2.0451742e+3, 2.4411099e+2, -662367.75, -795678.9, -58651.668, 0.05137047, 0.61505175, -640237.1, -92468.55, 0.0, 9.999966, 9.998231 
2.0451987e+3, 2.541095e+2, -488216.53, -664252.75, -18431.809, 0.048112053, 0.62705463, -486307.34, -36518.434, 0.0, 10.000527, 9.998176 
2.0452224e+3, 2.6410848e+2, -284099.38, -402723.72, 39095.445, -0.042084347, 0.66706485, -272373.63, 79425.984, 0.00000011200642, 10.000751, 9.999206 
2.045246e+3, 2.7410784e+2, -204038.83, -287450.13, 1044.6252, -0.1779657, 0.63022727, -204025.75, 49774.035, 0.000002326167, 10.00054, 9.999408 
2.0452715e+3, 2.8410536e+2, -166770.14, -469602.7, -34138.566, -0.08093955, 0.55048484, -162969.38, -7147.8657, 0.000014696717, 10.001168, 9.997206 
2.0452973e+3, 2.941015e+2, 172684.5, -209353.98, -4126.38, 0.1384871, 0.4168362, 172729.06, 230590.39, 0.00005375532, 10.002661, 9.99758 
2.045318e+3, 3.0410248e+2, 252737.61, -150052.52, 63191.355, -0.27772075, 0.74073166, 262418.66, 262418.66, 0.00013253847, 10.002856, 9.997579 
2.0453458e+3, 3.140993e+2, 149313.06, -186982.5, -128174.555, 0.05696236, 0.6400076, 192594.69, 192594.69, 0.00025389736, 10.002084, 9.997665 
2.0548724e+3, 1.240853e+2, -2054716.8, -1873174.4, -233553.33, -0.13893346, 0.5560056, -1713373.0, 10637.416, 0.3476065, 9.997527, 10.000136 
2.0549e+3, 1.3408114e+2, -1805478.0, -1640052.5, 169205.9, 0.12210049, 0.034591027, -1534425.0, 91626.59, 0.2513395, 9.998393, 10.000734 
2.0549226e+3, 1.4408907e+2, -1711714.4, -1660279.3, 57572.887, -0.28941596, 0.8147516, -1622941.0, -94964.695, 0.15236652, 9.998847, 9.999569 
2.0549507e+3, 1.5408687e+2, -1644237.8, -1547574.6, -3889.0986, 0.08966488, 0.5942837, -1547418.4, -117415.84, 0.071473114, 9.99853, 9.999807 
2.0549771e+3, 1.6408576e+2, -1478030.8, -1351437.9, 59413.07, 0.23426618, 0.477074, -1327922.1, 4093.1074, 0.022826005, 9.998704, 10.000409 
2.0550017e+3, 1.7408645e+2, -1228363.3, -1162287.6, 102146.46, 0.042216346, 0.47113082, -1087969.0, 146036.9, 0.0036400491, 9.999697, 10.000542 
2.0550269e+3, 1.8408677e+2, -1146812.4, -1210022.4, 16426.06, -0.042203363, 0.510077, -1142798.8, -6795.581, 0.00008593674, 10.000152, 9.999337 
2.0550525e+3, 1.9408661e+2, -1097944.8, -1132722.6, -22517.664, 0.0360861, 0.5377985, -1086883.4, -48873.938, 0.0, 9.999818, 9.999341 
2.0550767e+3, 2.0408706e+2, -971974.3, -941541.8, -47281.832, 0.0083062695, 0.61977583, -907088.1, 32919.94, 0.0, 9.999655, 10.000073 
2.0550996e+3, 2.140885e+2, -823783.4, -794967.25, 12332.992, -0.15862402, 0.71596706, -790409.7, 51584.867, 0.0, 9.999914, 10.000268 
2.055123e+3, 2.2408816e+2, -833965.9, -918197.75, -7436.373, -0.221572, 0.72940874, -833314.44, -89316.83, 0.0, 9.999892, 9.998764 
2.0551482e+3, 2.3408534e+2, -763616.06, -835267.7, -56102.94, -0.11053935, 0.55118275, -732875.9, -86852.0, 0.0, 9.999719, 9.998733 
2.0551734e+3, 2.4408402e+2, -623876.06, -658380.2, -48324.73, -0.045808434, 0.52507806, -589816.2, -41779.676, 0.0, 9.999732, 9.99928 
2.055198e+3, 2.54085e+2, -421989.03, -486128.66, 12172.589, -0.06488441, 0.653282, -419756.6, 30271.264, 0.0, 10.000366, 9.999472 
2.0552227e+3, 2.6408428e+2, -342966.56, -476212.78, 23159.92, -0.11943569, 0.67081827, -339055.84, 12977.913, 0.00000017468948, 10.000543, 9.9988 
2.0552476e+3, 2.7408126e+2, -258926.56, -378923.72, 6469.7676, -0.11114065, 0.45514354, -258578.75, -4519.021, 0.0000023499456, 10.000435, 9.998834 
2.0552741e+3, 2.8407994e+2, -164018.97, -392733.0, 5663.9604, 0.03134112, 0.4925011, -163878.8, -7806.474, 0.000012296112, 10.000883, 9.997864 
2.0553005e+3, 2.9408082e+2, 180995.64, -139016.72, 62564.855, 0.17235416, 0.74097145, 192792.66, 250860.89, 0.000044415407, 10.002438, 9.998166 
2.0553203e+3, 3.0407917e+2, 188043.67, -168277.34, 2269.7336, -0.3655553, 0.7817744, 188058.13, 188058.13, 0.00011238554, 10.002389, 9.997664 
2.0553489e+3, 3.1407455e+2, 267330.84, 184136.1, 12444.635, 0.114391305, 0.4880269, 269152.47, 269152.47, 0.00022330374, 10.0015545, 10.000468 
2.0648713e+3, 1.24063134e+2, -2121489.0, -1848256.8, -231789.16, 0.051501874, 0.63969636, -1715818.6, 8410.927, 0.36771804, 9.996825, 10.000616 
2.0648986e+3, 1.3405822e+2, -1856422.1, -1731738.6, 128190.64, 0.18217406, 0.09309466, -1651534.5, -25258.125, 0.26616043, 9.998341, 9.999965 
2.0649204e+3, 1.4406359e+2, -1790975.1, -1750348.0, 47355.82, -0.35036477, 0.6853976, -1719132.8, -190907.86, 0.1618756, 9.998511, 9.999116 
2.0649494e+3, 1.5406181e+2, -1468937.3, -1486923.1, 2428.8162, 0.07696759, 0.52868974, -1468615.0, -38367.703, 0.07651462, 9.999835, 9.999594 
2.0649765e+3, 1.640613e+2, -1291705.1, -1271793.8, 62027.516, 0.25890583, 0.4851213, -1218928.0, 113326.58, 0.024829434, 10.000032, 10.000321 
2.0650005e+3, 1.740619e+2, -1388169.9, -1246676.9, 51712.566, 0.016519684, 0.47553417, -1229792.0, 4455.0557, 0.0041003036, 9.998638, 10.000464 
2.0650254e+3, 1.8406215e+2, -1414313.0, -1316210.6, 30577.05, -0.08729762, 0.5029178, -1307460.6, -171215.38, 0.000108260756, 9.998229, 9.999525 
2.0650518e+3, 1.9406231e+2, -1107895.1, -1107043.9, 75926.164, 0.00396039, 0.53825325, -1031542.1, 6705.992, 0.0, 9.999631, 9.9996 
2.0650767e+3, 2.0406304e+2, -875325.75, -909147.5, 60057.3, 0.007688569, 0.64056164, -829843.8, 110400.25, 0.0, 10.000379, 9.999942 
2.0650996e+3, 2.1406455e+2, -780416.94, -795505.44, -14240.652, -0.14404762, 0.762591, -771845.6, 70385.37, 0.0, 10.000307, 10.000072 
2.0651235e+3, 2.2406402e+2, -747832.2, -883932.7, -29452.725, -0.19848466, 0.7721194, -741731.94, 2503.9626, 0.0, 10.000494, 9.998722 
2.0651487e+3, 2.340608e+2, -572629.4, -743786.06, 19633.053, -0.10162028, 0.5546323, -570406.2, 75858.34, 0.0, 10.001032, 9.998731 
2.0651741e+3, 2.440592e+2, -402209.4, -589301.2, 67785.51, -0.011554835, 0.51799786, -380231.66, 168047.05, 0.0, 10.001414, 9.998946 
2.0651998e+3, 2.5405985e+2, -271002.1, -453186.22, -13360.487, 0.008378458, 0.65051526, -270027.53, 180246.17, 0.0, 10.001576, 9.999112 
2.0652246e+3, 2.640588e+2, -196854.22, -459691.4, -63355.973, -0.03550011, 0.6755695, -182379.61, 169904.94, 0.00000012472299, 10.0017805, 9.998314 
2.0652488e+3, 2.7405563e+2, -46640.066, -329949.8, -93473.97, -0.10451681, 0.49659425, -18579.045, 235736.44, 0.0000018192295, 10.00213, 9.998347 
2.0652755e+3, 2.840546e+2, 91920.836, -192572.6, -51435.887, 0.010193001, 0.55637854, 100934.75, 257260.73, 0.000008845643, 10.002298, 9.998563 
2.0653024e+3, 2.940559e+2, 143679.5, -82271.54, -42800.3, 0.1626427, 0.7746508, 151515.13, 209829.78, 0.000033872344, 10.0018635, 9.998832 
2.0653233e+3, 3.0405334e+2, 139064.66, -235271.33, -80783.04, -0.2831977, 0.7088432, 155753.86, 155753.86, 0.00009226444, 10.002182, 9.997338 
2.0653524e+3, 3.1404984e+2, 626942.3, 346321.28, -87102.664, 0.19068013, 0.56517214, 651779.94, 651779.94, 0.00019349625, 10.004028, 10.000424 
2.0748687e+3, 1.24039955e+2, -1838985.3, -1438865.3, 110351.61, 0.027127901, 0.7290579, -1410448.9, 314017.0, 0.38886976, 9.996896, 10.004648 
2.0748977e+3, 1.3403548e+2, -1879622.8, -1813625.5, 126943.94, 0.22979978, 0.26086423, -1715461.4, -88959.06, 0.28190908, 9.9984665, 9.9993515 
2.0749202e+3, 1.440383e+2, -1767966.8, -1722882.5, 68251.89, -0.26405624, 0.6240568, -1673546.5, -145074.3, 0.17213808, 9.998595, 9.999267 
2.0749497e+3, 1.5403624e+2, -1450838.4, -1456675.6, 59449.59, 0.070978865, 0.4189703, -1394235.9, 36260.348, 0.08207624, 9.999877, 9.999789 
2.0749758e+3, 1.6403629e+2, -1310957.3, -1328859.0, 8383.828, 0.15655448, 0.44176775, -1307644.1, 24855.34, 0.027111659, 10.000104, 9.999886 
2.074998e+3, 1.7403813e+2, -1417200.6, -1313240.5, 2801.2156, -0.117742434, 0.6057056, -1313165.0, -78680.4, 0.0046569863, 9.998664, 9.999996 
2.0750228e+3, 1.8403918e+2, -1310346.5, -1119550.9, 65741.12, -0.22939382, 0.6771815, -1099092.6, 37382.31, 0.00014131474, 9.998309, 10.000836 
2.0750505e+3, 1.9403958e+2, -1010878.5, -896565.1, 134041.1, -0.089775525, 0.591006, -808003.25, 230463.73, 0.0000000002137382, 9.999589, 10.001067 
2.0750768e+3, 2.040395e+2, -988948.2, -1119546.4, 51894.77, -0.04498662, 0.593336, -970838.44, -30369.732, 0.0, 10.000266, 9.998551 
2.0751004e+3, 2.1403861e+2, -918382.56, -1050662.0, -8138.847, -0.124003604, 0.641074, -917883.7, -75398.43, 0.0, 10.000165, 9.998389 
2.0751245e+3, 2.2403784e+2, -699107.75, -725436.4, -15582.329, -0.15142494, 0.66210407, -691873.3, 52620.543, 0.0, 10.00026, 9.999915 
2.0751499e+3, 2.3403743e+2, -495116.53, -541896.06, 49504.363, -0.08099977, 0.57892734, -463754.47, 182734.95, 0.0, 10.000867, 10.000193 
2.0751761e+3, 2.4403626e+2, -550166.2, -846848.44, 65943.15, 0.021138899, 0.57849133, -536169.44, 12329.136, 0.0, 10.0012045, 9.997276 
2.0752029e+3, 2.5403404e+2, -432676.72, -755051.06, 968.6143, 0.158878, 0.62158406, -432673.8, 17853.197, 0.0, 10.001431, 9.9971075 
2.0752275e+3, 2.640321e+2, -280816.75, -569657.75, -62248.984, 0.079290316, 0.695976, -267972.44, 84579.08, 0.000000021824269, 10.001515, 9.9976845 
2.0752497e+3, 2.740306e+2, -106377.78, -404646.44, -63847.637, -0.24471265, 0.7307925, -93285.2, 161284.61, 0.00000084431264, 10.001931, 9.997927 
2.0752749e+3, 2.840288e+2, 89790.21, -129001.94, -75693.766, -0.28035375, 0.7093991, 113424.38, 270011.47, 0.000005133315, 10.002011, 9.999135 
2.075303e+3, 2.9402673e+2, 165945.66, -12913.7705, -48185.566, -0.010778971, 0.5241355, 178101.0, 236702.23, 0.000023723636, 10.001741, 9.999375 
2.0753264e+3, 3.040253e+2, 42.499096, -388243.66, -45643.863, -0.20633446, 0.5799644, 5335.869, 5335.869, 0.00007269625, 10.0016575, 9.996512 
2.0753545e+3, 3.1402612e+2, 295192.06, -130238.36, 86264.62, -0.041036937, 0.9492879, 312018.44, 312018.44, 0.0001604348, 10.003202, 9.997508 
2.0848669e+3, 1.2401401e+2, -1626017.9, -1368822.0, 147702.7, 0.09774006, 0.7271576, -1301579.4, 423143.94, 0.40993002, 9.998754, 10.004644 
2.0848978e+3, 1.3401131e+2, -1869614.3, -1887985.6, -44365.46, 0.36005893, 0.5052012, -1833493.5, -206748.2, 0.29801235, 9.99888, 9.998645 
2.0849192e+3, 1.4401111e+2, -1700506.9, -1595975.4, -67499.375, -0.21375586, 0.5633717, -1562872.1, -34126.64, 0.18298064, 9.998678, 10.000087 
2.0849484e+3, 1.5401122e+2, -1731943.9, -1501237.8, -45745.184, 0.08811672, 0.49152625, -1492498.3, -61752.72, 0.088167645, 9.997549, 10.000601 
2.0849743e+3, 1.6401227e+2, -1698966.6, -1514012.8, -35276.086, 0.13766308, 0.573223, -1507513.0, -174775.72, 0.029713616, 9.997421, 9.999914 
2.0849966e+3, 1.7401329e+2, -1349965.9, -1284441.3, -28061.152, -0.15141517, 0.6576616, -1274066.6, -39336.05, 0.005333032, 9.999131, 9.999973 
2.0850214e+3, 1.840139e+2, -1122789.0, -1032981.6, 22765.355, -0.230208, 0.68789005, -1027540.5, 109184.36, 0.00018960002, 9.999611, 10.0008135 
2.08505e+3, 1.9401444e+2, -1149156.8, -967133.5, -34969.82, -0.04967475, 0.61911327, -960646.4, 78068.625, 0.000000020895914, 9.998654, 10.001037 
2.0850767e+3, 2.0401418e+2, -1255420.0, -1232947.0, -103453.984, 0.020254327, 0.599607, -1140121.1, -199403.39, 0.0, 9.998395, 9.998669 
2.0851006e+3, 2.1401267e+2, -1014339.6, -1076552.4, -48125.254, -0.075368784, 0.57459694, -988142.94, -145404.22, 0.0, 9.999438, 9.998552 
2.0851253e+3, 2.2401188e+2, -686900.44, -769503.94, -8670.577, -0.108244486, 0.6030986, -686000.1, 58747.934, 0.0, 10.000544, 9.999488 
2.0851514e+3, 2.3401214e+2, -400102.75, -551767.5, -101351.12, -0.064189434, 0.6388341, -349354.72, 297385.38, 0.0, 10.001739, 9.999717 
2.0851777e+3, 2.4401096e+2, -418660.4, -792078.94, -129089.734, 0.030094633, 0.66443074, -378379.56, 170371.16, 0.0, 10.002138, 9.997206 
2.0852043e+3, 2.5400758e+2, -423959.28, -757420.1, -74295.0, 0.17114197, 0.6000557, -408155.38, 42633.22, 0.0, 10.001509, 9.997061 
2.0852295e+3, 2.6400545e+2, -302126.2, -560299.6, 4679.3125, 0.13160028, 0.6515598, -302041.4, 50772.703, 0.0, 10.001282, 9.997862 
2.0852523e+3, 2.7400512e+2, -138600.81, -399032.16, 26153.855, -0.16832316, 0.7842774, -136000.28, 118821.64, 0.000000115745564, 10.001623, 9.998112 
2.0852773e+3, 2.840035e+2, 78381.29, -181596.97, 23831.281, -0.23175934, 0.78947, 80547.766, 237386.28, 0.0000020138657, 10.002123, 9.998719 
2.0853047e+3, 2.9400045e+2, 291609.63, 2757.202, -61881.54, -0.04411061, 0.5552811, 304308.38, 363172.06, 0.000014504671, 10.002823, 9.998952 
2.0853296e+3, 3.0399945e+2, 209633.61, -271171.28, -33192.09, -0.120021395, 0.6674938, 211914.19, 211914.19, 0.000053401807, 10.002979, 9.9967 
2.0853563e+3, 3.140007e+2, 75284.67, -278681.0, 63393.54, -0.08955999, 1.0727884, 86295.625, 86295.625, 0.00012548068, 10.001768, 9.997213 
2.0948654e+3, 1.239836e+2, -1870850.3, -1793863.6, 162285.64, -0.01744063, 0.49819958, -1665568.5, 59449.82, 0.42994058, 9.998895, 10.0001545 
2.0948978e+3, 1.3398558e+2, -1904232.4, -1966828.3, -25399.38, 0.4554936, 0.8333222, -1895222.9, -268216.03, 0.31401625, 9.998923, 9.998082 
2.094917e+3, 1.4398189e+2, -1592593.1, -1415010.9, -103260.04, -0.33986324, 0.5048391, -1367616.5, 161429.9, 0.19429262, 9.998766, 10.001519 
2.0949456e+3, 1.5398666e+2, -1620713.1, -1298612.4, -79958.734, 0.024530783, 0.75311685, -1279855.6, 151140.69, 0.094824284, 9.997603, 10.002073 
2.0949714e+3, 1.6398923e+2, -1648328.8, -1437320.1, 8068.1704, 0.072511904, 0.8837661, -1437012.1, -104043.47, 0.032688897, 9.997538, 10.000384 
2.0949957e+3, 1.7398743e+2, -1318402.6, -1226604.1, 40603.402, -0.17184098, 0.6448874, -1211222.3, 23762.564, 0.0061590113, 9.999157, 10.000361 
2.0950215e+3, 1.8398638e+2, -1206055.6, -1220119.9, -15433.227, -0.20678985, 0.5470156, -1196127.9, -59132.82, 0.00026052183, 9.99967, 9.9995 
2.0950498e+3, 1.9398695e+2, -1257641.8, -1189617.4, -65385.203, 0.02934505, 0.6331311, -1149927.1, -110935.65, 0.00000016154512, 9.998642, 9.9995165 
2.095076e+3, 2.039871e+2, -1161334.5, -1020327.2, -81142.31, 0.08999774, 0.67285126, -983337.4, -42347.145, 0.0, 9.9983225, 10.00016 
2.0951001e+3, 2.1398665e+2, -909696.56, -825025.6, -1479.2952, -0.078779936, 0.5699558, -824999.75, 17992.54, 0.0, 9.999294, 10.000344 
2.0951253e+3, 2.2398593e+2, -855219.06, -1068090.3, 27497.701, -0.17394017, 0.59314334, -851724.44, -106724.04, 0.0, 10.000323, 9.997544 
2.0951523e+3, 2.3398496e+2, -593885.9, -908013.06, -45010.383, -0.14826843, 0.73887014, -587563.7, 59452.363, 0.0, 10.00154, 9.997366 
2.0951787e+3, 2.4398328e+2, -360727.88, -606693.25, -151701.34, -0.10812758, 0.7818061, -288420.9, 260613.84, 0.0, 10.001859, 9.998612 
2.0952041e+3, 2.539804e+2, -319659.16, -506534.97, -86564.93, -0.029118545, 0.5874447, -285723.1, 165335.78, 0.0, 10.001356, 9.998859 
2.0952295e+3, 2.639787e+2, -277906.25, -455223.16, 5545.784, -0.0024963801, 0.54161507, -277732.97, 75341.42, 0.0, 10.001056, 9.998688 
2.0952556e+3, 2.7397895e+2, -115248.33, -312744.03, 50419.273, -0.002578631, 0.66113776, -103121.29, 151953.39, 0.0, 10.00146, 9.998781 
2.095282e+3, 2.8397852e+2, -71279.05, -404652.5, 35336.758, -0.0063679432, 0.8075572, -67574.6, 89507.984, 0.00000039293647, 10.001757, 9.997362 
2.0953076e+3, 2.9397684e+2, 157371.5, -213740.25, -11339.563, -0.05096374, 0.861441, 157717.67, 216821.16, 0.000007667558, 10.002559, 9.99759 
2.0953315e+3, 3.0397415e+2, 177582.16, -186301.34, -75846.945, -0.24759595, 0.83859617, 192758.53, 192758.53, 0.000037309004, 10.002381, 9.99755 
2.0953576e+3, 3.1397244e+2, 143249.77, 51542.207, -17782.709, -0.1683058, 0.8483275, 146577.22, 146577.22, 0.00009604867, 10.00105, 9.99979 
2.104864e+3, 1.2395415e+2, -2028164.0, -1918920.6, -7827.3984, 0.020882193, 0.51137996, -1918362.6, -193052.55, 0.44859928, 9.997988, 9.999538 
2.1048968e+3, 1.339594e+2, -1824301.3, -1721526.3, 93955.6, 0.49342662, 0.9822425, -1665823.4, -38555.793, 0.3298663, 9.998557, 9.999958 
2.1049163e+3, 1.4395538e+2, -1570188.3, -1409253.3, 18666.96, -0.2835061, 0.52370924, -1407116.4, 122194.44, 0.20615475, 9.9989, 10.001475 
2.1049435e+3, 1.5396038e+2, -1422322.8, -1220849.4, -81486.04, 0.016192889, 0.8006764, -1192018.1, 239240.16, 0.10215144, 9.999047, 10.001953 
2.1049692e+3, 1.639626e+2, -1423447.9, -1308889.5, -7938.072, 0.04313654, 0.8958055, -1308342.0, 24890.984, 0.036114734, 9.998999, 10.000561 
2.1049951e+3, 1.7396061e+2, -1324176.4, -1202761.0, 2335.8086, -0.12894335, 0.6171225, -1202716.0, 32532.95, 0.007176738, 9.999012, 10.000587 
2.1050218e+3, 1.8395971e+2, -1300510.0, -1289382.5, -45519.97, -0.113469526, 0.5303691, -1249087.5, -111830.09, 0.0003661867, 9.999129, 9.999284 
2.1050493e+3, 1.9396041e+2, -1122540.0, -1151905.6, -26036.271, 0.07470245, 0.6565517, -1107331.9, -68077.61, 0.00000091193453, 9.999701, 9.999259 
2.1050751e+3, 2.0396075e+2, -895661.25, -885623.2, 5492.6934, 0.10835149, 0.72063714, -883201.75, 58050.082, 0.0, 10.000071, 10.000261 
2.1050996e+3, 2.1396038e+2, -760207.2, -743487.44, -47906.55, -0.079437934, 0.6153156, -703216.8, 140034.63, 0.0, 10.000239, 10.000472 
2.105126e+3, 2.2395965e+2, -844618.6, -1063174.9, 3232.2998, -0.14918429, 0.6353048, -844570.8, -99311.664, 0.0, 10.0004225, 9.99751 
2.1051542e+3, 2.3395833e+2, -687080.3, -956933.75, 74126.29, -0.07369752, 0.74975234, -668059.25, -20779.488, 0.0, 10.000934, 9.997306 
2.1051809e+3, 2.4395673e+2, -452261.25, -614000.1, -7138.101, -0.03811671, 0.78936785, -451946.8, 97351.516, 0.0, 10.001071, 9.998945 
2.1052043e+3, 2.5395474e+2, -405422.84, -502061.3, -66949.28, -0.09789825, 0.6448793, -371177.22, 80136.4, 0.0, 10.000593, 9.999249 
2.1052295e+3, 2.6395336e+2, -290732.06, -430791.63, 12960.575, -0.0950994, 0.6021048, -289542.8, 63781.594, 0.0, 10.000804, 9.998992 
2.1052574e+3, 2.7395323e+2, -22975.553, -238036.2, 11888.699, 0.015601132, 0.652687, -22320.334, 233006.47, 0.0, 10.001944, 9.999071 
2.105285e+3, 2.8395274e+2, 6991.623, -395800.34, 16807.105, 0.0909724, 0.7916858, 7691.7085, 165026.44, 0.00000006547354, 10.002436, 9.997085 
2.1053106e+3, 2.939513e+2, 54598.715, -308561.2, 6010.5273, 0.011471496, 0.91450703, 54698.168, 114054.02, 0.000004738257, 10.002063, 9.997173 
2.105334e+3, 3.0394846e+2, 208730.1, -142083.42, -9959.82, -0.22530456, 0.8824171, 209012.63, 209012.63, 0.00002905632, 10.002416, 9.997853 
2.1053606e+3, 3.1394568e+2, 506702.72, 270510.8, -118916.8, -0.09984412, 0.75601894, 556201.06, 556201.06, 0.00007990105, 10.003312, 10.00022 
2.1148644e+3, 1.2392619e+2, -1833558.4, -1591070.4, -198346.36, 0.1964529, 0.7826591, -1479846.4, 245747.53, 0.46656317, 9.998072, 10.002861 
2.1148941e+3, 1.3393274e+2, -1554435.3, -1279618.9, 84536.086, 0.34611425, 0.9284763, -1255697.0, 371830.94, 0.34608045, 9.998621, 10.004216 
2.1149167e+3, 1.4393151e+2, -1671164.0, -1627187.1, 26707.963, -0.17394377, 0.6077517, -1614580.6, -85041.37, 0.21890919, 9.999058, 9.999691 
2.1149424e+3, 1.5393224e+2, -1523719.4, -1440977.5, -79353.61, -0.040989675, 0.6367279, -1392858.0, 38674.543, 0.110347085, 9.999158, 10.000245 
2.1149676e+3, 1.6393231e+2, -1410983.1, -1306081.4, -17626.86, -0.07658402, 0.6066653, -1303198.8, 30332.467, 0.040102176, 9.999097, 10.000533 
2.1149947e+3, 1.7393288e+2, -1316248.8, -1193791.4, 8458.808, -0.11122801, 0.5762483, -1193209.9, 42313.406, 0.008443992, 9.999038, 10.000637 
2.1150218e+3, 1.8393375e+2, -1238024.9, -1169896.8, -36864.563, -0.07077993, 0.6271472, -1153767.6, -16254.122, 0.00052604213, 9.999175, 10.000079 
2.1150483e+3, 1.9393466e+2, -1068172.6, -1028105.4, 1510.6008, -0.0011434864, 0.6870164, -1028048.5, 11456.611, 0.0000034897541, 9.999656, 10.000127 
2.1150742e+3, 2.0393479e+2, -996449.5, -1067514.8, 4662.6865, -0.036547102, 0.73693454, -996144.9, -54639.934, 0.0, 9.999955, 9.999069 
2.1150991e+3, 2.1393387e+2, -884416.7, -961388.75, -35473.715, -0.1667048, 0.7188003, -870561.94, -27046.328, 0.0, 10.000086, 9.999043 
2.1151264e+3, 2.2393303e+2, -761480.56, -835470.56, 15768.77, -0.1608932, 0.72741956, -758260.06, -12735.287, 0.0, 10.000182, 9.999189 
2.1151568e+3, 2.3393211e+2, -570208.4, -676259.25, 103559.87, 0.066270664, 0.68278164, -506888.03, 140645.25, 0.0, 10.000766, 9.999314 
2.1151836e+3, 2.4393108e+2, -537844.75, -731024.8, -30053.906, 0.09908956, 0.6994982, -533277.1, 16267.072, 0.0, 10.000816, 9.998259 
2.1152046e+3, 2.5393012e+2, -495794.75, -660282.9, -76263.8, -0.13668896, 0.75385356, -465877.1, -14320.341, 0.0, 10.00047, 9.998217 
2.1152288e+3, 2.6392913e+2, -341756.03, -478372.44, 43938.348, -0.271744, 0.8126557, -328844.84, 24722.766, 0.0, 10.000561, 9.998777 
2.1152574e+3, 2.7392784e+2, -44681.254, -252448.1, 68634.055, -0.20179863, 0.7561078, -24056.049, 231522.44, 0.0, 10.001806, 9.999039 
2.1152857e+3, 2.8392577e+2, -13235.412, -365530.1, -4581.5127, -0.106612295, 0.72251445, -13175.841, 144422.81, 0.00000005479561, 10.0021305, 9.997436 
2.1153128e+3, 2.9392344e+2, 43169.414, -292510.63, 16719.645, 0.0056397473, 0.7072375, 44000.133, 103625.4, 0.0000044706885, 10.001875, 9.997379 
2.1153359e+3, 3.0392215e+2, 78924.21, -223354.34, 1425.0155, -0.31385785, 0.83366424, 78930.93, 78930.93, 0.000027145721, 10.001675, 9.997619 
2.1153645e+3, 3.1392026e+2, 231051.08, -109364.69, 37762.26, -0.090606526, 0.80385906, 235189.72, 235189.72, 0.00007500409, 10.0025425, 9.997958 
2.1248624e+3, 1.2389759e+2, -1695996.1, -1738800.1, -315236.9, 0.020985702, 0.5305764, -1401435.5, 324438.53, 0.48543465, 10.000941, 10.000339 
2.1248907e+3, 1.3390571e+2, -1602399.9, -1312404.6, 98346.62, 0.16414735, 0.7815207, -1282198.5, 345593.6, 0.3637423, 9.99821, 10.004128 
2.1249183e+3, 1.4390688e+2, -1813995.1, -1769694.3, -43524.375, 0.11273867, 0.74360377, -1743008.1, -213227.86, 0.23315269, 9.998379, 9.999046 
2.124942e+3, 1.5390581e+2, -1570849.3, -1525177.8, -84920.586, 0.0046748365, 0.65094346, -1460076.1, -28282.94, 0.1197026, 9.999071, 9.99971 
2.1249664e+3, 1.6390502e+2, -1416431.8, -1336123.8, 11236.942, -0.08980966, 0.57538843, -1334581.0, -779.3844, 0.044803485, 9.999171, 10.000297 
2.124994e+3, 1.7390631e+2, -1333507.1, -1235535.1, -2423.0063, -0.05820123, 0.6475926, -1235475.3, 312.3725, 0.01004214, 9.999052, 10.000351 
2.1250212e+3, 1.8390743e+2, -1201875.4, -1102812.0, -33958.06, -0.011725564, 0.71996015, -1092289.3, 45485.227, 0.0007722133, 9.999192, 10.000528 
2.1250479e+3, 1.9390778e+2, -972872.06, -923178.6, -32363.22, -0.02286685, 0.66652316, -907224.2, 132544.02, 0.000010944595, 10.000044, 10.000661 
2.125074e+3, 2.0390765e+2, -943361.3, -1083100.0, -21664.4, -0.065766856, 0.6790402, -940079.6, 1689.6782, 0.0, 10.000537, 9.998664 
2.1250996e+3, 2.1390685e+2, -825224.94, -989301.2, -20209.29, -0.1713396, 0.7258714, -822772.44, 21008.783, 0.0, 10.000763, 9.99851 
2.125127e+3, 2.2390613e+2, -668002.94, -744225.7, 37615.367, -0.124073684, 0.7562009, -652566.25, 93223.8, 0.0, 10.000606, 9.999623 
2.1251574e+3, 2.3390551e+2, -665379.25, -656676.2, 3199.8965, 0.1048863, 0.68743443, -655626.3, -7832.25, 0.0, 9.999839, 9.999895 
2.1251844e+3, 2.4390475e+2, -654058.25, -772293.44, -124966.68, 0.16444519, 0.69217956, -574931.25, -25129.596, 0.0, 9.999958, 9.998388 
2.1252063e+3, 2.5390384e+2, -349419.6, -583691.75, -112647.84, -0.055585857, 0.75016296, -304042.9, 147771.33, 0.0, 10.001444, 9.9982815 
2.1252307e+3, 2.639029e+2, -127916.88, -409837.88, 56520.605, -0.201151, 0.82460624, -117007.56, 236818.03, 0.0, 10.002197, 9.99845 
2.1252587e+3, 2.7390143e+2, -76668.234, -308255.47, 28760.36, -0.241851, 0.79656035, -73149.99, 182690.03, 0.0, 10.001794, 9.9986515 
2.1252869e+3, 2.8389934e+2, -14082.516, -309601.53, -34808.387, -0.16926527, 0.75453126, -10037.887, 147822.52, 0.000000117451826, 10.001854, 9.997974 
2.1253149e+3, 2.9389703e+2, 183441.63, -153284.78, -27256.596, 0.015734743, 0.6897823, 185633.67, 245515.5, 0.0000050467984, 10.002529, 9.998021 
2.1253394e+3, 3.038956e+2, 235727.0, -238618.36, -13460.669, -0.1819407, 0.7966194, 236108.67, 236108.67, 0.00002697455, 10.00306, 9.996897 
2.1253684e+3, 3.138939e+2, 220505.13, -159683.02, -61082.53, 0.07830297, 0.8869319, 230077.86, 230077.86, 0.00007158717, 10.0025835, 9.997642 
2.134886e+3, 1.3387822e+2, -1904966.6, -1796390.4, 114505.37, -0.14768617, 0.57302076, -1723955.6, -95895.02, 0.38411817, 9.99823, 9.999538 
2.1349204e+3, 1.438815e+2, -1765105.3, -1695213.8, -27308.271, 0.4333625, 0.95612997, -1685809.3, -155775.17, 0.24951555, 9.998494, 9.999495 
2.134942e+3, 1.5388103e+2, -1510273.6, -1418306.9, -55839.195, 0.059271608, 0.8491261, -1391954.4, 40086.477, 0.13052814, 9.999139, 10.000439 
2.1349655e+3, 1.6388051e+2, -1438278.3, -1409729.4, -4583.168, -0.12097908, 0.78340816, -1409011.6, -74964.67, 0.050404422, 9.999289, 9.999736 
2.1349934e+3, 1.7388079e+2, -1377248.0, -1329591.1, -3210.6455, -0.059983402, 0.8198417, -1329375.8, -93332.44, 0.012084308, 9.999068, 9.999696 
2.1350205e+3, 1.8388072e+2, -1184960.6, -1084559.1, -12592.9, -0.054561067, 0.8039801, -1083003.8, 55037.11, 0.001155736, 9.999261, 10.000623 
2.1350476e+3, 1.9387981e+2, -964452.75, -901271.94, 5382.338, -0.083179295, 0.60804254, -900816.75, 139226.25, 0.000030850606, 10.000018, 10.000829 
2.1350743e+3, 2.0387916e+2, -941412.94, -1048870.8, -23198.04, -0.11958077, 0.5472329, -936618.8, 5427.591, 0.0, 10.000407, 9.998962 
2.1351004e+3, 2.1387905e+2, -825276.8, -954717.5, -4278.3105, -0.17312045, 0.63127977, -825135.5, 18915.59, 0.0, 10.000612, 9.998821 
2.1351275e+3, 2.2387886e+2, -753424.25, -860634.9, 7935.736, -0.16463521, 0.7276952, -752840.0, -6783.9897, 0.0, 10.000354, 9.9989395 
2.135156e+3, 2.3387846e+2, -746046.6, -794352.3, -16762.943, -0.038698573, 0.7629044, -740799.56, -92737.055, 0.0, 9.999706, 9.999017 
2.1351834e+3, 2.4387752e+2, -632311.8, -674983.4, -86044.9, 0.03441107, 0.76399785, -564996.94, -14924.556, 0.0, 9.999742, 9.999158 
2.135209e+3, 2.5387582e+2, -300722.3, -446717.3, -47446.563, 0.049934477, 0.6417829, -286657.7, 165428.78, 0.0, 10.001288, 9.999295 
2.1352349e+3, 2.638745e+2, -211711.67, -516804.88, 39603.297, -0.02836082, 0.6471463, -206654.7, 147445.52, 0.0, 10.001923, 9.997841 
2.135261e+3, 2.7387366e+2, -165317.14, -450112.7, 27244.99, -0.2175747, 0.7606264, -162734.17, 93380.66, 0.00000000014169585, 10.001614, 9.997764 
2.1352878e+3, 2.838727e+2, -25000.848, -240527.34, -21218.111, -0.27972987, 0.8528063, -22931.832, 135194.17, 0.000000256191, 10.001486, 9.998608 
2.1353169e+3, 2.9387164e+2, 210329.88, -57172.855, 24662.385, -0.07035213, 0.81983316, 212584.61, 272714.75, 0.0000052967753, 10.002339, 9.9987755 
2.1353436e+3, 3.0386737e+2, 36742.082, -474368.2, -29808.549, -0.11743322, 0.6750747, 38474.68, 38474.68, 0.000025200057, 10.002372, 9.995575 
2.1353707e+3, 3.1386378e+2, 166913.28, -26845.023, 55898.035, -0.013349591, 0.698066, 181882.95, 181882.95, 0.00006359548, 10.00161, 9.998988 
2.1448837e+3, 1.3384993e+2, -1927387.1, -1920158.6, -12697.676, -0.16902347, 0.49039686, -1910570.9, -282231.25, 0.40760165, 9.998507, 9.998564 
2.1449181e+3, 1.4385372e+2, -1889364.6, -1722851.4, -32739.602, 0.43229666, 0.95824385, -1716645.4, -186337.17, 0.26811564, 9.997503, 9.999785 
2.144941e+3, 1.5385397e+2, -1579890.5, -1422402.3, -89594.71, 0.10113137, 0.89392704, -1381865.8, 50441.164, 0.14296411, 9.998532, 10.000717 
2.1449655e+3, 1.6385368e+2, -1470115.3, -1443412.5, -61753.855, -0.02758487, 0.84566855, -1393583.3, -59272.64, 0.057087187, 9.999165, 9.999558 
2.1449925e+3, 1.7385298e+2, -1377136.3, -1344869.4, -47319.773, -0.04877466, 0.8011707, -1311008.4, -74690.95, 0.014719365, 9.999163, 9.9995365 
2.1450193e+3, 1.8385266e+2, -1250125.3, -1119033.5, -16367.865, -0.060073294, 0.7699041, -1117020.8, 21297.496, 0.0017550356, 9.998843, 10.000586 
2.1450476e+3, 1.9385272e+2, -1177014.3, -1009642.0, -27852.043, -0.008500392, 0.6782043, -1005128.9, 35182.4, 0.00008036648, 9.998593, 10.000771 
2.1450748e+3, 2.0385236e+2, -1165803.5, -1138117.8, -40125.46, -0.012223316, 0.6413816, -1109514.5, -167202.78, 0.000000018813253, 9.998775, 9.999137 
2.1451005e+3, 2.1385138e+2, -918511.7, -979054.0, -43644.844, -0.15413274, 0.61926144, -895667.75, -51345.008, 0.0, 9.999871, 9.99901 
2.1451275e+3, 2.2385073e+2, -773754.06, -905607.75, -52429.45, -0.17441127, 0.6712838, -755447.94, -9115.9795, 0.0, 10.000371, 9.998623 
2.1451558e+3, 2.3385043e+2, -722176.3, -825909.0, -66203.91, -0.022921678, 0.7599543, -689941.06, -41601.805, 0.0, 10.000062, 9.998631 
2.1451835e+3, 2.4384978e+2, -548757.44, -580067.7, -57333.023, 0.07606912, 0.7912153, -504980.6, 45365.75, 0.0, 10.000074, 9.999654 
2.1452099e+3, 2.5384855e+2, -355626.5, -402179.16, -58083.086, 0.065025926, 0.6582626, -316329.4, 136023.78, 0.0, 10.000609, 9.999924 
2.1452363e+3, 2.6384747e+2, -335712.16, -560357.06, 13945.956, -0.0033744385, 0.64166296, -334849.7, 19513.797, 0.0, 10.000985, 9.998002 
2.1452627e+3, 2.7384663e+2, -232816.34, -468796.9, 37810.67, -0.1699351, 0.7461409, -226906.05, 29472.56, 0.00000000016893417, 10.001083, 9.997891 
2.1452901e+3, 2.8384587e+2, -41087.93, -280020.78, 48949.355, -0.20623346, 0.86573434, -31448.719, 126939.06, 0.0000002738674, 10.001473, 9.998358 
2.1453193e+3, 2.9384458e+2, 170899.55, -91661.75, -14904.373, -0.043811504, 0.84177864, 171742.89, 232138.69, 0.0000047479944, 10.00215, 9.998621 
2.1453469e+3, 3.0383974e+2, 122738.95, -360585.5, -42221.508, 0.0072725904, 0.60596144, 126399.55, 126399.55, 0.000021563434, 10.002554, 9.996312 
2.1453728e+3, 3.1383738e+2, 274617.56, 133975.1, 60089.477, 0.050961144, 0.68595195, 296794.0, 296794.0, 0.000054127435, 10.001828, 9.999993 
2.154884e+3, 1.3382122e+2, -1715484.1, -1555476.3, -46904.28, -0.063150555, 0.6023441, -1542740.6, 85884.68, 0.43279883, 9.998624, 10.001416 
2.1549107e+3, 1.438231e+2, -1843281.0, -1683197.5, -56061.75, -0.13472794, 0.6979031, -1665517.1, -134910.11, 0.28823382, 9.997726, 9.999954 
2.154939e+3, 1.538246e+2, -1585321.1, -1454654.5, -45894.9, 0.022821745, 0.7791132, -1440145.6, -7553.7373, 0.15688464, 9.998631, 10.0004015 
2.154966e+3, 1.6382469e+2, -1434963.1, -1405322.0, -63301.094, 0.0553753, 0.77688974, -1355129.6, -20538.574, 0.06501248, 9.999319, 9.999742 
2.154991e+3, 1.7382292e+2, -1356125.1, -1306478.4, -45446.563, -0.124945976, 0.5976853, -1279517.6, -42907.914, 0.018139776, 9.999188, 9.999781 
2.1550176e+3, 1.838231e+2, -1254629.5, -1147897.4, -37419.805, -0.15428397, 0.61504847, -1136085.5, 2522.9155, 0.0026903055, 9.998921, 10.000351 
2.1550474e+3, 1.9382647e+2, -1191975.4, -1038796.2, -30727.625, 0.09956212, 0.8744642, -1032862.1, 7711.8174, 0.00019736934, 9.99859, 10.000566 
2.1550752e+3, 2.0382719e+2, -1179856.8, -1147435.0, -12329.051, 0.12479619, 0.9584154, -1143279.3, -200714.0, 0.0000007869328, 9.998688, 9.999115 
2.1551001e+3, 2.138238e+2, -935689.94, -987814.5, 3886.8616, -0.20528054, 0.6915527, -935401.7, -90804.76, 0.0, 9.999749, 9.999009 
2.155127e+3, 2.2382158e+2, -808022.75, -925761.0, -66725.87, -0.28548446, 0.58791417, -777909.2, -31290.076, 0.0, 10.000154, 9.998586 
2.1551567e+3, 2.338213e+2, -741909.7, -836431.44, -69026.46, 0.049089473, 0.67867595, -705515.06, -56889.473, 0.0, 9.999929, 9.998621 
2.1551846e+3, 2.438214e+2, -570272.56, -565335.2, -46649.117, 0.15803632, 0.7723223, -521089.47, 29535.84, 0.0, 9.999829, 9.9998665 
2.1552092e+3, 2.5382185e+2, -360881.5, -382389.0, -29046.697, -0.08232286, 0.7848832, -340661.8, 111954.625, 0.0, 10.000475, 10.000125 
2.1552354e+3, 2.638214e+2, -313717.8, -460676.4, 10910.384, -0.24150074, 0.78675324, -312912.25, 41706.77, 0.0, 10.000761, 9.998792 
2.1552637e+3, 2.7381986e+2, -190918.58, -351536.06, 49856.098, -0.19649234, 0.732793, -176701.53, 79934.414, 0.0, 10.000947, 9.998766 
2.1552928e+3, 2.8381833e+2, -174658.88, -466048.84, 60070.08, -0.11359055, 0.77433145, -162761.2, -4108.3447, 0.000000100631844, 10.001115, 9.997237 
2.1553218e+3, 2.9381576e+2, 36189.344, -302372.78, 34581.395, -0.027433025, 0.75588626, 39685.453, 100365.43, 0.0000031808167, 10.001854, 9.997314 
2.1553487e+3, 3.0381155e+2, 171589.19, -64262.676, -70228.45, -0.12128835, 0.54247004, 190916.89, 190916.89, 0.000016664693, 10.001775, 9.99869 
2.1553735e+3, 3.1381506e+2, 150646.39, 12551.337, 24886.469, -0.11994606, 0.92199534, 154994.34, 154994.34, 0.00004561872, 10.0012665, 9.999418 
2.1648845e+3, 1.3379322e+2, -1843988.9, -1516606.9, -8640.642, 0.20823133, 0.8143678, -1516379.0, 112531.695, 0.45757636, 9.9971895, 10.002599 
2.1649075e+3, 1.4379443e+2, -1585753.3, -1479874.3, -114091.0, -0.27034366, 0.7410028, -1407038.8, 123856.01, 0.3088363, 9.999149, 10.000926 
2.1649368e+3, 1.537957e+2, -1673660.6, -1423878.3, -72309.6, -0.010641717, 0.71996486, -1404455.5, 28421.107, 0.17204043, 9.997716, 10.001072 
2.1649645e+3, 1.6379613e+2, -1775786.9, -1555538.5, -12548.631, 0.101757415, 0.70730966, -1554825.8, -219955.69, 0.07433442, 9.996898, 9.999887 
2.1649903e+3, 1.7379536e+2, -1443727.3, -1339352.5, -7744.0664, -0.09252008, 0.62057513, -1338781.1, -101900.5, 0.022589553, 9.99852, 9.999893 
2.1650171e+3, 1.837958e+2, -1209002.1, -1165367.8, -26665.908, -0.11375721, 0.6721821, -1152731.3, -13853.013, 0.00413868, 9.999414, 9.999992 
2.1650466e+3, 1.9379807e+2, -1096260.0, -1046726.0, -64514.59, 0.11771909, 0.8705939, -1002387.7, 38467.473, 0.00045452762, 9.999483, 10.000088 
2.1650746e+3, 2.0379846e+2, -1041806.0, -1067827.0, -8837.095, 0.1716798, 0.942418, -1039088.6, -96238.57, 0.000007502901, 9.999568, 9.999242 
2.165101e+3, 2.1379595e+2, -881655.9, -939758.75, 10576.289, -0.101409234, 0.749067, -879790.6, -34917.99, 0.0, 10.0000305, 9.999208 
2.1651284e+3, 2.2379409e+2, -774654.75, -884968.25, -57106.58, -0.16813883, 0.6619234, -750417.3, -3527.0208, 0.0, 10.000281, 9.998801 
2.165157e+3, 2.3379323e+2, -657576.7, -771371.1, -64994.95, 0.06554399, 0.6704641, -628093.1, 20806.986, 0.0, 10.000403, 9.998835 
2.1651846e+3, 2.4379297e+2, -483310.84, -563456.94, -21031.1, 0.14698167, 0.7341442, -478127.34, 72775.19, 0.0, 10.000587, 9.9995165 
2.16521e+3, 2.5379345e+2, -332425.16, -406670.22, -59894.934, -0.068466984, 0.79175746, -299081.5, 153813.69, 0.0, 10.0008545, 9.999763 
2.1652363e+3, 2.6379296e+2, -256799.88, -427170.13, -58564.773, -0.20955722, 0.8055724, -238610.25, 116288.5, 0.0, 10.00113, 9.998839 
2.165265e+3, 2.7379096e+2, -115919.83, -298084.1, -95324.17, -0.18285146, 0.69913614, -75158.67, 181760.16, 0.0, 10.00142, 9.998886 
2.1652944e+3, 2.8378955e+2, -79464.4, -353692.1, -44289.195, -0.046119727, 0.71463174, -72488.9, 86445.04, 0.0000000029805467, 10.001467, 9.997843 
2.1653242e+3, 2.9378837e+2, -27598.61, -241194.47, 39007.844, 0.070433445, 0.7796105, -20697.771, 40249.977, 0.000001345268, 10.00103, 9.998129 
2.1653506e+3, 3.0378616e+2, 252828.89, 66390.945, 33402.637, -0.09317794, 0.6618566, 258632.7, 258632.7, 0.000010778314, 10.0019045, 9.999532 
2.1653764e+3, 3.137877e+2, 599163.25, 108364.16, -119218.52, -0.11684267, 0.8015101, 626589.6, 626589.6, 0.00003608632, 10.004876, 9.99833 
2.1748853e+3, 1.3376692e+2, -1877301.0, -1578813.3, -3425.7905, 0.48138002, 1.2101245, -1578773.9, 50412.777, 0.48078975, 9.997552, 10.001567 
2.1749091e+3, 1.4376841e+2, -1471815.5, -1326781.3, -95359.055, -0.09937233, 1.1283331, -1279498.3, 251666.5, 0.32934, 9.99938, 10.002277 
2.1749341e+3, 1.5376733e+2, -1573748.5, -1254322.0, -118571.93, -0.08664494, 0.7265829, -1215119.1, 218041.58, 0.18832743, 9.997738, 10.002501 
2.1749602e+3, 1.6376764e+2, -1751709.4, -1538789.0, 21737.32, -0.055990312, 0.62398285, -1536592.5, -201441.6, 0.0852701, 9.997033, 9.999936 
2.1749893e+3, 1.7377037e+2, -1430975.8, -1327444.4, 63155.215, -0.05433617, 0.87797076, -1297550.6, -60421.168, 0.028395085, 9.998583, 9.999939 
2.1750173e+3, 1.8377072e+2, -1247516.6, -1264388.9, -26803.773, -0.06280433, 0.94892967, -1227852.8, -88724.89, 0.006367479, 9.9994955, 9.999271 
2.1750444e+3, 1.937674e+2, -1157112.5, -1172468.1, -58740.805, -0.043964993, 0.66853386, -1105549.9, -64393.54, 0.0009868387, 9.999478, 9.999224 
2.1750727e+3, 2.0376594e+2, -1036204.8, -1041174.7, -3652.1096, -0.011252905, 0.5942091, -1034272.44, -91104.44, 0.000047582707, 9.999496, 9.999462 
2.1751028e+3, 2.1376766e+2, -875503.0, -890799.4, 32800.51, 0.06555952, 0.78476256, -849470.8, -4319.229, 0.00000000032497088, 9.999873, 9.999621 
2.1751311e+3, 2.2376798e+2, -787736.94, -847880.0, -58204.0, 0.058377594, 0.87522763, -752295.1, -5147.107, 0.0, 10.000012, 9.999182 
2.1751562e+3, 2.3376589e+2, -659912.2, -732083.75, -52710.38, -0.055723563, 0.7225261, -632118.6, 17047.318, 0.0, 10.000223, 9.999186 
2.1751831e+3, 2.4376422e+2, -587534.06, -709883.5, -20974.521, -0.089448884, 0.66265786, -584038.25, -32857.355, 0.0, 10.000298, 9.998645 
2.1752116e+3, 2.5376332e+2, -425904.34, -562501.44, -41923.895, -0.0009833917, 0.6780799, -414063.6, 39126.58, 0.0, 10.000696, 9.998764 
2.1752393e+3, 2.6376218e+2, -344093.44, -542775.6, -56097.535, -0.055918053, 0.7103678, -329348.66, 25854.014, 0.0, 10.000861, 9.998169 
2.1752658e+3, 2.7376005e+2, -183710.64, -404649.25, -69574.82, -0.23248248, 0.6530271, -163626.8, 93598.79, 0.0, 10.001278, 9.9982195 
2.1752949e+3, 2.8375924e+2, 12145.152, -79271.95, -67580.945, -0.17569037, 0.6802204, 48023.707, 207257.11, 0.0, 10.001126, 9.999884 
2.1753258e+3, 2.9376164e+2, 116164.39, 100205.93, 32480.611, 0.09297388, 0.85038465, 141631.52, 202838.13, 0.00000028754212, 10.000844, 10.000562 
2.175352e+3, 3.0376184e+2, 102340.0, -98540.22, 96787.305, -0.16502663, 0.8834364, 141384.64, 141384.64, 0.0000061263827, 10.001336, 9.998641 
2.1753824e+3, 3.1375664e+2, 372867.5, -166074.53, 100382.664, -0.085185625, 0.4678463, 390957.47, 390957.47, 0.000027574106, 10.004067, 9.99682 
2.1849091e+3, 1.4374317e+2, -2085063.1, -1602598.8, 97322.12, 0.19221997, 1.2226048, -1583706.8, -52294.16, 0.34983045, 9.995203, 10.001706 
2.1849309e+3, 1.5374097e+2, -1466336.6, -1285641.5, -46946.664, -0.19396065, 0.80725795, -1274172.3, 159248.6, 0.2059314, 9.998813, 10.0017395 
2.1849602e+3, 1.6373971e+2, -1407404.4, -1419482.0, 18402.342, 0.10267978, 0.6083863, -1394075.4, -58648.375, 0.09816949, 9.99962, 9.999503 
2.184989e+3, 1.7374288e+2, -1345610.9, -1324944.9, 19322.787, 0.0340019, 0.9474194, -1313365.8, -75963.48, 0.036017943, 9.999387, 9.999553 
2.1850164e+3, 1.8374315e+2, -1255335.1, -1286752.5, -64306.26, -0.09606084, 1.0378343, -1204846.8, -65445.38, 0.009796201, 9.9995, 9.999122 
2.185044e+3, 1.9373903e+2, -1038665.0, -1130025.5, -54782.11, -0.09506328, 0.69105667, -1013016.7, 28419.34, 0.0020521113, 10.0003395, 9.999098 
2.1850727e+3, 2.037371e+2, -925301.0, -1034119.94, 12172.3955, 0.004809027, 0.59172046, -923956.0, 19496.365, 0.00020967671, 10.00047, 9.999044 
2.1851034e+3, 2.1373855e+2, -913566.7, -961004.2, -39489.152, 0.15265168, 0.80125815, -891220.56, -45780.48, 0.00000086887735, 9.999832, 9.999164 
2.1851319e+3, 2.2373879e+2, -821080.3, -846231.06, -133360.94, 0.1583055, 0.9056416, -699703.1, 47734.273, 0.0, 9.999691, 9.999359 
2.1851568e+3, 2.3373705e+2, -591434.44, -660475.7, -145580.83, -0.046308167, 0.76357275, -476337.38, 173113.14, 0.0, 10.000539, 9.999523 
2.1851833e+3, 2.4373542e+2, -483001.0, -675411.1, -86622.1, -0.10627022, 0.6926714, -449750.28, 101714.4, 0.0, 10.001076, 9.998509 
2.1852127e+3, 2.5373405e+2, -377064.6, -568744.7, -75975.17, 0.0041749035, 0.68593484, -350603.6, 102875.89, 0.0, 10.001137, 9.998523 
2.1852407e+3, 2.637328e+2, -255783.94, -495143.47, -12779.807, -0.0045078183, 0.71909606, -255103.53, 100389.445, 0.0, 10.001415, 9.998247 
2.1852681e+3, 2.7373087e+2, -50270.973, -332646.8, 5387.6265, -0.17233172, 0.6788701, -50168.22, 207344.73, 0.0, 10.002136, 9.998323 
2.1852969e+3, 2.8372982e+2, 172096.06, 808.5193, -45272.46, -0.12820143, 0.67125493, 183325.67, 342848.0, 0.0, 10.002183, 9.999939 
2.1853267e+3, 2.9373148e+2, 180154.14, 118632.1, -148561.55, 0.08867998, 0.7794325, 301105.9, 362608.84, 0.000000027227998, 10.001324, 10.0004635 
2.1853547e+3, 3.0373293e+2, 162772.97, -146690.11, -44979.15, -0.04971243, 0.967859, 169177.92, 169177.92, 0.0000044959556, 10.002029, 9.99801 
2.185387e+3, 3.1372687e+2, 467985.6, -59628.375, -48349.67, -0.006316576, 0.5552967, 472379.7, 472379.7, 0.000025056477, 10.004356, 9.997465 
2.1949063e+3, 1.4371717e+2, -2178971.8, -1789851.3, 91049.17, 0.31637156, 0.9738423, -1769600.9, -237947.3, 0.371045, 9.995211, 10.000401 
2.1949272e+3, 1.5371615e+2, -1651233.1, -1650853.5, 39440.848, -0.4731699, 0.96407366, -1611602.0, -177940.95, 0.22535217, 9.998887, 9.998933 
2.1949638e+3, 1.6371237e+2, -1450033.5, -1532700.9, -10335.518, 0.4659922, 0.6888466, -1448760.9, -113062.56, 0.113554515, 9.99973, 9.998672 
2.1949893e+3, 1.7371258e+2, -1409948.6, -1457146.6, 18123.152, 0.0950306, 0.824789, -1403792.6, -166091.08, 0.046104282, 9.999388, 9.998644 
2.1950139e+3, 1.8371259e+2, -1207894.3, -1203752.0, -40121.246, -0.33858383, 0.9175448, -1165648.5, -25945.504, 0.015073848, 9.999565, 9.999662 
2.1950442e+3, 1.937129e+2, -987876.7, -1021367.44, -19074.559, -0.12572265, 0.9419701, -979240.0, 62455.23, 0.004138987, 10.000334, 9.9998455 
2.1950743e+3, 2.0371184e+2, -1015082.1, -1206224.8, -16182.682, 0.0816123, 0.9390754, -1013721.75, -70018.11, 0.00072646124, 10.000409, 9.997891 
2.1951026e+3, 2.1370849e+2, -1032796.0, -1172277.5, -59620.754, 0.06355132, 0.8051693, -1010784.9, -165046.28, 0.000022642807, 9.999683, 9.997777 
2.1951301e+3, 2.2370653e+2, -856560.0, -863544.4, -114773.45, 0.009381013, 0.7650275, -745225.6, 2532.4304, 0.000000000011542125, 9.999443, 9.999359 
2.1951577e+3, 2.3370673e+2, -591720.0, -633187.0, -104468.62, -0.010001187, 0.78973514, -505947.28, 143806.06, 0.0, 10.000413, 9.99977 
2.1951851e+3, 2.4370648e+2, -495553.4, -633969.56, -90900.97, -0.060414284, 0.825122, -450512.88, 101241.14, 0.0, 10.000795, 9.998924 
2.1952124e+3, 2.537054e+2, -371954.63, -522323.88, -67473.31, -0.14436112, 0.80531114, -346117.6, 107647.18, 0.0, 10.000982, 9.998914 
2.1952407e+3, 2.6370442e+2, -268460.38, -434272.72, 474.29453, -0.18829021, 0.81629467, -268459.0, 87314.87, 0.0, 10.001061, 9.998822 
2.195271e+3, 2.737029e+2, -40667.03, -250372.14, 41940.477, -0.123657495, 0.7444902, -32590.129, 225196.4, 0.0, 10.001886, 9.998995 
2.1952999e+3, 2.8370064e+2, -12115.736, -295546.8, -84907.78, -0.0902213, 0.6586414, 11373.523, 171181.05, 0.0, 10.00183, 9.998065 
2.1953267e+3, 2.9369843e+2, -13470.967, -252659.63, -158128.33, -0.05384344, 0.6017635, 65195.574, 127027.07, 0.000000020729713, 10.001195, 9.997974 
2.1953574e+3, 3.0369928e+2, 44825.973, -268133.94, 35876.273, -0.03393536, 0.91698664, 48885.992, 48885.992, 0.0000055230016, 10.001544, 9.997376 
2.195391e+3, 3.136962e+2, 381460.38, 5539.6914, 131714.5, -0.08268649, 0.78915066, 423016.5, 423016.5, 0.000029811183, 10.00338, 9.998344 
2.204903e+3, 1.4368483e+2, -1536155.0, -1518389.0, -67204.36, 0.27188206, 0.640228, -1459483.1, 72487.51, 0.39437363, 9.999864, 10.000203 
2.2049272e+3, 1.5368678e+2, -1683970.5, -1766389.4, -261545.39, -0.37276426, 1.0637472, -1460407.9, -26454.068, 0.24751917, 9.999094, 9.998041 
2.2049624e+3, 1.6368294e+2, -1655688.5, -1526655.0, -189739.89, 0.47409913, 0.7752993, -1390763.1, -54770.293, 0.13222682, 9.997843, 9.99964 
2.2049886e+3, 1.7368276e+2, -1470373.6, -1403612.3, -18483.516, 0.1518224, 0.7901716, -1398836.5, -160842.5, 0.059555795, 9.9985485, 9.999453 
2.2050144e+3, 1.836827e+2, -1260682.5, -1277568.6, 12375.376, -0.2138621, 0.8494676, -1254144.4, -114150.234, 0.023171267, 9.999409, 9.999239 
2.2050449e+3, 1.9368337e+2, -951872.56, -1071498.4, -80816.945, -0.08360114, 0.96871895, -911142.1, 130844.83, 0.008108057, 10.000873, 9.999259 
2.205075e+3, 2.0368244e+2, -858849.7, -1111280.6, -139786.3, 0.065296754, 1.0073643, -796728.9, 147266.7, 0.0021629941, 10.001396, 9.998073 
2.2051023e+3, 2.1367878e+2, -859032.06, -1059948.9, -83395.29, 0.0242552, 0.81730086, -828927.6, 17103.477, 0.00023583506, 10.000737, 9.99805 
2.2051299e+3, 2.2367647e+2, -745252.1, -844855.7, -23087.963, 0.012891738, 0.7432071, -740160.6, 7892.779, 0.0000019906881, 10.0003605, 9.999046 
2.2051589e+3, 2.3367673e+2, -600226.7, -687750.7, -76451.86, 0.065870725, 0.81540954, -555897.8, 94152.9, 0.0, 10.000558, 9.999338 
2.2051868e+3, 2.4367654e+2, -499896.2, -630791.75, -98272.41, 0.04313017, 0.8843769, -447272.47, 104780.02, 0.0, 10.00073, 9.998985 
2.2052132e+3, 2.5367582e+2, -362170.16, -485921.0, -116155.414, -0.15684432, 0.881436, -292437.63, 161622.17, 0.0, 10.000966, 9.999146 
2.2052412e+3, 2.6367515e+2, -280138.06, -410648.03, -56386.754, -0.21752128, 0.8999847, -259151.06, 96914.52, 0.0, 10.000851, 9.999089 
2.2052725e+3, 2.7367398e+2, -264381.06, -334725.97, -59565.215, -0.06587512, 0.84434575, -230378.98, 27695.627, 0.0, 10.0002365, 9.999216 
2.205302e+3, 2.8367186e+2, -162509.06, -434267.94, -103304.836, 0.0035093604, 0.7789246, -127698.41, 32396.55, 0.0, 10.001089, 9.997465 
2.2053291e+3, 2.9366812e+2, 399250.16, -145841.64, -107591.94, -0.076109715, 0.6575882, 419718.4, 481853.06, 0.00000007580395, 10.004435, 9.9971485 
2.2053605e+3, 3.036671e+2, 471907.9, -120520.05, 101042.44, -0.0016254776, 0.8516856, 488667.22, 488667.22, 0.0000083740215, 10.004681, 9.99691 
2.205394e+3, 3.1366545e+2, 76746.195, 89529.56, 90728.98, 0.045344144, 0.90896153, 174091.72, 174091.72, 0.000042885644, 10.000251, 10.00043 
2.214902e+3, 1.4364924e+2, -1503516.6, -1427130.9, 188305.25, 0.09651458, 0.5702707, -1273184.4, 259150.55, 0.4221777, 9.999903, 10.001404 
2.2149314e+3, 1.5365244e+2, -1639425.8, -1648283.4, -299415.2, 0.110089555, 1.0969926, -1344406.6, 89897.26, 0.27423543, 9.999078, 9.998981 
2.2149555e+3, 1.6365102e+2, -1449030.9, -1140098.8, -181697.9, -0.059874237, 0.86590517, -1056082.4, 280232.28, 0.15564767, 9.997926, 10.00254 
2.2149868e+3, 1.7365348e+2, -1282438.9, -1029462.56, 9427.4375, 0.09088801, 0.85708565, -1029111.75, 209167.72, 0.07778218, 9.998547, 10.002136 
2.2150181e+3, 1.8365358e+2, -1354536.6, -1489876.6, 55403.32, 0.16109043, 0.84951234, -1334749.4, -194475.5, 0.035576556, 9.999476, 9.997754 
2.2150464e+3, 1.9365045e+2, -1100773.1, -1363224.4, -21511.707, -0.05079372, 0.7863016, -1099021.6, -56710.86, 0.0154146915, 10.000795, 9.99729 
2.2150742e+3, 2.0364878e+2, -776859.75, -913373.3, -159134.81, -0.17322537, 0.7975587, -671960.9, 272368.16, 0.005714695, 10.001278, 9.999492 
2.2151023e+3, 2.1364921e+2, -744518.06, -789712.5, -100909.36, -0.06967244, 0.8301655, -663706.7, 182612.66, 0.0013616167, 10.0006, 9.999968 
2.2151306e+3, 2.2364873e+2, -841117.7, -980438.3, -30109.287, 0.018694159, 0.8636594, -834889.1, -86566.7, 0.00013056793, 10.00009, 9.998246 
2.21516e+3, 2.3364685e+2, -704981.56, -867951.9, -59869.535, 0.09375465, 0.83496886, -685351.94, -35007.13, 0.0000045921656, 10.000393, 9.998181 
2.215188e+3, 2.436455e+2, -573351.4, -699817.1, -101094.85, 0.06206111, 0.8693211, -517342.63, 35018.297, 0.000000030624218, 10.000388, 9.998669 
2.2152144e+3, 2.5364512e+2, -398318.25, -512539.6, -97256.55, -0.1354054, 0.9093786, -342643.88, 111721.99, 0.0, 10.000767, 9.999055 
2.215242e+3, 2.6364467e+2, -333998.44, -450141.16, -89302.74, -0.23334602, 0.959256, -285546.28, 70824.97, 0.0, 10.000558, 9.998951 
2.2152725e+3, 2.736441e+2, -298402.6, -365257.78, -75329.59, -0.10171463, 0.97113246, -249416.89, 8960.425, 0.0, 10.000075, 9.999075 
2.215303e+3, 2.8364316e+2, -204991.19, -424582.84, -6993.718, -0.0404781, 1.0187012, -204768.67, -44381.71, 0.0, 10.000692, 9.997707 
2.2153334e+3, 2.9363987e+2, 364034.3, -138375.6, 34211.473, -0.10302234, 0.9023116, 366353.22, 428772.6, 0.00000027397763, 10.004101, 9.99735 
2.2153638e+3, 3.036356e+2, 365740.63, -192097.3, -43967.75, -0.18741229, 0.781069, 369184.8, 369184.8, 0.000015050563, 10.004095, 9.996668 
2.215393e+3, 3.136338e+2, 122044.28, 366582.97, 2691.7278, -0.12816489, 0.81367594, 366612.6, 366612.6, 0.00007034586, 9.99952, 10.002662 
2.2249006e+3, 1.4362496e+2, -1287096.6, -1213913.6, 257488.58, -0.12115873, 1.6455894, -990429.56, 542146.6, 0.45833316, 10.00137, 10.003199 
2.2249316e+3, 1.5361978e+2, -1896615.5, -1587964.3, -118151.3, 0.38270497, 0.9470225, -1547929.0, -113303.93, 0.30885017, 9.996444, 10.0005245 
2.2249518e+3, 1.636209e+2, -1437154.6, -1166935.0, 35276.676, -0.20410359, 0.9090629, -1162405.6, 174204.81, 0.18666483, 9.998073, 10.002261 
2.2249863e+3, 1.7362362e+2, -1036044.5, -927976.56, -5000.0864, 0.09761448, 0.9418821, -927745.7, 310827.84, 0.103338934, 10.000459, 10.002032 
2.2250195e+3, 1.8362367e+2, -1162770.5, -1396170.3, -63341.85, 0.32559356, 0.9334855, -1146688.4, -6119.5728, 0.054786276, 10.00077, 9.997787 
2.2250469e+3, 1.9361946e+2, -1287154.3, -1448717.9, -6326.881, 0.00083021325, 0.758727, -1286906.9, -244291.7, 0.028543482, 9.999466, 9.997347 
2.225074e+3, 2.0361747e+2, -1104013.4, -1047520.94, -78755.13, -0.1872051, 0.7202576, -992099.9, -47463.234, 0.013685946, 9.998932, 9.999688 
2.2251023e+3, 2.1361916e+2, -878192.6, -836509.6, -169429.67, -0.06619961, 0.86072433, -686644.44, 159971.55, 0.005262215, 9.999619, 10.000122 
2.2251311e+3, 2.2361916e+2, -811536.6, -969154.3, -113572.38, 0.051278308, 0.9378008, -752108.3, -3493.9521, 0.001420654, 10.000278, 9.99824 
2.2251604e+3, 2.3361658e+2, -637214.4, -831991.94, -73721.76, 0.09665972, 0.84050584, -612457.9, 38184.47, 0.0002619265, 10.000833, 9.998223 
2.2251888e+3, 2.4361487e+2, -471775.72, -663120.56, -54432.52, 0.076014504, 0.84126264, -457374.94, 95286.74, 0.000035642544, 10.0011215, 9.998577 
2.2252159e+3, 2.536147e+2, -342577.53, -502257.13, -59097.176, -0.089719474, 0.9106364, -323085.22, 131580.58, 0.0000011567587, 10.001163, 9.998963 
2.2252434e+3, 2.636141e+2, -260271.13, -448329.72, -49640.125, -0.15850282, 0.9643765, -247972.39, 108701.766, 0.0, 10.001201, 9.998657 
2.2252734e+3, 2.7361324e+2, -76872.125, -287265.88, -80301.74, -0.06882809, 0.9864601, -49725.684, 208958.97, 0.0, 10.001748, 9.998804 
2.2253047e+3, 2.836131e+2, -11145.265, -275172.78, 44752.62, 0.025656627, 1.1061835, -3765.9475, 156921.14, 0.0, 10.001771, 9.998232 
2.2253372e+3, 2.9361117e+2, -19718.879, -248598.72, 81540.266, 0.020697163, 1.0798438, 6359.2085, 69063.766, 0.00000073017384, 10.001169, 9.997992 
2.2253674e+3, 3.0360547e+2, -58060.383, -382996.56, -37416.055, -0.07384879, 0.7520444, -53807.625, -53807.625, 0.00002755439, 10.001092, 9.996829 
2.225393e+3, 3.1360304e+2, 499699.66, 534544.8, -62669.78, -0.19546227, 0.7652376, 582168.75, 582168.75, 0.000118261974, 10.002121, 10.0026045 
2.2349273e+3, 1.5358923e+2, -1769244.5, -1320999.0, -142404.66, 0.25247642, 0.68804324, -1279584.4, 155328.66, 0.35698506, 9.996218, 10.0029745 
2.2349522e+3, 1.6359222e+2, -1691807.1, -1653813.3, 145854.23, -0.052169867, 0.8666112, -1525724.0, -188840.38, 0.23053116, 9.99805, 9.998663 
2.2349869e+3, 1.735929e+2, -1240539.6, -1336090.0, 72728.695, 0.09230741, 1.0168672, -1201297.9, 37581.465, 0.14104874, 10.000363, 9.99904 
2.2350188e+3, 1.8359275e+2, -1070859.1, -1187748.6, -106057.875, 0.12528457, 1.084948, -1008208.56, 132672.38, 0.08532412, 10.00076, 9.999241 
2.2350463e+3, 1.935903e+2, -1144956.4, -1145850.5, -48378.59, -0.027943421, 0.88084227, -1097022.8, -54121.113, 0.05187056, 9.999428, 9.999446 
2.235074e+3, 2.0358862e+2, -1195133.1, -1211434.0, -70419.27, -0.11761319, 0.80248517, -1132394.3, -187477.19, 0.030293982, 9.998828, 9.998612 
2.2351024e+3, 2.1358845e+2, -1004425.8, -1066299.0, -138107.86, -0.054108586, 0.9057387, -893832.0, -46910.227, 0.015773455, 9.999477, 9.99861 
2.2351308e+3, 2.235876e+2, -808459.94, -887982.25, -99437.18, -0.025082784, 0.95637596, -741129.06, 7801.423, 0.0069356123, 9.9999695, 9.998937 
2.2351602e+3, 2.335858e+2, -578737.5, -675973.06, -44628.76, -0.029141, 0.81992215, -561359.75, 89584.72, 0.002541045, 10.000679, 9.999362 
2.2351888e+3, 2.4358454e+2, -520783.75, -685374.4, -64537.13, -0.061970156, 0.803272, -498496.28, 54459.473, 0.00075579167, 10.000793, 9.998574 
2.2352168e+3, 2.5358447e+2, -378041.8, -524321.1, -52264.043, -0.12626268, 0.8819705, -361287.44, 93672.82, 0.00014769337, 10.000945, 9.998912 
2.2352448e+3, 2.6358345e+2, -371536.47, -579634.3, -54096.26, -0.16451827, 0.9338048, -358313.97, -1340.2484, 0.000007045108, 10.000796, 9.997936 
2.2352754e+3, 2.7358142e+2, -160691.7, -406359.8, -48406.6, -0.0785074, 0.8998995, -151497.72, 107499.484, 0.00000000065814787, 10.0015135, 9.998088 
2.235307e+3, 2.8358144e+2, -37226.45, -221923.66, 5883.317, 0.03008869, 1.0417107, -37039.23, 123959.625, 0.0, 10.001344, 9.998782 
2.2353399e+3, 2.9358196e+2, -26007.121, -175041.69, 68000.42, 0.13870706, 1.1808437, 356.1302, 63348.105, 0.0000012574419, 10.000825, 9.998644 
2.2353701e+3, 3.0357572e+2, -161144.16, -429291.06, -29673.36, 0.045896456, 0.7568771, -157899.73, -157899.73, 0.000044073433, 10.000424, 9.996803 
2.235395e+3, 3.1357536e+2, 151570.02, 46300.137, 131154.3, -0.25347996, 0.9943905, 240257.0, 240257.0, 0.00018419352, 10.001192, 9.999663 
2.244925e+3, 1.5356123e+2, -1904676.6, -1591574.5, -116858.81, 0.3593094, 0.7555153, -1552768.9, -117586.59, 0.42759266, 9.996469, 10.000351 
2.2449538e+3, 1.6356212e+2, -1455230.6, -1664580.4, 49746.598, 0.23560728, 0.8992734, -1444010.9, -106833.0, 0.29616648, 10.000203, 9.997556 
2.2449861e+3, 1.7356019e+2, -1364997.8, -1533546.8, 82914.336, 0.018889582, 0.9108152, -1331048.0, -91843.53, 0.19952731, 10.000071, 9.99781 
2.2450168e+3, 1.8355931e+2, -1132214.8, -1149097.4, -82046.36, -0.09492507, 0.94405746, -1058176.6, 83039.28, 0.13536815, 10.000004, 9.99989 
2.2450459e+3, 1.9355994e+2, -925736.8, -942230.25, -125020.66, -0.06263069, 0.959436, -808691.2, 234513.52, 0.09319166, 10.000569, 10.000386 
2.2450747e+3, 2.0355977e+2, -912041.6, -1119024.1, -138506.23, -0.016850123, 0.9909819, -842632.8, 102571.97, 0.06306426, 10.000934, 9.998283 
2.2451033e+3, 2.1355776e+2, -828031.9, -1045022.5, -151220.56, 0.03619555, 0.9729944, -750411.94, 96816.164, 0.0400799, 10.000941, 9.998087 
2.2451316e+3, 2.23556e+2, -659905.3, -769116.25, -69454.734, 0.040120874, 0.94640154, -626160.8, 123084.914, 0.023131557, 10.000785, 9.999381 
2.2451603e+3, 2.3355502e+2, -626309.44, -631902.94, -84328.16, -0.032555085, 0.83227205, -544731.6, 106518.21, 0.011994159, 10.000062, 9.999973 
2.245189e+3, 2.435543e+2, -630599.56, -749684.56, -93207.24, -0.060410034, 0.8435209, -579539.6, -26284.717, 0.0054928027, 10.000063, 9.998491 
2.2452183e+3, 2.535544e+2, -326375.84, -507127.75, -99970.164, -0.081868686, 0.9549149, -281985.9, 173271.88, 0.002050329, 10.001342, 9.998839 
2.2452466e+3, 2.6355317e+2, -242433.72, -522650.66, -96485.54, -0.095699586, 0.99742156, -212425.05, 144847.75, 0.0004876709, 10.00169, 9.997909 
2.2452766e+3, 2.7355024e+2, -189901.1, -407767.9, -47109.277, -0.07712032, 0.868463, -180151.02, 79152.086, 0.000047167257, 10.001261, 9.998202 
2.2453076e+3, 2.8354988e+2, -113859.63, -216714.95, 34724.75, 0.025795737, 0.94634247, -103233.99, 58073.234, 0.00000034188096, 10.000614, 9.999181 
2.2453408e+3, 2.9355133e+2, 81643.195, -85943.01, 46799.402, 0.1496943, 1.1590934, 93826.484, 157119.16, 0.0000013302117, 10.001351, 9.999036 
2.2453721e+3, 3.0354708e+2, 172208.78, -187203.4, 22848.082, 0.13069327, 0.85384816, 173655.42, 173655.42, 0.0000584347, 10.002299, 9.99758 
2.245398e+3, 3.1354746e+2, 248623.75, 26107.982, 65417.242, -0.10932736, 1.1413381, 266430.72, 266430.72, 0.00025945, 10.002056, 9.999115 
2.2549565e+3, 1.6353106e+2, -1496159.8, -1616823.4, 34845.664, 0.41739652, 1.0820409, -1486819.9, -149331.03, 0.39765337, 9.999619, 9.998153 
2.2549841e+3, 1.7352529e+2, -1334487.5, -1457058.4, 57016.93, -0.23432463, 0.6216577, -1312066.1, -72515.336, 0.29298013, 9.999994, 9.99837 
2.2550137e+3, 1.8352304e+2, -1189432.4, -1220088.8, -102180.43, -0.47322112, 0.503923, -1101436.8, 40139.363, 0.21888196, 9.999807, 9.9994755 
2.2550452e+3, 1.935279e+2, -984993.3, -1003412.94, -104063.08, -0.21174543, 0.96523595, -889733.3, 153795.88, 0.16615056, 10.000336, 10.000079 
2.2550757e+3, 2.035304e+2, -930641.7, -1090541.8, -136201.52, -0.04998789, 1.2516104, -852658.7, 92845.836, 0.12546477, 10.000682, 9.998596 
2.2551048e+3, 2.1352695e+2, -824828.44, -997731.5, -140339.25, 0.07628666, 1.0389165, -746449.9, 101086.93, 0.0914258, 10.000805, 9.99847 
2.2551332e+3, 2.2352438e+2, -709600.2, -801948.8, -93434.47, 0.09598467, 0.9117719, -651553.25, 98006.4, 0.062582165, 10.000497, 9.999305 
2.2551611e+3, 2.3352419e+2, -656068.5, -651274.1, -101053.664, 0.009019474, 0.8750523, -552589.25, 98969.414, 0.039919913, 9.999867, 9.99995 
2.2551893e+3, 2.4352407e+2, -742758.75, -842049.3, -72604.25, -0.074439965, 0.9717358, -704449.3, -150890.53, 0.023601582, 9.999478, 9.998129 
2.2552197e+3, 2.5352448e+2, -375265.38, -543100.4, -43978.27, -0.07509176, 1.1202099, -364439.9, 91118.14, 0.012405956, 10.0010805, 9.998707 
2.2552486e+3, 2.63523e+2, -275744.06, -493423.72, -131400.53, -0.105140395, 1.1396657, -213960.9, 143612.14, 0.005154125, 10.001295, 9.998293 
2.2552769e+3, 2.735195e+2, -186348.98, -315617.25, -61266.574, -0.18915495, 0.8713525, -161926.03, 97677.734, 0.0013586987, 10.000914, 9.998994 
2.2553064e+3, 2.8351822e+2, -219039.17, -274911.25, 13090.868, -0.18435429, 0.8122172, -216124.06, -54509.355, 0.00015517221, 9.999972, 9.999068 
2.2553404e+3, 2.9351947e+2, 14191.015, -105525.82, 96481.66, -0.048032716, 1.0258484, 67874.4, 131478.72, 0.0000026982873, 10.000911, 9.999073 
2.255373e+3, 3.0351955e+2, 161695.72, -62572.234, 17782.148, -0.062374476, 1.0744622, 163096.9, 163096.9, 0.000065484004, 10.001721, 9.998693 
2.255399e+3, 3.135165e+2, 240963.63, 155063.19, 20455.934, -0.26832485, 0.9309736, 245586.16, 245586.16, 0.00034262822, 10.001509, 10.000247 
2.2649856e+3, 1.7350274e+2, -1376809.9, -1123175.0, -122167.22, 0.07174464, 1.8205625, -1073903.0, 165884.05, 0.44342524, 9.997283, 10.002927 
2.2650227e+3, 1.8349925e+2, -1536337.4, -1344991.9, 76451.38, 0.5856751, 1.1098617, -1318197.9, -176382.47, 0.3585124, 9.997053, 9.999946 
2.265049e+3, 1.935004e+2, -1198015.8, -1089292.8, 54036.07, 0.2189041, 1.2288117, -1067005.3, -23202.25, 0.29413474, 9.998716, 10.00013 
2.2650762e+3, 2.0349997e+2, -923482.25, -1072410.5, 38507.53, -0.05706195, 1.2035283, -914114.75, 31690.72, 0.24160613, 10.000583, 9.998778 
2.2651045e+3, 2.1349657e+2, -757940.25, -980451.3, -33987.38, -0.038474828, 1.0119905, -752864.6, 94971.6, 0.1940874, 10.001406, 9.998315 
2.2651333e+3, 2.2349429e+2, -586329.75, -790504.25, -49056.23, -0.0030050585, 0.9423467, -575154.8, 174701.63, 0.14888066, 10.001706, 9.99882 
2.2651611e+3, 2.3349471e+2, -652435.75, -708058.5, -135495.78, 0.017707124, 1.0374601, -541926.56, 109924.81, 0.108788945, 10.000183, 9.999438 
2.2651894e+3, 2.4349424e+2, -651408.75, -744885.06, 5464.9277, 0.015061089, 1.1091392, -651090.4, -97234.7, 0.07581198, 9.999776, 9.998691 
2.2652215e+3, 2.534933e+2, -280827.66, -444606.44, 81392.12, -0.023631508, 1.0657783, -247259.05, 208606.63, 0.048806984, 10.001453, 9.999281 
2.2652502e+3, 2.6349142e+2, -172799.48, -511953.72, -59883.418, -0.09109429, 1.0477321, -162536.61, 195346.73, 0.026684597, 10.002241, 9.997744 
2.2652782e+3, 2.7348852e+2, -13982.409, -287890.1, -109225.625, -0.19805664, 0.8885508, 24239.637, 284147.47, 0.010897145, 10.0022545, 9.998588 
2.2653064e+3, 2.8348723e+2, -134291.84, -193553.03, -71886.55, -0.1782734, 0.83813864, -86168.67, 75749.72, 0.002788968, 10.000344, 9.999468 
2.2653404e+3, 2.934883e+2, -46734.31, -78659.64, 93320.17, -0.10550478, 0.9939198, 31978.582, 95888.12, 0.0003034348, 10.000265, 9.999571 
2.2653738e+3, 3.034887e+2, 86653.8, -189652.86, 57669.957, -0.1382623, 1.0436008, 98207.4, 98207.4, 0.000074942734, 10.001652, 9.997857 
2.2654046e+3, 3.1348288e+2, 765878.8, 237031.77, -177762.73, -0.09389563, 0.8832849, 820076.3, 820076.3, 0.00045627946, 10.005738, 9.998867 
2.2750755e+3, 2.0347053e+2, -923756.06, -1208876.4, 63336.063, -0.25912803, 1.0883639, -910319.94, 35767.92, 0.4526298, 10.001356, 9.997429 
2.2751035e+3, 2.1346721e+2, -717473.94, -1017074.4, 20917.65, -0.31348467, 0.96924025, -716020.5, 132100.34, 0.38963944, 10.002498, 9.997479 
2.2751348e+3, 2.2346507e+2, -805032.2, -1070919.5, -63087.01, -0.06445133, 0.9904698, -790822.94, -40680.33, 0.32267725, 10.000731, 9.997313 
2.2751614e+3, 2.3346491e+2, -924904.2, -962205.56, -151126.73, 0.023707604, 1.127052, -791281.6, -139136.64, 0.25840095, 9.998818, 9.998261 
2.2751899e+3, 2.4346341e+2, -745801.6, -740552.5, 49677.566, -0.002427597, 1.1405963, -693430.2, -139270.77, 0.20062341, 9.998944, 9.999089 
2.2752231e+3, 2.5346074e+2, -316707.22, -340645.78, 133311.05, -0.02324349, 0.7548252, -194829.19, 261354.19, 0.14660953, 10.000776, 10.000407 
2.2752519e+3, 2.6345882e+2, -545175.8, -939907.7, -90993.15, -0.20891978, 0.7733918, -525210.06, -167009.94, 0.09444842, 10.000751, 9.995485 
2.2752808e+3, 2.734579e+2, -208282.23, -543272.5, -118478.92, -0.20362787, 0.961194, -170614.33, 89594.57, 0.04983968, 10.001668, 9.997076 
2.2753073e+3, 2.8345722e+2, -244956.33, -196290.05, -184343.02, -0.14445549, 1.0343429, -34681.137, 127533.83, 0.019500945, 9.999421, 9.999873 
2.2753394e+3, 2.9345796e+2, -70649.67, -4266.1963, 84516.4, -0.22632366, 1.0413843, 53342.47, 117549.195, 0.004786881, 9.99979, 10.000278 
2.2753727e+3, 3.0345502e+2, -264007.53, -676300.9, 108829.516, -0.43319172, 0.80512786, -237044.11, -237044.11, 0.0007184054, 10.000704, 9.99493 
2.2754116e+3, 3.134491e+2, 222540.58, -499196.9, 183662.36, 0.0067344303, 1.0461357, 266589.25, 266589.25, 0.0007782504, 10.004236, 9.994442 
2.2851917e+3, 2.434281e+2, -498680.94, -1004287.6, 7002.7017, 0.014021362, 0.74106133, -498583.97, 55924.188, 0.45869297, 10.001964, 9.996305 
2.285227e+3, 2.5343657e+2, -568016.4, -633700.8, -326157.22, 0.340767, 1.862377, -273052.03, 183383.02, 0.36361384, 9.999928, 9.9991045 
2.2852512e+3, 2.634272e+2, -668600.8, -605783.06, -361995.78, -0.25528586, 1.0317705, -273836.1, 84691.76, 0.26167566, 9.998053, 9.99926 
2.2852844e+3, 2.7342632e+2, -39805.188, -189003.17, -20400.36, 0.01853679, 0.9359644, -37066.063, 223456.8, 0.1640845, 10.001793, 9.999648 
2.28531e+3, 2.8342515e+2, -113252.66, -448422.2, -139487.63, 0.08443653, 0.98276883, -62797.4, 99729.75, 0.0825175, 10.001638, 9.997124 
2.285343e+3, 2.9342434e+2, 439410.5, -68313.25, -3114.2847, -0.086351976, 1.12771, 439429.6, 503969.03, 0.030766618, 10.00461, 9.9976 
2.2853793e+3, 3.034202e+2, 420976.8, -126661.07, -106504.37, -0.016721869, 0.8518367, 440960.5, 440960.5, 0.009050315, 10.004336, 9.997008 
2.2854109e+3, 3.1341887e+2, -399606.75, -172765.61, 262835.28, -0.12543894, 1.2617974, 77.00043, 77.00043, 0.0039658006, 9.997206, 10.000059 
2.2952825e+3, 2.7339968e+2, 331051.97, 415159.06, 87200.53, -0.39551812, 1.386945, 469916.84, 730708.25, 0.434636, 10.004071, 10.006058 
2.2953132e+3, 2.833922e+2, -1475149.4, -1983242.1, -411798.1, 0.12976067, 0.7136625, -1245339.1, -1082495.4, 0.25417694, 9.996108, 9.9891815 
2.2953501e+3, 2.9339108e+2, -141821.88, -966459.3, 154802.38, 0.11875808, 1.3478345, -113719.77, -48847.594, 0.1217621, 10.003291, 9.991944 
2.2953926e+3, 3.0338725e+2, -169972.34, -26473.068, -333662.97, 0.74989814, 1.2740296, 243067.47, 243067.47, 0.053974643, 9.998774, 10.000318 
2.2954056e+3, 3.133896e+2, 266300.72, 1521718.4, -95025.65, -0.52326643, 1.1546121, 1528870.3, 1528870.3, 0.031374965, 9.996014, 10.0124655 
2.305346e+3, 2.9334423e+2, -979824.0, 814979.5, -273166.22, -0.19102308, 0.6254196, 855634.06, 920968.5, 0.36098278, 9.985456, 10.016868 
2.3053928e+3, 3.0336455e+2, 775628.1, 280748.13, 144431.52, -0.12891178, 1.3690351, 814696.44, 814696.44, 0.21442018, 10.007092, 9.998987 
2.305417e+3, 3.1334436e+2, -196143.38, -1558591.6, -157516.47, 0.46071142, 0.815993, -178169.56, -178169.56, 0.16627684, 10.004358, 9.987671 
2.351244e+3, 2.7475977e+2, -1280083.0, -1343252.0, 645001.25, -0.29693744, -0.92685485, -665893.4, -418545.4, 0.45016068, 9.994662, 9.994203 
2.3508267e+3, 2.847639e+2, 245385.14, -56351.8, -465012.34, -0.030750563, 0.57043296, 583390.6, 732712.3, 0.35383347, 10.00379, 9.9992285 
2.350417e+3, 2.9475436e+2, 1581106.3, 1336532.9, 116815.875, -0.22226182, -0.58157283, 1627934.9, 1679342.0, 0.2774826, 10.011963, 10.007031 
2.3500381e+3, 3.0475953e+2, -1109799.6, -232636.61, 291049.53, -0.32434654, 0.7234271, -144849.84, -144849.84, 0.22339538, 9.992356, 10.002401 
2.3652932e+3, 1.7527021e+2, -2147804.5, -1675233.9, 279052.03, 0.3843547, 0.17984311, -1545868.0, -323546.7, 0.43641, 9.992982, 9.999537 
2.3648848e+3, 1.8524973e+2, -1188225.4, -1607658.5, 259287.11, -0.8759065, -0.7501456, -1064459.0, 60064.535, 0.37759894, 10.001352, 9.995203 
2.3644948e+3, 1.9524202e+2, -1122200.9, -1578410.6, 417085.7, 0.25332922, -0.37723076, -874919.3, 151682.02, 0.33353588, 10.001405, 9.99487 
2.3640843e+3, 2.0523128e+2, -565483.1, -917947.75, -127395.86, -0.32744792, -0.22766994, -524258.5, 404447.2, 0.30097756, 10.004021, 9.997417 
2.3636685e+3, 2.1521688e+2, -1878004.9, -1518765.0, 25695.668, -0.595157, -0.6879023, -1516936.4, -686093.2, 0.27814174, 9.992873, 9.998028 
2.3632725e+3, 2.2521324e+2, -1470254.1, -946512.3, 54764.926, 0.5418355, -0.21711953, -940847.1, -207971.75, 0.261044, 9.993672, 10.000852 
2.3628595e+3, 2.3519976e+2, -1877269.0, -1039970.5, 50491.01, -0.54776865, -0.9569871, -1036936.75, -401931.88, 0.24562602, 9.989948, 10.001379 
2.3624617e+3, 2.451944e+2, -1267299.5, -1256891.5, 307817.03, 0.26957932, -0.55986655, -954234.5, -417165.5, 0.23008443, 9.995882, 9.996338 
2.3620598e+3, 2.551904e+2, -929323.56, -807588.56, 386653.16, 0.5144841, 0.20137246, -477041.3, -37908.875, 0.20982926, 9.99646, 9.998509 
2.3616406e+3, 2.65187e+2, 400877.2, 639462.7, -271492.88, -0.13147876, 0.2840538, 816715.3, 1157886.6, 0.17457218, 10.002053, 10.006621 
2.3612304e+3, 2.7517956e+2, -628948.4, -690042.75, -98347.78, -0.46216798, -0.010220162, -556512.94, -313279.56, 0.12478925, 9.997967, 9.997205 
2.3608193e+3, 2.85167e+2, 2596.2844, -976681.8, -336885.3, -0.41562465, 0.119957425, 107295.625, 252652.92, 0.08185941, 10.004386, 9.991568 
2.3604187e+3, 2.9515672e+2, 177627.97, -368346.63, 218384.2, -0.3666552, 0.15484628, 254231.47, 301700.8, 0.055276744, 10.003364, 9.995873 
2.3600233e+3, 3.0514362e+2, -457246.0, 62325.883, -469963.13, -0.18896562, -0.076556414, 339526.06, 339526.06, 0.039641973, 9.996105, 10.002512 
2.3760869e+3, 1.556694e+2, -1977215.9, -1133484.0, -204172.55, -0.7458228, -0.5070158, -1086673.9, 327747.47, 0.40916276, 9.992148, 10.006498 
2.3756897e+3, 1.6566767e+2, -35423.11, -537683.2, -5456.392, 0.63652325, -0.3105806, -35363.84, 1281075.6, 0.31914037, 10.011392, 10.001648 
2.3752902e+3, 1.7566511e+2, -833296.2, -923433.94, -36185.184, 0.5664904, -0.0078029293, -820567.4, 397883.3, 0.25440004, 10.002266, 10.001001 
2.3748878e+3, 1.8565601e+2, -1270056.8, -1103476.6, -28923.623, 0.3655827, -0.17693396, -1098597.5, 21938.104, 0.20803122, 9.998072, 10.000381 
2.3744868e+3, 1.9564688e+2, -1340855.6, -1185321.6, 130351.23, 0.42134628, -0.34560978, -1111302.1, -88674.62, 0.17323056, 9.9971695, 9.999643 
2.3740794e+3, 2.0563777e+2, -1021820.7, -1166020.9, -19608.98, 0.057913948, -0.306006, -1019201.75, -94481.46, 0.14628343, 9.999501, 9.997943 
2.3736657e+3, 2.15629e+2, -152303.13, -634717.75, -39772.492, -0.47863805, -0.20275936, -149046.1, 677764.06, 0.1255341, 10.005258, 9.998355 
2.3732573e+3, 2.2562042e+2, 54847.15, -409207.97, 36491.94, -0.64788264, -0.117629305, 57699.242, 786596.94, 0.10829949, 10.005679, 9.9990835 
2.3728487e+3, 2.356102e+2, -346589.94, -505423.66, -112484.8, -0.9097342, -0.22525778, -288311.97, 342688.94, 0.09199208, 10.001558, 9.999564 
2.3724397e+3, 2.4560499e+2, -310873.03, -210095.27, -121969.31, -0.99129075, -0.050960142, -128516.14, 404540.56, 0.07586676, 9.999983, 10.001791 
2.3720396e+3, 2.556018e+2, -459543.3, -532539.0, 51010.367, -0.5719422, 0.41247368, -433318.34, 1777.7087, 0.059159193, 9.999626, 9.998841 
2.371633e+3, 2.6559275e+2, 70360.734, -190330.89, -286420.6, -0.24061474, 0.39126718, 254700.14, 591888.44, 0.04041217, 10.002491, 9.999223 
2.3712276e+3, 2.7557826e+2, 88437.09, -531385.94, -106225.43, -0.18067355, -0.07286531, 106136.61, 345465.53, 0.02171852, 10.003921, 9.995338 
2.3708169e+3, 2.8556588e+2, 79077.48, -595428.0, -259455.16, -0.31637734, 0.013916001, 167331.95, 308782.56, 0.009489364, 10.003678, 9.994288 
2.3704113e+3, 2.955572e+2, -365308.66, -387787.97, 325041.9, -0.39110813, 0.17605518, -51312.13, -7772.799, 0.0043437467, 9.998652, 9.9977665 
2.3700146e+3, 3.055426e+2, 334718.2, 284236.7, -17701.23, -0.25360072, -0.20317063, 340306.47, 340306.47, 0.0025757416, 10.00201, 10.000767 
2.3864903e+3, 1.4609271e+2, -1520728.8, -2115890.8, -1316.625, 0.25498912, -0.33647117, -1520725.9, -12463.92, 0.38968232, 10.002063, 9.994107 
2.3860833e+3, 1.5608372e+2, -1865654.8, -2300817.0, -3871.1973, -0.007275199, 0.07822278, -1865620.3, -455255.94, 0.27836236, 9.999166, 9.993713 
2.3856792e+3, 1.6607136e+2, -1333737.8, -1155919.3, 159555.89, -0.1300769, -0.12680463, -1062173.3, 250311.33, 0.19862524, 9.998632, 10.001346 
2.3852769e+3, 1.76061e+2, -1070328.0, -1045391.7, 41869.582, -0.16482688, -0.5423224, -1014173.25, 200399.9, 0.1461588, 10.000118, 10.000676 
2.3848715e+3, 1.8605514e+2, -958803.0, -887691.94, 12177.652, -0.39353296, -0.4110875, -885664.4, 230963.4, 0.11113541, 10.000028, 10.001077 
2.3844661e+3, 1.9605014e+2, -1093664.6, -959866.1, -63310.45, -0.67727077, -0.2691164, -934658.25, 84022.305, 0.08556882, 9.998437, 10.000617 
2.3840672e+3, 2.0604222e+2, -1131709.5, -1076766.1, -65654.24, -0.28982246, -0.2686025, -1033067.75, -112304.6, 0.065839775, 9.998224, 9.999143 
2.3836692e+3, 2.1603216e+2, -960272.4, -1009654.3, -57325.258, 0.3476657, -0.4125638, -922546.8, -99678.875, 0.050802168, 9.99897, 9.99861 
2.3832634e+3, 2.2602528e+2, -770310.5, -840222.8, -105452.32, 0.40391502, -0.19450982, -694171.5, 30769.824, 0.038884565, 9.999587, 9.998747 
2.3828542e+3, 2.360193e+2, -811253.56, -937426.1, -136412.64, 0.3158176, 0.18904978, -724045.8, -97039.78, 0.028499383, 9.999148, 9.997668 
2.3824422e+3, 2.4601112e+2, -312192.72, -114298.83, -75514.95, 0.016911255, 0.122641884, -88774.87, 440309.75, 0.019239577, 9.999644, 10.002428 
2.3820332e+3, 2.5600055e+2, -661933.5, -603154.3, 5097.376, -0.38800764, -0.25139123, -602715.56, -171534.06, 0.011432521, 9.998255, 9.99899 
2.3816273e+3, 2.6599076e+2, -369613.3, -714211.2, -181673.38, -0.23837927, -0.20772797, -291528.28, 41751.44, 0.005416997, 10.00088, 9.996265 
2.3812258e+3, 2.7597895e+2, -278794.16, -794937.3, -12305.034, 0.08154128, -0.22192137, -278500.97, -43097.195, 0.001679893, 10.001729, 9.994596 
2.3808128e+3, 2.8596723e+2, 360497.72, 11576.273, -237620.31, -0.31115258, -0.23709747, 480825.0, 618343.44, 0.00032890253, 10.003566, 9.998531 
2.3804021e+3, 2.9596302e+2, -71081.22, -141284.69, 152558.88, -0.5515145, 0.058885727, 50362.06, 89916.164, 0.000101582686, 10.00014, 9.99882 
2.3800088e+3, 3.0594984e+2, -205305.72, -179830.45, 358119.7, -0.4003307, -0.1504238, 165778.05, 165778.05, 0.00014345827, 9.999166, 9.998962 
2.3968865e+3, 1.3650696e+2, -1344065.5, -1844287.4, 158147.83, -0.021843024, 0.07818403, -1298260.5, 303954.6, 0.42782584, 10.004699, 9.99542 
2.3964843e+3, 1.4649746e+2, -1293658.3, -1445652.6, -210675.7, 0.19698003, 0.097490996, -1145691.5, 358618.22, 0.2998544, 10.001791, 9.99929 
2.3960735e+3, 1.564828e+2, -1520946.6, -1646300.1, -74738.75, -0.15880808, -0.47988445, -1486082.4, -79634.734, 0.19614406, 9.999364, 9.99816 
2.3956704e+3, 1.6647352e+2, -1359874.0, -1353242.1, 168073.9, -0.13957717, -0.50137854, -1188451.5, 120085.4, 0.12585048, 9.999215, 9.999537 
2.3952717e+3, 1.7646693e+2, -1139856.3, -1259682.3, 72478.18, 0.05799806, -0.3308647, -1105733.9, 104867.37, 0.083471425, 10.000327, 9.998952 
2.394868e+3, 1.864599e+2, -969358.06, -1034390.5, -56257.953, -0.00875036, -0.17359953, -936895.3, 175779.98, 0.057587944, 10.000533, 9.999677 
2.394462e+3, 1.9645259e+2, -1028360.56, -1041781.2, -105346.836, -0.2467962, -0.099783376, -929510.56, 85244.92, 0.03970386, 9.999398, 9.999546 
2.3940586e+3, 2.0644629e+2, -902560.06, -750925.25, -93331.516, -0.23495674, 0.0011768452, -706496.9, 210323.72, 0.026570952, 9.998873, 10.001088 
2.3936562e+3, 2.1644008e+2, -828443.9, -721366.75, -39064.39, -0.07416443, 0.074272364, -708630.06, 110252.42, 0.017417854, 9.998913, 10.000617 
2.3932509e+3, 2.2643335e+2, -645123.7, -610364.44, -89781.31, 0.031198708, 0.1362968, -536296.06, 184653.03, 0.011141793, 9.999687, 10.000297 
2.3928444e+3, 2.3642503e+2, -436717.63, -601312.7, -41941.55, 0.082850136, 0.15444611, -426646.47, 196384.7, 0.0065593217, 10.001056, 9.999027 
2.392434e+3, 2.4641462e+2, -183189.44, -234166.72, -79783.21, -0.074280046, -0.09307429, -124922.3, 400206.16, 0.0032030866, 10.001328, 10.000719 
2.3920254e+3, 2.5640294e+2, -508950.53, -610525.1, 2601.8748, -0.32923028, -0.43045172, -508883.94, -81649.37, 0.0011282732, 9.999675, 9.998209 
2.3916201e+3, 2.6639423e+2, -428147.9, -647918.0, -30918.809, -0.1901297, -0.25991374, -423880.88, -94559.76, 0.00023273825, 10.000121, 9.99705 
2.3912185e+3, 2.7638555e+2, -278826.84, -479571.94, 129606.51, 0.029522527, -0.062165957, -215271.08, 16141.137, 0.000018051116, 10.000378, 9.997359 
2.3908068e+3, 2.863739e+2, 244178.22, 59053.79, -46518.203, -0.3747931, -0.25161165, 255209.95, 388734.06, 0.000004039042, 10.002308, 9.9994335 
2.3903976e+3, 2.9636797e+2, 482596.63, 46314.64, 153738.25, -0.5165833, -0.08073372, 531328.1, 566902.5, 0.00001362104, 10.004167, 9.998183 
2.3900037e+3, 3.0635336e+2, -238399.64, -295107.2, -24211.328, -0.0046581374, -0.21117425, -229469.03, -229469.03, 0.00005414364, 9.999261, 9.998198 
2.407284e+3, 1.2691113e+2, -1841736.8, -1990450.4, 99923.234, 0.0774753, -0.68748456, -1791540.0, -95292.57, 0.49043512, 9.999722, 9.997254 
2.4068813e+3, 1.3690928e+2, -1906731.5, -2068576.1, 78799.2, 0.06410572, 0.10301833, -1874703.8, -276422.9, 0.36336103, 9.99876, 9.996768 
2.4064758e+3, 1.4689939e+2, -1478490.4, -1480658.1, -71519.6, 0.07940527, 0.038635347, -1408046.5, 92333.016, 0.24041095, 9.999837, 9.999623 
2.4060667e+3, 1.568859e+2, -1265715.0, -1419136.8, -158581.25, -0.06537423, -0.48612702, -1166265.3, 236240.48, 0.14389461, 10.001004, 9.998902 
2.4056639e+3, 1.6687834e+2, -1166774.6, -1257982.5, 65905.98, -0.030279875, -0.38042933, -1132233.0, 172345.27, 0.08188297, 10.000689, 9.999417 
2.4052647e+3, 1.7687272e+2, -1308620.4, -1364011.0, 60234.777, 0.16421679, -0.0837046, -1270018.9, -63384.133, 0.047678713, 9.999213, 9.998784 
2.4048613e+3, 1.8686503e+2, -1119102.4, -1074046.1, 57380.008, 0.13440146, -0.007265329, -1034930.25, 73783.68, 0.028905774, 9.99934, 9.999955 
2.4044558e+3, 1.9685693e+2, -1023003.4, -1047470.25, 90807.8, -0.011168067, -0.0025118568, -943608.7, 67190.3, 0.017015342, 9.999521, 9.999443 
2.4040501e+3, 2.0685083e+2, -756590.5, -600768.7, 84684.52, -0.20670715, 0.10456135, -563607.56, 349252.94, 0.00915297, 9.999618, 10.001732 
2.4036448e+3, 2.1684553e+2, -780632.6, -657649.7, -2350.0964, -0.2963385, 0.22191176, -657604.75, 157306.95, 0.0045936005, 9.999151, 10.000931 
2.4032398e+3, 2.268387e+2, -753478.56, -558741.4, -89048.336, -0.20093094, 0.20066574, -524162.06, 192814.88, 0.0022051786, 9.998544, 10.001183 
2.4028343e+3, 2.3682936e+2, -975357.56, -807291.56, -84601.27, -0.07776039, 0.010423252, -772081.44, -153015.11, 0.0009056362, 9.9971695, 9.99949 
2.4024256e+3, 2.468192e+2, -571011.94, -525596.75, -127747.8, -0.15154155, -0.19629045, -418554.1, 102606.766, 0.00023937336, 9.999229, 9.999662 
2.4020179e+3, 2.5680804e+2, -499137.63, -723371.25, -60057.37, -0.259028, -0.41341603, -484065.34, -60802.04, 0.000025130046, 10.000278, 9.997162 
2.4016126e+3, 2.6679984e+2, -145103.66, -391361.22, -21906.867, -0.19981246, -0.1956233, -143170.03, 182173.13, 0.00000030344088, 10.001621, 9.998066 
2.4012095e+3, 2.7679345e+2, -209343.78, -269276.78, 40612.39, -0.12233956, 0.056457072, -188838.92, 38569.754, 0.000000006555133, 10.000109, 9.998965 
2.400801e+3, 2.8678253e+2, 27736.475, 3212.2568, -44250.11, -0.34407806, -0.1970272, 61392.027, 190903.22, 0.00000087941476, 10.000685, 9.999808 
2.4003941e+3, 2.96773e+2, -465199.22, -663216.25, 82523.34, -0.4629048, -0.30760685, -435317.13, -403720.44, 0.0000072209577, 9.99883, 9.995866 
2.3999983e+3, 3.0675963e+2, -478452.94, -491390.47, -82270.19, 0.28432322, -0.21925077, -402397.6, -402397.6, 0.00003484927, 9.998118, 9.997286 
2.417276e+3, 1.2732114e+2, -1743609.9, -1541646.0, -27363.615, 0.11203969, 0.16557558, -1538004.3, 154241.94, 0.44509998, 9.99805, 10.002124 
2.4168694e+3, 1.3731268e+2, -1739408.5, -1681495.4, 93652.94, -0.28280184, -0.12048173, -1612424.6, -18094.186, 0.31930807, 9.998606, 9.999532 
2.4164656e+3, 1.4730361e+2, -1643923.1, -1887365.6, -49459.98, -0.1633096, -0.022824971, -1634258.0, -137833.06, 0.20041417, 10.000024, 9.996659 
2.4160613e+3, 1.5729304e+2, -1353054.5, -1675500.9, -103859.3, 0.03715383, 0.02951775, -1322497.4, 76037.56, 0.110025235, 10.001225, 9.996951 
2.4156578e+3, 1.6728485e+2, -1035513.1, -1054739.5, 16249.787, 0.05910648, 0.06297162, -1026245.94, 274367.5, 0.054970514, 10.000985, 10.00072 
2.4152549e+3, 1.7727755e+2, -1164503.5, -1120416.1, 34186.79, 0.0023241588, 0.06215841, -1101782.4, 100897.836, 0.027314784, 9.999448, 10.000353 
2.4148509e+3, 1.8727031e+2, -953865.6, -796459.5, 75810.67, -0.06619042, 0.005803302, -765885.75, 338858.66, 0.013986388, 9.999605, 10.001764 
2.4144463e+3, 1.9726278e+2, -862122.44, -828136.3, 138186.5, -0.19607817, -0.096832275, -705901.94, 300909.6, 0.006556314, 9.999985, 10.000734 
2.4140418e+3, 2.072544e+2, -770638.5, -777682.8, 88863.92, -0.22449324, -0.17389312, -685226.94, 223665.02, 0.002469395, 10.000241, 10.00022 
2.4136376e+3, 2.1724574e+2, -691277.4, -734467.9, 7331.9014, -0.23912477, -0.22678904, -690066.7, 120910.445, 0.00078321603, 10.000227, 9.999897 
2.413231e+3, 2.2723927e+2, -694261.5, -515979.97, -152133.1, -0.13296267, -0.17564417, -428795.6, 284244.94, 0.00023610769, 9.998849, 10.001336 
2.412824e+3, 2.3723271e+2, -980762.75, -769869.7, -86193.83, -0.027485078, -0.11022883, -739123.9, -124019.055, 0.000047296035, 9.996916, 9.999868 
2.4124172e+3, 2.4722433e+2, -691175.2, -646576.25, -12761.178, -0.07711619, -0.10207256, -643183.0, -125995.914, 0.0000020598873, 9.998653, 9.999126 
2.4120119e+3, 2.5721475e+2, -303465.1, -556210.7, 31470.326, -0.19993894, -0.1310428, -299605.53, 119675.37, 0.0, 10.001275, 9.997815 
2.4116069e+3, 2.6720524e+2, -66084.055, -319070.78, -14999.539, -0.18831447, -0.07922131, -65197.84, 256175.0, 0.0, 10.002039, 9.998353 
2.4112022e+3, 2.771965e+2, -4570.3276, -137819.84, -33924.3, -0.19046393, -0.06050491, 3569.3223, 227026.5, 0.0, 10.00127, 9.999336 
2.4107945e+3, 2.8718618e+2, -134373.28, -142820.1, -223867.16, -0.20013644, -0.23776998, 85310.3, 210866.42, 0.0000001537889, 9.999719, 9.999357 
2.4103884e+3, 2.9717755e+2, -486076.44, -569102.56, -64746.625, -0.0922133, -0.18994871, -450677.47, -423040.03, 0.000003139397, 9.998053, 9.996928 
2.4099877e+3, 3.0716315e+2, 231150.94, 322115.25, 57740.46, 0.060238276, -0.51614374, 350135.38, 350135.38, 0.000017282315, 10.000698, 10.001722 
2.4272698e+3, 1.2772562e+2, -1584788.3, -1474262.1, 110265.79, 0.38897818, 0.07684748, -1406186.0, 282102.88, 0.4141129, 9.999555, 10.002081 
2.4268599e+3, 1.3771872e+2, -1776851.6, -1725667.4, 10957.675, -0.281532, -0.01236092, -1723420.1, -133063.44, 0.28877336, 9.998364, 9.999374 
2.4264565e+3, 1.4770979e+2, -1666125.9, -1852387.4, 50813.19, -0.21747378, 0.074315965, -1653165.5, -160717.17, 0.17287979, 9.999572, 9.997173 
2.4260552e+3, 1.5770014e+2, -1285833.5, -1635327.1, 122792.2, 0.07921899, 0.20379102, -1247005.1, 147544.03, 0.08747846, 10.001545, 9.997156 
2.4256508e+3, 1.6769116e+2, -1038700.8, -1120865.3, 133775.8, 0.058291577, 0.19808038, -939841.25, 356795.56, 0.038149297, 10.001145, 10.000177 
2.4252458e+3, 1.7768274e+2, -1164527.6, -1136551.8, 47704.96, -0.043267608, 0.14594126, -1100826.3, 97889.18, 0.01570925, 9.999503, 10.000206 
2.4248415e+3, 1.8767504e+2, -965953.56, -747787.06, 36229.49, -0.15156159, 0.000953781, -741928.0, 358851.84, 0.0064830934, 9.999257, 10.002239 
2.4244376e+3, 1.9766727e+2, -1023334.8, -900255.9, -11681.62, -0.21054302, -0.18260473, -899157.0, 103685.8, 0.0021827125, 9.998868, 10.000766 
2.4240339e+3, 2.0765814e+2, -994699.0, -939348.7, -3689.9895, -0.17285614, -0.32730374, -939103.75, -34175.883, 0.00044835047, 9.998976, 9.999701 
2.4236304e+3, 2.1764836e+2, -998673.4, -934880.3, -27679.205, -0.09053895, -0.45943025, -924545.0, -117521.625, 0.000068581576, 9.998415, 9.999389 
2.4232222e+3, 2.276422e+2, -670521.94, -469477.03, -175236.98, -0.08767393, -0.37460357, -367977.78, 341105.7, 0.0000096515805, 9.998999, 10.001541 
2.4228135e+3, 2.3763691e+2, -748796.3, -678752.7, -90489.19, -0.030048601, -0.20762669, -616744.5, -5609.005, 0.00000040342232, 9.998686, 9.99964 
2.4224088e+3, 2.4762954e+2, -533515.5, -577340.5, 122598.83, -0.04013862, -0.0919479, -430886.3, 82324.66, 0.0, 9.999818, 9.999023 
2.4220061e+3, 2.57621e+2, -528464.94, -675551.94, 136835.0, -0.09439547, -0.020005137, -446662.2, -31363.56, 0.0, 9.999821, 9.997723 
2.4216008e+3, 2.6761073e+2, -334696.5, -419866.8, 50872.504, -0.14346774, -0.079882756, -310937.8, 6460.9326, 0.0, 10.000125, 9.998548 
2.4211948e+3, 2.775999e+2, -537866.6, -562841.94, -11476.043, -0.18428215, -0.23579575, -533394.3, -313892.4, 0.0, 9.9983835, 9.997819 
2.4207866e+3, 2.8758997e+2, -292356.28, -299302.75, -146042.27, -0.115271345, -0.25289318, -149745.95, -28146.158, 0.0000000009564638, 9.999134, 9.998487 
2.420382e+3, 2.975817e+2, -572477.8, -502412.06, 143250.75, 0.20055734, -0.14333627, -389972.66, -366291.3, 0.0000004799063, 9.997141, 9.997809 
2.4199744e+3, 3.075691e+2, 262115.64, 743123.44, 86155.33, -0.65272474, -0.72646314, 758089.44, 758089.44, 0.0000055147566, 9.999243, 10.005301 
2.4372615e+3, 1.2813228e+2, -1760942.1, -1817077.3, 60503.336, 0.32558084, 0.0412599, -1722313.0, -38006.805, 0.39271495, 9.999495, 9.998717 
2.4368508e+3, 1.3812473e+2, -1798722.8, -1876185.3, 20254.75, -0.2850162, 0.20633538, -1793746.4, -207361.97, 0.26710206, 9.99889, 9.998066 
2.4364482e+3, 1.481158e+2, -1411443.1, -1428037.8, 97715.25, -0.26791131, 0.15984134, -1321673.5, 166797.27, 0.15331793, 10.000131, 9.999914 
2.4360473e+3, 1.5810645e+2, -1215768.0, -1441820.1, 157931.1, -0.091370985, 0.068245254, -1134585.1, 255975.19, 0.07196278, 10.0013895, 9.998573 
2.4356428e+3, 1.680973e+2, -1170899.1, -1411491.0, 69280.13, -0.06745925, 0.12761962, -1152375.6, 140276.1, 0.027363949, 10.001198, 9.998112 
2.435237e+3, 1.780881e+2, -1259535.9, -1353434.5, 21085.613, -0.14079177, 0.1947601, -1255018.4, -60274.633, 0.009079448, 9.999621, 9.99863 
2.4348328e+3, 1.8807909e+2, -1009598.2, -865834.56, 26379.516, -0.1760286, 0.035513584, -861147.0, 235675.58, 0.002868925, 9.999397, 10.001341 
2.4344292e+3, 1.9807003e+2, -976213.94, -893167.3, -18032.236, -0.21174364, -0.18689734, -889420.94, 109477.69, 0.00059867656, 9.999241, 10.000636 
2.4340259e+3, 2.0806254e+2, -882640.56, -755519.7, -17966.354, -0.09696297, -0.23679192, -753029.25, 147937.23, 0.000045539302, 9.999144, 10.0008955 
2.4336226e+3, 2.1805526e+2, -852316.8, -735071.0, -14824.616, 0.011951816, -0.23120494, -733225.6, 69809.3, 0.0000022398012, 9.99883, 10.000546 
2.4332127e+3, 2.2804803e+2, -591223.4, -417393.66, -133565.05, -0.14452265, -0.2982366, -344954.16, 360148.3, 0.000000052409952, 9.999462, 10.001682 
2.4328023e+3, 2.3804072e+2, -462529.84, -434691.2, -32325.822, -0.349622, -0.35564175, -413415.25, 193755.55, 0.0, 10.000154, 10.00061 
2.4323998e+3, 2.4803278e+2, -384180.38, -384758.34, 153132.13, -0.16528955, -0.38080084, -231336.95, 277910.9, 0.0, 10.000276, 10.000156 
2.4319997e+3, 2.580246e+2, -400888.2, -447445.34, 170516.39, 0.056424156, -0.3806116, -252068.75, 159260.13, 0.0, 9.999898, 9.999256 
2.4315935e+3, 2.6801586e+2, -423955.75, -461162.25, 55299.492, -0.03873535, -0.33135167, -384214.22, -70796.18, 0.0, 9.999393, 9.998667 
2.4311858e+3, 2.7800697e+2, -388452.28, -378086.1, 41992.457, -0.17705645, -0.28549653, -340958.06, -125449.055, 0.0, 9.998803, 9.998902 
2.4307783e+3, 2.8799874e+2, 61509.45, 107996.54, 68037.99, -0.11351785, -0.28037047, 156651.75, 274238.4, 0.0, 10.0004225, 10.000717 
2.4303743e+3, 2.9799125e+2, 238050.0, 87135.74, 378102.3, 0.09994108, -0.2915003, 548151.06, 567807.0, 0.000000008678429, 10.001726, 9.999668 
2.4299702e+3, 3.079823e+2, 40132.832, 64593.734, -84252.37, -0.24410951, -0.23123138, 137498.73, 137498.73, 0.0000009202062, 9.999842, 10.00051 
2.4476525e+3, 1.18541636e+2, -1528635.6, -1537051.5, 208934.11, 0.47781062, -0.13199066, -1323867.1, 454427.5, 0.4945417, 10.001845, 10.00184 
2.44725e+3, 1.2853678e+2, -1776647.3, -1766316.9, -7789.9165, 0.055466667, 0.111572295, -1762135.3, -81795.63, 0.3775347, 9.999201, 9.999253 
2.4468444e+3, 1.3852745e+2, -1363461.5, -1535023.1, 62397.992, -0.2058584, 0.04539074, -1343167.5, 239266.0, 0.25111946, 10.001894, 9.999069 
2.4464424e+3, 1.4851959e+2, -1167692.6, -1279778.9, 75241.85, -0.15785335, 0.051605232, -1129915.9, 354593.25, 0.13882844, 10.001893, 10.000215 
2.4460416e+3, 1.5851144e+2, -1304473.1, -1454827.8, -673.898, 0.03934108, 0.044895224, -1304470.1, 82116.57, 0.060861234, 10.0006075, 9.998809 
2.4456358e+3, 1.6850178e+2, -1292913.6, -1494439.4, -56429.113, -0.041544758, 0.040237002, -1278188.9, 10493.825, 0.02025213, 10.000529, 9.997816 
2.4452285e+3, 1.7849174e+2, -1178507.0, -1354844.6, -5115.043, -0.16596481, 0.055827376, -1178358.8, 12424.574, 0.0052852775, 10.000377, 9.998257 
2.4448244e+3, 1.884831e+2, -969536.3, -913782.1, 66604.414, -0.162239, -0.022768995, -869456.1, 223404.2, 0.0012089658, 9.999975, 10.0007515 
2.4444214e+3, 1.9847466e+2, -1025119.5, -950351.6, 37585.773, -0.079792015, -0.11990965, -934723.8, 60209.094, 0.00012403581, 9.999099, 10.000307 
2.4440174e+3, 2.0846713e+2, -910508.75, -720159.0, -10166.943, -0.023589982, -0.20199929, -719617.5, 177383.63, 0.000001917801, 9.998791, 10.001262 
2.4436133e+3, 2.184599e+2, -983296.44, -809755.94, -66622.234, 0.059686266, -0.23020577, -787129.7, 11938.138, 0.000000018702426, 9.998006, 10.000415 
2.4432036e+3, 2.2845273e+2, -571297.9, -421214.88, -156290.28, -0.19166441, -0.29940325, -322884.28, 378249.9, 0.0, 9.999645, 10.001547 
2.4427933e+3, 2.3844504e+2, -426465.1, -425314.44, -90548.07, -0.47727865, -0.4086064, -335339.88, 267865.44, 0.0, 10.00048, 10.000507 
2.4423914e+3, 2.4843721e+2, -409235.25, -287307.75, 27704.434, -0.21583681, -0.5079251, -281307.97, 223971.05, 0.0, 9.99973, 10.001037 
2.441992e+3, 2.5842935e+2, -734266.9, -587475.7, 28171.65, 0.16334127, -0.5729285, -582254.8, -174900.98, 0.0, 9.997599, 9.9993925 
2.4415849e+3, 2.684219e+2, -463836.7, -445391.28, -22878.361, -0.016812833, -0.4447894, -429946.66, -120514.25, 0.0, 9.999035, 9.998929 
2.4411765e+3, 2.7841446e+2, -259386.8, -264872.84, 2269.6948, -0.22539194, -0.2999424, -258569.53, -47057.668, 0.0, 9.999538, 9.999341 
2.440771e+3, 2.8840753e+2, 201808.22, 364110.7, -15819.847, -0.10377084, -0.34562734, 365638.3, 479212.0, 0.0, 10.000643, 10.002344 
2.4403664e+3, 2.984011e+2, -328850.3, -301284.84, 116040.945, -0.035349652, -0.39487106, -198210.98, -182582.06, 0.0, 9.9984255, 9.998603 
2.4399652e+3, 3.0839163e+2, -443108.4, -647805.44, -15428.161, -0.013557731, -0.15953413, -441952.1, -441952.1, 0.00000009984614, 9.999001, 9.995848 
2.4576452e+3, 1.1894409e+2, -1680124.1, -1715158.8, -70861.68, 0.2485507, 0.053812496, -1624646.6, 149699.03, 0.48539782, 10.000743, 9.999926 
2.4572386e+3, 1.2893884e+2, -1590765.9, -1444800.6, 81285.234, -0.260407, 0.11931919, -1408541.5, 267852.44, 0.36593348, 9.99939, 10.002266 
2.4568386e+3, 1.389292e+2, -1331181.6, -1411938.8, 124388.28, -0.23474272, -0.241047, -1240782.3, 337704.1, 0.23856215, 10.001597, 10.00028 
2.4564378e+3, 1.4892244e+2, -1261826.9, -1426676.8, 49979.93, -0.034850217, -0.09185442, -1247857.5, 232696.52, 0.1275105, 10.00164, 9.999134 
2.4560367e+3, 1.5891556e+2, -1346733.0, -1507009.5, -14263.999, 0.21831904, 0.12098314, -1345473.4, 37149.992, 0.052560914, 10.000468, 9.998494 
2.4556291e+3, 1.6890462e+2, -1197325.1, -1332705.6, -45150.188, 0.020556178, -0.07112162, -1183648.9, 101080.43, 0.01541553, 10.000698, 9.998844 
2.4552202e+3, 1.7889312e+2, -1103577.3, -1229759.6, 255.51862, -0.29004025, -0.29382187, -1103576.8, 83263.22, 0.0031067657, 10.000513, 9.999046 
2.4548167e+3, 1.8888685e+2, -949026.9, -901101.9, 52182.254, -0.16890882, -0.16008638, -867643.2, 221252.28, 0.00048131414, 10.000106, 10.00077 
2.454414e+3, 1.9888099e+2, -999699.25, -957267.8, 34058.797, 0.010576848, 0.0046666274, -938357.4, 52588.973, 0.000015932997, 9.999348, 10.000118 
2.4540083e+3, 2.088704e+2, -949863.56, -841183.0, -31511.74, -0.04323493, -0.3052084, -832707.25, 60338.3, 0.0000000054715246, 9.998955, 10.000353 
2.4536018e+3, 2.1885946e+2, -897744.0, -787928.75, -61088.465, -0.15647537, -0.62003213, -760698.4, 34450.805, 0.0, 9.998623, 10.000282 
2.4531953e+3, 2.2885494e+2, -519668.53, -413024.97, -100883.56, -0.2152536, -0.40563098, -352238.44, 344956.0, 0.0, 9.999996, 10.001482 
2.4527885e+3, 2.3885116e+2, -280563.06, -318035.25, -96400.97, -0.27907225, -0.11075555, -201094.33, 398138.5, 0.0, 10.001236, 10.000901 
2.4523838e+3, 2.4884406e+2, -397020.16, -277095.5, -89950.14, -0.16510452, -0.14386557, -228953.67, 272349.34, 0.0, 9.999728, 10.001151 
2.45198e+3, 2.5883612e+2, -634734.0, -426185.25, -49914.668, -0.05028091, -0.23412444, -414854.2, -11473.871, 0.0, 9.997682, 10.000489 
2.4515745e+3, 2.6882815e+2, -332343.3, -234320.31, 13000.029, -0.17652413, -0.28213805, -232625.53, 72830.5, 0.0, 9.999187, 10.000363 
2.4511689e+3, 2.7882025e+2, 51135.77, -94922.44, 1893.5226, -0.30084327, -0.2986881, 51160.316, 258691.61, 0.0, 10.001468, 9.999604 
2.4507642e+3, 2.8881148e+2, 89095.375, -74829.82, -194642.66, -0.12523985, -0.30577576, 218328.5, 327943.72, 0.0, 10.001399, 9.999017 
2.4503599e+3, 2.9880247e+2, -60594.22, -304466.7, -165702.63, 0.037619483, -0.3099219, 23201.91, 34903.293, 0.0, 10.000619, 9.997567 
2.4499585e+3, 3.0879226e+2, 420632.34, 102677.99, -815.3312, -0.10101424, -0.22370371, 420634.44, 420634.44, 0.000000000000427524, 10.003201, 9.999062 
2.4676362e+3, 1.1934695e+2, -1839678.0, -1811714.6, -178355.86, 0.13740559, -0.20160621, -1646793.3, 123598.234, 0.47722325, 9.999285, 10.00005 
2.4672307e+3, 1.29343e+2, -1638772.6, -1424912.5, 236169.92, -0.16663744, -0.016199732, -1272593.1, 399833.3, 0.3557266, 9.998813, 10.002892 
2.4668323e+3, 1.3933446e+2, -1544656.6, -1517177.5, 178694.22, -0.14982286, -0.28752792, -1351695.4, 222810.47, 0.22774403, 9.999721, 10.00038 
2.4664304e+3, 1.4932676e+2, -1581831.9, -1653243.8, 62952.652, -0.010088262, -0.19051866, -1545164.1, -68579.86, 0.11809006, 9.999525, 9.998543 
2.4660283e+3, 1.5931903e+2, -1559950.5, -1644668.6, 31845.43, 0.22230199, 0.0041396036, -1549315.0, -170651.28, 0.04605504, 9.999111, 9.998215 
2.4656215e+3, 1.6930874e+2, -1287467.0, -1367664.8, -6059.4604, 0.037104316, -0.124561965, -1287011.8, -6247.61, 0.012013259, 10.000018, 9.998935 
2.4652137e+3, 1.7929803e+2, -1072503.1, -1216750.0, -44741.266, -0.20380974, -0.28243816, -1059752.8, 123114.21, 0.0018483637, 10.0007105, 9.999054 
2.4648088e+3, 1.892911e+2, -1005016.94, -982299.06, -65330.035, -0.12871686, -0.20054069, -927347.8, 157583.0, 0.00018026956, 9.999912, 10.000324 
2.4644053e+3, 1.9928484e+2, -1164312.0, -1094100.1, -73903.06, 0.043122772, -0.039378785, -1047388.56, -60400.52, 0.0000007906511, 9.998508, 9.999594 
2.4639991e+3, 2.0927413e+2, -869184.44, -854539.75, -61748.902, -0.076211914, -0.33276746, -799680.56, 89409.57, 0.0, 9.999753, 9.9999 
2.4635926e+3, 2.1926278e+2, -663619.0, -706684.7, -46717.61, -0.20974222, -0.6507866, -633710.6, 157488.38, 0.0, 10.000472, 9.999938 
2.463188e+3, 2.2925892e+2, -439439.3, -344770.56, -44558.223, -0.15861373, -0.3851739, -327097.4, 366140.78, 0.0, 10.0005865, 10.001594 
2.4627835e+3, 2.3925644e+2, -551902.9, -511470.38, -70585.9, -0.045900673, 0.041122835, -458262.75, 137002.86, 0.0, 9.999731, 10.000283 
2.4623758e+3, 2.4924952e+2, -404702.9, -349511.47, -147351.19, -0.12104956, 0.0772303, -227194.22, 270143.22, 0.0, 9.999992, 10.000523 
2.4619685e+3, 2.5924137e+2, -489986.63, -400953.78, -111581.31, -0.20776829, 0.014750233, -325336.5, 74083.195, 0.0, 9.998933, 10.000055 
2.4615651e+3, 2.6923272e+2, -237414.78, -97475.66, -31960.441, -0.24887134, -0.17708759, -90521.82, 210974.8, 0.0, 9.999515, 10.001097 
2.4611624e+3, 2.7922443e+2, -326146.38, -397912.06, -111208.19, -0.26017642, -0.28777194, -245175.3, -41606.375, 0.0, 9.999498, 9.998457 
2.4607563e+3, 2.8921402e+2, -173370.9, -533638.94, -223225.02, -0.22107293, -0.2510122, -66664.07, 39007.52, 0.0, 10.001095, 9.99599 
2.460354e+3, 2.9920113e+2, -433982.9, -766987.25, -37717.477, 0.13072966, -0.29967394, -429764.3, -421963.63, 0.0, 9.999456, 9.994924 
2.459952e+3, 3.0919003e+2, -260229.58, 106628.64, 192246.03, -0.2784091, -0.40698618, 188915.13, 188915.13, 0.0, 9.9975, 10.001673 
2.477628e+3, 1.1975201e+2, -1804849.4, -1774485.5, -277036.97, 0.15326795, -0.4002033, -1512214.8, 254200.27, 0.4678463, 9.9998455, 10.000352 
2.4772236e+3, 1.2974854e+2, -1567589.3, -1448724.1, 257495.4, -0.019157954, -0.12536192, -1243891.5, 424553.53, 0.34520847, 9.99993, 10.002004 
2.4768247e+3, 1.3974078e+2, -1594325.0, -1621494.1, 160916.14, -0.12446371, -0.22936623, -1446421.1, 124094.99, 0.21743059, 9.999753, 9.999499 
2.4764208e+3, 1.4973116e+2, -1578751.5, -1671887.4, 27873.7, -0.13005167, -0.28875273, -1571046.9, -98433.47, 0.109704144, 9.999695, 9.998302 
2.4760173e+3, 1.5972157e+2, -1569324.6, -1682500.5, 43470.617, -0.056551754, -0.25592253, -1554555.0, -179843.55, 0.040704507, 9.999229, 9.997883 
2.475613e+3, 1.6971353e+2, -1297975.4, -1436318.9, 35936.69, -0.033615638, -0.10818266, -1289197.3, -12404.073, 0.00953522, 10.000213, 9.99838 
2.4752082e+3, 1.7970525e+2, -1093311.1, -1276808.3, -40571.367, -0.08130581, 0.03678694, -1084741.0, 94135.21, 0.0011160366, 10.000789, 9.998602 
2.4748011e+3, 1.8969494e+2, -1042840.25, -1077304.9, -115970.84, -0.12420584, -0.15321445, -942828.44, 138147.0, 0.00006263998, 9.999987, 9.999639 
2.4743943e+3, 1.9968525e+2, -1116467.5, -1047933.3, -70263.28, -0.16757601, -0.28228632, -1004026.5, -20957.941, 0.0000000031066179, 9.998738, 9.999796 
2.4739905e+3, 2.0967911e+2, -743628.1, -721297.06, 11626.258, -0.15029413, -0.16208369, -716343.06, 168786.03, 0.0, 10.000264, 10.000606 
2.473587e+3, 2.1967268e+2, -430664.06, -492925.38, -10841.691, -0.15824369, -0.049110126, -428830.2, 358361.75, 0.0, 10.001587, 10.000881 
2.4731816e+3, 2.2966486e+2, -344848.2, -260897.56, -59547.785, -0.07804524, -0.22533067, -230017.78, 459245.06, 0.0, 10.001022, 10.001988 
2.4727762e+3, 2.3965722e+2, -476615.25, -498419.44, -67246.18, -0.015890025, -0.32435614, -419393.16, 171939.95, 0.0, 10.000278, 10.00012 
2.4723685e+3, 2.4965012e+2, -430439.75, -535652.0, -131842.1, -0.10521479, -0.1778538, -341096.1, 152312.98, 0.0, 10.000513, 9.999019 
2.4719612e+3, 2.5964254e+2, -294429.3, -433180.4, -112497.34, -0.20107785, -0.0318712, -231635.95, 163853.61, 0.0, 10.000729, 9.998975 
2.4715586e+3, 2.6963314e+2, -209437.22, -258547.42, -98387.42, -0.1252865, -0.15045372, -132587.0, 164990.25, 0.0, 10.000386, 9.999597 
2.471156e+3, 2.7962434e+2, -149189.39, -224515.81, -189310.86, -0.13520762, -0.21044657, 6168.4375, 205825.58, 0.0, 10.000253, 9.999285 
2.4707498e+3, 2.896144e+2, 162675.94, -98072.26, -175756.89, -0.2506367, -0.3264074, 251134.86, 352885.7, 0.0, 10.002049, 9.998612 
2.470349e+3, 2.9960215e+2, 238315.95, -237912.78, 22983.81, 0.19074517, -0.5266952, 239422.63, 243291.14, 0.0, 10.002985, 9.996912 
2.4699399e+3, 3.095938e+2, -270607.03, 120674.71, 60470.586, -0.4082961, -0.3576986, 129806.984, 129806.984, 0.0, 9.996994, 10.002149 
2.487622e+3, 1.2016119e+2, -1592842.3, -1778013.8, -86564.82, 0.23004487, -0.2864117, -1558677.9, 203722.44, 0.45571515, 10.00232, 9.9985485 
2.4872166e+3, 1.3015263e+2, -1348779.3, -1587852.0, 151003.34, -0.1747802, -0.22979854, -1275725.5, 388760.16, 0.33319858, 10.003423, 9.998739 
2.4868184e+3, 1.4014444e+2, -1427913.1, -1640989.1, -21492.965, -0.056374434, -0.121323094, -1425766.8, 140799.27, 0.20679392, 10.001523, 9.998429 
2.4864133e+3, 1.5013494e+2, -1375895.3, -1536808.4, -140114.73, -0.11903386, -0.18519492, -1294780.1, 173881.22, 0.10179194, 10.000973, 9.9987 
2.4860089e+3, 1.6012517e+2, -1378503.1, -1517655.5, -89750.03, -0.07078834, -0.22637318, -1334519.1, 36240.098, 0.036105353, 10.00023, 9.99854 
2.4856055e+3, 1.7011715e+2, -1294468.1, -1365458.9, -15178.723, 0.014250303, -0.14890642, -1291358.9, -18522.594, 0.0076701324, 9.999961, 9.998991 
2.4852017e+3, 1.801092e+2, -1261081.1, -1324320.4, -29951.367, 0.082484886, -0.014385794, -1249147.5, -74234.53, 0.000687035, 9.999525, 9.998863 
2.4847928e+3, 1.9009921e+2, -1159639.4, -1123616.5, -74403.85, -0.08359321, -0.19986601, -1065075.0, 11935.527, 0.000019881356, 9.999202, 9.999653 
2.4843843e+3, 2.0008925e+2, -1147619.5, -1075587.1, 64164.246, -0.20924304, -0.3421846, -1038021.94, -58913.527, 0.0, 9.998621, 9.999634 
2.4839824e+3, 2.100844e+2, -827250.1, -757474.1, 140892.61, -0.1430354, -0.086762436, -647214.25, 233945.6, 0.0, 9.999757, 10.00053 
2.4835809e+3, 2.2007972e+2, -639687.6, -628625.94, 4605.013, -0.03675461, 0.21034062, -626959.8, 156248.31, 0.0, 10.000322, 10.0005455 
2.4831748e+3, 2.3007e+2, -525378.44, -384870.66, -132658.61, -0.002331165, -0.14241429, -305011.53, 380283.9, 0.0, 9.999911, 10.001683 
2.482768e+3, 2.400597e+2, -750580.56, -706192.3, -126731.49, 0.020189436, -0.4746253, -599726.25, -12338.034, 0.0, 9.998807, 9.999392 
2.4823609e+3, 2.5005195e+2, -513610.1, -639837.1, -78682.1, -0.08966533, -0.34933147, -475856.44, 13612.893, 0.0, 10.000284, 9.998376 
2.4819545e+3, 2.600442e+2, -410971.66, -649590.75, 9539.181, -0.12687466, -0.13082431, -410590.9, -19038.941, 0.0, 10.000713, 9.997496 
2.4815525e+3, 2.700345e+2, -279757.9, -459680.47, 24365.736, -0.0073367273, -0.13205412, -276516.6, 17130.088, 0.0, 10.000702, 9.998048 
2.4811491e+3, 2.800247e+2, -294476.38, -321686.25, -22611.738, -0.03248995, -0.13926317, -281692.22, -85952.766, 0.0, 9.999443, 9.999009 
2.480743e+3, 2.9001456e+2, -36668.86, 107020.63, -62724.99, -0.2921076, -0.4654515, 130549.32, 228380.97, 0.0, 9.999558, 10.00114 
2.4803433e+3, 3.0000535e+2, -366776.53, -365542.2, -89286.44, 0.1737635, -0.6019963, -276870.78, -276870.78, 0.0, 9.998274, 9.998279 
2.4799295e+3, 3.100023e+2, -101524.8, 251494.88, -266933.03, -0.48173395, -0.06624377, 394999.06, 394999.06, 0.0, 9.998017, 10.002557 
2.4976155e+3, 1.205707e+2, -1632736.6, -2039353.4, 106510.266, 0.045439094, -0.023390954, -1606526.5, 151857.67, 0.43991756, 10.003023, 9.996256 
2.4972095e+3, 1.305559e+2, -1567369.3, -2108726.3, 152292.28, -0.46338162, -0.2832014, -1527468.0, 133070.52, 0.31901658, 10.003052, 9.99508 
2.496812e+3, 1.4054678e+2, -1594391.4, -1893386.4, -26384.621, -0.09343856, 0.04175127, -1592081.0, -29445.512, 0.19536594, 10.000861, 9.996989 
2.496407e+3, 1.5053828e+2, -1358443.5, -1442327.8, -111390.06, -0.077132024, 0.056629084, -1281360.9, 183359.97, 0.094030365, 10.000733, 9.999453 
2.4960017e+3, 1.605293e+2, -1298407.3, -1343053.9, -77646.266, -0.042285748, 0.010690399, -1239939.0, 126869.21, 0.032013185, 10.000233, 9.999727 
2.4955983e+3, 1.705193e+2, -1167205.6, -1122729.6, -188.30685, 0.077808894, -0.26580507, -1122728.8, 146166.27, 0.0062260167, 10.00007, 10.0005865 
2.4951941e+3, 1.8051003e+2, -1164439.9, -1123691.9, -30694.553, 0.11528522, -0.41866383, -1107224.9, 63751.22, 0.00043419475, 9.999533, 10.000221 
2.4947844e+3, 1.9050391e+2, -1060903.3, -967344.44, -73259.64, -0.0639855, -0.31765172, -927202.7, 145832.73, 0.0000058323185, 9.999391, 10.000637 
2.4943756e+3, 2.004973e+2, -1086831.9, -1059699.4, 100662.22, -0.23358609, -0.18253884, -971693.4, 3408.3064, 0.000000000090419006, 9.999065, 9.999524 
2.4939752e+3, 2.1048854e+2, -848856.8, -906798.5, 196132.73, -0.105445355, -0.21941784, -679566.8, 197626.9, 0.0, 10.000145, 9.999327 
2.4935745e+3, 2.2048019e+2, -610064.0, -699183.7, -13022.3125, -0.0041013295, -0.1838594, -608200.1, 171080.81, 0.0, 10.000851, 9.999796 
2.4931668e+3, 2.3047385e+2, -575667.56, -525985.6, -177493.6, -0.0094328225, -0.09320037, -371603.13, 309739.03, 0.0, 10.000032, 10.000674 
2.4927588e+3, 2.4046686e+2, -612211.5, -556422.4, -124458.16, -0.054734964, -0.032823835, -456771.1, 126636.695, 0.0, 9.999345, 10.000158 
2.4923533e+3, 2.5045747e+2, -328904.88, -363476.03, -5397.2793, -0.09649056, -0.21248724, -328081.84, 157413.42, 0.0, 10.00066, 10.000127 
2.4919488e+3, 2.604479e+2, -162620.55, -421789.8, 64562.637, -0.11043726, -0.31777605, -147427.72, 240158.98, 0.0, 10.001871, 9.998508 
2.4915458e+3, 2.7043897e+2, -167893.16, -433575.1, 89346.5, 0.0069150627, -0.22304216, -140641.9, 149034.42, 0.0, 10.00152, 9.997864 
2.4911422e+3, 2.8042978e+2, -128426.88, -286955.75, 40764.297, -0.021839596, -0.13155448, -118558.95, 73208.945, 0.0, 10.000644, 9.998697 
2.4907327e+3, 2.9041952e+2, -257628.55, -136722.39, -78786.61, -0.39269376, -0.33054096, -97868.35, -4003.6228, 0.0, 9.998522, 10.000017 
2.4903308e+3, 3.0041072e+2, -432549.66, -387535.38, -50777.258, -0.0729506, -0.35785982, -354500.63, -354500.63, 0.0, 9.997658, 9.998451 
2.489927e+3, 3.1040424e+2, 589406.6, 484591.56, -200458.36, -0.08505733, -0.067474164, 744194.94, 744194.94, 0.0, 10.002905, 10.00192 
2.5076136e+3, 1.2097171e+2, -1370499.3, -1707956.5, -66969.24, 0.1707383, -0.10108427, -1357694.9, 396767.34, 0.42027465, 10.005186, 9.997755 
2.507204e+3, 1.309601e+2, -1589354.5, -1905284.8, 13966.175, -0.43268594, -0.23729925, -1588738.3, 67839.516, 0.30251706, 10.001714, 9.997151 
2.5068036e+3, 1.4095162e+2, -1839133.8, -1967308.1, 116093.84, -0.07929176, 0.02353462, -1770612.6, -211947.11, 0.18302314, 9.998856, 9.9974985 
2.5064e+3, 1.5094239e+2, -1472962.9, -1591839.0, 50037.7, 0.016247455, 0.024456363, -1454705.1, 6057.1274, 0.08629053, 10.000165, 9.998695 
2.5059962e+3, 1.6093326e+2, -1125960.8, -1214195.1, 782.2121, 0.120535195, 0.012900434, -1125953.8, 236899.72, 0.028287582, 10.001202, 10.000175 
2.505591e+3, 1.7092432e+2, -1065134.8, -981055.1, 10529.039, 0.12174898, -0.2477288, -979756.7, 285170.7, 0.0050760456, 10.000283, 10.001497 
2.505185e+3, 1.8091547e+2, -1197896.6, -1095087.6, -25639.27, 0.10645688, -0.42675224, -1089048.3, 77952.56, 0.00028139996, 9.999144, 10.000618 
2.5047758e+3, 1.9090942e+2, -972472.5, -917948.5, -123527.625, -0.06174431, -0.32975727, -818710.4, 250348.6, 0.0000014559199, 10.000058, 10.000653 
2.5043675e+3, 2.0090286e+2, -903338.06, -1026569.94, 29961.031, -0.17564058, -0.17636652, -896439.9, 74684.47, 0.0, 10.000601, 9.999026 
2.503968e+3, 2.1089278e+2, -833991.06, -954626.4, 161461.44, -0.079817206, -0.310037, -721948.6, 151280.97, 0.0, 10.000568, 9.998782 
2.503567e+3, 2.208832e+2, -751246.06, -846793.6, -21007.51, 0.02595915, -0.3345252, -746831.25, 28498.252, 0.0, 10.0002775, 9.99907 
2.5031587e+3, 2.308781e+2, -487836.38, -539454.4, -147200.9, -0.033907235, -0.073684745, -364199.0, 313183.34, 0.0, 10.000931, 10.000132 
2.50275e+3, 2.408726e+2, -432783.9, -479208.0, -40117.707, -0.08576403, 0.18677518, -409646.97, 169789.34, 0.0, 10.0006485, 10.000059 
2.502346e+3, 2.5086242e+2, -315192.06, -257626.1, 8993.112, -0.093035415, -0.14947368, -256253.88, 225272.72, 0.0, 10.000388, 10.0009575 
2.5019422e+3, 2.6085213e+2, -465624.75, -532335.06, -15374.67, -0.082717635, -0.39741868, -462251.88, -78632.805, 0.0, 9.99969, 9.9988 
2.5015387e+3, 2.7084377e+2, -454041.38, -537073.1, 33558.453, -0.026429296, -0.3048919, -442174.3, -156470.22, 0.0, 9.999424, 9.998171 
2.5011343e+3, 2.8083527e+2, -503716.75, -562412.56, 10996.519, -0.017280767, -0.13966267, -501724.22, -313932.97, 0.0, 9.998578, 9.997779 
2.5007236e+3, 2.908254e+2, -129174.74, -240671.25, -65844.02, -0.38808003, -0.19971836, -98648.42, -8760.855, 0.0, 10.000176, 9.998476 
2.5003183e+3, 3.008154e+2, -120722.45, -347599.9, 108146.484, -0.39018747, -0.19535623, -77432.09, -77432.09, 0.0, 10.000436, 9.997349 
2.4999246e+3, 3.108043e+2, 7908.3535, 37465.156, 116285.875, 0.14983359, -0.35071084, 139907.94, 139907.94, 0.0, 9.999933, 10.000167 
2.5176138e+3, 1.2137174e+2, -1353027.6, -1478898.8, -108618.53, 0.43333912, -0.02989099, -1290428.8, 460123.72, 0.39734322, 10.003715, 10.00098 
2.5171986e+3, 1.3136406e+2, -1388913.0, -1376491.8, -51299.61, -0.3521775, -0.20580532, -1331028.3, 321588.7, 0.28406283, 10.001513, 10.0015745 
2.5167942e+3, 1.4135689e+2, -1792454.8, -1871363.4, 104341.96, -0.15794416, -0.12494485, -1720356.9, -165673.3, 0.16993596, 9.998936, 9.998079 
2.516393e+3, 1.5134637e+2, -1545033.3, -1778050.6, 138733.11, 0.071127936, -0.15949634, -1480375.9, -23577.508, 0.078587286, 10.000366, 9.997288 
2.5159907e+3, 1.6133682e+2, -1135521.6, -1231159.4, 12790.581, 0.2190385, -0.11006755, -1133840.6, 225059.02, 0.024857625, 10.0012045, 10.000037 
2.515583e+3, 1.7133145e+2, -1012158.3, -875877.25, -12553.837, 0.07322294, -0.064536855, -874730.44, 386210.16, 0.0041356636, 10.000323, 10.0021925 
2.5151747e+3, 1.8132494e+2, -1209522.8, -1140214.9, -33558.42, -0.0913476, -0.041044593, -1126629.1, 36364.086, 0.00018434241, 9.999248, 10.00024 
2.5147673e+3, 1.9131467e+2, -1021677.9, -1062106.4, -70488.3, -0.1357082, -0.26511103, -968562.6, 96529.414, 0.00000026313862, 10.000235, 9.999578 
2.5143608e+3, 2.0130485e+2, -838965.3, -988688.3, 44963.04, -0.1886992, -0.36045095, -826500.3, 140687.94, 0.0, 10.001014, 9.99908 
2.5139603e+3, 2.1129735e+2, -742611.25, -866484.3, 158720.7, -0.15293702, -0.25814903, -634170.56, 235095.36, 0.0, 10.000982, 9.999213 
2.5135586e+3, 2.2128975e+2, -586638.44, -683999.25, -12186.324, -0.12833425, -0.1311788, -585136.3, 186207.61, 0.0, 10.000979, 9.99987 
2.513151e+3, 2.3128188e+2, -349684.94, -415537.78, -105314.91, -0.13937674, -0.19743842, -272269.28, 401150.97, 0.0, 10.001562, 10.000711 
2.5127432e+3, 2.4127409e+2, -283460.06, -463392.66, -26928.2, -0.16299066, -0.18411644, -279516.5, 295978.7, 0.0, 10.001859, 9.999585 
2.5123385e+3, 2.5126514e+2, -350328.1, -460445.06, -36806.52, -0.12904423, -0.24587406, -339158.5, 138422.28, 0.0, 10.00086, 9.999374 
2.5119337e+3, 2.6125634e+2, -380478.56, -385201.13, -92957.99, -0.097569026, -0.26328546, -289851.88, 89812.07, 0.0, 9.999723, 9.999821 
2.511529e+3, 2.7124885e+2, -401898.8, -283627.53, -16520.293, -0.058262434, -0.26205504, -281363.3, 371.86365, 0.0, 9.998697, 10.000316 
2.5111246e+3, 2.8124058e+2, -390831.84, -396382.88, 99610.7, -0.061213918, -0.24443614, -293958.0, -110143.875, 0.0, 9.998766, 9.998852 
2.51072e+3, 2.912296e+2, 247689.88, -106407.16, 115617.65, -0.17279139, -0.40157542, 282097.3, 368016.0, 0.0, 10.002798, 9.998204 
2.5103167e+3, 3.0121934e+2, 555472.5, -14896.611, 110236.46, -0.1635602, -0.40278336, 576036.75, 576036.75, 0.0, 10.004931, 9.997493 
2.5099128e+3, 3.1120983e+2, -92081.914, -113108.37, 47176.83, -0.19866969, -0.33075303, -54261.082, -54261.082, 0.0, 9.9995, 9.999393 
2.527604e+3, 1.2177979e+2, -1499035.6, -1577356.0, 3231.8293, 0.020137202, 0.04052379, -1498902.5, 247651.42, 0.3720952, 10.001974, 10.000618 
2.5271937e+3, 1.3177027e+2, -1398662.9, -1457820.9, -54334.105, -0.15675074, -0.21185821, -1366378.3, 282257.9, 0.26429757, 10.001709, 10.000669 
2.5267872e+3, 1.4176166e+2, -1496128.3, -1647939.8, 34511.65, -0.035495624, -0.24493586, -1488650.9, 62064.355, 0.15642525, 10.000733, 9.998723 
2.5263852e+3, 1.5175301e+2, -1412278.1, -1633398.1, 177772.98, -0.0002497166, -0.17538749, -1313489.8, 139320.13, 0.071005836, 10.00102, 9.997984 
2.5259823e+3, 1.6174453e+2, -1181179.6, -1253555.9, 100234.64, 0.091915004, -0.051069167, -1110800.6, 244099.16, 0.021693112, 10.000919, 10.000021 
2.5255743e+3, 1.7173806e+2, -1144512.8, -993873.6, -32721.14, 0.015615572, -0.048265573, -987073.1, 269882.0, 0.00335279, 9.999769, 10.001624 
2.525166e+3, 1.8173103e+2, -1261048.6, -1245294.8, -20890.172, -0.07051637, -0.011163082, -1230845.9, -71829.65, 0.00011963712, 9.99919, 9.999562 
2.5247595e+3, 1.9172014e+2, -903983.0, -1079507.0, 9955.136, -0.15735495, -0.2521127, -903420.2, 157700.73, 0.00000002568285, 10.001278, 9.998977 
2.5243545e+3, 2.0170985e+2, -684704.0, -934629.9, 111927.8, -0.18225078, -0.350449, -641906.5, 321314.6, 0.0, 10.002133, 9.998919 
2.523953e+3, 2.1170294e+2, -929685.4, -942277.0, 157779.3, -0.12703153, -0.2128132, -778076.3, 87215.586, 0.0, 9.999583, 9.999375 
2.5235504e+3, 2.2169574e+2, -1108384.5, -927930.3, 33629.25, -0.0844922, -0.05630076, -921866.94, -154502.4, 0.0, 9.997441, 9.999868 
2.523143e+3, 2.316864e+2, -783223.25, -614351.6, -72528.48, -0.13912453, -0.2944718, -587478.06, 81975.484, 0.0, 9.998584, 10.00076 
2.522736e+3, 2.4167721e+2, -725325.4, -759867.1, -23150.08, -0.17661373, -0.39440855, -713713.56, -142171.97, 0.0, 9.999255, 9.998801 
2.5223303e+3, 2.5166917e+2, -593063.0, -673378.44, 16856.955, -0.1610812, -0.2947325, -589668.5, -116045.945, 0.0, 9.999679, 9.998471 
2.5219253e+3, 2.616614e+2, -436571.38, -405221.84, -992.8548, -0.10712527, -0.12861097, -405190.44, -29491.44, 0.0, 9.999397, 9.999819 
2.52152e+3, 2.7165398e+2, -274064.72, -93571.19, -52775.164, -0.031043842, -0.22619309, -79272.766, 198493.25, 0.0, 9.999122, 10.00136 
2.5211158e+3, 2.8164536e+2, -377592.3, -373569.8, 90046.65, -0.013997271, -0.32652414, -285511.97, -105667.266, 0.0, 9.998904, 9.998918 
2.5207162e+3, 2.9163352e+2, -12461.49, -215824.98, 180866.61, -0.02625549, -0.6031523, 93346.3, 175301.84, 0.0, 10.001066, 9.998244 
2.520315e+3, 3.01624e+2, 80371.42, -295342.53, -27957.049, 0.035587896, -0.52002496, 82440.32, 82440.32, 0.0, 10.0020075, 9.996939 
2.519896e+3, 3.1161335e+2, -177800.84, -216634.38, -102121.38, -1.085831, -0.5610024, -93266.72, -93266.72, 0.0, 9.999402, 9.998648 
2.5375938e+3, 1.2219042e+2, -1642628.6, -1832895.0, 3146.881, -0.48874906, 0.13494705, -1642576.6, 99950.44, 0.34545994, 10.001486, 9.998381 
2.5371897e+3, 1.3217716e+2, -1549213.4, -1828422.5, -89906.83, 0.052058075, -0.21485321, -1522767.6, 121882.43, 0.24384509, 10.0018, 9.997611 
2.536781e+3, 1.4216608e+2, -1472845.6, -1567971.6, 50673.47, 0.030898605, -0.31526572, -1450910.1, 95844.805, 0.14280653, 10.000706, 9.999259 
2.536376e+3, 1.5216108e+2, -1271397.3, -1316131.4, 198507.83, -0.23754258, -0.07154031, -1094000.4, 354806.94, 0.06363834, 10.001003, 10.000186 
2.5359714e+3, 1.6215447e+2, -1224984.9, -1332141.1, 47344.918, -0.32004198, 0.11725869, -1207063.6, 143810.67, 0.0187796, 10.000875, 9.999479 
2.5355646e+3, 1.7214303e+2, -1234935.8, -1243926.9, -72710.4, -0.10390711, -0.2211676, -1166582.1, 86400.84, 0.0026956536, 9.999991, 9.999809 
2.535158e+3, 1.8213293e+2, -1257116.1, -1268577.6, 31805.377, -0.03103847, -0.35822314, -1230529.3, -75451.23, 0.00007576087, 9.999357, 9.999299 
2.5347525e+3, 1.9212578e+2, -837929.0, -1007464.2, 107976.04, -0.22806823, -0.24198198, -785421.8, 271724.28, 0.00000000011876218, 10.001549, 9.999338 
2.534348e+3, 2.0211811e+2, -611785.1, -843603.4, 65250.984, -0.30430812, -0.1122832, -594680.7, 364539.63, 0.0, 10.002387, 9.999402 
2.533946e+3, 2.1210946e+2, -885354.2, -886287.5, 68274.45, -0.006099795, -0.17291652, -817544.8, 43763.324, 0.0, 9.999715, 9.999691 
2.5335425e+3, 2.2210096e+2, -1089314.6, -935381.7, 23971.947, 0.14275192, -0.16291104, -931734.94, -168340.69, 0.0, 9.997611, 9.999734 
2.5331345e+3, 2.3209246e+2, -854199.94, -735327.1, -22775.41, -0.023984244, -0.23207572, -731112.9, -65634.53, 0.0, 9.998424, 10.0000305 
2.532727e+3, 2.420842e+2, -634916.5, -592895.9, 985.1183, -0.1780818, -0.22754037, -592872.8, -25314.22, 0.0, 9.99926, 9.99997 
2.5323215e+3, 2.52077e+2, -454163.8, -428852.03, 81281.11, -0.22058097, -0.1735536, -359247.4, 110378.38, 0.0, 9.999803, 10.000119 
2.5319168e+3, 2.62069e+2, -379123.22, -499072.2, 62010.656, -0.17211732, -0.09704698, -352829.2, 18873.146, 0.0, 10.000245, 9.998786 
2.5315142e+3, 2.7205828e+2, -307413.3, -422628.94, -51473.59, 0.17679995, -0.25215665, -287767.06, -13959.601, 0.0, 10.000154, 9.998637 
2.5311112e+3, 2.8204829e+2, -187034.47, -276320.53, 66237.28, 0.30533558, -0.31412098, -151800.23, 24105.07, 0.0, 10.000142, 9.998982 
2.530708e+3, 2.9204017e+2, -23065.328, -134348.45, 162130.36, -0.11721596, -0.2720616, 92705.586, 170689.8, 0.0, 10.000548, 9.99909 
2.530306e+3, 3.0203173e+2, 41230.836, -218914.45, -66936.75, -0.2058685, -0.15889326, 57443.605, 57443.605, 0.0, 10.001201, 9.9979105 
2.5298962e+3, 3.1201974e+2, 330035.1, 103837.86, -113296.125, -0.4191968, -0.3587321, 377021.8, 377021.8, 0.0, 10.002305, 9.999578 
2.5475958e+3, 1.22594e+2, -1526117.4, -1572588.4, -23514.229, 0.3400425, 0.011519509, -1516295.3, 222275.5, 0.31815657, 10.001486, 10.0007 
2.547183e+3, 1.3258272e+2, -1453145.0, -1791287.6, -190704.72, 0.012847748, -0.162113, -1367356.8, 273320.4, 0.22319712, 10.002682, 9.997534 
2.5467739e+3, 1.4257208e+2, -1154164.9, -1391023.4, 5493.349, -0.10256084, -0.22809054, -1154037.5, 388741.56, 0.12934339, 10.003005, 9.999549 
2.5463694e+3, 1.5256593e+2, -1221669.8, -1280843.0, 32531.465, -0.21711688, -0.1210169, -1207282.9, 237556.28, 0.05657354, 10.001209, 10.000391 
2.5459647e+3, 1.6255912e+2, -1322398.1, -1393023.6, -116271.4, -0.22627729, 0.021650912, -1236195.4, 110711.1, 0.016116831, 10.000215, 9.999388 
2.5455576e+3, 1.7254882e+2, -909214.0, -1157713.0, -161177.25, -0.12370652, -0.19051431, -829954.2, 419053.97, 0.0021455006, 10.002468, 9.999223 
2.5451508e+3, 1.8253903e+2, -672872.4, -959869.06, 18878.895, -0.061413128, -0.27602884, -671635.8, 479466.7, 0.000046550977, 10.003241, 9.99956 
2.544746e+3, 1.9253181e+2, -929756.75, -988131.94, 95930.48, -0.19140227, -0.23051833, -858671.9, 194495.95, 0.0, 10.000652, 9.999913 
2.5443417e+3, 2.0252451e+2, -1105438.8, -1085974.0, 50138.766, -0.20029676, -0.09581559, -1044631.75, -89394.42, 0.0, 9.9990635, 9.999323 
2.5439388e+3, 2.1251568e+2, -854726.06, -890501.56, -19825.152, 0.08425387, -0.16848351, -845911.6, 11417.5625, 0.0, 10.000054, 9.999478 
2.543534e+3, 2.2250696e+2, -736609.7, -814516.5, -24074.67, 0.25819558, -0.15172967, -729770.5, 29648.44, 0.0, 10.000266, 9.999295 
2.543126e+3, 2.3249882e+2, -707990.44, -709432.0, -15801.363, 0.034821004, -0.16119096, -692893.44, -31393.23, 0.0, 9.999666, 9.999599 
2.5427186e+3, 2.4249122e+2, -628980.9, -554225.0, 33985.082, -0.1323221, -0.06760523, -541084.6, 22489.445, 0.0, 9.999261, 10.000189 
2.5423133e+3, 2.5248405e+2, -351114.4, -284643.9, 23396.848, -0.21838906, -0.11053578, -277234.44, 188403.16, 0.0, 10.000181, 10.000881 
2.5419095e+3, 2.6247525e+2, -421270.84, -680837.6, -31101.883, -0.15587094, -0.11162416, -417596.2, -49875.973, 0.0, 10.00074, 9.997272 
2.541508e+3, 2.7246228e+2, -304383.6, -650001.25, -38685.477, 0.3173145, -0.328872, -300106.4, -30254.686, 0.0, 10.001231, 9.996538 
2.541106e+3, 2.824522e+2, -142380.72, -314937.34, 153113.53, 0.5047947, -0.2292027, -52910.066, 119045.33, 0.0, 10.000794, 9.998388 
2.5406998e+3, 2.9244792e+2, -139975.08, -131585.95, 198929.19, -0.21825737, 0.14187607, 63192.887, 137195.33, 0.0, 9.999605, 9.999519 
2.5402966e+3, 3.024387e+2, -281720.75, -318435.25, -31630.254, -0.42064875, 0.15411785, -263506.7, -263506.7, 0.0, 9.998885, 9.998306 
2.5398973e+3, 3.1242463e+2, 37975.4, 246435.38, -65271.438, 0.2962899, -0.38993695, 265186.06, 265186.06, 0.0, 9.999269, 10.001977 
2.5575858e+3, 1.2299329e+2, -1671194.1, -1700701.6, -15083.145, -0.06682802, -0.29997376, -1664848.8, 69808.04, 0.29081753, 10.000506, 9.999823 
2.5571758e+3, 1.3298741e+2, -1378264.8, -1587816.8, -79128.53, -0.21045697, -0.070640974, -1351742.1, 284970.8, 0.2027681, 10.002563, 9.998956 
2.556766e+3, 1.4297819e+2, -1190435.9, -1419623.8, -5424.934, -0.45304802, -0.061936602, -1190307.5, 348494.66, 0.11625642, 10.0027895, 9.999378 
2.556364e+3, 1.529682e+2, -1292464.5, -1377676.0, 2177.802, -0.08540223, -0.29630393, -1292408.9, 148489.75, 0.04988728, 10.001001, 9.999756 
2.5559604e+3, 1.629602e+2, -1313279.5, -1350636.6, -45012.375, 0.0799412, -0.23487318, -1283224.0, 59753.777, 0.013707004, 10.000136, 9.99971 
2.555552e+3, 1.7295535e+2, -863899.06, -1062189.5, -31431.203, -0.15842067, 0.050002426, -859036.1, 385994.38, 0.0016894786, 10.002469, 9.999882 
2.5551444e+3, 1.8294835e+2, -580069.2, -782714.25, -26749.018, -0.2691867, 0.15961395, -576597.8, 570500.75, 0.000027889511, 10.0033245, 10.00072 
2.55474e+3, 1.929373e+2, -841672.9, -825207.25, 17472.24, -0.089448966, -0.2837838, -814125.4, 235069.73, 0.0, 10.00075, 10.000979 
2.5543353e+3, 2.029279e+2, -1102373.8, -1123190.9, 70893.86, 0.01378578, -0.40440828, -1041128.5, -89845.35, 0.0, 9.999224, 9.999 
2.5539303e+3, 2.1292119e+2, -825655.1, -978315.06, 51811.098, 0.006479669, -0.17404453, -809731.9, 43628.344, 0.0, 10.000634, 9.998622 
2.553525e+3, 2.2291413e+2, -540177.2, -654857.2, -39600.367, -0.0014327543, 0.035787307, -527831.75, 227604.66, 0.0, 10.001314, 9.999887 
2.5531173e+3, 2.3290634e+2, -546636.1, -565507.56, -24276.033, -0.06593141, 0.013825492, -530026.56, 127483.67, 0.0, 10.00046, 10.000216 
2.552711e+3, 2.4289778e+2, -536866.0, -586728.25, 66329.58, -0.11351467, 0.00061668764, -490936.88, 68654.03, 0.0, 10.000163, 9.999546 
2.5523072e+3, 2.5288725e+2, -335436.13, -444408.53, 40922.355, -0.10329903, -0.22764507, -321779.94, 139909.45, 0.0, 10.000931, 9.999456 
2.5519037e+3, 2.628772e+2, -182378.38, -440824.72, -41251.133, -0.07367385, -0.31159493, -175953.89, 187830.83, 0.0, 10.001757, 9.998464 
2.5515e+3, 2.7286786e+2, 4705.1133, -336148.16, 12219.196, 0.07437878, -0.29319268, 5142.5957, 271020.03, 0.0, 10.002548, 9.998113 
2.5510964e+3, 2.8285974e+2, 82498.125, -232425.67, 163017.17, 0.12455617, -0.085211575, 151683.19, 319644.6, 0.0, 10.00234, 9.998247 
2.5506923e+3, 2.9285365e+2, -185095.16, -300517.38, 146396.27, -0.14186719, 0.24445172, -85445.414, -15413.747, 0.0, 9.999807, 9.998317 
2.55029e+3, 3.028432e+2, -231523.94, -108542.7, -30520.328, -0.10157438, 0.122612156, -101385.04, -101385.04, 0.0, 9.998309, 10.000077 
2.5498813e+3, 3.128292e+2, -17385.725, 250598.39, -66393.016, -0.3410459, -0.5278616, 266145.3, 266145.3, 0.0, 9.998537, 10.002442 
2.5675794e+3, 1.2340183e+2, -1659600.3, -1611832.6, 87504.62, 0.11940919, -0.21338113, -1545010.9, 185639.33, 0.26403108, 9.9999895, 10.000939 
2.5671712e+3, 1.3339503e+2, -1446453.9, -1632101.9, 66654.17, -0.067987196, -0.047197305, -1425001.5, 207715.39, 0.18292536, 10.001925, 9.998951 
2.566762e+3, 1.4338583e+2, -1263125.8, -1477192.5, 52591.383, -0.2761574, -0.014242496, -1250903.1, 283904.13, 0.1037245, 10.002244, 9.999202 
2.566356e+3, 1.53375e+2, -1394749.3, -1511517.5, 19658.334, -0.16477612, -0.27748165, -1391528.5, 45384.47, 0.043632858, 10.000534, 9.999077 
2.5659508e+3, 1.6336623e+2, -1400932.0, -1331724.6, 114037.87, -0.04763888, -0.26714587, -1247156.0, 91843.88, 0.011545959, 9.999293, 10.000219 
2.5655448e+3, 1.733616e+2, -1266847.0, -1199304.3, 134039.7, -0.14510798, -0.0079482505, -1094847.0, 146202.02, 0.0013158798, 9.999485, 10.000348 
2.5651386e+3, 1.8335515e+2, -1123950.9, -1047600.94, 46467.26, -0.17859642, 0.14409293, -1025638.25, 117473.94, 0.000016496271, 9.999652, 10.000662 
2.5647327e+3, 1.9334434e+2, -1014974.25, -947066.56, -41627.918, -0.010623596, -0.24783516, -927301.25, 117908.125, 0.0, 9.999732, 10.000654 
2.5643274e+3, 2.0333464e+2, -1022580.9, -1095705.5, 77808.61, 0.0868112, -0.36931273, -973172.4, -25870.756, 0.0, 9.999871, 9.998876 
2.5639224e+3, 2.1332751e+2, -851334.4, -1017323.0, 116738.555, -0.053089518, -0.17316654, -791094.8, 58286.66, 0.0, 10.000626, 9.998366 
2.5635168e+3, 2.2332057e+2, -564685.44, -658299.2, -186.28558, -0.0990764, 0.07235585, -564685.06, 186770.11, 0.0, 10.001166, 9.999905 
2.56311e+3, 2.3331316e+2, -511317.3, -546797.6, -51842.867, -0.04623742, 0.062004242, -474263.34, 179260.02, 0.0, 10.000733, 10.000192 
2.562704e+3, 2.4330395e+2, -563962.2, -728604.6, 87928.734, -0.016144967, 0.03714583, -525833.25, 29776.98, 0.0, 10.000578, 9.998356 
2.5623012e+3, 2.5329107e+2, -403680.03, -641850.5, 81821.52, -0.054704577, -0.31440622, -378279.78, 79455.64, 0.0, 10.001205, 9.997964 
2.5618973e+3, 2.632807e+2, -215307.36, -375733.7, 2290.7366, -0.060068946, -0.3632391, -215274.66, 144560.77, 0.0, 10.001298, 9.999071 
2.5614917e+3, 2.732743e+2, -112587.09, -251484.98, 362.56448, -0.14208685, -0.19593462, -112586.15, 149309.58, 0.0, 10.001233, 9.999277 
2.5610867e+3, 2.8326684e+2, -264429.28, -481831.1, 41764.652, -0.2093464, 0.03852135, -256682.02, -92709.73, 0.0, 10.000381, 9.997452 
2.5606838e+3, 2.932577e+2, -497038.4, -588448.3, 56571.813, -0.12996955, 0.14393122, -470015.7, -403940.3, 0.0, 9.998313, 9.997029 
2.560283e+3, 3.032481e+2, -349303.66, -82379.01, -33086.29, 0.19531515, 0.14974011, -78338.99, -78338.99, 0.0, 9.997272, 10.000682 
2.5598684e+3, 3.132423e+2, -361594.0, -372.31766, 116018.87, -0.6927269, 0.15572985, 33680.887, 33680.887, 0.0, 9.996803, 10.001428 
2.5775698e+3, 1.2381226e+2, -1747017.8, -1702763.0, 155797.55, -0.13116013, -0.05840206, -1567529.4, 159094.81, 0.23823552, 9.99969, 10.0003195 
2.5771677e+3, 1.3380332e+2, -1545176.9, -1726202.8, 133589.31, 0.19358942, -0.0864762, -1474324.8, 154387.89, 0.16394834, 10.001312, 9.998573 
2.5767592e+3, 1.4379413e+2, -1397182.4, -1581362.9, 20540.77, 0.03416162, -0.015417641, -1394919.4, 135884.84, 0.09188186, 10.00142, 9.99882 
2.5763452e+3, 1.5378425e+2, -1467364.6, -1589905.0, -9116.125, -0.47782344, -0.1372712, -1466690.1, -33786.92, 0.03784501, 10.000236, 9.998681 
2.575937e+3, 1.63775e+2, -1363142.0, -1245986.4, 120341.71, -0.567874, -0.1748016, -1170722.9, 164271.05, 0.009625426, 9.999316, 10.000771 
2.575537e+3, 1.7376666e+2, -1221356.4, -1121669.4, 170355.16, -0.13010918, -0.3395917, -994015.7, 243057.67, 0.0010124295, 9.999575, 10.000826 
2.5751328e+3, 1.8375959e+2, -1191331.0, -1196714.8, 42688.24, 0.044608712, -0.22575307, -1151249.9, -12106.589, 0.000009793076, 9.999711, 9.999592 
2.574724e+3, 1.9375363e+2, -1104704.5, -1148749.6, -10640.276, -0.08240466, 0.020153396, -1102268.8, -61063.37, 0.0, 9.999794, 9.999233 
2.5743175e+3, 2.037454e+2, -931764.9, -988978.0, 118023.79, -0.14689603, 0.10073835, -838930.3, 104356.85, 0.0, 10.000183, 9.999467 
2.5739148e+3, 2.137341e+2, -695113.56, -849095.0, 185207.19, -0.13016996, -0.1913307, -571531.9, 273864.4, 0.0, 10.001249, 9.999238 
2.573511e+3, 2.2372465e+2, -484638.13, -650080.0, 1895.1057, -0.06907571, -0.23773445, -484616.44, 262870.78, 0.0, 10.001791, 9.999662 
2.5731045e+3, 2.3371752e+2, -445216.53, -597106.7, -42531.813, 0.09056657, -0.1409091, -434117.9, 215436.11, 0.0, 10.001454, 9.99952 
2.5726986e+3, 2.4370916e+2, -452283.97, -708003.0, 118423.08, 0.06233032, -0.029489202, -405867.63, 145768.48, 0.0, 10.001437, 9.998097 
2.572293e+3, 2.536985e+2, -304162.78, -637372.8, 136897.81, -0.24559732, -0.09699669, -255133.28, 198613.11, 0.0, 10.002001, 9.997645 
2.5718886e+3, 2.636885e+2, -115813.4, -346881.34, 977.0484, -0.36033145, -0.08403653, -115809.266, 240037.44, 0.0, 10.001993, 9.99894 
2.5714844e+3, 2.7367976e+2, -148632.08, -320590.7, -32981.723, -0.20068567, -0.09778465, -142523.19, 115407.03, 0.0, 10.001115, 9.998884 
2.5710788e+3, 2.8367108e+2, -251639.05, -366086.44, -39895.57, -0.20887147, -0.007940136, -239104.53, -79088.8, 0.0, 9.99992, 9.998486 
2.5706717e+3, 2.9366207e+2, -425288.03, -452774.06, 15955.64, -0.3597798, 0.032153796, -417972.72, -355862.75, 0.0, 9.998267, 9.998019 
2.5702703e+3, 3.0365202e+2, -413421.47, -147604.89, 1806.1448, 0.027327258, -0.047666416, -147592.61, -147592.61, 0.0, 9.99688, 10.000446 
2.5698632e+3, 3.1364548e+2, -533518.3, -165828.25, 196724.67, -0.066251956, 0.0010051159, -80415.8, -80415.8, 0.0, 9.995792, 10.000822 
2.5875625e+3, 1.24219e+2, -1769777.8, -1806782.8, 130100.06, -0.087736495, -0.18149847, -1656871.0, 65756.664, 0.21373183, 9.999785, 9.999436 
2.58716e+3, 1.3421021e+2, -1700414.5, -1788432.8, 111688.336, 0.1857778, -0.2309015, -1624377.5, 340.79004, 0.14603193, 9.999905, 9.998816 
2.5867522e+3, 1.4420146e+2, -1635464.0, -1706334.6, -7373.3013, 0.112932414, -0.13476999, -1634705.0, -107896.695, 0.080827504, 9.999716, 9.99877 
2.5863385e+3, 1.5419295e+2, -1564815.6, -1667974.6, -52637.273, -0.31845438, -0.09810952, -1542698.9, -113802.375, 0.032553293, 9.999715, 9.998384 
2.5859293e+3, 1.6418405e+2, -1309460.5, -1244730.6, 122509.77, -0.46124983, -0.08404076, -1150382.8, 180602.44, 0.007938516, 9.999759, 10.0005665 
2.5855282e+3, 1.7417468e+2, -1237554.1, -1172964.6, 93105.195, -0.15730223, -0.329505, -1106712.3, 126362.06, 0.00076767127, 9.999638, 10.000452 
2.5851244e+3, 1.8416709e+2, -1126964.9, -1207058.0, 13867.666, 0.015931634, -0.23882549, -1124631.8, 10517.023, 0.000005913737, 10.0003195, 9.999231 
2.5847164e+3, 1.9416185e+2, -888899.0, -1092479.6, 27435.715, -0.06711128, 0.100059405, -885266.44, 151938.67, 0.0, 10.001504, 9.99878 
2.5843108e+3, 2.0415354e+2, -741618.3, -955412.0, 180023.38, -0.1007215, 0.22861198, -639146.2, 300142.13, 0.0, 10.00175, 9.998933 
2.5839087e+3, 2.1414037e+2, -816060.94, -961090.44, 128799.52, -0.051831063, -0.22496657, -740766.0, 100647.08, 0.0, 10.000647, 9.998757 
2.5835046e+3, 2.2412962e+2, -715069.1, -824812.94, -89690.46, 0.003506413, -0.35699293, -664796.8, 78718.24, 0.0, 10.000596, 9.999018 
2.5830975e+3, 2.3412205e+2, -501393.56, -709082.7, -140085.45, 0.076023616, -0.2515678, -430860.3, 214727.48, 0.0, 10.001535, 9.9987 
2.5826913e+3, 2.4411431e+2, -519954.25, -759592.75, 36855.605, 0.023997592, -0.030400181, -514414.06, 33252.484, 0.0, 10.001141, 9.997848 
2.5822854e+3, 2.5410557e+2, -777683.6, -892206.8, 71093.414, -0.3029622, 0.07529636, -743659.06, -293897.56, 0.0, 9.99894, 9.997339 
2.5818804e+3, 2.640958e+2, -716430.2, -669237.75, -29258.95, -0.42578408, 0.14557059, -655245.9, -303384.53, 0.0, 9.998053, 9.998629 
2.5814766e+3, 2.740851e+2, -580752.56, -573787.44, -26806.438, -0.2001934, -0.053874157, -550238.3, -296274.78, 0.0, 9.9984255, 9.998421 
2.5810707e+3, 2.8407592e+2, -348360.3, -313064.03, -25805.523, -0.1583256, -0.020450812, -299449.06, -143397.89, 0.0, 9.998914, 9.999292 
2.5806615e+3, 2.9406732e+2, -241030.95, -267970.6, -18807.436, -0.46881652, -0.07282541, -231367.33, -173233.13, 0.0, 9.9992075, 9.9988 
2.5802577e+3, 3.0405593e+2, -185004.11, -91328.375, -55367.258, -0.15272145, -0.29846075, -65645.08, -65645.08, 0.0, 9.998765, 9.999903 
2.579862e+3, 3.1405377e+2, -184761.61, 304522.5, -137663.5, 0.9313166, 0.22218874, 340595.56, 340595.56, 0.0, 9.99698, 10.003491 
2.5975558e+3, 1.24624e+2, -1966174.3, -1911362.6, -17344.059, 0.040222205, -0.43384525, -1906335.5, -187688.19, 0.19077115, 9.998527, 9.999269 
2.59715e+3, 1.3461636e+2, -1740034.1, -1762153.0, 105154.305, -0.019020287, -0.41472325, -1645359.4, -24629.16, 0.12932457, 9.999487, 9.999198 
2.596743e+3, 1.4460793e+2, -1652360.4, -1705117.5, -38508.313, 0.015625527, -0.30750695, -1632062.1, -109241.984, 0.07062259, 9.999611, 9.998813 
2.5963345e+3, 1.5460068e+2, -1557289.5, -1670572.3, -34874.816, 0.08249379, -0.1366915, -1547414.0, -122515.87, 0.027766839, 9.999825, 9.998299 
2.5959256e+3, 1.6459304e+2, -1333974.1, -1321313.9, 125015.09, -0.074945055, 0.035454012, -1202468.8, 124508.695, 0.0064744665, 9.99989, 9.999968 
2.595518e+3, 1.7458484e+2, -1276021.8, -1280969.9, 118439.766, -0.3723637, -0.011757339, -1160030.1, 69029.46, 0.0005723583, 9.99974, 9.999673 
2.5951132e+3, 1.8457647e+2, -1051796.4, -1070734.8, 64445.344, -0.34699154, 0.0043652346, -996128.25, 135011.03, 0.0000035552432, 10.00041, 10.00012 
2.5947106e+3, 1.9456771e+2, -774098.56, -928863.94, 110310.42, -0.01699593, -0.09633553, -716735.3, 316483.75, 0.0, 10.001802, 9.99977 
2.5943074e+3, 2.0455793e+2, -794392.2, -1158190.8, 159321.8, 0.13829748, -0.088712625, -734484.1, 200830.23, 0.0, 10.002144, 9.997361 
2.5939038e+3, 2.1454653e+2, -865890.0, -1194560.9, 104356.14, 0.13549499, -0.16090195, -835555.6, 1875.509, 0.0, 10.001155, 9.996944 
2.5934973e+3, 2.2453617e+2, -679981.6, -868141.1, -65104.22, -0.022193976, -0.13599674, -659651.8, 79884.125, 0.0, 10.001072, 9.998493 
2.5930876e+3, 2.3452702e+2, -416805.66, -737148.7, -82741.73, -0.34997898, -0.11754945, -396696.53, 244930.72, 0.0, 10.002353, 9.99813 
2.5926813e+3, 2.4451813e+2, -399641.1, -636173.5, -79616.26, -0.33588222, -0.012545425, -375339.28, 168378.14, 0.0, 10.001609, 9.99849 
2.5922793e+3, 2.5450915e+2, -803886.06, -832262.6, -42764.313, 0.02150484, 0.021113493, -773017.75, -327207.13, 0.0, 9.998353, 9.998065 
2.591875e+3, 2.6450032e+2, -791834.2, -575984.6, -8393.85, 0.09978757, 0.07875982, -575658.7, -227760.67, 0.0, 9.996962, 9.999793 
2.591468e+3, 2.7449155e+2, -579623.1, -458183.97, 37491.184, -0.041210305, 0.008472477, -447542.1, -197563.27, 0.0, 9.997884, 9.999494 
2.5910634e+3, 2.8448203e+2, -327178.2, -348113.97, 41188.664, -0.04958848, -0.033912133, -295148.03, -143080.86, 0.0, 9.999195, 9.998927 
2.590658e+3, 2.9447106e+2, -34902.8, -226068.08, -7131.4683, -0.022509154, -0.23978916, -34637.13, 19532.867, 0.0, 10.000771, 9.998368 
2.5902537e+3, 3.0446056e+2, 158537.86, -19971.54, -162403.72, 0.19439517, -0.32734355, 254597.4, 254597.4, 0.0, 10.001463, 9.999141 
2.589842e+3, 3.1445262e+2, 195166.06, 206896.64, -72701.5, -0.1946075, -0.2596124, 273969.06, 273969.06, 0.0, 10.000714, 10.001052 
2.6075464e+3, 1.250286e+2, -2137356.8, -1990902.9, -60152.742, 0.117251486, -0.41483104, -1969364.1, -254678.3, 0.16949552, 9.997283, 9.999354 
2.60714e+3, 1.3502187e+2, -1711266.8, -1688123.5, -21509.426, -0.1469936, -0.3691138, -1675270.6, -58512.18, 0.11391175, 9.999391, 9.999775 
2.6067334e+3, 1.4501394e+2, -1474975.9, -1562605.8, -151893.81, -0.14922291, -0.2859472, -1360703.9, 158137.0, 0.061296463, 10.000619, 9.999318 
2.6063275e+3, 1.5500624e+2, -1310308.1, -1509496.8, -142990.45, 0.13968293, -0.22446732, -1235646.0, 185273.77, 0.023481611, 10.001354, 9.99867 
2.6059195e+3, 1.6499859e+2, -1218650.8, -1370766.9, -5189.647, 0.10767644, -0.041898403, -1218473.9, 104525.44, 0.005220199, 10.001118, 9.999063 
2.6055112e+3, 1.7499085e+2, -1379934.6, -1462378.3, -63162.664, -0.21856408, 0.05065808, -1345732.5, -120651.79, 0.00041937284, 9.999565, 9.998544 
2.605106e+3, 1.8498184e+2, -1227610.3, -1174165.6, -64727.664, -0.24332705, 0.048306763, -1130861.1, -3693.66, 0.0000020172258, 9.999258, 9.999976 
2.6047045e+3, 1.9497125e+2, -1064214.5, -1098429.8, -113765.32, 0.07867169, -0.24808225, -966277.75, 62984.418, 0.0, 9.999921, 9.999521 
2.6043016e+3, 2.0496137e+2, -1038733.75, -1240974.9, -42689.83, 0.22857699, -0.27700448, -1030091.9, -98735.16, 0.0, 10.000376, 9.99761 
2.603897e+3, 2.1495193e+2, -1055733.9, -1281306.0, 61577.59, 0.18592681, -0.20109531, -1040018.94, -206563.94, 0.0, 9.999912, 9.996913 
2.6034895e+3, 2.2494264e+2, -787782.56, -944086.75, 79311.62, -0.06943073, -0.047281984, -754588.0, -19036.379, 0.0, 10.000456, 9.998263 
2.6030794e+3, 2.3493321e+2, -617156.06, -882366.44, 78128.586, -0.5399121, -0.03145045, -595851.5, 41797.59, 0.0, 10.001226, 9.997659 
2.6026738e+3, 2.449236e+2, -417279.1, -595462.8, -28979.977, -0.4411299, 0.021206617, -412684.25, 127062.2, 0.0, 10.00133, 9.998897 
2.6022723e+3, 2.5491375e+2, -551428.75, -677205.9, -30826.807, 0.26717907, -0.0777326, -544279.7, -102435.07, 0.0, 10.000009, 9.998323 
2.601868e+3, 2.6490536e+2, -348077.3, -326862.16, 90563.53, 0.41526067, 0.009693243, -246287.1, 97638.2, 0.0, 9.999921, 10.00007 
2.6014593e+3, 2.74898e+2, -187912.69, -265829.44, 65794.93, 0.009049675, 0.03676781, -150407.17, 95585.516, 0.0, 10.000603, 9.999511 
2.6010558e+3, 2.8488764e+2, -192614.88, -358794.44, 47901.535, 0.040888485, -0.052883808, -179796.02, -31708.074, 0.0, 10.000504, 9.998219 
2.6006553e+3, 2.948745e+2, -344150.78, -482610.7, 32475.916, 0.43051946, -0.42374733, -336911.97, -286702.13, 0.0, 9.999206, 9.997347 
2.600249e+3, 3.0486533e+2, -217726.3, -326644.84, -129131.58, 0.4575142, -0.2643877, -132040.02, -132040.02, 0.0, 9.999533, 9.997903 
2.5998336e+3, 3.1485644e+2, -180691.1, -89550.664, 262027.38, -0.29580408, -0.18473518, 130839.63, 130839.63, 0.0, 9.998796, 9.999884 
2.617538e+3, 1.2543358e+2, -1864576.5, -1654586.8, 62647.086, 0.23027925, -0.19584818, -1637317.3, 73408.6, 0.14988421, 9.998302, 10.001219 
2.61713e+3, 1.3542727e+2, -1653020.9, -1607194.0, 73237.82, -0.3196844, -0.18474145, -1553368.9, 59423.133, 0.09979623, 9.999598, 10.000245 
2.6167235e+3, 1.4541936e+2, -1446170.0, -1442007.6, -115454.51, -0.43108493, -0.16804174, -1328615.5, 186254.03, 0.05285716, 10.0003805, 10.000258 
2.6163185e+3, 1.5541005e+2, -1293573.9, -1441762.3, -91994.56, -0.10807824, -0.3437812, -1249545.5, 167411.81, 0.019694533, 10.001207, 9.999214 
2.615913e+3, 1.6540132e+2, -1294253.5, -1522544.5, -60688.273, 0.090428814, -0.24146989, -1279123.1, 39922.836, 0.004163879, 10.001115, 9.997996 
2.615507e+3, 1.7539282e+2, -1437766.6, -1617392.3, -90192.02, 0.15684204, -0.11270312, -1400296.5, -179158.94, 0.00030229846, 9.999737, 9.9973755 
2.6151013e+3, 1.8538322e+2, -1260820.5, -1299329.0, -31742.678, 0.14270383, -0.07032044, -1242948.9, -119714.484, 0.0000010444409, 9.999487, 9.999005 
2.614697e+3, 1.9537242e+2, -1095286.0, -1231339.5, -65577.48, 0.08192929, -0.27165613, -1068824.4, -43486.703, 0.0, 10.000157, 9.998509 
2.614292e+3, 2.0536338e+2, -780119.25, -744909.1, -50960.867, 0.0077072405, -0.34152243, -708598.06, 218823.53, 0.0, 10.000525, 10.000943 
2.6138863e+3, 2.153555e+2, -749820.8, -780142.0, 79152.1, -0.11780983, -0.42257363, -684390.44, 145102.58, 0.0, 10.000446, 10.000095 
2.6134813e+3, 2.253483e+2, -666899.06, -818650.6, 137573.83, -0.18420541, -0.24912876, -585664.4, 145900.58, 0.0, 10.000943, 9.998909 
2.6130763e+3, 2.3534147e+2, -485625.44, -755513.7, 159274.42, -0.22396643, -0.0061568464, -411815.5, 221823.0, 0.0, 10.001762, 9.998303 
2.61267e+3, 2.4533224e+2, -318441.78, -527373.06, -6443.102, -0.15813816, 0.041388117, -318243.28, 217488.03, 0.0, 10.001887, 9.999104 
2.6122636e+3, 2.5532097e+2, -317480.47, -554753.25, 13260.884, 0.03458709, -0.18557023, -316741.63, 121098.98, 0.0, 10.001507, 9.998464 
2.6118574e+3, 2.6531163e+2, -135501.1, -385296.8, 169926.63, 0.0031732966, -0.13130139, -49509.1, 290424.3, 0.0, 10.001998, 9.998699 
2.6114514e+3, 2.7530375e+2, 90770.51, -283270.44, 115134.41, -0.25204733, 0.019027773, 123369.23, 365382.53, 0.0, 10.003063, 9.9982395 
2.6110482e+3, 2.8529328e+2, 96859.49, -113176.65, -29815.99, -0.088368654, -0.07338408, 101010.05, 245122.22, 0.0, 10.002, 9.999191 
2.610646e+3, 2.9528072e+2, -270316.2, -339882.72, 11331.431, 0.39382732, -0.4425462, -268517.0, -222290.69, 0.0, 9.999196, 9.998343 
2.610238e+3, 3.0527297e+2, -327723.0, -354159.53, 8370.63, 0.27297652, -0.20094204, -325295.5, -325295.5, 0.0, 9.998526, 9.99824 
2.6098272e+3, 3.152628e+2, -164809.16, -135102.22, 100127.47, -0.052088194, -0.2453956, -48732.49, -48732.49, 0.0, 9.998922, 9.999542 
2.627529e+3, 1.2583622e+2, -1240434.8, -1424310.1, 81616.12, -0.042099584, -0.42950344, -1209434.5, 497342.53, 0.13183987, 10.003346, 10.0005665 
2.627124e+3, 1.3583225e+2, -1529699.9, -1607242.6, 6379.42, -0.15992737, -0.107625715, -1529178.5, 79646.13, 0.08692974, 10.000728, 9.999684 
2.6267177e+3, 1.4582472e+2, -1465290.1, -1460690.1, -126432.31, -0.19942325, -0.031138673, -1336536.9, 174362.64, 0.045284748, 10.000164, 10.000297 
2.6263118e+3, 1.558146e+2, -1315452.9, -1451180.6, -153871.84, -0.06407005, -0.29304215, -1215144.0, 197850.34, 0.01638905, 10.000971, 9.999317 
2.625906e+3, 1.6580507e+2, -1194546.5, -1495182.9, -110479.12, 0.049376883, -0.27784356, -1158313.9, 156775.11, 0.0032885466, 10.001876, 9.997838 
2.6254997e+3, 1.7579578e+2, -1032122.5, -1447255.0, -93897.55, 0.15927194, -0.20586152, -1011871.94, 205313.78, 0.00021471751, 10.002612, 9.997184 
2.6250944e+3, 1.857863e+2, -920003.8, -1148797.3, 18236.39, 0.18893892, -0.13808069, -918559.4, 200723.39, 0.00000047553752, 10.0019045, 9.998866 
2.6246893e+3, 1.9577654e+2, -1201775.5, -1306114.3, 30839.885, 0.13564362, -0.21125145, -1193341.8, -171960.73, 0.0, 9.999575, 9.998268 
2.6242837e+3, 2.0576805e+2, -833700.25, -665754.1, 32119.104, -0.017255928, -0.2487286, -659821.06, 263638.94, 0.0, 9.999707, 10.001888 
2.6238778e+3, 2.157606e+2, -644801.25, -625225.8, -31686.451, -0.21530604, -0.40489694, -601849.9, 223673.89, 0.0, 10.000747, 10.001021 
2.6234737e+3, 2.257539e+2, -635383.7, -703611.1, -27781.508, -0.21939892, -0.28908202, -625502.44, 102083.77, 0.0, 10.000782, 9.99976 
2.6230708e+3, 2.3574778e+2, -837757.6, -863498.9, 7797.8276, -0.04975135, -0.08911207, -835579.7, -205931.06, 0.0, 9.999151, 9.998809 
2.622664e+3, 2.4573866e+2, -664946.7, -706347.06, -115516.38, -0.04556107, -0.059170906, -568290.44, -36552.793, 0.0, 9.999629, 9.998933 
2.6222545e+3, 2.5572687e+2, -522273.63, -712451.1, -110087.36, -0.16448927, -0.33838272, -471893.84, -38043.88, 0.0, 10.000409, 9.997898 
2.6218483e+3, 2.6571727e+2, -427246.28, -619160.0, 106898.266, -0.26804417, -0.25588584, -379554.4, -43606.023, 0.0, 10.0004425, 9.997804 
2.6214445e+3, 2.7570924e+2, -547170.8, -716798.94, 116292.61, -0.36789513, -0.056945313, -488049.5, -250013.06, 0.0, 9.999297, 9.997048 
2.62104e+3, 2.8569952e+2, -239289.34, -159648.88, -80927.72, -0.19693162, -0.068516225, -109275.17, 30855.332, 0.0, 9.999278, 10.000152 
2.6206356e+3, 2.956881e+2, -293230.13, -290487.6, -43159.1, 0.22046782, -0.44240755, -248677.97, -206444.56, 0.0, 9.998851, 9.99884 
2.620227e+3, 3.056817e+2, -261458.92, -265260.22, 16144.642, 0.14401624, -0.1076755, -247103.44, -247103.44, 0.0, 9.998834, 9.998675 
2.619813e+3, 3.1567144e+2, -398087.8, -386674.97, 194042.36, -0.6032355, -0.21756957, -198255.14, -198255.14, 0.0, 9.998096, 9.99819 
2.63752e+3, 1.2623876e+2, -1480942.9, -1660457.4, -27179.387, -0.47349143, -0.6918692, -1476918.1, 225907.61, 0.11528824, 10.002101, 9.999265 
2.6371196e+3, 1.3623652e+2, -1670102.6, -1828715.4, -50702.035, 0.11024334, -0.08465942, -1655280.4, -50418.023, 0.07524984, 10.000379, 9.998331 
2.636714e+3, 1.4622958e+2, -1481742.4, -1475309.9, -74367.26, 0.17777054, 0.122657396, -1404089.3, 102845.82, 0.038529176, 10.000147, 10.000156 
2.636306e+3, 1.5621938e+2, -1315245.6, -1456277.1, -85314.555, 0.018186396, -0.13973208, -1275077.0, 133956.94, 0.013527696, 10.001047, 9.999217 
2.635898e+3, 1.6620933e+2, -1130100.4, -1383136.6, -66386.31, -0.1269667, -0.20656104, -1113741.0, 197390.14, 0.0025719018, 10.001984, 9.998552 
2.6354906e+3, 1.7619942e+2, -984412.0, -1339222.8, -38807.64, -0.2804139, -0.26231807, -980216.94, 233010.53, 0.00015054179, 10.002564, 9.997946 
2.6350853e+3, 1.86191e+2, -882086.7, -1064509.9, -57296.234, -0.13650806, -0.1566223, -865583.8, 249729.7, 0.0000001940375, 10.001886, 9.999451 
2.6346812e+3, 1.961833e+2, -1146534.9, -1225306.8, -1586.8124, 0.11823957, -0.07582708, -1146503.0, -129108.18, 0.0, 9.999686, 9.998776 
2.634277e+3, 2.0617557e+2, -934470.0, -908474.44, 98733.49, 0.11170319, 0.028998258, -821886.9, 97585.516, 0.0, 9.999869, 10.000126 
2.633873e+3, 2.1616787e+2, -628207.06, -773972.06, 25821.219, -0.08827281, 0.032135006, -623768.2, 197778.36, 0.0, 10.001501, 9.999639 
2.6334664e+3, 2.2615872e+2, -476529.5, -474034.0, -108253.84, -0.26172325, -0.109863706, -367020.72, 356606.97, 0.0, 10.001171, 10.001167 
2.6330587e+3, 2.3614898e+2, -691337.75, -645919.25, -55261.97, -0.42508864, -0.39685822, -608882.44, 16829.094, 0.0, 9.999457, 10.000172 
2.6326525e+3, 2.461393e+2, -691512.0, -766723.9, -95976.03, -0.32869595, -0.46531832, -626037.4, -98235.65, 0.0, 9.999601, 9.998542 
2.6322475e+3, 2.5612935e+2, -453835.38, -675246.6, -89252.77, -0.10773639, -0.5188848, -422337.66, 7560.759, 0.0, 10.000793, 9.997973 
2.6318425e+3, 2.661208e+2, -378638.53, -449308.47, 12833.301, -0.040474452, -0.4144799, -376380.22, -44391.95, 0.0, 10.000088, 9.999164 
2.6314378e+3, 2.7611324e+2, -613176.6, -578219.25, 69621.13, -0.06676997, -0.2747376, -523916.28, -289844.2, 0.0, 9.998023, 9.9986315 
2.6310322e+3, 2.861065e+2, -334412.88, -143604.44, -8344.099, 0.0117968945, -0.09832118, -143240.25, -7099.6895, 0.0, 9.998243, 10.000803 
2.6306266e+3, 2.9609975e+2, -75754.33, -85163.805, 19650.035, 0.16429286, -0.044571303, -60253.664, -22050.176, 0.0, 9.999792, 9.999837 
2.6302183e+3, 3.0608952e+2, -109196.555, -250631.56, -13793.271, 0.13900346, -0.12160267, -107863.94, -107863.94, 0.0, 10.000038, 9.998254 
2.6298094e+3, 3.1608206e+2, -169173.61, 58604.793, -110793.336, 0.0137676615, 0.13093613, 103605.22, 103605.22, 0.0, 9.998027, 10.001359 
2.6475152e+3, 1.266467e+2, -1568411.5, -1692471.4, -87584.38, -0.33965012, -0.39129275, -1523116.1, 175717.7, 0.10017185, 10.00125, 9.999504 
2.647112e+3, 1.366399e+2, -1605896.3, -1750934.4, -67504.945, 0.1330543, -0.23962365, -1579339.9, 21567.541, 0.06469282, 10.000662, 9.998718 
2.6467064e+3, 1.4663255e+2, -1356978.0, -1468575.6, 18113.725, 0.2031474, -0.068474576, -1354111.5, 148871.86, 0.032530583, 10.001261, 9.999644 
2.6463e+3, 1.5662405e+2, -1193076.6, -1449685.9, -33006.086, 0.071860306, -0.09904122, -1188899.3, 216169.1, 0.011066901, 10.002108, 9.998744 
2.645892e+3, 1.6661413e+2, -1116483.8, -1336290.1, -53908.83, -0.10484327, -0.15684488, -1103974.1, 203189.67, 0.0019930317, 10.0018835, 9.998924 
2.6454836e+3, 1.7660357e+2, -1286652.1, -1483100.3, -64304.395, -0.30129847, -0.30209512, -1267475.1, -58211.17, 0.00010503105, 10.000458, 9.997994 
2.645078e+3, 1.8659522e+2, -1048709.3, -1197768.8, -122337.56, -0.18365827, -0.17249328, -979986.94, 131364.38, 0.00000008640195, 10.00104, 9.998899 
2.644674e+3, 1.9658808e+2, -841151.75, -1146489.1, -173208.97, 0.12799688, 0.006274649, -762932.9, 250498.47, 0.0, 10.0021105, 9.998145 
2.6442698e+3, 2.0658073e+2, -825842.8, -899235.9, -6446.3877, 0.14767858, 0.1752208, -825280.9, 90226.36, 0.0, 10.000823, 9.999737 
2.6438656e+3, 2.1657316e+2, -1218729.5, -1125724.1, 11565.275, 0.015832974, 0.23192275, -1124307.6, -306725.16, 0.0, 9.9977455, 9.999058 
2.6434582e+3, 2.2656323e+2, -862990.0, -599713.44, -108284.15, -0.23690297, 0.0032608302, -560899.1, 158770.45, 0.0, 9.998271, 10.00168 
2.6430485e+3, 2.3655197e+2, -726372.4, -641356.1, -131028.56, -0.5539277, -0.50523007, -546112.94, 75649.98, 0.0, 9.999159, 10.000344 
2.6426435e+3, 2.4654225e+2, -600630.9, -701479.56, -97992.914, -0.419657, -0.60248125, -540849.8, -16998.783, 0.0, 10.000173, 9.998706 
2.6422408e+3, 2.5653335e+2, -566965.9, -726027.75, -55018.875, -0.008452871, -0.5780378, -549789.75, -123852.29, 0.0, 10.0000515, 9.997989 
2.641836e+3, 2.6652557e+2, -345243.56, -271001.1, -19732.63, 0.13634492, -0.47446465, -266082.3, 61936.293, 0.0, 9.999696, 10.000545 
2.64143e+3, 2.765184e+2, -583098.56, -467334.78, 36768.71, 0.14596587, -0.44714546, -456643.72, -226545.94, 0.0, 9.997887, 9.999456 
2.6410243e+3, 2.865139e+2, -294267.97, -74765.266, 55050.887, 0.1828004, -0.10862973, -61732.418, 70414.15, 0.0, 9.998383, 10.001172 
2.6406178e+3, 2.9651082e+2, -176341.98, -136515.63, 53036.44, 0.14726643, 0.25748122, -99777.24, -65598.49, 0.0, 9.999196, 9.999755 
2.6402086e+3, 3.0649626e+2, -137547.03, -282450.63, -18218.416, -0.0078814775, -0.24403544, -135291.58, -135291.58, 0.0, 10.000022, 9.997973 
2.639802e+3, 3.1648543e+2, -190016.08, -29763.904, -159139.11, 0.2663886, -0.3270856, 68282.52, 68282.52, 0.0, 9.99836, 10.000532 
2.6575103e+3, 1.2705627e+2, -1637580.0, -1625591.0, -94801.82, -0.17138687, 0.09368741, -1536594.4, 158235.05, 0.086430125, 10.000384, 10.000348 
2.657103e+3, 1.3704254e+2, -1508230.4, -1653504.3, -33677.39, -0.08190525, -0.5475857, -1500803.0, 96155.51, 0.055199515, 10.001175, 9.999131 
2.6566976e+3, 1.4703459e+2, -1366607.0, -1543619.4, 64112.66, -0.024465168, -0.41798228, -1345825.6, 153212.31, 0.027235242, 10.001538, 9.998972 
2.6562938e+3, 1.5702876e+2, -1278317.6, -1559492.3, 19061.584, 0.01604573, -0.1120481, -1277031.3, 124068.125, 0.0089680515, 10.001823, 9.998119 
2.6558867e+3, 1.670193e+2, -1124723.4, -1313085.1, -83593.96, -0.010201409, -0.109592505, -1092975.8, 210215.06, 0.0015322798, 10.001771, 9.999106 
2.6554784e+3, 1.7700812e+2, -1273761.1, -1492510.1, -62625.59, -0.100855835, -0.3266198, -1257101.0, -51804.188, 0.00007382683, 10.00062, 9.997845 
2.6550722e+3, 1.8699875e+2, -1138190.0, -1437538.9, -51612.79, -0.07968592, -0.18772607, -1129541.0, -22142.3, 0.000000036839044, 10.001261, 9.997153 
2.6546672e+3, 1.9699027e+2, -848774.06, -1257444.9, -125415.586, -0.02251353, 0.031892486, -813355.4, 196141.92, 0.0, 10.002495, 9.997197 
2.654261e+3, 2.0698243e+2, -707258.5, -684143.75, -121286.41, -0.031768706, 0.10256584, -573865.3, 337709.53, 0.0, 10.000972, 10.001127 
2.6538545e+3, 2.1697494e+2, -1098728.3, -938294.25, -42909.902, -0.11887287, 0.039700206, -927538.56, -113896.2, 0.0, 9.9979725, 10.000236 
2.6534492e+3, 2.269672e+2, -913789.75, -714614.7, -27046.215, -0.16328925, 0.023314696, -711007.4, 4706.4067, 0.0, 9.99827, 10.000905 
2.653044e+3, 2.3695911e+2, -590201.44, -603344.75, -60705.125, -0.21786812, -0.08105302, -535713.3, 82074.5, 0.0, 10.000134, 10.000152 
2.6526386e+3, 2.469502e+2, -380821.78, -406732.72, -84670.08, -0.15687256, -0.18636599, -308121.72, 211747.53, 0.0, 10.000829, 10.000432 
2.6522335e+3, 2.569411e+2, -318712.94, -392999.97, -17575.574, -0.03522176, -0.3318229, -314764.6, 107188.24, 0.0, 10.0007715, 9.999937 
2.651826e+3, 2.6693434e+2, -201842.72, -79919.86, -25813.16, -0.05082781, -0.27686942, -74679.97, 249338.88, 0.0, 10.000088, 10.001692 
2.6514184e+3, 2.769285e+2, -316693.22, -191519.38, 40558.793, -0.07872163, -0.20716256, -179526.56, 46551.367, 0.0, 9.998979, 10.000849 
2.651014e+3, 2.86921e+2, -173044.6, -59480.176, 113210.36, 0.051119022, -0.20923376, 10389.914, 138541.86, 0.0, 9.999307, 10.000887 
2.6506093e+3, 2.969133e+2, 8327.863, -6095.7656, 79976.2, 0.10349079, -0.25419778, 81416.76, 111643.51, 0.0, 10.000181, 10.000199 
2.6501992e+3, 3.0690515e+2, 61627.125, 69258.77, -2132.5073, -0.14046559, -0.26759025, 69814.23, 69814.23, 0.0, 10.000216, 10.000331 
2.6497948e+3, 3.1690198e+2, 47744.47, -79282.83, 75891.6, 0.34268326, 0.25308287, 83193.02, 83193.02, 0.0, 10.000549, 9.99918 
2.6675022e+3, 1.2746094e+2, -1663642.1, -1741701.8, 38839.41, -0.22694899, -0.06186808, -1647609.9, 43253.086, 0.07399981, 10.000564, 9.999398 
2.6670972e+3, 1.3744935e+2, -1112480.8, -1568327.9, -41744.383, -0.15156889, -0.38662735, -1108689.5, 484286.63, 0.046711504, 10.004421, 9.998182 
2.6666918e+3, 1.4744028e+2, -1093632.5, -1478423.1, -63605.176, -0.08796459, -0.30209163, -1083391.3, 411675.38, 0.022592498, 10.003702, 9.99842 
2.666287e+3, 1.5743276e+2, -1428810.6, -1668858.4, -106606.195, 0.017407669, -0.108746246, -1388302.3, 8840.897, 0.0071954923, 10.000893, 9.99786 
2.66588e+3, 1.6742341e+2, -1169267.3, -1301351.9, -127931.0, 0.004956892, -0.11534755, -1091337.6, 207894.98, 0.001170623, 10.00129, 9.999449 
2.6654723e+3, 1.7741315e+2, -1015633.06, -1352249.0, -106966.45, -0.031765234, -0.27753165, -984518.4, 216810.86, 0.00005271245, 10.0023365, 9.997992 
2.6650658e+3, 1.874035e+2, -1040853.25, -1420785.8, -4558.402, -0.0619865, -0.15906982, -1040798.56, 62634.813, 0.000000014947995, 10.002048, 9.996908 
2.6646605e+3, 1.9739428e+2, -1150523.3, -1421677.1, 4198.5796, -0.05694865, 0.02655834, -1150458.3, -144919.3, 0.0, 10.000533, 9.997024 
2.6642528e+3, 2.073858e+2, -703361.25, -624387.75, -47178.3, -0.10369799, 0.010868244, -602352.2, 305267.75, 0.0, 10.0008, 10.00158 
2.6638448e+3, 2.1737783e+2, -757228.8, -771905.06, -44746.54, -0.14605717, -0.13847245, -719222.7, 90465.914, 0.0, 10.000395, 10.000178 
2.663441e+3, 2.2737129e+2, -753492.56, -715854.75, 32514.514, -0.06759346, 0.011273347, -697105.8, 14648.225, 0.0, 9.999787, 10.000117 
2.6630384e+3, 2.3736519e+2, -919757.06, -819825.0, -20751.773, 0.0865794, 0.16837466, -815687.0, -201868.02, 0.0, 9.998185, 9.999594 
2.6626325e+3, 2.473572e+2, -666822.94, -374373.13, -74486.59, 0.034369502, 0.08627133, -356494.5, 159398.1, 0.0, 9.998185, 10.001918 
2.6622245e+3, 2.5734842e+2, -729462.8, -472426.56, -42306.855, -0.10416322, -0.18083651, -465642.16, -47671.734, 0.0, 9.997521, 10.000947 
2.661816e+3, 2.6734278e+2, -434994.75, -87022.96, -75536.07, -0.19941527, -0.11613838, -71333.37, 248687.66, 0.0, 9.998152, 10.002518 
2.6614076e+3, 2.7733827e+2, -447782.28, -224135.89, -17372.87, -0.22926667, -0.015086326, -222794.4, -732.0889, 0.0, 9.998065, 10.001037 
2.661004e+3, 2.87328e+2, -281006.94, -126822.4, 94420.06, -0.04532049, -0.29657283, -82019.766, 42139.79, 0.0, 9.998759, 10.000625 
2.6606005e+3, 2.9731598e+2, -269713.63, -169500.63, 64142.535, 0.049827166, -0.7593305, -138213.48, -111939.44, 0.0, 9.998523, 9.99985 
2.6601905e+3, 3.0731523e+2, 67347.58, 288680.88, -94182.32, -0.19849901, -0.14658114, 323332.56, 323332.56, 0.0, 9.999398, 10.00219 
2.6597863e+3, 3.17306e+2, -295410.03, -587324.4, 121359.18, 0.2626517, -0.41318753, -251547.44, -251547.44, 0.0, 9.999808, 9.996019 
2.677493e+3, 1.2786396e+2, -1822582.8, -1986186.3, 133593.83, -0.46726444, -0.35275322, -1747735.8, -60825.566, 0.06278203, 10.000292, 9.99782 
2.677093e+3, 1.3785776e+2, -1295887.9, -1830245.5, 39018.754, -0.24523833, 0.011586607, -1293053.8, 295928.56, 0.039146993, 10.003854, 9.99665 
2.676687e+3, 1.4784719e+2, -1196378.8, -1569086.1, -144191.45, -0.13977157, 0.025759058, -1147108.0, 343980.53, 0.018543638, 10.003211, 9.998004 
2.6762795e+3, 1.5783562e+2, -1468460.4, -1701267.6, -115018.06, -0.057602935, -0.14501983, -1421221.3, -28019.602, 0.005710664, 10.000695, 9.997725 
2.6758724e+3, 1.678266e+2, -1133116.1, -1212932.8, -42944.1, -0.108529985, -0.1537848, -1114399.6, 180887.02, 0.0008890518, 10.001252, 10.0000515 
2.6754653e+3, 1.7781827e+2, -952631.0, -1238002.8, -40620.63, -0.23309901, -0.17994273, -946961.56, 250402.75, 0.000037964888, 10.002414, 9.99872 
2.6750588e+3, 1.878092e+2, -929390.75, -1210798.1, -35178.234, -0.19080631, -0.11125497, -925059.8, 174398.13, 0.0000000057994387, 10.00215, 9.998296 
2.674653e+3, 1.9780006e+2, -1033825.44, -1237443.9, 5996.661, -0.11641662, -0.048365876, -1033649.0, -32093.51, 0.0, 10.00076, 9.998178 
2.6742455e+3, 2.0779116e+2, -709183.06, -696299.25, 3774.2483, -0.11754101, -0.1074303, -695275.0, 208362.47, 0.0, 10.001048, 10.000973 
2.6738384e+3, 2.1778244e+2, -600265.94, -750732.4, -8725.279, -0.16970423, -0.26447472, -599761.7, 205952.39, 0.0, 10.001639, 9.999735 
2.6734334e+3, 2.2777492e+2, -711302.44, -785765.94, -14576.483, -0.04682374, -0.14203115, -708550.7, -757.15283, 0.0, 10.000422, 9.999358 
2.6730293e+3, 2.3776792e+2, -852570.8, -789275.8, -47240.992, 0.1147298, 0.015649522, -764061.44, -154189.13, 0.0, 9.998587, 9.999629 
2.6726216e+3, 2.4776077e+2, -633049.4, -245433.89, -74121.38, -0.002296709, -0.05127843, -231743.64, 280195.72, 0.0, 9.997868, 10.002989 
2.6722124e+3, 2.577536e+2, -655348.6, -306370.47, -27457.92, -0.23966083, -0.2461126, -304223.28, 109778.52, 0.0, 9.997376, 10.002182 
2.671806e+3, 2.6774833e+2, -451805.0, -89548.11, -41063.883, -0.16868234, -0.19694501, -84951.61, 231096.8, 0.0, 9.9979515, 10.002623 
2.671401e+3, 2.7774352e+2, -303520.5, -106162.09, -812.2293, 0.03268802, -0.1186396, -106158.75, 111932.586, 0.0, 9.998776, 10.001511 
2.670997e+3, 2.8773504e+2, -245978.95, -74025.52, 72906.77, 0.17349388, -0.25731644, -47275.168, 72898.414, 0.0, 9.998808, 10.00099 
2.6705924e+3, 2.9772547e+2, -242569.75, -127825.12, 54378.895, 0.15203078, -0.490866, -106149.05, -83881.055, 0.0, 9.998479, 10.000192 
2.6701817e+3, 3.0772316e+2, 907.52057, 104429.49, -104520.13, -0.1933356, 0.042409815, 169303.22, 169303.22, 0.0, 9.999515, 10.000912 
2.6697782e+3, 3.177107e+2, -12604.806, -253942.31, 93800.52, 0.16727138, -0.43486226, 19564.543, 19564.543, 0.0, 10.000695, 9.997933 
2.687489e+3, 1.2826832e+2, -1623963.3, -1926863.1, 137148.58, -0.21003427, -0.2841127, -1571092.9, 111857.02, 0.052677616, 10.001656, 9.99768 
2.6870903e+3, 1.3826154e+2, -1315430.4, -1769203.4, 11557.728, -0.048720032, 0.03258301, -1315136.1, 269893.25, 0.03242507, 10.003347, 9.997323 
2.6866817e+3, 1.4825226e+2, -1204620.3, -1397217.0, -165150.58, -0.098270245, 0.034930624, -1109743.1, 377377.13, 0.015032841, 10.002351, 9.999593 
2.6862714e+3, 1.5824187e+2, -1436855.0, -1548973.6, -23136.586, -0.10583174, -0.15935342, -1432268.3, -43050.105, 0.0044764117, 10.000318, 9.998947 
2.6858646e+3, 1.6823323e+2, -1280168.5, -1244265.6, 151666.72, -0.13711816, -0.17633377, -1109491.6, 181807.14, 0.00066900725, 10.000102, 10.000386 
2.6854587e+3, 1.7822519e+2, -1280661.8, -1361885.8, 121825.97, -0.18737683, -0.18286785, -1192856.9, 517.1884, 0.000027210404, 10.000013, 9.999037 
2.6850522e+3, 1.8821606e+2, -1074730.8, -1204648.8, 79518.27, -0.17225459, -0.15584491, -1037011.5, 58453.832, 0.000000001728097, 10.00084, 9.998975 
2.6846457e+3, 1.98207e+2, -979634.4, -1173559.9, 63309.01, -0.08633132, -0.14025821, -960796.44, 36761.203, 0.0, 10.000997, 9.998508 
2.6842391e+3, 2.0819768e+2, -766471.56, -807794.0, 61823.598, -0.06800799, -0.21237198, -721948.1, 177696.9, 0.0, 10.000992, 10.000252 
2.6838323e+3, 2.1818842e+2, -919221.7, -988340.44, 20365.309, -0.05263492, -0.34119207, -913667.5, -111937.6, 0.0, 9.999829, 9.998993 
2.6834258e+3, 2.2818063e+2, -871648.9, -859645.9, 35551.926, 0.016483834, -0.22240244, -829592.44, -125778.766, 0.0, 9.999339, 9.999364 
2.6830196e+3, 2.3817337e+2, -1017672.56, -904621.8, 67284.02, 0.12765776, -0.07550924, -873270.8, -267374.47, 0.0, 9.9976845, 9.999264 
2.682611e+3, 2.4816643e+2, -678336.44, -272166.8, 11738.619, -0.0073666163, -0.10631852, -271827.84, 236135.92, 0.0, 9.997682, 10.002817 
2.6822016e+3, 2.581599e+2, -767086.7, -417029.88, -44639.297, -0.22283721, -0.23537114, -411427.13, -1404.4998, 0.0, 9.996943, 10.001604 
2.6817966e+3, 2.6815405e+2, -475520.1, -126179.28, -62607.785, -0.07502804, -0.21414143, -115297.84, 196776.64, 0.0, 9.997966, 10.002328 
2.6813936e+3, 2.7814832e+2, -433058.53, -229257.84, -54346.246, 0.23927522, -0.22091757, -215671.4, -1545.2134, 0.0, 9.998207, 10.000934 
2.680989e+3, 2.8814167e+2, -269457.0, -59305.25, -30785.836, 0.30523747, -0.18814944, -54888.17, 61305.184, 0.0, 9.998569, 10.001185 
2.680583e+3, 2.9813495e+2, -417628.0, -274693.5, -43394.105, 0.19769879, -0.16373499, -262550.84, -244287.77, 0.0, 9.997631, 9.999577 
2.680173e+3, 3.0813003e+2, -252086.6, -164613.05, -103004.45, -0.17428996, 0.1976887, -96444.4, -96444.4, 0.0, 9.998536, 9.999464 
2.6797694e+3, 3.1811973e+2, -167883.7, 80742.61, 175550.89, 0.033103447, -0.0056691724, 171538.44, 171538.44, 0.0, 9.998097, 10.001413 
2.6974866e+3, 1.2867257e+2, -1506536.0, -1792650.3, 216412.88, 0.08373455, -0.10948656, -1390171.0, 288821.4, 0.043619078, 10.002312, 9.998204 
2.6970878e+3, 1.386632e+2, -1399246.9, -1650289.4, 63526.285, 0.13990898, -0.15247394, -1384087.0, 197007.67, 0.026486209, 10.00212, 9.998696 
2.696676e+3, 1.4865674e+2, -1131315.0, -1065059.9, -207791.56, -0.078722455, -0.09798877, -887771.7, 595381.56, 0.012009438, 10.001592, 10.002255 
2.6962623e+3, 1.5865041e+2, -1320109.5, -1299601.5, -51161.38, -0.26497954, -0.13040492, -1257676.6, 127530.04, 0.003455713, 10.000307, 10.000651 
2.6958567e+3, 1.68642e+2, -1252905.3, -1220870.9, 159288.53, -0.15246639, -0.19955687, -1076796.3, 210487.88, 0.00049606664, 10.000224, 10.000479 
2.6954526e+3, 1.7863321e+2, -1249758.4, -1351036.5, 151444.8, -0.044152036, -0.28537315, -1140710.8, 48655.84, 0.00001910138, 10.000228, 9.999002 
2.695046e+3, 1.8862379e+2, -1047641.44, -1183778.0, 117469.17, -0.080931254, -0.2960559, -979944.1, 111515.164, 0.0000000002885943, 10.000985, 9.999032 
2.694639e+3, 1.9861446e+2, -920093.8, -1160030.1, 99379.625, -0.13863114, -0.30054972, -884277.94, 109274.13, 0.0, 10.0014305, 9.998387 
2.6942328e+3, 2.0860517e+2, -769531.44, -889142.6, 63060.24, -0.0244894, -0.3199651, -742427.3, 153217.56, 0.0, 10.001249, 9.999593 
2.6938263e+3, 2.1859625e+2, -792733.9, -893331.7, 23659.854, 0.09399275, -0.35451975, -787447.1, 10286.629, 0.0, 10.0005, 9.999321 
2.6934174e+3, 2.2858989e+2, -730528.25, -620520.25, 38974.977, 0.04847431, -0.20255299, -608111.44, 91689.51, 0.0, 9.9995365, 10.000927 
2.6930085e+3, 2.3858416e+2, -857907.94, -762644.44, 104549.91, -0.025931811, -0.026081989, -695387.25, -93524.08, 0.0, 9.998449, 9.999871 
2.6926017e+3, 2.485765e+2, -806115.1, -650334.44, 47467.76, 0.06981785, 0.043892965, -637010.25, -133068.08, 0.0, 9.998106, 10.00005 
2.6921952e+3, 2.585683e+2, -727071.56, -594780.7, -27412.74, 0.14171743, 0.031570803, -589325.3, -183300.75, 0.0, 9.997968, 9.999909 
2.6917887e+3, 2.685602e+2, -425028.97, -186284.52, -41997.77, 0.0781826, -0.06608253, -179112.13, 128987.34, 0.0, 9.998596, 10.001653 
2.6913825e+3, 2.785524e+2, -308416.94, -212013.81, -53991.15, 0.030424602, -0.1956689, -187838.34, 22332.717, 0.0, 9.999155, 10.000606 
2.6909766e+3, 2.8854555e+2, -227853.39, -86868.62, -80165.99, -0.01354277, -0.14717382, -50610.07, 61630.64, 0.0, 9.998973, 10.000817 
2.6905704e+3, 2.9853934e+2, -251353.36, -151039.06, -112327.83, -0.08871413, -0.045187213, -78178.81, -63872.613, 0.0, 9.998488, 10.000013 
2.6901647e+3, 3.0853388e+2, -218514.94, -27521.166, -122148.625, 0.0027405377, 0.17010047, 32030.139, 32030.139, 0.0, 9.99813, 10.00065 
2.68976e+3, 3.18525e+2, -213856.88, 107228.71, 166716.27, 0.10598127, 0.028570643, 178134.19, 178134.19, 0.0, 9.997379, 10.001986 
2.7074814e+3, 1.2907775e+2, -885862.4, -1393134.1, 150163.22, -0.13275956, -0.19958587, -844743.8, 830282.56, 0.035549942, 10.006217, 9.999136 
2.707079e+3, 1.3907069e+2, -1746945.9, -1758124.3, 52106.83, 0.03779592, -0.05600146, -1700129.3, -123027.305, 0.021269772, 9.999324, 9.999361 
2.7066675e+3, 1.490637e+2, -1419216.9, -1212050.3, -173801.3, -0.114716955, -0.06565416, -1113306.1, 365858.34, 0.009415533, 9.999571, 10.002251 
2.706255e+3, 1.5905674e+2, -1220725.0, -1283532.6, -156039.39, -0.24571314, -0.15335202, -1092960.8, 288263.47, 0.0026134893, 10.001083, 10.000413 
2.7058497e+3, 1.6904794e+2, -1165454.4, -1261250.8, -48027.234, -0.09254897, -0.22205992, -1145523.0, 137783.67, 0.0003600524, 10.001123, 9.999786 
2.7054462e+3, 1.7903894e+2, -1241506.3, -1342416.9, -88437.3, 0.08983224, -0.2968987, -1190143.6, -4751.4004, 0.000012952271, 10.000283, 9.999032 
2.7050394e+3, 1.8903019e+2, -975464.2, -1030574.9, -47587.004, -0.039862696, -0.34625936, -948030.25, 139444.73, 0.000000000007316074, 10.001015, 10.000054 
2.7046317e+3, 1.9902144e+2, -922071.1, -1120823.5, -15086.793, -0.18616651, -0.3927741, -920932.44, 68626.09, 0.0, 10.001266, 9.998744 
2.7042255e+3, 2.0901334e+2, -905712.5, -959639.06, -38559.383, 0.0033258556, -0.314616, -885624.3, 6018.1885, 0.0, 10.000391, 9.999504 
2.703819e+3, 2.1900554e+2, -1089522.4, -1056040.9, -28818.24, 0.23883988, -0.22960395, -1039453.75, -245729.25, 0.0, 9.998611, 9.999101 
2.703409e+3, 2.2899875e+2, -724706.8, -571276.25, -67356.49, 0.08846708, -0.16232416, -545902.7, 149890.13, 0.0, 9.999447, 10.00125 
2.7029985e+3, 2.3899256e+2, -761860.0, -804440.2, -79820.37, -0.09028779, -0.07243389, -700539.2, -102684.34, 0.0, 9.999532, 9.999054 
2.702593e+3, 2.4898432e+2, -607530.4, -737046.94, -43718.363, 0.13303536, 0.052570798, -594154.6, -94213.74, 0.0, 10.00029, 9.998375 
2.7021885e+3, 2.5897554e+2, -620512.9, -745545.56, 980.0262, 0.41034523, 0.13503812, -620505.2, -218472.02, 0.0, 9.999673, 9.998024 
2.70178e+3, 2.689659e+2, -377961.1, -273610.9, -10578.125, 0.12405155, 0.0068072765, -272549.4, 31576.371, 0.0, 9.999466, 10.000596 
2.7013707e+3, 2.7895656e+2, -511516.6, -420661.06, -56009.0, -0.23835737, -0.18373533, -393973.0, -187758.81, 0.0, 9.998347, 9.99955 
2.7009648e+3, 2.8894958e+2, -278141.28, -138653.53, -81880.7, -0.28571144, -0.10273226, -100839.7, 7446.141, 0.0, 9.9988575, 10.000477 
2.700559e+3, 2.989433e+2, -307368.0, -193539.25, -95091.55, -0.28834468, 0.019748567, -139631.03, -129279.1, 0.0, 9.998271, 9.99982 
2.7001554e+3, 3.0893716e+2, -155788.95, 142147.6, -146363.23, 0.09377373, 0.07624919, 202018.34, 202018.34, 0.0, 9.998052, 10.001825 
2.6997468e+3, 3.1892887e+2, -412347.72, -82826.16, 83288.68, -0.17239593, -0.10986328, -62970.797, -62970.797, 0.0, 9.996603, 10.001034 
2.7174753e+3, 1.2948412e+2, -1173560.8, -1406374.0, -92611.71, -0.58099693, -0.26196915, -1141214.4, 529833.75, 0.028414954, 10.00368, 10.000224 
2.7170673e+3, 1.3948071e+2, -1704256.0, -1746844.4, -45997.86, -0.2911401, 0.14912432, -1674862.5, -101778.79, 0.016713178, 9.999732, 9.999212 
2.7166578e+3, 1.4947148e+2, -1445071.8, -1386017.3, -73813.67, -0.2470191, 0.023490395, -1336044.1, 139125.28, 0.0071980846, 10.000158, 10.00072 
2.7162486e+3, 1.5946142e+2, -1322233.1, -1496306.0, -83619.41, -0.23538764, -0.21664818, -1288573.5, 88688.88, 0.0019202423, 10.001134, 9.998908 
2.7158436e+3, 1.6945192e+2, -1242657.5, -1426234.5, -33355.035, -0.049459215, -0.22834423, -1236784.9, 42570.82, 0.00025324232, 10.00118, 9.998616 
2.715439e+3, 1.7944273e+2, -1203688.3, -1290924.4, -61139.164, 0.08698566, -0.22557284, -1172202.9, 9243.067, 0.000008369746, 10.000389, 9.999335 
2.7150315e+3, 1.8943517e+2, -832339.5, -732006.3, 6711.5493, -0.116030455, -0.31085128, -731559.4, 351953.94, 0.0, 10.00102, 10.002099 
2.7146235e+3, 1.9942814e+2, -782058.7, -871471.3, -4658.346, -0.3489366, -0.37328374, -781816.6, 203759.08, 0.0, 10.001435, 10.000377 
2.714217e+3, 2.0942235e+2, -839556.06, -849836.3, -77157.56, -0.056995027, -0.15513065, -767367.6, 120269.6, 0.0, 10.000503, 10.000217 
2.7138102e+3, 2.1941623e+2, -990757.25, -1005551.9, -25805.97, 0.23888734, 0.053501338, -971309.3, -181606.3, 0.0, 9.999231, 9.99916 
2.7134007e+3, 2.2940554e+2, -767766.3, -781943.9, -28516.219, 0.08836703, -0.14249803, -745471.0, -53664.56, 0.0, 9.999921, 9.999609 
2.712991e+3, 2.3939475e+2, -557687.25, -719286.75, -72946.125, -0.12229768, -0.36362877, -529630.5, 64279.098, 0.0, 10.000924, 9.998973 
2.7125853e+3, 2.4938653e+2, -343505.56, -454144.56, -36814.348, 0.030440263, -0.3300726, -332375.53, 163614.06, 0.0, 10.001391, 9.999808 
2.7121794e+3, 2.5937873e+2, -340915.34, -569348.25, 17798.197, 0.19304799, -0.24880205, -339536.94, 58530.15, 0.0, 10.001353, 9.998422 
2.7117693e+3, 2.693692e+2, -394914.63, -522780.5, -36642.188, -0.14433661, -0.22781257, -385158.56, -84993.01, 0.0, 10.000312, 9.998509 
2.7113593e+3, 2.7935976e+2, -426893.78, -432322.8, -74983.94, -0.48143974, -0.23832166, -354575.25, -152312.48, 0.0, 9.999095, 9.999105 
2.7109575e+3, 2.8935337e+2, -155107.14, -6292.3936, -50617.76, -0.13325855, -0.12381226, 9292.538, 113620.86, 0.0, 9.999374, 10.001152 
2.7105543e+3, 2.9934734e+2, -68420.305, -28146.5, -77162.65, 0.1261312, -0.017528329, 31463.506, 37853.313, 0.0, 9.999609, 10.000326 
2.7101406e+3, 3.0933928e+2, -117408.54, 77840.38, -194017.78, -0.41329446, -0.09997791, 197410.38, 197410.38, 0.0, 9.998587, 10.001185 
2.7097356e+3, 3.1933287e+2, -390854.84, -224082.45, 54484.71, -0.22236939, 0.014578619, -207860.22, -207860.22, 0.0, 9.997279, 9.999782 
2.727471e+3, 1.298964e+2, -1737615.5, -1701632.0, 84958.016, -0.29629743, -0.08359583, -1632781.5, 34223.43, 0.022191074, 9.999679, 10.000154 
2.7270627e+3, 1.3988902e+2, -1187918.8, -1573441.3, 24513.55, -0.11733746, 0.00012316389, -1186366.3, 382709.5, 0.012784307, 10.003554, 9.998605 
2.726653e+3, 1.4987887e+2, -1036424.25, -1363061.5, -145.11864, -0.12692401, -0.08959709, -1036424.2, 434749.16, 0.00532732, 10.003677, 9.999224 
2.7262437e+3, 1.5986842e+2, -1128511.0, -1475166.3, 5635.041, -0.10320844, -0.21959086, -1128419.4, 244854.69, 0.0013580795, 10.0027685, 9.998282 
2.7258375e+3, 1.6985914e+2, -1053221.8, -1290278.1, 106272.09, -0.028371092, -0.21092814, -1012556.06, 262809.97, 0.00016970174, 10.002339, 9.998984 
2.7254313e+3, 1.798503e+2, -1047449.1, -1218386.5, 150132.78, 0.037048955, -0.17300041, -960161.5, 217291.83, 0.0000049540654, 10.001483, 9.999315 
2.7250236e+3, 1.8984255e+2, -926788.25, -809980.3, 106820.07, -0.16670519, -0.24084345, -746640.5, 332883.03, 0.0, 10.000477, 10.00183 
2.724616e+3, 1.9983545e+2, -1149374.0, -1054786.6, -65565.81, -0.32133844, -0.29157558, -1021237.5, -39650.37, 0.0, 9.998959, 10.0002985 
2.724209e+3, 2.0982969e+2, -954363.3, -860073.3, -178339.53, -0.04600341, -0.11044743, -722752.5, 160894.48, 0.0, 9.999562, 10.000571 
2.7238017e+3, 2.1982363e+2, -997764.25, -1069827.5, -103483.4, 0.25860772, 0.07566298, -924219.0, -138508.1, 0.0, 9.999502, 9.9985895 
2.7233928e+3, 2.298116e+2, -770143.6, -893545.25, -30448.264, 0.09798519, -0.17375538, -763039.7, -75212.6, 0.0, 10.000451, 9.998574 
2.722984e+3, 2.3979914e+2, -718937.4, -857188.44, -45020.516, -0.08775224, -0.46677, -705569.4, -115623.16, 0.0, 10.00019, 9.998357 
2.7225772e+3, 2.4979079e+2, -533208.5, -469886.25, -97974.45, -0.043078296, -0.49173495, -398584.2, 93441.09, 0.0, 9.999846, 10.000406 
2.72217e+3, 2.5978324e+2, -780672.75, -823661.06, -108270.3, 0.0092553245, -0.4353422, -691783.7, -297686.25, 0.0, 9.998579, 9.998021 
2.721759e+3, 2.6977393e+2, -675906.7, -741376.2, -48757.75, -0.32340214, -0.34989426, -649914.25, -353719.1, 0.0, 9.998805, 9.997716 
2.7213493e+3, 2.7976474e+2, -665894.06, -633236.94, 58580.41, -0.56887656, -0.24941759, -588751.94, -390458.84, 0.0, 9.997883, 9.998314 
2.7209502e+3, 2.8975832e+2, -349952.8, -69703.69, 74231.5, 0.04643054, -0.14241287, -51255.84, 49101.887, 0.0, 9.997934, 10.001384 
2.7205482e+3, 2.997522e+2, -479525.4, -302949.9, -27005.316, 0.4191021, -0.04847166, -298912.06, -296493.6, 0.0, 9.997197, 9.999582 
2.7201256e+3, 3.0974197e+2, -246260.05, -85947.55, -168735.9, -0.9593932, -0.28029546, 20703.143, 20703.143, 0.0, 9.9981985, 10.000189 
2.7197298e+3, 3.1973702e+2, -490436.34, -416146.4, 198114.56, 0.22275265, 0.08360858, -251724.67, -251724.67, 0.0, 9.997369, 9.998352 
2.737467e+3, 1.3030986e+2, -1764622.8, -1789517.1, 161568.17, 0.08461193, 0.15786986, -1615023.0, 47924.06, 0.016853949, 9.999946, 9.9993515 
2.737061e+3, 1.4029634e+2, -1333539.1, -1783000.1, 69646.625, 0.13796814, -0.32058015, -1322994.4, 242080.25, 0.009467282, 10.0032, 9.99731 
2.7366498e+3, 1.5028629e+2, -1201033.1, -1584091.9, -16284.409, 0.041668106, -0.2765658, -1200342.1, 266832.78, 0.0037924994, 10.003207, 9.997895 
2.736239e+3, 1.6027676e+2, -1196006.8, -1500302.6, 8007.459, -0.04721422, -0.21374057, -1195796.3, 173474.03, 0.0009170214, 10.00231, 9.998307 
2.7358308e+3, 1.7026871e+2, -974059.25, -1086637.8, 114003.52, -0.11993012, -0.18774126, -903205.7, 368142.34, 0.0001065257, 10.002203, 10.000431 
2.7354228e+3, 1.8026094e+2, -1062509.0, -1259318.4, 137442.08, -0.20633924, -0.13649803, -991875.8, 181547.22, 0.0000025959862, 10.001539, 9.998995 
2.7350155e+3, 1.9025193e+2, -1091370.8, -1160166.9, 77596.305, -0.23526037, -0.13908143, -1040890.0, 34620.227, 0.0, 10.000496, 9.999432 
2.734608e+3, 2.0024298e+2, -1182144.5, -1185396.3, -72061.625, -0.2503775, -0.15947299, -1111690.4, -134093.67, 0.0, 9.999205, 9.999276 
2.7342e+3, 2.1023409e+2, -922807.56, -847908.0, -136393.27, -0.05757567, -0.26451752, -743916.6, 135766.89, 0.0, 9.999761, 10.000566 
2.7337924e+3, 2.202257e+2, -826156.4, -960748.94, -63292.973, 0.106527455, -0.3024124, -801068.75, -19302.55, 0.0, 10.00052, 9.998847 
2.733385e+3, 2.3021713e+2, -667608.94, -824567.9, 3132.4172, 0.042224035, -0.22405668, -667546.5, 16306.873, 0.0, 10.0010195, 9.998791 
2.732977e+3, 2.4020842e+2, -617015.06, -847917.2, -49613.34, -0.06075269, -0.14029083, -606806.2, -20863.834, 0.0, 10.001008, 9.998024 
2.7325684e+3, 2.5019956e+2, -638133.75, -699349.25, -150750.5, -0.07695225, -0.07930661, -514915.16, -26880.357, 0.0, 9.999835, 9.998863 
2.7321595e+3, 2.6019117e+2, -651575.3, -574325.4, -150754.75, -0.09004518, -0.029079584, -457326.16, -67205.305, 0.0, 9.998599, 9.99972 
2.731751e+3, 2.7018338e+2, -424847.16, -192552.13, -10113.836, -0.17041318, -0.115283586, -192112.63, 100078.375, 0.0, 9.998631, 10.001592 
2.7313432e+3, 2.801755e+2, -447697.28, -348467.13, 157494.48, -0.20348354, -0.18592882, -232957.48, -38694.92, 0.0, 9.9984865, 10.000006 
2.7309394e+3, 2.9016808e+2, -490458.94, -287890.53, 136648.38, 0.026657104, -0.10318398, -219082.78, -122746.37, 0.0, 9.997496, 10.000159 
2.7305335e+3, 3.0016065e+2, -576981.9, -398294.34, 66949.445, 0.073577054, -0.015575502, -375993.4, -375993.4, 0.0, 9.9966545, 9.999196 
2.730118e+3, 3.1014925e+2, -227923.55, -137015.16, -4535.3843, -0.71742326, -0.30171522, -136789.45, -136789.45, 0.0, 9.998495, 9.99973 
2.7297226e+3, 3.2014158e+2, -108031.09, 18006.787, 169430.58, 0.42972386, -0.19063166, 135758.72, 135758.72, 0.0, 9.99873, 10.000728 
2.7474597e+3, 1.3071316e+2, -1264946.5, -1476216.1, 97213.81, -0.039509423, -0.22213249, -1227022.1, 431963.78, 0.012358384, 10.002992, 10.000069 
2.7470553e+3, 1.4070372e+2, -1178102.6, -1643131.1, -72045.234, 0.03978495, -0.34572986, -1167196.8, 393876.03, 0.006744914, 10.003952, 9.997896 
2.7466437e+3, 1.5069444e+2, -1307411.0, -1609651.1, -154201.13, 0.009671547, -0.27562132, -1242625.4, 220545.38, 0.0025850076, 10.002301, 9.998165 
2.7462327e+3, 1.606855e+2, -1424108.3, -1559008.8, -17944.059, -0.007904201, -0.18844149, -1421762.3, -56497.582, 0.0005889778, 10.000482, 9.998781 
2.745824e+3, 1.7067775e+2, -1041238.2, -1091779.4, 70272.77, -0.18575342, -0.18402962, -991830.4, 275508.28, 0.00006228534, 10.001549, 10.000733 
2.7454153e+3, 1.8067e+2, -999884.6, -1275105.0, 33956.574, -0.31855062, -0.1457997, -995756.94, 173655.13, 0.0000011486238, 10.002156, 9.9985895 
2.7450085e+3, 1.9066037e+2, -951711.94, -1179395.4, 40784.594, -0.22011125, -0.16095345, -944626.75, 126879.4, 0.0, 10.001845, 9.998631 
2.7446014e+3, 2.006506e+2, -1033491.4, -1215225.6, 7486.1006, -0.09872752, -0.1710808, -1033183.56, -59581.53, 0.0, 10.000714, 9.998339 
2.7441922e+3, 2.1064015e+2, -922644.56, -937568.0, -87069.35, -0.024576835, -0.349091, -842717.75, 32985.953, 0.0, 10.000148, 9.999767 
2.7437836e+3, 2.2063035e+2, -1056459.4, -1118142.9, -35334.18, 0.055241365, -0.45535728, -1040399.94, -262599.97, 0.0, 9.999178, 9.998402 
2.743377e+3, 2.3062363e+2, -734594.3, -823471.75, 22519.002, 0.0048199804, -0.21896064, -729214.3, -49342.65, 0.0, 10.000465, 9.999035 
2.74297e+3, 2.4061707e+2, -717423.56, -966654.9, -52534.258, -0.048093535, 0.08278213, -706802.75, -124859.484, 0.0, 10.000654, 9.997381 
2.7425596e+3, 2.50608e+2, -711972.6, -814610.3, -100573.18, -0.09312645, 0.17280282, -650381.8, -166339.0, 0.0, 9.999694, 9.998121 
2.7421495e+3, 2.605993e+2, -679951.7, -511668.2, -4501.693, -0.1210184, 0.23765819, -511547.84, -125412.76, 0.0, 9.9981575, 10.000342 
2.7417433e+3, 2.7059263e+2, -100237.77, 245061.84, 1230.8103, -0.028478332, 0.049473662, 245066.23, 533252.4, 0.0, 9.999705, 10.004048 
2.741337e+3, 2.8058586e+2, -212513.88, -197574.63, -9452.773, 0.07402973, -0.11472159, -192996.4, -2758.2913, 0.0, 10.000049, 10.000261 
2.7409288e+3, 2.9057747e+2, -395071.72, -328779.63, -5793.593, -0.008161452, -0.1036391, -328277.13, -235957.56, 0.0, 9.99862, 9.999302 
2.7405193e+3, 3.0056885e+2, -686036.8, -562656.44, 57241.832, -0.21387284, -0.04550027, -540190.2, -540190.2, 0.0, 9.996506, 9.998122 
2.740112e+3, 3.105575e+2, -341075.9, -226815.34, 60877.434, -0.37600163, -0.2975703, -200459.52, -200459.52, 0.0, 9.997996, 9.999289 
2.7397108e+3, 3.205451e+2, -115781.805, 319193.2, -50789.727, 0.20610899, -0.71771055, 325044.94, 325044.94, 0.0, 9.997534, 10.0033245 
2.757451e+3, 1.3111329e+2, -1277749.6, -1325867.0, 178736.55, -0.47932202, -0.7405139, -1121459.9, 533595.25, 0.008685295, 10.002311, 10.001404 
2.7570477e+3, 1.4111125e+2, -1303695.8, -1599333.9, -55596.78, -0.3262339, -0.25651926, -1293586.1, 263483.88, 0.004592608, 10.002685, 9.998788 
2.7566358e+3, 1.5110311e+2, -1277929.8, -1465905.6, -194844.94, -0.17581037, -0.17871797, -1155588.6, 303574.13, 0.0016782222, 10.001991, 9.999289 
2.7562246e+3, 1.6109447e+2, -1368591.6, -1487227.3, 2294.2834, -0.08953236, -0.14848422, -1368547.3, -7288.9004, 0.0003582281, 10.000705, 9.999153 
2.7558163e+3, 1.7108609e+2, -1070795.6, -1144155.5, 137997.05, -0.28734598, -0.18823741, -964686.9, 298651.8, 0.000033741435, 10.0015335, 10.000367 
2.7554086e+3, 1.8107763e+2, -972304.9, -1212934.5, 50674.484, -0.45342955, -0.20000292, -962068.7, 203349.5, 0.00000040337267, 10.002129, 9.99902 
2.7550024e+3, 1.9106789e+2, -884253.4, -1048855.1, 43315.29, -0.22290356, -0.30532688, -873550.75, 193959.78, 0.0, 10.001869, 9.999517 
2.7545953e+3, 2.0105828e+2, -1003609.8, -1255051.6, -8919.5, -0.02666166, -0.33826184, -1003293.75, -33690.895, 0.0, 10.001118, 9.99788 
2.754185e+3, 2.110485e+2, -992154.2, -1156566.6, -87855.05, 0.008048894, -0.3058416, -954042.6, -82339.875, 0.0, 10.000414, 9.998168 
2.753775e+3, 2.2103907e+2, -970376.25, -1094712.0, 5289.654, -0.0008434571, -0.24842413, -970151.6, -196352.33, 0.0, 9.999827, 9.99824 
2.753369e+3, 2.3103112e+2, -651030.25, -753936.6, 97118.26, -0.09751696, -0.142991, -592577.2, 83304.87, 0.0, 10.000874, 9.999341 
2.7529618e+3, 2.4102338e+2, -475428.8, -677152.8, -53503.77, -0.18049689, -0.014840546, -462116.38, 115846.08, 0.0, 10.001497, 9.998979 
2.752551e+3, 2.510148e+2, -533417.2, -535370.3, -101533.02, -0.098214805, -0.02477071, -432856.03, 47194.156, 0.0, 10.000044, 9.999893 
2.752141e+3, 2.6100647e+2, -571433.94, -493000.47, 101917.64, -0.044471983, -0.018536314, -423014.84, -40880.72, 0.0, 9.998979, 10.000086 
2.7517354e+3, 2.7099913e+2, -101304.44, -51370.72, 93204.414, -0.078075945, -0.04115214, 20152.875, 304353.5, 0.0, 10.000912, 10.001468 
2.7513295e+3, 2.8099164e+2, 108555.875, -21521.158, -103579.836, -0.059005473, -0.09376426, 165823.5, 352090.75, 0.0, 10.002111, 10.000482 
2.7509212e+3, 2.9098225e+2, -108120.56, -19039.191, -149013.13, 0.1150329, -0.29935345, 91947.57, 180300.22, 0.0, 9.999828, 10.00087 
2.7505118e+3, 3.0097333e+2, -443387.3, -347023.8, 37846.758, 0.07540315, -0.39082363, -333936.8, -333936.8, 0.0, 9.997649, 9.999087 
2.7501026e+3, 3.109662e+2, -249676.5, -192212.84, 110093.76, -0.3065227, -0.22885536, -107163.51, -107163.51, 0.0, 9.998529, 9.999351 
2.7497005e+3, 3.209571e+2, -180812.86, 120519.53, -242163.72, 0.21683891, -0.2698236, 255061.28, 255061.28, 0.0, 9.997637, 10.0019455 
2.7674466e+3, 1.3152307e+2, -1245818.4, -1244422.0, 241525.11, -0.3370907, -0.68148184, -1003594.0, 647443.94, 0.005822692, 10.002159, 10.002085 
2.7670425e+3, 1.4151885e+2, -1681553.3, -1787974.9, 4812.7964, -0.13024989, -0.4056503, -1681336.0, -128264.34, 0.0029696804, 10.000078, 9.998774 
2.7666286e+3, 1.5151104e+2, -1278885.6, -1521289.4, -144064.36, -0.2537018, -0.24421574, -1211820.6, 243344.5, 0.0010279784, 10.002223, 9.998804 
2.7662167e+3, 1.6150297e+2, -963572.4, -1305650.9, -32209.795, -0.2771935, -0.121210515, -960565.94, 396692.2, 0.0002033788, 10.003507, 9.999079 
2.7658105e+3, 1.7149472e+2, -1049995.8, -1136167.9, 75551.016, -0.20039049, -0.15201277, -1006108.44, 253227.39, 0.000016580547, 10.001656, 10.000387 
2.7654043e+3, 1.8148638e+2, -1270948.6, -1332088.9, 42672.875, -0.17698593, -0.15813851, -1249025.8, -87612.18, 0.00000009587778, 10.000002, 9.999226 
2.764996e+3, 1.9147688e+2, -892914.44, -1012901.8, -565.44275, -0.18261653, -0.27659863, -892911.8, 170592.78, 0.0, 10.0016575, 9.999873 
2.7645877e+3, 2.0146742e+2, -807479.6, -1171389.0, -73713.12, -0.12509894, -0.31403294, -793115.3, 172480.47, 0.0, 10.002526, 9.997786 
2.764177e+3, 2.1145806e+2, -793016.9, -1068445.5, -66556.17, -0.023021195, -0.24479525, -777777.1, 89913.7, 0.0, 10.001843, 9.998074 
2.7637672e+3, 2.2144893e+2, -908875.4, -1084199.1, 163925.52, 0.032110784, -0.13172464, -810644.3, -40860.063, 0.0, 10.000404, 9.99803 
2.763361e+3, 2.3143989e+2, -755714.2, -797380.1, 244870.63, -0.11528394, -0.13311046, -530791.94, 141084.89, 0.0, 10.000182, 9.999359 
2.7629542e+3, 2.414311e+2, -778312.75, -801299.2, 12860.534, -0.20675063, -0.10044289, -772558.1, -198592.33, 0.0, 9.999417, 9.999103 
2.762543e+3, 2.514224e+2, -542961.44, -452178.47, -148722.42, -0.08166207, -0.20510156, -342074.78, 133975.72, 0.0, 9.999648, 10.000634 
2.762133e+3, 2.6141402e+2, -664463.44, -689696.44, 67039.0, 0.020959638, -0.21989879, -608864.06, -230731.92, 0.0, 9.99906, 9.998699 
2.7617273e+3, 2.7140635e+2, -528174.0, -499040.72, 157406.2, -0.099643186, -0.09448446, -355528.56, -75318.555, 0.0, 9.999121, 9.999227 
2.7613217e+3, 2.8139812e+2, -465897.0, -343397.72, -65400.227, -0.11996025, -0.039750014, -315044.3, -132754.63, 0.0, 9.998439, 10.000034 
2.7609134e+3, 2.9138747e+2, -262539.1, 38302.48, -197019.75, 0.23102805, -0.47230512, 135759.08, 220141.94, 0.0, 9.998237, 10.002021 
2.7605033e+3, 3.0137876e+2, -501920.22, -340406.6, 31459.506, 0.3122055, -0.6268708, -334495.28, -334495.28, 0.0, 9.997194, 9.999329 
2.760093e+3, 3.1137615e+2, -312715.84, -188570.27, 165645.94, -0.32463542, -0.05589398, -73748.72, -73748.72, 0.0, 9.998045, 9.999566 
2.759689e+3, 3.2137024e+2, -421469.16, -241458.73, -340310.94, 0.13953175, 0.25492728, 20548.084, 20548.084, 0.0, 9.997281, 9.999549 
2.7774438e+3, 1.3193612e+2, -1336549.8, -1256532.9, 80152.336, -0.062123537, -0.38266367, -1206958.5, 440034.0, 0.0036891415, 10.001505, 10.002252 
2.777038e+3, 1.4192614e+2, -1779630.9, -1942571.5, 23090.291, 0.19156994, -0.6857116, -1776422.0, -227342.34, 0.001804215, 9.999939, 9.9977455 
2.7766216e+3, 1.5191862e+2, -1368121.6, -1707047.5, -20333.28, -0.38485104, -0.37928513, -1366906.0, 84267.13, 0.00058557204, 10.002264, 9.997481 
2.7762088e+3, 1.6191117e+2, -979742.2, -1330762.9, -29023.207, -0.6411417, -0.096695915, -977358.7, 375902.6, 0.00010501939, 10.003476, 9.998916 
2.7758062e+3, 1.7190364e+2, -1012880.1, -1069489.3, 23793.203, -0.019130528, -0.091325775, -1004208.1, 251121.84, 0.0000068884756, 10.001699, 10.000825 
2.7754015e+3, 1.8189603e+2, -1252079.0, -1315247.4, 72644.164, 0.3018951, -0.04793481, -1204449.9, -47049.293, 0.00000000965895, 10.00012, 9.999273 
2.7749896e+3, 1.9188723e+2, -892277.2, -1038992.8, 102960.92, -0.22420561, -0.07231971, -839213.8, 220276.44, 0.0, 10.001767, 9.99965 
2.774578e+3, 2.018784e+2, -671238.8, -933566.75, -64104.242, -0.56797147, -0.07463265, -656411.9, 305166.22, 0.0, 10.00274, 9.999291 
2.7741688e+3, 2.118693e+2, -613785.5, -756503.7, -57441.445, -0.21296304, -0.16335009, -593538.7, 270124.16, 0.0, 10.002124, 10.000071 
2.7737606e+3, 2.2186019e+2, -724611.6, -920234.75, 180886.84, 0.03661119, -0.19066106, -616784.8, 148965.0, 0.0, 10.001303, 9.998737 
2.773354e+3, 2.3185076e+2, -733137.7, -822383.7, 269361.5, -0.06008195, -0.19815914, -504728.03, 163118.17, 0.0, 10.000442, 9.999101 
2.7729464e+3, 2.4184138e+2, -768103.4, -861259.1, 40903.203, -0.15559736, -0.1796354, -752692.75, -182750.81, 0.0, 9.999747, 9.998521 
2.7725345e+3, 2.518315e+2, -578658.94, -646992.94, -110634.47, -0.10703123, -0.24068676, -497035.72, -24995.242, 0.0, 10.000142, 9.999082 
2.772124e+3, 2.6182264e+2, -487622.7, -584423.94, 53702.105, -0.04780763, -0.19678548, -463728.5, -89599.03, 0.0, 10.000119, 9.998924 
2.771719e+3, 2.7181616e+2, -522049.38, -447058.44, 153109.73, -0.018196262, 0.020744966, -326919.84, -50723.484, 0.0, 9.998872, 9.999741 
2.771313e+3, 2.8180867e+2, -533565.0, -343145.0, -5183.855, 0.029128792, 0.11382901, -343003.97, -164733.06, 0.0, 9.997752, 10.000367 
2.7709022e+3, 2.9179764e+2, -304340.75, -51641.598, -137459.53, 0.13345006, -0.30290702, 8715.387, 89089.125, 0.0, 9.998119, 10.001505 
2.7704903e+3, 3.017898e+2, -258737.19, -128307.03, 83156.484, 0.002497627, -0.35879207, -87843.31, -87843.31, 0.0, 9.998347, 10.000234 
2.7700803e+3, 3.1179148e+2, -201087.8, 440.19357, 221135.86, -0.5950998, 0.5335376, 142687.4, 142687.4, 0.0, 9.998144, 10.000826 
2.7696785e+3, 3.2177866e+2, -135853.05, -175741.45, -234792.56, 0.04681677, 0.12617318, 79840.875, 79840.875, 0.0, 9.99941, 9.998985 
2.7874362e+3, 1.3234973e+2, -1232271.4, -1295758.9, 4189.112, -0.19479299, -0.0432119, -1231996.1, 410958.7, 0.0021708824, 10.00254, 10.001491 
2.7870312e+3, 1.4233856e+2, -1553462.1, -1853183.4, 16219.496, 0.28522748, -0.39430064, -1552587.0, -7532.4116, 0.001007235, 10.001457, 9.997678 
2.7866164e+3, 1.523291e+2, -1189692.4, -1623301.6, 77863.164, -0.35998628, -0.29023278, -1176134.4, 271022.5, 0.00030058212, 10.003366, 9.997599 
2.7862042e+3, 1.6232032e+2, -856221.25, -1258074.4, 29134.803, -0.64306915, -0.14578901, -854119.94, 495129.66, 0.000046417692, 10.004243, 9.99906 
2.7858e+3, 1.7231265e+2, -838239.56, -1002259.75, -6642.389, -0.030807648, -0.14045534, -837971.0, 413346.88, 0.0000020738605, 10.002968, 10.000689 
2.7853942e+3, 1.823048e+2, -1112740.8, -1305799.3, 88422.02, 0.31876245, -0.08324025, -1078364.1, 75027.45, 0.00000000000031198744, 10.0013275, 9.998751 
2.7849823e+3, 1.9229569e+2, -1145785.4, -1210279.5, 99205.8, -0.2292907, -0.099914454, -1073717.3, -18229.045, 0.0, 10.000276, 9.999165 
2.7845708e+3, 2.0228721e+2, -1089705.5, -1076125.0, -89688.64, -0.5965914, -0.05839211, -992969.94, -35394.96, 0.0, 9.999658, 9.999792 
2.7841613e+3, 2.1227928e+2, -683500.3, -663554.7, -160575.16, -0.29189745, -0.14179522, -512642.97, 347002.9, 0.0, 10.001153, 10.001165 
2.7837533e+3, 2.2227101e+2, -727106.4, -916743.3, 33666.453, -0.008750258, -0.16600208, -721306.9, 40415.81, 0.0, 10.001296, 9.998751 
2.7833468e+3, 2.3226176e+2, -746553.94, -837288.2, 112203.37, -0.02489261, -0.17731756, -670893.06, -7074.7383, 0.0, 10.000417, 9.998986 
2.7829385e+3, 2.4225228e+2, -885191.7, -1023899.94, -31028.213, -0.07329952, -0.14000762, -878567.25, -312651.16, 0.0, 9.999451, 9.997547 
2.782526e+3, 2.522416e+2, -534834.44, -731929.1, -91008.95, -0.14452794, -0.20204945, -499239.28, -31216.076, 0.0, 10.000955, 9.998093 
2.7821153e+3, 2.622323e+2, -419559.84, -558736.75, 78108.266, -0.1312196, -0.12637147, -384537.3, -14420.301, 0.0, 10.00075, 9.998752 
2.7817103e+3, 2.722262e+2, -510662.28, -373827.3, 118549.53, 0.018343037, 0.0746336, -305369.16, -33189.953, 0.0, 9.998757, 10.000257 
2.7813032e+3, 2.8221914e+2, -704086.06, -489560.7, -9213.01, 0.11706447, 0.19696198, -489165.75, -314914.88, 0.0, 9.996946, 9.999736 
2.7808908e+3, 2.9220814e+2, -362576.8, -163148.97, -115706.24, 0.009865368, -0.15925032, -110118.664, -33758.96, 0.0, 9.998174, 10.000664 
2.7804774e+3, 3.0220136e+2, -281350.66, -126708.01, 70028.33, -0.32699513, -0.047449127, -99709.85, -99709.85, 0.0, 9.998277, 10.000247 
2.7800676e+3, 3.1220585e+2, -290395.7, 72329.305, 107822.97, -0.83917284, 1.0104339, 101960.05, 101960.05, 0.0, 9.997161, 10.001759 
2.7796695e+3, 3.221838e+2, -416262.78, -336108.7, -208470.42, 0.038985178, -0.36197487, -163898.0, -163898.0, 0.0, 9.997735, 9.998686 
2.7974275e+3, 1.3276385e+2, -1423063.9, -1521194.8, -50294.055, -0.5491677, 0.35538885, -1401866.1, 237050.86, 0.001167345, 10.001891, 10.000219 
2.797024e+3, 1.4275362e+2, -1465358.6, -1810202.4, 75496.61, 0.18287748, 0.1833504, -1449554.5, 91456.21, 0.00050489604, 10.002127, 9.997623 
2.7966124e+3, 1.5274115e+2, -1112955.9, -1464405.5, 183211.86, -0.29431263, -0.10622853, -1034818.94, 408306.88, 0.00013439951, 10.003434, 9.998624 
2.7962017e+3, 1.6273005e+2, -909663.6, -1293987.1, 7946.2764, -0.5473493, -0.25041014, -909499.44, 435728.47, 0.000016423304, 10.00396, 9.998937 
2.7957916e+3, 1.727216e+2, -904760.56, -1098382.6, -39759.08, -0.3154218, -0.26922876, -896914.25, 350388.56, 0.0000003300107, 10.002819, 10.000085 
2.7953827e+3, 1.8271272e+2, -1155490.0, -1399810.8, 54571.164, -0.16879483, -0.24470888, -1143855.1, 5531.6953, 0.0, 10.001332, 9.998107 
2.7949747e+3, 1.9270179e+2, -1197435.5, -1315400.6, 82417.33, -0.21762724, -0.36373213, -1155069.3, -103566.71, 0.0, 10.000251, 9.998472 
2.7945656e+3, 2.0269284e+2, -1052765.4, -1034098.7, -63727.33, -0.30848253, -0.32746795, -979024.9, -25429.162, 0.0, 9.999818, 9.999989 
2.7941537e+3, 2.1268731e+2, -652839.4, -639338.4, -81874.49, -0.3547311, -0.17126675, -563936.56, 291710.47, 0.0, 10.001329, 10.001248 
2.7937442e+3, 2.2268108e+2, -576318.56, -803195.4, 23110.928, -0.31404144, -0.004765888, -573988.3, 183720.31, 0.0, 10.002099, 9.999146 
2.7933383e+3, 2.326727e+2, -647757.06, -762318.1, 69696.23, -0.13830672, 0.049989544, -614823.25, 44976.08, 0.0, 10.000915, 9.99927 
2.7929303e+3, 2.4266395e+2, -662532.1, -804600.5, -11198.115, -0.094101936, 0.10948705, -661654.9, -99763.96, 0.0, 10.000435, 9.998589 
2.792518e+3, 2.5265378e+2, -317754.03, -531530.06, -564.96075, -0.28973126, 0.017204296, -317752.56, 146237.66, 0.0, 10.001942, 9.999041 
2.7921066e+3, 2.6264405e+2, -176363.47, -367418.84, 58525.01, -0.37159285, -0.028045645, -159861.17, 206222.72, 0.0, 10.002024, 9.999459 
2.791699e+3, 2.726354e+2, -423870.47, -341235.22, 53301.8, -0.18779798, -0.07627723, -315112.3, -46946.23, 0.0, 9.999315, 10.000237 
2.791291e+3, 2.8262687e+2, -637009.1, -518221.97, 27883.592, -0.035867874, -0.06877006, -512002.34, -341753.5, 0.0, 9.997637, 9.999194 
2.7908805e+3, 2.926175e+2, -304063.94, -259723.2, -41947.27, -0.056200456, -0.13506123, -234447.83, -162104.88, 0.0, 9.999064, 9.9995775 
2.7904695e+3, 3.0260977e+2, -169063.16, -220253.48, 37526.742, -0.24402107, -0.00803292, -149234.0, -149234.0, 0.0, 9.999562, 9.99902 
2.7900612e+3, 3.1260666e+2, -305591.47, -149665.56, -40751.188, -0.43542638, 0.48618743, -139657.61, -139657.61, 0.0, 9.997831, 9.999988 
2.7896607e+3, 3.2258832e+2, -282809.22, -56524.543, -169423.94, 0.21834967, -0.46349025, 34062.492, 34062.492, 0.0, 9.99755, 10.00075 
2.807424e+3, 1.3317314e+2, -1526251.9, -1944366.5, 204640.13, -0.3079084, 0.031187247, -1442764.3, 192128.81, 0.0005663186, 10.002659, 9.997 
2.807019e+3, 1.4316307e+2, -770742.7, -1509305.4, 133910.14, 0.0027327326, 0.10172969, -747212.9, 789786.5, 0.00022570654, 10.007028, 9.997322 
2.8066102e+3, 1.5315159e+2, -777147.8, -1267421.6, 160671.95, -0.15387638, -0.11546999, -729184.75, 709916.4, 0.00005282333, 10.005567, 9.998949 
2.8062004e+3, 1.6314055e+2, -955449.6, -1420128.4, -57986.24, -0.23733447, -0.23834638, -948322.94, 392878.38, 0.000004777361, 10.004113, 9.997959 
2.8057867e+3, 1.7313057e+2, -871541.4, -1246991.9, -173568.86, -0.2938455, -0.28688917, -803597.06, 439699.88, 0.00000002399446, 10.0037155, 9.998622 
2.8053755e+3, 1.8312097e+2, -926355.9, -1274425.4, -63158.19, -0.296461, -0.2678281, -915250.0, 230140.52, 0.0, 10.002873, 9.998222 
2.8049678e+3, 1.9311097e+2, -930339.6, -1135004.6, 20355.61, -0.18587138, -0.3490799, -928334.75, 119157.76, 0.0, 10.001867, 9.998939 
2.804559e+3, 2.0310201e+2, -916710.2, -1019223.9, 2554.921, -0.15825531, -0.3209386, -916646.56, 32936.715, 0.0, 10.000954, 9.999557 
2.8041464e+3, 2.1309544e+2, -691602.2, -716397.0, -60777.523, -0.366115, -0.2273302, -641970.56, 209675.94, 0.0, 10.001292, 10.000742 
2.8037363e+3, 2.2308916e+2, -788240.25, -929362.0, -22172.875, -0.4276257, -0.022870172, -784838.44, -31127.506, 0.0, 10.000854, 9.998849 
2.80333e+3, 2.330818e+2, -787099.3, -825937.2, -47546.324, -0.1811099, 0.12113279, -755159.25, -99365.055, 0.0, 10.000014, 9.999255 
2.802922e+3, 2.4307388e+2, -851099.25, -829882.3, -62978.445, -0.07456121, 0.24232091, -776625.1, -218746.42, 0.0, 9.998942, 9.999122 
2.8025103e+3, 2.5306454e+2, -679445.6, -588517.06, -50993.15, -0.310681, 0.11884483, -565663.7, -105695.6, 0.0, 9.999049, 10.000007 
2.8020987e+3, 2.630551e+2, -659290.3, -605600.8, -60729.32, -0.4427964, 0.03662069, -566047.6, -203990.61, 0.0, 9.998778, 9.999391 
2.8016886e+3, 2.730448e+2, -438695.9, -356847.4, -83905.1, -0.31393996, -0.19710733, -304418.25, -40266.75, 0.0, 9.999277, 10.000149 
2.8012794e+3, 2.8303534e+2, -491470.97, -567006.7, 6092.682, -0.17138748, -0.23205814, -490982.7, -324742.25, 0.0, 9.999229, 9.9980755 
2.8008714e+3, 2.930269e+2, -209708.98, -316300.63, -8076.715, -0.09931296, -0.130611, -209100.45, -140774.84, 0.0, 10.000241, 9.998601 
2.8004622e+3, 3.0301762e+2, -266963.66, -457450.66, 16534.664, -0.13489552, -0.027928388, -265539.1, -265539.1, 0.0, 9.999843, 9.997199 
2.8000548e+3, 3.130064e+2, -463424.84, -420212.53, -10204.755, -0.024844984, -0.1730821, -417923.88, -417923.88, 0.0, 9.997722, 9.998111 
2.7996492e+3, 3.2299638e+2, -368155.97, 200775.78, 72391.01, 0.13095747, -0.283533, 209842.34, 209842.34, 0.0, 9.995966, 10.003163 
2.817422e+3, 1.3358071e+2, -1742672.0, -2475442.3, 384159.06, -0.035504617, -0.48327956, -1578193.5, 52681.176, 0.00024930632, 10.003104, 9.993116 
2.8170148e+3, 1.4357002e+2, -986963.94, -1644534.5, 102033.29, -0.32746705, -0.2643895, -971495.6, 561506.94, 0.00009135431, 10.005745, 9.99699 
2.8166088e+3, 1.5356162e+2, -915137.6, -1315285.5, 116632.35, -0.032525886, -0.19583295, -883624.25, 551451.75, 0.000018191195, 10.004583, 9.999084 
2.8162e+3, 1.6355166e+2, -1136329.8, -1680267.1, -84815.35, 0.09587627, -0.14429656, -1123411.5, 213759.66, 0.000001253609, 10.003635, 9.996405 
2.8157842e+3, 1.7353953e+2, -1029429.7, -1530659.4, -138975.77, -0.13147117, -0.21691407, -993475.06, 245824.1, 0.0000000065346386, 10.0035515, 9.996753 
2.8153703e+3, 1.8352994e+2, -846034.7, -1076878.3, -80904.02, -0.29366872, -0.1360833, -820503.8, 320892.84, 0.0, 10.002798, 9.9995775 
2.8149608e+3, 1.9352354e+2, -821790.5, -892016.75, 11866.161, -0.28705123, -0.020962259, -819839.7, 223614.73, 0.0, 10.001812, 10.000621 
2.8145507e+3, 2.0351511e+2, -900218.75, -1059060.3, 10248.036, -0.29676342, -0.013642018, -899560.3, 45973.04, 0.0, 10.001261, 9.999128 
2.81414e+3, 2.1350336e+2, -720492.8, -857223.25, -17782.588, -0.38337883, -0.32476524, -718217.94, 129428.125, 0.0, 10.001599, 9.9996395 
2.8137296e+3, 2.2349386e+2, -735391.75, -955017.3, -46985.605, -0.3980856, -0.3501286, -725762.1, 23979.248, 0.0, 10.001413, 9.998405 
2.8133217e+3, 2.334871e+2, -747438.06, -868585.2, -64018.367, -0.23109278, -0.08153641, -719878.2, -68060.32, 0.0, 10.000498, 9.998752 
2.812913e+3, 2.4347982e+2, -688778.9, -655207.94, -95696.914, -0.110652216, 0.094477035, -574835.56, -20939.633, 0.0, 9.999592, 10.000008 
2.812503e+3, 2.534713e+2, -665486.1, -501942.56, -80543.625, -0.09445662, -0.009912899, -468936.75, -12957.512, 0.0, 9.998747, 10.000766 
2.8120923e+3, 2.6346317e+2, -614425.25, -519524.16, -43645.88, -0.122883946, -0.0324631, -502503.66, -144446.38, 0.0, 9.998714, 10.000047 
2.811682e+3, 2.73455e+2, -281203.06, -267715.1, -47185.457, -0.17673896, -0.060369086, -226794.11, 33338.9, 0.0, 10.000181, 10.000389 
2.8112724e+3, 2.8344613e+2, -150497.84, -349090.53, 42262.523, -0.1609374, -0.06875407, -141878.1, 20338.043, 0.0, 10.001248, 9.998623 
2.810865e+3, 2.9343593e+2, 71844.03, -164394.42, 46465.234, -0.085825026, -0.1463942, 80654.586, 144968.86, 0.0, 10.002014, 9.998835 
2.810455e+3, 3.034263e+2, 77063.336, -133036.08, 8036.434, -0.1582166, -0.14364752, 77370.29, 77370.29, 0.0, 10.001465, 9.998651 
2.810044e+3, 3.134171e+2, -179919.47, -149611.67, 43312.152, -0.18260533, -0.18550019, -118878.93, -118878.93, 0.0, 9.999004, 9.999387 
2.8096363e+3, 3.2340902e+2, -414417.3, 50187.934, 103932.72, 0.06330302, -0.120225415, 72377.98, 72377.98, 0.0, 9.995997, 10.002189 
2.827422e+3, 1.3399085e+2, -1177779.5, -2036355.0, 125426.37, 0.2497938, -0.2454318, -1159831.5, 467030.06, 0.00010698143, 10.006244, 9.99461 
2.8270087e+3, 1.4397855e+2, -1340765.8, -1704515.1, -38485.45, -0.49762347, -0.29756597, -1336738.5, 192259.05, 0.000035101017, 10.002829, 9.997982 
2.8266028e+3, 1.5397039e+2, -1285838.6, -1449844.3, -29401.457, -0.11129028, -0.25398797, -1280727.1, 150343.73, 0.0000055355054, 10.001863, 9.999471 
2.8261942e+3, 1.6396163e+2, -1317080.3, -1614764.9, -76213.86, 0.09962166, -0.16699265, -1298702.4, 34452.547, 0.0000002527922, 10.001751, 9.997776 
2.825779e+3, 1.739513e+2, -1026925.06, -1383691.3, 46384.895, -0.12084164, -0.18668155, -1020992.94, 214270.63, 0.0, 10.002983, 9.9980545 
2.825365e+3, 1.8394221e+2, -803651.25, -1053081.9, 161506.16, -0.280939, -0.10090241, -724312.25, 413042.47, 0.0, 10.0030365, 9.999652 
2.8249538e+3, 1.9393498e+2, -858339.4, -936240.4, 103984.4, -0.29236066, -0.035955466, -786249.75, 253168.98, 0.0, 10.001622, 10.0004425 
2.8245434e+3, 2.0392606e+2, -1032723.94, -1196305.6, 103542.79, -0.29446647, -0.026805086, -982564.56, -41062.426, 0.0, 10.000743, 9.998393 
2.8241333e+3, 2.139133e+2, -817708.0, -993477.25, 81677.74, -0.3384008, -0.36873218, -785613.6, 58013.35, 0.0, 10.001374, 9.998781 
2.8237233e+3, 2.2390269e+2, -775542.4, -968589.6, 71518.09, -0.32525003, -0.4407541, -751934.2, -6201.6626, 0.0, 10.001167, 9.998408 
2.823314e+3, 2.3389524e+2, -800621.1, -856457.3, 100545.56, -0.19765195, -0.26797268, -724189.7, -76378.43, 0.0, 10.0000515, 9.999012 
2.8229046e+3, 2.4388783e+2, -769755.4, -699142.0, 100299.055, -0.08547931, -0.08853707, -628116.8, -78228.01, 0.0, 9.999149, 9.999893 
2.8224948e+3, 2.5387958e+2, -619586.25, -477525.72, 29293.45, 0.04438177, -0.16365406, -471722.38, -19749.982, 0.0, 9.999113, 10.000735 
2.8220853e+3, 2.6387218e+2, -600228.0, -555043.06, 72299.664, 0.07792307, -0.07382907, -501888.2, -147842.0, 0.0, 9.999118, 9.999556 
2.821675e+3, 2.7386525e+2, -320870.5, -300778.9, 20826.54, -0.05622758, 0.026809735, -287701.94, -31589.03, 0.0, 10.0000725, 10.000159 
2.8212655e+3, 2.838567e+2, -357239.13, -450546.47, 47966.586, -0.13873473, 0.07145635, -336979.72, -178785.8, 0.0, 9.9999485, 9.998519 
2.820858e+3, 2.9384485e+2, -311216.97, -307939.66, 41364.285, -0.08105811, -0.22334856, -268181.6, -207877.23, 0.0, 9.999293, 9.999125 
2.8204468e+3, 3.038355e+2, -252406.66, -167346.83, -87467.98, -0.21861579, -0.24980102, -112617.086, -112617.086, 0.0, 9.99874, 9.999712 
2.8200322e+3, 3.1382954e+2, -203692.14, 10782.953, -95370.414, -0.4013493, -0.14466886, 47056.406, 47056.406, 0.0, 9.998164, 10.000875 
2.8196242e+3, 3.2382098e+2, -230077.28, -4666.7324, -21705.086, -0.0059507587, -0.17750835, -2595.7478, -2595.7478, 0.0, 9.998073, 10.000744 
2.837422e+3, 1.3440196e+2, -1123199.8, -1612582.4, -22839.158, 0.38347933, 0.2902531, -1122136.1, 500712.66, 0.000050519644, 10.004958, 9.998119 
2.8370017e+3, 1.4438786e+2, -1324684.1, -1580180.0, -58738.277, -0.67268175, -0.18639465, -1311827.3, 213160.86, 0.000015386411, 10.002495, 9.998967 
2.8365934e+3, 1.543785e+2, -1342118.3, -1429676.5, -3076.603, -0.41258666, -0.31746262, -1342010.4, 85066.016, 0.0000020566958, 10.001318, 9.999852 
2.8361842e+3, 1.643711e+2, -1140281.0, -1143522.4, -18821.049, -0.2338333, -0.2650923, -1123011.0, 206133.7, 0.00000005936716, 10.001327, 10.001196 
2.835772e+3, 1.7436518e+2, -809420.06, -886419.3, 119876.06, -0.31018293, -0.20345844, -722013.0, 509185.3, 0.0, 10.002782, 10.001562 
2.8353596e+3, 1.8435663e+2, -890064.7, -1222833.6, 112236.08, -0.34737906, -0.20248576, -855748.56, 277530.1, 0.0, 10.002976, 9.998527 
2.8349474e+3, 1.9434468e+2, -988709.3, -1194721.1, 81334.92, -0.28322855, -0.43751484, -960468.94, 74923.67, 0.0, 10.001556, 9.998709 
2.8345367e+3, 2.0433497e+2, -1015127.56, -1208462.1, 138371.67, -0.2606886, -0.3963383, -943001.25, -5512.624, 0.0, 10.000962, 9.998202 
2.834127e+3, 2.1432683e+2, -788199.7, -1018143.06, 154042.88, -0.33377925, -0.23105259, -710953.56, 128621.195, 0.0, 10.001727, 9.998457 
2.8337172e+3, 2.2431801e+2, -557940.3, -642399.7, 64307.31, -0.2906422, -0.19589272, -523236.44, 218425.53, 0.0, 10.001688, 10.0004 
2.8333074e+3, 2.3430835e+2, -618923.8, -579195.56, 128681.26, -0.087113075, -0.4063195, -468854.25, 174897.11, 0.0, 10.000436, 10.000755 
2.8328964e+3, 2.4429975e+2, -732638.56, -781664.25, 167858.83, -0.034825057, -0.3907759, -587512.2, -41676.637, 0.0, 9.999787, 9.999032 
2.8324845e+3, 2.542918e+2, -593957.7, -641106.0, 111371.88, -0.13431884, -0.26689762, -503692.3, -55773.188, 0.0, 9.999968, 9.999232 
2.8320748e+3, 2.6428345e+2, -524512.9, -665020.4, 151223.16, -0.1372016, -0.1267637, -428021.25, -78015.234, 0.0, 10.000226, 9.99827 
2.8316674e+3, 2.742742e+2, -335090.16, -495948.38, 70299.73, -0.065259725, -0.07874416, -308697.5, -56597.035, 0.0, 10.000752, 9.998505 
2.8312582e+3, 2.8426442e+2, -288573.97, -367036.1, 6553.2793, -0.042982854, -0.08869201, -288030.4, -133834.98, 0.0, 10.000138, 9.999022 
2.830848e+3, 2.942532e+2, -439111.13, -359137.0, -5217.708, -0.09257493, -0.32197523, -358798.0, -302499.56, 0.0, 9.998282, 9.999292 
2.8304362e+3, 3.042443e+2, -356571.44, -176000.69, -65675.984, -0.21241409, -0.33573788, -154640.27, -154640.27, 0.0, 9.997744, 10.00016 
2.8300253e+3, 3.1423858e+2, -69335.46, 44366.91, -112001.2, -0.16457598, -0.19126406, 113119.57, 113119.57, 0.0, 9.999091, 10.000707 
2.829617e+3, 3.2422724e+2, 487651.22, 307208.34, 128755.05, -0.05770696, -0.48368153, 554648.6, 554648.6, 0.0, 10.002972, 10.000612 
2.8474158e+3, 1.3480864e+2, -1118757.8, -1476781.6, 96891.23, 0.15474416, -0.063619845, -1094218.3, 524641.9, 0.000026715617, 10.004239, 9.999486 
2.847001e+3, 1.4479953e+2, -1094425.6, -1320156.4, 1259.2366, -0.18755324, -0.14509922, -1094418.6, 426527.84, 0.000008259592, 10.003372, 10.000356 
2.8465867e+3, 1.547909e+2, -1319657.4, -1317698.9, 68136.445, -0.36406803, -0.2855743, -1250534.6, 172496.97, 0.0000013335809, 10.000963, 10.000821 
2.8461754e+3, 1.6478395e+2, -1272659.8, -1147658.0, 132972.55, -0.35967883, -0.24591969, -1063230.1, 261867.39, 0.000000073245815, 10.000181, 10.001703 
2.8457657e+3, 1.7477843e+2, -979711.4, -917836.6, 69187.68, -0.3034552, -0.18143502, -872984.44, 354161.84, 0.0, 10.001398, 10.0020075 
2.8453544e+3, 1.847698e+2, -1036052.7, -1340413.4, -53051.363, -0.2617614, -0.20643489, -1027070.7, 102156.22, 0.0, 10.002195, 9.998086 
2.844942e+3, 1.9475688e+2, -876074.6, -1210490.0, -37451.508, -0.1940498, -0.51297784, -871931.75, 159419.64, 0.0, 10.002634, 9.998075 
2.8445306e+3, 2.0474686e+2, -821871.2, -1099768.1, 137146.94, -0.19492865, -0.48067957, -765586.56, 167864.56, 0.0, 10.002234, 9.998337 
2.8441206e+3, 2.1473983e+2, -879759.6, -1059898.1, 161149.08, -0.29735908, -0.23092355, -785217.1, 50309.01, 0.0, 10.00113, 9.998444 
2.8437105e+3, 2.247318e+2, -668439.3, -659915.25, 38454.023, -0.25883937, -0.12549673, -625487.8, 112116.875, 0.0, 10.000791, 10.0007305 
2.8433e+3, 2.3472188e+2, -458819.4, -477702.3, -33325.29, -0.05357121, -0.416572, -433623.94, 206069.94, 0.0, 10.001416, 10.00101 
2.8428885e+3, 2.4471265e+2, -525449.94, -805881.1, 14081.933, -0.036237653, -0.4358818, -524744.6, 17037.473, 0.0, 10.001788, 9.99791 
2.8424764e+3, 2.5470394e+2, -393043.66, -679334.56, -11523.346, -0.20478511, -0.31124404, -392580.6, 51291.688, 0.0, 10.001995, 9.99799 
2.8420663e+3, 2.6469448e+2, -460558.34, -768446.9, 92147.26, -0.2302338, -0.15794574, -435087.0, -89116.05, 0.0, 10.001342, 9.996988 
2.8416598e+3, 2.746833e+2, -510593.03, -727702.06, 63984.54, -0.06470439, -0.21066102, -493139.2, -245052.06, 0.0, 10.000275, 9.997108 
2.8412506e+3, 2.8467277e+2, -342954.97, -386966.63, -11861.974, -0.0072125895, -0.21806651, -339961.56, -189771.25, 0.0, 9.999806, 9.999023 
2.8408387e+3, 2.9466233e+2, -243349.23, -271468.22, -41534.51, -0.10094686, -0.40306306, -213559.16, -161273.75, 0.0, 9.999714, 9.999198 
2.840427e+3, 3.0465364e+2, -172607.28, -126729.0, -41954.06, -0.18070537, -0.36433142, -101852.375, -101852.375, 0.0, 9.999316, 9.999693 
2.8400183e+3, 3.1464687e+2, -159109.25, -65579.5, -102959.0, 0.08530175, -0.30314782, 737.4941, 737.4941, 0.0, 9.998905, 9.999986 
2.8396094e+3, 3.2463297e+2, -134173.47, 34585.184, 334330.6, -0.2809613, -0.8624471, 295020.03, 295020.03, 0.0, 9.998815, 10.000628 
2.8574088e+3, 1.3521467e+2, -1231309.6, -1427868.8, 89766.56, -0.16823561, -0.6351831, -1196484.3, 418385.9, 0.000013313222, 10.003089, 10.0003605 
2.8570023e+3, 1.4521256e+2, -1199806.8, -1217845.6, -86769.02, 0.45819587, -0.12372807, -1121589.6, 395298.0, 0.0000038169696, 10.002034, 10.001677 
2.8565803e+3, 1.5520595e+2, -1278451.6, -1181484.1, -6753.569, -0.25144237, -0.19203079, -1181016.0, 237940.16, 0.0000005153316, 10.000775, 10.00183 
2.856167e+3, 1.6519888e+2, -1347220.4, -1359346.6, 158300.19, -0.42642295, -0.13705903, -1194867.3, 126160.82, 0.00000002542409, 10.0004425, 10.000113 
2.8557596e+3, 1.7519121e+2, -1128907.0, -1191055.8, 136085.86, -0.24083772, -0.1212408, -1020392.75, 202712.22, 0.0, 10.001263, 10.000185 
2.8553495e+3, 1.8518254e+2, -982736.25, -1231070.3, -25384.207, -0.16224526, -0.0831812, -980168.06, 145021.55, 0.0, 10.002213, 9.998815 
2.854937e+3, 1.9517219e+2, -815467.1, -1102553.5, 22467.748, -0.15104212, -0.19581492, -813719.4, 213569.84, 0.0, 10.002697, 9.998787 
2.8545249e+3, 2.0516177e+2, -744549.2, -973339.5, 109775.59, -0.21483171, -0.28118, -700398.0, 228990.95, 0.0, 10.0023575, 9.999138 
2.8541133e+3, 2.1515107e+2, -811553.56, -949115.1, 148405.9, -0.3515898, -0.4579099, -716764.5, 114726.28, 0.0, 10.001227, 9.999157 
2.853702e+3, 2.2514307e+2, -714507.94, -877658.9, 78798.016, -0.37482065, -0.3038858, -682665.2, 50905.836, 0.0, 10.001302, 9.99898 
2.8532916e+3, 2.3513658e+2, -457220.0, -698551.6, 11217.664, -0.31011102, -0.039516218, -456699.72, 178939.8, 0.0, 10.002316, 9.999072 
2.852882e+3, 2.4512716e+2, -328164.38, -704749.75, 962.19904, -0.17619886, 0.010845554, -328161.9, 209570.77, 0.0, 10.003045, 9.99802 
2.8524733e+3, 2.5511503e+2, -168447.72, -566204.1, 1690.4379, -0.009003218, -0.19549637, -168440.53, 271409.0, 0.0, 10.003428, 9.998105 
2.8520626e+3, 2.6510412e+2, -236289.38, -592810.6, 26536.766, -0.022146594, -0.22755319, -234325.0, 107632.43, 0.0, 10.00253, 9.9976425 
2.851651e+3, 2.7509382e+2, -386700.44, -603345.56, 34341.55, -0.18094176, -0.21411379, -381387.1, -137324.92, 0.0, 10.000774, 9.997747 
2.8512412e+3, 2.8508404e+2, -207042.0, -313051.1, 62566.508, -0.16134027, -0.19166067, -178046.23, -31889.092, 0.0, 10.000602, 9.999188 
2.8508326e+3, 2.9507446e+2, 82862.51, -118745.71, 34799.484, -0.02672238, -0.25575528, 88700.195, 136945.77, 0.0, 10.001896, 9.999231 
2.8504208e+3, 3.050647e+2, 114711.49, -131991.3, -53165.156, -0.050952073, -0.2712777, 125680.984, 125680.984, 0.0, 10.001815, 9.998498 
2.8500098e+3, 3.1505477e+2, -9363.24, -149378.14, -132781.83, 0.06221144, -0.35395256, 70736.125, 70736.125, 0.0, 10.000514, 9.998686 
2.8495988e+3, 3.250452e+2, -731177.0, -475697.75, 12875.019, -0.17657551, -0.3108642, -475050.53, -475050.53, 0.0, 9.995421, 9.998869 
2.867403e+3, 1.3562895e+2, -1335315.3, -1336440.0, -73526.125, -0.1357759, -0.4983326, -1262349.4, 348459.0, 0.000005962988, 10.001702, 10.0016775 
2.8669938e+3, 1.4562337e+2, -1622768.9, -1563954.4, -62956.34, 0.41408342, -0.30960983, -1523875.8, -11018.551, 0.0000015122073, 9.99973, 10.000419 
2.8665715e+3, 1.5561706e+2, -1132304.3, -1258123.4, -131458.64, -0.4496567, -0.22255576, -1049477.8, 365450.97, 0.0000000966577, 10.0023775, 10.000542 
2.866159e+3, 1.6560987e+2, -1055621.3, -1254317.1, -38111.207, -0.5255855, -0.12788205, -1048562.1, 268441.9, 0.00000000026919006, 10.002532, 9.999868 
2.8657538e+3, 1.7560177e+2, -1264758.0, -1314337.3, -6914.424, -0.10038677, -0.13268542, -1263811.8, -44727.12, 0.0, 10.000492, 9.999754 
2.8653437e+3, 1.8559365e+2, -1224030.6, -1259324.8, -54446.195, -0.012420156, -0.060100064, -1184443.0, -63278.414, 0.0, 10.0002575, 9.999529 
2.8649312e+3, 1.9558515e+2, -956980.3, -1089683.3, -40394.348, -0.10892609, -0.06876589, -945651.5, 77595.55, 0.0, 10.001469, 9.999425 
2.864519e+3, 2.0557511e+2, -795687.0, -964962.8, 4519.5, -0.17173636, -0.16837767, -795566.44, 129774.28, 0.0, 10.001853, 9.999454 
2.8641075e+3, 2.1556328e+2, -795938.44, -933325.8, 2603.5305, -0.2237907, -0.50900596, -795889.1, 31559.578, 0.0, 10.001258, 9.999284 
2.863696e+3, 2.2555478e+2, -796450.7, -1054666.8, 48993.215, -0.31348303, -0.35638788, -787467.4, -57933.02, 0.0, 10.00136, 9.997707 
2.8632843e+3, 2.3554882e+2, -625831.94, -932275.7, 29890.598, -0.3984372, 0.064802736, -622943.6, 8659.918, 0.0, 10.001909, 9.997613 
2.8628755e+3, 2.4553925e+2, -520718.28, -780506.4, 43946.598, -0.23576336, 0.17276157, -513485.5, 20214.73, 0.0, 10.001792, 9.998015 
2.8624687e+3, 2.555257e+2, -536089.3, -763990.1, 18528.012, 0.13864322, -0.19876856, -534592.8, -98764.4, 0.0, 10.001095, 9.997807 
2.862058e+3, 2.6551452e+2, -449206.03, -626410.0, 17508.855, 0.13288468, -0.26515976, -447492.63, -109557.24, 0.0, 10.000827, 9.998204 
2.8616434e+3, 2.7550495e+2, -403831.47, -566422.25, 39266.76, -0.185245, -0.26063663, -394844.97, -154816.08, 0.0, 10.000488, 9.998133 
2.861233e+3, 2.854959e+2, -281185.88, -372141.75, 140756.58, -0.18940221, -0.15797056, -178742.7, -36625.746, 0.0, 10.000322, 9.998867 
2.8608266e+3, 2.954868e+2, -196388.38, -310823.63, 77957.555, 0.071622856, -0.16031678, -156904.2, -112699.4, 0.0, 10.00033, 9.998632 
2.8604147e+3, 3.05476e+2, -234511.78, -411735.06, -60217.348, 0.020863391, -0.18758065, -215987.28, -215987.28, 0.0, 10.000008, 9.9973955 
2.86e+3, 3.1546396e+2, -420181.72, -523515.2, -64282.844, -0.071771376, -0.38998514, -389375.8, -389375.8, 0.0, 9.998562, 9.997013 
2.8595886e+3, 3.2545918e+2, -603454.6, -527747.75, -52688.43, 0.032516256, 0.26142532, -500724.75, -500724.75, 0.0, 9.9969635, 9.997699 
2.8773963e+3, 1.3604563e+2, -1449488.0, -1259001.4, -360830.7, -0.15184411, -0.12908152, -981055.6, 625670.1, 0.0000021473002, 10.000398, 10.002823 
2.8769812e+3, 1.4603321e+2, -1775618.4, -1899291.0, 38405.055, -0.013149713, -0.54613924, -1764662.6, -255822.69, 0.00000043033984, 9.999841, 9.998049 
2.8765613e+3, 1.5602586e+2, -1419415.3, -1654444.3, 5499.1753, -0.89606136, -0.3183517, -1419286.6, -8357.096, 0.000000019645139, 10.001538, 9.998224 
2.8761515e+3, 1.6601847e+2, -1097778.3, -1187543.4, -86689.23, -0.71443576, -0.17110103, -1045041.8, 267964.66, 0.0, 10.001898, 10.000619 
2.875747e+3, 1.7601095e+2, -1247509.3, -1241166.1, -29032.498, 0.0075294427, -0.17629665, -1215132.5, -56.085724, 0.0, 10.000348, 10.0003195 
2.8753373e+3, 1.8600325e+2, -1157001.5, -1153904.0, -855.8396, 0.09679679, -0.12422972, -1153683.3, -36532.438, 0.0, 10.000378, 10.000203 
2.874924e+3, 1.9599491e+2, -922317.2, -1028227.75, 40778.203, -0.18267131, -0.1640042, -908435.94, 110796.99, 0.0, 10.001476, 9.999865 
2.8745133e+3, 2.0598635e+2, -750912.3, -897446.06, -4774.3726, -0.1618886, -0.15628754, -750756.94, 170555.47, 0.0, 10.001993, 9.999824 
2.8741032e+3, 2.1597701e+2, -724854.44, -882048.9, 19934.604, -0.0006454833, -0.25507876, -722365.8, 101029.91, 0.0, 10.0016575, 9.999441 
2.873692e+3, 2.2596675e+2, -682313.9, -954661.3, 78680.54, -0.082018316, -0.30738673, -661217.4, 64277.754, 0.0, 10.001926, 9.998125 
2.8732798e+3, 2.35956e+2, -503875.16, -837849.9, 83751.87, -0.31087238, -0.37994704, -484049.38, 143554.97, 0.0, 10.00254, 9.997978 
2.872869e+3, 2.4594599e+2, -464642.97, -756521.75, 34227.008, -0.2655216, -0.3320023, -460683.1, 69022.46, 0.0, 10.0021305, 9.998047 
2.87246e+3, 2.5593558e+2, -516511.47, -741546.4, 25467.688, -0.04751075, -0.35274124, -513665.25, -81856.13, 0.0, 10.001085, 9.998003 
2.8720504e+3, 2.6592615e+2, -318087.03, -401058.03, 72352.734, 0.10878845, -0.33980805, -276170.1, 57726.723, 0.0, 10.000952, 9.999716 
2.87164e+3, 2.7591723e+2, -169084.19, -317954.34, 115787.85, 0.1794156, -0.37420982, -105869.69, 130105.87, 0.0, 10.001435, 9.999406 
2.8712294e+3, 2.8590783e+2, -242484.53, -465606.94, 171680.77, 0.17881782, -0.31084895, -149301.53, -11230.546, 0.0, 10.001026, 9.997897 
2.8708193e+3, 2.9589784e+2, -247259.28, -425185.06, 98146.18, 0.13131738, -0.27503446, -203756.83, -163577.13, 0.0, 10.000285, 9.997891 
2.8704044e+3, 3.0588916e+2, -138735.38, -144295.56, -12664.509, -0.13131677, -0.162862, -128549.41, -128549.41, 0.0, 9.999633, 9.999433 
2.8699878e+3, 3.1588143e+2, -179757.56, -181668.67, 63526.055, -0.37710473, -0.0806167, -117179.875, -117179.875, 0.0, 9.99913, 9.999119 
2.8695834e+3, 3.258712e+2, 184826.97, 25913.682, 281537.63, 0.3315777, -0.121628635, 397905.44, 397905.44, 0.0, 10.001485, 9.99936 
2.887388e+3, 1.3645692e+2, -1453003.0, -1229341.6, -314838.25, -0.11892212, -0.18992205, -1007062.75, 595641.56, 0.0000003382392, 10.000128, 10.003172 
2.8869742e+3, 1.4644834e+2, -1458410.3, -1674100.1, 25889.467, 0.01417746, -0.26991317, -1455346.3, 49432.65, 0.000000039050374, 10.001652, 9.998739 
2.8865552e+3, 1.5643941e+2, -1674524.4, -1737947.9, 130128.734, -0.72422653, -0.22775905, -1572299.1, -165420.9, 0.0000000006124831, 9.999569, 9.998629 
2.8861454e+3, 1.6643083e+2, -1314124.6, -1296307.4, 151979.22, -0.5858149, -0.19513829, -1152976.0, 155986.63, 0.0, 10.000457, 10.0005245 
2.88574e+3, 1.7642228e+2, -874474.4, -1087211.9, 135871.56, -0.016637249, -0.28834775, -808287.7, 402752.22, 0.0, 10.0030155, 10.0000725 
2.8853303e+3, 1.8641388e+2, -795609.5, -1060587.9, 89920.055, 0.07823892, -0.24117078, -767976.9, 345145.75, 0.0, 10.003239, 9.99948 
2.8849185e+3, 1.9640529e+2, -906853.0, -1086662.4, 19846.379, -0.06850604, -0.24158503, -904688.5, 110522.3, 0.0, 10.001873, 9.999304 
2.8845072e+3, 2.0639749e+2, -796251.56, -876520.9, -15868.122, -0.08629952, -0.15112193, -793228.5, 124055.4, 0.0, 10.00158, 10.000162 
2.8840968e+3, 2.1638978e+2, -704890.6, -857674.25, -4419.9326, 0.018435482, -0.12845801, -704762.9, 114589.27, 0.0, 10.00182, 9.999519 
2.8836855e+3, 2.2637892e+2, -744216.3, -918626.44, 81253.03, -0.046758406, -0.26343197, -712229.2, 9225.893, 0.0, 10.001288, 9.998674 
2.883274e+3, 2.3636606e+2, -848769.06, -968835.75, 83739.95, -0.21155559, -0.60709417, -805766.56, -182186.28, 0.0, 10.000116, 9.998241 
2.8828627e+3, 2.4635626e+2, -608887.5, -796859.5, 86742.6, -0.23038225, -0.55500513, -574976.44, -49297.32, 0.0, 10.001028, 9.998322 
2.882452e+3, 2.563479e+2, -354744.38, -650970.44, 104632.94, -0.14088905, -0.40375707, -321513.75, 106252.21, 0.0, 10.002196, 9.998098 
2.882043e+3, 2.6633936e+2, -101680.74, -199306.14, 136199.05, 0.10014086, -0.34149706, -5811.511, 324031.06, 0.0, 10.002119, 10.000507 
2.8816357e+3, 2.7633035e+2, -245866.1, -325004.25, 105075.91, 0.46654359, -0.4817007, -173155.8, 58761.08, 0.0, 10.000876, 9.999604 
2.8812248e+3, 2.8632048e+2, -423598.1, -646182.44, 138279.42, 0.43159962, -0.4243469, -357387.72, -223366.8, 0.0, 10.000242, 9.997008 
2.8808114e+3, 2.963096e+2, -492259.3, -641945.5, 103775.12, 0.1580499, -0.4040973, -439154.13, -403006.8, 0.0, 9.9991, 9.996958 
2.8803942e+3, 3.063034e+2, -122461.81, 73228.55, -18186.305, -0.27120203, -0.10230209, 74904.33, 74904.33, 0.0, 9.998948, 10.001239 
2.8799763e+3, 3.162999e+2, -215877.42, -59573.355, 35183.684, -0.6060376, 0.21344471, -52018.727, -52018.727, 0.0, 9.9983835, 10.000314 
2.8795782e+3, 3.262826e+2, -317462.22, 10149.078, 370173.22, 0.5198126, -0.7752364, 251140.3, 251140.3, 0.0, 9.997353, 10.001111 
2.8973803e+3, 1.3686807e+2, -1513891.8, -1235530.0, -97025.88, -0.10017883, -0.19961606, -1205048.5, 393639.2, 0.0000000028010363, 9.99968, 10.003326 
2.8969687e+3, 1.4686574e+2, -1406747.8, -1411974.6, -36164.195, 0.16835041, 0.22183067, -1373102.6, 127595.36, 0.0, 10.001031, 10.000808 
2.896551e+3, 1.5685564e+2, -1529166.0, -1480740.6, 106604.67, -0.30994654, -0.05887358, -1395633.6, 7162.727, 0.0, 9.99978, 10.000282 
2.8961402e+3, 1.6684541e+2, -1312631.4, -1352934.8, 244916.19, -0.37523395, -0.24006477, -1087039.3, 217851.42, 0.0, 10.000717, 10.000006 
2.8957325e+3, 1.7683499e+2, -965161.25, -1232148.5, 220981.69, -0.30094817, -0.45550358, -840481.56, 366502.97, 0.0, 10.0028305, 9.999166 
2.8953236e+3, 1.8682534e+2, -926406.1, -1327989.4, 37360.406, -0.11227386, -0.38881198, -922959.94, 186123.05, 0.0, 10.00319, 9.997672 
2.8949142e+3, 1.9681601e+2, -1003238.3, -1287996.5, -3770.4487, 0.10120308, -0.26652756, -1003188.4, 7995.104, 0.0, 10.001836, 9.997955 
2.894501e+3, 2.0680796e+2, -730642.3, -786587.94, -3955.566, -0.0713758, -0.18422376, -730364.06, 182897.2, 0.0, 10.0017395, 10.000709 
2.8940862e+3, 2.1680015e+2, -598593.4, -736736.9, 31576.936, -0.43382987, -0.21459837, -591717.7, 223613.55, 0.0, 10.002188, 10.000186 
2.8936753e+3, 2.2679134e+2, -637322.8, -778436.2, 36239.273, -0.4021499, -0.22309525, -628560.4, 88854.98, 0.0, 10.001599, 9.999499 
2.8932658e+3, 2.3678178e+2, -738601.44, -801043.5, 84248.69, -0.22850496, -0.3017352, -679974.8, -60465.813, 0.0, 10.000296, 9.9993305 
2.8928566e+3, 2.4677345e+2, -450229.22, -564937.56, 196545.42, -0.14264618, -0.23641449, -302840.63, 218750.84, 0.0, 10.001381, 9.999767 
2.8924474e+3, 2.5676543e+2, -57012.105, -362718.78, 221842.16, -0.12171756, -0.16943155, 59537.766, 483209.44, 0.0, 10.003526, 9.999467 
2.892037e+3, 2.667556e+2, 11577.425, -236661.89, 126634.57, 0.020115692, -0.2473382, 64776.7, 390538.47, 0.0, 10.003253, 9.999721 
2.8916267e+3, 2.7674472e+2, -138273.92, -336008.97, 84964.516, 0.22339481, -0.46472898, -106781.34, 121077.414, 0.0, 10.001821, 9.999085 
2.8912148e+3, 2.8673488e+2, -326688.84, -541297.4, 127044.42, 0.23064739, -0.40960467, -267696.72, -137734.72, 0.0, 10.00057, 9.997596 
2.890802e+3, 2.9672533e+2, -369268.8, -494213.0, 134277.83, 0.10798565, -0.2895234, -283641.97, -251570.4, 0.0, 9.999478, 9.9978075 
2.890386e+3, 3.067186e+2, -57534.62, 68253.58, 57835.47, -0.15679364, -0.0654066, 90803.08, 90803.08, 0.0, 9.999502, 10.000986 
2.8899702e+3, 3.1671324e+2, 22536.934, 49588.965, 12762.066, -0.34181392, 0.14226606, 54659.277, 54659.277, 0.0, 9.99995, 10.0003805 
2.8895587e+3, 3.267022e+2, -692578.1, -183553.03, 625.8198, -0.17530708, -0.15160654, -183552.27, -183552.27, 0.0, 9.994614, 10.0012665 
2.9073727e+3, 1.3728212e+2, -1521801.8, -1449048.3, 13258.253, -0.025873067, -0.18833084, -1446707.5, 147914.48, 0.00000000011876347, 10.000445, 10.001543 
2.9069585e+3, 1.4727691e+2, -1304088.6, -1309388.8, 38530.785, -0.12943709, 0.003848952, -1268116.9, 228548.19, 0.0, 10.001491, 10.001317 
2.906546e+3, 1.5726843e+2, -922222.5, -1165151.9, 78488.375, -0.15650128, -0.1626483, -899070.1, 499673.75, 0.0, 10.003835, 10.0005045 
2.9061362e+3, 1.6725872e+2, -1026901.8, -1329381.0, 138046.48, -0.16708486, -0.24560845, -973372.6, 327463.03, 0.0, 10.003195, 9.998973 
2.905727e+3, 1.7724818e+2, -1303378.0, -1494787.9, 79659.875, -0.2307185, -0.38502935, -1274563.3, -71627.74, 0.0, 10.0009365, 9.998294 
2.9053172e+3, 1.8723798e+2, -1230482.1, -1466247.5, 4358.9814, -0.10160182, -0.35197687, -1230401.5, -125363.62, 0.0, 10.001057, 9.997737 
2.904908e+3, 1.9722798e+2, -989022.8, -1284495.9, 80489.336, 0.17910686, -0.31395698, -968519.6, 38622.125, 0.0, 10.001963, 9.997878 
2.9044947e+3, 2.0721942e+2, -760380.06, -841573.1, 88048.53, -0.023052346, -0.25471365, -704019.75, 205205.33, 0.0, 10.001714, 10.000317 
2.9040793e+3, 2.172112e+2, -844061.56, -888522.25, 37043.438, -0.43982607, -0.2993898, -823090.0, -11787.991, 0.0, 10.000668, 9.999859 
2.9036677e+3, 2.2720341e+2, -733964.56, -748571.25, 10320.666, -0.44281897, -0.23441468, -728624.56, -15248.067, 0.0, 10.00067, 10.000108 
2.903258e+3, 2.371957e+2, -716660.44, -748559.94, 44775.543, -0.21511342, -0.20492165, -685078.7, -69626.984, 0.0, 10.000298, 9.999671 
2.90285e+3, 2.4718836e+2, -579138.6, -507916.8, 189491.48, -0.097366914, -0.11767559, -350719.13, 166803.9, 0.0, 10.000109, 10.000679 
2.902442e+3, 2.5718075e+2, -627400.5, -590359.2, 142854.58, -0.041299775, -0.12972008, -464829.7, -45232.97, 0.0, 9.999517, 9.999769 
2.9020306e+3, 2.671707e+2, -444119.53, -515662.16, 31340.984, -0.026559828, -0.22398858, -432332.0, -110639.76, 0.0, 10.000438, 9.999126 
2.9016176e+3, 2.7715918e+2, -350799.34, -528618.94, 26511.277, -0.0018396645, -0.4689383, -346930.9, -123130.445, 0.0, 10.000808, 9.998242 
2.9012048e+3, 2.8715014e+2, -285837.1, -424365.3, 65489.434, 0.013732557, -0.34266534, -259778.69, -133883.61, 0.0, 10.000545, 9.998382 
2.9007924e+3, 2.9714182e+2, -384697.25, -463118.7, 98636.17, 0.05069166, -0.18119864, -317763.84, -289776.16, 0.0, 9.999337, 9.998048 
2.900381e+3, 3.071299e+2, 50192.42, 89902.42, 93380.516, 0.23363964, -0.4823813, 165515.44, 165515.44, 0.0, 10.000535, 10.0005 
2.8999695e+3, 3.1711882e+2, 82854.625, -124612.91, 29833.732, 0.40695095, -0.7812253, 87059.48, 87059.48, 0.0, 10.001432, 9.998362 
2.8995466e+3, 3.2711732e+2, 26032.904, 230361.25, -6760.698, -0.12172719, -0.12096628, 230584.7, 230584.7, 0.0, 9.999502, 10.001537 
2.917364e+3, 1.3769554e+2, -1811295.0, -1804184.4, -126340.555, -0.15550804, -0.26618236, -1681349.1, -90793.97, 0.0000000000007792345, 9.99946, 9.999572 
2.9169464e+3, 1.4768541e+2, -1383688.3, -1370131.8, 93902.62, -0.6675383, -0.47993785, -1282763.1, 209889.13, 0.0, 10.0010805, 10.001082 
2.916541e+3, 1.576794e+2, -1117854.6, -1349938.1, 115268.26, -0.25171614, -0.3714805, -1070334.6, 324372.84, 0.0, 10.002895, 9.999691 
2.9161325e+3, 1.6767117e+2, -1187149.1, -1541187.3, 37265.297, -0.03231955, -0.20312063, -1183269.1, 113523.45, 0.0, 10.002685, 9.997752 
2.915722e+3, 1.7766184e+2, -1349842.5, -1570835.1, 30445.854, -0.016215129, -0.10653311, -1345724.6, -146834.11, 0.0, 10.000836, 9.997825 
2.9153112e+3, 1.8765156e+2, -1072136.3, -1163826.3, 39703.92, -0.024956053, -0.19410178, -1057333.4, 43655.117, 0.0, 10.001148, 9.999772 
2.9149005e+3, 1.97641e+2, -904973.9, -1106808.3, 116578.086, -0.023505088, -0.3985929, -851700.5, 151386.36, 0.0, 10.001908, 9.999138 
2.9144892e+3, 2.0763187e+2, -832818.4, -1025675.9, 49627.727, 0.054223754, -0.3666385, -820797.06, 84378.6, 0.0, 10.001793, 9.999042 
2.914077e+3, 2.1762308e+2, -846560.4, -968870.5, 24409.553, 0.061238926, -0.3316762, -841868.9, -34606.83, 0.0, 10.000922, 9.999213 
2.9136637e+3, 2.2761422e+2, -667475.06, -664528.44, 11757.628, -0.1191557, -0.38141075, -654152.2, 55193.465, 0.0, 10.000863, 10.000615 
2.913249e+3, 2.3760523e+2, -580018.4, -630499.4, 57647.16, -0.34419227, -0.5071667, -542328.1, 69101.85, 0.0, 10.000924, 10.000209 
2.9128408e+3, 2.475971e+2, -583309.1, -531242.56, 138273.48, -0.19059467, -0.5157941, -416573.0, 96934.72, 0.0, 10.000094, 10.000542 
2.912434e+3, 2.575892e+2, -665646.75, -577369.56, 97610.04, 0.053948253, -0.53411746, -514382.38, -98798.47, 0.0, 9.999002, 10.000132 
2.9120228e+3, 2.675816e+2, -486986.6, -453514.8, 65218.645, 0.031932667, -0.44867682, -402918.97, -85258.72, 0.0, 9.99969, 9.999955 
2.9116094e+3, 2.7757385e+2, -229742.86, -338376.34, 68374.25, -0.10579784, -0.3864258, -196736.38, 23002.287, 0.0, 10.000979, 9.999489 
2.911196e+3, 2.875668e+2, -104281.875, -212572.05, 90172.4, -0.12435844, -0.18418162, -53247.344, 68565.625, 0.0, 10.001203, 9.9995365 
2.9107848e+3, 2.9755792e+2, -120065.31, -140044.95, 150436.33, 0.07479265, -0.1786295, 20712.516, 44618.19, 0.0, 10.000177, 9.999877 
2.927355e+3, 1.3810293e+2, -1659123.3, -1565189.3, -149718.64, -0.18250668, -0.55124557, -1455243.6, 131314.69, 0.0, 9.999723, 10.001098 
2.926939e+3, 1.4809832e+2, -1402830.8, -1440514.5, -14601.278, -0.67011464, -0.25206578, -1397835.4, 90765.51, 0.0, 10.001148, 10.00059 
2.926535e+3, 1.5808861e+2, -1533523.5, -1568603.4, -12287.383, -0.12563473, -0.4746696, -1529647.8, -138952.88, 0.0, 10.000069, 9.999568 
2.9261273e+3, 1.6808091e+2, -1287875.3, -1500423.0, 7884.133, 0.060417514, -0.3138511, -1287583.1, 5191.209, 0.0, 10.001574, 9.998584 
2.925717e+3, 1.7807324e+2, -899949.2, -1270419.4, 84563.516, 0.06513065, -0.124689244, -881559.56, 313295.8, 0.0, 10.003552, 9.998592 
2.925305e+3, 1.8806367e+2, -759312.56, -945735.44, 43760.996, -0.01793805, -0.20950317, -749551.2, 347395.34, 0.0, 10.003066, 10.0003195 
2.9248932e+3, 1.9805321e+2, -954847.7, -1099390.5, 12945.13, -0.04282566, -0.4605356, -953697.5, 45345.37, 0.0, 10.001412, 9.99945 
2.9244834e+3, 2.0804444e+2, -807728.5, -991747.8, 39067.926, 0.12516084, -0.42523614, -799777.75, 101349.58, 0.0, 10.001925, 9.99919 
2.924073e+3, 2.1803598e+2, -679680.2, -909992.2, 94830.29, 0.32712764, -0.37221473, -645659.5, 157551.1, 0.0, 10.002215, 9.998985 
2.923658e+3, 2.2802645e+2, -560724.44, -661880.6, 57500.1, 0.03929473, -0.44893292, -534723.1, 170579.36, 0.0, 10.001837, 10.000158 
2.9232416e+3, 2.3801656e+2, -650102.4, -704501.8, 23416.074, -0.3648793, -0.6369757, -641411.5, -34015.117, 0.0, 10.000683, 9.999805 
2.9228324e+3, 2.4800813e+2, -503445.75, -481380.56, 104650.24, -0.24459416, -0.66957253, -387182.97, 122293.04, 0.0, 10.000652, 10.000609 
2.9224256e+3, 2.5800014e+2, -521532.84, -505968.22, 91814.516, 0.07992433, -0.723905, -421606.78, -10054.335, 0.0, 10.000065, 10.000107 
2.9220143e+3, 2.6799393e+2, -433318.72, -318452.16, 97263.02, 0.070181146, -0.5517646, -262931.13, 50685.863, 0.0, 9.9997425, 10.000777 
2.9216012e+3, 2.7798852e+2, -496728.03, -382853.78, 85788.27, -0.09684853, -0.36276197, -336827.5, -121151.57, 0.0, 9.998889, 10.000162 
2.9211873e+3, 2.8798288e+2, -179527.48, -143417.16, 59273.117, -0.27410764, -0.107137576, -99510.305, 18224.08, 0.0, 10.000348, 10.000364 
2.9207772e+3, 2.9797328e+2, -20048.152, 95190.164, 49689.38, 0.13687025, -0.3378367, 113656.5, 133486.64, 0.0, 10.000159, 10.001498 
2.937346e+3, 1.3851108e+2, -1566677.8, -1221221.8, 3842.0771, -0.24255915, -0.58579934, -1221179.1, 361378.53, 0.0, 9.999153, 10.003709 
2.936934e+3, 1.4851232e+2, -1524897.5, -1548541.6, -74795.79, -0.47947994, 0.23573653, -1460995.3, 23546.186, 0.0, 10.000529, 10.000142 
2.9365283e+3, 1.584965e+2, -1541547.3, -1539026.3, -13836.766, -0.020949118, -0.5638462, -1526392.6, -139693.77, 0.0, 9.999874, 9.999866 
2.9361206e+3, 1.6848905e+2, -1151903.9, -1187545.0, 85005.3, 0.04868855, -0.5383911, -1082871.3, 205898.45, 0.0, 10.001443, 10.000791 
2.9357108e+3, 1.7848338e+2, -871122.4, -1114437.1, 117143.9, -0.112366684, -0.35583904, -823891.6, 366931.4, 0.0, 10.003126, 9.999873 
2.9352987e+3, 1.8847463e+2, -842734.7, -1079329.1, -26336.504, -0.11492586, -0.3507889, -839838.5, 253072.14, 0.0, 10.002873, 9.999506 
2.934887e+3, 1.9846492e+2, -947280.44, -1066837.0, -8373.391, -0.054888614, -0.45431596, -946696.8, 48310.84, 0.0, 10.001323, 9.999719 
2.9344764e+3, 2.084575e+2, -656842.94, -691485.8, 69139.49, 0.035171177, -0.42811382, -602888.1, 294188.5, 0.0, 10.002001, 10.001212 
2.9340652e+3, 2.184504e+2, -533709.75, -754367.8, 119109.04, 0.05899831, -0.40564555, -481682.8, 317459.4, 0.0, 10.0027895, 9.999796 
2.9336506e+3, 2.2844121e+2, -603226.2, -902496.94, 15426.879, -0.079038076, -0.3455477, -602433.06, 98804.53, 0.0, 10.002371, 9.998306 
2.9332355e+3, 2.384316e+2, -581719.56, -743302.7, -5079.814, -0.31083885, -0.328495, -581560.06, 21778.178, 0.0, 10.001331, 9.999279 
2.9328245e+3, 2.4842453e+2, -350498.4, -327003.5, 94906.99, -0.32590887, -0.27112272, -243119.69, 262286.16, 0.0, 10.001252, 10.001437 
2.9324153e+3, 2.5841767e+2, -271410.97, -294362.5, 69967.41, -0.2501592, -0.2698737, -211984.48, 195484.66, 0.0, 10.001264, 10.001027 
2.9320058e+3, 2.6840883e+2, -369291.2, -275893.44, 29822.615, 0.01729041, -0.40769583, -267183.2, 42369.992, 0.0, 10.000031, 10.000969 
2.9315948e+3, 2.783999e+2, -457516.78, -334651.44, 36162.426, 0.19906232, -0.58279854, -324798.13, -113158.47, 0.0, 9.998862, 10.000559 
2.931178e+3, 2.8839245e+2, -219688.48, -245316.44, 62441.69, -0.39039543, -0.49281284, -168759.52, -55045.73, 0.0, 10.000224, 9.999831 
2.9307684e+3, 2.9838532e+2, 379353.4, 269543.3, 8184.8853, -0.09750337, -0.41417786, 379960.13, 395743.47, 0.0, 10.002685, 10.001578 
2.9473343e+3, 1.389199e+2, -1512476.0, -1247496.0, -10966.559, -0.5600805, -0.5764672, -1247042.9, 331501.2, 0.0, 9.999617, 10.003359 
2.9469305e+3, 1.4891806e+2, -1580618.9, -1615099.0, -56879.855, -0.029549824, -0.018589621, -1538423.9, -57860.445, 0.0, 10.000278, 9.999834 
2.9465201e+3, 1.5890573e+2, -1215629.9, -1344066.3, -35219.93, -0.10103854, -0.45340684, -1206605.9, 176085.33, 0.0, 10.001923, 10.000238 
2.9461128e+3, 1.6889818e+2, -1125429.3, -1043683.75, 2346.8855, -0.038726356, -0.5338708, -1043616.4, 241142.97, 0.0, 10.001094, 10.001948 
2.9457042e+3, 1.7889176e+2, -1329900.0, -1260306.8, -36606.21, -0.07191427, -0.54287845, -1244597.8, -57783.09, 0.0, 9.9996605, 10.000527 
2.9452923e+3, 1.8888457e+2, -1159851.6, -1236625.0, -131329.98, -0.11567277, -0.4187291, -1061413.3, 27476.879, 0.0, 10.000702, 9.999464 
2.94488e+3, 1.9887677e+2, -866772.7, -1013132.7, -81213.32, -0.054364856, -0.34714735, -830632.44, 160340.83, 0.0, 10.001836, 9.9998255 
2.944469e+3, 2.0886932e+2, -636789.7, -630319.4, -68639.35, -0.060101233, -0.3858055, -564839.0, 328202.9, 0.0, 10.001908, 10.001673 
2.9440573e+3, 2.1886192e+2, -785177.6, -894634.75, -129298.21, -0.07894435, -0.44709763, -699502.4, 95605.805, 0.0, 10.001151, 9.9996395 
2.943644e+3, 2.2885376e+2, -708205.25, -949809.56, -117213.31, -0.12896468, -0.3027681, -660685.94, 36509.207, 0.0, 10.001757, 9.9981985 
2.9432294e+3, 2.3884524e+2, -586560.56, -776922.75, -4754.1704, -0.18851905, -0.18267006, -586441.9, 12846.332, 0.0, 10.00154, 9.998897 
2.9428172e+3, 2.488387e+2, -480066.06, -363637.88, 66154.0, -0.32474375, -0.07019079, -333731.44, 167620.73, 0.0, 10.000399, 10.001525 
2.9424056e+3, 2.5883254e+2, -685048.9, -511803.0, -24905.11, -0.39409572, -0.025369767, -508293.8, -104884.67, 0.0, 9.998639, 10.000768 
2.9419973e+3, 2.688224e+2, -423509.34, -343155.97, -91412.58, 0.017428571, -0.27894506, -283480.63, 22023.336, 0.0, 9.999855, 10.0006 
2.9415885e+3, 2.7881104e+2, -274570.34, -296605.3, -73069.78, 0.41754523, -0.68300337, -211692.1, -4082.4175, 0.0, 10.000433, 10.000047 
2.941169e+3, 2.8880137e+2, -88849.96, -161247.8, 69141.21, -0.49748674, -0.81832474, -47004.863, 62696.75, 0.0, 10.001173, 9.999897 
2.940762e+3, 2.9879743e+2, 113439.9, 93166.84, 200051.5, -0.2061592, -0.4028578, 303611.5, 315347.2, 0.0, 10.001343, 10.000925 
2.957325e+3, 1.3932666e+2, -1649871.5, -1451713.0, -140274.58, -0.70258117, -0.74144995, -1379055.1, 195494.4, 0.0, 9.999291, 10.002126 
2.9569268e+3, 1.49321e+2, -1616818.6, -1668578.9, 13468.679, 0.37632707, -0.5135954, -1613523.6, -136910.16, 0.0, 10.000215, 9.999485 
2.956511e+3, 1.5931624e+2, -1301241.6, -1391998.0, -15263.797, -0.4378001, -0.16076502, -1298743.3, 79928.71, 0.0, 10.001363, 10.000189 
2.956104e+3, 1.6930747e+2, -1132525.9, -994525.7, -64441.453, -0.21051952, -0.40052292, -969113.3, 311636.6, 0.0, 10.000811, 10.00242 
2.955697e+3, 1.7929862e+2, -1312810.4, -1187318.6, -54500.46, -0.009989139, -0.6940834, -1166954.1, 15872.431, 0.0, 9.999485, 10.001117 
2.9552847e+3, 1.8929362e+2, -1099579.4, -1122571.8, -87452.93, -0.12255831, -0.42921075, -1022870.2, 62012.69, 0.0, 10.000722, 10.000242 
2.9548723e+3, 1.9928858e+2, -852101.44, -1009712.9, -57181.36, -0.24409708, -0.13538328, -833541.6, 153400.23, 0.0, 10.001895, 9.999841 
2.9544613e+3, 2.0927931e+2, -693545.06, -808533.06, -109923.15, -0.22749273, -0.26825997, -626988.06, 262042.06, 0.0, 10.002054, 10.00043 
2.9540494e+3, 2.1926957e+2, -672300.8, -777932.5, -171915.94, -0.23791756, -0.4697442, -545270.6, 245850.2, 0.0, 10.0015745, 10.000266 
2.953637e+3, 2.292627e+2, -473107.78, -529343.56, -119596.28, -0.1786506, -0.41271418, -378368.47, 314818.75, 0.0, 10.002027, 10.000972 
2.9532242e+3, 2.3925592e+2, -354800.34, -516779.5, -34346.414, -0.14132115, -0.3545897, -347818.4, 247435.86, 0.0, 10.002404, 10.000283 
2.952811e+3, 2.4924766e+2, -553429.75, -578616.1, -40362.734, -0.15361065, -0.35334268, -523741.28, -26404.184, 0.0, 10.000562, 10.000029 
2.9523987e+3, 2.5923938e+2, -726115.6, -665587.5, -81617.34, -0.15713158, -0.35767868, -608803.9, -209383.98, 0.0, 9.998798, 9.999688 
2.9519898e+3, 2.6923224e+2, -386104.78, -462449.25, -81826.85, 0.051964354, -0.2071376, -333984.44, -32490.313, 0.0, 10.000586, 9.999483 
2.95158e+3, 2.7922451e+2, 133890.58, -24759.307, -115836.79, 0.18465872, -0.1605744, 194960.11, 398531.9, 0.0, 10.002776, 10.000832 
2.9511645e+3, 2.8921288e+2, 331023.72, 337838.06, -995.2273, -0.34485075, -0.7223004, 337980.44, 443654.2, 0.0, 10.002626, 10.002695 
2.9507574e+3, 2.9920995e+2, 362896.84, 301073.72, 269809.7, -0.045547817, -0.41416115, 603559.94, 611247.1, 0.0, 10.002419, 10.001892 
2.9673198e+3, 1.3973789e+2, -1554499.3, -1548947.5, -100327.8, -0.3771414, -0.5360031, -1451357.3, 119165.945, 0.0, 10.000583, 10.00082 
2.9669157e+3, 1.4972897e+2, -1456135.3, -1578674.0, 94285.3, 0.026471335, -0.5919597, -1404960.6, 67660.47, 0.0, 10.001299, 9.999578 
2.9665032e+3, 1.5972555e+2, -1330928.8, -1387702.5, 51230.94, -0.49263215, -0.10054981, -1300745.9, 73919.65, 0.0, 10.001046, 10.000382 
2.966096e+3, 1.6971715e+2, -1113208.4, -992749.5, -30210.453, -0.22806036, -0.30735487, -985597.5, 291142.6, 0.0, 10.000902, 10.002417 
2.9656887e+3, 1.7970824e+2, -1127851.3, -1076170.6, -11683.14, 0.017025417, -0.6133383, -1073652.1, 105165.78, 0.0, 10.00063, 10.001348 
2.965277e+3, 1.8970336e+2, -1006212.8, -1008027.06, -30995.145, -0.14580645, -0.38286623, -976111.5, 104759.086, 0.0, 10.001112, 10.000833 
2.9648656e+3, 1.9969837e+2, -969957.94, -1066605.8, -32393.21, -0.23698348, -0.12316716, -960105.25, 22820.871, 0.0, 10.001131, 9.999818 
2.9644546e+3, 2.0968872e+2, -889877.3, -924642.4, -46880.645, -0.1968223, -0.2699861, -857260.4, 27759.127, 0.0, 10.000908, 10.000146 
2.9640424e+3, 2.1967846e+2, -882583.56, -842783.7, -53349.594, -0.16161172, -0.50264406, -805743.44, -18626.658, 0.0, 10.00007, 10.000512 
2.9636303e+3, 2.2967236e+2, -534944.6, -402696.03, -58937.855, -0.16512124, -0.46947402, -380242.16, 308929.38, 0.0, 10.000957, 10.002344 
2.963218e+3, 2.3966661e+2, -522866.38, -608367.9, -121095.3, -0.10284935, -0.43031925, -437197.13, 154026.25, 0.0, 10.001346, 10.000175 
2.962805e+3, 2.4965674e+2, -477743.1, -691398.5, -174241.55, -0.024720011, -0.5020362, -380188.13, 113135.44, 0.0, 10.001759, 9.998655 
2.962392e+3, 2.5964665e+2, -531455.75, -736967.56, -129844.89, 0.07152126, -0.5652946, -468626.4, -73198.84, 0.0, 10.000931, 9.998141 
2.9619822e+3, 2.6964158e+2, -506338.1, -595217.7, -31206.223, 0.067267284, -0.12477609, -496475.72, -198988.16, 0.0, 10.000174, 9.998719 
2.9615715e+3, 2.796363e+2, -426947.97, -297864.16, -60770.137, -0.014903608, 0.21336491, -273756.94, -74210.35, 0.0, 9.999069, 10.000703 
2.9611602e+3, 2.8962305e+2, 113060.58, 411379.53, -115000.47, -0.16101761, -0.6327495, 450564.56, 552222.9, 0.0, 10.0004835, 10.0041685 
2.9607517e+3, 2.9962006e+2, 89638.92, 149542.9, 80848.1, -0.08124117, -0.49278033, 205808.88, 209475.89, 0.0, 10.0008, 10.00159 
2.9773116e+3, 1.4015177e+2, -1642629.1, -1740524.8, -49103.613, -0.49615568, -0.08799947, -1622244.0, -55768.016, 0.0, 10.000731, 9.999395 
2.9769024e+3, 1.5013905e+2, -1481803.5, -1563943.6, 112640.74, -0.63723147, -0.50783163, -1402979.0, 65631.67, 0.0, 10.00104, 9.999786 
2.9764965e+3, 1.6013409e+2, -1398924.6, -1412277.4, 51246.29, -0.48294243, -0.18206207, -1353921.6, 16744.902, 0.0, 10.000563, 10.000441 
2.9760888e+3, 1.7012759e+2, -1168738.5, -1038682.0, -24330.441, -0.24340238, -0.19739553, -1034279.4, 238446.14, 0.0, 10.000615, 10.002238 
2.97568e+3, 1.8012036e+2, -1144261.0, -1088434.4, -14202.95, -0.15367141, -0.30581534, -1085028.8, 89760.96, 0.0, 10.000516, 10.001327 
2.9752696e+3, 1.9011346e+2, -952741.44, -948281.5, -32226.607, -0.20532812, -0.30331108, -918207.8, 158647.5, 0.0, 10.001266, 10.0012 
2.9748592e+3, 2.0010635e+2, -888278.3, -944481.5, -62540.527, -0.22175196, -0.30081424, -847815.94, 131108.05, 0.0, 10.001267, 10.000615 
2.9744488e+3, 2.100976e+2, -838514.56, -817973.56, -83970.766, -0.03718498, -0.43438038, -743647.5, 137360.83, 0.0, 10.000882, 10.00091 
2.9740372e+3, 2.2008906e+2, -805326.7, -777193.2, -56324.35, 0.05603575, -0.5544195, -733205.6, 49884.434, 0.0, 10.000374, 10.000855 
2.9736236e+3, 2.3008357e+2, -546074.06, -517078.28, -36168.74, -0.122064024, -0.4052015, -492609.94, 192530.6, 0.0, 10.001214, 10.001501 
2.9732102e+3, 2.4007775e+2, -455343.06, -674674.06, -128177.29, -0.2822695, -0.27317828, -396319.7, 190875.55, 0.0, 10.002129, 9.999378 
2.9727986e+3, 2.5006714e+2, -399765.6, -770917.75, -193727.84, -0.08745227, -0.32500464, -317071.38, 172232.3, 0.0, 10.002685, 9.997709 
2.972387e+3, 2.6005632e+2, -231742.58, -572442.6, -208470.98, 0.115514055, -0.38949004, -132872.84, 258542.45, 0.0, 10.002751, 9.998431 
2.9719746e+3, 2.7004945e+2, -387694.97, -453717.9, -136999.52, 0.09768889, -0.18648809, -279785.8, 13701.2295, 0.0, 10.000514, 9.999603 
2.9715618e+3, 2.800423e+2, -555899.0, -474829.44, -65880.25, -0.0313657, -0.04840281, -438012.6, -242452.27, 0.0, 9.998515, 9.999819 
2.971153e+3, 2.900287e+2, -204658.13, -159669.16, -123339.055, -0.04706199, -0.64154875, -56790.105, 40895.215, 0.0, 9.999978, 10.000563 
2.9707447e+3, 3.0002466e+2, -41570.363, -262964.2, -122203.664, -0.12084621, -0.22431003, 12619.175, 12619.175, 0.0, 10.001275, 9.99858 
2.987306e+3, 1.4056146e+2, -1302946.9, -1691354.0, -50037.37, -0.46296293, -0.264891, -1296604.3, 265856.9, 0.0, 10.003451, 9.998456 
2.9868937e+3, 1.5055248e+2, -1368136.5, -1483246.5, 156431.72, -0.8307084, -0.29584447, -1259007.8, 205550.17, 0.0, 10.001633, 10.000089 
2.98649e+3, 1.6054626e+2, -1465431.8, -1425981.0, 128798.164, -0.29979753, -0.12565698, -1315406.5, 51216.62, 0.0, 9.999986, 10.000666 
2.986082e+3, 1.705395e+2, -1245535.9, -1080165.8, 93087.5, -0.11419557, -0.14875105, -1038343.4, 230342.48, 0.0, 10.000122, 10.002222 
2.985673e+3, 1.8053201e+2, -1192201.5, -1153089.4, 143745.78, -0.052783187, -0.24974917, -1027575.5, 143179.17, 0.0, 10.00036, 10.000986 
2.9852632e+3, 1.9052395e+2, -967517.5, -956338.6, 108699.734, -0.12361875, -0.32899615, -853084.75, 219744.6, 0.0, 10.001174, 10.001203 
2.9848528e+3, 2.005162e+2, -865944.5, -926096.75, 14200.994, -0.1595697, -0.40221304, -862760.44, 112141.84, 0.0, 10.001392, 10.000688 
2.9844403e+3, 2.105077e+2, -832057.1, -854268.94, -88357.63, -0.11390924, -0.4910834, -754110.1, 122876.79, 0.0, 10.001035, 10.000616 
2.9840285e+3, 2.2050026e+2, -871484.25, -839717.7, -63847.48, -0.0057692025, -0.49560958, -789807.5, -10746.717, 0.0, 10.000084, 10.00058 
2.9836166e+3, 2.3049484e+2, -503973.7, -517031.6, 13497.602, -0.14195111, -0.3222005, -495508.9, 185602.06, 0.0, 10.001674, 10.001265 
2.9832038e+3, 2.4048804e+2, -476895.3, -767363.3, -65937.914, -0.29558218, -0.23196515, -462627.8, 120547.52, 0.0, 10.002414, 9.998594 
2.9827914e+3, 2.5047675e+2, -613024.75, -877551.7, -90050.58, -0.19053279, -0.31912324, -585279.7, -99991.016, 0.0, 10.001367, 9.997571 
2.9823795e+3, 2.6046568e+2, -678183.2, -838674.7, -60854.4, 0.03129381, -0.36243403, -657718.25, -270317.4, 0.0, 10.000018, 9.997908 
2.9819673e+3, 2.704574e+2, -146004.17, -288425.72, -72091.195, 0.112647444, -0.3092478, -115883.24, 173600.92, 0.0, 10.002038, 9.999979 
2.9815546e+3, 2.804488e+2, -93375.62, -452243.75, 15885.172, 0.049676985, -0.3094064, -92673.836, 98896.38, 0.0, 10.002685, 9.997951 
2.9811466e+3, 2.90436e+2, -25073.383, -428073.4, 66975.24, 0.038389448, -0.534915, -14234.19, 79462.38, 0.0, 10.002887, 9.997279 
2.9807377e+3, 3.0042887e+2, -394382.97, -703685.25, 30804.383, -0.16490102, -0.1002013, -391344.9, -391344.9, 0.0, 10.000255, 9.99599 
2.9973015e+3, 1.409701e+2, -1589905.3, -1845215.1, -181623.05, -0.5006974, -0.5554342, -1495563.1, 62890.863, 0.0, 10.001655, 9.998268 
2.9968867e+3, 1.5096638e+2, -1449340.1, -1459875.8, 20074.992, -0.85309964, -0.10841196, -1433853.3, 26642.713, 0.0, 10.000866, 10.000615 
2.9964837e+3, 1.6095963e+2, -1510803.0, -1430283.1, 62735.55, -0.1401315, -0.03742883, -1396000.4, -33437.54, 0.0, 9.999612, 10.000819 
2.9960763e+3, 1.7095083e+2, -1303829.3, -1112595.6, 55080.492, 0.12751962, -0.26707587, -1097865.5, 166779.42, 0.0, 9.999746, 10.002184 
2.9956678e+3, 1.8094242e+2, -1236109.6, -1146370.6, 136657.69, 0.12483345, -0.46459642, -1047404.9, 119318.36, 0.0, 9.99998, 10.001195 
2.9952568e+3, 1.9093446e+2, -974404.44, -963901.8, 143868.77, -0.087308966, -0.53334194, -825188.56, 243609.3, 0.0, 10.001197, 10.001119 
2.9948458e+3, 2.0092677e+2, -989131.8, -1079435.5, -10560.34, -0.24354461, -0.5422202, -987913.25, -17040.984, 0.0, 10.000941, 9.999843 
2.9944298e+3, 2.1092013e+2, -932701.2, -1002210.56, -118020.37, -0.47631183, -0.3503274, -844424.56, 28520.785, 0.0, 10.00078, 9.999713 
2.994014e+3, 2.2091264e+2, -766613.1, -796480.56, -46663.547, -0.68868303, -0.27490196, -732551.94, 42473.004, 0.0, 10.000782, 10.000541 
2.9936075e+3, 2.3090424e+2, -407580.8, -438256.28, 55686.875, -0.39403674, -0.41523403, -365158.06, 311944.53, 0.0, 10.00212, 10.001631 
2.9932004e+3, 2.408962e+2, -237351.55, -492472.7, -89057.875, -0.1465452, -0.51293445, -209338.97, 369836.75, 0.0, 10.00331, 10.000061 
2.9927823e+3, 2.5088522e+2, -453379.88, -638781.44, -148377.25, -0.38949743, -0.70896417, -371125.7, 110151.88, 0.0, 10.00172, 9.999079 
2.992366e+3, 2.608744e+2, -623138.56, -791909.9, 32859.613, -0.53316927, -0.8138951, -616966.5, -233585.06, 0.0, 10.000203, 9.998196 
2.9919615e+3, 2.708672e+2, -66606.07, -403055.03, 96987.234, 0.042947672, -0.5291883, -40650.223, 244812.0, 0.0, 10.003197, 9.9986925 
2.991555e+3, 2.808599e+2, 392827.9, -247999.28, 79006.766, 0.38224995, -0.2712026, 402424.84, 589967.56, 0.0, 10.006044, 9.997805 
2.9911435e+3, 2.9085016e+2, 333655.16, -260272.5, 114521.0, 0.089053676, -0.17407477, 354972.0, 444610.56, 0.0, 10.005261, 9.997422 
2.9907322e+3, 3.008382e+2, -324816.7, -632918.94, -234097.03, 0.07433991, -0.1851749, -198630.11, -198630.11, 0.0, 10.000303, 9.996648 
3.007296e+3, 1.4138316e+2, -1876100.8, -1770565.0, -437237.25, -0.24860884, -0.025853757, -1382923.0, 171502.72, 0.0, 9.998511, 10.000385 
3.0068815e+3, 1.5137227e+2, -1353105.1, -1412053.1, -89602.03, -0.6375346, -0.37947547, -1288253.9, 168272.27, 0.0, 10.001472, 10.00063 
3.0064762e+3, 1.6136037e+2, -1166910.1, -1338138.0, -162433.28, -0.25187874, -0.8277489, -1068909.5, 289725.72, 0.0, 10.002181, 10.00019 
3.006064e+3, 1.713567e+2, -1162738.3, -1151670.4, -241750.2, -0.32789493, -0.51241255, -915390.8, 345279.03, 0.0, 10.001072, 10.001231 
3.005656e+3, 1.8135218e+2, -1152062.5, -1098116.6, -112323.47, -0.25360447, -0.32566965, -1009572.94, 153139.02, 0.0, 10.000379, 10.001357 
3.0052495e+3, 1.9134665e+2, -865371.44, -809483.44, -63216.598, -0.15310994, -0.3151737, -768310.1, 296452.06, 0.0, 10.001354, 10.002102 
3.0048412e+3, 2.0133735e+2, -796013.75, -1042321.2, -144623.67, -0.024479412, -0.5358584, -729212.6, 237639.06, 0.0, 10.002376, 9.999408 
3.00443e+3, 2.1133217e+2, -936249.44, -897956.9, -127762.76, 0.3218805, -0.2816819, -787913.75, 80996.68, 0.0, 10.000286, 10.000587 
3.004016e+3, 2.2132619e+2, -1190787.4, -1133638.8, 49222.152, 0.3270069, -0.057384223, -1105298.1, -334322.34, 0.0, 9.998405, 9.999333 
3.0036035e+3, 2.3131563e+2, -1155195.1, -936287.1, 76794.4, 0.02992561, -0.31236085, -912034.1, -238957.8, 0.0, 9.997576, 10.000298 
3.003194e+3, 2.4130735e+2, -1155877.3, -873332.25, -131606.98, -0.03865949, -0.41807887, -821528.8, -246377.66, 0.0, 9.9967375, 10.000553 
3.0027804e+3, 2.5130007e+2, -118743.56, -274302.47, -121744.8, 0.023630304, -0.44027492, -52053.508, 425155.66, 0.0, 10.003217, 10.000729 
3.0023634e+3, 2.6129025e+2, 166205.58, -682082.0, 21881.416, -0.19120702, -0.5207996, 166769.63, 546068.25, 0.0, 10.006841, 9.995675 
3.001954e+3, 2.7127734e+2, -521845.9, -1072829.8, -156683.52, -0.11534168, -0.4726483, -480406.4, -198962.72, 0.0, 10.002122, 9.99447 
3.001545e+3, 2.812678e+2, -550422.06, -559529.5, -251924.05, -0.14626235, -0.26038358, -303010.56, -119458.36, 0.0, 9.999005, 9.9989805 
3.0011332e+3, 2.9126346e+2, 25263.857, 110535.414, 265092.1, -0.47134882, -0.06373781, 336398.47, 421989.0, 0.0, 10.001068, 10.001839 
3.0007237e+3, 3.0125302e+2, -57117.06, -65697.51, -126244.13, 0.11583711, -0.3312752, 64909.73, 64909.73, 0.0, 10.000508, 10.000274 
