coord_x,coord_y,stress_xx,stress_yy,tau_xy,velocity_x,velocity_y,stress_1,eps,damage,lx,ly
5.001378e+0, 1.2463581e+2, -1508584.8, -1825146.9, 110369.664, 0.02261959, -0.082256794, -1473903.8, 244657.86, 0.0027102246, 10.002126, 9.998212 
5.001086e+0, 1.3463536e+2, -1200450.8, -1461978.5, 77475.1, -0.042753488, -0.19880013, -1179222.5, 441340.75, 0.0016001622, 10.002935, 9.999629 
5.0011057e+0, 1.4463654e+2, -1135627.4, -1452972.3, 32133.727, -0.04667344, -0.0011448411, -1132406.3, 390142.9, 0.00071385584, 10.003042, 9.998951 
5.0012505e+0, 1.5463342e+2, -1135852.4, -1405133.9, -35378.645, 0.0014007952, -0.2864406, -1131281.9, 293295.25, 0.00020880907, 10.00238, 9.998928 
5.0012183e+0, 1.6463235e+2, -1110499.5, -1387724.0, -16929.13, 0.013372405, -0.25977975, -1109469.5, 217118.3, 0.00003056022, 10.002086, 9.998518 
5.000943e+0, 1.7463273e+2, -1010436.25, -1306541.3, 7068.052, -0.018748568, -0.13476476, -1010267.6, 218320.31, 0.0000010193884, 10.002175, 9.998361 
5.0008845e+0, 1.8463208e+2, -837513.7, -1067784.5, 24726.096, -0.02874378, -0.07398625, -834888.56, 295704.66, 0.0, 10.002253, 9.999285 
5.0010574e+0, 1.9462997e+2, -738079.7, -982441.1, -20932.145, -0.014314498, -0.27725464, -736299.56, 296307.72, 0.0, 10.002317, 9.999172 
5.0010794e+0, 2.0462905e+2, -763271.9, -1063965.1, -30831.684, 0.0041015283, -0.22810493, -760143.06, 174473.53, 0.0, 10.001994, 9.998089 
5.000871e+0, 2.1462889e+2, -785047.56, -1042064.75, -28397.826, 0.020410132, -0.10924577, -781947.3, 54678.824, 0.0, 10.001249, 9.997928 
5.0005877e+0, 2.2462864e+2, -649037.94, -768501.75, 3627.4197, 0.013069883, 0.012797292, -648927.9, 89703.18, 0.0, 10.000838, 9.99933 
5.000254e+0, 2.346279e+2, -558920.9, -677118.44, -22015.361, -0.018696737, -0.06519968, -554953.5, 85680.76, 0.0, 10.0007925, 9.999308 
5.0002813e+0, 2.4462695e+2, -497583.9, -646787.4, -21954.668, -0.0133424355, -0.06339466, -494420.44, 48219.85, 0.0, 10.000752, 9.998862 
5.000726e+0, 2.5462517e+2, -422958.22, -585613.94, -43253.64, 0.033322573, -0.18560143, -412171.5, 32484.193, 0.000000000017365094, 10.000697, 9.998641 
5.000743e+0, 2.6462317e+2, -385625.3, -657546.94, -5866.8135, 0.025884513, -0.17859574, -385498.78, -38823.26, 0.000000288742, 10.00089, 9.997373 
5.0002706e+0, 2.7462095e+2, -228114.03, -542655.0, 15061.434, -0.04500825, -0.19824283, -227394.48, 21305.95, 0.0000033591298, 10.001347, 9.997268 
5.000215e+0, 2.8461918e+2, -115404.64, -335092.53, 16643.945, -0.033165988, -0.14262366, -114150.83, 36566.973, 0.000018802597, 10.00101, 9.998176 
5.000553e+0, 2.9461625e+2, -174587.36, -289603.66, 15227.525, 0.05896663, -0.32954198, -172605.47, -119862.195, 0.000081046455, 9.999806, 9.998401 
5.0001705e+0, 3.046173e+2, -193930.14, -250533.2, 36338.715, 0.050689407, -0.08917838, -176172.16, -176172.16, 0.0003038914, 9.999232, 9.9986105 
4.9989447e+0, 3.1461415e+2, 1495.883, 170454.73, 5497.8735, -0.06988841, -0.3129646, 170633.45, 170633.45, 0.00078894256, 9.999071, 10.001606 
1.5004098e+1, 1.2463797e+2, -1564638.8, -1844316.9, 94424.59, 0.068554394, -0.11418296, -1535744.4, 182788.88, 0.0026043395, 10.001772, 9.998272 
1.5003343e+1, 1.346365e+2, -1240771.4, -1491294.8, 122963.11, -0.11549347, -0.2548689, -1190504.1, 430041.75, 0.0015429672, 10.002752, 9.999541 
1.5003301e+1, 1.446374e+2, -1253321.5, -1634602.0, -5010.9805, -0.1396353, -0.024918552, -1253255.6, 269282.72, 0.0006869522, 10.002801, 9.997835 
1.5003738e+1, 1.5463513e+2, -1250965.8, -1592714.6, -43525.195, 0.004349991, -0.06746684, -1245509.5, 179055.77, 0.0001968844, 10.00219, 9.9977455 
1.5003662e+1, 1.6463389e+2, -1073060.6, -1251025.8, -28490.518, 0.043778416, -0.050528567, -1068610.9, 257968.14, 0.000026649353, 10.001866, 9.999574 
1.5002865e+1, 1.7463331e+2, -956374.75, -1145125.8, 25109.76, -0.05183792, -0.096966505, -953091.5, 275490.47, 0.00000066228677, 10.001987, 9.999575 
1.5002619e+1, 1.8463238e+2, -921282.9, -1175601.5, 13223.055, -0.08634194, -0.10139983, -920597.2, 209991.94, 0.0, 10.002008, 9.99867 
1.5003164e+1, 1.9463083e+2, -821477.9, -1095391.5, -2626.322, -0.04046335, -0.14498855, -821452.7, 211150.17, 0.0, 10.00209, 9.998517 
1.5003216e+1, 2.0462953e+2, -762496.44, -1001194.3, -69857.6, 0.011552411, -0.1245342, -743554.9, 191060.86, 0.0, 10.001764, 9.998639 
1.5002593e+1, 2.1462837e+2, -775945.06, -964529.56, -40433.52, 0.060168374, -0.1339159, -767641.5, 68988.02, 0.0, 10.001026, 9.998576 
1.5001751e+1, 2.2462715e+2, -693878.06, -800816.3, -14743.733, 0.04221029, -0.14081739, -691882.56, 46758.875, 0.0, 10.000613, 9.999228 
1.5000731e+1, 2.3462573e+2, -607891.25, -714112.75, -8255.226, -0.055998486, -0.23312025, -607253.5, 33399.008, 0.0, 10.000551, 9.999178 
1.5000853e+1, 2.4462467e+2, -538919.2, -680301.25, -38459.402, -0.037415516, -0.2297827, -529134.44, 13527.178, 0.0, 10.000558, 9.998738 
1.5002169e+1, 2.546238e+2, -461065.7, -599109.9, -32194.291, 0.102495775, -0.21740326, -453926.63, -9255.736, 0.0, 10.000447, 9.99868 
1.5002233e+1, 2.6462314e+2, -344297.3, -519370.56, -2430.6404, 0.07932597, -0.13486265, -344263.56, 2414.706, 0.00000013049092, 10.0007, 9.998424 
1.5000825e+1, 2.7462265e+2, -195236.81, -412074.2, 43358.8, -0.13299297, -0.05171623, -186888.22, 61796.03, 0.0000024373799, 10.001107, 9.998292 
1.5000609e+1, 2.8462076e+2, -113931.52, -281486.84, -39101.227, -0.10077915, -0.08254599, -105255.945, 45445.645, 0.000015368285, 10.000827, 9.998647 
1.5001635e+1, 2.9461652e+2, -185197.94, -239896.94, -7500.3267, 0.17397329, -0.40974885, -184188.13, -131449.0, 0.000069496324, 9.999519, 9.998896 
1.5000594e+1, 3.046181e+2, -256980.64, -304230.78, 17838.924, 0.16843851, -0.11897181, -251002.16, -251002.16, 0.00026841622, 9.998989, 9.99838 
1.4996777e+1, 3.1461558e+2, -160921.92, -29819.83, 55549.473, -0.20501508, -0.1992793, -9448.331, -9448.331, 0.0007052667, 9.998575, 10.000488 
2.5006714e+1, 1.246388e+2, -1401041.8, -1782225.8, 50358.453, 0.10865283, -0.11930855, -1394501.1, 324019.97, 0.0024837567, 10.003004, 9.998072 
2.5006518e+1, 1.3463673e+2, -1262539.0, -1561346.6, 16954.11, -0.066176064, -0.2855766, -1261580.1, 358961.5, 0.0014731403, 10.0029, 9.998967 
2.5006646e+1, 1.4463715e+2, -1265446.8, -1656875.9, -58017.59, -0.07412827, -0.06778826, -1257028.5, 265511.53, 0.00065158884, 10.00282, 9.997653 
2.5006673e+1, 1.5463538e+2, -1162637.5, -1572432.5, -40437.895, 0.053057384, -0.052816086, -1158685.3, 265876.9, 0.0001815959, 10.002915, 9.99752 
2.5006086e+1, 1.6463406e+2, -997037.4, -1252090.6, 12030.605, 0.07452848, -0.010548659, -996471.2, 330105.8, 0.000022322774, 10.002559, 9.999219 
2.5004852e+1, 1.7463286e+2, -1029938.25, -1214626.3, -62879.73, -0.025118899, -0.100719966, -1010562.6, 218024.73, 0.00000035252413, 10.001652, 9.99924 
2.500454e+1, 1.8463185e+2, -1015360.7, -1208782.3, -43305.516, -0.05068364, -0.09849159, -1006107.56, 124488.3, 0.0, 10.001299, 9.998776 
2.5005427e+1, 1.94631e+2, -907159.7, -1119091.5, -10372.043, 0.0197499, -0.09990244, -906653.3, 125950.125, 0.0, 10.001427, 9.998658 
2.500525e+1, 2.0462981e+2, -787186.2, -997692.3, -30467.541, 0.058529537, -0.08336414, -782865.2, 151749.08, 0.0, 10.001533, 9.998769 
2.5003785e+1, 2.1462803e+2, -694479.2, -914835.6, -51636.73, 0.05911304, -0.17689511, -682979.1, 153652.2, 0.0, 10.001545, 9.998662 
2.50026e+1, 2.2462651e+2, -615411.56, -811182.94, -9344.918, 0.03558363, -0.19510534, -614966.5, 123679.18, 0.0, 10.001356, 9.998781 
2.5001815e+1, 2.3462512e+2, -595168.1, -766374.4, -37987.414, -0.011616463, -0.2502501, -587117.94, 53540.902, 0.0, 10.000877, 9.998651 
2.5001788e+1, 2.4462415e+2, -531591.5, -689557.3, -25243.518, 0.0018741583, -0.20416535, -527655.56, 15013.2705, 0.0, 10.000686, 9.998591 
2.5002566e+1, 2.5462338e+2, -412842.66, -591014.75, -38095.156, 0.08691082, -0.17692563, -405039.25, 39638.395, 0.0, 10.000854, 9.998521 
2.500254e+1, 2.6462293e+2, -354588.2, -474265.22, -5938.874, 0.062204115, -0.08785736, -354294.2, -7611.2075, 0.00000003137998, 10.000432, 9.99885 
2.500155e+1, 2.7462262e+2, -421289.88, -471508.0, -22892.207, -0.0744991, -0.036953665, -412420.72, -163734.84, 0.0000016497497, 9.999355, 9.998719 
2.5001156e+1, 2.84621e+2, -352188.5, -366429.0, -88259.75, -0.031569958, -0.073881805, -270762.25, -120061.85, 0.000012071121, 9.999076, 9.998894 
2.5001538e+1, 2.946176e+2, -162612.19, -209513.31, -90863.555, 0.21986218, -0.35258058, -92221.85, -39490.66, 0.00005739791, 9.999623, 9.99904 
2.5000337e+1, 3.046197e+2, -131861.36, -216507.34, -3142.342, 0.22336629, -0.02619734, -131744.86, -131744.86, 0.00023072664, 9.999743, 9.998619 
2.4996486e+1, 3.1461662e+2, -107704.04, -77908.68, 40831.293, -0.10028406, -0.21326166, -49342.176, -49342.176, 0.000617959, 9.999283, 9.999794 
3.500885e+1, 1.2463815e+2, -1449829.8, -1834252.5, -2291.738, -0.049566854, -0.172823, -1449816.1, 268710.66, 0.0023583595, 10.002812, 9.997804 
3.501019e+1, 1.3463606e+2, -1313115.5, -1643316.9, 22970.146, -0.026603494, -0.26305783, -1311525.3, 309025.0, 0.0013953737, 10.002824, 9.998433 
3.5010728e+1, 1.446356e+2, -1213934.3, -1515546.0, -72632.805, 0.008896709, -0.15491281, -1197354.5, 325201.13, 0.0006105934, 10.00268, 9.998686 
3.5009632e+1, 1.546341e+2, -1094488.4, -1406463.4, -20914.318, 0.018860837, -0.21911108, -1093092.5, 331475.75, 0.00016453842, 10.002827, 9.998694 
3.5008222e+1, 1.6463283e+2, -1111841.5, -1465707.5, -38469.67, -0.0043942034, -0.16893058, -1107707.6, 218875.27, 0.000017966355, 10.002446, 9.997815 
3.5006565e+1, 1.7463115e+2, -1148588.3, -1445871.8, -81177.266, -0.05516836, -0.14411132, -1127866.1, 100739.99, 0.00000014192928, 10.001584, 9.997691 
3.5006297e+1, 1.8463033e+2, -955277.0, -1046203.6, -54037.066, -0.037239805, -0.09851789, -930122.2, 200493.16, 0.0, 10.001146, 9.999961 
3.500749e+1, 1.9463044e+2, -835064.4, -936537.75, 9252.986, 0.04954669, -0.12588254, -834227.5, 198381.88, 0.0, 10.001293, 9.999973 
3.5006866e+1, 2.0462978e+2, -811992.06, -1009856.4, -46837.31, 0.038224023, -0.12715615, -801465.06, 133147.94, 0.0, 10.00137, 9.998762 
3.5004127e+1, 2.1462783e+2, -722016.3, -931578.1, -36499.41, -0.091220394, -0.22059178, -715841.2, 120790.25, 0.0, 10.001377, 9.998627 
3.5002804e+1, 2.2462665e+2, -677931.2, -890886.75, -36943.55, -0.10906735, -0.18261169, -671704.3, 66940.086, 0.0, 10.001154, 9.998327 
3.5003126e+1, 2.3462619e+2, -654704.44, -840192.25, -41162.28, -0.0006428836, -0.09179481, -645980.3, -5328.2075, 0.0, 10.000679, 9.998234 
3.5002786e+1, 2.4462539e+2, -550770.56, -697749.5, -32688.525, 0.0034995994, -0.0069077755, -543828.44, -1166.8267, 0.0, 10.000546, 9.998607 
3.5001603e+1, 2.5462398e+2, -436323.47, -598983.2, -16461.936, -0.12662928, -0.040823914, -434674.2, 10001.106, 0.0, 10.000683, 9.9985485 
3.500135e+1, 2.646226e+2, -364198.16, -472747.4, -57592.926, -0.12895872, -0.04798344, -339335.7, 7352.986, 0.0000000045955626, 10.000339, 9.998904 
3.500201e+1, 2.7462098e+2, -434765.13, -465038.75, -45659.855, 0.0020453657, -0.130808, -401798.44, -153094.66, 0.0000011896407, 9.999208, 9.998833 
3.500156e+1, 2.8461996e+2, -345116.3, -329059.97, -82691.76, 0.06877902, -0.12764072, -254007.58, -103293.86, 0.000009641755, 9.998987, 9.999192 
3.4999874e+1, 2.9461944e+2, -175717.69, -200602.03, -56457.39, 0.051493455, -0.13734889, -130347.71, -77627.85, 0.0000464018, 9.999477, 9.999172 
3.4998894e+1, 3.0462182e+2, -61752.633, -63205.938, -30837.676, 0.07456869, 0.15807301, -31633.05, -31633.05, 0.00019513248, 9.999689, 9.999696 
3.4997284e+1, 3.1461784e+2, -124833.8, -94968.3, 69818.22, -0.02195699, -0.23936044, -38503.77, -38503.77, 0.00053834624, 9.999183, 9.999723 
4.501183e+1, 1.2463724e+2, -1499261.9, -1797560.3, 5875.035, 0.026664421, -0.1861951, -1499146.3, 219391.84, 0.0022337737, 10.002239, 9.998315 
4.5013222e+1, 1.3463622e+2, -1393960.8, -1664602.9, 14595.037, 0.04761497, -0.18649466, -1393175.9, 227374.97, 0.0013153872, 10.002203, 9.99858 
4.5013878e+1, 1.4463533e+2, -1234873.5, -1466857.8, -15647.247, 0.09525302, -0.15444966, -1233822.9, 288736.2, 0.00056916923, 10.002261, 9.999241 
4.5012432e+1, 1.5463386e+2, -1095670.3, -1349877.0, -42368.55, 0.045893393, -0.26690516, -1088794.8, 335774.2, 0.00014812649, 10.002551, 9.999237 
4.5010787e+1, 1.6463277e+2, -1110781.0, -1470130.3, -31642.223, 0.019511482, -0.22473174, -1108016.1, 218564.8, 0.000013959289, 10.002488, 9.997763 
4.5009065e+1, 1.7463134e+2, -1086080.0, -1425570.8, 1783.7074, 0.024652569, -0.16461165, -1086070.6, 142532.05, 0.000000037538413, 10.002057, 9.997605 
4.5008412e+1, 1.8463059e+2, -887522.5, -1030118.5, 87575.43, 0.04525738, -0.09988069, -845891.94, 284720.7, 0.0, 10.001685, 9.999823 
4.5008847e+1, 1.946306e+2, -853464.44, -963618.75, 17716.79, 0.07027403, -0.119428895, -850685.1, 181923.5, 0.0, 10.001244, 9.99982 
4.5008036e+1, 2.0462988e+2, -848319.56, -1029817.7, -56142.83, 0.0425584, -0.11562859, -832356.8, 102256.48, 0.0, 10.001121, 9.998753 
4.5005786e+1, 2.1462803e+2, -739233.06, -940147.44, -70880.3, -0.04363257, -0.20294598, -716744.44, 119886.45, 0.0, 10.001253, 9.998631 
4.5004368e+1, 2.2462694e+2, -661857.9, -893651.7, -35517.066, -0.063018754, -0.1496471, -656537.75, 82105.086, 0.0, 10.001304, 9.998246 
4.5003945e+1, 2.346266e+2, -584220.25, -819088.06, -38397.4, -0.0013400204, -0.034432735, -578102.25, 62547.582, 0.0, 10.001217, 9.998134 
4.500321e+1, 2.4462561e+2, -538600.2, -695394.2, 3982.8843, -0.0022589865, 0.037267845, -538499.1, 4161.9194, 0.0, 10.000651, 9.9985695 
4.5002043e+1, 2.5462347e+2, -604296.56, -689207.06, -12348.047, -0.08457386, -0.066161424, -602537.3, -157856.55, 0.0, 9.999559, 9.998472 
4.50016e+1, 2.646218e+2, -519832.13, -525843.06, -15652.371, -0.06998305, -0.10647748, -506899.28, -160202.97, 0.000000013083459, 9.999186, 9.999088 
4.500207e+1, 2.7462053e+2, -337865.3, -398506.0, -20063.377, 0.07042205, -0.1726175, -331828.22, -83120.195, 0.0000010541644, 9.999791, 9.999011 
4.500123e+1, 2.8462017e+2, -229475.88, -242228.19, -25346.195, 0.115251206, -0.12783794, -209716.14, -59003.914, 0.000008106713, 9.999646, 9.99948 
4.4998717e+1, 2.9462057e+2, -286548.4, -228996.56, -29717.734, 0.044415377, -0.0702778, -216405.88, -163695.84, 0.000037622078, 9.998604, 9.999405 
4.4997832e+1, 3.0462214e+2, -191871.75, -75641.45, 38345.97, 0.06817906, 0.1141469, -64130.574, -64130.574, 0.00016443121, 9.998581, 10.0001335 
4.4997746e+1, 3.1461963e+2, -57260.69, -64256.57, 43682.668, 0.09793881, -0.18852103, -16936.139, -16936.139, 0.00047154687, 9.999655, 9.999701 
5.501415e+1, 1.24636345e+2, -1419311.9, -1650358.0, -44427.645, -0.060362834, -0.15893754, -1411063.4, 307489.3, 0.0021078985, 10.002291, 9.99931 
5.501508e+1, 1.346372e+2, -1325164.9, -1545171.3, 28331.033, -0.03934655, -0.053212456, -1321575.1, 298968.44, 0.0012334009, 10.002286, 9.999365 
5.50157e+1, 1.4463632e+2, -1228987.6, -1454971.8, -27287.201, -0.003171304, -0.06731036, -1225739.4, 296811.13, 0.00052778376, 10.002258, 9.999325 
5.5014575e+1, 1.5463476e+2, -1095814.1, -1351497.0, -15880.014, -0.039558824, -0.19073413, -1094831.6, 329731.16, 0.00013278752, 10.00255, 9.9992285 
5.5013114e+1, 1.6463396e+2, -1038697.06, -1301278.9, -62427.42, -0.036479216, -0.17490923, -1024610.94, 301958.94, 0.0000106646075, 10.002409, 9.998954 
5.501174e+1, 1.7463338e+2, -999799.9, -1236887.5, -299.63876, 0.045565717, -0.16029134, -999799.5, 228778.0, 0.000000007551507, 10.002021, 9.998911 
5.501042e+1, 1.8463257e+2, -1001819.25, -1247003.8, 54430.74, 0.041692697, -0.101781994, -990278.8, 140308.73, 0.0, 10.001595, 9.99838 
5.500902e+1, 1.9463143e+2, -973576.4, -1193633.3, 13532.536, -0.07350602, -0.08051473, -972747.3, 59854.145, 0.0, 10.001163, 9.998281 
5.500827e+1, 2.0463018e+2, -870016.4, -1036741.4, -63861.426, -0.07776255, -0.051427286, -848366.56, 86248.05, 0.0, 10.000966, 9.9987755 
5.5008245e+1, 2.1462856e+2, -752630.1, -936748.4, -51607.074, 0.042333946, -0.1213233, -739151.75, 97478.055, 0.0, 10.001122, 9.998715 
5.500681e+1, 2.2462738e+2, -659750.56, -858927.7, -50894.85, 0.018049855, -0.09718141, -647499.2, 91142.01, 0.0, 10.001176, 9.998545 
5.500384e+1, 2.3462655e+2, -583293.6, -786193.25, -26727.13, -0.16569605, -0.063135006, -579832.06, 60818.367, 0.0, 10.001084, 9.998423 
5.500253e+1, 2.4462482e+2, -560553.7, -718618.75, -46533.293, -0.16927424, -0.072354876, -547872.06, -5205.231, 0.0, 10.00056, 9.998451 
5.5003273e+1, 2.5462183e+2, -637315.1, -712729.94, -39738.496, 0.04505855, -0.24912031, -620241.2, -175547.22, 0.0, 9.999383, 9.998386 
5.50029e+1, 2.6462057e+2, -506340.2, -490146.34, -9193.047, 0.10407497, -0.25594294, -485992.88, -139287.7, 0.000000016276152, 9.99914, 9.999364 
5.5001366e+1, 2.746212e+2, -331203.47, -366010.53, 17885.1, -0.01692513, -0.16378687, -323651.84, -74952.414, 0.00000094951764, 9.999699, 9.999288 
5.499961e+1, 2.8462145e+2, -213070.27, -197061.73, -76055.734, -0.046738304, -0.08327732, -128590.24, 22106.502, 0.0000068871877, 9.999605, 9.999805 
5.499751e+1, 2.9462096e+2, -277074.28, -185317.84, -53979.387, 0.019225953, -0.14990203, -160354.1, -107652.46, 0.00003070153, 9.998496, 9.999757 
5.4996693e+1, 3.0462068e+2, -208467.23, -90803.39, 68294.81, 0.062468547, -0.16480687, -59494.45, -59494.45, 0.00013855331, 9.99851, 10.000065 
5.4997e+1, 3.1462178e+2, -74367.41, -63490.766, 128879.875, -0.013926593, -0.090876825, 60065.477, 60065.477, 0.0004144919, 9.999515, 9.999769 
6.501835e+1, 1.24637194e+2, -1322749.9, -1621248.5, 111634.555, 0.11834026, -0.15038112, -1285618.9, 432925.8, 0.0019834668, 10.00299, 9.999197 
6.501743e+1, 1.3463789e+2, -1289841.3, -1548084.0, 64591.645, -0.032282565, -0.036840145, -1274586.8, 345950.06, 0.001149572, 10.002587, 9.999217 
6.501753e+1, 1.4463636e+2, -1293356.8, -1471691.8, 10144.181, -0.009277732, -0.114466004, -1292781.5, 229768.81, 0.00048384682, 10.001774, 9.999435 
6.5016836e+1, 1.5463568e+2, -1340174.1, -1453451.5, -11313.0625, 0.031415634, -0.16019313, -1339055.4, 85499.98, 0.00011744106, 10.000832, 9.999339 
6.5015596e+1, 1.6463529e+2, -1223603.1, -1358527.4, -24913.432, 0.05363763, -0.12279815, -1219149.9, 107407.984, 0.000008467286, 10.000996, 9.999245 
6.5014e+1, 1.7463453e+2, -948038.9, -1182501.8, -64229.004, 0.068213426, -0.15439774, -931596.9, 296968.0, 0.000000004638606, 10.002251, 9.999176 
6.5012497e+1, 1.8463342e+2, -892467.2, -1254839.6, -25901.271, 0.049981143, -0.11304374, -890625.2, 239952.67, 0.0, 10.002616, 9.997825 
6.5010977e+1, 1.9463176e+2, -907412.8, -1229263.8, -27387.697, -0.020107577, -0.08482454, -905098.94, 127500.18, 0.0, 10.001908, 9.997676 
6.500986e+1, 2.0463042e+2, -811037.7, -992591.8, -24891.684, -0.020130869, -0.03944853, -807686.8, 126927.445, 0.0, 10.001297, 9.998918 
6.5009195e+1, 2.1462928e+2, -813603.0, -944091.2, -29122.25, 0.060188863, -0.08007247, -807398.5, 29225.73, 0.0, 10.000616, 9.998901 
6.50076e+1, 2.2462815e+2, -770097.1, -897096.4, 5780.9478, 0.031072529, -0.067952715, -769834.56, -31199.88, 0.0, 10.000341, 9.998689 
6.5005e+1, 2.3462687e+2, -655394.0, -801871.56, -8610.666, -0.11923429, -0.09358275, -654889.56, -14242.353, 0.0, 10.000497, 9.998597 
6.500372e+1, 2.4462518e+2, -549416.56, -707849.8, -21499.988, -0.096728474, -0.113300025, -546550.75, -3887.691, 0.0, 10.000592, 9.998533 
6.500408e+1, 2.546228e+2, -454347.22, -616606.06, -28198.041, 0.13881148, -0.23627055, -449586.53, -4901.901, 0.0, 10.000585, 9.99849 
6.5003115e+1, 2.646217e+2, -380881.5, -421373.28, 39037.65, 0.1796634, -0.2322502, -357152.0, -10458.273, 0.00000000394634, 9.999968, 9.999444 
6.500069e+1, 2.7462214e+2, -457286.0, -412213.94, 24872.184, 0.0019216551, -0.16892545, -401186.63, -152497.58, 0.0000007712445, 9.998786, 9.999402 
6.4998627e+1, 2.846222e+2, -383822.34, -326072.53, -64788.836, -0.045467764, -0.0971492, -284015.4, -133326.95, 0.000006042053, 9.998636, 9.999384 
6.499702e+1, 2.9462138e+2, -146776.31, -159276.73, -131113.38, 0.08037073, -0.15027978, -21764.254, 30932.916, 0.000026519589, 9.999571, 9.999408 
6.499603e+1, 3.0462015e+2, -50093.11, -32175.77, -3643.5164, 0.10156451, -0.2402478, -31463.195, -31463.195, 0.00012024143, 9.999661, 9.999923 
6.4996207e+1, 3.146222e+2, -211237.92, -127196.484, 4759.24, 0.024359455, -0.043354414, -126927.83, -126927.83, 0.00036921015, 9.998532, 9.999832 
7.502356e+1, 1.2463954e+2, -1383151.5, -1754660.0, 38531.21, 0.25376692, -0.15663455, -1379197.3, 339319.16, 0.0018629195, 10.003034, 9.998253 
7.501963e+1, 1.3463816e+2, -1356301.0, -1695926.6, 55865.047, -0.11617373, -0.15181379, -1347347.9, 273183.8, 0.0010666472, 10.002628, 9.998182 
7.501854e+1, 1.4463544e+2, -1293160.9, -1459073.3, -41910.746, -0.1313155, -0.29961085, -1283174.9, 239383.86, 0.0004391749, 10.001722, 9.999548 
7.5018764e+1, 1.546365e+2, -1324587.0, -1434728.8, -29382.611, 0.09621863, -0.18541992, -1317238.8, 107308.945, 0.00010226521, 10.000876, 9.999454 
7.5017744e+1, 1.6463664e+2, -1275457.3, -1452333.4, 3733.2615, 0.1307402, -0.071721554, -1275378.5, 51167.766, 0.000007138289, 10.000943, 9.998623 
7.501542e+1, 1.7463483e+2, -1001563.5, -1284321.8, -4488.8833, -0.05334765, -0.14616133, -1001492.25, 227072.5, 0.00000003688298, 10.00221, 9.998497 
7.5014174e+1, 1.8463309e+2, -886571.7, -1224553.6, -63451.15, -0.078602694, -0.14301443, -875052.3, 255531.42, 0.0, 10.002531, 9.99808 
7.5014246e+1, 1.9463144e+2, -890816.25, -1184948.1, -40353.906, 0.07857171, -0.14369267, -885380.25, 147222.92, 0.0, 10.0018635, 9.998005 
7.5012416e+1, 2.0463054e+2, -805708.7, -957541.94, -62509.813, 0.071729116, -0.087490804, -783285.06, 151327.95, 0.0, 10.001195, 9.999207 
7.500822e+1, 2.1463014e+2, -809543.94, -911414.0, -41653.195, -0.13419881, -0.08482042, -794681.06, 41933.777, 0.0, 10.000504, 9.999184 
7.500627e+1, 2.2462922e+2, -787855.9, -903902.6, -1586.4749, -0.1661389, -0.06653786, -787834.2, -49210.883, 0.0, 10.000215, 9.998702 
7.5007004e+1, 2.3462756e+2, -677470.56, -814655.5, 13269.55, -0.0018306692, -0.13257454, -676198.8, -35557.824, 0.0, 10.000348, 9.998584 
7.50063e+1, 2.4462672e+2, -543556.44, -673522.6, -33923.07, 0.07237966, -0.0815375, -535234.9, 7414.977, 0.0, 10.000499, 9.99881 
7.500404e+1, 2.5462645e+2, -456911.06, -591184.56, -14660.105, 0.043302137, -0.021088934, -455329.1, -10677.337, 0.0, 10.000446, 9.998732 
7.500169e+1, 2.646254e+2, -404788.94, -444868.94, -16587.559, 0.010768795, -0.02205021, -398814.56, -52154.332, 0.00000000015133415, 9.999867, 9.999325 
7.4999475e+1, 2.7462336e+2, -488404.8, -444076.2, -1938.9685, -0.035187818, -0.18918934, -443991.53, -195315.03, 0.00000065427645, 9.998651, 9.999246 
7.499787e+1, 2.846223e+2, -466640.6, -489917.6, -44356.332, -0.019436156, -0.16644695, -432421.28, -281734.22, 0.0000058927376, 9.998594, 9.998283 
7.499679e+1, 2.946218e+2, -236759.84, -325616.7, -78287.42, 0.058204368, -0.07780984, -191172.69, -138475.69, 0.000025865007, 9.999464, 9.998327 
7.499529e+1, 3.046204e+2, -80457.27, -74132.58, -46183.895, 0.028500583, -0.11909646, -31002.889, -31002.889, 0.00011203884, 9.999586, 9.999659 
7.499443e+1, 3.1462076e+2, -225416.27, -113993.97, 7402.733, -0.07596174, -0.06517084, -113504.29, -113504.29, 0.00034091447, 9.998357, 9.999997 
8.5026723e+1, 1.2464181e+2, -1405672.9, -1757293.9, 14009.437, 0.29199007, -0.1365597, -1405115.5, 313378.25, 0.0017451695, 10.002864, 9.998304 
8.502246e+1, 1.3464038e+2, -1523720.6, -1757342.0, 55120.277, -0.018363146, -0.14557292, -1511368.8, 109139.766, 0.0009891815, 10.00142, 9.99833 
8.5021013e+1, 1.4463715e+2, -1373396.9, -1522366.4, 73803.51, -0.019413788, -0.34619868, -1343024.9, 179515.89, 0.000399723, 10.001253, 9.999352 
8.5020673e+1, 1.5463842e+2, -1076245.8, -1339963.3, 30844.36, 0.120350555, -0.18632929, -1072686.3, 351842.1, 0.00008899464, 10.002687, 9.999234 
8.501947e+1, 1.646384e+2, -1003814.8, -1369496.0, 80214.58, 0.114647105, -0.057329837, -986993.06, 339536.25, 0.000006071428, 10.003021, 9.998188 
8.5017395e+1, 1.7463586e+2, -1070280.8, -1362291.6, 58151.36, -0.05246523, -0.15720211, -1059126.5, 169428.58, 0.000000076650345, 10.001942, 9.998086 
8.501617e+1, 1.846339e+2, -1021838.25, -1257179.1, 23794.564, -0.06822778, -0.17025305, -1019456.56, 111119.33, 0.0, 10.001452, 9.998381 
8.5016024e+1, 1.9463265e+2, -921046.75, -1164003.4, 21954.254, 0.097837396, -0.16265473, -919078.8, 113511.4, 0.0, 10.001497, 9.998325 
8.501393e+1, 2.0463187e+2, -786634.44, -965669.06, -209.01256, 0.10238546, -0.10239402, -786634.2, 147964.36, 0.0, 10.001407, 9.999048 
8.50094e+1, 2.1463133e+2, -733525.4, -898003.3, -46304.047, -0.08846906, -0.09151851, -721385.8, 115217.16, 0.0, 10.001128, 9.99898 
8.5007167e+1, 2.2463043e+2, -709622.06, -849479.0, 10501.188, -0.11382917, -0.06691614, -708837.94, 29773.598, 0.0, 10.000694, 9.998836 
8.5007715e+1, 2.3462905e+2, -715315.7, -813392.4, 8175.5635, 0.059928004, -0.11929253, -714638.8, -74013.13, 0.0, 10.000023, 9.998738 
8.500691e+1, 2.4462825e+2, -629697.6, -709502.0, 2853.0483, 0.12280031, -0.07343227, -629595.75, -86961.81, 0.0, 9.99988, 9.998851 
8.500459e+1, 2.546279e+2, -462282.3, -586203.56, -22324.543, 0.0672739, -0.024115963, -458383.22, -13746.017, 0.0, 10.000391, 9.99878 
8.5001993e+1, 2.6462692e+2, -303428.6, -445250.5, -44151.305, 0.019932335, -0.0008685468, -290806.94, 55838.992, 0.0000000019213902, 10.000735, 9.9989195 
8.4999347e+1, 2.7462503e+2, -227389.94, -366412.1, -81085.27, -0.001123896, -0.11641736, -190099.28, 58563.387, 0.0000006294421, 10.000617, 9.998846 
8.499761e+1, 2.846234e+2, -262764.3, -436759.4, -48709.285, 0.025682291, -0.11018193, -250056.45, -99376.9, 0.0000062489003, 10.000184, 9.997881 
8.499678e+1, 2.9462186e+2, -227032.45, -361175.88, -53024.098, 0.11206783, -0.087819435, -208604.64, -155904.84, 0.000027811611, 9.99971, 9.997958 
8.499499e+1, 3.0462113e+2, -94495.97, -115104.84, 3480.822, 0.05201241, -0.024919724, -93923.94, -93923.94, 0.00011222166, 9.999607, 9.999384 
8.499374e+1, 3.1462e+2, -90316.8, -32022.303, 2336.0073, -0.0047407732, -0.09919259, -31928.842, -31928.842, 0.00032900518, 9.999205, 10.000146 
9.502691e+1, 1.2464419e+2, -1342693.8, -1618772.5, -83017.29, -0.05388027, -0.07747964, -1319653.3, 398821.8, 0.0016362383, 10.002826, 9.999274 
9.502531e+1, 1.3464454e+2, -1422188.0, -1575943.9, 12617.45, 0.081858546, -0.030938199, -1421159.4, 199308.6, 0.0009229167, 10.001531, 9.999526 
9.5024484e+1, 1.4464141e+2, -1407875.0, -1591050.5, 108958.11, 0.15961714, -0.25925252, -1357124.5, 165372.42, 0.00036888671, 10.0012455, 9.998883 
9.502213e+1, 1.5464152e+2, -1117618.4, -1427379.8, 100959.22, -0.044249512, -0.1598855, -1087618.6, 336877.84, 0.00007923838, 10.002691, 9.998633 
9.50204e+1, 1.6464064e+2, -1029897.5, -1410922.6, 30665.459, -0.1285192, -0.07237472, -1027445.25, 299060.7, 0.0000051224774, 10.002961, 9.997935 
9.501941e+1, 1.7463772e+2, -1085342.1, -1395707.3, 33719.004, -0.08380414, -0.18792962, -1081721.1, 146814.13, 0.00000007826353, 10.001945, 9.997857 
9.501797e+1, 1.846359e+2, -1010814.0, -1219555.9, 11515.104, -0.06547167, -0.18787988, -1010180.75, 120373.15, 0.0, 10.001387, 9.99867 
9.5015913e+1, 1.9463538e+2, -909796.94, -1124529.5, 38380.17, -0.09918043, -0.14525254, -903143.25, 129416.97, 0.0, 10.001424, 9.9986315 
9.5014024e+1, 2.0463446e+2, -854199.8, -1079159.6, -23571.197, -0.0608791, -0.080334954, -851756.56, 82814.23, 0.0, 10.001285, 9.99833 
9.5012254e+1, 2.1463275e+2, -803372.2, -1016495.7, -40616.79, 0.05133444, -0.113008626, -795893.94, 40695.797, 0.0, 10.001009, 9.998226 
9.5009786e+1, 2.2463167e+2, -713088.5, -828625.94, -24907.664, 0.045684967, -0.0786442, -707947.6, 30652.893, 0.0, 10.000573, 9.999035 
9.500664e+1, 2.3463109e+2, -716149.1, -791301.0, -4727.552, -0.08481183, -0.07525334, -715852.9, -75249.08, 0.0, 9.99991, 9.998947 
9.500509e+1, 2.4462964e+2, -656419.8, -739784.06, 6993.253, -0.07879735, -0.09705032, -655837.25, -113220.484, 0.0, 9.99977, 9.998696 
9.5005333e+1, 2.5462702e+2, -486491.66, -619849.2, 15410.188, 0.06607953, -0.26266056, -484734.1, -40091.52, 0.0, 10.000304, 9.998596 
9.50036e+1, 2.6462612e+2, -361489.22, -541980.3, -60573.28, 0.0771794, -0.19143514, -343045.4, 3607.9395, 0.0000000017799018, 10.000647, 9.99829 
9.4999796e+1, 2.746269e+2, -293419.53, -471586.88, -73267.055, -0.052539382, 0.029746074, -267160.4, -18510.982, 0.0000005677249, 10.0004835, 9.998183 
9.499736e+1, 2.846255e+2, -253208.2, -403993.22, -81877.76, -0.05179941, 0.07456261, -217299.33, -66633.21, 0.0000064583187, 10.000129, 9.99813 
9.499648e+1, 2.9462147e+2, -230502.06, -339279.47, -46266.367, 0.07033918, -0.18250479, -213485.53, -160779.05, 0.000029725905, 9.999578, 9.998173 
9.4994646e+1, 3.0462238e+2, -115422.336, -140366.28, -15141.776, 0.025505425, 0.042028796, -108277.39, -108277.39, 0.0001135958, 9.999536, 9.999235 
9.499316e+1, 3.1462008e+2, -109336.17, -37273.16, 21884.844, -0.055111308, -0.13552845, -31147.627, -31147.627, 0.00032168903, 9.999058, 10.000178 
1.0502838e+2, 1.2464543e+2, -1538801.8, -1713131.5, -28714.016, -0.10107951, -0.16806453, -1534194.0, 184266.28, 0.0015480418, 10.001453, 9.999295 
1.0502757e+2, 1.3464716e+2, -1267945.6, -1478686.0, -68640.91, 0.120415635, 0.0019817213, -1247560.3, 372880.94, 0.00087241904, 10.002487, 9.999736 
1.0502712e+2, 1.4464442e+2, -1252224.4, -1564321.8, 40780.703, 0.24387677, -0.18168636, -1246983.8, 275483.8, 0.0003471946, 10.002541, 9.99843 
1.0502412e+2, 1.5464322e+2, -1309184.6, -1585244.5, 5443.4775, -0.049499314, -0.15722322, -1309077.3, 115403.59, 0.000073446034, 10.001657, 9.99805 
1.0502227e+2, 1.6464187e+2, -1229549.8, -1472554.3, -28557.479, -0.15235889, -0.09964621, -1226238.8, 100256.11, 0.000004420773, 10.0014515, 9.998231 
1.05022e+2, 1.7463961e+2, -1053837.1, -1347506.3, -14208.592, -0.015295968, -0.18134524, -1053151.4, 175365.89, 0.000000050630582, 10.002028, 9.998143 
1.0502039e+2, 1.8463813e+2, -913125.75, -1176321.5, -5063.728, 0.0097468, -0.16254023, -913028.4, 217504.05, 0.0, 10.002086, 9.998623 
1.0501712e+2, 1.946375e+2, -928026.44, -1137145.0, -39011.777, -0.106333904, -0.12164153, -920985.75, 111553.664, 0.0, 10.001332, 9.998577 
1.0501488e+2, 2.0463641e+2, -884027.4, -1105643.3, -52535.395, -0.08574157, -0.0664297, -872204.25, 62347.383, 0.0, 10.001135, 9.99822 
1.050139e+2, 2.1463448e+2, -750938.1, -1000207.25, -50486.465, 0.10394936, -0.111379676, -741100.9, 95471.86, 0.0, 10.001414, 9.998138 
1.05011515e+2, 2.2463314e+2, -588241.8, -771979.06, -9591.205, 0.12659758, -0.09534247, -587742.5, 150842.89, 0.0, 10.001434, 9.999026 
1.0500763e+2, 2.3463239e+2, -539341.6, -706081.94, -35237.92, -0.027512707, -0.10516921, -532200.5, 108389.15, 0.0, 10.001127, 9.998957 
1.05005585e+2, 2.4463087e+2, -500394.34, -667467.6, 22159.207, -0.053097744, -0.13276963, -497505.28, 45097.895, 0.0, 10.000858, 9.99867 
1.05005726e+2, 2.5462827e+2, -449761.2, -601538.44, 15633.894, 0.06957293, -0.29139602, -448167.53, -3538.297, 0.0, 10.000575, 9.998585 
1.05004095e+2, 2.6462755e+2, -410548.03, -570460.44, -18511.95, 0.086045824, -0.20201288, -408433.0, -61793.68, 0.00000000014537505, 10.000348, 9.998233 
1.0500068e+2, 2.746286e+2, -334114.4, -498485.1, -16172.671, 0.009021009, 0.051196367, -332538.28, -83904.15, 0.00000042821608, 10.000252, 9.998107 
1.04998045e+2, 2.8462708e+2, -198481.27, -353149.53, 25310.277, -0.00018804052, 0.08138172, -194444.78, -43793.34, 0.0000059800022, 10.000377, 9.998372 
1.0499632e+2, 2.9462278e+2, -63982.094, -238057.14, 24851.857, 0.056189965, -0.22881076, -60503.62, -7810.8257, 0.000029321069, 10.000615, 9.998379 
1.04994535e+2, 3.0462468e+2, -39995.977, -133234.77, 60235.492, 0.041827854, 0.09664323, -10446.597, -10446.597, 0.000109980174, 10.000191, 9.998963 
1.0499376e+2, 3.1462133e+2, -125638.99, -52505.285, 29253.363, 0.11726011, -0.16136917, -42243.793, -42243.793, 0.0003078243, 9.9989805, 10.000111 
1.15030184e+2, 1.2464529e+2, -1597726.5, -1853948.5, -32254.355, -0.14960949, -0.41839987, -1593728.6, 124723.31, 0.0014882531, 10.001519, 9.998303 
1.1502879e+2, 1.3464817e+2, -1314626.1, -1586979.9, -21477.498, -0.046367068, -0.053457092, -1312942.8, 307486.2, 0.000840427, 10.002531, 9.998972 
1.1502855e+2, 1.4464603e+2, -1295344.4, -1637846.9, -7451.9375, 0.091842555, -0.11757082, -1295182.4, 227271.66, 0.00033535642, 10.00247, 9.99796 
1.1502597e+2, 1.5464346e+2, -1340598.4, -1650164.0, -9316.08, -0.070915066, -0.18371916, -1340318.3, 84163.33, 0.0000716502, 10.001666, 9.997594 
1.150246e+2, 1.6464213e+2, -1178190.6, -1363031.3, -21396.572, -0.10328722, -0.13878796, -1175746.3, 150749.86, 0.0000041980056, 10.00143, 9.999 
1.15024805e+2, 1.7464148e+2, -995865.25, -1223376.5, 21075.725, 0.02492228, -0.14503318, -993929.4, 234572.47, 0.000000024917117, 10.002011, 9.999003 
1.15023114e+2, 1.8464048e+2, -961178.75, -1246788.9, -45194.39, 0.04397555, -0.097754106, -954197.9, 176314.19, 0.0, 10.001963, 9.998202 
1.15019135e+2, 1.94639e+2, -969898.7, -1209146.4, -52959.074, -0.07619212, -0.09692136, -958700.06, 73828.49, 0.0, 10.001268, 9.9981165 
1.1501605e+2, 2.046377e+2, -868664.4, -1048680.5, -58093.73, -0.11307603, -0.057367977, -851544.8, 82996.7, 0.0, 10.001022, 9.998669 
1.1501391e+2, 2.1463637e+2, -734864.56, -938824.3, -28339.576, -0.06617841, -0.09505001, -731000.06, 105553.46, 0.0, 10.0012865, 9.998625 
1.1501197e+2, 2.2463484e+2, -624263.44, -813527.94, -33664.313, 0.0022727745, -0.1125055, -618453.94, 120112.945, 0.0, 10.001297, 9.998804 
1.1501027e+2, 2.346329e+2, -574991.6, -750105.75, -31614.191, 0.09156866, -0.21939792, -569459.0, 71124.9, 0.0, 10.000991, 9.998721 
1.1500803e+2, 2.4463186e+2, -512691.78, -662651.94, -2096.3147, 0.074470975, -0.19061236, -512662.5, 29931.365, 0.0, 10.000739, 9.998756 
1.15005255e+2, 2.5463167e+2, -462707.38, -596504.5, 15531.164, -0.06725949, -0.11812422, -460928.16, -16330.467, 0.0, 10.000441, 9.998683 
1.15003064e+2, 2.6463115e+2, -385031.56, -501438.13, -34267.47, -0.081184275, -0.03271963, -375693.13, -29088.943, 0.0, 10.000277, 9.998748 
1.1500158e+2, 2.7462998e+2, -314210.03, -430810.53, -1169.6318, 0.04007368, -0.054627515, -314198.3, -65581.18, 0.0000002594802, 10.00013, 9.998639 
1.1499919e+2, 2.8462815e+2, -195816.03, -325602.9, 23473.736, 0.044738773, -0.09631172, -191700.97, -41064.93, 0.000005001763, 10.000291, 9.998603 
1.1499584e+2, 2.9462576e+2, -81324.195, -236206.11, 48378.363, -0.09329234, -0.22808543, -67454.87, -14795.578, 0.000026475647, 10.000458, 9.998469 
1.1499429e+2, 3.0462795e+2, -77077.15, -187843.03, 13907.931, -0.03372734, 0.14562364, -75357.54, -75357.54, 0.000100772006, 10.000116, 9.998617 
1.1499459e+2, 3.1462368e+2, -155614.33, -78319.64, 19082.16, 0.22977929, -0.18453854, -73865.41, -73865.41, 0.00028477798, 9.9988365, 10.0 
1.2503305e+2, 1.2464614e+2, -1557516.1, -1862901.3, -40951.7, -0.022245046, -0.47605854, -1552119.9, 166320.48, 0.0014562852, 10.0019455, 9.998023 
1.2503049e+2, 1.3464874e+2, -1361256.1, -1653022.6, -55809.535, -0.107812904, -0.099233374, -1350945.1, 269478.53, 0.0008261713, 10.0024, 9.998581 
1.2503003e+2, 1.4464714e+2, -1301583.8, -1599348.9, -7772.6694, 0.018572602, -0.108049035, -1301381.0, 221063.42, 0.00033346904, 10.002248, 9.998329 
1.250281e+2, 1.546448e+2, -1298858.0, -1586033.1, 15771.678, -0.019753642, -0.19067298, -1297994.5, 126473.55, 0.00007407354, 10.001763, 9.997982 
1.2502691e+2, 1.6464365e+2, -1173340.1, -1384457.0, 63691.566, -0.012380461, -0.1383402, -1155613.5, 170867.34, 0.000004716059, 10.001549, 9.998809 
1.2502666e+2, 1.7464328e+2, -1087458.5, -1295141.3, 2957.445, 0.04681959, -0.09190223, -1087416.4, 141070.45, 0.000000012759114, 10.001475, 9.998785 
1.2502477e+2, 1.846424e+2, -1007489.75, -1227860.5, -67342.11, 0.04891226, -0.04017786, -988540.44, 141956.0, 0.0, 10.001462, 9.998567 
1.2502101e+2, 1.9464096e+2, -918033.56, -1144210.8, -41671.195, -0.015700491, -0.073031396, -910600.3, 121909.79, 0.0, 10.001446, 9.998477 
1.2501785e+2, 2.0463955e+2, -791527.94, -999189.75, 17978.879, -0.051179875, -0.06926796, -789982.9, 144539.58, 0.0, 10.001506, 9.99877 
1.2501536e+2, 2.1463798e+2, -690394.56, -906500.06, -9990.586, -0.05396583, -0.13668913, -689933.7, 146601.94, 0.0, 10.001551, 9.9987135 
1.2501323e+2, 2.2463644e+2, -620504.06, -841248.06, -22045.96, 0.0009042563, -0.15040585, -618323.9, 120226.14, 0.0, 10.001449, 9.998531 
1.250116e+2, 2.3463474e+2, -569025.25, -774796.5, -52024.758, 0.12588304, -0.20288117, -556619.8, 83947.2, 0.0, 10.001171, 9.998448 
1.2500907e+2, 2.4463393e+2, -477993.84, -640806.0, 3798.7034, 0.10524977, -0.14130157, -477905.25, 64670.688, 0.0, 10.000945, 9.998811 
1.250058e+2, 2.5463393e+2, -407699.9, -567451.75, -7091.0654, -0.06535035, -0.05570473, -407385.75, 37191.723, 0.0, 10.000788, 9.998726 
1.2500344e+2, 2.6463324e+2, -336699.4, -463601.3, -45759.7, -0.076692745, 0.002527368, -321920.1, 24664.838, 0.0, 10.000551, 9.998863 
1.2500225e+2, 2.7463144e+2, -287718.88, -401131.34, -72468.9, 0.09894114, -0.094983675, -252406.98, -3804.2102, 0.00000012209664, 10.00026, 9.998763 
1.24999754e+2, 2.8462967e+2, -233798.92, -320189.22, -29877.441, 0.100203335, -0.14401376, -224472.81, -73853.08, 0.000003888246, 9.999943, 9.998799 
1.2499601e+2, 2.9462823e+2, -192154.2, -261398.0, -33712.875, -0.06606533, -0.20516154, -178451.84, -125819.04, 0.00002250982, 9.99959, 9.998704 
1.249947e+2, 3.0462962e+2, -107581.79, -217026.52, -14725.908, 0.020514568, 0.079736136, -105635.03, -105635.03, 0.000088219014, 9.999918, 9.998546 
1.24995105e+2, 3.1462604e+2, 119991.8, 45307.62, -51152.465, 0.31825334, -0.175742, 145982.22, 145982.22, 0.00025421134, 10.000758, 9.999935 
1.350361e+2, 1.2464783e+2, -1539854.0, -1820526.3, -75746.89, 0.01200139, -0.3569637, -1520716.5, 197710.36, 0.0014504807, 10.00192, 9.998327 
1.3503207e+2, 1.3464892e+2, -1351908.0, -1640129.5, -28116.416, -0.22788142, -0.13878743, -1349190.9, 271234.13, 0.0008289551, 10.002438, 9.998646 
1.3503109e+2, 1.4464788e+2, -1220823.1, -1440878.3, -44075.21, -0.14548457, -0.14521198, -1212323.5, 310114.25, 0.0003411424, 10.002273, 9.999412 
1.3503015e+2, 1.5464719e+2, -1220889.9, -1421688.8, 11220.676, -0.028196352, -0.1782472, -1220264.9, 204175.56, 0.00008049032, 10.001743, 9.9991255 
1.3502876e+2, 1.646464e+2, -1268828.6, -1551812.1, 44718.867, -0.012777021, -0.09423581, -1261930.1, 64519.95, 0.0000062176173, 10.00143, 9.997711 
1.3502696e+2, 1.7464505e+2, -1180093.0, -1473013.8, 17458.379, -0.10542706, -0.026847273, -1179056.1, 49415.98, 0.000000017143847, 10.0014305, 9.997579 
1.3502479e+2, 1.8464406e+2, -937382.9, -1072707.6, -80831.97, -0.13279097, 0.021651702, -899631.75, 230851.97, 0.0, 10.001404, 9.999665 
1.3502213e+2, 1.946434e+2, -843871.75, -974918.9, -26545.38, -0.08602771, -0.055091944, -838698.8, 193785.31, 0.0, 10.001372, 9.999676 
1.3501981e+2, 2.0464194e+2, -826896.7, -1048427.44, 3875.26, -0.03670623, -0.10473562, -826828.94, 107665.766, 0.0, 10.001395, 9.998489 
1.3501775e+2, 2.1463929e+2, -733103.1, -963569.56, 7584.248, -0.004318857, -0.24648787, -732853.8, 103665.77, 0.0, 10.00141, 9.998392 
1.3501489e+2, 2.2463793e+2, -662438.94, -903037.94, -46680.145, -0.01012721, -0.20544869, -653699.7, 84834.914, 0.0, 10.001329, 9.998167 
1.3501108e+2, 2.3463784e+2, -612678.8, -835706.06, -48214.594, -0.07525321, -0.064667165, -602701.94, 37838.113, 0.0, 10.001036, 9.998096 
1.3500834e+2, 2.4463698e+2, -489275.34, -640907.8, -14731.335, -0.09570193, 0.0061587347, -487857.44, 54693.234, 0.0, 10.000845, 9.9988575 
1.3500689e+2, 2.5463504e+2, -424381.78, -569106.1, 3247.6296, -0.06651137, -0.109209076, -424308.94, 20259.88, 0.0, 10.000647, 9.99878 
1.3500483e+2, 2.6463372e+2, -372491.2, -518452.78, -69891.57, -0.023695402, -0.09799769, -344422.34, 2159.5051, 0.0, 10.000471, 9.998523 
1.3500217e+2, 2.7463284e+2, -331274.5, -458325.88, -69847.875, 0.029290125, -0.071168646, -300384.94, -51792.664, 0.000000046518082, 10.000123, 9.998433 
1.3499933e+2, 2.8463155e+2, -221103.1, -287908.72, -55963.402, 0.027696451, -0.065831184, -189331.9, -38728.13, 0.0000029362805, 9.99991, 9.999038 
1.3499635e+2, 2.9462993e+2, -183273.25, -223216.89, -30105.291, -0.0312872, -0.17759012, -167117.5, -114501.7, 0.000019015239, 9.999492, 9.999019 
1.3499528e+2, 3.0462953e+2, -99010.07, -176253.39, 6203.99, 0.060740184, -0.10525682, -98514.95, -98514.95, 0.000075927965, 9.999836, 9.998855 
1.3499443e+2, 3.146283e+2, 91981.64, 24176.543, 22070.316, 0.10375434, -0.14352939, 98532.54, 98532.54, 0.0002226974, 10.000607, 9.99986 
1.4503847e+2, 1.246498e+2, -1461485.8, -1722922.4, -29278.885, 0.06181418, -0.23430203, -1458246.9, 260167.16, 0.0014659849, 10.002215, 9.998853 
1.4503399e+2, 1.3465026e+2, -1538598.1, -1703448.0, -32233.545, -0.2005887, -0.10496131, -1532519.6, 87895.48, 0.0008466132, 10.001047, 9.998873 
1.4503309e+2, 1.4464924e+2, -1397668.1, -1503239.8, -8208.379, -0.09712584, -0.13178308, -1397033.8, 125391.82, 0.00035647568, 10.000954, 9.999623 
1.4503239e+2, 1.5464856e+2, -1132710.0, -1351686.9, -49392.07, 0.0086204745, -0.18483713, -1122084.8, 302342.0, 0.00008921642, 10.002226, 9.999377 
1.4503072e+2, 1.6464779e+2, -1122784.1, -1458792.6, -6626.4873, 0.0054629105, -0.1236396, -1122653.5, 203781.81, 0.000008328298, 10.0023365, 9.997908 
1.4502814e+2, 1.7464654e+2, -1217464.1, -1469977.6, 36771.996, -0.10551618, -0.06642668, -1212218.3, 16237.338, 0.0000000715251, 10.001079, 9.997767 
1.450259e+2, 1.8464556e+2, -1056917.8, -1125472.1, 6974.249, -0.11202095, -0.027532108, -1056215.4, 74251.555, 0.0, 10.000567, 9.999716 
1.450239e+2, 1.946447e+2, -916265.94, -1010239.4, -54334.7, -0.01126145, -0.122641265, -891419.44, 141050.61, 0.0, 10.000865, 9.999697 
1.4502187e+2, 2.0464344e+2, -833216.2, -1045865.7, -21706.549, 0.04044638, -0.15393825, -831023.06, 103456.5, 0.0, 10.001332, 9.998529 
1.4501972e+2, 2.1464159e+2, -656135.56, -922574.56, -22098.346, 0.036751635, -0.2230185, -654315.1, 182183.16, 0.0, 10.001931, 9.998415 
1.4501649e+2, 2.246406e+2, -561537.94, -845694.56, -45857.734, -0.008752753, -0.1504684, -554320.6, 184189.78, 0.0, 10.001999, 9.998239 
1.45012e+2, 2.3464036e+2, -545728.1, -799664.3, -48556.64, -0.09874101, -0.028320523, -536760.06, 103757.125, 0.0, 10.001477, 9.998138 
1.4500915e+2, 2.4463926e+2, -457941.75, -631450.2, 31888.55, -0.10333175, 0.022014638, -452266.7, 90262.94, 0.0, 10.0010805, 9.998815 
1.4500818e+2, 2.5463703e+2, -397379.5, -558886.2, 13312.814, -0.002882873, -0.11818349, -396289.5, 48260.81, 0.0, 10.000848, 9.998753 
1.4500602e+2, 2.6463568e+2, -334096.38, -512336.38, -21809.47, 0.039413735, -0.10478072, -331466.56, 15097.251, 0.0, 10.000781, 9.9984255 
1.4500247e+2, 2.7463514e+2, -220158.3, -421605.3, -31805.371, 0.019066831, -0.030750828, -215256.02, 33315.492, 0.00000002138944, 10.000937, 9.998313 
1.4499946e+2, 2.8463385e+2, -101253.93, -251011.52, -6380.7256, 0.014156438, -0.012323211, -100982.56, 49600.633, 0.0000023054517, 10.000816, 9.998857 
1.4499715e+2, 2.946318e+2, -48070.44, -166011.7, -50191.902, 0.059210047, -0.14613764, -29602.307, 22995.748, 0.000016570593, 10.000463, 9.998933 
1.4499623e+2, 3.0463052e+2, -83288.83, -177280.05, 3210.19, 0.17642573, -0.16040951, -83179.31, -83179.31, 0.0000664134, 10.000004, 9.998755 
1.4499433e+2, 3.1463012e+2, -134495.83, -109100.41, -59068.03, 0.12399765, -0.09297724, -61380.703, -61380.703, 0.0001967113, 9.999167, 9.999635 
1.5503941e+2, 1.2465246e+2, -1399271.9, -1621080.9, -109726.94, -0.14667438, -0.07051531, -1354164.1, 364233.7, 0.0014879738, 10.002315, 9.9995165 
1.5503575e+2, 1.3465282e+2, -1512936.6, -1656330.5, -69864.67, -0.16585867, 0.017357348, -1484526.0, 135867.28, 0.0008684092, 10.001065, 9.999197 
1.550355e+2, 1.4465117e+2, -1441277.4, -1582225.9, 18057.09, 0.006949817, -0.062139597, -1439000.8, 83406.75, 0.00037251608, 10.000912, 9.999097 
1.5503426e+2, 1.5464902e+2, -1178315.5, -1433103.0, 14209.66, -0.06792032, -0.20862965, -1177525.5, 246900.58, 0.00009664872, 10.00218, 9.998832 
1.5503238e+2, 1.6464798e+2, -1029516.3, -1251604.8, -64789.227, -0.097745135, -0.21643898, -1011997.5, 314437.38, 0.000009881803, 10.002272, 9.999368 
1.550298e+2, 1.746479e+2, -1119773.4, -1250520.0, 5178.082, -0.08012235, -0.19413663, -1119568.6, 108867.13, 0.00000020107916, 10.001007, 9.999311 
1.5502763e+2, 1.84647e+2, -1142225.4, -1284810.3, 1822.1489, -0.024376037, -0.17759538, -1142202.1, -11756.535, 0.0, 10.000488, 9.998663 
1.5502584e+2, 1.946449e+2, -1010541.2, -1183803.4, -26152.732, 0.06497402, -0.28105363, -1006679.7, 25787.898, 0.0, 10.000779, 9.998544 
1.5502362e+2, 2.0464419e+2, -826049.0, -1006703.56, -11211.679, 0.051467925, -0.21329297, -825355.9, 109120.44, 0.0, 10.001221, 9.998859 
1.550208e+2, 2.1464492e+2, -649428.4, -873761.25, 15159.386, -0.081821814, -0.06001215, -648408.6, 188062.63, 0.0, 10.001782, 9.998823 
1.5501761e+2, 2.2464442e+2, -550953.56, -799018.1, -77759.195, -0.12673298, 0.021547569, -528594.25, 209883.1, 0.0, 10.001882, 9.998619 
1.55014e+2, 2.3464225e+2, -537718.2, -754980.1, -53053.31, -0.07806446, -0.089118585, -525455.2, 115043.445, 0.0, 10.001347, 9.998512 
1.5501109e+2, 2.446408e+2, -479662.1, -654439.75, 8139.1953, -0.045818284, -0.091359556, -479283.88, 63229.26, 0.0, 10.000984, 9.998701 
1.5500915e+2, 2.5463983e+2, -428647.7, -592004.8, 20956.02, -0.022883646, -0.08790959, -426002.22, 18520.412, 0.0, 10.000704, 9.998599 
1.5500645e+2, 2.6463914e+2, -336788.38, -498845.5, -29384.104, -0.026254663, -0.013768973, -331624.97, 14905.889, 0.0, 10.000703, 9.998551 
1.5500277e+2, 2.7463827e+2, -235051.89, -422561.2, -8390.921, -0.07452546, 0.016714811, -234677.16, 13863.923, 0.000000019825112, 10.000807, 9.998367 
1.5499978e+2, 2.8463644e+2, -152193.47, -346491.78, -30769.168, -0.07003811, 0.011580971, -147437.27, 3121.1191, 0.0000019865888, 10.000768, 9.998225 
1.5499789e+2, 2.9463375e+2, -103293.23, -256721.98, -46128.03, 0.042445216, -0.122423984, -90492.85, -37911.66, 0.000014949104, 10.00035, 9.998369 
1.549971e+2, 3.046325e+2, -131004.66, -251326.5, -36877.21, 0.23455164, -0.08264201, -120601.67, -120601.67, 0.000059797247, 9.999922, 9.998268 
1.5499385e+2, 3.1463146e+2, -190280.02, -176964.81, -47046.86, 0.09300068, -0.030703058, -136106.83, -136106.83, 0.00017773658, 9.998987, 9.999237 
1.6504204e+2, 1.2465516e+2, -1466671.3, -1643588.6, -12692.044, -0.07621832, 0.006893734, -1465765.4, 252610.78, 0.0014964563, 10.001809, 9.999598 
1.6503812e+2, 1.3465463e+2, -1341670.6, -1599333.6, -69236.97, -0.08703105, 0.022899466, -1324244.4, 296133.2, 0.0008776996, 10.002335, 9.998983 
1.6503778e+2, 1.4465243e+2, -1313903.1, -1531177.0, 59364.79, 0.108718894, -0.096497156, -1298741.3, 223655.67, 0.00037921302, 10.001856, 9.998983 
1.6503619e+2, 1.5465076e+2, -1418772.4, -1563256.3, 55144.055, -0.001131411, -0.18093696, -1400131.1, 24281.178, 0.00009882513, 10.000595, 9.998702 
1.6503407e+2, 1.646501e+2, -1285011.5, -1295901.1, -16728.59, -0.03919381, -0.17687713, -1272863.9, 53553.06, 0.000009884257, 10.000173, 10.000071 
1.6503131e+2, 1.7465039e+2, -1120473.9, -1167767.6, -37717.027, -0.0026280857, -0.19514674, -1099603.9, 128807.42, 0.0000002904704, 10.000634, 10.000057 
1.6502903e+2, 1.8464977e+2, -1045658.06, -1244843.3, 27888.932, 0.039897744, -0.18441798, -1041826.9, 88590.336, 0.0, 10.001196, 9.998573 
1.6502732e+2, 1.9464792e+2, -857824.94, -1119674.0, 50801.97, 0.08882413, -0.25667956, -848314.2, 184124.02, 0.0, 10.001878, 9.998433 
1.6502517e+2, 2.0464739e+2, -725292.2, -956521.3, 104401.83, 0.058515638, -0.1673479, -685129.75, 249316.5, 0.0, 10.001924, 9.998863 
1.6502248e+2, 2.1464823e+2, -726469.44, -911023.3, 71714.266, -0.056388594, -0.00086491357, -701879.06, 134561.67, 0.0, 10.001255, 9.998826 
1.6501942e+2, 2.2464745e+2, -672359.06, -858978.4, -24712.951, -0.08489342, 0.05298895, -669141.94, 69307.32, 0.0, 10.001054, 9.998606 
1.6501583e+2, 2.3464464e+2, -535884.2, -751345.2, -58419.34, -0.019856349, -0.118993014, -521063.97, 119411.01, 0.0, 10.001356, 9.998529 
1.6501254e+2, 2.4464296e+2, -447566.34, -656953.06, 6227.8735, -0.005583694, -0.13368171, -447381.25, 95109.97, 0.0, 10.00129, 9.998533 
1.6500974e+2, 2.5464243e+2, -417159.94, -598946.1, -16088.042, -0.032601718, -0.073175445, -415747.13, 28750.824, 0.0, 10.000852, 9.99847 
1.6500689e+2, 2.6464185e+2, -365314.66, -511136.22, -30732.297, -0.03185611, 0.019289223, -359102.4, -12597.352, 0.0, 10.000478, 9.998581 
1.6500397e+2, 2.746407e+2, -313201.75, -446793.28, -45460.19, 0.0030709298, 0.012227548, -299199.63, -50682.74, 0.000000024295247, 10.000213, 9.998474 
1.6500099e+2, 2.8463864e+2, -254852.34, -416183.44, -16213.944, 0.017071443, -0.011062546, -253238.95, -102702.414, 0.0000019697127, 10.000159, 9.998041 
1.6499864e+2, 2.9463595e+2, -92728.61, -265454.38, -27967.879, 0.0881016, -0.12340135, -88312.914, -35751.97, 0.000013995548, 10.000478, 9.998257 
1.6499756e+2, 3.0463552e+2, -70042.79, -241517.48, 20225.223, 0.28055382, 0.008444185, -67689.55, -67689.55, 0.000055183133, 10.000378, 9.9981365 
1.6499366e+2, 3.14633e+2, -59194.79, -94053.85, 5631.6694, 0.15445091, -0.072244555, -58307.543, -58307.543, 0.00016346599, 9.999749, 9.999458 
1.750453e+2, 1.2465792e+2, -1502286.5, -1714695.0, -28439.994, -0.003044983, -0.00086396193, -1498544.6, 219804.34, 0.0014785845, 10.001796, 9.99911 
1.7504051e+2, 1.3465583e+2, -1398575.3, -1702892.6, -41716.895, -0.11599059, -0.078269735, -1392960.1, 227406.6, 0.00086354057, 10.00229, 9.998281 
1.7503962e+2, 1.446531e+2, -1303483.1, -1504733.9, -2029.671, 0.064889446, -0.22198586, -1303462.8, 218929.58, 0.00037008742, 10.00182, 9.999189 
1.750378e+2, 1.5465377e+2, -1399890.1, -1520799.5, 24689.346, 0.062252898, -0.10154745, -1395043.0, 29342.71, 0.000094032526, 10.00058, 9.9990015 
1.7503539e+2, 1.6465421e+2, -1288069.9, -1298945.4, -15886.901, 0.03993695, -0.0033752748, -1276715.9, 49665.324, 0.000008393363, 10.000146, 10.000071 
1.7503218e+2, 1.7465407e+2, -1127568.6, -1172428.3, -5488.0415, -0.013699724, -0.061631147, -1126907.0, 101474.58, 0.00000020811186, 10.000592, 10.000046 
1.7502965e+2, 1.8465401e+2, -991849.6, -1119570.4, 40513.277, -0.051154714, -0.037471328, -980082.8, 150298.08, 0.0, 10.001127, 9.999472 
1.7502785e+2, 1.9465384e+2, -806751.7, -987776.06, 90437.4, -0.07978352, -0.035668712, -769313.2, 263067.9, 0.0, 10.001766, 9.999394 
1.7502606e+2, 2.0465305e+2, -768439.5, -1019115.2, 63322.125, -0.07293446, -0.0029456778, -753352.06, 181037.0, 0.0, 10.001801, 9.998494 
1.7502432e+2, 2.1465139e+2, -777835.75, -985337.3, 60619.367, -0.025569655, -0.047813453, -761424.44, 74983.445, 0.0, 10.001118, 9.998381 
1.7502144e+2, 2.2464961e+2, -714455.56, -919635.6, -28925.143, -0.01666745, -0.052702177, -710455.8, 27970.633, 0.0, 10.000935, 9.998247 
1.7501706e+2, 2.3464742e+2, -581014.06, -814390.2, -33042.42, -0.06336313, -0.12628467, -576425.94, 64021.043, 0.0, 10.001218, 9.998163 
1.7501305e+2, 2.4464582e+2, -480127.06, -704422.56, -23073.773, -0.11343471, -0.104451895, -477778.03, 64685.74, 0.0, 10.001204, 9.998247 
1.7500953e+2, 2.5464472e+2, -460258.2, -654851.1, -19370.74, -0.168719, -0.0717961, -458348.66, -13871.749, 0.0, 10.000708, 9.998156 
1.750071e+2, 2.6464376e+2, -365090.0, -506262.47, -56333.504, -0.08986923, -0.00033784244, -345366.3, 1120.7013, 0.0, 10.000449, 9.998631 
1.7500563e+2, 2.7464247e+2, -320914.97, -443372.56, -42328.715, 0.11261722, -0.034976907, -307707.97, -59209.06, 0.000000035492793, 10.000119, 9.998548 
1.7500265e+2, 2.8464052e+2, -238524.16, -375555.0, -20139.94, 0.13376068, -0.06302822, -235625.44, -85108.42, 0.0000021240596, 10.000134, 9.998325 
1.749987e+2, 2.946385e+2, -90826.35, -231160.22, 406.72235, 0.010006663, -0.14175792, -90825.17, -38288.215, 0.000013429294, 10.000362, 9.998537 
1.7499723e+2, 3.0463958e+2, -49437.996, -194033.02, -12295.795, 0.17971633, 0.11139456, -48399.863, -48399.863, 0.000050919698, 10.000356, 9.998475 
1.7499289e+2, 3.1463528e+2, -13263.142, 42712.555, 67155.23, 0.032267287, -0.18103462, 87478.7, 87478.7, 0.00014908816, 9.999604, 10.000453 
1.8504824e+2, 1.24660894e+2, -1645836.4, -1799551.5, 59560.42, 0.16937874, -0.01688857, -1625459.5, 92860.48, 0.0014297328, 10.000869, 9.998974 
1.850425e+2, 1.3465911e+2, -1468624.4, -1741664.1, 26268.31, -0.11147805, -0.058959853, -1466120.3, 154215.63, 0.00082590414, 10.00183, 9.998232 
1.8504122e+2, 1.4465614e+2, -1263785.0, -1481309.5, 71960.59, 0.041955456, -0.22607583, -1242134.3, 280229.63, 0.00034715154, 10.002063, 9.999229 
1.8503924e+2, 1.5465713e+2, -1229073.0, -1430751.9, 50426.93, 0.099815935, -0.08348203, -1217167.3, 207186.53, 0.0000844504, 10.001704, 9.999081 
1.8503673e+2, 1.646575e+2, -1136263.5, -1275239.5, 49535.94, 0.10235618, 0.026640046, -1120414.5, 205935.47, 0.000006352812, 10.001436, 9.999593 
1.8503366e+2, 1.746568e+2, -1048687.5, -1191460.6, -1690.4594, 0.042427287, -0.039062317, -1048667.5, 179689.81, 0.000000056960435, 10.001393, 9.99952 
1.8503106e+2, 1.8465656e+2, -958822.7, -1076160.3, 27442.438, -0.021852762, -0.017632224, -952721.8, 177636.36, 0.0, 10.001249, 9.999708 
1.8502884e+2, 1.9465677e+2, -913681.25, -1009121.94, -2974.748, -0.10547315, -0.0031317067, -913588.6, 118764.04, 0.0, 10.000908, 9.999663 
1.8502723e+2, 2.0465584e+2, -911867.4, -1110863.5, -33459.32, -0.083696075, 0.008208301, -906392.2, 27969.156, 0.0, 10.000898, 9.998301 
1.8502624e+2, 2.1465342e+2, -774065.1, -1007533.25, -46809.016, 0.05594808, -0.092965744, -765029.8, 71358.17, 0.0, 10.001228, 9.9981785 
1.8502344e+2, 2.2465163e+2, -653715.06, -874729.25, -76254.305, 0.07832143, -0.092874825, -629959.2, 108447.64, 0.0, 10.001293, 9.998382 
1.8501842e+2, 2.3465039e+2, -594226.7, -805323.9, -70447.984, -0.033958185, -0.08830531, -572876.0, 67543.02, 0.0, 10.001064, 9.998299 
1.8501417e+2, 2.4464902e+2, -512664.56, -719733.5, -10786.616, -0.10201936, -0.04742399, -512104.2, 30329.307, 0.0, 10.000972, 9.998256 
1.8501097e+2, 2.546474e+2, -414254.34, -630796.94, -11169.052, -0.10199743, -0.06897379, -413679.78, 30771.646, 0.0, 10.001002, 9.998181 
1.8500851e+2, 2.6464617e+2, -297483.9, -461568.84, -9918.519, -0.009835203, -0.028683549, -296886.53, 49576.88, 0.0, 10.000892, 9.998716 
1.8500665e+2, 2.7464494e+2, -218515.1, -381879.06, -23788.816, 0.17848617, -0.061183583, -215121.5, 33351.887, 0.000000044067633, 10.00079, 9.998647 
1.8500347e+2, 2.8464302e+2, -127511.055, -319362.94, 29884.744, 0.17383723, -0.09726979, -122963.695, 27527.95, 0.000002141611, 10.000857, 9.998376 
1.8499942e+2, 2.94641e+2, -815.40857, -187433.61, -4195.6475, 0.02543494, -0.17858219, -721.12744, 51792.184, 0.000012353572, 10.000952, 9.998568 
1.849976e+2, 3.0464318e+2, -48850.492, -154587.78, -38870.168, 0.20148765, 0.16634387, -36099.145, -36099.145, 0.00004451732, 10.000184, 9.99883 
1.8499239e+2, 3.146385e+2, -131132.02, 5776.895, 36176.508, 0.08325578, -0.19505121, 14748.226, 14748.226, 0.00012893318, 9.998646, 10.000694 
1.9505e+2, 1.2466425e+2, -1644541.6, -1776475.3, 58708.746, 0.18169433, -0.020410683, -1622200.3, 96087.76, 0.0013506947, 10.000798, 9.999163 
1.9504368e+2, 1.3466445e+2, -1438396.6, -1663655.4, 69045.875, -0.20887293, 0.081445836, -1418917.3, 201367.88, 0.00077082973, 10.001787, 9.998781 
1.9504213e+2, 1.446615e+2, -1274086.1, -1491843.3, 41434.133, -0.11421379, -0.10740135, -1266468.6, 255843.69, 0.0003170448, 10.002008, 9.9991865 
1.9504002e+2, 1.5466097e+2, -1238774.6, -1442094.0, 49044.55, -0.027567307, -0.11230537, -1227562.4, 196752.63, 0.000073711046, 10.001668, 9.99902 
1.9503768e+2, 1.6466017e+2, -1209512.3, -1419904.4, 35472.28, 0.02015384, -0.068299174, -1203692.5, 122629.336, 0.0000047225935, 10.0013895, 9.9986315 
1.9503532e+2, 1.7465864e+2, -1123955.6, -1337116.8, 13496.177, 0.034431983, -0.11879206, -1123104.5, 105233.4, 0.0000000036456946, 10.001344, 9.998549 
1.9503282e+2, 1.8465747e+2, -1000814.3, -1146071.4, 1128.1205, -0.0027164905, -0.11867429, -1000805.56, 129542.914, 0.0, 10.001168, 9.999274 
1.9502993e+2, 1.9465666e+2, -957276.1, -1079177.3, -1489.6954, -0.119518995, -0.16307843, -957257.94, 75095.445, 0.0, 10.000814, 9.999232 
1.950282e+2, 2.0465574e+2, -931340.25, -1115640.4, -33018.094, -0.10430255, -0.12986536, -925603.5, 8759.192, 0.0, 10.00075, 9.998335 
1.950278e+2, 2.1465436e+2, -791321.06, -1008779.94, -20121.111, 0.058144886, -0.13062431, -789475.0, 46905.21, 0.0, 10.00108, 9.99824 
1.95025e+2, 2.2465365e+2, -637471.6, -803907.1, -98625.516, 0.07964226, -0.05531684, -591646.06, 146743.38, 0.0, 10.001142, 9.998939 
1.9501944e+2, 2.3465352e+2, -576528.7, -728629.7, -65452.89, -0.06572789, 0.0032321832, -552241.0, 88149.75, 0.0, 10.000901, 9.998899 
1.9501556e+2, 2.4465258e+2, -504644.66, -676904.2, -23110.908, -0.08819356, 0.039117385, -501597.9, 40802.36, 0.0, 10.000859, 9.998605 
1.9501357e+2, 2.5465056e+2, -413389.34, -591697.75, 3311.0115, 0.0249339, -0.05710553, -413327.88, 31092.652, 0.0, 10.000845, 9.998523 
1.9501065e+2, 2.6464927e+2, -300729.0, -457659.47, -28094.521, 0.08404233, -0.04886458, -295851.0, 50581.484, 0.0, 10.000838, 9.9987755 
1.9500661e+2, 2.7464813e+2, -229846.89, -388185.75, -9255.349, 0.06292515, -0.0691956, -229307.72, 19132.807, 0.000000036761158, 10.000706, 9.9986515 
1.9500308e+2, 2.8464597e+2, -152297.14, -356368.13, 21904.715, 0.017513985, -0.119081005, -149972.4, 489.43985, 0.0000018181237, 10.000798, 9.998149 
1.9500044e+2, 2.946435e+2, -38141.035, -229534.16, 14364.535, -0.006625167, -0.22306907, -37068.945, 15420.551, 0.000010151812, 10.00081, 9.9983425 
1.949983e+2, 3.0464637e+2, -28843.941, -98533.75, -108254.23, 0.21955208, 0.18388279, 50035.137, 50035.137, 0.00003534469, 10.000135, 9.99923 
1.9499132e+2, 3.14643e+2, -167400.33, -26380.717, 64777.363, 0.04545535, -0.09271115, -1142.2096, -1142.2096, 0.000103030594, 9.998497, 10.000524 
2.0505147e+2, 1.2466718e+2, -1514167.4, -1728339.6, 69449.76, 0.21613923, 0.0008566331, -1493618.4, 224642.45, 0.0012481128, 10.001774, 9.999024 
2.050463e+2, 1.3466783e+2, -1488129.6, -1659031.0, -11851.527, -0.087863535, 0.1218557, -1487311.6, 132942.48, 0.0007037624, 10.001306, 9.999064 
2.0504498e+2, 1.4466509e+2, -1423483.6, -1563231.3, -19328.459, 0.03064724, -0.05847037, -1420859.6, 101420.195, 0.00028324383, 10.000995, 9.999183 
2.050414e+2, 1.5466444e+2, -1301907.4, -1474568.3, -48661.793, -0.026491806, -0.07051056, -1289137.3, 135146.88, 0.000063005726, 10.001252, 9.998996 
2.0503864e+2, 1.6466342e+2, -1190926.3, -1412234.6, 5648.9634, -0.021417499, -0.04799942, -1190782.1, 135510.1, 0.0000035155435, 10.001526, 9.998622 
2.0503706e+2, 1.7466152e+2, -1074669.1, -1318135.9, 24625.184, 0.06506435, -0.12933527, -1072203.4, 156105.94, 0.0000000004928599, 10.001699, 9.998516 
2.0503485e+2, 1.846599e+2, -960151.4, -1191441.8, 62269.02, 0.06378995, -0.14620778, -944452.56, 185871.64, 0.0, 10.001724, 9.998692 
2.0503174e+2, 1.9465852e+2, -886219.06, -1114777.9, 16515.805, -0.04992027, -0.18530211, -885031.75, 147305.4, 0.0, 10.001595, 9.9986105 
2.0502964e+2, 2.0465752e+2, -842008.8, -1021004.1, 21757.61, -0.047658395, -0.14879145, -839402.06, 94945.17, 0.0, 10.0011425, 9.998797 
2.0502877e+2, 2.1465673e+2, -880220.44, -994591.0, 42472.348, 0.098111965, -0.14304589, -866173.3, -29816.762, 0.0, 10.000232, 9.998746 
2.0502573e+2, 2.2465633e+2, -773817.2, -852405.75, 15126.3955, 0.09771292, -0.069992505, -771006.25, -32644.94, 0.0, 10.000118, 9.9991 
2.0502026e+2, 2.3465617e+2, -569559.0, -712560.3, -10774.001, -0.06428429, -0.028765459, -568751.8, 71611.29, 0.0, 10.000875, 9.999029 
2.0501652e+2, 2.446554e+2, -488571.47, -645359.3, 9178.838, -0.069511436, 0.005953413, -488035.94, 54335.273, 0.0, 10.000874, 9.99881 
2.0501477e+2, 2.5465375e+2, -513329.7, -617126.3, -4563.1294, 0.10922974, -0.07118009, -513129.47, -68741.69, 0.0, 10.000072, 9.998718 
2.0501177e+2, 2.6465276e+2, -433665.44, -508873.28, 9052.451, 0.16836134, -0.04435268, -432591.2, -86194.56, 0.0, 9.999865, 9.998891 
2.0500723e+2, 2.7465194e+2, -281170.38, -399043.8, 2332.1086, 0.08501011, -0.04861716, -281124.25, -32722.002, 0.00000002096579, 10.000296, 9.998768 
2.050036e+2, 2.846497e+2, -214244.1, -374023.28, 71724.77, 0.022701764, -0.11808182, -186770.8, -36346.36, 0.0000012828043, 10.000341, 9.99824 
2.0500115e+2, 2.9464677e+2, -137967.78, -263722.66, 59916.57, 0.030691536, -0.27803066, -113991.5, -61535.785, 0.000007381431, 10.000073, 9.998459 
2.0499822e+2, 3.0465004e+2, -39946.973, -88332.85, -53403.598, 0.21992064, 0.15464029, -5511.9126, -5511.9126, 0.00002618385, 9.999992, 9.999382 
2.049911e+2, 3.146475e+2, 26688.715, 34267.715, 74018.6, 0.11482374, -0.051846553, 104593.76, 104593.76, 0.000078949044, 10.000001, 10.000212 
2.1505159e+2, 1.24669656e+2, -1555705.3, -1803671.6, 24616.498, -0.020268936, 0.04290041, -1553285.1, 164953.97, 0.0011286415, 10.001718, 9.998538 
2.1504994e+2, 1.346694e+2, -1475390.4, -1645152.4, -16842.475, 0.11181686, 0.066322595, -1473735.6, 146505.95, 0.00062779407, 10.001351, 9.99914 
2.150493e+2, 1.4466715e+2, -1433500.3, -1579719.4, -28483.375, 0.32090607, -0.06377224, -1428147.6, 94116.234, 0.00024660726, 10.000972, 9.999081 
2.1504292e+2, 1.5466769e+2, -1305438.1, -1487099.3, -22827.309, -0.036586408, 0.050083946, -1302613.6, 121645.92, 0.000052325075, 10.0012665, 9.998902 
2.1503912e+2, 1.6466725e+2, -1141144.4, -1293973.8, -1354.6744, -0.1559356, 0.09483404, -1141132.4, 185128.45, 0.000002586899, 10.00146, 9.999463 
2.1503843e+2, 1.7466535e+2, -1020889.8, -1189916.5, 46513.32, 0.0006647227, -0.08046372, -1008935.56, 219336.67, 0.000000000052014764, 10.001634, 9.99942 
2.1503672e+2, 1.8466374e+2, -1029468.2, -1313219.4, 45390.25, 0.04809944, -0.10366739, -1022384.2, 107901.84, 0.0, 10.001621, 9.997909 
2.1503386e+2, 1.9466227e+2, -951161.2, -1236057.1, 27540.459, -0.031218275, -0.07293118, -948523.3, 83781.48, 0.0, 10.001529, 9.997811 
2.1503116e+2, 2.046612e+2, -794820.4, -896853.9, -25347.135, -0.037773646, -0.046994716, -788870.6, 145444.63, 0.0, 10.001029, 9.999703 
2.1502872e+2, 2.1466038e+2, -831198.8, -861708.4, 19785.625, 0.039771564, -0.13915241, -821470.0, 14848.157, 0.0, 10.000095, 9.9997225 
2.150252e+2, 2.2465952e+2, -814287.4, -897340.4, 28146.447, 0.0075187683, -0.15122026, -805647.4, -67323.35, 0.0, 9.999957, 9.998865 
2.1502045e+2, 2.346584e+2, -615135.6, -763165.2, 33313.16, -0.16131699, -0.18143846, -607984.2, 32351.277, 0.0, 10.000691, 9.998764 
2.1501672e+2, 2.4465756e+2, -502555.3, -653473.94, -32927.96, -0.16735718, -0.13765226, -495683.84, 46661.207, 0.0, 10.00078, 9.998802 
2.1501422e+2, 2.5465697e+2, -531877.94, -623735.44, -19405.408, 0.015091506, -0.10823621, -527946.6, -83593.61, 0.0, 9.999934, 9.99874 
2.1501143e+2, 2.646568e+2, -434292.47, -490873.47, 9769.221, 0.117385305, -0.013118546, -432653.22, -86297.37, 0.0, 9.999783, 9.999049 
2.1500807e+2, 2.7465636e+2, -291109.56, -388268.63, 33688.95, 0.10698287, 0.0038493332, -280571.25, -32212.121, 0.00000000626477, 10.00016, 9.998905 
2.1500462e+2, 2.846541e+2, -182805.53, -300545.72, 47636.086, 0.056858644, -0.093461394, -165946.61, -15566.482, 0.00000075455597, 10.000307, 9.998762 
2.1500124e+2, 2.9465085e+2, -118708.56, -206015.63, 64657.965, -0.00557642, -0.33945146, -84347.46, -31935.842, 0.0000049684672, 9.999997, 9.998894 
2.1499711e+2, 3.0465418e+2, -55724.19, -123245.44, -65319.324, 0.08133521, 0.09116753, -15956.634, -15956.634, 0.000019575336, 9.999994, 9.9991455 
2.1499105e+2, 3.146519e+2, -36721.21, -74631.75, 141039.53, 0.041306626, -0.061608143, 86631.125, 86631.125, 0.00006230811, 9.999902, 9.9995165 
2.2505364e+2, 1.2467173e+2, -1609318.9, -1826252.3, 88138.555, 0.04767488, 0.039047133, -1578023.6, 140196.63, 0.0009987325, 10.001315, 9.998579 
2.2505192e+2, 1.3467166e+2, -1403269.4, -1570354.6, -20314.684, 0.17028868, 0.044068165, -1400835.0, 219385.52, 0.0005469882, 10.00169, 9.999476 
2.25051e+2, 1.4467023e+2, -1324283.3, -1529851.5, 24212.05, 0.36182573, -0.021603677, -1321470.1, 200764.9, 0.00020906689, 10.0017395, 9.99906 
2.2504435e+2, 1.5467048e+2, -1256844.0, -1467995.0, 4823.2993, -0.029133376, 0.0694537, -1256733.9, 167500.28, 0.000042237294, 10.001629, 9.998863 
2.250406e+2, 1.6467014e+2, -1109373.0, -1259003.1, 35068.465, -0.15330233, 0.11710963, -1101561.9, 224673.02, 0.0000020119714, 10.001595, 9.999628 
2.2504017e+2, 1.746687e+2, -1014636.0, -1170214.6, -3298.5, 0.0180675, -0.026947372, -1014566.06, 213675.48, 0.0, 10.001607, 9.999559 
2.250384e+2, 1.8466736e+2, -1056430.9, -1296871.6, 11380.934, 0.076899916, -0.04482187, -1055893.4, 74359.0, 0.0, 10.00131, 9.998171 
2.2503519e+2, 1.9466598e+2, -1082347.3, -1269709.3, 43837.574, 0.006525008, -0.030538889, -1072597.8, -40328.543, 0.0, 10.000517, 9.998069 
2.2503223e+2, 2.0466493e+2, -877134.44, -942093.25, 36330.39, 0.0007313437, -0.012724716, -860881.8, 73397.11, 0.0, 10.000479, 9.99967 
2.2502962e+2, 2.14664e+2, -676327.56, -793754.75, -16795.248, 0.07403666, -0.10940574, -673972.6, 162310.52, 0.0, 10.00118, 9.999676 
2.2502616e+2, 2.2466296e+2, -614828.6, -804976.44, -6302.946, 0.044575132, -0.13541484, -614619.94, 123670.52, 0.0, 10.001334, 9.998838 
2.2502173e+2, 2.3466158e+2, -602008.25, -758076.2, -12007.834, -0.09909155, -0.19054505, -601089.8, 39213.81, 0.0, 10.000791, 9.998751 
2.250179e+2, 2.4466057e+2, -541963.3, -667885.25, -58399.53, -0.10512849, -0.16623524, -519048.84, 23265.398, 0.0, 10.0004835, 9.998846 
2.2501475e+2, 2.5465983e+2, -448271.44, -582584.9, -71323.12, 0.054738425, -0.1583574, -417463.8, 26859.717, 0.0, 10.000485, 9.998765 
2.2501169e+2, 2.6465976e+2, -343357.25, -442472.78, 4864.3545, 0.14243363, -0.053293776, -343119.1, 3206.6016, 0.0, 10.000395, 9.999084 
2.2500874e+2, 2.746599e+2, -261760.11, -367818.38, -8562.456, 0.15725468, 0.018853897, -261073.28, -12748.53, 0.00000000006385136, 10.000335, 9.998961 
2.2500542e+2, 2.8465813e+2, -195899.67, -262638.63, 3182.9531, 0.12959866, -0.056084536, -195748.2, -45407.215, 0.00000032397858, 10.000019, 9.999163 
2.2500156e+2, 2.9465505e+2, -189331.45, -202266.45, -21132.688, 0.069082215, -0.32390416, -173698.75, -121330.64, 0.000003287384, 9.999357, 9.99922 
2.2499652e+2, 3.0465752e+2, -155372.97, -203854.97, -90043.305, 0.06264229, 0.022094741, -86364.72, -86364.72, 0.00001601569, 9.999451, 9.998848 
2.2499181e+2, 3.1465513e+2, 20708.072, -47581.223, 84606.05, 0.1254878, -0.13307843, 77799.61, 77799.61, 0.000054019332, 10.000286, 9.9995165 
2.3505686e+2, 1.2467333e+2, -1575397.0, -1755255.0, 75790.42, 0.1636344, -0.027477937, -1547719.0, 170486.08, 0.0008678289, 10.001318, 9.999069 
2.3505175e+2, 1.3467449e+2, -1360987.4, -1495400.1, -4327.1377, -0.049491126, 0.05815099, -1360848.3, 259344.3, 0.00046623294, 10.001727, 9.999985 
2.350495e+2, 1.4467408e+2, -1328701.4, -1512804.4, 3399.1577, 0.0058384426, 0.05851419, -1328638.6, 193557.06, 0.00017258529, 10.001635, 9.999228 
2.3504528e+2, 1.5467267e+2, -1252295.3, -1452887.9, 17729.178, -0.13451736, -0.023902046, -1250740.4, 173468.86, 0.000033446406, 10.001606, 9.998981 
2.3504265e+2, 1.6467188e+2, -1164267.1, -1351736.4, 19440.03, -0.14310174, 0.004897757, -1162272.4, 163943.58, 0.0000017722703, 10.001509, 9.999035 
2.3504187e+2, 1.7467144e+2, -1061779.6, -1254663.3, 11062.99, -0.004365344, 0.018109914, -1061147.3, 167071.83, 0.0000000001389195, 10.001548, 9.999013 
2.3503949e+2, 1.8467073e+2, -988516.25, -1127346.6, -30780.03, 0.025705198, 0.03129342, -981998.06, 148225.47, 0.0, 10.001193, 9.9993925 
2.3503523e+2, 1.9466954e+2, -1003646.4, -1090322.1, 26480.06, -0.07139418, -0.0595197, -996196.8, 36034.49, 0.0, 10.000445, 9.999336 
2.3503233e+2, 2.0466858e+2, -964568.75, -1085597.3, 47309.555, -0.06097359, -0.054190956, -948270.44, -14030.763, 0.0, 10.00032, 9.998757 
2.3503102e+2, 2.1466757e+2, -769347.56, -948180.4, 25949.057, 0.067307115, -0.06296721, -765658.44, 70593.305, 0.0, 10.001013, 9.998695 
2.3502819e+2, 2.2466668e+2, -629855.56, -796067.44, -35412.09, 0.089155756, -0.030278755, -622625.44, 115634.93, 0.0, 10.001167, 9.998981 
2.3502368e+2, 2.346657e+2, -609348.5, -742167.1, -16352.793, -0.014832301, -0.057172082, -607364.75, 32902.586, 0.0, 10.000655, 9.998929 
2.3501955e+2, 2.446643e+2, -548220.5, -659576.7, -72832.16, -0.021626057, -0.08741458, -512222.13, 30057.688, 0.0, 10.000389, 9.99895 
2.3501581e+2, 2.5466225e+2, -461653.66, -576278.56, -57615.945, 0.080089346, -0.22325796, -437699.2, 6600.6294, 0.0, 10.000337, 9.998879 
2.3501214e+2, 2.6466176e+2, -362574.7, -461384.13, -11501.185, 0.12019603, -0.15743136, -361253.63, -14948.338, 0.0, 10.000309, 9.998997 
2.3500882e+2, 2.7466267e+2, -285295.78, -388901.88, 6328.9243, 0.10018159, -0.0028910239, -284910.6, -36611.41, 0.0, 10.000211, 9.998879 
2.3500548e+2, 2.846618e+2, -181213.03, -219991.77, -33127.305, 0.09899402, 0.0019018636, -162217.94, -11911.374, 0.00000009734078, 9.999968, 9.999479 
2.3500162e+2, 2.9465944e+2, -190486.75, -183300.1, -30625.227, 0.09757571, -0.22539325, -156058.11, -103732.695, 0.0000024854203, 9.999254, 9.999408 
2.3499595e+2, 3.046601e+2, -171023.42, -228832.11, -68795.0, 0.028134486, -0.05075211, -125307.305, -125307.305, 0.000014818684, 9.999425, 9.998689 
2.3499261e+2, 3.1465724e+2, 62273.57, 57925.008, 158036.11, 0.108191505, -0.24421386, 218150.36, 218150.36, 0.00005156838, 10.000198, 10.00029 
2.4506015e+2, 1.2467644e+2, -1335190.6, -1653658.1, 205717.19, 0.287444, -0.06117044, -1234280.3, 483891.66, 0.00074233726, 10.003066, 9.998915 
2.45053e+2, 1.346774e+2, -1367341.5, -1546889.3, -12376.365, -0.095610894, 0.04909082, -1366492.4, 253670.7, 0.00038816038, 10.001909, 9.999542 
2.4504977e+2, 1.4467727e+2, -1384497.9, -1534754.3, 7263.108, -0.09932796, 0.096409574, -1384147.6, 138016.36, 0.00013769997, 10.001216, 9.999276 
2.4504729e+2, 1.546753e+2, -1296851.9, -1468691.9, -15518.68, -0.068010285, -0.051029827, -1295461.6, 128719.86, 0.000025817635, 10.001286, 9.999018 
2.4504511e+2, 1.6467427e+2, -1216171.8, -1409417.6, 22609.94, -0.029069517, -0.03541081, -1213561.6, 112629.66, 0.0000016011192, 10.001286, 9.998758 
2.4504356e+2, 1.7467396e+2, -1152075.6, -1329003.1, 9531.638, 0.044347297, 0.023064774, -1151563.6, 76631.48, 0.0000000006420841, 10.0010605, 9.998744 
2.4504076e+2, 1.8467332e+2, -974035.94, -1061597.3, -25840.523, 0.049184736, 0.03227442, -966978.8, 163219.9, 0.0, 10.001049, 9.999906 
2.4503642e+2, 1.9467206e+2, -859446.3, -959789.6, -49746.984, -0.02640773, -0.12150377, -838964.2, 193240.0, 0.0, 10.001187, 9.999865 
2.4503338e+2, 2.046713e+2, -839642.7, -1050260.9, 15362.34, -0.0284329, -0.11253086, -838528.06, 95682.72, 0.0, 10.001293, 9.998525 
2.4503206e+2, 2.1467088e+2, -759796.2, -971496.7, 17673.59, 0.06872561, -0.035730552, -758330.9, 77889.95, 0.0, 10.00121, 9.998433 
2.4502927e+2, 2.246703e+2, -647741.3, -771161.9, -16429.945, 0.10128102, 0.026436089, -645591.56, 92636.28, 0.0, 10.000902, 9.999279 
2.4502489e+2, 2.3466934e+2, -636480.0, -717326.7, -11051.092, 0.06621336, -0.031978298, -634996.6, 5236.7114, 0.0, 10.000317, 9.999261 
2.4502067e+2, 2.4466807e+2, -588644.94, -664696.1, -10036.108, 0.07786622, -0.0714162, -587342.8, -45099.582, 0.0, 10.000049, 9.999087 
2.4501662e+2, 2.546663e+2, -481817.66, -567526.1, -19558.041, 0.14661469, -0.19231601, -477565.6, -33306.223, 0.0, 10.000133, 9.99904 
2.4501261e+2, 2.646654e+2, -384645.1, -512293.13, 47028.688, 0.14179051, -0.16198584, -369189.84, -22921.033, 0.0, 10.00031, 9.998657 
2.4500896e+2, 2.7466527e+2, -255046.23, -409407.8, 18377.24, 0.083513364, -0.07503647, -252888.53, -4615.481, 0.0, 10.000571, 9.998566 
2.4500568e+2, 2.846645e+2, -108322.84, -219267.95, -38880.973, 0.099832304, -0.029097652, -96053.73, 54226.555, 0.00000009803459, 10.00061, 9.999183 
2.4500212e+2, 2.9466304e+2, -41685.703, -143138.64, -112640.414, 0.17401268, -0.13556416, 31123.396, 83414.555, 0.0000023443192, 10.000413, 9.999126 
2.449959e+2, 3.0466226e+2, -50986.348, -229115.28, -110156.95, 0.041560713, -0.06813358, 1607.3463, 1607.3463, 0.000014153015, 10.000502, 9.998169 
2.4499372e+2, 3.1465924e+2, 129988.195, 109248.65, 15540.601, 0.19460024, -0.22516142, 138301.1, 138301.1, 0.00004937861, 10.000613, 10.000429 
2.5506252e+2, 1.2468123e+2, -1398960.9, -1777525.4, 130577.54, 0.14815477, -0.051034063, -1358290.4, 359829.03, 0.00062344765, 10.003025, 9.998089 
2.5505528e+2, 1.346803e+2, -1453843.3, -1724586.1, -46601.83, -0.08829545, -0.0009963274, -1446046.4, 174087.03, 0.0003143659, 10.001906, 9.998324 
2.5505152e+2, 1.4467974e+2, -1402905.4, -1559709.8, -10817.237, -0.087072715, 0.07469239, -1402162.6, 119977.77, 0.00010539114, 10.001163, 9.999125 
2.5504974e+2, 1.5467827e+2, -1308586.3, -1482679.1, 422.1186, 0.012439047, -0.015749676, -1308585.3, 115567.016, 0.000019009012, 10.001245, 9.998936 
2.550475e+2, 1.646772e+2, -1222288.8, -1401644.1, -25.762173, 0.050398953, -0.0046233726, -1222288.8, 103872.43, 0.0000013062046, 10.001199, 9.998853 
2.5504482e+2, 1.7467637e+2, -1152676.9, -1320139.9, 17402.719, 0.028385807, -0.0070642834, -1150887.5, 77281.49, 0.000000000635992, 10.0010195, 9.998822 
2.5504178e+2, 1.8467523e+2, -999913.0, -1094379.4, -32732.822, 0.015202828, -0.040369894, -989679.56, 140497.53, 0.0, 10.000956, 9.999726 
2.5503826e+2, 1.9467348e+2, -883553.94, -988720.4, -29389.594, 0.0049675223, -0.22895469, -875898.1, 156290.38, 0.0, 10.001091, 9.999712 
2.5503504e+2, 2.0467302e+2, -842442.3, -1014581.9, 1054.2144, -0.018327018, -0.19827238, -842435.8, 91757.13, 0.0, 10.001119, 9.998853 
2.550323e+2, 2.1467382e+2, -755388.4, -928817.2, 28081.115, -0.057296343, -0.03511044, -750954.9, 85236.82, 0.0, 10.001069, 9.998793 
2.5502893e+2, 2.2467372e+2, -632401.8, -708079.06, -52539.11, -0.04863435, 0.034026727, -605493.9, 132700.14, 0.0, 10.000767, 9.999779 
2.550249e+2, 2.3467237e+2, -622635.25, -654118.44, -18789.232, 0.009461611, -0.11844532, -613864.94, 26337.785, 0.0, 10.000165, 9.999768 
2.5502092e+2, 2.4467176e+2, -593177.0, -647863.2, -22283.506, 0.070082076, -0.12520511, -585246.9, -43041.32, 0.0, 9.999942, 9.999251 
2.5501677e+2, 2.5467178e+2, -493917.75, -558645.25, -4990.707, 0.120556824, -0.08106902, -493535.22, -49330.85, 0.0, 9.999985, 9.999172 
2.550126e+2, 2.6467046e+2, -437786.25, -596340.0, 41924.7, 0.08140729, -0.070673205, -427383.13, -81165.79, 0.0, 10.000207, 9.998126 
2.550087e+2, 2.7466753e+2, -312106.75, -498912.75, 43204.17, -0.032945, -0.20641896, -302598.53, -54350.39, 0.0, 10.000443, 9.998017 
2.5500563e+2, 2.8466612e+2, -180935.5, -351664.78, -60298.89, 0.0020840273, -0.15983093, -161786.61, -11522.955, 0.00000013920514, 10.00054, 9.998303 
2.5500256e+2, 2.9466587e+2, -127740.22, -282376.22, -106359.15, 0.14038925, -0.055148683, -73565.48, -21299.117, 0.0000022917138, 10.000251, 9.998245 
2.5499594e+2, 3.0466378e+2, -118287.45, -356343.44, -112755.07, -0.03214279, -0.033914775, -73360.06, -73360.06, 0.0000129202135, 10.00045, 9.997314 
2.549942e+2, 3.146606e+2, 65542.44, -4429.6777, 33667.484, 0.11186231, -0.109380014, 79110.72, 79110.72, 0.000045825393, 10.000526, 9.99969 
2.6506376e+2, 1.24684595e+2, -1691009.1, -1886539.0, 50464.875, 0.09470683, -0.022880223, -1678752.8, 39333.46, 0.00051409315, 10.000833, 9.998408 
2.65058e+2, 1.3468322e+2, -1464224.0, -1738999.3, -93466.125, 0.013734976, -0.02020732, -1435445.1, 184657.98, 0.0002486299, 10.00183, 9.998277 
2.6505408e+2, 1.4468238e+2, -1304916.9, -1540231.9, 21531.734, 0.021218786, 0.042340204, -1302962.9, 219149.77, 0.00007773356, 10.001966, 9.99887 
2.650522e+2, 1.5468091e+2, -1257085.1, -1489512.3, -12060.162, 0.118658096, -0.0227991, -1256461.0, 167664.77, 0.000013419433, 10.001719, 9.998671 
2.6504958e+2, 1.6467969e+2, -1171824.5, -1337257.1, 13940.923, 0.14302129, -0.031568475, -1170658.0, 155477.4, 0.0000010267595, 10.001376, 9.999205 
2.650462e+2, 1.7467864e+2, -1149289.6, -1277159.0, 21653.441, 0.08111674, -0.09545816, -1145722.4, 82419.67, 0.0000000012219834, 10.000864, 9.9991865 
2.6504287e+2, 1.8467762e+2, -1057028.0, -1167575.5, 20234.691, 0.046733033, -0.11650742, -1053440.6, 76709.02, 0.0, 10.000767, 9.999316 
2.6503968e+2, 1.9467641e+2, -927455.44, -1060097.0, -27103.166, 0.052140124, -0.20317821, -922131.06, 110029.55, 0.0, 10.001006, 9.999268 
2.650363e+2, 2.0467614e+2, -845569.9, -966366.3, 6084.9507, 0.01913396, -0.1523778, -845264.1, 88900.37, 0.0, 10.000874, 9.999307 
2.6503286e+2, 2.1467677e+2, -852828.75, -924579.94, 14714.264, -0.056182947, -0.052374057, -849928.44, -13766.415, 0.0, 10.000176, 9.999257 
2.6502922e+2, 2.2467676e+2, -743900.6, -742663.1, -39044.37, -0.04671527, -0.0060115037, -704232.6, 33929.926, 0.0, 9.999907, 9.999961 
2.6502553e+2, 2.3467587e+2, -624225.44, -638861.75, -63376.76, 0.064845726, -0.12805113, -567745.7, 72422.18, 0.0, 10.000074, 9.999923 
2.6502162e+2, 2.4467547e+2, -544909.06, -653203.4, -48727.36, 0.13137226, -0.10762032, -526212.1, 15957.668, 0.0, 10.000408, 9.998987 
2.650174e+2, 2.5467545e+2, -368810.6, -527932.6, -86777.47, 0.14224586, -0.03902397, -330641.9, 113527.82, 0.0, 10.000979, 9.9988985 
2.6501316e+2, 2.6467398e+2, -345687.44, -561047.56, -33647.215, 0.09122054, -0.027101396, -340552.9, 5631.5845, 0.0, 10.000875, 9.998045 
2.650093e+2, 2.7467093e+2, -373394.94, -528926.5, -28449.27, 0.015012419, -0.16974589, -368354.47, -120138.65, 0.0, 10.000043, 9.9979925 
2.6500636e+2, 2.846693e+2, -285619.0, -434244.6, -41380.7, 0.06320564, -0.12870991, -274874.44, -124641.15, 0.00000017298198, 9.999954, 9.998017 
2.6500338e+2, 2.9466859e+2, -67514.52, -277295.13, -66719.016, 0.1841194, -0.044945426, -48093.105, 4148.6357, 0.000002277503, 10.000755, 9.998041 
2.649963e+2, 3.0466646e+2, -66686.76, -319342.44, -7850.112, -0.043971468, -0.024945484, -66443.086, -66443.086, 0.000011809922, 10.00073, 9.997455 
2.649943e+2, 3.1466386e+2, -147255.44, -94109.29, 137008.72, 0.1605967, -0.054679938, 18879.504, 18879.504, 0.000042458643, 9.998973, 9.999838 
2.7506328e+2, 1.2468658e+2, -1585610.1, -1671209.4, 35877.938, -0.11789623, 0.017082805, -1572561.5, 145510.39, 0.00042131313, 10.000835, 9.999891 
2.7506045e+2, 1.3468635e+2, -1379716.5, -1564871.1, -51799.297, 0.03756901, 0.01542536, -1366210.3, 253860.17, 0.0001952308, 10.001836, 9.999468 
2.750568e+2, 1.4468534e+2, -1336286.1, -1595855.4, -8842.544, 0.05672021, 0.017113479, -1335985.3, 186094.1, 0.000056360343, 10.0019245, 9.998511 
2.7505434e+2, 1.5468334e+2, -1290218.8, -1547645.1, -4503.6753, 0.12562346, -0.06100979, -1290140.0, 133960.98, 0.000009372096, 10.001682, 9.99829 
2.7505115e+2, 1.646818e+2, -1134650.3, -1248375.1, -18268.652, 0.12712078, -0.110393256, -1131787.6, 194325.14, 0.0000008660051, 10.001325, 9.999837 
2.7504718e+2, 1.746807e+2, -1112986.8, -1188443.6, 16434.154, 0.05700345, -0.2451745, -1109562.9, 118551.97, 0.000000004874734, 10.000811, 9.99982 
2.750436e+2, 1.8468034e+2, -1123858.1, -1278532.1, 13964.775, 0.011998891, -0.19622293, -1122607.5, 7509.8994, 0.0, 10.000649, 9.99861 
2.7504033e+2, 1.9468072e+2, -993028.1, -1173131.0, -1355.3031, -0.01861354, -0.05117986, -993017.9, 39103.57, 0.0, 10.000914, 9.998533 
2.7503687e+2, 2.0468065e+2, -825123.4, -893141.25, -32753.385, -0.042551037, 0.029655451, -811915.9, 122209.43, 0.0, 10.000744, 9.99987 
2.7503327e+2, 2.146797e+2, -833898.5, -843785.5, 3033.2297, -0.06362014, -0.09082245, -833042.1, 3089.9856, 0.0, 10.000002, 9.999891 
2.7502972e+2, 2.2467943e+2, -784437.2, -785911.56, -47192.44, -0.015656881, -0.09467987, -737976.2, 157.21526, 0.0, 9.99973, 9.999751 
2.750262e+2, 2.3467971e+2, -664748.8, -685401.4, -44103.652, 0.099495426, -0.07400766, -629778.7, 10351.798, 0.0, 9.999908, 9.999686 
2.7502233e+2, 2.4467912e+2, -608573.2, -757917.0, -40469.46, 0.1356805, -0.029336482, -598311.75, -56174.973, 0.0, 10.000293, 9.998322 
2.7501798e+2, 2.5467724e+2, -436253.97, -639080.5, -49654.977, 0.06881377, -0.079531714, -424750.16, 19406.355, 0.0, 10.000847, 9.998202 
2.750139e+2, 2.6467592e+2, -335253.44, -514467.75, -80425.29, 0.043432046, -0.037168905, -304454.34, 41716.363, 0.0, 10.000779, 9.998407 
2.750104e+2, 2.7467516e+2, -369659.22, -489182.84, -47101.734, 0.089245826, 0.017458437, -353328.7, -105150.07, 0.00000000009324417, 9.9999075, 9.998331 
2.750076e+2, 2.846738e+2, -267214.5, -382256.34, -29195.809, 0.15563412, 0.04900349, -260229.2, -110036.69, 0.00000023612336, 9.999897, 9.998398 
2.7500418e+2, 2.946711e+2, -49225.164, -220067.97, -15396.901, 0.14270069, -0.109280616, -47848.637, 4370.267, 0.0000024951785, 10.000661, 9.998483 
2.7499637e+2, 3.0467045e+2, 18218.38, -121187.11, -74309.83, -0.1375886, -0.03321943, 50399.996, 50399.996, 0.0000116764495, 10.000667, 9.998829 
2.7499306e+2, 3.1466922e+2, -111376.39, 36265.773, 78239.76, 0.07162674, -0.049779885, 70013.33, 70013.33, 0.000040637482, 9.998756, 10.00083 
2.8506476e+2, 1.2468855e+2, -1436563.9, -1539161.3, 91896.67, -0.07476427, 0.011333221, -1382617.4, 335437.1, 0.00034670465, 10.00164, 10.000388 
2.8506246e+2, 1.3468863e+2, -1462649.3, -1544514.0, -88213.54, 0.110054776, -0.012181538, -1406334.1, 213712.84, 0.00015383656, 10.001039, 9.999974 
2.850584e+2, 1.446876e+2, -1480228.5, -1650915.4, -13219.89, 0.08765924, -0.044800196, -1479210.8, 42844.49, 0.00004093297, 10.000874, 9.998639 
2.8505614e+2, 1.5468645e+2, -1306062.4, -1537363.5, -1000.9608, 0.16193917, -0.05034073, -1306058.0, 118011.73, 0.0000066741927, 10.001488, 9.998455 
2.850529e+2, 1.6468519e+2, -1097874.8, -1246265.4, -13132.452, 0.15951656, -0.07379051, -1096721.5, 229358.25, 0.00000074756446, 10.001654, 9.999699 
2.8504845e+2, 1.7468368e+2, -1043167.0, -1176097.0, -67690.94, 0.08395185, -0.23145558, -1014765.5, 213321.03, 0.000000006090155, 10.001373, 9.999645 
2.8504458e+2, 1.8468331e+2, -1081233.4, -1259535.0, -36884.176, 0.041648608, -0.17468822, -1073904.6, 56185.25, 0.0, 10.000951, 9.998592 
2.850413e+2, 1.9468409e+2, -1082013.1, -1219815.1, -25622.572, 0.028031675, 0.012435224, -1077403.3, -45311.86, 0.0, 10.000311, 9.998505 
2.8503767e+2, 2.0468393e+2, -934211.3, -924505.1, -30489.88, 0.0142400395, 0.07877589, -898484.5, 35610.62, 0.0, 9.999916, 10.000047 
2.850337e+2, 2.1468247e+2, -869280.0, -841719.75, -57051.535, 0.0054341652, -0.10999549, -796807.75, 39296.535, 0.0, 9.99968, 10.00006 
2.8502992e+2, 2.2468205e+2, -795629.25, -829115.75, -68532.26, 0.033559185, -0.120288685, -741824.6, -3717.6782, 0.0, 9.999831, 9.999399 
2.850263e+2, 2.3468266e+2, -613463.06, -699587.44, -103129.81, 0.10077163, -0.029067596, -544766.1, 95337.305, 0.0, 10.0004425, 9.999325 
2.8502274e+2, 2.4468192e+2, -542359.44, -714256.0, -53538.117, 0.13492906, 0.013426913, -527048.44, 15063.445, 0.0, 10.000681, 9.998433 
2.850192e+2, 2.5467953e+2, -476128.53, -638502.6, -30834.18, 0.13356718, -0.105558254, -470470.4, -26335.207, 0.0, 10.0005, 9.998364 
2.850151e+2, 2.6467827e+2, -346397.6, -491969.2, -18883.324, 0.109076805, -0.07244421, -343987.97, 2159.2642, 0.0, 10.000572, 9.998669 
2.8501096e+2, 2.746782e+2, -207639.08, -381736.72, -23121.223, 0.11483715, 0.018098373, -204620.77, 43527.926, 0.0000000018932573, 10.000868, 9.998617 
2.8500783e+2, 2.84677e+2, -151840.88, -282208.06, 37999.445, 0.17078286, 0.032878947, -141573.42, 8586.864, 0.00000028816427, 10.000501, 9.9987955 
2.850048e+2, 2.946744e+2, -163955.14, -219639.44, 26992.1, 0.2010095, -0.15285526, -153018.95, -100834.336, 0.0000027347362, 9.999655, 9.998959 
2.8499728e+2, 3.0467483e+2, -73028.3, -160247.39, -68270.82, -0.06453059, -0.0011961004, -35627.367, -35627.367, 0.000012525966, 9.999993, 9.99889 
2.849931e+2, 3.1467256e+2, 180623.63, 194552.31, -85540.055, 0.12286542, -0.13297088, 273411.06, 273411.06, 0.00004059471, 10.000681, 10.000984 
2.950671e+2, 1.2469075e+2, -1467868.4, -1617914.6, -7987.4956, -0.088953905, -0.018162025, -1467444.3, 250587.55, 0.00028489743, 10.001684, 9.99983 
2.950637e+2, 1.3468997e+2, -1478539.4, -1584354.6, -102451.234, 0.09022646, -0.10777502, -1416141.0, 203892.28, 0.000121053716, 10.001068, 9.999686 
2.9505852e+2, 1.4468901e+2, -1433766.0, -1557124.6, -13039.84, -0.032590743, -0.14753579, -1432402.8, 89638.33, 0.000029834508, 10.000874, 9.999289 
2.9505715e+2, 1.5469018e+2, -1262800.4, -1440317.9, 34366.156, 0.07563575, 0.0060294974, -1256379.6, 167653.06, 0.000004731658, 10.001458, 9.999137 
2.9505423e+2, 1.6468984e+2, -1172765.6, -1381700.0, -35238.777, 0.09886123, 0.08325115, -1166982.4, 159054.13, 0.00000054097734, 10.001578, 9.998798 
2.9504955e+2, 1.7468768e+2, -1116261.4, -1311220.0, -59601.035, 0.021620177, -0.04512479, -1099484.4, 128570.96, 0.0000000012704189, 10.001318, 9.9987335 
2.950455e+2, 1.8468662e+2, -1048717.9, -1175212.9, -74744.97, 0.005630895, -0.043413624, -1014051.8, 116014.125, 0.0, 10.000871, 9.999215 
2.9504216e+2, 1.9468643e+2, -1048216.9, -1127935.4, -35985.76, 0.048252106, -0.017635142, -1034375.75, -2305.2834, 0.0, 10.000217, 9.99918 
2.950383e+2, 2.0468597e+2, -972955.9, -968612.3, -52974.215, 0.056667704, -0.0073715663, -917765.4, 16308.995, 0.0, 9.999761, 9.999818 
2.9503366e+2, 2.14685e+2, -913920.8, -892531.3, -50044.57, 0.008637881, -0.12054344, -852051.5, -15971.998, 0.0, 9.999502, 9.999795 
2.9502937e+2, 2.2468461e+2, -857797.4, -916570.25, -61051.313, -0.030091245, -0.0885018, -819428.2, -81344.984, 0.0, 9.999656, 9.998881 
2.950254e+2, 2.3468469e+2, -676100.0, -788623.5, -64273.484, -0.05816148, 0.0020837835, -646942.44, -6855.2837, 0.0, 10.000271, 9.998794 
2.9502255e+2, 2.4468397e+2, -491753.66, -585813.2, -74934.766, 0.016143017, 0.027776305, -450313.0, 91781.555, 0.0, 10.000576, 9.999371 
2.950206e+2, 2.5468215e+2, -426732.0, -507797.06, -24794.836, 0.19113442, -0.12469302, -419749.56, 24357.594, 0.0, 10.000373, 9.9993305 
2.9501647e+2, 2.6468098e+2, -339793.06, -459083.0, -20220.363, 0.15780137, -0.15171838, -336458.8, 9657.67, 0.0, 10.000493, 9.99893 
2.950104e+2, 2.7468002e+2, -210745.27, -353980.38, 1168.5577, -0.06503776, -0.17163453, -210735.72, 37390.39, 0.0000000016821552, 10.000727, 9.998874 
2.9500672e+2, 2.846791e+2, -125454.46, -220431.56, -7975.4014, -0.027976697, -0.16147913, -124789.414, 25345.305, 0.00000022409213, 10.000464, 9.999242 
2.9500484e+2, 2.9467857e+2, -151163.3, -181525.14, 21910.271, 0.1967671, -0.18451725, -139688.63, -87549.0, 0.0000026534976, 9.999586, 9.999267 
2.949986e+2, 3.046795e+2, -160106.4, -324718.06, -44072.746, 0.03565443, 0.061152533, -149049.2, -149049.2, 0.00001292508, 9.999933, 9.997782 
2.9499337e+2, 3.146735e+2, 114161.3, 81617.71, -15408.356, 0.0045388895, -0.3341207, 120299.07, 120299.07, 0.000040888393, 10.000572, 10.000257 
3.0506882e+2, 1.2469434e+2, -1633650.0, -1728170.8, 52781.68, -0.01953975, 0.015150902, -1610062.3, 107934.13, 0.00023189843, 10.0006895, 9.999557 
3.0506584e+2, 1.3469338e+2, -1408308.3, -1547099.0, -43209.77, 0.18553951, -0.09375052, -1395955.3, 224044.6, 0.000094942065, 10.001527, 9.999725 
3.050604e+2, 1.4469226e+2, -1312985.3, -1469120.9, 77977.414, 0.03878397, -0.16354561, -1280712.4, 241296.17, 0.000021738364, 10.001601, 9.999528 
3.050588e+2, 1.5469344e+2, -1283594.1, -1425230.0, 52574.27, 0.120613955, -0.02979236, -1266212.1, 157786.38, 0.0000030875526, 10.00121, 9.999353 
3.050558e+2, 1.6469331e+2, -1261820.6, -1429722.8, 19159.941, 0.13622317, 0.057129562, -1259662.0, 66338.69, 0.0000002653173, 10.000962, 9.998771 
3.05051e+2, 1.7469157e+2, -1197064.3, -1354892.6, 30437.8, 0.069134526, -0.0260054, -1191397.6, 36620.164, 0.0, 10.000765, 9.998709 
3.0504686e+2, 1.8469046e+2, -1031209.0, -1159679.9, 64791.656, 0.057718784, -0.031452943, -1004207.7, 125821.3, 0.0, 10.000958, 9.999282 
3.0504343e+2, 1.9468968e+2, -859613.6, -1038871.2, 27773.83, 0.100226246, -0.069270074, -855409.0, 176627.89, 0.0, 10.001497, 9.999189 
3.0503926e+2, 2.0468898e+2, -762700.3, -921399.44, -7253.11, 0.10297925, -0.058308363, -762369.5, 171673.34, 0.0, 10.0014305, 9.999343 
3.0503422e+2, 2.1468827e+2, -777694.5, -887011.2, -53822.25, 0.06136958, -0.09480987, -755643.25, 80404.305, 0.0, 10.000681, 9.999273 
3.0502978e+2, 2.2468764e+2, -769418.7, -893409.56, -405.68185, 0.01986699, -0.053003065, -769417.4, -31363.074, 0.0, 10.000338, 9.998717 
3.0502614e+2, 2.3468688e+2, -662321.06, -799378.06, -2189.5342, -0.010292286, -0.03343689, -662286.1, -22220.72, 0.0, 10.000433, 9.998647 
3.0502328e+2, 2.4468613e+2, -522245.6, -553888.1, -12379.679, 0.058504716, -0.019615395, -517977.84, 24094.457, 0.0, 10.000201, 9.999757 
3.0502096e+2, 2.5468525e+2, -480171.47, -482740.7, -34595.965, 0.2303465, -0.11974135, -446836.28, -2760.0974, 0.0, 9.999814, 9.999761 
3.0501673e+2, 2.6468462e+2, -459285.78, -477803.63, -8089.3423, 0.18949127, -0.12887424, -456249.78, -110170.08, 0.0, 9.999506, 9.999276 
3.0501056e+2, 2.7468392e+2, -381238.03, -396222.75, -5794.13, -0.04148528, -0.16170464, -379259.0, -131172.2, 0.00000000014964384, 9.999389, 9.999223 
3.0500677e+2, 2.8468305e+2, -252544.97, -267489.3, -3145.3997, -0.012606485, -0.1737857, -251909.94, -101814.805, 0.00000013461268, 9.999549, 9.999352 
3.050048e+2, 2.9468238e+2, -103459.336, -144733.4, -26427.35, 0.22739713, -0.21781304, -90565.91, -38464.86, 0.0000024184974, 9.999887, 9.999356 
3.0499896e+2, 3.0468342e+2, -129378.79, -317859.97, -9442.218, 0.081473105, 0.039073825, -128906.95, -128906.95, 0.00001259153, 10.000157, 9.997741 
3.0499426e+2, 3.1467834e+2, -3178.8845, 3639.1184, 56010.555, 0.08851288, -0.26446542, 56344.316, 56344.316, 0.000039642433, 9.999828, 10.000108 
3.1506926e+2, 1.246994e+2, -1626249.6, -1717893.1, -8846.173, -0.12316762, 0.12391204, -1625403.6, 92543.78, 0.0001887222, 10.000717, 9.99961 
3.1506827e+2, 1.3469902e+2, -1392949.6, -1498662.3, -2728.473, 0.24451996, 0.04038026, -1392879.3, 227065.7, 0.00007509751, 10.001477, 10.000075 
3.1506333e+2, 1.4469743e+2, -1338340.1, -1515329.1, 46107.94, 0.12997581, -0.079479575, -1327048.8, 194908.1, 0.00001598166, 10.001564, 9.9992285 
3.150607e+2, 1.5469623e+2, -1308507.5, -1473733.1, 53188.65, 0.14970945, -0.15671091, -1292866.0, 131101.81, 0.00000170519, 10.001199, 9.9990225 
3.1505722e+2, 1.6469558e+2, -1211011.1, -1314625.3, -9573.59, 0.14809394, -0.14375, -1210134.0, 115839.07, 0.000000057148895, 10.000913, 9.999591 
3.1505236e+2, 1.7469531e+2, -1142021.8, -1229458.8, 33063.95, 0.09577966, -0.1677105, -1130926.6, 97047.53, 0.0, 10.000714, 9.999596 
3.1504813e+2, 1.8469486e+2, -1082493.8, -1241769.1, 69459.37, 0.05870871, -0.12655729, -1056458.5, 73520.164, 0.0, 10.000852, 9.998772 
3.1504467e+2, 1.9469385e+2, -911426.94, -1120542.0, 63067.758, 0.040266868, -0.13476397, -893878.7, 138111.52, 0.0, 10.00139, 9.998678 
3.1504023e+2, 2.0469311e+2, -842620.8, -1046265.75, -48851.164, 0.031038811, -0.06447252, -831508.56, 102490.586, 0.0, 10.00126, 9.998569 
3.150348e+2, 2.1469244e+2, -856906.7, -1010902.2, -66302.77, 0.026590576, -0.018745977, -832293.8, 3713.3032, 0.0, 10.000511, 9.998504 
3.1503066e+2, 2.2469127e+2, -771307.4, -864757.56, -10771.089, 0.04752329, -0.0037372815, -770081.94, -32062.982, 0.0, 10.0001955, 9.998986 
3.1502795e+2, 2.346893e+2, -664776.6, -767289.6, 16647.34, 0.09707826, -0.13090026, -662141.0, -22103.668, 0.0, 10.000272, 9.99895 
3.1502444e+2, 2.4468844e+2, -548719.8, -591534.7, -40098.184, 0.122041285, -0.13433474, -524672.44, 17372.98, 0.0, 10.00012, 9.999538 
3.150199e+2, 2.546887e+2, -517399.56, -526744.8, -37045.906, 0.1114565, -0.09548803, -484732.75, -40689.79, 0.0, 9.999665, 9.999533 
3.1501544e+2, 2.6468933e+2, -435014.72, -410523.2, -26879.469, 0.07917145, 0.0062129274, -393231.44, -47194.59, 0.0, 9.9994335, 9.999775 
3.150112e+2, 2.7468988e+2, -360185.56, -330094.56, 5066.157, 0.047439694, 0.047550507, -329264.5, -81233.26, 0.00000000001473293, 9.999286, 9.999732 
3.1500754e+2, 2.8468865e+2, -279049.06, -307162.44, -5636.659, 0.07946236, -0.012195528, -277961.03, -127918.53, 0.000000108201135, 9.999488, 9.9991045 
3.1500396e+2, 2.9468557e+2, -144296.08, -201044.69, 5412.0913, 0.11400407, -0.26785746, -143784.55, -91712.95, 0.0000023186144, 9.999759, 9.999034 
3.149979e+2, 3.0468643e+2, -54732.484, -152302.19, -27681.408, -0.06919352, -0.07070497, -47426.14, -47426.14, 0.000012381474, 10.000112, 9.998897 
3.1499508e+2, 3.1468672e+2, 30243.752, 84395.695, 102094.72, 0.1130104, 0.035326757, 162943.77, 162943.77, 0.000038038284, 9.999775, 10.000687 
3.250714e+2, 1.2470294e+2, -1462080.4, -1678186.3, 38024.785, -0.031043617, 0.019529488, -1455585.0, 262322.1, 0.0001575099, 10.001985, 9.99928 
3.250701e+2, 1.3470304e+2, -1377697.9, -1528521.3, -21728.242, 0.28306347, 0.011449064, -1374630.0, 245273.08, 0.00006189271, 10.001706, 9.999772 
3.250651e+2, 1.4470184e+2, -1377931.6, -1548024.6, 36091.18, 0.17390734, -0.047975484, -1370590.5, 151321.75, 0.000012633238, 10.001331, 9.99913 
3.250621e+2, 1.5469982e+2, -1292373.1, -1473826.0, 32528.209, 0.17091435, -0.197708, -1286718.3, 137212.1, 0.0000008198343, 10.001324, 9.998974 
3.2505855e+2, 1.6469902e+2, -1154476.1, -1271614.4, -8882.156, 0.18312487, -0.20220317, -1153806.4, 172130.52, 0.000000004124255, 10.001267, 9.9997015 
3.2505405e+2, 1.746994e+2, -1067297.1, -1184731.6, -57396.71, 0.17768142, -0.16872297, -1043904.06, 184028.72, 0.0, 10.001203, 9.999664 
3.2504964e+2, 1.8469918e+2, -1051243.8, -1218285.5, 1603.6357, 0.12744877, -0.112393655, -1051228.4, 78706.664, 0.0, 10.001033, 9.9988365 
3.2504553e+2, 1.9469807e+2, -1017635.1, -1159826.4, 6671.888, 0.034955528, -0.14000034, -1017322.75, 14623.409, 0.0, 10.000632, 9.99876 
3.2504106e+2, 2.0469701e+2, -930611.3, -1141940.9, -43878.12, 0.01398852, -0.08385794, -921863.1, 12095.091, 0.0, 10.000867, 9.998104 
3.2503623e+2, 2.1469583e+2, -723211.94, -998102.25, -64476.246, 0.0689617, -0.043475322, -708840.2, 127132.97, 0.0, 10.001649, 9.998042 
3.2503214e+2, 2.2469445e+2, -583458.8, -757884.3, 2891.368, 0.12034805, -0.032986876, -583410.94, 154576.39, 0.0, 10.001417, 9.999127 
3.250288e+2, 2.346926e+2, -682426.4, -756954.9, -7871.111, 0.17497876, -0.1672972, -681604.2, -41601.35, 0.0, 10.000071, 9.999111 
3.250247e+2, 2.4469185e+2, -641380.4, -645213.3, -12239.689, 0.17632273, -0.1634572, -630908.0, -88898.695, 0.0, 9.999499, 9.999482 
3.2501963e+2, 2.5469226e+2, -481845.56, -515761.97, -15864.893, 0.115583204, -0.109843805, -475581.44, -31574.432, 0.0, 9.999908, 9.999498 
3.2501498e+2, 2.6469293e+2, -368633.1, -382465.97, 1352.1686, 0.075092815, 0.0023636548, -368502.16, -22500.934, 0.0, 9.999907, 9.999744 
3.2501096e+2, 2.7469355e+2, -332817.78, -317474.6, -37317.484, 0.09550261, 0.053155415, -287048.3, -39052.61, 0.00000000010851988, 9.999483, 9.999722 
3.2500744e+2, 2.8469238e+2, -313128.75, -318445.44, -13793.007, 0.14259963, 0.001805029, -301740.25, -151734.13, 0.00000014604628, 9.999214, 9.999169 
3.2500392e+2, 2.9468948e+2, -229725.88, -228204.9, -2801.1655, 0.18067062, -0.24765672, -226062.83, -174030.11, 0.0000023415487, 9.999108, 9.999164 
3.2499784e+2, 3.0469027e+2, -88228.18, -102321.07, -2835.437, -0.050944604, -0.09099155, -87679.09, -87679.09, 0.000012312151, 9.9996395, 9.999447 
3.24996e+2, 3.1469113e+2, 101865.086, 86434.37, 4619.3086, 0.21063744, 0.017718915, 103142.21, 103142.21, 0.000036624067, 10.000458, 10.000347 
3.3507416e+2, 1.24704994e+2, -1522786.8, -1786746.1, -56304.82, -0.02658076, -0.28046674, -1511278.3, 206596.92, 0.00013854062, 10.001926, 9.998555 
3.350709e+2, 1.3470556e+2, -1448559.4, -1661903.8, -30320.143, 0.15755047, -0.1520645, -1444334.0, 175538.81, 0.000055370125, 10.0016775, 9.998855 
3.350654e+2, 1.447055e+2, -1369741.8, -1519985.9, 12549.82, 0.028170254, -0.057178836, -1368700.6, 153173.6, 0.000011804474, 10.001285, 9.999346 
3.3506253e+2, 1.5470442e+2, -1273172.5, -1425990.5, 46296.453, 0.047185436, -0.14087093, -1260241.1, 163642.55, 0.00000057438905, 10.001293, 9.999315 
3.3505931e+2, 1.6470386e+2, -1211493.4, -1378575.8, -25855.11, 0.102046475, -0.10973858, -1207583.9, 118306.305, 0.00000000201948, 10.001214, 9.998997 
3.3505562e+2, 1.7470376e+2, -1124811.0, -1298574.5, -42942.71, 0.17871419, -0.048275765, -1114777.9, 113116.555, 0.0, 10.001174, 9.998899 
3.3505106e+2, 1.8470328e+2, -1030022.25, -1145205.6, -29503.41, 0.12885572, -0.0046030288, -1022904.94, 106994.04, 0.0, 10.000908, 9.999399 
3.350456e+2, 1.9470207e+2, -988566.06, -1076571.6, 5087.8594, -0.052607153, -0.101983465, -988272.9, 43633.777, 0.0, 10.000535, 9.999378 
3.3504122e+2, 2.0470051e+2, -959634.2, -1166839.0, -31019.324, -0.07889598, -0.1223467, -955090.1, -21168.648, 0.0, 10.00072, 9.998004 
3.3503804e+2, 2.1469833e+2, -758033.3, -1025826.1, -20669.598, 0.056224763, -0.1731824, -756447.3, 79499.25, 0.0, 10.00146, 9.997942 
3.3503374e+2, 2.2469707e+2, -609782.0, -772403.5, -60470.793, 0.11507959, -0.14391458, -589760.9, 148199.36, 0.0, 10.001249, 9.999106 
3.3502835e+2, 2.3469669e+2, -710067.3, -768089.7, -47662.13, 0.09512246, -0.13082281, -683281.3, -43318.805, 0.0, 9.999882, 9.999122 
3.350237e+2, 2.4469635e+2, -632206.06, -613285.25, -13130.392, 0.09857932, -0.10070804, -606562.1, -64597.688, 0.0, 9.999435, 9.999734 
3.350198e+2, 2.5469586e+2, -484334.38, -489620.97, 12382.1, 0.1124149, -0.16108543, -474316.6, -30348.605, 0.0, 9.999774, 9.999742 
3.3501503e+2, 2.6469553e+2, -422688.38, -478025.16, -28792.91, 0.061849922, -0.1337424, -410424.7, -64452.887, 0.0, 9.999839, 9.999116 
3.350094e+2, 2.746949e+2, -399507.0, -421959.63, -38757.07, -0.043637615, -0.14341609, -370383.1, -122402.65, 0.000000000044508567, 9.99934, 9.999069 
3.35006e+2, 2.8469434e+2, -280022.78, -245126.48, -31943.232, 0.04554973, -0.12960465, -226176.72, -76191.41, 0.00000018851506, 9.999181, 9.999695 
3.3500436e+2, 2.9469422e+2, -199277.08, -155031.05, 12307.23, 0.2678689, -0.15498179, -151838.14, -99854.99, 0.0000023038672, 9.999045, 9.999706 
3.3499822e+2, 3.046948e+2, -111678.375, -142226.03, 19845.365, -0.0047069113, -0.033596903, -101909.67, -101909.67, 0.000011796056, 9.999608, 9.999186 
3.3499607e+2, 3.1469133e+2, -15536.028, -125833.625, 47957.32, 0.10011072, -0.32238916, 2399.3333, 2399.3333, 0.000034748333, 10.000313, 9.998968 
3.4507716e+2, 1.2470937e+2, -1471962.6, -1768774.9, -100278.27, 0.07845432, -0.27455357, -1441259.5, 276571.25, 0.00012841672, 10.0023155, 9.998487 
3.450725e+2, 1.347089e+2, -1358303.3, -1663490.9, -69815.0, 0.1268306, -0.21227106, -1343090.6, 276747.72, 0.00005393956, 10.002468, 9.998483 
3.4506723e+2, 1.447088e+2, -1260245.0, -1453453.0, 22938.59, 0.06100738, -0.1080903, -1257558.9, 264281.56, 0.00001321429, 10.001991, 9.999452 
3.4506428e+2, 1.5470834e+2, -1290458.0, -1428051.0, -460.1793, 0.10864463, -0.13885835, -1290456.5, 133388.17, 0.00000089811203, 10.001155, 9.999363 
3.4506086e+2, 1.6470791e+2, -1262638.9, -1415827.8, -11702.829, 0.15825918, -0.08957264, -1261750.0, 64100.063, 0.0000000015154811, 10.000899, 9.998898 
3.4505677e+2, 1.7470749e+2, -1124124.1, -1306252.9, -6187.6963, 0.18166313, -0.053779237, -1123914.1, 103943.12, 0.0, 10.001215, 9.998826 
3.4505215e+2, 1.8470679e+2, -972675.56, -1127253.4, 24236.307, 0.1350937, -0.023293188, -968964.6, 160899.52, 0.0, 10.001336, 9.999323 
3.4504715e+2, 1.9470543e+2, -902492.06, -1047473.7, -18407.758, 0.025607247, -0.12828317, -900191.4, 131682.77, 0.0, 10.001165, 9.999284 
3.450429e+2, 2.0470405e+2, -898032.9, -1079259.6, -18065.074, 0.016466731, -0.1518163, -896249.7, 37637.305, 0.0, 10.000898, 9.998514 
3.4503946e+2, 2.1470238e+2, -868514.94, -1022792.44, 9272.54, 0.112510614, -0.2010842, -867959.6, -32054.172, 0.0, 10.000457, 9.998446 
3.4503478e+2, 2.2470146e+2, -722856.06, -845818.3, -3252.946, 0.13726719, -0.154696, -722770.06, 15145.663, 0.0, 10.000549, 9.998944 
3.4502882e+2, 2.3470119e+2, -526858.94, -701792.75, -30375.275, 0.094522566, -0.11100409, -521734.72, 118183.97, 0.0, 10.001217, 9.998942 
3.4502402e+2, 2.447007e+2, -407863.44, -531860.75, 5722.302, 0.10760057, -0.0747827, -407599.9, 134322.97, 0.0, 10.001108, 9.999481 
3.4502038e+2, 2.5469968e+2, -442603.25, -503653.22, -38285.977, 0.17866765, -0.15883169, -424163.03, 19768.217, 0.0, 10.000204, 9.999443 
3.4501532e+2, 2.6469886e+2, -425691.22, -509244.94, -49057.664, 0.11113009, -0.14905441, -403032.38, -57092.777, 0.0, 9.999955, 9.998842 
3.4500885e+2, 2.7469784e+2, -253741.56, -378341.47, -59337.816, -0.0791016, -0.16578428, -230005.13, 17946.613, 0.0, 10.000467, 9.998823 
3.4500557e+2, 2.846973e+2, -117906.18, -172080.3, -47131.234, 0.035246592, -0.14066747, -90632.76, 59324.484, 0.00000016974016, 10.000348, 9.9996195 
3.4500524e+2, 2.9469746e+2, -115357.6, -121909.234, -79529.18, 0.42935124, -0.12733157, -39036.805, 12915.854, 0.0000020169734, 9.999671, 9.999626 
3.4499896e+2, 3.0469802e+2, -102999.57, -140003.0, -14728.216, 0.118671335, -0.004391022, -97853.16, -97853.16, 0.0000103175025, 9.999646, 9.999195 
3.449958e+2, 3.146935e+2, -107340.43, -176778.48, -43393.453, 0.091177136, -0.40659314, -86486.055, -86486.055, 0.000031962787, 9.999695, 9.99891 
3.5507947e+2, 1.2471589e+2, -1440935.6, -1696928.6, -151051.97, -0.0050095385, 0.021722076, -1370942.8, 346832.3, 0.00012227354, 10.002282, 9.998996 
3.5507438e+2, 1.3471304e+2, -1334224.0, -1613634.9, -51324.85, 0.030364389, -0.17776507, -1325094.4, 294705.16, 0.00005490219, 10.002484, 9.998808 
3.5507008e+2, 1.447119e+2, -1272995.0, -1482558.9, -25069.21, 0.10360524, -0.19056313, -1270037.8, 251771.33, 0.000015641235, 10.001995, 9.999258 
3.5506684e+2, 1.547115e+2, -1307646.5, -1471988.9, -17032.24, 0.20969331, -0.18671775, -1305899.8, 117913.766, 0.0000017221555, 10.0011835, 9.999054 
3.5506263e+2, 1.6471115e+2, -1230740.4, -1333026.1, -18491.557, 0.20820118, -0.14133054, -1227500.1, 98316.71, 0.000000007086625, 10.000829, 9.999498 
3.5505694e+2, 1.7471065e+2, -1085127.8, -1213883.5, 21008.334, 0.04479252, -0.17727876, -1081786.6, 146034.33, 0.0, 10.0011635, 9.999485 
3.550525e+2, 1.8470977e+2, -1041334.56, -1241770.1, 6718.71, 0.0069629913, -0.16489117, -1041109.6, 88720.56, 0.0, 10.001216, 9.998594 
3.5504973e+2, 1.947083e+2, -972908.3, -1167126.1, -8981.168, 0.13587095, -0.2038143, -972493.9, 59352.805, 0.0, 10.00105, 9.998518 
3.550457e+2, 2.0470773e+2, -848092.6, -939283.1, -47921.91, 0.17923908, -0.15574636, -827540.8, 106312.04, 0.0, 10.000739, 9.999556 
3.550402e+2, 2.1470796e+2, -814286.2, -873902.5, 7643.399, 0.113782264, -0.12541248, -813321.9, 22527.89, 0.0, 10.0002985, 9.999547 
3.550349e+2, 2.2470759e+2, -765046.06, -899277.75, 9608.106, 0.06705326, -0.06703043, -764361.8, -26507.68, 0.0, 10.000404, 9.998645 
3.5502976e+2, 2.3470627e+2, -578358.6, -766771.2, 9012.532, 0.040542126, -0.09370565, -577928.5, 61941.16, 0.0, 10.001041, 9.99858 
3.5502505e+2, 2.4470505e+2, -488137.66, -666539.06, -39010.492, 0.07416585, -0.06960378, -479980.34, 61902.824, 0.0, 10.000977, 9.998616 
3.5502088e+2, 2.5470367e+2, -526599.4, -643451.8, -58237.086, 0.17494959, -0.10192415, -502532.1, -58635.16, 0.0, 10.000062, 9.998549 
3.550155e+2, 2.6470298e+2, -425044.13, -494996.38, -43138.23, 0.10057702, -0.040894788, -404484.34, -58580.1, 0.0, 9.999895, 9.99897 
3.5500887e+2, 2.7470264e+2, -261016.75, -369104.63, -22998.234, -0.15404008, -0.0082301535, -256326.83, -8418.574, 0.0, 10.0003605, 9.9989395 
3.550057e+2, 2.8470123e+2, -179046.34, -286257.53, -84765.7, -0.017668035, -0.030760553, -132358.45, 17563.441, 0.00000011654808, 10.000297, 9.99886 
3.5500604e+2, 2.9469904e+2, -188835.56, -249005.56, -83346.055, 0.5017953, -0.17797974, -130310.91, -78368.195, 0.0000016052002, 9.999567, 9.998803 
3.5499954e+2, 3.0469984e+2, -65374.527, -63384.117, -18618.924, 0.18169335, -0.013485794, -45733.82, -45733.82, 0.000008325357, 9.99964, 9.999731 
3.5499418e+2, 3.1469858e+2, -38108.227, -11798.173, -51274.496, -0.12033259, -0.1522031, 27981.938, 27981.938, 0.000028551576, 9.999594, 10.000099 
3.6508223e+2, 1.2472094e+2, -1527318.0, -1703340.1, -5395.0513, 0.10412769, 0.038685195, -1527152.9, 190574.52, 0.000118926524, 10.001518, 9.999334 
3.6507645e+2, 1.3471812e+2, -1430235.8, -1639106.8, 20448.078, 0.041734774, -0.17330614, -1428252.8, 191496.38, 0.000056465244, 10.001731, 9.998999 
3.6507276e+2, 1.447166e+2, -1342428.1, -1558175.0, 49008.387, 0.19323553, -0.2171613, -1331817.4, 189944.27, 0.00001794202, 10.001697, 9.998884 
3.6506832e+2, 1.5471596e+2, -1281213.5, -1499001.0, 16444.613, 0.23348878, -0.19764099, -1279978.9, 143790.52, 0.000002788093, 10.001538, 9.998698 
3.6506367e+2, 1.647154e+2, -1154981.3, -1302291.0, 45340.15, 0.21190557, -0.15248387, -1142144.8, 183630.6, 0.00000008230677, 10.001377, 9.999445 
3.6505812e+2, 1.7471471e+2, -1095087.6, -1221525.1, -1189.3481, 0.059017915, -0.2017648, -1095076.5, 132704.75, 0.0, 10.001111, 9.999455 
3.6505365e+2, 1.8471402e+2, -1099757.9, -1252789.1, 2591.2537, 0.032347057, -0.17740868, -1099714.0, 30074.871, 0.0, 10.000751, 9.998742 
3.6505067e+2, 1.9471304e+2, -1085546.8, -1203169.4, 27927.414, 0.17448477, -0.18014206, -1079252.6, -47451.97, 0.0, 10.000206, 9.998677 
3.6504644e+2, 2.047127e+2, -929761.0, -976574.1, 32141.52, 0.21689837, -0.11809093, -913406.44, 20398.38, 0.0, 10.000163, 9.999581 
3.6504087e+2, 2.1471284e+2, -765420.0, -847175.94, -23211.229, 0.14262208, -0.10059413, -759289.75, 76513.055, 0.0, 10.000616, 9.999579 
3.6503565e+2, 2.247124e+2, -738209.25, -900167.4, -25355.938, 0.09656115, -0.04506335, -734332.4, 3475.821, 0.0, 10.000648, 9.998526 
3.6503085e+2, 2.3471108e+2, -709536.9, -842996.5, -36760.215, 0.09791155, -0.058847215, -700081.56, -60257.17, 0.0, 10.000198, 9.998463 
3.6502612e+2, 2.4470964e+2, -595802.5, -761786.44, -33231.72, 0.12125306, -0.032271788, -589396.44, -47555.926, 0.0, 10.000401, 9.998256 
3.650214e+2, 2.5470793e+2, -372834.22, -603417.8, -39386.566, 0.17204891, -0.06261966, -366292.1, 77565.87, 0.0, 10.001264, 9.998249 
3.6501595e+2, 2.6470706e+2, -265969.03, -422073.16, -696.53076, 0.111717954, -0.0014120779, -265965.94, 79900.85, 0.0, 10.0010195, 9.998921 
3.6500984e+2, 2.7470666e+2, -375065.63, -428173.47, -25027.693, -0.044182807, 0.032525055, -365129.88, -117259.19, 0.0, 9.999603, 9.998896 
3.6500618e+2, 2.8470513e+2, -344467.03, -381209.53, -18614.973, 0.06283764, 0.0028519707, -336684.5, -186799.16, 0.000000055764154, 9.999198, 9.99875 
3.650049e+2, 2.947027e+2, -157403.33, -247656.39, 6964.983, 0.42529386, -0.1623365, -156868.98, -104960.41, 0.0000011855267, 9.999838, 9.998683 
3.6499897e+2, 3.0470294e+2, -32121.42, -56956.277, 94727.69, 0.15773068, -0.03932277, 50999.246, 50999.246, 0.0000067298934, 9.99994, 9.9996195 
3.6499465e+2, 3.1470335e+2, -84432.68, 11230.686, -82148.14, 0.009763738, -0.0031970567, 58457.863, 58457.863, 0.00002565761, 9.999104, 10.000492 
3.7508446e+2, 1.2472484e+2, -1507566.9, -1666007.5, -3948.6978, 0.09943175, -0.16212593, -1507468.6, 210216.0, 0.0001191897, 10.00153, 9.999579 
3.7507826e+2, 1.3472413e+2, -1417919.8, -1615646.6, 36530.703, 0.0077266973, -0.18828885, -1411386.5, 208300.83, 0.00005856906, 10.001739, 9.999149 
3.7507468e+2, 1.4472285e+2, -1385152.9, -1629967.1, 23610.957, 0.17449345, -0.1925559, -1382896.5, 138802.08, 0.000020069963, 10.001627, 9.998425 
3.7506834e+2, 1.5472168e+2, -1309797.0, -1562971.8, 27620.607, 0.041684274, -0.1779731, -1306818.8, 116893.86, 0.0000038584762, 10.0015545, 9.998254 
3.750636e+2, 1.6472064e+2, -1216096.1, -1415312.6, 22244.355, 0.03392105, -0.123143144, -1213642.5, 112083.055, 0.00000020238203, 10.00132, 9.998694 
3.7505984e+2, 1.7471975e+2, -1158588.3, -1343186.9, 4618.3105, 0.0874695, -0.117096476, -1158472.9, 69264.516, 0.0, 10.001063, 9.998645 
3.750551e+2, 1.8471946e+2, -1041975.06, -1107149.8, -31269.242, 0.07402387, -0.060803752, -1029399.4, 100341.24, 0.0, 10.000639, 9.999794 
3.750495e+2, 1.9471952e+2, -1024195.8, -1048801.8, 23193.65, 0.008379199, -0.07066209, -1010244.1, 21493.36, 0.0, 10.0000925, 9.999787 
3.7504476e+2, 2.0471884e+2, -1021708.9, -1135199.3, 34623.582, 0.0067011365, -0.051710855, -1011979.94, -78235.85, 0.0, 10.000023, 9.998562 
3.7504092e+2, 2.1471706e+2, -867160.8, -1015076.06, 6703.2197, 0.05848648, -0.11730503, -866857.6, -31093.424, 0.0, 10.000435, 9.998512 
3.7503657e+2, 2.2471598e+2, -755672.75, -903621.06, -58424.734, 0.102190286, -0.07282767, -735383.3, 2393.8132, 0.0, 10.000496, 9.998579 
3.7503168e+2, 2.3471543e+2, -723030.75, -840115.25, -40975.492, 0.13226853, -0.018414343, -710115.44, -70331.08, 0.0, 10.000054, 9.998555 
3.7502676e+2, 2.4471441e+2, -595883.2, -737065.9, -15060.16, 0.1194682, 0.033209395, -594294.6, -52499.14, 0.0, 10.000295, 9.998477 
3.7502155e+2, 2.5471252e+2, -379869.13, -586190.06, 8801.992, 0.02997024, -0.036290783, -379494.28, 64319.516, 0.0, 10.0011215, 9.998437 
3.7501636e+2, 2.6471105e+2, -292893.88, -462479.03, -64288.313, 0.017916407, -0.030904088, -271277.94, 74550.13, 0.0, 10.000949, 9.998679 
3.750113e+2, 2.7470982e+2, -403876.66, -468265.22, -61563.785, 0.105057165, -0.059120215, -366597.4, -118756.61, 0.0, 9.999513, 9.998668 
3.7500638e+2, 2.8470895e+2, -303484.1, -287005.1, -7755.4946, 0.13007325, -0.043022852, -283929.25, -134081.38, 0.00000003400916, 9.999155, 9.999419 
3.750012e+2, 2.9470846e+2, -130523.56, -169938.17, 49331.836, 0.031507403, -0.07467202, -97108.29, -45258.945, 0.000000899484, 9.999733, 9.999272 
3.749966e+2, 3.0470732e+2, -99780.7, -182726.97, 60961.43, -0.09741028, -0.0773883, -67522.45, -67522.45, 0.000005766145, 9.999884, 9.998781 
3.7499636e+2, 3.1470716e+2, -142269.39, -85765.15, -87315.49, 0.20171925, -0.01533978, -22244.842, -22244.842, 0.000023929499, 9.999002, 9.999877 
3.850869e+2, 1.24729656e+2, -1480931.1, -1676070.3, 42001.652, 0.18661167, -0.21005058, -1472274.8, 245361.23, 0.00012316402, 10.001827, 9.999364 
3.8507977e+2, 1.3472982e+2, -1446647.8, -1650135.6, -50624.813, 0.00588533, -0.13157049, -1434748.9, 184883.6, 0.000061385945, 10.001615, 9.998984 
3.850763e+2, 1.4472854e+2, -1395736.8, -1616419.6, -17421.322, 0.19428347, -0.13458751, -1394369.9, 127274.78, 0.000022093489, 10.001482, 9.998582 
3.8506964e+2, 1.5472732e+2, -1297215.3, -1535990.0, -10577.933, 0.027495429, -0.14341079, -1296747.6, 126910.73, 0.000004863891, 10.001568, 9.998423 
3.850648e+2, 1.6472612e+2, -1224899.0, -1450011.8, 38200.285, 0.029238746, -0.10066335, -1218593.3, 107079.48, 0.00000029520132, 10.001369, 9.998446 
3.8506114e+2, 1.7472506e+2, -1215478.5, -1397122.8, 35387.33, 0.13346787, -0.088838056, -1208828.0, 18859.076, 0.0, 10.000776, 9.998419 
3.850561e+2, 1.8472467e+2, -1031424.56, -1103632.4, 27806.602, 0.11543504, -0.029794848, -1021957.6, 107733.64, 0.0, 10.000709, 9.999786 
3.850499e+2, 1.947246e+2, -864851.94, -977419.06, -32210.223, -0.0058001713, -0.05381076, -856286.94, 175401.83, 0.0, 10.001188, 9.999757 
3.8504526e+2, 2.0472366e+2, -851876.0, -1093157.6, -3962.66, -0.0068951724, -0.041094314, -851810.94, 81886.984, 0.0, 10.001362, 9.998205 
3.8504222e+2, 2.1472153e+2, -788585.94, -1023254.0, -3498.2126, 0.115705505, -0.10261417, -788533.75, 47188.41, 0.0, 10.001159, 9.998117 
3.850379e+2, 2.2472025e+2, -673045.2, -848682.5, -19848.146, 0.16729721, -0.06358475, -670830.2, 66906.65, 0.0, 10.001007, 9.998701 
3.850322e+2, 2.3471977e+2, -581745.8, -754646.2, -30089.975, 0.13978283, -0.020495445, -576658.9, 63083.44, 0.0, 10.000962, 9.998696 
3.8502702e+2, 2.4471888e+2, -537790.0, -679712.0, 35064.35, 0.106278844, 0.02297571, -529599.4, 12151.958, 0.0, 10.000586, 9.99871 
3.8502222e+2, 2.5471714e+2, -545206.5, -646105.7, 29491.168, 0.05326225, -0.053836778, -537219.06, -93451.18, 0.0, 9.999896, 9.998611 
3.8501704e+2, 2.6471567e+2, -451822.7, -540196.5, -20673.926, 0.054271374, -0.060197964, -447225.44, -101443.33, 0.0, 9.999851, 9.998684 
3.850116e+2, 2.7471432e+2, -254219.23, -392390.38, -28733.027, 0.14374231, -0.09654615, -248482.33, -687.467, 0.0, 10.000525, 9.998701 
3.850061e+2, 2.847137e+2, -88933.68, -202039.5, 51488.613, 0.11932555, -0.05305408, -69005.81, 80794.07, 0.000000026095549, 10.000718, 9.999247 
3.8500017e+2, 2.947135e+2, -56646.918, -149685.1, 17185.68, -0.061980978, -0.04005356, -53573.938, -1774.703, 0.00000066980994, 10.000317, 9.9991255 
3.8499665e+2, 3.0471155e+2, -110927.11, -196696.69, 33231.67, -0.06596513, -0.1120716, -99558.336, -99558.336, 0.000005131084, 9.999835, 9.998707 
3.8499638e+2, 3.1471187e+2, -154592.92, -101812.055, -111155.85, 0.3237307, 0.0039491397, -13956.79, -13956.79, 0.000023471404, 9.998969, 9.999776 
3.9508894e+2, 1.2473547e+2, -1550098.3, -1792770.1, 51712.08, 0.13146845, -0.1091825, -1539538.3, 178041.97, 0.0001272644, 10.001752, 9.998591 
3.9508066e+2, 1.3473529e+2, -1491111.9, -1725132.1, -44638.008, -0.10151303, -0.011797731, -1482886.6, 136697.13, 0.00006380605, 10.001572, 9.998484 
3.950772e+2, 1.4473382e+2, -1362809.6, -1537509.5, -32155.75, 0.09131637, -0.037708826, -1357079.0, 164519.78, 0.000023677207, 10.001421, 9.999157 
3.9507166e+2, 1.547328e+2, -1253271.6, -1444133.4, 6851.7896, 0.03238679, -0.09152913, -1253025.9, 170581.61, 0.000005569423, 10.00156, 9.999058 
3.9506683e+2, 1.6473165e+2, -1207945.3, -1397028.6, -1979.73, 0.06251847, -0.09256147, -1207924.5, 117694.086, 0.00000035120044, 10.001299, 9.998843 
3.9506167e+2, 1.7473054e+2, -1197860.3, -1341388.1, 28061.48, 0.074684046, -0.12239729, -1192569.0, 35062.098, 0.0, 10.000702, 9.9988365 
3.950564e+2, 1.8472955e+2, -1123412.0, -1270933.5, 30903.805, 0.040007822, -0.0927714, -1117199.6, 12442.02, 0.0, 10.000599, 9.998696 
3.950514e+2, 1.9472836e+2, -961607.8, -1145313.3, -501.77188, -0.0066645266, -0.112997465, -961606.44, 70047.055, 0.0, 10.001051, 9.99867 
3.950474e+2, 2.0472734e+2, -851756.5, -1052039.8, -25679.1, 0.047402713, -0.07187045, -848516.5, 85148.11, 0.0, 10.001188, 9.998571 
3.9504427e+2, 2.1472628e+2, -790657.94, -976118.1, 6235.631, 0.18199077, -0.06599188, -790448.5, 45228.29, 0.0, 10.000946, 9.998539 
3.950392e+2, 2.2472528e+2, -683104.2, -833414.6, -33008.785, 0.17148754, -0.030875051, -676174.75, 61512.453, 0.0, 10.000847, 9.998887 
3.9503196e+2, 2.3472404e+2, -592937.06, -739950.4, -14885.48, -0.009033537, -0.07644377, -591445.06, 48253.547, 0.0, 10.000799, 9.998876 
3.9502645e+2, 2.4472298e+2, -537637.94, -655579.0, -3278.2207, -0.038473375, -0.068065524, -537546.9, 4161.8784, 0.0, 10.000479, 9.998935 
3.950229e+2, 2.547218e+2, -545363.7, -617677.0, 18424.07, 0.09744939, -0.114948, -540940.2, -97219.44, 0.0, 9.999767, 9.998874 
3.9501756e+2, 2.6472092e+2, -444573.94, -508576.63, -9446.349, 0.09603261, -0.08507233, -443208.84, -97480.45, 0.0, 9.999774, 9.998942 
3.9501038e+2, 2.7472025e+2, -253432.55, -368751.38, 12238.889, -0.06613801, -0.07857393, -252147.92, -4414.793, 0.0, 10.00042, 9.99892 
3.95005e+2, 2.8471926e+2, -167669.13, -343387.97, 24324.277, -0.09727522, -0.031453326, -164364.14, -14622.028, 0.000000010243951, 10.000637, 9.998309 
3.9500138e+2, 2.947177e+2, -142672.94, -290977.56, 21819.766, -0.010523759, -0.05552881, -139529.28, -87770.73, 0.0000005130985, 10.000167, 9.998225 
3.9499867e+2, 3.0471554e+2, -61271.977, -88274.88, -6658.381, 0.12036494, -0.14176586, -59719.418, -59719.418, 0.0000059963604, 9.999807, 9.999466 
3.9499387e+2, 3.147171e+2, -143649.6, -48642.66, -82006.28, 0.10649776, 0.023411104, -1374.7733, -1374.7733, 0.000027747768, 9.998845, 10.000199 
4.0509152e+2, 1.2474016e+2, -1434498.1, -1765187.3, 112765.39, 0.19470598, -0.09776475, -1399705.5, 317828.3, 0.0001282802, 10.00263, 9.99837 
4.0508232e+2, 1.3473949e+2, -1454278.3, -1709067.9, -69048.7, -0.087456, -0.051315237, -1436769.0, 182773.81, 0.00006493345, 10.001819, 9.998478 
4.0507808e+2, 1.4473818e+2, -1385135.6, -1520708.1, 8268.043, 0.06264108, -0.071528286, -1384633.3, 136922.86, 0.00002457309, 10.001142, 9.999411 
4.0507334e+2, 1.547376e+2, -1375085.0, -1476672.3, -13127.5205, 0.10266556, -0.10840644, -1373416.1, 50143.9, 0.000005781208, 10.000588, 9.999312 
4.050687e+2, 1.6473682e+2, -1273490.8, -1408939.0, 7459.9863, 0.15249293, -0.097070664, -1273081.1, 52486.313, 0.0000003430959, 10.000768, 9.999011 
4.050627e+2, 1.7473587e+2, -1024533.0, -1242200.6, -14435.045, 0.062408157, -0.1253943, -1023579.9, 203997.97, 0.0, 10.001814, 9.9989805 
4.0505734e+2, 1.8473479e+2, -952202.3, -1240367.1, 14468.186, 0.015192443, -0.08953286, -951477.75, 178112.5, 0.0, 10.002015, 9.998219 
4.0505314e+2, 1.9473317e+2, -973825.2, -1208208.6, 6771.479, 0.063966356, -0.10143772, -973629.7, 57978.77, 0.0, 10.001221, 9.998157 
4.050491e+2, 2.0473206e+2, -913651.44, -1034957.2, 23941.523, 0.13648468, -0.06197683, -909097.2, 24523.188, 0.0, 10.000563, 9.998982 
4.05045e+2, 2.1473129e+2, -891057.6, -978050.75, 25477.992, 0.21505278, -0.072507896, -884145.06, -48517.59, 0.0, 10.000054, 9.998951 
4.0503967e+2, 2.2473039e+2, -801772.56, -885201.94, 30684.428, 0.18165724, -0.051587828, -791702.6, -54066.86, 0.0, 10.00001, 9.998936 
4.0503284e+2, 2.3472904e+2, -639639.8, -764891.3, 13445.724, 0.024387011, -0.11095647, -638212.7, 1435.3337, 0.0, 10.000475, 9.998869 
4.050272e+2, 2.4472803e+2, -535497.1, -668000.0, 9954.934, -0.0038204414, -0.08984321, -534753.4, 6904.4307, 0.0, 10.000549, 9.998816 
4.0502295e+2, 2.5472727e+2, -484267.6, -592113.0, -20075.69, 0.113766424, -0.08423902, -480651.7, -36985.484, 0.0, 10.000231, 9.9988165 
4.0501755e+2, 2.6472643e+2, -382761.4, -471453.6, -5628.7324, 0.106186375, -0.05179984, -382405.63, -36732.695, 0.0, 10.000156, 9.999006 
4.0501088e+2, 2.747253e+2, -267450.34, -371155.2, -21304.21, -0.041149452, -0.104277626, -263244.38, -15563.563, 0.0, 10.000288, 9.998965 
4.0500554e+2, 2.8472397e+2, -258254.47, -421349.78, 12119.002, -0.06628171, -0.08022788, -257358.86, -107665.914, 0.0000000008315615, 10.000146, 9.9980135 
4.0500203e+2, 2.947222e+2, -221629.3, -353345.28, 28658.465, 0.0693658, -0.09815818, -215664.02, -163951.4, 0.0000007104038, 9.999717, 9.998011 
4.0499932e+2, 3.0472013e+2, -98309.41, -92470.12, 33462.16, 0.23377812, -0.17545807, -61800.47, -61800.47, 0.000009515816, 9.99949, 9.999595 
4.049925e+2, 3.1472173e+2, -63752.375, 1131.0868, -89075.56, 0.08026739, -0.009734314, 63488.73, 63488.73, 0.000039448827, 9.9993, 10.000337 
4.1509387e+2, 1.2474347e+2, -1393776.6, -1696281.6, 97469.59, 0.0828549, -0.18455023, -1365091.3, 352408.22, 0.00012596608, 10.002679, 9.998818 
4.1508427e+2, 1.3474248e+2, -1401440.9, -1624005.6, -89544.32, -0.11627428, -0.23264804, -1369887.9, 249621.5, 0.00006410072, 10.001893, 9.999032 
4.1507852e+2, 1.4474167e+2, -1389836.9, -1518827.6, -27062.889, -0.051997997, -0.23460752, -1384389.0, 137128.23, 0.00002430965, 10.001109, 9.999434 
4.1507438e+2, 1.5474188e+2, -1382245.4, -1475236.8, -16479.186, 0.11181517, -0.1903681, -1379411.4, 44103.26, 0.0000053776803, 10.000536, 9.999342 
4.150699e+2, 1.6474167e+2, -1297893.8, -1439914.5, 31113.232, 0.1660226, -0.11350084, -1291376.6, 34141.43, 0.0000002359893, 10.000682, 9.998839 
4.1506377e+2, 1.7474118e+2, -1046006.1, -1269631.6, 40834.195, -0.048650388, -0.082565926, -1038783.06, 188742.98, 0.0, 10.001742, 9.998824 
4.150585e+2, 1.8474042e+2, -956654.06, -1225443.9, -28434.256, -0.104430206, -0.013996132, -953679.0, 175857.66, 0.0, 10.001914, 9.998366 
4.1505465e+2, 1.9473898e+2, -980513.7, -1192552.0, -9997.607, 0.062015798, -0.024884064, -980043.4, 51510.38, 0.0, 10.001103, 9.998313 
4.150499e+2, 2.0473778e+2, -905343.7, -990864.06, -8994.837, 0.13267082, -0.020869693, -904407.9, 29157.844, 0.0, 10.000434, 9.999356 
4.1504398e+2, 2.1473658e+2, -888786.06, -928334.7, 18679.227, 0.07749722, -0.11247316, -881358.6, -45784.47, 0.0, 9.99986, 9.999386 
4.150388e+2, 2.2473565e+2, -835265.7, -913815.94, 33745.094, 0.068629816, -0.112326026, -822759.9, -85178.125, 0.0, 9.999834, 9.998824 
4.1503435e+2, 2.3473467e+2, -669965.9, -792060.25, 45598.51, 0.101487055, -0.123134725, -654816.06, -15224.765, 0.0, 10.000323, 9.998755 
4.1502878e+2, 2.4473399e+2, -577614.06, -732381.0, -13060.706, 0.06452088, -0.044321038, -576519.6, -34920.953, 0.0, 10.000447, 9.998421 
4.1502193e+2, 2.547334e+2, -529911.25, -659365.8, -16316.059, -0.04570075, 0.020400384, -527886.44, -84280.445, 0.0, 10.000107, 9.998413 
4.1501653e+2, 2.6473203e+2, -400339.6, -483708.0, -12617.73, -0.040618554, 0.018050322, -398471.78, -52853.855, 0.0, 10.000065, 9.9989605 
4.1501263e+2, 2.747295e+2, -289640.47, -384925.84, -1596.0272, 0.06983961, -0.16660152, -289613.75, -41976.332, 0.0, 10.000166, 9.998921 
4.150075e+2, 2.8472784e+2, -231523.94, -369981.1, -19400.93, 0.07762627, -0.19088957, -228856.81, -79205.35, 0.00000000001177225, 10.000145, 9.998376 
4.1500136e+2, 2.94727e+2, -208692.84, -304983.28, 27016.836, -0.009038262, -0.15666278, -201630.53, -149969.34, 0.0000013022876, 9.999613, 9.9984 
4.1499802e+2, 3.0472523e+2, -127540.94, -140838.61, 17179.28, 0.12320727, -0.20845176, -115768.734, -115768.734, 0.000014575742, 9.999452, 9.999271 
4.1499153e+2, 3.1472653e+2, -87237.766, -4854.124, 11937.228, -0.020316055, -0.042036317, -3159.3096, -3159.3096, 0.000055427667, 9.999144, 10.000357 
4.2509636e+2, 1.2474866e+2, -1480801.4, -1736284.0, 191012.28, 0.1104545, -0.16107468, -1378752.5, 338696.53, 0.00012015749, 10.002063, 9.998841 
4.2508703e+2, 1.3474746e+2, -1455309.5, -1649474.6, -112002.73, 0.0054507926, -0.23486859, -1404170.5, 215291.27, 0.00006079175, 10.001518, 9.99903 
4.2507952e+2, 1.4474678e+2, -1334429.5, -1485829.6, -17003.826, -0.0707324, -0.2254949, -1332543.3, 188924.86, 0.00002257458, 10.001466, 9.999486 
4.250753e+2, 1.5474693e+2, -1218443.8, -1386952.8, -46231.5, 0.10725828, -0.19612305, -1206593.3, 216871.8, 0.0000044461326, 10.00163, 9.999416 
4.2507088e+2, 1.6474664e+2, -1195097.4, -1395353.6, 55318.656, 0.16665779, -0.12547821, -1180832.4, 144636.13, 0.00000009724189, 10.001424, 9.998783 
4.2506507e+2, 1.747459e+2, -1185925.3, -1341768.5, 46285.016, -0.037737705, -0.11293507, -1173215.4, 54263.953, 0.0, 10.000812, 9.998777 
4.250599e+2, 1.8474531e+2, -1129044.1, -1264568.1, -3908.4666, -0.076194525, -0.043706153, -1128931.5, 556.47473, 0.0, 10.000526, 9.998775 
4.250559e+2, 1.9474456e+2, -1029032.25, -1171669.6, 6888.7407, 0.11241834, -0.030669129, -1028700.3, 2797.7966, 0.0, 10.00056, 9.998727 
4.250508e+2, 2.0474362e+2, -868686.6, -992905.8, 35386.992, 0.1696543, -0.0128607005, -859313.06, 74194.45, 0.0, 10.000779, 9.999171 
4.2504424e+2, 2.1474221e+2, -717268.3, -872758.3, -9334.329, 0.061854348, -0.10116917, -716710.0, 118808.87, 0.0, 10.001154, 9.999148 
4.2503908e+2, 2.2474107e+2, -623504.9, -833046.3, 18166.818, 0.04523767, -0.09943389, -621941.5, 115587.48, 0.0, 10.0013895, 9.998623 
4.2503533e+2, 2.3474005e+2, -521248.6, -738909.7, -7954.574, 0.12021984, -0.09613677, -520958.28, 118580.93, 0.0, 10.001438, 9.998576 
4.2502984e+2, 2.4473915e+2, -471399.72, -671733.25, -54339.0, 0.103062056, -0.033675186, -457609.88, 83938.01, 0.0, 10.001132, 9.998514 
4.250225e+2, 2.547381e+2, -472753.1, -625228.44, -49451.77, -0.004078107, -0.024193892, -458119.1, -14561.175, 0.0, 10.000457, 9.998488 
4.2501715e+2, 2.6473638e+2, -403522.38, -510853.88, 16046.05, 0.016583996, -0.04984916, -401174.84, -55602.313, 0.0, 10.000148, 9.998748 
4.250138e+2, 2.7473372e+2, -298575.4, -412781.3, -12457.618, 0.17750114, -0.22276396, -297232.3, -49637.68, 0.0, 10.000207, 9.998719 
4.2500833e+2, 2.847324e+2, -200745.06, -306311.1, -20396.396, 0.15301552, -0.22555488, -196941.34, -47335.477, 0.0000000012455732, 10.000182, 9.998776 
4.250009e+2, 2.9473224e+2, -115346.9, -215229.84, -8217.258, -0.027586892, -0.15953298, -114675.39, -63067.496, 0.0000019825331, 10.000071, 9.998793 
4.2499676e+2, 3.0473047e+2, -122862.59, -133210.83, 16704.582, 0.06586747, -0.2347734, -110549.16, -110549.16, 0.000019679212, 9.999463, 9.999321 
4.249909e+2, 3.147317e+2, -209108.53, -73819.32, 37584.973, 0.06026706, -0.08116197, -64079.027, -64079.027, 0.00007104561, 9.998334, 10.000281 
4.3509835e+2, 1.2475569e+2, -1515319.1, -1785897.1, 121656.58, 0.027036298, -0.03701044, -1468664.6, 248718.6, 0.00011272219, 10.001999, 9.998524 
4.350904e+2, 1.3475443e+2, -1490884.0, -1721690.5, -113814.21, 0.14741734, -0.06519802, -1444202.1, 175198.0, 0.00005585788, 10.001529, 9.9985285 
4.350806e+2, 1.4475338e+2, -1338309.3, -1488884.6, -22107.86, -0.15396151, -0.063376665, -1335130.4, 186279.73, 0.000019900395, 10.001434, 9.999484 
4.3507552e+2, 1.547527e+2, -1210880.9, -1378731.3, -24437.43, -0.07099521, -0.1227836, -1207395.4, 216016.11, 0.0000034951138, 10.001649, 9.999467 
4.3507108e+2, 1.6475165e+2, -1200401.5, -1386507.3, 17683.469, 0.008677307, -0.13803579, -1198736.1, 126683.805, 0.000000032016867, 10.001347, 9.998877 
4.3506613e+2, 1.7475004e+2, -1190323.9, -1332893.1, 37689.145, -0.046851616, -0.21918787, -1180973.8, 46463.69, 0.0, 10.00074, 9.99887 
4.3506113e+2, 1.8474954e+2, -1100439.6, -1177994.3, -17020.484, -0.03831632, -0.17917424, -1096868.8, 32575.205, 0.0, 10.00041, 9.999427 
4.3505645e+2, 1.9474998e+2, -999190.6, -1079552.0, 23078.736, 0.08085563, -0.1112838, -993034.4, 38406.145, 0.0, 10.000435, 9.999419 
4.350513e+2, 2.0474964e+2, -947076.6, -1119791.6, 34185.887, 0.1145148, -0.030904436, -940556.25, -7110.94, 0.0, 10.000624, 9.998374 
4.3504536e+2, 2.1474816e+2, -800421.3, -1008730.94, 18261.494, 0.028558228, -0.048509315, -798832.5, 36629.66, 0.0, 10.000997, 9.998289 
4.3504003e+2, 2.2474676e+2, -670216.3, -893114.6, 7256.9233, -0.02486284, -0.010101043, -669980.3, 67496.43, 0.0, 10.001229, 9.998288 
4.3503538e+2, 2.3474519e+2, -567107.3, -795069.7, 8804.469, -0.050093066, -0.029394047, -566767.75, 72723.84, 0.0, 10.001268, 9.998273 
4.3503013e+2, 2.4474351e+2, -456270.9, -609575.75, -92543.055, -0.00985899, -0.05418504, -412757.56, 128747.84, 0.0, 10.001006, 9.998995 
4.350243e+2, 2.5474143e+2, -457271.06, -560425.3, -60182.344, 0.09576147, -0.20207296, -429588.38, 13932.448, 0.0, 10.000324, 9.99899 
4.350189e+2, 2.647397e+2, -435050.34, -565775.44, 5999.108, 0.14704916, -0.23907913, -434775.63, -89240.41, 0.0, 10.000096, 9.998399 
4.3501383e+2, 2.7473807e+2, -335917.7, -469868.66, 7050.397, 0.124436796, -0.27337804, -335547.63, -87996.29, 0.0, 10.000111, 9.998376 
4.3500748e+2, 2.8473762e+2, -185018.39, -257478.06, -35565.297, 0.015617892, -0.18898101, -170479.22, -20923.283, 0.000000012355592, 10.000125, 9.999134 
4.3500033e+2, 2.9473808e+2, -108844.2, -176507.95, 2862.0586, -0.13762234, -0.09527177, -108723.36, -57172.11, 0.0000027662056, 9.999972, 9.999102 
4.349951e+2, 3.0473596e+2, -99252.016, -84252.56, -37102.66, -0.07440011, -0.24154875, -53899.24, -53899.24, 0.000024180765, 9.9994545, 9.999664 
4.3498963e+2, 3.1473702e+2, -249879.77, -129361.05, 82320.17, 0.024120294, -0.137451, -87601.77, -87601.77, 0.00008333817, 9.998214, 9.999957 
4.4509923e+2, 1.2476104e+2, -1784769.4, -1848462.9, 94705.58, 0.040285055, -0.022577727, -1716699.4, 634.2671, 0.00010688196, 9.999909, 9.999086 
4.4509348e+2, 1.3476087e+2, -1480152.6, -1659601.3, -84650.51, 0.3262373, 0.00900391, -1446523.1, 172815.89, 0.000051033883, 10.001384, 9.999027 
4.4508252e+2, 1.4475998e+2, -1257844.5, -1487518.8, 54125.21, -0.12708469, 0.020260535, -1245728.4, 275619.0, 0.000017295639, 10.002141, 9.999151 
4.4507745e+2, 1.5475832e+2, -1205549.9, -1414420.4, -17423.895, -0.041654397, -0.10611636, -1204106.3, 219252.94, 0.0000027656245, 10.001844, 9.999126 
4.4507277e+2, 1.6475695e+2, -1158410.1, -1356503.3, 32533.9, 0.044613384, -0.13998452, -1153203.8, 172166.52, 0.000000035556127, 10.001561, 9.998997 
4.4506735e+2, 1.7475581e+2, -1098097.8, -1275551.1, 29042.361, -0.01608405, -0.1908829, -1093465.5, 133916.42, 0.0, 10.001298, 9.999004 
4.450618e+2, 1.8475537e+2, -1001017.6, -1122296.0, -3799.731, -0.03333756, -0.15176682, -1000898.7, 128487.89, 0.0, 10.001082, 9.999472 
4.4505668e+2, 1.947554e+2, -940050.3, -1047547.7, -42682.57, 0.04712333, -0.12975922, -925164.25, 106222.61, 0.0, 10.000838, 9.999436 
4.4505185e+2, 2.0475495e+2, -912104.0, -1118801.0, 13269.645, 0.098663025, -0.052947324, -911255.56, 22137.463, 0.0, 10.0009575, 9.998209 
4.4504723e+2, 2.1475369e+2, -744375.1, -997959.1, 18076.857, 0.103111595, -0.026579397, -743092.94, 92315.3, 0.0, 10.001464, 9.998129 
4.4504195e+2, 2.2475226e+2, -678350.5, -867599.8, 38888.227, 0.06191301, 0.0027142793, -670671.06, 66751.66, 0.0, 10.001048, 9.998547 
4.45036e+2, 2.3475032e+2, -794113.44, -878124.3, 54271.574, -0.024263129, -0.07992186, -767490.44, -128050.97, 0.0, 9.999593, 9.998508 
4.4503054e+2, 2.4474853e+2, -652269.9, -712481.94, 26691.047, 0.006170062, -0.12462371, -642141.75, -100687.86, 0.0, 9.999693, 9.998922 
4.4502583e+2, 2.547467e+2, -297183.03, -490497.53, -10985.1875, 0.16872023, -0.23911953, -296560.8, 146907.23, 0.0, 10.001456, 9.998924 
4.450202e+2, 2.647453e+2, -213854.8, -464129.7, 23275.334, 0.19903079, -0.23900779, -211708.63, 133772.1, 0.0, 10.001646, 9.998341 
4.4501334e+2, 2.747441e+2, -330791.47, -476320.6, 14968.472, 0.070973545, -0.22397877, -329267.84, -81773.23, 0.0, 10.000188, 9.998291 
4.450068e+2, 2.847436e+2, -287873.0, -314303.5, 16388.977, -0.02134628, -0.12985396, -280034.97, -130534.68, 0.00000003062236, 9.999434, 9.999085 
4.450012e+2, 2.9474372e+2, -214392.97, -223476.27, -12502.313, 0.002593558, -0.07178648, -205632.95, -154133.17, 0.0000032986038, 9.999244, 9.9991255 
4.449949e+2, 3.0474225e+2, -129735.13, -64436.656, -43331.555, -0.009819663, -0.16868597, -42830.973, -42830.973, 0.000027227657, 9.999095, 9.999962 
4.449886e+2, 3.147432e+2, -124373.42, -75412.7, 46630.832, 0.07406962, -0.11035763, -47226.92, -47226.92, 0.000091368296, 9.999118, 9.999876 
4.5509803e+2, 1.247647e+2, -1693190.5, -1664081.9, 30057.543, -0.15270184, -0.13108502, -1645240.4, 72059.85, 0.000102696926, 9.999925, 10.000346 
4.550957e+2, 1.3476673e+2, -1375655.5, -1459011.8, -11716.162, 0.37181652, -0.014948715, -1374040.0, 245238.9, 0.000047349753, 10.001436, 10.000384 
4.5508483e+2, 1.4476642e+2, -1309694.9, -1582520.3, 35821.31, -0.1537679, 0.014445425, -1305070.0, 216211.6, 0.000015080613, 10.002095, 9.998519 
4.550807e+2, 1.5476368e+2, -1259252.4, -1517852.8, -12186.086, 0.056306116, -0.1468529, -1258679.4, 164629.73, 0.0000021144335, 10.001819, 9.998426 
4.5507556e+2, 1.6476257e+2, -1150258.4, -1327742.4, 4804.536, 0.13306102, -0.1313624, -1150128.4, 175191.4, 0.00000004449902, 10.001503, 9.999222 
4.5506835e+2, 1.7476316e+2, -1085000.6, -1244079.5, 34181.613, -0.08067787, -0.03416557, -1077967.0, 149345.98, 0.0, 10.001273, 9.999234 
4.550616e+2, 1.8476276e+2, -1059587.1, -1220159.8, -27755.37, -0.19094822, 0.025985353, -1054924.9, 74391.81, 0.0, 10.000982, 9.998845 
4.5505604e+2, 1.9476083e+2, -1008898.5, -1154321.3, -40019.445, -0.13164741, -0.08209566, -998612.9, 32723.79, 0.0, 10.0006895, 9.998769 
4.5505193e+2, 2.047596e+2, -905743.56, -1068951.8, 16988.438, -0.0149151245, -0.068226, -903994.0, 29355.395, 0.0, 10.000795, 9.9986315 
4.550494e+2, 2.1475893e+2, -740075.44, -939416.56, 51696.223, 0.14516297, -0.032074954, -727466.4, 107889.734, 0.0, 10.001255, 9.998628 
4.5504445e+2, 2.2475766e+2, -646333.06, -764469.7, -26804.646, 0.17760518, -0.051192276, -640535.75, 96830.41, 0.0, 10.000881, 9.999342 
4.5503664e+2, 2.3475543e+2, -755887.56, -767674.8, 14648.748, 0.05529866, -0.24560954, -745991.3, -106608.48, 0.0, 9.999453, 9.999336 
4.5503068e+2, 2.4475423e+2, -713027.3, -805923.06, 77547.695, 0.021377997, -0.24318817, -669081.4, -127688.086, 0.0, 9.999561, 9.998348 
4.5502678e+2, 2.547539e+2, -359530.66, -585143.7, 71470.41, 0.0862175, -0.14578186, -338795.7, 104604.24, 0.0, 10.0013075, 9.998351 
4.5502067e+2, 2.6475307e+2, -220990.52, -454569.34, -39495.887, 0.0532115, -0.060611278, -214492.89, 130917.23, 0.0, 10.001546, 9.998448 
4.55012e+2, 2.7475163e+2, -341718.9, -471726.84, -20781.54, -0.11701446, -0.08450244, -338477.8, -91052.03, 0.0, 10.000073, 9.998371 
4.5500588e+2, 2.847505e+2, -322189.97, -378153.6, -4663.3955, -0.0868237, -0.044880338, -321804.03, -172365.38, 0.000000022691747, 9.999392, 9.9986725 
4.5500314e+2, 2.9474908e+2, -243902.72, -278631.53, -3382.5728, 0.22781453, -0.09304617, -243576.33, -192122.77, 0.0000033720132, 9.999194, 9.998781 
4.5499554e+2, 3.0474922e+2, -115403.83, -21906.943, -50350.832, 0.11242923, -0.02990061, 51.405186, 51.405186, 0.000028360193, 9.999056, 10.000263 
4.5498714e+2, 3.1474987e+2, -131048.76, -66301.04, 85159.06, -0.055226136, -0.030653099, -7569.8325, -7569.8325, 0.00009465621, 9.999021, 9.999982 
4.6509778e+2, 1.24769844e+2, -1667329.1, -1614294.9, 49377.28, -0.15457897, -0.16120756, -1584764.9, 132485.08, 0.00009773488, 9.9999, 10.000699 
4.6509716e+2, 1.3477203e+2, -1402960.1, -1434032.4, 1718.4883, 0.41114527, -0.073057815, -1402865.4, 216359.86, 0.000043477085, 10.0010395, 10.000756 
4.6508673e+2, 1.4477207e+2, -1367845.9, -1637403.8, 20212.63, -0.15214434, -0.016817896, -1366338.8, 154886.53, 0.000012657647, 10.001814, 9.998281 
4.65083e+2, 1.5477003e+2, -1227953.1, -1529008.6, -33657.74, 0.10127467, -0.083720595, -1224236.1, 199013.14, 0.0000014631825, 10.0021515, 9.998192 
4.650777e+2, 1.64769e+2, -1101257.1, -1322933.3, -964.29034, 0.18337479, -0.039984833, -1101252.9, 224007.75, 0.000000030371112, 10.001941, 9.999034 
4.6506986e+2, 1.747689e+2, -1121230.9, -1281515.3, -36078.625, -0.044462305, 0.006222468, -1113484.3, 113775.64, 0.0, 10.0011215, 9.999045 
4.6506286e+2, 1.8476807e+2, -1092809.0, -1253123.0, -50896.35, -0.14742908, 0.04003088, -1078015.5, 51251.793, 0.0, 10.000801, 9.998722 
4.650573e+2, 1.9476612e+2, -977055.75, -1153135.3, -48827.84, -0.07261845, -0.058205575, -964422.0, 66865.06, 0.0, 10.000941, 9.998673 
4.6505314e+2, 2.0476486e+2, -858647.8, -984658.44, 69696.71, 0.030662332, -0.07059852, -827699.4, 105598.875, 0.0, 10.000838, 9.999193 
4.6505025e+2, 2.147641e+2, -815164.3, -917919.5, 79708.695, 0.15294768, -0.099402845, -771709.8, 63593.043, 0.0, 10.000477, 9.999159 
4.6504518e+2, 2.2476317e+2, -683122.56, -776552.56, -10645.898, 0.18713449, -0.11312975, -681924.9, 55384.344, 0.0, 10.000621, 9.999372 
4.650376e+2, 2.3476179e+2, -478925.94, -631724.94, -59406.035, 0.120175876, -0.22176428, -458547.56, 180772.53, 0.0, 10.00136, 9.999343 
4.6503156e+2, 2.4476106e+2, -467780.78, -692607.8, 45518.234, 0.07927474, -0.17307118, -458914.84, 82413.34, 0.0, 10.001255, 9.998304 
4.6502733e+2, 2.5476077e+2, -522972.25, -670632.75, 53746.11, 0.077303596, -0.06660631, -505481.34, -62145.605, 0.0, 10.000207, 9.998289 
4.650212e+2, 2.647601e+2, -442396.56, -545926.7, -40043.355, 0.038567744, 0.026066335, -428716.28, -83370.85, 0.0, 9.999937, 9.9986105 
4.6501276e+2, 2.7475882e+2, -281837.38, -423882.63, -42768.406, -0.05614912, 0.0009014642, -269954.34, -22594.973, 0.0, 10.000391, 9.998558 
4.6500656e+2, 2.8475747e+2, -180402.48, -313439.56, 32340.777, -0.0006249001, 0.018069187, -172957.23, -23584.1, 0.00000001636591, 10.000387, 9.9986315 
4.6500337e+2, 2.9475567e+2, -125684.18, -214301.52, 17682.398, 0.29937363, -0.06984535, -122286.19, -70894.98, 0.0000038591365, 9.999988, 9.99883 
4.649949e+2, 3.047561e+2, -50369.617, -77381.52, -13613.498, 0.11478616, 0.05456843, -44699.07, -44699.07, 0.000029778155, 9.999835, 9.999541 
4.6498787e+2, 3.1475532e+2, -49785.563, -54204.793, -23742.465, 0.098507635, -0.009691431, -28150.113, -28150.113, 0.00009717631, 9.999676, 9.999771 
4.750974e+2, 1.24776326e+2, -1712991.5, -1674711.6, -81548.6, -0.26648727, -0.11109523, -1610086.9, 107097.555, 0.00009217974, 9.999785, 10.000325 
4.7509754e+2, 1.347768e+2, -1432396.4, -1487493.8, 62882.996, 0.30336526, -0.15743178, -1391292.3, 227885.75, 0.00003847725, 10.001035, 10.000377 
4.7508764e+2, 1.4477703e+2, -1357407.1, -1615934.1, 16550.023, -0.28945372, -0.0675917, -1356352.0, 164825.38, 0.000009911169, 10.001796, 9.9984455 
4.7508398e+2, 1.5477732e+2, -1207589.8, -1495021.6, -6531.4805, -0.056485042, 0.0767211, -1207441.4, 215738.55, 0.0000009593812, 10.002173, 9.998422 
4.7507882e+2, 1.6477613e+2, -1153850.0, -1416176.1, -44993.082, 0.06723993, 0.123118415, -1146347.5, 178846.13, 0.000000014696447, 10.001874, 9.99843 
4.7507137e+2, 1.7477298e+2, -1175394.9, -1379748.9, -50056.72, -0.035502646, -0.06694445, -1163792.1, 63431.016, 0.0, 10.001063, 9.998404 
4.7506496e+2, 1.847714e+2, -1074060.1, -1193581.3, -58425.71, -0.047372762, -0.09674106, -1050245.0, 78992.55, 0.0, 10.000707, 9.999178 
4.750601e+2, 1.9477129e+2, -956924.6, -1090620.4, -26860.635, 0.08213977, -0.05922753, -951729.94, 79507.875, 0.0, 10.000846, 9.999152 
4.7505495e+2, 2.0477068e+2, -834533.44, -900060.6, 43978.426, 0.10317239, -0.062127873, -812455.8, 120784.33, 0.0, 10.000695, 9.999839 
4.750494e+2, 2.1476926e+2, -795529.25, -833575.1, 81794.234, -0.011016521, -0.22436939, -730575.0, 104672.88, 0.0, 10.000297, 9.99982 
4.7504386e+2, 2.247688e+2, -756643.1, -901705.75, 2678.0696, -0.039046288, -0.18586777, -756593.7, -19342.035, 0.0, 10.000487, 9.998585 
4.750384e+2, 2.3476925e+2, -558731.4, -761676.6, -16377.04, 0.03351937, -0.030858096, -557418.3, 81834.586, 0.0, 10.001199, 9.998532 
4.750328e+2, 2.4476884e+2, -453412.13, -635944.9, -4050.913, 0.045895655, 0.06952549, -453322.28, 87938.0, 0.0, 10.001133, 9.998755 
4.750271e+2, 2.547672e+2, -509360.22, -618231.7, 30614.26, -0.003154701, -0.0070108967, -501342.13, -58064.965, 0.0, 10.000089, 9.998711 
4.7502127e+2, 2.6476625e+2, -437032.1, -508240.4, -37779.176, 0.023980482, 0.019819302, -420723.6, -75435.9, 0.0, 9.999834, 9.998914 
4.750151e+2, 2.7476555e+2, -274946.22, -381327.72, -9028.795, 0.108618855, 0.026466325, -274185.38, -26890.135, 0.0, 10.000281, 9.998898 
4.7500834e+2, 2.847646e+2, -168728.47, -284160.38, 2779.1926, 0.105875105, 0.048263103, -168661.6, -19357.238, 0.0000000367379, 10.000357, 9.998853 
4.750013e+2, 2.9476318e+2, -126506.1, -198211.27, 19132.9, 0.055667687, -0.023228358, -121720.336, -70404.3, 0.000004901276, 9.99989, 9.998998 
4.7499248e+2, 3.0476266e+2, -180948.78, -322897.97, -32631.277, -0.13420062, 0.08120313, -173806.83, -173806.83, 0.000032907166, 9.999743, 9.9978895 
4.7498983e+2, 3.1475934e+2, -98909.37, -134074.77, -27368.703, 0.25246817, -0.062944725, -83962.125, -83962.125, 0.00010232853, 9.999597, 9.99925 
4.8509884e+2, 1.24782726e+2, -1746999.3, -1755379.3, -120600.484, -0.08043595, -0.051559903, -1630516.0, 86606.27, 0.00008688649, 9.999831, 9.999764 
4.8509815e+2, 1.3478197e+2, -1395273.1, -1545331.8, 58638.254, 0.24689029, -0.14663224, -1375077.3, 244052.31, 0.000032757685, 10.00161, 9.999722 
4.8508948e+2, 1.4478195e+2, -1283148.0, -1531950.3, -7920.7485, -0.28879714, -0.068642184, -1282896.1, 238235.34, 0.000007215262, 10.002109, 9.998863 
4.85086e+2, 1.5478274e+2, -1274966.8, -1482974.5, -54238.902, -0.02817815, 0.08256856, -1261673.4, 161454.1, 0.00000059770906, 10.001516, 9.998819 
4.850807e+2, 1.6478187e+2, -1248092.6, -1425558.5, -33296.465, 0.11550547, 0.122360855, -1242051.1, 83086.05, 0.0000000048834687, 10.001081, 9.998742 
4.8507303e+2, 1.7477882e+2, -1187576.6, -1346862.8, 6059.2173, 0.04289805, -0.08911703, -1187346.5, 39818.645, 0.0, 10.000834, 9.998725 
4.8506665e+2, 1.8477742e+2, -1035794.1, -1153066.8, 80660.086, 0.049537588, -0.12812492, -994709.5, 134467.67, 0.0, 10.000899, 9.999345 
4.8506203e+2, 1.9477755e+2, -884381.94, -1031112.6, 63031.84, 0.17591824, -0.08737342, -861023.56, 170150.64, 0.0, 10.001266, 9.999336 
4.8505643e+2, 2.047771e+2, -745626.6, -863278.2, 100942.86, 0.15697753, -0.08152216, -687619.5, 245555.23, 0.0, 10.001317, 9.999809 
4.8504984e+2, 2.1477574e+2, -716756.5, -794865.4, 65311.676, -0.013085348, -0.2328193, -679713.25, 155468.73, 0.0, 10.00083, 9.999838 
4.850442e+2, 2.2477524e+2, -744735.56, -926313.06, 39065.004, -0.054828275, -0.18683642, -736687.75, 499.22443, 0.0, 10.000697, 9.998319 
4.8503956e+2, 2.3477542e+2, -615017.25, -824101.3, 31574.201, 0.049083278, -0.027818209, -610353.2, 28839.146, 0.0, 10.000945, 9.998234 
4.8503405e+2, 2.4477488e+2, -463254.97, -605283.0, 44963.332, 0.07789564, 0.05868852, -450217.25, 90983.88, 0.0, 10.000916, 9.999071 
4.8502764e+2, 2.5477335e+2, -421764.16, -536268.5, 35013.363, 0.030052023, -0.03671336, -411906.38, 31308.97, 0.0, 10.000535, 9.999056 
4.8502165e+2, 2.6477244e+2, -359385.78, -468847.8, 15488.176, 0.059846707, -0.024114447, -357236.5, -12011.931, 0.0, 10.000356, 9.998931 
4.85016e+2, 2.747716e+2, -257561.94, -373704.6, -8168.2666, 0.17149685, -0.029790329, -256990.28, -9757.011, 0.0, 10.000394, 9.998901 
4.8500916e+2, 2.8477055e+2, -171458.6, -295227.0, -5657.44, 0.15863061, -0.013629093, -171200.53, -21957.146, 0.00000008825205, 10.000371, 9.998771 
4.8500133e+2, 2.9476938e+2, -82360.1, -190092.95, -49337.742, 0.057243485, -0.054650195, -63179.93, -11926.605, 0.0000056092463, 10.000248, 9.9988785 
4.8499185e+2, 3.0476835e+2, -147162.81, -308306.53, -14827.914, -0.17024988, 0.007693308, -145809.75, -145809.75, 0.000035389916, 9.999974, 9.997872 
4.8499003e+2, 3.1476584e+2, -94641.266, -88162.93, 37314.117, 0.33489716, -0.0562658, -53947.652, -53947.652, 0.00010599746, 9.999424, 9.999648 
4.9510068e+2, 1.2478896e+2, -1789410.9, -1863035.4, -209934.22, 0.036915705, 0.022385478, -1613085.9, 103977.84, 0.00007926606, 9.999908, 9.99899 
4.9509844e+2, 1.3478754e+2, -1453356.6, -1672596.8, 137032.17, 0.084476724, -0.05219293, -1387493.4, 231586.3, 0.000026309035, 10.001634, 9.998836 
4.9509186e+2, 1.4478686e+2, -1255486.8, -1456982.0, -44510.3, -0.30658102, -0.023152316, -1246092.4, 274994.7, 0.0000047383246, 10.002035, 9.999413 
4.9508852e+2, 1.5478647e+2, -1241086.6, -1403215.3, -60340.816, 0.036227956, -0.049520425, -1221094.4, 201995.9, 0.0000002991547, 10.001481, 9.999383 
4.9508277e+2, 1.6478637e+2, -1166305.6, -1245213.6, -58525.36, 0.1812409, -0.022253163, -1135177.5, 189911.9, 0.0000000005507737, 10.00103, 10.000008 
4.950744e+2, 1.7478633e+2, -1103741.4, -1162626.3, 8229.963, 0.065263845, -0.061433513, -1102612.8, 124473.875, 0.0, 10.000787, 10.000014 
4.950676e+2, 1.847859e+2, -1057259.1, -1174389.6, 80282.62, 0.023825565, -0.061454825, -1016450.44, 112637.76, 0.0, 10.000802, 9.999244 
4.950626e+2, 1.9478476e+2, -909361.56, -1058995.3, 88592.836, 0.07267338, -0.13662933, -868220.5, 162877.14, 0.0, 10.00116, 9.999196 
4.9505714e+2, 2.0478404e+2, -807561.1, -958827.94, 66652.125, 0.070007354, -0.12196025, -782383.25, 150719.13, 0.0, 10.001166, 9.999229 
4.9505118e+2, 2.1478358e+2, -780072.25, -896241.94, 61596.5, 0.009308263, -0.12395167, -753493.2, 81611.33, 0.0, 10.000687, 9.999217 
4.950457e+2, 2.247824e+2, -757849.8, -913760.44, 36127.695, -0.0036388207, -0.121196546, -749885.2, -12769.406, 0.0, 10.000535, 9.998477 
4.9504063e+2, 2.3478022e+2, -627541.9, -808161.7, 58479.344, 0.029805303, -0.21979654, -610261.3, 28877.914, 0.0, 10.000768, 9.998426 
4.950349e+2, 2.447792e+2, -472805.56, -591335.06, 17875.879, 0.040837865, -0.19923952, -470168.3, 70982.016, 0.0, 10.000778, 9.999231 
4.950285e+2, 2.5477907e+2, -427160.8, -521485.63, 37160.4, 0.0299451, -0.17055027, -414280.0, 28871.588, 0.0, 10.000422, 9.999212 
4.9502185e+2, 2.647784e+2, -395008.44, -516514.9, 1275.3481, 0.015331395, -0.12230652, -394995.06, -49836.73, 0.0, 10.000254, 9.998648 
4.9501485e+2, 2.7477694e+2, -302294.5, -428867.63, 9808.108, -0.013302935, -0.16915876, -301539.0, -54365.113, 0.0, 10.000243, 9.998588 
4.9500844e+2, 2.847756e+2, -206478.44, -350787.94, -21829.807, 0.01616479, -0.1470097, -203248.53, -54060.37, 0.00000018947561, 10.0003, 9.99842 
4.9500287e+2, 2.9477423e+2, -119146.164, -250980.25, -34999.11, 0.14521132, -0.16585538, -110430.81, -59227.848, 0.000005650319, 10.000186, 9.9984865 
4.949927e+2, 3.0477315e+2, -31529.03, -68931.4, -42010.203, -0.116643086, -0.17025642, -4245.528, -4245.528, 0.00003451672, 9.9999695, 9.999519 
4.9498734e+2, 3.147747e+2, -12551.281, 102464.164, 41630.01, 0.048305143, -0.009978721, 115950.78, 115950.78, 0.00010176044, 9.999335, 10.000997 
5.051026e+2, 1.24794826e+2, -1490650.8, -1719992.8, -185180.0, 0.1492722, 0.038556274, -1387512.0, 329496.03, 0.000066640154, 10.001991, 9.998949 
5.050994e+2, 1.3479343e+2, -1475245.5, -1706193.6, 201219.38, 0.033823967, -0.014071975, -1358720.6, 260302.81, 0.0000195532, 10.001582, 9.998628 
5.050951e+2, 1.447925e+2, -1399863.8, -1490229.9, 33076.38, -0.10943295, -0.013814387, -1389050.8, 131981.42, 0.0000028130235, 10.000901, 9.999725 
5.0509024e+2, 1.547916e+2, -1374881.1, -1426676.6, -37683.277, 0.12086743, -0.12157411, -1355054.4, 67983.55, 0.00000011765629, 10.000404, 9.999733 
5.050837e+2, 1.6479167e+2, -1242473.4, -1279809.4, -30127.033, 0.20883386, -0.09553303, -1225699.4, 99335.625, 0.000000000026416515, 10.000484, 10.000036 
5.050758e+2, 1.7479251e+2, -1051589.0, -1136354.3, -84276.734, 0.11845355, -0.049994808, -999637.94, 227387.67, 0.0, 10.0011215, 10.000039 
5.0506896e+2, 1.8479232e+2, -984401.6, -1135364.6, -33269.734, 0.062488314, -0.030029614, -977394.75, 151630.63, 0.0, 10.001272, 9.999297 
5.0506335e+2, 1.9479078e+2, -950441.4, -1072798.8, -35685.168, 0.055969372, -0.14555734, -940794.44, 90243.4, 0.0, 10.000846, 9.999261 
5.0505793e+2, 2.0479001e+2, -888371.2, -1023455.25, -18995.543, 0.064983845, -0.12896475, -885750.9, 47293.156, 0.0, 10.00075, 9.998966 
5.050528e+2, 2.147898e+2, -769150.9, -920332.06, -36276.902, 0.09780371, -0.07879062, -760896.7, 74149.36, 0.0, 10.000915, 9.998924 
5.0504726e+2, 2.2478853e+2, -677320.9, -822336.75, -6021.233, 0.097141415, -0.09333824, -677071.3, 59986.285, 0.0, 10.0008545, 9.998959 
5.050415e+2, 2.3478591e+2, -644973.94, -754170.9, 8154.615, 0.06705906, -0.28414002, -644368.4, -5287.2476, 0.0, 10.0004015, 9.998965 
5.0503546e+2, 2.4478494e+2, -572026.7, -648096.7, -1881.7797, 0.061827138, -0.28270602, -571980.1, -30889.771, 0.0, 10.000126, 9.999158 
5.050294e+2, 2.5478536e+2, -482613.97, -555540.06, -27551.818, 0.0994386, -0.19111674, -473375.2, -30287.488, 0.0, 10.000072, 9.999146 
5.050225e+2, 2.6478484e+2, -404344.34, -513749.3, -15329.337, 0.07518874, -0.13146396, -402237.03, -57143.527, 0.0, 10.000141, 9.998735 
5.050149e+2, 2.7478307e+2, -295904.25, -416958.97, -13119.313, -0.017377406, -0.21657696, -294498.78, -47387.805, 0.00000000061010413, 10.000233, 9.998683 
5.0500864e+2, 2.847818e+2, -228302.98, -342968.4, 9623.209, 0.029100565, -0.20357433, -227500.97, -78376.68, 0.00000027597625, 10.000073, 9.998588 
5.0500375e+2, 2.947808e+2, -188756.38, -269935.4, 758.93805, 0.2531593, -0.20037235, -188749.28, -137613.83, 0.0000049916057, 9.999646, 9.998626 
5.049934e+2, 3.0477965e+2, -32306.693, -69910.72, 2516.5403, -0.03357609, -0.21244425, -32139.027, -32139.027, 0.000030276777, 9.999973, 9.999511 
5.0498724e+2, 3.147815e+2, 152009.23, 127973.49, -125861.45, 0.047734573, -0.025275592, 266425.28, 266425.28, 0.000090633286, 10.000697, 10.000519 
5.151035e+2, 1.2480046e+2, -1444956.9, -1636960.9, -248594.25, -0.042420544, 0.011496968, -1274471.6, 442482.2, 0.000052165007, 10.002026, 9.999507 
5.1510054e+2, 1.3479967e+2, -1440754.8, -1645296.1, 198076.86, -0.048912466, -0.029177547, -1320104.5, 298855.8, 0.000013925394, 10.00162, 9.999028 
5.15099e+2, 1.4479883e+2, -1397662.6, -1483157.3, -6666.3677, 0.13774821, -0.04043908, -1397145.9, 123820.734, 0.000001645238, 10.000885, 9.999787 
5.1509064e+2, 1.5479803e+2, -1374463.1, -1419872.1, -39852.598, 0.09204152, -0.14382385, -1351301.3, 71670.484, 0.00000003629146, 10.000378, 9.999796 
5.1508313e+2, 1.6479771e+2, -1336923.4, -1456650.1, -19029.205, 0.06928119, -0.10408206, -1333971.6, -8996.527, 0.0, 10.000406, 9.998856 
5.150767e+2, 1.7479749e+2, -1147660.8, -1319542.9, -44281.473, 0.05926583, -0.047141936, -1136923.4, 90057.445, 0.0, 10.001061, 9.998805 
5.150702e+2, 1.8479693e+2, -980095.0, -1105865.6, -61678.875, 0.026049754, -0.014289629, -954896.0, 174090.16, 0.0, 10.00118, 9.99954 
5.1506376e+2, 1.9479573e+2, -940879.06, -1038227.2, -35292.67, -0.019348405, -0.12525627, -929430.44, 101563.35, 0.0, 10.000772, 9.999535 
5.150584e+2, 2.0479491e+2, -921612.0, -1054100.4, -26827.668, 0.010813353, -0.1210866, -916385.8, 16614.484, 0.0, 10.000585, 9.998836 
5.150542e+2, 2.1479422e+2, -799147.0, -946362.3, -15977.723, 0.12098348, -0.1081276, -797432.9, 37575.07, 0.0, 10.000754, 9.998823 
5.150487e+2, 2.2479345e+2, -638513.7, -713471.1, -38541.95, 0.1293992, -0.10918537, -622232.44, 114781.25, 0.0, 10.000723, 9.999777 
5.150417e+2, 2.3479234e+2, -606851.8, -644777.8, 6156.4736, 0.01392524, -0.23266584, -605877.5, 33141.953, 0.0, 10.000263, 9.999789 
5.150353e+2, 2.44792e+2, -602586.8, -686822.4, -17998.19, -0.0029764601, -0.19930884, -598902.44, -57880.133, 0.0, 10.000022, 9.9989395 
5.1502967e+2, 2.5479218e+2, -519501.0, -601108.0, -13215.382, 0.08559074, -0.10868729, -517414.28, -74389.766, 0.0, 9.999931, 9.998903 
5.150232e+2, 2.647917e+2, -388234.3, -455468.5, -25576.83, 0.09874915, -0.05656873, -379610.66, -34580.09, 0.0, 10.000042, 9.999184 
5.1501596e+2, 2.7478996e+2, -277186.8, -357311.66, 11584.092, 0.026092883, -0.17900485, -275545.66, -28500.313, 0.0000000018853024, 10.000137, 9.999145 
5.1500934e+2, 2.8478903e+2, -189138.27, -251071.11, -20729.371, 0.05822305, -0.18188487, -182840.4, -33788.168, 0.00000034894228, 10.000033, 9.999234 
5.150034e+2, 2.9478893e+2, -159655.08, -189363.14, 6700.274, 0.20446607, -0.15996309, -158213.83, -107162.14, 0.000004315403, 9.999555, 9.999222 
5.149933e+2, 3.047878e+2, -155479.52, -309101.6, 24100.732, -0.074976444, -0.12416717, -151787.25, -151787.25, 0.000026122347, 9.999923, 9.997889 
5.1498884e+2, 3.147859e+2, -30846.3, -216690.89, -76984.29, 0.06577661, -0.13184221, -3099.0737, -3099.0737, 0.000081293096, 10.000568, 9.998209 
5.251068e+2, 1.2480672e+2, -1426267.0, -1618070.3, -125817.555, 0.09794219, -0.043188296, -1363968.9, 352922.0, 0.000041919076, 10.002109, 9.99959 
5.2510107e+2, 1.3480632e+2, -1534260.9, -1686034.5, 171926.64, -0.11268475, -0.04647807, -1422218.0, 196675.25, 0.000010470756, 10.000965, 9.999058 
5.251012e+2, 1.4480554e+2, -1474815.8, -1535968.8, 21603.451, 0.29843038, -0.047999036, -1467953.9, 52945.77, 0.0000009776196, 10.000422, 9.999648 
5.250914e+2, 1.5480508e+2, -1284317.8, -1390930.3, -57139.66, 0.1116355, -0.10594421, -1259480.0, 163422.95, 0.000000005050013, 10.001053, 9.999666 
5.2508354e+2, 1.6480455e+2, -1213059.8, -1415279.5, 32313.89, 0.035703, -0.07153491, -1208021.6, 116887.164, 0.0, 10.001333, 9.9987 
5.2507794e+2, 1.7480356e+2, -1131890.0, -1330889.4, 52326.59, 0.07994691, -0.072634965, -1118969.8, 107951.52, 0.0, 10.001235, 9.998653 
5.250718e+2, 1.8480287e+2, -990317.06, -1115809.6, 69778.05, 0.0822245, -0.041190997, -959222.7, 169705.34, 0.0, 10.00114, 9.999496 
5.250652e+2, 1.9480225e+2, -926356.8, -1032943.44, 39034.4, 0.046823066, -0.08476807, -913590.6, 117340.39, 0.0, 10.000908, 9.999504 
5.250597e+2, 2.0480143e+2, -865770.0, -1018720.8, 93048.375, 0.067248315, -0.08213526, -821802.5, 111135.41, 0.0, 10.0009165, 9.998923 
5.2505535e+2, 2.1480007e+2, -739089.7, -911126.8, 95326.055, 0.14825124, -0.14355013, -696709.44, 138242.48, 0.0, 10.001123, 9.998894 
5.2504957e+2, 2.2479959e+2, -633925.75, -690748.3, 46613.984, 0.15349764, -0.12746543, -607747.06, 129208.18, 0.0, 10.000693, 9.9999275 
5.250422e+2, 2.347997e+2, -690396.6, -671458.75, 7664.9844, 0.076365024, -0.14385425, -668745.25, -29794.951, 0.0, 9.999637, 9.999904 
5.2503556e+2, 2.4479952e+2, -686829.2, -713043.94, 32159.498, 0.06575985, -0.1044586, -665208.5, -124257.49, 0.0, 9.999378, 9.999077 
5.2502996e+2, 2.5479895e+2, -507874.34, -579102.5, 37378.61, 0.1332992, -0.10605335, -491859.72, -48900.418, 0.0, 9.999947, 9.999048 
5.250235e+2, 2.6479825e+2, -369741.53, -440666.25, 45741.53, 0.1257508, -0.08097399, -347325.84, -2359.63, 0.0, 10.000146, 9.999226 
5.2501625e+2, 2.747971e+2, -305126.56, -355465.8, 19463.05, 0.060239326, -0.15131535, -298479.2, -51503.953, 0.00000000009174081, 9.999912, 9.999243 
5.250095e+2, 2.8479645e+2, -207870.14, -266103.56, -19974.443, 0.0822096, -0.13672264, -201677.34, -52697.008, 0.00000033351301, 9.999935, 9.999173 
5.25003e+2, 2.9479608e+2, -66685.02, -149143.73, -79052.92, 0.19316392, -0.13468392, -18755.957, 32226.723, 0.0000041082662, 10.0002165, 9.999173 
5.2499354e+2, 3.0479524e+2, -77571.72, -296623.53, 16627.273, -0.054165117, -0.057527117, -76316.805, -76316.805, 0.000024723933, 10.000553, 9.997684 
5.249903e+2, 3.1479225e+2, -77053.96, -256271.73, -72454.07, 0.18966997, -0.14953864, -51426.805, -51426.805, 0.00007789345, 10.000315, 9.998071 
5.3511155e+2, 1.2481347e+2, -1437747.3, -1651723.1, -115205.625, 0.27598748, -0.13503613, -1387513.3, 329307.34, 0.000035694404, 10.00216, 9.999332 
5.351006e+2, 1.3481346e+2, -1565382.6, -1744821.8, 132379.08, -0.28932512, -0.056886744, -1495184.0, 123637.31, 0.000008273398, 10.000941, 9.9986725 
5.351012e+2, 1.448127e+2, -1504207.5, -1585468.5, 26436.307, 0.21524714, -0.02215744, -1496364.1, 24465.945, 0.00000061502607, 10.00037, 9.999328 
5.350922e+2, 1.5481278e+2, -1314499.4, -1447058.9, -18211.9, 0.038484197, 0.0027595814, -1312042.9, 110788.05, 0.00000000036285042, 10.001024, 9.999292 
5.3508466e+2, 1.6481216e+2, -1164318.3, -1301445.6, 11651.588, -0.025498921, 0.007712921, -1163335.3, 161501.03, 0.0, 10.001277, 9.999511 
5.350793e+2, 1.7481059e+2, -1078987.1, -1213176.1, 63265.99, 0.05144083, -0.1322668, -1053863.0, 172985.17, 0.0, 10.001198, 9.999484 
5.350734e+2, 1.8481004e+2, -1029314.5, -1177089.1, 47330.703, 0.09778042, -0.111089185, -1015454.8, 113397.21, 0.0, 10.001055, 9.999115 
5.3506714e+2, 1.9481024e+2, -972111.3, -1107084.9, 45431.836, 0.1190823, -0.034324042, -958243.8, 72606.76, 0.0, 10.00081, 9.999045 
5.350612e+2, 2.0480955e+2, -865617.0, -976037.75, 87324.29, 0.09884968, -0.014914484, -817513.7, 115343.77, 0.0, 10.000742, 9.999294 
5.350557e+2, 2.148076e+2, -738867.56, -868257.06, 115872.65, 0.045095112, -0.17457557, -670852.56, 164023.42, 0.0, 10.000942, 9.999272 
5.350495e+2, 2.2480711e+2, -701170.75, -795597.4, -6326.771, 0.049407274, -0.14532675, -700748.75, 36132.324, 0.0, 10.000536, 9.999287 
5.3504246e+2, 2.3480797e+2, -759577.9, -773636.06, -16961.334, 0.114650704, -0.024627453, -748246.8, -109372.83, 0.0, 9.999457, 9.999287 
5.35036e+2, 2.448075e+2, -672155.3, -653435.06, 39454.17, 0.14238037, -0.0074242307, -622245.94, -81368.49, 0.0, 9.99926, 9.999541 
5.3502995e+2, 2.5480536e+2, -492093.88, -519394.3, 75673.266, 0.10765015, -0.21046498, -428849.56, 14045.024, 0.0, 9.999832, 9.999513 
5.3502303e+2, 2.6480448e+2, -401680.97, -488118.7, 21990.69, 0.033283398, -0.21443047, -396407.97, -51506.395, 0.0, 10.000065, 9.9989395 
5.3501517e+2, 2.748045e+2, -342216.13, -410134.06, 27101.035, -0.073182784, -0.13701276, -332727.66, -85825.89, 0.0, 9.9998045, 9.998928 
5.350085e+2, 2.8480375e+2, -263878.13, -370714.6, -21620.703, -0.045012575, -0.080322385, -259668.58, -110757.74, 0.00000019037492, 9.99989, 9.998474 
5.350025e+2, 2.9480204e+2, -133724.28, -266150.28, -43264.22, 0.0757945, -0.14043614, -120842.69, -69912.375, 0.0000040138116, 10.000119, 9.99842 
5.349939e+2, 3.0480176e+2, -1614.8157, -135650.31, 4558.731, -0.1098679, -0.018334562, -1459.9459, -1459.9459, 0.000024880646, 10.000535, 9.998794 
5.3499055e+2, 3.148003e+2, 59151.117, 20773.209, -64016.58, 0.10291563, -0.0764889, 106792.83, 106792.83, 0.00007745561, 10.000322, 9.999974 
5.4511356e+2, 1.24820314e+2, -1597198.5, -1757056.3, -23243.475, 0.32534388, -0.15127224, -1593887.5, 122864.445, 0.00003031358, 10.001178, 9.999123 
5.451017e+2, 1.3482024e+2, -1501122.5, -1715269.6, 54280.453, -0.27766314, -0.0688099, -1488149.9, 130604.0, 0.000006366235, 10.001397, 9.998662 
5.4510283e+2, 1.4481929e+2, -1427651.1, -1565673.1, 35953.08, 0.32654342, -0.041885983, -1418847.3, 101917.78, 0.00000037085837, 10.000968, 9.999184 
5.450931e+2, 1.5481953e+2, -1388830.8, -1495867.4, -27037.982, 0.06954618, 0.013354765, -1382388.5, 40376.938, 0.00000000007720086, 10.000565, 9.999184 
5.4508543e+2, 1.6481906e+2, -1242886.4, -1304232.8, 33306.094, -0.028382555, 0.023438146, -1228281.1, 96488.12, 0.0, 10.00062, 9.99979 
5.450805e+2, 1.7481765e+2, -1074406.0, -1174870.6, 10212.675, 0.07119861, -0.12671119, -1073378.4, 153399.3, 0.0, 10.001111, 9.999774 
5.4507476e+2, 1.8481702e+2, -1015818.3, -1187999.9, -7553.9287, 0.12917487, -0.12326327, -1015487.56, 113294.32, 0.0, 10.001204, 9.998979 
5.450682e+2, 1.9481693e+2, -967664.3, -1116596.5, -16671.697, 0.15098509, -0.065012254, -965820.9, 64963.168, 0.0, 10.000877, 9.998948 
5.4506195e+2, 2.0481637e+2, -905009.9, -990816.7, 58051.293, 0.12396942, -0.026388692, -875728.44, 57061.754, 0.0, 10.000451, 9.999343 
5.4505616e+2, 2.1481504e+2, -907714.44, -937770.9, 35982.258, 0.06072163, -0.13021883, -883748.2, -48944.46, 0.0, 9.999747, 9.999369 
5.4504985e+2, 2.2481479e+2, -809739.06, -864951.5, -47750.887, 0.07197419, -0.074683726, -782188.7, -45380.88, 0.0, 9.999848, 9.999148 
5.4504305e+2, 2.3481545e+2, -577330.2, -707382.06, -51644.984, 0.16635104, 0.043434788, -559316.5, 79488.25, 0.0, 10.00079, 9.999109 
5.4503644e+2, 2.4481471e+2, -441728.75, -546726.75, 30515.463, 0.19155063, 0.04500273, -433504.3, 107306.91, 0.0, 10.00086, 9.999503 
5.4503006e+2, 2.5481224e+2, -470819.4, -514195.44, -5567.6846, 0.13242346, -0.18882257, -470116.13, -27285.857, 0.0, 10.0, 9.99947 
5.45023e+2, 2.6481134e+2, -457572.63, -496368.8, -26547.379, 0.058040716, -0.19864912, -444091.4, -99254.88, 0.0, 9.999611, 9.999095 
5.450156e+2, 2.7481174e+2, -332661.2, -384819.3, -18089.697, -0.004818408, -0.10610686, -327001.4, -80168.19, 0.0, 9.999786, 9.999108 
5.450088e+2, 2.8481093e+2, -285099.34, -381510.7, 8011.4834, 0.012546765, -0.060082752, -284438.16, -135595.6, 0.00000011177434, 9.999754, 9.998469 
5.450024e+2, 2.9480892e+2, -224729.67, -303494.06, 12042.714, 0.09280816, -0.1500862, -222929.55, -172064.33, 0.0000045059896, 9.999494, 9.998452 
5.449943e+2, 3.0480862e+2, -98064.28, -133410.3, 102206.31, -0.061974198, -0.052913178, -12014.271, -12014.271, 0.000026381855, 9.9996605, 9.999222 
5.4499096e+2, 3.148081e+2, 9118.077, 93304.055, -105655.17, 0.16460994, -0.06870503, 164942.48, 164942.48, 0.00007890932, 9.9995775, 10.000812 
5.551123e+2, 1.2482749e+2, -1591829.8, -1748610.8, 80925.14, 0.0073689464, -0.054600235, -1557552.8, 159129.77, 0.000026661766, 10.001196, 9.9991665 
5.55104e+2, 1.3482665e+2, -1484970.4, -1680234.4, 64573.47, -0.2197341, -0.07413193, -1465548.0, 153142.61, 0.0000052899522, 10.001381, 9.998919 
5.5510575e+2, 1.4482522e+2, -1429100.9, -1548282.0, -632.44824, 0.48392338, -0.115590796, -1429097.5, 91608.0, 0.00000021782215, 10.000895, 9.999332 
5.5509406e+2, 1.5482537e+2, -1384886.5, -1480449.1, -23374.57, 0.06928552, -0.07823677, -1379475.5, 43230.805, 0.00000000000011946363, 10.000538, 9.999305 
5.550856e+2, 1.6482532e+2, -1264607.0, -1347150.8, 36580.59, -0.11213688, -0.017797252, -1250729.0, 73977.66, 0.0, 10.000607, 9.999503 
5.550813e+2, 1.7482468e+2, -1105543.3, -1226559.1, 41791.27, 0.007406421, -0.061126206, -1092514.0, 134195.97, 0.0, 10.001052, 9.999452 
5.550755e+2, 1.8482378e+2, -1017250.4, -1165022.9, -33670.27, 0.055429135, -0.07912633, -1009940.2, 118777.2, 0.0, 10.001092, 9.999193 
5.550681e+2, 1.9482227e+2, -967403.8, -1095996.9, -13454.533, 0.015229989, -0.17926653, -966011.1, 64720.414, 0.0, 10.000783, 9.999144 
5.550615e+2, 2.0482188e+2, -940497.0, -1029370.44, 18375.273, 0.011300298, -0.12506922, -936847.6, -4110.9375, 0.0, 10.000307, 9.999144 
5.5505615e+2, 2.1482235e+2, -948481.94, -983111.75, 24793.219, 0.05581602, -0.02506451, -935556.0, -100820.68, 0.0, 9.999574, 9.999141 
5.550502e+2, 2.2482252e+2, -815151.3, -834397.2, -27051.416, 0.089767955, 0.068086654, -796062.25, -59325.652, 0.0, 9.99967, 9.999445 
5.550434e+2, 2.3482212e+2, -584765.5, -674535.56, -461.49396, 0.099040404, 0.05052128, -584763.1, 53979.723, 0.0, 10.000586, 9.999432 
5.550366e+2, 2.4482127e+2, -501872.63, -641280.9, -12908.617, 0.092306755, 0.051197454, -500687.44, 40064.445, 0.0, 10.000721, 9.998929 
5.550297e+2, 2.5481957e+2, -530001.5, -605789.44, -19981.729, 0.059767086, -0.044200346, -525055.94, -82289.29, 0.0, 9.999859, 9.998914 
5.550231e+2, 2.6481882e+2, -428009.13, -413559.75, -34268.082, 0.06939971, -0.044537503, -385763.03, -40991.242, 0.0, 9.999524, 9.999702 
5.55017e+2, 2.748186e+2, -308883.97, -311832.34, 4548.9004, 0.12604292, -0.068309106, -305576.34, -58805.313, 0.0, 9.999684, 9.9996605 
5.5501014e+2, 2.8481784e+2, -241490.56, -280532.34, -17373.963, 0.1389358, -0.080172636, -234878.72, -86101.7, 0.00000024371042, 9.999703, 9.999191 
5.5500203e+2, 2.948165e+2, -181498.2, -202792.94, 22520.0, 0.06712829, -0.17667401, -167235.39, -116445.37, 0.0000058589785, 9.999432, 9.999183 
5.549943e+2, 3.0481565e+2, -122887.65, -162594.73, 92962.55, -0.06272074, -0.16431053, -47682.27, -47682.27, 0.000029984647, 9.999581, 9.999049 
5.549907e+2, 3.1481534e+2, -32289.193, 39601.76, -91719.48, 0.1117218, -0.14109446, 102167.91, 102167.91, 0.00008416486, 9.999439, 10.000511 
5.651144e+2, 1.24833785e+2, -1343950.9, -1617843.8, 187669.64, 0.03008172, -0.04175288, -1248573.9, 468047.06, 0.000022362967, 10.002846, 9.999251 
5.6510496e+2, 1.3483313e+2, -1699577.0, -1746864.3, -15840.643, -0.16329537, -0.078080036, -1694761.0, -76134.95, 0.000004259607, 9.999757, 9.999223 
5.6510526e+2, 1.4483182e+2, -1665507.0, -1641357.1, 55932.83, 0.44276112, -0.13396218, -1596210.6, -75571.77, 0.00000013010742, 9.99915, 9.999552 
5.6509554e+2, 1.5483178e+2, -1216709.3, -1368680.5, 16259.426, 0.12391213, -0.14010963, -1214989.1, 207651.66, 0.0, 10.00155, 9.999591 
5.650875e+2, 1.6483186e+2, -1070723.8, -1280882.4, 61796.246, -0.04012982, -0.06929194, -1053899.8, 270740.7, 0.0, 10.002037, 9.999278 
5.6508213e+2, 1.7483163e+2, -1188610.3, -1289128.9, 45569.023, 0.023729438, -0.053516198, -1171027.6, 55614.324, 0.0, 10.000562, 9.999258 
5.65076e+2, 1.8483077e+2, -1124198.6, -1218469.5, 28331.275, 0.037890006, -0.055698954, -1116339.4, 12310.393, 0.0, 10.000378, 9.999156 
5.650688e+2, 1.94829e+2, -874586.6, -1048716.9, 5794.8486, -0.01259857, -0.18338095, -874394.0, 156272.5, 0.0, 10.001426, 9.99914 
5.6506217e+2, 2.048285e+2, -764734.6, -934239.8, 23233.846, 0.0013747523, -0.14486079, -761607.6, 171064.73, 0.0, 10.001475, 9.9992285 
5.6505656e+2, 2.1482916e+2, -821836.9, -908617.1, 24017.219, 0.109244786, -0.035559442, -815633.4, 19035.389, 0.0, 10.000397, 9.999249 
5.6505036e+2, 2.2482935e+2, -773378.3, -807493.7, 58765.617, 0.14002575, 0.050143987, -729244.8, 7424.6577, 0.0, 9.999938, 9.999496 
5.6504357e+2, 2.348287e+2, -654235.4, -700513.9, 38844.855, 0.09182178, 0.0015563319, -632160.1, 6517.7886, 0.0, 10.000082, 9.999491 
5.650369e+2, 2.4482824e+2, -589659.56, -644366.8, 37295.367, 0.09267332, 0.025195051, -570762.06, -30078.848, 0.0, 9.999974, 9.999248 
5.650302e+2, 2.5482768e+2, -534263.2, -573703.4, 62381.887, 0.14876541, 0.011150538, -488558.66, -45870.38, 0.0, 9.999696, 9.999202 
5.6502366e+2, 2.648272e+2, -426126.28, -413670.9, 112891.375, 0.18791962, 0.023781369, -306835.6, 37855.953, 0.0, 9.999533, 9.999701 
5.650174e+2, 2.7482647e+2, -340093.1, -322397.56, 78925.25, 0.2201502, -0.05175149, -251825.7, -5130.2446, 0.0, 9.999455, 9.999692 
5.650102e+2, 2.848257e+2, -272818.28, -285749.7, 43433.465, 0.2000268, -0.07246716, -235371.9, -86670.88, 0.00000046127252, 9.99942, 9.9993 
5.6500185e+2, 2.948249e+2, -171927.86, -189913.63, 9973.644, 0.11344745, -0.12768815, -167491.45, -116783.62, 0.000007820285, 9.999444, 9.999272 
5.6499505e+2, 3.0482385e+2, -97539.67, -161970.83, 106897.06, 0.06043661, -0.13362241, -18109.27, -18109.27, 0.00003595913, 9.999792, 9.9989605 
5.6499106e+2, 3.1482297e+2, 52826.23, 70229.42, -136028.08, 0.17790402, -0.16412297, 197833.94, 197833.94, 0.000094486146, 10.00006, 10.000425 
5.751193e+2, 1.24838896e+2, -1337930.9, -1587415.5, 126584.01, 0.16502015, -0.14258806, -1284953.9, 431616.0, 0.000015098279, 10.00278, 9.999482 
5.751041e+2, 1.348395e+2, -1680137.3, -1707170.0, -129369.28, -0.26064688, -0.08302317, -1563580.1, 54981.965, 0.0000026568694, 9.999757, 9.999494 
5.751011e+2, 1.4483897e+2, -1637176.8, -1576989.6, 119451.09, 0.069118544, -0.09772384, -1483899.6, 36666.867, 0.000000050157187, 9.999131, 10.000001 
5.7509714e+2, 1.548387e+2, -1197758.1, -1312845.8, 120960.05, 0.100805916, -0.16820744, -1121351.9, 301217.53, 0.0, 10.001481, 10.0000105 
5.750908e+2, 1.6483864e+2, -1086446.9, -1290718.4, -9707.888, 0.053524084, -0.13322788, -1085986.6, 238584.22, 0.0, 10.001937, 9.999256 
5.7508266e+2, 1.7483847e+2, -1199862.9, -1302400.6, 4120.506, -0.01988777, -0.10672646, -1199697.5, 26875.97, 0.0, 10.000514, 9.999191 
5.7507575e+2, 1.8483807e+2, -1149790.8, -1252840.1, 53696.813, -0.056721874, -0.04858351, -1126896.8, 1681.7123, 0.0, 10.0003, 9.998956 
5.7506996e+2, 1.9483706e+2, -909017.1, -1086451.4, 60186.41, -0.07370143, -0.077241935, -890528.25, 140061.06, 0.0, 10.001285, 9.998948 
5.750637e+2, 2.0483628e+2, -763744.0, -888019.7, -32146.328, -0.026057126, -0.0790747, -755921.2, 176675.7, 0.0, 10.001283, 9.9996395 
5.75057e+2, 2.1483551e+2, -822200.8, -864595.56, -2755.7358, 0.08314957, -0.15282287, -822022.44, 12580.761, 0.0, 10.000204, 9.999645 
5.750501e+2, 2.2483523e+2, -804698.4, -837567.5, 49357.96, 0.09250434, -0.12514095, -769110.75, -32504.342, 0.0, 9.99978, 9.99937 
5.7504296e+2, 2.3483518e+2, -687658.44, -731237.3, 60354.71, -0.0064178365, -0.1008746, -645280.4, -6670.9224, 0.0, 9.999912, 9.999363 
5.7503676e+2, 2.4483566e+2, -526413.5, -493488.16, 11467.736, 0.051000137, -0.030685944, -489887.72, 50717.566, 0.0, 9.999874, 10.00034 
5.750314e+2, 2.5483644e+2, -475086.47, -421747.3, 68705.06, 0.2607581, -0.023221565, -374717.16, 67879.28, 0.0, 9.99956, 10.000317 
5.750246e+2, 2.648364e+2, -471582.06, -496643.94, 95132.7, 0.29122654, 0.0057490994, -388158.56, -43562.42, 0.0, 9.999473, 9.9991665 
5.7501626e+2, 2.748352e+2, -385962.94, -405475.72, 88855.945, 0.12516303, -0.062430765, -306329.34, -59721.445, 0.0, 9.999384, 9.999166 
5.750085e+2, 2.8483447e+2, -309136.28, -345482.22, 28602.125, 0.053362146, -0.03565951, -293422.1, -144806.94, 0.0000006054728, 9.999356, 9.998921 
5.7500124e+2, 2.9483405e+2, -216321.75, -258921.97, 31841.484, 0.067470394, -0.011282119, -199312.92, -148693.66, 0.000009307056, 9.999349, 9.998844 
5.7499635e+2, 3.0483332e+2, -106230.01, -164425.92, 110681.61, 0.17888264, 0.034743436, -20885.361, -20885.361, 0.000040671366, 9.999734, 9.998975 
5.7499117e+2, 3.1483057e+2, 40514.773, 69466.1, -71125.31, 0.10840933, -0.18118383, 127573.875, 127573.875, 0.000103750725, 9.999956, 10.000475 
5.8512074e+2, 1.2484547e+2, -1713698.8, -1748701.9, 174780.6, 0.18316734, -0.10883486, -1555545.6, 160961.16, 0.000008007214, 10.000081, 9.999695 
5.851061e+2, 1.3484572e+2, -1420637.8, -1553206.0, -178356.69, -0.10817913, -0.10680674, -1296646.5, 321854.75, 0.0000012151539, 10.001403, 9.999765 
5.8510023e+2, 1.4484546e+2, -1377528.3, -1437874.4, 135625.81, -0.008792996, -0.11219297, -1268759.6, 251742.89, 0.000000012980553, 10.000892, 10.00008 
5.8509713e+2, 1.5484564e+2, -1567834.6, -1477680.6, 74185.66, 0.08555539, -0.14997497, -1435950.6, -13449.638, 0.0, 9.998906, 10.000094 
5.8509153e+2, 1.6484573e+2, -1497801.6, -1456770.3, -13870.869, 0.08894838, -0.11864212, -1452521.1, -128020.37, 0.0, 9.998968, 9.999551 
5.8508414e+2, 1.7484552e+2, -1072459.3, -1203829.0, -1461.4961, 0.05372644, -0.12630793, -1072443.0, 154060.88, 0.0, 10.001225, 9.999526 
5.850774e+2, 1.8484537e+2, -942307.4, -1125392.6, 77831.52, 0.023070917, -0.07309638, -913692.6, 214813.27, 0.0, 10.001598, 9.999215 
5.85071e+2, 1.9484487e+2, -1094375.0, -1152248.8, 88187.164, -0.011072792, -0.07288591, -1030498.5, 12.197567, 0.0, 9.999892, 9.999184 
5.8506435e+2, 2.0484424e+2, -1019214.0, -1023859.25, 39140.047, 0.0065216357, -0.0669417, -982327.7, -49811.063, 0.0, 9.999576, 9.999526 
5.850574e+2, 2.1484321e+2, -750328.06, -847161.5, 2577.3474, 0.081998274, -0.15551068, -750259.56, 84266.57, 0.0, 10.000756, 9.999504 
5.850504e+2, 2.2484262e+2, -628490.25, -738921.06, 57484.5, 0.095003925, -0.16015483, -603998.6, 132533.27, 0.0, 10.000941, 9.99949 
5.850433e+2, 2.3484212e+2, -656093.4, -707449.94, 54248.855, 0.038140353, -0.18763514, -621752.4, 16784.52, 0.0, 10.000087, 9.999452 
5.8503705e+2, 2.4484262e+2, -542510.1, -508231.06, 17728.91, 0.10579687, -0.11744109, -500711.34, 39821.242, 0.0, 9.999798, 10.000265 
5.8503157e+2, 2.548439e+2, -380610.56, -381184.16, -44164.453, 0.30112818, -0.053145535, -336731.97, 105788.836, 0.0, 10.000239, 10.000254 
5.850247e+2, 2.6484397e+2, -347757.0, -469590.03, -22700.926, 0.3193278, 0.002735109, -343664.63, 856.51624, 0.0, 10.000482, 9.998858 
5.850165e+2, 2.7484247e+2, -235674.13, -364870.5, -40135.176, 0.16129155, -0.06702191, -224221.3, 22315.748, 0.0, 10.00058, 9.9988575 
5.850086e+2, 2.8484157e+2, -125271.88, -259066.97, -52131.996, 0.07244278, -0.039312586, -107357.72, 41188.277, 0.00000055145284, 10.00063, 9.998894 
5.850012e+2, 2.9484105e+2, -57928.77, -185445.16, -56230.406, 0.07716416, -0.019055206, -36675.4, 13874.653, 0.000008783807, 10.000446, 9.998816 
5.849973e+2, 3.0483997e+2, -44888.773, -171302.23, 70400.25, 0.28607866, 0.008658136, -13484.265, -13484.265, 0.000039667964, 10.000308, 9.998645 
5.849919e+2, 3.148371e+2, 47205.977, 60110.105, -164147.56, 0.1982876, -0.19263364, 217932.36, 217932.36, 0.00010388018, 10.000062, 10.000346 
5.9511834e+2, 1.2485343e+2, -1677136.5, -1674896.9, 163913.2, -0.14410108, 0.06414474, -1512099.6, 204332.36, 0.0000033727015, 10.00011, 10.000178 
5.951105e+2, 1.3485178e+2, -1403622.0, -1512983.1, -122757.38, 0.15280257, -0.15383673, -1323917.5, 294526.25, 0.00000044999516, 10.00139, 10.000047 
5.9510213e+2, 1.4485127e+2, -1401111.8, -1478458.9, 42011.59, 0.046734955, -0.18532701, -1382683.5, 137763.47, 0.000000014541682, 10.000856, 9.999815 
5.950949e+2, 1.5485254e+2, -1591632.3, -1524892.0, 13609.907, -0.06690897, -0.08674001, -1522223.4, -99787.375, 0.0, 9.998895, 9.999777 
5.950894e+2, 1.6485322e+2, -1458192.8, -1362437.6, 53340.754, -0.062295225, -0.013708331, -1338638.9, -14209.211, 0.0, 9.998928, 10.000212 
5.9508634e+2, 1.7485285e+2, -1034565.4, -1105961.9, 98028.055, 0.1142687, -0.10548171, -965937.9, 260494.33, 0.0, 10.001152, 10.00023 
5.950805e+2, 1.8485263e+2, -910750.1, -1034372.0, -1995.66, 0.14504729, -0.12618393, -910717.9, 217714.11, 0.0, 10.001488, 9.999894 
5.9507155e+2, 1.9485235e+2, -1068001.0, -1063034.4, 36787.516, 0.019228807, -0.17547949, -1028646.44, 1784.9662, 0.0, 9.99975, 9.999862 
5.950638e+2, 2.0485237e+2, -1081256.4, -1117862.8, 67753.26, -0.040045023, -0.11017994, -1029377.56, -96945.64, 0.0, 9.999424, 9.998956 
5.9505737e+2, 2.148524e+2, -818141.7, -944949.44, 62312.527, -0.02401837, -0.036128324, -792647.3, 41789.332, 0.0, 10.000574, 9.9989195 
5.950509e+2, 2.2485155e+2, -626563.25, -704335.44, 10090.589, 0.021869678, -0.048724435, -625275.4, 111169.63, 0.0, 10.000797, 9.999803 
5.950442e+2, 2.348495e+2, -660247.5, -676446.9, 37281.78, 0.08627761, -0.2637648, -630195.7, 8264.866, 0.0, 9.999909, 9.999756 
5.950373e+2, 2.4484906e+2, -644260.8, -694273.7, 19939.65, 0.11850113, -0.24177234, -637284.3, -96818.82, 0.0, 9.999683, 9.999047 
5.950303e+2, 2.5485012e+2, -483841.6, -566007.6, -14734.008, 0.1174959, -0.07801294, -481279.4, -38818.156, 0.0, 10.000111, 9.999047 
5.9502375e+2, 2.6484993e+2, -362914.03, -484275.0, -35057.563, 0.14230764, 0.01863496, -353514.88, -9049.045, 0.0, 10.000411, 9.998795 
5.950176e+2, 2.748482e+2, -256281.39, -384919.2, -18538.422, 0.1806472, -0.06800804, -253663.06, -7180.297, 0.0, 10.000483, 9.99877 
5.9501004e+2, 2.8484693e+2, -114329.78, -217613.61, -70834.98, 0.124528706, -0.088580884, -78310.52, 70183.15, 0.0000003359344, 10.000555, 9.999211 
5.95001e+2, 2.9484582e+2, -49085.152, -137048.7, -46990.023, -0.026080498, -0.16179064, -28704.992, 21796.234, 0.000006914508, 10.000327, 9.9992 
5.949976e+2, 3.048438e+2, -96107.6, -272201.06, 50659.117, 0.2474769, -0.21705505, -82573.95, -82573.95, 0.000035638073, 10.000272, 9.997973 
5.9499216e+2, 3.1484252e+2, 22108.738, 28506.746, -78168.055, 0.1439758, -0.18899703, 103541.234, 103541.234, 0.00009897654, 9.999975, 10.000167 
6.051177e+2, 1.2485971e+2, -1764517.3, -1714245.4, 226870.6, -0.1771967, 0.0043614274, -1511122.5, 205246.66, 0.0000011596172, 9.999496, 10.000214 
6.051129e+2, 1.3485904e+2, -1537615.5, -1570288.3, -79675.555, 0.31982568, -0.113560244, -1472618.8, 145754.72, 0.00000014603442, 10.000461, 10.00009 
6.0510296e+2, 1.4485867e+2, -1398987.6, -1497976.8, 46525.066, 0.054798655, -0.12523626, -1380553.5, 139822.86, 0.0000000031309833, 10.000933, 9.999668 
6.0509557e+2, 1.548593e+2, -1244746.9, -1374518.0, -9937.954, -0.0015002541, -0.0725962, -1243990.1, 178381.03, 0.0, 10.001334, 9.99965 
6.050899e+2, 1.6485967e+2, -1168083.4, -1231844.9, 88389.44, 0.0072731962, -0.017193137, -1106001.0, 218366.69, 0.0, 10.000936, 10.000157 
6.0508674e+2, 1.7485946e+2, -1263122.5, -1221602.9, 52857.965, 0.124375105, -0.08917774, -1185574.3, 40795.02, 0.0, 9.999593, 10.000197 
6.0508084e+2, 1.8485942e+2, -1187396.0, -1114872.5, -84027.3, 0.14913328, -0.11474627, -1059616.5, 68750.49, 0.0, 9.999381, 10.000348 
6.050721e+2, 1.9485928e+2, -941682.1, -948818.2, -93431.11, 0.07621007, -0.19523431, -851750.94, 178612.44, 0.0, 10.000401, 10.00033 
6.0506433e+2, 2.0485945e+2, -909344.06, -1026145.1, 2170.5063, 0.025316535, -0.14222436, -909303.75, 23057.828, 0.0, 10.000567, 9.999044 
6.050577e+2, 2.1485956e+2, -932952.9, -994096.6, 16346.412, 0.004079724, -0.063895166, -928857.1, -94491.664, 0.0, 9.999752, 9.99899 
6.050512e+2, 2.2485901e+2, -794812.44, -790430.3, -2978.906, 0.038327612, -0.047903456, -788923.44, -52551.77, 0.0, 9.999683, 9.999732 
6.050446e+2, 2.348575e+2, -585274.56, -639922.1, -35431.19, 0.12525067, -0.20418915, -567855.1, 70527.88, 0.0, 10.000451, 9.999723 
6.050376e+2, 2.4485675e+2, -517359.38, -692048.06, -632.4477, 0.1374551, -0.1858173, -517357.1, 23034.254, 0.0, 10.000823, 9.998513 
6.050303e+2, 2.5485656e+2, -423065.38, -599753.9, -11411.462, 0.078813076, -0.0897422, -422331.4, 20067.703, 0.0, 10.000805, 9.998487 
6.050239e+2, 2.6485592e+2, -294510.94, -443401.03, 20729.191, 0.10416541, -0.01430281, -291678.78, 52729.14, 0.0, 10.000844, 9.998869 
6.050186e+2, 2.748545e+2, -188123.39, -344710.4, 14108.984, 0.21840188, -0.07338464, -186862.28, 59558.64, 0.0, 10.000902, 9.99885 
6.0501134e+2, 2.8485337e+2, -121905.086, -260319.45, -40690.89, 0.19633935, -0.06841367, -110829.125, 37602.324, 0.00000016006682, 10.000677, 9.998863 
6.050019e+2, 2.948522e+2, -91146.64, -193213.28, -100803.71, 0.052557018, -0.11162562, -29194.174, 21247.61, 0.0000052467194, 10.000194, 9.998884 
6.0499847e+2, 3.0484974e+2, -61154.2, -239694.84, 56528.426, 0.31556305, -0.20247589, -44761.598, -44761.598, 0.000031333126, 10.000457, 9.998107 
6.049928e+2, 3.1484935e+2, 188260.98, 84967.26, -22244.389, 0.15885335, -0.08961342, 192847.67, 192847.67, 0.00009226463, 10.001203, 9.999986 
6.151178e+2, 1.2486438e+2, -1775210.6, -1735240.6, 116832.96, -0.19138871, -0.27070722, -1636695.8, 79622.086, 0.000000319301, 9.999501, 10.000058 
6.151131e+2, 1.348675e+2, -1559442.9, -1613643.5, -32840.426, 0.25607163, 0.01814716, -1543964.8, 74326.2, 0.000000018009526, 10.000462, 9.999789 
6.1510247e+2, 1.4486764e+2, -1402119.4, -1509956.3, 36430.563, -0.13414979, 0.07746404, -1390965.6, 129325.34, 0.0, 10.000948, 9.999579 
6.150987e+2, 1.548658e+2, -1247048.9, -1386930.8, 16732.766, 0.14135635, -0.10904052, -1245075.3, 177232.42, 0.0, 10.001349, 9.999565 
6.1509264e+2, 1.6486512e+2, -1223338.0, -1331743.0, 23314.059, 0.15771599, -0.12370723, -1218536.6, 105778.19, 0.0, 10.000875, 9.999499 
6.1508495e+2, 1.7486538e+2, -1319850.1, -1331061.5, 17975.654, -0.047625832, -0.08103787, -1306626.4, -80311.516, 0.0, 9.999551, 9.999469 
6.1507815e+2, 1.8486571e+2, -1188368.9, -1092115.1, -59332.465, -0.09219579, -0.042472217, -1063844.8, 64465.813, 0.0, 9.999274, 10.000553 
6.150723e+2, 1.9486581e+2, -941938.75, -928053.1, -37183.945, 0.030020293, -0.12162749, -897169.4, 133135.47, 0.0, 10.000304, 10.000521 
6.1506563e+2, 2.0486565e+2, -879428.5, -929326.8, -41198.316, 0.06851012, -0.14783671, -856213.75, 76090.29, 0.0, 10.00042, 9.999778 
6.15058e+2, 2.1486482e+2, -908694.8, -901780.8, -96.25703, 0.029473934, -0.23790999, -901779.5, -67467.58, 0.0, 9.999571, 9.999712 
6.1505085e+2, 2.2486505e+2, -851641.7, -869477.2, 14165.969, 0.010600381, -0.15764128, -843820.25, -107508.99, 0.0, 9.999517, 9.999268 
6.1504424e+2, 2.3486617e+2, -645567.75, -721323.0, 9491.541, 0.012551018, -0.006114317, -644396.6, -6092.8423, 0.0, 10.000266, 9.999252 
6.150377e+2, 2.4486566e+2, -523705.1, -679302.2, -17703.037, 0.025298143, 0.053612314, -521716.34, 18593.955, 0.0, 10.000708, 9.998658 
6.15031e+2, 2.548632e+2, -432964.06, -593168.7, 2670.7075, 0.039739624, -0.09246531, -432919.56, 9414.902, 0.0, 10.000682, 9.998595 
6.1502475e+2, 2.6486185e+2, -294950.28, -425202.28, 9133.852, 0.07040021, -0.1013085, -294312.9, 50034.496, 0.0, 10.000761, 9.999032 
6.150188e+2, 2.748614e+2, -195976.14, -329745.56, 33683.773, 0.1173284, -0.08598104, -187973.2, 58378.227, 0.0, 10.000769, 9.999014 
6.150118e+2, 2.848609e+2, -202352.4, -415349.47, -74530.21, 0.14535743, 0.027860727, -178863.66, -30504.9, 0.00000012615395, 10.00062, 9.997826 
6.150034e+2, 2.948603e+2, -174568.89, -344184.47, -100164.92, 0.13679466, 0.13941194, -128131.21, -77760.86, 0.000004351736, 10.000103, 9.997885 
6.1499965e+2, 3.0485776e+2, -4858.116, -122946.34, 73792.87, 0.34917247, 0.04968807, 30604.887, 30604.887, 0.000027327982, 10.000448, 9.998927 
6.1499256e+2, 3.1485778e+2, 163320.13, 58966.47, 99782.16, -0.06351773, 0.13282399, 223743.92, 223743.92, 0.00008384043, 10.001097, 9.999864 
6.251187e+2, 1.24871604e+2, -1686706.5, -1670032.8, 44341.965, -0.062875554, -0.25839168, -1633250.8, 82997.44, 0.00000004128188, 10.0, 10.000278 
6.251137e+2, 1.3487487e+2, -1490188.9, -1549024.0, -13926.363, 0.2714056, 0.017877007, -1487058.9, 131159.5, 0.000000000001578113, 10.000782, 10.0000925 
6.2510264e+2, 1.4487481e+2, -1424568.9, -1539409.0, 93135.04, -0.19710533, 0.054877147, -1372576.0, 147643.83, 0.0, 10.0008745, 9.999414 
6.2510014e+2, 1.5487309e+2, -1330941.6, -1435019.9, 43262.254, 0.1873645, -0.10775357, -1315307.4, 106929.01, 0.0, 10.0008335, 9.999468 
6.25094e+2, 1.6487248e+2, -1260900.0, -1344086.3, 63224.387, 0.2310603, -0.11275396, -1226814.1, 97429.17, 0.0, 10.000622, 9.999521 
6.2508494e+2, 1.7487277e+2, -1233487.8, -1280782.0, 68560.9, -0.022428006, -0.06903574, -1184610.5, 41632.66, 0.0, 10.000143, 9.999513 
6.250777e+2, 1.8487322e+2, -1117756.0, -1071917.5, 85051.96, -0.08119415, -0.01521978, -1006750.8, 121487.4, 0.0, 9.999782, 10.0004635 
6.250723e+2, 1.9487351e+2, -1073022.9, -997727.5, 61681.547, 0.05559464, -0.069753565, -963112.06, 67119.63, 0.0, 9.999413, 10.000476 
6.2506586e+2, 2.0487319e+2, -984224.5, -967675.9, 41238.094, 0.102345124, -0.11433735, -933890.2, -1658.2972, 0.0, 9.999637, 9.9999 
6.2505835e+2, 2.1487187e+2, -764114.5, -809922.4, 8901.672, 0.071979664, -0.26672423, -762445.5, 71797.28, 0.0, 10.000473, 9.999904 
6.250514e+2, 2.2487205e+2, -673673.8, -825746.56, 45768.44, 0.05255125, -0.18419704, -660961.75, 75281.04, 0.0, 10.000913, 9.998903 
6.250452e+2, 2.3487349e+2, -576924.4, -735567.1, 23745.213, 0.054555483, 0.042221747, -573446.5, 64787.973, 0.0, 10.000921, 9.998856 
6.2503874e+2, 2.4487297e+2, -490239.03, -632840.2, 15974.014, 0.06627636, 0.10585603, -488471.56, 51769.316, 0.0, 10.0007925, 9.998944 
6.2503207e+2, 2.5487015e+2, -424354.63, -552866.0, 14675.088, 0.086327225, -0.10697869, -422700.13, 19565.025, 0.0, 10.000582, 9.99892 
6.2502563e+2, 2.648686e+2, -347816.66, -482428.63, 44486.09, 0.10662707, -0.13984308, -334443.6, 9835.633, 0.0, 10.000517, 9.99876 
6.250196e+2, 2.74868e+2, -250200.19, -389032.97, 3298.7158, 0.13795441, -0.10655575, -250121.84, -3835.5454, 0.0, 10.000524, 9.998729 
6.2501276e+2, 2.848674e+2, -165191.44, -420191.28, -47889.49, 0.16785185, 0.020986976, -156494.31, -8198.123, 0.000000116905284, 10.000975, 9.997625 
6.2500495e+2, 2.9486665e+2, 70070.06, -258166.81, -45630.438, 0.19946569, 0.14119112, 76295.39, 126605.43, 0.000004287332, 10.001894, 9.997632 
6.250006e+2, 3.048647e+2, 126006.87, -6849.433, 132206.7, 0.38344508, 0.10522149, 207535.84, 207535.84, 0.000025852014, 10.001145, 9.999372 
6.249928e+2, 3.1486472e+2, -217214.39, -110565.08, 105691.72, 0.007702084, 0.13552095, -45507.9, -45507.9, 0.00007870898, 9.9984455, 9.999959 
6.351192e+2, 1.2488125e+2, -1633765.0, -1578333.5, -103789.49, -0.08389666, 0.038722564, -1498622.9, 217538.19, 0.000000010756334, 10.000071, 10.000879 
6.351144e+2, 1.3488097e+2, -1436043.5, -1440177.1, 15805.814, 0.22507189, -0.11310661, -1422170.0, 195987.11, 0.0, 10.000789, 10.000845 
6.351031e+2, 1.448803e+2, -1434668.5, -1543709.5, 68978.64, -0.27903226, -0.17910542, -1401265.5, 118896.6, 0.0, 10.00081, 9.999413 
6.3509953e+2, 1.5488118e+2, -1338013.4, -1446645.1, 60557.375, 0.01162109, -0.07506954, -1310981.8, 111175.09, 0.0, 10.00082, 9.999395 
6.3509375e+2, 1.6488163e+2, -1226505.3, -1264863.9, 28949.13, 0.106363125, 0.0019275192, -1210958.5, 113195.65, 0.0, 10.00058, 10.000089 
6.3508636e+2, 1.7488143e+2, -1197287.8, -1201076.0, 65417.004, 0.06698841, -0.0616516, -1133737.5, 92418.59, 0.0, 10.000111, 10.000083 
6.35079e+2, 1.8488173e+2, -1150382.5, -1116375.8, 55012.965, 0.041852202, -0.039544526, -1075798.4, 52353.695, 0.0, 9.999688, 10.000199 
6.3507164e+2, 1.9488215e+2, -1110399.8, -1049807.6, 59977.695, 0.012171443, -0.050659887, -1012908.6, 17237.154, 0.0, 9.999302, 10.000172 
6.350648e+2, 2.048819e+2, -1040121.5, -1046263.6, 56832.727, -0.0024152237, -0.048137352, -986276.94, -54130.145, 0.0, 9.999473, 9.999436 
6.3505834e+2, 2.1488065e+2, -823219.8, -888953.06, 56180.734, -0.003921603, -0.15266052, -790998.1, 43160.332, 0.0, 10.000281, 9.999453 
6.350524e+2, 2.2487997e+2, -718467.4, -875034.56, 32784.0, 0.034989316, -0.122436255, -711879.8, 24286.928, 0.0, 10.00073, 9.99865 
6.350469e+2, 2.3487951e+2, -624407.3, -787837.3, 41315.527, 0.1103854, -0.06378072, -614556.44, 23618.752, 0.0, 10.000725, 9.998589 
6.350404e+2, 2.4487871e+2, -484744.78, -590131.1, -4709.702, 0.12555298, -0.031055426, -484534.72, 55647.87, 0.0, 10.000662, 9.999297 
6.350329e+2, 2.5487733e+2, -420750.66, -510503.47, 20986.006, 0.07771493, -0.13389862, -416086.13, 26105.11, 0.0, 10.000434, 9.999282 
6.350262e+2, 2.6487607e+2, -410622.4, -588874.25, 28635.295, 0.08591239, -0.12275939, -406135.25, -61931.566, 0.0, 10.00042, 9.998073 
6.350205e+2, 2.7487448e+2, -317805.94, -500495.13, 20714.416, 0.1376454, -0.12514292, -315486.66, -69261.92, 0.0, 10.000403, 9.998019 
6.350137e+2, 2.8487286e+2, -128300.71, -327618.94, -30202.781, 0.1299882, -0.09267056, -123824.586, 24418.99, 0.0000001448745, 10.000912, 9.998293 
6.350059e+2, 2.9487136e+2, 89554.98, -180153.6, 11229.897, 0.06747827, -0.108798034, 90021.75, 140280.86, 0.000005079309, 10.001754, 9.998229 
6.350008e+2, 3.0487084e+2, 117857.42, -31213.148, 25639.86, 0.25590768, -0.020270685, 122144.16, 122144.16, 0.000027855136, 10.001145, 9.999219 
6.349926e+2, 3.1487018e+2, -233472.38, -122653.14, 76882.07, 0.06286762, -0.058933835, -83294.2, -83294.2, 0.00008149468, 9.998337, 9.999935 
6.4512e+2, 1.24890104e+2, -1676669.4, -1639976.6, -36435.56, 0.011616991, 0.12383828, -1617529.1, 98547.39, 0.0000000047013002, 9.999958, 10.000507 
6.45115e+2, 1.3488834e+2, -1497332.6, -1488669.5, 44262.625, 0.24003582, -0.15625088, -1448527.0, 169559.03, 0.0, 10.000483, 10.000641 
6.4510447e+2, 1.448875e+2, -1461922.4, -1524702.9, 84207.94, -0.19382991, -0.23904844, -1403444.3, 116647.28, 0.0, 10.000486, 9.999697 
6.451e+2, 1.5488927e+2, -1398801.0, -1445162.8, 62071.82, 0.0056210356, -0.078079365, -1355722.9, 66355.03, 0.0, 10.0002575, 9.999682 
6.4509386e+2, 1.6489005e+2, -1282349.3, -1279861.0, 55847.734, 0.09454694, 0.012239096, -1225243.5, 98827.586, 0.0, 10.000146, 10.000198 
6.450871e+2, 1.7488964e+2, -1178264.6, -1177370.1, 32067.68, 0.13892812, -0.08106135, -1145746.6, 80326.695, 0.0, 10.000181, 10.000211 
6.4508e+2, 1.8488964e+2, -1066515.8, -1109026.8, 40710.184, 0.13773043, -0.077773005, -1041846.1, 86225.76, 0.0, 10.000415, 9.999896 
6.450722e+2, 1.9488978e+2, -919695.2, -988803.7, 10237.548, 0.075720206, -0.08866766, -918210.5, 111859.35, 0.0, 10.000765, 9.999877 
6.4506525e+2, 2.0488966e+2, -851324.1, -993902.5, 56243.598, 0.037960917, -0.044366702, -831808.6, 100262.88, 0.0, 10.000946, 9.999077 
6.450592e+2, 2.1488887e+2, -765871.5, -904859.56, 29212.717, 0.034191925, -0.06379571, -759981.2, 74099.34, 0.0, 10.000865, 9.999057 
6.450533e+2, 2.2488788e+2, -698390.9, -852640.2, 37806.773, 0.06420048, -0.04971712, -689622.75, 46468.527, 0.0, 10.000781, 9.998787 
6.450478e+2, 2.3488635e+2, -615703.5, -763280.3, 44305.59, 0.13610536, -0.11871865, -603423.8, 34683.285, 0.0, 10.000679, 9.998777 
6.450412e+2, 2.4488533e+2, -492287.38, -603600.5, 30880.053, 0.1439805, -0.11208342, -484294.66, 55821.21, 0.0, 10.000671, 9.999202 
6.450336e+2, 2.548846e+2, -375804.38, -496533.97, -3719.206, 0.099331014, -0.13544364, -375689.9, 66429.68, 0.0, 10.000789, 9.999207 
6.450269e+2, 2.6488373e+2, -367454.88, -566540.94, 42797.492, 0.10265097, -0.08237357, -358644.6, -14514.948, 0.0, 10.000718, 9.998081 
6.450212e+2, 2.7488226e+2, -302543.9, -491953.94, 50776.793, 0.17185366, -0.070791945, -289790.44, -43639.926, 0.000000000000000000046744374, 10.000509, 9.998031 
6.4501464e+2, 2.8488064e+2, -136998.13, -278386.84, 77644.67, 0.15994403, -0.06565942, -102685.88, 45482.563, 0.00000034821963, 10.000617, 9.998769 
6.4500713e+2, 2.948788e+2, -1574.2385, -178812.53, 68307.53, 0.06970421, -0.16288592, 21696.166, 71880.07, 0.0000068469953, 10.000924, 9.998635 
6.4500153e+2, 3.0487835e+2, 49230.676, -123394.93, 24514.098, 0.23383719, -0.060374327, 52644.35, 52644.35, 0.00003364889, 10.000952, 9.998658 
6.449926e+2, 3.148775e+2, 99366.49, 27270.31, -6033.1484, 0.13331245, -0.06543783, 99867.87, 99867.87, 0.000093661416, 10.000673, 9.9998255 
6.551198e+2, 1.2489803e+2, -1756748.1, -1808595.1, -127909.97, -0.08244701, -0.009263501, -1652161.1, 63834.47, 0.000000001405694, 9.999967, 9.999345 
6.5511507e+2, 1.3489695e+2, -1566230.9, -1636267.8, 71582.914, 0.16158332, -0.116534755, -1521559.9, 96444.73, 0.0, 10.000506, 9.999609 
6.551064e+2, 1.4489649e+2, -1433918.4, -1461386.1, 56001.242, -0.087964, -0.13307203, -1389991.5, 130016.15, 0.0, 10.000459, 10.000152 
6.5510076e+2, 1.5489735e+2, -1370064.8, -1380408.9, 68460.414, 0.02368722, -0.108982734, -1306581.3, 115417.58, 0.0, 10.000229, 10.000147 
6.550939e+2, 1.6489768e+2, -1306766.9, -1318404.4, 39193.855, 0.047674593, -0.07419929, -1272962.1, 51032.133, 0.0, 10.000092, 9.999956 
6.5508676e+2, 1.7489734e+2, -1201606.3, -1217821.8, 48505.34, 0.047878496, -0.13551995, -1160535.8, 65459.56, 0.0, 10.000148, 9.999946 
6.550801e+2, 1.8489708e+2, -1103666.9, -1164868.6, 38156.33, 0.076757595, -0.13032977, -1085356.5, 42640.406, 0.0, 10.000323, 9.9995575 
6.550736e+2, 1.948965e+2, -956443.7, -1040379.4, 40822.66, 0.10850021, -0.18024659, -939864.2, 90138.5, 0.0, 10.00066, 9.999575 
6.550671e+2, 2.0489638e+2, -896146.44, -1053081.0, 38409.395, 0.09575496, -0.10154513, -887250.2, 44755.906, 0.0, 10.000799, 9.998746 
6.550604e+2, 2.1489641e+2, -817161.1, -964244.9, 40802.69, 0.042317238, -0.0063621923, -806600.3, 27409.982, 0.0, 10.000669, 9.998744 
6.550539e+2, 2.2489576e+2, -688308.7, -783999.25, 19779.549, 0.014201444, 0.030413968, -684381.4, 51635.492, 0.0, 10.000581, 9.999351 
6.550473e+2, 2.3489407e+2, -604523.2, -693130.1, 54930.02, -0.008766174, -0.11062843, -578256.8, 59772.992, 0.0, 10.0004835, 9.99935 
6.5504056e+2, 2.448929e+2, -547418.6, -686664.44, 18598.867, -0.011004171, -0.124108255, -544977.2, -4937.039, 0.0, 10.000538, 9.998693 
6.550337e+2, 2.5489196e+2, -433147.22, -579719.2, 17705.42, 0.00088137074, -0.12074854, -431038.78, 11011.861, 0.0, 10.000639, 9.998703 
6.550272e+2, 2.648916e+2, -331006.22, -477360.9, 20032.232, 0.027345104, -0.023686357, -328313.84, 15743.201, 0.0, 10.000651, 9.998729 
6.5502113e+2, 2.748915e+2, -269583.7, -405185.22, 63669.707, 0.078641556, 0.060809612, -244374.9, 1687.5197, 0.0000000002377775, 10.000419, 9.998674 
6.550149e+2, 2.848908e+2, -130286.22, -239788.7, 74310.984, 0.08888303, 0.109984845, -92734.586, 55335.27, 0.0000008000927, 10.0005245, 9.99907 
6.5500826e+2, 2.9488906e+2, -3751.8943, -148174.3, 96668.25, 0.03873291, -0.013854546, 44698.445, 94781.98, 0.000010270006, 10.000784, 9.998906 
6.550022e+2, 3.048873e+2, -25536.334, -279194.03, 4859.1855, 0.16507049, 0.0014946418, -25443.283, -25443.283, 0.00004390313, 10.000942, 9.9976 
6.5499216e+2, 3.1488597e+2, 70103.086, -11652.335, 47002.68, -0.05765785, 0.055728, 91516.945, 91516.945, 0.00011355634, 10.000582, 9.999604 
6.651205e+2, 1.24906406e+2, -1764249.6, -1810043.1, -120837.01, 0.015106907, -0.05478018, -1664159.1, 51753.242, 0.00000000035571668, 9.999913, 9.99935 
6.6511494e+2, 1.3490632e+2, -1564446.9, -1654318.3, 112652.01, 0.10754179, -0.05319595, -1488099.1, 129814.12, 0.0, 10.000579, 9.999463 
6.6510814e+2, 1.4490606e+2, -1430696.4, -1496710.1, 112594.2, 0.03835649, -0.028329987, -1346370.8, 173544.42, 0.0, 10.0006485, 9.99981 
6.65102e+2, 1.5490565e+2, -1327828.6, -1395943.1, 30961.43, 0.112261504, -0.09917215, -1315858.6, 106059.414, 0.0, 10.000689, 9.999807 
6.650947e+2, 1.6490541e+2, -1215736.5, -1278026.4, 21630.553, 0.09259298, -0.10219916, -1208961.9, 114956.36, 0.0, 10.000733, 9.999925 
6.650871e+2, 1.7490517e+2, -1129005.8, -1186993.0, 14149.686, 0.05295529, -0.15128073, -1125737.3, 100180.29, 0.0, 10.000655, 9.999914 
6.6508055e+2, 1.8490484e+2, -1075858.3, -1178482.8, 55021.42, 0.08658019, -0.13748023, -1051935.5, 75984.13, 0.0, 10.0006485, 9.999303 
6.650748e+2, 1.9490407e+2, -968811.6, -1079818.9, 29772.303, 0.16985668, -0.18084961, -961330.75, 68597.93, 0.0, 10.000713, 9.999281 
6.6506845e+2, 2.0490375e+2, -886752.06, -1052073.9, 62941.45, 0.15986986, -0.106807634, -865516.6, 66418.08, 0.0, 10.000871, 9.99873 
6.650615e+2, 2.1490361e+2, -762444.0, -941953.56, 57055.324, 0.06921376, -0.022745395, -745844.5, 88095.76, 0.0, 10.001055, 9.998722 
6.650546e+2, 2.2490305e+2, -631519.94, -721685.06, 51331.395, 0.020908417, 0.006480712, -608284.5, 127661.12, 0.0, 10.000839, 9.999657 
6.650477e+2, 2.349017e+2, -627447.3, -671994.94, 36677.754, 0.0059617492, -0.124875985, -606809.8, 31143.766, 0.0, 10.000204, 9.999634 
6.650412e+2, 2.4490082e+2, -581831.75, -701462.75, 68549.35, 0.020531323, -0.12440854, -550669.75, -10708.808, 0.0, 10.000261, 9.998735 
6.6503507e+2, 2.549001e+2, -386545.4, -558038.7, 73341.34, 0.07103493, -0.10358081, -359458.34, 82512.24, 0.0, 10.000929, 9.998726 
6.6502863e+2, 2.6489955e+2, -269435.16, -450619.6, 74532.38, 0.09181805, -0.023302248, -242715.72, 101263.02, 0.0, 10.0010805, 9.998709 
6.650218e+2, 2.7489904e+2, -225609.4, -379777.78, 35296.652, 0.0958048, 0.018870817, -217912.55, 28074.455, 0.0000000023427176, 10.00072, 9.9986925 
6.650154e+2, 2.8489843e+2, -129297.22, -255576.77, 61257.934, 0.0945703, 0.084795326, -104464.46, 43528.71, 0.0000014418595, 10.000583, 9.998945 
6.6500926e+2, 2.948972e+2, -43949.426, -173424.39, 16932.943, 0.09190325, 0.020817008, -41771.543, 8231.237, 0.000014823799, 10.000528, 9.9988575 
6.6500336e+2, 3.0489495e+2, -49220.152, -285463.47, -16424.135, 0.2084215, -0.015510263, -48083.777, -48083.777, 0.000057815294, 10.000756, 9.997647 
6.6499376e+2, 3.148935e+2, 118474.875, -921.18823, 55022.457, 0.037476182, 0.02769931, 139963.83, 139963.83, 0.00014076945, 10.000953, 9.999505 
6.7512137e+2, 1.2491541e+2, -1700640.5, -1674582.3, -131889.84, 0.033580367, -0.015130419, -1555079.5, 160745.33, 0.0000000023126079, 9.999909, 10.000278 
6.751142e+2, 1.3491644e+2, -1518124.3, -1554443.6, 143568.61, -0.056558527, 0.026838496, -1391571.4, 226240.81, 0.0, 10.000575, 10.000148 
6.7510915e+2, 1.449162e+2, -1514308.6, -1657100.5, 91343.86, 0.028280407, 0.07651418, -1469768.9, 50044.89, 0.0, 10.000596, 9.9987335 
6.75103e+2, 1.5491429e+2, -1402051.6, -1547724.6, 49445.55, 0.10999819, -0.032676138, -1386853.9, 34980.05, 0.0, 10.000686, 9.998764 
6.750957e+2, 1.649134e+2, -1206954.4, -1254530.0, 2733.7834, 0.09086037, -0.05974608, -1206797.9, 117043.41, 0.0, 10.000703, 10.000105 
6.7508775e+2, 1.7491327e+2, -1122642.9, -1160299.9, 25245.936, 0.023543, -0.12029442, -1109977.4, 115860.9, 0.0, 10.000599, 10.000123 
6.75081e+2, 1.8491305e+2, -1104378.3, -1216853.0, 37841.035, 0.037364382, -0.09566526, -1092832.3, 35007.293, 0.0, 10.000554, 9.99909 
6.7507523e+2, 1.9491254e+2, -1006146.94, -1119856.4, 46093.234, 0.113976195, -0.08561237, -989809.8, 40037.406, 0.0, 10.00056, 9.999081 
6.75069e+2, 2.0491183e+2, -893534.9, -1032277.44, 55192.99, 0.096936606, -0.050155193, -874257.2, 57599.074, 0.0, 10.000711, 9.998948 
6.750619e+2, 2.149106e+2, -772087.94, -918567.56, 77767.79, -0.021860491, -0.10386137, -738501.25, 95368.54, 0.0, 10.000865, 9.998974 
6.75055e+2, 2.2490983e+2, -657640.3, -732936.8, 12178.934, -0.03802667, -0.10739185, -655719.4, 80156.85, 0.0, 10.000653, 9.99967 
6.7504853e+2, 2.349092e+2, -655359.9, -682109.7, 30043.912, 0.04071219, -0.16695523, -635848.25, 2030.2086, 0.0, 10.000001, 9.999661 
6.750427e+2, 2.4490912e+2, -568314.7, -635222.1, 81221.99, 0.11109687, -0.11644854, -513926.7, 25951.059, 0.0, 10.000102, 9.999265 
6.7503726e+2, 2.5490916e+2, -374948.84, -498207.47, 114474.164, 0.16279359, -0.073632956, -306568.5, 135309.72, 0.0, 10.0007715, 9.999212 
6.7503065e+2, 2.6490778e+2, -334838.1, -556803.44, 44767.48, 0.15765658, -0.06571181, -326149.2, 17744.008, 0.0, 10.000958, 9.998037 
6.750227e+2, 2.7490482e+2, -288477.28, -486677.78, 39296.777, 0.084567085, -0.20031863, -280970.34, -35045.266, 0.0000000015372758, 10.000616, 9.998013 
6.750159e+2, 2.8490353e+2, -167469.17, -322694.7, 45182.758, 0.055110626, -0.14756936, -155275.34, -7336.4453, 0.0000017821444, 10.000535, 9.998503 
6.750099e+2, 2.949035e+2, -90755.86, -239410.75, 36985.86, 0.05169468, -0.043926094, -82062.086, -32122.975, 0.000019076204, 10.000398, 9.998466 
6.7500424e+2, 3.0490127e+2, 11069.115, -140703.97, -17719.514, 0.19487947, -0.11379378, 13110.415, 13110.415, 0.000073988194, 10.000681, 9.998674 
6.7499626e+2, 3.149e+2, 110354.086, 16432.664, 118769.9, 0.11532055, -0.14719589, 191110.23, 191110.23, 0.00017626988, 10.000822, 9.99968 
6.851221e+2, 1.2492257e+2, -1676072.5, -1676004.4, -113710.21, 0.12499156, -0.056041237, -1562328.3, 153423.67, 0.0000000036242784, 10.000104, 10.000193 
6.851142e+2, 1.3492331e+2, -1533032.1, -1589434.4, -11459.833, -0.09594978, -0.01286502, -1530792.6, 86951.37, 0.0, 10.000614, 9.999877 
6.851103e+2, 1.4492309e+2, -1489975.9, -1619267.4, -28397.066, 0.09791488, 0.039955784, -1484013.8, 35731.668, 0.0, 10.000641, 9.998977 
6.851038e+2, 1.5492141e+2, -1410996.9, -1527942.5, -3502.8738, 0.1329713, -0.069809675, -1410892.0, 10869.521, 0.0, 10.000501, 9.999004 
6.850964e+2, 1.6492066e+2, -1274734.0, -1319819.8, 7996.5313, 0.1099131, -0.08376258, -1273357.8, 50410.496, 0.0, 10.000371, 9.999822 
6.850886e+2, 1.7492051e+2, -1198655.6, -1236732.5, -37698.89, 0.06845889, -0.11217608, -1175460.6, 50307.496, 0.0, 10.000236, 9.999787 
6.8508184e+2, 1.849204e+2, -1119651.9, -1214306.4, 13451.267, 0.08665406, -0.0636168, -1117777.4, 9992.107, 0.0, 10.000397, 9.99918 
6.850762e+2, 1.9491999e+2, -968253.8, -1089824.1, 16160.875, 0.14514482, -0.05790615, -966142.2, 63633.645, 0.0, 10.000757, 9.9991865 
6.8506986e+2, 2.0491937e+2, -855876.44, -960681.3, 63168.484, 0.12482864, -0.04206677, -826204.06, 105578.46, 0.0, 10.000783, 9.999377 
6.8506294e+2, 2.1491818e+2, -790373.44, -881534.1, 68662.13, 0.020539181, -0.13035217, -753539.9, 80253.414, 0.0, 10.000556, 9.999364 
6.8505615e+2, 2.2491758e+2, -663791.1, -754984.3, 29653.021, 0.011763478, -0.12984331, -654997.0, 80801.1, 0.0, 10.000672, 9.999511 
6.8504953e+2, 2.349173e+2, -506495.5, -631000.8, 2975.1563, 0.10317653, -0.13958994, -506424.44, 131374.53, 0.0, 10.001087, 9.999494 
6.850437e+2, 2.4491699e+2, -454044.7, -603001.94, 57849.547, 0.16847101, -0.091783695, -434217.25, 105583.93, 0.0, 10.001003, 9.999037 
6.8503827e+2, 2.5491634e+2, -426056.16, -542659.9, 5915.7036, 0.20301633, -0.0948855, -425756.78, 16050.907, 0.0, 10.000537, 9.999002 
6.850317e+2, 2.6491478e+2, -344136.13, -570360.94, -24574.225, 0.18257798, -0.093423426, -341497.47, 2326.9722, 0.0, 10.000921, 9.997963 
6.850244e+2, 2.74912e+2, -88590.125, -399126.47, -17503.824, 0.12671305, -0.2030677, -87606.62, 158247.86, 0.00000000039754933, 10.002008, 9.997947 
6.8501765e+2, 2.8491056e+2, 48457.29, -241928.05, 21413.95, 0.10470162, -0.15251315, 50027.93, 197898.03, 0.000001935021, 10.00212, 9.998291 
6.8501127e+2, 2.9491007e+2, 46426.934, -193779.58, -4146.3833, 0.116335295, -0.06930357, 46498.49, 96373.87, 0.000022833043, 10.001418, 9.998289 
6.8500525e+2, 3.0490828e+2, 125903.34, -69468.52, -23898.709, 0.20097013, -0.097787336, 128784.25, 128784.25, 0.00009092674, 10.001411, 9.998808 
6.849976e+2, 3.1490663e+2, 198762.77, 44964.18, 8718.416, 0.1538033, -0.1763997, 199255.4, 199255.4, 0.00021663251, 10.001463, 9.999583 
6.951221e+2, 1.2492811e+2, -1735295.5, -1802493.8, -71259.766, 0.037779734, -0.16284433, -1690111.0, 25580.775, 0.00000000017840025, 10.000138, 9.999294 
6.951146e+2, 1.3492717e+2, -1616341.8, -1762819.3, 18617.795, -0.15512459, -0.16486625, -1614012.4, 3693.5134, 0.0, 10.000623, 9.998678 
6.9511133e+2, 1.449268e+2, -1387007.5, -1398199.8, -49318.81, 0.09755112, -0.14609164, -1342968.3, 176740.69, 0.0, 10.000604, 10.000514 
6.951038e+2, 1.5492702e+2, -1307065.5, -1312826.3, 8946.587, 0.052642357, -0.22202113, -1300547.0, 121153.95, 0.0, 10.000492, 10.000491 
6.950961e+2, 1.6492714e+2, -1339860.5, -1437948.8, -11430.283, 0.012299427, -0.17947768, -1338546.1, -14846.851, 0.0, 10.000309, 9.999034 
6.950889e+2, 1.7492712e+2, -1264248.1, -1357192.6, -22815.953, 0.049918454, -0.11661337, -1258949.4, -33244.535, 0.0, 10.000174, 9.998987 
6.9508266e+2, 1.8492706e+2, -1104791.5, -1158929.5, 15273.034, 0.096073546, -0.044009726, -1100780.0, 26927.877, 0.0, 10.000294, 9.999605 
6.95077e+2, 1.9492657e+2, -959007.1, -1039299.8, 44586.69, 0.1262892, -0.08956365, -939156.0, 90556.59, 0.0, 10.000633, 9.999585 
6.950708e+2, 2.049264e+2, -836152.75, -891356.1, 38211.934, 0.11299161, -0.074704915, -816616.3, 115096.64, 0.0, 10.000649, 9.999921 
6.950641e+2, 2.1492632e+2, -780434.25, -815400.56, 74500.99, 0.05797687, -0.109102935, -721392.5, 112319.09, 0.0, 10.00036, 9.999911 
6.950574e+2, 2.249263e+2, -713784.06, -815646.06, 30936.736, 0.04244466, -0.061023112, -705124.4, 30586.703, 0.0, 10.000485, 9.999184 
6.950505e+2, 2.3492599e+2, -556394.06, -692926.25, 32098.47, 0.056728706, -0.04398331, -549224.25, 88490.75, 0.0, 10.000912, 9.999148 
6.9504386e+2, 2.4492456e+2, -535513.3, -747458.2, 26508.783, 0.060464147, -0.04311434, -532248.06, 7481.944, 0.0, 10.00089, 9.998102 
6.950376e+2, 2.5492167e+2, -505620.5, -684305.8, 5712.1196, 0.050489552, -0.17782982, -505438.1, -63678.78, 0.0, 10.000425, 9.998086 
6.9503164e+2, 2.6492047e+2, -323928.28, -502653.38, 4145.583, 0.048032895, -0.12026706, -323832.2, 19940.94, 0.0, 10.000817, 9.998474 
6.9502604e+2, 2.7492058e+2, -72590.49, -336148.84, 39935.65, 0.060969964, 0.010632911, -66672.15, 179102.84, 0.0000000054780975, 10.001885, 9.998436 
6.9502e+2, 2.8491953e+2, 37108.09, -248616.84, -21728.418, 0.09438299, 0.0726231, 38751.016, 186537.94, 0.000002364329, 10.0020485, 9.998277 
6.950131e+2, 2.9491696e+2, 27748.592, -204352.6, -7014.903, 0.10944581, -0.05351718, 27960.412, 77771.914, 0.000027093956, 10.001301, 9.998269 
6.9500583e+2, 3.0491588e+2, 67751.41, -184065.95, -26920.166, 0.086741254, 0.028337862, 70597.11, 70597.11, 0.00010798756, 10.001377, 9.998036 
6.9499725e+2, 3.1491384e+2, 151471.61, -31554.742, 76116.7, -0.10866477, -0.014135943, 178989.58, 178989.58, 0.00025661878, 10.001367, 9.999101 
7.0512336e+2, 1.24935016e+2, -1621901.1, -1762067.9, 43536.566, 0.12034543, -0.1887694, -1609479.3, 106142.164, 0.0, 10.000946, 9.999203 
7.051151e+2, 1.3493402e+2, -1767054.5, -1854810.5, 95816.5, -0.105269544, -0.17826878, -1705547.1, -87910.16, 0.0, 9.9996395, 9.99853 
7.051117e+2, 1.4493343e+2, -1594243.5, -1458374.9, 89473.41, 0.16083118, -0.19400938, -1413967.9, 105674.47, 0.0, 9.999016, 10.000859 
7.0510405e+2, 1.5493412e+2, -1393380.0, -1307720.5, 28500.262, 0.077324465, -0.25563264, -1299104.6, 122524.17, 0.0, 9.999722, 10.000878 
7.050965e+2, 1.6493462e+2, -1326662.6, -1428254.5, 29019.781, 0.027234228, -0.19863787, -1318957.4, 4666.0938, 0.0, 10.000395, 9.99905 
7.0508987e+2, 1.7493463e+2, -1161133.4, -1300201.9, 44590.055, 0.09582969, -0.13385722, -1148064.5, 77564.78, 0.0, 10.00086, 9.999033 
7.0508355e+2, 1.8493457e+2, -1007102.94, -1096965.0, 123981.45, 0.13531291, -0.07176252, -920162.1, 207470.31, 0.0, 10.000902, 9.99974 
7.050776e+2, 1.94934e+2, -964947.75, -1030132.25, 101620.14, 0.12716955, -0.13644806, -890821.2, 138816.23, 0.0, 10.00053, 9.999709 
7.050715e+2, 2.0493385e+2, -852386.0, -899552.94, 98601.4, 0.1304774, -0.12586553, -774586.94, 157050.27, 0.0, 10.000515, 9.999941 
7.0506555e+2, 2.1493395e+2, -717742.56, -782087.75, 67136.04, 0.14888485, -0.14453901, -675468.4, 158165.36, 0.0, 10.000756, 9.999958 
7.0505893e+2, 2.2493386e+2, -674564.94, -845566.75, 41808.64, 0.13082388, -0.08211859, -664890.44, 70744.47, 0.0, 10.000981, 9.998732 
7.050516e+2, 2.3493329e+2, -536025.4, -731449.94, 4066.1833, 0.061238147, -0.04671312, -535940.8, 101703.305, 0.0, 10.001274, 9.998704 
7.0504487e+2, 2.449316e+2, -411155.03, -699372.3, 43112.848, 0.031253565, -0.044329308, -404844.2, 134818.33, 0.0, 10.001785, 9.998011 
7.05039e+2, 2.5492847e+2, -213782.89, -553065.44, 56383.613, 0.052878715, -0.19324248, -204658.19, 237035.11, 0.0, 10.002463, 9.998015 
7.0503306e+2, 2.6492748e+2, -96293.46, -391869.78, 96648.69, 0.039330766, -0.11300797, -67496.484, 276208.5, 0.0, 10.002374, 9.998491 
7.050271e+2, 2.749283e+2, -125348.25, -355596.78, 61315.137, 0.0025241335, 0.08592232, -110038.08, 135662.44, 0.000000016182126, 10.001503, 9.998484 
7.050212e+2, 2.8492713e+2, -70951.516, -315538.84, 2730.3015, 0.051911954, 0.14181551, -70921.05, 76792.555, 0.0000030357212, 10.001353, 9.998162 
7.050151e+2, 2.949237e+2, 84233.08, -192170.36, -21586.78, 0.17052177, -0.059182696, 85908.82, 135655.33, 0.000031540207, 10.001737, 9.998153 
7.050077e+2, 3.049225e+2, 125709.22, -196128.22, 13748.105, 0.12098904, 0.033914845, 126295.43, 126295.43, 0.00012311795, 10.001949, 9.997671 
7.049991e+2, 3.1492162e+2, 228607.64, 35834.414, 91812.09, -0.06560668, 0.13907018, 265336.9, 265336.9, 0.0002906225, 10.001785, 9.999345 
7.1512496e+2, 1.2494315e+2, -1556158.5, -1623707.0, 2987.62, 0.113431916, -0.12572928, -1556026.6, 159515.34, 0.0, 10.000941, 10.000148 
7.151153e+2, 1.3494362e+2, -1692593.1, -1716226.9, 52107.836, -0.08950455, -0.07109156, -1650979.1, -33439.492, 0.0, 9.999697, 9.999458 
7.1511084e+2, 1.449428e+2, -1646526.6, -1569872.0, 92996.02, 0.13116781, -0.115775, -1507614.8, 11932.45, 0.0, 9.999035, 10.000079 
7.1510404e+2, 1.5494278e+2, -1449401.5, -1423215.5, 71650.234, 0.06338762, -0.17175266, -1363471.9, 58072.8, 0.0, 9.999716, 10.000087 
7.150972e+2, 1.64943e+2, -1279654.9, -1311749.1, 30757.684, 0.021909129, -0.1451625, -1261009.9, 62531.727, 0.0, 10.000322, 9.999881 
7.150908e+2, 1.7494303e+2, -1114266.6, -1187028.8, 75093.234, 0.075483, -0.16341363, -1067205.6, 158336.34, 0.0, 10.000802, 9.999835 
7.150842e+2, 1.8494287e+2, -1029109.4, -1124178.6, 93370.72, 0.07395037, -0.14223751, -971869.8, 155674.13, 0.0, 10.00082, 9.999597 
7.150772e+2, 1.9494228e+2, -996752.56, -1060704.3, 103623.85, 0.009945002, -0.19357947, -920283.25, 109266.91, 0.0, 10.000382, 9.999573 
7.1507144e+2, 2.0494182e+2, -912213.06, -978932.8, 93376.2, 0.040501744, -0.18535794, -846416.5, 85137.555, 0.0, 10.000334, 9.99948 
7.1506673e+2, 2.1494117e+2, -786685.7, -867661.1, 88895.234, 0.16387224, -0.231415, -729492.2, 104066.58, 0.0, 10.000526, 9.999475 
7.1506035e+2, 2.2494045e+2, -738616.2, -942050.5, 35422.656, 0.1479018, -0.17975101, -732624.7, 2943.3506, 0.0, 10.000817, 9.998152 
7.1505225e+2, 2.3493934e+2, -604520.5, -830327.0, 29839.508, -0.020628236, -0.13929509, -600643.9, 36941.26, 0.0, 10.001085, 9.998118 
7.1504617e+2, 2.449382e+2, -385669.16, -606958.4, 53313.176, -0.047589403, -0.087453194, -373494.7, 166103.39, 0.0, 10.0016165, 9.998729 
7.150419e+2, 2.5493672e+2, -188244.95, -459683.63, 97044.02, 0.06329538, -0.14134128, -157119.2, 284490.84, 0.0, 10.0023, 9.9987335 
7.150355e+2, 2.6493582e+2, -134925.03, -462115.9, 47144.047, 0.01775864, -0.065072276, -128267.625, 215352.34, 0.0, 10.002321, 9.99804 
7.1502703e+2, 2.7493513e+2, -174008.36, -431163.0, 46620.605, -0.19082423, 0.024116, -165817.23, 79814.0, 0.000000020828322, 10.001388, 9.998026 
7.150209e+2, 2.8493336e+2, -95798.87, -343202.97, 3390.2324, -0.1453853, 0.053142942, -95752.42, 51898.17, 0.0000037854625, 10.001264, 9.99801 
7.1501684e+2, 2.949303e+2, 49167.96, -231546.23, 16074.966, 0.12586807, -0.09335243, 50085.484, 99766.07, 0.000035842306, 10.001614, 9.997932 
7.150103e+2, 3.0492827e+2, 125946.04, -201878.03, -2206.424, 0.14480433, -0.06302602, 125960.89, 125960.89, 0.000135526, 10.001961, 9.997637 
7.150023e+2, 3.1492907e+2, 262123.95, 128662.76, 130755.66, -0.0023568815, 0.20598772, 342192.6, 342192.6, 0.00031586387, 10.001668, 10.000054 
7.2512525e+2, 1.2495032e+2, -1755698.4, -1701795.0, 28353.74, 0.14312238, -0.111994855, -1689627.3, 25844.82, 0.0, 9.999466, 10.000352 
7.2511584e+2, 1.3495103e+2, -1603488.6, -1612144.3, -63618.26, -0.008165877, -0.07431348, -1544051.1, 73414.555, 0.0, 10.000074, 9.999985 
7.251108e+2, 1.4495027e+2, -1451989.6, -1483599.6, 52540.77, 0.16274984, -0.13536334, -1412928.1, 106544.26, 0.0, 10.000389, 10.000035 
7.2510433e+2, 1.5495072e+2, -1321757.6, -1363633.3, 56429.027, 0.07918099, -0.13778993, -1282507.3, 138959.1, 0.0, 10.000591, 10.000085 
7.250976e+2, 1.6495089e+2, -1232085.8, -1281167.0, 37408.906, 0.03360595, -0.11802591, -1211886.4, 111577.13, 0.0, 10.000578, 9.999992 
7.2509134e+2, 1.749504e+2, -1177323.6, -1201948.4, 225.56447, 0.080294356, -0.20011121, -1177321.6, 48146.223, 0.0, 10.000284, 9.999995 
7.250848e+2, 1.8495025e+2, -1109857.3, -1166698.4, 20351.523, 0.08733045, -0.19004299, -1103321.9, 24148.06, 0.0, 10.000277, 9.999564 
7.250778e+2, 1.9495004e+2, -978803.1, -1052902.1, 6812.492, 0.036913455, -0.19945194, -978182.0, 51291.22, 0.0, 10.000507, 9.999562 
7.25072e+2, 2.0494969e+2, -848900.06, -982861.5, 54255.402, 0.05094268, -0.16432633, -829682.94, 101794.09, 0.0, 10.00093, 9.99917 
7.250674e+2, 2.1494879e+2, -665904.25, -847110.5, 34648.34, 0.13889046, -0.20149334, -659505.2, 173980.1, 0.0, 10.001515, 9.999146 
7.250614e+2, 2.2494772e+2, -614575.8, -886303.4, 24113.717, 0.13747582, -0.16614813, -612452.5, 123045.62, 0.0, 10.001685, 9.998124 
7.250542e+2, 2.3494616e+2, -555565.1, -810785.56, 27043.75, 0.054610934, -0.16373499, -552731.0, 84787.58, 0.0, 10.001432, 9.998095 
7.250483e+2, 2.4494523e+2, -424256.78, -602787.5, 98342.73, 0.030701645, -0.10225072, -380708.0, 158821.0, 0.0, 10.001268, 9.998914 
7.250435e+2, 2.5494456e+2, -319168.16, -504095.25, 72331.26, 0.05311603, -0.09464419, -294237.84, 147294.69, 0.0, 10.001318, 9.9988985 
7.2503704e+2, 2.6494336e+2, -280726.6, -540165.9, 16781.91, -0.010214729, -0.053396493, -279645.53, 63898.742, 0.0, 10.001375, 9.997949 
7.250289e+2, 2.749412e+2, -162815.67, -437217.66, 7332.1016, -0.13767977, -0.09600486, -162619.89, 82947.97, 0.000000011844985, 10.001512, 9.997925 
7.250228e+2, 2.8493935e+2, -32710.723, -307905.22, 49196.836, -0.09301033, -0.0712106, -24180.18, 123406.76, 0.000004675658, 10.001693, 9.998038 
7.250183e+2, 2.9493752e+2, 98598.65, -203179.75, 36913.453, 0.1080918, -0.09954232, 103048.28, 152652.78, 0.000040333267, 10.001941, 9.997966 
7.250115e+2, 3.0493462e+2, 158648.97, -207174.63, 49577.816, 0.070808694, -0.1485641, 165248.88, 165248.88, 0.00014552829, 10.002286, 9.997453 
7.2500557e+2, 3.1493518e+2, 338054.47, 115912.47, 92809.13, 0.13103886, 0.1159965, 371725.66, 371725.66, 0.00033116215, 10.002411, 9.999611 
7.351239e+2, 1.2495665e+2, -1783547.5, -1759051.3, 31308.508, -0.009143433, -0.12338257, -1737680.4, -22270.068, 0.0, 9.9994755, 9.999946 
7.3511636e+2, 1.3495634e+2, -1612424.4, -1631365.1, -34932.7, 0.0014678981, -0.17845777, -1585701.0, 31713.041, 0.0, 10.000066, 9.999861 
7.351109e+2, 1.4495572e+2, -1416774.0, -1384471.1, 40842.285, 0.093990974, -0.25902948, -1356702.6, 162716.28, 0.0, 10.000289, 10.000753 
7.351043e+2, 1.5495782e+2, -1281022.4, -1274173.3, 82549.984, -0.016587606, -0.17000675, -1194976.8, 226418.5, 0.0, 10.00057, 10.000708 
7.3509747e+2, 1.6495834e+2, -1268246.3, -1350133.0, 9122.827, -0.07106926, -0.120143585, -1267242.1, 56147.37, 0.0, 10.000553, 9.999528 
7.3509103e+2, 1.7495702e+2, -1220580.1, -1276352.8, 6903.358, -0.014678525, -0.23992974, -1219738.4, 5666.436, 0.0, 10.000215, 9.999521 
7.350849e+2, 1.8495682e+2, -1127414.6, -1171143.3, 15631.003, 0.039094284, -0.21006216, -1122401.9, 5007.1455, 0.0, 10.000146, 9.999592 
7.35079e+2, 1.949574e+2, -998699.3, -1059472.1, 29098.453, 0.069939084, -0.14334528, -987013.75, 42391.43, 0.0, 10.000369, 9.999577 
7.3507303e+2, 2.0495757e+2, -878703.1, -1013276.4, 59875.98, 0.03614589, -0.04946966, -855919.7, 75485.164, 0.0, 10.00079, 9.99903 
7.3506707e+2, 2.1495698e+2, -704124.2, -876700.94, 71925.85, -0.0690271, -0.045830958, -678078.2, 155333.13, 0.0, 10.001305, 9.999041 
7.350617e+2, 2.2495584e+2, -612940.9, -832607.0, -836.33044, -0.028503073, -0.034267023, -612937.7, 122485.61, 0.0, 10.00147, 9.998595 
7.350568e+2, 2.3495384e+2, -553569.1, -754493.0, 33855.336, 0.15083387, -0.12621237, -548017.94, 89426.26, 0.0, 10.001218, 9.998579 
7.3505086e+2, 2.4495272e+2, -461104.0, -655715.1, 85631.74, 0.12815104, -0.0911587, -428790.25, 110664.75, 0.0, 10.00116, 9.998604 
7.3504347e+2, 2.5495213e+2, -367344.53, -563538.3, 88894.52, -0.108019836, -0.046977665, -333058.53, 108400.75, 0.0, 10.0011425, 9.998575 
7.350372e+2, 2.6495028e+2, -283630.97, -518882.13, 9518.614, -0.15694128, -0.060652547, -283246.47, 60229.277, 0.0, 10.001257, 9.99815 
7.3503214e+2, 2.7494678e+2, -165727.34, -418283.56, 34469.086, 0.0013642256, -0.26074582, -161107.48, 84401.44, 0.000000051096855, 10.001407, 9.998105 
7.350263e+2, 2.849453e+2, -12605.512, -271812.03, 43628.684, 0.049555127, -0.22152904, -5459.1206, 142062.55, 0.0000058850314, 10.001703, 9.998284 
7.3501915e+2, 2.9494554e+2, 102623.85, -178852.33, 68597.58, -0.05173921, -0.06912713, 118451.52, 167968.95, 0.000044056193, 10.0018635, 9.998175 
7.35011e+2, 3.049416e+2, 125647.71, -271221.16, 48151.633, -0.24312381, -0.21271439, 131406.33, 131406.33, 0.00015023243, 10.002264, 9.997021 
7.3500735e+2, 3.1493944e+2, 207551.14, -128710.62, 125715.516, -0.008895216, -0.17195365, 249354.5, 249354.5, 0.0003329124, 10.002295, 9.997985 
7.451239e+2, 1.2496347e+2, -1671993.3, -1718519.4, 137488.13, 0.019332383, -0.1652335, -1555814.0, 159526.94, 0.0, 10.000322, 9.999791 
7.45117e+2, 1.349635e+2, -1669334.6, -1639867.9, 20582.477, 0.098640405, -0.20180875, -1629289.0, -11947.459, 0.0, 9.999617, 10.000004 
7.4511063e+2, 1.4496313e+2, -1579361.8, -1468215.8, 126882.47, 0.10830217, -0.26350242, -1385269.8, 134074.81, 0.0, 9.999197, 10.000698 
7.451042e+2, 1.5496473e+2, -1465048.4, -1362525.4, 73881.34, -0.012519172, -0.2197324, -1323863.6, 97462.91, 0.0, 9.999322, 10.000688 
7.450975e+2, 1.649654e+2, -1391294.6, -1402522.9, 27740.627, -0.0673415, -0.15995671, -1368605.8, -45285.63, 0.0, 9.999685, 9.999584 
7.450913e+2, 1.7496474e+2, -1197905.6, -1254770.0, 32669.076, -0.0012329972, -0.22073139, -1183028.9, 42300.53, 0.0, 10.000325, 9.999613 
7.4508554e+2, 1.8496466e+2, -1023647.44, -1150007.4, 93658.61, 0.05954704, -0.16965637, -973851.1, 153481.44, 0.0, 10.000972, 9.999348 
7.450801e+2, 1.949648e+2, -840676.5, -1015911.8, 60717.348, 0.098101944, -0.12214477, -821694.7, 207638.73, 0.0, 10.001576, 9.999304 
7.4507445e+2, 2.0496473e+2, -779445.2, -975444.94, 94503.99, 0.07419704, -0.036367796, -741301.8, 190034.13, 0.0, 10.001508, 9.99893 
7.4506855e+2, 2.1496408e+2, -789215.6, -932869.75, 74064.85, -0.014263667, -0.025971772, -757869.4, 75474.11, 0.0, 10.000775, 9.998907 
7.450632e+2, 2.2496298e+2, -699943.06, -861356.8, 33316.28, 0.012457022, -0.0110007515, -693336.8, 42018.203, 0.0, 10.000821, 9.998701 
7.450581e+2, 2.3496106e+2, -485426.4, -714844.4, 6834.625, 0.14816211, -0.10744936, -485222.97, 152151.27, 0.0, 10.001634, 9.998656 
7.4505216e+2, 2.4495992e+2, -374711.7, -613994.8, 69339.836, 0.12569802, -0.0790067, -356070.53, 183314.5, 0.0, 10.00175, 9.998613 
7.450452e+2, 2.5495926e+2, -337187.25, -545486.25, 63580.65, -0.055893563, -0.04192205, -319313.72, 122076.57, 0.0, 10.001329, 9.998612 
7.450391e+2, 2.6495728e+2, -264567.06, -496775.78, 44354.504, -0.0867092, -0.07617563, -256383.27, 87023.92, 0.0, 10.001338, 9.998261 
7.450342e+2, 2.7495363e+2, -102398.875, -366623.03, 30183.924, 0.058970984, -0.30070263, -98994.65, 146444.56, 0.00000017449423, 10.001778, 9.998268 
7.450286e+2, 2.84952e+2, 27941.295, -288016.4, 46104.516, 0.09750898, -0.26634324, 34531.406, 181984.33, 0.0000070145306, 10.002145, 9.99796 
7.450219e+2, 2.949521e+2, 175968.92, -172712.23, -6925.611, 0.012286712, -0.09964272, 176106.42, 225558.23, 0.00004543542, 10.002495, 9.997913 
7.450132e+2, 3.049485e+2, 212770.92, -219213.94, 4426.653, -0.26703787, -0.20037544, 212816.28, 212816.28, 0.00014809403, 10.002816, 9.997108 
7.450093e+2, 3.1494504e+2, 221357.73, -173329.17, 31649.809, -0.04605004, -0.29830167, 223879.61, 223879.61, 0.00032280377, 10.00262, 9.997508 
7.5512445e+2, 1.2497051e+2, -1671540.4, -1703490.6, 53519.285, -0.035729, -0.27567986, -1631662.9, 83604.09, 0.0, 10.000263, 9.999924 
7.551175e+2, 1.3497236e+2, -1641850.0, -1590557.0, 5390.7363, 0.14728642, -0.16456391, -1589996.5, 27253.01, 0.0, 9.99964, 10.000337 
7.5510985e+2, 1.4497241e+2, -1637577.4, -1582587.9, 110157.39, 0.068132244, -0.16019258, -1496545.8, 22704.23, 0.0, 9.999177, 9.999922 
7.5510347e+2, 1.5497169e+2, -1526314.6, -1478492.0, 92199.99, -0.058338918, -0.26719385, -1407153.1, 14104.8125, 0.0, 9.999279, 9.999915 
7.550972e+2, 1.6497211e+2, -1353583.5, -1313823.5, 32464.535, -0.099096894, -0.22729847, -1295635.6, 27619.262, 0.0, 9.999637, 10.000218 
7.550918e+2, 1.7497347e+2, -1163110.3, -1171077.6, 70752.73, -0.0198209, -0.1425321, -1096229.1, 129013.31, 0.0, 10.0002775, 10.000211 
7.5508636e+2, 1.849737e+2, -1066320.0, -1218149.1, 97943.19, 0.014530296, -0.07049147, -1018315.6, 108926.06, 0.0, 10.000882, 9.998926 
7.5508094e+2, 1.949723e+2, -889896.56, -1082499.1, 98621.57, -0.01159645, -0.1336696, -848356.8, 180900.33, 0.0, 10.001429, 9.998918 
7.5507593e+2, 2.0497122e+2, -815591.3, -1009922.44, 51485.188, 0.03973882, -0.120943524, -802793.8, 128475.61, 0.0, 10.0013275, 9.998787 
7.550714e+2, 2.149702e+2, -831150.94, -964614.7, 60774.723, 0.16602534, -0.13594212, -807623.7, 25657.396, 0.0, 10.000549, 9.9987955 
7.5506544e+2, 2.2496924e+2, -744377.2, -912058.6, 49890.84, 0.12959696, -0.08725272, -730655.8, 4636.523, 0.0, 10.000639, 9.9984455 
7.5505775e+2, 2.3496802e+2, -535796.5, -767106.75, 54088.598, -0.08000238, -0.08579172, -523773.6, 113533.164, 0.0, 10.001414, 9.998403 
7.5505185e+2, 2.4496706e+2, -375489.47, -582640.3, 39020.633, -0.1036217, -0.040583383, -368383.0, 170933.45, 0.0, 10.001605, 9.998898 
7.550479e+2, 2.549659e+2, -336208.97, -514880.94, 63006.715, 0.05728553, -0.0798223, -316225.4, 125100.4, 0.0, 10.001206, 9.998881 
7.550422e+2, 2.6496428e+2, -267610.94, -489057.6, 45842.91, 0.055678897, -0.097262315, -258495.94, 84842.86, 0.0, 10.001279, 9.998343 
7.5503474e+2, 2.7496186e+2, -117165.66, -368152.2, 64532.418, -0.104147114, -0.20915668, -101545.516, 143812.95, 0.0000002213921, 10.00165, 9.998321 
7.550294e+2, 2.849596e+2, -45593.21, -426113.25, 46007.164, -0.07009772, -0.19478558, -40109.69, 107270.49, 0.000006961638, 10.002075, 9.997049 
7.550259e+2, 2.949572e+2, 104159.664, -306386.06, 30704.814, 0.12600264, -0.18414013, 106443.38, 155851.27, 0.00004401986, 10.002417, 9.99704 
7.5501734e+2, 3.0495512e+2, 245726.81, -128589.09, -9092.789, -0.16280028, -0.12157881, 245947.56, 245947.56, 0.0001416952, 10.002742, 9.997753 
7.550102e+2, 3.1495318e+2, 243351.4, -92470.48, 25932.645, -0.29517537, -0.13366106, 245342.16, 245342.16, 0.0003069929, 10.002485, 9.998118 
7.651249e+2, 1.2497766e+2, -1871054.6, -1794561.9, 15455.289, 0.077886395, -0.28136688, -1791557.1, -76360.36, 0.00000000032551553, 9.998816, 10.000011 
7.651179e+2, 1.349795e+2, -1503682.8, -1512427.5, -88280.22, 0.19124849, -0.18429051, -1419666.8, 197512.39, 0.0, 10.000521, 10.00045 
7.651096e+2, 1.4497995e+2, -1426320.1, -1527325.5, 41545.08, 0.05569811, -0.12769382, -1411427.8, 107748.52, 0.0, 10.000797, 9.999536 
7.6510364e+2, 1.5497883e+2, -1421232.1, -1471122.3, 23256.803, 0.0038718034, -0.24120429, -1412072.5, 9117.3, 0.0, 10.000157, 9.9995575 
7.6509774e+2, 1.6497895e+2, -1299604.9, -1300028.1, 21867.533, -0.024314197, -0.20510115, -1277948.0, 45241.742, 0.0, 10.0000725, 10.000094 
7.650923e+2, 1.7498016e+2, -1136760.0, -1173079.5, -25789.629, 0.0016157078, -0.12646127, -1123378.0, 101800.375, 0.0, 10.000525, 10.000073 
7.6508707e+2, 1.8498023e+2, -1098590.4, -1213374.8, 10083.365, 0.020141976, -0.07332347, -1097711.3, 29466.854, 0.0, 10.000584, 9.999094 
7.650819e+2, 1.9497868e+2, -1052195.0, -1145240.0, 20598.703, 0.015782496, -0.16789599, -1047838.75, -18644.998, 0.0, 10.00024, 9.999062 
7.6507705e+2, 2.0497766e+2, -950291.44, -1060645.5, 27661.346, 0.07545589, -0.16361421, -943746.06, -12541.023, 0.0, 10.000355, 9.998906 
7.650724e+2, 2.1497674e+2, -766010.2, -926251.56, 28039.137, 0.19471572, -0.17662266, -761245.56, 71970.15, 0.0, 10.00095, 9.998877 
7.650664e+2, 2.2497596e+2, -670872.75, -866182.4, 78954.266, 0.14999068, -0.12129935, -642948.0, 92277.36, 0.0, 10.001113, 9.998529 
7.650589e+2, 2.3497498e+2, -606074.94, -787354.3, 75371.484, -0.067401186, -0.10283817, -578831.56, 58405.023, 0.0, 10.00089, 9.998507 
7.650533e+2, 2.4497399e+2, -481485.16, -655409.0, 73718.57, -0.084485196, -0.056642715, -454443.56, 84803.75, 0.0, 10.000968, 9.998706 
7.650495e+2, 2.5497267e+2, -339908.75, -538528.94, 35695.473, 0.1008666, -0.0945341, -333688.47, 107572.09, 0.0, 10.001275, 9.998687 
7.6504385e+2, 2.649713e+2, -219839.22, -456505.3, 44025.965, 0.092360504, -0.079295196, -211914.61, 131357.53, 0.0, 10.00157, 9.998428 
7.6503646e+2, 2.7496958e+2, -83021.65, -342559.7, 27700.986, -0.097609736, -0.12700486, -80098.01, 165187.05, 0.00000016204108, 10.001845, 9.998407 
7.6503146e+2, 2.8496733e+2, -43913.03, -432180.5, 76326.836, -0.06420207, -0.11211308, -29447.408, 117860.02, 0.000006290961, 10.002116, 9.996981 
7.650288e+2, 2.9496434e+2, 83524.086, -313401.75, 91424.59, 0.17956428, -0.15417123, 103569.72, 152911.52, 0.000041719115, 10.002293, 9.997028 
7.650205e+2, 3.0496272e+2, 240743.0, -108153.61, 87760.53, -0.09860085, -0.0624829, 261574.3, 261574.3, 0.00013461517, 10.002593, 9.997978 
7.650126e+2, 3.14961e+2, 277577.94, 1780.3456, 4438.3203, -0.27982777, -0.072416425, 277649.34, 277649.34, 0.00029005748, 10.002363, 9.998845 
7.751245e+2, 1.2498496e+2, -1871916.4, -1781381.1, -18179.68, 0.06405652, -0.18698475, -1777867.0, -62737.176, 0.0000000023621072, 9.99876, 10.000132 
7.7511764e+2, 1.3498498e+2, -1517367.8, -1534067.1, -19112.521, 0.07847469, -0.2523394, -1504860.6, 112268.85, 0.0, 10.000498, 10.000315 
7.7510935e+2, 1.4498575e+2, -1413427.5, -1495245.9, -5128.7134, -0.09387339, -0.16912928, -1413107.3, 106015.61, 0.0, 10.00077, 9.99977 
7.751044e+2, 1.549862e+2, -1408718.5, -1443709.0, 17335.31, 0.027265288, -0.14164378, -1401584.6, 19536.0, 0.0, 10.000151, 9.999748 
7.750986e+2, 1.6498609e+2, -1365792.6, -1424483.5, 21515.871, 0.02490718, -0.09869807, -1358750.1, -35626.883, 0.0, 10.000022, 9.999265 
7.750925e+2, 1.7498498e+2, -1200767.9, -1291445.3, 9830.789, -0.06881439, -0.17009221, -1199714.4, 25420.666, 0.0, 10.00047, 9.999286 
7.7508724e+2, 1.8498442e+2, -1064260.4, -1120743.6, -16264.44, -0.05853254, -0.17258584, -1059911.8, 67228.195, 0.0, 10.00048, 9.999789 
7.7508277e+2, 1.9498415e+2, -1023150.75, -1053427.8, 23672.344, 0.0410294, -0.20896022, -1010190.25, 18950.896, 0.0, 10.0001, 9.9997635 
7.7507734e+2, 2.0498411e+2, -953216.1, -1021044.6, 33884.117, 0.041163784, -0.15850574, -939189.7, -8047.8857, 0.0, 10.000163, 9.999269 
7.750711e+2, 2.1498396e+2, -772985.06, -887657.6, 63645.832, -0.053021174, -0.1335839, -744657.8, 88487.69, 0.0, 10.000732, 9.999242 
7.750657e+2, 2.2498329e+2, -674454.94, -827778.56, 53421.023, -0.051632386, -0.0983492, -657677.8, 77474.27, 0.0, 10.000911, 9.998897 
7.7506113e+2, 2.349818e+2, -605371.94, -746309.1, 81239.2, 0.04063081, -0.1680407, -568296.94, 68868.19, 0.0, 10.000714, 9.998878 
7.7505577e+2, 2.4498063e+2, -547853.44, -754240.06, 69742.625, 0.042044744, -0.12776406, -526495.94, 12682.35, 0.0, 10.000808, 9.998103 
7.7504957e+2, 2.5497955e+2, -407925.72, -636842.0, 63847.24, -0.052982293, -0.080511816, -391322.28, 49871.57, 0.0, 10.001099, 9.998095 
7.7504396e+2, 2.6497838e+2, -232235.53, -459695.28, 40362.332, -0.09138666, -0.018182099, -225285.66, 117920.77, 0.0, 10.0014715, 9.998457 
7.750389e+2, 2.749766e+2, -95607.23, -345626.9, 54872.098, -0.07462302, -0.06951186, -84094.516, 161126.36, 0.00000014054619, 10.001742, 9.998441 
7.750342e+2, 2.8497508e+2, -1145.8491, -320408.63, 68921.25, -0.036317028, -0.03285374, 13097.198, 160333.72, 0.0000059856334, 10.002024, 9.997787 
7.7502984e+2, 2.9497346e+2, 125355.82, -209602.66, 119770.98, 0.014386444, -0.019995717, 163775.55, 213031.16, 0.0000396548, 10.002216, 9.997777 
7.750223e+2, 3.049712e+2, 224341.9, -123096.82, 72424.414, -0.20220682, -0.0199699, 238834.42, 238834.42, 0.00012692052, 10.002523, 9.997909 
7.750159e+2, 3.1496832e+2, 302947.97, 86686.875, 23812.336, -0.27569658, -0.13282263, 305538.9, 305538.9, 0.00027215088, 10.002224, 9.999501 
7.8512394e+2, 1.2499193e+2, -1884428.1, -1751946.3, 45381.63, 0.16822977, -0.13247797, -1737891.8, -22827.424, 0.0000000040597263, 9.998567, 10.0004015 
7.8511757e+2, 1.349913e+2, -1718511.8, -1626316.1, 25074.264, 0.104039155, -0.2657925, -1619938.0, -2869.1306, 0.0, 9.99913, 10.00032 
7.851097e+2, 1.4499205e+2, -1576203.3, -1578177.8, 34289.25, -0.07772628, -0.18373948, -1542887.0, -23824.838, 0.0, 9.999683, 9.99972 
7.851052e+2, 1.5499292e+2, -1370337.1, -1432751.5, 308.59937, 0.08762932, -0.106025025, -1370335.6, 50720.895, 0.0, 10.000459, 9.999672 
7.850998e+2, 1.6499268e+2, -1264755.5, -1400655.0, 56078.418, 0.107130855, -0.059656397, -1244603.3, 78457.21, 0.0, 10.000815, 9.9990425 
7.8509367e+2, 1.7499097e+2, -1193813.9, -1312986.8, 51040.48, 0.004052566, -0.16862741, -1174942.1, 50135.633, 0.0, 10.000628, 9.999057 
7.85088e+2, 1.8499032e+2, -1068365.4, -1118214.8, 35539.055, -0.012836441, -0.17269404, -1049882.0, 77202.266, 0.0, 10.000441, 9.999819 
7.8508276e+2, 1.9499038e+2, -1021315.9, -1045996.9, -4108.4106, 0.042963516, -0.17782348, -1020650.0, 8433.01, 0.0, 10.000104, 9.999801 
7.850773e+2, 2.0499055e+2, -950377.4, -998886.4, 37035.75, 0.030897126, -0.118495926, -930360.8, 720.66895, 0.0, 10.00008, 9.999468 
7.850716e+2, 2.1499047e+2, -831212.6, -891695.9, 25161.248, -0.042562727, -0.10460554, -822114.1, 10968.948, 0.0, 10.000229, 9.999459 
7.8506684e+2, 2.2498976e+2, -683966.9, -830880.94, 29275.36, -0.021651018, -0.08723625, -678348.1, 56741.223, 0.0, 10.000834, 9.998909 
7.8506285e+2, 2.3498811e+2, -439814.4, -667438.44, 283.22598, 0.08810568, -0.17430648, -439814.06, 197289.7, 0.0, 10.001852, 9.998874 
7.8505737e+2, 2.4498694e+2, -412638.47, -692612.7, -5590.71, 0.07906586, -0.13133684, -412526.88, 126589.95, 0.0, 10.001759, 9.998061 
7.850503e+2, 2.5498593e+2, -490104.6, -683187.56, -3183.127, -0.052257795, -0.07136034, -490052.13, -48920.527, 0.0, 10.000555, 9.998037 
7.8504497e+2, 2.6498464e+2, -351550.84, -535477.4, 69033.625, -0.08688547, -0.010590023, -328523.3, 14622.763, 0.0, 10.000737, 9.998287 
7.850414e+2, 2.7498263e+2, -25036.799, -329574.8, 37743.535, -0.015164101, -0.07208007, -20428.703, 224735.72, 0.0000001311964, 10.002309, 9.998273 
7.850367e+2, 2.8498122e+2, 99815.44, -252733.53, 4346.966, -0.009269828, -0.01809203, 99869.03, 247047.72, 0.0000058891046, 10.002633, 9.997967 
7.8503096e+2, 2.9498035e+2, 41489.215, -235206.11, -27733.928, -0.05723439, 0.056848288, 44241.68, 93431.38, 0.000037489564, 10.001567, 9.997926 
7.8502464e+2, 3.049775e+2, 152042.27, -154808.55, -8701.224, -0.18187043, -0.013701055, 152288.8, 152288.8, 0.00011865352, 10.001992, 9.997949 
7.8502035e+2, 3.1497496e+2, 507451.66, 200073.17, -127659.61, -0.09876135, -0.1059452, 553555.75, 553555.75, 0.00025448482, 10.003551, 9.999638 
7.951224e+2, 1.24999166e+2, -1843023.1, -1699210.9, -14459.574, 0.06376612, -0.08394671, -1697771.5, 17223.1, 0.0000000034592607, 9.998689, 10.000715 
7.9511714e+2, 1.349985e+2, -1696871.3, -1603218.0, 53977.477, 0.10423504, -0.23252681, -1578586.3, 38410.785, 0.0, 9.99921, 10.000443 
7.9511005e+2, 1.4499885e+2, -1609410.8, -1637917.8, 38864.125, -0.0524342, -0.1763863, -1582268.8, -63274.813, 0.0, 9.999653, 9.999319 
7.9510564e+2, 1.5499896e+2, -1398659.5, -1484892.6, 46841.156, 0.04135437, -0.1413088, -1378111.9, 42885.56, 0.0, 10.000438, 9.999318 
7.951007e+2, 1.6499881e+2, -1245282.9, -1354045.8, 31486.432, 0.076728076, -0.08622669, -1236825.4, 86175.55, 0.0, 10.000777, 9.999388 
7.950954e+2, 1.7499815e+2, -1169012.3, -1263892.8, 58351.844, 0.073428564, -0.123298876, -1141249.4, 83757.42, 0.0, 10.000626, 9.999399 
7.9508907e+2, 1.849978e+2, -1133674.9, -1224425.1, 6424.1826, 0.013036913, -0.08066452, -1133222.4, -6210.56, 0.0, 10.000321, 9.999144 
7.9508156e+2, 1.9499733e+2, -1081917.5, -1144970.6, -2721.3018, -0.12308764, -0.0781114, -1081800.3, -52780.246, 0.0, 9.999994, 9.999169 
7.950764e+2, 2.0499694e+2, -967350.0, -995175.1, 25320.148, -0.09470012, -0.047672234, -952371.94, -21347.586, 0.0, 9.999913, 9.999574 
7.950734e+2, 2.1499626e+2, -852498.0, -892425.94, 45627.426, 0.08737068, -0.10543959, -822658.2, 10370.667, 0.0, 10.00004, 9.999545 
7.9506916e+2, 2.2499537e+2, -740390.2, -898049.94, 54894.426, 0.103441246, -0.09339469, -723159.94, 11876.846, 0.0, 10.00062, 9.998551 
7.9506356e+2, 2.3499398e+2, -490580.2, -732011.3, 56351.98, -0.054575328, -0.11779205, -478074.9, 158976.33, 0.0, 10.001672, 9.998519 
7.9505754e+2, 2.4499293e+2, -402919.6, -633852.56, -66088.74, -0.1058955, -0.07099587, -385343.88, 153718.48, 0.0, 10.001596, 9.998543 
7.9505116e+2, 2.5499177e+2, -480301.63, -627753.75, -32656.678, -0.051991567, -0.07120202, -473392.78, -32318.564, 0.0, 10.000404, 9.998492 
7.9504645e+2, 2.6499012e+2, -383399.1, -586219.1, 114761.92, -0.040729027, -0.055366363, -331661.16, 11429.723, 0.0, 10.000664, 9.997974 
7.950435e+2, 2.749876e+2, -63701.664, -389413.66, 118864.53, -0.06635621, -0.13223605, -24937.098, 220178.23, 0.000000103459534, 10.002215, 9.997909 
7.950386e+2, 2.8498602e+2, 58985.816, -322481.25, -48803.44, -0.11635861, -0.056169946, 65130.563, 212263.06, 0.0000054454867, 10.002568, 9.997519 
7.9503137e+2, 2.9498512e+2, -5568.219, -308203.72, -44009.88, -0.21478704, 0.06067216, 701.8816, 49846.035, 0.00003447301, 10.001457, 9.997479 
7.9502684e+2, 3.0498174e+2, 150439.92, -140732.42, 47028.633, -0.19640358, -0.047598314, 157847.3, 157847.3, 0.0001104858, 10.001917, 9.998078 
7.9502535e+2, 3.1497926e+2, 448467.5, 109626.39, -25924.857, -0.032769497, -0.14940795, 450439.56, 450439.56, 0.000240168, 10.00341, 9.999083 
8.0512166e+2, 1.250043e+2, -1770555.3, -1647896.4, -111635.69, 0.11816313, -0.05839666, -1581853.0, 133095.84, 0.0000000057252847, 9.999133, 10.000867 
8.051172e+2, 1.3500415e+2, -1586091.4, -1561746.8, -91647.055, 0.16224606, -0.1441423, -1481467.3, 135478.84, 0.0, 10.0000105, 10.000366 
8.051106e+2, 1.4500427e+2, -1548129.1, -1590608.0, -73888.06, 0.034007214, -0.11255696, -1492488.4, 26456.176, 0.0, 10.000007, 9.999471 
8.051054e+2, 1.5500401e+2, -1534405.6, -1540726.1, -72187.76, 0.036838662, -0.12678613, -1465309.0, -44358.313, 0.0, 9.999459, 9.999412 
8.0510044e+2, 1.6500391e+2, -1408461.1, -1402102.6, -31730.168, 0.050145224, -0.084023565, -1373392.9, -50439.566, 0.0, 9.999551, 9.999648 
8.0509603e+2, 1.7500375e+2, -1196885.1, -1253743.4, -46972.215, 0.096399486, -0.089155495, -1170408.9, 54545.22, 0.0, 10.000346, 9.999611 
8.050898e+2, 1.850037e+2, -1111562.5, -1226382.6, -83301.336, 0.051353365, -0.020952694, -1067804.3, 59152.727, 0.0, 10.000543, 9.999021 
8.0508167e+2, 1.9500333e+2, -1088892.5, -1169812.3, -90101.29, -0.10267556, 0.009758221, -1030583.75, -1618.0302, 0.0, 10.000044, 9.998983 
8.050766e+2, 2.050028e+2, -911538.5, -969476.2, 14844.924, -0.0719451, 0.036094375, -907956.4, 23015.395, 0.0, 10.0003, 9.999566 
8.0507445e+2, 2.1500173e+2, -684221.6, -811593.7, -7766.7397, 0.14314382, -0.05737483, -683749.8, 149228.98, 0.0, 10.001202, 9.999537 
8.050704e+2, 2.2500072e+2, -649824.94, -853578.94, 23160.844, 0.14024244, -0.058678426, -647225.44, 87762.016, 0.0, 10.001242, 9.998549 
8.050641e+2, 2.3499945e+2, -684749.44, -823779.44, 21186.943, -0.089807816, -0.071055934, -681592.44, -44591.95, 0.0, 10.000343, 9.998519 
8.0505824e+2, 2.4499837e+2, -514307.5, -691808.25, -66311.09, -0.14877777, -0.02531651, -492270.75, 46740.48, 0.0, 10.000831, 9.998523 
8.0505294e+2, 2.5499704e+2, -152488.52, -471122.1, -100521.87, -0.024266714, -0.041748807, -123426.74, 317596.88, 0.0, 10.002653, 9.998492 
8.0504864e+2, 2.6499522e+2, -94063.59, -486448.88, 47344.844, 0.011506886, -0.02739862, -88431.836, 254610.4, 0.0, 10.002807, 9.997639 
8.0504555e+2, 2.7499247e+2, -219175.55, -498395.47, 22013.648, -0.029411783, -0.09954897, -217450.64, 27619.926, 0.00000004701224, 10.001272, 9.997623 
8.050406e+2, 2.8499055e+2, -121663.02, -389962.28, -77122.28, -0.09257517, -0.05183639, -101074.266, 46015.883, 0.000004093495, 10.001237, 9.997699 
8.050337e+2, 2.9498917e+2, 205875.98, -182212.06, -61167.33, -0.18422939, -0.0035471779, 215288.4, 264392.16, 0.000029631305, 10.002809, 9.997693 
8.050302e+2, 3.049863e+2, 320558.63, -84697.25, 73922.41, -0.10504937, -0.058106735, 333621.7, 333621.7, 0.00010221737, 10.003195, 9.997864 
8.0502903e+2, 3.149844e+2, 187895.58, -88474.19, -69246.01, 0.08103141, -0.07563141, 204274.84, 204274.84, 0.00023173698, 10.00194, 9.998439 
8.151206e+2, 1.250078e+2, -1768038.5, -1664881.1, -138602.0, 0.023351273, -0.024163472, -1568571.8, 146350.69, 0.000000004999778, 9.999219, 10.000712 
8.151171e+2, 1.3500848e+2, -1597309.0, -1593833.1, -47110.766, 0.117875956, -0.0030882226, -1548428.3, 68484.875, 0.0, 10.000055, 10.00012 
8.151109e+2, 1.450086e+2, -1506083.5, -1511651.3, -114752.13, 0.012851443, 0.014157866, -1394081.5, 124829.35, 0.0, 10.000034, 10.000006 
8.151042e+2, 1.5500821e+2, -1490683.8, -1453902.5, -77142.38, -0.0758688, -0.064570114, -1392988.9, 27925.805, 0.0, 9.999475, 10.000002 
8.1509876e+2, 1.6500808e+2, -1412400.8, -1400540.8, -19177.514, -0.11267305, -0.05567291, -1386397.4, -63481.1, 0.0, 9.999509, 9.999677 
8.15095e+2, 1.7500786e+2, -1198706.0, -1244655.5, -667.7261, -0.06932296, -0.07749752, -1198696.3, 26222.406, 0.0, 10.000297, 9.999691 
8.150897e+2, 1.8500812e+2, -1104748.5, -1193821.1, -116391.84, -0.03887805, 0.0035380083, -1024663.25, 102255.29, 0.0, 10.000451, 9.999294 
8.150826e+2, 1.9500849e+2, -1083728.5, -1138506.0, -91560.336, -0.047437564, 0.08062709, -1015548.2, 13370.883, 0.0, 9.999946, 9.999247 
8.1507754e+2, 2.0500821e+2, -954821.8, -1017341.8, 32286.795, -0.033683725, 0.13228889, -941141.6, -10218.991, 0.0, 10.000119, 9.999326 
8.150745e+2, 2.1500696e+2, -727684.1, -854346.3, 42124.98, -0.0034522426, 0.03988928, -714953.8, 117978.51, 0.0, 10.000997, 9.999343 
8.1507003e+2, 2.2500585e+2, -656489.56, -814577.44, -28484.748, -0.043075178, 0.020867694, -651513.7, 83427.055, 0.0, 10.001018, 9.998926 
8.1506395e+2, 2.350045e+2, -689927.06, -783766.3, 1944.2606, -0.1658755, -0.03816458, -689886.8, -52934.902, 0.0, 10.000127, 9.998896 
8.15059e+2, 2.4500327e+2, -577493.06, -779855.56, -14020.152, -0.1853296, -0.00004548761, -576526.3, -37562.52, 0.0, 10.000646, 9.998009 
8.1505513e+2, 2.5500184e+2, -214581.5, -561285.94, -16272.243, -0.10004542, 0.024008889, -213819.45, 227160.13, 0.0, 10.002485, 9.997955 
8.150511e+2, 2.6499993e+2, -128763.836, -528123.1, -25319.822, -0.053525332, 0.07332495, -127164.93, 215835.3, 0.0, 10.002686, 9.997408 
8.1504685e+2, 2.7499717e+2, -266599.5, -549150.94, -16223.178, -0.05421652, 0.024374614, -265671.06, -20641.166, 0.000000004527389, 10.00108, 9.997365 
8.150423e+2, 2.8499475e+2, -76556.13, -280958.16, -32448.121, -0.083013736, -0.0042608017, -71528.76, 75523.14, 0.0000024308686, 10.001162, 9.9984865 
8.150374e+2, 2.9499257e+2, 234940.81, -90763.62, 22218.064, -0.1374076, -0.11371682, 236449.44, 285517.22, 0.00002455122, 10.002675, 9.998387 
8.150343e+2, 3.0499107e+2, 278706.75, -163014.77, 17157.545, -0.053941097, -0.03717806, 279372.2, 279372.2, 0.00009685274, 10.003166, 9.997333 
8.1503e+2, 3.1498995e+2, 110329.766, -196004.36, -43804.367, -0.09186526, 0.07457443, 116470.49, 116470.49, 0.00023260372, 10.001731, 9.997796 
8.2512045e+2, 1.2501183e+2, -1790806.0, -1669551.0, -41965.508, 0.10663645, -0.002495287, -1656443.9, 58442.617, 0.0000000017683296, 9.999029, 10.000767 
8.251166e+2, 1.3501255e+2, -1740173.5, -1667229.6, 16243.163, 0.12550548, 0.020106832, -1663776.1, -46899.754, 0.0, 9.99908, 10.000092 
8.251111e+2, 1.4501247e+2, -1585402.5, -1551218.6, -23647.953, 0.06973652, 0.018803257, -1539132.5, -20256.465, 0.0, 9.999501, 9.999987 
8.2510453e+2, 1.5501252e+2, -1330780.8, -1381105.3, -67727.13, -0.029262215, -0.01306702, -1283692.8, 137183.14, 0.0, 10.0006, 9.99995 
8.25099e+2, 1.650124e+2, -1253853.1, -1334325.8, -21284.488, -0.08125035, 0.0032330062, -1248570.4, 74307.164, 0.0, 10.000617, 9.999601 
8.2509494e+2, 1.7501183e+2, -1331875.4, -1324621.1, -45894.59, -0.058513034, -0.04799688, -1282210.5, -57326.617, 0.0, 9.99942, 9.999575 
8.250899e+2, 1.8501194e+2, -1213572.9, -1206935.9, -106864.36, -0.012454972, 0.0063803885, -1103338.5, 23545.324, 0.0, 9.999528, 9.999648 
8.2508373e+2, 1.9501233e+2, -919090.5, -1021603.06, -110169.266, 0.032944165, 0.051995624, -848837.6, 180043.56, 0.0, 10.000909, 9.999582 
8.250787e+2, 2.0501204e+2, -808790.0, -989137.1, 31483.78, 0.027605943, 0.10417964, -803451.75, 127432.53, 0.0, 10.001306, 9.998937 
8.250751e+2, 2.150108e+2, -803175.2, -938293.06, -6162.017, -0.023357082, 0.054618664, -802894.75, 30001.057, 0.0, 10.000679, 9.99892 
8.250707e+2, 2.2500965e+2, -691242.06, -816775.3, -68298.86, -0.052421, 0.044434488, -661248.9, 73656.35, 0.0, 10.000699, 9.99908 
8.250657e+2, 2.3500815e+2, -503825.22, -680142.06, -87567.36, -0.060671892, -0.04343824, -467726.06, 169190.61, 0.0, 10.0013275, 9.999043 
8.250611e+2, 2.4500674e+2, -464917.22, -746697.3, -32760.389, -0.070042096, -0.019871555, -461158.56, 77771.58, 0.0, 10.0015135, 9.997815 
8.250571e+2, 2.5500515e+2, -398452.53, -667916.56, -44013.23, -0.08106584, 0.0063718753, -391445.78, 49502.773, 0.0, 10.001311, 9.997784 
8.2505286e+2, 2.6500347e+2, -296315.8, -583083.75, -45598.06, -0.06986353, 0.074022196, -289240.0, 53727.47, 0.0, 10.001428, 9.997631 
8.2504845e+2, 2.7500126e+2, -142501.11, -460728.2, -35730.832, -0.029569773, 0.05469463, -138538.56, 106452.97, 0.0, 10.001817, 9.997607 
8.2504433e+2, 2.84999e+2, 41540.1, -206276.45, 26279.621, -0.024328317, 0.025510907, 44296.26, 191307.23, 0.000001518397, 10.001906, 9.998641 
8.250405e+2, 2.9499653e+2, 98501.14, -137291.17, -2084.9648, -0.032510266, -0.13006245, 98519.58, 147548.14, 0.000022026383, 10.001642, 9.998567 
8.2503784e+2, 3.049953e+2, 113104.23, -270673.7, 1443.6718, 0.054800738, -0.025438832, 113109.66, 113109.66, 0.00009707927, 10.002157, 9.99707 
8.250325e+2, 3.1499323e+2, 351136.0, -67975.33, -72961.875, -0.07559931, 0.008429092, 363474.47, 363474.47, 0.00024343749, 10.003316, 9.997904 
8.351197e+2, 1.2501687e+2, -1780587.6, -1639787.6, -81634.766, 0.061629675, 0.05036573, -1602389.8, 112446.91, 0.000000000051048894, 9.999, 10.000986 
8.351153e+2, 1.3501655e+2, -1704289.8, -1600702.5, 32817.8, 0.045002583, -0.066749014, -1591180.6, 25653.66, 0.0, 9.999123, 10.000524 
8.3511084e+2, 1.4501598e+2, -1638154.9, -1660688.0, -3102.9104, 0.04360078, -0.099063165, -1637735.4, -118896.18, 0.0, 9.999499, 9.999235 
8.35106e+2, 1.5501693e+2, -1380211.1, -1482360.6, -10833.449, 0.01311959, 0.024445828, -1379074.8, 41759.47, 0.0, 10.000594, 9.999254 
8.351007e+2, 1.6501686e+2, -1277682.3, -1363780.4, -83623.65, -0.0057180994, 0.089299135, -1226677.4, 96159.72, 0.0, 10.000533, 9.999442 
8.350952e+2, 1.7501578e+2, -1347876.4, -1346537.8, -73041.72, -0.0036454212, 0.0063347714, -1274162.3, -49313.906, 0.0, 9.999382, 9.999439 
8.350899e+2, 1.8501528e+2, -1198575.3, -1161418.0, -72338.39, 0.0031434197, -0.008940011, -1105310.6, 21541.168, 0.0, 9.999462, 9.999997 
8.350847e+2, 1.9501486e+2, -909899.25, -969095.44, -43401.22, -0.0013312818, -0.082797, -886964.4, 141887.66, 0.0, 10.000771, 10.000008 
8.3507985e+2, 2.0501436e+2, -876293.25, -1088468.3, -8996.495, -0.02266941, -0.04626899, -875912.44, 54944.09, 0.0, 10.0011215, 9.998347 
8.350756e+2, 2.1501341e+2, -871530.5, -1035504.75, -13247.2705, -0.06585044, -0.010115162, -870467.2, -37598.703, 0.0, 10.000487, 9.9983425 
8.350719e+2, 2.2501224e+2, -724534.2, -843530.25, -60721.71, -0.026365273, 0.011415288, -699019.6, 35860.145, 0.0, 10.000507, 9.998991 
8.350687e+2, 2.3501049e+2, -537422.75, -709227.94, -45942.113, 0.08257276, -0.09220927, -525909.0, 110984.86, 0.0, 10.001142, 9.998938 
8.350642e+2, 2.4500895e+2, -479520.97, -740261.44, -55183.406, 0.05281697, -0.084266074, -468322.84, 70586.11, 0.0, 10.00135, 9.997938 
8.3505833e+2, 2.5500718e+2, -412737.56, -665550.1, -33199.285, -0.11510954, -0.08976787, -408450.53, 32478.58, 0.0, 10.001166, 9.99787 
8.3505356e+2, 2.6500592e+2, -264485.38, -491793.34, -44540.977, -0.16789001, -0.01574433, -256069.19, 86873.88, 0.0, 10.001316, 9.998313 
8.350498e+2, 2.7500483e+2, -115115.96, -373018.78, -794.6556, -0.11324011, 0.009129864, -115113.51, 129841.086, 0.0, 10.001681, 9.998277 
8.350462e+2, 2.8500342e+2, 3072.062, -267006.06, 685.7809, -0.064567074, 0.04778909, 3073.8032, 150040.73, 0.0000012583888, 10.001826, 9.998262 
8.350426e+2, 2.9500124e+2, 46025.08, -210544.53, 7726.0684, -0.02853908, -0.03469164, 46257.523, 95242.016, 0.000022671806, 10.00149, 9.998141 
8.3504045e+2, 3.0499902e+2, 109829.66, -260264.92, 39396.902, 0.072510414, -0.01239277, 113977.016, 113977.016, 0.0001036696, 10.002089, 9.997171 
8.350354e+2, 3.1499624e+2, 373237.13, 27020.293, 52225.617, -0.19633363, -0.058157865, 380943.63, 380943.63, 0.00026239955, 10.003121, 9.998645 
8.4512e+2, 1.2502159e+2, -1752230.5, -1671602.8, 6099.9023, 0.18776305, 0.047483776, -1671143.9, 43643.875, 0.0, 9.999375, 10.000588 
8.451148e+2, 1.3502093e+2, -1584999.8, -1573116.3, -498.95767, 0.0500607, -0.08247958, -1573095.4, 43695.21, 0.0, 10.000069, 10.0002575 
8.451108e+2, 1.450201e+2, -1535536.5, -1625860.8, 11209.368, 0.06391587, -0.12121051, -1534166.1, -15367.414, 0.0, 10.000268, 9.999103 
8.451069e+2, 1.5502088e+2, -1423707.6, -1524467.6, 8771.377, 0.06214866, 0.002974057, -1422949.8, -2154.528, 0.0, 10.000382, 9.999075 
8.4510183e+2, 1.650209e+2, -1275587.0, -1365062.0, -43488.29, 0.054579448, 0.08710929, -1257933.3, 64864.22, 0.0, 10.000575, 9.999407 
8.450957e+2, 1.7502007e+2, -1161213.9, -1264218.6, -60254.71, 0.046139788, 0.035972793, -1133450.0, 91356.6, 0.0, 10.000709, 9.999363 
8.4509027e+2, 1.8501934e+2, -1017240.3, -1120690.9, -9737.324, 0.033476703, 0.02409767, -1016331.75, 110480.67, 0.0, 10.000915, 9.999569 
8.450855e+2, 1.9501828e+2, -888013.94, -1014136.0, -72078.164, 0.0032803866, -0.07239089, -855304.6, 173514.95, 0.0, 10.001152, 9.999518 
8.450811e+2, 2.0501737e+2, -833533.6, -1044090.5, -50662.152, -0.007344367, -0.06068394, -821977.94, 108849.24, 0.0, 10.001323, 9.998554 
8.450771e+2, 2.1501629e+2, -739501.25, -954152.25, -33228.69, 0.0017657963, -0.05380384, -734475.06, 98363.73, 0.0, 10.00132, 9.998502 
8.4507346e+2, 2.250152e+2, -617816.7, -810387.6, -4.152981, 0.04759082, -0.022031788, -617816.7, 117033.2, 0.0, 10.001338, 9.998805 
8.450703e+2, 2.350139e+2, -522390.88, -716819.6, -29823.096, 0.12622347, -0.06425435, -517919.2, 118943.33, 0.0, 10.00134, 9.998774 
8.450658e+2, 2.4501273e+2, -436896.97, -665264.8, -10746.136, 0.08823397, -0.0351158, -436392.4, 102481.89, 0.0, 10.001408, 9.99843 
8.4506017e+2, 2.5501126e+2, -332325.75, -566202.3, 6130.2305, -0.057919882, -0.060398508, -332165.2, 108724.445, 0.0, 10.001472, 9.998401 
8.450554e+2, 2.650099e+2, -221865.9, -462364.78, 32894.81, -0.121488035, -0.026344623, -217447.81, 125454.67, 0.0, 10.001557, 9.998399 
8.450516e+2, 2.750084e+2, -107453.73, -361932.3, -79.596634, -0.09606267, -0.049578916, -107453.7, 137462.58, 0.0000000050987805, 10.001681, 9.998363 
8.450481e+2, 2.8500712e+2, 18193.016, -307946.84, 11974.013, -0.052478164, 0.014577351, 18632.041, 165560.94, 0.0000017149706, 10.002127, 9.997831 
8.450451e+2, 2.9500553e+2, 208734.89, -168281.11, -21449.89, 0.017195953, 0.026342215, 209951.33, 258896.1, 0.0000255943, 10.002772, 9.9978 
8.450429e+2, 3.0500296e+2, 205807.52, -173207.36, 51363.13, 0.10151637, 0.011219617, 212644.78, 212644.78, 0.000114914044, 10.002551, 9.99756 
8.450383e+2, 3.149999e+2, 121389.37, -24896.305, 56400.35, -0.10245222, -0.09688278, 140609.27, 140609.27, 0.00028702893, 10.001045, 9.999305 
8.5512024e+2, 1.2502585e+2, -1840866.0, -1843773.5, 313.38864, 0.19488505, -0.044757485, -1840832.6, -126091.16, 0.0, 9.999341, 9.999417 
8.551145e+2, 1.3502575e+2, -1650752.5, -1698022.4, 33727.766, -0.020921951, -0.0270856, -1633202.8, -16458.666, 0.0, 10.000049, 9.9993925 
8.5511065e+2, 1.4502496e+2, -1503344.0, -1563771.6, -4852.463, -0.024084331, -0.044316888, -1502956.9, 15796.139, 0.0, 10.000273, 9.999539 
8.5510683e+2, 1.5502451e+2, -1390168.1, -1455077.4, 33462.492, -0.022825664, -0.08182267, -1376006.9, 44750.445, 0.0, 10.000382, 9.999552 
8.551019e+2, 1.6502458e+2, -1290085.1, -1382219.3, -56759.51, -0.030945195, -0.011536047, -1263050.8, 59707.016, 0.0, 10.000518, 9.999318 
8.5509574e+2, 1.750247e+2, -1168413.5, -1270263.4, -40857.535, -0.046885245, 0.035411447, -1154049.3, 70709.53, 0.0, 10.000675, 9.999334 
8.550905e+2, 1.8502419e+2, -1114687.6, -1307734.8, -16405.652, -0.06748154, 0.10648752, -1113303.4, 13462.378, 0.0, 10.0008335, 9.998332 
8.5508597e+2, 1.9502272e+2, -984321.4, -1196061.1, -47381.348, -0.10135671, 0.0927788, -974202.4, 54579.71, 0.0, 10.001065, 9.998314 
8.550822e+2, 2.0502128e+2, -798071.06, -933549.25, -67261.15, -0.059678424, 0.07016773, -770350.0, 160444.42, 0.0, 10.001163, 9.999395 
8.550791e+2, 2.1501943e+2, -707884.1, -837877.94, -17231.459, 0.045802377, -0.08573015, -705638.75, 127168.375, 0.0, 10.001106, 9.999402 
8.55075e+2, 2.2501855e+2, -671372.0, -873816.56, -16482.18, 0.042890254, -0.06415215, -670038.9, 64777.023, 0.0, 10.001125, 9.998477 
8.5506994e+2, 2.3501831e+2, -571002.44, -776520.8, -11683.017, -0.06898462, 0.03210502, -570340.44, 66482.85, 0.0, 10.001156, 9.998455 
8.550656e+2, 2.4501805e+2, -403719.97, -554445.75, -24119.834, -0.09736887, 0.12738514, -399954.28, 138872.34, 0.0, 10.001232, 9.999275 
8.5506207e+2, 2.5501728e+2, -299072.66, -456022.88, 23990.443, -0.04173955, 0.08786324, -295487.53, 145343.34, 0.0, 10.001294, 9.999244 
8.550581e+2, 2.650153e+2, -272329.1, -538973.3, 20134.084, -0.04318731, 0.03654785, -270817.34, 72029.83, 0.0, 10.001432, 9.997939 
8.5505337e+2, 2.7501184e+2, -158837.63, -440096.9, 24936.121, -0.11985912, -0.13364896, -156643.92, 88234.01, 0.0000001292932, 10.001562, 9.997887 
8.5504985e+2, 2.8501007e+2, -22781.635, -373301.66, 24768.582, -0.13047783, -0.070629224, -21040.08, 125856.266, 0.0000031613251, 10.00204, 9.997424 
8.550474e+2, 2.9500926e+2, 163555.2, -239723.73, 23610.906, -0.07876752, 0.05737614, 164932.86, 213842.6, 0.000030116835, 10.002664, 9.997368 
8.5504466e+2, 3.0500686e+2, 239205.19, -65000.77, -14299.851, -0.0055902246, 0.04255892, 239875.89, 239875.89, 0.00012742863, 10.002417, 9.998356 
8.550405e+2, 3.1500432e+2, 111882.08, 4380.9673, 66724.37, -0.07143784, -0.08337736, 143812.7, 143812.7, 0.00031382052, 10.000861, 9.999589 
8.6512035e+2, 1.2502897e+2, -1824339.9, -1853481.4, -45639.11, 0.28031996, -0.0740406, -1791002.0, -76290.05, 0.00000000000000000000885557, 9.999521, 9.999268 
8.6511517e+2, 1.3502944e+2, -1539951.6, -1664656.4, -18232.777, 0.017323792, 0.010681923, -1537340.5, 79370.07, 0.0, 10.000857, 9.999251 
8.651114e+2, 1.4502904e+2, -1413527.8, -1461309.9, -46424.586, 0.016723653, 0.014616917, -1385207.5, 133507.45, 0.0, 10.000636, 10.000063 
8.6510664e+2, 1.5502861e+2, -1524978.1, -1475373.9, -44000.5, -0.010052751, -0.07045099, -1449666.8, -28949.955, 0.0, 9.999241, 9.999978 
8.6510175e+2, 1.6502845e+2, -1454569.4, -1473581.4, -36593.67, -0.02991079, -0.038731255, -1426267.1, -103549.02, 0.0, 9.999439, 9.999205 
8.6509675e+2, 1.7502822e+2, -1095196.0, -1254018.6, -60559.633, -0.041755352, -0.014351225, -1074739.3, 149983.02, 0.0, 10.0012455, 9.999171 
8.650921e+2, 1.8502761e+2, -977326.3, -1246717.1, -12084.036, -0.03376085, 0.059601057, -976785.4, 149944.86, 0.0, 10.001827, 9.99826 
8.650878e+2, 1.9502641e+2, -974288.44, -1200986.1, 10731.801, -0.019101903, 0.08235376, -973781.5, 54962.965, 0.0, 10.001198, 9.998206 
8.6508393e+2, 2.0502509e+2, -806385.2, -935896.94, 44083.582, 0.006612572, 0.07588666, -792804.06, 137952.38, 0.0, 10.001104, 9.999402 
8.650801e+2, 2.1502322e+2, -664167.2, -822733.8, -5028.237, 0.032562096, -0.083156966, -664007.9, 168762.34, 0.0, 10.001426, 9.999355 
8.650758e+2, 2.2502238e+2, -632522.4, -847555.94, -4353.398, 0.0061703078, -0.05531219, -632434.25, 102344.445, 0.0, 10.001378, 9.99853 
8.6507094e+2, 2.350223e+2, -592513.1, -781786.4, -6957.1, -0.07071628, 0.05350471, -592257.75, 44526.516, 0.0, 10.000996, 9.998492 
8.650669e+2, 2.450219e+2, -434934.66, -596548.75, 5161.8384, -0.0773549, 0.14298475, -434769.94, 104019.27, 0.0, 10.001142, 9.999023 
8.6506385e+2, 2.5502074e+2, -233302.28, -453843.66, -60627.027, -0.0144939395, 0.09115496, -217734.73, 223063.11, 0.0, 10.001878, 9.998979 
8.6506e+2, 2.6501867e+2, -154430.7, -463788.16, -61863.742, -0.020078916, 0.040315226, -142518.22, 200295.95, 0.0000000005766255, 10.00218, 9.998086 
8.6505544e+2, 2.7501544e+2, -71030.664, -381846.8, -52952.125, -0.09085499, -0.12296385, -62257.14, 182584.22, 0.000000514823, 10.002108, 9.998016 
8.6505187e+2, 2.8501344e+2, -89321.6, -422030.06, 6459.6655, -0.10103201, -0.08309317, -89196.234, 57665.656, 0.0000054394536, 10.001663, 9.997279 
8.6504954e+2, 2.950121e+2, -114633.88, -384431.4, -8866.701, -0.02809933, 0.012706837, -114342.805, -65461.848, 0.000035908153, 10.000812, 9.997271 
8.6504656e+2, 3.0500993e+2, 88763.36, -127516.43, -15205.23, 0.016161496, 0.016326288, 89827.11, 89827.11, 0.00014009468, 10.001316, 9.998462 
8.6504334e+2, 3.1500864e+2, 357350.78, 125239.12, -37922.727, 0.06126455, 0.004194784, 363389.56, 363389.56, 0.00033844914, 10.002561, 9.999588 
8.751193e+2, 1.2503132e+2, -1767415.0, -1736749.0, -26520.18, 0.1517762, -0.005496463, -1721448.4, -6753.4175, 0.0000000055054987, 9.999526, 10.000063 
8.751165e+2, 1.350321e+2, -1490217.0, -1541482.0, 44945.777, 0.027472353, 0.023490554, -1464108.4, 152580.06, 0.0, 10.0007925, 10.000114 
8.7511265e+2, 1.4503254e+2, -1393874.0, -1413729.3, -118901.16, 0.03385532, 0.052398827, -1284486.8, 234196.1, 0.0, 10.000599, 10.000412 
8.751059e+2, 1.5503326e+2, -1495281.8, -1411182.0, -80394.17, -0.04775199, 0.038973328, -1362504.8, 58167.637, 0.0, 9.99924, 10.000412 
8.75101e+2, 1.6503274e+2, -1467337.5, -1499776.6, 13946.987, -0.09045983, 0.020141102, -1462165.8, -139489.78, 0.0, 9.999425, 9.999038 
8.75098e+2, 1.750309e+2, -1113479.8, -1282255.8, 21736.666, -0.07471703, -0.0993155, -1110725.3, 113969.266, 0.0, 10.001201, 9.998999 
8.7509453e+2, 1.8502995e+2, -924089.4, -1113245.9, -51858.457, -0.001552934, -0.09800969, -910805.0, 215897.98, 0.0, 10.001728, 9.999225 
8.750907e+2, 1.9502941e+2, -923132.8, -1061925.5, 4006.8052, 0.11294353, -0.10816056, -923017.2, 105689.414, 0.0, 10.001061, 9.999224 
8.7508583e+2, 2.050288e+2, -892033.3, -1075301.0, 40680.133, 0.05800913, -0.050980404, -883409.3, 47303.945, 0.0, 10.000932, 9.998532 
8.750798e+2, 2.1502785e+2, -753085.94, -962678.6, 20952.346, -0.17197233, -0.03095327, -751011.94, 81713.94, 0.0, 10.001229, 9.998489 
8.750755e+2, 2.25027e+2, -638990.4, -815371.2, -35430.445, -0.18959635, 0.023827756, -632139.4, 102596.086, 0.0, 10.001176, 9.998851 
8.750728e+2, 2.3502591e+2, -601992.56, -749093.25, -4206.6685, -0.01015898, -0.0021345306, -601872.4, 34873.016, 0.0, 10.000771, 9.998825 
8.750693e+2, 2.4502425e+2, -548817.44, -800364.4, 16814.531, 0.017030999, 0.010368494, -547698.5, -8936.145, 0.0, 10.000989, 9.997702 
8.7506497e+2, 2.5502172e+2, -349755.4, -657517.56, -14319.214, -0.117861345, -0.04537197, -349090.63, 91698.555, 0.0, 10.001713, 9.997658 
8.7506086e+2, 2.650202e+2, -120820.3, -379971.78, -79262.33, -0.17968017, -0.0076530874, -98500.055, 244302.16, 0.0000000691861, 10.002106, 9.998703 
8.750571e+2, 2.7501923e+2, -46533.867, -299217.0, -37146.555, -0.16488788, -0.012933436, -41186.188, 203620.25, 0.000001269736, 10.0019655, 9.998652 
8.7505394e+2, 2.8501728e+2, -89866.0, -407576.84, -41039.008, -0.094719715, -0.00397044, -84650.56, 62173.555, 0.000008255043, 10.001588, 9.997421 
8.750512e+2, 2.9501387e+2, -113154.38, -368576.4, -17911.191, 0.017614167, -0.124327056, -111904.49, -63044.434, 0.000042714033, 10.000747, 9.9974165 
8.750484e+2, 3.0501202e+2, 38346.96, -211177.08, 26161.078, 0.03438775, -0.0713991, 41060.285, 41060.285, 0.00015288098, 10.001231, 9.997922 
8.7504613e+2, 3.1501096e+2, 299637.0, 29011.482, 45700.81, 0.0044252058, -0.0066933585, 307146.2, 307146.2, 0.00035815634, 10.002446, 9.998986 
8.851192e+2, 1.2503445e+2, -1577340.0, -1589995.3, 89380.84, 0.14737923, 0.025335215, -1494063.1, 220602.81, 0.00000006865043, 10.000598, 10.000559 
8.8511676e+2, 1.350353e+2, -1773431.9, -1636162.0, 55969.777, 0.09569924, 0.0249144, -1616234.1, 422.7117, 0.0, 9.998659, 10.000503 
8.851131e+2, 1.4503588e+2, -1696973.3, -1564983.6, -67851.734, 0.13385387, 0.051060606, -1536325.5, -17675.414, 0.0, 9.998578, 10.00033 
8.8510656e+2, 1.5503654e+2, -1275679.1, -1314943.8, -103445.95, 0.02639566, 0.044317864, -1190019.0, 230622.16, 0.0, 10.000813, 10.000299 
8.8510185e+2, 1.6503598e+2, -1182509.1, -1357781.1, 8476.416, -0.02667931, 0.023711152, -1182100.1, 140545.34, 0.0, 10.0013685, 9.999073 
8.850991e+2, 1.7503412e+2, -1252783.8, -1347132.4, -1822.8921, -0.02388468, -0.097349666, -1252748.6, -28085.275, 0.0, 10.000237, 9.999021 
8.8509583e+2, 1.8503328e+2, -1142313.6, -1178964.4, -70103.48, 0.046767145, -0.10561588, -1088179.9, 38490.39, 0.0, 10.000052, 9.999581 
8.850921e+2, 1.9503288e+2, -940137.0, -1034039.8, -94396.93, 0.16907026, -0.13570757, -881659.7, 147012.17, 0.0, 10.00078, 9.999555 
8.85087e+2, 2.0503253e+2, -878546.2, -1083327.4, -21047.236, 0.09272912, -0.06415491, -876405.3, 54271.3, 0.0, 10.001089, 9.9984 
8.850808e+2, 2.1503195e+2, -797387.6, -1000745.25, -15139.083, -0.17635295, 0.0090939505, -796266.8, 36420.273, 0.0, 10.000998, 9.998344 
8.850767e+2, 2.2503106e+2, -614276.3, -791634.4, -20203.938, -0.18111524, 0.06204076, -612003.9, 122693.016, 0.0, 10.001288, 9.998953 
8.8507485e+2, 2.3502949e+2, -423568.63, -656870.3, -42655.832, 0.06672014, -0.022911409, -416014.22, 220695.4, 0.0, 10.001953, 9.998889 
8.8507164e+2, 2.4502751e+2, -416703.28, -759938.2, 44954.1, 0.10873786, -0.0339477, -410913.25, 127815.43, 0.0, 10.002004, 9.997481 
8.8506705e+2, 2.550247e+2, -385649.38, -701330.5, 60065.457, -0.064049184, -0.09709459, -374606.8, 66150.98, 0.00000000006372724, 10.00156, 9.99743 
8.850628e+2, 2.650231e+2, -280720.2, -479960.53, 23885.518, -0.13829331, -0.048707403, -277896.72, 64876.215, 0.00000025387644, 10.00111, 9.99849 
8.85059e+2, 2.750222e+2, -234500.75, -411201.4, -32582.846, -0.10386433, -0.019789632, -228684.1, 16094.181, 0.0000021793016, 10.000766, 9.998459 
8.8505596e+2, 2.8502035e+2, -116181.59, -385637.1, -4280.6157, -0.028180614, -0.009484095, -116113.6, 30681.41, 0.000011106664, 10.001276, 9.997703 
8.850536e+2, 2.950171e+2, 188390.28, -193558.92, -7895.3076, 0.087989144, -0.14450912, 188553.42, 237380.63, 0.000049522223, 10.002697, 9.997671 
8.8505054e+2, 3.0501533e+2, 183030.94, -166514.56, 53672.99, 0.08142168, -0.08512177, 191086.81, 191086.81, 0.00016467013, 10.00233, 9.997705 
8.85048e+2, 3.150143e+2, -101653.78, -169060.02, 24580.398, 0.09039645, 0.012918669, -93642.44, -93642.44, 0.00037312726, 9.999713, 9.998951 
8.9511883e+2, 1.2503827e+2, -1580542.3, -1577245.1, -22855.842, -0.024465373, 0.018434936, -1555978.5, 158647.28, 0.00000033567557, 10.000534, 10.000665 
8.9511555e+2, 1.3503937e+2, -1770507.1, -1632274.6, -9819.764, 0.07957334, 0.043040715, -1631580.5, -14967.331, 0.00000000007521531, 9.998679, 10.000512 
8.951122e+2, 1.4503942e+2, -1736311.0, -1647393.5, -4281.2896, 0.14692686, 0.045443777, -1647187.9, -128575.49, 0.0, 9.998581, 9.999764 
8.951082e+2, 1.5503873e+2, -1324423.6, -1404942.8, 641.032, 0.07148716, -0.03985085, -1324418.5, 96202.17, 0.0, 10.000768, 9.9997015 
8.95104e+2, 1.6503829e+2, -1180078.9, -1339731.0, -51175.086, 0.012216033, -0.022964606, -1165083.6, 157541.88, 0.0, 10.001312, 9.999223 
8.9509976e+2, 1.7503789e+2, -1248789.5, -1322430.3, -26438.918, -0.017893422, -0.017140318, -1240280.5, -15651.787, 0.0, 10.0001745, 9.999217 
8.950956e+2, 1.850376e+2, -1173443.4, -1224060.9, -58234.836, -0.017560614, 0.032049503, -1135255.5, -8623.834, 0.0, 9.999959, 9.99932 
8.9509153e+2, 1.95037e+2, -983054.25, -1084043.0, -52556.164, 0.006664405, 0.008333174, -960666.3, 67971.914, 0.0, 10.000614, 9.999288 
8.9508724e+2, 2.0503643e+2, -860737.9, -1010103.44, -40575.832, -0.026668254, 0.043452617, -850427.06, 80217.31, 0.0, 10.000925, 9.998985 
8.950826e+2, 2.1503557e+2, -785122.06, -924939.44, 170.95479, -0.1208029, 0.02651741, -785121.9, 47531.434, 0.0, 10.000785, 9.998965 
8.950791e+2, 2.2503462e+2, -657409.25, -836804.7, -9736.459, -0.09890489, 0.053684115, -656882.3, 77780.02, 0.0, 10.001085, 9.998748 
8.950766e+2, 2.3503327e+2, -465751.9, -694705.56, -2390.7532, 0.021634871, 0.008587691, -465726.97, 170947.9, 0.0, 10.001738, 9.9987335 
8.950735e+2, 2.4503182e+2, -379189.38, -646959.0, 10483.322, 0.061939042, 0.014359429, -378779.56, 159907.36, 0.0, 10.001847, 9.998338 
8.950697e+2, 2.550298e+2, -355528.06, -592619.56, 59569.27, 0.013075038, -0.054575637, -341402.8, 99300.15, 0.0000000002378373, 10.001362, 9.998278 
8.9506537e+2, 2.6502752e+2, -366433.97, -632310.06, -3437.4324, -0.025833976, -0.06446942, -366389.53, -23665.002, 0.00000030747992, 10.001001, 9.997496 
8.950606e+2, 2.7502456e+2, -327640.13, -573900.2, -23439.256, -0.054799758, -0.13881257, -325429.03, -80673.234, 0.0000026197797, 10.000641, 9.9974 
8.9505744e+2, 2.8502262e+2, -99127.37, -343173.53, 33649.305, -0.046971984, -0.09955022, -94572.77, 52202.297, 0.000013171274, 10.001231, 9.99802 
8.9505583e+2, 2.9502144e+2, 196434.9, -150400.83, 64408.22, -0.0007080121, -0.06173526, 208009.4, 256793.94, 0.000055655084, 10.002571, 9.998031 
8.950525e+2, 3.0501965e+2, 166055.75, -156889.0, -56154.082, 0.020570464, -0.02937039, 175541.28, 175541.28, 0.00017580122, 10.002167, 9.99784 
8.950478e+2, 3.1501687e+2, -94208.234, -88024.89, -47860.69, 0.029981472, -0.124614745, -43156.117, -43156.117, 0.00038747952, 9.999472, 9.999603 
9.051185e+2, 1.2504111e+2, -1785684.3, -1680286.0, -26409.516, -0.015337929, -0.038415227, -1674038.9, 40556.707, 0.0000010657902, 9.9991, 10.00066 
9.05115e+2, 1.350423e+2, -1529266.1, -1530596.3, -78089.93, 0.08231179, 0.002424982, -1451838.4, 164743.72, 0.000000007369457, 10.00038, 10.00039 
9.051119e+2, 1.4504251e+2, -1469686.3, -1536767.5, 14541.83, 0.17179975, 0.030574348, -1466669.5, 51911.54, 0.0, 10.000454, 9.999631 
9.051088e+2, 1.550418e+2, -1506059.4, -1509015.9, 14325.447, 0.12662426, -0.045471024, -1493136.1, -72544.4, 0.0, 9.99956, 9.999583 
9.05105e+2, 1.6504167e+2, -1387325.6, -1398429.8, 4546.677, 0.07289868, -0.007882061, -1385701.5, -63107.563, 0.0, 9.999711, 9.999601 
9.0510064e+2, 1.7504178e+2, -1116103.1, -1215678.8, 6337.446, 0.027864583, 0.009746692, -1115701.4, 108890.08, 0.0, 10.000897, 9.999605 
9.050964e+2, 1.8504156e+2, -1012758.0, -1198616.1, 8801.551, 0.016822489, 0.0695795, -1012342.1, 114252.28, 0.0, 10.001275, 9.998863 
9.050924e+2, 1.9504067e+2, -974530.44, -1136797.8, -27882.8, 0.026784755, 0.06486642, -969873.0, 58733.46, 0.0, 10.000885, 9.99881 
9.050883e+2, 2.0503992e+2, -857948.8, -956321.7, -1993.8422, 0.009949995, 0.08226859, -857908.44, 72705.625, 0.0, 10.000729, 9.999439 
9.050842e+2, 2.1503888e+2, -745518.8, -857418.1, -11427.978, -0.038209043, 0.0033175785, -744363.6, 88257.65, 0.0, 10.000846, 9.999396 
9.050807e+2, 2.2503795e+2, -686776.7, -868817.5, 21828.17, -0.037066367, 0.019099856, -684195.9, 50433.586, 0.0, 10.000984, 9.998572 
9.050778e+2, 2.3503682e+2, -551683.0, -757822.56, -1433.9691, 0.0025183654, 0.018060897, -551673.06, 84968.65, 0.0, 10.001253, 9.998534 
9.050749e+2, 2.4503562e+2, -388237.25, -601515.56, 8434.733, 0.03965184, 0.03831469, -387904.2, 150747.19, 0.0, 10.001582, 9.998768 
9.050719e+2, 2.55034e+2, -232719.36, -481822.16, -9530.774, 0.07516331, -0.033902984, -232355.23, 208306.52, 0.0, 10.002, 9.998718 
9.0506786e+2, 2.6503193e+2, -194033.13, -561146.7, -25835.154, 0.06945886, -0.04166603, -192223.92, 150457.52, 0.0000002007212, 10.002253, 9.997381 
9.0506285e+2, 2.7502888e+2, -85077.0, -465025.84, -12679.795, 0.031129714, -0.112744644, -84654.31, 160060.34, 0.0000025589381, 10.002355, 9.997318 
9.050594e+2, 2.85027e+2, 16591.553, -275476.75, 125371.33, -0.001757921, -0.06688846, 63025.438, 209758.9, 0.000014749117, 10.0019655, 9.998145 
9.050574e+2, 2.9502615e+2, -19126.48, -234177.45, 104724.08, -0.012283957, -0.007498467, 23444.209, 72183.26, 0.00006245814, 10.001016, 9.998206 
9.050542e+2, 3.0502397e+2, 3034.9468, -228515.73, -32744.992, 0.046338163, -0.028728956, 7576.5376, 7576.5376, 0.00018874744, 10.000998, 9.997927 
9.0504915e+2, 3.1502113e+2, 197594.44, 45782.906, -99715.1, 0.13842545, -0.13033934, 247007.42, 247007.42, 0.0004049675, 10.001449, 9.999609 
9.151172e+2, 1.2504338e+2, -1789269.6, -1682638.9, -28156.703, -0.136174, -0.12090644, -1675660.5, 38911.113, 0.000002613721, 9.999106, 10.000631 
9.151146e+2, 1.3504413e+2, -1545741.4, -1552854.3, -17821.785, -0.035096776, -0.10829752, -1531124.6, 85438.8, 0.00000007607973, 10.000342, 10.000249 
9.1511166e+2, 1.4504491e+2, -1459302.9, -1498768.6, -39281.473, 0.049946412, -0.02824683, -1435076.4, 83481.42, 0.0, 10.000385, 9.999924 
9.151079e+2, 1.5504587e+2, -1484793.5, -1460965.8, -1679.5001, 0.043861408, 0.031359486, -1460848.0, -40294.535, 0.0, 9.999551, 9.999913 
9.1510445e+2, 1.6504636e+2, -1349139.3, -1318931.6, 29717.963, 0.009684479, 0.0855891, -1300699.5, 21849.602, 0.0, 9.999706, 10.000151 
9.151013e+2, 1.7504601e+2, -1085993.9, -1142457.6, 66814.2, -0.029844351, 0.0029570537, -1041691.75, 182857.33, 0.0, 10.000849, 10.000131 
9.1509795e+2, 1.8504532e+2, -1069523.5, -1295161.1, -21263.54, 0.0017632069, 0.020149231, -1067537.1, 59019.81, 0.0, 10.001181, 9.998248 
9.1509426e+2, 1.9504401e+2, -1041231.3, -1238078.4, -24630.617, 0.0910125, 0.03606854, -1038196.2, -9620.67, 0.0, 10.0007305, 9.998188 
9.150899e+2, 2.050431e+2, -866277.06, -936745.6, -11631.12, 0.06419656, 0.05835833, -864406.94, 66177.66, 0.0, 10.000567, 9.999651 
9.1508496e+2, 2.1504211e+2, -761878.3, -842952.06, 7324.32, -0.06832852, -0.03701703, -761221.94, 71366.75, 0.0, 10.000642, 9.999591 
9.150809e+2, 2.2504118e+2, -722749.7, -908830.7, 14001.923, -0.13342111, -0.021708934, -721702.0, 12894.568, 0.0, 10.000821, 9.998383 
9.15078e+2, 2.350401e+2, -595404.6, -800542.9, 26613.572, -0.13159278, -0.00073224405, -592008.2, 44602.086, 0.0, 10.001044, 9.99834 
9.150754e+2, 2.4503902e+2, -413003.22, -615936.7, 8983.964, -0.095044225, 0.041144196, -412606.25, 126014.445, 0.0, 10.001414, 9.998754 
9.150732e+2, 2.550375e+2, -257398.3, -498409.5, 23366.959, -0.023662765, -0.02193602, -255153.69, 185478.86, 0.0, 10.001842, 9.998687 
9.150698e+2, 2.6503628e+2, -155520.13, -453684.47, -37826.953, 0.009903589, 0.02432094, -150796.02, 191846.88, 0.00000011562638, 10.00214, 9.998172 
9.150653e+2, 2.7503505e+2, -48996.332, -356259.34, 10255.75, 0.0069069513, 0.055609852, -48654.4, 196001.1, 0.0000025826089, 10.002212, 9.998135 
9.150614e+2, 2.8503346e+2, -2741.7373, -287092.78, 72628.914, -0.030809417, 0.08964373, 14734.981, 161405.3, 0.000017159802, 10.001851, 9.998116 
9.150579e+2, 2.950313e+2, -42984.563, -257626.44, 90863.69, -0.10612575, 0.018610086, -9685.468, 39004.105, 0.00007135739, 10.000909, 9.9980955 
9.150551e+2, 3.050282e+2, -16511.762, -241981.22, -23407.703, 0.008815626, -0.082031704, -14107.271, -14107.271, 0.00020564985, 10.000891, 9.997875 
9.15051e+2, 3.1502706e+2, 146405.16, -1300.778, -23454.596, 0.10639779, -0.017803183, 150040.13, 150040.13, 0.00042848263, 10.001226, 9.999372 
9.251174e+2, 1.2504753e+2, -1616094.9, -1632322.9, 80678.85, -0.078740776, -0.110247955, -1543123.0, 171406.56, 0.0000053718704, 10.000426, 10.000357 
9.251146e+2, 1.3504788e+2, -1718154.0, -1665624.0, 27161.594, -0.0008160648, -0.11292217, -1654105.4, -37579.14, 0.00000033393198, 9.999275, 10.000015 
9.251115e+2, 1.4504838e+2, -1639005.1, -1577873.0, 43753.086, 0.07186192, -0.04990247, -1555066.6, -36543.016, 0.0, 9.999131, 9.999982 
9.251079e+2, 1.550496e+2, -1361620.0, -1398854.3, 23052.68, 0.054303754, 0.030872267, -1350605.6, 69910.56, 0.0, 10.000392, 9.999929 
9.251047e+2, 1.6505018e+2, -1215601.3, -1265674.4, 57488.18, 0.028181452, 0.096947856, -1177934.4, 144577.17, 0.0, 10.000666, 10.000048 
9.251019e+2, 1.7504989e+2, -1217611.5, -1219688.8, 11440.636, -0.004842345, 0.030579256, -1207162.4, 17350.17, 0.0, 10.000002, 10.00001 
9.2509884e+2, 1.8504927e+2, -1186535.6, -1311134.9, -31534.746, 0.028964765, 0.044799928, -1179009.1, -52489.547, 0.0, 10.000216, 9.9986 
9.2509544e+2, 1.9504799e+2, -944891.5, -1148900.9, -119.57135, 0.12145426, 0.024738401, -944891.44, 83644.766, 0.0, 10.001217, 9.998559 
9.2509127e+2, 2.050471e+2, -742880.6, -933240.75, 43449.16, 0.09358158, 0.05689366, -733432.4, 197112.77, 0.0, 10.0016575, 9.999156 
9.2508626e+2, 2.1504626e+2, -650397.4, -841234.56, -14237.548, -0.04276015, 0.026177628, -649341.06, 183209.22, 0.0, 10.00163, 9.999131 
9.250823e+2, 2.2504522e+2, -620455.3, -839164.75, 9163.707, -0.10153495, 0.04308054, -620072.06, 114487.32, 0.0, 10.001425, 9.998569 
9.2507935e+2, 2.3504373e+2, -588459.2, -781061.56, 13247.766, -0.08772084, 0.0076595643, -587552.25, 49022.742, 0.0, 10.000999, 9.998502 
9.250769e+2, 2.4504258e+2, -499398.3, -656866.8, 57413.652, -0.054078847, 0.033466917, -480688.16, 57897.715, 0.0, 10.00082, 9.998766 
9.2507476e+2, 2.550413e+2, -381169.72, -554182.2, 38838.742, -0.0018158167, -0.0006151604, -372850.97, 67744.98, 0.0, 10.000981, 9.998722 
9.250716e+2, 2.650403e+2, -283177.72, -487231.3, -15820.822, 0.032895554, 0.047854647, -281958.38, 60646.016, 0.00000007319143, 10.001113, 9.998447 
9.250675e+2, 2.750391e+2, -179162.53, -388813.53, -36212.926, 0.06837862, 0.050182752, -173083.73, 71531.63, 0.0000027897247, 10.00116, 9.998426 
9.250635e+2, 2.8503752e+2, -81879.99, -305785.1, 34190.438, 0.034514777, 0.06197958, -76775.46, 69853.98, 0.000020180585, 10.0012245, 9.998285 
9.250594e+2, 2.950353e+2, 33161.86, -204032.78, 28772.832, -0.05893459, -0.025246058, 36602.24, 85251.14, 0.00008285034, 10.001348, 9.99825 
9.2505664e+2, 3.0503258e+2, 123898.82, -130927.914, 2342.8743, 0.049713384, -0.11910975, 123920.36, 123920.36, 0.0002292469, 10.001625, 9.998293 
9.250528e+2, 3.150323e+2, 214097.78, 27502.486, -6979.18, 0.16068383, -0.0140585825, 214358.47, 214358.47, 0.0004645645, 10.001664, 9.999368 
9.3511796e+2, 1.2505324e+2, -1657819.3, -1689936.0, -11708.894, -0.13702413, -0.041374236, -1654003.8, 60468.94, 0.000009857008, 10.000331, 9.999996 
9.3511444e+2, 1.3505366e+2, -1728510.0, -1692859.5, -4588.469, 0.028791105, -0.016903393, -1692278.4, -75808.6, 0.0000009955157, 9.999322, 9.999794 
9.351111e+2, 1.4505312e+2, -1653787.3, -1619921.5, 71688.336, 0.07512402, -0.029315803, -1563193.4, -44716.65, 0.00000000002439963, 9.999179, 9.999675 
9.3510836e+2, 1.5505302e+2, -1386025.5, -1438189.8, 86064.9, 0.019827498, -0.04979645, -1322177.4, 98302.555, 0.0, 10.000347, 9.9996805 
9.351053e+2, 1.650532e+2, -1273260.3, -1372237.4, 12167.848, -0.008767828, 0.021211997, -1271786.4, 50694.563, 0.0, 10.000602, 9.999352 
9.35102e+2, 1.7505349e+2, -1268125.9, -1321614.3, 3559.453, -0.029545076, 0.085536204, -1267890.1, -43408.902, 0.0, 9.999984, 9.999323 
9.350987e+2, 1.8505348e+2, -1113817.5, -1142465.3, -6647.436, -0.037348524, 0.13556987, -1112350.1, 14131.556, 0.0, 10.000141, 9.999797 
9.3509555e+2, 1.9505264e+2, -882951.9, -987924.4, 51790.883, -0.027259436, 0.041149367, -861701.44, 166786.58, 0.0, 10.00108, 9.999734 
9.350918e+2, 2.0505199e+2, -839655.94, -1099924.4, 25374.654, -0.041235957, 0.08969569, -837205.1, 93290.22, 0.0, 10.001503, 9.998088 
9.350877e+2, 2.1505122e+2, -754994.1, -1016667.44, 2429.6765, -0.08748846, 0.1771515, -754971.56, 77534.67, 0.0, 10.001439, 9.998024 
9.350843e+2, 2.2504994e+2, -617330.7, -782184.75, -21205.533, -0.07268641, 0.20168464, -614646.7, 119871.65, 0.0, 10.001209, 9.9990635 
9.350815e+2, 2.3504779e+2, -582842.1, -722232.25, 12139.272, -0.0022498807, 0.04600433, -581792.8, 54742.496, 0.0, 10.000799, 9.999003 
9.350787e+2, 2.4504639e+2, -520849.38, -665864.8, 46123.15, 0.019156294, 0.022273425, -507422.75, 31123.176, 0.0, 10.000666, 9.99878 
9.35076e+2, 2.5504538e+2, -406408.78, -569610.7, 62121.73, -0.004333786, 0.014776942, -385453.28, 55100.152, 0.0, 10.000813, 9.998703 
9.3507284e+2, 2.650438e+2, -316991.84, -517329.53, -26773.268, 0.014382402, 0.012755925, -313475.56, 29091.8, 0.00000003612581, 10.00095, 9.998313 
9.35069e+2, 2.7504116e+2, -215236.39, -424694.6, -14148.867, 0.07127655, -0.114991285, -214284.95, 30307.38, 0.0000027030533, 10.001005, 9.998247 
9.3506527e+2, 2.8503937e+2, -68836.24, -263236.3, 24305.742, 0.054385, -0.13088177, -65843.38, 80764.77, 0.000022488803, 10.001147, 9.998617 
9.3506134e+2, 2.950383e+2, 42989.844, -163956.63, 56648.867, -0.0444791, -0.14277767, 57481.88, 106098.02, 0.00009525127, 10.001255, 9.998571 
9.350583e+2, 3.050371e+2, 170498.05, -9962.476, -5702.1265, 0.022098849, -0.13970989, 170678.05, 170678.05, 0.00025879213, 10.001537, 9.999163 
9.3505365e+2, 3.1503782e+2, 210752.97, 66510.54, 67812.62, 0.008327316, -0.025880655, 237626.81, 237626.81, 0.0005142612, 10.001488, 9.999714 
9.451191e+2, 1.2505773e+2, -1791315.8, -1769623.4, -61508.563, 0.0049641724, 0.017683342, -1718012.0, -3581.2747, 0.000016753027, 9.9994545, 9.999878 
9.4511443e+2, 1.3505794e+2, -1594466.5, -1647847.0, -102758.586, 0.058809645, 0.034666132, -1514988.5, 101442.29, 0.000002343361, 10.000311, 9.999625 
9.4511104e+2, 1.4505704e+2, -1474799.4, -1547154.4, 46462.668, 0.09612167, -0.0016459347, -1452090.6, 66350.11, 0.0000000053592455, 10.000451, 9.999567 
9.451092e+2, 1.5505657e+2, -1409512.6, -1472854.3, 34879.453, 0.08560146, -0.045828257, -1394070.6, 26375.023, 0.0, 10.000256, 9.999506 
9.451064e+2, 1.6505645e+2, -1331240.8, -1410436.0, -1367.3135, 0.061524075, 0.010815736, -1331217.1, -8768.34, 0.0, 10.000257, 9.999248 
9.451024e+2, 1.750565e+2, -1205344.6, -1304274.8, -2493.7441, 0.0019873308, 0.06314143, -1205281.8, 19170.248, 0.0, 10.000476, 9.999199 
9.450991e+2, 1.8505663e+2, -1038468.3, -1076656.3, 28054.514, -0.021623062, 0.11895923, -1023626.5, 102824.875, 0.0, 10.000555, 10.000033 
9.450965e+2, 1.9505632e+2, -939760.25, -986751.06, -14506.323, -0.0015152973, 0.054526012, -935642.9, 92808.84, 0.0, 10.000589, 9.999964 
9.450933e+2, 2.0505573e+2, -928665.6, -1114621.3, -10819.959, -0.0003264865, 0.08441742, -928038.2, 2419.036, 0.0, 10.00076, 9.998345 
9.450895e+2, 2.1505463e+2, -811573.5, -1012616.5, 32726.072, -0.0151540795, 0.10943691, -806380.44, 26089.428, 0.0, 10.000915, 9.998299 
9.4508624e+2, 2.2505327e+2, -620735.25, -807923.4, 70187.69, 0.0043771006, 0.12454267, -597341.44, 137140.84, 0.0, 10.001312, 9.998829 
9.4508344e+2, 2.3505132e+2, -420044.25, -668466.5, 17220.473, 0.06108812, 0.014686672, -418856.22, 217641.84, 0.0, 10.00204, 9.998769 
9.4508046e+2, 2.4504983e+2, -355856.4, -592282.4, 27228.871, 0.073926285, 0.00006610395, -352761.0, 185748.72, 0.0, 10.001824, 9.998722 
9.450773e+2, 2.5504857e+2, -430349.94, -581482.06, 7846.2646, 0.057551008, -0.033341352, -429943.7, 10576.541, 0.0, 10.000653, 9.998686 
9.4507396e+2, 2.6504692e+2, -339925.63, -524585.8, 373.935, 0.05605355, -0.04131304, -339924.88, 2609.859, 0.000000027783642, 10.000769, 9.998356 
9.4507056e+2, 2.7504453e+2, -56311.55, -345839.1, -9649.453, 0.08023959, -0.14547731, -55990.31, 188567.47, 0.000002329391, 10.002074, 9.998284 
9.45067e+2, 2.8504288e+2, 79403.11, -183160.45, 15513.582, 0.07898716, -0.15295601, 80316.555, 226889.03, 0.000023981273, 10.00214, 9.998691 
9.4506335e+2, 2.9504177e+2, -5998.4585, -180786.77, -10535.937, 0.058897678, -0.1728063, -5365.6616, 43214.973, 0.00010679835, 10.000892, 9.998638 
9.450601e+2, 3.050409e+2, 71457.51, -78866.13, -38050.957, 0.08520597, -0.13175799, 80540.414, 80540.414, 0.00028981623, 10.000973, 9.998961 
9.450554e+2, 3.1504095e+2, 277915.78, 68596.47, -89185.24, 0.020886606, -0.054299805, 310761.22, 310761.22, 0.00057081727, 10.002095, 9.99944 
9.551196e+2, 1.2506126e+2, -1804005.8, -1777488.5, -78950.4, 0.036483686, 0.076717354, -1710691.1, 3709.7263, 0.00002677623, 9.999411, 9.999821 
9.5511407e+2, 1.3506089e+2, -1609633.5, -1659384.6, -58287.496, -0.042683925, 0.041098222, -1571135.4, 45271.973, 0.0000047533053, 10.000253, 9.999555 
9.5511085e+2, 1.4506014e+2, -1479988.9, -1548989.6, 17181.014, -0.014398498, 0.019518878, -1475947.5, 42468.08, 0.000000046136613, 10.0004015, 9.999583 
9.5510995e+2, 1.5506037e+2, -1402757.6, -1466741.4, 44101.816, 0.09415556, 0.043019935, -1380266.0, 40145.676, 0.0, 10.00029, 9.99953 
9.551072e+2, 1.6506013e+2, -1304417.5, -1355601.4, -9206.276, 0.08517383, 0.070000015, -1302812.0, 19601.371, 0.0, 10.0002575, 9.999624 
9.5510286e+2, 1.750591e+2, -1183816.4, -1251077.6, 20907.691, -0.04038969, -0.02866211, -1177847.1, 46576.73, 0.0, 10.000438, 9.999582 
9.5509964e+2, 1.8505885e+2, -1094938.3, -1183453.3, 13974.814, -0.051931772, 0.0064668907, -1092784.3, 33642.945, 0.0, 10.000495, 9.999336 
9.550979e+2, 1.9505899e+2, -1001054.56, -1093483.3, 3324.512, 0.04550205, 0.0551201, -1000935.2, 27492.387, 0.0, 10.00049, 9.999282 
9.550952e+2, 2.0505832e+2, -841772.2, -896908.94, -22164.418, 0.08087906, 0.034099482, -833967.2, 96463.67, 0.0, 10.0006, 9.999919 
9.550913e+2, 2.1505654e+2, -734476.9, -802064.1, 52565.33, 0.04437519, -0.1666447, -705779.5, 126661.09, 0.0, 10.000697, 9.999851 
9.5508784e+2, 2.250553e+2, -716758.56, -958772.6, 80732.55, 0.007859055, -0.1692101, -692299.3, 42151.016, 0.0, 10.001102, 9.997894 
9.5508486e+2, 2.3505427e+2, -520470.88, -825424.6, 62820.598, -0.03220532, -0.090894364, -508036.78, 128426.78, 0.0, 10.001815, 9.997801 
9.550815e+2, 2.4505292e+2, -392377.0, -617589.06, -30332.246, -0.021844052, -0.043183498, -388363.3, 150114.27, 0.0, 10.001616, 9.998642 
9.5507807e+2, 2.5505087e+2, -460206.06, -607698.5, -17763.791, 0.035396405, -0.14602847, -458096.78, -17600.885, 0.0, 10.0005045, 9.998572 
9.550748e+2, 2.650498e+2, -347170.97, -508109.34, 33830.656, 0.02784258, -0.10357978, -340348.66, 2157.3484, 0.000000030362223, 10.000639, 9.9985285 
9.5507157e+2, 2.7504918e+2, -66544.08, -328269.63, 60115.234, -0.059423465, -0.046495765, -53396.76, 191115.42, 0.000002140531, 10.001917, 9.998474 
9.5506835e+2, 2.8504792e+2, 47392.316, -221263.45, -47170.332, -0.034328796, -0.014337083, 55433.742, 201957.31, 0.000025889522, 10.002017, 9.998488 
9.55065e+2, 2.9504576e+2, -36063.21, -219203.97, -33523.51, 0.09454986, -0.11901753, -30119.691, 18422.229, 0.00011778403, 10.000791, 9.99842 
9.550615e+2, 3.0504408e+2, -32531.14, -272570.1, 33.683372, 0.10710284, -0.081599504, -32531.135, -32531.135, 0.00031950467, 10.000878, 9.997677 
9.5505685e+2, 3.150418e+2, 184237.03, -86442.414, 15423.565, -0.11932729, -0.116123594, 185113.05, 185113.05, 0.00062882464, 10.001927, 9.998454 
9.65119e+2, 1.2506436e+2, -1814446.9, -1826165.1, 54339.082, 0.048575178, -0.0005653101, -1765652.0, -51283.492, 0.000040530904, 9.999481, 9.999482 
9.6511513e+2, 1.3506442e+2, -1535468.6, -1653556.1, 12034.552, 0.025627404, 0.03625375, -1534254.8, 82117.625, 0.000008656152, 10.000867, 9.999321 
9.6511245e+2, 1.4506388e+2, -1380971.9, -1476246.3, 79223.09, 0.08306084, 0.040178, -1336166.6, 182212.16, 0.00000019058375, 10.001014, 9.999762 
9.651102e+2, 1.5506414e+2, -1380015.1, -1436394.8, 73820.27, 0.09111415, 0.051410466, -1329185.4, 91188.91, 0.0, 10.000402, 9.999665 
9.651073e+2, 1.6506387e+2, -1294551.4, -1332025.8, 74327.02, 0.07325402, 0.059070516, -1236636.1, 85739.3, 0.0, 10.000269, 9.999771 
9.6510404e+2, 1.7506269e+2, -1143561.3, -1219057.5, 50685.855, 0.034048073, -0.06630105, -1118111.5, 106274.66, 0.0, 10.0006695, 9.999684 
9.6510106e+2, 1.8506242e+2, -1064942.5, -1181940.0, 70546.16, 0.031180335, -0.03255079, -1031796.0, 94593.47, 0.0, 10.000733, 9.999247 
9.650984e+2, 1.950627e+2, -1016364.9, -1115343.4, 74780.375, 0.05625348, 0.04134051, -976180.9, 52208.254, 0.0, 10.000425, 9.99918 
9.650958e+2, 2.0506208e+2, -822152.3, -876562.6, 71819.016, 0.094487004, 0.025136095, -772558.44, 157833.92, 0.0, 10.000722, 9.999984 
9.6509343e+2, 2.1506019e+2, -589397.6, -724968.7, -2067.7593, 0.15099426, -0.19045371, -589366.06, 243036.38, 0.0, 10.001682, 9.999895 
9.650903e+2, 2.2505896e+2, -619845.4, -919167.6, 16783.229, 0.1151202, -0.19386761, -618907.25, 115505.36, 0.0, 10.001786, 9.997843 
9.6508646e+2, 2.3505798e+2, -634841.44, -879951.44, 32635.994, -0.0018907872, -0.10697006, -630570.44, 5855.829, 0.0, 10.001021, 9.997807 
9.650829e+2, 2.450566e+2, -471307.16, -678441.94, -145.8317, -0.018897705, -0.053778306, -471307.06, 67134.54, 0.0, 10.001153, 9.998461 
9.6507967e+2, 2.5505456e+2, -236515.16, -524261.22, -26375.506, 0.071779706, -0.13162592, -234117.48, 206343.56, 0.0, 10.002136, 9.998374 
9.650763e+2, 2.650536e+2, -142291.27, -398102.44, 54451.65, 0.06863438, -0.072774276, -131183.11, 211287.11, 0.000000012060779, 10.001993, 9.998629 
9.65073e+2, 2.7505314e+2, -243050.53, -407244.8, 35917.113, -0.033149302, -0.009607935, -235537.52, 8936.419, 0.0000023356135, 10.000671, 9.998532 
9.6506983e+2, 2.850517e+2, -159985.56, -356273.75, -37174.453, -0.015235742, 0.016426448, -153181.08, -6693.6406, 0.000028869204, 10.0007515, 9.998155 
9.650668e+2, 2.950491e+2, 142590.81, -172204.86, -79397.65, 0.12786844, -0.09921066, 161482.7, 209994.48, 0.00012892728, 10.0022, 9.998051 
9.650632e+2, 3.0504736e+2, 201143.25, -203212.28, 19727.457, 0.11799334, -0.032199334, 202103.42, 202103.42, 0.00034703137, 10.002638, 9.9973135 
9.650592e+2, 3.1504488e+2, 121993.81, -115262.62, 44314.082, -0.033757735, -0.05015234, 130000.47, 130000.47, 0.0006841425, 10.0014715, 9.998475 
9.751163e+2, 1.2506673e+2, -1842886.5, -1872246.8, 45103.6, -0.24573645, -0.22475457, -1810134.1, -95797.414, 0.000058506626, 9.999436, 9.999183 
9.751172e+2, 1.3506866e+2, -1545832.8, -1675375.6, 72403.195, 0.10930483, 0.017454877, -1513457.0, 102867.39, 0.00001444443, 10.000878, 9.999159 
9.751152e+2, 1.4506856e+2, -1371804.0, -1457345.8, 38712.62, 0.2097742, 0.06685542, -1356886.0, 161441.86, 0.0000005546723, 10.001012, 9.999897 
9.751095e+2, 1.5506805e+2, -1375145.4, -1417157.0, 69818.54, -0.050903242, -0.013263022, -1323241.3, 97090.516, 0.0, 10.000367, 9.999812 
9.7510624e+2, 1.650677e+2, -1308915.1, -1354923.5, 68756.65, -0.09784252, -0.0150435, -1259416.5, 62918.223, 0.0, 10.00023, 9.999639 
9.751056e+2, 1.7506723e+2, -1155538.8, -1239160.3, 78176.2, 0.09048089, -0.05546517, -1108694.8, 115644.4, 0.0, 10.000644, 9.999562 
9.751027e+2, 1.8506733e+2, -1043574.1, -1117239.9, 44542.348, 0.091970295, -0.0051231035, -1022608.4, 103729.914, 0.0, 10.000646, 9.999733 
9.7509754e+2, 1.9506757e+2, -999776.8, -1050554.9, 79376.43, -0.10007368, 0.014312953, -941827.9, 86507.74, 0.0, 10.000299, 9.99968 
9.7509515e+2, 2.050671e+2, -950354.5, -1107118.9, 89786.43, -0.07446315, 0.065717705, -909550.4, 20789.893, 0.0, 10.000557, 9.998488 
9.750955e+2, 2.1506555e+2, -722099.7, -955474.3, 49336.28, 0.16282474, 0.03406131, -712098.4, 120257.27, 0.0, 10.001483, 9.998413 
9.75093e+2, 2.250641e+2, -590890.3, -808591.7, -29697.12, 0.18506955, 0.03999686, -586911.94, 147457.86, 0.0, 10.001568, 9.998705 
9.750878e+2, 2.3506238e+2, -610678.1, -772432.5, 17958.67, 0.0015915222, -0.036400694, -608708.25, 27678.094, 0.0, 10.000782, 9.998655 
9.7508407e+2, 2.45061e+2, -514274.97, -732392.2, 19820.266, -0.049773395, -0.010221635, -512488.53, 25912.139, 0.0, 10.000993, 9.998174 
9.750816e+2, 2.550596e+2, -277749.5, -573436.25, 28747.91, 0.022151828, 0.0021559964, -274980.44, 165435.86, 0.0, 10.001977, 9.998116 
9.750784e+2, 2.650582e+2, -161010.7, -408541.9, -10882.538, 0.04263253, 0.033335816, -160533.17, 181895.75, 0.0000000034767167, 10.001866, 9.998619 
9.7507447e+2, 2.7505645e+2, -257930.55, -413845.72, 7741.099, 0.008239624, -0.03702978, -257547.16, -13104.66, 0.0000028342504, 10.000563, 9.998539 
9.75071e+2, 2.8505436e+2, -210354.05, -439916.72, 4529.321, -0.011199082, -0.04815944, -210264.72, -63802.52, 0.000032313746, 10.000665, 9.9976225 
9.7506785e+2, 2.950517e+2, 85261.98, -260749.31, 2876.9949, -0.029425576, -0.11633825, 85285.89, 133776.45, 0.0001399921, 10.002074, 9.997502 
9.750646e+2, 3.050504e+2, 212626.02, -145162.63, -33360.6, -0.0454682, 0.0021169593, 215710.02, 215710.02, 0.00037284024, 10.002496, 9.997779 
9.7506136e+2, 3.1504926e+2, 156000.81, 1953.8818, 53881.313, -0.045249615, 0.06574605, 172976.34, 172976.34, 0.00073526404, 10.001281, 9.999366 
9.8511666e+2, 1.250702e+2, -1755941.3, -1779696.6, -30083.064, -0.16113813, -0.1507714, -1735476.0, -21170.969, 0.00008108169, 9.999805, 9.999639 
9.85118e+2, 1.3507144e+2, -1630422.0, -1674527.1, -10331.182, 0.15520965, -0.018273763, -1628122.0, -11827.145, 0.000022462764, 10.00009, 9.999555 
9.8511606e+2, 1.4507124e+2, -1536557.6, -1545819.4, -40025.13, 0.2682649, 0.002481079, -1500896.4, 17402.338, 0.0000013019285, 9.999904, 9.999826 
9.851098e+2, 1.5507108e+2, -1485719.0, -1479078.9, -65214.47, -0.0067359246, -0.04065239, -1417100.0, 3202.0117, 0.0, 9.999632, 9.999741 
9.851066e+2, 1.6507116e+2, -1346314.0, -1325300.1, 25655.143, -0.05716381, -0.015004043, -1308083.8, 14217.164, 0.0, 9.999762, 10.000071 
9.8510635e+2, 1.7507131e+2, -1169421.4, -1195656.0, 44985.285, 0.12162113, -0.03514654, -1135680.0, 88617.36, 0.0, 10.000339, 10.000008 
9.851038e+2, 1.8507135e+2, -1008950.4, -1109534.5, 23275.28, 0.12708722, -0.008097992, -1003825.56, 122470.44, 0.0, 10.00094, 9.999634 
9.8509884e+2, 1.9507086e+2, -841237.6, -988903.44, -23653.86, -0.05288379, -0.049515393, -837541.1, 190759.38, 0.0, 10.001465, 9.999538 
9.850964e+2, 2.0507032e+2, -834731.8, -1071382.0, 47633.227, -0.041675836, 0.010095653, -825503.94, 104802.984, 0.0, 10.001415, 9.998328 
9.8509645e+2, 2.1506937e+2, -846294.5, -1032741.1, 75096.5, 0.15055093, 0.05133978, -819809.56, 12508.994, 0.0, 10.0007, 9.998263 
9.850942e+2, 2.2506812e+2, -706751.75, -853301.75, 44520.64, 0.19529931, 0.07856056, -694286.94, 40044.586, 0.0, 10.000709, 9.998817 
9.8508984e+2, 2.3506624e+2, -513965.38, -715264.2, 9376.031, 0.10312646, -0.022355922, -513529.6, 122819.58, 0.0, 10.001389, 9.998763 
9.850861e+2, 2.4506502e+2, -442311.94, -696782.6, 38680.957, 0.03619255, 0.01565004, -436562.13, 101800.26, 0.0, 10.001511, 9.998155 
9.850826e+2, 2.5506395e+2, -404167.06, -639055.44, 28418.986, -0.01764069, 0.06497823, -400777.56, 39598.395, 0.0, 10.001132, 9.998068 
9.850794e+2, 2.6506242e+2, -258137.48, -456971.97, 1589.7778, -0.00436278, 0.08245503, -258124.77, 84265.81, 0.00000001775074, 10.00122, 9.998601 
9.8507637e+2, 2.7506006e+2, -81875.164, -333310.63, -20454.44, 0.08914491, -0.039959714, -80222.05, 164186.97, 0.000003544514, 10.001791, 9.998509 
9.850732e+2, 2.850579e+2, -27383.889, -368893.47, 56120.535, 0.08035197, -0.048483197, -18397.996, 128031.12, 0.00003520851, 10.001973, 9.997504 
9.8506963e+2, 2.950556e+2, 18148.602, -309195.78, 51265.48, -0.024633082, -0.06584371, 25989.486, 74443.61, 0.00014922032, 10.0016575, 9.997389 
9.8506624e+2, 3.050538e+2, 98031.164, -174482.19, 24722.535, -0.0698005, -0.004482456, 100255.84, 100255.84, 0.00039592202, 10.0016165, 9.997986 
9.850639e+2, 3.1505248e+2, 211754.13, 71657.24, 21526.412, 0.0829826, 0.024956139, 214987.13, 214987.13, 0.0007798097, 10.001493, 9.999736 
9.951187e+2, 1.2507473e+2, -1685284.0, -1626176.3, -72580.7, -0.02177168, 0.20607258, -1577363.1, 136910.11, 0.000108580556, 9.999792, 10.000687 
9.9511725e+2, 1.3507296e+2, -1565708.3, -1528918.3, 12049.582, 0.041890763, -0.06811648, -1525323.0, 90958.95, 0.000033028722, 10.000057, 10.000557 
9.9511504e+2, 1.4507204e+2, -1557376.0, -1591667.1, -73697.445, 0.124307275, -0.15257317, -1498855.9, 19434.21, 0.0000026281716, 9.999905, 9.99952 
9.951107e+2, 1.5507321e+2, -1496406.0, -1509890.6, -59496.945, 0.076372065, -0.028928332, -1443270.5, -22985.908, 0.00000000019976186, 9.999663, 9.99952 
9.951076e+2, 1.6507433e+2, -1281271.1, -1180236.8, 30977.188, 0.036922686, 0.059211086, -1171495.4, 150777.72, 0.0, 9.999729, 10.001077 
9.951059e+2, 1.7507504e+2, -1105182.6, -1053059.5, 83291.67, 0.0068275174, -0.007879715, -991847.3, 232412.16, 0.0, 10.0003, 10.001003 
9.951039e+2, 1.8507451e+2, -1080058.5, -1232911.6, 25299.04, 0.010641265, -0.04603707, -1075980.0, 50282.563, 0.0, 10.000838, 9.998837 
9.951017e+2, 1.950725e+2, -913489.5, -1106637.8, 12277.523, 0.053368617, -0.16216666, -912712.2, 115572.5, 0.0, 10.0013275, 9.998796 
9.9509895e+2, 2.0507167e+2, -786568.5, -919081.1, 2537.3826, 0.04707364, -0.15150614, -786519.94, 143772.97, 0.0, 10.0012, 9.999473 
9.950958e+2, 2.1507165e+2, -797631.44, -877800.1, 62303.598, -0.011579765, -0.13225819, -763631.44, 68659.695, 0.0, 10.000479, 9.999426 
9.950935e+2, 2.250711e+2, -778874.94, -949204.75, 53212.453, 0.031162735, -0.06431512, -763617.6, -29320.803, 0.0, 10.000481, 9.998269 
9.950921e+2, 2.3506972e+2, -586209.3, -810093.3, 51707.02, 0.16639583, -0.06249056, -574844.25, 61469.09, 0.0, 10.001158, 9.99822 
9.9508846e+2, 2.4506873e+2, -457806.44, -689201.4, 8731.944, 0.096084096, 0.019198973, -457477.4, 80848.8, 0.0, 10.001332, 9.998295 
9.9508244e+2, 2.5506774e+2, -419217.06, -628601.7, 31763.48, -0.179663, 0.05969843, -414504.63, 25834.885, 0.0, 10.000947, 9.99823 
9.95079e+2, 2.650663e+2, -293542.38, -492427.34, 8215.211, -0.19467159, 0.08774063, -293203.63, 49150.277, 0.000000028595345, 10.001063, 9.998429 
9.950781e+2, 2.7506396e+2, -118189.23, -372114.0, 21836.352, 0.048198957, -0.015557425, -116325.086, 128048.51, 0.000003781716, 10.001644, 9.998311 
9.950757e+2, 2.8506216e+2, -19167.926, -327145.78, 30184.13, 0.106295876, 0.008894521, -16237.537, 130151.91, 0.000036350866, 10.001864, 9.997842 
9.9507177e+2, 2.950608e+2, 32583.645, -256655.3, 63966.31, -0.020172538, 0.047583606, 46098.547, 94501.234, 0.00015456251, 10.001562, 9.997793 
9.950679e+2, 3.0505767e+2, 71280.4, -207963.22, 13281.528, -0.095355466, -0.03920615, 71910.68, 71910.68, 0.00041193186, 10.001531, 9.997795 
9.9506545e+2, 3.1505406e+2, 170464.48, 39836.137, 58298.094, 0.011111434, -0.22214328, 192698.06, 192698.06, 0.0008105773, 10.001278, 9.999614 
1.0051198e+3, 1.2507759e+2, -1625524.4, -1567611.9, 86824.76, 0.1177178, 0.21717246, -1505042.3, 209204.67, 0.00014134821, 10.000075, 10.000956 
1.0051172e+3, 1.3507602e+2, -1561663.8, -1499486.9, 67942.22, 0.051438518, -0.062387127, -1455858.3, 160394.78, 0.000046426092, 9.99997, 10.000799 
1.0051149e+3, 1.4507529e+2, -1537425.9, -1550097.1, 24627.72, 0.13091348, -0.15075043, -1518331.9, -73.44564, 0.00000474816, 9.999936, 9.999772 
1.00511104e+3, 1.5507665e+2, -1372952.3, -1426984.5, 31270.455, 0.11628323, -0.02928384, -1358643.9, 61606.695, 0.000000004412824, 10.00042, 9.999724 
1.0051081e+3, 1.6507773e+2, -1192232.3, -1159350.3, 124861.09, 0.09035682, 0.052641757, -1049852.4, 272387.47, 0.0, 10.000415, 10.000901 
1.00510634e+3, 1.7507815e+2, -1174424.1, -1104509.0, 58985.363, 0.05238926, -0.025682747, -1070900.5, 153329.03, 0.0, 9.999891, 10.000853 
1.0051046e+3, 1.850777e+2, -1220604.3, -1289348.0, 43249.58, 0.06159665, -0.053677477, -1199731.6, -73499.266, 0.0, 9.99983, 9.998931 
1.005103e+3, 1.9507606e+2, -1061174.4, -1167665.1, 61088.047, 0.122192144, -0.14132555, -1033383.9, -5132.6787, 0.0, 10.000276, 9.998878 
1.00510046e+3, 2.0507541e+2, -851904.25, -942921.8, 52063.4, 0.112285845, -0.123679034, -828263.56, 101994.47, 0.0, 10.000704, 9.999554 
1.0050968e+3, 2.150753e+2, -710121.75, -834895.5, -1553.3909, 0.02692045, -0.11913773, -710102.44, 122154.805, 0.0, 10.001044, 9.999465 
1.00509435e+3, 2.2507463e+2, -685860.56, -892302.0, 21480.055, 0.04660804, -0.069162674, -683649.25, 50614.4, 0.0, 10.00109, 9.998361 
1.005093e+3, 2.3507306e+2, -616262.4, -817130.3, 26383.059, 0.16342628, -0.09121058, -612854.9, 23426.021, 0.0, 10.000928, 9.998284 
1.0050895e+3, 2.4507208e+2, -495738.2, -693729.7, 27356.088, 0.10040464, -0.016921295, -492027.97, 46265.137, 0.0, 10.001014, 9.998417 
1.005084e+3, 2.550714e+2, -352463.03, -574781.06, 14208.361, -0.130861, 0.041503225, -351558.66, 88744.336, 0.0, 10.001338, 9.998397 
1.0050807e+3, 2.650701e+2, -239476.48, -481117.8, 36456.547, -0.13877384, 0.08201401, -234096.06, 108220.11, 0.000000017098808, 10.001492, 9.9983 
1.00507975e+3, 2.7506766e+2, -167758.8, -403271.72, 21528.59, 0.07306306, -0.023210239, -165807.02, 78530.51, 0.000003428396, 10.001335, 9.998237 
1.0050774e+3, 2.85066e+2, -41562.36, -302282.16, 68674.84, 0.12293641, 0.0014560852, -24579.332, 121772.086, 0.00003625069, 10.0015745, 9.998138 
1.0050741e+3, 2.95065e+2, 135167.1, -175422.75, 56065.59, 0.03299962, 0.040963314, 144977.78, 193337.75, 0.00015744341, 10.002127, 9.998075 
1.00507036e+3, 3.0506155e+2, 210570.19, -190540.61, 23029.258, -0.040819727, -0.065860465, 211888.05, 211888.05, 0.00042211023, 10.002673, 9.997392 
1.0050683e+3, 3.1505808e+2, 364884.75, 69430.99, -13709.29, 0.10875768, -0.18405013, 365519.5, 365519.5, 0.0008305699, 10.002839, 9.999108 
1.01511925e+3, 1.2507899e+2, -1665018.6, -1630263.6, 16543.387, -0.018417373, -0.10269195, -1623648.3, 90576.58, 0.0001798155, 10.000014, 10.000545 
1.0151173e+3, 1.3508062e+2, -1591421.1, -1561089.9, 77383.77, 0.024674421, -0.015731059, -1497399.8, 118807.95, 0.000062927356, 9.999978, 10.000365 
1.0151151e+3, 1.4508095e+2, -1497412.5, -1461516.4, 19491.217, 0.09827978, -0.0111145405, -1452968.4, 65235.793, 0.000007860604, 9.999913, 10.000389 
1.0151105e+3, 1.5508142e+2, -1335774.0, -1343779.6, 65034.57, -0.021449883, -0.041804668, -1274619.3, 145580.9, 0.000000028517778, 10.0004, 10.0002985 
1.01510786e+3, 1.6508144e+2, -1286559.0, -1349317.6, 86904.67, -0.020914936, -0.028160008, -1225542.0, 96658.2, 0.0, 10.000388, 9.999611 
1.01510726e+3, 1.7508075e+2, -1262706.0, -1288793.5, 54738.19, 0.11732794, -0.09081092, -1219478.9, 4727.8223, 0.0, 9.999892, 9.999588 
1.0151055e+3, 1.8508096e+2, -1167303.4, -1160827.0, 42158.402, 0.13229404, -0.03441219, -1121782.6, 4422.3735, 0.0, 9.999753, 9.99985 
1.01510264e+3, 1.9508165e+2, -1015883.2, -1043600.94, 91900.0, 0.022049654, 0.016714191, -936802.94, 91396.375, 0.0, 10.000148, 9.999789 
1.01510055e+3, 2.0508155e+2, -943718.56, -1096520.5, 47430.016, 0.019400558, 0.09646033, -930193.4, 8.534242, 0.0, 10.0005455, 9.998574 
1.0150991e+3, 2.150804e+2, -804889.56, -984257.25, 24970.227, 0.12185828, 0.09064165, -801478.25, 30737.385, 0.0, 10.000849, 9.998528 
1.0150962e+3, 2.2507882e+2, -679286.9, -826042.4, -2898.8108, 0.101390496, 0.06737659, -679229.6, 55000.85, 0.0, 10.000864, 9.998924 
1.0150921e+3, 2.3507644e+2, -606436.06, -745843.75, 35420.098, -0.040892143, -0.09450615, -597952.94, 38297.234, 0.0, 10.000712, 9.998874 
1.0150891e+3, 2.4507527e+2, -515586.6, -692861.3, 20271.734, -0.07849545, -0.07421434, -513298.03, 24963.094, 0.0, 10.00083, 9.998514 
1.0150867e+3, 2.5507492e+2, -367428.66, -572691.3, 41733.13, -0.018662509, 0.005802991, -359268.1, 80998.875, 0.0, 10.001189, 9.998488 
1.015084e+3, 2.650737e+2, -257485.67, -485369.84, 17185.982, 0.018592743, 0.050389502, -256196.88, 86081.9, 0.000000011022683, 10.001352, 9.998336 
1.0150809e+3, 2.7507126e+2, -183621.0, -402714.25, 38288.504, 0.022004692, -0.0594179, -177122.5, 67177.57, 0.0000031084232, 10.001195, 9.998306 
1.0150782e+3, 2.8506947e+2, -45597.348, -286014.88, 73050.766, 0.0029562633, -0.06331346, -25141.4, 121173.45, 0.000035475467, 10.0014715, 9.998297 
1.0150759e+3, 2.9506803e+2, 118646.36, -169115.23, 98341.08, -0.041525904, -0.07936782, 149043.08, 197369.2, 0.00015874387, 10.001962, 9.998193 
1.0150731e+3, 3.0506533e+2, 149335.31, -287863.72, 20110.238, -0.06552061, -0.08387218, 150258.39, 150258.39, 0.00042931808, 10.002552, 9.996777 
1.01507135e+3, 3.1506446e+2, 264685.44, -63830.176, 35276.24, 0.06649812, 0.11076811, 268430.72, 268430.72, 0.00084597926, 10.002546, 9.998317 
1.02511935e+3, 1.250829e+2, -1829517.6, -1760464.3, 62351.887, 0.061840534, -0.19116847, -1723717.9, -9536.205, 0.00022439056, 9.999087, 10.000107 
1.0251174e+3, 1.3508509e+2, -1649092.3, -1643447.0, 75466.69, 0.05831177, 0.0035015738, -1570750.1, 45414.45, 0.0000828242, 9.999818, 9.999886 
1.0251151e+3, 1.4508575e+2, -1477258.4, -1451927.4, 34114.086, 0.12255289, 0.0627869, -1428203.5, 89956.32, 0.000012107546, 10.000022, 10.000426 
1.02511086e+3, 1.55086e+2, -1389141.5, -1366953.4, 2742.145, 0.010136073, 0.004375887, -1366619.5, 53536.563, 0.00000009714164, 10.000001, 10.000344 
1.02510855e+3, 1.6508564e+2, -1333247.1, -1401968.9, 72209.86, 0.0223201, -0.0046021002, -1287639.6, 34519.7, 0.0, 10.000234, 9.9993 
1.025108e+3, 1.7508452e+2, -1146621.1, -1263265.9, 73435.75, 0.16709597, -0.07820591, -1111165.5, 113006.01, 0.0, 10.000855, 9.99928 
1.0251062e+3, 1.8508478e+2, -970058.2, -1050881.9, 96585.625, 0.17394654, -0.0115413, -905770.94, 220398.98, 0.0, 10.001024, 9.999999 
1.025103e+3, 1.9508599e+2, -927420.5, -985781.6, 61546.242, 0.025525454, 0.07775502, -888487.56, 139670.97, 0.0, 10.000678, 9.999941 
1.0251011e+3, 2.0508595e+2, -940388.94, -1104400.4, 59531.656, 0.026801147, 0.16117463, -921058.75, 9101.664, 0.0, 10.000633, 9.998477 
1.02510035e+3, 2.1508436e+2, -809228.9, -999185.5, 64020.594, 0.17684686, 0.12812053, -789666.75, 42511.832, 0.0, 10.000897, 9.998402 
1.02509774e+3, 2.2508262e+2, -626573.0, -805597.6, 70578.445, 0.16212268, 0.09860141, -602095.06, 132100.03, 0.0, 10.001239, 9.998883 
1.02509335e+3, 2.3508042e+2, -487848.22, -694513.4, 34303.35, -0.022563174, -0.04258549, -482303.16, 153910.33, 0.0, 10.001551, 9.998822 
1.02509044e+3, 2.4507916e+2, -389224.13, -632093.8, 25039.496, -0.059567586, -0.027026223, -386669.47, 151555.5, 0.0, 10.001721, 9.998486 
1.0250887e+3, 2.5507846e+2, -293012.56, -543855.8, -2182.6428, 0.04462112, 0.02368274, -292993.6, 147240.0, 0.0, 10.001736, 9.998421 
1.0250862e+3, 2.6507702e+2, -176138.1, -458201.06, -6969.718, 0.07745606, 0.05437067, -175965.98, 166281.53, 0.00000001218603, 10.001965, 9.998226 
1.0250829e+3, 2.7507448e+2, -20825.545, -333011.3, -33668.203, 0.050218146, -0.0541571, -17235.818, 227033.98, 0.0000027111198, 10.00236, 9.99822 
1.0250802e+3, 2.850726e+2, 76025.01, -238551.7, 18017.87, 0.02154936, -0.058646336, 77053.64, 223339.02, 0.00003356842, 10.002348, 9.99821 
1.025078e+3, 2.9507098e+2, 92552.63, -191882.25, -14396.673, -0.0046119373, -0.08185963, 93279.46, 141577.5, 0.00015737157, 10.00182, 9.998115 
1.0250757e+3, 3.0506843e+2, 77076.945, -320767.2, -20922.744, -0.026552018, -0.070711024, 78174.25, 78174.25, 0.00043278775, 10.00206, 9.996773 
1.0250745e+3, 3.150679e+2, 271520.38, -91878.06, -31259.725, 0.13428108, 0.15979618, 274189.75, 274189.75, 0.00085735595, 10.002704, 9.998044 
1.03511915e+3, 1.2508903e+2, -1855820.4, -1827269.1, 23585.877, 0.039241306, -0.076363854, -1813975.1, -99854.74, 0.00027553758, 9.999137, 9.999623 
1.03511706e+3, 1.3508952e+2, -1689721.3, -1728279.5, 109718.586, 0.010000751, 0.00026567935, -1597600.9, 18522.299, 0.000106410545, 9.999818, 9.999304 
1.0351149e+3, 1.4508976e+2, -1508508.6, -1516610.3, 10264.138, 0.045225304, 0.07445137, -1501524.9, 16599.479, 0.000017580353, 10.000027, 9.999979 
1.03511184e+3, 1.5509039e+2, -1412428.0, -1421868.8, 18337.518, 0.062014896, 0.097549215, -1398213.0, 21904.836, 0.00000023822265, 10.000025, 9.999959 
1.03510946e+3, 1.6509037e+2, -1302202.0, -1326530.8, 74653.34, 0.060964625, 0.110672124, -1238728.4, 83388.77, 0.0, 10.000195, 9.999833 
1.0351083e+3, 1.7508945e+2, -1121453.3, -1193130.3, 111269.73, 0.07686231, 0.0032165362, -1040392.8, 183731.67, 0.0, 10.000784, 9.999794 
1.0351065e+3, 1.8508919e+2, -1024432.6, -1140552.5, 63366.766, 0.057338208, 0.023127344, -996548.94, 129577.73, 0.0, 10.000924, 9.999433 
1.0351037e+3, 1.9508919e+2, -982306.5, -1075941.5, 60176.137, -0.0024253551, 0.045353565, -952880.7, 75247.125, 0.0, 10.00057, 9.999377 
1.0351017e+3, 2.0508865e+2, -923396.44, -1026073.0, 51078.637, 0.00031271743, 0.074584305, -902314.8, 27818.313, 0.0, 10.000445, 9.999105 
1.03510045e+3, 2.1508716e+2, -786828.44, -917898.0, 91617.4, 0.073612, -0.013149849, -739719.75, 92426.86, 0.0, 10.000737, 9.99904 
1.03509866e+3, 2.2508602e+2, -699459.06, -905979.1, 66025.6, 0.09671315, 0.0129304435, -680154.75, 54003.703, 0.0, 10.001027, 9.998293 
1.0350962e+3, 2.3508492e+2, -559505.5, -793328.7, 61398.113, 0.07092787, 0.041730303, -544363.94, 91807.58, 0.0, 10.001338, 9.998243 
1.03509314e+3, 2.450837e+2, -442980.5, -692275.25, 13308.103, 0.010696425, 0.1071363, -442272.06, 95913.09, 0.0, 10.001505, 9.998177 
1.0350896e+3, 2.550821e+2, -339062.38, -596575.4, 18808.514, -0.0789063, 0.092942216, -337695.88, 102506.56, 0.0, 10.001558, 9.998139 
1.0350869e+3, 2.6508015e+2, -213350.4, -504749.9, -8013.9053, -0.07916297, 0.099646695, -213130.17, 129091.055, 0.00000000560088, 10.001833, 9.997969 
1.0350851e+3, 2.7507743e+2, -64319.668, -382785.22, 214.9392, 0.0074697062, -0.003680761, -64319.523, 179926.48, 0.0000022721786, 10.002196, 9.997952 
1.03508286e+3, 2.8507543e+2, 36814.44, -291951.94, -16837.73, 0.032375287, 0.013191874, 37674.535, 183937.25, 0.000031172072, 10.002227, 9.997901 
1.0350802e+3, 2.9507405e+2, 48678.91, -248012.77, -6988.066, -0.019131139, 0.043072812, 48843.41, 97116.71, 0.00015322318, 10.001672, 9.9978 
1.03507765e+3, 3.0507085e+2, 95221.0, -254402.9, -4566.2134, -0.06332749, -0.017340358, 95280.625, 95280.625, 0.00043103905, 10.0019455, 9.997278 
1.0350767e+3, 3.150689e+2, 248586.83, -65944.266, 42247.086, 0.0022331001, 0.01595116, 254162.52, 254162.52, 0.00086192216, 10.002421, 9.998343 
1.0451192e+3, 1.2509383e+2, -1821331.9, -1808844.0, -12274.392, 0.12872681, 0.012502655, -1801316.6, -87241.54, 0.0003338259, 9.999339, 9.999664 
1.0451175e+3, 1.3509321e+2, -1700482.6, -1733183.3, 76329.055, 0.09873401, -0.02384412, -1638772.4, -22685.566, 0.00013404706, 9.999713, 9.99933 
1.0451152e+3, 1.4509308e+2, -1514366.4, -1556126.4, 47907.69, 0.08426884, 0.02744947, -1482986.3, 35105.105, 0.000024406929, 10.000166, 9.999623 
1.0451125e+3, 1.5509367e+2, -1290025.5, -1394104.1, 17132.625, 0.09560336, 0.08195197, -1287277.9, 132808.67, 0.0000004785213, 10.001035, 9.999643 
1.0451104e+3, 1.650938e+2, -1188155.3, -1266891.4, 68619.0, 0.09387663, 0.12213671, -1148413.3, 173671.47, 0.0, 10.000935, 9.999906 
1.0451089e+3, 1.7509314e+2, -1235550.9, -1242470.3, 41635.035, 0.101940356, 0.034083247, -1197232.0, 26856.908, 0.0, 9.999955, 9.99987 
1.04510695e+3, 1.8509267e+2, -1183963.1, -1233661.4, 45070.797, 0.07873927, 0.036201973, -1157345.1, -31252.156, 0.0, 9.999917, 9.999272 
1.04510464e+3, 1.95092e+2, -952707.44, -1077436.9, 32727.502, 0.020508364, 0.010859709, -944641.75, 83458.734, 0.0, 10.0008545, 9.999223 
1.0451028e+3, 2.0509125e+2, -794065.4, -932295.1, 46566.566, 0.031518806, 0.013181332, -779841.7, 150265.17, 0.0, 10.001192, 9.999385 
1.0451016e+3, 2.1509005e+2, -749849.6, -863954.94, 28071.803, 0.11336558, -0.076915935, -743317.44, 88798.59, 0.0, 10.000848, 9.999345 
1.0450999e+3, 2.2508931e+2, -720123.56, -929684.44, 52281.348, 0.12834282, -0.021335585, -707804.56, 26319.893, 0.0, 10.000932, 9.998187 
1.04509756e+3, 2.350886e+2, -552698.6, -804161.5, 47985.168, 0.07749769, 0.06074468, -543853.06, 92282.8, 0.0, 10.001426, 9.99814 
1.0450947e+3, 2.4508736e+2, -427986.7, -711689.0, 41124.906, 0.01927331, 0.13760588, -422145.56, 116005.555, 0.0, 10.001705, 9.99796 
1.0450915e+3, 2.5508526e+2, -322479.66, -610777.56, 20647.611, -0.039318793, 0.09879976, -321008.4, 119164.54, 0.0, 10.001763, 9.997949 
1.04508914e+3, 2.6508328e+2, -202303.72, -511466.9, 41554.11, -0.03530813, 0.11395137, -196815.92, 145376.42, 0.0000000009945924, 10.001945, 9.997887 
1.0450875e+3, 2.7508077e+2, -76903.516, -406112.53, 29022.09, 0.034232665, 0.047002148, -74364.59, 169850.27, 0.0000020282196, 10.00214, 9.997844 
1.0450856e+3, 2.8507867e+2, 44124.23, -315013.6, 42162.598, 0.07223293, 0.06856057, 49007.695, 195240.95, 0.00002862313, 10.002395, 9.997659 
1.04508325e+3, 2.9507688e+2, 178097.98, -203345.9, 15898.735, 0.08352164, 0.07893594, 178759.5, 227008.03, 0.00014660136, 10.002654, 9.997623 
1.0450808e+3, 3.0507338e+2, 222906.38, -147319.69, 61650.387, 0.03872259, -0.026188985, 232902.55, 232902.55, 0.00042212423, 10.002616, 9.997692 
1.0450792e+3, 3.150708e+2, 190479.78, -69190.266, 35597.72, 0.0599592, -0.092775285, 195271.39, 195271.39, 0.00085377786, 10.001874, 9.9986 
1.05511844e+3, 1.2509722e+2, -1772646.0, -1706590.3, -48344.277, 0.04209337, 0.046220466, -1681068.9, 32977.688, 0.00039971265, 9.999349, 10.000353 
1.05511844e+3, 1.3509637e+2, -1656008.8, -1636252.8, 105943.62, 0.17782047, -0.07670461, -1539727.6, 76326.18, 0.00016604259, 9.999701, 9.999998 
1.0551158e+3, 1.4509596e+2, -1542727.1, -1611144.8, 57410.195, 0.07547043, -0.06873885, -1510106.5, 7952.045, 0.000032768716, 10.000148, 9.999255 
1.0551128e+3, 1.55096e+2, -1324012.9, -1457955.1, 63256.16, -0.023300309, -0.036676962, -1298861.9, 121198.695, 0.0000008393984, 10.0009985, 9.999227 
1.0551105e+3, 1.6509607e+2, -1215945.1, -1313368.3, 13614.435, -0.023809629, 0.036846112, -1214078.3, 107982.48, 0.0, 10.000887, 9.999606 
1.0551091e+3, 1.7509581e+2, -1257806.9, -1286568.8, 21120.244, 0.09938461, 0.017048452, -1246636.4, -22573.475, 0.0, 9.999943, 9.999572 
1.0551073e+3, 1.8509538e+2, -1187125.8, -1217883.5, 60949.043, 0.09282077, 0.031110782, -1139645.4, -13578.271, 0.0, 9.99982, 9.999428 
1.0551051e+3, 1.9509447e+2, -957776.56, -1062726.4, 84151.02, -0.041461177, -0.037382264, -911079.8, 116996.26, 0.0, 10.000738, 9.999383 
1.0551038e+3, 2.0509386e+2, -824934.75, -954635.44, 15203.827, -0.011068109, -0.026000021, -823176.3, 106904.71, 0.0, 10.001012, 9.999321 
1.05510324e+3, 2.1509312e+2, -782734.2, -890411.4, 29969.32, 0.17562963, -0.063083656, -774955.0, 57131.31, 0.0, 10.000658, 9.999261 
1.0551011e+3, 2.2509249e+2, -731862.4, -901492.8, 56069.258, 0.13209644, -0.006028793, -715004.7, 19088.705, 0.0, 10.0007105, 9.99848 
1.0550971e+3, 2.3509157e+2, -560154.9, -772429.7, 82649.875, -0.12861007, 0.019504908, -531770.3, 104335.6, 0.0, 10.001225, 9.998449 
1.0550948e+3, 2.4509022e+2, -465776.1, -745933.3, 25853.45, -0.1636719, 0.07809983, -463410.28, 74711.53, 0.0, 10.001517, 9.997813 
1.0550942e+3, 2.550881e+2, -358645.6, -645339.0, 36170.184, 0.01963384, 0.049217388, -354152.66, 85991.67, 0.0, 10.00159, 9.997792 
1.05509244e+3, 2.6508635e+2, -222728.33, -515162.38, 33434.973, 0.07067726, 0.0982435, -218954.3, 123206.73, 0.000000000012280949, 10.001783, 9.9979315 
1.05508946e+3, 2.7508467e+2, -95709.51, -407424.16, 58269.367, -0.012521988, 0.10007092, -85173.25, 159002.02, 0.0000016155456, 10.001982, 9.997904 
1.0550877e+3, 2.8508255e+2, 11799.361, -351957.56, 37316.258, 0.008188414, 0.12554426, 15588.016, 161782.52, 0.000025306648, 10.002267, 9.997469 
1.0550868e+3, 2.9507956e+2, 142129.34, -245531.66, 51573.883, 0.13712178, 0.037899233, 148873.33, 197096.05, 0.00013793015, 10.002515, 9.997407 
1.0550845e+3, 3.0507585e+2, 231424.73, -104109.086, 27080.352, 0.11856785, -0.092247225, 233596.3, 233596.3, 0.00040720604, 10.002503, 9.998042 
1.0550812e+3, 3.1507373e+2, 165382.72, -63257.566, 59600.38, -0.00039769287, -0.15217222, 179986.2, 179986.2, 0.0008331317, 10.001627, 9.99876 
1.0651182e+3, 1.2510039e+2, -1696599.4, -1684738.1, 22032.004, 0.07220262, 0.049765, -1667852.5, 46164.477, 0.00047318285, 9.999959, 10.000207 
1.065119e+3, 1.3509965e+2, -1600540.0, -1614483.9, 42412.32, 0.25165376, -0.0509908, -1564530.4, 51491.9, 0.00020250746, 10.000132, 9.999933 
1.06511585e+3, 1.4509928e+2, -1577765.0, -1606311.6, 28676.08, 0.08715271, -0.045625467, -1560006.4, -41980.867, 0.000042863663, 9.999798, 9.999472 
1.065113e+3, 1.5509902e+2, -1543667.5, -1537239.4, 37423.414, -0.006427022, -0.06367905, -1502892.3, -82863.125, 0.0000013547858, 9.999371, 9.999473 
1.06511086e+3, 1.65099e+2, -1407710.8, -1402498.0, 53701.65, 0.0037446807, -0.013320434, -1351339.5, -29309.748, 0.0, 9.999553, 9.99964 
1.0651096e+3, 1.750989e+2, -1201881.9, -1254617.0, 47929.78, 0.14480454, -0.018931132, -1173545.5, 50485.242, 0.0, 10.00031, 9.9996195 
1.065108e+3, 1.8509862e+2, -1066986.8, -1160665.5, 150084.92, 0.14614365, 0.008643425, -956602.06, 169431.5, 0.0, 10.000634, 9.999432 
1.0651062e+3, 1.9509788e+2, -979996.9, -1074138.5, 129220.45, 0.004297015, -0.043052465, -889541.0, 138500.1, 0.0, 10.000577, 9.999385 
1.0651048e+3, 2.050973e+2, -876317.3, -997896.4, 66193.05, 0.017993027, -0.019480739, -847235.4, 82811.3, 0.0, 10.000751, 9.999143 
1.0651042e+3, 2.150966e+2, -716441.5, -874018.2, 36045.457, 0.18619224, -0.037603136, -708587.56, 123465.9, 0.0, 10.001196, 9.999106 
1.06510215e+3, 2.2509591e+2, -617525.3, -835510.4, 93552.3, 0.13939355, 0.017274829, -582881.5, 151179.39, 0.0, 10.001439, 9.998586 
1.06509864e+3, 2.3509493e+2, -520442.22, -737563.94, 77551.9, -0.10477901, 0.02684597, -495587.34, 140484.78, 0.0, 10.001435, 9.998583 
1.06509656e+3, 2.4509342e+2, -454534.66, -764880.44, 40484.94, -0.14175496, 0.07104966, -449340.28, 88748.83, 0.0, 10.001691, 9.997601 
1.06509596e+3, 2.5509092e+2, -288691.16, -641765.9, 12195.34, 0.016875146, 0.03182315, -288270.44, 151845.3, 0.0, 10.00218, 9.997545 
1.0650945e+3, 2.6508895e+2, -149093.1, -486381.94, 22602.248, 0.08748726, 0.071042344, -147585.22, 194549.78, 0.0, 10.0023155, 9.997867 
1.0650923e+3, 2.750872e+2, -99688.16, -409461.88, -6178.6943, 0.08146749, 0.07447474, -99564.96, 144584.22, 0.00000091217555, 10.001973, 9.997884 
1.06509045e+3, 2.8508508e+2, -63836.094, -415913.9, 12293.592, 0.10050005, 0.11086942, -63407.36, 82762.305, 0.000020761427, 10.001851, 9.997236 
1.0650891e+3, 2.95082e+2, 44654.67, -319397.38, -12198.652, 0.15565804, 0.038097803, 45062.965, 93264.6, 0.00012637535, 10.001932, 9.997186 
1.0650868e+3, 3.0507895e+2, 192598.97, -86337.016, -17959.414, 0.12911202, -0.033901002, 193750.55, 193750.55, 0.00038601994, 10.002082, 9.998358 
1.06508374e+3, 3.1507766e+2, 238990.3, 11213.492, -48809.426, 0.08652522, -0.045313347, 249008.83, 249008.83, 0.0008001297, 10.001979, 9.999082 
1.0751179e+3, 1.2510307e+2, -1769524.4, -1825997.0, 23119.646, -0.024232922, -0.0055614235, -1761266.8, -47277.63, 0.00055371417, 9.999942, 9.999233 
1.07511856e+3, 1.3510305e+2, -1668485.1, -1744417.9, 55153.297, 0.16672373, 0.052932557, -1639493.8, -23501.637, 0.00024334127, 10.000097, 9.999051 
1.07511476e+3, 1.4510302e+2, -1516603.1, -1484676.4, -13725.668, -0.04674846, 0.09495227, -1479586.9, 38405.42, 0.00005483326, 9.9998045, 10.00031 
1.0751128e+3, 1.5510277e+2, -1479846.5, -1412276.9, 37175.332, -0.0027973463, -0.008455729, -1395828.0, 24163.965, 0.000002073113, 9.999391, 10.000326 
1.0751111e+3, 1.6510266e+2, -1392480.5, -1356914.9, 61366.7, 0.04069173, -0.025478125, -1310806.4, 11184.719, 0.0000000000166348, 9.999504, 9.999972 
1.07510984e+3, 1.7510238e+2, -1185162.9, -1206578.6, 91969.06, 0.114658155, -0.08465263, -1103280.4, 120712.12, 0.0, 10.0002575, 9.9999695 
1.07510865e+3, 1.851024e+2, -1095612.8, -1192560.5, 130092.984, 0.107035585, -0.03723075, -1005256.2, 120736.39, 0.0, 10.000523, 9.999265 
1.07510716e+3, 1.9510224e+2, -1012319.9, -1103959.1, 141011.4, 0.018126732, -0.014125558, -909870.6, 118124.79, 0.0, 10.000426, 9.9992485 
1.07510574e+3, 2.0510165e+2, -925426.25, -1063309.1, 62229.203, -0.009590595, 0.032782022, -901494.7, 28508.527, 0.0, 10.000587, 9.998777 
1.075104e+3, 2.1510033e+2, -766290.06, -935329.56, 67234.88, 0.018040964, -0.012369922, -742809.25, 89209.51, 0.0, 10.001007, 9.99878 
1.0751027e+3, 2.250995e+2, -650611.25, -850040.25, 78463.41, 0.026963055, 0.04303798, -623442.0, 110585.73, 0.0, 10.001211, 9.998595 
1.0751016e+3, 2.3509878e+2, -552320.3, -752941.4, 97058.74, 0.014931138, 0.07659988, -513050.75, 122983.02, 0.0, 10.00122, 9.998582 
1.0750995e+3, 2.4509695e+2, -513921.16, -835346.2, 45283.543, -0.050408762, 0.11212448, -507663.28, 30389.436, 0.0, 10.001472, 9.997216 
1.0750966e+3, 2.550937e+2, -335953.78, -700946.25, 49458.637, -0.17079654, 0.028576182, -329370.6, 110716.97, 0.0, 10.002014, 9.997213 
1.0750952e+3, 2.65091e+2, -195404.22, -537057.94, -6231.9277, -0.0949308, 0.022718482, -195290.6, 146823.63, 0.000000000031670343, 10.002127, 9.997612 
1.07509546e+3, 2.750884e+2, -141806.67, -463967.94, 4082.7173, 0.16864283, -0.03516805, -141754.94, 102381.91, 0.00000057346807, 10.001832, 9.997583 
1.0750936e+3, 2.850863e+2, -92569.95, -451627.84, -1293.5398, 0.1942826, 0.033345092, -92565.29, 53593.586, 0.000016841232, 10.001751, 9.997034 
1.0750899e+3, 2.9508436e+2, 11484.768, -353355.22, 16745.867, -0.010968449, 0.091895506, 12251.777, 60435.04, 0.000114238224, 10.001784, 9.997022 
1.0750873e+3, 3.050827e+2, 191330.31, -67330.984, -25673.848, -0.067274466, 0.15782782, 193853.98, 193853.98, 0.0003625103, 10.001987, 9.998533 
1.07508585e+3, 3.150824e+2, 218705.67, 9998.73, 8907.84, 0.015976591, 0.22137123, 219085.17, 219085.17, 0.00076317973, 10.001798, 9.9991665 
1.0851181e+3, 1.2510514e+2, -1705435.1, -1791670.8, 14732.038, 0.0006898037, 0.011832647, -1702987.8, 10982.178, 0.00064071716, 10.000317, 9.9993105 
1.08511865e+3, 1.3510509e+2, -1698492.5, -1745806.5, 9266.816, 0.19287795, 0.051902775, -1696742.3, -80770.29, 0.00028839763, 9.999804, 9.999197 
1.0851144e+3, 1.4510506e+2, -1563230.1, -1474837.3, 5288.9233, -0.028101113, 0.07409617, -1474521.9, 43449.777, 0.00006873226, 9.999393, 10.000548 
1.0851128e+3, 1.5510514e+2, -1440927.3, -1367013.4, -34054.6, 0.05246689, -0.016709253, -1353715.6, 66252.86, 0.0000030594845, 9.99957, 10.000536 
1.08511135e+3, 1.6510536e+2, -1320960.8, -1300655.1, 23360.72, 0.10039967, -0.024544986, -1285336.4, 36628.156, 0.000000000186287, 9.9998865, 10.000177 
1.0851102e+3, 1.751054e+2, -1154229.5, -1172340.5, 7295.289, 0.13131694, -0.07429063, -1151656.4, 72306.3, 0.0, 10.000371, 10.000154 
1.0851091e+3, 1.8510549e+2, -1079131.0, -1165250.8, 60941.32, 0.118108146, -0.036352474, -1047571.9, 78389.46, 0.0, 10.00055, 9.999447 
1.0851079e+3, 1.9510528e+2, -1004914.56, -1080134.6, 63285.4, 0.057704203, -0.03294272, -968906.94, 59056.664, 0.0, 10.000402, 9.999426 
1.0851066e+3, 2.0510472e+2, -903517.0, -1070123.6, 67159.79, 0.018370306, 0.015663303, -879816.2, 50155.156, 0.0, 10.000823, 9.99861 
1.0851051e+3, 2.1510339e+2, -665075.4, -908161.3, 46806.49, -0.0050657117, -0.011808902, -656374.2, 175613.98, 0.0, 10.001804, 9.998581 
1.0851043e+3, 2.2510241e+2, -491888.9, -785306.44, 66233.945, 0.012375821, 0.0460252, -477630.6, 256368.33, 0.0, 10.002355, 9.998494 
1.0851039e+3, 2.3510148e+2, -376612.75, -681634.94, 35518.926, 0.069101065, 0.069805756, -372531.28, 263475.8, 0.0, 10.002481, 9.998472 
1.085102e+3, 2.450996e+2, -393825.3, -774403.4, 24444.477, 0.025802324, 0.10370057, -392261.7, 145764.45, 0.0, 10.002265, 9.997273 
1.0850989e+3, 2.5509652e+2, -398593.6, -724232.7, 29162.396, -0.11048838, 0.034118265, -396002.6, 44056.285, 0.0, 10.0015545, 9.997286 
1.0850974e+3, 2.6509368e+2, -278158.53, -591823.4, 40200.4, -0.056922868, 0.022381054, -273088.28, 68998.375, 0.000000020287489, 10.001619, 9.997473 
1.08509764e+3, 2.7509072e+2, -60664.25, -441072.56, 19565.531, 0.1824103, -0.06186075, -59660.586, 184453.31, 0.0000009682407, 10.00245, 9.997439 
1.08509585e+3, 2.8508866e+2, 67959.3, -348155.0, 56206.668, 0.19401385, 0.0075164917, 75417.734, 221553.06, 0.000016002106, 10.00275, 9.99726 
1.0850919e+3, 2.9508728e+2, 114068.54, -270864.22, 59679.746, 0.0065965992, 0.09835296, 123108.93, 171262.36, 0.00010691048, 10.002362, 9.997305 
1.0850896e+3, 3.0508575e+2, 211537.6, -77121.09, 64042.92, -0.030897949, 0.1693287, 225108.39, 225108.39, 0.00034615427, 10.002215, 9.998377 
1.0850884e+3, 3.1508496e+2, 239099.39, -3334.4836, 14506.843, 0.09420404, 0.21510231, 239964.38, 239964.38, 0.00073994894, 10.002051, 9.998966 
1.0951187e+3, 1.2510663e+2, -1618907.0, -1603085.6, 19480.303, -0.053768042, 0.088721655, -1589971.0, 123988.12, 0.000734217, 10.000277, 10.000627 
1.0951187e+3, 1.3510607e+2, -1607453.8, -1565195.8, -739.25616, 0.18284777, -0.047919244, -1565182.8, 50776.117, 0.00033773432, 9.999824, 10.000433 
1.09511435e+3, 1.4510556e+2, -1602397.0, -1547062.4, -11521.206, -0.019153928, -0.110135145, -1544759.4, -26797.145, 0.0000845864, 9.999361, 10.000066 
1.09511234e+3, 1.5510619e+2, -1483626.8, -1439672.6, -9913.134, 0.016929949, -0.09803784, -1437540.4, -17581.977, 0.0000043925156, 9.999514, 10.00006 
1.095111e+3, 1.6510715e+2, -1316793.3, -1289567.8, 21643.67, 0.039670438, -0.011927602, -1277611.9, 44337.715, 0.0000000006358386, 9.999866, 10.000268 
1.0951103e+3, 1.7510793e+2, -1148658.6, -1159585.1, 42121.637, 0.06495266, 0.0045953663, -1111647.4, 112293.49, 0.0, 10.000354, 10.000254 
1.0951093e+3, 1.8510804e+2, -1056943.8, -1099772.6, 35152.063, 0.044913217, 0.015494413, -1037197.0, 88741.09, 0.0, 10.000471, 9.999931 
1.09510794e+3, 1.951072e+2, -989421.9, -1014815.1, 74077.31, -0.009742058, -0.09633457, -926961.0, 100982.9, 0.0, 10.000266, 9.999935 
1.0951072e+3, 2.0510656e+2, -931096.25, -1093845.5, 85296.49, -0.030343821, -0.07670457, -894583.94, 35366.78, 0.0, 10.000668, 9.998527 
1.09510705e+3, 2.1510576e+2, -697882.8, -932407.2, 98784.31, -0.021022515, -0.043857273, -661819.3, 170142.6, 0.0, 10.001608, 9.998512 
1.0951063e+3, 2.2510464e+2, -553956.6, -856977.1, 52144.96, -0.03758917, 0.021887315, -545234.4, 188740.6, 0.0, 10.002111, 9.9981165 
1.0951051e+3, 2.3510283e+2, -436308.8, -750280.44, 55867.676, -0.0790243, -0.0075037805, -426664.06, 209329.72, 0.0, 10.002242, 9.998115 
1.0951038e+3, 2.4510118e+2, -390060.94, -710301.4, -19242.66, -0.049136784, 0.039467003, -388908.8, 149102.02, 0.0, 10.002031, 9.997821 
1.0951023e+3, 2.550994e+2, -389696.78, -659288.7, 21655.738, 0.053978637, 0.04153664, -387968.3, 52061.055, 0.0, 10.00136, 9.997822 
1.0951006e+3, 2.6509723e+2, -312140.1, -616898.25, 58741.707, 0.06604666, 0.0725797, -301209.72, 40841.195, 0.00000010014453, 10.00143, 9.99739 
1.0950985e+3, 2.750942e+2, -86885.97, -461509.88, 74876.625, -0.015524465, -0.004328231, -72474.65, 171605.45, 0.0000018117424, 10.002301, 9.997373 
1.09509654e+3, 2.85092e+2, 85893.66, -275706.16, 24873.383, -0.03456689, 0.023237824, 87596.6, 233697.84, 0.000017402066, 10.002604, 9.997823 
1.095095e+3, 2.9509038e+2, 131424.6, -201935.88, 65498.684, 0.028933147, 0.027169935, 143831.98, 191948.34, 0.00010435712, 10.002219, 9.997845 
1.0950931e+3, 3.0508786e+2, 152958.33, -164398.03, 42373.465, 0.075982675, 0.001946886, 158518.61, 158518.61, 0.00033796718, 10.002081, 9.997837 
1.0950906e+3, 3.1508526e+2, 162684.52, -112574.81, 61233.387, 0.034864828, -0.07669116, 175691.67, 175691.67, 0.00073108607, 10.001836, 9.9983225 
1.10511996e+3, 1.2510756e+2, -1718756.4, -1580762.0, 127342.29, 0.10847947, 0.06712509, -1504926.0, 209024.52, 0.00083503575, 9.999326, 10.001197 
1.1051178e+3, 1.3510776e+2, -1733850.4, -1564468.6, -63997.71, 0.1871956, -0.052964766, -1543007.5, 72934.875, 0.0003918232, 9.998711, 10.000954 
1.10511415e+3, 1.4510757e+2, -1700201.9, -1605122.6, -1046.4272, 0.06650518, -0.1087896, -1605111.1, -87168.54, 0.000102570426, 9.998691, 10.000014 
1.10511206e+3, 1.5510824e+2, -1490353.3, -1451545.5, -10.154699, 0.056700308, -0.08538215, -1451545.5, -31606.803, 0.0000061708192, 9.999466, 10.000019 
1.1051107e+3, 1.651091e+2, -1341196.8, -1314392.3, 72684.47, 0.048471063, -0.0008185048, -1253884.8, 68046.57, 0.0000000015512864, 9.999774, 10.000128 
1.10511035e+3, 1.7510973e+2, -1230877.6, -1208648.1, 36884.363, 0.06256643, 0.010587098, -1181240.3, 42684.47, 0.0, 9.999858, 10.000138 
1.1051096e+3, 1.8510972e+2, -1117822.1, -1157210.3, 23082.436, 0.051360343, 0.029305823, -1107173.9, 18749.652, 0.0, 10.000178, 9.999674 
1.1051085e+3, 1.9510879e+2, -942011.4, -1019721.06, -28919.295, 0.01084049, -0.06992906, -932430.44, 95500.79, 0.0, 10.000709, 9.999686 
1.1051082e+3, 2.0510812e+2, -884958.75, -1034736.4, 14671.499, 0.0046211425, -0.055600908, -883535.1, 46402.168, 0.0, 10.000821, 9.998863 
1.1051085e+3, 2.1510743e+2, -819351.25, -955037.44, 22343.824, 0.025459472, -0.04347536, -815766.56, 16178.417, 0.0, 10.000607, 9.998843 
1.10510804e+3, 2.2510628e+2, -750368.56, -947334.8, 37677.88, -0.003414167, 0.0002765315, -743407.2, -9449.535, 0.0, 10.000747, 9.998146 
1.1051067e+3, 2.3510435e+2, -581724.9, -815775.2, 38193.48, -0.07905859, -0.042286895, -575649.94, 60328.6, 0.0, 10.001232, 9.998144 
1.1051056e+3, 2.4510297e+2, -421744.53, -691213.25, -14761.415, -0.04202778, 0.012970434, -420938.3, 117055.15, 0.0, 10.00168, 9.998106 
1.10510446e+3, 2.5510177e+2, -258920.56, -562017.06, -36571.715, 0.11206794, 0.04563116, -254570.23, 185435.48, 0.0, 10.00212, 9.998107 
1.10510275e+3, 2.6509994e+2, -184433.44, -546009.8, 45443.586, 0.116557226, 0.092944436, -178809.47, 163214.22, 0.00000018749917, 10.002255, 9.997492 
1.10510044e+3, 2.7509716e+2, -129085.336, -467782.25, 37496.723, -0.019168677, 0.02911339, -124983.79, 119067.36, 0.0000025365616, 10.001959, 9.9974985 
1.10509865e+3, 2.8509483e+2, -13894.61, -321036.84, 1447.9596, -0.040755738, 0.036105018, -13887.785, 132185.36, 0.000019295574, 10.001895, 9.9978695 
1.1050975e+3, 2.950927e+2, 93998.445, -218897.89, -36998.254, 0.08088098, -0.0053819516, 98313.77, 146405.5, 0.00010487227, 10.001952, 9.9978695 
1.1050958e+3, 3.0509013e+2, 179311.34, -164950.06, -15219.759, 0.13911201, -0.03528003, 179982.89, 179982.89, 0.00033641586, 10.00228, 9.997738 
1.1050933e+3, 3.150878e+2, 232610.1, -76450.02, -21912.32, 0.11716783, -0.09111035, 234155.94, 234155.94, 0.0007307893, 10.002309, 9.998323 
1.1151207e+3, 1.2510844e+2, -1734012.5, -1613257.6, 68240.73, 0.17167467, -0.04250349, -1582518.5, 131420.63, 0.000944546, 9.999336, 10.000972 
1.1151157e+3, 1.3511011e+2, -1757662.6, -1620827.5, -71913.836, 0.06985116, 0.03005541, -1589985.0, 25937.373, 0.00045159098, 9.998733, 10.000565 
1.1151133e+3, 1.4511098e+2, -1657917.4, -1519306.6, 3043.9404, 0.067965515, 0.068690404, -1519239.8, -1326.4583, 0.00012308804, 9.998708, 10.000591 
1.1151117e+3, 1.5511152e+2, -1456127.5, -1377179.6, 42604.508, 0.030795423, 0.024787834, -1358573.1, 61334.14, 0.000008505592, 9.999457, 10.000533 
1.1151102e+3, 1.6511148e+2, -1373100.6, -1377494.3, 53138.332, -0.017532106, 0.017010717, -1322113.8, -206.33752, 0.0000000033697685, 9.99975, 9.999715 
1.11510985e+3, 1.7511085e+2, -1260175.9, -1267649.8, 55366.418, -0.012694187, -0.055570405, -1208420.4, 15493.227, 0.0, 9.999836, 9.999755 
1.1151095e+3, 1.8511054e+2, -1194725.9, -1302624.1, 24508.578, -0.0068611233, -0.00071645534, -1189419.8, -63501.95, 0.0, 10.000115, 9.998707 
1.11510925e+3, 1.9511013e+2, -1031988.9, -1172889.3, 5643.783, -0.02021734, 0.052236464, -1031763.2, -3838.7236, 0.0, 10.000568, 9.998701 
1.1151091e+3, 2.0510954e+2, -857847.94, -942525.2, -15224.011, -0.01757912, 0.08892782, -855194.0, 74735.44, 0.0, 10.000666, 9.999567 
1.1151091e+3, 2.151084e+2, -802693.75, -869758.5, 30938.438, 0.0004474914, -0.020696618, -790601.5, 41335.727, 0.0, 10.000389, 9.999532 
1.1151089e+3, 2.2510737e+2, -749961.2, -896582.4, 39286.44, -0.019672152, -0.020354908, -740098.06, -6151.516, 0.0, 10.000537, 9.998594 
1.1151084e+3, 2.351062e+2, -584224.56, -766487.5, 72877.66, -0.0637175, -0.03196783, -558668.0, 77292.12, 0.0, 10.001002, 9.998594 
1.1151072e+3, 2.4510504e+2, -456771.13, -715571.75, -13418.586, -0.08451922, 0.02716149, -456077.25, 81895.83, 0.0, 10.001468, 9.998042 
1.1151051e+3, 2.5510353e+2, -291157.16, -587711.4, -1165.673, -0.07875222, 0.033233758, -291152.56, 148836.45, 0.0, 10.001936, 9.998021 
1.1151037e+3, 2.651018e+2, -191476.22, -519940.75, 16906.113, -0.047174383, 0.07916371, -190608.34, 151397.86, 0.00000020790911, 10.002082, 9.99775 
1.11510314e+3, 2.7509943e+2, -129690.59, -435618.75, 47998.58, 0.009620723, 0.028993221, -122336.63, 121691.72, 0.0000030041283, 10.001811, 9.997788 
1.1151016e+3, 2.850972e+2, -72217.96, -399717.88, -11955.859, 0.029370895, 0.052507136, -71782.08, 74268.375, 0.000021785861, 10.001724, 9.997407 
1.115099e+3, 2.9509455e+2, 38765.848, -298113.3, -4398.836, -0.00020906155, 0.0047460673, 38823.273, 86900.48, 0.00010887074, 10.001804, 9.9973955 
1.1150972e+3, 3.0509263e+2, 178341.22, -135820.84, -20633.451, 0.018214038, 0.053496867, 179690.58, 179690.58, 0.00034133886, 10.002151, 9.997998 
1.1150955e+3, 3.15092e+2, 219583.94, -55339.133, 46284.02, 0.03196341, 0.14233929, 227166.83, 227166.83, 0.0007375019, 10.002097, 9.998572 
1.1251206e+3, 1.2511006e+2, -1917000.0, -1741436.9, 78833.62, 0.29322875, -0.05893267, -1711234.0, 2687.2737, 0.0010643419, 9.998244, 10.000638 
1.12511426e+3, 1.3511172e+2, -1613110.3, -1588742.5, -81750.28, 0.0044862945, 0.049245447, -1518273.1, 97635.305, 0.00051804923, 9.999887, 10.000235 
1.1251134e+3, 1.451128e+2, -1437252.9, -1414279.4, 8446.854, 0.14106666, 0.124310076, -1411508.0, 106390.8, 0.00014661087, 10.000235, 10.000569 
1.12511136e+3, 1.5511313e+2, -1431886.4, -1363734.0, -36581.77, 0.05776547, 0.05665963, -1347816.1, 72077.51, 0.00001150662, 9.999631, 10.000528 
1.1251101e+3, 1.65113e+2, -1401027.6, -1413863.8, 17975.012, 0.0024702023, 0.05196447, -1388359.3, -66465.016, 0.0000000061074554, 9.999657, 9.999511 
1.1251101e+3, 1.7511234e+2, -1192225.9, -1255128.5, -916.8651, 0.020405408, -0.0039796266, -1192212.5, 31689.26, 0.0, 10.000393, 9.999571 
1.12511024e+3, 1.8511182e+2, -1125901.8, -1269142.4, 33136.887, 0.03841618, 0.035856266, -1118607.4, 7300.226, 0.0, 10.000584, 9.998714 
1.1251101e+3, 1.951109e+2, -1065952.3, -1196392.9, 53407.816, 0.033611193, 0.039940678, -1046875.0, -18957.83, 0.0, 10.00033, 9.998673 
1.12511e+3, 2.0511013e+2, -908190.44, -975326.06, 73845.96, 0.031783085, 0.06481008, -860640.9, 69282.875, 0.0, 10.000379, 9.999472 
1.1251101e+3, 2.1510912e+2, -738175.2, -842305.3, 20864.313, 0.03895909, -0.019561948, -734150.25, 97781.21, 0.0, 10.000869, 9.999478 
1.1251099e+3, 2.2510847e+2, -679924.8, -829033.44, 25006.867, 0.018288797, 0.0020795576, -675842.7, 58094.883, 0.0, 10.000853, 9.99892 
1.1251095e+3, 2.3510791e+2, -639287.25, -755512.44, 16009.032, -0.020613106, 0.020882767, -637122.5, -1178.0718, 0.0, 10.000444, 9.998942 
1.1251084e+3, 2.4510682e+2, -572632.3, -755109.56, -12310.915, -0.057591636, 0.06081864, -571805.5, -33849.52, 0.0, 10.00061, 9.998186 
1.1251066e+3, 2.5510487e+2, -370761.1, -610442.0, -18055.043, -0.088743515, 0.0144197345, -369408.66, 70566.41, 0.0, 10.001337, 9.99816 
1.1251057e+3, 2.651031e+2, -223073.02, -512874.44, 15688.677, -0.037345156, 0.039727096, -222226.17, 119766.3, 0.00000016860811, 10.0017805, 9.997939 
1.1251057e+3, 2.7510098e+2, -96161.8, -399960.16, -2004.7845, 0.09586597, -0.0018704648, -96148.57, 147863.88, 0.0000038179373, 10.001965, 9.997953 
1.1251043e+3, 2.8509912e+2, 18126.1, -350390.16, -707.18884, 0.1152926, 0.047689673, 18127.457, 164159.02, 0.000026510976, 10.002312, 9.997458 
1.12510145e+3, 2.9509705e+2, 164065.11, -225458.66, 1263.8273, 0.024183, 0.04763819, 164069.22, 212122.81, 0.00011807009, 10.002622, 9.997488 
1.1250996e+3, 3.050952e+2, 225160.6, -112941.69, 14702.861, 0.04167317, 0.09709323, 225798.77, 225798.77, 0.0003550206, 10.002495, 9.997992 
1.12509854e+3, 3.1509426e+2, 142782.27, -102020.586, 1252.9456, 0.16857962, 0.1699877, 142788.67, 142788.67, 0.0007557848, 10.001603, 9.998508 
1.1351167e+3, 1.251121e+2, -1949795.0, -1806522.8, 5599.4253, -0.0063848686, -0.018942026, -1806304.3, -92404.12, 0.0011953667, 9.99825, 10.000178 
1.1351128e+3, 1.3511272e+2, -1631556.5, -1615673.0, -9790.86, -0.1721797, 0.0021905613, -1611007.9, 4891.8926, 0.00059164723, 9.999853, 10.00006 
1.1351139e+3, 1.4511338e+2, -1473502.1, -1488806.6, -33532.395, 0.1160213, 0.06901404, -1446759.9, 71135.625, 0.00017336896, 10.000232, 10.000063 
1.13511086e+3, 1.5511338e+2, -1466430.9, -1437351.8, -38583.734, 0.002405179, 0.024114182, -1410659.0, 9235.108, 0.000015247707, 9.999637, 10.000024 
1.1351096e+3, 1.6511387e+2, -1403931.6, -1419045.8, 25725.184, -0.046176646, 0.10427291, -1384676.5, -62786.43, 0.000000009421829, 9.999652, 9.999476 
1.13511086e+3, 1.7511436e+2, -1199872.9, -1265318.6, 40219.906, 0.01905102, 0.16886303, -1180745.6, 43141.99, 0.0, 10.00037, 9.99951 
1.1351112e+3, 1.8511356e+2, -1065890.5, -1130353.9, 3120.781, 0.04883365, 0.13801053, -1065739.8, 60152.926, 0.0, 10.000517, 9.999704 
1.1351107e+3, 1.9511122e+2, -1020108.1, -1063321.4, 60024.715, 0.0336667, -0.102106236, -977919.7, 49988.805, 0.0, 10.000164, 9.999669 
1.1351106e+3, 2.0511006e+2, -1000737.6, -1129215.5, 72405.875, 0.017611202, -0.11795957, -968181.6, -38262.883, 0.0, 10.000212, 9.998498 
1.1351109e+3, 2.151097e+2, -841782.25, -1000268.3, 52174.13, 0.017712392, -0.037431747, -826148.56, 5778.49, 0.0, 10.0006275, 9.998511 
1.1351106e+3, 2.2510965e+2, -694861.5, -810136.1, -10006.048, -0.018729396, 0.080579236, -693999.4, 39930.617, 0.0, 10.000631, 9.999156 
1.1351095e+3, 2.3510948e+2, -658301.5, -742101.06, 17536.51, -0.0906305, 0.11187995, -654779.7, -18848.064, 0.0, 10.000213, 9.999147 
1.1351088e+3, 2.4510829e+2, -580618.7, -724492.0, -1743.2437, -0.10960251, 0.11821265, -580597.56, -42655.453, 0.0, 10.000406, 9.998493 
1.1351084e+3, 2.5510585e+2, -373983.4, -574160.06, 26449.326, -0.058855586, -0.011408155, -370547.66, 69415.88, 0.0, 10.001149, 9.9985 
1.1351082e+3, 2.651039e+2, -240616.13, -514455.0, 8633.436, 0.011633508, -0.023690239, -240344.2, 101637.65, 0.00000020663475, 10.001625, 9.998009 
1.135108e+3, 2.7510187e+2, -116013.97, -409927.6, 28327.676, 0.094385594, -0.06515055, -113308.625, 130694.31, 0.0000055002247, 10.0018215, 9.997959 
1.1351065e+3, 2.8510052e+2, 29179.063, -285601.34, -7164.5684, 0.072931856, 0.014242806, 29342.047, 175359.08, 0.000033703815, 10.002144, 9.997977 
1.135104e+3, 2.9509982e+2, 174267.75, -160145.89, 34183.61, -0.023617303, 0.0979064, 177726.22, 225751.19, 0.00013271971, 10.002431, 9.998029 
1.1351024e+3, 3.0509746e+2, 176497.83, -164871.0, -30993.262, 0.052397422, 0.08453464, 179288.92, 179288.92, 0.00037893685, 10.002294, 9.997729 
1.1351012e+3, 3.150946e+2, 93323.95, -150195.6, 19236.195, 0.20243435, -0.014661827, 94834.1, 94834.1, 0.00079122034, 10.001377, 9.998282 
1.14511624e+3, 1.251135e+2, -1952762.0, -1810449.5, -70372.61, 0.14496301, 0.051042676, -1781528.1, -67639.01, 0.0013373722, 9.998201, 10.0001955 
1.1451119e+3, 1.351139e+2, -1755944.1, -1652363.3, -19293.506, -0.17589614, 0.024999391, -1648886.3, -32997.074, 0.000672049, 9.998861, 10.000305 
1.1451134e+3, 1.4511433e+2, -1585755.0, -1573445.0, -12084.598, 0.08681435, 0.071573496, -1566038.3, -48151.723, 0.0002032588, 9.999602, 9.999781 
1.1451111e+3, 1.5511405e+2, -1342400.1, -1409732.8, -49304.61, 0.024031892, 0.030045042, -1316364.1, 103524.7, 0.000019742625, 10.000633, 9.999733 
1.14511035e+3, 1.6511436e+2, -1267169.4, -1357528.9, 49645.566, 0.01142414, 0.10987375, -1245223.1, 76663.74, 0.000000013934886, 10.000621, 9.99943 
1.14511155e+3, 1.7511481e+2, -1292617.6, -1311294.8, 34555.406, 0.08586036, 0.17342389, -1266161.1, -42276.33, 0.0, 9.999752, 9.999488 
1.1451119e+3, 1.8511418e+2, -1157173.3, -1136315.1, 21042.682, 0.10733787, 0.14301847, -1123258.9, 2628.942, 0.0, 9.999736, 10.0000305 
1.1451112e+3, 1.9511224e+2, -943102.25, -977495.25, -11197.716, 0.05548107, -0.0920322, -939777.8, 88120.836, 0.0, 10.000523, 10.00006 
1.1451111e+3, 2.0511127e+2, -950518.06, -1132005.9, 32142.426, 0.037206765, -0.09901221, -944993.6, -15086.637, 0.0, 10.000639, 9.998289 
1.1451117e+3, 2.1511085e+2, -927530.9, -1064941.0, 41651.516, 0.06665422, -0.0072630174, -915891.44, -83974.78, 0.0, 10.000105, 9.998335 
1.1451115e+3, 2.251105e+2, -765882.7, -860193.9, 38967.03, 0.032064404, 0.09916305, -751865.75, -17942.943, 0.0, 10.000241, 9.998988 
1.1451102e+3, 2.3510984e+2, -540941.8, -696848.7, -1987.9381, -0.07160724, 0.095608756, -540916.5, 95012.734, 0.0, 10.001089, 9.999026 
1.14510976e+3, 2.4510856e+2, -434308.06, -626720.7, -6228.356, -0.07708006, 0.08753182, -434106.66, 103833.016, 0.0, 10.001276, 9.998751 
1.1451101e+3, 2.551065e+2, -392325.34, -547861.56, -14413.567, 0.024098724, -0.031173615, -391000.9, 48955.19, 0.0, 10.000873, 9.998808 
1.1451102e+3, 2.6510492e+2, -329206.13, -531665.75, 12052.501, 0.09114754, -0.036127307, -328491.16, 13479.487, 0.00000038376965, 10.000893, 9.998248 
1.1451098e+3, 2.751033e+2, -175266.31, -407100.7, 11062.532, 0.12570398, -0.06225178, -174739.63, 69248.39, 0.0000075917305, 10.001277, 9.998242 
1.1451084e+3, 2.8510216e+2, -57773.156, -299442.47, 10827.179, 0.09042308, 0.010781282, -57289.05, 88711.11, 0.000041535674, 10.001415, 9.99824 
1.1451062e+3, 2.951015e+2, 10386.707, -208192.86, -6680.8325, 0.029592069, 0.073538885, 10590.715, 58598.29, 0.00014998692, 10.001173, 9.998305 
1.145105e+3, 3.0509913e+2, 140979.97, -173493.92, -16201.515, 0.10986926, 0.038036685, 141812.45, 141812.45, 0.00040888134, 10.001976, 9.9978285 
1.145104e+3, 3.1509656e+2, 383846.0, 8826.413, -6690.327, 0.25963116, -0.04791514, 383965.3, 383965.3, 0.0008408799, 10.0033, 9.998436 
1.1551162e+3, 1.251136e+2, -1905683.8, -1707669.1, -173462.02, 0.24830067, 0.07326528, -1606947.9, 106946.81, 0.001489488, 9.998185, 10.000904 
1.15511134e+3, 1.351155e+2, -1703695.5, -1540417.6, 20600.746, -0.15699086, 0.11971452, -1537858.6, 78015.734, 0.00075867696, 9.9988575, 10.001062 
1.1551116e+3, 1.4511569e+2, -1600633.6, -1612986.8, 5947.7466, -0.11240108, 0.117138684, -1598235.5, -80363.48, 0.0002361324, 9.9996195, 9.999513 
1.1551116e+3, 1.5511511e+2, -1354681.6, -1439502.5, 3205.6584, -0.029199436, 0.066614754, -1354560.6, 65317.81, 0.000024990082, 10.000637, 9.999534 
1.15511134e+3, 1.6511458e+2, -1265853.0, -1347977.6, -2916.7346, 0.019216485, 0.067974746, -1265749.6, 56134.773, 0.000000023716384, 10.000599, 9.999502 
1.1551117e+3, 1.7511384e+2, -1298148.8, -1308199.5, 19343.19, 0.089471295, 0.008935491, -1283188.8, -59296.855, 0.0, 9.999698, 9.999529 
1.1551116e+3, 1.851138e+2, -1197492.4, -1204683.9, 32258.93, 0.07242243, 0.05622522, -1168629.4, -42737.99, 0.0, 9.99967, 9.999592 
1.1551111e+3, 1.9511396e+2, -990407.94, -1047489.75, 30669.96, -0.046417892, 0.07040413, -977053.4, 50834.234, 0.0, 10.000399, 9.9996395 
1.1551111e+3, 2.051137e+2, -920994.2, -1034938.6, -11713.202, -0.056109663, 0.11741717, -919802.56, 10086.518, 0.0, 10.000481, 9.999032 
1.15511194e+3, 2.1511264e+2, -909422.75, -978834.6, 36841.766, 0.051323168, 0.07355277, -893514.25, -61614.652, 0.0, 9.9998865, 9.999034 
1.15511194e+3, 2.2511114e+2, -840816.2, -966398.5, 53055.996, 0.03867994, 0.0622308, -821402.3, -87487.46, 0.0, 10.0000305, 9.99836 
1.15511134e+3, 2.3510891e+2, -617231.2, -805539.25, 46069.777, -0.09052501, -0.03225795, -606564.4, 29373.064, 0.0, 10.000878, 9.998383 
1.1551112e+3, 2.451076e+2, -443831.63, -598569.75, -42309.15, -0.08946153, -0.02705557, -433018.84, 104930.055, 0.0, 10.001066, 9.999045 
1.15511134e+3, 2.5510687e+2, -400992.7, -525056.25, -13812.897, 0.02786705, -0.046728395, -399473.38, 40479.547, 0.0, 10.000686, 9.999058 
1.1551111e+3, 2.6510608e+2, -326266.3, -480143.7, 11827.939, 0.06857682, -0.0027855337, -325362.47, 16596.732, 0.0000005356376, 10.000706, 9.998685 
1.15511045e+3, 2.7510497e+2, -163443.38, -344305.13, 46115.777, 0.03440069, -0.02201327, -152363.63, 91607.01, 0.000008957139, 10.001114, 9.998749 
1.1551094e+3, 2.8510392e+2, -73603.45, -293273.1, -13593.291, 0.018662604, 0.022338415, -72765.49, 73216.51, 0.000047577858, 10.00125, 9.998362 
1.1551077e+3, 2.951023e+2, -703.6188, -213304.88, 13243.96, 0.0094088055, -0.02062183, 118.23445, 48117.266, 0.00016516355, 10.0010805, 9.998322 
1.1551067e+3, 3.0510017e+2, 130102.64, -146780.66, 22700.451, 0.05284356, -0.04180934, 131951.4, 131951.4, 0.00043860512, 10.001787, 9.99809 
1.1551056e+3, 3.1509954e+2, 368605.47, 36217.16, 99207.695, 0.01623152, 0.03754527, 395964.06, 395964.06, 0.0008954558, 10.003051, 9.998738 
1.1651149e+3, 1.2511408e+2, -1838863.3, -1661694.8, -101695.195, 0.28910625, 0.09630603, -1615412.0, 98480.01, 0.0016512593, 9.998588, 10.001017 
1.1651114e+3, 1.3511553e+2, -1653327.0, -1528520.4, -14528.199, -0.051751826, 0.11614861, -1526851.5, 89022.63, 0.0008513687, 9.999276, 10.000939 
1.1651105e+3, 1.4511546e+2, -1642366.9, -1603131.8, -15535.14, -0.1458492, 0.08224917, -1597725.5, -79851.97, 0.00027198074, 9.999224, 9.999758 
1.16511196e+3, 1.551156e+2, -1621749.3, -1542683.5, -24639.014, 0.04770879, 0.07696247, -1535633.9, -115760.81, 0.00003101119, 9.9987, 9.999754 
1.16511196e+3, 1.6511518e+2, -1486357.0, -1438904.4, 16372.54, 0.10349334, 0.07059724, -1433803.6, -111926.34, 0.00000004774233, 9.9990015, 9.999656 
1.1651114e+3, 1.7511396e+2, -1222565.4, -1261175.0, 8629.223, 0.0709636, -0.049325433, -1220724.5, 3163.88, 0.0, 10.000139, 9.999657 
1.1651114e+3, 1.8511397e+2, -1087536.8, -1185131.9, 74482.45, 0.040572114, 0.01133126, -1047290.25, 78597.98, 0.0, 10.000569, 9.99929 
1.16511166e+3, 1.9511476e+2, -999748.56, -1085442.1, 51156.63, -0.015842017, 0.12186829, -975865.7, 52015.13, 0.0, 10.000476, 9.999345 
1.165112e+3, 2.0511451e+2, -907091.94, -1017323.56, 4952.8267, 0.0015474795, 0.18235375, -906869.8, 23013.266, 0.0, 10.000556, 9.999103 
1.1651127e+3, 2.1511294e+2, -769317.7, -894887.56, -38194.438, 0.09802178, 0.07434694, -758612.75, 73285.234, 0.0, 10.000812, 9.999147 
1.1651129e+3, 2.2511129e+2, -699873.25, -901881.75, 38364.258, 0.089999914, 0.042840425, -692832.75, 41081.363, 0.0, 10.000995, 9.998347 
1.165113e+3, 2.351092e+2, -585284.2, -791595.7, 48657.816, -0.012274655, -0.037746448, -574384.25, 61550.945, 0.0, 10.00109, 9.998386 
1.1651129e+3, 2.4510816e+2, -427203.7, -575168.8, -12345.859, -0.0252043, -0.013171929, -426180.66, 111763.71, 0.0, 10.001115, 9.99918 
1.1651123e+3, 2.5510782e+2, -331034.1, -475633.78, -31283.057, 0.041053586, -0.0032985285, -324556.4, 115388.56, 0.0, 10.001095, 9.9992 
1.1651118e+3, 2.6510715e+2, -234961.67, -433154.25, 28307.016, 0.046230044, 0.03959595, -230997.97, 110952.97, 0.00000056359414, 10.001323, 9.99871 
1.1651116e+3, 2.7510583e+2, -74897.19, -299856.75, -8019.422, 0.003430118, 0.0019267333, -74611.664, 169352.83, 0.00000928475, 10.001729, 9.998759 
1.1651107e+3, 2.8510472e+2, 21280.41, -229232.53, -73928.33, 0.014999966, 0.03380452, 41470.082, 187445.95, 0.000050789153, 10.001802, 9.998539 
1.1651095e+3, 2.951034e+2, 64101.023, -158441.31, -84384.03, 0.079775564, -0.002162112, 92479.19, 140468.8, 0.00017624088, 10.001432, 9.998522 
1.1651091e+3, 3.0510145e+2, 180843.78, -135395.36, 25084.785, 0.10907393, -0.0094227865, 182821.19, 182821.19, 0.00046429865, 10.0021715, 9.998 
1.1651085e+3, 3.1510124e+2, 425444.16, 72173.484, 20011.705, 0.0042725443, 0.12787886, 426574.13, 426574.13, 0.00094360544, 10.00339, 9.998844 
1.1751126e+3, 1.2511504e+2, -1877943.6, -1717707.5, -46132.664, 0.12855242, 0.11753371, -1705374.9, 8505.48, 0.0018234614, 9.998515, 10.000659 
1.1751117e+3, 1.3511418e+2, -1725434.5, -1677773.5, 24916.959, 0.023368515, 0.013215446, -1667125.8, -51238.664, 0.0009506097, 9.999289, 9.999907 
1.1751099e+3, 1.4511387e+2, -1595574.6, -1499214.4, -52694.66, -0.18046768, -0.030033736, -1475993.9, 41895.258, 0.00031097958, 9.999199, 10.000477 
1.1751116e+3, 1.5511566e+2, -1575884.1, -1446779.3, -24849.805, 0.112572014, 0.060096957, -1442161.4, -22289.82, 0.00003785508, 9.998697, 10.00041 
1.17511146e+3, 1.6511612e+2, -1479137.6, -1420767.5, 40082.926, 0.11734113, 0.105575606, -1400370.3, -78504.05, 0.00000010132158, 9.998988, 9.9997835 
1.1751101e+3, 1.7511511e+2, -1217227.0, -1237558.9, 67420.805, -0.09735843, -0.01640325, -1159210.0, 64664.668, 0.0, 10.000085, 9.999843 
1.1751106e+3, 1.8511482e+2, -1106244.5, -1207613.5, 51061.688, -0.12561245, 0.011741951, -1084983.1, 40893.91, 0.0, 10.000499, 9.999171 
1.1751128e+3, 1.9511482e+2, -1027909.06, -1116469.1, 66826.45, 0.010816658, 0.057312287, -992023.7, 35853.617, 0.0, 10.000354, 9.999195 
1.1751136e+3, 2.0511392e+2, -977819.1, -1125122.0, -4899.5933, 0.06819959, 0.09291075, -977656.4, -47768.625, 0.0, 10.000391, 9.99844 
1.1751134e+3, 2.1511184e+2, -844888.44, -1006407.1, -13231.061, 0.0689631, -0.0008687778, -843811.75, -11900.789, 0.0, 10.000608, 9.998483 
1.1751138e+3, 2.2511084e+2, -686595.4, -817131.8, 22833.64, 0.051906757, 0.0317124, -682716.56, 51205.074, 0.0, 10.000753, 9.9990425 
1.1751146e+3, 2.3511064e+2, -572219.0, -702450.56, 69722.94, 0.011441313, 0.06864469, -541933.75, 93989.03, 0.0, 10.0008335, 9.999115 
1.1751143e+3, 2.4511021e+2, -466762.94, -605360.7, -30550.06, -0.030499937, 0.12412187, -460327.8, 77598.03, 0.0, 10.000885, 9.999088 
1.1751126e+3, 2.5510928e+2, -357187.25, -489866.7, -15403.387, -0.073175125, 0.07887297, -355422.47, 84511.19, 0.0, 10.000921, 9.999185 
1.17511205e+3, 2.6510793e+2, -290825.72, -513004.06, 25672.627, -0.09146641, 0.08088336, -287897.84, 54049.1, 0.0000005132723, 10.001162, 9.998245 
1.1751124e+3, 2.7510577e+2, -125201.305, -377999.28, 27661.287, -0.11220556, -0.0010362797, -122209.984, 121759.95, 0.000009286575, 10.001608, 9.998285 
1.17511205e+3, 2.8510463e+2, 7180.092, -221498.03, -102706.234, -0.06018277, 0.049199983, 46535.504, 192516.63, 0.000051726838, 10.001649, 9.998665 
1.1751112e+3, 2.9510432e+2, 69600.09, -126703.59, -75923.4, 0.0720752, 0.10032499, 95537.516, 143520.45, 0.00018255804, 10.001336, 9.998789 
1.1751118e+3, 3.0510253e+2, 133149.44, -188915.39, 61922.27, 0.13417259, 0.09964801, 144644.72, 144644.72, 0.0004800074, 10.001997, 9.997708 
1.1751119e+3, 3.1510174e+2, 389327.0, 69645.695, 110467.57, -0.063117854, 0.20960996, 423785.4, 423785.4, 0.0009690312, 10.0031, 9.998955 
1.1851106e+3, 1.251147e+2, -1756639.6, -1674361.4, 32710.998, 0.05670984, 0.073510215, -1662941.5, 50940.152, 0.0020081834, 9.999375, 10.000554 
1.1851117e+3, 1.3511394e+2, -1822229.3, -1764132.9, 17117.822, 0.14279185, 0.004364943, -1759464.4, -143575.14, 0.0010574218, 9.998765, 9.9995775 
1.1851098e+3, 1.45114e+2, -1663936.0, -1509628.6, -8425.068, -0.070381455, 0.0036114482, -1509170.0, 8718.144, 0.00035351914, 9.998613, 10.0007 
1.1851108e+3, 1.551155e+2, -1486828.6, -1372715.8, -53969.42, 0.15351321, 0.04203973, -1351234.8, 68637.78, 0.00004562391, 9.999176, 10.000694 
1.18511096e+3, 1.6511603e+2, -1378700.3, -1391853.4, 58898.96, 0.13340959, 0.090679646, -1326011.9, -4145.408, 0.00000019883093, 9.999773, 9.999604 
1.18511036e+3, 1.7511533e+2, -1162907.6, -1224379.8, 23045.932, -0.09082157, 0.014429049, -1155227.3, 68645.31, 0.0, 10.000528, 9.999712 
1.1851112e+3, 1.8511489e+2, -1092259.1, -1199290.0, -16323.75, -0.10399531, 0.032173958, -1089824.9, 36051.83, 0.0, 10.000578, 9.999196 
1.1851134e+3, 1.9511431e+2, -1082613.4, -1137155.6, -26873.406, 0.07021033, 0.016203366, -1071597.5, -43714.98, 0.0, 9.999946, 9.999252 
1.1851142e+3, 2.0511344e+2, -1028789.56, -1144854.5, 5257.4717, 0.12710553, 0.049578294, -1028551.9, -98658.91, 0.0, 10.000013, 9.998499 
1.1851142e+3, 2.1511193e+2, -813295.75, -977975.4, 21196.477, 0.09049869, 0.010190201, -810611.25, 21299.895, 0.0, 10.000776, 9.998598 
1.18511476e+3, 2.251114e+2, -636507.1, -762073.9, 77595.02, 0.07207988, 0.06791204, -599476.94, 134440.61, 0.0, 10.000966, 9.999313 
1.1851157e+3, 2.351114e+2, -589639.8, -682536.8, 52890.19, 0.06279634, 0.09966139, -565697.7, 70218.586, 0.0, 10.000586, 9.99937 
1.1851155e+3, 2.4511097e+2, -525576.6, -653243.44, -19944.04, 0.036908362, 0.14904788, -522533.53, 15386.31, 0.0, 10.000572, 9.998909 
1.185114e+3, 2.5510976e+2, -370873.4, -526399.25, -47402.86, -0.005632181, 0.099374585, -357564.38, 82367.24, 0.0, 10.000949, 9.998931 
1.18511364e+3, 2.6510826e+2, -266498.8, -506364.2, 43421.65, -0.043503236, 0.10054381, -258880.39, 83066.62, 0.0000005059796, 10.001372, 9.9981785 
1.18511416e+3, 2.7510604e+2, -97768.875, -376658.94, 30012.451, -0.099799395, 0.025064012, -94575.68, 149394.19, 0.000009353779, 10.001858, 9.99817 
1.18511386e+3, 2.8510472e+2, 93844.23, -210106.02, -76372.02, -0.07327823, 0.07659122, 111954.74, 257937.28, 0.000051580555, 10.002399, 9.998368 
1.1851133e+3, 2.9510415e+2, 284740.56, -60039.41, -121393.78, 0.06498844, 0.13567941, 323193.53, 371180.25, 0.00018437536, 10.00299, 9.9984455 
1.1851145e+3, 3.0510184e+2, 277600.8, -159200.2, 30283.307, 0.1599701, 0.11922607, 279690.34, 279690.34, 0.00048100852, 10.003137, 9.997372 
1.1851155e+3, 3.151005e+2, 287494.88, -4592.3115, 4689.6997, 0.030604279, 0.20541692, 287570.16, 287570.16, 0.00096257555, 10.002469, 9.998759 
1.19510986e+3, 1.2511276e+2, -1747309.8, -1653065.6, 35618.93, -0.03682804, -0.07158825, -1641118.3, 72780.53, 0.0022081332, 9.9993725, 10.000691 
1.1951108e+3, 1.3511458e+2, -1783327.1, -1687023.6, 5090.916, 0.14320412, 0.062310442, -1686755.3, -70872.43, 0.0011730703, 9.998772, 10.000102 
1.1951096e+3, 1.4511566e+2, -1682506.5, -1544455.3, -9139.916, 0.01126038, 0.14969304, -1543852.8, -25980.443, 0.00040013902, 9.998603, 10.000464 
1.1951094e+3, 1.5511525e+2, -1500747.4, -1407476.5, -15689.517, 0.046836585, 0.020845497, -1404908.0, 14966.573, 0.00005450229, 9.999195, 10.000448 
1.19510986e+3, 1.6511506e+2, -1409631.4, -1456816.8, 66007.99, 0.014961519, 0.029323205, -1363126.5, -41250.016, 0.00000035173326, 9.99977, 9.999164 
1.1951117e+3, 1.7511475e+2, -1204300.4, -1300626.9, 67094.09, -0.046061035, 0.041715905, -1169872.4, 54008.63, 0.0, 10.000478, 9.999219 
1.1951128e+3, 1.8511425e+2, -1095296.6, -1185047.9, -57578.04, -0.043344192, 0.07213412, -1067171.9, 58714.72, 0.0, 10.000495, 9.9993305 
1.19511314e+3, 1.9511326e+2, -1090130.8, -1124457.6, -33848.594, 0.023486512, -0.0007789032, -1069342.8, -41446.723, 0.0, 9.999824, 9.999397 
1.1951137e+3, 2.0511307e+2, -992196.0, -1031807.4, 14142.702, 0.04374904, 0.050175905, -987664.9, -57766.203, 0.0, 9.999858, 9.999347 
1.1951146e+3, 2.151133e+2, -789028.9, -874806.9, 65909.39, 0.026177298, 0.10070586, -753282.5, 78615.35, 0.0, 10.00055, 9.999415 
1.1951154e+3, 2.2511292e+2, -687681.5, -810942.9, 43802.527, 0.014351841, 0.14617515, -673701.3, 60200.87, 0.0, 10.000719, 9.999096 
1.1951161e+3, 2.3511165e+2, -635001.2, -723618.06, 51751.88, 0.011418637, 0.06679348, -611181.06, 24733.145, 0.0, 10.000364, 9.999189 
1.19511634e+3, 2.4511063e+2, -577740.0, -714638.8, -24195.883, 0.04021652, 0.08138567, -573589.44, -35664.84, 0.0, 10.000369, 9.99859 
1.1951162e+3, 2.5510946e+2, -419266.3, -578586.1, -15036.246, 0.09193945, 0.06905647, -417859.63, 22077.016, 0.0, 10.000748, 9.998667 
1.1951162e+3, 2.6510826e+2, -285381.5, -502910.75, 45969.754, 0.044666942, 0.10509959, -276065.8, 65883.2, 0.0000006389743, 10.0011835, 9.998298 
1.19511634e+3, 2.751066e+2, -109116.484, -359935.16, 68708.6, -0.09998031, 0.07243279, -91528.016, 152436.72, 0.000009301616, 10.001692, 9.998363 
1.1951158e+3, 2.85105e+2, 19252.475, -334695.22, -67674.83, -0.15104154, 0.12068263, 31750.592, 177730.86, 0.00005191434, 10.002261, 9.997584 
1.195115e+3, 2.9510286e+2, 207177.4, -190623.22, -73415.59, -0.10388646, 0.1013904, 220294.05, 268294.47, 0.00018470343, 10.002847, 9.997621 
1.1951167e+3, 3.0509952e+2, 203798.28, -258730.64, -1366.3032, 0.041302808, 0.055203058, 203802.31, 203802.31, 0.00047307427, 10.002921, 9.996782 
1.1951183e+3, 3.1509748e+2, 208932.34, -95389.98, 32456.85, -0.002471522, 0.1222442, 212355.45, 212355.45, 0.0009340092, 10.002174, 9.998266 
1.20511025e+3, 1.2511353e+2, -1884722.6, -1732008.8, 92363.1, 0.12238337, 0.018066669, -1688526.9, 25364.762, 0.0024257244, 9.998499, 10.00058 
1.205109e+3, 1.3511482e+2, -1841568.9, -1670293.3, -19725.514, 0.12976697, 0.07077474, -1668050.9, -52170.89, 0.0012988481, 9.998203, 10.000483 
1.205109e+3, 1.4511567e+2, -1754217.0, -1630182.3, 42329.695, 0.10885491, 0.13850264, -1617113.4, -99241.82, 0.00045139206, 9.998315, 10.000019 
1.2051086e+3, 1.5511476e+2, -1525737.8, -1465201.6, -24520.62, 0.06948822, -0.0016693206, -1456515.8, -36635.965, 0.00006471426, 9.999211, 10.000045 
1.20510966e+3, 1.6511452e+2, -1438331.9, -1449634.4, 97028.59, 0.040984273, 0.013792339, -1346790.0, -24907.928, 0.00000057087306, 9.99949, 9.99934 
1.2051124e+3, 1.7511462e+2, -1358722.5, -1349400.3, 110370.17, 0.044564504, 0.048312034, -1243592.8, -19710.66, 0.0, 9.999322, 9.999432 
1.2051137e+3, 1.8511434e+2, -1219264.1, -1255560.9, 33934.31, 0.043717813, 0.0943627, -1198930.0, -73043.984, 0.0, 9.9997015, 9.999222 
1.2051135e+3, 1.9511329e+2, -970411.5, -1073122.0, 7370.152, 0.036347304, 0.025016487, -969885.4, 58012.082, 0.0, 10.000687, 9.999325 
1.2051139e+3, 2.0511316e+2, -832134.3, -933982.4, 53869.043, 0.029708615, 0.07495465, -808929.2, 120970.25, 0.0, 10.000843, 9.999548 
1.2051149e+3, 2.151135e+2, -824637.44, -873211.75, 21514.344, 0.024225334, 0.11564668, -816478.75, 15417.702, 0.0, 10.000191, 9.999608 
1.205116e+3, 2.2511318e+2, -747998.56, -847412.5, 30654.572, 0.032254398, 0.16021599, -739306.2, -5405.8433, 0.0, 10.000336, 9.999037 
1.2051173e+3, 2.351119e+2, -505968.25, -672072.7, 17093.86, 0.05963033, 0.090582915, -504227.38, 131686.5, 0.0, 10.001289, 9.999107 
1.2051181e+3, 2.4511088e+2, -383499.16, -621152.75, -20676.697, 0.10434122, 0.11106299, -381713.63, 156211.2, 0.0, 10.001722, 9.998559 
1.2051179e+3, 2.5510973e+2, -288740.7, -520762.34, -31195.51, 0.14362796, 0.10048733, -284619.63, 155317.39, 0.00000000020898414, 10.001676, 9.998604 
1.2051181e+3, 2.6510853e+2, -206722.61, -447968.16, 74225.35, 0.09700003, 0.13348497, -185714.69, 156233.28, 0.00000074892756, 10.001636, 9.998458 
1.2051185e+3, 2.75107e+2, -115610.55, -347812.44, 62852.402, -0.028585026, 0.09537859, -99689.32, 144271.06, 0.000009032264, 10.001557, 9.998511 
1.2051184e+3, 2.8510502e+2, -43486.605, -409918.28, -5834.5337, -0.10042113, 0.11961799, -43393.73, 102585.336, 0.000052136886, 10.002026, 9.997187 
1.20511755e+3, 2.9510218e+2, 186067.13, -241765.7, -29412.04, -0.120891936, 0.0714171, 188079.64, 236087.55, 0.0001849306, 10.002901, 9.997239 
1.2051194e+3, 3.0509874e+2, 254146.6, -218308.72, 75208.95, 0.025985096, 0.032317534, 265830.0, 265830.0, 0.0004665325, 10.0032, 9.996922 
1.2051211e+3, 3.1509683e+2, 259678.36, -35399.79, 92200.46, 0.05559779, 0.09709953, 286118.3, 286118.3, 0.00090609276, 10.002403, 9.998554 
1.2151099e+3, 1.2511581e+2, -1899701.4, -1752424.5, -50581.973, 0.15535891, 0.22252461, -1736725.6, -22853.373, 0.0026624324, 9.998477, 10.0004425 
1.2151061e+3, 1.351148e+2, -1831149.9, -1650089.5, -24253.66, -0.020306239, 0.034759652, -1646896.9, -31017.613, 0.0014356553, 9.998216, 10.000616 
1.2151075e+3, 1.4511421e+2, -1785853.3, -1701832.6, 52773.047, 0.08058896, -0.025820259, -1676390.3, -158505.84, 0.0005075534, 9.998344, 9.999511 
1.2151084e+3, 1.5511401e+2, -1565861.8, -1550158.1, 28625.803, 0.08340372, -0.03774004, -1528326.8, -108439.02, 0.000076397075, 9.999214, 9.999464 
1.21510975e+3, 1.6511434e+2, -1383894.1, -1332655.3, 73086.49, 0.054858908, 0.025076933, -1280828.0, 41056.043, 0.0000008702971, 9.999479, 10.000141 
1.2151122e+3, 1.7511494e+2, -1313354.5, -1241220.5, 120380.22, 0.050153296, 0.029064884, -1151620.4, 72255.836, 0.0, 9.999263, 10.000203 
1.2151134e+3, 1.8511508e+2, -1247040.4, -1296107.3, 52063.918, 0.019551996, 0.09084133, -1214019.1, -88143.07, 0.0, 9.999628, 9.9989805 
1.2151138e+3, 1.9511439e+2, -1009731.44, -1124300.4, 61420.7, -0.034396145, 0.08391414, -983027.75, 44859.15, 0.0, 10.000553, 9.99904 
1.21511415e+3, 2.051137e+2, -891046.3, -1011215.8, 10027.923, -0.057737242, 0.11508703, -890215.25, 39680.496, 0.0, 10.000652, 9.999106 
1.2151146e+3, 2.1511273e+2, -887746.25, -945986.75, 12460.031, -0.053645633, 0.063646235, -885192.5, -53287.297, 0.0, 9.999943, 9.999224 
1.2151162e+3, 2.2511238e+2, -775757.9, -854230.2, 48055.555, -0.007484669, 0.11906407, -752955.25, -19045.105, 0.0, 10.00011, 9.999104 
1.215119e+3, 2.351123e+2, -532450.3, -674626.6, 70828.14, 0.08008166, 0.16200815, -503188.3, 132725.56, 0.0, 10.001061, 9.9992 
1.2151199e+3, 2.4511181e+2, -414946.97, -623708.94, -36783.29, 0.087304085, 0.22440194, -408655.47, 129264.734, 0.0, 10.001454, 9.998668 
1.2151186e+3, 2.5511056e+2, -309790.06, -518919.5, -16388.438, 0.022610215, 0.18978384, -308513.56, 131419.0, 0.00000000018849695, 10.001479, 9.998708 
1.2151189e+3, 2.6510915e+2, -221240.39, -434535.44, 54858.258, -0.013810983, 0.19039904, -207958.25, 133985.19, 0.00000061447383, 10.001444, 9.998648 
1.2151205e+3, 2.751072e+2, -122591.75, -329029.28, 80504.445, -0.025304293, 0.09185854, -94909.49, 149047.39, 0.000008322687, 10.001404, 9.998721 
1.215121e+3, 2.851049e+2, -90566.24, -447851.9, 12027.405, -0.074281596, 0.08119685, -90161.82, 55816.6, 0.000050710027, 10.001788, 9.997032 
1.2151206e+3, 2.9510206e+2, 154261.03, -267288.0, 28735.814, -0.14959143, 0.043950822, 156210.84, 204220.52, 0.00018357177, 10.002737, 9.997135 
1.2151224e+3, 3.0509943e+2, 280934.78, -125023.98, 34534.684, -0.027460134, 0.052718025, 283851.7, 283851.7, 0.00046227945, 10.003038, 9.997645 
1.2151228e+3, 3.1509817e+2, 288668.38, 92801.15, 102532.2, -0.07502304, 0.11258607, 332522.78, 332522.78, 0.0008888424, 10.002116, 9.999575 
1.2251085e+3, 1.2511542e+2, -1986538.9, -1782291.8, -94020.19, 0.23052406, 0.22848229, -1745602.4, -31724.64, 0.0029179724, 9.9978075, 10.00056 
1.22510485e+3, 1.351146e+2, -1701677.4, -1584292.8, -77833.41, 0.011960381, 0.052940667, -1545502.6, 70380.586, 0.0015834377, 9.999083, 10.000653 
1.2251068e+3, 1.4511392e+2, -1618380.1, -1615646.4, 51002.07, 0.12388853, -0.019000307, -1565992.9, -48103.656, 0.00056846405, 9.999491, 9.999544 
1.2251081e+3, 1.5511435e+2, -1534618.5, -1517023.3, 25018.826, 0.13557589, 0.023023222, -1499300.4, -79413.85, 0.00008951281, 9.999391, 9.999585 
1.2251095e+3, 1.6511464e+2, -1407053.8, -1352386.1, 89257.484, 0.10750007, 0.07568, -1286371.0, 35511.977, 0.0000012652538, 9.999319, 10.00011 
1.2251117e+3, 1.7511448e+2, -1296502.3, -1231294.0, 46629.496, 0.08049547, 0.007575984, -1207000.5, 16881.08, 0.0, 9.999351, 10.000241 
1.22511305e+3, 1.8511471e+2, -1262585.9, -1272769.4, 25493.314, 0.04176523, 0.061711095, -1241680.8, -115800.73, 0.0, 9.999367, 9.999277 
1.2251139e+3, 1.951149e+2, -1157662.6, -1164432.9, 38753.234, -0.01743986, 0.11202992, -1122147.0, -94264.414, 0.0, 9.99939, 9.999337 
1.2251145e+3, 2.0511428e+2, -1012918.4, -1070987.9, 47506.51, -0.03859343, 0.13782303, -986276.56, -56386.32, 0.0, 9.999836, 9.999082 
1.2251151e+3, 2.1511264e+2, -782359.3, -895724.0, 44284.223, -0.026594684, 0.022531241, -767111.25, 64794.11, 0.0, 10.000694, 9.999195 
1.2251169e+3, 2.2511223e+2, -674317.4, -813432.06, 124577.35, 0.026406836, 0.076427035, -601194.1, 132716.61, 0.0, 10.00083, 9.999036 
1.2251199e+3, 2.3511262e+2, -658708.0, -747332.4, 96261.47, 0.109552905, 0.17402291, -597049.25, 38861.15, 0.0, 10.000227, 9.999109 
1.22512095e+3, 2.451121e+2, -568535.25, -703183.9, 24790.889, 0.11629852, 0.24052551, -564115.94, -26198.883, 0.0, 10.000396, 9.998654 
1.2251203e+3, 2.551104e+2, -333246.75, -529734.44, 5527.772, 0.051489897, 0.16540214, -333091.38, 106841.836, 0.0, 10.001306, 9.99873 
1.2251209e+3, 2.6510888e+2, -172087.61, -402268.8, 83939.125, 0.030877465, 0.15063584, -144729.55, 197215.06, 0.0000003685213, 10.001771, 9.998695 
1.22512266e+3, 2.7510718e+2, -70031.81, -295180.03, 56040.715, 0.039826788, 0.069097675, -56854.21, 187101.08, 0.0000073761885, 10.001776, 9.998752 
1.2251234e+3, 2.8510502e+2, -31133.799, -424777.03, 50617.344, -0.009753625, 0.07210376, -24729.273, 121246.35, 0.000049087277, 10.002183, 9.997005 
1.2251238e+3, 2.9510227e+2, 161118.28, -275089.78, 42354.664, -0.093158595, 0.049073018, 165192.75, 213199.77, 0.00018153466, 10.002797, 9.9970665 
1.2251257e+3, 3.0509996e+2, 281717.4, -101055.06, 17935.025, 0.022244213, 0.08096819, 282555.94, 282555.94, 0.00045750884, 10.002954, 9.997838 
1.22512564e+3, 3.1509802e+2, 326846.97, 121451.195, -34661.984, -0.0014171194, 0.056021784, 332538.7, 332538.7, 0.0008772591, 10.002294, 9.999692 
1.2351045e+3, 1.2511286e+2, -1940750.5, -1713784.1, -133699.42, -0.02957011, 0.065812096, -1651899.3, 62004.617, 0.0031899144, 9.997893, 10.0009985 
1.2351047e+3, 1.3511421e+2, -1701031.8, -1596241.0, -22459.568, 0.05749734, 0.11166561, -1591630.1, 24261.023, 0.0017411282, 9.999116, 10.00056 
1.2351061e+3, 1.4511466e+2, -1575905.5, -1541287.5, 24185.234, 0.053074438, 0.13113618, -1528855.5, -10968.562, 0.0006337289, 9.999537, 10.000041 
1.2351074e+3, 1.5511556e+2, -1494872.6, -1444163.0, 32653.092, 0.09340065, 0.17258881, -1428176.6, -8298.767, 0.00010392506, 9.999409, 10.000091 
1.23510875e+3, 1.6511518e+2, -1445909.6, -1435038.9, 65751.055, 0.06206596, 0.16153878, -1374499.0, -52618.316, 0.0000017603737, 9.999328, 9.999535 
1.23511046e+3, 1.7511325e+2, -1339081.5, -1321986.8, 62278.746, -0.005684665, -0.026729885, -1267671.6, -43773.582, 0.0, 9.999348, 9.999623 
1.23511195e+3, 1.8511324e+2, -1216495.6, -1163762.6, 9506.272, -0.0391526, -0.004103626, -1162101.3, -36203.188, 0.0, 9.999311, 10.000051 
1.23511314e+3, 1.951148e+2, -1117954.0, -1055085.4, 56554.164, -0.051913068, 0.10597058, -1021816.56, 6067.461, 0.0, 9.999272, 10.000142 
1.2351145e+3, 2.0511489e+2, -1011389.44, -1028252.2, 58348.63, -0.047138557, 0.14119759, -960866.2, -30983.346, 0.0, 9.999664, 9.999459 
1.2351161e+3, 2.1511321e+2, -788822.8, -861246.5, 91397.805, -0.023908513, -0.015026076, -726724.7, 105172.5, 0.0, 10.000483, 9.9995365 
1.2351178e+3, 2.2511269e+2, -724202.8, -867030.75, 85185.69, -0.0014950957, 0.024944982, -684456.75, 49445.98, 0.0, 10.000608, 9.998779 
1.2351195e+3, 2.3511295e+2, -707862.0, -801416.9, 93796.84, 0.017754309, 0.13423118, -649825.44, -13922.368, 0.0, 10.000016, 9.998843 
1.2351208e+3, 2.4511193e+2, -606534.56, -729904.5, 42855.133, 0.042665802, 0.16933678, -593108.94, -55194.727, 0.0, 10.000172, 9.998577 
1.23512216e+3, 2.5510937e+2, -365618.13, -551785.06, 58237.85, 0.088539, 0.014850272, -348900.97, 91037.61, 0.0, 10.001103, 9.998679 
1.2351234e+3, 2.6510778e+2, -225356.48, -451602.3, 68980.164, 0.084627934, 0.0043045455, -205983.9, 135967.63, 0.00000016286783, 10.001514, 9.998479 
1.2351246e+3, 2.7510676e+2, -115086.625, -342917.63, 77436.43, 0.027734382, 0.015057465, -91259.1, 152698.02, 0.000006622681, 10.001584, 9.998514 
1.2351256e+3, 2.851052e+2, -49555.39, -414349.0, 62051.98, -0.04844936, 0.08163646, -39289.168, 106683.39, 0.000048750662, 10.001979, 9.997176 
1.2351267e+3, 2.9510275e+2, 149472.25, -261981.83, 90738.06, -0.12475757, 0.074050896, 168594.08, 216594.81, 0.00018217463, 10.002629, 9.997243 
1.23512894e+3, 3.051003e+2, 221966.19, -181423.38, -13126.945, 0.004897072, 0.10322344, 222392.9, 222392.9, 0.00045752534, 10.00277, 9.997374 
1.2351286e+3, 3.1509632e+2, 230868.53, -10222.435, -21954.652, -0.017405165, -0.08116198, 232851.5, 232851.5, 0.00087459444, 10.002016, 9.998915 
1.24510184e+3, 1.2511122e+2, -2031131.8, -1753264.1, -9624.325, -0.053782053, -0.01785654, -1752931.1, -39013.25, 0.003475539, 9.997291, 10.001001 
1.2451038e+3, 1.3511331e+2, -1875252.0, -1697853.5, 3253.0203, 0.108683564, 0.11505054, -1697793.9, -81892.74, 0.0019075654, 9.997993, 10.000409 
1.2451046e+3, 1.4511435e+2, -1724770.0, -1566748.5, 55957.32, 0.02512446, 0.1818123, -1548940.3, -31048.307, 0.0007030745, 9.998323, 10.0004425 
1.2451068e+3, 1.551154e+2, -1569187.1, -1441462.8, 16331.037, 0.1258006, 0.19793741, -1439407.8, -19527.424, 0.00011956255, 9.998719, 10.000443 
1.2451084e+3, 1.651151e+2, -1499059.8, -1462951.1, 101295.52, 0.12206368, 0.1785683, -1378113.5, -56231.13, 0.0000023468863, 9.998989, 9.999496 
1.24511026e+3, 1.7511325e+2, -1353462.5, -1329724.5, 101199.16, 0.043790758, 0.00340914, -1239700.6, -15800.43, 0.0, 9.999271, 9.999598 
1.2451117e+3, 1.8511324e+2, -1182185.8, -1140552.5, 72187.79, -0.000038658978, 0.023302741, -1086239.9, 39660.37, 0.0, 9.999524, 10.000102 
1.24511294e+3, 1.9511461e+2, -1041435.4, -1015537.94, 33383.652, -0.023700465, 0.108001806, -992679.7, 35207.21, 0.0, 9.99978, 10.000169 
1.2451145e+3, 2.0511481e+2, -946873.8, -992734.7, 48145.93, -0.022953866, 0.15193193, -916476.6, 13407.381, 0.0, 10.000085, 9.999499 
1.2451167e+3, 2.1511357e+2, -799891.4, -860420.75, 20330.54, 0.008539018, 0.035018038, -793696.75, 38197.496, 0.0, 10.000374, 9.999596 
1.2451185e+3, 2.251129e+2, -711418.8, -854127.5, 22126.563, 0.014834121, 0.054725446, -708066.9, 25833.553, 0.0, 10.000698, 9.998809 
1.24511965e+3, 2.3511243e+2, -552062.0, -716483.4, 14806.343, -0.008381647, 0.08544601, -550739.3, 85167.01, 0.0, 10.001077, 9.998897 
1.2451216e+3, 2.4511126e+2, -451895.94, -685947.9, 27376.078, 0.046274886, 0.11682591, -448736.53, 89182.266, 0.0, 10.001371, 9.998296 
1.2451243e+3, 2.5510916e+2, -319786.03, -557170.56, -8593.348, 0.17912549, 0.035915483, -319475.34, 120464.81, 0.0, 10.001552, 9.998413 
1.245126e+3, 2.651075e+2, -220378.75, -469556.28, 8123.6147, 0.19313209, 0.041000307, -220114.19, 121840.48, 0.000000050542315, 10.001604, 9.9983225 
1.2451266e+3, 2.7510595e+2, -141314.6, -378121.6, -11183.307, 0.08857513, 0.014288516, -140787.64, 103178.54, 0.0000061370592, 10.001461, 9.998352 
1.24512784e+3, 2.8510433e+2, -75684.45, -387151.47, 44026.402, -0.0037654343, 0.066561714, -69580.85, 76400.71, 0.000049451548, 10.001646, 9.997517 
1.2451295e+3, 2.951023e+2, 102316.65, -238222.28, 41551.918, -0.07333421, 0.06523267, 107313.42, 155317.4, 0.00018750013, 10.002141, 9.997623 
1.24513224e+3, 3.0510017e+2, 261033.45, -183847.33, -10551.637, 0.05485912, 0.11691187, 261283.58, 261283.58, 0.000470274, 10.003097, 9.997217 
1.24513246e+3, 3.150957e+2, 524282.16, 63141.418, -68861.0, 0.07368329, -0.09567908, 534345.4, 534345.4, 0.0008945071, 10.004314, 9.998327 
1.2551011e+3, 1.2511052e+2, -2052418.9, -1819057.8, 86123.836, 0.06685662, -0.03349055, -1790715.3, -76795.06, 0.0037739007, 9.997372, 10.000515 
1.2551014e+3, 1.3511212e+2, -1881518.6, -1719589.8, 41260.938, 0.04963853, 0.06639268, -1709682.3, -93771.41, 0.0020822603, 9.998027, 10.000247 
1.2551022e+3, 1.4511327e+2, -1699661.8, -1521863.5, 51130.58, -0.10267027, 0.13766527, -1508208.3, 9693.344, 0.0007764397, 9.99835, 10.000736 
1.2551054e+3, 1.5511405e+2, -1546248.9, -1397449.6, 47178.637, 0.0818488, 0.09778648, -1383752.0, 36140.082, 0.00013646827, 9.998734, 10.000737 
1.2551081e+3, 1.6511452e+2, -1470839.1, -1410408.6, 90126.5, 0.14843361, 0.12208002, -1345567.4, -23680.092, 0.0000030208696, 9.999008, 9.999853 
1.2551105e+3, 1.7511456e+2, -1329352.1, -1275586.0, 125061.68, 0.105080985, 0.09757322, -1174550.6, 49337.055, 0.0, 9.9992485, 9.999981 
1.255112e+3, 1.8511464e+2, -1230498.6, -1229173.5, 61116.465, 0.032775786, 0.13528119, -1168716.0, -42828.445, 0.0, 9.99947, 9.999525 
1.2551126e+3, 1.9511428e+2, -1094128.8, -1106543.4, 58721.44, -0.065575525, 0.10809627, -1041287.5, -13396.359, 0.0, 9.999696, 9.999587 
1.2551141e+3, 2.0511411e+2, -993029.0, -1049007.1, 40868.85, -0.09720397, 0.15790418, -971483.7, -41590.746, 0.0, 9.999915, 9.9992 
1.2551166e+3, 2.1511382e+2, -853818.3, -920686.3, 48155.95, -0.06579106, 0.1678047, -828627.9, 3267.714, 0.0, 10.000149, 9.999296 
1.2551185e+3, 2.2511286e+2, -729324.3, -829937.25, 18817.195, -0.07213458, 0.16069315, -725920.25, 7983.7197, 0.0, 10.000439, 9.999096 
1.2551202e+3, 2.3511097e+2, -564446.4, -692248.7, 45988.414, -0.10294274, 0.019489847, -549618.3, 86302.55, 0.0, 10.000859, 9.999167 
1.2551227e+3, 2.4511002e+2, -516799.75, -767413.8, 16204.338, -0.01484969, 0.079676546, -515756.34, 22175.084, 0.0, 10.001141, 9.997848 
1.2551261e+3, 2.551096e+2, -385106.3, -647438.25, 15271.496, 0.18603499, 0.21491879, -384220.28, 55719.008, 0.0, 10.001346, 9.997896 
1.2551281e+3, 2.6510793e+2, -256859.06, -493158.47, -14463.174, 0.21026534, 0.2457826, -255977.11, 85978.59, 0.00000007625481, 10.001385, 9.998263 
1.2551282e+3, 2.7510473e+2, -169691.92, -394780.22, 5008.8765, 0.07247454, 0.05976605, -169580.52, 74402.54, 0.0000061507535, 10.00128, 9.998325 
1.2551296e+3, 2.8510252e+2, -71218.71, -338729.72, 48469.92, -0.031010794, 0.033448186, -62707.32, 83294.8, 0.000051588533, 10.00148, 9.997924 
1.2551318e+3, 2.9510087e+2, 109833.25, -190121.31, 82099.695, -0.090890884, 0.019872561, 130834.17, 178851.39, 0.00020006, 10.002001, 9.998017 
1.2551352e+3, 3.0509943e+2, 251151.66, -175662.75, 22487.324, 0.024687141, 0.11934367, 252333.17, 252333.17, 0.0005036429, 10.00297, 9.997331 
1.2551363e+3, 3.150962e+2, 447692.88, -32990.41, 16341.648, -0.054401916, 0.008324648, 448247.8, 448247.8, 0.0009532297, 10.004041, 9.997798 
1.2650993e+3, 1.2510929e+2, -2117674.3, -1827147.6, 102637.32, 0.19886535, 0.010018778, -1794546.3, -80613.305, 0.004085261, 9.99684, 10.000731 
1.2650988e+3, 1.3511074e+2, -1924614.6, -1687974.3, -3985.7112, 0.010440249, 0.06735186, -1687907.1, -71983.484, 0.0022650692, 9.997548, 10.000682 
1.2651008e+3, 1.4511175e+2, -1752619.4, -1552620.9, 47984.03, -0.049828652, 0.10383896, -1541704.4, -23788.592, 0.00085386867, 9.998007, 10.000698 
1.265104e+3, 1.5511246e+2, -1569070.8, -1409550.9, -18757.0, 0.08241276, 0.062436063, -1407375.0, 12533.11, 0.00015477135, 9.998597, 10.000721 
1.265107e+3, 1.6511336e+2, -1500098.4, -1402745.5, 29863.494, 0.1602948, 0.124135725, -1394314.8, -72415.08, 0.0000038088367, 9.998733, 10.000026 
1.2651098e+3, 1.7511426e+2, -1403688.0, -1296296.3, 13738.258, 0.15262134, 0.17020851, -1294566.6, -70674.35, 0.0, 9.998679, 10.0001135 
1.2651119e+3, 1.8511416e+2, -1288188.0, -1282549.6, 8952.572, 0.10034931, 0.19648519, -1275982.9, -150089.2, 0.0, 9.999183, 9.999295 
1.2651132e+3, 1.9511275e+2, -1033897.0, -1100441.6, -5492.581, 0.0017993866, 0.085612856, -1033446.7, -5539.755, 0.0, 10.000223, 9.999369 
1.2651148e+3, 2.051123e+2, -893613.94, -1003153.6, 11584.5, -0.045718923, 0.118767895, -892402.2, 37508.945, 0.0, 10.000608, 9.999175 
1.265117e+3, 2.1511242e+2, -826110.94, -908560.44, 2777.275, -0.051470276, 0.17073789, -826017.5, 5892.184, 0.0, 10.000346, 9.999277 
1.265119e+3, 2.2511153e+2, -749451.44, -863136.94, 13951.423, -0.053898986, 0.18108252, -747764.4, -13846.834, 0.0, 10.000381, 9.998908 
1.2651214e+3, 2.3510945e+2, -606826.75, -731738.3, -24645.385, -0.04295185, 0.041612197, -602140.0, 33796.68, 0.0, 10.000638, 9.999012 
1.2651241e+3, 2.4510838e+2, -517316.7, -741817.0, -13345.358, 0.029114496, 0.0862935, -516526.2, 21421.451, 0.0, 10.00101, 9.998096 
1.2651274e+3, 2.5510797e+2, -345028.5, -601207.06, 6391.3857, 0.16106881, 0.19551869, -344869.13, 95084.97, 0.0, 10.001492, 9.998155 
1.2651294e+3, 2.651064e+2, -196362.0, -488659.63, 22973.174, 0.18408957, 0.24052964, -194567.44, 147402.36, 0.00000015326442, 10.001916, 9.998039 
1.2651302e+3, 2.751035e+2, -42400.96, -351223.13, -12271.534, 0.10404331, 0.10579995, -41914.1, 202083.22, 0.0000068361555, 10.002247, 9.998147 
1.265132e+3, 2.8510126e+2, 71899.24, -238272.1, 58468.69, 0.041114073, 0.06850677, 82554.8, 228571.05, 0.000055437977, 10.002308, 9.998228 
1.265135e+3, 2.950993e+2, 167426.03, -132500.03, 48066.85, 0.011473266, -0.0014812934, 174941.05, 222971.66, 0.00021969865, 10.002247, 9.99831 
1.265139e+3, 3.0509752e+2, 299283.0, -150438.28, 61564.79, 0.08994376, 0.05333214, 307558.66, 307558.66, 0.00055763865, 10.003315, 9.99733 
1.2651409e+3, 3.1509507e+2, 570759.6, -16367.585, -35123.723, -0.022031644, 0.023769261, 572853.4, 572853.4, 0.001054668, 10.005101, 9.997395 
1.2750958e+3, 1.2510806e+2, -2022410.6, -1652434.4, 10151.979, 0.08162258, 0.16767237, -1652156.0, 61794.316, 0.0044096503, 9.996932, 10.001882 
1.2750949e+3, 1.3510922e+2, -1865960.0, -1570209.3, 29786.793, -0.16472405, 0.11191945, -1567239.1, 48699.535, 0.0024558255, 9.997553, 10.001492 
1.2750997e+3, 1.451098e+2, -1766603.0, -1597278.8, 49272.934, -0.0029483703, 0.07932787, -1583984.3, -66050.39, 0.00093550276, 9.998067, 10.000363 
1.2751022e+3, 1.5511072e+2, -1587099.5, -1458660.5, 19613.22, -0.0018728084, 0.09037508, -1455732.3, -35805.355, 0.00017466526, 9.998639, 10.000365 
1.2751047e+3, 1.6511163e+2, -1492466.8, -1403693.8, 7997.0596, 0.020000733, 0.17225836, -1402979.1, -81059.55, 0.0000047674703, 9.9987955, 9.999991 
1.2751079e+3, 1.7511237e+2, -1404790.9, -1302295.0, 28571.967, 0.05969955, 0.20324583, -1294868.4, -70954.52, 0.0, 9.998687, 10.00007 
1.275111e+3, 1.8511193e+2, -1296604.0, -1282415.1, 32929.25, 0.061000995, 0.19668773, -1255824.8, -129907.164, 0.0, 9.999112, 9.999326 
1.275114e+3, 1.9511005e+2, -1047244.06, -1101838.9, 51020.94, 0.03648902, 0.033329833, -1016677.06, 11256.585, 0.0, 10.00011, 9.999412 
1.275116e+3, 2.0510933e+2, -903418.25, -982875.3, -17333.367, -0.01350631, 0.02726315, -899801.6, 30137.117, 0.0, 10.000435, 9.999399 
1.2751172e+3, 2.151094e+2, -844779.0, -895685.3, 7928.215, -0.08200175, 0.052328732, -843572.8, -11636.4795, 0.0, 10.000123, 9.999475 
1.2751195e+3, 2.25109e+2, -823892.7, -961842.6, 6217.7583, -0.06567028, 0.1285709, -823613.0, -89672.48, 0.0, 10.000148, 9.99834 
1.2751229e+3, 2.3510781e+2, -680436.0, -832494.9, 2561.5232, 0.030863136, 0.13412648, -680392.9, -44438.41, 0.0, 10.000416, 9.998426 
1.2751253e+3, 2.4510631e+2, -489464.63, -627820.44, -9873.847, 0.03587673, 0.122325465, -488763.53, 49204.656, 0.0, 10.000775, 9.998988 
1.2751271e+3, 2.5510433e+2, -312669.25, -480831.97, 43085.004, -0.037189245, -0.01950258, -302273.16, 137710.63, 0.0, 10.001266, 9.999088 
1.2751295e+3, 2.651032e+2, -263449.13, -572438.0, 18824.867, -0.028779717, 0.038542617, -262306.47, 79689.25, 0.00000020123079, 10.001681, 9.997574 
1.2751321e+3, 2.751023e+2, -105926.086, -436012.88, 19926.264, 0.04627445, 0.15061721, -104727.555, 139281.63, 0.0000077157165, 10.002049, 9.997658 
1.2751348e+3, 2.8510046e+2, 61541.598, -226036.86, 37449.74, 0.07062245, 0.17501399, 66338.45, 212363.23, 0.000060411407, 10.002159, 9.998382 
1.275138e+3, 2.9509762e+2, 149305.3, -122239.75, 71194.82, 0.06064079, -0.00036897018, 166839.27, 214883.02, 0.00024271311, 10.002043, 9.998477 
1.2751427e+3, 3.0509454e+2, 245996.78, -219183.42, 119398.305, 0.097605586, -0.06819579, 274852.88, 274852.88, 0.0006225909, 10.003138, 9.996942 
1.275146e+3, 3.1509286e+2, 478917.84, -115823.38, 72188.75, -0.09244786, 0.013554701, 487554.6, 487554.6, 0.0011840118, 10.004735, 9.996875 
1.2850936e+3, 1.2510534e+2, -2035151.3, -1638760.8, 7043.893, 0.19220673, 0.16642232, -1638635.6, 75342.19, 0.0047468157, 9.996722, 10.002079 
1.2850925e+3, 1.3510649e+2, -1886976.5, -1577975.0, -14540.088, -0.12798211, 0.10488917, -1577292.4, 38672.895, 0.0026545508, 9.997371, 10.001522 
1.2850983e+3, 1.4510728e+2, -1795031.8, -1608283.9, 31604.498, 0.0728253, 0.08876995, -1603080.3, -85122.04, 0.0010215283, 9.997893, 10.000364 
1.2851009e+3, 1.5510821e+2, -1537978.3, -1428107.1, -11715.153, -0.002425087, 0.103112, -1426871.9, -6920.298, 0.00019628371, 9.998966, 10.00041 
1.2851037e+3, 1.6510902e+2, -1387140.1, -1362178.6, -5239.2505, 0.0047397986, 0.17573328, -1361123.6, -39177.977, 0.0000059623408, 9.999535, 9.999937 
1.285107e+3, 1.7510962e+2, -1266605.8, -1237971.1, -21650.576, 0.06326587, 0.19989552, -1226332.1, -2391.029, 0.0, 9.999638, 10.000058 
1.2851106e+3, 1.851094e+2, -1225259.6, -1215863.0, 39364.957, 0.099480756, 0.20290262, -1180916.9, -54974.434, 0.0, 9.999484, 9.999597 
1.2851144e+3, 1.9510803e+2, -1150918.5, -1120352.3, 38936.344, 0.11307741, 0.06396776, -1093807.0, -65853.836, 0.0, 9.999285, 9.999679 
1.2851168e+3, 2.0510715e+2, -1022144.4, -1067388.6, -6659.4907, 0.060371377, 0.042555638, -1021184.5, -91224.9, 0.0, 9.999732, 9.999162 
1.2851179e+3, 2.1510646e+2, -764092.0, -877574.3, -45697.855, -0.05569914, 0.013983128, -747978.2, 83986.55, 0.0, 10.000776, 9.999283 
1.2851205e+3, 2.2510588e+2, -648195.0, -886781.56, -18499.719, -0.038775954, 0.087017685, -646769.06, 87201.42, 0.0, 10.001392, 9.998256 
1.2851246e+3, 2.351051e+2, -515489.88, -758887.4, -22523.516, 0.10618238, 0.1430095, -513423.16, 122557.01, 0.0, 10.001582, 9.998364 
1.285127e+3, 2.4510358e+2, -402057.25, -590269.56, -26438.896, 0.09428149, 0.13238278, -398413.8, 139580.44, 0.0, 10.001402, 9.9989395 
1.2851278e+3, 2.551011e+2, -382333.38, -518157.0, -82309.08, -0.058813844, -0.051351365, -343536.25, 96478.55, 0.0, 10.000815, 9.999042 
1.2851304e+3, 2.6509997e+2, -320863.16, -569786.44, -49917.363, -0.06145766, -0.0030145268, -311226.16, 30800.145, 0.00000014147287, 10.001138, 9.99786 
1.2851346e+3, 2.7509966e+2, -34291.215, -371179.1, -30487.96, 0.07484391, 0.14090948, -31554.324, 212479.19, 0.000007879153, 10.002396, 9.997944 
1.2851381e+3, 2.850981e+2, 166749.69, -199649.8, 3516.3477, 0.13954543, 0.18814941, 166783.44, 312830.38, 0.00006527563, 10.002997, 9.998157 
1.2851413e+3, 2.95095e+2, 257869.39, -92801.06, -36724.926, 0.14683671, 0.009601688, 261674.22, 309743.56, 0.000269289, 10.002887, 9.998269 
1.2851462e+3, 3.0509126e+2, 283879.16, -182252.25, 112388.65, 0.13818626, -0.12545241, 309562.03, 309562.03, 0.0006978728, 10.003295, 9.997135 
1.2851506e+3, 3.1509063e+2, 410131.2, -116281.29, 31183.742, -0.049907804, 0.045182988, 411972.03, 411972.03, 0.0013327203, 10.004053, 9.997222 
1.2950885e+3, 1.2510158e+2, -2092911.0, -1750627.5, -105009.5, -0.059049197, 0.028216802, -1720979.5, -6968.6455, 0.0050962004, 9.996707, 10.001315 
1.2950915e+3, 1.3510278e+2, -1949776.1, -1694223.0, 20170.984, 0.008939753, 0.048254028, -1692640.8, -76639.78, 0.0028611089, 9.997325, 10.000746 
1.2950963e+3, 1.4510427e+2, -1776882.0, -1571695.0, 46964.46, 0.027104186, 0.1345476, -1561456.4, -43468.527, 0.00111182, 9.997901, 10.00061 
1.2950996e+3, 1.5510502e+2, -1524942.5, -1395150.3, 47128.34, -0.053569343, 0.10450938, -1379843.0, 40138.68, 0.000219555, 9.998941, 10.00065 
1.2951031e+3, 1.6510566e+2, -1387613.8, -1362067.1, -22627.322, -0.041499175, 0.14548017, -1348856.6, -26879.938, 0.0000074533, 9.999525, 9.99994 
1.2951066e+3, 1.7510615e+2, -1272220.6, -1246064.3, -3184.0808, 0.025564184, 0.1600507, -1245682.3, -21709.2, 0.0, 9.999618, 10.000013 
1.2951101e+3, 1.8510666e+2, -1197790.1, -1157249.9, 13011.027, 0.06498816, 0.21643898, -1153433.4, -27465.7, 0.0, 9.999471, 10.000007 
1.2951139e+3, 1.9510669e+2, -1134347.6, -1070223.9, 46001.188, 0.10322532, 0.17600739, -1046213.7, -18248.225, 0.0, 9.999204, 10.000065 
1.2951167e+3, 2.0510568e+2, -1092750.8, -1173017.0, 13021.847, 0.041711606, 0.15607499, -1090691.0, -160716.81, 0.0, 9.999562, 9.998513 
1.2951185e+3, 2.1510345e+2, -841054.56, -984446.06, 7073.847, -0.11389294, 0.03612732, -840706.44, -8710.517, 0.0, 10.000551, 9.998652 
1.2951215e+3, 2.2510213e+2, -661684.2, -852423.7, -28004.902, -0.11312814, 0.045659192, -657657.44, 76350.65, 0.0, 10.001126, 9.99862 
1.2951258e+3, 2.3510142e+2, -527655.94, -724165.9, 3918.841, 0.042370994, 0.06955991, -527577.8, 108435.71, 0.0, 10.001322, 9.99873 
1.2951283e+3, 2.4510023e+2, -518735.34, -757674.7, -65983.2, 0.060574755, 0.12667395, -501725.03, 36300.582, 0.0, 10.001096, 9.997931 
1.295129e+3, 2.5509822e+2, -489448.25, -679131.94, -84334.64, -0.04690175, 0.08746721, -457375.5, -17327.465, 0.0, 10.000568, 9.998048 
1.2951319e+3, 2.650968e+2, -277694.66, -443560.97, -19357.238, -0.05177825, 0.11147474, -275465.53, 66596.37, 0.000000052302592, 10.000966, 9.9988165 
1.295137e+3, 2.7509585e+2, 1235.7643, -245658.7, 35859.023, 0.042007614, 0.09138584, 6338.4785, 250407.25, 0.000007172051, 10.002167, 9.9989195 
1.295141e+3, 2.8509426e+2, 85223.97, -313030.38, -16593.098, 0.094846696, 0.11951413, 85914.12, 231995.9, 0.00006969282, 10.002754, 9.997495 
1.2951441e+3, 2.950915e+2, 176855.11, -209742.28, -15212.711, 0.1132664, 0.039853513, 177452.81, 225558.94, 0.0003009035, 10.002669, 9.99757 
1.295149e+3, 3.050877e+2, 314743.38, -89735.31, 126407.87, 0.06468095, -0.10180781, 350998.7, 350998.7, 0.0007869782, 10.003171, 9.997832 
1.2951542e+3, 3.1508872e+2, 445441.78, 42455.324, 103418.016, -0.16666737, 0.15585113, 470432.13, 470432.13, 0.0015032826, 10.003697, 9.998482 
1.3050859e+3, 1.2509772e+2, -2104857.0, -1797854.0, -141334.83, 0.0063427887, 0.06218623, -1742697.4, -28648.795, 0.0054552136, 9.996813, 10.000937 
1.3050905e+3, 1.3509835e+2, -1877744.9, -1684038.0, -74092.73, 0.14124048, 0.051449712, -1658947.5, -42902.59, 0.003073975, 9.997939, 10.000513 
1.3050939e+3, 1.4509988e+2, -1764992.9, -1536484.3, 4050.4302, 0.00862355, 0.13712122, -1536412.5, -18381.846, 0.0012055306, 9.99783, 10.00089 
1.305098e+3, 1.5510061e+2, -1730080.3, -1458286.0, -25151.49, -0.03507851, 0.07236292, -1455978.1, -35955.65, 0.000244213, 9.997367, 10.000976 
1.3051021e+3, 1.6510129e+2, -1628154.3, -1429879.9, -23411.014, 0.0073714964, 0.08196489, -1427153.1, -105137.86, 0.000009295233, 9.997715, 10.000332 
1.3051061e+3, 1.751018e+2, -1318698.9, -1218103.8, -13199.45, 0.06039354, 0.06086424, -1216400.6, 7609.32, 0.0, 9.999126, 10.000425 
1.30511e+3, 1.851025e+2, -1173511.5, -1188659.5, -10865.261, 0.1019681, 0.13312799, -1167840.9, -41836.91, 0.0, 9.999803, 9.999644 
1.3051137e+3, 1.9510294e+2, -1085146.1, -1081287.6, -66098.305, 0.15275414, 0.17132327, -1017090.44, 10910.526, 0.0, 9.999693, 9.999755 
1.305117e+3, 2.0510225e+2, -1023864.5, -1138981.6, -26118.898, 0.09505674, 0.1967099, -1018215.6, -88206.85, 0.0, 10.000027, 9.998526 
1.3051194e+3, 2.1510015e+2, -807838.0, -966488.75, -21354.037, -0.07029074, 0.09084542, -805014.06, 27015.379, 0.0, 10.000773, 9.998672 
1.3051225e+3, 2.2509867e+2, -694611.25, -856757.06, -52197.484, -0.081701726, 0.07814131, -679261.1, 54781.566, 0.0, 10.000838, 9.998727 
1.3051265e+3, 2.3509744e+2, -688073.06, -790542.8, -75786.61, 0.059200175, 0.03970317, -647827.75, -11775.992, 0.0, 10.000159, 9.998833 
1.3051292e+3, 2.4509624e+2, -627973.94, -813099.44, -65044.65, 0.091320276, 0.08750156, -607405.5, -69342.11, 0.0, 10.000333, 9.997928 
1.3051306e+3, 2.550947e+2, -373003.72, -626343.94, -41991.15, 0.019899968, 0.09795832, -366225.06, 73855.875, 0.0, 10.001358, 9.998043 
1.3051338e+3, 2.6509318e+2, -164722.48, -394274.28, 63398.855, 0.020455629, 0.11278744, -148376.6, 193718.55, 0.000000026393016, 10.001771, 9.998768 
1.3051392e+3, 2.7509138e+2, -84348.93, -298629.5, 2946.0747, 0.08420349, 0.015225915, -84308.43, 159800.53, 0.0000066700077, 10.001612, 9.998833 
1.3051435e+3, 2.8508964e+2, -28337.982, -414498.75, -33975.152, 0.11683553, 0.053278394, -25371.57, 120753.2, 0.00007506801, 10.002179, 9.997065 
1.3051473e+3, 2.950875e+2, 280296.16, -207212.58, -56959.344, 0.124759525, 0.0794448, 286862.7, 335009.38, 0.00033561388, 10.003583, 9.997138 
1.3051522e+3, 3.0508336e+2, 392200.25, -63511.39, 70525.65, 0.05329931, -0.064235955, 402865.16, 402865.16, 0.0008838956, 10.003754, 9.997732 
1.3051581e+3, 3.150837e+2, 327580.56, 42423.39, -78360.086, -0.07892907, 0.13781518, 347694.8, 347694.8, 0.0016899819, 10.002629, 9.999008 
1.3150848e+3, 1.2509233e+2, -2094713.3, -1793423.3, 4996.1387, 0.15409125, 0.10585566, -1793340.4, -79235.47, 0.005819013, 9.996876, 10.000939 
1.3150886e+3, 1.3509324e+2, -1859244.4, -1653699.0, -24384.473, 0.12365436, 0.10505965, -1650845.9, -34749.094, 0.0032902497, 9.99796, 10.000717 
1.3150905e+3, 1.4509414e+2, -1728271.8, -1464109.4, -43911.984, -0.15692241, 0.09189776, -1457001.1, 61085.23, 0.0013013786, 9.997858, 10.001371 
1.3150953e+3, 1.550952e+2, -1701953.8, -1397236.0, -30274.53, -0.07603851, 0.017280912, -1394257.3, 25814.82, 0.00026992275, 9.997357, 10.001403 
1.3151003e+3, 1.6509603e+2, -1573911.8, -1331048.0, 8397.94, 0.015991576, -0.011991597, -1330758.0, -8697.384, 0.00001153221, 9.997759, 10.000995 
1.3151056e+3, 1.7509647e+2, -1271457.6, -1120955.3, 52930.242, 0.047043037, -0.11095832, -1104204.5, 119848.64, 0.0, 9.999117, 10.0011 
1.3151099e+3, 1.8509683e+2, -1257050.9, -1341189.0, -35334.746, 0.07690137, -0.051945355, -1244180.4, -118128.56, 0.0, 9.9997225, 9.998631 
1.3151135e+3, 1.9509682e+2, -1171119.1, -1235224.1, -57193.168, 0.12526791, 0.039202947, -1137609.3, -109549.64, 0.0, 9.999591, 9.998747 
1.315117e+3, 2.0509686e+2, -1004740.1, -1061679.5, -12545.944, 0.08095319, 0.15813899, -1002098.4, -72035.766, 0.0, 9.999868, 9.99913 
1.3151206e+3, 2.1509661e+2, -799634.75, -902670.8, 24331.637, -0.05504152, 0.17710352, -794177.9, 37886.76, 0.0, 10.000563, 9.999214 
1.3151236e+3, 2.2509545e+2, -744902.75, -894365.2, -95280.445, -0.0838504, 0.17771183, -698542.6, 35532.26, 0.0, 10.000564, 9.998596 
1.3151266e+3, 2.3509309e+2, -732181.7, -826844.3, -82050.766, 0.013173656, 0.038890384, -684789.3, -48693.414, 0.0, 9.999929, 9.9986925 
1.3151294e+3, 2.450916e+2, -593862.3, -688077.8, -45442.51, 0.04139082, 0.017835775, -575516.56, -37408.953, 0.0, 10.000099, 9.998899 
1.3151321e+3, 2.5509077e+2, -339829.66, -503497.47, 12390.258, 0.0009483209, 0.00024671503, -338897.0, 101214.92, 0.0, 10.0011215, 9.999002 
1.3151358e+3, 2.6508912e+2, -273708.9, -566337.56, 39772.81, 0.008319528, 0.007526797, -268399.5, 73726.65, 0.000000066602475, 10.001543, 9.997693 
1.3151407e+3, 2.7508628e+2, -193773.47, -469797.53, 20499.736, 0.058318447, -0.08933381, -192259.3, 51894.54, 0.0000067822207, 10.001388, 9.997757 
1.3151455e+3, 2.8508437e+2, -66170.34, -463037.78, 3853.6975, 0.06283708, 0.003914706, -66132.93, 80040.89, 0.000081610815, 10.002035, 9.996809 
1.3151503e+3, 2.9508308e+2, 222376.64, -265958.3, 18840.588, 0.028500697, 0.13272151, 223102.47, 271292.38, 0.00036944333, 10.003312, 9.996871 
1.3151553e+3, 3.0507845e+2, 294867.16, -218222.7, 18932.906, -0.047145557, 0.0009410882, 295564.84, 295564.84, 0.000976967, 10.003553, 9.99676 
1.3151614e+3, 3.1507558e+2, 257919.78, -9282.11, -58541.684, -0.08103129, -0.024008557, 270182.97, 270182.97, 0.0018699723, 10.002249, 9.998829 
1.3250828e+3, 1.2508602e+2, -1981916.1, -1697030.1, 50935.08, 0.24283448, 0.14164977, -1688197.3, 25973.316, 0.006183249, 9.997429, 10.001352 
1.3250859e+3, 1.3508742e+2, -1922949.5, -1613390.5, -70094.42, 0.11414268, 0.13215972, -1598258.5, 17896.672, 0.0035072896, 9.997234, 10.001333 
1.325089e+3, 1.4508836e+2, -1800129.1, -1479027.6, -47982.734, -0.048439145, 0.08378344, -1472010.9, 46131.87, 0.0013982238, 9.997275, 10.00155 
1.3250937e+3, 1.5508963e+2, -1553416.6, -1302587.5, -82190.164, -0.0010203464, 0.009397685, -1278055.4, 142070.52, 0.00029637254, 9.998279, 10.001603 
1.3250992e+3, 1.6509062e+2, -1476247.0, -1294858.1, -36018.71, 0.096803464, -0.009738625, -1287967.6, 34145.52, 0.000014169166, 9.998471, 10.0008955 
1.325105e+3, 1.7509113e+2, -1448285.1, -1224247.5, -84166.0, 0.14642741, -0.09046361, -1196151.6, 27954.785, 0.0, 9.997959, 10.000957 
1.3251095e+3, 1.8509135e+2, -1402410.8, -1391000.4, -107313.06, 0.12820935, -0.048026722, -1289241.0, -163134.2, 0.0, 9.998641, 9.998811 
1.3251129e+3, 1.9509098e+2, -1010663.44, -1140420.3, -76476.37, 0.06626733, -0.008445473, -975253.0, 52863.836, 0.0, 10.000607, 9.99891 
1.3251169e+3, 2.0509118e+2, -836808.7, -953610.2, -19631.605, 0.040916108, 0.10607957, -833597.4, 96520.43, 0.0, 10.000924, 9.999357 
1.3251215e+3, 2.1509166e+2, -912408.94, -927946.0, -39555.957, 0.03927792, 0.17643155, -879865.94, -47753.36, 0.0, 9.999687, 9.999455 
1.325125e+3, 2.2509077e+2, -847150.1, -943759.3, -104780.29, 0.04016577, 0.19446322, -780076.0, -45955.668, 0.0, 9.999871, 9.998593 
1.3251278e+3, 2.3508833e+2, -511243.1, -713642.75, -117057.836, 0.06612785, 0.047609936, -457704.63, 178438.34, 0.0, 10.001436, 9.998741 
1.3251306e+3, 2.4508677e+2, -318376.94, -559854.56, -82519.84, 0.06656135, 0.020551251, -292871.5, 245283.89, 0.0, 10.00202, 9.998848 
1.3251337e+3, 2.550858e+2, -266086.3, -470250.1, -135789.63, 0.032499228, -0.0077803032, -198287.25, 241873.5, 0.0, 10.001651, 9.998965 
1.3251378e+3, 2.6508403e+2, -266110.63, -584155.5, -85780.03, 0.037244726, -0.00043532613, -244450.05, 97725.94, 0.0000000978673, 10.001698, 9.997488 
1.3251425e+3, 2.750811e+2, -87526.64, -437182.28, -81589.95, 0.0756742, -0.08332576, -69425.234, 174779.3, 0.000006920427, 10.002206, 9.997581 
1.325148e+3, 2.85079e+2, 6844.6543, -429875.97, 3325.5935, 0.0905499, -0.001599618, 6869.977, 153096.7, 0.000086783395, 10.002572, 9.996775 
1.3251539e+3, 2.9507738e+2, 167184.31, -297098.75, -14265.146, 0.08982863, 0.10472543, 167622.2, 215868.22, 0.0003950438, 10.00296, 9.996827 
1.3251588e+3, 3.0507305e+2, 175931.33, -291905.66, 5062.6787, 0.00015083124, 0.012915639, 175986.11, 175986.11, 0.0010503886, 10.00283, 9.996594 
1.3251643e+3, 3.150696e+2, 248367.58, 17129.467, -73791.2, 0.02545495, -0.053096797, 269908.7, 269908.7, 0.0020140882, 10.0020485, 9.999101 
1.335078e+3, 1.2507917e+2, -1902463.5, -1534078.3, -68100.984, -0.04600794, 0.2042798, -1521892.0, 192350.16, 0.0065457188, 9.997435, 10.002474 
1.335082e+3, 1.3508087e+2, -1858232.5, -1478133.4, -76384.695, -0.032787528, 0.12905905, -1463357.5, 152862.7, 0.0037237175, 9.997228, 10.002268 
1.335089e+3, 1.450824e+2, -1785588.3, -1465232.0, -33935.316, 0.16760024, 0.088583685, -1461676.8, 56524.473, 0.0014951822, 9.997331, 10.001627 
1.3350928e+3, 1.5508398e+2, -1546173.8, -1295155.1, -28244.293, 0.05124985, 0.042693738, -1292016.4, 128166.58, 0.00032323142, 9.998297, 10.001652 
1.3350981e+3, 1.6508518e+2, -1542544.6, -1430006.1, -75713.31, 0.101012036, 0.089538544, -1391942.3, -69770.63, 0.000017128494, 9.998464, 9.99997 
1.335104e+3, 1.7508587e+2, -1517236.4, -1357181.8, -87409.78, 0.22234695, 0.1170449, -1318698.1, -94529.74, 0.00000000003443261, 9.99792, 10.000059 
1.3351084e+3, 1.8508613e+2, -1318395.0, -1210688.0, -50992.063, 0.11888248, 0.1438249, -1190376.9, -64209.938, 0.0, 9.998604, 10.000073 
1.3351117e+3, 1.9508554e+2, -939386.06, -967373.06, 11752.386, -0.1508385, 0.03390658, -935105.6, 93065.97, 0.0, 10.000486, 10.000162 
1.3351162e+3, 2.050853e+2, -872386.94, -984099.8, -85462.195, -0.15425098, 0.049257424, -826146.75, 104026.54, 0.0, 10.000737, 9.999241 
1.335122e+3, 2.1508525e+2, -951669.94, -963029.2, -68250.84, 0.083127715, 0.07663196, -888862.8, -56688.813, 0.0, 9.999481, 9.999321 
1.3351262e+3, 2.250846e+2, -869837.06, -939798.94, -58280.36, 0.14760628, 0.12002135, -836845.44, -102665.58, 0.0, 9.999649, 9.998723 
1.3351296e+3, 2.3508321e+2, -537201.7, -716075.75, -39541.547, 0.07444605, 0.061424036, -528850.56, 107342.16, 0.0, 10.001207, 9.998834 
1.3351324e+3, 2.4508174e+2, -425473.22, -724883.2, -112491.67, 0.0128564425, 0.08947402, -387919.13, 150287.89, 0.0, 10.001781, 9.997823 
1.335135e+3, 2.550798e+2, -370606.1, -636910.5, -130121.7, -0.036359392, 0.06932725, -317583.2, 122643.375, 0.0, 10.001437, 9.99792 
1.335139e+3, 2.6507795e+2, -255543.13, -518042.6, -82833.945, -0.038432714, 0.09359578, -231589.9, 110653.74, 0.00000008871969, 10.001506, 9.998035 
1.3351443e+3, 2.7507582e+2, -83900.97, -369239.78, -42050.223, -0.0023971747, 0.031345323, -77833.086, 166428.0, 0.000006673535, 10.001955, 9.998165 
1.3351505e+3, 2.8507343e+2, -15159.821, -429869.9, -1247.156, 0.04809853, 0.047030855, -15156.071, 131127.98, 0.00008871381, 10.002371, 9.996872 
1.3351578e+3, 2.950705e+2, 137485.81, -302643.56, 25092.227, 0.13284047, 0.008867649, 138911.73, 187226.44, 0.00040777776, 10.002716, 9.99691 
1.335162e+3, 3.0506736e+2, 195787.06, -210111.6, -32892.867, 0.01883858, 0.0029142578, 198435.33, 198435.33, 0.0010944809, 10.002655, 9.997235 
1.3351664e+3, 3.1506523e+2, 231785.86, 69175.02, -19410.814, -0.047193408, 0.0054054204, 234070.81, 234070.81, 0.002108087, 10.001672, 9.999645 
1.3450758e+3, 1.2507378e+2, -1882323.5, -1548459.9, 47326.098, -0.00276248, 0.19312379, -1541880.9, 172412.27, 0.0069055543, 9.997691, 10.002241 
1.3450801e+3, 1.3507517e+2, -1751859.8, -1453901.3, -13506.142, 0.021286381, 0.1114017, -1453290.3, 162984.92, 0.0039389143, 9.998094, 10.002008 
1.345088e+3, 1.4507666e+2, -1676395.9, -1442977.1, 28957.736, 0.2920759, 0.093560785, -1439438.3, 78819.74, 0.0015916337, 9.998221, 10.00135 
1.3450918e+3, 1.5507819e+2, -1499809.4, -1304682.9, -26669.172, 0.10239253, 0.07248651, -1301103.5, 119138.8, 0.0003501717, 9.99876, 10.001364 
1.345097e+3, 1.6507947e+2, -1427503.4, -1387067.9, -44502.45, 0.105455875, 0.14830723, -1358406.0, -36174.605, 0.000020254476, 9.999299, 9.999868 
1.3451026e+3, 1.7508034e+2, -1247554.4, -1235767.3, -34021.395, 0.20551582, 0.20445198, -1207132.8, 17093.861, 0.0000000014653116, 9.999813, 9.99998 
1.3451076e+3, 1.8508066e+2, -1144707.4, -1100639.3, 47472.88, 0.12679543, 0.2283103, -1070336.3, 55887.797, 0.0, 9.999679, 10.000306 
1.3451119e+3, 1.9508006e+2, -1137042.6, -1034919.6, 1312.2944, -0.09671885, 0.0948408, -1034902.8, -6675.579, 0.0, 9.999016, 10.000401 
1.3451168e+3, 2.0507967e+2, -1056454.8, -1058148.9, -108000.18, -0.092727706, 0.076894045, -949298.3, -19068.98, 0.0, 9.99939, 9.999384 
1.3451222e+3, 2.1507935e+2, -750810.2, -843051.94, -108814.11, 0.11245043, 0.05844544, -678746.25, 153485.89, 0.0, 10.000754, 9.999522 
1.3451268e+3, 2.250787e+2, -638317.9, -825842.5, -40469.395, 0.16435736, 0.09006663, -629957.0, 104280.82, 0.0, 10.001235, 9.998745 
1.3451307e+3, 2.3507753e+2, -580779.7, -730134.06, -59687.508, 0.08880705, 0.05275315, -559857.3, 76391.35, 0.0, 10.000895, 9.998885 
1.345134e+3, 2.4507621e+2, -533835.94, -797313.5, -85983.09, 0.023213964, 0.102431364, -508259.13, 30003.182, 0.0, 10.001123, 9.997653 
1.3451365e+3, 2.5507444e+2, -315437.13, -625993.56, -75196.47, -0.03490545, 0.116028324, -298187.56, 142094.14, 0.0, 10.001894, 9.997782 
1.3451408e+3, 2.6507264e+2, -166384.83, -488494.47, 11307.805, -0.030835591, 0.15825456, -165988.36, 176311.05, 0.000000062099474, 10.002183, 9.99791 
1.3451466e+3, 2.750703e+2, -74341.98, -381088.72, -40028.77, 0.035373535, 0.08907876, -69204.484, 175115.17, 0.0000065347235, 10.002075, 9.998029 
1.3451532e+3, 2.8506765e+2, -13259.556, -386502.16, 34585.05, 0.099413745, 0.0685678, -10081.922, 136262.23, 0.00008986311, 10.002181, 9.997269 
1.3451605e+3, 2.9506475e+2, 141827.53, -242482.72, 36124.777, 0.16670743, -0.0050644595, 145193.73, 193565.69, 0.00041373618, 10.002501, 9.997422 
1.3451649e+3, 3.0506256e+2, 230487.11, -190006.53, -14226.026, 0.039470065, 0.049045086, 230967.84, 230967.84, 0.001115336, 10.002839, 9.997299 
1.3451697e+3, 3.1506082e+2, 418359.3, 142466.83, -91731.14, 0.069198884, 0.078922406, 446074.7, 446074.7, 0.0021558118, 10.003025, 9.999483 
1.3550732e+3, 1.250696e+2, -1993163.9, -1773840.4, -79484.66, -0.12052127, 0.05761902, -1748063.9, -33737.82, 0.0072628423, 9.997694, 10.000684 
1.35508e+3, 1.3507044e+2, -1858551.5, -1670858.1, 9405.36, 0.16164424, 0.07210794, -1670388.0, -54069.402, 0.004152666, 9.998089, 10.000517 
1.3550854e+3, 1.4507118e+2, -1733392.4, -1553952.4, 24595.78, 0.16328293, 0.09595188, -1550642.1, -32329.363, 0.0016872559, 9.998193, 10.000599 
1.3550901e+3, 1.5507224e+2, -1548007.1, -1406263.6, 11415.429, 0.016424583, 0.095336184, -1405350.1, 14954.015, 0.0003769789, 9.998762, 10.000666 
1.3550954e+3, 1.6507341e+2, -1377122.1, -1283208.1, -45287.633, -0.02168884, 0.15711905, -1264927.6, 57365.387, 0.000023370363, 9.999297, 10.000584 
1.3551006e+3, 1.7507438e+2, -1208305.0, -1141814.0, -486.02866, -0.016263813, 0.1543534, -1141810.5, 82472.05, 0.0000000068048798, 9.999755, 10.000655 
1.3551064e+3, 1.8507485e+2, -1212651.1, -1219210.9, 3770.1492, 0.009381726, 0.19849628, -1210933.9, -84655.3, 0.0, 9.999591, 9.99953 
1.3551131e+3, 1.9507451e+2, -1207014.5, -1155107.4, -5320.09, 0.085075885, 0.16724798, -1154567.8, -126283.86, 0.0, 9.998908, 9.999625 
1.3551183e+3, 2.0507427e+2, -1053616.8, -1014217.75, -76046.6, 0.08113121, 0.18160783, -955360.5, -25074.328, 0.0, 9.9992285, 9.999761 
1.3551222e+3, 2.1507385e+2, -761882.4, -808500.2, -44795.76, 0.002216471, 0.11792833, -734694.06, 97594.06, 0.0, 10.000504, 9.999881 
1.3551264e+3, 2.2507294e+2, -684408.7, -852625.56, -75033.89, -0.033082, 0.107040584, -655803.7, 78491.9, 0.0, 10.000943, 9.998698 
1.3551307e+3, 2.3507127e+2, -618881.25, -752997.06, -55984.98, -0.019682381, 0.023577861, -598583.1, 37727.805, 0.0, 10.000656, 9.99884 
1.3551347e+3, 2.4507025e+2, -522521.56, -718758.94, -75087.586, -0.039077066, 0.07424135, -497086.94, 41233.566, 0.0, 10.000887, 9.998308 
1.355138e+3, 2.5506958e+2, -302872.22, -545032.2, -29006.309, -0.10051917, 0.12981762, -299446.28, 140880.83, 0.0, 10.00166, 9.998451 
1.3551427e+3, 2.6506776e+2, -255644.78, -624476.3, -10783.649, -0.07975875, 0.17914452, -255329.77, 87016.31, 0.000000036385206, 10.001968, 9.997083 
1.355149e+3, 2.7506438e+2, -170639.14, -524192.88, -21495.941, 0.038604576, 0.09012846, -169336.98, 75043.98, 0.0000068750182, 10.001834, 9.997164 
1.3551556e+3, 2.8506178e+2, 3828.9766, -302165.0, 29258.348, 0.07578986, 0.08250459, 6601.463, 153007.3, 0.00009120505, 10.001974, 9.997946 
1.355162e+3, 2.9505986e+2, 146928.72, -167032.2, 71598.164, 0.024487298, 0.038626175, 162485.67, 210907.17, 0.00041573873, 10.002219, 9.998079 
1.3551669e+3, 3.0505824e+2, 156690.53, -273552.38, -22516.361, -0.079130694, 0.14269145, 157865.7, 157865.7, 0.0011165407, 10.002563, 9.996849 
1.3551733e+3, 3.1505564e+2, 276325.06, -48185.504, -16681.277, 0.0502189, 0.13436823, 277180.3, 277180.3, 0.0021572434, 10.002604, 9.998366 
1.3650708e+3, 1.2506509e+2, -2046262.9, -1844488.5, -90746.11, -0.095710345, 0.045402054, -1809680.9, -95312.48, 0.0076198755, 9.997493, 10.000305 
1.3650791e+3, 1.3506526e+2, -1791273.9, -1707557.1, -32757.217, 0.24632843, 0.046215344, -1696263.3, -79894.89, 0.004366158, 9.998798, 9.999943 
1.3650829e+3, 1.450656e+2, -1654927.3, -1562398.0, 49857.074, 0.07229927, 0.082203925, -1540646.9, -22279.865, 0.0017823466, 9.998928, 10.000178 
1.3650888e+3, 1.5506662e+2, -1571047.8, -1461151.1, 29409.604, 0.03722274, 0.11589432, -1453775.8, -33416.24, 0.0004035849, 9.998801, 10.000259 
1.3650952e+3, 1.6506732e+2, -1435383.9, -1332366.8, -3497.5886, 0.058492724, 0.15869144, -1332248.1, -9895.164, 0.000026350568, 9.998978, 10.000408 
1.3651007e+3, 1.7506744e+2, -1258674.9, -1182224.9, -61968.785, 0.04752463, 0.08785575, -1147640.0, 76710.086, 0.000000016360648, 9.999477, 10.000516 
1.3651066e+3, 1.850677e+2, -1192476.4, -1233964.6, -54074.41, 0.06606159, 0.13232188, -1155303.6, -28955.303, 0.0, 9.999851, 9.999298 
1.365113e+3, 1.9506782e+2, -1038928.0, -1091720.8, -58278.566, 0.13526954, 0.16812524, -1001346.56, 27003.896, 0.0, 10.000166, 9.999443 
1.3651182e+3, 2.0506789e+2, -936747.6, -950775.06, -69929.24, 0.12547164, 0.21573593, -873481.25, 56869.375, 0.0, 9.999989, 9.99984 
1.3651223e+3, 2.150676e+2, -926404.7, -880645.44, -93083.5, 0.03346014, 0.15951853, -807670.94, 24680.537, 0.0, 9.999331, 9.999961 
1.3651267e+3, 2.2506684e+2, -848047.4, -911228.3, -75977.21, -0.008883477, 0.15043177, -797354.8, -62997.42, 0.0, 9.999731, 9.998878 
1.3651316e+3, 2.3506534e+2, -534684.8, -698363.44, -81359.6, -0.009366254, 0.06730934, -501124.6, 135246.36, 0.0, 10.001157, 9.998981 
1.365136e+3, 2.450642e+2, -399040.03, -658785.7, -93266.25, -0.01760984, 0.09785914, -369020.56, 169361.03, 0.0, 10.001737, 9.998306 
1.3651401e+3, 2.5506312e+2, -315600.9, -550075.8, -135697.4, -0.04663168, 0.111413166, -253510.72, 186881.34, 0.0, 10.001567, 9.998459 
1.365145e+3, 2.650614e+2, -293979.9, -633650.4, -75349.734, -0.023543557, 0.16763034, -278015.28, 64394.695, 0.000000033203506, 10.001664, 9.997169 
1.365151e+3, 2.7505878e+2, -119801.27, -481866.16, -55391.875, 0.0532431, 0.14156923, -111516.51, 132921.67, 0.0000069323874, 10.002114, 9.9973135 
1.3651575e+3, 2.8505647e+2, 8396.653, -286453.03, 37877.996, 0.08626234, 0.14971714, 13184.908, 159645.2, 0.00008948749, 10.001984, 9.998033 
1.3651644e+3, 2.9505435e+2, 44177.508, -198864.77, -1284.196, 0.085377194, 0.0799316, 44184.293, 92661.87, 0.00040625758, 10.001456, 9.998216 
1.3651697e+3, 3.0505264e+2, 93547.34, -276443.88, -8154.8276, 0.0067783734, 0.15170458, 93726.99, 93726.99, 0.0010893871, 10.002011, 9.99711 
1.365177e+3, 3.1505027e+2, 367489.28, -33249.11, -4522.134, 0.1378575, 0.1596247, 367540.3, 367540.3, 0.00210587, 10.00331, 9.998173 
1.3750717e+3, 1.250599e+2, -2001682.1, -1744404.5, 107495.95, 0.17334172, 0.11758898, -1705402.9, 9020.076, 0.0079810945, 9.997486, 10.000978 
1.3750768e+3, 1.3505958e+2, -1763261.5, -1650371.6, 17437.584, 0.10206737, 0.027125906, -1647739.5, -31314.793, 0.0045821774, 9.9988, 10.000328 
1.3750802e+3, 1.4506002e+2, -1660693.4, -1579188.9, 14458.668, -0.1355545, 0.05718273, -1576699.9, -58279.563, 0.0018779465, 9.998943, 10.00006 
1.3750881e+3, 1.5506129e+2, -1580110.4, -1483472.5, 40817.0, 0.033587113, 0.1307666, -1468540.0, -48131.16, 0.00043006244, 9.998808, 10.000107 
1.375096e+3, 1.6506119e+2, -1506447.5, -1479362.8, -6240.728, 0.19052368, 0.1534741, -1477994.0, -155582.72, 0.000029160963, 9.998971, 9.999406 
1.3751027e+3, 1.7505963e+2, -1329406.3, -1325107.5, -26164.73, 0.25464523, 0.011640226, -1301004.0, -76576.055, 0.000000027808229, 9.99945, 9.999555 
1.3751076e+3, 1.8505935e+2, -1178183.9, -1192004.3, -60729.64, 0.15137894, 0.033779226, -1123972.5, 2459.7544, 0.0, 9.999806, 9.999603 
1.3751115e+3, 1.9505991e+2, -1041311.5, -1064956.8, -34089.41, -0.06914595, 0.08548855, -1017052.8, 11375.531, 0.0, 10.00003, 9.999695 
1.3751163e+3, 2.0506042e+2, -969199.75, -978918.2, -112045.516, -0.100309126, 0.17473602, -861908.1, 68515.67, 0.0, 9.999819, 9.99973 
1.375122e+3, 2.150607e+2, -967735.7, -916585.25, -99000.086, 0.05940428, 0.18536668, -839910.25, -7489.337, 0.0, 9.999114, 9.999824 
1.3751277e+3, 2.2506058e+2, -864075.56, -880417.06, -38261.973, 0.08146455, 0.23123994, -833121.6, -98700.13, 0.0, 9.999464, 9.999215 
1.3751328e+3, 2.3505977e+2, -556150.25, -671311.7, -9409.48, -0.026563788, 0.18490319, -555386.5, 81041.81, 0.0, 10.000861, 9.999304 
1.3751377e+3, 2.45058e+2, -485055.2, -779585.1, -120967.77, -0.05615136, 0.17292328, -441741.63, 96704.13, 0.0, 10.001478, 9.997606 
1.3751422e+3, 2.5505513e+2, -395493.38, -666769.56, -125326.61, -0.0056316555, 0.07439265, -346457.56, 94017.53, 0.0, 10.001352, 9.997765 
1.3751471e+3, 2.6505372e+2, -248791.55, -498483.06, -73582.61, -0.0058869477, 0.14563355, -228720.56, 113768.65, 0.000000022673568, 10.001482, 9.998182 
1.3751522e+3, 2.7505335e+2, -84071.58, -351213.97, -19150.771, -0.058027204, 0.24010885, -82705.695, 161786.92, 0.0000066245593, 10.001879, 9.998322 
1.3751589e+3, 2.8505158e+2, -42504.098, -358630.9, -1465.2179, -0.0065288446, 0.27399045, -42497.31, 104011.71, 0.00008473701, 10.001827, 9.997616 
1.3751669e+3, 2.9504842e+2, -17548.555, -274766.0, 3777.8733, 0.16811357, 0.13599837, -17493.078, 31045.863, 0.00038290335, 10.001228, 9.997808 
1.3751732e+3, 3.0504572e+2, 125388.0, -167391.77, 33260.246, 0.113073364, 0.08965935, 129118.875, 129118.875, 0.0010283956, 10.001831, 9.997936 
1.3751796e+3, 3.1504428e+2, 332520.28, 22170.717, 117796.766, 0.009850767, 0.10447338, 372166.7, 372166.7, 0.0019973381, 10.002793, 9.998779 
1.3850695e+3, 1.2505358e+2, -1980932.0, -1718476.9, 158016.05, 0.20588462, 0.17953882, -1644303.0, 70184.9, 0.008351057, 9.997567, 10.001125 
1.3850743e+3, 1.3505356e+2, -1753796.9, -1604799.5, -50465.7, -0.011758158, 0.08730713, -1589315.8, 27170.756, 0.004803759, 9.9987, 10.000697 
1.3850798e+3, 1.4505397e+2, -1662056.9, -1574482.8, -42036.824, -0.06314331, 0.095110275, -1557570.5, -39089.18, 0.0019753822, 9.998903, 10.000123 
1.3850877e+3, 1.5505464e+2, -1526473.3, -1447282.5, -39543.887, 0.10643971, 0.100377634, -1430918.0, -10443.948, 0.00045665295, 9.999136, 10.000203 
1.3850956e+3, 1.6505456e+2, -1455655.3, -1482895.8, 6946.3013, 0.24737036, 0.13708185, -1453986.3, -131509.77, 0.00003186285, 9.999481, 9.999116 
1.3851027e+3, 1.7505369e+2, -1268433.1, -1325533.9, -3434.7651, 0.2881721, 0.08811547, -1268227.3, -43737.965, 0.000000039188958, 10.000021, 9.999265 
1.385108e+3, 1.8505333e+2, -1150967.4, -1197921.4, -15533.372, 0.19525422, 0.12602781, -1146293.8, -19798.889, 0.0, 10.000043, 9.999469 
1.3851118e+3, 1.9505325e+2, -1084371.4, -1093580.5, -43707.223, -0.010630966, 0.12491691, -1045026.8, -16530.441, 0.0, 9.999747, 9.999642 
1.3851166e+3, 2.0505327e+2, -974417.94, -1004007.44, -99709.89, -0.04893461, 0.1751058, -888411.1, 42085.105, 0.0, 9.999895, 9.999509 
1.3851221e+3, 2.1505311e+2, -760965.9, -835367.2, -130138.3, 0.0784113, 0.16164094, -662815.6, 169681.44, 0.0, 10.000625, 9.999642 
1.3851279e+3, 2.2505303e+2, -692751.6, -805568.7, -37151.703, 0.11306089, 0.21938722, -681616.3, 52881.41, 0.0, 10.000648, 9.999171 
1.385134e+3, 2.350527e+2, -663674.9, -726781.94, -66006.195, 0.057040952, 0.22620684, -622068.0, 14432.956, 0.0, 10.000117, 9.99929 
1.3851394e+3, 2.4505119e+2, -616230.25, -812263.75, -109509.3, 0.027604396, 0.22703405, -567279.06, -28763.477, 0.0, 10.000453, 9.997868 
1.385144e+3, 2.550483e+2, -323839.66, -603853.44, -86390.86, 0.012242624, 0.10296203, -299331.16, 141212.11, 0.0, 10.001712, 9.998021 
1.3851489e+3, 2.6504666e+2, -154048.39, -433037.1, -22610.584, 0.005382689, 0.12758997, -152227.8, 190330.56, 0.0000000049794013, 10.002047, 9.998363 
1.3851546e+3, 2.7504587e+2, -112720.625, -347134.44, -64619.844, 0.0044216285, 0.16352098, -96087.4, 148477.28, 0.0000064670485, 10.001579, 9.998506 
1.3851613e+3, 2.8504437e+2, -50168.51, -383961.13, -19777.008, 0.056847833, 0.22739822, -49000.82, 97578.18, 0.00007994395, 10.001852, 9.99745 
1.3851689e+3, 2.95042e+2, 240575.38, -157948.13, -36925.566, 0.17255689, 0.18961109, 243967.86, 292571.16, 0.00035496187, 10.003021, 9.997755 
1.3851757e+3, 3.0503887e+2, 334689.88, -49463.24, 2589.5771, 0.13302849, 0.08791867, 334707.34, 334707.34, 0.00095268304, 10.003189, 9.998092 
1.3851827e+3, 3.150369e+2, 256580.0, 13771.789, -12749.12, 0.095423795, 0.035683252, 257247.6, 257247.6, 0.001860375, 10.002114, 9.999048 
1.3950644e+3, 1.2504509e+2, -2009806.8, -1768900.9, -8446.037, -0.12859, 0.14732638, -1768605.1, -54031.36, 0.008733579, 9.99755, 10.000772 
1.3950709e+3, 1.3504703e+2, -1727438.3, -1543726.0, -9616.228, -0.24468766, 0.20663336, -1543224.0, 73331.266, 0.005033633, 9.998679, 10.0011215 
1.395081e+3, 1.4504756e+2, -1637760.0, -1530319.6, -62566.348, 0.13415022, 0.18768853, -1501575.3, 16973.674, 0.002076125, 9.998927, 10.000416 
1.3950871e+3, 1.5504672e+2, -1510318.4, -1409413.1, -12952.86, 0.098561026, 0.01706227, -1407777.0, 12777.357, 0.00048381835, 9.999115, 10.000474 
1.3950938e+3, 1.6504735e+2, -1435972.0, -1441594.3, 5200.038, 0.07454814, 0.094945885, -1432871.9, -110322.25, 0.000034571214, 9.999478, 9.999402 
1.3951005e+3, 1.7504922e+2, -1266534.8, -1299757.6, 29182.803, 0.037971005, 0.29699722, -1249566.9, -25029.654, 0.00000005013657, 9.999929, 9.999487 
1.3951069e+3, 1.8504952e+2, -1177694.3, -1242043.1, -49338.87, 0.057961825, 0.4038056, -1150966.1, -24428.508, 0.0, 9.999993, 9.999189 
1.3951135e+3, 1.95048e+2, -1125465.5, -1150481.9, -40032.918, 0.16274698, 0.2904591, -1096032.1, -67478.77, 0.0, 9.9996195, 9.999318 
1.3951185e+3, 2.050465e+2, -1017920.9, -1060451.9, -90364.34, 0.12718396, 0.22204958, -946353.5, -15786.504, 0.0, 9.999747, 9.999191 
1.3951217e+3, 2.1504478e+2, -821223.0, -902644.9, -88164.91, -0.044924147, 0.08550531, -764823.5, 67756.97, 0.0, 10.00038, 9.999296 
1.3951272e+3, 2.2504415e+2, -741497.3, -862762.8, -72614.94, -0.05578603, 0.12141441, -707529.5, 27056.65, 0.0, 10.000442, 9.99888 
1.395135e+3, 2.3504436e+2, -712428.56, -784299.6, -65113.887, 0.107422, 0.20619495, -673992.2, -37405.777, 0.0, 9.999917, 9.998995 
1.3951407e+3, 2.4504396e+2, -571779.44, -664883.5, -78190.836, 0.08541419, 0.2746075, -527332.0, 11257.056, 0.0, 10.00022, 9.998991 
1.3951445e+3, 2.5504255e+2, -291025.03, -466911.3, -21014.55, -0.11496708, 0.18873519, -288549.13, 152048.88, 0.0, 10.001427, 9.999094 
1.39515e+3, 2.6504013e+2, -232257.9, -546375.9, -57216.984, -0.112643495, 0.11808333, -222160.34, 120458.29, 0.0000000011462398, 10.001829, 9.997692 
1.3951573e+3, 2.7503657e+2, -192237.36, -460766.7, -61310.195, 0.10020546, -0.05914548, -178901.4, 65750.88, 0.0000063015364, 10.001352, 9.997838 
1.395164e+3, 2.8503516e+2, -81391.555, -395635.47, 7427.346, 0.11769978, 0.044326305, -81216.1, 65451.496, 0.000075522126, 10.00163, 9.997472 
1.3951701e+3, 2.9503533e+2, 194226.81, -184117.45, 31761.818, -0.052240357, 0.2580452, 196874.67, 245544.66, 0.00033164787, 10.002729, 9.997712 
1.3951772e+3, 3.0503213e+2, 272330.5, -127078.17, -53895.465, -0.072033614, 0.1768867, 279475.25, 279475.25, 0.0008920203, 10.002961, 9.99767 
1.3951856e+3, 3.1502888e+2, 185316.8, -16225.582, 4537.473, 0.11044043, 0.029292641, 185418.9, 185418.9, 0.0017485601, 10.001629, 9.999071 
1.405064e+3, 1.2503824e+2, -2008453.5, -1778614.1, 38853.164, 0.09545607, 0.16977887, -1772223.9, -57580.98, 0.009133226, 9.99757, 10.000701 
1.4050703e+3, 1.3504031e+2, -1805002.6, -1574748.6, 55743.645, -0.12564987, 0.23252282, -1561963.3, 54658.895, 0.005275387, 9.998092, 10.001199 
1.4050804e+3, 1.4504074e+2, -1704464.4, -1582165.6, 8294.804, 0.20600054, 0.2059568, -1581605.6, -62988.445, 0.0021822979, 9.99857, 10.000222 
1.4050859e+3, 1.5504009e+2, -1482757.6, -1422362.4, -23912.986, 0.059235502, 0.07524479, -1414040.8, 6581.918, 0.00051218417, 9.999425, 10.000231 
1.4050923e+3, 1.6504058e+2, -1423754.0, -1411279.8, -5593.1333, -0.0028053885, 0.14195842, -1409139.3, -86520.27, 0.000037386584, 9.99944, 9.999634 
1.4050996e+3, 1.7504208e+2, -1386013.9, -1322643.3, -15171.476, 0.021964438, 0.27692166, -1319198.4, -94590.77, 0.00000006103049, 9.998953, 9.999799 
1.4051068e+3, 1.8504252e+2, -1292221.5, -1294021.5, -25518.025, 0.09698834, 0.37742987, -1267587.6, -140981.53, 0.0, 9.999211, 9.9992 
1.4051141e+3, 1.9504161e+2, -1016781.06, -1092511.3, -31417.078, 0.22349292, 0.32060948, -1005444.56, 23172.137, 0.0, 10.000352, 9.999359 
1.4051194e+3, 2.0504028e+2, -888302.06, -1025085.9, -38154.227, 0.20083345, 0.27950472, -878379.2, 52250.137, 0.0, 10.000747, 9.998963 
1.4051229e+3, 2.1503831e+2, -799844.2, -909912.44, -60486.793, 0.020821042, 0.13845327, -773101.75, 59544.62, 0.0, 10.000603, 9.999142 
1.4051282e+3, 2.250373e+2, -706954.7, -856551.9, -6264.5405, -0.011138001, 0.15170334, -706692.8, 27962.623, 0.0, 10.000742, 9.998773 
1.4051354e+3, 2.35037e+2, -529999.1, -700178.94, -22580.498, 0.108237594, 0.19426939, -527054.0, 109605.39, 0.0, 10.001198, 9.998949 
1.4051417e+3, 2.4503648e+2, -401592.88, -575117.94, -10351.194, 0.10377324, 0.24952734, -400977.56, 137685.03, 0.0, 10.0013485, 9.999067 
1.4051466e+3, 2.5503546e+2, -307337.53, -458879.6, -58347.08, -0.035383843, 0.1913407, -287475.75, 153192.39, 0.0, 10.001253, 9.999229 
1.4051525e+3, 2.650332e+2, -268038.13, -565243.8, -82769.3, -0.024458634, 0.12808041, -246542.27, 96145.29, 0.0000000047036606, 10.001596, 9.997674 
1.4051595e+3, 2.7502963e+2, -33241.793, -378819.0, -86352.54, 0.14222427, -0.043334197, -12865.537, 231855.33, 0.000006310061, 10.002446, 9.997866 
1.4051662e+3, 2.8502813e+2, 65106.5, -330664.56, 46484.184, 0.14301056, 0.05345547, 70492.86, 217229.38, 0.00007178299, 10.002655, 9.99742 
1.4051728e+3, 2.95028e+2, 101311.734, -239403.39, 33321.137, -0.015743922, 0.24174035, 104539.875, 153281.44, 0.0003183702, 10.0021305, 9.997623 
1.4051802e+3, 3.0502492e+2, 135935.61, -172702.58, -20623.21, -0.009113287, 0.16972251, 137307.55, 137307.55, 0.0008620041, 10.00194, 9.997845 
1.4051878e+3, 3.1502196e+2, 302679.16, 112100.24, 7445.332, 0.16824992, 0.033000644, 302969.56, 302969.56, 0.0016920328, 10.002112, 9.999728 
1.4150628e+3, 1.2503292e+2, -1971379.3, -1713267.4, -76066.6, 0.13739185, 0.20609969, -1692518.3, 22177.988, 0.009556688, 9.997607, 10.001143 
1.4150721e+3, 1.3503367e+2, -1830262.4, -1616403.5, 89330.47, 0.21276133, 0.16790015, -1583999.4, 32685.34, 0.0055341963, 9.998054, 10.000932 
1.4150771e+3, 1.4503354e+2, -1752283.4, -1689929.4, 15554.975, -0.029621782, 0.13376871, -1686264.4, -167578.1, 0.0022969088, 9.998605, 9.999468 
1.4150836e+3, 1.550346e+2, -1544560.4, -1548170.5, 21841.643, -0.13922904, 0.26232556, -1524449.4, -103769.11, 0.0005425403, 9.999414, 9.999374 
1.415091e+3, 1.6503437e+2, -1389654.1, -1349122.6, -48780.594, -0.12502299, 0.27788907, -1316565.6, 6117.8364, 0.000040406845, 9.999472, 10.0000515 
1.4150997e+3, 1.7503265e+2, -1367278.9, -1267570.9, -17726.027, 0.097777694, 0.052444812, -1264513.3, -39815.742, 0.00000007226826, 9.99888, 10.000219 
1.4151071e+3, 1.8503262e+2, -1280244.4, -1254970.3, -1160.1805, 0.15883796, 0.07398477, -1254917.1, -128219.516, 0.0, 9.999155, 9.999492 
1.4151129e+3, 1.9503401e+2, -1019636.75, -1069039.9, 24732.525, 0.048594672, 0.22079128, -1009383.1, 19303.686, 0.0, 10.000226, 9.99958 
1.4151189e+3, 2.0503443e+2, -911020.8, -1039521.6, -67194.17, 0.04012168, 0.34473118, -882302.56, 48382.617, 0.0, 10.000597, 9.998939 
1.4151248e+3, 2.1503364e+2, -841248.6, -938847.2, -51073.473, 0.14755583, 0.32372642, -819408.94, 13286.304, 0.0, 10.000349, 9.999071 
1.4151303e+3, 2.2503234e+2, -737640.5, -859559.56, -9264.739, 0.10964634, 0.30619198, -736940.5, -2233.5486, 0.0, 10.000483, 9.998874 
1.4151351e+3, 2.3503041e+2, -566753.75, -714312.2, 9495.934, -0.064461306, 0.1799766, -566145.2, 70577.055, 0.0, 10.000937, 9.998975 
1.4151415e+3, 2.4502881e+2, -485545.25, -706607.9, -28868.672, -0.06891111, 0.16690485, -481837.47, 56898.605, 0.0, 10.001153, 9.99826 
1.4151494e+3, 2.5502717e+2, -389848.3, -589745.0, -42782.668, 0.09880198, 0.12617409, -381076.72, 59675.188, 0.0, 10.00107, 9.998421 
1.4151558e+3, 2.6502585e+2, -263936.44, -506397.78, -68718.586, 0.122850746, 0.1723956, -245814.61, 96949.32, 0.000000079284355, 10.001385, 9.998178 
1.4151609e+3, 2.7502465e+2, -40893.31, -333131.78, -31905.654, -0.0026046708, 0.18791184, -37450.51, 207323.13, 0.000007370644, 10.002184, 9.998305 
1.4151676e+3, 2.850229e+2, 37196.105, -339752.47, 10670.849, -0.020301042, 0.23697077, 37497.938, 184287.61, 0.00007207351, 10.002442, 9.997458 
1.4151765e+3, 2.9501998e+2, 59263.79, -264878.1, 39082.53, 0.10800187, 0.13928856, 63909.477, 112727.945, 0.00031938194, 10.001857, 9.997584 
1.415184e+3, 3.0501705e+2, 129530.93, -117425.305, -24381.486, 0.14605416, 0.060586512, 131915.05, 131915.05, 0.00086451345, 10.001671, 9.998335 
1.4151889e+3, 3.1501606e+2, 291351.5, 211313.14, 62565.867, 0.010560781, 0.05971054, 325602.25, 325602.25, 0.0016914787, 10.001628, 10.000621 
1.4250611e+3, 1.250258e+2, -1814594.1, -1642653.9, -61228.004, 0.14487219, 0.20838448, -1623079.0, 91687.7, 0.010011913, 9.998739, 10.001083 
1.4250715e+3, 1.3502592e+2, -1867031.5, -1670621.0, -53855.645, 0.36600956, 0.15140417, -1656823.1, -40061.89, 0.0058154534, 9.997997, 10.000578 
1.4250748e+3, 1.4502554e+2, -1818692.5, -1709906.6, -10808.652, -0.09317474, 0.104249835, -1708843.1, -190078.0, 0.002423067, 9.998106, 9.999566 
1.4250831e+3, 1.5502691e+2, -1592172.1, -1558516.5, 20835.83, -0.10876646, 0.25360134, -1548561.8, -127805.93, 0.00057589856, 9.999044, 9.99947 
1.4250909e+3, 1.650269e+2, -1397682.5, -1353583.4, -32271.744, -0.06013324, 0.28499418, -1336547.8, -13790.937, 0.00004378684, 9.999417, 10.000038 
1.4250994e+3, 1.7502531e+2, -1271809.6, -1218549.8, -69011.36, 0.15527306, 0.0705037, -1171208.6, 53560.92, 0.00000008454083, 9.999517, 10.00024 
1.4251068e+3, 1.8502502e+2, -1189575.8, -1203469.0, -409.21277, 0.20347401, 0.05746869, -1189563.8, -62791.98, 0.0, 9.999731, 9.999573 
1.4251131e+3, 1.9502582e+2, -1012604.44, -1049788.9, -17315.637, 0.05023043, 0.13433911, -1005789.94, 22975.25, 0.0, 10.000207, 9.99972 
1.4251192e+3, 2.050265e+2, -952212.6, -1058033.1, -112416.94, 0.032127175, 0.27711868, -880876.94, 49884.39, 0.0, 10.000306, 9.998949 
1.4251252e+3, 2.150267e+2, -871132.44, -953668.5, -128924.74, 0.15956448, 0.35570356, -777031.94, 55731.83, 0.0, 10.000125, 9.999082 
1.4251313e+3, 2.2502564e+2, -722229.94, -856874.7, -15303.346, 0.14858621, 0.3602284, -720512.5, 14261.691, 0.0, 10.000606, 9.998841 
1.4251369e+3, 2.3502317e+2, -430213.63, -649332.9, -37468.48, -0.0075251525, 0.18576515, -423983.78, 212810.05, 0.0, 10.00187, 9.998982 
1.4251438e+3, 2.4502142e+2, -373590.28, -687635.75, -74231.61, 0.0036064198, 0.1743982, -356928.03, 181881.8, 0.0, 10.002084, 9.997939 
1.4251514e+3, 2.5502005e+2, -361595.97, -611337.06, -91999.23, 0.17824131, 0.19259928, -331364.9, 109460.56, 0.00000000006254562, 10.001414, 9.998108 
1.4251578e+3, 2.6501885e+2, -253531.66, -484005.28, -37417.34, 0.19202645, 0.25869095, -247609.16, 95227.664, 0.00000036239143, 10.00137, 9.998335 
1.4251631e+3, 2.7501774e+2, -62228.953, -320358.28, -56397.01, 0.04108397, 0.262175, -50445.08, 194399.63, 0.000010087366, 10.001926, 9.998514 
1.42517e+3, 2.8501567e+2, 5431.461, -313352.97, -8927.072, 0.011049179, 0.24916579, 5681.2544, 152543.05, 0.00007872079, 10.002039, 9.997844 
1.4251785e+3, 2.9501215e+2, 100519.64, -198110.33, -9934.758, 0.13347608, 0.0517729, 100849.78, 149743.44, 0.00033516844, 10.001933, 9.998007 
1.4251864e+3, 3.0500975e+2, 168309.39, -187548.66, -32226.852, 0.2078954, 0.045020387, 171204.34, 171204.34, 0.0008965645, 10.002277, 9.997588 
1.4251919e+3, 3.150088e+2, 415765.75, 192155.0, -94442.94, 0.095769934, 0.1220707, 450315.78, 450315.78, 0.0017444047, 10.00278, 9.999959 
1.4350607e+3, 1.2501813e+2, -1846888.0, -1725417.8, 180068.88, 0.15769777, 0.28752908, -1596117.1, 118725.13, 0.010506618, 9.998792, 10.00049 
1.4350682e+3, 1.3501726e+2, -1908499.3, -1754633.8, -61324.395, 0.1972261, 0.18815139, -1733182.9, -116332.94, 0.006123269, 9.997989, 9.999998 
1.4350729e+3, 1.4501692e+2, -1731401.0, -1544202.6, 4212.0293, -0.14982691, 0.11570542, -1544107.9, -25255.83, 0.002563054, 9.998163, 10.000684 
1.4350836e+3, 1.5501733e+2, -1524200.6, -1409790.3, 72611.96, 0.0036966389, 0.061137885, -1374556.6, 46289.953, 0.0006133788, 9.999003, 10.000518 
1.4350916e+3, 1.6501833e+2, -1432108.9, -1420243.4, -51848.63, 0.028123816, 0.16777895, -1373989.1, -51151.47, 0.000047750204, 9.9994, 9.99959 
1.4350982e+3, 1.7501979e+2, -1309686.5, -1292454.8, -52467.94, 0.0642018, 0.30442595, -1247900.0, -23072.93, 0.00000010052836, 9.999492, 9.999751 
1.4351058e+3, 1.8501948e+2, -1195242.9, -1201531.8, -4498.604, 0.092021585, 0.31382805, -1192898.6, -66068.17, 0.0, 9.999675, 9.999611 
1.4351138e+3, 1.9501714e+2, -1032718.44, -1057959.4, 16284.858, 0.08380575, 0.072935455, -1024736.2, 4114.4053, 0.0, 10.000063, 9.999733 
1.4351197e+3, 2.0501664e+2, -970428.2, -1057985.4, -139270.45, 0.016227787, 0.09144803, -868217.6, 62638.574, 0.0, 10.000139, 9.999028 
1.4351232e+3, 2.1501768e+2, -902841.5, -968752.4, -119427.98, -0.07568876, 0.24535008, -811905.44, 20945.25, 0.0, 9.999902, 9.999084 
1.4351302e+3, 2.2501731e+2, -768224.25, -893200.6, 16351.429, -0.034603603, 0.32966325, -766120.3, -31264.584, 0.0, 10.000358, 9.998706 
1.4351407e+3, 2.3501539e+2, -484679.3, -688796.9, 29330.795, 0.1405858, 0.22104071, -480548.22, 156324.83, 0.0, 10.001567, 9.998853 
1.4351478e+3, 2.4501428e+2, -405974.28, -692312.9, -119017.7, 0.17451662, 0.27409038, -362964.47, 175920.0, 0.0, 10.001809, 9.998043 
1.4351521e+3, 2.5501376e+2, -396054.06, -620462.25, -98584.41, 0.07617679, 0.3686698, -358897.38, 81994.52, 0.000000006122379, 10.001151, 9.998172 
1.4351583e+3, 2.650121e+2, -279896.53, -498144.2, -30988.756, 0.055324227, 0.38683572, -275581.75, 67325.31, 0.0000008787704, 10.001189, 9.998331 
1.4351663e+3, 2.7500904e+2, -96136.66, -340865.06, -13788.329, 0.12113083, 0.19768597, -95362.25, 149570.44, 0.000014147242, 10.00171, 9.998486 
1.4351732e+3, 2.8500655e+2, 18289.646, -238413.1, -30943.47, 0.07429421, 0.11224181, 21966.957, 168918.78, 0.000090681104, 10.001829, 9.998458 
1.4351785e+3, 2.9500422e+2, 93818.12, -150862.23, 10256.765, -0.08524289, -0.025033481, 94247.31, 143216.4, 0.0003647409, 10.001661, 9.998467 
1.4351872e+3, 3.050029e+2, 15012.82, -441484.75, -28132.334, 0.02326253, 0.13952786, 16739.982, 16739.982, 0.0009617202, 10.002025, 9.995954 
1.4351957e+3, 3.150006e+2, 206471.1, -120959.58, -22932.332, 0.13972697, 0.24017984, 208069.4, 208069.4, 0.001861219, 10.002272, 9.99805 
1.445059e+3, 1.250083e+2, -1775640.8, -1711185.4, 257817.8, 0.08914756, 0.21244332, -1483588.8, 231346.89, 0.011047917, 9.999347, 10.000326 
1.445065e+3, 1.350088e+2, -1759613.8, -1676144.0, -77914.0, 0.046650153, 0.23359558, -1629491.1, -12557.162, 0.00646129, 9.998952, 10.000074 
1.4450732e+3, 1.4500915e+2, -1616333.3, -1433926.6, 54181.98, 0.037716158, 0.20177996, -1419046.4, 99884.0, 0.0027186894, 9.998733, 10.00115 
1.4450832e+3, 1.5500933e+2, -1557717.6, -1368313.1, 28723.104, 0.08188672, 0.07364159, -1364053.1, 56871.684, 0.0006559602, 9.9985285, 10.001028 
1.4450909e+3, 1.6501027e+2, -1535149.9, -1487907.4, -54135.383, 0.052416135, 0.15695243, -1452464.3, -129547.96, 0.000052490832, 9.998776, 9.999427 
1.445098e+3, 1.7501184e+2, -1259314.3, -1277917.6, -63736.04, 0.08000149, 0.31896502, -1204204.8, 20701.438, 0.00000012546444, 9.999901, 9.999645 
1.4451058e+3, 1.850118e+2, -1117947.1, -1144948.6, 12396.612, 0.11738591, 0.35194707, -1113119.0, 13788.303, 0.0, 10.000103, 9.999803 
1.4451139e+3, 1.9500992e+2, -1110474.0, -1069730.5, 10519.299, 0.11575358, 0.13373056, -1067175.0, -38252.668, 0.0, 9.999407, 9.999969 
1.4451197e+3, 2.0500925e+2, -1002289.25, -1057089.5, -70294.99, 0.036446787, 0.115237005, -954243.06, -23314.55, 0.0, 9.999869, 9.999163 
1.4451239e+3, 2.150095e+2, -643103.2, -818994.25, -81878.06, -0.09111452, 0.17979401, -610888.7, 222039.86, 0.0, 10.001607, 9.999285 
1.4451312e+3, 2.2500917e+2, -581236.9, -810631.94, 60974.75, -0.029091947, 0.26003057, -566036.56, 168896.4, 0.0, 10.001664, 9.998651 
1.445142e+3, 2.3500797e+2, -707254.3, -801398.9, 47215.613, 0.21192522, 0.22681515, -687654.9, -50710.266, 0.0, 10.000046, 9.998815 
1.4451495e+3, 2.45007e+2, -614539.25, -764446.06, -18592.912, 0.24507524, 0.28069136, -612267.56, -73313.016, 0.0, 10.000256, 9.998294 
1.4451537e+3, 2.5500596e+2, -186993.05, -493842.06, -20173.58, 0.06839675, 0.29913345, -185672.42, 255292.97, 0.000000012932129, 10.002449, 9.998426 
1.4451602e+3, 2.6500416e+2, -50741.35, -421689.66, 37828.973, 0.05797753, 0.3049423, -46922.895, 296059.53, 0.0000016431604, 10.002917, 9.998023 
1.4451689e+3, 2.7500132e+2, -98720.195, -372920.13, -10057.676, 0.21365294, 0.17169888, -98351.77, 146656.23, 0.000019343763, 10.001829, 9.998202 
1.4451757e+3, 2.849991e+2, 14554.025, -246920.1, 7633.6626, 0.15588328, 0.13014393, 14776.698, 161803.13, 0.00010742439, 10.00184, 9.998386 
1.4451805e+3, 2.9499733e+2, 270101.72, -65733.43, -30766.35, -0.10419751, 0.05524281, 272897.0, 321936.47, 0.0004102239, 10.002886, 9.998447 
1.4451893e+3, 3.0499634e+2, 175473.48, -312042.9, 8273.61, 0.008978546, 0.22948505, 175613.86, 175613.86, 0.001066146, 10.002898, 9.996429 
1.4451985e+3, 3.1499338e+2, 149448.03, -133364.17, 70400.555, 0.2301405, 0.21550769, 166003.7, 166003.7, 0.0020519032, 10.001827, 9.998167 
1.4550582e+3, 1.24995805e+2, -1751400.0, -1685483.1, 27792.818, -0.0076290723, -0.09717628, -1675328.9, 39723.02, 0.011640448, 9.999437, 10.000457 
1.4550616e+3, 1.350007e+2, -1717118.4, -1574319.3, -65502.176, -0.2282415, 0.28192508, -1548824.9, 68187.04, 0.0068325973, 9.998892, 10.00081 
1.4550748e+3, 1.450023e+2, -1631973.0, -1471717.9, 31420.342, 0.28704438, 0.3607335, -1465777.8, 53221.01, 0.0028915813, 9.998755, 10.000878 
1.455081e+3, 1.5500273e+2, -1570739.5, -1391306.0, 35467.773, -0.02240296, 0.27206773, -1384549.8, 36442.133, 0.00070428615, 9.998514, 10.0008745 
1.4550883e+3, 1.6500266e+2, -1511522.5, -1448534.1, -37544.156, -0.13372962, 0.24835034, -1431023.8, -108031.21, 0.000058062662, 9.998815, 9.999681 
1.4550981e+3, 1.7500167e+2, -1252422.5, -1250863.0, -4279.3247, 0.06940047, 0.1307201, -1247293.0, -22287.959, 0.00000016567238, 9.9998455, 9.99986 
1.4551064e+3, 1.8500215e+2, -1096374.3, -1088608.0, -31803.508, 0.13063648, 0.18360995, -1060451.4, 66549.586, 0.0, 10.0000515, 10.000217 
1.4551125e+3, 1.9500403e+2, -1103230.9, -1027337.2, 33.153767, 0.015609888, 0.30709097, -1027337.2, 1644.3606, 0.0, 9.999283, 10.000327 
1.4551191e+3, 2.0500411e+2, -1019184.06, -1045370.8, -24774.656, -0.048123725, 0.33843178, -1004255.7, -73275.83, 0.0, 9.999678, 9.9993305 
1.4551263e+3, 2.1500205e+2, -672048.94, -813079.94, -211.62173, -0.02805648, 0.15273868, -672048.6, 160950.27, 0.0, 10.001329, 9.999457 
1.4551336e+3, 2.2500104e+2, -610259.06, -807430.0, -18526.525, 0.013882868, 0.14768647, -608533.4, 126474.6, 0.0, 10.001391, 9.998802 
1.4551409e+3, 2.350009e+2, -743222.8, -806638.1, 4126.103, 0.07442607, 0.2093914, -742955.44, -105946.625, 0.0, 9.999756, 9.998916 
1.4551483e+3, 2.4499959e+2, -619519.2, -721442.56, 48799.04, 0.07105824, 0.20723423, -599922.8, -60902.836, 0.0, 10.000017, 9.998708 
1.4551559e+3, 2.5499687e+2, -194597.31, -452037.94, 81534.37, 0.017288137, 0.014387451, -170947.13, 270096.97, 0.000000017460069, 10.002199, 9.998838 
1.4551634e+3, 2.649952e+2, -130974.73, -534851.0, -20199.633, 0.047703754, 0.046389908, -129966.97, 213094.14, 0.000002726617, 10.002685, 9.997356 
1.4551705e+3, 2.7499434e+2, -184157.5, -490543.3, -30718.56, 0.16698994, 0.17715797, -181107.98, 63965.215, 0.000025176965, 10.00158, 9.997508 
1.4551774e+3, 2.8499317e+2, -58894.11, -340740.78, 30768.229, 0.11536988, 0.29846302, -55574.35, 91513.08, 0.00012773139, 10.001591, 9.997862 
1.4551839e+3, 2.949914e+2, 195187.88, -156095.81, 35092.574, -0.094934285, 0.27464175, 198659.25, 247764.95, 0.00046808438, 10.002602, 9.997968 
1.4551924e+3, 3.0499008e+2, 298254.28, 6074.922, -45010.758, 0.0015810969, 0.32231605, 305031.06, 305031.06, 0.00120209, 10.002627, 9.998746 
1.4551996e+3, 3.1498682e+2, 193119.08, 56042.09, 68846.32, 0.09496782, 0.04906408, 221726.56, 221726.56, 0.0023053363, 10.0014, 9.999679 
1.4650585e+3, 1.24988206e+2, -1956912.3, -1761120.5, 56543.73, 0.16704993, -0.10407284, -1745964.3, -30839.494, 0.012283002, 9.9979515, 10.000648 
1.4650606e+3, 1.3499299e+2, -1598717.6, -1484957.0, 26602.547, -0.2401825, 0.2359296, -1479043.5, 138040.23, 0.00723705, 9.999592, 10.001077 
1.4650747e+3, 1.4499402e+2, -1533189.0, -1488919.5, 114949.08, 0.36135703, 0.27667642, -1393993.5, 125082.49, 0.0030819494, 9.999688, 10.000328 
1.4650798e+3, 1.5499444e+2, -1474891.9, -1388823.4, 59527.875, -0.023557423, 0.23135062, -1358403.5, 62667.086, 0.0007585455, 9.999342, 10.000503 
1.4650872e+3, 1.649944e+2, -1434819.1, -1386598.5, 54318.215, -0.1278126, 0.21411714, -1351280.1, -28208.861, 0.00006440502, 9.999227, 9.999905 
1.465098e+3, 1.7499329e+2, -1274191.8, -1239790.9, 49137.473, 0.089672595, 0.06274582, -1204930.4, 20153.424, 0.00000022299002, 9.999583, 10.000065 
1.4651063e+3, 1.8499392e+2, -1161764.8, -1112998.4, 354.32846, 0.14891161, 0.120469354, -1112995.9, 14082.573, 0.0, 9.999614, 10.000241 
1.4651121e+3, 1.9499633e+2, -1052590.1, -992263.06, -32103.658, 0.022873722, 0.28808832, -978375.6, 50679.6, 0.0, 9.999618, 10.00039 
1.465119e+3, 2.0499663e+2, -1014178.4, -1038789.44, 13633.944, -0.01568192, 0.33901352, -1008117.9, -77066.38, 0.0, 9.999677, 9.999387 
1.4651275e+3, 2.1499461e+2, -873838.7, -898958.75, 2069.122, 0.04856523, 0.15024947, -873669.4, -40599.832, 0.0, 9.99989, 9.999563 
1.465135e+3, 2.2499345e+2, -758971.5, -873372.75, -39826.332, 0.08536984, 0.12322243, -746472.44, -11393.046, 0.0, 10.000356, 9.998843 
1.4651413e+3, 2.349929e+2, -525740.4, -696013.3, -61831.973, 0.08836222, 0.13799554, -505656.06, 131427.69, 0.0, 10.001215, 9.998973 
1.4651491e+3, 2.4499157e+2, -427781.97, -629443.75, 45416.176, 0.08582915, 0.13150948, -418025.8, 121069.35, 0.0, 10.001342, 9.998701 
1.4651579e+3, 2.5498933e+2, -391962.66, -540754.06, 11976.854, 0.07142704, -0.011754799, -391004.75, 50110.42, 0.000000044837254, 10.0008335, 9.998876 
1.4651656e+3, 2.649879e+2, -319086.22, -617347.06, -64769.133, 0.09151802, 0.038235284, -305628.47, 37501.7, 0.0000038968087, 10.001357, 9.997432 
1.4651725e+3, 2.7498704e+2, 21892.537, -384501.6, -51935.043, 0.14532281, 0.15992303, 28424.572, 273567.16, 0.000030518888, 10.002949, 9.997585 
1.4651795e+3, 2.849857e+2, 109239.77, -274144.8, 63103.45, 0.11821732, 0.27230573, 119359.23, 266518.13, 0.00014669454, 10.002804, 9.997739 
1.4651868e+3, 2.9498395e+2, -54874.613, -284790.25, 39085.816, 0.019094307, 0.2654193, -48411.67, 767.2874, 0.00052534003, 10.000932, 9.997882 
1.465195e+3, 3.0498254e+2, 112139.98, -23147.514, -15657.223, 0.09499215, 0.28178382, 113928.39, 113928.39, 0.0013448142, 10.001096, 9.999268 
1.4652015e+3, 3.1498054e+2, 446907.5, 203187.13, -99120.836, 0.09133689, 0.08961349, 482129.6, 482129.6, 0.0025808995, 10.003034, 9.9999 
1.4750549e+3, 1.2498498e+2, -1922300.4, -1703757.9, -111831.71, -0.071404755, 0.15136616, -1656675.3, 58483.88, 0.012969953, 9.99802, 10.000998 
1.4750613e+3, 1.3498569e+2, -1627999.1, -1533750.1, 81806.97, -0.1547501, 0.10868232, -1486465.5, 130683.836, 0.0076708426, 9.999555, 10.000747 
1.4750722e+3, 1.4498428e+2, -1559805.6, -1571261.5, 70576.42, 0.081669286, -0.046402846, -1494725.1, 24437.113, 0.0032881629, 9.999785, 9.999724 
1.475079e+3, 1.5498473e+2, -1518284.1, -1474574.0, 61458.79, -0.06707997, -0.031720374, -1431200.0, -10041.411, 0.00081847684, 9.999319, 9.99993 
1.4750874e+3, 1.6498567e+2, -1414137.1, -1353045.8, 46308.168, -0.09271042, 0.06813571, -1328116.4, -4965.5474, 0.000071419374, 9.999259, 10.000119 
1.4750971e+3, 1.7498678e+2, -1272523.1, -1217933.4, 76170.19, 0.00002698516, 0.11856179, -1164315.3, 60826.547, 0.0000002932695, 9.99951, 10.000244 
1.4751053e+3, 1.8498722e+2, -1191394.9, -1174953.6, -21039.396, 0.027814493, 0.16815032, -1160585.9, -33447.074, 0.0, 9.9995985, 9.99983 
1.4751117e+3, 1.9498675e+2, -1095322.5, -1058125.5, -16573.045, -0.005369927, 0.08808536, -1051812.8, -22668.82, 0.0, 9.999507, 9.999998 
1.4751188e+3, 2.049868e+2, -1032051.7, -1038027.06, -106.29047, -0.02248843, 0.12968655, -1032049.75, -100906.055, 0.0, 9.999513, 9.999467 
1.475127e+3, 2.1498725e+2, -907658.7, -910813.7, 22966.932, -0.00653014, 0.17703927, -886215.1, -53075.164, 0.0, 9.999643, 9.999598 
1.4751351e+3, 2.2498643e+2, -799393.8, -906299.25, -26626.268, 0.040552568, 0.18966033, -793129.3, -57982.086, 0.0, 10.00012, 9.998739 
1.4751431e+3, 2.3498407e+2, -564448.6, -726313.2, -11955.623, 0.113268286, 0.029737368, -563570.3, 73598.37, 0.0, 10.00099, 9.99888 
1.475151e+3, 2.44983e+2, -487259.72, -701860.1, 6023.21, 0.12465491, 0.07230025, -487090.78, 52088.664, 0.0, 10.001121, 9.99831 
1.4751591e+3, 2.549831e+2, -456032.78, -619326.9, 8599.4795, 0.084545605, 0.20088129, -455581.16, -14400.035, 0.000000082863835, 10.000597, 9.99845 
1.4751668e+3, 2.6498196e+2, -296443.75, -515079.13, -18836.848, 0.04332284, 0.26504192, -294832.72, 48359.316, 0.0000048986644, 10.001114, 9.998249 
1.4751743e+3, 2.749793e+2, 41826.12, -279179.7, 33530.953, 0.0010309437, 0.115673855, 45291.223, 290507.2, 0.00003489947, 10.002675, 9.998436 
1.4751814e+3, 2.849769e+2, 68821.89, -298050.16, -26563.758, 0.00054428505, 0.080319114, 70735.29, 217974.34, 0.00016199093, 10.002541, 9.997702 
1.4751883e+3, 2.9497486e+2, -90754.39, -303674.9, -9951.124, 0.052532766, 0.041713458, -90290.32, -41029.285, 0.0005773318, 10.000692, 9.997866 
1.4751966e+3, 3.049736e+2, 5434.29, -191561.3, 42391.727, 0.11919292, 0.12173357, 14169.298, 14169.298, 0.0014793195, 10.000859, 9.998225 
1.4752035e+3, 3.1497416e+2, 313415.66, 38735.46, 23072.277, -0.09120598, 0.2866874, 315340.16, 315340.16, 0.0028372656, 10.002547, 9.999001 
1.4850537e+3, 1.24978825e+2, -1820977.9, -1699088.8, -143471.7, -0.014130516, 0.23076868, -1604153.9, 111067.484, 0.013700781, 9.998883, 10.000628 
1.4850621e+3, 1.3497789e+2, -1607692.5, -1597921.3, -21910.617, -0.039277267, 0.09342408, -1580358.3, 36868.684, 0.00813248, 9.999972, 10.000119 
1.4850709e+3, 1.4497603e+2, -1602549.9, -1598598.4, -34814.89, -0.0006185835, -0.06907226, -1565703.1, -46459.363, 0.0035089266, 9.999566, 9.999621 
1.4850791e+3, 1.5497665e+2, -1547558.3, -1494521.0, -48529.082, 0.028921355, -0.029723927, -1465737.6, -44499.04, 0.0008836724, 9.999165, 9.999852 
1.4850876e+3, 1.6497774e+2, -1473993.5, -1364203.3, 9014.306, 0.038126417, 0.082682185, -1363468.1, -40239.05, 0.00007901186, 9.998815, 10.000247 
1.4850959e+3, 1.7497897e+2, -1367221.6, -1246134.8, -5615.416, -0.012063333, 0.13392639, -1245874.9, -20656.834, 0.00000037325287, 9.998809, 10.000389 
1.485104e+3, 1.8497922e+2, -1295750.5, -1223771.0, -48285.617, -0.0031537896, 0.15757129, -1199538.1, -72322.18, 0.0, 9.998869, 9.999848 
1.4851116e+3, 1.9497834e+2, -1129850.8, -1069026.1, -49282.055, 0.053779848, 0.03336323, -1041527.9, -12303.588, 0.0, 9.999241, 10.000051 
1.4851193e+3, 2.0497833e+2, -1025144.6, -1042212.75, 15614.431, 0.06536349, 0.068286136, -1015884.3, -84659.305, 0.0, 9.999611, 9.999383 
1.4851274e+3, 2.1497902e+2, -854720.6, -889764.5, -8778.492, 0.03940009, 0.15039772, -852644.56, -19425.049, 0.0, 10.000032, 9.999551 
1.4851356e+3, 2.2497836e+2, -765145.6, -885957.3, -9287.086, 0.077874035, 0.17795266, -764435.9, -29210.172, 0.0, 10.000339, 9.998769 
1.4851443e+3, 2.3497622e+2, -608865.4, -742293.2, -20661.678, 0.16150752, 0.039290693, -605739.1, 31505.84, 0.0, 10.000666, 9.998923 
1.4851524e+3, 2.449752e+2, -499119.84, -732265.4, 20180.592, 0.16379316, 0.09490364, -497385.97, 41869.805, 0.0, 10.001139, 9.998098 
1.4851601e+3, 2.5497517e+2, -302074.6, -566688.9, 173.23853, 0.09165457, 0.23366998, -302074.5, 139185.11, 0.00000011463164, 10.001747, 9.9982605 
1.485168e+3, 2.6497394e+2, -197550.47, -424918.16, 4942.429, 0.048077714, 0.27868605, -197443.08, 145828.36, 0.000005857849, 10.001627, 9.998612 
1.4851761e+3, 2.7497122e+2, -205794.44, -360327.06, -25510.605, 0.021620126, 0.09655686, -201692.0, 43602.457, 0.000039275426, 10.000821, 9.998768 
1.4851837e+3, 2.8496897e+2, -94926.96, -354780.16, -68445.86, 0.05344938, 0.04477719, -78000.72, 69314.28, 0.00017769585, 10.001319, 9.997901 
1.4851913e+3, 2.9496706e+2, 273314.88, -111282.18, -74330.71, 0.15745115, 0.006215028, 287180.8, 336514.38, 0.0006303682, 10.003103, 9.998042 
1.4851995e+3, 3.049652e+2, 332045.34, -117675.74, 46792.91, 0.19345918, 0.058423873, 336862.5, 336862.5, 0.0016042597, 10.003446, 9.9974985 
1.485206e+3, 3.1496578e+2, 225228.47, -43548.77, -44861.68, -0.05096827, 0.29971886, 232518.61, 232518.61, 0.003054721, 10.002103, 9.998645 
1.4950538e+3, 1.2497037e+2, -1851317.8, -1784324.1, -12296.239, 0.012407635, 0.19956489, -1782138.5, -66832.92, 0.014485426, 9.998987, 9.999977 
1.4950623e+3, 1.3497013e+2, -1678369.8, -1730106.1, 14204.116, -0.056625105, 0.21794386, -1674726.5, -57415.164, 0.008627366, 9.999922, 9.999229 
1.4950705e+3, 1.4496957e+2, -1558761.9, -1543547.6, -82476.4, -0.0570132, 0.21319777, -1468328.3, 50989.66, 0.0037456865, 9.999693, 9.999949 
1.4950795e+3, 1.5497041e+2, -1530474.0, -1461419.8, -48638.754, 0.113327354, 0.24725348, -1436299.1, -14990.39, 0.0009542572, 9.999165, 10.000087 
1.4950874e+3, 1.6497074e+2, -1458832.0, -1350258.6, -11855.163, 0.09493163, 0.2686409, -1348979.3, -25674.645, 0.00008722728, 9.998883, 10.000309 
1.4950944e+3, 1.7496991e+2, -1370431.1, -1241963.4, 8280.439, -0.07801943, 0.10943958, -1241431.9, -16120.343, 0.0000004647829, 9.998767, 10.000433 
1.4951023e+3, 1.849701e+2, -1264509.5, -1161523.0, -55361.516, -0.09689736, 0.10003012, -1137409.0, -10100.655, 0.0, 9.998871, 10.000281 
1.4951111e+3, 1.9497116e+2, -1120018.6, -1021310.4, -22032.441, 0.049485624, 0.12856822, -1016615.8, 12680.227, 0.0, 9.999121, 10.00044 
1.4951195e+3, 2.0497121e+2, -1061291.8, -1082985.8, 11786.212, 0.098338425, 0.1611121, -1056120.9, -124825.94, 0.0, 9.999459, 9.999178 
1.4951278e+3, 2.1496998e+2, -902270.1, -935807.75, 21782.729, 0.065411754, 0.06998028, -891549.3, -58241.527, 0.0, 9.99981, 9.999339 
1.4951362e+3, 2.2496934e+2, -790825.4, -886842.6, -16213.067, 0.06525932, 0.10412113, -788161.56, -52847.836, 0.0, 10.000103, 9.998881 
1.4951445e+3, 2.349692e+2, -634039.5, -741500.06, 7880.456, 0.094467334, 0.1519843, -633464.7, 3849.3723, 0.0, 10.000435, 9.999042 
1.4951529e+3, 2.4496807e+2, -538975.06, -758057.1, 28394.586, 0.05654035, 0.1954581, -535354.75, 3970.2014, 0.0, 10.000889, 9.998042 
1.4951609e+3, 2.5496563e+2, -342376.5, -595676.25, 43286.355, -0.03919003, 0.09447422, -335183.56, 106166.46, 0.00000015644366, 10.001503, 9.998183 
1.4951693e+3, 2.6496387e+2, -257443.72, -482046.56, -43438.113, -0.039499953, 0.102727026, -249335.52, 94032.23, 0.000006865855, 10.001346, 9.99835 
1.4951774e+3, 2.749627e+2, -261704.66, -417400.38, -36272.88, 0.05003485, 0.10057718, -253668.81, -8289.129, 0.00004412461, 10.000579, 9.998488 
1.4951861e+3, 2.8496158e+2, -97371.875, -307772.75, -19215.654, 0.10899776, 0.1583966, -95631.33, 51757.703, 0.00019465707, 10.001088, 9.998338 
1.4951947e+3, 2.949603e+2, 264896.22, -63960.496, 22249.563, 0.16037606, 0.13427393, 266394.75, 315792.8, 0.0006807664, 10.002818, 9.998508 
1.4952026e+3, 3.0495733e+2, 234868.97, -240075.17, -17811.576, 0.13871975, 0.08538282, 235536.02, 235536.02, 0.0017053906, 10.003118, 9.99681 
1.4952081e+3, 3.149553e+2, 147768.64, -109589.19, -47892.47, -0.11566515, 0.12735575, 156392.14, 156392.14, 0.0032076885, 10.001697, 9.998387 
1.5050535e+3, 1.24960735e+2, -1771825.0, -1802158.8, 12973.782, 0.049932428, 0.15436538, -1767033.1, -51632.934, 0.015336173, 9.999779, 9.999482 
1.505062e+3, 1.3496138e+2, -1809920.6, -1794758.1, -11809.7, -0.014592548, 0.25537992, -1788305.6, -170904.97, 0.0091627855, 9.998993, 9.999254 
1.50507e+3, 1.4496146e+2, -1654927.9, -1544285.0, -30092.828, -0.018730719, 0.29345852, -1536629.9, -17227.705, 0.0040015904, 9.998861, 10.0003395 
1.5050787e+3, 1.5496254e+2, -1426991.0, -1362055.9, -27379.154, 0.0982716, 0.3107254, -1352052.8, 69336.65, 0.001031135, 9.999678, 10.00052 
1.5050866e+3, 1.649628e+2, -1354447.6, -1328723.8, 28501.729, 0.08460205, 0.31620243, -1310316.3, 13068.968, 0.000096309515, 9.999697, 10.000076 
1.5050942e+3, 1.7496166e+2, -1309775.0, -1234529.6, -7694.7646, -0.009503627, 0.14562312, -1233750.9, -8355.605, 0.000000575819, 9.999256, 10.000253 
1.5051022e+3, 1.8496181e+2, -1203431.1, -1122448.6, -26822.158, -0.0054629482, 0.1386989, -1114370.6, 13021.482, 0.0, 9.999267, 10.000342 
1.5051107e+3, 1.9496313e+2, -984300.8, -943624.06, -52614.117, 0.062986135, 0.18588479, -907554.1, 121822.54, 0.0, 10.000011, 10.000528 
1.5051192e+3, 2.0496316e+2, -925183.1, -1003105.1, 5079.253, 0.089363545, 0.20354867, -924853.44, 6521.3735, 0.0, 10.000337, 9.999307 
1.505128e+3, 2.1496162e+2, -816083.6, -883387.0, 1427.7673, 0.077515155, 0.07399237, -816053.4, 17335.508, 0.0, 10.000348, 9.999448 
1.5051368e+3, 2.2496086e+2, -718900.5, -878674.8, 10570.952, 0.091611385, 0.10371296, -718204.1, 17191.91, 0.0, 10.000737, 9.998619 
1.5051457e+3, 2.3496072e+2, -490962.2, -700975.0, -32869.516, 0.11899039, 0.17857891, -485937.9, 151459.8, 0.0, 10.001553, 9.998773 
1.5051542e+3, 2.4495928e+2, -445751.34, -718823.3, -19890.473, 0.07949314, 0.20502819, -444310.13, 95102.1, 0.0, 10.001572, 9.997974 
1.505162e+3, 2.5495625e+2, -442173.7, -648526.3, -47078.78, -0.036561098, 0.05574963, -431940.28, 9501.709, 0.00000020302433, 10.000854, 9.998123 
1.5051705e+3, 2.6495448e+2, -309421.72, -516974.53, -80612.54, -0.020423312, 0.06727531, -281790.66, 61669.35, 0.0000077496, 10.001015, 9.998277 
1.5051796e+3, 2.7495375e+2, -45729.62, -323207.34, -89630.734, 0.12972525, 0.1198829, -19295.42, 226172.45, 0.000048509926, 10.002074, 9.998429 
1.5051883e+3, 2.849529e+2, 81082.05, -213475.02, -22957.453, 0.18635476, 0.20396085, 82860.586, 230335.48, 0.00020995413, 10.002296, 9.998394 
1.5051968e+3, 2.9495174e+2, 125043.2, -114897.04, -66119.01, 0.16021585, 0.18565488, 142056.86, 191539.31, 0.0007220719, 10.001827, 9.998604 
1.5052052e+3, 3.0494863e+2, 111858.21, -340090.56, -83731.195, 0.13356122, 0.13360497, 126872.08, 126872.08, 0.0017709631, 10.002428, 9.996472 
1.5052122e+3, 3.149451e+2, 422517.8, 13755.02, -149808.48, 0.03829478, 0.073101595, 471541.88, 471541.88, 0.0032780797, 10.003616, 9.998336 
1.5150535e+3, 1.2495045e+2, -1766956.5, -1837669.1, -123065.43, -0.014364583, 0.11725743, -1674269.3, 41231.02, 0.016257107, 9.999969, 9.999157 
1.515061e+3, 1.3495198e+2, -1769560.9, -1684826.8, -10666.002, -0.05772947, 0.21794905, -1683504.8, -66012.83, 0.009740974, 9.998905, 10.000042 
1.515069e+3, 1.449521e+2, -1606588.0, -1480740.8, -24296.523, -0.0735584, 0.20357989, -1476212.9, 43279.89, 0.0042781597, 9.998994, 10.00072 
1.5150762e+3, 1.5495308e+2, -1393084.5, -1300347.0, 17454.324, -0.1572855, 0.16891742, -1297170.6, 124309.64, 0.0011151112, 9.999705, 10.000933 
1.5150844e+3, 1.6495396e+2, -1371076.0, -1383759.5, -12168.903, -0.15374032, 0.23526523, -1363695.5, -40224.85, 0.000106548556, 9.999776, 9.9996605 
1.5150943e+3, 1.7495424e+2, -1344517.1, -1302347.4, -10190.585, 0.06203164, 0.2447904, -1300013.9, -74545.16, 0.0000007145684, 9.9992285, 9.9998045 
1.5151031e+3, 1.8495443e+2, -1219643.8, -1155556.6, -17269.25, 0.11369667, 0.2765162, -1151199.4, -23732.91, 0.0, 9.999265, 10.000116 
1.51511e+3, 1.9495435e+2, -1019957.4, -988342.94, -10229.421, -0.039587863, 0.20572352, -985321.75, 44143.96, 0.0, 9.99989, 10.000278 
1.5151179e+3, 2.049543e+2, -922476.0, -958755.44, -14997.414, -0.1059092, 0.20978482, -917079.1, 14384.42, 0.0, 10.000165, 9.999697 
1.5151273e+3, 2.1495411e+2, -822858.44, -839744.06, 16886.863, -0.059311602, 0.17255561, -812421.44, 21040.39, 0.0, 10.000097, 9.999869 
1.515137e+3, 2.2495306e+2, -805027.06, -995960.4, 23934.12, 0.0058846897, 0.18532878, -802072.56, -66601.04, 0.0, 10.000467, 9.997948 
1.5151474e+3, 2.349509e+2, -575940.56, -820525.06, 15630.949, 0.09868625, 0.12947652, -574945.6, 62549.344, 0.0, 10.001308, 9.998072 
1.515156e+3, 2.4494888e+2, -493608.38, -763667.4, -65614.63, 0.0752142, 0.14355887, -478510.44, 61005.902, 0.0, 10.001325, 9.997791 
1.515163e+3, 2.5494683e+2, -485330.8, -688374.3, -55770.035, -0.055590883, 0.107321285, -471020.94, -29483.74, 0.00000026346208, 10.00063, 9.997962 
1.5151715e+3, 2.6494542e+2, -333006.03, -502959.94, -54777.94, -0.047361314, 0.15208896, -316880.53, 26670.42, 0.000008336701, 10.000752, 9.9985 
1.5151817e+3, 2.7494445e+2, -73161.69, -310506.8, -25069.174, 0.11117918, 0.15714009, -70542.695, 175016.17, 0.00005112129, 10.00179, 9.9986515 
1.5151903e+3, 2.8494313e+2, 6713.0728, -303901.56, -58852.082, 0.11625485, 0.209847, 17489.861, 165060.22, 0.00022272031, 10.002014, 9.997907 
1.5151975e+3, 2.949413e+2, 49302.16, -211373.98, -58841.926, -0.01746752, 0.16683894, 61968.93, 111555.945, 0.0007570033, 10.001563, 9.998065 
1.5152067e+3, 3.0493885e+2, 67302.41, -353405.4, -51551.746, 0.011168511, 0.20170407, 73527.234, 73527.234, 0.001811775, 10.002114, 9.99652 
1.5152171e+3, 3.1493515e+2, 369386.1, 29167.88, -36363.848, 0.10882676, 0.11335965, 373229.38, 373229.38, 0.0032877447, 10.003116, 9.998664 
1.5250523e+3, 1.2494092e+2, -1886851.4, -1885317.3, -71688.28, -0.058004174, 0.11083877, -1814392.0, -98797.17, 0.017244658, 9.999129, 9.999216 
1.5250607e+3, 1.349432e+2, -1625367.4, -1496913.5, -1076.4855, 0.024771027, 0.17899475, -1496904.5, 120670.914, 0.010359608, 9.999401, 10.001085 
1.525069e+3, 1.4494412e+2, -1627308.3, -1555214.6, 37779.297, 0.044118054, 0.22641769, -1539044.1, -19476.072, 0.0045741852, 9.99915, 10.000121 
1.5250753e+3, 1.5494417e+2, -1467950.3, -1392896.3, -35533.7, -0.19408992, 0.1489745, -1378742.4, 42825.46, 0.0012060112, 9.999428, 10.000427 
1.5250835e+3, 1.6494472e+2, -1399151.4, -1349205.3, -56761.4, -0.192426, 0.1886706, -1312166.1, 11395.087, 0.000118081814, 9.9994135, 10.000064 
1.5250942e+3, 1.749457e+2, -1258354.5, -1208459.1, -31071.973, 0.120236814, 0.22816378, -1193558.9, 31990.297, 0.0000008766353, 9.999624, 10.00025 
1.5251033e+3, 1.8494582e+2, -1186582.4, -1189690.3, 37183.55, 0.19769128, 0.25239217, -1150920.3, -23373.791, 0.0, 9.999696, 9.999688 
1.5251102e+3, 1.9494486e+2, -1052492.9, -1056085.5, -4877.97, -0.0052548246, 0.14191188, -1049091.0, -19535.635, 0.0, 9.999874, 9.999839 
1.5251182e+3, 2.0494455e+2, -928270.75, -986670.7, -10645.907, -0.08885167, 0.15463954, -926390.6, 5166.2373, 0.0, 10.000215, 9.999482 
1.5251276e+3, 2.1494478e+2, -737838.56, -822267.25, -57176.8, -0.05130274, 0.17642544, -708980.9, 124571.16, 0.0, 10.000764, 9.999668 
1.5251376e+3, 2.2494365e+2, -739679.6, -993269.1, -16018.82, 0.011418036, 0.20379342, -738671.75, -3108.2383, 0.0, 10.001028, 9.9977045 
1.5251483e+3, 2.3494095e+2, -634983.8, -875122.25, -26220.678, 0.09239815, 0.118994266, -632154.1, 5439.314, 0.0, 10.001006, 9.997847 
1.5251575e+3, 2.4493904e+2, -495932.06, -736169.1, -60395.76, 0.10111466, 0.14287046, -481603.16, 58011.23, 0.0, 10.001213, 9.998016 
1.5251648e+3, 2.5493777e+2, -308481.13, -573381.6, -58063.266, 0.03667635, 0.16360052, -296313.22, 145314.31, 0.0000003530132, 10.001738, 9.998203 
1.5251736e+3, 2.649364e+2, -183598.22, -441048.84, -6384.598, 0.0414028, 0.20447896, -183439.98, 160199.69, 0.000008619123, 10.0018, 9.998426 
1.5251832e+3, 2.7493483e+2, -139401.08, -342063.63, -39683.895, 0.10669725, 0.14868787, -131907.55, 113744.664, 0.000051931653, 10.001341, 9.99864 
1.5251915e+3, 2.8493288e+2, -92548.48, -387516.88, -43065.094, 0.07793096, 0.15349093, -86389.61, 61279.67, 0.00023518385, 10.001475, 9.997611 
1.525199e+3, 2.9493043e+2, 118410.65, -221932.7, -68114.98, -0.03283987, 0.08754122, 131536.69, 181229.72, 0.000791527, 10.002188, 9.997731 
1.5252092e+3, 3.049285e+2, 178457.67, -258164.08, 21922.37, 0.04467268, 0.17900023, 179555.61, 179555.61, 0.0018473114, 10.002678, 9.996918 
1.5252212e+3, 3.1492507e+2, 324532.7, 15547.61, -14588.873, 0.24036671, 0.08100828, 325219.97, 325219.97, 0.0032831791, 10.002737, 9.998769 
1.53505e+3, 1.2493299e+2, -1849494.0, -1836646.4, -57173.38, -0.30160543, 0.20742396, -1785537.0, -69861.85, 0.018294634, 9.999243, 9.9994955 
1.535061e+3, 1.3493523e+2, -1538518.8, -1318805.3, 11708.007, 0.083191074, 0.1494265, -1318183.0, 299466.22, 0.011016667, 9.999413, 10.0023155 
1.5350696e+3, 1.4493784e+2, -1709591.1, -1766145.0, 17047.264, 0.13848668, 0.3830568, -1704850.0, -185224.83, 0.0048880493, 9.999312, 9.998603 
1.5350755e+3, 1.5493597e+2, -1578626.3, -1605360.0, -13093.297, -0.15953611, 0.26271465, -1573282.0, -151631.77, 0.0013030368, 9.999365, 9.999001 
1.5350834e+3, 1.6493532e+2, -1308972.8, -1182124.6, -71859.44, -0.18249567, 0.19659218, -1149703.1, 173951.67, 0.00013086536, 9.999485, 10.001182 
1.5350933e+3, 1.7493607e+2, -1184672.5, -1046955.4, -10970.043, 0.03396873, 0.10149022, -1046087.0, 179549.2, 0.0000010420176, 9.999588, 10.001374 
1.5351024e+3, 1.8493597e+2, -1231050.4, -1287289.8, 20012.91, 0.094902515, 0.08396111, -1224655.9, -97023.875, 0.0, 9.999711, 9.999014 
1.5351108e+3, 1.949347e+2, -1107603.9, -1152999.3, 13511.965, 0.025791304, 0.0019548687, -1103886.5, -74240.68, 0.0, 9.999793, 9.999214 
1.5351196e+3, 2.0493397e+2, -1007756.06, -1109569.9, -7823.666, -0.01655224, 0.04045116, -1007158.4, -75504.04, 0.0, 10.000034, 9.998723 
1.5351288e+3, 2.1493368e+2, -832434.44, -957313.3, -20832.426, -0.03829366, 0.08964036, -829050.8, 4608.1216, 0.0, 10.000505, 9.998861 
1.5351383e+3, 2.2493272e+2, -769921.4, -990545.4, -33110.426, -0.04829462, 0.16648684, -765059.44, -29388.15, 0.0, 10.000741, 9.997862 
1.5351485e+3, 2.3493081e+2, -653941.44, -862077.56, -6337.6094, -0.030503817, 0.14021428, -653748.6, -16054.886, 0.0, 10.000773, 9.998051 
1.535158e+3, 2.4492958e+2, -502657.28, -677490.0, -54874.273, 0.009335663, 0.19330359, -486861.22, 52846.74, 0.0, 10.000913, 9.998557 
1.5351675e+3, 2.549289e+2, -314747.22, -520562.06, -18300.588, 0.096906014, 0.21721688, -313132.63, 128581.95, 0.0000004707298, 10.001468, 9.99869 
1.535176e+3, 2.6492736e+2, -243453.63, -505705.38, -42643.46, 0.080195874, 0.23434748, -236693.81, 107033.37, 0.0000086272985, 10.00154, 9.998106 
1.5351832e+3, 2.7492476e+2, -190761.98, -404650.34, -41409.94, -0.043202873, 0.10676417, -183024.69, 62723.76, 0.000052741245, 10.001151, 9.9983015 
1.5351917e+3, 2.8492194e+2, -135342.22, -427509.4, -33051.72, -0.08994526, 0.047217704, -131649.86, 16123.463, 0.00024875673, 10.001257, 9.997447 
1.5352012e+3, 2.9491895e+2, 67445.484, -265450.44, -11973.401, -0.05581189, -0.057977356, 67875.586, 117677.19, 0.00082812813, 10.001919, 9.9975605 
1.5352122e+3, 3.0491766e+2, 173358.4, -198048.66, 9332.313, 0.05482911, 0.07994729, 173592.75, 173592.75, 0.001892961, 10.002382, 9.997468 
1.5352234e+3, 3.149149e+2, 236629.03, -31440.844, 48243.48, 0.11846295, -0.017726656, 245046.89, 245046.89, 0.003309201, 10.002178, 9.998701 
1.5450495e+3, 1.24924846e+2, -1986589.6, -1864186.8, 13074.656, -0.19254096, 0.25323004, -1862805.8, -147051.92, 0.019406972, 9.998133, 9.999838 
1.5450604e+3, 1.3492516e+2, -1546576.9, -1360224.5, -88226.74, 0.09230393, 0.026864694, -1325081.8, 292663.56, 0.0117135905, 9.999475, 10.002009 
1.5450694e+3, 1.4492868e+2, -1715888.9, -1741315.1, -47731.066, 0.1839232, 0.35764372, -1679206.9, -159496.22, 0.0052204016, 9.999166, 9.998844 
1.5450755e+3, 1.549268e+2, -1576941.4, -1570584.3, 23057.271, -0.07011374, 0.20451805, -1550487.5, -128753.24, 0.0014059248, 9.999213, 9.999323 
1.5450837e+3, 1.6492584e+2, -1358820.3, -1258036.3, 20528.525, -0.086075194, 0.11620012, -1254015.3, 69726.26, 0.00014487762, 9.999376, 10.000703 
1.5450932e+3, 1.7492613e+2, -1180109.4, -1102948.5, -75706.56, 0.056103062, 0.020622034, -1056558.8, 169170.55, 0.000001197513, 9.999855, 10.000863 
1.5451024e+3, 1.8492575e+2, -1175073.5, -1275353.0, -46735.426, 0.10771206, 0.00904918, -1156669.9, -28941.162, 0.0, 10.000183, 9.998858 
1.5451114e+3, 1.9492455e+2, -987688.44, -1108558.8, -49545.06, 0.08266571, -0.051136583, -969975.5, 59766.27, 0.0, 10.000693, 9.999081 
1.5451205e+3, 2.0492363e+2, -906749.4, -1085916.3, -9215.227, 0.048547752, -0.013129417, -906276.6, 25476.123, 0.0, 10.000851, 9.998491 
1.5451296e+3, 2.1492293e+2, -816773.25, -977792.3, -19989.504, -0.0155932605, 0.020868694, -814328.8, 19433.904, 0.0, 10.000737, 9.998614 
1.5451391e+3, 2.249222e+2, -715093.1, -897577.56, 38675.223, -0.035678186, 0.10640211, -707234.8, 28537.79, 0.0, 10.000859, 9.998425 
1.5451495e+3, 2.3492129e+2, -529804.25, -731726.75, 49525.65, -0.015445035, 0.12177851, -518311.2, 119472.67, 0.0, 10.001361, 9.998643 
1.5451594e+3, 2.4492037e+2, -463556.88, -666535.3, 8040.179, 0.04059021, 0.18145302, -463238.9, 76555.53, 0.000000000009610117, 10.001183, 9.998525 
1.5451688e+3, 2.5491935e+2, -487901.84, -610013.3, -23955.676, 0.14108674, 0.17690335, -483370.4, -41565.016, 0.0000005675007, 10.000273, 9.998676 
1.5451775e+3, 2.6491776e+2, -387274.03, -585717.25, 7440.904, 0.13832529, 0.19263865, -386995.44, -43175.97, 0.000008574752, 10.000623, 9.997998 
1.5451854e+3, 2.749152e+2, -25424.111, -347752.06, -13378.4, 0.012786394, 0.090790085, -24869.787, 220970.66, 0.00005426492, 10.002372, 9.998118 
1.5451942e+3, 2.8491223e+2, 79722.13, -351670.03, 1465.5371, -0.025123296, 0.04078625, 79727.12, 227594.36, 0.00026286932, 10.002885, 9.99715 
1.5452039e+3, 2.9490903e+2, 78108.445, -291923.63, -36532.21, 0.0049485997, -0.057390194, 81680.68, 131579.63, 0.0008685198, 10.002155, 9.997236 
1.5452147e+3, 3.0490786e+2, 149270.31, -139118.86, 25895.209, 0.09573322, 0.07403269, 151577.06, 151577.06, 0.001959959, 10.001899, 9.998114 
1.5452255e+3, 3.1490612e+2, 201114.22, -53908.133, -10559.368, 0.1444904, 0.02342984, 201550.69, 201550.69, 0.0033944638, 10.001937, 9.998669 
1.5550491e+3, 1.2491586e+2, -1902167.1, -1725652.1, -76914.01, -0.15382503, 0.20293075, -1696840.6, 18995.94, 0.020587768, 9.998304, 10.000706 
1.555058e+3, 1.349132e+2, -1676837.4, -1608009.0, -65912.375, -0.12450938, -0.15187578, -1568067.5, 49793.934, 0.012455585, 9.999402, 10.000328 
1.5550674e+3, 1.4491667e+2, -1558204.0, -1436012.1, -80013.03, 0.015371072, 0.15436547, -1396436.3, 123388.26, 0.0055746003, 9.999245, 10.000911 
1.5550749e+3, 1.549168e+2, -1433908.0, -1271632.1, 41559.848, -0.07365534, -0.007514549, -1261607.6, 160210.77, 0.001515748, 9.999214, 10.001373 
1.5550837e+3, 1.6491659e+2, -1479643.5, -1535126.1, 19162.023, -0.06734756, -0.025091505, -1473668.9, -149849.83, 0.00016035176, 9.999482, 9.998756 
1.5550934e+3, 1.7491598e+2, -1326745.8, -1395538.1, -46085.15, 0.05678326, -0.0062705316, -1303636.0, -77808.57, 0.0000013687348, 9.999807, 9.998879 
1.5551028e+3, 1.8491533e+2, -1158244.9, -1228724.3, -46415.664, 0.09009443, 0.0339903, -1135207.1, -7372.5166, 0.0, 10.000136, 9.999199 
1.5551119e+3, 1.9491445e+2, -991143.44, -1075982.1, -13062.458, 0.02903821, -0.02350691, -989177.75, 40664.832, 0.0, 10.000535, 9.999376 
1.5551208e+3, 2.0491353e+2, -910984.2, -1066986.6, -31077.846, -0.04257385, -0.009181393, -905021.0, 26830.924, 0.0, 10.000714, 9.998696 
1.5551296e+3, 2.1491249e+2, -828305.56, -958037.0, -6657.7827, -0.11049946, -0.029319812, -827964.8, 5898.5625, 0.0, 10.000537, 9.998855 
1.5551397e+3, 2.2491214e+2, -694315.9, -795241.5, 40083.68, -0.105990775, 0.03797855, -680333.4, 55533.816, 0.0, 10.000601, 9.999252 
1.5551512e+3, 2.349122e+2, -507964.34, -638477.75, 83465.88, -0.0074604833, 0.06858233, -467272.97, 170592.69, 0.0, 10.001144, 9.999393 
1.5551606e+3, 2.4491128e+2, -535184.6, -754031.1, -41273.203, 0.029369583, 0.113293745, -527659.5, 12216.384, 0.0, 10.000918, 9.998052 
1.5551682e+3, 2.5490922e+2, -549262.3, -690181.8, -41921.008, 0.030376408, 0.050165754, -537734.6, -95834.99, 0.0000005355393, 10.000071, 9.998223 
1.5551777e+3, 2.649075e+2, -422028.22, -605171.44, 58567.063, 0.064765535, 0.07956451, -404900.88, -60984.035, 0.000008556659, 10.000399, 9.99797 
1.5551893e+3, 2.7490604e+2, -68282.31, -372770.47, 76583.85, 0.13463506, 0.0850676, -50105.31, 195823.69, 0.000056489618, 10.002103, 9.998071 
1.5551989e+3, 2.849037e+2, -6404.116, -459973.25, -39278.52, 0.10659491, 0.12946099, -3027.7788, 144924.3, 0.00027893353, 10.002586, 9.996547 
1.5552062e+3, 2.9490042e+2, -2015.7218, -387527.9, -39213.574, -0.018407077, 0.07632976, 1932.5719, 51919.77, 0.0009153457, 10.0018635, 9.996713 
1.555216e+3, 3.0489886e+2, 143654.03, -80009.36, 12643.458, 0.0015062426, 0.16737576, 144366.48, 144366.48, 0.0020538478, 10.001612, 9.998651 
1.5552267e+3, 3.148982e+2, 110812.08, -95988.41, 34829.1, 0.029101778, 0.16457383, 116520.39, 116520.39, 0.0035487118, 10.001351, 9.998646 
1.5650484e+3, 1.249073e+2, -1926017.0, -1706805.5, -26415.486, -0.017546514, 0.16148356, -1703667.4, 12248.648, 0.021849003, 9.9980135, 10.00099 
1.5650578e+3, 1.3490438e+2, -1870694.9, -1752690.9, 27757.814, -0.03862413, -0.16022426, -1746487.5, -128543.21, 0.013250772, 9.998292, 9.999879 
1.5650663e+3, 1.4490661e+2, -1587687.1, -1440917.1, 41536.746, 0.013262693, 0.033972286, -1429977.4, 89941.98, 0.0059556314, 9.999003, 10.000991 
1.565075e+3, 1.5490732e+2, -1298423.3, -1210519.4, -30063.525, -0.02162589, -0.07006363, -1201221.0, 220685.44, 0.0016345053, 10.000158, 10.001335 
1.5650842e+3, 1.6490734e+2, -1376771.1, -1527753.0, -55445.88, -0.007344638, -0.046935715, -1358597.1, -34691.203, 0.00017771397, 10.000361, 9.998394 
1.5650941e+3, 1.7490648e+2, -1296463.4, -1420421.0, -26140.969, 0.13402665, -0.014980121, -1291176.1, -65256.43, 0.0000016137079, 10.000166, 9.998547 
1.5651037e+3, 1.8490592e+2, -1146309.3, -1222361.1, 69815.35, 0.1745798, 0.04766046, -1104835.8, 23092.234, 0.0, 10.000206, 9.999211 
1.5651126e+3, 1.9490544e+2, -968566.06, -1067514.6, 48879.168, 0.06502702, 0.027795568, -948492.7, 81439.65, 0.0, 10.000674, 9.999374 
1.5651216e+3, 2.0490463e+2, -873276.8, -1023159.8, 38203.707, -0.035254516, 0.044857983, -864100.8, 67839.13, 0.0, 10.000914, 9.998876 
1.5651302e+3, 2.1490346e+2, -707870.6, -869156.1, 21594.605, -0.12184527, -0.009414225, -705029.4, 128921.85, 0.0, 10.001284, 9.999078 
1.5651405e+3, 2.2490275e+2, -616725.2, -793270.94, 58064.336, -0.102431625, 0.027997585, -599340.25, 136617.47, 0.0, 10.001259, 9.998964 
1.5651524e+3, 2.349024e+2, -576259.2, -695984.44, -1536.3866, 0.028840713, 0.041903153, -576239.5, 61721.266, 0.0, 10.000772, 9.999176 
1.5651618e+3, 2.4490137e+2, -540002.44, -757095.6, -119630.375, 0.06953653, 0.08573624, -487013.3, 52958.965, 0.0, 10.000879, 9.998051 
1.5651688e+3, 2.5489947e+2, -327788.22, -579765.3, -119498.31, 0.0152300475, 0.040556163, -280130.7, 161863.8, 0.00000039469393, 10.001579, 9.998246 
1.5651788e+3, 2.6489794e+2, -200094.98, -492247.03, 58402.527, 0.058901485, 0.08239525, -188852.66, 155158.13, 0.000008163994, 10.001888, 9.998031 
1.5651916e+3, 2.748966e+2, -121682.164, -390876.38, 42765.293, 0.19451095, 0.09768911, -115051.62, 130971.28, 0.000058543963, 10.001698, 9.998141 
1.5652017e+3, 2.8489462e+2, -97358.164, -449953.7, -27053.502, 0.18762454, 0.15095219, -95294.516, 52747.85, 0.00029613846, 10.001718, 9.997061 
1.5652084e+3, 2.948919e+2, 64086.438, -297919.4, 5470.914, 0.038866226, 0.11136757, 64169.1, 114239.336, 0.00096601876, 10.002049, 9.997262 
1.5652178e+3, 3.0488986e+2, 201170.38, -60748.715, 113694.87, 0.030333871, 0.12535909, 243637.83, 243637.83, 0.002166349, 10.002026, 9.998584 
1.5652284e+3, 3.1488997e+2, 110291.54, -134163.0, 14764.491, 0.056107257, 0.21374717, 111180.05, 111180.05, 0.0037551883, 10.001443, 9.998361 
1.5750454e+3, 1.2489837e+2, -1930169.1, -1745760.3, -46332.76, -0.19888903, 0.07261898, -1734773.8, -18774.053, 0.023204513, 9.998122, 10.000677 
1.5750584e+3, 1.3489893e+2, -1807649.8, -1627665.5, 54365.46, 0.18207428, 0.034698, -1612518.8, 5472.925, 0.014108494, 9.998318, 10.00072 
1.5750659e+3, 1.4489874e+2, -1685733.5, -1684230.5, 64865.938, 0.013118429, 0.0171504, -1620111.8, -100118.86, 0.0063687824, 9.999172, 9.999239 
1.5750754e+3, 1.5489833e+2, -1455843.1, -1524045.8, 21753.537, -0.034999687, 0.017825056, -1449495.5, -27497.275, 0.00176415, 10.000112, 9.999201 
1.5750845e+3, 1.6489801e+2, -1280186.6, -1340780.8, -85687.52, -0.059068773, 0.05327951, -1219597.8, 104404.49, 0.00019721544, 10.00041, 9.999655 
1.5750948e+3, 1.7489763e+2, -1207586.0, -1230774.3, -17962.082, 0.14745152, -0.0047622332, -1197801.1, 28204.996, 0.0000019795527, 10.000143, 9.999857 
1.5751046e+3, 1.8489759e+2, -1156856.8, -1252455.8, 69107.21, 0.20469725, 0.054754857, -1120628.9, 7379.021, 0.0, 10.000232, 9.998995 
1.5751135e+3, 1.948977e+2, -1006629.0, -1114956.5, 79092.96, 0.05309933, 0.121098205, -964931.3, 65077.77, 0.0, 10.000541, 9.999113 
1.5751223e+3, 2.0489708e+2, -891956.2, -1028296.2, 31819.664, -0.09070944, 0.16576304, -884895.56, 47120.0, 0.0, 10.000755, 9.9989195 
1.5751311e+3, 2.1489553e+2, -740921.0, -886653.6, 47467.55, -0.19039257, 0.07152669, -726823.75, 107205.336, 0.0, 10.001059, 9.99907 
1.5751413e+3, 2.2489385e+2, -732961.0, -976567.1, 26399.408, -0.1782461, 0.06821674, -730133.0, 5913.2026, 0.0, 10.001011, 9.997823 
1.5751527e+3, 2.3489188e+2, -695555.0, -885310.2, -4391.998, -0.0403474, 0.037619602, -695453.4, -57384.65, 0.0, 10.000524, 9.997996 
1.5751624e+3, 2.4489066e+2, -554013.56, -719750.25, -108385.33, 0.0090841465, 0.101203464, -500446.75, 39636.33, 0.0, 10.000589, 9.998445 
1.5751702e+3, 2.5489005e+2, -336122.5, -542818.56, -75713.63, -0.02976638, 0.1405741, -311355.84, 130734.58, 0.00000029448665, 10.001342, 9.998611 
1.5751801e+3, 2.6488894e+2, -235506.05, -505424.1, 36497.703, -0.012725719, 0.20459008, -230657.98, 113444.016, 0.000007127328, 10.001628, 9.998069 
1.5751922e+3, 2.748869e+2, -149262.31, -393172.7, 57223.45, 0.05477258, 0.14047153, -136504.52, 109617.43, 0.000059012113, 10.001466, 9.998239 
1.5752023e+3, 2.8488502e+2, -29138.545, -259279.52, -32181.06, 0.05965818, 0.12507853, -24723.31, 123414.96, 0.00030982727, 10.001498, 9.998476 
1.5752107e+3, 2.9488355e+2, 115422.4, -116345.67, 45115.547, 0.012647992, 0.06312831, 123894.8, 174042.86, 0.0010139579, 10.001729, 9.998663 
1.57522e+3, 3.048808e+2, 106383.12, -176330.39, 77443.51, 0.0012810548, -0.025711538, 126207.09, 126207.09, 0.002282176, 10.0016985, 9.997929 
1.575229e+3, 3.1488115e+2, -7775.2104, -236074.75, 45218.953, -0.08258393, 0.14041202, 855.00073, 855.00073, 0.003977177, 10.000868, 9.99791 
1.5850441e+3, 1.2488797e+2, -1905081.0, -1811752.5, -39546.99, -0.14062399, 0.0131205125, -1797248.8, -81150.664, 0.024665277, 9.998641, 9.999951 
1.5850572e+3, 1.3488969e+2, -1664872.9, -1535632.0, -91181.35, 0.19935933, 0.0721148, -1488494.5, 129586.375, 0.0150364665, 9.999187, 10.000933 
1.5850654e+3, 1.4488916e+2, -1640143.8, -1674846.6, -27240.072, 0.044570457, 0.010466353, -1625198.3, -105111.57, 0.0068181083, 9.999538, 9.999126 
1.5850759e+3, 1.548884e+2, -1571418.3, -1607089.4, 25775.033, 0.03057986, 0.0012727856, -1557909.6, -135813.64, 0.0019058621, 9.999418, 9.99897 
1.5850846e+3, 1.6488823e+2, -1370003.8, -1346056.9, -10947.188, -0.019999338, 0.046201453, -1341806.8, -17708.037, 0.0002187055, 9.999641, 9.999985 
1.5850946e+3, 1.7488848e+2, -1106328.4, -1138982.3, -52102.71, 0.107448034, 0.015563724, -1068054.4, 158041.69, 0.000002466339, 10.000669, 10.000232 
1.5851048e+3, 1.8488851e+2, -1048079.56, -1216244.1, 24305.008, 0.1677049, 0.07464807, -1044637.2, 83459.66, 0.0, 10.00106, 9.998841 
1.5851144e+3, 1.9488817e+2, -927682.5, -1092508.0, 8267.593, 0.060200755, 0.111326486, -927268.8, 102834.32, 0.0, 10.001151, 9.998968 
1.5851235e+3, 2.0488748e+2, -866685.94, -1032358.1, -12668.058, -0.043816153, 0.16146226, -865722.9, 66388.01, 0.0, 10.000964, 9.998809 
1.5851326e+3, 2.148863e+2, -807701.25, -932496.0, -33275.887, -0.11185552, 0.11154818, -799382.9, 34738.824, 0.0, 10.000612, 9.998987 
1.5851426e+3, 2.248847e+2, -785033.7, -973354.75, 22685.871, -0.110664375, 0.10845182, -782339.44, -46201.742, 0.0, 10.000561, 9.998063 
1.5851533e+3, 2.3488256e+2, -598900.94, -818633.6, 58394.207, -0.053817436, 0.045197275, -584346.6, 53813.79, 0.0, 10.001092, 9.998199 
1.585163e+3, 2.448812e+2, -443344.88, -662352.9, 33535.344, -0.009608992, 0.08554824, -438324.88, 101850.48, 0.0, 10.001356, 9.99846 
1.5851718e+3, 2.548806e+2, -327552.28, -542486.1, -2669.6875, 0.008540281, 0.13090709, -327519.13, 114663.25, 0.00000023115544, 10.001422, 9.99858 
1.5851821e+3, 2.6487952e+2, -283840.66, -505294.63, 110153.79, 0.045826085, 0.19174488, -238380.83, 105812.586, 0.0000061293663, 10.00121, 9.998259 
1.5851937e+3, 2.748776e+2, -216671.83, -399438.44, 99488.74, 0.092304796, 0.11867032, -172966.58, 73245.39, 0.000060026516, 10.000912, 9.9984455 
1.5852039e+3, 2.8487602e+2, -95951.37, -279851.66, 20193.697, 0.09163846, 0.118652746, -93760.055, 54465.645, 0.0003212461, 10.000996, 9.998563 
1.5852123e+3, 2.948749e+2, 78112.086, -124936.65, -44339.21, 0.043297276, 0.08741005, 87372.03, 137605.4, 0.0010570007, 10.001417, 9.998746 
1.5852217e+3, 3.0487192e+2, 134018.48, -189814.2, -13168.916, 0.012700415, -0.025243456, 134553.13, 134553.13, 0.0023874303, 10.001971, 9.997729 
1.5852313e+3, 3.148724e+2, 245083.14, -76984.3, -97148.68, -0.011836506, 0.19321387, 272117.8, 272117.8, 0.004171727, 10.002423, 9.998278 
1.5950471e+3, 1.2487701e+2, -1959849.5, -1986314.0, 53258.914, 0.19279692, 0.025903754, -1918203.8, -202001.13, 0.026239868, 9.998863, 9.998663 
1.595054e+3, 1.3487689e+2, -1709046.6, -1625580.4, -38049.27, -0.08579198, -0.050243746, -1610838.6, 7370.977, 0.016040104, 9.999191, 10.000299 
1.5950644e+3, 1.4487775e+2, -1514657.5, -1460915.8, -50632.043, -0.07342371, -0.0031625226, -1430466.0, 89736.11, 0.0073062, 9.999716, 10.000522 
1.5950756e+3, 1.5487778e+2, -1450258.9, -1368970.3, 32017.703, 0.028970093, -0.098839276, -1357873.9, 64323.71, 0.002060233, 9.999464, 10.000588 
1.5950847e+3, 1.6487837e+2, -1397573.6, -1425405.8, 3337.5808, -0.043493006, -0.029469224, -1397179.0, -72987.305, 0.00024185247, 9.999731, 9.999398 
1.5950935e+3, 1.748792e+2, -1161035.3, -1241284.4, -46.418613, -0.09849661, 0.063606225, -1161035.1, 65152.586, 0.0000030340082, 10.000621, 9.999551 
1.5951037e+3, 1.8487877e+2, -1054817.5, -1229684.1, 10142.885, -0.085339285, 0.11198469, -1054231.3, 73963.516, 0.0, 10.001052, 9.998753 
1.5951148e+3, 1.9487692e+2, -956449.1, -1116113.0, 27652.271, -0.04781104, 0.0058683883, -951795.6, 78418.414, 0.0, 10.001004, 9.998873 
1.5951248e+3, 2.0487607e+2, -902067.2, -1067219.3, -41105.234, -0.04199499, 0.053630497, -892402.0, 39821.934, 0.0, 10.000798, 9.998646 
1.5951343e+3, 2.1487604e+2, -858861.25, -973824.3, -31526.08, -0.02413188, 0.13349444, -850783.5, -16557.342, 0.0, 10.000342, 9.998829 
1.595144e+3, 2.2487555e+2, -719679.06, -781736.56, 26493.383, -0.0554652, 0.17636281, -709907.3, 26322.426, 0.0, 10.000307, 9.999501 
1.5951537e+3, 2.3487444e+2, -538271.25, -630236.0, 98271.234, -0.1436804, 0.06600072, -475756.56, 162479.47, 0.0, 10.000818, 9.999625 
1.5951635e+3, 2.4487305e+2, -522486.16, -755380.06, 23283.719, -0.13883737, 0.055833112, -520181.2, 20067.621, 0.0, 10.001054, 9.997961 
1.5951733e+3, 2.5487113e+2, -403940.9, -630058.7, 16453.656, -0.011777742, 0.017572504, -402749.9, 39520.67, 0.00000009760233, 10.001137, 9.998103 
1.595184e+3, 2.648697e+2, -302907.88, -495348.47, 82918.69, 0.0887072, 0.056546763, -272109.06, 72176.234, 0.0000054247644, 10.000985, 9.998438 
1.5951957e+3, 2.7486867e+2, -237939.05, -392564.0, 109179.445, 0.15730391, 0.046492983, -181470.47, 64823.09, 0.0000627863, 10.000682, 9.998606 
1.5952055e+3, 2.8486744e+2, -224419.27, -472677.2, 16994.918, 0.11658307, 0.1357817, -223261.25, -74954.445, 0.0003316825, 10.00069, 9.997382 
1.5952134e+3, 2.948657e+2, -49456.523, -314965.66, -1223.9098, -0.038152117, 0.15733637, -49450.883, 878.3034, 0.0010854213, 10.001107, 9.997588 
1.5952228e+3, 3.0486286e+2, 87180.29, -202886.92, -12534.049, -0.11080744, 0.11997204, 87720.89, 87720.89, 0.002452494, 10.001633, 9.997795 
1.595234e+3, 3.148639e+2, 221982.7, 19820.47, -27821.018, -0.03535012, 0.37514362, 225741.48, 225741.48, 0.00428331, 10.001841, 9.999212 
1.6050467e+3, 1.2486629e+2, -1896406.3, -1938395.6, 143085.34, 0.27714613, -0.02259039, -1772783.5, -56477.59, 0.027939666, 9.999263, 9.998806 
1.6050537e+3, 1.3486616e+2, -1672184.5, -1651608.0, 33703.492, -0.04503569, -0.05555726, -1626657.5, -8340.6455, 0.01712635, 9.9996605, 9.999894 
1.6050652e+3, 1.4486776e+2, -1542857.5, -1425496.3, 12520.445, 0.06913596, 0.07244054, -1424175.4, 96127.69, 0.007836914, 9.99934, 10.000932 
1.6050747e+3, 1.5486804e+2, -1415854.1, -1287253.8, -30235.19, 0.010639835, -0.05541366, -1280499.9, 141794.5, 0.0022287087, 9.999438, 10.00115 
1.6050838e+3, 1.6486868e+2, -1445698.1, -1449938.0, -16732.756, -0.06962095, -0.009231886, -1430951.5, -106664.31, 0.00026665046, 9.999424, 9.999364 
1.6050938e+3, 1.748694e+2, -1279017.9, -1299986.9, -8591.039, -0.09323974, 0.079677254, -1275947.6, -49662.93, 0.0000036433328, 9.99983, 9.999519 
1.6051044e+3, 1.8486902e+2, -1202496.8, -1295643.0, 39365.57, -0.06627968, 0.13171944, -1188088.6, -59797.395, 0.0, 10.000003, 9.998809 
1.6051154e+3, 1.9486724e+2, -1060017.4, -1158237.6, 35184.785, -0.033524483, 0.02134055, -1048714.1, -18404.41, 0.0, 10.00023, 9.998964 
1.6051257e+3, 2.0486623e+2, -964365.6, -1094047.6, 3983.9568, -0.005373485, 0.048824355, -964243.4, -31922.486, 0.0, 10.0003805, 9.998658 
1.6051352e+3, 2.1486597e+2, -806552.75, -942156.7, -10421.941, 0.023445698, 0.105490945, -805756.44, 28568.818, 0.0, 10.000698, 9.998866 
1.6051447e+3, 2.2486557e+2, -681666.44, -745078.9, 38778.383, -0.0020670425, 0.14919893, -663282.25, 73045.41, 0.0, 10.00048, 9.999665 
1.6051544e+3, 2.3486502e+2, -670776.4, -662489.4, -15384.747, -0.098717004, 0.07360651, -650699.9, -12371.71, 0.0, 9.999784, 9.999878 
1.6051643e+3, 2.448639e+2, -672446.75, -813393.2, -55207.938, -0.09297383, 0.06979019, -653396.8, -113059.14, 0.0, 9.999961, 9.9980955 
1.6051748e+3, 2.548619e+2, -393507.3, -611865.5, -46569.637, 0.03601577, 0.015325026, -383990.13, 58369.26, 0.000000007673713, 10.001136, 9.998237 
1.6051857e+3, 2.6486024e+2, -181794.66, -444604.56, 41685.93, 0.12437344, 0.026308492, -175341.06, 169035.02, 0.0000049768487, 10.001844, 9.99838 
1.6051969e+3, 2.7485895e+2, -50227.992, -315032.84, -1004.8874, 0.15979578, 0.009287578, -50224.176, 196162.7, 0.00006482946, 10.002013, 9.998517 
1.6052067e+3, 2.8485766e+2, -46147.285, -436140.34, -21623.768, 0.12508704, 0.11774301, -44951.99, 103450.21, 0.00033743004, 10.002082, 9.9969845 
1.6052154e+3, 2.9485604e+2, 72008.96, -298571.9, -28935.738, 0.0116090095, 0.19509049, 74254.72, 124680.24, 0.0010902435, 10.002106, 9.9972315 
1.6052249e+3, 3.0485326e+2, 152812.52, -186153.7, 25220.29, -0.07250421, 0.18451297, 154678.72, 154678.72, 0.0024557733, 10.002144, 9.997661 
1.6052364e+3, 3.1485242e+2, 276895.34, 76516.98, -90550.59, 0.027902778, 0.2695544, 311751.66, 311751.66, 0.004282768, 10.002048, 9.999516 
1.6150418e+3, 1.2485541e+2, -1749459.8, -1718790.1, -63056.074, -0.24844357, -0.17414865, -1669231.0, 47181.258, 0.02978273, 9.999598, 10.0001745 
1.6150561e+3, 1.3485786e+2, -1678712.0, -1676352.8, 39548.32, 0.18556216, 0.07704386, -1637966.5, -19567.459, 0.018308382, 9.999702, 9.99971 
1.6150671e+3, 1.4485976e+2, -1563676.9, -1497312.3, -5117.656, 0.2706818, 0.27534086, -1496919.9, 23464.285, 0.008418617, 9.9994545, 10.000383 
1.615073e+3, 1.5485919e+2, -1453458.5, -1370733.8, -9335.049, -0.16158009, 0.12280985, -1369693.4, 52692.727, 0.0024150687, 9.999463, 10.000565 
1.6150819e+3, 1.6485904e+2, -1385612.0, -1368737.1, -24602.723, -0.25835717, 0.09348626, -1351165.3, -26778.7, 0.0002938315, 9.999594, 9.999844 
1.6150947e+3, 1.7485914e+2, -1243321.8, -1230337.8, 18161.846, -0.007220438, 0.06746481, -1217542.5, 8844.227, 0.000004294035, 9.999832, 10.000004 
1.615106e+3, 1.8485923e+2, -1186921.3, -1262786.5, 30489.658, 0.06273295, 0.13370866, -1176186.6, -47799.5, 0.0, 10.000002, 9.99903 
1.615116e+3, 1.9485907e+2, -1060343.5, -1135786.0, 58614.617, -0.031307135, 0.16164215, -1028361.4, 2029.1399, 0.0, 10.000131, 9.999167 
1.6151255e+3, 2.04858e+2, -981477.1, -1088484.6, -4253.6636, -0.088439874, 0.16642612, -981308.3, -48906.984, 0.0, 10.000203, 9.998781 
1.615135e+3, 2.1485594e+2, -831902.7, -945301.06, 15395.877, -0.08784755, 0.031030854, -829849.56, 4570.835, 0.0, 10.000489, 9.998944 
1.6151448e+3, 2.2485475e+2, -794727.6, -911555.0, -3111.417, -0.082513176, 0.040536076, -794644.8, -58213.01, 0.0, 10.000196, 9.998655 
1.6151547e+3, 2.348543e+2, -778845.3, -828349.8, -22530.826, -0.06667051, 0.07537264, -770126.5, -131689.64, 0.0, 9.999544, 9.998853 
1.615165e+3, 2.4485368e+2, -655382.06, -729437.3, -28293.246, -0.040612392, 0.13993314, -645809.75, -105367.24, 0.0, 9.99974, 9.998782 
1.6151759e+3, 2.5485277e+2, -380116.47, -526921.56, 18741.238, 0.010938969, 0.116214044, -377761.72, 64687.78, 0.00000000987263, 10.000887, 9.9989395 
1.6151866e+3, 2.6485106e+2, -260589.52, -534069.06, 30805.307, 0.004180654, 0.11118638, -257162.5, 87303.06, 0.000004852571, 10.001535, 9.997907 
1.615197e+3, 2.7484825e+2, -121870.3, -400025.47, 28594.025, -0.05170431, -0.01681429, -118961.29, 127532.5, 0.00006465758, 10.001757, 9.998045 
1.6152073e+3, 2.848466e+2, -70107.555, -422897.97, -39586.684, -0.04891237, 0.07006529, -65720.09, 82792.12, 0.0003366383, 10.001809, 9.997208 
1.6152178e+3, 2.9484624e+2, 48042.203, -281151.1, -1368.3529, 0.010168978, 0.23203865, 48047.89, 98568.445, 0.0010768002, 10.001812, 9.997494 
1.6152275e+3, 3.0484295e+2, 70008.14, -270773.2, 2073.6804, -0.06342846, 0.18050179, 70020.76, 70020.76, 0.0024103401, 10.001795, 9.997226 
1.6152371e+3, 3.1483844e+2, 163190.78, 781.97894, -22547.977, -0.1477898, -0.06377651, 166263.11, 166263.11, 0.0041881627, 10.00142, 9.999259 
1.625041e+3, 1.2484644e+2, -1787783.0, -1668690.1, -22962.531, -0.22279765, -0.15772143, -1664416.1, 52084.383, 0.03179242, 9.999043, 10.000752 
1.625056e+3, 1.348488e+2, -1696438.0, -1697069.8, 51465.68, 0.22895461, 0.08065262, -1645287.3, -26801.527, 0.019603958, 9.999607, 9.999603 
1.6250661e+3, 1.4484997e+2, -1610309.1, -1552561.0, 68411.46, 0.23380597, 0.22579378, -1507179.9, 13297.512, 0.009062119, 9.9993105, 10.000056 
1.6250728e+3, 1.5484945e+2, -1400124.8, -1371872.9, 59863.66, -0.118467554, 0.1057796, -1324491.1, 97988.66, 0.002624408, 9.999965, 10.000303 
1.6250826e+3, 1.6484898e+2, -1311064.1, -1361068.0, 56219.992, -0.16775453, 0.0721379, -1274537.3, 49946.35, 0.00032476612, 10.00023, 9.999594 
1.6250952e+3, 1.748486e+2, -1201348.8, -1230034.1, 7689.1064, 0.05315459, 0.018888334, -1199417.8, 27070.95, 0.000005034694, 10.0002165, 9.999814 
1.6251065e+3, 1.8484874e+2, -1152130.1, -1206922.0, 33581.063, 0.10799988, 0.08331969, -1136187.5, -7699.2144, 0.0, 10.000083, 9.99938 
1.6251162e+3, 1.9484927e+2, -1030709.9, -1067826.4, 40179.65, -0.004655026, 0.14364572, -1005009.6, 25474.117, 0.0, 10.000141, 9.999618 
1.6251262e+3, 2.0484862e+2, -929816.1, -1060480.4, 28795.656, -0.059271682, 0.1613638, -923751.6, 8738.511, 0.0, 10.000522, 9.99883 
1.6251361e+3, 2.1484649e+2, -709766.7, -884813.25, 15673.318, -0.053217035, 0.017138937, -708374.44, 126135.56, 0.0, 10.001293, 9.998985 
1.6251461e+3, 2.2484511e+2, -618857.4, -871708.8, 11249.596, -0.025697578, 0.026269449, -618357.9, 118166.22, 0.0, 10.001586, 9.998262 
1.625156e+3, 2.3484433e+2, -539330.6, -762133.8, -584.3479, 0.009773058, 0.07072732, -539329.06, 99204.85, 0.0, 10.001382, 9.99843 
1.6251664e+3, 2.4484338e+2, -411584.53, -613320.1, 63046.09, 0.04215448, 0.12544554, -393502.25, 147040.88, 0.0, 10.001418, 9.998772 
1.6251776e+3, 2.548422e+2, -250561.73, -467006.06, 18483.875, 0.05451713, 0.0732175, -248994.6, 193557.78, 0.000000011745934, 10.001777, 9.998925 
1.6251883e+3, 2.6484057e+2, -240435.36, -540750.5, 19883.94, 0.013941749, 0.087162524, -239124.55, 105443.734, 0.0000048598445, 10.001747, 9.997761 
1.6251983e+3, 2.7483827e+2, -190997.2, -454081.47, 352.1093, -0.07111247, 0.030184804, -190996.73, 55597.46, 0.00006306325, 10.001357, 9.997868 
1.6252092e+3, 2.8483668e+2, -68746.8, -357052.53, 13506.859, -0.040893327, 0.104116045, -68115.4, 80496.305, 0.00033149842, 10.001561, 9.9977665 
1.6252206e+3, 2.9483587e+2, 180604.2, -157805.14, 13442.513, 0.08600062, 0.17629428, 181137.34, 231757.92, 0.0010554205, 10.002477, 9.998014 
1.6252302e+3, 3.0483305e+2, 197559.64, -212215.16, 56424.367, 0.0010782959, 0.14392951, 205187.08, 205187.08, 0.002340937, 10.0026655, 9.997225 
1.6252391e+3, 3.1482884e+2, 226247.0, -14869.761, -10992.959, -0.1066593, -0.058426462, 226747.16, 226747.16, 0.0040345946, 10.001988, 9.998915 
1.6350429e+3, 1.24839485e+2, -1766373.9, -1652596.0, 74322.555, -0.05615728, 0.015990656, -1615889.0, 100680.71, 0.03398967, 9.999171, 10.000802 
1.6350529e+3, 1.3483895e+2, -1699213.1, -1707104.8, 58439.28, -0.078978166, -0.044490855, -1644586.6, -26009.113, 0.02102759, 9.999628, 9.999522 
1.6350617e+3, 1.4483833e+2, -1585565.6, -1550436.9, 53571.67, -0.18669783, -0.06592109, -1511623.6, 8959.648, 0.009775217, 9.999496, 9.999996 
1.6350742e+3, 1.5483893e+2, -1395098.3, -1367978.6, 94745.97, -0.01501237, -0.077945985, -1285827.1, 136747.11, 0.002860367, 9.999987, 10.000327 
1.6350853e+3, 1.6483867e+2, -1362084.0, -1483695.0, 35215.434, 0.028766641, -0.050008, -1352622.6, -28045.252, 0.00036087315, 10.000296, 9.998722 
1.6350949e+3, 1.7483772e+2, -1273595.5, -1373517.6, 16784.1, -0.037317622, -0.06306508, -1270851.6, -44259.945, 0.000005927034, 10.000189, 9.998841 
1.6351052e+3, 1.8483748e+2, -1106951.8, -1122994.9, 14989.923, -0.073633045, -0.017016029, -1097972.0, 30623.398, 0.0, 10.000118, 9.999945 
1.635116e+3, 1.9483775e+2, -1003389.7, -991698.06, 55536.066, -0.079750985, -0.039817777, -941701.0, 88889.47, 0.0, 10.0000515, 10.000189 
1.6351268e+3, 2.0483781e+2, -952957.75, -1068009.9, 40952.85, -0.063398644, 0.020122033, -939869.5, -7279.712, 0.0, 10.000345, 9.998866 
1.6351382e+3, 2.1483743e+2, -739952.3, -897505.8, 62124.992, -0.008670408, 0.04642107, -718403.1, 116192.62, 0.0, 10.001071, 9.999009 
1.6351484e+3, 2.2483653e+2, -663734.9, -886894.44, -10761.088, 0.003350136, 0.10173485, -663217.2, 73388.48, 0.0, 10.001257, 9.998312 
1.6351575e+3, 2.3483503e+2, -574415.5, -769927.6, 7881.373, 0.0007622302, 0.06254498, -574098.3, 64522.3, 0.0, 10.001109, 9.998503 
1.6351679e+3, 2.4483296e+2, -511573.38, -745670.94, 59124.145, 0.010669795, 0.037714396, -497488.3, 43152.203, 0.0, 10.001102, 9.99801 
1.6351794e+3, 2.5483015e+2, -337567.66, -588943.7, 52274.766, 0.026419938, -0.09730065, -327130.25, 115537.07, 0.000000006263202, 10.001541, 9.998195 
1.6351902e+3, 2.648289e+2, -266870.97, -548926.7, -9943.348, -0.0019568317, -0.015638445, -266520.88, 78161.38, 0.000005059976, 10.001529, 9.997817 
1.6352001e+3, 2.7482903e+2, -217511.13, -457093.16, 14225.486, -0.05440391, 0.15738742, -216669.42, 30017.434, 0.000060994436, 10.001122, 9.997963 
1.6352111e+3, 2.8482777e+2, -70839.836, -283729.47, 30907.357, -0.036912605, 0.22231008, -66443.49, 82257.8, 0.0003219481, 10.001246, 9.998412 
1.6352232e+3, 2.9482493e+2, 171496.88, -88496.43, 77163.5, 0.05938658, 0.027659176, 192673.42, 243400.03, 0.0010251604, 10.002123, 9.998651 
1.6352326e+3, 3.0482343e+2, 157583.58, -202001.34, 12045.93, -0.057383917, 0.08388216, 157986.66, 157986.66, 0.002256329, 10.002271, 9.997485 
1.6352415e+3, 3.148232e+2, 126949.06, -85084.76, 41448.684, -0.13312706, 0.24356693, 134763.52, 134763.52, 0.0038522251, 10.001422, 9.998696 
1.6450424e+3, 1.2482995e+2, -1857893.1, -1689018.5, 33413.246, 0.034533802, 0.08030689, -1682647.8, 34019.65, 0.036383986, 9.99855, 10.00084 
1.6450514e+3, 1.3482898e+2, -1819671.8, -1749665.3, -63115.48, -0.12605362, -0.03516613, -1712496.5, -93820.65, 0.022584815, 9.998747, 9.99966 
1.6450614e+3, 1.4482753e+2, -1638598.0, -1575718.0, -617.87146, -0.14013349, -0.14766285, -1575711.9, -55023.793, 0.010560797, 9.999119, 10.000011 
1.6450751e+3, 1.548285e+2, -1417161.1, -1378849.0, 7094.057, 0.08686723, -0.12453974, -1377577.6, 45098.117, 0.0031241647, 9.999816, 10.0003395 
1.6450863e+3, 1.6482863e+2, -1385161.3, -1468892.9, -390.3864, 0.11886537, -0.07347153, -1385159.4, -60484.48, 0.0004029895, 10.000036, 9.99895 
1.6450949e+3, 1.7482796e+2, -1264630.5, -1349166.3, 33570.527, -0.04494123, -0.07630597, -1252921.0, -26235.744, 0.0000070009137, 10.000161, 9.999033 
1.645105e+3, 1.8482757e+2, -1113164.4, -1158883.9, 76704.664, -0.08824112, -0.037539657, -1055985.6, 72704.766, 0.0, 10.000234, 9.999623 
1.6451165e+3, 1.9482729e+2, -960544.7, -1008163.6, 14289.977, -0.03400721, -0.086017035, -956585.6, 74106.19, 0.0, 10.000516, 9.999838 
1.6451278e+3, 2.048271e+2, -941952.94, -1067119.5, -1158.6487, 0.003982053, -0.027073028, -941942.25, -9248.276, 0.0, 10.000452, 9.998809 
1.6451389e+3, 2.1482697e+2, -882281.2, -963315.75, -21535.865, 0.0133528905, 0.024735268, -876913.4, -42215.51, 0.0, 10.000108, 9.9990015 
1.6451491e+3, 2.2482629e+2, -781722.25, -903857.1, -48274.156, 0.030675482, 0.08247324, -764946.1, -28241.176, 0.0, 10.000264, 9.998688 
1.645159e+3, 2.3482488e+2, -570855.5, -727381.2, -38480.434, 0.06337959, 0.01963396, -561907.0, 76809.984, 0.0, 10.000953, 9.998884 
1.6451697e+3, 2.4482296e+2, -491061.66, -764442.5, 76280.234, 0.084928244, 0.0038096104, -471217.9, 69517.62, 0.0, 10.001363, 9.997756 
1.6451812e+3, 2.5482026e+2, -359801.6, -636942.3, 66366.164, 0.0625654, -0.08951604, -344728.8, 98034.75, 0.000000005166704, 10.001536, 9.997875 
1.645192e+3, 2.6481903e+2, -257231.27, -527228.44, 33207.664, 0.03778693, 0.00432909, -253206.95, 91572.67, 0.000005473011, 10.001536, 9.99795 
1.6452019e+3, 2.7481917e+2, -150829.53, -401402.6, 9569.365, 0.0023974224, 0.16163138, -150464.61, 96319.87, 0.000058881178, 10.001514, 9.9981365 
1.6452128e+3, 2.84818e+2, -27586.855, -243849.52, 72660.1, 0.018379495, 0.22167447, -5442.0356, 143355.5, 0.0003079229, 10.00145, 9.99861 
1.645225e+3, 2.9481542e+2, 34787.254, -137102.11, 40915.38, 0.098049454, 0.040811088, 44029.527, 94849.6, 0.0009851817, 10.001096, 9.998825 
1.6452347e+3, 3.0481437e+2, 96122.75, -161030.19, 22593.678, -0.0050806184, 0.09913961, 98092.76, 98092.76, 0.0021653366, 10.001506, 9.998146 
1.6452444e+3, 3.1481528e+2, 300926.06, 31159.357, -11502.515, -0.017049544, 0.309024, 301415.63, 301415.63, 0.0036781193, 10.002488, 9.998973 
1.6550414e+3, 1.2481859e+2, -1839072.9, -1704330.8, -130758.63, -0.017378418, 0.11261739, -1624607.8, 92178.34, 0.03897044, 9.998759, 10.000662 
1.6550513e+3, 1.3481933e+2, -1791199.4, -1689651.4, -34020.813, -0.053082258, 0.14858863, -1679307.4, -60531.023, 0.024272982, 9.998741, 10.00008 
1.6550644e+3, 1.4481765e+2, -1611939.8, -1543068.4, 3565.837, 0.19148105, -0.024511008, -1542884.3, -22093.555, 0.0114189135, 9.999218, 10.000186 
1.6550748e+3, 1.5481824e+2, -1416712.6, -1382454.8, 46159.76, 0.048872862, -0.036270883, -1350348.3, 72435.11, 0.0034161112, 9.999843, 10.000301 
1.6550851e+3, 1.6481891e+2, -1278088.6, -1273867.3, -17932.988, -0.054796163, 0.010730614, -1257921.1, 66854.08, 0.00045137366, 10.000141, 10.000243 
1.6550949e+3, 1.7481934e+2, -1170874.8, -1145069.1, 50133.207, -0.095542, -0.023107063, -1106205.0, 120564.14, 0.000008273259, 10.000123, 10.000449 
1.6551057e+3, 1.8481901e+2, -1198292.4, -1342298.0, 71607.24, -0.082764834, 0.01019772, -1168747.1, -39974.2, 0.0, 10.00025, 9.998364 
1.6551177e+3, 1.9481778e+2, -1066098.8, -1208875.4, 37539.117, -0.0038156367, 0.00018780121, -1056830.5, -26042.309, 0.0, 10.000426, 9.99851 
1.6551284e+3, 2.0481654e+2, -978762.56, -1103853.5, -27946.066, -0.0173152, 0.027415423, -972803.2, -40000.945, 0.0, 10.000284, 9.998637 
1.655138e+3, 2.1481508e+2, -922175.25, -996212.7, -18916.23, -0.10800864, -0.04041933, -917622.25, -82805.74, 0.0, 9.999895, 9.998878 
1.6551486e+3, 2.2481419e+2, -770444.2, -819498.2, -40135.04, -0.08775501, -0.03204329, -747935.06, -11111.613, 0.0, 10.000003, 9.999393 
1.65516e+3, 2.3481378e+2, -557655.7, -640093.94, 6527.523, 0.057039596, -0.065494746, -557142.0, 81681.875, 0.0, 10.000697, 9.999609 
1.6551714e+3, 2.4481326e+2, -527613.9, -770016.0, 71204.76, 0.09040968, 0.017036287, -508245.3, 32583.957, 0.0, 10.001061, 9.997861 
1.6551827e+3, 2.548124e+2, -393208.4, -640288.4, 90529.46, 0.03015481, 0.08756795, -363589.28, 79253.305, 0.00000000856411, 10.001266, 9.9979725 
1.6551934e+3, 2.6481077e+2, -296395.56, -551274.2, 14806.459, -0.008688341, 0.14312422, -295538.3, 49324.047, 0.0000057188686, 10.00128, 9.997912 
1.6552033e+3, 2.7480835e+2, -179325.34, -412142.7, 32026.102, -0.03895661, 0.043852992, -175000.22, 71889.28, 0.00005720022, 10.001294, 9.998172 
1.655214e+3, 2.8480718e+2, -88218.28, -296144.3, 39989.89, -0.036700726, 0.10923732, -80792.34, 68110.17, 0.0002952708, 10.001132, 9.998404 
1.6552259e+3, 2.9480708e+2, -18181.111, -188463.28, 59758.684, 0.026925644, 0.19143572, 697.5368, 51601.47, 0.00095047243, 10.0008335, 9.998603 
1.655236e+3, 3.0480552e+2, 89952.59, -73243.734, 41105.28, -0.050598484, 0.17500871, 99721.3, 99721.3, 0.0020977305, 10.001104, 9.998931 
1.655247e+3, 3.148045e+2, 251012.16, 61831.977, 92908.22, -0.058849975, 0.107083715, 289008.72, 289008.72, 0.003562478, 10.001912, 9.999461 
1.6650416e+3, 1.2480796e+2, -1804284.4, -1687870.6, -27586.438, 0.13657548, 0.118317425, -1681664.3, 35228.77, 0.041736465, 9.998974, 10.000672 
1.6650514e+3, 1.3480897e+2, -1571701.4, -1544277.9, 49566.95, 0.038305424, 0.14162408, -1506561.1, 112317.805, 0.026087236, 10.000057, 10.0004635 
1.6650642e+3, 1.4480793e+2, -1602055.4, -1540096.4, 94501.37, 0.26746982, 0.019003162, -1471626.3, 49260.637, 0.012349877, 9.999327, 10.000137 
1.6650745e+3, 1.548088e+2, -1532625.4, -1432339.1, 108913.42, 0.06858957, 0.03281192, -1362580.4, 60298.06, 0.003737191, 9.9990425, 10.000331 
1.6650848e+3, 1.6480958e+2, -1439914.1, -1359496.1, 37363.324, -0.023784982, 0.09392401, -1344816.4, -19946.3, 0.00050616945, 9.999087, 10.000148 
1.665095e+3, 1.7480959e+2, -1256232.5, -1200099.0, -39455.023, -0.0641444, 0.026569886, -1179746.3, 47121.85, 0.000009797576, 9.999591, 10.000324 
1.6651063e+3, 1.8480909e+2, -1234129.1, -1353204.4, 13750.889, -0.044462882, 0.048020557, -1232561.9, -103688.3, 0.0, 9.999992, 9.998404 
1.6651185e+3, 1.9480816e+2, -1009278.06, -1171687.3, 47784.08, 0.031166313, 0.05979167, -996262.1, 34623.418, 0.0, 10.000786, 9.99858 
1.6651297e+3, 2.0480686e+2, -839375.56, -1029899.1, 49111.95, 0.033851452, 0.076671086, -827460.94, 105437.69, 0.0, 10.001212, 9.998701 
1.6651392e+3, 2.148051e+2, -707801.94, -888015.3, 41488.902, -0.046161626, -0.026284905, -698709.1, 136205.22, 0.0, 10.001337, 9.998932 
1.6651495e+3, 2.2480398e+2, -618519.44, -771505.25, 33708.355, -0.036333315, -0.031590052, -611421.56, 125501.984, 0.0, 10.001167, 9.999145 
1.6651608e+3, 2.348035e+2, -561549.06, -665615.3, -28043.318, 0.057008624, -0.052205425, -554473.2, 84453.23, 0.0, 10.000777, 9.999376 
1.6651723e+3, 2.4480309e+2, -552197.7, -736147.6, 43463.105, 0.098484844, 0.030079624, -542445.4, -1514.3165, 0.0, 10.000674, 9.998303 
1.6651842e+3, 2.5480253e+2, -415389.97, -600479.94, 57565.605, 0.08518203, 0.097253986, -398947.03, 43992.668, 0.0000000057748837, 10.000883, 9.998448 
1.6651951e+3, 2.648011e+2, -300443.16, -530834.56, 41177.31, 0.052164674, 0.13794145, -293304.8, 51651.734, 0.0000055479773, 10.001154, 9.998111 
1.6652048e+3, 2.7479866e+2, -134347.52, -386186.03, 27830.625, -0.031301513, 0.025416354, -131308.64, 115674.25, 0.000055377644, 10.001553, 9.998244 
1.6652153e+3, 2.8479758e+2, -6688.7227, -250918.52, 67236.43, -0.03354467, 0.09112929, 10597.905, 159592.98, 0.00028510438, 10.001664, 9.998438 
1.665227e+3, 2.9479778e+2, 66734.086, -138381.94, 44391.918, 0.04721143, 0.20324683, 75929.32, 126922.586, 0.000926934, 10.001419, 9.998634 
1.6652378e+3, 3.0479553e+2, 178726.38, -56934.63, 89740.46, -0.010735931, 0.123555645, 209008.6, 209008.6, 0.0020635084, 10.001808, 9.998707 
1.66525e+3, 3.147944e+2, 311286.47, 80103.086, -7132.82, 0.034637317, 0.06989321, 311506.3, 311506.3, 0.003520621, 10.002366, 9.999364 
1.6750401e+3, 1.24798246e+2, -1752604.1, -1614449.1, 37334.508, 0.015668869, 0.08588987, -1605005.5, 111981.13, 0.044670317, 9.9991045, 10.001133 
1.6750517e+3, 1.3479798e+2, -1550056.1, -1516450.6, 59707.395, 0.03641269, -0.06277238, -1471226.8, 147756.23, 0.028026333, 10.000122, 10.000634 
1.6750604e+3, 1.4479844e+2, -1605192.1, -1569084.0, 48504.906, -0.10229334, -0.018570771, -1535382.1, -14406.245, 0.013357116, 9.999415, 9.999895 
1.6750732e+3, 1.5480028e+2, -1527235.8, -1427278.6, 114981.445, 0.00456826, 0.088763066, -1351883.4, 71076.67, 0.004090086, 9.999062, 10.0003605 
1.6750853e+3, 1.6480057e+2, -1523496.6, -1561118.3, 37541.13, 0.04969146, 0.16782176, -1500317.1, -175356.98, 0.0005678562, 9.999202, 9.9987135 
1.6750947e+3, 1.747988e+2, -1368323.8, -1425531.6, -10758.113, -0.081299, 0.077476285, -1366367.6, -139386.03, 0.000011659807, 9.999561, 9.998793 
1.6751057e+3, 1.8479802e+2, -1143739.0, -1171224.1, 23443.498, -0.13589494, 0.08982383, -1130307.0, -1317.0919, 0.0, 10.000004, 9.999656 
1.6751188e+3, 1.9479834e+2, -934814.2, -988056.56, 89331.586, -0.055797644, 0.0959699, -868221.5, 162762.72, 0.0, 10.000656, 9.999908 
1.6751309e+3, 2.0479803e+2, -838705.06, -994909.5, 36566.793, 0.0121912975, 0.12553644, -830568.75, 102415.78, 0.0, 10.001057, 9.999022 
1.6751418e+3, 2.1479687e+2, -722970.25, -868144.06, 62455.453, 0.054808613, 0.056883913, -699799.44, 135193.72, 0.0, 10.001103, 9.9991865 
1.6751516e+3, 2.2479557e+2, -748770.5, -969166.4, 5321.379, 0.018801088, 0.07868308, -748642.1, -11636.135, 0.0, 10.0008545, 9.997935 
1.6751605e+3, 2.3479396e+2, -683534.75, -866378.44, -26749.389, -0.067282654, 0.07001415, -679701.75, -40677.043, 0.0, 10.00055, 9.998105 
1.6751717e+3, 2.4479243e+2, -541163.56, -646569.1, 34017.188, -0.04506788, 0.06934428, -531138.75, 9901.662, 0.0, 10.00039, 9.99905 
1.6751853e+3, 2.547909e+2, -398178.72, -498653.16, 87364.875, 0.087475106, -0.044327136, -347636.97, 95416.4, 0.0000000017385277, 10.000603, 9.999276 
1.6751966e+3, 2.6479012e+2, -327370.44, -513387.88, 39977.39, 0.05849515, 0.0017791998, -319142.75, 25918.77, 0.0000048816705, 10.000833, 9.99839 
1.6752055e+3, 2.7478987e+2, -150934.94, -370639.72, 67148.14, -0.12315837, 0.080208264, -132037.89, 115029.75, 0.000051551386, 10.001325, 9.998467 
1.6752161e+3, 2.8478885e+2, -59408.95, -275841.88, 43328.78, -0.1567522, 0.14907445, -51057.035, 98020.82, 0.0002714196, 10.0013075, 9.998438 
1.6752282e+3, 2.9478723e+2, 33597.293, -142253.45, 63714.543, -0.018611675, 0.06775332, 54255.594, 105347.03, 0.0008994481, 10.001123, 9.998757 
1.6752392e+3, 3.0478403e+2, 28202.314, -252676.81, 92295.3, -0.07588349, -0.0629895, 55815.4, 55815.4, 0.0020333803, 10.001332, 9.997582 
1.675252e+3, 3.1478423e+2, 196200.83, -42232.74, 78801.445, -0.07220191, 0.13198933, 219890.69, 219890.69, 0.0035086612, 10.001885, 9.998742 
1.6850398e+3, 1.24788605e+2, -1758592.5, -1631860.6, 123053.17, 0.0828284, 0.09600797, -1556816.6, 160262.08, 0.04776628, 9.999173, 10.000961 
1.6850512e+3, 1.3478768e+2, -1748523.3, -1672470.5, -58521.902, 0.020153744, -0.070604086, -1640705.6, -21621.309, 0.030093629, 9.999038, 10.000051 
1.6850603e+3, 1.4478847e+2, -1655032.8, -1638304.6, -46966.64, -0.040691707, 0.053181916, -1598963.1, -77886.91, 0.0144471, 9.9992485, 9.999512 
1.6850731e+3, 1.5478933e+2, -1353232.3, -1382018.6, -33797.53, 0.031863175, 0.0991951, -1330890.8, 92180.08, 0.004479329, 10.000418, 10.000026 
1.6850853e+3, 1.6478917e+2, -1294656.8, -1475190.6, -51911.207, 0.06396452, 0.16282447, -1280794.5, 44281.527, 0.0006375465, 10.00087, 9.9985075 
1.6850954e+3, 1.7478776e+2, -1172455.1, -1348554.3, -30957.818, -0.02549322, 0.12595992, -1167171.3, 59922.94, 0.00001399049, 10.00098, 9.998635 
1.6851066e+3, 1.8478729e+2, -1027165.3, -1061347.1, 43415.89, -0.0600451, 0.14979121, -997597.5, 131501.77, 0.0, 10.000576, 10.000129 
1.6851191e+3, 1.9478771e+2, -1023434.8, -981182.3, 19503.352, -0.03516629, 0.11951734, -973556.2, 57534.64, 0.0, 9.999825, 10.000359 
1.6851313e+3, 2.0478757e+2, -999287.4, -1029709.2, -19360.766, 0.026712308, 0.124753594, -989876.94, -56788.473, 0.0, 9.999776, 9.999395 
1.6851431e+3, 2.1478683e+2, -779603.7, -846748.44, -24294.35, 0.11321229, 0.05865395, -771735.5, 63356.844, 0.0, 10.000522, 9.999603 
1.6851532e+3, 2.2478566e+2, -704726.8, -965438.2, -14030.884, 0.108550414, 0.078900516, -703973.9, 33129.844, 0.0, 10.001202, 9.997821 
1.6851622e+3, 2.3478383e+2, -520050.1, -804697.0, 9244.694, 0.001145272, 0.06570608, -519750.2, 119374.97, 0.0, 10.001725, 9.997989 
1.6851729e+3, 2.4478237e+2, -367831.66, -553566.56, 103106.27, -0.010362293, 0.075267486, -321935.78, 219204.67, 0.0, 10.001538, 9.999122 
1.6851856e+3, 2.547812e+2, -388192.88, -494582.94, 58953.96, 0.059378713, -0.01589995, -361982.13, 81168.39, 0.0000000018399801, 10.0006485, 9.999285 
1.685197e+3, 2.6478046e+2, -372097.22, -517517.13, 48690.19, 0.04270263, 0.029105153, -357300.2, -12142.829, 0.0000039092515, 10.000443, 9.998555 
1.6852073e+3, 2.7478012e+2, -170287.73, -346315.66, 30082.996, -0.061864905, 0.083613716, -165288.55, 81873.78, 0.000046409757, 10.001091, 9.998726 
1.6852184e+3, 2.8477895e+2, -54496.367, -320815.4, 11278.876, -0.06172823, 0.14245084, -54019.55, 95154.234, 0.00025645504, 10.001518, 9.998054 
1.68523e+3, 2.9477707e+2, 67444.86, -172269.3, -45419.008, 0.04891588, 0.07882875, 75761.91, 126953.06, 0.0008664291, 10.001535, 9.998374 
1.6852412e+3, 3.047735e+2, 79371.03, -245128.73, 64837.215, -0.020036789, -0.06271486, 91846.33, 91846.33, 0.0019906836, 10.001707, 9.997487 
1.6852547e+3, 3.147728e+2, 201259.67, -15388.055, 48846.04, 0.039695572, 0.07752042, 211763.39, 211763.39, 0.0034818437, 10.001744, 9.999052 
1.69504e+3, 1.2477765e+2, -1803364.6, -1757634.3, 120883.766, 0.08773556, 0.025024418, -1657472.1, 59710.348, 0.051028147, 9.999316, 10.000007 
1.6950479e+3, 1.347778e+2, -1832829.9, -1848129.6, -61158.297, -0.23011395, 0.1050532, -1778844.9, -159659.11, 0.032295942, 9.999036, 9.998851 
1.6950636e+3, 1.4477786e+2, -1664292.4, -1689264.5, -25857.104, 0.31064844, 0.22033751, -1648064.5, -126875.43, 0.015627254, 9.999377, 9.999104 
1.6950737e+3, 1.5477614e+2, -1402476.0, -1492387.9, 21978.143, 0.018292634, 0.08381559, -1397391.3, 25817.385, 0.004910431, 10.000453, 9.999249 
1.6950844e+3, 1.6477558e+2, -1204906.8, -1305694.0, -67021.02, -0.152601, 0.09256029, -1171447.3, 153768.42, 0.0007170378, 10.000939, 9.999636 
1.6950968e+3, 1.747766e+2, -1093713.1, -1177349.8, -10975.433, -0.02679893, 0.1787298, -1092296.9, 134908.72, 0.000016975888, 10.000947, 9.999825 
1.6951086e+3, 1.8477693e+2, -1043585.7, -1103950.3, -2312.0955, 0.023734761, 0.23640038, -1043497.25, 85704.05, 0.0, 10.000604, 9.9998255 
1.6951191e+3, 1.9477625e+2, -1062192.0, -1038494.56, 1708.8954, -0.052902482, 0.13044079, -1038371.94, -7166.3335, 0.0, 9.999723, 10.000011 
1.6951303e+3, 2.0477562e+2, -1003960.0, -991798.94, -11493.657, -0.0742981, 0.08663341, -984876.5, -51667.582, 0.0, 9.999567, 9.999763 
1.6951427e+3, 2.1477497e+2, -783503.56, -809658.2, 19336.297, -0.003950349, -0.0063578486, -773237.6, 61974.21, 0.0, 10.000314, 9.999967 
1.6951543e+3, 2.2477418e+2, -679960.7, -832846.5, -10313.098, 0.061585143, -0.019658884, -679268.2, 57949.434, 0.0, 10.000867, 9.998885 
1.6951653e+3, 2.3477304e+2, -494105.88, -671586.94, 49739.99, 0.11861366, -0.071321525, -481116.63, 158111.83, 0.0, 10.001396, 9.999055 
1.6951755e+3, 2.4477267e+2, -471946.53, -680840.56, 56516.06, 0.047605578, 0.024446217, -457636.47, 83597.305, 0.0, 10.001161, 9.998433 
1.6951846e+3, 2.5477302e+2, -473940.47, -618215.5, 45845.285, -0.12722963, 0.16429238, -460605.13, -17371.04, 0.0000000033657745, 10.000417, 9.99855 
1.6951957e+3, 2.6477194e+2, -413671.8, -534805.1, 57076.633, -0.15937585, 0.21033286, -391015.5, -45770.203, 0.0000030031388, 10.000156, 9.998568 
1.6952093e+3, 2.7476928e+2, -202324.97, -354510.5, 75895.62, -0.0031393892, 0.026657093, -170945.63, 76323.0, 0.000041455987, 10.000848, 9.99878 
1.6952215e+3, 2.8476763e+2, -154688.9, -452978.6, -8371.887, 0.07434375, 0.06385242, -154454.11, -5168.9087, 0.00024337543, 10.001194, 9.997304 
1.6952322e+3, 2.947668e+2, -18651.072, -303634.28, -19950.002, 0.07057648, 0.18833566, -17261.268, 34035.41, 0.0008331997, 10.001311, 9.99759 
1.6952428e+3, 3.047635e+2, 57610.695, -176818.94, 51109.242, -0.043107547, 0.079618484, 68268.74, 68268.74, 0.0019313671, 10.001261, 9.998152 
1.6952571e+3, 3.147609e+2, 208140.27, 154775.22, 111293.15, 0.03910814, -0.05719423, 295904.78, 295904.78, 0.003409665, 10.001109, 10.000507 
1.7050399e+3, 1.2476656e+2, -1909118.6, -1783375.3, 71817.76, 0.20905119, 0.04464496, -1750797.3, -33505.42, 0.054460447, 9.998492, 10.000218 
1.7050472e+3, 1.3476662e+2, -1645074.4, -1769954.5, -27652.492, -0.27480048, 0.14119099, -1639225.3, -19927.984, 0.034638863, 10.000385, 9.99874 
1.7050649e+3, 1.4476602e+2, -1420678.6, -1562722.1, 45945.35, 0.43268526, 0.18912855, -1407112.8, 114194.625, 0.016903277, 10.0010605, 9.999154 
1.7050739e+3, 1.5476501e+2, -1522959.1, -1555284.3, 103622.26, 0.030843139, 0.12636235, -1434246.5, -10926.799, 0.00538814, 9.999666, 9.9991865 
1.7050843e+3, 1.6476463e+2, -1446058.8, -1373515.8, 69118.02, -0.16059305, 0.1365931, -1331730.1, -6406.2827, 0.0008082668, 9.999073, 10.000064 
1.7050977e+3, 1.7476541e+2, -1235445.6, -1189597.3, 41270.3, 0.053626988, 0.14899947, -1165311.8, 62002.516, 0.000020835996, 9.99973, 10.000328 
1.7051098e+3, 1.8476568e+2, -1147897.3, -1173168.9, 34490.938, 0.13506046, 0.18490921, -1123800.4, 5509.7886, 0.0, 9.999972, 9.999666 
1.7051193e+3, 1.9476514e+2, -1032613.6, -1048252.8, 20251.113, -0.009324909, 0.11465257, -1018724.9, 12589.9, 0.0, 10.000023, 9.999819 
1.7051303e+3, 2.047648e+2, -933070.75, -944889.9, 65577.73, -0.044096768, 0.10539616, -873136.9, 60179.98, 0.0, 10.000008, 9.999857 
1.7051432e+3, 2.147647e+2, -815057.1, -815393.7, 41883.566, 0.040175386, 0.055267487, -773341.5, 61974.64, 0.0, 10.000073, 10.000032 
1.7051552e+3, 2.2476427e+2, -740966.6, -814716.6, 6915.4063, 0.10470727, 0.05425554, -740323.8, -3005.08, 0.0, 10.000241, 9.999304 
1.7051664e+3, 2.3476335e+2, -601364.75, -670828.0, -18507.754, 0.13719925, -0.02204075, -596741.3, 42585.09, 0.0, 10.000441, 9.999506 
1.7051765e+3, 2.44763e+2, -532966.1, -733186.9, 1654.3032, 0.074793756, 0.06310684, -532952.5, 8378.368, 0.0, 10.000843, 9.998231 
1.7051856e+3, 2.5476313e+2, -331283.5, -563608.0, -5169.51, -0.09936426, 0.20301336, -331168.53, 112164.55, 0.0000000026261497, 10.001485, 9.998399 
1.7051971e+3, 2.6476172e+2, -186893.94, -451769.3, 65754.57, -0.108837724, 0.23465748, -171468.84, 173878.36, 0.0000021613648, 10.001812, 9.998353 
1.7052111e+3, 2.747586e+2, -90423.67, -330824.0, 29318.936, 0.060935225, 0.028085595, -86899.625, 160475.22, 0.000036656253, 10.001724, 9.998538 
1.7052236e+3, 2.8475666e+2, -30174.416, -392903.84, 9046.095, 0.13413708, 0.052012213, -29948.955, 119445.055, 0.00022921336, 10.002059, 9.997288 
1.7052342e+3, 2.947557e+2, 202728.61, -199430.8, 2297.0164, 0.07711065, 0.17076854, 202741.72, 254148.5, 0.00079328316, 10.002873, 9.997539 
1.7052448e+3, 3.0475307e+2, 307153.8, -66299.77, 82057.74, -0.05215011, 0.1383397, 324388.7, 324388.7, 0.001843639, 10.003006, 9.998055 
1.7052591e+3, 3.147505e+2, 343585.34, 227701.1, -12588.162, 0.104598165, 0.007653402, 344937.0, 344937.0, 0.0032697988, 10.002035, 10.000522 
1.7150392e+3, 1.2475528e+2, -1782205.6, -1572063.0, -84091.37, 0.19037144, 0.11852832, -1542556.0, 174851.22, 0.058051143, 9.998649, 10.0016775 
1.7150486e+3, 1.3475475e+2, -1602461.3, -1669627.8, 90125.195, -0.19366555, 0.081578255, -1539865.6, 79547.16, 0.037118543, 10.000358, 9.999447 
1.7150633e+3, 1.4475313e+2, -1361771.5, -1477971.6, -14807.0625, 0.11474987, -0.02763142, -1359914.4, 161515.47, 0.018276531, 10.001212, 9.999673 
1.7150727e+3, 1.547557e+2, -1477478.3, -1468333.1, 66338.77, -0.08279129, 0.2064661, -1406409.5, 16997.148, 0.005915651, 9.99969, 9.999776 
1.7150843e+3, 1.6475625e+2, -1450117.1, -1397164.0, 69491.914, -0.11189292, 0.2906165, -1349275.8, -23874.19, 0.0009130136, 9.999143, 9.999864 
1.7150982e+3, 1.7475432e+2, -1258904.5, -1224262.6, 77293.8, 0.08567598, 0.051527057, -1162372.8, 65046.266, 0.000025810483, 9.9996805, 10.000109 
1.7151098e+3, 1.8475369e+2, -1150499.4, -1177848.9, 20049.652, 0.110422336, 0.011218519, -1139905.0, -10480.429, 0.0, 9.999965, 9.9996395 
1.7151193e+3, 1.9475439e+2, -1045038.9, -1055286.9, 36160.297, -0.04055847, 0.06639091, -1013641.4, 17776.883, 0.0, 9.999941, 9.999809 
1.7151308e+3, 2.0475507e+2, -972950.4, -991370.6, 50808.22, -0.051813975, 0.17032945, -930524.25, 2888.4944, 0.0, 9.999851, 9.999616 
1.7151442e+3, 2.1475568e+2, -869558.44, -865712.25, 57915.85, 0.102764174, 0.21660572, -809687.56, 25720.814, 0.0, 9.999806, 9.999814 
1.7151557e+3, 2.2475559e+2, -801014.1, -867376.1, -582.58795, 0.09670823, 0.2679818, -801009.06, -63598.78, 0.0, 9.999922, 9.999104 
1.7151651e+3, 2.3475458e+2, -649846.5, -721543.1, 5427.301, -0.07025234, 0.20583223, -649438.0, -10017.661, 0.0, 10.000214, 9.999276 
1.7151758e+3, 2.4475329e+2, -562346.06, -710718.8, 7665.9673, -0.11102024, 0.19179864, -561951.06, -20518.709, 0.0, 10.000499, 9.998543 
1.7151883e+3, 2.5475144e+2, -353288.0, -542634.5, 36679.77, -0.0046037245, 0.102758616, -346430.8, 97017.805, 0.0000000000058928205, 10.001201, 9.998678 
1.7152005e+3, 2.6474962e+2, -261704.75, -536010.4, 45930.004, 0.023536786, 0.09870328, -254218.5, 91247.01, 0.0000014626683, 10.001509, 9.997919 
1.7152123e+3, 2.747478e+2, -160201.05, -412838.7, 45655.96, -0.017078046, 0.069983125, -152203.4, 95279.45, 0.000032258973, 10.0014515, 9.998107 
1.7152241e+3, 2.8474587e+2, -49220.383, -349246.72, 20549.41, -0.05615999, 0.09352913, -47819.457, 101681.94, 0.00021422842, 10.001698, 9.997766 
1.7152356e+3, 2.9474363e+2, 197950.56, -140782.08, 63783.92, -0.10609827, 0.020727718, 209563.08, 261086.14, 0.0007461243, 10.00257, 9.99809 
1.7152463e+3, 3.0474192e+2, 159529.8, -253273.5, 30066.252, -0.22841568, 0.102978155, 161708.16, 161708.16, 0.0017331638, 10.002528, 9.996989 
1.7152601e+3, 3.1474066e+2, 150609.06, 3253.3904, 6979.8325, -0.06007564, 0.21196696, 150938.94, 150938.94, 0.003082063, 10.0013275, 9.999295 
1.725038e+3, 1.247424e+2, -1864570.9, -1547903.8, -76289.32, 0.25705934, 0.08850719, -1530483.0, 187052.55, 0.06177432, 9.997778, 10.00227 
1.7250492e+3, 1.347428e+2, -1739422.8, -1703404.1, 73156.75, -0.102220215, 0.08945493, -1646072.5, -26540.75, 0.039721623, 9.999255, 9.9997225 
1.7250627e+3, 1.4474185e+2, -1601033.5, -1545144.4, -87454.54, 0.0389758, 0.01690918, -1481278.3, 40262.6, 0.019743169, 9.999321, 10.0001335 
1.7250726e+3, 1.5474416e+2, -1401224.4, -1352322.3, -45521.36, -0.06203914, 0.16173157, -1325100.8, 98416.62, 0.006494274, 9.999843, 10.000525 
1.7250848e+3, 1.64745e+2, -1357714.8, -1377244.4, 25927.805, -0.015137502, 0.24771647, -1339773.9, -14265.057, 0.001032908, 9.999876, 9.999658 
1.725098e+3, 1.747434e+2, -1255411.9, -1250855.0, 919.8475, 0.11333188, 0.063189395, -1250676.3, -23150.906, 0.00003215152, 9.999811, 9.999868 
1.7251098e+3, 1.8474275e+2, -1159069.8, -1186102.8, -21722.844, 0.12485038, 0.034044597, -1147001.5, -17469.121, 0.0, 9.999921, 9.999602 
1.72512e+3, 1.9474337e+2, -945593.56, -1006146.0, -39080.746, 0.0022389595, 0.08369448, -926433.44, 105093.58, 0.0, 10.000625, 9.999813 
1.7251314e+3, 2.0474401e+2, -870946.4, -956421.6, -16625.656, 0.009345671, 0.19096795, -867826.44, 65695.875, 0.0, 10.000613, 9.999496 
1.7251444e+3, 2.1474446e+2, -845425.4, -871985.4, -30025.912, 0.14668554, 0.23805472, -825873.8, 9646.669, 0.0, 10.000036, 9.999673 
1.7251557e+3, 2.247444e+2, -803729.7, -854831.7, -19285.156, 0.12772398, 0.29753923, -797268.6, -59745.848, 0.0, 9.999879, 9.999191 
1.7251651e+3, 2.3474379e+2, -632357.0, -703017.8, -31200.553, -0.08172781, 0.26810074, -620552.4, 18977.166, 0.0, 10.00032, 9.999336 
1.7251764e+3, 2.4474242e+2, -496583.2, -661666.1, 20082.756, -0.101961225, 0.23557852, -494175.2, 47366.406, 0.0, 10.000848, 9.998715 
1.7251903e+3, 2.547401e+2, -312754.56, -500258.63, 12675.7295, 0.073010266, 0.07699702, -311901.53, 131659.17, 0.0000000000049057277, 10.001364, 9.998888 
1.725203e+3, 2.647384e+2, -255795.78, -535158.4, 42038.12, 0.118504226, 0.07772201, -249607.05, 95968.55, 0.0000011502509, 10.0015745, 9.997883 
1.7252141e+3, 2.747373e+2, -165528.4, -426523.72, 27288.621, 0.028531792, 0.13059372, -162705.75, 84881.31, 0.000029351942, 10.001463, 9.998009 
1.7252259e+3, 2.847354e+2, -44589.902, -329218.53, 71542.96, -0.034678277, 0.15540001, -27619.064, 121986.39, 0.00020332959, 10.001677, 9.997896 
1.725238e+3, 2.9473236e+2, 169273.6, -139616.9, 27399.719, -0.10141751, -0.0052130157, 171685.22, 223318.97, 0.0007057303, 10.002337, 9.998188 
1.725249e+3, 3.0473098e+2, 189131.47, -260503.16, 6618.8564, -0.20942271, 0.11099147, 189228.88, 189228.88, 0.0016357172, 10.002764, 9.996862 
1.725263e+3, 3.147303e+2, 298925.72, -11699.46, -28628.398, 0.055813465, 0.30465487, 301542.16, 301542.16, 0.0029146082, 10.00261, 9.998644 
1.735035e+3, 1.2472872e+2, -1893196.0, -1617333.5, 57446.848, 0.097923666, 0.021100057, -1605848.6, 111820.625, 0.06561491, 9.997864, 10.001704 
1.7350483e+3, 1.3473047e+2, -1752298.6, -1736703.8, 88159.44, -0.15636052, 0.14085968, -1655997.6, -36340.242, 0.042436883, 9.999276, 9.999486 
1.7350625e+3, 1.4473179e+2, -1560819.9, -1477461.4, -101658.27, 0.01865099, 0.30370983, -1409270.0, 112374.44, 0.021297567, 9.999392, 10.0005665 
1.7350729e+3, 1.547305e+2, -1341614.8, -1228795.5, -14983.338, -0.058833897, 0.0021322472, -1226839.5, 196811.6, 0.0071235094, 9.999847, 10.001372 
1.7350848e+3, 1.6473107e+2, -1346737.6, -1389745.0, 4545.6357, -0.044841897, 0.02117306, -1346262.4, -20618.014, 0.0011691477, 10.000011, 9.999511 
1.7350973e+3, 1.7473257e+2, -1272474.6, -1293545.5, 9405.486, 0.013498319, 0.17492124, -1268887.1, -41253.258, 0.00004011834, 9.99983, 9.999572 
1.7351091e+3, 1.8473282e+2, -1164240.9, -1197890.9, -17700.16, 0.011700773, 0.2569322, -1156645.1, -27011.602, 0.0, 9.999926, 9.999518 
1.7351206e+3, 1.9473197e+2, -974721.8, -1027726.56, -1034.8607, -0.02251695, 0.1632463, -974701.56, 56939.98, 0.0, 10.000456, 9.999746 
1.735132e+3, 2.0473155e+2, -901225.3, -972338.44, -54179.4, -0.020486007, 0.1670275, -871976.94, 61669.137, 0.0, 10.000404, 9.999488 
1.7351435e+3, 2.1473126e+2, -876712.2, -891884.6, -36265.277, 0.03292353, 0.13815339, -847248.2, -11597.971, 0.0, 9.999839, 9.999629 
1.7351548e+3, 2.24731e+2, -829201.94, -841039.9, -19045.58, 0.01791641, 0.16889016, -815176.8, -77523.12, 0.0, 9.999593, 9.999421 
1.7351659e+3, 2.3473082e+2, -649493.7, -681989.6, 3390.5313, -0.050628517, 0.15370516, -649143.7, -9487.667, 0.0, 10.000069, 9.999602 
1.735178e+3, 2.4473022e+2, -537114.3, -662985.1, 26813.291, -0.0628632, 0.17808373, -531640.5, 10020.29, 0.0, 10.000504, 9.99887 
1.7351912e+3, 2.547291e+2, -341646.88, -493771.4, 54107.902, -0.008397722, 0.12286287, -324364.97, 119304.3, 0.000000000000012544113, 10.001086, 9.999064 
1.7352037e+3, 2.6472804e+2, -293583.47, -530038.5, 22661.53, 0.017820157, 0.1659279, -291431.22, 54247.176, 0.0000010511417, 10.001223, 9.998084 
1.735216e+3, 2.7472708e+2, -191112.44, -412815.2, 46253.31, 0.035691362, 0.20772588, -181849.72, 65838.27, 0.000029114979, 10.001194, 9.9982195 
1.7352284e+3, 2.84725e+2, -125156.71, -427315.88, 72996.14, 0.008144116, 0.23159926, -108446.31, 41262.066, 0.00019954766, 10.001373, 9.997372 
1.7352407e+3, 2.9472136e+2, 75435.13, -246107.69, 78945.414, -0.0962801, 0.059239432, 93772.13, 145516.2, 0.0006841952, 10.001959, 9.99764 
1.7352521e+3, 3.0471984e+2, 157227.5, -202354.81, -21259.004, -0.21726885, 0.15986176, 158480.0, 158480.0, 0.0015848171, 10.002259, 9.997485 
1.7352664e+3, 3.1471843e+2, 195263.78, -31766.895, 27539.031, 0.077302, 0.18897356, 198556.53, 198556.53, 0.0028348994, 10.001838, 9.998839 
1.745033e+3, 1.24716e+2, -1862547.3, -1649560.8, -3104.7542, 0.104280725, 0.12300811, -1649515.5, 68282.03, 0.06957688, 9.998328, 10.001239 
1.7450479e+3, 1.3471793e+2, -1856212.4, -1655741.1, 89243.56, -0.057201095, 0.15894204, -1621769.5, -1986.689, 0.045260757, 9.9980135, 10.000655 
1.7450623e+3, 1.4472085e+2, -1670430.9, -1535395.9, 1511.5033, 0.11504166, 0.41981578, -1535379.0, -13625.385, 0.022935338, 9.9986725, 10.000485 
1.7450728e+3, 1.5471838e+2, -1488765.0, -1317067.6, -33878.324, 0.006628683, 0.013046584, -1310624.8, 113147.12, 0.0078018596, 9.998918, 10.001186 
1.7450844e+3, 1.6471837e+2, -1492009.9, -1445331.9, -17405.43, -0.025908874, -0.023963775, -1439556.3, -113786.12, 0.0013223152, 9.998956, 9.999646 
1.7450966e+3, 1.7472035e+2, -1307145.1, -1287492.0, -12812.805, -0.010090913, 0.16293305, -1281171.5, -53417.797, 0.000049909977, 9.999502, 9.999779 
1.7451088e+3, 1.8472093e+2, -1209685.3, -1213304.0, 14859.776, 0.024515124, 0.26397404, -1196525.1, -66775.414, 0.0000000000000006446772, 9.999601, 9.999556 
1.7451213e+3, 1.9472001e+2, -1128024.6, -1097423.4, 3613.937, 0.06857212, 0.15910707, -1097002.4, -65243.477, 0.0, 9.999397, 9.99976 
1.7451327e+3, 2.0471945e+2, -1050828.6, -1047472.6, -24615.39, 0.0655367, 0.14826106, -1024478.1, -90713.22, 0.0, 9.999371, 9.999478 
1.745143e+3, 2.1471909e+2, -896784.4, -898078.44, -40988.184, 0.0028501344, 0.112793066, -856438.1, -20669.107, 0.0, 9.99968, 9.999668 
1.7451543e+3, 2.247188e+2, -773740.0, -818295.0, 18497.91, -0.0025310158, 0.13784976, -767061.3, -29288.756, 0.0, 9.999965, 9.999416 
1.745167e+3, 2.3471858e+2, -627467.56, -671043.56, -4569.841, 0.05079031, 0.1231947, -626993.5, 12782.06, 0.0, 10.000213, 9.999615 
1.7451797e+3, 2.447183e+2, -526983.0, -643441.4, 37783.01, 0.06067871, 0.17077819, -515798.94, 25979.045, 0.0, 10.000552, 9.998965 
1.7451921e+3, 2.5471768e+2, -350721.9, -487964.16, 17191.043, 0.0016602605, 0.16418011, -348601.3, 95180.64, 0.0, 10.001021, 9.9991255 
1.7452048e+3, 2.6471654e+2, -226149.34, -496891.0, 2337.7761, -0.001749338, 0.19529127, -226129.16, 119662.85, 0.0000010008785, 10.001657, 9.998109 
1.7452177e+3, 2.7471477e+2, 5022.6943, -319020.16, -24890.105, 0.04622435, 0.15653355, 6923.3833, 254732.55, 0.000030147008, 10.002515, 9.998235 
1.7452307e+3, 2.847129e+2, 79971.0, -320301.9, 41711.836, 0.060258593, 0.19588175, 84271.52, 234099.36, 0.00019898178, 10.002717, 9.997474 
1.7452435e+3, 2.9471055e+2, 93464.984, -242656.45, 38903.76, 0.0008004443, 0.14304988, 97909.07, 149761.63, 0.00068108423, 10.002048, 9.997648 
1.7452548e+3, 3.0470872e+2, 139221.97, -162125.81, 16867.95, -0.12202652, 0.19649222, 140163.22, 140163.22, 0.0015910987, 10.001904, 9.9979515 
1.7452696e+3, 3.147066e+2, 340685.03, 47243.88, -37028.035, 0.16454692, 0.11417618, 345285.34, 345285.34, 0.0028723662, 10.002751, 9.99896 
1.7550294e+3, 1.24702655e+2, -1866011.3, -1688023.3, -378529.0, -0.1763814, 0.26857316, -1388167.5, 329768.34, 0.07366958, 9.998475, 10.000994 
1.7550465e+3, 1.3470504e+2, -1669851.3, -1282034.4, 120109.59, -0.021102373, 0.13304049, -1247849.0, 372060.56, 0.048192136, 9.998009, 10.003338 
1.755062e+3, 1.4470945e+2, -1679415.1, -1593399.1, 5113.933, 0.15855291, 0.40102446, -1593096.1, -71231.984, 0.024652572, 9.998833, 10.000017 
1.7550722e+3, 1.5470776e+2, -1568352.6, -1496913.5, -16502.79, 0.006715306, 0.19314119, -1493285.6, -69405.6, 0.008527423, 9.998969, 9.999934 
1.7550826e+3, 1.6470663e+2, -1452401.1, -1374723.5, -29612.58, -0.13427404, 0.09328177, -1364722.1, -38832.984, 0.0014925194, 9.999015, 10.000099 
1.7550956e+3, 1.7470671e+2, -1270317.9, -1194914.5, 21796.393, -0.09721689, 0.026167542, -1189067.4, 38818.008, 0.00006156021, 9.999444, 10.000437 
1.7551088e+3, 1.8470715e+2, -1198837.9, -1189263.8, -8927.265, 0.004162294, 0.068733804, -1183921.1, -54040.69, 0.0000000010737394, 9.999592, 9.999724 
1.7551218e+3, 1.9470751e+2, -1134255.4, -1094869.1, 7907.798, 0.13528857, 0.08179563, -1093340.8, -61461.676, 0.0, 9.999326, 9.999813 
1.7551328e+3, 2.0470764e+2, -1075354.5, -1064574.3, -30774.027, 0.100770056, 0.1403985, -1038721.9, -104842.58, 0.0, 9.999225, 9.99943 
1.755142e+3, 2.147076e+2, -928502.2, -914077.3, -16335.09, -0.07495861, 0.13607222, -903433.25, -67553.055, 0.0, 9.999461, 9.999664 
1.7551537e+3, 2.2470748e+2, -831776.9, -871180.06, 12264.541, -0.08807617, 0.1900632, -828271.3, -90388.914, 0.0, 9.999675, 9.999193 
1.7551677e+3, 2.347071e+2, -677154.44, -723254.25, 21825.242, 0.079601236, 0.18085735, -668461.0, -28573.227, 0.0, 9.999988, 9.999367 
1.7551808e+3, 2.4470654e+2, -583137.5, -688371.75, 42123.93, 0.08572444, 0.2202381, -568352.94, -26459.38, 0.0, 10.000244, 9.998805 
1.7551929e+3, 2.547056e+2, -397443.75, -526715.2, 52781.21, -0.054705188, 0.1932798, -378631.1, 65269.94, 0.0, 10.000771, 9.998979 
1.7552058e+3, 2.6470354e+2, -285735.06, -553865.8, 14659.174, -0.11193242, 0.15563247, -284936.0, 60983.887, 0.00000094846536, 10.001363, 9.997864 
1.7552193e+3, 2.747004e+2, -53100.035, -365426.7, 28424.006, -0.08299067, -0.004100934, -50534.32, 197415.88, 0.000030605133, 10.002204, 9.998062 
1.7552327e+3, 2.8469923e+2, 71126.34, -256921.98, 3435.8845, -0.055574756, 0.07710062, 71162.33, 221124.88, 0.0002004244, 10.002364, 9.998078 
1.7552459e+3, 2.9469976e+2, 75827.55, -186746.44, 37485.613, -0.012743493, 0.25239038, 81074.234, 133033.81, 0.000696978, 10.001661, 9.998212 
1.7552568e+3, 3.0469775e+2, 67421.31, -200289.7, 16632.762, -0.15274213, 0.2612135, 68450.74, 68450.74, 0.0016497358, 10.001439, 9.997901 
1.7552714e+3, 3.1469524e+2, 202517.2, -48012.836, 70977.95, 0.009232666, 0.119806744, 221228.55, 221228.55, 0.003001796, 10.001985, 9.998643 
1.7650272e+3, 1.2469011e+2, -2028405.0, -1827012.9, -235473.83, -0.1836821, 0.230998, -1671608.1, 46449.563, 0.07790593, 9.997569, 10.000387 
1.7650452e+3, 1.3469255e+2, -1607015.9, -1245214.0, 169451.03, 0.03258864, 0.0979589, -1178246.5, 441783.66, 0.05123237, 9.998395, 10.003426 
1.7650601e+3, 1.4469644e+2, -1683041.5, -1604022.0, -18113.56, 0.10254221, 0.30693537, -1600067.8, -78077.31, 0.026445003, 9.998842, 9.999954 
1.7650719e+3, 1.5469597e+2, -1534215.0, -1494032.5, -11501.299, 0.08435631, 0.23876393, -1490973.4, -66976.97, 0.009296644, 9.999291, 9.9998 
1.7650828e+3, 1.6469522e+2, -1409137.0, -1337521.1, 36370.125, -0.024892168, 0.17781526, -1322290.0, 3712.3513, 0.0016790463, 9.999253, 10.000226 
1.765095e+3, 1.746944e+2, -1343200.9, -1219595.9, 14731.468, -0.06495339, 0.0063845874, -1217864.5, 10141.491, 0.000074904594, 9.998891, 10.000526 
1.765108e+3, 1.8469466e+2, -1277064.1, -1220175.4, 4137.369, 0.008628708, 0.021860072, -1219876.0, -89873.664, 0.000000009428086, 9.9990225, 9.999794 
1.7651215e+3, 1.946958e+2, -1006976.8, -1021441.0, -12077.425, 0.13562794, 0.107275404, -1000131.75, 31862.209, 0.0, 10.000151, 9.99993 
1.765133e+3, 2.0469612e+2, -865822.1, -956956.9, -32637.531, 0.13685262, 0.17847052, -855339.56, 78652.46, 0.0, 10.000654, 9.999474 
1.765143e+3, 2.1469556e+2, -776122.25, -836352.0, -45530.918, 0.017382357, 0.12305652, -751648.0, 84349.09, 0.0, 10.000508, 9.999687 
1.7651546e+3, 2.2469525e+2, -710684.44, -828085.8, 26482.38, 0.0014922988, 0.16371064, -704987.25, 33013.863, 0.0, 10.0005865, 9.99904 
1.7651682e+3, 2.3469509e+2, -533594.75, -668882.75, 1532.0132, 0.075261444, 0.19487944, -533577.44, 106427.59, 0.0, 10.001054, 9.999218 
1.7651813e+3, 2.4469435e+2, -448013.75, -653811.4, 43713.953, 0.074459724, 0.23639026, -439113.3, 102899.72, 0.0, 10.001255, 9.998579 
1.7651942e+3, 2.5469282e+2, -365085.25, -541192.9, 22996.055, -0.0073121064, 0.17577004, -362131.97, 81894.58, 0.0, 10.001082, 9.998748 
1.7652076e+3, 2.6469073e+2, -295137.72, -538937.06, 52293.926, -0.047605973, 0.13664855, -284394.3, 61651.88, 0.0000007067664, 10.001236, 9.998017 
1.7652214e+3, 2.7468798e+2, -104318.64, -372173.25, 47450.473, -0.06740773, 0.0033566395, -96161.21, 151911.77, 0.000029110019, 10.001784, 9.998213 
1.7652349e+3, 2.846872e+2, 26628.71, -223097.34, 16738.582, -0.027605832, 0.09242929, 27745.666, 177827.58, 0.00020337792, 10.0018425, 9.998558 
1.7652483e+3, 2.946882e+2, 80561.836, -135687.36, -18472.938, 0.09353213, 0.2781541, 82128.52, 134202.89, 0.0007256054, 10.001507, 9.998634 
1.7652592e+3, 3.046858e+2, 180568.94, -147542.47, 70405.73, -0.059130296, 0.22920997, 195038.4, 195038.4, 0.0017291429, 10.0021925, 9.99791 
1.7652741e+3, 3.1468347e+2, 457456.1, 73775.56, 52366.746, 0.028469019, 0.1171655, 464474.97, 464474.97, 0.0031412542, 10.003681, 9.9986925 
1.7750274e+3, 1.2467932e+2, -2079552.5, -1986488.3, -130266.95, -0.013972819, 0.071310654, -1894692.0, -176538.45, 0.08231803, 9.997763, 9.999199 
1.775044e+3, 1.3468094e+2, -1783263.6, -1607209.5, 214767.44, 0.03903012, 0.08350479, -1463129.3, 157010.64, 0.054393712, 9.9984255, 10.00083 
1.775056e+3, 1.4468141e+2, -1652781.0, -1560493.8, -24784.047, -0.26738393, 0.0927035, -1554259.1, -32122.807, 0.02831169, 9.998921, 10.0002165 
1.7750715e+3, 1.5468296e+2, -1465653.0, -1358474.9, 18297.69, 0.07789653, 0.14153913, -1355437.1, 68684.17, 0.010105246, 9.999307, 10.0007305 
1.7750843e+3, 1.6468415e+2, -1415663.3, -1365433.5, 5380.464, 0.14579041, 0.22746125, -1364863.6, -38754.094, 0.0018804772, 9.999312, 10.000007 
1.7750944e+3, 1.7468336e+2, -1375301.5, -1282868.5, 13786.869, -0.048133906, 0.101134665, -1280855.9, -52739.867, 0.00008970714, 9.9988785, 10.000097 
1.775106e+3, 1.8468335e+2, -1278198.6, -1226787.6, 26463.652, -0.1284882, 0.117385164, -1215600.0, -85483.68, 0.000000028818846, 9.999039, 9.999742 
1.7751199e+3, 1.946847e+2, -1020326.1, -1024612.2, 46187.63, -0.0651339, 0.22102767, -976231.9, 55873.24, 0.0, 10.000043, 9.999962 
1.7751329e+3, 2.0468473e+2, -888624.56, -958947.1, -54011.04, 0.018417211, 0.25632635, -859338.1, 74766.46, 0.0, 10.000464, 9.999545 
1.775145e+3, 2.1468292e+2, -811510.8, -852440.1, -37866.855, 0.14371721, 0.06888469, -788932.44, 47187.7, 0.0, 10.000268, 9.999686 
1.7751566e+3, 2.2468206e+2, -767444.44, -886619.44, 29234.87, 0.10710854, 0.06941679, -760659.2, -22530.338, 0.0, 10.00032, 9.998769 
1.7751679e+3, 2.3468229e+2, -576549.3, -718228.6, 36990.887, -0.09053031, 0.15744753, -567472.9, 72656.914, 0.0, 10.000864, 9.998976 
1.7751808e+3, 2.4468146e+2, -507939.8, -703036.44, 20750.371, -0.12798998, 0.21043661, -505757.25, 36381.984, 0.0, 10.000943, 9.998384 
1.7751957e+3, 2.5467938e+2, -415212.72, -587860.25, 34257.875, 0.014339002, 0.113719195, -408663.47, 35494.67, 0.0, 10.000845, 9.998537 
1.7752099e+3, 2.6467803e+2, -315621.88, -506565.6, 58258.285, 0.03295849, 0.13936795, -299250.53, 46920.684, 0.00000032366296, 10.000923, 9.998387 
1.7752233e+3, 2.746774e+2, -130929.64, -338796.1, 89550.89, -0.0748074, 0.17846458, -97671.484, 150507.28, 0.00002512301, 10.001428, 9.998602 
1.7752369e+3, 2.8467667e+2, -23759.203, -243941.72, -21174.266, -0.05271229, 0.25733536, -21741.432, 128445.6, 0.00020098852, 10.001473, 9.998596 
1.7752506e+3, 2.946758e+2, 41848.613, -140965.63, -9449.694, 0.1350328, 0.23629251, 42335.773, 94532.72, 0.00074255146, 10.001188, 9.998747 
1.775262e+3, 3.0467293e+2, 109157.37, -188620.77, 104041.53, -0.042438693, 0.13133013, 141906.94, 141906.94, 0.001770995, 10.001747, 9.997836 
1.7752774e+3, 3.14673e+2, 357113.16, 91396.25, 187927.67, -0.08576695, 0.26864824, 454402.88, 454402.88, 0.0031863125, 10.002786, 9.99921 
1.7850266e+3, 1.24668345e+2, -1874885.3, -1899575.4, -197582.72, 0.067249484, 0.1134169, -1689262.3, 28997.092, 0.08696164, 9.99928, 9.999044 
1.7850423e+3, 1.3466986e+2, -1777057.3, -1655474.1, 155582.4, 0.03261522, 0.1677269, -1549228.3, 71018.49, 0.057701517, 9.998755, 10.000294 
1.785055e+3, 1.4466801e+2, -1798170.8, -1620137.9, 63462.176, -0.18416081, -0.0266234, -1599832.0, -77565.984, 0.030258754, 9.99789, 10.0002985 
1.7850704e+3, 1.5467024e+2, -1557578.1, -1380885.8, 24467.201, 0.09487516, 0.06752899, -1377560.3, 46684.063, 0.0109521225, 9.998577, 10.000924 
1.7850834e+3, 1.6467209e+2, -1472363.9, -1423818.1, -6428.3096, 0.15303633, 0.22207297, -1422981.4, -96754.664, 0.0020959692, 9.99906, 9.999724 
1.7850938e+3, 1.746716e+2, -1301065.4, -1278283.5, -32296.943, -0.0025469442, 0.15490326, -1255427.5, -27195.105, 0.000105867584, 9.999542, 9.999802 
1.7851058e+3, 1.8467136e+2, -1195253.8, -1176986.1, 37948.195, -0.065842524, 0.1593395, -1147088.0, -16852.68, 0.0000000562377, 9.999561, 9.999839 
1.7851196e+3, 1.9467199e+2, -1109544.5, -1052478.4, 39291.652, -0.0477883, 0.17803779, -1032452.56, -223.55505, 0.0, 9.999351, 10.000107 
1.7851329e+3, 2.046719e+2, -1034986.0, -1038349.8, -38108.957, 0.03336479, 0.19744924, -998521.8, -64292.957, 0.0, 9.999494, 9.999471 
1.7851454e+3, 2.1467063e+2, -817516.8, -863077.0, -64764.336, 0.18014802, 0.070909634, -771643.06, 64596.566, 0.0, 10.000254, 9.999623 
1.7851575e+3, 2.2466977e+2, -718191.5, -892032.3, 37236.703, 0.15354708, 0.08905574, -710551.2, 27697.783, 0.0, 10.000796, 9.998506 
1.785169e+3, 2.3466948e+2, -557480.9, -739214.75, 7777.8926, -0.068672806, 0.15530145, -557148.56, 83107.414, 0.0, 10.001143, 9.9987 
1.785182e+3, 2.4466848e+2, -442512.4, -683941.06, 6110.1616, -0.09802353, 0.21713199, -442357.88, 99909.664, 0.0, 10.001463, 9.998256 
1.7851976e+3, 2.546667e+2, -287685.38, -541239.9, -11704.586, 0.06814794, 0.15834582, -287146.22, 157138.42, 0.0, 10.0018015, 9.998386 
1.7852119e+3, 2.6466537e+2, -228185.61, -466348.88, 15537.405, 0.11484293, 0.19835384, -227176.25, 119121.16, 0.00000018370703, 10.001502, 9.998402 
1.7852248e+3, 2.746644e+2, -263837.1, -413730.0, -13770.418, 0.0029908514, 0.20720798, -262582.5, -14274.41, 0.000020759246, 10.000508, 9.99856 
1.7852382e+3, 2.8466338e+2, -156152.47, -307667.03, -64844.152, 0.0032850392, 0.2619072, -132190.48, 18128.666, 0.0001926232, 10.00058, 9.998576 
1.7852521e+3, 2.946625e+2, 153790.98, -94793.875, -111467.99, 0.14000982, 0.24595179, 196452.8, 248782.2, 0.00073852757, 10.001985, 9.998678 
1.7852645e+3, 3.0465993e+2, 243411.69, -114376.555, 40633.438, -0.015344041, 0.17519398, 247968.33, 247968.33, 0.0017551996, 10.002641, 9.997908 
1.7852809e+3, 3.1466016e+2, 277718.28, 61318.734, 41035.85, 0.043049987, 0.33741695, 285238.56, 285238.56, 0.003105376, 10.002159, 9.99933 
1.7950246e+3, 1.2465478e+2, -1802324.1, -1788721.1, -278149.5, -0.16924195, 0.10176339, -1517290.0, 201108.31, 0.09190124, 9.999477, 9.999781 
1.795039e+3, 1.3465919e+2, -1647306.8, -1433594.5, 105377.9, -0.2134379, 0.3276387, -1390374.9, 229977.14, 0.06119029, 9.998887, 10.001839 
1.7950572e+3, 1.4465633e+2, -1803927.4, -1642496.9, 54422.113, 0.19734906, -0.053856958, -1625863.8, -103485.03, 0.03230053, 9.997946, 10.000114 
1.7950685e+3, 1.5465787e+2, -1603809.8, -1469151.1, 64920.734, 0.013637646, 0.027938625, -1442950.1, -18585.586, 0.011841973, 9.998558, 10.0003195 
1.7950799e+3, 1.6465905e+2, -1485109.6, -1472464.1, -8836.292, -0.15977938, 0.17027217, -1467921.5, -141567.19, 0.0023264778, 9.999142, 9.999358 
1.7950933e+3, 1.7465897e+2, -1314134.1, -1310691.0, -4464.8955, -0.055414416, 0.16868441, -1307627.3, -79270.305, 0.00012352158, 9.999555, 9.999581 
1.7951068e+3, 1.846585e+2, -1170862.9, -1131368.9, 11126.373, 0.030628927, 0.14417602, -1128450.0, 1910.9988, 0.000000085167756, 9.999588, 10.000134 
1.7951202e+3, 1.9465767e+2, -1108091.9, -1026708.94, 40279.758, 0.041893084, -0.008240881, -1010144.4, 22221.49, 0.0, 9.999255, 10.000327 
1.7951325e+3, 2.0465773e+2, -1069696.9, -1074815.4, -30384.6, 0.014290785, 0.023405598, -1041763.94, -107400.0, 0.0, 9.999332, 9.999303 
1.7951442e+3, 2.1465868e+2, -856626.8, -900830.94, -23066.88, 0.0007947597, 0.13621895, -846782.3, -10426.678, 0.0, 10.000057, 9.999465 
1.795157e+3, 2.2465827e+2, -788364.1, -969217.94, 33359.27, -0.0053174933, 0.2246721, -782407.06, -44044.543, 0.0, 10.000504, 9.9981165 
1.795171e+3, 2.3465641e+2, -626270.5, -817242.56, 36896.64, 0.0016665256, 0.17283113, -619389.8, 20995.936, 0.0, 10.000868, 9.998294 
1.7951849e+3, 2.4465518e+2, -504610.8, -734969.56, 6079.7144, -0.0014677228, 0.24043319, -504450.47, 37950.01, 0.0, 10.001127, 9.998067 
1.7951989e+3, 2.5465456e+2, -338404.38, -581641.06, 18008.184, 0.013444586, 0.31554136, -337078.38, 107328.58, 0.0, 10.001531, 9.998234 
1.7952128e+3, 2.6465258e+2, -300563.56, -544112.5, -36397.527, 0.031229801, 0.3146722, -295240.4, 51185.93, 0.00000013255313, 10.001188, 9.998021 
1.7952259e+3, 2.746491e+2, -325781.2, -475483.1, -32638.258, 0.014431013, 0.104193605, -318974.8, -70514.914, 0.0000188634, 10.00024, 9.998256 
1.7952387e+3, 2.8464767e+2, -218060.03, -365954.1, -33918.06, -0.039615773, 0.14106275, -210652.3, -60177.402, 0.00018772867, 10.000271, 9.998328 
1.7952523e+3, 2.9464853e+2, 82510.82, -144390.58, -26191.51, -0.0743319, 0.3199782, 85494.89, 137964.4, 0.00073078944, 10.001581, 9.998521 
1.7952657e+3, 3.0464697e+2, 156004.95, -187825.84, 5630.596, -0.19266061, 0.37204158, 156097.14, 156097.14, 0.0017135283, 10.002155, 9.997648 
1.7952834e+3, 3.1464556e+2, 191104.02, 49058.625, 102653.78, 0.029422194, 0.3766697, 244909.3, 244909.3, 0.0029599608, 10.001485, 9.999543 
1.8050246e+3, 1.2464227e+2, -1878056.4, -1827376.5, -39627.824, -0.05638525, 0.029429875, -1805679.5, -87158.49, 0.097200245, 9.998967, 9.999676 
1.805038e+3, 1.3464692e+2, -1692166.1, -1502329.1, 42985.23, -0.19652143, 0.3399972, -1493049.4, 127424.46, 0.06490086, 9.998803, 10.00137 
1.8050563e+3, 1.4464451e+2, -1740536.5, -1628075.0, -15171.239, 0.30609438, 0.026664294, -1626064.4, -103567.54, 0.034457777, 9.998426, 9.999988 
1.8050672e+3, 1.546457e+2, -1618373.1, -1496290.6, -3580.2932, 0.04247467, 0.08722718, -1496185.8, -71699.93, 0.0127833225, 9.998531, 10.000149 
1.8050785e+3, 1.6464633e+2, -1518904.8, -1468849.6, 12052.794, -0.17830591, 0.17699702, -1466098.6, -139618.83, 0.0025744103, 9.998832, 9.999534 
1.8050928e+3, 1.7464612e+2, -1271598.3, -1260767.5, 18066.203, -0.053225547, 0.13994023, -1247322.5, -18840.654, 0.00014305822, 9.999729, 9.999829 
1.805107e+3, 1.8464562e+2, -1140989.3, -1177486.5, 17642.314, 0.078215495, 0.12554032, -1133855.6, -3369.2158, 0.00000010953618, 10.00005, 9.999598 
1.8051204e+3, 1.9464478e+2, -1054829.6, -1061588.9, -46278.02, 0.10484349, 0.02679144, -1011807.94, 20686.271, 0.0, 9.999893, 9.999778 
1.8051326e+3, 2.046446e+2, -964014.8, -1043530.94, -77310.16, 0.067529745, 0.072084814, -916838.6, 17657.28, 0.0, 10.000137, 9.999145 
1.8051445e+3, 2.1464513e+2, -735116.94, -856375.0, -97564.23, -0.004827169, 0.15900908, -680878.0, 155613.08, 0.0, 10.000954, 9.999343 
1.8051577e+3, 2.2464453e+2, -694919.44, -925890.1, -30029.502, 0.0034085484, 0.23532793, -691079.0, 47420.004, 0.0, 10.00116, 9.998088 
1.8051724e+3, 2.3464265e+2, -636896.1, -827551.9, -34025.3, 0.07928203, 0.18920462, -631005.8, 9515.818, 0.0, 10.000822, 9.998237 
1.8051867e+3, 2.4464138e+2, -529260.4, -734421.56, 2895.0042, 0.08003573, 0.24645649, -529219.56, 13317.027, 0.0, 10.000884, 9.998213 
1.8052001e+3, 2.546405e+2, -359178.25, -583386.6, 3786.3145, 0.002878765, 0.291501, -359114.3, 85431.016, 0.0, 10.001321, 9.998356 
1.8052138e+3, 2.646386e+2, -213556.22, -492763.88, -15921.777, 0.0037248735, 0.29314315, -212651.22, 133912.27, 0.00000007008213, 10.001758, 9.998089 
1.8052271e+3, 2.7463558e+2, -23675.246, -334024.03, -30647.27, 0.03636093, 0.12965755, -20677.748, 227914.55, 0.000018211349, 10.002322, 9.998231 
1.8052404e+3, 2.8463387e+2, 79453.555, -259648.5, 40493.914, -0.011436395, 0.15375374, 84222.08, 234831.88, 0.00018396281, 10.002459, 9.998011 
1.8052536e+3, 2.9463348e+2, 165822.77, -147152.53, -7871.99, -0.113885224, 0.25394765, 166020.64, 218636.08, 0.0007176876, 10.0023155, 9.998162 
1.805268e+3, 3.04632e+2, 166402.5, -180864.72, 37842.586, -0.1623051, 0.3275645, 170478.47, 170478.47, 0.0016608938, 10.002243, 9.997638 
1.8052866e+3, 3.1463107e+2, 242055.23, 41568.406, 42744.22, 0.1929349, 0.40207705, 250788.02, 250788.02, 0.002818699, 10.001866, 9.999357 
1.8150246e+3, 1.2463258e+2, -1910449.9, -1939843.4, 105077.94, -0.03969238, 0.079075314, -1819046.0, -100436.1, 0.10291468, 9.999136, 9.998836 
1.8150388e+3, 1.3463287e+2, -1872439.8, -1869932.1, 41755.188, -0.031049682, 0.20054667, -1829411.9, -208797.55, 0.06887483, 9.998806, 9.998791 
1.8150519e+3, 1.4463226e+2, -1717080.5, -1595617.0, -39230.125, -0.0409701, 0.19432071, -1584048.4, -61424.81, 0.036753505, 9.998492, 10.00018 
1.8150662e+3, 1.5463348e+2, -1586794.8, -1441326.6, 13375.932, 0.031454127, 0.22745262, -1440107.0, -15496.744, 0.01378539, 9.998569, 10.000513 
1.8150787e+3, 1.6463391e+2, -1454404.6, -1355220.4, 24016.93, -0.082015045, 0.23589641, -1349710.8, -23107.473, 0.002842686, 9.998916, 10.000271 
1.8150923e+3, 1.746331e+2, -1230187.6, -1174957.5, 64380.348, -0.11599601, 0.07551984, -1132519.6, 96087.11, 0.00016504708, 9.999719, 10.000426 
1.8151061e+3, 1.8463285e+2, -1233033.5, -1366833.9, -5874.8857, -0.06563858, 0.11860568, -1232776.1, -102165.64, 0.00000012908751, 10.00004, 9.998304 
1.8151197e+3, 1.9463329e+2, -1154123.9, -1256256.1, -39382.727, 0.015584589, 0.28037143, -1140701.6, -108087.49, 0.0, 9.999839, 9.99847 
1.8151328e+3, 2.0463243e+2, -1001626.1, -1082200.1, -61744.55, 0.036336783, 0.3330584, -968187.75, -33562.523, 0.0, 9.999974, 9.998954 
1.815146e+3, 2.1462995e+2, -781638.9, -897313.1, -49435.195, 0.03276066, 0.13389842, -763390.75, 73255.27, 0.0, 10.000716, 9.999175 
1.8151595e+3, 2.2462854e+2, -726923.44, -916660.7, -54375.97, 0.027620202, 0.12643568, -712444.94, 26213.797, 0.0, 10.0008335, 9.998308 
1.815173e+3, 2.3462833e+2, -657736.44, -813594.0, -29044.107, 0.030081417, 0.22277033, -652500.0, -11837.249, 0.0, 10.000575, 9.998452 
1.8151867e+3, 2.4462698e+2, -552662.94, -712865.25, 6834.649, -0.02051677, 0.252131, -552371.9, -9695.38, 0.0, 10.000584, 9.998499 
1.8152007e+3, 2.546244e+2, -369958.63, -542052.1, 38990.55, -0.10172666, 0.08202968, -361536.8, 83163.97, 0.0, 10.001053, 9.998758 
1.8152148e+3, 2.6462334e+2, -249243.14, -484646.8, -10729.251, -0.12232084, 0.13023697, -248755.14, 97955.43, 0.0000000874347, 10.001398, 9.99832 
1.8152286e+3, 2.7462378e+2, -57143.684, -322192.56, 12452.987, -0.0800263, 0.28232053, -56559.883, 192146.66, 0.00001648955, 10.001987, 9.998463 
1.8152422e+3, 2.8462198e+2, -13516.026, -377716.66, 16415.984, -0.109794624, 0.32282427, -12777.589, 137946.23, 0.00017264257, 10.002123, 9.997365 
1.8152557e+3, 2.9461768e+2, 82939.36, -248686.84, 14823.16, -0.17923102, 0.07820723, 83600.62, 136365.9, 0.00068283465, 10.002006, 9.997612 
1.8152705e+3, 3.046153e+2, 87130.62, -240701.98, 5328.1006, -0.16438644, 0.0963845, 87217.19, 87217.19, 0.0015899244, 10.001805, 9.997434 
1.8152878e+3, 3.1461442e+2, 115317.16, -4891.904, 74690.64, 0.06539307, 0.18260424, 151083.61, 151083.61, 0.0027097166, 10.001018, 9.999402 
1.825024e+3, 1.246205e+2, -1815512.9, -1845218.5, 117396.055, -0.026390728, 0.12561822, -1712033.9, 6692.3965, 0.10907774, 9.999562, 9.999277 
1.8250385e+3, 1.3461828e+2, -1827543.1, -1942641.6, -48100.67, 0.025831342, 0.07459281, -1810088.5, -189331.17, 0.07313931, 9.999469, 9.997988 
1.8250498e+3, 1.4461984e+2, -1699522.0, -1585461.9, -5260.708, -0.088549286, 0.323355, -1585219.8, -62473.24, 0.039204508, 9.998644, 10.000164 
1.8250653e+3, 1.5461987e+2, -1571948.5, -1441083.0, -19176.178, 0.092503384, 0.2447231, -1438330.9, -13585.776, 0.014855209, 9.998736, 10.00042 
1.8250784e+3, 1.6461967e+2, -1465065.6, -1349079.3, -4768.187, 0.014493648, 0.19378574, -1348883.5, -22139.344, 0.0031336718, 9.998792, 10.000369 
1.8250917e+3, 1.746195e+2, -1340035.8, -1212039.6, -34979.637, -0.10139271, 0.082589336, -1203104.0, 25637.17, 0.00019006866, 9.998907, 10.000561 
1.8251055e+3, 1.8461967e+2, -1337623.6, -1404077.6, -45754.867, -0.062408652, 0.15621094, -1314303.9, -183563.4, 0.00000015151502, 9.999263, 9.998424 
1.8251197e+3, 1.946201e+2, -1101518.1, -1214006.1, -6406.311, 0.042762093, 0.30704406, -1101154.4, -68410.72, 0.0, 10.000154, 9.998601 
1.8251334e+3, 2.0461915e+2, -914743.2, -1064044.1, 54907.457, 0.08264675, 0.35537136, -896724.75, 38030.96, 0.0, 10.000682, 9.998715 
1.825147e+3, 2.1461645e+2, -776042.8, -918835.1, 30959.824, 0.06405289, 0.15363377, -769619.2, 67160.48, 0.0, 10.000873, 9.99893 
1.8251607e+3, 2.246149e+2, -688121.06, -898818.4, 31061.137, 0.06271255, 0.14289677, -683637.44, 55156.176, 0.0, 10.001077, 9.998329 
1.8251742e+3, 2.3461464e+2, -549971.5, -752635.3, 11863.753, 0.05847952, 0.22832179, -549279.3, 91517.414, 0.0, 10.001267, 9.998545 
1.8251878e+3, 2.4461313e+2, -483177.94, -687644.25, 60362.613, 0.019856485, 0.23687588, -466687.63, 76124.0, 0.0, 10.00109, 9.998424 
1.8252018e+3, 2.5461015e+2, -460333.2, -596349.56, 26920.326, -0.054720107, 0.03851848, -455198.9, -10358.776, 0.0, 10.00047, 9.998657 
1.8252161e+3, 2.6460925e+2, -328522.5, -485510.28, 27463.602, -0.08024867, 0.090645686, -323856.7, 22991.51, 0.00000011582431, 10.000707, 9.998644 
1.8252304e+3, 2.746104e+2, -32738.834, -279857.47, 12159.305, -0.082321964, 0.2904565, -32141.984, 216693.9, 0.000015405387, 10.002012, 9.998753 
1.8252447e+3, 2.846086e+2, 31497.066, -373270.22, 34885.707, -0.07401547, 0.3248048, 34481.754, 185334.1, 0.00016033727, 10.00253, 9.99719 
1.8252589e+3, 2.9460362e+2, 88446.43, -281233.66, 7357.6436, -0.05626099, 0.043275043, 88592.81, 141493.02, 0.0006397898, 10.002188, 9.997307 
1.8252738e+3, 3.046008e+2, 143146.48, -198681.36, 67535.38, -0.01475664, 0.029118005, 156005.78, 156005.78, 0.0015189088, 10.002108, 9.997586 
1.8252891e+3, 3.145997e+2, 303278.84, 70105.09, 18368.178, 0.05371232, 0.092852056, 304716.94, 304716.94, 0.0026480674, 10.002302, 9.999354 
1.8350226e+3, 1.24605946e+2, -1693631.4, -1615153.4, 171026.58, -0.21533984, 0.1628855, -1478922.3, 239948.53, 0.11569034, 9.999674, 10.000933 
1.8350363e+3, 1.3460322e+2, -1733499.9, -1769610.4, -68503.984, -0.17475569, -0.032741614, -1680711.8, -59809.42, 0.07769921, 9.999549, 9.999141 
1.8350494e+3, 1.4460742e+2, -1703166.9, -1622376.4, -35964.45, -0.037636023, 0.4219693, -1608686.4, -85822.164, 0.04181763, 9.998763, 9.999852 
1.8350643e+3, 1.546048e+2, -1612082.8, -1539013.6, -1382.5422, 0.08011771, 0.14213872, -1538987.5, -114096.55, 0.015997248, 9.998784, 9.999728 
1.8350771e+3, 1.6460353e+2, -1482915.3, -1409914.6, -19883.5, -0.0448556, 0.046375487, -1404850.3, -77946.84, 0.0034491862, 9.99889, 9.999907 
1.8350905e+3, 1.7460501e+2, -1356236.6, -1258734.0, -20583.707, -0.14161849, 0.13742061, -1254566.6, -25679.078, 0.00021871291, 9.998949, 10.000225 
1.8351051e+3, 1.8460572e+2, -1239574.4, -1197025.8, -31757.459, -0.09177486, 0.2114454, -1180075.4, -49196.01, 0.00000018976193, 9.999255, 9.999845 
1.8351202e+3, 1.9460504e+2, -1016208.25, -1015066.6, 37694.586, 0.048404247, 0.10728753, -977938.5, 54946.184, 0.0, 10.000058, 10.000012 
1.8351342e+3, 2.0460458e+2, -954684.5, -1107332.0, 44981.793, 0.05202635, 0.14050476, -942415.5, -7525.7295, 0.0, 10.000506, 9.998506 
1.8351471e+3, 2.1460445e+2, -826234.4, -971857.25, 47948.02, -0.046147525, 0.22335604, -811864.9, 25029.166, 0.0, 10.00065, 9.998673 
1.8351607e+3, 2.2460344e+2, -742628.56, -940976.1, 24567.648, -0.054095466, 0.28836873, -739630.9, -725.54315, 0.0, 10.000769, 9.998193 
1.8351755e+3, 2.346013e+2, -592402.3, -784970.06, 35491.926, 0.038501106, 0.1956972, -586069.1, 54857.316, 0.0, 10.001026, 9.9984455 
1.8351896e+3, 2.4459945e+2, -558609.44, -768412.7, 22457.389, 0.05087075, 0.1939171, -556232.5, -13287.318, 0.0, 10.00076, 9.998034 
1.835203e+3, 2.5459775e+2, -535848.44, -685444.8, 23864.266, -0.0011546687, 0.17069194, -532133.75, -87170.74, 0.0, 10.000186, 9.998185 
1.8352173e+3, 2.6459652e+2, -360850.53, -488944.8, 61751.64, -0.060892966, 0.20999262, -335929.7, 11044.544, 0.000000090536304, 10.0004225, 9.998761 
1.8352322e+3, 2.745956e+2, -50742.367, -258861.36, 85248.305, -0.13210824, 0.17510642, -20281.781, 228697.7, 0.00001528185, 10.00176, 9.999017 
1.8352474e+3, 2.845937e+2, -14123.291, -391587.28, -3.312865, -0.09875093, 0.17766063, -14123.291, 136872.84, 0.00015301339, 10.002192, 9.9972315 
1.8352626e+3, 2.9459086e+2, 40191.17, -297178.63, 23139.777, 0.06585161, 0.10681916, 41770.902, 94795.18, 0.00060731446, 10.001833, 9.997361 
1.8352771e+3, 3.045884e+2, 67890.48, -238275.61, 53317.64, 0.060846508, 0.13160408, 76909.836, 76909.836, 0.0014671788, 10.001617, 9.997545 
1.8352883e+3, 3.1458712e+2, 167481.3, -44242.54, 58707.84, -0.32072034, 0.15820771, 182670.42, 182670.42, 0.0026243576, 10.001616, 9.998878 
1.8450218e+3, 1.2459077e+2, -1795789.0, -1515025.1, 222975.8, -0.16414297, 0.14102484, -1391920.3, 327101.88, 0.12272786, 9.998291, 10.002393 
1.8450351e+3, 1.345876e+2, -1898242.4, -1757830.8, -108129.97, -0.15569362, -0.16798659, -1699114.4, -78059.45, 0.08254445, 9.998091, 9.999905 
1.845049e+3, 1.4459442e+2, -1725580.1, -1641084.9, -47378.895, 0.054782696, 0.5132086, -1619853.3, -96863.27, 0.04459436, 9.998613, 9.999808 
1.8450633e+3, 1.5459071e+2, -1588776.9, -1532145.0, -427.32227, 0.098993, 0.1260497, -1532141.8, -107113.5, 0.017215712, 9.998953, 9.999697 
1.8450764e+3, 1.6458917e+2, -1482731.9, -1436324.1, 51786.215, -0.009249863, 0.017160691, -1402780.9, -75736.47, 0.0037916328, 9.999024, 9.999663 
1.8450902e+3, 1.7459112e+2, -1313945.5, -1264069.1, 24617.66, -0.080389, 0.18231884, -1253965.3, -24939.426, 0.00025177147, 9.999371, 9.999984 
1.8451048e+3, 1.8459173e+2, -1192392.0, -1151640.5, 9047.807, -0.029689487, 0.24761151, -1149722.0, -18703.834, 0.00000025167606, 9.99948, 10.000045 
1.8451202e+3, 1.9459032e+2, -1071871.4, -1019122.5, -39323.92, 0.06875459, 0.047646392, -998147.4, 34880.133, 0.0, 9.999569, 10.000218 
1.8451343e+3, 2.0458978e+2, -1054998.1, -1132269.4, -40871.227, 0.0671342, 0.05273063, -1037391.7, -102359.625, 0.0, 9.999726, 9.998715 
1.8451476e+3, 2.1459036e+2, -874109.75, -973269.0, -36406.156, -0.031841762, 0.1917176, -862178.8, -25148.52, 0.0, 10.000241, 9.998869 
1.8451616e+3, 2.2458988e+2, -748471.44, -918693.6, 343.53757, -0.024766592, 0.28890967, -748470.7, -9433.613, 0.0, 10.000629, 9.9984 
1.8451767e+3, 2.3458794e+2, -590894.56, -763929.25, 3745.7976, 0.06433081, 0.19598521, -590813.5, 50242.82, 0.0, 10.000939, 9.998618 
1.8451908e+3, 2.4458635e+2, -501587.4, -728028.9, 27690.271, 0.09705909, 0.20295477, -498250.5, 44821.96, 0.0, 10.001119, 9.998118 
1.8452042e+3, 2.545851e+2, -379772.03, -604230.06, 26009.432, 0.056861598, 0.21559183, -376797.56, 68288.36, 0.0, 10.001226, 9.998237 
1.8452187e+3, 2.6458344e+2, -251759.25, -474239.5, 138413.44, 0.015465341, 0.2260045, -185425.05, 161676.19, 0.00000009817215, 10.001343, 9.998418 
1.8452346e+3, 2.745812e+2, -115692.35, -334516.66, 86621.11, -0.051014025, 0.1047987, -85554.38, 163565.36, 0.000013983738, 10.001511, 9.998615 
1.84525e+3, 2.8457928e+2, -58913.555, -390501.44, -8215.6, -0.028438259, 0.118692085, -58710.125, 92427.43, 0.00014297603, 10.001785, 9.9974375 
1.8452646e+3, 2.9457802e+2, 118976.586, -227178.8, -31919.729, 0.07952638, 0.18431883, 121895.36, 175046.94, 0.00057426473, 10.002235, 9.997652 
1.8452792e+3, 3.045755e+2, 174420.83, -203085.0, 52472.438, 0.095912546, 0.19118163, 181578.66, 181578.66, 0.00141219, 10.002407, 9.997416 
1.8452907e+3, 3.1457335e+2, 249202.72, -31222.508, -87045.57, -0.2533854, 0.16274548, 274024.97, 274024.97, 0.002578793, 10.002259, 9.998664 
1.855021e+3, 1.245766e+2, -1689042.0, -1390326.6, 42585.977, -0.16674285, 0.20632753, -1384374.0, 334790.06, 0.13014582, 9.998531, 10.003256 
1.8550344e+3, 1.3457134e+2, -1887579.9, -1741558.3, -72100.46, -0.07149584, -0.35196698, -1711957.9, -90741.95, 0.08765755, 9.998101, 10.000017 
1.8550478e+3, 1.4458078e+2, -1681913.9, -1583133.1, -47067.81, 0.024340864, 0.5799256, -1564297.5, -41172.86, 0.04753598, 9.998752, 10.000144 
1.8550617e+3, 1.5457751e+2, -1533704.5, -1437059.4, 21819.777, 0.006131776, 0.1829291, -1432361.5, -7203.7637, 0.01851746, 9.99903, 10.000316 
1.8550754e+3, 1.6457652e+2, -1475292.0, -1441760.5, 39556.28, -0.06451783, 0.09591876, -1415563.6, -88395.37, 0.0041650403, 9.999113, 9.999582 
1.8550903e+3, 1.7457776e+2, -1330677.6, -1298604.8, 50980.637, -0.04951635, 0.20852235, -1261197.9, -32041.082, 0.00029041685, 9.99936, 9.999755 
1.8551049e+3, 1.8457755e+2, -1258628.1, -1287824.9, -6955.5005, -0.033068974, 0.25282934, -1257055.8, -125897.83, 0.0000003514084, 9.999476, 9.999114 
1.8551192e+3, 1.9457586e+2, -1150707.4, -1160074.9, -25477.99, -0.02745809, 0.120204106, -1129486.3, -96313.98, 0.0, 9.999469, 9.9993 
1.8551335e+3, 2.0457473e+2, -1047358.4, -1074188.3, -38676.16, -0.033028886, 0.091149725, -1019836.7, -84654.336, 0.0, 9.999544, 9.999202 
1.8551481e+3, 2.1457419e+2, -869739.94, -910372.6, -2384.5083, -0.01708078, 0.06088385, -869600.5, -32412.195, 0.0, 10.000012, 9.999409 
1.8551627e+3, 2.2457416e+2, -748501.1, -852126.56, -1633.1288, -0.006627732, 0.14416833, -748475.4, -9285.968, 0.0, 10.000333, 9.999005 
1.8551771e+3, 2.3457459e+2, -587144.5, -699506.75, 31254.63, -0.0018677409, 0.23018906, -579035.9, 62150.508, 0.0, 10.00069, 9.999186 
1.8551911e+3, 2.4457397e+2, -522318.38, -696421.2, 17821.15, -0.006255649, 0.2886396, -520512.94, 22679.445, 0.0, 10.000795, 9.99849 
1.8552051e+3, 2.5457206e+2, -387378.88, -556717.8, 45899.72, -0.002407518, 0.19148406, -375737.88, 69471.68, 0.0, 10.000963, 9.998682 
1.8552203e+3, 2.6456985e+2, -354098.6, -614493.1, 124453.914, 0.0027334092, 0.16375634, -304184.47, 43045.965, 0.00000008466028, 10.001036, 9.997602 
1.8552369e+3, 2.745671e+2, -222461.56, -486360.72, 115756.77, 0.013490098, 0.074444205, -178882.45, 70375.8, 0.000011476472, 10.001221, 9.997707 
1.855252e+3, 2.8456533e+2, -109932.87, -410349.97, -11425.922, -0.04488796, 0.1523444, -109498.92, 41777.91, 0.00012753508, 10.0014105, 9.997487 
1.8552648e+3, 2.9456502e+2, 86308.06, -206846.78, 10108.567, -0.17133477, 0.29194957, 86656.21, 139938.36, 0.00053210376, 10.001863, 9.997972 
1.8552798e+3, 3.0456206e+2, 73490.44, -299971.1, 24269.625, -0.1278076, 0.25144547, 75061.01, 75061.01, 0.0013364273, 10.0019245, 9.996978 
1.8552962e+3, 3.1455997e+2, 138007.3, -74928.83, -68885.94, 0.00009523305, 0.27663127, 158349.02, 158349.02, 0.0024723716, 10.0014925, 9.998713 
1.8650194e+3, 1.2456414e+2, -1933874.5, -1474796.8, 104005.086, -0.07619092, 0.33043495, -1452333.3, 266953.13, 0.1378835, 9.996764, 10.003443 
1.8650314e+3, 1.3455766e+2, -1823760.3, -1723786.8, 4980.5825, -0.19040513, -0.3554879, -1723539.3, -102189.2, 0.09301642, 9.998617, 9.999876 
1.8650477e+3, 1.4456716e+2, -1628535.9, -1541363.6, 40979.36, 0.13657628, 0.5859007, -1525124.5, -1866.883, 0.050644647, 9.999071, 10.000268 
1.8650612e+3, 1.5456417e+2, -1422042.5, -1365517.1, 35520.434, 0.038329333, 0.1987402, -1348387.4, 76900.15, 0.01991141, 9.999727, 10.000479 
1.865075e+3, 1.6456321e+2, -1391894.4, -1434774.0, 43515.742, -0.030433564, 0.11982156, -1364823.5, -37525.71, 0.0045744055, 9.999822, 9.999282 
1.8650898e+3, 1.7456399e+2, -1337239.8, -1331305.6, 17178.258, -0.010905079, 0.2159317, -1316840.1, -87549.086, 0.0003360051, 9.9994545, 9.999469 
1.8651046e+3, 1.8456355e+2, -1298877.9, -1339540.5, 24512.217, 0.020408336, 0.26195067, -1287362.5, -156067.39, 0.00000050835786, 9.999335, 9.99883 
1.8651192e+3, 1.9456182e+2, -1116795.1, -1175888.4, 22379.396, 0.02519635, 0.15236127, -1109276.4, -75966.17, 0.0, 9.999832, 9.999024 
1.8651338e+3, 2.0456062e+2, -979146.75, -1033648.9, 48503.688, 0.034820963, 0.12444863, -950763.0, -15442.326, 0.0, 9.999968, 9.99928 
1.8651484e+3, 2.145598e+2, -886934.06, -911743.3, 22380.857, 0.03187474, 0.057236508, -873750.06, -36421.7, 0.0, 9.999842, 9.999488 
1.8651631e+3, 2.2455952e+2, -795242.94, -849216.06, 27683.639, 0.03142177, 0.099556066, -783568.7, -44237.496, 0.0, 9.999918, 9.999229 
1.8651776e+3, 2.3455983e+2, -624610.1, -691171.2, -2593.8044, 0.00975665, 0.15897349, -624509.2, 16819.262, 0.0, 10.000339, 9.999418 
1.8651922e+3, 2.4455944e+2, -520406.0, -683311.4, -15243.612, 0.02768639, 0.22494642, -518991.88, 24340.027, 0.0, 10.000747, 9.9986105 
1.8652068e+3, 2.545581e+2, -359042.84, -534175.0, -35709.89, 0.07569938, 0.17586967, -352041.4, 93302.57, 0.0, 10.001118, 9.998769 
1.8652223e+3, 2.6455596e+2, -308604.5, -611070.06, 83430.96, 0.09437945, 0.16088675, -287117.63, 60247.465, 0.000000065173005, 10.001429, 9.997437 
1.8652387e+3, 2.745529e+2, -160467.03, -478335.63, 79156.766, 0.059240088, 0.06289362, -141845.97, 107551.66, 0.000009433609, 10.001738, 9.997517 
1.8652536e+3, 2.8455138e+2, -32678.357, -320705.9, 21835.854, -0.008304291, 0.150213, -31032.352, 120381.77, 0.00011541226, 10.001724, 9.997939 
1.8652664e+3, 2.9455164e+2, 47010.344, -175619.67, 14632.743, -0.14204454, 0.3057682, 47967.99, 101380.266, 0.00049646525, 10.001376, 9.998414 
1.8652813e+3, 3.045483e+2, 48149.23, -294067.6, 114126.26, -0.12559144, 0.19309446, 82717.484, 82717.484, 0.0012601693, 10.001655, 9.997145 
1.8652992e+3, 3.1454688e+2, 347780.72, 57790.17, -53245.6, 0.11689583, 0.27509725, 357248.13, 357248.13, 0.0023303956, 10.0027485, 9.999027 
1.8750167e+3, 1.2455136e+2, -1961925.4, -1542937.9, 101715.35, -0.12108179, 0.24662414, -1519550.5, 199858.56, 0.14588223, 9.996856, 10.00287 
1.875026e+3, 1.3454664e+2, -1856200.6, -1804285.3, 47890.723, -0.6360422, -0.19411065, -1775769.8, -154313.39, 0.0986057, 9.998671, 9.999302 
1.8750478e+3, 1.4455362e+2, -1623722.5, -1558095.3, 42601.242, 0.19007736, 0.5293298, -1537135.3, -13746.684, 0.053927336, 9.999175, 10.000107 
1.8750615e+3, 1.5455058e+2, -1437703.9, -1403461.8, 77058.31, 0.05271563, 0.16537662, -1341645.4, 83773.02, 0.021407956, 9.999746, 10.000213 
1.875075e+3, 1.6454922e+2, -1407865.4, -1484250.3, 16397.969, -0.067518644, 0.07818511, -1404493.9, -77060.96, 0.0050250688, 9.999896, 9.998909 
1.8750888e+3, 1.7454985e+2, -1363932.9, -1388435.6, 15838.547, -0.10272449, 0.20147829, -1356160.4, -126731.67, 0.00038988978, 9.999454, 9.999087 
1.8751037e+3, 1.845495e+2, -1272738.8, -1285291.1, 20886.094, -0.058556873, 0.2590712, -1257206.3, -125774.5, 0.000000733184, 9.999338, 9.999202 
1.87512e+3, 1.9454809e+2, -1107728.5, -1131146.0, 52274.785, 0.09204385, 0.14532423, -1065867.3, -32424.75, 0.0, 9.999727, 9.999383 
1.8751349e+3, 2.0454729e+2, -1015738.6, -1081947.1, 24579.988, 0.10757459, 0.15196125, -1007611.0, -72162.164, 0.0, 9.999837, 9.999018 
1.875148e+3, 2.1454711e+2, -938661.75, -971892.2, 29177.834, -0.020442205, 0.18209483, -921700.0, -84249.02, 0.0, 9.999637, 9.999175 
1.8751623e+3, 2.2454596e+2, -860559.44, -918012.25, 25086.033, -0.07860404, 0.17031772, -851147.7, -111685.766, 0.0, 9.999619, 9.998906 
1.8751778e+3, 2.3454359e+2, -681090.7, -749366.6, 27928.813, -0.034284234, -0.01323673, -671121.7, -29638.35, 0.0, 10.000084, 9.999138 
1.8751934e+3, 2.4454261e+2, -575064.56, -725006.3, -17058.326, 0.03552324, 0.013198748, -573148.4, -29655.432, 0.0, 10.000432, 9.998483 
1.8752088e+3, 2.545431e+2, -404403.72, -566518.3, -3588.5845, 0.14014661, 0.15752615, -404324.3, 41165.81, 0.0, 10.000859, 9.99867 
1.8752243e+3, 2.645418e+2, -330180.88, -595216.25, 79277.43, 0.11743063, 0.21785395, -308277.56, 39227.08, 0.00000004605578, 10.001151, 9.997689 
1.8752396e+3, 2.7453864e+2, -179594.08, -453443.66, 112533.14, -0.054805946, 0.07873106, -139284.27, 110253.7, 0.000008319171, 10.001452, 9.99783 
1.8752547e+3, 2.8453732e+2, -35371.05, -245132.84, -8659.725, -0.121237926, 0.13811047, -35014.152, 116536.2, 0.00010877432, 10.001371, 9.9986315 
1.8752694e+3, 2.945376e+2, 34385.39, -112748.65, 29174.268, -0.025873639, 0.22787213, 39959.03, 93503.73, 0.00047256332, 10.001003, 9.999023 
1.8752833e+3, 3.0453375e+2, 23077.504, -236069.64, 123885.44, -0.14446634, 0.009027823, 72771.64, 72771.64, 0.0011935966, 10.001201, 9.997756 
1.8753013e+3, 3.145332e+2, 258755.2, 79229.766, 39843.21, -0.02232499, 0.10575335, 267200.56, 267200.56, 0.0021831873, 10.001919, 9.999555 
1.8850158e+3, 1.2453623e+2, -1935374.9, -1640591.3, -3935.724, 0.08564966, 0.20260642, -1640538.6, 79016.52, 0.15411249, 9.997499, 10.001795 
1.8850243e+3, 1.3453391e+2, -1927664.8, -1790582.6, -40019.547, -0.631093, -0.051479086, -1779754.6, -158176.63, 0.10442951, 9.997923, 9.999775 
1.8850476e+3, 1.4453696e+2, -1677886.6, -1594019.0, 1345.195, 0.2519253, 0.25753957, -1593997.5, -70448.88, 0.057399224, 9.99888, 9.999977 
1.8850607e+3, 1.5453632e+2, -1593335.1, -1483270.8, 5279.1196, 0.057947338, 0.14283393, -1483018.1, -57461.926, 0.023018045, 9.998751, 10.000104 
1.8850744e+3, 1.6453564e+2, -1546977.0, -1563704.3, 116.901634, -0.061826084, 0.13625887, -1546976.3, -219412.38, 0.005521801, 9.998982, 9.998806 
1.885089e+3, 1.7453499e+2, -1250061.1, -1344785.6, -5136.6777, -0.058244057, 0.1372666, -1249783.4, -20212.385, 0.0004532519, 10.000267, 9.9990015 
1.8851042e+3, 1.8453418e+2, -1092010.5, -1213073.5, 13154.186, 0.0053325663, 0.15895541, -1090597.6, 40980.586, 0.0000010252129, 10.000642, 9.99906 
1.8851201e+3, 1.945331e+2, -1033966.8, -1107751.4, -15179.928, 0.11106217, 0.08797502, -1030965.9, 2620.4316, 0.0, 10.000284, 9.999263 
1.8851349e+3, 2.0453258e+2, -988932.5, -1080916.9, -29390.05, 0.12434645, 0.13322538, -980343.94, -44753.31, 0.0, 10.000082, 9.998903 
1.8851481e+3, 2.1453255e+2, -851813.6, -943490.4, -44770.504, 0.012801692, 0.19203645, -833577.4, 4014.9968, 0.0, 10.000287, 9.99906 
1.8851629e+3, 2.2453134e+2, -755406.0, -866330.6, 7140.84, -0.009633318, 0.1818656, -754948.2, -15344.185, 0.0, 10.000358, 9.998885 
1.8851787e+3, 2.3452863e+2, -635393.56, -734630.8, 728.1725, 0.04437124, -0.03004581, -635388.2, 6240.1865, 0.0, 10.000434, 9.999065 
1.8851946e+3, 2.445274e+2, -510087.9, -714028.7, 10561.182, 0.10480182, -0.015004819, -509542.44, 34098.664, 0.0, 10.000982, 9.998282 
1.8852103e+3, 2.5452775e+2, -234993.77, -515547.1, -27674.088, 0.14608522, 0.1423461, -232290.02, 213351.48, 0.0, 10.002153, 9.998396 
1.8852259e+3, 2.6452672e+2, -140649.13, -469317.2, 40514.707, 0.1250238, 0.22810058, -135728.58, 211925.84, 0.000000017635879, 10.002334, 9.997966 
1.8852414e+3, 2.7452433e+2, -157064.03, -398910.25, 37233.215, -0.010313256, 0.13548881, -151461.61, 98218.06, 0.000007223604, 10.001459, 9.998177 
1.8852568e+3, 2.8452313e+2, -58679.67, -272269.2, -48563.08, -0.037514146, 0.19381553, -48156.516, 103534.484, 0.00010058898, 10.001304, 9.998468 
1.8852721e+3, 2.945225e+2, 187115.27, -68439.0, -121491.33, 0.09859493, 0.21521328, 235653.58, 289347.88, 0.0004433926, 10.0021715, 9.998767 
1.8852852e+3, 3.045188e+2, 269132.53, -71216.74, -17150.658, -0.12215971, 0.005325351, 269994.6, 269994.6, 0.0011175777, 10.002636, 9.998238 
1.885304e+3, 3.1451836e+2, 285219.9, 76984.734, -193622.27, 0.07459172, 0.06888597, 400943.3, 400943.3, 0.0020294136, 10.002118, 9.9994755 
1.8950139e+3, 1.2451818e+2, -2047592.1, -1940170.8, 32691.445, 0.05733997, 0.14976907, -1931004.0, -211273.39, 0.16258536, 9.997803, 9.999526 
1.895025e+3, 1.345198e+2, -1798764.8, -1536868.4, 27868.094, -0.36557755, 0.11641641, -1533935.9, 87775.89, 0.110513955, 9.997923, 10.001604 
1.8950458e+3, 1.4451714e+2, -1669320.3, -1582904.6, -6798.9365, 0.14162336, -0.24441043, -1582372.9, -58634.88, 0.06108175, 9.998918, 10.000031 
1.8950585e+3, 1.5452123e+2, -1598163.0, -1496408.0, 11485.662, -0.076755315, 0.12444787, -1495127.6, -69425.65, 0.024752133, 9.998764, 10.000009 
1.8950725e+3, 1.6452232e+2, -1507451.6, -1514965.4, 24036.21, -0.19547822, 0.28849006, -1486880.4, -159188.17, 0.0060684755, 9.999119, 9.999076 
1.8950899e+3, 1.7451933e+2, -1229118.5, -1302002.0, 52552.715, -0.012868675, 0.024196535, -1201608.8, 28110.15, 0.0005270964, 10.000268, 9.999294 
1.8951057e+3, 1.8451749e+2, -1123045.0, -1280079.9, -15384.778, 0.053877987, -0.051137745, -1121552.0, 10183.556, 0.0000013718216, 10.000664, 9.998583 
1.895119e+3, 1.945171e+2, -1087156.4, -1193104.0, -20242.422, -0.056335248, 0.00082793535, -1083420.5, -49681.313, 0.0, 10.000185, 9.998718 
1.8951331e+3, 2.0451672e+2, -1013024.3, -1100665.5, -37844.883, -0.08838048, 0.089447774, -998944.3, -63200.273, 0.0, 9.999937, 9.998846 
1.8951488e+3, 2.1451621e+2, -880761.06, -958094.0, -21665.93, 0.0063158614, 0.0987719, -875104.75, -37353.41, 0.0, 10.000084, 9.999062 
1.8951643e+3, 2.2451559e+2, -785758.94, -858433.75, -6615.8647, 0.07485195, 0.13823819, -785161.56, -45403.605, 0.0, 10.0000515, 9.999087 
1.8951799e+3, 2.3451492e+2, -655663.6, -719510.9, 22313.902, 0.09601756, 0.10539073, -648638.2, -6874.787, 0.0, 10.00019, 9.999284 
1.8951954e+3, 2.4451384e+2, -587201.25, -809810.2, 36241.887, 0.059123132, 0.1478883, -581449.5, -37673.82, 0.0, 10.000689, 9.997775 
1.8952109e+3, 2.545121e+2, -312376.16, -611254.2, 33418.977, -0.024782743, 0.14545754, -308685.03, 137112.8, 0.0, 10.001871, 9.997876 
1.895227e+3, 2.6451063e+2, -170540.48, -456658.38, -4605.957, -0.031706713, 0.20512857, -170466.36, 177349.11, 0.0000000071100716, 10.002009, 9.99821 
1.8952435e+3, 2.7450973e+2, -179153.69, -370987.88, 24436.365, 0.031365372, 0.22957928, -176089.84, 73735.414, 0.0000064443307, 10.001153, 9.998511 
1.8952592e+3, 2.8450853e+2, -176591.22, -441714.7, -39839.504, 0.03507098, 0.3151369, -170734.03, -18896.117, 0.0000894982, 10.000967, 9.997471 
1.8952742e+3, 2.945061e+2, 45169.0, -275765.03, -54447.793, 0.0539501, 0.26059726, 54154.707, 108017.055, 0.00040206578, 10.001788, 9.997532 
1.8952864e+3, 3.0450332e+2, 217293.14, -61894.79, -42551.28, -0.31208545, 0.19667928, 223634.39, 223634.39, 0.0010247865, 10.002166, 9.998508 
1.8953067e+3, 3.1450254e+2, 81667.99, -124927.81, -91262.7, 0.0736209, 0.17801838, 116208.18, 116208.18, 0.001871537, 10.001255, 9.998465 
1.9050123e+3, 1.244991e+2, -1998648.9, -2034861.9, 136707.14, 0.07982694, -0.04709413, -1878854.4, -158938.27, 0.1713416, 9.998741, 9.998373 
1.9050246e+3, 1.3450545e+2, -1642653.1, -1375831.6, 10046.592, -0.22954172, 0.27340358, -1375453.9, 246397.38, 0.11689223, 9.998605, 10.002488 
1.9050443e+3, 1.4450024e+2, -1787048.4, -1676973.4, -56731.97, 0.1497415, -0.35754773, -1652968.8, -129066.22, 0.06499328, 9.998229, 9.999744 
1.9050571e+3, 1.5450515e+2, -1621426.6, -1510411.9, -73969.31, -0.062133394, 0.094059765, -1473439.4, -47580.332, 0.026617203, 9.998563, 10.000041 
1.9050719e+3, 1.6450697e+2, -1539473.5, -1504829.1, 9995.919, -0.1430237, 0.3187063, -1502151.9, -174310.02, 0.0066676727, 9.998801, 9.9993 
1.9050905e+3, 1.7450382e+2, -1316742.9, -1314342.6, 5666.4434, 0.05575494, 0.016655492, -1309750.6, -79881.79, 0.0006122247, 9.9995575, 9.999543 
1.9051066e+3, 1.8450183e+2, -1246410.3, -1346411.6, -66565.99, 0.119319014, -0.08230294, -1213157.8, -81271.164, 0.0000017786746, 9.999856, 9.998525 
1.905119e+3, 1.945016e+2, -1121096.0, -1220796.1, -71927.875, -0.049074914, -0.0020328425, -1083432.4, -49542.71, 0.0, 10.000002, 9.998633 
1.9051331e+3, 2.0450105e+2, -996216.0, -1082175.9, -28917.521, -0.08154384, 0.07695795, -987393.44, -51497.418, 0.0, 10.000043, 9.9988985 
1.905149e+3, 2.1449994e+2, -853964.2, -938712.4, -44228.047, 0.041409247, 0.020321593, -835087.3, 2821.03, 0.0, 10.000265, 9.99909 
1.9051649e+3, 2.2449945e+2, -708944.4, -828954.44, -1906.6012, 0.10828743, 0.07340689, -708914.1, 31000.084, 0.0, 10.000586, 9.999043 
1.9051804e+3, 2.3449978e+2, -527844.75, -669872.6, -21744.424, 0.077865854, 0.14626595, -524590.25, 117321.586, 0.0, 10.001084, 9.9992075 
1.9051962e+3, 2.4449904e+2, -496107.63, -739836.5, 44618.83, 0.047482494, 0.21481018, -488196.2, 55725.13, 0.0, 10.001229, 9.997981 
1.9052127e+3, 2.5449663e+2, -398871.53, -623110.25, 61560.586, 0.008389336, 0.1254042, -383082.9, 62865.348, 0.0, 10.0011635, 9.998124 
1.9052292e+3, 2.644951e+2, -261893.72, -472362.7, 59423.59, 0.031568285, 0.1499993, -246275.16, 101690.38, 0.000000016068412, 10.001232, 9.998484 
1.9052453e+3, 2.7449486e+2, -102012.64, -315556.6, 43305.79, 0.08295818, 0.21441948, -93564.625, 156404.3, 0.000006020835, 10.001538, 9.998732 
1.9052611e+3, 2.8449363e+2, -30002.064, -382652.06, 83978.53, 0.09615677, 0.29100797, -11024.994, 140956.9, 0.00007835106, 10.0020075, 9.997386 
1.9052769e+3, 2.944907e+2, 197412.22, -205930.17, 90430.75, 0.11007696, 0.19582023, 216759.1, 270771.3, 0.00035541714, 10.002854, 9.997493 
1.905289e+3, 3.0448896e+2, 358063.72, -9269.787, 127812.23, -0.27919617, 0.24466617, 398159.0, 398159.0, 0.0009238466, 10.003208, 9.998372 
1.9053102e+3, 3.144867e+2, 267313.63, -123593.805, -25528.156, 0.23187089, 0.11076795, 268973.7, 268973.7, 0.0017193838, 10.002823, 9.997762 
1.9150116e+3, 1.24481745e+2, -1998780.4, -2043445.3, 6874.199, 0.044965547, -0.13988207, -1997746.4, -277661.97, 0.18042894, 9.998791, 9.998281 
1.9150229e+3, 1.344902e+2, -1661877.3, -1416785.9, 2159.8406, -0.3110055, 0.36837676, -1416766.9, 205235.7, 0.12358676, 9.9986315, 10.002166 
1.9150423e+3, 1.4448595e+2, -1795153.6, -1738730.5, -73005.68, 0.060387343, -0.09069816, -1688675.1, -164629.44, 0.069141634, 9.998417, 9.999233 
1.9150561e+3, 1.5448806e+2, -1596531.4, -1464169.4, -53503.48, -0.06118017, 0.05943906, -1445247.3, -19219.623, 0.028615344, 9.998589, 10.000345 
1.9150719e+3, 1.644897e+2, -1509185.8, -1470230.3, 16593.705, -0.078488775, 0.2360034, -1464120.3, -136108.98, 0.0073205116, 9.9989195, 9.999479 
1.91509e+3, 1.744885e+2, -1314583.6, -1305123.1, 43511.83, 0.01160518, 0.119478665, -1266085.3, -36065.16, 0.00070924795, 9.999539, 9.999611 
1.915106e+3, 1.8448721e+2, -1222316.6, -1306495.8, -81206.31, 0.032578155, 0.07694657, -1172940.4, -40909.375, 0.0000023137907, 9.999889, 9.998789 
1.9151199e+3, 1.9448654e+2, -1112290.9, -1177557.6, -55699.473, 0.0009847842, 0.081554845, -1080369.1, -46331.582, 0.0, 9.999893, 9.998984 
1.9151342e+3, 2.0448548e+2, -1018759.44, -1095610.6, -36690.52, -0.023951273, 0.088456355, -1004055.75, -68008.15, 0.0, 9.999888, 9.998883 
1.9151491e+3, 2.1448365e+2, -884892.56, -954555.25, -24836.06, -0.017732142, -0.039014902, -876944.8, -38880.297, 0.0, 10.0000515, 9.9990835 
1.915164e+3, 2.2448288e+2, -772425.7, -887605.1, 2887.143, -0.054522116, -0.003880674, -772353.3, -32280.066, 0.0, 10.000266, 9.998798 
1.9151795e+3, 2.3448344e+2, -589417.94, -726804.94, 11937.951, -0.1262455, 0.11951748, -588388.3, 53683.563, 0.0, 10.000793, 9.998954 
1.9151963e+3, 2.4448298e+2, -488322.16, -647746.75, 27298.271, -0.09407891, 0.19699237, -483777.4, 60300.727, 0.0, 10.000896, 9.998777 
1.9152148e+3, 2.5448126e+2, -375808.25, -510717.47, 75642.14, 0.08172206, 0.08429754, -341912.7, 104181.64, 0.0, 10.000889, 9.999026 
1.9152316e+3, 2.6448017e+2, -293621.25, -463411.97, 49470.656, 0.12340793, 0.09413575, -280258.97, 67845.99, 0.000000038925435, 10.000903, 9.99871 
1.9152462e+3, 2.7447975e+2, -136900.94, -312806.56, 70153.19, -0.007962415, 0.121310204, -112349.67, 137760.52, 0.0000054500297, 10.001226, 9.998898 
1.915262e+3, 2.8447843e+2, -37786.52, -318570.8, 91245.07, -0.0447703, 0.15230636, -10740.269, 141383.2, 0.00006657065, 10.001661, 9.997993 
1.9152798e+3, 2.9447597e+2, 178629.05, -143419.9, 144184.31, 0.07990544, 0.039584335, 233748.03, 287895.25, 0.0003045757, 10.002429, 9.998126 
1.915293e+3, 3.0447564e+2, 243399.23, -142881.88, 85404.836, -0.25733215, 0.22925268, 261439.31, 261439.31, 0.0008128925, 10.00276, 9.997659 
1.915311e+3, 3.1447262e+2, 118705.23, -217371.03, 61188.914, -0.021857006, 0.0679878, 129499.13, 129499.13, 0.0015555616, 10.001973, 9.997487 
1.9250128e+3, 1.24469355e+2, -1852171.1, -1939378.6, 41955.723, 0.25508034, 0.14122927, -1835264.0, -115059.26, 0.18987963, 9.999634, 9.998601 
1.9250236e+3, 1.3447346e+2, -1681119.8, -1549544.3, -48866.06, -0.09965444, 0.3105867, -1533381.3, 88786.445, 0.13060497, 9.999084, 10.000935 
1.9250397e+3, 1.4446995e+2, -1844877.0, -1771080.5, -34391.617, -0.0037426616, 0.0046782442, -1757538.0, -233334.38, 0.07352615, 9.998136, 9.99913 
1.9250554e+3, 1.5447102e+2, -1468309.1, -1372807.0, -43007.25, -0.009960314, 0.02753657, -1356294.6, 69898.27, 0.030745408, 9.999355, 10.000601 
1.9250722e+3, 1.6447216e+2, -1373940.4, -1395667.0, 29130.762, 0.037501324, 0.13544933, -1353713.3, -25532.473, 0.008026891, 9.999817, 9.999549 
1.92509e+3, 1.7447197e+2, -1286935.0, -1287919.0, 22033.932, 0.057962213, 0.11230782, -1265387.5, -35206.58, 0.0008187495, 9.999711, 9.999648 
1.9251059e+3, 1.8447118e+2, -1245437.1, -1318293.9, -72935.34, 0.06702818, 0.11650765, -1200338.9, -68151.1, 0.0000031359323, 9.999699, 9.998806 
1.92512e+3, 1.9447006e+2, -1049908.4, -1141825.1, -95674.86, 0.034474395, 0.067466006, -989726.0, 44472.75, 0.0, 10.0002575, 9.999055 
1.9251347e+3, 2.0446892e+2, -943225.9, -1064083.0, -69349.88, 0.020535346, 0.05985093, -911670.6, 24538.863, 0.0, 10.000423, 9.998848 
1.9251494e+3, 2.1446748e+2, -832602.25, -936441.5, -87379.83, 0.013777429, -0.021339968, -782880.94, 55341.24, 0.0, 10.000435, 9.999031 
1.9251646e+3, 2.244667e+2, -763897.44, -893799.94, -20030.03, -0.020547975, 0.021145165, -760879.06, -20647.752, 0.0, 10.000405, 9.998675 
1.9251801e+3, 2.3446657e+2, -644346.3, -764752.0, -37025.94, -0.11686897, 0.09274929, -633871.7, 8365.618, 0.0, 10.0004835, 9.998837 
1.9251972e+3, 2.4446608e+2, -499486.88, -598838.2, -5316.5527, -0.059633598, 0.14561391, -499203.2, 45040.434, 0.0, 10.000559, 9.999281 
1.9252163e+3, 2.544652e+2, -360411.4, -454312.66, -14036.956, 0.15779266, 0.06998734, -358357.97, 87891.46, 0.0, 10.000749, 9.9995 
1.9252332e+3, 2.6446444e+2, -308530.13, -460822.38, -23985.045, 0.20207031, 0.08484677, -304841.97, 43413.742, 0.000000047147957, 10.000777, 9.998783 
1.925247e+3, 2.744635e+2, -210288.84, -342454.63, -53043.977, -0.011104557, 0.061502665, -191633.25, 58632.47, 0.0000044268, 10.000704, 9.998946 
1.9252633e+3, 2.844622e+2, -101323.26, -314575.06, 18386.861, -0.045470446, 0.07697038, -99749.53, 52529.336, 0.000054025306, 10.001096, 9.998279 
1.9252828e+3, 2.9446065e+2, 183303.39, -120023.61, 313.802, 0.15165643, 0.030748762, 183303.72, 237597.72, 0.0002523606, 10.002347, 9.998328 
1.9252974e+3, 3.0445963e+2, 302584.75, -131866.42, -34428.438, -0.10257908, 0.14755856, 305296.13, 305296.13, 0.0006949562, 10.003226, 9.9975195 
1.9253139e+3, 3.1445825e+2, 378525.88, -50316.684, -88266.01, 0.020531246, 0.17925878, 395982.53, 395982.53, 0.0013694272, 10.00348, 9.997958 
1.9350107e+3, 1.24456316e+2, -1785302.4, -1815424.6, -170336.9, 0.003482632, 0.22884008, -1629362.1, 90970.07, 0.1997211, 9.99975, 9.999475 
1.9350256e+3, 1.3445525e+2, -1829866.9, -1843469.0, -115672.29, 0.1468594, 0.093900576, -1720795.9, -98449.38, 0.13795441, 9.999065, 9.998843 
1.9350362e+3, 1.4445259e+2, -1798584.1, -1717629.4, -21234.787, -0.22957657, -0.043072484, -1712397.5, -188024.34, 0.07814733, 9.998304, 9.999422 
1.935055e+3, 1.5445413e+2, -1450939.9, -1354346.8, 13377.059, -0.031079844, 0.0095058335, -1352528.4, 73826.39, 0.033007, 9.999412, 10.000713 
1.9350725e+3, 1.6445422e+2, -1357047.9, -1386777.4, 9210.368, 0.017696558, 0.0103652505, -1354425.6, -26073.752, 0.008786739, 9.999919, 9.999569 
1.9350901e+3, 1.7445412e+2, -1279513.5, -1278218.1, 27277.014, 0.061258454, -0.007930943, -1251581.1, -21228.354, 0.00094156526, 9.999725, 9.999716 
1.9351059e+3, 1.8445373e+2, -1246533.4, -1327480.5, -70871.65, 0.043589678, 0.033947863, -1205392.6, -73035.67, 0.0000044945964, 9.99973, 9.998728 
1.9351196e+3, 1.944524e+2, -1077814.4, -1176869.3, -62227.516, -0.07753096, -0.021356037, -1047810.56, -13439.45, 0.0, 10.000155, 9.998867 
1.9351341e+3, 2.0445155e+2, -970215.7, -1085147.5, -85627.875, -0.113218136, 0.015956307, -924558.06, 11822.037, 0.0, 10.00027, 9.998779 
1.93515e+3, 2.1445145e+2, -873965.0, -965542.0, -73563.79, 0.00002156816, 0.07654608, -833103.5, 5277.399, 0.0, 10.0001955, 9.998945 
1.9351658e+3, 2.244507e+2, -820229.94, -930943.94, -31463.633, 0.026256489, 0.1334483, -811913.06, -71523.375, 0.0, 10.000064, 9.998584 
1.9351815e+3, 2.344491e+2, -683751.7, -791617.9, -16854.373, -0.050415013, 0.062079128, -681179.5, -38770.395, 0.0, 10.000249, 9.998764 
1.9351983e+3, 2.4444829e+2, -530355.5, -595248.4, -14986.239, -0.03812102, 0.07972696, -527061.8, 17356.021, 0.0, 10.000263, 9.999454 
1.9352168e+3, 2.544484e+2, -385074.94, -444509.25, 8325.231, 0.10794367, 0.085882895, -383930.8, 62482.89, 0.0, 10.000491, 9.999692 
1.9352333e+3, 2.644478e+2, -373406.6, -510830.78, -45074.863, 0.11211769, 0.11388865, -359941.47, -11522.861, 0.00000001782158, 10.000424, 9.998605 
1.9352473e+3, 2.7444616e+2, -266193.94, -383029.56, -39646.79, -0.07554507, 0.034405097, -254010.69, -3575.0483, 0.0000033385966, 10.000407, 9.998796 
1.9352643e+3, 2.8444523e+2, -153733.44, -360852.2, 33522.344, -0.10225186, 0.1002057, -148442.95, 4002.9353, 0.00004416703, 10.000814, 9.998104 
1.9352852e+3, 2.944448e+2, 124367.29, -153675.22, 67060.4, 0.12217704, 0.17965718, 139696.3, 194147.47, 0.00021030588, 10.001978, 9.998271 
1.9353016e+3, 3.0444133e+2, 239500.8, -149253.42, -47302.418, -0.041000146, 0.048652343, 245173.64, 245173.64, 0.0005915191, 10.002743, 9.997632 
1.9353165e+3, 3.1444174e+2, 318979.16, 47550.414, -3005.7886, -0.12836534, 0.23781727, 319012.44, 319012.44, 0.0011872258, 10.002605, 9.999016 
1.9450071e+3, 1.2443857e+2, -1964983.0, -1713722.3, -226646.69, -0.20561893, 0.032774966, -1580216.1, 140291.55, 0.20999403, 9.9976015, 10.00133 
1.945025e+3, 1.3443777e+2, -1908225.1, -1917799.6, -147171.75, 0.22187917, -0.027601311, -1765762.8, -143245.92, 0.14565058, 9.998655, 9.998552 
1.9450362e+3, 1.4443707e+2, -1562272.4, -1622657.0, 60183.22, -0.14697225, 0.0371285, -1525132.8, -609.30634, 0.083007626, 9.999981, 9.999286 
1.9450545e+3, 1.544375e+2, -1456526.5, -1412628.4, 1975.1611, -0.006461721, 0.0242773, -1412539.8, 13976.848, 0.03539992, 9.999608, 10.000214 
1.9450717e+3, 1.6443667e+2, -1502205.6, -1467228.9, -9388.502, 0.006654914, -0.03643246, -1464868.1, -136344.53, 0.009600047, 9.998963, 9.999483 
1.9450895e+3, 1.7443673e+2, -1375691.4, -1328339.4, -26593.07, 0.083580896, -0.031884827, -1316409.9, -85886.13, 0.0010784023, 9.999079, 9.999684 
1.9451061e+3, 1.8443678e+2, -1249181.5, -1292174.4, -60015.773, 0.10005036, 0.03913717, -1206928.5, -74404.56, 0.0000066792873, 9.999578, 9.999037 
1.9451201e+3, 1.9443585e+2, -956053.5, -1079135.1, -45930.66, -0.07049756, -0.00779583, -940803.06, 93730.28, 0.0, 10.000862, 9.999186 
1.9451347e+3, 2.0443512e+2, -820089.1, -1011513.5, -56754.49, -0.118732154, 0.026221491, -804527.4, 132013.22, 0.0, 10.001305, 9.998786 
1.9451503e+3, 2.1443477e+2, -761718.0, -910247.8, -72405.88, -0.0025915755, 0.0649362, -732262.7, 106281.38, 0.0, 10.000968, 9.998951 
1.9451664e+3, 2.244339e+2, -683964.75, -859159.4, 26996.467, 0.052809175, 0.10474387, -679899.1, 60654.38, 0.0, 10.000954, 9.998649 
1.9451827e+3, 2.3443225e+2, -503491.84, -702021.9, 25898.307, 0.0029518998, 0.025098506, -500169.0, 142402.73, 0.0, 10.001453, 9.99881 
1.9451997e+3, 2.4443151e+2, -395216.25, -551682.3, 30438.506, 0.01893739, 0.056938637, -389503.4, 155076.34, 0.0, 10.001316, 9.999238 
1.9452171e+3, 2.5443172e+2, -390982.6, -477869.3, -15930.102, 0.09518601, 0.09831884, -388154.0, 58422.55, 0.0, 10.000591, 9.999411 
1.945234e+3, 2.6443067e+2, -323213.38, -527606.4, -22473.42, 0.11097033, 0.11456045, -320771.56, 27814.877, 0.000000002142629, 10.0009165, 9.998261 
1.9452496e+3, 2.744282e+2, 27312.496, -292507.53, -61415.03, 0.010647219, -0.0062117865, 38700.523, 289311.22, 0.0000030022966, 10.002592, 9.998393 
1.945267e+3, 2.84427e+2, 140109.52, -246024.97, 9372.156, -0.005262677, 0.068446144, 140336.86, 292960.3, 0.00003904193, 10.002936, 9.997878 
1.9452865e+3, 2.9442716e+2, 80541.336, -194223.08, -12745.179, 0.08370758, 0.22818078, 81131.266, 135755.3, 0.00018459432, 10.001735, 9.998121 
1.9453038e+3, 3.0442262e+2, 92391.195, -216024.98, -58343.633, -0.014761094, -0.007896731, 103059.164, 103059.164, 0.00051477127, 10.0017395, 9.997635 
1.9453202e+3, 3.1442338e+2, 452153.47, 130744.664, -120302.26, -0.030370766, 0.24019086, 492194.0, 492194.0, 0.0010271312, 10.003385, 9.999228 
1.9550073e+3, 1.2442023e+2, -1702828.4, -1351603.4, 1970.5563, -0.05250571, -0.05351481, -1351592.4, 369098.63, 0.22070916, 9.997935, 10.004217 
1.9550219e+3, 1.3442118e+2, -1780559.6, -1685556.4, -52712.484, 0.0074078413, -0.053498097, -1662100.3, -39423.0, 0.15369554, 9.998776, 10.000096 
1.9550388e+3, 1.4442335e+2, -1575964.4, -1693410.9, 52455.02, 0.05156066, 0.23012964, -1555947.9, -31293.178, 0.08810495, 10.000167, 9.998709 
1.9550538e+3, 1.5442105e+2, -1530435.1, -1579450.4, -4506.892, -0.0864595, 0.054902475, -1530024.1, -103345.21, 0.037922986, 9.999661, 9.999043 
1.9550693e+3, 1.6441947e+2, -1494360.6, -1486932.5, -32444.688, -0.1843618, -0.009378045, -1457990.0, -129294.0, 0.010466628, 9.999114, 9.999278 
1.9550881e+3, 1.7441987e+2, -1381625.1, -1355201.0, -11011.026, 0.0006794962, 0.044523347, -1351214.1, -120520.305, 0.0012294218, 9.999132, 9.999478 
1.9551058e+3, 1.8442024e+2, -1192509.4, -1188742.6, -28232.42, 0.06530954, 0.12939765, -1162330.9, -29641.03, 0.000009908067, 9.999643, 9.999713 
1.9551212e+3, 1.9442026e+2, -923248.9, -982605.06, 12002.396, -0.08356238, 0.106597155, -920913.75, 113773.234, 0.0, 10.000744, 9.999904 
1.9551359e+3, 2.0441933e+2, -847980.25, -1019786.75, -84179.22, -0.16914691, 0.08004537, -813610.8, 123083.234, 0.0, 10.001085, 9.998835 
1.9551502e+3, 2.1441732e+2, -792575.1, -919892.44, -72423.164, -0.13171597, -0.05077109, -759810.0, 78902.67, 0.0, 10.000738, 9.998991 
1.9551662e+3, 2.2441618e+2, -712665.3, -849615.8, 29300.545, -0.108213685, -0.054459997, -706659.8, 34063.84, 0.0, 10.0006485, 9.998865 
1.9551834e+3, 2.3441595e+2, -528740.94, -687349.94, 57677.5, -0.089645125, -0.015012877, -509984.75, 132741.45, 0.0, 10.001178, 9.999037 
1.9552003e+3, 2.4441561e+2, -499923.44, -685607.4, -9662.969, -0.071823105, 0.08062977, -499421.94, 45308.81, 0.0, 10.000958, 9.998489 
1.9552168e+3, 2.5441495e+2, -479117.75, -604141.06, -26574.193, -0.02451356, 0.108527556, -473703.75, -26964.316, 0.0, 10.000358, 9.998647 
1.9552343e+3, 2.6441315e+2, -403092.2, -629100.0, 17170.955, 0.02341824, 0.11436333, -401795.06, -53037.293, 0.00000003752054, 10.000631, 9.997706 
1.9552532e+3, 2.744098e+2, -51024.09, -390457.2, 20128.994, 0.088044725, -0.04461949, -49834.574, 200955.16, 0.0000033251551, 10.002321, 9.997848 
1.9552708e+3, 2.8440788e+2, 44842.523, -342861.0, -48812.133, 0.040130254, 0.011997256, 50893.563, 203702.31, 0.000036409245, 10.002509, 9.9974165 
1.9552864e+3, 2.9440808e+2, 4133.376, -259084.9, -29503.748, -0.12664253, 0.21449919, 7399.8706, 62208.855, 0.00016708692, 10.001353, 9.997849 
1.9553037e+3, 3.044037e+2, 8566.741, -294911.5, -29905.072, -0.24512692, 0.01714797, 11485.547, 11485.547, 0.00045041088, 10.001307, 9.997315 
1.9553256e+3, 3.1440303e+2, 323287.7, 38106.51, -25227.855, 0.10176331, 0.14825116, 325502.22, 325502.22, 0.0008724613, 10.002683, 9.998905 
1.9650064e+3, 1.24403395e+2, -1861548.1, -1339413.9, 49238.77, 0.16803625, 0.0730714, -1334811.1, 386045.7, 0.23177752, 9.996473, 10.005023 
1.9650194e+3, 1.3440335e+2, -1858715.3, -1673296.0, -109508.82, -0.066875875, -0.048503064, -1622523.0, 329.3006, 0.1620495, 9.998122, 10.0004425 
1.9650389e+3, 1.4440659e+2, -1740812.9, -1745689.1, -60170.555, 0.13551542, 0.3089256, -1683031.1, -158211.67, 0.093428105, 9.998945, 9.998913 
1.965054e+3, 1.5440412e+2, -1510019.4, -1551429.6, -70214.52, -0.030727386, 0.10209104, -1457520.9, -30675.092, 0.04057487, 9.9997425, 9.99917 
1.9650698e+3, 1.6440234e+2, -1361675.4, -1460766.3, -17219.104, -0.09838287, 0.019670488, -1358768.5, -29902.662, 0.011385711, 10.0001955, 9.998932 
1.9650881e+3, 1.7440245e+2, -1209754.3, -1313387.0, -37857.645, 0.028337145, 0.0869004, -1197398.0, 33469.65, 0.0013940044, 10.000503, 9.9991 
1.9651055e+3, 1.8440282e+2, -1120937.1, -1122816.3, -55109.938, 0.073949546, 0.17606695, -1066758.8, 66105.37, 0.000014255441, 9.999999, 9.999995 
1.9651212e+3, 1.94403e+2, -1173570.1, -1069206.1, -73901.914, -0.041609503, 0.13958392, -1030920.1, 3938.5059, 0.0, 9.998874, 10.000213 
1.9651364e+3, 2.0440224e+2, -1135031.6, -1137720.6, -125432.875, -0.10729502, 0.10303324, -1010936.0, -74072.516, 0.0, 9.999016, 9.999022 
1.9651511e+3, 2.1440032e+2, -767549.4, -892974.25, -129990.44, -0.11748034, -0.036160834, -685934.5, 152946.11, 0.0, 10.000817, 9.999145 
1.9651674e+3, 2.2439918e+2, -588370.4, -793732.5, -31486.623, -0.08577152, -0.042737, -583651.25, 157239.48, 0.0, 10.001524, 9.998832 
1.965185e+3, 2.3439887e+2, -548294.75, -707338.4, -62260.234, -0.04967889, -0.0038800617, -526821.2, 116072.555, 0.0, 10.001069, 9.998962 
1.9652018e+3, 2.4439813e+2, -475997.7, -712849.44, -90759.17, -0.02285129, 0.073235884, -445219.28, 99682.62, 0.0, 10.001241, 9.998194 
1.9652179e+3, 2.5439703e+2, -243897.83, -531985.06, -107604.445, -0.028021418, 0.095206626, -208143.55, 238771.48, 0.0, 10.002123, 9.998318 
1.9652358e+3, 2.6439512e+2, -138012.2, -506153.2, 22931.244, 0.027881693, 0.11232493, -136589.33, 212345.27, 0.00000006167767, 10.002498, 9.997646 
1.9652559e+3, 2.7439186e+2, -58425.547, -401161.44, 13747.74, 0.13466704, -0.028179133, -57874.984, 193090.4, 0.000003603985, 10.002322, 9.997761 
1.9652736e+3, 2.8438953e+2, 21605.629, -337770.34, -20703.479, 0.1113563, -0.014525726, 22794.414, 175782.17, 0.00003430298, 10.00228, 9.997563 
1.9652885e+3, 2.9438907e+2, 177386.66, -170980.95, -12896.897, -0.08798259, 0.11597985, 177863.45, 232857.05, 0.00015136057, 10.002512, 9.997915 
1.9653058e+3, 3.0438587e+2, 187633.8, -207837.14, 80392.33, -0.21242665, 0.03768813, 203351.45, 203351.45, 0.00039140965, 10.002513, 9.99735 
1.9653277e+3, 3.143838e+2, 217716.13, -787.45026, -40669.203, 0.110437095, 0.042106766, 225040.22, 225040.22, 0.0007269925, 10.001844, 9.99908 
1.9750021e+3, 1.2438601e+2, -1921667.0, -1500506.1, -115125.18, -0.022568967, 0.1897063, -1471090.9, 249934.2, 0.24301729, 9.996823, 10.003478 
1.9750175e+3, 1.3438426e+2, -1895653.6, -1793526.5, -49185.22, -0.11738599, -0.009150397, -1773691.0, -150648.97, 0.17062773, 9.998282, 9.999552 
1.975036e+3, 1.4438654e+2, -1644213.8, -1576533.6, -57690.746, -0.117191985, 0.2512286, -1543490.4, -18471.014, 0.09895461, 9.99907, 10.000019 
1.9750546e+3, 1.543867e+2, -1407462.1, -1348046.5, -28752.746, 0.017652687, 0.17042641, -1336411.0, 90606.05, 0.04335473, 9.999776, 10.000578 
1.9750723e+3, 1.6438514e+2, -1367654.9, -1502662.4, -22363.334, 0.098599404, 0.05595894, -1364047.0, -35013.242, 0.012356995, 10.00033, 9.99858 
1.9750892e+3, 1.7438447e+2, -1247271.3, -1388981.9, -16410.98, 0.035234794, 0.09804849, -1245395.6, -14350.24, 0.0015709848, 10.000501, 9.998581 
1.9751048e+3, 1.8438439e+2, -1123813.9, -1140577.1, -112501.9, -0.040398825, 0.17834152, -1019381.8, 113666.16, 0.000019593592, 10.000038, 9.999863 
1.9751199e+3, 1.9438402e+2, -1185367.1, -1080104.1, -103296.33, -0.090387054, 0.093245946, -1016803.7, 18245.506, 0.0, 9.9988165, 10.000168 
1.9751358e+3, 2.0438372e+2, -1139111.5, -1108344.8, -75485.336, -0.11184733, 0.09246138, -1046691.25, -109641.39, 0.0, 9.998854, 9.9993 
1.9751525e+3, 2.1438378e+2, -780719.06, -865115.4, -49324.64, -0.09369884, 0.118095174, -758004.94, 81042.17, 0.0, 10.000579, 9.99945 
1.9751693e+3, 2.2438306e+2, -670016.9, -882403.0, -59584.76, -0.067465134, 0.15491058, -654442.5, 86610.766, 0.0, 10.001167, 9.998399 
1.9751866e+3, 2.3438098e+2, -610288.9, -788617.56, -59863.016, -0.008292269, 0.06287144, -592057.44, 51016.65, 0.0, 10.000857, 9.998507 
1.9752036e+3, 2.4437925e+2, -518235.8, -733295.8, -77222.695, -0.005164003, 0.062138192, -493379.8, 51711.406, 0.0, 10.000944, 9.9981985 
1.9752198e+3, 2.5437814e+2, -270586.34, -536397.25, -59453.223, -0.0589937, 0.074799515, -257894.58, 189207.56, 0.0, 10.0019, 9.998393 
1.9752377e+3, 2.6437655e+2, -180426.73, -510000.9, 799.16943, -0.06556883, 0.11427892, -180424.8, 168692.34, 0.000000055759365, 10.002134, 9.997791 
1.9752572e+3, 2.743743e+2, -88706.52, -386270.2, 27747.56, 0.010459814, 0.046065345, -86141.195, 164997.17, 0.0000036492006, 10.001995, 9.998011 
1.9752754e+3, 2.84372e+2, 1755.8378, -298676.94, -33580.797, 0.02615721, 0.02092157, 5463.5645, 158623.42, 0.00003270768, 10.001922, 9.9980135 
1.9752924e+3, 2.9436988e+2, 169310.47, -124371.26, 26082.963, -0.0016534972, -0.06521766, 171609.0, 226788.45, 0.00013942833, 10.002234, 9.99837 
1.975309e+3, 3.04369e+2, 88027.13, -278556.7, 36652.08, -0.18576536, 0.075010955, 91655.79, 91655.79, 0.00034788318, 10.001965, 9.997113 
1.9753286e+3, 3.1436583e+2, 159501.38, 77076.58, -28977.346, -0.040948443, -0.032832608, 168669.02, 168669.02, 0.0006200003, 10.001057, 9.999962 
1.9850004e+3, 1.2436421e+2, -1790312.3, -1511365.5, -161424.84, 0.05798617, -0.020703848, -1437506.3, 283732.1, 0.25424254, 9.998107, 10.002848 
1.985016e+3, 1.3436575e+2, -1790476.9, -1782378.1, -90952.625, -0.12646598, 0.15152642, -1695384.8, -72160.04, 0.17932345, 9.999144, 9.999238 
1.985035e+3, 1.4436477e+2, -1703536.5, -1544481.1, -77516.59, -0.08317485, 0.07499783, -1512952.6, 12282.343, 0.104643695, 9.9984045, 10.000577 
1.9850545e+3, 1.5436725e+2, -1476527.6, -1305523.4, -110771.09, 0.08408344, 0.16064095, -1251093.9, 176115.52, 0.046255346, 9.998968, 10.001294 
1.9850726e+3, 1.643672e+2, -1494366.0, -1464636.1, -87980.445, 0.16355506, 0.11465417, -1390273.6, -61063.227, 0.013380272, 9.999044, 9.999451 
1.9850884e+3, 1.7436677e+2, -1461409.4, -1394843.8, -10679.286, 0.023194121, 0.09258298, -1393172.4, -161954.97, 0.0017591557, 9.998615, 9.999445 
1.9851042e+3, 1.8436682e+2, -1298246.4, -1261110.8, -11887.39, -0.038418613, 0.15446672, -1257631.5, -124412.97, 0.0000256483, 9.998983, 9.999542 
1.9851205e+3, 1.9436635e+2, -926983.06, -1001290.3, -52289.2, -0.006246197, 0.09500577, -899991.9, 135231.06, 0.0, 10.0007515, 9.999783 
1.9851369e+3, 2.043659e+2, -780587.7, -946194.25, -12223.86, -0.001792473, 0.10324371, -779690.3, 157535.78, 0.0, 10.001367, 9.999206 
1.9851533e+3, 2.1436585e+2, -750862.1, -860736.94, -47654.8, -0.07020732, 0.13093401, -733073.3, 106150.13, 0.0, 10.000838, 9.999354 
1.9851702e+3, 2.2436497e+2, -735094.25, -946680.25, -54461.746, -0.05963672, 0.17011334, -721898.9, 19332.564, 0.0, 10.000855, 9.998104 
1.9851883e+3, 2.3436275e+2, -532570.56, -789051.3, -75461.695, 0.041680343, 0.09543258, -512015.6, 131239.63, 0.0, 10.001554, 9.998164 
1.9852057e+3, 2.4436086e+2, -400151.84, -659874.25, -52067.652, 0.084769525, 0.09383317, -390102.47, 155171.45, 0.0, 10.001736, 9.998292 
1.9852221e+3, 2.5435936e+2, -328691.66, -553587.06, -65814.54, 0.009785294, 0.059151284, -310847.22, 136439.7, 0.0, 10.001477, 9.9984665 
1.9852397e+3, 2.6435792e+2, -265183.34, -491302.53, 21113.895, -0.02475605, 0.08311406, -263228.75, 86070.94, 0.00000004684117, 10.001301, 9.998315 
1.9852585e+3, 2.743566e+2, -157578.27, -361882.2, 28779.678, -0.02375564, 0.06086492, -153601.56, 97709.94, 0.000003631824, 10.00128, 9.998517 
1.9852771e+3, 2.8435498e+2, -45097.875, -289686.94, 21632.46, 0.0331776, 0.06840956, -43199.348, 110126.695, 0.000030883682, 10.00149, 9.998268 
1.9852957e+3, 2.943528e+2, 136312.25, -120484.38, 5064.791, 0.14584999, -0.037895214, 136412.1, 191758.25, 0.00012822116, 10.001965, 9.998506 
1.9853123e+3, 3.0435157e+2, 170549.66, -226435.52, 42189.023, -0.055580873, 0.0573771, 174983.7, 174983.7, 0.0003141248, 10.002432, 9.997256 
1.9853307e+3, 3.1434894e+2, 404896.38, 182928.16, -97588.74, -0.0050335657, -0.0074290293, 441699.4, 441699.4, 0.00054965925, 10.002721, 9.999909 
1.9949989e+3, 1.2434256e+2, -1774388.8, -1540352.5, -143335.77, 0.0050512417, -0.076946415, -1472334.5, 249117.56, 0.26535824, 9.998384, 10.002475 
1.9950138e+3, 1.3434774e+2, -1754309.9, -1727448.3, -99737.88, -0.28498486, 0.43106693, -1640240.9, -16839.443, 0.18805622, 9.999216, 9.999584 
1.9950356e+3, 1.4434108e+2, -1672438.4, -1523823.9, -97083.336, 0.075106755, -0.23592065, -1475874.3, 49593.45, 0.11045076, 9.998586, 10.000659 
1.9950533e+3, 1.5434566e+2, -1469697.6, -1295181.8, -77711.2, 0.042980846, 0.059658617, -1265593.8, 161830.6, 0.04926506, 9.998989, 10.001354 
1.9950698e+3, 1.6434827e+2, -1332867.6, -1153917.5, -113594.31, -0.0689781, 0.1814471, -1098791.5, 230606.34, 0.014456319, 9.999142, 10.001555 
1.9950858e+3, 1.7434922e+2, -1300778.4, -1062278.8, -20896.928, -0.13198842, 0.07052024, -1060461.6, 170923.56, 0.0019582892, 9.998624, 10.001721 
1.9951032e+3, 1.843499e+2, -1325797.5, -1327915.8, 31588.207, -0.080293424, 0.09840067, -1295250.6, -161872.7, 0.000032105352, 9.999027, 9.999063 
1.9951224e+3, 1.943499e+2, -989423.8, -1102337.6, 22610.012, 0.08411668, 0.15041709, -985064.6, 50316.617, 0.0, 10.00064, 9.999136 
1.9951391e+3, 2.0434888e+2, -844498.4, -1040550.44, -47895.805, 0.058484133, 0.16124345, -833423.06, 103968.27, 0.0, 10.001191, 9.998644 
1.9951533e+3, 2.1434651e+2, -815367.56, -952475.56, -55266.33, -0.17490877, 0.008826274, -795864.7, 43545.71, 0.0, 10.000653, 9.998813 
1.9951698e+3, 2.243449e+2, -794225.75, -1000098.94, -43388.574, -0.22833255, 0.013188326, -785455.06, -44029.41, 0.0, 10.000554, 9.997883 
1.9951893e+3, 2.3434418e+2, -580612.7, -834398.8, -31078.078, -0.030853337, 0.105447575, -576862.4, 66574.586, 0.0, 10.001314, 9.997969 
1.9952075e+3, 2.4434279e+2, -452087.1, -685183.3, -75222.49, 0.06354839, 0.1610293, -429920.06, 115531.555, 0.0, 10.001376, 9.998295 
1.9952242e+3, 2.5434056e+2, -359124.63, -561494.25, -57751.305, 0.051788732, 0.046740305, -343803.75, 103666.96, 0.0, 10.001238, 9.998527 
1.9952413e+3, 2.6433903e+2, -270633.63, -423571.84, 3591.7598, -0.012635215, 0.028216036, -270549.3, 78934.11, 0.000000042002604, 10.000967, 9.9989395 
1.9952591e+3, 2.7433854e+2, -150378.72, -279871.56, 43799.74, -0.118716694, 0.020219948, -136955.34, 114530.99, 0.0000035134383, 10.001006, 9.999205 
1.9952779e+3, 2.8433812e+2, -118342.6, -360961.94, 12602.43, -0.08167283, 0.1218941, -117689.75, 35800.4, 0.00002820436, 10.001138, 9.997949 
1.9952983e+3, 2.9433718e+2, 60809.957, -197291.8, 40078.176, 0.16683373, 0.16529655, 66890.086, 122390.12, 0.00011358975, 10.001609, 9.998149 
1.9953151e+3, 3.0433342e+2, 98572.62, -218959.42, 27593.986, -0.058385618, 0.004723893, 100952.734, 100952.734, 0.0002776181, 10.001798, 9.997594 
1.9953321e+3, 3.1433305e+2, 194008.72, -64852.227, 17291.512, -0.21777417, 0.11193831, 195158.66, 195158.66, 0.00049017585, 10.001963, 9.998539 
2.0049974e+3, 1.2432334e+2, -1750782.4, -1604918.6, -77321.59, -0.0007016453, -0.027928079, -1571560.0, 150082.05, 0.27641812, 9.998936, 10.001558 
2.0050144e+3, 1.343295e+2, -1656830.4, -1608042.9, 25132.455, -0.1575187, 0.49748495, -1597412.5, 26166.62, 0.1968332, 9.999565, 10.000251 
2.0050342e+3, 1.4432152e+2, -1642640.9, -1522076.4, 45822.863, 0.098992884, -0.33662143, -1506637.5, 19019.777, 0.11636926, 9.998853, 10.000515 
2.0050518e+3, 1.5432654e+2, -1594868.5, -1384521.1, 33410.746, 0.041779615, 0.024111155, -1379341.9, 48269.043, 0.05238356, 9.998244, 10.001073 
2.0050682e+3, 1.6432971e+2, -1457499.9, -1211759.1, -35684.49, -0.082777604, 0.21315885, -1206682.1, 122897.61, 0.015589432, 9.998233, 10.001608 
2.0050849e+3, 1.7433065e+2, -1178352.5, -996774.3, -127547.91, -0.11379554, 0.088924035, -931003.06, 300563.34, 0.0021699998, 9.999386, 10.001827 
2.0051032e+3, 1.8433116e+2, -1195103.5, -1261093.0, -90298.35, -0.023855817, 0.09101985, -1131960.6, 1600.0914, 0.00003871999, 9.999938, 9.99907 
2.0051229e+3, 1.943311e+2, -1031406.75, -1127980.9, -82987.54, 0.10096901, 0.14341131, -983680.44, 51884.05, 0.0, 10.0004, 9.999075 
2.0051402e+3, 2.0433003e+2, -912735.4, -1078696.9, -126525.19, 0.0702878, 0.1586297, -844407.06, 93168.17, 0.0, 10.000769, 9.998582 
2.0051545e+3, 2.1432756e+2, -732787.56, -921372.0, -129824.66, -0.1530223, 0.0053795543, -666625.9, 172970.38, 0.0, 10.001266, 9.998736 
2.0051712e+3, 2.2432588e+2, -656143.56, -912219.25, -54246.69, -0.18752849, 0.0034277155, -645126.06, 96486.33, 0.0, 10.001436, 9.998053 
2.0051906e+3, 2.3432526e+2, -562262.0, -800040.06, -53016.203, -0.023320379, 0.08998899, -550976.8, 92645.61, 0.0, 10.001371, 9.998163 
2.005209e+3, 2.4432407e+2, -438541.38, -681742.6, -66226.94, 0.08511661, 0.15536813, -421676.4, 123958.83, 0.0, 10.001445, 9.998299 
2.005226e+3, 2.5432208e+2, -304835.2, -536381.4, -85368.875, 0.10107766, 0.06709023, -276763.75, 170888.78, 0.0, 10.001603, 9.998523 
2.0052433e+3, 2.6432043e+2, -206849.55, -441558.72, -31738.703, 0.06536025, 0.057761863, -202633.4, 147033.52, 0.000000029896977, 10.001592, 9.998523 
2.0052607e+3, 2.7431905e+2, -115513.664, -323547.6, -101578.17, -0.049026202, 0.010119399, -74142.69, 177537.27, 0.0000031274246, 10.001462, 9.998708 
2.0052795e+3, 2.8431842e+2, -55261.54, -325269.4, -110827.81, -0.023001734, 0.114535004, -15597.599, 138088.95, 0.000025154262, 10.001533, 9.998013 
2.0052995e+3, 2.943182e+2, 95942.484, -176077.66, -112443.375, 0.13212758, 0.23043467, 136404.1, 192093.8, 0.00009776422, 10.001825, 9.998194 
2.005317e+3, 3.0431426e+2, 218829.34, -57792.43, -52349.547, -0.0352275, 0.008573874, 228404.81, 228404.81, 0.00024035014, 10.002151, 9.998554 
2.0053363e+3, 3.1431445e+2, 227436.88, -101587.47, -67965.98, 0.015768401, 0.09392685, 240923.66, 240923.66, 0.0004337669, 10.002367, 9.998133 
2.0149949e+3, 1.24306776e+2, -1865073.8, -1812703.3, -315842.4, -0.24368557, 0.080271974, -1521962.5, 199843.6, 0.28771394, 9.999092, 10.000025 
2.0150176e+3, 1.34311e+2, -1600653.8, -1526832.3, 28254.068, 0.1617466, 0.32526648, -1517259.8, 106498.484, 0.20582092, 9.9996605, 10.000908 
2.0150308e+3, 1.4430588e+2, -1647087.8, -1569808.5, -6295.1626, -0.20867205, -0.23439889, -1569299.1, -43493.15, 0.12247417, 9.99902, 10.000095 
2.0150495e+3, 1.5430976e+2, -1625040.0, -1447981.4, 16467.023, -0.063766554, 0.061290182, -1446463.0, -18692.209, 0.055639356, 9.998262, 10.000608 
2.0150672e+3, 1.6431157e+2, -1567020.4, -1462211.9, -14256.648, -0.05268199, 0.22138867, -1460307.3, -130551.95, 0.016791714, 9.998342, 9.999828 
2.0150854e+3, 1.7431124e+2, -1313366.4, -1270259.6, -74015.88, -0.03896782, 0.1603107, -1214722.9, 17036.953, 0.0023981123, 9.999367, 9.999955 
2.0151035e+3, 1.8431078e+2, -1158890.5, -1205428.1, -94260.15, -0.037675716, 0.14753264, -1085069.6, 48695.09, 0.000045425786, 10.000008, 9.999426 
2.0151219e+3, 1.9430998e+2, -1010767.06, -1065225.5, -56987.477, -0.08717282, 0.08023765, -974837.7, 60934.465, 0.0, 10.000312, 9.999549 
2.0151393e+3, 2.0430942e+2, -913633.94, -1038624.3, -123142.07, -0.13434692, 0.10268686, -838036.3, 99740.85, 0.0, 10.000582, 9.998949 
2.015156e+3, 2.1430896e+2, -748102.75, -893245.25, -97397.72, -0.13612257, 0.11808727, -699212.44, 140568.72, 0.0, 10.001007, 9.999054 
2.0151734e+3, 2.243078e+2, -681368.6, -887160.4, -68972.04, -0.120253146, 0.1335257, -660390.75, 81402.086, 0.0, 10.00109, 9.998397 
2.0151918e+3, 2.3430574e+2, -566091.25, -760449.56, -39668.656, -0.060353868, 0.03910603, -558306.6, 85507.56, 0.0, 10.001149, 9.9985485 
2.0152096e+3, 2.4430433e+2, -495290.16, -714979.2, -71875.76, -0.019249842, 0.06439715, -473864.2, 71964.16, 0.0, 10.001091, 9.998238 
2.0152271e+3, 2.543037e+2, -347312.6, -565653.44, -65614.336, 0.02185746, 0.120528, -329111.8, 118722.44, 0.0, 10.001358, 9.998438 
2.0152448e+3, 2.643018e+2, -350681.44, -666529.44, -51657.72, 0.02451264, 0.15472828, -342447.34, 7406.3105, 0.0000000091701935, 10.001277, 9.997131 
2.0152633e+3, 2.7429828e+2, -258817.23, -552763.8, -82893.95, 0.026490426, 0.035716243, -237052.39, 14838.391, 0.0000023642951, 10.001179, 9.997267 
2.0152815e+3, 2.842964e+2, -109241.24, -338049.88, -118046.336, -0.014935893, 0.08504865, -59257.95, 94652.64, 0.000021595964, 10.001118, 9.998119 
2.0152992e+3, 2.94296e+2, 67789.57, -172011.4, -75317.016, -0.122594275, 0.15655108, 89482.8, 145396.88, 0.000083873885, 10.001534, 9.99837 
2.0153177e+3, 3.042938e+2, 214212.5, 70930.11, -66846.56, -0.23694487, 0.049879864, 240555.61, 240555.61, 0.00020823472, 10.001596, 9.999681 
2.0153408e+3, 3.1429553e+2, 120602.61, -59521.832, 50000.367, 0.17459258, 0.14863443, 133551.27, 133551.27, 0.0003833975, 10.001324, 9.998879 
2.0249951e+3, 1.24290675e+2, -1720728.4, -1796151.9, -191866.0, -0.18955027, 0.20995583, -1562903.0, 159059.44, 0.29983783, 10.000439, 9.999357 
2.0250174e+3, 1.3429202e+2, -1796465.3, -1642622.8, -49533.184, 0.26294225, 0.18523507, -1628054.0, -4110.7285, 0.21537028, 9.998491, 10.000487 
2.02503e+3, 1.4428887e+2, -1649676.0, -1640838.4, -84149.164, -0.17694409, -0.13094923, -1560992.1, -35020.043, 0.12892798, 9.9992895, 9.999482 
2.0250489e+3, 1.5429124e+2, -1431919.0, -1433996.1, -117738.04, -0.021118682, 0.082125895, -1315214.9, 112736.734, 0.05909158, 9.999953, 9.99991 
2.0250672e+3, 1.6429177e+2, -1387273.9, -1433775.1, -70365.42, 0.035670213, 0.18034521, -1336417.3, -6468.383, 0.018083457, 9.999872, 9.99926 
2.0250858e+3, 1.742909e+2, -1235858.4, -1291592.6, -55926.79, 0.040437657, 0.12180725, -1201240.4, 30718.486, 0.0026487417, 10.000202, 9.999381 
2.025104e+3, 1.842903e+2, -1132038.8, -1172766.4, -28164.871, 0.020160913, 0.11566471, -1117647.0, 16317.948, 0.000052423693, 10.000097, 9.999603 
2.0251216e+3, 1.9428949e+2, -1079809.3, -1081071.0, -38079.355, -0.10143151, 0.025989123, -1042355.56, -6384.275, 0.0, 9.999738, 9.99972 
2.0251392e+3, 2.0428924e+2, -1042935.7, -1077618.9, -74848.04, -0.13391201, 0.057867937, -983446.56, -45473.07, 0.0, 9.999595, 9.999148 
2.0251569e+3, 2.1428955e+2, -880797.0, -938917.4, -91079.34, -0.07654576, 0.13018493, -814254.2, 25717.875, 0.0, 10.000006, 9.999217 
2.025175e+3, 2.2428887e+2, -787398.4, -893964.3, -50851.848, -0.033196304, 0.16374914, -767026.9, -25047.32, 0.0, 10.000172, 9.998786 
2.0251927e+3, 2.3428698e+2, -680764.1, -769802.6, -46387.063, -0.03284351, 0.04648234, -660989.3, -16991.61, 0.0, 10.000167, 9.998948 
2.0252106e+3, 2.4428578e+2, -573660.25, -769940.7, -29772.68, -0.007325296, 0.077237636, -569243.56, -23233.654, 0.0, 10.000646, 9.998062 
2.0252286e+3, 2.5428525e+2, -287420.53, -568778.6, -61676.06, 0.014995064, 0.1708122, -274494.47, 173522.45, 0.0, 10.001909, 9.998149 
2.0252468e+3, 2.642832e+2, -216724.92, -625493.2, -29612.715, 0.050507598, 0.21710272, -214590.81, 135447.88, 0.000000001074916, 10.002308, 9.996913 
2.0252651e+3, 2.742794e+2, -223918.27, -556332.75, -19137.086, 0.08617982, 0.094440125, -222820.17, 29258.266, 0.0000018159459, 10.0015335, 9.997057 
2.0252833e+3, 2.842771e+2, -105066.62, -366412.25, 40431.5, 0.060918503, 0.12786312, -98954.6, 55147.48, 0.000018189116, 10.001248, 9.997869 
2.0253009e+3, 2.9427627e+2, 50555.516, -192171.52, 11478.814, -0.08826732, 0.1798864, 51097.152, 107207.2, 0.000072171526, 10.00148, 9.998244 
2.0253207e+3, 3.0427417e+2, 196166.88, 11401.521, -13272.232, -0.061876796, 0.100402184, 197115.39, 197115.39, 0.00017992329, 10.001613, 9.999305 
2.0253415e+3, 3.1427532e+2, 113368.22, -15484.233, -131196.47, 0.16613801, 0.20198806, 195103.73, 195103.73, 0.00033564074, 10.00098, 9.99938 
2.0349982e+3, 1.24272086e+2, -1682875.1, -1784342.6, 107564.13, -0.031388473, 0.049445372, -1614680.5, 107459.414, 0.3135409, 10.000682, 9.999257 
2.0350136e+3, 1.3427237e+2, -1870305.4, -1830562.8, -55199.598, -0.020399913, 0.06955875, -1791766.6, -167630.48, 0.22593072, 9.99863, 9.999136 
2.0350318e+3, 1.4427032e+2, -1664835.0, -1731463.5, -50880.805, -0.00891502, -0.033649515, -1637332.4, -111175.32, 0.13594478, 9.999539, 9.998739 
2.0350498e+3, 1.5427096e+2, -1477806.1, -1549386.0, -96073.836, 0.037035685, 0.085658655, -1411072.4, 17080.898, 0.06282382, 10.000029, 9.999054 
2.0350672e+3, 1.642702e+2, -1336425.3, -1353289.0, -86526.86, -0.0012037709, 0.07735771, -1257920.4, 72240.76, 0.019494196, 9.999982, 9.999763 
2.0350859e+3, 1.7426957e+2, -1180095.1, -1185810.0, -30584.082, -0.007919798, -0.024891594, -1152235.3, 79929.414, 0.0029308582, 10.00024, 10.000088 
2.0351042e+3, 1.8426962e+2, -1124907.6, -1167751.9, -52817.574, -0.025971036, -0.009403425, -1089333.3, 44829.316, 0.00006041413, 10.00014, 9.9996195 
2.0351218e+3, 1.9426966e+2, -1097528.0, -1094573.3, -40958.188, -0.07444148, -0.008552667, -1055065.9, -18903.895, 0.0, 9.999643, 9.999672 
2.0351394e+3, 2.042695e+2, -1067029.9, -1085388.8, -78222.77, -0.117173456, 0.035753038, -997449.8, -59285.508, 0.0, 9.99942, 9.999179 
2.0351571e+3, 2.1426925e+2, -909015.1, -945168.94, -61878.59, -0.100460805, 0.04805212, -862627.06, -22457.523, 0.0, 9.999784, 9.999281 
2.0351747e+3, 2.2426908e+2, -807954.75, -852022.3, -61497.402, -0.09666675, 0.108200066, -764663.06, -22490.47, 0.0, 9.999824, 9.999233 
2.0351927e+3, 2.3426889e+2, -690042.44, -725267.94, -28466.89, -0.074309915, 0.11468185, -674180.2, -30006.453, 0.0, 9.999907, 9.999373 
2.0352109e+3, 2.4426818e+2, -647295.9, -849701.2, -1425.7606, -0.06794362, 0.18843274, -647285.8, -101103.76, 0.0, 10.000332, 9.997666 
2.03523e+3, 2.5426662e+2, -353285.28, -650659.3, -1288.7756, -0.055313062, 0.22610949, -353279.7, 94921.12, 0.0, 10.00167, 9.9977045 
2.0352484e+3, 2.6426455e+2, -229474.69, -559101.3, -69030.57, -0.04700751, 0.26261887, -215602.11, 134620.75, 0.000000023664393, 10.001922, 9.997547 
2.035266e+3, 2.7426174e+2, -207583.28, -467263.03, -31918.25, -0.013135661, 0.1594913, -203717.63, 48531.93, 0.0000019634658, 10.00129, 9.997786 
2.0352845e+3, 2.842598e+2, -207056.58, -475975.9, 23823.416, 0.00861319, 0.21035103, -204962.39, -50693.21, 0.000016146072, 10.000831, 9.997309 
2.035304e+3, 2.9425868e+2, -39232.715, -294998.13, 44975.71, 0.04112582, 0.29656664, -31554.361, 24727.271, 0.00006227005, 10.001112, 9.997721 
2.035325e+3, 3.0425498e+2, -45203.21, -318136.6, -51872.64, 0.16510366, 0.17258693, -35676.996, -35676.996, 0.00015436458, 10.000918, 9.997351 
2.0353396e+3, 3.1425196e+2, 31601.908, 11332.389, -123627.29, -0.19284394, 0.04293279, 145509.16, 145509.16, 0.0002908974, 10.000203, 9.999905 
2.0449989e+3, 1.2425289e+2, -1966790.3, -1801618.3, 189194.03, 0.13422695, -0.015488726, -1677770.8, 44556.426, 0.3294151, 9.997971, 10.000482 
2.0450126e+3, 1.3425395e+2, -1773931.3, -1846855.0, -103352.4, -0.01483, 0.16424488, -1700797.5, -76479.414, 0.23787552, 9.999599, 9.998563 
2.0450324e+3, 1.4425068e+2, -1541213.6, -1650240.9, -15665.459, 0.07946272, -0.034908988, -1539007.4, -12655.695, 0.14372098, 10.000303, 9.998925 
2.0450501e+3, 1.5425138e+2, -1510423.6, -1539586.5, -49767.86, 0.08862092, 0.06699057, -1473145.1, -44799.098, 0.06692591, 9.999691, 9.999283 
2.0450674e+3, 1.6425079e+2, -1398678.1, -1370827.4, 40938.086, 0.05177181, 0.054954156, -1341511.1, -11159.817, 0.021061258, 9.999473, 9.999895 
2.0450862e+3, 1.7425042e+2, -1137785.4, -1157636.4, 30727.877, -0.003823071, -0.031526852, -1115419.8, 116932.1, 0.003256253, 10.000483, 10.0001745 
2.0451048e+3, 1.8425067e+2, -1054003.3, -1150277.0, -35081.223, -0.0025490175, 0.008382116, -1042576.3, 91771.74, 0.00007088071, 10.000711, 9.999463 
2.0451225e+3, 1.9425078e+2, -1011458.8, -1067207.4, -63872.21, 0.0044587734, 0.032107122, -969643.5, 66704.08, 0.0, 10.000318, 9.999526 
2.04514e+3, 2.0425044e+2, -968082.25, -1031669.44, -51233.11, -0.013191555, 0.064421415, -939579.4, -1227.6951, 0.0, 10.000052, 9.999256 
2.0451574e+3, 2.1424977e+2, -834075.75, -887742.06, -57098.28, -0.06303407, 0.020197323, -797819.8, 42539.44, 0.0, 10.0002165, 9.999465 
2.045175e+3, 2.2424951e+2, -713765.56, -833936.6, -47469.945, -0.07219848, 0.07064834, -697276.5, 45085.72, 0.0, 10.000563, 9.999019 
2.0451933e+3, 2.3424937e+2, -513231.66, -668900.94, -90081.67, -0.04099139, 0.10839074, -472016.13, 172347.11, 0.0, 10.001222, 9.999138 
2.0452122e+3, 2.4424838e+2, -495362.66, -778241.44, -43021.074, -0.009057317, 0.16823487, -488964.56, 57409.465, 0.0, 10.001369, 9.997667 
2.0452318e+3, 2.542463e+2, -465182.94, -698063.6, -40402.082, 0.00073622627, 0.15148121, -458372.8, -9975.33, 0.0, 10.0008745, 9.997761 
2.0452502e+3, 2.6424435e+2, -369669.4, -604138.56, -85406.92, 0.013758614, 0.18665129, -341858.16, 8560.099, 0.00000011200642, 10.000838, 9.997763 
2.0452675e+3, 2.7424252e+2, -161380.33, -425857.5, -124255.586, 0.023407126, 0.16403742, -112162.33, 140273.84, 0.000002326167, 10.001512, 9.997966 
2.0452857e+3, 2.8424066e+2, -92290.67, -417060.28, -47786.64, 0.045275528, 0.21778224, -85405.31, 69049.54, 0.000014696717, 10.001581, 9.997357 
2.0453052e+3, 2.9423878e+2, -95618.125, -313229.1, -33397.094, 0.07824198, 0.2275688, -90607.98, -34132.68, 0.00005375532, 10.000697, 9.997792 
2.045327e+3, 3.0423597e+2, -48920.64, -339816.5, 31363.729, 0.29726446, 0.19764894, -45577.5, -45577.5, 0.00013253847, 10.000956, 9.997185 
2.0453414e+3, 3.1423238e+2, 383189.94, 147751.45, -126644.06, -0.150832, 0.050372295, 438376.84, 438376.84, 0.0002539401, 10.002682, 9.999672 
2.0549956e+3, 1.2423279e+2, -1725293.8, -1498469.3, -17131.955, -0.09244845, 0.024863113, -1497182.5, 225344.67, 0.3476065, 9.998309, 10.003115 
2.0550136e+3, 1.3423708e+2, -1719382.8, -1757764.5, -17706.092, 0.07953408, 0.51350176, -1712462.4, -87976.44, 0.2513395, 9.999693, 9.999132 
2.0550312e+3, 1.4422971e+2, -1457751.1, -1492164.5, -39971.996, -0.1296731, -0.17441326, -1431439.6, 95118.734, 0.15236652, 10.000455, 9.999976 
2.0550491e+3, 1.5423256e+2, -1414216.3, -1357342.0, -56604.457, -0.015508585, 0.02258806, -1322433.0, 106096.375, 0.071473114, 9.999759, 10.000542 
2.0550668e+3, 1.6423355e+2, -1398765.0, -1415959.9, 53306.508, 0.0059626154, 0.1194171, -1353367.0, -22848.072, 0.022826005, 9.999653, 9.999505 
2.0550862e+3, 1.7423338e+2, -1172838.0, -1235979.3, 76715.02, -0.08179803, 0.10493621, -1121451.5, 111069.54, 0.0036400491, 10.0005, 9.999631 
2.055105e+3, 1.842332e+2, -1071211.9, -1205113.3, -62959.285, -0.09800137, 0.15508711, -1046258.94, 88264.63, 0.00008593674, 10.000779, 9.999062 
2.055123e+3, 1.9423257e+2, -1034094.75, -1108738.6, -69734.055, -0.004447022, 0.13254185, -992323.3, 44208.043, 0.0, 10.00028, 9.999265 
2.0551406e+3, 2.042318e+2, -984026.7, -1026529.5, -61892.86, -0.003632947, 0.1260363, -939838.44, -1300.2113, 0.0, 9.999888, 9.99937 
2.0551574e+3, 2.1423085e+2, -855645.9, -882190.6, -38615.094, -0.10484501, 0.03981088, -828085.9, 12457.703, 0.0, 9.999998, 9.999607 
2.0551753e+3, 2.2422978e+2, -821649.4, -978166.6, -39925.15, -0.14252889, 0.040076677, -812053.4, -69501.27, 0.0, 10.000227, 9.998188 
2.0551945e+3, 2.3422834e+2, -610285.25, -812265.8, -49977.637, -0.07017509, 0.03526093, -598595.44, 45971.395, 0.0, 10.000976, 9.998272 
2.0552139e+3, 2.442265e+2, -523374.44, -752011.2, -72586.05, -0.01326383, 0.037427757, -502277.06, 44308.215, 0.0, 10.001017, 9.998012 
2.0552331e+3, 2.5422406e+2, -475665.94, -653398.94, -41361.45, 0.043574233, -0.05855762, -466511.9, -17903.254, 0.0, 10.000601, 9.998195 
2.0552517e+3, 2.6422244e+2, -443933.5, -668437.25, -78783.336, 0.050922394, -0.0071050753, -419045.7, -68419.29, 0.00000017468948, 10.000461, 9.997498 
2.0552695e+3, 2.742216e+2, -224011.1, -499571.78, -78762.97, 0.03480756, 0.10429909, -203087.22, 49551.508, 0.0000023499456, 10.001263, 9.9975815 
2.0552869e+3, 2.8421968e+2, -139823.13, -402871.84, -88595.15, -0.046703573, 0.16115427, -112767.04, 41892.465, 0.000012296112, 10.0011215, 9.997665 
2.0553039e+3, 2.942164e+2, -118429.89, -281179.5, -40828.48, -0.14879635, -0.02621034, -108761.72, -52069.9, 0.000044415407, 10.000361, 9.998167 
2.0553264e+3, 3.0421606e+2, -65865.23, -216934.25, 61323.684, 0.09234161, 0.11378716, -44106.074, -44106.074, 0.00011238554, 10.000321, 9.998312 
2.0553455e+3, 3.1421557e+2, 140228.48, -123242.95, -122591.39, -0.090795405, 0.14716128, 188445.39, 188445.39, 0.00022337346, 10.001732, 9.998244 
2.0649944e+3, 1.2421329e+2, -1712431.5, -1407076.3, 4797.1543, -0.011298035, -0.07399767, -1407000.9, 315718.72, 0.36771804, 9.997813, 10.004378 
2.0650144e+3, 1.3421832e+2, -1629434.1, -1714077.1, 135404.73, 0.1784853, 0.47339454, -1529891.0, 94778.945, 0.26616043, 10.000433, 9.99914 
2.065031e+3, 1.4421134e+2, -1582700.4, -1563137.6, 36856.625, -0.12812857, -0.18016642, -1534786.5, -8047.8467, 0.1618756, 9.999527, 9.999907 
2.0650491e+3, 1.5421472e+2, -1344684.4, -1312911.4, -65931.0, -0.007127854, 0.06245086, -1260979.9, 167725.27, 0.07651462, 10.000199, 10.000664 
2.0650674e+3, 1.642162e+2, -1273461.9, -1366391.4, 55097.38, 0.0447155, 0.20261325, -1247852.4, 82837.99, 0.024829434, 10.000602, 9.999373 
2.065087e+3, 1.7421514e+2, -1208079.1, -1274705.8, 71363.07, -0.03724995, 0.11858132, -1162636.8, 70063.95, 0.0041003036, 10.000372, 9.9994135 
2.0651059e+3, 1.8421432e+2, -1159586.0, -1275847.5, -25448.227, -0.03700296, 0.13135214, -1154259.6, -19550.277, 0.000108260756, 10.000304, 9.998792 
2.065124e+3, 1.94214e+2, -919326.3, -1076190.3, -58317.51, 0.035897285, 0.16230726, -900021.3, 136693.64, 0.0, 10.001169, 9.999054 
2.0651416e+3, 2.0421313e+2, -768824.94, -966657.44, -46524.813, 0.03891844, 0.17677934, -758429.8, 180293.13, 0.0, 10.001557, 9.99897 
2.0651582e+3, 2.142114e+2, -662514.3, -840722.6, -95903.4, -0.08916551, 0.058174968, -620710.06, 220025.22, 0.0, 10.0015545, 9.999143 
2.0651762e+3, 2.2420974e+2, -637385.8, -903992.75, -54817.43, -0.11155942, 0.032953735, -626554.75, 116194.21, 0.0, 10.001551, 9.998062 
2.0651963e+3, 2.3420808e+2, -530390.06, -783844.6, -41184.664, -0.0064542904, 0.015072402, -523865.78, 120899.41, 0.0, 10.001575, 9.998174 
2.0652159e+3, 2.4420619e+2, -451579.56, -704666.0, -41927.547, 0.06922936, 0.014373569, -444814.47, 101968.59, 0.0, 10.001452, 9.998128 
2.0652343e+3, 2.5420383e+2, -381833.53, -589368.56, -68363.695, 0.07374294, -0.092311405, -361338.06, 87467.086, 0.0, 10.001166, 9.998358 
2.065253e+3, 2.6420215e+2, -330967.8, -599883.56, -39178.53, 0.087155156, -0.05826583, -325376.13, 25446.668, 0.00000012472299, 10.001156, 9.997646 
2.0652717e+3, 2.7420148e+2, -161611.27, -443187.56, -33927.754, 0.10623922, 0.057621997, -157580.94, 95253.45, 0.0000018192295, 10.001585, 9.997812 
2.065289e+3, 2.8420025e+2, -63679.6, -328539.2, -37806.938, 0.055827137, 0.15009484, -58388.61, 96460.44, 0.000008845643, 10.001465, 9.998026 
2.0653045e+3, 2.9419783e+2, -87621.445, -235785.94, -55230.2, -0.11296859, 0.02310079, -69299.4, -12426.37, 0.000033872344, 10.0004425, 9.998445 
2.0653257e+3, 3.0419695e+2, 41301.895, -94535.54, 159964.34, 0.000620869, 0.06263138, 147169.1, 147169.1, 0.00009226449, 10.00067, 9.999027 
2.0653494e+3, 3.141977e+2, 225056.33, -75154.08, -208043.6, 0.12338304, 0.15371478, 331492.94, 331492.94, 0.00019361054, 10.002223, 9.998371 
2.0749931e+3, 1.2419875e+2, -1757610.8, -1481677.9, -178897.27, -0.029137969, 0.05699682, -1393726.3, 329135.4, 0.38886976, 9.998101, 10.003632 
2.0750147e+3, 1.3419732e+2, -1669112.3, -1837780.4, 150908.11, 0.10083715, -0.0024561565, -1580572.1, 44301.91, 0.28190908, 10.000549, 9.998191 
2.0750315e+3, 1.4419559e+2, -1632098.6, -1704061.4, -2416.474, -0.1199392, -0.020012338, -1632017.6, -105125.47, 0.17213808, 9.999691, 9.998863 
2.0750493e+3, 1.541978e+2, -1392472.3, -1420287.6, -29345.346, -0.036577273, 0.1918789, -1373905.8, 54968.758, 0.08207624, 10.000246, 9.999845 
2.0750679e+3, 1.6419853e+2, -1242229.0, -1334861.5, 37206.785, -0.019290831, 0.29197693, -1229135.3, 101732.37, 0.027111659, 10.00075, 9.999519 
2.0750882e+3, 1.7419568e+2, -1195331.8, -1252943.4, 68252.07, -0.00016859286, 0.01619155, -1150055.8, 82835.17, 0.0046569863, 10.000401, 9.999544 
2.0751074e+3, 1.8419415e+2, -1161775.0, -1300630.9, -15873.888, 0.009379401, -0.041661162, -1159983.4, -25078.941, 0.00014131474, 10.00039, 9.99858 
2.0751253e+3, 1.94195e+2, -949124.7, -1119501.1, -18406.852, -0.00013005114, 0.13265821, -947158.8, 89740.53, 0.0000000002137382, 10.001087, 9.998797 
2.0751426e+3, 2.0419434e+2, -860000.44, -1117175.6, -63310.816, -0.06110548, 0.22147016, -845259.6, 93647.664, 0.0, 10.00138, 9.998025 
2.0751594e+3, 2.141913e+2, -761466.6, -999242.2, -80939.69, -0.15424986, 0.070828475, -736529.75, 104405.836, 0.0, 10.001347, 9.998155 
2.0751777e+3, 2.2418922e+2, -660222.06, -867254.4, -62137.766, -0.14792806, 0.035795093, -643004.25, 99949.77, 0.0, 10.001201, 9.998476 
2.0751984e+3, 2.3418841e+2, -537082.6, -725339.2, -23841.143, 0.0155504225, 0.046428964, -534110.3, 110849.414, 0.0, 10.001283, 9.998709 
2.0752175e+3, 2.4418713e+2, -519647.84, -752691.75, -64265.98, 0.055033848, 0.08496508, -503100.34, 43870.207, 0.0, 10.001058, 9.997985 
2.0752347e+3, 2.5418508e+2, -429239.0, -635128.56, -63254.777, -0.04530925, 0.03058362, -411358.3, 37632.258, 0.0, 10.000947, 9.998145 
2.075253e+3, 2.6418322e+2, -352500.97, -553878.56, -42941.27, -0.05979871, 0.034712356, -343726.6, 7283.198, 0.000000021824269, 10.00078, 9.998139 
2.0752732e+3, 2.7418178e+2, -164654.63, -371701.4, -1238.5988, 0.086222, 0.011817139, -164647.22, 88379.65, 0.00000084431264, 10.001266, 9.998454 
2.0752916e+3, 2.8418162e+2, -118333.46, -326022.94, -95536.6, 0.120028265, 0.15855923, -81071.96, 73958.87, 0.000005133315, 10.000984, 9.998264 
2.0753063e+3, 2.941822e+2, -126482.945, -259806.95, -72289.51, -0.0061663925, 0.32111877, -94810.84, -37784.55, 0.000023723636, 10.000182, 9.998409 
2.0753245e+3, 3.0417842e+2, -54737.86, -121023.84, 184254.83, -0.22970527, 0.067532934, 99331.05, 99331.05, 0.00007269807, 9.999996, 9.999137 
2.0753513e+3, 3.1417993e+2, 144134.25, 25993.223, -79070.8, 0.03766588, 0.18404163, 183762.86, 183762.86, 0.00016065389, 10.001175, 9.999518 
2.0849922e+3, 1.24181755e+2, -1847038.4, -1655431.3, -238245.94, 0.065850005, 0.21913546, -1494448.0, 228578.94, 0.40993002, 9.998399, 10.001881 
2.0850146e+3, 1.3417852e+2, -1783891.4, -1872570.9, 13216.219, 0.12253985, -0.051220566, -1781963.6, -156905.23, 0.29801235, 9.999575, 9.998389 
2.0850322e+3, 1.4417851e+2, -1521199.3, -1659866.4, -56573.707, -0.03463221, 0.09544973, -1501046.9, 26013.19, 0.18298064, 10.000569, 9.998734 
2.08505e+3, 1.5417917e+2, -1408606.0, -1475348.8, -70462.26, 0.01638178, 0.18774588, -1364012.1, 65045.375, 0.088167645, 10.000341, 9.999431 
2.0850688e+3, 1.6417935e+2, -1355040.0, -1432134.6, 24135.71, 0.056157257, 0.27458948, -1348107.4, -17050.902, 0.029713616, 10.000117, 9.999175 
2.085089e+3, 1.7417674e+2, -1154695.0, -1265536.3, -11383.454, 0.030413477, 0.05221961, -1153538.0, 79540.19, 0.005333032, 10.0007925, 9.99929 
2.0851079e+3, 1.8417501e+2, -1103061.0, -1271345.6, -75385.59, 0.031840604, -0.012450194, -1074230.3, 60863.35, 0.00018960002, 10.000797, 9.998592 
2.0851262e+3, 1.9417514e+2, -1037444.56, -1163144.1, -83501.586, 0.025892407, 0.09029245, -995783.06, 41310.957, 0.000000020895914, 10.000503, 9.9987755 
2.0851438e+3, 2.0417437e+2, -972159.7, -1159030.0, -53698.598, -0.0075768568, 0.16967702, -957828.1, -18725.797, 0.0, 10.000599, 9.998096 
2.085161e+3, 2.141721e+2, -724440.2, -970521.6, -28077.865, -0.102241315, 0.087535806, -721277.2, 119846.8, 0.0, 10.00157, 9.998232 
2.0851797e+3, 2.2417027e+2, -578997.25, -831789.3, 13562.432, -0.078646235, 0.07488735, -578271.7, 164868.5, 0.0, 10.001756, 9.998463 
2.0852e+3, 2.3416902e+2, -584079.2, -749733.4, -19072.268, 0.075813144, 0.045404397, -581911.7, 63237.824, 0.0, 10.000944, 9.9987135 
2.0852192e+3, 2.4416767e+2, -545502.6, -761501.9, -16184.422, 0.13261196, 0.07157739, -544296.7, 2864.5554, 0.0, 10.000858, 9.998019 
2.0852366e+3, 2.5416595e+2, -292925.16, -570457.2, -26314.074, 0.029520798, 0.05472869, -290452.25, 158726.39, 0.0, 10.001879, 9.998142 
2.0852546e+3, 2.6416436e+2, -180871.67, -467403.44, -12431.184, -0.005978568, 0.08314764, -180333.36, 170862.3, 0.0, 10.001939, 9.998178 
2.0852734e+3, 2.7416298e+2, -252351.92, -413496.06, -48806.094, 0.030103471, 0.06122566, -238722.66, 14489.38, 0.000000115745564, 10.000656, 9.998462 
2.085292e+3, 2.8416222e+2, -172039.75, -350042.25, -114282.09, 0.10815026, 0.15034707, -116190.67, 39029.813, 0.0000020138657, 10.000577, 9.998303 
2.0853093e+3, 2.94162e+2, 147484.39, -110803.98, -145016.98, 0.17475668, 0.23257, 212526.06, 269748.16, 0.000014504671, 10.002005, 9.998551 
2.0853262e+3, 3.0415973e+2, 301727.53, 59293.17, 157188.38, -0.16519031, 0.11239811, 379009.2, 379009.2, 0.00005340342, 10.002343, 9.999276 
2.0853522e+3, 3.1416082e+2, 95498.586, -74275.37, -168513.38, 0.05165075, 0.20356666, 199298.0, 199298.0, 0.0001257325, 10.001031, 9.998958 
2.0949909e+3, 1.2415795e+2, -1977684.9, -1949223.9, 238955.55, -0.0055384752, -0.01154004, -1724075.5, -817.6128, 0.42994058, 9.998519, 9.999066 
2.0950149e+3, 1.34162e+2, -1668962.6, -1648516.4, 74281.08, 0.1327216, 0.34831786, -1583758.3, 41464.145, 0.31401625, 9.999671, 9.999957 
2.0950328e+3, 1.4415987e+2, -1459081.1, -1551592.6, -63536.36, -0.11101212, 0.15293206, -1426746.4, 100498.46, 0.19429262, 10.000752, 9.999424 
2.0950505e+3, 1.5415879e+2, -1402063.3, -1477457.6, -75663.63, -0.013263291, 0.0610286, -1355226.0, 74028.73, 0.094824284, 10.000414, 9.999385 
2.0950699e+3, 1.6415867e+2, -1383308.3, -1534103.6, 19550.383, 0.07696392, 0.16486005, -1380814.9, -49558.266, 0.032688897, 10.000298, 9.99839 
2.0950888e+3, 1.7415833e+2, -1194124.4, -1354045.1, 21296.172, -0.074918605, 0.23598629, -1191337.0, 41925.258, 0.0061590113, 10.000816, 9.9986725 
2.0951074e+3, 1.8415694e+2, -1075719.8, -1235449.0, -101145.266, -0.1543518, 0.2238579, -1026709.5, 108566.945, 0.00026052183, 10.000882, 9.998799 
2.0951265e+3, 1.941545e+2, -1030513.3, -1138751.9, -86033.45, -0.026131704, 0.04933349, -982992.75, 54304.992, 0.00000016154512, 10.000458, 9.998965 
2.0951453e+3, 2.041533e+2, -935955.5, -1044625.9, -36518.027, 0.01751135, 0.035260327, -924824.06, 14483.123, 0.0, 10.000429, 9.998962 
2.0951633e+3, 2.1415365e+2, -698860.5, -853494.0, 18740.934, -0.06511402, 0.11889108, -696621.56, 144680.63, 0.0, 10.001305, 9.999156 
2.095182e+3, 2.2415268e+2, -659175.44, -914993.94, -26096.682, -0.08166069, 0.15831795, -656540.4, 86769.516, 0.0, 10.001397, 9.998063 
2.0952007e+3, 2.3414984e+2, -655753.9, -841321.2, -35200.324, 0.027709393, 0.021793166, -649301.1, -3965.3154, 0.0, 10.000699, 9.998202 
2.09522e+3, 2.4414773e+2, -591435.2, -770217.0, 2227.2124, 0.102446854, -0.0064950506, -591407.44, -44051.62, 0.0, 10.000486, 9.998137 
2.09524e+3, 2.5414643e+2, -319681.94, -562581.8, 26930.127, 0.14951825, -0.0032713136, -316732.03, 132637.66, 0.0, 10.001601, 9.99833 
2.0952576e+3, 2.6414543e+2, -272782.56, -561969.3, -71140.41, 0.04366054, 0.09182019, -256229.42, 95152.12, 0.0, 10.001536, 9.997718 
2.095272e+3, 2.7414462e+2, -328533.28, -518381.63, -79395.95, -0.2092707, 0.18433999, -299706.4, -46313.465, 0.0, 10.000431, 9.997846 
2.0952903e+3, 2.8414202e+2, -256317.48, -419432.6, -86704.625, -0.16152751, 0.13627234, -218840.06, -63421.754, 0.00000039293647, 10.000136, 9.998037 
2.0953123e+3, 2.941376e+2, 104555.02, -117351.17, -61586.633, 0.24463283, -0.1942288, 120501.51, 177957.9, 0.000007667558, 10.001651, 9.998677 
2.0953292e+3, 3.041396e+2, 170073.83, -8558.889, 93101.45, -0.139779, 0.098708935, 209774.11, 209774.11, 0.000037309022, 10.001526, 9.999175 
2.0953526e+3, 3.141399e+2, -156755.6, -339980.0, 6221.3096, -0.09612333, 0.14000891, -156544.6, -156544.6, 0.00009614077, 10.000028, 9.997571 
2.1049917e+3, 1.2413372e+2, -1688396.0, -1967583.9, 188358.14, 0.059500776, 0.03242004, -1593543.3, 129952.62, 0.44859928, 10.001854, 9.997464 
2.1050158e+3, 1.3413848e+2, -1683363.9, -1502631.5, -69127.016, 0.32885402, 0.24756205, -1479223.4, 146229.61, 0.3298663, 9.998656, 10.001829 
2.1050322e+3, 1.4413878e+2, -1767886.3, -1676099.9, -187794.16, -0.10693976, 0.19244996, -1528672.5, -1221.2444, 0.20615475, 9.998386, 9.999669 
2.1050508e+3, 1.5413766e+2, -1419597.9, -1440232.0, -209004.6, 0.0039994097, 0.05338661, -1220655.9, 208805.77, 0.10215144, 10.000156, 9.9998045 
2.1050704e+3, 1.6413724e+2, -1344899.1, -1484415.1, -56206.42, 0.10519167, 0.09326001, -1325072.8, 6393.26, 0.036114734, 10.000447, 9.998637 
2.1050896e+3, 1.7413779e+2, -1319011.5, -1384618.1, -14421.807, -0.031033017, 0.22330323, -1315981.3, -82517.99, 0.007176738, 9.999827, 9.998926 
2.1051084e+3, 1.841371e+2, -1214877.1, -1284564.5, -64503.6, -0.075703405, 0.25996718, -1176407.9, -40937.902, 0.0003661867, 9.9998455, 9.998964 
2.1051277e+3, 1.9413446e+2, -917152.06, -1066529.9, -80787.74, 0.023017596, 0.05267198, -881817.8, 155674.61, 0.00000091193453, 10.001161, 9.999123 
2.1051465e+3, 2.0413318e+2, -768315.4, -961573.56, -46174.063, 0.06893456, 0.017890194, -757850.0, 181652.77, 0.0, 10.001525, 9.999028 
2.1051648e+3, 2.1413356e+2, -767360.9, -890117.6, -80616.54, -0.007905709, 0.1036284, -727416.3, 114082.08, 0.0, 10.000798, 9.999181 
2.1051833e+3, 2.2413278e+2, -752114.6, -932135.9, -110657.234, -0.010376842, 0.15247692, -699482.56, 44022.207, 0.0, 10.000664, 9.998285 
2.1052021e+3, 2.3413023e+2, -492925.94, -735705.1, -102233.49, 0.05867168, 0.02355947, -455611.03, 189916.63, 0.0, 10.001719, 9.998422 
2.1052215e+3, 2.4412838e+2, -398739.22, -670249.06, -29577.426, 0.14014985, 0.0061668064, -395554.5, 151991.16, 0.0, 10.001753, 9.998232 
2.105241e+3, 2.541274e+2, -514959.3, -649812.1, -41428.12, 0.18801793, 0.038818777, -503249.06, -53691.574, 0.0, 10.000219, 9.99841 
2.1052589e+3, 2.6412636e+2, -458317.8, -633379.25, -67432.41, 0.108609796, 0.11887578, -435355.28, -83785.89, 0.0, 10.000169, 9.997894 
2.1052739e+3, 2.7412483e+2, -58170.85, -373083.66, -57210.246, -0.14814618, 0.12635921, -48099.55, 205485.98, 0.0, 10.002214, 9.997991 
2.1052922e+3, 2.8412205e+2, 173311.16, -210579.16, 1181.2645, -0.122166745, 0.05540822, 173314.78, 328925.88, 0.00000006547354, 10.003124, 9.998004 
2.1053135e+3, 2.9411805e+2, 200980.48, -88901.51, -33176.945, 0.1866685, -0.2181381, 204729.11, 262374.72, 0.000004738257, 10.002435, 9.998475 
2.1053313e+3, 3.041201e+2, 159574.27, -139099.47, 73858.22, -0.061059337, 0.14485732, 176840.33, 176840.33, 0.00002905632, 10.00196, 9.9980755 
2.105354e+3, 3.141176e+2, 109278.164, -149813.6, -120198.836, -0.010109776, 0.031472053, 156452.11, 156452.11, 0.00007991688, 10.001553, 9.998149 
2.114991e+3, 1.2410634e+2, -1740451.8, -2203746.3, -199390.22, -0.32894072, 0.078222655, -1666457.1, 57310.473, 0.46656317, 10.002104, 9.995618 
2.1150164e+3, 1.3410741e+2, -1535775.4, -1267932.9, -112165.36, 0.46347773, -0.39494917, -1227166.0, 398590.06, 0.34608045, 9.998784, 10.00423 
2.1150303e+3, 1.4411525e+2, -1744017.0, -1689931.3, -124983.78, -0.21795134, 0.20952557, -1589098.1, -61418.848, 0.21890919, 9.998648, 9.999451 
2.1150509e+3, 1.5411577e+2, -1336165.3, -1306359.1, -136473.33, -0.07175757, 0.16787262, -1183977.5, 245700.02, 0.110347085, 10.000304, 10.0006895 
2.1150698e+3, 1.6411482e+2, -1232339.4, -1285479.3, -94230.51, -0.052757163, 0.03759842, -1161004.5, 170682.55, 0.040102176, 10.000616, 9.999942 
2.1150903e+3, 1.7411502e+2, -1236905.9, -1227896.8, -29400.426, 0.022207303, 0.022095062, -1202657.9, 31023.703, 0.008443992, 9.999874, 9.999986 
2.1151103e+3, 1.841154e+2, -1199069.0, -1264171.4, -41726.5, 0.075699486, 0.10282694, -1178698.8, -43023.406, 0.00052604213, 9.999898, 9.999076 
2.1151294e+3, 1.9411488e+2, -929045.1, -1062940.1, -24500.348, 0.03787198, 0.10080144, -924702.9, 112976.9, 0.0000034897541, 10.001044, 9.999198 
2.1151474e+3, 2.041138e+2, -854719.1, -1082563.1, -84538.72, -0.029909922, 0.111649826, -826778.44, 112912.63, 0.0, 10.001278, 9.998316 
2.1151653e+3, 2.1411201e+2, -861420.56, -1021166.7, -97553.695, -0.06653603, 0.06152787, -815212.6, 26498.271, 0.0, 10.000547, 9.998394 
2.115184e+3, 2.2411081e+2, -758568.1, -865096.25, -89210.87, -0.05705101, 0.078439236, -707930.1, 35792.586, 0.0, 10.000311, 9.998917 
2.1152039e+3, 2.3411003e+2, -477828.47, -645726.44, -47089.457, 0.03566001, 0.051903274, -465523.38, 180203.23, 0.0, 10.001459, 9.9991665 
2.1152227e+3, 2.4410932e+2, -456512.25, -695136.7, -92421.17, 0.052791215, 0.105032936, -424903.72, 122829.555, 0.0, 10.001349, 9.998247 
2.1152398e+3, 2.541086e+2, -547905.44, -671667.0, -85962.1, 0.017611688, 0.16178577, -503867.78, -54123.332, 0.0, 10.000027, 9.998343 
2.1152583e+3, 2.6410693e+2, -471359.66, -568305.94, -14606.036, 0.003066557, 0.15466778, -469206.9, -117445.73, 0.0, 9.999787, 9.998516 
2.1152784e+3, 2.7410364e+2, -39722.723, -270414.06, 40342.574, 0.031055491, -0.093488954, -32871.23, 220917.38, 0.0, 10.00194, 9.998822 
2.1152964e+3, 2.8410178e+2, 85815.76, -278178.25, -36081.85, -0.04799184, -0.11503872, 89357.99, 245161.83, 0.00000005479561, 10.002633, 9.997777 
2.1153128e+3, 2.9410213e+2, 111692.51, -211928.92, -30879.934, -0.17282014, 0.07601411, 114612.72, 172413.19, 0.0000044706885, 10.002145, 9.997776 
2.1153323e+3, 3.0410045e+2, -138184.92, -526964.2, 28962.8, -0.23048718, 0.23175482, -136039.14, -136039.14, 0.000027145721, 10.001047, 9.995815 
2.1153562e+3, 3.1409433e+2, 44223.47, -15243.922, -13531.912, -0.026012678, -0.077583045, 47157.883, 47157.883, 0.00007500438, 10.000479, 9.999556 
2.1249934e+3, 1.240916e+2, -1735501.3, -1582396.8, -230782.83, -0.15806463, 0.60288185, -1415801.0, 308112.72, 0.48543465, 9.999036, 10.002656 
2.1250159e+3, 1.3408475e+2, -1458313.8, -1285399.3, 6170.649, 0.49015835, -0.561731, -1285179.3, 340799.34, 0.3637423, 10.000007, 10.003531 
2.1250296e+3, 1.4409468e+2, -1751367.6, -1706450.9, 88109.21, -0.136209, 0.2982137, -1637982.9, -110101.32, 0.23315269, 9.998643, 9.999341 
2.1250507e+3, 1.5409471e+2, -1442111.8, -1355116.1, -6226.124, -0.03620887, 0.20846725, -1354672.8, 75212.25, 0.1197026, 9.999434, 10.000753 
2.1250702e+3, 1.6409338e+2, -1322240.9, -1320505.9, -54973.953, -0.019140963, 0.025840575, -1266392.6, 65506.004, 0.044803485, 9.999924, 10.000047 
2.1250911e+3, 1.7409329e+2, -1175784.1, -1196443.1, -96044.98, 0.087480955, -0.0162379, -1089514.8, 144379.75, 0.01004214, 10.000292, 10.000009 
2.125111e+3, 1.8409373e+2, -1150163.5, -1213542.1, -100083.45, 0.16148633, 0.05981779, -1076872.3, 59014.746, 0.0007722133, 10.000111, 9.999318 
2.1251298e+3, 1.940936e+2, -1088488.1, -1114385.1, -92218.81, 0.056342483, 0.06869538, -1008313.25, 29574.117, 0.000010944595, 9.999818, 9.999447 
2.1251482e+3, 2.0409276e+2, -1045752.4, -1168494.4, -107612.586, -0.014241093, 0.091967545, -983240.94, -43344.78, 0.0, 9.99996, 9.998346 
2.1251662e+3, 2.1409108e+2, -788864.7, -980804.6, -95921.484, -0.046797022, 0.047099248, -749146.9, 92768.73, 0.0, 10.001045, 9.998407 
2.1251851e+3, 2.2408989e+2, -610002.0, -781317.0, -47146.457, -0.009238001, 0.06039061, -597884.25, 146043.19, 0.0, 10.001267, 9.999036 
2.1252048e+3, 2.3408926e+2, -641076.75, -707812.06, -74415.25, 0.05853156, 0.034492906, -592890.56, 53039.58, 0.0, 10.000267, 9.999316 
2.1252234e+3, 2.4408872e+2, -631938.75, -754846.9, -121681.39, 0.06870249, 0.08971266, -557073.5, -9138.453, 0.0, 10.000068, 9.998443 
2.12524e+3, 2.540882e+2, -383338.97, -573099.1, -135419.38, -0.015527501, 0.15437806, -312869.0, 137076.0, 0.0, 10.001099, 9.998501 
2.125259e+3, 2.6408678e+2, -193733.86, -409813.9, -11293.432, 0.014930615, 0.15868342, -193145.22, 158814.14, 0.0, 10.0015955, 9.998727 
2.1252805e+3, 2.7408385e+2, -137717.8, -295356.63, -35820.86, 0.12782426, -0.06445308, -129959.88, 124023.45, 0.0, 10.001192, 9.999003 
2.1252993e+3, 2.8408253e+2, -74825.85, -361566.88, -113826.945, 0.05715827, -0.044041257, -35134.41, 120859.57, 0.000000117451826, 10.001511, 9.997774 
2.1253149e+3, 2.9408306e+2, 200663.42, -174891.63, -135561.08, -0.20479049, 0.17936045, 244482.98, 302472.4, 0.0000050467984, 10.002762, 9.997747 
2.1253352e+3, 3.0407944e+2, 176676.75, -404056.25, 28293.768, -0.10796242, 0.14939469, 178051.98, 178051.98, 0.00002697455, 10.003213, 9.995688 
2.1253584e+3, 3.140759e+2, 210966.69, 102748.67, -40820.8, 0.121718325, 0.13551326, 224637.63, 224637.63, 0.00007158717, 10.001323, 10.000045 
2.1350141e+3, 1.3407171e+2, -1646006.4, -1672220.9, -65992.945, 0.2984902, -0.0937434, -1591831.6, 34277.688, 0.38411817, 10.000073, 9.999537 
2.1350293e+3, 1.4407662e+2, -1739948.6, -1729647.4, 54564.402, -0.094684176, 0.44138077, -1679991.1, -151928.86, 0.24951555, 9.998837, 9.999083 
2.1350506e+3, 1.5407433e+2, -1472508.0, -1437229.3, 30696.168, -0.040211014, 0.17695996, -1419465.3, 10620.623, 0.13052814, 9.999553, 10.000064 
2.1350713e+3, 1.6407281e+2, -1362517.6, -1455014.4, -57975.453, 0.0067973495, 0.059343368, -1334603.5, -2502.5688, 0.050404422, 10.000132, 9.999012 
2.1350911e+3, 1.740725e+2, -1242362.8, -1341909.3, -75086.13, 0.03229039, 0.098121025, -1202051.0, 32051.822, 0.012084308, 10.000321, 9.99899 
2.13511e+3, 1.8407193e+2, -1117080.1, -1166617.8, -122955.266, 0.0014366881, 0.11327661, -1016423.7, 119682.32, 0.001155736, 10.000201, 9.999597 
2.135129e+3, 1.9407064e+2, -1067914.1, -1063649.6, -92029.28, -0.05577172, -0.032376446, -973727.9, 64386.664, 0.000030850606, 9.999777, 9.999818 
2.1351478e+3, 2.0407005e+2, -1025852.8, -1079586.3, -85353.27, -0.08986931, -0.03627523, -963237.7, -23119.443, 0.0, 9.999758, 9.999053 
2.1351673e+3, 2.140704e+2, -773753.06, -888092.9, -42240.96, -0.06942078, 0.048476093, -759840.6, 82275.32, 0.0, 10.000788, 9.9991665 
2.1351863e+3, 2.2406992e+2, -691995.3, -853620.9, -87462.04, -0.04973653, 0.10260291, -653726.94, 90393.45, 0.0, 10.000863, 9.998727 
2.1352048e+3, 2.3406793e+2, -707633.9, -794265.0, -97785.84, -0.005916918, -0.013726454, -643999.44, 2138.2437, 0.0, 10.00005, 9.998829 
2.1352229e+3, 2.4406661e+2, -670959.1, -757790.3, -102443.125, -0.01578911, -0.019103339, -603111.5, -54960.375, 0.0, 9.999738, 9.998577 
2.135241e+3, 2.5406608e+2, -396638.97, -552678.2, -80929.85, -0.05154752, 0.020596033, -362245.5, 87914.58, 0.0, 10.000892, 9.998736 
2.1352603e+3, 2.6406562e+2, -279726.3, -495641.13, -34978.496, -0.04973419, 0.117549665, -274201.13, 77966.36, 0.0, 10.001212, 9.998316 
2.135281e+3, 2.740649e+2, -212199.56, -395298.3, -32465.09, 0.012143111, 0.1662701, -206613.61, 47561.594, 0.00000000014169585, 10.000953, 9.998435 
2.1353003e+3, 2.840635e+2, -156536.0, -398186.47, -87849.84, -0.04890677, 0.21128981, -127974.71, 28214.1, 0.000000256191, 10.000976, 9.997759 
2.1353188e+3, 2.9406074e+2, 170031.73, -155624.39, -48975.723, -0.1139548, 0.08280064, 177237.78, 235450.48, 0.0000052967753, 10.0024, 9.998048 
2.1353394e+3, 3.0405608e+2, 150257.06, -218772.14, -32336.023, -0.074730046, -0.1544246, 153069.06, 153069.06, 0.000025200057, 10.002272, 9.997372 
2.1353579e+3, 3.1405774e+2, -5238.464, -14802.3125, -81964.664, -0.1320312, 0.18144195, 72083.65, 72083.65, 0.00006359548, 10.000022, 9.999806 
2.1450128e+3, 1.3405356e+2, -1872039.0, -1885548.4, -106005.734, 0.22533554, 0.052963994, -1772573.0, -146285.27, 0.40760165, 9.998871, 9.998565 
2.1450305e+3, 1.4405674e+2, -1561162.4, -1637654.4, 11066.167, 0.09855339, 0.45913598, -1559593.6, -31334.178, 0.26811564, 10.000043, 9.999129 
2.1450508e+3, 1.5405422e+2, -1424855.5, -1419920.6, 25328.025, 0.020899352, 0.1722108, -1396940.1, 33343.746, 0.14296411, 9.999936, 10.000003 
2.1450715e+3, 1.6405304e+2, -1417216.9, -1497683.6, 19394.133, 0.07064404, 0.102516614, -1412786.5, -80490.98, 0.057087187, 9.999856, 9.998844 
2.1450916e+3, 1.7405269e+2, -1232939.9, -1347754.1, 36370.62, 0.06103986, 0.14496186, -1222388.3, 11910.7295, 0.014719365, 10.000464, 9.998869 
2.1451107e+3, 1.8405181e+2, -1070985.0, -1174334.3, 11825.0, 0.02131821, 0.15004805, -1069649.3, 66656.625, 0.0017550356, 10.000651, 9.999327 
2.1451294e+3, 1.940503e+2, -926427.9, -1023250.3, -31869.314, -0.025255855, 0.006846996, -916879.6, 121437.445, 0.00008036648, 10.000883, 9.999551 
2.1451484e+3, 2.0404963e+2, -860067.6, -973315.5, -21385.29, -0.041331515, -0.0014200227, -856163.9, 84157.07, 0.000000018813253, 10.000784, 9.999293 
2.1451677e+3, 2.1405e+2, -786960.1, -863672.44, -34009.387, -0.06712359, 0.05649152, -774053.9, 68262.57, 0.0, 10.000547, 9.999461 
2.145187e+3, 2.240495e+2, -737127.2, -870940.9, -84494.21, -0.036912285, 0.091767505, -696257.4, 48062.547, 0.0, 10.000532, 9.998774 
2.1452056e+3, 2.3404758e+2, -567889.56, -723085.9, -93293.164, 0.035516653, -0.01607245, -524140.75, 122196.305, 0.0, 10.001001, 9.998861 
2.1452239e+3, 2.4404617e+2, -463898.4, -681212.6, -40617.133, 0.05046152, -0.020510811, -456555.0, 91796.516, 0.0, 10.001246, 9.998386 
2.145242e+3, 2.540454e+2, -369071.34, -566314.44, -74743.52, -0.044229735, 0.01835341, -343947.97, 106415.64, 0.0, 10.001183, 9.998509 
2.1452612e+3, 2.640448e+2, -286008.63, -497069.25, -31082.879, -0.04889809, 0.11412615, -281526.25, 70846.58, 0.0, 10.001138, 9.998354 
2.145282e+3, 2.7404433e+2, -184333.98, -371155.3, -28713.283, 0.030422688, 0.1835236, -180020.53, 74358.39, 0.00000000016893417, 10.0011, 9.998532 
2.145302e+3, 2.8404343e+2, -88217.086, -311703.38, 23709.195, 0.03316387, 0.24867675, -85729.516, 70657.95, 0.0000002738674, 10.001167, 9.998274 
2.1453212e+3, 2.9404113e+2, 69986.03, -121545.37, 48214.22, -0.03926739, 0.11618672, 81438.24, 139844.31, 0.0000047479944, 10.001366, 9.998774 
2.1453415e+3, 3.0403745e+2, 164446.72, -81128.7, 47782.605, -0.016775003, -0.13960695, 173416.36, 173416.36, 0.000021563434, 10.001698, 9.998636 
2.1453598e+3, 3.1403944e+2, 154232.72, -289.04333, -194408.34, 0.023233924, 0.13235575, 286169.94, 286169.94, 0.000054127682, 10.001292, 9.99931 
2.1550103e+3, 1.3402988e+2, -1715022.4, -1614305.8, -17399.998, -0.021208541, -0.14002723, -1611384.4, 15133.845, 0.43279883, 9.9990835, 10.000385 
2.1550317e+3, 1.4403476e+2, -1489273.8, -1553830.1, -28327.87, 0.106848456, 0.30834648, -1478606.0, 49869.76, 0.28823382, 10.000446, 9.999535 
2.1550511e+3, 1.5403442e+2, -1383469.5, -1363642.9, 22846.47, -0.0049266596, 0.19330178, -1348651.8, 81827.34, 0.15688464, 10.000068, 10.00039 
2.155071e+3, 1.6403402e+2, -1348307.6, -1402890.6, 22030.893, -0.036125507, 0.14967437, -1340525.1, -8042.6563, 0.06501248, 10.000071, 9.999387 
2.155092e+3, 1.7403366e+2, -1189490.5, -1255440.4, 60010.996, 0.024224218, 0.13279165, -1153991.6, 80493.086, 0.018139776, 10.000472, 9.999493 
2.155112e+3, 1.8403317e+2, -1110876.1, -1277508.0, 2388.5378, 0.02806567, 0.1739567, -1110841.9, 25647.084, 0.0026903055, 10.000729, 9.998588 
2.1551308e+3, 1.940324e+2, -993929.2, -1147356.5, -14730.838, -0.0006585162, 0.18947591, -992527.7, 45969.1, 0.00019736934, 10.000818, 9.998728 
2.1551491e+3, 2.0403135e+2, -900399.5, -1019699.94, -45175.434, -0.0669273, 0.19690788, -885223.44, 55282.395, 0.0000007869328, 10.000617, 9.999058 
2.1551675e+3, 2.1402971e+2, -827241.56, -904078.1, -33202.707, -0.17937621, 0.071618855, -814882.06, 27636.43, 0.0, 10.000354, 9.999279 
2.1551865e+3, 2.2402853e+2, -766913.7, -855040.25, -82858.67, -0.17130959, 0.035707876, -717130.6, 27396.342, 0.0, 10.000193, 9.999045 
2.1552068e+3, 2.3402789e+2, -575507.2, -684901.0, -60922.934, 0.036390726, 0.01798458, -548330.06, 98200.75, 0.0, 10.000765, 9.999235 
2.1552259e+3, 2.440271e+2, -562721.0, -790302.1, -54405.664, 0.07250736, 0.07672431, -550383.56, -1843.9878, 0.0, 10.000847, 9.997824 
2.1552427e+3, 2.5402582e+2, -452274.53, -684421.75, -61900.316, -0.118336454, 0.12989925, -436800.7, 13757.676, 0.0, 10.000946, 9.997812 
2.1552615e+3, 2.6402414e+2, -319485.7, -473316.63, -40424.523, -0.18222928, 0.1401527, -309509.66, 43067.863, 0.0, 10.000744, 9.998703 
2.1552832e+3, 2.7402198e+2, -182206.61, -313513.47, -12296.041, 0.019375993, -0.015392283, -181065.1, 73531.67, 0.0, 10.000863, 9.999044 
2.155304e+3, 2.8402174e+2, -106184.45, -219944.14, 13837.08, 0.0644604, 0.051129248, -104525.58, 52071.445, 0.000000100631844, 10.000653, 9.999134 
2.155322e+3, 2.9402363e+2, 60710.613, -35086.848, 86549.055, -0.1436126, 0.2468652, 111731.18, 170307.34, 0.0000031808167, 10.0009165, 9.999581 
2.1553408e+3, 3.040217e+2, 46995.48, -75216.16, 12496.87, -0.32833773, 0.102756925, 48260.27, 48260.27, 0.000016664693, 10.000691, 9.999126 
2.1553624e+3, 3.140221e+2, -88234.86, -285386.34, -42052.35, 0.048039276, 0.13440314, -79639.82, -79639.82, 0.000045618737, 10.000397, 9.997762 
2.1650092e+3, 1.340105e+2, -1623031.8, -1598320.6, 95289.47, -0.033397593, -0.07243954, -1514589.0, 112119.54, 0.45757636, 10.000083, 10.000365 
2.1650317e+3, 1.4401329e+2, -1682985.9, -1619729.4, 896.25714, 0.15221515, 0.1955764, -1619716.8, -91029.875, 0.3088363, 9.998868, 9.999834 
2.165051e+3, 1.5401421e+2, -1445150.1, -1394399.4, 7995.5767, 0.02276173, 0.18576115, -1393169.5, 37509.035, 0.17204043, 9.9995985, 10.000361 
2.1650712e+3, 1.640144e+2, -1394767.8, -1408281.6, -5066.1675, 0.009783181, 0.20001358, -1393079.4, -60403.035, 0.07433442, 9.999639, 9.999573 
2.1650928e+3, 1.7401406e+2, -1183884.6, -1219343.1, 1808.6045, 0.055728048, 0.15163963, -1183792.6, 50884.98, 0.022589553, 10.000321, 9.99984 
2.1651131e+3, 1.840137e+2, -1127862.3, -1279428.0, -30518.848, 0.07588982, 0.18744545, -1121947.9, 14732.466, 0.00413868, 10.000625, 9.998614 
2.1651319e+3, 1.9401307e+2, -992466.8, -1158966.1, -28998.453, 0.035244264, 0.2309501, -987560.8, 51126.207, 0.00045452762, 10.000898, 9.998617 
2.1651503e+3, 2.0401187e+2, -875446.56, -1024169.9, -18525.766, -0.007014441, 0.23676786, -873173.6, 67524.164, 0.000007502901, 10.000837, 9.998922 
2.1651685e+3, 2.140098e+2, -789559.06, -900740.5, -31504.982, -0.11627846, 0.08282142, -781252.25, 61462.4, 0.0, 10.000676, 9.999146 
2.1651874e+3, 2.2400858e+2, -713471.7, -838965.9, -45653.656, -0.097908564, 0.05401841, -698620.75, 46103.76, 0.0, 10.000617, 9.9989395 
2.165208e+3, 2.3400833e+2, -562049.1, -694117.5, -83833.945, 0.07726589, 0.08597216, -521365.75, 125360.625, 0.0, 10.000923, 9.999094 
2.1652271e+3, 2.4400756e+2, -546646.44, -773576.9, -75005.25, 0.11943928, 0.15168157, -524096.44, 24639.014, 0.0, 10.000898, 9.997918 
2.1652435e+3, 2.5400582e+2, -520801.47, -690172.4, -54844.24, -0.09149671, 0.14912134, -504593.34, -53836.734, 0.0, 10.000383, 9.998027 
2.1652623e+3, 2.6400423e+2, -363686.25, -486765.34, 38476.582, -0.14929299, 0.14924398, -352647.8, 125.595665, 0.0, 10.000394, 9.998784 
2.1652845e+3, 2.740024e+2, -126844.766, -280785.13, 11175.823, 0.039526563, 0.026580464, -126037.65, 128750.65, 0.0, 10.001219, 9.999097 
2.1653052e+3, 2.8400165e+2, -36736.305, -207356.06, -15975.76, 0.12789588, 0.04281624, -35253.33, 121540.414, 0.0000000029805467, 10.001195, 9.998969 
2.1653228e+3, 2.9400244e+2, -119613.29, -141394.06, -70006.61, -0.07784325, 0.16179764, -59655.066, -869.14545, 0.000001345268, 9.999774, 9.9993925 
2.1653415e+3, 3.0400312e+2, 15206.28, 14740.218, -64049.027, -0.2348356, 0.23199928, 79022.7, 79022.7, 0.000010778314, 9.999998, 10.000083 
2.1653637e+3, 3.140017e+2, 296797.22, -72623.15, -147720.08, 0.048881557, 0.010670701, 348601.47, 348601.47, 0.00003608632, 10.002926, 9.998007 
2.1750115e+3, 1.3399734e+2, -1715452.1, -1834947.6, -148586.14, 0.083936885, 0.47845232, -1615051.1, 11788.622, 0.48078975, 10.000471, 9.998066 
2.1750303e+3, 1.4399302e+2, -1668237.9, -1668366.5, 46485.074, 0.01587557, 0.118990704, -1621817.0, -92931.3, 0.32934, 9.99923, 9.999318 
2.1750505e+3, 1.5399374e+2, -1492020.8, -1502448.4, 33560.46, -0.031092482, 0.16572472, -1463271.5, -32390.613, 0.18832743, 9.99967, 9.999529 
2.1750712e+3, 1.6399401e+2, -1377231.8, -1421507.8, 74.50072, -0.018668734, 0.25295573, -1377231.6, -44352.895, 0.0852701, 9.999839, 9.999384 
2.175093e+3, 1.73994e+2, -1156367.3, -1177989.0, 39407.582, 0.0053320252, 0.21078649, -1126314.5, 108561.9, 0.028395085, 10.00039, 10.000092 
2.175113e+3, 1.839935e+2, -1086329.3, -1211031.4, -35109.348, -0.023140885, 0.19617762, -1077123.9, 59755.13, 0.006367479, 10.000703, 9.9990425 
2.175132e+3, 1.9399224e+2, -972181.6, -1101149.0, -11738.403, -0.053739432, 0.13177669, -971121.94, 67767.19, 0.0009868387, 10.000835, 9.999036 
2.1751511e+3, 2.0399112e+2, -906657.2, -1051692.5, -37440.87, -0.06460294, 0.12572165, -897562.1, 43336.34, 0.000047582707, 10.000664, 9.998825 
2.1751705e+3, 2.1399015e+2, -826105.4, -924209.0, -28034.54, -0.018739363, 0.08903567, -818659.25, 24247.295, 0.00000000032497088, 10.000446, 9.999098 
2.1751894e+3, 2.2398937e+2, -814723.94, -953613.0, -47344.24, 0.0016538156, 0.13314551, -800120.75, -55205.65, 0.0, 10.000214, 9.998346 
2.1752088e+3, 2.3398851e+2, -649205.1, -808425.0, -57006.145, 0.024784433, 0.16862276, -630899.56, 16027.588, 0.0, 10.000647, 9.998436 
2.1752268e+3, 2.4398719e+2, -567180.56, -707627.1, -103525.195, -0.011107803, 0.18361121, -512308.78, 36633.445, 0.0, 10.000445, 9.998581 
2.175244e+3, 2.5398523e+2, -492966.56, -580623.5, -60156.156, -0.102915004, 0.06936318, -462365.9, -11404.982, 0.0, 10.000165, 9.99888 
2.1752629e+3, 2.639847e+2, -440194.7, -545243.8, 49290.66, -0.14944562, 0.13965997, -420688.72, -67724.01, 0.0, 9.9999895, 9.998565 
2.1752849e+3, 2.739853e+2, -197477.02, -355358.78, 61751.496, -0.051645234, 0.29084045, -176193.6, 78763.44, 0.0, 10.000934, 9.99871 
2.1753055e+3, 2.839828e+2, -200022.13, -422201.13, -75012.555, -0.013543925, 0.21210977, -177067.75, -20086.332, 0.0, 10.000685, 9.997728 
2.175323e+3, 2.939776e+2, -257227.83, -365937.75, -102642.63, -0.07118505, -0.15491708, -195436.45, -136401.42, 0.00000028754212, 9.999513, 9.9979725 
2.1753438e+3, 3.0398062e+2, -38431.75, 85141.48, -3232.9133, -0.08659602, 0.20814033, 85226.0, 85226.0, 0.0000061263827, 9.999286, 10.000873 
2.1753652e+3, 3.1398115e+2, 251700.22, 119863.36, 96258.6, -0.18019436, 0.028204968, 302447.78, 302447.78, 0.000027574106, 10.001749, 9.9998665 
2.1850295e+3, 1.4397253e+2, -1763892.3, -1756552.9, -18050.832, 0.06853291, 0.08457055, -1741802.4, -212716.6, 0.34983045, 9.998672, 9.998969 
2.1850494e+3, 1.539723e+2, -1354196.6, -1453000.6, -35888.508, -0.1416818, 0.09756202, -1342536.8, 88554.47, 0.2059314, 10.000834, 9.999347 
2.1850727e+3, 1.6397424e+2, -1405549.9, -1433036.4, -1559.4644, 0.17407525, 0.35651422, -1405461.6, -72388.28, 0.09816949, 9.999662, 9.999382 
2.1850933e+3, 1.7397341e+2, -1278369.4, -1237725.6, 4468.746, 0.052929386, 0.2409603, -1237240.1, -2160.3674, 0.036017943, 9.999605, 10.000027 
2.1851128e+3, 1.839723e+2, -1199459.4, -1232659.4, -61915.27, -0.073974, 0.15380552, -1151957.4, -14869.759, 0.009796201, 9.999734, 9.999377 
2.1851325e+3, 1.9397108e+2, -1036826.1, -1089653.1, -63455.65, -0.06409061, 0.04941225, -994506.2, 44589.094, 0.0020521113, 10.000163, 9.999445 
2.1851522e+3, 2.0397039e+2, -950101.9, -1041831.4, -54868.305, -0.0011272961, 0.053355884, -924453.7, 16645.816, 0.00020967671, 10.000256, 9.999085 
2.1851714e+3, 2.139703e+2, -805560.8, -888151.7, -56851.14, 0.035587627, 0.082122594, -776589.9, 66510.34, 0.00000086887735, 10.000479, 9.999334 
2.1851902e+3, 2.2396994e+2, -779210.7, -937331.3, -15776.705, 0.057226755, 0.15671943, -777651.94, -32546.111, 0.0, 10.000436, 9.998363 
2.1852092e+3, 2.3396903e+2, -716113.0, -834706.94, -2976.0957, 0.04565069, 0.18793683, -716038.4, -68918.97, 0.0, 10.00017, 9.998484 
2.1852276e+3, 2.4396777e+2, -552420.7, -690094.06, -979.4669, 0.021827273, 0.19972727, -552413.75, -3279.7917, 0.0, 10.000489, 9.998688 
2.1852452e+3, 2.539659e+2, -254089.45, -458105.88, -40073.145, -0.06685713, 0.09034304, -246500.53, 204649.6, 0.0, 10.001751, 9.998969 
2.1852647e+3, 2.6396543e+2, -163767.97, -442338.25, 36617.457, -0.068679094, 0.1658081, -159035.1, 194118.47, 0.0, 10.001986, 9.998328 
2.1852866e+3, 2.739657e+2, -225247.39, -402235.47, 20183.0, 0.027036643, 0.3228117, -222974.98, 32175.465, 0.0, 10.000868, 9.998435 
2.1853067e+3, 2.8396305e+2, -207529.83, -424817.6, -46728.758, 0.06404887, 0.23667273, -197906.77, -40729.87, 0.0, 10.000591, 9.997777 
2.185324e+3, 2.9395744e+2, 27144.275, -245149.31, -32195.346, -0.033779792, -0.16055499, 30899.197, 90133.125, 0.000000027227998, 10.001508, 9.997859 
2.185345e+3, 3.039605e+2, 205625.31, 55450.016, 116307.336, 0.03434687, 0.2721716, 268977.34, 268977.34, 0.0000044959556, 10.001511, 9.999644 
2.185366e+3, 3.1395972e+2, 11463.614, 113809.84, -97042.53, -0.12928768, 0.11365225, 172345.17, 172345.17, 0.000025056477, 9.999489, 10.00099 
2.1950288e+3, 1.4395012e+2, -1632840.5, -1514806.9, 16706.924, 0.021679586, 0.12869486, -1512487.6, 16816.13, 0.371045, 9.998806, 10.000609 
2.1950473e+3, 1.5394916e+2, -1289001.6, -1335702.6, -46850.79, -0.4846504, -0.02151068, -1260004.9, 171311.83, 0.22535217, 10.00099, 10.000257 
2.1950752e+3, 1.6395494e+2, -1363438.5, -1379144.9, -53744.75, 0.37879962, 0.5208354, -1316976.3, 16285.554, 0.113554515, 9.999822, 9.99968 
2.1950935e+3, 1.73952e+2, -1317124.1, -1316584.3, 13985.309, 0.07170006, 0.24062979, -1302866.3, -67575.84, 0.046104282, 9.999605, 9.999485 
2.195111e+3, 1.8394968e+2, -1159065.9, -1166204.3, -53775.582, -0.26600483, 0.046518702, -1108741.1, 28569.318, 0.015073848, 9.999807, 9.999803 
2.1951324e+3, 1.939496e+2, -1002236.1, -1004607.7, -42400.895, -0.1327475, -0.00061825104, -961004.44, 78300.875, 0.004138987, 10.000113, 10.000056 
2.1951526e+3, 2.0394978e+2, -944046.4, -987187.9, -67152.55, -0.029040229, 0.035187386, -895085.1, 46214.957, 0.00072646124, 10.000078, 9.999543 
2.1951707e+3, 2.1395008e+2, -815104.0, -844609.25, -41031.55, -0.09438663, 0.059100214, -786253.56, 57044.047, 0.000022642807, 10.000216, 9.999751 
2.1951891e+3, 2.2395019e+2, -795546.5, -878179.8, -38283.594, -0.11949874, 0.12964366, -780536.44, -35238.438, 0.000000000011542125, 10.000034, 9.99896 
2.195209e+3, 2.339498e+2, -700623.25, -754915.94, -3087.9287, -0.0035254944, 0.14414546, -700448.2, -53143.484, 0.0, 9.999964, 9.999127 
2.1952283e+3, 2.4394916e+2, -653897.6, -796810.6, 22766.336, -0.0028127213, 0.20739432, -650358.5, -101045.87, 0.0, 10.000058, 9.998156 
2.1952465e+3, 2.5394773e+2, -339584.56, -576258.94, 19477.639, -0.1280488, 0.20376736, -337992.34, 113334.23, 0.0, 10.001497, 9.998279 
2.1952663e+3, 2.6394606e+2, -270240.8, -542850.06, -12267.167, -0.12546685, 0.21683855, -269689.9, 83653.79, 0.0, 10.001491, 9.997859 
2.1952884e+3, 2.7394345e+2, -294555.06, -471889.97, -4772.4097, 0.10409109, 0.12017092, -294426.72, -39056.797, 0.0, 10.000575, 9.998077 
2.1953084e+3, 2.839418e+2, -208741.36, -312911.03, -37750.734, 0.11076093, 0.10694405, -196499.31, -39113.36, 0.0, 10.000129, 9.998756 
2.1953247e+3, 2.9394147e+2, 39686.51, -132651.23, 25742.176, -0.12425819, 0.12906244, 43449.47, 102837.26, 0.000000020729713, 10.001146, 9.9988 
2.1953447e+3, 3.0394167e+2, -139470.53, -463280.56, 49906.91, -0.21224567, 0.38240683, -131953.19, -131953.19, 0.0000055230016, 10.000717, 9.996428 
2.1953657e+3, 3.1393576e+2, -252241.45, -158253.03, -145044.27, -0.1738801, 0.028371274, -52779.887, -52779.887, 0.000029811183, 9.99841, 9.999586 
2.2050296e+3, 1.4392827e+2, -1444982.5, -1484342.0, 82299.18, 0.14440912, 0.0950678, -1380042.9, 149475.86, 0.39437363, 10.000803, 10.000034 
2.2050466e+3, 1.5392835e+2, -1413741.8, -1338290.8, -20760.818, -0.5796595, 0.054596182, -1332955.6, 98564.94, 0.24751917, 9.999579, 10.000935 
2.2050752e+3, 1.6393267e+2, -1240704.9, -1287996.8, -57191.008, 0.36630145, 0.384813, -1202464.3, 131015.625, 0.13222682, 10.000591, 9.999999 
2.2050938e+3, 1.7393084e+2, -1210032.9, -1292517.6, 13125.583, 0.11295168, 0.22745685, -1207994.6, 27503.451, 0.059555795, 10.000401, 9.999309 
2.2051121e+3, 1.8392937e+2, -1139115.1, -1128180.9, -106.16481, -0.12602949, 0.11749814, -1128179.9, 9330.433, 0.023171267, 9.999809, 10.000077 
2.2051328e+3, 1.9392958e+2, -1008366.25, -969606.7, -33147.81, -0.06737122, 0.06583148, -950589.2, 88913.23, 0.008108057, 9.9999, 10.000425 
2.2051528e+3, 2.0392981e+2, -974279.3, -1013157.8, -63306.75, -0.0023002524, 0.09240541, -927494.44, 14002.662, 0.0021629941, 9.999915, 9.999453 
2.2051711e+3, 2.1392961e+2, -833319.4, -876971.6, -103612.28, -0.06686735, 0.084773384, -749259.3, 94241.195, 0.00023583506, 10.000168, 9.999562 
2.2051898e+3, 2.2392935e+2, -710542.0, -799161.2, -110704.73, -0.07149098, 0.11541104, -635608.6, 109895.67, 0.0000019906881, 10.000451, 9.99931 
2.2052094e+3, 2.3392934e+2, -527114.44, -630651.3, -127006.74, -0.0040775803, 0.13097255, -441730.8, 205774.83, 0.0, 10.000966, 9.999516 
2.2052288e+3, 2.4392894e+2, -479719.7, -685673.44, -48508.883, 0.011972663, 0.19102706, -468866.22, 80643.58, 0.0, 10.001124, 9.998411 
2.2052477e+3, 2.539278e+2, -414097.06, -570444.4, -18578.002, -0.10684635, 0.18887094, -411919.84, 39599.926, 0.0, 10.000862, 9.9986 
2.2052678e+3, 2.63926e+2, -376294.28, -622192.4, -8358.384, -0.089278474, 0.18507767, -376010.5, -22472.258, 0.0, 10.000868, 9.997623 
2.2052893e+3, 2.7392286e+2, -194101.84, -470865.9, -22549.605, 0.09794483, 0.06816132, -192276.63, 63296.24, 0.0, 10.001425, 9.997696 
2.2053093e+3, 2.839218e+2, -2317.9885, -191157.9, -35935.695, 0.15474153, 0.121470004, 4289.29, 161874.03, 0.0, 10.001448, 9.998957 
2.2053267e+3, 2.9392245e+2, 39934.85, -98969.64, -86745.836, -0.027645795, 0.23462807, 81606.2, 141182.52, 0.00000007580395, 10.00101, 9.999099 
2.2053456e+3, 3.039214e+2, -143809.44, -504124.72, 23315.44, -0.16070691, 0.34269127, -142307.0, -142307.0, 0.0000083740215, 10.000801, 9.996139 
2.2053672e+3, 3.139169e+2, 118400.02, 31277.39, -100078.03, 0.020311285, 0.20531183, 183986.31, 183986.31, 0.000042885644, 10.000841, 9.999726 
2.2150327e+3, 1.4391026e+2, -1595545.3, -1881954.1, -155368.45, 0.2737205, 0.33117464, -1527451.6, 2246.2002, 0.4221777, 10.00081, 9.997061 
2.2150472e+3, 1.5390953e+2, -1411749.3, -1325605.8, 38618.98, -0.52078307, 0.31324098, -1310827.8, 120878.88, 0.27423543, 9.999539, 10.001111 
2.215072e+3, 1.6390729e+2, -1191837.5, -1225315.5, -62026.47, -0.08857499, -0.030647708, -1144331.0, 189398.17, 0.15564767, 10.000809, 10.000408 
2.2150935e+3, 1.7390992e+2, -1181715.9, -1233091.0, 2985.6238, 0.016488535, 0.2085022, -1181542.9, 54159.996, 0.07778218, 10.000431, 9.999694 
2.2151153e+3, 1.8391125e+2, -1129560.8, -1122770.1, -20395.146, 0.14042412, 0.36001074, -1105489.6, 32198.352, 0.035576556, 9.999869, 10.000092 
2.2151336e+3, 1.9391088e+2, -1022054.1, -968330.5, -19765.08, -0.0024188063, 0.247587, -961842.4, 77845.375, 0.0154146915, 9.99978, 10.000489 
2.2151518e+3, 2.0391028e+2, -1044850.4, -1118546.3, -63276.25, -0.11833834, 0.2114746, -1008475.0, -66782.555, 0.005714695, 9.99973, 9.998818 
2.2151719e+3, 2.1390878e+2, -915066.9, -998237.75, -80653.35, -0.039600246, 0.14672062, -865909.2, -22199.504, 0.0013616167, 9.999958, 9.998827 
2.2151911e+3, 2.239077e+2, -779498.0, -842760.8, -105836.46, -0.023881735, 0.14124681, -700667.2, 45054.516, 0.00013056793, 10.000027, 9.999213 
2.2152098e+3, 2.339075e+2, -564352.44, -642380.06, -91491.92, -0.09322656, 0.1320009, -503903.44, 143820.05, 0.0000045921656, 10.00068, 9.999573 
2.2152288e+3, 2.4390705e+2, -495147.7, -592306.5, -74440.47, -0.14518486, 0.14654279, -454837.6, 94888.08, 0.000000030624218, 10.000608, 9.9992895 
2.2152485e+3, 2.53906e+2, -386819.16, -439603.34, -16519.355, -0.14193113, 0.04972156, -382075.53, 69655.19, 0.0, 10.00056, 9.999635 
2.2152683e+3, 2.6390487e+2, -454917.38, -671995.8, -10566.77, -0.15555826, 0.06239488, -454404.25, -100662.37, 0.0, 10.000404, 9.997496 
2.2152889e+3, 2.7390364e+2, -262109.02, -528249.2, 11216.321, -0.1240301, 0.14964496, -261637.16, -5874.9937, 0.0, 10.001085, 9.997453 
2.2153091e+3, 2.839027e+2, -152352.39, -357296.8, -66180.59, -0.05211881, 0.27146676, -132839.25, 24936.598, 0.0, 10.000851, 9.998087 
2.2153288e+3, 2.9390034e+2, -68102.29, -230626.16, -75375.96, 0.062658995, 0.15644912, -38526.336, 21273.1, 0.00000027397763, 10.000633, 9.998362 
2.2153471e+3, 3.038993e+2, -78129.234, -205928.52, 7666.1313, -0.15028203, 0.19053847, -77671.016, -77671.016, 0.000015050563, 10.000155, 9.998467 
2.215367e+3, 3.1390077e+2, -3906.799, 47024.586, 71567.36, -0.15414807, 0.38816953, 97521.96, 97521.96, 0.00007034586, 9.999757, 10.000323 
2.2250274e+3, 1.4388424e+2, -1626186.5, -1300121.6, -232026.73, -0.21280462, 0.035891734, -1179577.0, 350370.8, 0.45833316, 9.99753, 10.0041685 
2.2250503e+3, 1.5388998e+2, -1336633.5, -1364032.1, 101850.63, -0.18229079, 0.3577807, -1247565.0, 184331.53, 0.30885017, 10.000754, 10.000197 
2.2250722e+3, 1.6388692e+2, -1269709.5, -1280704.4, -8884.274, -0.10348003, 0.011689279, -1264759.4, 69169.25, 0.18666483, 10.000254, 10.000241 
2.2250935e+3, 1.7388919e+2, -1097718.5, -1127014.8, 15661.019, -0.035193805, 0.16431825, -1090922.9, 144980.48, 0.103338934, 10.000793, 10.0003195 
2.2251157e+3, 1.8389069e+2, -1064430.1, -1117312.3, 9150.868, 0.19068803, 0.30199054, -1062891.4, 74995.12, 0.054786276, 10.0004425, 9.999865 
2.2251342e+3, 1.938904e+2, -1005498.0, -1000803.9, -37305.508, 0.08743409, 0.23081829, -965771.6, 74116.766, 0.028543482, 10.000049, 10.000133 
2.2251526e+3, 2.0388974e+2, -1019193.44, -1091349.0, -30928.871, -0.020976353, 0.20033474, -1007750.7, -65855.805, 0.013685946, 9.999844, 9.99895 
2.2251719e+3, 2.1388844e+2, -883472.56, -963065.0, -13432.36, -0.022596074, 0.13967586, -881266.75, -37357.336, 0.005262215, 10.000097, 9.999007 
2.2251911e+3, 2.2388747e+2, -765624.0, -857526.75, 25681.17, -0.017237458, 0.14270899, -758934.6, -13014.657, 0.001420654, 10.00018, 9.999049 
2.2252099e+3, 2.3388712e+2, -672698.7, -714447.3, 2798.7751, -0.08297284, 0.13718115, -672511.9, -24588.672, 0.0002619265, 9.999991, 9.99942 
2.2252293e+3, 2.4388656e+2, -584868.56, -626421.3, 8413.305, -0.10515664, 0.14738652, -583229.75, -33302.84, 0.000035642544, 9.999945, 9.999383 
2.2252493e+3, 2.5388566e+2, -391247.22, -428926.44, -16422.61, -0.09690222, 0.048018828, -385094.2, 66837.56, 0.0000011567587, 10.000425, 9.999802 
2.2252692e+3, 2.638848e+2, -402617.38, -593189.25, -2843.5305, -0.08422845, 0.06303936, -402574.94, -48634.96, 0.0, 10.000519, 9.9979925 
2.2252898e+3, 2.738843e+2, -314963.47, -483098.72, 31620.934, -0.086424075, 0.17626287, -309213.25, -53261.242, 0.0, 10.000454, 9.998066 
2.2253096e+3, 2.838838e+2, -233219.36, -385311.47, 25633.818, -0.03081716, 0.29967502, -229015.22, -71054.02, 0.0, 10.000226, 9.998215 
2.2253287e+3, 2.9388106e+2, -108340.445, -243324.9, 42687.824, 0.003036569, 0.15864925, -95973.73, -35984.605, 0.00000073017384, 10.000335, 9.998418 
2.2253482e+3, 3.0388075e+2, 59182.72, -97828.8, 131994.95, -0.07760024, 0.22396132, 134253.72, 134253.72, 0.00002755439, 10.000893, 9.998879 
2.2253686e+3, 3.1387976e+2, 269148.53, 179104.92, -76979.664, -0.02932486, 0.19747044, 313305.38, 313305.38, 0.000118261974, 10.001561, 10.000414 
2.2350559e+3, 1.538704e+2, -1491260.4, -1662306.0, 48273.348, 0.23641323, 0.2774239, -1478576.9, -46493.348, 0.35698506, 10.000478, 9.997987 
2.2350754e+3, 1.6387063e+2, -1324670.9, -1412132.0, -13125.381, 0.10327617, 0.43055588, -1322743.6, 11343.623, 0.23053116, 10.00027, 9.999248 
2.2350933e+3, 1.738684e+2, -1069141.4, -1038721.9, 30700.984, -0.1701273, 0.0800268, -1019669.6, 216432.48, 0.14104874, 10.000687, 10.001108 
2.2351131e+3, 1.8386771e+2, -1100949.3, -1184543.6, -20392.102, -0.18526414, -0.046188273, -1096240.1, 41865.582, 0.08532412, 10.000407, 9.999412 
2.2351345e+3, 1.9386812e+2, -1073911.3, -1117706.4, -45420.293, 0.061774377, 0.030016227, -1045385.56, -5281.595, 0.05187056, 9.999937, 9.999379 
2.2351538e+3, 2.0386833e+2, -998310.6, -996791.7, -38540.633, 0.078989215, 0.09657036, -959003.06, -16899.965, 0.030293982, 9.999625, 9.999704 
2.2351712e+3, 2.138683e+2, -842165.0, -824941.4, 4528.1445, -0.14468537, 0.060047362, -823823.44, 20279.285, 0.015773455, 9.999868, 10.000068 
2.2351895e+3, 2.2386828e+2, -846416.56, -915857.4, 7659.97, -0.2422237, 0.10852371, -845581.6, -99478.63, 0.0069356123, 9.999724, 9.9988575 
2.2352096e+3, 2.3386805e+2, -727302.0, -774198.0, 9875.523, -0.13172399, 0.13829617, -725307.2, -77200.414, 0.002541045, 9.999763, 9.999111 
2.2352295e+3, 2.4386743e+2, -708210.2, -771895.25, 4835.017, -0.09804585, 0.19785903, -707845.2, -157731.06, 0.00075579167, 9.999486, 9.998594 
2.2352497e+3, 2.5386655e+2, -483690.3, -544296.06, 14692.508, -0.12338013, 0.16316506, -480316.28, -28192.549, 0.00014769337, 10.000102, 9.999156 
2.23527e+3, 2.6386565e+2, -442508.47, -530424.56, -30875.83, -0.11132588, 0.17813659, -432748.5, -78614.91, 0.000007045108, 9.999923, 9.998693 
2.2352915e+3, 2.7386475e+2, -292195.63, -356174.38, 39662.664, 0.030323183, 0.14515673, -273229.66, -17085.648, 0.00000000065814787, 10.000121, 9.999082 
2.2353104e+3, 2.8386456e+2, -267936.1, -312183.75, -8317.135, -0.032513417, 0.1992633, -266424.38, -108277.77, 0.0, 9.999648, 9.998972 
2.2353254e+3, 2.9386416e+2, -149367.36, -202876.9, 61876.016, -0.37829188, 0.21061182, -108709.53, -48558.383, 0.0000012574419, 9.999838, 9.998908 
2.2353476e+3, 3.0386448e+2, -229127.97, -477571.56, 128278.92, -0.27083948, 0.42042872, -174781.75, -174781.75, 0.000044073433, 10.00001, 9.996673 
2.2353731e+3, 3.138573e+2, 4805.959, -41878.797, 43768.42, 0.1719183, -0.009232584, 31067.426, 31067.426, 0.00018419352, 10.000264, 9.99948 
2.24505e+3, 1.5384454e+2, -1446296.8, -1785694.5, -92578.516, -0.48024955, -0.34679505, -1422686.3, 9642.183, 0.42759266, 10.001443, 9.996543 
2.2450764e+3, 1.6385068e+2, -1296720.3, -1369687.4, 41870.47, 0.20044558, 0.40887657, -1277668.4, 56612.055, 0.29616648, 10.000457, 9.999492 
2.2450937e+3, 1.7384851e+2, -1209554.3, -1136471.1, 9685.307, -0.12574634, 0.0792012, -1135209.4, 101085.75, 0.19952731, 9.999697, 10.000873 
2.2451128e+3, 1.8384755e+2, -1256578.0, -1230657.6, -37163.715, -0.17229275, -0.06666323, -1204259.1, -65957.38, 0.13536815, 9.999185, 9.999673 
2.2451346e+3, 1.9384845e+2, -1012636.5, -1049989.5, -9123.614, 0.068010435, 0.022603013, -1010527.1, 29769.025, 0.09319166, 10.000203, 9.999731 
2.2451542e+3, 2.0384918e+2, -846210.7, -930162.56, 38154.52, 0.13526945, 0.12084044, -831461.44, 110829.414, 0.06306426, 10.000697, 9.999685 
2.2451718e+3, 2.1384925e+2, -767322.4, -804463.56, -27832.436, -0.05171721, 0.113018855, -752433.9, 91855.76, 0.0400799, 10.0004425, 9.999965 
2.2451904e+3, 2.2384895e+2, -736194.0, -866645.1, -36327.273, -0.13453874, 0.14534885, -726760.06, 19532.383, 0.023131557, 10.000467, 9.998859 
2.2452107e+3, 2.338483e+2, -571957.0, -690152.8, -48383.7, -0.06996977, 0.1274299, -554677.25, 93622.01, 0.011994159, 10.0007925, 9.999203 
2.2452305e+3, 2.4384747e+2, -532935.5, -739198.7, -9844.634, -0.015489424, 0.18448928, -532466.7, 17842.488, 0.0054928027, 10.000844, 9.998196 
2.2452508e+3, 2.5384685e+2, -484836.2, -586828.56, -7261.5386, -0.03953809, 0.21871318, -484321.78, -32002.678, 0.002050329, 10.000251, 9.998808 
2.2452705e+3, 2.6384622e+2, -456654.06, -497621.03, -21569.13, -0.0038022052, 0.26824507, -447391.94, -93064.63, 0.0004876709, 9.999632, 9.999072 
2.2452922e+3, 2.7384543e+2, -241625.81, -261085.3, 9030.981, 0.09740142, 0.19476514, -238080.52, 18253.17, 0.000047167257, 10.000148, 9.999739 
2.245311e+3, 2.8384534e+2, -148666.48, -244061.81, -55293.453, 0.055321842, 0.2064815, -123340.64, 34993.78, 0.00000034188096, 10.000399, 9.999091 
2.2453271e+3, 2.9384455e+2, 109736.56, -107744.195, -80545.83, -0.27579242, 0.21263565, 136318.39, 196661.97, 0.0000013302117, 10.001691, 9.998701 
2.2453496e+3, 3.0384442e+2, 10867.9795, -380765.72, 36308.93, -0.13034013, 0.3798456, 14205.785, 14205.785, 0.0000584347, 10.001672, 9.996549 
2.2453736e+3, 3.138388e+2, -19367.441, 76370.76, -35235.62, 0.25992224, 0.15513442, 87940.7, 87940.7, 0.00025945, 9.9994135, 10.000715 
2.2550745e+3, 1.6382818e+2, -1319126.0, -1322074.3, -4428.399, -0.15755604, 0.07528259, -1315932.9, 18564.246, 0.39765337, 9.999948, 10.000066 
2.2550948e+3, 1.738292e+2, -1296108.3, -1297726.9, -32795.125, -0.061625507, 0.14937706, -1264112.5, -27627.404, 0.29298013, 9.999653, 9.9995985 
2.2551148e+3, 1.8382972e+2, -1258746.9, -1167070.1, -56849.906, -0.0063838856, 0.20288812, -1139880.6, -1401.4432, 0.21888196, 9.998899, 10.000229 
2.255134e+3, 1.9383077e+2, -974693.0, -904538.0, 23379.637, -0.042418182, 0.17074029, -897460.56, 143010.47, 0.16615056, 9.999906, 10.001034 
2.2551535e+3, 2.038319e+2, -952855.9, -1077359.4, 25393.447, -0.070525125, 0.25001448, -947875.9, -5413.7354, 0.12546477, 10.000336, 9.998818 
2.255174e+3, 2.1383107e+2, -888582.1, -1003637.3, -26738.348, 0.07477967, 0.26610196, -882671.9, -38199.723, 0.0914258, 10.000212, 9.9986725 
2.2551933e+3, 2.238295e+2, -817250.44, -928169.0, -36343.2, 0.07104819, 0.2536251, -806403.2, -59915.668, 0.062582165, 10.000007, 9.998656 
2.2552122e+3, 2.3382771e+2, -595147.25, -672555.1, -21679.9, -0.022942077, 0.09766204, -589488.94, 59013.08, 0.039919913, 10.00051, 9.99946 
2.255231e+3, 2.4382652e+2, -659848.9, -819498.2, -48758.066, -0.08157844, 0.11643358, -646135.7, -95622.09, 0.023601582, 10.000088, 9.997992 
2.2552514e+3, 2.538266e+2, -540650.8, -616656.1, -20948.19, -0.011601406, 0.21618144, -535259.56, -82741.91, 0.012405956, 9.99991, 9.998747 
2.2552708e+3, 2.638263e+2, -549784.2, -557134.4, -45456.586, 0.010941325, 0.3276183, -507854.38, -153331.55, 0.005154125, 9.999093, 9.998909 
2.255291e+3, 2.738262e+2, -295919.53, -246900.2, 39360.367, -0.05087965, 0.2819724, -225042.19, 31480.543, 0.0013586987, 9.999637, 10.000062 
2.2553109e+3, 2.8382584e+2, -347518.53, -452342.16, -57715.59, -0.042493396, 0.29034492, -321968.25, -163441.34, 0.00015517221, 9.999568, 9.998037 
2.2553328e+3, 2.9382282e+2, -38819.17, -280132.94, -4957.871, 0.07957822, 0.19094536, -38717.35, 21842.39, 0.0000026982873, 10.001186, 9.997718 
2.255353e+3, 3.0382118e+2, -5093.9077, -235935.38, -58495.547, -0.048210837, 0.17780599, 8882.71, 8882.71, 0.000065484004, 10.000969, 9.997855 
2.2553676e+3, 3.1382042e+2, 2817.7234, 375442.22, 87124.266, -0.33919364, 0.30267555, 394806.66, 394806.66, 0.00034262822, 9.998418, 10.003227 
2.265098e+3, 1.7380771e+2, -1296798.4, -1133345.1, -42177.68, 0.36921874, 0.067474075, -1123103.4, 113589.81, 0.44342524, 9.997878, 10.002343 
2.2651128e+3, 1.8381092e+2, -1096453.6, -1272710.8, 159163.31, -0.20778061, 0.03362516, -1002649.25, 136010.78, 0.3585124, 10.0010195, 9.998662 
2.2651325e+3, 1.938106e+2, -1124464.3, -1164807.9, -30890.914, -0.16899084, 0.10321199, -1107742.4, -67074.37, 0.29413474, 9.99968, 9.999113 
2.265152e+3, 2.0381017e+2, -986922.7, -1065001.9, -70547.28, -0.20844917, 0.11429851, -945333.44, -2657.4106, 0.24160613, 9.999823, 9.999215 
2.265171e+3, 2.1380992e+2, -644939.4, -813685.25, -16539.992, -0.32144117, 0.14249663, -643333.44, 201347.63, 0.1940874, 10.001883, 9.999271 
2.2651914e+3, 2.2380933e+2, -371902.47, -655021.06, 48950.254, -0.28810635, 0.17039877, -363678.03, 383008.9, 0.14888066, 10.003268, 9.9991 
2.2652124e+3, 2.3380847e+2, -378540.53, -546893.44, 20880.945, -0.10767472, 0.10431685, -375989.3, 272702.53, 0.108788945, 10.002122, 9.999645 
2.2652324e+3, 2.4380712e+2, -450365.44, -725155.44, 41373.484, -0.0065348847, 0.111403786, -444271.22, 106432.57, 0.07581198, 10.001533, 9.997974 
2.2652522e+3, 2.538063e+2, -209967.33, -467649.8, 41058.375, -0.03703238, 0.120710954, -203583.36, 249131.6, 0.048806984, 10.002205, 9.998742 
2.26527e+3, 2.6380524e+2, -187984.72, -458016.22, 5353.7363, -0.09312958, 0.18934517, -187878.63, 166848.64, 0.026684597, 10.001841, 9.998309 
2.2652903e+3, 2.7380452e+2, -143474.5, -258402.53, -6329.979, -0.1572781, 0.1552812, -143126.9, 113607.85, 0.010897145, 10.000953, 9.999401 
2.26531e+3, 2.8380412e+2, -321149.28, -406740.5, -38660.523, -0.04390427, 0.19044696, -306272.53, -147532.53, 0.002788968, 9.999554, 9.998391 
2.2653355e+3, 2.9380295e+2, 188454.95, -95061.58, 164180.4, 0.1704676, 0.23400392, 263608.22, 324361.94, 0.0003034348, 10.002444, 9.998395 
2.2653554e+3, 3.0380094e+2, 358861.8, -107270.695, 19343.467, -0.0051638503, 0.12087147, 359663.13, 359663.13, 0.000074942734, 10.003713, 9.997439 
2.2653688e+3, 3.137987e+2, 383542.2, 302704.13, -98535.53, -0.25734115, 0.33438766, 449626.44, 449626.44, 0.00045627946, 10.001978, 10.001134 
2.275156e+3, 2.0378785e+2, -912241.4, -1050203.5, 80312.664, 0.116269544, 0.14177543, -875352.2, 67543.125, 0.4526298, 10.000842, 9.998822 
2.2751743e+3, 2.1379033e+2, -845563.0, -741359.8, 8959.727, -0.20373805, 0.21179403, -740595.0, 104277.16, 0.38963944, 9.999151, 10.001382 
2.2751968e+3, 2.2379212e+2, -1299086.9, -1093702.5, -171545.34, -0.14442892, 0.29489848, -996461.0, -249605.95, 0.32267725, 9.9963875, 9.999236 
2.2752161e+3, 2.3379034e+2, -982167.8, -832783.2, -68334.03, 0.021684684, 0.10433448, -806240.7, -157369.67, 0.25840095, 9.997765, 9.9996195 
2.2752346e+3, 2.4378785e+2, -729695.06, -978251.0, 57017.29, -0.058474187, 0.05279179, -717239.75, -166345.88, 0.20062341, 10.000083, 9.996899 
2.275253e+3, 2.5378552e+2, -368223.5, -537988.1, 78945.71, -0.23845273, -0.12844795, -337185.88, 115729.08, 0.14660953, 10.001176, 9.998716 
2.2752683e+3, 2.6378334e+2, -617536.5, -905596.3, -71244.75, -0.51755464, -0.08804315, -600879.0, -245941.98, 0.09444842, 9.999935, 9.99611 
2.2752896e+3, 2.7378148e+2, -342390.6, -533713.2, -35521.887, -0.36860362, -0.10311343, -336008.34, -79049.45, 0.04983968, 10.000395, 9.997727 
2.2753088e+3, 2.8378108e+2, -410091.56, -344082.75, -74725.67, -0.20189577, -0.00785713, -295397.4, -136432.55, 0.019500945, 9.998551, 9.99927 
2.2753343e+3, 2.9378465e+2, 195689.77, 124562.41, 283111.9, -0.2200053, 0.27518955, 445462.94, 506392.2, 0.004786881, 10.001634, 10.000263 
2.2753559e+3, 3.037831e+2, -55588.906, -603861.25, -99417.305, -0.39918402, 0.18335818, -38118.42, -38118.42, 0.0007184054, 10.002264, 9.994671 
2.2753733e+3, 3.137754e+2, -382524.44, -808779.7, -31430.004, -0.06804125, 0.20596838, -380219.4, -380219.4, 0.0007782504, 10.000158, 9.994262 
2.2852384e+3, 2.4376947e+2, -244973.3, -169555.73, 56159.5, 0.124869965, 0.29583177, -139619.55, 411463.6, 0.45869297, 10.000849, 10.004897 
2.2852488e+3, 2.5377327e+2, -1137298.1, -669007.1, -259901.92, -0.4184143, 0.7272249, -553333.94, -100294.11, 0.36361384, 9.994627, 10.001104 
2.2852749e+3, 2.637683e+2, -1057529.9, -940209.06, 71333.44, 0.30129918, 0.27206883, -906514.1, -551428.1, 0.26167566, 9.995877, 9.997922 
2.2852997e+3, 2.737681e+2, 321515.3, -119904.04, 258655.8, 0.40027392, 0.3654306, 440828.53, 697918.1, 0.1640845, 10.005304, 9.998514 
2.2853139e+3, 2.837652e+2, 501721.3, -54883.758, 56867.813, 0.1227954, 0.2765424, 507472.03, 666591.25, 0.0825175, 10.005803, 9.9979 
2.2853345e+3, 2.937638e+2, 308962.44, 16565.67, 279427.66, -0.39683434, 0.21757695, 478127.0, 539260.8, 0.030766634, 10.002981, 9.9990015 
2.2853585e+3, 3.037636e+2, 127562.734, -54304.203, -101768.2, -0.30342183, 0.16407152, 173105.14, 173105.14, 0.009050459, 10.001317, 9.998995 
2.2853735e+3, 3.137618e+2, -185818.94, -42164.203, 137548.17, 0.018228218, 0.32039183, 41181.46, 41181.46, 0.003967171, 9.998552, 10.00029 
2.2952947e+3, 2.7374357e+2, 35542.453, 22505.709, -453722.6, -0.67172724, -0.44923195, 482793.5, 740124.44, 0.43463662, 10.002695, 10.002316 
2.2953238e+3, 2.8375322e+2, -1177263.9, -1723056.6, -444869.63, 0.39447412, 0.7006632, -928258.56, -769022.94, 0.2541931, 9.997588, 9.990249 
2.2953361e+3, 2.937447e+2, -212631.42, -714727.2, 283638.5, -0.6315664, 0.1493866, -84897.25, -23571.596, 0.121833034, 10.001547, 9.994471 
2.2953625e+3, 3.0374697e+2, -489929.8, 117869.31, -205846.64, -0.18487138, 0.43643448, 181022.6, 181022.6, 0.05419389, 9.9952135, 10.003036 
2.2953723e+3, 3.1375515e+2, 349290.1, 1836358.4, -233497.48, -0.1524572, 0.10519146, 1872159.9, 1872159.9, 0.03188855, 9.995447, 10.0149 
2.30534e+3, 2.9373115e+2, -198045.78, 1013513.4, -510462.22, -0.41868833, 0.48065504, 1199908.4, 1261371.9, 0.3629858, 9.9915495, 10.016195 
2.3053755e+3, 3.0373928e+2, 432390.7, -108690.195, 513684.06, 0.3639414, -0.114100695, 742421.94, 742421.94, 0.21781045, 10.005024, 9.997255 
2.3053743e+3, 3.1373343e+2, -345742.84, -1971007.4, -178707.48, -0.22223967, 0.41621837, -326324.88, -326324.88, 0.17117128, 10.004552, 9.984969 
2.3447448e+3, 2.781617e+2, 365770.6, -320586.78, -1050977.5, 0.5542477, -0.000058438145, 1128180.1, 1342235.4, 0.49881607, 10.01127, 9.996048 
2.34442e+3, 2.8816685e+2, -1039580.7, -891327.3, -1320962.3, -0.10242026, 1.1531698, 357586.5, 473603.22, 0.4739998, 9.995849, 9.997352 
2.3578574e+3, 1.7854396e+2, -820209.3, -1694277.3, 163433.47, -0.28246358, 0.9611908, -790650.06, 399663.5, 0.43656033, 10.007301, 9.99243 
2.3575549e+3, 1.885247e+2, -711436.9, -815668.0, 182867.83, 0.19776967, -0.23990463, -573403.4, 519095.66, 0.37771547, 10.003227, 10.000752 
2.3572496e+3, 1.9853647e+2, -1511878.1, -1318457.0, -162706.73, 0.5300102, 1.1247864, -1225888.9, -231510.23, 0.33362666, 9.996131, 9.999024 
2.3569319e+3, 2.085231e+2, -1172292.3, -1128946.1, -101548.164, -0.16547635, 0.38360846, -1046783.94, -150275.19, 0.30109537, 9.998182, 9.998505 
2.3566264e+3, 2.185194e+2, -1093268.0, -1191043.1, 753565.44, 0.7832402, 0.55519897, -387005.9, 411541.63, 0.27833655, 9.998571, 9.998078 
2.3563078e+3, 2.2852308e+2, 27363.277, -305564.56, 272462.13, 0.229863, 1.469605, 180188.97, 880708.1, 0.26130974, 10.005733, 10.000418 
2.3559861e+3, 2.3851441e+2, -848149.3, -835711.56, -403765.84, -0.8039536, 0.854216, -438116.72, 164493.27, 0.24582483, 9.997899, 9.999242 
2.3556793e+3, 2.4850596e+2, -443147.56, -894705.0, 76824.93, 0.21447685, 0.7488216, -430434.97, 74259.055, 0.2302183, 10.001772, 9.995905 
2.3553625e+3, 2.5849348e+2, -550082.6, -856405.9, 823453.56, 0.17685561, 0.3703993, 134332.19, 541150.3, 0.21018147, 10.000199, 9.996839 
2.3550415e+3, 2.6849073e+2, 539911.06, 482640.94, 570254.56, -0.26923501, 0.445455, 1082249.0, 1391092.8, 0.17671056, 10.004216, 10.004232 
2.3547351e+3, 2.7848837e+2, -364325.53, -866253.4, 518869.1, -0.31526864, 0.57798994, -38914.55, 171947.73, 0.1356884, 10.000843, 9.994827 
2.3544236e+3, 2.8848273e+2, 695424.56, 465240.8, 304083.0, -0.07158477, 0.6910648, 905467.44, 1018382.4, 0.12663335, 10.0047865, 10.001889 
2.354121e+3, 2.9848245e+2, -931666.75, -376978.8, 1018648.3, 0.09958209, 0.42478693, 401406.4, 416324.75, 0.1855492, 9.993047, 10.001377 
2.353805e+3, 3.0846933e+2, -229548.14, -1109940.9, -237528.44, 0.024356995, 0.3118038, -169551.95, -169551.95, 0.30980036, 10.00334, 9.990956 
2.3684761e+3, 1.5885633e+2, -1273212.4, -1669688.4, 246947.94, -0.50715655, 0.546583, -1154777.6, 228477.44, 0.40917912, 10.002257, 9.996703 
2.3681663e+3, 1.6885313e+2, -984092.3, -931459.7, -111276.91, -0.32536605, 0.63376075, -843429.6, 441852.53, 0.31914285, 10.001264, 10.002371 
2.3678662e+3, 1.7884874e+2, -1578793.3, -1426955.1, -93741.31, 0.94934154, 0.3809144, -1382246.1, -194929.98, 0.25440118, 9.996851, 9.9994545 
2.3675506e+3, 1.8883966e+2, -1451132.6, -1300102.6, 113795.2, 0.3516549, 0.09590299, -1239045.8, -149640.88, 0.20803176, 9.997284, 9.999314 
2.3672314e+3, 1.9883327e+2, -1027770.44, -948183.06, 91391.84, -0.5885801, -0.06774709, -888297.25, 103171.49, 0.17323133, 9.998823, 10.000555 
2.366917e+3, 2.0882852e+2, -658859.1, -336324.94, -47363.406, -0.95839953, -0.36306316, -329513.56, 563994.7, 0.14628568, 9.999142, 10.004384 
2.3666067e+3, 2.1882449e+2, -757764.75, -694542.9, -262431.2, -0.67554116, -0.7224445, -461825.66, 333714.34, 0.12553912, 9.999287, 10.000805 
2.3662993e+3, 2.2882077e+2, -1015992.56, -1314532.4, -106748.03, -0.119332336, -0.34768867, -981750.5, -284164.84, 0.108313076, 9.999204, 9.995658 
2.365989e+3, 2.3881504e+2, -860022.3, -938023.2, 15470.813, 0.21425968, -0.052599266, -857065.9, -257411.06, 0.092006706, 9.99842, 9.998013 
2.3656738e+3, 2.4881738e+2, -48217.766, 384725.9, -129151.43, 0.28955024, 0.33169267, 420325.78, 921954.0, 0.07587349, 9.999729, 10.006265 
2.3653628e+3, 2.5881997e+2, -182337.22, -375706.88, -142737.45, 0.5643946, 0.6497115, -106621.53, 296974.03, 0.059167173, 10.001402, 9.999084 
2.3650476e+3, 2.6881242e+2, 26275.592, -359064.47, -82117.664, 0.43182987, 0.5889047, 43045.414, 348722.13, 0.04048029, 10.00289, 9.997682 
2.3647372e+3, 2.7880156e+2, -173778.53, -577433.06, 301458.84, 0.15829296, 0.23159276, -12822.556, 194969.58, 0.022791902, 10.001643, 9.996086 
2.3644216e+3, 2.8879863e+2, 314178.78, 403720.75, -37428.08, -0.0986496, 0.36855897, 417304.72, 527117.6, 0.018046886, 10.001529, 10.002119 
2.3641084e+3, 2.9880017e+2, -309503.84, 48628.066, 177779.67, -0.3000262, 0.3833213, 121891.72, 133678.67, 0.038619135, 9.997034, 10.001614 
2.3638013e+3, 3.0879664e+2, 73498.35, 253090.06, -370399.28, 0.07313928, 0.4311967, 544422.7, 544422.7, 0.08553152, 9.999981, 10.001628 
2.3787929e+3, 1.4917126e+2, -1172951.4, -1849867.9, 182471.67, 0.58684564, 0.41447133, -1126897.0, 351254.53, 0.38968346, 10.005815, 9.994096 
2.378478e+3, 1.5916121e+2, -1479398.5, -1859328.6, -34380.105, -0.25298458, 0.23732005, -1476312.5, -96049.625, 0.27836236, 10.000721, 9.995917 
2.3781638e+3, 1.6915736e+2, -1172960.4, -856246.0, -151111.84, -0.19053853, 0.21401015, -795715.56, 486579.34, 0.19862524, 9.998656, 10.00368 
2.3778506e+3, 1.7915714e+2, -1555479.1, -1232323.8, -112317.445, 0.01567413, 0.20590727, -1197120.9, -12833.058, 0.1461588, 9.996451, 10.000912 
2.3775412e+3, 1.8915573e+2, -1408091.0, -1155604.1, 167083.27, 0.030936772, 0.49609125, -1072433.5, 13871.258, 0.11113541, 9.99715, 10.000327 
2.377234e+3, 1.9915208e+2, -1385224.5, -1270839.8, 103664.914, 0.1263688, 0.5034353, -1209637.1, -221291.2, 0.08556882, 9.997167, 9.999002 
2.3769243e+3, 2.0914824e+2, -1142947.6, -992495.2, -41652.668, 0.27340007, 0.6287845, -981733.5, -91349.19, 0.065839775, 9.997844, 9.999781 
2.3766108e+3, 2.1914333e+2, -1201924.3, -1079696.0, -212808.84, 0.133974, 0.55773205, -919399.75, -126968.21, 0.050802168, 9.997066, 9.999004 
2.3762944e+3, 2.29138e+2, -916562.6, -593413.4, -126326.05, -0.13474897, 0.39764288, -549891.4, 144591.77, 0.03888462, 9.997199, 10.001525 
2.3759812e+3, 2.391325e+2, -1165265.0, -963174.06, -8865.163, -0.10788915, 0.1984614, -962785.9, -366248.75, 0.028499532, 9.996019, 9.998966 
2.3756675e+3, 2.4912894e+2, -509638.8, -349265.47, -120726.11, 0.03372626, 0.27803302, -284522.2, 214049.61, 0.019239584, 9.998925, 10.00103 
2.3753567e+3, 2.591244e+2, -520181.13, -699213.56, -139342.4, 0.1645221, 0.26750842, -444078.94, -43463.336, 0.01143259, 9.999868, 9.9975195 
2.3750436e+3, 2.691198e+2, 66138.13, -78950.375, -155139.27, 0.14330487, 0.34537363, 164856.42, 467517.38, 0.005417436, 10.002167, 9.999871 
2.374733e+3, 2.7911392e+2, -229614.94, -430183.34, 94334.586, -0.07111792, 0.200577, -192218.58, 12500.968, 0.0017240121, 10.000575, 9.9976015 
2.374419e+3, 2.891086e+2, 208965.4, 111567.88, -181407.63, -0.14870587, 0.24730472, 348097.13, 454868.75, 0.0009965353, 10.00183, 9.999941 
2.3741111e+3, 2.9910943e+2, -272587.34, -327375.53, -24064.482, 0.13613026, 0.5007704, -263518.66, -254754.84, 0.0037784507, 9.998956, 9.998148 
2.373802e+3, 3.0910075e+2, 467074.5, 99585.61, -215909.48, -0.19692405, 0.52918607, 566841.8, 566841.8, 0.011109915, 10.0041, 9.99851 
2.3890905e+3, 1.3948512e+2, -1969969.5, -1514707.4, -268210.84, -0.74418277, 0.46241271, -1390553.0, 182521.17, 0.427829, 9.995564, 10.002577 
2.3887822e+3, 1.4948308e+2, -1502672.8, -1557110.9, 13707.684, -0.29715574, 0.6772897, -1499416.0, -24320.906, 0.29985446, 9.999715, 9.999082 
2.3884727e+3, 1.5947318e+2, -1516767.8, -1569427.1, 33064.863, -0.38391238, 0.2131333, -1500830.0, -123634.8, 0.19614406, 9.998935, 9.998878 
2.3881584e+3, 1.6946994e+2, -1099736.0, -948411.44, -144294.53, -0.25380853, 0.24403486, -861145.25, 418079.6, 0.12585048, 9.99972, 10.002278 
2.387844e+3, 1.794682e+2, -1027040.7, -1015314.25, -89933.98, -0.10315208, 0.27974826, -931052.56, 250186.67, 0.083471425, 10.000175, 10.000771 
2.3875359e+3, 1.8946533e+2, -968633.1, -907960.3, 69678.46, 0.04225326, 0.388651, -862300.75, 220970.2, 0.057587944, 9.999956, 10.000774 
2.387229e+3, 1.9946182e+2, -1008320.0, -1019486.8, -6841.084, 0.18745969, 0.40890056, -1005073.06, -19763.03, 0.03970386, 9.999292, 9.9997425 
2.3869182e+3, 2.094593e+2, -894258.2, -838389.7, -2533.5557, 0.24048938, 0.6030826, -838275.06, 49061.504, 0.026570952, 9.999241, 10.000243 
2.3866059e+3, 2.1945637e+2, -785688.4, -763351.7, 59384.93, 0.2210613, 0.74327976, -714094.06, 75272.086, 0.017417854, 9.999338, 10.000108 
2.3862903e+3, 2.2945207e+2, -437121.56, -258483.22, -22388.283, 0.022310935, 0.61222714, -255720.1, 435686.0, 0.011141793, 10.000061, 10.002468 
2.3859759e+3, 2.3944642e+2, -435260.1, -575251.06, -59176.16, -0.11442328, 0.35840255, -413597.6, 179861.38, 0.0065593217, 10.0008745, 9.999265 
2.3856628e+3, 2.4943975e+2, -249789.2, -487754.88, -66105.59, -0.050659336, 0.27254355, -232658.61, 262867.3, 0.0032030866, 10.001802, 9.998674 
2.3853523e+3, 2.5943267e+2, -269337.84, -600457.0, 44771.883, 0.04784505, 0.21496366, -263390.88, 134206.27, 0.0011282732, 10.001645, 9.9973135 
2.3850402e+3, 2.6942864e+2, 3889.2024, -102039.13, -75276.86, 0.054259174, 0.3557609, 42967.465, 342602.88, 0.00023273825, 10.001624, 9.999998 
2.3847297e+3, 2.7942404e+2, -174235.77, -263952.0, -28316.955, -0.010539189, 0.32004595, -166045.78, 35632.715, 0.000018977813, 10.000224, 9.99892 
2.3844165e+3, 2.8941768e+2, 177115.81, 58532.594, -124531.46, -0.10877834, 0.20931621, 255750.19, 359492.5, 0.000039610317, 10.001715, 9.999621 
2.3841096e+3, 2.9941726e+2, -46020.516, -483008.8, 107336.85, 0.43967798, 0.55760807, -21079.06, -15328.967, 0.00031053094, 10.001587, 9.99578 
2.383803e+3, 3.0940592e+2, 36865.836, -213546.14, -140430.2, 0.11456587, 0.5280015, 99801.234, 99801.234, 0.0010092406, 10.00175, 9.997262 
2.399406e+3, 1.2979393e+2, -2994332.0, -1988337.3, 75219.73, -0.21504207, 0.6542659, -1982744.1, -314683.3, 0.49043837, 9.989615, 10.001854 
2.399095e+3, 1.3978636e+2, -1683924.4, -1541107.5, -164537.75, 0.33278716, -0.07893219, -1433150.8, 136979.28, 0.36336115, 9.998567, 10.000715 
2.3987807e+3, 1.4978614e+2, -1319675.1, -1078088.8, 45927.64, 0.012848979, 0.074413024, -1069652.1, 402471.4, 0.24041095, 9.999472, 10.003157 
2.3984653e+3, 1.5978618e+2, -1644582.3, -1442463.9, -23827.072, -0.5107522, 0.2019645, -1439693.0, -65577.0, 0.14389461, 9.99751, 10.000295 
2.3981528e+3, 1.6978373e+2, -1302677.8, -1194859.0, -116472.336, -0.29603255, 0.37449688, -1120425.0, 155718.81, 0.08188297, 9.999137, 10.000544 
2.397841e+3, 1.7977953e+2, -1236672.8, -1313018.5, -70212.305, 0.04484379, 0.35072115, -1194927.4, -16737.383, 0.047678713, 9.999611, 9.998914 
2.397531e+3, 1.8977411e+2, -1088962.8, -1012979.0, 82605.24, 0.010066763, 0.2850047, -960047.75, 120198.0, 0.028905774, 9.999435, 10.000207 
2.3972207e+3, 1.9976945e+2, -1219523.8, -1070320.1, -15483.593, -0.09431986, 0.20516518, -1068730.3, -86436.6, 0.017015342, 9.997823, 10.000067 
2.3969091e+3, 2.097677e+2, -869225.5, -498372.1, -7071.0386, -0.08990347, 0.25676304, -498237.34, 386073.28, 0.00915297, 9.998197, 10.003031 
2.3965985e+3, 2.1976571e+2, -1063339.4, -893744.0, 26655.066, 0.03251063, 0.26279277, -889653.4, -103323.6, 0.0045936005, 9.9976, 10.000031 
2.3962851e+3, 2.2976287e+2, -716394.1, -624628.6, -20186.715, -0.014274892, 0.41355428, -620384.2, 67974.32, 0.0022051786, 9.999244, 10.000279 
2.3959717e+3, 2.3975824e+2, -762274.5, -908906.06, -65036.152, -0.13185076, 0.43955952, -737585.6, -147180.61, 0.0009056362, 9.999493, 9.997638 
2.3956601e+3, 2.497523e+2, -335085.25, -476110.13, -75828.42, -0.0065119844, 0.43057895, -302050.8, 190414.25, 0.00023937336, 10.001211, 9.998925 
2.3953508e+3, 2.5974572e+2, -528639.7, -841427.56, -3632.0085, 0.15364167, 0.3797361, -528597.5, -134066.06, 0.000025130046, 10.00046, 9.996233 
2.3950383e+3, 2.6974058e+2, -115657.65, -332279.66, -92313.164, 0.13772959, 0.55986035, -81655.64, 214928.88, 0.00000030344088, 10.001643, 9.998373 
2.3947266e+3, 2.7973574e+2, -254209.3, -268431.3, -58893.617, -0.00078270334, 0.559116, -201998.94, -3365.7268, 0.0000000068303647, 9.999592, 9.999216 
2.3944126e+3, 2.8972918e+2, 279727.25, 329040.94, -18751.842, -0.2677265, 0.25730324, 335361.38, 436053.97, 0.0000039429096, 10.00157, 10.001518 
2.3941028e+3, 2.997258e+2, -181598.72, -611736.4, 209016.05, -0.3568757, 0.27710938, -96763.71, -94042.03, 0.00006190627, 10.000992, 9.995164 
2.3938057e+3, 3.0971712e+2, 220724.25, 16957.918, 242724.53, 0.27224767, 0.40432453, 382081.22, 382081.22, 0.0002690841, 10.002173, 9.998664 
2.4094002e+3, 1.3010913e+2, -1479233.0, -1539495.9, -37188.34, -0.35191476, 0.7089818, -1461501.4, 203463.48, 0.44510007, 10.00167, 10.000202 
2.4090916e+3, 1.4010106e+2, -1257136.1, -1417711.0, -33799.27, 0.19973525, 0.24019505, -1250311.8, 316733.97, 0.31930807, 10.002591, 9.999921 
2.4087776e+3, 1.5009779e+2, -1176466.1, -1042917.5, -41085.195, 0.05936418, 0.15820323, -1031290.25, 437778.4, 0.20041417, 10.000767, 10.002719 
2.4084622e+3, 1.6009478e+2, -1482136.1, -1326936.1, -124201.016, -0.28332597, 0.03632197, -1258085.9, 113003.625, 0.110025235, 9.998345, 10.000783 
2.4081486e+3, 1.7009307e+2, -1121528.5, -1053818.1, -128958.02, -0.2323356, 0.22150744, -954345.3, 318765.06, 0.054970514, 10.000089, 10.001114 
2.4078359e+3, 1.8009058e+2, -928309.75, -1079192.9, -33721.035, -0.12905942, 0.33880866, -921116.4, 254023.94, 0.027314784, 10.00127, 9.999774 
2.4075253e+3, 1.9008586e+2, -915790.8, -924035.5, 94373.4, -0.09561391, 0.30622923, -825449.75, 251737.97, 0.013986388, 10.000491, 10.000377 
2.4072148e+3, 2.00081e+2, -994768.75, -923152.6, 58959.516, -0.13328646, 0.23398075, -889979.2, 89256.88, 0.006556314, 9.999095, 10.00049 
2.406903e+3, 2.1007887e+2, -779680.2, -493634.4, -56333.17, -0.10694022, 0.26996446, -482940.13, 398318.63, 0.002469395, 9.998992, 10.002671 
2.4065918e+3, 2.2007658e+2, -816359.7, -793385.75, -97647.26, -0.07247791, 0.30584636, -706552.1, 76730.72, 0.00078321603, 9.999217, 9.999978 
2.40628e+3, 2.3007244e+2, -604406.94, -686049.9, -104418.484, -0.06303377, 0.37183446, -533114.1, 152211.13, 0.00023610769, 10.000287, 9.999436 
2.4059688e+3, 2.4006729e+2, -490985.0, -772730.06, -74337.2, -0.06544858, 0.41417596, -472574.47, 114803.16, 0.000047296035, 10.0011215, 9.997839 
2.4056582e+3, 2.5006148e+2, -256542.17, -445234.94, -110836.14, 0.08113086, 0.41805652, -205334.81, 284101.44, 0.0000020598873, 10.001691, 9.998961 
2.4053486e+3, 2.6005548e+2, -273432.94, -585130.2, -56663.418, 0.23977798, 0.4013072, -263451.72, 128045.22, 0.0, 10.001543, 9.997477 
2.4050361e+3, 2.700506e+2, -154759.03, -328981.53, -49703.26, 0.19454296, 0.55580705, -141576.8, 151969.89, 0.0, 10.00124, 9.9986105 
2.4047232e+3, 2.8004602e+2, -141648.73, -192517.88, 26878.873, 0.07560404, 0.6102824, -130078.02, 65514.816, 0.0, 10.000144, 9.999493 
2.4044092e+3, 2.900395e+2, 130999.38, 198106.72, -86603.0, -0.28225914, 0.33168, 257428.92, 355082.16, 0.00000028208012, 10.000674, 10.001108 
2.4040991e+3, 3.0003554e+2, -270036.4, -534527.4, 97529.51, -0.3728438, 0.33262476, -237962.47, -237962.47, 0.000017512673, 9.99972, 9.996353 
2.4038073e+3, 3.100258e+2, 375070.03, 278102.84, 73371.92, 0.5850524, 0.1957848, 414530.16, 414530.16, 0.0001005609, 10.002359, 10.000444 
2.4193954e+3, 1.304124e+2, -1806734.8, -1681172.6, -2625.4602, -0.4473798, -0.11954827, -1681117.8, -19132.988, 0.41411307, 9.998449, 10.000006 
2.4190867e+3, 1.4041792e+2, -1629751.6, -1762720.4, -127220.54, -0.025559828, 0.7628135, -1552690.8, 11247.111, 0.28877336, 9.999805, 9.998401 
2.4187739e+3, 1.5041076e+2, -1433220.8, -1268411.6, -89213.73, 0.14073569, 0.39624646, -1229368.3, 236632.92, 0.17287979, 9.999105, 10.001551 
2.4184602e+3, 1.6040258e+2, -1669489.6, -1500504.3, -114882.81, 0.16385397, -0.13518223, -1442388.9, -74314.81, 0.08747846, 9.997395, 10.000035 
2.4181451e+3, 1.7040184e+2, -1152555.9, -936499.94, -46879.98, -0.10508127, 0.070420526, -926766.44, 343317.66, 0.038149297, 9.999357, 10.002201 
2.4178308e+3, 1.8040176e+2, -1088651.5, -1098413.6, -46261.938, -0.29442826, 0.31337914, -1047013.9, 125074.54, 0.01570925, 10.000008, 10.000173 
2.4175207e+3, 1.9039835e+2, -929844.56, -860180.1, 26646.102, -0.14150207, 0.3329539, -851156.94, 222964.08, 0.0064830934, 10.000149, 10.000909 
2.417211e+3, 2.0039415e+2, -1199460.4, -1189614.8, -4967.6396, 0.047792744, 0.3045221, -1187543.9, -211382.03, 0.0021827125, 9.998503, 9.998923 
2.4168982e+3, 2.1039115e+2, -928597.56, -826822.75, -67867.45, -0.033592384, 0.4507437, -792883.75, 85313.09, 0.00044835047, 9.999126, 10.000288 
2.4165857e+3, 2.2038773e+2, -1081634.3, -1094305.0, -92693.984, -0.122825705, 0.5591122, -995059.4, -214823.69, 0.000068581576, 9.998289, 9.99833 
2.4162754e+3, 2.3038183e+2, -674483.1, -667454.1, -84379.64, -0.0841961, 0.4611816, -586515.8, 95778.945, 0.0000096515805, 9.999839, 9.999664 
2.4159662e+3, 2.4037518e+2, -753084.44, -938416.06, -91723.81, 0.028858552, 0.31543183, -715365.4, -131004.64, 0.00000040342232, 9.999691, 9.997348 
2.4156556e+3, 2.5036925e+2, -345610.28, -497516.38, -109801.055, 0.1243636, 0.3095778, -288052.53, 198368.1, 0.0, 10.001232, 9.998771 
2.415345e+3, 2.603635e+2, -440415.4, -609083.7, -111479.5, 0.15896054, 0.2883291, -384964.25, 3513.5437, 0.0, 10.000267, 9.997935 
2.4150318e+3, 2.7035958e+2, -140289.08, -120016.35, -80497.26, 0.111150935, 0.36580807, -49019.766, 241492.88, 0.0, 10.000602, 10.000282 
2.4147186e+3, 2.8035548e+2, -519381.94, -637921.25, 8062.205, -0.014834901, 0.40540037, -518836.13, -326285.03, 0.0, 9.998782, 9.99709 
2.414406e+3, 2.9034922e+2, -189806.78, -320275.53, -76504.24, -0.2413083, 0.47981513, -154500.5, -59881.285, 0.0000000009564638, 10.000201, 9.997703 
2.4140987e+3, 3.0034423e+2, -466735.4, -599327.4, 150154.45, -0.28466943, 0.5875858, -368892.7, -368892.7, 0.0000015325257, 9.998388, 9.996533 
2.4138004e+3, 3.103359e+2, 413547.8, 463331.2, 142540.66, -0.20876962, 0.25656173, 583137.25, 583137.25, 0.000021924814, 10.001886, 10.001973 
2.4293953e+3, 1.3072775e+2, -1946067.9, -1611718.3, 8398.241, 0.16499095, 0.2750123, -1611507.4, 47385.42, 0.3927152, 9.996687, 10.001601 
2.4290799e+3, 1.4072579e+2, -1769914.1, -1649227.4, -42138.605, -0.20106065, 0.34472352, -1635970.6, -75055.984, 0.26710206, 9.997964, 10.000092 
2.4287659e+3, 1.50722e+2, -1560818.5, -1323295.5, -82007.32, -0.07791793, 0.2824984, -1297732.8, 165217.23, 0.15331793, 9.998089, 10.001669 
2.4284524e+3, 1.6071755e+2, -1663149.0, -1489209.1, 9575.114, 0.017178962, 0.16087964, -1488683.6, -123691.94, 0.07196278, 9.997311, 10.000184 
2.4281399e+3, 1.707146e+2, -1281704.1, -1110962.9, 33324.348, -0.0970254, 0.22844215, -1104689.3, 162332.83, 0.027363949, 9.998929, 10.00116 
2.4278274e+3, 1.8071152e+2, -1061246.0, -1092446.0, -41453.78, -0.25543785, 0.27391544, -1032554.06, 136499.11, 0.009079448, 10.000145, 10.00013 
2.4275166e+3, 1.9070739e+2, -753850.0, -762446.06, -49336.625, -0.18575916, 0.21295507, -708624.56, 362464.63, 0.002868925, 10.001205, 10.001101 
2.427206e+3, 2.0070307e+2, -707454.56, -948365.9, -68580.59, -0.09612265, 0.17533413, -689299.75, 283828.56, 0.00059867656, 10.001703, 9.999082 
2.4268943e+3, 2.1069884e+2, -537796.5, -766474.3, -79552.68, -0.06378354, 0.27327418, -512844.25, 362329.94, 0.000045539302, 10.002161, 9.99934 
2.4265826e+3, 2.2069453e+2, -531250.6, -835221.25, -48580.86, -0.06994219, 0.38960475, -523675.2, 253546.84, 0.0000022398012, 10.001972, 9.998346 
2.4262717e+3, 2.3068923e+2, -495759.6, -619305.8, -68843.61, -0.067596816, 0.3867228, -465037.5, 214241.3, 0.000000052409952, 10.001182, 9.999379 
2.425962e+3, 2.4068357e+2, -613777.75, -797204.1, -94470.914, -0.016215324, 0.3715199, -573824.44, 7514.3564, 0.0, 10.000263, 9.998032 
2.4256516e+3, 2.5067812e+2, -477557.8, -577936.5, -129405.734, 0.082840815, 0.41629678, -388949.4, 94447.86, 0.0, 10.000325, 9.998688 
2.425341e+3, 2.6067266e+2, -348732.7, -441410.4, -168061.3, 0.14795613, 0.4280838, -220738.84, 164714.44, 0.0, 10.000203, 9.999141 
2.4250276e+3, 2.7066767e+2, -64585.824, -14357.211, -235034.34, 0.09055755, 0.30776468, 196900.8, 484394.03, 0.0, 10.000667, 10.001033 
2.4247152e+3, 2.8066298e+2, -199431.3, -480093.84, -117363.81, 0.07049184, 0.25823024, -156822.33, 32710.77, 0.0, 10.00082, 9.997209 
2.4244052e+3, 2.9065725e+2, 175051.4, -316022.03, -36246.7, -0.040918082, 0.49463558, 177712.39, 269313.7, 0.0, 10.00326, 9.996344 
2.4240987e+3, 3.0065194e+2, 282860.72, -119599.88, 210762.61, -0.03912296, 0.6641272, 373031.38, 373031.38, 0.000000086511356, 10.00284, 9.997743 
2.4237956e+3, 3.106467e+2, -345567.1, 154951.36, -265370.4, -0.2380979, 0.5733123, 269453.88, 269453.88, 0.0000026170453, 9.9962, 10.002697 
2.4396937e+3, 1.21037126e+2, -2137080.3, -1985051.1, -607503.1, -0.7469428, -0.07808701, -1448825.4, 305036.16, 0.49455413, 9.997651, 10.00016 
2.4393947e+3, 1.310438e+2, -1668789.8, -1422211.5, 59799.484, 0.8353154, 0.7523529, -1408474.4, 247320.53, 0.3775347, 9.998248, 10.002887 
2.439073e+3, 1.410319e+2, -1942643.8, -1650667.4, -47966.51, -0.19721863, -0.26271242, -1642989.1, -85081.07, 0.25111946, 9.996573, 10.000702 
2.4387571e+3, 1.5103345e+2, -1549582.9, -1303943.1, -125581.46, -0.26544482, 0.16431984, -1251105.9, 208791.31, 0.13882844, 9.998229, 10.00167 
2.4384436e+3, 1.6103406e+2, -1627144.0, -1595670.9, -31119.525, -0.13714339, 0.57565016, -1576535.4, -214640.3, 0.060861234, 9.998222, 9.998969 
2.4381347e+3, 1.7102762e+2, -1299060.6, -1294796.1, 51473.14, -0.04472642, 0.41701624, -1245411.0, 18547.309, 0.02025213, 9.9996605, 9.999481 
2.4378255e+3, 1.8102066e+2, -1202487.3, -1292066.1, -29045.914, -0.016376, 0.21793522, -1193893.6, -27868.627, 0.0052852775, 9.999823, 9.998924 
2.4375129e+3, 1.9101548e+2, -864959.6, -820803.2, -47152.953, -0.20869376, 0.06698404, -790815.6, 277251.5, 0.0012089658, 10.000565, 10.000984 
2.4372011e+3, 2.010105e+2, -989524.5, -1126043.5, -75755.29, -0.2788277, -0.022770045, -955812.3, 14296.678, 0.00012403581, 10.000136, 9.9985695 
2.4368913e+3, 2.1100509e+2, -691805.44, -828328.5, -85119.8, -0.08616544, -0.05868082, -650956.9, 221206.06, 0.000001917801, 10.001246, 9.999233 
2.4365813e+3, 2.2099982e+2, -848971.9, -1122280.6, -77730.305, 0.07772933, -0.012663535, -828411.7, -54193.273, 0.000000018702426, 10.000511, 9.997022 
2.436268e+3, 2.3099615e+2, -624081.5, -778847.75, -101916.11, -0.083130576, 0.22319286, -573499.6, 102764.97, 0.0, 10.000763, 9.998429 
2.4359556e+3, 2.409923e+2, -878830.0, -1047844.4, -118868.52, -0.19866171, 0.45649683, -817490.75, -239177.45, 0.0, 9.99907, 9.996877 
2.435646e+3, 2.509884e+2, -565152.1, -635979.06, -130068.9, -0.03429459, 0.6777315, -465761.94, 14601.151, 0.0, 9.999943, 9.998418 
2.4353361e+3, 2.609835e+2, -598134.56, -684293.9, -173515.5, 0.09308979, 0.7830861, -462430.88, -80013.336, 0.0, 9.99916, 9.99796 
2.4350235e+3, 2.7097568e+2, -160511.0, -104710.42, -228482.97, 0.049195968, 0.42243734, 97569.42, 382049.7, 0.0, 10.000299, 10.00055 
2.4347122e+3, 2.8096825e+2, -372419.13, -570284.06, -88215.65, 0.07490605, 0.11939616, -338801.13, -152259.03, 0.0, 9.999772, 9.9971 
2.4344067e+3, 2.909629e+2, 135547.55, -258780.52, 60805.5, 0.17825758, 0.29178756, 144710.84, 233316.45, 0.0, 10.002755, 9.996954 
2.4340996e+3, 3.009582e+2, -91834.484, -412998.6, 58550.29, 0.015498258, 0.5264955, -81493.36, -81493.36, 0.0, 10.000893, 9.996651 
2.4337883e+3, 3.1095347e+2, -738401.9, -153316.39, -206890.16, -0.3117903, 0.4936635, -87550.9, -87550.9, 0.00000012758136, 9.994217, 10.001435 
2.4496941e+3, 1.21357866e+2, -1675998.6, -1678536.6, -60822.06, -0.31977293, 0.47106585, -1616432.4, 134291.5, 0.48540777, 10.00011, 10.000562 
2.4493857e+3, 1.3135464e+2, -1534785.6, -1471566.1, 8291.71, 0.3907103, 0.44612882, -1470496.6, 182252.84, 0.3659335, 10.0002, 10.001451 
2.4490657e+3, 1.413459e+2, -1937353.9, -1753536.9, -20385.857, -0.24009864, -0.09689214, -1751303.1, -196473.14, 0.23856215, 9.996972, 9.999836 
2.4487524e+3, 1.5134513e+2, -1365532.8, -1321037.3, -61804.113, -0.23665155, 0.20604402, -1277598.6, 179244.9, 0.1275105, 9.999973, 10.000694 
2.4484406e+3, 1.6134356e+2, -1082577.8, -1365539.3, -28142.545, -0.1430346, 0.49276578, -1079805.9, 279058.47, 0.052560914, 10.002145, 9.9986725 
2.4481313e+3, 1.7133707e+2, -922803.0, -1179316.5, 35069.156, -0.105897695, 0.37867662, -918094.94, 342833.72, 0.01541553, 10.0024185, 9.999026 
2.4478213e+3, 1.8133044e+2, -929970.1, -1141799.6, -38128.164, -0.12534595, 0.26246104, -923316.25, 239676.05, 0.0031067657, 10.001518, 9.99917 
2.4475093e+3, 1.9132599e+2, -917144.4, -884881.8, -75201.26, -0.16147794, 0.20709129, -824101.1, 240928.42, 0.00048131414, 10.0003, 10.000725 
2.4471977e+3, 2.0132108e+2, -1086084.0, -1120137.8, -64202.68, -0.18359393, 0.15157767, -1036688.75, -69617.21, 0.000015932997, 9.9991665, 9.999072 
2.4468875e+3, 2.11315e+2, -830901.4, -865028.0, -70606.58, -0.09665836, 0.02868709, -775325.56, 93803.5, 0.0000000054715246, 10.000134, 9.999528 
2.446577e+3, 2.2130913e+2, -714402.6, -975275.06, -61447.797, -0.040357895, -0.0038949293, -700653.44, 70533.42, 0.0, 10.000936, 9.997859 
2.4462639e+3, 2.313048e+2, -571933.2, -771629.2, -69868.195, -0.1436656, 0.16619253, -549915.75, 123320.28, 0.0, 10.001064, 9.998414 
2.4459517e+3, 2.4130046e+2, -565723.56, -869808.1, -47639.234, -0.21385428, 0.37966633, -558434.94, 16852.383, 0.0, 10.000888, 9.997286 
2.4456424e+3, 2.512957e+2, -396142.3, -613928.06, -40809.945, -0.0045265732, 0.5566168, -388746.28, 88600.805, 0.0, 10.001142, 9.998117 
2.445333e+3, 2.6129076e+2, -260662.2, -504215.0, -71273.26, 0.14287013, 0.7042701, -241338.05, 138066.11, 0.0, 10.001249, 9.998232 
2.4450201e+3, 2.712838e+2, 89161.35, -91607.74, -153343.77, 0.036630385, 0.5062902, 176775.9, 458238.75, 0.0, 10.002364, 9.9997015 
2.4447092e+3, 2.812766e+2, 79644.945, -313475.25, -65333.203, 0.04977953, 0.30049688, 90218.375, 273744.3, 0.0, 10.002521, 9.997578 
2.4444048e+3, 2.9127008e+2, -224785.2, -382376.72, 2472.347, 0.27990168, 0.31787282, -224746.42, -139147.94, 0.0, 9.999872, 9.997568 
2.4440981e+3, 3.0126494e+2, -525872.5, -537554.3, -38818.043, 0.27109727, 0.46429735, -492458.4, -492458.4, 0.0, 9.997331, 9.997555 
2.443782e+3, 3.112621e+2, 299508.72, 443190.75, -186231.89, -0.28380564, 0.66899776, 570958.0, 570958.0, 0.000000000000427524, 10.000689, 10.002474 
2.4596892e+3, 1.2167158e+2, -1904709.5, -1849797.9, 155622.64, -0.39545414, 0.3498986, -1719227.6, 28424.988, 0.47723567, 9.998603, 9.999753 
2.4593765e+3, 1.3166519e+2, -1724382.1, -1671125.1, -188386.42, -0.06993148, 0.120319895, -1507494.5, 142212.56, 0.3557266, 9.999363, 10.000066 
2.4590594e+3, 1.4166167e+2, -1977078.3, -1938774.4, -37901.86, -0.12957788, 0.25761285, -1915460.5, -363724.34, 0.22774403, 9.997503, 9.998297 
2.4587496e+3, 1.5165667e+2, -1545250.3, -1519460.0, 28146.672, -0.054568853, 0.24690245, -1501395.1, -47603.875, 0.11809006, 9.999334, 9.999447 
2.4584399e+3, 1.6165154e+2, -1432865.4, -1642923.1, 15564.525, 0.043070022, 0.293613, -1431718.4, -75870.73, 0.04605504, 10.000166, 9.997701 
2.4581285e+3, 1.7164621e+2, -1141931.1, -1291519.0, 40849.285, -0.14748949, 0.30276784, -1131503.0, 126398.03, 0.012013259, 10.001015, 9.9988785 
2.4578169e+3, 1.816414e+2, -1174158.5, -1328612.1, -73764.79, -0.24063858, 0.38689384, -1144590.1, 15358.462, 0.0018483637, 10.000247, 9.998479 
2.457506e+3, 1.9163772e+2, -969710.4, -968052.75, -115843.375, -0.03648054, 0.4398403, -853035.25, 208947.5, 0.00018026956, 10.000234, 10.000152 
2.4571954e+3, 2.0163332e+2, -1193243.9, -1238405.8, -56519.7, 0.10793264, 0.4852761, -1154961.3, -190938.11, 0.0000007906511, 9.998844, 9.99841 
2.4568827e+3, 2.1162683e+2, -864539.2, -867036.94, -42608.004, -0.11100978, 0.30335623, -823161.75, 42921.11, 0.0, 9.999932, 9.99961 
2.4565709e+3, 2.2162022e+2, -946773.56, -1091851.3, -85338.3, -0.25855067, 0.1909317, -907310.1, -139166.13, 0.0, 9.999579, 9.997687 
2.4562597e+3, 2.316146e+2, -644122.25, -727844.44, -94047.62, -0.19560374, 0.17352094, -583040.1, 87156.8, 0.0, 10.000503, 9.998873 
2.455949e+3, 2.416087e+2, -816303.3, -1063270.9, -63567.28, -0.0861071, 0.21127476, -800902.06, -228646.11, 0.0, 9.999667, 9.996504 
2.4556397e+3, 2.5160107e+2, -513030.56, -725972.94, -52082.902, 0.09625201, 0.13148159, -500974.38, -26633.615, 0.0, 10.000644, 9.99755 
2.45533e+3, 2.6159483e+2, -587044.56, -827731.8, -71335.69, 0.17992277, 0.21670099, -567490.5, -191079.23, 0.0, 9.999847, 9.99666 
2.4550173e+3, 2.715925e+2, -86431.836, -315694.9, -109712.04, -0.01795714, 0.581872, -42390.37, 236048.0, 0.0, 10.001877, 9.998339 
2.454706e+3, 2.8158885e+2, -203896.2, -569630.1, -116091.9, -0.12738156, 0.8682679, -170158.33, 10319.06, 0.0, 10.001255, 9.996403 
2.4543984e+3, 2.9157972e+2, -387585.1, -461595.38, -114000.88, 0.099782124, 0.61314815, -304733.72, -222161.47, 0.0, 9.99888, 9.997454 
2.4540928e+3, 3.0157083e+2, -929837.9, -738425.5, -2280.4463, 0.35861415, 0.41522524, -738398.3, -738398.3, 0.0, 9.994789, 9.997363 
2.453779e+3, 3.1157023e+2, 223231.17, 675159.3, 136820.55, -0.4529886, 0.65690655, 713353.56, 713353.56, 0.0, 9.999329, 10.004602 
2.4696848e+3, 1.2198013e+2, -1902172.3, -1807830.8, 138052.89, -0.3788544, 0.3281175, -1709112.3, 35516.965, 0.46785232, 9.998408, 10.000144 
2.4693707e+3, 1.3197686e+2, -1617917.3, -1515565.6, -242044.11, -0.152184, 0.2945785, -1319346.4, 327308.6, 0.34520847, 9.999624, 10.001428 
2.4690548e+3, 1.4197335e+2, -1690066.9, -1739035.6, -64424.73, -0.09579071, 0.3295977, -1645630.8, -96946.086, 0.21743059, 9.999133, 9.998887 
2.4687447e+3, 1.5196833e+2, -1600232.1, -1540885.5, 41444.305, -0.015794545, 0.30934316, -1519586.9, -68850.42, 0.109704144, 9.998949, 9.999471 
2.4684353e+3, 1.619629e+2, -1607026.6, -1650950.8, 103719.0, 0.049312323, 0.3182517, -1522970.0, -170177.84, 0.040704507, 9.998581, 9.998416 
2.4681248e+3, 1.7195632e+2, -1309100.8, -1349090.5, 127527.14, -0.088950016, 0.1894959, -1200010.5, 54845.46, 0.00953522, 9.999688, 9.999184 
2.4678135e+3, 1.8195096e+2, -1112210.3, -1224462.9, 27420.148, -0.23037854, 0.20665006, -1105870.4, 51037.76, 0.0011160366, 10.000269, 9.999202 
2.4675015e+3, 1.9194849e+2, -771242.25, -871962.9, -1109.9552, -0.14210376, 0.38579258, -771230.0, 287702.8, 0.00006263998, 10.001528, 10.000232 
2.4671902e+3, 2.0194474e+2, -758843.75, -1079531.8, 52022.688, -0.065708436, 0.5394702, -750615.7, 210354.38, 0.0000000031066179, 10.001935, 9.998041 
2.4668796e+3, 2.1193674e+2, -711558.4, -964383.4, -8255.969, -0.06325248, 0.357423, -711289.06, 151759.92, 0.0, 10.001589, 9.998224 
2.4665686e+3, 2.2192916e+2, -661795.8, -890856.44, -88370.83, -0.11900882, 0.24205808, -631665.9, 133455.86, 0.0, 10.001115, 9.99837 
2.4662568e+3, 2.3192388e+2, -398472.75, -546433.5, -91694.84, -0.15289241, 0.20088103, -354635.28, 312532.1, 0.0, 10.0017805, 9.999582 
2.4659455e+3, 2.4191803e+2, -398696.9, -791713.44, -66596.43, -0.12547842, 0.20538342, -387718.8, 181502.5, 0.0, 10.002124, 9.997198 
2.4656357e+3, 2.5190982e+2, -394342.6, -701338.2, -74552.05, 0.024659036, 0.09262179, -377195.78, 94112.53, 0.0, 10.001508, 9.997341 
2.4653257e+3, 2.619027e+2, -404042.28, -749920.7, -31075.793, 0.09649637, 0.12493441, -401272.44, -27886.064, 0.0, 10.0009575, 9.9966955 
2.4650146e+3, 2.719e+2, -134450.5, -448872.34, -46263.367, -0.0339068, 0.53686863, -127784.72, 147638.3, 0.0, 10.001859, 9.997501 
2.4647036e+3, 2.8189683e+2, -13575.386, -399361.56, -112610.37, -0.143119, 0.9240167, 16889.62, 194351.98, 0.0, 10.002105, 9.997179 
2.4643923e+3, 2.9188773e+2, 25109.617, -218370.36, -134471.6, -0.057931207, 0.64602435, 84762.11, 164316.14, 0.0, 10.001395, 9.997994 
2.4640872e+3, 3.018781e+2, -112964.38, -241872.81, 135594.53, 0.43735358, 0.3476841, -27284.576, -27284.576, 0.0, 9.999757, 9.998442 
2.4637759e+3, 3.1187567e+2, 79372.8, 629000.9, 100334.625, -0.29449388, 0.4307783, 646744.2, 646744.2, 0.0, 9.997888, 10.005127 
2.4796826e+3, 1.2229036e+2, -1862228.9, -1784345.8, 242517.38, -0.100696705, 0.44496018, -1577663.4, 163923.64, 0.45571712, 9.998828, 10.000516 
2.4793659e+3, 1.3228816e+2, -1487090.9, -1382972.9, -183615.92, -0.11691549, 0.4261787, -1244178.6, 399426.3, 0.33319858, 10.000218, 10.002213 
2.4790508e+3, 1.4228383e+2, -1546407.8, -1627669.4, -79731.2, 0.035133142, 0.32054612, -1497551.6, 48092.72, 0.20679392, 10.00012, 9.999182 
2.4787398e+3, 1.5227999e+2, -1361013.9, -1403493.8, -18038.01, 0.034560755, 0.37213373, -1354388.0, 93292.56, 0.10179194, 10.000575, 9.999684 
2.4784304e+3, 1.6227488e+2, -1482531.6, -1570501.1, 59219.703, 0.13660914, 0.39271477, -1452749.0, -103020.19, 0.036105353, 9.99948, 9.998509 
2.4781214e+3, 1.7226668e+2, -1309240.6, -1298442.6, 95134.086, 0.069373906, 0.042156108, -1208554.4, 43251.48, 0.0076701324, 9.999615, 9.999504 
2.4778105e+3, 1.822603e+2, -1294041.8, -1338446.0, 7249.7, -0.06192152, -0.053929046, -1292888.1, -139021.72, 0.000687035, 9.999265, 9.998864 
2.4774966e+3, 1.9225922e+2, -865113.6, -894695.5, -35089.305, -0.31516463, 0.23031549, -841825.3, 214053.16, 0.000019881356, 10.000923, 10.000293 
2.4771845e+3, 2.0225582e+2, -1070027.5, -1446824.6, -27391.71, -0.33326888, 0.47792318, -1068046.6, -110131.65, 0.0, 10.000865, 9.9959755 
2.4768777e+3, 2.12246e+2, -1004457.9, -1340085.5, -53817.332, 0.06221005, 0.2982586, -996039.5, -136020.86, 0.0, 10.000719, 9.995955 
2.4765687e+3, 2.222376e+2, -938828.56, -1091482.6, -77111.51, 0.26549158, 0.2516136, -906656.75, -144552.42, 0.0, 9.999615, 9.997668 
2.4762544e+3, 2.3223324e+2, -477683.8, -517810.34, -68922.06, -0.08677758, 0.23635703, -425964.2, 238175.25, 0.0, 10.000986, 10.00013 
2.4759412e+3, 2.4222836e+2, -686958.3, -984812.2, -94007.93, -0.3132249, 0.31343693, -659769.56, -93587.33, 0.0, 10.000538, 9.996602 
2.4756302e+3, 2.5222147e+2, -503024.1, -757319.1, -105354.336, -0.20733768, 0.32256582, -465047.34, 3205.808, 0.0, 10.000932, 9.997142 
2.4753201e+3, 2.6221398e+2, -693218.1, -1022415.44, -20925.514, -0.111777425, 0.37008962, -691893.3, -321561.5, 0.0, 9.999719, 9.995398 
2.4750112e+3, 2.7220592e+2, -304160.34, -611776.3, -15682.986, -0.10417265, 0.31336996, -303362.88, -30942.918, 0.0, 10.001188, 9.996666 
2.474701e+3, 2.8219917e+2, -226096.25, -510582.6, -151146.31, -0.20244662, 0.39952964, -160786.22, 13706.29, 0.0, 10.000792, 9.997042 
2.474387e+3, 2.921933e+2, 2014.127, -81663.65, -152911.75, -0.32952702, 0.31295222, 118707.56, 195256.72, 0.0, 10.000751, 9.999177 
2.474082e+3, 3.0218792e+2, -469020.13, -557640.6, 54304.83, 0.28941283, 0.3985322, -443241.75, -443241.75, 0.0, 9.99809, 9.997052 
2.4737747e+3, 3.1218377e+2, -430012.47, 145889.9, -3013.91, 0.11020502, 0.42429838, 145905.67, 145905.67, 0.0, 9.995531, 10.002926 
2.4896795e+3, 1.2260142e+2, -1624277.0, -1513491.6, 121966.79, -0.091249585, 0.10165982, -1434928.1, 303595.66, 0.43991777, 9.99967, 10.00264 
2.4893609e+3, 1.3259855e+2, -1485228.5, -1596384.9, -96047.83, -0.30228266, 0.24283071, -1429837.6, 210714.22, 0.31901658, 10.001566, 9.999401 
2.4890462e+3, 1.4259255e+2, -1299249.3, -1591385.0, -53996.426, -0.2680865, 0.19781852, -1289588.4, 253023.69, 0.19536594, 10.002544, 9.998282 
2.4887379e+3, 1.5258771e+2, -969326.56, -1264275.6, -25775.877, -0.013088633, 0.2206549, -967090.94, 477569.78, 0.094030365, 10.003679, 9.9992895 
2.4884292e+3, 1.625826e+2, -936111.75, -1259237.3, -47520.81, 0.18566641, 0.25902727, -929268.0, 417442.7, 0.032013185, 10.003075, 9.998932 
2.4881174e+3, 1.7257701e+2, -1142112.0, -1198907.9, -39503.293, 0.083815284, 0.15026686, -1121858.6, 126904.37, 0.0062260167, 10.000627, 9.999714 
2.4878056e+3, 1.8257147e+2, -1363677.8, -1434812.3, -61657.117, -0.0875154, 0.14896332, -1328064.8, -177248.42, 0.00043419475, 9.9989395, 9.998376 
2.4874935e+3, 1.9256668e+2, -1002310.0, -1119233.6, -145639.7, -0.2613679, 0.18679328, -903836.44, 149030.45, 0.0000058323185, 10.000535, 9.998989 
2.4871819e+3, 2.0256153e+2, -947074.56, -1262430.4, -204233.14, -0.317687, 0.30298343, -846734.06, 108187.34, 0.000000000090419006, 10.001079, 9.99714 
2.4868731e+3, 2.1255457e+2, -924657.44, -1154625.8, -97592.9, -0.022254616, 0.27457315, -888824.75, -31830.38, 0.0, 10.000508, 9.9973755 
2.4865632e+3, 2.2254789e+2, -827801.9, -933362.1, 13012.269, 0.1298418, 0.28926042, -826221.56, -67159.836, 0.0, 9.999806, 9.998662 
2.4862507e+3, 2.3254274e+2, -653465.8, -629640.8, 4963.889, -0.04947598, 0.2179769, -628648.0, 32457.607, 0.0, 9.999787, 9.999997 
2.4859387e+3, 2.4253735e+2, -630645.44, -867698.25, -14705.58, -0.19634947, 0.24967298, -629736.7, -66583.0, 0.0, 10.000403, 9.99748 
2.4856277e+3, 2.5253096e+2, -197033.16, -591459.5, -7145.965, -0.18629296, 0.27934727, -196903.73, 268313.5, 0.0, 10.002782, 9.997464 
2.4853171e+3, 2.6252362e+2, -75808.59, -665167.94, 52134.7, -0.1549462, 0.32946572, -71232.3, 296060.13, 0.0, 10.003539, 9.996037 
2.4850075e+3, 2.7251446e+2, -343145.47, -652776.1, 93266.48, -0.13184452, 0.18184756, -317222.28, -47831.285, 0.0, 10.000846, 9.996627 
2.4846973e+3, 2.8250667e+2, -368038.63, -492245.94, 34893.527, -0.1626103, 0.16641536, -358907.28, -187433.83, 0.0, 9.999266, 9.997944 
2.4843837e+3, 2.9250237e+2, 131969.86, 24662.861, -46781.85, -0.2776378, 0.21993056, 149500.9, 223015.61, 0.0, 10.001301, 9.999706 
2.4840781e+3, 3.0249867e+2, 78355.7, -285273.47, 73965.84, 0.30951, 0.44253722, 92825.32, 92825.32, 0.0, 10.001729, 9.997169 
2.4837705e+3, 3.1249273e+2, -110096.66, 105943.41, -88591.69, 0.42181087, 0.46558905, 137625.97, 137625.97, 0.0, 9.998292, 10.001434 
2.4996756e+3, 1.2291274e+2, -1729691.8, -1516012.0, -29528.521, 0.025170287, -0.2246006, -1512006.5, 223451.02, 0.42027465, 9.99809, 10.003303 
2.4993564e+3, 1.3290887e+2, -1800388.8, -2080567.0, -193774.22, -0.3941551, 0.066029, -1701368.3, -63869.477, 0.30251706, 10.000425, 9.996454 
2.4990413e+3, 1.4290124e+2, -1580149.0, -1898489.9, -57548.086, -0.5082452, 0.110519186, -1570065.1, -30486.303, 0.18302314, 10.000833, 9.996991 
2.4987364e+3, 1.5289465e+2, -1274087.4, -1481869.5, -16262.751, -0.019471353, -0.004511839, -1272822.3, 168826.08, 0.08629053, 10.001653, 9.998648 
2.4984287e+3, 1.6288981e+2, -1255620.4, -1449252.3, -119553.0, 0.3353989, 0.108412325, -1198597.9, 145101.1, 0.028287582, 10.000998, 9.998595 
2.4981135e+3, 1.7288774e+2, -1195545.0, -1243758.8, -145732.77, 0.09362917, 0.32685402, -1071938.8, 173779.61, 0.0050760456, 10.000292, 9.999573 
2.4978e+3, 1.8288296e+2, -1524701.8, -1705223.9, -29913.656, -0.07349566, 0.48297724, -1519874.0, -372107.47, 0.00028139996, 9.99883, 9.996533 
2.497491e+3, 1.9287291e+2, -1237704.8, -1418641.1, -58162.992, -0.0780167, 0.15389253, -1220620.9, -170749.44, 0.0000014559199, 9.999898, 9.997182 
2.4971804e+3, 2.0286539e+2, -1033249.6, -1119401.1, -166088.02, -0.0921601, 0.08775429, -904742.3, 47206.824, 0.0, 9.999836, 9.998707 
2.4968667e+3, 2.1286339e+2, -814048.0, -723177.8, -104803.516, -0.21835849, 0.23460384, -654384.5, 199582.27, 0.0, 9.999841, 10.000601 
2.4965547e+3, 2.2285987e+2, -1015761.6, -1054268.9, -8248.559, -0.21314617, 0.38770628, -1014069.1, -258070.56, 0.0, 9.998796, 9.998314 
2.4962464e+3, 2.3285265e+2, -787034.75, -764219.6, -2123.588, 0.011745763, 0.15146147, -764023.6, -105958.5, 0.0, 9.999285, 9.999275 
2.4959375e+3, 2.4284571e+2, -846343.7, -986368.56, 43334.613, 0.11733958, 0.07415673, -834017.6, -273888.1, 0.0, 9.999085, 9.997291 
2.4956273e+3, 2.5283903e+2, -303329.5, -559727.5, 83165.89, -0.041448716, -0.0044913418, -278716.38, 183477.23, 0.0, 10.001818, 9.998101 
2.495316e+3, 2.6283273e+2, -290378.9, -739054.25, -19024.936, -0.1686565, 0.10257586, -289573.66, 74683.695, 0.0, 10.002081, 9.9962015 
2.4950036e+3, 2.728265e+2, -397648.8, -608584.0, 4259.82, -0.15348978, 0.16618696, -397562.8, -131235.19, 0.0, 10.000228, 9.997212 
2.4946927e+3, 2.828207e+2, -610558.44, -690226.1, 59958.684, -0.106309, 0.3495562, -578407.7, -410015.56, 0.0, 9.998098, 9.997112 
2.494383e+3, 2.9281625e+2, -38559.85, -143999.4, 61878.125, -0.059873607, 0.42519328, -9988.317, 60452.02, 0.0, 10.000598, 9.998839 
2.4940747e+3, 3.028109e+2, -142788.97, -418867.1, -23620.002, 0.14793295, 0.55976677, -140782.73, -140782.73, 0.0, 10.000506, 9.996799 
2.493762e+3, 3.1280243e+2, -430259.2, -159800.84, -71491.32, 0.012792175, 0.28790691, -142066.17, -142066.17, 0.0, 9.996882, 10.000187 
2.509671e+3, 1.23226605e+2, -1835679.1, -1554251.4, -57620.97, 0.08396164, 0.41277954, -1542910.8, 189471.28, 0.39734322, 9.997401, 10.0030985 
2.5093517e+3, 1.3321435e+2, -1838353.9, -2039884.5, -231367.3, -0.43796468, -0.20210789, -1686761.4, -52257.492, 0.28406283, 9.999809, 9.997051 
2.5090373e+3, 1.4320943e+2, -1683441.8, -1829085.9, -58731.66, -0.56792045, 0.03888738, -1662709.1, -126152.98, 0.16993596, 9.999565, 9.998073 
2.5087312e+3, 1.5320513e+2, -1567625.9, -1533276.1, 20154.916, -0.08714563, 0.061601825, -1523970.9, -85367.91, 0.078587286, 9.999032, 9.999588 
2.508423e+3, 1.632009e+2, -1562235.1, -1565335.0, -30027.572, 0.2031355, 0.18492557, -1533717.5, -193070.6, 0.024857625, 9.998669, 9.998922 
2.5081092e+3, 1.7319663e+2, -1159329.4, -1242954.0, -39458.04, 0.03770224, 0.22137517, -1143650.8, 99036.87, 0.0041356636, 10.000564, 9.999478 
2.5077963e+3, 1.83191e+2, -1135543.4, -1401510.5, 41871.023, -0.09891697, 0.2745709, -1129107.4, 15636.263, 0.00018434241, 10.000928, 9.997614 
2.507487e+3, 1.9318265e+2, -1181796.6, -1321989.5, 133770.52, -0.013905471, 0.07468474, -1100869.6, -54039.58, 0.00000026313862, 9.999902, 9.997891 
2.5071764e+3, 2.0317629e+2, -1023588.25, -1037106.2, 66907.99, -0.037036616, 0.08584093, -963098.7, -14202.483, 0.0, 9.999477, 9.999474 
2.5068626e+3, 2.1317424e+2, -680008.7, -665120.5, -2634.7537, -0.22025417, 0.25817594, -664668.0, 186248.89, 0.0, 10.000683, 10.000675 
2.5065508e+3, 2.2317071e+2, -592431.8, -842128.4, -16052.545, -0.25062248, 0.41592926, -591404.06, 161547.16, 0.0, 10.001464, 9.998555 
2.506243e+3, 2.3316345e+2, -512023.34, -693076.6, -21218.28, 0.06402977, 0.22567792, -509569.94, 145451.0, 0.0, 10.001247, 9.998904 
2.5059342e+3, 2.4315666e+2, -536284.4, -722234.5, 66468.03, 0.2139879, 0.15436731, -514968.75, 42117.164, 0.0, 10.000613, 9.998385 
2.5056243e+3, 2.5315028e+2, -552461.8, -594728.1, 103211.46, 0.024907216, 0.047996312, -468242.13, -9095.752, 0.0, 9.999639, 9.998967 
2.5053132e+3, 2.631445e+2, -530219.1, -673243.56, -5035.786, -0.091525786, 0.10165553, -530042.06, -168838.73, 0.0, 9.999542, 9.997904 
2.5050008e+3, 2.7313954e+2, -166905.17, -376545.22, 16882.596, -0.025725808, 0.1959705, -165554.3, 97702.88, 0.0, 10.001202, 9.998399 
2.50469e+3, 2.8313452e+2, -38432.945, -422904.38, 162349.16, 0.023213606, 0.40816045, 20949.742, 186262.45, 0.0, 10.0019, 9.997154 
2.50438e+3, 2.931293e+2, 54428.87, -234367.86, 134131.39, -0.0010135209, 0.5106717, 107114.54, 174486.16, 0.0, 10.001574, 9.997854 
2.504071e+3, 3.0312344e+2, -37000.406, -327444.84, -1356.4163, 0.15297952, 0.648685, -36994.07, -36994.07, 0.0, 10.000871, 9.997288 
2.503758e+3, 3.1311414e+2, -23281.61, 20389.18, -85940.93, 0.26534477, 0.26523125, 87225.24, 87225.24, 0.0, 9.9994755, 10.000228 
2.5196645e+3, 1.23532966e+2, -1760769.4, -1601534.0, 39764.742, 0.07762918, 0.28944084, -1592156.1, 137228.03, 0.3720952, 9.998499, 10.001905 
2.519346e+3, 1.3352014e+2, -1708247.5, -1886997.4, -172220.63, -0.51918954, -0.4548013, -1603592.0, 27917.396, 0.26429757, 10.000399, 9.997806 
2.519034e+3, 1.435189e+2, -1565011.1, -1634624.6, -76091.164, -0.37283617, 0.06232575, -1516143.6, 17379.46, 0.15642525, 9.999975, 9.999122 
2.5187257e+3, 1.53517e+2, -1449538.0, -1353467.6, -55634.477, -0.09841062, 0.18832667, -1328000.6, 107543.79, 0.071005836, 9.9995, 10.000534 
2.5184166e+3, 1.6351305e+2, -1591774.8, -1611082.8, -17238.916, 0.13535042, 0.30701602, -1581670.8, -244086.6, 0.021693112, 9.998761, 9.998534 
2.518105e+3, 1.7350505e+2, -1266600.5, -1286163.8, -18345.703, 0.041843932, -0.021638354, -1255591.6, -15931.294, 0.00335279, 10.00002, 9.999378 
2.5177932e+3, 1.8349876e+2, -1218405.3, -1344440.6, -7445.86, 0.0023435599, -0.06421728, -1217966.9, -76245.83, 0.00011963712, 9.999999, 9.998428 
2.517483e+3, 1.9349462e+2, -1124661.8, -1132743.3, 40610.043, 0.04094928, -0.02089196, -1087891.9, -44129.56, 0.00000002568285, 9.999612, 9.999289 
2.5171718e+3, 2.0349054e+2, -1228012.1, -1318494.6, 57142.598, 0.041573137, 0.19197178, -1200369.5, -254563.81, 0.0, 9.998916, 9.997796 
2.5168595e+3, 2.1348588e+2, -927507.44, -987650.8, 948.0302, -0.096430406, 0.24959943, -927492.5, -79633.87, 0.0, 9.999881, 9.998815 
2.5165486e+3, 2.2348106e+2, -929952.44, -1101995.0, -24471.623, -0.10008035, 0.42491144, -926539.25, -176628.08, 0.0, 9.999743, 9.997537 
2.5162396e+3, 2.3347534e+2, -675533.8, -792076.4, -38420.195, 0.07724045, 0.38533118, -664007.9, -12038.635, 0.0, 10.000351, 9.9986 
2.51593e+3, 2.4346983e+2, -725925.1, -801818.44, 18025.875, 0.16022144, 0.46538237, -721861.3, -167836.98, 0.0, 9.9994135, 9.998391 
2.5156194e+3, 2.5346416e+2, -628146.2, -550334.4, 59932.582, 0.045142874, 0.33336356, -517786.94, -61707.266, 0.0, 9.99889, 9.999597 
2.5153092e+3, 2.6345873e+2, -655477.06, -630948.4, 20158.5, -0.0053618383, 0.3572613, -619616.56, -261485.2, 0.0, 9.9984, 9.998697 
2.514999e+3, 2.7345315e+2, -174252.06, -206464.03, 84832.39, 0.09545396, 0.21403661, -104010.27, 156172.8, 0.0, 10.000555, 9.999798 
2.514688e+3, 2.8344724e+2, -243969.81, -598139.5, 143454.31, 0.045134407, 0.28721428, -193155.16, -30912.318, 0.0, 10.001006, 9.99633 
2.5143757e+3, 2.9344124e+2, -96255.37, -392615.38, 149290.16, -0.20236856, 0.3728767, -34090.74, 30221.041, 0.0, 10.001063, 9.996957 
2.5140664e+3, 3.0343655e+2, -119648.08, -288169.47, -44932.387, -0.008326736, 0.6607742, -108416.45, -108416.45, 0.0, 10.000136, 9.997855 
2.5137532e+3, 3.1342638e+2, -100306.33, 95116.39, 26194.615, 0.10868449, 0.06294099, 98566.625, 98566.625, 0.0, 9.998688, 10.001044 
2.529663e+3, 1.2383902e+2, -1670809.3, -1627676.0, 6023.749, 0.23423366, -0.16813147, -1626850.5, 99546.484, 0.34545994, 9.999709, 10.000994 
2.529343e+3, 1.338349e+2, -1598786.0, -1834891.0, -61926.895, -0.4755197, 0.0026565783, -1583529.4, 44905.305, 0.24384509, 10.0011215, 9.997861 
2.5290325e+3, 1.4383113e+2, -1468446.0, -1598864.6, -46397.875, -0.25785598, 0.28557858, -1453624.0, 76845.24, 0.14280653, 10.000735, 9.999002 
2.5287223e+3, 1.5382522e+2, -1255599.9, -1311487.5, -69092.57, -0.08508771, 0.07859473, -1209014.3, 223510.08, 0.06363834, 10.001097, 10.000083 
2.5284123e+3, 1.6382022e+2, -1251068.0, -1393143.9, -70835.09, 0.08430696, 0.0981812, -1221786.5, 112785.14, 0.0187796, 10.000755, 9.999107 
2.5281012e+3, 1.7381532e+2, -1185722.9, -1221398.0, -40642.434, 0.088222966, 0.049991507, -1159175.9, 77443.266, 0.0026956536, 10.00028, 9.999777 
2.5277895e+3, 1.8381028e+2, -1195225.0, -1296639.0, -45725.324, 0.00844992, 0.09988727, -1177653.1, -38984.977, 0.00007576087, 9.999949, 9.998778 
2.5274777e+3, 1.9380486e+2, -945896.4, -1064372.5, -73321.39, -0.081743225, 0.040282097, -910873.2, 129847.73, 0.00000000011876218, 10.000814, 9.999218 
2.5271663e+3, 2.037999e+2, -912983.9, -1129948.5, -105823.266, -0.13860492, 0.14774661, -869917.56, 72854.32, 0.0, 10.000827, 9.998174 
2.5268546e+3, 2.1379483e+2, -904949.56, -1013775.5, -82009.516, -0.17452298, 0.19418181, -860943.4, -16115.452, 0.0, 10.000052, 9.998607 
2.5265443e+3, 2.2378962e+2, -862520.4, -963329.8, -33021.563, -0.11537429, 0.30141217, -852666.8, -105783.836, 0.0, 9.999642, 9.998538 
2.5262362e+3, 2.3378393e+2, -628907.4, -731504.0, -9235.202, 0.1382695, 0.24432257, -628082.7, 20855.734, 0.0, 10.000363, 9.999072 
2.5259262e+3, 2.4377902e+2, -480128.2, -591982.4, 30667.303, 0.20326686, 0.33043218, -472271.84, 78716.56, 0.0, 10.00056, 9.999304 
2.525614e+3, 2.53775e+2, -412537.97, -425053.22, 28894.922, -0.009420505, 0.3591194, -389230.84, 63801.453, 0.0, 10.000149, 9.999895 
2.5253034e+3, 2.6377055e+2, -327305.53, -406903.5, 17588.576, -0.08314406, 0.43838933, -323592.25, 31484.953, 0.0, 10.000209, 9.999406 
2.5249955e+3, 2.737648e+2, -76832.78, -144180.97, -35030.67, 0.105888985, 0.2714833, -61915.797, 195214.22, 0.0, 10.001004, 10.00007 
2.5246856e+3, 2.8375888e+2, -126394.164, -414474.16, -17940.713, 0.11754344, 0.26942652, -125281.17, 33906.51, 0.0, 10.001206, 9.997479 
2.524372e+3, 2.9375258e+2, -95249.59, -318525.13, 49163.14, -0.19752783, 0.2576897, -84903.734, -23648.455, 0.0, 10.000684, 9.997674 
2.5240624e+3, 3.0374765e+2, -70768.61, -218616.42, -63446.805, 0.020600565, 0.47556743, -47274.65, -47274.65, 0.0, 10.000195, 9.998339 
2.5237516e+3, 3.1374156e+2, 33397.91, 175989.36, -135154.66, 0.4595796, 0.31229737, 257500.25, 257500.25, 0.0, 9.999384, 10.001362 
2.539658e+3, 1.24157354e+2, -1753060.5, -1674361.6, -48793.2, 0.1753393, 0.722501, -1651028.1, 72261.35, 0.31815657, 9.999259, 10.000648 
2.5393423e+3, 1.3415053e+2, -1718461.1, -1838492.1, -133293.28, -0.15335211, 0.5393587, -1632295.4, -6944.172, 0.22319712, 10.000036, 9.998304 
2.53903e+3, 1.44143e+2, -1585247.1, -1729615.5, -50708.707, -0.10206875, 0.44497356, -1569216.1, -41797.21, 0.12934339, 10.000192, 9.99836 
2.5387198e+3, 1.5413268e+2, -1356635.3, -1475751.4, -78572.77, 0.016579935, -0.12569888, -1317599.0, 111912.94, 0.05657354, 10.000869, 9.999052 
2.5384095e+3, 1.6412707e+2, -1311934.9, -1394737.0, -81093.39, 0.17479518, -0.10798449, -1262285.5, 69277.64, 0.016116831, 10.000315, 9.999266 
2.5380978e+3, 1.7412701e+2, -1200998.1, -1183782.5, -101395.3, 0.18515642, 0.250337, -1090630.4, 142935.45, 0.0021455006, 10.000019, 10.00013 
2.5377852e+3, 1.8412343e+2, -1359014.5, -1494166.6, -42806.848, 0.0635743, 0.47789642, -1346597.1, -210995.2, 0.000046550977, 9.999398, 9.997684 
2.5374725e+3, 1.9411446e+2, -1139513.3, -1267938.4, -62288.813, -0.22012155, 0.13211472, -1114265.5, -76575.9, 0.0, 10.00001, 9.998209 
2.5371602e+3, 2.0410752e+2, -1091072.5, -1191100.8, -132192.03, -0.3392198, 0.1046282, -999749.6, -59991.285, 0.0, 9.999658, 9.99825 
2.5368482e+3, 2.141027e+2, -982151.6, -975055.56, -129965.22, -0.33016458, 0.08053003, -848590.0, -6782.088, 0.0, 9.999342, 9.999146 
2.5365385e+3, 2.2409719e+2, -970310.25, -955810.5, -28288.838, -0.151997, 0.115822524, -933857.3, -189996.73, 0.0, 9.998792, 9.99897 
2.5362325e+3, 2.3409027e+2, -698790.2, -662149.75, 8421.657, 0.22156464, -0.17645001, -660306.75, -14384.383, 0.0, 9.999592, 9.999862 
2.5359225e+3, 2.4408586e+2, -707316.6, -740688.25, -1917.3895, 0.27184194, -0.057580788, -707206.8, -159240.27, 0.0, 9.999351, 9.998802 
2.5356075e+3, 2.5408375e+2, -565894.44, -519060.1, 11571.515, -0.2091524, 0.14875132, -516357.1, -66359.37, 0.0, 9.999294, 9.999604 
2.5352964e+3, 2.6408038e+2, -595605.06, -673260.44, 28610.393, -0.3677127, 0.41788834, -586202.6, -234164.61, 0.0, 9.999117, 9.998054 
2.5349906e+3, 2.7407503e+2, -274544.44, -355331.47, 8829.555, -0.022926372, 0.36742738, -273590.66, -19498.02, 0.0, 10.000258, 9.998943 
2.5346822e+3, 2.8406987e+2, -169195.81, -262356.03, -54980.684, 0.09333843, 0.44476023, -143716.34, 12426.469, 0.0, 10.000283, 9.99895 
2.534369e+3, 2.9406312e+2, -40001.332, -31305.723, 53837.35, -0.16465393, 0.1376046, 18359.1, 76563.086, 0.0, 10.00004, 9.999928 
2.534058e+3, 3.040563e+2, -250515.44, -332852.38, -93603.57, 0.014594697, 0.056966323, -189427.02, -189427.02, 0.0, 9.999231, 9.997975 
2.5337484e+3, 3.1405434e+2, -88128.805, 211562.7, -74831.234, 0.5563542, 0.34353027, 229208.63, 229208.63, 0.0, 9.998258, 10.00213 
2.5496495e+3, 1.2446035e+2, -1638884.9, -1551493.5, 66293.73, -0.36595926, 0.4097024, -1515790.4, 204532.42, 0.29081753, 9.999694, 10.001632 
2.5493398e+3, 1.3445729e+2, -1534455.6, -1485184.9, -75150.805, 0.024040764, 0.34134963, -1430734.5, 191606.53, 0.2027681, 10.00013, 10.000966 
2.5490263e+3, 1.444508e+2, -1477040.5, -1614975.1, -16554.207, -0.1695179, 0.19270504, -1475081.5, 49315.113, 0.11625642, 10.000657, 9.998939 
2.5487176e+3, 1.5444386e+2, -1295678.1, -1433925.0, -2426.066, 0.12199543, -0.052589998, -1295635.6, 130823.875, 0.04988728, 10.001143, 9.999239 
2.548406e+3, 1.6443835e+2, -1286188.6, -1478978.3, -55168.484, 0.19233856, 0.019070392, -1271518.1, 56994.008, 0.013707004, 10.000889, 9.998417 
2.5480923e+3, 1.7443462e+2, -1152746.0, -1304702.3, -114322.64, 0.0024258974, 0.16040395, -1091456.8, 139095.95, 0.0016894786, 10.000934, 9.998884 
2.5477794e+3, 1.8442962e+2, -1131680.5, -1295209.8, -89985.64, -0.14653745, 0.27646595, -1091860.4, 40741.496, 0.000027889511, 10.00051, 9.998524 
2.5474676e+3, 1.944221e+2, -1141237.6, -1210941.6, -39781.684, -0.23457508, 0.034784723, -1123200.6, -88529.22, 0.0, 9.999689, 9.99879 
2.5471568e+3, 2.0441605e+2, -1054924.1, -1126690.8, -70414.27, -0.24104258, 0.048152674, -1011777.2, -75046.77, 0.0, 9.999597, 9.998742 
2.546846e+3, 2.1441133e+2, -768207.56, -892789.06, -92043.42, -0.13923085, 0.06626318, -719358.2, 119422.805, 0.0, 10.000754, 9.99908 
2.5465354e+3, 2.2440608e+2, -535086.8, -651362.1, -34662.637, -0.079033025, 0.08601959, -525537.8, 215293.92, 0.0, 10.001297, 9.999877 
2.546226e+3, 2.343996e+2, -421371.9, -499345.75, -29299.008, -0.03470742, -0.17491718, -411589.88, 231298.31, 0.0, 10.001279, 10.00022 
2.5459158e+3, 2.4439515e+2, -427597.28, -574943.5, -81262.27, -0.012585608, -0.09977376, -391583.2, 153348.72, 0.0, 10.000956, 9.999249 
2.5456035e+3, 2.5439274e+2, -458534.53, -500166.88, -92852.42, -0.12037037, 0.10894454, -384193.53, 62772.05, 0.0, 9.999964, 9.999523 
2.5452936e+3, 2.643891e+2, -468991.84, -547526.06, 26800.074, -0.1746599, 0.32534254, -460717.94, -111709.914, 0.0, 9.999613, 9.998721 
2.5449863e+3, 2.7438375e+2, -250365.7, -360086.1, 53697.68, -0.03981165, 0.30193835, -228459.48, 22603.602, 0.0, 10.000379, 9.998931 
2.544677e+3, 2.8437883e+2, -137315.34, -99557.77, -47612.45, 0.018704802, 0.3476484, -67217.875, 85892.57, 0.0, 9.999699, 10.000417 
2.5443634e+3, 2.94373e+2, -337752.66, -60283.363, -93011.164, -0.12376056, 0.04793101, -31989.93, 23170.063, 0.0, 9.997371, 10.001093 
2.5440538e+3, 3.043675e+2, -334088.84, -242324.83, -147549.72, 0.1834038, -0.027468165, -133687.97, -133687.97, 0.0, 9.997914, 9.999315 
2.5437412e+3, 3.143651e+2, 201622.69, 208929.6, -209839.61, 0.33892375, 0.16587481, 415147.56, 415147.56, 0.0, 10.000621, 10.001077 
2.5596458e+3, 1.24769665e+2, -1545310.0, -1276822.1, -296609.6, -0.27459323, 0.5117535, -1085491.6, 631797.2, 0.26403108, 9.999468, 10.00419 
2.5593364e+3, 1.3476352e+2, -1443641.5, -1297250.4, -45474.34, 0.10718062, -0.015528514, -1284274.6, 335058.94, 0.18292536, 10.00026, 10.002426 
2.5590235e+3, 1.4475921e+2, -1558309.1, -1615491.5, -10961.832, -0.06864872, -0.0163801, -1556279.8, -34912.535, 0.1037245, 9.999948, 9.999247 
2.5587153e+3, 1.5475658e+2, -1388922.3, -1454749.9, -37879.332, 0.27316302, 0.100523666, -1371654.8, 51736.945, 0.043632858, 10.000389, 9.99944 
2.558403e+3, 1.6475078e+2, -1468387.5, -1748780.9, -45625.78, 0.2569055, 0.21476425, -1461150.0, -135699.48, 0.011545959, 10.000546, 9.996673 
2.5580865e+3, 1.7474104e+2, -1269611.6, -1575400.8, -101018.805, -0.20277222, -0.08218863, -1239253.5, -11702.206, 0.0013158798, 10.001165, 9.996867 
2.5577733e+3, 1.847341e+2, -1059097.1, -1145463.0, -93901.49, -0.33579853, -0.092904486, -998925.06, 130692.26, 0.000016496271, 10.00068, 9.999428 
2.5574636e+3, 1.9472928e+2, -1132517.4, -1114689.1, -92786.38, -0.13849598, -0.18511952, -1030389.6, 1265.3385, 0.0, 9.999461, 9.999546 
2.5571546e+3, 2.0472503e+2, -1188467.3, -1224576.8, -48905.66, 0.070237964, 0.0009292493, -1154390.1, -220693.94, 0.0, 9.998987, 9.99833 
2.5568458e+3, 2.1472082e+2, -951780.2, -1029903.44, -62385.664, 0.2415173, 0.08012615, -917236.2, -81489.66, 0.0, 9.999858, 9.998538 
2.5565332e+3, 2.2471644e+2, -728351.0, -770029.7, -43419.688, 0.05932305, 0.24329424, -701028.6, 36763.387, 0.0, 10.00021, 9.999533 
2.5562173e+3, 2.3471095e+2, -642128.44, -629686.3, -47314.516, -0.5463547, 0.059319716, -588185.6, 51655.66, 0.0, 9.999966, 9.999909 
2.5559074e+3, 2.447063e+2, -671912.5, -713978.8, -132277.83, -0.48022485, 0.1435367, -559006.06, -17119.277, 0.0, 9.999509, 9.998937 
2.5556022e+3, 2.5470185e+2, -640847.94, -621084.75, -130221.766, 0.21969558, 0.13296369, -500370.22, -56434.746, 0.0, 9.998983, 9.999121 
2.5552937e+3, 2.6469705e+2, -581115.8, -507851.28, 40994.74, 0.35711184, 0.23078938, -489506.38, -143522.53, 0.0, 9.998628, 9.999379 
2.5549817e+3, 2.746906e+2, -286977.16, -289412.72, 103734.99, -0.083901614, -0.025517445, -184452.8, 63591.01, 0.0, 9.999866, 9.999613 
2.5546694e+3, 2.8468543e+2, -288728.22, -227243.25, -167562.78, -0.2589845, -0.009872908, -87626.16, 62467.254, 0.0, 9.999022, 9.999813 
2.554356e+3, 2.946819e+2, -530695.3, -257940.19, -186285.55, -0.17434119, -0.037665606, -163447.34, -111319.12, 0.0, 9.9965725, 10.000077 
2.554048e+3, 3.0468085e+2, -381208.44, -190804.23, -72858.055, 0.2740756, 0.36570758, -166124.16, -166124.16, 0.0, 9.997476, 9.999772 
2.5537375e+3, 3.1467453e+2, 206166.2, 209889.06, 39239.34, 0.20488603, 0.05406332, 247311.11, 247311.11, 0.0, 10.000897, 10.000843 
2.5696427e+3, 1.2507859e+2, -1719485.1, -1842638.3, 249168.23, -0.2608803, -0.092429124, -1524397.5, 189844.63, 0.23823552, 10.000528, 9.9988985 
2.5693315e+3, 1.3507517e+2, -1641120.5, -1712198.8, -44276.313, 0.028116824, 0.015628057, -1619884.4, -3606.8992, 0.16394834, 10.000184, 9.999126 
2.56902e+3, 1.4507039e+2, -1616072.9, -1558533.5, -9847.57, 0.027450666, 0.09921191, -1556894.8, -38572.387, 0.09188186, 9.999144, 10.000048 
2.56871e+3, 1.5506753e+2, -1412618.1, -1408261.8, -4990.6206, 0.16452184, 0.15121453, -1404994.8, 15351.31, 0.03784501, 9.999872, 10.000063 
2.5683984e+3, 1.6506198e+2, -1365161.5, -1685372.8, 24152.465, 0.10214447, 0.25317055, -1363350.0, -40948.195, 0.009625426, 10.001152, 9.996827 
2.5680846e+3, 1.7505279e+2, -997102.25, -1475279.6, 57416.754, -0.23137514, 0.048837237, -990304.6, 234193.84, 0.0010124295, 10.003087, 9.996669 
2.5677717e+3, 1.8504554e+2, -728347.1, -1008419.6, -81729.21, -0.28689063, 0.035393625, -706242.0, 420326.4, 0.000009793076, 10.002976, 9.999291 
2.567461e+3, 1.9503991e+2, -913671.44, -1064263.6, -114499.96, -0.0026879204, -0.05419359, -851928.3, 176686.7, 0.0, 10.001081, 9.999162 
2.5671503e+3, 2.0503491e+2, -917714.2, -1058982.6, -10689.917, 0.07836583, 0.050633557, -916909.9, 13752.156, 0.0, 10.000576, 9.998738 
2.5668398e+3, 2.1503012e+2, -673224.8, -906113.4, 4658.612, -0.0010989142, 0.098646335, -673131.6, 159582.11, 0.0, 10.001666, 9.998586 
2.5665277e+3, 2.2502545e+2, -607299.75, -743317.6, -77728.28, -0.16928713, 0.23457149, -572028.0, 162734.9, 0.0, 10.001017, 9.999373 
2.566213e+3, 2.350202e+2, -887682.44, -835629.9, -112972.266, -0.46772453, 0.16428894, -745724.75, -108909.25, 0.0, 9.998456, 9.9993 
2.5659034e+3, 2.4501544e+2, -764598.75, -641909.0, -103172.83, -0.33012068, 0.21522601, -583221.25, -44359.594, 0.0, 9.998301, 10.0000105 
2.5655985e+3, 2.5501072e+2, -330665.3, -401355.16, -74544.6, 0.2976391, 0.13972686, -283510.78, 157395.9, 0.0, 10.0007105, 9.999824 
2.5652894e+3, 2.6500556e+2, -254183.73, -336081.38, 47492.832, 0.36267352, 0.15274882, -232423.9, 110532.234, 0.0, 10.000685, 9.999573 
2.5649762e+3, 2.7499887e+2, -492089.6, -397805.5, -2.3644955, -0.1462276, -0.09696041, -397805.5, -152786.28, 0.0, 9.998382, 9.999575 
2.5646633e+3, 2.849937e+2, -338678.94, -276801.16, -263130.03, -0.31685886, -0.08655662, -42797.355, 104271.5, 0.0, 9.998707, 9.999623 
2.564351e+3, 2.9499045e+2, 99779.3, -33773.77, -286334.66, -0.095383994, -0.014339391, 327020.88, 376122.4, 0.0, 10.001127, 9.999447 
2.5640425e+3, 3.0498886e+2, 74307.555, -46463.586, -90498.16, 0.24285729, 0.39686656, 122716.9, 122716.9, 0.0, 10.000772, 9.999227 
2.5637305e+3, 3.1498438e+2, -194508.0, 65927.14, 21267.08, -0.06396444, 0.36985847, 67652.375, 67652.375, 0.0, 9.997681, 10.001472 
2.579641e+3, 1.2539287e+2, -1768134.1, -2223628.5, 6273.628, -0.1124408, -0.045583427, -1768047.6, -56903.227, 0.21373183, 10.0015135, 9.995605 
2.5793275e+3, 1.3538797e+2, -1602051.3, -2039182.8, -109053.95, 0.051597744, 0.15699437, -1576355.4, 36856.207, 0.14603193, 10.001979, 9.996012 
2.5790164e+3, 1.4538217e+2, -1324010.4, -1363243.8, 39658.48, 0.18040116, 0.26242116, -1299382.3, 215890.89, 0.080827504, 10.001111, 10.000493 
2.578705e+3, 1.5537807e+2, -1277323.3, -1333844.6, -37725.25, 0.07416684, 0.14363155, -1258447.4, 158858.16, 0.032553293, 10.000891, 10.000062 
2.5783938e+3, 1.653732e+2, -1348385.4, -1627525.1, 51282.04, -0.0048309085, 0.29693007, -1339262.3, -19908.943, 0.007938516, 10.001125, 9.997175 
2.5780836e+3, 1.7536652e+2, -1226347.8, -1564968.4, 68357.305, -0.12786192, 0.27124742, -1213069.3, 8356.826, 0.00076767127, 10.001492, 9.996772 
2.5777718e+3, 1.8535954e+2, -1017926.2, -1272672.9, -150400.42, -0.05690811, 0.34196255, -948210.1, 175285.4, 0.000005913737, 10.001645, 9.998062 
2.5774592e+3, 1.953521e+2, -1080058.4, -1283512.5, -192887.69, 0.19455178, 0.15580365, -963716.56, 61847.383, 0.0, 10.000691, 9.997777 
2.5771457e+3, 2.0534568e+2, -979779.25, -1093484.5, 29734.955, 0.015491606, 0.19641235, -972472.75, -44849.926, 0.0, 10.000264, 9.998607 
2.576831e+3, 2.1533926e+2, -911582.0, -1043838.2, 25841.771, -0.55301285, 0.04369879, -906712.06, -77029.82, 0.0, 10.000202, 9.998313 
2.57652e+3, 2.2533387e+2, -926142.2, -984613.8, -168580.19, -0.50193006, 0.16837794, -784281.5, -52543.04, 0.0, 9.999441, 9.9984 
2.5762117e+3, 2.3532842e+2, -1121794.8, -1061007.3, -191303.13, 0.04254729, 0.14902782, -897698.5, -263898.4, 0.0, 9.997539, 9.998135 
2.575902e+3, 2.4532402e+2, -801373.8, -538488.3, -8840.15, 0.18485251, 0.2507279, -538191.4, -2349.0059, 0.0, 9.99769, 10.000957 
2.5755918e+3, 2.5531963e+2, -439447.53, -370664.3, 25857.723, 0.023410399, 0.0717119, -362027.97, 75848.87, 0.0, 9.999734, 10.000468 
2.5752807e+3, 2.6531497e+2, -504554.8, -593913.1, -51068.76, -0.1161398, 0.17601624, -481379.38, -141457.53, 0.0, 9.999663, 9.998277 
2.5749686e+3, 2.753096e+2, -754237.4, -689234.2, -76806.44, -0.2812962, 0.15345211, -638335.6, -396355.72, 0.0, 9.997411, 9.998016 
2.574658e+3, 2.8530413e+2, -429242.9, -305912.16, -153693.02, -0.27050957, 0.21313342, -201975.11, -57942.84, 0.0, 9.998136, 9.999659 
2.574348e+3, 2.9529768e+2, 52334.906, -92671.22, -132815.55, -0.14344591, -0.058538485, 131148.28, 177237.11, 0.0, 10.001041, 9.99907 
2.574036e+3, 3.0529118e+2, -79692.57, -293250.06, -213255.86, -0.055428572, -0.033262383, 52023.473, 52023.473, 0.0, 10.000574, 9.997588 
2.5737244e+3, 3.1528455e+2, -465418.1, -125665.94, -25200.043, -0.084400065, -0.13421711, -123806.98, -123806.98, 0.0, 9.996221, 10.00084 
2.5896418e+3, 1.2570469e+2, -1390918.5, -1699766.3, -63100.84, -0.016450519, -0.05215828, -1378523.9, 329569.44, 0.19077115, 10.003268, 9.998397 
2.5893268e+3, 1.3570046e+2, -1147174.6, -1651631.4, 9781.199, -0.018831844, 0.10395007, -1146985.0, 463159.13, 0.12932457, 10.004878, 9.997321 
2.5890142e+3, 1.456931e+2, -1032101.1, -1495862.6, 59475.785, -0.013431333, 0.13548756, -1024595.0, 487625.8, 0.07062259, 10.004465, 9.997911 
2.588702e+3, 1.556867e+2, -1073377.8, -1509904.1, -61187.98, -0.056078024, 0.08581315, -1064963.3, 349320.1, 0.027766839, 10.00345, 9.997636 
2.5883907e+3, 1.6568133e+2, -1119820.0, -1316944.9, -53240.37, -0.08465406, 0.19901296, -1106359.8, 209975.66, 0.0064744665, 10.0017395, 9.999058 
2.5880805e+3, 1.7567593e+2, -1416725.0, -1490119.3, 29396.748, -0.05515886, 0.15835315, -1406402.5, -188014.36, 0.0005723583, 9.999313, 9.998397 
2.587769e+3, 1.8566987e+2, -1289094.8, -1456762.6, -82874.81, 0.017686881, 0.26277176, -1255045.9, -134596.98, 0.0000035552432, 9.999935, 9.997643 
2.5874564e+3, 1.9566277e+2, -802296.06, -1221723.6, -87112.99, 0.11898366, 0.20321178, -784922.75, 237597.86, 0.0, 10.002747, 9.997272 
2.587142e+3, 2.0565595e+2, -672464.4, -893901.56, -7162.523, -0.06646049, 0.19700551, -672233.0, 252351.2, 0.0, 10.002087, 9.999137 
2.5868273e+3, 2.156491e+2, -1080058.1, -1105978.8, 5701.354, -0.47357047, 0.025118027, -1078859.5, -252215.38, 0.0, 9.998824, 9.99862 
2.5865158e+3, 2.256431e+2, -992019.94, -979269.7, -67098.48, -0.3954707, 0.055749398, -918244.1, -189540.47, 0.0, 9.998729, 9.9988 
2.5862074e+3, 2.3563741e+2, -564281.8, -782053.6, -28320.69, 0.10701315, 0.038483787, -560659.0, 70107.75, 0.0, 10.001196, 9.998328 
2.5858974e+3, 2.4563296e+2, -257151.86, -299073.53, 93073.36, 0.1665039, 0.13744822, -182708.25, 350102.06, 0.0, 10.001405, 10.000854 
2.5855854e+3, 2.5562894e+2, -448977.5, -406597.72, 22644.422, -0.14387187, 0.063631736, -396775.0, 38068.64, 0.0, 9.999691, 10.000278 
2.5852746e+3, 2.6562467e+2, -466479.88, -504863.53, -41143.836, -0.2385128, 0.17434202, -440271.9, -103387.14, 0.0, 9.999523, 9.998991 
2.584965e+3, 2.7561992e+2, -272090.22, -431251.53, 24582.965, -0.1137178, 0.22344404, -268379.8, -29444.223, 0.0, 10.000462, 9.998397 
2.5846547e+3, 2.8561428e+2, -156502.89, -162250.28, 35075.57, -0.07929971, 0.24769294, -124183.49, 16807.479, 0.0, 9.999863, 9.999844 
2.5843427e+3, 2.956069e+2, -370844.38, -322275.97, -30220.307, -0.17598352, -0.0772546, -307791.75, -264732.28, 0.0, 9.998118, 9.998946 
2.5840297e+3, 3.0560026e+2, -275762.63, -272256.38, -89959.93, -0.19753638, -0.10107445, -184032.48, -184032.48, 0.0, 9.998716, 9.998645 
2.5837225e+3, 3.1559765e+2, -293024.25, -385741.1, 139739.66, 0.40212953, 0.1953613, -192154.03, -192154.03, 0.0, 9.99875, 9.997899 
2.5996438e+3, 1.2601782e+2, -1685265.8, -1812438.6, -115889.9, 0.31959614, 0.07951862, -1616664.0, 88369.17, 0.16949552, 10.000641, 9.998904 
2.5993264e+3, 1.3601214e+2, -1235792.1, -1633872.1, -108206.15, -0.066937394, -0.06366068, -1208280.8, 398804.1, 0.11391175, 10.003843, 9.997966 
2.5990123e+3, 1.4600402e+2, -1288244.0, -1920211.0, -42118.105, -0.17393404, -0.00040704384, -1285449.4, 223718.45, 0.061296463, 10.003961, 9.995142 
2.5987005e+3, 1.559953e+2, -1401720.4, -1992249.0, -80875.89, -0.0974805, -0.01569188, -1390844.3, 20417.354, 0.023481611, 10.002611, 9.994681 
2.5983885e+3, 1.659893e+2, -1025360.7, -1065582.8, -69357.05, -0.009837049, 0.07889228, -973257.8, 340060.53, 0.005220199, 10.0015545, 10.000888 
2.5980768e+3, 1.7598468e+2, -1264072.4, -1276558.0, -55709.043, 0.1167271, -0.06840801, -1214257.5, 1096.6074, 0.00041937284, 9.999818, 9.999631 
2.597765e+3, 1.8597938e+2, -1292167.6, -1513772.0, 28009.14, 0.09569009, 0.08518735, -1288682.4, -171275.08, 0.0000020172258, 10.00023, 9.997067 
2.5974527e+3, 1.9597289e+2, -1042840.3, -1430267.4, -2714.6194, -0.03036998, 0.12382944, -1042821.3, -23341.875, 0.0, 10.001584, 9.996364 
2.5971395e+3, 2.0596638e+2, -817519.06, -929804.75, -111583.766, -0.038766902, 0.18287057, -748750.1, 172791.45, 0.0, 10.001085, 9.999319 
2.5968257e+3, 2.1595946e+2, -1235221.4, -1186261.3, -95477.03, 0.015295501, -0.041890923, -1112175.9, -288574.9, 0.0, 9.99794, 9.998444 
2.596513e+3, 2.259533e+2, -1029753.2, -931095.1, 23830.238, -0.07067437, -0.041924, -925640.7, -199982.5, 0.0, 9.998293, 9.999303 
2.596201e+3, 2.3594701e+2, -754007.94, -864962.06, 39810.848, -0.19315349, -0.19929163, -741201.7, -113481.15, 0.0, 9.999965, 9.998318 
2.5958905e+3, 2.4594267e+2, -558146.8, -621043.75, 16960.18, -0.21468556, 0.0007763824, -553865.0, -24099.65, 0.0, 10.000221, 9.999173 
2.59558e+3, 2.5593898e+2, -765038.56, -753492.0, -29130.943, -0.22611295, 0.09121201, -729567.75, -297762.94, 0.0, 9.998444, 9.998485 
2.5952712e+3, 2.6593447e+2, -482239.5, -318845.3, -14578.551, -0.08296693, 0.18034226, -317554.75, 16291.19, 0.0, 9.99872, 10.000608 
2.5949642e+3, 2.7592888e+2, -318702.56, -332831.7, 59509.477, 0.21053867, -0.04634569, -265839.78, -29944.98, 0.0, 9.999703, 9.999428 
2.5946522e+3, 2.8592384e+2, -346322.8, -382518.34, -63643.47, 0.1447653, 0.058575444, -298253.97, -160305.1, 0.0, 9.999223, 9.998614 
2.594335e+3, 2.959187e+2, -630576.3, -563692.5, -107727.336, -0.3038642, 0.061087936, -484335.72, -444325.72, 0.0, 9.996968, 9.997816 
2.5940228e+3, 3.0591586e+2, -130025.1, 205537.1, -42032.1, -0.3163605, 0.2719507, 210721.88, 210721.88, 0.0, 9.998127, 10.002136 
2.593707e+3, 3.1591588e+2, -197346.14, -83484.53, 162551.36, -0.70693475, 0.4639195, 31817.238, 31817.238, 0.0, 9.998482, 10.0000515 
2.6096365e+3, 1.2632748e+2, -2002081.3, -1820593.5, -162263.16, 0.04369939, 0.40761566, -1725424.0, -23412.852, 0.14988421, 9.997666, 10.000283 
2.609324e+3, 1.3632086e+2, -1291879.5, -1588814.8, -122169.49, -0.21089394, 0.11215224, -1248076.4, 355994.03, 0.09979623, 10.002916, 9.998787 
2.6090115e+3, 1.4631487e+2, -1125515.0, -1464921.3, -162851.28, -0.19385113, 0.15234056, -1060016.8, 446109.9, 0.05285716, 10.003468, 9.998552 
2.6086998e+3, 1.5630849e+2, -1302168.5, -1655231.3, 10270.478, 0.017483734, 0.089724585, -1301870.0, 106319.41, 0.019694533, 10.001952, 9.997367 
2.608387e+3, 1.6630234e+2, -995521.56, -1157615.9, 59475.297, 0.08623861, 0.108857624, -976040.3, 334206.4, 0.004163879, 10.002174, 9.99995 
2.6080745e+3, 1.762963e+2, -840959.9, -1160515.0, -7394.932, 0.077036716, -0.05780713, -840788.8, 371511.5, 0.00030229846, 10.003055, 9.998874 
2.6077616e+3, 1.8629053e+2, -838469.75, -1176274.9, 44423.273, 0.02515475, 0.018878002, -832725.5, 281630.75, 0.0000010444409, 10.002724, 9.99823 
2.6074496e+3, 1.9628435e+2, -992660.6, -1312736.6, 92985.75, -0.08327202, 0.023831258, -967608.06, 48812.047, 0.0, 10.00136, 9.997335 
2.6071364e+3, 2.0627818e+2, -807080.0, -1001311.9, -44337.555, -0.021747842, 0.1026899, -797437.7, 121043.43, 0.0, 10.001328, 9.998758 
2.606823e+3, 2.162716e+2, -689292.2, -996674.56, -59773.57, 0.14119005, 0.010202551, -678077.75, 142465.97, 0.0, 10.00181, 9.997928 
2.6065096e+3, 2.2626512e+2, -559017.94, -751664.8, 40922.676, 0.013191454, 0.014838009, -550685.44, 171919.53, 0.0, 10.001574, 9.999015 
2.6061964e+3, 2.3625846e+2, -654501.06, -854473.56, -2151.7278, -0.28309473, -0.1093925, -654477.9, -29809.64, 0.0, 10.00061, 9.998145 
2.605885e+3, 2.4625318e+2, -575222.7, -627169.6, -31961.42, -0.30469984, -0.014889553, -560011.75, -33290.72, 0.0, 10.000029, 9.99923 
2.6055753e+3, 2.5624835e+2, -533728.4, -657989.3, -2173.7332, -0.16234192, 0.018577397, -533690.4, -104919.16, 0.0, 9.999941, 9.9984665 
2.605267e+3, 2.6624352e+2, -268995.28, -147493.36, 57767.46, 0.002593115, 0.034270763, -124412.59, 206402.11, 0.0, 9.999761, 10.001346 
2.6049596e+3, 2.762383e+2, -326501.7, -265471.63, 14181.18, 0.25597203, -0.186536, -262337.4, -29479.26, 0.0, 9.999215, 10.000167 
2.6046464e+3, 2.8623426e+2, -426946.47, -377836.0, -94789.0, 0.1303362, -0.043458868, -304473.34, -169570.61, 0.0, 9.998428, 9.999036 
2.6043272e+3, 2.9623097e+2, -578690.0, -510500.7, -15628.698, -0.34531194, 0.16354686, -507089.3, -470140.34, 0.0, 9.997096, 9.99815 
2.604017e+3, 3.0622798e+2, -78613.86, 272064.78, 81497.58, -0.26109445, 0.31872553, 290079.38, 290079.38, 0.0, 9.998069, 10.002689 
2.603712e+3, 3.1622106e+2, 48903.273, 178454.66, -189016.0, 0.3277845, -0.22282802, 313486.22, 313486.22, 0.0, 9.999405, 10.001406 
2.6196283e+3, 1.2663507e+2, -1598743.1, -1539435.8, 160757.53, -0.18216734, 0.53938967, -1405619.9, 293385.7, 0.13183987, 10.000326, 10.001003 
2.6193216e+3, 1.366298e+2, -1570374.8, -1623114.9, 70305.625, -0.22495107, 0.3033977, -1521656.5, 79397.11, 0.08692974, 10.000476, 9.999639 
2.619011e+3, 1.4662625e+2, -1179554.0, -1088120.3, -147461.94, -0.05117839, 0.3365316, -979451.1, 523629.2, 0.045284748, 10.001195, 10.002373 
2.618699e+3, 1.5662305e+2, -1188009.9, -1276552.5, -83231.836, 0.26557198, 0.19883566, -1138007.8, 267093.6, 0.01638905, 10.0013685, 10.000278 
2.618386e+3, 1.6661699e+2, -1205018.5, -1470973.3, 48679.305, 0.23026916, 0.20521057, -1196388.5, 110770.3, 0.0032885466, 10.001733, 9.997982 
2.618072e+3, 1.76609e+2, -1199274.0, -1529460.3, -19473.328, 0.035494663, 0.025533285, -1198129.5, 11109.685, 0.00021471751, 10.001491, 9.9971 
2.6177594e+3, 1.8660252e+2, -902234.75, -1031014.6, -24587.291, -0.010162316, 0.011192611, -897700.06, 213598.84, 0.00000047553752, 10.001582, 9.999754 
2.617447e+3, 1.9659673e+2, -1085397.3, -1270605.8, -3922.458, 0.009890782, -0.11482163, -1085314.1, -71964.67, 0.0, 10.000455, 9.998043 
2.6171333e+3, 2.0659095e+2, -975110.0, -1218244.8, -65006.68, 0.029778428, 0.045509793, -958820.6, -43411.152, 0.0, 10.000856, 9.997457 
2.6168194e+3, 2.1658479e+2, -1010949.2, -1327300.5, -81856.625, 0.07001613, 0.09528149, -991023.6, -173545.58, 0.0, 10.000479, 9.99628 
2.616506e+3, 2.2657834e+2, -762162.0, -934436.2, -2838.3557, -0.026578238, 0.22219874, -762115.25, -42572.19, 0.0, 10.000711, 9.998114 
2.6161927e+3, 2.3657148e+2, -935426.2, -1095530.1, -30975.92, -0.21883698, 0.14373872, -929642.1, -308033.34, 0.0, 9.999312, 9.997071 
2.6158813e+3, 2.4656457e+2, -645590.06, -581364.44, -21279.496, -0.21979678, 0.0840749, -574953.9, -51280.56, 0.0, 9.999344, 9.999811 
2.6155713e+3, 2.5655738e+2, -725192.75, -744216.25, 2153.919, -0.10104769, -0.19777104, -724951.94, -299211.8, 0.0, 9.998741, 9.99841 
2.615261e+3, 2.665527e+2, -420471.03, -273130.56, 36106.703, -0.09187908, -0.14122261, -264758.16, 63025.383, 0.0, 9.999042, 10.000768 
2.6149505e+3, 2.7654883e+2, -499303.38, -411164.63, 442.47665, -0.14385301, -0.19861469, -411162.4, -181343.56, 0.0, 9.998398, 9.999517 
2.614636e+3, 2.8654614e+2, -345381.03, -56992.42, -137972.23, -0.27346173, -0.031280097, -1616.3528, 130229.62, 0.0, 9.997921, 10.001426 
2.614319e+3, 2.9654378e+2, -607009.25, -398136.34, 7267.668, -0.4722936, 0.01205607, -397883.78, -364011.1, 0.0, 9.996459, 9.999215 
2.6140115e+3, 3.065368e+2, -476050.22, -381787.88, 140718.77, -0.15454502, -0.04452695, -280517.16, -280517.16, 0.0, 9.9974165, 9.998493 
2.6137027e+3, 3.1653374e+2, -119747.52, 13482.825, -77604.67, -0.23838821, 0.17742357, 49142.117, 49142.117, 0.0, 9.9987545, 10.000576 
2.6296288e+3, 1.2694477e+2, -1289066.6, -1481383.4, 165614.88, -0.12269252, 0.08302416, -1193718.6, 502227.94, 0.11528824, 10.003131, 10.000069 
2.6293182e+3, 1.3693991e+2, -2034813.9, -1937101.1, 160507.64, -0.07566275, -0.007274059, -1818178.9, -220182.64, 0.07524984, 9.997535, 9.998928 
2.6290065e+3, 1.4693607e+2, -1673168.5, -1416017.1, 34820.92, -0.026098061, 0.08722508, -1411385.5, 88644.78, 0.038529176, 9.998086, 10.001536 
2.628695e+3, 1.5693232e+2, -1173159.8, -1334354.1, -44212.883, 0.080145426, -0.011221996, -1161829.3, 240231.52, 0.013527696, 10.001667, 9.999767 
2.6283813e+3, 1.6692714e+2, -1205079.1, -1507004.5, -87231.555, 0.035629977, 0.11108047, -1181688.5, 122426.414, 0.0025719018, 10.001786, 9.997765 
2.6280668e+3, 1.7692097e+2, -1434338.3, -1648971.5, -62919.26, -0.111681454, 0.15204293, -1417253.5, -211070.27, 0.00015054179, 9.99977, 9.997157 
2.6277557e+3, 1.8691444e+2, -1083795.5, -1125271.3, -58988.26, -0.026137346, 0.12230809, -1042006.0, 66238.31, 0.0000001940375, 10.000262, 9.999783 
2.627445e+3, 1.9690764e+2, -935379.44, -1182099.8, -89868.83, 0.12278837, -0.097710945, -906115.44, 104188.06, 0.0, 10.001254, 9.99832 
2.6271304e+3, 2.0690191e+2, -885918.7, -1177878.5, -168136.64, 0.06591123, 0.040866252, -809232.8, 103130.92, 0.0, 10.001443, 9.997474 
2.6268145e+3, 2.1689636e+2, -851150.06, -1216707.8, -111744.07, -0.086288616, 0.17966798, -819698.06, -5270.2627, 0.0, 10.00131, 9.996673 
2.6265022e+3, 2.2688974e+2, -580962.1, -807464.0, 7293.334, -0.08317143, 0.23728286, -580727.5, 135766.88, 0.0, 10.001678, 9.998556 
2.626191e+3, 2.3688257e+2, -463887.5, -796738.8, 34641.63, -0.033722647, 0.11767943, -460320.38, 158242.2, 0.0, 10.002074, 9.997838 
2.625879e+3, 2.4687657e+2, -315697.72, -392581.8, 30386.592, -0.016198326, 0.09492567, -305138.38, 215480.52, 0.0, 10.001354, 10.000194 
2.625567e+3, 2.568708e+2, -502071.16, -564700.75, 48341.36, -0.0064434195, -0.047797024, -475788.2, -53115.793, 0.0, 9.999819, 9.9991665 
2.625255e+3, 2.6686603e+2, -524643.06, -358369.5, 90435.84, -0.13607444, -0.019015316, -318663.4, 6054.2266, 0.0, 9.998358, 10.00056 
2.624942e+3, 2.768618e+2, -712769.8, -502236.1, 58353.363, -0.33150306, -0.054471098, -487144.22, -260385.7, 0.0, 9.99672, 9.999751 
2.6246285e+3, 2.8685856e+2, -262422.78, 22921.521, -116929.53, -0.38776565, 0.01770458, 64715.785, 193504.17, 0.0, 9.99818, 10.001903 
2.6243138e+3, 2.9685575e+2, 37929.363, -19736.336, -140823.75, -0.36096978, -0.016384164, 152841.64, 183655.44, 0.0, 10.000489, 9.999911 
2.6240063e+3, 3.0684713e+2, -177968.02, -423977.25, 82652.914, -0.06182701, -0.20155862, -152778.03, -152778.03, 0.0, 10.0001745, 9.9969225 
2.6237032e+3, 3.1684572e+2, -185244.33, 267652.5, 137705.02, 0.45751077, 0.37749013, 306235.3, 306235.3, 0.0, 9.9968815, 10.0033 
2.6396298e+3, 1.2725571e+2, -1663574.1, -1797614.6, -108273.17, 0.17714848, -0.33653808, -1603257.0, 89616.805, 0.10017185, 10.000836, 9.998861 
2.6393136e+3, 1.372506e+2, -1791936.3, -1968197.8, -116463.87, 0.17138712, -0.3500264, -1734016.1, -139085.94, 0.06469282, 9.999915, 9.997559 
2.639001e+3, 1.4724573e+2, -1523730.9, -1555670.9, 79359.93, 0.043031037, -0.2114988, -1458750.1, 38229.848, 0.032530583, 10.000108, 9.9995365 
2.6386902e+3, 1.572402e+2, -1449413.5, -1687753.6, -35424.6, -0.10284153, -0.3034287, -1444259.8, -45225.18, 0.011066901, 10.000768, 9.997733 
2.6383764e+3, 1.6723621e+2, -1248087.5, -1493945.6, -178145.67, -0.15958239, -0.010136316, -1154573.9, 146508.6, 0.0019930317, 10.001402, 9.997992 
2.6380613e+3, 1.7723264e+2, -1379933.5, -1666719.1, -143412.78, -0.19049397, 0.2642008, -1320524.1, -117394.72, 0.00010503105, 10.000375, 9.996741 
2.6377514e+3, 1.8722624e+2, -1084784.9, -1157877.5, -36133.324, 0.012569422, 0.2739745, -1069938.1, 35253.81, 0.00000008640195, 10.000601, 9.99928 
2.6374432e+3, 1.972184e+2, -1130648.8, -1362961.9, -109459.836, 0.31061026, -0.014924856, -1087200.1, -79936.96, 0.0, 10.000457, 9.997404 
2.6371276e+3, 2.0721255e+2, -905680.56, -1127579.3, -179476.34, 0.12938812, 0.11395677, -805628.7, 103695.2, 0.0, 10.001095, 9.997971 
2.6368093e+3, 2.1720736e+2, -1020012.75, -1277286.6, -113998.59, -0.2232222, 0.21694571, -976768.5, -165386.06, 0.0, 10.000133, 9.996831 
2.6364988e+3, 2.2720042e+2, -647322.2, -723125.2, 30945.682, -0.10106484, 0.16995208, -636293.56, 77156.4, 0.0, 10.000812, 9.999501 
2.636191e+3, 2.3719278e+2, -715799.8, -883530.1, 38679.26, 0.22545905, -0.11562349, -707309.94, -91788.55, 0.0, 10.000293, 9.998087 
2.635878e+3, 2.471897e+2, -453601.78, -435742.66, -32091.12, 0.22034651, 0.12901297, -411361.9, 106191.664, 0.0, 10.000407, 10.000315 
2.635563e+3, 2.5718808e+2, -733744.5, -706166.94, -9797.892, 0.053504843, 0.36341587, -703040.4, -283466.9, 0.0, 9.998461, 9.998842 
2.6352483e+3, 2.671831e+2, -639406.94, -400295.2, 16283.259, -0.15362021, 0.378358, -399191.4, -77570.12, 0.0, 9.997658, 10.000551 
2.634934e+3, 2.7717674e+2, -963010.75, -728310.75, 33922.695, -0.37169084, 0.119002774, -723506.06, -499824.9, 0.0, 9.99558, 9.99874 
2.634623e+3, 2.8717136e+2, -513085.22, -340006.5, -24987.43, -0.2837998, 0.15339065, -336471.25, -210738.84, 0.0, 9.997603, 9.999651 
2.6343125e+3, 2.9716644e+2, -170269.72, -291921.0, -83283.336, -0.16518256, 0.10425217, -127965.0, -100185.4, 0.0, 9.999894, 9.998314 
2.6340014e+3, 3.071597e+2, -16413.635, -39293.195, -15926.071, -0.15235992, -0.012000306, -8244.532, -8244.532, 0.0, 10.000088, 9.999538 
2.6336914e+3, 3.171549e+2, -427201.22, -54911.133, 20446.207, -0.02542792, -0.020237466, -53791.594, -53791.594, 0.0, 9.996236, 10.0013485 
2.6496276e+3, 1.2756851e+2, -2008651.3, -1965498.4, -159655.11, 0.36878645, -0.021528957, -1825968.4, -136153.88, 0.08643013, 9.998366, 9.998915 
2.649311e+3, 1.3756031e+2, -1216359.4, -1693178.3, -104660.92, 0.026184658, -0.32979015, -1194398.0, 397500.56, 0.055199515, 10.003941, 9.997577 
2.648998e+3, 1.475551e+2, -1109715.3, -1419102.0, -72358.47, -0.08587025, -0.2134725, -1093628.6, 400322.22, 0.027235242, 10.00322, 9.999015 
2.6486865e+3, 1.5755004e+2, -1569228.1, -1769736.0, -95676.6, -0.101997264, -0.19774881, -1530900.5, -134899.22, 0.0089680515, 9.999939, 9.997594 
2.6483735e+3, 1.6754499e+2, -1246104.9, -1444084.9, -149914.3, -0.1387213, -0.032916814, -1165447.1, 132609.28, 0.0015322798, 10.001249, 9.998384 
2.6480594e+3, 1.7753981e+2, -880794.75, -1386139.8, -133640.97, -0.21801387, 0.06368379, -847629.4, 352486.0, 0.00007382683, 10.003545, 9.997154 
2.6477486e+3, 1.8753351e+2, -768144.4, -1097889.8, -121973.266, -0.06910034, 0.11231603, -727930.5, 374249.7, 0.000000036839044, 10.003104, 9.998528 
2.6474383e+3, 1.9752674e+2, -955775.0, -1246848.4, -178780.17, 0.12787977, 0.01566675, -870783.4, 133463.83, 0.0, 10.001393, 9.997782 
2.647124e+3, 2.0752199e+2, -686053.2, -804607.2, -194134.48, 0.0943869, 0.10553375, -542347.5, 363947.9, 0.0, 10.0015745, 9.9999895 
2.6468077e+3, 2.1751794e+2, -595455.1, -840903.4, -59107.57, -0.084470816, 0.15326211, -581962.8, 226374.63, 0.0, 10.001927, 9.99899 
2.6464954e+3, 2.2751248e+2, -552082.4, -596522.8, 58801.31, -0.071331896, 0.1192244, -511442.97, 198946.4, 0.0, 10.001004, 10.0003395 
2.6461852e+3, 2.3750636e+2, -727324.94, -781295.6, 65763.62, 0.052157506, -0.063294694, -683225.4, -70779.164, 0.0, 9.999573, 9.999196 
2.6458722e+3, 2.4750338e+2, -644801.1, -559918.75, -15410.371, 0.13345425, 0.16070773, -557207.56, -42729.05, 0.0, 9.999075, 10.000186 
2.645558e+3, 2.5750157e+2, -657415.75, -677037.7, -18438.924, 0.15034479, 0.43448386, -646340.1, -229838.3, 0.0, 9.998809, 9.998941 
2.6452434e+3, 2.6749617e+2, -432443.56, -401782.88, -31331.945, -0.04157929, 0.4399356, -382231.84, -63674.887, 0.0, 9.9993925, 9.999744 
2.6449287e+3, 2.7748916e+2, -324656.16, -449998.1, -77693.39, -0.22593643, 0.21720748, -287507.72, -66882.66, 0.0, 9.999932, 9.998585 
2.6446182e+3, 2.8748316e+2, -322545.47, -308104.8, -3436.0237, -0.14295541, 0.20232283, -307328.94, -184646.53, 0.0, 9.999046, 9.999209 
2.644308e+3, 2.9747763e+2, -499669.56, -439742.3, 48908.38, -0.07016633, 0.17266536, -412348.72, -387614.25, 0.0, 9.997418, 9.998521 
2.6439965e+3, 3.0747288e+2, -175171.03, 43342.723, 11516.108, -0.080316305, 0.16128011, 43947.97, 43947.97, 0.0, 9.998188, 10.001068 
2.6436853e+3, 3.1746376e+2, 57280.047, 234599.47, -154246.67, 0.045563217, -0.40108454, 323851.47, 323851.47, 0.0, 9.999126, 10.001992 
2.659625e+3, 1.2788114e+2, -1625028.3, -1765319.3, 84490.27, 0.6399057, 0.3316103, -1585360.3, 101401.01, 0.073999934, 10.001011, 9.998944 
2.6593092e+3, 1.3787064e+2, -1450470.0, -1873997.6, -13396.436, -0.06593984, -0.2385026, -1450046.8, 138818.81, 0.04671151, 10.002522, 9.9969845 
2.658996e+3, 1.4786541e+2, -1235166.8, -1466725.1, -135328.61, -0.14347689, -0.09597888, -1172848.6, 318067.88, 0.022592498, 10.002428, 9.999024 
2.6586837e+3, 1.5786147e+2, -1494722.9, -1755770.4, -124332.05, 0.06255014, 0.035309847, -1444983.3, -52028.31, 0.0071954923, 10.000664, 9.997338 
2.6583716e+3, 1.6785426e+2, -1205435.4, -1413437.9, -3115.2512, 0.016062532, -0.01138466, -1205388.8, 89637.91, 0.001170623, 10.001522, 9.998451 
2.6580593e+3, 1.778461e+2, -1153413.6, -1556414.9, -55466.316, -0.09954267, -0.22880897, -1145919.0, 51190.086, 0.00005271245, 10.001972, 9.9967165 
2.657746e+3, 1.8783978e+2, -964473.4, -1279316.4, -116755.47, -0.13270403, -0.12204124, -925901.6, 173275.84, 0.000000014947995, 10.002196, 9.997696 
2.657433e+3, 1.9783443e+2, -1163340.4, -1385683.3, -137609.1, -0.08371269, -0.0012567982, -1097607.0, -96369.6, 0.0, 10.000248, 9.9973755 
2.6571205e+3, 2.0783132e+2, -625427.9, -472724.84, -126800.62, 0.07392958, 0.091190234, -401063.03, 502203.9, 0.0, 10.000881, 10.002491 
2.656808e+3, 2.1782875e+2, -770452.5, -767779.7, -74760.445, 0.23807307, 0.027318075, -694343.7, 110944.82, 0.0, 10.000243, 10.000234 
2.656492e+3, 2.2782572e+2, -622194.25, -543340.7, -13119.0625, -0.041706126, 0.13761365, -541215.3, 166100.47, 0.0, 10.000304, 10.000945 
2.6561752e+3, 2.3782225e+2, -945228.1, -900146.94, -8119.031, -0.41485596, 0.1398651, -898729.3, -289381.63, 0.0, 9.998296, 9.998952 
2.6558635e+3, 2.478175e+2, -766845.6, -664381.0, -52960.51, -0.16957003, 0.21146487, -641927.75, -130531.64, 0.0, 9.99855, 9.999667 
2.655553e+3, 2.5781226e+2, -976105.1, -980836.4, -22229.969, 0.21356666, 0.17690909, -956115.25, -542664.25, 0.0, 9.997433, 9.997479 
2.6552397e+3, 2.6780617e+2, -670119.7, -676157.2, 1828.8462, 0.14188851, 0.26526645, -669608.9, -354093.06, 0.0, 9.998659, 9.998113 
2.6549262e+3, 2.7779964e+2, -571889.0, -694120.94, -46149.06, -0.043630455, 0.21841279, -556422.4, -338836.8, 0.0, 9.998954, 9.99733 
2.654613e+3, 2.8779426e+2, -269240.16, -79879.53, -64089.543, -0.112323254, 0.19204143, -60227.74, 59406.598, 0.0, 9.998713, 10.000847 
2.6542988e+3, 2.9778972e+2, -645613.5, -467734.28, 43160.383, -0.29481363, 0.10131686, -457815.03, -436143.16, 0.0, 9.996396, 9.998781 
2.6539916e+3, 3.077867e+2, -355093.22, -175599.72, 63108.59, 0.06722383, 0.3273607, -155632.4, -155632.4, 0.0, 9.997636, 9.99976 
2.6536822e+3, 3.177788e+2, 7181.3813, 278625.5, -71558.44, 0.1527205, -0.04847026, 296334.5, 296334.5, 0.0, 9.998626, 10.002498 
2.6696226e+3, 1.2818916e+2, -1286256.4, -1606689.1, -11066.686, 0.3443142, 0.018501798, -1285874.6, 397867.1, 0.062782116, 10.003507, 9.998885 
2.6693076e+3, 1.3818376e+2, -1702401.5, -1948764.5, 88.87301, 0.028692039, -0.00058131665, -1702401.5, -116600.49, 0.039146993, 10.000479, 9.997496 
2.6689938e+3, 1.4817868e+2, -1311979.0, -1396667.9, -18388.932, -0.07283672, 0.073678814, -1308158.5, 179691.36, 0.018543638, 10.001439, 9.999987 
2.6686808e+3, 1.5817364e+2, -1070617.1, -1463190.5, 37659.707, -0.074620545, 0.03984508, -1067037.0, 322859.94, 0.005710664, 10.003135, 9.998181 
2.6683685e+3, 1.6816697e+2, -1007731.94, -1324085.0, 97921.305, -0.07368597, 0.021131486, -979875.1, 312089.06, 0.0008890518, 10.002793, 9.998482 
2.6680568e+3, 1.7815982e+2, -1189084.0, -1474736.8, 69419.78, -0.11525008, -0.084783904, -1173107.1, 20930.277, 0.000037964888, 10.00118, 9.997667 
2.6677433e+3, 1.8815431e+2, -1005131.8, -1105996.3, 77030.76, -0.109507285, -0.034975685, -963492.56, 132601.14, 0.0000000057994387, 10.00099, 9.999513 
2.6674291e+3, 1.9814938e+2, -1011267.06, -1185033.9, 165404.52, -0.08958439, 0.0016844452, -911315.3, 86829.61, 0.0, 10.000598, 9.998616 
2.6671165e+3, 2.0814551e+2, -744482.44, -723173.8, 84801.305, 0.04048558, 0.110998124, -648360.1, 251825.36, 0.0, 10.000843, 10.000827 
2.666804e+3, 2.1814175e+2, -684815.5, -821815.0, -59002.93, 0.17271346, 0.12182507, -662907.5, 139316.31, 0.0, 10.001067, 9.9995165 
2.666488e+3, 2.2813761e+2, -578146.5, -594253.94, -118409.77, -0.023106094, 0.18116425, -467516.88, 236745.66, 0.0, 10.000799, 10.000421 
2.6661715e+3, 2.3813339e+2, -611049.0, -734941.75, -169701.92, -0.3179875, 0.17773387, -492340.75, 113960.46, 0.0, 10.000411, 9.999108 
2.665859e+3, 2.4812771e+2, -412875.53, -465919.1, -191143.25, -0.13155077, 0.121239334, -246422.84, 261932.69, 0.0, 10.000786, 9.99997 
2.6655477e+3, 2.5812158e+2, -380952.25, -625897.1, -131295.89, 0.18925905, -0.02094115, -323874.94, 86540.61, 0.0, 10.001106, 9.9981575 
2.665235e+3, 2.6811624e+2, -444553.5, -611987.06, -38594.184, 0.18182504, 0.12734723, -436085.63, -123611.31, 0.0, 10.00025, 9.99786 
2.6649225e+3, 2.7811077e+2, -540892.7, -620517.94, -20360.84, 0.11774016, 0.23604469, -535988.3, -321453.22, 0.0, 9.998769, 9.997969 
2.6646078e+3, 2.8810546e+2, -197041.92, 21845.428, -77997.61, -0.041991085, 0.15180351, 46795.0, 163376.7, 0.0, 9.998802, 10.001598 
2.664292e+3, 2.9810062e+2, -264294.66, -206765.73, -43979.598, -0.28981113, -0.015752232, -182979.27, -164359.14, 0.0, 9.998523, 9.999616 
2.6639858e+3, 3.0809808e+2, -298920.6, -204157.48, 61893.5, 0.16243488, 0.25670153, -173591.52, -173591.52, 0.0, 9.998203, 9.999325 
2.6636758e+3, 3.1809276e+2, -120480.766, 217637.23, 22903.477, 0.12013953, 0.21888891, 219181.63, 219181.63, 0.0, 9.997575, 10.002633 
2.6796198e+3, 1.2849751e+2, -1576972.4, -1739925.5, -76786.766, 0.22935641, -0.2683608, -1546490.8, 134227.45, 0.05267765, 10.001364, 9.998973 
2.6793063e+3, 1.3849753e+2, -1523347.5, -1821394.3, -43347.34, 0.29386085, 0.21999896, -1517171.3, 65556.93, 0.03242507, 10.00164, 9.99776 
2.678992e+3, 1.4849249e+2, -1116097.6, -1209913.8, 63530.637, 0.048101228, 0.21010228, -1084034.1, 400742.2, 0.015032841, 10.0024, 10.000768 
2.6786783e+3, 1.5848596e+2, -1157750.0, -1481938.4, 23542.324, -0.17463818, -0.05927632, -1156049.4, 230786.92, 0.0044764117, 10.002506, 9.9983225 
2.6783657e+3, 1.6848093e+2, -1111886.9, -1356645.4, 14751.328, -0.15943576, 0.070190564, -1111001.0, 177888.89, 0.00066900725, 10.002134, 9.998531 
2.6780537e+3, 1.7847641e+2, -1306770.9, -1453673.0, -4986.884, -0.069881916, 0.20395066, -1306601.8, -115662.055, 0.000027210404, 10.00015, 9.998301 
2.6777402e+3, 1.884722e+2, -884402.2, -754418.0, 20493.17, -0.013565547, 0.17549752, -751263.6, 341713.06, 0.000000001728097, 10.000658, 10.0020485 
2.6774266e+3, 1.9846797e+2, -1135740.0, -1237393.1, 71308.58, 0.057365704, 0.056187537, -1098998.0, -103985.64, 0.0, 9.9998455, 9.998592 
2.6771122e+3, 2.0846224e+2, -1052025.5, -1282930.4, 47445.973, 0.020628873, 0.20380327, -1042656.56, -145579.06, 0.0, 10.000563, 9.997087 
2.676798e+3, 2.1845606e+2, -1156572.6, -1428293.8, -63006.953, -0.022121705, 0.3293514, -1142673.5, -343523.63, 0.0, 9.999558, 9.996081 
2.6764846e+3, 2.2844882e+2, -761552.3, -827755.1, -120926.89, 0.054815467, 0.25469503, -669278.2, 31941.863, 0.0, 10.000213, 9.999066 
2.6761717e+3, 2.3844159e+2, -938144.5, -1046097.4, -154114.31, 0.15863878, 0.06886779, -828827.75, -225541.1, 0.0, 9.998956, 9.997654 
2.6758572e+3, 2.4843562e+2, -490700.28, -417195.2, -153358.31, 0.09466524, -0.03070449, -296247.0, 209093.28, 0.0, 10.000051, 10.00055 
2.6755422e+3, 2.5843015e+2, -614593.0, -730443.1, -125482.32, -0.00624596, -0.18391035, -534311.25, -126921.53, 0.0, 9.999612, 9.99812 
2.675229e+3, 2.6842648e+2, -488736.2, -544748.44, -99850.34, 0.029156737, 0.07088115, -413038.75, -103608.68, 0.0, 9.999647, 9.998567 
2.6749167e+3, 2.784229e+2, -719962.75, -721097.4, -62953.16, 0.11159722, 0.2844658, -657574.3, -446102.6, 0.0, 9.997685, 9.997797 
2.6746023e+3, 2.8841633e+2, -308762.13, -84088.414, -91047.234, 0.0010700676, 0.0960043, -51825.242, 61704.22, 0.0, 9.99833, 10.001059 
2.674287e+3, 2.9840943e+2, -412676.97, -328449.7, -62410.875, -0.22786129, -0.2394045, -295272.72, -279685.53, 0.0, 9.997823, 9.999106 
2.673979e+3, 3.0840558e+2, -296717.06, -117594.02, 12254.786, 0.13632219, -0.15182394, -116759.49, -116759.49, 0.0, 9.997944, 10.000004 
2.673666e+3, 3.1840178e+2, -540855.75, -371164.7, 235606.89, -0.27239755, -0.04720238, -205591.83, -205591.83, 0.0, 9.996534, 9.999054 
2.6896158e+3, 1.2880915e+2, -1713732.5, -1575423.3, -20243.031, 0.13201146, -0.21044354, -1572521.3, 105146.27, 0.043619167, 9.999385, 10.001028 
2.689303e+3, 1.3880776e+2, -1221657.3, -1556173.5, 73179.45, 0.017494567, -0.05324135, -1206348.9, 373331.66, 0.02648621, 10.003202, 9.99884 
2.6889896e+3, 1.4880332e+2, -1015609.4, -1310113.1, 55117.57, -0.08340325, 0.05649691, -1005631.94, 476094.13, 0.012009438, 10.003674, 9.999491 
2.6886776e+3, 1.5879786e+2, -1130350.6, -1499714.1, -54975.137, -0.13144097, 0.0114516895, -1122342.0, 261440.0, 0.003455713, 10.002704, 9.998131 
2.6883635e+3, 1.6879287e+2, -1080904.5, -1266604.4, -86006.22, -0.115966864, 0.08475136, -1047191.44, 238642.9, 0.00049606664, 10.001873, 9.999337 
2.6880497e+3, 1.7878832e+2, -1189631.9, -1348861.8, -49188.1, -0.13108027, 0.1475511, -1175662.6, 12219.921, 0.00001910138, 10.000589, 9.998853 
2.6877365e+3, 1.8878388e+2, -781520.9, -773476.5, -91150.1, -0.022351425, 0.11315258, -686259.9, 403662.84, 0.0000000002885943, 10.001525, 10.001554 
2.6874238e+3, 1.987798e+2, -758090.06, -1037881.94, -166000.98, 0.082960896, 0.043500744, -680898.0, 311060.63, 0.0, 10.0022335, 9.998828 
2.6871094e+3, 2.0877445e+2, -850463.4, -1146927.4, -113414.71, 0.07179078, 0.18010741, -812052.4, 81966.01, 0.0, 10.001686, 9.997515 
2.6867944e+3, 2.1876858e+2, -930351.2, -1231881.1, -33646.477, 0.020721879, 0.3057131, -926642.3, -130556.82, 0.0, 10.000611, 9.996938 
2.686481e+3, 2.2876091e+2, -671576.1, -765170.0, 14711.1455, 0.10952787, 0.15984379, -669318.3, 28839.84, 0.0, 10.000612, 9.999387 
2.686168e+3, 2.387533e+2, -638713.8, -831051.3, 59861.3, 0.23180221, -0.057749003, -621605.0, -21377.5, 0.0, 10.00055, 9.998411 
2.6858526e+3, 2.4874832e+2, -481683.72, -508364.47, 36585.766, 0.102032736, -0.015137072, -456082.03, 46193.285, 0.0, 10.000359, 9.99988 
2.6855367e+3, 2.5874367e+2, -503862.1, -650031.4, -21536.14, -0.0940954, 0.015410465, -500755.06, -96434.836, 0.0, 10.000064, 9.998513 
2.6852235e+3, 2.6873878e+2, -378506.8, -404466.34, -33107.25, -0.06265517, 0.08878973, -355925.88, -49556.977, 0.0, 9.999924, 9.9994545 
2.6849103e+3, 2.7873403e+2, -416923.47, -511214.72, 10836.437, 0.060644224, 0.14645386, -415694.13, -207277.69, 0.0, 9.999373, 9.998434 
2.6845965e+3, 2.8872815e+2, -267768.84, -184328.63, -22277.88, 0.012181395, 0.07965741, -178753.16, -68281.516, 0.0, 9.999021, 10.000051 
2.684282e+3, 2.9872197e+2, -329084.9, -294716.9, -43705.4, -0.094043255, -0.08450178, -264938.7, -252410.61, 0.0, 9.998318, 9.999092 
2.683973e+3, 3.0871558e+2, -134056.22, 51029.66, 8779.719, 0.14033338, -0.3060962, 51445.203, 51445.203, 0.0, 9.998574, 10.000887 
2.6836565e+3, 3.1871325e+2, -508084.06, -388494.53, 280606.03, -0.49671257, -0.09997367, -161383.13, -161383.13, 0.0, 9.996774, 9.998827 
2.6996115e+3, 1.2912205e+2, -1420487.6, -1241472.1, 137792.63, 0.14438741, -0.08127901, -1166667.9, 507937.5, 0.03555016, 10.000631, 10.002784 
2.6992995e+3, 1.3911809e+2, -1264172.5, -1569746.0, 58765.613, -0.1770886, -0.33149454, -1253260.8, 323370.97, 0.021269776, 10.002867, 9.998924 
2.698988e+3, 1.4911398e+2, -1231939.4, -1592034.0, -26304.217, -0.13555992, -0.09783684, -1230028.0, 248650.1, 0.009415533, 10.00297, 9.997875 
2.6986775e+3, 1.5910955e+2, -1395287.4, -1717462.5, -124509.21, 0.07188755, 0.1077145, -1352778.0, 27953.084, 0.0026134893, 10.001347, 9.997279 
2.6983616e+3, 1.6910416e+2, -1082700.4, -1136960.6, -150514.31, -0.01817389, 0.07385616, -956890.7, 325894.44, 0.0003600524, 10.001394, 10.000394 
2.698045e+3, 1.7909862e+2, -1317779.0, -1444410.0, -66751.74, -0.1506444, -0.040175833, -1289091.0, -104251.85, 0.000012952271, 9.999986, 9.99845 
2.6977333e+3, 1.8909368e+2, -972572.4, -1032504.06, -28396.945, -0.021055259, -0.024913687, -961254.56, 125634.12, 0.000000000007316074, 10.001079, 9.999922 
2.6974222e+3, 1.9908918e+2, -1040300.7, -1249651.0, -119813.4, 0.15121186, 0.01315096, -985877.94, 3055.7576, 0.0, 10.000712, 9.998113 
2.6971072e+3, 2.0908488e+2, -815339.25, -883265.6, -138751.8, 0.19256292, 0.10965184, -706454.44, 184523.44, 0.0, 10.000948, 9.999646 
2.696792e+3, 2.1908037e+2, -1052622.8, -1144455.4, -51383.74, 0.20407197, 0.1667545, -1029629.06, -236605.34, 0.0, 9.999302, 9.998132 
2.6964772e+3, 2.2907405e+2, -680155.94, -617341.9, 6172.3, 0.13590682, 0.006382916, -616741.06, 78338.61, 0.0, 10.000102, 10.00053 
2.696162e+3, 2.3906787e+2, -890982.3, -1019084.5, 40100.156, 0.052302334, -0.16532102, -879465.1, -282330.97, 0.0, 9.999245, 9.997718 
2.695847e+3, 2.4906471e+2, -686959.4, -788880.4, 10618.457, -0.039018895, 0.17785451, -685864.9, -186692.05, 0.0, 9.999836, 9.998148 
2.6955318e+3, 2.590616e+2, -844997.1, -950566.5, -32382.734, -0.125483, 0.5069104, -835855.5, -434643.66, 0.0, 9.998478, 9.997173 
2.6952174e+3, 2.6905307e+2, -427759.28, -323344.06, -39925.164, -0.14827806, 0.17937145, -309827.6, -6537.7744, 0.0, 9.999278, 10.000244 
2.694903e+3, 2.790444e+2, -620802.5, -655586.44, 14716.233, -0.16092803, -0.23239431, -615411.8, -410044.03, 0.0, 9.998335, 9.997913 
2.69459e+3, 2.8904226e+2, -448422.13, -423178.53, -34452.598, -0.06643837, 0.1861458, -399108.47, -291711.25, 0.0, 9.998608, 9.998546 
2.6942766e+3, 2.9904044e+2, -549678.0, -513756.75, -30430.678, -0.04574056, 0.60295707, -496381.7, -486957.72, 0.0, 9.997428, 9.998001 
2.6939648e+3, 3.0902967e+2, -141782.11, 128374.1, 33882.855, -0.08790764, -0.09512353, 132558.86, 132558.86, 0.0, 9.998274, 10.001536 
2.693649e+3, 3.1902677e+2, -312974.8, 271250.38, 32423.854, -0.57087827, -0.10435856, 273044.38, 273044.38, 0.0, 9.995852, 10.003792 
2.7096084e+3, 1.2943512e+2, -1358962.5, -1383659.4, 133054.36, -0.047992986, 0.049861893, -1237684.8, 433859.44, 0.028415078, 10.001779, 10.00124 
2.7093005e+3, 1.394323e+2, -1270498.0, -1662503.0, 696.0677, -0.006340275, 0.069641285, -1270496.8, 303065.94, 0.016713178, 10.003152, 9.998162 
2.708987e+3, 1.49426e+2, -1307479.4, -1615738.1, -123672.25, -0.05698927, 0.08464847, -1263996.3, 211633.0, 0.0071980846, 10.002308, 9.9980755 
2.708673e+3, 1.5941928e+2, -1425604.9, -1614423.8, -137510.44, -0.09013916, 0.03978401, -1353214.3, 24487.549, 0.0019202423, 10.000549, 9.998395 
2.7083573e+3, 1.6941544e+2, -1004281.2, -933138.7, -103342.42, -0.12689996, 0.025630435, -859416.94, 420319.97, 0.00025324232, 10.001203, 10.001915 
2.7080414e+3, 1.7941204e+2, -1022386.1, -1160497.5, -18343.064, -0.21038122, 0.0065313214, -1019991.44, 161775.14, 0.000008369746, 10.001327, 9.999762 
2.707728e+3, 1.8940757e+2, -1040750.94, -1066679.0, 55126.37, -0.13793594, 0.04038114, -997084.75, 86726.01, 0.0, 10.00059, 9.999937 
2.707416e+3, 1.9940308e+2, -1155773.6, -1236875.4, 38108.94, -0.049584173, 0.091801144, -1140676.9, -154820.81, 0.0, 9.999506, 9.998816 
2.7071023e+3, 2.0939775e+2, -799119.4, -824306.75, -3869.6733, 0.07572003, 0.05315044, -798538.25, 89368.34, 0.0, 10.000677, 10.000271 
2.7067882e+3, 2.1939258e+2, -633430.6, -862059.6, -3463.263, 0.16101013, 0.00052623276, -633378.2, 156577.34, 0.0, 10.001683, 9.998963 
2.7064735e+3, 2.2938706e+2, -483692.34, -615453.56, -51954.117, 0.13254355, -0.03443701, -465671.3, 226336.95, 0.0, 10.001752, 9.999814 
2.7061582e+3, 2.3938172e+2, -497184.63, -743654.75, -122769.51, 0.0589446, -0.06198437, -446467.88, 147591.19, 0.0, 10.001435, 9.998571 
2.7058423e+3, 2.4937843e+2, -551708.5, -565470.9, -42783.273, -0.023905598, 0.14237767, -515256.56, -19162.473, 0.0, 10.0, 9.999647 
2.7055266e+3, 2.5937524e+2, -758693.4, -771598.7, 117675.414, -0.08778938, 0.35894036, -647293.9, -249164.8, 0.0, 9.998394, 9.998433 
2.7052125e+3, 2.6936668e+2, -330875.63, -344773.22, 107048.195, -0.16013435, 0.042152233, -230550.94, 69657.51, 0.0, 10.000126, 9.999725 
2.7048984e+3, 2.7935752e+2, -112513.53, -420323.03, 17480.785, -0.18506886, -0.34875348, -111523.96, 90769.08, 0.0, 10.001724, 9.997914 
2.7045846e+3, 2.8935602e+2, -237502.9, -383359.8, -33560.49, -0.093756475, 0.1816571, -230151.44, -125830.71, 0.0, 10.000268, 9.998067 
2.70427e+3, 2.9935515e+2, -451819.9, -459917.47, 55957.223, -0.04870181, 0.76053244, -399765.2, -393421.88, 0.0, 9.997942, 9.998166 
2.7039582e+3, 3.093436e+2, -158186.56, 110398.79, 106920.38, -0.09504837, 0.0012714744, 147764.19, 147764.19, 0.0, 9.9981, 10.001559 
2.703645e+3, 3.193416e+2, 45301.11, 671389.3, -281199.66, -0.14034267, 0.06718961, 779141.9, 779141.9, 0.0, 9.99723, 10.005903 
2.7196062e+3, 1.2974833e+2, -1341740.9, -1567593.9, 275713.25, -0.038889017, 0.15826881, -1156724.1, 511756.7, 0.02219124, 10.002843, 9.9994 
2.7193028e+3, 1.3974695e+2, -1433838.5, -1877720.3, 64783.95, 0.34909365, 0.50223476, -1424576.6, 145914.53, 0.01278431, 10.00261, 9.996959 
2.718986e+3, 1.4973849e+2, -1270569.5, -1521726.5, -86118.516, 0.08486276, 0.2843904, -1243877.4, 228699.2, 0.00532732, 10.002322, 9.998689 
2.718668e+3, 1.5972954e+2, -1376052.8, -1493363.9, -77700.13, -0.18272908, -0.041867115, -1337354.4, 37312.53, 0.0013580795, 10.000592, 9.999191 
2.718353e+3, 1.697277e+2, -968412.44, -758962.2, -52696.93, -0.18440951, 0.0028268003, -746451.2, 530227.9, 0.00016970174, 10.00087, 10.003235 
2.7180383e+3, 1.7972694e+2, -1195358.9, -1189443.8, -37281.516, -0.1667731, 0.13746877, -1155002.6, 23676.887, 0.0000049540654, 9.999991, 10.000203 
2.717723e+3, 1.897231e+2, -1011624.25, -1000599.1, -18543.21, -0.2583015, 0.16062313, -986766.44, 93949.086, 0.0, 10.000598, 10.000347 
2.7174085e+3, 1.9971845e+2, -1222065.0, -1307217.5, 2574.6052, -0.28212482, 0.16623926, -1221987.3, -239227.38, 0.0, 9.999362, 9.998355 
2.7170962e+3, 2.0971195e+2, -871551.6, -848385.0, 14.94395, -0.10022707, 0.0009365905, -848385.0, 36434.39, 0.0, 10.000337, 10.000169 
2.7167842e+3, 2.1970552e+2, -1032161.94, -1230061.6, -19681.85, 0.10100711, -0.13931593, -1030223.5, -243344.14, 0.0, 9.999846, 9.997306 
2.7164704e+3, 2.2970016e+2, -749741.25, -958177.94, -63267.043, 0.17008528, 0.006225577, -732040.9, -43101.35, 0.0, 10.000947, 9.997804 
2.716156e+3, 2.396952e+2, -765337.44, -854025.06, -138425.19, 0.18358769, 0.16160373, -664326.8, -73332.28, 0.0, 9.999698, 9.998603 
2.7158383e+3, 2.4969035e+2, -405156.9, -70649.75, -107882.984, 0.065033875, -0.09444639, -38874.438, 454155.66, 0.0, 9.999318, 10.003299 
2.715521e+3, 2.596857e+2, -915984.1, -801208.44, 111792.92, -0.06694484, -0.32577044, -732933.94, -337870.28, 0.0, 9.99722, 9.998807 
2.7152085e+3, 2.6968014e+2, -541269.56, -645015.06, 188498.38, -0.12261692, -0.2334084, -397636.78, -100516.01, 0.0, 9.999662, 9.997852 
2.7148962e+3, 2.796742e+2, -370619.5, -709929.06, 12623.509, -0.15151343, -0.12822098, -370150.53, -170965.86, 0.0, 10.000769, 9.996385 
2.7145785e+3, 2.8966886e+2, -288166.28, -382463.28, -135023.14, -0.2289574, 0.01485709, -192296.5, -91050.53, 0.0, 9.999862, 9.998235 
2.7142602e+3, 2.996641e+2, -639811.1, -621132.6, 12100.591, -0.38398176, 0.1965121, -615186.4, -611885.6, 0.0, 9.997068, 9.997452 
2.7139553e+3, 3.0965713e+2, -302186.63, -55820.887, 107292.96, 0.26103628, -0.045235958, -15645.875, -15645.875, 0.0, 9.997626, 10.000571 
2.713639e+3, 3.1965438e+2, -454193.72, -239636.28, -298621.13, -0.072794005, 0.1343182, -29608.662, -29608.662, 0.0, 9.996847, 9.999759 
2.729607e+3, 1.3006221e+2, -1115052.3, -1438490.3, 207180.61, -0.05580892, 0.1109378, -1013946.5, 651451.75, 0.016854309, 10.004342, 9.999542 
2.7292982e+3, 1.4005743e+2, -1376663.8, -1781251.8, 133994.1, -0.009822907, 0.10714971, -1336311.3, 231131.08, 0.009467287, 10.002657, 9.997611 
2.7289826e+3, 1.5005177e+2, -1181107.1, -1379421.3, 45781.684, -0.06855817, 0.09956749, -1171048.5, 298452.47, 0.0037924994, 10.002519, 9.999559 
2.728666e+3, 1.6004595e+2, -1181304.4, -1388908.9, 44011.31, -0.12595779, 0.04025581, -1172359.6, 199201.13, 0.0009170214, 10.001842, 9.999293 
2.7283496e+3, 1.7004287e+2, -1056766.5, -955593.44, -10468.606, -0.14816521, 0.081945345, -954521.56, 319065.4, 0.0001065257, 10.000855, 10.001909 
2.728034e+3, 1.8004036e+2, -1243057.5, -1255913.6, -41726.465, -0.20912315, 0.15949842, -1207266.9, -31660.217, 0.0000025959862, 9.999746, 9.999881 
2.7277195e+3, 1.9003487e+2, -832275.75, -937911.8, -14588.673, -0.293751, 0.054794427, -830298.0, 247358.55, 0.0, 10.0018015, 10.000284 
2.7274054e+3, 2.0002909e+2, -647032.94, -1017000.06, -82074.84, -0.33792475, -0.03841754, -629642.6, 350067.3, 0.0, 10.003146, 9.998542 
2.7270934e+3, 2.1002284e+2, -725977.8, -893824.25, -153740.81, -0.04033792, -0.10610514, -634745.9, 247024.36, 0.0, 10.001737, 9.999239 
2.7267814e+3, 2.2001687e+2, -945164.44, -1125581.6, -172568.55, 0.22396675, -0.1305361, -840648.9, -56819.895, 0.0, 10.000033, 9.997949 
2.7264658e+3, 2.300122e+2, -829409.25, -881093.25, -83651.19, 0.13227677, -0.013771267, -767699.4, -81817.39, 0.0, 9.999802, 9.998909 
2.7261496e+3, 2.4000797e+2, -661223.5, -679102.8, -57182.965, 0.019626487, 0.122065954, -612285.6, -24356.482, 0.0, 9.999747, 9.99979 
2.7258322e+3, 2.5000328e+2, -166765.13, 24551.06, -182125.97, -0.054071523, -0.11657842, 134612.05, 624574.44, 0.0, 10.000911, 10.003257 
2.7255154e+3, 2.599986e+2, -198786.08, -378095.5, -147018.23, -0.10259001, -0.360421, -116242.27, 275752.34, 0.0, 10.001657, 9.999602 
2.7252042e+3, 2.699938e+2, -437564.2, -573284.6, 23441.047, -0.072437845, -0.23367122, -433629.63, -139585.72, 0.0, 10.000172, 9.998163 
2.724893e+3, 2.799888e+2, -637328.25, -750897.56, -31551.918, -0.012759518, -0.055665966, -629151.2, -433052.84, 0.0, 9.998423, 9.997265 
2.7245736e+3, 2.8998226e+2, -272354.6, -330660.16, -160922.64, -0.24443492, -0.08393541, -137965.4, -39799.06, 0.0, 9.999635, 9.99875 
2.7242535e+3, 2.99976e+2, -128284.21, -317861.44, 18198.906, -0.4595529, -0.09775667, -126552.98, -126321.45, 0.0, 10.000207, 9.998035 
2.723951e+3, 3.0996993e+2, -113519.96, -48085.39, 132864.73, 0.48947206, -0.20963289, 56031.02, 56031.02, 0.0, 9.999114, 10.000003 
2.7236313e+3, 3.1996766e+2, -379336.56, -562269.94, -180930.33, -0.14946923, 0.18303582, -268067.13, -268067.13, 0.0, 9.998648, 9.996773 
2.7396083e+3, 1.3037609e+2, -1325725.6, -1485114.3, 143178.0, 0.1153093, 0.054748096, -1241556.8, 420758.28, 0.012358647, 10.002684, 9.999954 
2.7392924e+3, 1.4036763e+2, -1573855.0, -1826166.8, 8363.211, -0.34030712, -0.36007726, -1573578.1, -9183.695, 0.0067449408, 10.001145, 9.997971 
2.738979e+3, 1.5036562e+2, -1159653.3, -1277502.1, -50099.902, -0.19866598, -0.1122135, -1141233.6, 325183.38, 0.0025850076, 10.00226, 10.000353 
2.7386653e+3, 1.6036375e+2, -1224967.8, -1498803.0, -74652.84, 0.0781482, 0.17473052, -1205938.4, 162500.23, 0.0005889778, 10.00197, 9.998458 
2.738347e+3, 1.703586e+2, -1132336.5, -1225811.5, -105692.13, -0.023507623, 0.15083925, -1063509.3, 206979.19, 0.00006228534, 10.001358, 9.999807 
2.7380294e+3, 1.8035297e+2, -1383242.6, -1506382.8, -18767.701, -0.16526425, 0.12721805, -1380445.8, -207904.4, 0.0000011486238, 9.999679, 9.99817 
2.737717e+3, 1.9034556e+2, -912920.5, -999092.4, 67738.17, -0.2325889, -0.13748123, -875726.56, 198881.39, 0.0, 10.00148, 9.999933 
2.737405e+3, 2.0033848e+2, -934108.25, -1297161.0, -75123.484, -0.2143543, -0.3033662, -919177.6, 57494.938, 0.0, 10.001926, 9.997168 
2.737092e+3, 2.1033272e+2, -888727.2, -1135489.9, -203281.81, 0.15482505, -0.21134806, -774313.56, 104420.586, 0.0, 10.001356, 9.997729 
2.7367786e+3, 2.203275e+2, -1114413.1, -1189696.0, -166485.45, 0.4424139, -0.0498847, -981366.9, -200576.22, 0.0, 9.998902, 9.998032 
2.7364597e+3, 2.303236e+2, -732716.6, -524043.94, -90075.14, 0.044157024, -0.095735155, -490541.22, 192288.92, 0.0, 9.9992485, 10.001569 
2.7361408e+3, 2.4032018e+2, -932634.0, -895238.7, -57622.14, -0.35401535, -0.058358453, -853356.56, -268492.3, 0.0, 9.9983635, 9.998957 
2.7358255e+3, 2.5031707e+2, -461585.7, -421090.03, -148215.27, -0.3343762, 0.0503503, -291745.94, 195145.98, 0.0, 10.000294, 10.000431 
2.7355108e+3, 2.6031384e+2, -482792.22, -610128.06, -161808.84, -0.267348, 0.17529534, -372575.97, 16343.991, 0.0, 10.000264, 9.998637 
2.7351993e+3, 2.7030757e+2, -388070.75, -305751.2, -48939.934, -0.07537415, -0.022188526, -282963.78, 8013.038, 0.0, 9.999535, 10.0002575 
2.7348876e+3, 2.8030127e+2, -740411.3, -698607.7, -41025.598, 0.06932986, -0.15282603, -673466.2, -480431.34, 0.0, 9.997437, 9.998059 
2.7345696e+3, 2.9029676e+2, -263771.84, -222898.72, -90895.9, -0.13427803, -0.092833586, -150170.28, -55092.73, 0.0, 9.999378, 9.999564 
2.7342507e+3, 3.002918e+2, -214389.56, -361723.44, 17446.508, -0.37462637, -0.027744178, -212351.81, -212351.81, 0.0, 9.99976, 9.997928 
2.7339426e+3, 3.102815e+2, -170823.28, -73443.164, 79255.164, 0.16763672, -0.6020229, -29116.543, -29116.543, 0.0, 9.998852, 9.999868 
2.7336264e+3, 3.2028267e+2, -313672.75, -329956.75, 75198.77, -0.1529324, 0.08925472, -246176.47, -246176.47, 0.0, 9.998408, 9.998414 
2.749607e+3, 1.3068894e+2, -1535234.5, -1596959.8, -26193.084, 0.10255974, 0.09698052, -1525617.8, 133638.2, 0.008685479, 10.00116, 9.999986 
2.7492884e+3, 1.406833e+2, -1684443.9, -1830444.8, -41659.88, -0.44374388, -0.04478361, -1673393.0, -112085.836, 0.0045926278, 10.000103, 9.998462 
2.748977e+3, 1.5067954e+2, -1149010.4, -1262201.0, -51847.1, -0.16277422, 0.0023318634, -1128851.9, 334492.1, 0.0016782226, 10.002195, 10.000551 
2.7486652e+3, 1.6067573e+2, -958010.6, -1302653.4, -165619.39, 0.17025633, 0.071967885, -891324.8, 474056.56, 0.0003582281, 10.003465, 9.999086 
2.748345e+3, 1.7067052e+2, -900072.06, -1078737.1, -179370.25, 0.014780295, 0.004427131, -789020.0, 478409.16, 0.000033741435, 10.0027895, 10.000134 
2.748026e+3, 1.806651e+2, -1085882.4, -1341897.4, 10443.791, -0.20407538, -0.014111923, -1085457.1, 84021.836, 0.00000040337267, 10.001564, 9.998388 
2.747715e+3, 1.906583e+2, -875438.6, -1059478.0, 127313.83, -0.17150174, -0.16040316, -810370.94, 261172.33, 0.0, 10.001985, 9.999308 
2.747404e+3, 2.0065194e+2, -831964.5, -1190251.0, -63212.035, -0.112272635, -0.2093133, -821139.1, 152464.83, 0.0, 10.002248, 9.997772 
2.747088e+3, 2.1064724e+2, -678469.9, -945664.0, -112551.07, 0.028640097, -0.071765766, -637378.9, 238275.56, 0.0, 10.002281, 9.998651 
2.746772e+3, 2.2064275e+2, -615688.9, -875258.1, -11242.391, 0.14488302, 0.094968766, -615202.9, 162500.06, 0.0, 10.001862, 9.998807 
2.7464548e+3, 2.3063774e+2, -501168.34, -489279.4, -55186.242, -0.0046768016, 0.0096991975, -439718.4, 240033.98, 0.0, 10.001008, 10.001065 
2.7461377e+3, 2.4063314e+2, -660950.4, -769893.9, -123097.84, -0.19699019, -0.017768681, -580810.7, 986.4934, 0.0, 10.000113, 9.999005 
2.7458224e+3, 2.5062913e+2, -540992.9, -599168.3, -142603.36, -0.21216314, 0.10467013, -424540.88, 59296.863, 0.0, 10.00025, 9.999301 
2.7455077e+3, 2.6062515e+2, -440343.88, -525050.2, -128709.58, -0.18158537, 0.25569955, -347198.16, 38677.992, 0.0, 10.000141, 9.999311 
2.745194e+3, 2.7061903e+2, -380097.25, -196103.98, -140361.03, -0.088110454, 0.0016838784, -120277.5, 167650.44, 0.0, 9.999013, 10.001307 
2.7448803e+3, 2.8061318e+2, -578175.75, -446131.2, -154399.97, 0.019256297, -0.19965722, -344230.0, -154252.7, 0.0, 9.997686, 9.999686 
2.7445644e+3, 2.9061002e+2, -372184.84, -157376.8, -159009.25, -0.043221243, -0.1062401, -72896.56, 19108.113, 0.0, 9.998092, 10.000668 
2.7442473e+3, 3.0060595e+2, -377695.53, -380978.5, -71260.91, -0.19689395, -0.035658758, -308057.22, -308057.22, 0.0, 9.998293, 9.998529 
2.7439332e+3, 3.1059438e+2, -164202.78, -128956.58, -92451.38, -0.17012447, -0.70089084, -52463.625, -52463.625, 0.0, 9.999049, 9.999449 
2.7436233e+3, 3.205971e+2, -199607.19, 46449.934, 7631.8647, 0.14535649, 0.11020885, 46686.42, 46686.42, 0.0, 9.997677, 10.001357 
2.7596048e+3, 1.3100286e+2, -1307995.0, -1455061.5, 25267.016, 0.18802181, 0.2126703, -1303775.0, 352412.1, 0.0058229333, 10.002704, 10.000139 
2.7592856e+3, 1.4100069e+2, -1527511.1, -1782442.6, 17745.264, -0.30018315, 0.41648152, -1526281.9, 31922.541, 0.0029696852, 10.00141, 9.998133 
2.7589756e+3, 1.509937e+2, -1189744.4, -1262799.3, 74468.766, -0.013618999, 0.13271885, -1143326.9, 316943.63, 0.0010279784, 10.001978, 10.000585 
2.758665e+3, 1.6098677e+2, -1206372.1, -1409762.1, -100387.12, 0.31211033, -0.100863434, -1165170.5, 197164.7, 0.0002033788, 10.001748, 9.999182 
2.7583435e+3, 1.7098215e+2, -880530.8, -987212.5, -187581.0, 0.061027065, -0.18627936, -738854.0, 525519.75, 0.000016580547, 10.002581, 10.000857 
2.7580234e+3, 1.8097776e+2, -1077526.8, -1382930.6, 27952.482, -0.16794586, -0.13879122, -1074989.5, 91422.0, 0.00000009587778, 10.001928, 9.997912 
2.7577135e+3, 1.9097207e+2, -929945.2, -1168162.5, 136321.44, -0.035519563, -0.11734615, -868027.9, 200442.53, 0.0, 10.002057, 9.998503 
2.757403e+3, 2.0096704e+2, -974765.3, -1218476.9, -46155.414, 0.05095182, 0.024208263, -966317.0, 4205.873, 0.0, 10.001197, 9.998075 
2.757083e+3, 2.1096392e+2, -674368.94, -718995.4, -124343.72, -0.20590761, 0.13251162, -570352.3, 302201.7, 0.0, 10.001452, 10.00056 
2.756764e+3, 2.2096038e+2, -955203.56, -1134717.3, -40460.246, -0.32936254, 0.28579563, -946505.75, -171916.17, 0.0, 10.000156, 9.997787 
2.756451e+3, 2.3095356e+2, -791059.25, -889541.25, -80030.58, 0.022319512, 0.19744511, -746334.5, -69675.61, 0.0, 10.0003, 9.998587 
2.7561375e+3, 2.4094683e+2, -980452.94, -1108873.1, -117687.766, 0.29283077, 0.19024366, -910598.3, -331871.5, 0.0, 9.998904, 9.997208 
2.7558216e+3, 2.5093973e+2, -644905.6, -672897.9, -121358.02, 0.17748061, 0.020751739, -536739.3, -55942.836, 0.0, 9.999723, 9.998994 
2.7555048e+3, 2.6093316e+2, -680990.75, -722357.9, -142128.19, 0.005322944, -0.048742846, -558049.0, -175190.3, 0.0, 9.998971, 9.9985075 
2.7551875e+3, 2.7092856e+2, -513089.13, -278513.53, -196383.84, -0.1693165, -0.13667688, -167059.03, 117835.9, 0.0, 9.998346, 10.001015 
2.754871e+3, 2.8092447e+2, -745778.2, -512263.5, -192599.66, -0.24847966, -0.13708442, -403794.5, -216867.64, 0.0, 9.996609, 9.999732 
2.754557e+3, 2.9092142e+2, -391713.78, -57774.508, -156774.94, -0.09269522, -0.14379181, 4291.315, 93246.17, 0.0, 9.99754, 10.001598 
2.7542418e+3, 3.0091774e+2, -566429.75, -536861.7, -80474.836, -0.12480191, -0.07238121, -469824.16, -469824.16, 0.0, 9.997392, 9.997875 
2.7539247e+3, 3.1090963e+2, -313362.3, -316690.3, -91110.92, -0.4781379, -0.32124132, -223900.19, -223900.19, 0.0, 9.998606, 9.99835 
2.7536166e+3, 3.20906e+2, -84653.22, 578860.5, -93198.55, 0.08003967, -0.21098836, 591702.8, 591702.8, 0.0, 9.996623, 10.005457 
2.7696025e+3, 1.3131788e+2, -1071639.5, -1386566.5, 10275.723, -0.1326625, 0.08715183, -1071304.5, 581786.25, 0.0036893368, 10.004534, 9.999708 
2.769289e+3, 1.41314e+2, -1206324.8, -1605837.9, 63635.77, 0.10182529, 0.15945186, -1196433.5, 358693.06, 0.001804221, 10.003541, 9.998295 
2.7689728e+3, 1.5130873e+2, -1243398.9, -1290019.6, 123810.016, -0.041567367, 0.051088385, -1140724.0, 316456.22, 0.00058557204, 10.001614, 10.000563 
2.7686578e+3, 1.613034e+2, -1409071.3, -1501137.1, 6529.469, -0.10764175, -0.010588211, -1408610.5, -49377.324, 0.00010501939, 10.000254, 9.999286 
2.7683407e+3, 1.712992e+2, -808559.3, -986207.1, -37359.19, -0.05571534, -0.017514668, -801022.44, 460247.75, 0.0000068884756, 10.003111, 10.000675 
2.7680245e+3, 1.812948e+2, -642852.6, -1173212.1, 69585.44, -0.04402593, 0.056679074, -633874.7, 529435.4, 0.00000000965895, 10.004836, 9.9979725 
2.7677122e+3, 1.9128785e+2, -769257.56, -1139206.1, 164519.1, -0.038091365, 0.0017436222, -706679.8, 358700.03, 0.0, 10.003279, 9.99817 
2.7673987e+3, 2.0128167e+2, -882284.1, -1070205.0, -20909.717, -0.078452095, 0.033482768, -879985.6, 87455.78, 0.0, 10.001295, 9.999064 
2.767079e+3, 2.112779e+2, -743485.56, -682867.25, -117435.7, -0.24571294, 0.03528599, -591892.5, 277581.8, 0.0, 10.000585, 10.001293 
2.7667597e+3, 2.2127396e+2, -900529.25, -1029383.2, -61639.266, -0.32032067, 0.088933825, -875792.1, -104281.95, 0.0, 10.000067, 9.998578 
2.7664474e+3, 2.3126695e+2, -735510.5, -900503.5, 16413.504, 0.07637128, 0.010435556, -733893.56, -60313.523, 0.0, 10.000695, 9.998395 
2.7661344e+3, 2.412599e+2, -596677.3, -896145.25, 85922.21, 0.38318464, -0.0010088694, -573776.2, 1874.987, 0.0, 10.001269, 9.997564 
2.765818e+3, 2.5125292e+2, -348099.1, -576892.0, 90847.766, 0.17141871, -0.086234696, -316413.84, 161308.34, 0.0, 10.001859, 9.998675 
2.7655008e+3, 2.612464e+2, -214332.36, -441488.0, 12382.343, -0.037340563, -0.12084547, -213659.39, 166126.66, 0.0, 10.001858, 9.999043 
2.765183e+3, 2.7124178e+2, -185047.4, -142498.33, -52535.65, -0.115531266, -0.16900426, -107093.055, 174729.75, 0.0, 10.000601, 10.000923 
2.7648655e+3, 2.8123763e+2, -374483.06, -358877.7, -7396.1475, -0.14822538, -0.13357008, -355929.34, -172072.8, 0.0, 9.999114, 9.999603 
2.7645501e+3, 2.9123372e+2, -276297.9, -137372.52, -118860.7, -0.11141357, -0.118065834, -69165.56, 16730.605, 0.0, 9.99867, 10.0006075 
2.7642342e+3, 3.0122966e+2, -477510.8, -455080.84, -122456.83, -0.17901349, -0.029130686, -343326.53, -343326.53, 0.0, 9.997709, 9.998284 
2.763918e+3, 3.1122348e+2, -525761.9, -353923.8, -37727.97, -0.46954525, -0.13157682, -346005.3, -346005.3, 0.0, 9.996808, 9.998952 
2.763609e+3, 3.212163e+2, 1412.5868, 814959.06, -169418.33, 0.12397152, -0.4653775, 848829.7, 848829.7, 0.0, 9.996278, 10.007229 
2.7796012e+3, 1.3163306e+2, -1294171.1, -1521679.5, 19037.523, -0.27186328, -0.085080005, -1292589.1, 357402.53, 0.00217142, 10.00318, 9.999393 
2.7792922e+3, 1.4162691e+2, -1530866.0, -1811421.5, 30998.918, 0.5997603, -0.22066897, -1527481.8, 24569.139, 0.0010072395, 10.001465, 9.9979315 
2.7789694e+3, 1.516245e+2, -1233967.9, -1298140.3, 69039.875, -0.06610619, -0.05128164, -1189922.5, 264158.7, 0.00030058212, 10.001655, 10.00055 
2.7786493e+3, 1.616218e+2, -1342955.8, -1518527.9, 83291.56, -0.49103394, 0.17582014, -1309729.9, 46383.38, 0.000046417692, 10.000984, 9.998814 
2.7783385e+3, 1.7161788e+2, -885780.2, -1077454.9, 61298.98, -0.094166376, 0.2272504, -867853.0, 390299.28, 0.0000020738605, 10.002893, 10.000131 
2.7780265e+3, 1.8161315e+2, -921787.94, -1376585.9, 78039.03, 0.17738277, 0.34297958, -908769.8, 251428.33, 0.00000000000031198744, 10.003314, 9.997278 
2.7777103e+3, 1.9160448e+2, -929032.1, -1215773.3, 94532.59, -0.066416144, 0.10329123, -900671.7, 161608.88, 0.0, 10.00229, 9.99806 
2.7773935e+3, 2.0159651e+2, -1066287.9, -1207812.4, -43087.477, -0.23189707, -0.01619501, -1054202.0, -89846.984, 0.0, 10.0003805, 9.998523 
2.7770755e+3, 2.1159075e+2, -775399.6, -706149.75, -150525.64, -0.13970554, -0.22310549, -586318.06, 280085.2, 0.0, 10.00052, 10.001118 
2.7767578e+3, 2.2158547e+2, -1000917.56, -1069138.9, -60002.008, -0.014189865, -0.28349572, -966008.06, -197559.8, 0.0, 9.999435, 9.99858 
2.776444e+3, 2.3157905e+2, -735232.4, -774687.44, 20019.113, 0.14397025, -0.42833182, -726854.0, -56345.117, 0.0, 10.000249, 9.999416 
2.7761292e+3, 2.4157327e+2, -825198.0, -1042261.3, 91700.49, 0.20871139, -0.37245855, -791644.8, -219078.98, 0.0, 10.000016, 9.9971285 
2.7758121e+3, 2.515687e+2, -522632.47, -715813.6, 102748.7, -0.111311436, -0.18760164, -478201.63, -3584.0476, 0.0, 10.001028, 9.998089 
2.775495e+3, 2.61564e+2, -492096.28, -629880.4, -23024.07, -0.30188474, 0.027433287, -488350.72, -111682.99, 0.0, 10.000358, 9.99841 
2.77518e+3, 2.715581e+2, -306325.22, -198919.52, -103080.66, 0.027509766, -0.17431164, -136391.5, 142326.5, 0.0, 9.999868, 10.000828 
2.7748635e+3, 2.815525e+2, -696261.8, -765031.44, -43881.797, 0.20113088, -0.19988044, -674897.8, -494129.88, 0.0, 9.998144, 9.997245 
2.7745435e+3, 2.9154694e+2, -591001.06, -618438.25, -126369.86, -0.20452292, -0.077311635, -477607.34, -394778.63, 0.0, 9.998093, 9.99751 
2.774224e+3, 3.0154166e+2, -585492.75, -446557.78, -163274.08, -0.5678707, 0.09716826, -338587.53, -338587.53, 0.0, 9.996882, 9.998703 
2.773913e+3, 3.1153482e+2, -478310.97, -1864.0787, -65454.617, -0.15609683, -0.34419632, 6964.5283, 6964.5283, 0.0, 9.995843, 10.001809 
2.7735993e+3, 3.2153323e+2, -540376.06, -28922.953, -79686.375, -0.069862016, -0.11947292, -16795.09, -16795.09, 0.0, 9.995246, 10.001917 
2.789599e+3, 1.3194993e+2, -1437650.9, -1511728.5, -124598.76, -0.3288897, -0.17119752, -1344702.3, 302185.5, 0.0011689387, 10.001763, 10.000204 
2.7892846e+3, 1.4194596e+2, -1703191.1, -1801459.5, 83574.664, 0.1963021, -0.13236842, -1655377.4, -106450.984, 0.0005049565, 9.999843, 9.9987955 
2.7889672e+3, 1.5194285e+2, -1125850.4, -1171516.6, 215282.64, -0.033226836, -0.09403668, -932193.44, 518763.75, 0.00013439951, 10.002042, 10.001256 
2.788651e+3, 1.6193917e+2, -1047219.6, -1466409.8, 177442.17, -0.17941037, 0.0361865, -982195.25, 370799.78, 0.000016423304, 10.0033455, 9.998049 
2.7883372e+3, 1.7193347e+2, -1004602.44, -1324874.3, 120115.36, -0.06795085, 0.08442171, -964560.4, 290494.53, 0.0000003300107, 10.002829, 9.99849 
2.7880228e+3, 1.8192784e+2, -1067052.4, -1349791.6, 65315.22, -0.02509989, 0.18606877, -1052693.3, 104418.45, 0.0, 10.001798, 9.998229 
2.7877066e+3, 1.9192058e+2, -973782.8, -1094073.4, 144929.78, -0.13925268, -0.009055441, -877013.75, 182163.52, 0.0, 10.001223, 9.999501 
2.78739e+3, 2.0191367e+2, -989082.9, -1162473.9, 66244.1, -0.21655445, -0.10216647, -966671.1, -5430.7935, 0.0, 10.000827, 9.998606 
2.7870727e+3, 2.1190764e+2, -599974.2, -794729.56, -44566.918, -0.09341157, -0.17982428, -590260.25, 273037.06, 0.0, 10.002426, 9.99961 
2.786756e+3, 2.2190186e+2, -394356.4, -780444.75, -44452.53, 0.028943563, -0.18005365, -389304.44, 376047.44, 0.0, 10.003476, 9.998647 
2.7864403e+3, 2.3189595e+2, -348303.88, -596892.4, -34766.938, 0.08211871, -0.25382915, -343533.0, 323876.0, 0.0, 10.002779, 9.999493 
2.7861246e+3, 2.418906e+2, -486595.28, -748767.7, -5206.5566, 0.08727214, -0.20121375, -486491.9, 82969.125, 0.0, 10.001689, 9.998347 
2.7858087e+3, 2.518858e+2, -526746.06, -622636.44, 63083.098, -0.06690096, -0.11180836, -495456.06, -23946.127, 0.0, 10.000495, 9.999026 
2.785492e+3, 2.6188096e+2, -567378.0, -638516.0, -5197.787, -0.15733205, 0.020345714, -567000.2, -193441.69, 0.0, 9.999576, 9.99877 
2.785175e+3, 2.7187473e+2, -319115.84, -316430.97, -130731.55, 0.043705262, -0.11635689, -187034.97, 88581.195, 0.0, 10.000076, 10.0000105 
2.784858e+3, 2.8186852e+2, -384610.16, -572644.8, -51341.223, 0.19348983, -0.15529877, -371505.22, -193831.42, 0.0, 10.000023, 9.997654 
2.784538e+3, 2.918619e+2, -356721.75, -488075.03, 76666.8, -0.1539415, -0.13460386, -321446.8, -241707.36, 0.0, 9.999572, 9.997694 
2.7842182e+3, 3.0185568e+2, -269905.44, -243190.77, 162627.94, -0.44296992, -0.055176776, -93372.53, -93372.53, 0.0, 9.99867, 9.999277 
2.7839074e+3, 3.118499e+2, -216236.6, 127708.91, 13119.486, 0.08124651, -0.37088844, 128208.62, 128208.62, 0.0, 9.997426, 10.002034 
2.7835906e+3, 3.2185024e+2, -484396.47, -198501.69, 84128.19, -0.07000134, 0.12604652, -175583.16, -175583.16, 0.0, 9.996298, 10.000307 
2.7995968e+3, 1.3226849e+2, -1571777.0, -1507840.9, -178152.53, -0.2196859, -0.12781818, -1358810.9, 284959.78, 0.0005685035, 10.000549, 10.000784 
2.799276e+3, 1.4226668e+2, -1525508.8, -1677346.3, 120023.305, -0.20606837, 0.054803625, -1459409.0, 86378.695, 0.00022583413, 10.000981, 9.99904 
2.7989662e+3, 1.522619e+2, -958670.25, -1050525.0, 227815.6, 0.100737974, -0.13159513, -772198.7, 675628.9, 0.00005282333, 10.003077, 10.001535 
2.798655e+3, 1.6225617e+2, -1143268.9, -1666769.6, 110558.85, 0.3413698, -0.17082463, -1120877.5, 229002.53, 0.000004777361, 10.003479, 9.996524 
2.7983359e+3, 1.7224826e+2, -1170551.0, -1609429.9, 52016.1, 0.014579755, -0.19538482, -1164470.4, 87493.09, 0.00000002399446, 10.002645, 9.996558 
2.798018e+3, 1.8224159e+2, -1122245.3, -1323589.0, 47809.01, -0.22199337, -0.08157464, -1111469.8, 42561.58, 0.0, 10.001325, 9.998587 
2.7977028e+3, 1.9223684e+2, -869750.4, -832663.06, 68382.664, -0.13087097, -0.21243024, -780354.4, 275715.0, 0.0, 10.001147, 10.001278 
2.7973878e+3, 2.0223215e+2, -1155723.3, -1396377.4, 48797.7, -0.04179304, -0.14307696, -1146204.9, -188093.84, 0.0, 10.0004225, 9.997178 
2.7970707e+3, 2.1222629e+2, -869837.56, -1163806.3, -5326.8174, -0.02544218, -0.0373692, -869741.06, -9564.4375, 0.0, 10.001643, 9.997427 
2.796754e+3, 2.2222088e+2, -760383.44, -1091292.1, -21530.273, -0.012383039, 0.19296041, -758988.5, 3248.43, 0.0, 10.001746, 9.997283 
2.796437e+3, 2.3221575e+2, -548847.6, -743168.2, -59627.082, -0.019305546, 0.23501337, -532010.06, 132281.63, 0.0, 10.001782, 9.998918 
2.796121e+3, 2.4221048e+2, -637319.1, -749247.56, -38149.82, 0.037301227, 0.33155313, -625553.0, -59209.6, 0.0, 10.000489, 9.998881 
2.795807e+3, 2.5220364e+2, -543960.7, -433306.56, 20764.285, 0.23268962, 0.027569437, -429538.47, 38862.746, 0.0, 9.999637, 10.000692 
2.7954906e+3, 2.6219758e+2, -837388.9, -861263.3, -15315.491, 0.23820068, -0.034518264, -829908.0, -459452.8, 0.0, 9.998264, 9.997838 
2.7951682e+3, 2.7219188e+2, -552794.44, -593777.44, -101664.03, -0.16396812, -0.0056346874, -469577.3, -197061.84, 0.0, 9.999303, 9.998434 
2.7948484e+3, 2.8218606e+2, -394457.13, -378295.56, -65963.14, -0.33622256, 0.04592241, -319920.1, -145349.25, 0.0, 9.999228, 9.999336 
2.7945346e+3, 2.9217842e+2, -172287.16, 22484.988, 70692.25, 0.015782136, -0.40060094, 45437.773, 122064.984, 0.0, 9.999123, 10.001392 
2.794218e+3, 3.0217254e+2, -504562.72, -527816.56, 115818.664, 0.09052572, -0.4694474, -399788.84, -399788.84, 0.0, 9.997968, 9.997588 
2.7938986e+3, 3.1217048e+2, -589162.0, -451877.4, -18900.098, -0.07408614, -0.09397029, -449322.97, -449322.97, 0.0, 9.996731, 9.99831 
2.7935848e+3, 3.2216433e+2, -208371.13, 569178.8, 251134.6, 0.04555681, -0.22579427, 643237.0, 643237.0, 0.0, 9.995746, 10.005724 
2.8095934e+3, 1.3258915e+2, -1747123.0, -1649802.8, -102920.93, -0.1702505, 0.078614876, -1584618.5, 56017.594, 0.00025074874, 9.999476, 10.0004 
2.809275e+3, 1.4258568e+2, -1252277.9, -1610465.1, 147091.14, -0.16879652, 0.15273407, -1199616.6, 343051.5, 0.00009142473, 10.003112, 9.998489 
2.8089643e+3, 1.5258114e+2, -846997.44, -1150579.3, 222042.63, -0.10604777, 0.116053104, -729821.06, 714887.6, 0.000018191195, 10.004437, 10.000246 
2.8086522e+3, 1.6257496e+2, -919952.06, -1486846.5, -25897.836, -0.00037388413, 0.09184803, -918771.4, 427994.2, 0.000001253609, 10.004633, 9.997216 
2.8083336e+3, 1.72566e+2, -1036379.7, -1447501.1, 6491.819, -0.057976753, -0.1170827, -1036277.2, 212574.97, 0.0000000065346386, 10.003051, 9.99752 
2.8080162e+3, 1.8255848e+2, -1079755.4, -1330644.8, 63016.27, -0.117028154, -0.13101895, -1064817.0, 86107.266, 0.0, 10.0017, 9.998349 
2.8077015e+3, 1.925534e+2, -769302.4, -943969.7, 10991.414, -0.023326574, -0.14941402, -768613.44, 284356.22, 0.0, 10.002463, 9.999909 
2.8073862e+3, 2.0254843e+2, -765610.9, -1100952.0, -115564.88, 0.060954224, -0.06753181, -729642.9, 225372.72, 0.0, 10.002557, 9.9981785 
2.8070682e+3, 2.1254225e+2, -826267.4, -1027250.25, -31729.566, 0.0356564, -0.089607716, -821377.2, 35701.777, 0.0, 10.00133, 9.998561 
2.8067505e+3, 2.2253673e+2, -882121.9, -1127326.5, 70347.28, -0.013608486, 0.05443694, -863373.3, -104235.22, 0.0, 10.000725, 9.997551 
2.8064337e+3, 2.3253177e+2, -526989.94, -815864.94, 57780.895, -0.06472775, 0.20782137, -515861.34, 145333.28, 0.0, 10.002172, 9.998282 
2.8061175e+3, 2.4252646e+2, -254349.64, -490576.13, 2794.3535, -0.016549345, 0.31328186, -254316.6, 308932.25, 0.0, 10.002647, 9.999647 
2.805803e+3, 2.5251955e+2, -318553.5, -281328.6, -34856.004, 0.26332742, -0.018308429, -260426.95, 204877.92, 0.0, 10.0008335, 10.001227 
2.805486e+3, 2.6251373e+2, -564881.9, -652304.2, -28663.965, 0.32571328, -0.11617938, -556321.75, -188967.13, 0.0, 9.999652, 9.9986515 
2.8051633e+3, 2.7250928e+2, -361132.06, -482662.78, 12398.681, -0.16780107, 0.029003117, -359880.03, -90475.695, 0.0, 10.000373, 9.998752 
2.8048432e+3, 2.8250396e+2, -105884.945, -148808.02, 65854.164, -0.36909792, 0.08521867, -58083.438, 113371.82, 0.0, 10.000655, 10.000294 
2.8045315e+3, 2.9249558e+2, 58248.71, 179291.17, -63217.96, 0.18420774, -0.46084428, 206287.55, 279803.2, 0.0, 10.000332, 10.001987 
2.804215e+3, 3.0248952e+2, -302998.22, -434951.4, -144745.81, 0.37278226, -0.5910139, -209901.69, -209901.69, 0.0, 9.999297, 9.997582 
2.8038904e+3, 3.1248882e+2, -489736.47, -515389.78, -97244.31, -0.14407071, 0.0032084563, -404476.53, -404476.53, 0.0, 9.997778, 9.997414 
2.8035793e+3, 3.2247904e+2, 4882.6226, 848475.9, 212700.13, 0.33902013, -0.49462548, 899070.75, 899070.75, 0.0, 9.996274, 10.007452 
2.8195912e+3, 1.3290894e+2, -1403719.8, -1529545.0, 82811.98, 0.05005907, 0.21298163, -1362633.3, 274875.13, 0.00010745089, 10.002207, 9.999834 
2.819276e+3, 1.4290404e+2, -1166112.3, -1709925.4, 164170.33, 0.02645901, 0.24898599, -1120394.6, 419159.7, 0.00003510944, 10.004434, 9.997118 
2.8189617e+3, 1.5289998e+2, -1116209.1, -1436950.0, 206013.1, -0.30537778, 0.38266647, -1015504.7, 426091.25, 0.0000055355054, 10.00339, 9.998737 
2.8186476e+3, 1.6289414e+2, -1211595.5, -1533697.9, -62684.637, -0.37017298, 0.4659689, -1199826.5, 143824.4, 0.0000002527922, 10.0023365, 9.997993 
2.818332e+3, 1.728847e+2, -990248.4, -1227487.5, -94352.53, -0.04162248, 0.036341067, -957299.44, 288433.7, 0.0, 10.002642, 9.999222 
2.8180158e+3, 1.8287668e+2, -1142298.8, -1531252.1, 54367.64, 0.16731122, -0.07093785, -1134842.3, 12963.521, 0.0, 10.002082, 9.996778 
2.817701e+3, 1.9287026e+2, -1019792.5, -1352908.5, 47428.453, 0.17816195, -0.007326321, -1013171.3, 36700.145, 0.0, 10.002021, 9.997316 
2.8173852e+3, 2.0286404e+2, -900558.8, -1047275.0, -114853.9, 0.18788539, 0.08734843, -837634.75, 114296.57, 0.0, 10.001287, 9.999086 
2.8170654e+3, 2.1285696e+2, -788730.0, -736353.44, -103602.86, 0.14172521, -0.28011572, -655680.25, 198311.2, 0.0, 10.000564, 10.000856 
2.816747e+3, 2.2285089e+2, -1035972.56, -1234857.4, 80892.44, 0.04694655, -0.3060593, -1007226.1, -251178.28, 0.0, 9.999953, 9.997134 
2.8164312e+3, 2.3284541e+2, -728240.25, -970671.94, 104622.55, -0.06357189, -0.18015979, -689333.75, -31222.734, 0.0, 10.001199, 9.997614 
2.8161144e+3, 2.428403e+2, -519211.22, -680828.5, -42820.305, -0.11108175, 0.016218988, -508567.03, 51598.24, 0.0, 10.001261, 9.998957 
2.8157967e+3, 2.5283408e+2, -495103.53, -410984.2, -107590.7, 0.037612446, -0.23558241, -337524.28, 124693.57, 0.0, 9.999927, 10.000728 
2.8154787e+3, 2.628295e+2, -663121.2, -589186.6, -26915.354, 0.110078126, -0.1990208, -580426.25, -216169.63, 0.0, 9.998685, 9.99948 
2.8151605e+3, 2.7282697e+2, -341020.3, -255843.5, 55085.973, -0.007704025, -0.073549576, -228802.63, 37479.324, 0.0, 9.999719, 10.000558 
2.8148425e+3, 2.8282276e+2, -396236.8, -528575.2, 44863.72, -0.05703821, 0.0831429, -382461.53, -214139.72, 0.0, 9.999891, 9.997985 
2.814527e+3, 2.928136e+2, -270517.6, -312275.78, -80295.05, 0.16295843, -0.26735508, -208431.45, -138026.55, 0.0, 9.99967, 9.99886 
2.8142074e+3, 3.0280644e+2, -304957.0, -292935.0, -230180.9, 0.11662532, -0.35625368, -68686.61, -68686.61, 0.0, 9.998759, 9.998803 
2.8138828e+3, 3.1280282e+2, -415987.66, -145387.31, -151068.72, -0.20909253, -0.35516462, -77887.35, -77887.35, 0.0, 9.996909, 10.000356 
2.8135714e+3, 3.22797e+2, -614520.94, -185303.05, 279299.28, 0.26938078, -0.40095228, -47683.258, -47683.258, 0.0, 9.99541, 10.000683 
2.8295922e+3, 1.3322483e+2, -1099543.3, -1626566.6, 154377.63, 0.036681786, 0.05151739, -1057652.1, 576753.4, 0.000050640916, 10.005259, 9.997739 
2.8292742e+3, 1.4321847e+2, -845239.1, -1567757.6, 20595.863, -0.36227304, 0.106642, -844652.5, 691817.75, 0.00001538915, 10.00669, 9.996999 
2.8289598e+3, 1.5321377e+2, -1402762.6, -1631274.4, 61240.063, -0.29884452, 0.21643856, -1387385.3, 51135.2, 0.0000020566958, 10.001621, 9.9982815 
2.828646e+3, 1.6320819e+2, -1613823.1, -1655494.1, -33807.875, -0.15049659, 0.32265133, -1594946.0, -254371.23, 0.00000005936716, 9.999214, 9.998676 
2.8283313e+3, 1.7320016e+2, -938782.3, -1183427.9, -32711.174, 0.06627244, 0.014837078, -934484.06, 308159.56, 0.0, 10.002838, 9.999462 
2.8280154e+3, 1.8319309e+2, -721960.06, -1251784.4, -38438.016, 0.16546154, -0.04793696, -719185.94, 425521.25, 0.0, 10.004545, 9.99755 
2.8276974e+3, 1.9318688e+2, -953713.94, -1297036.5, 48177.0, 0.048914634, 0.011849541, -947081.56, 99689.445, 0.0, 10.002271, 9.997629 
2.82738e+3, 2.0318104e+2, -946096.8, -1051218.8, -40651.5, 0.001571171, 0.1185722, -932210.8, 16617.664, 0.0, 10.000796, 9.99935 
2.827061e+3, 2.131749e+2, -671544.25, -744007.4, -102642.15, 0.03736222, -0.07370311, -598926.7, 251956.55, 0.0, 10.001531, 10.0004 
2.8267437e+3, 2.2316898e+2, -643343.1, -889071.7, 10467.735, 0.05245983, -0.12431433, -642898.0, 110039.39, 0.0, 10.001859, 9.998625 
2.8264284e+3, 2.3316266e+2, -667524.56, -841926.56, 112324.73, 0.02590341, -0.17631827, -612525.5, 42475.707, 0.0, 10.001014, 9.998661 
2.8261113e+3, 2.4315704e+2, -592770.3, -660152.4, -6929.3457, -0.03674783, -0.11949176, -592065.1, -35008.855, 0.0, 10.0004225, 9.999538 
2.8257906e+3, 2.531514e+2, -402808.3, -438217.3, -69236.68, -0.10386797, -0.2430037, -349048.38, 110058.22, 0.0, 10.000729, 10.000228 
2.825472e+3, 2.6314685e+2, -279752.0, -292690.47, 28611.588, -0.07926435, -0.21170913, -256887.39, 104258.62, 0.0, 10.000766, 10.000525 
2.8251562e+3, 2.7314386e+2, -192225.17, -123680.95, 5750.4404, 0.044347394, -0.17428842, -123201.875, 139969.8, 0.0, 10.000428, 10.001148 
2.82484e+3, 2.831397e+2, -411496.16, -568796.6, -15628.513, 0.15591416, -0.050771847, -409958.4, -244747.9, 0.0, 9.999825, 9.997748 
2.8245214e+3, 2.9313165e+2, -440096.88, -569494.6, -16181.29, 0.17175686, -0.15893102, -438104.06, -370812.75, 0.0, 9.999097, 9.997411 
2.8242e+3, 3.0312428e+2, -186671.75, -145598.45, -84607.66, 0.005445563, -0.21251722, -79070.7, -79070.7, 0.0, 9.999084, 9.999679 
2.8238773e+3, 3.131181e+2, 210000.36, 210423.39, -219457.34, -0.14955816, -0.5193123, 429669.3, 429669.3, 0.0, 10.000847, 10.000942 
2.8235653e+3, 3.2311448e+2, -222649.2, -479403.1, 160820.69, 0.3578333, -0.22926958, -145249.73, -145249.73, 0.0, 10.000004, 9.996523 
2.8395927e+3, 1.3354018e+2, -1519156.4, -2039994.6, 221829.05, 0.046667386, -0.08150184, -1437484.5, 193825.45, 0.000026719768, 10.003192, 9.995948 
2.8392723e+3, 1.4353266e+2, -1283744.6, -1784118.3, -80878.5, -0.6564147, -0.027362775, -1270996.5, 262391.0, 0.000008259606, 10.003707, 9.996938 
2.8389582e+3, 1.5352699e+2, -1294717.9, -1576306.4, -99828.89, -0.11758836, -0.03288672, -1262917.8, 172530.39, 0.0000013335809, 10.002349, 9.998297 
2.838645e+3, 1.6352148e+2, -1344555.0, -1521170.5, 91120.234, 0.27012527, 0.08120033, -1305972.4, 31530.492, 0.000000073245815, 10.001153, 9.998612 
2.8383312e+3, 1.7351496e+2, -1017797.56, -1263889.1, 106797.484, 0.24651323, -0.06395053, -977914.0, 261646.2, 0.0, 10.00255, 9.999019 
2.8380144e+3, 1.8350913e+2, -920662.56, -1233928.3, -58812.875, 0.13442299, -0.007399703, -909984.94, 231628.3, 0.0, 10.0028105, 9.998441 
2.8376928e+3, 1.935032e+2, -1057165.6, -1219854.4, -51633.563, -0.13415384, -0.07290296, -1042162.06, 1509.3268, 0.0, 10.00111, 9.998658 
2.837373e+3, 2.0349845e+2, -1115722.3, -1243030.3, -22000.215, -0.2516586, 0.12227121, -1112027.6, -166307.45, 0.0, 10.00021, 9.998277 
2.8370562e+3, 2.1349439e+2, -908594.9, -1054321.3, -56987.633, -0.100936905, 0.2593456, -888956.0, -41190.883, 0.0, 10.000863, 9.998546 
2.8367406e+3, 2.2348952e+2, -713204.75, -766854.4, 27964.984, 0.046558876, 0.3785054, -701278.94, 48532.94, 0.0, 10.00084, 9.99992 
2.836426e+3, 2.3348214e+2, -691608.44, -645093.06, 89599.21, 0.18264627, -0.0068253838, -575782.2, 76091.95, 0.0, 10.000055, 10.000452 
2.8361085e+3, 2.4347605e+2, -740315.9, -753546.8, -2334.8323, 0.11186238, -0.08057013, -739915.94, -185988.88, 0.0, 9.999629, 9.999259 
2.8357854e+3, 2.5347084e+2, -583417.3, -605942.5, -56305.977, -0.21525072, -0.13968968, -537258.56, -81282.164, 0.0, 9.999962, 9.999421 
2.8354654e+3, 2.6346567e+2, -467099.7, -425443.56, 14098.665, -0.32502973, -0.0945049, -421120.47, -63097.035, 0.0, 9.999829, 10.0 
2.835151e+3, 2.7345946e+2, -370315.78, -274338.47, -1581.5951, -0.054201763, -0.36994624, -274312.44, -14234.096, 0.0, 9.999614, 10.000453 
2.8348348e+3, 2.8345448e+2, -476773.88, -510211.22, -48090.96, 0.12853791, -0.3082629, -442578.34, -280454.22, 0.0, 9.999128, 9.99844 
2.8345153e+3, 2.9344985e+2, -489234.34, -480762.66, -24082.379, 0.10849337, -0.20873196, -460546.44, -396374.72, 0.0, 9.998398, 9.998331 
2.8341937e+3, 3.0344403e+2, -399388.6, -430876.78, -19778.436, -0.079461195, -0.085129656, -389853.0, -389853.0, 0.0, 9.998583, 9.997903 
2.8338742e+3, 3.13435e+2, -66853.8, -228987.78, -126672.59, -0.10324299, -0.45687646, 2471.3784, 2471.3784, 0.0, 10.000423, 9.998076 
2.8335598e+3, 3.2343e+2, -138129.8, -202307.77, 91935.74, 0.15994745, -0.27624974, -72843.81, -72843.81, 0.0, 9.999788, 9.99842 
2.8495875e+3, 1.3385676e+2, -1483237.8, -1417032.6, -34404.977, -0.3081202, 0.32665324, -1402391.3, 225839.47, 0.000013315561, 10.000728, 10.001478 
2.8492725e+3, 1.4385009e+2, -1589422.4, -1668943.4, -20003.334, -0.38993037, 0.08411323, -1584674.1, -54393.61, 0.0000038169696, 10.000403, 9.999343 
2.8489578e+3, 1.5384531e+2, -935242.8, -1280919.6, 70822.02, -0.098308265, 0.03237777, -921295.56, 511033.16, 0.0000005153316, 10.004187, 9.999478 
2.8486434e+3, 1.6384038e+2, -704656.44, -1207073.5, 135514.83, 0.10923005, 0.13811687, -670435.5, 663942.25, 0.00000002542409, 10.005458, 9.998705 
2.8483266e+3, 1.7383483e+2, -1028784.94, -1321601.1, 162619.84, -0.018402904, 0.14745146, -956376.8, 280053.97, 0.0, 10.002617, 9.998619 
2.8480092e+3, 1.8382889e+2, -1157410.3, -1257888.4, -23411.6, -0.08670352, 0.18437245, -1152223.1, -13737.197, 0.0, 10.000712, 9.999303 
2.84769e+3, 1.9382142e+2, -1116812.4, -1175761.6, -2942.31, -0.040847596, -0.07957305, -1116665.9, -76111.62, 0.0, 10.000246, 9.999416 
2.847371e+3, 2.0381585e+2, -1018782.56, -1115293.6, 78374.64, -0.044333063, -0.045445725, -974999.06, -32392.326, 0.0, 10.000441, 9.999071 
2.847053e+3, 2.1381198e+2, -774707.8, -951513.25, 144934.03, -0.08393071, 0.10606726, -693343.3, 151303.5, 0.0, 10.001468, 9.999016 
2.8467363e+3, 2.2380748e+2, -519860.25, -617566.9, 198726.11, -0.043591086, 0.22053903, -364070.7, 382619.13, 0.0, 10.001878, 10.000449 
2.846421e+3, 2.3380089e+2, -468670.0, -515652.84, 167454.19, 0.04182346, -0.052961573, -323067.5, 325679.5, 0.0, 10.001385, 10.000731 
2.846104e+3, 2.4379538e+2, -430600.16, -544390.56, 51528.984, 0.057062943, -0.11664829, -410734.03, 140060.77, 0.0, 10.001346, 9.999929 
2.8457826e+3, 2.5379094e+2, -291220.63, -425775.06, 59995.082, -0.07585505, -0.093606554, -268355.53, 184479.75, 0.0, 10.001646, 9.999911 
2.8454632e+3, 2.6378566e+2, -308277.13, -419074.94, 116792.65, -0.15182653, -0.06271185, -234410.56, 120474.79, 0.0, 10.001125, 9.999466 
2.8451458e+3, 2.7377826e+2, -370839.6, -385046.2, 36271.62, -0.07198066, -0.30287018, -340982.28, -84024.77, 0.0, 9.999958, 9.999592 
2.844829e+3, 2.837727e+2, -300046.47, -330423.94, -4713.341, 0.057656426, -0.2934565, -299331.97, -140321.22, 0.0, 9.999826, 9.99939 
2.8445104e+3, 2.9376924e+2, -19314.824, -138333.88, -24756.604, 0.1442202, -0.14492252, -14370.7, 46672.84, 0.0, 10.0010605, 9.99943 
2.8441903e+3, 3.0376345e+2, -7255.8765, -326801.28, 44850.086, 0.024222476, -0.05433077, -1080.2534, -1080.2534, 0.0, 10.001505, 9.997269 
2.843871e+3, 3.137531e+2, -68819.86, -391112.72, 19359.734, -0.022882042, -0.40485916, -67661.11, -67661.11, 0.0, 10.00097, 9.996774 
2.8435525e+3, 3.2374886e+2, -384818.84, -84775.25, -29588.248, 0.024868105, -0.15557061, -81885.3, -81885.3, 0.0, 9.996818, 10.000775 
2.8595826e+3, 1.341737e+2, -957564.5, -573384.56, 122713.21, -0.44555253, 0.6906042, -537533.56, 1087611.1, 0.0000059672575, 10.001927, 10.00665 
2.8592727e+3, 1.4416829e+2, -1327529.9, -1332094.3, 109788.99, 0.052514337, 0.23197778, -1219999.4, 307166.5, 0.0000015122073, 10.001388, 10.001142 
2.8589574e+3, 1.5416479e+2, -1164705.6, -1248336.8, 140495.58, -0.04918495, 0.15179387, -1059934.9, 369263.63, 0.0000000966577, 10.002064, 10.000694 
2.858641e+3, 1.6416061e+2, -1161042.0, -1436165.9, 31572.346, -0.105145246, 0.2697026, -1157465.4, 173774.72, 0.00000000026919006, 10.002418, 9.998592 
2.8583214e+3, 1.7415582e+2, -1248434.5, -1481903.6, 52012.17, -0.30963698, 0.361838, -1237371.5, -4080.9443, 0.0, 10.001397, 9.998096 
2.858003e+3, 1.8414985e+2, -1131357.5, -1179355.1, -21376.49, -0.26303273, 0.40688172, -1123217.6, 12129.256, 0.0, 10.000749, 9.999795 
2.857688e+3, 1.941409e+2, -1060304.9, -1107074.4, -31471.738, 0.25131518, -0.06983185, -1044481.06, -7056.6274, 0.0, 10.000606, 9.99968 
2.857371e+3, 2.0413409e+2, -916867.06, -950851.5, 116762.98, 0.41314438, -0.2101118, -815866.4, 123615.8, 0.0, 10.000711, 10.00005 
2.8570512e+3, 2.1412899e+2, -841633.9, -899748.94, 150084.53, 0.0825483, -0.31816977, -717819.9, 123705.41, 0.0, 10.00069, 9.999755 
2.8567323e+3, 2.2412433e+2, -762737.5, -832221.44, 167932.38, -0.15454309, -0.21739161, -625991.06, 117577.195, 0.0, 10.000753, 9.999438 
2.8564146e+3, 2.3411924e+2, -745930.5, -807928.75, 121716.4, -0.24425346, -0.26646885, -651327.8, -5707.0654, 0.0, 10.000325, 9.999157 
2.856098e+3, 2.4411528e+2, -548036.9, -495992.94, 40931.56, -0.1289744, -0.123047985, -473511.97, 74145.445, 0.0, 10.000309, 10.000626 
2.8557828e+3, 2.5411165e+2, -428812.3, -417057.97, 58637.086, 0.25706503, -0.16176274, -364004.25, 85680.91, 0.0, 10.000538, 10.000408 
2.855464e+3, 2.641071e+2, -541772.25, -717839.7, 63496.535, 0.30117527, -0.000946224, -521262.25, -169531.84, 0.0, 10.000415, 9.99771 
2.855141e+3, 2.7410027e+2, -651179.1, -768409.06, -2015.4331, -0.07991268, -0.03350739, -651144.5, -397334.75, 0.0, 9.999149, 9.997336 
2.854822e+3, 2.840945e+2, -392886.2, -330139.34, 27506.455, -0.12491656, 0.07076796, -319788.72, -163919.66, 0.0, 9.999183, 9.999626 
2.8545076e+3, 2.9408908e+2, -104889.82, -155719.53, 38360.883, 0.2004802, -0.04723563, -84288.67, -26375.52, 0.0, 10.0005, 9.999533 
2.8541884e+3, 3.0408213e+2, -50024.902, -281666.38, 6597.82, 0.13620648, -0.09834442, -49837.13, -49837.13, 0.0, 10.001102, 9.997691 
2.8538656e+3, 3.1407282e+2, -265888.7, -471122.28, 19729.178, -0.2138016, -0.42997107, -264009.3, -264009.3, 0.0, 9.999719, 9.996761 
2.853543e+3, 3.240715e+2, -388889.13, 339400.03, -260201.11, -0.13309701, -0.07907493, 422810.9, 422810.9, 0.0, 9.995162, 10.004421 
2.86958e+3, 1.3449265e+2, -1128355.4, -1370078.1, 333085.84, -0.6885181, 0.33393708, -894881.3, 727111.3, 0.0000021514043, 10.003705, 10.000387 
2.8692725e+3, 1.444852e+2, -1184182.8, -1411469.6, 55339.29, 0.19897512, 0.0944535, -1171425.0, 352630.44, 0.00000043033984, 10.00294, 9.999876 
2.8689528e+3, 1.5448247e+2, -1707656.1, -1644575.5, 37209.89, -0.08717967, 0.21417354, -1627337.0, -201250.48, 0.000000019645139, 9.998836, 9.999567 
2.8686354e+3, 1.6447818e+2, -1679302.9, -1473998.3, 4576.672, -0.17911555, 0.28571418, -1473896.3, -145768.1, 0.0, 9.997929, 10.000504 
2.8683177e+3, 1.7447218e+2, -1289409.3, -1294843.0, 128349.97, -0.31555825, 0.09316625, -1163747.4, 66434.85, 0.0, 10.000162, 10.000006 
2.8680012e+3, 1.8446715e+2, -862282.06, -1030248.7, 54776.805, -0.1961084, 0.11292116, -845997.3, 286231.06, 0.0, 10.0023575, 10.000115 
2.867687e+3, 1.9446187e+2, -581864.4, -895462.0, 69973.63, 0.31080782, 0.038685877, -566959.44, 467318.22, 0.0, 10.003776, 9.999702 
2.8673697e+3, 2.0445627e+2, -433681.44, -687156.3, 88535.28, 0.4448339, 0.00097136333, -405819.8, 530507.25, 0.0, 10.003878, 10.000329 
2.8670478e+3, 2.144498e+2, -609976.44, -772581.8, 76783.53, 0.043430727, -0.21974467, -579449.6, 258932.6, 0.0, 10.002126, 9.999954 
2.8667283e+3, 2.2444409e+2, -731219.2, -879258.0, 74590.65, -0.18544956, -0.2253853, -700154.6, 40280.523, 0.0, 10.001064, 9.999036 
2.8664112e+3, 2.3443897e+2, -733680.25, -866136.75, 62039.863, -0.1930032, -0.18518972, -709160.9, -66671.74, 0.0, 10.000496, 9.998751 
2.8660947e+3, 2.444343e+2, -496683.25, -464766.56, -6916.1143, -0.04470513, -0.11335061, -463332.34, 81200.82, 0.0, 10.000507, 10.000779 
2.8657797e+3, 2.544293e+2, -270429.34, -336301.13, -66297.875, 0.31617066, -0.25404328, -229337.0, 217235.66, 0.0, 10.001469, 10.000556 
2.8654608e+3, 2.6442483e+2, -284955.97, -536964.25, -85617.17, 0.35259175, -0.14511207, -258620.53, 89995.73, 0.0, 10.001769, 9.998364 
2.8651366e+3, 2.7441984e+2, -335632.97, -572515.4, -15529.195, -0.05043835, -0.013356654, -334619.28, -83942.33, 0.0, 10.000946, 9.997874 
2.8648174e+3, 2.8441468e+2, -190053.98, -202633.36, 171045.13, -0.10601374, 0.105038926, -25182.95, 127548.34, 0.0, 10.000381, 9.999936 
2.864504e+3, 2.9440856e+2, -83499.37, -138883.84, 125645.0, 0.24766783, -0.051567063, 17468.904, 72252.07, 0.0, 10.000506, 9.999685 
2.8641847e+3, 3.0440205e+2, -76046.66, -167354.8, 44139.785, 0.16134384, -0.1205753, -58197.85, -58197.85, 0.0, 10.000275, 9.998924 
2.8638595e+3, 3.143948e+2, -226477.5, -316430.7, 52991.0, -0.30947214, -0.31425977, -201949.13, -201949.13, 0.0, 9.999254, 9.998112 
2.8635362e+3, 3.2439214e+2, 384164.13, 629204.94, -531131.94, -0.0464119, -0.12997815, 1051764.8, 1051764.8, 0.0, 10.0006895, 10.003786 
2.8795785e+3, 1.3481152e+2, -1519508.1, -2313250.8, 222682.95, -0.7806959, -0.079230204, -1461303.0, 157535.61, 0.00000033823923, 10.004323, 9.993576 
2.879272e+3, 1.448025e+2, -1296770.9, -1629335.3, -53667.145, 0.3582626, -0.044680662, -1288324.9, 232614.66, 0.000000039050374, 10.002942, 9.9983425 
2.878948e+3, 1.5479995e+2, -1544424.8, -1775698.8, -73626.945, -0.031031152, 0.2533057, -1522974.8, -99999.29, 0.0000000006124831, 10.000897, 9.997673 
2.8786293e+3, 1.6479513e+2, -1230407.4, -1028776.5, 112959.305, -0.13432442, 0.27359045, -978186.7, 346834.06, 0.0, 10.00011, 10.00244 
2.878315e+3, 1.7478722e+2, -1119265.5, -1015553.0, 149359.72, -0.12293426, -0.34555405, -909303.6, 317779.2, 0.0, 10.000542, 10.001699 
2.878e+3, 1.847836e+2, -980896.25, -1076263.1, 54489.64, -0.008215351, -0.27863073, -956172.25, 172942.17, 0.0, 10.001676, 10.000048 
2.8776857e+3, 1.9478366e+2, -805394.06, -1049904.1, 61266.426, 0.33846277, 0.16070513, -790901.7, 240220.81, 0.0, 10.002588, 9.999171 
2.8773674e+3, 2.0478033e+2, -657427.8, -859989.1, 15201.842, 0.3446323, 0.4060235, -656293.3, 276863.72, 0.0, 10.002765, 9.999634 
2.8770444e+3, 2.1477248e+2, -814700.56, -992008.5, -8512.299, -0.02224482, 0.09489902, -814292.9, 20935.736, 0.0, 10.001394, 9.99876 
2.876725e+3, 2.2476563e+2, -824143.9, -929670.3, 47386.04, -0.12198195, 0.046433907, -805988.9, -68695.71, 0.0, 10.000628, 9.998838 
2.8764093e+3, 2.3475958e+2, -943017.5, -1050742.6, 33063.39, 0.1082903, -0.012520188, -933679.1, -294325.5, 0.0, 9.999597, 9.997873 
2.8760925e+3, 2.4475291e+2, -660690.06, -640002.6, 33355.098, 0.18918505, -0.04314932, -615424.2, -74008.34, 0.0, 9.999903, 9.999856 
2.8757745e+3, 2.547449e+2, -550747.75, -637477.6, -15919.263, 0.1238732, -0.40655392, -547918.06, -104431.0, 0.0, 10.000376, 9.999013 
2.8754547e+3, 2.6474e+2, -263808.47, -245692.8, -109446.414, 0.056532834, -0.3742931, -144930.03, 200600.03, 0.0, 10.000847, 10.000757 
2.875133e+3, 2.747373e+2, -385515.25, -364693.66, -32514.334, -0.024481533, -0.2887684, -340964.06, -93408.8, 0.0, 9.999738, 9.99985 
2.874814e+3, 2.8473338e+2, -307887.1, -299026.88, 178432.67, 0.0012799731, -0.13207963, -124969.336, 24625.469, 0.0, 9.999811, 9.9995165 
2.8744987e+3, 2.947274e+2, -281492.53, -360649.16, 155488.31, 0.13746345, -0.24563201, -160624.4, -108968.2, 0.0, 9.999758, 9.99852 
2.8741786e+3, 3.0472288e+2, -86911.86, 474.418, -19094.707, 0.011675317, -0.129126, 4464.5913, 4464.5913, 0.0, 9.999611, 10.000365 
2.8738546e+3, 3.1471878e+2, -445813.25, -368355.63, 30057.799, -0.2384486, -0.16423199, -358060.03, -358060.03, 0.0, 9.9976425, 9.998525 
2.873534e+3, 3.2470858e+2, -325713.4, -689144.0, -226803.78, 0.025471037, -0.41739166, -216807.98, -216807.98, 0.0, 10.000339, 9.994755 
2.889581e+3, 1.3512976e+2, -1177730.1, -1712120.1, -149332.53, -0.6520283, 0.015620399, -1138831.4, 476888.38, 0.0000000032251708, 10.004705, 9.997562 
2.8892693e+3, 1.4512025e+2, -1249460.8, -1590312.3, -23945.732, 0.20000921, -0.20581988, -1247786.8, 270027.3, 0.0, 10.0031595, 9.998521 
2.8889465e+3, 1.5511647e+2, -1017211.44, -1526637.5, 42312.305, -0.07012788, -0.010621717, -1013721.0, 406138.63, 0.0, 10.004427, 9.997732 
2.8886285e+3, 1.6511177e+2, -672511.5, -900670.75, 127845.51, -0.11528688, 0.07028733, -615247.5, 706658.94, 0.0, 10.004451, 10.0012665 
2.888313e+3, 1.7510587e+2, -868451.6, -1027343.9, 65448.668, -0.10843769, -0.19664454, -844964.7, 378992.22, 0.0, 10.002707, 10.000621 
2.8879973e+3, 1.8510194e+2, -872160.7, -949667.3, -69265.336, -0.03298673, -0.15682371, -831544.56, 294449.7, 0.0, 10.001984, 10.000812 
2.887681e+3, 1.9510011e+2, -874052.8, -985966.2, -19363.998, 0.12096514, 0.045601238, -870797.06, 157221.34, 0.0, 10.0015745, 10.000141 
2.887363e+3, 2.0509693e+2, -732710.4, -870045.56, -54961.4, 0.1659691, 0.22707386, -713423.44, 216628.44, 0.0, 10.001987, 9.999988 
2.887043e+3, 2.1509144e+2, -528851.94, -799662.4, -9384.074, 0.036914755, 0.14289543, -528527.2, 303576.56, 0.0, 10.002952, 9.999385 
2.886724e+3, 2.250853e+2, -347857.38, -675806.8, 41944.96, 0.008676812, 0.10977199, -342577.6, 391585.03, 0.0, 10.003653, 9.9991865 
2.8864065e+3, 2.3507851e+2, -285865.03, -667624.25, 63168.035, 0.08469471, -0.017483799, -275684.38, 360544.47, 0.0, 10.003623, 9.998639 
2.8860885e+3, 2.4507242e+2, -233090.88, -431404.88, 98873.945, 0.10318456, -0.04615251, -192218.7, 346067.66, 0.0, 10.002745, 9.999967 
2.8857693e+3, 2.550659e+2, -434887.03, -564176.75, 101417.68, 0.003123205, -0.21098654, -379263.44, 61082.742, 0.0, 10.000936, 9.999315 
2.8854498e+3, 2.6506072e+2, -306882.34, -184408.08, -7831.7637, -0.0023792314, -0.25003552, -183909.31, 158481.69, 0.0, 10.000173, 10.001504 
2.8851292e+3, 2.7505693e+2, -173901.03, -161709.73, -78012.414, 0.064994715, -0.3070951, -89555.19, 154866.78, 0.0, 10.000673, 10.000817 
2.8848106e+3, 2.8505257e+2, -157233.73, -270008.75, 100989.12, 0.075775765, -0.23775841, -97956.414, 48507.965, 0.0, 10.000842, 9.9992895 
2.8844935e+3, 2.9504725e+2, -164582.33, -305412.9, 99054.516, 0.036366634, -0.247891, -113465.27, -64941.64, 0.0, 10.000399, 9.998645 
2.884174e+3, 3.0504283e+2, 184620.9, 222359.64, -67777.28, 0.02936349, -0.1737594, 273845.2, 273845.2, 0.0, 10.001024, 10.001273 
2.883854e+3, 3.1503922e+2, 257674.03, 101543.54, -91414.57, 0.20289002, -0.19816981, 299820.28, 299820.28, 0.0, 10.001797, 9.999859 
2.8835312e+3, 3.250311e+2, -261399.67, -843825.1, 28235.406, 0.09497562, -0.14783677, -260034.05, -260034.05, 0.0, 10.001351, 9.993437 
2.8995833e+3, 1.3544737e+2, -1205371.6, -1193509.4, -229983.66, -0.36396626, 0.087312, -969380.4, 643229.6, 0.000000008553674, 10.002236, 10.002333 
2.8992656e+3, 1.4543778e+2, -1199398.8, -1531226.5, 1990.59, 0.021663297, -0.39642256, -1199386.8, 315303.63, 0.0, 10.003411, 9.998796 
2.8989464e+3, 1.5543278e+2, -1111641.8, -1555183.8, 41491.938, -0.018030465, -0.36616376, -1107793.8, 308949.66, 0.0, 10.003787, 9.997821 
2.898629e+3, 1.6542888e+2, -962615.2, -1273955.6, 54638.633, -0.008765026, -0.105668135, -953304.8, 365481.63, 0.0, 10.003587, 9.999065 
2.8983116e+3, 1.7542556e+2, -1218189.5, -1471150.4, 12476.131, -0.03128933, 0.09270089, -1217575.8, 3248.487, 0.0, 10.001573, 9.998109 
2.8979936e+3, 1.8542081e+2, -944013.5, -889547.0, -43937.93, -0.08241666, 0.12989296, -865087.0, 257785.42, 0.0, 10.001142, 10.001588 
2.8976756e+3, 1.9541462e+2, -952618.3, -955606.3, -29967.17, -0.08498001, -0.21525715, -924107.94, 100824.625, 0.0, 10.000823, 10.000658 
2.8973585e+3, 2.0541102e+2, -762834.06, -804822.2, -14715.482, 0.022316698, -0.14432637, -758190.3, 168777.98, 0.0, 10.001537, 10.000585 
2.8970426e+3, 2.154088e+2, -687480.3, -851683.9, 16365.985, 0.23887, 0.014939154, -685865.0, 143126.2, 0.0, 10.001872, 9.9995 
2.896724e+3, 2.2540416e+2, -480545.28, -651658.2, 46524.223, 0.16465504, 0.082620285, -468713.8, 262322.5, 0.0, 10.002549, 9.999785 
2.8964028e+3, 2.35397e+2, -549930.7, -785489.0, 59657.133, -0.1284537, -0.1663156, -535683.7, 97421.34, 0.0, 10.001896, 9.998616 
2.8960833e+3, 2.453932e+2, -372837.06, -419089.06, 26365.828, -0.18554017, -0.0005004451, -360892.16, 174249.64, 0.0, 10.001612, 10.000488 
2.8957647e+3, 2.553913e+2, -653390.44, -658723.06, 25223.232, -0.04482475, 0.21047644, -630693.0, -193532.34, 0.0, 9.999555, 9.999256 
2.8954455e+3, 2.6538587e+2, -497671.3, -415701.94, 14763.326, 0.06313321, 0.20478277, -413124.03, -73912.695, 0.0, 9.9995775, 10.000147 
2.895126e+3, 2.7537745e+2, -436236.72, -495086.47, -38944.246, 0.14183363, -0.20373671, -416850.97, -175562.13, 0.0, 9.999858, 9.998905 
2.8948063e+3, 2.853717e+2, -209548.55, -239738.83, 65935.84, 0.01920227, -0.20380792, -157002.0, -13657.043, 0.0, 10.0004, 9.999664 
2.8944865e+3, 2.9536742e+2, -312441.3, -399627.78, 94547.625, -0.25141472, -0.14543186, -251921.05, -206529.44, 0.0, 9.999624, 9.998331 
2.894169e+3, 3.0536315e+2, 270156.9, 312273.25, -22831.27, -0.12003081, -0.0945685, 322274.9, 322274.9, 0.0, 10.001632, 10.001386 
2.8938535e+3, 3.153598e+2, 206802.17, -136472.02, -6555.3154, 0.33883363, -0.101067066, 206927.31, 206927.31, 0.0, 10.0025835, 9.997713 
2.8935236e+3, 3.25358e+2, -32524.215, 452613.7, -29693.328, -0.3957828, 0.015657462, 454424.34, 454424.34, 0.0, 9.998262, 10.003471 
2.9095823e+3, 1.357646e+2, -1571092.5, -1371563.4, -29768.94, -0.11756854, 0.010731656, -1367216.6, 242280.38, 0.000000011355019, 9.999608, 10.0024395 
2.9092592e+3, 1.4575483e+2, -1150998.5, -1512714.5, -42975.39, -0.5488224, -0.48671132, -1145962.8, 365615.22, 0.0, 10.00367, 9.998847 
2.9089445e+3, 1.557521e+2, -1133222.5, -1555919.8, -731.9591, -0.18233031, -0.22458883, -1133221.3, 280387.94, 0.0, 10.003498, 9.997998 
2.908628e+3, 1.6574739e+2, -1110403.3, -1368415.5, -52151.168, 0.03561063, -0.058054492, -1100260.8, 215399.69, 0.0, 10.002608, 9.998912 
2.9083085e+3, 1.7574123e+2, -1352804.5, -1540392.8, -4820.668, -0.013593428, -0.10531564, -1352680.6, -134953.98, 0.0, 10.000538, 9.998175 
2.9079896e+3, 1.8573645e+2, -1020988.0, -941752.0, 25534.123, -0.108838245, -0.07418221, -934236.4, 185539.28, 0.0, 10.000567, 10.001555 
2.9076713e+3, 1.957324e+2, -853707.4, -893424.75, 26354.201, -0.23452222, -0.17344262, -840567.44, 181247.4, 0.0, 10.001309, 10.000895 
2.9073548e+3, 2.0572883e+2, -618859.56, -730549.75, -10813.118, -0.12638594, -0.119637236, -617822.3, 306028.7, 0.0, 10.002358, 10.00075 
2.9070395e+3, 2.1572563e+2, -479286.97, -688970.6, -5409.9907, 0.10048154, -0.05631202, -479147.47, 346737.66, 0.0, 10.002893, 10.000163 
2.906721e+3, 2.2572193e+2, -482903.97, -528001.94, -56578.027, 0.109249294, 0.0071671815, -444547.03, 283374.16, 0.0, 10.001907, 10.000985 
2.9063994e+3, 2.35717e+2, -762334.9, -726255.56, -5157.5835, -0.10759883, -0.10954151, -725532.8, -95565.766, 0.0, 9.999576, 10.000194 
2.9060802e+3, 2.4571319e+2, -596621.8, -536186.0, 25292.416, -0.09476799, -0.021742474, -526997.94, 5005.3213, 0.0, 9.999922, 10.000571 
2.9057625e+3, 2.557104e+2, -218898.78, -396151.78, -13248.115, 0.100449234, 0.1090383, -217914.06, 216116.64, 0.0, 10.002099, 9.999879 
2.9054427e+3, 2.6570505e+2, -112378.64, -358768.1, -29740.354, 0.14267804, 0.12396802, -108839.67, 227244.48, 0.0, 10.002538, 9.999207 
2.905121e+3, 2.756972e+2, -236147.05, -461331.4, -65284.824, 0.06661227, -0.11766911, -218588.9, 19573.16, 0.0, 10.001304, 9.998501 
2.904803e+3, 2.8569204e+2, -103890.36, -159524.5, 71705.38, 0.09280131, -0.06146513, -54795.457, 85418.51, 0.0, 10.00096, 9.999953 
2.904484e+3, 2.9568848e+2, -118975.336, -157662.52, 442.9827, -0.05930899, 0.060423095, -118970.266, -76719.34, 0.0, 10.000098, 9.999784 
2.9195803e+3, 1.3608152e+2, -1507936.4, -1410994.9, 176034.78, 0.12893882, -0.07679576, -1276879.6, 329506.97, 0.00000000463828, 10.000422, 10.001715 
2.9192528e+3, 1.4607255e+2, -1321954.0, -1588344.9, -47680.39, -1.0190923, -0.47912666, -1313677.0, 194783.75, 0.0, 10.002528, 9.998821 
2.9189423e+3, 1.5607208e+2, -1339639.3, -1676284.1, -15849.325, -0.23539181, 0.008994246, -1338894.6, 71576.87, 0.0, 10.002228, 9.997761 
2.9186264e+3, 1.6606587e+2, -1170938.1, -1375479.4, -99574.2, 0.11087771, 0.016372258, -1130470.1, 182066.4, 0.0, 10.0021, 9.999111 
2.918305e+3, 1.7605552e+2, -1341734.5, -1532169.4, -52498.387, 0.079373, -0.481299, -1328220.9, -113579.71, 0.0, 10.000682, 9.998153 
2.9179856e+3, 1.8605171e+2, -1000472.4, -950803.8, 83994.0, -0.08449008, -0.35866448, -888049.7, 228631.17, 0.0, 10.00094, 10.001227 
2.9176676e+3, 1.9605158e+2, -987637.75, -1066734.1, 70644.11, -0.23992114, -0.042886358, -946225.1, 72458.86, 0.0, 10.000917, 9.999888 
2.917351e+3, 2.0604804e+2, -752909.5, -807031.56, 39450.17, -0.24214222, 0.06388768, -732131.06, 188590.56, 0.0, 10.001621, 10.000536 
2.917035e+3, 2.1604207e+2, -815010.7, -902983.5, 14488.286, -0.14398938, -0.14453675, -812686.06, 10097.488, 0.0, 10.000929, 9.99963 
2.9167163e+3, 2.260391e+2, -580791.5, -423531.75, -132521.81, -0.030617466, -0.06722165, -348068.5, 376743.7, 0.0, 10.000681, 10.002247 
2.9163957e+3, 2.3603746e+2, -901036.3, -717670.25, -85349.19, 0.088683814, -0.0022848048, -684092.56, -57267.723, 0.0, 9.998448, 10.000754 
2.9160783e+3, 2.4603201e+2, -690139.94, -596631.0, 96982.92, 0.21811447, -0.1084121, -535720.9, -6846.1216, 0.0, 9.999488, 10.000292 
2.915762e+3, 2.5602412e+2, -459870.75, -598964.0, 59149.8, 0.35560513, -0.49059382, -438118.78, -7170.1597, 0.0, 10.000944, 9.999015 
2.9154405e+3, 2.6601988e+2, -256642.88, -444731.3, -78936.016, 0.16769597, -0.32078362, -227905.95, 105089.63, 0.0, 10.001834, 9.998833 
2.9151142e+3, 2.760172e+2, -473063.84, -654001.94, -81876.86, -0.2704557, -0.037317935, -441514.6, -206482.08, 0.0, 10.000158, 9.997685 
2.9148003e+3, 2.8601402e+2, -191837.94, -216154.36, 83260.56, 0.22633687, 0.25114566, -119852.57, 17214.479, 0.0, 10.000548, 9.999693 
2.91448e+3, 2.960088e+2, -166475.45, 74579.78, -320652.94, 0.011764872, 0.1286831, 296609.03, 335726.38, 0.0, 9.998835, 10.001958 
2.9295763e+3, 1.3639618e+2, -1405351.4, -1305017.1, 48994.805, -0.00007486419, -0.15312721, -1285061.3, 318241.03, 0.0, 10.000792, 10.002309 
2.9292515e+3, 1.463901e+2, -1440548.5, -1506474.3, -102710.25, -0.8671631, -0.36624, -1365641.4, 139706.66, 0.0, 10.000989, 10.00019 
2.9289395e+3, 1.5638715e+2, -1463993.6, -1591058.4, -15099.45, -0.24158785, -0.24120036, -1462224.0, -54842.223, 0.0, 10.000616, 9.999177 
2.9286227e+3, 1.6638252e+2, -1164341.4, -1273232.6, -53481.13, 0.04246903, -0.1906862, -1142468.3, 166962.19, 0.0, 10.001648, 10.000067 
2.9283014e+3, 1.7637616e+2, -965853.7, -1229123.8, 37006.1, -0.09738853, -0.35670108, -960750.9, 250744.38, 0.0, 10.002615, 9.999346 
2.9279825e+3, 1.8637253e+2, -711319.2, -872538.4, 130722.68, -0.19907054, -0.24179788, -638350.44, 475183.5, 0.0, 10.003099, 10.000766 
2.9276654e+3, 1.9637053e+2, -743343.8, -942422.4, 113366.03, -0.25777826, -0.039713513, -692019.2, 323537.47, 0.0, 10.00245, 10.000033 
2.9273483e+3, 2.0636664e+2, -783497.9, -786483.2, 41405.36, -0.18345946, 0.011370391, -743558.25, 174039.0, 0.0, 10.001199, 10.000919 
2.9270306e+3, 2.163612e+2, -1052897.4, -956623.44, 57060.7, -0.10631862, -0.14840819, -930107.25, -110454.35, 0.0, 9.998833, 10.000343 
2.9267117e+3, 2.2635795e+2, -719207.75, -525091.7, -43985.586, -0.018772906, -0.10665589, -515589.9, 206094.95, 0.0, 9.999626, 10.0022 
2.926391e+3, 2.3635611e+2, -328922.9, -393346.56, -51933.504, 0.04760613, -0.029404584, -300022.63, 323679.28, 0.0, 10.00191, 10.001423 
2.9260746e+3, 2.4635139e+2, -152056.53, -342621.22, 112325.73, 0.16062528, -0.0992131, -100043.945, 425702.88, 0.0, 10.003045, 10.0004015 
2.9257593e+3, 2.5634435e+2, -55721.223, -350029.84, 55012.54, 0.28990224, -0.37382331, -45774.383, 382039.8, 0.0, 10.003283, 9.999673 
2.9254374e+3, 2.6634032e+2, -19694.19, -266696.5, -82602.0, 0.10238705, -0.25041392, 5383.34, 335242.38, 0.0, 10.003061, 9.999521 
2.9251105e+3, 2.7633792e+2, 11337.113, -294169.2, -33058.375, -0.32165444, 0.01923174, 14873.378, 246765.36, 0.0, 10.00274, 9.998969 
2.9247963e+3, 2.8633586e+2, -112083.13, -128437.125, 174186.69, 0.26059458, 0.3367403, 54118.383, 188032.9, 0.0, 10.000636, 10.000388 
2.9244685e+3, 2.963285e+2, -244575.63, 92171.94, -402342.56, -0.47942677, -0.012174713, 359950.97, 395935.03, 0.0, 9.9977255, 10.002727 
2.939573e+3, 1.3671166e+2, -1259003.3, -1187085.9, 126147.51, -0.0048542563, -0.13502066, -1091872.1, 508338.78, 0.0, 10.001627, 10.002714 
2.9392514e+3, 1.4670745e+2, -1345802.6, -1278409.0, -30669.695, -0.4823375, -0.26972175, -1266541.5, 235696.84, 0.0, 10.000992, 10.001699 
2.9389367e+3, 1.5670186e+2, -1434178.5, -1435283.9, -13838.898, -0.10278427, -0.55845034, -1420881.3, -16585.225, 0.0, 10.000335, 10.000351 
2.938619e+3, 1.6669977e+2, -1136231.5, -1130158.0, -9218.668, -0.014430246, -0.3695536, -1123488.8, 182830.1, 0.0, 10.001395, 10.001113 
2.9382977e+3, 1.7669894e+2, -1026733.6, -1200490.1, 53444.766, -0.22422338, -0.09978061, -1011611.0, 196717.86, 0.0, 10.002061, 9.999751 
2.9379794e+3, 1.8669504e+2, -864129.9, -1019812.4, 110957.54, -0.28269884, -0.0021487921, -806432.06, 303938.78, 0.0, 10.002457, 10.000025 
2.9376638e+3, 1.9668937e+2, -1000618.5, -1149557.9, 82293.66, -0.14787279, -0.10668937, -964101.8, 48328.723, 0.0, 10.001178, 9.999192 
2.937346e+3, 2.0668525e+2, -853937.75, -754915.7, -37210.023, -0.009678281, -0.10192783, -742491.9, 171980.53, 0.0, 10.000553, 10.001377 
2.937027e+3, 2.1668144e+2, -1226256.3, -1097812.1, -6982.4185, 0.13952465, -0.13874348, -1097433.8, -280923.94, 0.0, 9.998004, 9.999758 
2.936707e+3, 2.2667758e+2, -827453.3, -644671.1, 57235.938, 0.07355731, -0.11337393, -628227.7, 90321.87, 0.0, 9.9993515, 10.00139 
2.9363865e+3, 2.3667374e+2, -620010.5, -666222.8, 41278.523, -0.10560271, -0.18721828, -595811.1, 24778.803, 0.0, 10.000667, 10.000071 
2.9360697e+3, 2.466716e+2, -306089.88, -392430.6, 125680.14, -0.1448619, 0.04226268, -216372.39, 306242.78, 0.0, 10.002089, 10.0004225 
2.935754e+3, 2.566699e+2, -335486.6, -496249.66, 60799.477, -0.063787706, 0.28183657, -315082.38, 109553.83, 0.0, 10.001617, 9.999424 
2.935434e+3, 2.666651e+2, -27812.486, -103065.62, -94797.44, -0.05696254, 0.2394524, 36552.676, 363237.4, 0.0, 10.002373, 10.000963 
2.93511e+3, 2.766586e+2, -115557.4, -223769.86, -44550.316, -0.16385946, -0.063742846, -99576.44, 129171.51, 0.0, 10.001454, 10.000047 
2.9347894e+3, 2.8665718e+2, -93990.94, 78526.37, 44653.14, -0.019186007, 0.16558184, 89398.85, 220158.34, 0.0, 10.000106, 10.001981 
2.9344642e+3, 2.966507e+2, -575252.3, -336405.56, -49335.414, -0.24981135, -0.20717858, -326616.22, -293795.53, 0.0, 9.996959, 10.0000305 
2.9495692e+3, 1.3703144e+2, -1188216.9, -1286385.4, 45456.574, -0.2812398, -0.13704114, -1170401.5, 426676.1, 0.0, 10.002598, 10.001611 
2.9492512e+3, 1.4702617e+2, -1373342.8, -1390202.3, -15199.423, -0.16698983, -0.27960506, -1364391.9, 134729.23, 0.0, 10.001198, 10.000864 
2.9489332e+3, 1.5702334e+2, -1458567.3, -1487657.9, -39751.902, -0.08499051, -0.18986282, -1430783.1, -29631.139, 0.0, 10.000232, 10.000099 
2.9486153e+3, 1.6701998e+2, -1110581.5, -1054955.3, -19279.563, -0.053041514, -0.16226582, -1048926.5, 254256.05, 0.0, 10.001161, 10.001819 
2.948295e+3, 1.7701674e+2, -928871.1, -1054914.0, 22559.86, -0.3039507, -0.18858132, -924954.94, 280254.8, 0.0, 10.002171, 10.000744 
2.9479772e+3, 1.870129e+2, -885951.5, -1001660.3, 30131.664, -0.2888759, -0.15107653, -878575.2, 228674.77, 0.0, 10.002068, 10.00038 
2.947661e+3, 1.970084e+2, -1001065.75, -1075418.4, 48782.35, -0.12971576, -0.15463834, -976908.6, 32390.701, 0.0, 10.000699, 9.999975 
2.9473415e+3, 2.070049e+2, -731573.94, -622966.94, -35323.0, -0.07468826, -0.15770403, -612489.4, 298846.1, 0.0, 10.000914, 10.0021925 
2.94702e+3, 2.1700157e+2, -656762.25, -716060.75, 14690.89, -0.11437729, -0.2013923, -653322.2, 160045.8, 0.0, 10.001275, 10.00085 
2.9467016e+3, 2.269976e+2, -560759.5, -653348.9, 111170.484, -0.06637111, -0.15388097, -486629.63, 228782.38, 0.0, 10.001691, 10.000251 
2.9463843e+3, 2.3699337e+2, -454532.13, -628144.94, 49048.24, -0.038649205, -0.1326283, -441633.53, 175827.34, 0.0, 10.001827, 9.999815 
2.9460663e+3, 2.469906e+2, -410118.38, -437582.22, 105991.125, -0.15747471, 0.040242568, -316973.3, 202519.19, 0.0, 10.00115, 10.000691 
2.9457486e+3, 2.569885e+2, -449377.44, -466993.9, 55696.227, -0.27804083, 0.23563844, -401797.25, 19719.527, 0.0, 10.000246, 10.00038 
2.94543e+3, 2.6698452e+2, -173006.47, -104406.07, -88173.914, -0.10822146, 0.20260026, -44095.793, 279461.56, 0.0, 10.000917, 10.001726 
2.9451093e+3, 2.769794e+2, 71913.414, -19963.373, -124794.41, 0.07012644, -0.0186858, 158956.14, 384563.94, 0.0, 10.002083, 10.001199 
2.944784e+3, 2.8697792e+2, 221771.77, 244527.39, -179470.2, -0.16580738, 0.12562384, 412980.1, 540597.94, 0.0, 10.002031, 10.002307 
2.9444653e+3, 2.9697177e+2, 35787.875, -187455.97, 31970.352, 0.38857478, -0.18899904, 40276.06, 69949.38, 0.0, 10.001442, 9.999003 
2.9595673e+3, 1.3735102e+2, -1457475.1, -1568636.0, -46028.918, -0.24658813, -0.20729107, -1440890.1, 153056.72, 0.00000000001490612, 10.001495, 10.000196 
2.9592508e+3, 1.4734507e+2, -1302271.0, -1489861.4, -13813.556, 0.13270499, -0.2913575, -1301259.3, 194743.19, 0.0, 10.002336, 9.999615 
2.9589295e+3, 1.573451e+2, -1396765.9, -1571923.8, -5008.3066, 0.027848136, 0.21835633, -1396622.8, 1382.9172, 0.0, 10.00121, 9.999033 
2.9586115e+3, 1.6733977e+2, -1033830.6, -962757.94, 61268.32, -0.030858139, 0.053605203, -927466.06, 372584.53, 0.0, 10.001526, 10.002241 
2.958293e+3, 1.7733236e+2, -1037399.44, -1068188.8, 65117.145, -0.23173949, -0.44003528, -985881.94, 216229.66, 0.0, 10.0013485, 10.001034 
2.9579747e+3, 1.8732919e+2, -956195.7, -940670.6, -7871.981, -0.23677953, -0.41192237, -937377.6, 166766.1, 0.0, 10.001308, 10.001095 
2.9576576e+3, 1.9732733e+2, -1198754.6, -1158030.0, 22768.516, -0.02730677, -0.2181234, -1147846.8, -141678.34, 0.0, 9.999412, 10.000004 
2.957336e+3, 2.0732479e+2, -828339.8, -561168.94, -9581.677, -0.20052046, -0.19280058, -560825.75, 347369.7, 0.0, 9.999964, 10.002985 
2.957012e+3, 2.1732163e+2, -937040.25, -871842.75, 31993.258, -0.5186685, -0.30764943, -858766.06, -48539.07, 0.0, 9.999641, 10.000499 
2.9566962e+3, 2.273177e+2, -788103.3, -922601.7, 123925.58, -0.27597696, -0.17037934, -714356.06, -2081.2988, 0.0, 10.000917, 9.998721 
2.9563832e+3, 2.3731372e+2, -786137.75, -964482.9, 69118.625, 0.19884816, 0.010668035, -762486.9, -148160.7, 0.0, 10.000439, 9.998162 
2.956064e+3, 2.4730805e+2, -441876.13, -379001.7, 83270.805, -0.009319411, -0.09964502, -321431.47, 194951.19, 0.0, 10.000741, 10.001217 
2.9557425e+3, 2.5730166e+2, -646706.06, -577293.56, 55370.82, -0.4263738, -0.39322987, -546651.1, -128209.32, 0.0, 9.999121, 10.000108 
2.9554257e+3, 2.673004e+2, -289690.72, -161793.4, -33835.15, -0.14826085, -0.16294055, -153393.97, 167067.53, 0.0, 10.000264, 10.0015545 
2.9551083e+3, 2.7730095e+2, -186921.08, -239620.52, -106713.086, 0.2349587, 0.20214489, -103352.69, 119113.52, 0.0, 10.000883, 10.0002165 
2.95478e+3, 2.872984e+2, 100914.734, 103922.984, -213922.69, -0.28168145, 0.2839386, 316346.8, 440833.2, 0.0, 10.00171, 10.001409 
2.9544598e+3, 2.9728842e+2, 25396.225, -8497.987, 158141.36, 0.066668786, -0.37585923, 167495.95, 194069.75, 0.0, 10.000766, 10.000512 
2.9695648e+3, 1.3767466e+2, -1558772.5, -1648413.8, 73277.63, -0.2393129, 0.15218186, -1517695.0, 73081.336, 0.00000010737005, 10.000869, 9.99997 
2.9692477e+3, 1.4766592e+2, -1081379.6, -1373988.4, 11549.801, -0.025968216, -0.21181335, -1080924.4, 411930.47, 0.0, 10.003752, 9.99975 
2.9689276e+3, 1.5765958e+2, -1028999.1, -1387732.8, 50080.754, -0.06522195, -0.33057997, -1022138.8, 372776.97, 0.0, 10.00361, 9.999168 
2.968609e+3, 1.6765498e+2, -863158.1, -990374.44, 97339.43, -0.08905985, -0.372237, -810486.6, 486471.25, 0.0, 10.003059, 10.001374 
2.96829e+3, 1.7765033e+2, -962639.2, -1072752.5, 33008.8, -0.3238802, -0.48746374, -953502.25, 245497.14, 0.0, 10.001899, 10.000774 
2.9679704e+3, 1.8764755e+2, -947492.2, -863693.5, -87569.28, -0.29473987, -0.44927686, -808515.94, 292510.47, 0.0, 10.000916, 10.001876 
2.9676515e+3, 1.976454e+2, -1124253.5, -995660.5, -47123.41, -0.1461985, -0.3595272, -980240.9, 22808.402, 0.0, 9.999193, 10.001275 
2.9673305e+3, 2.0764397e+2, -967859.6, -644779.1, -46340.695, -0.19063683, -0.2555935, -638263.7, 266802.2, 0.0, 9.998963, 10.002956 
2.9670087e+3, 2.176427e+2, -955799.7, -793660.8, -15925.251, -0.3620215, -0.17577673, -792111.44, 14969.616, 0.0, 9.998957, 10.00143 
2.9666927e+3, 2.2763972e+2, -731007.5, -780193.0, 193383.86, -0.21657738, -0.035939295, -560658.94, 148459.0, 0.0, 10.000647, 9.99992 
2.9663792e+3, 2.3763603e+2, -358886.97, -620230.8, 239617.92, 0.027104365, 0.0904131, -216626.84, 394537.06, 0.0, 10.002614, 9.99951 
2.96606e+3, 2.4763018e+2, -178572.23, -304450.25, 198189.75, -0.11487864, -0.036946237, -33567.74, 479654.75, 0.0, 10.002657, 10.000851 
2.965739e+3, 2.5762355e+2, -212003.58, -334551.75, 88002.836, -0.38850474, -0.28854725, -166044.22, 249240.78, 0.0, 10.001786, 10.000516 
2.965422e+3, 2.6762182e+2, -232251.17, -120836.93, 45006.348, -0.076843105, -0.12253802, -104928.03, 212381.33, 0.0, 10.000413, 10.001871 
2.9651046e+3, 2.7762207e+2, -407566.0, -286638.7, 37551.65, 0.31033787, 0.22396682, -275926.66, -56609.176, 0.0, 9.998898, 10.000924 
2.9647753e+3, 2.8762135e+2, 55972.32, 74055.516, 1451.7378, -0.35812467, 0.48548454, 74171.33, 195491.98, 0.0, 10.001336, 10.001449 
2.9644576e+3, 2.9761165e+2, 306473.25, 171036.33, 202303.36, 0.10199985, -0.07947534, 452091.25, 475497.4, 0.0, 10.002365, 10.001026 
2.979563e+3, 1.3799803e+2, -1444029.9, -1537427.9, 199125.16, -0.13639511, 0.5308283, -1286201.1, 301405.3, 0.00000019973128, 10.001483, 10.000444 
2.9792458e+3, 1.4798659e+2, -1198443.9, -1379494.4, -14718.134, -0.11966663, -0.14098562, -1197255.3, 292451.72, 0.000000000008976791, 10.0028, 10.0001745 
2.9789266e+3, 1.579741e+2, -1295567.3, -1526668.5, 14846.991, -0.045893203, -0.93037283, -1294617.4, 97206.03, 0.0, 10.001896, 9.999065 
2.978607e+3, 1.679712e+2, -1073567.3, -1193511.3, 76534.15, -0.0917538, -0.7496493, -1036306.94, 257548.38, 0.0, 10.002171, 10.000379 
2.978287e+3, 1.7797054e+2, -1174809.5, -1323944.9, 56343.695, -0.30096313, -0.34787157, -1155916.3, 39951.598, 0.0, 10.001188, 9.999402 
2.977966e+3, 1.8796723e+2, -981797.75, -818416.5, -105896.086, -0.30914754, -0.34450835, -766363.56, 331534.84, 0.0, 10.000525, 10.0023575 
2.9776454e+3, 1.9796377e+2, -1248728.6, -1030749.25, -89750.59, -0.20340705, -0.45254573, -998551.4, 1376.9161, 0.0, 9.9983635, 10.00142 
2.977326e+3, 2.0796295e+2, -1048122.75, -747686.6, -54656.492, -0.05404176, -0.2851301, -738052.25, 163887.47, 0.0, 9.9987, 10.002378 
2.977008e+3, 2.1796395e+2, -1156051.4, -887200.8, 12607.001, 0.18140228, 0.046602923, -886610.94, -82675.33, 0.0, 9.997697, 10.001389 
2.9766905e+3, 2.2796299e+2, -701778.4, -456436.22, 251757.17, -0.0077988594, 0.19217333, -299053.97, 406894.2, 0.0, 9.999701, 10.002532 
2.976373e+3, 2.3796004e+2, -607660.7, -640655.94, 248723.17, -0.34846368, 0.16768211, -374888.63, 233091.1, 0.0, 10.000655, 10.000289 
2.976055e+3, 2.4795608e+2, -441390.53, -537627.56, 134941.14, -0.35010412, 0.24816984, -346245.3, 163777.6, 0.0, 10.001513, 9.99974 
2.9757375e+3, 2.5795197e+2, -577571.2, -669979.8, 45165.65, -0.20275156, 0.3802481, -559163.0, -147095.28, 0.0, 10.000127, 9.998996 
2.9754186e+3, 2.6794705e+2, -279446.3, -27554.896, -25054.154, 0.046748668, 0.19928612, -25087.084, 289030.6, 0.0, 9.999782, 10.002746 
2.9750973e+3, 2.7794227e+2, -611731.2, -375321.66, 37795.656, 0.18673825, -0.050824925, -369426.13, -153260.47, 0.0, 9.99766, 10.000884 
2.9747716e+3, 2.8794652e+2, -47676.746, 58868.414, 127010.83, -0.40731254, 0.6913094, 143326.44, 261448.48, 0.0, 10.000654, 10.001638 
2.974458e+3, 2.9793924e+2, -119602.87, -348274.22, -105430.7, 0.34361187, 0.36703277, -78412.73, -58218.92, 0.0, 10.001098, 9.998002 
2.989564e+3, 1.3830072e+2, -1236358.1, -1118854.9, 160208.81, 0.084221035, -1.0112027, -1006964.7, 577666.56, 0.000000019519112, 10.001501, 10.003402 
2.9892465e+3, 1.4830199e+2, -1452568.1, -1462757.9, -105283.83, 0.23183887, -0.5102836, -1352256.0, 134358.31, 0.0, 10.000891, 10.000598 
2.9889223e+3, 1.5830351e+2, -1624747.4, -1617757.3, -30026.885, -0.09590281, 0.07721992, -1591022.8, -202422.33, 0.0, 9.999296, 9.999721 
2.9886052e+3, 1.683028e+2, -1291349.5, -1171958.8, 97806.516, 0.051352695, 0.39456928, -1117069.4, 173539.34, 0.0, 10.000149, 10.001506 
2.9882878e+3, 1.7830208e+2, -1097390.8, -1158121.6, 112975.36, 0.032289866, 0.686358, -1010771.2, 181846.94, 0.0, 10.001137, 10.000577 
2.9879645e+3, 1.8829437e+2, -994742.7, -950626.9, -86283.46, -0.07480963, 0.30858082, -883626.44, 211065.25, 0.0, 10.000924, 10.001331 
2.987641e+3, 1.9828549e+2, -1219565.0, -1070778.1, -137329.38, -0.07957695, -0.20666353, -988986.6, 7789.113, 0.0, 9.998711, 10.001013 
2.9873207e+3, 2.0828183e+2, -962916.2, -685016.4, -52544.855, -0.021562915, -0.300442, -675413.2, 223400.78, 0.0, 9.999158, 10.002627 
2.9870003e+3, 2.182789e+2, -778155.56, -687245.4, 20232.998, -0.0498668, -0.34864652, -682945.7, 117901.05, 0.0, 10.000038, 10.001682 
2.986686e+3, 2.2827454e+2, -670982.94, -529819.7, 136493.63, -0.008041333, -0.48460513, -446738.4, 256153.34, 0.0, 10.000129, 10.001927 
2.9863733e+3, 2.382713e+2, -612018.7, -578156.2, -28461.877, 0.042067695, -0.5099648, -561970.25, 42954.957, 0.0, 10.000161, 10.001043 
2.9860553e+3, 2.4826968e+2, -438598.3, -439187.16, -105956.33, 0.022525648, -0.28056592, -332936.0, 174010.94, 0.0, 10.001008, 10.000747 
2.9857364e+3, 2.582674e+2, -236076.48, -357181.7, -83313.555, 0.010131223, -0.068477795, -193635.08, 215341.05, 0.0, 10.0016365, 10.000508 
2.9854146e+3, 2.6826346e+2, 70550.516, 148108.84, -169601.44, 0.06699481, -0.17724213, 283308.03, 594321.7, 0.0, 10.002066, 10.002981 
2.985091e+3, 2.7825984e+2, 89838.84, 68454.68, -148399.1, 0.012997443, -0.3177785, 227930.53, 440976.06, 0.0, 10.001826, 10.002082 
2.9847673e+3, 2.8825715e+2, 25669.904, 190779.95, 45669.004, -0.36457536, -0.37721643, 202569.98, 317641.0, 0.0, 10.000606, 10.002807 
2.9844552e+3, 2.9825345e+2, -123785.68, -479908.53, -207240.75, 0.4522856, -0.34955117, -28617.168, -11505.305, 0.0, 10.001295, 9.997305 
2.999559e+3, 1.3862795e+2, -2251106.5, -1580653.6, -195467.97, -0.023535319, -0.015231967, -1527827.9, 53593.33, 0.000000013810121, 9.994199, 10.003808 
2.999243e+3, 1.4862405e+2, -1691536.1, -1489251.8, -212062.17, 0.42760083, -0.16870333, -1355446.9, 128014.56, 0.0, 9.998902, 10.001267 
2.9989156e+3, 1.5862103e+2, -1190250.8, -1413258.6, -34836.58, -0.31697834, -0.11765679, -1184935.5, 200563.31, 0.0, 10.002197, 9.99967 
2.998597e+3, 1.6861483e+2, -902935.0, -920193.4, 55598.637, -0.31813207, -0.44225436, -855299.9, 432256.06, 0.0, 10.002506, 10.001951 
2.998283e+3, 1.7860924e+2, -920780.4, -1139069.4, -31836.156, -0.15864995, -0.72727466, -916232.0, 273372.94, 0.0, 10.002515, 10.00003 
2.9979593e+3, 1.8860866e+2, -663224.06, -939262.7, -230633.9, -0.25175807, -0.3838377, -532465.9, 559144.6, 0.0, 10.003783, 9.9999275 
2.997633e+3, 1.9860148e+2, -547097.2, -1065346.5, -145370.9, -0.44734073, -0.5261087, -509105.25, 484576.2, 0.0, 10.0046425, 9.998149 
2.9973152e+3, 2.0860118e+2, -729137.4, -582234.8, -97340.086, -0.01843525, -0.23929727, -533742.75, 361941.47, 0.0, 10.000885, 10.002325 
2.9969954e+3, 2.1859972e+2, -1341258.0, -1204718.8, -139454.31, -0.108056106, -0.076200746, -1117720.1, -320021.44, 0.0, 9.997256, 9.999401 
2.9966757e+3, 2.2859354e+2, -722287.2, -801777.44, 99679.72, -0.59868324, -0.23781398, -654721.0, 45041.043, 0.0, 10.000946, 9.999471 
2.9963663e+3, 2.3858903e+2, -347559.63, -635275.3, 126229.805, -0.20425068, -0.2041095, -300030.3, 301779.8, 0.0, 10.002837, 9.999258 
2.996052e+3, 2.4858834e+2, -329005.13, -188879.63, -7429.913, 0.09135853, -0.005070451, -188486.77, 315336.63, 0.0, 10.000996, 10.002272 
2.9957354e+3, 2.5858492e+2, -1047065.0, -647123.94, -270510.2, 0.2176727, -0.12667182, -510695.94, -104833.336, 0.0, 9.995766, 10.001208 
2.995413e+3, 2.6858094e+2, -91854.23, 22351.568, 20317.783, 0.23754275, -0.32181856, 25858.516, 333759.53, 0.0, 10.001364, 10.002204 
2.9950857e+3, 2.7858278e+2, -502026.22, -297041.4, -134601.7, -0.22108647, 0.15546426, -230352.52, -20472.709, 0.0, 9.99821, 10.001203 
2.9947653e+3, 2.8857774e+2, -90816.33, 292391.3, 173774.34, -0.074937195, -0.26882264, 359456.28, 471382.78, 0.0, 9.999423, 10.003825 
2.994449e+3, 2.985767e+2, 66881.47, -191954.7, -201662.98, 0.18039751, -0.09518164, 177081.83, 191021.1, 0.0, 10.002116, 9.998646 
