coord_x,coord_y,stress_xx,stress_yy,tau_xy,velocity_x,velocity_y,stress_1,eps,damage,lx,ly
5.0021136e+0, 1.2389735e+2, -1363967.4, -2098796.8, -117831.62, -0.028252302, -0.42215508, -1345535.1, 380237.56, 0.0026772679, 10.004716, 9.995088 
5.0021267e+0, 1.33896e+2, -1289902.0, -1859845.8, -47689.54, 0.0143684335, -0.24542317, -1285939.3, 341861.78, 0.0015879271, 10.003923, 9.9964285 
5.0019675e+0, 1.4389376e+2, -1103334.4, -1464268.8, 3747.0146, 0.022687165, -0.20654392, -1103295.5, 426533.34, 0.00071068737, 10.003443, 9.998695 
5.001541e+0, 1.5389211e+2, -996755.5, -1332507.9, -40605.27, -0.016346091, -0.30446863, -991914.56, 439925.16, 0.00020845665, 10.003371, 9.998963 
5.001105e+0, 1.638911e+2, -1072895.4, -1458412.3, -57922.54, -0.030145042, -0.24310133, -1064380.8, 269468.5, 0.000030560015, 10.002779, 9.997713 
5.0006384e+0, 1.7389022e+2, -1195931.0, -1494035.1, -8471.189, -0.0066599934, -0.11901002, -1195690.5, 40175.105, 0.0000010193884, 10.001376, 9.997472 
5.0004256e+0, 1.8388936e+2, -1099351.1, -1236786.3, 57562.56, 0.006243958, -0.011706255, -1078427.5, 59453.016, 0.0, 10.000688, 9.998894 
5.0005674e+0, 1.9388857e+2, -941874.9, -1102623.6, 42651.47, 0.001994279, -0.023249874, -931259.2, 108634.23, 0.0, 10.0010605, 9.998966 
5.0004286e+0, 2.038886e+2, -769267.3, -854406.3, 15647.574, -0.013274473, 0.040602323, -766482.56, 175411.52, 0.0, 10.001087, 9.99998 
4.999814e+0, 2.1388966e+2, -743599.6, -785353.1, -17962.879, -0.04856562, 0.10702531, -736935.44, 106942.32, 0.0, 10.000562, 10.000035 
4.9996433e+0, 2.2388898e+2, -766940.06, -846903.5, -17899.936, -0.04571195, 0.07919378, -763116.0, -17235.365, 0.0, 10.000167, 9.999129 
5.000158e+0, 2.3388548e+2, -709998.56, -791205.2, -14534.343, 0.01497047, -0.20305982, -707475.56, -59561.05, 0.0, 9.99998, 9.998931 
5.0003535e+0, 2.4388424e+2, -576401.9, -573861.06, 808.33, 0.04481124, -0.2587816, -573625.7, -23697.895, 0.0, 9.999781, 9.999846 
5.000075e+0, 2.5388613e+2, -506241.38, -490823.72, 6199.336, 0.025963424, -0.090439685, -488640.22, -36728.0, 0.0, 9.999594, 9.999835 
4.9997848e+0, 2.6388752e+2, -464701.8, -443087.88, 24131.414, 0.011427999, 0.07608496, -427454.03, -73551.13, 0.000000019594776, 9.99931, 9.999621 
4.999485e+0, 2.7388835e+2, -437787.25, -387092.38, 38281.207, 0.0037779287, 0.1684241, -366527.47, -110627.26, 0.00000068486895, 9.998855, 9.999553 
4.9992794e+0, 2.838888e+2, -362328.1, -226196.97, 50368.035, 0.0068877395, 0.23324852, -209587.5, -51692.066, 0.0000056407102, 9.998384, 10.000206 
4.9991575e+0, 2.938872e+2, -324187.1, -153027.31, 37268.867, 0.016015058, 0.013766332, -145264.36, -85361.305, 0.00003698917, 9.997945, 10.00025 
4.9990287e+0, 3.0388328e+2, -317288.06, -118398.09, 11964.716, 0.019294297, -0.40979654, -117680.914, -117680.914, 0.00018828975, 9.99763, 10.000307 
4.9989587e+0, 3.138838e+2, -217990.17, 166849.02, -53318.49, 0.028996242, -0.41651073, 174099.56, 174099.56, 0.00054298295, 9.997244, 10.002464 
1.5006277e+1, 1.2389813e+2, -1231660.1, -1786423.4, -159462.67, -0.089107856, -0.060118224, -1189090.4, 536697.2, 0.0025788574, 10.004581, 9.997302 
1.5006389e+1, 1.338968e+2, -1139094.8, -1530507.4, -72407.49, 0.043818075, -0.08034275, -1126129.5, 501672.13, 0.0015329587, 10.003871, 9.998724 
1.5005906e+1, 1.4389522e+2, -1158667.1, -1558624.0, -6237.1655, 0.070119604, -0.078380994, -1158569.9, 371248.88, 0.0006843033, 10.003365, 9.998094 
1.5004623e+1, 1.5389481e+2, -1076959.6, -1480305.1, -35546.71, -0.048932172, 0.061857153, -1073850.9, 357974.88, 0.00019662829, 10.003302, 9.997989 
1.500333e+1, 1.6389374e+2, -993766.5, -1272830.0, -110065.98, -0.08792551, 0.11120912, -955580.4, 378256.63, 0.00002664921, 10.002696, 9.999035 
1.5001947e+1, 1.7389096e+2, -1088914.8, -1257937.8, -54977.805, -0.017727446, -0.094939254, -1072605.8, 163255.5, 0.00000066228677, 10.00132, 9.999129 
1.5001248e+1, 1.838894e+2, -1119601.5, -1252907.3, 60633.62, 0.017249383, -0.14987913, -1096148.6, 41728.176, 0.0, 10.000591, 9.998833 
1.5001711e+1, 1.9388974e+2, -973194.56, -1146432.1, 64519.51, 0.006770812, -0.007943311, -951806.0, 88072.39, 0.0, 10.000977, 9.998712 
1.500126e+1, 2.0388934e+2, -827517.56, -946653.0, -4654.8604, -0.04067686, 0.053373717, -827335.94, 114548.305, 0.0, 10.000981, 9.9994 
1.4999428e+1, 2.138877e+2, -804567.8, -882522.56, -30385.184, -0.14607386, -0.070477016, -794123.56, 49773.902, 0.0, 10.000451, 9.999425 
1.4998911e+1, 2.2388668e+2, -768968.2, -822637.44, -32581.756, -0.13721652, -0.11013484, -753593.0, -7685.9805, 0.0, 10.000061, 9.999351 
1.500045e+1, 2.3388667e+2, -702405.3, -747369.2, -14751.727, 0.044183876, -0.05870398, -697997.7, -50087.742, 0.0, 9.999875, 9.999286 
1.5001068e+1, 2.4388713e+2, -566370.6, -534336.25, -11839.543, 0.13471198, 0.022395073, -530435.5, 19471.25, 0.0, 9.999706, 10.000161 
1.5000221e+1, 2.5388807e+2, -495721.5, -440440.9, 5082.358, 0.07743259, 0.074293956, -439977.53, 11918.99, 0.0, 9.999478, 10.000243 
1.4999358e+1, 2.6388785e+2, -436037.44, -361605.6, 2020.4801, 0.034328964, 0.03079528, -361550.78, -7652.8516, 0.0000000045160005, 9.9992285, 10.000225 
1.4998473e+1, 2.738862e+2, -412270.53, -308284.38, 25308.602, 0.01271793, -0.17095272, -302451.8, -46537.758, 0.0000004592844, 9.998751, 10.00015 
1.499781e+1, 2.8388703e+2, -383197.34, -247038.44, 28288.707, 0.018532077, -0.09987965, -241395.02, -83489.16, 0.00000436483, 9.9983015, 10.000109 
1.4997472e+1, 2.938905e+2, -353171.88, -181765.1, 31486.492, 0.0468136, 0.22018698, -176164.2, -116292.37, 0.000032381515, 9.997814, 10.000122 
1.4997098e+1, 3.0388877e+2, -426802.4, -313405.66, -4037.385, 0.060883567, 0.0866321, -313262.1, -313262.1, 0.00017490126, 9.997527, 9.999023 
1.4996888e+1, 3.13885e+2, -332649.88, -15528.648, -45851.168, 0.089684, -0.18832734, -9032.309, -9032.309, 0.0005127624, 9.997035, 10.001321 
2.501078e+1, 1.2389935e+2, -1211202.4, -1678499.3, 55211.61, -0.07736662, 0.0614279, -1204767.8, 521015.8, 0.002463443, 10.0043, 9.998172 
2.5010398e+1, 1.3389798e+2, -1116151.5, -1430168.6, 19005.662, 0.07303348, -0.048578452, -1115005.4, 512786.0, 0.0014644283, 10.003651, 9.99952 
2.5009158e+1, 1.4389656e+2, -1244870.5, -1619014.4, 67909.01, 0.08795473, -0.06761588, -1232926.0, 296877.97, 0.00064927345, 10.002868, 9.997905 
2.5006995e+1, 1.538959e+2, -1295833.1, -1625701.9, 80731.91, -0.07184094, 0.07336732, -1277134.8, 154681.3, 0.0001814002, 10.00198, 9.997619 
2.500519e+1, 1.638948e+2, -1128714.8, -1298652.1, 19722.605, -0.11321214, 0.12711878, -1126455.9, 207372.78, 0.000022322774, 10.001611, 9.999368 
2.500397e+1, 1.7389247e+2, -969760.0, -1151306.9, -20594.545, 0.0245004, -0.08211923, -967453.06, 268394.28, 0.00000035252413, 10.001946, 9.999543 
2.5003186e+1, 1.838911e+2, -922912.1, -1142056.0, 78020.445, 0.09151308, -0.14796412, -897973.1, 239886.23, 0.0, 10.001865, 9.998977 
2.5003168e+1, 1.9389132e+2, -955160.56, -1121972.9, 108006.97, 0.055021778, -0.036661983, -902103.94, 137755.75, 0.0, 10.001038, 9.99884 
2.5002196e+1, 2.0389068e+2, -926917.25, -1028658.7, 76821.02, -0.0150923105, 0.008226145, -885650.56, 56216.734, 0.0, 10.000434, 9.999102 
2.4999782e+1, 2.1388865e+2, -887852.0, -964535.8, 66636.91, -0.1323188, -0.12762858, -849313.6, -5426.1895, 0.0, 10.000051, 9.999054 
2.4998905e+1, 2.2388777e+2, -771244.1, -817773.25, 110617.305, -0.13873601, -0.1338976, -681471.4, 64426.035, 0.0, 10.000007, 9.999406 
2.5000405e+1, 2.3388876e+2, -616059.44, -697897.06, 109705.65, 0.027460117, 0.0017959258, -539889.9, 108001.37, 0.0, 10.000423, 9.999357 
2.500084e+1, 2.4388957e+2, -464570.63, -477774.72, 91983.83, 0.11002886, 0.112813994, -378952.22, 170932.1, 0.0, 10.00038, 10.0002165 
2.4999604e+1, 2.538899e+2, -473684.34, -426035.25, 76481.38, 0.06444614, 0.09330764, -369753.56, 82125.03, 0.0, 9.999615, 10.000268 
2.4998327e+1, 2.6388916e+2, -462865.1, -377922.75, 62447.195, 0.019435441, 0.00010569467, -344872.72, 9011.08, 0.00000000030772893, 9.999068, 10.000183 
2.499705e+1, 2.7388713e+2, -395364.13, -305635.88, 28902.365, -0.008975607, -0.23790361, -297132.06, -41229.0, 0.000000332103, 9.998901, 10.000087 
2.499619e+1, 2.8388777e+2, -344574.0, -243797.31, 16176.381, 0.013452572, -0.17436734, -241264.39, -83367.195, 0.000003312623, 9.998629, 9.99997 
2.4996038e+1, 2.938918e+2, -322052.22, -181753.23, 13224.517, 0.11237023, 0.20713244, -180517.58, -120656.875, 0.000027299557, 9.998102, 9.99998 
2.4995288e+1, 3.0389157e+2, -477758.0, -397484.03, 23724.9, 0.13777412, 0.2589477, -390996.47, -390996.47, 0.00015832737, 9.997446, 9.998487 
2.499368e+1, 3.1388715e+2, -417546.1, -73532.15, 19436.645, 0.100261085, -0.031555142, -72437.47, -72437.47, 0.0004751241, 9.99656, 10.001137 
3.5015532e+1, 1.23900875e+2, -1248577.8, -1736178.3, 12915.232, -0.064503886, -0.08924013, -1248236.0, 477525.94, 0.002339813, 10.00423, 9.9978075 
3.5013974e+1, 1.3389957e+2, -1149765.6, -1492244.5, -1379.9833, 0.048176974, -0.13973619, -1149760.1, 478009.56, 0.0013870671, 10.003636, 9.999094 
3.5011536e+1, 1.4389776e+2, -1227420.8, -1575245.5, 28969.664, 0.019966463, -0.18784122, -1225024.4, 304760.72, 0.00060858665, 10.002833, 9.998222 
3.5008475e+1, 1.5389533e+2, -1267293.8, -1560480.5, 54305.656, -0.14088568, -0.26167375, -1257558.3, 174252.94, 0.00016439817, 10.001959, 9.998073 
3.5006604e+1, 1.6389427e+2, -1169765.5, -1378907.0, 21247.963, -0.15046059, -0.20775816, -1167628.6, 166195.9, 0.000017966355, 10.001584, 9.998836 
3.5006583e+1, 1.738946e+2, -1018699.0, -1250729.4, -1615.4838, 0.07423458, -0.08307703, -1018687.75, 217137.5, 0.00000014192928, 10.001933, 9.998873 
3.5006088e+1, 1.838943e+2, -896875.3, -1072022.1, 47034.55, 0.17999099, -0.02430893, -885043.75, 252785.72, 0.0, 10.001802, 9.999486 
3.5004783e+1, 1.9389316e+2, -916071.75, -1030106.56, 83792.47, 0.09588766, -0.11032869, -871737.5, 168100.97, 0.0, 10.000989, 9.999496 
3.5003075e+1, 2.038925e+2, -930078.8, -1011543.9, 53888.254, 0.016785316, -0.11258516, -903260.75, 38583.72, 0.0, 10.000342, 9.99926 
3.500074e+1, 2.1389244e+2, -892626.94, -952702.44, 58833.453, -0.056854602, -0.05624278, -856606.8, -12759.242, 0.0, 9.999965, 9.999175 
3.4999496e+1, 2.238922e+2, -784270.25, -820557.9, 118098.63, -0.09522683, -0.005532732, -682929.8, 62922.26, 0.0, 9.999909, 9.9994335 
3.4999856e+1, 2.3389179e+2, -626913.3, -697171.44, 131499.42, -0.08550785, -0.008469909, -525931.56, 121926.414, 0.0, 10.000329, 9.999407 
3.4999532e+1, 2.4389158e+2, -485797.22, -505723.56, 61768.984, -0.0724694, 0.005899425, -433193.03, 116667.22, 0.0, 10.00031, 10.00006 
3.499808e+1, 2.5389165e+2, -499008.75, -455909.88, 53365.242, -0.06514627, -0.020909073, -419907.38, 31950.742, 0.0, 9.999522, 10.000106 
3.4996593e+1, 2.638915e+2, -508879.56, -466130.9, 46955.957, -0.07495594, -0.021994168, -435913.34, -82053.35, 0.00000000006499392, 9.999031, 9.9995985 
3.4995013e+1, 2.7389112e+2, -449268.6, -400601.0, 29646.094, -0.1199332, -0.025133768, -386580.88, -130713.94, 0.0000002836276, 9.998824, 9.9994755 
3.499426e+1, 2.8389108e+2, -359525.7, -256172.47, -8461.346, -0.057767246, 0.0061936365, -255484.34, -97614.96, 0.000002745044, 9.998559, 9.999917 
3.4994707e+1, 2.93891e+2, -334645.16, -188210.06, -278.06177, 0.15125331, -0.01741241, -188209.53, -128339.62, 0.000022379118, 9.998023, 9.999973 
3.4993386e+1, 3.0389145e+2, -455482.56, -350757.25, -13438.191, 0.18871322, 0.0853893, -349060.38, -349060.38, 0.00013928866, 9.997427, 9.99882 
3.498901e+1, 3.1389025e+2, -368450.16, 30792.885, -3725.0522, -0.056393515, 0.080716036, 30827.637, 30827.637, 0.00043208257, 9.996526, 10.001878 
4.501953e+1, 1.2390209e+2, -1470252.6, -1827995.3, -33919.953, 0.006144629, -0.16853967, -1467064.9, 258682.61, 0.002215166, 10.002663, 9.997922 
4.5016906e+1, 1.3390127e+2, -1187223.5, -1516996.3, -52224.746, -0.00094938156, -0.1630259, -1179150.5, 448601.66, 0.0013074038, 10.003415, 9.999031 
4.5014e+1, 1.4389995e+2, -1108743.6, -1475160.4, -20893.254, -0.039706275, -0.17591673, -1107556.1, 422207.2, 0.0005675109, 10.003452, 9.998626 
4.5011395e+1, 1.5389727e+2, -1164396.5, -1462353.8, -10778.442, -0.061945643, -0.31736323, -1164007.0, 267782.8, 0.00014805637, 10.002443, 9.998528 
4.500925e+1, 1.6389629e+2, -1195027.0, -1412778.1, 7077.875, -0.034384772, -0.27283955, -1194797.3, 139005.22, 0.000013959289, 10.00151, 9.998639 
4.5007914e+1, 1.7389716e+2, -1210782.5, -1374792.4, 2488.395, 0.07839884, -0.06359162, -1210744.8, 25055.484, 0.000000037538413, 10.000748, 9.998595 
4.500664e+1, 1.8389699e+2, -1075284.1, -1155148.5, 67211.71, 0.122078635, 0.021436183, -1037037.06, 100767.35, 0.0, 10.000562, 9.999519 
4.500536e+1, 1.9389541e+2, -890175.0, -1008533.2, 51151.86, 0.053174533, -0.11424246, -871132.1, 168684.25, 0.0, 10.001132, 9.999577 
4.500364e+1, 2.038947e+2, -798126.44, -955736.75, -9114.189, -0.0015899291, -0.12372161, -797601.2, 144221.78, 0.0, 10.001275, 9.999198 
4.500134e+1, 2.1389514e+2, -795106.75, -915563.6, -30450.2, -0.022689065, -0.0091696475, -787846.8, 55975.92, 0.0, 10.0006695, 9.999094 
4.499995e+1, 2.2389509e+2, -756259.5, -774170.8, 53364.895, -0.037208095, 0.050954927, -711104.0, 34721.336, 0.0, 9.999963, 9.999728 
4.499995e+1, 2.338943e+2, -783073.5, -736607.0, 80744.8, -0.042091697, -0.020816118, -675819.4, -27987.209, 0.0, 9.999103, 9.999731 
4.499914e+1, 2.4389374e+2, -729497.6, -628855.4, 37931.28, -0.054618284, -0.058676824, -616160.6, -66324.1, 0.0, 9.998672, 9.999997 
4.4997036e+1, 2.5389335e+2, -598299.06, -522345.3, 21786.744, -0.08675445, -0.115955986, -516539.72, -64700.496, 0.0, 9.998917, 9.999943 
4.499524e+1, 2.638936e+2, -506865.3, -475611.1, 51919.453, -0.11234852, -0.062206786, -437017.94, -83179.44, 0.00000000016705606, 9.999097, 9.9995 
4.499399e+1, 2.7389497e+2, -400233.84, -389381.8, 64190.363, -0.118372485, 0.115589276, -330388.53, -74556.79, 0.00000025698242, 9.999215, 9.999369 
4.4993e+1, 2.8389493e+2, -309017.4, -212354.7, 43484.42, -0.04726522, 0.14503832, -195672.1, -37837.047, 0.0000023157831, 9.998827, 10.0000925 
4.4992313e+1, 2.9389256e+2, -368062.66, -184279.27, 47764.36, 0.13050666, -0.12616234, -172606.89, -112751.28, 0.000017842196, 9.997717, 10.00015 
4.4990662e+1, 3.0389345e+2, -486072.78, -357607.28, 66685.56, 0.19124559, 0.009451514, -329250.56, -329250.56, 0.0001190779, 9.997175, 9.998895 
4.498701e+1, 3.1389365e+2, -209048.5, 145797.27, 39200.113, 0.052981615, 0.13397303, 150076.13, 150076.13, 0.00038609168, 9.997448, 10.002224 
5.502204e+1, 1.23903215e+2, -1421663.1, -1763375.9, -22593.477, -0.0589493, -0.16515014, -1420175.8, 305562.03, 0.002088899, 10.002795, 9.998309 
5.5018955e+1, 1.3390315e+2, -1157590.0, -1477096.3, -17861.992, -0.1636449, -0.11495505, -1156594.5, 471144.0, 0.0012257147, 10.003495, 9.99927 
5.5016404e+1, 1.4390314e+2, -1068748.5, -1402785.4, -59004.633, -0.1696123, -0.029917497, -1058632.3, 471106.28, 0.00052635325, 10.003494, 9.999103 
5.5015475e+1, 1.5390176e+2, -1127263.3, -1389152.8, -42757.176, 0.079175934, -0.09227847, -1120459.4, 311292.4, 0.00013276051, 10.002462, 9.999021 
5.50128e+1, 1.6390088e+2, -1189246.3, -1398323.1, -29374.395, 0.15020865, -0.06797639, -1185197.6, 148564.02, 0.0000106646075, 10.0015, 9.998743 
5.500769e+1, 1.739001e+2, -1206516.6, -1366101.6, -19958.76, -0.037964437, -0.02933449, -1204058.3, 31714.832, 0.000000007551507, 10.00075, 9.998654 
5.500465e+1, 1.8389913e+2, -1108563.3, -1217959.4, 77256.95, -0.1500681, -0.00802153, -1068601.3, 69183.02, 0.0, 10.000535, 9.999101 
5.5004656e+1, 1.9389804e+2, -927469.5, -1079922.6, 77600.71, -0.14967413, -0.04827851, -894919.4, 144874.55, 0.0, 10.001109, 9.999097 
5.5003715e+1, 2.0389724e+2, -823411.3, -995867.8, -32501.324, -0.13835363, -0.029474847, -817489.44, 124313.61, 0.0, 10.001224, 9.998945 
5.5001295e+1, 2.1389672e+2, -819205.5, -953050.75, -48184.477, -0.112161174, 0.013397556, -803663.7, 40149.316, 0.0, 10.000619, 9.998859 
5.5e+1, 2.2389643e+2, -722497.4, -694000.3, 16110.288, -0.045776863, 0.03456438, -686741.56, 59075.566, 0.0, 9.999918, 10.000299 
5.50005e+1, 2.338964e+2, -742952.9, -640895.0, 54252.027, 0.08538159, -0.027836379, -617444.2, 30368.418, 0.0, 9.999049, 10.000411 
5.499945e+1, 2.4389605e+2, -736250.06, -635660.06, 38082.547, 0.09195161, -0.081655964, -622868.9, -73056.12, 0.0, 9.998637, 9.9999695 
5.4996145e+1, 2.5389504e+2, -617727.94, -541391.5, 36674.207, -0.08725358, -0.18993503, -526627.6, -74805.95, 0.0, 9.998828, 9.999853 
5.4994e+1, 2.6389563e+2, -487759.9, -425374.28, 50912.254, -0.16290607, -0.11586665, -396859.06, -43040.35, 0.00000000012003064, 9.999052, 9.999866 
5.4993784e+1, 2.738986e+2, -379143.1, -331339.63, 74850.875, -0.07792051, 0.17938374, -276666.9, -20868.955, 0.00000017731924, 9.999152, 9.999798 
5.4992205e+1, 2.838992e+2, -286442.06, -160337.9, -909.0733, -0.026453506, 0.23483281, -160331.36, -2536.3955, 0.0000014956321, 9.998804, 10.000462 
5.4988605e+1, 2.938963e+2, -352574.2, -138091.4, 12619.915, -0.032069933, -0.12507328, -137351.4, -77532.7, 0.000012909044, 9.997649, 10.000502 
5.4986876e+1, 3.0389747e+2, -500324.2, -371284.06, 67202.47, 0.07766373, 0.022379301, -342642.9, -342642.9, 0.00009809619, 9.997117, 9.998827 
5.4987156e+1, 3.1389725e+2, -220983.5, 139485.95, 72273.22, 0.28702804, 0.11569444, 153436.64, 153436.64, 0.00033776127, 9.997375, 10.002213 
6.5025496e+1, 1.2390613e+2, -1099952.5, -1633083.6, 110748.64, -0.09906394, -0.19792525, -1077861.8, 647843.25, 0.0019628725, 10.005108, 9.998097 
6.502185e+1, 1.3390595e+2, -1345948.5, -1605019.0, 43420.086, -0.16061246, -0.121197194, -1338865.0, 288845.72, 0.0011414998, 10.002354, 9.998943 
6.501877e+1, 1.439064e+2, -1453325.3, -1567643.8, 13951.529, -0.14088464, 0.01742837, -1451647.3, 78061.164, 0.0004823892, 10.000779, 9.99927 
6.5017426e+1, 1.5390538e+2, -1268522.4, -1432350.1, 793.27594, 0.08821364, -0.028670512, -1268518.5, 163199.17, 0.00011742101, 10.0013895, 9.999234 
6.501444e+1, 1.6390443e+2, -1105562.6, -1348494.9, 18114.908, 0.14297841, -0.027261017, -1104219.3, 229508.16, 0.000008467286, 10.002031, 9.998827 
6.5009135e+1, 1.7390303e+2, -932707.94, -1225566.9, 18995.668, -0.056553386, -0.060498856, -931481.0, 304262.25, 0.000000004638606, 10.002599, 9.998724 
6.500582e+1, 1.8390194e+2, -866351.9, -1094704.6, 125314.75, -0.16345266, -0.05940808, -810999.4, 326755.72, 0.0, 10.002175, 9.999154 
6.5005493e+1, 1.9390139e+2, -1048355.1, -1132156.3, 151950.73, -0.1296565, -0.049451683, -932633.7, 107126.32, 0.0, 10.000248, 9.999156 
6.500427e+1, 2.0390074e+2, -1095018.6, -1115502.4, 107033.484, -0.1046854, -0.021774912, -997738.1, -55970.387, 0.0, 9.9993105, 9.999046 
6.500165e+1, 2.1389991e+2, -927751.1, -993031.7, 109384.91, -0.094205774, -0.019446824, -846240.44, -2460.3066, 0.0, 9.999823, 9.998967 
6.500004e+1, 2.2389945e+2, -723331.75, -729572.75, 150322.9, -0.03653748, -0.00490642, -576096.94, 169689.16, 0.0, 10.000063, 9.9999895 
6.4999986e+1, 2.3389952e+2, -654093.1, -639135.7, 95230.66, 0.094187036, -0.022957018, -551090.5, 96692.086, 0.0, 9.999831, 10.000053 
6.4998674e+1, 2.4389926e+2, -599090.9, -548289.25, 66400.8, 0.112290464, -0.05602795, -502596.72, 47185.84, 0.0, 9.9994755, 10.000178 
6.499547e+1, 2.538985e+2, -581514.75, -492397.78, 82463.73, -0.037428435, -0.16622226, -443224.06, 8563.741, 0.0, 9.998937, 10.000147 
6.499327e+1, 2.6389906e+2, -591595.3, -457799.97, 110179.555, -0.0964414, -0.11631563, -395799.1, -42015.23, 0.00000000000043891748, 9.998258, 10.0000305 
6.4992714e+1, 2.7390152e+2, -625339.56, -430387.2, 101397.74, -0.006534297, 0.1152546, -387210.94, -131444.27, 0.00000007111923, 9.997386, 9.999964 
6.49905e+1, 2.839021e+2, -510780.13, -299995.22, 20991.977, -0.0006678116, 0.1674848, -297924.97, -140160.23, 0.00000065443334, 9.9973955, 10.000179 
6.498593e+1, 2.9389992e+2, -226720.77, -110551.875, -27796.77, -0.10781752, -0.087881856, -104243.28, -44459.426, 0.000008482825, 9.998658, 10.000202 
6.4983803e+1, 3.0390134e+2, -260380.7, -211931.1, -4254.184, -0.0067150122, 0.08281771, -211560.39, -211560.39, 0.00007932554, 9.998574, 9.999223 
6.49846e+1, 3.1390053e+2, -330235.88, 105166.29, 20314.916, 0.3458957, 0.076667905, 106112.08, 106112.08, 0.00029245962, 9.99654, 10.002391 
7.5029474e+1, 1.23910666e+2, -1133825.8, -1719223.5, -5320.8955, -0.2539558, -0.2654193, -1133777.4, 591873.3, 0.0018397092, 10.005175, 9.997473 
7.502529e+1, 1.339097e+2, -1401527.5, -1732306.3, -61019.863, -0.07326633, -0.18081744, -1390630.0, 237038.63, 0.0010576755, 10.002405, 9.998046 
7.502077e+1, 1.4390972e+2, -1455363.5, -1582149.8, 16753.834, -0.040523473, -0.028882328, -1453187.0, 76485.914, 0.00043753645, 10.000823, 9.999152 
7.501701e+1, 1.5390816e+2, -1270286.4, -1442284.5, 31417.8, -0.11290939, -0.12631069, -1264727.1, 166960.77, 0.00010224, 10.001414, 9.999157 
7.501394e+1, 1.6390702e+2, -1100420.3, -1335933.1, 35064.293, -0.12963481, -0.14168912, -1095310.5, 238388.55, 0.000007138289, 10.002023, 9.998919 
7.501201e+1, 1.7390597e+2, -923652.5, -1209303.0, 45131.996, -0.04896069, -0.15222906, -916691.4, 319019.16, 0.00000003688298, 10.002607, 9.998833 
7.500994e+1, 1.8390533e+2, -828509.56, -1016497.94, 57147.14, 0.012795362, -0.13613439, -812500.56, 325216.56, 0.0, 10.002174, 9.999694 
7.500761e+1, 1.9390537e+2, -1010932.94, -1050408.3, 84700.42, 0.039254703, -0.12562117, -943700.9, 96014.7, 0.0, 10.00023, 9.999728 
7.500508e+1, 2.0390524e+2, -1070248.1, -1053543.0, 112116.46, 0.02975086, -0.096550435, -949468.44, -7751.6255, 0.0, 9.999269, 9.999489 
7.500222e+1, 2.1390478e+2, -904850.06, -934230.75, 135010.13, -0.036666363, -0.10498515, -783733.44, 59990.18, 0.0, 9.999773, 9.999395 
7.499983e+1, 2.2390425e+2, -817299.25, -913510.56, 140046.22, -0.07926896, -0.065423794, -717326.9, 28404.904, 0.0, 10.000013, 9.99875 
7.4998146e+1, 2.339036e+2, -764300.75, -855891.25, 93657.266, -0.08800536, -0.013553215, -705842.0, -58099.438, 0.0, 9.999774, 9.998593 
7.4996454e+1, 2.4390335e+2, -577984.1, -491637.25, 42470.64, -0.07107311, 0.016927378, -474249.16, 75496.52, 0.0, 9.999424, 10.000587 
7.4994814e+1, 2.539037e+2, -546000.8, -405549.88, 67494.555, -0.012295545, -0.046451423, -378373.44, 73364.11, 0.0, 9.998877, 10.000772 
7.499284e+1, 2.6390392e+2, -599727.7, -463489.7, 74444.25, 0.021024019, -0.06372468, -430702.06, -76968.445, 0.0, 9.998212, 10.000014 
7.499048e+1, 2.7390385e+2, -644022.6, -454030.28, 77426.484, 0.013545429, -0.07851495, -426473.88, -170736.31, 0.000000009748358, 9.997317, 9.999837 
7.498761e+1, 2.839036e+2, -577533.94, -429700.4, 55762.656, -0.04646822, -0.058923848, -411025.8, -253281.98, 0.00000018808618, 9.997359, 9.999306 
7.498405e+1, 2.939034e+2, -304643.9, -258100.52, 25808.813, -0.17989726, -0.02192388, -246620.72, -186869.64, 0.000005696117, 9.998591, 9.999225 
7.498126e+1, 3.03905e+2, -210290.0, -100350.91, -69713.04, -0.1337376, 0.18427943, -66542.31, -66542.31, 0.00006525944, 9.998544, 10.0 
7.497891e+1, 3.139033e+2, -323739.3, 147771.31, -38582.78, 0.09308748, -0.013875742, 150907.61, 150907.61, 0.00025509726, 9.996413, 10.002742 
8.503202e+1, 1.23914145e+2, -1629573.0, -1905412.6, -138622.75, -0.32712105, -0.28905186, -1571947.0, 153669.22, 0.0017202923, 10.001544, 9.997939 
8.5028017e+1, 1.3391334e+2, -1404530.0, -1700571.0, -135650.22, -0.026684823, -0.21568142, -1351774.4, 275856.63, 0.000979446, 10.002254, 9.998332 
8.5022956e+1, 1.4391354e+2, -1248638.1, -1493966.0, 33046.266, 0.026678292, -0.05974793, -1244264.8, 285368.5, 0.0003977733, 10.002281, 9.999061 
8.501786e+1, 1.5391149e+2, -1292015.5, -1466054.0, 35528.4, -0.16112787, -0.1926779, -1285042.1, 146611.22, 0.000088897265, 10.001324, 9.999037 
8.5014427e+1, 1.6391037e+2, -1297230.5, -1406646.1, 61691.99, -0.20555797, -0.20893145, -1269483.3, 64181.07, 0.000006071428, 10.000572, 9.999131 
8.5013634e+1, 1.7391008e+2, -1264285.3, -1343677.9, 72662.6, -0.01990985, -0.1676973, -1221182.6, 14484.932, 0.000000076650345, 10.00014, 9.999101 
8.501178e+1, 1.8390965e+2, -1140740.3, -1165241.1, 51587.117, 0.091161996, -0.1450149, -1099969.0, 37702.727, 0.0, 10.000028, 9.999707 
8.5008395e+1, 1.939092e+2, -993794.2, -1042019.9, 21196.633, 0.09271655, -0.1807481, -985802.06, 53872.81, 0.0, 10.000355, 9.999722 
8.5005206e+1, 2.039091e+2, -857058.06, -916967.0, 65216.906, 0.053937774, -0.16298093, -815245.44, 126429.945, 0.0, 10.000576, 9.999805 
8.5002303e+1, 2.1390949e+2, -767482.44, -828257.06, 74143.15, -0.039491963, -0.11988453, -717741.1, 125931.305, 0.0, 10.000541, 9.999759 
8.4999746e+1, 2.239091e+2, -786278.8, -933575.56, 97564.46, -0.102477096, -0.07292662, -737686.0, 7993.2593, 0.0, 10.0003805, 9.998432 
8.499775e+1, 2.3390757e+2, -757837.1, -897708.6, 113317.36, -0.11319003, -0.06738575, -694611.94, -46911.348, 0.0, 10.000019, 9.998183 
8.49957e+1, 2.4390696e+2, -567200.44, -531589.9, 85835.45, -0.09887727, -0.030151712, -461732.44, 87977.03, 0.0, 9.99969, 10.000183 
8.499364e+1, 2.5390783e+2, -497065.22, -424244.03, 22762.826, -0.038824733, -0.0005683713, -417714.22, 33984.805, 0.0, 9.999403, 10.000385 
8.499144e+1, 2.6390818e+2, -446010.9, -373965.16, -1235.3142, 0.014721533, 0.0076987417, -373943.97, -20249.717, 0.0, 9.999188, 10.000165 
8.498913e+1, 2.7390754e+2, -378926.72, -301741.94, 12325.592, 0.065905824, -0.08419678, -299821.47, -44121.477, 0.0, 9.999022, 10.000068 
8.4986335e+1, 2.83907e+2, -404081.66, -359458.7, 68834.8, 0.03309481, -0.10424454, -309409.75, -151702.17, 0.000000024133003, 9.998598, 9.999198 
8.498287e+1, 2.9390684e+2, -426692.66, -329464.88, 92198.92, -0.111568436, -0.046128746, -273848.5, -214133.3, 0.0000041706858, 9.997807, 9.999112 
8.4979355e+1, 3.039081e+2, -351046.6, -118527.73, -7580.415, -0.11395461, 0.11146273, -118280.86, -118280.86, 0.00005536609, 9.997355, 10.000448 
8.4975195e+1, 3.1390736e+2, -217868.88, 158662.28, -38626.664, 0.04436584, -0.041252743, 162583.97, 162583.97, 0.00022562832, 9.997307, 10.002376 
9.503278e+1, 1.2391672e+2, -1522601.6, -1687220.3, -127624.58, -0.44373247, -0.25492668, -1453046.4, 272553.5, 0.0016119159, 10.001563, 9.999424 
9.5029676e+1, 1.3391687e+2, -1301152.9, -1498247.3, -105411.09, -0.10431052, -0.22799501, -1255398.1, 372200.06, 0.0009129297, 10.002302, 9.999697 
9.5025e+1, 1.4391777e+2, -1246806.0, -1493831.4, -1219.9537, -0.015482676, -0.07680021, -1246800.0, 282789.7, 0.00036647206, 10.002299, 9.99905 
9.501977e+1, 1.5391536e+2, -1302161.5, -1492274.0, 5432.9087, -0.12366442, -0.22814575, -1302006.4, 129607.43, 0.00007896108, 10.001348, 9.998842 
9.5015776e+1, 1.639145e+2, -1274738.4, -1361623.4, 37296.547, -0.1451922, -0.2224191, -1260924.6, 72697.95, 0.000005121987, 10.000577, 9.999438 
9.501373e+1, 1.7391531e+2, -1236849.0, -1288575.3, 61341.31, -0.041166186, -0.10802914, -1196141.4, 39473.2, 0.00000007826353, 10.000146, 9.9994755 
9.501112e+1, 1.839149e+2, -1181095.0, -1245163.8, 56253.62, 0.009274778, -0.08068596, -1148394.0, -10775.409, 0.0, 10.00001, 9.999168 
9.5007616e+1, 1.939128e+2, -1041233.2, -1135246.1, 40205.824, -0.038708843, -0.21911435, -1026384.06, 13254.598, 0.0, 10.000333, 9.999091 
9.500443e+1, 2.0391227e+2, -850285.1, -893063.5, 60155.656, -0.09646011, -0.21838428, -807829.2, 133814.4, 0.0, 10.000533, 9.9999895 
9.500164e+1, 2.1391395e+2, -753434.5, -791554.8, 80711.07, -0.1758567, -0.07547497, -689563.56, 154063.9, 0.0, 10.000504, 10.0000305 
9.499959e+1, 2.239139e+2, -757336.0, -860540.06, 80709.15, -0.17272086, -0.03264804, -713142.75, 32486.49, 0.0, 10.000326, 9.998958 
9.4998586e+1, 2.3391126e+2, -725612.75, -818629.44, 104781.51, -0.047849637, -0.19619106, -657481.7, -9823.604, 0.0, 9.999963, 9.998754 
9.49962e+1, 2.4391001e+2, -660422.5, -709715.7, 68769.12, -0.031099707, -0.2024007, -612016.75, -62342.17, 0.0, 9.999629, 9.998987 
9.4991714e+1, 2.5391087e+2, -604896.1, -636342.2, 18860.664, -0.18688206, -0.036195938, -596064.4, -144391.61, 0.0, 9.999351, 9.998956 
9.498882e+1, 2.6391172e+2, -432212.66, -336015.03, -12978.137, -0.17903967, 0.09146564, -334294.88, 19371.729, 0.0, 9.999149, 10.0004425 
9.4988436e+1, 2.739125e+2, -352832.53, -232114.72, 12967.008, 0.07816247, 0.089558624, -230737.58, 24917.693, 0.0, 9.998952, 10.000578 
9.4986504e+1, 2.8391218e+2, -360772.5, -260127.19, 35710.19, 0.17418128, 0.030880056, -248744.19, -91087.77, 0.000000004406078, 9.998561, 9.999893 
9.498215e+1, 2.9391024e+2, -389579.97, -232634.8, 71617.555, 0.016863784, -0.16101895, -204866.98, -145190.92, 0.0000031909003, 9.997721, 9.999818 
9.497781e+1, 3.0391073e+2, -344166.16, -96898.44, -14645.28, -0.01995173, -0.13095944, -96034.05, -96034.05, 0.000047523536, 9.997324, 10.00061 
9.497291e+1, 3.139128e+2, -316023.84, -15968.005, -15278.193, 0.049478367, 0.0050182664, -15192.079, -15192.079, 0.00020078661, 9.997183, 10.001235 
1.0503507e+2, 1.239218e+2, -1524966.3, -1616659.9, 18218.945, -0.34518805, -0.14951462, -1521478.9, 204077.72, 0.001525873, 10.001208, 10.000086 
1.0503131e+2, 1.3392158e+2, -1523114.4, -1554774.9, -50396.29, -0.07679446, -0.2062557, -1486120.6, 141433.45, 0.00086255383, 10.00054, 10.000164 
1.0502639e+2, 1.4392248e+2, -1524373.5, -1630030.1, 27072.785, -0.00828682, -0.0816721, -1517840.5, 11702.37, 0.00034425873, 10.000413, 9.999021 
1.0502155e+2, 1.5392019e+2, -1328367.3, -1522578.3, 23592.988, -0.06881351, -0.20687914, -1325542.3, 106023.9, 0.00007295785, 10.0012455, 9.998689 
1.0501742e+2, 1.6391924e+2, -1122399.0, -1297446.6, 48394.98, -0.088809505, -0.19678898, -1109910.4, 223665.44, 0.0000044141693, 10.001671, 9.999347 
1.0501465e+2, 1.7391972e+2, -1054569.1, -1213473.3, 23394.975, -0.025334584, -0.10520561, -1051196.4, 184374.69, 0.000000050630582, 10.001461, 9.999353 
1.05011515e+2, 1.8391912e+2, -1022931.2, -1168934.5, 31724.615, -0.004438563, -0.091313556, -1016335.75, 121240.7, 0.0, 10.001089, 9.999168 
1.0500768e+2, 1.9391699e+2, -1037863.3, -1133243.4, 51961.766, -0.062357675, -0.23510149, -1015024.2, 24571.521, 0.0, 10.000348, 9.999096 
1.0500449e+2, 2.0391609e+2, -983175.3, -1002293.2, 91933.67, -0.10358804, -0.25296926, -900305.0, 41299.332, 0.0, 9.999826, 9.999575 
1.0500235e+2, 2.1391693e+2, -922223.0, -922537.9, 44141.234, -0.10483564, -0.14705288, -878238.94, -34640.99, 0.0, 9.999571, 9.999574 
1.05000295e+2, 2.23917e+2, -857783.06, -845136.44, 20617.531, -0.08186082, -0.09236254, -829894.4, -84295.58, 0.0, 9.999357, 9.999538 
1.04998425e+2, 2.3391594e+2, -791221.44, -769994.9, 44801.207, -0.015522129, -0.1659782, -734567.0, -86956.6, 0.0, 9.999169, 9.999473 
1.0499552e+2, 2.4391522e+2, -770335.9, -783202.44, 58808.87, -0.025688715, -0.1513803, -717609.44, -167988.44, 0.0, 9.998964, 9.998801 
1.049911e+2, 2.5391498e+2, -719824.06, -724768.5, 80131.03, -0.14732198, -0.06486503, -642127.1, -190496.34, 0.0, 9.998711, 9.998652 
1.04987994e+2, 2.639152e+2, -536609.94, -399165.84, 95258.06, -0.14057833, 0.023985786, -350428.03, 3203.021, 0.0, 9.998493, 10.0003195 
1.0498701e+2, 2.739162e+2, -450127.75, -291149.5, 63974.367, 0.075433634, 0.055532925, -268603.13, -12986.032, 0.0, 9.998337, 10.000468 
1.0498489e+2, 2.8391615e+2, -399700.72, -284058.63, 42248.43, 0.17423572, 0.029638963, -270268.22, -112652.766, 0.0000000012345152, 9.998305, 9.999861 
1.0498094e+2, 2.939144e+2, -277965.38, -174169.67, 7678.485, 0.092928976, -0.14522105, -173604.72, -113972.17, 0.0000025074758, 9.998459, 9.999867 
1.04976706e+2, 3.0391455e+2, -118025.234, -39907.203, -80383.77, 0.055744786, -0.13596678, 10404.681, 10404.681, 0.000040782536, 9.999101, 10.000152 
1.0497194e+2, 3.1391624e+2, 46902.195, -6311.419, -136534.4, 0.082078375, 0.020523995, 159398.11, 159398.11, 0.0001788825, 10.000382, 9.999769 
1.15038306e+2, 1.2392915e+2, -1526248.6, -1636813.4, -29319.912, -0.18612973, 0.015461527, -1518954.6, 206534.13, 0.0014675308, 10.001281, 9.999914 
1.15032755e+2, 1.3392739e+2, -1543627.4, -1606512.6, -75013.336, -0.0061780172, -0.15779878, -1493733.4, 133766.03, 0.0008305489, 10.000583, 9.999784 
1.1502702e+2, 1.4392766e+2, -1531936.9, -1647567.0, 45566.105, -0.0047200755, -0.069688454, -1516139.0, 13353.979, 0.00033210375, 10.000418, 9.998899 
1.1502284e+2, 1.5392594e+2, -1327784.9, -1528981.3, 64157.18, -0.08423189, -0.13086396, -1309067.8, 122442.54, 0.00007103606, 10.001282, 9.998624 
1.1501913e+2, 1.6392457e+2, -1157874.4, -1378945.0, 39317.84, -0.104341775, -0.13280264, -1151089.9, 182434.1, 0.0000041839003, 10.001694, 9.998783 
1.15016244e+2, 1.7392328e+2, -1091557.3, -1297320.5, 20783.516, -0.030654352, -0.16129, -1089479.0, 146058.0, 0.000000024917117, 10.001488, 9.998768 
1.1501279e+2, 1.8392226e+2, -990573.7, -1093524.8, 2208.944, -0.0020173914, -0.17766693, -990526.3, 147019.08, 0.0, 10.001053, 9.999705 
1.15008295e+2, 1.9392172e+2, -992767.1, -1035568.75, 28793.648, -0.05468095, -0.22947498, -978292.2, 61254.094, 0.0, 10.000332, 9.999774 
1.150052e+2, 2.0392057e+2, -1061820.9, -1158471.3, 74375.19, -0.02840942, -0.26331848, -1021450.0, -79892.78, 0.0, 9.999791, 9.998524 
1.1500418e+2, 2.1391839e+2, -1015808.7, -1106355.8, 39332.965, 0.10657757, -0.33715436, -1001109.1, -157524.77, 0.0, 9.999521, 9.998338 
1.15001716e+2, 2.2391835e+2, -821072.5, -757375.1, 7800.74, 0.111935124, -0.25157952, -756433.7, -10845.221, 0.0, 9.999307, 10.000165 
1.1499703e+2, 2.3392157e+2, -739588.5, -648950.94, 44203.58, -0.08739966, 0.016974133, -630962.94, 16595.066, 0.0, 9.999106, 10.000335 
1.14993475e+2, 2.4392256e+2, -724838.75, -674111.75, 43693.867, -0.14120178, 0.1202088, -648953.4, -99404.3, 0.0, 9.9989, 9.999582 
1.149916e+2, 2.539201e+2, -673262.06, -614006.94, 74483.74, 0.016667062, -0.0931477, -563474.5, -111900.57, 0.0, 9.998649, 9.999444 
1.1498881e+2, 2.6391864e+2, -578140.8, -477880.4, 83478.45, 0.07749516, -0.19727458, -430636.66, -77048.49, 0.0, 9.998462, 9.999797 
1.14984624e+2, 2.739187e+2, -509842.78, -401117.75, 64873.715, -0.011756854, -0.18723129, -370840.56, -115254.49, 0.0, 9.998274, 9.999747 
1.14981264e+2, 2.8391892e+2, -459343.8, -396678.06, 41642.055, -0.03241101, -0.109916694, -375897.5, -218312.56, 0.00000000007947066, 9.998263, 9.999105 
1.1497904e+2, 2.9391932e+2, -345219.6, -286656.0, 20148.982, 0.039934844, 0.008016473, -280393.38, -220808.55, 0.000001910546, 9.998348, 9.999148 
1.14975855e+2, 3.039195e+2, -197755.39, -192518.86, -38172.508, 0.045209818, 0.10430869, -156874.92, -156874.92, 0.000034748213, 9.999058, 9.999119 
1.14971794e+2, 3.139175e+2, -96777.62, -273637.28, -63813.62, -0.005601306, -0.00036328955, -76156.94, -76156.94, 0.00015878698, 10.00026, 9.997987 
1.2504026e+2, 1.239356e+2, -1743394.4, -1739907.9, 29759.887, -0.039926935, 0.054074734, -1711840.3, 13584.913, 0.0014351123, 9.999807, 9.999908 
1.2503412e+2, 1.3393295e+2, -1403464.1, -1571001.4, -27117.615, 0.024076702, -0.17604068, -1399184.3, 228258.9, 0.00081633194, 10.001689, 9.999497 
1.2502822e+2, 1.4393264e+2, -1250092.4, -1539115.8, 93507.21, -0.02277945, -0.11963359, -1222478.5, 306963.34, 0.00033045214, 10.00247, 9.998653 
1.2502469e+2, 1.5393071e+2, -1272444.9, -1534628.6, 78815.0, -0.04906325, -0.17509267, -1250576.4, 180885.17, 0.00007352079, 10.001793, 9.99834 
1.2502116e+2, 1.6392912e+2, -1235200.3, -1425646.9, 56850.438, -0.04316615, -0.18090883, -1219520.6, 113957.18, 0.0000047035833, 10.001203, 9.998701 
1.2501769e+2, 1.7392765e+2, -1210018.3, -1363003.0, 66829.41, 0.008007084, -0.22003864, -1184936.6, 50556.098, 0.000000012759114, 10.000703, 9.9987 
1.2501378e+2, 1.8392682e+2, -1070004.0, -1132899.9, 64686.99, 0.024045927, -0.21310748, -1029525.7, 107974.305, 0.0, 10.000521, 9.99969 
1.2500918e+2, 1.939271e+2, -935222.25, -1011920.5, 29731.805, -0.01652308, -0.1791098, -925046.8, 114447.7, 0.0, 10.000749, 9.999739 
1.250059e+2, 2.0392613e+2, -926602.25, -1112872.0, 83939.53, 0.014525077, -0.18390174, -894357.9, 47146.297, 0.0, 10.000802, 9.998345 
1.250046e+2, 2.1392326e+2, -886458.6, -1067874.0, 115884.85, 0.15132785, -0.30577743, -830002.5, 13534.858, 0.0, 10.000509, 9.998125 
1.2500168e+2, 2.239227e+2, -736836.4, -727644.1, 103412.31, 0.15140274, -0.25778267, -628725.9, 116820.13, 0.0, 9.999932, 10.000063 
1.24996305e+2, 2.3392563e+2, -774886.75, -676822.5, 53395.24, -0.05601495, -0.008354269, -653361.9, -5844.4097, 0.0, 9.998918, 10.00023 
1.249925e+2, 2.4392648e+2, -761625.3, -672638.5, 31822.586, -0.107799046, 0.077426024, -662429.6, -112920.95, 0.0, 9.998564, 9.999756 
1.2499114e+2, 2.539241e+2, -572430.25, -546329.06, 12834.934, 0.079646856, -0.1460542, -541075.2, -89544.45, 0.0, 9.999247, 9.999627 
1.2498842e+2, 2.6392263e+2, -440592.22, -436443.13, 391.67468, 0.14262572, -0.24854152, -436406.5, -82862.15, 0.0, 9.99952, 9.999567 
1.2498369e+2, 2.7392256e+2, -393093.3, -373119.47, -2215.949, 0.02409327, -0.22583713, -372876.6, -117331.164, 0.0, 9.999212, 9.999479 
1.2497994e+2, 2.839226e+2, -347468.66, -365923.16, 39355.402, -0.029780367, -0.14210215, -316273.28, -158726.17, 0.00000000021645001, 9.999135, 9.998893 
1.2497768e+2, 2.9392293e+2, -199482.69, -233478.73, 52975.875, 0.02009751, -0.012500004, -160844.61, -101297.17, 0.0000014014497, 9.999428, 9.998989 
1.2497465e+2, 3.0392334e+2, -133139.3, -180818.95, 69902.72, 0.001542443, 0.11702304, -83122.99, -83122.99, 0.000028996776, 9.999561, 9.998971 
1.2497143e+2, 3.139209e+2, -278354.53, -398910.94, 96690.06, -0.004256777, -0.007647901, -224692.28, -224692.28, 0.00013884061, 9.999164, 9.997664 
1.350405e+2, 1.23941086e+2, -1735181.0, -1725644.9, 78560.87, -0.032256957, -0.034453765, -1651707.5, 73658.81, 0.0014283952, 9.999827, 9.999996 
1.3503516e+2, 1.3393842e+2, -1404671.3, -1579038.8, 48895.258, -0.06087455, -0.2569654, -1391896.3, 235487.78, 0.000819765, 10.001729, 9.999415 
1.3502978e+2, 1.439376e+2, -1277533.5, -1608989.9, 69885.67, -0.1341534, -0.22463168, -1263401.0, 265986.97, 0.00033887546, 10.002515, 9.998155 
1.3502693e+2, 1.5393461e+2, -1308114.1, -1611487.8, 58225.625, -0.02247036, -0.3347406, -1297322.9, 134096.53, 0.0000801792, 10.001802, 9.9978075 
1.3502328e+2, 1.6393296e+2, -1214523.9, -1374074.3, 32052.72, 0.03532096, -0.33283797, -1208325.5, 125111.38, 0.0000062149566, 10.001171, 9.999068 
1.3501868e+2, 1.7393287e+2, -1176681.0, -1293523.0, 56030.08, 0.019190699, -0.28108662, -1154155.3, 81283.055, 0.000000017143847, 10.0007105, 9.999167 
1.3501425e+2, 1.8393283e+2, -1113480.0, -1225204.4, 64421.633, 0.0017567449, -0.191849, -1084073.6, 53366.324, 0.0, 10.000519, 9.999061 
1.3501003e+2, 1.9393307e+2, -987828.75, -1118609.8, 44565.62, -0.022035573, -0.0892752, -974086.4, 65354.2, 0.0, 10.000735, 9.999012 
1.3500637e+2, 2.0393278e+2, -886176.3, -1018965.6, 70724.45, -0.03438591, -0.017249359, -855564.75, 85880.52, 0.0, 10.000758, 9.999013 
1.3500339e+2, 2.1393158e+2, -836202.3, -948737.1, 112161.87, -0.03718571, -0.054404024, -766985.44, 76471.56, 0.0, 10.000448, 9.998971 
1.3500002e+2, 2.2393009e+2, -805406.56, -860349.44, 61491.035, -0.024574129, -0.107238784, -765529.44, -20058.473, 0.0, 9.999885, 9.999177 
1.3499598e+2, 2.3392807e+2, -857095.8, -837369.5, 19511.113, 0.0055986177, -0.24453998, -825370.25, -177880.97, 0.0, 9.99887, 9.99915 
1.349924e+2, 2.439269e+2, -799390.7, -740572.06, 45208.91, 0.011131885, -0.2821028, -716048.5, -166548.03, 0.0, 9.99852, 9.9993105 
1.3498951e+2, 2.53927e+2, -607886.0, -604275.7, 44693.65, -0.02163898, -0.22171576, -561350.75, -109849.85, 0.0, 9.999179, 9.999261 
1.3498662e+2, 2.6392734e+2, -444807.25, -434030.53, -12045.2, -0.0019280936, -0.12607142, -426223.4, -72724.445, 0.0, 9.9994755, 9.999603 
1.349839e+2, 2.739278e+2, -398937.9, -364438.9, -7245.3276, 0.10761963, -0.057537146, -362979.06, -107483.375, 0.0, 9.999126, 9.999578 
1.3498072e+2, 2.8392714e+2, -323712.97, -307203.78, 41351.23, 0.119498394, -0.06629481, -273291.3, -115788.55, 0.000000004047862, 9.999097, 9.999314 
1.3497673e+2, 2.939251e+2, -179549.63, -176520.47, 71216.62, -0.03509816, -0.21753016, -106802.33, -47280.492, 0.0000011638989, 9.999359, 9.999416 
1.3497287e+2, 3.039259e+2, -85935.94, -67045.664, 56781.285, -0.14268205, -0.10436085, -18929.309, -18929.309, 0.00002379093, 9.999501, 9.999777 
1.349704e+2, 3.139267e+2, -214511.6, -241498.45, 102066.26, -0.055401154, 0.008592602, -125050.695, -125050.695, 0.00011909773, 9.999058, 9.998797 
1.4504226e+2, 1.2394547e+2, -1457081.0, -1599499.6, 48535.766, 0.07222749, -0.12906316, -1442113.3, 283207.25, 0.0014440229, 10.001761, 9.999935 
1.4503668e+2, 1.3394317e+2, -1451073.8, -1633934.4, -19964.926, -0.06695416, -0.28999168, -1448919.3, 178417.63, 0.00083842565, 10.001534, 9.999135 
1.4503136e+2, 1.4394267e+2, -1418240.1, -1658077.3, -3494.2075, -0.17394675, -0.21946758, -1418189.3, 111150.44, 0.00035495815, 10.0014715, 9.998323 
1.4502898e+2, 1.5394041e+2, -1302945.4, -1583786.6, 23528.313, 0.01128813, -0.27496752, -1300987.8, 130376.64, 0.00008912459, 10.001732, 9.998034 
1.4502524e+2, 1.63939e+2, -1136449.4, -1340578.9, 20875.955, 0.0906893, -0.2624545, -1134336.4, 199043.39, 0.000008328298, 10.001726, 9.999028 
1.4501965e+2, 1.7393835e+2, -1109774.0, -1273539.6, -12015.464, 0.022358127, -0.25553277, -1108897.1, 126488.234, 0.0000000715251, 10.001215, 9.999065 
1.4501502e+2, 1.8393789e+2, -1046785.0, -1218477.0, 25393.135, 0.001882481, -0.19402435, -1043108.1, 94282.836, 0.0, 10.001087, 9.998833 
1.4501175e+2, 1.9393778e+2, -891847.3, -1103628.5, 32232.66, 0.0396156, -0.101881236, -887050.25, 152345.45, 0.0, 10.001518, 9.998744 
1.4500797e+2, 2.0393755e+2, -786449.94, -945670.1, 38450.336, 0.024384324, -0.017655041, -777650.75, 163748.86, 0.0, 10.001344, 9.99923 
1.4500333e+2, 2.1393712e+2, -851200.4, -928094.6, 19335.379, -0.07365615, -0.003851586, -846612.2, -3209.578, 0.0, 10.000229, 9.999217 
1.449993e+2, 2.2393554e+2, -849763.9, -927496.44, -10843.102, -0.07644045, -0.058575712, -848279.7, -102862.95, 0.0, 9.999784, 9.998763 
1.4499623e+2, 2.3393224e+2, -672906.5, -805438.2, -18897.363, 0.07074058, -0.27587467, -670264.6, -22816.512, 0.0, 10.000381, 9.998645 
1.4499278e+2, 2.4393043e+2, -536161.0, -632372.06, 55857.65, 0.10638192, -0.34050453, -510549.4, 38915.95, 0.0, 10.000409, 9.999144 
1.4498876e+2, 2.53931e+2, -557888.5, -588691.9, 61763.31, -0.032111753, -0.22334525, -509635.5, -58175.133, 0.0, 9.999577, 9.999169 
1.4498535e+2, 2.6393148e+2, -532867.25, -507648.22, 9320.263, -0.047969382, -0.09437616, -504577.56, -151120.78, 0.0, 9.998995, 9.999335 
1.4498317e+2, 2.7393168e+2, -470051.8, -431363.2, -23795.936, 0.14609782, -0.025996834, -420040.78, -164582.98, 0.0, 9.998766, 9.999301 
1.4498024e+2, 2.8393066e+2, -402960.75, -330382.53, 21911.023, 0.19695628, -0.06251283, -324280.7, -166812.31, 0.000000009906891, 9.998477, 9.999461 
1.4497586e+2, 2.9392833e+2, -342908.75, -230716.16, 22628.127, 0.008699195, -0.26588815, -226324.22, -166835.89, 0.0000010398929, 9.99813, 9.999636 
1.4497192e+2, 3.0392912e+2, -220728.14, -92005.72, 6155.8696, -0.12773326, -0.17800209, -91712.0, -91712.0, 0.000019274365, 9.998405, 10.000126 
1.4497021e+2, 3.1393018e+2, -101963.55, -66342.77, -1621.4001, 0.015603768, -0.08272626, -66269.125, -66269.125, 0.00010043125, 9.999324, 9.99986 
1.55045e+2, 1.23948984e+2, -1463898.4, -1633327.4, 20742.854, 0.12936178, -0.21310496, -1461395.9, 263889.16, 0.0014662774, 10.001845, 9.999663 
1.5503848e+2, 1.3394725e+2, -1480156.0, -1701563.4, -26184.625, -0.059587836, -0.26873568, -1477101.5, 150199.89, 0.0008607167, 10.00156, 9.998663 
1.5503259e+2, 1.4394781e+2, -1357463.8, -1532035.0, -3065.46, -0.21404994, -0.10529339, -1357409.9, 171887.0, 0.00037131715, 10.001473, 9.999188 
1.5503061e+2, 1.539481e+2, -1229024.6, -1435106.9, 41013.586, -0.017772976, -0.0034071964, -1221162.3, 210134.45, 0.00009663115, 10.001755, 9.999042 
1.5502681e+2, 1.6394724e+2, -1172243.8, -1410410.6, -1252.4436, 0.058645822, 0.030004052, -1172237.1, 161068.78, 0.000009881803, 10.001711, 9.998557 
1.5502039e+2, 1.7394425e+2, -1156882.5, -1365933.5, -24657.518, -0.041594025, -0.134214, -1154013.5, 81319.43, 0.00000020107916, 10.001196, 9.99844 
1.5501584e+2, 1.8394208e+2, -1039600.8, -1201624.0, 32711.15, -0.04106684, -0.21515769, -1033245.94, 104106.45, 0.0, 10.001077, 9.998956 
1.5501408e+2, 1.9394119e+2, -883052.94, -1076102.1, 55049.55, 0.10499483, -0.21884342, -868458.44, 170901.39, 0.0, 10.001486, 9.998947 
1.550105e+2, 2.0394048e+2, -811249.1, -990109.2, -2892.4539, 0.12978365, -0.18162325, -811202.4, 130164.56, 0.0, 10.0013075, 9.998946 
1.5500411e+2, 2.1393988e+2, -880959.7, -976888.25, -17798.658, -0.032724693, -0.15113086, -877763.75, -34389.42, 0.0, 10.000172, 9.99891 
1.549993e+2, 2.2393915e+2, -856439.56, -928384.9, -665.0882, -0.068332486, -0.107874565, -856433.44, -111050.43, 0.0, 9.999728, 9.998786 
1.5499687e+2, 2.3393813e+2, -676288.3, -802297.44, 11277.627, 0.0834374, -0.10214673, -675286.94, -27892.873, 0.0, 10.000334, 9.998692 
1.5499344e+2, 2.4393709e+2, -532840.8, -617704.75, 24699.666, 0.1164566, -0.09695628, -526175.5, 23227.7, 0.0, 10.000375, 9.999261 
1.5498857e+2, 2.53936e+2, -560317.8, -578822.7, 36551.55, -0.022921218, -0.15475012, -531865.9, -80455.94, 0.0, 9.999507, 9.999274 
1.5498438e+2, 2.6393506e+2, -576245.2, -587419.9, -6918.232, -0.057925235, -0.15463157, -572939.8, -219521.05, 0.0, 9.998955, 9.998804 
1.5498136e+2, 2.7393413e+2, -527361.8, -532108.5, -26002.467, 0.073795214, -0.13925698, -503624.63, -248191.86, 0.0, 9.998688, 9.998647 
1.5497826e+2, 2.839331e+2, -416152.38, -346085.88, 4763.598, 0.13673641, -0.13150057, -345763.5, -188319.28, 0.000000005626964, 9.99843, 9.9993725 
1.549748e+2, 2.939325e+2, -357008.06, -243061.17, 20760.662, 0.07046115, -0.16085173, -239396.52, -179949.11, 0.00000084127635, 9.998053, 9.999589 
1.5497155e+2, 3.0393296e+2, -237251.11, -108650.164, 32765.842, -0.017232541, -0.09768231, -100783.12, -100783.12, 0.000015268795, 9.998344, 10.0000305 
1.5497054e+2, 3.1393135e+2, -55521.926, 59400.867, 50866.81, 0.08366356, -0.26713407, 78680.88, 78680.88, 0.00008386637, 9.999209, 10.0007715 
1.6504703e+2, 1.2395427e+2, -1489592.6, -1683182.5, 53113.957, 0.15507364, -0.15460059, -1475977.6, 249256.28, 0.0014745225, 10.001823, 9.9993305 
1.6504043e+2, 1.3395202e+2, -1480619.9, -1750854.0, -10220.857, -0.02561766, -0.21711552, -1480233.9, 147024.06, 0.00086981576, 10.001776, 9.998216 
1.6503438e+2, 1.439522e+2, -1312495.1, -1480463.6, 17101.959, -0.18747528, -0.078916445, -1310771.6, 218486.58, 0.00037795518, 10.001675, 9.999433 
1.6503234e+2, 1.5395299e+2, -1225826.4, -1401657.0, -2186.6465, -0.009615323, 0.040097117, -1225799.3, 205452.97, 0.000098805474, 10.001646, 9.999318 
1.6502847e+2, 1.6395234e+2, -1144856.3, -1409284.3, -48621.92, 0.04675065, 0.0850526, -1136199.3, 197059.6, 0.000009884257, 10.001937, 9.998455 
1.6502194e+2, 1.7394932e+2, -960069.6, -1284385.1, -45435.85, -0.07113999, -0.07218142, -953824.44, 281462.16, 0.0000002904704, 10.0026, 9.998321 
1.6501714e+2, 1.839469e+2, -859127.6, -1114007.4, 17306.559, -0.077503555, -0.17116949, -857957.8, 279350.0, 0.0, 10.002331, 9.998943 
1.6501491e+2, 1.9394542e+2, -1004784.6, -1134243.3, 8532.506, 0.08444969, -0.23428012, -1004224.6, 35094.21, 0.0, 10.000652, 9.998944 
1.6501123e+2, 2.0394425e+2, -1030870.3, -1114118.1, -28306.402, 0.14680618, -0.23543897, -1022157.3, -80828.086, 0.0, 9.999881, 9.998781 
1.6500536e+2, 2.139435e+2, -847712.06, -980914.56, -42791.633, 0.061973806, -0.2015323, -835149.9, 8188.737, 0.0, 10.00049, 9.998729 
1.6500048e+2, 2.2394288e+2, -736015.7, -886322.94, -6224.801, 0.03545363, -0.13143247, -735758.3, 9588.736, 0.0, 10.000631, 9.998634 
1.6499712e+2, 2.3394245e+2, -735919.25, -843863.9, -22602.191, 0.094765574, -0.05101574, -731377.7, -84024.195, 0.0, 9.999994, 9.998561 
1.6499318e+2, 2.4394153e+2, -632984.44, -655143.94, -19092.895, 0.093097664, -0.031201594, -621989.3, -72628.09, 0.0, 9.999641, 9.999357 
1.6498843e+2, 2.5393987e+2, -518030.4, -543320.4, -19993.625, 0.006476462, -0.1587997, -507018.66, -55647.715, 0.0, 9.999731, 9.999409 
1.6498409e+2, 2.639384e+2, -484705.4, -598914.56, -36798.23, -0.023106344, -0.19626461, -473875.88, -120491.68, 0.0, 9.999815, 9.998314 
1.6498043e+2, 2.7393702e+2, -384497.8, -520324.84, -62698.664, 0.05458219, -0.16886923, -359980.97, -104576.62, 0.0, 9.999916, 9.998129 
1.6497703e+2, 2.8393593e+2, -226754.98, -270159.1, -26674.766, 0.109898165, -0.13646826, -214069.22, -56651.645, 0.00000000009995645, 9.999799, 9.999233 
1.6497397e+2, 2.9393566e+2, -175432.75, -165576.02, -31071.098, 0.12333712, -0.11918548, -139044.86, -79628.96, 0.00000051342266, 9.999344, 9.9995 
1.649707e+2, 3.0393544e+2, -221862.98, -126369.04, -2571.4182, 0.05910558, -0.111772, -126299.84, -126299.84, 0.000011747977, 9.998544, 9.999824 
1.6496979e+2, 3.1393346e+2, -313431.2, -8060.481, -18676.53, 0.1983367, -0.29591054, -6922.462, -6922.462, 0.00007014343, 9.997177, 10.001293 
1.7504793e+2, 1.2396117e+2, -1507032.8, -1722690.5, 30949.8, 0.026166206, 0.03126979, -1502679.0, 222489.4, 0.0014574766, 10.001842, 9.999046 
1.7504232e+2, 1.3395756e+2, -1504894.3, -1805755.5, -10510.359, -0.031239826, -0.13207144, -1504527.6, 122678.2, 0.00085594517, 10.001799, 9.997826 
1.7503658e+2, 1.439559e+2, -1338134.8, -1538851.9, 9626.357, -0.15182777, -0.137659, -1337674.1, 191548.92, 0.0003688444, 10.001692, 9.999028 
1.7503397e+2, 1.5395501e+2, -1253350.0, -1457726.0, 5247.288, -0.031735115, -0.14325468, -1253215.3, 178015.8, 0.00009401229, 10.001643, 9.998935 
1.7503002e+2, 1.6395432e+2, -1124355.9, -1361953.1, -31481.686, -0.009358261, -0.09722698, -1120255.3, 212982.73, 0.000008393363, 10.001915, 9.998792 
1.750241e+2, 1.7395361e+2, -932480.9, -1225393.8, -14808.924, -0.13315266, -0.06278362, -931734.06, 303511.6, 0.00000020811186, 10.002596, 9.998726 
1.750187e+2, 1.8395242e+2, -868899.5, -1136199.9, -41856.277, -0.1710383, -0.054891177, -862498.56, 274758.03, 0.0, 10.002328, 9.998798 
1.7501397e+2, 1.9395049e+2, -1021001.75, -1164337.6, -48435.984, -0.090049975, -0.14460084, -1006169.2, 33103.24, 0.0, 10.000631, 9.99875 
1.7500992e+2, 2.0394893e+2, -1039848.2, -1125278.6, -20294.3, 0.013728995, -0.17137434, -1035272.3, -93986.38, 0.0, 9.9998455, 9.998721 
1.7500685e+2, 2.1394789e+2, -857683.5, -994809.06, -12517.113, 0.14833587, -0.16219254, -856550.25, -13254.1455, 0.0, 10.000459, 9.99865 
1.7500262e+2, 2.239467e+2, -766138.3, -936980.7, -30525.525, 0.1734187, -0.12797529, -760847.94, -15538.9795, 0.0, 10.000581, 9.99831 
1.7499673e+2, 2.3394516e+2, -768939.75, -901119.8, -39999.21, 0.042655606, -0.12451465, -757778.06, -110451.19, 0.0, 9.99994, 9.998196 
1.7499177e+2, 2.4394372e+2, -635876.44, -649892.7, -24806.287, -0.02478381, -0.13990846, -617107.3, -67767.695, 0.0, 9.999596, 9.999412 
1.7498821e+2, 2.539425e+2, -522054.06, -536048.75, -12266.529, -0.0042034565, -0.2365701, -514929.44, -63585.297, 0.0, 9.999664, 9.99949 
1.7498435e+2, 2.6394144e+2, -515658.47, -656146.6, -38545.92, 0.009041171, -0.21743919, -505777.53, -152424.11, 0.0, 9.999785, 9.997933 
1.7498016e+2, 2.7394047e+2, -423436.66, -590696.75, -52403.105, 0.021899335, -0.110527135, -408374.9, -153002.22, 0.0, 9.999868, 9.99767 
1.7497642e+2, 2.8393912e+2, -242150.3, -298754.38, -49920.63, 0.05327956, -0.067156136, -213067.02, -55678.4, 0.0, 9.9997835, 9.999044 
1.7497309e+2, 2.9393777e+2, -196955.92, -196404.7, -41418.023, 0.08390813, -0.14444734, -155261.38, -95866.36, 0.00000027417164, 9.999286, 9.999316 
1.7496915e+2, 3.0393636e+2, -243479.66, -166741.28, -55871.844, 0.037195563, -0.22757173, -137332.47, -137332.47, 0.000009335192, 9.998524, 9.9995575 
1.7496747e+2, 3.1393662e+2, -321154.9, 3681.2944, -51893.305, 0.21677293, -0.1656056, 11769.952, 11769.952, 0.000059812894, 9.997068, 10.001422 
1.8504825e+2, 1.2396444e+2, -1714882.4, -1774447.1, -60491.313, -0.038698163, 0.016915549, -1677239.3, 47898.473, 0.0014119628, 10.00019, 9.999491 
1.8504412e+2, 1.3396202e+2, -1526696.1, -1763158.8, -55802.04, -0.0075471103, -0.074925795, -1514189.1, 112973.55, 0.0008198644, 10.001412, 9.998304 
1.850389e+2, 1.4396025e+2, -1313354.5, -1522905.1, -213.59964, -0.09338304, -0.11812016, -1313354.3, 215825.64, 0.0003462985, 10.001831, 9.999071 
1.8503557e+2, 1.5395854e+2, -1304872.3, -1481338.8, 10796.585, -0.013573756, -0.20935792, -1304214.1, 126980.62, 0.000084445885, 10.001274, 9.998955 
1.8503138e+2, 1.639577e+2, -1272187.3, -1418812.6, 13912.322, -0.007927084, -0.18527225, -1270878.9, 62323.992, 0.000006352812, 10.000856, 9.998906 
1.8502603e+2, 1.7395785e+2, -1202386.6, -1344406.0, -1058.6375, -0.1023579, -0.07458834, -1202378.6, 32824.82, 0.000000056960435, 10.000698, 9.998825 
1.8502071e+2, 1.8395711e+2, -1084378.1, -1259575.1, -54476.39, -0.12751602, -0.019149678, -1068820.5, 68390.78, 0.0, 10.000934, 9.998621 
1.8501538e+2, 1.939551e+2, -878120.44, -1117996.8, -76585.23, -0.063410155, -0.09642783, -855754.5, 183474.67, 0.0, 10.001713, 9.998546 
1.8501085e+2, 2.0395342e+2, -737865.0, -975335.4, -20650.521, 0.022202114, -0.1249147, -736082.56, 205161.08, 0.0, 10.001897, 9.998762 
1.8500756e+2, 2.139523e+2, -746653.2, -931418.56, -12426.163, 0.13859737, -0.13168481, -745821.25, 97431.336, 0.0, 10.001174, 9.998739 
1.8500307e+2, 2.2395082e+2, -736403.75, -935812.1, -11215.491, 0.15091532, -0.12741897, -735774.94, 9492.028, 0.0, 10.000825, 9.99821 
1.8499698e+2, 2.3394875e+2, -620029.44, -842336.1, -14406.979, 0.02351765, -0.1651814, -619099.6, 28190.205, 0.0, 10.001008, 9.998092 
1.8499193e+2, 2.4394712e+2, -464743.25, -589586.1, 12778.186, -0.029655822, -0.18582766, -463448.78, 85856.28, 0.0, 10.000861, 9.999219 
1.8498844e+2, 2.5394613e+2, -456415.03, -524469.25, -9595.759, 0.02951619, -0.23546824, -455087.88, -3779.6226, 0.0, 10.000201, 9.99931 
1.8498437e+2, 2.6394525e+2, -533577.5, -653633.8, -19455.508, 0.046177544, -0.19547631, -530503.4, -177187.02, 0.0, 9.999612, 9.9980345 
1.8497966e+2, 2.739443e+2, -520309.0, -620551.44, 1722.9625, 0.023830859, -0.09902972, -520279.4, -264945.53, 0.0, 9.99913, 9.997823 
1.8497567e+2, 2.8394288e+2, -382218.72, -373782.5, 44773.54, 0.04890118, -0.068309054, -333028.8, -175679.7, 0.0, 9.99885, 9.99898 
1.8497242e+2, 2.939412e+2, -272151.22, -249760.55, 41705.97, 0.11538498, -0.16829391, -217773.44, -158415.75, 0.00000021710767, 9.998842, 9.999164 
1.8496788e+2, 3.0393875e+2, -265189.72, -235858.47, 7474.832, 0.058003202, -0.3236039, -234063.42, -234063.42, 0.0000079127085, 9.998616, 9.999041 
1.8496539e+2, 3.1393948e+2, -232655.05, -26803.977, -34216.938, 0.2636608, -0.1615452, -21265.396, -21265.396, 0.00005116492, 9.997957, 10.000802 
1.9504766e+2, 1.239641e+2, -1633116.6, -1603302.5, -41016.055, -0.15247332, -0.1928293, -1574568.6, 150573.02, 0.0013384911, 10.000197, 10.000659 
1.9504568e+2, 1.3396533e+2, -1441617.1, -1573325.0, -8397.205, -0.007083575, -0.05106895, -1441083.9, 186045.25, 0.0007672974, 10.001371, 9.99962 
1.9504115e+2, 1.4396523e+2, -1277765.0, -1447137.8, -22880.865, -0.06994065, -0.024531411, -1274728.5, 254400.84, 0.00031672008, 10.001814, 9.999602 
1.9503692e+2, 1.539636e+2, -1273460.5, -1416287.5, -4631.5986, -0.022642035, -0.15370604, -1273310.4, 157832.36, 0.000073711046, 10.001274, 9.9994 
1.9503236e+2, 1.6396254e+2, -1280386.6, -1437624.3, 3018.0374, -0.009507743, -0.16898122, -1280328.6, 52823.867, 0.0000047225935, 10.000857, 9.998779 
1.9502759e+2, 1.7396209e+2, -1215667.0, -1372121.8, 1841.4108, -0.03348287, -0.1027969, -1215645.3, 19514.057, 0.0000000036456946, 10.000694, 9.998638 
1.9502307e+2, 1.8396102e+2, -1104858.1, -1297147.1, -34824.285, -0.0019427121, -0.058214735, -1098745.6, 38425.797, 0.0, 10.000907, 9.99838 
1.9501887e+2, 1.9395913e+2, -899004.94, -1156513.6, -40637.074, 0.100816295, -0.096573114, -892744.3, 146445.84, 0.0, 10.001689, 9.998297 
1.9501375e+2, 2.0395766e+2, -732616.7, -952483.0, -47067.754, 0.10835359, -0.0992821, -722964.4, 218238.73, 0.0, 10.001847, 9.998941 
1.9500719e+2, 2.1395668e+2, -738599.44, -902209.2, -33293.547, -0.029045284, -0.11542911, -732083.94, 111124.76, 0.0, 10.00112, 9.998966 
1.9500163e+2, 2.2395524e+2, -735839.0, -920961.9, -14221.405, -0.087673746, -0.12438022, -734752.9, 10468.037, 0.0, 10.0007715, 9.998335 
1.9499762e+2, 2.339532e+2, -620038.0, -828529.3, -1118.3184, -0.025720948, -0.17388621, -620032.0, 27210.748, 0.0, 10.00095, 9.998213 
1.9499345e+2, 2.4395162e+2, -503651.4, -659162.5, -14514.82, 0.025137618, -0.17243813, -502308.25, 46949.703, 0.0, 10.000813, 9.998764 
1.9498894e+2, 2.5395077e+2, -502127.44, -604521.56, -28676.273, 0.045866743, -0.15899749, -494643.4, -43379.67, 0.0, 10.000137, 9.99879 
1.94984e+2, 2.6394984e+2, -494213.72, -564272.75, -43739.375, 0.035246853, -0.12558775, -473205.75, -119933.14, 0.0, 9.99958, 9.998664 
1.9497867e+2, 2.7394852e+2, -474375.25, -513321.13, -8316.509, -0.003359767, -0.13557415, -472673.7, -217386.03, 0.0, 9.999075, 9.9985895 
1.9497456e+2, 2.8394717e+2, -386880.4, -374140.3, 38737.066, 0.039727323, -0.14461431, -341253.03, -183953.69, 0.0, 9.998813, 9.998994 
1.9497184e+2, 2.9394603e+2, -295875.13, -279383.63, 49751.965, 0.15668316, -0.18218786, -237198.72, -177895.23, 0.0000002787285, 9.99876, 9.998999 
1.9496672e+2, 3.0394253e+2, -321694.4, -340137.44, -17869.51, 0.06630081, -0.39676178, -310807.3, -310807.3, 0.000006930128, 9.9985695, 9.9983425 
1.9496316e+2, 3.1394222e+2, -328199.78, -200313.98, -49119.68, 0.21438769, -0.27063987, -183625.39, -183625.39, 0.00004299831, 9.997867, 9.999647 
2.0504987e+2, 1.2396687e+2, -1361179.3, -1459436.4, 74737.93, -0.03762651, -0.2579184, -1320868.5, 404245.25, 0.0012408808, 10.002033, 10.000758 
2.0504649e+2, 1.3396853e+2, -1651213.9, -1650620.3, 4997.8623, 0.020106182, -0.09495779, -1645910.4, -18814.195, 0.0007023467, 9.999825, 9.999844 
2.0504148e+2, 1.4396861e+2, -1639213.5, -1599689.6, -6094.571, -0.08384144, -0.06923553, -1598771.1, -69676.77, 0.0002832004, 9.999251, 9.999788 
2.050384e+2, 1.5396787e+2, -1257498.0, -1388007.3, -21054.412, 0.0016101975, -0.12889378, -1254185.5, 176914.64, 0.000063005726, 10.001298, 9.999582 
2.0503433e+2, 1.6396697e+2, -1091831.6, -1359249.1, -53899.453, 0.036096513, -0.13426057, -1081376.6, 251731.98, 0.0000035155435, 10.002205, 9.998667 
2.0502903e+2, 1.7396568e+2, -1122854.3, -1342736.3, -68286.31, 0.009307787, -0.13396089, -1103373.4, 131749.16, 0.0000000004928599, 10.001402, 9.998497 
2.0502432e+2, 1.8396431e+2, -1086425.8, -1278660.1, -46078.81, 0.032031164, -0.1170361, -1075951.3, 61185.68, 0.0, 10.000994, 9.998465 
2.0502047e+2, 1.9396278e+2, -966144.7, -1177623.8, -34391.1, 0.1206039, -0.13156532, -960692.5, 78459.55, 0.0, 10.001174, 9.9984 
2.0501533e+2, 2.0396142e+2, -848410.06, -1026796.6, -61556.074, 0.12153738, -0.122232534, -829230.9, 111933.46, 0.0, 10.001131, 9.998779 
2.050083e+2, 2.139602e+2, -815172.06, -961210.4, -95074.13, -0.005811774, -0.1405283, -768312.56, 74860.58, 0.0, 10.00069, 9.99877 
2.0500246e+2, 2.2395882e+2, -791617.1, -921619.4, -61403.063, -0.055449642, -0.14518228, -767200.75, -22015.615, 0.0, 10.000277, 9.998566 
2.049985e+2, 2.3395714e+2, -752737.94, -861382.4, -46160.85, 0.021697853, -0.18361592, -735773.94, -88572.125, 0.0, 9.999906, 9.998488 
2.0499423e+2, 2.4395575e+2, -676370.9, -749875.6, -37051.09, 0.08274871, -0.17764638, -660935.94, -111720.82, 0.0, 9.999659, 9.998695 
2.0498945e+2, 2.539547e+2, -581701.75, -657702.7, -31640.195, 0.109394886, -0.17300068, -570253.9, -119029.59, 0.0, 9.999653, 9.998659 
2.0498404e+2, 2.6395366e+2, -448979.38, -491386.34, -21099.805, 0.07793173, -0.16354184, -440269.8, -87035.82, 0.0, 9.99968, 9.999114 
2.0497797e+2, 2.739524e+2, -338748.75, -388404.5, -20608.934, -0.0087386565, -0.21953386, -331309.75, -76064.12, 0.0, 9.999762, 9.99911 
2.0497377e+2, 2.839513e+2, -275314.47, -325178.75, 24266.854, 0.043702308, -0.22886866, -265454.5, -108200.47, 0.0, 9.9996, 9.998952 
2.049717e+2, 2.9395068e+2, -253484.97, -269006.0, 29031.668, 0.2541263, -0.204157, -231194.47, -171939.45, 0.00000036340376, 9.999099, 9.998905 
2.0496587e+2, 3.039475e+2, -290981.25, -320812.78, -2882.3884, 0.121921934, -0.3841753, -290705.3, -290705.3, 0.000006339283, 9.998773, 9.998377 
2.0496053e+2, 3.1394702e+2, -271630.56, -211194.73, -15996.041, 0.14318123, -0.28115392, -207222.08, -207222.08, 0.00003635789, 9.998447, 9.99928 
2.1505432e+2, 1.2397269e+2, -1428415.6, -1599346.1, -23664.012, 0.16985805, -0.18092789, -1425200.1, 299854.8, 0.0011227193, 10.002033, 9.999798 
2.1504639e+2, 1.3397175e+2, -1700028.4, -1765499.5, -72930.12, 0.010220972, -0.19588473, -1652823.9, -25761.248, 0.0006268979, 9.999881, 9.999031 
2.1503974e+2, 1.4397056e+2, -1650666.1, -1632416.1, 48111.17, -0.20239678, -0.2395418, -1592572.3, -63498.363, 0.0002465844, 9.999289, 9.999548 
2.1503983e+2, 1.5397134e+2, -1263709.1, -1405267.0, 63142.93, -0.0039177644, -0.13166538, -1239637.3, 191429.72, 0.000052325075, 10.001314, 9.999457 
2.1503706e+2, 1.6397089e+2, -1101354.4, -1373233.1, -80009.17, 0.07248706, -0.0815831, -1079556.8, 253514.89, 0.000002586899, 10.002179, 9.998585 
2.1503015e+2, 1.7396861e+2, -1130169.8, -1354127.8, -92654.164, -0.03276935, -0.17557126, -1096807.5, 138285.94, 0.000000000052014764, 10.001388, 9.998425 
2.1502428e+2, 1.839669e+2, -1063764.1, -1226141.1, -47965.734, -0.08500424, -0.20372528, -1050653.8, 86455.125, 0.0, 10.000966, 9.998841 
2.1501999e+2, 1.9396599e+2, -936446.8, -1112168.4, -21017.55, -0.06096822, -0.20050178, -933967.94, 105147.46, 0.0, 10.001156, 9.998858 
2.1501547e+2, 2.039647e+2, -889497.6, -1103893.8, -81789.914, 0.00879265, -0.18691468, -861858.7, 79268.516, 0.0, 10.001096, 9.998266 
2.1501063e+2, 2.1396281e+2, -866777.56, -1054443.3, -106996.73, 0.14354414, -0.20982581, -818297.7, 24849.0, 0.0, 10.000628, 9.998158 
2.1500532e+2, 2.239614e+2, -776544.06, -874473.7, -81530.64, 0.19119002, -0.19867635, -730404.7, 14756.034, 0.0, 10.000211, 9.9989195 
2.149994e+2, 2.339606e+2, -731991.94, -798412.9, -52106.74, 0.108484514, -0.19658339, -703412.06, -56244.832, 0.0, 9.999823, 9.99896 
2.149941e+2, 2.4395949e+2, -660315.06, -708590.5, -44233.953, 0.08867588, -0.20198238, -634061.56, -84885.055, 0.0, 9.999625, 9.998996 
2.1498975e+2, 2.5395793e+2, -572682.8, -620424.25, -26646.43, 0.15885712, -0.2748191, -560778.6, -109588.76, 0.0, 9.999574, 9.998954 
2.1498428e+2, 2.639567e+2, -439643.8, -463027.9, -23375.537, 0.121052444, -0.30763766, -425199.3, -71998.836, 0.0, 9.99964, 9.999325 
2.1497741e+2, 2.7395582e+2, -337002.28, -370631.63, -10095.392, -0.05766586, -0.34940043, -334204.44, -78995.78, 0.0, 9.999698, 9.999264 
2.1497306e+2, 2.839552e+2, -277845.47, -320964.78, 305.45917, -0.0016830119, -0.32204586, -277843.3, -120629.34, 0.0, 9.999564, 9.998996 
2.1497187e+2, 2.9395518e+2, -260406.78, -273585.16, 15829.408, 0.34439808, -0.23846251, -249849.9, -190637.28, 0.0000004878426, 9.999055, 9.998896 
2.1496527e+2, 3.0395368e+2, -244033.02, -220356.19, -16643.297, 0.17170332, -0.28426227, -211770.4, -211770.4, 0.0000063211505, 9.998756, 9.999077 
2.1495725e+2, 3.13954e+2, -263881.2, -180769.69, -26890.31, -0.06139542, -0.1747168, -172828.27, -172828.27, 0.0000317033, 9.998378, 9.999529 
2.2505574e+2, 1.23978764e+2, -1709731.9, -1774133.4, 12852.522, 0.20626992, -0.10741745, -1707261.6, 17734.25, 0.0009915447, 10.000245, 9.999469 
2.2504763e+2, 1.33977e+2, -1289457.9, -1576131.0, -1875.2837, 0.008313496, -0.19973907, -1289445.6, 337564.63, 0.000545711, 10.0027485, 9.998941 
2.2504091e+2, 1.4397508e+2, -1099884.0, -1434527.9, 146377.86, -0.21661414, -0.28301185, -1044892.9, 484135.03, 0.00020902291, 10.003359, 9.99895 
2.2504126e+2, 1.539756e+2, -1311496.6, -1500519.5, 114968.78, 0.012493168, -0.13542958, -1257178.5, 173845.72, 0.000042237294, 10.001297, 9.998816 
2.250386e+2, 1.6397493e+2, -1362537.0, -1492830.3, -34287.55, 0.10257734, -0.07525537, -1354064.9, -21033.895, 0.0000020119714, 10.000354, 9.998647 
2.2503145e+2, 1.7397238e+2, -1181043.5, -1367876.5, -46261.49, -0.018450335, -0.20840357, -1170216.1, 64837.863, 0.0, 10.000983, 9.998531 
2.2502558e+2, 1.8397057e+2, -1013098.56, -1203465.5, 8071.128, -0.06714963, -0.25146198, -1012757.0, 124312.85, 0.0, 10.001325, 9.998819 
2.2502159e+2, 1.9396986e+2, -940399.0, -1118873.3, -11291.03, -0.013409895, -0.2236315, -939687.5, 99387.36, 0.0, 10.001162, 9.998806 
2.2501697e+2, 2.0396869e+2, -943875.7, -1123221.0, -86832.875, 0.07173883, -0.19691908, -908723.94, 32362.023, 0.0, 10.0006895, 9.998333 
2.250114e+2, 2.1396677e+2, -989260.5, -1102918.9, -71271.31, 0.206012, -0.23390123, -954935.1, -111828.67, 0.0, 9.999742, 9.998255 
2.2500561e+2, 2.2396542e+2, -876040.56, -900263.2, 17044.29, 0.241847, -0.23089984, -867242.75, -122122.77, 0.0, 9.999432, 9.99912 
2.2499958e+2, 2.3396482e+2, -691212.94, -754270.25, 16616.96, 0.14018747, -0.23178858, -687102.06, -39977.793, 0.0, 9.999998, 9.999176 
2.2499414e+2, 2.439639e+2, -572042.5, -647036.94, 10434.657, 0.10679596, -0.23622479, -570617.75, -21486.242, 0.0, 10.000148, 9.99917 
2.2498953e+2, 2.5396255e+2, -540590.4, -584396.9, 6896.0376, 0.17839605, -0.3056418, -539530.44, -88387.17, 0.0, 9.9997015, 9.999143 
2.2498389e+2, 2.6396164e+2, -501315.13, -492361.44, 12311.108, 0.14238623, -0.31580085, -483738.47, -130587.04, 0.0, 9.999213, 9.99933 
2.2497697e+2, 2.739613e+2, -476799.06, -437392.44, -432.41177, -0.019819397, -0.30249313, -437387.72, -182232.45, 0.0, 9.9987335, 9.9992695 
2.2497228e+2, 2.8396088e+2, -404951.3, -347490.9, 26960.883, 0.018940335, -0.27103332, -336821.72, -179662.06, 0.00000000075483947, 9.99853, 9.999319 
2.249703e+2, 2.9396057e+2, -290876.6, -252886.4, 52797.043, 0.30472443, -0.25233594, -215771.42, -156609.19, 0.00000073344995, 9.998687, 9.99922 
2.2496335e+2, 3.0395997e+2, -210316.03, -120111.74, 43527.316, 0.11585785, -0.25548527, -102533.5, -102533.5, 0.000007274646, 9.998617, 9.999831 
2.2495584e+2, 3.139607e+2, -245906.48, -85466.57, -4232.285, -0.01989891, -0.1952285, -85355.01, -85355.01, 0.000030117351, 9.99811, 10.0003195 
2.3505387e+2, 1.2398497e+2, -1679775.0, -1722251.4, 70002.23, -0.041922424, -0.047651015, -1627860.1, 97077.836, 0.0008595536, 10.0003, 9.999797 
2.3505e+2, 1.3398404e+2, -1242502.9, -1489052.6, 88114.55, -0.048017666, -0.110185385, -1214249.3, 412691.84, 0.00046458573, 10.002785, 9.999528 
2.3504463e+2, 1.4398189e+2, -1166658.8, -1562857.1, 76618.5, -0.19433235, -0.212181, -1152358.1, 376600.8, 0.00017252294, 10.003319, 9.998087 
2.350425e+2, 1.5398058e+2, -1379930.1, -1649338.9, 43037.215, -0.0138560925, -0.14508824, -1373222.1, 57750.676, 0.000033446406, 10.001324, 9.997783 
2.3503876e+2, 1.63979e+2, -1356084.3, -1475364.0, -27184.926, 0.067891404, -0.12248743, -1350180.8, -17193.14, 0.0000017722703, 10.000339, 9.9987755 
2.3503277e+2, 1.739769e+2, -1158474.1, -1319771.0, -16349.134, -0.0015092925, -0.2370321, -1156833.6, 78171.59, 0.0000000001389195, 10.0009775, 9.998865 
2.3502798e+2, 1.8397526e+2, -1052209.0, -1273101.3, -701.962, 0.028112104, -0.26197743, -1052206.8, 84813.57, 0.0, 10.001277, 9.998366 
2.3502502e+2, 1.9397435e+2, -982927.3, -1199990.9, -13606.482, 0.19985065, -0.20074655, -982077.75, 56953.473, 0.0, 10.001131, 9.998264 
2.3501955e+2, 2.0397334e+2, -902882.7, -1024776.25, -124865.67, 0.2485637, -0.15896124, -824883.6, 116157.9, 0.0, 10.000633, 9.999035 
2.350104e+2, 2.1397208e+2, -937643.2, -983911.9, -100697.95, 0.117424436, -0.21467797, -857456.3, -14403.91, 0.0, 9.999687, 9.999099 
2.3500319e+2, 2.2397089e+2, -884747.1, -903286.8, 28676.846, 0.043545354, -0.24209821, -863879.1, -118816.47, 0.0, 9.999371, 9.999129 
2.3499885e+2, 2.3396976e+2, -707810.5, -772510.44, 44336.375, 0.053302523, -0.28378057, -685276.6, -38203.9, 0.0, 9.9999275, 9.999087 
2.3499407e+2, 2.439689e+2, -573069.75, -637382.6, -8765.618, 0.06955672, -0.28157198, -571896.44, -22815.834, 0.0, 10.000099, 9.999258 
2.3498857e+2, 2.5396848e+2, -545425.2, -577449.06, -3720.5088, 0.09741849, -0.26795894, -544998.6, -93913.3, 0.0, 9.999629, 9.999226 
2.349827e+2, 2.6396847e+2, -518984.2, -519638.7, -11534.96, 0.08780615, -0.18711765, -507771.84, -154684.75, 0.0, 9.999175, 9.999161 
2.3497643e+2, 2.7396885e+2, -498665.22, -467052.25, -11233.73, 0.03709156, -0.0813358, -463466.94, -208380.88, 0.0, 9.998664, 9.999102 
2.3497114e+2, 2.8396836e+2, -368722.7, -262108.97, 25430.305, 0.03839971, -0.073744595, -256353.81, -99262.445, 0.00000003119879, 9.998488, 9.999925 
2.3496677e+2, 2.9396677e+2, -255219.47, -164121.86, 66169.4, 0.06639273, -0.2510229, -129339.58, -70235.14, 0.0000012360658, 9.998618, 9.999866 
2.3495987e+2, 3.039664e+2, -154839.83, 5156.394, 25257.203, -0.10707403, -0.3037012, 9048.831, 9048.831, 0.000009095323, 9.998577, 10.000712 
2.3495588e+2, 3.1396708e+2, -163718.28, 103094.46, -24827.533, 0.14430182, -0.3387503, 105385.055, 105385.055, 0.00003154515, 9.99803, 10.001656 
2.4505445e+2, 1.23989426e+2, -1421302.4, -1660071.4, 21275.816, -0.10880483, -0.049851857, -1419421.5, 305472.4, 0.0007335385, 10.002349, 9.999237 
2.4505244e+2, 1.3398889e+2, -1454271.0, -1634387.4, -39267.7, -0.012523464, -0.03213611, -1446082.4, 180813.33, 0.00038622954, 10.001522, 9.999139 
2.450475e+2, 1.4398675e+2, -1454892.0, -1660717.8, -90873.63, -0.12636529, -0.1302183, -1420512.9, 108400.5, 0.00013762695, 10.00116, 9.998452 
2.4504401e+2, 1.5398473e+2, -1316629.4, -1568807.3, -35357.17, -0.00041362617, -0.17845486, -1311765.9, 119163.99, 0.000025817635, 10.001554, 9.9982195 
2.4503948e+2, 1.639829e+2, -1203760.8, -1414469.5, -19885.887, 0.054172277, -0.20007694, -1201900.5, 131044.77, 0.0000016011192, 10.001439, 9.998661 
2.4503368e+2, 1.7398116e+2, -1246548.9, -1382188.0, -51516.598, 0.023010287, -0.26214126, -1229201.3, 5759.3076, 0.0000000006420841, 10.0004635, 9.998682 
2.45029e+2, 1.8397972e+2, -1253962.3, -1351296.9, -24490.334, 0.07936296, -0.26448083, -1248147.6, -111173.15, 0.0, 9.999809, 9.998535 
2.4502592e+2, 1.9397868e+2, -1196427.8, -1280442.9, 7097.098, 0.25858805, -0.2363009, -1195832.5, -156845.69, 0.0, 9.999566, 9.998465 
2.4502002e+2, 2.0397787e+2, -1002524.06, -1040592.9, -72658.6, 0.27697217, -0.19804502, -946448.0, -5452.714, 0.0, 9.999812, 9.999323 
2.4501008e+2, 2.139774e+2, -777927.06, -872414.56, -101285.22, 0.07114533, -0.20448352, -713409.2, 129589.26, 0.0, 10.000645, 9.999402 
2.4500254e+2, 2.2397651e+2, -701912.2, -832193.06, 1918.5542, -0.020628782, -0.2117507, -701883.94, 43122.324, 0.0, 10.000695, 9.998979 
2.4499866e+2, 2.3397498e+2, -776835.4, -825590.75, -61.97484, 0.06397087, -0.27503762, -776835.3, -129813.76, 0.0, 9.999544, 9.998906 
2.4499394e+2, 2.4397418e+2, -724682.1, -679383.25, -31677.594, 0.1093312, -0.27114597, -663090.8, -114061.17, 0.0, 9.998925, 9.9995365 
2.4498798e+2, 2.5397444e+2, -594740.8, -564048.2, -21530.459, 0.10428505, -0.22270209, -552954.56, -101927.0, 0.0, 9.999132, 9.9995575 
2.4498187e+2, 2.639746e+2, -489505.75, -479705.78, 1814.2412, 0.08682551, -0.1515998, -479380.7, -126353.93, 0.0, 9.999259, 9.999401 
2.4497575e+2, 2.7397454e+2, -399602.66, -391157.9, 21602.53, 0.07757418, -0.11229539, -373368.97, -118340.26, 0.0, 9.9992285, 9.999348 
2.4497007e+2, 2.839741e+2, -313389.03, -225863.27, 68027.09, 0.07056161, -0.11705372, -188738.11, -31704.621, 0.00000009388162, 9.998832, 10.000006 
2.449646e+2, 2.939732e+2, -356428.34, -202553.66, 47306.598, 0.029220486, -0.23354632, -189173.4, -130131.945, 0.0000018075962, 9.997889, 9.999948 
2.4495769e+2, 3.0397305e+2, -291081.34, -89078.05, -15269.854, -0.13710465, -0.25651526, -87930.29, -87930.29, 0.000010445255, 9.997772, 10.00045 
2.4495484e+2, 3.1397274e+2, -28337.908, 208395.38, -198153.25, 0.20687418, -0.36479133, 320843.3, 320843.3, 0.00003251449, 9.998815, 10.001989 
2.5505704e+2, 1.23992264e+2, -1515027.8, -1863749.0, -39983.555, -0.12194367, -0.10819613, -1510502.0, 214360.36, 0.0006147494, 10.002384, 9.997824 
2.5505483e+2, 1.3399158e+2, -1540480.0, -1818142.8, -66177.8, 0.0600103, 0.023301566, -1525513.9, 101360.03, 0.00031221876, 10.001545, 9.997865 
2.550495e+2, 1.4398965e+2, -1348544.6, -1442111.5, -85652.57, -0.061742496, -0.047165573, -1297731.6, 231159.3, 0.00010529937, 10.001165, 9.999949 
2.550455e+2, 1.5398802e+2, -1184153.5, -1297728.4, -13716.22, -0.023164658, -0.24240753, -1182520.5, 248375.52, 0.000019009012, 10.001566, 10.000074 
2.5504047e+2, 1.6398655e+2, -1233225.5, -1468672.1, -56831.766, -0.005889974, -0.31449682, -1220225.4, 112679.26, 0.0000013062046, 10.001413, 9.998301 
2.55034e+2, 1.739852e+2, -1289547.1, -1469958.0, -82469.61, -0.0075013973, -0.2768745, -1257530.4, -22611.121, 0.000000000635992, 10.000463, 9.998077 
2.5502846e+2, 1.8398398e+2, -1203583.4, -1241744.6, -41201.73, 0.027158001, -0.2588781, -1177258.6, -40326.77, 0.0, 9.999784, 9.999301 
2.550241e+2, 1.9398281e+2, -1132872.9, -1143920.3, 3393.1428, 0.1034406, -0.33765158, -1131913.9, -92971.555, 0.0, 9.999542, 9.999414 
2.5501826e+2, 2.0398225e+2, -1024311.06, -1070795.8, -50443.043, 0.10743381, -0.3190285, -992013.3, -51065.45, 0.0, 9.999748, 9.999146 
2.5501016e+2, 2.139826e+2, -804956.4, -920023.9, -63753.87, -0.0004921036, -0.2142733, -776614.1, 66331.89, 0.0, 10.000605, 9.999096 
2.5500342e+2, 2.2398213e+2, -727538.0, -872228.6, -40266.758, -0.014314791, -0.14972983, -717086.8, 27865.447, 0.0, 10.000638, 9.998731 
2.5499877e+2, 2.3398039e+2, -801580.9, -865274.9, -37779.465, 0.10715222, -0.21094017, -784016.2, -137044.64, 0.0, 9.99949, 9.99866 
2.549936e+2, 2.4397968e+2, -698779.8, -615382.06, -34484.91, 0.1689187, -0.20622769, -602969.9, -53990.844, 0.0, 9.998883, 9.999995 
2.5498754e+2, 2.5398034e+2, -566071.75, -488953.22, -9371.508, 0.13313285, -0.17187211, -487830.75, -36860.246, 0.0, 9.999062, 10.000108 
2.5498122e+2, 2.6398e+2, -449042.03, -385510.22, -3857.949, 0.08398915, -0.209279, -385276.78, -32305.805, 0.0, 9.999215, 10.000071 
2.549747e+2, 2.7397826e+2, -361472.72, -298046.88, 27784.629, 0.033395335, -0.40752456, -287597.06, -32612.174, 0.0, 9.999162, 10.000025 
2.5496885e+2, 2.83978e+2, -353044.9, -292977.56, 27754.496, 0.05042768, -0.41102505, -282117.06, -125129.72, 0.00000013919723, 9.998774, 9.99957 
2.5496352e+2, 2.939798e+2, -405803.25, -283611.97, 15821.321, 0.118146695, -0.20181055, -281596.66, -222622.4, 0.0000021199414, 9.9978, 9.999433 
2.5495657e+2, 3.039798e+2, -394116.13, -297127.56, 13856.896, -0.039810255, -0.11612351, -295186.66, -295186.66, 0.000010666905, 9.997745, 9.999037 
2.5495228e+2, 3.1397733e+2, -94753.6, 83151.836, -156116.05, 0.035573322, -0.28651926, 173878.86, 173878.86, 0.00003213242, 9.998753, 10.001165 
2.6505962e+2, 1.2399527e+2, -1704214.5, -1922503.4, -57049.492, -0.021444382, -0.13946258, -1690203.9, 34624.992, 0.0005062773, 10.00094, 9.99811 
2.6505682e+2, 1.339942e+2, -1556702.9, -1777581.8, 36025.813, 0.12716272, -0.09444056, -1550975.5, 75866.68, 0.0002464049, 10.0012045, 9.998314 
2.65051e+2, 1.4399257e+2, -1365264.8, -1463570.8, 61319.445, -0.020859407, -0.15355735, -1335829.6, 193026.8, 0.00007758306, 10.001115, 9.999827 
2.6504686e+2, 1.5399143e+2, -1298920.4, -1371783.4, -27830.14, -0.0042832955, -0.28193545, -1289506.9, 141353.27, 0.000013419433, 10.000861, 9.999906 
2.6504168e+2, 1.639905e+2, -1299652.9, -1456349.1, -133134.8, 0.013396288, -0.3088845, -1223523.5, 109341.914, 0.0000010267595, 10.000762, 9.998705 
2.6503506e+2, 1.7398976e+2, -1204599.8, -1377940.0, -93172.92, 0.03708913, -0.25589275, -1164018.5, 70855.71, 0.0000000012219834, 10.000816, 9.998543 
2.6502872e+2, 1.8398885e+2, -1078152.1, -1153488.8, -16871.574, 0.041368935, -0.24262975, -1074546.4, 62337.03, 0.0, 10.000529, 9.999547 
2.650228e+2, 1.9398768e+2, -1098126.3, -1103840.6, -38664.453, 0.018445188, -0.3414064, -1062213.6, -23320.457, 0.0, 9.999684, 9.999622 
2.6501673e+2, 2.039871e+2, -1075507.9, -1077800.5, -61012.008, 0.006410261, -0.34388444, -1015631.44, -74733.02, 0.0, 9.999332, 9.999293 
2.6501036e+2, 2.1398734e+2, -936829.7, -970452.1, -50822.7, 0.0097201085, -0.2621046, -900109.94, -57212.066, 0.0, 9.99965, 9.9992075 
2.6500425e+2, 2.2398706e+2, -831190.75, -899746.06, -25820.447, 0.047884386, -0.19449429, -822553.9, -77651.32, 0.0, 9.999828, 9.998935 
2.6499873e+2, 2.3398608e+2, -749560.0, -819705.9, -9761.41, 0.1456074, -0.19929726, -748226.94, -101312.27, 0.0, 9.999757, 9.998849 
2.649929e+2, 2.439855e+2, -633474.7, -594197.44, 14377.302, 0.18931252, -0.18504204, -589497.2, -40576.36, 0.0, 9.999375, 9.999905 
2.6498646e+2, 2.5398543e+2, -648648.2, -538453.4, -15459.242, 0.14906941, -0.2129219, -536325.7, -85406.46, 0.0, 9.998545, 10.000011 
2.6498002e+2, 2.639849e+2, -591638.3, -436858.3, -28530.21, 0.09843803, -0.2755964, -431766.9, -78844.95, 0.0, 9.998162, 10.000221 
2.6497373e+2, 2.7398384e+2, -449111.3, -319386.53, -45574.07, 0.06102786, -0.42417738, -304976.44, -50046.94, 0.0, 9.998476, 10.000205 
2.6496768e+2, 2.8398404e+2, -371933.9, -300526.75, -61732.027, 0.06918426, -0.39211625, -264917.03, -107989.86, 0.00000017298198, 9.998631, 9.999588 
2.649615e+2, 2.9398578e+2, -308710.03, -230159.63, -47140.445, 0.11048004, -0.191117, -208077.16, -149163.33, 0.0000022646286, 9.998431, 9.999496 
2.649548e+2, 3.039849e+2, -340649.28, -329848.0, 61619.387, -0.01574033, -0.1715067, -273393.03, -273393.03, 0.000010678338, 9.998351, 9.998527 
2.6495138e+2, 3.1398326e+2, -158437.44, 26694.232, -61800.434, 0.096528836, -0.20273131, 45428.566, 45428.566, 0.000032089163, 9.998415, 10.00094 
2.7506196e+2, 1.23998284e+2, -1565287.6, -1640237.5, -81101.19, 0.0755923, -0.15610611, -1513421.9, 211373.14, 0.00041453895, 10.000962, 10.000037 
2.7505803e+2, 1.339968e+2, -1395571.0, -1453629.4, 45144.57, 0.11132693, -0.37235036, -1370927.8, 255872.48, 0.00019313562, 10.001249, 10.000514 
2.750518e+2, 1.4399558e+2, -1483772.6, -1715153.1, 42763.563, -0.07285022, -0.43290704, -1476122.1, 52687.215, 0.000056136425, 10.00114, 9.998089 
2.75048e+2, 1.53995e+2, -1451142.0, -1688183.3, -30216.803, 0.00003577717, -0.28819245, -1447350.8, -16529.273, 0.000009372096, 10.000869, 9.99773 
2.7504307e+2, 1.6399476e+2, -1217285.3, -1284475.6, -138500.83, 0.05526263, -0.18111412, -1108363.4, 224464.08, 0.0000008660051, 10.000757, 9.999883 
2.7503654e+2, 1.7399476e+2, -1099707.1, -1155552.8, -85359.18, 0.08480653, -0.20871073, -1037819.75, 197006.38, 0.000000004874734, 10.000801, 10.0000725 
2.7502954e+2, 1.8399434e+2, -1107198.9, -1202800.4, -51493.887, 0.057638023, -0.21646771, -1084739.1, 52090.27, 0.0, 10.0004835, 9.999229 
2.7502185e+2, 1.9399339e+2, -1136886.3, -1177196.8, -63971.684, -0.06324783, -0.24398847, -1089969.9, -51131.598, 0.0, 9.999659, 9.999127 
2.7501532e+2, 2.0399256e+2, -1050210.0, -1018818.06, -58819.152, -0.080860086, -0.2636208, -973636.6, -32790.68, 0.0, 9.999299, 9.999719 
2.7501044e+2, 2.1399164e+2, -905759.9, -893605.7, -31935.215, 0.039669488, -0.35102326, -867174.5, -24320.342, 0.0, 9.999593, 9.9997635 
2.750049e+2, 2.239913e+2, -803052.44, -823748.94, -32350.418, 0.11454219, -0.3457134, -779435.44, -34578.133, 0.0, 9.999752, 9.9994955 
2.7499837e+2, 2.3399188e+2, -718870.44, -740183.75, -7028.1694, 0.11855076, -0.25022054, -716761.56, -69909.04, 0.0, 9.999687, 9.999431 
2.7499163e+2, 2.4399151e+2, -684193.4, -684145.2, -19851.432, 0.1140682, -0.22018965, -664317.8, -115461.47, 0.0, 9.999315, 9.999313 
2.7498454e+2, 2.539896e+2, -711749.25, -653418.3, -41200.836, 0.0857313, -0.35873994, -632104.75, -181229.88, 0.0, 9.998473, 9.999259 
2.7497807e+2, 2.6398918e+2, -627254.06, -495675.1, -28538.063, 0.07317819, -0.35097256, -489752.13, -136872.19, 0.0, 9.998102, 9.9998455 
2.7497268e+2, 2.7399108e+2, -481326.66, -373555.6, -26809.77, 0.09195505, -0.16503263, -367254.63, -112391.06, 0.00000000009324417, 9.99842, 9.999861 
2.7496642e+2, 2.8399202e+2, -339567.2, -226089.42, -72473.914, 0.0641659, -0.06436068, -190786.1, -33931.8, 0.00000023612336, 9.9986, 10.000113 
2.749583e+2, 2.9399097e+2, -271907.53, -139965.67, -48327.227, -0.07499907, -0.20781973, -124158.34, -65296.92, 0.0000024951785, 9.998364, 10.000149 
2.7495202e+2, 3.039884e+2, -312005.53, -255478.0, 57981.477, -0.14106116, -0.42413366, -219238.34, -219238.34, 0.000011113361, 9.9983015, 9.999052 
2.749518e+2, 3.1399047e+2, -156758.08, 63714.883, -54908.707, 0.2602575, -0.12717202, 76632.97, 76632.97, 0.000032683794, 9.998278, 10.001257 
2.8506327e+2, 1.2400111e+2, -1528909.9, -1592082.9, 29675.271, 0.111369856, -0.3139163, -1517156.6, 207603.36, 0.0003410361, 10.001087, 10.000301 
2.8506e+2, 1.3400051e+2, -1303138.5, -1371256.1, 3030.4736, 0.16222565, -0.47198835, -1303003.9, 323752.9, 0.00015204525, 10.001737, 10.000834 
2.8505376e+2, 1.4400011e+2, -1421546.3, -1696007.5, -46038.8, -0.0073427353, -0.46525502, -1414029.4, 114729.47, 0.000040681283, 10.001612, 9.997996 
2.8504872e+2, 1.5399915e+2, -1521996.4, -1738798.5, 12727.457, 0.018373635, -0.34420866, -1521251.8, -90474.67, 0.0000066741927, 10.000442, 9.997597 
2.850431e+2, 1.6399884e+2, -1398759.5, -1358191.3, -21420.467, 0.053135496, -0.2388114, -1348974.9, -16189.355, 0.00000074756446, 9.999463, 10.000002 
2.8503653e+2, 1.739992e+2, -1375180.4, -1274599.5, -84890.63, 0.10761002, -0.24095859, -1226221.0, 8561.323, 0.000000006090155, 9.99885, 10.000202 
2.8502953e+2, 1.8399923e+2, -1291874.3, -1252164.5, -53353.81, 0.085142665, -0.22792439, -1215091.0, -78309.05, 0.0, 9.999051, 9.9995775 
2.8502187e+2, 1.9399878e+2, -1003874.06, -1074569.9, -12756.156, -0.059858438, -0.24001266, -1001642.8, 37142.305, 0.0, 10.000402, 9.9994755 
2.8501526e+2, 2.0399827e+2, -854259.94, -917168.1, -5806.4624, -0.07954664, -0.25018933, -853728.5, 87060.94, 0.0, 10.000614, 9.999776 
2.8501013e+2, 2.1399747e+2, -979670.06, -927249.94, -33315.285, 0.07877694, -0.3267177, -911070.44, -68273.29, 0.0, 9.999083, 9.999773 
2.8500417e+2, 2.2399713e+2, -959517.9, -860820.4, -14949.167, 0.13457529, -0.33769417, -858605.8, -113805.875, 0.0, 9.998519, 9.99983 
2.8499708e+2, 2.3399746e+2, -740750.75, -707613.5, -11810.674, 0.043588676, -0.30372748, -703834.9, -57039.715, 0.0, 9.999355, 9.99981 
2.849902e+2, 2.4399708e+2, -647508.75, -687875.94, -41329.41, 0.027633978, -0.2890112, -621697.8, -72899.33, 0.0, 9.999648, 9.999129 
2.8498366e+2, 2.539956e+2, -628949.8, -641048.56, -42728.66, 0.12403618, -0.36265954, -591844.44, -141030.17, 0.0, 9.999159, 9.999014 
2.8497717e+2, 2.6399517e+2, -571001.3, -516523.06, 20942.438, 0.1488478, -0.3214574, -509402.97, -156582.58, 0.0, 9.9986925, 9.999417 
2.8497097e+2, 2.739965e+2, -548443.2, -452377.75, 4226.852, 0.096685156, -0.15290065, -452192.13, -197381.36, 0.0000000018932573, 9.99816, 9.999443 
2.8496447e+2, 2.8399694e+2, -467676.75, -301502.4, -55498.715, 0.055501726, -0.07175057, -284671.7, -127866.01, 0.00000028816427, 9.997777, 9.999997 
2.849571e+2, 2.9399565e+2, -369787.97, -186459.14, -92488.4, 0.007889027, -0.22937334, -147906.55, -89093.75, 0.0000027347362, 9.997697, 10.000152 
2.8495103e+2, 3.0399245e+2, -327184.34, -204226.92, 9268.757, -0.048610184, -0.5358392, -203532.16, -203532.16, 0.000011990512, 9.997933, 9.999585 
2.8494915e+2, 3.1399557e+2, -178479.19, 47473.242, -128678.56, 0.18857537, -0.18538325, 105733.11, 105733.11, 0.000033758955, 9.998151, 10.0012045 
2.9506302e+2, 1.2400393e+2, -1617433.0, -1800599.1, 14714.655, -0.0660173, -0.5981839, -1616258.5, 108463.875, 0.00028049768, 10.00118, 9.998832 
2.9506245e+2, 1.340053e+2, -1412479.3, -1610499.8, 29421.795, 0.21164049, -0.39743075, -1408200.3, 218511.4, 0.000119661214, 10.001785, 9.99917 
2.9505673e+2, 1.4400597e+2, -1311022.4, -1471197.6, -94625.81, 0.1070258, -0.2612962, -1267141.9, 261564.38, 0.000029635712, 10.001624, 9.9995365 
2.9504892e+2, 1.5400378e+2, -1391546.4, -1467734.6, -27430.514, -0.024668548, -0.44900998, -1382698.0, 48029.02, 0.0000047316526, 10.000439, 9.999457 
2.950416e+2, 1.6400275e+2, -1468736.1, -1499931.8, -51716.97, -0.05643741, -0.47511736, -1430316.0, -97576.43, 0.00000054097734, 9.999452, 9.999032 
2.9503492e+2, 1.7400321e+2, -1461261.0, -1455197.3, -98588.99, 0.044989306, -0.34388524, -1359593.5, -124851.87, 0.0000000012704189, 9.998866, 9.998951 
2.9502854e+2, 1.8400359e+2, -1224495.6, -1111935.3, -14499.896, 0.06361348, -0.27057993, -1110097.4, 26642.785, 0.0, 9.999044, 10.000546 
2.9502267e+2, 1.9400379e+2, -924551.7, -903343.44, 45102.285, -0.03897241, -0.33783108, -867615.5, 171118.52, 0.0, 10.000373, 10.000666 
2.950163e+2, 2.0400415e+2, -888529.3, -972389.9, -57156.94, -0.052749705, -0.30877966, -859571.94, 81157.58, 0.0, 10.000548, 9.999427 
2.9500914e+2, 2.1400476e+2, -1025715.56, -1004734.0, -84278.07, 0.056664724, -0.19516535, -930296.3, -87568.68, 0.0, 9.999009, 9.999273 
2.9500195e+2, 2.2400448e+2, -961464.3, -847268.6, 2002.0607, 0.04739472, -0.17954148, -847233.5, -102502.39, 0.0, 9.998443, 9.999961 
2.9499474e+2, 2.3400283e+2, -738350.2, -683976.3, 27062.773, -0.13611647, -0.36223012, -672802.8, -26059.973, 0.0, 9.999278, 10.00001 
2.949885e+2, 2.4400228e+2, -636134.2, -654015.25, -60581.69, -0.11882969, -0.38551736, -583836.8, -35090.598, 0.0, 9.9996, 9.99939 
2.9498369e+2, 2.540033e+2, -618709.4, -608183.4, -55197.32, 0.19285476, -0.23295602, -557998.7, -107260.45, 0.0, 9.999104, 9.999272 
2.9497716e+2, 2.6400268e+2, -608247.2, -584896.9, -3480.8835, 0.263086, -0.20438159, -584389.0, -231643.94, 0.0, 9.998653, 9.998968 
2.949683e+2, 2.739998e+2, -596362.25, -536583.56, -11758.291, -0.006468206, -0.4007613, -534353.9, -279581.38, 0.0000000016821552, 9.998092, 9.998899 
2.9496157e+2, 2.839987e+2, -527743.25, -410626.9, -68243.17, -0.02535854, -0.41546005, -379261.84, -222479.89, 0.00000022409213, 9.997714, 9.999277 
2.9495776e+2, 2.9399973e+2, -428071.28, -295271.84, -83983.72, 0.28524324, -0.26377547, -254609.97, -195841.05, 0.0000026529046, 9.99764, 9.999435 
2.9495156e+2, 3.0399707e+2, -294422.2, -126124.75, 13976.642, 0.19642016, -0.50893795, -124971.93, -124971.93, 0.000012335517, 9.99789, 10.00014 
2.949429e+2, 3.139982e+2, -217118.06, -16649.428, -99572.86, -0.29338863, -0.4173792, 24402.043, 24402.043, 0.000034800534, 9.998077, 10.000797 
3.0506548e+2, 1.2401072e+2, -1339277.1, -1726330.8, 43869.676, -0.03763779, -0.5629006, -1334367.0, 390288.1, 0.00022859985, 10.003359, 9.998295 
3.050641e+2, 1.3401131e+2, -1576810.3, -1776133.1, 112280.8, 0.24602161, -0.36062995, -1526340.5, 100315.04, 0.00009393993, 10.0010195, 9.998411 
3.0505788e+2, 1.4401218e+2, -1555298.8, -1504984.0, 25130.904, 0.1658951, -0.19936642, -1494582.3, 34067.04, 0.000021636553, 9.99961, 10.00026 
3.050494e+2, 1.5401067e+2, -1429831.5, -1392098.9, -1264.5391, 0.014567395, -0.40260676, -1392056.6, 38603.746, 0.0000030875526, 9.9997835, 10.000282 
3.0504158e+2, 1.6400973e+2, -1389140.0, -1481680.6, -14064.466, -0.028346783, -0.45590207, -1387049.6, -54379.523, 0.0000002653173, 10.000074, 9.998856 
3.050348e+2, 1.740095e+2, -1249916.3, -1380997.3, 2475.2368, 0.0701109, -0.3687352, -1249869.5, -15190.183, 0.0, 10.000436, 9.998699 
3.0502835e+2, 1.840097e+2, -1058847.3, -1004295.44, 115500.21, 0.09207476, -0.31023628, -912894.2, 223785.3, 0.0, 10.000064, 10.000797 
3.0502254e+2, 1.9401044e+2, -1162674.0, -985576.3, 96820.2, 0.004088074, -0.3522731, -942919.0, 95748.5, 0.0, 9.998593, 10.000964 
3.0501613e+2, 2.0401101e+2, -1186948.8, -1121832.1, -9825.686, -0.01764816, -0.3176896, -1120381.9, -179720.84, 0.0, 9.99852, 9.999386 
3.050089e+2, 2.1401131e+2, -817151.94, -915845.25, -16534.063, 0.06298949, -0.22452642, -814455.6, 28206.7, 0.0, 10.000481, 9.999184 
3.0500165e+2, 2.2401091e+2, -615639.8, -700893.5, 63896.566, 0.05611498, -0.20697649, -581456.4, 163211.05, 0.0, 10.000902, 9.999782 
3.0499443e+2, 2.3400941e+2, -782986.5, -726301.94, 45164.13, -0.07995089, -0.35778508, -701323.6, -54645.06, 0.0, 9.999063, 9.99982 
3.0498818e+2, 2.4400897e+2, -825691.8, -739947.3, -28738.49, -0.04349616, -0.36175478, -731206.3, -182525.0, 0.0, 9.998289, 9.999425 
3.0498332e+2, 2.540101e+2, -605968.8, -590060.94, -44378.156, 0.2457458, -0.2037907, -552929.56, -102257.75, 0.0, 9.999157, 9.999362 
3.049765e+2, 2.640092e+2, -508826.1, -545004.75, -1984.9036, 0.30071703, -0.20410924, -508717.53, -156037.4, 0.0, 9.999368, 9.9989 
3.0496702e+2, 2.7400547e+2, -520218.78, -510636.22, 9544.159, 0.032538343, -0.48172405, -504748.22, -250034.03, 0.00000000014964384, 9.998656, 9.998809 
3.0496e+2, 2.8400385e+2, -434348.94, -400849.34, 32103.07, 0.01326769, -0.5280649, -381389.16, -224661.28, 0.00000013461268, 9.99851, 9.998956 
3.0495661e+2, 2.9400524e+2, -233996.47, -239261.53, 36489.285, 0.33559307, -0.30273357, -200044.88, -141332.22, 0.0000024042524, 9.999149, 9.9990835 
3.0495036e+2, 3.0400327e+2, -170948.42, -56324.55, 97577.75, 0.25189868, -0.46806806, -472.5551, -472.5551, 0.000011969342, 9.998689, 10.00024 
3.0493987e+2, 3.140036e+2, -521914.53, -242700.8, -75591.97, -0.30768323, -0.46521482, -223549.28, -223549.28, 0.00003458678, 9.99631, 10.000111 
3.150703e+2, 1.240215e+2, -1303857.3, -1662210.5, -72426.62, 0.07021615, -0.20196459, -1289772.8, 434785.34, 0.00018624985, 10.0034075, 9.998709 
3.150648e+2, 1.3401872e+2, -1564387.9, -1746895.9, 26182.234, 0.19411567, -0.35345075, -1560706.1, 65880.55, 0.00007443096, 10.001021, 9.998606 
3.1505698e+2, 1.4401884e+2, -1568181.6, -1538126.9, 14876.203, 0.095791556, -0.2668144, -1532009.0, -3422.5093, 0.000015949841, 9.999627, 10.000029 
3.1504986e+2, 1.5401968e+2, -1442469.5, -1429693.9, 13103.998, 0.06482898, -0.21093144, -1421503.6, 9074.309, 0.00000170519, 9.999827, 10.000005 
3.150429e+2, 1.6401961e+2, -1343482.6, -1388030.8, -10992.39, 0.07759746, -0.19238347, -1340917.9, -8338.773, 0.000000057148895, 10.000076, 9.9995 
3.1503588e+2, 1.7401801e+2, -1200735.9, -1274341.9, 18930.709, 0.12190465, -0.31564662, -1196152.5, 38443.395, 0.0, 10.000418, 9.999439 
3.150287e+2, 1.8401757e+2, -1093976.4, -1074644.9, 60005.67, 0.10521296, -0.34039685, -1023531.44, 113068.445, 0.0, 10.000047, 10.000324 
3.1502128e+2, 1.9401874e+2, -1207911.8, -1070392.5, 47362.453, 0.0002817579, -0.2819059, -1055659.0, -17073.29, 0.0, 9.998553, 10.000401 
3.1501463e+2, 2.0401882e+2, -1180380.4, -1092125.1, 45371.074, -0.0334213, -0.27549204, -1072961.5, -132377.63, 0.0, 9.998454, 9.9996195 
3.150092e+2, 2.1401718e+2, -806088.7, -875145.2, 64033.97, 0.033280395, -0.40701902, -767867.0, 74733.63, 0.0, 10.000407, 9.999496 
3.150031e+2, 2.2401653e+2, -655913.7, -771756.75, 2262.8772, 0.094764195, -0.41152585, -655869.5, 88738.555, 0.0, 10.000847, 9.999324 
3.149959e+2, 2.3401718e+2, -830722.4, -810200.06, -18486.377, 0.14567584, -0.29072762, -799318.0, -152715.42, 0.0, 9.998998, 9.999278 
3.1498894e+2, 2.4401711e+2, -841034.4, -765295.3, -12950.83, 0.18661332, -0.22300927, -763142.06, -214537.95, 0.0, 9.99826, 9.999265 
3.1498227e+2, 2.5401598e+2, -623116.7, -609819.7, -8321.517, 0.2139636, -0.27789548, -605816.9, -155201.53, 0.0, 9.999086, 9.999261 
3.1497502e+2, 2.6401484e+2, -488339.2, -493840.75, -28729.127, 0.20500086, -0.31556252, -462229.47, -109604.14, 0.0, 9.99933, 9.999272 
3.1496695e+2, 2.7401346e+2, -496241.88, -449722.16, -9881.47, 0.1458072, -0.39674553, -447710.22, -193074.7, 0.00000000001473293, 9.998606, 9.999253 
3.1495956e+2, 2.8401244e+2, -438017.72, -398722.88, 44633.367, 0.10237008, -0.40955117, -369603.9, -212960.77, 0.000000108201135, 9.99847, 9.998989 
3.1495324e+2, 2.9401216e+2, -247769.28, -253448.14, 68188.24, 0.06623349, -0.353689, -182361.38, -123716.47, 0.0000022594174, 9.999081, 9.9990225 
3.149471e+2, 3.0401096e+2, -199112.28, -102164.06, 18108.701, 0.04499091, -0.421867, -98892.02, -98892.02, 0.00001165084, 9.998638, 9.999948 
3.1493974e+2, 3.1401184e+2, -592367.5, -365944.94, -143716.8, 0.015081553, -0.33498695, -296204.56, -296204.56, 0.000033846463, 9.996212, 9.99931 
3.25074e+2, 1.24029875e+2, -1603892.5, -1708543.6, -125436.484, 0.22622705, -0.05428939, -1520305.4, 204179.19, 0.00015560584, 10.000909, 9.9995985 
3.2506558e+2, 1.3402638e+2, -1486647.1, -1635428.5, -4651.0825, 0.16959545, -0.34649482, -1486501.9, 140012.36, 0.000061447354, 10.001218, 9.999286 
3.2505703e+2, 1.4402625e+2, -1380296.5, -1477394.4, 48585.457, 0.0734065, -0.3097325, -1360161.0, 168353.02, 0.000012624197, 10.001033, 9.999773 
3.2505074e+2, 1.540273e+2, -1374091.5, -1433898.8, 31772.266, 0.14399809, -0.1983123, -1360363.6, 70142.18, 0.0000008198343, 10.000454, 9.999678 
3.25044e+2, 1.6402742e+2, -1313349.0, -1332882.9, 22810.684, 0.18200943, -0.15775573, -1298302.1, 34203.094, 0.000000004124255, 10.000121, 9.999852 
3.250363e+2, 1.7402603e+2, -1214649.6, -1239141.9, 17028.61, 0.13749786, -0.29924533, -1205921.0, 28596.512, 0.0, 10.000136, 9.999821 
3.2502866e+2, 1.8402563e+2, -1095907.0, -1112282.4, 28961.795, 0.09526022, -0.32482842, -1073997.8, 62522.508, 0.0, 10.000202, 9.999981 
3.2502127e+2, 1.9402662e+2, -980270.9, -1007179.5, 8498.832, 0.061386887, -0.24396455, -977811.44, 60698.492, 0.0, 10.000328, 9.999971 
3.250146e+2, 2.0402642e+2, -956405.2, -999726.6, 53075.64, 0.04216796, -0.23680304, -920740.44, 19771.41, 0.0, 10.000053, 9.999486 
3.2500908e+2, 2.1402445e+2, -1003204.56, -979842.94, 35117.523, 0.046980612, -0.39281198, -954514.56, -111982.86, 0.0, 9.999098, 9.99941 
3.250029e+2, 2.2402373e+2, -978936.7, -922367.9, -58886.668, 0.1074898, -0.40196574, -885325.0, -140785.58, 0.0, 9.998608, 9.99937 
3.2499585e+2, 2.340247e+2, -850410.9, -814104.6, -51142.37, 0.25166464, -0.2564765, -777989.2, -131458.8, 0.0, 9.998834, 9.999332 
3.2498866e+2, 2.4402446e+2, -736202.44, -738807.8, 37718.906, 0.2976291, -0.19692539, -699763.75, -151230.38, 0.0, 9.999075, 9.999059 
3.2498136e+2, 2.5402254e+2, -589673.56, -619754.8, 30187.572, 0.20218313, -0.30930775, -570987.2, -120434.234, 0.0, 9.999418, 9.999036 
3.2497388e+2, 2.6402155e+2, -503166.1, -495408.84, -45684.61, 0.16541229, -0.32446662, -453438.5, -100875.81, 0.0, 9.999216, 9.9993105 
3.2496607e+2, 2.7402154e+2, -549115.7, -466652.53, -73785.38, 0.22155187, -0.27349773, -423360.0, -168798.89, 0.00000000010851988, 9.998221, 9.999314 
3.2495847e+2, 2.840209e+2, -529558.6, -402075.94, 30852.73, 0.18855917, -0.2653918, -395001.7, -238436.13, 0.00000014601811, 9.997659, 9.999362 
3.2495123e+2, 2.940199e+2, -423944.84, -292722.63, 80539.27, 0.03034617, -0.32616004, -254452.11, -195878.4, 0.000002235968, 9.997677, 9.999428 
3.2494524e+2, 3.040195e+2, -272238.2, -124156.87, 36760.227, 0.031244835, -0.33823997, -115533.55, -115533.55, 0.000011376777, 9.998088, 10.000058 
3.249386e+2, 3.140201e+2, -184422.33, -149020.39, -116719.98, 0.15288433, -0.29208836, -48666.805, -48666.805, 0.000032649332, 9.998944, 9.999473 
3.3507594e+2, 1.2403589e+2, -1505942.5, -1511581.5, -142961.89, 0.29655266, -0.10997907, -1365772.3, 358661.9, 0.00013659472, 10.000939, 10.000935 
3.350664e+2, 1.3403426e+2, -1400185.8, -1459251.8, 6772.3335, 0.113271244, -0.33517253, -1399419.3, 227019.17, 0.000054929977, 10.0012455, 10.000473 
3.350579e+2, 1.4403431e+2, -1396762.9, -1512014.5, 18106.988, 0.036741484, -0.33262902, -1393985.1, 134447.75, 0.000011796083, 10.001036, 9.999533 
3.3505175e+2, 1.5403368e+2, -1398936.0, -1483577.1, 15359.227, 0.18189284, -0.35396683, -1396235.0, 34207.55, 0.00000057438905, 10.00045, 9.999335 
3.3504465e+2, 1.6403338e+2, -1313434.6, -1331819.4, 15913.685, 0.21736965, -0.3389661, -1304249.1, 28198.13, 0.00000000201948, 10.0001135, 9.999866 
3.350358e+2, 1.7403366e+2, -1210617.8, -1231302.9, 24388.379, 0.056631587, -0.31796333, -1194469.5, 39973.934, 0.0, 10.000137, 9.999876 
3.350281e+2, 1.8403392e+2, -1121920.0, -1156449.3, 26456.072, 0.003207414, -0.26849478, -1107593.6, 28847.164, 0.0, 10.000158, 9.9997015 
3.3502233e+2, 1.9403403e+2, -1007906.44, -1056060.3, 18816.486, 0.120106325, -0.24381503, -1001425.94, 37015.016, 0.0, 10.000292, 9.999654 
3.3501583e+2, 2.040338e+2, -995217.9, -1068516.1, 14065.471, 0.14993696, -0.19879648, -992611.44, -52166.285, 0.0, 10.000005, 9.999036 
3.3500823e+2, 2.1403308e+2, -1045832.94, -1048934.3, 4606.926, 0.042806704, -0.18661079, -1042522.7, -200066.75, 0.0, 9.999018, 9.998972 
3.350009e+2, 2.2403246e+2, -951727.5, -851332.1, -61266.652, 0.03545409, -0.1850045, -822324.94, -77862.7, 0.0, 9.998542, 9.999891 
3.3499402e+2, 2.3403192e+2, -815499.7, -725396.2, -38549.453, 0.17337738, -0.25315493, -711154.44, -64691.91, 0.0, 9.998761, 9.999978 
3.349872e+2, 2.4403109e+2, -755092.56, -770546.7, 44659.168, 0.22540551, -0.28077245, -717496.9, -169027.95, 0.0, 9.9990425, 9.998856 
3.349804e+2, 2.540298e+2, -617653.44, -667923.0, 48464.35, 0.1483583, -0.29870668, -588193.8, -137709.56, 0.0, 9.999374, 9.998726 
3.3497283e+2, 2.640293e+2, -533441.8, -552190.3, -85149.24, 0.12877366, -0.22914448, -457152.34, -104660.28, 0.0, 9.999188, 9.998935 
3.349641e+2, 2.7402958e+2, -583729.25, -523364.97, -106866.17, 0.18792444, -0.11537157, -442500.53, -188008.55, 0.000000000044508567, 9.998154, 9.998959 
3.349564e+2, 2.8402922e+2, -477791.9, -287366.3, 22288.412, 0.20398448, -0.10019808, -284792.38, -128296.93, 0.00000018850986, 9.997623, 10.000168 
3.349503e+2, 2.940285e+2, -371739.47, -175165.08, 87962.14, 0.152682, -0.21927667, -141551.89, -83053.36, 0.0000021997091, 9.997629, 10.000263 
3.3494458e+2, 3.040288e+2, -249987.88, -65211.65, 61642.117, 0.1418859, -0.22176817, -46535.305, -46535.305, 0.000010801098, 9.998039, 10.000483 
3.349359e+2, 3.1402832e+2, -131905.44, -8832.929, -53623.363, -0.043357685, -0.33413205, 11252.969, 11252.969, 0.000030818417, 9.9988165, 10.000496 
3.4507743e+2, 1.2404361e+2, -1414954.3, -1435184.1, -3757.7017, 0.3342414, -0.1735495, -1414278.8, 310081.5, 0.00012625929, 10.001438, 10.001215 
3.4506747e+2, 1.3404304e+2, -1503531.0, -1506510.3, 34738.7, 0.13836668, -0.29872617, -1470250.0, 156104.4, 0.000053424294, 10.000512, 10.000513 
3.45059e+2, 1.4404322e+2, -1551720.1, -1590808.9, 33611.547, 0.10078543, -0.28499135, -1532383.8, -4035.7966, 0.0000131995685, 10.0, 9.999486 
3.450521e+2, 1.5404227e+2, -1413690.1, -1502112.3, 36105.418, 0.18007557, -0.32955652, -1400820.4, 29540.344, 0.00000089811203, 10.000396, 9.999234 
3.4504473e+2, 1.6404164e+2, -1280731.6, -1361070.1, 44362.848, 0.2001287, -0.32272053, -1261054.1, 71314.6, 0.0000000015154811, 10.000528, 9.999463 
3.4503615e+2, 1.7404164e+2, -1220052.5, -1279394.3, 2356.613, 0.07914186, -0.2897136, -1219959.0, 14409.324, 0.0, 10.00027, 9.9994755 
3.4502867e+2, 1.8404156e+2, -1170449.0, -1209644.9, -3500.8813, 0.057704844, -0.23918511, -1170138.8, -33769.563, 0.0, 9.999944, 9.999445 
3.4502304e+2, 1.940413e+2, -1147477.6, -1152243.4, -13761.585, 0.20603819, -0.22858284, -1135894.1, -97520.96, 0.0, 9.999445, 9.999409 
3.450163e+2, 2.0404111e+2, -1095055.0, -1119457.5, 5441.8145, 0.23492225, -0.16602515, -1093896.5, -153518.92, 0.0, 9.999326, 9.999016 
3.4500793e+2, 2.1404092e+2, -945684.75, -1003982.56, 16920.818, 0.08262196, -0.09862512, -941129.44, -98745.24, 0.0, 9.999704, 9.998954 
3.4500015e+2, 2.2404031e+2, -752165.06, -746083.44, -21758.08, 0.042489197, -0.09648494, -727154.7, 17235.584, 0.0, 9.999879, 9.999968 
3.4499317e+2, 2.3403914e+2, -664287.1, -642522.7, -50996.86, 0.16765502, -0.2374539, -601259.9, 45135.527, 0.0, 9.999761, 10.000064 
3.449861e+2, 2.4403828e+2, -686712.1, -708546.25, 25143.05, 0.2016975, -0.2825022, -670218.4, -121817.29, 0.0, 9.999393, 9.999112 
3.4497893e+2, 2.540379e+2, -708191.75, -683075.0, 58491.324, 0.1075247, -0.23871015, -635809.06, -185401.2, 0.0, 9.9986315, 9.998983 
3.4497115e+2, 2.6403767e+2, -648249.5, -597852.0, -27291.262, 0.084795035, -0.15908355, -585905.25, -233492.34, 0.0, 9.998358, 9.999022 
3.4496242e+2, 2.7403742e+2, -477933.47, -463976.56, -25161.69, 0.17419393, -0.10053399, -444843.53, -190426.3, 0.0, 9.998848, 9.999032 
3.4495464e+2, 2.8403693e+2, -304984.9, -203190.6, 97616.78, 0.21009393, -0.10199964, -143998.89, 12423.538, 0.00000016974016, 9.998824, 10.000161 
3.4494826e+2, 2.9403642e+2, -324557.25, -157015.1, 76257.2, 0.17264886, -0.1987378, -127504.43, -69079.19, 0.0000019719364, 9.997984, 10.000214 
3.449427e+2, 3.0403718e+2, -270109.0, -50993.383, 66507.18, 0.16689476, -0.16260281, -32386.775, -32386.775, 0.000009630792, 9.997778, 10.000712 
3.4493443e+2, 3.1403676e+2, -111696.17, 96860.71, -53900.047, -0.048496783, -0.3044748, 109967.15, 109967.15, 0.000028581368, 9.998517, 10.001372 
3.5507807e+2, 1.2405318e+2, -1455884.8, -1547977.0, -54939.797, 0.20613468, -0.22911909, -1430246.6, 294015.47, 0.00012021515, 10.001541, 10.000396 
3.5506836e+2, 1.3405283e+2, -1569665.8, -1649600.1, 1185.9329, 0.16075706, -0.23152828, -1569648.3, 56613.563, 0.000054251253, 10.00054, 9.999516 
3.5506007e+2, 1.4405312e+2, -1541375.0, -1581929.9, 35726.63, 0.18396994, -0.15497148, -1520572.5, 7685.331, 0.000015580335, 10.000047, 9.999529 
3.550517e+2, 1.5405312e+2, -1398405.4, -1481587.1, 56525.863, 0.07909802, -0.11669178, -1369818.1, 60441.605, 0.0000017221554, 10.000442, 9.999354 
3.5504416e+2, 1.6405216e+2, -1335696.8, -1476007.5, 27331.105, 0.07052849, -0.11364482, -1330561.0, 1709.425, 0.000000007086625, 10.000529, 9.998674 
3.5503718e+2, 1.7404988e+2, -1279362.5, -1406981.5, -1637.845, 0.13587317, -0.21937977, -1279341.5, -45048.67, 0.0, 10.000283, 9.998595 
3.5503006e+2, 1.8404856e+2, -1191909.1, -1243083.3, -26740.252, 0.18892972, -0.23761125, -1180486.3, -44180.543, 0.0, 9.999901, 9.999234 
3.5502312e+2, 1.9404851e+2, -1163457.1, -1174300.5, -26675.148, 0.25419337, -0.19079287, -1141658.3, -103352.48, 0.0, 9.999401, 9.999277 
3.5501584e+2, 2.0404837e+2, -1076606.0, -1069784.5, 10989.916, 0.24231799, -0.13335563, -1061688.3, -121379.69, 0.0, 9.999272, 9.999385 
3.5500804e+2, 2.1404801e+2, -923623.9, -945215.56, 36647.805, 0.10716373, -0.1250731, -896214.8, -53898.883, 0.0, 9.999647, 9.999385 
3.5500044e+2, 2.2404742e+2, -787355.9, -807378.9, -29355.172, 0.07141738, -0.12932545, -766351.94, -22029.346, 0.0, 9.999826, 9.999572 
3.5499313e+2, 2.340464e+2, -706515.94, -719288.56, -49125.082, 0.17296834, -0.20537834, -663363.75, -17035.162, 0.0, 9.999712, 9.99956 
3.5498533e+2, 2.4404609e+2, -645879.8, -612870.4, -7050.138, 0.1698466, -0.19884527, -611427.7, -63098.1, 0.0, 9.999347, 9.999791 
3.5497677e+2, 2.540467e+2, -661069.56, -569229.44, 33774.508, 0.014315932, -0.13435069, -558146.25, -107821.945, 0.0, 9.998564, 9.999797 
3.5496858e+2, 2.6404658e+2, -615769.4, -520011.5, -16920.137, -0.022328239, -0.11578882, -517109.7, -164784.6, 0.0, 9.998313, 9.999575 
3.5496083e+2, 2.740452e+2, -450856.84, -396932.1, 2360.3074, 0.11300835, -0.22589792, -396828.97, -142493.08, 0.0, 9.998802, 9.999513 
3.5495293e+2, 2.8404406e+2, -369733.72, -335207.0, 65156.953, 0.14277758, -0.27469072, -285065.22, -128718.664, 0.00000011654808, 9.998809, 9.999264 
3.5494488e+2, 2.9404345e+2, -401312.16, -308692.03, 49232.637, 0.019048585, -0.27843067, -287411.63, -229056.52, 0.0000016005947, 9.997944, 9.999194 
3.5493937e+2, 3.0404449e+2, -264578.94, -26162.242, 86488.2, 0.04514609, -0.16912867, 1907.5137, 1907.5137, 0.000008029012, 9.997728, 10.000906 
3.5493374e+2, 3.140458e+2, -70751.75, 207531.7, 12142.904, -0.003250429, -0.17168394, 208060.56, 208060.56, 0.00002594716, 9.998417, 10.002177 
3.6507922e+2, 1.2406268e+2, -1706991.8, -1758920.5, -80062.87, 0.24074017, -0.2196386, -1648788.4, 75378.09, 0.00011678404, 10.000213, 9.999587 
3.6506927e+2, 1.3406186e+2, -1473242.0, -1698841.6, -44463.984, 0.15317649, -0.18309563, -1464794.8, 161380.9, 0.000055597222, 10.001619, 9.998649 
3.6506167e+2, 1.4406137e+2, -1267849.4, -1497794.9, -14567.121, 0.23961826, -0.11732951, -1266930.3, 261251.36, 0.000017763748, 10.002137, 9.999099 
3.6505306e+2, 1.540613e+2, -1278201.4, -1462964.3, -47261.11, 0.1285054, -0.048525173, -1266814.1, 163369.39, 0.000002786188, 10.001437, 9.999004 
3.6504534e+2, 1.6406016e+2, -1272911.3, -1471338.4, -57405.953, 0.113138065, -0.032117553, -1257500.3, 74695.484, 0.00000008230677, 10.001072, 9.998447 
3.6503822e+2, 1.7405769e+2, -1157449.0, -1370878.6, -51258.72, 0.16700706, -0.13663419, -1145776.8, 88444.4, 0.0, 10.001221, 9.998392 
3.6503068e+2, 1.8405604e+2, -1025153.8, -1175708.6, -51942.16, 0.20429774, -0.17052506, -1008972.6, 127264.27, 0.0, 10.001104, 9.999118 
3.6502293e+2, 1.9405538e+2, -1003758.06, -1108107.5, -60404.004, 0.24260177, -0.17360653, -976115.25, 62125.867, 0.0, 10.000546, 9.999181 
3.6501536e+2, 2.0405494e+2, -994187.2, -1028441.9, -13992.488, 0.24256139, -0.14214075, -989198.1, -48952.184, 0.0, 9.999839, 9.999394 
3.65008e+2, 2.1405476e+2, -1034165.25, -997689.9, -32465.43, 0.1798067, -0.11728131, -978690.25, -136437.89, 0.0, 9.998894, 9.99939 
3.6500037e+2, 2.2405446e+2, -964320.4, -875389.2, -72491.37, 0.14798771, -0.09801519, -834812.5, -90555.99, 0.0, 9.998539, 9.9997225 
3.6499238e+2, 2.3405391e+2, -802181.1, -747379.6, -52597.46, 0.16744883, -0.14281543, -715473.56, -69215.27, 0.0, 9.99898, 9.999719 
3.6498415e+2, 2.4405378e+2, -671413.1, -602809.2, -14804.609, 0.13847186, -0.13608281, -599750.75, -51493.273, 0.0, 9.999069, 9.999997 
3.6497563e+2, 2.5405422e+2, -636165.06, -530266.1, -31816.861, 0.04153999, -0.1113453, -521442.16, -71188.875, 0.0, 9.998622, 10.000035 
3.6496735e+2, 2.6405412e+2, -571820.5, -449617.3, -70600.945, 0.023105847, -0.12494654, -417349.22, -65096.734, 0.0, 9.998404, 10.000017 
3.6495957e+2, 2.74053e+2, -465786.2, -354203.66, -64011.66, 0.12570643, -0.25093564, -325082.28, -70824.17, 0.0, 9.998479, 9.999966 
3.6495134e+2, 2.8405195e+2, -435244.63, -400035.9, 5003.088, 0.12387285, -0.30342233, -399338.78, -243071.98, 0.000000055764154, 9.998495, 9.998972 
3.649426e+2, 2.9405114e+2, -361337.16, -326547.6, 20214.246, -0.02011265, -0.29519406, -317274.13, -258995.72, 0.0000011854916, 9.998385, 9.998857 
3.64937e+2, 3.040515e+2, -228803.97, -79073.77, 97058.914, 0.014838029, -0.20563945, -31361.484, -31361.484, 0.000006614604, 9.998271, 10.000287 
3.6493286e+2, 3.1405252e+2, -154785.58, 109416.555, -52249.137, 0.088466585, -0.16512331, 119374.15, 119374.15, 0.000023524617, 9.998089, 10.001667 
3.7508017e+2, 1.2407235e+2, -1754766.8, -1871800.3, -41688.113, 0.27559486, -0.11888627, -1741435.6, -17364.512, 0.000116595606, 10.00027, 9.998782 
3.7507015e+2, 1.340703e+2, -1515737.3, -1802153.4, 12630.2295, 0.053489774, -0.13563325, -1515181.4, 110912.85, 0.000057458026, 10.001683, 9.997907 
3.7506366e+2, 1.4406803e+2, -1327532.4, -1622853.0, -44156.723, 0.2026441, -0.16858861, -1321071.4, 207047.39, 0.000019792478, 10.002145, 9.998236 
3.7505594e+2, 1.5406679e+2, -1334251.9, -1584281.9, -67448.086, 0.2520506, -0.13246518, -1317217.6, 112914.87, 0.000003853391, 10.00146, 9.998161 
3.75048e+2, 1.6406573e+2, -1252048.0, -1426271.8, -60596.895, 0.25453946, -0.07732584, -1233044.6, 99099.945, 0.00000020238203, 10.001064, 9.998758 
3.7503904e+2, 1.7406517e+2, -1129430.6, -1313621.0, -39102.094, 0.1120036, -0.03254433, -1121473.4, 112679.03, 0.0, 10.001222, 9.998785 
3.750303e+2, 1.8406403e+2, -1028828.06, -1175853.6, -76051.06, 0.04476251, -0.03896167, -996568.0, 139595.13, 0.0, 10.001073, 9.999129 
3.750223e+2, 1.9406189e+2, -1011706.44, -1114446.8, -74828.44, 0.109386206, -0.18478194, -972312.1, 65867.125, 0.0, 10.000505, 9.999154 
3.7501472e+2, 2.0406081e+2, -1029993.44, -1093178.6, -53523.633, 0.18077998, -0.19787893, -999434.0, -59244.023, 0.0, 9.999794, 9.998974 
3.750076e+2, 2.1406114e+2, -1073058.3, -1065565.5, -60981.15, 0.2377138, -0.075356975, -1008215.75, -166022.45, 0.0, 9.9988365, 9.998951 
3.749997e+2, 2.2406144e+2, -926131.06, -781603.5, -66451.6, 0.2165668, -0.0015723822, -755694.6, -11502.683, 0.0, 9.998472, 10.000401 
3.7499073e+2, 2.340616e+2, -752036.5, -631590.25, -30442.97, 0.08923997, -0.058210183, -624333.0, 21852.041, 0.0, 9.998923, 10.000542 
3.7498248e+2, 2.4406137e+2, -698788.5, -643348.9, -32619.629, 0.050182965, -0.09804899, -628261.8, -80077.17, 0.0, 9.999003, 9.99975 
3.7497526e+2, 2.5406045e+2, -671052.5, -590620.1, -41548.5, 0.12762998, -0.1701134, -573012.25, -122817.73, 0.0, 9.998566, 9.99965 
3.749673e+2, 2.640602e+2, -556285.0, -406992.94, -74958.99, 0.16756721, -0.18785833, -375852.0, -23656.514, 0.0, 9.9983635, 10.000328 
3.749584e+2, 2.7406082e+2, -446682.53, -299276.72, -54522.89, 0.14765579, -0.18337075, -281301.56, -27117.176, 0.0, 9.998414, 10.000374 
3.7494966e+2, 2.8406063e+2, -420316.47, -357891.78, -3244.5552, 0.08985676, -0.1846263, -357723.6, -201540.64, 0.00000003400916, 9.9984455, 9.999288 
3.7494123e+2, 2.9405937e+2, -347785.6, -286608.78, 22894.838, -0.0150464745, -0.24927014, -278989.53, -220794.06, 0.0000008994765, 9.998327, 9.999164 
3.7493533e+2, 3.0405807e+2, -342523.03, -296408.88, 84515.94, 0.008035698, -0.27463964, -231861.31, -231861.31, 0.000005653841, 9.998205, 9.998822 
3.7493125e+2, 3.1405678e+2, -304857.97, -168258.78, -32032.053, 0.08648395, -0.298487, -161120.4, -161120.4, 0.000021891798, 9.997956, 9.999818 
3.85081e+2, 1.2407874e+2, -1596046.1, -1807169.0, -132437.98, 0.2798639, -0.12609476, -1532246.9, 191762.73, 0.00011972094, 10.001415, 9.998673 
3.850721e+2, 1.3407706e+2, -1461870.9, -1771550.0, -63897.305, 0.06843633, -0.11299309, -1449204.8, 176823.83, 0.000060093465, 10.002027, 9.99796 
3.8506648e+2, 1.4407426e+2, -1332811.5, -1636164.1, -103740.92, 0.27309594, -0.19553201, -1300727.4, 227330.23, 0.000021868578, 10.002148, 9.998144 
3.8505733e+2, 1.5407251e+2, -1329202.4, -1592245.9, -97343.76, 0.24908373, -0.20048997, -1297097.1, 132978.9, 0.000004862859, 10.001542, 9.998066 
3.850488e+2, 1.6407153e+2, -1253501.1, -1419746.5, -38026.363, 0.23410599, -0.13666409, -1245216.0, 86871.695, 0.00000029520132, 10.001009, 9.998838 
3.8504013e+2, 1.7407176e+2, -1219496.3, -1344696.5, -46148.81, 0.13886498, -0.022522897, -1204324.4, 29764.309, 0.0, 10.00054, 9.998905 
3.850313e+2, 1.8407105e+2, -1133342.8, -1213304.6, -81622.98, 0.07880615, 0.0019887509, -1082434.9, 53661.035, 0.0, 10.0002985, 9.999247 
3.850226e+2, 1.9406876e+2, -1026820.0, -1113006.9, -85066.64, 0.10460951, -0.170764, -974554.25, 63559.816, 0.0, 10.000355, 9.999241 
3.850145e+2, 2.0406766e+2, -954919.56, -1043293.06, -40451.047, 0.16220264, -0.19487216, -939200.1, 924.19934, 0.0, 10.000246, 9.999098 
3.8500702e+2, 2.1406817e+2, -913965.56, -976142.7, -16650.498, 0.24952668, -0.066736594, -909787.44, -67663.76, 0.0, 9.999865, 9.999072 
3.8499877e+2, 2.2406845e+2, -819881.56, -743356.94, 1754.4768, 0.24266383, 0.0012611256, -743316.75, 805.4404, 0.0, 9.999255, 10.000288 
3.8498953e+2, 2.3406829e+2, -850062.3, -693383.94, -45148.094, 0.11080006, -0.07349896, -681305.3, -35185.332, 0.0, 9.998321, 10.000407 
3.8498107e+2, 2.4406794e+2, -855365.3, -720571.94, -62141.617, 0.067655966, -0.11716307, -696295.9, -148174.0, 0.0, 9.997936, 9.999729 
3.8497382e+2, 2.5406724e+2, -713086.1, -616539.0, -55746.465, 0.14573541, -0.16660687, -591069.75, -140939.44, 0.0, 9.998299, 9.999599 
3.849656e+2, 2.640672e+2, -544973.3, -401571.47, -75466.18, 0.16101415, -0.1597603, -369175.47, -17045.504, 0.0, 9.998431, 10.000334 
3.8495615e+2, 2.740681e+2, -479470.2, -309797.8, -96917.05, 0.096723855, -0.12912272, -265831.47, -11714.41, 0.0, 9.998173, 10.000414 
3.8494766e+2, 2.840681e+2, -431495.1, -345360.78, -38347.313, 0.058613054, -0.12274676, -330762.56, -174648.72, 0.000000026095549, 9.998292, 9.999448 
3.849406e+2, 2.9406685e+2, -248342.5, -217250.77, -29714.373, 0.064185895, -0.20381895, -199261.31, -141136.75, 0.0000006696504, 9.998924, 9.999348 
3.8493434e+2, 3.0406561e+2, -242948.45, -269128.2, 55724.492, 0.053975023, -0.22600672, -198797.05, -198797.05, 0.0000049598348, 9.998973, 9.998637 
3.849284e+2, 3.1406394e+2, -331168.94, -222920.13, 27897.908, 0.017095247, -0.26442653, -216153.28, -216153.28, 0.000021460863, 9.997951, 9.99945 
3.9508137e+2, 1.2408195e+2, -1559302.8, -1734234.8, -101696.41, 0.13416775, -0.23801182, -1512632.8, 211348.25, 0.0001233599, 10.001444, 9.999158 
3.950749e+2, 1.34082e+2, -1401675.4, -1648383.1, -36728.75, 0.12681456, -0.12986538, -1396323.4, 229655.83, 0.00006261113, 10.002045, 9.998794 
3.9506984e+2, 1.4408001e+2, -1292224.4, -1553842.3, -128716.59, 0.3731925, -0.20341794, -1239515.1, 288483.34, 0.000023583854, 10.002144, 9.998716 
3.950571e+2, 1.5407853e+2, -1281756.0, -1505768.9, -113752.836, 0.050283425, -0.24092296, -1234121.8, 195892.13, 0.000005569423, 10.001584, 9.998642 
3.9504752e+2, 1.6407749e+2, -1260207.0, -1430359.3, -65842.04, -0.011662849, -0.20972565, -1237704.6, 94321.305, 0.00000035120044, 10.000999, 9.99877 
3.9504135e+2, 1.7407745e+2, -1227946.6, -1359769.1, -58514.055, 0.18956591, -0.10943341, -1205720.5, 28309.453, 0.0, 10.000531, 9.998805 
3.950335e+2, 1.840771e+2, -1127840.6, -1191578.5, -86940.38, 0.2554759, -0.05107066, -1067112.3, 68923.06, 0.0, 10.000251, 9.99942 
3.950237e+2, 1.9407605e+2, -1019906.7, -1083971.9, -77565.2, 0.16440223, -0.12171042, -968020.0, 70024.74, 0.0, 10.000294, 9.999468 
3.9501452e+2, 2.0407552e+2, -918979.1, -949311.2, -60084.45, 0.12981817, -0.13058013, -872176.2, 67872.44, 0.0, 10.000168, 9.99978 
3.9500606e+2, 2.1407583e+2, -875876.06, -872051.0, -24699.945, 0.1539347, -0.09832318, -849189.7, -7145.635, 0.0, 9.999766, 9.999828 
3.949975e+2, 2.2407544e+2, -894646.75, -885089.5, -37722.363, 0.17462158, -0.09608076, -851844.3, -107796.8, 0.0, 9.999191, 9.99935 
3.9498863e+2, 2.3407386e+2, -936023.44, -857627.1, -73889.37, 0.17613418, -0.20023143, -813182.4, -167118.42, 0.0, 9.998256, 9.999312 
3.949798e+2, 2.4407339e+2, -851700.3, -698827.0, -57667.406, 0.1333124, -0.20256439, -679513.5, -131443.55, 0.0, 9.997878, 9.999907 
3.949711e+2, 2.5407445e+2, -699181.75, -573640.75, -34782.21, 0.027548747, -0.109585285, -564648.2, -114586.74, 0.0, 9.998234, 9.999927 
3.94962e+2, 2.6407504e+2, -576317.2, -448964.63, -87695.055, -0.055756982, -0.043588147, -404266.13, -52210.285, 0.0, 9.998359, 10.000042 
3.949525e+2, 2.740748e+2, -512928.16, -365527.3, -99631.27, -0.097716734, -0.090512425, -315299.75, -61243.195, 0.0, 9.998111, 10.000062 
3.949451e+2, 2.8407425e+2, -433632.47, -338948.1, -23719.111, -0.038276553, -0.123080224, -333338.63, -177278.44, 0.000000010243951, 9.998247, 9.999514 
3.949405e+2, 2.9407355e+2, -252600.5, -207111.1, 3435.8809, 0.1471113, -0.15763527, -206853.03, -148787.5, 0.00000051187845, 9.998844, 9.999457 
3.9493382e+2, 3.040741e+2, -168573.98, -103851.97, 21181.707, 0.092129685, -0.060768075, -97536.12, -97536.12, 0.0000058228006, 9.998928, 9.99979 
3.9492393e+2, 3.1407407e+2, -264530.56, -56013.43, 4422.7534, -0.2560533, -0.060382072, -55919.664, -55919.664, 0.00002601799, 9.997841, 10.000641 
4.050838e+2, 1.2408715e+2, -1318353.0, -1598303.6, 893.4906, 0.1684386, -0.2304525, -1318350.1, 405583.3, 0.00012458346, 10.003004, 9.999339 
4.0507653e+2, 1.3408749e+2, -1405865.4, -1599619.5, -21332.494, 0.107649155, -0.14442867, -1403544.4, 222382.16, 0.00006386204, 10.001791, 9.999252 
4.0507138e+2, 1.4408603e+2, -1429801.8, -1586107.9, -116707.49, 0.3746727, -0.20290859, -1367496.5, 160442.88, 0.000024485202, 10.001058, 9.999017 
4.050583e+2, 1.5408549e+2, -1344595.3, -1505169.4, -138509.5, 0.044527624, -0.175361, -1264785.8, 165160.06, 0.000005781208, 10.001016, 9.998921 
4.050485e+2, 1.6408452e+2, -1278842.1, -1444365.1, -87551.914, -0.005371177, -0.1501977, -1241126.3, 90830.97, 0.0000003430959, 10.000899, 9.998717 
4.0504214e+2, 1.7408332e+2, -1222033.5, -1368580.9, -95449.445, 0.21649578, -0.15687601, -1174975.9, 58996.33, 0.0, 10.000627, 9.998695 
4.050341e+2, 1.8408291e+2, -1137774.5, -1179837.5, -115901.81, 0.30017835, -0.10539246, -1041011.44, 94967.125, 0.0, 10.000109, 9.99957 
4.0502402e+2, 1.9408329e+2, -1170099.9, -1136930.0, -117259.02, 0.22549689, -0.050219487, -1035088.9, 2886.89, 0.0, 9.999177, 9.999645 
4.0501446e+2, 2.0408319e+2, -1086165.9, -1007670.8, -87519.54, 0.17334709, -0.03494192, -951001.5, -11025.837, 0.0, 9.998927, 9.999976 
4.0500563e+2, 2.1408242e+2, -888838.4, -861628.0, -105575.14, 0.14730972, -0.1291903, -768785.0, 73194.92, 0.0, 9.9996, 9.999986 
4.0499675e+2, 2.2408171e+2, -824128.6, -855648.7, -133411.84, 0.16073963, -0.1638189, -705549.2, 38436.91, 0.0, 9.999709, 9.999294 
4.0498763e+2, 2.3408099e+2, -829525.2, -819463.5, -110084.586, 0.21875557, -0.17454237, -714294.8, -68298.56, 0.0, 9.999046, 9.999191 
4.049785e+2, 2.4408096e+2, -716205.3, -600923.9, -2083.0796, 0.18086466, -0.13736688, -600886.25, -52888.11, 0.0, 9.998664, 10.000203 
4.0496933e+2, 2.540821e+2, -607017.5, -483865.9, 13903.578, 0.011164433, -0.0698642, -482315.75, -32329.057, 0.0, 9.998689, 10.000318 
4.049601e+2, 2.6408267e+2, -562813.44, -471518.28, -40568.29, -0.08883019, -0.020019136, -456096.34, -104115.11, 0.0, 9.998565, 9.999794 
4.0495083e+2, 2.7408203e+2, -525858.4, -410026.66, -60520.21, -0.07556133, -0.07353016, -384175.34, -130187.805, 0.0, 9.998175, 9.999732 
4.0494362e+2, 2.8408128e+2, -448957.6, -341024.6, 58956.023, -0.003023817, -0.112019636, -315064.9, -159070.72, 0.0000000008315615, 9.998123, 9.999555 
4.0493914e+2, 2.9408053e+2, -279693.9, -210058.39, 72561.9, 0.14593938, -0.15885696, -164393.2, -106394.05, 0.00000071034475, 9.998613, 9.999542 
4.0493223e+2, 3.0408153e+2, -224743.9, -102226.0, 13470.298, 0.0710665, -0.03228378, -100762.484, -100762.484, 0.0000094188645, 9.998409, 10.000056 
4.0492213e+2, 3.140814e+2, -325225.34, -19359.758, -105440.12, -0.17690153, -0.07594183, 13465.515, 13465.515, 0.00003801625, 9.99711, 10.001253 
4.1508794e+2, 1.240942e+2, -1314932.8, -1608782.5, -21071.553, 0.23983386, -0.12106961, -1313429.4, 410438.84, 0.00012201354, 10.003074, 9.999232 
4.1507682e+2, 1.3409364e+2, -1382569.1, -1571760.8, -63856.89, -0.06103005, -0.14491118, -1363033.1, 262836.1, 0.00006271878, 10.001865, 9.99941 
4.1507092e+2, 1.4409237e+2, -1425977.8, -1580325.6, -125937.07, 0.20471403, -0.1940368, -1355449.4, 172430.56, 0.000024127196, 10.001077, 9.999045 
4.1506076e+2, 1.5409341e+2, -1340948.5, -1495392.0, -131183.94, 0.16997352, -0.008247379, -1265945.3, 163926.4, 0.0000053776757, 10.001015, 9.998986 
4.150515e+2, 1.6409259e+2, -1291679.8, -1463523.3, -102879.87, 0.18841702, 0.03289569, -1243561.3, 88320.48, 0.0000002359893, 10.000867, 9.998601 
4.1504234e+2, 1.740894e+2, -1229688.4, -1386462.6, -98091.86, 0.15404202, -0.16303225, -1182510.6, 51404.3, 0.0, 10.000633, 9.99857 
4.1503283e+2, 1.8408844e+2, -1130887.9, -1161110.6, -154193.25, 0.14700867, -0.1647381, -991067.3, 144858.63, 0.0, 10.000091, 9.999707 
4.1502327e+2, 1.9409053e+2, -1162676.6, -1111664.6, -147357.47, 0.21689115, 0.044944126, -987622.0, 50284.477, 0.0, 9.999139, 9.999834 
4.1501412e+2, 2.0409068e+2, -1117452.8, -1063918.6, -73426.125, 0.23499025, 0.09159958, -1012532.8, -72627.64, 0.0, 9.99888, 9.999619 
4.150055e+2, 2.1408798e+2, -925284.56, -921367.3, -74896.56, 0.16150841, -0.15560816, -848403.75, -6473.1704, 0.0, 9.999529, 9.99961 
4.1499633e+2, 2.2408733e+2, -782750.44, -753598.1, -158934.38, 0.13536681, -0.19839923, -608572.9, 135364.42, 0.0, 9.999639, 10.0000305 
4.1498637e+2, 2.3408951e+2, -777984.4, -696973.94, -128583.31, 0.17013955, -0.0037486588, -602666.94, 43250.95, 0.0, 9.998979, 10.000065 
4.1497692e+2, 2.4409062e+2, -693271.56, -540258.1, -8719.393, 0.14163898, 0.07687334, -539762.9, 8143.5864, 0.0, 9.9986105, 10.000641 
4.149683e+2, 2.5409013e+2, -587820.7, -431154.06, 21787.404, 0.025583006, -0.060214482, -428180.56, 21726.572, 0.0, 9.998631, 10.000709 
4.149597e+2, 2.6408994e+2, -579214.6, -494032.06, -59139.12, 0.0004599773, -0.101217836, -463743.63, -111836.29, 0.0, 9.998523, 9.999655 
4.149509e+2, 2.7408993e+2, -552676.9, -446107.38, -67640.53, 0.0964395, -0.07113992, -413284.6, -159375.84, 0.0, 9.998096, 9.999518 
4.1494292e+2, 2.8408927e+2, -452269.1, -345560.88, 69468.4, 0.10032383, -0.088216364, -311322.06, -155407.2, 0.00000000001177225, 9.998106, 9.999534 
4.149362e+2, 2.9408783e+2, -290135.88, -217151.55, 98784.88, -0.026983012, -0.20663357, -148334.02, -90408.68, 0.0000013022876, 9.998547, 9.999528 
4.1492924e+2, 3.04088e+2, -267774.78, -184642.81, -32151.99, -0.08282557, -0.13546345, -173659.0, -173659.0, 0.000014524035, 9.998383, 9.999501 
4.149226e+2, 3.140861e+2, -337441.38, -15032.652, -152276.78, 0.12958305, -0.29973793, 45517.496, 45517.496, 0.000053920798, 9.996989, 10.001339 
4.250918e+2, 1.2410211e+2, -1336227.8, -1678494.4, 135396.44, 0.3184532, -0.10799707, -1289143.8, 434645.1, 0.000114420596, 10.003163, 9.99872 
4.250786e+2, 1.3410144e+2, -1299572.8, -1567998.3, -5606.426, -0.09974235, -0.11045627, -1299455.8, 326336.2, 0.00005866896, 10.002583, 9.999093 
4.2507213e+2, 1.4410001e+2, -1283551.1, -1535215.1, -56227.805, 0.17033991, -0.14988877, -1271559.9, 256244.97, 0.00002226237, 10.00215, 9.998838 
4.2506272e+2, 1.5409997e+2, -1264118.8, -1480252.1, -96401.43, 0.24063972, -0.052995242, -1227369.5, 202437.19, 0.0000044458184, 10.0016365, 9.99879 
4.2505336e+2, 1.6409898e+2, -1249326.9, -1405888.4, -55382.527, 0.28555134, -0.031681906, -1231716.5, 100100.85, 0.00000009724189, 10.000993, 9.998937 
4.2504284e+2, 1.7409673e+2, -1266453.3, -1359562.3, -24622.033, 0.16890608, -0.17128716, -1260343.1, -26503.377, 0.0, 10.000186, 9.998973 
4.2503268e+2, 1.8409593e+2, -1120539.0, -1175612.1, -36773.03, 0.12088527, -0.17171755, -1102135.3, 33713.586, 0.0, 10.000251, 9.999528 
4.250234e+2, 1.94097e+2, -838020.0, -985073.2, -68351.53, 0.20515132, -0.03924609, -811156.9, 226683.88, 0.0, 10.001496, 9.999566 
4.2501414e+2, 2.0409717e+2, -795542.2, -907577.25, -29690.027, 0.23916918, 0.02092935, -788160.5, 151680.89, 0.0, 10.001092, 9.999619 
4.2500463e+2, 2.1409592e+2, -1099038.9, -1003613.44, -17487.783, 0.18696293, -0.081932135, -1000509.56, -158654.16, 0.0, 9.998336, 9.999617 
4.2499503e+2, 2.2409579e+2, -1094975.1, -864374.44, -38425.85, 0.16088922, -0.08819779, -858140.0, -114282.51, 0.0, 9.99732, 10.000388 
4.2498517e+2, 2.3409729e+2, -785814.3, -655875.06, -51574.145, 0.17023411, -0.0014977762, -637893.25, 7948.944, 0.0, 9.998732, 10.000467 
4.2497575e+2, 2.4409805e+2, -638338.94, -517034.47, 7741.1465, 0.1452646, 0.024558662, -516542.47, 31290.064, 0.0, 9.998993, 10.000623 
4.2496696e+2, 2.5409767e+2, -737661.0, -512137.1, -10819.684, 0.07976187, -0.09537925, -511619.2, -61787.086, 0.0, 9.997629, 10.00064 
4.2495844e+2, 2.6409748e+2, -740714.8, -608519.8, -58612.676, 0.07652501, -0.1159208, -586275.2, -234442.28, 0.0, 9.997573, 9.999331 
4.249503e+2, 2.740974e+2, -385686.13, -400637.25, -86303.07, 0.16809069, -0.060885523, -306535.44, -52698.47, 0.0, 9.999396, 9.999205 
4.249421e+2, 2.840968e+2, -238287.56, -210045.53, 10189.485, 0.14576437, -0.06611894, -206753.1, -50910.633, 0.0000000012455732, 9.999438, 9.999821 
4.2493397e+2, 2.9409555e+2, -499505.34, -281060.44, 46240.02, -0.023478318, -0.1988642, -271675.63, -213826.39, 0.0000019825331, 9.996945, 9.999865 
4.249268e+2, 3.0409512e+2, -552723.56, -357492.47, 12973.611, -0.07083412, -0.18921873, -356634.1, -356634.1, 0.000019596095, 9.99659, 9.999179 
4.249217e+2, 3.1409293e+2, 16545.928, 172617.67, -128174.92, 0.230511, -0.34782037, 244643.14, 244643.14, 0.00006922057, 9.999363, 10.001486 
4.3509486e+2, 1.2411091e+2, -1392077.9, -1795885.1, 143078.44, 0.26994562, -0.18293306, -1346521.4, 377174.0, 0.00010246441, 10.003193, 9.997894 
4.3508178e+2, 1.3411091e+2, -1347383.5, -1671858.8, -21003.438, -0.061566595, -0.04221556, -1346029.6, 279665.34, 0.000052240124, 10.002609, 9.998366 
4.3507487e+2, 1.4410885e+2, -1318337.8, -1607523.5, -76559.41, 0.20742725, -0.08177301, -1299320.0, 228394.98, 0.000019361623, 10.002147, 9.998345 
4.3506393e+2, 1.5410511e+2, -1291506.8, -1546645.0, -107870.07, 0.17869967, -0.30974504, -1252013.5, 177737.9, 0.0000034941986, 10.00167, 9.998322 
4.350538e+2, 1.6410366e+2, -1194029.4, -1288224.5, -91761.14, 0.2154649, -0.34878945, -1137984.8, 193780.34, 0.000000032016867, 10.000984, 9.999747 
4.350435e+2, 1.741054e+2, -1200848.6, -1222637.8, -48723.188, 0.19978495, -0.18064202, -1161816.8, 71929.52, 0.0, 10.000181, 9.999915 
4.3503344e+2, 1.8410538e+2, -1165534.6, -1255627.4, -1610.1136, 0.15655, -0.13034724, -1165505.9, -29758.342, 0.0, 10.000197, 9.999003 
4.3502426e+2, 1.9410272e+2, -892762.44, -1084452.5, -14661.597, 0.12410624, -0.305053, -891647.5, 146130.75, 0.0, 10.00144, 9.998909 
4.3501425e+2, 2.0410268e+2, -784648.6, -868726.2, -127053.3, 0.12889212, -0.24351564, -692859.94, 246923.77, 0.0, 10.001021, 9.99992 
4.3500286e+2, 2.1410622e+2, -1080084.4, -949882.44, -117005.56, 0.16216311, 0.090809576, -881086.3, -39332.133, 0.0, 9.998273, 10.000014 
4.349926e+2, 2.2410713e+2, -1113323.4, -879108.6, -5974.569, 0.17634627, 0.17107859, -878956.3, -135210.22, 0.0, 9.997224, 10.000334 
4.3498388e+2, 2.3410428e+2, -803856.44, -673798.9, 6985.82, 0.15896668, -0.16785794, -673424.75, -27655.475, 0.0, 9.998651, 10.000381 
4.3497476e+2, 2.4410327e+2, -681895.06, -594377.3, -41664.707, 0.13831483, -0.29170948, -577714.44, -29938.195, 0.0, 9.998936, 10.000119 
4.3496495e+2, 2.541048e+2, -786430.44, -596023.7, -58391.7, 0.10434535, -0.16657637, -579543.25, -129782.125, 0.0, 9.997554, 10.0001 
4.3495616e+2, 2.6410535e+2, -779298.6, -681445.56, -5836.6104, 0.07905311, -0.061863754, -681098.6, -329340.78, 0.0, 9.99754, 9.998847 
4.349488e+2, 2.7410436e+2, -424656.2, -473559.5, -10411.208, 0.06272717, -0.04793103, -422531.97, -168759.28, 0.0, 9.999356, 9.998727 
4.3494084e+2, 2.8410384e+2, -199767.13, -121589.56, -76361.12, 0.062654436, -0.049606755, -74894.0, 80883.734, 0.000000012355592, 9.999407, 10.000442 
4.349322e+2, 2.9410383e+2, -463352.63, -188267.11, -43163.266, 0.09041532, -0.13241257, -181653.44, -123883.125, 0.0000027659546, 9.996872, 10.000538 
4.3492466e+2, 3.0410302e+2, -566027.25, -380503.34, 96633.5, 0.045211732, -0.18649824, -339314.5, -339314.5, 0.000024042205, 9.996564, 9.999036 
4.3491888e+2, 3.141017e+2, 16381.138, 186802.84, -17487.418, -0.01764337, -0.23738886, 188578.77, 188578.77, 0.00008111006, 9.999303, 10.00161 
4.4509858e+2, 1.24119066e+2, -1111038.5, -1705503.9, 86276.55, 0.22484417, -0.22452456, -1098770.1, 624840.2, 0.000089493355, 10.00534, 9.99747 
4.450855e+2, 1.3411841e+2, -1300848.3, -1693741.1, -129142.164, 0.032368552, -0.1107157, -1262201.3, 363417.56, 0.000044922584, 10.003133, 9.997963 
4.450776e+2, 1.4411648e+2, -1377349.3, -1632696.4, -102402.49, 0.29407173, -0.11615027, -1341356.0, 186282.78, 0.00001621496, 10.001733, 9.99837 
4.4506514e+2, 1.5411273e+2, -1332583.5, -1555778.6, -108861.96, 0.15588275, -0.3528214, -1288280.6, 141394.19, 0.0000027558995, 10.0013485, 9.998412 
4.4505432e+2, 1.641114e+2, -1164445.9, -1261122.9, -77190.04, 0.16795269, -0.38785082, -1121708.0, 209978.81, 0.000000035556127, 10.001126, 9.999868 
4.4504446e+2, 1.7411354e+2, -1057687.0, -1137576.6, -106183.41, 0.2363543, -0.19479813, -984183.56, 249480.58, 0.0, 10.001103, 10.000051 
4.450343e+2, 1.8411374e+2, -1113787.6, -1223466.0, -48253.344, 0.21361315, -0.13294844, -1095580.8, 40082.715, 0.0, 10.000511, 9.999077 
4.450244e+2, 1.9411106e+2, -1239646.8, -1243900.3, -19605.621, 0.12224218, -0.31690368, -1222052.9, -184357.53, 0.0, 9.999016, 9.998985 
4.4501376e+2, 2.0411116e+2, -1111764.8, -982330.8, -111756.336, 0.10372082, -0.26314875, -917905.4, 21793.885, 0.0, 9.998593, 10.000306 
4.4500187e+2, 2.1411507e+2, -852054.8, -794392.2, -114808.43, 0.16935284, 0.06938955, -704850.3, 136814.34, 0.0, 9.999646, 10.000421 
4.4499132e+2, 2.2411609e+2, -751880.75, -731872.94, 37693.586, 0.20191157, 0.14796375, -702878.3, 40776.563, 0.0, 9.999816, 10.000092 
4.4498283e+2, 2.3411295e+2, -819377.75, -719326.3, 26668.063, 0.1873105, -0.18956609, -712662.0, -66980.695, 0.0, 9.998701, 10.000046 
4.4497377e+2, 2.4411164e+2, -789282.2, -708964.25, -34264.176, 0.17015263, -0.29893333, -696333.3, -148640.55, 0.0, 9.998471, 9.999552 
4.449638e+2, 2.541129e+2, -546722.94, -546577.5, -68110.31, 0.14304586, -0.14465456, -478539.88, -28856.156, 0.0, 9.999486, 9.999506 
4.4495496e+2, 2.6411334e+2, -459273.1, -460920.53, 42942.625, 0.111430496, -0.044587348, -417146.28, -65464.656, 0.0, 9.999454, 9.999434 
4.4494763e+2, 2.7411264e+2, -575466.75, -468216.03, 118981.47, 0.08099031, -0.072658464, -391333.66, -137643.8, 0.0, 9.99799, 9.999417 
4.4493955e+2, 2.8411248e+2, -456711.7, -284075.13, 54737.43, 0.074423835, -0.057090905, -268182.66, -112492.32, 0.00000003062236, 9.997806, 10.000097 
4.4493052e+2, 2.9411283e+2, -136058.78, -73623.35, -17908.996, 0.119298734, -0.06000132, -68851.09, -11168.393, 0.0000032981313, 9.999312, 10.000144 
4.449228e+2, 3.0411145e+2, -224996.97, -196380.98, 113850.375, 0.09729512, -0.16331737, -95943.05, -95943.05, 0.000027025699, 9.998812, 9.999215 
4.4491655e+2, 3.141106e+2, -530947.8, -65201.324, 2375.8115, 0.011764707, -0.18575615, -65189.207, -65189.207, 0.00008860118, 9.995473, 10.001726 
4.551027e+2, 1.2412656e+2, -1112496.0, -1713172.8, 34600.14, 0.059261143, -0.2458812, -1110509.6, 613024.3, 0.00007906838, 10.00536, 9.997407 
4.5508942e+2, 1.3412388e+2, -1306186.3, -1714732.5, -204952.38, 0.09040887, -0.32283208, -1221092.9, 404471.28, 0.00003857364, 10.003171, 9.997803 
4.5508012e+2, 1.4412278e+2, -1334534.5, -1548807.1, -124084.234, 0.34963647, -0.2591089, -1277734.6, 249842.52, 0.000013268856, 10.001756, 9.998935 
4.550662e+2, 1.541228e+2, -1286353.6, -1462182.1, -113314.47, 0.10330399, -0.18167585, -1230848.6, 198728.4, 0.0000020825275, 10.001364, 9.999044 
4.550548e+2, 1.6412227e+2, -1199680.1, -1337936.8, -86828.3, 0.080722496, -0.14783481, -1157822.5, 173759.75, 0.00000004449902, 10.001135, 9.999339 
4.5504555e+2, 1.7412108e+2, -1099901.0, -1232734.0, -100411.99, 0.21592095, -0.22217041, -1045927.6, 187666.23, 0.0, 10.001127, 9.99939 
4.5503515e+2, 1.8412094e+2, -1073110.4, -1129229.4, -104966.48, 0.23164596, -0.18869358, -992517.7, 143079.66, 0.0, 10.000472, 9.999741 
4.5502362e+2, 1.9412203e+2, -1192718.5, -1133306.5, -70542.17, 0.12680261, -0.07402081, -1086470.8, -48878.945, 0.0, 9.998964, 9.999766 
4.5501238e+2, 2.041226e+2, -1089711.6, -919714.25, -88556.65, 0.093922704, -0.035718285, -881965.0, 57623.035, 0.0, 9.998518, 10.000774 
4.5500135e+2, 2.1412243e+2, -832684.3, -732882.75, -68050.945, 0.14082795, -0.15506342, -698397.44, 143189.55, 0.0, 9.999555, 10.000886 
4.5499104e+2, 2.2412264e+2, -794915.2, -802995.06, -2417.7527, 0.17654711, -0.16138077, -794247.0, -50663.387, 0.0, 9.999735, 9.999645 
4.5498168e+2, 2.3412333e+2, -864007.25, -797975.25, -9056.283, 0.1901294, -0.064418234, -796755.75, -151177.94, 0.0, 9.99864, 9.999535 
4.5497245e+2, 2.4412324e+2, -842341.9, -804619.0, -8584.9375, 0.17958426, 0.002992356, -802757.2, -255175.58, 0.0, 9.998412, 9.998925 
4.5496336e+2, 2.5412193e+2, -600162.44, -640218.94, -23396.225, 0.13253334, -0.03188526, -589392.75, -139792.9, 0.0, 9.999413, 9.9988985 
4.5495465e+2, 2.641215e+2, -348975.22, -222165.47, -8694.498, 0.1231315, -0.064423464, -221572.13, 130031.71, 0.0, 9.999412, 10.001095 
4.5494655e+2, 2.741222e+2, -454912.47, -201846.55, 71163.016, 0.15934531, -0.1378294, -183208.0, 70380.055, 0.0, 9.997919, 10.001281 
4.5493796e+2, 2.841228e+2, -556942.9, -477723.5, 98762.02, 0.12267785, -0.092191964, -410924.25, -255344.67, 0.000000022691747, 9.997743, 9.998801 
4.5492882e+2, 2.9412267e+2, -248912.11, -301422.22, 48947.48, -0.004136831, 0.02110811, -219622.73, -162037.06, 0.0000033719941, 9.999277, 9.998602 
4.5492104e+2, 3.041203e+2, -192150.03, -119823.78, 942.96924, 0.025321359, -0.12598631, -119811.49, -119811.49, 0.000028147611, 9.998787, 9.999748 
4.5491427e+2, 3.1411964e+2, -539170.9, -48972.46, -120888.83, 0.21100947, -0.20038171, -20781.107, -20781.107, 0.00009108323, 9.995338, 10.0019 
4.6510723e+2, 1.2413515e+2, -1468910.6, -1837179.5, 119032.29, 0.117064826, -0.26924956, -1433786.8, 289663.53, 0.000072079085, 10.002692, 9.997844 
4.6509257e+2, 1.3413271e+2, -1398378.4, -1724155.8, -146329.16, 0.13464738, -0.3558254, -1342303.6, 283174.28, 0.000033639506, 10.00237, 9.99813 
4.6508175e+2, 1.4413226e+2, -1253075.4, -1468348.0, 1258.667, 0.32476768, -0.26115757, -1253068.1, 274415.5, 0.000010536622, 10.0021305, 9.999309 
4.650683e+2, 1.5413284e+2, -1178630.5, -1367743.9, -20184.06, 0.15659223, -0.16719283, -1176500.3, 252975.97, 0.0000014175026, 10.001911, 9.999432 
4.650567e+2, 1.6413236e+2, -1167057.3, -1371591.0, 20087.326, 0.14181468, -0.1309917, -1165103.1, 166378.34, 0.000000030371112, 10.001588, 9.998885 
4.6504658e+2, 1.7413037e+2, -1133179.8, -1308724.9, 1229.2004, 0.20792599, -0.23158298, -1133171.1, 100332.92, 0.0, 10.001161, 9.998853 
4.6503547e+2, 1.841301e+2, -1047354.75, -1081037.0, -33443.355, 0.21780333, -0.19746561, -1026751.5, 108757.89, 0.0, 10.000498, 10.000058 
4.6502334e+2, 1.94132e+2, -1090894.4, -1042884.9, -40512.69, 0.18270238, -0.039117236, -1019799.25, 17693.27, 0.0, 9.99948, 10.000144 
4.6501195e+2, 2.0413242e+2, -1009426.56, -925870.8, -14185.601, 0.17008288, -0.018782632, -923528.1, 15960.348, 0.0, 9.999256, 10.000377 
4.6500146e+2, 2.1413073e+2, -787623.5, -768064.3, -70899.91, 0.17516783, -0.24367762, -706272.7, 135230.3, 0.0, 10.000102, 10.000382 
4.6499106e+2, 2.2413042e+2, -711464.44, -771331.2, -81102.2, 0.17835996, -0.2709162, -654948.0, 88557.54, 0.0, 10.000353, 9.99956 
4.6498078e+2, 2.3413199e+2, -696287.7, -723129.75, -70900.7, 0.1797935, -0.080180384, -637548.94, 7943.2686, 0.0, 9.999823, 9.999477 
4.6497124e+2, 2.4413237e+2, -682362.25, -700543.44, 31853.324, 0.17313181, 0.02686772, -658327.75, -110836.42, 0.0, 9.999387, 9.999173 
4.6496278e+2, 2.5413096e+2, -627467.6, -623860.94, 78420.07, 0.15470889, -0.046909526, -547223.5, -97714.52, 0.0, 9.999092, 9.999167 
4.6495402e+2, 2.641304e+2, -422863.53, -246456.69, 43781.95, 0.14921273, -0.108559966, -236188.27, 115324.414, 0.0, 9.998847, 10.0012045 
4.6494472e+2, 2.7413106e+2, -347964.4, -139664.47, -28448.02, 0.15836911, -0.19695118, -135849.14, 117647.78, 0.0, 9.998603, 10.001383 
4.6493572e+2, 2.8413168e+2, -492480.4, -443135.38, 32944.145, 0.10878813, -0.15513292, -426649.06, -271160.94, 0.00000001636591, 9.998164, 9.998836 
4.6492723e+2, 2.9413185e+2, -495164.3, -409727.66, 96907.516, 0.0034622552, -0.02213571, -346540.72, -289047.9, 0.0000038591365, 9.99754, 9.998692 
4.6491972e+2, 3.0412975e+2, -416366.75, -173733.03, 39877.3, 0.10544939, -0.16749202, -167347.2, -167347.2, 0.00002953643, 9.997006, 10.000246 
4.64911e+2, 3.141296e+2, -393780.16, 20554.807, -132029.17, 0.31061056, -0.23624843, 59049.832, 59049.832, 0.00009247593, 9.996341, 10.001901 
4.7511154e+2, 1.2414474e+2, -1400866.8, -1690501.3, 120129.016, 0.23855054, -0.2915686, -1357527.1, 365833.25, 0.00006757851, 10.002686, 9.998843 
4.750948e+2, 1.3414489e+2, -1338357.0, -1598012.4, -151077.67, 0.10546223, -0.20442535, -1268987.1, 356373.3, 0.000029630666, 10.0023775, 9.998983 
4.7508246e+2, 1.4414491e+2, -1233503.1, -1434061.3, -9616.191, 0.15955098, -0.12135868, -1233043.1, 294315.53, 0.00000816001, 10.002147, 9.999541 
4.7507116e+2, 1.5414289e+2, -1159484.0, -1338402.6, -20911.457, 0.23212545, -0.30562523, -1157072.5, 272300.1, 0.0000009257674, 10.00195, 9.999619 
4.750598e+2, 1.6414163e+2, -1193788.4, -1425584.0, -2109.5166, 0.27937323, -0.33729002, -1193769.3, 137615.55, 0.000000014696447, 10.001581, 9.998518 
4.7504732e+2, 1.7414136e+2, -1162277.5, -1368703.8, -7789.8877, 0.15154107, -0.22503594, -1161984.0, 71411.49, 0.0, 10.0011635, 9.998438 
4.75035e+2, 1.8414117e+2, -1049896.9, -1080332.0, -74873.016, 0.10744714, -0.15970446, -988710.6, 146689.48, 0.0, 10.000469, 10.00008 
4.750234e+2, 1.94141e+2, -1089109.6, -1034682.44, -72344.4, 0.22205122, -0.21259446, -984602.44, 52794.85, 0.0, 9.999458, 10.000212 
4.7501236e+2, 2.0414068e+2, -1108866.9, -1120204.0, 6687.186, 0.27088115, -0.21183187, -1105769.0, -166368.78, 0.0, 9.999205, 9.999068 
4.7500202e+2, 2.1414e+2, -897882.56, -981526.75, -33697.668, 0.20610535, -0.1898736, -885996.0, -44583.965, 0.0, 10.000038, 9.998947 
4.7499117e+2, 2.2413939e+2, -699696.3, -736908.8, -102675.79, 0.14286663, -0.18225323, -613954.5, 129466.15, 0.0, 10.000302, 9.9998255 
4.7497985e+2, 2.3413888e+2, -677951.2, -666105.56, -85422.85, 0.09233878, -0.2417668, -586400.44, 59024.617, 0.0, 9.999739, 9.999911 
4.7496992e+2, 2.44139e+2, -610894.5, -541365.5, 15088.699, 0.088415384, -0.23308368, -538232.25, 9190.07, 0.0, 9.999337, 10.000291 
4.749619e+2, 2.541399e+2, -555668.3, -462481.53, 74195.24, 0.14409749, -0.19380212, -421462.84, 27948.572, 0.0, 9.999031, 10.000308 
4.749528e+2, 2.641401e+2, -534301.5, -464193.28, 31043.475, 0.12890032, -0.17802313, -452423.38, -101015.086, 0.0, 9.998791, 9.999733 
4.7494197e+2, 2.7413917e+2, -475610.06, -391683.2, -30628.42, 0.004951109, -0.25565904, -381694.44, -128277.375, 0.0, 9.9985485, 9.999676 
4.7493264e+2, 2.841391e+2, -396445.78, -241142.25, 3789.2449, -0.031920046, -0.25078335, -241049.84, -85633.19, 0.0000000367379, 9.998148, 10.000232 
4.7492567e+2, 2.941401e+2, -387650.3, -173119.44, 81171.35, 0.074815296, -0.20217952, -145868.47, -88462.96, 0.000004901276, 9.997468, 10.000359 
4.7491845e+2, 3.0413967e+2, -396245.97, -109593.89, 13549.79, 0.2744705, -0.2960762, -108954.83, -108954.83, 0.000032485186, 9.996914, 10.000727 
4.7490633e+2, 3.1414038e+2, -413713.84, -9916.468, -131818.78, 0.17602025, -0.30715424, 29305.709, 29305.709, 0.000096372605, 9.996289, 10.001716 
4.8511457e+2, 1.2415656e+2, -1269975.8, -1594999.3, 284639.28, 0.24139641, -0.28464404, -1104723.0, 618522.25, 0.00006360682, 10.003435, 9.999141 
4.8509783e+2, 1.3415715e+2, -1247486.1, -1547700.8, -90312.39, 0.15034434, -0.16047652, -1222412.1, 402828.0, 0.000025765483, 10.002952, 9.999062 
4.850842e+2, 1.4415713e+2, -1217600.8, -1433264.3, 25337.62, 0.11644469, -0.08535731, -1214663.9, 312574.34, 0.000006126259, 10.002301, 9.999465 
4.850732e+2, 1.5415424e+2, -1245398.6, -1392756.8, -27424.824, 0.27291033, -0.3436404, -1240460.1, 188800.1, 0.0000005794279, 10.001424, 9.999496 
4.850616e+2, 1.6415279e+2, -1279015.8, -1469452.5, 20258.863, 0.33207852, -0.38681144, -1276884.4, 54389.883, 0.0000000048834687, 10.001006, 9.998495 
4.8504817e+2, 1.741532e+2, -1154424.4, -1367006.1, 37100.63, 0.122049004, -0.20484303, -1148135.4, 85143.61, 0.0, 10.001226, 9.998417 
4.8503533e+2, 1.841528e+2, -925476.5, -1059933.3, -25326.793, 0.050266217, -0.1437149, -920864.06, 214421.3, 0.0, 10.001493, 9.9997225 
4.8502386e+2, 1.9415121e+2, -783336.06, -929536.1, -66952.72, 0.21343122, -0.30301672, -757308.5, 279986.22, 0.0, 10.001744, 9.999827 
4.8501262e+2, 2.0415044e+2, -829498.8, -1022342.6, 41099.766, 0.27672628, -0.31002325, -821104.8, 118197.02, 0.0, 10.001283, 9.998742 
4.8500174e+2, 2.1415067e+2, -952340.5, -1042017.25, 78673.5, 0.18945982, -0.16574648, -906625.06, -65317.906, 0.0, 9.999813, 9.998642 
4.849906e+2, 2.2415031e+2, -888364.8, -828684.94, 59440.58, 0.12126023, -0.11581653, -792014.7, -48700.49, 0.0, 9.999012, 9.999817 
4.849792e+2, 2.3414905e+2, -761766.94, -706270.2, 35522.723, 0.08791621, -0.24986489, -688942.7, -43617.875, 0.0, 9.999154, 9.999917 
4.849691e+2, 2.4414887e+2, -636957.5, -536826.94, 92642.76, 0.090708956, -0.28036606, -481586.88, 65736.81, 0.0, 9.999092, 10.000436 
4.849608e+2, 2.5415015e+2, -586709.2, -456933.56, 59363.633, 0.14584424, -0.21930224, -433875.53, 15431.424, 0.0, 9.998742, 10.00048 
4.849514e+2, 2.6415014e+2, -654115.75, -619313.5, 7761.6406, 0.13703829, -0.19029036, -617660.94, -266354.9, 0.0, 9.998387, 9.998863 
4.8494062e+2, 2.741482e+2, -617645.56, -568435.5, -7299.184, 0.044426512, -0.2737747, -567375.6, -314046.53, 0.0, 9.998033, 9.998714 
4.8493093e+2, 2.8414774e+2, -398517.28, -134491.84, 46165.637, 0.008035433, -0.2992202, -126652.414, 28680.883, 0.00000008825205, 9.997674, 10.001192 
4.849231e+2, 2.9414958e+2, -337935.25, -21550.695, 63856.03, 0.08818211, -0.2762069, -9148.75, 48160.984, 0.0000056074396, 9.997274, 10.001486 
4.8491582e+2, 3.0415046e+2, -380537.34, -107759.54, -24370.762, 0.3186915, -0.29959038, -105599.3, -105599.3, 0.000034672463, 9.997044, 10.000666 
4.8490298e+2, 3.1415167e+2, -326594.78, 8165.167, -211780.42, 0.1881129, -0.24866614, 110724.086, 110724.086, 0.000099448036, 9.996993, 10.001486 
4.9511597e+2, 1.24170415e+2, -1293637.8, -1651189.5, 254877.06, -0.0049373955, -0.25883642, -1161088.9, 562017.94, 0.00005696404, 10.003468, 9.998739 
4.9510127e+2, 1.341695e+2, -1291103.8, -1638047.9, -103263.06, 0.18646555, -0.22385447, -1262695.1, 362421.53, 0.00002106699, 10.002956, 9.998436 
4.9508667e+2, 1.4416891e+2, -1249693.3, -1501138.3, -12058.982, 0.11320973, -0.14827761, -1249116.3, 278005.8, 0.000004231548, 10.002304, 9.999 
4.9507418e+2, 1.5416692e+2, -1275169.3, -1454853.4, -54620.06, 0.212428, -0.27621174, -1259868.8, 169269.98, 0.00000029436407, 10.00143, 9.999065 
4.9506184e+2, 1.6416584e+2, -1256803.6, -1421484.9, 18578.365, 0.24172515, -0.27479577, -1254733.6, 76416.26, 0.0000000005507737, 10.000995, 9.998831 
4.9504894e+2, 1.741659e+2, -1124492.9, -1305710.3, 51020.6, 0.061062016, -0.16767931, -1111115.8, 122038.84, 0.0, 10.00123, 9.998835 
4.9503636e+2, 1.8416496e+2, -982468.6, -1169841.3, -22139.697, -0.012305624, -0.14961198, -979888.1, 155277.25, 0.0, 10.001456, 9.998987 
4.9502456e+2, 1.9416252e+2, -845998.9, -1051595.6, -54038.84, 0.09486455, -0.31232822, -832660.7, 204524.86, 0.0, 10.001708, 9.999008 
4.9501258e+2, 2.0416163e+2, -787501.56, -921265.4, -15677.55, 0.13262737, -0.31866038, -785688.6, 153505.39, 0.0, 10.001219, 9.999471 
4.9500042e+2, 2.1416283e+2, -900048.56, -920098.44, 28857.225, 0.065450564, -0.16525146, -879524.56, -38337.19, 0.0, 9.999749, 9.999515 
4.94989e+2, 2.2416323e+2, -922405.94, -881263.3, 55946.434, 0.049327493, -0.07197876, -842226.06, -99040.26, 0.0, 9.998938, 9.99949 
4.9497864e+2, 2.3416251e+2, -805309.75, -775758.8, 47680.695, 0.10153413, -0.10874192, -740616.7, -95424.96, 0.0, 9.999069, 9.99948 
4.949686e+2, 2.4416198e+2, -702018.8, -663964.4, 76567.945, 0.115249544, -0.11250434, -604094.94, -56899.793, 0.0, 9.999054, 9.999582 
4.9495906e+2, 2.5416157e+2, -656878.9, -591694.8, 52122.855, 0.0816565, -0.1271343, -562813.0, -113616.81, 0.0, 9.99869, 9.999581 
4.9494967e+2, 2.6416045e+2, -679673.06, -658455.9, -11955.749, 0.11147148, -0.14959171, -653080.6, -301873.72, 0.0, 9.998331, 9.998619 
4.9494043e+2, 2.7415812e+2, -643612.0, -602305.2, -12547.181, 0.20771362, -0.25891608, -598792.6, -345559.0, 0.0, 9.997949, 9.99852 
4.949303e+2, 2.8415772e+2, -375249.8, -72158.336, 26597.033, 0.16384873, -0.28853056, -69842.086, 85394.664, 0.00000018947561, 9.997615, 10.00165 
4.9491933e+2, 2.9416025e+2, -305825.28, 50494.76, 59047.176, -0.033336684, -0.24437974, 60024.81, 117230.55, 0.000005616016, 9.997248, 10.001995 
4.949116e+2, 3.0416203e+2, -425371.13, -195900.05, -31163.926, 0.17644037, -0.17972362, -191743.05, -191743.05, 0.000033520122, 9.997022, 10.00007 
4.9490052e+2, 3.1416333e+2, -362744.66, -46088.887, -172422.47, 0.20471624, -0.060105782, 29671.299, 29671.299, 0.000095768366, 9.996906, 10.00115 
5.0511867e+2, 1.24184266e+2, -1520957.4, -1753276.1, 226158.77, 0.0047143605, -0.20175286, -1382871.1, 340099.38, 0.000046012723, 10.001902, 9.998786 
5.0510484e+2, 1.3418223e+2, -1498270.0, -1752599.0, -114449.05, 0.32344294, -0.26747409, -1454351.5, 170639.5, 0.000015500982, 10.001589, 9.99832 
5.050887e+2, 1.4418107e+2, -1401169.1, -1603571.1, 22442.258, 0.14012018, -0.22738577, -1398710.6, 128291.805, 0.0000026245805, 10.001402, 9.998727 
5.0507516e+2, 1.5417981e+2, -1296596.6, -1499959.5, -30803.02, 0.17046116, -0.25043863, -1292033.4, 136980.98, 0.00000011750303, 10.001436, 9.998752 
5.0506246e+2, 1.6417894e+2, -1206933.6, -1379429.4, 65468.348, 0.19539085, -0.2198825, -1184900.4, 146123.63, 0.000000000026416515, 10.001256, 9.998992 
5.050505e+2, 1.7417848e+2, -1180246.6, -1314199.8, 69094.42, 0.120359935, -0.18227363, -1150994.8, 82036.69, 0.0, 10.000759, 9.999008 
5.0503796e+2, 1.8417752e+2, -1147437.0, -1242348.4, 27875.492, 0.06323215, -0.17738561, -1139855.5, -4814.094, 0.0, 10.000301, 9.999043 
5.050249e+2, 1.941758e+2, -1111269.5, -1174128.0, 49231.24, 0.054724123, -0.26880854, -1084290.6, -47235.12, 0.0, 9.999877, 9.999044 
5.050124e+2, 2.0417494e+2, -980555.1, -1051752.8, 88601.41, 0.05320983, -0.25817072, -920668.44, 18395.748, 0.0, 10.000056, 9.999128 
5.0500065e+2, 2.1417521e+2, -748228.4, -889609.3, 23738.443, 0.05469351, -0.15923625, -744349.06, 96717.56, 0.0, 10.000982, 9.999123 
5.0498927e+2, 2.2417514e+2, -604385.2, -763504.7, 11706.054, 0.06682831, -0.07847753, -603528.6, 139541.03, 0.0, 10.001269, 9.999177 
5.049784e+2, 2.3417453e+2, -597013.25, -708436.4, 2009.7921, 0.09507703, -0.073592685, -596977.06, 48097.027, 0.0, 10.000641, 9.999186 
5.049679e+2, 2.4417356e+2, -610857.7, -689173.25, 48758.1, 0.10179455, -0.07705684, -587480.0, -40398.086, 0.0, 9.999984, 9.998962 
5.049582e+2, 2.541719e+2, -602036.56, -637517.7, 31337.111, 0.09601389, -0.14836706, -583766.8, -134670.88, 0.0, 9.999381, 9.998936 
5.049487e+2, 2.6417053e+2, -519310.03, -529862.0, 30664.615, 0.1381845, -0.18546693, -493470.8, -142361.7, 0.0, 9.999209, 9.999081 
5.049393e+2, 2.7416933e+2, -374007.38, -410841.97, 68453.664, 0.2286421, -0.23429348, -321536.72, -68414.05, 0.00000000061010413, 9.999541, 9.9990635 
5.049283e+2, 2.8416935e+2, -261593.52, -60437.23, 69108.93, 0.16168769, -0.23470044, -38982.563, 116138.87, 0.00000027597625, 9.998582, 10.001262 
5.049154e+2, 2.9417127e+2, -554783.94, -123682.89, 7196.8647, -0.07068303, -0.20398274, -123562.78, -66464.76, 0.0000049400037, 9.99578, 10.001505 
5.049074e+2, 3.0417252e+2, -695620.7, -318497.34, 5468.974, 0.15429245, -0.16529985, -318418.03, -318418.03, 0.000029285811, 9.995133, 10.000149 
5.0489753e+2, 3.1417373e+2, -257252.03, 42628.01, -60295.277, 0.1929591, -0.06474912, 54297.18, 54297.18, 0.000085814645, 9.997451, 10.001518 
5.1512206e+2, 1.2419819e+2, -1487195.1, -1689539.8, 180756.53, 0.112448715, -0.10440568, -1381223.1, 341612.44, 0.00003362694, 10.001932, 9.999205 
5.151084e+2, 1.3419548e+2, -1465059.0, -1689955.0, -115514.44, 0.5006574, -0.28312194, -1416298.6, 208562.55, 0.0000102900585, 10.00162, 9.998731 
5.150902e+2, 1.4419374e+2, -1407430.6, -1627793.1, 16603.371, 0.12996006, -0.31375805, -1406186.6, 120691.43, 0.0000014940234, 10.001444, 9.998544 
5.150758e+2, 1.5419294e+2, -1307908.1, -1530120.9, -21161.674, 0.077694565, -0.26944622, -1305910.8, 122976.13, 0.00000003629146, 10.001465, 9.99853 
5.150632e+2, 1.6419207e+2, -1214313.6, -1389951.6, 44194.465, 0.12583545, -0.22346166, -1203820.3, 127076.36, 0.0, 10.001239, 9.998926 
5.1505256e+2, 1.7419095e+2, -1183825.5, -1322529.6, 58329.617, 0.23339264, -0.24921973, -1162557.1, 70351.984, 0.0, 10.000765, 9.998946 
5.1503986e+2, 1.8419057e+2, -1094023.6, -1126888.5, 5310.8926, 0.20621769, -0.21911551, -1093186.6, 41725.6, 0.0, 10.000281, 9.999843 
5.1502466e+2, 1.9419111e+2, -1051925.5, -1047814.2, 40525.273, 0.02760636, -0.17409405, -1009292.44, 27611.117, 0.0, 9.999859, 9.999921 
5.1501185e+2, 2.0419034e+2, -1097059.4, -1278501.5, 114190.95, -0.022426518, -0.13328831, -1041938.44, -103025.914, 0.0, 9.9999895, 9.997604 
5.150022e+2, 2.141877e+2, -875769.4, -1143920.1, 64149.855, 0.09756117, -0.15659681, -861213.0, -20266.71, 0.0, 10.000932, 9.997403 
5.1499116e+2, 2.2418588e+2, -632296.5, -808556.6, -14359.785, 0.11604441, -0.14379421, -631134.3, 111832.984, 0.0, 10.001212, 9.998897 
5.149782e+2, 2.3418511e+2, -616279.25, -733358.8, -17722.068, -0.003496118, -0.13890155, -613655.5, 31316.053, 0.0, 10.000577, 9.999044 
5.1496685e+2, 2.4418364e+2, -642922.2, -746368.06, 19546.998, -0.01576028, -0.16789974, -639351.8, -92368.22, 0.0, 9.999943, 9.99859 
5.1495796e+2, 2.541811e+2, -637964.25, -697779.75, 17737.787, 0.117830016, -0.2960973, -633099.9, -184092.81, 0.0, 9.999317, 9.998554 
5.149482e+2, 2.6418033e+2, -446788.3, -368718.9, 35647.97, 0.15207665, -0.30064303, -354890.72, -3878.0203, 0.0, 9.999168, 10.000207 
5.1493704e+2, 2.7418175e+2, -291952.28, -229583.56, 89674.734, 0.03337107, -0.2034231, -165825.72, 87170.7, 0.0000000018853024, 9.999495, 10.000334 
5.1492476e+2, 2.8418255e+2, -355446.75, -246886.3, -33001.445, -0.07117186, -0.13938686, -237641.42, -82653.92, 0.00000034894228, 9.998547, 9.999998 
5.14911e+2, 2.9418254e+2, -670168.7, -352535.28, -91198.266, -0.11085603, -0.15949547, -328213.03, -271225.5, 0.0000043002137, 9.99573, 9.999958 
5.1490295e+2, 3.0418184e+2, -649833.6, -208406.97, 73361.195, 0.17922007, -0.26374665, -196534.31, -196534.31, 0.00002546161, 9.99508, 10.000929 
5.148936e+2, 3.1418282e+2, -196998.31, 202735.52, 84118.56, 0.031473912, -0.284219, 219715.81, 219715.81, 0.00007750593, 9.997318, 10.002676 
5.2512425e+2, 1.2421074e+2, -1522981.6, -1684250.6, 185671.11, 0.16722783, -0.17807893, -1401191.6, 321522.16, 0.000024083258, 10.001575, 9.999416 
5.2511036e+2, 1.3420956e+2, -1429599.8, -1645100.1, -119315.42, 0.53604937, -0.2276341, -1376582.3, 248143.13, 0.000006343457, 10.001733, 9.998987 
5.2509123e+2, 1.4420818e+2, -1331659.3, -1597832.1, 42199.938, 0.062894925, -0.23650597, -1325129.0, 201610.67, 0.00000066930806, 10.001996, 9.998481 
5.250783e+2, 1.542068e+2, -1165378.8, -1471338.4, -1217.3351, 0.13338068, -0.24019699, -1165373.9, 263380.4, 0.000000004981165, 10.002483, 9.998443 
5.250657e+2, 1.642057e+2, -1076291.6, -1308334.1, 47614.277, 0.2138366, -0.21786597, -1066901.4, 263864.13, 0.0, 10.002116, 9.999073 
5.2505326e+2, 1.7420487e+2, -1192640.9, -1307455.4, 59387.297, 0.23978649, -0.2316611, -1167450.0, 65323.418, 0.0, 10.00062, 9.9991255 
5.2503985e+2, 1.8420449e+2, -1134260.1, -1188615.4, 30284.297, 0.18885958, -0.19264331, -1120746.8, 14029.816, 0.0, 10.000189, 9.999467 
5.2502537e+2, 1.9420466e+2, -896820.25, -1018381.6, -42532.266, 0.058816127, -0.1413671, -883416.8, 153357.34, 0.0, 10.001127, 9.99951 
5.2501273e+2, 2.042035e+2, -925145.4, -1186825.3, 30854.406, 0.019158404, -0.11894229, -921556.56, 17230.113, 0.0, 10.001132, 9.997684 
5.2500254e+2, 2.142005e+2, -1028458.94, -1202468.4, 105777.9, 0.09980918, -0.18858829, -978500.94, -137680.69, 0.0, 9.999822, 9.997535 
5.2499133e+2, 2.241985e+2, -916524.56, -988755.06, 121340.125, 0.10701045, -0.18474524, -826039.1, -83197.16, 0.0, 9.999456, 9.998502 
5.249788e+2, 2.3419765e+2, -676337.25, -813437.0, 84023.74, 0.016669895, -0.1416575, -636447.9, 8401.38, 0.0, 10.000392, 9.998584 
5.249673e+2, 2.4419597e+2, -569379.4, -723533.06, 92349.37, 0.008792365, -0.16110753, -526168.06, 20696.129, 0.0, 10.0005, 9.998478 
5.2495724e+2, 2.541931e+2, -626684.06, -701450.1, 95322.57, 0.11435963, -0.3136658, -561676.25, -112786.29, 0.0, 9.999436, 9.998468 
5.2494663e+2, 2.6419225e+2, -562438.5, -423085.3, 117011.15, 0.12624727, -0.31987828, -356576.63, -5681.2075, 0.0, 9.9983635, 10.000224 
5.249352e+2, 2.7419406e+2, -606515.0, -374792.22, 71588.164, 0.0075982492, -0.19152127, -354459.88, -101585.086, 0.00000000009174081, 9.99731, 10.000387 
5.249226e+2, 2.8419456e+2, -579086.1, -413970.97, -76402.61, -0.07173607, -0.1373555, -384042.5, -229173.95, 0.00000033351301, 9.997272, 9.999463 
5.249086e+2, 2.941932e+2, -309171.75, -249875.92, -88287.77, -0.05238473, -0.23063616, -186390.97, -129508.74, 0.0000041079616, 9.998513, 9.999323 
5.2489966e+2, 3.041918e+2, -241142.69, 26746.541, 119734.09, 0.21708189, -0.38788927, 72461.086, 72461.086, 0.000024461535, 9.997713, 10.001277 
5.2488893e+2, 3.141939e+2, -641633.9, 13144.006, 93239.48, -0.002628552, -0.33811784, 26162.348, 26162.348, 0.000075222786, 9.994146, 10.002904 
5.35125e+2, 1.24221854e+2, -1511072.5, -1667014.8, 125710.59, 0.037122793, -0.42528817, -1441115.8, 281489.9, 0.000017799504, 10.001618, 9.99951 
5.351106e+2, 1.3422449e+2, -1422890.9, -1629296.8, -109221.22, 0.37426713, -0.101057984, -1375827.0, 248756.58, 0.0000036805177, 10.00173, 9.9991 
5.3509146e+2, 1.4422427e+2, -1323229.0, -1587325.9, 54958.035, -0.13317676, -0.000008915974, -1312248.9, 214339.03, 0.00000019448485, 10.002019, 9.998544 
5.3508234e+2, 1.5422139e+2, -1160127.6, -1464349.5, 24485.604, 0.272168, -0.16314055, -1158169.5, 270447.2, 0.00000000000050979853, 10.002494, 9.998487 
5.3506976e+2, 1.642199e+2, -1055642.3, -1260382.9, -10392.574, 0.3921916, -0.19821922, -1055116.0, 275514.25, 0.0, 10.002097, 9.999411 
5.350525e+2, 1.7422023e+2, -1165978.5, -1254014.0, 10403.32, 0.08193473, -0.12893736, -1164765.8, 67858.516, 0.0, 10.000627, 9.999491 
5.3503776e+2, 1.8421923e+2, -1245015.3, -1417410.1, 53546.273, -0.05008977, -0.10044459, -1229737.5, -95102.91, 0.0, 10.000182, 9.9979 
5.350269e+2, 1.9421633e+2, -1024679.94, -1278821.9, 692.92017, 0.083831884, -0.18291888, -1024678.06, 11990.026, 0.0, 10.0011, 9.99774 
5.350149e+2, 2.0421444e+2, -815588.5, -943708.2, -17145.75, 0.11035801, -0.2191467, -813333.6, 125353.414, 0.0, 10.001069, 9.999379 
5.3500146e+2, 2.142138e+2, -898412.9, -917638.44, 62062.91, -0.0015208494, -0.24983747, -845222.7, -4535.557, 0.0, 9.999757, 9.99952 
5.349896e+2, 2.242131e+2, -965164.1, -1078254.6, 143974.31, -0.020550607, -0.1958292, -867029.2, -124336.37, 0.0, 9.999402, 9.997916 
5.349801e+2, 2.3421213e+2, -739699.44, -931738.4, 126187.36, 0.09057357, -0.08838163, -677153.5, -32446.398, 0.0, 10.000333, 9.9978 
5.34969e+2, 2.4421051e+2, -569624.94, -712423.9, 53611.332, 0.114619985, -0.06278419, -551738.0, -5014.0513, 0.0, 10.000452, 9.998576 
5.3495586e+2, 2.542079e+2, -622115.25, -680445.9, 62012.734, 0.019326285, -0.20392573, -582751.8, -134006.7, 0.0, 9.999385, 9.998639 
5.349438e+2, 2.6420635e+2, -641814.8, -577437.6, 72516.62, -0.0011986023, -0.24292338, -530286.6, -179529.47, 0.0, 9.99832, 9.999185 
5.349333e+2, 2.7420613e+2, -696527.1, -546689.44, 41331.492, 0.073815726, -0.20394532, -536044.7, -283286.44, 0.0, 9.997243, 9.99924 
5.3492165e+2, 2.8420523e+2, -572177.25, -392102.8, -40887.613, 0.09338084, -0.235465, -383253.75, -228488.28, 0.00000019037492, 9.997238, 9.999631 
5.349084e+2, 2.942032e+2, -295597.03, -211111.66, -31890.014, 0.052557155, -0.4225358, -200425.92, -143643.45, 0.0000040138116, 9.998465, 9.999614 
5.3489745e+2, 3.0420232e+2, -258082.88, 1051.6172, -4549.989, 0.21266319, -0.5347085, 1131.4832, 1131.4832, 0.000024849203, 9.997677, 10.001114 
5.348828e+2, 3.142069e+2, -705422.7, -95772.37, 1888.2449, -0.062256567, -0.22168176, -95766.52, -95766.52, 0.00007616266, 9.994055, 10.0021925 
5.4512614e+2, 1.2423736e+2, -1716197.5, -1784620.3, 203012.22, 0.0648629, -0.3448545, -1544534.3, 177922.34, 0.000013143151, 10.000296, 9.999356 
5.4511255e+2, 1.3423906e+2, -1356075.1, -1600899.0, -9082.79, 0.38420907, -0.10536776, -1355738.6, 268703.44, 0.000002162896, 10.002207, 9.999068 
5.45093e+2, 1.4423856e+2, -1233251.8, -1530621.9, 118820.85, -0.20022364, -0.035952874, -1191606.5, 334842.03, 0.000000029643958, 10.002582, 9.998661 
5.4508454e+2, 1.5423647e+2, -1323701.0, -1525091.9, 73345.914, 0.3091751, -0.13310754, -1299820.4, 128649.28, 0.0, 10.001297, 9.998645 
5.450717e+2, 1.6423523e+2, -1265008.9, -1385538.9, 34121.28, 0.44721165, -0.14183289, -1256019.9, 74461.266, 0.0, 10.000772, 9.999183 
5.450531e+2, 1.7423508e+2, -1103840.6, -1250858.1, -3602.3584, 0.062349994, -0.09543123, -1103752.5, 128727.33, 0.0, 10.00118, 9.999239 
5.4503816e+2, 1.8423358e+2, -1144573.9, -1420619.9, 88052.89, -0.07762865, -0.082283065, -1118878.6, 15617.141, 0.0, 10.001081, 9.997453 
5.4502815e+2, 1.942302e+2, -1162799.9, -1394362.3, 120206.99, 0.13339652, -0.16863416, -1111682.9, -75147.14, 0.0, 10.000352, 9.997309 
5.450163e+2, 2.0422836e+2, -905238.5, -951198.0, 108939.9, 0.1803057, -0.18900797, -816881.06, 121672.76, 0.0, 10.000297, 9.999705 
5.4500204e+2, 2.1422851e+2, -672638.3, -762477.1, 58871.14, 0.013350285, -0.18033178, -643506.6, 197036.86, 0.0, 10.001109, 9.999935 
5.449899e+2, 2.242278e+2, -710506.2, -961900.0, 114179.9, -0.025440026, -0.14724614, -666389.2, 76158.2, 0.0, 10.001175, 9.997861 
5.449806e+2, 2.3422574e+2, -759403.0, -954997.3, 135073.88, 0.113484725, -0.13905717, -690439.2, -45866.996, 0.0, 10.000251, 9.997684 
5.449695e+2, 2.4422409e+2, -643063.75, -742260.56, 88557.08, 0.15040912, -0.112026475, -591161.6, -44571.633, 0.0, 9.999918, 9.998631 
5.449559e+2, 2.5422296e+2, -467626.4, -595403.2, 75585.89, 0.043225225, -0.11449092, -432545.34, 16053.572, 0.0, 10.000407, 9.998727 
5.4494315e+2, 2.6422152e+2, -437943.8, -532444.7, 75889.125, 0.026025772, -0.12434045, -395797.6, -45186.465, 0.0, 9.999949, 9.998708 
5.4493165e+2, 2.7421957e+2, -594836.9, -556150.56, 74491.28, 0.13873762, -0.20798685, -498532.0, -245902.55, 0.0, 9.99819, 9.998722 
5.4491967e+2, 2.8421798e+2, -579145.1, -405322.5, 94115.6, 0.17657988, -0.273148, -364127.13, -209483.64, 0.00000011177434, 9.99724, 9.9995365 
5.4490703e+2, 2.9421675e+2, -441718.72, -281603.25, 71152.45, 0.12781052, -0.37075168, -254553.97, -197901.02, 0.0000045059896, 9.99748, 9.999597 
5.448948e+2, 3.0421644e+2, -322883.3, -50232.473, -4422.3823, 0.20809731, -0.4250351, -50160.76, -50160.76, 0.00002638034, 9.9973135, 10.000936 
5.4487777e+2, 3.1421983e+2, -418275.53, -17599.352, -15282.179, -0.07656264, -0.20522898, -17017.32, -17017.32, 0.00007851539, 9.996281, 10.0016575 
5.551272e+2, 1.2425713e+2, -1723897.8, -1810355.9, 179543.61, 0.108720884, 0.069015145, -1582452.3, 139814.97, 0.000010165176, 10.000349, 9.999146 
5.5511606e+2, 1.3425335e+2, -1364524.0, -1616736.6, 64825.773, 0.49946862, -0.22862008, -1348837.5, 275462.56, 0.0000015959415, 10.002206, 9.998958 
5.550958e+2, 1.4425111e+2, -1218249.8, -1503795.0, 68611.06, -0.20534736, -0.33407348, -1202619.4, 323701.1, 0.000000016896806, 10.002594, 9.998842 
5.550847e+2, 1.5425202e+2, -1306122.9, -1494186.1, 32393.082, 0.18056728, -0.1498045, -1300699.6, 127613.98, 0.0, 10.001316, 9.998851 
5.550713e+2, 1.6425167e+2, -1317115.1, -1495422.8, 38007.516, 0.3160555, -0.048177943, -1309351.6, 20966.66, 0.0, 10.000782, 9.998421 
5.550551e+2, 1.742494e+2, -1165668.0, -1376529.4, 17358.92, 0.120880276, -0.13020377, -1164248.5, 68091.414, 0.0, 10.001169, 9.998382 
5.550406e+2, 1.8424758e+2, -1099208.4, -1318284.8, 58376.387, 0.050041348, -0.13469556, -1084624.0, 49735.31, 0.0, 10.001046, 9.998173 
5.5502874e+2, 1.9424629e+2, -1110881.5, -1279733.9, 99283.55, 0.14820363, -0.09424772, -1064981.1, -28604.277, 0.0, 10.000318, 9.998118 
5.550165e+2, 2.0424528e+2, -979009.25, -1094338.3, 129981.9, 0.1654077, -0.029619066, -894475.0, 43912.504, 0.0, 10.000256, 9.998739 
5.5500394e+2, 2.1424463e+2, -762833.9, -935276.44, 96070.14, 0.08082457, 0.010382069, -719967.7, 120421.914, 0.0, 10.001042, 9.998783 
5.549917e+2, 2.2424254e+2, -691638.4, -903787.75, 79088.94, 0.03116315, -0.050596252, -665399.44, 77007.2, 0.0, 10.0011, 9.998294 
5.549801e+2, 2.3423845e+2, -733513.25, -879810.8, 107393.39, 0.027456727, -0.3010333, -676723.25, -32278.59, 0.0, 10.00016, 9.998242 
5.5496866e+2, 2.4423675e+2, -652051.3, -747341.56, 98823.734, 0.05469491, -0.30697882, -589986.9, -43525.1, 0.0, 9.999859, 9.998626 
5.549573e+2, 2.5423822e+2, -480055.06, -607678.3, 102414.96, 0.122421466, -0.044180732, -423198.75, 25252.896, 0.0, 10.000348, 9.9986725 
5.549446e+2, 2.6423767e+2, -436154.8, -519284.47, 10985.353, 0.15538359, 0.030294463, -434727.63, -84269.58, 0.0, 9.999913, 9.998813 
5.5493e+2, 2.742343e+2, -598243.7, -548894.2, 15156.76, 0.13921249, -0.20558646, -544610.9, -292122.56, 0.0, 9.998133, 9.998797 
5.549165e+2, 2.842328e+2, -607006.06, -462799.53, 92737.75, 0.1176415, -0.24638805, -417432.94, -262930.6, 0.00000024371042, 9.997229, 9.999153 
5.5490434e+2, 2.942339e+2, -470395.63, -342921.16, 90420.5, 0.094464555, -0.07470646, -296031.53, -239537.11, 0.0000058589785, 9.997473, 9.999187 
5.548914e+2, 3.0423397e+2, -342050.44, -77605.08, -40185.24, 0.1240459, -0.054692805, -71633.37, -71633.37, 0.000029983938, 9.997272, 10.000758 
5.5487335e+2, 3.1423247e+2, -448978.22, -63250.426, -25830.479, -0.18133917, -0.31057054, -61528.363, -61528.363, 0.00008393316, 9.99621, 10.001372 
5.651288e+2, 1.2427274e+2, -1431430.3, -1677478.8, 111934.39, 0.13849682, 0.12517582, -1388128.8, 333985.97, 0.000007999431, 10.002373, 9.999082 
5.651186e+2, 1.3426816e+2, -1432075.1, -1648628.5, 45660.188, 0.5668549, -0.25698096, -1422841.5, 201312.03, 0.00000128022, 10.001724, 9.99897 
5.65098e+2, 1.4426567e+2, -1398346.9, -1612352.8, 19954.535, -0.1821947, -0.37779632, -1396502.1, 129673.766, 0.000000037787355, 10.001454, 9.998648 
5.6508595e+2, 1.5426685e+2, -1234511.0, -1480049.9, -61584.93, 0.14227848, -0.14769441, -1219930.4, 208237.84, 0.0, 10.0019, 9.998668 
5.6507224e+2, 1.642664e+2, -1179816.1, -1453061.3, -28160.396, 0.28575316, -0.03524449, -1176944.1, 153230.72, 0.0, 10.001832, 9.998209 
5.6505716e+2, 1.7426352e+2, -1178838.0, -1404828.6, -16078.624, 0.21809854, -0.15577039, -1177699.9, 54502.977, 0.0, 10.001173, 9.998184 
5.650428e+2, 1.842617e+2, -1107646.6, -1297895.6, 41226.273, 0.17592177, -0.16378441, -1099097.3, 35124.953, 0.0, 10.000884, 9.998387 
5.6502956e+2, 1.9426113e+2, -988346.8, -1186132.5, 31029.258, 0.16213879, -0.075410575, -983593.1, 52637.633, 0.0, 10.001017, 9.998416 
5.65017e+2, 2.0426016e+2, -909892.25, -1120037.9, 87892.51, 0.14946896, -0.0019260768, -877978.25, 60263.16, 0.0, 10.000991, 9.998207 
5.6500554e+2, 2.1425848e+2, -845978.06, -1037777.0, 83352.63, 0.15715161, -0.0033932293, -814817.06, 25438.559, 0.0, 10.0007515, 9.998214 
5.649933e+2, 2.2425617e+2, -757226.6, -877713.56, 70363.9, 0.12377621, -0.07977261, -724839.9, 17435.25, 0.0, 10.000397, 9.998812 
5.649802e+2, 2.3425293e+2, -732018.8, -805450.2, 90559.26, 0.048114747, -0.3083322, -671015.4, -26712.77, 0.0, 9.999858, 9.998893 
5.64968e+2, 2.4425171e+2, -723867.06, -753651.94, 129293.195, 0.044995513, -0.31422526, -608611.44, -62297.16, 0.0, 9.999266, 9.998855 
5.6495696e+2, 2.5425303e+2, -712442.8, -700402.0, 138115.92, 0.14201358, -0.084762976, -568175.3, -119868.66, 0.0, 9.998676, 9.9988365 
5.6494415e+2, 2.6425278e+2, -585464.0, -571590.75, 61339.723, 0.18092625, 0.0026793368, -516796.7, -166485.3, 0.0, 9.99881, 9.9989805 
5.6492895e+2, 2.7425027e+2, -322700.22, -390394.56, 58611.855, 0.14281073, -0.16340438, -288864.47, -36530.83, 0.0, 9.999928, 9.99901 
5.6491494e+2, 2.8424928e+2, -258769.38, -320660.8, 142073.38, 0.1212118, -0.15712956, -144310.55, 10033.857, 0.00000046127252, 9.999731, 9.998922 
5.6490237e+2, 2.9425043e+2, -438331.0, -355144.44, 139134.03, 0.1323985, 0.049043957, -251519.67, -195181.73, 0.000007820285, 9.997818, 9.998935 
5.648886e+2, 3.0425057e+2, -443758.75, -154286.64, 30984.938, 0.1480859, 0.10164127, -151007.17, -151007.17, 0.000035959114, 9.996674, 10.000532 
5.6487024e+2, 3.1424722e+2, -431470.06, -46761.855, 23514.857, -0.10903278, -0.31803527, -45329.867, -45329.867, 0.000094359246, 9.996284, 10.001456 
5.751303e+2, 1.2428437e+2, -1419532.8, -1663625.9, -8688.907, 0.01722771, -0.16709225, -1419223.9, 302773.25, 0.0000055281434, 10.0024185, 9.999151 
5.7512003e+2, 1.342835e+2, -1424462.8, -1636118.3, 23451.879, 0.52076614, -0.18816254, -1421895.4, 202106.52, 0.00000085256136, 10.001736, 9.999048 
5.7509947e+2, 1.4428218e+2, -1436187.9, -1690756.1, 22396.945, -0.1905974, -0.17004526, -1434232.5, 91782.625, 0.00000002938157, 10.001455, 9.998109 
5.7508785e+2, 1.5428093e+2, -1278324.9, -1566161.6, -38566.703, 0.13174269, -0.12270767, -1273247.0, 154786.08, 0.0, 10.0018835, 9.998086 
5.750743e+2, 1.6427943e+2, -1155733.3, -1401223.1, -56679.227, 0.29334977, -0.10030493, -1143278.9, 186771.48, 0.0, 10.001817, 9.998572 
5.750591e+2, 1.7427744e+2, -1150071.3, -1345988.5, -33283.816, 0.2885851, -0.17647737, -1144571.3, 87497.305, 0.0, 10.001173, 9.9985895 
5.7504445e+2, 1.842759e+2, -1123555.5, -1326765.5, 39816.92, 0.23718119, -0.16710694, -1116032.3, 18051.586, 0.0, 10.00087, 9.998196 
5.7503015e+2, 1.9427483e+2, -1012031.3, -1224893.3, 42425.063, 0.109243385, -0.105056085, -1003887.3, 32209.51, 0.0, 10.000974, 9.998172 
5.750174e+2, 2.04273e+2, -923223.56, -1135012.0, 73253.99, 0.07743597, -0.09943994, -900355.44, 37759.723, 0.0, 10.000933, 9.998133 
5.7500666e+2, 2.1427006e+2, -861961.7, -1055134.8, 80032.375, 0.17659175, -0.22279851, -833112.44, 7029.535, 0.0, 10.000679, 9.998131 
5.7499456e+2, 2.2426866e+2, -717103.06, -777072.06, 45220.313, 0.19234137, -0.23683786, -692829.4, 49323.98, 0.0, 10.000324, 9.999536 
5.7498085e+2, 2.3426925e+2, -691399.8, -701093.2, 77891.98, 0.105561584, -0.15691684, -618203.9, 25941.521, 0.0, 9.999772, 9.999651 
5.749675e+2, 2.4426891e+2, -697726.1, -694654.75, 100568.51, 0.053145465, -0.13536178, -595610.2, -49462.332, 0.0, 9.999235, 9.99928 
5.749547e+2, 2.5426725e+2, -693986.75, -647955.44, 121507.25, 0.039284185, -0.23962545, -547303.25, -99138.28, 0.0, 9.99861, 9.999232 
5.7494175e+2, 2.6426673e+2, -571300.56, -534883.1, 94625.96, 0.047536206, -0.21299349, -456729.9, -106558.46, 0.0, 9.998775, 9.999252 
5.7492846e+2, 2.7426746e+2, -307811.2, -354811.3, 107318.25, 0.07996554, -0.08346499, -221450.16, 30715.703, 0.0, 9.999898, 9.999275 
5.749148e+2, 2.8426737e+2, -266110.0, -326782.56, 70621.234, 0.120327055, -0.0005699326, -219585.05, -65415.41, 0.0000006054728, 9.999694, 9.9988985 
5.7490075e+2, 2.942663e+2, -453019.1, -373289.94, 75708.17, 0.17710245, -0.0064161727, -327592.2, -271408.03, 0.000009307056, 9.997762, 9.998839 
5.748862e+2, 3.0426615e+2, -465688.6, -187246.5, 13107.839, 0.23079702, 0.030652693, -186630.81, -186630.81, 0.00004067109, 9.996625, 10.000331 
5.7486826e+2, 3.14264e+2, -408610.4, 17796.742, 21475.91, 0.031946898, -0.25044405, 18875.643, 18875.643, 0.00010363106, 9.996211, 10.001939 
5.851315e+2, 1.2429866e+2, -1441578.1, -1681047.5, -36712.035, -0.09069682, -0.25537118, -1436076.4, 285779.3, 0.0000029888902, 10.002293, 9.999091 
5.85122e+2, 1.342986e+2, -1372731.5, -1616837.1, 33935.43, 0.5285171, -0.18542054, -1368101.6, 255751.6, 0.00000032572908, 10.002118, 9.998996 
5.8510196e+2, 1.4429766e+2, -1415678.3, -1662241.5, 77142.42, -0.08761348, -0.13630967, -1393531.8, 132331.52, 0.0000000021906112, 10.001528, 9.998261 
5.8508956e+2, 1.542959e+2, -1424221.1, -1616763.5, 57576.64, 0.17150149, -0.15668766, -1408317.5, 19568.014, 0.0, 10.000799, 9.998254 
5.850755e+2, 1.642944e+2, -1328103.6, -1471648.6, 76164.75, 0.29576656, -0.15061148, -1295222.6, 34680.414, 0.0, 10.000571, 9.99869 
5.8506036e+2, 1.7429307e+2, -1166828.1, -1340812.4, 65641.1, 0.3030191, -0.17199692, -1144841.4, 87074.12, 0.0, 10.000994, 9.998712 
5.8504564e+2, 1.8429178e+2, -1070666.3, -1316910.1, 149713.72, 0.25324017, -0.13746183, -999950.1, 133978.81, 0.0, 10.001306, 9.998053 
5.8503133e+2, 1.9429041e+2, -957346.7, -1216979.0, 145521.52, 0.11256617, -0.08732004, -892153.25, 143791.45, 0.0, 10.00143, 9.998008 
5.8501834e+2, 2.0428835e+2, -882929.06, -1075356.6, 182307.88, 0.074463256, -0.1132572, -773003.94, 164960.72, 0.0, 10.001034, 9.998495 
5.8500695e+2, 2.1428527e+2, -934808.3, -1042346.06, 211708.11, 0.18163359, -0.29158846, -770147.75, 69843.195, 0.0, 9.999975, 9.998558 
5.8499455e+2, 2.2428429e+2, -833055.1, -844462.5, 200245.78, 0.20517136, -0.28255108, -638431.8, 103566.92, 0.0, 9.999584, 9.999434 
5.849809e+2, 2.342859e+2, -663797.06, -706516.75, 152159.94, 0.12659073, -0.08301397, -531505.06, 112478.68, 0.0, 10.000038, 9.999495 
5.8496726e+2, 2.4428573e+2, -539868.3, -595012.4, 133041.44, 0.061052177, -0.045733027, -431571.88, 114413.266, 0.0, 10.000212, 9.999497 
5.849538e+2, 2.5428316e+2, -453950.9, -502799.47, 131389.28, 0.012847948, -0.26803184, -344735.03, 103273.28, 0.0, 10.00013, 9.999496 
5.8494055e+2, 2.6428252e+2, -422053.88, -429483.34, 128070.52, 0.009760475, -0.27937898, -297644.22, 52370.13, 0.0, 9.999661, 9.999544 
5.849276e+2, 2.7428427e+2, -456837.88, -394118.94, 132679.94, 0.06904323, -0.07768683, -289142.88, -37143.313, 0.0, 9.998742, 9.999558 
5.8491385e+2, 2.8428432e+2, -416395.4, -380756.94, 91653.63, 0.122252606, -0.00072015874, -305206.4, -151204.39, 0.00000055145284, 9.998575, 9.999068 
5.8489925e+2, 2.942824e+2, -220180.86, -244228.67, 98876.48, 0.17929822, -0.113498144, -132599.89, -76574.75, 0.000008783807, 9.99929, 9.998985 
5.8488435e+2, 3.042821e+2, -110466.9, -75109.28, 47186.93, 0.25525346, -0.07103595, -42398.145, -42398.145, 0.000039664603, 9.999313, 9.999801 
5.84867e+2, 3.1428188e+2, -94653.695, 165131.64, 874.8421, 0.18385734, -0.10877679, 165134.6, 165134.6, 0.00010367087, 9.99838, 10.001898 
5.95132e+2, 1.24315396e+2, -1441805.4, -1685845.6, -130998.27, -0.30899897, -0.1526642, -1384801.9, 336890.4, 0.000001124367, 10.002323, 9.999041 
5.951242e+2, 1.3431354e+2, -1383550.3, -1637273.6, 28470.334, 0.5257379, -0.24947566, -1380394.9, 243312.25, 0.000000025767086, 10.002119, 9.998853 
5.9510505e+2, 1.4431217e+2, -1357042.6, -1541721.0, 41748.598, 0.047218207, -0.2729483, -1348043.5, 177676.22, 0.0, 10.001528, 9.99909 
5.950907e+2, 1.5431178e+2, -1360883.9, -1488682.3, 37654.164, 0.19157256, -0.24730201, -1350614.8, 77110.94, 0.0, 10.000811, 9.999128 
5.950756e+2, 1.6431129e+2, -1338635.5, -1487726.3, 81861.484, 0.23640344, -0.17919074, -1302463.6, 27269.166, 0.0, 10.000549, 9.998591 
5.9506047e+2, 1.7431046e+2, -1175172.0, -1360545.5, 87486.67, 0.20277436, -0.13446121, -1140403.9, 91339.74, 0.0, 10.001005, 9.998572 
5.9504616e+2, 1.8430933e+2, -1079096.5, -1331669.0, 149418.25, 0.15986101, -0.07095762, -1009745.2, 124012.195, 0.0, 10.001293, 9.997958 
5.9503275e+2, 1.943078e+2, -970967.6, -1235181.3, 156574.72, 0.10035419, -0.029893374, -898213.9, 137561.8, 0.0, 10.001386, 9.997906 
5.9501946e+2, 2.0430614e+2, -831577.5, -954649.94, 139246.89, 0.07696632, -0.049317688, -740875.75, 196914.75, 0.0, 10.000974, 9.999352 
5.9500635e+2, 2.1430421e+2, -879762.44, -913958.4, 178523.52, 0.10790102, -0.20236734, -717520.0, 122281.91, 0.0, 9.999914, 9.99947 
5.9499323e+2, 2.2430308e+2, -906070.3, -986480.0, 207183.14, 0.10100519, -0.21161269, -735227.1, 6583.734, 0.0, 9.999537, 9.998484 
5.949802e+2, 2.3430286e+2, -750890.25, -872255.3, 175140.7, 0.040155876, -0.089851774, -626217.4, 17600.813, 0.0, 9.9999695, 9.998391 
5.9496707e+2, 2.4430211e+2, -542580.0, -593124.3, 124983.75, 0.0015214236, -0.051321805, -440338.97, 105487.79, 0.0, 10.0001745, 9.999531 
5.9495384e+2, 2.543007e+2, -452452.78, -486106.94, 133586.95, -0.0055364994, -0.17134863, -334637.28, 113199.77, 0.0, 10.000068, 9.999642 
5.9494036e+2, 2.643002e+2, -407099.6, -386860.06, 89215.766, 0.009716774, -0.19244199, -307191.97, 42647.867, 0.0, 9.999614, 9.999861 
5.9492624e+2, 2.7430063e+2, -444766.88, -354214.03, 105674.23, 0.03990208, -0.15377685, -284525.25, -32689.824, 0.0, 9.998677, 9.999865 
5.94912e+2, 2.8430012e+2, -397469.88, -330436.63, 108768.266, 0.05983666, -0.16813008, -250138.03, -96295.77, 0.0000003359344, 9.998529, 9.9994335 
5.9489757e+2, 2.9429853e+2, -200860.45, -193471.3, 132249.38, 0.06755161, -0.2879757, -64864.902, -9002.769, 0.000006914508, 9.999245, 9.999355 
5.9488285e+2, 3.042983e+2, -175862.69, -205924.81, 11846.487, 0.16193007, -0.21176851, -171755.5, -171755.5, 0.000035630153, 9.999294, 9.998912 
5.94866e+2, 3.1430086e+2, -144782.61, 76520.02, -20417.049, 0.20630641, 0.12085167, 78387.91, 78387.91, 0.0000986736, 9.998318, 10.001317 
6.051352e+2, 1.243326e+2, -1575951.5, -1733019.0, -81241.81, -0.16457248, -0.12264673, -1541490.6, 180031.98, 0.00000033090242, 10.001305, 9.999226 
6.0512596e+2, 1.3433024e+2, -1423165.5, -1636818.9, 132194.58, 0.51368934, -0.28411084, -1360029.4, 263512.75, 0.000000000013925105, 10.001769, 9.999024 
6.0510683e+2, 1.4432889e+2, -1320387.1, -1489166.6, 126829.93, 0.07037473, -0.3270929, -1252436.9, 273116.94, 0.0, 10.001631, 9.999405 
6.0509187e+2, 1.5432914e+2, -1296118.4, -1422456.4, 64915.97, 0.21733762, -0.2672441, -1268709.3, 158843.22, 0.0, 10.001105, 9.999445 
6.0507655e+2, 1.6432896e+2, -1253749.1, -1456241.0, 146911.45, 0.24659975, -0.18178928, -1176575.0, 152981.0, 0.0, 10.001167, 9.998508 
6.0506165e+2, 1.7432806e+2, -1049371.1, -1312846.6, 147600.1, 0.17375478, -0.13114242, -983268.94, 248298.89, 0.0, 10.001926, 9.998456 
6.050474e+2, 1.8432678e+2, -998635.44, -1293724.6, 184066.19, 0.13571765, -0.07741231, -910278.0, 223305.67, 0.0, 10.001848, 9.9979515 
6.050341e+2, 1.9432488e+2, -1075855.9, -1282459.5, 183727.39, 0.13615966, -0.07448991, -968380.56, 67225.195, 0.0, 10.000655, 9.997929 
6.050205e+2, 2.0432346e+2, -936641.6, -1014830.94, 162164.6, 0.12165635, -0.06848935, -808925.75, 128693.47, 0.0, 10.000293, 9.99927 
6.050066e+2, 2.1432248e+2, -743450.6, -860009.0, 115312.1, 0.09852778, -0.11578271, -672527.1, 167096.16, 0.0, 10.000893, 9.9993725 
6.049931e+2, 2.2432114e+2, -730876.44, -937633.8, 140682.23, 0.0708246, -0.12729363, -659673.8, 81961.195, 0.0, 10.000899, 9.998158 
6.049802e+2, 2.3431917e+2, -745221.75, -902532.9, 153790.98, 0.036415547, -0.14682849, -651139.44, -7481.3677, 0.0, 10.000163, 9.998082 
6.049671e+2, 2.4431793e+2, -619593.5, -642344.5, 143767.14, 0.013838671, -0.13607153, -486752.53, 58918.87, 0.0, 9.999715, 9.999407 
6.049539e+2, 2.5431755e+2, -522806.13, -533131.4, 121051.99, 0.010847699, -0.13651013, -406806.72, 40865.95, 0.0, 9.999649, 9.999519 
6.0494006e+2, 2.6431724e+2, -402803.94, -372012.0, 54231.035, 0.026483398, -0.13966817, -331033.84, 18640.137, 0.0, 9.999574, 9.9999895 
6.0492545e+2, 2.7431676e+2, -318349.44, -279642.16, 42882.188, 0.065462776, -0.20321459, -251948.53, -271.46283, 0.0, 9.999467, 10.000007 
6.049107e+2, 2.843165e+2, -282595.6, -223003.77, 76753.58, 0.049176797, -0.22175354, -170465.55, -16785.344, 0.00000016006682, 9.999099, 9.999896 
6.048955e+2, 2.9431656e+2, -289854.84, -182589.38, 95337.805, -0.022387894, -0.22282377, -126833.95, -71151.52, 0.0000052467194, 9.998402, 9.999834 
6.04881e+2, 3.0431587e+2, -266885.8, -247433.72, 33923.957, 0.0780411, -0.22374636, -221869.11, -221869.11, 0.000031327, 9.998667, 9.998931 
6.0486573e+2, 3.1431752e+2, 102663.88, 175897.81, 38735.883, 0.27019343, 0.028512001, 192584.42, 192584.42, 0.00009198692, 10.000108, 10.00115 
6.151404e+2, 1.243504e+2, -1535064.0, -1653996.0, -136139.22, 0.18912415, -0.1472623, -1445969.9, 275375.5, 0.000000091949275, 10.001337, 9.999748 
6.15127e+2, 1.3434875e+2, -1391538.9, -1568209.9, 151683.97, 0.4270273, -0.28059906, -1304343.3, 319014.63, 0.0, 10.001766, 9.999491 
6.151071e+2, 1.4434776e+2, -1336510.8, -1526542.1, 94691.664, -0.07725099, -0.30109638, -1297382.9, 227983.45, 0.0, 10.001635, 9.999151 
6.1509275e+2, 1.5434785e+2, -1307131.6, -1458075.3, 50187.914, 0.18090953, -0.22941843, -1291967.8, 135398.98, 0.0, 10.001146, 9.999186 
6.150779e+2, 1.6434734e+2, -1261422.4, -1465321.9, 167066.1, 0.2530623, -0.164123, -1167655.9, 161717.39, 0.0, 10.001145, 9.998456 
6.150636e+2, 1.7434584e+2, -1053838.4, -1324290.3, 182909.73, 0.16044153, -0.1668536, -961595.56, 269793.66, 0.0, 10.001933, 9.998377 
6.1504924e+2, 1.8434405e+2, -999677.1, -1282999.4, 137506.73, 0.122755654, -0.1625497, -943914.94, 189493.75, 0.0, 10.001795, 9.998046 
6.150351e+2, 1.9434176e+2, -1074730.9, -1272439.3, 145205.27, 0.15086155, -0.2110757, -997924.25, 37509.79, 0.0, 10.00062, 9.998014 
6.150211e+2, 2.043404e+2, -1014996.75, -1164825.3, 174066.88, 0.14212094, -0.1579076, -900407.9, 37042.195, 0.0, 10.000238, 9.998266 
6.150076e+2, 2.1434009e+2, -829764.6, -1023537.4, 142653.58, 0.09314309, -0.03145914, -754206.8, 85248.29, 0.0, 10.000824, 9.998284 
6.149941e+2, 2.2433843e+2, -717172.2, -894439.9, 110780.04, 0.062164154, -0.032187928, -663932.25, 77539.06, 0.0, 10.000832, 9.998489 
6.149806e+2, 2.3433487e+2, -724716.1, -843436.0, 133111.4, 0.053754646, -0.2525311, -638328.8, 5174.2847, 0.0, 10.00009, 9.998524 
6.149671e+2, 2.4433315e+2, -650808.4, -696254.75, 132168.36, 0.03335321, -0.2982255, -539424.06, 6095.0986, 0.0, 9.999665, 9.999061 
6.149535e+2, 2.5433367e+2, -561122.9, -600428.1, 123333.1, -0.0040985616, -0.17362487, -455886.4, -8370.185, 0.0, 9.999593, 9.999084 
6.149395e+2, 2.6433358e+2, -413958.56, -385008.47, 44722.277, 0.0026028138, -0.12432059, -352477.03, -2959.6135, 0.0, 9.999531, 9.999919 
6.149251e+2, 2.7433267e+2, -330759.03, -288850.44, 46902.3, 0.0682588, -0.22923851, -258434.42, -6909.7104, 0.0, 9.999399, 9.999973 
6.149096e+2, 2.843336e+2, -250210.17, -147645.11, 44573.344, 0.022140011, -0.1530761, -130981.484, 22533.605, 0.00000012615395, 9.99906, 10.000432 
6.148926e+2, 2.943367e+2, -259990.05, -101339.945, 74386.47, -0.17024088, 0.09021224, -71918.45, -16433.662, 0.000004351736, 9.998322, 10.000428 
6.1487836e+2, 3.043349e+2, -211654.13, -121159.1, 80561.44, -0.0637693, -0.09575429, -74008.11, -74008.11, 0.000027327762, 9.998616, 9.999828 
6.1486584e+2, 3.143318e+2, 114959.49, 219043.88, 107963.02, 0.23798843, -0.40723863, 286853.28, 286853.28, 0.00008366508, 10.000039, 10.001482 
6.251432e+2, 1.2436734e+2, -1500943.4, -1648813.3, -179478.9, 0.33054265, -0.22702652, -1380767.4, 340409.66, 0.000000014013729, 10.001618, 9.999652 
6.251277e+2, 1.3436697e+2, -1515726.6, -1645715.4, 68549.75, 0.36375013, -0.21812862, -1486257.6, 136922.56, 0.0, 10.000981, 9.999344 
6.2510824e+2, 1.443661e+2, -1518869.6, -1623867.1, 7919.596, -0.068268396, -0.21326876, -1518275.8, 6912.63, 0.0, 10.000431, 9.999058 
6.25094e+2, 1.5436529e+2, -1396218.4, -1509258.0, -32290.39, 0.22258534, -0.22514275, -1387644.6, 39551.496, 0.0, 10.000589, 9.999092 
6.250792e+2, 1.643642e+2, -1302494.4, -1467307.4, 132256.97, 0.29042768, -0.21776587, -1229071.6, 100134.82, 0.0, 10.000784, 9.998621 
6.250649e+2, 1.7436264e+2, -1201637.0, -1368775.1, 150963.88, 0.15778624, -0.24746102, -1112654.9, 118566.32, 0.0, 10.000817, 9.998604 
6.2505066e+2, 1.8436094e+2, -1096270.9, -1318872.3, 103472.91, 0.12136358, -0.2541735, -1055602.9, 77636.15, 0.0, 10.001072, 9.998156 
6.250365e+2, 1.9435884e+2, -933244.2, -1192498.6, 99156.66, 0.18909958, -0.2919624, -899668.3, 135593.92, 0.0, 10.001532, 9.998129 
6.250223e+2, 2.0435762e+2, -833753.0, -1105321.5, 182798.47, 0.17278077, -0.21697533, -741825.5, 195452.39, 0.0, 10.001602, 9.998017 
6.250082e+2, 2.1435736e+2, -800996.7, -1036705.56, 200353.42, 0.06269119, -0.05955243, -686405.06, 152880.31, 0.0, 10.001146, 9.998035 
6.249944e+2, 2.2435597e+2, -702021.1, -846070.8, 191807.94, 0.022821931, -0.036957983, -569160.94, 172138.48, 0.0, 10.000755, 9.998859 
6.249811e+2, 2.3435295e+2, -649716.7, -764652.2, 198918.4, 0.07778654, -0.24321656, -500131.13, 143192.42, 0.0, 10.000411, 9.998915 
6.249675e+2, 2.4435124e+2, -598618.44, -707110.06, 226687.58, 0.0848881, -0.29402447, -419776.56, 125562.4, 0.0, 10.00017, 9.998748 
6.249537e+2, 2.543511e+2, -510711.84, -614570.94, 209155.3, 0.03271954, -0.19804747, -347135.88, 100208.39, 0.0, 10.000105, 9.998741 
6.249394e+2, 2.6435077e+2, -352474.97, -383795.0, 136927.9, 0.016557809, -0.14285669, -230314.5, 119034.4, 0.0, 10.00007, 9.999671 
6.2492454e+2, 2.7435014e+2, -254375.73, -277312.75, 110484.78, 0.048192512, -0.19966328, -154765.83, 96587.86, 0.0, 10.0000305, 9.999747 
6.249088e+2, 2.8435057e+2, -143180.13, -140934.75, 70962.445, -0.005234307, -0.13558227, -71086.11, 82261.28, 0.000000116905284, 9.999986, 10.000036 
6.248917e+2, 2.943523e+2, -48244.426, -49096.027, 7652.7026, -0.16131209, 0.0072814627, -41005.688, 14323.467, 0.000004287332, 9.99997, 10.000006 
6.2487763e+2, 3.0435023e+2, -24168.973, -12157.419, -2427.9304, -0.04478111, -0.19203618, -11685.218, -11685.218, 0.000025839543, 9.999828, 9.999988 
6.2486535e+2, 3.143482e+2, 15903.572, 141985.72, -54168.95, 0.22267276, -0.41608888, 162061.73, 162061.73, 0.00007841617, 9.999476, 10.001216 
6.351432e+2, 1.2438341e+2, -1544834.6, -1750443.3, -241442.42, 0.14322604, -0.36836058, -1385221.0, 335796.38, 0.0000000049225286, 10.001662, 9.998938 
6.3512784e+2, 1.343848e+2, -1564491.4, -1754231.0, 42943.09, 0.26668134, -0.10924327, -1555224.9, 67784.71, 0.0, 10.001008, 9.99859 
6.351098e+2, 1.443839e+2, -1515420.0, -1615831.6, 1389.4089, 0.031072823, -0.06768127, -1515400.8, 9618.877, 0.0, 10.00043, 9.999113 
6.3509536e+2, 1.543814e+2, -1384833.9, -1494579.4, -15500.599, 0.28029302, -0.25790218, -1382686.5, 44354.22, 0.0, 10.000624, 9.999179 
6.350802e+2, 1.6437954e+2, -1275963.0, -1407545.8, 126923.24, 0.2912925, -0.35281542, -1198792.8, 130263.18, 0.0, 10.000766, 9.999037 
6.350653e+2, 1.7437842e+2, -1169000.5, -1306033.9, 158020.2, 0.103252046, -0.38220364, -1065282.1, 165782.39, 0.0, 10.000832, 9.999031 
6.350513e+2, 1.8437728e+2, -1091128.3, -1300151.5, 114380.805, 0.06615224, -0.35867032, -1040702.3, 92373.195, 0.0, 10.001043, 9.998294 
6.3503814e+2, 1.9437605e+2, -931675.4, -1178709.1, 122130.164, 0.18954732, -0.3244581, -881490.8, 153599.98, 0.0, 10.001489, 9.998241 
6.350239e+2, 2.0437509e+2, -810526.1, -1037320.2, 160539.88, 0.15978818, -0.2523943, -727373.06, 209730.23, 0.0, 10.001518, 9.998525 
6.350082e+2, 2.1437432e+2, -775754.06, -963855.75, 189647.94, -0.058589622, -0.20056313, -658116.7, 180997.28, 0.0, 10.001058, 9.998577 
6.34994e+2, 2.2437379e+2, -687412.1, -796672.56, 173022.67, -0.11107966, -0.13797496, -560600.06, 180519.22, 0.0, 10.000672, 9.999238 
6.349812e+2, 2.3437342e+2, -634437.8, -716006.94, 193620.5, 0.04132483, -0.11975443, -477353.0, 165766.36, 0.0, 10.000337, 9.999285 
6.3496804e+2, 2.4437223e+2, -625238.4, -752489.75, 218823.44, 0.10549024, -0.123682104, -460978.28, 84152.04, 0.0, 10.000126, 9.99846 
6.3495415e+2, 2.543699e+2, -542818.3, -668051.6, 213180.13, 0.059307396, -0.21048477, -383249.0, 63907.37, 0.0, 10.000044, 9.998407 
6.349395e+2, 2.6436883e+2, -391539.6, -448849.88, 129496.69, 0.008557227, -0.19438311, -287565.5, 61602.61, 0.0, 10.00001, 9.999249 
6.349237e+2, 2.743692e+2, -298307.03, -347223.66, 117069.78, -0.05883255, -0.10606272, -203167.94, 47995.047, 0.0, 9.999946, 9.999306 
6.349081e+2, 2.8436753e+2, -240146.0, -338131.72, 62002.51, -0.09224995, -0.17116477, -210116.0, -56938.84, 0.0000001448745, 9.999966, 9.998695 
6.3489276e+2, 2.9436314e+2, -156245.94, -257857.84, 13566.608, -0.070118114, -0.49023744, -154465.8, -99248.84, 0.000005079309, 9.999914, 9.998598 
6.3487864e+2, 3.0436176e+2, -74865.11, -117337.73, -20620.703, 0.057318132, -0.5131743, -66500.836, -66500.836, 0.000027818513, 9.99982, 9.99927 
6.348637e+2, 3.1436712e+2, -79365.38, -15841.33, -51935.848, 0.06797089, 0.066722274, 13274.87, 13274.87, 0.00008105603, 9.999315, 10.000204 
6.451435e+2, 1.24400966e+2, -1716504.6, -1820121.5, -222649.53, 0.073579974, -0.36550814, -1539715.4, 181130.06, 0.0000000021351345, 10.000423, 9.999055 
6.451288e+2, 1.3440235e+2, -1507944.8, -1703586.0, 107739.63, 0.24833523, -0.12465867, -1460243.1, 162594.03, 0.0, 10.00132, 9.998771 
6.45112e+2, 1.4440128e+2, -1352400.8, -1565095.3, 105273.64, 0.15402047, -0.09980158, -1309107.5, 215741.6, 0.0, 10.001664, 9.998871 
6.4509624e+2, 1.5439864e+2, -1279873.5, -1472359.4, 49051.543, 0.27596, -0.275673, -1268094.5, 158777.34, 0.0, 10.001463, 9.998928 
6.4508057e+2, 1.6439681e+2, -1193314.4, -1377583.1, 176840.72, 0.22901389, -0.34961733, -1086046.1, 242841.34, 0.0, 10.0013685, 9.998957 
6.45066e+2, 1.7439595e+2, -1085145.4, -1273721.6, 159149.48, 0.0694073, -0.3442627, -994450.25, 236444.63, 0.0, 10.001435, 9.998967 
6.450524e+2, 1.843951e+2, -1021387.9, -1250499.4, 112161.36, 0.050251007, -0.29631183, -975621.5, 157281.72, 0.0, 10.001449, 9.998443 
6.4503944e+2, 1.9439408e+2, -945032.1, -1165460.8, 110437.13, 0.18162094, -0.25646573, -899222.2, 135692.42, 0.0, 10.001315, 9.998415 
6.450252e+2, 2.0439298e+2, -863953.7, -1038637.8, 132825.0, 0.16696148, -0.22013943, -792326.8, 144600.16, 0.0, 10.001041, 9.998743 
6.450094e+2, 2.1439163e+2, -837186.25, -973517.7, 120803.55, -0.019686174, -0.24840227, -766643.4, 72298.6, 0.0, 10.000541, 9.998762 
6.4499485e+2, 2.2439091e+2, -719916.25, -827419.3, 105237.38, -0.07366012, -0.20821999, -655497.9, 85451.52, 0.0, 10.000507, 9.99911 
6.4498186e+2, 2.343909e+2, -542059.94, -685371.7, 71495.04, 0.03961885, -0.14066876, -512492.78, 130455.445, 0.0, 10.001033, 9.999159 
6.4496845e+2, 2.4439003e+2, -483706.7, -643440.3, 91872.766, 0.097380966, -0.12315186, -441838.9, 103117.24, 0.0, 10.000926, 9.998823 
6.4495444e+2, 2.5438797e+2, -514883.34, -608015.7, 132291.66, 0.08922177, -0.22452953, -421201.56, 25775.182, 0.0, 10.000037, 9.998821 
6.4493984e+2, 2.643868e+2, -412285.97, -505888.3, 131803.5, 0.03783112, -0.21831097, -319221.1, 29767.316, 0.0, 10.000064, 9.998835 
6.449243e+2, 2.743867e+2, -136285.17, -322839.9, 106330.055, -0.05878251, -0.13150346, -88117.336, 162872.53, 0.000000000000000000046744374, 10.001283, 9.998835 
6.4490885e+2, 2.8438446e+2, -40689.375, -297901.6, 57442.633, -0.084653765, -0.20494649, -28443.832, 124566.695, 0.00000034821963, 10.001577, 9.998194 
6.448936e+2, 2.943793e+2, -83887.76, -280796.5, 60843.95, -0.00814433, -0.552915, -66604.28, -11546.409, 0.0000068469953, 10.000649, 9.998088 
6.4487886e+2, 3.0437818e+2, -102290.15, -216930.56, 85093.33, 0.0876408, -0.4854539, -57011.715, -57011.715, 0.00003363737, 10.000005, 9.998492 
6.448619e+2, 3.1438363e+2, -55680.902, -94493.28, 23047.598, -0.054318845, 0.18206584, -44957.508, -44957.508, 0.000093360155, 9.999843, 9.999415 
6.551435e+2, 1.2441987e+2, -1646226.4, -1677732.0, -208904.47, 0.0005606214, -0.23509704, -1452481.6, 268180.34, 0.0000000012982254, 10.000436, 10.000027 
6.5513015e+2, 1.3441965e+2, -1429423.6, -1545787.8, 140371.33, 0.23448448, -0.25947756, -1335654.1, 287008.9, 0.0, 10.001345, 9.999841 
6.551147e+2, 1.4441815e+2, -1386152.9, -1639273.4, 87637.195, 0.2353866, -0.31096774, -1358772.3, 165905.16, 0.0, 10.0016775, 9.998361 
6.550966e+2, 1.5441692e+2, -1320566.9, -1562835.5, 46196.547, 0.14519496, -0.283969, -1312056.9, 114633.5, 0.0, 10.001481, 9.998304 
6.550802e+2, 1.6441596e+2, -1234022.1, -1459663.8, 171111.44, 0.038860258, -0.21092412, -1141885.3, 186816.7, 0.0, 10.00136, 9.998394 
6.550669e+2, 1.7441529e+2, -1124594.8, -1357876.3, 168274.16, -0.00727962, -0.13336886, -1036488.7, 194223.6, 0.0, 10.001443, 9.998384 
6.550536e+2, 1.8441436e+2, -1011813.56, -1221986.6, 99654.24, 0.013161734, -0.072448164, -972075.56, 160646.98, 0.0, 10.001412, 9.998655 
6.550401e+2, 1.9441296e+2, -932302.06, -1125766.1, 112311.625, 0.09850866, -0.09592066, -880808.0, 153925.94, 0.0, 10.001264, 9.998711 
6.55026e+2, 2.0441136e+2, -884058.0, -1063398.8, 108316.28, 0.13344236, -0.11869839, -833111.2, 103637.5, 0.0, 10.000968, 9.9986105 
6.5501136e+2, 2.144093e+2, -858093.44, -998662.94, 108606.99, 0.1076933, -0.20176455, -799012.75, 39756.816, 0.0, 10.000465, 9.998626 
6.549969e+2, 2.2440733e+2, -779992.8, -932012.44, 115450.0, 0.06974047, -0.2476769, -717777.5, 23012.277, 0.0, 10.000426, 9.998427 
6.549827e+2, 2.3440537e+2, -606279.56, -795344.06, 97114.63, 0.007678002, -0.30352145, -565284.7, 77525.766, 0.0, 10.000938, 9.998445 
6.549685e+2, 2.444046e+2, -420121.2, -493420.6, 53595.62, -0.0011047005, -0.28837028, -391842.53, 152974.13, 0.0, 10.000851, 9.999887 
6.549543e+2, 2.544052e+2, -441932.16, -439027.1, 104973.63, 0.052438073, -0.24227962, -335495.97, 111309.914, 0.0, 9.99997, 10.00001 
6.549401e+2, 2.644047e+2, -438772.56, -559877.75, 165389.84, 0.04758611, -0.21725845, -323199.0, 25610.941, 0.0, 10.0000515, 9.998474 
6.54926e+2, 2.7440274e+2, -175571.03, -393912.3, 160158.16, -0.028209306, -0.2670078, -90914.79, 159918.63, 0.0000000002377775, 10.001233, 9.998374 
6.549108e+2, 2.8440163e+2, -20254.414, -244751.4, 20616.549, -0.064025976, -0.224153, -18376.809, 134469.25, 0.0000008000927, 10.001536, 9.998574 
6.54894e+2, 2.944012e+2, -63111.117, -217462.3, 33730.45, -0.05572141, -0.14568217, -56061.918, -1213.8796, 0.000010270006, 10.000575, 9.998551 
6.5487784e+2, 3.0439985e+2, -157288.67, -336284.2, 73879.43, -0.024697494, -0.085025676, -130734.63, -130734.63, 0.00004390313, 10.000016, 9.997677 
6.5485984e+2, 3.1439775e+2, -101561.266, -175127.02, 52752.684, -0.28343794, -0.079042, -74033.76, -74033.76, 0.000113456364, 9.999783, 9.998894 
6.6514397e+2, 1.2443689e+2, -1838399.8, -1757304.9, -190166.89, 0.08613281, -0.21031071, -1603410.6, 117084.97, 0.00000000035571668, 9.999052, 10.000148 
6.6513e+2, 1.3443662e+2, -1541979.9, -1579218.3, 56693.855, 0.14058028, -0.26399925, -1500926.0, 121571.31, 0.0, 10.000465, 10.000044 
6.651157e+2, 1.4443532e+2, -1445083.8, -1639946.3, -28493.99, 0.20362113, -0.31858808, -1441002.8, 83507.125, 0.0, 10.001172, 9.9985895 
6.650979e+2, 1.5443493e+2, -1305330.3, -1530327.0, -24775.85, 0.13294387, -0.2281895, -1302634.4, 123880.12, 0.0, 10.001492, 9.998517 
6.6508174e+2, 1.6443416e+2, -1244672.0, -1517185.5, 143901.48, 0.054596946, -0.12549146, -1182753.3, 145771.94, 0.0, 10.001517, 9.997921 
6.650686e+2, 1.7443277e+2, -1215292.8, -1454602.1, 130436.73, 0.047641594, -0.06950816, -1157941.9, 72602.41, 0.0, 10.001056, 9.9979 
6.6505504e+2, 1.8443133e+2, -1094682.1, -1217963.1, 83661.805, 0.060720082, -0.052679256, -1052405.1, 80154.03, 0.0, 10.000663, 9.999041 
6.650407e+2, 1.9442968e+2, -1032725.6, -1129113.3, 93686.77, 0.078748286, -0.14506589, -975563.6, 59006.613, 0.0, 10.000373, 9.999121 
6.6502637e+2, 2.0442823e+2, -967046.0, -1098951.5, 118902.24, 0.10638041, -0.17758606, -897030.0, 39552.582, 0.0, 10.0003805, 9.998651 
6.650124e+2, 2.1442682e+2, -821589.5, -979405.56, 118319.984, 0.15465884, -0.19538599, -758279.06, 80319.15, 0.0, 10.000714, 9.998636 
6.649981e+2, 2.2442515e+2, -732306.06, -908179.9, 173732.27, 0.13602485, -0.21244715, -625523.2, 115093.18, 0.0, 10.000751, 9.998435 
6.6498345e+2, 2.3442307e+2, -691239.6, -839342.75, 197183.61, 0.027559418, -0.2783823, -554661.2, 87977.43, 0.0, 10.000361, 9.998426 
6.649689e+2, 2.4442217e+2, -498021.0, -543683.3, 144987.66, -0.0097102495, -0.27124488, -374077.9, 170568.44, 0.0, 10.000358, 9.999786 
6.6495454e+2, 2.5442258e+2, -328038.38, -401828.75, 79638.44, 0.04353489, -0.23363169, -277163.78, 169473.73, 0.0, 10.000806, 9.999874 
6.649405e+2, 2.6442194e+2, -346655.28, -509631.88, 127351.16, 0.056089494, -0.21789986, -276952.78, 71690.18, 0.0, 10.000657, 9.998527 
6.6492695e+2, 2.744199e+2, -376748.97, -481830.34, 149574.55, 0.016418502, -0.28206185, -270755.53, -20088.32, 0.0000000023427176, 9.999811, 9.99845 
6.6491187e+2, 2.8441942e+2, -250465.23, -342190.3, 38442.266, -0.0224083, -0.18123145, -236484.81, -83810.98, 0.0000014418595, 9.9999, 9.998691 
6.648948e+2, 2.944206e+2, 30601.678, -154759.28, 10013.37, -0.052442297, 0.04358093, 31141.04, 85802.445, 0.000014823799, 10.001143, 9.998707 
6.6487867e+2, 3.0441844e+2, 13001.402, -280599.63, 39591.063, -0.00865554, 0.028276945, 18246.418, 18246.418, 0.000057815294, 10.001313, 9.997433 
6.6486067e+2, 3.144132e+2, -52597.355, -144096.83, 54757.063, -0.18626337, -0.25194284, -26993.225, -26993.225, 0.0001407211, 10.000106, 9.998949 
6.751446e+2, 1.2445216e+2, -1884163.9, -1860282.1, -129034.53, 0.20572753, -0.29370716, -1742637.1, -22291.832, 0.0000000023126079, 9.999093, 9.999418 
6.751282e+2, 1.3445327e+2, -1584563.4, -1666320.1, 109024.586, -0.097396135, -0.14895022, -1509005.5, 113333.8, 0.0, 10.000467, 9.999441 
6.751149e+2, 1.4445285e+2, -1382193.5, -1509629.4, -24494.764, -0.0067912717, -0.12612721, -1377647.4, 146697.4, 0.0, 10.001167, 9.999489 
6.750998e+2, 1.5445282e+2, -1230617.8, -1382440.1, -4919.3203, 0.15494357, -0.0992046, -1230458.5, 195884.13, 0.0, 10.001517, 9.999521 
6.750849e+2, 1.6445148e+2, -1266949.5, -1564594.4, 120476.96, 0.20027417, -0.09108227, -1224296.6, 104059.89, 0.0, 10.00152, 9.997596 
6.750711e+2, 1.744485e+2, -1244200.6, -1512595.0, 119471.555, 0.17250822, -0.15417834, -1198725.0, 31665.29, 0.0, 10.001048, 9.997506 
6.750565e+2, 1.8444613e+2, -1059960.0, -1143644.3, 64511.01, 0.12756978, -0.23463546, -1024909.75, 107502.945, 0.0, 10.000648, 9.999561 
6.7504084e+2, 1.9444437e+2, -999499.2, -1048138.8, 89090.06, 0.046457566, -0.39536798, -931469.2, 102953.38, 0.0, 10.000322, 9.9997 
6.75026e+2, 2.044437e+2, -965592.44, -1080760.0, 123752.87, 0.019628815, -0.38594216, -886682.0, 49745.37, 0.0, 10.000312, 9.998812 
6.750123e+2, 2.1444422e+2, -820597.56, -960671.6, 137561.75, 0.06234425, -0.2256248, -736270.0, 102157.59, 0.0, 10.000643, 9.998799 
6.749983e+2, 2.2444443e+2, -695736.75, -810120.3, 155560.31, 0.07155924, -0.09773551, -587188.06, 153240.4, 0.0, 10.000658, 9.999152 
6.7498404e+2, 2.3444413e+2, -652049.9, -734758.5, 191793.38, 0.032924473, -0.06142369, -497203.1, 145228.19, 0.0, 10.000269, 9.999186 
6.749696e+2, 2.4444284e+2, -604022.06, -748115.94, 154857.7, 0.0059474283, -0.06814805, -505271.84, 39171.98, 0.0, 10.000292, 9.998411 
6.7495495e+2, 2.5444016e+2, -445485.5, -628041.94, 101997.414, -0.004156613, -0.18789637, -399887.2, 46583.035, 0.0, 10.0007305, 9.998355 
6.749407e+2, 2.6443854e+2, -321781.16, -445737.9, 90998.7, -0.00026352794, -0.21041892, -273659.2, 74827.125, 0.0, 10.000605, 9.998991 
6.7492676e+2, 2.7443817e+2, -344643.2, -398302.84, 124689.92, 0.0043596346, -0.16949557, -243929.23, 6561.294, 0.0000000015372758, 9.999744, 9.999055 
6.74912e+2, 2.8443787e+2, -260321.86, -364057.88, 74202.06, -0.019513635, -0.075326204, -221656.8, -69163.05, 0.0000017821444, 9.999896, 9.998547 
6.7489594e+2, 2.9443747e+2, 8945.023, -187370.94, 63855.668, -0.07207984, 0.012375416, 27887.58, 82385.7, 0.000019076204, 10.001086, 9.998512 
6.7488074e+2, 3.0443394e+2, 25993.889, -243164.89, -6437.1997, 0.05857103, -0.1478027, 26147.752, 26147.752, 0.000073988194, 10.00127, 9.997705 
6.748639e+2, 3.1442964e+2, -26299.139, -68810.734, 38886.58, 0.09525387, -0.36413744, -3238.1787, -3238.1787, 0.00017623325, 10.000024, 9.999497 
6.8514353e+2, 1.2446753e+2, -1841116.3, -1820878.9, -107958.77, 0.19108231, -0.30274063, -1722565.6, -2369.637, 0.0000000036242784, 9.999303, 9.999592 
6.851277e+2, 1.3446909e+2, -1761463.9, -1710633.5, 141113.63, -0.12664695, -0.14617969, -1592664.6, 29519.139, 0.0, 9.999092, 9.999794 
6.8511564e+2, 1.444689e+2, -1636439.9, -1641269.5, 37583.53, 0.043398216, -0.11476103, -1601193.6, -77006.74, 0.0, 9.999451, 9.999415 
6.851012e+2, 1.5446857e+2, -1344389.8, -1447621.1, -31598.373, 0.18325143, -0.11134595, -1335485.6, 90703.914, 0.0, 10.000772, 9.999437 
6.8508637e+2, 1.6446722e+2, -1272049.1, -1502798.5, 45284.1, 0.2153747, -0.12773733, -1263480.4, 64723.3, 0.0, 10.001207, 9.998175 
6.8507195e+2, 1.744646e+2, -1279106.6, -1463551.9, 101060.766, 0.18338107, -0.21387507, -1234514.4, -4282.4805, 0.0, 10.00052, 9.998102 
6.8505704e+2, 1.8446285e+2, -1094808.1, -1152679.6, 107563.7, 0.13946475, -0.26701558, -1012356.1, 119892.41, 0.0, 10.000379, 9.999627 
6.850415e+2, 1.944619e+2, -916847.44, -1003321.25, 81682.81, 0.059455667, -0.349945, -867664.06, 166588.9, 0.0, 10.000871, 9.999741 
6.8502665e+2, 2.044615e+2, -846392.0, -1026978.56, 102985.46, 0.02128893, -0.31487554, -799722.25, 136534.02, 0.0, 10.001149, 9.99877 
6.850128e+2, 2.1446167e+2, -748550.0, -932308.7, 88485.82, 0.033775713, -0.18630095, -712869.3, 125389.96, 0.0, 10.001159, 9.998745 
6.849987e+2, 2.2446175e+2, -639918.25, -767248.56, 69220.54, 0.03811682, -0.076046675, -609536.94, 130723.53, 0.0, 10.000959, 9.999309 
6.849843e+2, 2.3446159e+2, -611175.75, -697876.06, 46608.68, 0.03218532, -0.04239976, -590873.7, 51387.03, 0.0, 10.000459, 9.999353 
6.849701e+2, 2.4446028e+2, -615694.25, -798419.06, 67751.0, 0.024113387, -0.041124385, -593314.5, -49040.508, 0.0, 10.000403, 9.998012 
6.849559e+2, 2.5445744e+2, -446240.44, -675217.56, 88113.4, 0.011162722, -0.13520043, -416258.94, 30045.809, 0.0, 10.000934, 9.99793 
6.849416e+2, 2.644557e+2, -264740.6, -408623.75, 76871.16, 0.014795149, -0.15030326, -231397.97, 116924.6, 0.0, 10.0009575, 9.999073 
6.849271e+2, 2.7445528e+2, -251759.19, -343295.53, 55210.96, 0.04049914, -0.12456491, -225812.81, 24512.46, 0.00000000039754933, 10.000332, 9.999153 
6.8491226e+2, 2.8445464e+2, -239189.61, -354432.8, 52613.617, 0.018917004, -0.07230005, -218782.75, -66451.5, 0.000001935021, 10.000048, 9.998539 
6.8489665e+2, 2.944534e+2, -110908.45, -247403.03, 44755.223, -0.059357073, -0.06471166, -97542.49, -43198.01, 0.000022833043, 10.00027, 9.998495 
6.848814e+2, 3.0444986e+2, -30562.014, -191578.58, -31858.041, 0.042894125, -0.25886348, -24487.86, -24487.86, 0.00009092674, 10.000532, 9.998412 
6.8486464e+2, 3.1444833e+2, 93169.52, 45612.24, 34992.297, 0.14560157, -0.2714442, 111697.91, 111697.91, 0.00021661, 10.000569, 10.000027 
6.951406e+2, 1.2448306e+2, -1755347.1, -1657643.3, -103656.164, -0.072059385, -0.24392925, -1591904.1, 128143.03, 0.00000000017840025, 9.999378, 10.000668 
6.95128e+2, 1.3448419e+2, -1671348.3, -1528581.1, 133932.42, -0.014998242, -0.25212815, -1448196.8, 173833.14, 0.0, 9.999121, 10.001024 
6.951177e+2, 1.4448354e+2, -1702377.8, -1783653.0, 77377.375, 0.2860166, -0.28654286, -1655615.9, -131580.23, 0.0, 9.999473, 9.99843 
6.951018e+2, 1.5448222e+2, -1417919.4, -1610218.5, 28395.871, 0.15210228, -0.26952103, -1413813.9, 12240.9, 0.0, 10.000809, 9.998308 
6.9508594e+2, 1.6448143e+2, -1173419.1, -1295222.3, 17010.59, 0.0351094, -0.23702922, -1171088.1, 156977.86, 0.0, 10.001199, 9.999601 
6.95071e+2, 1.7448124e+2, -1170666.0, -1235671.8, 82268.734, 0.021342417, -0.23730285, -1114712.3, 115355.6, 0.0, 10.000507, 9.999672 
6.9505656e+2, 1.8448155e+2, -1124628.8, -1208287.5, 118899.64, 0.03499078, -0.15006158, -1040415.2, 91650.805, 0.0, 10.000352, 9.999258 
6.9504255e+2, 1.9448228e+2, -957724.1, -1077781.3, 107569.33, 0.058304846, -0.01645089, -894567.5, 139493.97, 0.0, 10.000829, 9.999249 
6.9502825e+2, 2.044816e+2, -873829.9, -1069098.1, 97501.77, 0.048521683, 0.02946059, -833482.06, 102587.44, 0.0, 10.001083, 9.998514 
6.950139e+2, 2.1447915e+2, -776718.5, -973627.8, 94691.44, 0.0040629935, -0.080286376, -738572.3, 99521.27, 0.0, 10.001086, 9.998497 
6.949992e+2, 2.2447711e+2, -680297.4, -832063.94, 45357.598, -0.022794485, -0.14846739, -667774.9, 72337.83, 0.0, 10.000881, 9.9988985 
6.9498426e+2, 2.3447545e+2, -653493.4, -764034.8, 34170.19, -0.034059778, -0.22265045, -643783.7, -1656.4768, 0.0, 10.000372, 9.998937 
6.949702e+2, 2.4447456e+2, -579118.94, -708992.5, 79919.305, -0.017137527, -0.18769974, -541080.56, 3055.8193, 0.0, 10.000343, 9.998656 
6.9495714e+2, 2.5447446e+2, -403162.16, -574518.94, 115392.22, 0.02921437, -0.0769359, -345118.06, 101022.43, 0.0, 10.000882, 9.998648 
6.949431e+2, 2.6447347e+2, -296571.97, -463805.6, 50780.848, 0.052335594, -0.04010677, -282360.0, 65791.3, 0.0, 10.000915, 9.9987135 
6.949278e+2, 2.744713e+2, -292009.94, -412032.72, 39370.457, 0.05841123, -0.14439946, -280248.1, -30076.973, 0.0000000054780975, 10.000271, 9.998711 
6.949125e+2, 2.8446966e+2, -237451.44, -341714.06, 53291.004, 0.017823232, -0.17232613, -215033.4, -62846.777, 0.000002364329, 10.000007, 9.998646 
6.9489664e+2, 2.9446834e+2, -108192.18, -228283.08, 64311.113, -0.10493351, -0.18787123, -80252.55, -26052.162, 0.000027093956, 10.000213, 9.998652 
6.9488037e+2, 3.0446625e+2, 44666.68, -27021.643, -32509.367, -0.12943052, -0.30084282, 57213.25, 57213.25, 0.00010798756, 10.000503, 9.999556 
6.948624e+2, 3.144694e+2, 115998.125, 117749.25, 69186.516, -0.16671878, 0.035567414, 186065.73, 186065.73, 0.00025660693, 10.000477, 10.000565 
7.051411e+2, 1.2449915e+2, -1570864.6, -1612586.4, -17163.223, -0.023779621, -0.18366623, -1564711.6, 155180.19, 0.0, 10.000815, 10.000299 
7.0512843e+2, 1.3449942e+2, -1393454.5, -1424173.5, 53814.855, 0.018450158, -0.25004795, -1352850.1, 269032.06, 0.0, 10.0011425, 10.000772 
7.051183e+2, 1.4449859e+2, -1494022.5, -1637480.5, 11570.863, 0.3351199, -0.30906078, -1493095.3, 30793.744, 0.0, 10.000705, 9.998839 
7.051019e+2, 1.5449747e+2, -1544308.6, -1616577.1, 63617.96, 0.14398447, -0.317149, -1507279.1, -81373.61, 0.0, 9.999723, 9.998778 
7.0508593e+2, 1.6449742e+2, -1368078.6, -1326840.8, 94046.71, 0.00045538295, -0.26133943, -1251179.3, 76729.81, 0.0, 9.999599, 10.00015 
7.050711e+2, 1.7449853e+2, -1143771.1, -1157782.5, 71982.54, -0.0058653136, -0.18784131, -1078454.1, 151443.92, 0.0, 10.000419, 10.000244 
7.050569e+2, 1.8449931e+2, -1096087.9, -1243203.8, 81901.07, 0.019510617, -0.062497344, -1059561.5, 72331.32, 0.0, 10.000757, 9.998823 
7.050432e+2, 1.944995e+2, -1040467.3, -1173610.0, 57373.86, 0.06326735, 0.06420563, -1019155.2, 14741.425, 0.0, 10.000495, 9.998755 
7.0502913e+2, 2.0449843e+2, -963715.1, -1100258.0, 72260.234, 0.0627181, 0.09315503, -932575.6, 3333.3198, 0.0, 10.000418, 9.998623 
7.050147e+2, 2.144958e+2, -851245.2, -992981.6, 86595.68, 0.014829526, -0.047931977, -810215.6, 27716.912, 0.0, 10.000506, 9.998644 
7.05e+2, 2.2449337e+2, -773270.2, -930707.56, 47074.3, -0.003347337, -0.14107372, -760268.5, -20313.143, 0.0, 10.00048, 9.99841 
7.0498496e+2, 2.3449102e+2, -697804.7, -843411.5, 15888.793, 0.0072374647, -0.23028807, -696091.06, -54112.16, 0.0, 10.000322, 9.998413 
7.0497066e+2, 2.4449025e+2, -597918.6, -658676.1, 76781.3, 0.016279113, -0.18297285, -545724.75, -1737.2047, 0.0, 9.999963, 9.999181 
7.049571e+2, 2.544912e+2, -582774.4, -594595.06, 92134.984, 0.022505961, -0.0276831, -496360.34, -50380.586, 0.0, 9.999367, 9.999235 
7.0494306e+2, 2.6449054e+2, -503335.84, -578147.75, 52506.723, 0.032464813, 0.016125338, -476273.5, -128286.61, 0.0, 9.999561, 9.998582 
7.049282e+2, 2.744878e+2, -243923.89, -403186.66, 46416.625, 0.061902575, -0.12977722, -231383.36, 18629.705, 0.000000016182126, 10.00067, 9.998574 
7.04913e+2, 2.8448617e+2, -70594.98, -229184.45, 78276.98, 0.031035231, -0.16079192, -38467.363, 113561.27, 0.0000030357212, 10.001006, 9.998941 
7.0489705e+2, 2.9448572e+2, -59432.023, -165849.38, 91766.72, -0.091868624, -0.12475593, -6563.8657, 47470.086, 0.000031540207, 10.000375, 9.999005 
7.0488036e+2, 3.0448437e+2, 30578.61, 1873.1226, 1253.0477, -0.15923132, -0.1964828, 30633.205, 30633.205, 0.00012311795, 10.00025, 9.999878 
7.0486283e+2, 3.1448743e+2, 104759.43, 88336.41, 10493.986, -0.16184413, 0.100531034, 109872.81, 109872.81, 0.00029058926, 10.000505, 10.000348 
7.1514446e+2, 1.2451573e+2, -1676951.0, -1843973.3, 15227.306, 0.1954205, -0.1179863, -1675574.1, 44156.594, 0.0, 10.000865, 9.998685 
7.151287e+2, 1.3451467e+2, -1500848.6, -1660861.9, 67672.945, -0.088213354, -0.15516104, -1476066.5, 145674.83, 0.0, 10.001192, 9.999128 
7.151171e+2, 1.4451401e+2, -1369031.0, -1379523.8, -33272.465, 0.1309247, -0.19564849, -1340593.8, 183153.08, 0.0, 10.000718, 10.000599 
7.1510136e+2, 1.5451428e+2, -1408477.6, -1335721.6, 32577.928, 0.09698026, -0.2581114, -1323266.4, 102475.51, 0.0, 9.999724, 10.000706 
7.150861e+2, 1.6451508e+2, -1389812.8, -1367026.9, 116139.37, 0.04700532, -0.20658427, -1261723.0, 66010.945, 0.0, 9.999582, 9.999881 
7.150722e+2, 1.7451642e+2, -1170436.6, -1217383.8, 109439.77, 0.040219724, -0.0702082, -1081981.4, 147741.84, 0.0, 10.000437, 9.999828 
7.150579e+2, 1.845161e+2, -1132562.8, -1314210.5, 67920.39, 0.030416, -0.010433715, -1109975.3, 21754.188, 0.0, 10.000738, 9.9983425 
7.1504325e+2, 1.9451362e+2, -1083295.5, -1247099.4, 54836.676, 0.0066165477, -0.10111162, -1066632.9, -32875.37, 0.0, 10.000432, 9.998279 
7.15029e+2, 2.0451215e+2, -942781.7, -1037764.4, 69141.83, -0.0014311712, -0.112848096, -906392.06, 29381.16, 0.0, 10.00034, 9.999085 
7.1501523e+2, 2.1451166e+2, -830148.6, -926968.94, 94320.7, 0.007907102, -0.08867498, -772540.2, 65235.625, 0.0, 10.000417, 9.999137 
7.1500105e+2, 2.2451049e+2, -822336.8, -1015324.25, 34935.434, 0.039690997, -0.05446304, -816207.3, -76418.65, 0.0, 10.000401, 9.99787 
7.1498626e+2, 2.3450841e+2, -750028.3, -935536.44, 16233.686, 0.09346661, -0.06076382, -748618.4, -106803.375, 0.0, 10.000251, 9.997816 
7.149712e+2, 2.445074e+2, -578994.2, -604946.3, 48209.066, 0.06255177, -0.022065343, -542045.4, 1781.5662, 0.0, 9.999899, 9.999583 
7.149557e+2, 2.545076e+2, -561658.9, -533737.3, 74556.23, -0.074592434, 0.013816408, -471846.03, -26023.127, 0.0, 9.999295, 9.99969 
7.1494126e+2, 2.6450682e+2, -498624.4, -560208.1, 85553.33, -0.1131211, 0.016326966, -438490.44, -90660.695, 0.0, 9.999523, 9.998725 
7.149282e+2, 2.745047e+2, -245020.75, -391511.72, 97536.625, -0.027247695, -0.08118038, -196289.63, 53561.77, 0.000000020828322, 10.0006075, 9.998686 
7.1491385e+2, 2.845042e+2, -36850.566, -152419.14, 51330.957, -0.0046599647, -0.032912016, -17343.904, 134513.16, 0.0000037854625, 10.000979, 9.999481 
7.148977e+2, 2.945056e+2, -33085.547, -94819.484, 77972.3, -0.08591797, 0.13623165, 19907.182, 73751.58, 0.000035842306, 10.00031, 9.999524 
7.1488124e+2, 3.0450425e+2, -9259.352, -75746.555, 7163.5205, -0.112592116, 0.06000535, -8496.291, -8496.291, 0.00013552581, 10.000223, 9.999359 
7.1486545e+2, 3.1450242e+2, 18776.41, -69405.234, 29879.826, 0.0066461526, -0.07286337, 27947.25, 27947.25, 0.00031572883, 10.000414, 9.999309 
7.251468e+2, 1.2453174e+2, -1770489.8, -1903792.3, 3521.5325, 0.38173032, -0.044290077, -1770396.9, -50817.85, 0.0, 10.000254, 9.998592 
7.2512895e+2, 1.3453002e+2, -1773362.3, -1794611.5, 109648.89, -0.082638144, -0.13801664, -1673824.5, -52228.85, 0.0, 9.999347, 9.999097 
7.251165e+2, 1.4452972e+2, -1577051.6, -1460635.3, 38830.016, 0.08119834, -0.15044083, -1448872.3, 74725.2, 0.0, 9.999204, 10.000776 
7.251014e+2, 1.545307e+2, -1343220.6, -1279767.3, -33345.492, 0.12038226, -0.15948033, -1265466.6, 160118.39, 0.0, 10.000066, 10.000925 
7.250867e+2, 1.6453145e+2, -1285225.4, -1348202.5, 10193.812, 0.10506747, -0.11133905, -1283616.5, 43960.523, 0.0, 10.000421, 9.999614 
7.2507286e+2, 1.7453182e+2, -1232238.5, -1276207.0, -1574.5466, 0.08312613, -0.045519937, -1232182.3, -2607.0007, 0.0, 10.000136, 9.999569 
7.250586e+2, 1.845309e+2, -1173486.3, -1290279.1, -1682.3517, 0.05465217, -0.051867772, -1173462.1, -41876.676, 0.0, 10.000258, 9.998743 
7.250439e+2, 1.9452828e+2, -994808.1, -1155352.1, 42356.24, 0.009325842, -0.20172183, -984318.7, 49293.0, 0.0, 10.000821, 9.998725 
7.2502965e+2, 2.04527e+2, -841390.44, -991197.2, 81646.02, 0.0038559153, -0.2138954, -805494.06, 130130.41, 0.0, 10.001038, 9.999077 
7.2501624e+2, 2.1452717e+2, -774606.4, -906104.1, 55104.816, 0.049015805, -0.120079055, -754568.0, 83055.08, 0.0, 10.00081, 9.999099 
7.2500193e+2, 2.2452676e+2, -752164.1, -958278.94, 19520.566, 0.07562897, -0.019909369, -750331.7, -10701.328, 0.0, 10.000784, 9.998076 
7.2498673e+2, 2.3452553e+2, -624135.7, -853087.2, 48000.766, 0.08451595, 0.039336864, -614479.4, 27169.754, 0.0, 10.001019, 9.998016 
7.249715e+2, 2.4452436e+2, -446745.25, -599872.75, 76536.24, 0.047572266, 0.07476949, -415050.97, 128612.65, 0.0, 10.001063, 9.999055 
7.2495586e+2, 2.5452316e+2, -364771.25, -502222.38, 12944.523, -0.059793234, 0.027246656, -363562.84, 82111.26, 0.0, 10.000918, 9.999124 
7.249412e+2, 2.645222e+2, -331637.06, -406646.16, 28845.092, -0.11228539, 0.010130584, -321827.44, 25854.953, 0.0, 10.000365, 9.999368 
7.249276e+2, 2.745213e+2, -374947.34, -374613.16, 70292.36, -0.07740115, -0.03228341, -304487.7, -54797.586, 0.000000011844985, 9.999376, 9.999393 
7.2491354e+2, 2.845213e+2, -298396.84, -291127.13, 41914.75, -0.04301651, 0.03252619, -252689.92, -100999.2, 0.000004675658, 9.999253, 9.999353 
7.248984e+2, 2.9452226e+2, -66558.61, -130678.06, -1873.659, -0.03141025, 0.174659, -66503.91, -12820.403, 0.000040333267, 10.000173, 9.99934 
7.248824e+2, 3.0452096e+2, 84361.016, -66509.695, -67255.19, -0.05093263, 0.13174401, 109988.78, 109988.78, 0.00014552723, 10.001026, 9.999033 
7.248669e+2, 3.145175e+2, 179363.83, -25680.656, -62567.684, 0.06438276, -0.13335365, 196947.89, 196947.89, 0.0003309744, 10.001648, 9.99902 
7.3514795e+2, 1.24547206e+2, -1666664.6, -1688154.5, -17503.947, 0.44035074, 0.04233647, -1656870.8, 62565.293, 0.0, 10.000268, 10.000055 
7.35129e+2, 1.3454548e+2, -1670794.0, -1589653.3, 74579.52, -0.027594278, -0.1946829, -1545323.4, 76121.91, 0.0, 9.999377, 10.000489 
7.351162e+2, 1.4454554e+2, -1670368.0, -1651138.9, 60724.938, 0.11208657, -0.17911826, -1599272.1, -75829.94, 0.0, 9.9992, 9.999464 
7.3510194e+2, 1.5454666e+2, -1443567.9, -1496115.1, 8571.363, 0.14288394, -0.03131977, -1442205.1, -16769.65, 0.0, 10.000101, 9.999421 
7.3508734e+2, 1.6454653e+2, -1298811.3, -1378908.9, -6320.534, 0.11300066, 0.017866088, -1298315.6, 29122.537, 0.0, 10.000433, 9.999394 
7.35073e+2, 1.7454481e+2, -1243947.5, -1298970.8, -5464.2915, 0.06694276, -0.11013924, -1243410.1, -13956.962, 0.0, 10.000128, 9.999418 
7.3505884e+2, 1.8454377e+2, -1088902.9, -1107232.4, 13538.765, 0.035285465, -0.18066102, -1081718.5, 49741.566, 0.0, 10.000227, 10.000014 
7.350448e+2, 1.9454342e+2, -909441.75, -964428.44, 70048.35, 0.0082860375, -0.23583648, -861684.5, 171774.5, 0.0, 10.000767, 10.000059 
7.3503095e+2, 2.0454305e+2, -881404.75, -1060999.3, 68175.64, 0.01742482, -0.20729174, -858456.9, 77005.56, 0.0, 10.0009775, 9.998627 
7.3501736e+2, 2.1454245e+2, -819741.56, -984184.7, 53497.004, 0.06776181, -0.13987336, -803869.7, 33603.41, 0.0, 10.000744, 9.998591 
7.350026e+2, 2.2454226e+2, -698251.06, -830856.44, 20486.293, 0.043152418, -0.032388933, -695158.25, 44320.773, 0.0, 10.000715, 9.998986 
7.3498625e+2, 2.345424e+2, -566910.25, -714487.3, 63755.414, -0.07817827, 0.06409329, -543182.1, 98298.914, 0.0, 10.000933, 9.999009 
7.349712e+2, 2.4454108e+2, -557662.8, -816911.75, 66789.51, -0.09464884, 0.10278273, -541467.75, 2029.8993, 0.0, 10.001006, 9.997592 
7.3495764e+2, 2.5453788e+2, -487296.56, -739247.0, 13718.392, 0.009318037, 0.014002204, -486551.8, -41018.66, 0.0, 10.000847, 9.99753 
7.3494273e+2, 2.645367e+2, -257740.7, -242431.27, -12746.308, -0.00908908, 0.0038649759, -235217.8, 112326.58, 0.0, 10.000319, 10.000519 
7.3492634e+2, 2.7453768e+2, -295247.4, -193703.11, 42328.336, -0.16114816, 0.020676404, -178373.06, 71155.84, 0.000000051096855, 9.999311, 10.000669 
7.3491174e+2, 2.845374e+2, -357295.28, -409501.75, 67841.08, -0.1616366, 0.02986271, -310708.8, -159178.55, 0.0000058850314, 9.999232, 9.998549 
7.34899e+2, 2.9453558e+2, -141560.33, -272207.1, 43378.277, -0.009067985, -0.014902349, -128469.305, -74917.38, 0.000044056193, 10.000111, 9.998397 
7.3488367e+2, 3.045345e+2, 68508.36, -98859.664, -44387.86, -0.04662892, 0.02011676, 79551.83, 79551.83, 0.00015023218, 10.001017, 9.998817 
7.348669e+2, 3.1453276e+2, 191625.1, 15588.51, -27940.064, -0.14049412, -0.05829962, 195953.25, 195953.25, 0.0003328002, 10.001577, 9.999336 
7.4514794e+2, 1.2456314e+2, -1583044.4, -1620696.0, 26994.617, 0.39599103, 0.16011761, -1568959.4, 150329.13, 0.0, 10.000736, 10.000279 
7.451299e+2, 1.34561e+2, -1426500.0, -1452946.4, -24334.447, 0.049474344, -0.13236816, -1412028.1, 209271.55, 0.0, 10.000989, 10.00064 
7.451169e+2, 1.4456105e+2, -1454314.3, -1577952.8, -19053.422, 0.18522397, -0.11608335, -1451444.5, 71851.39, 0.0, 10.00081, 9.99919 
7.45102e+2, 1.5456198e+2, -1439633.3, -1524189.0, -558.39856, 0.13855805, 0.041735023, -1439629.5, -14338.438, 0.0, 10.000263, 9.9991455 
7.450872e+2, 1.6456152e+2, -1336229.0, -1381805.8, 52509.78, 0.07916729, 0.065600365, -1301775.9, 25519.94, 0.0, 10.000108, 9.9995365 
7.4507314e+2, 1.7455922e+2, -1188623.1, -1252721.4, 64352.65, 0.062028266, -0.13606158, -1148780.6, 80533.03, 0.0, 10.000419, 9.9995985 
7.450593e+2, 1.845582e+2, -1039709.44, -1082800.0, 72034.02, 0.05225934, -0.21357967, -986067.6, 145251.53, 0.0, 10.0005665, 10.000018 
7.4504566e+2, 1.9455853e+2, -946320.25, -983586.1, 16870.668, 0.035064455, -0.20109469, -939817.44, 93494.65, 0.0, 10.000516, 10.000051 
7.4503183e+2, 2.0455846e+2, -913648.06, -1046511.8, -6993.225, 0.032022607, -0.15478055, -913280.94, 22031.691, 0.0, 10.000631, 9.998888 
7.45018e+2, 2.1455777e+2, -773060.44, -933445.5, 24723.688, 0.051704615, -0.12123736, -769335.75, 67987.875, 0.0, 10.000943, 9.998845 
7.450032e+2, 2.2455737e+2, -654480.7, -807392.4, -98.76997, 0.029554004, -0.04976728, -654480.6, 84850.53, 0.0, 10.00101, 9.999003 
7.449873e+2, 2.3455714e+2, -590713.06, -724242.75, -45566.035, -0.055162035, 0.009924587, -576645.94, 64690.188, 0.0, 10.000758, 9.999027 
7.449722e+2, 2.4455594e+2, -597633.5, -785964.1, -3084.4417, -0.068197116, 0.036341265, -597583.0, -54232.664, 0.0, 10.000514, 9.998044 
7.4495816e+2, 2.545534e+2, -524165.13, -705628.06, 85265.2, 0.01090359, -0.03259997, -490388.16, -45010.83, 0.0, 10.000367, 9.997995 
7.4494314e+2, 2.6455227e+2, -304146.28, -363089.75, 72279.73, 0.00073047564, -0.018341914, -255560.72, 91828.125, 0.0, 10.000416, 9.999646 
7.449268e+2, 2.745527e+2, -154487.25, -228632.61, -53547.777, -0.10554717, 0.03503182, -126431.22, 122952.25, 0.00000017449423, 10.000719, 9.99975 
7.449121e+2, 2.8455183e+2, -122194.35, -284380.9, -43437.91, -0.117756166, 0.02588058, -111293.22, 40098.832, 0.0000070145306, 10.000802, 9.998651 
7.448991e+2, 2.945493e+2, -45598.125, -207432.25, 278.31616, -0.030224549, -0.10567346, -45597.645, 7820.1367, 0.00004543542, 10.000693, 9.998559 
7.4488413e+2, 3.045486e+2, 42753.656, -148446.36, -22597.764, -0.09226034, -0.022015074, 45388.164, 45388.164, 0.00014809403, 10.001001, 9.998489 
7.4486834e+2, 3.145484e+2, 202140.72, 37167.734, -53611.36, -0.15051796, 0.08911946, 218032.06, 218032.06, 0.00032277982, 10.001585, 9.999482 
7.5514644e+2, 1.2457957e+2, -1650622.1, -1761641.9, 36243.203, 0.13313647, 0.30346218, -1639837.9, 79298.32, 0.0, 10.000744, 9.999306 
7.551314e+2, 1.3457654e+2, -1500234.8, -1612543.3, -11694.703, 0.084197156, 0.02893618, -1499029.9, 122129.586, 0.0, 10.001019, 9.999529 
7.551185e+2, 1.4457612e+2, -1402351.1, -1471631.9, -46612.223, 0.24446853, 0.023356937, -1378917.0, 144242.33, 0.0, 10.000815, 9.999919 
7.551015e+2, 1.5457675e+2, -1378921.3, -1399663.5, -13724.256, 0.04071725, 0.069862835, -1372090.1, 53060.84, 0.0, 10.000268, 10.0 
7.5508606e+2, 1.6457646e+2, -1299927.6, -1306398.4, 55544.06, -0.060675073, 0.04062959, -1247524.8, 79624.7, 0.0, 10.000108, 10.000053 
7.550732e+2, 1.7457506e+2, -1156110.1, -1186488.1, 82110.36, 0.007853561, -0.11945887, -1087795.8, 141360.83, 0.0, 10.000425, 10.000051 
7.5505996e+2, 1.8457414e+2, -1127617.9, -1261117.6, 63385.48, 0.04250223, -0.15175813, -1102317.5, 28845.44, 0.0, 10.000547, 9.998803 
7.550462e+2, 1.9457358e+2, -1045368.56, -1173839.1, 21952.102, 0.02149003, -0.09903531, -1041721.1, -8550.33, 0.0, 10.000455, 9.998772 
7.5503224e+2, 2.0457327e+2, -857151.9, -917088.56, -2499.7441, -0.011021032, -0.052939355, -857047.75, 78126.7, 0.0, 10.000573, 9.999808 
7.5501794e+2, 2.1457314e+2, -713766.3, -788027.9, 42631.24, -0.05559222, -0.06604625, -694362.9, 142811.53, 0.0, 10.000852, 9.9998865 
7.550038e+2, 2.245721e+2, -729896.75, -942513.06, -13632.556, -0.02251703, -0.07037748, -729026.25, 10160.067, 0.0, 10.000918, 9.998122 
7.549896e+2, 2.3456982e+2, -671142.6, -871838.8, -46543.65, 0.091562144, -0.11864484, -660874.06, -19660.135, 0.0, 10.00068, 9.998051 
7.549742e+2, 2.4456902e+2, -437454.22, -443321.38, -15519.052, 0.06354765, -0.115858115, -424593.9, 118627.17, 0.0, 10.000469, 10.000418 
7.549573e+2, 2.545697e+2, -354865.25, -341524.78, 86013.58, -0.12946776, -0.11508389, -261923.19, 183283.27, 0.0, 10.000311, 10.000524 
7.549421e+2, 2.6456898e+2, -515357.8, -791792.06, 79146.45, -0.15545909, -0.054972824, -494301.16, -147085.73, 0.0, 10.000378, 9.996719 
7.54929e+2, 2.7456638e+2, -389201.56, -699189.56, -32994.137, 0.022485867, 0.016020715, -385728.66, -136474.72, 0.0000002213921, 10.000651, 9.9965515 
7.5491464e+2, 2.8456455e+2, -52542.28, -135523.08, -54237.227, 0.032180358, 0.02932148, -25745.568, 125530.68, 0.000006961638, 10.000779, 9.999688 
7.5489855e+2, 2.9456335e+2, 34149.805, -31097.682, 3899.7827, -0.17078647, -0.088044815, 34382.066, 87663.24, 0.00004401986, 10.000639, 9.999803 
7.5488347e+2, 3.0456328e+2, 1702.2594, -214897.17, -3020.346, -0.2682315, 0.01175766, 1744.368, 1744.368, 0.0001416952, 10.000935, 9.998059 
7.548708e+2, 3.1456432e+2, 184191.11, 22658.668, -20501.072, -0.098243706, 0.2951198, 186752.4, 186752.4, 0.00030697437, 10.001496, 9.999421 
7.651471e+2, 1.24594264e+2, -1622652.0, -1752985.8, 54592.234, 0.124593295, 0.29580858, -1602806.9, 116189.59, 0.0, 10.000919, 9.9992895 
7.651321e+2, 1.345926e+2, -1528839.3, -1647157.0, 31704.516, 0.07182452, 0.17222449, -1520879.3, 100129.57, 0.0, 10.000888, 9.999361 
7.6511884e+2, 1.4459224e+2, -1416943.5, -1469833.3, 16375.906, 0.21659347, 0.17668103, -1412283.6, 110724.125, 0.0, 10.000674, 10.0 
7.651021e+2, 1.5459116e+2, -1329754.5, -1369192.9, -21248.86, 0.07044565, 0.04449838, -1320484.8, 104528.14, 0.0, 10.000567, 10.000072 
7.6508695e+2, 1.645906e+2, -1217103.6, -1261865.9, 39132.59, -0.0015461242, -0.019097596, -1194404.0, 132608.89, 0.0, 10.000656, 10.000096 
7.6507425e+2, 1.7459051e+2, -1078972.8, -1142646.9, 21127.934, 0.05609809, -0.050559264, -1072600.0, 156407.78, 0.0, 10.000929, 10.000108 
7.65061e+2, 1.8458991e+2, -1074331.6, -1245495.0, 23253.965, 0.079248056, -0.052394688, -1071228.6, 59782.6, 0.0, 10.000956, 9.998714 
7.65047e+2, 1.9458844e+2, -1021327.75, -1175559.0, 57460.33, 0.049217258, -0.07962276, -1002274.2, 30752.688, 0.0, 10.000668, 9.998662 
7.650328e+2, 2.0458777e+2, -884694.9, -945308.4, 63702.348, 0.004973369, -0.057527006, -844457.4, 90576.6, 0.0, 10.000455, 9.999671 
7.650185e+2, 2.1458787e+2, -798540.56, -846680.94, 6964.3047, -0.055350278, -0.036056153, -797553.3, 39479.586, 0.0, 10.000339, 9.999734 
7.650044e+2, 2.2458689e+2, -763477.6, -917738.7, -36318.02, -0.030961657, -0.043559805, -755354.9, -16311.469, 0.0, 10.000518, 9.998481 
7.649904e+2, 2.3458457e+2, -590886.94, -791622.44, 18548.41, 0.086623535, -0.13215312, -589187.44, 51881.445, 0.0, 10.001056, 9.998418 
7.64975e+2, 2.4458389e+2, -341069.1, -398250.44, 12089.7705, 0.07047673, -0.1327724, -338618.03, 204456.02, 0.0, 10.00114, 10.000406 
7.64958e+2, 2.5458506e+2, -303051.25, -316101.56, -92195.234, -0.10426269, -0.0815996, -217150.55, 227905.64, 0.0, 10.000676, 10.000519 
7.64943e+2, 2.6458427e+2, -489313.78, -816288.4, -65480.445, -0.12193508, -0.012978356, -476688.1, -129621.336, 0.0, 10.00072, 9.9963875 
7.649303e+2, 2.7458093e+2, -310075.28, -697887.0, 24123.129, 0.061052214, 0.017121987, -308580.5, -59467.777, 0.00000016204108, 10.001357, 9.99622 
7.649159e+2, 2.845789e+2, 3632.1663, -145296.0, 47992.035, 0.06334831, 0.045355655, 17757.783, 168894.81, 0.000006290961, 10.001317, 9.999364 
7.648992e+2, 2.945782e+2, -16117.944, -86535.16, -26514.994, -0.15864985, 0.006274197, -7250.5835, 45886.98, 0.000041719115, 10.000433, 9.999517 
7.648845e+2, 3.045772e+2, -49333.95, -231731.25, -10385.986, -0.23694786, 0.029289594, -48744.46, -48744.46, 0.00013461517, 10.000551, 9.998126 
7.6487327e+2, 3.1457746e+2, 207432.39, 44142.867, -14609.522, 0.0036179638, 0.22339992, 208729.2, 208729.2, 0.00029000925, 10.00162, 9.999503 
7.7514935e+2, 1.246073e+2, -1561239.5, -1618305.3, 43274.703, 0.21908961, 0.139761, -1537937.8, 180930.92, 0.00000000003061157, 10.000894, 10.000226 
7.75132e+2, 1.3460918e+2, -1472763.1, -1532413.6, 30868.965, -0.052692056, 0.29654032, -1459664.8, 161183.1, 0.0, 10.000895, 10.000145 
7.7511793e+2, 1.4460938e+2, -1456131.6, -1551189.0, 2269.5337, 0.037324384, 0.3404612, -1456077.5, 66764.49, 0.0, 10.000671, 9.999446 
7.7510375e+2, 1.5460528e+2, -1369075.6, -1460067.0, -18021.826, 0.16009049, -0.028541857, -1365636.3, 59239.92, 0.0, 10.000602, 9.999434 
7.7508974e+2, 1.6460396e+2, -1245385.9, -1318482.0, 42184.74, 0.18908378, -0.115030184, -1226119.0, 100766.21, 0.0, 10.00065, 9.999708 
7.7507627e+2, 1.7460565e+2, -1105660.8, -1194546.0, 39847.758, 0.14510491, 0.066708036, -1090412.6, 138454.2, 0.0, 10.000915, 9.999758 
7.750623e+2, 1.8460555e+2, -1009607.3, -1101420.5, 7788.6865, 0.10159525, 0.08649389, -1008951.25, 121912.25, 0.0, 10.000912, 9.999727 
7.7504784e+2, 1.9460323e+2, -953621.5, -1021922.75, 52940.08, 0.05297077, -0.13367616, -924772.8, 108106.48, 0.0, 10.000611, 9.999744 
7.7503353e+2, 2.0460203e+2, -982669.2, -1131144.4, 51237.063, 0.017178807, -0.16305317, -966704.44, -31813.893, 0.0, 10.000378, 9.998434 
7.750194e+2, 2.1460193e+2, -904646.56, -1046319.6, 8797.404, -0.008924821, -0.026621236, -904102.4, -67203.875, 0.0, 10.000254, 9.998404 
7.750047e+2, 2.2460175e+2, -665966.94, -693786.5, -24298.709, -0.06094228, 0.038532563, -651878.3, 87023.484, 0.0, 10.000425, 10.000065 
7.749893e+2, 2.3460127e+2, -482803.66, -547461.7, 45500.53, -0.13962112, -0.036936015, -459316.3, 181585.6, 0.0, 10.00097, 10.000136 
7.749744e+2, 2.4460053e+2, -521555.6, -756322.5, -11166.517, -0.11358785, -0.015395957, -521025.7, 21883.963, 0.0, 10.001069, 9.997981 
7.7496016e+2, 2.5459945e+2, -494532.1, -700129.06, -102954.305, 0.030570192, 0.070022665, -451841.34, -6914.2383, 0.0, 10.000617, 9.997911 
7.7494556e+2, 2.6459807e+2, -330805.25, -480237.13, -48898.805, 0.050418675, 0.108542785, -316226.38, 30717.05, 0.0, 10.000688, 9.998712 
7.7493054e+2, 2.7459624e+2, -137950.47, -330801.56, 56137.613, -0.066077046, 0.034146257, -122799.51, 126160.86, 0.00000014054619, 10.001309, 9.998766 
7.749157e+2, 2.8459483e+2, -122113.91, -394224.13, 12343.655, -0.10422718, 0.071324356, -121555.11, 29419.393, 0.0000059856334, 10.001268, 9.997675 
7.7490073e+2, 2.9459363e+2, -151717.1, -362435.63, -51628.016, -0.060654525, 0.16915455, -139747.64, -86759.47, 0.0000396548, 10.000404, 9.997637 
7.7488697e+2, 3.045903e+2, -13277.132, -149350.42, 25602.686, -0.053113405, 0.023880256, -8619.33, -8619.33, 0.00012692052, 10.000519, 9.998708 
7.748753e+2, 3.1458753e+2, 212912.45, 70110.95, 41223.836, 0.0054462594, -0.14755645, 223958.48, 223958.48, 0.00027213217, 10.001545, 9.999724 
7.8515005e+2, 1.2462206e+2, -1599681.3, -1619792.6, 88955.73, 0.22413367, 0.11001819, -1520214.6, 198506.56, 0.0000000009851104, 10.000567, 10.000368 
7.851327e+2, 1.3462386e+2, -1667380.4, -1628215.1, -17359.61, -0.0016766367, 0.2596777, -1621628.4, -924.76855, 0.0, 9.999584, 10.000112 
7.851183e+2, 1.4462419e+2, -1605359.6, -1631856.3, 4.452835, 0.06365041, 0.32251868, -1605359.6, -82661.92, 0.0, 9.999683, 9.999369 
7.8510475e+2, 1.5462051e+2, -1300576.0, -1436795.6, 9036.998, 0.17587899, 0.0031907463, -1299979.0, 124748.805, 0.0, 10.001122, 9.999339 
7.8509086e+2, 1.6461918e+2, -1166193.3, -1329025.8, 61393.598, 0.20861645, -0.05737252, -1145640.0, 181098.05, 0.0, 10.0014105, 9.999262 
7.850772e+2, 1.7462038e+2, -1230545.0, -1305821.0, 33026.94, 0.18358053, 0.119450316, -1218109.1, 10617.8, 0.0, 10.000285, 9.9992895 
7.850631e+2, 1.8462005e+2, -1126618.6, -1133667.0, 4255.914, 0.14057031, 0.13001916, -1124617.1, 6108.6567, 0.0, 10.000007, 9.99994 
7.850486e+2, 1.9461776e+2, -933141.0, -983457.06, -24768.842, 0.070674315, -0.11098614, -922994.3, 109744.305, 0.0, 10.000637, 9.999992 
7.850342e+2, 2.0461634e+2, -938392.94, -1145021.0, -27500.791, 0.028827531, -0.15989193, -934795.44, -44.539845, 0.0, 10.000838, 9.998112 
7.8502e+2, 2.1461575e+2, -907554.56, -1087750.3, -10958.486, 0.019337865, -0.03635094, -906890.6, -70126.55, 0.0, 10.00041, 9.998041 
7.8500515e+2, 2.2461553e+2, -725796.2, -700257.56, -33157.645, -0.033714555, 0.032550637, -677495.44, 61272.5, 0.0, 9.99991, 10.000271 
7.849894e+2, 2.3461553e+2, -708710.7, -630157.4, -87364.62, -0.13757809, -0.015254774, -573646.56, 67115.71, 0.0, 9.999306, 10.000371 
7.8497475e+2, 2.446149e+2, -753429.56, -914806.7, -96268.375, -0.11482767, 0.021088362, -708506.6, -165736.56, 0.0, 9.999684, 9.997553 
7.849612e+2, 2.5461328e+2, -441302.38, -727297.4, -40337.043, 0.05392561, 0.09989219, -435722.06, 9073.115, 0.0, 10.001208, 9.997436 
7.849469e+2, 2.646119e+2, -154024.16, -307491.66, 26558.143, 0.08017865, 0.12292069, -149558.14, 197252.83, 0.0, 10.001523, 9.999497 
7.8493154e+2, 2.7461067e+2, -202709.53, -267460.9, -11799.649, -0.05435496, 0.024271183, -200626.3, 48190.844, 0.0000001311964, 10.000456, 9.999613 
7.8491676e+2, 2.8460932e+2, -247818.45, -514355.88, -45489.508, -0.090107515, 0.049933147, -240268.69, -89439.484, 0.0000058891046, 10.000662, 9.997144 
7.849026e+2, 2.946077e+2, 76587.9, -316383.44, -24921.19, -0.007365443, 0.16851433, 78162.02, 131011.63, 0.000037489564, 10.002257, 9.99706 
7.848889e+2, 3.0460414e+2, 226182.3, -24294.127, 66026.52, 0.015405044, 0.027129997, 242521.31, 242521.31, 0.00011865352, 10.0021, 9.998811 
7.848766e+2, 3.1460112e+2, -68059.35, -95490.875, 11424.599, 0.07434863, -0.18557866, -63924.52, -63924.52, 0.0002544846, 9.999726, 9.999465 
7.951488e+2, 1.2463865e+2, -1643782.3, -1718822.9, 35893.33, 0.006798434, 0.20125018, -1629378.5, 89174.57, 0.0000000034592607, 10.000604, 9.999673 
7.9513395e+2, 1.3463679e+2, -1714036.9, -1737398.4, -52443.516, 0.14980684, 0.06728605, -1671989.0, -51414.36, 0.0, 9.999641, 9.999333 
7.9511976e+2, 1.4463685e+2, -1575574.9, -1576144.4, 42192.855, 0.21973293, 0.1262729, -1533665.9, -11092.405, 0.0, 9.999709, 9.999738 
7.951048e+2, 1.5463684e+2, -1265072.6, -1370099.1, 72072.06, 0.05001426, 0.12627083, -1228411.8, 196156.52, 0.0, 10.001149, 9.9997835 
7.950904e+2, 1.646362e+2, -1209326.1, -1413762.5, 15740.856, -0.0025562074, 0.14062707, -1208121.3, 118450.77, 0.0, 10.001387, 9.998694 
7.9507697e+2, 1.7463474e+2, -1268797.5, -1391958.0, -3778.4187, 0.11365532, 0.11165567, -1268681.6, -40094.246, 0.0, 10.000308, 9.99869 
7.950632e+2, 1.846334e+2, -1171412.6, -1220211.8, 19046.984, 0.13340311, 0.07966777, -1164858.5, -34260.637, 0.0, 9.999978, 9.999359 
7.9504895e+2, 1.9463201e+2, -977336.44, -1067424.4, 6159.3584, 0.027443811, -0.016306918, -976917.25, 55687.58, 0.0, 10.000603, 9.999431 
7.950346e+2, 2.0463069e+2, -911099.1, -1067801.5, -49912.363, -0.027689248, -0.052664697, -896551.7, 38063.137, 0.0, 10.000751, 9.998686 
7.950201e+2, 2.1462926e+2, -874367.9, -1001697.7, -20717.705, -0.02746105, -0.07635453, -871081.7, -34451.3, 0.0, 10.000337, 9.998667 
7.950054e+2, 2.2462821e+2, -822170.9, -878844.2, -61418.72, -0.008652323, -0.065819554, -782867.1, -44225.348, 0.0, 9.999818, 9.999089 
7.9499054e+2, 2.3462746e+2, -806862.56, -818380.9, -102297.57, 0.02896454, -0.065712556, -710162.1, -69512.61, 0.0, 9.999233, 9.999115 
7.949757e+2, 2.4462695e+2, -652970.75, -690767.7, -48894.938, -0.00016385177, -0.02511952, -619449.1, -76793.836, 0.0, 9.9996195, 9.999123 
7.94961e+2, 2.546265e+2, -334702.84, -488462.06, 23124.709, -0.10493324, 0.0048595397, -331300.28, 113360.52, 0.0, 10.001133, 9.999112 
7.9494673e+2, 2.646256e+2, -214236.22, -424196.22, -16348.166, -0.101376936, 0.025760895, -212970.92, 133698.83, 0.0, 10.001483, 9.998716 
7.949329e+2, 2.74624e+2, -273142.66, -404287.38, -43487.53, 0.028972281, -0.020233512, -260032.75, -11348.545, 0.000000103459534, 10.000411, 9.998697 
7.949189e+2, 2.8462225e+2, -206380.1, -420908.56, 6762.9688, 0.046893492, -0.01632044, -206167.1, -55465.723, 0.0000054454867, 10.00063, 9.9978 
7.949043e+2, 2.9462034e+2, 121636.62, -214360.67, 48568.18, -0.08156644, -0.0041010818, 128516.25, 181238.47, 0.00003447301, 10.002217, 9.997782 
7.948899e+2, 3.0461878e+2, 195691.81, -79913.42, -20119.697, -0.110370286, 0.03006522, 197152.84, 197152.84, 0.0001104858, 10.002069, 9.998441 
7.948766e+2, 3.146183e+2, -143466.98, -229813.17, -60673.125, 0.06554135, 0.11827227, -112174.35, -112174.35, 0.000240168, 9.999628, 9.998591 
8.0514884e+2, 1.24653354e+2, -1901645.5, -1871384.9, 7891.0776, 0.043795437, 0.1757663, -1869450.8, -151045.81, 0.0000000057252847, 9.998965, 9.999426 
8.051349e+2, 1.3465078e+2, -1642303.9, -1747079.6, -68762.51, 0.2511624, 0.010771482, -1608246.6, 12188.644, 0.0, 10.000319, 9.998957 
8.051205e+2, 1.4465065e+2, -1380319.3, -1478843.3, 64306.258, 0.266263, 0.06886327, -1348574.8, 173862.55, 0.0, 10.001044, 9.999761 
8.051053e+2, 1.5465157e+2, -1257079.8, -1366802.3, 43127.492, -0.008582787, 0.16119826, -1242157.5, 182266.7, 0.0, 10.00121, 9.999779 
8.05091e+2, 1.6465096e+2, -1212250.5, -1423130.3, -42428.37, -0.073327646, 0.18241261, -1204034.3, 122393.24, 0.0, 10.001399, 9.9986315 
8.05078e+2, 1.7464851e+2, -1095013.6, -1317066.5, -36978.305, 0.1312505, 0.06493305, -1089017.6, 139433.33, 0.0, 10.001545, 9.998611 
8.0506426e+2, 1.8464687e+2, -992801.3, -1191693.0, 38232.242, 0.17089267, 0.033329394, -985705.25, 144760.05, 0.0, 10.001459, 9.998837 
8.0504954e+2, 1.9464603e+2, -959347.9, -1124773.1, 13080.996, 0.007905469, 0.04735516, -958319.9, 74151.1, 0.0, 10.001013, 9.998843 
8.05035e+2, 2.0464489e+2, -919673.2, -1022133.0, -60249.45, -0.042933594, 0.037881434, -891817.7, 42662.242, 0.0, 10.000478, 9.999131 
8.050207e+2, 2.1464321e+2, -927582.9, -972962.06, -58384.86, 0.036247678, -0.058432743, -887633.75, -51139.117, 0.0, 9.9997425, 9.999148 
8.05006e+2, 2.2464195e+2, -872068.3, -944093.75, -43240.477, 0.09216344, -0.07342817, -851808.0, -113301.29, 0.0, 9.999654, 9.998716 
8.0499107e+2, 2.3464112e+2, -691733.44, -808086.06, -32014.729, 0.117161036, -0.043610636, -683506.25, -42989.324, 0.0, 10.000224, 9.998705 
8.049763e+2, 2.4464038e+2, -556255.0, -608331.0, 35009.35, 0.0681701, -0.020329714, -538662.4, 3861.7808, 0.0, 10.000118, 9.999455 
8.0496156e+2, 2.5463957e+2, -585062.44, -568784.2, -5841.936, -0.06128678, -0.06369245, -566904.7, -122374.75, 0.0, 9.99923, 9.999485 
8.049473e+2, 2.6463854e+2, -558561.5, -666077.56, -83140.64, -0.080545105, -0.043157235, -513313.0, -166772.61, 0.0, 9.999442, 9.998037 
8.0493367e+2, 2.74637e+2, -249374.16, -470386.13, -110848.33, 0.035672497, -0.0107633425, -203358.81, 45199.67, 0.00000004701224, 10.000905, 9.998003 
8.049197e+2, 2.8463537e+2, -96698.04, -279521.75, -35680.85, 0.05711795, 0.00034214754, -89981.15, 60594.367, 0.000004093495, 10.001007, 9.998587 
8.049056e+2, 2.9463357e+2, -193269.44, -269962.13, -908.7689, -0.03957894, -0.06071692, -193258.67, -140666.89, 0.000029631305, 9.999644, 9.998634 
8.048912e+2, 3.04633e+2, -92136.01, -232071.2, -46817.855, -0.08391068, 0.03526523, -77917.05, -77917.05, 0.00010221737, 10.000158, 9.998324 
8.048772e+2, 3.146325e+2, 279120.25, -33274.934, -87936.65, 0.025427215, 0.14141928, 302172.6, 302172.6, 0.00023173615, 10.002584, 9.998521 
8.1514955e+2, 1.2466651e+2, -1886540.8, -1853247.6, 33308.215, 0.17923658, 0.054450024, -1832657.9, -114384.32, 0.000000004999778, 9.999029, 9.9995165 
8.151352e+2, 1.3466585e+2, -1631734.4, -1733035.1, -14053.6045, 0.23258525, 0.071189195, -1629820.9, -9535.498, 0.0, 10.00036, 9.999026 
8.151205e+2, 1.4466561e+2, -1412321.1, -1547235.1, 64993.926, 0.14183392, 0.13940373, -1386105.0, 136184.13, 0.0, 10.001049, 9.999293 
8.1510615e+2, 1.546648e+2, -1285590.0, -1432265.0, 58203.805, -0.067449346, 0.108483076, -1265300.3, 158994.11, 0.0, 10.001232, 9.999322 
8.150925e+2, 1.6466355e+2, -1186434.3, -1367455.8, -45482.26, -0.07546135, 0.07065585, -1175649.3, 150653.88, 0.0, 10.00139, 9.999016 
8.150801e+2, 1.7466171e+2, -1063612.9, -1252457.3, -24954.521, 0.16736203, -0.031572957, -1060371.0, 167946.39, 0.0, 10.001546, 9.999053 
8.1506604e+2, 1.8466054e+2, -1037766.0, -1274494.8, 17619.064, 0.18887143, -0.015775358, -1036461.8, 93866.04, 0.0, 10.001411, 9.998294 
8.150501e+2, 1.9465989e+2, -1003961.06, -1211629.3, 4674.9863, -0.05468764, 0.07705521, -1003855.9, 28480.56, 0.0, 10.000982, 9.998262 
8.150352e+2, 2.0465897e+2, -916786.2, -994434.75, -94259.7, -0.07983458, 0.10978914, -853668.25, 80677.266, 0.0, 10.000384, 9.999368 
8.150217e+2, 2.1465759e+2, -918128.7, -936221.25, -79021.164, 0.1466653, 0.015559273, -847637.7, -11281.092, 0.0, 9.999664, 9.99944 
8.150069e+2, 2.2465679e+2, -856965.3, -887234.5, -30480.498, 0.20181148, 0.008543941, -838068.75, -99706.086, 0.0, 9.999547, 9.999159 
8.1499076e+2, 2.3465645e+2, -672166.3, -748212.06, -3573.5984, 0.055198874, 0.04496173, -671998.75, -31633.621, 0.0, 10.000142, 9.999155 
8.1497604e+2, 2.4465509e+2, -629035.44, -746600.94, -4056.8123, 0.022599591, 0.02738606, -628895.6, -86518.11, 0.0, 10.000058, 9.998537 
8.149628e+2, 2.5465244e+2, -661823.25, -716914.3, -33470.277, 0.12534267, -0.10353087, -646021.2, -201618.66, 0.0, 9.999175, 9.998499 
8.1494856e+2, 2.6465067e+2, -602824.44, -742654.5, -36404.527, 0.08603262, -0.081333965, -593914.4, -247491.45, 0.0, 9.999384, 9.997537 
8.149332e+2, 2.7464968e+2, -298774.0, -548705.1, -46572.03, -0.11397544, 0.05468714, -290377.84, -41937.816, 0.000000004527389, 10.00081, 9.997508 
8.14919e+2, 2.846486e+2, -36392.445, -151020.63, -92227.85, -0.13638473, 0.1006422, 14879.292, 165331.56, 0.0000024308686, 10.000982, 9.999487 
8.1490624e+2, 2.9464737e+2, -138971.53, -147170.89, -46329.06, 0.045800615, 0.004649136, -96561.125, -44102.17, 0.00002455122, 9.999591, 9.999509 
8.148927e+2, 3.046468e+2, -89120.23, -209760.23, 40498.49, 0.032881092, 0.04947118, -76786.04, -76786.04, 0.00009685274, 10.000101, 9.998496 
8.1487787e+2, 3.146435e+2, 307123.0, 48816.35, 24328.023, -0.20021081, -0.14667074, 309394.3, 309394.3, 0.00023258898, 10.002489, 9.9991255 
8.251489e+2, 1.2467951e+2, -1734874.8, -1772426.0, 54425.906, 0.16896775, -0.032758523, -1696076.9, 22065.863, 0.0000000017683296, 10.000012, 9.999593 
8.2513547e+2, 1.3468017e+2, -1517707.9, -1677015.5, -13800.509, 0.19706914, 0.10779867, -1516521.1, 103619.92, 0.0, 10.001122, 9.999044 
8.251213e+2, 1.4467983e+2, -1445149.8, -1606267.1, 20857.135, 0.118392214, 0.18271166, -1442493.5, 79653.02, 0.0, 10.001015, 9.9989 
8.251073e+2, 1.546778e+2, -1545118.5, -1603782.1, 1811.2125, 0.0115451515, 0.072335705, -1545062.6, -120897.0, 0.0, 9.99966, 9.998896 
8.250938e+2, 1.6467619e+2, -1411648.4, -1452487.8, -36800.855, 0.0010918754, 0.010459229, -1389981.6, -63802.953, 0.0, 9.999749, 9.999214 
8.250811e+2, 1.74675e+2, -1063737.8, -1232688.4, -46208.816, 0.12791318, -0.047935985, -1051925.4, 176260.31, 0.0, 10.001455, 9.99923 
8.2506704e+2, 1.8467417e+2, -1002741.5, -1232150.6, -46814.2, 0.14270227, -0.01659725, -993556.2, 136635.97, 0.0, 10.001553, 9.998513 
8.250511e+2, 1.9467354e+2, -1170256.1, -1265564.8, -19147.893, 0.018080734, 0.05620459, -1166553.1, -134352.66, 0.0, 9.999745, 9.99848 
8.2503587e+2, 2.0467255e+2, -1090103.6, -1095459.8, -42521.08, 0.014534631, 0.07726923, -1050176.4, -115965.56, 0.0, 9.9992695, 9.999207 
8.250217e+2, 2.1467106e+2, -851353.5, -924909.8, -73623.75, 0.1580414, -0.0093216095, -805832.9, 30391.043, 0.0, 10.000216, 9.99925 
8.2500684e+2, 2.2467026e+2, -672980.75, -805645.7, -36368.695, 0.18099694, -0.004532679, -663664.8, 74565.85, 0.0, 10.000836, 9.999102 
8.249914e+2, 2.3466998e+2, -551235.6, -696334.1, -62505.414, 0.062708154, 0.04381231, -528023.1, 112209.35, 0.0, 10.000999, 9.999102 
8.2497674e+2, 2.4466868e+2, -518548.66, -738808.7, -82108.64, 0.042777605, 0.053541146, -491308.94, 50936.438, 0.0, 10.001026, 9.998119 
8.2496303e+2, 2.546661e+2, -430606.75, -647891.25, -84782.63, 0.14174731, -0.030603923, -401440.34, 42831.72, 0.0, 10.000968, 9.9981 
8.2494867e+2, 2.6466426e+2, -416683.22, -602609.75, 5169.632, 0.10901582, -0.01251111, -416539.6, -70247.1, 0.0, 10.0004425, 9.997992 
8.2493365e+2, 2.7466312e+2, -477279.6, -580075.94, 55953.215, -0.07067218, 0.057730965, -452700.56, -204392.13, 0.0, 9.999345, 9.998 
8.2491934e+2, 2.8466213e+2, -293629.78, -312269.03, 10001.646, -0.11057787, 0.10575393, -289278.7, -138959.14, 0.000001518397, 9.999377, 9.999152 
8.249061e+2, 2.9466128e+2, -14990.078, -128110.945, -57961.188, 0.024778746, 0.08303791, 9434.562, 61760.2, 0.000022026383, 10.000619, 9.999144 
8.2489306e+2, 3.0466047e+2, -16183.6875, -150200.3, 14319.918, 0.04635759, 0.11404772, -14670.66, -14670.66, 0.00009707927, 10.000487, 9.99871 
8.248796e+2, 3.1465605e+2, -177717.64, -89519.055, -25428.875, -0.08500182, -0.23232472, -82712.8, -82712.8, 0.00024342752, 9.998734, 9.99997 
8.351464e+2, 1.2469231e+2, -1727665.0, -1761947.3, 68502.27, -0.11451254, -0.10220953, -1674191.9, 43821.223, 0.000000000051048894, 10.000033, 9.999653 
8.351357e+2, 1.3469385e+2, -1504565.9, -1659447.3, 33326.05, 0.08380839, 0.118078925, -1497699.5, 122301.7, 0.0, 10.0011635, 9.999143 
8.351225e+2, 1.4469342e+2, -1471509.8, -1666124.1, -36363.477, 0.12170496, 0.20027937, -1464937.1, 57070.844, 0.0, 10.001037, 9.998478 
8.351085e+2, 1.546906e+2, -1567215.1, -1656283.0, -42573.0, 0.14731292, 0.047564954, -1550139.5, -126101.7, 0.0, 9.999689, 9.998519 
8.3509463e+2, 1.646889e+2, -1414562.3, -1454517.4, 18098.04, 0.09068045, -0.0051318714, -1407583.5, -81529.53, 0.0, 9.999732, 9.999211 
8.350811e+2, 1.7468849e+2, -1062201.1, -1230438.0, 27775.264, -0.04069466, 0.015998524, -1057734.1, 170320.58, 0.0, 10.001461, 9.999244 
8.3506703e+2, 1.8468791e+2, -943736.8, -1103936.5, -117912.43, -0.022185761, 0.029076368, -881290.8, 248766.53, 0.0, 10.001523, 9.999412 
8.350524e+2, 1.946869e+2, -1105300.5, -1125646.4, -80125.35, 0.15434514, -0.029540181, -1034704.8, -2640.6365, 0.0, 9.999717, 9.999458 
8.350369e+2, 2.0468555e+2, -1142659.9, -1185556.9, -17105.107, 0.168837, -0.06842737, -1136674.4, -202597.83, 0.0, 9.999187, 9.998627 
8.350204e+2, 2.1468362e+2, -905605.3, -1021115.8, -30306.033, 0.0034928028, -0.13746065, -898136.94, -62040.223, 0.0, 10.000147, 9.998619 
8.350057e+2, 2.246824e+2, -725337.94, -894879.25, -37803.664, -0.028631471, -0.11494274, -717290.56, 20819.715, 0.0, 10.000748, 9.998535 
8.3499265e+2, 2.346818e+2, -599822.7, -783235.56, -49440.35, 0.07625471, -0.044132758, -587344.56, 52773.504, 0.0, 10.000932, 9.998541 
8.349781e+2, 2.446812e+2, -520656.16, -729882.0, -90512.41, 0.06504947, 0.06173572, -486934.84, 55192.12, 0.0, 10.000966, 9.998211 
8.3496183e+2, 2.5468042e+2, -433297.94, -640122.5, -78258.21, -0.07755356, 0.14959328, -407024.25, 37114.746, 0.0, 10.000904, 9.998188 
8.349474e+2, 2.6467925e+2, -321430.75, -392557.94, -39298.586, -0.07407724, 0.15439098, -303992.94, 42157.43, 0.0, 10.00039, 9.999458 
8.349349e+2, 2.746774e+2, -383779.5, -369045.88, 24467.656, 0.09952231, 0.004062863, -350860.1, -102696.98, 0.0, 9.999271, 9.999486 
8.349207e+2, 2.8467607e+2, -414445.13, -547671.5, 50067.547, 0.073077925, 0.021978896, -397727.2, -247550.69, 0.0000012583888, 9.999316, 9.997564 
8.3490485e+2, 2.946752e+2, -145826.72, -383646.47, -1358.5293, -0.17941748, 0.16789307, -145818.95, -93626.305, 0.000022671806, 10.000552, 9.997422 
8.348921e+2, 3.0467394e+2, -1575.4882, -107995.836, -50330.383, -0.113379404, 0.22955675, 18456.879, 18456.879, 0.0001036696, 10.000439, 9.999025 
8.348819e+2, 3.1467026e+2, -122806.34, 50678.277, -67739.4, 0.23709652, -0.07987623, 73994.38, 73994.38, 0.00026236358, 9.998628, 10.000989 
8.4514695e+2, 1.2470499e+2, -1702396.0, -1735410.9, 9561.01, -0.06457391, -0.06305369, -1699827.1, 18060.451, 0.0, 10.000152, 9.999782 
8.451365e+2, 1.3470513e+2, -1640876.9, -1710563.5, -39789.027, 0.10895927, 0.0077941436, -1622831.4, -2944.5479, 0.0, 10.000177, 9.999269 
8.451234e+2, 1.4470437e+2, -1550505.4, -1697744.5, -106472.95, 0.1414614, 0.049153943, -1494678.8, 27217.627, 0.0, 10.000473, 9.998529 
8.451097e+2, 1.5470287e+2, -1327927.0, -1539082.6, -97543.07, 0.21605308, 0.024013216, -1289764.4, 134150.84, 0.0, 10.001323, 9.998538 
8.450955e+2, 1.6470188e+2, -1213179.8, -1326115.6, 10038.157, 0.15380909, 0.027327292, -1212294.4, 113631.08, 0.0, 10.000975, 9.999498 
8.4508127e+2, 1.7470153e+2, -1384095.3, -1353613.0, 26809.45, -0.043275308, 0.025817038, -1338015.3, -110089.03, 0.0, 9.999119, 9.999528 
8.450672e+2, 1.8470092e+2, -1282709.3, -1226159.0, -112362.375, -0.02858015, 0.0054856874, -1138568.8, -8640.272, 0.0, 9.999016, 9.999778 
8.450532e+2, 1.9469988e+2, -921457.8, -999748.3, -131730.86, 0.21461488, -0.09307088, -823179.0, 208755.64, 0.0, 10.000815, 9.999794 
8.450378e+2, 2.0469876e+2, -807561.7, -1050334.6, -57874.94, 0.23174125, -0.11495722, -794470.7, 139474.5, 0.0, 10.001596, 9.998401 
8.45021e+2, 2.1469732e+2, -787868.56, -996549.6, -57346.035, 0.0012674172, -0.110067345, -773148.1, 62814.86, 0.0, 10.001085, 9.998343 
8.450063e+2, 2.2469604e+2, -734147.94, -901265.06, -26197.68, -0.04095041, -0.07507392, -730137.4, 7840.4883, 0.0, 10.000712, 9.998496 
8.4499377e+2, 2.346949e+2, -668460.9, -818913.25, -18220.588, 0.12276712, -0.05457718, -666285.75, -26295.447, 0.0, 10.00049, 9.9985 
8.4497905e+2, 2.4469426e+2, -594908.7, -736190.1, -22727.594, 0.10318639, 0.037172608, -591342.6, -49343.254, 0.0, 10.000325, 9.998476 
8.4496194e+2, 2.54694e+2, -519206.4, -646198.9, -13124.599, -0.12436611, 0.14529094, -517864.2, -73857.5, 0.0, 10.000166, 9.998492 
8.449471e+2, 2.6469314e+2, -354526.03, -381782.34, -14276.663, -0.12429596, 0.15492351, -348417.2, -2403.2686, 0.0, 10.000051, 9.999694 
8.4493494e+2, 2.7469146e+2, -257344.28, -277940.6, -58520.758, 0.14931604, 0.0006466548, -208222.48, 39799.855, 0.0000000050987805, 10.000015, 9.999751 
8.449209e+2, 2.8469e+2, -339423.8, -516109.25, 27687.076, 0.13979512, -0.010442875, -335186.78, -185150.75, 0.0000017149706, 9.999848, 9.997523 
8.449047e+2, 2.946884e+2, -311672.13, -462114.97, 86541.19, -0.18314894, 0.06538315, -272230.4, -220171.52, 0.0000255943, 9.999411, 9.997428 
8.4489197e+2, 3.0468696e+2, -147916.33, -217491.61, 65836.2, -0.12097124, 0.12093866, -108242.0, -108242.0, 0.000114907256, 9.999592, 9.998694 
8.448819e+2, 3.146857e+2, 138156.73, 170183.45, -29935.334, 0.28988922, 0.09478211, 188119.36, 188119.36, 0.00028673265, 10.00043, 10.000955 
8.551498e+2, 1.2471778e+2, -1694885.8, -1726999.5, -18547.514, 0.16755085, 0.09483457, -1686410.4, 31352.95, 0.0, 10.000185, 9.999825 
8.551378e+2, 1.3471419e+2, -1632705.3, -1694957.8, -37693.85, 0.20554507, -0.21598938, -1614947.3, 4848.5146, 0.0, 10.000198, 9.999359 
8.551238e+2, 1.4471287e+2, -1508088.3, -1623806.5, -81916.805, 0.121864714, -0.2613725, -1465657.6, 56152.02, 0.0, 10.000517, 9.999023 
8.551105e+2, 1.5471461e+2, -1287254.6, -1465360.4, -53139.06, 0.15271206, -0.009201649, -1272605.3, 151192.38, 0.0, 10.001359, 9.999029 
8.5509646e+2, 1.6471516e+2, -1183590.5, -1258523.6, -63337.418, 0.12946838, 0.10080629, -1147467.9, 178325.25, 0.0, 10.00095, 9.999973 
8.5508156e+2, 1.747141e+2, -1344639.4, -1274876.0, -36475.44, 0.053480577, -0.024029655, -1259288.0, -31488.215, 0.0, 9.999132, 10.00006 
8.5506713e+2, 1.8471326e+2, -1300533.0, -1258069.9, -53801.16, 0.0541444, -0.08824188, -1221462.5, -91656.95, 0.0, 9.99899, 9.999574 
8.5505337e+2, 1.947125e+2, -937142.9, -1033094.7, -56761.375, 0.13309614, -0.13405553, -910798.25, 121013.5, 0.0, 10.000812, 9.999568 
8.550387e+2, 2.0471221e+2, -809875.6, -1041792.56, -82367.46, 0.14762421, -0.06429809, -783599.2, 150217.31, 0.0, 10.001535, 9.998491 
8.550231e+2, 2.1471219e+2, -789043.06, -979814.56, -69096.234, 0.08585666, 0.07001899, -766646.25, 69175.81, 0.0, 10.001, 9.9985 
8.550083e+2, 2.2471122e+2, -722864.94, -852384.4, -41159.1, 0.0785801, 0.10747681, -710892.0, 26941.002, 0.0, 10.000602, 9.998887 
8.5499454e+2, 2.3470917e+2, -649789.1, -764318.3, -17761.742, 0.13379648, -0.0026809908, -647097.8, -7247.3413, 0.0, 10.00042, 9.998909 
8.5497946e+2, 2.4470778e+2, -573862.0, -676801.5, -35861.73, 0.09226699, -0.030405546, -562600.6, -20737.055, 0.0, 10.0002575, 9.998917 
8.549629e+2, 2.547068e+2, -499152.75, -588106.06, -13022.585, -0.05350488, -0.03737189, -497285.47, -53410.625, 0.0, 10.000092, 9.998931 
8.549476e+2, 2.6470593e+2, -430404.75, -526527.06, -23091.416, -0.08335805, -0.0027219048, -425145.28, -79262.31, 0.0, 9.999994, 9.99873 
8.549337e+2, 2.7470526e+2, -339650.78, -432786.22, -51025.184, 0.00801058, 0.042068027, -317137.97, -69250.52, 0.0000001292932, 9.999948, 9.998722 
8.549197e+2, 2.8470376e+2, -231455.97, -280564.6, 7433.882, 0.016830428, 0.002739527, -230355.33, -80456.24, 0.0000031613251, 9.999798, 9.999165 
8.549056e+2, 2.9470083e+2, -198707.55, -216488.42, 78304.8, -0.059981905, -0.22547679, -128790.12, -76865.836, 0.000030116835, 9.999356, 9.999144 
8.5489243e+2, 3.0469933e+2, -230048.2, -368021.25, 94294.81, -0.04404314, -0.21412262, -182198.73, -182198.73, 0.0001273879, 9.999523, 9.997686 
8.54879e+2, 3.1470212e+2, 34322.574, -9326.975, 26492.896, -0.07081435, 0.2812513, 46822.637, 46822.637, 0.00031292182, 10.000298, 9.999779 
8.651508e+2, 1.2472901e+2, -1657552.0, -1702419.9, 6915.601, 0.24622302, 0.09134582, -1656510.3, 61145.285, 0.00000000000000000000885557, 10.000422, 9.999871 
8.6513907e+2, 1.34726e+2, -1491652.3, -1616724.9, -25700.389, 0.26729956, -0.17498223, -1486577.3, 133106.03, 0.0, 10.001103, 9.999465 
8.6512476e+2, 1.4472508e+2, -1374113.9, -1471591.9, -52016.92, 0.13737476, -0.2227657, -1351570.0, 170122.06, 0.0, 10.001073, 9.999794 
8.6511075e+2, 1.5472735e+2, -1372893.3, -1421487.8, -19516.014, 0.09082694, 0.005887108, -1366026.0, 57645.684, 0.0, 10.000412, 9.999786 
8.650965e+2, 1.6472802e+2, -1276535.0, -1296789.9, -45644.99, 0.08044535, 0.08606004, -1239907.4, 85757.28, 0.0, 10.000279, 10.00003 
8.65082e+2, 1.747267e+2, -1112142.1, -1162564.8, -70523.02, 0.11548334, -0.06804209, -1062459.4, 165215.14, 0.0, 10.000717, 10.000069 
8.650677e+2, 1.8472597e+2, -1033699.7, -1137632.8, -35660.67, 0.12627469, -0.11874788, -1022640.8, 107039.625, 0.0, 10.000862, 9.999494 
8.650538e+2, 1.9472577e+2, -973481.7, -1061326.4, -37845.79, 0.105715685, -0.0997202, -959425.8, 72257.234, 0.0, 10.000618, 9.999464 
8.650392e+2, 2.0472586e+2, -948481.0, -1070978.4, -79713.0, 0.10964793, -0.0006852321, -909203.25, 24481.453, 0.0, 10.000432, 9.998814 
8.650241e+2, 2.1472608e+2, -877854.2, -986731.6, -70018.49, 0.13700646, 0.124315634, -843601.5, -7914.1563, 0.0, 10.000245, 9.99881 
8.650091e+2, 2.2472516e+2, -763397.56, -864012.9, -17941.773, 0.13023767, 0.14634165, -760293.94, -22596.574, 0.0, 10.000285, 9.998962 
8.6499447e+2, 2.3472287e+2, -627565.6, -745632.94, -31779.875, 0.088277526, 0.0044167535, -619555.0, 20161.475, 0.0, 10.000536, 9.99898 
8.649793e+2, 2.4472126e+2, -551643.9, -665190.75, -79930.74, 0.053879213, -0.046762284, -510375.75, 31354.693, 0.0, 10.000413, 9.998918 
8.649637e+2, 2.5472018e+2, -524877.6, -600926.9, -106709.766, 0.026376026, -0.063038215, -449620.1, -5878.729, 0.0, 9.999922, 9.998924 
8.649484e+2, 2.6471916e+2, -449400.3, -566466.1, -70108.06, -0.001366822, -0.03369245, -416602.8, -70851.48, 0.0000000005766255, 9.999992, 9.998453 
8.649336e+2, 2.747181e+2, -251330.6, -421933.25, -57524.668, -0.026663033, 0.004790416, -233746.53, 14014.086, 0.000000514823, 10.000681, 9.998442 
8.649194e+2, 2.847167e+2, -88460.63, -195491.64, -43478.883, -0.027444115, -0.019621134, -73024.55, 76746.93, 0.0000054394536, 10.000709, 9.999314 
8.64906e+2, 2.9471433e+2, -84216.14, -135993.17, -103420.414, 0.017287234, -0.20945673, -3493.2305, 48296.086, 0.000035908153, 10.000036, 9.999371 
8.648929e+2, 3.0471224e+2, -170853.47, -329245.3, -50659.777, 0.034893308, -0.27685168, -156036.58, -156036.58, 0.00014004746, 9.99987, 9.997784 
8.6487854e+2, 3.1471482e+2, -26987.738, -71674.02, -46627.676, -0.12945214, 0.18409438, 2373.626, 2373.626, 0.0003371157, 10.000008, 9.999479 
8.7514955e+2, 1.2473892e+2, -1644290.3, -1692015.1, 8677.301, 0.0384633, -0.052711964, -1642761.5, 74800.32, 0.0000000055054987, 10.000485, 9.999912 
8.751399e+2, 1.3474053e+2, -1474437.9, -1579339.6, 5585.69, 0.23179674, 0.11629436, -1474141.3, 145408.05, 0.0, 10.001099, 9.999718 
8.751258e+2, 1.4474098e+2, -1310621.3, -1342618.3, -82889.35, 0.12377609, 0.15091379, -1242200.6, 279343.34, 0.0, 10.0010805, 10.000678 
8.751101e+2, 1.5474108e+2, -1303010.5, -1277436.0, -37048.29, -0.03274451, 0.065746196, -1251030.3, 172507.23, 0.0, 10.000423, 10.000766 
8.750956e+2, 1.6474053e+2, -1298904.8, -1349223.3, -38161.363, -0.05412752, -0.009072678, -1278355.4, 47184.063, 0.0, 10.000297, 9.999667 
8.7508255e+2, 1.7473932e+2, -1136984.1, -1222376.9, -47571.855, 0.08386248, -0.109536745, -1115758.3, 111792.08, 0.0, 10.000745, 9.999648 
8.750688e+2, 1.8473913e+2, -1038047.44, -1138431.5, -50705.61, 0.12826493, -0.083742924, -1016893.1, 112659.26, 0.0, 10.00083, 9.999503 
8.750541e+2, 1.9473968e+2, -974528.8, -1054642.1, -39644.55, 0.067155585, 0.004046149, -958227.44, 73320.84, 0.0, 10.000579, 9.999528 
8.750392e+2, 2.0473967e+2, -928656.44, -1008281.75, -93305.37, 0.05616286, 0.06451977, -867024.8, 66525.234, 0.0, 10.0003395, 9.999289 
8.750241e+2, 2.1473898e+2, -854346.56, -921919.2, -71119.3, 0.09704754, 0.051604863, -809396.1, 26162.773, 0.0, 10.000176, 9.999289 
8.750088e+2, 2.2473787e+2, -789620.44, -902952.7, -16087.204, 0.057854574, 0.04228556, -787381.2, -49810.613, 0.0, 10.000215, 9.998731 
8.749935e+2, 2.3473606e+2, -656804.25, -786777.06, -15256.477, -0.070722245, -0.027020333, -655037.44, -15450.013, 0.0, 10.000448, 9.99874 
8.749786e+2, 2.4473485e+2, -596853.06, -741739.06, -104589.625, -0.07726855, -0.0053492724, -542068.0, -468.95148, 0.0, 10.000336, 9.99843 
8.749639e+2, 2.5473416e+2, -572224.7, -679448.1, -117558.32, 0.044528253, 0.06553573, -496630.47, -53023.996, 0.0, 9.999837, 9.998425 
8.7494916e+2, 2.6473263e+2, -425915.4, -510639.84, -50204.6, 0.06484196, 0.053459115, -402588.5, -56968.414, 0.0000000691861, 9.999956, 9.998857 
8.7493443e+2, 2.747301e+2, -229979.08, -362843.75, -23612.563, -0.02754435, -0.106133625, -225907.47, 21734.664, 0.000001269736, 10.000616, 9.998881 
8.7492e+2, 2.847289e+2, -185968.52, -391958.5, -75256.87, -0.059337296, -0.061925687, -161403.45, -11750.939, 0.000008255043, 10.00068, 9.997981 
8.749058e+2, 2.9472888e+2, -187452.86, -339182.56, -121377.76, -0.019261558, 0.12273417, -120181.29, -68526.734, 0.000042714033, 9.999985, 9.998004 
8.7489307e+2, 3.0472553e+2, -89600.16, -145814.05, -46902.28, 0.054573394, -0.067014515, -63027.816, -63027.816, 0.00015286829, 9.999812, 9.999067 
8.7488e+2, 3.1472316e+2, 1088.947, 2832.9243, -18104.012, -0.024926437, -0.22717887, 20085.936, 20085.936, 0.0003572186, 9.999942, 10.000023 
8.8515097e+2, 1.2475151e+2, -1495866.1, -1660728.9, 138239.6, 0.079252556, -0.1031964, -1417346.9, 300090.47, 0.00000006865043, 10.001676, 9.999558 
8.851404e+2, 1.3475418e+2, -1511404.3, -1630016.3, 82562.65, 0.18550034, 0.20039168, -1469055.0, 150362.38, 0.0, 10.0009775, 9.999437 
8.8512623e+2, 1.4475463e+2, -1391440.5, -1377508.0, -45482.492, 0.08607503, 0.24856478, -1338461.4, 182951.45, 0.0, 10.000517, 10.000706 
8.85111e+2, 1.5475358e+2, -1278556.8, -1266002.1, -84775.45, 0.0105411075, 0.04765852, -1187271.9, 236144.3, 0.0, 10.000586, 10.000768 
8.8509667e+2, 1.6475277e+2, -1234380.4, -1311050.4, -69778.58, 0.012587755, -0.059106465, -1193100.0, 132320.63, 0.0, 10.000726, 9.99972 
8.850837e+2, 1.7475231e+2, -1103812.0, -1200045.9, -60197.793, 0.11006721, -0.087089255, -1074864.0, 152560.52, 0.0, 10.000959, 9.999698 
8.8506967e+2, 1.8475243e+2, -1017532.06, -1118343.3, -53441.426, 0.1298159, -0.03375131, -994475.4, 134948.05, 0.0, 10.000923, 9.999598 
8.850546e+2, 1.9475293e+2, -973991.2, -1042630.44, -56619.4, 0.05803687, 0.03849634, -942102.1, 89317.67, 0.0, 10.000537, 9.999628 
8.8503945e+2, 2.047526e+2, -940311.56, -1012185.56, -107750.555, 0.049734328, 0.05886344, -862663.1, 70760.945, 0.0, 10.000244, 9.999313 
8.8502437e+2, 2.1475126e+2, -880166.2, -932101.1, -129951.445, 0.11681078, -0.019844849, -773613.1, 61824.605, 0.0, 9.999983, 9.999318 
8.850091e+2, 2.247503e+2, -816909.25, -905498.44, -50765.336, 0.07736356, -0.019035548, -793830.75, -56383.17, 0.0, 9.999988, 9.998817 
8.8499373e+2, 2.3474953e+2, -673089.0, -786147.7, -43277.7, -0.08276547, 0.008373602, -658424.75, -18969.23, 0.0, 10.000302, 9.998814 
8.8497883e+2, 2.4474844e+2, -542772.8, -728580.06, -100563.97, -0.09767824, 0.045113713, -498767.0, 42699.184, 0.0, 10.000762, 9.998315 
8.8496447e+2, 2.547468e+2, -351704.56, -586655.0, -99648.836, 0.04770229, 0.034207832, -315133.3, 128348.414, 0.00000000006372724, 10.0014, 9.998311 
8.8495004e+2, 2.6474497e+2, -238090.89, -429749.9, -28660.893, 0.09197091, 0.0023491802, -233896.7, 111601.664, 0.00000025387644, 10.001293, 9.998764 
8.849355e+2, 2.7474284e+2, -262626.25, -386489.63, -56794.98, 0.028043991, -0.10804017, -240526.98, 6990.6753, 0.0000021793016, 10.000434, 9.9988 
8.8492084e+2, 2.847419e+2, -285507.53, -468688.9, -78992.875, -0.0074837646, -0.022226978, -256148.95, -106621.914, 0.000011106664, 10.000133, 9.99771 
8.849062e+2, 2.947421e+2, -138755.97, -342608.66, -56106.742, 0.0008052259, 0.20964043, -124333.93, -72805.02, 0.000049522223, 10.000442, 9.997754 
8.8489306e+2, 3.0473876e+2, -6946.103, -60885.465, 33718.785, 0.059005924, 0.016830463, 9261.99, 9261.99, 0.00016466355, 10.000178, 9.999488 
8.8487965e+2, 3.1473562e+2, -139708.67, -79157.4, -24839.475, -0.004345436, -0.25822243, -70271.66, -70271.66, 0.00037254568, 9.999036, 9.999911 
8.9515436e+2, 1.24766536e+2, -1552575.0, -1772395.5, 82942.79, 0.2185002, -0.076798074, -1524790.8, 192494.22, 0.00000033567557, 10.001663, 9.998794 
8.9514047e+2, 1.3476719e+2, -1561791.6, -1733160.3, 58251.48, 0.075171106, 0.10295386, -1543865.9, 75419.43, 0.00000000007521531, 10.000991, 9.998716 
8.951257e+2, 1.4476644e+2, -1444530.1, -1499451.5, -53211.137, -0.038667344, 0.105098, -1412111.6, 109183.49, 0.0, 10.000555, 9.999857 
8.951131e+2, 1.5476508e+2, -1336289.0, -1391944.6, -72844.22, 0.14830703, -0.038057085, -1286138.3, 137167.69, 0.0, 10.0006075, 9.999896 
8.9509946e+2, 1.6476484e+2, -1205149.5, -1254405.6, -67300.06, 0.20335554, -0.05938768, -1158112.8, 167193.63, 0.0, 10.000737, 10.000103 
8.9508504e+2, 1.7476562e+2, -1073383.9, -1135597.4, -42659.74, 0.13548972, -0.010146096, -1051694.0, 175603.25, 0.0, 10.000953, 10.000143 
8.9507014e+2, 1.8476592e+2, -1014058.75, -1102346.3, -73782.83, 0.07303116, 0.028178025, -972222.4, 157071.22, 0.0, 10.000881, 9.999729 
8.9505476e+2, 1.9476552e+2, -971862.44, -1031040.2, -64702.19, 0.010483067, 0.00033186778, -930304.5, 100993.15, 0.0, 10.000499, 9.999728 
8.9503956e+2, 2.047646e+2, -978505.4, -1075271.3, -124760.016, 0.026585996, -0.0199197, -893075.1, 40231.605, 0.0, 10.000175, 9.998912 
8.950246e+2, 2.1476296e+2, -920993.7, -995165.6, -132110.14, 0.13181189, -0.092114195, -820862.8, 14460.279, 0.0, 9.999893, 9.998925 
8.950097e+2, 2.2476253e+2, -807441.5, -866525.56, -45884.703, 0.1259999, -0.03357856, -782411.25, -45083.598, 0.0, 9.999897, 9.999132 
8.9499485e+2, 2.3476331e+2, -659411.4, -741495.4, -23989.64, -0.014552419, 0.11271857, -652914.44, -13593.899, 0.0, 10.000229, 9.999157 
8.9498e+2, 2.44762e+2, -531846.44, -695555.9, -83965.016, -0.06904652, 0.099354416, -496439.44, 44892.73, 0.0, 10.000715, 9.998566 
8.9496523e+2, 2.547582e+2, -346756.84, -556938.94, -67952.11, -0.030859392, -0.15200746, -326701.5, 116664.99, 0.0000000002378373, 10.001318, 9.998555 
8.9495075e+2, 2.6475638e+2, -286945.88, -519209.06, -66320.914, 0.015988821, -0.17090578, -269342.6, 76041.92, 0.00000030747992, 10.001243, 9.998174 
8.9493644e+2, 2.7475646e+2, -318628.22, -484573.25, -80947.984, 0.06896672, 0.0075723156, -285682.6, -38296.055, 0.0000026197797, 10.00036, 9.998163 
8.9492184e+2, 2.847557e+2, -236239.78, -360045.28, -73979.04, 0.061235126, 0.10193784, -201680.89, -52285.56, 0.000013171274, 10.000098, 9.998474 
8.949068e+2, 2.947538e+2, -82390.91, -223405.08, -35052.93, -0.00502237, 0.043772765, -74158.19, -22744.736, 0.000055655084, 10.0004225, 9.998584 
8.948925e+2, 3.0475193e+2, -47676.105, -129080.92, -12690.029, -0.023549192, -0.025488611, -45743.75, -45743.75, 0.00017577781, 10.000122, 9.999039 
8.948769e+2, 3.1475174e+2, -214275.16, -202750.66, -45506.61, -0.20901804, 0.04206232, -162642.92, -162642.92, 0.0003866523, 9.998915, 9.999113 
9.051566e+2, 1.24781065e+2, -1438877.8, -1724538.6, 3687.569, 0.24465694, -0.008847844, -1438830.3, 278312.66, 0.0000010657902, 10.002471, 9.998737 
9.051419e+2, 1.3478008e+2, -1484101.4, -1697731.8, 9130.409, 0.10397438, 0.0059131384, -1483711.9, 135444.55, 0.000000007369457, 10.001526, 9.998705 
9.05127e+2, 1.4477901e+2, -1416202.4, -1548321.8, -14556.283, 0.022323387, 0.0058531617, -1414617.6, 106552.31, 0.0, 10.001026, 9.999287 
9.0511477e+2, 1.5477867e+2, -1295127.1, -1437410.6, -31400.635, 0.22792637, 0.021292252, -1288505.5, 134669.73, 0.0, 10.001176, 9.999306 
9.051009e+2, 1.6477865e+2, -1193984.3, -1235652.5, -27082.479, 0.27123725, 0.049301483, -1180649.4, 144525.75, 0.0, 10.000759, 10.000221 
9.050855e+2, 1.7477876e+2, -1245469.6, -1201178.5, -41421.766, 0.15373808, 0.018007899, -1176354.0, 50817.11, 0.0, 9.9997015, 10.00029 
9.050702e+2, 1.8477891e+2, -1174088.6, -1140752.9, -35461.242, 0.060613915, 0.017137965, -1118237.6, 10929.789, 0.0, 9.999612, 10.000076 
9.0505505e+2, 1.9477901e+2, -931130.2, -973566.25, -17303.715, -0.012190847, 0.0029599073, -924969.0, 106196.086, 0.0, 10.000603, 10.000078 
9.0504014e+2, 2.0477827e+2, -820227.1, -1014040.25, -53962.07, 0.016453652, -0.011195147, -806215.75, 126955.92, 0.0, 10.0013275, 9.998775 
9.0502566e+2, 2.1477641e+2, -663029.9, -890098.4, -62218.754, 0.15859276, -0.08798584, -647099.06, 188091.13, 0.0, 10.001743, 9.998755 
9.050108e+2, 2.2477566e+2, -603772.7, -763546.9, 14678.05, 0.18034774, -0.055634033, -602435.44, 134762.05, 0.0, 10.001277, 9.999174 
9.049957e+2, 2.3477595e+2, -704439.06, -759547.56, 204.65057, 0.063343585, 0.03920171, -704438.3, -65244.01, 0.0, 9.999903, 9.999191 
9.0498084e+2, 2.4477476e+2, -693118.6, -758088.94, -18041.17, 0.0014828236, 0.030048028, -688445.1, -147240.31, 0.0, 9.999549, 9.9986925 
9.049663e+2, 2.5477183e+2, -480596.44, -606415.6, -26578.059, -0.0022201366, -0.1507519, -475212.47, -31980.6, 0.0, 10.000337, 9.998683 
9.049516e+2, 2.6477027e+2, -383119.75, -585227.56, -43597.242, 0.013891587, -0.13761294, -374116.34, -28868.385, 0.0000002007212, 10.000672, 9.997996 
9.049368e+2, 2.7477002e+2, -306408.13, -500136.94, -42905.71, 0.058692347, 0.027938116, -297330.97, -50076.848, 0.0000025589381, 10.000531, 9.997977 
9.049219e+2, 2.8476885e+2, -171696.47, -288764.2, 3440.6821, 0.049671806, 0.07542726, -171595.44, -22328.906, 0.000014749117, 10.000367, 9.998837 
9.04907e+2, 2.9476666e+2, -97979.14, -186678.63, -6441.7485, -0.005603758, -0.04870889, -97513.75, -46227.82, 0.00006245814, 10.000135, 9.998974 
9.0489286e+2, 3.0476588e+2, -38062.88, -160148.19, 2397.8196, -0.0014381482, -0.015793048, -38015.8, -38015.8, 0.00018870574, 10.00034, 9.998722 
9.048771e+2, 3.1476638e+2, 28279.129, -127570.15, -41657.31, -0.16065036, 0.15885343, 38715.004, 38715.004, 0.00040376265, 10.00075, 9.998751 
9.151571e+2, 1.24795504e+2, -1384678.3, -1630256.0, -51963.676, 0.010321121, 0.124558285, -1374135.5, 342871.03, 0.000002613721, 10.002547, 9.999349 
9.1514456e+2, 1.3479286e+2, -1431888.0, -1593996.4, -21825.29, 0.20219788, -0.096133344, -1429001.0, 190028.69, 0.00000007607973, 10.001541, 9.99941 
9.1512996e+2, 1.4479226e+2, -1440081.8, -1599006.8, -17905.81, 0.18760154, -0.06854804, -1438089.4, 82948.42, 0.0, 10.001029, 9.998939 
9.1511565e+2, 1.5479429e+2, -1316484.5, -1486496.8, -16194.345, 0.18613839, 0.22035538, -1314955.6, 108069.06, 0.0, 10.001197, 9.998958 
9.1510063e+2, 1.6479427e+2, -1202458.3, -1257425.3, -74333.54, 0.15484053, 0.27065784, -1150690.1, 174336.27, 0.0, 10.000774, 10.000065 
9.1508484e+2, 1.7479186e+2, -1256535.0, -1226426.3, -74486.04, 0.10116308, 0.003988045, -1165488.5, 61556.75, 0.0, 9.999706, 10.000116 
9.1506964e+2, 1.8479158e+2, -1134413.1, -1053056.5, -5878.868, 0.027074136, -0.060902726, -1052633.9, 76409.92, 0.0, 9.999589, 10.000691 
9.1505516e+2, 1.9479346e+2, -896018.8, -886821.56, 29091.201, -0.07317534, 0.042234875, -861967.75, 169054.03, 0.0, 10.000545, 10.000703 
9.15041e+2, 2.0479365e+2, -829574.7, -1013703.06, -43989.785, -0.044477038, 0.08551269, -819605.0, 113413.57, 0.0, 10.001241, 9.998818 
9.1502714e+2, 2.1479174e+2, -675107.7, -892544.44, -39486.25, 0.12955405, 0.0026038636, -668159.1, 166878.7, 0.0, 10.001647, 9.998784 
9.150121e+2, 2.2478974e+2, -631941.25, -806872.94, -43353.78, 0.17378189, -0.08017825, -621786.3, 115270.555, 0.0, 10.001206, 9.998913 
9.1499585e+2, 2.3478748e+2, -735231.5, -803603.0, -44147.168, 0.083952114, -0.2140516, -713581.44, -74504.71, 0.0, 9.999819, 9.998928 
9.1498095e+2, 2.4478683e+2, -702110.7, -763296.1, 4605.7188, 0.043567583, -0.15671408, -701765.94, -160682.95, 0.0, 9.999487, 9.998689 
9.149674e+2, 2.547877e+2, -490808.84, -613000.8, 11933.726, 0.061059058, 0.047815297, -489654.25, -46577.457, 0.0, 10.000271, 9.998673 
9.1495246e+2, 2.6478672e+2, -372791.2, -555308.75, -53713.6, 0.019867012, 0.1060679, -358157.0, -13068.695, 0.00000011562638, 10.000635, 9.9982195 
9.14936e+2, 2.7478343e+2, -295449.13, -468047.72, -39367.902, -0.08126882, -0.05600062, -286893.78, -39772.63, 0.0000025826089, 10.000489, 9.998219 
9.1492075e+2, 2.8478143e+2, -181234.83, -300058.4, -11830.89, -0.115975596, -0.10567413, -180068.31, -30927.533, 0.000017159802, 10.000327, 9.998781 
9.149067e+2, 2.947807e+2, -112504.2, -206943.86, -4541.728, -0.07167617, -0.07356574, -112286.29, -61140.113, 0.00007135739, 10.000086, 9.998861 
9.1489404e+2, 3.0478054e+2, -66334.695, -200217.7, 17132.557, 0.06565455, 0.044611324, -64177.074, -64177.074, 0.00020552066, 10.000266, 9.998479 
9.148799e+2, 3.1477892e+2, 23857.27, -116404.03, 5896.794, 0.009437364, 0.02437224, 24104.742, 24104.742, 0.00042645857, 10.0006695, 9.99886 
9.251589e+2, 1.24809116e+2, -1392400.3, -1658091.4, 7518.667, -0.05732403, 0.077393465, -1392187.6, 324684.6, 0.0000053718704, 10.002584, 9.999139 
9.2514706e+2, 1.3480736e+2, -1357979.0, -1574348.3, -46421.164, 0.27055854, -0.044309005, -1348440.1, 270448.47, 0.00000033393198, 10.0021105, 9.999273 
9.25132e+2, 1.4480673e+2, -1357916.5, -1564925.0, -20294.871, 0.26492745, -0.007335599, -1355945.6, 164951.36, 0.0, 10.001617, 9.998894 
9.251159e+2, 1.5480763e+2, -1310573.0, -1488406.6, -14069.395, 0.08889103, 0.17207669, -1309466.8, 113427.164, 0.0, 10.001259, 9.998917 
9.2510027e+2, 1.6480742e+2, -1138542.8, -1228134.4, -48950.957, 0.024384586, 0.20716834, -1116984.5, 207912.58, 0.0, 10.00122, 10.00005 
9.250852e+2, 1.7480591e+2, -985300.94, -1098884.1, -52299.723, 0.08269117, 0.03372492, -964888.0, 262019.78, 0.0, 10.001582, 10.00009 
9.250706e+2, 1.8480569e+2, -907408.3, -953895.9, 17507.93, 0.08646222, -0.019491537, -901552.25, 227353.53, 0.0, 10.001197, 10.000595 
9.250564e+2, 1.9480667e+2, -988302.3, -938369.8, -20465.049, 0.027298445, 0.0021619836, -931054.0, 99837.71, 0.0, 9.999955, 10.000625 
9.250423e+2, 2.0480679e+2, -1048454.6, -1091783.5, -73583.94, 0.048884343, 0.03166886, -993412.2, -60523.574, 0.0, 9.999615, 9.999071 
9.2502844e+2, 2.1480578e+2, -857108.3, -949905.75, -60802.625, 0.16495663, 0.009786992, -827023.0, 7876.355, 0.0, 10.00026, 9.999063 
9.250132e+2, 2.2480398e+2, -702625.0, -881389.75, -77425.78, 0.1796414, -0.048121374, -673753.56, 63163.723, 0.0, 10.000901, 9.998545 
9.249965e+2, 2.3480119e+2, -510776.34, -739146.8, -103979.36, 0.08499624, -0.1963792, -470527.2, 168416.9, 0.0, 10.001546, 9.99854 
9.249815e+2, 2.4480048e+2, -411094.34, -627274.0, -32744.373, 0.049667947, -0.12601416, -406243.44, 134709.05, 0.0, 10.001502, 9.998657 
9.2496806e+2, 2.5480178e+2, -414616.03, -575590.2, -40527.08, 0.08102204, 0.1234056, -404988.7, 37954.027, 0.0, 10.000794, 9.998678 
9.24953e+2, 2.6480082e+2, -433228.34, -563649.7, -109612.3, 0.037400547, 0.17370613, -370895.75, -25942.055, 0.00000007319143, 10.000122, 9.998414 
9.24936e+2, 2.7479708e+2, -431708.16, -509539.94, -109294.125, -0.07978403, -0.05604062, -354608.3, -107618.77, 0.0000027897247, 9.999446, 9.998436 
9.249205e+2, 2.8479505e+2, -304308.06, -345105.06, -37013.66, -0.12794584, -0.12324996, -282444.16, -133435.6, 0.000020180585, 9.999426, 9.998901 
9.249065e+2, 2.9479486e+2, -100487.92, -191154.95, -31599.049, -0.09124109, -0.046729255, -90561.8, -39552.79, 0.00008284934, 10.000126, 9.998949 
9.2489386e+2, 3.04795e+2, -111191.02, -177308.5, 6151.573, 0.052951742, 0.073137395, -110623.555, -110623.555, 0.00022869528, 9.9997425, 9.998892 
9.248794e+2, 3.14793e+2, -302010.06, -182155.2, 24671.977, 0.022274598, -0.0316725, -177275.2, -177275.2, 0.0004606453, 9.998028, 9.999681 
9.3516135e+2, 1.2482166e+2, -1466489.3, -1797100.1, -32310.783, -0.10692094, -0.17664365, -1463361.1, 253381.52, 0.000009857008, 10.002534, 9.998205 
9.351491e+2, 1.3482355e+2, -1414617.1, -1699986.6, -59979.87, 0.24516968, 0.15525545, -1402522.9, 216209.77, 0.0000009955157, 10.002154, 9.998386 
9.35133e+2, 1.4482258e+2, -1337879.9, -1536288.0, -41257.77, 0.18742618, 0.194201, -1329642.6, 191103.2, 0.00000000002439963, 10.001666, 9.999071 
9.3511516e+2, 1.5481883e+2, -1300493.0, -1461762.0, -18824.13, -0.12749228, -0.11055915, -1298324.9, 124456.43, 0.0, 10.00123, 9.999115 
9.350996e+2, 1.6481823e+2, -1132423.3, -1206974.1, -44127.67, -0.18451734, -0.13277134, -1111934.4, 212851.81, 0.0, 10.001184, 10.000212 
9.350865e+2, 1.7482094e+2, -974559.56, -1075705.5, -30827.19, 0.037339658, 0.100647226, -965904.7, 260854.19, 0.0, 10.001579, 10.000251 
9.350728e+2, 1.8482125e+2, -971745.75, -1080228.6, -33215.883, 0.17187782, 0.13413502, -962383.5, 166370.08, 0.0, 10.001165, 9.999745 
9.3505836e+2, 1.9481868e+2, -1056348.0, -1069494.0, -59906.902, 0.20995413, -0.111077495, -1002654.56, 28119.988, 0.0, 9.999911, 9.999747 
9.350438e+2, 2.048178e+2, -1014972.1, -1014285.75, -59349.176, 0.22307423, -0.16555806, -955278.8, -22497.293, 0.0, 9.9995775, 9.999622 
9.350292e+2, 2.1481855e+2, -829376.3, -875350.5, -29628.861, 0.20750582, -0.06552283, -814863.06, 19911.613, 0.0, 10.000181, 9.999617 
9.350138e+2, 2.2481845e+2, -750930.9, -959163.4, -58664.254, 0.13681412, 0.041687377, -735541.1, 1237.3658, 0.0, 10.000806, 9.9980545 
9.3499744e+2, 2.3481716e+2, -561596.8, -823863.56, -71422.21, 0.01129301, 0.09554143, -543408.1, 95388.0, 0.0, 10.001455, 9.998003 
9.349821e+2, 2.4481569e+2, -423353.56, -639166.75, -65634.3, -0.044879254, 0.122155756, -404960.16, 135853.05, 0.0, 10.001444, 9.998602 
9.349681e+2, 2.548139e+2, -426878.38, -590143.25, -60726.582, -0.007191381, 0.065403186, -406768.13, 36062.85, 0.0, 10.000742, 9.998608 
9.349529e+2, 2.6481247e+2, -422229.0, -529445.4, -139905.73, 0.009020923, 0.05967579, -326012.47, 18832.48, 0.00000003612581, 10.000073, 9.998672 
9.349364e+2, 2.7481106e+2, -427578.53, -481697.3, -125340.7, 0.0042027324, 0.039827194, -326409.6, -79551.78, 0.0000027030533, 9.999365, 9.998666 
9.3492085e+2, 2.8480992e+2, -294945.66, -310601.13, -15876.21, -0.049235877, 0.036341432, -285072.34, -136203.98, 0.000022488803, 9.999363, 9.9991665 
9.349063e+2, 2.948091e+2, -88679.95, -160430.58, 5978.7725, -0.14242387, 0.020431085, -88185.17, -37309.973, 0.000095232324, 10.000099, 9.999173 
9.3489206e+2, 3.0480906e+2, -40964.473, -25835.254, -60443.758, -0.119241774, 0.06150075, 27515.416, 27515.416, 0.0002574787, 9.999716, 9.9999485 
9.348747e+2, 3.1480807e+2, -208211.14, 42497.746, -8269.589, -0.2807849, -0.052761387, 42770.223, 42770.223, 0.0005076133, 9.9979, 10.0012865 
9.451649e+2, 1.2483637e+2, -1563898.6, -1878326.5, -23204.818, 0.03255901, -0.21102737, -1562195.3, 154400.8, 0.000016753027, 10.002002, 9.997913 
9.4514996e+2, 1.3483825e+2, -1471275.9, -1763540.1, -35876.445, 0.14228961, 0.15398596, -1466936.4, 151653.13, 0.000002343361, 10.00192, 9.998069 
9.4513345e+2, 1.4483753e+2, -1358696.9, -1489359.9, 12866.964, 0.08578967, 0.20751514, -1357441.9, 163158.27, 0.0000000053592455, 10.001285, 9.999568 
9.451169e+2, 1.5483402e+2, -1404225.1, -1459173.3, 40449.227, -0.023353154, -0.124683075, -1382801.8, 39827.344, 0.0, 10.000287, 9.999588 
9.451015e+2, 1.648333e+2, -1344237.5, -1349789.3, 63679.56, -0.042819202, -0.16160162, -1283273.3, 41360.48, 0.0, 9.999904, 9.999849 
9.450874e+2, 1.748356e+2, -1207487.6, -1228491.9, 22361.346, 0.04321132, 0.06722729, -1193285.0, 33327.777, 0.0, 10.000156, 9.999885 
9.450734e+2, 1.8483555e+2, -1079003.4, -1196486.8, 5079.6196, 0.14666669, 0.11266635, -1078784.1, 49828.668, 0.0, 10.000711, 9.99916 
9.450596e+2, 1.9483274e+2, -846985.44, -1036515.7, -11246.754, 0.26369125, -0.099019, -846320.44, 184317.61, 0.0, 10.001637, 9.999142 
9.4504493e+2, 2.048316e+2, -707785.44, -882614.5, -7438.145, 0.27063188, -0.14057474, -707469.56, 225179.3, 0.0, 10.001768, 9.999464 
9.450294e+2, 2.1483217e+2, -715644.2, -832236.5, -48580.516, 0.1665856, -0.047189996, -698055.5, 136589.31, 0.0, 10.001027, 9.999494 
9.45014e+2, 2.2483234e+2, -750466.5, -926711.6, -45014.28, 0.088529006, 0.08024684, -739635.2, -2989.0747, 0.0, 10.000668, 9.998347 
9.4499886e+2, 2.3483191e+2, -642520.44, -823950.5, -8992.285, 0.043621078, 0.18740545, -642075.8, -3420.846, 0.0, 10.000736, 9.998344 
9.4498354e+2, 2.4483041e+2, -563479.5, -702198.75, 9696.908, 0.0048603215, 0.19324422, -562804.94, -22132.984, 0.0, 10.000454, 9.998649 
9.449683e+2, 2.548277e+2, -563280.6, -645447.25, 10950.652, -0.012025754, 0.038593292, -561846.25, -119147.72, 0.0, 9.999762, 9.998696 
9.449529e+2, 2.6482633e+2, -399489.25, -495704.6, -14309.891, -0.0005882761, 0.025654126, -397406.1, -52694.79, 0.000000027783642, 10.000133, 9.998875 
9.449373e+2, 2.7482608e+2, -79162.84, -288662.38, -17175.068, 0.046854854, 0.10018575, -77764.14, 168948.08, 0.000002329391, 10.001651, 9.998891 
9.449216e+2, 2.8482524e+2, -24779.729, -219327.88, 40972.26, 0.004839471, 0.13392122, -16503.002, 132216.86, 0.000023981273, 10.001379, 9.99883 
9.4490606e+2, 2.9482383e+2, -261453.47, -280682.84, 1931.1499, -0.118645154, 0.09041007, -261261.44, -210527.55, 0.000106754764, 9.999074, 9.998842 
9.448911e+2, 3.0482277e+2, -204687.66, -85819.45, -84454.88, -0.117210954, 0.043863643, -41981.875, -41981.875, 0.00028782972, 9.998527, 10.000112 
9.4487363e+2, 3.148215e+2, 108979.06, 244599.56, -114484.99, -0.25951186, -0.11522084, 309849.63, 309849.63, 0.00056174357, 9.999866, 10.001743 
9.5516884e+2, 1.2485337e+2, -1549351.5, -1847627.3, -42937.242, 0.18469666, -0.023128174, -1543293.6, 173137.63, 0.00002677623, 10.002015, 9.998106 
9.5514965e+2, 1.3485168e+2, -1464779.5, -1736703.9, -35318.52, -0.09387101, -0.037934534, -1460267.1, 158189.92, 0.0000047533053, 10.001875, 9.998264 
9.551331e+2, 1.4485155e+2, -1308182.8, -1381198.0, -32889.695, -0.09774914, 0.028537791, -1295552.4, 224907.45, 0.000000046136613, 10.001264, 10.000325 
9.551207e+2, 1.5485299e+2, -1340637.3, -1341694.1, 9214.95, 0.30746663, 0.1155113, -1331935.6, 90503.52, 0.0, 10.000347, 10.000367 
9.551056e+2, 1.6485256e+2, -1398405.6, -1473644.5, 64114.582, 0.35839832, 0.108969115, -1361688.6, -37247.598, 0.0, 9.99995, 9.998978 
9.5508766e+2, 1.7484999e+2, -1269638.9, -1359776.6, 38283.734, 0.036537223, -0.06020766, -1255573.6, -29104.885, 0.0, 10.000165, 9.99898 
9.5507234e+2, 1.8484879e+2, -1099697.9, -1239237.0, 32542.293, -0.04868621, -0.07057277, -1092481.8, 36000.465, 0.0, 10.000707, 9.998871 
9.5505995e+2, 1.9484885e+2, -872862.56, -1079625.1, 30463.53, 0.11811253, 0.035078336, -868467.6, 162014.83, 0.0, 10.001594, 9.998867 
9.5504546e+2, 2.0484819e+2, -777515.8, -1013765.06, -42578.68, 0.1333584, 0.09815626, -770076.2, 162414.88, 0.0, 10.001706, 9.998596 
9.550287e+2, 2.1484655e+2, -793240.94, -970823.6, -69055.41, -0.016396377, 0.06180281, -769548.7, 64961.723, 0.0, 10.000927, 9.998594 
9.5501363e+2, 2.2484566e+2, -683418.25, -766914.25, -49849.227, -0.025858045, 0.07132056, -660144.4, 76375.77, 0.0, 10.00058, 9.999485 
9.550004e+2, 2.3484528e+2, -574850.3, -666197.1, 913.8642, 0.11959634, 0.06982114, -574841.1, 63680.94, 0.0, 10.000655, 9.999473 
9.549854e+2, 2.4484454e+2, -557505.6, -670180.44, -21811.646, 0.13045113, 0.080487, -553430.7, -12901.165, 0.0, 10.000379, 9.998899 
9.549684e+2, 2.5484324e+2, -559982.56, -623053.3, -7911.039, 0.005304119, 0.046375256, -559005.44, -116460.76, 0.0, 9.999693, 9.998884 
9.549527e+2, 2.6484245e+2, -400694.5, -480881.38, 37456.05, -0.046946142, 0.07415333, -385920.47, -41367.992, 0.000000030362223, 10.000065, 9.999005 
9.5493835e+2, 2.7484196e+2, -79403.11, -276078.7, 51095.7, -0.026583945, 0.112460285, -66920.81, 179633.4, 0.000002140531, 10.001599, 9.9990015 
9.5492274e+2, 2.8484088e+2, -94590.32, -351704.78, -50199.926, -0.038849793, 0.15975453, -85136.7, 63427.766, 0.000025889522, 10.0013275, 9.997944 
9.549057e+2, 2.9483908e+2, -337239.16, -420913.72, -78121.26, -0.08053132, 0.16939478, -290457.66, -239873.52, 0.000117742304, 9.999, 9.997914 
9.5489097e+2, 3.0483627e+2, -269977.25, -203686.55, -35459.625, 0.010991918, 0.0336787, -188293.27, -188293.27, 0.00031737162, 9.998452, 9.99934 
9.548761e+2, 3.1483328e+2, 56192.92, 145204.95, -30957.55, -0.03362114, -0.22269198, 154912.92, 154912.92, 0.0006187058, 9.999824, 10.00108 
9.65171e+2, 1.2486924e+2, -1604902.0, -1810614.0, -44210.23, 0.23663016, 0.07376469, -1595803.1, 120477.37, 0.000040530904, 10.00135, 9.998684 
9.651517e+2, 1.348666e+2, -1495284.4, -1682537.9, -35708.04, -0.04132747, -0.09897705, -1488706.1, 129603.58, 0.000008656152, 10.001362, 9.998886 
9.651348e+2, 1.4486638e+2, -1306846.0, -1386537.0, -35957.332, -0.04491612, -0.06939197, -1293020.4, 227290.53, 0.00000019058375, 10.001308, 10.000263 
9.651212e+2, 1.5486853e+2, -1190951.9, -1275108.0, -73263.766, 0.28157923, 0.09853849, -1148542.4, 273741.66, 0.0, 10.001416, 10.000304 
9.651062e+2, 1.648681e+2, -1198934.8, -1437484.9, -838.8481, 0.3490213, 0.11997071, -1198931.8, 125355.47, 0.0, 10.001585, 9.998434 
9.650896e+2, 1.7486468e+2, -1063618.1, -1325030.4, -14756.319, 0.13816857, -0.07832334, -1062787.8, 163536.61, 0.0, 10.001853, 9.998405 
9.650742e+2, 1.8486328e+2, -1009958.25, -1206222.0, -3094.328, 0.035007097, -0.07617953, -1009909.5, 118431.875, 0.0, 10.001364, 9.998787 
9.6506006e+2, 1.9486381e+2, -1098127.0, -1197985.5, -4544.2896, 0.05194673, 0.08507888, -1097920.6, -67581.92, 0.0, 10.000082, 9.998788 
9.650451e+2, 2.048633e+2, -1055556.6, -1130611.4, -12149.666, 0.03333492, 0.15956554, -1053638.9, -121292.664, 0.0, 9.999738, 9.998734 
9.6502924e+2, 2.148615e+2, -853547.25, -983379.2, 21049.889, -0.0262424, 0.090253495, -850219.7, -15853.568, 0.0, 10.000449, 9.998732 
9.6501434e+2, 2.2486037e+2, -657485.0, -719354.8, 58883.133, -0.008253153, 0.05664803, -621905.3, 114471.336, 0.0, 10.000605, 9.9998045 
9.650007e+2, 2.3485984e+2, -620288.44, -644997.8, 35980.957, 0.105415545, 0.0054853526, -594600.1, 43778.313, 0.0, 10.000165, 9.999851 
9.649855e+2, 2.4485935e+2, -579086.8, -707261.1, -12722.458, 0.107663184, 0.034348708, -577836.2, -37452.637, 0.0, 10.000343, 9.998666 
9.6496874e+2, 2.5485882e+2, -360266.5, -551565.8, -47768.594, 0.0055257822, 0.10272248, -349001.72, 93391.54, 0.0, 10.001183, 9.998654 
9.6495324e+2, 2.6485795e+2, -266394.75, -433566.2, -10678.671, -0.04189781, 0.14301577, -265715.38, 78687.234, 0.000000012060779, 10.001049, 9.998859 
9.6493894e+2, 2.748565e+2, -345763.03, -420638.44, -30288.729, -0.03257437, 0.097046316, -335044.88, -88631.42, 0.0000023356135, 9.99983, 9.998861 
9.649232e+2, 2.8485513e+2, -310923.56, -446320.7, -118885.9, -0.038116656, 0.117359005, -241812.22, -93386.9, 0.000028869204, 9.9998045, 9.998023 
9.649059e+2, 2.9485375e+2, -39155.754, -270626.38, -90949.875, -0.04890135, 0.16187583, -7695.474, 42743.504, 0.00012890252, 10.001023, 9.997972 
9.6489125e+2, 3.048506e+2, 9132.294, -159550.64, 14166.626, 0.08403255, 0.029567456, 10313.785, 10313.785, 0.00034520676, 10.000749, 9.998536 
9.648772e+2, 3.1484756e+2, -176380.02, -71733.54, -6127.7534, 0.15255854, -0.15025271, -71375.945, -71375.945, 0.0006746552, 9.998689, 10.000123 
9.751709e+2, 1.2488385e+2, -1527852.8, -1654378.4, -63710.02, 0.055649646, 0.0701025, -1501331.6, 214813.0, 0.000058506626, 10.001368, 9.999745 
9.751558e+2, 1.3488297e+2, -1413674.3, -1517299.4, -33153.65, 0.21158393, -0.036430124, -1403974.9, 214172.73, 0.00001444443, 10.001383, 10.000006 
9.751383e+2, 1.4488207e+2, -1366125.1, -1516631.5, -40311.125, 0.15386936, -0.08929924, -1356008.4, 164144.14, 0.0000005546723, 10.001335, 9.999362 
9.751186e+2, 1.5488087e+2, -1256381.1, -1412639.0, -61862.04, -0.14035879, -0.16363804, -1234855.5, 187306.48, 0.0, 10.001422, 9.999359 
9.751034e+2, 1.6488011e+2, -1215419.9, -1469639.8, -617.13416, -0.1058511, -0.113889486, -1215418.4, 108752.25, 0.0, 10.001574, 9.998221 
9.7509307e+2, 1.7487973e+2, -1077667.8, -1353726.9, -218.86758, 0.28671435, 0.011438124, -1077667.6, 148511.92, 0.0, 10.001851, 9.998211 
9.7507864e+2, 1.8487902e+2, -1002936.6, -1188636.5, -55829.63, 0.3273831, 0.08665678, -987444.25, 140746.31, 0.0, 10.001349, 9.998915 
9.7505975e+2, 1.9487774e+2, -1095324.4, -1183011.9, -44927.61, 0.0009023988, 0.052515045, -1076392.6, -46186.69, 0.0, 10.000044, 9.99891 
9.750438e+2, 2.0487708e+2, -984396.4, -975944.56, 6070.5474, -0.08902459, 0.05462722, -972773.8, -40560.914, 0.0, 9.9997, 9.999819 
9.750308e+2, 2.1487688e+2, -787683.75, -831352.8, 53760.957, 0.06833048, 0.037360456, -751492.5, 82720.35, 0.0, 10.000378, 9.999815 
9.750159e+2, 2.2487642e+2, -697792.56, -784008.44, 34869.45, 0.07323103, 0.034068782, -685455.3, 50760.914, 0.0, 10.0005245, 9.999396 
9.749991e+2, 2.3487552e+2, -668048.8, -719570.25, 25576.969, -0.07484713, -0.009761827, -657508.06, -19283.46, 0.0, 10.00006, 9.999389 
9.749836e+2, 2.4487488e+2, -637618.0, -815212.7, 11223.676, -0.12743846, 0.062137883, -636911.5, -96677.625, 0.0, 10.000281, 9.997955 
9.7496927e+2, 2.5487432e+2, -415789.94, -659727.9, -8614.462, -0.08139627, 0.19893825, -415486.13, 26759.598, 0.0, 10.001144, 9.997933 
9.7495437e+2, 2.6487267e+2, -301488.6, -491570.38, -62416.168, -0.05024023, 0.21494758, -282825.7, 61438.254, 0.0000000034767167, 10.000992, 9.998486 
9.749389e+2, 2.7486965e+2, -383360.22, -480095.22, -68764.64, -0.03722273, 0.05054361, -347656.38, -101365.87, 0.0000028342504, 9.999754, 9.998487 
9.74923e+2, 2.84868e+2, -246444.61, -298687.72, -78429.25, -0.052886926, 0.010602085, -189901.28, -41598.848, 0.000032313746, 9.999748, 9.999064 
9.7490656e+2, 2.9486763e+2, 31144.15, -116847.234, -32002.469, -0.10578202, 0.05315045, 37768.063, 88067.99, 0.00013997531, 10.000994, 9.999041 
9.7489154e+2, 3.0486554e+2, -67620.47, -305186.84, -66720.14, 0.024871845, 0.01754266, -50164.813, -50164.813, 0.00037147623, 10.00069, 9.997563 
9.748761e+2, 3.1486437e+2, -285148.78, -267338.34, -58993.4, 0.14839575, 0.12230382, -216581.83, -216581.83, 0.00072747667, 9.998563, 9.998835 
9.851724e+2, 1.24899365e+2, -1529812.9, -1604546.1, 31051.67, 0.08566488, 0.049924113, -1518594.9, 197401.3, 0.00008108169, 10.001136, 10.000201 
9.8515654e+2, 1.3490005e+2, -1428789.6, -1476638.9, -13512.377, 0.17706767, 0.057483945, -1425237.5, 192742.69, 0.000022462764, 10.001065, 10.000443 
9.851393e+2, 1.4489886e+2, -1481136.4, -1695080.3, -27975.291, 0.13639334, 0.008983995, -1477538.9, 42449.254, 0.0000013019285, 10.001067, 9.998265 
9.851198e+2, 1.5489556e+2, -1346160.5, -1579626.1, -77883.58, -0.14762253, -0.16942666, -1322563.8, 99458.77, 0.0, 10.001333, 9.998253 
9.8510456e+2, 1.648942e+2, -1246661.6, -1436430.4, 6308.438, -0.12122835, -0.14527185, -1246452.1, 77585.65, 0.0, 10.001156, 9.998647 
9.8509383e+2, 1.748948e+2, -1240432.5, -1380709.5, 39389.81, 0.2478523, 0.03476812, -1230128.8, -4094.5999, 0.0, 10.000521, 9.998662 
9.850793e+2, 1.8489459e+2, -1119162.3, -1226328.6, 12869.281, 0.3096575, 0.13015956, -1117638.5, 10400.725, 0.0, 10.000474, 9.999077 
9.8506063e+2, 1.9489335e+2, -942979.4, -1091258.5, 11545.385, 0.036982585, 0.08125786, -942085.8, 87969.58, 0.0, 10.001012, 9.999072 
9.850445e+2, 2.0489274e+2, -802122.94, -859122.9, 57422.617, -0.038991712, 0.06957031, -766516.7, 165545.05, 0.0, 10.000817, 10.000091 
9.8503107e+2, 2.1489269e+2, -850514.56, -828796.25, 31847.781, 0.09624288, 0.037437424, -806007.2, 28052.29, 0.0, 9.999804, 10.000111 
9.850159e+2, 2.2489254e+2, -842045.06, -862025.8, 17396.203, 0.0805281, 0.055051535, -831974.6, -95914.91, 0.0, 9.999564, 9.999326 
9.8499906e+2, 2.3489222e+2, -665063.4, -725401.4, 22922.498, -0.08330935, 0.0744852, -657342.94, -19279.012, 0.0, 10.000106, 9.999327 
9.8498374e+2, 2.4489146e+2, -633524.56, -807357.75, 78602.22, -0.13146877, 0.13737875, -603254.1, -63180.05, 0.0, 10.000296, 9.997998 
9.849701e+2, 2.548901e+2, -554155.9, -721542.0, 100472.625, -0.05670515, 0.19022438, -507084.72, -64992.297, 0.0, 10.000176, 9.997973 
9.8495513e+2, 2.648883e+2, -425829.8, -547891.25, 64017.316, -0.018092547, 0.18356505, -398413.0, -54301.207, 0.00000001775074, 10.000115, 9.99853 
9.8493904e+2, 2.7488574e+2, -338431.75, -455440.3, 73039.13, -0.0072407685, 0.06498692, -303354.7, -57221.16, 0.000003544514, 10.00004, 9.998529 
9.8492336e+2, 2.84884e+2, -168224.55, -243223.97, 115228.69, -0.01564837, 0.0099358335, -84547.195, 63598.566, 0.00003520851, 10.000202, 9.999232 
9.849079e+2, 2.9488298e+2, -9087.12, -120049.44, 79758.086, -0.045949876, -0.031229015, 32588.87, 82738.52, 0.00014919741, 10.000637, 9.999196 
9.848923e+2, 3.048813e+2, -15920.634, -285109.56, 211.50604, 0.025603011, -0.028107485, -15920.468, -15920.468, 0.00039500848, 10.001065, 9.997519 
9.848752e+2, 3.148822e+2, 98997.7, -119991.164, 54957.223, 0.06937113, 0.2875125, 112015.83, 112015.83, 0.00077431643, 10.00134, 9.998523 
9.9517477e+2, 1.2491585e+2, -1538320.9, -1630688.9, 8258.615, 0.17399499, 0.021089468, -1537588.3, 178246.38, 0.000108580556, 10.001174, 10.000004 
9.9515426e+2, 1.3491787e+2, -1437833.0, -1503255.6, -14606.522, -0.17646591, 0.18169665, -1434720.0, 183087.17, 0.000033028722, 10.001101, 10.000244 
9.9513775e+2, 1.4491682e+2, -1567066.5, -1878050.5, -29657.775, -0.14111362, 0.22015606, -1564263.4, -44446.285, 0.0000026281716, 10.001083, 9.9970045 
9.951246e+2, 1.5491255e+2, -1428432.1, -1757246.4, -59971.547, 0.17391172, 0.0719281, -1417835.6, 4030.4001, 0.00000000019976186, 10.00136, 9.997024 
9.951092e+2, 1.6491029e+2, -1174417.3, -1286069.9, -22976.297, 0.21102487, 0.0145009775, -1169874.0, 154015.3, 0.0, 10.001156, 9.999678 
9.950918e+2, 1.7490987e+2, -1164435.4, -1227589.1, 22085.031, -0.027420567, -0.010940412, -1157478.6, 68409.8, 0.0, 10.000537, 9.999706 
9.950761e+2, 1.8490998e+2, -1108567.8, -1201638.5, 24490.447, -0.06748785, 0.055423237, -1102516.8, 25370.77, 0.0, 10.000463, 9.999252 
9.9506235e+2, 1.9491051e+2, -935185.9, -1066530.4, 36817.08, 0.09726806, 0.16684441, -925569.75, 104318.28, 0.0, 10.000975, 9.99926 
9.95047e+2, 2.0491023e+2, -848098.06, -935753.1, 10497.946, 0.119716145, 0.19985695, -846858.3, 85035.11, 0.0, 10.000739, 9.999601 
9.9503005e+2, 2.1490893e+2, -900734.4, -908068.5, -117.037895, -0.0021978354, 0.093962915, -900732.5, -66826.72, 0.0, 9.999699, 9.999618 
9.950144e+2, 2.2490886e+2, -837193.6, -824916.3, 30869.262, -0.03802412, 0.12863077, -799581.25, -63674.89, 0.0, 9.999451, 9.999632 
9.950003e+2, 2.349099e+2, -656710.4, -685008.44, 49495.063, 0.014300841, 0.25631738, -619381.7, 18514.502, 0.0, 10.000012, 9.999647 
9.949858e+2, 2.4490911e+2, -587568.1, -699045.4, 66217.97, 0.032320093, 0.25664043, -556752.6, -16848.174, 0.0, 10.000235, 9.998774 
9.9497116e+2, 2.5490618e+2, -509239.4, -611984.8, 103301.99, 0.015461428, 0.07327014, -445241.16, -3307.788, 0.0, 10.000101, 9.998764 
9.9495554e+2, 2.6490483e+2, -406477.22, -489433.75, 56799.13, -0.0017053495, 0.052690398, -377623.5, -33678.23, 0.000000028595345, 10.00004, 9.998967 
9.94939e+2, 2.7490482e+2, -320657.0, -398454.78, 80558.24, -0.026632287, 0.14572755, -270097.78, -24156.465, 0.000003781716, 9.99996, 9.998958 
9.9492383e+2, 2.849032e+2, -226740.98, -354211.34, 125545.72, -0.0008608668, 0.11728471, -149678.8, -1723.8589, 0.000036350866, 10.000151, 9.998497 
9.949099e+2, 2.9489985e+2, -63922.074, -222874.03, 106101.445, 0.0722371, -0.08847633, -10831.283, 39156.16, 0.00015454051, 10.000592, 9.998508 
9.9489367e+2, 3.0489808e+2, 39007.074, -164300.98, 10757.524, 0.03584006, -0.10363907, 39574.695, 39574.695, 0.00041140616, 10.001037, 9.9983635 
9.9487376e+2, 3.1490108e+2, 124083.42, -29332.639, 87986.875, -0.24064338, 0.34165645, 164105.05, 164105.05, 0.00080724823, 10.00119, 9.999211 
1.0051769e+3, 1.2493242e+2, -1594386.5, -1732159.0, -3738.1, 0.2775681, 0.064117566, -1594285.1, 121385.6, 0.00014134821, 10.0011215, 9.999325 
1.00515574e+3, 1.3493307e+2, -1335192.4, -1528363.1, -83070.37, -0.18126641, 0.15454617, -1304383.0, 313278.06, 0.000046426092, 10.002138, 9.999563 
1.0051396e+3, 1.4493205e+2, -1372357.6, -1718736.1, -58929.78, -0.11727087, 0.20131423, -1362606.4, 157065.98, 0.00000474816, 10.002163, 9.997566 
1.00512676e+3, 1.5492937e+2, -1405126.5, -1684919.4, 19730.412, 0.27112842, 0.15915857, -1403742.0, 17961.889, 0.000000004412824, 10.001268, 9.997561 
1.00511104e+3, 1.6492745e+2, -1224953.1, -1330807.6, 95884.39, 0.29625905, 0.12001779, -1168358.3, 155365.11, 0.0, 10.000888, 9.999511 
1.0050923e+3, 1.7492618e+2, -1102051.0, -1214294.0, 37891.15, -0.051839814, 0.024172323, -1090457.3, 135274.22, 0.0, 10.0010395, 9.999558 
1.00507595e+3, 1.8492591e+2, -1087223.1, -1174053.3, 6107.974, -0.13092202, 0.053545352, -1086795.5, 40938.55, 0.0, 10.000537, 9.999404 
1.0050622e+3, 1.9492656e+2, -1163225.1, -1159802.8, 3488.2192, 0.072045915, 0.16231723, -1157628.6, -127896.12, 0.0, 9.999342, 9.999404 
1.00504674e+3, 2.0492668e+2, -1055406.6, -1018469.75, 25074.719, 0.10379947, 0.2194744, -1005796.2, -74062.31, 0.0, 9.999238, 9.999752 
1.00502945e+3, 2.1492605e+2, -816855.3, -852370.25, 46507.03, -0.04423228, 0.1673226, -784830.94, 48909.188, 0.0, 10.000204, 9.999755 
1.005014e+3, 2.2492589e+2, -699231.9, -755088.0, 106668.68, -0.06268267, 0.18341316, -616895.75, 118845.93, 0.0, 10.000387, 9.999663 
1.00500055e+3, 2.3492597e+2, -692861.5, -701626.1, 88054.77, 0.05552906, 0.21127191, -609080.06, 28660.252, 0.0, 9.999757, 9.9996605 
1.0049865e+3, 2.4492522e+2, -616584.75, -669444.25, 105259.53, 0.091951646, 0.19816633, -534487.5, 5259.7026, 0.0, 9.999839, 9.999169 
1.0049717e+3, 2.5492346e+2, -402628.2, -514406.72, 98966.63, 0.047505535, 0.09309743, -344860.03, 96903.91, 0.0, 10.000636, 9.999175 
1.0049561e+3, 2.6492256e+2, -289021.2, -411113.56, 16058.254, 0.013403305, 0.08843932, -286944.47, 56826.242, 0.000000017098808, 10.000769, 9.999145 
1.00493915e+3, 2.7492228e+2, -273506.0, -356871.75, 4350.734, -0.01416818, 0.13268156, -273279.56, -27510.277, 0.000003428396, 10.000208, 9.999117 
1.0049241e+3, 2.8492096e+2, -295597.16, -406775.13, 91725.68, 0.031471904, 0.13642022, -243930.67, -96149.266, 0.00003625069, 9.999758, 9.998324 
1.0049107e+3, 2.949185e+2, -255906.95, -338628.22, 98441.37, 0.16190837, 0.042003896, -190490.22, -140681.4, 0.00015742959, 9.999356, 9.998315 
1.00489445e+3, 3.0491692e+2, -103930.12, -153845.14, 51785.313, 0.08530565, 0.019598821, -71402.01, -71402.01, 0.00042159262, 9.999715, 9.999067 
1.00487426e+3, 3.1491864e+2, 100390.99, 6083.789, 84708.7, -0.28162646, 0.26258138, 150185.97, 150185.97, 0.0008274677, 10.000807, 9.999644 
1.0151782e+3, 1.2494916e+2, -1665796.6, -1893635.5, 9877.611, 0.2593213, 0.17034835, -1665369.1, 50134.32, 0.0001798155, 10.001167, 9.9981985 
1.0151606e+3, 1.3494584e+2, -1410685.9, -1690965.4, -37792.754, 0.07163818, -0.024547482, -1405679.4, 211860.63, 0.000062927356, 10.0021515, 9.998443 
1.0151442e+3, 1.4494473e+2, -1220886.6, -1403814.5, -98615.92, 0.11567692, -0.038584318, -1177848.8, 341702.94, 0.000007860604, 10.002158, 9.999732 
1.0151265e+3, 1.5494607e+2, -1251690.0, -1370558.1, -7662.096, 0.09396563, 0.103999086, -1251198.1, 170338.0, 0.000000028517778, 10.0012865, 9.99971 
1.01511e+3, 1.6494577e+2, -1310169.5, -1517067.5, 91747.34, 0.08631898, 0.18291163, -1275346.0, 48193.5, 0.0, 10.000923, 9.998216 
1.0150951e+3, 1.749437e+2, -1188804.3, -1403605.5, 49919.336, 0.11064716, 0.13568784, -1177770.0, 47793.406, 0.0, 10.001072, 9.998246 
1.0150784e+3, 1.8494233e+2, -1080313.8, -1156559.1, -46046.496, 0.048528507, 0.11568604, -1058656.8, 68922.26, 0.0, 10.000522, 9.999532 
1.01506e+3, 1.949415e+2, -1160805.0, -1144175.4, -35003.813, -0.102234185, 0.064651236, -1116512.4, -86923.98, 0.0, 9.999291, 9.999537 
1.01504356e+3, 2.0494212e+2, -1014324.0, -913068.75, 54684.027, -0.15144472, 0.12750156, -889174.56, 42408.055, 0.0, 9.999155, 10.000514 
1.0150293e+3, 2.1494408e+2, -772101.44, -744493.8, 88446.0, -0.09630899, 0.254264, -668780.9, 164782.0, 0.0, 10.000142, 10.000524 
1.0150146e+3, 2.2494358e+2, -732784.7, -801533.4, 74679.695, -0.055468068, 0.21242647, -684948.0, 50618.543, 0.0, 10.000289, 9.999391 
1.0149996e+3, 2.349404e+2, -725753.3, -747351.94, 71542.2, -0.028502176, -0.058899052, -664199.94, -26604.207, 0.0, 9.999659, 9.9993925 
1.0149853e+3, 2.4493991e+2, -634040.75, -679866.3, 127917.95, -0.019143542, -0.030438606, -526999.7, 12601.407, 0.0, 9.999734, 9.9991455 
1.0149717e+3, 2.5494203e+2, -414466.22, -521444.16, 136731.61, -0.030921984, 0.2495643, -321133.53, 120450.29, 0.0, 10.0005665, 9.999158 
1.0149564e+3, 2.6494142e+2, -302242.56, -429272.9, -10684.469, -0.03484296, 0.28656617, -301350.2, 42238.664, 0.000000011022683, 10.000721, 9.999047 
1.0149393e+3, 2.7493802e+2, -284841.1, -367289.25, -6370.4146, -0.033943474, 0.025604203, -284351.78, -38734.086, 0.0000031084232, 10.00015, 9.999074 
1.0149239e+3, 2.8493735e+2, -279587.84, -359073.38, 70095.61, 0.024805557, 0.07359913, -238752.17, -91127.336, 0.000035475467, 9.999701, 9.998676 
1.01491004e+3, 2.949393e+2, -251814.33, -295209.66, 94061.12, 0.14172083, 0.38425303, -176980.73, -127369.414, 0.00015859005, 9.999222, 9.998669 
1.0148945e+3, 3.0493808e+2, -80181.375, -90166.08, 90716.72, 0.095684305, 0.35589576, 5680.257, 5680.257, 0.00042792628, 9.999642, 9.999545 
1.0148764e+3, 3.149349e+2, 95527.39, 28830.098, 147715.69, -0.18598649, 0.06304491, 213612.1, 213612.1, 0.0008405054, 10.000673, 9.999862 
1.0251792e+3, 1.2496457e+2, -1606134.9, -1857445.9, 42790.21, 0.23070857, 0.10195307, -1599048.9, 116300.94, 0.00022439056, 10.001544, 9.998266 
1.0251625e+3, 1.3496193e+2, -1643528.4, -1801024.3, 62119.43, 0.12883304, -0.027579593, -1621976.4, -4593.9287, 0.0000828242, 10.000538, 9.998471 
1.0251465e+3, 1.4496106e+2, -1407261.1, -1457611.6, 8381.228, 0.19805522, -0.03532634, -1405902.6, 113490.09, 0.000012107546, 10.0007105, 10.000064 
1.0251275e+3, 1.5496247e+2, -1084473.5, -1249182.5, -45721.254, 0.02475715, 0.07662596, -1072633.0, 348742.44, 0.00000009714164, 10.002251, 10.000077 
1.0251106e+3, 1.6496252e+2, -1102432.3, -1421044.0, 18497.629, -0.009382129, 0.17411207, -1101362.0, 222014.05, 0.0, 10.002376, 9.99817 
1.0250963e+3, 1.7496112e+2, -1182496.4, -1404397.3, 53627.46, 0.12364509, 0.20150942, -1170215.6, 55179.76, 0.0, 10.001136, 9.998208 
1.0250795e+3, 1.8495978e+2, -1071975.5, -1147514.9, 12897.8, 0.09902081, 0.18253858, -1069834.0, 57577.06, 0.0, 10.000555, 9.999578 
1.02506e+3, 1.949583e+2, -960871.1, -1039940.56, 3996.9944, -0.09869164, 0.06162227, -960669.6, 68755.164, 0.0, 10.000636, 9.999602 
1.02504335e+3, 2.0495862e+2, -854097.3, -849938.1, 96928.086, -0.14595851, 0.09823209, -755067.3, 176353.98, 0.0, 10.000317, 10.000393 
1.0250298e+3, 2.1496066e+2, -865178.8, -804083.06, 49715.4, -0.030025631, 0.24945731, -776280.3, 57121.16, 0.0, 9.999569, 10.000395 
1.0250151e+3, 2.249604e+2, -836551.5, -839900.6, 24760.668, 0.011182773, 0.23285061, -813408.8, -78005.63, 0.0, 9.999523, 9.9994955 
1.0249994e+3, 2.3495765e+2, -654580.94, -701611.8, 34823.43, -0.025294987, -0.004127433, -636076.75, 1351.4806, 0.0, 10.000107, 9.99949 
1.024985e+3, 2.4495716e+2, -562379.06, -631239.5, 129766.28, -0.040501818, 0.0123203965, -462553.06, 76879.97, 0.0, 10.000172, 9.999266 
1.0249717e+3, 2.5495878e+2, -543806.44, -572983.44, 130704.34, -0.037829183, 0.23265211, -426879.0, 14540.065, 0.0, 9.99963, 9.999256 
1.0249569e+3, 2.6495802e+2, -417990.06, -498590.22, 10406.488, -0.015266315, 0.2554724, -416668.13, -73242.72, 0.00000001218603, 9.999973, 9.998934 
1.0249405e+3, 2.7495477e+2, -144162.98, -310706.03, -2305.6174, 0.03161793, 0.01856405, -144131.08, 101322.96, 0.0000027111198, 10.001161, 9.998977 
1.0249247e+3, 2.849542e+2, -29975.191, -219714.44, 40791.086, 0.062392533, 0.07044159, -21577.404, 125883.44, 0.00003356273, 10.001349, 9.998832 
1.0249092e+3, 2.949561e+2, -55152.02, -185367.03, 27876.953, 0.07478295, 0.36269143, -49435.01, 12.457138, 0.00015687123, 10.000508, 9.998803 
1.0248935e+3, 3.049552e+2, -45325.234, -17774.963, 64714.45, 0.055692688, 0.33816049, 34614.2, 34614.2, 0.0004299211, 9.999655, 10.000034 
1.02487765e+3, 3.1495184e+2, -167867.75, -57447.37, 90935.22, -0.015728492, -0.021423968, -6274.391, -6274.391, 0.000848036, 9.998679, 10.000232 
1.0351794e+3, 1.24978825e+2, -1528161.9, -1694836.6, -29634.986, 0.05812164, -0.12229415, -1523049.5, 192158.34, 0.00027553758, 10.001548, 9.999376 
1.03516124e+3, 1.3498122e+2, -1572696.9, -1648978.3, 25887.21, -0.056650795, 0.1448158, -1564741.4, 52448.27, 0.000106410545, 10.00053, 9.999514 
1.0351461e+3, 1.4498086e+2, -1493271.1, -1648868.0, 55577.965, 0.0679434, 0.20659286, -1475458.4, 43738.375, 0.000017580353, 10.000759, 9.998731 
1.03512965e+3, 1.5497845e+2, -1174984.3, -1438731.6, 19035.367, -0.003916053, 0.06864968, -1173617.5, 247604.84, 0.00000023822265, 10.002253, 9.998779 
1.0351127e+3, 1.6497776e+2, -1023427.7, -1250362.8, -37803.758, -0.060078945, 0.09451949, -1017295.9, 305935.75, 0.0, 10.00235, 9.9993515 
1.0350956e+3, 1.7497854e+2, -1106111.8, -1239512.9, 13119.765, -0.068410955, 0.22477336, -1104833.6, 120393.04, 0.0, 10.00111, 9.9993515 
1.0350788e+3, 1.8497832e+2, -1079105.4, -1157020.4, 6966.942, -0.040849727, 0.2627422, -1078487.3, 48742.4, 0.0, 10.000533, 9.999524 
1.0350619e+3, 1.9497688e+2, -969473.56, -1050457.8, 10682.034, 0.017427187, 0.15074205, -968088.3, 61153.84, 0.0, 10.000605, 9.999545 
1.03504576e+3, 2.0497611e+2, -933492.94, -1000610.5, 59146.703, 0.060093164, 0.12938325, -899047.9, 32202.563, 0.0, 10.000252, 9.999391 
1.0350306e+3, 2.1497579e+2, -943872.2, -953196.1, 28786.334, 0.09183026, 0.14443824, -919372.75, -86116.56, 0.0, 9.999502, 9.999404 
1.03501536e+3, 2.2497635e+2, -822146.5, -784169.9, 38950.813, 0.07353043, 0.2386322, -759825.5, -24573.72, 0.0, 9.999415, 9.999929 
1.03499986e+3, 2.3497769e+2, -633414.3, -641200.7, 64148.43, -0.0023403203, 0.36391154, -573041.0, 64197.41, 0.0, 10.000033, 9.999939 
1.03498526e+3, 2.4497685e+2, -561281.25, -606585.06, 103450.64, -0.04013081, 0.31448227, -478031.56, 61212.43, 0.0, 10.000077, 9.999481 
1.03497155e+3, 2.549737e+2, -535655.1, -543920.9, 119286.1, -0.03486787, 0.03521643, -420430.34, 20839.848, 0.0, 9.999574, 9.999485 
1.03495724e+3, 2.649724e+2, -436753.47, -519775.44, 48893.793, 0.0117577845, -0.009199886, -414125.8, -70845.25, 0.00000000560088, 9.999904, 9.998818 
1.03494264e+3, 2.7497265e+2, -169416.73, -338360.97, 53151.004, 0.104157984, 0.121080965, -154086.2, 91190.98, 0.0000022721786, 10.001065, 9.998827 
1.03492625e+3, 2.8497145e+2, -45211.668, -240748.3, 3352.4768, 0.064876266, 0.12792437, -45154.207, 102135.414, 0.000031159278, 10.001299, 9.9987135 
1.0349079e+3, 2.9496878e+2, -69541.41, -202661.98, 9133.873, -0.11186161, -0.029557398, -68917.62, -19599.852, 0.00015252481, 10.000457, 9.998708 
1.0348918e+3, 3.0496827e+2, -19147.178, 41805.93, 23530.445, -0.10465599, -0.032646004, 49832.65, 49832.65, 0.00042681675, 9.999633, 10.000452 
1.0348776e+3, 3.1496975e+2, -166407.75, -1218.3046, 75088.29, 0.069216564, 0.049227923, 27811.967, 27811.967, 0.0008482349, 9.998472, 10.000708 
1.0451804e+3, 1.2499536e+2, -1716311.8, -1725377.5, -43939.582, 0.09917557, -0.09447748, -1676671.9, 38377.164, 0.0003338259, 9.999975, 9.999936 
1.0451621e+3, 1.3499789e+2, -1401468.4, -1510513.5, -30827.906, -0.05918431, 0.13757412, -1393356.5, 223668.27, 0.00013404706, 10.001441, 10.000034 
1.0451475e+3, 1.4499769e+2, -1372154.4, -1596184.8, 51357.902, 0.092190444, 0.1881463, -1360942.0, 158087.53, 0.000024406929, 10.001623, 9.998675 
1.04513146e+3, 1.5499562e+2, -1403739.4, -1553626.1, 85890.81, 0.042921342, 0.091542125, -1364692.6, 56361.906, 0.0000004785213, 10.000711, 9.998731 
1.0451141e+3, 1.6499496e+2, -1298601.4, -1343769.1, 27509.488, -0.03530867, 0.10757212, -1285593.0, 37471.152, 0.0, 10.000292, 9.999701 
1.04509585e+3, 1.7499551e+2, -1183093.1, -1234772.6, 5237.166, -0.12113344, 0.17867567, -1182567.6, 42492.59, 0.0, 10.000403, 9.99972 
1.0450787e+3, 1.8499553e+2, -1068742.0, -1163255.9, 13572.588, -0.09410584, 0.2272193, -1066831.5, 60228.9, 0.0, 10.000655, 9.999423 
1.04506284e+3, 1.9499485e+2, -911825.94, -1035292.94, 299.76343, 0.045110427, 0.20299311, -911825.25, 117240.6, 0.0, 10.001053, 9.999437 
1.0450471e+3, 2.0499377e+2, -843530.6, -1018879.4, 49483.94, 0.121795796, 0.18593648, -830530.0, 100547.4, 0.0, 10.001146, 9.99883 
1.04503125e+3, 2.1499206e+2, -779527.5, -936031.56, 35341.27, 0.13733496, 0.11754077, -771916.94, 61180.45, 0.0, 10.000911, 9.998838 
1.0450156e+3, 2.249922e+2, -655421.25, -711495.94, 76863.29, 0.10200338, 0.19994415, -601641.4, 133456.31, 0.0, 10.000586, 9.999867 
1.0450001e+3, 2.349941e+2, -622036.25, -646158.56, 47339.676, 0.010783113, 0.38864332, -585245.44, 51833.855, 0.0, 10.000144, 9.999858 
1.0449855e+3, 2.4499342e+2, -540847.25, -588153.8, 73949.03, -0.032182533, 0.354742, -486860.78, 52222.15, 0.0, 10.000172, 9.999566 
1.04497164e+3, 2.5499004e+2, -370675.4, -450942.66, 65589.945, -0.019725045, 0.04179545, -333914.63, 107195.38, 0.0, 10.000655, 9.9995985 
1.04495764e+3, 2.6498872e+2, -345058.13, -461382.66, 14905.991, 0.037302263, -0.015132628, -343178.44, -58.852894, 0.0000000009945924, 10.000475, 9.998945 
1.04494326e+3, 2.7498916e+2, -383985.13, -430467.7, 21748.03, 0.14430399, 0.12191367, -375396.63, -130282.31, 0.0000020282196, 9.99953, 9.99894 
1.0449268e+3, 2.8498775e+2, -296005.03, -374019.34, 1618.8016, 0.082619764, 0.10800466, -295971.47, -148843.13, 0.00002862002, 9.999615, 9.998616 
1.0449081e+3, 2.9498443e+2, -39488.258, -196497.3, -10431.039, -0.14642856, -0.10406259, -38798.293, 10363.62, 0.00014590684, 10.000687, 9.998646 
1.0448921e+3, 3.0498412e+2, 192160.81, 93682.47, -36048.125, -0.11971961, -0.06261437, 203945.92, 203945.92, 0.0004167961, 10.001309, 9.999995 
1.04487844e+3, 3.149858e+2, 228619.19, 141830.4, -84699.03, 0.17037414, 0.08647137, 280393.06, 280393.06, 0.0008355391, 10.00137, 10.000305 
1.0551816e+3, 1.2501405e+2, -1697020.0, -1692607.9, -33743.68, 0.18324576, 0.17008486, -1660998.3, 53875.887, 0.00039971265, 10.00002, 10.000129 
1.0551648e+3, 1.3501221e+2, -1399407.9, -1500404.1, 31376.979, 0.042042673, -0.04260509, -1390453.6, 226431.64, 0.00016604259, 10.001426, 10.000107 
1.05515026e+3, 1.4501187e+2, -1291322.9, -1432504.1, 7782.7676, 0.1903615, -0.06502605, -1290895.1, 227992.56, 0.000032768716, 10.001636, 9.999794 
1.055133e+3, 1.5501402e+2, -1325905.6, -1396875.5, 57400.78, 0.098332554, 0.15017776, -1293907.0, 126964.27, 0.0000008393984, 10.000724, 9.9998045 
1.0551149e+3, 1.6501412e+2, -1329529.9, -1405370.8, 23672.477, -0.0097043775, 0.20984879, -1322747.5, 126.367065, 0.0, 10.000285, 9.999277 
1.0550965e+3, 1.7501204e+2, -1209155.8, -1294481.3, 14588.289, -0.1024192, 0.057571884, -1206730.5, 18165.6, 0.0, 10.000428, 9.999297 
1.05507925e+3, 1.850115e+2, -1080390.6, -1183873.9, 19146.926, -0.1254045, 0.07950871, -1076961.6, 49940.926, 0.0, 10.000641, 9.999288 
1.05506286e+3, 1.9501235e+2, -926722.7, -1058866.4, 21512.156, -0.08265484, 0.21817884, -923308.8, 105585.89, 0.0, 10.00102, 9.99929 
1.05504684e+3, 2.0501176e+2, -866770.06, -1051234.3, 31711.604, -0.023487076, 0.2665795, -861470.7, 69430.81, 0.0, 10.001076, 9.998643 
1.0550315e+3, 2.1500956e+2, -802522.44, -967703.06, 32590.902, 0.05243306, 0.16785157, -796324.7, 36599.844, 0.0, 10.000838, 9.998656 
1.0550158e+3, 2.2500798e+2, -711605.6, -807809.0, 53888.76, 0.041970484, 0.11951061, -687473.2, 47467.203, 0.0, 10.000494, 9.999251 
1.05499975e+3, 2.3500688e+2, -673764.94, -737452.3, 37666.535, -0.052606568, 0.06781556, -656285.3, -19334.656, 0.0, 10.000072, 9.999266 
1.0549852e+3, 2.450069e+2, -555020.6, -600172.56, 84271.66, -0.085975, 0.13390927, -490353.34, 48595.867, 0.0, 10.000095, 9.99952 
1.0549722e+3, 2.5500783e+2, -382846.72, -464119.3, 90272.11, -0.058158875, 0.25763798, -324486.25, 116451.63, 0.0, 10.000599, 9.9995365 
1.0549579e+3, 2.6500702e+2, -332106.66, -414383.84, -26678.195, -0.0005785283, 0.23677202, -324213.53, 18729.473, 0.000000000012280949, 10.000395, 9.999303 
1.0549424e+3, 2.7500427e+2, -370584.28, -382536.16, -3448.0872, 0.084365025, 0.017708095, -369660.84, -124695.04, 0.0000016155456, 9.999448, 9.999308 
1.0549263e+3, 2.8500313e+2, -309162.94, -389344.0, 36844.227, 0.048639625, 0.014442659, -294803.97, -147827.14, 0.000025303238, 9.999561, 9.998539 
1.05490945e+3, 2.9500332e+2, -57555.418, -218109.52, 42670.844, -0.099161305, 0.16302317, -46919.29, 2058.6494, 0.000137169, 10.000619, 9.998532 
1.054894e+3, 3.050029e+2, 88594.0, -113004.56, -35607.543, -0.06789584, 0.26894134, 94698.375, 94698.375, 0.00040068463, 10.001269, 9.998594 
1.0548799e+3, 3.1500006e+2, 122967.31, -57475.418, -63170.64, 0.14293058, 0.10330002, 142884.16, 142884.16, 0.00081052736, 10.001289, 9.998974 
1.0651835e+3, 1.250319e+2, -1427403.8, -1529324.6, 76255.91, 0.28199312, 0.19518273, -1386647.6, 328053.22, 0.00047318285, 10.001725, 10.000431 
1.06516615e+3, 1.3503005e+2, -1491654.1, -1516116.1, 155565.25, 0.08490891, -0.043971516, -1347839.8, 268869.78, 0.00020250746, 10.000676, 10.000354 
1.06515124e+3, 1.450295e+2, -1503088.9, -1550776.8, 92213.47, 0.2001588, -0.09194777, -1431686.5, 87026.52, 0.000042863663, 10.000255, 9.999649 
1.0651333e+3, 1.5503132e+2, -1361678.4, -1427434.4, 31565.834, 0.079218596, 0.106826946, -1348978.3, 71722.46, 0.0000013547858, 10.000543, 9.99968 
1.0651153e+3, 1.650314e+2, -1251654.5, -1381987.1, 3353.5247, -0.013655236, 0.1766345, -1251568.3, 71135.29, 0.0, 10.000874, 9.999162 
1.06509805e+3, 1.7502964e+2, -1102077.6, -1255249.4, 2020.6749, -0.03836872, 0.06953788, -1102051.0, 122671.484, 0.0, 10.001219, 9.999191 
1.0650809e+3, 1.8502891e+2, -990617.7, -1179021.6, 23022.016, -0.049953103, 0.09366399, -987845.3, 138885.56, 0.0, 10.001416, 9.998949 
1.0650642e+3, 1.95029e+2, -885390.8, -1077413.9, -4274.004, -0.06202881, 0.19341348, -885295.75, 143435.11, 0.0, 10.001466, 9.99895 
1.0650478e+3, 2.0502825e+2, -854051.5, -1062429.9, -9305.095, -0.041152, 0.2487637, -853636.8, 77102.914, 0.0, 10.001236, 9.998487 
1.0650317e+3, 2.1502648e+2, -833926.94, -1001250.4, -22932.81, 0.01585519, 0.2101155, -830840.75, 1917.8864, 0.0, 10.000703, 9.998491 
1.065016e+3, 2.2502463e+2, -743027.1, -852331.1, 30593.447, 0.025762701, 0.15538712, -735046.8, -270.07706, 0.0, 10.000409, 9.998986 
1.0650002e+3, 2.3502252e+2, -655844.75, -756168.44, 27188.27, -0.010001698, 0.02968332, -648950.4, -12154.573, 0.0, 10.000324, 9.999012 
1.0649857e+3, 2.4502215e+2, -543503.7, -609000.1, 111906.305, -0.041962918, 0.07633588, -459652.3, 79145.69, 0.0, 10.000241, 9.999389 
1.0649723e+3, 2.5502333e+2, -458984.06, -517906.8, 93727.18, -0.073184535, 0.23960662, -390196.97, 50588.254, 0.0, 10.000146, 9.999389 
1.06495775e+3, 2.6502267e+2, -341096.3, -412047.34, -41558.367, -0.03791816, 0.239992, -321931.1, 20858.56, 0.0, 10.000296, 9.99937 
1.0649421e+3, 2.750201e+2, -194824.73, -285993.78, -57392.906, 0.06965916, 0.025355384, -167116.05, 77695.95, 0.00000091217555, 10.000605, 9.999411 
1.0649265e+3, 2.8501907e+2, -126060.14, -293828.16, 26274.234, 0.06321489, 0.02907277, -122041.57, 24779.523, 0.000020741376, 10.000799, 9.998594 
1.0649107e+3, 2.9501945e+2, -11889.456, -187959.83, 25580.973, -0.05064998, 0.1889307, -8248.1455, 40570.977, 0.0001251533, 10.0009, 9.998598 
1.06489524e+3, 3.050189e+2, -25487.518, -245822.31, -28630.127, -0.035976104, 0.3125646, -21828.12, -21828.12, 0.0003777452, 10.000807, 9.997909 
1.0648805e+3, 3.1501508e+2, -44139.027, -197462.72, -32123.305, 0.12774414, 0.116989665, -37680.81, -37680.81, 0.00077367935, 10.000381, 9.998451 
1.0751853e+3, 1.2504901e+2, -1398906.5, -1460316.9, -16079.769, 0.25238708, -0.006867218, -1394950.9, 319577.97, 0.00055371417, 10.001697, 10.00091 
1.07516624e+3, 1.3505124e+2, -1467412.9, -1462476.9, 116951.766, 0.009168091, 0.12352107, -1347967.1, 268532.16, 0.00024334127, 10.000671, 10.000718 
1.0751503e+3, 1.4505039e+2, -1589787.0, -1744236.3, 90310.61, 0.059702877, 0.095292285, -1548185.5, -29678.21, 0.00005483326, 10.000303, 9.9983015 
1.0751324e+3, 1.5504752e+2, -1448013.0, -1618728.8, 48455.69, -0.077710666, -0.042778097, -1435218.3, -14675.82, 0.000002073113, 10.000589, 9.998346 
1.0751155e+3, 1.6504693e+2, -1236979.6, -1354728.1, 7524.139, -0.10591904, 0.018317126, -1236500.8, 86051.29, 0.0000000000166348, 10.000888, 9.99934 
1.07509986e+3, 1.7504832e+2, -1086624.6, -1229719.9, 20838.285, 0.012864678, 0.20542498, -1083651.8, 140887.14, 0.0, 10.00124, 9.999356 
1.0750836e+3, 1.8504769e+2, -1033945.3, -1259503.3, 16146.238, 0.06681073, 0.2580866, -1032795.4, 93750.42, 0.0, 10.001382, 9.998411 
1.0750669e+3, 1.9504492e+2, -927467.9, -1155856.6, 3605.916, 0.0452187, 0.12504512, -927411.0, 101162.57, 0.0, 10.0014305, 9.998426 
1.0750497e+3, 2.0504338e+2, -876331.94, -1094569.1, -38530.05, 0.009936595, 0.13808565, -869729.2, 60861.754, 0.0, 10.001174, 9.9983 
1.0750321e+3, 2.1504284e+2, -857599.6, -1032110.3, -36398.02, -0.035617907, 0.2391291, -850312.3, -17712.484, 0.0, 10.000622, 9.99832 
1.0750161e+3, 2.2504213e+2, -750760.2, -846089.7, 20772.46, -0.010399007, 0.3019587, -746430.44, -11823.415, 0.0, 10.000314, 9.999075 
1.0750017e+3, 2.3504108e+2, -661461.25, -747852.44, 32343.543, 0.08429266, 0.2726924, -650694.25, -14080.273, 0.0, 10.000241, 9.999107 
1.0749869e+3, 2.4503922e+2, -575721.7, -658553.4, 103888.47, 0.04420047, 0.18192537, -505297.97, 33330.76, 0.0, 10.000165, 9.999086 
1.0749721e+3, 2.550364e+2, -485407.94, -562424.9, 99023.69, -0.12843768, -0.026236685, -417668.63, 22984.402, 0.0, 10.000097, 9.999108 
1.07495725e+3, 2.6503557e+2, -368244.38, -450613.5, -36192.78, -0.1284772, -0.015305284, -354601.16, -11940.833, 0.000000000031670343, 10.000221, 9.999143 
1.07494265e+3, 2.750366e+2, -221925.03, -326954.1, -36070.785, 0.038726244, 0.15115683, -210730.25, 33922.293, 0.00000057346807, 10.000538, 9.999165 
1.0749274e+3, 2.8503567e+2, -117404.914, -264976.88, 21555.76, 0.05856407, 0.16749276, -114320.734, 32339.867, 0.000016659129, 10.000754, 9.998812 
1.0749115e+3, 2.9503277e+2, -3246.6912, -158608.02, 40514.984, -0.06912521, -0.025804741, 6684.0, 55369.684, 0.00011189467, 10.000851, 9.998826 
1.0748956e+3, 3.05032e+2, -29476.55, -241888.83, -45142.473, -0.09506005, 0.065743566, -20280.842, -20280.842, 0.00035149738, 10.000758, 9.997958 
1.0748796e+3, 3.1503084e+2, -53679.156, -188181.13, -24674.957, -0.018582122, 0.13093345, -49295.313, -49295.313, 0.00073250505, 10.0002575, 9.998578 
1.08518556e+3, 1.250675e+2, -1862810.8, -1774616.8, -13157.882, 0.25804442, -0.05203589, -1772695.5, -58352.09, 0.00064071716, 9.99889, 10.000122 
1.0851672e+3, 1.3506934e+2, -1461354.4, -1553857.9, 35013.816, 0.033816345, 0.12586422, -1449595.9, 166726.81, 0.00028839763, 10.001113, 9.999888 
1.0851512e+3, 1.4506821e+2, -1355865.3, -1665641.9, -106.35515, 0.03895792, 0.1277816, -1355865.3, 162470.02, 0.00006873226, 10.002076, 9.997976 
1.0851333e+3, 1.5506493e+2, -1289223.3, -1579952.0, 8480.505, -0.10260916, -0.01872402, -1288976.0, 131397.22, 0.0000030594845, 10.00185, 9.998 
1.0851166e+3, 1.6506402e+2, -1161793.6, -1336123.9, 423.67453, -0.10659038, 0.03518899, -1161792.6, 160592.22, 0.000000000186287, 10.001484, 9.999179 
1.0851013e+3, 1.7506526e+2, -1127661.5, -1268574.0, -27395.01, 0.055211682, 0.22461572, -1122523.0, 101849.42, 0.0, 10.001046, 9.999182 
1.08508535e+3, 1.8506408e+2, -1103545.5, -1325989.8, -9965.404, 0.11569303, 0.24594508, -1103099.9, 23283.82, 0.0, 10.001043, 9.998118 
1.0850685e+3, 1.950604e+2, -947175.6, -1198420.9, -19927.03, 0.06965897, 0.052641567, -945604.94, 82814.58, 0.0, 10.001443, 9.998127 
1.08505115e+3, 2.0505865e+2, -801950.75, -1074049.5, -51727.19, 0.019717008, 0.06632391, -792449.0, 137990.05, 0.0, 10.001749, 9.998159 
1.08503334e+3, 2.1505852e+2, -672765.56, -960170.6, -63362.586, -0.03506311, 0.2207118, -659416.44, 173028.47, 0.0, 10.001962, 9.998167 
1.08501695e+3, 2.2505796e+2, -564092.0, -767958.06, -9718.867, -0.013554725, 0.31113192, -563629.75, 170821.69, 0.0, 10.0016575, 9.998962 
1.0850022e+3, 2.3505679e+2, -580011.94, -722546.6, -32720.63, 0.08424979, 0.28610268, -572859.4, 63600.484, 0.0, 10.000864, 9.998983 
1.08498745e+3, 2.450548e+2, -543401.2, -611264.6, 71408.61, 0.068096176, 0.17195256, -498272.47, 40203.117, 0.0, 10.000248, 9.999375 
1.0849726e+3, 2.5505182e+2, -516390.94, -545003.4, 96980.39, -0.060151327, -0.07932936, -432667.25, 7832.5454, 0.0, 9.999754, 9.999393 
1.0849579e+3, 2.6505122e+2, -444374.4, -498344.44, 27690.715, -0.06678324, -0.056420006, -432694.63, -90189.39, 0.000000020287489, 9.9997425, 9.99904 
1.084943e+3, 2.750528e+2, -285233.94, -369811.6, 19402.488, 0.046704717, 0.17751399, -280995.34, -36501.453, 0.0000009638229, 10.000154, 9.999052 
1.084928e+3, 2.8505185e+2, -169538.44, -270547.44, 83210.984, 0.0657683, 0.18788248, -122704.49, 23798.205, 0.000015514439, 10.000309, 9.998991 
1.0849127e+3, 2.9504836e+2, -93038.54, -177072.27, 77766.29, 0.0027882678, -0.07986233, -46664.156, 1867.9702, 0.00010321646, 10.0001335, 9.999043 
1.0848966e+3, 3.0504793e+2, -89771.586, -205872.63, 19391.902, -0.03601623, 0.0042962027, -86618.27, -86618.27, 0.0003319706, 10.000077, 9.998532 
1.0848795e+3, 3.1504786e+2, -44661.965, -109528.875, 45863.277, -0.041688703, 0.11934512, -20922.746, -20922.746, 0.0007041168, 10.000026, 9.999216 
1.0951841e+3, 1.2508745e+2, -1990152.6, -2053285.8, 23981.234, 0.18630987, 0.054371163, -1982076.5, -267932.44, 0.000734217, 9.998951, 9.998182 
1.09516904e+3, 1.3508475e+2, -1592150.9, -1833454.0, 121272.25, 0.08382824, -0.025819505, -1541735.9, 74439.74, 0.00033773432, 10.00115, 9.9979515 
1.0951537e+3, 1.4508334e+2, -1315009.1, -1583999.6, -16567.361, 0.058015045, 0.015485748, -1313992.5, 204200.48, 0.0000845864, 10.00209, 9.9985285 
1.0951357e+3, 1.5508352e+2, -1257876.6, -1505720.8, 6793.78, -0.06241214, 0.16312791, -1257690.6, 162502.56, 0.0000043925156, 10.001816, 9.998524 
1.0951185e+3, 1.6508263e+2, -1196381.9, -1410531.5, -25982.463, -0.079164095, 0.21829075, -1193274.6, 128927.82, 0.0000000006358386, 10.001487, 9.998671 
1.0951023e+3, 1.750805e+2, -1155732.5, -1339005.9, -35488.58, 0.03208472, 0.12016955, -1149100.5, 75121.8, 0.0, 10.001089, 9.998682 
1.0950857e+3, 1.850782e+2, -1108070.4, -1336153.1, -2742.5393, 0.03908814, 0.059548065, -1108037.4, 18206.176, 0.0, 10.001049, 9.998043 
1.095069e+3, 1.9507556e+2, -959335.0, -1212605.1, 2880.2402, -0.04573144, -0.024725592, -959302.25, 68965.67, 0.0, 10.001396, 9.998051 
1.09505214e+3, 2.0507407e+2, -818469.1, -1095314.4, -52961.418, -0.07040836, 0.025157236, -808683.4, 121600.695, 0.0, 10.001688, 9.998047 
1.0950354e+3, 2.150736e+2, -691751.5, -980516.8, -49385.027, -0.038235806, 0.15661527, -683539.1, 148753.98, 0.0, 10.001877, 9.998071 
1.09501846e+3, 2.2507219e+2, -608818.8, -837472.25, -46879.28, -0.04292115, 0.18961228, -599580.75, 134728.36, 0.0, 10.001559, 9.99853 
1.0950015e+3, 2.3506963e+2, -624199.4, -791770.1, -54209.23, -0.078710824, 0.06414419, -608191.8, 28142.31, 0.0, 10.000767, 9.998552 
1.0949867e+3, 2.450688e+2, -494502.25, -487945.22, 45049.063, -0.040087648, 0.045004025, -446055.53, 92283.555, 0.0, 10.0001545, 10.000266 
1.0949739e+3, 2.5506958e+2, -462849.03, -418348.6, 87493.5, 0.07290428, 0.07734884, -350320.44, 90004.94, 0.0, 9.999688, 10.000294 
1.0949594e+3, 2.6506957e+2, -457476.9, -507011.47, 38743.973, 0.094377026, 0.11851819, -436260.34, -93936.625, 0.00000010014453, 9.999663, 9.99902 
1.094943e+3, 2.7506864e+2, -292435.5, -373130.1, 46896.223, 0.019839862, 0.100513205, -270918.75, -26582.592, 0.0000018004142, 10.000102, 9.999054 
1.09492786e+3, 2.8506747e+2, -166485.63, -257022.98, 69160.13, 0.017633656, 0.08150714, -129096.11, 17252.166, 0.000016749296, 10.000271, 9.9991045 
1.0949139e+3, 2.9506606e+2, -92003.73, -167055.47, 81902.41, 0.09213576, 0.009441689, -39439.668, 8920.771, 0.000099959936, 10.000089, 9.999139 
1.094898e+3, 3.050666e+2, -27191.877, -54529.496, 13677.187, 0.07227495, 0.12967144, -21524.145, -21524.145, 0.00032156563, 9.999992, 9.99961 
1.0948795e+3, 3.1506592e+2, 15125.371, 32031.389, 61843.06, -0.07484557, 0.08240578, 85996.46, 85996.46, 0.0006902331, 9.999944, 10.000236 
1.1051841e+3, 1.2510441e+2, -1627669.9, -1926819.6, -112650.336, 0.17478056, 0.15475832, -1589994.3, 123986.88, 0.00083503575, 10.001652, 9.997732 
1.10517055e+3, 1.3510075e+2, -1393115.3, -1785774.1, 79809.15, 0.03807877, 0.015250608, -1377513.8, 238510.9, 0.0003918232, 10.002704, 9.997533 
1.10515475e+3, 1.4509934e+2, -1308380.8, -1545391.5, -104184.24, -0.03013246, 0.059048537, -1269095.5, 248946.58, 0.000102570426, 10.001986, 9.998843 
1.1051369e+3, 1.5510009e+2, -1549552.6, -1610335.1, -112513.14, -0.017331613, 0.23310073, -1463398.4, -43364.227, 0.0000061708192, 9.999658, 9.998844 
1.1051199e+3, 1.6509892e+2, -1483148.4, -1570209.4, -39679.414, 0.009011044, 0.25312608, -1467777.6, -145733.02, 0.0000000015512864, 9.999623, 9.998465 
1.10510424e+3, 1.7509575e+2, -1053573.8, -1308171.6, -46164.656, 0.079087384, 0.07057704, -1045461.5, 178612.38, 0.0, 10.001885, 9.998498 
1.1050876e+3, 1.8509349e+2, -879277.56, -1219632.3, -27047.053, 0.048030585, 0.020351859, -877141.6, 248953.02, 0.0, 10.002592, 9.998106 
1.10507004e+3, 1.9509192e+2, -895936.8, -1172747.3, -24491.178, -0.085846946, 0.035335485, -893786.6, 134322.75, 0.0, 10.001794, 9.998135 
1.1050532e+3, 2.050906e+2, -910565.25, -1116797.3, -48965.105, -0.09328497, 0.08770954, -899530.06, 30593.094, 0.0, 10.000961, 9.998249 
1.10503696e+3, 2.1508941e+2, -927988.44, -1072333.1, -39523.96, 0.02267673, 0.13099444, -917874.8, -85737.91, 0.0, 10.000161, 9.998266 
1.1050199e+3, 2.2508766e+2, -822353.56, -957716.56, 8836.989, 0.017889868, 0.12822933, -821779.1, -87623.66, 0.0, 10.000167, 9.998373 
1.1050021e+3, 2.3508513e+2, -611946.5, -802801.94, 7660.09, -0.10117099, 0.020860232, -611639.56, 24541.436, 0.0, 10.000928, 9.998398 
1.1049868e+3, 2.4508469e+2, -386069.1, -456063.56, 71889.766, -0.08142075, 0.05790775, -341110.4, 197073.23, 0.0, 10.000992, 10.000077 
1.10497385e+3, 2.5508618e+2, -375820.22, -398259.28, 11227.227, 0.07486367, 0.18285623, -371167.5, 68997.69, 0.0, 10.00038, 10.000097 
1.1049593e+3, 2.6508602e+2, -391017.88, -468127.47, -33853.95, 0.12191124, 0.21358989, -378264.2, -36098.613, 0.00000018749917, 10.000093, 9.99908 
1.10494345e+3, 2.7508408e+2, -294491.84, -369173.9, -38157.74, 0.062353905, 0.093504645, -278444.06, -34257.82, 0.0000025324416, 10.000075, 9.999096 
1.10492826e+3, 2.8508297e+2, -221245.22, -242406.73, -12504.761, 0.053936128, 0.05924651, -215445.45, -69248.22, 0.000018771152, 9.999736, 9.999454 
1.1049136e+3, 2.9508263e+2, -226882.36, -193522.1, -2646.703, 0.106964834, 0.060674027, -193313.42, -145114.44, 0.00010053436, 9.999015, 9.999465 
1.10489786e+3, 3.050833e+2, -15940.274, -60135.74, -21692.674, 0.06808858, 0.1858259, -7072.1885, -7072.1885, 0.00031863083, 10.0000925, 9.999533 
1.1048807e+3, 3.1508207e+2, 403650.94, 223400.56, -93951.695, -0.070957184, 0.07942642, 443715.88, 443715.88, 0.00068517454, 10.002606, 10.00026 
1.1151854e+3, 1.2511855e+2, -1567572.0, -1795690.3, -89929.266, 0.09517791, 0.21960437, -1536384.0, 177468.56, 0.000944546, 10.001641, 9.998631 
1.1151715e+3, 1.3511749e+2, -1340455.3, -1650758.9, 126755.086, -0.1462338, 0.24564616, -1295260.0, 320608.06, 0.00045159098, 10.002609, 9.9985 
1.1151544e+3, 1.451163e+2, -1298921.4, -1526491.8, -201565.77, -0.28017798, 0.25957754, -1181242.0, 336639.34, 0.00012308804, 10.001978, 9.998983 
1.11513644e+3, 1.551149e+2, -1528951.8, -1584259.3, -190779.56, -0.036305998, 0.20090912, -1363832.1, 56061.395, 0.000008505592, 9.999723, 9.998996 
1.1151205e+3, 1.6511317e+2, -1470098.4, -1558352.5, 35619.348, 0.084463276, 0.15475796, -1457516.3, -135607.8, 0.0000000033697685, 9.999684, 9.99852 
1.1151068e+3, 1.7511104e+2, -1051500.6, -1303707.3, 43916.707, 0.13670096, 0.07416527, -1044072.25, 179854.45, 0.0, 10.001878, 9.998538 
1.11509055e+3, 1.851099e+2, -866534.8, -1186558.0, -65809.62, 0.072951525, 0.12061313, -853530.2, 272407.53, 0.0, 10.002564, 9.998345 
1.1150716e+3, 1.9510953e+2, -887092.06, -1142454.9, -49328.63, -0.11471933, 0.23289265, -877894.5, 150048.89, 0.0, 10.001742, 9.998367 
1.11505404e+3, 2.0510824e+2, -884255.5, -1050970.6, -89473.375, -0.11147863, 0.25472146, -845326.6, 84629.26, 0.0, 10.000911, 9.998723 
1.1150379e+3, 2.1510589e+2, -909795.1, -1013482.2, -61289.844, 0.08247906, 0.13052571, -881362.94, -49385.855, 0.0, 10.000068, 9.998715 
1.11502096e+3, 2.2510432e+2, -825202.8, -944096.4, 30538.418, 0.1013, 0.117044434, -817817.6, -83826.31, 0.0, 10.000085, 9.998506 
1.11500375e+3, 2.3510337e+2, -613413.6, -788344.56, 43620.832, -0.039680902, 0.15463151, -603139.7, 32860.395, 0.0, 10.000852, 9.998534 
1.1149876e+3, 2.4510251e+2, -494218.8, -660055.9, 43011.992, -0.11613732, 0.21091186, -483726.88, 54282.203, 0.0, 10.000902, 9.998719 
1.1149723e+3, 2.551016e+2, -479552.63, -601182.06, -2082.5068, -0.12729365, 0.22816081, -479516.97, -39497.004, 0.0, 10.000324, 9.99873 
1.11495785e+3, 2.651005e+2, -389601.22, -455813.8, -42986.527, -0.054822296, 0.22879542, -368450.1, -26418.623, 0.00000020790911, 10.000051, 9.999186 
1.1149441e+3, 2.750991e+2, -293648.28, -353193.4, -28542.84, 0.10293071, 0.14930497, -282176.47, -38131.4, 0.0000030041272, 10.0000105, 9.999236 
1.1149286e+3, 2.8509834e+2, -201188.52, -176104.25, -45101.11, 0.11045781, 0.12023597, -141833.83, 4215.951, 0.000021469468, 9.999633, 9.999958 
1.11491136e+3, 2.9509807e+2, -197673.23, -123672.75, -14279.077, -0.030918106, 0.071767375, -121013.06, -72965.24, 0.00010455908, 9.998976, 9.999962 
1.11489624e+3, 3.050981e+2, -110687.94, -251181.63, 70058.3, -0.11737716, 0.17425348, -81723.98, -81723.98, 0.00032151054, 10.000068, 9.998233 
1.1148827e+3, 3.1509566e+2, 310382.25, 38610.496, 19904.154, -0.1873388, 0.08192614, 311832.25, 311832.25, 0.0006861148, 10.002562, 9.999014 
1.1251859e+3, 1.2513258e+2, -1527835.8, -1682626.8, -33090.605, 0.004873926, 0.19054845, -1521058.5, 192660.9, 0.0010643419, 10.0015, 9.999483 
1.125173e+3, 1.3513309e+2, -1832950.1, -1787134.1, 142899.33, -0.063127145, 0.283839, -1665318.3, -49601.867, 0.00051804923, 9.998791, 9.999404 
1.1251552e+3, 1.4513247e+2, -1696917.6, -1712735.4, -106929.48, -0.25892875, 0.30605358, -1597604.9, -79881.54, 0.00014661087, 9.999229, 9.999025 
1.1251374e+3, 1.5513057e+2, -1083700.6, -1365950.0, -126741.99, -0.061818767, 0.193168, -1035142.2, 384599.28, 0.00001150662, 10.002765, 9.99903 
1.1251215e+3, 1.6512895e+2, -964661.6, -1293088.5, 82525.555, 0.051006474, 0.14857875, -945091.2, 376664.13, 0.0000000061074554, 10.003057, 9.998719 
1.1251076e+3, 1.7512752e+2, -1257798.6, -1377480.8, 89417.04, 0.11644665, 0.11617837, -1210046.1, 13719.653, 0.0, 10.000349, 9.99877 
1.12509154e+3, 1.851267e+2, -1304377.1, -1376755.1, 12833.605, 0.07568786, 0.17612971, -1302168.9, -176395.47, 0.0, 9.9994755, 9.998522 
1.1250731e+3, 1.9512632e+2, -1065637.9, -1210597.4, 9137.75, -0.08093729, 0.26839483, -1065064.1, -37283.92, 0.0, 10.000431, 9.998532 
1.1250554e+3, 2.0512497e+2, -850081.6, -1048765.6, -46434.66, -0.07764755, 0.2811995, -839765.06, 90028.805, 0.0, 10.001219, 9.998587 
1.1250388e+3, 2.1512248e+2, -652237.4, -898511.4, -82325.87, 0.08497911, 0.15668704, -627251.94, 204564.02, 0.0, 10.001889, 9.998621 
1.1250221e+3, 2.2512078e+2, -519205.28, -766535.9, 20800.264, 0.113680616, 0.1210812, -517468.22, 216361.48, 0.0, 10.002047, 9.998786 
1.1250056e+3, 2.3511976e+2, -459812.72, -681431.7, 30132.96, 0.019095283, 0.124059856, -455788.7, 180047.56, 0.0, 10.0017605, 9.998832 
1.1249892e+3, 2.4511863e+2, -428482.6, -680396.4, 62855.15, -0.07506533, 0.16065386, -413670.5, 124177.2, 0.0, 10.001582, 9.99825 
1.1249728e+3, 2.551172e+2, -341312.78, -587454.3, 71737.35, -0.16976403, 0.1755853, -321931.25, 117934.47, 0.0, 10.001506, 9.998255 
1.124958e+3, 2.6511604e+2, -258923.77, -407526.3, 65655.62, -0.094358124, 0.19876735, -234071.92, 107807.53, 0.00000016860811, 10.001021, 9.999046 
1.1249446e+3, 2.751149e+2, -281851.47, -362827.8, 38958.234, 0.14854492, 0.16248448, -266152.16, -22261.164, 0.0000038179373, 10.000163, 9.999092 
1.12492904e+3, 2.8511405e+2, -125035.56, -178132.61, 19738.504, 0.15908252, 0.14533013, -118501.875, 27394.99, 0.000026281929, 10.000313, 9.99962 
1.1249112e+3, 2.9511333e+2, 119496.23, -7838.59, -34381.98, -0.054336615, 0.08814464, 128186.68, 176085.27, 0.00011344339, 10.001314, 9.999632 
1.12489626e+3, 3.051128e+2, -23422.648, -199908.86, 86963.086, -0.13728, 0.1485718, 12227.038, 12227.038, 0.00033238306, 10.000644, 9.998302 
1.1248835e+3, 3.151099e+2, -319628.0, -267461.34, 109356.17, -0.12814981, 0.008012118, -181120.88, -181120.88, 0.0006975335, 9.998234, 9.999007 
1.1351858e+3, 1.2514645e+2, -1455922.9, -1539873.6, -120683.266, -0.20003988, 0.064783484, -1370123.6, 343458.47, 0.0011953667, 10.001548, 10.000435 
1.1351744e+3, 1.3514778e+2, -1760233.6, -1642960.1, 48045.22, 0.19760853, 0.14388284, -1625790.5, -10222.486, 0.00059164723, 9.998828, 10.000375 
1.1351566e+3, 1.4514798e+2, -1697545.4, -1722020.3, 17256.475, -0.060724467, 0.20460056, -1688627.6, -171060.8, 0.00017336896, 9.999261, 9.99895 
1.1351394e+3, 1.5514715e+2, -1093114.1, -1380046.5, 12047.751, -0.1549426, 0.20995018, -1092609.1, 326968.53, 0.000015247707, 10.00274, 9.998947 
1.1351227e+3, 1.6514632e+2, -943745.8, -1241447.6, -28877.025, -0.15861033, 0.22784197, -940970.6, 380614.25, 0.000000009421829, 10.003021, 9.999089 
1.1351065e+3, 1.7514525e+2, -1231884.6, -1325341.9, -5010.151, -0.04621644, 0.19582082, -1231616.8, -8026.089, 0.0, 10.000357, 9.999123 
1.13509044e+3, 1.8514398e+2, -1290089.1, -1356006.6, 38329.1, -0.007821121, 0.18532357, -1272496.9, -146895.06, 0.0, 9.999509, 9.99865 
1.135074e+3, 1.9514234e+2, -1063875.3, -1198229.1, 50167.02, -0.04708882, 0.14014661, -1047210.25, -19590.48, 0.0, 10.00039, 9.998639 
1.135057e+3, 2.0514083e+2, -912498.75, -1167650.3, -30274.549, -0.057070617, 0.17059167, -908955.75, 20680.541, 0.0, 10.00117, 9.997795 
1.1350397e+3, 2.1513923e+2, -719706.4, -1017956.44, -52933.1, -0.02659583, 0.21466161, -710590.5, 121062.51, 0.0, 10.001796, 9.9978485 
1.1350231e+3, 2.251371e+2, -500523.13, -702349.7, -15.040737, -0.004852763, 0.14878069, -500523.13, 233147.19, 0.0, 10.00194, 9.999275 
1.1350073e+3, 2.3513432e+2, -443029.7, -622863.94, 27246.014, 0.012851507, -0.072561055, -438992.38, 196697.17, 0.0, 10.001659, 9.999282 
1.13499135e+3, 2.4513306e+2, -408161.7, -623154.8, 51906.957, -0.02738907, -0.09143313, -396285.56, 141413.98, 0.0, 10.001515, 9.998676 
1.13497496e+3, 2.551331e+2, -317572.94, -525053.25, 75552.69, -0.111884646, 0.026105816, -292976.7, 146725.3, 0.0, 10.001448, 9.998713 
1.13495946e+3, 2.6513267e+2, -296294.44, -472613.97, 29148.855, -0.05592227, 0.11937777, -291600.56, 50108.81, 0.00000020663475, 10.000963, 9.9986315 
1.1349447e+3, 2.7513152e+2, -321446.5, -434575.25, 21013.42, 0.12819159, 0.12750627, -317669.4, -73945.62, 0.0000055002247, 10.000116, 9.998626 
1.13492906e+3, 2.8513002e+2, -221352.17, -364865.7, 49914.21, 0.12344868, 0.1348806, -205699.2, -59960.547, 0.00003348711, 10.000261, 9.998359 
1.1349128e+3, 2.951282e+2, 27261.723, -185625.95, 12149.706, -0.040687274, 0.09216189, 27952.875, 75706.58, 0.00012779766, 10.001254, 9.998438 
1.13489784e+3, 3.051273e+2, 64470.1, 8583.53, -9730.814, -0.057853047, 0.09434132, 66115.94, 66115.94, 0.00035402225, 10.000535, 9.999786 
1.1348831e+3, 3.151247e+2, -245704.69, -77330.03, 39750.11, -0.029172024, -0.16430494, -68417.54, -68417.54, 0.0007264602, 9.998082, 10.00038 
1.1451876e+3, 1.2516305e+2, -1359966.6, -1563594.9, -17514.03, -0.21646085, 0.065615214, -1358471.3, 354947.0, 0.0013373722, 10.002487, 9.99984 
1.1451757e+3, 1.3516371e+2, -1403040.3, -1537641.5, -31265.545, 0.29871413, 0.13680983, -1396132.4, 219279.72, 0.000672049, 10.001541, 9.99981 
1.1451571e+3, 1.4516364e+2, -1489740.9, -1594751.5, 30720.775, -0.0016213352, 0.18540645, -1481413.8, 35999.9, 0.0002032588, 10.000569, 9.999191 
1.14514075e+3, 1.5516332e+2, -1521343.9, -1560380.9, 25883.387, -0.13860612, 0.21810299, -1508444.4, -89025.984, 0.000019742625, 9.999692, 9.999176 
1.14512414e+3, 1.6516253e+2, -1436114.6, -1487180.6, -83852.31, -0.13756436, 0.2362122, -1373994.0, -52569.18, 0.000000013934886, 9.999677, 9.999013 
1.1451075e+3, 1.7516114e+2, -1217109.3, -1327149.5, -105655.82, 0.014371136, 0.17568551, -1153006.1, 70428.82, 0.0, 10.000493, 9.999045 
1.1450913e+3, 1.8515973e+2, -1052961.6, -1236320.9, -5033.675, 0.052781664, 0.1530426, -1052823.5, 72624.4, 0.0, 10.001121, 9.998692 
1.1450752e+3, 1.9515817e+2, -873919.75, -1095470.5, -17254.031, -0.025242932, 0.10990246, -872584.06, 154880.98, 0.0, 10.001659, 9.998723 
1.1450585e+3, 2.051568e+2, -817315.56, -1083869.9, -64853.09, -0.04052247, 0.13415453, -802374.2, 127105.1, 0.0, 10.001657, 9.99814 
1.1450415e+3, 2.1515547e+2, -787320.6, -1009960.7, -14409.256, 0.015350092, 0.1707379, -786391.94, 45100.08, 0.0, 10.00116, 9.99821 
1.14502475e+3, 2.2515374e+2, -652827.94, -785864.06, 64880.855, 0.027520135, 0.13230333, -626425.75, 107079.92, 0.0, 10.000934, 9.999188 
1.1450086e+3, 2.3515145e+2, -550711.1, -683495.1, 33587.824, -0.0003092184, -0.032744057, -542698.56, 92823.31, 0.0, 10.000947, 9.999212 
1.14499256e+3, 2.4515003e+2, -511249.34, -664127.44, 38168.707, -0.015496527, -0.06966132, -502249.63, 35283.703, 0.0, 10.000778, 9.998746 
1.1449769e+3, 2.5514928e+2, -446368.22, -574574.7, 17917.19, -0.010283984, -0.039524265, -443911.3, -4369.734, 0.0, 10.000528, 9.998804 
1.14496104e+3, 2.6514876e+2, -338462.72, -522981.38, -19795.86, 0.015650585, 0.05534974, -336362.84, 5186.2666, 0.00000038376965, 10.000792, 9.998371 
1.1449448e+3, 2.7514827e+2, -135928.3, -374482.63, -27923.484, 0.055865426, 0.15218307, -132703.36, 110854.734, 0.0000075917305, 10.001505, 9.998372 
1.1449293e+3, 2.851466e+2, -80530.71, -323013.03, 71981.55, 0.062482923, 0.16467737, -60772.71, 84802.6, 0.0000412879, 10.001333, 9.998135 
1.14491455e+3, 2.951438e+2, -137339.03, -291034.75, 94000.81, 0.06154889, 0.05030113, -92771.29, -45171.348, 0.00014478626, 10.000231, 9.998212 
1.1448995e+3, 3.0514285e+2, 14781.312, -21400.809, 37162.38, 0.08768833, 0.06173309, 38022.188, 38022.188, 0.00038253577, 10.000198, 9.999746 
1.1448833e+3, 3.1514123e+2, 170302.97, 111579.97, -65089.83, 0.051792853, -0.09784479, 212347.23, 212347.23, 0.00077112904, 10.000989, 10.000276 
1.1551909e+3, 1.25182e+2, -1501903.4, -1844402.4, -9781.708, -0.15948866, 0.16593859, -1501624.3, 211607.4, 0.001489488, 10.00244, 9.997925 
1.15517616e+3, 1.3518092e+2, -1532524.3, -1812723.9, -60573.098, 0.18066522, 0.25689673, -1519990.3, 95257.48, 0.00075867696, 10.001571, 9.997902 
1.1551565e+3, 1.4517954e+2, -1449893.6, -1527380.9, -9941.818, -0.13831998, 0.24443428, -1448638.4, 68623.984, 0.0002361324, 10.000625, 9.999634 
1.15514114e+3, 1.5517908e+2, -1481344.0, -1490232.9, 926.2084, -0.09058055, 0.2166951, -1481248.5, -61985.156, 0.000024990082, 9.999738, 9.999639 
1.1551257e+3, 1.6517767e+2, -1462528.5, -1547803.9, -62483.55, 0.027962605, 0.17001887, -1429521.3, -108246.3, 0.000000023716384, 9.999706, 9.998581 
1.1551104e+3, 1.7517526e+2, -1248414.9, -1390056.3, -68615.59, 0.23189431, 0.053517222, -1220626.9, 2670.6492, 0.0, 10.000491, 9.9986105 
1.155094e+3, 1.8517411e+2, -1060740.6, -1253170.3, 7304.5747, 0.19069335, 0.08211285, -1060463.8, 64846.363, 0.0, 10.00112, 9.998579 
1.1550764e+3, 1.9517387e+2, -887031.3, -1111726.9, 8089.6963, -0.08642388, 0.18202442, -886740.44, 140574.66, 0.0, 10.001607, 9.998641 
1.1550597e+3, 2.0517294e+2, -717052.44, -862245.2, -96698.016, -0.09787619, 0.17530124, -668732.56, 260589.97, 0.0, 10.001596, 9.99969 
1.1550441e+3, 2.151712e+2, -695333.3, -799477.5, -26497.777, 0.14480864, 0.014780064, -688979.06, 142354.44, 0.0, 10.001068, 9.999702 
1.155027e+3, 2.251707e+2, -715249.4, -890718.9, 56981.707, 0.14484169, 0.06061173, -698369.1, 34967.145, 0.0, 10.000832, 9.998515 
1.1550087e+3, 2.351712e+2, -610885.06, -786838.06, 41093.67, -0.0833034, 0.24196012, -601760.8, 33571.996, 0.0, 10.000859, 9.998543 
1.1549926e+3, 2.4516952e+2, -543088.3, -711231.7, 18057.863, -0.101465836, 0.22781828, -541170.9, -3821.7744, 0.0, 10.000694, 9.998464 
1.1549784e+3, 2.551657e+2, -479554.5, -624643.8, 15330.932, 0.07438921, -0.021039091, -477952.22, -38567.586, 0.0, 10.000443, 9.998502 
1.1549624e+3, 2.6516432e+2, -355095.6, -541644.0, 389.1428, 0.058507152, 0.0056679123, -355094.78, -13695.686, 0.0000005356376, 10.000723, 9.998277 
1.15494445e+3, 2.7516502e+2, -146663.39, -379389.75, 7209.7603, -0.14046653, 0.22649692, -146440.25, 96955.39, 0.000008957139, 10.001432, 9.998373 
1.1549292e+3, 2.851637e+2, -27834.338, -192536.63, 24178.172, -0.09463803, 0.22635937, -24358.36, 121049.11, 0.00004724257, 10.001244, 9.999075 
1.15491614e+3, 2.9516035e+2, -83954.27, -171992.47, 68738.914, 0.1785753, -0.035777476, -46347.89, 1087.6251, 0.0001595295, 10.000186, 9.999055 
1.1549012e+3, 3.0515966e+2, -127063.734, -290077.1, 66945.36, 0.22264796, 0.05580649, -103095.2, -103095.2, 0.000411773, 10.000103, 9.997939 
1.1548838e+3, 3.1515935e+2, 28303.64, -157873.25, -12498.212, -0.040454168, 0.20648511, 29138.908, 29138.908, 0.0008237991, 10.000884, 9.998469 
1.1651929e+3, 1.251986e+2, -1679474.1, -1907644.0, -37028.28, -0.13426225, 0.18538861, -1673615.5, 39454.48, 0.0016512593, 10.001127, 9.998109 
1.16517685e+3, 1.3519782e+2, -1475353.4, -1780658.4, -35710.406, 0.08377586, 0.29910618, -1471232.1, 143849.2, 0.0008513687, 10.001945, 9.997938 
1.1651573e+3, 1.4519586e+2, -1315751.6, -1502192.8, 35483.363, -0.16134076, 0.24789245, -1309226.9, 207874.2, 0.00027198074, 10.001728, 9.999269 
1.16514236e+3, 1.5519458e+2, -1378505.1, -1479853.5, -29068.1, 0.01776463, 0.17293589, -1370759.9, 48351.465, 0.00003101119, 10.000618, 9.999283 
1.1651271e+3, 1.6519319e+2, -1309785.0, -1453589.3, -10360.921, 0.15342067, 0.13665448, -1309042.4, 12081.266, 0.00000004774233, 10.000673, 9.99876 
1.16511196e+3, 1.751916e+2, -1035345.56, -1268788.5, 10107.059, 0.26771072, 0.08512463, -1034908.8, 188230.05, 0.0, 10.001874, 9.99878 
1.1650951e+3, 1.8519069e+2, -1006416.44, -1228213.3, 65745.32, 0.18588698, 0.13240995, -988392.75, 136756.05, 0.0, 10.001487, 9.998576 
1.16507694e+3, 1.9519031e+2, -1172037.5, -1248405.8, 63630.92, -0.09129027, 0.21710637, -1136013.0, -108857.8, 0.0, 9.999641, 9.998652 
1.1650603e+3, 2.051894e+2, -992488.5, -977781.1, -27106.83, -0.091751106, 0.20621507, -957048.2, -27885.95, 0.0, 9.999639, 9.999835 
1.1650455e+3, 2.151879e+2, -642262.25, -753192.0, -82147.516, 0.17412558, 0.052860554, -598608.2, 232562.69, 0.0, 10.001353, 9.999876 
1.16502844e+3, 2.2518747e+2, -586421.9, -859975.9, -50186.316, 0.16375582, 0.108439825, -577505.3, 155668.95, 0.0, 10.001852, 9.998234 
1.1650095e+3, 2.3518778e+2, -579346.94, -801105.5, -50779.586, -0.097109005, 0.29859084, -568272.2, 66902.83, 0.0, 10.001206, 9.998276 
1.1649934e+3, 2.4518621e+2, -500538.97, -702839.7, -25509.973, -0.10300039, 0.31220877, -497371.75, 39819.39, 0.0, 10.00103, 9.998362 
1.1649796e+3, 2.551827e+2, -367636.13, -584555.4, -30470.777, 0.12030391, 0.110127814, -363437.16, 75785.46, 0.0, 10.001254, 9.998395 
1.1649635e+3, 2.6518083e+2, -331411.7, -508497.44, -18408.336, 0.09945726, 0.08202789, -329518.34, 11721.749, 0.00000056359414, 10.000804, 9.998459 
1.1649449e+3, 2.7518022e+2, -386418.2, -477547.25, -13502.511, -0.14332177, 0.15594484, -384459.63, -141213.22, 0.00000928475, 9.999718, 9.998527 
1.1649294e+3, 2.8517908e+2, -246771.2, -266458.94, 18.852148, -0.10258973, 0.1509476, -246771.19, -101515.09, 0.000050363375, 9.999598, 9.99936 
1.1649166e+3, 2.951774e+2, -38008.145, -113086.586, -24587.166, 0.20126556, 0.027423793, -30672.854, 16596.646, 0.00017032117, 10.000355, 9.999372 
1.1649016e+3, 3.0517712e+2, -45675.473, -259928.14, 58027.15, 0.23054448, 0.14785081, -30969.127, -30969.127, 0.0004381968, 10.000695, 9.997871 
1.16488405e+3, 3.1517652e+2, -67304.7, -224032.66, 84696.6, -0.070550516, 0.27771428, -30280.52, -30280.52, 0.0008746987, 10.000314, 9.9983015 
1.1751933e+3, 1.2521316e+2, -1535033.3, -1603747.0, 28307.865, -0.24168979, 0.12535937, -1524873.5, 188056.34, 0.0018234614, 10.001119, 10.000198 
1.1751776e+3, 1.3521446e+2, -1354109.4, -1522121.0, -3722.5383, -0.054009907, 0.2636619, -1354027.0, 260885.3, 0.0009506097, 10.001912, 9.99973 
1.1751595e+3, 1.4521267e+2, -1400453.1, -1667635.6, -15782.731, -0.14030723, 0.19551393, -1399524.0, 117406.02, 0.00031097958, 10.001682, 9.998154 
1.1751442e+3, 1.5520985e+2, -1452953.0, -1638795.5, -60169.492, 0.119398355, 0.08234198, -1435173.1, -16211.057, 0.00003785508, 10.000638, 9.998181 
1.1751281e+3, 1.652091e+2, -1257791.4, -1353456.4, 27868.805, 0.16887136, 0.13039953, -1250264.9, 70705.7, 0.00000010132158, 10.000704, 9.999433 
1.1751119e+3, 1.7521009e+2, -989182.4, -1169138.1, 60049.258, 0.06863715, 0.26406792, -970984.8, 251974.11, 0.0, 10.001855, 9.999474 
1.1750947e+3, 1.8520953e+2, -999414.2, -1207331.9, -13391.215, -0.019464992, 0.30430543, -998555.25, 126408.77, 0.0, 10.001462, 9.998731 
1.1750765e+3, 1.9520745e+2, -1167335.8, -1233042.3, 4259.372, -0.10487652, 0.20234062, -1167060.9, -140074.98, 0.0, 9.999616, 9.998771 
1.1750602e+3, 2.0520625e+2, -1087685.8, -1164696.4, 28542.146, -0.08832169, 0.21960622, -1078260.8, -149262.48, 0.0, 9.999592, 9.998576 
1.1750455e+3, 2.1520567e+2, -741706.44, -940879.4, -12800.354, 0.03539913, 0.28636757, -740887.1, 90116.23, 0.0, 10.0012665, 9.998633 
1.17502905e+3, 2.2520399e+2, -591795.3, -844660.94, -83808.95, 0.026348455, 0.2717408, -566540.3, 166479.81, 0.0, 10.001739, 9.998396 
1.1750107e+3, 2.3520121e+2, -582309.25, -781668.7, -65887.38, -0.10938498, 0.13323055, -562501.8, 72546.62, 0.0, 10.001099, 9.998461 
1.1749946e+3, 2.4520008e+2, -511871.22, -703868.44, -24432.805, -0.095191374, 0.18371668, -508810.78, 28248.416, 0.0, 10.000929, 9.998405 
1.1749805e+3, 2.5520036e+2, -368691.38, -574439.06, -14720.268, 0.060189087, 0.34953734, -367643.53, 71411.984, 0.0, 10.0012, 9.99849 
1.1749642e+3, 2.651983e+2, -315842.22, -459739.25, -68098.97, 0.08346216, 0.28098568, -288724.8, 52347.72, 0.0000005132723, 10.000732, 9.99883 
1.17494605e+3, 2.7519384e+2, -373292.16, -432709.28, -43494.523, -0.024725948, -0.06726926, -350328.4, -107217.49, 0.000009286575, 9.999643, 9.998869 
1.1749298e+3, 2.8519276e+2, -291935.28, -344489.7, 22606.71, -0.034695618, -0.056930285, -283549.03, -138428.27, 0.00005131962, 9.999526, 9.99886 
1.17491566e+3, 2.9519477e+2, -65343.176, -170118.53, 13520.444, 0.050899994, 0.23250215, -63626.59, -16522.355, 0.00017691198, 10.00034, 9.998991 
1.1749005e+3, 3.0519503e+2, 73086.68, 11825.24, 41096.68, 0.039362133, 0.32338226, 93711.96, 93711.96, 0.00045575172, 10.000602, 9.999779 
1.1748834e+3, 3.151928e+2, 32033.383, 10681.439, 93494.11, -0.19222179, 0.10210849, 115459.086, 115459.086, 0.00090608484, 10.000201, 9.999964 
1.1851949e+3, 1.2522894e+2, -1507371.0, -1495318.0, 69037.28, -0.17315574, 0.16676793, -1432044.6, 280731.44, 0.0020081834, 10.000906, 10.001044 
1.18517846e+3, 1.3522947e+2, -1706179.1, -1623110.0, -95458.516, -0.01226327, 0.16223188, -1560541.5, 54220.46, 0.0010574218, 9.999194, 10.000354 
1.1851614e+3, 1.4522824e+2, -1711689.9, -1788107.4, -40977.727, -0.0017645737, 0.10706958, -1693871.1, -177097.78, 0.00035351914, 9.999423, 9.998412 
1.1851446e+3, 1.552269e+2, -1318559.8, -1543696.5, -8681.057, 0.06969781, 0.11172149, -1318225.5, 100567.99, 0.00004562391, 10.001433, 9.998447 
1.1851283e+3, 1.6522646e+2, -1126869.5, -1305838.0, 91965.04, 0.07413285, 0.18562204, -1088037.8, 232762.34, 0.00000019883093, 10.001662, 9.999304 
1.1851128e+3, 1.7522675e+2, -1219051.5, -1288809.8, 52300.28, 0.052906457, 0.26073188, -1191066.8, 31728.7, 0.0, 10.000315, 9.999393 
1.18509606e+3, 1.85226e+2, -1130317.6, -1246667.5, -31565.389, 0.017746154, 0.27492127, -1122305.6, 2495.9968, 0.0, 10.000473, 9.998934 
1.185078e+3, 1.9522417e+2, -796579.25, -1028115.94, -30714.283, -0.04185452, 0.17866102, -792574.1, 234245.02, 0.0, 10.002064, 9.998992 
1.1850614e+3, 2.0522298e+2, -761836.4, -1056275.5, 51550.1, -0.039071333, 0.20735234, -753071.94, 175759.67, 0.0, 10.002034, 9.998145 
1.18504636e+3, 2.152221e+2, -882379.44, -1055097.3, 61202.87, 0.03285359, 0.2875393, -862891.06, -32049.305, 0.0, 10.000502, 9.998217 
1.18503004e+3, 2.2522007e+2, -804724.75, -946711.06, 33943.316, 0.030866634, 0.25651756, -797027.5, -64164.8, 0.0, 10.000274, 9.998397 
1.18501246e+3, 2.3521683e+2, -562370.6, -770700.9, 19642.906, -0.047084443, 0.07314735, -560534.75, 74359.93, 0.0, 10.001227, 9.998473 
1.1849961e+3, 2.452159e+2, -412301.13, -626152.4, 72903.305, -0.06354191, 0.12706865, -389812.75, 147090.56, 0.0, 10.001489, 9.998671 
1.1849809e+3, 2.552169e+2, -361103.5, -545676.4, 80859.48, -0.017858837, 0.34126383, -330690.97, 108201.68, 0.0, 10.0011425, 9.998719 
1.1849645e+3, 2.6521504e+2, -310700.78, -450833.6, 6118.1685, 0.042645577, 0.28043193, -310434.2, 30472.979, 0.0000005059796, 10.000744, 9.998884 
1.1849471e+3, 2.7521035e+2, -279443.3, -382600.06, -13298.291, 0.10368477, -0.092566915, -277756.56, -34809.746, 0.000009353779, 10.000273, 9.998908 
1.1849308e+3, 2.8520915e+2, -223951.34, -322311.13, 117345.32, 0.0846952, -0.09094931, -145896.86, -939.1007, 0.000051335024, 10.000061, 9.998743 
1.1849154e+3, 2.9521114e+2, -117683.21, -206710.84, 115159.82, 0.012285971, 0.21376283, -38733.406, 8208.436, 0.00017968877, 10.000055, 9.998867 
1.1849004e+3, 3.0521107e+2, -11960.273, -3704.5554, 68307.56, -0.00019897669, 0.26149112, 60599.758, 60599.758, 0.00045955076, 9.999882, 10.000024 
1.1848843e+3, 3.152092e+2, -85409.125, -34707.508, -39687.26, -0.07815593, 0.05734979, -12965.405, -12965.405, 0.0009064869, 9.999316, 10.000085 
1.1951969e+3, 1.2524588e+2, -1533485.4, -1537436.9, -32152.473, -0.10117835, 0.29264587, -1503248.0, 209361.75, 0.0022081332, 10.000856, 10.000776 
1.1951791e+3, 1.35243e+2, -1727667.0, -1673602.0, -147036.89, 0.12431298, -0.013958401, -1551133.4, 63495.48, 0.0011730703, 9.999218, 9.999994 
1.1951627e+3, 1.4524277e+2, -1604456.1, -1572731.5, 29932.574, 0.17028359, -0.026895212, -1554718.0, -38088.723, 0.00040013902, 9.999453, 9.999877 
1.1951437e+3, 1.5524569e+2, -1219357.3, -1339708.9, 72023.586, -0.17859463, 0.25890467, -1185679.4, 232926.36, 0.00005450229, 10.001434, 9.999851 
1.1951276e+3, 1.6524525e+2, -1183810.6, -1423316.0, 28892.34, -0.1853515, 0.3045093, -1180374.6, 140237.88, 0.00000035173326, 10.001657, 9.998501 
1.19511425e+3, 1.7524168e+2, -1277066.8, -1406664.4, 9945.538, 0.15853383, 0.07595434, -1276307.9, -53660.29, 0.0, 10.000302, 9.998592 
1.1950986e+3, 1.8524022e+2, -1115704.5, -1216854.0, 20791.441, 0.2213113, 0.047804117, -1111597.5, 13063.116, 0.0, 10.000473, 9.999139 
1.19508095e+3, 1.9524054e+2, -789228.25, -1003506.06, 34401.816, 0.027494919, 0.14633657, -783840.56, 242814.3, 0.0, 10.002017, 9.9991865 
1.1950638e+3, 2.0523956e+2, -742144.06, -996861.7, -16349.513, -0.0098122535, 0.1647412, -741098.9, 187564.28, 0.0, 10.001959, 9.998589 
1.1950477e+3, 2.1523723e+2, -865599.94, -997740.56, 11141.468, 0.10025817, 0.053332917, -864667.1, -33981.36, 0.0, 10.000409, 9.998653 
1.19503126e+3, 2.2523569e+2, -831267.6, -980612.4, 61534.195, 0.10871869, 0.060357463, -809180.4, -76478.51, 0.0, 10.000179, 9.99821 
1.1950145e+3, 2.3523471e+2, -585488.9, -800590.56, 61261.15, 0.026976207, 0.12181041, -569265.25, 65448.02, 0.0, 10.001149, 9.998305 
1.1949976e+3, 2.4523364e+2, -390862.8, -565044.25, 51441.72, -0.07490721, 0.1462152, -376804.9, 159918.38, 0.0, 10.001414, 9.999129 
1.1949804e+3, 2.5523233e+2, -341306.94, -484645.25, 75680.33, -0.19161424, 0.08318766, -308745.7, 129987.805, 0.0, 10.001058, 9.999178 
1.194964e+3, 2.652311e+2, -349350.25, -513437.13, -17796.313, -0.09953068, 0.08299844, -347442.28, -6699.3057, 0.0000006389743, 10.000661, 9.998497 
1.1949483e+3, 2.752298e+2, -310638.16, -434226.06, -19676.842, 0.17491674, 0.0823808, -307580.97, -64827.46, 0.000009301616, 10.0002165, 9.99858 
1.1949322e+3, 2.8522828e+2, -217647.05, -297111.44, 110155.06, 0.19758315, 0.05817295, -140277.64, 4488.756, 0.000051838055, 10.000004, 9.998946 
1.1949156e+3, 2.9522637e+2, -113410.08, -188222.66, 128209.57, 0.003207483, -0.04976887, -17261.422, 29521.725, 0.00018142357, 10.000006, 9.999021 
1.19490065e+3, 3.05225e+2, -147733.23, -252751.05, 44564.6, 0.03637977, -0.051378272, -131371.33, -131371.33, 0.00045547623, 9.999753, 9.998369 
1.1948861e+3, 3.1522572e+2, -218956.25, -266404.06, -40095.81, 0.14211877, 0.15805025, -196091.56, -196091.56, 0.0008857679, 9.999137, 9.9985695 
1.20519824e+3, 1.252629e+2, -1789847.3, -1670847.1, 22992.744, 0.041946363, 0.29428867, -1666559.1, 45880.863, 0.0024257244, 9.9991255, 10.000704 
1.2051785e+3, 1.3525958e+2, -1531256.8, -1571478.3, -30673.203, 0.073939115, -0.056938235, -1514689.4, 99774.69, 0.0012988481, 10.000542, 10.000053 
1.2051632e+3, 1.4525953e+2, -1414552.3, -1502170.3, 145396.94, 0.21604912, -0.04664025, -1306507.8, 209955.27, 0.00045139206, 10.000842, 9.999697 
1.2051449e+3, 1.5526208e+2, -1439735.6, -1459609.6, 48439.875, -0.1228454, 0.21883318, -1400224.0, 18218.62, 0.00006471426, 9.999986, 9.999726 
1.2051285e+3, 1.6526172e+2, -1426927.0, -1508601.0, -22840.047, -0.15164386, 0.26385272, -1420973.8, -100524.85, 0.00000057087306, 9.999861, 9.998774 
1.2051145e+3, 1.7525858e+2, -1219882.6, -1345965.9, 20068.945, 0.145378, 0.049265947, -1216765.4, 5715.359, 0.0, 10.000561, 9.998878 
1.205099e+3, 1.852573e+2, -1074236.8, -1173786.9, 118568.79, 0.20552778, 0.013920881, -995419.0, 129072.18, 0.0, 10.000657, 9.999342 
1.205082e+3, 1.9525753e+2, -1035929.7, -1098619.5, 119151.94, 0.040653825, 0.08236382, -944068.75, 82415.41, 0.0, 10.00022, 9.999393 
1.2050654e+3, 2.0525637e+2, -970393.5, -1143998.3, 26049.088, 0.02038057, 0.09041855, -966569.1, -38075.004, 0.0, 10.0005455, 9.99826 
1.2050489e+3, 2.1525382e+2, -718338.8, -963010.3, -21300.633, 0.13618983, -0.012213495, -716498.3, 114022.74, 0.0, 10.001564, 9.998341 
1.2050323e+3, 2.252524e+2, -599803.56, -858239.9, 43627.14, 0.12589985, 0.019699186, -592637.44, 139898.61, 0.0, 10.001724, 9.998307 
1.2050154e+3, 2.3525189e+2, -583366.0, -789994.6, 48530.59, 0.0023657517, 0.12028291, -572535.4, 62006.434, 0.0, 10.001124, 9.998392 
1.2049984e+3, 2.4525072e+2, -498040.84, -624340.7, 23084.586, -0.08838466, 0.1334203, -493953.78, 42599.17, 0.0, 10.000712, 9.999053 
1.20498136e+3, 2.5524876e+2, -429822.44, -534947.7, -9458.677, -0.1616773, 0.010706712, -428978.16, 9592.557, 0.00000000020898414, 10.00048, 9.999108 
1.2049648e+3, 2.6524776e+2, -340203.4, -500841.0, -74065.58, -0.07780299, 0.033814088, -311266.44, 29312.275, 0.00000074892756, 10.000694, 9.998559 
1.2049487e+3, 2.7524754e+2, -147128.94, -349815.53, -62091.676, 0.15076585, 0.13564157, -129620.06, 112959.24, 0.000009032264, 10.001312, 9.998626 
1.2049325e+3, 2.8524595e+2, -114633.81, -282128.63, 46832.63, 0.19501181, 0.1169576, -102428.51, 42164.5, 0.000052112464, 10.000853, 9.998648 
1.2049159e+3, 2.952429e+2, -233056.14, -279494.78, 4100.794, 0.07466467, -0.07179743, -232696.8, -186076.36, 0.00018285186, 9.999327, 9.998725 
1.2049007e+3, 3.052408e+2, -220292.44, -289903.6, 22029.2, 0.085362144, -0.132179, -213906.83, -213906.83, 0.00045304873, 9.9992695, 9.99834 
1.2048856e+3, 3.152425e+2, -53340.805, -177332.67, 20370.146, 0.13105485, 0.1829441, -50080.023, -50080.023, 0.00086639443, 10.000246, 9.998641 
1.2151974e+3, 1.2527947e+2, -1786833.3, -1656564.1, -37452.797, 0.017564276, 0.11778005, -1646564.0, 65708.07, 0.0026624324, 9.9991, 10.000811 
1.21517636e+3, 1.3527915e+2, -1510135.9, -1525500.3, 26710.756, -0.1924986, 0.030745963, -1490024.5, 124243.71, 0.0014356553, 10.000541, 10.000368 
1.21516295e+3, 1.4527842e+2, -1520653.8, -1727218.5, 105825.22, 0.08853075, 0.036951907, -1476063.8, 40211.484, 0.0005075534, 10.000865, 9.99814 
1.2151478e+3, 1.5527622e+2, -1545355.1, -1683938.3, 28323.746, 0.15550493, -0.012275615, -1539789.9, -121486.805, 0.000076397075, 10.000004, 9.998181 
1.215131e+3, 1.65276e+2, -1337441.8, -1324643.8, -3566.654, 0.08613007, 0.058366988, -1323716.9, -3408.6665, 0.0000008702971, 9.999868, 10.00003 
1.2151134e+3, 1.7527743e+2, -1136923.3, -1170300.0, 52461.67, -0.03832789, 0.17569262, -1098559.6, 123735.055, 0.0, 10.000542, 10.000094 
1.215097e+3, 1.8527712e+2, -1054761.8, -1131241.9, 92431.56, -0.079999745, 0.16364728, -992972.3, 131321.78, 0.0, 10.000648, 9.999639 
1.21508144e+3, 1.9527514e+2, -1024090.0, -1068535.9, 110809.27, -0.06757126, -0.018238172, -933297.2, 93009.56, 0.0, 10.000194, 9.999617 
1.21506564e+3, 2.0527345e+2, -1057233.1, -1309068.8, 54640.688, -0.020292033, -0.01624662, -1045888.75, -117564.65, 0.0, 10.0004835, 9.997153 
1.2150501e+3, 2.152719e+2, -808279.6, -1124905.4, 22215.457, 0.07299389, 0.09272107, -806728.5, 23618.291, 0.0, 10.001458, 9.997277 
1.2150331e+3, 2.2527024e+2, -591706.9, -817580.56, 10996.501, 0.016468856, 0.13326721, -591172.8, 141192.23, 0.0, 10.001619, 9.99864 
1.2150149e+3, 2.3526838e+2, -573480.6, -748283.25, 34092.313, -0.17695518, 0.06388519, -567066.8, 67313.195, 0.0, 10.001033, 9.998723 
1.21499844e+3, 2.4526715e+2, -555958.75, -720664.6, 8131.299, -0.1728949, 0.08601006, -555558.3, -19166.273, 0.0, 10.000612, 9.998437 
1.21498376e+3, 2.5526625e+2, -481666.06, -626897.56, -9488.873, 0.014224546, 0.12892541, -481048.72, -42645.105, 0.00000000018849695, 10.000415, 9.998507 
1.2149669e+3, 2.6526505e+2, -314859.1, -435078.4, -57559.555, 0.047228176, 0.13619481, -291744.5, 48669.715, 0.00000061447383, 10.000633, 9.999043 
1.2149482e+3, 2.752635e+2, -121458.9, -286262.7, -30839.463, -0.050242383, 0.05452987, -115877.016, 126548.305, 0.000008322687, 10.001262, 9.999089 
1.2149314e+3, 2.852621e+2, -194544.33, -422602.06, -18352.61, -0.010205422, 0.082860105, -193076.88, -48638.758, 0.000050693892, 10.000749, 9.997732 
1.21491626e+3, 2.9526085e+2, -300160.25, -404208.47, -37227.508, 0.15205018, 0.15709694, -288212.53, -241759.08, 0.00018217303, 9.999264, 9.997896 
1.2149e+3, 3.0525842e+2, -127092.96, -74935.55, 55265.633, 0.07936152, 0.031621866, -39904.61, -39904.61, 0.00045205725, 9.999183, 9.999857 
1.21488206e+3, 3.152593e+2, 52110.055, 76844.31, 78613.24, -0.27519327, 0.109797634, 144057.25, 144057.25, 0.00085648143, 10.00011, 10.000445 
1.225197e+3, 1.2529695e+2, -1873934.5, -1771379.6, -34672.3, 0.09722375, 0.047082245, -1760757.5, -48660.89, 0.0029179724, 9.998779, 10.000193 
1.2251771e+3, 1.352973e+2, -1474308.8, -1547114.9, 29990.453, -0.19007193, 0.063193254, -1463546.0, 150544.44, 0.0015834377, 10.000942, 10.00003 
1.2251634e+3, 1.4529671e+2, -1406534.8, -1648212.5, 69012.41, 0.022377113, 0.08702197, -1388216.4, 127880.18, 0.00056846405, 10.00155, 9.998348 
1.2251487e+3, 1.5529397e+2, -1416861.6, -1596490.8, 100181.43, 0.208169, -0.038099524, -1372128.9, 45997.406, 0.00008951281, 10.000782, 9.998399 
1.22513175e+3, 1.6529353e+2, -1330214.1, -1363614.5, 119367.38, 0.16943231, 0.017544102, -1226384.4, 93748.82, 0.0000012652538, 10.000081, 9.999674 
1.22511365e+3, 1.7529505e+2, -1318125.9, -1294844.4, 50699.38, -0.015368601, 0.18090941, -1254466.6, -32346.32, 0.0, 9.999447, 9.999776 
1.225097e+3, 1.8529476e+2, -1188957.8, -1230802.1, 45413.777, -0.09628895, 0.20176925, -1159878.5, -35756.504, 0.0, 9.999875, 9.999333 
1.22508176e+3, 1.952927e+2, -880410.5, -1026898.3, 1331.3165, -0.10129123, 0.039142583, -880398.4, 145740.19, 0.0, 10.001306, 9.999367 
1.22506656e+3, 2.052911e+2, -825416.5, -1145041.5, -1670.39, -0.047166076, 0.038176667, -825407.75, 102747.01, 0.0, 10.001843, 9.997626 
1.22505136e+3, 2.1528985e+2, -763942.1, -1050999.6, 69247.73, 0.07057619, 0.1278084, -748110.44, 82061.59, 0.0, 10.001538, 9.997745 
1.2250345e+3, 2.2528838e+2, -592139.3, -795350.1, 106878.57, 0.020319283, 0.15481491, -546277.1, 185909.67, 0.0, 10.001514, 9.998841 
1.2250161e+3, 2.352866e+2, -454695.63, -671004.4, 98722.82, -0.18983924, 0.07158337, -416413.78, 217786.89, 0.0, 10.001752, 9.998909 
1.22499965e+3, 2.4528515e+2, -430558.28, -702079.06, 87760.11, -0.16512926, 0.08442356, -404662.47, 131552.23, 0.0, 10.001648, 9.998074 
1.2249851e+3, 2.5528386e+2, -382324.13, -615981.44, 75325.875, 0.074005425, 0.13070749, -360145.84, 78084.58, 0.0, 10.001262, 9.998175 
1.224968e+3, 2.6528245e+2, -270140.34, -427356.72, 45170.7, 0.08930156, 0.13626052, -258086.3, 82158.2, 0.0000003685213, 10.001004, 9.9989195 
1.2249488e+3, 2.752807e+2, -198932.0, -337681.13, 5888.2173, -0.098629944, 0.051151857, -198682.56, 43576.043, 0.0000073761885, 10.000804, 9.998955 
1.2249316e+3, 2.8527942e+2, -158551.67, -420563.47, 16707.299, -0.06669911, 0.10217058, -157490.63, -13219.699, 0.00004908337, 10.00105, 9.997597 
1.22491665e+3, 2.9527846e+2, 26224.174, -265325.88, 39025.26, 0.16625421, 0.22184084, 31357.494, 77640.4, 0.00018062291, 10.001581, 9.997735 
1.2249001e+3, 3.0527553e+2, 161123.47, 17392.922, 116871.71, 0.07961564, 0.07237658, 226457.38, 226457.38, 0.00044944658, 10.001354, 9.999455 
1.2248815e+3, 3.152755e+2, 67093.29, 76034.49, -41640.094, -0.34195527, 0.09982571, 113443.29, 113443.29, 0.0008490022, 10.000208, 10.000412 
1.2351968e+3, 1.2531504e+2, -1931516.5, -1912576.4, -15527.201, 0.15285419, 0.048128426, -1903859.3, -191942.69, 0.0031899144, 9.998874, 9.999176 
1.2351802e+3, 1.353142e+2, -1533456.8, -1671061.8, 112900.9, 0.00004045393, 0.038060382, -1470045.8, 143882.89, 0.0017411282, 10.000948, 9.999175 
1.2351643e+3, 1.4531444e+2, -1279891.0, -1386274.9, 33766.68, -0.07048418, 0.09484802, -1270078.4, 245847.3, 0.0006337289, 10.001545, 10.000153 
1.2351475e+3, 1.5531513e+2, -1291821.9, -1349395.6, 75913.29, -0.012220379, 0.13181725, -1239420.6, 178493.9, 0.00010392506, 10.000817, 10.000087 
1.2351307e+3, 1.6531408e+2, -1448385.4, -1610176.3, 82673.336, 0.05045673, 0.13227089, -1413613.4, -93687.305, 0.0000017603737, 10.000094, 9.997972 
1.2351148e+3, 1.7531152e+2, -1436047.5, -1544296.0, 35417.063, 0.14261822, 0.060329277, -1425489.5, -203532.34, 0.0, 9.999466, 9.9980545 
1.2350988e+3, 1.8531033e+2, -1253017.0, -1365424.8, 92172.055, 0.07839708, 0.1220787, -1201264.6, -77290.695, 0.0, 9.999885, 9.9984045 
1.23508304e+3, 1.9531015e+2, -944146.5, -1151357.9, 62441.523, -0.12652722, 0.24413358, -926784.9, 99194.66, 0.0, 10.001269, 9.998532 
1.2350678e+3, 2.0530929e+2, -691785.5, -847315.3, -23571.44, -0.121999845, 0.24573153, -688291.6, 239695.03, 0.0, 10.00176, 9.999709 
1.2350531e+3, 2.1530768e+2, -637278.6, -766888.94, 64422.14, 0.068518974, 0.093901955, -610705.9, 219290.2, 0.0, 10.001445, 9.999742 
1.2350368e+3, 2.2530684e+2, -604830.25, -796977.44, 107136.56, 0.068163715, 0.08545198, -556999.75, 175001.23, 0.0, 10.001409, 9.998882 
1.2350188e+3, 2.3530649e+2, -468879.88, -677470.9, 115255.62, -0.10189457, 0.14350647, -417735.97, 216267.67, 0.0, 10.001656, 9.998911 
1.2350017e+3, 2.4530475e+2, -450174.4, -724103.7, 64922.953, -0.13906802, 0.13289937, -435566.28, 100454.41, 0.0, 10.001568, 9.99796 
1.2349852e+3, 2.5530165e+2, -397534.97, -636619.06, 69163.42, -0.052268352, 0.005263925, -378968.8, 59082.727, 0.0, 10.001206, 9.998063 
1.234968e+3, 2.652999e+2, -341471.84, -551693.2, 31077.742, -0.02331923, 0.02418463, -336973.75, 3096.4421, 0.00000016286783, 10.000906, 9.998111 
1.2349502e+3, 2.7529916e+2, -263493.1, -456182.13, 10471.332, -0.054078486, 0.12064498, -262925.72, -20846.232, 0.000006622681, 10.000737, 9.998171 
1.23493314e+3, 2.8529778e+2, -125895.02, -330534.13, 32649.406, -0.03831861, 0.16689715, -120812.18, 23279.969, 0.0000487502, 10.000959, 9.998257 
1.2349171e+3, 2.9529566e+2, 58945.645, -186718.39, 71851.16, 0.035617087, 0.10361038, 78417.15, 124527.1, 0.00018150224, 10.001533, 9.998301 
1.2349009e+3, 3.0529192e+2, -20344.584, -342979.56, 72419.16, 0.00054470217, -0.026741255, -4834.8506, -4834.8506, 0.00045012333, 10.001282, 9.997016 
1.2348835e+3, 3.1529114e+2, -81877.74, -203339.44, -60835.69, -0.19976892, 0.16600272, -56648.03, -56648.03, 0.0008459935, 10.000082, 9.998552 
1.2451963e+3, 1.2533216e+2, -1453354.0, -1699753.0, 15605.133, 0.061738692, -0.019832077, -1452369.6, 259376.78, 0.003475539, 10.002268, 9.99899 
1.2451825e+3, 1.3533196e+2, -1585200.6, -1726080.5, 142551.11, 0.1625668, 0.06290344, -1496635.5, 117119.3, 0.0019075654, 10.000725, 9.998909 
1.24516495e+3, 1.4533193e+2, -1494431.6, -1468460.9, 22975.318, -0.08530286, 0.098491445, -1455055.3, 60699.688, 0.0007030745, 9.999979, 10.000346 
1.2451474e+3, 1.5533262e+2, -1363468.9, -1358432.8, -64705.336, -0.06424791, 0.114287324, -1296196.5, 121545.97, 0.00011956255, 10.000226, 10.000309 
1.245131e+3, 1.6533162e+2, -1326978.4, -1541019.4, -9716.0, 0.028923959, 0.10338609, -1326538.3, -6786.099, 0.0000023468863, 10.000884, 9.998062 
1.24511585e+3, 1.7532907e+2, -1078749.9, -1362338.3, 56226.96, 0.18420616, 0.022181448, -1068008.6, 153773.13, 0.0, 10.001885, 9.99813 
1.24510035e+3, 1.8532775e+2, -1024155.56, -1321336.9, 200692.55, 0.15090773, 0.09808424, -923033.0, 200768.23, 0.0, 10.001734, 9.997815 
1.2450847e+3, 1.9532731e+2, -1084923.9, -1282592.8, 183854.72, -0.041911796, 0.25104806, -975022.1, 50791.707, 0.0, 10.000565, 9.997973 
1.245069e+3, 2.0532659e+2, -894108.3, -882168.0, 62060.574, -0.07782677, 0.2654601, -825791.06, 102029.11, 0.0, 10.0000925, 10.000277 
1.2450535e+3, 2.1532549e+2, -776116.3, -768152.3, 21612.646, 0.028569873, 0.105641365, -750157.9, 79664.02, 0.0, 10.000205, 10.000331 
1.2450375e+3, 2.2532482e+2, -766453.9, -870501.75, 35880.934, 0.06031078, 0.08394025, -755280.25, -23456.2, 0.0, 10.000285, 9.998918 
1.245021e+3, 2.3532432e+2, -657000.3, -761362.75, 28065.316, 0.025823137, 0.1223199, -649931.7, -16102.907, 0.0, 10.000337, 9.998969 
1.2450038e+3, 2.453228e+2, -538444.1, -734864.8, 14797.193, -0.03695321, 0.1152493, -537335.6, -1492.1669, 0.0, 10.000826, 9.998242 
1.244986e+3, 2.5532028e+2, -312419.16, -565992.3, 30131.42, -0.12130397, 0.017998034, -308887.88, 128979.82, 0.0, 10.001671, 9.998319 
1.2449686e+3, 2.6531845e+2, -223817.19, -557821.7, 13868.546, -0.10136942, 0.045873657, -223242.33, 116645.34, 0.000000050542315, 10.001975, 9.997555 
1.2449519e+3, 2.753171e+2, -151885.42, -466103.6, -6341.0713, 0.008124792, 0.13623601, -151757.52, 90147.695, 0.0000061370592, 10.001761, 9.997618 
1.2449351e+3, 2.8531554e+2, -36704.598, -267030.97, 34249.184, 0.04293361, 0.18164407, -31719.682, 112200.945, 0.000049450737, 10.00149, 9.998441 
1.2449183e+3, 2.953135e+2, 13453.493, -187932.36, 14954.392, 0.022864446, 0.11271557, 14557.911, 60494.96, 0.00018681613, 10.001142, 9.998478 
1.2449017e+3, 3.053099e+2, -90367.86, -414953.2, 75667.76, -0.01190064, 0.0023531045, -73594.836, -73594.836, 0.00046226173, 10.000949, 9.996685 
1.244885e+3, 3.1530854e+2, 32638.93, -136137.4, 72294.46, -0.090535864, 0.1709, 59371.65, 59371.65, 0.0008624877, 10.000815, 9.998661 
1.2551965e+3, 1.2534903e+2, -1412391.0, -1618981.6, 20613.094, -0.19644208, -0.09768669, -1410354.4, 301224.8, 0.0037739007, 10.002279, 9.99954 
1.2551843e+3, 1.3535054e+2, -1568143.1, -1699623.3, 87892.16, 0.24946052, 0.12787391, -1524125.4, 89444.07, 0.0020822603, 10.000746, 9.999086 
1.255165e+3, 1.4534926e+2, -1579821.4, -1648494.6, 21589.81, -0.07988171, 0.095107086, -1573597.9, -58014.01, 0.0007764397, 9.999992, 9.999103 
1.2551482e+3, 1.5534668e+2, -1436277.8, -1519414.3, -44445.016, -0.020825174, -0.09322365, -1416991.4, 616.57434, 0.00013646827, 10.000262, 9.999188 
1.2551321e+3, 1.6534628e+2, -1204989.0, -1289747.0, 19868.572, 0.037320316, -0.07781329, -1200562.6, 119047.55, 0.0000030208696, 10.000893, 9.999781 
1.2551166e+3, 1.7534772e+2, -964201.7, -1123136.1, 95953.92, 0.06298444, 0.06516098, -919080.8, 302513.28, 0.0, 10.001875, 9.999777 
1.2551014e+3, 1.8534698e+2, -1037869.75, -1345682.8, 145953.14, 0.07068713, 0.12744303, -979668.9, 143936.39, 0.0, 10.001714, 9.997659 
1.2550867e+3, 1.953442e+2, -1101054.0, -1309991.0, 147261.05, 0.079693854, 0.06185835, -1024969.2, 672.4461, 0.0, 10.000536, 9.9978 
1.2550701e+3, 2.0534307e+2, -968041.5, -1017600.5, 57472.88, 0.019794032, 0.09219015, -930233.8, -2578.663, 0.0, 10.000019, 9.999384 
1.2550524e+3, 2.153433e+2, -849957.3, -901641.9, 32748.197, -0.10948964, 0.15593459, -834083.06, -4433.611, 0.0, 10.000121, 9.999457 
1.2550364e+3, 2.253423e+2, -777461.94, -871292.7, 28965.967, -0.069073334, 0.141737, -769240.4, -37583.816, 0.0, 10.000188, 9.99896 
1.2550224e+3, 2.353401e+2, -661403.1, -755914.4, 38487.44, 0.12851803, 0.004563308, -647713.06, -14036.954, 0.0, 10.000267, 9.9990425 
1.2550059e+3, 2.4533936e+2, -504518.88, -642981.3, 38993.125, 0.07785403, 0.036769964, -494293.03, 41389.535, 0.0, 10.000732, 9.998919 
1.2549871e+3, 2.5533974e+2, -281186.22, -485199.8, 69844.28, -0.1934579, 0.16190077, -259566.11, 178113.17, 0.0, 10.001596, 9.998911 
1.2549697e+3, 2.65338e+2, -264972.2, -617757.0, -1647.8727, -0.20338026, 0.19061758, -264964.5, 74733.74, 0.00000007625481, 10.00187, 9.997193 
1.2549539e+3, 2.753344e+2, -188841.42, -519932.1, -4067.9434, 0.015213935, 0.08897361, -188791.44, 52945.523, 0.0000061507535, 10.001668, 9.9972925 
1.2549372e+3, 2.8533262e+2, -69107.445, -322603.4, 14012.202, 0.09596119, 0.14563762, -68335.266, 75421.52, 0.000051587293, 10.00143, 9.99809 
1.2549199e+3, 2.953321e+2, -13559.482, -237300.81, 14205.258, 0.05837151, 0.25943074, -12661.202, 33102.277, 0.0001993085, 10.001101, 9.99816 
1.2549028e+3, 3.0532944e+2, 26674.932, -155379.28, 65971.17, -0.025962263, 0.16811822, 48067.26, 48067.26, 0.00049473415, 10.000883, 9.998495 
1.2548853e+3, 3.153274e+2, 150310.23, 148021.55, 89134.06, -0.17031966, 0.08155233, 238307.3, 238307.3, 0.0009169739, 10.0006485, 10.000694 
1.2651981e+3, 1.253662e+2, -1643966.1, -1717930.0, 51484.918, -0.15859017, -0.07778489, -1617557.6, 93854.98, 0.004085261, 10.00064, 9.999645 
1.2651843e+3, 1.3536754e+2, -1710526.6, -1778811.3, -45874.258, 0.22938211, 0.14546935, -1687483.8, -74079.66, 0.0022650692, 9.999827, 9.998973 
1.2651643e+3, 1.4536616e+2, -1605753.5, -1655640.3, 13614.92, -0.13621692, 0.10676805, -1602279.6, -86860.33, 0.00085386867, 9.999793, 9.99915 
1.2651493e+3, 1.553636e+2, -1349562.5, -1467143.4, 25182.047, 0.032147124, -0.087277725, -1344396.3, 73047.7, 0.00015477135, 10.000823, 9.999271 
1.2651338e+3, 1.6536328e+2, -1178649.8, -1269872.5, 73225.87, 0.10679911, -0.07212576, -1137991.6, 181453.83, 0.0000038088367, 10.001037, 9.999848 
1.2651177e+3, 1.753648e+2, -1140943.6, -1196778.1, 14901.816, 0.04618746, 0.07370631, -1137215.4, 84212.28, 0.0, 10.000612, 9.999881 
1.265102e+3, 1.8536441e+2, -1189797.9, -1345204.8, 23109.984, 0.036286734, 0.13038523, -1186434.1, -62999.977, 0.0, 10.000357, 9.998315 
1.265087e+3, 1.9536215e+2, -1101794.6, -1240691.9, 67601.195, 0.08787633, 0.053199325, -1074325.6, -48862.42, 0.0, 10.00024, 9.998414 
1.2650709e+3, 2.053611e+2, -889198.3, -1045764.75, 79807.695, 0.046893783, 0.09016432, -855689.2, 71787.77, 0.0, 10.000847, 9.998788 
1.2650536e+3, 2.1536091e+2, -611693.2, -852076.9, 60634.773, -0.087472714, 0.17304194, -597264.6, 232214.13, 0.0, 10.002038, 9.998871 
1.2650377e+3, 2.2535974e+2, -490403.13, -722547.3, 47890.242, -0.065005325, 0.1639093, -480911.66, 250577.17, 0.0, 10.00211, 9.999058 
1.2650229e+3, 2.3535764e+2, -524952.5, -677289.1, 46262.977, 0.1042807, 0.02640287, -512003.6, 121502.99, 0.0, 10.001154, 9.999154 
1.2650067e+3, 2.45357e+2, -526601.7, -647256.06, 62085.754, 0.08420888, 0.061522827, -500360.9, 35151.004, 0.0, 10.000556, 9.998971 
1.2649888e+3, 2.5535747e+2, -469665.25, -568187.44, 30186.18, -0.10154275, 0.19165207, -461152.13, -23643.771, 0.0, 10.000268, 9.99898 
1.264972e+3, 2.6535583e+2, -394895.2, -617308.25, -3632.2166, -0.107015364, 0.19817495, -394835.88, -55310.457, 0.00000015326442, 10.000697, 9.997767 
1.2649558e+3, 2.7535227e+2, -149462.72, -438570.16, 45010.906, 0.045279004, 0.045402557, -142617.11, 98944.33, 0.0000068361555, 10.001665, 9.997854 
1.264939e+3, 2.853507e+2, -36910.305, -342151.84, 82902.336, 0.108682916, 0.11074754, -15847.752, 127732.2, 0.00005543398, 10.001812, 9.997762 
1.2649216e+3, 2.9535055e+2, -302.74146, -265632.7, 64213.17, 0.102112286, 0.29639196, 14420.64, 60006.645, 0.00021874357, 10.00135, 9.997838 
1.2649041e+3, 3.053485e+2, 109779.266, -64177.59, 90246.57, 0.018090308, 0.2564185, 148139.14, 148139.14, 0.0005474256, 10.0012455, 9.998943 
1.264887e+3, 3.153457e+2, 276680.1, 266647.03, -29304.313, -0.097148985, 0.054823156, 301394.16, 301394.16, 0.0010137463, 10.001275, 10.001205 
1.2752014e+3, 1.2538405e+2, -1663322.4, -1757471.5, 119835.71, 0.07203298, 0.07006115, -1581646.8, 129595.8, 0.0044096503, 10.0006485, 9.999364 
1.2751824e+3, 1.3538307e+2, -1736318.9, -1843486.8, -75513.375, 0.035417624, 0.11386572, -1697309.6, -84052.24, 0.0024558255, 9.999861, 9.998522 
1.2751625e+3, 1.4538273e+2, -1513641.8, -1467099.8, 41196.574, -0.3212984, 0.13217224, -1443055.9, 72204.805, 0.00093550276, 9.999809, 10.000432 
1.2751503e+3, 1.5538323e+2, -1271069.8, -1303839.3, 68320.125, 0.036605135, 0.11700134, -1217197.1, 200054.72, 0.00017466526, 10.00082, 10.000394 
1.2751356e+3, 1.6538239e+2, -1275004.0, -1475047.6, 46457.484, 0.16842657, 0.10170784, -1264741.4, 54518.348, 0.0000047674703, 10.001053, 9.998435 
1.2751186e+3, 1.7538044e+2, -1228022.1, -1384066.0, 4964.7153, 0.064647675, 0.039586622, -1227864.4, -6582.61, 0.0, 10.000635, 9.998587 
1.2751019e+3, 1.8538018e+2, -1092499.0, -1144024.5, 11925.493, -0.02071296, 0.099555135, -1089872.6, 33414.094, 0.0, 10.00036, 9.999695 
1.2750858e+3, 1.9538122e+2, -1011554.6, -1051094.6, 71643.125, -0.07708185, 0.21374021, -957003.75, 68274.54, 0.0, 10.000226, 9.999723 
1.2750708e+3, 2.053806e+2, -921980.44, -1097596.5, 114383.055, -0.056411117, 0.25014508, -865588.1, 61698.0, 0.0, 10.000776, 9.998466 
1.275057e+3, 2.1537842e+2, -648023.94, -900083.2, 108271.62, 0.028117342, 0.16113529, -607902.4, 221406.98, 0.0, 10.001921, 9.998596 
1.2750407e+3, 2.2537726e+2, -496849.84, -704606.7, 3745.338, 0.006906799, 0.15701622, -496782.34, 234537.56, 0.0, 10.001978, 9.999242 
1.275022e+3, 2.353769e+2, -530075.6, -665691.5, 20576.14, -0.106231764, 0.17535882, -527022.44, 106298.234, 0.0, 10.001058, 9.999279 
1.2750056e+3, 2.4537562e+2, -587326.2, -748596.2, 43098.625, -0.0734981, 0.17578638, -576530.94, -41198.297, 0.0, 10.00045, 9.998325 
1.274991e+3, 2.5537348e+2, -517858.75, -647773.6, 29061.68, 0.08538274, 0.10470379, -511654.06, -74299.055, 0.0, 10.000181, 9.998472 
1.274975e+3, 2.6537204e+2, -299142.34, -400241.4, 25949.273, 0.11557188, 0.073663235, -292870.94, 46497.73, 0.00000020123079, 10.000616, 9.999296 
1.2749574e+3, 2.7537096e+2, -61714.94, -236640.0, 91292.65, 0.025907466, 0.014047898, -22749.463, 218627.7, 0.0000077157165, 10.001584, 9.999278 
1.27494e+3, 2.853699e+2, -75199.71, -405843.7, 56555.04, 0.012622445, 0.0871436, -65793.82, 77595.58, 0.000060402712, 10.001742, 9.997357 
1.2749228e+3, 2.9536876e+2, -42399.887, -329174.13, 60078.785, 0.074392706, 0.20876613, -30322.133, 15083.763, 0.00024154171, 10.00125, 9.997448 
1.274906e+3, 3.053669e+2, 23094.887, -229080.2, 87001.61, 0.044954065, 0.26709127, 50197.906, 50197.906, 0.0006104457, 10.001175, 9.997846 
1.2748893e+3, 3.1536385e+2, 174360.08, 88607.32, -8919.885, -0.019520534, 0.13728288, 175278.1, 175278.1, 0.0011368401, 10.001143, 10.000034 
1.2852022e+3, 1.2540068e+2, -1783702.6, -1767228.5, 176068.02, 0.14233935, 0.14412327, -1599205.0, 111876.45, 0.0047468157, 9.999602, 9.999808 
1.2851818e+3, 1.3539904e+2, -1646199.4, -1742179.5, -53776.62, -0.015898611, 0.07452838, -1622113.3, -9012.952, 0.0026545508, 10.000237, 9.99903 
1.2851635e+3, 1.4539914e+2, -1479736.8, -1482500.1, 73752.805, -0.21290205, 0.12139402, -1407352.8, 107747.45, 0.0010215283, 10.000174, 10.000154 
1.2851503e+3, 1.5540005e+2, -1424531.0, -1403051.8, -22799.963, 0.023402583, 0.17806143, -1388588.6, 28501.22, 0.00019628371, 9.999877, 10.000164 
1.2851356e+3, 1.653994e+2, -1402787.5, -1508218.3, -20552.26, 0.12629919, 0.17750534, -1398922.8, -79826.03, 0.0000059623408, 10.000056, 9.998694 
1.2851192e+3, 1.7539738e+2, -1214887.3, -1352140.4, 41952.387, 0.069841616, 0.08526695, -1203080.0, 18038.758, 0.0, 10.000616, 9.99882 
1.2851027e+3, 1.85397e+2, -1053576.0, -1144986.3, 47286.477, 0.0003015622, 0.13442078, -1033516.56, 89607.99, 0.0, 10.000715, 9.999515 
1.2850861e+3, 1.953979e+2, -982376.7, -1052202.4, -22273.953, -0.071942724, 0.2511832, -975876.56, 49241.37, 0.0, 10.000499, 9.999582 
1.2850712e+3, 2.0539743e+2, -1004447.3, -1067935.1, 29835.69, -0.034241863, 0.275292, -992627.0, -65503.29, 0.0, 9.999908, 9.999089 
1.285058e+3, 2.1539561e+2, -1040840.44, -1022465.44, 76973.23, 0.09954634, 0.16230428, -954133.3, -124991.81, 0.0, 9.998933, 9.999197 
1.285042e+3, 2.2539487e+2, -875648.56, -890806.7, 18517.563, 0.080514334, 0.17305736, -863219.06, -132070.78, 0.0, 9.999395, 9.999207 
1.2850234e+3, 2.3539497e+2, -527260.25, -666135.94, -783.70636, -0.07108796, 0.24098441, -527255.9, 105890.836, 0.0, 10.001089, 9.999259 
1.2850066e+3, 2.4539363e+2, -411822.66, -641444.2, 37370.688, -0.06855847, 0.22408517, -405893.7, 129265.516, 0.0, 10.001545, 9.998542 
1.2849915e+3, 2.5539097e+2, -400035.53, -570594.4, 71456.37, 0.07070481, 0.07983537, -374055.84, 63129.12, 0.0, 10.000893, 9.998669 
1.2849754e+3, 2.6539e+2, -277870.03, -381932.66, 89245.32, 0.09370606, 0.085296795, -226596.05, 112598.52, 0.00000014147287, 10.000735, 9.999355 
1.2849584e+3, 2.7539033e+2, -132199.72, -262830.63, 20719.76, 0.011218908, 0.16064218, -128992.06, 112200.19, 0.000007879153, 10.001067, 9.999342 
1.2849416e+3, 2.8538927e+2, -33148.652, -340874.2, -24488.094, -0.0020891936, 0.21089111, -31212.133, 111991.445, 0.00006525831, 10.001838, 9.997764 
1.2849246e+3, 2.9538694e+2, 222474.58, -163376.67, 14614.609, 0.05434713, 0.17137077, 223027.33, 268255.56, 0.00026775803, 10.002901, 9.997796 
1.2849079e+3, 3.0538502e+2, 248780.7, -209283.16, 81078.625, 0.048114527, 0.24696466, 262708.38, 262708.38, 0.0006827303, 10.003114, 9.997047 
1.2848921e+3, 3.1538165e+2, 311989.75, 27695.186, -28838.5, 0.08232682, 0.17326148, 314885.6, 314885.6, 0.0012767545, 10.002609, 9.998925 
1.2951988e+3, 1.2541573e+2, -1706220.8, -1606897.4, 183743.36, -0.19217703, 0.097025685, -1466222.8, 244710.42, 0.0050962004, 9.999607, 10.000908 
1.2951824e+3, 1.3541542e+2, -1561154.6, -1556570.3, -32855.977, 0.0061227446, 0.017443666, -1525926.6, 87007.54, 0.0028611089, 10.000201, 10.000321 
1.295167e+3, 1.4541528e+2, -1597019.6, -1725567.0, 48709.625, 0.107960165, 0.06665388, -1580647.6, -65709.03, 0.00111182, 10.000172, 9.9984865 
1.2951495e+3, 1.5541442e+2, -1526774.5, -1624805.3, -23923.89, -0.07197567, 0.11103262, -1521247.5, -104292.82, 0.000219555, 9.999911, 9.998629 
1.2951338e+3, 1.6541453e+2, -1272114.8, -1240479.0, -9368.151, -0.08727992, 0.16513191, -1237913.0, 81041.484, 0.0000074533, 10.000071, 10.000523 
1.2951194e+3, 1.7541564e+2, -1097454.9, -1108765.6, 66046.14, 0.00708111, 0.20186023, -1036822.44, 184116.34, 0.0, 10.000617, 10.000487 
1.295104e+3, 1.854149e+2, -1174537.3, -1394790.0, 30146.172, 0.039671857, 0.22477657, -1170485.6, -47537.684, 0.0, 10.000706, 9.997808 
1.295088e+3, 1.9541237e+2, -1093625.6, -1280533.3, -23311.887, 0.03703891, 0.16805305, -1090761.9, -65781.23, 0.0, 10.0004835, 9.998024 
1.2950721e+3, 2.0541169e+2, -907072.7, -850193.8, -14071.379, 0.04728854, 0.16611777, -846903.06, 80085.33, 0.0, 9.999845, 10.000613 
1.2950568e+3, 2.1541251e+2, -954303.94, -820254.7, 50704.29, 0.065438114, 0.16516231, -803236.4, 25739.094, 0.0, 9.998837, 10.000629 
1.2950416e+3, 2.2541258e+2, -913947.9, -944464.75, 74472.664, 0.09468256, 0.20514454, -853186.56, -122212.28, 0.0, 9.999283, 9.998894 
1.2950267e+3, 2.354119e+2, -557381.25, -705524.2, 69288.01, 0.13483386, 0.2236472, -530025.9, 102958.43, 0.0, 10.000988, 9.999037 
1.2950093e+3, 2.4541107e+2, -354605.13, -493003.47, 4572.596, 0.023681834, 0.21170688, -354454.22, 180537.1, 0.0, 10.001422, 9.999619 
1.2949896e+3, 2.5541e+2, -347989.63, -436732.56, 58031.918, -0.2148989, 0.11770582, -319309.53, 117687.984, 0.0, 10.000792, 9.999632 
1.294973e+3, 2.654098e+2, -394909.66, -611640.9, 93936.13, -0.23484531, 0.23614143, -359862.9, -20860.281, 0.000000052302592, 10.000667, 9.997818 
1.2949589e+3, 2.754104e+2, -240419.64, -467772.4, 44455.83, -0.074188925, 0.4895912, -232036.03, 8970.697, 0.000007172051, 10.000979, 9.997979 
1.2949435e+3, 2.8540888e+2, 38396.71, -173935.08, 8379.66, -0.01705464, 0.49310517, 38726.902, 181749.27, 0.000069658236, 10.001751, 9.998954 
1.2949267e+3, 2.954052e+2, 288096.7, -12135.4, 64897.64, -0.043007422, 0.20365955, 301524.28, 346575.6, 0.0002984911, 10.002835, 9.998866 
1.2949103e+3, 3.0540285e+2, 194060.31, -304328.3, 54002.402, -0.0468085, 0.21836394, 199844.56, 199844.56, 0.0007671863, 10.003045, 9.996424 
1.294895e+3, 3.1539926e+2, 211982.89, -125038.695, -21951.516, 0.08101036, 0.17637646, 213406.66, 213406.66, 0.001436353, 10.002401, 9.997961 
1.3051993e+3, 1.2543052e+2, -1761140.1, -1635634.6, 131347.66, -0.08531375, 0.06251161, -1552819.1, 157969.36, 0.0054552136, 9.999226, 10.000899 
1.3051805e+3, 1.3543123e+2, -1707361.4, -1592331.9, -142165.7, -0.14314874, 0.059159547, -1496487.5, 116293.96, 0.003073975, 9.999052, 10.000628 
1.3051674e+3, 1.4543147e+2, -1679498.0, -1746662.6, 3404.5227, 0.16016372, 0.11877028, -1679325.9, -164543.5, 0.0012055306, 9.99952, 9.998658 
1.3051498e+3, 1.554301e+2, -1420303.4, -1556653.0, 44384.875, -0.06097502, 0.09964589, -1407128.1, 9674.111, 0.000244213, 10.000573, 9.998778 
1.3051337e+3, 1.654302e+2, -1191483.0, -1194317.1, 46285.0, -0.11970586, 0.14361085, -1146593.4, 172208.34, 0.000009295233, 10.000602, 10.000581 
1.305119e+3, 1.7543167e+2, -1202115.8, -1149867.1, -22320.729, -0.057338595, 0.21028501, -1141630.3, 79152.48, 0.0, 9.999867, 10.000564 
1.3051042e+3, 1.8543117e+2, -1270215.6, -1396093.8, -9778.613, 0.043246597, 0.22987969, -1269460.5, -146671.44, 0.0, 9.999851, 9.998212 
1.3050896e+3, 1.9542874e+2, -1081886.3, -1235560.4, 71382.5, 0.17121054, 0.14566144, -1053845.4, -29025.861, 0.0, 10.000391, 9.998381 
1.3050734e+3, 2.0542824e+2, -834354.1, -849501.4, 64213.063, 0.1573394, 0.16254658, -777269.56, 149556.77, 0.0, 10.000499, 10.000301 
1.3050558e+3, 2.1542935e+2, -767403.0, -758403.7, -19858.877, 0.023855956, 0.22023435, -742541.06, 86272.336, 0.0, 10.000257, 10.000368 
1.3050406e+3, 2.254295e+2, -803114.25, -833694.5, 31193.852, 0.045085315, 0.2537037, -783664.7, -52853.08, 0.0, 9.999792, 9.999407 
1.3050273e+3, 2.3542869e+2, -801961.44, -770109.1, 69127.06, 0.19673525, 0.20812584, -715097.3, -82276.41, 0.0, 9.999076, 9.999513 
1.3050105e+3, 2.454281e+2, -620609.8, -623835.3, 1875.6802, 0.1069149, 0.19784975, -619748.9, -84923.84, 0.0, 9.999609, 9.999589 
1.3049908e+3, 2.5542754e+2, -288732.94, -414714.8, -46132.258, -0.18642345, 0.16136117, -273646.7, 163179.64, 0.0, 10.001216, 9.999581 
1.3049741e+3, 2.6542708e+2, -264482.44, -570234.06, 1390.0886, -0.23532706, 0.26573342, -264476.1, 74357.984, 0.000000026393016, 10.001664, 9.997622 
1.3049598e+3, 2.7542663e+2, -226294.97, -485338.0, 30870.615, -0.08591649, 0.43564972, -222666.88, 18181.47, 0.0000066700077, 10.001175, 9.997771 
1.3049446e+3, 2.8542528e+2, -65124.457, -185921.63, 43262.125, -0.02568214, 0.44481635, -51229.027, 91633.875, 0.00007501981, 10.000882, 9.999287 
1.3049287e+3, 2.9542288e+2, 19368.625, -103481.65, 12164.65, -0.03576489, 0.25544062, 20561.586, 65440.96, 0.00033195864, 10.000821, 9.99921 
1.3049126e+3, 3.0542123e+2, -16779.57, -298763.78, 39135.03, -0.016291985, 0.2717067, -11449.003, -11449.003, 0.00085839094, 10.001111, 9.997404 
1.3048981e+3, 3.154179e+2, 130268.13, -114393.05, 50272.176, 0.20085332, 0.16039805, 140195.11, 140195.11, 0.0016111253, 10.001586, 9.998448 
1.3152006e+3, 1.2544492e+2, -1827165.8, -1772509.0, -10091.077, 0.09207839, 0.0083966665, -1770705.5, -60056.945, 0.005819013, 9.999212, 9.999969 
1.315176e+3, 1.3544667e+2, -1754385.4, -1690306.6, -136514.73, -0.5058661, 0.19236694, -1582121.9, 30517.885, 0.0032902497, 9.999056, 9.999952 
1.3151643e+3, 1.454478e+2, -1543252.5, -1464719.8, 32947.94, -0.12080792, 0.2681148, -1452727.9, 61902.426, 0.0013013786, 9.999527, 10.000589 
1.3151512e+3, 1.5544716e+2, -1304333.9, -1310507.9, 86022.39, -0.0041930135, 0.13645118, -1221343.1, 195289.31, 0.00026992275, 10.000548, 10.000482 
1.3151354e+3, 1.6544643e+2, -1311244.4, -1439199.9, 8448.365, -0.036103968, 0.10394982, -1310689.0, 7949.929, 0.00001153221, 10.000578, 9.998915 
1.3151178e+3, 1.7544563e+2, -1301503.6, -1362177.8, -40093.09, -0.17503864, 0.10769462, -1281563.5, -60914.355, 0.0, 9.999884, 9.999101 
1.3151033e+3, 1.8544592e+2, -1108492.9, -1052998.3, 2869.2705, -0.05513481, 0.15230845, -1052850.3, 69796.44, 0.0, 9.999823, 10.000579 
1.3150913e+3, 1.9544694e+2, -936874.75, -923586.2, 95506.69, 0.27074793, 0.17582251, -834492.94, 190142.48, 0.0, 10.000342, 10.0005455 
1.3150749e+3, 2.0544699e+2, -992813.25, -1159299.4, 45943.293, 0.23509853, 0.25341168, -980976.4, -54337.625, 0.0, 10.000417, 9.998214 
1.315055e+3, 2.1544611e+2, -915620.9, -1048751.6, -21112.434, -0.08907378, 0.32204556, -912353.0, -83697.69, 0.0, 10.000175, 9.998417 
1.3150387e+3, 2.2544566e+2, -727229.3, -648304.75, -2776.123, -0.13882057, 0.31701407, -648207.25, 82452.82, 0.0, 9.999677, 10.000734 
1.3150251e+3, 2.354454e+2, -732370.06, -601767.2, 55563.008, 0.044867236, 0.19447774, -581327.6, 51328.594, 0.0, 9.998977, 10.000716 
1.3150103e+3, 2.4544476e+2, -717933.4, -801313.75, 54989.1, 0.11249316, 0.1847382, -690617.25, -155957.22, 0.0, 9.9995, 9.9984255 
1.3149948e+3, 2.5544384e+2, -376391.66, -572776.56, 19874.596, 0.089795135, 0.22358835, -374400.5, 62269.766, 0.0, 10.001113, 9.998546 
1.3149785e+3, 2.6544198e+2, -202753.36, -419994.34, -25857.3, 0.02006927, 0.18027239, -199718.1, 138970.64, 0.000000066602475, 10.001567, 9.998701 
1.314961e+3, 2.7543908e+2, -172137.02, -345057.78, 25316.59, -0.096532285, -0.00041369145, -168506.73, 72210.07, 0.0000067822207, 10.001069, 9.998778 
1.3149449e+3, 2.8543854e+2, -115866.89, -281141.1, 34113.367, -0.09468143, 0.077120885, -109102.58, 33621.305, 0.00008157081, 10.000824, 9.998669 
1.31493e+3, 2.954399e+2, -28001.254, -176669.7, 24718.514, 0.00841446, 0.31929624, -23999.14, 20714.021, 0.0003645955, 10.000704, 9.99877 
1.3149147e+3, 3.0544013e+2, 145518.58, 72505.195, 54052.703, 0.06204848, 0.4061436, 174237.9, 174237.9, 0.0009459137, 10.0009775, 10.000012 
1.3149008e+3, 3.1543785e+2, 241331.2, 178509.83, 100451.87, 0.29003024, 0.14466949, 315168.84, 315168.84, 0.0017802492, 10.001352, 10.000562 
1.3251998e+3, 1.2546144e+2, -2023376.4, -1910578.1, -6948.133, 0.15027413, 0.077994496, -1910151.8, -199662.69, 0.006183249, 9.998022, 9.999613 
1.3251756e+3, 1.3546234e+2, -1751141.6, -1715704.6, -18853.252, -0.44603398, 0.21234475, -1707550.5, -95060.85, 0.0035072896, 9.999223, 9.999682 
1.3251643e+3, 1.4546348e+2, -1560946.3, -1436978.1, 96241.125, -0.05748715, 0.28525236, -1384487.8, 129991.586, 0.0013982238, 9.99925, 10.000914 
1.3251509e+3, 1.5546358e+2, -1610894.4, -1426367.4, 22982.191, 0.034344412, 0.19431978, -1423548.0, -7075.689, 0.00029637254, 9.998305, 10.000769 
1.325135e+3, 1.654627e+2, -1630068.8, -1612887.5, -24110.8, -0.022846228, 0.14189474, -1595882.6, -277402.84, 0.000014169166, 9.998485, 9.998723 
1.3251172e+3, 1.7546098e+2, -1355897.1, -1409765.6, 13234.539, -0.19495745, 0.075055905, -1352821.3, -132321.69, 0.0, 9.999609, 9.998903 
1.3251026e+3, 1.854613e+2, -1142114.4, -1035845.9, 15287.027, -0.085451685, 0.11757116, -1033690.5, 88806.04, 0.0, 9.999452, 10.000873 
1.3250902e+3, 1.9546318e+2, -1217755.6, -1025068.6, -58276.516, 0.24755053, 0.19727148, -1008814.5, 15661.153, 0.0, 9.998279, 10.000837 
1.3250743e+3, 2.0546345e+2, -1218982.1, -1250995.5, -30762.525, 0.22646904, 0.27336338, -1200311.0, -273834.75, 0.0, 9.998781, 9.998376 
1.3250554e+3, 2.1546225e+2, -839578.1, -997690.0, 50232.777, -0.08328834, 0.2928068, -824968.9, 3527.229, 0.0, 10.000628, 9.998552 
1.325039e+3, 2.2546172e+2, -534755.4, -602137.06, 39103.188, -0.1546914, 0.29792342, -516830.97, 213671.52, 0.0, 10.001213, 10.000307 
1.3250242e+3, 2.3546164e+2, -494481.63, -525933.2, -47320.08, -0.025313841, 0.23603028, -460342.7, 172156.1, 0.0, 10.000792, 10.000359 
1.3250099e+3, 2.4546109e+2, -511262.94, -651987.3, 28663.73, 0.06323912, 0.22825326, -505648.5, 28853.146, 0.0, 10.000702, 9.998874 
1.324996e+3, 2.554601e+2, -383466.38, -526046.0, 94014.14, 0.115015805, 0.21845506, -336769.34, 99741.25, 0.0, 10.000853, 9.99899 
1.3249804e+3, 2.6545835e+2, -251579.88, -411768.3, 50106.914, 0.08021068, 0.14769384, -237197.72, 101328.234, 0.0000000978673, 10.001095, 9.998983 
1.3249628e+3, 2.7545565e+2, -102654.24, -285556.44, 21097.541, -0.039172016, -0.04129766, -100252.22, 140297.31, 0.000006920427, 10.001422, 9.999025 
1.3249466e+3, 2.8545478e+2, -17104.775, -273149.9, 38092.734, -0.054984365, 0.010359405, -11557.757, 131001.34, 0.00008668865, 10.001687, 9.998301 
1.3249314e+3, 2.9545546e+2, 142486.69, -131485.94, 20746.836, 0.015448752, 0.21797043, 144048.84, 188605.38, 0.00038909205, 10.002038, 9.998433 
1.324916e+3, 3.0545533e+2, 351162.63, 173842.8, -15517.326, 0.04384627, 0.28805888, 352510.3, 352510.3, 0.0010147934, 10.002388, 10.0000305 
1.3249029e+3, 3.154544e+2, 428185.63, 248542.27, -193169.86, 0.3067014, 0.16158068, 551395.7, 551395.7, 0.0019149169, 10.002701, 10.000405 
1.3351956e+3, 1.2548013e+2, -2001172.3, -1869826.0, -47329.92, -0.10030671, 0.26390338, -1854548.1, -144238.56, 0.0065457188, 9.998045, 9.999883 
1.3351792e+3, 1.3547835e+2, -1751296.1, -1716233.0, 24318.453, -0.035035692, 0.12295822, -1703785.5, -91455.01, 0.0037237175, 9.999228, 9.999674 
1.3351668e+3, 1.4547855e+2, -1636625.8, -1598864.0, 51874.117, 0.2577779, 0.1616362, -1562541.5, -48211.285, 0.0014951822, 9.999265, 9.9998 
1.335149e+3, 1.5547949e+2, -1673819.8, -1567536.8, 1009.54944, -0.004703601, 0.26544103, -1567527.1, -151206.3, 0.00032323142, 9.998342, 9.999786 
1.3351324e+3, 1.6547911e+2, -1553638.5, -1454340.4, 9543.5, -0.14098457, 0.25319126, -1453431.4, -135108.28, 0.000017128494, 9.998486, 9.999812 
1.3351172e+3, 1.7547768e+2, -1287873.3, -1269155.4, 58036.73, -0.17750347, 0.10437099, -1219727.9, 606.8546, 0.00000000003443261, 9.999609, 9.999869 
1.3351019e+3, 1.8547729e+2, -1262598.1, -1287302.1, -38816.36, -0.114767514, 0.11839827, -1234215.9, -111876.68, 0.0, 9.999455, 9.9991455 
1.3350865e+3, 1.9547753e+2, -1324660.1, -1248686.1, -89665.81, 0.046609078, 0.20546797, -1189292.5, -164952.88, 0.0, 9.99828, 9.999304 
1.3350716e+3, 2.0547773e+2, -1063518.9, -912472.4, 29755.688, 0.07042382, 0.22393847, -906822.0, 19515.912, 0.0, 9.998715, 10.0007305 
1.3350569e+3, 2.1547775e+2, -706920.7, -697697.75, 122474.94, -0.019901555, 0.13305393, -579747.5, 248587.98, 0.0, 10.000518, 10.0006695 
1.3350411e+3, 2.2547764e+2, -700725.0, -921307.44, 16774.588, -0.073057495, 0.19107847, -699456.6, 30883.05, 0.0, 10.001098, 9.998172 
1.3350245e+3, 2.3547737e+2, -641942.3, -815025.75, -52130.34, -0.08201719, 0.32396713, -627454.1, 4895.2046, 0.0, 10.000711, 9.998415 
1.3350089e+3, 2.4547702e+2, -380921.78, -361173.78, 26116.934, -0.12340117, 0.32014304, -343126.66, 191224.2, 0.0, 10.000615, 10.000912 
1.334994e+3, 2.5547644e+2, -261219.9, -254585.27, 107629.54, -0.18925029, 0.14761399, -150221.94, 286125.1, 0.0, 10.000778, 10.000889 
1.3349795e+3, 2.654763e+2, -301514.53, -501181.47, 55669.105, -0.13014731, 0.17784968, -287042.4, 51302.82, 0.00000008871969, 10.001028, 9.998405 
1.334965e+3, 2.754763e+2, -154840.25, -370526.1, 45541.855, 0.023793362, 0.31619203, -145618.42, 94728.19, 0.000006673535, 10.001323, 9.998488 
1.3349491e+3, 2.854739e+2, -39491.492, -306252.1, 40395.055, 0.018301, 0.2520024, -33508.727, 108860.26, 0.00008850924, 10.001621, 9.998107 
1.3349324e+3, 2.9546946e+2, 104238.26, -184710.39, 47298.332, -0.09735526, -0.03598783, 111783.55, 156192.73, 0.00040084837, 10.001924, 9.998125 
1.3349165e+3, 3.0546692e+2, 160038.97, -203607.97, -6575.1104, -0.1627883, -0.057203103, 160157.83, 160157.83, 0.0010550291, 10.002311, 9.997468 
1.334904e+3, 3.1546727e+2, 221405.28, -124892.29, -148158.52, 0.11718544, 0.19826116, 276141.22, 276141.22, 0.0019990124, 10.002476, 9.99794 
1.3451925e+3, 1.2549601e+2, -1886120.1, -1760709.5, -97703.445, -0.2197419, 0.30482715, -1707320.4, 2836.2126, 0.0069055543, 9.998609, 10.000353 
1.3451798e+3, 1.354941e+2, -1682900.0, -1659398.5, -17064.941, 0.09401036, 0.1199034, -1650429.9, -38254.785, 0.0039389143, 9.999595, 9.999889 
1.3451664e+3, 1.4549401e+2, -1612831.5, -1633939.9, -7587.6357, 0.27758518, 0.14692558, -1610387.1, -96210.01, 0.0015916337, 9.999643, 9.999366 
1.3451475e+3, 1.5549496e+2, -1574652.0, -1561684.9, -28323.414, -0.021075351, 0.2912399, -1539112.5, -122942.27, 0.0003501717, 9.999222, 9.99939 
1.3451314e+3, 1.6549464e+2, -1456073.0, -1400584.0, 26316.97, -0.12023947, 0.29959577, -1390088.0, -71914.93, 0.000020254476, 9.9991255, 9.999875 
1.3451175e+3, 1.7549326e+2, -1335320.4, -1282919.3, -18994.031, -0.08184082, 0.1505548, -1276758.8, -56575.066, 0.0000000014653116, 9.999254, 9.999944 
1.3451019e+3, 1.8549256e+2, -1235254.4, -1276170.1, -99479.68, -0.059349142, 0.13283461, -1154150.8, -31960.951, 0.0, 9.999652, 9.999129 
1.3450849e+3, 1.9549224e+2, -1029041.06, -1106843.4, -39845.48, -0.037078466, 0.16477185, -1012255.94, 11938.197, 0.0, 10.000313, 9.999299 
1.3450702e+3, 2.0549239e+2, -855495.75, -793709.25, 87691.55, -0.0028877794, 0.17352529, -731628.3, 194563.47, 0.0, 10.000066, 10.000893 
1.3450572e+3, 2.154929e+2, -905770.56, -764989.6, 797.8878, 0.037780024, 0.10854718, -764985.1, 63199.438, 0.0, 9.999051, 10.000898 
1.3450421e+3, 2.2549304e+2, -952849.06, -1028287.0, -66141.79, 0.015360749, 0.17218968, -914427.0, -184241.2, 0.0, 9.999291, 9.998318 
1.3450254e+3, 2.3549277e+2, -656405.3, -807607.56, 21364.746, -0.04984398, 0.29135516, -653444.44, -21249.47, 0.0, 10.000544, 9.998551 
1.3450094e+3, 2.4549234e+2, -402273.34, -394540.1, 69821.15, -0.12601963, 0.2853326, -328478.6, 205719.25, 0.0, 10.000587, 10.00069 
1.344994e+3, 2.5549164e+2, -436948.63, -359330.13, -32456.363, -0.21437632, 0.12153111, -347547.16, 88649.51, 0.0, 9.999672, 10.000702 
1.3449797e+3, 2.6549166e+2, -408378.84, -513396.4, -58464.09, -0.16029468, 0.16047905, -382305.06, -44112.26, 0.000000062099474, 10.000134, 9.998746 
1.3449663e+3, 2.754921e+2, -60940.402, -289082.2, -22639.06, 0.0065767383, 0.30410323, -58715.57, 181472.98, 0.0000065347235, 10.001815, 9.998804 
1.3449512e+3, 2.8548968e+2, 38183.93, -296746.72, -18576.563, 0.039934266, 0.23939988, 39211.11, 181420.86, 0.00008965579, 10.002274, 9.99786 
1.344935e+3, 2.9548505e+2, 62204.586, -227554.11, -38786.68, -0.030121738, -0.04383857, 67306.68, 111557.76, 0.0004062936, 10.001732, 9.997921 
1.3449189e+3, 3.0548128e+2, 92365.47, -370568.63, 21983.777, -0.15290298, -0.120470636, 93407.09, 93407.09, 0.0010727071, 10.0023985, 9.996296 
1.3449065e+3, 3.1548068e+2, 388791.25, -138538.84, -33414.832, 0.04712208, 0.1584464, 390900.2, 390900.2, 0.0020364497, 10.004027, 9.997098 
1.3551918e+3, 1.2550905e+2, -1845760.1, -1672774.3, -28456.297, -0.19603027, 0.16837491, -1668213.4, 41817.383, 0.0072628423, 9.998604, 10.0009575 
1.3551776e+3, 1.3550967e+2, -1648369.1, -1587790.9, 18757.559, -0.100602075, 0.18385841, -1582453.1, 29569.195, 0.004152666, 9.999602, 10.000375 
1.3551632e+3, 1.4551002e+2, -1606562.8, -1626516.5, -33506.383, -0.04533446, 0.23398617, -1581579.4, -67560.664, 0.0016872559, 9.99966, 9.999412 
1.3551462e+3, 1.5551007e+2, -1562236.9, -1548167.6, -36100.16, -0.08285271, 0.2754682, -1518423.1, -102403.164, 0.0003769789, 9.999267, 9.999464 
1.3551314e+3, 1.6550927e+2, -1512329.3, -1528694.3, 20433.469, -0.034637116, 0.2782778, -1498500.9, -180471.28, 0.000023370363, 9.999167, 9.9989805 
1.355118e+3, 1.7550766e+2, -1389552.9, -1399369.3, -6495.9775, 0.034406926, 0.19764684, -1386319.4, -166272.44, 0.0000000068048798, 9.999261, 9.999147 
1.3551024e+3, 1.8550712e+2, -1124554.9, -1043180.44, -82496.37, 0.0058375727, 0.15115853, -991883.44, 130165.26, 0.0, 9.999639, 10.000732 
1.3550851e+3, 1.955073e+2, -931305.4, -900359.06, -10052.467, -0.07774115, 0.07174826, -897380.4, 126658.945, 0.0, 10.000291, 10.000729 
1.3550699e+3, 2.0550749e+2, -1001040.9, -1081862.3, 39935.77, -0.06412594, 0.11742179, -984637.06, -58599.09, 0.0, 10.000007, 9.998942 
1.3550563e+3, 2.1550764e+2, -1038773.1, -1024344.7, -27024.33, 0.02854184, 0.21278045, -1003588.25, -175544.67, 0.0, 9.998973, 9.999159 
1.3550417e+3, 2.2550783e+2, -800277.2, -681838.2, -29744.95, 0.049253475, 0.23604618, -674787.7, 55254.023, 0.0, 9.999168, 10.000752 
1.3550267e+3, 2.3550794e+2, -518848.7, -497180.2, 70958.195, 0.010022508, 0.1473642, -436233.88, 195801.1, 0.0, 10.00044, 10.000731 
1.3550113e+3, 2.4550717e+2, -588553.5, -760970.5, 27311.426, -0.009464551, 0.1350928, -584330.7, -50288.99, 0.0, 10.000493, 9.998223 
1.3549957e+3, 2.5550562e+2, -610501.0, -698363.6, -52968.66, -0.017861076, 0.13364121, -585616.3, -149556.08, 0.0, 9.999581, 9.998419 
1.3549808e+3, 2.6550424e+2, -331431.06, -340495.2, -3991.7407, -0.075249806, 0.07911471, -329923.78, 8146.975, 0.000000036385206, 10.0000725, 9.999966 
1.3549666e+3, 2.7550286e+2, 2934.2659, -131427.05, 46533.777, -0.16233301, -0.07928869, 17476.512, 257552.88, 0.0000068750182, 10.001708, 9.999941 
1.3549525e+3, 2.8550217e+2, 4171.5435, -348729.22, -46764.863, -0.07593432, -0.0135135595, 10263.458, 152344.42, 0.000091050126, 10.0021925, 9.997541 
1.3549386e+3, 2.95502e+2, 24908.922, -283024.16, -43188.68, 0.14461829, 0.18755877, 30851.598, 74936.336, 0.0004082825, 10.001635, 9.99759 
1.354923e+3, 3.0549818e+2, 101319.85, -324705.34, 74238.95, 0.0035707206, 0.10010058, 113886.04, 113886.04, 0.001072397, 10.002297, 9.996653 
1.3549098e+3, 3.1549442e+2, 405400.47, -44727.523, 69493.69, -0.059980094, 0.028185762, 415885.13, 415885.13, 0.0020302255, 10.003795, 9.997847 
1.365191e+3, 1.2552288e+2, -1862548.5, -1704502.1, 90116.11, -0.12386571, 0.08984802, -1663668.9, 46222.72, 0.0076198755, 9.998578, 10.000752 
1.3651764e+3, 1.3552378e+2, -1666907.9, -1633150.4, -4619.6924, -0.17718166, 0.15931016, -1632529.5, -20647.885, 0.004366158, 9.999603, 10.000073 
1.3651618e+3, 1.4552395e+2, -1552757.5, -1597969.5, -93589.71, -0.14221229, 0.20710316, -1479082.4, 34797.973, 0.0017823466, 10.000022, 9.999431 
1.3651468e+3, 1.5552358e+2, -1379533.1, -1455091.1, -113365.47, -0.013085476, 0.20240727, -1297817.4, 118068.195, 0.0004035849, 10.000506, 9.999503 
1.3651323e+3, 1.6552296e+2, -1331413.0, -1428065.9, -15122.227, 0.079490475, 0.21500406, -1329102.3, -11208.843, 0.000026350568, 10.000354, 9.999091 
1.365118e+3, 1.7552212e+2, -1317616.9, -1348666.0, 15004.891, 0.082500376, 0.19776353, -1311550.8, -91647.62, 0.000000016360648, 9.999692, 9.999279 
1.3651022e+3, 1.8552193e+2, -1123651.6, -1026622.7, -38258.23, 0.03676332, 0.17064755, -1013352.5, 108549.45, 0.0, 9.999576, 10.000877 
1.3650857e+3, 1.9552213e+2, -972991.7, -900294.9, -90196.195, -0.025440233, 0.076485984, -839398.44, 184494.34, 0.0, 9.999931, 10.000896 
1.3650702e+3, 2.0552209e+2, -1017217.2, -1120474.3, -43946.465, -0.025953896, 0.10491042, -1001046.06, -75152.586, 0.0, 10.000027, 9.998672 
1.3650556e+3, 2.155218e+2, -917830.94, -995050.1, 3299.643, 0.018876242, 0.18501745, -917690.2, -89787.15, 0.0, 9.999927, 9.998905 
1.365041e+3, 2.2552186e+2, -689128.1, -583564.4, 26882.771, 0.03575945, 0.18833263, -577112.75, 152788.22, 0.0, 9.999746, 10.001139 
1.3650267e+3, 2.3552214e+2, -639051.75, -517728.0, -44972.684, 0.028172135, 0.07785898, -502875.6, 129014.57, 0.0, 9.999455, 10.001061 
1.3650122e+3, 2.4552138e+2, -695453.25, -874500.75, -74708.82, 0.05806081, 0.07826974, -668375.5, -134478.03, 0.0, 10.000025, 9.997669 
1.3649975e+3, 2.5551963e+2, -392641.84, -653566.2, -28789.502, 0.11037527, 0.11091071, -389503.06, 46417.977, 0.0, 10.001325, 9.997888 
1.3649823e+3, 2.6551792e+2, -178306.25, -267798.94, 48985.754, 0.014712483, 0.048009064, -156706.23, 181229.88, 0.000000033203506, 10.001133, 9.999956 
1.364967e+3, 2.7551618e+2, -277425.44, -259873.27, -11428.107, -0.19608645, -0.14848873, -254240.28, -14295.318, 0.0000069323874, 9.999755, 10.0 
1.3649532e+3, 2.855159e+2, -283738.78, -425251.2, -76367.33, -0.10874165, -0.071609035, -250387.3, -108442.36, 0.00008927096, 9.99997, 9.998078 
1.3649409e+3, 2.9551682e+2, 60397.438, -199924.28, -23474.768, 0.221803, 0.18146308, 62497.36, 106435.24, 0.00039892914, 10.001616, 9.99816 
1.3649257e+3, 3.0551368e+2, 77515.125, -296951.94, 141640.48, 0.067829855, 0.117534876, 125054.73, 125054.73, 0.0010452198, 10.001947, 9.997018 
1.3649121e+3, 3.1551024e+2, 63889.957, -128376.43, 114780.99, -0.06727206, 0.044552978, 117477.39, 117477.39, 0.0019747745, 10.001043, 9.99862 
1.3751912e+3, 1.2553735e+2, -1934324.1, -1850842.6, 142146.45, 0.008718608, 0.0515829, -1744435.1, -34694.137, 0.0079810945, 9.998594, 9.999728 
1.3751757e+3, 1.3553655e+2, -1735082.5, -1773538.8, 27176.281, -0.22945909, 0.055840965, -1721019.9, -109267.695, 0.0045821774, 9.9996, 9.999109 
1.3751626e+3, 1.4553605e+2, -1553851.9, -1600048.1, -90979.125, -0.08705321, 0.080230586, -1483084.5, 30675.213, 0.0018779465, 10.000017, 9.999421 
1.3751487e+3, 1.5553552e+2, -1379654.3, -1452804.3, -87256.414, 0.1201524, 0.06355048, -1321617.4, 94149.6, 0.00043006244, 10.000497, 9.999522 
1.3751337e+3, 1.655358e+2, -1250734.1, -1269198.4, -50654.52, 0.15031448, 0.10885764, -1208477.4, 109286.516, 0.000029160963, 10.00038, 10.000176 
1.375117e+3, 1.7553672e+2, -1244271.3, -1204983.6, -2871.8687, -0.0010960053, 0.15880702, -1204774.8, 14977.325, 0.000000027808229, 9.999714, 10.000263 
1.3751014e+3, 1.85537e+2, -1207541.9, -1202635.8, -36221.598, -0.03115111, 0.19592841, -1168784.3, -47034.816, 0.0, 9.999587, 9.999665 
1.3750866e+3, 1.9553658e+2, -1057836.3, -1065449.4, -73817.69, 0.060530256, 0.16559982, -987727.0, 36028.367, 0.0, 9.999882, 9.999791 
1.3750711e+3, 2.0553608e+2, -927333.06, -916886.8, -56839.56, 0.04179975, 0.1246603, -865030.94, 60728.39, 0.0, 9.999954, 10.000104 
1.3750549e+3, 2.1553542e+2, -842931.56, -818345.06, 7296.5005, -0.063899495, 0.024817795, -816342.75, 11419.827, 0.0, 9.999834, 10.000163 
1.3750397e+3, 2.2553524e+2, -823720.25, -835011.06, 9395.259, -0.09567738, 0.034139946, -818404.75, -88642.26, 0.0, 9.999627, 9.99947 
1.3750254e+3, 2.3553543e+2, -760215.94, -744128.0, -44234.223, -0.064349666, 0.07987369, -707212.3, -75451.97, 0.0, 9.9993515, 9.999554 
1.3750118e+3, 2.4553491e+2, -617668.75, -692666.5, -36034.81, 0.006475501, 0.10868065, -603161.2, -69395.445, 0.0, 9.999932, 9.998965 
1.3749988e+3, 2.5553373e+2, -323500.8, -487573.0, 22294.17, 0.111214615, 0.06600439, -320525.44, 115252.836, 0.0, 10.0012245, 9.999078 
1.3749838e+3, 2.655328e+2, -278836.78, -453904.97, -11003.037, 0.04395427, 0.09014946, -278147.97, 59639.164, 0.000000022673568, 10.001038, 9.998722 
1.3749671e+3, 2.7553195e+2, -374363.6, -430113.28, -49506.543, -0.16220357, 0.10565538, -345423.78, -105629.055, 0.000006624494, 9.999635, 9.998883 
1.3749531e+3, 2.8553078e+2, -188527.33, -215324.34, -24051.887, -0.12426278, 0.06967721, -174393.8, -32591.16, 0.00008435929, 9.999909, 9.999554 
1.3749416e+3, 2.955294e+2, 141434.2, -148.31873, 47960.035, 0.12003914, -0.055326544, 156150.66, 199961.2, 0.00037578115, 10.001479, 9.999603 
1.3749266e+3, 3.055277e+2, 83875.0, -253034.7, 104916.82, -0.04787506, -0.06277899, 113875.625, 113875.625, 0.0009853418, 10.0018215, 9.997375 
1.3749127e+3, 3.1552768e+2, 77306.5, -34818.863, 117595.91, -0.12965874, 0.17357743, 151519.77, 151519.77, 0.0018645666, 10.0007925, 9.999369 
1.3851911e+3, 1.2555143e+2, -1636048.0, -1723328.3, 21492.465, 0.024053283, 0.14543305, -1631042.6, 78560.94, 0.008351057, 10.000708, 9.999589 
1.3851754e+3, 1.3554962e+2, -1738612.3, -1765870.5, -35679.766, -0.201257, 0.046550177, -1714047.1, -102422.695, 0.004803759, 9.999531, 9.999202 
1.3851637e+3, 1.455493e+2, -1663340.9, -1601492.4, -55019.8, 0.07783808, 0.059446152, -1569301.8, -55672.594, 0.0019753822, 9.999046, 9.999879 
1.3851495e+3, 1.555493e+2, -1491042.9, -1461607.8, -35925.203, 0.19406989, 0.052198432, -1437502.3, -21872.723, 0.00045665295, 9.999533, 9.999931 
1.385134e+3, 1.655496e+2, -1292623.9, -1271349.8, -19992.453, 0.17319462, 0.07418239, -1259340.8, 58284.266, 0.00003186285, 10.000034, 10.000321 
1.3851173e+3, 1.755503e+2, -1104682.8, -1122523.9, -60965.348, 0.014379464, 0.08459915, -1051988.8, 167626.25, 0.000000039188958, 10.000627, 10.000381 
1.3851014e+3, 1.855505e+2, -1161850.0, -1253085.6, -98986.266, 0.0028311862, 0.14256644, -1098475.9, 23139.115, 0.0, 10.000211, 9.99902 
1.3850865e+3, 1.955502e+2, -1208782.8, -1197402.1, -105030.06, 0.11382366, 0.18683626, -1097908.4, -74284.414, 0.0, 9.999105, 9.999256 
1.385071e+3, 2.0554999e+2, -982609.06, -856354.94, -44108.8, 0.09341431, 0.15770613, -842471.5, 83152.81, 0.0, 9.999198, 10.000881 
1.385055e+3, 2.1554974e+2, -725879.3, -681807.4, -46374.59, -0.03089081, 0.020096615, -652499.5, 175119.02, 0.0, 10.000288, 10.000882 
1.38504e+3, 2.2554925e+2, -701898.94, -866088.7, -31749.398, -0.06816597, 0.0026952613, -695973.44, 33647.734, 0.0, 10.000831, 9.998692 
1.3850258e+3, 2.3554845e+2, -567252.25, -733783.1, -33490.1, -0.034691032, 0.02953161, -560769.56, 70862.12, 0.0, 10.001012, 9.998838 
1.3850123e+3, 2.4554802e+2, -458181.72, -554656.1, 8298.563, 0.013734549, 0.07465588, -457473.1, 76163.58, 0.0, 10.000783, 9.99949 
1.3849992e+3, 2.555479e+2, -421101.28, -475482.2, -16083.218, 0.069272734, 0.08435368, -416700.75, 18936.496, 0.0, 10.00032, 9.999582 
1.3849843e+3, 2.6554722e+2, -431224.4, -562088.7, -61763.066, 0.035521474, 0.12200895, -406678.53, -69034.45, 0.0000000049794013, 10.000144, 9.998406 
1.3849679e+3, 2.7554584e+2, -302694.2, -430361.16, -41424.098, -0.069683775, 0.12027234, -290431.22, -50773.137, 0.0000064646365, 10.000262, 9.998582 
1.384954e+3, 2.855444e+2, -114716.27, -172137.52, 28891.967, -0.04956735, 0.069801226, -102695.51, 38974.516, 0.00007935542, 10.000381, 9.999627 
1.3849421e+3, 2.955429e+2, 19849.393, -38448.09, -32944.082, 0.06974885, -0.07490987, 34688.848, 78369.23, 0.00034767005, 10.000551, 9.999784 
1.384927e+3, 3.0554205e+2, -132576.14, -263691.97, -56375.203, -0.08777941, -0.05451713, -111670.17, -111670.17, 0.0009104193, 9.999946, 9.998197 
1.3849132e+3, 3.155421e+2, -153182.72, -40415.32, -20092.244, -0.053275276, 0.106876016, -36942.36, -36942.36, 0.0017264709, 9.998746, 10.000314 
1.3951896e+3, 1.255648e+2, -1595777.6, -1620711.8, -128565.41, -0.2299105, 0.3280378, -1479076.3, 230405.55, 0.008733579, 10.000632, 10.000333 
1.3951755e+3, 1.35563e+2, -1659506.0, -1602081.0, -74865.195, -0.16924345, 0.12103401, -1550611.1, 60886.797, 0.005033633, 9.9995365, 10.00032 
1.395165e+3, 1.455638e+2, -1591031.8, -1465948.4, -53945.297, 0.2791714, 0.1405862, -1445897.4, 67590.34, 0.002076125, 9.999099, 10.00079 
1.3951485e+3, 1.5556496e+2, -1435119.1, -1348070.8, -9969.026, 0.1321946, 0.16291116, -1346943.6, 68529.55, 0.00048381835, 9.99954, 10.000709 
1.3951331e+3, 1.6556445e+2, -1344181.1, -1387187.6, -8622.983, 0.06760276, 0.1112582, -1342516.6, -25040.309, 0.000034571214, 10.000064, 9.999517 
1.3951187e+3, 1.7556274e+2, -1164190.5, -1240212.8, -36684.582, 0.07153382, -0.035080507, -1149375.4, 70117.016, 0.00000005013657, 10.000596, 9.999593 
1.3951026e+3, 1.8556243e+2, -1157973.4, -1248762.1, -152516.34, 0.0677748, 0.0085863825, -1044239.25, 77259.02, 0.0, 10.000221, 9.999045 
1.3950853e+3, 1.9556308e+2, -1208945.6, -1197028.9, -135631.72, 0.06776043, 0.1438553, -1067224.8, -43726.938, 0.0, 9.999093, 9.999269 
1.3950701e+3, 2.0556386e+2, -977985.8, -834853.4, -11537.53, 0.06156128, 0.20582248, -833929.3, 91558.79, 0.0, 9.999148, 10.001051 
1.3950562e+3, 2.1556476e+2, -732520.56, -669344.06, -1923.1427, 0.0510056, 0.16819593, -669285.56, 158185.66, 0.0, 10.000179, 10.0010195 
1.3950421e+3, 2.2556381e+2, -705964.5, -853682.25, -34522.246, 0.044778235, 0.0931192, -698294.75, 31182.637, 0.0, 10.000732, 9.998825 
1.3950278e+3, 2.3556128e+2, -573754.6, -724499.3, -19799.213, 0.05304465, -0.06954613, -571197.5, 60305.863, 0.0, 10.00091, 9.998952 
1.395013e+3, 2.4556088e+2, -491320.97, -602605.0, -17072.424, 0.0063652988, -0.013222147, -488760.72, 44747.88, 0.0, 10.00069, 9.999206 
1.394998e+3, 2.555621e+2, -457149.97, -523945.22, -23819.295, -0.08323098, 0.16077754, -449526.16, -14027.749, 0.0, 10.000213, 9.999299 
1.3949834e+3, 2.6556098e+2, -397810.28, -477789.6, -64940.527, -0.076580934, 0.13946089, -361534.3, -24026.26, 0.0000000011462398, 10.000073, 9.999022 
1.3949691e+3, 2.7555797e+2, -283870.03, -362696.47, -25816.95, 0.0151234, -0.09447875, -276167.25, -36633.12, 0.000006299897, 10.000138, 9.999108 
1.3949555e+3, 2.85557e+2, -229507.63, -385166.16, 27172.555, 0.035075493, -0.047573313, -224900.6, -83355.305, 0.00007482128, 10.000273, 9.998215 
1.394942e+3, 2.9555744e+2, -89482.66, -239665.25, -18274.66, -0.006564871, 0.14210567, -87290.93, -43743.563, 0.00032370954, 10.000445, 9.998452 
1.3949266e+3, 3.0555668e+2, -45557.816, -65250.938, -110611.78, -0.13272479, 0.16569804, 55644.81, 55644.81, 0.00084908167, 9.999866, 9.9995985 
1.394913e+3, 3.1555355e+2, -113160.125, 108950.76, -25448.395, 0.03451569, -0.1374678, 111829.21, 111829.21, 0.0016133434, 9.998469, 10.001474 
1.4051908e+3, 1.2557733e+2, -1733993.8, -1668198.5, -90962.14, -0.10935839, 0.2831794, -1604367.9, 104990.7, 0.009133226, 9.999589, 10.0005045 
1.4051755e+3, 1.3557671e+2, -1552850.4, -1492402.1, -23841.639, -0.14455676, 0.13830045, -1484130.5, 127231.88, 0.005275387, 10.000016, 10.000845 
1.4051646e+3, 1.4557783e+2, -1412928.3, -1376806.3, -15498.041, 0.28200856, 0.16270432, -1371068.4, 142280.14, 0.0021822979, 10.000312, 10.000812 
1.4051487e+3, 1.5557857e+2, -1289542.9, -1279725.0, -56788.45, 0.14257011, 0.14185002, -1227633.8, 187704.34, 0.00051218417, 10.000551, 10.000687 
1.4051338e+3, 1.655783e+2, -1331710.4, -1397398.6, -50374.355, 0.10876115, 0.122051805, -1304418.8, 12921.851, 0.000037386584, 10.000226, 9.999364 
1.4051199e+3, 1.7557724e+2, -1304389.6, -1319434.8, -46058.945, 0.18154506, 0.052060112, -1265243.0, -45889.58, 0.00000006103049, 9.99968, 9.999489 
1.4051034e+3, 1.855767e+2, -1148228.6, -1199179.3, -100925.08, 0.14447811, 0.055811904, -1069613.4, 51746.445, 0.0, 10.000101, 9.99944 
1.405085e+3, 1.955765e+2, -853507.75, -986399.75, -73749.85, 0.012280782, 0.06713616, -820685.9, 202675.75, 0.0, 10.001368, 9.999616 
1.4050697e+3, 2.0557678e+2, -748667.2, -834082.3, 24946.336, 0.01649584, 0.112526886, -741915.1, 183441.89, 0.0, 10.001193, 10.000076 
1.4050572e+3, 2.155774e+2, -826057.94, -811062.94, -60358.035, 0.12892896, 0.14203776, -757738.5, 69609.234, 0.0, 9.999953, 10.000155 
1.4050433e+3, 2.2557676e+2, -856898.06, -870744.3, -87532.05, 0.153789, 0.113043666, -776015.8, -46663.258, 0.0, 9.999485, 9.999296 
1.4050286e+3, 2.35575e+2, -719873.5, -739315.7, -67861.16, 0.1094879, -0.018767897, -661040.7, -29671.168, 0.0, 9.99969, 9.999426 
1.4050138e+3, 2.4557446e+2, -634807.5, -709524.9, -52834.08, 0.058880456, 0.016250199, -607458.3, -74082.125, 0.0, 9.999863, 9.998876 
1.4049989e+3, 2.5557473e+2, -497126.25, -572957.1, -75389.18, -0.0060401545, 0.13014488, -450655.03, -15279.212, 0.0, 10.000057, 9.999043 
1.4049841e+3, 2.655737e+2, -363724.25, -384842.84, -94236.08, -0.0048649414, 0.09440223, -279457.72, 57926.152, 0.0000000047036606, 9.999977, 9.999706 
1.4049694e+3, 2.7557173e+2, -292565.9, -292396.38, -74485.39, 0.053696156, -0.10110051, -217995.69, 21402.164, 0.000006310048, 9.99976, 9.999773 
1.4049554e+3, 2.8557128e+2, -333039.22, -458709.13, 56916.863, 0.05368494, -0.0248688, -311093.5, -169688.61, 0.00007120588, 9.999676, 9.99799 
1.4049421e+3, 2.955717e+2, -209004.47, -319156.66, 82306.945, 0.002468199, 0.18985406, -165046.17, -121636.47, 0.00031037428, 9.999729, 9.998247 
1.4049266e+3, 3.0557123e+2, -42890.785, -29000.543, -25204.578, -0.10379988, 0.23450835, -9801.727, -9801.727, 0.0008184522, 9.999715, 9.999933 
1.4049123e+3, 3.1556752e+2, 57977.418, 195464.4, -45187.234, 0.06925433, -0.16116253, 208986.06, 208986.06, 0.0015564455, 9.999614, 10.001524 
1.415193e+3, 1.2558898e+2, -1759974.8, -1725118.1, -187374.16, 0.10611323, -0.017547328, -1554363.5, 154871.52, 0.009556688, 9.999597, 10.00012 
1.4151752e+3, 1.355909e+2, -1564589.1, -1503810.8, 3008.0627, -0.18221533, 0.09756346, -1503662.3, 107554.37, 0.0055341963, 9.999975, 10.000781 
1.4151625e+3, 1.4559151e+2, -1468281.6, -1500548.1, -16963.93, 0.0012154226, 0.11650484, -1461004.3, 52206.566, 0.0022969088, 10.00034, 9.999951 
1.4151496e+3, 1.555904e+2, -1346388.3, -1397643.3, -42647.137, 0.15756014, 0.0011756043, -1322260.9, 92960.9, 0.0005425403, 10.000548, 9.99988 
1.4151353e+3, 1.6559139e+2, -1290255.5, -1317006.1, -83220.53, 0.22290614, 0.117876485, -1219342.3, 97873.016, 0.000040406845, 10.000248, 9.9999075 
1.4151207e+3, 1.7559382e+2, -1267891.1, -1237610.8, -56326.844, 0.2781327, 0.34505737, -1194424.9, 24772.498, 0.00000007226826, 9.999653, 10.000065 
1.4151038e+3, 1.8559334e+2, -1094696.8, -1089886.3, -62979.145, 0.16004479, 0.28616259, -1029266.44, 91932.305, 0.0, 10.000108, 10.000188 
1.4150852e+3, 1.955905e+2, -820386.94, -907542.7, -26382.115, -0.11675368, -0.039215237, -813023.2, 210192.55, 0.0, 10.001326, 10.000176 
1.4150698e+3, 2.0558874e+2, -895499.25, -1128286.4, -35419.457, -0.1061973, -0.11693544, -890229.3, 35002.13, 0.0, 10.001142, 9.998083 
1.4150573e+3, 2.1558772e+2, -971037.75, -1087306.3, -97552.516, 0.14736329, -0.052320834, -915611.06, -88363.57, 0.0, 9.999841, 9.998318 
1.4150433e+3, 2.2558811e+2, -817544.1, -761997.75, -88888.76, 0.1922974, 0.06512651, -696644.4, 32601.486, 0.0, 9.999368, 10.000098 
1.415028e+3, 2.3558962e+2, -689925.6, -647771.94, -51733.418, 0.07125608, 0.18204725, -612986.6, 18243.697, 0.0, 9.99957, 10.00011 
1.4150141e+3, 2.4558876e+2, -667426.6, -762239.44, -53495.06, 0.09505415, 0.17252155, -643355.2, -110115.94, 0.0, 9.999789, 9.99855 
1.4150016e+3, 2.5558585e+2, -526989.4, -616478.56, -60194.18, 0.2376683, -0.0014145381, -496731.16, -61462.188, 0.0, 9.999971, 9.998787 
1.4149861e+3, 2.655855e+2, -329836.28, -291374.53, -109230.7, 0.18369764, 0.002995037, -199694.75, 137575.81, 0.000000079284355, 9.999881, 10.000391 
1.4149685e+3, 2.755871e+2, -260717.08, -203310.23, -70663.24, -0.024068817, 0.09749582, -155743.22, 83507.016, 0.000007370017, 9.999668, 10.000424 
1.414954e+3, 2.8558716e+2, -264140.78, -309409.63, 52176.805, -0.07130542, 0.13876662, -229900.45, -88650.54, 0.00007169882, 9.999634, 9.999041 
1.4149423e+3, 2.9558572e+2, -160024.6, -196381.95, 99682.77, 0.021090519, 0.060175583, -76876.484, -33608.645, 0.00031191297, 9.999619, 9.999153 
1.4149266e+3, 3.0558568e+2, -130273.65, -165027.5, -32953.6, -0.08941862, 0.15483491, -110396.08, -110396.08, 0.00082090637, 9.999545, 9.999063 
1.4149107e+3, 3.1558424e+2, -76427.99, -22816.965, -18669.25, -0.09494471, 0.063182764, -16956.344, -16956.344, 0.001557211, 9.999386, 10.0001135 
1.425193e+3, 1.2560292e+2, -1650905.3, -1701684.5, -158084.1, 0.12636188, -0.12977487, -1516184.9, 192908.6, 0.010011913, 10.000473, 9.999863 
1.4251767e+3, 1.3560514e+2, -1589041.9, -1561385.9, 2515.028, -0.016526984, 0.05664007, -1561159.0, 49913.133, 0.0058154534, 10.000008, 10.000369 
1.425162e+3, 1.4560501e+2, -1557269.6, -1563620.3, 25364.184, -0.047062103, 0.033218488, -1534882.8, -21808.709, 0.002423067, 9.999842, 9.999751 
1.4251496e+3, 1.5560396e+2, -1429647.5, -1459102.4, 26718.139, 0.13272925, -0.05898338, -1413866.6, 1218.438, 0.00057589856, 10.000077, 9.999683 
1.4251354e+3, 1.656049e+2, -1297574.6, -1352670.9, -17391.303, 0.2110967, 0.07858667, -1292544.3, 24536.459, 0.00004378684, 10.000325, 9.999627 
1.4251205e+3, 1.7560732e+2, -1135054.5, -1198947.4, -66104.45, 0.2589601, 0.32845977, -1093581.8, 125483.664, 0.00000008454083, 10.000672, 9.999839 
1.4251044e+3, 1.8560708e+2, -1017588.94, -1034923.94, -86543.48, 0.17770836, 0.2951669, -939280.06, 181784.9, 0.0, 10.00057, 10.000338 
1.4250869e+3, 1.9560467e+2, -971694.25, -966887.56, -109920.5, -0.030238837, -0.0036097812, -859344.1, 163732.42, 0.0, 10.000232, 10.000296 
1.4250714e+3, 2.0560272e+2, -1030720.0, -1218393.3, -76596.875, -0.02754032, -0.09194062, -1003427.0, -78333.125, 0.0, 10.000325, 9.997854 
1.4250578e+3, 2.1560104e+2, -840743.25, -1047403.7, -27186.29, 0.15262434, -0.0705655, -837226.75, -10109.7295, 0.0, 10.000834, 9.998108 
1.425043e+3, 2.256013e+2, -653677.9, -719740.75, 12478.79, 0.17403321, 0.05914755, -651399.3, 77718.47, 0.0, 10.000642, 9.999779 
1.4250275e+3, 2.356031e+2, -653328.56, -661085.7, -45595.715, 0.060395073, 0.23487924, -611446.75, 19654.24, 0.0, 9.999937, 9.999848 
1.4250141e+3, 2.4560215e+2, -629096.06, -687241.6, -10376.278, 0.115970396, 0.2045145, -627299.9, -94190.12, 0.0, 9.999822, 9.999048 
1.4250024e+3, 2.5559893e+2, -445652.97, -521891.1, 20244.207, 0.30453753, -0.05122024, -440610.8, -5470.899, 0.00000000006254562, 10.0002985, 9.999278 
1.4249866e+3, 2.655988e+2, -280718.06, -305247.7, -46855.926, 0.22679418, -0.027070541, -244548.34, 92591.2, 0.00000036239143, 10.000378, 10.000061 
1.424968e+3, 2.7560115e+2, -210097.13, -206915.63, -96282.266, -0.0572006, 0.17194052, -112210.98, 126904.27, 0.000010082052, 10.000131, 10.000179 
1.4249535e+3, 2.8560114e+2, -201340.02, -201289.58, -2149.147, -0.09078516, 0.18287063, -199165.5, -58051.156, 0.000078412035, 9.999727, 9.9997425 
1.4249423e+3, 2.9559916e+2, -153988.77, -116653.18, -8618.776, 0.079906724, -0.02380654, -114759.61, -71626.125, 0.00032778483, 9.999333, 9.999838 
1.4249271e+3, 3.0559936e+2, -81082.1, -179701.36, -72323.78, -0.01602965, 0.07854359, -42857.91, -42857.91, 0.00085219153, 10.000029, 9.998739 
1.424911e+3, 3.1559926e+2, 175240.5, 11345.121, -37921.508, -0.09574086, 0.15955812, 183589.34, 183589.34, 0.001610581, 10.001469, 9.999357 
1.435191e+3, 1.2561932e+2, -1647903.5, -1695297.1, -126203.28, -0.16192673, -0.053947825, -1543191.6, 165740.34, 0.010506618, 10.000467, 9.999905 
1.4351799e+3, 1.3561983e+2, -1647096.8, -1673473.5, -5432.4067, 0.2802961, 0.03274412, -1646021.8, -35096.63, 0.006123269, 9.99998, 9.999602 
1.435163e+3, 1.4561865e+2, -1517489.1, -1499637.6, 22755.99, 0.043086935, -0.07601971, -1484119.5, 28815.879, 0.002563054, 9.999907, 10.000169 
1.4351486e+3, 1.5561919e+2, -1401022.0, -1401776.5, 42881.48, 0.0057202647, -0.05336748, -1358516.1, 56413.0, 0.0006133788, 10.000081, 10.00008 
1.435134e+3, 1.6561894e+2, -1371841.5, -1508764.9, -14723.18, 0.0035186126, 0.0010192407, -1370276.3, -53339.594, 0.000047750204, 10.000332, 9.998554 
1.4351194e+3, 1.7561789e+2, -1209885.9, -1353748.1, -47544.016, 0.060982525, 0.011351807, -1195593.4, 23363.393, 0.00000010052836, 10.000667, 9.998779 
1.4351046e+3, 1.8561803e+2, -1045120.1, -1091960.0, -110235.8, 0.13113084, 0.08970871, -955843.94, 165113.45, 0.0, 10.000569, 9.9999485 
1.4350894e+3, 1.9561902e+2, -997686.25, -1010815.94, -113475.28, 0.20052235, 0.17009553, -890586.06, 132357.34, 0.0, 10.000189, 10.000016 
1.4350738e+3, 2.0561874e+2, -933036.06, -1006604.9, -67210.53, 0.16853811, 0.18175389, -893202.25, 31741.434, 0.0, 10.00028, 9.999331 
1.4350578e+3, 2.1561737e+2, -768391.25, -872121.8, -4035.6475, 0.073062144, 0.08762023, -768234.5, 58721.75, 0.0, 10.000724, 9.999365 
1.4350423e+3, 2.2561629e+2, -769031.6, -930608.56, -23124.113, 0.02585153, 0.099680774, -765787.4, -36818.68, 0.0, 10.000521, 9.998389 
1.4350273e+3, 2.356154e+2, -756581.0, -846150.3, -62738.434, 0.015147483, 0.14675353, -724282.7, -93301.38, 0.0, 9.999815, 9.998637 
1.4350134e+3, 2.456146e+2, -553854.8, -507580.13, -2258.4338, 0.04878962, 0.11913565, -507470.16, 25517.408, 0.0, 9.999714, 10.000338 
1.4350009e+3, 2.5561383e+2, -384842.8, -371073.34, 44516.473, 0.124926046, -0.019910323, -332912.34, 102077.17, 0.000000006122379, 10.000194, 10.000365 
1.4349854e+3, 2.6561365e+2, -375392.28, -489041.88, -63819.816, 0.060115315, 0.013028262, -346765.2, -9774.212, 0.0000008787704, 10.000315, 9.998834 
1.4349677e+3, 2.756139e+2, -302439.44, -380157.9, -94018.72, -0.11645544, 0.12821619, -239565.89, -573.3516, 0.000014138208, 10.000044, 9.999038 
1.4349535e+3, 2.8561324e+2, -196763.45, -171012.38, -25998.068, -0.089204736, 0.113991015, -154876.2, -13877.952, 0.00009033198, 9.999636, 9.999993 
1.4349419e+3, 2.9561168e+2, -157360.94, -100510.0, -8229.592, 0.09923092, -0.07129241, -99342.67, -56333.496, 0.00035666508, 9.999233, 9.999996 
1.4349279e+3, 3.0561194e+2, -63654.418, -123294.57, -24970.98, 0.039992876, 0.00854193, -54579.934, -54579.934, 0.00091448583, 9.99995, 9.999161 
1.4349131e+3, 3.1561285e+2, 145160.38, -1648.1725, 45432.742, -0.060969744, 0.14676125, 158082.94, 158082.94, 0.0017228713, 10.001261, 9.999371 
1.4451914e+3, 1.2563467e+2, -1631854.3, -1648172.6, -76301.125, -0.17260723, 0.02328169, -1563277.3, 145506.23, 0.011047917, 10.0004015, 10.000259 
1.4451809e+3, 1.3563377e+2, -1552723.4, -1671032.3, -52586.285, 0.3597669, -0.0036850623, -1532728.8, 78058.734, 0.00646129, 10.000796, 9.999232 
1.4451635e+3, 1.4563227e+2, -1420246.5, -1475112.3, -16612.123, 0.06277779, -0.11278962, -1415608.8, 97192.016, 0.0027186894, 10.000685, 9.99995 
1.4451495e+3, 1.5563336e+2, -1363703.8, -1397363.8, -63730.824, 0.092804044, -0.01874198, -1314618.1, 100172.52, 0.0006559602, 10.000403, 9.999948 
1.4451346e+3, 1.6563302e+2, -1375374.6, -1478417.3, -62372.79, 0.059264496, 0.017712988, -1345996.0, -29198.074, 0.000052490832, 10.000191, 9.99882 
1.4451191e+3, 1.7563142e+2, -1258603.0, -1352889.1, -13483.201, -0.011640156, -0.052197035, -1256712.9, -37892.867, 0.00000012546444, 10.0002365, 9.998988 
1.4451042e+3, 1.856314e+2, -1076455.0, -1165197.3, -21988.73, 0.046931576, 0.028186949, -1071305.4, 49517.945, 0.0, 10.000591, 9.999439 
1.44509e+3, 1.9563264e+2, -879501.9, -1001279.8, -51043.008, 0.19217572, 0.17968331, -860937.4, 161874.55, 0.0, 10.001204, 9.999591 
1.4450747e+3, 2.056327e+2, -785557.2, -906883.5, -50126.816, 0.19143255, 0.23303138, -767526.5, 157283.23, 0.0, 10.001178, 9.99958 
1.4450586e+3, 2.1563175e+2, -754110.0, -837097.75, -93350.484, 0.08520425, 0.15634218, -693446.9, 133369.25, 0.0, 10.000706, 9.999612 
1.445043e+3, 2.2563015e+2, -777748.25, -948210.56, -88135.09, 0.03891859, 0.10995464, -740373.75, -11541.43, 0.0, 10.000516, 9.998272 
1.4450274e+3, 2.3562796e+2, -652472.44, -805951.44, -48303.35, 0.034309138, 0.036879532, -638535.75, -7679.0547, 0.0, 10.000568, 9.998548 
1.4450133e+3, 2.4562764e+2, -473036.8, -473858.38, 24936.64, 0.04402219, 0.0613009, -448507.56, 84351.59, 0.0, 10.000292, 10.000287 
1.4450002e+3, 2.5562865e+2, -440771.66, -407256.38, -40561.586, 0.06250225, 0.10684393, -380127.13, 54718.563, 0.000000012932129, 9.999833, 10.000297 
1.444985e+3, 2.6562813e+2, -481720.13, -552152.5, -130735.39, 0.022194322, 0.11819038, -381540.88, -44690.35, 0.0000016431604, 9.9996395, 9.998719 
1.444968e+3, 2.7562648e+2, -351255.28, -411773.25, -99280.13, -0.063682124, 0.051524673, -277725.3, -38855.516, 0.00001933506, 9.999751, 9.998952 
1.4449537e+3, 2.856257e+2, -135524.0, -166118.45, 11646.566, -0.05608241, 0.036783285, -131595.02, 9281.467, 0.000106984284, 10.000168, 9.9997635 
1.4449412e+3, 2.9562536e+2, 55439.78, -20279.984, -15836.7295, 0.029007321, -0.006492655, 58618.57, 101493.93, 0.00040085675, 10.000787, 9.999793 
1.4449276e+3, 3.0562496e+2, 39428.246, -54047.664, -24934.172, -0.001088911, 0.0120096775, 45663.39, 45663.39, 0.0010133042, 10.000569, 9.999347 
1.4449142e+3, 3.1562573e+2, -62416.55, -83551.32, -8859.42, 0.0032213307, 0.11089611, -59194.125, -59194.125, 0.0019009939, 9.999759, 9.999527 
1.4551947e+3, 1.2564987e+2, -1591597.1, -1566557.1, 63886.02, 0.0872371, 0.16504364, -1513975.9, 194663.39, 0.011640448, 10.0004225, 10.000812 
1.45518e+3, 1.3564707e+2, -1554646.6, -1665448.5, -37390.598, 0.16905223, -0.06283076, -1543209.6, 67448.836, 0.0068325973, 10.000755, 9.999291 
1.4551632e+3, 1.4564602e+2, -1486130.0, -1606565.8, -36459.023, -0.057181235, -0.07874775, -1475952.9, 36715.453, 0.0028915813, 10.000659, 9.99906 
1.4551523e+3, 1.5564664e+2, -1417241.9, -1500283.1, -66978.586, 0.30619556, 0.048589416, -1379958.3, 34709.625, 0.00070428615, 10.000373, 9.999252 
1.4551373e+3, 1.6564727e+2, -1258881.4, -1246376.5, -71812.164, 0.28808397, 0.13050793, -1180545.1, 136118.23, 0.000058062662, 10.000224, 10.000401 
1.4551194e+3, 1.7564784e+2, -1159409.9, -1145094.9, -2065.3792, -0.022147313, 0.12171778, -1144802.9, 73853.266, 0.00000016567238, 10.000226, 10.0004225 
1.4551032e+3, 1.8564719e+2, -1120075.5, -1256039.4, -8347.8955, -0.1433845, 0.10379486, -1119564.9, 1098.3256, 0.0, 10.000592, 9.998815 
1.4550883e+3, 1.9564554e+2, -932540.56, -1103596.1, -24556.367, -0.11593142, 0.0346472, -929085.1, 93596.46, 0.0, 10.001167, 9.998908 
1.4550738e+3, 2.056446e+2, -862160.1, -1047975.5, -76597.75, -0.026043555, 0.06925091, -834655.8, 90036.36, 0.0, 10.001104, 9.998645 
1.4550598e+3, 2.1564414e+2, -824835.5, -958262.3, -102671.37, 0.122089215, 0.13121474, -769106.75, 57590.62, 0.0, 10.000598, 9.998832 
1.4550446e+3, 2.2564286e+2, -707657.7, -776879.0, -94173.41, 0.13658415, 0.08799739, -641936.25, 86772.65, 0.0, 10.000406, 9.999498 
1.4550284e+3, 2.3564088e+2, -603515.56, -667588.1, -38455.984, 0.04885235, -0.08200216, -585500.0, 45225.902, 0.0, 10.000421, 9.999566 
1.4550136e+3, 2.4564125e+2, -579453.1, -678468.2, -256.64197, 0.02525336, 0.03735091, -579452.5, -46728.35, 0.0, 10.000209, 9.998927 
1.4550002e+3, 2.556434e+2, -536226.7, -586566.2, -48340.313, 0.04985938, 0.33001226, -506895.97, -72187.83, 0.000000017460069, 9.999748, 9.999106 
1.454985e+3, 2.6564237e+2, -426457.5, -418074.22, -134189.36, 0.042376142, 0.29179785, -288011.06, 48706.832, 0.000002726617, 9.999551, 9.999685 
1.4549689e+3, 2.7563885e+2, -309016.9, -293919.5, -84890.31, 0.020999474, -0.057475895, -216242.92, 22505.178, 0.0000251694, 9.999629, 9.999817 
1.4549538e+3, 2.8563842e+2, -188119.48, -257115.16, 28540.738, -0.06223724, -0.044523116, -177843.73, -37093.9, 0.00012713004, 10.000081, 9.9991865 
1.4549398e+3, 2.9564026e+2, 6281.936, -103642.484, 15721.982, -0.20458509, 0.18520352, 8486.37, 51217.152, 0.00045719108, 10.000698, 9.99927 
1.4549261e+3, 3.0563864e+2, 12382.374, -78057.97, -64196.51, -0.21505803, 0.108326785, 45686.44, 45686.44, 0.0011417216, 10.000437, 9.999241 
1.4549138e+3, 3.156378e+2, -95788.17, -91984.375, -19641.154, -0.04731607, 0.0620113, -74153.25, -74153.25, 0.0021348668, 9.999513, 9.999579 
1.4651965e+3, 1.2566338e+2, -1656637.5, -1616779.0, 109458.1, 0.25438672, 0.23051713, -1525450.6, 183059.55, 0.012283002, 10.000051, 10.000646 
1.4651796e+3, 1.3566008e+2, -1581751.9, -1661341.8, -108928.336, 0.08819319, -0.06058807, -1505576.9, 104958.586, 0.00723705, 10.000495, 9.999448 
1.4651638e+3, 1.4565995e+2, -1512678.6, -1597908.1, -49887.7, -0.037872292, -0.0021239358, -1489682.4, 22853.348, 0.0030819494, 10.000372, 9.999264 
1.4651525e+3, 1.5566044e+2, -1414297.1, -1478073.4, -22663.52, 0.29925606, 0.09084627, -1407063.8, 7471.2197, 0.0007585455, 10.000283, 9.999457 
1.4651375e+3, 1.6566089e+2, -1273961.0, -1241773.1, -33869.508, 0.2941616, 0.13950416, -1220368.3, 96162.125, 0.00006440502, 10.000066, 10.000511 
1.4651197e+3, 1.756613e+2, -1193941.6, -1149358.9, -87206.23, 0.019019073, 0.10288896, -1081640.1, 136883.1, 0.00000022299002, 9.999931, 10.000536 
1.4651038e+3, 1.8566069e+2, -1171836.4, -1277889.8, -71062.54, -0.11280111, 0.08452949, -1136196.8, -15667.088, 0.0, 10.000241, 9.998825 
1.4650892e+3, 1.956592e+2, -951497.1, -1107953.5, -58459.08, -0.13343893, 0.028090479, -932067.2, 90480.42, 0.0, 10.001023, 9.9989395 
1.4650747e+3, 2.0565811e+2, -869555.0, -1060314.0, -74773.9, -0.047117412, 0.048367847, -843738.9, 80821.04, 0.0, 10.001084, 9.998575 
1.4650604e+3, 2.1565732e+2, -817616.8, -959088.3, -48700.336, 0.12605795, 0.08383449, -802473.2, 24094.512, 0.0, 10.000666, 9.998796 
1.4650452e+3, 2.2565638e+2, -667487.6, -756903.1, -27631.201, 0.15785778, 0.07568076, -659638.1, 68938.336, 0.0, 10.000689, 9.999502 
1.4650294e+3, 2.3565513e+2, -501843.06, -618158.25, -79604.664, 0.08130423, -0.019896133, -461414.63, 169172.73, 0.0, 10.001111, 9.9995775 
1.4650142e+3, 2.4565524e+2, -528980.9, -657912.4, -44270.387, 0.05281359, 0.07611139, -515243.7, 17344.695, 0.0, 10.000591, 9.998877 
1.4649998e+3, 2.556564e+2, -577292.3, -608286.0, -10327.546, 0.0547649, 0.27522507, -574166.3, -139584.47, 0.000000044837254, 9.999488, 9.999076 
1.4649846e+3, 2.6565543e+2, -424134.1, -411130.8, -32672.213, 0.0431021, 0.2437393, -384319.63, -47729.19, 0.0000038968087, 9.999555, 9.999726 
1.4649689e+3, 2.756528e+2, -176674.38, -231676.83, -67237.914, 0.020407764, -0.019423902, -131530.89, 107080.55, 0.000030512307, 10.000537, 9.999811 
1.4649542e+3, 2.856523e+2, -183594.44, -289193.28, 15576.898, -0.035865493, 0.005495655, -181344.63, -40731.117, 0.00014596309, 10.000263, 9.998878 
1.4649405e+3, 2.9565352e+2, -248043.47, -258946.19, -7855.418, -0.13036813, 0.20746419, -243933.2, -201332.73, 0.0005129789, 9.999104, 9.998967 
1.4649265e+3, 3.056508e+2, -174067.86, -214361.5, -57027.46, -0.15754828, 0.05406856, -133733.06, -133733.06, 0.0012767037, 9.999357, 9.998816 
1.4649136e+3, 3.1564963e+2, 62810.863, -22982.984, -65112.617, -0.04881299, 0.020643868, 97887.01, 97887.01, 0.002388808, 10.000597, 9.999545 
1.475197e+3, 1.2567456e+2, -1719426.0, -1745664.5, 112910.0, 0.24295114, 0.16305391, -1618875.6, 89527.18, 0.012969953, 10.000062, 9.999739 
1.4751795e+3, 1.3567284e+2, -1562249.3, -1612428.8, -93025.57, 0.0025953187, 0.0105095105, -1490989.4, 119428.48, 0.0076708426, 10.000467, 9.999791 
1.4751652e+3, 1.456741e+2, -1410695.5, -1401717.4, -67976.62, 0.028644048, 0.11203198, -1338081.8, 174320.9, 0.0032881629, 10.000427, 10.000592 
1.4751501e+3, 1.5567489e+2, -1344647.3, -1325426.9, -18921.379, 0.025903989, 0.11734161, -1313815.0, 100575.49, 0.00081847684, 10.000251, 10.000521 
1.475135e+3, 1.6567406e+2, -1361913.9, -1435193.6, -50204.293, 0.016873559, 0.060433637, -1336401.0, -20003.4, 0.000071419374, 10.000102, 9.999168 
1.4751202e+3, 1.7567202e+2, -1281237.0, -1325690.6, -83038.81, 0.037114397, -0.09001167, -1217501.8, 917.10443, 0.0000002932695, 9.999911, 9.999335 
1.475106e+3, 1.8567207e+2, -1122592.5, -1182205.9, -49899.99, 0.056410648, -0.02129818, -1094274.8, 26146.408, 0.0, 10.00026, 9.999477 
1.4750923e+3, 1.9567358e+2, -911830.9, -1015903.75, -24798.37, 0.06577423, 0.15564887, -906224.0, 116186.53, 0.0, 10.0009775, 9.9995985 
1.475077e+3, 2.0567322e+2, -819199.4, -941493.4, -101886.64, 0.04920561, 0.1725485, -761519.44, 162893.89, 0.0, 10.001022, 9.999419 
1.4750601e+3, 2.1567139e+2, -789691.7, -872502.2, -57479.402, 0.025135817, 0.023397269, -760257.1, 66169.65, 0.0, 10.000547, 9.999446 
1.475045e+3, 2.2567068e+2, -769801.75, -944755.25, -20492.432, 0.035950866, 0.07884118, -767433.5, -38998.33, 0.0, 10.000575, 9.99827 
1.4750303e+3, 2.3567078e+2, -589096.44, -776612.2, -58966.254, 0.064536065, 0.23308934, -572095.3, 58345.14, 0.0, 10.001011, 9.998539 
1.475015e+3, 2.4566968e+2, -452859.06, -485253.9, -95122.12, 0.048272647, 0.18975805, -372565.2, 159886.13, 0.0, 10.00052, 10.000099 
1.4749989e+3, 2.556676e+2, -517872.2, -461095.4, -38696.883, 0.009710503, -0.05368189, -441490.6, -7023.535, 0.000000082863835, 9.999385, 10.000138 
1.4749832e+3, 2.6566732e+2, -499224.1, -546526.6, -363.9194, -0.053922534, -0.018139942, -499221.28, -162753.14, 0.0000048986644, 9.999462, 9.998839 
1.4749679e+3, 2.7566838e+2, -249656.34, -358555.44, -23294.88, -0.14097619, 0.17157666, -244882.55, -6423.6597, 0.00003489618, 10.000434, 9.998984 
1.4749546e+3, 2.8566742e+2, -213140.58, -331786.47, -38510.33, -0.05436862, 0.19970314, -201736.89, -61270.336, 0.0001611451, 10.000172, 9.998634 
1.4749426e+3, 2.9566494e+2, -285029.22, -305913.13, -36321.457, 0.16791895, 0.052916937, -257678.55, -215191.83, 0.0005625148, 9.998978, 9.998702 
1.4749286e+3, 3.056612e+2, -243811.48, -326781.16, -14210.576, 0.09086238, -0.15276533, -241445.08, -241445.08, 0.0014021061, 9.999221, 9.998106 
1.4749135e+3, 3.1566107e+2, 27845.729, -31023.91, 1056.9957, -0.14582779, -0.02016708, 27864.701, 27864.701, 0.0026234915, 10.000341, 9.999599 
1.4851977e+3, 1.256875e+2, -1647325.8, -1725279.3, 172229.47, 0.28569046, 0.14772375, -1509717.8, 198560.6, 0.013700781, 10.000611, 9.999633 
1.4851792e+3, 1.3568747e+2, -1518165.9, -1538663.1, 9848.713, -0.07442995, 0.12127401, -1514200.8, 96077.64, 0.00813248, 10.000521, 10.000288 
1.4851663e+3, 1.4568852e+2, -1395412.8, -1385199.3, 7781.9478, 0.10619689, 0.17656095, -1380998.1, 131266.38, 0.0035089266, 10.000519, 10.000652 
1.4851502e+3, 1.5568827e+2, -1228175.6, -1260045.3, -48843.793, -0.033177868, 0.06822473, -1192733.1, 221527.48, 0.0008836724, 10.001022, 10.000592 
1.4851345e+3, 1.6568744e+2, -1291395.5, -1414092.1, -69288.74, -0.06364756, 0.014006565, -1260199.0, 56068.47, 0.00007901186, 10.000666, 9.999032 
1.4851199e+3, 1.7568608e+2, -1300498.6, -1344541.4, -31109.568, 0.031661276, -0.054656826, -1284405.1, -66121.89, 0.00000037325287, 9.999831, 9.999238 
1.4851062e+3, 1.8568628e+2, -1211428.9, -1208065.5, 75039.0, 0.09276862, 0.024387544, -1134689.4, -14405.42, 0.0, 9.9995775, 9.999633 
1.4850931e+3, 1.9568764e+2, -1043820.25, -1055894.5, 46755.598, 0.10112962, 0.16992475, -1002713.6, 19559.82, 0.0, 9.99997, 9.999811 
1.4850774e+3, 2.0568742e+2, -897074.06, -936255.1, -71356.86, 0.050313313, 0.17220311, -842667.4, 81606.13, 0.0, 10.000309, 9.999796 
1.4850602e+3, 2.1568593e+2, -751288.4, -813427.7, -74329.555, -0.034809772, 0.01919876, -701796.25, 124486.21, 0.0, 10.000631, 9.999811 
1.4850447e+3, 2.2568528e+2, -825634.4, -976737.2, 11539.78, -0.014005238, 0.065872595, -824758.1, -96468.22, 0.0, 10.000215, 9.998219 
1.4850307e+3, 2.3568535e+2, -838944.3, -902772.3, 39909.19, 0.07286168, 0.22119413, -819757.94, -189461.86, 0.0, 9.999324, 9.998482 
1.4850153e+3, 2.4568419e+2, -647214.4, -614325.7, -10754.729, 0.0937803, 0.19194506, -611121.06, -78812.77, 0.0, 9.99933, 9.999795 
1.4849992e+3, 2.5568202e+2, -444313.78, -457984.94, -79892.86, 0.0683184, -0.029521046, -370964.63, 63361.23, 0.00000011463164, 10.000022, 9.999858 
1.4849836e+3, 2.6568136e+2, -408464.3, -538752.4, -28999.225, -0.007825694, -0.0026706054, -402301.25, -65969.9, 0.000005857849, 10.000247, 9.998515 
1.4849682e+3, 2.7568185e+2, -302502.34, -420755.94, -36400.543, -0.12832849, 0.1656647, -292195.88, -53867.7, 0.0000392753, 10.000226, 9.998662 
1.484955e+3, 2.8568068e+2, -190199.03, -314667.72, -40313.77, -0.02630027, 0.1891932, -178282.75, -37944.96, 0.0001765315, 10.000326, 9.998666 
1.4849432e+3, 2.9567826e+2, -59242.15, -197946.66, -38247.684, 0.24354225, 0.04920916, -49394.527, -7037.1436, 0.00061170605, 10.000529, 9.998699 
1.4849289e+3, 3.0567485e+2, -217201.4, -312589.0, 42630.395, 0.19068943, -0.12023264, -200926.08, -200926.08, 0.0015158497, 9.999392, 9.998129 
1.4849135e+3, 3.1567478e+2, -389783.47, -172006.81, 67842.08, -0.017000264, 0.013533136, -152601.66, -152601.66, 0.0028185756, 9.997209, 10.000144 
1.4951974e+3, 1.2570213e+2, -1577470.9, -1586251.5, 10870.355, 0.15426403, 0.17749274, -1570137.8, 137999.52, 0.014485426, 10.0006275, 10.000586 
1.4951786e+3, 1.3570431e+2, -1491916.8, -1460141.9, 9746.275, -0.20682041, 0.30124938, -1457390.6, 152723.11, 0.008627366, 10.000435, 10.000864 
1.4951672e+3, 1.4570336e+2, -1468920.8, -1553319.8, 10266.528, 0.1205483, 0.19145572, -1467689.8, 44430.9, 0.0037456865, 10.00056, 9.999487 
1.495152e+3, 1.5570077e+2, -1300290.1, -1401609.6, -25505.031, 0.024733817, -0.042752072, -1294232.0, 119911.1, 0.0009542572, 10.000984, 9.99964 
1.4951356e+3, 1.6570117e+2, -1209840.0, -1257514.1, -112084.086, -0.046335213, 0.015143887, -1119086.3, 197051.9, 0.00008722728, 10.000714, 10.000084 
1.4951189e+3, 1.7570338e+2, -1240705.1, -1213822.4, -55728.62, -0.054283388, 0.20190962, -1169937.0, 48180.09, 0.0000004647829, 9.999809, 10.000144 
1.4951044e+3, 1.8570325e+2, -1224215.9, -1248435.5, 77601.23, -0.06886741, 0.2236624, -1157785.3, -37666.914, 0.0, 9.999626, 9.999336 
1.4950912e+3, 1.9570144e+2, -1069742.5, -1103012.5, 66339.695, -0.10001994, 0.08106501, -1017983.94, 4152.116, 0.0, 9.999938, 9.999505 
1.4950763e+3, 2.0570078e+2, -906423.4, -942925.6, -68388.29, -0.11791085, 0.056311317, -853892.7, 70247.35, 0.0, 10.00025, 9.999778 
1.49506e+3, 2.1570092e+2, -763140.2, -811116.4, -59712.906, -0.11451604, 0.065247275, -722777.2, 103357.59, 0.0, 10.000519, 9.999877 
1.4950447e+3, 2.2570023e+2, -763989.75, -832049.0, -32812.855, -0.057451207, 0.04486082, -750746.75, -22606.479, 0.0, 10.000131, 9.999258 
1.4950296e+3, 2.356988e+2, -795304.25, -788676.7, 16032.687, 0.03648004, -0.049991738, -775618.94, -145464.33, 0.0, 9.999219, 9.999318 
1.4950149e+3, 2.4569875e+2, -790725.6, -886000.4, 8196.665, 0.10968802, 0.08977765, -790025.6, -257866.03, 0.0, 9.999214, 9.997985 
1.4950003e+3, 2.556996e+2, -577343.4, -710458.1, -46717.234, 0.16532241, 0.3478104, -562584.2, -128425.54, 0.00000015644366, 9.999922, 9.998172 
1.494985e+3, 2.656975e+2, -412561.88, -526871.2, -37980.652, 0.11390021, 0.3007939, -401093.03, -64912.83, 0.000006865855, 10.0001545, 9.998641 
1.4949699e+3, 2.7569312e+2, -308938.63, -409350.34, -26959.973, -0.013073021, -0.03213922, -302157.94, -63938.387, 0.00004412312, 10.000123, 9.998789 
1.4949553e+3, 2.8569204e+2, -187129.25, -288096.0, -38857.477, -0.040242277, -0.016727101, -173906.45, -33678.957, 0.0001927378, 10.00023, 9.998898 
1.4949414e+3, 2.9569355e+2, -56058.26, -164934.3, -21138.314, 0.005289181, 0.20498325, -52098.285, -9886.552, 0.00065815035, 10.000416, 9.99898 
1.4949268e+3, 3.05692e+2, -194704.39, -228554.33, -46920.508, 0.04631784, 0.17392734, -161749.63, -161749.63, 0.0016072446, 9.99924, 9.998774 
1.4949131e+3, 3.1569055e+2, -359878.25, -51915.816, 18360.895, 0.17910095, 0.10564692, -50824.996, -50824.996, 0.0029540178, 9.996974, 10.001074 
1.5051973e+3, 1.2571704e+2, -1817552.5, -1687964.8, 22112.746, 0.17412557, 0.1579082, -1684295.3, 23696.225, 0.015336173, 9.998935, 10.000678 
1.505179e+3, 1.35719e+2, -1584304.5, -1534829.9, 12221.664, -0.17174609, 0.2715624, -1531975.5, 77994.55, 0.0091627855, 9.999915, 10.000604 
1.5051673e+3, 1.4571798e+2, -1598505.9, -1612844.8, 27193.785, 0.12685442, 0.17433842, -1577552.4, -65573.87, 0.0040015904, 9.999683, 9.999485 
1.5051523e+3, 1.557165e+2, -1577505.1, -1529578.4, 55524.734, 0.07186783, 0.042562827, -1493066.6, -79074.336, 0.001031135, 9.999057, 9.999688 
1.505136e+3, 1.6571678e+2, -1408656.8, -1383737.4, -14941.287, -0.0024638127, 0.10147957, -1376742.4, -60753.715, 0.000096309515, 9.9994755, 9.999821 
1.5051192e+3, 1.7571795e+2, -1094733.6, -1168774.0, -69909.09, -0.060643315, 0.21062145, -1052647.6, 165328.94, 0.000000575819, 10.000903, 9.999933 
1.5051042e+3, 1.8571757e+2, -1036669.7, -1124503.4, 40530.137, -0.10875131, 0.20086685, -1020825.5, 99152.71, 0.0, 10.000791, 9.999611 
1.5050903e+3, 1.9571614e+2, -1093054.4, -1083222.3, 57683.953, -0.16589375, 0.06774284, -1030245.25, -8256.166, 0.0, 9.9996605, 9.999762 
1.5050757e+3, 2.0571531e+2, -1085103.0, -1064616.1, -33496.605, -0.1490292, 0.029762458, -1039831.7, -115836.71, 0.0, 9.999185, 9.999459 
1.5050605e+3, 2.1571486e+2, -959030.25, -936485.44, -65517.68, -0.07334757, 0.013519366, -881277.5, -55279.39, 0.0, 9.999305, 9.999608 
1.5050448e+3, 2.2571419e+2, -773961.06, -789394.8, -66337.93, -0.026660971, -0.011309438, -714892.7, 13109.8955, 0.0, 9.999881, 9.999661 
1.5050292e+3, 2.3571332e+2, -535851.9, -625841.44, -83643.086, -0.008930779, -0.09155219, -485869.3, 144139.03, 0.0, 10.000845, 9.999649 
1.5050146e+3, 2.4571311e+2, -582913.94, -840293.5, -40645.03, 0.08535895, 0.045597646, -576647.9, -44633.3, 0.0, 10.000893, 9.997479 
1.5050009e+3, 2.5571343e+2, -557077.94, -752831.25, -19774.467, 0.23034044, 0.29950112, -555100.3, -121079.18, 0.00000020302433, 10.000295, 9.997692 
1.5049863e+3, 2.6571134e+2, -396108.94, -524189.44, 44783.2, 0.21514997, 0.27843934, -382003.88, -45959.652, 0.0000077496, 10.000293, 9.99859 
1.5049712e+3, 2.7570733e+2, -214827.27, -368195.9, 25553.51, 0.079878874, -0.008238763, -210681.72, 27398.883, 0.0000484326, 10.000777, 9.998761 
1.5049559e+3, 2.8570622e+2, -172914.6, -268856.5, -5929.126, -0.002733059, -0.0042671207, -172549.58, -32459.13, 0.00020691432, 10.000283, 9.999002 
1.5049407e+3, 2.9570735e+2, -235370.78, -236403.77, -28249.537, -0.047983684, 0.17210022, -207633.02, -165553.6, 0.0006962151, 9.999134, 9.9991 
1.5049261e+3, 3.0570686e+2, -143870.52, -223305.3, -64520.105, 0.023177905, 0.24613076, -107823.03, -107823.03, 0.001668208, 9.9996395, 9.998638 
1.5049133e+3, 3.157058e+2, 245257.38, 216445.16, -82133.7, 0.2968025, 0.2396976, 314238.8, 314238.8, 0.0030196507, 10.001194, 10.0009165 
1.5151961e+3, 1.2573358e+2, -1854521.4, -1793754.9, -8615.69, 0.13151124, 0.18879962, -1792557.0, -84729.06, 0.016257107, 9.999042, 9.999911 
1.5151802e+3, 1.357319e+2, -1672025.4, -1699186.9, 51882.273, -0.05611767, 0.049000043, -1631975.8, -22132.633, 0.009740974, 9.999857, 9.999493 
1.5151663e+3, 1.4573286e+2, -1520459.5, -1471616.6, -12615.718, 0.022406934, 0.15928757, -1468550.6, 43282.645, 0.0042781597, 9.999755, 10.000428 
1.5151513e+3, 1.5573545e+2, -1516187.4, -1396592.6, 41460.97, 0.0383691, 0.32908025, -1383625.0, 30183.078, 0.0011151112, 9.999042, 10.000603 
1.5151358e+3, 1.6573435e+2, -1498288.5, -1590191.1, 26066.957, -0.0054603727, 0.28169551, -1491409.9, -175591.39, 0.000106548556, 9.999549, 9.998373 
1.5151203e+3, 1.7573011e+2, -1186042.4, -1354908.0, -16292.016, -0.061913427, -0.010441189, -1184484.9, 33374.055, 0.0000007145684, 10.000887, 9.998663 
1.515105e+3, 1.8572953e+2, -975651.7, -1004520.75, -10365.457, -0.108060785, -0.022823207, -972315.5, 147544.9, 0.0, 10.000812, 10.000429 
1.51509e+3, 1.9573179e+2, -1049536.5, -982625.1, 23102.684, -0.16428801, 0.13195422, -975423.5, 46408.56, 0.0, 9.9996195, 10.000471 
1.5150753e+3, 2.0573102e+2, -1135319.0, -1162188.8, -41500.805, -0.11436351, 0.10077429, -1105132.6, -181294.55, 0.0, 9.999148, 9.998812 
1.5150607e+3, 2.1572787e+2, -1015014.1, -1029854.4, -53722.527, 0.021694377, -0.12401119, -968201.75, -142330.72, 0.0, 9.999206, 9.999017 
1.5150452e+3, 2.2572741e+2, -809659.5, -833460.25, -38469.85, 0.004003593, -0.08776231, -781291.44, -53416.74, 0.0, 9.999749, 9.999426 
1.5150289e+3, 2.3572892e+2, -564736.25, -659722.5, -42772.203, -0.13061398, 0.09622261, -548314.9, 81542.06, 0.0, 10.000735, 9.999469 
1.5150145e+3, 2.4572736e+2, -546580.94, -744870.25, -72801.42, -0.048880976, 0.06653202, -522722.7, 9149.988, 0.0, 10.000796, 9.998188 
1.5150009e+3, 2.5572348e+2, -525108.2, -663875.6, -31649.516, 0.1980121, -0.16997933, -518230.56, -84316.9, 0.00000026346208, 10.000194, 9.998355 
1.5149868e+3, 2.657228e+2, -428175.6, -564218.1, 56879.71, 0.22107996, -0.06492598, -407527.84, -71603.99, 0.0000083363275, 10.000177, 9.998373 
1.514972e+3, 2.757246e+2, -247947.53, -405796.7, 50765.56, 0.07284208, 0.24371831, -233030.58, 4880.593, 0.000050839903, 10.000654, 9.998557 
1.5149564e+3, 2.8572324e+2, -195822.22, -298728.03, -58242.47, 0.0029312572, 0.24265698, -169560.34, -29634.26, 0.00021853887, 10.00019, 9.998847 
1.5149404e+3, 2.9571956e+2, -264895.03, -273494.22, -49896.035, 0.0046973615, -0.046232615, -219113.69, -177152.53, 0.0007285583, 9.999024, 9.998898 
1.514926e+3, 3.0571923e+2, -234378.83, -366475.66, -11709.878, 0.036608234, 0.104712635, -233348.83, -233348.83, 0.0017078614, 9.999473, 9.997725 
1.5149134e+3, 3.1572044e+2, 124813.27, 36661.637, 1648.4962, 0.17775588, 0.40493616, 124844.09, 124844.09, 0.0030333768, 10.000942, 9.999775 
1.525196e+3, 1.2574922e+2, -1647748.8, -1670903.0, -60082.266, 0.14892177, 0.25471804, -1598138.4, 109537.29, 0.017244658, 10.000387, 10.000103 
1.5251803e+3, 1.3574658e+2, -1664603.3, -1675952.1, 48408.62, -0.01635454, -0.010189283, -1621537.6, -11840.742, 0.010359608, 9.999808, 9.9996805 
1.5251648e+3, 1.4574754e+2, -1572432.8, -1543545.3, 4059.0269, -0.085728906, 0.11677661, -1542985.8, -31298.025, 0.0045741852, 9.99962, 9.999991 
1.5251507e+3, 1.5575047e+2, -1344757.5, -1357805.0, -64338.89, 0.022802649, 0.3617433, -1286612.5, 127050.586, 0.0012060112, 10.000393, 10.000226 
1.525136e+3, 1.6574928e+2, -1353970.8, -1478598.6, -21515.266, 0.017908162, 0.30477002, -1350361.0, -34687.04, 0.000118081814, 10.000392, 9.998721 
1.5251206e+3, 1.7574488e+2, -1283928.3, -1367085.9, 40653.55, -0.06543599, -0.03389946, -1267356.3, -49643.89, 0.0000008766353, 10.000085, 9.998962 
1.5251057e+3, 1.857441e+2, -1127083.3, -1111838.8, 31883.924, -0.0856261, -0.062803395, -1086678.6, 33036.863, 0.0, 9.999921, 10.000124 
1.5250906e+3, 1.9574611e+2, -1012159.7, -1005069.44, -31561.418, -0.08498694, 0.09944946, -976854.7, 44837.24, 0.0, 10.00003, 10.000131 
1.5250757e+3, 2.0574552e+2, -976007.56, -1104484.9, -67176.93, -0.0329807, 0.11142231, -947298.1, -23600.305, 0.0, 10.000322, 9.998634 
1.525061e+3, 2.1574293e+2, -796301.4, -945603.1, -62317.434, 0.053057633, -0.03868919, -773709.2, 52016.836, 0.0, 10.0007925, 9.998826 
1.5250455e+3, 2.2574225e+2, -694335.94, -812924.5, -22808.164, 0.02560787, -0.0003676657, -690100.5, 37632.336, 0.0, 10.000682, 9.99912 
1.5250297e+3, 2.3574297e+2, -671738.06, -739514.56, -47736.582, -0.09306332, 0.13370587, -647084.06, -17360.29, 0.0, 10.000115, 9.999222 
1.525015e+3, 2.4574114e+2, -608017.9, -711272.44, -81075.09, -0.032316715, 0.060798068, -563527.75, -31787.176, 0.0, 10.000114, 9.998736 
1.525001e+3, 2.557374e+2, -427943.1, -557015.75, -70141.69, 0.15878585, -0.21612193, -397165.25, 36612.008, 0.0000003530132, 10.000601, 9.99889 
1.5249866e+3, 2.6573732e+2, -399536.78, -506694.8, 45720.695, 0.19973208, -0.09912822, -382680.78, -46900.605, 0.00000861748, 10.000188, 9.998762 
1.5249723e+3, 2.7574003e+2, -448263.3, -465231.66, 66288.875, 0.120708, 0.26421723, -389917.88, -152159.72, 0.000051572304, 9.999121, 9.998886 
1.524957e+3, 2.857388e+2, -327444.16, -409258.22, -2274.5042, 0.08176141, 0.28229696, -327380.97, -187607.77, 0.00023012148, 9.999493, 9.998425 
1.5249412e+3, 2.957346e+2, -2937.366, -195091.75, -36498.66, 0.07421735, -0.011355257, 3761.7961, 45577.72, 0.0007602401, 10.001014, 9.998489 
1.5249264e+3, 3.057342e+2, -52460.26, -271621.0, 44994.54, 0.08090378, 0.1415616, -43582.348, -43582.348, 0.0017408301, 10.00068, 9.997801 
1.5249133e+3, 3.1573486e+2, -210883.95, -172886.31, 99588.05, 0.17863396, 0.39192638, -90501.04, -90501.04, 0.003031587, 9.998796, 9.999388 
1.5351966e+3, 1.2576376e+2, -1597225.6, -1561878.0, -11738.893, 0.12339493, 0.32675397, -1558334.8, 149201.63, 0.018294634, 10.000369, 10.000871 
1.5351792e+3, 1.3576323e+2, -1567700.8, -1460098.1, 24163.46, -0.12599958, 0.10642245, -1454921.0, 154608.1, 0.011016667, 9.999757, 10.001192 
1.5351628e+3, 1.4576241e+2, -1683791.0, -1796950.8, 16303.222, -0.2735927, 0.079077646, -1681489.0, -169951.13, 0.0048880493, 9.999702, 9.998224 
1.5351507e+3, 1.5576208e+2, -1462380.0, -1580960.0, -31816.5, -0.046790227, 0.17460935, -1454382.5, -40830.395, 0.0013030368, 10.000318, 9.998728 
1.5351364e+3, 1.6576205e+2, -1213681.4, -1198558.6, -44283.74, -0.010027208, 0.20329458, -1161195.4, 154355.06, 0.00013086536, 10.0004225, 10.000637 
1.5351203e+3, 1.7576231e+2, -1171587.8, -1125769.4, 35736.453, -0.1302946, 0.13863894, -1106229.5, 111307.14, 0.0000010420176, 10.000052, 10.000634 
1.5351054e+3, 1.8576127e+2, -1222793.4, -1320254.4, 25962.12, -0.1176367, 0.083279885, -1216308.9, -96765.07, 0.0, 9.999954, 9.99868 
1.5350918e+3, 1.957592e+2, -1106407.8, -1193884.4, -20071.123, 0.001605265, -0.021921968, -1102022.4, -80454.93, 0.0, 10.0, 9.99885 
1.5350768e+3, 2.0575894e+2, -969052.5, -1071452.5, -56700.13, 0.016874792, 0.07012593, -943856.56, -20284.178, 0.0, 10.000244, 9.9988985 
1.5350609e+3, 2.1576004e+2, -799587.0, -924457.4, -39638.32, -0.04632522, 0.26243362, -788067.1, 37496.344, 0.0, 10.000675, 9.999024 
1.5350458e+3, 2.257587e+2, -740714.4, -879950.1, -51737.863, -0.032809533, 0.24623689, -723594.4, 3982.9797, 0.0, 10.000548, 9.998728 
1.5350313e+3, 2.3575544e+2, -706299.4, -790086.56, -56782.79, 0.042832706, 0.019710945, -677628.4, -48019.582, 0.0, 10.000018, 9.998923 
1.5350161e+3, 2.4575451e+2, -604617.3, -670697.94, -69970.95, 0.05843615, 0.029259399, -560278.06, -28659.676, 0.0, 9.999976, 9.99908 
1.5350005e+3, 2.5575528e+2, -418919.6, -509500.0, -46444.953, 0.038952332, 0.16808662, -399338.13, 34273.65, 0.0000004707298, 10.000486, 9.999267 
1.5349859e+3, 2.6575494e+2, -342563.3, -370307.38, -5537.834, 0.071681045, 0.18608151, -341498.78, -5885.564, 0.000008627056, 10.0001, 9.999747 
1.5349717e+3, 2.757537e+2, -400729.03, -344937.44, 40721.402, 0.14516595, 0.057435345, -323473.25, -85851.79, 0.00005249674, 9.999028, 9.999759 
1.5349573e+3, 2.8575286e+2, -399810.5, -534443.4, 47932.51, 0.14419675, 0.120079465, -384489.0, -244856.61, 0.00024287593, 9.999377, 9.997626 
1.5349424e+3, 2.9575247e+2, -64588.44, -298347.22, 26412.316, 0.07956187, 0.28019434, -61641.28, -19997.06, 0.0007925894, 10.000908, 9.99783 
1.5349272e+3, 3.0575165e+2, -248.33559, -125269.84, -35365.633, 0.07274412, 0.36877695, 9062.373, 9062.373, 0.0017781113, 10.000529, 9.998873 
1.5349121e+3, 3.1574926e+2, -220399.53, -108132.92, 65802.27, 0.1480291, 0.2009196, -77774.1, -77774.1, 0.003049598, 9.998469, 9.999973 
1.5451962e+3, 1.2577645e+2, -1762839.4, -1669483.4, 63368.6, 0.10430867, 0.20831865, -1637456.8, 69951.87, 0.019406972, 9.999359, 10.000597 
1.5451789e+3, 1.3577741e+2, -1585784.4, -1486367.6, -127555.445, -0.119905025, 0.15636198, -1399177.1, 210213.63, 0.0117135905, 9.999696, 10.001042 
1.5451628e+3, 1.4577612e+2, -1724334.4, -1814303.8, -81544.586, -0.21873549, 0.08126489, -1676189.4, -164783.77, 0.0052204016, 9.999414, 9.998245 
1.54515e+3, 1.5577537e+2, -1604600.3, -1654151.1, -20177.936, -0.07639307, 0.14247337, -1597423.0, -184000.08, 0.0014059248, 9.999331, 9.998716 
1.5451357e+3, 1.6577572e+2, -1373324.3, -1231442.9, -38550.824, -0.050156742, 0.18507186, -1221644.8, 93773.016, 0.00014487762, 9.999143, 10.0010195 
1.5451197e+3, 1.7577684e+2, -1290449.8, -1146325.4, -86844.46, -0.11994651, 0.16664167, -1105538.5, 111857.51, 0.000001197513, 9.999057, 10.000976 
1.5451053e+3, 1.8577608e+2, -1368254.6, -1379045.8, -55399.74, -0.081380025, 0.11788542, -1317988.4, -198587.13, 0.0, 9.998925, 9.998766 
1.5450914e+3, 1.9577396e+2, -1247946.4, -1245231.5, -3959.657, 0.029798204, -0.00039550467, -1242403.1, -220976.9, 0.0, 9.998971, 9.998988 
1.5450768e+3, 2.0577385e+2, -1081441.5, -1063956.0, 45303.207, 0.04844042, 0.07128774, -1026559.7, -103131.53, 0.0, 9.999219, 9.999444 
1.5450615e+3, 2.157753e+2, -921953.7, -929307.3, 64483.16, -0.0033255091, 0.2466499, -861042.6, -35629.78, 0.0, 9.999613, 9.999505 
1.5450464e+3, 2.2577408e+2, -898439.6, -968573.56, 56605.633, 0.023370923, 0.22935802, -866919.1, -139493.25, 0.0, 9.999535, 9.998602 
1.5450314e+3, 2.3577084e+2, -843630.4, -864853.4, 50483.457, 0.09912252, 0.017535867, -802655.2, -173195.02, 0.0, 9.999132, 9.998831 
1.5450162e+3, 2.4577054e+2, -674106.9, -676826.9, 92578.74, 0.096354306, 0.082382716, -582878.2, -51413.918, 0.000000000009610117, 9.999368, 9.99934 
1.5450007e+3, 2.557724e+2, -473234.44, -514707.03, 92720.44, 0.037227757, 0.30797786, -398959.8, 34486.152, 0.0000005675007, 10.000018, 9.999465 
1.544986e+3, 2.6577136e+2, -342501.84, -422862.4, 46350.434, 0.08060673, 0.27302924, -321340.3, 14113.347, 0.000008574752, 10.000338, 9.999267 
1.5449719e+3, 2.75768e+2, -221029.92, -312391.28, -37100.926, 0.1857247, -0.014677625, -207861.63, 29620.352, 0.000054083346, 10.000487, 9.999285 
1.5449573e+3, 2.85767e+2, -275968.8, -457468.3, 8252.518, 0.17235851, 0.043086857, -275594.34, -136100.6, 0.00025576144, 10.000173, 9.997757 
1.5449423e+3, 2.9576778e+2, -260061.44, -382072.38, 31693.902, 0.051803995, 0.3129413, -252319.75, -210827.13, 0.0008265112, 9.999526, 9.997914 
1.544927e+3, 3.0576655e+2, -73913.62, -130344.69, -46470.453, 0.04919977, 0.33931148, -47763.54, -47763.54, 0.0018294866, 9.999873, 9.999162 
1.5449117e+3, 3.157635e+2, 123985.28, 44468.004, -40088.39, 0.15945236, 0.082358465, 140687.5, 140687.5, 0.0031096644, 10.000852, 9.999893 
1.5551953e+3, 1.257878e+2, -1827803.4, -1822171.4, 75318.375, 0.03904771, -0.049606282, -1749616.4, -42327.83, 0.020587768, 9.999433, 9.999511 
1.555179e+3, 1.3578951e+2, -1711232.3, -1723317.9, -122024.625, -0.09600901, 0.17178632, -1595100.9, 14176.7705, 0.012455585, 9.999608, 9.999445 
1.5551646e+3, 1.4578873e+2, -1595732.5, -1557565.1, -96711.35, -0.021216957, 0.121135116, -1478072.6, 33216.918, 0.0055746003, 9.999443, 9.999997 
1.5551488e+3, 1.5579054e+2, -1505877.0, -1444598.6, -12364.041, -0.14585616, 0.27096006, -1442198.0, -28923.846, 0.001515748, 9.999324, 10.000151 
1.5551336e+3, 1.6579045e+2, -1438209.5, -1386577.1, -50900.777, -0.18398617, 0.2667282, -1355320.0, -40045.84, 0.00016035176, 9.999218, 9.999925 
1.5551193e+3, 1.7578869e+2, -1353946.5, -1271800.5, -84355.336, -0.09177577, 0.0658299, -1219050.3, -1762.1212, 0.0000013687348, 9.999032, 10.000127 
1.5551046e+3, 1.8578883e+2, -1257011.3, -1152396.0, -60661.934, -0.049203593, 0.06040611, -1124604.0, -5319.3013, 0.0, 9.998941, 10.000314 
1.5550897e+3, 1.957904e+2, -1151719.8, -1034854.6, 6938.4194, -0.06500243, 0.16021703, -1034444.1, -13176.132, 0.0, 9.99893, 10.000449 
1.5550755e+3, 2.0579022e+2, -1032192.9, -954009.4, 52327.93, -0.008417403, 0.11534586, -927783.6, -4518.0205, 0.0, 9.999173, 10.000227 
1.5550624e+3, 2.1578874e+2, -880598.56, -827178.6, 83621.0, 0.11674998, -0.08264428, -766105.4, 59168.57, 0.0, 9.999532, 10.00025 
1.5550469e+3, 2.2578847e+2, -911638.44, -971144.7, 32919.32, 0.11069806, -0.041492626, -897018.94, -169741.14, 0.0, 9.999424, 9.998639 
1.5550296e+3, 2.3578906e+2, -854304.44, -867243.4, 47719.855, 0.0067694033, 0.12648508, -812617.5, -183338.84, 0.0, 9.999043, 9.998858 
1.5550147e+3, 2.4578914e+2, -678502.3, -658996.6, 111026.64, 0.0035594993, 0.21800219, -557295.3, -26016.2, 0.0, 9.99925, 9.99952 
1.5550013e+3, 2.5578877e+2, -485717.25, -517051.44, 124658.51, 0.08637409, 0.20195515, -375745.16, 57534.535, 0.0000005355393, 9.999918, 9.999498 
1.5549871e+3, 2.6578656e+2, -501848.22, -730257.3, 47613.445, 0.13966605, 0.15960743, -492320.3, -157018.61, 0.000008556659, 10.000234, 9.997207 
1.5549724e+3, 2.75783e+2, -363644.03, -586504.7, -21209.898, 0.17539652, 0.05057758, -361643.44, -124303.88, 0.00005618316, 10.000395, 9.997442 
1.5549567e+3, 2.8578112e+2, -221851.39, -320949.94, -22891.71, 0.0899196, 0.054166976, -216818.97, -77461.14, 0.0002701419, 10.000066, 9.998747 
1.5549405e+3, 2.9578048e+2, -213018.94, -253946.61, 24263.195, -0.091864906, 0.078305684, -201742.1, -160380.2, 0.0008663048, 9.999401, 9.998851 
1.5549256e+3, 3.057788e+2, -153238.34, -243734.34, -14046.646, -0.087551765, 0.05440628, -151108.19, -151108.19, 0.0019044692, 9.999676, 9.998469 
1.5549119e+3, 3.1577754e+2, 32312.602, -70641.84, 25903.12, 0.059750825, 0.03857382, 38462.42, 38462.42, 0.003225979, 10.000568, 9.999217 
1.5651949e+3, 1.2580171e+2, -1890284.1, -1836328.9, 56656.35, 0.07394633, -0.038710475, -1800555.1, -93400.57, 0.021849003, 9.998925, 9.999669 
1.5651782e+3, 1.358036e+2, -1823926.4, -1796187.4, -9335.177, -0.08967458, 0.21930023, -1793338.4, -184192.78, 0.013250772, 9.998878, 9.999318 
1.5651652e+3, 1.4580317e+2, -1582063.3, -1460651.8, 48547.695, 0.12486548, 0.16659506, -1443626.8, 67525.57, 0.0059556314, 9.999178, 10.000781 
1.5651485e+3, 1.5580508e+2, -1407707.6, -1322850.0, 42907.746, -0.113680124, 0.25343934, -1304935.8, 108194.97, 0.0016345053, 9.999688, 10.000807 
1.5651329e+3, 1.6580524e+2, -1426311.3, -1408386.9, 10069.908, -0.18311407, 0.25710005, -1403868.6, -88739.5, 0.00017771397, 9.999426, 9.999677 
1.5651189e+3, 1.7580388e+2, -1383981.9, -1303954.8, 26217.129, -0.025639245, 0.123308994, -1296130.9, -78986.58, 0.0000016137079, 9.998903, 9.999969 
1.5651044e+3, 1.8580453e+2, -1219535.8, -1066293.6, 70786.375, 0.042011347, 0.14371704, -1038600.25, 80535.64, 0.0, 9.998898, 10.00093 
1.5650894e+3, 1.9580673e+2, -1048473.75, -925838.3, 57140.777, -0.0070775654, 0.24344681, -903341.2, 117768.6, 0.0, 9.999368, 10.000994 
1.5650752e+3, 2.058063e+2, -1026858.6, -974915.75, 36501.387, 0.02485169, 0.1605865, -956089.1, -32980.332, 0.0, 9.999318, 10.000008 
1.5650618e+3, 2.1580395e+2, -963855.25, -881602.4, -20997.014, 0.12713744, -0.10309579, -876552.44, -51426.14, 0.0, 9.999035, 10.000107 
1.5650465e+3, 2.258039e+2, -882384.56, -904237.75, -63835.61, 0.13894261, -0.060502302, -828547.2, -101420.07, 0.0, 9.999393, 9.999112 
1.56503e+3, 2.3580547e+2, -657329.7, -725982.8, -30091.658, 0.076219305, 0.15655059, -646007.4, -16891.113, 0.0, 10.000183, 9.999279 
1.565015e+3, 2.4580522e+2, -531736.94, -615226.7, 43223.246, 0.06261018, 0.20967305, -513391.2, 17727.824, 0.0, 10.000371, 9.999282 
1.5650012e+3, 2.5580364e+2, -463423.1, -530600.06, 8230.123, 0.078709185, 0.09438153, -462429.47, -29297.67, 0.00000039469393, 10.000177, 9.999276 
1.5649875e+3, 2.658016e+2, -485533.4, -754331.25, 13002.529, 0.13480426, 0.09323058, -484905.9, -149751.97, 0.000008163994, 10.000489, 9.996919 
1.5649734e+3, 2.757991e+2, -273529.88, -571729.44, 55612.496, 0.21837631, 0.12460832, -263496.1, -26312.283, 0.00005803459, 10.001138, 9.997187 
1.5649576e+3, 2.8579697e+2, -81007.71, -230443.9, 53687.883, 0.12967929, 0.10456237, -63719.383, 75484.42, 0.00028587523, 10.000933, 9.998961 
1.5649402e+3, 2.9579517e+2, -91190.516, -178102.6, 17838.979, -0.094689414, -0.0059542037, -87671.49, -46455.504, 0.0009117836, 10.000157, 9.99902 
1.5649253e+3, 3.057933e+2, -120487.016, -263456.3, 37654.715, -0.09804869, -0.039967798, -111176.05, -111176.05, 0.0020009489, 10.000038, 9.998158 
1.564912e+3, 3.1579363e+2, -4099.6445, -103794.01, 72899.3, 0.04665479, 0.14154376, 34365.4, 34365.4, 0.0033957218, 10.000348, 9.999112 
1.5751934e+3, 1.2581861e+2, -1797527.4, -1647962.3, -78020.66, -0.0013215038, 0.2713769, -1614672.4, 92329.79, 0.023204513, 9.998921, 10.000983 
1.5751763e+3, 1.3581993e+2, -1738158.1, -1609118.4, 798.7593, -0.18055817, 0.32906297, -1609113.4, -121.850426, 0.014108494, 9.998861, 10.000599 
1.575165e+3, 1.4581978e+2, -1577415.6, -1483960.1, 57985.043, 0.1481488, 0.2570811, -1456218.1, 54772.754, 0.0063687824, 9.999298, 10.000577 
1.5751491e+3, 1.5581907e+2, -1421687.6, -1343981.9, 62462.855, -0.039998133, 0.10354947, -1309274.3, 103717.984, 0.00176415, 9.99965, 10.000686 
1.575133e+3, 1.6582015e+2, -1382689.6, -1319771.5, -20678.63, -0.1293676, 0.17061463, -1313583.9, 1398.341, 0.00019721544, 9.999431, 10.000283 
1.5751183e+3, 1.7582239e+2, -1354489.9, -1234715.6, 16965.732, 0.013280822, 0.33869046, -1232358.9, -15393.707, 0.0000019795527, 9.998874, 10.000456 
1.5751043e+3, 1.8582322e+2, -1229557.0, -1100627.4, 80880.37, 0.11498914, 0.36820942, -1061664.1, 57291.277, 0.0, 9.998949, 10.000671 
1.5750901e+3, 1.9582301e+2, -1076714.8, -978407.56, 77193.35, 0.13412865, 0.25582817, -936046.75, 84904.11, 0.0, 9.999342, 10.000648 
1.5750751e+3, 2.0582223e+2, -1118449.1, -1156862.5, 17657.68, 0.06920761, 0.21912883, -1111565.8, -188609.5, 0.0, 9.999278, 9.998778 
1.5750591e+3, 2.1582095e+2, -1054364.8, -1045295.25, -21213.172, -0.03414809, 0.18569839, -1028137.56, -203167.86, 0.0, 9.998934, 9.99903 
1.575045e+3, 2.2582029e+2, -832119.2, -775714.1, -39383.566, 0.03959577, 0.16495977, -755476.5, -28502.053, 0.0, 9.999286, 10.000046 
1.5750319e+3, 2.3582001e+2, -620544.3, -619865.7, 3615.2124, 0.23854601, 0.104483865, -616573.9, 12399.436, 0.0, 10.000056, 10.000069 
1.5750168e+3, 2.4581888e+2, -600750.7, -726184.6, 28052.186, 0.18804501, 0.07049725, -594762.94, -63779.707, 0.0, 10.000229, 9.998587 
1.5750003e+3, 2.558171e+2, -514711.66, -616632.0, 10819.306, -0.0405966, -0.00020223312, -513575.78, -80574.19, 0.00000029448665, 10.000086, 9.998728 
1.5749867e+3, 2.658164e+2, -398914.9, -552462.25, 32367.068, 0.0037604554, 0.08156014, -392370.97, -57360.215, 0.000007127328, 10.000395, 9.99835 
1.5749751e+3, 2.7581635e+2, -198052.22, -388657.06, 86777.805, 0.24180984, 0.21102911, -164463.45, 72551.305, 0.000058416226, 10.00103, 9.998493 
1.5749595e+3, 2.8581455e+2, -145043.81, -345313.66, 17275.43, 0.2023071, 0.20454395, -143564.55, -4533.0337, 0.00029913065, 10.000842, 9.998221 
1.5749411e+3, 2.9581174e+2, -154936.73, -289568.47, 7834.6436, -0.030923653, 0.06466463, -154482.34, -113426.9, 0.0009576331, 10.000059, 9.998305 
1.5749256e+3, 3.058099e+2, -140098.95, -259656.19, 45479.24, -0.08117302, 0.0607876, -124765.35, -124765.35, 0.0021078228, 9.999868, 9.998252 
1.5749119e+3, 3.158117e+2, 476.2837, -23364.166, 111262.17, -0.041860398, 0.37241188, 100454.95, 100454.95, 0.0035946025, 10.00007, 9.999783 
1.5851918e+3, 1.2583488e+2, -1920567.1, -1684322.4, 4642.544, 0.004321945, 0.38613692, -1684231.3, 22615.15, 0.024665277, 9.998013, 10.001149 
1.5851761e+3, 1.3583587e+2, -1545101.3, -1491496.8, 48922.195, -0.1441688, 0.38776824, -1462516.0, 146321.28, 0.0150364665, 10.000097, 10.0008135 
1.5851644e+3, 1.4583582e+2, -1497129.4, -1434806.5, 26487.938, 0.13820165, 0.3105386, -1425070.0, 85764.55, 0.0068181083, 9.999817, 10.000655 
1.5851481e+3, 1.5583467e+2, -1689336.3, -1464169.9, 32434.557, -0.009344956, 0.106286, -1459590.9, -46751.35, 0.0019058621, 9.997772, 10.000762 
1.5851323e+3, 1.6583575e+2, -1614755.0, -1409947.1, 2954.3086, -0.063128814, 0.15906438, -1409904.5, -95075.875, 0.0002187055, 9.997749, 10.00047 
1.5851182e+3, 1.7583834e+2, -1273610.5, -1180748.6, -4104.5435, 0.096565254, 0.3409975, -1180567.6, 36239.65, 0.000002466339, 9.999363, 10.000588 
1.5851043e+3, 1.8583868e+2, -1133678.0, -1130760.4, 35032.258, 0.16805483, 0.3537325, -1097156.6, 21645.992, 0.0, 9.999946, 9.999983 
1.5850896e+3, 1.9583744e+2, -1025590.8, -1020124.9, -14408.411, 0.11117496, 0.20531173, -1008192.56, 12617.1, 0.0, 9.999982, 10.000049 
1.5850745e+3, 2.0583671e+2, -982717.5, -1085116.6, -23508.773, 0.0451613, 0.19754463, -977578.3, -54762.414, 0.0, 10.000183, 9.998837 
1.5850592e+3, 2.1583626e+2, -814449.44, -927528.3, 17477.984, -0.0014306653, 0.24086249, -811809.6, 13013.199, 0.0, 10.000548, 9.999072 
1.5850452e+3, 2.2583547e+2, -688458.5, -699217.25, 19786.076, 0.075168565, 0.20706193, -673333.56, 53494.703, 0.0, 10.000255, 10.000107 
1.5850316e+3, 2.3583457e+2, -674339.2, -638069.7, -18851.078, 0.22955145, 0.07910426, -630046.56, -1214.6284, 0.0, 9.9996605, 10.000141 
1.5850168e+3, 2.4583352e+2, -662824.56, -747595.06, 30088.998, 0.19877401, 0.046036664, -653230.44, -122389.28, 0.0, 9.999782, 9.998646 
1.5850012e+3, 2.558323e+2, -457152.88, -580464.6, 49792.945, 0.029407287, 0.03170226, -439557.34, -6702.6353, 0.00000023115544, 10.000441, 9.998803 
1.5849875e+3, 2.6583192e+2, -360574.28, -464025.16, 65484.777, 0.052847993, 0.1083655, -328850.47, 6009.962, 0.0000061293663, 10.00036, 9.998969 
1.5849751e+3, 2.7583206e+2, -332120.1, -388927.7, 40042.953, 0.21212281, 0.19590119, -311429.97, -74569.055, 0.000059467606, 9.999842, 9.999057 
1.58496e+3, 2.8583062e+2, -203860.84, -403076.13, -8715.311, 0.19661596, 0.21423495, -203480.3, -64605.727, 0.00031124914, 10.000581, 9.99794 
1.584943e+3, 2.9582825e+2, 128483.38, -182069.61, -13719.027, 0.04568077, 0.14437689, 129088.26, 169984.6, 0.001001838, 10.002145, 9.998026 
1.5849271e+3, 3.0582586e+2, 157050.77, -185385.36, 3294.7573, -0.030892437, 0.13299336, 157082.45, 157082.45, 0.00221268, 10.002167, 9.997684 
1.5849115e+3, 3.1582615e+2, 126204.72, 32551.668, -22444.994, -0.118965365, 0.3476095, 131306.03, 131306.03, 0.0037863106, 10.000939, 9.999761 
1.595189e+3, 1.2585053e+2, -1972876.6, -1836727.8, 17360.303, -0.11613993, 0.28292814, -1834549.0, -127860.63, 0.026239868, 9.998166, 10.000041 
1.5951775e+3, 1.3585171e+2, -1614922.9, -1620206.4, 129789.39, -0.02545806, 0.40142554, -1487748.4, 120932.2, 0.016040104, 10.000032, 9.999953 
1.595163e+3, 1.4585139e+2, -1469433.1, -1392781.6, -59044.246, 0.011771916, 0.32244432, -1360715.0, 149967.42, 0.0073062, 9.999865, 10.000932 
1.5951453e+3, 1.5585199e+2, -1672110.3, -1434287.9, -27069.725, -0.08698567, 0.2652646, -1431245.6, -18574.006, 0.002060233, 9.997792, 10.00096 
1.5951303e+3, 1.6585223e+2, -1617879.1, -1434023.8, 52676.492, -0.05920938, 0.23811524, -1420000.9, -105334.18, 0.00024185247, 9.997822, 10.00027 
1.5951183e+3, 1.7585196e+2, -1296416.6, -1221891.3, 57183.688, 0.1679723, 0.15272531, -1190900.9, 25767.672, 0.0000030340082, 9.999338, 10.000317 
1.595104e+3, 1.8585122e+2, -1204111.4, -1282210.3, 26335.836, 0.13368334, 0.12410138, -1196060.5, -77385.445, 0.0, 9.999964, 9.998933 
1.5950873e+3, 1.958502e+2, -1096469.1, -1152580.6, -3051.9724, -0.13088825, 0.10194216, -1096303.5, -75619.11, 0.0, 9.999927, 9.999163 
1.5950733e+3, 2.0584983e+2, -901364.75, -903967.94, -16435.209, -0.10792717, 0.10466047, -886179.7, 36507.297, 0.0, 10.000126, 10.000109 
1.5950614e+3, 2.158499e+2, -757294.3, -773836.6, 33908.203, 0.15355882, 0.07181349, -730663.06, 94022.2, 0.0, 10.000406, 10.000193 
1.5950464e+3, 2.2584969e+2, -763659.75, -829539.56, -10285.8, 0.16233435, 0.0867225, -762091.1, -35404.3, 0.0, 10.000133, 9.999274 
1.595029e+3, 2.3584925e+2, -739851.44, -751137.9, -26746.598, -0.016177451, 0.0866806, -718159.2, -89467.9, 0.0, 9.999556, 9.999417 
1.5950151e+3, 2.4584915e+2, -629144.75, -650088.2, 51171.082, 0.017559364, 0.1433095, -587384.94, -56692.453, 0.0, 9.999663, 9.999371 
1.5950036e+3, 2.5584927e+2, -429703.97, -492988.03, 79512.97, 0.21520332, 0.18667935, -375768.38, 56923.492, 0.00000009760233, 10.000319, 9.999457 
1.5949896e+3, 2.6584822e+2, -392021.44, -510168.13, 37698.355, 0.2111779, 0.18150598, -381017.5, -46314.69, 0.0000054247644, 10.000265, 9.998701 
1.5949737e+3, 2.7584627e+2, -361866.1, -432910.72, 39031.516, 0.05637824, 0.084958166, -344612.53, -107890.13, 0.00006233866, 9.999753, 9.998801 
1.594959e+3, 2.8584507e+2, -214476.2, -394862.44, 44254.008, 0.01736784, 0.12831655, -204204.33, -65469.574, 0.00032281963, 10.000452, 9.998058 
1.5949453e+3, 2.9584432e+2, 115151.625, -186253.69, 50773.707, 0.052886456, 0.21265279, 123474.945, 164217.03, 0.0010343667, 10.002038, 9.998054 
1.5949292e+3, 3.0584097e+2, 37577.82, -385216.0, -52084.652, -0.036825, 0.17377643, 43899.684, 43899.684, 0.0022871916, 10.001985, 9.996388 
1.5949106e+3, 3.1583655e+2, 22392.943, -116774.69, -38682.676, -0.32777667, 0.045543958, 32422.299, 32422.299, 0.0039191097, 10.000678, 9.998852 
1.6051887e+3, 1.2586533e+2, -1660207.1, -1691617.0, -10928.092, -0.067245245, 0.18119279, -1656779.1, 49759.785, 0.027939666, 10.000354, 9.999978 
1.6051777e+3, 1.3586554e+2, -1977560.5, -1853415.9, 84605.68, 0.10872805, 0.2559044, -1810554.5, -202013.8, 0.01712635, 9.997792, 9.999423 
1.6051614e+3, 1.4586543e+2, -1805843.0, -1555754.8, -82691.51, -0.023989514, 0.22869326, -1530885.9, -20343.203, 0.007836914, 9.997587, 10.000889 
1.6051444e+3, 1.558672e+2, -1426354.9, -1318540.9, -89715.83, -0.03182916, 0.2860787, -1267782.3, 144741.95, 0.0022287087, 9.999492, 10.000933 
1.6051297e+3, 1.6586755e+2, -1347209.1, -1319685.3, 19794.174, 0.011624758, 0.27825642, -1309339.1, 5179.464, 0.00026665046, 9.999761, 10.000116 
1.6051173e+3, 1.7586666e+2, -1331578.0, -1252354.8, 11284.954, 0.13570738, 0.14866723, -1250778.6, -34254.387, 0.0000036433328, 9.999158, 10.000194 
1.6051032e+3, 1.8586552e+2, -1319503.1, -1334033.0, 33840.117, 0.097827956, 0.08463638, -1292156.9, -173622.86, 0.0, 9.99915, 9.998971 
1.6050875e+3, 1.9586419e+2, -1124653.0, -1158329.1, 66874.24, -0.08530815, 0.025367858, -1072529.6, -51982.637, 0.0, 9.999678, 9.9992485 
1.6050735e+3, 2.0586444e+2, -996967.25, -892394.2, 49686.797, -0.053652097, 0.05769729, -872551.25, 49992.58, 0.0, 9.999228, 10.000622 
1.6050605e+3, 2.1586588e+2, -1042990.7, -857117.6, 29932.773, 0.13851008, 0.11098067, -852416.25, -27887.48, 0.0, 9.998217, 10.000672 
1.6050458e+3, 2.2586595e+2, -960933.94, -935007.7, 41039.03, 0.15859221, 0.13714416, -904933.1, -178405.11, 0.0, 9.99883, 9.999167 
1.6050296e+3, 2.3586506e+2, -587134.94, -683887.94, 59623.664, 0.042358052, 0.101954326, -558730.8, 69806.55, 0.0, 10.000642, 9.999339 
1.6050157e+3, 2.4586473e+2, -457959.13, -582255.2, 113434.52, 0.07142632, 0.14573595, -390763.53, 139777.78, 0.0, 10.000898, 9.999252 
1.6050038e+3, 2.5586486e+2, -475397.4, -526519.7, 67229.98, 0.21588561, 0.20526679, -429033.28, 3507.9194, 0.000000007673713, 10.000056, 9.999363 
1.6049898e+3, 2.658639e+2, -386781.75, -512912.84, 34547.074, 0.19571288, 0.21559441, -377939.28, -43387.36, 0.0000049768487, 10.000333, 9.998648 
1.604974e+3, 2.7586207e+2, -131405.88, -333851.88, 25457.525, 0.0511282, 0.13997044, -128253.68, 108317.33, 0.00006447964, 10.001386, 9.998701 
1.6049598e+3, 2.858606e+2, -89475.44, -369444.97, 47285.25, 0.01551414, 0.18213862, -81704.91, 56881.918, 0.00032949253, 10.001443, 9.99776 
1.6049469e+3, 2.9585952e+2, -72453.51, -297793.7, -1822.3718, 0.052581992, 0.261264, -72438.77, -31839.734, 0.0010457553, 10.000837, 9.997864 
1.6049309e+3, 3.058566e+2, -70244.664, -386307.9, -40893.746, -0.019567631, 0.2450049, -65039.363, -65039.363, 0.0023104926, 10.001022, 9.99684 
1.6049123e+3, 3.1585127e+2, 195458.11, 12871.241, 56231.574, -0.2698613, -0.01839356, 211386.31, 211386.31, 0.0039605508, 10.001653, 9.999277 
1.615191e+3, 1.2587985e+2, -1573587.6, -1534925.9, -4536.1113, 0.07250956, 0.11709929, -1534400.9, 171991.4, 0.02978273, 10.000447, 10.001045 
1.6151765e+3, 1.3587797e+2, -1996031.5, -1892743.6, 2067.2202, 0.1901169, -0.008092343, -1892702.3, -284290.2, 0.018308382, 9.997795, 9.999154 
1.6151588e+3, 1.4587837e+2, -1820809.4, -1606843.9, -16834.53, -0.061755158, 0.057940204, -1605527.5, -95116.05, 0.008418617, 9.997664, 10.000505 
1.6151452e+3, 1.5588047e+2, -1448007.0, -1358129.3, -18029.04, 0.08703707, 0.18190065, -1354647.6, 57747.94, 0.0024150687, 9.999476, 10.000665 
1.6151303e+3, 1.6588178e+2, -1339171.0, -1326953.6, -13129.866, 0.07481564, 0.28671384, -1318581.0, -4197.9, 0.0002938315, 9.999846, 10.0000305 
1.6151147e+3, 1.7588244e+2, -1332409.4, -1255797.1, -147.9333, -0.057765372, 0.319871, -1255796.8, -39422.535, 0.000004294035, 9.999157, 10.0001745 
1.6151014e+3, 1.8588153e+2, -1240339.3, -1175755.9, 47338.55, -0.008541523, 0.22208832, -1150744.0, -32363.686, 0.0, 9.999177, 10.000042 
1.6150899e+3, 1.9587946e+2, -1063228.6, -1021289.75, 88839.44, 0.17695981, -0.017557653, -950978.56, 69418.68, 0.0, 9.99964, 10.000206 
1.6150746e+3, 2.0588064e+2, -1022619.4, -931369.9, -775.1718, 0.11987204, 0.076953135, -931363.3, -8977.684, 0.0, 9.999165, 10.000384 
1.6150565e+3, 2.1588415e+2, -1066518.9, -888422.9, 6320.7637, -0.10067385, 0.35996747, -888198.8, -63845.21, 0.0, 9.998141, 10.000493 
1.6150433e+3, 2.2588423e+2, -941056.2, -860257.06, 100218.375, 0.0023986264, 0.36348057, -792601.75, -66249.93, 0.0, 9.9986925, 9.999744 
1.6150331e+3, 2.3588187e+2, -575876.5, -628063.0, 127151.15, 0.33402872, 0.12420921, -472168.84, 156202.63, 0.0, 10.00051, 9.999783 
1.6150188e+3, 2.458802e+2, -541186.2, -728036.56, 72888.84, 0.27914694, 0.064944595, -516116.44, 14271.878, 0.0, 10.000776, 9.998312 
1.6150014e+3, 2.558791e+2, -551931.94, -658273.9, 52292.973, -0.04461461, 0.090625145, -530526.06, -98123.49, 0.00000000987263, 9.999941, 9.998511 
1.6149876e+3, 2.658789e+2, -407838.0, -522300.4, 66932.664, -0.07008548, 0.21316032, -377004.5, -42596.188, 0.000004852571, 10.000188, 9.998652 
1.6149764e+3, 2.7587914e+2, -154134.8, -349034.13, 72148.49, 0.12012496, 0.34503564, -130333.305, 106076.086, 0.000064250504, 10.001264, 9.998648 
1.6149625e+3, 2.8587717e+2, -158897.66, -486384.28, 14014.375, 0.109719895, 0.3807339, -158299.03, -19867.127, 0.00032939267, 10.001322, 9.997016 
1.6149467e+3, 2.9587382e+2, -124175.51, -375268.44, -6848.161, -0.05118548, 0.29561445, -123988.875, -83520.94, 0.0010398368, 10.000705, 9.997396 
1.6149315e+3, 3.058725e+2, 56117.69, -73526.695, -26451.3, -0.078894906, 0.34171203, 61306.84, 61306.84, 0.0022907362, 10.000835, 9.999063 
1.6149159e+3, 3.158704e+2, 273987.9, 261273.19, 103109.234, -0.10667361, 0.18390381, 370935.6, 370935.6, 0.0039168783, 10.00134, 10.001115 
1.6251904e+3, 1.2589492e+2, -1765355.8, -1570592.6, 17016.738, 0.05607623, 0.15733583, -1569117.0, 137130.52, 0.03179242, 9.998867, 10.001547 
1.6251749e+3, 1.3589324e+2, -1822045.3, -1735394.3, -41449.156, 0.21582352, -0.021571564, -1718760.3, -110497.64, 0.019603958, 9.998656, 9.999824 
1.6251573e+3, 1.458948e+2, -1746484.5, -1589041.9, 99690.4, 0.0017331084, 0.14031659, -1540738.6, -30488.928, 0.009062119, 9.998262, 10.000337 
1.6251445e+3, 1.5589604e+2, -1551292.4, -1416864.3, 98447.82, 0.10464575, 0.1928668, -1364873.9, 47368.77, 0.002624408, 9.9988165, 10.000574 
1.62513e+3, 1.65897e+2, -1442223.5, -1371453.4, 77201.23, 0.092431486, 0.26255283, -1321914.1, -7680.172, 0.00032476612, 9.999128, 10.000066 
1.6251141e+3, 1.7589773e+2, -1317622.4, -1242684.5, 83489.49, -0.040504586, 0.29972103, -1188641.6, 27582.736, 0.000005034694, 9.999236, 10.000222 
1.6251007e+3, 1.8589735e+2, -1235448.5, -1151349.3, 130693.38, 0.0066013495, 0.24329942, -1056107.4, 62118.08, 0.0, 9.99912, 10.00024 
1.6250893e+3, 1.958962e+2, -1147540.5, -1039762.7, 96153.164, 0.19061363, 0.07223858, -983427.06, 36807.004, 0.0, 9.998983, 10.000389 
1.6250741e+3, 2.0589699e+2, -984707.25, -981458.06, -17422.91, 0.13053665, 0.15178454, -965584.2, -43357.43, 0.0, 9.999726, 9.999766 
1.625056e+3, 2.1589915e+2, -673486.94, -764953.06, -52557.46, -0.10556925, 0.36300352, -649550.8, 174657.64, 0.0, 10.001126, 9.999905 
1.6250432e+3, 2.2589885e+2, -620885.3, -741592.56, 6579.339, 0.025919288, 0.37163603, -620527.75, 105684.36, 0.0, 10.001026, 9.999442 
1.625034e+3, 2.3589674e+2, -687054.9, -712253.25, -49919.645, 0.4058265, 0.19009441, -648169.0, -19937.484, 0.0, 9.99986, 9.999529 
1.6250195e+3, 2.4589539e+2, -651883.4, -734546.8, -70882.016, 0.32474145, 0.15010576, -611162.8, -80917.7, 0.0, 9.999813, 9.998726 
1.625001e+3, 2.558945e+2, -432866.34, -569443.06, -9883.3125, -0.09739926, 0.15871164, -432154.84, 100.151665, 0.000000011745934, 10.000603, 9.998806 
1.6249877e+3, 2.658939e+2, -310802.75, -538562.0, 64829.98, -0.10440372, 0.26333073, -293642.34, 40622.266, 0.0000048598445, 10.001124, 9.998092 
1.6249782e+3, 2.758935e+2, -153127.98, -398161.1, 3976.2666, 0.18387598, 0.38510942, -153063.48, 83210.77, 0.00006262461, 10.001474, 9.998212 
1.6249643e+3, 2.8589183e+2, -76546.664, -351042.78, -21060.572, 0.15979494, 0.42170984, -74940.2, 63352.402, 0.00032550952, 10.001484, 9.997869 
1.6249472e+3, 2.9588935e+2, 16518.402, -226371.23, 46131.945, -0.100658074, 0.3423022, 24985.094, 65301.594, 0.0010260531, 10.001313, 9.998134 
1.6249326e+3, 3.0588824e+2, 121631.49, -74798.79, 16234.549, -0.07257851, 0.3901465, 122964.2, 122964.2, 0.0022458762, 10.001409, 9.998797 
1.624919e+3, 3.1588548e+2, 268673.75, 163659.69, -87710.08, 0.072859, 0.20714259, 318392.2, 318392.2, 0.0038119992, 10.001642, 10.000341 
1.6351871e+3, 1.2591057e+2, -1785002.6, -1607422.8, 66426.664, -0.18202244, 0.30244294, -1585324.6, 120778.77, 0.03398967, 9.998873, 10.001276 
1.6351727e+3, 1.3591105e+2, -1714946.5, -1516809.8, -61177.863, 0.12244523, 0.1942154, -1499442.5, 108652.336, 0.02102759, 9.9986725, 10.001327 
1.6351567e+3, 1.4591452e+2, -1720275.8, -1562867.4, 96237.43, 0.0861217, 0.4653374, -1517249.4, -7189.9897, 0.009775217, 9.998369, 10.000469 
1.635142e+3, 1.5591396e+2, -1545789.4, -1401534.3, 124350.086, -0.05116313, 0.32315555, -1329907.4, 82158.0, 0.002860367, 9.9988, 10.000686 
1.6351283e+3, 1.6591324e+2, -1430102.1, -1355225.4, 73157.16, -0.009776919, 0.21183062, -1310483.5, 3587.5757, 0.00036087315, 9.99916, 10.000168 
1.635115e+3, 1.7591256e+2, -1318323.3, -1241381.6, 88588.13, 0.123375505, 0.10334659, -1183271.6, 32803.09, 0.000005927034, 9.999227, 10.000237 
1.6351005e+3, 1.8591303e+2, -1265301.5, -1226579.6, 115081.516, 0.06959759, 0.16209152, -1129241.8, -11172.284, 0.0, 9.999168, 9.999704 
1.6350856e+3, 1.9591422e+2, -1190127.9, -1124490.5, 102097.72, -0.09921587, 0.28051153, -1050066.5, -30007.629, 0.0, 9.998966, 9.999819 
1.6350718e+3, 2.0591329e+2, -1060728.9, -1125245.3, 27924.436, -0.08719377, 0.26426286, -1050321.4, -128252.36, 0.0, 9.999666, 9.998808 
1.6350588e+3, 2.159108e+2, -758178.3, -919962.3, 1169.13, 0.05568516, 0.11018418, -758169.8, 65924.1, 0.0, 10.001032, 9.998889 
1.6350456e+3, 2.2590977e+2, -732304.9, -934614.44, -42741.12, 0.13724206, 0.16117811, -723645.75, 2463.233, 0.0, 10.000862, 9.998194 
1.6350318e+3, 2.3590975e+2, -771680.44, -860845.44, -78405.92, 0.1899259, 0.30472338, -726068.25, -97951.34, 0.0, 9.9997425, 9.998563 
1.6350175e+3, 2.4591023e+2, -557303.3, -501131.1, -48887.16, 0.13077773, 0.4004498, -472836.5, 57275.652, 0.0, 9.999658, 10.0004015 
1.6350025e+3, 2.5591108e+2, -348508.44, -366360.3, 26481.494, -0.011734502, 0.41572425, -329489.03, 102609.55, 0.000000006263202, 10.000495, 10.000247 
1.6349903e+3, 2.6590917e+2, -405139.1, -713956.7, 70343.13, 0.012223101, 0.3851636, -389871.03, -55751.543, 0.000005059976, 10.001026, 9.996941 
1.6349795e+3, 2.7590528e+2, -226928.44, -526541.94, 28763.03, 0.15591703, 0.2645659, -224192.17, 11973.008, 0.00006071332, 10.001364, 9.997385 
1.6349651e+3, 2.859046e+2, 63827.656, -25330.307, -35750.95, 0.068757094, 0.31009516, 76392.49, 214561.92, 0.00031809925, 10.001344, 10.000172 
1.6349478e+3, 2.9590616e+2, 124661.914, 31958.908, 57003.992, -0.18406183, 0.41455203, 151780.92, 191925.03, 0.0010037773, 10.001182, 9.999968 
1.634934e+3, 3.0590382e+2, -110902.64, -507229.9, 13523.632, -0.09645418, 0.41322953, -110441.72, -110441.72, 0.00218191, 10.0012, 9.995922 
1.6349213e+3, 3.1589624e+2, 230.3253, -322513.6, -54292.516, 0.104841284, 0.024970694, 9118.716, 9118.716, 0.003670205, 10.001355, 9.997119 
1.6451856e+3, 1.2592624e+2, -2060031.0, -1816063.5, 146767.3, -0.12973396, 0.39008728, -1747205.3, -41253.293, 0.036383986, 9.997346, 10.000557 
1.6451707e+3, 1.3592681e+2, -1684372.6, -1462974.1, -103045.734, 0.06434232, 0.265578, -1422436.0, 185507.17, 0.022584815, 9.998711, 10.001691 
1.6451564e+3, 1.4592959e+2, -1658057.0, -1526531.5, 19299.613, 0.19868965, 0.44247273, -1523758.1, -13844.678, 0.010560797, 9.998772, 10.000526 
1.6451402e+3, 1.5592895e+2, -1577327.4, -1417251.8, 28227.648, -0.08835905, 0.29194465, -1412419.9, -502.148, 0.0031241647, 9.998569, 10.000695 
1.6451266e+3, 1.6592832e+2, -1517484.0, -1374874.8, -8184.3423, -0.044160623, 0.17702614, -1374406.6, -60485.273, 0.0004029895, 9.998467, 10.000366 
1.6451146e+3, 1.7592776e+2, -1403755.0, -1264443.9, 3310.1628, 0.20273145, 0.06279517, -1264365.3, -48442.008, 0.0000070009137, 9.998562, 10.000403 
1.6451004e+3, 1.8592842e+2, -1269345.9, -1239473.9, 78982.95, 0.14506467, 0.13930057, -1174027.1, -56110.406, 0.0, 9.999207, 9.999584 
1.6450849e+3, 1.9592987e+2, -994464.4, -1047628.06, 75743.19, -0.13090765, 0.29427662, -940774.06, 79130.57, 0.0, 10.000387, 9.999656 
1.645072e+3, 2.059285e+2, -942087.7, -1116397.1, 54104.703, -0.086017996, 0.26519012, -926659.44, -4739.925, 0.0, 10.000673, 9.998389 
1.6450608e+3, 2.1592519e+2, -878060.6, -1013959.7, 51560.496, 0.18117152, 0.06620716, -860712.9, -36759.973, 0.0, 10.00037, 9.998554 
1.6450466e+3, 2.2592402e+2, -811265.5, -971903.75, 60763.793, 0.19444898, 0.116722494, -790870.2, -64901.355, 0.0, 10.0003195, 9.998205 
1.6450304e+3, 2.3592424e+2, -671649.8, -815249.75, 105869.414, 0.03233496, 0.28949976, -615529.6, 12443.594, 0.0, 10.000445, 9.998544 
1.6450167e+3, 2.459248e+2, -428829.1, -471238.56, 138980.19, 0.029190239, 0.41148666, -309445.3, 220522.58, 0.0, 10.000685, 10.000112 
1.6450046e+3, 2.5592557e+2, -293042.3, -371716.25, 46810.094, 0.11996531, 0.44959024, -271235.34, 160720.97, 0.000000005166704, 10.001011, 9.99997 
1.6449922e+3, 2.6592347e+2, -430866.7, -684448.3, 81443.71, 0.13263786, 0.39385152, -406962.47, -72984.35, 0.000005473011, 10.000672, 9.997304 
1.6449796e+3, 2.759193e+2, -406196.06, -578741.8, 125092.305, 0.083095096, 0.21117714, -340511.4, -104487.234, 0.00005878461, 9.9999895, 9.997682 
1.6449651e+3, 2.8591838e+2, -119641.875, -132020.34, 33755.742, -0.00023189568, 0.23301598, -91512.65, 46517.156, 0.0003059286, 10.0001745, 9.999995 
1.6449496e+3, 2.9591995e+2, 60874.74, -18010.883, -82191.98, -0.10628096, 0.35614315, 112598.02, 152603.44, 0.0009705867, 10.000846, 9.999776 
1.6449365e+3, 3.059175e+2, 3044.3057, -446567.53, -29142.682, 0.016880155, 0.35094976, 4925.389, 4925.389, 0.002106459, 10.001911, 9.996002 
1.6449243e+3, 3.1591073e+2, 237286.56, -234189.13, 71267.69, 0.19606796, 0.028884906, 247823.8, 247823.8, 0.0035252424, 10.003086, 9.996883 
1.6551852e+3, 1.2594096e+2, -2095315.9, -1923254.8, 83765.234, 0.037879333, 0.34195426, -1889210.9, -183407.73, 0.03897044, 9.997482, 9.999754 
1.6551685e+3, 1.3594109e+2, -1732536.6, -1555747.8, -63841.875, -0.04584461, 0.24262555, -1535103.9, 72698.5, 0.024272982, 9.998679, 10.001058 
1.6551562e+3, 1.4594033e+2, -1658839.5, -1533626.8, -4052.1414, 0.2695122, 0.089867964, -1533495.8, -23687.193, 0.0114189135, 9.998793, 10.000469 
1.655139e+3, 1.5594131e+2, -1589464.1, -1440479.1, 27920.848, -0.07269989, 0.121975265, -1435418.5, -23621.7, 0.0034161112, 9.998567, 10.000537 
1.6551249e+3, 1.6594248e+2, -1477071.3, -1318007.8, -13580.345, -0.105142385, 0.17865725, -1316856.6, -3074.3254, 0.00045137366, 9.998569, 10.000712 
1.6551127e+3, 1.7594345e+2, -1376445.8, -1207208.1, 15840.899, 0.13613856, 0.17434308, -1205738.1, 10030.917, 0.000008273259, 9.99856, 10.000794 
1.6551001e+3, 1.8594354e+2, -1249555.5, -1210491.5, 116813.42, 0.16546087, 0.16519532, -1111588.4, 6178.417, 0.0, 9.999248, 9.999769 
1.655087e+3, 1.9594313e+2, -989910.5, -1030298.56, 119917.18, 0.0273341, 0.11863881, -888498.9, 131272.38, 0.0, 10.000345, 9.999802 
1.655074e+3, 2.0594274e+2, -943432.2, -1100304.8, 35777.586, 0.048905432, 0.17288344, -935657.75, -13880.289, 0.0, 10.000594, 9.998536 
1.6550615e+3, 2.1594225e+2, -873043.56, -982820.94, 47074.406, 0.20347221, 0.23795033, -855622.0, -31836.385, 0.0, 10.000278, 9.998812 
1.6550462e+3, 2.2594133e+2, -737863.5, -794019.6, 55600.02, 0.117356814, 0.2338435, -703654.0, 22139.736, 0.0, 10.000207, 9.999483 
1.6550294e+3, 2.3594013e+2, -622704.3, -689081.9, 120704.836, -0.13453355, 0.13904087, -530708.6, 97093.21, 0.0, 10.000338, 9.999465 
1.6550165e+3, 2.4593899e+2, -612518.5, -818880.0, 146951.14, -0.06948511, 0.17569625, -536141.75, -6327.901, 0.0, 10.000541, 9.997792 
1.6550069e+3, 2.5593787e+2, -446089.2, -658827.1, 64795.57, 0.23086114, 0.25295687, -427907.7, 3921.03, 0.00000000856411, 10.000893, 9.998046 
1.6549936e+3, 2.6593673e+2, -325922.84, -445680.7, 47805.453, 0.18700391, 0.28779903, -309180.3, 24660.527, 0.0000057188686, 10.000571, 9.999 
1.6549776e+3, 2.7593547e+2, -325732.97, -388162.1, 116056.95, -0.10465496, 0.22979005, -236766.14, -914.40546, 0.00005715205, 9.9998865, 9.9990425 
1.6549641e+3, 2.8593326e+2, -332511.03, -537886.0, 50896.676, -0.13212845, 0.2007965, -320589.66, -182715.52, 0.00029385844, 10.000013, 9.997289 
1.654952e+3, 2.9593033e+2, -107063.72, -343167.13, -38810.023, 0.04065671, 0.13999037, -100847.875, -60943.594, 0.00093917665, 10.000738, 9.997594 
1.6549401e+3, 3.0592895e+2, 176862.2, -24328.57, 6950.522, 0.16652676, 0.17789964, 177102.05, 177102.05, 0.0020481069, 10.001677, 9.999006 
1.654928e+3, 3.1592906e+2, 383751.6, 143480.27, 152546.53, 0.21999526, 0.23825154, 457788.6, 457788.6, 0.003428113, 10.002783, 9.999622 
1.6651835e+3, 1.2595524e+2, -2115541.8, -1866567.4, 49607.496, 0.14853506, 0.24957441, -1857047.3, -151385.52, 0.041736465, 9.99702, 10.000387 
1.6651662e+3, 1.3595611e+2, -1774710.0, -1594869.3, 14544.507, -0.13451432, 0.23844466, -1593700.6, 13953.248, 0.026087236, 9.998458, 10.000894 
1.6651548e+3, 1.4595461e+2, -1605601.9, -1513397.1, 49766.043, 0.25265884, 0.02288566, -1491660.9, 18006.928, 0.012349877, 9.999191, 10.000409 
1.6651383e+3, 1.559563e+2, -1497894.4, -1397707.9, 80728.05, -0.029811447, 0.1258375, -1352794.0, 58855.383, 0.003737191, 9.999211, 10.000512 
1.665124e+3, 1.6595761e+2, -1408963.3, -1314950.9, 39646.4, -0.07428553, 0.21504347, -1300463.9, 13169.655, 0.00050616945, 9.999182, 10.000426 
1.6651115e+3, 1.759581e+2, -1279396.5, -1195214.0, 3440.664, 0.12431422, 0.18974131, -1195073.6, 20551.178, 0.000009797576, 9.999363, 10.000491 
1.6650996e+3, 1.8595748e+2, -1332844.4, -1289607.3, 78984.664, 0.20450675, 0.1418076, -1229336.0, -111706.17, 0.0, 9.998857, 9.999406 
1.6650875e+3, 1.9595633e+2, -1333086.1, -1219644.5, 32386.443, 0.15667129, 0.054272525, -1211049.8, -191407.69, 0.0, 9.998116, 9.9995575 
1.6650748e+3, 2.0595625e+2, -1154832.4, -1151856.6, -17180.191, 0.15678175, 0.12546492, -1136100.0, -214455.48, 0.0, 9.99893, 9.998983 
1.6650622e+3, 2.1595684e+2, -762256.8, -884838.75, 1006.4416, 0.20862196, 0.25558925, -762248.56, 61392.535, 0.0, 10.000849, 9.999211 
1.6650471e+3, 2.2595611e+2, -525797.94, -694555.7, -48860.223, 0.1091217, 0.25476265, -512672.38, 212973.02, 0.0, 10.001682, 9.999447 
1.6650306e+3, 2.3595446e+2, -419497.78, -596095.6, -101094.2, -0.10625395, 0.11539166, -373570.25, 254085.03, 0.0, 10.001758, 9.999407 
1.6650178e+3, 2.4595217e+2, -534953.94, -853715.7, -36048.6, -0.02659194, 0.07191173, -530928.06, -1250.2639, 0.0, 10.001362, 9.997173 
1.6650079e+3, 2.559494e+2, -515109.4, -755085.56, -3425.2942, 0.26145938, 0.04685374, -515060.53, -83350.984, 0.0000000057748837, 10.000677, 9.997499 
1.6649942e+3, 2.6594865e+2, -304457.1, -431744.25, -23285.621, 0.1935147, 0.14245455, -300331.03, 33388.027, 0.0000055479773, 10.00071, 9.999026 
1.664978e+3, 2.759492e+2, -130230.625, -305905.75, -103392.43, -0.14238809, 0.26751968, -82401.56, 153311.86, 0.000055344583, 10.001257, 9.99896 
1.6649646e+3, 2.8594667e+2, -182159.75, -497556.0, -91564.91, -0.1360946, 0.22833443, -157504.28, -19764.352, 0.0002837419, 10.001177, 9.997003 
1.6649534e+3, 2.9594207e+2, -134139.8, -380753.16, -28731.557, 0.110259145, 0.032052938, -130836.68, -91049.24, 0.0009166585, 10.000668, 9.997366 
1.6649418e+3, 3.0594108e+2, 134176.52, 13120.575, 38789.418, 0.20552363, 0.084410205, 145539.11, 145539.11, 0.0020189087, 10.001129, 9.999532 
1.66493e+3, 3.159441e+2, 314612.84, 182663.25, -49564.055, 0.18799552, 0.3966559, 331156.34, 331156.34, 0.003398234, 10.002009, 10.000266 
1.6751795e+3, 1.2597018e+2, -1955630.1, -1538636.8, -44638.523, 0.004436984, 0.21220146, -1533911.9, 171604.58, 0.044670317, 9.996998, 10.002703 
1.6751635e+3, 1.3597192e+2, -1773448.3, -1583052.8, 74896.21, -0.2506659, 0.25178996, -1557122.3, 50374.945, 0.028026333, 9.998429, 10.000992 
1.6751525e+3, 1.4597234e+2, -1590945.6, -1498019.5, 45315.418, 0.068161346, 0.22809891, -1479580.3, 29911.53, 0.013357116, 9.999247, 10.000492 
1.6751379e+3, 1.559738e+2, -1497157.9, -1393884.5, 88333.46, -0.027005494, 0.29347202, -1343202.3, 68274.17, 0.004090086, 9.999191, 10.000555 
1.6751237e+3, 1.6597351e+2, -1469297.8, -1446865.3, 35200.055, -0.033058036, 0.27131036, -1421137.6, -107661.055, 0.0005678562, 9.999211, 9.999508 
1.6751109e+3, 1.7597184e+2, -1353207.3, -1336260.6, 11070.88, 0.11023265, 0.12572818, -1330792.6, -115303.31, 0.000011659807, 9.999321, 9.999542 
1.6750984e+3, 1.8597046e+2, -1383778.1, -1409150.6, 42439.26, 0.18442787, 0.09217995, -1352169.5, -234666.25, 0.0, 9.998903, 9.99857 
1.675086e+3, 1.9596939e+2, -1384444.6, -1324011.8, 19990.791, 0.18622786, 0.09700481, -1317997.5, -298480.0, 0.0, 9.9981, 9.998854 
1.6750741e+3, 2.0596898e+2, -1101517.9, -1035326.4, 46781.414, 0.16332787, 0.12235024, -1011117.44, -89595.88, 0.0, 9.998903, 9.999795 
1.6750623e+3, 2.1596898e+2, -737108.1, -811561.44, 73000.43, 0.13489231, 0.11476803, -692390.4, 131128.98, 0.0, 10.000752, 9.999763 
1.6750488e+3, 2.2596833e+2, -645119.4, -905469.5, -51933.164, 0.0932301, 0.17256004, -635142.4, 90381.78, 0.0, 10.001523, 9.998074 
1.6750339e+3, 2.3596722e+2, -515586.38, -771116.4, -94337.18, 0.048429664, 0.22288679, -484532.63, 143001.39, 0.0, 10.00165, 9.998257 
1.6750205e+3, 2.4596432e+2, -475934.63, -701866.4, -71642.46, 0.07383228, 0.109873265, -455132.3, 74428.13, 0.0, 10.001232, 9.998278 
1.6750076e+3, 2.559602e+2, -473409.56, -639719.2, -16290.602, 0.14474389, -0.15937799, -471828.88, -40230.695, 0.0000000017385277, 10.000555, 9.998346 
1.674994e+3, 2.659592e+2, -446881.3, -697093.75, -10285.272, 0.067842565, -0.033938237, -446459.25, -112846.664, 0.0000048816705, 10.000571, 9.997274 
1.6749796e+3, 2.759602e+2, -240780.8, -515996.78, -73301.11, -0.10601794, 0.30644345, -222475.31, 13136.444, 0.000051549086, 10.001171, 9.997559 
1.6749662e+3, 2.859585e+2, -64748.723, -220716.63, -118226.79, -0.10620314, 0.30984777, -1102.6296, 136525.89, 0.00027036015, 10.001032, 9.998977 
1.6749534e+3, 2.9595512e+2, -30032.762, -144789.47, -24246.61, 0.013150452, 0.033046845, -25120.076, 14535.632, 0.00089050346, 10.0005665, 9.9990425 
1.6749413e+3, 3.0595362e+2, -55449.766, -315117.66, 63512.33, 0.019581126, 0.071987785, -40747.664, -40747.664, 0.001993897, 10.000865, 9.9973955 
1.6749293e+3, 3.1595525e+2, 172511.81, -57429.86, 21191.26, -0.10485807, 0.45547011, 174448.47, 174448.47, 0.0033966575, 10.00179, 9.998703 
1.685176e+3, 1.2598456e+2, -2044699.3, -1556436.3, -74342.03, 0.0069744093, 0.21364667, -1545368.0, 160005.4, 0.04776628, 9.996302, 10.0029 
1.685162e+3, 1.3598593e+2, -1867672.0, -1647712.3, 23842.396, -0.21617927, 0.22932635, -1645157.6, -37798.844, 0.030093629, 9.997896, 10.000778 
1.6851506e+3, 1.4598718e+2, -1705302.4, -1575568.0, -67442.2, 0.0027356881, 0.31261843, -1546860.6, -37515.14, 0.0144471, 9.998558, 10.000289 
1.6851373e+3, 1.5598765e+2, -1645467.0, -1482092.1, -72462.336, 0.06940139, 0.29399422, -1454584.1, -43244.06, 0.004479329, 9.998247, 10.000403 
1.6851236e+3, 1.6598693e+2, -1578426.0, -1509018.4, -56095.758, 0.075298116, 0.24075426, -1477759.4, -164414.53, 0.0006375465, 9.998515, 9.999414 
1.6851102e+3, 1.7598547e+2, -1327277.5, -1322738.0, -29333.393, 0.10125515, 0.12150678, -1295586.6, -80230.836, 0.00001399049, 9.999509, 9.999534 
1.6850975e+3, 1.8598436e+2, -1262384.0, -1341271.5, 42867.367, 0.17129007, 0.108927995, -1243574.6, -126207.7, 0.0, 9.999701, 9.99865 
1.6850853e+3, 1.9598342e+2, -1183396.0, -1225224.4, 83718.375, 0.2374287, 0.122174256, -1118019.0, -98640.15, 0.0, 9.999452, 9.998893 
1.6850735e+3, 2.0598263e+2, -994376.56, -995924.06, 169600.98, 0.1852762, 0.11346047, -825547.56, 95838.33, 0.0, 9.999694, 9.999688 
1.685062e+3, 2.15982e+2, -812462.56, -857277.94, 109734.33, 0.05917128, 0.055362683, -722871.5, 100517.086, 0.0, 10.000286, 9.999672 
1.6850494e+3, 2.2598094e+2, -793451.56, -1027699.8, -16750.896, 0.052753042, 0.09804286, -792259.75, -66861.69, 0.0, 10.0007105, 9.997637 
1.685036e+3, 2.3597953e+2, -637233.4, -874499.56, -3320.0107, 0.119689636, 0.16305728, -637186.94, -9774.192, 0.0, 10.001005, 9.997866 
1.6850221e+3, 2.459771e+2, -462895.7, -688618.44, -279.10175, 0.12850721, 0.113527745, -462895.34, 66540.44, 0.0, 10.001298, 9.998327 
1.685008e+3, 2.5597394e+2, -321368.5, -570850.0, -43147.555, 0.085335426, -0.06507446, -314116.97, 117348.234, 0.0000000018399801, 10.001596, 9.998325 
1.6849944e+3, 2.6597247e+2, -329858.38, -656895.56, 28295.191, 0.027055856, 0.026411252, -327428.34, 6055.032, 0.0000039092515, 10.001451, 9.997124 
1.6849813e+3, 2.759721e+2, -259901.48, -533855.9, 62135.113, -0.044865184, 0.2454366, -246467.5, -10973.193, 0.00004640097, 10.0011015, 9.9974575 
1.6849679e+3, 2.8597054e+2, -18644.18, -202180.72, -6822.213, -0.04524865, 0.2697084, -18390.941, 119118.53, 0.00025559173, 10.001359, 9.998953 
1.6849543e+3, 2.9596847e+2, 175588.64, -46996.473, -88756.66, -0.0043523554, 0.1265422, 206646.97, 246171.83, 0.0008589189, 10.001989, 9.999031 
1.6849422e+3, 3.059666e+2, 90885.83, -271667.94, 50795.82, -0.012595612, 0.13951793, 97868.14, 97868.14, 0.0019565516, 10.001956, 9.997184 
1.6849305e+3, 3.1596562e+2, 112768.97, -91875.62, 116196.5, -0.13983221, 0.2980029, 165273.94, 165273.94, 0.003380258, 10.001338, 9.998727 
1.6951726e+3, 1.2599793e+2, -2170211.0, -1843520.8, 10783.988, -0.01431198, 0.18693227, -1843165.1, -137927.98, 0.051028147, 9.996434, 10.000819 
1.6951613e+3, 1.3599816e+2, -1914312.8, -1730049.4, 88505.82, -0.10520527, 0.16068077, -1694425.4, -87187.28, 0.032295942, 9.997829, 10.000249 
1.6951492e+3, 1.459993e+2, -1732409.0, -1639589.9, -80996.45, -0.029136015, 0.27523708, -1592649.1, -83421.74, 0.015627254, 9.998585, 9.999841 
1.695137e+3, 1.5599824e+2, -1672543.8, -1544937.0, -74224.49, 0.18648578, 0.15921398, -1510862.1, -99625.71, 0.004910431, 9.998275, 9.999962 
1.6951233e+3, 1.6599807e+2, -1507887.3, -1382527.8, -29435.967, 0.16530477, 0.13800156, -1375960.0, -62723.95, 0.0007170378, 9.998592, 10.000247 
1.6951092e+3, 1.7599908e+2, -1269823.0, -1203394.5, 8185.5093, 0.034682952, 0.1802505, -1202400.8, 12823.238, 0.000016975888, 9.999504, 10.000358 
1.6950965e+3, 1.8599911e+2, -1190077.1, -1200364.3, 22528.45, 0.08595362, 0.19387467, -1172112.5, -54890.973, 0.0, 9.999734, 9.999602 
1.695085e+3, 1.9599839e+2, -1138788.8, -1118527.0, 79590.2, 0.2380096, 0.1309028, -1048425.5, -29198.314, 0.0, 9.999394, 9.999649 
1.695073e+3, 2.0599726e+2, -1079367.9, -1150635.0, 181341.33, 0.15038045, 0.11167198, -930192.25, -8955.286, 0.0, 9.9995985, 9.998673 
1.695061e+3, 2.1599591e+2, -885866.94, -990651.1, 137156.8, -0.08587471, 0.08092256, -791436.3, 31812.623, 0.0, 10.0002, 9.998798 
1.6950487e+3, 2.259939e+2, -770970.0, -953905.06, -14442.429, -0.09811756, 0.03727952, -769836.8, -44569.336, 0.0, 10.000595, 9.998198 
1.6950363e+3, 2.3599136e+2, -631236.9, -828765.06, 18334.834, 0.03677472, -0.06544984, -629549.4, -2258.0723, 0.0, 10.000862, 9.998248 
1.6950229e+3, 2.4599037e+2, -566528.1, -859598.9, 4741.7217, 0.06004256, 0.06987814, -566451.4, -37146.363, 0.0, 10.001107, 9.997248 
1.695009e+3, 2.5599045e+2, -397439.44, -699381.7, -24606.814, 0.019924102, 0.3242242, -395447.25, 35864.29, 0.0000000033657745, 10.001476, 9.997499 
1.6949956e+3, 2.659884e+2, -253102.73, -466765.3, 8433.31, -0.013655607, 0.32123157, -252770.39, 80561.33, 0.0000030031388, 10.001317, 9.998494 
1.6949826e+3, 2.7598488e+2, -205002.94, -391048.78, 64681.746, -0.036044914, 0.083652034, -184725.4, 50636.24, 0.000041424442, 10.000983, 9.998492 
1.6949695e+3, 2.8598276e+2, -188711.4, -519689.06, 6622.8394, -0.04119585, 0.1159648, -188578.94, -51195.2, 0.00024223694, 10.001204, 9.99685 
1.6949563e+3, 2.959817e+2, 39042.96, -303434.38, -57134.605, -0.031482056, 0.2903241, 48323.113, 87721.91, 0.0008256541, 10.001867, 9.997331 
1.6949446e+3, 3.0597952e+2, 168498.42, -45591.637, 18309.236, 0.0070750555, 0.25372225, 170052.97, 170052.97, 0.0018998468, 10.001698, 9.998853 
1.6949327e+3, 3.1597558e+2, 202528.53, 179028.28, 131738.1, -0.076642446, -0.059594255, 323039.47, 323039.47, 0.0033156949, 10.00101, 10.00073 
1.7051707e+3, 1.2600993e+2, -1878404.8, -1811714.4, -77769.55, 0.04035009, 0.2317423, -1760442.8, -55323.473, 0.054460447, 9.9988785, 9.999875 
1.7051601e+3, 1.3600928e+2, -1943434.1, -1765079.3, -33573.59, 0.024012238, 0.1490049, -1758968.6, -151838.61, 0.034638863, 9.997699, 10.000082 
1.7051479e+3, 1.4601019e+2, -1770914.6, -1608705.5, -118905.85, 0.02709669, 0.22343269, -1545877.6, -36756.53, 0.016903277, 9.998136, 10.000263 
1.7051356e+3, 1.5600957e+2, -1410193.8, -1377733.9, -70122.28, 0.13401902, 0.111306876, -1321987.8, 89136.61, 0.00538814, 9.999909, 10.000318 
1.7051221e+3, 1.6600972e+2, -1319635.5, -1306003.4, -49245.457, 0.12962185, 0.11058856, -1263104.5, 50017.113, 0.0008082668, 9.999928, 10.00014 
1.7051087e+3, 1.7601094e+2, -1366535.1, -1253306.9, -88768.09, 0.087151356, 0.18794696, -1204636.0, 10473.284, 0.000020835996, 9.9988365, 10.000353 
1.7050962e+3, 1.8601151e+2, -1288551.8, -1169040.3, -88662.51, 0.13188636, 0.21578626, -1121876.5, -4775.0557, 0.0, 9.99872, 10.000312 
1.7050841e+3, 1.9601144e+2, -1086339.1, -1024398.44, -61792.07, 0.2092285, 0.15185401, -986249.9, 32848.375, 0.0, 9.999454, 10.000276 
1.7050725e+3, 2.0601055e+2, -1052488.6, -1153181.9, 90779.6, 0.12728542, 0.13324122, -999029.1, -77923.56, 0.0, 9.999859, 9.998518 
1.7050613e+3, 2.1600914e+2, -908747.6, -1021972.0, 92242.51, -0.06466175, 0.11339412, -857130.3, -34011.305, 0.0, 10.00013, 9.998615 
1.7050496e+3, 2.2600697e+2, -763420.75, -940179.56, -43684.375, -0.06887968, 0.05964351, -753213.94, -28074.342, 0.0, 10.000603, 9.998286 
1.7050374e+3, 2.3600425e+2, -576283.1, -790598.1, -67200.87, 0.050565664, -0.072597526, -556954.7, 70210.98, 0.0, 10.001188, 9.99835 
1.7050242e+3, 2.4600354e+2, -544993.4, -843282.2, -40903.234, 0.087925725, 0.084624395, -539486.2, -10309.293, 0.0, 10.001229, 9.997305 
1.7050105e+3, 2.5600424e+2, -470128.56, -723061.5, -3168.9636, 0.061155915, 0.3939658, -470088.88, -38910.938, 0.0000000026261497, 10.0009365, 9.997592 
1.7049973e+3, 2.6600194e+2, -268641.63, -459888.3, 27450.342, 0.037504774, 0.3544169, -264779.56, 68418.92, 0.0000021613648, 10.001149, 9.998624 
1.7049843e+3, 2.759976e+2, -92846.125, -331421.7, -29043.275, 0.00985348, 0.028617317, -89361.41, 145871.03, 0.000036573332, 10.001724, 9.998551 
1.7049715e+3, 2.859952e+2, -130505.2, -521545.56, -20279.701, 0.003764325, 0.04265042, -129456.29, 7800.8496, 0.00022753773, 10.0017395, 9.996573 
1.7049581e+3, 2.9599395e+2, -50484.35, -376916.1, 24151.926, 0.0054474925, 0.22991507, -48707.082, -9431.412, 0.0007845109, 10.001376, 9.9970665 
1.7049466e+3, 3.0599207e+2, 109119.56, -42548.715, 91441.6, 0.06898504, 0.22393234, 152080.97, 152080.97, 0.001811542, 10.001143, 9.999135 
1.7049344e+3, 3.1598788e+2, 207870.72, 196447.14, 46667.81, -0.007949262, -0.14198986, 249174.97, 249174.97, 0.0031792617, 10.00096, 10.000867 
1.7151706e+3, 1.2602018e+2, -1858970.8, -1761367.5, -93405.945, 0.0808082, 0.2963012, -1704782.9, 240.39346, 0.058051143, 9.99885, 10.000223 
1.7151587e+3, 1.3601986e+2, -1938077.9, -1744608.6, -61426.86, 0.08413376, 0.2409324, -1726753.4, -119724.54, 0.037118543, 9.997675, 10.000226 
1.7151469e+3, 1.4602005e+2, -1666234.0, -1423430.5, -57926.79, 0.08492998, 0.16807957, -1410318.8, 98706.18, 0.018276531, 9.99824, 10.001507 
1.7151327e+3, 1.560214e+2, -1341722.6, -1232075.5, -6456.6563, -0.15431207, 0.1314982, -1231696.6, 179309.8, 0.005915651, 9.999884, 10.001339 
1.71512e+3, 1.6602178e+2, -1385431.9, -1442203.4, -101380.57, -0.10085275, 0.15703556, -1308538.1, 4464.2354, 0.0009130136, 9.999931, 9.999199 
1.7151088e+3, 1.7602134e+2, -1428740.5, -1373317.4, -116978.03, 0.1896428, 0.15987024, -1280813.4, -65803.88, 0.000025810483, 9.998807, 9.9995365 
1.7150961e+3, 1.8602175e+2, -1252232.5, -1101752.6, -67647.79, 0.2265253, 0.18469748, -1075813.1, 41191.094, 0.0, 9.998745, 10.000766 
1.7150824e+3, 1.9602278e+2, -1054935.5, -955781.06, -27666.764, 0.08485771, 0.18144448, -948583.7, 70406.74, 0.0, 9.999435, 10.000756 
1.7150715e+3, 2.0602262e+2, -1017176.6, -1070918.8, 94321.234, 0.032881856, 0.18279038, -945973.5, -24983.232, 0.0, 9.999818, 9.999105 
1.7150627e+3, 2.1602163e+2, -890287.0, -956137.1, 110834.43, 0.05315136, 0.14470811, -807590.56, 15408.768, 0.0, 10.000011, 9.999125 
1.7150518e+3, 2.2602008e+2, -817986.8, -1015335.4, -28014.361, 0.070644796, 0.15237372, -814087.1, -89071.85, 0.0, 10.000434, 9.997855 
1.715039e+3, 2.3601817e+2, -610958.7, -837192.56, -39874.34, 0.08843322, 0.14515863, -604136.44, 22899.262, 0.0, 10.001077, 9.998086 
1.7150259e+3, 2.4601659e+2, -483697.88, -681775.56, -59455.82, 0.11199088, 0.16069572, -467221.84, 61829.836, 0.0, 10.001082, 9.998482 
1.7150125e+3, 2.5601518e+2, -421406.4, -595930.9, -672.4745, 0.13821481, 0.14103752, -421403.8, 9661.368, 0.0000000000058928205, 10.000823, 9.998519 
1.7149992e+3, 2.6601294e+2, -372642.47, -639620.44, 39222.406, 0.098571226, 0.12788379, -366999.47, -33914.547, 0.0000014626683, 10.000999, 9.99746 
1.7149863e+3, 2.760102e+2, -175346.3, -465363.16, -672.35815, 0.01640244, 0.07726294, -175344.75, 59763.164, 0.000032081512, 10.001573, 9.9977 
1.7149733e+3, 2.8600767e+2, -52573.086, -322429.2, -41462.965, -0.0042155394, 0.039266422, -46346.06, 90785.055, 0.00021186807, 10.001572, 9.998026 
1.7149599e+3, 2.960052e+2, 14550.524, -210646.64, 29631.172, 0.0123709105, -0.052640107, 18384.1, 57539.297, 0.00073607016, 10.001243, 9.998271 
1.7149478e+3, 3.060043e+2, -27664.96, -262729.0, 74704.91, 0.07018315, 0.060140837, -5932.4907, -5932.4907, 0.0016998283, 10.000887, 9.997741 
1.714935e+3, 3.1600198e+2, 36629.56, -59400.676, 67339.875, -0.08547723, 0.022137439, 71319.41, 71319.41, 0.0029923418, 10.000571, 9.999278 
1.7251694e+3, 1.2603071e+2, -1746995.3, -1637954.9, -24162.04, 0.079244174, 0.24701005, -1632840.8, 72078.43, 0.06177432, 9.999304, 10.000882 
1.7251572e+3, 1.360311e+2, -1736679.6, -1589522.4, 52135.914, 0.12636037, 0.19618441, -1572923.6, 33991.207, 0.039721623, 9.998803, 10.000749 
1.7251466e+3, 1.4603186e+2, -1650040.9, -1448178.6, 74771.72, 0.22119601, 0.17168042, -1423499.6, 85406.38, 0.019743169, 9.998483, 10.00122 
1.7251317e+3, 1.560335e+2, -1600781.4, -1375026.4, -1938.2518, -0.14616163, 0.18631053, -1375009.8, 35878.11, 0.006494274, 9.9981575, 10.001197 
1.7251192e+3, 1.6603383e+2, -1551535.8, -1477024.5, -84159.51, -0.11585355, 0.1923858, -1422243.1, -109359.43, 0.001032908, 9.998606, 9.999596 
1.7251083e+3, 1.7603295e+2, -1260192.6, -1256638.0, -20417.047, 0.22532913, 0.1125829, -1237921.1, -23028.809, 0.00003215152, 9.999815, 9.9998455 
1.7250957e+3, 1.86033e+2, -1134972.0, -1097494.0, 41431.207, 0.2653747, 0.111091994, -1070761.1, 46129.996, 0.0, 9.999781, 10.00029 
1.7250815e+3, 1.960338e+2, -1131178.8, -1032242.44, -602.5321, 0.07214864, 0.13337484, -1032238.75, -13357.095, 0.0, 9.99909, 10.00039 
1.7250712e+3, 2.0603392e+2, -1042280.1, -1036698.06, 121010.4, 0.038443368, 0.15672995, -918446.5, 2433.0112, 0.0, 9.999441, 9.99953 
1.7250636e+3, 2.1603346e+2, -785540.9, -862392.44, 109072.375, 0.119247906, 0.13151003, -708323.56, 114559.79, 0.0, 10.000539, 9.99952 
1.725053e+3, 2.2603238e+2, -742218.44, -954351.6, -6228.7734, 0.15206474, 0.15753101, -742035.75, -17140.82, 0.0, 10.000874, 9.998049 
1.7250404e+3, 2.3603095e+2, -648340.44, -838838.1, 8172.7104, 0.13729359, 0.1816526, -647990.44, -21079.541, 0.0, 10.000769, 9.998215 
1.7250274e+3, 2.4602911e+2, -430620.9, -675535.56, -29581.549, 0.14564481, 0.17534816, -427098.63, 101830.22, 0.0, 10.001537, 9.998299 
1.7250144e+3, 2.5602695e+2, -136500.72, -475613.22, -91736.055, 0.16131887, 0.09756876, -113275.164, 317673.4, 0.0000000000049057277, 10.002867, 9.998352 
1.7250013e+3, 2.6602462e+2, -165531.06, -542679.6, -61349.164, 0.14717855, 0.08592202, -155802.6, 177166.52, 0.0000011502509, 10.002429, 9.997436 
1.7249884e+3, 2.7602223e+2, -289734.28, -522238.63, -33239.715, 0.11063127, 0.07056688, -285075.56, -50085.555, 0.000029088935, 10.000775, 9.997697 
1.7249753e+3, 2.860199e+2, -110571.77, -298957.72, -30771.727, 0.07523929, 0.029039824, -105672.8, 31337.69, 0.00020043374, 10.000959, 9.998475 
1.7249617e+3, 2.9601753e+2, 214809.53, -75412.45, -73135.15, 0.017939048, -0.09506818, 232197.61, 271229.1, 0.00069488265, 10.002462, 9.998606 
1.72495e+3, 3.0601662e+2, 243491.66, -174738.33, -20338.834, 0.09962463, 0.027102, 244478.42, 244478.42, 0.0016016935, 10.002911, 9.997394 
1.724937e+3, 3.1601486e+2, 261546.61, -39971.574, -5239.469, -0.023868969, 0.08455553, 261637.63, 261637.63, 0.0028259312, 10.002458, 9.99854 
1.735167e+3, 1.260424e+2, -1678275.1, -1500256.3, -168772.2, -0.14603972, 0.1724874, -1398460.1, 306338.88, 0.06561491, 9.999313, 10.001904 
1.7351557e+3, 1.3604282e+2, -1690565.4, -1482711.9, 40554.32, 0.07161271, 0.00339358, -1475079.6, 131710.92, 0.042436883, 9.998737, 10.001544 
1.7351466e+3, 1.460454e+2, -1766938.9, -1694427.8, 53983.32, 0.34522063, 0.22658631, -1665655.1, -156888.02, 0.021297567, 9.9985075, 9.999502 
1.7351322e+3, 1.5604596e+2, -1688089.4, -1552202.8, -3540.5474, 0.06394473, 0.28742674, -1552110.6, -141342.94, 0.0071235094, 9.998151, 9.999975 
1.7351191e+3, 1.6604604e+2, -1422703.6, -1228919.0, -46596.746, -0.011377355, 0.22873788, -1218296.8, 94467.414, 0.0011691477, 9.998671, 10.001275 
1.7351076e+3, 1.7604575e+2, -1166345.0, -1065058.1, 23379.809, 0.1375337, 0.044347852, -1059921.9, 154836.61, 0.00004011834, 9.999818, 10.001164 
1.7350948e+3, 1.8604517e+2, -1229646.1, -1301890.1, 2350.8535, 0.17523718, 0.00068354176, -1229569.8, -112807.15, 0.0, 9.999812, 9.998871 
1.7350811e+3, 1.9604443e+2, -1228022.3, -1219453.1, -15150.238, 0.10346093, 0.009666431, -1207993.3, -189220.42, 0.0, 9.999033, 9.99913 
1.7350711e+3, 2.0604444e+2, -1031436.25, -1001560.94, 153173.25, 0.06314377, 0.061205663, -862598.7, 58175.215, 0.0, 9.999382, 9.999801 
1.7350638e+3, 2.1604478e+2, -777665.94, -823768.1, 152275.95, 0.060849726, 0.08821658, -646706.25, 176063.6, 0.0, 10.00044, 9.999833 
1.7350535e+3, 2.2604397e+2, -713551.75, -862717.1, -18724.898, 0.08125031, 0.0879504, -711237.1, 13540.621, 0.0, 10.000732, 9.998746 
1.7350411e+3, 2.3604245e+2, -629299.6, -774396.2, 17814.443, 0.12070645, 0.029816527, -627144.44, -351.62796, 0.0, 10.000658, 9.99871 
1.7350288e+3, 2.4604093e+2, -564555.0, -912864.8, 13311.304, 0.105733484, 0.118761376, -564047.0, -35236.832, 0.0, 10.001367, 9.996753 
1.7350164e+3, 2.5603944e+2, -243712.92, -664793.4, -41442.547, 0.054009058, 0.2595582, -239672.92, 191156.03, 0.000000000000012544113, 10.002732, 9.997115 
1.7350036e+3, 2.660369e+2, -113456.7, -398666.2, -129804.75, 0.09579116, 0.2216822, -63226.32, 269626.03, 0.0000010511417, 10.002273, 9.998502 
1.7349902e+3, 2.7603373e+2, -248086.52, -402366.8, -71777.69, 0.20576105, 0.019620573, -219857.61, 15020.668, 0.000028849088, 10.000638, 9.998582 
1.734977e+3, 2.8603184e+2, -188678.03, -423815.38, 13610.027, 0.14064617, 0.025980307, -187892.89, -50997.625, 0.00019664556, 10.000796, 9.997697 
1.7349635e+3, 2.960306e+2, 143946.83, -180340.4, -9360.823, -0.063563816, 0.09186713, 144216.81, 183124.8, 0.0006730319, 10.002287, 9.997966 
1.7349525e+3, 3.0602884e+2, 248558.3, -101082.64, -48010.89, 0.034878988, 0.117622204, 255031.08, 255031.08, 0.0015496872, 10.00265, 9.998017 
1.7349398e+3, 3.160256e+2, 222417.56, -27208.04, -7648.7163, -0.007850782, -0.04342751, 222651.7, 222651.7, 0.002746368, 10.002079, 9.9987955 
1.7451653e+3, 1.2605403e+2, -2104673.8, -1739177.0, -143407.16, -0.095093824, 0.06494761, -1689626.9, 15051.047, 0.06957688, 9.996558, 10.0014925 
1.7451556e+3, 1.360551e+2, -1595335.6, -1441504.0, 6493.31, 0.16556224, -0.036339514, -1441230.5, 165434.64, 0.045260757, 9.999406, 10.00152 
1.7451456e+3, 1.4605775e+2, -1563091.8, -1618270.1, 16301.435, 0.3283938, 0.2068646, -1558635.8, -49994.316, 0.022935338, 10.00001, 9.999298 
1.7451315e+3, 1.5605715e+2, -1540063.9, -1494559.0, 41126.03, 0.121232964, 0.16746376, -1470311.1, -59658.332, 0.0078018596, 9.999232, 9.999844 
1.7451183e+3, 1.660573e+2, -1378473.3, -1204243.1, 23893.227, 0.039030895, 0.119325176, -1201025.9, 111623.055, 0.0013223152, 9.998957, 10.00131 
1.7451066e+3, 1.7605801e+2, -1244131.0, -1107982.0, -39116.56, 0.088768035, 0.034742955, -1097543.9, 117090.516, 0.000049909977, 9.999299, 10.001129 
1.7450944e+3, 1.8605746e+2, -1209164.4, -1338732.5, -66959.87, 0.13657352, 0.02023425, -1180778.8, -64139.73, 0.0000000000000006446772, 10.000163, 9.9984455 
1.7450817e+3, 1.9605601e+2, -915859.2, -1114024.6, -30709.91, 0.14975657, -0.002072482, -911209.1, 107448.016, 0.0, 10.001367, 9.998728 
1.7450714e+3, 2.0605563e+2, -851015.0, -925947.44, 145094.5, 0.10360501, 0.037013315, -738627.5, 182035.39, 0.0, 10.00067, 9.999694 
1.7450629e+3, 2.1605602e+2, -1009618.7, -936562.06, 103862.86, 0.020487046, 0.07343457, -862991.25, -40331.46, 0.0, 9.998854, 9.999817 
1.7450531e+3, 2.2605562e+2, -842252.94, -876526.8, -19364.285, 0.043222148, 0.09135191, -833531.6, -108868.21, 0.0, 9.999628, 9.999193 
1.7450427e+3, 2.3605472e+2, -390749.06, -615241.06, -21979.281, 0.13246259, 0.05452758, -388617.38, 238054.03, 0.0, 10.002098, 9.999117 
1.7450309e+3, 2.4605298e+2, -418693.22, -821976.56, 14565.636, 0.13389388, 0.09389584, -418167.84, 110521.6, 0.0, 10.002282, 9.996932 
1.7450182e+3, 2.5605065e+2, -488758.8, -768194.56, 62972.07, 0.062467262, 0.13557643, -475223.4, -44508.965, 0.0, 10.000975, 9.997256 
1.7450051e+3, 2.6604852e+2, -288109.72, -471109.4, -14004.927, 0.10583158, 0.12538226, -287044.13, 45690.84, 0.0000010008785, 10.001023, 9.998607 
1.7449917e+3, 2.7604654e+2, -33649.45, -295582.7, -45441.918, 0.21658511, 0.035870083, -25989.867, 208762.38, 0.00002996529, 10.002091, 9.998618 
1.7449787e+3, 2.8604496e+2, 40394.34, -347362.84, 84577.46, 0.15959868, 0.08926516, 58039.4, 194807.33, 0.00019663884, 10.002528, 9.997383 
1.7449662e+3, 2.9604337e+2, 136044.17, -228610.47, 59785.324, -0.024150947, 0.15623428, 145595.81, 184380.78, 0.00067006296, 10.002414, 9.99758 
1.744955e+3, 3.0604088e+2, 189015.56, -126685.72, -3290.4526, 0.07033446, 0.13041958, 189049.86, 189049.86, 0.0015536589, 10.00221, 9.998056 
1.7449424e+3, 3.1603786e+2, 254732.94, 5750.61, -87506.73, 0.049454883, -0.02193769, 282411.03, 282411.03, 0.0027788058, 10.002208, 9.998949 
1.7551634e+3, 1.2606499e+2, -2244177.8, -2021552.0, -62364.34, 0.017994707, -0.15292655, -2005272.3, -300709.53, 0.07366958, 9.996544, 9.99955 
1.7551568e+3, 1.3606815e+2, -1666869.4, -1567195.5, 103316.86, 0.3321241, 0.08005236, -1502323.6, 104212.73, 0.048192136, 9.999344, 10.000656 
1.7551434e+3, 1.4606935e+2, -1477086.3, -1439556.3, -22386.475, 0.08253244, 0.14678119, -1429110.3, 79414.32, 0.024652572, 10.000004, 10.000543 
1.7551292e+3, 1.5606722e+2, -1484738.1, -1373367.9, 21088.564, -0.033061035, -0.1595602, -1369508.4, 41033.996, 0.008527423, 9.999203, 10.000694 
1.7551167e+3, 1.660676e+2, -1487408.5, -1435298.0, 21975.4, -0.038010165, -0.13380824, -1427268.1, -114729.38, 0.0014925194, 9.998977, 9.999716 
1.7551053e+3, 1.7606978e+2, -1340941.5, -1302770.8, -16507.922, 0.0107984645, 0.082656756, -1296622.0, -82102.38, 0.00006156021, 9.999277, 9.999801 
1.755094e+3, 1.8606994e+2, -1170082.9, -1258163.6, -26655.736, 0.067656726, 0.16733232, -1162644.3, -46124.605, 0.0000000010737394, 10.000166, 9.998997 
1.7550832e+3, 1.960686e+2, -895707.94, -1057500.9, 10491.243, 0.13782191, 0.10234749, -895030.5, 123503.61, 0.0, 10.0013075, 9.999144 
1.755072e+3, 2.0606759e+2, -895698.4, -1004531.25, 65586.6, 0.07543037, 0.08959475, -864893.06, 55652.992, 0.0, 10.000604, 9.999187 
1.755061e+3, 2.1606697e+2, -1050170.5, -1003210.5, 57792.06, -0.067400694, 0.07432427, -964310.75, -141756.16, 0.0, 9.998774, 9.999401 
1.755052e+3, 2.2606716e+2, -846092.5, -858046.7, 67600.97, -0.0377951, 0.15838726, -784204.94, -59651.53, 0.0, 9.999515, 9.999376 
1.7550445e+3, 2.3606782e+2, -384816.84, -574944.8, 66773.7, 0.10039752, 0.25808668, -363709.03, 262837.2, 0.0, 10.001976, 9.999454 
1.7550331e+3, 2.4606526e+2, -318584.88, -576128.56, -41136.477, 0.1303327, 0.10228809, -312173.88, 216392.88, 0.0, 10.002115, 9.998703 
1.7550197e+3, 2.5606063e+2, -399897.06, -555621.9, 30888.998, 0.10811872, -0.26458052, -393993.8, 36611.414, 0.0, 10.000858, 9.99877 
1.7550062e+3, 2.6605946e+2, -371396.13, -622603.1, 16791.75, 0.09149628, -0.19221938, -370278.66, -37660.902, 0.00000094846536, 10.000924, 9.997616 
1.7549923e+3, 2.7606064e+2, -112117.8, -423413.44, 2421.6736, 0.060023062, 0.12846905, -112098.96, 122513.13, 0.000030532858, 10.001951, 9.9978 
1.7549802e+3, 2.8605914e+2, 23174.1, -352024.78, 73083.08, 0.033522323, 0.22222237, 36906.938, 173536.08, 0.00019885889, 10.002382, 9.997427 
1.7549694e+3, 2.9605573e+2, 105121.33, -257525.67, 69261.91, 0.031779673, 0.096545525, 117899.41, 156562.61, 0.0006867094, 10.00226, 9.997456 
1.7549576e+3, 3.060529e+2, 91623.32, -266713.25, -18972.068, 0.07072859, 0.09647901, 92624.99, 92624.99, 0.0016096956, 10.001951, 9.997211 
1.7549445e+3, 3.1605208e+2, 161948.2, -88121.555, -77648.69, -0.012768864, 0.22823235, 184097.02, 184097.02, 0.002898753, 10.00181, 9.998483 
1.7651631e+3, 1.2607819e+2, -1795717.3, -1872160.1, 52968.28, 0.17717774, -0.121871375, -1768620.1, -64189.734, 0.07790593, 9.999886, 9.998964 
1.7651561e+3, 1.3607949e+2, -1880858.3, -1760715.5, 110077.06, 0.38604996, 0.017343922, -1695385.4, -88963.29, 0.05123237, 9.9982395, 9.9998455 
1.7651404e+3, 1.4608008e+2, -1849712.1, -1592296.0, -50469.027, -0.07738921, 0.047518026, -1582754.8, -74337.77, 0.026445003, 9.9973345, 10.00077 
1.7651282e+3, 1.5607953e+2, -1603980.5, -1420497.1, -83865.82, -0.00039424523, -0.12024689, -1387940.8, 22479.594, 0.009296644, 9.998351, 10.000779 
1.7651169e+3, 1.6607964e+2, -1456971.8, -1511776.5, -36737.973, 0.065350965, -0.07994363, -1438542.1, -126121.164, 0.0016790463, 9.999595, 9.998884 
1.7651054e+3, 1.7608017e+2, -1173016.8, -1294986.8, -45426.49, 0.04875153, 0.052847255, -1157957.5, 56462.41, 0.000074904594, 10.0007515, 9.999137 
1.7650943e+3, 1.8608026e+2, -1090889.0, -1143115.1, -38563.85, 0.06877488, 0.1224891, -1070428.9, 45990.547, 0.000000009428086, 10.000373, 9.999692 
1.7650832e+3, 1.9608003e+2, -1148673.8, -1111824.5, -5608.738, 0.1292558, 0.10022461, -1110989.6, -92569.82, 0.0, 9.999273, 9.99976 
1.7650722e+3, 2.0607916e+2, -1009823.4, -1089110.8, 81597.805, 0.07496824, 0.08804274, -958748.7, -38318.707, 0.0, 9.999955, 9.998917 
1.7650613e+3, 2.1607794e+2, -624792.7, -824523.8, 76485.43, -0.06391609, 0.043091964, -598868.1, 223577.56, 0.0, 10.001814, 9.999161 
1.7650527e+3, 2.2607812e+2, -555203.06, -697400.06, 113958.01, -0.028118117, 0.12842932, -491983.22, 232462.47, 0.0, 10.001434, 9.999546 
1.7650452e+3, 2.360792e+2, -705817.3, -699333.5, 92234.51, 0.11235878, 0.25179684, -610283.94, 16151.607, 0.0, 9.999651, 9.999711 
1.7650343e+3, 2.4607745e+2, -593633.5, -615507.8, -50777.7, 0.15007693, 0.118328035, -552628.44, -24180.441, 0.0, 9.999822, 9.999542 
1.765021e+3, 2.5607386e+2, -283088.38, -419514.53, -60977.02, 0.122412086, -0.22550179, -259807.06, 170668.03, 0.0, 10.001315, 9.999489 
1.7650075e+3, 2.6607275e+2, -221369.22, -571825.44, -36086.133, 0.08262797, -0.16374166, -217692.05, 114794.3, 0.0000007067664, 10.00206, 9.997415 
1.764994e+3, 2.760733e+2, -73928.055, -428833.9, -18210.516, 0.010477806, 0.11531292, -72996.11, 161491.39, 0.00002910251, 10.002307, 9.9976015 
1.7649825e+3, 2.8607142e+2, 58213.26, -298935.63, 80247.21, 0.009602636, 0.16096702, 75415.34, 211923.31, 0.00020251243, 10.002471, 9.997745 
1.7649722e+3, 2.9606792e+2, 194411.92, -188706.78, 61527.86, 0.077464275, 0.005533186, 204050.64, 242591.63, 0.0007167565, 10.00276, 9.997685 
1.7649598e+3, 3.060657e+2, 243425.38, -204276.08, 45342.055, 0.057914786, 0.05821316, 247971.34, 247971.34, 0.0016880381, 10.00304, 9.997121 
1.7649467e+3, 3.1606513e+2, 364788.97, 30538.732, -15124.771, -0.022606276, 0.23120151, 365471.97, 365471.97, 0.0030287413, 10.003098, 9.998698 
1.7751646e+3, 1.2609403e+2, -1732916.4, -1735933.9, 146322.89, 0.29266527, 0.18849798, -1588094.4, 116182.44, 0.08231803, 9.999894, 9.999926 
1.7751531e+3, 1.3608928e+2, -1930615.1, -1863852.0, 34884.336, 0.25255105, -0.2124998, -1848950.6, -242629.84, 0.054393712, 9.998228, 9.999147 
1.7751364e+3, 1.4608973e+2, -1900022.6, -1700933.5, -35791.094, -0.23844098, -0.11747222, -1694694.6, -186374.28, 0.02831169, 9.997347, 10.00002 
1.7751282e+3, 1.5609401e+2, -1651054.3, -1513329.8, -32329.357, 0.13060386, 0.26670474, -1506118.4, -95831.33, 0.010105246, 9.998334, 10.000146 
1.7751187e+3, 1.6609341e+2, -1464415.6, -1533938.3, 2804.6455, 0.2570458, 0.2740086, -1464302.6, -152007.42, 0.0018804772, 9.999621, 9.99872 
1.7751072e+3, 1.7608923e+2, -1184032.5, -1309340.0, -5364.1343, 0.13479812, -0.046804566, -1183803.4, 30531.17, 0.00008970714, 10.00072, 9.99905 
1.7750947e+3, 1.8608853e+2, -1027484.9, -1020154.94, -89672.7, 0.05915814, -0.09904776, -934072.3, 182265.1, 0.000000028818846, 10.000404, 10.000523 
1.7750819e+3, 1.9609028e+2, -1096581.5, -1003162.7, -28130.791, 0.052752554, -0.0067363945, -995345.9, 22968.938, 0.0, 9.999269, 10.00051 
1.7750719e+3, 2.0609023e+2, -1018921.44, -1098989.1, 144678.39, 0.016724361, 0.031051815, -908840.2, 11475.673, 0.0, 9.999923, 9.998858 
1.7750634e+3, 2.1608888e+2, -652733.6, -845828.5, 137739.5, -0.038539477, -0.021662772, -581074.1, 241259.23, 0.0, 10.001667, 9.999077 
1.7750545e+3, 2.2608851e+2, -571191.1, -697361.5, 38802.418, -0.0025876786, 0.009309872, -560213.06, 164127.27, 0.0, 10.001282, 9.999624 
1.7750451e+3, 2.3608887e+2, -711455.4, -690884.44, 46869.375, 0.10304143, 0.045669135, -653185.25, -26845.504, 0.0, 9.999557, 9.999819 
1.7750339e+3, 2.4608944e+2, -620196.0, -640228.94, -3044.9792, 0.10921084, 0.14597866, -619743.4, -91409.21, 0.0, 9.999692, 9.9994335 
1.7750216e+3, 2.5609028e+2, -308361.2, -438301.0, -1391.2858, 0.04467701, 0.25546163, -308346.28, 121978.12, 0.0, 10.001179, 9.999421 
1.775009e+3, 2.6608834e+2, -208119.33, -512224.8, -33219.227, 0.0054075466, 0.20876071, -204532.89, 127809.1, 0.00000032366296, 10.001916, 9.997895 
1.774996e+3, 2.760845e+2, -64988.324, -368554.66, 2476.7688, -0.016279371, 0.0021917296, -64968.117, 169410.48, 0.00002512301, 10.002141, 9.998089 
1.7749849e+3, 2.860818e+2, 58487.78, -264590.3, 79528.52, -0.017053725, -0.07371456, 77003.305, 213406.94, 0.00020058491, 10.002313, 9.998064 
1.7749745e+3, 2.9607996e+2, 204112.97, -134823.92, 84035.77, 0.015173736, -0.10801091, 223804.69, 262224.0, 0.0007353983, 10.002614, 9.998127 
1.7749615e+3, 3.0607906e+2, 254947.05, -121169.695, 41067.53, -0.09049891, 0.019167097, 259378.92, 259378.92, 0.001730267, 10.002797, 9.997804 
1.774949e+3, 3.1607854e+2, 366386.9, 153765.23, 27141.037, -0.13234916, 0.12947787, 369796.75, 369796.75, 0.0030651416, 10.002635, 9.999745 
1.785163e+3, 1.261058e+2, -1910548.8, -1671759.3, 159011.92, 0.24349882, 0.23575783, -1592307.5, 111855.016, 0.08696164, 9.998037, 10.001258 
1.7851515e+3, 1.361006e+2, -1915719.4, -1795087.8, -26138.316, 0.27018565, -0.2785846, -1789667.8, -183462.14, 0.057701517, 9.998074, 9.999687 
1.7851356e+3, 1.4610094e+2, -1809118.6, -1738767.3, 45000.277, -0.0924364, -0.18000722, -1716825.9, -208618.94, 0.030258754, 9.998329, 9.999288 
1.785127e+3, 1.5610518e+2, -1508206.6, -1515405.0, 34754.996, 0.124182165, 0.27830353, -1476864.9, -66686.586, 0.0109521225, 9.999612, 9.999521 
1.7851181e+3, 1.6610482e+2, -1356848.9, -1404215.3, 99838.375, 0.22705708, 0.2979537, -1277923.1, 34261.0, 0.0020959692, 10.00002, 9.999415 
1.7851084e+3, 1.7610101e+2, -1256376.9, -1283485.8, 131526.88, 0.21325783, -0.055931766, -1137707.9, 76509.12, 0.000105867584, 9.999956, 9.999597 
1.785096e+3, 1.8610011e+2, -1043741.25, -1089349.1, 11061.293, 0.13647953, -0.12052253, -1041200.1, 75022.02, 0.0000000562377, 10.000566, 9.99997 
1.785082e+3, 1.9610138e+2, -772732.25, -899451.4, -40556.793, 0.023122631, -0.024027122, -760863.56, 257343.0, 0.0, 10.0017185, 10.000039 
1.7850721e+3, 2.0610113e+2, -869118.4, -1033733.94, 99044.03, 0.0015124481, 0.019080617, -822646.1, 97563.64, 0.0, 10.000984, 9.998803 
1.7850646e+3, 2.1609981e+2, -1021661.94, -1027475.0, 76923.45, 0.03789539, -0.022933934, -947590.1, -125363.97, 0.0, 9.999147, 9.999054 
1.7850552e+3, 2.260995e+2, -859263.4, -816511.94, -6165.6514, 0.060843877, 0.0055213664, -815640.44, -91407.69, 0.0, 9.999219, 9.9998045 
1.7850447e+3, 2.3609993e+2, -559966.4, -601779.3, -9438.929, 0.071432106, 0.034778014, -557934.4, 68297.8, 0.0, 10.000529, 9.999966 
1.7850336e+3, 2.4610095e+2, -398809.63, -536824.9, -4401.588, 0.043782394, 0.17486337, -398669.38, 129554.88, 0.0, 10.001227, 9.999401 
1.7850222e+3, 2.5610235e+2, -252355.5, -418061.97, -16614.662, -0.021911163, 0.34586298, -250706.05, 179505.48, 0.0, 10.001577, 9.9993725 
1.7850105e+3, 2.661005e+2, -198972.89, -481764.9, -62173.273, -0.024209552, 0.29356, -185907.42, 146321.36, 0.00000018370703, 10.001867, 9.998126 
1.7849985e+3, 2.7609628e+2, -35569.67, -332826.13, -68674.63, 0.00059122744, 0.03179289, -20470.826, 213796.3, 0.000020759246, 10.002223, 9.998303 
1.7849872e+3, 2.8609368e+2, 59075.223, -216534.83, 16694.396, 0.007869102, -0.06322089, 60082.76, 196372.64, 0.00019242667, 10.002146, 9.998458 
1.7849769e+3, 2.9609248e+2, 125684.41, -133086.78, -3277.0076, 0.022884585, -0.06987458, 125725.9, 164024.8, 0.00073228433, 10.001923, 9.998464 
1.7849635e+3, 3.060921e+2, 165230.39, -149068.45, -49351.695, -0.12896015, 0.08548762, 172797.48, 172797.48, 0.0017135036, 10.002109, 9.997941 
1.7849518e+3, 3.1609085e+2, 314886.13, 106071.42, -153878.23, -0.07463974, 0.12213587, 396434.16, 396434.16, 0.0029749514, 10.002344, 9.999569 
1.7951584e+3, 1.2611371e+2, -1800151.5, -1463032.9, 173806.73, -0.05771286, 0.023058748, -1389474.5, 314611.03, 0.09190124, 9.998054, 10.002817 
1.7951503e+3, 1.3611344e+2, -1793197.5, -1550967.8, -32498.563, 0.32466125, -0.18860544, -1546683.4, 59393.555, 0.06119029, 9.998092, 10.001384 
1.7951378e+3, 1.4611384e+2, -1859893.9, -1853685.8, 69725.266, 0.27048144, -0.1211276, -1786995.5, -278920.22, 0.03230053, 9.998367, 9.998483 
1.7951247e+3, 1.5611327e+2, -1558809.4, -1609411.9, 84635.24, -0.07842865, -0.055525605, -1495774.5, -85682.24, 0.011841973, 9.999575, 9.998889 
1.7951152e+3, 1.6611402e+2, -1244968.4, -1180998.5, 86153.02, -0.09358827, 0.016909596, -1121084.8, 191002.05, 0.0023264778, 10.000043, 10.000945 
1.7951085e+3, 1.7611533e+2, -1173514.1, -1111684.9, 136141.47, 0.21962248, 0.025725098, -1002992.1, 211077.06, 0.00012352158, 9.99995, 10.000783 
1.7950976e+3, 1.8611489e+2, -1174634.6, -1360542.0, 45247.19, 0.21534199, 0.054635543, -1164207.0, -48132.332, 0.000000085167756, 10.000567, 9.998106 
1.7950834e+3, 1.961133e+2, -903424.4, -1154515.1, -4064.3147, -0.026612595, 0.053833578, -903358.6, 114736.47, 0.0, 10.001651, 9.99832 
1.7950727e+3, 2.0611195e+2, -881293.06, -1045547.6, 20485.217, -0.049904075, 0.06774633, -878776.75, 41334.09, 0.0, 10.000921, 9.998754 
1.7950645e+3, 2.1611081e+2, -1033306.94, -1034095.3, 28267.107, 0.09789459, 0.045737803, -1005431.25, -183307.9, 0.0, 9.999068, 9.999049 
1.7950548e+3, 2.2611101e+2, -865659.06, -802923.4, 36870.61, 0.08356957, 0.11685588, -785882.7, -61759.105, 0.0, 9.999106, 9.999951 
1.7950442e+3, 2.3611219e+2, -573364.56, -594498.1, 43782.633, -0.048469257, 0.20529564, -538891.6, 87223.37, 0.0, 10.000386, 10.00008 
1.7950335e+3, 2.4611178e+2, -421701.4, -547813.56, 2486.5388, -0.12354358, 0.19579303, -421652.38, 106467.766, 0.0, 10.001067, 9.999406 
1.7950226e+3, 2.5611022e+2, -271454.25, -423962.9, 5722.043, -0.14823404, 0.070119806, -271239.88, 158895.25, 0.0, 10.001442, 9.999393 
1.7950119e+3, 2.6610926e+2, -223534.03, -505270.38, -56420.125, -0.09554931, 0.113049924, -212655.47, 119490.16, 0.00000013255313, 10.0017395, 9.998031 
1.7950006e+3, 2.7610868e+2, -57782.086, -342727.3, -48508.07, -0.01985086, 0.2128739, -49750.617, 184402.31, 0.0000188634, 10.002076, 9.9983015 
1.7949894e+3, 2.8610727e+2, 60806.71, -180940.66, -5053.8867, -0.01536332, 0.21863192, 60912.32, 197077.77, 0.00018750537, 10.001994, 9.998782 
1.7949788e+3, 2.961056e+2, 116103.445, -106082.586, 8642.206, 0.0013567486, 0.1325416, 116439.086, 154618.25, 0.00072388566, 10.001729, 9.998738 
1.7949653e+3, 3.0610478e+2, 72174.33, -285406.75, -51108.62, -0.18169837, 0.27616882, 79335.8, 79335.8, 0.0016682546, 10.00185, 9.997135 
1.7949547e+3, 3.1610188e+2, 190812.89, -71670.71, -74108.42, -0.05825465, 0.21270747, 210290.92, 210290.92, 0.00282097, 10.002026, 9.998482 
1.8051568e+3, 1.2612276e+2, -1973818.0, -1556652.9, 244758.03, 0.021039791, -0.15476839, -1443656.3, 260336.06, 0.097200245, 9.996942, 10.002683 
1.8051481e+3, 1.361256e+2, -1602025.9, -1467394.5, -84446.516, 0.24130572, -0.044441886, -1426716.6, 179241.25, 0.06490086, 9.999436, 10.001358 
1.8051386e+3, 1.4612575e+2, -1555701.5, -1700129.4, -13874.635, 0.40677914, -0.012417027, -1554380.8, -46422.664, 0.034457777, 10.000429, 9.998532 
1.8051246e+3, 1.5612257e+2, -1482315.6, -1581475.1, 40601.86, -0.08316324, -0.20834978, -1467812.1, -57815.516, 0.0127833225, 10.000137, 9.998803 
1.8051142e+3, 1.6612333e+2, -1321923.1, -1240418.9, -16199.1, -0.17743699, -0.112274736, -1237317.3, 74675.09, 0.0025744103, 9.999636, 10.000727 
1.8051076e+3, 1.761267e+2, -1280617.5, -1173709.1, -103074.97, 0.16973184, 0.11932711, -1111052.3, 102907.87, 0.00014305822, 9.999287, 10.000667 
1.8050976e+3, 1.861268e+2, -1287415.8, -1405046.3, -98546.87, 0.2147902, 0.1983925, -1231467.3, -115504.875, 0.00000010953618, 9.999729, 9.998212 
1.8050846e+3, 1.961247e+2, -1028011.94, -1199142.0, -26041.018, -0.018879069, 0.13601282, -1024137.0, -6149.4077, 0.0, 10.000725, 9.99846 
1.8050738e+3, 2.0612317e+2, -825324.06, -986575.56, 26695.105, -0.046648365, 0.105996035, -821019.56, 98983.95, 0.0, 10.001152, 9.999056 
1.8050645e+3, 2.1612196e+2, -697255.8, -847707.44, 53012.598, 0.09545247, 0.050058343, -680453.06, 141560.64, 0.0, 10.001262, 9.999272 
1.8050548e+3, 2.2612199e+2, -590103.9, -719859.56, 103926.26, 0.07002905, 0.116889745, -532467.25, 191548.25, 0.0, 10.001232, 9.999485 
1.8050446e+3, 2.361228e+2, -491836.34, -609039.3, 43983.887, -0.08568874, 0.22051072, -477166.3, 148845.5, 0.0, 10.001175, 9.999599 
1.805034e+3, 2.4612212e+2, -474220.63, -580422.7, -31202.666, -0.14676285, 0.20891617, -465731.7, 62289.05, 0.0, 10.00074, 9.999344 
1.8050234e+3, 2.561204e+2, -468556.94, -521132.38, -50409.668, -0.14079297, 0.07920463, -437992.4, -7954.5845, 0.0, 10.000081, 9.999395 
1.8050131e+3, 2.661199e+2, -353417.56, -485276.3, -33208.94, -0.08101212, 0.12930161, -345526.1, -13483.1045, 0.00000007008213, 10.0005, 9.998764 
1.8050024e+3, 2.7612022e+2, -73617.36, -288409.25, 7143.8223, -0.022884969, 0.24961285, -73380.02, 160660.1, 0.000018211342, 10.001699, 9.998863 
1.8049915e+3, 2.8611898e+2, 29639.488, -244341.3, 21085.207, 0.0120123895, 0.27625746, 31252.68, 167304.89, 0.00018362651, 10.001971, 9.998365 
1.8049811e+3, 2.9611707e+2, 96719.57, -156149.22, -44488.453, 0.07256019, 0.21225786, 104318.3, 142390.2, 0.0007097157, 10.001746, 9.998401 
1.8049678e+3, 3.061159e+2, 158354.64, -202754.94, -24936.959, -0.14053439, 0.31617376, 160068.56, 160068.56, 0.0016129982, 10.002266, 9.9975 
1.8049574e+3, 3.1611395e+2, 328976.03, -51167.8, 24239.248, -0.045812793, 0.3331192, 330515.38, 330515.38, 0.0026760024, 10.003107, 9.998142 
1.8151562e+3, 1.2613268e+2, -2092169.4, -1805315.6, 151088.28, 0.24497832, -0.3182468, -1740418.4, -36532.52, 0.10291468, 9.99699, 10.000807 
1.8151449e+3, 1.3613714e+2, -1715299.9, -1685811.4, 11033.549, -0.05651484, 0.15459391, -1682140.1, -76292.79, 0.06887483, 9.999403, 9.999799 
1.8151376e+3, 1.4613669e+2, -1487264.3, -1563726.9, -33331.78, 0.23891385, 0.13590886, -1474774.4, 33080.094, 0.036753505, 10.00045, 9.999468 
1.815126e+3, 1.561329e+2, -1449253.8, -1512986.8, 35018.766, 0.02516031, -0.19464602, -1433772.8, -23880.215, 0.01378539, 10.00013, 9.999283 
1.8151145e+3, 1.661329e+2, -1454510.8, -1520503.6, -41477.617, -0.13388701, -0.090811655, -1434505.8, -122605.805, 0.002842686, 9.999654, 9.9987955 
1.8151055e+3, 1.7613524e+2, -1384767.6, -1390829.4, -102235.52, 0.011753939, 0.22534095, -1285518.0, -71629.805, 0.00016504708, 9.999281, 9.999184 
1.8150961e+3, 1.8613592e+2, -1143686.4, -1104653.9, -66353.07, 0.06795582, 0.315939, -1055006.4, 60877.566, 0.00000012908751, 9.999722, 10.0002775 
1.8150854e+3, 1.9613558e+2, -899172.94, -922453.94, 14429.995, -0.02662141, 0.2232521, -892273.56, 125610.64, 0.0, 10.000686, 10.000378 
1.8150748e+3, 2.061346e+2, -789374.1, -896660.44, 22224.098, -0.06839409, 0.12767248, -784952.7, 134936.75, 0.0, 10.001087, 9.999703 
1.8150647e+3, 2.1613316e+2, -684568.44, -793027.5, 62783.242, -0.029758323, -0.017294673, -655836.6, 166061.81, 0.0, 10.001141, 9.999704 
1.815055e+3, 2.2613235e+2, -691057.94, -896351.9, 93430.055, -0.0476859, 0.010162003, -654904.44, 69004.67, 0.0, 10.001081, 9.998352 
1.8150455e+3, 2.361319e+2, -582282.2, -769873.44, 49493.516, -0.11507181, 0.10148827, -570024.9, 55896.4, 0.0, 10.001058, 9.998553 
1.8150352e+3, 2.4613208e+2, -513984.03, -632180.9, -63561.28, -0.118569635, 0.2398264, -486291.56, 41633.195, 0.0, 10.000602, 9.999055 
1.8150245e+3, 2.5613275e+2, -487909.22, -533368.7, -58628.594, -0.067871064, 0.36465213, -447758.47, -17837.121, 0.0, 9.999963, 9.999365 
1.8150139e+3, 2.6613227e+2, -272931.25, -285745.16, 3868.6091, -0.0608441, 0.33551356, -271853.88, 60068.965, 0.0000000874347, 10.000353, 10.000207 
1.8150036e+3, 2.7613088e+2, -18986.033, -137418.81, 59483.176, -0.089324646, 0.14420095, 5731.057, 239659.95, 0.00001648955, 10.001548, 9.999968 
1.8149935e+3, 2.8612894e+2, -89020.945, -457676.97, 3373.8904, -0.021971872, 0.12750185, -88990.07, 46959.387, 0.00017232615, 10.001816, 9.996979 
1.8149836e+3, 2.961268e+2, 9521.815, -309094.88, -32176.371, 0.13124381, 0.16646858, 12738.753, 50716.453, 0.0006746177, 10.001619, 9.997409 
1.8149704e+3, 3.061255e+2, 209097.3, -39512.01, -4989.159, -0.13611533, 0.22196445, 209197.38, 209197.38, 0.0015412994, 10.002028, 9.998734 
1.8149577e+3, 3.161249e+2, 313342.53, 37108.113, 145781.36, -0.3402758, 0.24920481, 376045.06, 376045.06, 0.0025647236, 10.002642, 9.998946 
1.8251555e+3, 1.2614213e+2, -1776398.0, -1668558.6, -58209.28, 0.34645534, -0.27091086, -1643133.3, 60660.703, 0.10907774, 9.999182, 10.0007305 
1.8251443e+3, 1.36145e+2, -1634305.6, -1693150.1, 2055.0117, -0.090692244, 0.07932721, -1634234.0, -28461.92, 0.07313931, 10.0001335, 9.999403 
1.8251371e+3, 1.4614482e+2, -1529959.9, -1519424.8, -101216.58, 0.1929602, 0.07791235, -1423338.8, 84437.34, 0.039204508, 9.999897, 10.000042 
1.825126e+3, 1.561431e+2, -1655383.8, -1559899.0, -72201.21, 0.102858365, -0.104883164, -1521083.0, -111289.63, 0.014855209, 9.998496, 9.999748 
1.8251142e+3, 1.6614296e+2, -1594431.5, -1609498.0, -11712.259, -0.06657769, -0.021207094, -1588039.0, -276237.5, 0.0031336718, 9.998776, 9.99861 
1.825105e+3, 1.761439e+2, -1245570.0, -1334839.5, 38473.29, -0.011916598, 0.17169042, -1231277.1, -17474.111, 0.00019006866, 10.000285, 9.99908 
1.8250959e+3, 1.8614437e+2, -1073756.4, -1040270.4, 32894.766, 0.054671884, 0.22819842, -1020102.75, 95698.0, 0.00000015151502, 10.000081, 10.00054 
1.8250856e+3, 1.9614449e+2, -1146136.5, -1012980.3, -29887.676, 0.0077950624, 0.15807149, -1006579.5, 11216.252, 0.0, 9.998889, 10.000612 
1.8250751e+3, 2.061441e+2, -1091541.4, -1036119.44, -67386.22, -0.03182647, 0.10778814, -990968.9, -71172.74, 0.0, 9.999001, 9.999738 
1.8250652e+3, 2.1614322e+2, -854442.44, -873383.3, -89542.31, -0.030228501, 0.015411761, -773871.1, 47930.316, 0.0, 9.999974, 9.999709 
1.8250556e+3, 2.2614233e+2, -807944.25, -975451.25, -35542.727, -0.045576945, 0.04377146, -800714.6, -76901.76, 0.0, 10.000363, 9.99816 
1.8250464e+3, 2.3614146e+2, -690359.75, -836579.8, -26309.557, -0.09705209, 0.108687796, -685769.94, -59942.2, 0.0, 10.00038, 9.99842 
1.8250361e+3, 2.4614128e+2, -529917.44, -639468.44, -88339.44, -0.07102025, 0.21744111, -480749.63, 47083.42, 0.0, 10.00049, 9.999055 
1.8250254e+3, 2.5614157e+2, -386895.78, -486085.16, -80660.02, 0.011107883, 0.30565822, -341803.25, 88028.79, 0.0, 10.00066, 9.99935 
1.8250148e+3, 2.6614103e+2, -277692.2, -286095.22, -48916.246, -0.0109588895, 0.27090326, -232797.34, 99037.305, 0.00000011582431, 10.000328, 10.000212 
1.8250039e+3, 2.761398e+2, -282000.0, -267199.22, -124850.27, -0.112890065, 0.10101241, -149530.22, 84310.66, 0.000015405387, 9.999742, 9.999953 
1.8249944e+3, 2.8613818e+2, -266501.16, -532644.0, -117908.28, -0.03859171, 0.10984263, -221779.53, -85919.7, 0.0001600689, 10.0005665, 9.997062 
1.8249856e+3, 2.9613647e+2, 119288.875, -251331.0, -81677.21, 0.13633355, 0.19400379, 136490.52, 174375.22, 0.0006309656, 10.002351, 9.997457 
1.8249732e+3, 3.0613458e+2, 290648.44, 36606.67, -65813.02, -0.05144569, 0.1707906, 306685.8, 306685.8, 0.0014656942, 10.0024395, 9.999053 
1.8249604e+3, 3.161345e+2, 208443.2, 42168.977, -7122.196, -0.27156392, 0.23100364, 208747.72, 208747.72, 0.002489003, 10.001628, 9.999496 
1.8351531e+3, 1.2615098e+2, -1668173.6, -1463387.9, -91245.48, 0.15014271, -0.06451518, -1428631.0, 275086.06, 0.11569034, 9.99918, 10.002317 
1.8351462e+3, 1.3614951e+2, -1586008.6, -1582073.9, 47145.145, 0.07008391, -0.2513547, -1536855.1, 68872.87, 0.07769921, 10.000111, 10.000188 
1.835137e+3, 1.4615054e+2, -1521924.6, -1506677.8, -155637.53, 0.15161909, -0.164824, -1358477.1, 149242.3, 0.04181763, 9.999918, 10.000132 
1.8351243e+3, 1.5615313e+2, -1623553.5, -1501751.8, -104586.77, 0.07278795, 0.059670847, -1441626.6, -31927.842, 0.015997248, 9.998523, 10.000136 
1.8351135e+3, 1.661535e+2, -1481378.1, -1383735.8, 33435.605, -0.050051026, 0.09100864, -1373383.9, -61686.637, 0.0034491862, 9.998815, 10.00014 
1.8351059e+3, 1.761526e+2, -1163516.6, -1165509.6, 87531.32, 0.028185626, -0.04949248, -1076976.1, 136730.45, 0.00021871291, 10.000284, 10.000246 
1.8350963e+3, 1.8615195e+2, -1178505.3, -1257658.5, -21287.896, 0.07506879, -0.071863346, -1173143.3, -57428.387, 0.00000018976193, 10.000082, 9.999045 
1.8350847e+3, 1.9615145e+2, -1248415.1, -1219968.4, -58266.9, 0.015618824, -0.056315847, -1174213.9, -156491.6, 0.0, 9.998864, 9.999204 
1.8350746e+3, 2.0615166e+2, -1135432.6, -1118749.4, -37203.848, -0.012519771, 0.046531007, -1088963.5, -169239.77, 0.0, 9.998961, 9.999191 
1.8350658e+3, 2.1615225e+2, -897498.8, -939478.6, -50578.137, 0.017974943, 0.15824194, -863728.1, -42006.52, 0.0, 9.999877, 9.999301 
1.8350565e+3, 2.2615202e+2, -776837.7, -877867.0, -40875.375, -0.013782313, 0.2315904, -762371.4, -38645.93, 0.0, 10.000218, 9.998901 
1.8350469e+3, 2.3615126e+2, -658320.0, -739729.56, -15153.447, -0.09626169, 0.23000965, -655590.8, -29857.75, 0.0, 10.000252, 9.999146 
1.8350367e+3, 2.4614951e+2, -531865.56, -607969.0, -89030.125, -0.07358985, 0.1300812, -473096.34, 54651.766, 0.0, 10.000332, 9.999353 
1.8350263e+3, 2.5614706e+2, -406132.5, -492648.25, -65945.69, 0.023898423, -0.07830776, -370522.9, 59245.566, 0.0, 10.000524, 9.999371 
1.835015e+3, 2.6614645e+2, -408830.66, -533933.5, -78079.96, -0.02947168, -0.02511604, -371336.3, -39560.223, 0.000000090536304, 10.00021, 9.9985695 
1.835003e+3, 2.7614698e+2, -383053.2, -451121.4, -123999.516, -0.18144685, 0.13133389, -288501.9, -54725.652, 0.00001528185, 9.999629, 9.998742 
1.8349941e+3, 2.861466e+2, -187602.36, -339979.66, -65264.652, -0.14145881, 0.23933005, -163470.61, -27686.463, 0.00015262204, 10.00043, 9.998456 
1.8349867e+3, 2.9614595e+2, 172180.63, -95423.555, -11174.943, -0.0024200524, 0.28587416, 172646.47, 210440.61, 0.000595642, 10.002167, 9.998609 
1.8349764e+3, 3.0614328e+2, 188661.39, -118481.9, -111307.195, -0.0051339297, 0.19200464, 224756.66, 224756.66, 0.0014012378, 10.00219, 9.998109 
1.8349634e+3, 3.1614372e+2, 150466.55, 7043.556, 20509.521, -0.16924591, 0.36808184, 153341.77, 153341.77, 0.0024329247, 10.001277, 9.999414 
1.8451518e+3, 1.261605e+2, -1574997.8, -1413956.6, 65261.844, 0.07785064, 0.011080473, -1390830.4, 312798.9, 0.12272786, 9.999886, 10.002385 
1.845147e+3, 1.3615897e+2, -1727302.4, -1671702.3, 105210.36, 0.18585174, -0.16488482, -1590681.1, 14959.703, 0.08254445, 9.99925, 9.999966 
1.8451366e+3, 1.461588e+2, -1528648.6, -1498599.3, -120410.32, 0.13220918, -0.18619986, -1392279.9, 115363.54, 0.04459436, 9.999799, 10.000254 
1.845124e+3, 1.5616229e+2, -1242659.6, -1289489.1, -87303.4, 0.06853344, 0.10485547, -1175685.6, 233927.63, 0.017215712, 10.001027, 10.000406 
1.8451133e+3, 1.6616297e+2, -1193548.5, -1220367.0, 16111.368, -0.024240796, 0.1404361, -1185996.3, 125610.88, 0.0037916328, 10.000701, 10.00035 
1.8451056e+3, 1.761616e+2, -1251394.8, -1190400.1, -41572.715, 0.009966109, -0.06541633, -1169338.0, 44280.75, 0.00025177147, 9.999612, 10.000398 
1.8450963e+3, 1.8616098e+2, -1207701.4, -1286554.3, -116970.77, 0.07906352, -0.08371844, -1123691.1, -8064.817, 0.00000025167606, 9.999945, 9.998913 
1.8450856e+3, 1.9616091e+2, -905393.4, -1075213.5, -68277.47, 0.10327116, -0.013220981, -881346.9, 136283.73, 0.0, 10.001295, 9.999032 
1.8450755e+3, 2.0616089e+2, -802239.8, -1020662.3, 11543.182, 0.056222923, 0.10550146, -801631.44, 118004.29, 0.0, 10.00151, 9.998645 
1.845066e+3, 2.1616091e+2, -745048.44, -910926.1, -15997.885, -0.020313917, 0.21069542, -743519.6, 78121.85, 0.0, 10.001114, 9.998907 
1.8450569e+3, 2.2616063e+2, -636234.75, -724818.7, 1300.7609, -0.031214226, 0.25495908, -636215.7, 87428.09, 0.0, 10.000832, 9.999647 
1.845048e+3, 2.3616007e+2, -553006.9, -618972.06, 8851.771, -0.019461544, 0.20102783, -551839.75, 73805.195, 0.0, 10.000673, 9.999768 
1.8450378e+3, 2.4615832e+2, -520526.88, -614888.0, -69275.43, -0.004451329, 0.08011507, -483891.63, 43767.17, 0.0, 10.000481, 9.999225 
1.8450265e+3, 2.5615582e+2, -449561.75, -534495.25, -95817.09, 0.0012067576, -0.118595466, -387222.28, 42458.258, 0.0, 10.000317, 9.999181 
1.8450154e+3, 2.6615503e+2, -367920.56, -595190.56, -48831.6, -0.040748976, -0.037021387, -357872.75, -26180.227, 0.00000009817215, 10.000849, 9.997838 
1.8450044e+3, 2.7615526e+2, -101641.0, -380889.6, -48635.523, -0.11747531, 0.167471, -93412.805, 140286.06, 0.000013983738, 10.001852, 9.998149 
1.8449952e+3, 2.861552e+2, -11551.636, -161278.75, 17369.549, -0.12294683, 0.28604725, -9563.041, 126139.99, 0.0001420209, 10.001254, 9.99928 
1.8449864e+3, 2.961552e+2, -142153.36, -168930.14, -8894.359, -0.119110994, 0.3238273, -139468.22, -101765.71, 0.0005571277, 9.999658, 9.999325 
1.8449779e+3, 3.0615237e+2, -89264.04, -288666.53, -41955.027, 0.02213076, 0.19549388, -80796.14, -80796.14, 0.0013278592, 10.000435, 9.997792 
1.8449663e+3, 3.1615078e+2, 448588.9, 195699.02, 64797.02, -0.09613222, 0.21116261, 464224.84, 464224.84, 0.0023466824, 10.003122, 9.9998255 
1.8551515e+3, 1.261704e+2, -1663498.8, -1608419.1, 97784.336, 0.018894821, -0.073422454, -1534370.5, 169163.33, 0.13014582, 9.9999485, 10.000854 
1.8551464e+3, 1.3617304e+2, -1818074.8, -1857648.1, 91663.34, 0.1914983, 0.30636263, -1744086.8, -138573.58, 0.08765755, 9.999235, 9.998691 
1.8551357e+3, 1.4616932e+2, -1513710.6, -1470520.3, -79306.445, 0.044315312, -0.020716403, -1409921.4, 97629.36, 0.04753598, 9.999805, 10.000444 
1.8551247e+3, 1.561706e+2, -1230687.4, -1269872.0, -46353.625, 0.010960439, 0.025122404, -1199955.6, 209581.19, 0.01851746, 10.001046, 10.000538 
1.8551138e+3, 1.6617142e+2, -1260723.4, -1368772.4, -33898.78, -0.08395264, 0.124234855, -1250968.8, 60561.91, 0.0041650403, 10.000733, 9.999315 
1.855104e+3, 1.7617096e+2, -1310815.9, -1314473.9, -62637.58, -0.1298084, 0.11433964, -1249980.6, -36441.58, 0.00029041685, 9.999606, 9.999553 
1.8550956e+3, 1.8617138e+2, -1122291.3, -1113955.5, -72820.06, -0.0075455224, 0.17574243, -1045184.1, 70351.77, 0.0000003514084, 9.999964, 10.00009 
1.855088e+3, 1.961728e+2, -840375.8, -934420.5, -19137.797, 0.19360703, 0.27911678, -836630.44, 180890.9, 0.0, 10.001268, 10.000013 
1.8550774e+3, 2.0617175e+2, -848319.5, -1102576.8, -10556.928, 0.087453164, 0.28277263, -847881.94, 71651.1, 0.0, 10.001449, 9.998114 
1.8550654e+3, 2.1616903e+2, -787357.0, -973204.2, -22048.244, -0.19740292, 0.16873288, -784777.1, 36785.105, 0.0, 10.001005, 9.998533 
1.8550566e+3, 2.2616798e+2, -600613.5, -622050.6, -10547.024, -0.1662078, 0.1076943, -596294.5, 127274.72, 0.0, 10.000701, 10.00042 
1.8550497e+3, 2.3616798e+2, -529661.1, -545068.1, 11758.343, 0.060643718, 0.0374214, -523307.5, 102254.805, 0.0, 10.00056, 10.000334 
1.855039e+3, 2.4616793e+2, -584544.75, -715168.94, -83551.45, 0.04579159, 0.0971291, -543807.25, -16244.072, 0.0, 10.000336, 9.998608 
1.8550257e+3, 2.5616786e+2, -502856.16, -610964.2, -88342.96, -0.11990196, 0.19488688, -453342.25, -23773.344, 0.0, 10.000177, 9.998718 
1.8550158e+3, 2.6616666e+2, -372451.4, -578433.9, -20373.965, -0.11053765, 0.24549691, -370455.53, -38870.17, 0.00000008466028, 10.0007305, 9.998015 
1.8550077e+3, 2.7616465e+2, -117621.64, -373223.7, -7659.752, 0.0079118395, 0.21106221, -117392.3, 116217.15, 0.000011475633, 10.001686, 9.99828 
1.854997e+3, 2.8616393e+2, -37970.887, -175651.06, -55232.695, -0.07805341, 0.26158968, -18552.217, 117064.21, 0.00012583715, 10.001068, 9.999276 
1.8549843e+3, 2.9616427e+2, -161393.34, -161822.58, -39384.945, -0.31079516, 0.32269546, -122222.43, -84612.47, 0.0005096421, 9.999463, 9.999465 
1.8549775e+3, 3.061618e+2, -116772.91, -298303.84, 38788.94, -0.1019433, 0.21855928, -108831.98, -108831.98, 0.0012369246, 10.000227, 9.997828 
1.8549696e+3, 3.1615743e+2, 440221.25, 283280.75, 160048.88, -0.10529757, -0.04454471, 540001.44, 540001.44, 0.0022135882, 10.002696, 10.000627 
1.8651524e+3, 1.2618013e+2, -1716321.5, -1717605.3, 29574.12, 0.12515731, -0.013973881, -1687382.3, 16062.459, 0.1378835, 9.999949, 9.999996 
1.8651463e+3, 1.3618411e+2, -1673222.5, -1789816.0, 64439.496, 0.2200885, 0.5001194, -1644623.0, -39210.492, 0.09301642, 10.000225, 9.998682 
1.8651353e+3, 1.4617908e+2, -1463723.6, -1463562.0, -28410.55, 0.0057928907, 0.05061047, -1435232.1, 72231.2, 0.050644647, 10.000254, 10.000257 
1.8651257e+3, 1.561804e+2, -1339780.3, -1335408.1, -54492.973, 0.052749626, 0.11492511, -1283057.4, 126391.37, 0.01991141, 10.000357, 10.000403 
1.8651149e+3, 1.6618137e+2, -1310741.5, -1360506.0, -25798.553, -0.016849874, 0.22154215, -1299781.1, 11658.152, 0.0045744055, 10.000254, 9.999599 
1.8651037e+3, 1.761809e+2, -1228062.5, -1243691.4, 36775.676, -0.13447613, 0.18131453, -1198280.3, 15165.37, 0.0003360051, 10.000055, 9.999811 
1.8650953e+3, 1.8618126e+2, -1035084.5, -1071325.6, 92621.75, -0.055631965, 0.22354928, -958827.4, 156614.38, 0.00000050835786, 10.000567, 10.000089 
1.8650888e+3, 1.961827e+2, -783192.75, -906336.56, 41256.13, 0.122277066, 0.3283289, -770648.75, 246777.48, 0.0, 10.001668, 10.0000105 
1.8650788e+3, 2.0618121e+2, -832541.94, -1096457.3, -7046.542, 0.07089042, 0.29047734, -832353.94, 87086.72, 0.0, 10.001582, 9.99808 
1.8650667e+3, 2.1617766e+2, -816086.6, -991334.9, 4506.689, -0.13334274, 0.09324393, -815970.8, 5505.533, 0.0, 10.000828, 9.998489 
1.8650573e+3, 2.2617656e+2, -660819.2, -664267.56, 15856.877, -0.123618886, 0.037528068, -646593.0, 76891.06, 0.0, 10.000344, 10.000306 
1.8650495e+3, 2.3617722e+2, -608449.8, -595844.4, -35874.32, 0.009287706, 0.043648537, -565723.3, 59749.273, 0.0, 10.000076, 10.000223 
1.865039e+3, 2.4617745e+2, -570894.4, -737758.44, -102261.38, 0.0262473, 0.15216629, -522348.0, 5124.4717, 0.0, 10.000548, 9.998351 
1.8650272e+3, 2.5617728e+2, -326093.47, -550306.56, -97515.91, -0.042409025, 0.26839408, -289615.94, 139864.83, 0.0, 10.001485, 9.9985075 
1.8650173e+3, 2.6617628e+2, -260189.58, -466258.6, -746.25867, -0.042253256, 0.31846043, -260186.89, 71307.09, 0.000000065173005, 10.001261, 9.998523 
1.8650085e+3, 2.761747e+2, -279483.06, -413805.06, 6696.8936, -0.0023709615, 0.27439418, -279150.0, -45639.492, 0.000009431519, 10.000393, 9.998632 
1.8649977e+3, 2.861729e+2, -168008.81, -314289.34, -52274.996, -0.064733095, 0.23942359, -151248.16, -15721.85, 0.00011328213, 10.000511, 9.998583 
1.8649855e+3, 2.9617116e+2, 72285.625, -116006.6, -118078.56, -0.21944457, 0.16352049, 129156.19, 166695.89, 0.00047190647, 10.001355, 9.998855 
1.8649793e+3, 3.061697e+2, 55873.1, -208727.95, 14081.794, 0.010509641, 0.18094227, 56620.41, 56620.41, 0.0011580472, 10.0013895, 9.997871 
1.864971e+3, 3.1616628e+2, 196694.3, 150849.63, 34523.75, -0.13388091, 0.011758198, 215212.56, 215212.56, 0.0020773846, 10.001044, 10.000515 
1.875154e+3, 1.261904e+2, -1735665.5, -1769324.8, -14674.1875, 0.23051567, 0.24649446, -1730166.5, -26811.74, 0.14588223, 9.999988, 9.999619 
1.8751466e+3, 1.3619237e+2, -1586979.6, -1604360.5, 71257.734, 0.19499643, 0.42035738, -1523884.4, 81452.8, 0.0986057, 10.000225, 9.999982 
1.875135e+3, 1.4618832e+2, -1502255.9, -1549033.5, -31194.436, -0.07227045, 0.0381463, -1486655.9, 20723.117, 0.053927336, 10.000268, 9.99965 
1.875127e+3, 1.5619154e+2, -1369621.0, -1396280.1, -38359.02, 0.11644849, 0.36270398, -1342341.6, 67008.27, 0.021407956, 10.000343, 9.999989 
1.8751165e+3, 1.6619273e+2, -1199446.1, -1132235.5, -40069.05, 0.08882192, 0.41735935, -1113545.1, 197789.16, 0.0050250688, 10.000264, 10.001168 
1.8751045e+3, 1.7619139e+2, -1139606.9, -1061887.0, 40208.62, -0.0836151, 0.13836314, -1044828.9, 168510.11, 0.00038988978, 10.000055, 10.001062 
1.875095e+3, 1.8619056e+2, -1108901.9, -1226542.6, 124824.4, -0.16140531, 0.067214645, -1029733.2, 85611.37, 0.000000733184, 10.000578, 9.99902 
1.8750876e+3, 1.9619064e+2, -856688.2, -1043311.0, 80607.06, -0.16742866, 0.14563556, -826693.0, 190651.97, 0.0, 10.001603, 9.999104 
1.8750793e+3, 2.0618924e+2, -804654.1, -1030658.25, -45746.73, -0.06889113, 0.1279893, -795745.5, 123613.77, 0.0, 10.001537, 9.99856 
1.87507e+3, 2.1618672e+2, -810200.7, -959905.8, -15313.915, 0.0917456, -0.0067268065, -808650.2, 12733.704, 0.0, 10.000736, 9.9987545 
1.875059e+3, 2.261864e+2, -749221.8, -816666.75, -1054.3373, 0.0023564028, 0.058788113, -749205.3, -25817.537, 0.0, 10.000205, 9.999329 
1.8750471e+3, 2.3618762e+2, -685138.2, -723942.1, -31084.883, -0.23818038, 0.21508199, -667897.2, -42520.168, 0.0, 9.999946, 9.999402 
1.8750381e+3, 2.4618663e+2, -585289.9, -732159.06, -72057.83, -0.14187787, 0.22940974, -555841.2, -28452.066, 0.0, 10.000394, 9.998467 
1.8750308e+3, 2.561842e+2, -335937.03, -533860.2, -58339.918, 0.15679932, 0.10868926, -320020.7, 109395.15, 0.0, 10.001336, 9.998692 
1.87502e+3, 2.6618406e+2, -229225.77, -372937.13, -41905.375, 0.078214124, 0.19868813, -217899.13, 113517.79, 0.00000004605578, 10.0011215, 9.99924 
1.8750067e+3, 2.7618542e+2, -268032.72, -352237.47, -6068.248, -0.23456447, 0.3781833, -267597.66, -34196.34, 0.000008317367, 10.000231, 9.999134 
1.8749972e+3, 2.8618214e+2, -289374.22, -534132.5, -32057.412, -0.19697507, 0.25017232, -285245.13, -149813.3, 0.00010640216, 10.000364, 9.99715 
1.87499e+3, 2.9617575e+2, -56613.023, -328390.25, -74516.8, 0.07365725, -0.14155078, -37522.71, -29.90465, 0.00044874792, 10.001131, 9.997502 
1.874983e+3, 3.061759e+2, 30952.584, -210769.86, -12617.556, 0.22620626, 0.09480925, 31609.416, 31609.416, 0.001101345, 10.001169, 9.997967 
1.874972e+3, 3.161759e+2, 61344.81, -14185.278, 10648.576, -0.19553608, 0.25716385, 62817.383, 62817.383, 0.001964711, 10.000574, 9.9995985 
1.8851548e+3, 1.2619977e+2, -1508886.5, -1734573.3, 22529.2, 0.21546069, 0.34804258, -1506659.5, 196608.22, 0.15411249, 10.002177, 9.9988 
1.8851474e+3, 1.3620092e+2, -1535977.1, -1508605.4, 34470.043, 0.26214316, 0.37002477, -1485203.6, 120054.25, 0.10442951, 10.000269, 10.000663 
1.8851343e+3, 1.4619847e+2, -1625327.9, -1586632.5, -15240.697, -0.12072909, 0.10115872, -1581350.6, -74067.625, 0.057399224, 9.999322, 9.9998455 
1.8851265e+3, 1.5620151e+2, -1508472.8, -1439216.3, 30904.365, 0.104711905, 0.38387945, -1427431.3, -18177.139, 0.023018045, 9.999295, 10.000186 
1.8851168e+3, 1.6620241e+2, -1283265.1, -1198136.8, 1193.6964, 0.12920088, 0.4156943, -1198120.0, 113120.23, 0.005521801, 9.999797, 10.000939 
1.8851049e+3, 1.7620099e+2, -1069162.0, -1053120.4, -64979.484, -0.055868745, 0.15057343, -995668.56, 217577.05, 0.0004532519, 10.000643, 10.000848 
1.8850955e+3, 1.8619986e+2, -1156446.8, -1253136.8, 22072.824, -0.14414734, 0.060671322, -1151646.3, -36392.246, 0.0000010252129, 10.000257, 9.998994 
1.8850881e+3, 1.9619934e+2, -1192058.3, -1198286.6, 47716.7, -0.14745964, 0.07685078, -1147354.3, -130093.984, 0.0, 9.999262, 9.9991665 
1.8850799e+3, 2.0619874e+2, -1044920.2, -1081991.3, -20798.701, -0.042006698, 0.10340802, -1035596.2, -116329.555, 0.0, 9.999617, 9.999129 
1.8850711e+3, 2.1619795e+2, -746088.94, -880205.44, -696.76227, 0.11094507, 0.08557865, -746085.4, 75188.89, 0.0, 10.000981, 9.999176 
1.8850602e+3, 2.261974e+2, -667535.56, -876400.4, 11067.568, 0.040777832, 0.15782556, -666950.75, 56331.47, 0.0, 10.0012045, 9.9984255 
1.8850482e+3, 2.3619692e+2, -623313.9, -781280.3, -24848.256, -0.1717083, 0.23631112, -619497.44, 5793.8027, 0.0, 10.000735, 9.99863 
1.885039e+3, 2.4619572e+2, -485158.06, -618037.8, 7114.2827, -0.1083582, 0.23444425, -484778.25, 42526.004, 0.0, 10.000803, 9.999049 
1.8850316e+3, 2.561941e+2, -311238.53, -473543.94, 27955.99, 0.11275419, 0.13935484, -306558.25, 122761.28, 0.0, 10.001287, 9.999132 
1.8850209e+3, 2.6619357e+2, -245245.36, -427469.06, -22110.045, 0.061071135, 0.1923923, -242601.02, 88722.08, 0.000000017635879, 10.001224, 9.998812 
1.8850078e+3, 2.7619377e+2, -194912.7, -356171.16, -84604.27, -0.18411191, 0.29507998, -158670.4, 74648.32, 0.000007212163, 10.000917, 9.998768 
1.884999e+3, 2.8619045e+2, -163304.11, -481696.4, -9095.872, -0.09779816, 0.18970616, -163044.47, -27695.62, 0.00009812263, 10.001291, 9.997052 
1.8849933e+3, 2.961848e+2, 98515.52, -272518.28, 16004.787, 0.23577257, -0.12241905, 99204.625, 136607.31, 0.00042173456, 10.002271, 9.997343 
1.8849853e+3, 3.0618468e+2, 214193.06, -116497.09, 93508.54, 0.28427655, 0.09953874, 238802.81, 238802.81, 0.0010400804, 10.002383, 9.998048 
1.8849728e+3, 3.1618458e+2, 187182.75, -5499.465, 18893.922, -0.21228206, 0.23659852, 189017.97, 189017.97, 0.0018543331, 10.001641, 9.99915 
1.8951541e+3, 1.2620828e+2, -1579572.5, -1917354.6, -44612.715, -0.10548327, 0.26363903, -1573779.6, 129404.44, 0.16258536, 10.00223, 9.997526 
1.8951486e+3, 1.3620974e+2, -1546738.3, -1520842.5, -17014.422, 0.33043462, 0.33981508, -1512409.5, 92765.695, 0.110513955, 10.00021, 10.000611 
1.8951327e+3, 1.4620948e+2, -1559088.1, -1437649.1, -26895.814, -0.23193924, 0.23448835, -1431959.0, 75217.1, 0.06108175, 9.999264, 10.000924 
1.8951246e+3, 1.5621036e+2, -1460752.4, -1336573.1, 42908.535, -0.0453147, 0.19240075, -1323189.1, 85971.75, 0.024752133, 9.999278, 10.000911 
1.8951158e+3, 1.662105e+2, -1409738.0, -1475473.9, 28223.799, 0.020030338, 0.22480007, -1399282.9, -88125.65, 0.0060684755, 9.999855, 9.999007 
1.8951052e+3, 1.7620967e+2, -1181971.1, -1284942.1, -33948.41, -0.11155822, 0.21195658, -1171786.1, 41379.477, 0.0005270964, 10.000628, 9.999266 
1.8950967e+3, 1.8620907e+2, -1081799.5, -1096531.1, -22269.57, -0.083441004, 0.18389268, -1065709.1, 49461.582, 0.0000013718216, 10.000256, 10.000064 
1.8950899e+3, 1.9620892e+2, -1127927.5, -1052101.4, 25399.969, 0.09345457, 0.12966304, -1044379.44, -27208.652, 0.0, 9.999214, 10.000187 
1.8950808e+3, 2.062098e+2, -1002920.56, -994157.25, 23845.717, 0.055633564, 0.22382802, -974293.94, -55132.023, 0.0, 9.9995985, 9.999749 
1.8950696e+3, 2.1621121e+2, -726630.3, -819985.9, 49293.082, -0.13341829, 0.3630658, -705421.25, 115727.086, 0.0, 10.000887, 9.9996395 
1.8950602e+3, 2.262092e+2, -750259.44, -1014483.75, -14493.232, -0.07673716, 0.31763047, -749466.8, -26296.078, 0.0, 10.001059, 9.997549 
1.8950519e+3, 2.3620509e+2, -690169.94, -885219.9, -29499.643, 0.1274153, 0.119629994, -685806.0, -60590.977, 0.0, 10.000593, 9.997979 
1.8950415e+3, 2.4620487e+2, -437143.38, -488129.75, 16778.28, 0.034747813, 0.18735926, -432117.5, 95099.28, 0.0, 10.00066, 10.000017 
1.8950297e+3, 2.5620702e+2, -286294.9, -386661.7, 51143.508, -0.23498821, 0.3727947, -264826.13, 164366.06, 0.0, 10.00114, 9.999801 
1.89502e+3, 2.6620468e+2, -375215.63, -668678.0, -41653.617, -0.17312624, 0.30586475, -369417.94, -38203.93, 0.0000000071100716, 10.001095, 9.997218 
1.8950114e+3, 2.7619952e+2, -306098.88, -545735.9, -79221.49, 0.0673888, 0.030785728, -282277.13, -49012.91, 0.0000064261117, 10.0007515, 9.99754 
1.8950029e+3, 2.8619784e+2, -98279.13, -315866.13, 14504.332, 0.1255101, 0.0716012, -97316.53, 37961.176, 0.00008727804, 10.00114, 9.998271 
1.894995e+3, 2.9619813e+2, 129422.586, -155756.61, 67320.07, 0.16056922, 0.23073526, 144515.53, 181786.23, 0.00038336558, 10.002041, 9.9982605 
1.8949853e+3, 3.061961e+2, 170615.84, -141301.92, 61797.113, 0.021539107, 0.22953987, 182412.9, 182412.9, 0.00096103176, 10.002121, 9.9979925 
1.8949735e+3, 3.161921e+2, 50310.62, -155166.16, 37522.574, -0.33841386, -0.023111898, 56948.28, 56948.28, 0.0017327515, 10.00112, 9.998356 
1.9051547e+3, 1.2621856e+2, -1903991.9, -2049485.9, 72996.52, -0.13053492, 0.23497175, -1873682.5, -170600.73, 0.1713416, 9.999693, 9.997839 
1.9051486e+3, 1.3621889e+2, -1698028.8, -1642213.5, 6663.2446, 0.3666005, 0.22919315, -1641429.0, -36343.746, 0.11689223, 9.999375, 10.000103 
1.9051318e+3, 1.4622122e+2, -1569079.6, -1467750.0, -6665.5537, -0.23523434, 0.43002424, -1467313.4, 39747.39, 0.06499328, 9.999304, 10.000687 
1.9051236e+3, 1.5621987e+2, -1394983.6, -1313218.5, -33724.89, -0.100090906, 0.16649368, -1301103.4, 107963.695, 0.026617203, 9.999751, 10.0008545 
1.9051155e+3, 1.6621903e+2, -1446215.0, -1537019.4, 15106.756, 0.008501704, 0.12395828, -1443767.8, -132694.05, 0.0066676727, 9.99979, 9.998617 
1.9051062e+3, 1.7621866e+2, -1308320.5, -1377551.6, 48857.125, -0.041933108, 0.19605617, -1283059.0, -69980.0, 0.0006122247, 9.999906, 9.998971 
1.9050975e+3, 1.862186e+2, -1117987.8, -1094032.1, 46707.758, -0.0039578537, 0.22432978, -1057790.9, 57289.05, 0.0000017786746, 9.999929, 10.000238 
1.9050899e+3, 1.9621871e+2, -1003071.3, -978105.8, 17882.928, 0.12531802, 0.1828083, -968779.9, 48298.133, 0.0, 10.000006, 10.000321 
1.9050804e+3, 2.0621969e+2, -947105.5, -943321.4, 17139.113, 0.052793838, 0.27188385, -927970.2, -8901.613, 0.0, 9.999905, 9.999935 
1.9050696e+3, 2.1622111e+2, -870984.7, -869212.7, -8534.618, -0.16886802, 0.394645, -861518.2, -40463.35, 0.0, 9.999813, 9.999814 
1.9050609e+3, 2.2621916e+2, -807890.5, -998204.44, -21362.938, -0.098228015, 0.32635763, -805521.94, -82447.02, 0.0, 10.000464, 9.997952 
1.9050531e+3, 2.362152e+2, -523349.72, -776712.2, 38416.117, 0.14557199, 0.103631616, -517652.97, 107462.055, 0.0, 10.001604, 9.998245 
1.9050428e+3, 2.4621502e+2, -355547.53, -503111.0, 52430.477, 0.072279006, 0.19205599, -338815.75, 188301.22, 0.0, 10.00148, 9.999505 
1.9050308e+3, 2.5621703e+2, -381177.75, -478650.06, -38810.668, -0.20712501, 0.41150114, -367612.38, 61484.0, 0.0, 10.000696, 9.999373 
1.9050217e+3, 2.662144e+2, -313926.78, -631614.94, -48945.316, -0.13832286, 0.3291814, -306556.9, 24564.145, 0.000000016068412, 10.00149, 9.997278 
1.9050138e+3, 2.7620894e+2, 76553.914, -361915.75, 7703.802, 0.11549412, 0.023910744, 76689.23, 309861.84, 0.000006012962, 10.003356, 9.99756 
1.9050054e+3, 2.8620744e+2, 214817.48, -148728.14, 87112.52, 0.17484728, 0.073033124, 234613.39, 369796.8, 0.000076659555, 10.003216, 9.9984255 
1.9049971e+3, 2.9620835e+2, 127013.35, -139094.1, 30762.576, 0.18354951, 0.2780853, 130523.27, 167692.75, 0.00034009657, 10.001943, 9.998419 
1.9049871e+3, 3.0620533e+2, 121116.695, -193806.47, 28560.686, 0.008917042, 0.18669315, 123685.93, 123685.93, 0.00087139563, 10.001912, 9.997734 
1.9049768e+3, 3.1620008e+2, 259318.63, -68064.76, -48251.777, -0.17122175, -0.15694635, 266282.16, 266282.16, 0.0016054219, 10.002567, 9.9982815 
1.915156e+3, 1.2623058e+2, -1773616.4, -1737744.8, 131361.52, -0.024576737, 0.26430407, -1623100.3, 79860.805, 0.18042894, 9.999569, 10.000086 
1.9151473e+3, 1.3622814e+2, -1770839.5, -1791836.1, -6925.8154, 0.27941757, 0.024887398, -1768760.8, -163770.75, 0.12358676, 9.999381, 9.999065 
1.9151317e+3, 1.4623341e+2, -1656695.8, -1669325.3, 1199.2769, -0.21596172, 0.66513777, -1656582.9, -149642.86, 0.069141634, 9.999398, 9.999241 
1.915123e+3, 1.5622984e+2, -1450540.5, -1426004.3, -14063.0625, -0.13967751, 0.29433587, -1419610.1, -10636.227, 0.028615344, 9.999743, 10.000069 
1.9151154e+3, 1.6622801e+2, -1360467.5, -1364907.9, 8812.677, -0.0053249705, 0.11619891, -1353599.6, -42610.375, 0.0073205116, 9.999817, 9.999783 
1.9151074e+3, 1.7622808e+2, -1248835.9, -1248548.1, 59403.125, 0.0778588, 0.11895609, -1189288.6, 23696.215, 0.00070924795, 9.999884, 9.999865 
1.9150978e+3, 1.862285e+2, -1164518.4, -1195218.9, 43784.152, 0.01244991, 0.19512106, -1133471.6, -18490.422, 0.0000023137907, 9.999945, 9.99954 
1.9150877e+3, 1.962288e+2, -1060086.6, -1081641.3, 28015.45, -0.1042888, 0.24833299, -1040847.06, -23865.764, 0.0, 9.999942, 9.999643 
1.9150789e+3, 2.062284e+2, -979280.5, -999741.06, 7810.266, -0.11992934, 0.2506711, -976639.94, -57653.438, 0.0, 9.999851, 9.999577 
1.9150706e+3, 2.1622774e+2, -892845.2, -890839.5, 743.15704, -0.07302249, 0.19477901, -890594.1, -69601.08, 0.0, 9.999709, 9.999715 
1.9150615e+3, 2.2622745e+2, -713606.6, -765818.44, 18628.816, -0.104866095, 0.20215933, -707641.5, 15352.018, 0.0, 10.000304, 9.999627 
1.9150516e+3, 2.3622736e+2, -460996.75, -609009.7, 82668.87, -0.17780101, 0.20410766, -424047.8, 200942.72, 0.0, 10.001451, 9.999468 
1.915043e+3, 2.4622604e+2, -519388.97, -810437.75, 14487.051, -0.08671598, 0.24358058, -518669.66, 8336.424, 0.0, 10.001331, 9.997469 
1.9150347e+3, 2.5622404e+2, -511001.8, -715488.8, -47865.96, 0.10785606, 0.25912684, -500352.06, -71319.44, 0.0, 10.000564, 9.997807 
1.9150254e+3, 2.6622283e+2, -214716.86, -400749.44, 11361.603, 0.071411215, 0.2974018, -214025.55, 117017.24, 0.000000038925435, 10.00137, 9.998928 
1.9150148e+3, 2.7622202e+2, 146308.61, -184185.02, 73991.88, -0.1256259, 0.29095224, 162117.89, 395161.8, 0.000005437274, 10.003218, 9.998847 
1.9150063e+3, 2.862192e+2, 121589.1, -310988.28, 26485.727, -0.06848314, 0.21181203, 123204.73, 258270.86, 0.00006527873, 10.0030775, 9.997378 
1.9149995e+3, 2.962152e+2, 29562.715, -291350.66, 6649.7266, 0.2069603, 0.029115422, 29700.445, 66801.34, 0.00029241332, 10.001737, 9.997469 
1.9149904e+3, 3.062125e+2, 66006.1, -268513.03, 37774.93, 0.11615004, 0.031320333, 70218.71, 70218.71, 0.0007692978, 10.001726, 9.997308 
1.9149798e+3, 3.1621125e+2, 252064.44, 19874.352, 55304.68, -0.15645216, 0.10686582, 264564.38, 264564.38, 0.0014580134, 10.002149, 9.999068 
1.9251563e+3, 1.2623945e+2, -1908629.0, -1678724.4, -45605.99, 0.12848203, 0.342265, -1670008.1, 32867.402, 0.18987963, 9.998029, 10.001227 
1.9251454e+3, 1.362367e+2, -1545620.0, -1528451.0, -87131.805, 0.098025605, -0.10043052, -1449481.9, 155420.72, 0.13060497, 10.000278, 10.000537 
1.9251323e+3, 1.4624389e+2, -1486531.1, -1654615.5, 32189.73, -0.1578795, 0.69764686, -1480577.4, 26256.814, 0.07352615, 10.000878, 9.998629 
1.9251241e+3, 1.5623955e+2, -1400536.5, -1450830.3, 31470.014, -0.0437012, 0.31020746, -1385400.4, 23479.521, 0.030745408, 10.000313, 9.99962 
1.9251157e+3, 1.6623771e+2, -1341885.0, -1283325.4, 51804.48, 0.0546923, 0.11605746, -1253098.8, 57796.69, 0.008026891, 9.999648, 10.000418 
1.9251072e+3, 1.7623867e+2, -1301192.9, -1213767.4, 54084.813, 0.09786108, 0.14356716, -1187939.0, 24941.186, 0.0008187495, 9.999272, 10.000396 
1.9250973e+3, 1.8623944e+2, -1301840.4, -1281232.6, 69445.78, 0.013038145, 0.2396495, -1221330.5, -106457.31, 0.0000031359323, 9.999085, 9.999365 
1.9250868e+3, 1.962395e+2, -1188504.4, -1160187.8, 85041.41, -0.14815104, 0.28230205, -1088134.1, -71256.93, 0.0, 9.999127, 9.999495 
1.9250783e+3, 2.0623843e+2, -1057970.4, -1062092.8, 108840.484, -0.12272532, 0.23433557, -951171.56, -32282.62, 0.0, 9.999416, 9.99936 
1.9250712e+3, 2.1623692e+2, -858828.0, -888973.5, 99118.234, 0.010055159, 0.117771015, -773643.0, 47259.61, 0.0, 10.000012, 9.999579 
1.9250625e+3, 2.2623707e+2, -659775.0, -699665.9, 92763.99, -0.023604032, 0.15345787, -584836.44, 138061.7, 0.0, 10.000516, 9.999975 
1.9250529e+3, 2.3623797e+2, -515731.47, -608011.2, 38404.44, -0.17153543, 0.22358456, -501839.78, 123045.06, 0.0, 10.000953, 9.999718 
1.9250445e+3, 2.4623638e+2, -554610.25, -871090.9, -9712.232, -0.064609885, 0.24441664, -554312.5, -27409.283, 0.0, 10.001275, 9.997079 
1.9250366e+3, 2.5623345e+2, -380774.63, -703046.56, 37590.203, 0.18790634, 0.21291079, -376448.13, 52490.97, 0.0, 10.001654, 9.997378 
1.9250275e+3, 2.6623207e+2, -176437.84, -415089.9, 109551.64, 0.13842691, 0.26970354, -133775.4, 197176.33, 0.000000047147957, 10.001784, 9.998627 
1.9250174e+3, 2.7623147e+2, -76646.01, -313332.66, -1709.969, -0.13066262, 0.31281534, -76633.66, 156317.98, 0.0000043683804, 10.001789, 9.998643 
1.9250086e+3, 2.8622848e+2, -39392.617, -375272.25, -78552.28, -0.09219793, 0.21835458, -21929.514, 113046.766, 0.000052619915, 10.001946, 9.997465 
1.9250013e+3, 2.9622433e+2, 121735.36, -251693.19, -38040.402, 0.18176152, 0.018491229, 125571.06, 162584.42, 0.00024219825, 10.002382, 9.997436 
1.9249931e+3, 3.0622196e+2, 133660.13, -261510.06, 78886.8, 0.2013712, 0.070518635, 148826.05, 148826.05, 0.0006583745, 10.002294, 9.997089 
1.9249837e+3, 3.16221e+2, 215578.95, 4462.309, 72046.26, 0.02445263, 0.20330551, 237822.14, 237822.14, 0.001285051, 10.00184, 9.999139 
1.9351551e+3, 1.2624383e+2, -1923332.4, -1727697.9, -72620.586, 0.17337179, 0.3306149, -1703687.5, -849.548, 0.1997211, 9.998123, 10.000802 
1.9351421e+3, 1.3624449e+2, -1312145.0, -1029657.44, -18297.361, -0.27414358, -0.1488336, -1028477.25, 576345.56, 0.13795441, 10.0002, 10.004546 
1.9351335e+3, 1.4625306e+2, -1473145.3, -1618955.1, 8457.546, -0.16287716, 0.5642993, -1472656.4, 34082.676, 0.07814733, 10.00085, 9.998886 
1.935126e+3, 1.5624915e+2, -1411985.9, -1477583.6, 18269.205, 0.10728121, 0.23045333, -1407241.0, 1542.2108, 0.033007, 10.000315, 9.999438 
1.9351159e+3, 1.6624804e+2, -1326092.6, -1259246.5, 28128.363, 0.094585925, 0.113126844, -1248985.4, 61807.96, 0.008786739, 9.999682, 10.000571 
1.9351052e+3, 1.7625032e+2, -1291799.4, -1192780.0, 48503.29, -0.03541913, 0.26270145, -1172980.4, 39785.734, 0.00094156526, 9.999261, 10.000552 
1.9350956e+3, 1.862513e+2, -1270477.4, -1218224.6, 65407.426, -0.08160877, 0.34991905, -1173918.6, -59161.594, 0.0000044945964, 9.999096, 9.999789 
1.9350868e+3, 1.9625081e+2, -1168817.0, -1109982.3, 95384.016, -0.0840423, 0.29414803, -1039582.4, -22816.844, 0.0, 9.99909, 9.999856 
1.9350788e+3, 2.0624971e+2, -1066439.3, -1075220.8, 122094.48, -0.050740138, 0.2318236, -948656.56, -29880.326, 0.0, 9.99939, 9.999288 
1.9350713e+3, 2.1624856e+2, -889012.1, -928999.5, 126515.84, 0.015004822, 0.16000444, -780919.9, 39865.3, 0.0, 9.999912, 9.999356 
1.9350639e+3, 2.2624773e+2, -752370.1, -852910.6, 102024.67, 0.057003345, 0.16714521, -688903.25, 33888.67, 0.0, 10.000355, 9.998996 
1.9350564e+3, 2.36247e+2, -585899.25, -716471.2, 61311.957, 0.07998126, 0.1680352, -561622.9, 63175.637, 0.0, 10.000805, 9.999036 
1.9350469e+3, 2.4624617e+2, -490105.44, -707872.06, -5878.8774, 0.040038873, 0.22510414, -489946.84, 36860.234, 0.0, 10.001142, 9.998271 
1.9350362e+3, 2.5624532e+2, -345364.1, -599227.2, 57622.04, -0.034568846, 0.28260243, -332897.22, 95918.914, 0.0, 10.00153, 9.99815 
1.9350278e+3, 2.6624206e+2, -360245.4, -759224.8, 99421.414, -0.023563657, 0.2498848, -336843.28, -5994.7544, 0.00000001782158, 10.00163, 9.996335 
1.9350207e+3, 2.7623728e+2, -233205.42, -590122.7, 8850.262, 0.021773653, 0.09802709, -232986.11, -89.75865, 0.0000032439186, 10.001606, 9.996819 
1.9350117e+3, 2.8623545e+2, 23791.498, -223763.61, -79679.5, 0.006685943, 0.13580164, 47220.28, 182132.8, 0.000042492127, 10.001836, 9.99857 
1.9350018e+3, 2.9623562e+2, 168351.34, -120045.83, -12125.254, -0.006570767, 0.25715086, 168860.23, 205767.78, 0.00020128557, 10.002237, 9.998408 
1.934995e+3, 3.0623382e+2, 84961.16, -315399.8, 48694.85, 0.13172157, 0.33384514, 90798.67, 90798.67, 0.00056117197, 10.00209, 9.996819 
1.9349863e+3, 3.1622773e+2, 111098.54, -106233.44, 87409.305, 0.07045336, -0.02516188, 141891.1, 141891.1, 0.0011168965, 10.00143, 9.998553 
1.9451544e+3, 1.2625143e+2, -1688834.8, -1779380.4, 129939.52, 0.15387487, 0.25405404, -1596507.0, 106254.89, 0.20999403, 10.000576, 9.999324 
1.9451411e+3, 1.3625413e+2, -1644092.8, -1128289.9, -14728.667, -0.23990142, -0.048954718, -1127869.6, 476858.38, 0.14565058, 9.9972725, 10.005209 
1.945134e+3, 1.4626138e+2, -1910304.4, -1722660.5, -10537.296, -0.02030229, 0.43126604, -1722070.6, -215414.45, 0.083007626, 9.997345, 9.999873 
1.9451262e+3, 1.5625906e+2, -1447540.0, -1424509.0, 36975.14, 0.13930494, 0.18021727, -1397297.6, 11384.309, 0.03539992, 9.999759, 10.000075 
1.9451156e+3, 1.6625851e+2, -1277034.5, -1266301.1, 21172.973, 0.07244721, 0.10560103, -1249825.3, 60861.727, 0.009600047, 10.000142, 10.000308 
1.9451043e+3, 1.7626037e+2, -1292699.9, -1217029.9, 8525.295, -0.06151507, 0.23539065, -1216081.3, -3415.1064, 0.0010784023, 9.999355, 10.000336 
1.945095e+3, 1.8626106e+2, -1240149.6, -1227770.6, 31220.902, -0.06383234, 0.31489858, -1202131.6, -87470.46, 0.0000066792873, 9.999408, 9.999573 
1.9450869e+3, 1.9626051e+2, -1029435.06, -1062518.1, 2643.6897, -0.025125464, 0.2743732, -1029225.1, -12554.217, 0.0, 10.000138, 9.999674 
1.945079e+3, 2.0625976e+2, -874567.94, -976357.56, 35221.734, -0.018458165, 0.25027615, -863568.8, 55109.348, 0.0, 10.000687, 9.999337 
1.9450715e+3, 2.1625897e+2, -700420.0, -840496.3, 34021.074, -0.024692945, 0.21525279, -692594.4, 128088.31, 0.0, 10.001208, 9.999342 
1.9450648e+3, 2.2625794e+2, -662353.06, -846632.5, 43896.098, 0.07121258, 0.21722627, -652431.06, 70261.164, 0.0, 10.00112, 9.998671 
1.9450584e+3, 2.3625667e+2, -612733.56, -759919.9, 41308.758, 0.21807718, 0.19415753, -601932.6, 22772.953, 0.0, 10.000738, 9.998778 
1.945049e+3, 2.4625568e+2, -465495.9, -665563.7, -12427.004, 0.133593, 0.23454073, -464726.97, 61987.5, 0.0, 10.001194, 9.998535 
1.9450372e+3, 2.562548e+2, -221344.17, -518740.72, -40059.215, -0.108819224, 0.2667295, -216042.7, 212678.58, 0.0, 10.002284, 9.998345 
1.9450293e+3, 2.662512e+2, -208927.48, -694763.7, 67930.67, -0.08383677, 0.19253911, -199608.03, 131147.8, 0.000000002142629, 10.002695, 9.996267 
1.9450235e+3, 2.76246e+2, -72300.13, -534977.44, 119637.98, 0.092353575, 0.010200239, -43195.28, 189611.81, 0.0000029419668, 10.002761, 9.996666 
1.9450146e+3, 2.8624433e+2, 117185.695, -195091.89, 57468.086, 0.0662322, 0.082308985, 127425.7, 262249.13, 0.000037529444, 10.00255, 9.998426 
1.9450033e+3, 2.9624516e+2, 169643.7, -123994.5, -646.1761, -0.07586655, 0.2842074, 169645.13, 206460.17, 0.00017698373, 10.002255, 9.998376 
1.9449976e+3, 3.0624363e+2, 186025.48, -258014.73, 71570.9, 0.1549979, 0.38211903, 197276.3, 197276.3, 0.00049046375, 10.002767, 9.996873 
1.9449893e+3, 3.162375e+2, 460191.0, 42110.51, 54621.902, 0.12560877, 0.035694662, 467209.5, 467209.5, 0.000970849, 10.003889, 9.998396 
1.9551522e+3, 1.2626256e+2, -1802676.9, -2077533.1, -49638.445, -0.16430056, 0.1515459, -1793987.0, -91342.33, 0.22070916, 10.000671, 9.997185 
1.9551422e+3, 1.3626572e+2, -1815106.5, -1449800.5, -96193.945, 0.12598507, 0.20457359, -1426018.6, 178598.81, 0.15369554, 9.997346, 10.0026245 
1.9551332e+3, 1.4626864e+2, -1778847.6, -1474480.9, 70822.02, 0.15600888, 0.27268314, -1458808.5, 47779.016, 0.08810495, 9.99743, 10.001566 
1.9551246e+3, 1.5626918e+2, -1356764.4, -1235642.0, 116517.805, -0.017570825, 0.14817743, -1164886.6, 243690.98, 0.037922986, 9.999743, 10.001429 
1.9551145e+3, 1.6626917e+2, -1313197.8, -1350075.3, -15270.439, -0.099434175, 0.10193834, -1307695.4, 2880.8105, 0.010466628, 10.000174, 9.999715 
1.9551039e+3, 1.7626885e+2, -1332022.0, -1309884.9, -9425.774, -0.054146998, 0.07072966, -1306415.3, -93835.414, 0.0012294218, 9.9993925, 9.999682 
1.9550951e+3, 1.8626867e+2, -1289825.5, -1341491.1, 52217.71, -0.026644627, 0.13970639, -1257400.1, -142814.17, 0.000009908067, 9.99946, 9.998764 
1.9550872e+3, 1.9626865e+2, -1081829.5, -1164427.1, 34946.79, -0.034723442, 0.23156232, -1069027.8, -52434.72, 0.0, 10.000112, 9.998988 
1.9550791e+3, 2.0626844e+2, -877031.5, -961689.0, 47391.83, -0.100930884, 0.2866595, -855817.25, 62778.535, 0.0, 10.000602, 9.999478 
1.9550712e+3, 2.1626817e+2, -705965.56, -819249.4, 57019.086, -0.18012556, 0.2845289, -682236.6, 138358.95, 0.0, 10.001075, 9.999549 
1.9550647e+3, 2.2626762e+2, -658511.25, -804741.44, 24406.248, -0.063956276, 0.3051069, -654545.4, 68054.22, 0.0, 10.000968, 9.999034 
1.9550589e+3, 2.3626696e+2, -620211.56, -738825.9, 41075.93, 0.17101943, 0.307953, -607376.0, 17229.705, 0.0, 10.000593, 9.998987 
1.9550502e+3, 2.4626489e+2, -540963.94, -787190.06, 21257.629, 0.11677017, 0.27451485, -539142.2, -12516.363, 0.0, 10.0010395, 9.997774 
1.9550397e+3, 2.5626194e+2, -268984.03, -582143.75, 5381.042, -0.1103036, 0.16962622, -268891.6, 159763.19, 0.0, 10.002146, 9.997968 
1.9550319e+3, 2.6625967e+2, -82060.46, -404896.44, 61690.64, -0.12377446, 0.12833351, -70673.64, 259998.13, 0.00000003752054, 10.002568, 9.998326 
1.9550255e+3, 2.762577e+2, 21833.16, -308728.72, 131773.48, -0.0043631983, 0.06572944, 67933.49, 300616.72, 0.0000033154865, 10.002633, 9.99828 
1.9550164e+3, 2.8625527e+2, -21528.092, -439456.06, 32586.23, -0.024571436, 0.07991367, -19002.574, 115704.72, 0.00003554113, 10.002361, 9.99684 
1.9550055e+3, 2.9625306e+2, 57724.547, -309614.75, 7943.0996, -0.10778238, 0.12865728, 57896.223, 94630.73, 0.00016173386, 10.002069, 9.997183 
1.9550006e+3, 3.062516e+2, 179589.06, -232003.73, 97672.0, 0.15095007, 0.26242498, 201590.77, 201590.77, 0.0004325806, 10.002577, 9.997153 
1.9549939e+3, 3.162497e+2, 422809.53, 48622.734, 57520.035, 0.16903646, 0.31850845, 431451.9, 431451.9, 0.00082958135, 10.003557, 9.998588 
1.9651514e+3, 1.2627344e+2, -2063355.1, -2103880.3, -66657.43, -0.19025436, 0.13482565, -2013948.5, -311412.4, 0.23177752, 9.998512, 9.998017 
1.9651419e+3, 1.36276e+2, -1573783.3, -1436324.1, -55881.926, 0.2478501, 0.21170084, -1416473.0, 188041.63, 0.1620495, 9.999511, 10.001672 
1.965131e+3, 1.462778e+2, -1593956.4, -1374317.6, 154459.13, 0.12778632, 0.21603383, -1294616.8, 211877.47, 0.093428105, 9.998662, 10.001733 
1.9651233e+3, 1.5627857e+2, -1629433.1, -1332748.9, 108291.11, -0.024818797, 0.08005193, -1297427.4, 111052.82, 0.04057487, 9.997742, 10.00169 
1.9651143e+3, 1.6627882e+2, -1549522.9, -1497072.0, -35809.453, -0.04779477, 0.062260292, -1478911.8, -168434.38, 0.011385711, 9.998702, 9.999414 
1.9651043e+3, 1.7627858e+2, -1161395.3, -1262842.1, -25594.709, -0.0044925977, 0.06974652, -1155303.6, 57179.734, 0.0013940044, 10.000729, 9.999361 
1.9650955e+3, 1.8627809e+2, -1046351.1, -1271096.0, 62453.055, -0.0121601205, 0.14335895, -1030162.5, 84330.86, 0.000014255441, 10.001318, 9.998362 
1.9650874e+3, 1.9627754e+2, -957707.25, -1147251.0, 62631.344, -0.058825914, 0.22364496, -938881.6, 77623.22, 0.0, 10.001139, 9.998614 
1.9650799e+3, 2.06277e+2, -843279.56, -963763.5, 82864.48, -0.081603564, 0.26847306, -801073.44, 117437.35, 0.0, 10.000902, 9.999324 
1.965073e+3, 2.1627639e+2, -773078.94, -866468.44, 54128.15, -0.093486056, 0.24765758, -748287.6, 72226.04, 0.0, 10.000665, 9.999427 
1.9650659e+3, 2.2627577e+2, -681223.4, -813516.9, 4990.945, -0.023767576, 0.26464212, -681035.4, 41482.785, 0.0, 10.000807, 9.999056 
1.9650589e+3, 2.3627505e+2, -517600.56, -692312.7, -15297.915, 0.07684852, 0.26502356, -516271.2, 108253.32, 0.0, 10.00129, 9.998982 
1.965051e+3, 2.4627313e+2, -474579.06, -749680.4, 23678.104, 0.08795295, 0.24438395, -472555.94, 53987.695, 0.0, 10.001458, 9.997834 
1.9650428e+3, 2.562706e+2, -363386.53, -617937.06, 46765.258, 0.03415367, 0.17695697, -355066.88, 73502.73, 0.0, 10.001442, 9.998067 
1.9650349e+3, 2.662688e+2, -172725.06, -375194.0, 65732.24, -0.022549631, 0.14093481, -153256.83, 177324.47, 0.00000006167767, 10.001646, 9.998967 
1.9650269e+3, 2.7626723e+2, -26504.398, -274303.1, 5963.014, -0.09938598, 0.060208023, -26360.988, 206224.95, 0.000003603985, 10.002071, 9.9987755 
1.9650182e+3, 2.862645e+2, -14069.918, -487151.13, -62317.754, -0.07771675, 0.045478538, -5998.667, 128614.63, 0.00003406456, 10.002639, 9.996373 
1.9650093e+3, 2.9626155e+2, 211707.1, -283728.1, -33976.742, 0.015292161, 0.07392382, 214026.34, 250675.47, 0.0001486936, 10.003328, 9.996762 
1.9650036e+3, 3.0625936e+2, 222321.42, -184919.8, 86015.44, 0.19947673, 0.14205578, 239743.81, 239743.81, 0.00038063264, 10.002753, 9.997397 
1.9649957e+3, 3.162587e+2, 109149.2, -56956.152, -62907.98, 0.1208838, 0.3060986, 130284.63, 130284.63, 0.00069817615, 10.001153, 9.999045 
1.9751517e+3, 1.2628531e+2, -1801857.3, -1604854.6, 150334.28, -0.06017008, 0.28589892, -1523625.9, 178798.2, 0.24301729, 9.998625, 10.001696 
1.9751398e+3, 1.3628484e+2, -1549963.8, -1394893.3, -45674.223, 0.083210565, -0.04488832, -1382440.4, 221980.78, 0.17062773, 9.999534, 10.002029 
1.9751267e+3, 1.4628904e+2, -1671435.5, -1540943.1, 108260.78, -0.19325979, 0.27819395, -1479787.4, 26587.936, 0.09895461, 9.998709, 10.000467 
1.9751218e+3, 1.5628724e+2, -1677802.0, -1444539.3, 95349.195, 0.04101499, -0.020716833, -1410524.1, -2134.3606, 0.04335473, 9.997798, 10.000872 
1.975115e+3, 1.6628736e+2, -1537148.3, -1485819.9, 34257.477, 0.13656467, -0.017108643, -1468679.6, -158288.16, 0.012356995, 9.998771, 9.999456 
1.9751056e+3, 1.762894e+2, -1162443.0, -1258159.3, 46080.754, 0.024817543, 0.21950154, -1143864.4, 68513.65, 0.0015709848, 10.000708, 9.999402 
1.9750963e+3, 1.8628909e+2, -1047784.25, -1272008.3, 48274.707, -0.09683647, 0.30982578, -1037832.56, 76552.83, 0.000019593592, 10.0013075, 9.998363 
1.9750875e+3, 1.9628711e+2, -967877.0, -1157578.1, 63199.69, -0.1748149, 0.24628256, -948750.25, 67657.47, 0.0, 10.001095, 9.998564 
1.9750813e+3, 2.0628533e+2, -887305.44, -1037349.6, 68709.836, -0.056575514, 0.19588138, -860595.75, 57828.406, 0.0, 10.000829, 9.998852 
1.9750763e+3, 2.1628378e+2, -822900.44, -943056.56, 53771.133, 0.16295989, 0.13008994, -802351.5, 18084.328, 0.0, 10.000551, 9.998955 
1.9750682e+3, 2.2628237e+2, -730013.56, -879601.56, 14259.624, 0.09953753, 0.11122733, -728666.4, -6218.211, 0.0, 10.000652, 9.998676 
1.9750582e+3, 2.3628098e+2, -551661.0, -732660.8, 8960.958, -0.12294159, 0.07560758, -551218.44, 73243.414, 0.0, 10.00116, 9.998766 
1.9750515e+3, 2.4628054e+2, -441948.84, -648534.25, 15537.734, -0.029608969, 0.16589321, -440786.75, 85680.34, 0.0, 10.001309, 9.998603 
1.9750467e+3, 2.5628075e+2, -339778.53, -539328.94, 55400.117, 0.2549689, 0.29940358, -325429.84, 103036.414, 0.0, 10.00132, 9.998664 
1.9750382e+3, 2.6627848e+2, -258372.84, -512476.97, 70928.79, 0.1190311, 0.2362084, -239915.05, 90569.945, 0.000000055759365, 10.001472, 9.998107 
1.9750275e+3, 2.762746e+2, -96027.48, -380079.97, 32807.094, -0.26678622, 0.0045831585, -92287.61, 140228.0, 0.0000036492006, 10.001918, 9.998115 
1.97502e+3, 2.8627214e+2, 3189.544, -420221.78, -49047.246, -0.18495983, 0.01475495, 8796.835, 143336.63, 0.00003270161, 10.002494, 9.996909 
1.9750147e+3, 2.962705e+2, 226489.8, -221395.16, -361.93326, 0.19961797, 0.120417945, 226490.1, 263050.44, 0.00013867494, 10.003194, 9.997255 
1.9750062e+3, 3.062669e+2, 163004.13, -230928.98, 13544.834, 0.16382158, 0.03447629, 163469.28, 163469.28, 0.0003432849, 10.002441, 9.997228 
1.9749968e+3, 3.1626433e+2, 107480.67, 32933.21, -78094.12, 0.07464638, 0.012858975, 156740.3, 156740.3, 0.0006047334, 10.000788, 9.999825 
1.9851513e+3, 1.2629572e+2, -1820205.4, -1599467.4, 233938.63, 0.044862855, 0.34865457, -1451169.4, 251147.75, 0.25424254, 9.998486, 10.001916 
1.9851387e+3, 1.362918e+2, -1683637.0, -1572730.6, -236281.34, 0.030401153, -0.21527618, -1385482.5, 218867.48, 0.17932345, 9.999237, 10.000858 
1.9851255e+3, 1.4629713e+2, -1573280.3, -1542756.3, -91607.82, -0.21921344, 0.3019693, -1465147.8, 41147.29, 0.104643695, 9.999604, 10.000032 
1.9851215e+3, 1.5629503e+2, -1334425.6, -1306804.0, -68472.93, 0.100368194, 0.00717351, -1250763.0, 157551.81, 0.046255346, 10.000289, 10.00065 
1.9851148e+3, 1.6629514e+2, -1340772.4, -1332596.8, -60649.8, 0.19447497, -0.013149836, -1275897.1, 34418.594, 0.013380272, 9.999864, 9.999979 
1.985105e+3, 1.7629771e+2, -1380938.9, -1310245.8, -23787.742, -0.014261773, 0.22598091, -1302986.8, -90692.26, 0.0017591557, 9.998966, 9.999887 
1.9850965e+3, 1.862976e+2, -1274903.5, -1348990.6, 27718.2, -0.115664504, 0.297165, -1265681.3, -151383.45, 0.0000256483, 9.999611, 9.998645 
1.9850895e+3, 1.9629534e+2, -923743.25, -1123057.1, 42194.26, -0.1018248, 0.17748816, -915178.8, 101142.266, 0.0, 10.001329, 9.998688 
1.9850835e+3, 2.0629333e+2, -808895.2, -1087285.6, 20531.781, 0.034547582, 0.14435191, -807389.06, 110952.01, 0.0, 10.001747, 9.998065 
1.9850777e+3, 2.1629167e+2, -742345.2, -986322.2, -30293.58, 0.21415745, 0.14581218, -738640.0, 81717.14, 0.0, 10.001463, 9.998217 
1.9850692e+3, 2.2628967e+2, -692095.1, -889853.5, -49235.89, 0.12712444, 0.113062106, -680515.0, 41860.832, 0.0, 10.00103, 9.998425 
1.9850591e+3, 2.3628736e+2, -658732.0, -801835.94, -59112.0, -0.11619677, 0.011278814, -637472.8, -13075.82, 0.0, 10.000504, 9.998601 
1.9850527e+3, 2.4628717e+2, -477579.13, -621890.4, -37008.65, -0.024833951, 0.11262162, -468641.75, 57757.73, 0.0, 10.000903, 9.998967 
1.985048e+3, 2.562882e+2, -223539.4, -449459.84, -48705.96, 0.25037098, 0.2919481, -213486.28, 214904.88, 0.0, 10.001979, 9.9989605 
1.98504e+3, 2.662861e+2, -180713.02, -472638.4, -12175.813, 0.14363444, 0.23371147, -180206.05, 150202.77, 0.00000004684117, 10.001989, 9.998133 
1.9850297e+3, 2.7628216e+2, -175627.17, -415568.03, -2672.4602, -0.19944794, -0.002923467, -175597.4, 56843.8, 0.000003631824, 10.001334, 9.998162 
1.9850227e+3, 2.862802e+2, -71697.984, -388816.06, -5450.8843, -0.111124806, 0.02398931, -71604.32, 62855.613, 0.000030883682, 10.001695, 9.997509 
1.985018e+3, 2.9627916e+2, 198831.73, -175689.4, 11567.583, 0.23774087, 0.13256198, 199188.67, 235661.53, 0.00012816787, 10.002759, 9.997775 
1.9850081e+3, 3.0627558e+2, 296141.25, -115100.37, 10671.02, 0.07845108, -0.00007344103, 296417.97, 296417.97, 0.00031301912, 10.003115, 9.997696 
1.9849996e+3, 3.1627303e+2, 425191.6, 174479.52, -30952.412, 0.18639345, -0.06321153, 428956.4, 428956.4, 0.0005440033, 10.002991, 9.999742 
1.9951499e+3, 1.2630384e+2, -2015813.8, -2001143.9, 246529.61, -0.0035282357, 0.25673553, -1761840.1, -59615.86, 0.26535824, 9.998508, 9.998725 
1.9951376e+3, 1.3629694e+2, -1829838.8, -1900198.9, -249564.13, -0.019454766, -0.29895258, -1612987.3, -8686.885, 0.18805622, 9.999294, 9.998382 
1.9951272e+3, 1.4630206e+2, -1534206.4, -1485719.0, -72346.25, -0.038711432, 0.2733592, -1433662.4, 72591.06, 0.11045076, 9.999698, 10.000403 
1.9951217e+3, 1.5630186e+2, -1314017.8, -1263176.6, -45003.574, 0.08138623, 0.14924794, -1236910.4, 171344.95, 0.04926506, 10.000284, 10.000971 
1.9951135e+3, 1.6630201e+2, -1265418.8, -1183196.1, -102889.9, 0.046854988, 0.06271911, -1113508.1, 196743.17, 0.014456319, 9.999887, 10.001008 
1.9951025e+3, 1.7630357e+2, -1308483.4, -1167013.6, -43098.11, -0.18086103, 0.09455229, -1154918.1, 57314.1, 0.0019582892, 9.998991, 10.00086 
1.995096e+3, 1.863036e+2, -1234801.5, -1271512.5, 86330.05, -0.14602046, 0.108614795, -1164897.1, -50666.355, 0.000032105352, 9.99964, 9.999162 
1.995093e+3, 1.9630216e+2, -910024.3, -1078610.9, 101889.91, 0.093778305, 0.022317005, -862079.5, 154166.39, 0.0, 10.001271, 9.999018 
1.9950862e+3, 2.063009e+2, -898627.44, -1253681.8, 318.6995, 0.11542503, 0.11004589, -898627.1, 19635.563, 0.0, 10.001658, 9.996968 
1.9950771e+3, 2.1629992e+2, -824556.56, -1135052.6, -34481.848, -0.0032080144, 0.28814048, -820773.3, -494.4564, 0.0, 10.001368, 9.997242 
1.9950688e+3, 2.2629756e+2, -720059.25, -919164.3, -71726.46, -0.025819298, 0.26805398, -696911.4, 25390.252, 0.0, 10.000902, 9.998285 
1.9950612e+3, 2.3629425e+2, -684845.75, -830455.2, -60123.67, 0.023071527, 0.079974554, -663229.1, -38899.855, 0.0, 10.000388, 9.99846 
1.9950539e+3, 2.4629292e+2, -512919.5, -656297.25, -3850.688, 0.0022848626, 0.080545194, -512816.16, 13525.8125, 0.0, 10.000731, 9.998816 
1.9950472e+3, 2.5629288e+2, -241731.44, -457446.97, -9233.523, -0.047139376, 0.16112453, -241336.92, 187007.81, 0.0, 10.001853, 9.998964 
1.9950405e+3, 2.6629168e+2, -147746.38, -366158.88, -45065.89, -0.02908986, 0.14811088, -138813.14, 191539.63, 0.000000042002604, 10.001829, 9.998941 
1.9950335e+3, 2.7628985e+2, -143793.86, -311901.6, -9534.972, 0.024725974, 0.038981702, -143254.77, 89108.99, 0.0000035134383, 10.001184, 9.998941 
1.995026e+3, 2.8628853e+2, -65766.06, -333965.03, 23537.395, 0.028185029, 0.07153025, -63716.066, 70659.086, 0.00002820436, 10.001513, 9.997973 
1.9950189e+3, 2.962874e+2, 207328.48, -120993.51, 60932.645, 0.026346998, 0.111999534, 218272.08, 254660.56, 0.00011358975, 10.002597, 9.998228 
1.9950087e+3, 3.0628532e+2, 307066.97, -13304.341, -12420.136, -0.18468967, 0.06571158, 307547.75, 307547.75, 0.00027751442, 10.002791, 9.998542 
1.995003e+3, 3.1628484e+2, 282267.1, -31645.0, 124545.164, 0.1905804, 0.1130005, 325677.47, 325677.47, 0.0004885508, 10.002637, 9.998475 
2.0051478e+3, 1.2630895e+2, -2195355.8, -2018703.4, -34641.203, 0.02998679, 0.16834836, -2012153.1, -309981.25, 0.27641812, 9.996956, 9.999353 
2.0051368e+3, 1.363041e+2, -1700333.6, -1733653.8, -124676.57, -0.048444785, -0.27847236, -1591208.9, 13019.136, 0.1968332, 9.999726, 9.999321 
2.005128e+3, 1.4630987e+2, -1458664.1, -1459996.3, 63538.926, 0.03313302, 0.31123608, -1395787.8, 110388.055, 0.11636926, 10.000302, 10.000288 
2.0051214e+3, 1.5630934e+2, -1564404.6, -1420056.8, 48426.324, 0.1004297, 0.18692204, -1405315.9, 2866.7026, 0.05238356, 9.998702, 10.00061 
2.0051126e+3, 1.6630863e+2, -1424824.3, -1283855.4, -36251.445, 0.027227025, 0.045614228, -1275079.4, 35106.953, 0.015589432, 9.998899, 10.000785 
2.005102e+3, 1.7630921e+2, -1090933.1, -1083325.1, -78502.8, -0.19099939, -0.000062411775, -1008534.25, 203640.25, 0.0021699998, 10.000581, 10.000669 
2.0050964e+3, 1.8630926e+2, -1103897.8, -1213510.4, -995.45776, -0.121676534, 0.026835833, -1103888.8, 10284.24, 0.00003871999, 10.000568, 9.99911 
2.0050937e+3, 1.9630842e+2, -1145595.0, -1195439.8, -37849.418, 0.12964445, 0.007828428, -1125199.5, -109016.08, 0.0, 9.999677, 9.9989805 
2.005087e+3, 2.0630743e+2, -1067150.6, -1297111.0, -68235.3, 0.10146438, 0.10289788, -1048427.75, -130230.19, 0.0, 10.000338, 9.997307 
2.0050777e+3, 2.1630651e+2, -710083.7, -1045365.6, -17448.932, -0.108768955, 0.2518339, -709178.0, 111033.875, 0.0, 10.002, 9.997556 
2.0050701e+3, 2.263043e+2, -537936.0, -825780.56, -42598.05, -0.044507895, 0.23137805, -531764.25, 190467.95, 0.0, 10.002141, 9.998327 
2.0050634e+3, 2.3630114e+2, -538230.7, -761880.8, -30402.662, 0.17803757, 0.05832894, -534171.5, 90086.15, 0.0, 10.001422, 9.99843 
2.005056e+3, 2.4629931e+2, -477433.66, -703124.2, 68104.43, 0.11853606, 0.042649243, -458475.03, 67800.32, 0.0, 10.00122, 9.998275 
2.0050481e+3, 2.5629836e+2, -354077.66, -563893.2, 15858.552, -0.11671353, 0.088948905, -352885.78, 75402.04, 0.0, 10.001284, 9.998517 
2.0050417e+3, 2.6629734e+2, -159791.77, -338237.75, -62767.094, -0.077847034, 0.09331999, -139925.58, 190369.28, 0.000000029896977, 10.00161, 9.9992285 
2.005036e+3, 2.7629608e+2, 24843.006, -199485.92, -84627.914, 0.11780484, 0.016408034, 53187.44, 285487.6, 0.0000031274246, 10.002211, 9.999214 
2.0050287e+3, 2.86295e+2, 53532.652, -227368.11, -41377.543, 0.1158604, 0.031376634, 59500.887, 193809.86, 0.000025154262, 10.002114, 9.99842 
2.0050202e+3, 2.96294e+2, 60775.348, -155750.06, -42935.06, -0.020819042, 0.053344093, 68978.23, 105297.69, 0.00009776422, 10.001434, 9.998549 
2.0050119e+3, 3.0629265e+2, 217777.97, -44492.13, -107468.29, -0.118170194, 0.06355979, 256188.89, 256188.89, 0.00024033496, 10.002104, 9.998678 
2.0050068e+3, 3.1629136e+2, 398802.9, -89548.97, 18814.066, 0.25882548, 0.02669945, 399526.66, 399526.66, 0.00043298, 10.003887, 9.997503 
2.0151442e+3, 1.2631084e+2, -1906237.4, -1502810.5, -202064.14, -0.059599575, 0.038769267, -1419010.0, 283151.66, 0.28771394, 9.997029, 10.003543 
2.0151359e+3, 1.3631317e+2, -1450417.5, -1219742.5, -13299.982, -0.13068718, -0.15568566, -1218978.1, 385155.94, 0.20582092, 9.999668, 10.003552 
2.0151274e+3, 1.4632028e+2, -1494997.6, -1540921.6, 5811.987, -0.083212994, 0.4078706, -1494273.5, 11791.633, 0.12247417, 10.000298, 9.999689 
2.0151201e+3, 1.5631738e+2, -1625781.4, -1552471.1, 4276.847, 0.085822485, 0.126702, -1552222.5, -144124.86, 0.055639356, 9.998725, 9.999687 
2.0151119e+3, 1.6631511e+2, -1516191.0, -1488954.6, 18726.574, 0.042437352, -0.05186834, -1479418.1, -169298.44, 0.016791714, 9.998968, 9.999342 
2.0151037e+3, 1.7631456e+2, -1186374.4, -1276691.6, -20242.98, -0.107385114, -0.062500715, -1182044.8, 30077.328, 0.0023981123, 10.000563, 9.999348 
2.0150971e+3, 1.8631451e+2, -1144052.9, -1303159.3, -44459.465, -0.12478712, 0.043471914, -1132472.4, -18347.533, 0.000045425786, 10.000588, 9.998488 
2.0150916e+3, 1.9631416e+2, -1172644.5, -1247788.4, -53271.785, -0.0635824, 0.13688889, -1145028.0, -128894.516, 0.0, 9.999658, 9.998632 
2.0150855e+3, 2.0631298e+2, -955833.3, -1047611.75, -10652.885, -0.09573721, 0.13237244, -954613.06, -36468.426, 0.0, 10.000262, 9.999054 
2.0150794e+3, 2.1631147e+2, -628296.25, -838017.7, 40637.55, -0.16785328, 0.051763546, -620697.3, 199458.63, 0.0, 10.001848, 9.99905 
2.0150727e+3, 2.2630973e+2, -553453.56, -821057.0, -77834.79, -0.016001465, 0.00937767, -532461.4, 189707.73, 0.0, 10.001971, 9.9984455 
2.015066e+3, 2.3630781e+2, -547738.56, -768858.8, -46648.58, 0.28011075, -0.053245675, -538300.25, 85883.79, 0.0, 10.00135, 9.998424 
2.0150584e+3, 2.4630614e+2, -564636.94, -846070.0, 66397.266, 0.22726998, -0.0041247346, -549758.6, -23556.875, 0.0, 10.001066, 9.997362 
2.0150504e+3, 2.563046e+2, -435409.72, -695831.2, 28495.666, -0.032899283, 0.07722147, -432328.16, -4107.026, 0.0, 10.001142, 9.997673 
2.0150433e+3, 2.663028e+2, -205090.84, -396755.78, -47450.902, -0.09390532, 0.060697112, -193986.66, 136250.48, 0.0000000091701935, 10.001454, 9.998904 
2.0150371e+3, 2.7630082e+2, -9904.972, -238340.4, -54548.277, -0.0019615963, -0.06387359, 2452.1965, 234703.42, 0.0000023642951, 10.002069, 9.999015 
2.0150301e+3, 2.8629962e+2, 39818.08, -208075.28, -78656.31, 0.03065039, -0.06480692, 62669.2, 196929.72, 0.000021595964, 10.001916, 9.998642 
2.0150222e+3, 2.9629877e+2, 47240.65, -158493.56, -49558.72, 0.0026254996, -0.054340065, 58556.324, 94824.766, 0.000083873885, 10.001311, 9.998593 
2.0150165e+3, 3.0629718e+2, 127102.79, -166023.64, -57686.605, 0.11776049, -0.029299216, 138046.78, 138046.78, 0.00020822513, 10.001842, 9.997955 
2.0150095e+3, 3.1629497e+2, 291666.75, -183891.1, 156803.86, 0.10039901, -0.0991695, 338714.56, 338714.56, 0.00038286584, 10.003389, 9.99707 
2.0251413e+3, 1.2631698e+2, -1779646.0, -1485860.3, -22781.152, -0.11067848, -0.020480314, -1484104.3, 217995.23, 0.29983783, 9.997973, 10.003166 
2.0251364e+3, 1.363211e+2, -1797781.6, -1314944.5, -20456.08, 0.11133078, -0.08859869, -1314079.4, 289974.44, 0.21537028, 9.996737, 10.00416 
2.0251256e+3, 1.4632659e+2, -1825056.5, -1693582.3, -95950.71, -0.16198729, 0.2749774, -1643009.9, -137009.48, 0.12892798, 9.997991, 9.999754 
2.0251185e+3, 1.563243e+2, -1374658.1, -1452508.9, -68425.875, -0.042283244, 0.065468855, -1334860.6, 73166.08, 0.05909158, 10.000562, 9.999496 
2.0251116e+3, 1.6632235e+2, -1239642.0, -1406862.8, 18948.367, 0.006394584, -0.041520488, -1237521.8, 72524.734, 0.018083457, 10.0011015, 9.998874 
2.025105e+3, 1.7632172e+2, -1222156.3, -1346244.9, 38200.004, -0.012352585, -0.015808346, -1211339.5, 712.2338, 0.0026487417, 10.000558, 9.998866 
2.0250987e+3, 1.8632127e+2, -1160736.5, -1356451.1, 40148.914, -0.02677714, 0.097964264, -1152820.5, -38761.207, 0.000052423693, 10.000664, 9.998085 
2.0250922e+3, 1.9632055e+2, -950963.2, -1175185.8, 36625.53, -0.047864676, 0.18800446, -945132.25, 70940.24, 0.0, 10.00131, 9.998338 
2.0250863e+3, 2.0631897e+2, -857523.7, -948565.94, 51481.035, -0.07030477, 0.12905256, -834324.6, 83761.21, 0.0, 10.00072, 9.999509 
2.0250806e+3, 2.1631692e+2, -940454.1, -949626.2, -2067.4802, -0.10588246, -0.047722854, -940009.6, -119910.63, 0.0, 9.999532, 9.999397 
2.025074e+3, 2.2631557e+2, -796805.0, -954481.9, -132506.02, 0.008090795, -0.059490424, -721457.4, 651.44586, 0.0, 10.00038, 9.998288 
2.0250672e+3, 2.3631465e+2, -390168.28, -703617.8, -140845.27, 0.20657727, -0.0066675753, -336179.88, 287936.53, 0.0, 10.002492, 9.998313 
2.02506e+3, 2.4631287e+2, -338180.84, -728687.6, -23448.506, 0.2067811, 0.032648943, -336777.9, 189356.47, 0.0, 10.002594, 9.997426 
2.0250526e+3, 2.5631043e+2, -379293.4, -668538.0, 1293.3428, 0.06868103, 0.016838381, -379287.63, 48872.43, 0.0, 10.001525, 9.997673 
2.0250453e+3, 2.6630837e+2, -340240.7, -488153.1, -14751.209, 0.011766434, -0.010282027, -338783.9, -8605.75, 0.000000001074916, 10.000624, 9.998683 
2.0250382e+3, 2.7630666e+2, -362041.6, -435855.16, -34979.223, 0.014153379, -0.08113308, -348099.03, -115908.06, 0.0000018159459, 9.9997635, 9.998772 
2.0250313e+3, 2.8630504e+2, -213873.17, -374644.38, -50166.152, 0.03715906, -0.09314654, -199503.89, -65298.047, 0.000018189116, 10.000349, 9.998257 
2.0250238e+3, 2.9630333e+2, 105951.695, -151579.39, -90744.6, 0.02093111, -0.13002554, 134714.39, 170937.48, 0.000072171526, 10.001824, 9.998383 
2.0250206e+3, 3.063026e+2, 173138.67, -173380.69, -52276.19, 0.33410326, -0.004990041, 180853.34, 180853.34, 0.00017992141, 10.002225, 9.997747 
2.0250107e+3, 3.1630087e+2, 84332.15, -177757.72, 82367.28, -0.0069894516, 0.0017475471, 108068.17, 108068.17, 0.00033497292, 10.001472, 9.998043 
2.0351379e+3, 1.2632698e+2, -2114496.3, -2115848.3, -9625.484, -0.30785558, -0.057683617, -2105523.0, -403533.13, 0.3135409, 9.998075, 9.998164 
2.035138e+3, 1.363279e+2, -1989266.8, -1651317.3, -32332.775, 0.58453757, -0.07568904, -1648251.6, -44265.414, 0.22593072, 9.996806, 10.001275 
2.0351224e+3, 1.4632878e+2, -1762868.3, -1592514.1, -6117.05, -0.3193351, -0.0878474, -1592294.8, -86314.02, 0.13594478, 9.998107, 10.000393 
2.0351163e+3, 1.5633002e+2, -1341011.6, -1378266.8, 13466.068, -0.34355652, 0.0017405435, -1336654.0, 71316.19, 0.06282382, 10.000551, 10.000014 
2.0351113e+3, 1.6633035e+2, -1203875.5, -1337652.3, -12740.435, -0.16501245, 0.07395852, -1202673.0, 107294.09, 0.019494196, 10.001124, 9.999338 
2.0351063e+3, 1.7633057e+2, -1192377.9, -1288827.1, 28922.111, 0.022095438, 0.1344236, -1184369.9, 27594.47, 0.0029308582, 10.000567, 9.999258 
2.0351008e+3, 1.863295e+2, -1172501.9, -1386295.6, 61955.54, 0.07867305, 0.17861192, -1155845.4, -41867.863, 0.00006041413, 10.00069, 9.997869 
2.0350952e+3, 1.9632746e+2, -978700.0, -1218754.9, 59171.563, 0.10544319, 0.16436441, -964907.2, 51094.44, 0.0, 10.001255, 9.998066 
2.0350887e+3, 2.0632517e+2, -919114.6, -1065775.0, -2415.279, 0.07133419, 0.089974605, -919074.8, -1052.0074, 0.0, 10.000673, 9.998726 
2.0350812e+3, 2.163228e+2, -1002170.75, -1059657.0, -24112.158, 0.0013379118, -0.0451969, -993396.4, -173354.73, 0.0, 9.999451, 9.998683 
2.035074e+3, 2.2632179e+2, -849857.25, -1024441.06, -55575.332, -0.06364724, 0.030864595, -833667.3, -111616.22, 0.0, 10.000215, 9.997884 
2.0350668e+3, 2.3632155e+2, -431622.38, -754543.2, -64434.46, -0.10227338, 0.19283217, -419240.16, 204815.39, 0.0, 10.002348, 9.998031 
2.0350605e+3, 2.4631925e+2, -293702.63, -596625.56, -69101.484, -0.028977847, 0.13837741, -278684.1, 247391.7, 0.0, 10.002421, 9.998418 
2.0350549e+3, 2.563157e+2, -331993.56, -550824.25, -29911.053, 0.11742698, -0.08897952, -327978.78, 100126.945, 0.0, 10.001432, 9.998531 
2.0350473e+3, 2.6631403e+2, -380499.84, -529823.1, -53273.31, 0.12707265, -0.10635787, -363442.3, -33323.61, 0.000000023664393, 10.000458, 9.998471 
2.0350388e+3, 2.7631342e+2, -404984.6, -495866.3, -46013.33, 0.078784704, -0.048832364, -385756.3, -153634.13, 0.0000019634658, 9.9996395, 9.99842 
2.0350318e+3, 2.8631094e+2, -314470.63, -534924.7, -5574.6294, 0.03811364, -0.07054126, -314329.75, -180181.7, 0.000016146072, 10.000149, 9.99725 
2.0350252e+3, 2.9630762e+2, 42410.16, -252600.05, -27097.71, -0.039930794, -0.17608327, 44878.523, 81063.234, 0.00006227005, 10.001677, 9.9977665 
2.0350233e+3, 3.0630878e+2, 116017.92, -187015.8, -82751.42, 0.35379553, 0.14890583, 137142.77, 137142.77, 0.0001542965, 10.00181, 9.997832 
2.0350115e+3, 3.163063e+2, 193111.17, 144759.44, -7393.1167, -0.11511753, 0.066169836, 194216.34, 194216.34, 0.0002896245, 10.001088, 10.000428 
2.0451353e+3, 1.2633407e+2, -2021706.6, -2134443.0, -58506.203, -0.39960626, -0.092427745, -1996832.3, -294911.25, 0.3294151, 9.998985, 9.9976015 
2.0451365e+3, 1.363349e+2, -1685878.3, -1670313.9, -102445.38, 0.620048, 0.028535096, -1575355.5, 28564.996, 0.23787552, 9.999609, 9.999837 
2.0451201e+3, 1.4633368e+2, -1646558.9, -1539055.6, -3343.3115, -0.38899878, -0.11907489, -1538951.8, -33016.504, 0.14372098, 9.998915, 10.000372 
2.045117e+3, 1.5633532e+2, -1576430.6, -1475587.1, -29812.555, -0.22055721, 0.0019965442, -1467432.9, -59513.902, 0.06692591, 9.998833, 10.000163 
2.0451128e+3, 1.6633633e+2, -1421754.5, -1384952.0, -85908.914, -0.020243311, 0.104446255, -1315495.8, -5586.981, 0.021061258, 9.999369, 9.999854 
2.0451064e+3, 1.7633693e+2, -1217579.5, -1247230.8, -62571.734, 0.01750865, 0.15119362, -1168101.0, 43801.496, 0.003256253, 10.000169, 9.99973 
2.0451008e+3, 1.8633573e+2, -1202020.3, -1374108.1, 8005.5093, 0.05117317, 0.1481865, -1201648.6, -87733.28, 0.00007088071, 10.000379, 9.998103 
2.0450963e+3, 1.963334e+2, -1097929.5, -1259274.3, 23276.688, 0.13526598, 0.079179905, -1094638.6, -78698.51, 0.0, 10.000372, 9.998211 
2.04509e+3, 2.0633134e+2, -918867.5, -1119261.8, -11943.434, 0.1461248, 0.052247144, -918158.2, -198.45683, 0.0, 10.000898, 9.998259 
2.0450829e+3, 2.1632959e+2, -676003.6, -938394.2, -21550.205, 0.09138596, 0.023925088, -674245.44, 145730.05, 0.0, 10.001859, 9.998351 
2.0450751e+3, 2.2632827e+2, -619321.9, -909817.1, 16963.686, -0.033457678, 0.07942431, -618334.6, 103653.81, 0.0, 10.001764, 9.99793 
2.0450674e+3, 2.3632699e+2, -616130.8, -836377.6, 24125.03, -0.20038614, 0.13293909, -613519.25, 10482.521, 0.0, 10.001038, 9.998098 
2.0450616e+3, 2.4632482e+2, -512123.7, -681580.8, -23540.799, -0.08045736, 0.07804206, -508914.22, 17106.379, 0.0, 10.000833, 9.9986 
2.0450568e+3, 2.563222e+2, -395170.0, -564470.5, -55989.56, 0.19691609, -0.07272005, -378328.9, 49713.18, 0.0, 10.000938, 9.998668 
2.0450492e+3, 2.663207e+2, -219261.92, -491915.75, -73619.555, 0.21902171, -0.058453657, -200653.8, 129400.57, 0.00000011200642, 10.001731, 9.99812 
2.0450403e+3, 2.763198e+2, 52657.37, -308141.47, -97696.91, 0.108730845, 0.0034296256, 77413.11, 309475.5, 0.000002326167, 10.0029335, 9.998117 
2.0450333e+3, 2.8631714e+2, -8784.472, -387092.84, -8003.862, 0.0774874, -0.023288114, -8615.21, 125474.0, 0.000014696717, 10.002233, 9.997265 
2.045027e+3, 2.963137e+2, -167195.1, -350576.88, 14883.051, 0.035588942, -0.13357833, -165995.05, -129870.0, 0.00005375532, 10.000228, 9.997791 
2.0450248e+3, 3.0631426e+2, -58175.8, -274918.2, 27608.678, 0.39775565, 0.1298423, -54714.285, -54714.285, 0.00013235425, 10.000624, 9.997796 
2.045014e+3, 3.1631178e+2, 419907.56, 230957.55, -85133.0, -0.048120867, 0.063199356, 452606.28, 452606.28, 0.0002522823, 10.002713, 10.000243 
2.0551345e+3, 1.2633973e+2, -1759397.1, -1611066.5, 143665.17, -0.43845877, -0.0007455063, -1523552.5, 178325.33, 0.3476065, 9.999028, 10.001638 
2.0551318e+3, 1.363421e+2, -1690343.8, -1685593.6, -109668.64, 0.14502501, 0.22370295, -1578274.4, 25581.428, 0.2513395, 9.999636, 9.999716 
2.0551184e+3, 1.4634112e+2, -1688834.9, -1628536.1, -25599.9, -0.47979322, 0.16467108, -1619133.8, -113268.68, 0.15236652, 9.998921, 9.999755 
2.0551206e+3, 1.5634027e+2, -1579927.4, -1485849.0, -14705.514, 0.2182852, 0.062212635, -1483603.9, -75731.44, 0.071473114, 9.998845, 10.000086 
2.0551161e+3, 1.6634043e+2, -1383046.0, -1319894.0, -58680.574, 0.33674392, 0.052219708, -1284833.3, 25037.11, 0.022826005, 9.999425, 10.000284 
2.0551057e+3, 1.7634083e+2, -1189536.5, -1188618.5, -31720.502, -0.0862442, 0.045505006, -1157353.6, 54512.043, 0.0036400491, 10.000161, 10.000142 
2.0550992e+3, 1.8633987e+2, -1147388.4, -1268968.4, 423.17618, -0.19424157, 0.010995513, -1147386.9, -33512.99, 0.00008593674, 10.000407, 9.998813 
2.0550953e+3, 1.9633816e+2, -1055627.9, -1174345.9, 33579.13, -0.030142277, -0.067069545, -1046788.25, -30899.135, 0.0, 10.000378, 9.998795 
2.0550904e+3, 2.0633736e+2, -935769.3, -1147994.6, 18627.156, 0.06595218, 0.012811792, -934146.75, -16248.983, 0.0, 10.000873, 9.998072 
2.055085e+3, 2.1633707e+2, -699439.4, -962460.8, 13970.757, 0.09971654, 0.14916992, -698699.4, 121203.44, 0.0, 10.001748, 9.9982395 
2.0550774e+3, 2.2633466e+2, -608973.7, -844932.0, -16697.744, -0.0025666656, 0.06983141, -607797.9, 114126.33, 0.0, 10.001587, 9.998457 
2.0550689e+3, 2.3633091e+2, -607702.7, -787592.9, 7802.1787, -0.16633792, -0.17573003, -607364.9, 16591.164, 0.0, 10.000907, 9.998496 
2.055063e+3, 2.4632959e+2, -584201.4, -782999.5, -26570.316, -0.04839213, -0.13129678, -580711.4, -54742.063, 0.0, 10.000636, 9.9979925 
2.055058e+3, 2.5632975e+2, -458846.63, -664765.6, -37922.21, 0.23549698, 0.056307316, -452084.88, -24113.648, 0.0, 10.000811, 9.998038 
2.055051e+3, 2.6632822e+2, -279354.75, -576753.6, -34475.895, 0.20506458, 0.122237794, -275410.44, 54577.23, 0.00000017468948, 10.00156, 9.997619 
2.0550425e+3, 2.7632558e+2, 15008.319, -363746.16, -54079.813, 0.01840247, 0.06554496, 22578.7, 254592.23, 0.0000023499456, 10.002827, 9.99779 
2.0550354e+3, 2.8632337e+2, 8503.334, -287025.13, -93156.65, 0.030113176, 0.04835913, 35417.176, 169449.33, 0.000012296112, 10.001976, 9.998068 
2.0550284e+3, 2.963213e+2, -148386.55, -281321.5, -30571.236, 0.13341174, -0.017947426, -141693.06, -105645.65, 0.000044415407, 10.000101, 9.998324 
2.055025e+3, 3.0631807e+2, -140663.47, -359567.38, 82714.695, 0.32659328, -0.12557264, -112924.125, -112924.125, 0.00011223961, 10.000279, 9.99737 
2.0550178e+3, 3.1631675e+2, 128543.59, -262901.56, -51743.03, 0.02145188, -0.03662968, 135267.72, 135267.72, 0.00022222151, 10.002238, 9.99708 
2.0651348e+3, 1.263453e+2, -1917556.9, -1471262.3, 193931.94, -0.19603825, 0.14711586, -1398767.4, 303062.9, 0.36771804, 9.996615, 10.00433 
2.0651294e+3, 1.363468e+2, -1809424.8, -1721042.0, -150022.6, -0.00027867852, 0.23879041, -1608837.5, -5025.566, 0.26616043, 9.998696, 9.999892 
2.0651177e+3, 1.4634618e+2, -1575533.4, -1536072.5, -16243.4795, -0.46240228, 0.19364633, -1530246.3, -24431.434, 0.1618756, 9.999533, 10.0000925 
2.0651203e+3, 1.5634485e+2, -1471339.1, -1389591.9, 32700.414, 0.2924992, -0.002642527, -1378120.8, 29703.977, 0.07651462, 9.999399, 10.000491 
2.065116e+3, 1.6634525e+2, -1412813.1, -1329784.8, 18189.41, 0.39078054, -0.008715325, -1325974.8, -16154.3955, 0.024829434, 9.999196, 10.000322 
2.0651054e+3, 1.7634627e+2, -1327280.3, -1243825.8, 11078.585, -0.07733612, 0.03872423, -1242380.1, -30568.191, 0.0041003036, 9.999164, 10.000242 
2.0650993e+3, 1.8634564e+2, -1135207.1, -1205031.4, 61498.242, -0.19718269, 0.003774952, -1099402.3, 14414.101, 0.000108260756, 10.000253, 9.999319 
2.0650962e+3, 1.9634418e+2, -765797.8, -982151.5, 59548.043, -0.053740796, -0.09993899, -750491.06, 265336.25, 0.0, 10.002156, 9.999249 
2.0650917e+3, 2.0634358e+2, -771483.4, -1096094.8, 12508.14, 0.05659708, -0.005838904, -771002.1, 146832.72, 0.0, 10.002125, 9.997822 
2.0650864e+3, 2.1634339e+2, -821398.9, -1044102.56, -11442.409, 0.11401208, 0.16734135, -820812.5, -971.07776, 0.0, 10.001014, 9.998033 
2.0650794e+3, 2.2634102e+2, -719897.94, -871808.0, -46282.152, 0.07902601, 0.08844568, -706908.0, 14954.961, 0.0, 10.00071, 9.9987 
2.0650715e+3, 2.3633733e+2, -594510.1, -755425.56, -54984.063, 0.0014868055, -0.17278865, -577516.9, 46376.44, 0.0, 10.000895, 9.998724 
2.0650648e+3, 2.4633625e+2, -484062.47, -732935.75, -35932.48, 0.03933506, -0.11602925, -478978.38, 46925.793, 0.0, 10.001304, 9.99802 
2.0650584e+3, 2.563366e+2, -308479.9, -591092.2, -16051.572, 0.12450283, 0.089037515, -307571.13, 120333.28, 0.0, 10.001831, 9.998054 
2.065052e+3, 2.6633486e+2, -248486.13, -579174.94, 43141.523, 0.13415001, 0.1398919, -242950.56, 86972.64, 0.00000012472299, 10.001843, 9.997467 
2.0650457e+3, 2.7633178e+2, -177519.73, -470217.22, 27219.691, 0.109970056, 0.05641934, -175009.94, 56943.51, 0.0000018192295, 10.001569, 9.997662 
2.0650384e+3, 2.8632957e+2, 57869.27, -277454.3, -49494.098, 0.13139892, 0.048940238, 65022.07, 198994.61, 0.000008845643, 10.002369, 9.997949 
2.06503e+3, 2.9632753e+2, 355067.75, -61226.15, -91615.984, 0.13165869, 0.0062182937, 374338.13, 410325.8, 0.000033872344, 10.003672, 9.998113 
2.0650256e+3, 3.063244e+2, 336054.56, -113502.45, 72383.89, 0.21233149, -0.08946018, 347421.78, 347421.78, 0.00009224371, 10.003433, 9.997574 
2.0650215e+3, 3.163225e+2, 130681.63, -290163.72, -51283.06, 0.15827812, -0.07532918, 136840.7, 136840.7, 0.00019318692, 10.002335, 9.996875 
2.0751342e+3, 1.2635006e+2, -1807425.3, -1360384.9, 89880.85, 0.05860451, 0.28075185, -1342990.4, 358795.06, 0.38886976, 9.996697, 10.00551 
2.0751287e+3, 1.3634895e+2, -1757630.4, -1626186.9, -70335.36, 0.04118168, 0.06787038, -1595646.4, 8143.743, 0.28190908, 9.998743, 10.000539 
2.075118e+3, 1.4634904e+2, -1486446.9, -1386103.3, -25153.361, -0.42861283, -0.009575045, -1380151.1, 125631.49, 0.17213808, 9.999601, 10.001267 
2.0751165e+3, 1.56349e+2, -1407368.3, -1275812.3, 30057.014, -0.05858044, -0.18026055, -1269270.3, 138506.16, 0.08207624, 9.999436, 10.001321 
2.075112e+3, 1.6635066e+2, -1422875.4, -1359880.5, 3280.6533, 0.054881837, -0.08007012, -1359710.1, -49949.125, 0.027111659, 9.999232, 10.0001 
2.0751052e+3, 1.763531e+2, -1332934.0, -1257344.5, 22949.03, -0.031506684, 0.12910356, -1250922.8, -39180.293, 0.0046569863, 9.999173, 10.000144 
2.0751013e+3, 1.8635295e+2, -1107250.9, -1159226.9, 128263.7, -0.047135297, 0.12670821, -1002368.9, 111374.73, 0.00014131474, 10.000303, 9.99961 
2.075099e+3, 1.9635129e+2, -762043.06, -961911.0, 121251.984, -0.0015380768, -0.023983447, -704850.2, 310906.2, 0.0000000002137382, 10.0021, 9.999417 
2.075094e+3, 2.0634982e+2, -804731.5, -1147905.0, -38244.434, 0.031312, -0.0054336567, -800521.06, 117251.97, 0.0, 10.002047, 9.997502 
2.075087e+3, 2.1634842e+2, -857411.5, -1094031.4, -39716.453, 0.06022531, 0.076533295, -850923.06, -31130.297, 0.0, 10.000903, 9.997743 
2.0750809e+3, 2.2634721e+2, -749767.4, -891964.94, -42073.773, 0.13115993, 0.12963463, -738251.1, -16445.33, 0.0, 10.000543, 9.998634 
2.0750748e+3, 2.363461e+2, -613812.2, -764529.94, -36273.074, 0.2333342, 0.12963612, -605536.75, 18278.309, 0.0, 10.000769, 9.998718 
2.0750667e+3, 2.4634454e+2, -463917.94, -651494.2, -21109.414, 0.08422499, 0.10453393, -461571.66, 64256.273, 0.0, 10.00114, 9.998654 
2.0750569e+3, 2.5634268e+2, -284265.8, -512526.84, 7258.3687, -0.20967612, 0.024313523, -284035.22, 143808.05, 0.0, 10.001715, 9.998646 
2.0750518e+3, 2.6634055e+2, -267880.53, -573413.06, 22414.541, -0.08841519, 0.0025601287, -266244.9, 63617.527, 0.000000021824269, 10.001652, 9.997597 
2.0750493e+3, 2.7633813e+2, -197925.11, -480752.2, 34858.19, 0.2999069, -0.030642498, -193692.22, 38192.703, 0.00000084431264, 10.001439, 9.99765 
2.0750423e+3, 2.8633526e+2, -53747.54, -454668.1, -12062.075, 0.25444326, -0.0417832, -53384.97, 80530.06, 0.000005133315, 10.002142, 9.996837 
2.075032e+3, 2.9633215e+2, 263244.9, -227341.6, -42812.88, -0.0739023, -0.07695159, 266953.1, 302902.0, 0.000023723636, 10.00355, 9.997034 
2.0750263e+3, 3.0633304e+2, 307990.7, -49022.145, 11183.112, -0.08819212, 0.24616234, 308340.66, 308340.66, 0.00007269625, 10.002958, 9.99822 
2.0750232e+3, 3.1633106e+2, 201832.13, 10714.131, 41125.098, 0.06550095, 0.14122482, 210305.8, 210305.8, 0.00016039563, 10.001755, 9.999187 
2.0851319e+3, 1.2635478e+2, -1552884.9, -1277710.3, 67527.09, 0.015330655, 0.18257065, -1262032.5, 439703.06, 0.40993002, 9.999146, 10.0054035 
2.0851287e+3, 1.3635308e+2, -1836496.9, -1731570.9, 47660.805, 0.17434993, -0.024439216, -1713154.4, -109404.83, 0.29801235, 9.998502, 9.999908 
2.0851189e+3, 1.4635459e+2, -1520979.0, -1382332.0, -6710.004, -0.28553224, 0.0508171, -1382008.0, 123721.01, 0.18298064, 9.999249, 10.0014715 
2.0851146e+3, 1.563544e+2, -1344592.9, -1241765.9, -32404.068, -0.20579098, -0.14841187, -1232406.3, 175317.28, 0.088167645, 9.999884, 10.001373 
2.0851104e+3, 1.663555e+2, -1340988.1, -1352814.1, -82172.56, -0.06245414, -0.08602558, -1264516.1, 45197.49, 0.029713616, 9.999947, 9.999808 
2.0851062e+3, 1.7635742e+2, -1230498.9, -1231375.6, -82750.48, 0.101660565, 0.09940915, -1148185.6, 63514.707, 0.005333032, 9.999977, 9.999937 
2.0851025e+3, 1.8635768e+2, -1207205.3, -1190554.6, 43672.19, 0.09618497, 0.13597591, -1154421.3, -40722.668, 0.00018960002, 9.999536, 9.999772 
2.0850994e+3, 1.9635683e+2, -1194706.0, -1147128.6, 16014.008, -0.02762667, 0.050167587, -1142240.8, -126535.77, 0.000000020895914, 9.999018, 9.999637 
2.0850943e+3, 2.0635545e+2, -1097864.1, -1210911.5, -101822.984, -0.02302562, 0.030608507, -1037928.2, -120208.7, 0.0, 9.999716, 9.99819 
2.0850882e+3, 2.1635376e+2, -766100.94, -983502.44, -48546.957, 0.0627667, 0.017333036, -755752.75, 63986.43, 0.0, 10.001255, 9.998326 
2.0850821e+3, 2.2635294e+2, -618407.5, -851780.56, -29684.35, 0.15718101, 0.09450983, -614690.94, 107057.64, 0.0, 10.001517, 9.998459 
2.0850757e+3, 2.363526e+2, -587623.5, -771610.5, -38483.58, 0.2493577, 0.18712078, -579898.44, 43854.125, 0.0, 10.00101, 9.998567 
2.0850684e+3, 2.4635084e+2, -449712.56, -666302.6, -18573.914, 0.13033888, 0.15755557, -448131.28, 77636.766, 0.0, 10.00133, 9.998463 
2.0850599e+3, 2.5634813e+2, -222841.06, -501669.75, -70958.34, -0.12247466, 0.016457777, -205821.89, 221969.48, 0.0, 10.002212, 9.998486 
2.0850542e+3, 2.6634595e+2, -147494.38, -488312.63, -94028.17, -0.050119516, -0.016796412, -123274.19, 206536.13, 0.0, 10.002368, 9.997834 
2.08505e+3, 2.76344e+2, -87850.555, -406028.6, -90999.45, 0.20989986, -0.028631443, -63663.234, 168164.25, 0.000000115745564, 10.002108, 9.997838 
2.0850435e+3, 2.863412e+2, -51359.457, -453139.97, -32823.0, 0.18605581, -0.038820505, -48695.68, 85161.22, 0.0000020138657, 10.00214, 9.996852 
2.0850351e+3, 2.9633805e+2, 75630.2, -314483.22, -11270.445, -0.03947359, -0.07659685, 75955.54, 111847.65, 0.000014504671, 10.002258, 9.997054 
2.0850301e+3, 3.0633914e+2, 277741.34, -114772.35, 35615.96, 0.014525886, 0.28628135, 280946.9, 280946.9, 0.000053401804, 10.002924, 9.997803 
2.0850252e+3, 3.1633705e+2, 514970.22, 176436.28, -71549.33, -0.0020867358, 0.22337699, 529471.06, 529471.06, 0.00012544217, 10.00377, 9.999378 
2.0951262e+3, 1.263598e+2, -1610049.3, -1411050.3, -128190.39, -0.5299273, -0.10628597, -1348275.5, 353401.84, 0.42994058, 9.999211, 10.003954 
2.0951286e+3, 1.3635918e+2, -1960967.6, -1990850.1, 59170.87, 0.30830294, -0.037904035, -1914880.8, -311190.56, 0.31401625, 9.998525, 9.998114 
2.0951197e+3, 1.4636269e+2, -1564490.3, -1474277.0, 12587.77, -0.15541215, 0.37141284, -1472553.5, 33101.402, 0.19429262, 9.999325, 10.000679 
2.0951143e+3, 1.5636092e+2, -1379097.6, -1325033.4, -8706.277, -0.24397497, 0.08559346, -1323666.0, 84000.6, 0.094824284, 9.9999275, 10.000735 
2.0951106e+3, 1.6635972e+2, -1359412.3, -1412013.9, -88381.55, -0.06882623, -0.031662565, -1293501.3, 16176.781, 0.032688897, 10.0000305, 9.999359 
2.0951079e+3, 1.7635934e+2, -1253250.3, -1284937.5, -80727.44, 0.25076142, -0.033713985, -1186826.4, 24857.986, 0.0061590113, 10.000001, 9.9995575 
2.0951028e+3, 1.8635991e+2, -1197216.5, -1178795.5, 15317.233, 0.14514844, 0.048599113, -1170132.9, -56452.285, 0.00026052183, 9.999574, 9.999835 
2.0950967e+3, 1.9636084e+2, -1177319.1, -1107455.8, 12665.671, -0.20214169, 0.13218363, -1105230.5, -89557.88, 0.00000016154512, 9.999002, 9.999916 
2.0950925e+3, 2.0636044e+2, -996349.56, -985745.25, -51252.11, -0.18466622, 0.107149184, -939521.75, -21847.277, 0.0, 9.999655, 9.999763 
2.0950894e+3, 2.163593e+2, -692590.6, -801275.8, 5883.5, 0.05645531, -0.007506485, -692273.06, 127408.93, 0.0, 10.001131, 9.999635 
2.0950827e+3, 2.2635809e+2, -659751.8, -897446.4, -55793.984, 0.07796026, -0.013611368, -647306.9, 74386.01, 0.0, 10.001346, 9.998227 
2.0950742e+3, 2.3635684e+2, -632830.9, -829151.75, -42791.53, -0.022049394, 0.013110072, -623909.2, -203.26794, 0.0, 10.000859, 9.998243 
2.0950693e+3, 2.4635509e+2, -549775.9, -828237.7, 8803.033, 0.07839425, 0.055332527, -549497.9, -23772.668, 0.0, 10.001132, 9.997447 
2.0950665e+3, 2.563529e+2, -300583.63, -638006.2, -34249.67, 0.3057139, 0.06794924, -297142.25, 130607.16, 0.0, 10.0021, 9.997605 
2.0950586e+3, 2.6635092e+2, -155492.66, -463449.44, -111335.96, 0.1365637, 0.07671943, -119457.79, 210310.42, 0.0, 10.002199, 9.998081 
2.0950478e+3, 2.76349e+2, -84461.02, -368162.38, -87096.94, -0.24403502, 0.04704041, -59856.027, 171927.77, 0.0, 10.001978, 9.998159 
2.0950422e+3, 2.8634712e+2, -22968.168, -319078.6, -38588.08, -0.17852218, 0.05333886, -18022.121, 115778.01, 0.00000039293647, 10.001827, 9.99792 
2.0950395e+3, 2.9634514e+2, 114990.38, -186899.58, 13593.887, 0.15317005, 0.018801771, 115601.266, 151418.89, 0.000007667558, 10.002064, 9.998024 
2.0950364e+3, 3.0634138e+2, 85626.016, -383657.16, 57007.523, 0.31462866, -0.06525337, 92451.88, 92451.88, 0.000037309004, 10.002416, 9.996179 
2.0950279e+3, 3.1633857e+2, 318443.88, -63476.125, -4775.693, -0.16547577, -0.011664701, 318503.6, 318503.6, 0.000096027696, 10.003127, 9.998007 
2.1051252e+3, 1.2636729e+2, -1772216.6, -1636414.0, -248891.13, -0.5231021, 0.035190955, -1446328.1, 255275.14, 0.44859928, 9.999163, 10.001834 
2.1051277e+3, 1.3636388e+2, -1733054.0, -1953819.4, 10327.692, 0.25460416, -0.11341857, -1732572.0, -128926.05, 0.3298663, 10.000385, 9.997486 
2.1051197e+3, 1.4636888e+2, -1486326.3, -1455007.6, 20052.361, -0.12442885, 0.48757085, -1445224.6, 60371.996, 0.20615475, 9.999978, 10.000521 
2.1051145e+3, 1.5636651e+2, -1499390.9, -1385211.4, 30377.467, -0.16360523, 0.14245754, -1377632.5, 29981.195, 0.10215144, 9.999127, 10.000654 
2.1051106e+3, 1.6636427e+2, -1475869.9, -1515414.8, 11618.935, -0.03351011, -0.052108042, -1472708.8, -163074.17, 0.036114734, 9.999432, 9.998934 
2.1051075e+3, 1.763635e+2, -1198240.3, -1299639.3, 5025.7153, 0.18801577, -0.05534328, -1197991.8, 13652.412, 0.007176738, 10.000556, 9.999187 
2.1051022e+3, 1.8636416e+2, -1092858.9, -1132602.3, 63947.9, 0.11091359, 0.0570539, -1045766.25, 67873.49, 0.0003661867, 10.000323, 9.999784 
2.1050961e+3, 1.963651e+2, -1112262.0, -1069306.4, 45508.242, -0.16415729, 0.14822948, -1040462.25, -24829.484, 0.00000091193453, 9.999441, 9.999959 
2.1050923e+3, 2.06365e+2, -969461.3, -904489.94, 7743.227, -0.15104179, 0.1157998, -903579.8, 14050.692, 0.0, 9.999505, 10.000405 
2.1050896e+3, 2.163644e+2, -788638.25, -785632.1, -16377.674, 0.028552469, -0.011739085, -770688.7, 48941.69, 0.0, 10.000179, 10.000212 
2.1050835e+3, 2.2636338e+2, -717767.4, -916222.7, -106067.85, 0.049248595, -0.026954126, -671748.6, 49889.89, 0.0, 10.000928, 9.998283 
2.1050754e+3, 2.3636189e+2, -494306.22, -761392.5, -88967.7, -0.0395963, -0.029436572, -467384.34, 156269.56, 0.0, 10.001815, 9.998233 
2.1050711e+3, 2.4635994e+2, -438865.16, -811940.9, 20560.832, 0.09896907, 0.012302938, -437735.44, 87940.586, 0.0, 10.002053, 9.997115 
2.1050689e+3, 2.5635767e+2, -350751.06, -686999.44, 12829.627, 0.356264, 0.04866062, -350262.25, 77440.15, 0.0, 10.001877, 9.99737 
2.1050613e+3, 2.6635593e+2, -148566.88, -439532.25, -36531.74, 0.20337263, 0.08259881, -144050.3, 185669.33, 0.0, 10.002124, 9.998299 
2.1050505e+3, 2.7635443e+2, 18749.19, -298302.34, -31400.033, -0.1941548, 0.074249454, 21829.057, 253561.14, 0.0, 10.00258, 9.998358 
2.1050452e+3, 2.8635275e+2, 127823.2, -234968.89, -8125.3267, -0.12787238, 0.08762242, 128005.09, 261751.75, 0.00000006547354, 10.002827, 9.998007 
2.1050425e+3, 2.9635072e+2, 256043.08, -110002.945, -68229.7, 0.18817781, 0.045673948, 268347.28, 304112.0, 0.000004738257, 10.003002, 9.998096 
2.1050394e+3, 3.0634642e+2, 167156.95, -317526.56, 46632.938, 0.3610751, -0.1139121, 171602.88, 171602.88, 0.00002905632, 10.00281, 9.996462 
2.1050307e+3, 3.1634343e+2, 199824.38, -60290.4, 28768.633, -0.10397074, -0.09738416, 202968.19, 202968.19, 0.00007989996, 10.001987, 9.9986 
2.1151297e+3, 1.2637593e+2, -1911060.3, -1958250.9, -66605.79, -0.073138975, 0.45299545, -1863993.9, -162468.6, 0.46656317, 9.999208, 9.998686 
2.115125e+3, 1.3636722e+2, -1689097.5, -1875778.3, 35057.434, -0.07916071, -0.2500284, -1682731.1, -79115.07, 0.34608045, 10.000441, 9.99799 
2.1151182e+3, 1.46373e+2, -1462278.6, -1425532.3, -6466.166, -0.29064274, 0.38944054, -1424427.6, 81128.01, 0.21890919, 10.000078, 10.000741 
2.115115e+3, 1.5637104e+2, -1451522.4, -1317820.4, 8791.776, -0.05609997, 0.030700283, -1317244.8, 90321.35, 0.110347085, 9.999221, 10.001125 
2.1151102e+3, 1.6636914e+2, -1487132.4, -1554525.1, 46284.633, -0.060123578, -0.13696542, -1463577.5, -153993.9, 0.040102176, 9.999499, 9.998632 
2.115105e+3, 1.7636973e+2, -1219564.1, -1348807.5, 42957.6, -0.14708751, 0.029387504, -1206588.8, 4992.53, 0.008443992, 10.000568, 9.998847 
2.1151008e+3, 1.8637013e+2, -1107353.1, -1167254.5, 22023.338, -0.09541043, 0.14390644, -1100127.6, 13451.507, 0.00052604213, 10.000345, 9.999534 
2.1150976e+3, 1.9636941e+2, -1135565.0, -1110674.9, 25651.316, 0.008577837, 0.096769154, -1094609.1, -79021.87, 0.0000034897541, 9.9994135, 9.999685 
2.1150933e+3, 2.0636897e+2, -994727.4, -936968.6, 27230.764, -0.02013379, 0.052748922, -926155.0, -8565.798, 0.0, 9.999421, 10.000223 
2.1150889e+3, 2.1636908e+2, -815944.3, -811813.7, 14997.072, -0.09393488, 0.0142789865, -798740.4, 20843.54, 0.0, 10.000058, 10.000087 
2.115084e+3, 2.2636865e+2, -724820.4, -889731.5, -76765.83, -0.02560489, 0.04668685, -694617.56, 26969.371, 0.0, 10.000748, 9.998552 
2.1150789e+3, 2.3636758e+2, -494162.44, -733211.9, -52294.89, 0.122179866, 0.061045833, -483222.94, 140375.1, 0.0, 10.001694, 9.9984865 
2.115073e+3, 2.463652e+2, -443181.66, -776442.5, 7861.546, 0.085654095, 0.030849967, -442996.3, 82625.85, 0.0, 10.001866, 9.997444 
2.115067e+3, 2.563621e+2, -345986.3, -651879.56, 17302.86, -0.03579525, -0.04996044, -345010.7, 82642.57, 0.0, 10.001769, 9.997659 
2.115062e+3, 2.6636082e+2, -163828.03, -421101.72, -23916.209, 0.051843617, -0.000088792134, -161623.67, 168043.13, 0.0, 10.001916, 9.99852 
2.1150579e+3, 2.7636024e+2, 5990.391, -297413.56, -4411.759, 0.26499572, 0.06144736, 6054.5283, 237727.13, 0.0, 10.002459, 9.998424 
2.1150513e+3, 2.8635767e+2, 12116.079, -417788.88, -10706.04, 0.17129771, 0.0477033, 12382.529, 146082.95, 0.00000005479561, 10.002588, 9.9968605 
2.1150433e+3, 2.9635426e+2, 166388.83, -263715.28, -41167.285, -0.048478607, -0.02386451, 170293.69, 206031.56, 0.0000044706885, 10.002851, 9.997116 
2.1150383e+3, 3.063538e+2, 221625.67, -50961.07, 6687.324, -0.05459986, 0.14031039, 221789.63, 221789.63, 0.000027145721, 10.002206, 9.998555 
2.1150345e+3, 3.163521e+2, 220273.94, 145881.42, 25581.465, 0.002263414, 0.03287138, 228221.6, 228221.6, 0.00007497601, 10.00134, 10.000308 
2.125129e+3, 1.2637648e+2, -1893396.9, -1812776.5, 31233.61, -0.046235964, 0.31853554, -1802092.0, -100568.0, 0.48543465, 9.998703, 9.999923 
2.1251236e+3, 1.3637139e+2, -1785508.9, -1744462.0, 25732.17, -0.17813535, -0.29727235, -1732071.1, -128498.625, 0.3637423, 9.999044, 9.999539 
2.1251176e+3, 1.4637746e+2, -1549411.5, -1548202.5, -22595.258, -0.3209793, 0.35077915, -1526203.6, -20694.184, 0.23315269, 9.999805, 9.999883 
2.1251155e+3, 1.5637489e+2, -1344134.9, -1335116.0, -112054.48, 0.01566718, 0.015223211, -1227480.3, 180049.81, 0.1197026, 10.000339, 10.000497 
2.1251106e+3, 1.6637345e+2, -1360416.6, -1462583.5, -70884.336, 0.002915372, -0.098901585, -1324126.6, -14582.373, 0.044803485, 10.000225, 9.998922 
2.1251045e+3, 1.7637469e+2, -1274166.9, -1356111.3, -47854.723, -0.21347293, 0.11549126, -1252140.6, -40606.02, 0.01004214, 10.000104, 9.9990225 
2.1251003e+3, 1.8637465e+2, -1209468.8, -1226833.8, -75528.91, -0.1417087, 0.17954823, -1142125.0, -28589.684, 0.0007722133, 9.999669, 9.999452 
2.1250974e+3, 1.9637285e+2, -1185007.4, -1145480.9, -61574.203, 0.07564915, 0.030344578, -1100576.0, -85024.59, 0.000010944595, 9.999107, 9.999596 
2.1250932e+3, 2.0637235e+2, -1014757.5, -959760.2, 9078.376, 0.047410384, -0.010294246, -958300.4, -40746.35, 0.0, 9.999368, 10.00008 
2.1250884e+3, 2.1637283e+2, -794056.56, -817122.7, -18703.283, -0.13453342, 0.007135163, -783616.4, 35930.11, 0.0, 10.000291, 9.999932 
2.1250844e+3, 2.2637251e+2, -694687.2, -880030.3, -109431.68, -0.043039974, 0.060195718, -643959.6, 77589.96, 0.0, 10.000966, 9.998519 
2.1250811e+3, 2.3637152e+2, -525688.9, -738173.94, -124087.14, 0.18170764, 0.084159456, -468575.66, 154985.42, 0.0, 10.001438, 9.998575 
2.125075e+3, 2.4636938e+2, -444210.9, -696028.3, -69154.266, 0.11938739, 0.030503448, -426469.66, 99111.73, 0.0, 10.001512, 9.998168 
2.1250676e+3, 2.5636655e+2, -359362.5, -593021.56, -46207.844, -0.11337755, -0.092278466, -350556.44, 77050.48, 0.0, 10.001393, 9.99825 
2.1250635e+3, 2.6636556e+2, -272103.72, -496872.25, -74569.05, 0.02556212, -0.020994766, -249614.83, 80003.68, 0.0, 10.001289, 9.998297 
2.1250606e+3, 2.7636534e+2, -197220.36, -406579.47, -110882.72, 0.36026436, 0.098618485, -149411.28, 82214.2, 0.0, 10.00114, 9.998301 
2.1250542e+3, 2.8636307e+2, -116972.01, -443085.2, -30728.396, 0.26846534, 0.1012231, -114101.85, 19549.342, 0.000000117451826, 10.00152, 9.99722 
2.1250457e+3, 2.9636005e+2, 100979.336, -249010.22, 20969.795, -0.04675785, 0.03414896, 102231.27, 137915.47, 0.0000050467984, 10.00221, 9.997521 
2.1250403e+3, 3.063601e+2, 377660.38, 69848.8, 51635.72, -0.10393965, 0.2035884, 386091.38, 386091.38, 0.00002697455, 10.0030155, 9.999039 
2.1250379e+3, 3.1635988e+2, 495693.6, 258264.05, -117107.695, 0.13315837, 0.21384726, 543734.4, 543734.4, 0.00007155191, 10.003249, 10.000202 
2.1351235e+3, 1.3637625e+2, -1600716.5, -1447978.8, 17823.916, -0.11853568, -0.21831483, -1445926.3, 157590.55, 0.38411817, 9.999029, 10.002232 
2.135118e+3, 1.4638218e+2, -1672374.9, -1818614.5, -1913.0614, -0.33605197, 0.3873319, -1672349.9, -166891.11, 0.24951555, 9.999871, 9.997991 
2.1351157e+3, 1.5637797e+2, -1445465.1, -1559266.6, -104757.85, -0.02145337, 0.090874955, -1383152.1, 24354.082, 0.13052814, 10.000368, 9.998859 
2.1351118e+3, 1.6637693e+2, -1296860.9, -1346171.0, -83350.164, 0.06303235, 0.041318692, -1234595.8, 74923.15, 0.050404422, 10.000299, 9.999698 
2.135106e+3, 1.7637834e+2, -1228617.8, -1264012.6, -49784.477, -0.09495207, 0.1955034, -1193478.8, 18026.396, 0.012084308, 10.0001135, 9.99965 
2.1351005e+3, 1.8637769e+2, -1195114.5, -1209466.8, -101250.43, -0.12770787, 0.16706565, -1100786.3, 12721.997, 0.001155736, 9.999717, 9.999551 
2.1350957e+3, 1.963754e+2, -1177494.6, -1133894.1, -70671.5, -0.031466506, -0.04104267, -1081736.9, -66211.65, 0.000030850606, 9.999117, 9.999675 
2.135092e+3, 2.063749e+2, -1035527.1, -985349.4, 34856.035, -0.051351555, -0.078582525, -967491.8, -49964.66, 0.0, 9.999294, 9.999939 
2.1350886e+3, 2.1637544e+2, -822967.06, -849787.25, 21324.05, -0.1569023, -0.03855555, -811186.94, 8333.111, 0.0, 10.000174, 9.999764 
2.1350852e+3, 2.2637495e+2, -744424.94, -936270.4, -92991.63, -0.09909499, 0.020014718, -706748.94, 14777.783, 0.0, 10.000772, 9.99822 
2.1350816e+3, 2.3637368e+2, -554032.3, -772220.2, -100050.984, 0.07243717, 0.04434135, -515100.28, 108443.055, 0.0, 10.001329, 9.998394 
2.1350767e+3, 2.4637222e+2, -397171.8, -559630.8, -81437.805, 0.09819517, 0.013165588, -363378.06, 162177.42, 0.0, 10.001349, 9.999181 
2.1350709e+3, 2.563707e+2, -319018.97, -484800.13, -44215.08, 0.04613584, -0.084296174, -307963.72, 119601.51, 0.0, 10.001284, 9.999045 
2.1350648e+3, 2.663699e+2, -353100.78, -620150.9, -88010.28, 0.020644188, 0.013545009, -326704.75, 2872.878, 0.0, 10.001108, 9.997532 
2.1350583e+3, 2.763693e+2, -248230.55, -486084.34, -101324.1, 0.020250145, 0.1685249, -210919.86, 20674.488, 0.00000000014169585, 10.001025, 9.997811 
2.1350534e+3, 2.8636828e+2, -33914.97, -201994.58, -14027.727, 0.025433252, 0.21972531, -32752.273, 100852.84, 0.000000256191, 10.0012455, 9.998993 
2.1350496e+3, 2.9636756e+2, 179583.08, -52532.7, 69269.164, 0.10026248, 0.19577043, 198683.06, 234290.97, 0.0000052967753, 10.002053, 9.998949 
2.1350445e+3, 3.0636403e+2, 209011.08, -135617.36, 60873.184, -0.032516636, 0.010625699, 219447.33, 219447.33, 0.000025200057, 10.00246, 9.997863 
2.1350393e+3, 3.1636313e+2, 234892.34, -77459.53, 47535.094, -0.07665731, 0.07984109, 241966.23, 241966.23, 0.00006359445, 10.00244, 9.998251 
2.1451221e+3, 1.3638002e+2, -1595896.5, -1384146.5, 21303.018, -0.12883256, -0.09141268, -1382024.5, 221453.3, 0.40760165, 9.99857, 10.003261 
2.1451189e+3, 1.463835e+2, -1736309.8, -1836586.1, -94220.82, -0.17665906, 0.21022572, -1679717.5, -174273.92, 0.26811564, 9.999373, 9.998106 
2.1451147e+3, 1.5638144e+2, -1592424.3, -1629330.8, -50310.883, -0.09142177, 0.12462788, -1557289.3, -149815.66, 0.14296411, 9.999324, 9.9988785 
2.1451108e+3, 1.6638105e+2, -1434634.9, -1407543.9, -11135.271, -0.004678461, 0.1359635, -1403554.5, -94072.86, 0.057087187, 9.99933, 9.999733 
2.1451059e+3, 1.7638162e+2, -1366218.1, -1316557.0, -39402.09, -0.0650209, 0.20316641, -1294814.1, -83337.625, 0.014719365, 9.999126, 9.999764 
2.1451008e+3, 1.8638094e+2, -1154751.9, -1130756.1, -58607.87, -0.07836664, 0.1381516, -1082930.6, 30547.744, 0.0017550356, 9.999753, 10.0000725 
2.1450959e+3, 1.9637936e+2, -850429.1, -932741.4, -14607.532, -0.016431365, -0.04718567, -847913.7, 167572.05, 0.00008036648, 10.0011835, 10.000061 
2.1450923e+3, 2.0637888e+2, -810548.2, -912449.56, 87278.07, -0.017828105, -0.07910642, -760437.4, 157049.44, 0.000000018813253, 10.00098, 9.999632 
2.1450894e+3, 2.1637906e+2, -872777.5, -900755.3, 55399.51, -0.097065836, -0.047608092, -829628.0, -10144.088, 0.0, 9.999937, 9.99953 
2.145086e+3, 2.2637849e+2, -782283.56, -934291.3, 3288.4707, -0.070071965, 0.00031783097, -782212.44, -60720.473, 0.0, 10.0004225, 9.998407 
2.1450825e+3, 2.3637721e+2, -472005.03, -717917.56, 11148.189, 0.020402018, 0.014647544, -471500.7, 152007.92, 0.0, 10.001832, 9.998529 
2.1450782e+3, 2.463761e+2, -330001.66, -538961.25, -39995.37, 0.10280839, 0.016445745, -322608.03, 202910.7, 0.0, 10.00186, 9.99908 
2.1450733e+3, 2.5637504e+2, -355965.03, -510006.63, -95706.35, 0.16430333, -0.023311991, -310136.7, 117388.914, 0.0, 10.001062, 9.998979 
2.1450667e+3, 2.6637417e+2, -324423.34, -591088.0, -90194.79, 0.09082046, 0.06325694, -296781.75, 32756.475, 0.0, 10.001228, 9.997677 
2.1450591e+3, 2.763733e+2, -95846.01, -389175.88, -61163.953, -0.067384474, 0.17639154, -83603.32, 147952.84, 0.00000000016893417, 10.001969, 9.998017 
2.1450542e+3, 2.8637263e+2, 97151.57, -89859.51, 2341.3772, -0.033380717, 0.21918605, 97180.88, 230742.47, 0.0000002738674, 10.001907, 9.999455 
2.1450515e+3, 2.9637197e+2, 94618.35, -47496.574, -34212.43, 0.1267273, 0.16984983, 102425.67, 137986.16, 0.0000047479944, 10.001277, 9.999352 
2.1450481e+3, 3.0636856e+2, 147552.23, -250001.17, 468.116, 0.12890342, 0.0050262827, 147552.78, 147552.78, 0.000021563434, 10.002317, 9.997183 
2.145043e+3, 3.1636572e+2, 442451.5, 2582.678, -47433.03, -0.021567496, -0.043740414, 447508.28, 447508.28, 0.000054127435, 10.003924, 9.998079 
2.1551189e+3, 1.3638291e+2, -1648009.5, -1447507.5, 106094.57, -0.36662662, 0.10610347, -1401791.6, 201661.44, 0.43279883, 9.998648, 10.002637 
2.1551207e+3, 1.4638129e+2, -1588800.4, -1549324.8, -126328.98, -0.008761164, -0.1976386, -1441201.0, 64263.95, 0.28823382, 9.999467, 10.000142 
2.1551125e+3, 1.5638529e+2, -1476590.1, -1404203.6, -41437.848, -0.27321956, 0.12312271, -1385378.3, 22053.814, 0.15688464, 9.999376, 10.000422 
2.1551074e+3, 1.6638589e+2, -1469729.6, -1503966.4, -21740.068, -0.30368996, 0.21290852, -1459177.4, -149746.11, 0.06501248, 9.999434, 9.999018 
2.1551038e+3, 1.763845e+2, -1393905.9, -1378476.9, -38542.254, -0.1997555, 0.14535004, -1346884.6, -135435.28, 0.018139776, 9.99915, 9.999321 
2.1551006e+3, 1.8638423e+2, -1086003.9, -1003152.75, -13018.882, -0.08994012, 0.09396692, -1001155.2, 112292.27, 0.0026903055, 9.99981, 10.000925 
2.1550979e+3, 1.9638458e+2, -800794.3, -826797.2, 32578.184, 0.03871517, 0.009478158, -778719.0, 236715.39, 0.00019736934, 10.001174, 10.000789 
2.1550943e+3, 2.0638426e+2, -855945.75, -994108.6, 41002.87, 0.040378574, -0.010032381, -844693.6, 72739.695, 0.0000007869328, 10.000922, 9.9991 
2.1550901e+3, 2.163835e+2, -911384.6, -963911.9, 33843.53, -0.033258736, -0.021496888, -894809.5, -75369.76, 0.0, 9.999855, 9.999138 
2.1550867e+3, 2.2638279e+2, -763922.2, -857707.06, 51619.84, -0.06106965, -0.004272164, -741075.75, -19627.86, 0.0, 10.0002575, 9.999011 
2.1550837e+3, 2.3638196e+2, -463138.44, -671944.4, 61185.367, -0.052026134, -0.009675646, -446530.53, 176928.42, 0.0, 10.00171, 9.998903 
2.1550795e+3, 2.4638079e+2, -446599.9, -728516.3, -75325.61, 0.034171406, 0.037820853, -427735.8, 97737.125, 0.0, 10.001645, 9.997875 
2.1550745e+3, 2.5637937e+2, -435477.25, -653758.44, -109739.375, 0.17343992, 0.08314277, -389845.75, 37643.816, 0.0, 10.000972, 9.998035 
2.1550684e+3, 2.6637813e+2, -281017.4, -462267.72, -67731.5, 0.13247177, 0.117520526, -258503.36, 70999.37, 0.0, 10.001065, 9.998639 
2.155062e+3, 2.76377e+2, -60728.17, -290276.6, -30456.252, 0.012159748, 0.10655271, -56756.0, 174758.42, 0.0, 10.001853, 9.998755 
2.1550564e+3, 2.8637543e+2, -5001.0313, -232225.36, -30489.773, -0.032713447, 0.07880384, -980.9288, 132545.84, 0.000000100631844, 10.001637, 9.998593 
2.1550512e+3, 2.9637325e+2, 4264.815, -191358.86, -26597.541, -0.05313449, -0.03905377, 7816.6035, 43359.81, 0.0000031808167, 10.001086, 9.998458 
2.1550505e+3, 3.0637252e+2, 27631.326, -341106.7, 53973.926, 0.101167716, 0.13175331, 35369.36, 35369.36, 0.000016664693, 10.001687, 9.996832 
2.1550474e+3, 3.1636944e+2, 376582.8, -4224.056, 26279.414, -0.036218956, 0.05240676, 378387.8, 378387.8, 0.00004561872, 10.003379, 9.998288 
2.1651193e+3, 1.3638626e+2, -1549820.0, -1448129.1, 34851.758, -0.22165962, 0.2783504, -1437331.3, 166096.05, 0.45757636, 9.999747, 10.002097 
2.1651171e+3, 1.4638259e+2, -1927953.3, -1550939.3, -70271.96, -0.13528311, -0.28025508, -1538267.1, -32810.992, 0.3088363, 9.99643, 10.001481 
2.1651118e+3, 1.5638863e+2, -1427560.4, -1278507.9, -35073.883, -0.27380008, 0.11844848, -1270667.0, 136732.34, 0.17204043, 9.9992, 10.001516 
2.1651074e+3, 1.6639006e+2, -1355720.5, -1409707.5, -26232.43, -0.27413338, 0.21902029, -1345073.8, -35685.19, 0.07433442, 10.000027, 9.999383 
2.1651036e+3, 1.7638843e+2, -1214435.8, -1263767.3, 28945.271, -0.20767823, 0.09338974, -1201072.3, 10335.936, 0.022589553, 10.000237, 9.999596 
2.1651006e+3, 1.8638857e+2, -1035415.1, -1014369.25, 61984.95, -0.09306667, 0.08802354, -962020.4, 151384.27, 0.00413868, 10.000322, 10.0006 
2.1650986e+3, 1.9638975e+2, -915695.1, -915868.56, -7901.1846, 0.034530494, 0.125967, -907880.2, 107507.13, 0.00045452762, 10.000533, 10.00049 
2.1650952e+3, 2.0638923e+2, -899962.9, -997123.56, -34222.406, 0.07452839, 0.09028627, -889119.1, 28268.813, 0.000007502901, 10.000537, 9.999265 
2.165091e+3, 2.1638758e+2, -800150.8, -895441.06, 206.9959, 0.043277413, -0.021859188, -800150.4, 19250.113, 0.0, 10.000566, 9.999264 
2.1650876e+3, 2.2638687e+2, -768618.1, -849693.6, 54926.902, 0.012825932, -0.014683873, -740889.7, -19481.527, 0.0, 10.0001955, 9.999086 
2.1650848e+3, 2.3638658e+2, -757162.1, -808662.0, 9637.906, -0.02469857, 0.025617689, -755417.56, -132003.47, 0.0, 9.999676, 9.998938 
2.1650806e+3, 2.4638537e+2, -596862.94, -838954.9, -78449.195, 0.024796551, 0.083671466, -573664.7, -48235.45, 0.0, 10.000762, 9.997548 
2.1650757e+3, 2.5638342e+2, -185335.63, -556948.75, -60888.066, 0.10380846, 0.10956336, -175613.58, 251837.73, 0.0, 10.00281, 9.997803 
2.1650703e+3, 2.6638168e+2, -1082.7527, -331124.5, -52799.707, 0.114415236, 0.10407847, 7158.307, 336626.13, 0.0, 10.003017, 9.998591 
2.1650647e+3, 2.7637994e+2, -27204.975, -286034.56, -104970.39, 0.09720997, 0.04398146, 10014.478, 241497.2, 0.0, 10.002157, 9.998627 
2.1650596e+3, 2.86378e+2, 77943.52, -262484.2, -98288.49, 0.078277305, 0.014943481, 104283.44, 237782.22, 0.0000000029805467, 10.002492, 9.99798 
2.1650538e+3, 2.9637566e+2, 301595.63, -97847.76, -104742.05, -0.022579296, -0.050701514, 327394.75, 362913.2, 0.000001345268, 10.003366, 9.997993 
2.165053e+3, 3.0637494e+2, 178377.58, -290801.22, 24718.188, 0.14367355, 0.13911381, 179676.23, 179676.23, 0.000010778314, 10.002788, 9.9966545 
2.1650505e+3, 3.1637105e+2, 170398.36, -26854.736, -108671.49, 0.041397262, 0.013679266, 218525.66, 218525.66, 0.00003608632, 10.00162, 9.9989805 
2.1751235e+3, 1.363906e+2, -1632381.9, -1566979.4, -327303.66, 0.16448307, 0.4556266, -1270747.4, 332648.0, 0.48078975, 10.000269, 10.001248 
2.175109e+3, 1.4638767e+2, -1882438.6, -1495210.1, 54512.824, -0.64942724, -0.02967572, -1487682.4, 17732.06, 0.32934, 9.996577, 10.001844 
2.1751124e+3, 1.5639144e+2, -1397685.8, -1223862.4, 41943.586, -0.17015563, 0.1085786, -1214270.8, 193104.75, 0.18832743, 9.999172, 10.0020075 
2.1751101e+3, 1.6639325e+2, -1251972.6, -1213924.3, -24025.063, -0.04782274, 0.14669384, -1202303.3, 107052.97, 0.0852701, 10.000112, 10.000748 
2.1751043e+3, 1.763934e+2, -1134347.4, -1109320.4, 43301.33, -0.17441311, 0.05146732, -1076760.6, 134592.61, 0.028395085, 10.000293, 10.000645 
2.1751003e+3, 1.8639392e+2, -1145027.3, -1256478.8, 62360.688, -0.18457647, 0.13133508, -1117121.5, -3771.609, 0.006367479, 10.000382, 9.998905 
2.1750982e+3, 1.963947e+2, -1014000.8, -1118853.1, 4221.9375, -0.10027614, 0.29674163, -1013831.06, 1515.0157, 0.0009868387, 10.000526, 9.999097 
2.1750952e+3, 2.063936e+2, -851328.44, -884313.0, -39556.723, -0.021054247, 0.2154987, -824963.6, 92389.1, 0.000047582707, 10.000481, 10.000069 
2.1750918e+3, 2.163912e+2, -771769.44, -810450.9, 5092.845, 0.06546677, -0.052023977, -771110.1, 48257.367, 0.00000000032497088, 10.000451, 9.999904 
2.1750884e+3, 2.2639054e+2, -831919.6, -936668.9, 30759.643, 0.06602549, -0.037621934, -823555.0, -102180.91, 0.0, 10.0000105, 9.998576 
2.175085e+3, 2.3639084e+2, -801016.56, -870390.06, 10925.368, 0.027406448, 0.11147315, -799336.6, -175960.4, 0.0, 9.999557, 9.998568 
2.1750808e+3, 2.4638948e+2, -586817.8, -767737.0, -7702.667, -0.038622525, 0.13738577, -586490.44, -61100.21, 0.0, 10.000554, 9.998131 
2.1750765e+3, 2.56387e+2, -182508.08, -513773.28, 8347.547, -0.116769, 0.04857965, -182297.86, 245114.83, 0.0, 10.002655, 9.998171 
2.1750718e+3, 2.6638463e+2, -111025.24, -504163.66, -93744.08, -0.063338764, 0.02583105, -89816.11, 239619.55, 0.0, 10.0027895, 9.997508 
2.175067e+3, 2.763821e+2, -119781.96, -446598.6, -116518.69, 0.10080408, -0.0067523243, -82494.28, 148967.69, 0.0, 10.002028, 9.997582 
2.175063e+3, 2.8638e+2, 3250.3894, -344451.4, -70590.76, 0.14653982, 0.024322988, 17035.281, 150516.27, 0.0, 10.002196, 9.997551 
2.1750583e+3, 2.963786e+2, 255244.45, -161446.3, -72318.76, 0.07870376, 0.08124767, 267438.88, 302930.97, 0.00000028754212, 10.003222, 9.997624 
2.1750554e+3, 3.063745e+2, 83451.76, -364426.47, -43418.332, 0.059915528, -0.031169923, 87622.0, 87622.0, 0.0000061263827, 10.002319, 9.996346 
2.1750535e+3, 3.1637105e+2, 137837.03, 74557.87, -98417.484, 0.13340734, -0.09300101, 209575.7, 209575.7, 0.000027574106, 10.000926, 10.000002 
2.1851076e+3, 1.4639403e+2, -1504060.6, -1425277.9, 8888.866, -0.57743746, 0.16452704, -1424287.4, 81067.414, 0.34983045, 9.999481, 10.001158 
2.1851118e+3, 1.5639558e+2, -1645350.8, -1318589.5, 126929.52, -0.02914473, 0.09344724, -1275078.0, 132257.64, 0.2059314, 9.997417, 10.002134 
2.1851094e+3, 1.6639717e+2, -1579496.4, -1318031.3, 57685.152, -0.011047945, 0.08225737, -1305870.3, 3446.1548, 0.09816949, 9.99765, 10.001162 
2.1851048e+3, 1.7639834e+2, -1144156.4, -1073170.0, 33453.68, -0.14368396, 0.05102497, -1059889.1, 151412.11, 0.036017943, 10.000098, 10.000989 
2.1851008e+3, 1.8639857e+2, -1163706.6, -1316934.6, 38436.004, -0.1688081, 0.10886134, -1154605.8, -41305.383, 0.009796201, 10.000457, 9.998459 
2.1850984e+3, 1.9639806e+2, -1171614.8, -1247523.8, 65915.664, -0.0778323, 0.19474922, -1133507.3, -118197.66, 0.0020521113, 9.999657, 9.998631 
2.1850954e+3, 2.0639691e+2, -966218.0, -948897.7, 49750.59, 0.022308236, 0.13585217, -907059.1, 10259.288, 0.00020967671, 9.999744, 9.999984 
2.1850926e+3, 2.1639526e+2, -773614.94, -819510.25, 9230.197, 0.08874275, -0.051604293, -771828.2, 47499.69, 0.00000086887735, 10.000472, 9.999838 
2.1850893e+3, 2.2639461e+2, -664878.8, -888903.44, 33539.277, 0.09241735, -0.015979502, -659965.4, 61369.492, 0.0, 10.001279, 9.998306 
2.1850862e+3, 2.3639448e+2, -426403.28, -705900.8, 25169.234, 0.06615096, 0.1175264, -424154.84, 199186.0, 0.0, 10.002213, 9.998415 
2.1850826e+3, 2.4639295e+2, -332353.47, -619214.06, 27338.96, -0.009565487, 0.11942702, -329771.2, 195584.34, 0.0, 10.002184, 9.99837 
2.1850784e+3, 2.5639042e+2, -327457.94, -570631.06, -7553.402, -0.13438812, 0.004827143, -327223.56, 100153.6, 0.0, 10.00158, 9.998311 
2.1850735e+3, 2.663882e+2, -335558.6, -642584.75, -104343.266, -0.0748597, 0.0050702034, -303454.38, 25944.582, 0.0, 10.001346, 9.997271 
2.1850689e+3, 2.7638587e+2, -220716.06, -523726.03, -76114.98, 0.1009312, 0.021679215, -202670.9, 28753.79, 0.0, 10.001434, 9.997355 
2.1850654e+3, 2.8638366e+2, -60687.258, -394285.7, 58907.92, 0.1854366, 0.05523859, -50590.684, 82854.6, 0.0, 10.001814, 9.997404 
2.185062e+3, 2.9638177e+2, 125263.55, -248047.78, 37460.13, 0.15988061, 0.092673905, 128985.4, 164446.66, 0.000000027227998, 10.00242, 9.997423 
2.1850581e+3, 3.063768e+2, 102747.75, -361329.53, 41945.688, 0.11309377, -0.101789795, 106508.54, 106508.54, 0.0000044959556, 10.002421, 9.996352 
2.1850547e+3, 3.1637517e+2, 251976.47, 144369.38, -31576.498, 0.12747231, 0.03580176, 260557.98, 260557.98, 0.000025056477, 10.00155, 10.000228 
2.1951114e+3, 1.4640082e+2, -1634868.1, -1602718.9, -351358.44, -0.2200773, 0.30024466, -1267067.5, 238218.78, 0.371045, 9.999539, 10.000127 
2.1951103e+3, 1.5640067e+2, -1639998.0, -1326271.9, 67726.74, 0.060956296, 0.08049149, -1312275.5, 95008.164, 0.22535217, 9.9975, 10.002017 
2.1951048e+3, 1.664018e+2, -1604136.6, -1387046.4, 126718.56, -0.2528501, 0.052687567, -1328739.4, -19470.479, 0.113554515, 9.997725, 10.000649 
2.1951048e+3, 1.7640294e+2, -1181191.8, -1140045.0, 113114.63, -0.17906155, 0.08244976, -1045648.06, 165606.53, 0.046104282, 10.000071, 10.000536 
2.1951018e+3, 1.864021e+2, -1100291.8, -1189478.5, 5454.768, -0.13871114, 0.003638282, -1099959.4, 13300.495, 0.015073848, 10.000475, 9.999327 
2.1950993e+3, 1.9639991e+2, -1134750.4, -1168649.9, 47845.242, 0.028125461, -0.16046958, -1100941.3, -85663.02, 0.004138987, 9.999654, 9.999172 
2.1950962e+3, 2.0639926e+2, -1046416.25, -1108098.0, 69387.01, 0.092030644, -0.12746975, -1001324.8, -84040.03, 0.00072646124, 9.999714, 9.998904 
2.1950926e+3, 2.1639962e+2, -849576.44, -951526.25, 40355.406, 0.03097153, -0.014023103, -835536.0, -16252.784, 0.000022642807, 10.000364, 9.998978 
2.1950899e+3, 2.2639894e+2, -689846.06, -898118.94, 63186.273, -0.0056505385, 0.0511765, -672175.7, 49116.227, 0.000000000011542125, 10.001091, 9.998332 
2.1950881e+3, 2.3639746e+2, -442181.2, -714851.7, 60527.633, 0.013319338, 0.041813057, -429349.1, 193959.58, 0.0, 10.002103, 9.998405 
2.195085e+3, 2.4639569e+2, -382186.5, -664166.56, -3562.0012, -0.0043962933, 0.031544324, -382141.5, 143184.53, 0.0, 10.001945, 9.99817 
2.1950811e+3, 2.563936e+2, -354950.28, -596572.75, -20660.457, -0.03934873, -0.018073669, -353196.38, 74148.914, 0.0, 10.001452, 9.99819 
2.1950755e+3, 2.6639217e+2, -342918.56, -592470.8, -109046.31, -0.041602623, 0.036602326, -301983.56, 27376.582, 0.0, 10.001084, 9.997727 
2.1950693e+3, 2.7639085e+2, -212903.83, -466758.44, -61308.25, 0.0033349737, 0.102632865, -198872.83, 32502.12, 0.0, 10.001276, 9.997811 
2.1950662e+3, 2.8638834e+2, -97506.72, -412954.7, 72025.08, 0.053442467, 0.08219599, -81839.625, 51558.51, 0.0, 10.001579, 9.997383 
2.1950643e+3, 2.963852e+2, 86476.07, -285036.28, 73632.09, 0.1264608, -0.0004110376, 100537.42, 135963.34, 0.000000020729713, 10.002235, 9.997258 
2.1950603e+3, 3.063813e+2, 42686.355, -367635.0, 12329.777, 0.05248088, -0.0805377, 43056.523, 43056.523, 0.0000055230016, 10.00195, 9.996507 
2.195054e+3, 3.1638053e+2, -2143.2158, -209698.17, 82806.63, -0.13451198, 0.115086436, 26844.9, 26844.9, 0.000029811183, 10.000885, 9.998071 
2.2051133e+3, 1.464056e+2, -1371575.0, -1566100.4, -188344.58, -0.09215139, 0.13448855, -1256862.0, 248373.2, 0.39437363, 10.00233, 9.998824 
2.2051084e+3, 1.5640476e+2, -1424355.4, -1431070.8, -119900.77, -0.023531836, 0.090893425, -1307765.3, 99478.43, 0.24751917, 10.000051, 10.0 
2.2051015e+3, 1.6640523e+2, -1599166.6, -1408271.0, 23023.223, -0.34246323, 0.08793926, -1405533.5, -96296.51, 0.13222682, 9.997836, 10.0004635 
2.205105e+3, 1.7640571e+2, -1341748.0, -1265142.4, 45882.703, -0.090264715, 0.09538955, -1243676.3, -32447.584, 0.059555795, 9.999098, 10.000149 
2.205103e+3, 1.8640462e+2, -1134405.0, -1164778.6, -140668.84, -0.03580527, -0.008491419, -1008105.56, 105129.56, 0.023171267, 10.000071, 9.999703 
2.2050992e+3, 1.9640277e+2, -1008542.75, -1070348.0, -147270.83, 0.015016551, -0.18242957, -888967.25, 126281.38, 0.008108057, 10.000356, 9.999525 
2.2050962e+3, 2.0640227e+2, -938325.9, -1089321.1, -56602.293, 0.06591753, -0.13266772, -919464.0, -2209.8293, 0.0021629941, 10.000593, 9.998613 
2.2050935e+3, 2.1640253e+2, -750710.2, -926788.75, -43447.44, 0.041533343, 0.0015854395, -740573.1, 78682.375, 0.00023583506, 10.001133, 9.998781 
2.2050911e+3, 2.2640185e+2, -646278.25, -820119.1, 20951.65, 0.022799093, 0.05148319, -643788.8, 77474.55, 0.0000019906881, 10.001144, 9.998843 
2.2050896e+3, 2.3640074e+2, -599490.2, -746823.56, 30741.27, 0.015648473, 0.029182369, -593333.3, 29940.854, 0.0, 10.00081, 9.998826 
2.2050865e+3, 2.4639906e+2, -549727.5, -758044.1, -14346.621, 0.015463154, 0.020021766, -548744.1, -23453.016, 0.0, 10.000838, 9.998066 
2.2050825e+3, 2.5639704e+2, -393568.97, -607025.5, -37512.633, -0.007684783, -0.01916051, -387168.44, 40143.293, 0.0, 10.001198, 9.998216 
2.2050774e+3, 2.6639584e+2, -201409.25, -503364.47, -99869.62, 0.00073187205, 0.044221886, -171367.03, 157957.44, 0.0, 10.001953, 9.99793 
2.2050717e+3, 2.7639472e+2, 46476.137, -328530.63, -88430.46, 0.033361576, 0.11435131, 66282.83, 297619.47, 0.0, 10.002986, 9.997944 
2.2050682e+3, 2.8639233e+2, 55237.47, -339681.28, 21549.418, 0.057804886, 0.09935228, 56409.87, 189769.2, 0.0, 10.002644, 9.99737 
2.2050655e+3, 2.9638895e+2, 14519.709, -303341.94, -6417.745, 0.056108035, 0.006525675, 14649.233, 50040.58, 0.00000007580395, 10.001671, 9.997408 
2.2050618e+3, 3.0638665e+2, 107834.28, -205313.14, 21146.521, 0.03087932, 0.0011781517, 109255.836, 109255.836, 0.0000083740215, 10.001803, 9.997709 
2.2050579e+3, 3.16387e+2, 203488.6, -156946.55, 88937.34, 0.10984502, 0.22303158, 224239.23, 224239.23, 0.000042885644, 10.002452, 9.997691 
2.2151169e+3, 1.464101e+2, -1456876.8, -1721340.6, 232002.83, -0.030243179, -0.12871364, -1322068.3, 183116.19, 0.4221777, 10.002201, 9.997717 
2.2151054e+3, 1.5640756e+2, -1688980.3, -1986297.5, -273307.8, -0.32377523, 0.1149747, -1526517.5, -119298.62, 0.27423543, 10.0, 9.996116 
2.2150992e+3, 1.6640712e+2, -1572890.1, -1364927.3, 28227.24, -0.4085482, 0.18544103, -1361164.0, -51940.46, 0.15564767, 9.997886, 10.000732 
2.2151054e+3, 1.7640674e+2, -1355426.4, -1289866.8, 101606.04, 0.035569783, 0.10086529, -1215883.8, -4661.3794, 0.07778218, 9.999086, 9.999981 
2.2151043e+3, 1.8640621e+2, -1143285.5, -1194612.5, -127452.43, 0.0442408, 0.080825865, -1038938.5, 74286.67, 0.035576556, 10.000112, 9.999485 
2.2150977e+3, 1.9640647e+2, -1009786.6, -1060934.6, -133539.69, -0.180982, 0.124036595, -899394.2, 115827.55, 0.0154146915, 10.000311, 9.999613 
2.2150947e+3, 2.064057e+2, -909872.75, -1018165.0, -42114.688, -0.14959206, 0.108481, -895422.6, 21805.795, 0.005714695, 10.000538, 9.99913 
2.2150947e+3, 2.1640383e+2, -731702.94, -865400.06, -17969.725, 0.03915224, -0.013871201, -729329.8, 89916.18, 0.0013616167, 10.001036, 9.999249 
2.2150928e+3, 2.2640346e+2, -620945.4, -717131.25, 3157.2354, 0.0636536, 0.0018178978, -620841.9, 100406.195, 0.00013056793, 10.000929, 9.999655 
2.2150904e+3, 2.3640417e+2, -564519.4, -644051.7, 28452.357, 0.0015044357, 0.07298285, -555388.9, 67850.164, 0.0000045921656, 10.000675, 9.999597 
2.2150867e+3, 2.4640287e+2, -595153.4, -784757.1, -11724.555, -0.060694434, 0.07441296, -594431.06, -69178.6, 0.000000030624218, 10.000566, 9.998005 
2.2150828e+3, 2.5640038e+2, -419253.47, -618934.75, -14533.327, -0.113236465, -0.011952677, -418201.25, 9078.099, 0.0, 10.001028, 9.998213 
2.2150789e+3, 2.663988e+2, -243854.3, -529808.0, -73317.19, -0.051974684, 0.012985767, -226152.0, 103144.32, 0.0, 10.001705, 9.99786 
2.2150756e+3, 2.763974e+2, 9301.896, -359498.97, -54456.492, 0.09927367, 0.061822668, 17174.783, 248484.86, 0.0, 10.002797, 9.997814 
2.215071e+3, 2.8639552e+2, -16836.398, -405961.94, -28095.416, 0.03801344, 0.117742375, -14818.336, 118512.14, 0.0, 10.002305, 9.997064 
2.2150652e+3, 2.9639265e+2, -8246.964, -307675.38, -20737.105, -0.15329775, 0.091918096, -6817.626, 28543.96, 0.00000027397763, 10.001504, 9.997444 
2.2150622e+3, 3.0639243e+2, 217297.45, 109751.766, 39461.586, -0.14800933, 0.16330868, 230223.45, 230223.45, 0.000015050563, 10.0014715, 10.000007 
2.2150634e+3, 3.163936e+2, 138815.0, -115088.32, 116455.68, 0.37437826, 0.23282461, 184138.25, 184138.25, 0.00007034586, 10.001758, 9.998284 
2.225114e+3, 1.4641307e+2, -1828833.6, -1538650.0, 232683.63, -0.29351524, 0.33280724, -1409527.9, 95627.22, 0.45833316, 9.997177, 10.00157 
2.2251062e+3, 1.5640774e+2, -1729104.4, -1867167.3, -365393.97, -0.21447264, 0.013496998, -1426278.3, -19064.78, 0.30885017, 9.999108, 9.997357 
2.2251004e+3, 1.6640902e+2, -1066566.4, -1167252.6, 63189.09, -0.28847334, 0.21688125, -1036117.8, 273083.53, 0.18666483, 10.001919, 10.000362 
2.2251058e+3, 1.7640765e+2, -1270645.5, -1265778.9, 94503.66, 0.100604914, 0.06168949, -1173677.3, 37534.16, 0.103338934, 9.999775, 9.99982 
2.225104e+3, 1.8640722e+2, -1294908.0, -1241542.9, -53927.117, 0.07308692, 0.044261254, -1208058.3, -94844.11, 0.054786276, 9.998931, 9.999736 
2.2250971e+3, 1.9640821e+2, -993557.25, -1019764.4, -43570.164, -0.2621432, 0.13410036, -961162.9, 54041.14, 0.028543482, 10.000244, 9.999931 
2.2250947e+3, 2.0640789e+2, -858470.5, -936617.7, 43637.074, -0.20803589, 0.11579008, -838969.9, 78235.98, 0.013685946, 10.000661, 9.999624 
2.2250956e+3, 2.164064e+2, -823276.2, -868440.8, 46219.586, 0.07895901, -0.011391774, -794417.1, 24801.287, 0.005262215, 10.000241, 9.99961 
2.2250937e+3, 2.2640581e+2, -735149.06, -800692.0, 35615.84, 0.108333044, -0.020481413, -719521.56, 1701.3427, 0.001420654, 10.000244, 9.999419 
2.2250906e+3, 2.3640592e+2, -602893.3, -676027.7, -27695.975, -0.027210912, 0.014332409, -593588.7, 29631.988, 0.0002619265, 10.000462, 9.999486 
2.2250871e+3, 2.4640505e+2, -558758.3, -738738.8, -58284.887, -0.073311366, 0.044843532, -541532.06, -16301.509, 0.000035642544, 10.000671, 9.9982815 
2.2250842e+3, 2.5640357e+2, -396639.5, -584509.56, -42489.703, -0.078953594, 0.029545017, -387476.7, 39770.78, 0.0000011567587, 10.001036, 9.99847 
2.2250809e+3, 2.664019e+2, -348584.25, -583549.4, -79594.62, 0.00025625317, 0.042811718, -324160.3, 5105.169, 0.0, 10.001004, 9.997826 
2.2250776e+3, 2.7640003e+2, -242306.89, -467488.0, -88783.93, 0.11833005, 0.049556255, -211512.58, 19772.297, 0.0, 10.001041, 9.997914 
2.2250725e+3, 2.863983e+2, -157435.53, -414455.75, -36732.504, 0.05241439, 0.07984095, -152288.89, -18985.414, 0.0, 10.001065, 9.997621 
2.2250664e+3, 2.9639545e+2, -2814.5613, -256746.48, 13377.564, -0.16066116, 0.02301483, -2111.7537, 33220.82, 0.00000073017384, 10.001344, 9.997869 
2.2250642e+3, 3.0639693e+2, 307052.94, 183070.27, 38941.965, -0.13024075, 0.2170381, 318269.53, 318269.53, 0.00002755439, 10.001926, 10.000319 
2.2250661e+3, 3.1639445e+2, 275773.84, -31058.43, -110387.02, 0.4350752, -0.072152026, 311359.84, 311359.84, 0.000118261974, 10.002552, 9.998521 
2.2351094e+3, 1.5640594e+2, -1342015.9, -1092120.9, -112452.35, 0.18523085, -0.12402307, -1048969.0, 358252.94, 0.35698506, 9.998871, 10.003948 
2.2351047e+3, 1.6641065e+2, -1156537.9, -1321285.3, 29145.984, -0.07001555, 0.16428211, -1151533.6, 157639.52, 0.23053116, 10.001819, 9.99914 
2.235105e+3, 1.7640816e+2, -1302850.3, -1315415.5, 15605.818, 0.04176675, -0.03968998, -1292309.9, -81111.07, 0.14104874, 9.9996805, 9.999511 
2.2351018e+3, 1.8640743e+2, -1248160.0, -1133968.6, -24176.203, -0.062368628, -0.12809752, -1129061.0, -15856.445, 0.08532412, 9.998889, 10.00049 
2.2350971e+3, 1.96408e+2, -961102.2, -935247.75, 7028.764, -0.30547798, -0.14502925, -933460.5, 81735.64, 0.05187056, 10.0001745, 10.000569 
2.2350955e+3, 2.0640904e+2, -847236.75, -886958.4, 25115.598, -0.2179275, -0.07685299, -835078.1, 82106.74, 0.030293982, 10.000558, 10.000018 
2.2350962e+3, 2.1641009e+2, -825796.2, -845827.56, 36982.33, 0.087007545, 0.005579399, -797497.3, 21677.525, 0.015773455, 10.00012, 9.9998255 
2.2350937e+3, 2.2640865e+2, -861648.0, -1000029.44, 37438.004, 0.05386054, -0.024177214, -852168.75, -130978.04, 0.0069356123, 9.999984, 9.998167 
2.2350898e+3, 2.3640588e+2, -685218.44, -822934.56, -11521.082, -0.15357096, -0.16350271, -684261.3, -61040.508, 0.002541045, 10.000356, 9.998523 
2.2350875e+3, 2.4640547e+2, -561217.6, -680648.9, -56672.395, -0.13985744, -0.06896339, -538606.4, -13380.294, 0.00075579167, 10.000414, 9.998796 
2.2350861e+3, 2.5640655e+2, -384471.34, -518986.3, -24505.709, 0.0019334443, 0.10428765, -380146.0, 47069.633, 0.00014769337, 10.000863, 9.999 
2.2350822e+3, 2.6640525e+2, -423291.34, -648002.94, -97277.914, 0.016359854, 0.14469267, -387030.78, -57799.504, 0.000007045108, 10.000639, 9.997544 
2.2350776e+3, 2.764024e+2, -267417.88, -475947.4, -77747.14, 0.0012715285, 0.06840571, -241622.05, -10359.322, 0.00000000065814787, 10.000863, 9.997928 
2.235073e+3, 2.864002e+2, -119739.82, -254220.6, -48725.484, -0.03410352, -0.02738402, -103941.41, 29341.07, 0.0, 10.000745, 9.998856 
2.2350685e+3, 2.9639745e+2, -14511.115, -200976.03, 36815.824, -0.09254952, -0.1989766, -7505.3765, 27798.752, 0.0000012574419, 10.001029, 9.9983835 
2.2350664e+3, 3.0639955e+2, 55663.855, -187292.2, 44981.688, -0.14228459, 0.16833898, 63724.484, 63724.484, 0.000044073433, 10.001321, 9.99804 
2.2350673e+3, 3.1639326e+2, 77629.55, -232209.28, 62562.258, 0.27972156, -0.3052127, 89785.15, 89785.15, 0.00018419352, 10.001746, 9.997489 
2.2451063e+3, 1.564056e+2, -917480.0, -1098110.1, -97548.4, -0.40182295, -0.36134252, -874857.1, 532365.44, 0.42759266, 10.005448, 10.001027 
2.2451055e+3, 1.6641071e+2, -1577871.1, -1498500.3, -86394.09, 0.011475001, 0.10052291, -1443112.6, -133946.88, 0.29616648, 9.99841, 9.999561 
2.2451037e+3, 1.7640896e+2, -1432391.0, -1313694.0, -51595.477, 0.03174464, -0.08300786, -1294401.9, -83216.63, 0.19952731, 9.99853, 10.000067 
2.245101e+3, 1.8640874e+2, -1218336.5, -1082322.5, -1502.6576, -0.022331653, -0.17403327, -1082305.9, 30880.89, 0.13536815, 9.998904, 10.000871 
2.2450984e+3, 1.9640942e+2, -1039782.0, -951003.8, -13894.836, -0.1645438, -0.21015602, -948879.9, 66297.6, 0.09319166, 9.999497, 10.000817 
2.2450967e+3, 2.064107e+2, -983625.9, -995803.75, -61012.645, -0.1038242, -0.11371678, -928399.1, -11233.656, 0.06306426, 9.999733, 9.999702 
2.245096e+3, 2.164117e+2, -900320.75, -917131.6, -118208.836, 0.08549396, 0.007315059, -790218.9, 28938.916, 0.0400799, 9.99972, 9.999562 
2.245094e+3, 2.2641037e+2, -814012.44, -958000.8, -32598.686, 0.068855725, -0.0087156575, -806976.0, -85802.06, 0.023131557, 10.000209, 9.998362 
2.2450913e+3, 2.3640794e+2, -608961.5, -760857.7, -4970.572, -0.07215608, -0.13574615, -608799.0, 14402.383, 0.011994159, 10.000765, 9.998757 
2.2450887e+3, 2.4640726e+2, -449187.16, -594105.25, -13998.054, -0.07598028, -0.091858074, -447847.4, 77360.016, 0.0054928027, 10.001021, 9.999104 
2.2450869e+3, 2.5640798e+2, -314608.63, -440380.16, -18327.074, -0.023078194, 0.007772174, -311992.47, 115204.984, 0.002050329, 10.001159, 9.9993925 
2.2450827e+3, 2.6640704e+2, -389545.34, -635931.1, -88520.66, 0.026005803, 0.076788664, -361039.84, -31830.686, 0.0004876709, 10.000863, 9.997534 
2.2450793e+3, 2.7640495e+2, -238657.66, -450654.34, -48103.277, 0.07507989, 0.069467604, -228253.36, 2982.3174, 0.000047167257, 10.000998, 9.998046 
2.245075e+3, 2.864031e+2, -68730.16, -177927.14, -49572.52, 0.07355692, -0.02780218, -49582.938, 83669.66, 0.00000034188096, 10.000867, 9.999323 
2.2450705e+3, 2.9640052e+2, 38707.76, -164296.94, -48212.516, -0.021826087, -0.20207264, 49576.11, 84848.125, 0.0000013302117, 10.001322, 9.998515 
2.2450691e+3, 3.0640206e+2, 2181.1143, -380976.2, 25993.035, 0.014693053, 0.17025806, 3936.4163, 3936.4163, 0.0000584347, 10.001631, 9.996571 
2.2450691e+3, 3.1639487e+2, 98270.08, -73940.016, -35601.3, 0.2840797, -0.22361808, 105339.77, 105339.77, 0.00025945, 10.001149, 9.998872 
2.2551021e+3, 1.6640934e+2, -1500728.3, -1325796.8, -95731.555, -0.24271105, 0.049488623, -1283590.8, 25587.06, 0.39765337, 9.998297, 10.000895 
2.2551025e+3, 1.7640987e+2, -1332710.3, -1144972.3, -47471.94, -0.010822726, -0.081077866, -1133651.1, 77521.88, 0.29298013, 9.998551, 10.001429 
2.2551018e+3, 1.8641084e+2, -1261309.6, -1117934.0, -4398.04, 0.084300116, -0.10911779, -1117799.3, -4635.43, 0.21888196, 9.998706, 10.000675 
2.2551003e+3, 1.9641198e+2, -1086046.1, -1000240.9, -522.1392, 0.06876241, -0.09252733, -1000237.7, 14915.342, 0.16615056, 9.999313, 10.000531 
2.255098e+3, 2.0641235e+2, -1079601.1, -1154559.0, -65879.85, -0.004071598, -0.029791016, -1041285.4, -124132.83, 0.12546477, 9.999559, 9.998682 
2.2550948e+3, 2.1641111e+2, -965387.9, -1030866.06, -108269.766, -0.030464865, -0.032915864, -885015.56, -65846.7, 0.0914258, 9.999624, 9.998812 
2.255094e+3, 2.2641103e+2, -749837.1, -773102.6, -11846.233, 0.032406647, 0.029348819, -744867.0, -23695.121, 0.062582165, 9.999986, 9.999739 
2.2550945e+3, 2.3641197e+2, -541443.0, -583073.94, 19105.889, 0.1478289, 0.08977293, -534003.94, 89159.664, 0.039919913, 10.000604, 10.000074 
2.2550906e+3, 2.4641035e+2, -528085.3, -636581.25, -25423.29, -0.0092197, -0.0139544755, -522423.47, 2751.754, 0.023601582, 10.000518, 9.999044 
2.255086e+3, 2.5640774e+2, -335337.75, -429506.56, -11215.694, -0.24649645, -0.26636574, -334020.38, 93173.07, 0.012405956, 10.00095, 9.999557 
2.2550827e+3, 2.6640707e+2, -431957.72, -645652.6, -117262.97, -0.10091975, -0.17657016, -380164.13, -50962.01, 0.005154125, 10.000545, 9.997614 
2.255082e+3, 2.7640763e+2, -273129.28, -443315.22, -38260.53, 0.22336538, 0.04068841, -264923.34, -33719.2, 0.0013586987, 10.000672, 9.998244 
2.2550774e+3, 2.8640676e+2, -206440.11, -317915.4, -68168.07, 0.20414029, 0.07496331, -174123.39, -40908.547, 0.00015517221, 10.000285, 9.99862 
2.2550718e+3, 2.9640454e+2, -43944.445, -244555.56, -20124.645, -0.036767248, 0.0034495292, -41945.523, -6709.358, 0.0000026982873, 10.001004, 9.9980755 
2.2550723e+3, 3.0640438e+2, -125344.51, -538817.56, 5677.9746, 0.10562664, 0.24207124, -125266.555, -125266.555, 0.000065484004, 10.00121, 9.995672 
2.2550681e+3, 3.1639633e+2, 243579.52, 364704.2, -42496.055, 0.027170654, -0.13189705, 378126.38, 378126.38, 0.00034262822, 10.000611, 10.002135 
2.2651e+3, 1.7640898e+2, -892598.5, -1438605.4, 45316.434, -0.44090527, -0.7193699, -888862.94, 322304.44, 0.44342524, 10.005681, 9.995919 
2.2651e+3, 1.8641664e+2, -1137126.1, -1347995.5, 106864.83, -0.048848078, 0.15027185, -1092439.0, 20661.729, 0.3585124, 10.000757, 9.998155 
2.2650994e+3, 1.9641326e+2, -1271360.8, -1298308.3, -90718.85, 0.061042894, -0.019909011, -1193120.5, -177979.66, 0.29413474, 9.998969, 9.998593 
2.2650972e+3, 2.064117e+2, -1070873.8, -1083649.1, -80877.43, -0.012744179, -0.10193342, -996132.1, -78972.34, 0.24160613, 9.999266, 9.999323 
2.2650935e+3, 2.1641117e+2, -805550.5, -911962.1, -42916.223, -0.16766712, -0.07754855, -790399.44, 28766.643, 0.1940874, 10.000537, 9.999211 
2.2650927e+3, 2.2641179e+2, -660822.94, -728731.94, 17890.453, -0.12676768, 0.02790362, -656398.06, 64764.918, 0.14888066, 10.000624, 9.999761 
2.2650935e+3, 2.3641309e+2, -680936.3, -645508.75, -76146.5, 0.04681137, 0.13865106, -585042.8, 38110.9, 0.108788945, 9.999597, 10.000151 
2.2650911e+3, 2.464119e+2, -481352.56, -545043.25, -66457.55, 0.0034773743, 0.047480594, -439504.4, 85656.06, 0.07581198, 10.000482, 9.999742 
2.2650881e+3, 2.5640976e+2, -88977.63, -270359.8, -41276.484, -0.19193603, -0.22112286, -80026.26, 347145.9, 0.048806984, 10.002457, 10.000049 
2.2650838e+3, 2.6640877e+2, -166808.05, -519869.6, -190887.22, -0.13485993, -0.17017712, -83336.81, 245845.6, 0.026684597, 10.002341, 9.997646 
2.2650816e+3, 2.7640906e+2, -95267.82, -332287.97, -126099.945, 0.076709904, -0.0063740895, -40729.25, 190457.16, 0.010897145, 10.001725, 9.998534 
2.2650771e+3, 2.8640822e+2, -174391.23, -348812.97, -114160.99, 0.16655174, 0.03690191, -117941.16, 15257.516, 0.002788968, 10.000671, 9.998239 
2.2650747e+3, 2.9640606e+2, 138830.98, -186777.38, -16536.697, 0.095485404, 0.021360882, 139668.69, 174890.6, 0.0003034348, 10.0023985, 9.997805 
2.2650744e+3, 3.064057e+2, 114347.49, -384207.44, 16033.065, 0.12618986, 0.19550316, 114862.57, 114862.57, 0.000074942734, 10.0027485, 9.995987 
2.2650689e+3, 3.163968e+2, 410119.34, 427096.4, -44922.555, -0.014575261, -0.14719886, 464325.38, 464325.38, 0.00045627946, 10.00174, 10.002099 
2.2750966e+3, 2.0640981e+2, -876057.4, -865579.56, -17658.613, -0.04179135, -0.20605235, -852399.1, 64777.88, 0.4526298, 10.000202, 10.000625 
2.2750966e+3, 2.164113e+2, -576113.56, -670217.4, 32881.164, 0.07885437, -0.1767258, -565762.94, 253392.98, 0.38963944, 10.002477, 10.0005455 
2.2750953e+3, 2.2641145e+2, -679967.06, -920273.3, 44353.105, 0.006749851, -0.107547365, -672042.2, 49116.6, 0.32267725, 10.001407, 9.998033 
2.27509e+3, 2.3640966e+2, -818484.06, -847995.3, -53593.82, -0.25850734, -0.17329925, -777651.7, -154464.1, 0.25840095, 9.999258, 9.998858 
2.27509e+3, 2.4641062e+2, -542980.2, -513437.94, 10208.017, -0.20989893, -0.022305433, -510253.84, 14922.295, 0.20062341, 9.999771, 10.000282 
2.2750935e+3, 2.564138e+2, -148542.44, -216505.0, 26786.602, 0.051742148, 0.09876716, -139254.22, 287881.22, 0.14660953, 10.001876, 10.000853 
2.2750859e+3, 2.6641268e+2, -403443.72, -719682.44, -250530.06, -0.19745018, 0.13876969, -265308.06, 63836.92, 0.09444842, 10.001119, 9.996832 
2.2750786e+3, 2.7640986e+2, -153759.47, -323438.13, -149141.3, -0.42484638, -0.03523426, -67015.48, 164161.02, 0.04983968, 10.001236, 9.998806 
2.2750747e+3, 2.8640753e+2, -317664.13, -449612.63, -153999.73, -0.18949708, -0.14152208, -216101.77, -82899.516, 0.019500945, 9.9998665, 9.997909 
2.2750783e+3, 2.9640546e+2, 56506.918, -241867.02, 46029.543, 0.19421941, -0.14826763, 63446.406, 98671.19, 0.004786881, 10.001949, 9.997614 
2.2750744e+3, 3.0640677e+2, 61991.88, -289011.38, -77203.65, -0.18254676, 0.10640255, 78222.42, 78222.42, 0.0007184054, 10.001951, 9.996988 
2.2750689e+3, 3.1639808e+2, -16702.482, -201466.97, 43609.6, -0.23038268, -0.22126447, -6926.6313, -6926.6313, 0.0007782504, 10.000831, 9.998121 
2.2850947e+3, 2.4641703e+2, -333464.66, -335512.53, -30598.242, 0.10575376, 0.126759, -303873.22, 221241.56, 0.45869297, 10.001, 10.00242 
2.2850916e+3, 2.5641653e+2, -615282.56, -590654.3, 100366.41, -0.17509238, 0.11127789, -501849.44, -74740.92, 0.36361384, 9.999004, 9.999524 
2.2850871e+3, 2.6640502e+2, -490338.7, -626385.4, -120422.32, -0.15462276, -0.86486554, -420055.44, -90835.87, 0.26167566, 9.999714, 9.998204 
2.2850852e+3, 2.7641255e+2, 60886.08, -189243.61, 68113.54, 0.058896773, -0.08874772, 78231.45, 309381.7, 0.1640845, 10.002856, 9.999094 
2.2850786e+3, 2.864114e+2, -59369.29, -471225.22, -28751.043, 0.089602284, 0.034994315, -57371.91, 75791.625, 0.0825175, 10.002215, 9.996684 
2.2850803e+3, 2.9640505e+2, 462096.66, -76379.61, 249648.4, 0.0687842, -0.3467857, 560028.1, 595254.6, 0.030766618, 10.004888, 9.997412 
2.2850776e+3, 3.0640838e+2, 577096.94, 41169.73, -53409.793, -0.20882896, 0.08246708, 582367.8, 582367.8, 0.009050235, 10.005058, 9.9978 
2.2850713e+3, 3.1640294e+2, 29836.684, -239236.13, -68810.87, -0.10583164, 0.021717364, 46412.754, 46412.754, 0.003963172, 10.001338, 9.99762 
2.295089e+3, 2.764175e+2, 56125.063, -110498.14, -27747.213, 0.12682235, -0.14295907, 60624.23, 291728.3, 0.434636, 10.003572, 9.99979 
2.2950856e+3, 2.86421e+2, -1094953.9, -1415061.4, -260604.53, 0.5137766, 0.5789439, -949177.75, -816106.6, 0.25417683, 9.99704, 9.99264 
2.2950813e+3, 2.9640743e+2, 226869.13, -214442.44, 338358.44, -0.39683482, -0.49682885, 410163.1, 445364.44, 0.121748835, 10.003778, 9.996953 
2.2950833e+3, 3.0641204e+2, -206409.31, -449294.22, -231169.34, -0.25809285, 0.098924, -66724.33, -66724.33, 0.053884093, 10.000258, 9.996645 
2.2950782e+3, 3.164101e+2, -46536.91, -99901.07, -281401.84, 0.31789643, 0.2849921, 209444.98, 209444.98, 0.03109609, 10.000314, 9.998958 
2.3050725e+3, 2.9639727e+2, -1331187.3, 1491276.4, 104371.42, -0.7234722, -0.1911286, 1495130.6, 1530444.9, 0.36046013, 9.97783, 10.027593 
2.305105e+3, 3.0642244e+2, 1613591.0, 1461320.4, -382594.88, 0.9256036, 0.36584643, 1927552.4, 1927552.4, 0.2131416, 10.010141, 10.007895 
2.305074e+3, 3.1641272e+2, -768614.94, -1248676.9, 463949.78, -0.07964738, -0.351814, -486281.8, -486281.8, 0.16396561, 9.998042, 9.992756 
2.352416e+3, 2.750895e+2, -762460.75, -1735038.9, -384812.88, -0.111272305, -0.4152655, -628622.44, -384484.1, 0.44885066, 10.001123, 9.988402 
2.352023e+3, 2.850985e+2, 1033216.25, 134988.11, -443144.6, 0.49914387, 1.848538, 1215038.5, 1361123.1, 0.35128024, 10.013344, 9.996087 
2.3516291e+3, 2.9507703e+2, 683982.25, 637110.9, 340774.06, -1.0845785, -0.14683683, 1002125.5, 1050404.9, 0.2736515, 10.004919, 10.003743 
2.3512815e+3, 3.0507076e+2, -850798.25, -143215.42, -802849.9, 0.7917893, 0.090374686, 380339.34, 380339.34, 0.21896468, 9.994178, 10.002473 
2.3662573e+3, 1.7555568e+2, -1598460.0, -910933.75, -164952.5, 0.31911072, 0.9791359, -873406.44, 346190.0, 0.43640727, 9.993672, 10.006223 
2.3658684e+3, 1.8553999e+2, -568748.75, -1077206.0, 247756.53, 0.0911865, 0.09233533, -467990.75, 653753.5, 0.3775988, 10.007145, 9.996472 
2.3654886e+3, 1.9553222e+2, -1021359.06, -1312837.6, 315795.9, 0.25824645, 0.27094388, -819295.25, 204531.27, 0.33353588, 10.0012865, 9.996855 
2.3651001e+3, 2.0552897e+2, -95097.336, -365438.88, -137939.33, -0.43226197, 0.76370823, -37140.18, 888715.8, 0.30097756, 10.006676, 10.001526 
2.3647143e+3, 2.1551614e+2, -1387562.3, -866088.56, -81669.2, -0.48357522, -0.033000194, -853597.4, -25625.71, 0.27814138, 9.994461, 10.001772 
2.3643433e+3, 2.2551212e+2, -415826.3, -872987.9, 72878.984, 0.64141923, 0.34537578, -404489.38, 325518.4, 0.26103863, 10.003821, 9.996505 
2.3639585e+3, 2.3550168e+2, 277404.28, -396073.28, 55749.594, 0.055763237, 0.26792237, 281987.97, 914101.06, 0.24561478, 10.008775, 9.99728 
2.3635761e+3, 2.4549383e+2, 583754.1, -455076.9, 0.58149904, 0.67486054, 0.6446667, 583754.1, 1117943.3, 0.23008043, 10.011848, 9.994369 
2.3631823e+3, 2.5547826e+2, -474170.16, -751564.25, 73234.01, 0.3727033, 0.37627625, -456023.06, -19686.21, 0.20982563, 10.000294, 9.99708 
2.3627813e+3, 2.6547134e+2, -49482.566, 682282.6, -141808.64, -0.6789957, -0.069455504, 708802.6, 1047207.5, 0.17455001, 9.996899, 10.009519 
2.3624077e+3, 2.7546918e+2, -545603.3, -338641.44, 93562.79, -0.24771573, -0.20589481, -302615.03, -62181.25, 0.12469901, 9.997169, 10.000044 
2.3620258e+3, 2.854635e+2, 162148.81, -667405.8, -500368.47, 0.44615498, 0.2940962, 397301.38, 539801.75, 0.08165084, 10.004604, 9.993667 
2.361648e+3, 2.9546154e+2, -99901.836, -210090.1, 198664.86, 1.0553323, 0.9185904, 51166.805, 95697.99, 0.054891597, 10.00007, 9.998549 
2.3612544e+3, 3.0545157e+2, -200752.66, -292686.56, -188657.45, -0.7021648, 1.014501, -52542.895, -52542.895, 0.039085604, 9.999802, 9.99819 
2.3770325e+3, 1.5594043e+2, -2421842.8, -1614746.4, 470086.28, 0.67370284, -0.3758478, -1398752.6, 13059.871, 0.40916008, 9.99109, 10.002331 
2.3766328e+3, 1.6593958e+2, -1173581.0, -1207275.6, 74317.6, -0.62522936, 0.18518126, -1114225.1, 199596.4, 0.31914034, 10.000693, 10.000046 
2.3762551e+3, 1.759363e+2, -774247.25, -976628.44, -110032.234, 0.5062137, 0.5288138, -725950.0, 489900.4, 0.25440004, 10.003335, 9.999983 
2.3758714e+3, 1.8592668e+2, -699615.3, -932538.56, 11129.594, 0.7606886, 0.34589663, -699084.7, 418859.2, 0.20803122, 10.003222, 9.999408 
2.3754852e+3, 1.9591695e+2, -917129.8, -1055018.8, 94712.4, 0.5383388, 0.14898093, -868925.75, 151115.31, 0.17323056, 10.000623, 9.99893 
2.3750971e+3, 2.0590907e+2, -942823.2, -1134764.5, 42228.004, -0.009908911, 0.27053925, -933943.6, -11820.364, 0.14628343, 10.00009, 9.997894 
2.374707e+3, 2.1590263e+2, -635210.06, -857218.25, -132005.28, -0.58812857, 0.514817, -573740.1, 250452.4, 0.1255341, 10.001429, 9.998533 
2.3743227e+3, 2.2589402e+2, -863344.7, -925179.5, -86669.47, -0.66067976, 0.50978357, -802243.2, -75965.97, 0.10829949, 9.999032, 9.998489 
2.3739398e+3, 2.3588225e+2, -1429296.1, -1095639.4, -100444.22, -0.62748176, 0.22715606, -1067735.3, -439345.8, 0.09199208, 9.994265, 9.9989395 
2.3735505e+3, 2.458747e+2, -1163561.0, -743139.44, -266522.75, -0.662851, 0.18605338, -613905.2, -83444.805, 0.07586676, 9.994624, 10.00055 
2.3731634e+3, 2.558679e+2, -719512.56, -741829.2, -43185.887, -0.5274892, 0.34151003, -686066.75, -253542.92, 0.059159193, 9.998243, 9.998081 
2.3727776e+3, 2.658616e+2, 80101.695, 192696.52, 6942.9106, -0.28233957, 0.36215824, 193123.02, 527706.5, 0.040411934, 10.000867, 10.002763 
2.3724002e+3, 2.7585492e+2, -438796.22, -408548.44, 221883.05, -0.07167842, 0.26367238, -201274.44, 35373.574, 0.021717517, 9.9986315, 9.998743 
2.3720156e+3, 2.8584704e+2, -408178.16, -593037.25, -158412.31, 0.0792349, 0.4720718, -317201.94, -178472.97, 0.009486679, 9.999323, 9.996402 
2.3716341e+3, 2.9584092e+2, -156092.3, -13305.913, 400317.97, 0.39363363, 0.6125065, 321935.22, 362731.4, 0.0043370537, 9.9989805, 10.000159 
2.3712566e+3, 3.0582866e+2, 372790.66, 257423.56, 372468.66, 0.044871267, 0.296374, 692016.0, 692016.0, 0.0025580786, 10.002568, 10.000276 
2.3873878e+3, 1.4633404e+2, -1262813.8, -1310903.1, 44139.137, -0.57241344, 0.062137056, -1236595.0, 269361.75, 0.38967893, 10.001778, 10.0006485 
2.3870105e+3, 1.5633473e+2, -1652507.1, -1507903.4, -194228.94, -0.40492517, 0.709822, -1372955.5, 34995.727, 0.2783623, 9.997714, 9.999918 
2.386628e+3, 1.663257e+2, -1576945.4, -1346880.1, -271696.7, -0.32528242, 0.48546603, -1166867.6, 143169.08, 0.19862524, 9.997348, 10.000536 
2.386242e+3, 1.7631425e+2, -1193113.4, -1197018.5, -151631.5, -0.2795292, -0.03135105, -1043421.9, 168722.1, 0.1461588, 9.999678, 9.999757 
2.3858558e+3, 1.863067e+2, -965797.4, -1094367.8, -27169.572, -0.32616818, 0.0077987, -960291.6, 153925.73, 0.11113541, 10.000945, 9.999069 
2.3854703e+3, 1.9629979e+2, -865638.06, -1038441.8, -75058.9, -0.3753938, 0.094064176, -837588.56, 178698.33, 0.08556882, 10.000993, 9.998821 
2.3850875e+3, 2.0629326e+2, -958905.7, -1123999.8, 29764.75, -0.2979361, 0.31085008, -953703.4, -35345.785, 0.065839775, 9.999993, 9.997984 
2.3847036e+3, 2.1628673e+2, -1066498.6, -1142639.3, 86959.055, -0.29862157, 0.5770537, -1009641.44, -189209.44, 0.050802168, 9.998633, 9.997867 
2.3843223e+3, 2.262789e+2, -867746.44, -704298.0, 100474.555, 0.11050873, 0.58084416, -656507.8, 66001.68, 0.038884565, 9.998115, 10.000437 
2.3839444e+3, 2.3626922e+2, -934246.1, -812214.94, 45701.125, 0.89107907, 0.36976758, -796997.4, -172398.48, 0.028499383, 9.997523, 9.999324 
2.3835541e+3, 2.462603e+2, -494984.5, -344032.8, -23941.234, 0.7399664, 0.15391865, -340326.7, 186355.69, 0.019239577, 9.998969, 10.001177 
2.3831616e+3, 2.5625098e+2, -451343.1, -562651.25, 59702.426, 0.07871704, -0.03568717, -425377.6, 3393.07, 0.011432521, 9.999956, 9.99847 
2.382775e+3, 2.6624566e+2, 25419.83, -135424.92, -44479.34, 0.00076522573, 0.21498698, 36900.504, 367718.7, 0.005416997, 10.001927, 9.999773 
2.3823942e+3, 2.762408e+2, -244859.34, -388767.53, 62997.594, 0.07632052, 0.47509834, -221178.25, 11682.237, 0.001679893, 10.000293, 9.998086 
2.3820047e+3, 2.862305e+2, 40250.51, -60737.56, -194158.8, -0.31292394, 0.32511768, 190373.73, 325333.5, 0.00032890253, 10.001026, 9.999267 
2.3816197e+3, 2.9622373e+2, -222032.56, -46746.934, 152266.61, -0.36250326, 0.1999384, 41298.57, 78325.836, 0.000101577105, 9.998402, 10.000304 
2.381261e+3, 3.062111e+2, -433899.63, 68625.54, 378357.56, 0.92105097, -0.26118916, 271551.63, 271551.63, 0.00014331771, 9.99603, 10.00222 
2.3977676e+3, 1.3673069e+2, -1808874.5, -1167145.0, 418705.25, -0.21674481, 1.5218313, -960498.4, 639590.9, 0.4278238, 9.994976, 10.007367 
2.3973918e+3, 1.4671633e+2, -1408481.9, -1540085.9, -143836.02, 0.32041582, 0.48860595, -1316110.9, 186115.7, 0.2998544, 10.000903, 9.998896 
2.3970051e+3, 1.567092e+2, -1625527.5, -1578501.6, -218954.64, -0.039637018, 0.607098, -1381801.0, 22500.133, 0.19614406, 9.998193, 9.999209 
2.3966208e+3, 1.667042e+2, -1138004.9, -688490.06, -168769.22, -0.0985242, 0.5279735, -632180.0, 674162.1, 0.12585048, 9.998156, 10.005182 
2.3962376e+3, 1.7669958e+2, -905939.94, -680624.94, -85957.04, -0.009100366, 0.26935548, -651577.4, 556795.3, 0.083471425, 9.999927, 10.003444 
2.3958528e+3, 1.866928e+2, -957858.4, -1192449.8, -35140.87, -0.013521012, 0.27569687, -952707.56, 157730.38, 0.057587944, 10.001311, 9.998229 
2.3954678e+3, 1.9668494e+2, -753231.4, -1006738.3, -56238.53, -0.0657183, 0.3704018, -741315.44, 271205.28, 0.03970386, 10.001821, 9.998622 
2.3950833e+3, 2.0667821e+2, -628721.6, -585590.94, -33986.836, -0.049417965, 0.38012388, -566905.0, 347684.9, 0.026570952, 10.00068, 10.001397 
2.3946983e+3, 2.1667185e+2, -783529.0, -658209.8, 81654.98, -0.015869254, 0.35583457, -617943.44, 198710.97, 0.017417854, 9.999094, 10.000974 
2.3943129e+3, 2.2666559e+2, -709200.56, -602827.7, 126713.62, 0.042923346, 0.3731103, -518590.94, 200123.22, 0.011141793, 9.999103, 10.000655 
2.3939289e+3, 2.3665775e+2, -567847.7, -630962.56, 122746.32, 0.15496537, 0.34399283, -472667.1, 148119.55, 0.0065593217, 10.000038, 9.999326 
2.3935403e+3, 2.466494e+2, -259861.28, -409409.03, 48523.305, 0.0065791, 0.29000333, -245496.81, 277368.2, 0.0032030866, 10.0014, 9.999499 
2.3931526e+3, 2.5664067e+2, -258727.66, -590685.3, 133289.25, -0.26601815, 0.30156845, -211833.3, 213113.66, 0.0011282732, 10.001844, 9.997319 
2.392769e+3, 2.666307e+2, -152246.19, -485349.28, 15455.484, -0.07271027, 0.3015099, -151530.61, 175509.61, 0.00023273825, 10.001902, 9.997336 
2.3923892e+3, 2.7661917e+2, -257827.34, -418107.2, 46973.83, 0.20561565, 0.098463774, -245075.14, -15927.34, 0.000018051116, 10.000346, 9.9978 
2.3919998e+3, 2.866074e+2, -95225.97, -132417.0, -178465.42, -0.15854457, -0.19593379, 65610.12, 196870.67, 0.000004039042, 10.000157, 9.999146 
2.3916133e+3, 2.9660246e+2, -120047.41, -166251.19, -451.97382, -0.19853562, -0.0038583695, -120042.99, -86734.26, 0.00001362104, 9.99976, 9.998827 
2.3912434e+3, 3.065954e+2, -622194.2, 50723.043, -164077.14, 0.50440824, 0.22255532, 88598.11, 88598.11, 0.000054133918, 9.994367, 10.002938 
2.408139e+3, 1.2710099e+2, -1262513.1, -1519206.5, 251699.78, 0.20902255, -0.61057943, -1108325.5, 586121.94, 0.49043462, 10.005904, 9.9987335 
2.4077658e+3, 1.3710119e+2, -1717382.4, -1730430.3, 203031.22, 0.4510257, 0.19900714, -1520770.4, 75682.484, 0.36336103, 9.999159, 9.999047 
2.4073845e+3, 1.470965e+2, -1633725.5, -1406617.5, 22553.93, 0.38571635, 0.36880556, -1404399.4, 94100.664, 0.24041095, 9.997937, 10.001188 
2.4069974e+3, 1.5708968e+2, -1442105.4, -1286227.9, 121467.77, 0.03564612, 0.2996678, -1219844.5, 180721.47, 0.14389461, 9.998652, 10.001044 
2.4066131e+3, 1.6708636e+2, -1129242.0, -782476.8, 95349.15, -0.0038976085, 0.42829502, -757988.25, 544605.9, 0.08188297, 9.998812, 10.003915 
2.406231e+3, 1.7708363e+2, -1170916.9, -853966.56, -92284.93, 0.14803341, 0.4897244, -829054.5, 375559.4, 0.047678713, 9.998218, 10.002889 
2.4058467e+3, 1.8707721e+2, -1230091.0, -1051479.8, -15324.476, 0.120437466, 0.39653167, -1050174.5, 56498.016, 0.028905774, 9.998241, 10.000663 
2.4054614e+3, 1.9706964e+2, -1200012.1, -1066116.6, 115918.72, 0.02015086, 0.31220526, -999202.0, 9543.51, 0.017015342, 9.998043, 10.000031 
2.4050762e+3, 2.0706359e+2, -984208.2, -767778.7, 26173.854, 0.023669941, 0.361727, -764658.4, 146150.86, 0.00915297, 9.998297, 10.001241 
2.4046914e+3, 2.1705785e+2, -915979.0, -760962.75, -119310.71, 0.15027438, 0.40855244, -696194.56, 116676.18, 0.0045936005, 9.998417, 10.000579 
2.4043044e+3, 2.2705129e+2, -736690.0, -669206.3, -118460.43, 0.0056918873, 0.40428752, -579776.0, 135158.75, 0.0022051786, 9.999168, 10.000152 
2.4039172e+3, 2.3704302e+2, -669590.56, -730037.3, -149306.0, -0.28427014, 0.3349666, -547479.7, 69532.586, 0.0009056362, 9.999589, 9.998865 
2.40353e+3, 2.4703607e+2, -389532.8, -466650.88, -162112.45, -0.3847975, 0.39907002, -261456.77, 257618.5, 0.00023937336, 10.000577, 9.999456 
2.4031456e+3, 2.570289e+2, -590163.8, -817694.8, -18516.443, -0.36393312, 0.5258818, -588666.75, -167526.83, 0.000025130046, 9.999869, 9.996729 
2.4027629e+3, 2.67016e+2, -372996.97, -760287.06, -24976.99, -0.123116456, 0.3559874, -371392.8, -48131.004, 0.00000030344088, 10.001161, 9.995793 
2.4023823e+3, 2.7700067e+2, -260560.31, -472734.7, 291.3743, 0.16215026, -0.1367927, -260559.9, -35152.09, 0.000000006555133, 10.000544, 9.997371 
2.4019949e+3, 2.869895e+2, 73633.516, 2522.2478, -67299.69, 0.03214963, -0.41825306, 114192.61, 241706.22, 0.00000087941476, 10.001105, 9.999623 
2.4016082e+3, 2.9698426e+2, -347002.7, -506451.16, 109899.766, -0.06758678, -0.15435433, -290955.38, -261392.75, 0.0000072209577, 9.999217, 9.996765 
2.4012266e+3, 3.0698273e+2, -438606.28, -5840.9995, -95299.51, -0.081424385, 0.7744705, 14215.449, 14215.449, 0.00003484927, 9.996282, 10.00158 
2.4181318e+3, 1.2750141e+2, -1501329.6, -1885189.3, 120965.83, -0.34551603, 0.8452564, -1466389.9, 224128.75, 0.44509998, 10.003658, 9.996367 
2.4177541e+3, 1.3748607e+2, -1718564.4, -1882151.6, 146627.27, 0.0046229754, 0.3939258, -1632459.9, -39780.523, 0.31930807, 9.999667, 9.997669 
2.4173726e+3, 1.474791e+2, -1327981.1, -962174.06, 67036.09, 0.06567486, 0.19650824, -950276.3, 544465.7, 0.20041417, 9.998669, 10.004614 
2.4169883e+3, 1.5747452e+2, -1282995.8, -1021697.06, 112131.086, -0.07412474, 0.034763724, -980176.06, 416599.5, 0.110025235, 9.998917, 10.002879 
2.4166048e+3, 1.6747029e+2, -1380912.3, -1349275.4, 47870.727, -0.028943283, 0.25255752, -1314677.3, -15855.901, 0.054970514, 9.999069, 9.99956 
2.416222e+3, 1.7746583e+2, -1260298.3, -1132779.3, -84721.445, 0.09161434, 0.55630964, -1090505.8, 110368.19, 0.027314784, 9.998663, 10.000651 
2.4158365e+3, 1.874598e+2, -857074.7, -381235.1, -17345.717, -0.025370698, 0.31377795, -380603.63, 722318.2, 0.013986388, 9.998649, 10.005147 
2.4154499e+3, 1.9745295e+2, -935246.9, -648536.25, 112331.8, -0.25402266, -0.111057036, -609767.5, 395204.4, 0.006556314, 9.998566, 10.002669 
2.4150662e+3, 2.0744821e+2, -1182881.3, -1286931.4, 19113.299, -0.09258234, 0.20369337, -1179481.4, -272452.72, 0.002469395, 9.998749, 9.997465 
2.4146836e+3, 2.1744381e+2, -1009427.5, -1146916.9, -90915.83, 0.19910479, 0.76099986, -964191.8, -155100.13, 0.00078321603, 9.999192, 9.997565 
2.4142979e+3, 2.2743504e+2, -719204.0, -762513.25, -113131.72, 0.09053642, 0.7137482, -625673.1, 85509.09, 0.00023610769, 9.999686, 9.999266 
2.413911e+3, 2.3742412e+2, -587379.6, -678400.3, -134632.55, -0.19883631, 0.44565076, -490773.4, 122514.01, 0.000047296035, 10.000074, 9.998979 
2.4135259e+3, 2.4741636e+2, -322037.88, -248217.11, -187999.1, -0.13413157, 0.33339363, -93539.305, 421815.44, 0.0000020598873, 10.000233, 10.001134 
2.4131426e+3, 2.5740936e+2, -466547.47, -514226.63, -32915.746, 0.06121326, 0.29518598, -449745.06, -32332.563, 0.0, 9.999655, 9.9988985 
2.4127586e+3, 2.6739898e+2, -437609.97, -746554.9, 41562.47, 0.061733246, 0.27737173, -432116.25, -112604.766, 0.0, 10.000568, 9.99615 
2.4123745e+3, 2.7738753e+2, -45773.316, -269026.63, 30539.117, -0.040177155, 0.16003156, -41671.203, 179952.4, 0.0, 10.001518, 9.998317 
2.4119888e+3, 2.8737912e+2, 292104.44, 321910.4, -103257.77, 0.0068544773, -0.0035293007, 411335.13, 535035.3, 0.0000001537889, 10.001588, 10.001646 
2.411605e+3, 2.9737452e+2, 33419.35, -218771.28, 93665.95, 0.22949873, 0.17843527, 64401.53, 90139.805, 0.000003139397, 10.001273, 9.997768 
2.4112213e+3, 3.0736265e+2, -288213.13, -370394.63, -153634.56, 0.3036001, 0.2521567, -170269.2, -170269.2, 0.000017281642, 9.999063, 9.997779 
2.4281284e+3, 1.2788413e+2, -1450469.0, -1628311.3, 76692.55, -0.25490052, 0.520976, -1421964.8, 264804.38, 0.4141129, 10.00273, 9.998801 
2.4277471e+3, 1.3787584e+2, -1549672.4, -1702644.9, 194072.08, -0.008641776, 0.5433895, -1417558.3, 171296.67, 0.28877336, 10.000713, 9.998536 
2.427364e+3, 1.4786786e+2, -1411533.0, -1254762.3, 119678.76, 0.030175569, 0.41186616, -1190083.8, 300846.88, 0.17287979, 9.999267, 10.001769 
2.4269797e+3, 1.5786035e+2, -1515592.3, -1335801.3, -62523.035, -0.04007517, 0.21946603, -1316196.4, 76802.32, 0.08747846, 9.998136, 10.000885 
2.426596e+3, 1.678539e+2, -1502585.8, -1380917.6, -43464.004, -0.030295677, 0.2506654, -1366986.0, -71922.47, 0.038149297, 9.998093, 9.999826 
2.4262124e+3, 1.7784804e+2, -1341796.9, -1188710.6, 34560.06, 0.045402512, 0.40223435, -1181270.1, 15855.9, 0.01570925, 9.998192, 10.000479 
2.425827e+3, 1.8784235e+2, -920096.1, -522770.16, -54171.027, -0.103406765, 0.26436254, -515516.94, 583655.6, 0.0064830934, 9.998695, 10.00411 
2.4254408e+3, 1.9783643e+2, -966529.75, -745139.1, -256765.05, -0.29521632, -0.00043651933, -576224.5, 424991.63, 0.0021827125, 9.99875, 10.0019 
2.4250579e+3, 2.0783061e+2, -991158.2, -1154440.8, -198825.44, -0.12467299, 0.16592737, -857864.94, 45413.16, 0.00044835047, 9.999911, 9.997807 
2.424676e+3, 2.178248e+2, -830022.9, -1079101.4, -34544.32, 0.18174472, 0.54704064, -825320.75, -19971.992, 0.000068581576, 10.000561, 9.99737 
2.42429e+3, 2.278165e+2, -759509.3, -815466.8, 8333.035, 0.084990524, 0.5854267, -758294.7, -50857.61, 0.0000096515805, 9.999684, 9.998857 
2.4239038e+3, 2.3780641e+2, -970774.1, -908713.7, -2368.6665, -0.114402175, 0.44202092, -908623.44, -299084.28, 0.00000040342232, 9.99771, 9.998533 
2.4235195e+3, 2.4779819e+2, -566478.0, -342634.1, -109731.06, 0.026568288, 0.29277533, -297816.03, 213796.9, 0.0, 9.998507, 10.001298 
2.423137e+3, 2.577906e+2, -585777.4, -527671.3, -103784.945, 0.2812952, 0.15091541, -448949.63, -35272.66, 0.0, 9.998699, 9.99928 
2.4227527e+3, 2.6778227e+2, -403640.56, -620777.9, 35332.55, 0.13926013, 0.23362863, -398035.94, -82278.14, 0.0, 10.000381, 9.99707 
2.4223676e+3, 2.7777377e+2, -201449.48, -403609.53, -537.48724, -0.15493657, 0.3562554, -201448.06, 16395.326, 0.0, 10.000728, 9.99779 
2.4219817e+3, 2.8776646e+2, 39559.734, 184116.19, -250181.75, -0.07474189, 0.3388165, 372251.2, 492160.3, 0.0000000009564638, 9.999983, 10.001447 
2.4216e+3, 2.9776073e+2, -612168.3, -510559.22, -136649.61, 0.36951405, 0.34699076, -415575.47, -393618.66, 0.0000004799063, 9.996817, 9.997927 
2.4212143e+3, 3.077434e+2, 168933.64, -429071.56, -382328.06, 0.2297384, -0.1550021, 355294.1, 355294.1, 0.0000055147566, 10.003405, 9.995306 
2.4381243e+3, 1.2826641e+2, -1375234.5, -1375191.1, 32031.879, -0.2659034, 0.086105146, -1343180.9, 339844.25, 0.39271495, 10.001939, 10.001997 
2.4377412e+3, 1.382668e+2, -1564647.5, -1598056.6, 102692.05, 0.031972215, 0.69995284, -1477310.3, 107707.16, 0.26710206, 9.999957, 9.999572 
2.4373564e+3, 1.4825755e+2, -1728073.5, -1912314.4, 88972.84, 0.049724173, 0.71861124, -1692122.3, -205008.2, 0.15331793, 9.999321, 9.996908 
2.4369709e+3, 1.5824568e+2, -1635188.9, -1675082.1, -26182.025, -0.04578519, 0.551089, -1622221.0, -232983.13, 0.07196278, 9.998556, 9.998313 
2.4365869e+3, 1.682374e+2, -1229926.5, -967630.6, -6730.7646, -0.047849536, 0.32564092, -967458.06, 323854.28, 0.027363949, 9.998704, 10.002448 
2.436203e+3, 1.7823032e+2, -1225354.6, -1074694.9, 44578.168, -0.04994083, 0.12675336, -1062493.0, 130879.164, 0.009079448, 9.998761, 10.000975 
2.4358186e+3, 1.8822503e+2, -1228441.4, -1225198.6, -52049.168, -0.106068164, 0.33795917, -1174745.6, -79320.34, 0.002868925, 9.998988, 9.999111 
2.435434e+3, 1.9821967e+2, -1038889.75, -999603.1, -214570.52, -0.18850066, 0.59216595, -803778.6, 193701.4, 0.00059867656, 9.999181, 9.999941 
2.435051e+3, 2.0821033e+2, -629418.3, -471676.1, -144213.14, -0.10910724, 0.18674992, -386175.4, 513383.94, 0.000045539302, 10.000175, 10.0023775 
2.4346682e+3, 2.1820015e+2, -522643.9, -557469.4, -4072.2341, 0.007241322, -0.30044034, -522174.06, 279471.5, 0.0000022398012, 10.001036, 10.000711 
2.4342817e+3, 2.2819455e+2, -728706.4, -796760.94, -40468.516, -0.017085183, -0.09811352, -709860.6, -6154.672, 0.000000052409952, 9.999874, 9.998897 
2.433895e+3, 2.3818956e+2, -926694.8, -895276.7, -3960.4998, -0.083856314, 0.26727432, -894785.1, -289019.9, 0.0, 9.998026, 9.998469 
2.4335103e+3, 2.4818166e+2, -764390.1, -695556.2, -55828.75, -0.012353742, 0.31345096, -664388.25, -156542.81, 0.0, 9.998224, 9.999031 
2.4331267e+3, 2.5817302e+2, -588170.0, -589580.56, -60754.918, 0.069421075, 0.2713855, -528116.25, -118186.35, 0.0, 9.998895, 9.998757 
2.4327447e+3, 2.681648e+2, -264559.44, -366736.38, 68829.43, 0.01155982, 0.28294024, -229930.22, 82078.88, 0.0, 10.000446, 9.998822 
2.432363e+3, 2.7815676e+2, 9315.965, -253799.19, -6157.5825, -0.06733139, 0.31804317, 9459.989, 223547.78, 0.0, 10.001871, 9.998284 
2.4319746e+3, 2.8814724e+2, -125541.336, -258248.89, -354533.53, -0.040852685, 0.2742061, 168794.3, 284976.2, 0.0, 10.000314, 9.998291 
2.4315883e+3, 2.9813802e+2, -430195.53, -401941.8, -101228.32, 0.16897047, 0.19549707, -313859.38, -295587.3, 0.000000008678429, 9.997898, 9.998163 
2.4312131e+3, 3.081296e+2, 1084433.0, 455134.9, -72894.46, 0.1887684, 0.29027703, 1092766.4, 1092766.4, 0.0000009202062, 10.0075655, 9.999495 
2.4485107e+3, 1.18664145e+2, -1607599.4, -1706402.6, 168984.27, 0.5113198, 0.40576482, -1480943.6, 296189.25, 0.4945417, 10.00202, 9.99971 
2.4481212e+3, 1.2865536e+2, -1658637.6, -1601692.9, -5187.916, 0.11469994, 0.21243626, -1601224.1, 77987.12, 0.3775347, 9.999456, 10.000623 
2.4477342e+3, 1.3864931e+2, -1906662.9, -1791104.9, -31572.533, 0.18880212, 0.29237095, -1783041.4, -201778.89, 0.25111946, 9.997581, 9.999301 
2.4473476e+3, 1.4864103e+2, -1810213.9, -1897347.5, 132441.19, 0.015323728, 0.3675481, -1714357.8, -231010.92, 0.13882844, 9.998507, 9.997414 
2.4469621e+3, 1.5863143e+2, -1526189.1, -1669353.6, 216949.56, -0.12076491, 0.4151992, -1369317.5, 16129.982, 0.060861234, 9.999562, 9.997847 
2.4465793e+3, 1.686229e+2, -1155690.5, -1158393.1, 115201.86, -0.03843397, 0.33696708, -1041832.06, 245697.66, 0.02025213, 10.000317, 10.000266 
2.4461965e+3, 1.7861459e+2, -1096350.8, -1204171.1, -72511.11, 0.06863213, 0.22166315, -1059905.1, 129701.75, 0.0052852775, 10.000498, 9.999233 
2.4458115e+3, 1.8860756e+2, -1235812.1, -1337741.8, -61106.98, -0.0195387, 0.36109808, -1207206.4, -115527.34, 0.0012089658, 9.999436, 9.998108 
2.4454263e+3, 1.986008e+2, -1275316.3, -1174180.4, 16493.266, -0.09865816, 0.5841502, -1171558.6, -177808.56, 0.00012403581, 9.997867, 9.999366 
2.445043e+3, 2.0859167e+2, -888898.1, -505946.7, -24639.033, -0.07639806, 0.17746897, -504367.94, 391456.2, 0.000001917801, 9.998064, 10.003124 
2.4446604e+3, 2.185816e+2, -915777.5, -717989.0, -174523.89, -0.012072774, -0.3855076, -616287.5, 181615.33, 0.000000018702426, 9.998258, 10.000933 
2.4442737e+3, 2.28576e+2, -806872.44, -844467.4, -287245.34, -0.032045722, -0.21241027, -537810.2, 162150.66, 0.0, 9.999384, 9.998797 
2.443887e+3, 2.3857151e+2, -742476.7, -883201.9, -230883.06, -0.040370986, 0.1854017, -571472.6, 30542.254, 0.0, 9.9996605, 9.997765 
2.4435024e+3, 2.4856348e+2, -464573.75, -690873.25, -156739.39, -0.008645789, 0.29625788, -384410.0, 119689.12, 0.0, 10.000969, 9.997699 
2.4431187e+3, 2.5855452e+2, -302579.16, -557835.25, -93752.83, -0.0065935515, 0.33056137, -271845.25, 134345.97, 0.0, 10.00135, 9.997795 
2.4427366e+3, 2.6854664e+2, -305010.56, -279013.66, -3365.2585, -0.11993681, 0.32704678, -278585.1, 29682.588, 0.0, 9.999717, 9.999775 
2.4423558e+3, 2.7853876e+2, -697195.6, -615695.0, -145282.08, -0.14364439, 0.27924448, -505556.38, -295212.84, 0.0, 9.997148, 9.998095 
2.4419683e+3, 2.885281e+2, -188727.47, -508504.97, -404002.94, 0.012664616, 0.22208957, 85875.2, 198329.69, 0.0, 10.000886, 9.996278 
2.4415803e+3, 2.985174e+2, 117140.414, -179043.66, 17582.846, 0.041937854, 0.16884574, 118180.56, 132746.48, 0.0, 10.001877, 9.997796 
2.4412085e+3, 3.0851236e+2, -83285.94, 370310.03, 458334.5, -0.15973587, 0.27970767, 654890.44, 654890.44, 0.00000009984614, 9.997753, 10.003512 
2.4584985e+3, 1.1905593e+2, -1761147.9, -1819128.0, 12271.899, -0.23953162, 0.7749301, -1758657.5, 14630.891, 0.48539782, 10.00005, 9.999193 
2.4581182e+3, 1.2904364e+2, -1763854.3, -1820364.4, -152850.36, 0.59043795, 0.36429536, -1636669.4, 38733.406, 0.36593348, 9.99964, 9.998769 
2.4577254e+3, 1.3902879e+2, -1748817.1, -1743055.0, -64128.535, 0.231326, -0.27850056, -1681742.9, -104205.27, 0.23856215, 9.998831, 9.999002 
2.4573381e+3, 1.4902265e+2, -1480328.6, -1441397.8, 128366.33, -0.093878165, -0.17075042, -1331029.4, 148563.5, 0.1275105, 9.999526, 10.000123 
2.4569531e+3, 1.5901764e+2, -1426998.4, -1618007.4, 201020.89, -0.30054983, 0.10643716, -1299948.4, 81692.23, 0.052560914, 10.000259, 9.997851 
2.4565728e+3, 1.6900897e+2, -1441302.5, -1827405.8, 115978.52, -0.041139785, 0.33875528, -1409143.3, -125406.586, 0.01541553, 10.000617, 9.995514 
2.4561921e+3, 1.7899923e+2, -1234361.3, -1506195.8, -64027.234, 0.23828183, 0.5111277, -1220035.5, -34191.7, 0.0031067657, 10.00055, 9.997135 
2.455805e+3, 1.8898925e+2, -1068725.5, -1027505.6, -101445.26, 0.08644154, 0.28783748, -944597.94, 143341.78, 0.00048131414, 9.999578, 10.000175 
2.4554172e+3, 1.989797e+2, -1191852.8, -1085082.4, 17.988832, -0.12748621, 0.05734994, -1085082.4, -95053.32, 0.000015932997, 9.998215, 9.999794 
2.4550347e+3, 2.0897445e+2, -1069170.8, -929728.2, -16567.895, -0.035463903, 0.23755227, -927786.7, -35709.727, 0.0000000054715246, 9.998265, 10.000119 
2.4546528e+3, 2.1896929e+2, -959229.9, -912687.3, -164942.33, 0.089971535, 0.44408995, -769382.7, 24740.898, 0.0, 9.998676, 9.9994 
2.4542668e+3, 2.2896042e+2, -784445.5, -831877.6, -270944.6, 0.049204707, 0.34728926, -536181.0, 160030.19, 0.0, 9.999486, 9.998866 
2.4538803e+3, 2.3895083e+2, -622134.6, -776149.9, -212021.31, -0.008774023, 0.23469628, -473569.22, 124738.02, 0.0, 10.000217, 9.99824 
2.4534978e+3, 2.4894165e+2, -345017.38, -597217.9, -128951.22, 0.105476566, 0.20242257, -290757.75, 209638.66, 0.0, 10.001601, 9.998063 
2.453116e+3, 2.589327e+2, -82894.78, -398754.38, -136971.11, 0.17233473, 0.20963751, -31772.178, 370710.8, 0.0, 10.00255, 9.998328 
2.4527285e+3, 2.6892495e+2, -391839.4, -383248.25, -196069.42, -0.1712579, 0.23283742, -191427.34, 113133.23, 0.0, 9.999307, 9.999299 
2.4523418e+3, 2.7891755e+2, -816570.7, -645207.5, -203833.92, -0.45427692, 0.2718128, -509779.16, -303143.38, 0.0, 9.996123, 9.998402 
2.4519631e+3, 2.8890967e+2, -9671.154, -344554.72, -202859.47, 0.073728666, 0.4328746, 85924.54, 194644.92, 0.0, 10.001687, 9.997049 
2.4515848e+3, 2.9890105e+2, 872502.1, 194723.98, -114993.79, 0.576331, 0.5476262, 891480.9, 902291.94, 0.0, 10.006873, 9.997979 
2.4511944e+3, 3.0889037e+2, -730416.0, 30253.826, -169723.42, -0.31397533, 0.19919986, 66405.03, 66405.03, 0.000000000000427524, 9.9932785, 10.003348 
2.468489e+3, 1.1943409e+2, -2396622.8, -2249688.5, -105480.41, -0.23638292, 0.33404616, -2194611.8, -425033.78, 0.47722325, 9.996045, 9.998215 
2.4681088e+3, 1.2942807e+2, -1792464.8, -1798229.4, -225707.8, 0.4683907, 0.5275127, -1569620.9, 102018.62, 0.3557266, 9.999293, 9.99925 
2.4677171e+3, 1.394157e+2, -1419054.1, -1559325.1, -98829.27, 0.09370496, 0.09729312, -1368003.0, 205752.27, 0.22774403, 10.00133, 9.999163 
2.467332e+3, 1.4940792e+2, -1170896.1, -1283973.6, -21390.426, -0.07728075, 0.017474018, -1166985.1, 308836.84, 0.11809006, 10.001863, 10.000154 
2.466949e+3, 1.5940113e+2, -1195650.8, -1477437.6, -82042.12, -0.111792356, 0.08560909, -1173504.8, 204376.02, 0.04605504, 10.001769, 9.998093 
2.4665669e+3, 1.6939269e+2, -1461248.5, -1787150.1, -16926.29, 0.06489416, 0.27291188, -1460371.8, -180398.28, 0.012013259, 10.000273, 9.99597 
2.4661845e+3, 1.7938358e+2, -1529286.4, -1639167.4, 53002.496, 0.2723883, 0.477761, -1507887.4, -325812.13, 0.0018483637, 9.998498, 9.99722 
2.465797e+3, 1.8937363e+2, -1139695.6, -1104911.1, -23878.951, 0.09848089, 0.2851882, -1092762.0, -8590.288, 0.00018026956, 9.999268, 9.999808 
2.4654095e+3, 1.9936381e+2, -988498.5, -1055060.1, -37815.023, -0.08897532, 0.070372365, -971404.8, 14858.933, 0.0000007906511, 9.999947, 9.999167 
2.4650273e+3, 2.0935838e+2, -875002.9, -946934.4, 56005.9, 0.03446678, 0.30378482, -844408.94, 43907.195, 0.0, 10.000113, 9.999104 
2.464646e+3, 2.193534e+2, -902135.3, -1011961.94, 37136.316, 0.21206401, 0.6498644, -890757.0, -100391.59, 0.0, 9.999664, 9.998239 
2.46426e+3, 2.2934315e+2, -702193.6, -833548.6, -58940.44, 0.11324726, 0.48484555, -679624.25, 12842.225, 0.0, 10.000311, 9.998406 
2.4638735e+3, 2.3933181e+2, -640681.6, -824823.56, -39140.19, 0.012008351, 0.24668579, -632707.56, -38130.164, 0.0, 10.000318, 9.997848 
2.4634914e+3, 2.4932215e+2, -484711.78, -632892.6, 52365.04, 0.08282309, 0.15646519, -468074.66, 28593.668, 0.0, 10.00049, 9.998362 
2.4631101e+3, 2.593128e+2, -511369.0, -648094.0, -19359.586, 0.15805683, 0.11861338, -508680.63, -109924.56, 0.0, 9.999812, 9.997951 
2.4627207e+3, 2.693047e+2, -325570.3, -412801.66, -147197.84, -0.1637376, 0.14967018, -215662.27, 85177.3, 0.0, 10.000062, 9.998706 
2.4623318e+3, 2.7929768e+2, -400138.16, -464756.66, -23600.004, -0.48420256, 0.28910047, -392436.8, -189522.88, 0.0, 9.999139, 9.998179 
2.4619563e+3, 2.8929165e+2, -280025.88, -373297.8, 170175.02, 0.00059887127, 0.5765647, -150212.28, -45233.5, 0.0, 9.999427, 9.997933 
2.4615847e+3, 2.9928276e+2, -521636.5, -672436.7, -26511.963, 0.81804794, 0.6841671, -517111.25, -510040.44, 0.0, 9.99825, 9.996172 
2.4611816e+3, 3.0926764e+2, -217685.7, 91227.8, -415365.97, -0.41095325, 0.10880738, 379925.38, 379925.38, 0.0, 9.997851, 10.00147 
2.4784797e+3, 1.1981106e+2, -2000550.5, -2110368.3, 32675.678, -0.18713245, -0.055374414, -1991563.5, -225683.02, 0.4678463, 9.999089, 9.997639 
2.4780974e+3, 1.2981203e+2, -1581835.5, -1599516.4, -108048.914, 0.094004005, 0.78816444, -1482266.0, 185617.14, 0.34520847, 10.00054, 10.000074 
2.4777092e+3, 1.398045e+2, -1444541.3, -1576375.9, -61993.11, -0.13633001, 0.7785864, -1419969.6, 149989.7, 0.21743059, 10.001112, 9.999093 
2.4773274e+3, 1.4979364e+2, -1281414.8, -1428653.6, -184.7529, -0.02877336, 0.46276796, -1281414.5, 190639.6, 0.109704144, 10.001471, 9.999188 
2.4769467e+3, 1.5978277e+2, -1185947.9, -1361725.3, -74989.99, 0.15645748, 0.1791112, -1158303.4, 215845.48, 0.040704507, 10.001362, 9.999078 
2.476561e+3, 1.6977485e+2, -1224210.6, -1291692.1, -77197.516, 0.16603203, 0.15350403, -1173702.4, 102525.74, 0.00953522, 10.000249, 9.999392 
2.4761748e+3, 1.7976736e+2, -1391415.4, -1444488.8, 30123.863, 0.12573388, 0.233334, -1377806.8, -199500.36, 0.0011160366, 9.998879, 9.998373 
2.4757886e+3, 1.8975978e+2, -1233938.1, -1372717.5, 13945.278, 0.029122453, 0.39512613, -1232550.8, -152165.52, 0.00006263998, 9.999566, 9.997831 
2.4754028e+3, 1.9975187e+2, -967000.5, -1079188.9, -6038.1694, -0.060405865, 0.529699, -966676.44, 15788.955, 0.0000000031066179, 10.000249, 9.99885 
2.4750212e+3, 2.0974231e+2, -760472.44, -766566.25, 54355.76, 0.12719233, 0.29181778, -709078.25, 175472.64, 0.0, 10.000338, 10.000259 
2.4746399e+3, 2.197327e+2, -794894.44, -915482.94, 60243.516, 0.2973924, 0.086755596, -769955.6, 16681.824, 0.0, 10.000171, 9.998668 
2.4742535e+3, 2.297236e+2, -724561.25, -953540.94, -22156.656, 0.13343588, 0.11089485, -722437.0, -33707.668, 0.0, 10.000587, 9.9974785 
2.4738665e+3, 2.3971453e+2, -524755.5, -749702.1, -10956.498, -0.08363249, 0.1775882, -524223.13, 66598.58, 0.0, 10.00097, 9.998066 
2.4734822e+3, 2.4970601e+2, -428381.53, -529680.44, 56864.03, -0.19337308, 0.15716182, -402880.56, 90022.64, 0.0, 10.000505, 9.99909 
2.4730991e+3, 2.5969738e+2, -440231.8, -559070.1, 27628.238, -0.2228573, 0.13732755, -434122.7, -39137.01, 0.0, 9.999999, 9.998477 
2.4727158e+3, 2.696893e+2, -232090.08, -419931.78, -61574.133, -0.005699273, 0.20437723, -213705.55, 83364.17, 0.0, 10.000874, 9.998295 
2.4723312e+3, 2.796822e+2, 17676.059, -155665.9, 6510.0483, 0.07053245, 0.3629821, 17920.207, 217064.83, 0.0, 10.001491, 9.999168 
2.4719456e+3, 2.8967404e+2, -244464.03, -174782.34, 126054.12, -0.2627568, 0.2970073, -78842.75, 22380.762, 0.0, 9.998767, 9.999681 
2.4715671e+3, 2.9966348e+2, -673907.2, -692437.25, 168397.94, 0.07537051, 0.123680644, -514519.6, -511193.88, 0.0, 9.996826, 9.996775 
2.4711815e+3, 3.0965447e+2, 761870.7, 402032.8, 7733.8506, -0.005635004, 0.29937968, 762036.8, 762036.8, 0.0, 10.005008, 10.00028 
2.4884771e+3, 1.20194025e+2, -1521125.6, -1766883.0, 44370.156, 0.009486416, -0.00652901, -1513360.3, 248764.02, 0.45571515, 10.00358, 9.997904 
2.4880904e+3, 1.3019256e+2, -1411738.9, -1579417.0, -138619.7, -0.083358586, 0.64805967, -1333576.8, 330571.13, 0.33319858, 10.00259, 9.999224 
2.4877031e+3, 1.4018373e+2, -1491380.5, -1576867.8, -121036.49, -0.089426726, 0.5585757, -1405761.9, 160476.16, 0.20679392, 10.000591, 9.9994135 
2.4873208e+3, 1.5017493e+2, -1456136.5, -1432352.6, -4763.5303, -0.01155531, 0.3721522, -1431434.0, 36882.824, 0.10179194, 9.999708, 10.00005 
2.4869394e+3, 1.6016588e+2, -1504382.0, -1434090.8, -29101.002, 0.1728364, 0.20399472, -1423606.5, -53209.61, 0.036105353, 9.998762, 9.999827 
2.486553e+3, 1.7015877e+2, -1337845.8, -1266346.1, -117990.49, 0.13649595, 0.18795027, -1178808.4, 93657.99, 0.0076701324, 9.99913, 10.000097 
2.4861662e+3, 1.8015169e+2, -1287457.5, -1369510.4, -93114.62, 0.080015935, 0.24634232, -1226731.8, -52194.75, 0.000687035, 9.99951, 9.998567 
2.4857815e+3, 1.9014366e+2, -1181081.6, -1370150.5, -25639.33, 0.06741178, 0.34263402, -1177666.4, -101047.766, 0.000019881356, 10.000059, 9.99758 
2.4853972e+3, 2.0013525e+2, -1006484.4, -1132130.3, 32597.367, 0.08684512, 0.45320675, -998530.8, -19827.45, 0.0, 10.000162, 9.998508 
2.4850143e+3, 2.101254e+2, -795260.06, -807031.94, 15913.003, 0.14132105, 0.2006473, -784179.4, 96614.14, 0.0, 10.000254, 9.999984 
2.4846318e+3, 2.2011515e+2, -860654.56, -999619.1, -46862.645, 0.21109678, -0.04464485, -846328.2, -63441.105, 0.0, 9.999976, 9.998175 
2.484246e+3, 2.3010662e+2, -656854.8, -963966.44, -62274.7, 0.052504275, 0.056960046, -644707.5, 40267.484, 0.0, 10.001247, 9.997089 
2.4838598e+3, 2.4009842e+2, -443552.22, -725877.9, -43684.934, -0.1345001, 0.23631597, -436947.25, 150113.25, 0.0, 10.001645, 9.9979 
2.4834746e+3, 2.5009033e+2, -473416.25, -502049.75, -26872.02, -0.25873467, 0.213272, -457285.1, 31853.104, 0.0, 10.000024, 9.999489 
2.4830908e+3, 2.6008222e+2, -776609.0, -718655.4, -24795.523, -0.25336018, 0.2057239, -709494.6, -318278.5, 0.0, 9.997751, 9.99846 
2.4827102e+3, 2.7007446e+2, -531543.3, -554009.4, -14913.109, 0.16322827, 0.28687805, -524106.0, -230810.97, 0.0, 9.998828, 9.998338 
2.4823278e+3, 2.8006676e+2, -277075.56, -316081.78, 39768.965, 0.3481134, 0.39173114, -252284.86, -56911.348, 0.0, 9.999585, 9.99899 
2.4819356e+3, 2.900562e+2, 132230.3, 103023.27, 1679.8839, -0.5056468, 0.025110673, 132326.6, 229797.78, 0.0, 10.001059, 10.000428 
2.4815534e+3, 3.0004632e+2, -158133.53, -413731.97, 86694.8, -0.44791824, -0.16668704, -131502.73, -131502.73, 0.0, 10.000348, 9.99697 
2.4811828e+3, 3.1004432e+2, -127915.37, -59507.07, 77389.766, 0.4219889, 0.658291, -9099.759, -9099.759, 0.0, 9.99909, 9.999964 
2.4984746e+3, 1.20578796e+2, -1554501.3, -1741498.5, 95762.83, 0.072080396, 0.2158959, -1514162.3, 244186.55, 0.43991756, 10.002809, 9.998582 
2.4980848e+3, 1.3057174e+2, -1501429.6, -1738361.4, -151508.11, -0.17359746, 0.3690206, -1427570.5, 232851.06, 0.31901658, 10.002236, 9.998163 
2.4976973e+3, 1.4055966e+2, -1439804.4, -1510648.9, -86917.414, -0.044809006, 0.031070223, -1381368.4, 181173.95, 0.19536594, 10.000813, 9.999748 
2.497313e+3, 1.505546e+2, -1347327.9, -1219274.4, 10190.397, -0.048700914, 0.09904408, -1218468.5, 246121.72, 0.094030365, 9.999765, 10.001627 
2.4969295e+3, 1.6054969e+2, -1464160.0, -1374406.9, -13914.862, -0.018439708, 0.22609743, -1372299.1, -5662.792, 0.032013185, 9.998883, 10.000163 
2.496544e+3, 1.705433e+2, -1306952.0, -1327320.0, -72186.266, 0.01190088, 0.3280486, -1244234.9, 24464.486, 0.0062260167, 9.999678, 9.999394 
2.4961585e+3, 1.8053594e+2, -1171003.3, -1272984.9, -45642.74, 0.021818716, 0.40186864, -1153559.3, 17212.25, 0.00043419475, 10.000135, 9.998915 
2.4957754e+3, 1.9052504e+2, -1032628.44, -1163147.3, 3466.0974, 0.15544721, 0.1183467, -1032536.5, 40337.566, 0.0000058323185, 10.000483, 9.9987955 
2.4953921e+3, 2.0051445e+2, -946976.56, -1115436.4, 37540.19, 0.22496013, -0.06769091, -938989.6, 35984.926, 0.000000000090419006, 10.000599, 9.998407 
2.4950066e+3, 2.1050777e+2, -853625.9, -1004781.0, 14576.439, 0.026050542, 0.11790532, -852233.0, 24810.457, 0.0, 10.000541, 9.9984865 
2.4946216e+3, 2.205009e+2, -797350.06, -997818.06, -29951.852, -0.17115337, 0.32607558, -792970.6, -13855.756, 0.0, 10.0005, 9.997921 
2.4942383e+3, 2.3049246e+2, -553315.94, -852209.06, -14629.336, -0.173717, 0.40701258, -552601.6, 128601.98, 0.0, 10.001657, 9.997671 
2.4938549e+3, 2.4048378e+2, -294258.44, -586673.75, -71152.94, -0.14245112, 0.48396096, -277864.06, 305429.6, 0.0, 10.002339, 9.998509 
2.4934712e+3, 2.5047535e+2, -464099.38, -508081.13, -132461.61, 0.121445164, 0.41352236, -351815.63, 133558.83, 0.0, 10.000063, 9.999447 
2.4930874e+3, 2.6046696e+2, -669092.4, -548404.75, -63189.91, 0.33802685, 0.362372, -521373.84, -133920.28, 0.0, 9.997917, 9.999548 
2.4927025e+3, 2.7045944e+2, -432994.03, -328149.2, 39020.313, 0.22284044, 0.32695705, -315221.06, -25697.86, 0.0, 9.998691, 9.99997 
2.4923171e+3, 2.804516e+2, -222790.83, -340879.8, 145206.56, -0.002448006, 0.31976938, -125083.3, 66513.766, 0.0, 10.000075, 9.998603 
2.4919328e+3, 2.9044133e+2, 188657.1, -159102.53, 76895.19, -0.30197665, 0.21032053, 204901.08, 298596.06, 0.0, 10.002611, 9.997921 
2.4915546e+3, 3.0043176e+2, 325868.1, -209338.83, -87715.45, 0.08538544, 0.22647227, 339877.16, 339877.16, 0.0, 10.003741, 9.996735 
2.4911706e+3, 3.1042293e+2, -493911.78, -206457.25, -315179.84, 0.23202342, 0.36156172, -3780.3357, -3780.3357, 0.0, 9.996319, 10.000321 
2.5084698e+3, 1.2096408e+2, -1673900.5, -1762210.3, 83910.766, 0.119482875, 0.15688446, -1623236.3, 131330.27, 0.42027465, 10.000906, 9.999417 
2.508079e+3, 1.309559e+2, -1601080.1, -1792275.1, -79171.734, -0.14000385, 0.19407926, -1572552.5, 84095.19, 0.30251706, 10.001123, 9.998264 
2.507691e+3, 1.4094427e+2, -1395540.9, -1509938.6, 12235.965, -0.025914963, -0.07354342, -1394246.9, 164516.78, 0.18302314, 10.001193, 9.999576 
2.5073057e+3, 1.5094002e+2, -1369565.9, -1284843.6, 36183.656, -0.03341851, 0.11979775, -1271493.6, 189315.1, 0.08629053, 9.999793, 10.001111 
2.506921e+3, 1.6093563e+2, -1494886.3, -1435820.0, 30307.514, -0.009173293, 0.3465978, -1423035.9, -60181.75, 0.028287582, 9.998845, 9.999769 
2.506537e+3, 1.7092726e+2, -1044585.25, -1245879.3, 36911.203, -0.00035983734, 0.27936488, -1038030.3, 226903.86, 0.0050760456, 10.001639, 9.999031 
2.506153e+3, 1.8091829e+2, -716570.56, -1116819.8, 5218.87, 0.02585517, 0.24148011, -716502.56, 450517.8, 0.00028139996, 10.003573, 9.998337 
2.5057688e+3, 1.9090807e+2, -871502.94, -1136142.3, -83247.266, 0.09888955, 0.08610577, -847494.1, 221624.84, 0.0000014559199, 10.001916, 9.998274 
2.5053844e+3, 2.0089795e+2, -1073446.1, -1244390.0, -101940.21, 0.16223677, -0.006536427, -1025887.0, -54669.4, 0.0, 10.000048, 9.997802 
2.5049993e+3, 2.1089108e+2, -985981.5, -1121180.3, -61914.35, -0.009784436, 0.1905887, -961912.6, -88622.29, 0.0, 9.999921, 9.997981 
2.5046143e+3, 2.2088449e+2, -948671.3, -1068205.3, -30703.72, -0.18029128, 0.46775278, -941245.94, -165885.0, 0.0, 9.999489, 9.997935 
2.5042313e+3, 2.3087615e+2, -894400.4, -924122.4, 24755.533, -0.19666108, 0.4822462, -880387.75, -202941.22, 0.0, 9.9989395, 9.998472 
2.5038487e+3, 2.4086756e+2, -887671.56, -875218.94, -54109.14, -0.10873882, 0.5111239, -826979.06, -247445.08, 0.0, 9.998289, 9.998493 
2.5034654e+3, 2.508591e+2, -563374.44, -583364.8, -149661.33, 0.2844453, 0.45433503, -423374.88, 58241.273, 0.0, 9.999543, 9.999164 
2.5030813e+3, 2.6085076e+2, -345164.66, -396214.97, -67854.35, 0.5685428, 0.42846575, -298193.28, 85502.09, 0.0, 10.000204, 9.999496 
2.5026944e+3, 2.708429e+2, -68717.44, -99377.75, -37680.92, 0.1757285, 0.3054815, -43367.555, 242397.63, 0.0, 10.000996, 10.000441 
2.5023085e+3, 2.8083494e+2, -170143.53, -372432.13, 11032.068, -0.18460013, 0.25658858, -169543.66, 18293.02, 0.0, 10.000754, 9.99805 
2.5019303e+3, 2.9082608e+2, -273366.53, -508200.0, 136999.38, -0.044237014, 0.34982, -210351.8, -120429.34, 0.0, 10.000021, 9.996753 
2.501552e+3, 3.0081606e+2, -356460.28, -568028.44, -48380.375, 0.27777424, 0.42862493, -345921.84, -345921.84, 0.0, 9.999252, 9.996422 
2.501157e+3, 3.1080133e+2, -115641.05, -88017.516, -330649.5, -0.1606585, -0.0924954, 229108.55, 229108.55, 0.0, 9.999322, 9.999633 
2.5184652e+3, 1.2134903e+2, -1741135.0, -1699022.3, 946.368, 0.2592606, 0.06766243, -1699001.0, 51786.516, 0.39734322, 9.999523, 10.000535 
2.518073e+3, 1.313411e+2, -1622631.6, -1739252.1, -68367.23, -0.11854168, 0.057705335, -1591085.5, 61779.027, 0.28406283, 10.000651, 9.998822 
2.5176847e+3, 1.4133134e+2, -1467120.1, -1596668.6, -20265.934, -0.07648305, -0.043001156, -1464023.9, 90938.086, 0.16993596, 10.0008545, 9.999043 
2.5172985e+3, 1.5132721e+2, -1397760.1, -1420551.8, -27855.809, -0.0294232, 0.26157886, -1379059.3, 77951.53, 0.078587286, 10.000182, 9.999875 
2.5169134e+3, 1.6132182e+2, -1421983.3, -1466777.8, 65514.152, 0.010551777, 0.49651518, -1375143.6, -16074.667, 0.024857625, 9.999631, 9.999171 
2.5165322e+3, 1.7131025e+2, -1005758.56, -1220259.5, 153025.97, 0.01386363, 0.12102136, -926141.1, 335034.97, 0.0041356636, 10.001875, 9.999094 
2.5161493e+3, 1.8129918e+2, -798499.0, -1271051.8, -13707.794, -0.027560916, -0.09371465, -798101.7, 365179.38, 0.00018434241, 10.003499, 9.997304 
2.5157616e+3, 1.9129226e+2, -973673.2, -1386800.9, -145017.97, -0.11309273, 0.24720299, -927850.75, 137507.84, 0.00000026313862, 10.002051, 9.996497 
2.5153747e+3, 2.0128456e+2, -1036073.8, -1243324.9, -116469.0, -0.14705247, 0.5294031, -983804.25, -16362.235, 0.0, 10.000375, 9.997644 
2.514993e+3, 2.1127437e+2, -909323.5, -1028097.9, -53323.72, 0.053938434, 0.3697558, -888896.8, -19354.676, 0.0, 10.00019, 9.998509 
2.5146106e+3, 2.2126466e+2, -783363.0, -859130.6, -43372.336, 0.16968343, 0.2672796, -763659.1, 7977.382, 0.0, 10.000003, 9.999143 
2.5142252e+3, 2.3125659e+2, -804803.06, -745955.56, -12425.02, 0.023914108, 0.19621502, -743439.7, -69727.85, 0.0, 9.998917, 9.999734 
2.51384e+3, 2.4124864e+2, -849859.8, -818546.4, -26227.242, -0.09827484, 0.19615571, -803658.06, -227870.72, 0.0, 9.998342, 9.9988575 
2.5134546e+3, 2.5124037e+2, -543708.3, -650315.2, -78047.875, -0.02859143, 0.2136365, -502498.63, -24628.469, 0.0, 9.999941, 9.998545 
2.5130707e+3, 2.6123193e+2, -253649.6, -500757.1, -36242.758, 0.078133576, 0.26230785, -248443.63, 131510.19, 0.0, 10.00141, 9.998217 
2.5126886e+3, 2.7122292e+2, -95080.83, -365409.97, -64797.23, 0.17018235, 0.23849851, -80351.63, 201687.5, 0.0, 10.001841, 9.998247 
2.5123063e+3, 2.8121412e+2, 102634.05, -36997.82, -94750.28, 0.1377137, 0.20250753, 150512.13, 334633.34, 0.0, 10.001677, 9.999924 
2.5119215e+3, 2.9120642e+2, -82831.72, 17709.467, 47055.063, -0.14739221, 0.051803436, 36296.055, 122486.26, 0.0, 9.999341, 10.000734 
2.511539e+3, 3.0119917e+2, -369073.97, -369785.9, 72802.31, -0.1420979, 0.07535322, -296626.75, -296626.75, 0.0, 9.998198, 9.998311 
2.511156e+3, 3.1119123e+2, 432659.03, 105314.87, -61378.19, 0.24912234, 0.23702805, 443789.22, 443789.22, 0.0, 10.003245, 9.999124 
2.528455e+3, 1.21735014e+2, -1916988.3, -1735074.3, -33225.8, 0.12281101, 0.12605457, -1729195.6, 17810.27, 0.3720952, 9.998056, 10.000849 
2.5280684e+3, 1.3172667e+2, -1764875.1, -1836870.5, -124185.984, 0.17974205, 0.07245466, -1671574.8, -22489.799, 0.26429757, 9.999554, 9.998686 
2.5276807e+3, 1.4171638e+2, -1610076.5, -1770991.0, -91598.91, 0.21208996, -0.058802474, -1568616.9, -17430.639, 0.15642525, 10.000179, 9.9981575 
2.527292e+3, 1.5171008e+2, -1370979.1, -1598310.0, -136751.06, -0.034361523, 0.1726123, -1306822.5, 146434.81, 0.071005836, 10.001281, 9.998109 
2.5269055e+3, 1.6170332e+2, -1110486.6, -1328817.9, -29120.549, -0.14809343, 0.38615, -1106669.3, 248660.44, 0.021693112, 10.001911, 9.999028 
2.5265256e+3, 1.7169353e+2, -1069874.5, -1172092.8, 66668.17, -0.07559862, 0.13086516, -1036978.94, 220439.61, 0.00335279, 10.001186, 9.999743 
2.5261438e+3, 1.816839e+2, -1184627.1, -1403517.9, -66124.73, -0.026697906, -0.002348572, -1166202.4, -6693.8647, 0.00011963712, 10.000588, 9.997811 
2.5257558e+3, 1.916766e+2, -1001188.0, -1348677.0, -66549.51, -0.1435958, 0.23502944, -988878.8, 72709.96, 0.00000002568285, 10.001585, 9.997001 
2.5253683e+3, 2.0166895e+2, -783802.5, -1130795.5, 92393.805, -0.17599551, 0.50200176, -760734.4, 202937.66, 0.0, 10.002119, 9.997582 
2.524987e+3, 2.1165852e+2, -741591.6, -977884.3, 119638.25, 0.08298561, 0.34099913, -691595.56, 174179.47, 0.0, 10.001433, 9.998258 
2.5246048e+3, 2.2164826e+2, -764140.06, -844185.5, 62973.105, 0.29436636, 0.21103807, -729547.56, 38326.797, 0.0, 10.000183, 9.999131 
2.524218e+3, 2.3163994e+2, -783764.6, -704918.44, 3013.9954, 0.13694009, 0.08666027, -704803.4, -34853.457, 0.0, 9.998974, 9.999972 
2.5238314e+3, 2.4163172e+2, -910608.56, -876676.75, 13512.536, -0.036663607, 0.057504613, -871953.25, -299927.06, 0.0, 9.998119, 9.998553 
2.5234464e+3, 2.5162327e+2, -579391.1, -700081.3, 27515.572, -0.14976124, 0.07854242, -573414.0, -99303.266, 0.0, 9.999914, 9.998196 
2.5230622e+3, 2.6161462e+2, -455002.66, -712155.9, 53842.543, -0.15106127, 0.17455086, -444184.28, -67986.88, 0.0, 10.000577, 9.99715 
2.5226822e+3, 2.716049e+2, -659740.06, -763327.6, 107942.5, 0.17319788, 0.18184769, -591808.44, -313516.56, 0.0, 9.998559, 9.997058 
2.5223008e+3, 2.815952e+2, -540086.0, -261941.34, 92811.27, 0.2936981, 0.13796881, -233816.06, -53431.89, 0.0, 9.996966, 10.000638 
2.5219116e+3, 2.915875e+2, -167483.25, 223210.02, -937.7206, -0.29898143, -0.20375001, 223212.27, 305664.47, 0.0, 9.9977665, 10.002888 
2.5215277e+3, 3.0158275e+2, -334430.78, -266880.0, -15361.218, -0.3673382, -0.11101735, -263550.88, -263550.88, 0.0, 9.998155, 9.999019 
2.5211507e+3, 3.11578e+2, -136725.45, -156605.75, 82022.7, 0.16911392, 0.30246314, -64042.78, -64042.78, 0.0, 9.999478, 9.999068 
2.5384456e+3, 1.2212093e+2, -1897854.9, -1761550.0, 71145.02, 0.011081371, 0.21331681, -1731181.5, 12045.073, 0.34545994, 9.998402, 10.000447 
2.5380644e+3, 1.3211216e+2, -1636172.1, -1793216.9, -61556.42, 0.53160226, 0.14017181, -1614920.0, 30388.07, 0.24384509, 10.000598, 9.998473 
2.537677e+3, 1.421004e+2, -1557860.8, -1894049.5, -36220.535, 0.4874043, -0.07561724, -1554002.6, -6579.916, 0.14280653, 10.001242, 9.99677 
2.5372854e+3, 1.5209062e+2, -1401200.8, -1808926.3, -63107.867, -0.109889135, -0.009768159, -1391656.4, 57871.195, 0.06363834, 10.001918, 9.996324 
2.5368974e+3, 1.6208227e+2, -1068970.6, -1289100.0, -5569.3496, -0.47483855, 0.15884908, -1068829.9, 282785.4, 0.0187796, 10.002114, 9.999197 
2.536518e+3, 1.7207679e+2, -987874.7, -1039744.9, 55396.563, -0.2542052, 0.2594733, -952642.75, 301020.5, 0.0026956536, 10.0013075, 10.000607 
2.536137e+3, 1.8207014e+2, -1020148.4, -1091917.4, -55655.1, -0.0789487, 0.29977268, -989812.1, 165911.2, 0.00007576087, 10.000738, 9.99986 
2.535751e+3, 1.9206023e+2, -802971.4, -970862.06, -28258.262, -0.059301507, 0.043475922, -798342.75, 259476.48, 0.00000000011876218, 10.00172, 9.999529 
2.535365e+3, 2.0205103e+2, -720715.2, -1038249.56, 85712.02, -0.04687028, -0.025532885, -699056.3, 260854.52, 0.0, 10.002272, 9.998133 
2.5349808e+3, 2.1204391e+2, -735527.06, -1036625.94, 101831.81, 0.026605705, 0.19238108, -704321.56, 157664.45, 0.0, 10.001717, 9.997716 
2.534596e+3, 2.2203612e+2, -722029.3, -885571.2, 23896.22, 0.08218956, 0.36284554, -718609.2, 45457.027, 0.0, 10.0007, 9.9986 
2.5342095e+3, 2.320267e+2, -795140.25, -816297.5, -37536.06, 0.092260964, 0.2304389, -766720.6, -100563.266, 0.0, 9.999295, 9.999076 
2.533824e+3, 2.4201746e+2, -820835.44, -820536.9, 49198.742, 0.097079866, 0.15879387, -771487.2, -203240.8, 0.0, 9.998613, 9.998715 
2.533442e+3, 2.5200912e+2, -494673.1, -615216.9, 111047.91, 0.14901565, 0.16672337, -428594.9, 41731.965, 0.0, 10.000266, 9.998626 
2.5330588e+3, 2.620006e+2, -292156.44, -459088.38, 27230.492, 0.1440883, 0.19901371, -287826.8, 84581.695, 0.0, 10.000898, 9.998741 
2.532672e+3, 2.7199113e+2, -625317.6, -557057.75, 64595.555, 0.082805805, 0.07903857, -518129.9, -243632.48, 0.0, 9.9979105, 9.99881 
2.5322872e+3, 2.8198174e+2, -832588.4, -624979.44, 194261.38, 0.026371295, 0.02482623, -508527.6, -331939.78, 0.0, 9.995898, 9.998648 
2.5319043e+3, 2.9197338e+2, -494194.03, -410211.44, 58522.355, -0.075990304, 0.030655026, -380174.03, -301499.6, 0.0, 9.997537, 9.998671 
2.5315234e+3, 3.0196634e+2, -201164.08, -168030.05, -88837.69, 0.055889763, 0.1653911, -94227.81, -94227.81, 0.0, 9.998866, 9.999384 
2.5311396e+3, 3.1196007e+2, -116264.92, 119792.03, 2163.1062, -0.07531434, 0.25688305, 119811.85, 119811.85, 0.0, 9.998336, 10.001599 
2.5484413e+3, 1.225025e+2, -1800584.0, -1705114.9, 238876.44, 0.37504423, -0.038496364, -1509250.4, 230230.39, 0.31815657, 9.999239, 10.000772 
2.5480565e+3, 1.3249694e+2, -1371871.0, -1608035.1, -25163.113, 0.3097862, 0.170539, -1369219.6, 272317.6, 0.22319712, 10.002782, 9.998712 
2.5476697e+3, 1.4248748e+2, -1121581.0, -1714333.5, -44365.78, 0.14543062, 0.19118346, -1118278.8, 425353.75, 0.12934339, 10.004872, 9.996291 
2.5472817e+3, 1.5247455e+2, -1216682.9, -1810433.8, -62210.855, -0.03968366, 0.013997233, -1210234.8, 235530.36, 0.05657354, 10.0036, 9.995561 
2.546895e+3, 1.624639e+2, -1103086.9, -1321456.0, 32910.42, -0.16038963, 0.008082314, -1098234.8, 249637.78, 0.016116831, 10.001929, 9.999056 
2.546513e+3, 1.7245859e+2, -1080384.9, -1118881.4, 29874.488, -0.15604043, 0.13681053, -1064094.6, 185824.78, 0.0021455006, 10.000792, 10.000308 
2.54613e+3, 1.8245257e+2, -1139804.5, -1145859.1, -97363.57, -0.0881502, 0.25860447, -1045421.2, 106553.27, 0.000046550977, 9.999917, 9.999886 
2.5457454e+3, 1.9244358e+2, -1008527.7, -1030031.5, -181545.11, 0.033868458, 0.047042597, -837416.4, 216645.55, 0.0, 10.000163, 9.999872 
2.54536e+3, 2.0243491e+2, -1026827.3, -1135427.3, -177283.14, 0.10061739, -0.027164113, -895714.8, 60431.973, 0.0, 10.000002, 9.998547 
2.5449735e+3, 2.1242805e+2, -1066155.1, -1148638.4, -125610.1, -0.01306738, 0.13516667, -975189.44, -116972.67, 0.0, 9.999277, 9.998114 
2.5445876e+3, 2.2242047e+2, -981166.75, -1084418.0, -107184.45, -0.03283591, 0.31582183, -913823.0, -153528.38, 0.0, 9.999274, 9.997931 
2.5442028e+3, 2.3241061e+2, -577927.9, -811140.0, -143928.9, 0.13705753, 0.20285209, -509297.6, 153096.92, 0.0, 10.001284, 9.998138 
2.543819e+3, 2.4240164e+2, -340253.34, -552106.8, -32008.736, 0.28389615, 0.2015941, -335522.8, 228960.53, 0.0, 10.001835, 9.998983 
2.543437e+3, 2.5239462e+2, -502131.22, -519839.97, 81372.41, 0.30472523, 0.23522559, -429132.88, 37415.39, 0.0, 9.999835, 9.999461 
2.5430527e+3, 2.623866e+2, -579061.8, -522285.63, -41458.137, 0.26223454, 0.24136642, -500427.72, -131804.89, 0.0, 9.998648, 9.999386 
2.5426632e+3, 2.723767e+2, -332698.63, -318176.34, -110067.85, 0.057480842, -0.03157852, -215130.38, 55585.227, 0.0, 9.999535, 9.999664 
2.5422764e+3, 2.8236803e+2, -461587.28, -616096.06, 86751.47, -0.041669063, -0.021182347, -422677.75, -249878.38, 0.0, 9.999234, 9.997093 
2.5418967e+3, 2.923609e+2, -619976.25, -733354.0, 235794.6, 0.10741578, 0.3020175, -434151.8, -359272.44, 0.0, 9.997888, 9.996248 
2.5415167e+3, 3.0235064e+2, -500810.7, -317850.6, 198556.83, 0.24282141, 0.31550485, -190713.6, -190713.6, 0.0, 9.996909, 9.99928 
2.5411278e+3, 3.123412e+2, -238097.8, 381544.72, 127779.12, -0.31641495, -0.027139705, 406860.34, 406860.34, 0.0, 9.996196, 10.004416 
2.5584316e+3, 1.2288156e+2, -1769225.9, -1828479.3, 177663.3, 0.08245892, -0.44960162, -1618736.0, 117022.516, 0.29081753, 10.000158, 9.999183 
2.558048e+3, 1.3288106e+2, -1367977.4, -1558391.3, 62940.203, -0.15400985, 0.22945, -1349053.5, 288719.84, 0.2027681, 10.002497, 9.9992695 
2.5576612e+3, 1.4287484e+2, -1240395.0, -1763946.8, -85557.945, -0.47889954, 0.54097223, -1226768.0, 313073.3, 0.11625642, 10.003852, 9.996426 
2.5572795e+3, 1.5285963e+2, -1254502.8, -1809877.4, -94967.04, 0.10128975, 0.11335337, -1238712.8, 203278.56, 0.04988728, 10.003246, 9.995713 
2.556896e+3, 1.6284661e+2, -1107332.1, -1372768.9, 20164.127, 0.39177325, -0.119502224, -1105809.1, 238309.08, 0.013707004, 10.002108, 9.998621 
2.5565088e+3, 1.7283894e+2, -1110755.1, -1216882.1, 24724.96, 0.0442948, -0.13978156, -1105277.5, 140910.72, 0.0016894786, 10.000934, 9.999575 
2.5561225e+3, 1.8283227e+2, -1164039.6, -1257876.5, -80238.87, -0.13388237, 0.000060842736, -1118008.5, 30244.15, 0.000027889511, 10.000181, 9.998979 
2.5557393e+3, 1.928268e+2, -1041626.2, -1167359.3, -139084.9, 0.102392755, 0.2524783, -951859.75, 98454.164, 0.0, 10.000461, 9.998779 
2.5553542e+3, 2.0281987e+2, -903633.6, -966756.5, -183127.44, 0.19044562, 0.38786685, -749367.75, 203017.11, 0.0, 10.000349, 9.999543 
2.5549653e+3, 2.1281016e+2, -911682.3, -904966.06, -137811.28, -0.054621376, 0.12843107, -770472.0, 84002.32, 0.0, 9.999562, 9.999665 
2.554579e+3, 2.2280058e+2, -920989.75, -1060875.8, -41372.168, -0.1013496, 0.014517733, -909669.7, -153102.86, 0.0, 9.999687, 9.997895 
2.554199e+3, 2.3279122e+2, -533109.1, -877186.56, -49738.64, 0.29573396, 0.030910335, -526063.3, 132602.8, 0.0, 10.001944, 9.997377 
2.553816e+3, 2.4278347e+2, -84345.16, -254479.47, -86009.02, 0.4673301, 0.13295797, -48441.35, 512304.38, 0.0, 10.002793, 10.000578 
2.5534278e+3, 2.5277892e+2, -344767.94, -239965.78, -18623.01, 0.1390554, 0.24097523, -236754.9, 226030.83, 0.0, 9.999983, 10.001333 
2.5530416e+3, 2.6277226e+2, -603860.4, -572751.94, -15015.12, 0.011145102, 0.2815174, -566687.0, -201838.52, 0.0, 9.998588, 9.999091 
2.552659e+3, 2.7276137e+2, -274808.56, -432837.03, -69106.51, 0.34372473, 0.04542559, -248851.58, 18105.602, 0.0, 10.000488, 9.998453 
2.5522745e+3, 2.827532e+2, 66095.336, 32850.496, 18968.21, 0.40538803, 0.03508793, 74693.9, 243729.8, 0.0, 10.001089, 10.000676 
2.5518855e+3, 2.9274973e+2, -197834.19, -13016.295, 226973.75, -0.12067307, 0.28682604, 139639.03, 210700.67, 0.0, 9.998486, 10.000938 
2.5515023e+3, 3.0274072e+2, -530551.3, -352665.78, 327720.66, -0.11961932, 0.14931616, -102032.84, -102032.84, 0.0, 9.996707, 9.999173 
2.5511193e+3, 3.127274e+2, -514551.97, -146898.95, 168151.11, -0.047094155, -0.34306267, -81593.01, -81593.01, 0.0, 9.995861, 10.000991 
2.5684217e+3, 1.2326659e+2, -1478504.6, -1600782.8, 58819.793, -0.3536624, -0.11225368, -1454804.1, 277191.38, 0.26403108, 10.002189, 10.000005 
2.568042e+3, 1.3326246e+2, -1559775.0, -1702452.9, -29954.895, -0.1924783, 0.23923452, -1553741.1, 80300.93, 0.18292536, 10.001024, 9.998904 
2.5676566e+3, 1.432553e+2, -1525845.6, -1700286.9, -168279.88, -0.38354826, 0.39563894, -1423525.9, 112590.055, 0.1037245, 10.000693, 9.998415 
2.567275e+3, 1.5324515e+2, -1256865.3, -1575450.8, -101274.74, 0.13326521, 0.22095917, -1227396.9, 210817.47, 0.043632858, 10.002114, 9.997904 
2.566891e+3, 1.6323471e+2, -1087372.9, -1364810.5, 46533.22, 0.40628916, 0.117295876, -1079776.1, 260538.22, 0.011545959, 10.002285, 9.998561 
2.566502e+3, 1.7322516e+2, -1236593.9, -1373897.5, 21813.674, 0.016155407, -0.022405641, -1233211.6, 9192.3, 0.0013158798, 10.000531, 9.998658 
2.5661147e+3, 1.832166e+2, -1282416.5, -1355834.4, 6518.8267, -0.17843997, 0.0069322656, -1281842.3, -137355.38, 0.000016496271, 9.999577, 9.998595 
2.5657317e+3, 1.9320993e+2, -1109690.3, -1251291.9, 9663.343, 0.050575342, 0.17606044, -1109033.9, -62475.727, 0.0, 10.000207, 9.998347 
2.565347e+3, 2.0320262e+2, -848478.7, -947874.5, -29111.99, 0.15686831, 0.3239666, -840579.8, 108053.26, 0.0, 10.000805, 9.999457 
2.5649583e+3, 2.1319322e+2, -659966.25, -784322.44, -103371.12, -0.07396512, 0.10491657, -601513.9, 249207.55, 0.0, 10.001345, 9.999637 
2.5645724e+3, 2.23184e+2, -712880.9, -892523.3, -28404.262, -0.07151992, 0.0113551365, -708496.7, 44313.938, 0.0, 10.000859, 9.9984665 
2.5641927e+3, 2.3317546e+2, -989105.0, -1023357.3, 89126.96, 0.35406435, 0.0253579, -915473.7, -260573.19, 0.0, 9.998519, 9.998011 
2.5638098e+3, 2.4316828e+2, -842505.6, -559387.75, 47837.504, 0.51018834, 0.1425521, -551523.25, 5451.285, 0.0, 9.997386, 10.001064 
2.5634187e+3, 2.5316384e+2, -617220.0, -327677.0, -31669.54, 0.039284617, 0.21631342, -324253.56, 134761.86, 0.0, 9.997964, 10.001696 
2.5630316e+3, 2.6315787e+2, -684111.0, -653682.94, 18476.02, -0.07875951, 0.3269474, -644963.1, -283889.3, 0.0, 9.998299, 9.998631 
2.562653e+3, 2.7314782e+2, -510683.78, -610656.25, 69927.836, 0.4839642, 0.20583804, -474713.5, -211534.83, 0.0, 9.999208, 9.997816 
2.5622693e+3, 2.831395e+2, -54107.758, 178580.13, 1075.9932, 0.5631589, 0.15814938, 178585.11, 343843.16, 0.0, 9.999419, 10.002476 
2.5618744e+3, 2.9313603e+2, -31937.598, 350508.28, -69885.32, -0.36961615, 0.13856222, 362878.5, 430150.7, 0.0, 9.998436, 10.003445 
2.5614905e+3, 3.0312946e+2, -473862.72, -447113.38, -70949.734, -0.2753623, 0.10754723, -388288.7, -388288.7, 0.0, 9.997718, 9.997981 
2.561117e+3, 3.1312e+2, -515446.28, -303930.16, -48144.887, 0.8065883, 0.12226776, -293487.13, -293487.13, 0.0, 9.996702, 9.999431 
2.5784126e+3, 1.2365382e+2, -1579094.3, -1780067.8, -10277.341, -0.8222563, 0.54067665, -1578570.0, 149644.86, 0.23823552, 10.001864, 9.998583 
2.5780368e+3, 1.3364205e+2, -1608951.4, -1765253.5, -22343.72, -0.10589299, 0.15409741, -1605820.0, 24508.992, 0.16394834, 10.000754, 9.998563 
2.577653e+3, 1.4363346e+2, -1401757.8, -1349322.3, -78648.87, -0.10013696, 0.07676757, -1292636.4, 239775.86, 0.09188186, 10.000294, 10.001105 
2.577269e+3, 1.5363088e+2, -1081164.1, -1126340.9, -31046.957, 0.04766046, 0.35120755, -1065357.9, 369077.66, 0.03784501, 10.001761, 10.001234 
2.5768828e+3, 1.6362509e+2, -1118909.0, -1390442.6, -26048.219, 0.08159221, 0.52533317, -1116432.8, 220057.48, 0.009625426, 10.002145, 9.998431 
2.5764936e+3, 1.7361425e+2, -1233810.5, -1461478.0, -41175.67, -0.16421418, 0.3378921, -1226592.4, 12001.313, 0.0010124295, 10.000941, 9.997849 
2.5761062e+3, 1.8360333e+2, -1183365.8, -1270683.0, 10476.726, -0.28450862, 0.16711542, -1182126.3, -41428.76, 0.000009793076, 10.000105, 9.998913 
2.5757232e+3, 1.9359247e+2, -1039538.4, -1162227.3, 48177.082, -0.13017164, -0.11472604, -1022881.7, 19918.998, 0.0, 10.000444, 9.998841 
2.5753388e+3, 2.0358352e+2, -888049.6, -1094685.9, -4580.987, -0.035559323, -0.11637899, -887948.1, 56941.574, 0.0, 10.001039, 9.998346 
2.5749528e+3, 2.135773e+2, -702019.56, -984170.0, -59110.51, -0.05785982, 0.14365889, -690136.4, 156822.39, 0.0, 10.001782, 9.998072 
2.5745672e+3, 2.2357084e+2, -480945.63, -510400.94, -94007.28, -0.013118538, 0.3118793, -400519.34, 348506.25, 0.0, 10.00125, 10.000894 
2.5741827e+3, 2.3356403e+2, -770006.1, -588944.25, 19527.432, 0.2019293, 0.21790776, -586862.1, 64227.31, 0.0, 9.998544, 10.000989 
2.5737977e+3, 2.4355702e+2, -932617.5, -700454.3, 91817.26, 0.3077265, 0.21379098, -668531.4, -115373.12, 0.0, 9.997149, 10.000219 
2.5734106e+3, 2.5354993e+2, -714318.9, -576718.8, 29156.098, 0.17572425, 0.21675126, -570795.9, -115564.914, 0.0, 9.998106, 9.999945 
2.5730246e+3, 2.6354334e+2, -528538.25, -466153.94, 57404.887, 0.057554547, 0.3238902, -432014.1, -74715.47, 0.0, 9.998839, 9.999658 
2.5726408e+3, 2.735367e+2, -413351.03, -409480.34, 120871.31, 0.061322484, 0.42300698, -290528.88, -31162.322, 0.0, 9.999154, 9.999239 
2.572256e+3, 2.835281e+2, -309166.56, -328550.63, 6036.859, 0.060540482, 0.40673345, -307440.22, -145989.36, 0.0, 9.9992695, 9.99907 
2.5718692e+3, 2.9351738e+2, -264743.44, -280043.97, -184215.55, -0.039255075, 0.12846859, -88019.38, -24470.242, 0.0, 9.998997, 9.998865 
2.571485e+3, 3.0350816e+2, -362491.5, -384484.5, -246828.75, 0.08150266, 0.07627556, -126414.414, -126414.414, 0.0, 9.998382, 9.99811 
2.5711054e+3, 3.1350023e+2, -205552.1, 73027.12, -214179.6, 0.5752003, 0.15846166, 189226.25, 189226.25, 0.0, 9.997718, 10.001572 
2.5884148e+3, 1.2403506e+2, -1536075.3, -1615809.8, -2331.3262, -0.05792443, 0.48633143, -1536007.1, 188476.36, 0.21373183, 10.001365, 10.000157 
2.5880304e+3, 1.3402405e+2, -1564347.5, -1607407.1, 43.81355, -0.099720694, 0.024574108, -1564347.5, 62232.176, 0.14603193, 10.000434, 9.999845 
2.5876454e+3, 1.4401513e+2, -1488795.9, -1411507.3, 9818.724, -0.14355256, -0.13961999, -1410279.4, 118382.68, 0.080827504, 9.9997635, 10.00086 
2.5872618e+3, 1.5401252e+2, -1316770.1, -1287463.9, -88903.445, -0.026295515, 0.17431007, -1212014.1, 218676.64, 0.032553293, 10.000336, 10.000737 
2.5868762e+3, 1.6400722e+2, -1239526.3, -1441333.9, -172181.19, -0.017534405, 0.40665123, -1140860.8, 191883.02, 0.007938516, 10.001273, 9.998494 
2.5864878e+3, 1.7399761e+2, -997344.8, -1349972.3, -160159.33, -0.18590847, 0.30417547, -935462.1, 299375.13, 0.00076767127, 10.002564, 9.997844 
2.586101e+3, 1.8398733e+2, -835651.7, -1154691.3, -118778.27, -0.23197775, 0.20715761, -796287.5, 340649.3, 0.000005913737, 10.00272, 9.998441 
2.5857165e+3, 1.9397601e+2, -1039535.1, -1223245.6, -157235.05, -0.10598195, -0.094763, -949290.8, 89754.86, 0.0, 10.000731, 9.998265 
2.5853318e+3, 2.0396708e+2, -1065298.1, -1120470.1, -135718.52, -0.030041225, -0.10498005, -954390.44, -13257.25, 0.0, 9.9996, 9.998847 
2.5849462e+3, 2.139618e+2, -995939.44, -1074956.9, -31733.695, -0.05047907, 0.1647847, -984773.06, -141582.95, 0.0, 9.999549, 9.998521 
2.5845602e+3, 2.2395605e+2, -690393.9, -598343.8, -101694.16, -0.016520625, 0.38631403, -532744.44, 212505.5, 0.0, 9.999845, 10.00095 
2.5841734e+3, 2.3394956e+2, -521135.25, -457165.1, -236845.75, 0.08621827, 0.30320776, -250154.44, 397158.7, 0.0, 10.000289, 10.00104 
2.5837874e+3, 2.4394256e+2, -561002.5, -601477.7, -203265.33, 0.17591308, 0.30167788, -376969.8, 172412.03, 0.0, 10.000086, 9.999467 
2.583402e+3, 2.5393444e+2, -661615.9, -661220.06, -160506.7, 0.2047499, 0.23815084, -500911.16, -49446.38, 0.0, 9.998987, 9.998922 
2.5830165e+3, 2.6392746e+2, -589222.8, -426182.03, -89135.7, 0.09514247, 0.3290573, -386910.25, -33374.957, 0.0, 9.998148, 10.00027 
2.5826293e+3, 2.7392256e+2, -584313.25, -389839.22, -56684.438, -0.2256331, 0.47302163, -374523.28, -118940.0, 0.0, 9.9976015, 10.000101 
2.5822455e+3, 2.839144e+2, -653176.8, -752221.3, -81313.19, -0.19142719, 0.5369644, -607492.5, -449827.16, 0.0, 9.998069, 9.99672 
2.581865e+3, 2.939002e+2, -422849.63, -697038.7, -42060.438, 0.3182542, 0.17257372, -416542.66, -356733.6, 0.0, 9.999424, 9.995784 
2.581478e+3, 3.0388868e+2, -185909.5, -213852.97, -36656.95, 0.23323436, 0.059983637, -160651.89, -160651.89, 0.0, 9.999271, 9.998839 
2.581086e+3, 3.1388515e+2, -171926.14, 225957.67, -10647.854, -0.43679503, 0.4765171, 226242.4, 226242.4, 0.0, 9.997436, 10.002755 
2.5984144e+3, 1.2441725e+2, -1434966.6, -1426451.9, 1359.4912, 0.41861323, 0.41409144, -1426240.1, 294498.2, 0.19077104, 10.00149, 10.001676 
2.5980228e+3, 1.3440737e+2, -1422473.5, -1378341.0, 8031.5127, -0.17253588, -0.07821485, -1376924.9, 245888.38, 0.12932456, 10.000776, 10.001486 
2.597636e+3, 1.4439785e+2, -1533062.3, -1602291.1, 39619.43, -0.35105267, -0.30930427, -1515066.3, 9832.32, 0.07062259, 10.000228, 9.999253 
2.5972542e+3, 1.5439174e+2, -1406579.8, -1541736.6, -21171.4, -0.12535334, -0.14187747, -1403341.0, 23626.31, 0.027766839, 10.000627, 9.9988165 
2.5968698e+3, 1.6438511e+2, -1186874.6, -1343998.9, -91222.58, -0.06541854, 0.038416937, -1145047.5, 183990.19, 0.0064744665, 10.001324, 9.999136 
2.5964835e+3, 1.7437755e+2, -960186.06, -1231251.9, -69768.55, -0.1653416, 0.066259615, -943282.7, 287830.3, 0.0005723583, 10.002359, 9.998768 
2.5960973e+3, 1.8436942e+2, -938303.75, -1303036.0, -161733.52, -0.14051783, 0.17874089, -876917.7, 256279.1, 0.0000035552432, 10.0024395, 9.997558 
2.5957116e+3, 1.943603e+2, -1086765.8, -1368484.9, -193241.77, 0.03521102, 0.21734782, -988494.0, 46799.633, 0.0, 10.00091, 9.997193 
2.5953254e+3, 2.0435235e+2, -819547.56, -692127.9, -119866.21, 0.04903665, 0.23346385, -620092.2, 317277.72, 0.0, 9.999941, 10.001632 
2.5949383e+3, 2.1434619e+2, -719817.4, -617915.56, -7428.315, -0.12188446, 0.14534387, -617376.94, 222041.86, 0.0, 10.000002, 10.00147 
2.594552e+3, 2.2433905e+2, -839149.25, -1007578.25, -75720.33, -0.13168631, 0.20502672, -810113.3, -68623.25, 0.0, 10.000262, 9.997937 
2.5941664e+3, 2.3433061e+2, -665854.56, -933731.75, -209104.56, 0.050848436, 0.29960352, -551470.25, 92118.586, 0.0, 10.001005, 9.997432 
2.5937802e+3, 2.4432267e+2, -390026.94, -448578.72, -274403.16, 0.0931936, 0.36547196, -143342.38, 402329.53, 0.0, 10.000901, 10.000141 
2.593392e+3, 2.543152e+2, -508648.4, -477436.06, -233243.13, -0.025518447, 0.28307164, -259277.61, 188460.83, 0.0, 9.999499, 9.999958 
2.5930062e+3, 2.643079e+2, -536469.2, -361067.03, -145058.11, -0.03200528, 0.26288602, -279259.03, 70546.98, 0.0, 9.998333, 10.00062 
2.592623e+3, 2.7430105e+2, -565964.8, -357389.66, -129503.19, 0.11029092, 0.21271591, -295403.44, -43530.73, 0.0, 9.997583, 10.000343 
2.5922397e+3, 2.8429413e+2, -436100.75, -312657.06, -50131.336, 0.18561643, 0.2481998, -294863.28, -140922.38, 0.0, 9.998104, 9.99972 
2.591856e+3, 2.942863e+2, -94566.09, -174789.08, 71064.805, 0.1909467, 0.21874788, -53074.043, 2945.404, 0.0, 10.000072, 9.999069 
2.5914717e+3, 3.0427864e+2, 10182.545, -84733.03, -5178.2397, 0.32902437, 0.30476785, 10464.215, 10464.215, 0.0, 10.000413, 9.999197 
2.5910813e+3, 3.142689e+2, 23686.584, 410896.38, 378639.9, 0.011678308, 0.12497386, 642557.3, 642557.3, 0.0, 9.998319, 10.003619 
2.6084074e+3, 1.2480296e+2, -1422147.1, -1618956.5, 62744.168, 0.2390951, 0.22400954, -1403845.8, 313106.13, 0.16949522, 10.002576, 9.999504 
2.6080176e+3, 1.3479409e+2, -1316058.4, -1466658.3, 2688.2407, -0.11668982, -0.013395452, -1316010.5, 303013.06, 0.11391173, 10.002262, 10.000052 
2.6076305e+3, 1.4478502e+2, -1363631.4, -1588555.6, 47665.465, -0.2757928, -0.09880795, -1353947.1, 167160.75, 0.061296463, 10.001763, 9.9986 
2.607248e+3, 1.5477723e+2, -1341965.8, -1594668.5, 36232.527, -0.12999526, -0.03982647, -1336873.4, 86319.29, 0.023481611, 10.001426, 9.99807 
2.6068634e+3, 1.647694e+2, -1265390.9, -1387662.5, -12857.395, -0.084040925, 0.06965361, -1264053.5, 61220.664, 0.005220199, 10.000767, 9.999148 
2.6064774e+3, 1.7476156e+2, -1405576.1, -1455760.6, -41283.496, -0.119466096, 0.07841002, -1382357.4, -155005.5, 0.00041937284, 9.999326, 9.998725 
2.6060912e+3, 1.8475384e+2, -1357811.0, -1459164.3, -77813.63, -0.08293278, 0.21594688, -1315627.0, -186195.6, 0.0000020172258, 9.999335, 9.997997 
2.605705e+3, 1.9474594e+2, -1110432.6, -1351591.8, -28035.195, 0.037933495, 0.3384356, -1107216.4, -75700.305, 0.0, 10.000616, 9.997462 
2.6053187e+3, 2.0473778e+2, -730123.2, -698387.25, -6914.3716, 0.06369076, 0.3583428, -696946.25, 236648.06, 0.0, 10.000821, 10.001133 
2.6049313e+3, 2.1472953e+2, -871399.1, -747178.25, -150423.73, -0.037123397, 0.108467355, -646546.56, 189115.61, 0.0, 9.999283, 10.000894 
2.6045448e+3, 2.2472157e+2, -1093286.4, -1204334.1, -183075.11, -0.07704685, 0.13141315, -957500.6, -219759.25, 0.0, 9.998831, 9.997286 
2.6041588e+3, 2.3471333e+2, -1043952.75, -1213883.4, -69014.89, 0.0045224954, 0.29404598, -1019455.0, -379614.03, 0.0, 9.99884, 9.996553 
2.6037723e+3, 2.447053e+2, -582768.7, -464492.78, -48069.438, 0.012548339, 0.38740486, -447420.72, 94504.0, 0.0, 9.999304, 10.000785 
2.6033837e+3, 2.5469774e+2, -444546.03, -387984.9, -52034.91, -0.11396344, 0.2456843, -357041.97, 86945.73, 0.0, 9.999739, 10.000445 
2.6029977e+3, 2.6469004e+2, -358891.22, -306743.34, -1489.7958, -0.034733325, 0.1906662, -306700.8, 39356.715, 0.0, 9.999725, 10.000322 
2.6026163e+3, 2.7468178e+2, -428823.25, -345224.63, -18943.836, 0.33513287, 0.029900266, -341132.22, -92993.03, 0.0, 9.998792, 9.99985 
2.602233e+3, 2.8467533e+2, -263431.34, 20853.652, 63468.348, 0.39112288, 0.049207192, 34379.78, 184581.2, 0.0, 9.99823, 10.00195 
2.6018468e+3, 2.9467165e+2, -256145.05, 925.1324, 81188.38, 0.019725855, 0.1820154, 24419.064, 76655.03, 0.0, 9.997915, 10.00131 
2.601465e+3, 3.0466715e+2, -271669.1, -264118.7, -128844.33, 0.43025708, 0.47794035, -138994.25, -138994.25, 0.0, 9.998731, 9.998745 
2.6010758e+3, 3.1465733e+2, -199599.9, -41637.08, 60527.77, 0.2912678, 0.32538804, -21111.336, -21111.336, 0.0, 9.998394, 10.000423 
2.618402e+3, 1.2519012e+2, -1521524.9, -1771097.8, 31647.676, 0.095784396, 0.10607721, -1517574.3, 195577.1, 0.14988379, 10.002217, 9.998485 
2.6180136e+3, 1.3518186e+2, -1418767.5, -1760366.0, 1677.7526, -0.040417038, 0.1474008, -1418759.3, 196468.11, 0.09979615, 10.002547, 9.997763 
2.6176268e+3, 1.4517353e+2, -1331262.9, -1557385.9, 52308.254, -0.15950339, 0.24876247, -1319748.9, 197560.72, 0.05285716, 10.001953, 9.99871 
2.6172423e+3, 1.5516521e+2, -1370976.1, -1619095.9, 45951.484, -0.16802827, 0.257558, -1362739.4, 56658.082, 0.019694533, 10.001261, 9.997989 
2.6168564e+3, 1.6515651e+2, -1289869.8, -1427772.0, -54248.547, -0.14798084, 0.2969633, -1271087.4, 50398.207, 0.004163879, 10.0007305, 9.998871 
2.61647e+3, 1.751474e+2, -1370966.8, -1479455.6, -62012.773, -0.12931593, 0.2158677, -1342821.6, -119246.914, 0.00030229846, 9.999754, 9.998334 
2.6160833e+3, 1.8513945e+2, -1158652.6, -1172482.6, -14884.009, -0.11877469, 0.2676262, -1149155.8, -23503.768, 0.0000010444409, 9.999859, 9.999713 
2.6156974e+3, 1.9513239e+2, -934534.0, -1088625.3, 42659.406, -0.11328257, 0.3177166, -923512.3, 104208.1, 0.0, 10.000997, 9.999098 
2.6153114e+3, 2.051229e+2, -956110.44, -1217006.5, -55977.355, -0.0040278654, 0.29946616, -944607.25, -14793.67, 0.0, 10.00101, 9.997481 
2.6149258e+3, 2.1511124e+2, -1070129.0, -1263841.0, -193524.25, 0.17266628, 0.096525975, -950576.3, -118648.336, 0.0, 9.999697, 9.997145 
2.6145384e+3, 2.2510323e+2, -792711.2, -663689.1, -173141.27, 0.12877715, 0.12657513, -543431.2, 190576.02, 0.0, 9.999149, 10.000859 
2.6141497e+3, 2.3509838e+2, -733534.0, -658122.3, -30277.984, -0.07780571, 0.28671265, -647470.25, -11412.199, 0.0, 9.999147, 10.000246 
2.6137635e+3, 2.4509168e+2, -529416.25, -401621.88, 24991.477, -0.06368393, 0.30431625, -396908.4, 141214.03, 0.0, 9.999494, 10.001129 
2.6133788e+3, 2.5508335e+2, -342929.6, -327030.88, 35575.4, 0.11062744, 0.09538849, -298527.5, 141669.6, 0.0, 10.000344, 10.000587 
2.6129928e+3, 2.6507568e+2, -286412.0, -341969.5, 29782.428, 0.17528321, 0.074770235, -273464.22, 68806.125, 0.0, 10.000482, 9.999734 
2.612607e+3, 2.7506852e+2, -329190.4, -360123.8, 13949.403, 0.1953697, 0.11766832, -323829.13, -79485.266, 0.0, 9.9996805, 9.999341 
2.612222e+3, 2.8506133e+2, -202928.03, 39903.58, 81582.64, 0.17976955, 0.08621485, 64766.7, 211180.16, 0.0, 9.998651, 10.001888 
2.611837e+3, 2.950548e+2, -314863.38, -39388.504, 69134.64, 0.045357585, -0.027782327, -23011.695, 25461.77, 0.0, 9.997514, 10.001245 
2.6114547e+3, 3.0504996e+2, -334055.88, -252764.88, -43802.51, 0.32453796, 0.22080453, -233654.89, -233654.89, 0.0, 9.9980755, 9.999151 
2.6110643e+3, 3.1504077e+2, 111671.72, 229166.55, -327449.4, -0.022268947, 0.10968173, 503096.72, 503096.72, 0.0, 9.999931, 10.001551 
2.628396e+3, 1.2557606e+2, -1502668.1, -1709574.1, -48353.59, 0.007835078, 0.19119084, -1491925.8, 217446.75, 0.13183959, 10.002086, 9.998974 
2.6280108e+3, 1.3556714e+2, -1291700.0, -1655148.6, -27290.162, 0.10618331, 0.11201067, -1289662.4, 321790.25, 0.08692967, 10.003302, 9.99813 
2.6276234e+3, 1.455588e+2, -1247268.5, -1574957.4, -3776.4333, 0.007399475, 0.21641274, -1247225.0, 266310.1, 0.045284744, 10.002719, 9.998274 
2.6272357e+3, 1.5555066e+2, -1488913.8, -1721498.6, -34188.676, -0.15712656, 0.28944132, -1483992.4, -68370.6, 0.01638905, 10.00059, 9.997652 
2.626849e+3, 1.6554183e+2, -1337798.9, -1420586.6, -36582.605, -0.18652683, 0.31054375, -1323950.3, -6241.0254, 0.0032885466, 10.000298, 9.999118 
2.6264632e+3, 1.7553224e+2, -1128493.8, -1351367.6, -23213.166, -0.12153816, 0.16103458, -1126101.8, 93697.766, 0.00021471751, 10.001358, 9.998452 
2.6260766e+3, 1.8552375e+2, -962004.06, -1108125.6, -29610.057, -0.111599505, 0.16533798, -956231.94, 165649.94, 0.00000047553752, 10.00138, 9.999405 
2.6256904e+3, 1.9551632e+2, -1112727.3, -1218109.4, -102079.055, -0.13870834, 0.19296402, -1050542.4, -26587.197, 0.0, 10.000023, 9.998663 
2.6253042e+3, 2.0550703e+2, -1057799.0, -1260502.9, -97679.8, -0.04757951, 0.19955724, -1018390.3, -92344.516, 0.0, 10.000273, 9.997557 
2.6249188e+3, 2.1549585e+2, -875616.44, -1187816.6, 33722.258, 0.16434655, 0.054100875, -872015.5, -43860.25, 0.0, 10.001128, 9.996984 
2.6245314e+3, 2.2548783e+2, -526560.6, -472862.2, 28562.512, 0.18059765, 0.08718788, -460510.66, 269723.6, 0.0, 10.000765, 10.001364 
2.6241425e+3, 2.3548274e+2, -770018.4, -612342.3, -77725.875, 0.007892471, 0.16246296, -580470.2, 51813.027, 0.0, 9.998686, 10.000767 
2.6237556e+3, 2.4547659e+2, -753107.56, -486566.6, -72856.61, 0.0072323033, 0.1853921, -467951.9, 66388.74, 0.0, 9.997891, 10.001305 
2.6233712e+3, 2.5546896e+2, -802555.94, -565224.6, -47509.06, 0.19181196, 0.01461609, -556067.56, -119656.71, 0.0, 9.997283, 10.00043 
2.6229858e+3, 2.6546195e+2, -628120.75, -499537.94, -10460.416, 0.24213822, 0.051733438, -498692.53, -160212.95, 0.0, 9.998139, 9.999758 
2.6225987e+3, 2.7545556e+2, -402207.7, -424816.1, 36773.48, 0.13309716, 0.15716545, -375040.16, -134494.67, 0.0, 9.99935, 9.999042 
2.6222125e+3, 2.8544793e+2, -206467.84, -45788.883, 46492.49, 0.0336792, 0.13890822, -33306.043, 109314.0, 0.0, 9.999048, 10.001087 
2.6218268e+3, 2.954391e+2, -456945.1, -216086.8, -4978.3623, -0.009205521, -0.14858772, -215983.94, -171280.69, 0.0, 9.997053, 10.000246 
2.6214445e+3, 3.0543378e+2, -457924.2, -230751.4, -45024.598, 0.24457088, 0.0653462, -222153.17, -222153.17, 0.0, 9.996926, 9.999849 
2.621053e+3, 3.15421e+2, -198295.56, 3537.991, -30971.244, -0.42183438, -0.49007654, 8183.5835, 8183.5835, 0.0, 9.998186, 10.0008545 
2.63839e+3, 1.2596187e+2, -1497365.9, -1588387.3, -16765.326, -0.10098454, 0.38994566, -1494376.1, 211220.45, 0.11528716, 10.00155, 10.000143 
2.638008e+3, 1.359511e+2, -1310664.8, -1561702.8, -441.63962, 0.20996718, -0.002650769, -1310663.9, 297025.34, 0.07524967, 10.002653, 9.999108 
2.63762e+3, 1.4594251e+2, -1328331.8, -1649528.9, -87327.6, 0.12087752, 0.0488107, -1306124.4, 203648.8, 0.038529176, 10.002304, 9.997947 
2.6372287e+3, 1.5593496e+2, -1481299.6, -1729232.6, -79707.984, -0.19341399, 0.21439883, -1457885.5, -46030.3, 0.013527696, 10.0007305, 9.997512 
2.6368415e+3, 1.6592616e+2, -1248778.3, -1306246.8, 23360.186, -0.25416774, 0.21052128, -1240480.6, 73458.92, 0.0025719018, 10.000597, 9.999767 
2.6364574e+3, 1.7591648e+2, -1089618.3, -1274572.6, 42344.4, -0.15800613, -0.0041045463, -1080384.6, 135641.02, 0.00015054179, 10.001354, 9.998985 
2.6360708e+3, 1.8590698e+2, -1089540.5, -1358197.1, -58785.438, -0.118626386, -0.030822292, -1077240.6, 40879.715, 0.0000001940375, 10.001328, 9.997707 
2.6356834e+3, 1.9589767e+2, -1150820.8, -1371733.3, -107871.164, -0.14427991, -0.013164079, -1106885.4, -86665.37, 0.0, 10.000314, 9.997475 
2.6352963e+3, 2.0589036e+2, -757215.6, -684641.6, -34956.04, -0.14442864, 0.035945155, -670543.4, 251743.75, 0.0, 10.0004835, 10.001397 
2.63491e+3, 2.1588409e+2, -550641.2, -647669.75, 100676.97, -0.13006975, 0.009934082, -487399.13, 336936.28, 0.0, 10.001671, 10.000433 
2.6345238e+3, 2.2587527e+2, -697795.44, -920744.5, -19437.33, 0.054462396, -0.018940957, -696113.56, 30309.2, 0.0, 10.001128, 9.998127 
2.6341373e+3, 2.358652e+2, -869020.9, -967428.6, -132636.11, 0.31171453, -0.109633505, -776756.1, -148225.1, 0.0, 9.99928, 9.998053 
2.6337487e+3, 2.4585885e+2, -698288.1, -404625.4, -107997.78, 0.2471564, -0.012102256, -369185.06, 161410.34, 0.0, 9.998001, 10.00182 
2.6333588e+3, 2.5585476e+2, -769625.56, -462096.47, -65960.62, -0.009127909, 0.124322884, -448545.9, -15913.7, 0.0, 9.997095, 10.0012245 
2.6329747e+3, 2.658488e+2, -554813.56, -300999.0, 63968.605, 0.05985327, 0.15262498, -285788.6, 48899.414, 0.0, 9.997903, 10.001252 
2.632593e+3, 2.758417e+2, -232363.11, -191720.36, 115779.88, 0.32687518, 0.06299829, -94492.0, 142263.3, 0.0, 9.999806, 10.000438 
2.6322064e+3, 2.8583476e+2, -292766.2, -333518.28, -21651.219, 0.23074272, 0.16267611, -283410.78, -144583.81, 0.0, 9.99944, 9.998947 
2.631816e+3, 2.9582775e+2, -541168.56, -452155.0, -92580.48, -0.09902932, 0.28918236, -393938.84, -353036.6, 0.0, 9.997244, 9.998555 
2.631433e+3, 3.058185e+2, -442965.13, -203261.61, -61109.59, 0.16743508, 0.1683795, -188581.48, -188581.48, 0.0, 9.996883, 10.000086 
2.6310468e+3, 3.1580704e+2, -174967.3, 308269.06, -104668.65, -0.020079026, -0.2644669, 329966.03, 329966.03, 0.0, 9.996983, 10.003553 
2.6483834e+3, 1.263465e+2, -1592179.9, -1700005.0, -10627.372, -0.18972103, 0.4389374, -1591142.4, 110684.99, 0.10016987, 10.001111, 9.999501 
2.6480028e+3, 1.3633472e+2, -1516056.1, -1702099.5, -85498.33, 0.23295416, 0.009677999, -1482733.0, 121200.516, 0.064692505, 10.001309, 9.998762 
2.6476145e+3, 1.463263e+2, -1383719.8, -1564454.0, -181383.53, 0.15050553, 0.022568993, -1271438.9, 234575.75, 0.032530583, 10.001464, 9.998919 
2.6472223e+3, 1.563195e+2, -1346629.9, -1567025.4, -129874.49, -0.21032082, 0.16185956, -1286501.6, 121583.875, 0.011066901, 10.001259, 9.998358 
2.6468349e+3, 1.6631147e+2, -1160369.8, -1207775.1, 22652.92, -0.25393924, 0.1591432, -1151285.8, 158874.81, 0.0019930317, 10.000929, 10.000297 
2.646451e+3, 1.7630273e+2, -1289664.1, -1344982.0, 22193.121, -0.11338818, -0.008901004, -1281861.0, -69623.54, 0.00010503105, 9.999859, 9.999242 
2.6460645e+3, 1.8629391e+2, -1264587.5, -1413567.1, 7572.9707, -0.06840343, 0.0064496007, -1264203.5, -149877.16, 0.00000008640195, 10.000041, 9.997928 
2.645677e+3, 1.9628492e+2, -1128188.4, -1350925.0, 54792.617, -0.074679196, 0.04971199, -1115439.3, -99015.12, 0.0, 10.000463, 9.997541 
2.64529e+3, 2.0627742e+2, -791029.4, -655337.7, 52075.56, -0.11076228, 0.06632604, -637656.25, 280837.06, 0.0, 10.000088, 10.001781 
2.6449028e+3, 2.1627118e+2, -1007351.2, -856937.25, -64592.13, -0.14859612, -0.008149625, -833006.8, -12466.236, 0.0, 9.998497, 10.000544 
2.6445165e+3, 2.2626248e+2, -1044464.4, -1167308.8, -146926.7, 0.06922811, -0.01246218, -946637.9, -224010.94, 0.0, 9.999087, 9.997419 
2.644131e+3, 2.3625195e+2, -881891.0, -1081968.6, -65662.52, 0.45504618, -0.078716084, -862266.4, -237524.89, 0.0, 9.99969, 9.997073 
2.6437408e+3, 2.4624465e+2, -507027.38, -388016.66, -40143.266, 0.33581895, 0.011066912, -375742.03, 151073.34, 0.0, 9.999659, 10.001125 
2.6433483e+3, 2.5623992e+2, -663668.1, -490831.97, -90397.92, -0.115096, 0.14138688, -452190.6, -23332.057, 0.0, 9.998197, 10.0005 
2.6429644e+3, 2.662339e+2, -490777.28, -188943.16, 33294.637, -0.031751044, 0.14798886, -185314.13, 145599.3, 0.0, 9.998039, 10.001925 
2.642586e+3, 2.7622664e+2, -503390.63, -307990.22, 13478.08, 0.4128429, -0.05095784, -307064.9, -74085.53, 0.0, 9.997936, 10.000527 
2.6421994e+3, 2.8622043e+2, -496801.16, -552886.7, -159465.83, 0.36050862, 0.16791293, -362931.16, -227885.25, 0.0, 9.998656, 9.997778 
2.6418063e+3, 2.9621506e+2, -401076.0, -522953.25, -102290.03, -0.11584246, 0.56748086, -342948.4, -305837.78, 0.0, 9.998885, 9.997256 
2.6414222e+3, 3.0620232e+2, -91740.34, -11633.199, 41697.59, 0.016870758, 0.13773856, 6131.7163, 6131.7163, 0.0, 9.999244, 10.000233 
2.641041e+3, 3.1619444e+2, -280704.72, -169876.95, 122318.31, 0.3261689, 0.06033443, -91005.81, -91005.81, 0.0, 9.998156, 9.999682 
2.658376e+3, 1.2673104e+2, -1638374.0, -1834921.8, 47692.72, -0.34089628, 0.45200604, -1627412.6, 70645.24, 0.08642937, 10.001302, 9.998455 
2.6579964e+3, 1.3671862e+2, -1580014.6, -1807934.8, 22445.37, 0.1793033, 0.06651532, -1577825.3, 22350.865, 0.05519947, 10.001159, 9.998096 
2.657608e+3, 1.4671035e+2, -1303628.4, -1361899.1, -94945.36, 0.09447847, 0.04532151, -1233448.6, 268806.03, 0.027235242, 10.001324, 10.000379 
2.657216e+3, 1.5670419e+2, -1229729.3, -1354526.6, -55569.58, -0.2797409, 0.11618154, -1208572.1, 195741.3, 0.0089680515, 10.001395, 9.999747 
2.6568288e+3, 1.6669741e+2, -1103024.9, -1114269.8, 27556.52, -0.26823014, 0.15072984, -1080523.1, 225852.61, 0.0015322798, 10.001094, 10.0008335 
2.656444e+3, 1.766902e+2, -1204330.4, -1223430.5, 31976.617, -0.092458, 0.09041576, -1180508.1, 27932.516, 0.00007382683, 10.000099, 9.999953 
2.656058e+3, 1.8668342e+2, -1121829.1, -1177727.5, 49701.89, -0.017662376, 0.19647226, -1092757.0, 17752.232, 0.000000036839044, 10.000281, 9.999439 
2.6556712e+3, 1.9667667e+2, -1002139.94, -1167082.4, 86866.24, -0.017405896, 0.32586768, -964831.1, 47750.258, 0.0, 10.000767, 9.998658 
2.6552838e+3, 2.0666693e+2, -965195.1, -1049694.4, 10355.527, 0.019282097, 0.22664261, -963944.5, -49266.266, 0.0, 10.000237, 9.99899 
2.6548964e+3, 2.1665601e+2, -1063855.1, -1099965.3, -84439.93, 0.05281311, -0.035373922, -995561.56, -178778.52, 0.0, 9.999004, 9.9986315 
2.6545092e+3, 2.2664961e+2, -822540.2, -765941.9, -93254.91, 0.15966305, 0.12229046, -696786.8, 22060.006, 0.0, 9.999314, 10.000075 
2.6541224e+3, 2.3664513e+2, -620784.06, -728627.1, 4257.598, 0.3172617, 0.41177166, -620616.25, 278.0551, 0.0, 10.000438, 9.999153 
2.6537323e+3, 2.4663515e+2, -602194.2, -713156.6, -47887.87, 0.23465107, 0.29103714, -584385.5, -61395.59, 0.0, 10.0001745, 9.998664 
2.6533407e+3, 2.56623e+2, -676688.7, -713802.9, -96862.55, -0.0057736696, -0.060493957, -596621.6, -171518.06, 0.0, 9.998998, 9.998585 
2.652956e+3, 2.6661533e+2, -509217.78, -298454.0, 19844.656, 0.013049105, -0.084842205, -296601.78, 30573.895, 0.0, 9.998323, 10.001041 
2.652575e+3, 2.7660978e+2, -517308.56, -347326.16, -28370.52, 0.24824005, -0.021101395, -342716.06, -113487.914, 0.0, 9.997928, 10.000271 
2.6521903e+3, 2.8660285e+2, -329723.5, -283099.03, -116942.336, 0.29458338, 0.042559713, -187167.95, -55872.16, 0.0, 9.998955, 9.999511 
2.6518014e+3, 2.9659566e+2, -8243.254, -113814.48, -33115.9, 0.08235196, 0.10638798, 1284.725, 34652.348, 0.0, 10.000588, 9.9992485 
2.6514173e+3, 3.0658704e+2, 164598.98, 224403.42, 60758.35, 0.2216428, -0.059219945, 262219.16, 262219.16, 0.0, 10.000476, 10.001284 
2.6510325e+3, 3.1658712e+2, -149044.8, -250878.22, 211897.55, 0.26550195, 0.608727, 17967.572, 17967.572, 0.0, 9.999585, 9.998472 
2.6683712e+3, 1.2711632e+2, -1365234.0, -1575375.3, 85911.27, -0.3118983, 0.24045798, -1334582.1, 359694.13, 0.07399912, 10.002706, 9.999607 
2.6679894e+3, 1.37107e+2, -1541152.8, -1709422.6, 132363.89, 0.11262266, 0.06671552, -1468447.4, 127914.65, 0.04671132, 10.001062, 9.998841 
2.667601e+3, 1.470989e+2, -1317824.0, -1377998.4, 88849.74, 0.015121649, 0.05103153, -1254105.4, 244333.78, 0.022592485, 10.001224, 10.000339 
2.66721e+3, 1.5709174e+2, -1160779.5, -1340009.6, 57944.063, -0.27095005, 0.040945467, -1143678.3, 256830.13, 0.0071954923, 10.001921, 9.999626 
2.6668224e+3, 1.6708437e+2, -1068154.0, -1157226.5, 51541.813, -0.26455832, 0.06129008, -1044572.44, 258006.05, 0.001170623, 10.001604, 10.000286 
2.6664367e+3, 1.7707698e+2, -1227043.0, -1285071.8, 11606.104, -0.10370738, 0.034266993, -1224807.8, -20159.389, 0.00005271245, 10.000199, 9.999467 
2.6660505e+3, 1.8707015e+2, -1160898.3, -1169863.4, 11706.279, -0.046207637, 0.13961238, -1152845.6, -46128.168, 0.000000014947995, 9.99992, 9.999671 
2.665664e+3, 1.9706371e+2, -1211256.5, -1277283.9, -37965.938, 0.0025909783, 0.27090368, -1193958.0, -185173.22, 0.0, 9.999417, 9.998551 
2.6652768e+3, 2.0705403e+2, -1113985.6, -1229999.6, -65748.8, 0.07038824, 0.22197902, -1084313.0, -173428.31, 0.0, 9.999724, 9.997972 
2.6648894e+3, 2.1704283e+2, -1071578.6, -1194784.5, -41539.016, 0.15382914, 0.028717605, -1058882.1, -245882.5, 0.0, 9.999424, 9.997752 
2.6645014e+3, 2.2703719e+2, -669265.7, -562725.0, -34894.473, 0.16825826, 0.23219259, -552313.7, 162742.0, 0.0, 9.999886, 10.001154 
2.6641136e+3, 2.3703428e+2, -694257.9, -704426.25, -73178.445, 0.17832713, 0.5605595, -625987.25, -8904.45, 0.0, 9.999746, 9.9996395 
2.6637247e+3, 2.4702322e+2, -624642.5, -847340.94, -107300.26, 0.17332615, 0.36641365, -581356.7, -62170.063, 0.0, 10.000596, 9.99753 
2.6633346e+3, 2.5700808e+2, -525159.56, -802833.9, -43801.36, 0.12270767, -0.166567, -518414.06, -97085.08, 0.0, 10.000778, 9.997121 
2.6629484e+3, 2.669997e+2, -404935.47, -359867.1, 80096.93, 0.08156039, -0.14357576, -299194.88, 24215.025, 0.0, 9.9995575, 10.000007 
2.662564e+3, 2.7699474e+2, -723485.4, -549029.0, 45663.77, 0.1013811, 0.076530695, -537799.44, -312339.78, 0.0, 9.997002, 9.999333 
2.6621804e+3, 2.869865e+2, -434065.03, -203114.0, -13580.302, 0.20276214, -0.013434118, -202318.2, -74783.59, 0.0, 9.997713, 10.000641 
2.661795e+3, 2.9697716e+2, -229758.28, -138494.44, -17376.416, 0.19152477, -0.28755695, -135297.97, -105679.33, 0.0, 9.998757, 9.999963 
2.6614118e+3, 3.0697206e+2, -100905.1, 125991.555, -96108.664, 0.43561363, -0.15739436, 161228.8, 161228.8, 0.0, 9.998573, 10.001498 
2.6610234e+3, 3.1696734e+2, -542531.5, -520735.0, -10194.16, 0.16404773, -0.020445295, -516710.34, -516710.34, 0.0, 9.997318, 9.997696 
2.6783666e+3, 1.2750196e+2, -1383950.6, -1394967.4, 3249.0598, -0.34353185, 0.007126179, -1383063.9, 307425.5, 0.062778875, 10.001723, 10.001373 
2.677982e+3, 1.3749637e+2, -1450890.9, -1540729.3, 47220.74, -0.039411005, 0.03354435, -1430637.0, 161897.27, 0.039145913, 10.001155, 9.999963 
2.6775938e+3, 1.4748856e+2, -1353738.0, -1448827.8, 80914.3, -0.10446959, 0.030431878, -1307433.9, 187175.25, 0.01854353, 10.001246, 9.999809 
2.6772052e+3, 1.5748002e+2, -1247301.9, -1449306.4, 64574.26, -0.2888697, -0.060700625, -1228423.9, 168270.5, 0.005710664, 10.001616, 9.999015 
2.6768166e+3, 1.6747148e+2, -1150514.3, -1302786.9, 8864.186, -0.29382524, -0.0799905, -1150000.0, 148778.77, 0.0008890518, 10.001487, 9.999337 
2.676429e+3, 1.7746297e+2, -1216921.4, -1369775.6, -2350.2134, -0.24116139, -0.12244642, -1216885.3, -16022.558, 0.000037964888, 10.000646, 9.99866 
2.676042e+3, 1.874547e+2, -1142251.4, -1218169.6, 20902.564, -0.16158605, -0.093868226, -1136876.8, -33930.56, 0.0000000057994387, 10.000293, 9.999163 
2.6756558e+3, 1.9744678e+2, -1144545.0, -1259540.8, -16221.756, -0.08478686, -0.054742873, -1142300.5, -137273.36, 0.0, 9.99991, 9.998436 
2.6752687e+3, 2.074395e+2, -1022967.25, -1099241.6, -38919.53, 0.013724604, 0.09881993, -1006614.3, -99509.516, 0.0, 9.999965, 9.998759 
2.6748812e+3, 2.1743214e+2, -915744.0, -1043088.44, -7405.2407, 0.090979375, 0.22284083, -915314.9, -106130.68, 0.0, 10.000106, 9.998475 
2.6744935e+3, 2.2742443e+2, -676916.4, -665319.0, -13772.854, 0.066075, 0.24237421, -656173.94, 55085.777, 0.0, 10.000227, 10.000301 
2.674105e+3, 2.3741692e+2, -632980.0, -716339.1, -52794.535, 0.013160594, 0.20862769, -607395.56, 5934.668, 0.0, 10.000296, 9.999304 
2.6737177e+3, 2.4740769e+2, -474545.53, -645004.5, -65916.2, 0.1474917, 0.142272, -452029.9, 63386.965, 0.0, 10.00103, 9.998723 
2.673331e+3, 2.5739747e+2, -291229.28, -576880.75, 434.61038, 0.31453583, -0.0045301174, -291228.63, 126284.234, 0.0, 10.001829, 9.998183 
2.6729423e+3, 2.6738963e+2, -383475.1, -474020.6, 17694.361, 0.2223301, 0.09844851, -380140.13, -60549.29, 0.0, 10.000172, 9.998963 
2.672554e+3, 2.7738288e+2, -703578.94, -611520.9, 19380.066, 0.088136725, 0.26280454, -607607.3, -385947.7, 0.0, 9.997391, 9.998723 
2.6721698e+3, 2.8737375e+2, -511651.22, -304569.0, 71423.39, 0.13685228, 0.14148912, -282324.34, -158580.52, 0.0, 9.997436, 10.000096 
2.6717862e+3, 2.9736364e+2, -302637.25, -262111.48, 9244.94, 0.15666817, -0.12970492, -260102.11, -234267.69, 0.0, 9.998557, 9.999239 
2.6714015e+3, 3.073548e+2, -349934.47, -251151.94, -184267.63, 0.33400294, -0.19934931, -109770.945, -109770.945, 0.0, 9.9979315, 9.999242 
2.67101e+3, 3.1734714e+2, -552200.25, -450915.84, 10132.041, -0.18741736, -0.14917262, -449912.22, -449912.22, 0.0, 9.996807, 9.998454 
2.6883608e+3, 1.2788984e+2, -1566545.9, -1594393.6, -29745.363, -0.29931062, 0.13975959, -1547626.8, 139056.83, 0.052671067, 10.000782, 10.000425 
2.687976e+3, 1.3788033e+2, -1347071.6, -1536003.3, -110781.1, -0.04767189, -0.14923055, -1295948.1, 292820.84, 0.032423306, 10.002076, 9.999549 
2.6875877e+3, 1.478737e+2, -1280143.4, -1366050.0, -99739.19, -0.10924983, -0.07331389, -1214501.6, 276333.5, 0.015032757, 10.001519, 10.000243 
2.687199e+3, 1.5786761e+2, -1458449.0, -1511726.6, -87844.63, -0.20893641, 0.020235006, -1393293.0, -394.1578, 0.0044764117, 9.999997, 9.999364 
2.686811e+3, 1.6785999e+2, -1259762.8, -1334028.0, -57706.73, -0.19772586, 0.053424224, -1228274.0, 66701.01, 0.00066900725, 10.000646, 9.999546 
2.6864234e+3, 1.778517e+2, -1091778.6, -1316542.1, -33185.953, -0.15020098, 0.017402887, -1086981.1, 110075.484, 0.000027210404, 10.001532, 9.998622 
2.6860356e+3, 1.8784241e+2, -978322.94, -1170896.9, -902.74, -0.13910574, -0.040208314, -978318.7, 120830.72, 0.000000001728097, 10.001567, 9.998873 
2.6856485e+3, 1.9783324e+2, -1088454.1, -1262169.0, -24142.03, -0.103070475, -0.09886851, -1085161.4, -83919.96, 0.0, 10.000436, 9.998174 
2.6852614e+3, 2.0782639e+2, -889371.4, -1000176.0, -36861.16, -0.0066593913, 0.082235664, -878229.25, 25084.469, 0.0, 10.000729, 9.999078 
2.6848745e+3, 2.1782038e+2, -881259.4, -1037670.25, -43960.652, 0.10859894, 0.31000128, -869750.7, -64372.09, 0.0, 10.0004225, 9.998368 
2.684486e+3, 2.2781119e+2, -792200.25, -810909.56, -68833.69, 0.06479445, 0.22502841, -732088.5, -24620.684, 0.0, 9.999839, 9.999482 
2.684097e+3, 2.3780109e+2, -981129.44, -967984.9, -81118.77, -0.007954876, 0.005096291, -893172.56, -283609.06, 0.0, 9.998308, 9.998533 
2.6837105e+3, 2.477932e+2, -625822.5, -630509.75, -55009.01, 0.101226375, 0.04042223, -573107.2, -61469.547, 0.0, 9.999677, 9.999429 
2.6833248e+3, 2.5778624e+2, -434223.9, -641317.4, -64184.3, 0.27796838, 0.13848837, -415944.75, -2241.737, 0.0, 10.000899, 9.998168 
2.682935e+3, 2.6777828e+2, -426785.78, -575041.6, -133543.13, 0.2199378, 0.2654624, -348176.3, -32393.13, 0.0, 10.0003, 9.998165 
2.6825443e+3, 2.7776992e+2, -671770.9, -712524.2, -63850.766, 0.085442014, 0.33519354, -625124.2, -407255.13, 0.0, 9.998172, 9.997645 
2.68216e+3, 2.8776014e+2, -405510.63, -352848.53, 72739.57, 0.091918536, 0.23173398, -301820.88, -181858.8, 0.0, 9.998599, 9.999193 
2.6817772e+3, 2.9774997e+2, -347738.22, -415428.84, -28058.678, 0.09447799, 0.03062394, -337619.97, -315563.63, 0.0, 9.998877, 9.998016 
2.6813906e+3, 3.0773905e+2, -373407.94, -381093.25, -163005.14, 0.20598379, -0.13787939, -214200.17, -214200.17, 0.0, 9.998352, 9.998102 
2.6809976e+3, 3.177325e+2, -606465.06, -278484.28, 357326.34, -0.39486426, 0.11074667, -49314.46, -49314.46, 0.0, 9.995719, 10.000119 
2.698355e+3, 1.2827724e+2, -1577963.1, -1756068.6, 29399.758, -0.29575258, 0.29114982, -1573235.6, 109648.18, 0.043612197, 10.001476, 9.998885 
2.6979706e+3, 1.3826244e+2, -1505331.9, -1685662.9, -26823.86, -0.090472884, -0.39304313, -1501426.5, 83599.086, 0.026484963, 10.001309, 9.998854 
2.6975816e+3, 1.4825754e+2, -1274615.9, -1265685.8, -87721.94, -0.11051471, -0.17569341, -1182315.4, 304763.16, 0.012009427, 10.001149, 10.001106 
2.6971927e+3, 1.582552e+2, -1323577.9, -1354604.1, -65990.11, -0.1533911, 0.21462263, -1271302.0, 117806.53, 0.003455713, 10.000532, 10.000173 
2.696806e+3, 1.6824913e+2, -1142249.1, -1190333.1, 16619.664, -0.064375244, 0.32364264, -1137063.9, 154105.34, 0.00049606664, 10.001049, 10.000338 
2.6964197e+3, 1.7824188e+2, -1015891.2, -1223715.8, 16229.068, 0.017356042, 0.3204922, -1014631.5, 178608.4, 0.00001910138, 10.00179, 9.999131 
2.696031e+3, 1.8823197e+2, -970012.4, -1176276.8, -14947.678, -0.05180691, 0.19048785, -968934.75, 126403.25, 0.0000000002885943, 10.001647, 9.998793 
2.6956415e+3, 1.982217e+2, -1013386.1, -1222826.8, -15837.972, -0.15475321, 0.031830397, -1012195.25, -14754.845, 0.0, 10.000897, 9.998219 
2.695255e+3, 2.0821385e+2, -843383.25, -980106.56, -5219.842, -0.035096582, 0.11326997, -843184.25, 56334.633, 0.0, 10.000994, 9.999111 
2.6948684e+3, 2.1820685e+2, -782879.06, -993384.2, -31774.746, 0.13366652, 0.25157356, -778187.4, 23401.91, 0.0, 10.001063, 9.998363 
2.6944795e+3, 2.2819725e+2, -801599.56, -892682.6, -104541.016, 0.1606982, 0.1710521, -733111.06, -29428.568, 0.0, 10.000068, 9.998824 
2.6940897e+3, 2.3818721e+2, -906569.25, -931612.6, -76311.234, 0.13257751, 0.020066475, -841759.2, -235980.2, 0.0, 9.99878, 9.99855 
2.6937017e+3, 2.481798e+2, -586484.0, -597585.6, 26303.105, -0.013504875, 0.09496175, -565152.4, -57303.094, 0.0, 9.999855, 9.999584 
2.6933143e+3, 2.5817293e+2, -325429.2, -561612.06, -32568.932, -0.1655588, 0.20713364, -321020.3, 88893.83, 0.0, 10.001466, 9.998449 
2.692926e+3, 2.681636e+2, -359968.97, -545647.94, -188205.89, -0.031500872, 0.19309819, -242949.84, 69056.79, 0.0, 10.000729, 9.998179 
2.692537e+3, 2.781537e+2, -533265.56, -675913.6, -70509.24, 0.16888833, 0.12746435, -504296.66, -290190.1, 0.0, 9.99919, 9.997409 
2.6921526e+3, 2.8814366e+2, -390160.7, -515629.2, 102372.79, 0.13542333, 0.107315645, -332829.25, -216618.25, 0.0, 9.999371, 9.997715 
2.6917687e+3, 2.9813427e+2, -153934.06, -263693.38, -45711.9, 0.02916382, 0.104034826, -137389.95, -119080.9, 0.0, 9.999897, 9.998562 
2.691383e+3, 3.081302e+2, -8021.7373, 252408.13, -158543.28, 0.31820595, 0.33473623, 327356.3, 327356.3, 0.0, 9.998824, 10.002261 
2.6909894e+3, 3.1812572e+2, -376544.38, 192736.3, 245361.19, -0.06544753, 0.42269439, 283891.4, 283891.4, 0.0, 9.995638, 10.00342 
2.7083522e+3, 1.2866205e+2, -1250562.9, -1540306.4, -2261.863, -0.12889914, -0.040691357, -1250545.3, 428565.56, 0.035544243, 10.00352, 9.999427 
2.7079624e+3, 1.3865268e+2, -1674227.8, -1752557.0, 46431.07, -0.21300311, -0.20150888, -1652649.4, -71447.72, 0.021269005, 10.000014, 9.999061 
2.7075747e+3, 1.4864711e+2, -1355629.1, -1340561.4, 58674.715, -0.16410339, -0.028480334, -1288938.9, 194322.45, 0.0094155185, 10.000724, 10.000808 
2.7071878e+3, 1.5864266e+2, -1106496.8, -1294755.8, 21076.086, -0.041796837, 0.19775073, -1104166.1, 281145.1, 0.0026134893, 10.002213, 9.99978 
2.7068007e+3, 1.6863523e+2, -1010638.5, -1165209.5, 23342.092, 0.0064127864, 0.2080517, -1007190.5, 280193.7, 0.0003600524, 10.002116, 9.999979 
2.706414e+3, 1.7862725e+2, -1141953.5, -1299694.5, -29696.879, 0.02675962, 0.15965997, -1136547.9, 52913.49, 0.000012952271, 10.001018, 9.998967 
2.706025e+3, 1.8861932e+2, -1033954.06, -1157300.8, -48876.17, -0.029626695, 0.18998921, -1016935.06, 74607.0, 0.000000000007316074, 10.001006, 9.999221 
2.7056357e+3, 1.9861105e+2, -1040917.56, -1215598.8, -9186.972, -0.09773221, 0.19523229, -1040435.75, -46809.406, 0.0, 10.000639, 9.998401 
2.7052486e+3, 2.0860252e+2, -853638.25, -955509.9, 31904.416, -0.005080658, 0.17942223, -844471.25, 51238.324, 0.0, 10.000813, 9.999367 
2.704862e+3, 2.1859412e+2, -914143.06, -1107808.6, 19896.148, 0.14045733, 0.16679892, -912120.2, -114329.36, 0.0, 10.00042, 9.997888 
2.704473e+3, 2.2858419e+2, -665324.2, -927879.56, -73113.086, 0.21631958, 0.12597972, -646337.6, 53551.14, 0.0, 10.0014925, 9.997865 
2.7040836e+3, 2.3857428e+2, -551284.94, -846803.44, -58230.777, 0.24116294, 0.07495902, -540224.75, 61761.355, 0.0, 10.001628, 9.997758 
2.7036938e+3, 2.4856652e+2, -536625.6, -542047.1, 50203.445, -0.072959386, 0.1131534, -489059.8, 14999.422, 0.0, 10.000061, 9.99986 
2.7033046e+3, 2.585593e+2, -918202.2, -858062.3, 1927.8318, -0.4135548, 0.1604718, -858000.56, -451873.56, 0.0, 9.99751, 9.998305 
2.7029172e+3, 2.685498e+2, -612938.4, -640785.1, -135701.39, -0.13251664, 0.118044645, -490447.94, -182226.73, 0.0, 9.998931, 9.998369 
2.7025306e+3, 2.7853963e+2, -453664.34, -671097.3, 8603.283, 0.28641897, 0.01924223, -453324.47, -243001.0, 0.0, 9.99995, 9.997067 
2.702145e+3, 2.885297e+2, -525916.06, -655285.9, 244485.11, 0.18381299, 0.06434195, -337703.56, -225270.22, 0.0, 9.998818, 9.996997 
2.7017596e+3, 2.985208e+2, -612064.9, -435233.1, 154809.58, -0.061916906, 0.18122195, -345370.06, -330836.28, 0.0, 9.996595, 9.998975 
2.701374e+3, 3.0852187e+2, -46936.484, 578305.3, -103550.2, 0.3568139, 0.7081989, 595008.7, 595008.7, 0.0, 9.99713, 10.0053005 
2.7009806e+3, 3.185148e+2, -113016.43, 484758.56, -115506.94, 0.17136441, 0.24267064, 506301.38, 506301.38, 0.0, 9.996823, 10.004858 
2.71835e+3, 1.2904762e+2, -1233658.9, -1412811.9, -121261.914, -0.0038406823, -0.3602004, -1172476.0, 502855.3, 0.028409868, 10.003119, 10.000501 
2.717953e+3, 1.3904579e+2, -1497148.1, -1629672.5, -2310.7078, -0.44457912, 0.13418396, -1497107.9, 80241.89, 0.016712526, 10.001114, 9.999352 
2.717567e+3, 1.490384e+2, -1330037.9, -1411376.5, 125367.766, -0.27005407, 0.16984063, -1238907.9, 240517.63, 0.00719808, 10.001298, 10.00002 
2.7171838e+3, 1.5902981e+2, -1186033.1, -1422062.6, 62762.188, 0.027823986, 0.06492891, -1170381.9, 211131.19, 0.0019202423, 10.002057, 9.998973 
2.7167958e+3, 1.6901965e+2, -1088226.0, -1298683.4, 17738.926, -0.004231401, -0.11108456, -1086741.3, 196869.67, 0.00025324232, 10.002014, 9.999108 
2.7164066e+3, 1.7900981e+2, -1109864.4, -1297182.4, -21620.238, -0.12656237, -0.26310503, -1107401.4, 78303.875, 0.000008369746, 10.001271, 9.998868 
2.7160183e+3, 1.8900535e+2, -961453.44, -1023726.8, -23598.498, -0.070104964, 0.0626922, -953521.2, 134233.36, 0.0, 10.001079, 10.000108 
2.7156302e+3, 1.9900155e+2, -934837.75, -1058178.5, 14355.142, -0.0028601752, 0.4313336, -933189.0, 56608.984, 0.0, 10.000899, 9.999357 
2.7152428e+3, 2.0899223e+2, -785526.2, -864888.94, 50712.215, 0.051633935, 0.28019094, -760815.5, 131072.14, 0.0, 10.001026, 9.999896 
2.7148554e+3, 2.1898194e+2, -807315.8, -1043130.6, 47414.9, 0.091273956, 0.04366403, -798139.25, -4153.518, 0.0, 10.001061, 9.998029 
2.7144673e+3, 2.2897196e+2, -678934.75, -1063846.6, -12036.253, 0.20340024, 0.08743386, -678558.7, 17528.201, 0.0, 10.001922, 9.996754 
2.714079e+3, 2.3896223e+2, -407079.06, -793346.8, -50386.2, 0.276547, 0.1630797, -400614.7, 197571.31, 0.0, 10.002628, 9.99765 
2.713687e+3, 2.4895321e+2, -463600.44, -437430.4, -42777.367, -0.0053029256, 0.038767673, -405781.53, 94487.75, 0.0, 10.000224, 10.000521 
2.7132955e+3, 2.5894475e+2, -874656.3, -730829.75, -13454.338, -0.309189, -0.088721216, -729581.94, -327236.13, 0.0, 9.99731, 9.99927 
2.7129102e+3, 2.6893765e+2, -581744.75, -571919.25, -7995.9614, 0.048142336, 0.048906364, -567447.44, -263028.84, 0.0, 9.998868, 9.998894 
2.712526e+3, 2.7893052e+2, -207284.38, -398748.28, 71472.91, 0.5184317, 0.2002024, -183546.73, 22946.836, 0.0, 10.000953, 9.998445 
2.7121377e+3, 2.889218e+2, -389398.97, -367702.22, 204716.44, 0.28746405, 0.20264718, -173546.92, -64961.246, 0.0, 9.998804, 9.998978 
2.7117476e+3, 2.989132e+2, -671634.94, -385414.06, 214214.47, -0.12146807, 0.19398627, -270903.8, -260227.19, 0.0, 9.995792, 9.999707 
2.7113608e+3, 3.0890998e+2, -298253.22, 170095.89, 6857.1167, 0.13471481, 0.45585495, 170196.27, 170196.27, 0.0, 9.996594, 10.002779 
2.7109727e+3, 3.188999e+2, -195344.67, -139604.89, -66496.305, 0.31416467, 0.014171351, -95374.234, -95374.234, 0.0, 9.998717, 9.999665 
2.7283454e+3, 1.2944128e+2, -1248123.6, -1544195.5, -85938.84, -0.010638834, -0.0020308504, -1224986.9, 446492.25, 0.022186834, 10.003459, 9.99945 
2.727949e+3, 1.3943489e+2, -1108648.4, -1541245.8, -73106.414, -0.39431036, 0.1496029, -1096627.9, 476913.84, 0.012783812, 10.004165, 9.998538 
2.7275628e+3, 1.4942668e+2, -1132389.1, -1383212.4, 46721.36, -0.20892577, 0.15562807, -1123968.9, 351654.34, 0.005327316, 10.002909, 9.999479 
2.7271786e+3, 1.594179e+2, -1331769.6, -1505128.8, 16960.3, 0.10372869, 0.081699826, -1330126.0, 47584.316, 0.0013580795, 10.001113, 9.998881 
2.7267894e+3, 1.6940808e+2, -1153857.4, -1258002.1, 39589.54, -0.033961322, -0.10593807, -1140516.8, 139285.33, 0.00016970174, 10.001307, 9.999728 
2.7263993e+3, 1.7939857e+2, -1093820.8, -1279457.1, 49907.2, -0.22413966, -0.26256502, -1081254.1, 100636.914, 0.0000049540654, 10.001384, 9.998939 
2.726011e+3, 1.8939282e+2, -976278.8, -1069262.8, -74.37038, -0.16056304, -0.03989254, -976278.75, 107672.78, 0.0, 10.001155, 9.999755 
2.7256233e+3, 1.9938792e+2, -1089460.1, -1202986.6, -20332.34, -0.021319779, 0.2594282, -1085928.5, -99923.16, 0.0, 10.000178, 9.998699 
2.7252358e+3, 2.093789e+2, -912176.2, -999974.06, -56066.594, 0.024202108, 0.18811566, -884867.1, 3228.5488, 0.0, 10.000532, 9.999174 
2.724848e+3, 2.1936907e+2, -928528.1, -1095713.3, -117562.85, 0.05670123, 0.038639728, -867868.3, -77675.96, 0.0, 10.0002575, 9.998049 
2.7244607e+3, 2.2936057e+2, -881139.56, -985700.7, -4609.1924, 0.17993481, 0.099309064, -880936.8, -188659.66, 0.0, 9.999837, 9.998267 
2.7240726e+3, 2.3935217e+2, -971279.8, -1024912.3, 116148.25, 0.2922858, 0.1962956, -878892.3, -284530.97, 0.0, 9.998674, 9.997943 
2.7236804e+3, 2.4934219e+2, -597117.6, -555233.44, 26454.67, 0.05924272, 0.010556187, -542435.06, -45980.27, 0.0, 9.999618, 9.999962 
2.7232876e+3, 2.5933263e+2, -566217.25, -634017.9, 2003.8878, -0.18246788, -0.1742631, -566158.06, -167614.81, 0.0, 9.999701, 9.998788 
2.722903e+3, 2.693265e+2, -523067.88, -494240.22, 51595.184, 0.1614445, 0.032065794, -455083.3, -154476.45, 0.0, 9.9990835, 9.999313 
2.7225196e+3, 2.7932093e+2, -635612.0, -554709.06, 78949.805, 0.59003395, 0.2935565, -506450.94, -303784.47, 0.0, 9.997825, 9.998894 
2.7221292e+3, 2.893129e+2, -364852.63, -200516.0, 73546.125, 0.31784204, 0.23568484, -172408.9, -67661.6, 0.0, 9.998317, 10.000357 
2.7217364e+3, 2.9930472e+2, -401965.97, -294511.72, 67075.11, -0.18102686, 0.15034918, -262298.9, -255469.92, 0.0, 9.997855, 9.999334 
2.7213487e+3, 3.092984e+2, -241422.52, -74017.85, -5531.9346, -0.05236768, 0.25483277, -73835.24, -73835.24, 0.0, 9.998186, 10.000299 
2.7209654e+3, 3.1928724e+2, -646436.8, -903877.94, 153628.56, 0.44354483, 0.0014774437, -574731.0, -574731.0, 0.0, 9.998087, 9.994676 
2.7383405e+3, 1.2983601e+2, -1387410.0, -1800573.4, -60650.41, -0.13317055, 0.4612605, -1378690.8, 288926.03, 0.01685025, 10.003352, 9.997683 
2.7379468e+3, 1.3982244e+2, -1178499.4, -1693600.3, -40703.094, -0.32246253, 0.037464805, -1175302.9, 394446.53, 0.009466787, 10.004217, 9.997444 
2.7375588e+3, 1.4981408e+2, -1126641.6, -1418571.5, 21043.895, -0.14057612, 0.08697753, -1125132.4, 346698.38, 0.0037924952, 10.003142, 9.999102 
2.7371725e+3, 1.5980649e+2, -1238807.5, -1400265.3, 17275.078, 0.083538234, 0.15441187, -1236979.9, 136924.14, 0.0009170214, 10.001519, 9.999381 
2.7367827e+3, 1.697989e+2, -1045604.25, -1046635.6, 80231.36, -0.11762397, 0.07799273, -965886.94, 310084.78, 0.0001065257, 10.001394, 10.001121 
2.7363923e+3, 1.7979105e+2, -1059531.0, -1225234.3, 61044.363, -0.37356618, -0.016838945, -1039471.0, 138571.0, 0.0000025959862, 10.001453, 9.999269 
2.736003e+3, 1.8978068e+2, -1021921.9, -1218260.8, -8609.355, -0.3185939, -0.17861076, -1021545.06, 58598.67, 0.0, 10.001362, 9.998651 
2.7356145e+3, 1.9977073e+2, -1088267.5, -1342763.5, -13155.647, -0.21410893, -0.26151446, -1087589.3, -105345.29, 0.0, 10.000759, 9.997455 
2.7352276e+3, 2.097628e+2, -995209.75, -1236676.1, -21424.799, -0.12585635, -0.056130912, -993323.5, -108992.07, 0.0, 10.000776, 9.997441 
2.7348405e+3, 2.1975558e+2, -716194.06, -823045.1, -107242.8, -0.054925997, 0.15888596, -649805.94, 136604.56, 0.0, 10.000939, 9.99959 
2.7344525e+3, 2.2975028e+2, -521407.2, -282969.5, -18469.908, 0.10440535, 0.1556395, -281547.28, 406908.88, 0.0, 9.999994, 10.003028 
2.734064e+3, 2.3974471e+2, -802529.06, -751377.75, 149884.14, 0.23900376, 0.14243989, -624902.9, -34398.977, 0.0, 9.998961, 9.999678 
2.7336732e+3, 2.497347e+2, -707683.6, -880902.5, 108982.44, 0.1120093, 0.095256545, -655086.9, -162483.31, 0.0, 9.999992, 9.997562 
2.7332824e+3, 2.5972447e+2, -426990.66, -642147.25, 20395.447, -0.034272846, 0.052338876, -425074.38, -30368.324, 0.0, 10.000937, 9.998131 
2.7328944e+3, 2.697164e+2, -442401.47, -401370.44, -689.5299, 0.10414772, 0.06068634, -401358.84, -104573.72, 0.0, 9.999371, 9.999826 
2.7325067e+3, 2.797087e+2, -629371.5, -512510.44, 86700.93, 0.3183635, 0.0740622, -466388.72, -267527.5, 0.0, 9.997604, 9.999313 
2.7321193e+3, 2.897e+2, -342101.75, -237276.6, 117757.93, 0.24066783, -0.020405395, -160793.83, -59844.414, 0.0, 9.998584, 10.000028 
2.73173e+3, 2.9969245e+2, -128867.67, -154454.36, 53791.035, 0.0052278684, -0.016682584, -86369.56, -83342.25, 0.0, 9.999646, 9.999437 
2.731341e+3, 3.0969083e+2, -89612.27, -22572.42, -20693.21, 0.031146754, 0.5687165, -16699.523, -16699.523, 0.0, 9.999277, 10.000142 
2.730955e+3, 3.1967986e+2, -332961.7, -334807.5, 186550.08, 0.27011678, 0.29707098, -147332.22, -147332.22, 0.0, 9.998336, 9.998485 
2.748338e+3, 1.3022318e+2, -1287574.1, -1779720.3, 15251.576, -0.038929142, 0.11787818, -1287101.9, 376710.72, 0.012354684, 10.004115, 9.997457 
2.7479437e+3, 1.4021172e+2, -1060396.4, -1688338.0, 4706.9, -0.36585346, -0.051607117, -1060361.0, 505566.72, 0.0067443927, 10.005246, 9.9969635 
2.747555e+3, 1.502026e+2, -1001603.75, -1453394.0, 3399.6533, -0.17650807, -0.007101187, -1001578.2, 466440.7, 0.0025849887, 10.004371, 9.998266 
2.7471673e+3, 1.6019446e+2, -1066795.6, -1345577.5, -7931.275, 0.091951005, 0.07100086, -1066570.1, 303529.34, 0.0005889778, 10.002801, 9.999133 
2.7467778e+3, 1.701882e+2, -1013053.3, -1026697.5, 16526.744, 0.008597979, 0.11348915, -1001996.0, 270160.7, 0.00006228534, 10.0015335, 10.001207 
2.746388e+3, 1.8018143e+2, -1285938.0, -1414617.6, -14011.029, -0.13572687, 0.13464296, -1284430.1, -110211.3, 0.0000011486238, 10.000231, 9.998563 
2.7459985e+3, 1.9017003e+2, -1016375.25, -1315491.9, -56517.53, -0.1857231, -0.06348687, -1006052.6, 70278.83, 0.0, 10.001853, 9.997718 
2.7456093e+3, 2.0015858e+2, -825328.2, -1255752.1, -66285.73, -0.19467735, -0.22498116, -815351.4, 163094.33, 0.0, 10.002779, 9.997072 
2.745221e+3, 2.1015032e+2, -954498.7, -1177932.4, 9039.747, -0.12641919, -0.08162098, -954133.5, -73599.516, 0.0, 10.000913, 9.997768 
2.7448332e+3, 2.2014318e+2, -1069348.5, -949123.1, 38476.93, -0.026876425, 0.12687738, -937863.44, -155252.95, 0.0, 9.998383, 9.999944 
2.7444443e+3, 2.3013881e+2, -581476.8, -221786.03, -123101.875, 0.11187906, 0.1434156, -183690.06, 500957.94, 0.0, 9.999249, 10.003778 
2.7440554e+3, 2.4013433e+2, -727564.0, -708706.06, -172601.31, 0.22634774, 0.1540359, -545276.4, 41408.723, 0.0, 9.999497, 9.999708 
2.7436656e+3, 2.5012496e+2, -831079.2, -950129.9, -45023.63, 0.13187295, 0.13112292, -815969.5, -327191.16, 0.0, 9.999213, 9.997451 
2.7432758e+3, 2.601151e+2, -829836.5, -884013.2, 8887.308, 0.016003858, 0.13806683, -828415.9, -437537.9, 0.0, 9.99843, 9.997671 
2.742885e+3, 2.7010617e+2, -547205.5, -459065.72, -66720.87, 0.017195556, 0.061059013, -423174.2, -130209.79, 0.0, 9.998712, 9.99973 
2.7424952e+3, 2.8009725e+2, -575174.06, -537317.7, 27109.67, 0.076683596, -0.036532346, -523182.16, -328131.28, 0.0, 9.998281, 9.998794 
2.7421102e+3, 2.9008794e+2, -432621.47, -302357.66, 105574.44, 0.19904475, -0.18177074, -243440.67, -146295.36, 0.0, 9.998159, 9.999736 
2.7417234e+3, 3.0008057e+2, -473593.16, -367833.72, 30349.707, 0.17367655, -0.12665962, -359743.2, -359743.2, 0.0, 9.997576, 9.998949 
2.7413327e+3, 3.1008253e+2, -259109.88, -106437.0, -66165.4, 0.05606315, 0.81151336, -81753.086, -81753.086, 0.0, 9.998197, 10.000049 
2.740944e+3, 3.200699e+2, -122815.56, 246420.7, 77159.84, 0.06519631, 0.26139334, 261896.28, 261896.28, 0.0, 9.997785, 10.002726 
2.7583352e+3, 1.306088e+2, -1503233.3, -1828459.5, 46243.39, 0.0012588107, -0.38138717, -1496785.9, 163234.84, 0.008681728, 10.002431, 9.997922 
2.75794e+3, 1.4060168e+2, -1231733.0, -1799752.6, 29690.785, -0.5220782, -0.14144069, -1230185.3, 331910.44, 0.0045918897, 10.004207, 9.996689 
2.7575508e+3, 1.5059173e+2, -1127412.3, -1605851.1, 2809.822, -0.2713724, -0.1084358, -1127395.8, 336802.44, 0.0016781295, 10.003933, 9.99742 
2.7571627e+3, 1.6058235e+2, -1082959.4, -1407387.3, -6782.8735, 0.06794223, -0.07147613, -1082817.6, 283476.44, 0.0003582228, 10.00293, 9.99864 
2.756774e+3, 1.7057666e+2, -1019900.9, -1087685.0, 6420.2603, 0.22650611, 0.080789424, -1019298.1, 249052.48, 0.000033741435, 10.001738, 10.000682 
2.7563852e+3, 1.8057074e+2, -1263124.1, -1466715.0, 27492.38, 0.26852125, 0.2488318, -1259477.0, -89067.43, 0.00000040337267, 10.000645, 9.997996 
2.755996e+3, 1.905608e+2, -1041582.1, -1402868.8, 52695.188, 0.083805695, 0.26930436, -1034053.2, 38459.105, 0.0, 10.001993, 9.997047 
2.7556062e+3, 2.0055059e+2, -700363.94, -1076025.3, -61356.773, -0.08520967, 0.25573108, -690596.5, 284019.84, 0.0, 10.003088, 9.998168 
2.7552158e+3, 2.1054076e+2, -765520.2, -832632.7, -58993.836, -0.006679198, 0.050185353, -731206.75, 145501.6, 0.0, 10.0010605, 10.000102 
2.754826e+3, 2.2053176e+2, -1048193.9, -1018449.0, 32445.783, 0.0982769, -0.07617469, -997629.44, -218835.72, 0.0, 9.998861, 9.999226 
2.7544373e+3, 2.3052555e+2, -824001.3, -796412.44, -70212.91, 0.19102769, 0.09890588, -738651.75, -57790.77, 0.0, 9.999541, 9.9997015 
2.754048e+3, 2.4051954e+2, -584337.7, -596282.25, -188093.77, 0.235501, 0.25005028, -402121.4, 180802.61, 0.0, 10.000229, 10.000143 
2.753657e+3, 2.5051132e+2, -536996.94, -385276.6, -81079.73, 0.08027698, 0.056575164, -350102.16, 134894.27, 0.0, 9.999366, 10.001283 
2.7532655e+3, 2.6050302e+2, -704612.1, -649596.56, 23608.645, -0.07050192, -0.08930148, -640854.56, -253783.6, 0.0, 9.998483, 9.999263 
2.7528754e+3, 2.704956e+2, -578537.1, -587511.44, -27845.332, -0.052743834, 0.039709363, -554819.7, -265672.56, 0.0, 9.99895, 9.998752 
2.7524865e+3, 2.804879e+2, -448720.8, -485646.44, 24580.963, 0.03454933, 0.1465117, -436441.16, -245214.63, 0.0, 9.999176, 9.998709 
2.7521014e+3, 2.90478e+2, -424821.13, -293544.72, 61514.63, 0.22918394, -0.04010167, -269225.03, -175901.47, 0.0, 9.998216, 9.999766 
2.7517143e+3, 3.0046934e+2, -495612.22, -369211.72, 21125.574, 0.26491642, -0.10841377, -365774.4, -365774.4, 0.0, 9.997324, 9.999084 
2.7513236e+3, 3.1046724e+2, -249898.11, -139138.0, -43675.63, 0.052836005, 0.45799085, -123987.84, -123987.84, 0.0, 9.998316, 9.999833 
2.750936e+3, 3.2045358e+2, -111577.3, 215573.25, -56146.168, 0.17557918, -0.1721845, 224940.92, 224940.92, 0.0, 9.997896, 10.002489 
2.768329e+3, 1.3100107e+2, -1713347.6, -1687709.4, 95692.51, 0.05087296, -0.11974371, -1603981.1, 52200.47, 0.0058182203, 9.999885, 10.000162 
2.7679378e+3, 1.4099267e+2, -1422284.1, -1771697.9, 66376.78, -0.27999416, -0.17289811, -1410099.6, 148158.88, 0.0029685837, 10.002364, 9.99779 
2.7675474e+3, 1.5098277e+2, -1204161.3, -1603812.3, 55675.7, -0.18775429, -0.18604355, -1196550.0, 263809.53, 0.0010278097, 10.003258, 9.997758 
2.7671582e+3, 1.609733e+2, -1031749.1, -1430848.0, 67006.75, 0.013867083, -0.15930209, -1020799.44, 341656.9, 0.00020336722, 10.003478, 9.9982395 
2.7667686e+3, 1.709662e+2, -946707.06, -1161952.0, 42977.344, 0.17161116, -0.056826238, -938443.2, 326082.94, 0.000016580547, 10.0027, 9.99973 
2.766379e+3, 1.8095924e+2, -1149302.0, -1442942.8, 110148.664, 0.26682, 0.098352276, -1112576.9, 54018.8, 0.00000009587778, 10.001599, 9.9977 
2.7659908e+3, 1.9094989e+2, -1080244.8, -1388399.0, 200593.36, 0.11868626, 0.1649602, -981384.25, 87311.58, 0.0, 10.001607, 9.99734 
2.7656016e+3, 2.009404e+2, -962779.6, -1191741.3, 81514.91, -0.020838274, 0.22411966, -936723.8, 34071.395, 0.0, 10.001267, 9.998255 
2.7652094e+3, 2.1093105e+2, -748068.5, -789924.0, -72167.09, 0.0293246, 0.043790206, -693856.0, 179025.63, 0.0, 10.001059, 10.000388 
2.764818e+3, 2.2092207e+2, -910248.44, -1045278.0, -23960.068, 0.116784915, -0.07980722, -906122.94, -131157.34, 0.0, 10.0002365, 9.998385 
2.7644295e+3, 2.309146e+2, -888694.94, -1006371.0, 75000.375, 0.20055479, 0.09223708, -852207.4, -175158.47, 0.0, 9.999879, 9.998096 
2.7640405e+3, 2.4090742e+2, -778046.25, -702691.3, 62467.434, 0.24480084, 0.2737539, -667418.3, -88291.21, 0.0, 9.999021, 9.999977 
2.7636486e+3, 2.5089973e+2, -520368.63, -201017.06, -18078.055, 0.08972925, 0.020564456, -199996.95, 281193.88, 0.0, 9.99877, 10.00281 
2.7632567e+3, 2.608922e+2, -737892.56, -644952.7, -29860.848, -0.053353917, -0.16142786, -636185.6, -252931.55, 0.0, 9.998239, 9.999406 
2.7628675e+3, 2.7088544e+2, -597784.44, -635428.4, -17776.54, -0.021105098, 0.039114654, -590716.8, -305390.47, 0.0, 9.999064, 9.998348 
2.762479e+3, 2.8087825e+2, -486856.34, -567562.7, 58512.53, 0.08014092, 0.24763536, -456131.4, -268728.47, 0.0, 9.999237, 9.9981165 
2.7620926e+3, 2.9086813e+2, -283343.28, -261130.3, 64370.504, 0.27547362, 0.06221176, -206915.16, -117414.84, 0.0, 9.999354, 9.999439 
2.7617052e+3, 3.0085874e+2, -357722.72, -347731.66, 35903.207, 0.30194038, -0.038351454, -316478.1, -316478.1, 0.0, 9.998531, 9.998631 
2.7613136e+3, 3.1085244e+2, -344319.28, -203176.44, 8621.5625, 0.005547255, 0.1166038, -202651.75, -202651.75, 0.0, 9.997806, 9.999604 
2.760926e+3, 3.2083908e+2, -386248.63, -452.27747, -70214.81, 0.17932722, -0.4616636, 11929.42, 11929.42, 0.0, 9.99654, 10.001591 
2.7783224e+3, 1.3139464e+2, -1335557.5, -1226857.8, 176465.05, 0.05881318, 0.30931082, -1096562.5, 555771.0, 0.003685426, 10.0013485, 10.002585 
2.777936e+3, 1.4138374e+2, -1433974.9, -1635743.9, 92009.68, 0.028456038, -0.21367328, -1398318.3, 156103.84, 0.001803296, 10.001709, 9.999015 
2.7775443e+3, 1.5137455e+2, -1219979.8, -1534409.0, 54634.37, -0.104309484, -0.24367188, -1210757.1, 245757.39, 0.00058549305, 10.002825, 9.998429 
2.777153e+3, 1.6136537e+2, -1059164.3, -1471996.6, 16018.963, -0.14351419, -0.22956856, -1058543.6, 300062.8, 0.00010501676, 10.0034, 9.9979925 
2.7767614e+3, 1.7135622e+2, -1013844.0, -1297976.0, 11504.066, -0.08049447, -0.25649518, -1013379.0, 247313.47, 0.0000068884756, 10.002674, 9.998815 
2.7763706e+3, 1.8134728e+2, -1111276.6, -1399531.1, 119463.0, -0.03943191, -0.23551948, -1068203.3, 94575.67, 0.00000000965895, 10.00176, 9.997913 
2.7759835e+3, 1.9133767e+2, -1007671.4, -1254966.0, 230570.77, -0.023199612, -0.25968662, -869686.25, 195196.03, 0.0, 10.001669, 9.998237 
2.7755955e+3, 2.0132864e+2, -951973.2, -1213459.9, 80010.016, -0.04031346, -0.20785606, -929434.4, 37545.215, 0.0, 10.001463, 9.997993 
2.775202e+3, 2.1132141e+2, -835567.7, -1005059.0, -55929.54, -0.06121062, -0.03644899, -818775.44, 50277.297, 0.0, 10.001221, 9.998822 
2.77481e+3, 2.2131424e+2, -774615.0, -907909.75, -18420.186, -0.050983027, 0.11533347, -772116.3, -991.4673, 0.0, 10.000822, 9.999057 
2.7744213e+3, 2.3130651e+2, -719146.94, -733659.7, 89671.06, 0.10489459, 0.12713706, -636439.1, 36764.95, 0.0, 10.000174, 9.999861 
2.7740324e+3, 2.4129893e+2, -723046.8, -689369.7, 94508.336, 0.22360209, 0.1580203, -610211.56, -34931.06, 0.0, 9.999439, 9.999858 
2.7736413e+3, 2.5129133e+2, -623452.6, -493343.4, 5292.9067, 0.20123817, 0.103965335, -493128.44, -15778.102, 0.0, 9.999089, 10.000665 
2.7732503e+3, 2.6128367e+2, -631321.2, -587872.06, -5539.708, 0.17766434, 0.06693318, -587176.94, -207755.73, 0.0, 9.998906, 9.999485 
2.7728617e+3, 2.7127546e+2, -432042.1, -429033.94, 36330.258, 0.21169016, 0.04641529, -394176.66, -112673.61, 0.0, 9.999609, 9.999532 
2.7724734e+3, 2.812673e+2, -314510.4, -432197.25, 125793.78, 0.28800288, 0.06734781, -234477.53, -50891.91, 0.0, 10.000134, 9.998614 
2.7720866e+3, 2.9125872e+2, -161227.92, -270129.84, 112163.19, 0.3832248, 0.07961808, -90997.336, -5326.0806, 0.0, 10.000382, 9.998914 
2.771697e+3, 3.0125046e+2, -137639.6, -238001.86, 32898.934, 0.27312428, 0.13445193, -127816.67, -127816.67, 0.0, 9.999959, 9.9986925 
2.7713016e+3, 3.1124273e+2, -364826.88, -204944.69, -22202.236, -0.23079906, 0.14336932, -201918.81, -201918.81, 0.0, 9.997587, 9.999691 
2.7709165e+3, 3.2123291e+2, -295635.38, 25014.105, 40070.926, 0.28751886, -0.061745975, 29945.836, 29945.836, 0.0, 9.997159, 10.001467 
2.7883178e+3, 1.317825e+2, -891591.9, -1156589.3, 72059.55, -0.048183255, 0.054894276, -873264.56, 775265.6, 0.0021692961, 10.004989, 10.001305 
2.7879313e+3, 1.4177434e+2, -1639145.3, -1838506.8, -26798.92, 0.2145522, -0.07946606, -1635605.6, -85010.56, 0.0010069286, 10.000684, 9.998139 
2.7875394e+3, 1.5176465e+2, -1398354.3, -1688947.5, -57749.27, -0.036204636, -0.11269382, -1387298.5, 65399.02, 0.00030057676, 10.001816, 9.997897 
2.787148e+3, 1.6175528e+2, -1105534.9, -1382693.1, -164035.05, -0.16942348, -0.13290587, -1029377.75, 325415.16, 0.000046417692, 10.002612, 9.998987 
2.7867553e+3, 1.7174692e+2, -986972.06, -1112448.4, -109371.32, -0.12315555, -0.24658413, -923622.25, 333241.75, 0.0000020738605, 10.002154, 10.000329 
2.7863646e+3, 1.8173854e+2, -1160896.0, -1413213.4, 106457.305, -0.067566685, -0.26814938, -1121981.5, 36959.03, 0.00000000000031198744, 10.001379, 9.997998 
2.785978e+3, 1.917297e+2, -1096658.4, -1318732.0, 150775.81, 0.03494961, -0.21384555, -1020445.4, 40594.105, 0.0, 10.00117, 9.998016 
2.7855903e+3, 2.0172109e+2, -1067509.5, -1299307.1, -20824.781, 0.08011302, -0.10842025, -1065653.4, -102519.195, 0.0, 10.000846, 9.997694 
2.7851957e+3, 2.1171297e+2, -792624.94, -1016318.5, -68271.484, -0.08584587, -0.014144724, -773434.7, 91781.16, 0.0, 10.001697, 9.998506 
2.7848026e+3, 2.2170523e+2, -635061.56, -854243.5, 19795.992, -0.1566361, 0.11410254, -633288.0, 134005.34, 0.0, 10.001874, 9.998905 
2.7844137e+3, 2.3169744e+2, -439176.13, -553027.06, 8960.015, 0.03802684, 0.08169413, -438475.28, 230894.69, 0.0, 10.001949, 10.000214 
2.7840248e+3, 2.416898e+2, -537396.7, -684963.8, -56988.11, 0.19941725, 0.09339845, -517951.2, 53493.273, 0.0, 10.001119, 9.999082 
2.7836332e+3, 2.516821e+2, -607619.2, -615489.8, -69664.29, 0.20831956, 0.11902137, -541779.1, -68260.7, 0.0, 9.999797, 9.999478 
2.7832425e+3, 2.6167428e+2, -747788.5, -678406.8, 24627.336, 0.24565761, 0.16285908, -670554.0, -294960.28, 0.0, 9.998325, 9.999118 
2.7828547e+3, 2.716652e+2, -534516.25, -414027.22, 27871.133, 0.3461921, 0.005105297, -407892.5, -130211.27, 0.0, 9.998683, 10.000052 
2.782467e+3, 2.816566e+2, -572914.25, -555845.2, 58526.203, 0.4205102, -0.056134705, -505234.53, -325469.06, 0.0, 9.998426, 9.998575 
2.782079e+3, 2.9164925e+2, -537790.06, -464373.1, 79205.9, 0.38211477, 0.07117155, -413782.72, -331941.16, 0.0, 9.99791, 9.998743 
2.7816874e+3, 3.016419e+2, -536875.5, -433611.38, 1380.6477, 0.1434124, 0.23490372, -433592.9, -433592.9, 0.0, 9.997314, 9.998613 
2.7812907e+3, 3.1163317e+2, -336455.53, -150656.89, -54962.992, -0.32470384, 0.098973826, -135615.42, -135615.42, 0.0, 9.997692, 10.0 
2.7809095e+3, 3.216279e+2, -334258.25, -21388.268, 172742.75, 0.5473106, 0.35698584, 55226.02, 55226.02, 0.0, 9.997078, 10.001203 
2.7983135e+3, 1.3216938e+2, -1274732.3, -1565416.4, -169697.28, -0.22628957, -0.31176934, -1196643.1, 448091.44, 0.0011660241, 10.003355, 9.999265 
2.7979255e+3, 1.421651e+2, -1657960.9, -2010772.3, -8441.712, 0.28515658, 0.13969806, -1657759.0, -110990.625, 0.00050457666, 10.001289, 9.996652 
2.7975342e+3, 1.5215436e+2, -1465419.5, -1800448.8, 69336.89, -0.012131425, 0.09395751, -1451636.6, -2748.0051, 0.0001343589, 10.001738, 9.99715 
2.7971432e+3, 1.621446e+2, -1040501.4, -1163827.8, -113057.26, -0.17741476, 0.031298883, -973384.5, 377606.63, 0.00001642319, 10.0022545, 10.000661 
2.7967504e+3, 1.7213814e+2, -810762.6, -743720.1, -106324.54, -0.091432534, -0.12643808, -665757.8, 587278.6, 0.0000003300107, 10.002139, 10.002873 
2.7963594e+3, 1.8213175e+2, -1093386.9, -1363283.3, 92815.586, 0.000843765, -0.114148185, -1064549.4, 90539.945, 0.0, 10.001731, 9.998184 
2.7959737e+3, 1.9212456e+2, -1126986.9, -1434903.6, 156357.39, 0.17611189, 0.18949084, -1061512.4, -4335.119, 0.0, 10.001375, 9.997141 
2.7955854e+3, 2.0211643e+2, -958538.75, -1161423.3, -2325.574, 0.22418372, 0.37888572, -958512.06, 757.3332, 0.0, 10.001226, 9.998446 
2.79519e+3, 2.1210513e+2, -687827.44, -845348.44, -10599.314, -0.086272135, 0.060132533, -687117.44, 174258.06, 0.0, 10.001898, 9.999585 
2.7947965e+3, 2.2209479e+2, -573449.8, -880983.8, 55040.406, -0.26861045, -0.1163029, -563895.8, 199577.5, 0.0, 10.00249, 9.998425 
2.794408e+3, 2.320869e+2, -462098.16, -732584.56, 22970.201, -0.043697156, -0.02032063, -460161.34, 205391.44, 0.0, 10.002464, 9.998736 
2.7940184e+3, 2.4207924e+2, -388046.2, -580552.0, -103272.99, 0.10724384, 0.07375508, -343125.7, 224502.64, 0.0, 10.001964, 9.999396 
2.7936235e+3, 2.5207105e+2, -477619.13, -476677.1, -113294.914, -0.0034077552, -0.0004651033, -363852.22, 105851.7, 0.0, 10.000293, 10.00023 
2.7932313e+3, 2.6206294e+2, -672390.1, -653233.5, 40634.055, -0.009645342, -0.02996907, -621064.1, -249284.1, 0.0, 9.998827, 9.999056 
2.7928454e+3, 2.720543e+2, -563033.5, -527795.44, 46049.31, 0.28154165, -0.055559494, -496109.6, -222246.25, 0.0, 9.998861, 9.999203 
2.7924582e+3, 2.8204614e+2, -510018.2, -450868.2, 30746.883, 0.42943394, -0.036828045, -437781.13, -261837.55, 0.0, 9.998525, 9.999231 
2.792066e+3, 2.9203895e+2, -546332.8, -356022.88, 46299.94, 0.09079072, 0.019834338, -345356.53, -267339.06, 0.0, 9.997337, 9.999761 
2.7916744e+3, 3.020313e+2, -499805.5, -277439.1, 59508.336, -0.10605556, 0.0429301, -262515.4, -262515.4, 0.0, 9.996896, 9.999905 
2.7912897e+3, 3.1202212e+2, -79257.086, 65451.31, 39804.35, 0.4655319, -0.20941491, 75677.47, 75677.47, 0.0, 9.998974, 10.000914 
2.7909005e+3, 3.2201698e+2, -300540.13, -62863.156, 17894.623, 0.66157174, 0.036323424, -61523.43, -61523.43, 0.0, 9.997453, 10.000768 
2.8083077e+3, 1.3256049e+2, -1351130.4, -1286507.0, -179211.11, -0.25526625, -0.08393747, -1136718.0, 504191.75, 0.00056489167, 10.001404, 10.002154 
2.80792e+3, 1.4255449e+2, -1249099.6, -1709637.3, 65262.9, 0.19703515, -0.0069164266, -1240029.8, 302916.8, 0.00022531899, 10.0036335, 9.997598 
2.8075287e+3, 1.525446e+2, -1386423.3, -1720715.1, 167584.27, 0.00167246, -0.007859129, -1316879.0, 128178.35, 0.000052747473, 10.002077, 9.997547 
2.807138e+3, 1.6253532e+2, -1279623.4, -1368653.1, 31083.434, -0.0840796, -0.0056250803, -1269845.0, 77311.414, 0.0000047753, 10.00102, 9.99982 
2.8067455e+3, 1.7252813e+2, -886078.2, -931201.75, -126933.016, -0.043331947, -0.111819424, -779717.44, 469499.2, 0.00000002399446, 10.0022545, 10.001508 
2.8063545e+3, 1.8252142e+2, -936032.75, -1261843.5, -54436.055, 0.01604893, -0.068483934, -927178.25, 224099.2, 0.0, 10.002759, 9.998364 
2.8059676e+3, 1.9251476e+2, -962782.75, -1260610.8, 61671.03, 0.1426372, 0.19311783, -950517.6, 102838.19, 0.0, 10.002121, 9.997971 
2.8055787e+3, 2.0250718e+2, -939559.7, -1096080.3, -8030.8022, 0.1866768, 0.37006176, -939148.75, 16290.173, 0.0, 10.001111, 9.998959 
2.8051838e+3, 2.124966e+2, -884067.4, -871183.1, -42433.97, -0.038381763, 0.049356688, -834705.06, 22832.52, 0.0, 10.000246, 10.000197 
2.8047907e+3, 2.2248673e+2, -970735.25, -1010068.56, 81781.92, -0.18707609, -0.14193268, -906288.56, -146659.16, 0.0, 9.999573, 9.998935 
2.804402e+3, 2.3247904e+2, -727260.2, -809662.9, 183397.27, -0.048497617, -0.076708145, -580493.2, 81210.88, 0.0, 10.000471, 9.999177 
2.8040117e+3, 2.4247108e+2, -557843.44, -721093.7, 110149.16, 0.04468199, 0.01485718, -502371.9, 61409.52, 0.0, 10.001127, 9.998816 
2.8036162e+3, 2.5246194e+2, -244320.84, -424353.7, -40337.098, -0.07925924, -0.09219648, -235696.31, 230172.69, 0.0, 10.002237, 9.999614 
2.803223e+3, 2.624531e+2, -272978.72, -545107.7, 46399.164, -0.10740946, -0.11759875, -265285.0, 102668.17, 0.0, 10.001988, 9.998262 
2.8028366e+3, 2.7244422e+2, -320606.4, -474865.16, 78984.73, 0.1854291, -0.12487933, -287338.63, -17300.6, 0.0, 10.000834, 9.998604 
2.8024486e+3, 2.8243607e+2, -390595.7, -392401.03, 49986.883, 0.31297922, -0.05405316, -341503.34, -169386.0, 0.0, 9.999385, 9.999222 
2.8020543e+3, 2.9242888e+2, -367488.22, -199216.89, 10772.54, -0.116070434, -0.0512971, -198530.05, -124339.48, 0.0, 9.998322, 10.00036 
2.8016633e+3, 3.0242124e+2, -384244.63, -153136.14, 58461.473, -0.20780328, -0.09376141, -139189.31, -139189.31, 0.0, 9.997481, 10.000442 
2.8012872e+3, 3.1241187e+2, -120305.26, 126807.44, 66363.305, 1.0682191, -0.44460732, 143501.8, 143501.8, 0.0, 9.9984255, 10.001554 
2.800887e+3, 3.2240635e+2, -277927.5, -80577.83, -217328.83, 0.27430996, -0.28046325, 59428.176, 59428.176, 0.0, 9.997922, 10.000346 
2.8183013e+3, 1.3295275e+2, -975015.9, -671072.44, 33171.61, -0.3174924, 0.24979588, -667494.3, 969579.4, 0.0002480307, 10.002162, 10.006001 
2.817914e+3, 1.4294352e+2, -1225360.8, -1524034.8, 42933.65, -0.02064253, -0.28997347, -1219311.6, 319813.6, 0.00009111463, 10.003084, 9.999123 
2.817523e+3, 1.5293545e+2, -1348648.0, -1590897.5, 114064.1, -0.025215575, -0.21402618, -1303394.3, 137818.73, 0.000018145423, 10.001877, 9.998529 
2.8171325e+3, 1.6292688e+2, -1391431.3, -1649832.0, 54070.086, -0.012804863, -0.12243797, -1380573.5, -37267.85, 0.000001252134, 10.00123, 9.997795 
2.8167403e+3, 1.729176e+2, -1108695.5, -1391656.1, -25678.932, -0.04782171, -0.12481928, -1106384.0, 139017.05, 0.0000000065346386, 10.002252, 9.998353 
2.8163493e+3, 1.8290912e+2, -881282.5, -1121256.4, -21034.34, -0.08409919, -0.08984557, -879452.75, 268034.34, 0.0, 10.002672, 9.999348 
2.8159603e+3, 1.9290157e+2, -840525.94, -971187.6, 76635.58, -0.07259149, -0.09996972, -805153.6, 244409.6, 0.0, 10.001969, 10.000028 
2.8155705e+3, 2.0289463e+2, -850696.5, -945793.25, -30243.668, -0.027060024, -0.019994222, -841893.06, 109739.805, 0.0, 10.001241, 9.999925 
2.8151774e+3, 2.1288815e+2, -831999.8, -814593.3, -44948.254, 0.03863616, 0.04258542, -777513.44, 76182.35, 0.0, 10.000431, 10.000508 
2.8147855e+3, 2.2288153e+2, -714640.25, -593855.8, 119971.78, 0.045945942, 0.058002323, -519933.3, 235823.3, 0.0, 10.00005, 10.001563 
2.8143957e+3, 2.3287456e+2, -449604.9, -342250.25, 262424.97, -0.009175429, -0.08752983, -128069.19, 529745.6, 0.0, 10.000896, 10.002199 
2.8140053e+3, 2.4286647e+2, -557536.3, -892507.94, 196575.02, -0.010575711, -0.12733108, -466771.8, 93118.45, 0.0, 10.001833, 9.997298 
2.813613e+3, 2.5285596e+2, -330630.3, -805162.9, 43854.098, 0.067225546, -0.07013134, -326611.56, 135390.23, 0.0, 10.003072, 9.996609 
2.8132206e+3, 2.628456e+2, -78911.0, -482331.53, 37657.832, 0.08329107, -0.051062003, -75425.89, 288680.8, 0.0, 10.003392, 9.998043 
2.812829e+3, 2.7283514e+2, -155556.38, -379589.38, 51308.746, 0.010655252, -0.21291465, -144364.58, 121838.35, 0.0, 10.001821, 9.998829 
2.8124383e+3, 2.8282613e+2, -252677.98, -339749.1, 51140.785, 0.032726552, -0.23714046, -229051.61, -60763.176, 0.0, 10.000317, 9.99916 
2.8120482e+3, 2.9281956e+2, -245800.0, -209381.06, 3485.425, 0.1258495, -0.106568664, -209050.5, -138692.97, 0.0, 9.999385, 9.999814 
2.8116578e+3, 3.0281278e+2, -179706.52, -15368.553, 79409.5, 0.14300689, -0.034869995, 16732.365, 16732.365, 0.0, 9.998683, 10.000807 
2.8112718e+3, 3.1280515e+2, -32662.738, 195683.98, 87072.305, 0.44441986, -0.2315049, 225097.33, 225097.33, 0.0, 9.998844, 10.001847 
2.8108776e+3, 3.22801e+2, 83242.95, 172809.11, -193238.58, 0.17872046, 0.02415472, 326386.0, 326386.0, 0.0, 9.999935, 10.001154 
2.8282997e+3, 1.3334365e+2, -853877.2, -953102.2, 125988.64, -0.12260906, 0.0027849008, -768084.6, 865143.44, 0.000104967556, 10.00449, 10.002923 
2.8279066e+3, 1.4333403e+2, -1307636.4, -1565752.9, -18790.092, -0.24913353, -0.35810152, -1306275.8, 229019.84, 0.000034652854, 10.002535, 9.999086 
2.827517e+3, 1.5332624e+2, -1264726.3, -1468352.9, 21365.76, -0.07133758, -0.32404193, -1262508.6, 174869.1, 0.000005523166, 10.002127, 9.999234 
2.827127e+3, 1.6331841e+2, -1318661.0, -1617732.6, 40525.063, 0.055572152, -0.20401804, -1313267.0, 26195.102, 0.0000002527922, 10.001787, 9.997742 
2.8267345e+3, 1.7330988e+2, -1221305.6, -1484775.1, 86130.94, -0.045222547, -0.102035776, -1195647.3, 45907.293, 0.0, 10.001703, 9.997983 
2.826343e+3, 1.833015e+2, -1084919.4, -1175782.3, 144798.06, -0.13315593, -0.029915629, -978592.8, 165049.25, 0.0, 10.00107, 9.99976 
2.8259528e+3, 1.932932e+2, -1133652.8, -1044547.1, 152301.08, -0.1435405, -0.17005284, -930416.06, 115306.07, 0.0, 9.999646, 10.000651 
2.8255624e+3, 2.0328598e+2, -1161934.3, -1017757.5, 47062.465, -0.08811517, -0.17479013, -1003755.2, -55964.48, 0.0, 9.998823, 10.000568 
2.82517e+3, 2.1328032e+2, -904099.3, -778421.94, 54586.86, 0.048898697, -0.09894052, -758023.44, 91819.766, 0.0, 9.99968, 10.001098 
2.8247786e+3, 2.2327453e+2, -720900.75, -615745.0, 187547.0, 0.0870147, -0.013535539, -473545.3, 278350.44, 0.0, 10.000147, 10.00134 
2.8243884e+3, 2.3326756e+2, -555520.44, -391521.8, 81226.51, -0.054346446, -0.16920495, -358101.75, 295853.94, 0.0, 10.000232, 10.002145 
2.8239983e+3, 2.4325956e+2, -832049.1, -1106231.8, -52233.0, -0.08337099, -0.18624674, -822435.56, -266404.03, 0.0, 10.000363, 9.996531 
2.8236085e+3, 2.5324908e+2, -684142.3, -1057689.1, 12738.118, 0.14292826, -0.090510815, -683708.44, -225562.84, 0.0, 10.001045, 9.995843 
2.823217e+3, 2.6323852e+2, -447316.53, -677839.7, 73511.92, 0.19904092, -0.029898763, -425869.53, -65615.48, 0.0, 10.00101, 9.99782 
2.8228217e+3, 2.732273e+2, -404745.06, -486055.3, 57257.168, -0.07952732, -0.28839192, -375177.53, -112821.69, 0.0, 10.00011, 9.998893 
2.8224292e+3, 2.8321773e+2, -449540.7, -495610.13, 75133.26, -0.13932429, -0.33564854, -393990.4, -229545.31, 0.0, 9.999312, 9.998543 
2.8220415e+3, 2.9321092e+2, -244721.52, -271025.88, 40216.004, 0.27580285, -0.18582234, -215561.69, -149045.66, 0.0, 9.999714, 9.999211 
2.8216508e+3, 3.0320445e+2, -142313.47, -30149.29, 105277.15, 0.31647855, -0.029666813, 33051.81, 33051.81, 0.0, 9.999134, 10.000479 
2.8212577e+3, 3.13198e+2, -239771.16, 91493.93, 69505.27, -0.1264401, -0.112941295, 105486.336, 105486.336, 0.0, 9.997489, 10.001771 
2.820871e+3, 3.2319492e+2, -175265.06, 187953.06, -114528.29, 0.32099068, 0.1993001, 221049.8, 221049.8, 0.0, 9.9977, 10.002285 
2.838298e+3, 1.3373438e+2, -1287649.3, -1704201.8, -23739.516, 0.013539061, -0.3304986, -1286300.6, 343080.2, 0.00004788907, 10.003851, 9.998072 
2.837899e+3, 1.4372532e+2, -1337460.6, -1589350.3, 473.10883, -0.5062894, -0.34648022, -1337459.8, 194001.39, 0.000014416294, 10.002399, 9.998974 
2.8375107e+3, 1.5371734e+2, -1212076.0, -1376460.8, 63605.473, -0.16001341, -0.38794133, -1190339.3, 243203.98, 0.000001952137, 10.002227, 9.999805 
2.8371215e+3, 1.6371015e+2, -1225562.1, -1452746.9, 61908.44, 0.05602559, -0.2745198, -1209787.3, 125832.266, 0.00000005936716, 10.001906, 9.99881 
2.8367284e+3, 1.7370364e+2, -1184068.1, -1356447.9, 121379.32, -0.09427302, -0.070720196, -1121390.1, 116301.125, 0.0, 10.001459, 9.99899 
2.8363362e+3, 1.8369658e+2, -1088937.1, -1147293.3, 119354.02, -0.19116636, 0.060228307, -995246.4, 144519.11, 0.0, 10.0008745, 10.000068 
2.8359452e+3, 1.9368817e+2, -1143928.3, -1066986.8, 134443.66, -0.14584294, -0.07497433, -965617.94, 76230.26, 0.0, 9.999625, 10.000522 
2.8355536e+3, 2.0368026e+2, -1040073.44, -835434.25, 81973.52, -0.091104895, -0.18603143, -806647.2, 137273.84, 0.0, 9.9991255, 10.0016775 
2.835161e+3, 2.1367277e+2, -779363.3, -610919.75, 118979.59, -0.07390493, -0.37983087, -549369.6, 296613.22, 0.0, 10.00005, 10.002088 
2.8347698e+3, 2.2366521e+2, -860504.06, -1015099.4, 209573.08, -0.105840564, -0.39665794, -714428.06, 33624.82, 0.0, 10.000596, 9.99839 
2.83438e+3, 2.3365703e+2, -781213.75, -941448.25, 83654.72, -0.21916921, -0.27658647, -745499.7, -95359.836, 0.0, 10.000543, 9.998242 
2.8339902e+3, 2.436491e+2, -605278.3, -720514.3, -51203.223, -0.19323425, -0.16824909, -585814.5, -33592.5, 0.0, 10.000694, 9.999027 
2.8336012e+3, 2.5364095e+2, -412930.63, -555597.25, 58691.598, 0.0799178, -0.1564122, -391888.94, 62415.277, 0.0, 10.001245, 9.999219 
2.8332105e+3, 2.6363218e+2, -379405.25, -568161.94, 92885.33, 0.20972164, -0.14376928, -341363.97, 15026.174, 0.0, 10.001115, 9.998521 
2.832816e+3, 2.7362207e+2, -420916.38, -524084.4, 54057.35, 0.07953824, -0.25520006, -397780.2, -139296.39, 0.0, 10.000105, 9.998643 
2.8324226e+3, 2.8361255e+2, -390733.94, -461370.44, 138209.97, 0.013435366, -0.2902096, -283400.94, -122828.17, 0.0, 9.999658, 9.998621 
2.8320318e+3, 2.9360375e+2, -156780.08, -273256.53, 117284.51, 0.049409162, -0.29054683, -84070.43, -21414.213, 0.0, 10.000467, 9.998848 
2.8316414e+3, 3.0359507e+2, -91643.2, -139551.27, 84566.68, 0.122414686, -0.28255817, -27703.438, -27703.438, 0.0, 9.999993, 9.999331 
2.831253e+3, 3.135864e+2, -372915.06, -187128.23, -19296.297, 0.4631764, -0.40587288, -185145.25, -185145.25, 0.0, 9.997417, 9.999922 
2.8308594e+3, 3.2358244e+2, -182402.19, 244486.5, -19106.969, 0.19624496, -0.09789176, 245340.0, 245340.0, 0.0, 9.997294, 10.002913 
2.8482935e+3, 1.3412733e+2, -1239786.3, -1594555.9, -131025.47, -0.047084976, -0.34204692, -1196642.0, 428885.6, 0.000025215255, 10.003715, 9.998941 
2.8478953e+3, 1.44119e+2, -1237654.5, -1472179.4, 101335.59, -0.3952054, -0.349695, -1199935.0, 327669.66, 0.000007550391, 10.002788, 9.999595 
2.8475064e+3, 1.541127e+2, -1026503.4, -1258396.1, 147234.55, -0.13082367, -0.24268615, -955042.25, 474629.2, 0.0000012508747, 10.003356, 10.000082 
2.8471157e+3, 1.6410568e+2, -1062944.6, -1279407.1, 87673.4, 0.015423109, -0.15213457, -1031889.8, 299853.75, 0.000000073245815, 10.002641, 9.999627 
2.8467208e+3, 1.7409763e+2, -1307147.3, -1324293.6, 122151.305, -0.14837247, -0.18473075, -1193268.6, 40555.43, 0.0, 10.000228, 9.999794 
2.846328e+3, 1.8409042e+2, -1373676.6, -1218583.6, 173813.81, -0.19027942, -0.13462058, -1105802.3, 30094.066, 0.0, 9.998684, 10.000623 
2.8459376e+3, 1.9408351e+2, -1276879.8, -1096183.5, 202304.58, -0.027159184, -0.15968786, -964969.2, 72995.586, 0.0, 9.998583, 10.000824 
2.8455463e+3, 2.0407607e+2, -1043801.3, -918289.9, 220575.72, 0.01393325, -0.19500174, -751716.3, 188318.06, 0.0, 9.99949, 10.0009165 
2.845154e+3, 2.1406765e+2, -594946.0, -622528.4, 123678.86, -0.12799434, -0.40483034, -484291.78, 357815.53, 0.0, 10.0018, 10.001148 
2.8447628e+3, 2.2405878e+2, -688960.9, -1072132.5, 162939.66, -0.20925234, -0.4473995, -629042.3, 115149.77, 0.0, 10.002389, 9.997144 
2.844373e+3, 2.3404905e+2, -824085.7, -1117875.0, 230333.1, -0.22632493, -0.36730027, -697792.94, -51495.887, 0.0, 10.000936, 9.996854 
2.8439832e+3, 2.4404095e+2, -627937.5, -599754.06, 185225.03, -0.17797805, -0.22105858, -428085.47, 120297.03, 0.0, 10.000002, 10.000185 
2.843594e+3, 2.5403446e+2, -534665.1, -437583.53, 124174.71, 0.03537991, -0.20074794, -352799.28, 97646.625, 0.0, 9.999706, 10.000748 
2.8432032e+3, 2.6402676e+2, -545229.1, -668549.06, 53696.62, 0.15665768, -0.14896809, -525125.5, -172605.89, 0.0, 10.000131, 9.9982815 
2.8428096e+3, 2.7401695e+2, -240125.42, -482992.72, 5198.0757, 0.14794603, -0.22436255, -240014.22, 14599.133, 0.0, 10.001607, 9.998175 
2.8424162e+3, 2.840072e+2, -145438.42, -385351.38, 93187.82, 0.089619555, -0.23610462, -113495.18, 43208.67, 0.0, 10.001566, 9.998204 
2.8420237e+3, 2.9399696e+2, -272683.34, -382336.13, 73432.766, -0.07161233, -0.3705583, -235867.48, -177071.0, 0.0, 9.999928, 9.99835 
2.8416327e+3, 3.0398658e+2, -363670.5, -431624.1, -17219.201, 0.03136096, -0.44304666, -359556.3, -359556.3, 0.0, 9.998903, 9.997822 
2.841248e+3, 3.1397554e+2, -370018.94, -385780.0, -91980.07, 0.9036395, -0.65204173, -285582.44, -285582.44, 0.0, 9.998381, 9.998061 
2.8408456e+3, 3.2397074e+2, -121916.5, 321136.38, 111274.2, -0.22563508, -0.38016763, 347512.97, 347512.97, 0.0, 9.997618, 10.003223 
2.858288e+3, 1.3452148e+2, -1081587.9, -1239949.4, -148426.34, -0.21597305, -0.27105206, -992542.7, 629123.8, 0.000013079658, 10.003602, 10.001438 
2.8578922e+3, 1.4451396e+2, -1261532.6, -1439887.5, 134330.63, -0.22256748, -0.3322473, -1189473.1, 334263.0, 0.0000037431412, 10.002438, 9.999979 
2.8575024e+3, 1.5450998e+2, -1133983.5, -1308087.6, 183417.14, -0.121020734, -0.007489689, -1018008.7, 407773.6, 0.00000051506584, 10.002608, 10.000102 
2.85711e+3, 1.6450287e+2, -1065829.0, -1182049.6, -7658.161, -0.08502041, 0.031136148, -1065326.6, 262525.9, 0.00000002542409, 10.002187, 10.000516 
2.856713e+3, 1.7449187e+2, -1229327.6, -1198289.0, 46680.348, -0.25045392, -0.3784592, -1164615.8, 65337.53, 0.0, 10.000382, 10.000583 
2.8563195e+3, 1.8448399e+2, -1223855.6, -1041245.1, 165734.02, -0.1980507, -0.47914958, -943329.8, 188696.88, 0.0, 9.999265, 10.001549 
2.8559303e+3, 1.9447942e+2, -1157952.6, -951424.2, 215289.95, 0.12405422, -0.33986506, -815913.9, 218157.69, 0.0, 9.999011, 10.001613 
2.85554e+3, 2.0447327e+2, -1140100.8, -1219008.8, 307974.03, 0.14958437, -0.18281509, -869063.8, 67069.53, 0.0, 9.999882, 9.998672 
2.8551483e+3, 2.1446483e+2, -721070.5, -968991.7, 234346.7, -0.17419425, -0.13506456, -579918.7, 258300.28, 0.0, 10.0021105, 9.998632 
2.8547576e+3, 2.244554e+2, -487769.72, -757332.06, 137120.89, -0.2537038, -0.18596078, -430280.0, 310031.47, 0.0, 10.002815, 9.999097 
2.8543684e+3, 2.3444444e+2, -594536.75, -758475.06, 222067.31, -0.07262819, -0.4345033, -439793.38, 202623.55, 0.0, 10.001389, 9.999114 
2.8539777e+3, 2.4443603e+2, -634279.6, -713426.6, 206226.98, 0.009537985, -0.398801, -463863.53, 80638.36, 0.0, 10.000389, 9.999229 
2.8535858e+3, 2.5443038e+2, -588353.1, -614890.6, 144127.02, -0.007675677, -0.13421585, -456885.38, -10321.681, 0.0, 9.999929, 9.999439 
2.8531942e+3, 2.6442245e+2, -517916.0, -709228.56, 135150.2, -0.013720131, -0.01462092, -447995.4, -99351.2, 0.0, 10.000504, 9.997843 
2.8528026e+3, 2.7441147e+2, -106258.55, -455698.72, 94007.75, -0.041293446, -0.14046179, -82573.58, 168177.08, 0.0, 10.002636, 9.9978895 
2.8524113e+3, 2.8440106e+2, 11581.36, -338254.28, 22532.988, 0.078844264, -0.19815715, 13026.743, 165876.0, 0.0, 10.0027, 9.998009 
2.8520203e+3, 2.943911e+2, -245755.14, -400638.34, -14221.616, 0.33183497, -0.2510518, -244460.11, -189519.0, 0.0, 10.000207, 9.99811 
2.8516266e+3, 3.0438098e+2, -348755.75, -481566.34, 13519.295, 0.28734004, -0.26093668, -347393.53, -347393.53, 0.0, 9.999191, 9.997368 
2.8512332e+3, 3.143704e+2, -143059.6, -341073.63, -31306.94, 0.24400282, -0.34954962, -138227.73, -138227.73, 0.0, 10.000174, 9.99753 
2.8508395e+3, 3.243648e+2, -50769.68, 193820.47, -46940.81, 0.06978197, -0.061708886, 202519.77, 202519.77, 0.0, 9.998652, 10.001919 
2.8682837e+3, 1.349182e+2, -1167674.0, -1565625.1, -100368.555, -0.27414122, -0.3204104, -1143792.9, 473982.2, 0.0000059629547, 10.004213, 9.998915 
2.867889e+3, 1.4491083e+2, -1322781.0, -1601445.5, 119431.02, -0.02716663, -0.17306426, -1278599.6, 241253.1, 0.0000015122073, 10.002586, 9.998803 
2.8674966e+3, 1.5490274e+2, -1464505.0, -1601249.0, 98079.76, -0.110145465, -0.15037355, -1413318.0, 8618.493, 0.0000000966577, 10.000898, 9.998921 
2.867103e+3, 1.6489492e+2, -1248422.1, -1181220.1, -82060.76, -0.13944314, -0.17060718, -1126147.6, 197863.47, 0.00000000026919006, 10.000547, 10.001326 
2.8667063e+3, 1.7488663e+2, -1023127.2, -1027048.56, -47862.152, -0.23278669, -0.3970758, -977185.56, 248897.8, 0.0, 10.001451, 10.001269 
2.866313e+3, 1.8487963e+2, -884329.3, -947000.2, 49839.2, -0.18963458, -0.4217017, -856793.25, 271354.1, 0.0, 10.001943, 10.000881 
2.8659227e+3, 1.9487423e+2, -792101.7, -851687.6, -9031.718, 0.06747322, -0.3213239, -790762.8, 239437.69, 0.0, 10.001916, 10.000867 
2.8655332e+3, 2.0486745e+2, -918440.06, -1176378.9, 149459.03, 0.10958435, -0.18158737, -849998.44, 82270.46, 0.0, 10.001696, 9.998086 
2.865143e+3, 2.1485868e+2, -906861.25, -1131161.3, 200152.33, -0.10084025, -0.13661575, -789580.25, 44778.75, 0.0, 10.00116, 9.997974 
2.8647527e+3, 2.2484952e+2, -730211.1, -820910.2, 69141.84, -0.16453111, -0.15254958, -692873.44, 43576.84, 0.0, 10.00096, 9.999521 
2.8643623e+3, 2.3483925e+2, -657059.0, -735697.44, 11779.605, -0.021079317, -0.409773, -655332.4, -16784.568, 0.0, 10.000794, 9.999514 
2.8639713e+3, 2.4483128e+2, -627723.06, -771662.5, 10027.046, 0.04835738, -0.34416047, -627027.94, -86399.93, 0.0, 10.000777, 9.998596 
2.8635788e+3, 2.5482547e+2, -526922.0, -697836.7, 11156.8125, 0.021646928, -0.059422053, -526196.75, -83503.6, 0.0, 10.000876, 9.998397 
2.863187e+3, 2.64817e+2, -501470.53, -710848.44, 110107.82, -0.037506588, 0.062164564, -454226.9, -109447.195, 0.0, 10.000719, 9.997703 
2.8627962e+3, 2.748052e+2, -459986.13, -649395.25, 122913.32, -0.10812021, -0.1625898, -399524.2, -152630.69, 0.0, 10.000349, 9.99765 
2.8624055e+3, 2.8479493e+2, -310082.47, -504230.84, -13442.202, 0.09003834, -0.18424962, -309156.2, -160164.05, 0.0, 10.000606, 9.997858 
2.8620154e+3, 2.9478583e+2, -171127.66, -402596.47, -34345.324, 0.57657796, -0.14184952, -166139.02, -115060.28, 0.0, 10.0009365, 9.997737 
2.8616193e+3, 3.0477598e+2, -120672.664, -377459.22, 95937.28, 0.35395485, -0.09548904, -88788.695, -88788.695, 0.0, 10.000853, 9.997249 
2.8612193e+3, 3.1476563e+2, -174623.75, -404737.7, 112417.96, -0.42952162, -0.15799938, -128820.83, -128820.83, 0.0, 10.000225, 9.997048 
2.8608352e+3, 3.247588e+2, -124571.45, 24824.656, -42569.266, 0.5358307, 0.087982826, 36103.004, 36103.004, 0.0, 9.99881, 10.000655 
2.8782797e+3, 1.3531601e+2, -1622373.3, -2181010.3, -225053.16, -0.30478454, -0.30715364, -1542988.9, 70884.79, 0.0000021473002, 10.002801, 9.995376 
2.8778854e+3, 1.4530799e+2, -1360411.8, -1754501.5, 66378.836, 0.107294604, 0.00933775, -1349531.6, 166435.73, 0.00000043033984, 10.002909, 9.997596 
2.8774896e+3, 1.5529363e+2, -1513257.5, -1763838.4, 92408.17, -0.17251194, -0.4583873, -1482865.8, -64757.766, 0.000000019645139, 10.001158, 9.997685 
2.877095e+3, 1.6528533e+2, -1164399.9, -1054816.0, -10400.956, -0.20951912, -0.5027878, -1053837.5, 266347.97, 0.0, 10.000755, 10.0020895 
2.8767005e+3, 1.7528221e+2, -989153.1, -945695.75, 20664.586, -0.20313102, -0.26636866, -937438.4, 284770.34, 0.0, 10.001399, 10.001849 
2.8763068e+3, 1.8527623e+2, -982377.7, -1171786.1, 54241.254, -0.22239646, -0.13981712, -967944.4, 156320.66, 0.0, 10.001987, 9.999333 
2.875915e+3, 1.9526766e+2, -884935.0, -1084259.5, 24970.967, -0.20806599, -0.18080589, -881854.25, 144496.48, 0.0, 10.002044, 9.999229 
2.8755257e+3, 2.0525883e+2, -773525.2, -922432.1, 151873.53, -0.09186267, -0.24354482, -678837.06, 249599.13, 0.0, 10.001913, 9.99971 
2.8751388e+3, 2.152493e+2, -752617.6, -886913.44, 211813.56, 0.04472407, -0.41511595, -597563.3, 232962.69, 0.0, 10.001467, 9.999506 
2.874748e+3, 2.2524111e+2, -770888.56, -981204.2, 78919.97, -0.00477031, -0.34457433, -744568.1, -11958.621, 0.0, 10.0012665, 9.998274 
2.8743544e+3, 2.3523375e+2, -677890.5, -887330.44, 20372.186, -0.19148982, -0.16351482, -675927.3, -41237.26, 0.0, 10.00122, 9.998281 
2.8739634e+3, 2.4522631e+2, -495435.7, -638946.3, 21211.318, -0.10284392, -0.019610627, -492366.25, 44401.832, 0.0, 10.00133, 9.999277 
2.8735745e+3, 2.5521865e+2, -364037.38, -552625.06, 32195.531, 0.17967108, 0.04484794, -358692.47, 80153.47, 0.0, 10.00163, 9.999071 
2.8731835e+3, 2.65209e+2, -336723.9, -506005.25, 96691.47, 0.22310822, -0.04632639, -292860.56, 48078.016, 0.0, 10.001264, 9.9988575 
2.8727907e+3, 2.7519718e+2, -372165.03, -484805.47, 116946.79, 0.07095687, -0.35768175, -298683.4, -55636.098, 0.0, 10.000373, 9.998779 
2.8723982e+3, 2.8518844e+2, -280916.06, -435824.9, 72625.05, 0.07862515, -0.3073673, -252193.34, -107062.625, 0.0, 10.00055, 9.998359 
2.872006e+3, 2.9518205e+2, 31965.967, -251060.9, 71608.24, 0.21476886, -0.023199577, 49052.004, 96247.234, 0.0, 10.002051, 9.998251 
2.8716105e+3, 3.0517173e+2, 223846.16, -35378.156, 146222.17, 0.028122963, -0.124628834, 289631.63, 289631.63, 0.0, 10.002398, 9.998875 
2.8712142e+3, 3.151586e+2, 170140.4, -57813.19, 178350.05, -0.31474888, -0.58899975, 267822.4, 267822.4, 0.0, 10.001733, 9.998736 
2.870824e+3, 3.2515287e+2, -36115.293, -136001.98, -11363.136, 0.20065816, -0.21553907, -34838.93, -34838.93, 0.0, 10.000196, 9.998902 
2.888275e+3, 1.3571113e+2, -1691285.9, -2046471.8, -142442.84, -0.16178691, -0.16449904, -1641218.5, -31209.736, 0.0000003382392, 10.001549, 9.996901 
2.8878805e+3, 1.4570342e+2, -1014056.4, -1406785.1, 15465.4375, -0.0063926983, 0.018681103, -1013448.3, 498645.97, 0.000000039050374, 10.004466, 9.999235 
2.8874844e+3, 1.5569183e+2, -1143507.0, -1441430.5, 134662.75, -0.12529773, -0.31192806, -1091661.3, 322541.25, 0.0000000006124831, 10.003049, 9.999002 
2.8870896e+3, 1.6568355e+2, -1088007.1, -1205827.4, 106702.71, -0.13876519, -0.32010093, -1025032.6, 291247.66, 0.0, 10.002109, 10.000372 
2.8866947e+3, 1.7567825e+2, -1108479.4, -1197123.3, 24706.967, -0.181007, -0.14181028, -1102058.1, 116271.43, 0.0, 10.001419, 10.000102 
2.8863013e+3, 1.8567021e+2, -1107264.1, -1311884.3, 58056.77, -0.20839265, -0.09990034, -1091939.4, 28467.518, 0.0, 10.001522, 9.998593 
2.8859097e+3, 1.9565962e+2, -945693.56, -1198921.6, 64677.723, -0.16827807, -0.27732092, -930130.5, 92380.01, 0.0, 10.002018, 9.9984665 
2.8855208e+3, 2.0565046e+2, -737301.6, -863104.25, 165910.95, -0.053833593, -0.34809238, -622768.4, 301829.5, 0.0, 10.002036, 10.000059 
2.885134e+3, 2.1564192e+2, -721624.7, -848512.06, 131262.27, 0.14036892, -0.46699834, -639277.8, 187399.16, 0.0, 10.001639, 9.999684 
2.8847423e+3, 2.2563446e+2, -732847.3, -931818.2, 55483.293, 0.035237767, -0.3473145, -718421.56, 10331.575, 0.0, 10.001442, 9.998526 
2.8843468e+3, 2.35628e+2, -707772.5, -907066.9, 107155.66, -0.2902388, -0.099214755, -661091.7, -30264.902, 0.0, 10.001097, 9.998207 
2.8839564e+3, 2.4562033e+2, -538801.5, -674931.06, 140113.73, -0.16477269, 0.051794067, -451095.06, 81813.05, 0.0, 10.001125, 9.99912 
2.8835696e+3, 2.5561148e+2, -487123.2, -633472.6, 91015.63, 0.3099296, -0.001222171, -443514.4, -8516.638, 0.0, 10.000942, 9.998829 
2.8831786e+3, 2.6560166e+2, -346922.72, -444621.06, 80416.805, 0.37942463, -0.11893483, -301680.97, 35409.2, 0.0, 10.000991, 9.999387 
2.8827846e+3, 2.7559054e+2, -309355.1, -412491.75, 50663.28, 0.17906508, -0.4314358, -288631.94, -49441.76, 0.0, 10.000703, 9.999099 
2.882391e+3, 2.855827e+2, -243437.1, -361520.66, 41688.375, 0.041694496, -0.3375092, -230202.66, -88938.48, 0.0, 10.000601, 9.99883 
2.881997e+3, 2.9557717e+2, -240365.9, -356792.53, 59445.586, -0.051452786, -0.025117664, -215377.25, -172056.63, 0.0, 10.000113, 9.998454 
2.8816035e+3, 3.0556685e+2, -22528.94, -1949.6125, 55475.38, -0.1127693, -0.21771783, 44182.31, 44182.31, 0.0, 10.000151, 10.000162 
2.881211e+3, 3.1555247e+2, -48758.363, -78634.35, 60304.563, 0.008155738, -0.9416692, -1569.1954, -1569.1954, 0.0, 9.999952, 9.99944 
2.8808123e+3, 3.2554808e+2, 16905.36, -293491.38, -82022.57, -0.27719602, -0.4369177, 37246.832, 37246.832, 0.0, 10.001561, 9.997068 
2.8982705e+3, 1.3610497e+2, -1487177.9, -1628357.4, 121993.13, -0.0740505, -0.07094292, -1416823.5, 189333.44, 0.0000000028010363, 10.001591, 9.999746 
2.8978747e+3, 1.4609855e+2, -1048768.4, -1155044.1, -38035.727, -0.24479593, -0.015738636, -1036558.4, 471663.22, 0.0, 10.003089, 10.001613 
2.8974804e+3, 1.5609314e+2, -1029026.25, -1169529.8, 46023.344, -0.06718348, 0.02972866, -1015293.1, 394971.6, 0.0, 10.002894, 10.000942 
2.897085e+3, 1.6608456e+2, -1218908.4, -1561783.1, 32805.707, -0.055726897, 0.035998944, -1215797.8, 96548.914, 0.0, 10.0024605, 9.99776 
2.896688e+3, 1.7607409e+2, -1227478.6, -1527777.9, 7658.802, -0.24338022, -0.033973213, -1227283.4, -12830.702, 0.0, 10.001773, 9.997662 
2.8962958e+3, 1.8606268e+2, -1054730.9, -1299725.4, 82274.6, -0.19546652, -0.20979151, -1029665.6, 86896.77, 0.0, 10.001908, 9.998498 
2.8959063e+3, 1.9605061e+2, -907270.8, -1189059.3, 99268.98, 0.027430462, -0.5086534, -875812.1, 142863.69, 0.0, 10.002276, 9.998424 
2.895517e+3, 2.0604233e+2, -742641.7, -931293.9, 160244.52, 0.12421791, -0.4638313, -651022.3, 269733.22, 0.0, 10.002232, 9.999515 
2.8951278e+3, 2.1603614e+2, -695373.7, -864071.1, 140428.66, 0.107849315, -0.28013864, -615908.75, 206907.73, 0.0, 10.001883, 9.999477 
2.8947356e+3, 2.2602893e+2, -545201.75, -616007.4, 59786.688, -0.055292327, -0.23927559, -511122.16, 213764.31, 0.0, 10.001727, 10.000565 
2.8943405e+3, 2.3602113e+2, -506459.03, -606067.6, 132420.73, -0.34321213, -0.3100416, -414786.4, 212176.02, 0.0, 10.0015335, 10.00008 
2.8939503e+3, 2.4601272e+2, -558441.0, -803419.7, 165397.92, -0.16757384, -0.26773608, -475114.63, 53935.902, 0.0, 10.001449, 9.998092 
2.8935632e+3, 2.5600362e+2, -471007.2, -714333.5, 117064.3, 0.29592383, -0.22503386, -423833.22, 7315.257, 0.0, 10.001369, 9.998076 
2.8931722e+3, 2.659952e+2, -299912.9, -455418.4, 110580.266, 0.35088408, -0.15470538, -242486.19, 90746.27, 0.0, 10.0014305, 9.999111 
2.8927782e+3, 2.7598676e+2, -169158.97, -359028.5, 70615.34, 0.11744913, -0.15056048, -145775.78, 89535.87, 0.0, 10.001685, 9.998994 
2.8923848e+3, 2.8597778e+2, -116433.016, -223260.7, 16517.6, 0.09475163, -0.20364657, -113937.375, 23457.297, 0.0, 10.0010805, 9.999562 
2.891992e+3, 2.9596862e+2, -194053.78, -237344.06, 45072.027, 0.19452599, -0.31411177, -165698.92, -126219.67, 0.0, 9.999965, 9.999349 
2.8915998e+3, 3.0595985e+2, -81736.49, -22147.945, 84403.95, 0.3499821, -0.4002478, 37566.027, 37566.027, 0.0, 9.999708, 10.000257 
2.8912103e+3, 3.1595054e+2, -29859.84, -88236.75, 54427.613, 0.709843, -0.587942, 2711.9753, 2711.9753, 0.0, 10.000118, 9.99935 
2.8908128e+3, 3.259442e+2, 421521.94, -171354.13, 66563.836, 0.17693792, -0.18052405, 428903.34, 428903.34, 0.0, 10.004542, 9.996591 
2.9082665e+3, 1.3649642e+2, -1392992.6, -1541328.4, 58510.465, 0.05868381, -0.44837227, -1372691.8, 229613.08, 0.00000000011876347, 10.002042, 10.000155 
2.907868e+3, 1.4649196e+2, -1478209.5, -1563085.5, -31956.2, -0.3320411, -0.11405965, -1467523.4, 36831.273, 0.0, 10.001039, 9.9998045 
2.9074767e+3, 1.56484e+2, -1065934.6, -1353996.0, -141603.97, 0.009802292, -0.16713999, -1007983.8, 398449.16, 0.0, 10.003381, 9.999436 
2.9070815e+3, 1.6647552e+2, -968515.44, -1413240.0, -208750.55, 0.028855097, -0.12525395, -885883.0, 422633.66, 0.0, 10.004073, 9.998003 
2.9066834e+3, 1.7646615e+2, -995345.6, -1404596.8, -102422.6, -0.20309721, -0.12608045, -971143.7, 239466.44, 0.0, 10.00334, 9.997758 
2.906291e+3, 1.8645583e+2, -855994.94, -1163321.3, 74895.78, -0.16617823, -0.22332111, -838714.4, 273995.0, 0.0, 10.003133, 9.998822 
2.905902e+3, 1.9644484e+2, -777779.9, -1088111.0, 115126.5, 0.08618159, -0.4600847, -739734.5, 275078.1, 0.0, 10.0030365, 9.998716 
2.905512e+3, 2.06437e+2, -716854.44, -865749.94, 192658.1, 0.13475421, -0.41538388, -584760.2, 332127.13, 0.0, 10.002198, 9.999948 
2.9051214e+3, 2.164309e+2, -872867.56, -918002.56, 241235.78, 0.063520215, -0.26594493, -653146.0, 165801.1, 0.0, 10.000546, 9.999738 
2.9047287e+3, 2.2642367e+2, -694285.0, -599263.25, 173421.0, -0.08792177, -0.27085567, -466962.75, 254051.81, 0.0, 10.000383, 10.001294 
2.9043347e+3, 2.364155e+2, -626718.75, -612066.2, 143972.81, -0.27709985, -0.45913625, -475233.38, 147855.4, 0.0, 10.000545, 10.00049 
2.9039443e+3, 2.4640708e+2, -631018.44, -817145.06, 201694.2, -0.13484986, -0.43956804, -501952.7, 23223.295, 0.0, 10.000967, 9.998171 
2.9035562e+3, 2.563982e+2, -559692.44, -772756.8, 233215.31, 0.22853252, -0.38386136, -409829.47, 17444.219, 0.0, 10.000917, 9.99786 
2.903165e+3, 2.6639074e+2, -293996.3, -440654.84, 297838.78, 0.26202545, -0.20228322, -60592.59, 268758.4, 0.0, 10.001446, 9.999189 
2.9027718e+3, 2.7638382e+2, -224662.06, -416938.44, 275023.78, 0.08032406, -0.044734783, -29457.438, 201961.5, 0.0, 10.001458, 9.998715 
2.9023787e+3, 2.8637412e+2, -97832.26, -164605.86, 143652.66, 0.1408376, -0.15588799, 16262.344, 149772.0, 0.0, 10.001104, 9.999915 
2.901986e+3, 2.9636255e+2, -215835.86, -266412.16, 138819.17, 0.35740054, -0.52151, -100020.305, -64404.87, 0.0, 10.000013, 9.999083 
2.901588e+3, 3.063537e+2, -73389.27, -209959.3, 66429.164, -0.076544076, -0.5077059, -46407.934, -46407.934, 0.0, 10.000689, 9.998408 
2.90119e+3, 3.1634724e+2, -89154.766, -429358.13, -105688.83, -0.6015888, -0.23730797, -58994.84, -58994.84, 0.0, 10.001196, 9.996411 
2.9008105e+3, 3.2633287e+2, -75151.625, -388179.88, 113102.42, 0.3055545, -0.5551724, -38562.59, -38562.59, 0.0, 10.001198, 9.996578 
2.9182607e+3, 1.3688838e+2, -1537472.8, -1634414.9, -191855.7, 0.06748543, -0.8092715, -1388059.9, 210382.77, 0.0000000000007792345, 10.001184, 9.99993 
2.917861e+3, 1.4688432e+2, -1691272.8, -2004687.4, 73416.016, -0.34967515, -0.24160038, -1674927.8, -174432.11, 0.0, 10.001046, 9.996771 
2.917473e+3, 1.5687047e+2, -1264892.8, -1717806.9, 3673.7285, 0.010877348, -0.5701055, -1264862.9, 137783.45, 0.0, 10.00316, 9.997053 
2.9170784e+3, 1.6686234e+2, -887766.7, -1177503.6, -169206.52, 0.05394858, -0.49521208, -809884.8, 494843.88, 0.0, 10.003782, 9.999751 
2.9166797e+3, 1.7685665e+2, -906730.5, -1183885.4, -72003.67, -0.17479615, -0.28756362, -889140.56, 317640.75, 0.0, 10.003148, 9.999376 
2.9162866e+3, 1.8684947e+2, -815006.3, -1053606.3, 97426.57, -0.17251182, -0.18633473, -780278.94, 328571.6, 0.0, 10.003009, 9.999636 
2.9158968e+3, 1.968414e+2, -724799.56, -952892.75, 130702.914, -0.045619696, -0.20106375, -665381.8, 345546.97, 0.0, 10.002892, 9.999723 
2.9155055e+3, 2.0683365e+2, -616605.6, -667960.06, 139817.14, -0.0064331815, -0.27140012, -500127.47, 412873.25, 0.0, 10.002186, 10.001337 
2.9151136e+3, 2.1682604e+2, -742463.5, -714928.06, 201076.63, -0.0535363, -0.3980833, -527148.4, 287921.44, 0.0, 10.000785, 10.001037 
2.914722e+3, 2.2681886e+2, -705118.56, -664976.56, 190094.53, -0.06661259, -0.41994444, -493896.38, 223239.33, 0.0, 10.000535, 10.000791 
2.9143298e+3, 2.3681165e+2, -576918.1, -598478.7, 172767.27, -0.096081555, -0.44870806, -414595.13, 204607.47, 0.0, 10.00086, 10.000456 
2.9139388e+3, 2.468042e+2, -474066.34, -552392.7, 226355.11, -0.06296398, -0.42841688, -283511.47, 237765.94, 0.0, 10.001164, 9.999911 
2.9135478e+3, 2.567965e+2, -343948.63, -461825.97, 280068.94, 0.017033279, -0.41510266, -116683.91, 306674.13, 0.0, 10.001411, 9.999783 
2.9131573e+3, 2.6678914e+2, -189654.88, -265633.97, 364319.63, 0.09128155, -0.36875835, 138650.52, 464081.97, 0.0, 10.001564, 10.000359 
2.9127663e+3, 2.76782e+2, -109799.125, -237725.83, 355746.1, 0.114975326, -0.3288348, 187688.22, 415188.53, 0.0, 10.001658, 9.999861 
2.9123726e+3, 2.8677395e+2, -82951.92, -240983.69, 238967.63, 0.1671204, -0.27481347, 89724.54, 219307.88, 0.0, 10.001527, 9.9992075 
2.9119778e+3, 2.9676455e+2, -243509.25, -440912.1, 230672.77, 0.24742433, -0.32681578, -91308.51, -59627.95, 0.0, 10.000424, 9.997698 
2.9282513e+3, 1.3728552e+2, -1541758.9, -1642292.3, -290455.75, -0.21321388, -0.5455105, -1297252.4, 297304.7, 0.0, 10.001173, 9.999876 
2.9278606e+3, 1.4727901e+2, -1515265.6, -1831586.0, 209241.22, 0.1947991, -0.27168393, -1411134.9, 85494.44, 0.0, 10.001846, 9.9975815 
2.9274678e+3, 1.5726712e+2, -1218741.8, -1618533.1, 256719.23, -0.052637402, -0.4642342, -1093271.4, 305485.6, 0.0, 10.003139, 9.997746 
2.9270726e+3, 1.6725887e+2, -950491.7, -1155845.9, 53975.773, -0.05611062, -0.4310316, -937168.94, 363669.28, 0.0, 10.003144, 10.000203 
2.9266757e+3, 1.7725234e+2, -990876.25, -1179756.3, 104119.54, -0.05428079, -0.33464482, -944746.75, 258151.2, 0.0, 10.002391, 9.999771 
2.9262823e+3, 1.8724507e+2, -996942.94, -1138457.1, 235749.44, -0.0719346, -0.24656807, -821561.1, 283406.0, 0.0, 10.001754, 9.99965 
2.925891e+3, 1.9723734e+2, -1059742.4, -1139789.8, 223532.3, -0.013850274, -0.22155337, -872678.94, 134363.44, 0.0, 10.000697, 9.999511 
2.9254988e+3, 2.0722948e+2, -895627.8, -861571.56, 145197.86, -0.0446322, -0.25244322, -732406.75, 176711.53, 0.0, 10.0006, 10.000747 
2.925106e+3, 2.1722138e+2, -851490.9, -817904.5, 72774.69, -0.11647248, -0.39016205, -760010.56, 51184.883, 0.0, 10.000311, 10.000547 
2.924715e+3, 2.2721401e+2, -685909.3, -641540.4, 97205.91, -0.0798614, -0.43887395, -564019.56, 149243.17, 0.0, 10.000618, 10.000904 
2.9243243e+3, 2.3720695e+2, -616996.3, -626487.9, 130725.72, 0.011057176, -0.4801759, -490930.28, 124396.14, 0.0, 10.000659, 10.000357 
2.9239324e+3, 2.4720003e+2, -457678.4, -493993.97, 130453.766, -0.055642683, -0.4325182, -344124.78, 173270.16, 0.0, 10.001122, 10.000318 
2.9235402e+3, 2.5719306e+2, -366487.84, -416549.3, 76665.37, -0.15063815, -0.4277213, -310870.47, 108595.586, 0.0, 10.001096, 10.000229 
2.9231498e+3, 2.67186e+2, -302739.47, -229448.95, 80807.805, -0.0367863, -0.44371504, -177365.53, 144169.81, 0.0, 10.0005, 10.001071 
2.9227597e+3, 2.7717894e+2, -450488.34, -331003.84, 54096.727, 0.13529818, -0.51395726, -310150.88, -86548.13, 0.0, 9.999086, 10.000439 
2.9223663e+3, 2.8717288e+2, -177469.6, -287427.16, 19832.973, 0.14771035, -0.319606, -174001.7, -48330.465, 0.0, 10.000967, 9.999107 
2.92197e+3, 2.971662e+2, -63879.98, -435916.28, 40739.438, 0.12037572, -0.15406683, -59471.1, -31720.578, 0.0, 10.002069, 9.996941 
2.9382434e+3, 1.376831e+2, -1524250.3, -1625390.9, -302099.6, -0.35179582, -0.20897858, -1268517.5, 322156.84, 0.0, 10.001285, 9.99993 
2.9378608e+3, 1.4767474e+2, -1309005.3, -1486118.8, 233761.34, 0.76793975, -0.25748888, -1147588.6, 345168.25, 0.0, 10.002185, 9.999799 
2.9374614e+3, 1.5766795e+2, -1260571.6, -1449318.5, 234304.94, -0.25662357, -0.15419424, -1102348.3, 292476.22, 0.0, 10.002015, 9.999459 
2.9370666e+3, 1.6765955e+2, -1056905.6, -1225490.8, -7349.0513, -0.22597185, -0.203339, -1056585.9, 240318.08, 0.0, 10.002464, 10.000063 
2.936672e+3, 1.7765054e+2, -995553.3, -1200333.0, 67474.47, 0.040438853, -0.33852315, -975319.8, 223667.92, 0.0, 10.002403, 9.999639 
2.936278e+3, 1.8764175e+2, -991689.3, -1179133.3, 179937.83, 0.06422019, -0.37743187, -882528.5, 218541.25, 0.0, 10.001946, 9.999291 
2.9358852e+3, 1.9763292e+2, -1064010.5, -1219443.1, 188005.56, 0.031307153, -0.41350546, -938291.5, 64861.574, 0.0, 10.00097, 9.99884 
2.9354918e+3, 2.0762473e+2, -1024287.6, -1167964.9, 134563.64, -0.05498607, -0.3166986, -943587.2, -38347.805, 0.0, 10.0007715, 9.998559 
2.9350984e+3, 2.176167e+2, -886716.5, -982970.5, 73275.44, -0.20724434, -0.22905755, -847176.56, -39849.97, 0.0, 10.000647, 9.999268 
2.9347074e+3, 2.2760886e+2, -576440.06, -494833.97, 99381.31, -0.15748802, -0.33523685, -428205.5, 281192.66, 0.0, 10.000868, 10.001836 
2.934317e+3, 2.3760104e+2, -503526.38, -516675.56, 129592.77, -0.06754128, -0.5312899, -380341.53, 231123.19, 0.0, 10.001087, 10.000948 
2.9339254e+3, 2.4759355e+2, -527537.56, -703338.8, 112807.05, -0.13377969, -0.4688562, -472427.88, 41113.004, 0.0, 10.0013275, 9.998818 
2.9335332e+3, 2.575861e+2, -366140.56, -530401.44, 14156.872, -0.24648732, -0.35949486, -364929.38, 50691.76, 0.0, 10.001495, 9.999286 
2.9331422e+3, 2.6757872e+2, -353223.9, -308193.0, -61517.965, -0.096812695, -0.3508355, -265199.63, 52496.426, 0.0, 10.000304, 10.000655 
2.932751e+3, 2.775716e+2, -444309.5, -300252.6, -82487.42, 0.10582967, -0.40564743, -262771.8, -43004.57, 0.0, 9.998879, 10.00079 
2.93236e+3, 2.8756604e+2, -75755.45, -99512.125, 15973.559, 0.1838472, -0.27126434, -67727.77, 54100.35, 0.0, 10.000912, 10.000506 
2.9319674e+3, 2.9756206e+2, 415544.47, -70569.414, -36587.86, 0.22892044, 0.041479234, 418282.88, 442158.66, 0.0, 10.004549, 9.9983425 
2.9482394e+3, 1.3807662e+2, -1299562.9, -1636623.8, -10197.039, -0.21336271, -0.3299101, -1299254.8, 287560.63, 0.0, 10.003284, 9.99892 
2.9478535e+3, 1.4806864e+2, -1110007.9, -1380169.3, 89341.61, 0.5013798, -0.31119385, -1083135.8, 405759.88, 0.0, 10.003509, 9.999896 
2.9474545e+3, 1.5806149e+2, -1628246.4, -1601160.5, 33264.063, -0.25031763, -0.26852778, -1578788.1, -187822.86, 0.0, 9.999382, 9.9997 
2.9470602e+3, 1.6805398e+2, -1359127.5, -1351648.6, -98489.09, -0.21017253, -0.2639403, -1256828.0, 36207.375, 0.0, 10.000321, 10.000232 
2.9466662e+3, 1.7804585e+2, -965511.8, -1187748.8, -44096.063, 0.009355043, -0.34467253, -957082.06, 238028.36, 0.0, 10.002632, 9.999601 
2.9462722e+3, 1.880365e+2, -827605.5, -1106832.5, 29757.633, -0.019331515, -0.4514843, -824469.44, 272727.38, 0.0, 10.003119, 9.999216 
2.9458785e+3, 1.9802672e+2, -854788.1, -1158039.0, 48989.617, -0.0504049, -0.5870099, -847070.4, 152217.42, 0.0, 10.002592, 9.998483 
2.9454848e+3, 2.0801835e+2, -868216.3, -1161922.5, 82035.92, -0.13885562, -0.48045218, -846856.1, 54521.434, 0.0, 10.002138, 9.997936 
2.9450914e+3, 2.1801043e+2, -875829.94, -1062658.3, 131311.7, -0.24544047, -0.31288674, -808095.2, -4628.731, 0.0, 10.001112, 9.998504 
2.9447007e+3, 2.2800319e+2, -435420.53, -421998.16, 167168.0, -0.20601737, -0.32719404, -261406.69, 444127.44, 0.0, 10.001907, 10.001783 
2.944311e+3, 2.3799592e+2, -348340.7, -480798.6, 117011.414, -0.11499259, -0.47528362, -280115.4, 327482.03, 0.0, 10.002421, 10.000512 
2.9439193e+3, 2.4798805e+2, -410431.63, -682143.8, 141579.94, -0.15399612, -0.4140391, -350069.06, 159609.02, 0.0, 10.002372, 9.998421 
2.9435277e+3, 2.5798014e+2, -403793.94, -612167.6, 118594.97, -0.20770349, -0.30880246, -350121.16, 61642.34, 0.0, 10.001599, 9.998664 
2.943135e+3, 2.679724e+2, -223411.06, -312768.0, 33588.773, -0.13145602, -0.26714316, -212193.45, 101650.53, 0.0, 10.001522, 10.000033 
2.9427418e+3, 2.7796477e+2, -197129.14, -208625.94, 46082.277, -0.0030207757, -0.30917877, -156438.11, 59483.938, 0.0, 10.000764, 10.000499 
2.942353e+3, 2.8795907e+2, 55553.49, 121195.94, 210417.1, 0.1507074, -0.25220683, 301336.2, 419315.78, 0.0, 10.00123, 10.001838 
2.9419643e+3, 2.9795656e+2, 25281.672, -112460.64, 164323.06, 0.30019206, 0.10455031, 134582.64, 154588.72, 0.0, 10.001431, 9.999495 
2.958235e+3, 1.3846982e+2, -1336826.3, -1765941.9, 257479.28, -0.2922997, -0.48218858, -1216226.5, 366728.66, 0.0, 10.003495, 9.997943 
2.957844e+3, 1.4846195e+2, -1238085.3, -1523549.8, -52683.477, -0.031181267, -0.379711, -1228672.8, 256365.1, 0.0, 10.002985, 9.99916 
2.957447e+3, 1.5845217e+2, -1557076.6, -1616977.8, -35916.367, -0.21114446, -0.52378863, -1540261.6, -153126.33, 0.0, 10.000065, 9.999271 
2.9570532e+3, 1.684456e+2, -1259946.1, -1270608.9, -8137.02, -0.16002366, -0.4333811, -1255549.5, 33647.082, 0.0, 10.000823, 10.000557 
2.9566598e+3, 1.7843965e+2, -962362.06, -1148109.1, 12750.469, -0.19390331, -0.32373178, -961490.94, 229759.55, 0.0, 10.002456, 9.999966 
2.9562652e+3, 1.884298e+2, -853822.44, -1102762.1, 4662.6226, -0.26952595, -0.50718534, -853735.1, 239606.33, 0.0, 10.002834, 9.999388 
2.9558712e+3, 1.9841897e+2, -832747.3, -1107196.8, 27264.807, -0.31520176, -0.7602639, -830064.94, 165377.64, 0.0, 10.002513, 9.998886 
2.955478e+3, 2.0841047e+2, -784940.5, -1039490.75, 45539.984, -0.29837483, -0.7299912, -777038.56, 120491.234, 0.0, 10.00225, 9.998769 
2.9550847e+3, 2.1840279e+2, -759986.44, -946830.3, 115548.94, -0.31800467, -0.6143191, -704817.56, 94794.234, 0.0, 10.001575, 9.999096 
2.954695e+3, 2.2839722e+2, -479400.03, -577959.8, 192996.95, -0.26103717, -0.4086009, -329490.72, 372178.63, 0.0, 10.002175, 10.000589 
2.9543057e+3, 2.3839186e+2, -257270.05, -465848.1, 112145.266, -0.18786217, -0.25060076, -208416.13, 395306.84, 0.0, 10.003094, 10.000304 
2.9539156e+3, 2.4838422e+2, -248356.58, -467164.28, 108076.88, -0.07278682, -0.24443948, -203975.47, 301823.84, 0.0, 10.002798, 9.999745 
2.9535246e+3, 2.583759e+2, -227569.03, -434013.75, 103411.11, 0.03278408, -0.28437987, -184679.4, 223203.33, 0.0, 10.002297, 9.999598 
2.9531297e+3, 2.6836804e+2, -149382.31, -354361.63, 38086.727, -0.09782945, -0.25123098, -142534.3, 167429.2, 0.0, 10.002282, 9.999421 
2.9527336e+3, 2.783604e+2, 51482.79, -92246.66, 60887.316, -0.28758726, -0.22631928, 73808.31, 285849.7, 0.0, 10.002376, 10.000562 
2.9523453e+3, 2.8835395e+2, 229674.39, 280672.66, 203941.48, -0.036114812, -0.29937094, 460702.94, 574798.94, 0.0, 10.001968, 10.002637 
2.951958e+3, 2.9834798e+2, 204765.02, 237439.66, 108153.32, 0.2877712, -0.36398956, 330482.63, 346623.25, 0.0, 10.001308, 10.002015 
2.9682314e+3, 1.3886583e+2, -1321585.1, -1745929.9, 190979.56, -0.29809615, -0.48385563, -1248292.5, 330779.63, 0.0, 10.003595, 9.99801 
2.967838e+3, 1.4885789e+2, -1305051.0, -1630752.4, -8683.941, -0.13458833, -0.33952332, -1304819.6, 176338.17, 0.0, 10.00289, 9.998462 
2.9674426e+3, 1.5884836e+2, -1136677.5, -1486609.0, 20306.605, -0.062057782, -0.3783536, -1135503.1, 247751.97, 0.0, 10.003254, 9.998639 
2.9670492e+3, 1.6883999e+2, -1056323.3, -1235134.3, 42341.727, -0.008824899, -0.40490344, -1046803.7, 238528.39, 0.0, 10.002482, 10.000011 
2.966655e+3, 1.788323e+2, -1160085.0, -1279029.1, 27393.87, -0.09031097, -0.42737454, -1154079.3, 33322.016, 0.0, 10.001267, 9.999646 
2.9662594e+3, 1.8882406e+2, -1163264.1, -1234856.9, -14877.908, -0.2520484, -0.44788712, -1160295.4, -70815.73, 0.0, 10.000685, 9.999507 
2.965865e+3, 1.988151e+2, -1193374.0, -1237741.1, 28165.611, -0.2966472, -0.5284272, -1179704.9, -188139.27, 0.0, 9.999913, 9.999228 
2.965473e+3, 2.0880677e+2, -821121.06, -907027.75, 96014.24, -0.2539748, -0.5828151, -758890.2, 134756.67, 0.0, 10.001431, 10.000044 
2.96508e+3, 2.187986e+2, -592669.4, -822828.56, 172561.66, -0.22250333, -0.6287994, -500334.34, 295393.25, 0.0, 10.002586, 9.9994545 
2.9646894e+3, 2.2879237e+2, -609294.5, -721961.7, 267385.7, -0.23323818, -0.44793376, -392372.6, 305419.84, 0.0, 10.001649, 9.999859 
2.9643e+3, 2.387868e+2, -752140.06, -758867.06, 218036.98, -0.19273794, -0.23651256, -537440.6, 62410.723, 0.0, 9.999963, 9.999816 
2.9639098e+3, 2.4877928e+2, -478172.53, -498140.47, 178726.55, -0.07309295, -0.24326845, -309151.3, 192774.58, 0.0, 10.000922, 10.000407 
2.9635194e+3, 2.5877106e+2, -342310.34, -483607.56, 119131.7, 0.070100695, -0.33748865, -274454.13, 129552.23, 0.0, 10.001554, 9.999584 
2.963124e+3, 2.68763e+2, -318049.47, -466244.66, 63583.605, -0.1142685, -0.31098345, -294508.28, 11578.831, 0.0, 10.001278, 9.99911 
2.9627267e+3, 2.7875498e+2, -323634.28, -330280.78, 118184.484, -0.40440187, -0.29563054, -208726.34, -559.68414, 0.0, 10.000137, 9.999976 
2.962338e+3, 2.887476e+2, -53485.81, 121621.39, 177088.5, -0.18548729, -0.4301581, 231617.7, 341842.25, 0.0, 10.000225, 10.002323 
2.9619512e+3, 2.9873693e+2, 104102.67, 414188.78, -40721.043, 0.27561077, -1.0109314, 419447.16, 431751.88, 0.0, 9.999785, 10.003914 
2.9782265e+3, 1.3926308e+2, -1562115.4, -1825142.8, -25291.674, -0.36895105, -0.39947844, -1559705.5, 15473.451, 0.0, 10.001831, 9.998297 
2.9778332e+3, 1.492547e+2, -1434937.5, -1763060.1, 26792.594, -0.117662914, -0.25739738, -1432764.1, 44506.055, 0.0, 10.002311, 9.997825 
2.9774395e+3, 1.5924674e+2, -1155423.5, -1564763.3, 20905.998, 0.05214058, -0.07090762, -1154358.6, 224995.77, 0.0, 10.003425, 9.998017 
2.9770455e+3, 1.6923562e+2, -1104522.5, -1360241.8, 12628.165, 0.15232612, -0.29713744, -1103900.4, 177555.67, 0.0, 10.002592, 9.999105 
2.9766506e+3, 1.7922439e+2, -1162511.3, -1341066.0, -10354.706, 0.08282803, -0.5701148, -1161912.8, 21644.375, 0.0, 10.00148, 9.999131 
2.9762545e+3, 1.892191e+2, -1090472.1, -1195598.9, -52986.26, -0.07421843, -0.28469336, -1068400.0, 17211.87, 0.0, 10.001088, 9.9996195 
2.9758587e+3, 1.9921437e+2, -1036326.6, -1059886.4, 21756.348, -0.18397498, 0.028504403, -1023365.75, -35703.285, 0.0, 10.000471, 10.000211 
2.9754683e+3, 2.092062e+2, -701887.3, -689109.44, 140971.28, -0.10540754, -0.13871038, -554382.4, 335355.13, 0.0, 10.001528, 10.001519 
2.9750773e+3, 2.191974e+2, -458055.5, -643093.25, 163668.27, -0.0495076, -0.38298783, -362566.28, 429251.3, 0.0, 10.002917, 10.000567 
2.974685e+3, 2.2918878e+2, -574652.1, -729025.25, 190824.31, -0.10435502, -0.46774873, -445994.84, 247906.11, 0.0, 10.001849, 9.999779 
2.9742926e+3, 2.3918049e+2, -684658.56, -736691.0, 192908.25, -0.18399706, -0.51250887, -516020.13, 79962.664, 0.0, 10.00038, 9.999799 
2.9739016e+3, 2.4917284e+2, -465744.63, -545431.5, 222345.56, -0.2469499, -0.50050163, -279700.8, 218359.17, 0.0, 10.001141, 10.000016 
2.9735106e+3, 2.5916505e+2, -217424.92, -407498.78, 99030.26, -0.26659665, -0.5143991, -175206.58, 224931.8, 0.0, 10.002211, 9.999825 
2.9731175e+3, 2.6915658e+2, -242532.03, -360142.78, 8508.495, -0.12021615, -0.56833214, -241919.69, 60298.92, 0.0, 10.001412, 9.999839 
2.9727226e+3, 2.7914792e+2, -303994.38, -364331.47, 103209.664, -0.059085716, -0.64037406, -226634.44, -22334.188, 0.0, 10.000327, 9.999711 
2.9723305e+3, 2.89139e+2, -233523.08, -243805.06, 164415.19, -0.17226803, -0.7565952, -74168.52, 32214.078, 0.0, 10.000097, 9.999939 
2.971945e+3, 2.9913017e+2, 168576.83, 458996.0, -106145.7, 0.42874143, -0.9398832, 493655.1, 502108.6, 0.0, 10.0001135, 10.0041 
2.98822e+3, 1.3965969e+2, -1693066.5, -1519496.6, -181004.83, -0.310774, -0.29354608, -1405547.0, 165750.22, 0.0, 9.999254, 10.001677 
2.9878262e+3, 1.4965086e+2, -1516318.6, -1806187.3, 152490.55, -0.24364811, -0.2864248, -1450873.9, 22507.77, 0.0, 10.0016985, 9.997859 
2.9874352e+3, 1.5964118e+2, -988271.75, -1519442.4, 99056.61, -0.020084286, -0.27871275, -970400.25, 405079.38, 0.0, 10.004708, 9.997726 
2.98704e+3, 1.6963014e+2, -983591.0, -1378755.6, 15818.476, 0.05305064, -0.4335133, -982958.8, 294624.97, 0.0, 10.003767, 9.998417 
2.9866442e+3, 1.7961858e+2, -1129390.0, -1424759.8, 55712.746, 0.038050346, -0.650905, -1119230.9, 60461.414, 0.0, 10.002144, 9.998254 
2.986249e+3, 1.8961155e+2, -898301.06, -1142528.4, 20605.86, -0.04031415, -0.48049793, -896574.75, 185190.03, 0.0, 10.002582, 9.999273 
2.9858539e+3, 1.9960606e+2, -738643.0, -917394.7, 48963.727, -0.108146824, -0.2319047, -726109.6, 257713.4, 0.0, 10.002536, 10.000196 
2.9854614e+3, 2.0959902e+2, -898945.6, -812667.7, 65581.945, -0.11160485, -0.28024772, -777308.5, 108579.625, 0.0, 10.000262, 10.001299 
2.98507e+3, 2.1959199e+2, -1250046.9, -1003313.8, 37696.58, -0.04679958, -0.36285073, -997682.94, -209731.88, 0.0, 9.997448, 10.000722 
2.9846787e+3, 2.2958344e+2, -816245.06, -766431.2, 101483.43, -0.08119288, -0.51155925, -686842.94, 3187.9614, 0.0, 9.999954, 10.000396 
2.9842868e+3, 2.3957406e+2, -436542.25, -623514.1, 137967.92, -0.15658805, -0.7072813, -363370.56, 228749.56, 0.0, 10.002176, 9.999697 
2.9838952e+3, 2.495674e+2, -434220.13, -519051.78, 194948.92, -0.26516715, -0.60866916, -277126.1, 217062.5, 0.0, 10.0014, 10.000044 
2.9835045e+3, 2.5956094e+2, -568334.94, -601707.8, 104556.44, -0.27102095, -0.47484258, -479141.78, -82887.26, 0.0, 9.999999, 9.999548 
2.983113e+3, 2.69552e+2, -156432.08, -232284.25, 18891.54, 0.061969697, -0.6282073, -151987.45, 146347.97, 0.0, 10.001679, 10.000568 
2.9827198e+3, 2.7954268e+2, -77285.76, -345738.8, 120385.664, 0.28569746, -0.82012814, -31208.463, 169211.4, 0.0, 10.0023775, 9.998836 
2.9823238e+3, 2.895333e+2, -265694.78, -505197.6, 163562.8, -0.15210335, -0.8011273, -182731.63, -80214.8, 0.0, 10.001052, 9.997658 
2.9819384e+3, 2.9952586e+2, 58816.996, 454892.06, -38412.277, 0.5173644, -0.68066347, 458582.97, 463165.75, 0.0, 9.99933, 10.004406 
2.9982114e+3, 1.4005491e+2, -1351062.5, -912676.7, -211543.63, -0.34587446, -0.27073765, -827244.8, 740183.5, 0.0, 9.999766, 10.005601 
2.9978186e+3, 1.5004548e+2, -1507329.9, -1745832.4, 212958.33, -0.43315655, -0.4520376, -1382507.1, 86998.664, 0.0, 10.001549, 9.998353 
2.9974306e+3, 1.6003333e+2, -1137546.9, -1597214.3, 77149.08, -0.2297104, -0.72937375, -1124944.0, 246678.67, 0.0, 10.003703, 9.997685 
2.9970342e+3, 1.7002322e+2, -1121712.0, -1511122.5, -85974.945, -0.13130403, -0.7478042, -1103575.0, 170148.69, 0.0, 10.003089, 9.997849 
2.996637e+3, 1.800133e+2, -1143646.3, -1438615.3, 33701.46, -0.18809019, -0.7577687, -1139844.6, 35978.063, 0.0, 10.002098, 9.998168 
2.9962423e+3, 1.9000164e+2, -904820.8, -1186562.1, 64390.203, -0.20728225, -1.0168478, -890802.3, 187135.1, 0.0, 10.0027485, 9.9988785 
2.9958487e+3, 1.9999118e+2, -831376.3, -1051170.0, -917.20703, -0.14126767, -1.1908643, -831372.5, 148668.0, 0.0, 10.002271, 9.999396 
2.9954535e+3, 2.0998743e+2, -1004858.06, -965773.94, -36052.883, -0.1699961, -0.81409156, -944307.44, -62228.75, 0.0, 9.999983, 10.000374 
2.995058e+3, 2.1998312e+2, -1167643.6, -966600.8, 37407.31, -0.29747227, -0.5305732, -959866.2, -175744.95, 0.0, 9.997977, 10.00072 
2.9946694e+3, 2.299747e+2, -716044.5, -625516.5, 197459.36, -0.2794411, -0.72010493, -468199.6, 217999.42, 0.0, 10.000161, 10.001308 
2.9942822e+3, 2.3996726e+2, -228446.58, -387285.56, 155726.5, -0.15216322, -0.82623774, -133057.03, 455210.78, 0.0, 10.002961, 10.000955 
2.993893e+3, 2.4996397e+2, -294775.0, -396281.53, 105947.42, 0.06838922, -0.4604525, -228051.67, 262252.0, 0.0, 10.002053, 10.000618 
2.9935026e+3, 2.599601e+2, -434118.9, -427756.13, 95080.74, 0.26964387, -0.12570433, -335803.56, 56541.168, 0.0, 10.000358, 10.000621 
2.993112e+3, 2.6995146e+2, -45356.195, -80039.96, 108484.39, 0.53238785, -0.3262292, 47163.67, 341583.1, 0.0, 10.001971, 10.001526 
2.9927188e+3, 2.7994236e+2, 102389.695, -299954.5, 120042.46, 0.6208331, -0.5434632, 135483.27, 331984.4, 0.0, 10.003711, 9.99856 
2.9923195e+3, 2.899344e+2, -301184.6, -745349.3, 68166.35, 0.033550706, -0.22198686, -290958.5, -192364.77, 0.0, 10.0016775, 9.995818 
2.9919234e+3, 2.9992092e+2, 117273.64, 462515.66, -110.625595, -0.2006256, -0.52776265, 462515.7, 463241.0, 0.0, 9.999601, 10.0044985 
3.008209e+3, 1.4044893e+2, -1207644.8, -1053891.8, -272039.44, -0.013975967, -0.28320137, -848075.1, 715496.4, 0.0, 10.00153, 10.003823 
3.0078182e+3, 1.5043738e+2, -1413993.3, -1794279.4, 152020.16, 0.0878322, -0.5866349, -1360693.4, 104974.07, 0.0, 10.002581, 9.997498 
3.0074298e+3, 1.6042703e+2, -1354747.8, -1639464.4, -105437.94, 0.21392514, -0.6479543, -1319953.5, 47812.684, 0.0, 10.001853, 9.9982815 
3.0070275e+3, 1.704233e+2, -1085553.1, -1276492.6, -188072.66, -0.22820924, -0.2293136, -970106.3, 299703.97, 0.0, 10.002305, 9.999826 
3.006629e+3, 1.8041867e+2, -1018609.6, -1341144.5, 83196.13, -0.46425328, 0.09974682, -998414.1, 173448.05, 0.0, 10.002693, 9.99857 
3.0062363e+3, 1.904098e+2, -1088919.6, -1382253.0, 58262.145, -0.3127461, 0.13784017, -1077771.3, -3823.602, 0.0, 10.001822, 9.997982 
3.0058432e+3, 2.0039655e+2, -969818.06, -1132079.5, 2600.3877, -0.106769875, -0.22777952, -969776.4, 6296.64, 0.0, 10.001299, 9.99931 
3.005448e+3, 2.1038984e+2, -968805.44, -661786.1, 133471.61, 0.08445219, -0.34019238, -611875.3, 266252.16, 0.0, 9.999002, 10.002866 
3.0050528e+3, 2.2038358e+2, -1290410.8, -1082254.6, 485170.34, 0.11847296, -0.36258617, -690124.56, 90055.02, 0.0, 9.997359, 10.000193 
3.0046642e+3, 2.303731e+2, -937618.5, -909959.9, 592394.1, 0.008231858, -0.60345536, -331233.66, 351045.34, 0.0, 9.999375, 9.999677 
3.0042782e+3, 2.4036467e+2, -781330.56, -816712.44, 313097.3, 0.005253433, -0.68064356, -485424.8, 98935.875, 0.0, 9.999885, 9.999438 
3.0038863e+3, 2.503579e+2, -474791.5, -640289.1, 60796.65, -0.016746694, -0.5403428, -454858.28, 31579.955, 0.0, 10.001556, 9.999074 
3.003492e+3, 2.6035076e+2, -171137.7, -355157.53, -37100.09, -0.1307985, -0.45833075, -163939.55, 224576.98, 0.0, 10.002452, 10.000046 
3.0030987e+3, 2.7034062e+2, 118792.63, 49431.85, -13967.608, -0.2510784, -0.87531686, 121499.72, 412104.72, 0.0, 10.002968, 10.001834 
3.0027056e+3, 2.8033277e+2, 40340.184, -339089.56, -56051.44, -0.31028134, -1.0137163, 48447.195, 241120.55, 0.0, 10.00337, 9.998404 
3.0023175e+3, 2.903329e+2, -111658.93, -620632.06, 53612.836, 0.44024175, 0.07685964, -106072.914, -11381.337, 0.0, 10.002961, 9.995943 
3.001919e+3, 3.003166e+2, 487114.56, 577362.1, 248216.53, 0.07717133, -0.5488909, 784523.1, 784523.1, 0.0, 10.002629, 10.003697 
