coord_x,coord_y,stress_xx,stress_yy,tau_xy,velocity_x,velocity_y,stress_1,eps,damage,lx,ly
4.9996066e+0, 1.2587029e+2, -1891142.9, -1853183.0, -18382.152, 0.010557465, 0.04964142, -1845740.5, -139263.8, 0.0027102246, 9.998854, 9.999597 
4.99924e+0, 1.3587244e+2, -1550394.6, -1451614.1, -59394.008, -0.06878994, 0.042633798, -1423757.8, 184697.34, 0.0016001622, 9.999779, 10.0012245 
4.9995184e+0, 1.4587203e+2, -1547550.1, -1622030.6, -66527.234, -0.057663046, -0.00758573, -1508549.3, 1911.6322, 0.00071385584, 10.000105, 9.999209 
5.000173e+0, 1.5587497e+2, -1455140.3, -1524446.8, -66014.85, 0.010591335, 0.29837486, -1415236.1, -2800.5981, 0.00020880907, 10.00006, 9.99923 
5.0000966e+0, 1.6587475e+2, -1390882.6, -1447575.8, -46343.17, 0.013808698, 0.35947445, -1364904.1, -50466.664, 0.00003056022, 9.999852, 9.999188 
4.9994892e+0, 1.758712e+2, -1345385.3, -1377366.6, -42438.375, -0.029636234, 0.032932818, -1316024.9, -99555.48, 0.0000010193884, 9.999502, 9.999166 
4.9996552e+0, 1.8587022e+2, -1173171.0, -1151859.3, -30663.988, -0.019726975, -0.022704892, -1130052.4, -11576.846, 0.0, 9.99963, 9.999975 
5.000355e+0, 1.9587095e+2, -1022727.8, -1054510.0, -74529.38, 0.027248558, 0.0039760484, -962414.2, 58049.76, 0.0, 10.000099, 9.999749 
5.0004965e+0, 2.0587052e+2, -967730.9, -1148189.0, -50734.965, 0.01886119, 0.075389825, -954445.06, -31977.066, 0.0, 10.000547, 9.998211 
5.00019e+0, 2.1586885e+2, -814357.5, -1032834.1, -15870.296, -0.032646462, 0.03289832, -813210.7, 11276.613, 0.0, 10.000964, 9.998132 
5.000327e+0, 2.2586714e+2, -716618.25, -950306.8, 20429.105, -0.021982176, 0.062163215, -714845.75, 11660.456, 0.0, 10.00103, 9.997993 
5.0008076e+0, 2.3586516e+2, -645846.7, -864013.2, 33428.05, 0.035485685, 0.0065015526, -640839.7, -12312.424, 0.0, 10.000836, 9.998008 
5.000671e+0, 2.4586402e+2, -513832.16, -699233.3, 64058.625, 0.021662667, 0.070613086, -493852.2, 36687.504, 0.0, 10.00085, 9.998461 
5.000101e+0, 2.5586307e+2, -395716.94, -596902.94, 62077.58, -0.043718204, 0.07976877, -378104.28, 54445.473, 0.000000000017365094, 10.001008, 9.998417 
5.0001895e+0, 2.6586142e+2, -204409.88, -365662.25, 62790.242, -0.047735725, 0.038162827, -182844.11, 151720.06, 0.000000288742, 10.00127, 9.9992 
5.0007457e+0, 2.7585924e+2, -70518.43, -269518.66, 19534.88, -0.008915946, -0.15461825, -68618.914, 167963.23, 0.0000032414011, 10.0015955, 9.99903 
5.0010264e+0, 2.858591e+2, -88798.77, -441862.25, 28492.854, 0.012989758, 0.034322213, -86514.13, 52074.004, 0.00001724438, 10.001724, 9.997105 
5.001038e+0, 2.9585925e+2, 32458.03, -304624.25, 56803.773, 0.0119065875, 0.27633107, 41772.97, 82370.34, 0.00007523581, 10.001744, 9.99737 
5.00118e+0, 3.0585638e+2, 221489.73, -58984.734, 51181.125, 0.0068686125, 0.18095511, 230537.42, 230537.42, 0.0002887192, 10.002147, 9.998528 
5.0014806e+0, 3.158531e+2, 502662.7, 406885.03, -23634.613, 0.010210742, -0.05148082, 508177.34, 508177.34, 0.00075781514, 10.002579, 10.001541 
1.4998794e+1, 1.2586923e+2, -1958111.8, -1912176.9, -16204.307, 0.032272816, 0.05289918, -1907036.0, -200547.6, 0.0026043395, 9.998562, 9.999352 
1.4997791e+1, 1.3587193e+2, -1592723.3, -1496870.3, -16821.814, -0.19627482, 0.1893267, -1494003.8, 114461.125, 0.0015429672, 9.999636, 10.001003 
1.4998543e+1, 1.4587031e+2, -1543208.0, -1560301.8, -81239.29, -0.17238498, 0.0003663568, -1470067.3, 40413.57, 0.0006869522, 9.999901, 9.999744 
1.5000498e+1, 1.5587014e+2, -1448622.4, -1467115.0, -55730.605, 0.03163297, -0.022055667, -1401376.3, 11104.34, 0.0001968844, 9.999897, 9.999712 
1.5000321e+1, 1.6587046e+2, -1383773.8, -1388572.6, -70631.55, 0.04555408, 0.04354334, -1315500.9, -1024.4048, 0.000026649353, 9.999682, 9.999687 
1.4998513e+1, 1.7587034e+2, -1336034.1, -1322167.8, -41442.63, -0.08465199, 0.041123204, -1287082.4, -70605.39, 0.00000066228677, 9.999362, 9.999626 
1.4998934e+1, 1.8586954e+2, -1257647.8, -1273262.5, -24060.87, -0.059652887, 0.019532634, -1240159.3, -121675.19, 0.0, 9.999429, 9.999246 
1.5001072e+1, 1.9586822e+2, -1090292.3, -1148841.6, -44334.68, 0.08397895, -0.057396967, -1066439.1, -45943.234, 0.0, 9.999924, 9.999197 
1.5001465e+1, 2.0586795e+2, -903175.94, -961554.75, -43832.35, 0.056336425, -0.022101313, -879703.25, 42794.215, 0.0, 10.000349, 9.999597 
1.5000552e+1, 2.1586819e+2, -748953.5, -847687.06, 11975.726, -0.09883289, 0.01825263, -747521.7, 76972.14, 0.0, 10.000776, 9.999502 
1.5000978e+1, 2.2586755e+2, -690249.3, -847211.0, 565.85004, -0.06336059, 0.046068333, -690247.25, 36252.332, 0.0, 10.000848, 9.998799 
1.5002398e+1, 2.3586626e+2, -623565.2, -767701.2, 39656.535, 0.10590235, 0.012420933, -613374.8, 15137.737, 0.0, 10.000648, 9.998767 
1.5002027e+1, 2.4586487e+2, -517234.8, -666804.7, 58234.766, 0.06717716, 0.00075013406, -497235.4, 33290.19, 0.0, 10.0007, 9.998766 
1.5000303e+1, 2.5586322e+2, -403820.2, -562894.0, 78896.266, -0.12941112, -0.06684202, -371327.0, 61213.62, 0.0, 10.000811, 9.998755 
1.5000567e+1, 2.6586264e+2, -278821.7, -478959.28, 65200.406, -0.14228792, 0.0156222265, -259454.89, 75093.16, 0.00000013049092, 10.00112, 9.998504 
1.5002258e+1, 2.7586278e+2, -144969.9, -375594.28, 40223.734, -0.023950068, 0.15993893, -138155.73, 98394.64, 0.0000023602508, 10.001406, 9.998406 
1.5003039e+1, 2.8586176e+2, -34998.133, -290253.28, 19784.67, 0.036228936, 0.22640775, -33473.74, 105088.26, 0.000014211254, 10.00158, 9.998226 
1.5003103e+1, 2.9585904e+2, 64458.707, -183919.3, 76983.19, 0.03363303, 0.10180766, 86383.77, 126971.695, 0.00006483318, 10.001526, 9.998318 
1.500359e+1, 3.0585584e+2, 92927.69, -266543.56, 61347.348, 0.03134936, 0.004560098, 103108.87, 103108.87, 0.00025577057, 10.001959, 9.997209 
1.5004408e+1, 3.158518e+2, 293736.44, 77499.25, 26300.086, 0.032196898, -0.11884376, 296889.25, 296889.25, 0.0006795775, 10.002194, 9.9994755 
2.4996988e+1, 1.2586729e+2, -2102061.5, -1929774.3, -10759.804, 0.06811756, 0.07025202, -1929104.9, -222595.02, 0.0024837567, 9.997387, 9.999768 
2.4997526e+1, 1.3587068e+2, -1861174.1, -1605266.4, -5599.695, -0.079854526, 0.24367945, -1605143.9, 3336.0808, 0.0014731403, 9.997743, 10.001154 
2.4998489e+1, 1.4586942e+2, -1739601.4, -1596071.0, -16565.174, -0.079312, 0.055703428, -1594184.0, -83693.27, 0.00065158884, 9.99832, 10.000244 
2.4999887e+1, 1.5586838e+2, -1526545.5, -1458974.9, -6537.108, 0.024973279, -0.11428768, -1458348.3, -45852.324, 0.0001815959, 9.999171, 10.000108 
2.4999723e+1, 1.6586886e+2, -1403442.1, -1413089.5, -22653.844, 0.027580967, -0.038382467, -1385104.1, -70613.664, 0.000022322774, 9.999633, 9.999525 
2.499848e+1, 1.7586981e+2, -1279908.5, -1307234.6, -55574.555, -0.040136635, 0.06949742, -1236342.1, -19858.451, 0.00000035252413, 9.999828, 9.999485 
2.4999167e+1, 1.8586925e+2, -1176720.6, -1249953.9, 15574.233, -0.0026571685, 0.08621035, -1173546.1, -55056.52, 0.0, 10.00004, 9.9991045 
2.5001347e+1, 1.9586766e+2, -1063939.5, -1144099.9, 30877.873, 0.115494, -0.01640215, -1053424.6, -32920.563, 0.0, 10.000142, 9.999108 
2.5001884e+1, 2.0586725e+2, -905189.56, -944560.9, 34587.41, 0.07484908, 0.00023169303, -885078.06, 37428.324, 0.0, 10.00025, 9.999756 
2.500119e+1, 2.1586742e+2, -807051.7, -860122.3, -12101.577, -0.08251091, 0.008717993, -804422.44, 20080.139, 0.0, 10.00031, 9.999635 
2.5001818e+1, 2.258671e+2, -708346.7, -837120.2, -57444.84, -0.048285287, 0.054120984, -686445.75, 40059.36, 0.0, 10.000644, 9.998951 
2.5003424e+1, 2.3586632e+2, -544336.7, -720261.4, -75557.69, 0.12459698, 0.049067203, -516340.66, 112172.74, 0.0, 10.001142, 9.998847 
2.5003096e+1, 2.4586494e+2, -429325.16, -618808.1, -57889.742, 0.080072716, 0.034376893, -413038.84, 117487.09, 0.0, 10.001296, 9.998792 
2.5001326e+1, 2.5586292e+2, -347339.56, -537030.06, -72740.11, -0.12084656, -0.081043415, -322657.66, 109885.91, 0.0, 10.001213, 9.998723 
2.500176e+1, 2.6586232e+2, -285153.1, -522664.75, -42238.62, -0.13512035, 0.020730102, -277865.1, 56686.785, 0.00000003137998, 10.001263, 9.998124 
2.5003797e+1, 2.758627e+2, -165501.86, -420080.13, -51415.49, -0.0045687403, 0.21864536, -155509.98, 81043.6, 0.0000016165861, 10.001427, 9.998079 
2.5004992e+1, 2.85861e+2, 43307.313, -234083.95, -54924.383, 0.05754262, 0.22577085, 53786.633, 192356.16, 0.000011342512, 10.002049, 9.998376 
2.5005662e+1, 2.9585713e+2, 272087.94, -76301.68, -82906.88, 0.07506949, -0.04008744, 290811.2, 331413.38, 0.000053962976, 10.002951, 9.998355 
2.5006524e+1, 3.0585486e+2, 238343.55, -266731.66, -69703.11, 0.07644252, -0.0049133105, 247786.4, 247786.4, 0.00022089553, 10.003268, 9.996581 
2.50077e+1, 3.158508e+2, 323821.88, -51255.33, -87593.2, 0.11962666, -0.08881639, 343269.5, 343269.5, 0.000598242, 10.003043, 9.99817 
3.4993893e+1, 1.2586442e+2, -2039659.6, -1764043.4, -31921.092, -0.04126073, 0.046551995, -1760394.8, -53852.906, 0.0023583595, 9.997241, 10.000976 
3.4998047e+1, 1.3586873e+2, -1804158.0, -1468048.6, 16394.93, 0.16729511, 0.23075186, -1467250.8, 141248.88, 0.0013953737, 9.99768, 10.002121 
3.499903e+1, 1.4586927e+2, -1704213.9, -1495969.3, 1765.9054, 0.10648122, 0.13901135, -1495954.3, 14536.823, 0.0006105934, 9.998209, 10.000983 
3.4997997e+1, 1.5586971e+2, -1490453.9, -1360362.6, 36908.7, -0.11366957, 0.04737679, -1350620.6, 61860.344, 0.00016453842, 9.999087, 10.000819 
3.49981e+1, 1.6586998e+2, -1455427.5, -1503232.3, -30027.953, -0.12937707, 0.095926955, -1440950.3, -126470.62, 0.000017966355, 9.999544, 9.9989605 
3.4999093e+1, 1.7586939e+2, -1321114.5, -1384026.5, -35689.816, 0.00813053, 0.11613856, -1304997.0, -88505.414, 0.00000014192928, 9.9997835, 9.998987 
3.500005e+1, 1.8586913e+2, -1142198.0, -1147179.0, 8939.793, 0.053697232, 0.14715624, -1135408.3, -16914.13, 0.0, 9.999914, 9.9998665 
3.5000893e+1, 1.9586912e+2, -1033191.1, -1056173.8, 46841.066, 0.027139906, 0.13252883, -996452.4, 24037.377, 0.0, 10.000041, 9.999761 
3.5001472e+1, 2.0586829e+2, -982076.8, -1069330.3, 22375.508, -0.015754053, 0.11874674, -976673.4, -54177.23, 0.0, 10.000109, 9.998967 
3.500184e+1, 2.1586655e+2, -878574.4, -974790.56, 2762.0015, -0.07421462, 0.022409046, -878495.1, -53981.84, 0.0, 10.000171, 9.998914 
3.5002574e+1, 2.258657e+2, -748859.44, -882246.4, -46554.44, -0.062842645, 0.060788345, -734218.2, -7694.7676, 0.0, 10.000484, 9.998716 
3.500358e+1, 2.3586543e+2, -580184.6, -756235.25, -46549.83, -0.0013726548, 0.13541146, -568634.1, 59895.016, 0.0, 10.000985, 9.998672 
3.500362e+1, 2.4586427e+2, -453981.56, -642117.25, -71790.45, -0.021171547, 0.15583555, -429716.72, 100823.75, 0.0, 10.001175, 9.998693 
3.5002917e+1, 2.5586227e+2, -374392.66, -560170.94, -62227.51, -0.109271206, 0.056205273, -355475.47, 77082.6, 0.0, 10.001076, 9.9986315 
3.5003525e+1, 2.6586053e+2, -282804.06, -502424.47, -45370.254, -0.11030352, 0.043018755, -273800.38, 60774.484, 0.0000000045955626, 10.001196, 9.998295 
3.5004997e+1, 2.7585906e+2, -172315.19, -407684.94, -29166.445, -0.056719393, 0.041471638, -168754.81, 67835.8, 0.0000011861115, 10.00131, 9.99822 
3.500663e+1, 2.8585687e+2, -6603.366, -320909.47, -32127.002, -0.011185772, 0.02404537, -3353.0955, 135257.44, 0.000009324045, 10.001984, 9.99781 
3.5008377e+1, 2.958534e+2, 211369.06, -176555.11, -41361.89, 0.018684981, -0.13721843, 215730.19, 256371.06, 0.00004426637, 10.002845, 9.997719 
3.50096e+1, 3.0585325e+2, 259203.95, -215859.6, -86982.65, 0.03249921, 0.12088533, 274629.34, 274629.34, 0.00018827697, 10.003223, 9.996948 
3.5010716e+1, 3.1585026e+2, 284332.0, -117284.06, -71687.04, 0.05841353, 0.103414156, 296744.28, 296744.28, 0.00052441156, 10.002961, 9.997754 
4.4993356e+1, 1.258629e+2, -1671286.6, -1568255.6, 69189.96, 0.08253405, 0.07821319, -1533509.4, 173048.61, 0.0022337737, 9.999716, 10.001113 
4.499626e+1, 1.3586622e+2, -1702628.9, -1454873.4, -42841.094, 0.19650868, 0.19653524, -1447674.6, 160851.02, 0.0013153872, 9.9985285, 10.0018015 
4.4997287e+1, 1.458673e+2, -1658034.3, -1430681.6, -40396.91, 0.119475834, 0.15622237, -1423717.0, 86794.93, 0.00056916923, 9.99834, 10.001379 
4.4997284e+1, 1.5586852e+2, -1483206.0, -1319320.4, -66757.6, -0.07399684, 0.10808979, -1295569.4, 116925.695, 0.00014812649, 9.998969, 10.001173 
4.4997987e+1, 1.6586903e+2, -1437992.9, -1464375.0, -94343.16, -0.08284701, 0.15123335, -1355923.0, -41431.94, 0.000013959289, 9.9995365, 9.99923 
4.4999248e+1, 1.7586839e+2, -1257825.8, -1324931.8, -60682.133, 0.03978713, 0.14000542, -1222038.1, -5535.0303, 0.000000037538413, 10.00009, 9.999249 
4.5000362e+1, 1.8586823e+2, -1063088.8, -1096086.4, -1384.6779, 0.0792031, 0.16623306, -1063030.8, 55473.445, 0.0, 10.000405, 9.99999 
4.500127e+1, 1.9586857e+2, -967992.8, -1014077.44, -32874.29, 0.050332338, 0.17168781, -950889.56, 69607.14, 0.0, 10.000447, 9.99986 
4.500197e+1, 2.0586757e+2, -970415.5, -1074925.1, -32983.348, 0.026658125, 0.14515594, -960876.56, -38372.156, 0.0, 10.00023, 9.998873 
4.5002532e+1, 2.1586543e+2, -945222.25, -1015811.94, -21275.07, 0.009536064, 0.016834473, -939306.0, -114780.65, 0.0, 9.999745, 9.998839 
4.5003232e+1, 2.2586457e+2, -818505.7, -899784.3, 21624.563, -0.0075319917, 0.050081305, -813110.5, -86574.875, 0.0, 9.99993, 9.998873 
4.5004046e+1, 2.3586455e+2, -631718.44, -767498.7, 27994.602, -0.022331446, 0.13519292, -626173.1, 2366.2488, 0.0, 10.000576, 9.998801 
4.5004404e+1, 2.4586369e+2, -502695.72, -675346.56, 18306.305, -0.03605121, 0.18547179, -500776.03, 29772.594, 0.0, 10.000887, 9.998597 
4.500441e+1, 2.5586194e+2, -393317.03, -584081.2, 7583.2983, -0.056136936, 0.12122872, -393016.06, 39549.105, 0.0, 10.000999, 9.998504 
4.5005333e+1, 2.6586e+2, -271219.44, -495210.66, 48392.016, -0.045194115, 0.09263316, -261211.75, 73371.77, 0.000000013083459, 10.00128, 9.9983 
4.500698e+1, 2.7585807e+2, -111311.47, -384210.44, 31731.281, -0.0025130229, 0.044945605, -107670.5, 128931.7, 0.0000010541644, 10.001761, 9.998169 
4.5008862e+1, 2.8585562e+2, -9077.603, -374067.75, 62634.094, 0.013024718, 0.03170717, 1371.5682, 139996.56, 0.000008050424, 10.002186, 9.99736 
4.5010823e+1, 2.958521e+2, 140582.5, -264843.06, 36714.625, 0.0018278761, -0.08573084, 143880.48, 184538.36, 0.00003666787, 10.0025835, 9.9972515 
4.5012543e+1, 3.0585203e+2, 198205.52, -250307.72, -12315.856, 0.034927398, 0.20588681, 198543.45, 198543.45, 0.0001603948, 10.00282, 9.9969 
4.501427e+1, 3.1584907e+2, 275925.56, -109541.73, -71366.695, 0.13788381, 0.1856889, 288714.34, 288714.34, 0.00046251278, 10.002841, 9.997864 
5.499407e+1, 1.2586308e+2, -1751318.3, -1747835.9, -8185.7837, 0.101673156, 0.1740991, -1741208.1, -34653.13, 0.0021078985, 9.999756, 9.999864 
5.499176e+1, 1.3586324e+2, -1809204.1, -1690045.3, -68600.53, -0.15029615, 0.14991659, -1658763.6, -50206.563, 0.0012334009, 9.998584, 10.000158 
5.499294e+1, 1.4586367e+2, -1656979.6, -1433750.0, -34198.945, -0.19611128, 0.11667398, -1428628.3, 81924.33, 0.00052778376, 9.998352, 10.001355 
5.4997325e+1, 1.5586485e+2, -1477321.8, -1313603.1, -30699.262, -0.004452859, 0.07188699, -1308035.9, 104501.375, 0.00013278752, 9.998988, 10.001207 
5.499879e+1, 1.6586609e+2, -1372919.1, -1314301.4, -86241.28, 0.009340831, 0.12905845, -1252524.8, 61999.605, 0.0000106646075, 9.999477, 10.000282 
5.4998446e+1, 1.7586675e+2, -1194925.5, -1186297.3, -30664.7, -0.083768494, 0.13875452, -1159644.6, 56874.316, 0.000000007551507, 10.000059, 10.000211 
5.4999715e+1, 1.8586664e+2, -1108585.9, -1172593.0, -13060.298, -0.055752505, 0.14629655, -1106023.5, 12496.234, 0.0, 10.000327, 9.999504 
5.5002046e+1, 1.9586591e+2, -1003780.0, -1075651.3, -22401.215, 0.051681273, 0.10108189, -997369.6, 23155.504, 0.0, 10.000394, 9.999462 
5.5002946e+1, 2.0586513e+2, -944800.2, -992796.75, -60593.305, 0.07390465, 0.07623895, -903625.9, 18904.92, 0.0, 10.000112, 9.999491 
5.500282e+1, 2.1586406e+2, -917613.2, -933605.3, -24649.52, 0.03418633, -0.005543308, -899695.2, -75156.54, 0.0, 9.999642, 9.999451 
5.500338e+1, 2.2586371e+2, -793365.0, -824611.4, 35564.176, -0.014006596, 0.01833175, -770143.7, -43601.84, 0.0, 9.999832, 9.999435 
5.500448e+1, 2.3586376e+2, -612010.9, -702218.7, 62269.69, -0.06402126, 0.055786163, -580226.06, 48316.86, 0.0, 10.000472, 9.999298 
5.500502e+1, 2.4586318e+2, -521476.16, -698894.0, 14151.671, -0.09360451, 0.11859638, -520354.44, 10196.018, 0.0, 10.000823, 9.998466 
5.5005276e+1, 2.5586194e+2, -421169.8, -607377.2, 23026.02, -0.1023003, 0.1157407, -418364.72, 14200.355, 0.0, 10.000861, 9.998404 
5.5006814e+1, 2.658607e+2, -290263.72, -528496.94, 54754.832, -0.05482661, 0.17559722, -278281.7, 56296.1, 0.000000016276152, 10.001246, 9.998092 
5.500942e+1, 2.7585953e+2, -137098.28, -423251.22, 60239.027, 0.034431018, 0.22328177, -124934.24, 111655.28, 0.00000094951764, 10.001689, 9.99794 
5.5011266e+1, 2.8585708e+2, -35343.902, -419754.03, 66247.85, 0.005910964, 0.2349785, -24247.307, 114366.91, 0.0000068870954, 10.002153, 9.997059 
5.501256e+1, 2.9585314e+2, 106562.914, -314954.56, 64297.78, -0.11792445, 0.1087698, 116152.66, 156806.27, 0.000030486934, 10.00249, 9.996953 
5.501493e+1, 3.0585116e+2, 165542.55, -299247.0, -14821.828, -0.03697163, 0.24164553, 166014.73, 166014.73, 0.00013676572, 10.002753, 9.996595 
5.501761e+1, 3.158471e+2, 313128.7, -7432.3594, -40145.258, 0.12599742, 0.1423421, 318079.78, 318079.78, 0.00040932593, 10.00275, 9.998602 
6.499308e+1, 1.2586255e+2, -2048742.3, -1886632.6, -8952.824, 0.15204588, 0.22089005, -1886139.6, -179579.0, 0.0019834668, 9.997648, 9.999953 
6.498999e+1, 1.3586141e+2, -1837852.3, -1747834.8, -10628.163, -0.16979824, 0.105928555, -1746596.9, -138023.03, 0.001149572, 9.998546, 9.999799 
6.499143e+1, 1.458617e+2, -1639496.5, -1468344.8, 102479.016, -0.1860945, 0.09909576, -1420409.6, 90162.01, 0.00048384682, 9.998666, 10.000961 
6.4996684e+1, 1.5586297e+2, -1568667.0, -1387117.9, 50095.06, 0.06769216, 0.098872446, -1374212.5, 38346.313, 0.00011744106, 9.998507, 10.000919 
6.499868e+1, 1.658643e+2, -1451939.1, -1295704.3, -5706.5923, 0.09980689, 0.15107381, -1295496.1, 19047.746, 0.000008467286, 9.998694, 10.00079 
6.499855e+1, 1.7586511e+2, -1318998.8, -1196473.3, -17206.406, -0.018188093, 0.12660562, -1194102.8, 22430.254, 0.000000004638606, 9.999005, 10.000647 
6.499994e+1, 1.8586497e+2, -1244616.8, -1254068.0, 11808.858, -0.013878383, 0.12250306, -1236623.1, -118089.07, 0.0, 9.999463, 9.999355 
6.5002334e+1, 1.9586414e+2, -1071803.5, -1122449.4, 3116.5908, 0.070180565, 0.076829314, -1071612.4, -51068.51, 0.0, 9.999983, 9.99934 
6.500339e+1, 2.0586365e+2, -867329.1, -939837.0, -33863.387, 0.0925674, 0.08261539, -853973.9, 68573.77, 0.0, 10.0005665, 9.999642 
6.5003455e+1, 2.1586327e+2, -701044.94, -812985.44, -52607.53, 0.07055811, 0.05423622, -680202.25, 144346.31, 0.0, 10.001058, 9.999599 
6.5004057e+1, 2.2586292e+2, -657390.94, -758492.56, -16445.74, 0.03201927, 0.07248783, -654783.06, 71768.71, 0.0, 10.00076, 9.999443 
6.5005034e+1, 2.3586254e+2, -692167.6, -735610.56, -51634.094, -0.018217372, 0.06338415, -657872.1, -29314.793, 0.0, 9.999891, 9.99935 
6.5005773e+1, 2.4586207e+2, -600026.06, -706153.06, -53297.598, -0.057786882, 0.118868984, -577880.75, -47317.27, 0.0, 10.000138, 9.998767 
6.500639e+1, 2.558614e+2, -351932.2, -544769.0, -36020.484, -0.08494615, 0.148354, -345423.5, 87148.07, 0.0, 10.001204, 9.998689 
6.500833e+1, 2.658601e+2, -233483.28, -521526.38, 23425.533, -0.04412434, 0.19704255, -231590.6, 102994.266, 0.00000000394634, 10.00172, 9.997916 
6.501133e+1, 2.7585834e+2, -111435.85, -419236.6, 10734.943, 0.054695904, 0.20392103, -111061.914, 125540.2, 0.0000007712445, 10.001919, 9.997848 
6.5013605e+1, 2.858564e+2, -41110.836, -379987.28, 63510.46, 0.04494699, 0.24896729, -29599.092, 109023.195, 0.000006042053, 10.001937, 9.997429 
6.501541e+1, 2.9585388e+2, 20802.21, -307903.22, 86684.445, -0.03086515, 0.22724025, 42261.25, 82909.625, 0.000026514312, 10.001716, 9.997359 
6.501777e+1, 3.0585048e+2, 73002.52, -335850.84, 83391.74, 0.017215734, 0.18750168, 89357.3, 89357.3, 0.000119780976, 10.00207, 9.996679 
6.501988e+1, 3.1584606e+2, 385355.34, 142852.11, 42948.563, 0.09522044, 0.05240899, 392737.06, 392737.06, 0.00036687037, 10.002727, 9.999666 
7.498964e+1, 1.2586102e+2, -1922994.3, -1633465.5, -14283.104, -0.031821314, 0.2146219, -1632762.5, 73815.555, 0.0018629195, 9.997688, 10.001667 
7.4990404e+1, 1.3586053e+2, -1763866.3, -1604432.5, 25360.752, -0.021843623, 0.049572084, -1600495.6, 8082.0703, 0.0010666472, 9.998589, 10.000764 
7.4992067e+1, 1.4586143e+2, -1696542.9, -1578805.5, 82478.875, -0.029751828, 0.10105503, -1536341.6, -25772.314, 0.0004391749, 9.998635, 10.000217 
7.4994963e+1, 1.5586281e+2, -1615446.8, -1491703.9, 59968.85, 0.008442071, 0.18536234, -1467410.8, -54850.605, 0.00010226521, 9.998531, 10.000195 
7.4997246e+1, 1.6586365e+2, -1462695.5, -1307943.9, -6661.636, 0.05513488, 0.22367975, -1307657.6, 6892.216, 0.000007138289, 9.998652, 10.000724 
7.499918e+1, 1.7586344e+2, -1326911.9, -1209014.4, 4598.9727, 0.11101069, 0.10375401, -1208835.3, 7709.878, 0.00000003688298, 9.998982, 10.000573 
7.500063e+1, 1.8586324e+2, -1244606.1, -1238579.9, 19840.984, 0.079649694, 0.088971846, -1221524.6, -102977.22, 0.0, 9.999394, 9.999498 
7.5001746e+1, 1.9586305e+2, -1068890.0, -1105763.6, 33278.203, -0.017758895, 0.0923611, -1049282.8, -28728.512, 0.0, 9.999939, 9.999476 
7.500296e+1, 2.0586309e+2, -901669.6, -991330.4, -24543.785, -0.034093834, 0.15997784, -895390.75, 27164.75, 0.0, 10.000483, 9.999329 
7.5004077e+1, 2.1586302e+2, -738146.94, -868287.25, -27532.818, -0.0021023, 0.19290768, -732561.7, 91993.6, 0.0, 10.000959, 9.999269 
7.500485e+1, 2.2586223e+2, -713002.9, -849067.5, -59157.926, 0.0094646895, 0.2108988, -690879.44, 35685.645, 0.0, 10.000653, 9.998872 
7.50054e+1, 2.3586078e+2, -743420.25, -814674.9, -65828.64, 0.002796466, 0.15183425, -704196.3, -75613.055, 0.0, 9.999769, 9.998868 
7.5006247e+1, 2.4586034e+2, -558423.56, -605459.0, -23602.594, -0.04957114, 0.19093244, -548622.1, -18034.576, 0.0, 10.000077, 9.999483 
7.5007385e+1, 2.5586036e+2, -321742.5, -462118.8, 12105.799, -0.13295242, 0.2192791, -320706.16, 111878.0, 0.0, 10.001109, 9.999303 
7.5009435e+1, 2.6585826e+2, -252916.23, -543596.75, 21781.355, -0.13130094, 0.16549166, -251293.17, 83310.086, 0.00000000015133415, 10.001651, 9.997795 
7.5012267e+1, 2.7585453e+2, -128028.96, -430370.25, 32857.727, -0.07578392, -0.013723833, -124499.266, 112140.02, 0.00000065427645, 10.001821, 9.997818 
7.5015503e+1, 2.8585356e+2, 30594.176, -225611.31, 45600.305, 0.010110303, 0.07555423, 38468.27, 177117.02, 0.0000058927376, 10.001909, 9.998505 
7.5018984e+1, 2.9585427e+2, 84378.95, -161221.84, 93001.67, 0.11852922, 0.26560554, 115621.57, 156264.08, 0.000025865007, 10.001635, 9.998415 
7.5020635e+1, 3.0584973e+2, 91480.36, -280047.97, 105882.49, 0.067499116, 0.038972232, 119537.21, 119537.21, 0.000112007656, 10.002009, 9.997082 
7.50203e+1, 3.158456e+2, 467576.03, 347019.88, 104767.2, -0.19425325, -0.111265145, 528168.2, 528168.2, 0.00034011903, 10.002591, 10.001126 
8.498835e+1, 1.2585926e+2, -1786500.3, -1524058.8, 10954.281, 0.045360114, 0.22437024, -1523602.4, 182994.98, 0.0017451695, 9.998463, 10.002031 
8.498982e+1, 1.3585871e+2, -1755541.3, -1603437.5, -96700.39, 0.07142437, 0.059552345, -1556465.6, 52130.664, 0.0009891815, 9.998692, 10.000702 
8.499145e+1, 1.4585961e+2, -1667467.3, -1588991.1, -38615.047, 0.042205833, 0.12402834, -1573176.9, -62589.137, 0.000399723, 9.998916, 10.000025 
8.4994036e+1, 1.5586108e+2, -1532415.4, -1471034.1, -43542.258, 0.037957225, 0.2378055, -1448453.4, -35875.035, 0.00008899464, 9.999175, 10.0000305 
8.4996337e+1, 1.6586147e+2, -1375842.5, -1251355.5, -58951.508, 0.08069809, 0.23154104, -1227869.5, 86701.7, 0.000006071428, 9.999182, 10.00086 
8.499854e+1, 1.7586043e+2, -1324987.8, -1191583.8, -52844.867, 0.16104926, 0.013921227, -1173187.4, 43384.75, 0.000000076650345, 9.998927, 10.00072 
8.500029e+1, 1.8586034e+2, -1294212.3, -1267920.1, -2218.5283, 0.13024606, 0.0074323164, -1267734.3, -149160.94, 0.0, 9.999075, 9.9994545 
8.500178e+1, 1.9586101e+2, -1144543.5, -1147906.0, -25940.105, 0.024024252, 0.10330978, -1120230.3, -99655.914, 0.0, 9.999438, 9.999431 
8.500311e+1, 2.058614e+2, -1000319.75, -1017028.3, -55804.805, -0.021719983, 0.198794, -952247.4, -29673.55, 0.0, 9.999722, 9.999514 
8.5004133e+1, 2.1586138e+2, -878901.75, -919312.9, -50264.523, -0.032779485, 0.21939442, -844933.6, -20359.121, 0.0, 9.999926, 9.999416 
8.500494e+1, 2.2586069e+2, -796289.4, -881604.8, -47647.438, -0.01084536, 0.23997445, -774994.3, -48410.848, 0.0, 10.000064, 9.998924 
8.5005647e+1, 2.3585948e+2, -687845.8, -780735.1, -27017.94, 0.039712366, 0.20127276, -680558.94, -51960.25, 0.0, 10.000134, 9.998915 
8.5006994e+1, 2.4585898e+2, -491583.97, -572848.4, 69131.75, 0.0007737567, 0.23352551, -452027.78, 78575.23, 0.0, 10.000533, 9.999481 
8.500885e+1, 2.5585887e+2, -305360.4, -448999.44, 26475.598, -0.093418725, 0.24554677, -300635.8, 131964.72, 0.0, 10.001212, 9.999332 
8.501112e+1, 2.6585662e+2, -273806.16, -537152.56, 18318.318, -0.10883633, 0.16835715, -272538.03, 62082.34, 0.0000000019213902, 10.001406, 9.99797 
8.501382e+1, 2.7585274e+2, -215899.94, -452731.1, 28798.246, -0.05843972, -0.044684302, -212448.42, 24209.371, 0.0000006294421, 10.001106, 9.998019 
8.5017306e+1, 2.858522e+2, -59520.137, -228957.83, 48147.617, 0.048298024, 0.054995295, -46794.246, 91869.27, 0.0000062489003, 10.001105, 9.998875 
8.502135e+1, 2.9585388e+2, 92621.63, -110296.31, 22630.0, 0.2100656, 0.30590323, 95114.766, 135762.75, 0.000027811611, 10.001493, 9.998831 
8.5023e+1, 3.0584913e+2, 47456.344, -297415.47, 27309.06, 0.1307104, 0.03853806, 49605.45, 49605.45, 0.00011221668, 10.001672, 9.997139 
8.502251e+1, 3.1584615e+2, 293143.03, 298680.47, -37636.848, -0.14979346, -0.007063676, 333650.28, 333650.28, 0.00032879677, 10.001232, 10.001446 
9.498844e+1, 1.2585752e+2, -1862793.1, -1675493.0, -17855.418, 0.14041637, 0.27101326, -1673806.0, 32810.16, 0.0016362383, 9.998437, 10.0009985 
9.498775e+1, 1.3585593e+2, -1828906.4, -1776162.1, -77847.62, -0.042680897, 0.13174854, -1720341.0, -111710.97, 0.0009229167, 9.998774, 9.999477 
9.498922e+1, 1.4585619e+2, -1637975.3, -1527279.8, -41604.89, -0.10960686, 0.16533287, -1513386.4, -2758.6714, 0.00036888671, 9.998916, 10.000446 
9.49935e+1, 1.558578e+2, -1505665.0, -1417131.8, -23545.215, 0.03226925, 0.25529525, -1411259.5, 1353.8989, 0.00007923838, 9.999179, 10.000399 
9.499566e+1, 1.6585787e+2, -1358833.5, -1203792.6, -79318.02, 0.065989, 0.18171471, -1170404.3, 144202.83, 0.0000051224774, 9.999127, 10.001214 
9.4996214e+1, 1.7585613e+2, -1303134.9, -1143922.3, -47782.02, 0.003835327, -0.14147441, -1130683.1, 85929.83, 0.00000007826353, 9.998917, 10.001051 
9.4998527e+1, 1.8585636e+2, -1323782.3, -1315434.4, 2652.891, 0.01978455, -0.117253035, -1314662.6, -196051.28, 0.0, 9.999011, 9.99916 
9.500207e+1, 1.9585805e+2, -1169202.6, -1184693.3, -225.34706, 0.079136506, 0.10663459, -1169199.4, -148595.38, 0.0, 9.999375, 9.9992075 
9.500348e+1, 2.0585868e+2, -974393.25, -941545.0, -58648.18, 0.016797023, 0.20405893, -897064.56, 25537.525, 0.0, 9.999622, 10.000082 
9.5003235e+1, 2.1585822e+2, -851967.1, -841795.25, -29800.283, -0.14324197, 0.12462475, -816650.0, 7957.002, 0.0, 9.999828, 9.999997 
9.500392e+1, 2.2585823e+2, -767307.6, -800251.0, -53880.543, -0.1470612, 0.1549347, -727437.2, -829.83954, 0.0, 9.999969, 9.999529 
9.500534e+1, 2.3585844e+2, -665076.6, -716852.94, -12338.351, -0.032769375, 0.19583587, -662286.75, -33680.996, 0.0, 10.000052, 9.999397 
9.50076e+1, 2.4585792e+2, -552081.56, -679265.25, 83687.96, -0.018017776, 0.2403785, -510565.84, 20044.953, 0.0, 10.000451, 9.998789 
9.5010424e+1, 2.5585672e+2, -356064.63, -542908.25, 63456.28, -0.087034896, 0.21078762, -336551.34, 96070.65, 0.0, 10.001151, 9.998721 
9.5013016e+1, 2.65855e+2, -250094.77, -470454.63, -2964.4092, -0.08515751, 0.18853529, -250054.89, 84583.28, 0.0000000017799018, 10.001342, 9.998452 
9.501556e+1, 2.758528e+2, -202637.78, -399124.66, 29517.768, -0.023311859, 0.09333824, -198299.19, 38360.355, 0.0000005677249, 10.000997, 9.998436 
9.5018655e+1, 2.858522e+2, -91404.62, -282093.97, 51031.844, 0.04485311, 0.1871799, -78606.53, 60060.367, 0.0000064583187, 10.001052, 9.998531 
9.50221e+1, 2.9585266e+2, 55793.38, -166796.56, 55518.555, 0.10194404, 0.34312528, 68872.37, 109537.61, 0.000029725905, 10.001403, 9.998486 
9.5024455e+1, 3.0584872e+2, 29069.633, -328842.5, 6501.722, 0.083189264, 0.18411708, 29187.701, 29187.701, 0.00011359456, 10.001641, 9.996933 
9.502566e+1, 3.158477e+2, 214281.92, 160779.73, -3656.5198, -0.019350449, 0.36253718, 214530.66, 214530.66, 0.0003216318, 10.001116, 10.000554 
1.0498637e+2, 1.2585457e+2, -1915627.5, -1688683.3, -17999.688, 0.12801309, 0.26347595, -1687264.5, 19382.613, 0.0015480418, 9.997987, 10.001142 
1.04987144e+2, 1.3585374e+2, -1793200.8, -1764426.4, -32239.266, 0.019214831, 0.20978539, -1743509.8, -134855.73, 0.00087241904, 9.999017, 9.9994545 
1.0498879e+2, 1.4585358e+2, -1583428.5, -1462570.1, 45064.56, -0.046248365, 0.18227045, -1447617.0, 63037.496, 0.0003471946, 9.999149, 10.000769 
1.0499268e+2, 1.5585442e+2, -1562588.0, -1426202.3, 29681.88, 0.06680095, 0.1723524, -1420022.6, -7377.4, 0.000073446034, 9.998717, 10.000562 
1.0499489e+2, 1.6585475e+2, -1387047.8, -1264129.5, -20458.496, 0.08349184, 0.14265148, -1260813.8, 53824.273, 0.000004420773, 9.999149, 10.000775 
1.0499592e+2, 1.7585412e+2, -1145337.9, -1112457.8, -77485.1, 0.025599014, -0.028313925, -1049687.9, 166950.6, 0.000000050630582, 10.000205, 10.000638 
1.04998134e+2, 1.8585442e+2, -1122613.6, -1177491.6, -27052.45, 0.024930762, 0.0025140643, -1111520.4, 7115.837, 0.0, 10.000221, 9.999518 
1.0500116e+2, 1.9585547e+2, -1152212.8, -1137289.5, -5985.273, 0.06136561, 0.12583749, -1135185.6, -114554.25, 0.0, 9.999329, 9.999551 
1.0500258e+2, 2.0585611e+2, -1053694.3, -945843.0, -20830.85, 0.006602169, 0.19531158, -941959.44, -19331.63, 0.0, 9.998939, 10.000379 
1.0500283e+2, 2.1585627e+2, -977887.0, -869117.1, -35168.074, -0.10881044, 0.14554407, -858736.94, -34109.625, 0.0, 9.998826, 10.00029 
1.0500399e+2, 2.2585642e+2, -789601.7, -796028.8, -39500.54, -0.11886773, 0.17009667, -753184.2, -26558.826, 0.0, 9.999745, 9.999676 
1.0500589e+2, 2.358565e+2, -461083.47, -606019.06, -58884.133, -0.043194186, 0.18571772, -440176.1, 188447.28, 0.0, 10.001405, 9.99951 
1.0500853e+2, 2.4585569e+2, -453591.2, -673791.56, 15562.291, -0.0066629592, 0.21772534, -452496.78, 78134.85, 0.0, 10.00131, 9.998412 
1.05011806e+2, 2.558541e+2, -559380.8, -673356.94, 824.7746, 0.003641008, 0.18641557, -559374.9, -126726.14, 0.0, 9.99991, 9.998416 
1.0501465e+2, 2.658529e+2, -429329.25, -508168.25, -13858.604, 0.022028033, 0.20509131, -426964.06, -92303.26, 0.00000000014537505, 9.999915, 9.998875 
1.0501735e+2, 2.7585188e+2, -182979.38, -351005.16, -11165.624, 0.064036645, 0.1870812, -182240.64, 54430.16, 0.00000042821608, 10.000975, 9.9987755 
1.0502012e+2, 2.8585097e+2, -55832.32, -296423.5, 25425.428, 0.075350806, 0.2512846, -53174.742, 85506.51, 0.0000059800022, 10.001413, 9.998269 
1.0502289e+2, 2.958501e+2, 32082.107, -205338.23, 9474.447, 0.05279074, 0.30199197, 32459.592, 73152.375, 0.000029321069, 10.001342, 9.998259 
1.05025776e+2, 3.0584738e+2, 32882.113, -273876.56, 5209.2397, 0.06989512, 0.2485633, 32970.55, 32970.55, 0.00010998001, 10.001454, 9.997392 
1.05028875e+2, 3.1584692e+2, 249739.75, 134310.31, 14000.696, 0.18168738, 0.43947247, 251413.66, 251413.66, 0.0003078072, 10.001556, 10.000153 
1.1498122e+2, 1.2585017e+2, -1819046.3, -1502518.3, -11587.102, -0.25620264, 0.19381267, -1502094.6, 204597.69, 0.0014882531, 9.998037, 10.0024 
1.1498766e+2, 1.3585208e+2, -1701361.0, -1584008.0, 9196.708, 0.13489735, 0.28666407, -1583291.6, 25377.432, 0.000840427, 9.999058, 10.000671 
1.1498991e+2, 1.4585173e+2, -1580767.6, -1443205.6, 14942.323, 0.1165165, 0.17529632, -1441601.3, 69067.45, 0.00033535642, 9.999088, 10.000931 
1.14991e+2, 1.5585093e+2, -1558419.9, -1417213.8, 34652.254, -0.0063479175, -0.01657591, -1409168.4, 3505.1455, 0.0000716502, 9.998728, 10.00061 
1.1499365e+2, 1.6585217e+2, -1481739.3, -1458275.1, 9691.378, 0.010714868, 0.11369724, -1454790.0, -140125.95, 0.0000041980056, 9.999131, 9.999459 
1.149974e+2, 1.7585433e+2, -1222162.0, -1271698.6, -32549.9, 0.12108979, 0.34967735, -1206028.4, 10620.92, 0.000000024917117, 10.000204, 9.999546 
1.1499888e+2, 1.858545e+2, -1067068.8, -1041147.4, -70405.59, 0.05108454, 0.3659817, -982519.5, 136128.61, 0.0, 10.000128, 10.0005045 
1.1499864e+2, 1.9585319e+2, -1093053.3, -1005665.8, -25561.705, -0.15534365, 0.15662338, -998738.0, 21919.102, 0.0, 9.999288, 10.000477 
1.1500003e+2, 2.0585376e+2, -1069561.3, -956336.2, -36369.4, -0.16702276, 0.17536823, -945660.44, -23009.492, 0.0, 9.998838, 10.000357 
1.15002565e+2, 2.158554e+2, -996828.44, -883794.6, -24148.488, -0.043673623, 0.2756719, -878851.75, -54215.336, 0.0, 9.998715, 10.000244 
1.15004815e+2, 2.2585523e+2, -830584.8, -853239.5, 13030.767, -0.033487678, 0.28829506, -824646.3, -98008.53, 0.0, 9.99963, 9.999336 
1.15006894e+2, 2.358536e+2, -497219.66, -656534.8, 6661.9565, -0.10970067, 0.1644917, -496941.56, 131710.58, 0.0, 10.001294, 9.999219 
1.150095e+2, 2.4585225e+2, -473111.16, -691061.5, -48092.973, -0.067182556, 0.15972714, -462970.75, 67695.28, 0.0, 10.001217, 9.998337 
1.1501255e+2, 2.5585094e+2, -576474.1, -684736.0, -35986.86, 0.060856, 0.1650138, -565603.44, -132922.2, 0.0, 9.999808, 9.998386 
1.1501566e+2, 2.6585025e+2, -412576.1, -462908.25, 16493.521, 0.10682815, 0.21589379, -407652.84, -72964.03, 0.0, 9.999868, 9.999212 
1.1501882e+2, 2.7584985e+2, -175817.66, -317650.63, 38059.98, 0.086134516, 0.23171586, -166249.92, 70442.305, 0.0000002594802, 10.000887, 9.999054 
1.1502132e+2, 2.8584847e+2, -79311.75, -326856.9, 13752.524, 0.026556369, 0.24487805, -78550.06, 60156.848, 0.000005001763, 10.001345, 9.998091 
1.1502336e+2, 2.958463e+2, -452.94147, -237767.27, 21919.363, -0.067071535, 0.18723537, 1554.6411, 42285.008, 0.000026475647, 10.001198, 9.998105 
1.1502661e+2, 3.058451e+2, 99982.46, -114874.08, 8412.601, -0.01810191, 0.24151063, 100311.35, 100311.35, 0.000100772006, 10.001388, 9.99851 
1.1503136e+2, 3.1584382e+2, 241757.44, 144640.27, 56196.348, 0.21083431, 0.22645433, 267468.4, 267468.4, 0.00028477277, 10.001452, 10.00027 
1.24979705e+2, 1.2584692e+2, -1814120.1, -1493838.1, 59710.13, -0.2011083, 0.20215371, -1483068.5, 223656.72, 0.0014562852, 9.998068, 10.002435 
1.2498718e+2, 1.3584886e+2, -1856724.3, -1642862.1, -49944.19, 0.24997403, 0.28706476, -1631773.4, -23071.31, 0.0008261713, 9.997929, 10.0008135 
1.24989316e+2, 1.4584856e+2, -1695384.6, -1484607.4, -58629.914, 0.20344923, 0.164917, -1469396.6, 41305.12, 0.00033346904, 9.998239, 10.001053 
1.2498971e+2, 1.5584841e+2, -1501401.1, -1382227.4, -72976.02, -0.018588487, 0.026254749, -1347601.1, 65098.88, 0.00007407354, 9.999081, 10.000676 
1.24992654e+2, 1.6584978e+2, -1435763.6, -1468869.5, -19380.854, -0.017195266, 0.18160777, -1426829.0, -112138.39, 0.000004716059, 9.999572, 9.9991865 
1.2499736e+2, 1.7585176e+2, -1318147.1, -1347694.9, -8582.453, 0.13271074, 0.4307653, -1315835.1, -99154.914, 0.000000012759114, 9.999648, 9.99931 
1.24998875e+2, 1.8585186e+2, -1156863.3, -1043586.56, -63953.434, 0.08640121, 0.43035546, -1014796.9, 103882.016, 0.0, 9.999341, 10.000858 
1.24998085e+2, 1.9585064e+2, -1154483.9, -1001510.3, -88742.41, -0.10452875, 0.19770955, -960841.44, 59841.92, 0.0, 9.998729, 10.00077 
1.2499931e+2, 2.058509e+2, -1057654.0, -966456.94, -69482.04, -0.12426981, 0.17959915, -928947.2, -6268.911, 0.0, 9.998988, 10.000214 
1.25002e+2, 2.1585199e+2, -850700.56, -827836.44, -87035.6, -0.018314827, 0.23892581, -751485.3, 73183.14, 0.0, 9.999786, 10.000109 
1.2500487e+2, 2.2585177e+2, -779799.2, -837633.94, -6566.693, -0.002822262, 0.25693896, -779062.94, -52392.4, 0.0, 10.000007, 9.999258 
1.2500794e+2, 2.3585053e+2, -719270.9, -766297.0, -19121.023, -0.05130881, 0.17813659, -712477.56, -83795.28, 0.0, 9.999791, 9.999179 
1.2501064e+2, 2.4584934e+2, -604222.75, -724560.7, -64404.188, -0.01664002, 0.17478813, -576254.3, -45559.527, 0.0, 10.000182, 9.99861 
1.2501317e+2, 2.55848e+2, -384346.34, -572120.3, -44999.055, 0.08850086, 0.15156437, -374119.53, 58590.223, 0.0, 10.001025, 9.998584 
1.2501644e+2, 2.6584736e+2, -231880.45, -407556.84, 34846.6, 0.13591783, 0.21648274, -225220.84, 109496.59, 0.0, 10.001252, 9.99892 
1.250203e+2, 2.7584714e+2, -170090.6, -338022.38, -13227.95, 0.14535473, 0.2758796, -169055.02, 67666.016, 0.00000012209664, 10.001048, 9.998823 
1.2502287e+2, 2.858456e+2, -106714.1, -306286.56, -27483.611, 0.07424505, 0.2678886, -102998.445, 35738.156, 0.000003888246, 10.001017, 9.998386 
1.2502472e+2, 2.958431e+2, 717.55725, -207274.73, -6512.3306, -0.034674827, 0.14658955, 921.2617, 41682.125, 0.00002250982, 10.001085, 9.998363 
1.2502798e+2, 3.058429e+2, 121514.05, -110782.09, -7283.816, -0.013949397, 0.2870469, 121742.21, 121742.21, 0.000088219014, 10.001519, 9.998507 
1.2503323e+2, 3.1584054e+2, 284602.4, 103883.02, -89423.5, 0.23859228, 0.16906203, 321370.34, 321370.34, 0.00025421128, 10.001997, 9.999744 
1.3498116e+2, 1.2584461e+2, -1910499.5, -1681768.6, 5985.863, 0.07405763, 0.2740372, -1681612.1, 25135.19, 0.0014504805, 9.998023, 10.0011635 
1.3498518e+2, 1.3584411e+2, -1909545.3, -1757472.3, -42584.15, 0.22530004, 0.2048503, -1746359.8, -137606.63, 0.0008289551, 9.997963, 10.000003 
1.349866e+2, 1.4584412e+2, -1692854.4, -1491179.6, -42597.81, 0.06838928, 0.15169308, -1482551.4, 28201.516, 0.0003411424, 9.998272, 10.000999 
1.3498849e+2, 1.5584682e+2, -1499773.8, -1377845.8, -32883.863, -0.08096085, 0.3029212, -1369542.5, 43182.492, 0.00008049032, 9.999065, 10.000719 
1.349915e+2, 1.6584761e+2, -1396059.3, -1357752.8, -28200.084, -0.113435, 0.3536946, -1342816.6, -28098.713, 0.0000062176173, 9.999461, 9.999996 
1.3499527e+2, 1.7584647e+2, -1274657.1, -1246854.4, 6959.312, -0.070109956, 0.21199816, -1245209.6, -28478.85, 0.000000017143847, 9.999617, 10.00001 
1.3499764e+2, 1.8584663e+2, -1187851.3, -1100995.5, -97349.22, -0.003194461, 0.20654385, -1037826.7, 80900.266, 0.0, 9.999296, 10.000492 
1.3499899e+2, 1.9584778e+2, -1186667.1, -1056972.4, -94369.11, 0.081855305, 0.24196889, -1007317.75, 13392.993, 0.0, 9.998671, 10.00042 
1.35e+2, 2.0584749e+2, -1092863.4, -1014998.8, -50742.992, 0.020845072, 0.20258532, -989973.5, -67262.92, 0.0, 9.998881, 9.999933 
1.3500069e+2, 2.1584596e+2, -884088.25, -868844.25, -46113.05, -0.15511046, 0.026879342, -829727.56, -5003.4443, 0.0, 9.999664, 9.999886 
1.3500378e+2, 2.2584607e+2, -783140.6, -822014.4, -26060.543, -0.14058983, 0.07787625, -770066.8, -43343.207, 0.0, 9.999905, 9.999415 
1.3500856e+2, 2.3584722e+2, -720724.7, -743870.06, -13560.101, 0.004677466, 0.22038935, -714470.3, -85755.84, 0.0, 9.999678, 9.999386 
1.3501155e+2, 2.4584685e+2, -573009.2, -640218.6, -42903.344, 0.030814873, 0.2567438, -552116.44, -21397.639, 0.0, 10.000099, 9.999227 
1.350133e+2, 2.5584522e+2, -366285.84, -508675.66, -4122.2754, -0.028705543, 0.14342055, -366166.6, 66567.805, 0.0, 10.000915, 9.99907 
1.3501668e+2, 2.6584426e+2, -308157.97, -551841.56, 16453.07, 0.008523288, 0.20627438, -307052.1, 27694.547, 0.0, 10.001195, 9.997954 
1.350213e+2, 2.758436e+2, -241845.53, -459638.16, -9039.195, 0.11201945, 0.31451833, -241471.02, -4712.7476, 0.000000046518082, 10.000934, 9.99804 
1.3502447e+2, 2.858422e+2, -53757.74, -189688.13, -34826.703, 0.102758445, 0.31289965, -45354.305, 93417.266, 0.0000029362805, 10.000984, 9.999204 
1.3502659e+2, 2.9584026e+2, 34166.484, -123257.164, 10658.202, 0.00977175, 0.1631825, 34884.81, 75671.38, 0.000019015239, 10.001013, 9.99898 
1.3502942e+2, 3.0584052e+2, 40679.414, -264200.88, 5279.8813, -0.044244517, 0.37764683, 40770.824, 40770.824, 0.000075927965, 10.001465, 9.997473 
1.3503379e+2, 3.158371e+2, 187872.53, -76774.66, -37979.46, 0.032789573, 0.2568583, 193215.1, 193215.1, 0.0002226974, 10.001904, 9.99855 
1.4498155e+2, 1.2584178e+2, -1843492.5, -1731650.4, 54442.207, 0.287746, 0.28655553, -1709525.8, -2750.258, 0.0014659849, 9.998852, 10.000417 
1.4498356e+2, 1.3584113e+2, -1724576.9, -1712166.6, -9069.93, 0.2047119, 0.2416141, -1707382.4, -98596.6, 0.0008466132, 9.999424, 9.999603 
1.4498495e+2, 1.4584115e+2, -1543280.8, -1452765.1, 27824.143, 0.023517948, 0.22482096, -1444896.1, 65890.75, 0.00035647568, 9.999436, 10.00071 
1.4498824e+2, 1.5584381e+2, -1507556.3, -1406870.3, -6281.583, -0.006014657, 0.40101638, -1406479.9, 6280.349, 0.00008921642, 9.999112, 10.000506 
1.4499138e+2, 1.6584425e+2, -1444691.8, -1315727.1, -2897.4583, -0.03162243, 0.39559782, -1315662.1, -907.7543, 0.000008328298, 9.998854, 10.000568 
1.4499441e+2, 1.758427e+2, -1385739.0, -1244265.4, -12629.291, -0.06027242, 0.15279116, -1243146.8, -26379.432, 0.0000000715251, 9.998614, 10.0005045 
1.4499687e+2, 1.858428e+2, -1216388.9, -1130828.4, -85559.88, 0.0044810865, 0.1271139, -1077949.6, 40812.9, 0.0, 9.999172, 10.000354 
1.4499888e+2, 1.9584407e+2, -968121.2, -973917.44, -89193.95, 0.13115273, 0.19252405, -881778.25, 138967.05, 0.0, 10.0002575, 10.000238 
1.4500013e+2, 2.0584363e+2, -869973.4, -970079.94, -23520.809, 0.06422362, 0.17669399, -864722.4, 58025.38, 0.0, 10.00068, 9.9993725 
1.4500086e+2, 2.1584181e+2, -789114.2, -879035.9, -69243.74, -0.14019336, 0.02680016, -751514.94, 73251.1, 0.0, 10.000559, 9.999382 
1.4500391e+2, 2.2584188e+2, -753588.0, -762875.9, -59244.594, -0.110534795, 0.075601965, -698805.6, 27959.977, 0.0, 9.999924, 9.999815 
1.4500864e+2, 2.3584315e+2, -804774.75, -746103.1, -49298.875, 0.089224264, 0.19542108, -718072.0, -89318.81, 0.0, 9.998936, 9.999737 
1.4501184e+2, 2.4584295e+2, -676331.1, -683160.06, -12783.727, 0.09366104, 0.22807086, -666513.75, -135758.48, 0.0, 9.999357, 9.999293 
1.4501399e+2, 2.558415e+2, -375482.0, -503090.72, -43923.668, -0.03700188, 0.12686712, -361824.84, 70944.39, 0.0, 10.0008135, 9.999156 
1.4501756e+2, 2.658406e+2, -301583.8, -539650.9, -23389.79, -0.014597916, 0.18483229, -299307.56, 35473.277, 0.0, 10.001188, 9.998047 
1.4502218e+2, 2.758399e+2, -254947.0, -464212.63, 8983.607, 0.12198924, 0.28456515, -254562.05, -17769.834, 0.00000002138944, 10.000813, 9.998083 
1.4502579e+2, 2.8583837e+2, -78090.97, -221262.1, 13394.888, 0.14809324, 0.27703124, -76848.55, 61958.117, 0.0000023054517, 10.000898, 9.999029 
1.4502859e+2, 2.958363e+2, 69117.945, -122552.305, -43902.344, 0.10107529, 0.13164945, 78695.28, 119518.18, 0.000016570593, 10.0013275, 9.998824 
1.450313e+2, 3.058362e+2, 68769.15, -255197.7, -1710.6086, -0.0034806882, 0.3236416, 68778.18, 68778.18, 0.0000664134, 10.001699, 9.997405 
1.4503585e+2, 3.1583297e+2, 179164.92, -94271.984, -22082.223, 0.060081635, 0.22652213, 180936.75, 180936.75, 0.0001967113, 10.001931, 9.998402 
1.5498027e+2, 1.2583877e+2, -1850728.9, -1773303.3, 47541.8, 0.20538901, 0.26706544, -1750706.1, -43899.9, 0.0014879738, 9.998952, 10.000093 
1.54982e+2, 1.3584006e+2, -1724323.3, -1714530.0, 15098.741, 0.074247316, 0.4180484, -1703553.8, -94755.02, 0.0008684092, 9.999429, 9.999593 
1.5498386e+2, 1.4583975e+2, -1582045.1, -1519459.9, 797.12726, -0.058519598, 0.3921804, -1519449.6, -8646.515, 0.00037251608, 9.999385, 10.000273 
1.5498844e+2, 1.5583944e+2, -1539714.5, -1462794.3, -4346.307, 0.069989495, 0.31727973, -1462549.5, -49744.504, 0.00009664872, 9.999079, 10.000131 
1.5499192e+2, 1.6583988e+2, -1432761.8, -1281168.0, -23683.857, 0.10771783, 0.31239307, -1277554.0, 37244.57, 0.000009881803, 9.998805, 10.000836 
1.549945e+2, 1.7584054e+2, -1374760.1, -1209459.9, -4892.091, 0.05849959, 0.26744026, -1209315.3, 7473.599, 0.00000020107916, 9.998561, 10.000773 
1.5499622e+2, 1.8584038e+2, -1221576.8, -1127363.8, -55751.324, -0.0043806625, 0.19929616, -1101482.4, 17302.887, 0.0, 9.999108, 10.00041 
1.549973e+2, 1.9583948e+2, -981764.06, -982994.44, -38642.203, -0.07835004, 0.04238183, -943732.1, 77055.32, 0.0, 10.000183, 10.00021 
1.549994e+2, 2.0583932e+2, -943599.06, -1102742.6, -38223.684, -0.103333436, 0.10220268, -934894.5, -12104.474, 0.0, 10.000587, 9.998512 
1.5500212e+2, 2.1583953e+2, -857869.56, -993488.5, -65658.625, -0.09713345, 0.24261971, -831290.6, -6496.3257, 0.0, 10.000437, 9.998657 
1.5500496e+2, 2.258392e+2, -729814.9, -691747.6, -107368.67, -0.024505764, 0.25521836, -601738.56, 125057.88, 0.0, 9.999825, 10.000353 
1.5500785e+2, 2.3583831e+2, -788017.1, -690940.3, -66239.18, 0.0916918, 0.10288402, -657359.25, -28560.553, 0.0, 9.998837, 10.000166 
1.5501113e+2, 2.4583755e+2, -720971.6, -757199.6, 30716.354, 0.06346077, 0.08780923, -703426.0, -172621.48, 0.0, 9.999278, 9.99882 
1.5501484e+2, 2.558367e+2, -416956.94, -564399.94, 19098.688, -0.059313767, 0.09195389, -414523.22, 18291.838, 0.0, 10.000699, 9.998794 
1.5501869e+2, 2.658363e+2, -231996.48, -379419.75, -47771.01, -0.048489444, 0.153978, -217870.34, 116949.83, 0.0, 10.001128, 9.999171 
1.5502259e+2, 2.7583596e+2, -209078.2, -345036.16, 11655.352, 0.056912042, 0.17885776, -208086.27, 28737.201, 0.000000019825112, 10.0007105, 9.998949 
1.5502648e+2, 2.8583407e+2, -165747.97, -396128.0, 20120.264, 0.099213414, 0.16010858, -164003.97, -25161.994, 0.0000019865888, 10.000867, 9.997843 
1.5503034e+2, 2.9583108e+2, -9676.937, -266965.44, -15486.031, 0.10573187, 0.04061304, -8748.194, 32122.857, 0.000014949104, 10.001237, 9.997879 
1.5503329e+2, 3.0583006e+2, 118848.88, -133220.84, 1034.4531, 0.0007733848, 0.13024437, 118853.125, 118853.125, 0.000059797247, 10.001637, 9.9982605 
1.5503855e+2, 3.15828e+2, 220963.64, 16731.904, 15338.218, 0.08061064, 0.06735149, 222109.14, 222109.14, 0.00017773658, 10.001834, 9.999203 
1.6497792e+2, 1.2583448e+2, -2021956.4, -1793722.3, -20463.498, 0.15792315, 0.29402518, -1791902.0, -85049.95, 0.0014964563, 9.997499, 10.000651 
1.6498137e+2, 1.358362e+2, -1755019.9, -1651932.4, -38531.87, 0.10680773, 0.41241103, -1639122.0, -30285.275, 0.0008776996, 9.998869, 10.000298 
1.6498354e+2, 1.4583644e+2, -1605715.0, -1506915.6, -18002.227, -0.009485461, 0.3990822, -1503737.6, 7096.5044, 0.00037921302, 9.999155, 10.000451 
1.6498785e+2, 1.5583575e+2, -1560112.9, -1459373.5, -4837.5493, 0.12334883, 0.26694787, -1459141.8, -46302.25, 0.00009882513, 9.998893, 10.000237 
1.6499154e+2, 1.6583624e+2, -1403508.9, -1297829.5, 13924.161, 0.18056795, 0.2801198, -1296025.6, 18807.502, 0.000009884257, 9.99913, 10.000565 
1.6499452e+2, 1.7583746e+2, -1230550.6, -1167948.8, -30419.576, 0.15630394, 0.31420445, -1155602.3, 61217.28, 0.0000002904704, 9.99966, 10.000529 
1.6499613e+2, 1.8583725e+2, -1134680.1, -1104155.5, -72556.47, 0.05002435, 0.26157266, -1045273.44, 73544.0, 0.0, 9.999801, 10.00022 
1.6499686e+2, 1.9583584e+2, -1064833.4, -1038911.56, -98297.016, -0.107472815, 0.07174501, -952724.7, 68100.62, 0.0, 9.999682, 10.000054 
1.649994e+2, 2.0583577e+2, -1055755.6, -1118869.9, -46888.254, -0.11034991, 0.12906235, -1030794.06, -107967.625, 0.0, 9.999672, 9.998838 
1.6500308e+2, 2.1583657e+2, -939253.5, -1003643.4, -8890.933, -0.0027350236, 0.2962538, -938048.4, -113224.96, 0.0, 9.999757, 9.998914 
1.6500583e+2, 2.2583584e+2, -686486.6, -739121.7, -40291.58, 0.05817834, 0.29361278, -664679.06, 62150.02, 0.0, 10.000422, 9.999737 
1.6500786e+2, 2.3583402e+2, -443060.6, -582485.5, -110487.984, 0.084037825, 0.10774539, -382130.72, 246710.88, 0.0, 10.001474, 9.999633 
1.6501123e+2, 2.4583288e+2, -462694.8, -633274.7, -6969.998, 0.061884265, 0.079837464, -462410.47, 68440.71, 0.0, 10.001058, 9.998815 
1.6501568e+2, 2.558321e+2, -576098.3, -633894.25, -7318.5894, 0.018635826, 0.09300188, -575185.94, -142326.06, 0.0, 9.999585, 9.998846 
1.6501966e+2, 2.6583177e+2, -439432.1, -464404.38, -62401.438, 0.019572368, 0.1510752, -388279.88, -53416.137, 0.0, 9.999624, 9.999318 
1.6502334e+2, 2.7583146e+2, -182169.5, -310137.3, -99155.29, 0.06382198, 0.15720536, -128146.16, 108720.414, 0.000000024295247, 10.000804, 9.999133 
1.6502737e+2, 2.8582963e+2, -131923.7, -402196.06, -57737.863, 0.092463315, 0.14862534, -120105.984, 18778.754, 0.0000019697127, 10.001206, 9.997639 
1.6503173e+2, 2.9582685e+2, -33083.83, -287835.56, -45472.58, 0.13749735, 0.074820295, -25210.418, 15702.068, 0.000013995548, 10.001125, 9.997796 
1.650349e+2, 3.0582526e+2, 121096.055, -140559.63, 7551.684, 0.010565303, 0.11276523, 121313.83, 121313.83, 0.000055183133, 10.00165, 9.998223 
1.6504134e+2, 3.1582263e+2, 318215.0, 77103.95, -109194.47, 0.16041861, 0.003030357, 360315.75, 360315.75, 0.00016346597, 10.002413, 9.999351 
1.7497359e+2, 1.2582895e+2, -1920933.6, -1576856.3, -7627.469, -0.08526018, 0.3693364, -1576687.3, 130225.18, 0.0014785845, 9.997473, 10.002145 
1.749812e+2, 1.3582973e+2, -1658442.6, -1437765.9, 15792.928, 0.1750887, 0.23138228, -1436641.4, 172256.84, 0.00086354057, 9.998828, 10.001775 
1.7498364e+2, 1.4583135e+2, -1559843.1, -1412526.1, -40345.3, 0.051794976, 0.2525157, -1402200.6, 108678.15, 0.00037008742, 9.999139, 10.001117 
1.7498621e+2, 1.5583271e+2, -1518481.0, -1371550.8, 1807.8262, 0.036364246, 0.25546607, -1371528.5, 41335.293, 0.000094032526, 9.998883, 10.000848 
1.7498985e+2, 1.6583341e+2, -1459778.1, -1408109.9, 22358.95, 0.06905685, 0.30217075, -1399777.9, -84920.414, 0.000008393363, 9.999096, 9.999826 
1.7499402e+2, 1.758335e+2, -1287946.0, -1276933.0, -585.183, 0.11070665, 0.29874068, -1276902.0, -60043.375, 0.00000020811186, 9.999621, 9.999798 
1.7499627e+2, 1.858335e+2, -1170227.4, -1172881.6, -87505.18, 0.054569423, 0.3246081, -1084039.3, 34818.89, 0.0, 9.999764, 9.999773 
1.7499718e+2, 1.9583325e+2, -1094034.0, -1082196.9, -91046.5, -0.07318607, 0.29231176, -996876.75, 23981.191, 0.0, 9.999605, 9.999797 
1.7499971e+2, 2.0583306e+2, -965509.94, -911119.25, -57341.156, -0.06915863, 0.27135232, -874851.25, 48004.72, 0.0, 9.999578, 10.00031 
1.7500338e+2, 2.158328e+2, -873419.25, -840999.0, 9301.415, 0.025648005, 0.1843652, -838519.94, -13665.827, 0.0, 9.999645, 10.000083 
1.7500618e+2, 2.2583182e+2, -823419.6, -1000582.3, -11752.601, 0.026264863, 0.19515069, -822643.4, -95779.81, 0.0, 10.00032, 9.99799 
1.7500827e+2, 2.3583016e+2, -567284.6, -818887.25, -66907.6, -0.0472208, 0.19950604, -550598.8, 78284.234, 0.0, 10.001375, 9.998057 
1.7501172e+2, 2.4582882e+2, -443223.72, -576108.75, -73764.38, -0.017987613, 0.2017993, -410389.88, 120505.74, 0.0, 10.000989, 9.999236 
1.7501618e+2, 2.5582767e+2, -573121.4, -601536.44, -45564.727, 0.08297805, 0.13296057, -539600.5, -106696.195, 0.0, 9.999475, 9.999122 
1.7502029e+2, 2.6582697e+2, -492014.97, -572072.25, -30366.395, 0.09360607, 0.1828018, -481800.13, -146888.25, 0.0, 9.99961, 9.998587 
1.7502408e+2, 2.758263e+2, -235142.72, -402892.1, -47319.594, 0.028853863, 0.22504233, -222715.23, 14206.279, 0.000000035492793, 10.000723, 9.998538 
1.7502804e+2, 2.8582504e+2, -79138.02, -288123.97, -73449.59, 0.012629949, 0.2561032, -55906.19, 83028.234, 0.0000021240596, 10.001191, 9.998424 
1.7503223e+2, 2.958235e+2, 5958.238, -189614.95, -31186.518, 0.04390182, 0.22573937, 10810.899, 51759.113, 0.000013429294, 10.0010605, 9.998494 
1.7503585e+2, 3.0582175e+2, 62383.03, -266017.56, 32073.254, -0.0880805, 0.25885022, 65486.145, 65486.145, 0.000050919698, 10.001657, 9.997364 
1.7504339e+2, 3.1581718e+2, 277156.7, 12281.132, -68473.945, 0.06553165, 0.04890934, 293810.97, 293810.97, 0.0001490851, 10.002337, 9.998937 
1.8497224e+2, 1.2582456e+2, -1566973.4, -1409822.9, 141217.4, -0.07828708, 0.36650535, -1326792.4, 380161.1, 0.0014297239, 9.999911, 10.002117 
1.8498011e+2, 1.3582489e+2, -1795141.8, -1518383.4, -2448.859, 0.23636599, 0.19980781, -1518361.6, 90581.99, 0.00082590414, 9.997954, 10.001637 
1.8498264e+2, 1.458267e+2, -1721625.5, -1486263.0, -70847.97, 0.102924086, 0.24302742, -1466582.3, 44340.195, 0.00034715154, 9.997995, 10.001162 
1.8498567e+2, 1.55828e+2, -1399518.1, -1305746.6, -102863.31, 0.0634983, 0.23253901, -1239587.5, 173320.33, 0.0000844504, 9.999649, 10.000934 
1.8498941e+2, 1.658287e+2, -1344672.9, -1354844.0, -76952.25, 0.08000288, 0.274538, -1272638.4, 42263.703, 0.000006352812, 9.99992, 9.999784 
1.8499346e+2, 1.7582875e+2, -1348066.6, -1312283.3, -66843.6, 0.116763, 0.2726318, -1260978.3, -44073.867, 0.000000056960435, 9.999243, 9.999735 
1.8499611e+2, 1.8582891e+2, -1223478.6, -1200116.0, -77683.305, 0.08564536, 0.31741485, -1133240.6, -14337.166, 0.0, 9.99942, 9.999745 
1.8499771e+2, 1.9582899e+2, -1013913.4, -1044682.6, -76342.32, -0.001101172, 0.32189643, -951420.94, 69480.13, 0.0, 10.000169, 9.999781 
1.8500039e+2, 2.0582858e+2, -868304.06, -866885.25, -89691.02, 0.015125586, 0.27842805, -777900.8, 145000.1, 0.0, 10.000246, 10.000292 
1.850038e+2, 2.1582767e+2, -850955.0, -833953.7, -153278.77, 0.10179752, 0.12936345, -688940.06, 135963.58, 0.0, 9.9998045, 10.000058 
1.8500686e+2, 2.2582664e+2, -884397.0, -1050830.6, -95702.61, 0.08310145, 0.14486668, -840791.0, -113877.125, 0.0, 9.999992, 9.997807 
1.8500961e+2, 2.3582533e+2, -688274.25, -899255.94, -59742.164, -0.0081663225, 0.20541175, -672532.06, -43600.867, 0.0, 10.000633, 9.997867 
1.8501294e+2, 2.4582404e+2, -439543.13, -598525.94, -71740.54, 0.0039953575, 0.23215067, -411957.03, 118986.89, 0.0, 10.001107, 9.99903 
1.850167e+2, 2.558227e+2, -299038.75, -489462.22, -106124.234, 0.09736336, 0.16431217, -251675.48, 181278.61, 0.0, 10.001438, 9.998945 
1.8502085e+2, 2.658217e+2, -264528.6, -480604.53, -33532.79, 0.1097633, 0.20038225, -259444.27, 75520.02, 0.0, 10.001264, 9.998414 
1.8502519e+2, 2.758206e+2, -233631.81, -415129.84, -35044.438, 0.07092749, 0.22229508, -227100.33, 9876.834, 0.000000044067633, 10.0007925, 9.998425 
1.8502933e+2, 2.8581944e+2, -134827.67, -274343.0, -52688.48, 0.056961212, 0.24528243, -117165.62, 21823.32, 0.000002141611, 10.000602, 9.9988165 
1.8503335e+2, 2.9581842e+2, -29889.393, -171499.34, -62652.082, 0.079641744, 0.23001525, -6150.0522, 34847.508, 0.000012353572, 10.000627, 9.998845 
1.8503754e+2, 3.058172e+2, -28550.086, -358143.28, 63302.977, -0.05538457, 0.32005405, -16810.043, -16810.043, 0.00004451732, 10.001249, 9.99692 
1.8504627e+2, 3.1581172e+2, 268965.16, 21907.06, -69690.625, 0.13749695, 0.074217804, 287267.75, 287267.75, 0.00012891147, 10.002186, 9.999097 
1.9497322e+2, 1.258214e+2, -1686741.3, -1642430.1, 21694.852, -0.036236603, 0.30233654, -1633577.0, 73397.07, 0.0013506769, 9.999858, 10.000541 
1.949778e+2, 1.3582169e+2, -1931531.4, -1784971.1, -60685.965, 0.18390024, 0.3213784, -1763105.3, -154132.02, 0.00077082973, 9.997905, 9.999826 
1.9498014e+2, 1.4582248e+2, -1760580.1, -1560061.3, -23332.62, 0.019556632, 0.37522382, -1557382.1, -46416.797, 0.0003170448, 9.997957, 10.000677 
1.9498587e+2, 1.5582177e+2, -1430844.4, -1365166.1, -37260.715, 0.08936606, 0.21001364, -1348338.8, 64631.715, 0.000073711046, 9.999625, 10.000538 
1.9498987e+2, 1.6582224e+2, -1303296.3, -1264026.9, -111712.78, 0.1086812, 0.21211672, -1170236.4, 144729.31, 0.0000047225935, 9.9998865, 10.000431 
1.9499253e+2, 1.7582332e+2, -1308461.9, -1221966.4, -74591.58, 0.07199767, 0.24584448, -1178991.9, 37963.953, 0.0000000036456946, 9.999204, 10.000377 
1.9499531e+2, 1.8582349e+2, -1207692.3, -1152669.1, -61267.105, 0.0373863, 0.24596424, -1113020.1, 5932.7983, 0.0, 9.999351, 10.00011 
1.9499815e+2, 1.9582295e+2, -1011341.3, -1021923.75, -40545.563, -0.0011512543, 0.15201856, -975743.1, 45212.625, 0.0, 10.000092, 9.999977 
1.9500108e+2, 2.0582223e+2, -988299.25, -1089131.0, -115705.37, 0.035641428, 0.14953342, -912503.0, 10458.657, 0.0, 10.0001335, 9.998819 
1.9500403e+2, 2.1582116e+2, -954110.56, -1020775.0, -156217.44, 0.119027056, 0.13104075, -827708.9, -2736.97, 0.0, 9.999686, 9.998832 
1.9500752e+2, 2.2582032e+2, -808636.9, -865441.44, -83481.234, 0.1317957, 0.14973694, -748858.6, -21879.045, 0.0, 9.999875, 9.999135 
1.9501147e+2, 2.3581952e+2, -624488.9, -736754.2, -25710.23, 0.08987648, 0.12889494, -618881.0, 10105.299, 0.0, 10.000508, 9.999042 
1.9501452e+2, 2.4581853e+2, -509147.97, -717796.2, -69830.07, 0.028978715, 0.17243679, -487934.22, 43061.605, 0.0, 10.001003, 9.998258 
1.9501688e+2, 2.5581726e+2, -365054.03, -595381.1, -84164.984, -0.054732487, 0.18947856, -337576.8, 95431.72, 0.0, 10.001309, 9.998277 
1.9502096e+2, 2.65816e+2, -244183.45, -432252.34, -61760.66, -0.029048275, 0.21351989, -225715.2, 109304.555, 0.0, 10.00123, 9.998771 
1.9502631e+2, 2.7581438e+2, -222298.94, -380594.4, -37899.02, 0.07620729, 0.14727719, -213693.05, 23340.543, 0.000000036761158, 10.000734, 9.998699 
1.9503084e+2, 2.8581277e+2, -142086.22, -279404.4, -61333.52, 0.12291166, 0.11679044, -118680.805, 20368.006, 0.0000018181237, 10.000566, 9.998797 
1.950348e+2, 2.9581177e+2, -45754.14, -175141.84, -41651.297, 0.13340159, 0.10212205, -33505.65, 7553.637, 0.000010151812, 10.000512, 9.998871 
1.9503969e+2, 3.058117e+2, -36464.043, -364530.75, 94281.8, 0.008322813, 0.30734965, -11299.09, -11299.09, 0.00003534469, 10.001215, 9.996886 
1.950492e+2, 3.158067e+2, 321697.3, 161642.38, -30289.629, 0.15575314, 0.106611244, 327237.72, 327237.72, 0.00010294475, 10.002082, 10.000091 
2.0497327e+2, 1.2581617e+2, -1920703.5, -1791683.1, -56230.336, 0.068363994, 0.16169024, -1770616.4, -63599.465, 0.0012481074, 9.998414, 10.000219 
2.0497681e+2, 1.3581674e+2, -1576486.4, -1691941.0, -77567.25, 0.16950543, 0.2780952, -1537522.9, 71493.664, 0.0007037624, 10.000653, 9.999162 
2.0497891e+2, 1.4581713e+2, -1420579.6, -1433515.0, 29501.395, -0.017254261, 0.34331703, -1396845.4, 114169.48, 0.00028324383, 10.000466, 10.000335 
2.0498528e+2, 1.5581594e+2, -1594205.8, -1475568.4, -7828.636, 0.12451899, 0.16552565, -1475054.0, -62028.004, 0.000063005726, 9.998645, 10.000251 
2.0498933e+2, 1.6581658e+2, -1504496.3, -1315580.8, -60875.914, 0.15069206, 0.17537051, -1297663.5, 17356.025, 0.0000035155435, 9.998313, 10.000835 
2.0499153e+2, 1.7581825e+2, -1309505.8, -1183063.8, -65440.81, 0.06747204, 0.23254745, -1155293.5, 61709.203, 0.0000000004928599, 9.999027, 10.000731 
2.049946e+2, 1.858186e+2, -1219396.5, -1166544.3, -44689.348, 0.038943335, 0.23746082, -1141052.4, -22053.799, 0.0, 9.999307, 10.000033 
2.0499828e+2, 1.9581793e+2, -1137512.5, -1094859.5, -81097.46, 0.05283268, 0.13819066, -1032331.25, -11326.957, 0.0, 9.99927, 9.999871 
2.0500162e+2, 2.0581725e+2, -1064881.9, -1152755.3, -98869.17, 0.103332445, 0.15579392, -1000626.44, -77615.06, 0.0, 9.99972, 9.998585 
2.0500466e+2, 2.1581636e+2, -853888.44, -995218.5, -66705.266, 0.18092921, 0.17944983, -827377.6, -2356.3516, 0.0, 10.000472, 9.998631 
2.0500831e+2, 2.2581546e+2, -686330.44, -779485.2, 18218.658, 0.19356443, 0.18975574, -682894.06, 44134.414, 0.0, 10.000591, 9.999378 
2.0501247e+2, 2.3581442e+2, -654145.3, -732986.94, -27044.828, 0.16048336, 0.120327435, -645760.0, -16724.83, 0.0, 10.0002165, 9.999212 
2.0501561e+2, 2.458131e+2, -602412.44, -797746.44, -51318.613, 0.06823872, 0.14001353, -589750.6, -58703.453, 0.0, 10.000508, 9.997946 
2.05018e+2, 2.5581145e+2, -380737.88, -637621.6, -56444.176, -0.068639405, 0.14909226, -368882.7, 64181.734, 0.0, 10.001342, 9.997972 
2.0502205e+2, 2.6580998e+2, -224171.89, -421739.75, -51594.77, -0.044103924, 0.16709183, -211509.48, 123567.41, 0.0, 10.001371, 9.998768 
2.0502727e+2, 2.758083e+2, -210047.45, -375962.84, -77748.84, 0.101149045, 0.095682085, -179308.78, 57780.668, 0.00000002096579, 10.000839, 9.99867 
2.0503177e+2, 2.858064e+2, -133470.92, -324779.75, -77938.85, 0.15317078, 0.058350917, -105738.83, 33369.82, 0.0000012828043, 10.000852, 9.9983425 
2.0503578e+2, 2.9580492e+2, 43900.35, -171252.06, -109507.5, 0.14894062, 0.040414214, 89831.58, 130957.4, 0.000007381431, 10.001313, 9.998502 
2.0504129e+2, 3.0580515e+2, -23314.094, -326690.06, 41764.305, 0.05872544, 0.27642366, -17669.621, -17669.621, 0.000026183836, 10.00117, 9.99718 
2.0505095e+2, 3.1580082e+2, 135589.38, 175566.4, -128367.49, 0.22164784, 0.10819526, 285492.28, 285492.28, 0.000078692225, 10.000379, 10.001004 
2.1497153e+2, 1.258088e+2, -1861783.1, -1651454.6, -21271.332, -0.0055524795, -0.053556576, -1649324.9, 57757.625, 0.0011286365, 9.99834, 10.001216 
2.1497683e+2, 1.3581014e+2, -1531065.0, -1607161.0, 7088.256, 0.077680305, 0.0710936, -1530410.4, 78662.5, 0.00062779407, 10.00069, 9.999725 
2.1497853e+2, 1.4581078e+2, -1447212.6, -1483536.0, -53154.266, -0.1364098, 0.15629302, -1409203.0, 101866.42, 0.00024660726, 10.000444, 9.999999 
2.1498357e+2, 1.558106e+2, -1611659.0, -1512389.6, -57250.242, 0.056929667, 0.106621616, -1486253.6, -73180.19, 0.000052325075, 9.998645, 9.999998 
2.149874e+2, 1.6581172e+2, -1504057.5, -1299912.5, -45272.914, 0.098859556, 0.1710258, -1290322.9, 24740.479, 0.000002586899, 9.998249, 10.000973 
2.149901e+2, 1.7581357e+2, -1310753.8, -1171934.9, -28701.97, -0.0039471085, 0.22705078, -1166234.6, 50810.54, 0.000000000052014764, 9.998974, 10.000828 
2.1499361e+2, 1.8581423e+2, -1271795.8, -1256806.8, -55756.81, -0.0138997, 0.2901636, -1208043.0, -89002.56, 0.0, 9.999224, 9.999456 
2.1499787e+2, 1.9581392e+2, -1174332.8, -1157381.4, -67546.97, 0.055346496, 0.28089282, -1097780.4, -76733.46, 0.0, 9.999208, 9.999472 
2.1500173e+2, 2.0581363e+2, -1007026.1, -1011962.06, -82302.766, 0.11939799, 0.30165827, -927154.3, -4104.3296, 0.0, 9.999628, 9.999595 
2.1500532e+2, 2.158132e+2, -809746.2, -876314.7, -31898.807, 0.17318828, 0.27061933, -796928.7, 28123.475, 0.0, 10.000354, 9.999502 
2.1500883e+2, 2.2581199e+2, -767251.9, -913765.25, -7598.278, 0.1632357, 0.25511017, -766858.9, -39797.445, 0.0, 10.000452, 9.998521 
2.1501227e+2, 2.3581003e+2, -730031.56, -855298.8, -25308.441, 0.096962385, 0.17802851, -725111.56, -96033.84, 0.0, 10.000069, 9.99844 
2.1501592e+2, 2.458078e+2, -604187.5, -785119.06, -29926.139, 0.021712575, 0.13591626, -599366.2, -68268.5, 0.0, 10.000439, 9.998067 
2.1501976e+2, 2.558053e+2, -392379.03, -632828.5, -18063.86, -0.05593502, 0.05023815, -391029.53, 42091.46, 0.0, 10.001222, 9.998062 
2.1502373e+2, 2.6580372e+2, -259996.75, -482245.78, -82502.75, -0.039835453, 0.068823196, -232718.38, 102416.48, 0.0, 10.001313, 9.998376 
2.1502769e+2, 2.7580234e+2, -256799.17, -448335.97, -81787.26, 0.031941973, 0.0661784, -226628.14, 10517.699, 0.00000000626477, 10.000733, 9.998221 
2.1503177e+2, 2.8580016e+2, -191411.77, -435964.84, -72156.18, 0.04050022, 0.06695329, -171709.2, -32539.814, 0.00000075455597, 10.000817, 9.997593 
2.1503603e+2, 2.9579794e+2, -19292.123, -288241.4, -82095.13, 0.012965012, 0.049941424, 3786.5269, 44983.277, 0.0000049684672, 10.001254, 9.997727 
2.1504208e+2, 3.0579755e+2, 16547.014, -251390.4, 6144.9937, -0.0028391378, 0.23977023, 16687.871, 16687.871, 0.000019574018, 10.001195, 9.99769 
2.1505111e+2, 3.1579405e+2, 166507.45, 252766.83, -143201.27, 0.14220597, 0.095561415, 359192.38, 359192.38, 0.000061826526, 10.000314, 10.0015745 
2.2497015e+2, 1.2580402e+2, -1867897.5, -1636210.6, 62629.453, 0.04401914, -0.03749924, -1620364.5, 86762.65, 0.0009987261, 9.9982, 10.001387 
2.2497658e+2, 1.3580468e+2, -1847962.6, -1737527.1, 12118.144, 0.104899995, 0.0007252997, -1736213.0, -127089.68, 0.0005469882, 9.998441, 9.999897 
2.249783e+2, 1.4580515e+2, -1636156.5, -1546742.6, -67869.49, -0.12516993, 0.04488989, -1510178.5, 942.2971, 0.00020906689, 9.999024, 10.000261 
2.2498292e+2, 1.558063e+2, -1430904.5, -1403869.8, -49139.7, 0.077146135, 0.105550036, -1366422.1, 46688.79, 0.000042237294, 9.999798, 10.000193 
2.2498661e+2, 1.6580726e+2, -1273947.3, -1254880.4, 973.8729, 0.1101888, 0.17645173, -1254830.8, 60271.902, 0.0000020119714, 10.000109, 10.000382 
2.2498938e+2, 1.7580774e+2, -1194910.4, -1181258.3, -65923.15, -0.021974206, 0.15551503, -1121808.8, 95290.48, 0.0, 10.000049, 10.000243 
2.2499327e+2, 1.8580814e+2, -1132493.4, -1199598.0, -81518.07, -0.013828112, 0.2229446, -1077892.6, 41205.39, 0.0, 10.000217, 9.99937 
2.2499818e+2, 1.9580843e+2, -1001446.25, -1084228.1, -80315.49, 0.10766484, 0.28298536, -952483.5, 68615.766, 0.0, 10.000446, 9.99938 
2.250023e+2, 2.0580834e+2, -854965.56, -929923.25, -88660.33, 0.16720197, 0.32466844, -796187.9, 126913.055, 0.0, 10.000638, 9.999677 
2.2500587e+2, 2.1580774e+2, -748514.56, -841135.6, -129997.93, 0.17742945, 0.27111492, -656824.6, 168280.55, 0.0, 10.000749, 9.99956 
2.2500941e+2, 2.2580655e+2, -682415.2, -893932.8, -97224.79, 0.14997046, 0.26428902, -644516.1, 82598.91, 0.0, 10.00112, 9.998338 
2.2501303e+2, 2.3580474e+2, -513226.03, -766774.56, -88992.3, 0.09659165, 0.219516, -485108.9, 144021.72, 0.0, 10.001631, 9.998292 
2.2501706e+2, 2.4580239e+2, -471331.53, -726568.8, -58247.027, 0.05236687, 0.17424268, -458667.47, 72484.52, 0.0, 10.001375, 9.998021 
2.2502139e+2, 2.557995e+2, -481304.97, -684794.9, -82791.16, 0.022534842, 0.055108417, -451876.7, -18697.744, 0.0, 10.00064, 9.997995 
2.250251e+2, 2.6579776e+2, -382417.72, -564733.94, -124536.39, 0.009014201, 0.07454617, -319241.4, 15952.839, 0.0, 10.000575, 9.998166 
2.2502832e+2, 2.7579656e+2, -217242.56, -449147.2, -132920.39, 0.010527515, 0.109101266, -156806.75, 80397.02, 0.00000000006385136, 10.001092, 9.998042 
2.2503245e+2, 2.8579438e+2, -156697.3, -423916.8, -61210.605, 0.02275441, 0.11845976, -143343.44, -4116.3022, 0.00000032397858, 10.001068, 9.997557 
2.250373e+2, 2.9579186e+2, -120306.83, -347141.4, -43607.227, 0.05476414, 0.07562849, -112212.5, -70955.766, 0.000003287384, 10.000603, 9.997634 
2.2504364e+2, 3.0579132e+2, -90503.7, -255465.27, 76180.28, 0.091600835, 0.23472978, -60705.75, -60705.75, 0.000016014252, 10.000261, 9.998102 
2.2505127e+2, 3.157885e+2, 99722.47, 193511.31, -129078.41, 0.15678923, 0.10575267, 283949.78, 283949.78, 0.000053501928, 9.999979, 10.001318 
2.3496856e+2, 1.2580182e+2, -1920529.8, -1740841.3, 5322.8623, -0.00023327056, 0.19621244, -1740683.8, -33533.008, 0.0008678266, 9.99819, 10.000674 
2.3497564e+2, 1.3580027e+2, -1867134.1, -1788087.4, 25931.713, 0.13863523, 0.071500435, -1780339.6, -171170.63, 0.00046623294, 9.998471, 9.999546 
2.349778e+2, 1.458e+2, -1580201.1, -1405495.4, -51551.566, -0.10552477, -0.0016021064, -1391418.0, 119753.49, 0.00017258529, 9.998924, 10.001278 
2.3498297e+2, 1.55803e+2, -1379969.8, -1294339.1, -8597.159, 0.073541485, 0.15186979, -1293484.5, 119654.375, 0.000033446406, 9.999782, 10.000955 
2.3498666e+2, 1.6580309e+2, -1385247.5, -1469448.0, -14422.927, 0.07672572, 0.17956069, -1382845.5, -67706.79, 0.0000017722703, 10.000042, 9.998943 
2.3498906e+2, 1.7580059e+2, -1286229.9, -1361877.4, -56190.098, -0.08645152, 0.004154519, -1256319.1, -39152.496, 0.0000000001389195, 10.000008, 9.999027 
2.3499322e+2, 1.8580027e+2, -1123269.0, -1154166.9, -84268.016, -0.06501037, 0.03146293, -1053045.5, 66126.55, 0.0, 10.000111, 9.999735 
2.3499876e+2, 1.958014e+2, -993230.06, -1051909.8, -62584.65, 0.0976626, 0.14559206, -953449.25, 67712.53, 0.0, 10.0003805, 9.999635 
2.3500286e+2, 2.0580128e+2, -932145.8, -1058539.9, -95386.78, 0.13867629, 0.21670695, -880920.4, 42244.67, 0.0, 10.000506, 9.998857 
2.3500589e+2, 2.1579997e+2, -818713.94, -954631.2, -111726.81, 0.08174649, 0.17181481, -755900.8, 69279.875, 0.0, 10.000608, 9.998849 
2.350098e+2, 2.2579916e+2, -671169.3, -836917.8, -86377.27, 0.054879434, 0.21261024, -634339.06, 92849.97, 0.0, 10.000979, 9.998797 
2.3501445e+2, 2.3579858e+2, -502767.34, -716973.1, -60958.996, 0.048370555, 0.24934085, -486634.56, 142558.9, 0.0, 10.001511, 9.998695 
2.3501863e+2, 2.457968e+2, -495059.66, -760425.6, -98439.9, 0.044153053, 0.2522268, -462530.1, 68680.71, 0.0, 10.001308, 9.997821 
2.350225e+2, 2.5579396e+2, -511589.8, -720158.25, -96170.07, 0.04331224, 0.15655805, -474015.38, -40776.203, 0.0, 10.000522, 9.997808 
2.3502584e+2, 2.657922e+2, -394098.44, -573283.2, -116244.72, -0.00036942863, 0.1865782, -336926.97, -1672.2435, 0.0, 10.000512, 9.9981365 
2.350288e+2, 2.7579102e+2, -228045.69, -452186.38, -102447.46, -0.07679106, 0.22485746, -188276.5, 48986.883, 0.0, 10.001003, 9.998068 
2.3503342e+2, 2.8578907e+2, -112428.21, -323616.06, -88199.81, -0.017007004, 0.21759571, -80438.41, 58843.324, 0.00000009734078, 10.001035, 9.998261 
2.3503917e+2, 2.9578662e+2, -94140.88, -272937.1, -48807.645, 0.14615504, 0.117795475, -81685.13, -40378.555, 0.0000024854203, 10.000511, 9.998193 
2.3504555e+2, 3.0578637e+2, -57801.418, -186823.73, 58425.695, 0.22802334, 0.26045993, -35276.656, -35276.656, 0.000014818683, 10.0002575, 9.998576 
2.3505072e+2, 3.157842e+2, 19566.521, 33477.996, -107912.79, 0.04593144, 0.14381464, 134658.98, 134658.98, 0.000051300616, 9.999939, 10.000244 
2.4496785e+2, 1.2579666e+2, -1776404.5, -1634421.8, -42469.05, 0.080818675, 0.19915256, -1622688.3, 84515.91, 0.0007423371, 9.9990425, 10.000993 
2.449742e+2, 1.357966e+2, -1801146.1, -1694167.6, 56049.12, 0.14911142, 0.16188386, -1670180.4, -60975.42, 0.00038816038, 9.998666, 10.0001 
2.4497686e+2, 1.4579585e+2, -1575259.5, -1446414.3, 17758.742, -0.09243528, 0.037604712, -1444011.4, 67199.695, 0.00013769997, 9.999135, 10.00089 
2.4498345e+2, 1.5579793e+2, -1343143.6, -1323156.1, -76025.26, 0.12794551, 0.13513675, -1256470.5, 156717.94, 0.000025817635, 10.000243, 10.000525 
2.4498731e+2, 1.6579771e+2, -1382139.4, -1498036.9, -100178.76, 0.13518773, 0.16783774, -1324356.4, -9165.0205, 0.0000016011192, 10.000188, 9.998682 
2.4498911e+2, 1.7579538e+2, -1424376.9, -1457289.0, -73526.586, -0.032219388, 0.033851467, -1365487.4, -148270.16, 0.0000000006420841, 9.999181, 9.998775 
2.4499328e+2, 1.857945e+2, -1234485.0, -1219654.8, -21921.705, -0.027821358, 0.026419813, -1203928.0, -84701.57, 0.0, 9.999413, 9.99961 
2.4499927e+2, 1.9579464e+2, -984544.3, -1061756.1, -61403.92, 0.11029558, 0.051003087, -950618.44, 70605.4, 0.0, 10.000519, 9.999489 
2.4500337e+2, 2.057943e+2, -901063.8, -1077568.4, -94433.71, 0.12866727, 0.12361953, -860063.7, 63165.9, 0.0, 10.000864, 9.998551 
2.450062e+2, 2.1579343e+2, -853253.6, -1001058.0, -94460.71, 0.06691878, 0.15048687, -807221.0, 18022.094, 0.0, 10.000509, 9.998572 
2.4501036e+2, 2.257927e+2, -756155.75, -883759.1, -38513.55, 0.045912396, 0.21478963, -745432.6, -18180.38, 0.0, 10.000419, 9.998745 
2.4501549e+2, 2.3579197e+2, -650387.6, -791504.75, -70609.12, 0.058607507, 0.23903255, -621125.56, 8134.133, 0.0, 10.000515, 9.99866 
2.4501985e+2, 2.4579053e+2, -567260.8, -794925.2, -107028.766, 0.066058464, 0.27737093, -524846.6, 6428.1006, 0.0, 10.000806, 9.997833 
2.4502365e+2, 2.5578842e+2, -404065.44, -664295.75, -109304.84, 0.07718538, 0.2543213, -364246.78, 69049.87, 0.0, 10.001249, 9.997843 
2.4502732e+2, 2.657865e+2, -253655.86, -507638.53, -83918.06, 0.054348104, 0.26669326, -228433.39, 106880.36, 0.0, 10.0014715, 9.998131 
2.4503097e+2, 2.757846e+2, -145873.31, -409438.4, -92170.375, 0.018355321, 0.23298836, -116839.14, 120489.445, 0.0, 10.0015545, 9.998095 
2.450352e+2, 2.8578234e+2, -62284.523, -294244.38, -102806.375, 0.049606953, 0.1921187, -23278.984, 116069.39, 0.00000009803459, 10.001352, 9.998316 
2.450397e+2, 2.9577968e+2, -22603.963, -227653.4, -133244.72, 0.13469484, 0.057322886, 42994.703, 84368.42, 0.0000023443192, 10.000957, 9.99829 
2.4504629e+2, 3.0578023e+2, 80004.27, -76068.13, 1845.9038, 0.24772498, 0.26221496, 80026.1, 80026.1, 0.000014153015, 10.001027, 9.998964 
2.4505131e+2, 3.157784e+2, 181024.63, 42583.31, -211097.17, 0.051036656, 0.14419815, 333960.47, 333960.47, 0.000049336963, 10.001379, 9.9996 
2.5496727e+2, 1.2578864e+2, -1686642.5, -1442201.9, -122380.125, 0.05986818, -0.023831995, -1391463.5, 315823.06, 0.00062344765, 9.999019, 10.002327 
2.5497198e+2, 1.357936e+2, -1688847.5, -1457604.5, 56359.063, 0.034128737, 0.25801906, -1444599.9, 164631.81, 0.0003143659, 9.99866, 10.001724 
2.5497535e+2, 1.4579271e+2, -1715812.6, -1726218.3, 45624.7, -0.19176921, 0.14766373, -1675095.0, -163855.17, 0.00010539114, 9.999084, 9.998992 
2.549838e+2, 1.5579103e+2, -1462839.3, -1562599.0, -29469.766, 0.11119341, 0.05595993, -1454784.0, -41523.81, 0.000019009012, 10.000209, 9.998895 
2.549881e+2, 1.6579114e+2, -1325145.3, -1361388.0, -149343.33, 0.17077866, 0.14149655, -1192827.9, 122432.71, 0.0000013062046, 10.000113, 9.999656 
2.5498918e+2, 1.7579219e+2, -1371910.1, -1337863.6, -92134.62, 0.026475765, 0.25164318, -1261192.9, -43943.008, 0.000000000635992, 9.999143, 9.999609 
2.5499314e+2, 1.8579102e+2, -1289418.1, -1318655.1, 10101.49, -0.011262739, 0.21099092, -1286267.5, -167007.63, 0.0, 9.99934, 9.998969 
2.549993e+2, 1.9578809e+2, -1031809.94, -1145514.4, -11779.172, 0.032400798, -0.011953536, -1030602.5, -9316.25, 0.0, 10.000449, 9.998948 
2.5500357e+2, 2.0578732e+2, -911830.44, -1065703.9, -117780.42, 0.04111101, 0.035531845, -848084.94, 75210.375, 0.0, 10.00072, 9.998701 
2.550065e+2, 2.1578796e+2, -861548.8, -993062.06, -95883.52, 0.018339902, 0.19930491, -811040.25, 14253.341, 0.0, 10.0004015, 9.998678 
2.5501066e+2, 2.2578704e+2, -806961.5, -963667.0, -47048.695, 0.010967961, 0.26747715, -793921.0, -66615.234, 0.0, 10.000308, 9.99825 
2.5501576e+2, 2.357848e+2, -698352.6, -863341.0, -53935.51, 0.010710927, 0.18713179, -682285.5, -52955.56, 0.0, 10.000393, 9.998226 
2.5502038e+2, 2.4578352e+2, -563686.25, -768453.06, -101620.22, 0.014286521, 0.24950707, -521816.3, 9527.734, 0.0, 10.000726, 9.998053 
2.5502452e+2, 2.5578278e+2, -407351.9, -644475.2, -83994.35, 0.013996454, 0.3408066, -380614.16, 52738.375, 0.0, 10.001131, 9.998038 
2.550292e+2, 2.6578057e+2, -259755.39, -501693.34, -90665.16, 0.07047002, 0.31335074, -229550.08, 105821.92, 0.0, 10.001398, 9.998206 
2.5503442e+2, 2.757772e+2, -158801.45, -414235.06, -77243.7, 0.17876098, 0.12629902, -137259.52, 100141.47, 0.0, 10.001453, 9.9981165 
2.5503743e+2, 2.857741e+2, -111213.016, -377721.84, -130464.42, 0.11128526, 0.030337725, -57979.617, 81448.96, 0.00000013920514, 10.001288, 9.997766 
2.5503853e+2, 2.957709e+2, -77345.37, -306247.66, -136794.4, -0.10678934, -0.101779014, -13437.964, 28020.486, 0.0000022917138, 10.000821, 9.9978075 
2.5504556e+2, 3.0577284e+2, 103848.266, -29967.611, 9034.326, 0.04692272, 0.24048203, 104455.445, 104455.445, 0.0000129202135, 10.001035, 9.99928 
2.5505233e+2, 3.1577086e+2, 145851.16, -25731.086, -145034.97, -0.046240915, 0.091940515, 228568.95, 228568.95, 0.00004582413, 10.001344, 9.99916 
2.649658e+2, 1.2578423e+2, -1845247.0, -1598910.3, -11095.753, 0.06276479, -0.0008948153, -1598411.5, 108918.016, 0.00051409315, 9.998239, 10.001632 
2.6497173e+2, 1.3578844e+2, -1561603.9, -1434720.5, -12581.44, 0.10707717, 0.23389137, -1433485.0, 175797.33, 0.0002486299, 9.999655, 10.001416 
2.6497552e+2, 1.4578734e+2, -1618124.0, -1700177.3, 5525.2354, -0.112682976, 0.12571333, -1617753.6, -106461.15, 0.00007773356, 9.999859, 9.998794 
2.6498315e+2, 1.5578534e+2, -1566839.0, -1633754.5, 29385.24, 0.06419988, 0.021750292, -1555766.9, -142451.3, 0.000013419433, 9.999579, 9.998715 
2.649877e+2, 1.657854e+2, -1286203.3, -1332635.0, -56478.7, 0.115751125, 0.1057554, -1248355.0, 66960.46, 0.0000010267595, 10.000337, 9.999747 
2.6498973e+2, 1.7578672e+2, -987183.6, -1146855.4, -90420.25, 0.048064012, 0.23191698, -946397.8, 270903.38, 0.0000000012219834, 10.001756, 9.9996605 
2.64994e+2, 1.8578556e+2, -971798.25, -1200805.4, 9327.566, 0.030043593, 0.20989585, -971419.0, 147891.81, 0.0, 10.001675, 9.998655 
2.649999e+2, 1.9578253e+2, -1060363.3, -1196473.5, -13687.281, 0.059916012, 0.010067088, -1059000.5, -37661.45, 0.0, 10.000408, 9.998623 
2.6500422e+2, 2.0578134e+2, -954811.8, -1111381.3, -86342.15, 0.047620665, 0.040308435, -916548.44, 6804.191, 0.0, 10.000531, 9.99848 
2.6500726e+2, 2.1578136e+2, -705524.44, -945111.1, -118218.95, 0.0011100449, 0.16622785, -657014.0, 168342.94, 0.0, 10.001588, 9.998442 
2.6501164e+2, 2.2578026e+2, -596008.2, -863788.6, -60483.176, 0.009858629, 0.22903693, -582980.75, 144390.05, 0.0, 10.001762, 9.998239 
2.6501703e+2, 2.3577824e+2, -572409.94, -803102.5, -58256.97, 0.0627881, 0.17475659, -558533.0, 70859.625, 0.0, 10.001257, 9.998229 
2.6502162e+2, 2.45777e+2, -490254.78, -683989.2, -44292.457, 0.057708792, 0.21840714, -480608.72, 50796.918, 0.0, 10.001042, 9.998469 
2.6502553e+2, 2.5577614e+2, -380849.34, -585650.44, -33096.39, 0.00712541, 0.25616938, -375633.72, 57780.063, 0.0, 10.001136, 9.998426 
2.6503038e+2, 2.6577425e+2, -329402.28, -553289.25, -34288.492, 0.07779756, 0.2523976, -324268.7, 11162.688, 0.0, 10.000988, 9.998055 
2.650362e+2, 2.757717e+2, -277859.38, -478038.22, -57687.883, 0.25899616, 0.16097203, -262424.84, -24969.15, 0.0, 10.00068, 9.998044 
2.6503927e+2, 2.8576887e+2, -90960.04, -357514.13, -43150.965, 0.17139675, 0.08371449, -84148.62, 55332.926, 0.00000017298198, 10.001369, 9.997868 
2.6504004e+2, 2.9576525e+2, 218317.33, -153809.94, -26445.568, -0.12927401, -0.100131705, 220187.31, 261700.95, 0.000002277503, 10.002788, 9.997917 
2.6504728e+2, 3.05767e+2, 245749.56, -45117.41, 84340.836, 0.058942087, 0.25785327, 268435.9, 268435.9, 0.000011809922, 10.0023575, 9.99855 
2.650534e+2, 3.157643e+2, -50114.48, -192483.52, -149465.22, -0.007081369, 0.11031825, 44251.863, 44251.863, 0.000042458643, 10.000294, 9.998522 
2.7496284e+2, 1.2578331e+2, -2040618.4, -1999065.1, -11001.105, -0.12458699, 0.2509596, -1996332.4, -288998.25, 0.00042131313, 9.998213, 9.9988985 
2.749729e+2, 1.3578126e+2, -1711794.8, -1745566.1, 39684.617, 0.22826703, 0.103767514, -1685552.8, -76197.05, 0.0001952308, 9.999657, 9.999276 
2.7497697e+2, 1.4577986e+2, -1518319.6, -1488884.9, -23527.668, 0.009183316, -0.015376872, -1475850.6, 35517.355, 0.000056360343, 9.999838, 10.0002575 
2.7498123e+2, 1.5578096e+2, -1477622.8, -1444589.4, 37220.605, -0.11720458, 0.04486361, -1420385.4, -7032.02, 0.000009372096, 9.999565, 10.000023 
2.7498582e+2, 1.6578059e+2, -1346469.0, -1446900.5, -13074.289, -0.13445494, 0.06597111, -1344794.9, -29439.576, 0.0000008660051, 10.000293, 9.998979 
2.7499044e+2, 1.757789e+2, -1045320.0, -1256567.3, -33326.523, -0.08904323, -0.030573566, -1040187.1, 177184.47, 0.000000004874734, 10.001715, 9.998923 
2.7499548e+2, 1.8577813e+2, -988941.9, -1214469.9, -50011.824, -0.014880512, 0.022473745, -978349.06, 141030.61, 0.0, 10.001581, 9.998607 
2.7500075e+2, 1.9577797e+2, -1075308.1, -1210569.1, -41746.363, 0.075278856, 0.11384072, -1063461.4, -42078.977, 0.0, 10.00034, 9.998557 
2.750049e+2, 2.0577644e+2, -1014145.25, -1209790.3, -57405.004, 0.039232977, 0.14837442, -998545.6, -75145.16, 0.0, 10.000425, 9.997857 
2.7500808e+2, 2.1577363e+2, -764050.5, -1031459.9, -70567.195, -0.09922988, 0.051235158, -746570.94, 78861.87, 0.0, 10.001437, 9.997919 
2.7501294e+2, 2.2577237e+2, -593564.5, -820925.6, -90260.445, -0.059094504, 0.10038233, -562089.2, 165357.98, 0.0, 10.001601, 9.998612 
2.7501896e+2, 2.3577216e+2, -565111.4, -756543.8, -65284.684, 0.10523902, 0.19083479, -544966.94, 84482.336, 0.0, 10.00112, 9.998618 
2.7502322e+2, 2.457708e+2, -458608.2, -599006.25, -52172.9, 0.08936398, 0.17255574, -441343.4, 90117.4, 0.0, 10.000959, 9.999091 
2.7502617e+2, 2.5576833e+2, -357756.56, -516879.1, -19451.03, -0.065073065, -0.010964706, -355413.4, 78068.39, 0.0, 10.001037, 9.99895 
2.7503058e+2, 2.6576748e+2, -364984.16, -609559.25, -60282.688, -0.030523973, 0.08056016, -350933.0, -15440.396, 0.0, 10.000921, 9.997698 
2.75036e+2, 2.7576786e+2, -315009.97, -530050.0, -53721.867, 0.14576894, 0.31881976, -302336.0, -64840.48, 0.00000000009324417, 10.000575, 9.997738 
2.750405e+2, 2.8576618e+2, -38959.23, -238276.61, -2147.8567, 0.1261741, 0.33172762, -38936.086, 100574.94, 0.00000023612336, 10.001326, 9.998704 
2.750438e+2, 2.9576248e+2, 256037.6, -55992.57, 30862.479, -0.06852094, 0.054642256, 259060.88, 300601.9, 0.0000024951785, 10.0027, 9.998632 
2.7505088e+2, 3.0576286e+2, 129058.29, -278970.7, -945.9637, 0.15831208, 0.32269403, 129060.48, 129060.48, 0.0000116764495, 10.002333, 9.996948 
2.7505374e+2, 3.1575876e+2, -137446.8, -343296.25, -154216.81, -0.06432818, 0.20383082, -54962.992, -54962.992, 0.00004063622, 10.000167, 9.997546 
2.849627e+2, 1.2577853e+2, -1793025.8, -1944875.3, -90288.58, -0.04229915, 0.27714476, -1750981.9, -43603.973, 0.00034670465, 10.000219, 9.998289 
2.849732e+2, 1.3577525e+2, -1649767.5, -1768687.1, 67406.95, 0.27316773, 0.061199963, -1619343.1, -9929.607, 0.00015383656, 10.000337, 9.998776 
2.849776e+2, 1.4577407e+2, -1468238.4, -1463549.9, -695.98755, 0.08225499, -0.013901526, -1463448.8, 47975.742, 0.00004093297, 10.000182, 10.000263 
2.8498092e+2, 1.557754e+2, -1403909.4, -1404397.8, -71725.766, -0.11858267, 0.06785991, -1332427.4, 80979.91, 0.0000066741927, 10.000046, 10.000068 
2.849858e+2, 1.6577476e+2, -1371902.1, -1458417.9, -75572.77, -0.1468045, 0.06110961, -1328082.5, -12671.356, 0.00000074756446, 10.000119, 9.99899 
2.8499183e+2, 1.757725e+2, -1243669.9, -1356188.4, -63496.137, -0.048642356, -0.08887691, -1215094.8, 2337.606, 0.000000006090155, 10.000362, 9.998903 
2.8499705e+2, 1.8577176e+2, -1096291.9, -1274908.6, -70061.57, 0.024838725, -0.02825766, -1072089.9, 47351.063, 0.0, 10.000886, 9.998523 
2.8500164e+2, 1.95772e+2, -903384.3, -1139473.6, -86753.305, 0.07394992, 0.11544456, -874934.4, 146506.78, 0.0, 10.001569, 9.998454 
2.850059e+2, 2.0577058e+2, -817027.5, -1122273.9, -37499.516, 0.03527746, 0.16777293, -812488.2, 110970.555, 0.0, 10.001822, 9.997774 
2.8500986e+2, 2.157677e+2, -737653.44, -1025835.4, -38224.195, -0.067483485, 0.07236983, -732669.6, 92821.75, 0.0, 10.001659, 9.997845 
2.8501487e+2, 2.2576645e+2, -629652.8, -809158.4, -55688.07, 0.00017841106, 0.11213566, -613780.2, 113724.625, 0.0, 10.001232, 9.998865 
2.8502056e+2, 2.3576632e+2, -623747.75, -758973.56, -60314.703, 0.1908313, 0.18541497, -600755.06, 28749.697, 0.0, 10.00061, 9.99884 
2.8502455e+2, 2.4576487e+2, -548739.25, -671330.56, -37652.152, 0.16003837, 0.15975933, -538098.5, -6580.496, 0.0, 10.000445, 9.998846 
2.8502735e+2, 2.557623e+2, -427208.66, -566802.6, -91477.08, -0.026101163, -0.012212907, -381941.88, 51600.203, 0.0, 10.000635, 9.998796 
2.8503144e+2, 2.657616e+2, -324297.94, -522935.22, -99584.05, -0.028258136, 0.07192024, -282971.0, 52579.598, 0.0, 10.0009165, 9.998292 
2.8503665e+2, 2.757622e+2, -179767.58, -402898.34, -43205.617, 0.12742218, 0.27234325, -171693.67, 65855.35, 0.0000000018932573, 10.001224, 9.998301 
2.850417e+2, 2.857611e+2, -59659.758, -243109.02, 58056.598, 0.13010904, 0.30757454, -42830.363, 96729.55, 0.00000028816427, 10.001156, 9.998759 
2.8504616e+2, 2.9575846e+2, 12659.921, -156493.06, 8287.957, -0.0029218618, 0.13157786, 13065.034, 54647.207, 0.0000027347362, 10.000969, 9.998767 
2.8505337e+2, 3.057584e+2, -8657.38, -352934.03, -10847.467, 0.23548095, 0.34809944, -8315.937, -8315.937, 0.000012525966, 10.001405, 9.996882 
2.8505534e+2, 3.157548e+2, 105890.82, -195019.05, -50076.223, 0.01715661, 0.28740156, 114005.48, 114005.48, 0.000040586296, 10.001703, 9.997816 
2.9496464e+2, 1.2577003e+2, -1684215.1, -1731166.5, -138455.47, 0.053051468, 0.09546329, -1567259.3, 140200.11, 0.00028489743, 10.000258, 9.999741 
2.949724e+2, 1.3577041e+2, -1573051.3, -1613185.6, 75542.28, 0.12463977, 0.10769767, -1514956.3, 94499.4, 0.000121053716, 10.000357, 9.999832 
2.9497713e+2, 1.4576988e+2, -1569007.4, -1676869.6, -24837.031, -0.019130934, 0.13230465, -1563563.1, -52100.836, 0.000029834508, 10.000186, 9.998804 
2.9498178e+2, 1.5576854e+2, -1496953.8, -1592393.4, -66943.586, -0.068983845, 0.08656571, -1462462.8, -48984.684, 0.000004731658, 10.000023, 9.998789 
2.949873e+2, 1.657679e+2, -1326102.0, -1347831.9, -76877.61, -0.034111083, 0.096688285, -1259325.4, 56158.15, 0.00000054097734, 10.00006, 9.999771 
2.949935e+2, 1.757677e+2, -1197561.3, -1248120.4, -38127.234, 0.052813727, 0.06994186, -1177094.3, 40387.492, 0.0000000012704189, 10.000322, 9.999654 
2.9499832e+2, 1.8576662e+2, -1117555.0, -1305520.5, -55963.754, 0.03624278, 0.06932609, -1102154.5, 17338.332, 0.0, 10.00082, 9.998348 
2.9500213e+2, 1.9576462e+2, -923026.25, -1163822.3, -52086.883, -0.06230308, 0.00572004, -912242.25, 109273.625, 0.0, 10.001498, 9.99832 
2.9500687e+2, 2.0576368e+2, -805534.0, -1069179.0, -54139.715, -0.07175064, 0.091630094, -794849.4, 128678.84, 0.0, 10.001697, 9.9981985 
2.9501218e+2, 2.1576343e+2, -729132.56, -974691.75, -32492.262, -0.026154185, 0.21605591, -724905.94, 100628.016, 0.0, 10.001517, 9.998261 
2.950171e+2, 2.2576244e+2, -641397.06, -799174.56, -90916.47, 0.074278645, 0.2550913, -599914.56, 127629.65, 0.0, 10.001087, 9.9990015 
2.9502162e+2, 2.3576075e+2, -639483.25, -760364.8, -68276.914, 0.21215183, 0.15763587, -608738.4, 20820.852, 0.0, 10.000479, 9.998893 
2.950254e+2, 2.4575931e+2, -634270.1, -829999.6, -42473.15, 0.17378747, 0.18772803, -625450.9, -93874.72, 0.0, 10.000362, 9.9978 
2.9502857e+2, 2.5575793e+2, -501943.53, -700287.44, -73298.29, 0.0046424954, 0.24020004, -477795.94, -44200.254, 0.0, 10.000537, 9.997933 
2.9503265e+2, 2.6575652e+2, -220743.13, -295211.4, -97257.73, -0.023903012, 0.20651229, -153835.8, 181771.7, 0.0, 10.000862, 9.999881 
2.950376e+2, 2.7575484e+2, -93444.54, -200921.22, -23470.893, 0.07005506, 0.02338643, -88542.52, 149073.36, 0.0000000016821552, 10.001125, 9.999735 
2.9504248e+2, 2.8575376e+2, -109481.586, -340948.25, 37237.77, 0.06432428, 0.031681523, -103638.375, 35987.695, 0.00000022409213, 10.00113, 9.998102 
2.9504687e+2, 2.9575312e+2, -32877.188, -242172.31, 24069.629, -0.06555595, 0.12356377, -30144.773, 11492.501, 0.0000026534976, 10.000918, 9.998212 
2.950545e+2, 3.0575347e+2, 95937.38, -131779.95, -2041.7288, 0.17727688, 0.3268099, 95955.69, 95955.69, 0.00001292508, 10.001387, 9.99841 
2.9505733e+2, 3.1575197e+2, 205407.06, 18348.031, 36113.453, -0.022878146, 0.32019982, 212136.97, 212136.97, 0.000040883584, 10.001662, 9.999304 
3.0496547e+2, 1.2576132e+2, -1724653.6, -1658636.3, -146082.67, 0.15916778, -0.03914038, -1541879.4, 165664.36, 0.00023189843, 9.999593, 10.000567 
3.0497184e+2, 1.3576327e+2, -1540852.3, -1543106.4, -38152.36, 0.044676576, 0.075971, -1503810.3, 105712.82, 0.000094942065, 10.000322, 10.000342 
3.0497736e+2, 1.4576353e+2, -1524829.5, -1646162.9, -83251.27, -0.022590663, 0.1536412, -1482485.5, 29037.04, 0.000021738364, 10.000479, 9.9988575 
3.049828e+2, 1.5576196e+2, -1416984.5, -1546379.1, -44438.19, 0.016643792, 0.080595195, -1403193.0, 10349.614, 0.0000030875526, 10.00055, 9.998842 
3.049884e+2, 1.6576153e+2, -1240812.1, -1282977.9, -923.1802, 0.0546725, 0.09724639, -1240791.9, 74754.74, 0.0000002653173, 10.0005245, 9.999997 
3.0499405e+2, 1.757619e+2, -1180116.5, -1215126.1, -29017.375, 0.08563312, 0.1040412, -1163732.9, 53806.68, 0.0, 10.000323, 9.999885 
3.049989e+2, 1.8576102e+2, -1148473.6, -1309300.4, -11902.01, 0.034380566, 0.10834516, -1147597.6, -28048.918, 0.0, 10.000559, 9.998454 
3.0500314e+2, 1.9575895e+2, -979006.1, -1183910.3, -14971.193, -0.08330905, 0.030867731, -977918.0, 43654.61, 0.0, 10.001064, 9.998408 
3.0500808e+2, 2.0575806e+2, -863523.75, -1033238.4, -9501.784, -0.078263186, 0.08756024, -862993.44, 60589.695, 0.0, 10.001015, 9.998782 
3.0501357e+2, 2.15758e+2, -834773.6, -972920.25, -1131.5746, 0.017631322, 0.1742983, -834764.4, -9180.034, 0.0, 10.000549, 9.998751 
3.0501837e+2, 2.25757e+2, -681632.56, -856273.5, -34443.316, 0.10801127, 0.20899288, -675085.0, 52509.844, 0.0, 10.000973, 9.998669 
3.050227e+2, 2.357552e+2, -433242.7, -692489.8, -74159.06, 0.1982556, 0.13317454, -413528.25, 216085.42, 0.0, 10.002036, 9.998609 
3.050263e+2, 2.4575426e+2, -431934.78, -697059.8, -11016.628, 0.17187774, 0.20877549, -431477.8, 100149.06, 0.0, 10.001615, 9.998107 
3.050294e+2, 2.557538e+2, -528365.1, -676852.25, 42571.09, 0.056271404, 0.32380718, -517025.97, -83388.88, 0.0, 10.000214, 9.998246 
3.0503365e+2, 2.6575232e+2, -294826.1, -328914.3, 68862.055, 0.021682503, 0.26373196, -240930.19, 94718.83, 0.0, 10.0003395, 9.999904 
3.050389e+2, 2.757498e+2, -12689.526, -161203.72, -389.29395, 0.070193395, -0.0050504836, -12688.506, 224975.9, 0.00000000014964384, 10.001678, 9.999741 
3.0504382e+2, 2.8574866e+2, -11704.633, -305794.4, 13507.548, 0.058553778, 0.0032254672, -11085.534, 128590.234, 0.00000013461268, 10.001872, 9.997975 
3.0504817e+2, 2.9574868e+2, -12632.8, -243455.05, 20928.477, -0.03367819, 0.17470908, -10750.579, 30931.68, 0.0000024184974, 10.001128, 9.998088 
3.0505574e+2, 3.0574828e+2, 136749.52, -88927.82, 23759.871, 0.16040517, 0.30064607, 139223.88, 139223.88, 0.00001259153, 10.001565, 9.998631 
3.050593e+2, 3.157466e+2, 351219.8, 119684.39, -52171.45, -0.018921208, 0.253194, 362432.5, 362432.5, 0.00003964243, 10.002531, 9.999597 
3.1496468e+2, 1.2575263e+2, -1707300.6, -1621158.5, -153299.52, 0.061846577, -0.09514652, -1504994.4, 202634.27, 0.0001887222, 9.999597, 10.000818 
3.1497103e+2, 1.3575405e+2, -1554871.5, -1548855.6, -7924.9683, -0.09030564, -0.020875623, -1543387.0, 66226.88, 0.00007509751, 10.000253, 10.000327 
3.149778e+2, 1.457552e+2, -1424842.0, -1438567.8, -96504.45, -0.06287761, 0.070266135, -1334956.8, 176646.52, 0.00001598166, 10.000462, 10.000294 
3.149837e+2, 1.557557e+2, -1323577.5, -1354005.8, -30755.154, 0.01614856, 0.055211984, -1304479.1, 109121.33, 0.00000170519, 10.000555, 10.000158 
3.1498882e+2, 1.6575567e+2, -1270165.6, -1337514.1, -25558.297, 0.01768042, 0.07226684, -1261564.9, 54035.96, 0.000000057148895, 10.000487, 9.999648 
3.1499326e+2, 1.757551e+2, -1206455.0, -1259359.1, -26211.47, -0.057220075, 0.018891614, -1195668.0, 21937.658, 0.0, 10.000276, 9.999607 
3.1499842e+2, 1.8575501e+2, -1136478.9, -1265998.8, -4907.9346, -0.097297, 0.09842612, -1136293.3, -16685.197, 0.0, 10.000476, 9.998793 
3.150042e+2, 1.9575508e+2, -963055.0, -1130988.0, 13574.684, -0.109437704, 0.19562551, -961964.8, 59646.176, 0.0, 10.000981, 9.99881 
3.150092e+2, 2.0575386e+2, -838330.56, -946104.44, -39814.105, -0.08968402, 0.16441938, -825217.75, 98404.445, 0.0, 10.000872, 9.999448 
3.1501368e+2, 2.1575154e+2, -817245.9, -901661.2, -2128.1372, -0.052831966, -0.04004546, -817192.25, 8448.913, 0.0, 10.000405, 9.999307 
3.150184e+2, 2.257503e+2, -753934.6, -979226.5, -5681.0874, -0.011564134, -0.013781151, -753791.5, -26135.906, 0.0, 10.000853, 9.997888 
3.1502327e+2, 2.3574969e+2, -493978.44, -789472.3, -29372.764, 0.03284565, 0.11179376, -491087.0, 138581.22, 0.0, 10.001908, 9.99801 
3.1502688e+2, 2.4574964e+2, -324179.34, -461535.47, -77048.984, 0.039646048, 0.21511313, -289642.94, 242028.06, 0.0, 10.00156, 9.99975 
3.1502938e+2, 2.5574988e+2, -444787.4, -477937.38, 4966.923, 0.011349819, 0.23615353, -444059.2, -10392.0625, 0.0, 10.0001, 9.999669 
3.1503406e+2, 2.6574904e+2, -404289.97, -546820.3, 108348.266, 0.0028418233, 0.25354326, -345870.63, -10195.657, 0.0, 10.000296, 9.99843 
3.1504032e+2, 2.75747e+2, -116304.44, -361235.06, 57022.156, 0.012870267, 0.17823954, -103679.86, 134015.33, 0.00000000001473293, 10.001604, 9.998407 
3.150454e+2, 2.8574565e+2, 3703.1938, -259131.39, -26930.309, -0.0015473805, 0.2092665, 6434.1265, 146144.06, 0.000000108201135, 10.001817, 9.998317 
3.150494e+2, 2.9574496e+2, -13228.069, -221738.77, 12189.461, -0.056130674, 0.27523202, -12517.896, 29200.754, 0.0000023186144, 10.001028, 9.998285 
3.150566e+2, 3.057428e+2, 63276.492, -238774.19, 55185.395, 0.06313837, 0.271184, 73043.195, 73043.195, 0.000012381474, 10.001546, 9.997613 
3.1506073e+2, 3.157386e+2, 292531.94, 53.909893, 33803.625, -0.19670822, 0.06378662, 296388.0, 296388.0, 0.000038038284, 10.002505, 9.998793 
3.249649e+2, 1.2574638e+2, -1539801.0, -1558071.4, -5707.923, 0.07527901, -0.047569215, -1538164.4, 169525.92, 0.0001575099, 10.00079, 10.000682 
3.2497096e+2, 1.357468e+2, -1641287.5, -1624794.9, 59583.723, -0.08818315, -0.042767636, -1572889.5, 36796.1, 0.00006189271, 9.999762, 10.000055 
3.2497835e+2, 1.4574786e+2, -1544696.0, -1438235.8, -20505.834, 0.010595133, 0.02084583, -1434422.6, 77253.04, 0.000012633238, 9.999374, 10.000831 
3.249845e+2, 1.5574951e+2, -1377568.1, -1326491.6, -47235.824, 0.078360744, 0.07075368, -1298332.4, 115327.67, 0.0000008198343, 9.999933, 10.000659 
3.2498953e+2, 1.6574965e+2, -1297268.4, -1370710.3, -45765.6, 0.049810983, 0.08949747, -1275312.9, 40346.547, 0.000000004124255, 10.000424, 9.999432 
3.2499358e+2, 1.7574844e+2, -1131752.9, -1243899.3, -66325.88, -0.071929306, -0.002803749, -1100973.8, 116698.33, 0.0, 10.000889, 9.999412 
3.249987e+2, 1.8574862e+2, -1034651.7, -1134371.6, -9756.384, -0.123825945, 0.07346549, -1033706.1, 85965.01, 0.0, 10.000826, 9.9995165 
3.250047e+2, 1.9574973e+2, -1015472.3, -1079119.0, 9611.314, -0.1181537, 0.20143136, -1014052.6, 7608.6567, 0.0, 10.000307, 9.999476 
3.2500985e+2, 2.0574868e+2, -915200.75, -1007881.0, -44639.543, -0.08278842, 0.16559437, -897197.25, 26473.578, 0.0, 10.000437, 9.999235 
3.250145e+2, 2.1574588e+2, -747040.7, -884256.25, -92176.76, -0.029938871, -0.06719722, -700741.6, 124954.836, 0.0, 10.000953, 9.999163 
3.2501924e+2, 2.2574487e+2, -693907.25, -890420.3, -30062.41, -0.01214532, -0.039822113, -689411.2, 38296.895, 0.0, 10.001004, 9.998422 
3.2502404e+2, 2.3574504e+2, -627935.2, -802324.9, 21806.23, -0.017734721, 0.10610152, -625249.8, 4461.158, 0.0, 10.000755, 9.998477 
3.2502773e+2, 2.4574478e+2, -432874.56, -545043.44, -70396.46, 0.006331355, 0.18395424, -398952.75, 132761.69, 0.0, 10.000938, 9.999481 
3.2503054e+2, 2.5574413e+2, -251180.89, -416144.9, -147379.48, 0.0515128, 0.14190565, -164772.42, 268946.47, 0.0, 10.00155, 9.999396 
3.250353e+2, 2.6574323e+2, -308568.9, -554942.44, -23252.74, 0.06067099, 0.19133003, -306393.5, 29335.88, 0.0, 10.001197, 9.99794 
3.2504156e+2, 2.7574173e+2, -356509.13, -523323.4, -25686.63, 0.058439087, 0.22111939, -352643.38, -114895.57, 0.00000000010851988, 10.000167, 9.997982 
3.250467e+2, 2.8574038e+2, -182566.72, -329243.7, -56562.76, 0.027775474, 0.26337764, -163288.36, -23525.607, 0.00000014604628, 10.000429, 9.998522 
3.2505095e+2, 2.9573935e+2, 83051.43, -154474.36, -51540.707, -0.021085769, 0.27357924, 93753.086, 135525.53, 0.0000023415487, 10.001593, 9.998484 
3.250582e+2, 3.0573678e+2, 53473.273, -256396.92, 41495.47, 0.08023518, 0.22689438, 58933.805, 58933.805, 0.000012312151, 10.00157, 9.997459 
3.2506305e+2, 3.1573263e+2, 8877.597, -110424.414, 35827.652, -0.09889359, 0.039067205, 18810.088, 18810.088, 0.000036624067, 10.000482, 9.998985 
3.349653e+2, 1.2574266e+2, -1582040.1, -1636587.5, -54803.39, -0.028786782, 0.11491927, -1548098.9, 159628.86, 0.00013854062, 10.000761, 10.000151 
3.349712e+2, 1.3574179e+2, -1680855.4, -1690784.3, 23934.32, -0.06948043, 0.03606459, -1661376.1, -51639.668, 0.000055370125, 9.999721, 9.999607 
3.3497873e+2, 1.4574164e+2, -1575564.5, -1488918.6, -18842.053, 0.07609819, 0.020722516, -1484998.6, 26739.773, 0.000011804474, 9.999317, 10.00051 
3.3498484e+2, 1.557437e+2, -1398720.3, -1362157.6, -13851.3125, 0.08931361, 0.13873394, -1357502.9, 56216.203, 0.00000057438905, 9.999905, 10.000425 
3.3499008e+2, 1.6574365e+2, -1317158.1, -1403639.5, -39435.957, 0.03414505, 0.15814905, -1301875.8, 13844.917, 0.00000000201948, 10.000383, 9.9992285 
3.3499482e+2, 1.7574185e+2, -1143427.6, -1263388.4, -38202.26, -0.07248392, 0.029488528, -1132295.0, 85444.55, 0.0, 10.000866, 9.999291 
3.3499947e+2, 1.8574178e+2, -975420.5, -986721.1, -42254.047, -0.1583298, 0.028407224, -938440.7, 181297.81, 0.0, 10.000721, 10.000582 
3.350042e+2, 1.9574282e+2, -963057.94, -949698.3, 3528.1052, -0.22431365, 0.041955955, -948823.8, 72900.445, 0.0, 10.000224, 10.0004015 
3.3500966e+2, 2.0574248e+2, -1003942.2, -1166603.0, -37894.785, -0.1649446, 0.091634616, -995547.2, -71817.8, 0.0, 10.000327, 9.9982 
3.3501574e+2, 2.1574095e+2, -825113.8, -1010784.6, -63841.52, -0.02167393, 0.08801203, -805280.94, 20469.82, 0.0, 10.000802, 9.998367 
3.350206e+2, 2.2574066e+2, -585448.94, -634779.44, -52320.37, 0.0022254677, 0.126756, -552271.3, 175481.73, 0.0, 10.0008745, 10.000237 
3.3502454e+2, 2.3574123e+2, -540964.1, -583849.9, 22955.852, -0.06424699, 0.12878567, -530994.1, 98747.8, 0.0, 10.000602, 10.000046 
3.3502856e+2, 2.457398e+2, -583282.25, -850461.3, -58349.883, -0.03100221, 0.12704854, -571095.0, -39338.887, 0.0, 10.000899, 9.997404 
3.3503252e+2, 2.557367e+2, -398799.66, -699381.94, -118271.21, 0.067733176, 0.044552717, -357843.56, 75947.63, 0.0, 10.0014515, 9.997497 
3.3503717e+2, 2.6573497e+2, -285797.53, -501751.1, -74420.78, 0.10227205, 0.083201885, -262635.3, 73175.77, 0.0, 10.001169, 9.998319 
3.3504227e+2, 2.75734e+2, -343656.88, -475765.2, -46300.51, 0.08145865, 0.124995835, -329045.75, -91223.28, 0.000000000044508567, 10.000076, 9.998351 
3.3504742e+2, 2.8573295e+2, -169898.31, -303372.28, -23675.59, 0.030544301, 0.16645107, -165823.16, -25989.578, 0.00000018851506, 10.000419, 9.998708 
3.3505246e+2, 2.9573202e+2, 88598.17, -134541.28, 1532.8824, -0.06676634, 0.16857365, 88608.7, 130450.9, 0.0000023038672, 10.001542, 9.998652 
3.3506012e+2, 3.057301e+2, 88132.14, -182233.9, -6459.0913, 0.08857539, 0.15675741, 88286.36, 88286.36, 0.000011796056, 10.001559, 9.997975 
3.350655e+2, 3.157286e+2, 67579.086, 31901.783, 23041.563, 0.040050577, 0.1735242, 78880.29, 78880.29, 0.000034748333, 10.00038, 10.000023 
3.449667e+2, 1.2573774e+2, -1524460.3, -1665574.4, -2254.1602, 0.017620524, 0.1284936, -1524424.3, 183351.36, 0.00012841672, 10.001411, 9.999637 
3.4497115e+2, 1.35737e+2, -1571016.0, -1687275.6, -1660.2584, -0.07814822, 0.104453534, -1570992.4, 38792.152, 0.00005393956, 10.000671, 9.999188 
3.4497863e+2, 1.4573601e+2, -1476750.5, -1482102.1, 36155.324, 0.1035806, 0.04425719, -1443172.1, 68623.03, 0.00001321429, 10.000182, 10.000133 
3.4498557e+2, 1.5573713e+2, -1382441.9, -1397263.0, -2827.1414, 0.169273, 0.11095311, -1381920.9, 31863.66, 0.00000089811203, 10.000205, 10.000036 
3.4499112e+2, 1.6573721e+2, -1329003.3, -1379985.3, 5138.2744, 0.11724493, 0.1463115, -1328490.5, -12706.3, 0.0000000015154811, 10.0001545, 9.999511 
3.4499556e+2, 1.7573631e+2, -1254412.8, -1287890.0, 20568.318, -0.032007746, 0.07704325, -1244632.8, -26839.262, 0.0, 9.999976, 9.999555 
3.450002e+2, 1.8573593e+2, -1105902.6, -1086834.6, -16836.0, -0.11106074, 0.050451703, -1077020.5, 42775.14, 0.0, 9.99998, 10.0002575 
3.4500518e+2, 1.9573571e+2, -1007695.4, -1004873.56, -92423.6, -0.13224724, -0.027433023, -913850.1, 107944.78, 0.0, 10.000052, 10.000115 
3.4501064e+2, 2.0573573e+2, -963343.8, -1099903.4, -71767.18, -0.10040254, 0.050101288, -932564.75, -8768.18, 0.0, 10.000405, 9.998618 
3.450164e+2, 2.1573578e+2, -786170.0, -955263.75, -17772.99, -0.03573536, 0.16280207, -784322.1, 41479.97, 0.0, 10.000905, 9.998701 
3.450213e+2, 2.2573552e+2, -581990.56, -660106.6, -52585.0, -0.016313482, 0.20191222, -555545.06, 172258.92, 0.0, 10.001016, 9.999998 
3.4502557e+2, 2.3573491e+2, -522674.2, -602765.7, -152596.88, -0.027234497, 0.11328914, -404956.0, 224848.53, 0.0, 10.000838, 9.999807 
3.4502995e+2, 2.4573313e+2, -588552.06, -865880.7, -177320.75, 0.020333383, 0.09359587, -502115.4, 29706.861, 0.0, 10.0009365, 9.997279 
3.4503427e+2, 2.5573018e+2, -431708.78, -734966.56, -119550.91, 0.110409535, 0.04531757, -390247.7, 43607.945, 0.0, 10.001302, 9.997336 
3.450388e+2, 2.6572835e+2, -206101.58, -454880.75, -31909.742, 0.12770441, 0.0794088, -202073.88, 133802.14, 0.0, 10.001686, 9.998388 
3.450434e+2, 2.7572718e+2, -39078.805, -318696.6, -49521.07, 0.09329817, 0.09213228, -30567.56, 207321.31, 0.0, 10.0021305, 9.99844 
3.4504825e+2, 2.857263e+2, -18397.584, -201395.95, -11608.047, 0.031022826, 0.13844639, -17664.197, 122233.15, 0.00000016974016, 10.001369, 9.998935 
3.4505314e+2, 2.9572585e+2, -150748.84, -221368.2, -8799.745, -0.057469547, 0.16757882, -149668.84, -107767.96, 0.0000020169734, 9.999792, 9.998892 
3.4506112e+2, 3.0572385e+2, -153810.05, -248212.42, 20008.387, 0.1403972, 0.10834694, -149744.4, -149744.4, 0.0000103175025, 9.999661, 9.998446 
3.450675e+2, 3.157234e+2, 102935.28, 112960.21, 4382.17, 0.21663189, 0.17845587, 114605.69, 114605.69, 0.000031962787, 10.000348, 10.000587 
3.5496843e+2, 1.2573159e+2, -1568070.8, -1750098.5, -29351.064, -0.025050227, -0.012100323, -1563455.1, 144379.4, 0.00012227354, 10.001387, 9.999067 
3.5497043e+2, 1.3573249e+2, -1587818.0, -1720748.1, -19403.986, -0.24923791, 0.16118085, -1585043.4, 24786.148, 0.00005490219, 10.000686, 9.998941 
3.5497773e+2, 1.457311e+2, -1515096.1, -1570613.9, 20753.291, -0.046313163, 0.10198727, -1508195.9, 3648.635, 0.000015641235, 10.000208, 9.999522 
3.5498646e+2, 1.5572983e+2, -1418551.6, -1482498.5, 8865.018, 0.20133702, -0.0032394389, -1417345.5, -3488.7803, 0.0000017221555, 10.00024, 9.999441 
3.5499215e+2, 1.6573031e+2, -1278966.5, -1260585.5, -16819.154, 0.17809477, 0.05649248, -1250609.6, 65241.066, 0.000000007086625, 10.00009, 10.000358 
3.549954e+2, 1.7573184e+2, -1211023.8, -1190242.4, 26390.877, -0.07192708, 0.14185603, -1172270.3, 45563.508, 0.0, 9.999943, 10.000239 
3.5500056e+2, 1.857311e+2, -1241297.3, -1344650.0, -23271.12, -0.10195142, 0.13975455, -1236299.3, -116456.62, 0.0, 9.999881, 9.998536 
3.5500732e+2, 1.9572859e+2, -1121438.6, -1221976.3, -76032.84, 0.049796633, 0.0046614027, -1080559.5, -58688.08, 0.0, 9.9999695, 9.998665 
3.550124e+2, 2.0572864e+2, -856897.1, -849597.0, -63803.54, 0.01332089, 0.054695368, -789339.2, 134531.61, 0.0, 10.000277, 10.000402 
3.5501614e+2, 2.1573043e+2, -700431.44, -746327.3, 11441.576, -0.17502338, 0.16466568, -697737.3, 128112.33, 0.0, 10.000771, 10.000201 
3.5502103e+2, 2.2572948e+2, -762017.7, -1006661.6, -68352.086, -0.16623451, 0.1896723, -744215.9, -16355.561, 0.0, 10.000897, 9.997676 
3.5502675e+2, 2.3572627e+2, -686452.3, -910114.0, -146669.64, -0.0135624595, 0.07328104, -613843.1, 16053.73, 0.0, 10.000701, 9.997764 
3.5503143e+2, 2.4572486e+2, -485944.44, -628978.6, -173388.13, 0.055138305, 0.09612663, -369903.16, 162008.63, 0.0, 10.000839, 9.998949 
3.5503533e+2, 2.5572455e+2, -341432.34, -519041.2, -93896.2, 0.06374837, 0.14427066, -300997.75, 132914.67, 0.0, 10.001187, 9.99887 
3.550398e+2, 2.657234e+2, -227905.61, -488414.9, -23724.463, 0.034293618, 0.18379481, -225762.66, 110161.03, 0.0, 10.001633, 9.998182 
3.5504463e+2, 2.7572134e+2, -68130.83, -355639.25, -23894.92, -0.024514845, 0.129415, -66158.445, 171787.2, 0.0, 10.002032, 9.998231 
3.5504884e+2, 2.857205e+2, -10889.762, -178020.05, -82088.56, -0.07531758, 0.17947957, 22684.605, 162638.47, 0.00000011654808, 10.00134, 9.999109 
3.550526e+2, 2.9572073e+2, -146565.55, -195810.17, -46384.246, -0.12376752, 0.25645852, -118673.516, -76723.62, 0.0000016052002, 9.999725, 9.999099 
3.5506088e+2, 3.0571792e+2, -107487.97, -161547.92, 39816.195, 0.12100728, 0.07605267, -86393.63, -86393.63, 0.000008325357, 9.999685, 9.99904 
3.5506812e+2, 3.1571758e+2, 97782.5, 111599.16, 66926.03, 0.17624749, 0.10457744, 171972.47, 171972.47, 0.000028551576, 10.000293, 10.000614 
3.6496973e+2, 1.2572658e+2, -1668426.4, -1840128.0, 14280.175, 0.009906859, -0.017798042, -1667246.9, 40637.094, 0.000118926524, 10.000867, 9.998712 
3.6497217e+2, 1.3572711e+2, -1457061.3, -1673849.6, -44426.96, -0.17863452, 0.1348291, -1448310.0, 161572.8, 0.000056465244, 10.001648, 9.998801 
3.649788e+2, 1.4572577e+2, -1341327.8, -1520714.8, 33869.285, -0.020578846, 0.100070745, -1335146.0, 176751.6, 0.00001794202, 10.001558, 9.999209 
3.6498702e+2, 1.557244e+2, -1335796.8, -1475825.9, 21832.922, 0.20705152, 0.020745674, -1332471.5, 81439.266, 0.000002788093, 10.000962, 9.999137 
3.649926e+2, 1.6572456e+2, -1218537.4, -1257994.8, -5272.233, 0.1943491, 0.07606846, -1217845.0, 98063.65, 0.00000008230677, 10.000621, 10.000122 
3.6499572e+2, 1.7572565e+2, -1167094.6, -1192388.6, -72901.8, -0.046570104, 0.1426415, -1105751.0, 112145.89, 0.0, 10.000346, 10.000031 
3.6500096e+2, 1.8572508e+2, -1177520.1, -1309149.9, -50920.73, -0.062381916, 0.1637638, -1160121.4, -40216.758, 0.0, 10.000301, 9.998577 
3.6500803e+2, 1.9572309e+2, -1057813.4, -1186028.4, 7005.7744, 0.10929354, 0.07785724, -1057431.6, -35503.06, 0.0, 10.000386, 9.998712 
3.6501324e+2, 2.0572296e+2, -831639.5, -817694.2, 34018.62, 0.073129185, 0.099739715, -789941.0, 133987.28, 0.0, 10.000367, 10.000577 
3.6501706e+2, 2.1572407e+2, -768279.75, -762242.44, -37730.43, -0.12709686, 0.1222905, -727410.1, 98501.43, 0.0, 10.000239, 10.000344 
3.65022e+2, 2.2572301e+2, -874236.1, -1100001.4, -70632.99, -0.12292149, 0.14879711, -853959.06, -126035.336, 0.0, 10.000294, 9.997329 
3.6502787e+2, 2.3572019e+2, -740299.2, -966746.56, -22468.469, 0.043837186, 0.10445248, -738091.4, -108132.01, 0.0, 10.000459, 9.997492 
3.650326e+2, 2.4571897e+2, -486476.7, -561756.44, -352.01785, 0.113262974, 0.12654862, -486475.03, 45496.797, 0.0, 10.0005245, 9.999574 
3.6503655e+2, 2.5571883e+2, -400530.03, -474053.66, -20424.365, 0.11204626, 0.12747447, -395237.3, 38730.656, 0.0, 10.000467, 9.999524 
3.650411e+2, 2.6571798e+2, -391897.9, -538209.44, 56944.457, 0.0717641, 0.15105952, -372347.5, -36373.004, 0.0, 10.000383, 9.998442 
3.6504608e+2, 2.7571625e+2, -304409.06, -446454.5, 66737.086, 0.010553055, 0.10589038, -277973.75, -39981.56, 0.0, 10.000309, 9.99844 
3.6505008e+2, 2.8571507e+2, -159433.25, -305462.0, -1970.0502, -0.03773247, 0.13946556, -159406.67, -19403.127, 0.000000055764154, 10.000535, 9.998631 
3.6505336e+2, 2.9571453e+2, -862.5195, -176272.5, -36679.164, -0.07334819, 0.18252087, 6498.396, 48506.605, 0.0000011855267, 10.000939, 9.998649 
3.6506143e+2, 3.0571178e+2, 50870.016, -76445.23, 48766.137, 0.16450508, 0.023960285, 67402.34, 67402.34, 0.0000067298934, 10.000766, 9.999089 
3.6506832e+2, 3.157118e+2, 14601.376, 18276.682, 1002.6138, 0.19625178, 0.085960105, 18532.4, 18532.4, 0.00002565761, 9.999975, 10.000119 
3.7496987e+2, 1.2572297e+2, -1672098.3, -1846655.6, 41430.35, -0.12549374, 0.15965728, -1662764.1, 45157.625, 0.0001191897, 10.000861, 9.99866 
3.7497598e+2, 1.3572097e+2, -1449341.6, -1657169.4, -12498.487, 0.005069285, 0.04067551, -1448592.6, 161350.66, 0.00005856906, 10.001648, 9.998908 
3.7498134e+2, 1.4572e+2, -1348187.0, -1523197.4, -4680.2207, 0.04466871, 0.037203606, -1348061.9, 163892.34, 0.000020069963, 10.00151, 9.999215 
3.7498692e+2, 1.5572079e+2, -1335389.5, -1483728.4, 14143.0, 0.06535558, 0.17142436, -1334053.1, 79894.79, 0.0000038584762, 10.000995, 9.999068 
3.7499207e+2, 1.6571996e+2, -1321892.8, -1460706.9, -26120.918, 0.050073266, 0.20425507, -1317140.3, -1182.1184, 0.00000020238203, 10.000573, 9.998751 
3.7499616e+2, 1.7571788e+2, -1255179.6, -1367557.3, -68789.08, -0.06473247, 0.090679534, -1222547.6, -4566.2144, 0.0, 10.00031, 9.998848 
3.750011e+2, 1.8571782e+2, -1063401.8, -1050055.1, -58611.098, -0.1055518, 0.1220224, -997738.6, 122243.29, 0.0, 10.000208, 10.000398 
3.7500688e+2, 1.9571912e+2, -961612.7, -960415.6, 22128.191, -0.06541517, 0.1807993, -938877.9, 83089.23, 0.0, 10.000281, 10.000306 
3.7501284e+2, 2.0571867e+2, -953437.0, -1043958.8, 17599.145, -0.025880085, 0.17683598, -950135.8, -26166.207, 0.0, 10.000248, 9.999083 
3.7501872e+2, 2.1571675e+2, -876826.06, -953353.25, -31626.648, -0.008628984, 0.04691112, -865447.44, -39460.477, 0.0, 10.000096, 9.999099 
3.7502387e+2, 2.2571617e+2, -777142.75, -874102.3, -78649.22, 0.013095238, 0.09278923, -733232.1, -5238.5156, 0.0, 10.000176, 9.998941 
3.7502846e+2, 2.3571645e+2, -652462.56, -759301.4, -6731.9614, 0.034500513, 0.19565496, -652040.06, -22046.375, 0.0, 10.000341, 9.998977 
3.750331e+2, 2.4571538e+2, -523771.88, -618278.6, -12678.835, 0.08655831, 0.181376, -522100.47, 9902.672, 0.0, 10.000437, 9.999227 
3.750376e+2, 2.5571305e+2, -436010.06, -525229.1, -10010.574, 0.14203028, -0.0015904761, -434900.66, -878.61176, 0.0, 10.000366, 9.999223 
3.7504235e+2, 2.6571202e+2, -348382.9, -437334.0, 44136.883, 0.13213356, -0.017639194, -330199.56, 5829.5093, 0.0, 10.000339, 9.999155 
3.750473e+2, 2.7571177e+2, -272632.1, -364003.56, 78460.98, 0.0747921, 0.01296869, -227525.16, 10504.401, 0.0, 10.000234, 9.999043 
3.7505147e+2, 2.8571013e+2, -235255.47, -455228.97, 4040.458, 0.020664632, 0.022280704, -235181.27, -95135.18, 0.00000003400916, 10.000501, 9.997619 
3.750549e+2, 2.957074e+2, -84427.13, -333575.97, -10121.312, -0.044200093, -0.04449974, -84016.64, -41942.094, 0.000000899484, 10.000862, 9.997609 
3.750623e+2, 3.0570534e+2, 6642.42, -161336.03, 15165.133, 0.14949818, -0.0473015, 8000.551, 8000.551, 0.000005766145, 10.000736, 9.998524 
3.7506738e+2, 3.1570563e+2, -75903.35, -158247.9, 24549.8, 0.04259342, 0.092848346, -69139.74, -69139.74, 0.000023929499, 9.999917, 9.998941 
3.8497078e+2, 1.2571722e+2, -1724764.8, -1778879.4, 50362.73, -0.06909516, 0.18649566, -1694651.3, 13329.543, 0.00012316402, 10.000092, 9.999502 
3.8497826e+2, 1.3571554e+2, -1618340.9, -1659354.4, -6511.6377, 0.15437093, 0.021632507, -1617331.9, -7336.3223, 0.000061385945, 10.000117, 9.999649 
3.8498238e+2, 1.4571515e+2, -1501031.4, -1598301.4, 36480.047, 0.05603068, 0.040708728, -1488870.4, 23130.297, 0.000022093489, 10.000467, 9.999202 
3.84987e+2, 1.557162e+2, -1334819.5, -1483045.4, 15149.044, -0.015025409, 0.20263651, -1333287.0, 80706.42, 0.000004863891, 10.001009, 9.999062 
3.8499212e+2, 1.6571532e+2, -1298446.5, -1452793.3, 32562.406, -0.00042080387, 0.22987932, -1291858.1, 24146.793, 0.00000029520132, 10.000732, 9.998734 
3.8499665e+2, 1.75713e+2, -1331046.6, -1402190.3, 76166.94, -0.013054655, 0.09204264, -1282554.5, -64524.473, 0.0, 9.999773, 9.998868 
3.850016e+2, 1.8571307e+2, -1127741.4, -1061937.8, 118599.42, -0.0421191, 0.1245436, -971760.94, 148267.77, 0.0, 9.999672, 10.000581 
3.850073e+2, 1.9571461e+2, -963879.5, -952328.2, 49569.71, -0.04385614, 0.19117285, -908198.8, 113812.02, 0.0, 10.0002, 10.000412 
3.850135e+2, 2.0571399e+2, -927990.4, -1082460.0, 55355.38, -0.00048825506, 0.18767041, -910201.8, 13813.859, 0.0, 10.000646, 9.998627 
3.8501984e+2, 2.1571155e+2, -770516.25, -950487.2, 61721.707, 0.056542493, 0.053951662, -751382.75, 74656.56, 0.0, 10.001019, 9.998687 
3.8502496e+2, 2.2571105e+2, -624246.3, -721779.94, 23782.84, 0.076305404, 0.08953928, -618756.1, 109288.125, 0.0, 10.000905, 9.999624 
3.850291e+2, 2.3571189e+2, -591747.0, -660504.8, -1408.7853, 0.06690859, 0.17841206, -591718.1, 38318.258, 0.0, 10.000473, 9.999583 
3.8503373e+2, 2.4571116e+2, -543195.5, -648578.9, -2544.3674, 0.11141054, 0.18181582, -543134.1, -11091.201, 0.0, 10.000404, 9.999021 
3.850385e+2, 2.5570908e+2, -405453.22, -535155.06, -12739.788, 0.18626095, 0.04201187, -404213.72, 29848.736, 0.0, 10.000677, 9.9990015 
3.850431e+2, 2.6570815e+2, -289430.06, -392137.3, 35830.43, 0.16396767, 0.037369885, -278165.66, 57903.914, 0.0, 10.00067, 9.9993105 
3.8504767e+2, 2.75708e+2, -228537.92, -323216.75, 6706.4194, 0.08437554, 0.058205847, -228065.25, 10003.421, 0.0, 10.000462, 9.99921 
3.850524e+2, 2.8570616e+2, -201250.3, -460573.6, 1033.2234, 0.05456787, 0.05743088, -201246.19, -61159.38, 0.000000026095549, 10.000834, 9.997421 
3.8505703e+2, 2.9570308e+2, 10225.274, -307811.66, 21225.295, 0.054179616, -0.026209926, 11635.564, 53755.535, 0.00000066980994, 10.001608, 9.997424 
3.850636e+2, 3.0570167e+2, 41568.207, -145009.73, 60690.777, 0.20522308, 0.041117016, 59572.555, 59572.555, 0.000005131084, 10.000974, 9.998517 
3.8506654e+2, 3.1570137e+2, -194361.38, -202305.89, 103183.0, 0.02428479, 0.117586516, -95074.195, -95074.195, 0.000023471404, 9.999061, 9.9990425 
3.9497194e+2, 1.2570938e+2, -1628103.5, -1542915.5, -2161.843, -0.026729606, 0.059577104, -1542860.6, 165199.8, 0.0001272644, 9.999983, 10.0011635 
3.9497864e+2, 1.3571095e+2, -1532093.9, -1461998.1, 9162.921, 0.15297948, 0.07260409, -1460820.1, 149218.78, 0.00006380605, 10.000069, 10.001018 
3.9498144e+2, 1.4571136e+2, -1520437.3, -1631709.6, 43050.945, -0.117161274, 0.12080115, -1505726.0, 6309.3545, 0.000023677207, 10.000419, 9.999004 
3.9498687e+2, 1.5571064e+2, -1336354.5, -1490619.1, 43780.125, -0.16191599, 0.1176582, -1324795.9, 89252.2, 0.000005569423, 10.0010195, 9.999007 
3.9499247e+2, 1.6571048e+2, -1205870.8, -1243883.5, -19096.45, -0.06996653, 0.14485753, -1197934.3, 118116.08, 0.00000035120044, 10.00067, 10.000197 
3.9499688e+2, 1.7571093e+2, -1252023.1, -1219916.1, 55178.965, 0.006212635, 0.1407778, -1178502.9, 39540.31, 0.0, 9.999703, 10.000153 
3.9500225e+2, 1.8571076e+2, -1246377.6, -1285178.0, 127074.04, 0.031176101, 0.16586633, -1137231.4, -17185.74, 0.0, 9.999567, 9.999103 
3.950088e+2, 1.9570978e+2, -1072028.6, -1148322.5, 80206.914, 0.061241563, 0.12920909, -1021359.25, 698.91315, 0.0, 10.000084, 9.99912 
3.950148e+2, 2.0570907e+2, -904725.94, -1002814.44, 57188.555, 0.044691026, 0.14546695, -878431.8, 45633.176, 0.0, 10.000509, 9.999239 
3.950201e+2, 2.1570848e+2, -757555.7, -879689.94, 87984.086, -0.039891053, 0.1342725, -711522.9, 114545.39, 0.0, 10.000837, 9.999253 
3.95025e+2, 2.2570767e+2, -664777.3, -775860.06, -2832.7397, -0.033741772, 0.12803239, -664705.1, 63370.26, 0.0, 10.00077, 9.999323 
3.9502954e+2, 2.3570643e+2, -631628.2, -711094.94, -3286.559, 0.035689525, 0.044263322, -631492.5, -1404.62, 0.0, 10.000336, 9.999303 
3.9503413e+2, 2.4570633e+2, -557025.9, -661727.2, -3186.3428, 0.087556824, 0.12566812, -556929.0, -24837.697, 0.0, 10.000334, 9.99897 
3.9503884e+2, 2.557069e+2, -423550.6, -551121.56, 8238.639, 0.12474112, 0.25791997, -423020.75, 11068.848, 0.0, 10.000579, 9.998945 
3.9504302e+2, 2.6570636e+2, -324559.0, -453867.63, 18156.13, 0.06380864, 0.315574, -322058.06, 14037.714, 0.0, 10.000617, 9.998916 
3.950468e+2, 2.7570474e+2, -262548.56, -378600.4, 14696.086, -0.07564609, 0.23516369, -260716.47, -22606.264, 0.0, 10.000385, 9.998874 
3.9505246e+2, 2.8570315e+2, -165044.05, -366521.63, 19751.055, -0.04628129, 0.23515081, -163126.08, -22999.512, 0.000000010243951, 10.000769, 9.998093 
3.9505932e+2, 2.9570153e+2, 36435.484, -220212.33, 61205.496, 0.092884846, 0.23342389, 50284.496, 92429.55, 0.0000005130985, 10.001475, 9.998089 
3.95065e+2, 3.057006e+2, 82650.41, -57120.137, -17206.96, 0.22103241, 0.28612882, 84737.56, 84737.56, 0.0000059963604, 10.000957, 9.99913 
3.95065e+2, 3.1569865e+2, -107271.875, -9422.034, 106499.26, -0.09049243, 0.13911696, 58852.617, 58852.617, 0.000027747768, 9.999009, 10.000392 
4.0497282e+2, 1.2570372e+2, -1644672.1, -1533378.0, 94828.305, 0.09203068, 0.025197001, -1479075.1, 229041.3, 0.0001282802, 9.999767, 10.001343 
4.049793e+2, 1.3570601e+2, -1513933.4, -1450995.9, -12348.555, 0.21842967, 0.106412806, -1448659.8, 161428.8, 0.00006493345, 10.000179, 10.001041 
4.049813e+2, 1.457066e+2, -1493391.1, -1587284.8, 29176.19, -0.1668206, 0.15544571, -1485063.6, 27019.463, 0.00002457309, 10.000473, 9.999277 
4.0498754e+2, 1.557053e+2, -1416202.5, -1501704.1, 30768.68, -0.15352225, 0.069267966, -1406281.4, 7818.6055, 0.000005781208, 10.0003395, 9.999261 
4.0499336e+2, 1.6570543e+2, -1239362.4, -1221964.5, -60403.156, -0.018869285, 0.094427675, -1169637.1, 146461.8, 0.0000003430959, 10.000276, 10.000535 
4.0499735e+2, 1.7570682e+2, -1140900.6, -1135520.3, -96875.76, 0.057497725, 0.14832644, -1041297.4, 176785.02, 0.0, 10.000325, 10.000432 
4.0500265e+2, 1.8570668e+2, -1130280.9, -1275170.4, 36186.32, 0.07312107, 0.18774685, -1121746.0, -1661.0488, 0.0, 10.000578, 9.998677 
4.0500954e+2, 1.9570501e+2, -978845.5, -1145210.1, 46856.434, 0.09498423, 0.12819535, -966556.2, 55549.453, 0.0, 10.000911, 9.998743 
4.0501547e+2, 2.0570442e+2, -843533.7, -903317.06, 55094.477, 0.062149018, 0.13995257, -810744.3, 113366.7, 0.0, 10.0006275, 9.999863 
4.0502042e+2, 2.157045e+2, -858150.44, -867624.44, 59949.516, -0.036580022, 0.13256751, -802751.06, 23355.08, 0.0, 9.999877, 9.999801 
4.050253e+2, 2.2570382e+2, -809884.75, -851219.5, 10045.499, -0.025598649, 0.11743879, -807572.7, -79461.28, 0.0, 9.999799, 9.999272 
4.0503007e+2, 2.3570237e+2, -649354.1, -729532.5, 8327.92, 0.06637896, 0.016879328, -648498.25, -18371.63, 0.0, 10.000247, 9.999222 
4.0503457e+2, 2.457022e+2, -545986.56, -664973.8, 43548.01, 0.10049913, 0.10128802, -531751.5, 379.369, 0.0, 10.000447, 9.998892 
4.0503898e+2, 2.5570297e+2, -441882.66, -562796.94, 31032.629, 0.0916016, 0.25757873, -434383.25, -255.77472, 0.0, 10.000488, 9.9988985 
4.0504333e+2, 2.657024e+2, -354571.4, -515052.75, 57729.438, 0.04162667, 0.3341789, -335962.4, 172.87982, 0.0, 10.000605, 9.998497 
4.050477e+2, 2.7570054e+2, -233373.48, -406013.66, 32613.707, -0.034701932, 0.26711687, -227417.83, 10736.596, 0.0, 10.000757, 9.998501 
4.0505338e+2, 2.8569916e+2, -215858.08, -346416.6, 49497.332, 0.005014407, 0.28579086, -199214.39, -59045.434, 0.0000000008315615, 10.000213, 9.9985 
4.0506002e+2, 2.956981e+2, -266621.88, -316621.4, 49455.227, 0.14049096, 0.29511538, -236206.78, -194025.72, 0.0000007104038, 9.999169, 9.998529 
4.0506515e+2, 3.0569717e+2, -105957.65, -157774.88, -38315.28, 0.21407342, 0.32762235, -85613.51, -85613.51, 0.000009515816, 9.999707, 9.999043 
4.0506598e+2, 3.1569523e+2, 234261.33, 191540.64, 20467.604, 0.008807158, 0.19322072, 242484.55, 242484.55, 0.000039448827, 10.001173, 10.000743 
4.149726e+2, 1.2570012e+2, -1720384.8, -1704341.5, 18567.682, 0.028082898, 0.08093777, -1692136.8, 16012.738, 0.00012596608, 9.999814, 10.000145 
4.149798e+2, 1.3570079e+2, -1586107.3, -1626100.9, 15082.466, 0.21742931, 0.13103805, -1581057.0, 29086.871, 0.00006410072, 10.0002575, 9.999807 
4.1498154e+2, 1.457008e+2, -1446616.0, -1477337.5, 15516.923, -0.22638762, 0.13682945, -1440142.6, 72001.59, 0.00002430965, 10.000437, 10.000045 
4.1498876e+2, 1.557003e+2, -1377301.1, -1404867.4, 39862.12, -0.09624429, 0.05513871, -1348906.5, 65242.27, 0.0000053776803, 10.000288, 9.999945 
4.1499454e+2, 1.6570027e+2, -1312112.5, -1352592.3, -71016.3, 0.042563774, 0.079933815, -1258508.1, 57641.52, 0.0000002359893, 10.000188, 9.999679 
4.1499758e+2, 1.7570078e+2, -1199545.1, -1246006.0, -80698.266, 0.019202411, 0.1304624, -1138800.3, 79345.805, 0.0, 10.000277, 9.999695 
4.1500238e+2, 1.857009e+2, -1097916.9, -1190159.3, 37025.55, -0.03920657, 0.19528802, -1084893.8, 35252.82, 0.0, 10.000502, 9.999295 
4.150091e+2, 1.9570039e+2, -949241.56, -1059673.8, 66446.86, -0.06326397, 0.18799089, -918063.2, 104089.63, 0.0, 10.000816, 9.99937 
4.1501513e+2, 2.0570005e+2, -821551.4, -833147.9, 14931.195, -0.0545367, 0.16735637, -811332.1, 112821.59, 0.0, 10.00051, 10.000408 
4.1502044e+2, 2.1569967e+2, -842854.9, -796815.7, 43941.098, -0.04658798, 0.057717815, -770229.6, 55922.613, 0.0, 9.999709, 10.000367 
4.1502547e+2, 2.2569963e+2, -817545.75, -835225.1, 15964.864, -0.010758751, 0.07045344, -808136.7, -79985.445, 0.0, 9.999659, 9.999452 
4.150303e+2, 2.3569968e+2, -654955.2, -713220.9, 36102.24, 0.041768815, 0.10051363, -637697.4, -7544.709, 0.0, 10.000128, 9.9993925 
4.1503453e+2, 2.4569884e+2, -560582.6, -679457.9, 35512.93, 0.026120117, 0.111473665, -550781.5, -18620.143, 0.0, 10.000377, 9.998825 
4.150384e+2, 2.5569713e+2, -461211.94, -582521.8, 44350.68, -0.038681783, 0.028476782, -446727.0, -12549.418, 0.0, 10.000397, 9.998806 
4.1504374e+2, 2.656961e+2, -387341.72, -571453.44, 53651.02, -0.007317422, 0.08263993, -372848.47, -36658.78, 0.0, 10.000561, 9.998128 
4.1504997e+2, 2.7569538e+2, -270309.06, -460341.75, 46325.707, 0.08270369, 0.1668168, -259617.42, -21416.746, 0.0, 10.00067, 9.998166 
4.1505477e+2, 2.8569433e+2, -197041.2, -316428.53, -2700.351, 0.09191696, 0.22151586, -196980.16, -56767.242, 0.00000000001177225, 10.000235, 9.998703 
4.1505858e+2, 2.956929e+2, -263279.25, -299937.28, 29736.451, 0.043392166, 0.17272787, -246676.78, -204449.22, 0.0000013022876, 9.999114, 9.998678 
4.150636e+2, 3.0569133e+2, -153555.42, -254805.16, 13544.8, 0.058973547, 0.17531085, -151774.77, -151774.77, 0.000014575742, 9.999707, 9.998373 
4.1506866e+2, 3.156913e+2, 181743.33, 104653.37, 119140.24, 0.09872807, 0.2940986, 268418.6, 268418.6, 0.000055427667, 10.001085, 10.000186 
4.2497188e+2, 1.2569572e+2, -1925158.0, -1833541.4, -12058.989, 0.048094906, 0.107690535, -1831980.8, -123789.14, 0.00012015749, 9.998526, 9.999878 
4.249802e+2, 1.3569613e+2, -1531212.4, -1628942.4, 99334.19, 0.21688484, 0.1529833, -1469374.8, 140816.63, 0.00006079175, 10.000747, 9.99955 
4.2498222e+2, 1.4569595e+2, -1348895.9, -1392203.4, 59337.934, -0.21933772, 0.13709444, -1307384.1, 204809.08, 0.00002257458, 10.00094, 10.000388 
4.24989e+2, 1.5569602e+2, -1537466.0, -1446656.4, 17906.094, -0.027173486, 0.07514082, -1443253.1, -29062.688, 0.0000044461326, 9.999041, 10.00026 
4.2499474e+2, 1.656961e+2, -1446897.1, -1436908.1, 21506.82, 0.096216634, 0.10719764, -1419823.5, -103633.34, 0.00000009724189, 9.9993515, 9.999502 
4.2499816e+2, 1.756962e+2, -1050264.0, -1190410.4, 35678.73, 0.0020147914, 0.13361292, -1041703.7, 176488.06, 0.0, 10.001374, 9.999551 
4.250029e+2, 1.856962e+2, -976502.3, -1101619.4, 117851.6, -0.0671336, 0.17961746, -905634.56, 214558.2, 0.0, 10.001199, 9.999573 
4.2500916e+2, 1.9569583e+2, -1149222.4, -1129559.1, 101818.05, -0.058944892, 0.15880045, -1037099.2, -14903.043, 0.0, 9.999314, 9.9996195 
4.2501506e+2, 2.0569566e+2, -1055431.6, -931944.7, 66592.54, -0.023581458, 0.13485852, -902876.1, 21318.898, 0.0, 9.998854, 10.000521 
4.2502046e+2, 2.1569543e+2, -875193.75, -804375.9, 40628.02, 0.005200406, 0.032349795, -785892.06, 40300.65, 0.0, 9.999454, 10.00044 
4.2502567e+2, 2.256956e+2, -766856.56, -804990.0, 31163.041, 0.032092877, 0.06148812, -749390.06, -21199.92, 0.0, 9.999997, 9.999487 
4.2503065e+2, 2.35696e+2, -599480.25, -678993.7, 11714.817, 0.052698594, 0.124348, -597790.25, 32398.25, 0.0, 10.000493, 9.999444 
4.2503488e+2, 2.4569502e+2, -480897.88, -639499.94, 20282.06, 0.000050812843, 0.11886981, -478345.28, 53852.457, 0.0, 10.000917, 9.998843 
4.250386e+2, 2.5569275e+2, -327491.56, -522548.78, 13189.934, -0.10094746, -0.020834308, -326603.7, 107614.1, 0.0, 10.001326, 9.998778 
4.250443e+2, 2.656912e+2, -297913.78, -569121.6, 36764.61, -0.035779387, 0.0052470677, -293018.38, 43215.863, 0.0, 10.001351, 9.997772 
4.2505148e+2, 2.7569002e+2, -236331.08, -481712.3, 7545.217, 0.15531708, 0.08412753, -236099.3, 2150.4446, 0.0, 10.001066, 9.997836 
4.2505604e+2, 2.8568885e+2, -84395.305, -277471.63, -44722.27, 0.15734309, 0.14722574, -74539.4, 65724.0, 0.0000000012455732, 10.0011015, 9.998541 
4.2505875e+2, 2.956874e+2, 59373.45, -163403.31, -64761.035, 0.040129825, 0.11787355, 76831.34, 119109.13, 0.0000019825331, 10.001422, 9.998503 
4.250633e+2, 3.056855e+2, 73416.3, -184002.1, -16247.134, -0.0144668585, 0.10573258, 74437.695, 74437.695, 0.000019679212, 10.001435, 9.998025 
4.25071e+2, 3.156856e+2, 132475.77, 12931.54, 54893.605, 0.24280438, 0.27933517, 153857.9, 153857.9, 0.00007104561, 10.0010395, 9.99957 
4.3496972e+2, 1.256905e+2, -1889212.0, -1730204.9, -45204.15, -0.07895759, 0.09011157, -1718252.3, -10009.236, 0.00011272219, 9.998445, 10.000615 
4.3498027e+2, 1.3569203e+2, -1478540.8, -1515415.9, 194562.19, 0.11648384, 0.16931264, -1301544.5, 308685.9, 0.00005585788, 10.000747, 10.000328 
4.349829e+2, 1.4569205e+2, -1366362.1, -1420163.8, -17966.91, -0.2772767, 0.14518258, -1360913.9, 151316.78, 0.000019900395, 10.000895, 10.000223 
4.3498787e+2, 1.5569246e+2, -1538102.5, -1458521.5, -30303.479, -0.07855566, 0.13120057, -1448296.1, -34070.816, 0.0000034951138, 9.999069, 10.000172 
4.3499362e+2, 1.6569282e+2, -1422395.6, -1366610.4, 86103.81, 0.019412238, 0.16673633, -1303994.1, 12227.213, 0.000000032016867, 9.999278, 10.000016 
4.3499872e+2, 1.7569302e+2, -1027150.3, -1125672.4, 113719.22, -0.110326156, 0.15496193, -952481.06, 265738.47, 0.0, 10.001309, 10.000024 
4.3500373e+2, 1.8569255e+2, -997695.9, -1118387.1, 35859.004, -0.12695378, 0.13547027, -987845.56, 132378.34, 0.0, 10.001086, 9.999512 
4.3500927e+2, 1.9569139e+2, -1169527.3, -1146245.3, 50472.08, -0.0021724624, 0.040178802, -1106089.1, -83854.38, 0.0, 9.999211, 9.999554 
4.3501484e+2, 2.0569128e+2, -1101192.6, -995740.7, 78148.88, 0.04391246, 0.046242807, -954194.3, -29960.121, 0.0, 9.998721, 10.000145 
4.3502012e+2, 2.1569179e+2, -922097.5, -868967.06, 74111.74, 0.0017373904, 0.05267806, -816803.25, 9423.932, 0.0, 9.999315, 10.00006 
4.3502542e+2, 2.2569184e+2, -800284.8, -842194.44, 39213.2, -0.012828167, 0.09699819, -776778.6, -48551.64, 0.0, 9.999857, 9.9993 
4.3503076e+2, 2.3569131e+2, -629666.56, -711721.5, 41658.1, -0.008087801, 0.086613744, -612224.8, 18009.393, 0.0, 10.0003605, 9.999284 
4.3503526e+2, 2.4569073e+2, -491578.47, -640492.56, 24247.324, -0.07723118, 0.12539367, -487729.8, 44510.34, 0.0, 10.00083, 9.998874 
4.3503907e+2, 2.5568992e+2, -341511.44, -527147.25, 38601.125, -0.21251298, 0.1231649, -333804.66, 100442.24, 0.0, 10.001225, 9.99879 
4.3504474e+2, 2.6568782e+2, -323498.88, -618302.6, 16781.88, -0.15272732, 0.113952406, -322546.63, 13720.777, 0.0, 10.001329, 9.997447 
4.350518e+2, 2.7568457e+2, -269642.03, -536793.56, 12074.297, 0.05164455, 0.014879765, -269097.44, -30796.432, 0.0, 10.000998, 9.997494 
4.3505663e+2, 2.856827e+2, -133066.03, -366336.6, -41508.51, 0.0823932, 0.058678243, -125900.08, 14420.3125, 0.000000012355592, 10.001062, 9.997943 
4.3506017e+2, 2.9568174e+2, 6401.0723, -256917.83, -38446.22, 0.005752607, 0.13325126, 11899.644, 54230.52, 0.0000027662056, 10.001361, 9.997886 
4.3506393e+2, 3.0567953e+2, 77246.65, -189058.84, -37700.98, -0.12351751, 0.12721267, 82481.1, 82481.1, 0.000024180765, 10.001473, 9.997977 
4.3507215e+2, 3.1567818e+2, 64388.844, -115443.13, 48738.74, 0.18844901, 0.15791951, 76748.7, 76748.7, 0.00008333817, 10.000973, 9.998726 
4.449693e+2, 1.2568562e+2, -1665916.6, -1608798.1, -81454.49, -0.025295682, 0.113768265, -1551041.3, 157250.25, 0.00010688196, 9.99994, 10.000725 
4.449796e+2, 1.3568711e+2, -1819450.3, -1651141.6, 142544.95, 0.109081246, 0.16685711, -1569763.5, 40515.145, 0.000051033883, 9.998307, 10.000577 
4.4498333e+2, 1.4568722e+2, -1666484.8, -1539077.3, -55419.277, -0.20460989, 0.1298446, -1518344.9, -6067.324, 0.000017295639, 9.998718, 10.000454 
4.449876e+2, 1.5568799e+2, -1337672.1, -1329302.0, -71795.25, -0.06489454, 0.12225702, -1261570.0, 152698.75, 0.0000027656245, 10.00031, 10.000452 
4.4499323e+2, 1.6568863e+2, -1270677.3, -1251708.0, 95723.74, 0.019211344, 0.14990094, -1165000.1, 151260.58, 0.000000035556127, 10.0001135, 10.000416 
4.4499877e+2, 1.7568903e+2, -1402819.6, -1264154.4, 94404.52, -0.087052576, 0.1141987, -1216357.9, 1897.406, 0.0, 9.998538, 10.000414 
4.450041e+2, 1.856887e+2, -1295943.5, -1249599.5, 37789.66, -0.08363735, 0.087196216, -1228443.1, -108186.08, 0.0, 9.998992, 9.999614 
4.4500992e+2, 1.956876e+2, -914112.75, -1017205.0, 38022.887, 0.061518233, -0.011084745, -901606.25, 120660.81, 0.0, 10.000943, 9.999599 
4.450153e+2, 2.0568746e+2, -753683.4, -897199.1, 78745.516, 0.09044761, 0.023530092, -718904.6, 205363.92, 0.0, 10.001423, 9.999512 
4.4502014e+2, 2.1568786e+2, -756436.4, -854285.8, 32887.05, 0.0091206115, 0.08430215, -746410.4, 79855.32, 0.0, 10.000747, 9.999466 
4.4502532e+2, 2.2568747e+2, -749995.8, -838376.25, 17353.996, -0.021392306, 0.12116236, -746710.44, -18440.043, 0.0, 10.000276, 9.99913 
4.4503087e+2, 2.3568624e+2, -705963.8, -771823.94, -1203.2799, -0.0060164803, 0.058264274, -705941.8, -75658.56, 0.0, 9.999921, 9.999089 
4.4503602e+2, 2.4568562e+2, -611102.25, -718002.44, 9058.458, -0.04110383, 0.11046557, -610340.1, -78050.23, 0.0, 10.000088, 9.998699 
4.4504085e+2, 2.5568527e+2, -435097.3, -587350.9, -16433.248, -0.11927476, 0.17232208, -433343.8, 949.5981, 0.0, 10.000645, 9.998655 
4.4504645e+2, 2.6568332e+2, -326237.7, -579471.9, -9474.799, -0.099633485, 0.16119874, -325883.7, 10428.207, 0.0, 10.001146, 9.997793 
4.4505244e+2, 2.7567998e+2, -150360.75, -447143.03, 10440.789, -0.00802756, 0.017313503, -149993.89, 88350.086, 0.0, 10.001689, 9.99777 
4.4505763e+2, 2.8567758e+2, -38325.16, -389767.53, 4174.58, 0.034390643, 0.032055955, -38275.58, 102091.83, 0.00000003062236, 10.00199, 9.997343 
4.450626e+2, 2.956758e+2, 56773.055, -287309.75, -20878.29, 0.09248676, 0.0832983, 58035.28, 100421.7, 0.0000032986038, 10.001946, 9.997393 
4.4506586e+2, 3.0567396e+2, 116838.375, -185235.86, -2812.7515, -0.08765846, 0.13894108, 116864.57, 116864.57, 0.000027227657, 10.001825, 9.99782 
4.4507357e+2, 3.1567186e+2, 158190.33, -96507.875, -13119.021, 0.2057114, 0.114487134, 158864.28, 158864.28, 0.000091368296, 10.001752, 9.998464 
4.549695e+2, 1.2568086e+2, -1709085.1, -1693713.6, -238933.92, -0.0669278, 0.15134878, -1462341.9, 245997.55, 0.000102696926, 9.9999275, 10.000144 
4.5497766e+2, 1.3568124e+2, -1834358.1, -1696196.0, 105534.17, 0.05322447, 0.13477688, -1639143.6, -28806.404, 0.000047349753, 9.998352, 10.000252 
4.549831e+2, 1.4568126e+2, -1628780.9, -1443762.6, 323.60403, -0.13834769, 0.0675468, -1443762.0, 68574.35, 0.000015080613, 9.998656, 10.001133 
4.549879e+2, 1.556825e+2, -1296493.4, -1236655.3, -6490.9546, -0.0999867, 0.044855904, -1235959.3, 178362.38, 0.0000021144335, 10.000286, 10.001097 
4.5499322e+2, 1.656835e+2, -1251110.5, -1198758.0, 20719.955, -0.020811142, 0.05434443, -1191549.9, 124759.125, 0.00000004449902, 10.000057, 10.000807 
4.5499808e+2, 1.7568411e+2, -1377721.4, -1211686.5, 55304.82, -0.04188008, 0.0054777246, -1194951.6, 23347.771, 0.0, 9.99853, 10.000779 
4.5500377e+2, 1.8568458e+2, -1293055.9, -1224280.6, 100254.18, -0.04615123, 0.026101425, -1152680.5, -32387.46, 0.0, 9.998911, 9.999825 
4.5501068e+2, 1.9568454e+2, -923124.9, -1006886.8, 114941.164, 0.01360412, 0.013896892, -842672.3, 179620.08, 0.0, 10.000823, 9.999724 
4.5501605e+2, 2.0568426e+2, -835812.94, -1036689.7, 40637.387, 0.00031729043, 0.07738349, -827903.4, 96393.99, 0.0, 10.001285, 9.998624 
4.5502016e+2, 2.1568365e+2, -837085.7, -981269.0, 20386.236, -0.088119514, 0.124208786, -834258.7, -7950.655, 0.0, 10.000574, 9.998675 
4.5502505e+2, 2.2568256e+2, -783078.06, -875115.3, -5240.952, -0.09846896, 0.13645543, -782780.56, -54460.67, 0.0, 10.000133, 9.998952 
4.5503053e+2, 2.3568088e+2, -732801.06, -803507.4, 1729.1416, -0.05756564, 0.04230223, -732758.8, -102423.73, 0.0, 9.999813, 9.998924 
4.5503673e+2, 2.4567975e+2, -651624.3, -777104.44, 19038.014, -0.0014886118, 0.073850036, -648799.44, -116452.836, 0.0, 9.9999895, 9.9983425 
4.5504364e+2, 2.5567883e+2, -470331.3, -631788.5, 16445.656, 0.06895655, 0.118690655, -468673.22, -34315.62, 0.0, 10.000523, 9.998413 
4.5504907e+2, 2.6567757e+2, -271740.6, -450582.25, 1540.8643, 0.023938872, 0.1399097, -271727.3, 64641.14, 0.0, 10.0010805, 9.998708 
4.5505315e+2, 2.7567598e+2, -107460.36, -338330.13, 45074.188, -0.13623406, 0.08044577, -98972.305, 139407.84, 0.0, 10.001604, 9.998555 
4.550586e+2, 2.856735e+2, -78209.21, -466314.4, -8129.79, -0.09643178, 0.07031183, -78038.99, 62365.3, 0.000000022691747, 10.001958, 9.996836 
4.5506564e+2, 2.9566973e+2, 21421.076, -352794.75, -9955.564, 0.16369526, -0.02448627, 21685.746, 64129.117, 0.0000033720132, 10.001895, 9.996977 
4.5506856e+2, 3.0566862e+2, 96863.2, -224087.78, -8013.3843, -0.029902989, 0.13514069, 97063.15, 97063.15, 0.000028360193, 10.0018215, 9.997551 
4.5507476e+2, 3.1566632e+2, 162514.72, -76693.28, -49210.746, 0.09019581, 0.1206728, 172242.9, 172242.9, 0.00009465621, 10.001701, 9.998629 
4.6496847e+2, 1.2567592e+2, -2042717.8, -1788393.1, -248839.31, -0.0210291, 0.16981962, -1636107.4, 72283.61, 0.00009773488, 9.997326, 10.000748 
4.6497577e+2, 1.3567661e+2, -1721586.0, -1577019.8, 173905.72, 0.017562034, 0.11086405, -1460973.3, 149407.25, 0.000043477085, 9.998817, 10.000852 
4.6498325e+2, 1.4567685e+2, -1603051.1, -1462815.3, 113404.86, 0.006113633, 0.05412184, -1399602.1, 112774.5, 0.000012657647, 9.998959, 10.000861 
4.6498728e+2, 1.5567808e+2, -1629298.4, -1425079.1, 5741.809, -0.07402615, 0.05486038, -1424917.8, -10553.286, 0.0000014631825, 9.998119, 10.000853 
4.649925e+2, 1.656789e+2, -1458414.4, -1314106.9, -2942.5354, -0.025125718, 0.06782869, -1314046.9, 2307.4482, 0.000000030371112, 9.998719, 10.000649 
4.649982e+2, 1.7567918e+2, -1115487.0, -1102659.5, -34354.203, 0.029522322, -0.00066273235, -1074125.5, 144222.61, 0.0, 10.000414, 10.000617 
4.6500418e+2, 1.8567957e+2, -1044075.75, -1095523.6, 21821.967, 0.030175913, 0.0150297, -1036066.6, 84275.445, 0.0, 10.000574, 9.999909 
4.6501076e+2, 1.9567974e+2, -1110079.1, -1090622.8, 6745.2827, 0.018452834, 0.014389984, -1088513.0, -66174.17, 0.0, 9.999496, 9.999798 
4.650163e+2, 2.0567934e+2, -1111598.5, -1174571.5, -25909.713, -0.0032598705, 0.06316148, -1102308.6, -177963.95, 0.0, 9.999395, 9.998595 
4.6502078e+2, 2.1567832e+2, -920932.0, -1031185.2, -8510.206, -0.046216074, 0.074176855, -920279.0, -93919.82, 0.0, 10.000024, 9.998607 
4.650259e+2, 2.256772e+2, -685509.8, -842952.1, 29044.436, -0.058186572, 0.09623892, -680322.7, 48048.32, 0.0, 10.000889, 9.998793 
4.6503145e+2, 2.3567581e+2, -432384.25, -676386.3, 10532.834, -0.04995707, 0.047701165, -431930.44, 198452.47, 0.0, 10.001973, 9.998747 
4.6503788e+2, 2.4567431e+2, -371122.75, -664035.1, 40745.766, 0.018731713, 0.060163982, -365560.44, 166837.36, 0.0, 10.002001, 9.998151 
4.6504512e+2, 2.5567257e+2, -384810.25, -611304.94, 29782.488, 0.14040679, 0.03734765, -380959.53, 53457.426, 0.0, 10.001192, 9.998229 
4.6505073e+2, 2.6567143e+2, -264794.84, -447560.53, 24811.736, 0.086825125, 0.07576048, -261486.36, 74941.26, 0.0, 10.001111, 9.998722 
4.650548e+2, 2.7567062e+2, -113565.664, -337814.8, -19353.559, -0.12053351, 0.093834504, -111907.64, 126525.23, 0.0, 10.0015335, 9.998602 
4.6506047e+2, 2.8566846e+2, -89892.82, -436631.16, -55435.605, -0.08398006, 0.10041789, -81245.57, 59208.082, 0.00000001636591, 10.001726, 9.997151 
4.6506807e+2, 2.9566476e+2, 41295.605, -296300.56, -30878.326, 0.22883481, -0.020910082, 44096.66, 86587.695, 0.0000038591365, 10.00184, 9.997383 
4.650711e+2, 3.0566338e+2, 92658.38, -272136.47, 18800.504, 0.04484248, 0.1119499, 93624.75, 93624.75, 0.000029778155, 10.00196, 9.997185 
4.6507666e+2, 3.1566024e+2, 205386.95, -40685.22, -120052.625, 0.111334786, 0.056301456, 254253.48, 254253.48, 0.00009717631, 10.001921, 9.998785 
4.749652e+2, 1.2567066e+2, -1925771.9, -1511979.8, -228400.64, -0.14882779, 0.16862692, -1410699.3, 297748.28, 0.00009217974, 9.997211, 10.002684 
4.7497356e+2, 1.3567312e+2, -1605731.8, -1329638.9, 237724.13, -0.115417466, 0.095770545, -1192786.1, 417623.0, 0.00003847725, 9.998808, 10.002543 
4.7498345e+2, 1.4567396e+2, -1687830.3, -1635483.5, 69176.234, 0.09160224, 0.084848285, -1587694.8, -75296.42, 0.000009911169, 9.998931, 9.999696 
4.749853e+2, 1.556747e+2, -1699861.1, -1581036.8, -7265.557, -0.12089536, 0.14750972, -1580594.1, -166196.67, 0.0000009593812, 9.998146, 9.999777 
4.7499067e+2, 1.6567485e+2, -1517831.1, -1423319.5, 50496.793, -0.10822326, 0.18217722, -1401415.8, -85018.37, 0.000000014696447, 9.998662, 9.99993 
4.749988e+2, 1.7567419e+2, -1168510.0, -1204483.8, 36412.676, 0.022958662, 0.095963314, -1145883.9, 72518.01, 0.0, 10.000379, 9.999938 
4.7500497e+2, 1.8567367e+2, -1055052.0, -1097807.5, -28291.697, 0.026247347, 0.055456027, -1040969.56, 79434.77, 0.0, 10.000484, 9.999939 
4.7500995e+2, 1.9567315e+2, -1115909.5, -1085429.3, -16772.568, -0.03979586, -0.016815167, -1078007.1, -55600.504, 0.0, 9.999416, 9.999876 
4.750156e+2, 2.0567267e+2, -1075317.3, -1069652.4, -13223.489, -0.03008468, -0.02244126, -1058961.4, -134550.75, 0.0, 9.999273, 9.999372 
4.7502172e+2, 2.1567197e+2, -892273.06, -936166.06, 28079.148, 0.021626377, -0.056972075, -878581.25, -52163.227, 0.0, 9.999875, 9.999327 
4.7502753e+2, 2.2567144e+2, -712532.75, -878397.4, 60208.188, -0.009323669, -0.00054952473, -692981.94, 35441.438, 0.0, 10.000785, 9.998609 
4.7503316e+2, 2.3567091e+2, -464156.7, -711365.06, 59459.887, -0.09735205, 0.056816258, -450598.66, 179829.69, 0.0, 10.001832, 9.998579 
4.75039e+2, 2.456692e+2, -387966.47, -675857.9, 524.4046, -0.09300638, 0.05653141, -387965.5, 144479.31, 0.0, 10.001899, 9.998119 
4.7504503e+2, 2.5566638e+2, -407754.06, -638351.1, 15438.575, -0.02063986, -0.0715503, -406725.03, 27747.293, 0.0, 10.001095, 9.998094 
4.7505108e+2, 2.6566473e+2, -330434.06, -567683.75, 30980.098, -0.014842199, -0.030382078, -326455.38, 10034.277, 0.0, 10.001049, 9.997925 
4.7505698e+2, 2.756638e+2, -171642.67, -438763.1, 9858.415, -0.08456148, 0.053299062, -171279.33, 67222.625, 0.0, 10.001455, 9.997945 
4.7506294e+2, 2.856624e+2, -17323.943, -283839.25, -63535.195, -0.040256146, 0.11355614, -2952.5908, 137563.36, 0.0000000367379, 10.001711, 9.99821 
4.7506955e+2, 2.9566064e+2, 95307.06, -166198.19, -14020.547, 0.16001132, 0.075650446, 96056.625, 138588.88, 0.000004901276, 10.001744, 9.998331 
4.750731e+2, 3.056581e+2, 56700.43, -330281.63, 6014.554, 0.025604807, 0.0667449, 56793.887, 56793.887, 0.000032907166, 10.001897, 9.99681 
4.7507843e+2, 3.1565344e+2, 209968.63, -25378.334, -122142.62, 0.032870132, -0.095497586, 261900.17, 261900.17, 0.00010232853, 10.001899, 9.9988985 
4.849641e+2, 1.2566626e+2, -1620914.6, -1396990.0, -33823.04, -0.0734889, 0.103563264, -1391992.6, 316493.4, 0.00008688649, 9.999423, 10.002425 
4.8497167e+2, 1.3566874e+2, -1675092.8, -1404204.6, 165590.95, -0.15613155, 0.07174986, -1325720.0, 284728.56, 0.000032757685, 9.998496, 10.002197 
4.8498362e+2, 1.4566931e+2, -1790942.8, -1705169.1, -10317.678, 0.2511312, 0.062144443, -1703945.5, -191504.7, 0.000007215262, 9.998322, 9.999507 
4.8498455e+2, 1.5566956e+2, -1571862.9, -1544722.4, -43835.418, -0.049311485, 0.09591366, -1512404.8, -97960.21, 0.00000059770906, 9.999138, 9.999547 
4.8498973e+2, 1.6566947e+2, -1436986.3, -1433150.0, 109769.055, -0.09572401, 0.1383235, -1325282.3, -8834.366, 0.0000000048834687, 9.999426, 9.999497 
4.8499864e+2, 1.7566875e+2, -1361727.6, -1341278.1, 96369.766, 0.032380044, 0.089054465, -1254592.1, -36137.582, 0.0, 9.999257, 9.999531 
4.8500514e+2, 1.8566823e+2, -1227746.3, -1214871.0, 10718.244, 0.05100673, 0.08112677, -1208805.6, -88346.58, 0.0, 9.999442, 9.999634 
4.8500988e+2, 1.9566773e+2, -1074632.3, -1090293.0, -19873.826, -0.00077055854, 0.035417493, -1061101.8, -38638.48, 0.0, 9.999815, 9.9996395 
4.8501563e+2, 2.0566721e+2, -900565.06, -953133.6, 9901.885, -0.0054022903, 0.022504926, -898761.8, 25704.988, 0.0, 10.000335, 9.999663 
4.8502216e+2, 2.156664e+2, -724292.0, -821304.8, -2472.5369, 0.032021165, -0.053362712, -724229.0, 102243.3, 0.0, 10.000886, 9.99963 
4.8502854e+2, 2.2566593e+2, -682220.06, -854959.2, 36125.527, 0.010085771, -0.010129849, -674969.4, 53506.477, 0.0, 10.000957, 9.998688 
4.8503476e+2, 2.3566552e+2, -628710.44, -787439.7, 31022.49, -0.055902407, 0.05434777, -622862.75, 7617.167, 0.0, 10.000672, 9.998621 
4.850406e+2, 2.4566372e+2, -510996.8, -743661.7, -7011.2695, -0.073754065, 0.04680929, -510785.72, 21711.611, 0.0, 10.001088, 9.998043 
4.850462e+2, 2.556607e+2, -278910.8, -581588.9, -20764.646, -0.049578447, -0.088960275, -277492.94, 157033.28, 0.0, 10.002012, 9.998037 
4.8505247e+2, 2.6565915e+2, -170002.17, -495710.47, 47362.832, -0.033393122, -0.038622618, -163254.7, 173289.0, 0.0, 10.00217, 9.997878 
4.8505905e+2, 2.7565825e+2, -128638.516, -420314.88, 58596.555, -0.03324003, 0.05906787, -117306.945, 121249.17, 0.0, 10.001756, 9.997926 
4.850649e+2, 2.8565705e+2, -65519.91, -288824.34, -8523.801, 0.009959236, 0.125285, -65195.02, 75374.586, 0.00000008825205, 10.001301, 9.998372 
4.8507068e+2, 2.9565576e+2, -33930.6, -212590.84, -53183.535, 0.15706728, 0.12052147, -19297.465, 23284.346, 0.0000056092463, 10.000791, 9.998469 
4.8507535e+2, 3.05653e+2, 24265.96, -322156.34, 33923.574, 0.092711814, 0.07531524, 27556.684, 27556.684, 0.000035389916, 10.001578, 9.9970045 
4.8508185e+2, 3.156492e+2, 449478.9, 121101.25, -113385.67, 0.12053303, -0.030578729, 484825.25, 484825.25, 0.00010599746, 10.003418, 9.999162 
4.9496433e+2, 1.2566276e+2, -1786415.6, -1755467.4, -32519.559, -0.06720917, -0.01355072, -1734928.0, -26421.865, 0.00007926606, 9.999483, 9.999936 
4.9496958e+2, 1.3566346e+2, -1838248.9, -1749170.8, 137025.88, -0.24232277, 0.032447603, -1649627.1, -39128.28, 0.000026309035, 9.998518, 9.999818 
4.949833e+2, 1.4566292e+2, -1754345.6, -1612155.8, 5128.4297, 0.35180196, -0.013862413, -1611971.1, -99467.16, 0.0000047383246, 9.998251, 10.000177 
4.9498472e+2, 1.556627e+2, -1530461.8, -1456004.8, -3551.5444, 0.02280834, -0.092603795, -1455835.8, -41330.063, 0.0000002991547, 9.999126, 10.00016 
4.9498937e+2, 1.6566277e+2, -1448323.6, -1447511.5, 90575.23, -0.102043204, -0.05822213, -1357341.4, -40835.617, 0.0000000005507737, 9.999382, 9.999422 
4.949974e+2, 1.7566282e+2, -1372802.0, -1358303.9, 101278.35, -0.045797605, -0.025293535, -1264015.5, -45508.406, 0.0, 9.999227, 9.999431 
4.950043e+2, 1.8566312e+2, -1282723.9, -1307017.6, 14537.723, -0.0011873647, 0.08617998, -1275926.4, -155418.97, 0.0, 9.999351, 9.999043 
4.9501023e+2, 1.9566339e+2, -1124816.8, -1177490.3, 3146.2603, 0.021618776, 0.17817554, -1124629.5, -102120.125, 0.0, 9.999738, 9.999081 
4.9501592e+2, 2.056629e+2, -923735.94, -974351.5, 17364.121, -0.028258113, 0.19900684, -918351.75, 6161.8105, 0.0, 10.000213, 9.99958 
4.950217e+2, 2.1566162e+2, -748491.5, -843900.9, 27171.92, -0.12620391, 0.085788295, -741295.8, 85225.64, 0.0, 10.000754, 9.999545 
4.950284e+2, 2.2566055e+2, -685123.9, -826791.9, 15723.828, -0.11792018, 0.059224945, -683399.7, 45129.773, 0.0, 10.000814, 9.998946 
4.9503586e+2, 2.356595e+2, -630793.6, -758437.8, 36506.426, -0.039768245, 0.03152504, -621090.3, 9448.397, 0.0, 10.000532, 9.998887 
4.9504235e+2, 2.4565785e+2, -531898.75, -763845.06, 17831.365, -0.033348788, 0.030892653, -530535.94, 2019.3352, 0.0, 10.000994, 9.99795 
4.9504825e+2, 2.556555e+2, -297530.63, -596660.06, 23382.26, -0.07372986, -0.028357826, -295713.9, 138865.97, 0.0, 10.001909, 9.997985 
4.9505442e+2, 2.656544e+2, -132811.66, -396962.94, 18818.625, -0.0815568, 0.038333926, -131477.72, 205113.75, 0.0, 10.002086, 9.998592 
4.950605e+2, 2.7565405e+2, -107004.85, -341634.13, 55455.93, -0.08900129, 0.113312624, -94557.85, 144037.95, 0.0, 10.00162, 9.998526 
4.9506587e+2, 2.8565255e+2, -120013.19, -389022.3, -37461.355, -0.052132923, 0.15657584, -114893.86, 25719.008, 0.00000018947561, 10.001249, 9.997706 
4.9507114e+2, 2.9565018e+2, -81973.48, -306095.9, -51470.805, 0.08628391, 0.11546799, -70718.19, -28078.82, 0.000005650319, 10.000767, 9.997835 
4.9507773e+2, 3.056481e+2, 85535.67, -206644.98, 96132.92, 0.14013137, 0.12672636, 114327.945, 114327.945, 0.00003451672, 10.001613, 9.9977865 
4.9508595e+2, 3.1564736e+2, 461941.94, 162929.95, -26689.605, 0.12321592, 0.24495251, 464305.56, 464305.56, 0.00010176044, 10.003338, 9.99949 
5.049652e+2, 1.2565814e+2, -1713286.3, -1849923.8, -87561.36, 0.030103939, -0.047908604, -1670544.4, 37999.9, 0.000066640154, 10.000585, 9.998739 
5.049682e+2, 1.3565749e+2, -1825019.5, -1871037.8, 28222.744, -0.24827969, -0.015010848, -1811615.1, -201058.28, 0.0000195532, 9.999173, 9.998662 
5.0498265e+2, 1.4565654e+2, -1652157.1, -1566469.8, 27718.229, 0.43882605, -0.04204284, -1558285.3, -45717.13, 0.0000028130235, 9.998982, 10.000133 
5.049845e+2, 1.5565689e+2, -1362159.1, -1376511.9, -66901.78, 0.038914915, -0.05853326, -1302049.9, 112513.62, 0.00000011765629, 10.000313, 10.000124 
5.04989e+2, 1.6565698e+2, -1320112.9, -1397784.6, -35523.207, -0.119091526, -0.015712999, -1306316.8, 10246.355, 0.000000000026416515, 10.000303, 9.99932 
5.0499654e+2, 1.7565654e+2, -1397612.5, -1383707.5, -47119.266, -0.039344784, -0.018427655, -1343030.5, -124461.33, 0.0, 9.999097, 9.999324 
5.0500375e+2, 1.8565667e+2, -1272103.6, -1282129.6, -24412.133, 0.011958707, 0.069740705, -1252195.1, -131624.34, 0.0, 9.999348, 9.999215 
5.0501037e+2, 1.95657e+2, -974606.94, -1087906.4, -1013.4898, 0.023751855, 0.15607174, -974597.9, 47972.867, 0.0, 10.000711, 9.999222 
5.0501657e+2, 2.0565662e+2, -822587.44, -946474.06, 18685.51, -0.02238145, 0.19119473, -819830.5, 104743.62, 0.0, 10.001007, 9.99938 
5.0502247e+2, 2.1565548e+2, -823327.94, -900756.1, -6957.4424, -0.096596904, 0.11134771, -822707.7, 3874.233, 0.0, 10.000351, 9.999338 
5.050293e+2, 2.256542e+2, -752540.44, -881285.06, -8471.314, -0.08734031, 0.08793553, -751985.44, -23392.666, 0.0, 10.0004425, 9.998753 
5.0503683e+2, 2.3565274e+2, -568619.06, -741682.7, -45097.47, -0.016238749, 0.035563428, -557572.56, 73034.586, 0.0, 10.001035, 9.99875 
5.050435e+2, 2.4565135e+2, -509212.4, -728885.8, -39469.555, -0.015401691, 0.054839544, -502336.0, 30285.816, 0.0, 10.001044, 9.998167 
5.050497e+2, 2.5564975e+2, -462815.2, -648772.3, -31220.977, -0.05260357, 0.048873004, -457713.38, -23073.951, 0.0, 10.000655, 9.998232 
5.05056e+2, 2.6564878e+2, -319935.7, -436399.8, -24436.861, -0.04329105, 0.09001774, -315016.06, 21632.797, 0.0, 10.000575, 9.999059 
5.050623e+2, 2.756481e+2, -217190.77, -347194.22, -35162.934, -0.015960926, 0.086613394, -208289.47, 30364.81, 0.00000000061010413, 10.000648, 9.998964 
5.050675e+2, 2.8564677e+2, -100263.016, -360952.63, -56404.51, -0.0049570426, 0.11673479, -88582.34, 52086.332, 0.00000027597625, 10.001306, 9.997877 
5.0507236e+2, 2.9564494e+2, 164680.33, -176629.13, -37344.395, 0.056035373, 0.11581699, 168718.6, 211408.06, 0.0000049916057, 10.002418, 9.997936 
5.0508016e+2, 3.0564287e+2, 181567.7, -180415.56, 126868.52, 0.19513546, 0.1385577, 221604.56, 221604.56, 0.000030276777, 10.002368, 9.997603 
5.050893e+2, 3.1564185e+2, 151937.86, -7334.2856, -108750.07, 0.23350145, 0.23632377, 207092.3, 207092.3, 0.000090633286, 10.001304, 9.9993 
5.149661e+2, 1.2565243e+2, -1712775.4, -1851295.8, -41772.977, -0.006528937, 0.0012737967, -1701153.3, 7447.2446, 0.000052165007, 10.000585, 9.998731 
5.149673e+2, 1.3565081e+2, -1814615.5, -1861560.9, -12759.322, -0.28850114, -0.07677088, -1811371.8, -200749.55, 0.000013925394, 9.999222, 9.998702 
5.149815e+2, 1.4565024e+2, -1709401.3, -1684502.1, 59877.043, 0.38736418, -0.025369091, -1635794.0, -123161.28, 0.000001645238, 9.998975, 9.999331 
5.149836e+2, 1.556521e+2, -1416021.6, -1487400.5, -7672.643, -0.11687936, 0.18798006, -1415206.3, -587.68726, 0.00000003629146, 10.000304, 9.9993725 
5.149882e+2, 1.6565202e+2, -1345732.4, -1429416.4, -88983.77, -0.26300758, 0.2586476, -1289244.0, 27376.943, 0.0, 10.000217, 9.999139 
5.149957e+2, 1.7565003e+2, -1412876.9, -1403953.9, -74242.16, -0.067615286, 0.1151628, -1334039.3, -115399.05, 0.0, 9.999055, 9.999199 
5.1500297e+2, 1.8564902e+2, -1215946.9, -1151207.5, 15437.434, -0.024378017, 0.045697633, -1147714.8, -27067.2, 0.0, 9.999282, 10.000143 
5.1501e+2, 1.9564858e+2, -922670.75, -969536.7, 58420.492, -0.11375399, -0.04182051, -883158.8, 139488.48, 0.0, 10.000654, 10.000065 
5.1501703e+2, 2.0564823e+2, -876219.4, -1022247.9, -16854.227, -0.09745122, -0.018438384, -874299.4, 50350.133, 0.0, 10.000855, 9.998932 
5.150241e+2, 2.1564779e+2, -870500.94, -971195.75, -18095.275, 0.010635495, 0.012121361, -867347.9, -40692.67, 0.0, 10.000226, 9.998916 
5.150308e+2, 2.256468e+2, -813080.0, -979170.25, 940.14545, 0.003098792, 0.06685687, -813074.7, -84407.68, 0.0, 10.00032, 9.998144 
5.150372e+2, 2.356452e+2, -626541.4, -831320.06, -14059.131, -0.10617917, 0.06500495, -625580.6, 5104.768, 0.0, 10.000901, 9.998201 
5.150435e+2, 2.456442e+2, -478502.44, -647708.06, -64635.15, -0.14003721, 0.11939401, -456637.7, 76059.234, 0.0, 10.000967, 9.998762 
5.1505e+2, 2.556435e+2, -437608.22, -572611.8, -29983.29, -0.115088396, 0.13925767, -431248.72, 3456.1873, 0.0, 10.0005455, 9.99881 
5.1505697e+2, 2.656423e+2, -315025.94, -411349.66, -32001.473, -0.035538036, 0.118260644, -305363.44, 31352.184, 0.0, 10.000516, 9.999261 
5.1506406e+2, 2.756403e+2, -209087.89, -317083.13, -11979.501, 0.072385736, -0.027352065, -207775.02, 30957.105, 0.0000000018853024, 10.000586, 9.999207 
5.1506954e+2, 2.8563964e+2, -38015.633, -222765.17, -25718.998, 0.033816606, 0.008291243, -34502.11, 106235.016, 0.00000034894228, 10.001275, 9.998835 
5.150738e+2, 2.9563996e+2, 203723.73, -74728.9, 14969.158, -0.08054421, 0.12054697, 204526.14, 247259.19, 0.000004315403, 10.002327, 9.998678 
5.1508224e+2, 3.0563736e+2, 100380.125, -337641.6, 80400.32, 0.13210094, 0.11099262, 114671.58, 114671.58, 0.000026122347, 10.002333, 9.996541 
5.150911e+2, 3.1563234e+2, 83865.15, -123148.67, -86245.7, 0.22979006, -0.078455605, 115087.6, 115087.6, 0.000081293096, 10.001211, 9.998548 
5.249673e+2, 1.2564483e+2, -1789910.0, -1830727.8, -31325.063, 0.10773568, 0.006858871, -1772931.9, -64253.883, 0.000041919076, 9.999781, 9.999263 
5.249665e+2, 1.3564445e+2, -1722178.5, -1748099.8, -138611.75, -0.30238867, -0.014567835, -1595922.8, 14763.184, 0.000010470756, 9.999556, 9.999317 
5.249797e+2, 1.456441e+2, -1711944.4, -1695965.6, 69045.414, 0.32071385, 0.037051827, -1634448.9, -121755.42, 0.0000009776196, 9.999, 9.999239 
5.2498335e+2, 1.5564543e+2, -1646807.3, -1606727.9, 28440.133, -0.08298749, 0.20440717, -1591976.3, -177291.42, 0.000000005050013, 9.998751, 9.999299 
5.2498853e+2, 1.6564523e+2, -1481697.8, -1474401.3, -13013.68, -0.18552063, 0.25576153, -1464534.1, -147846.08, 0.0, 9.999196, 9.999328 
5.24996e+2, 1.7564343e+2, -1241676.3, -1302975.5, 4441.964, 0.009377597, 0.11641335, -1241356.1, -22651.889, 0.0, 10.000145, 9.999374 
5.2500314e+2, 1.8564232e+2, -1089186.5, -1093720.3, 99782.57, 0.02706673, 0.0321568, -991645.06, 129066.234, 0.0, 10.000167, 10.000122 
5.2501e+2, 1.9564156e+2, -1116063.5, -1063320.3, 44187.62, -0.11055281, -0.081044234, -1038233.06, -15520.212, 0.0, 9.99935, 10.000051 
5.250174e+2, 2.0564105e+2, -1040354.9, -1136145.6, -25826.148, -0.08636866, -0.05620669, -1033835.56, -109117.9, 0.0, 9.999867, 9.998629 
5.250254e+2, 2.1564053e+2, -723191.25, -931894.6, -39323.637, 0.07169833, -0.002436141, -716027.8, 110699.27, 0.0, 10.001367, 9.998638 
5.250322e+2, 2.2563979e+2, -632238.94, -849149.2, 19819.973, 0.06138961, 0.069004625, -630442.8, 98294.48, 0.0, 10.001388, 9.998516 
5.250379e+2, 2.356386e+2, -694826.8, -827352.25, 54099.035, -0.08289247, 0.07417717, -675547.4, -44796.74, 0.0, 10.00027, 9.998538 
5.2504414e+2, 2.4563782e+2, -590465.3, -663948.3, 54233.965, -0.1255313, 0.11599386, -561699.06, -28939.988, 0.0, 10.000038, 9.999099 
5.250507e+2, 2.5563723e+2, -425435.38, -531974.94, 44521.125, -0.085139826, 0.11559615, -409280.38, 25484.373, 0.0, 10.000491, 9.999112 
5.250579e+2, 2.656361e+2, -282306.63, -430473.38, 45023.555, -0.002602312, 0.103215925, -269698.22, 67077.21, 0.0, 10.000899, 9.998934 
5.250654e+2, 2.7563426e+2, -125695.48, -299385.63, 1930.9568, 0.117210224, -0.0028340889, -125674.01, 113118.67, 0.00000000009174081, 10.001287, 9.998969 
5.250709e+2, 2.8563356e+2, -42986.227, -203398.45, -31354.19, 0.063726, 0.03401226, -37075.523, 103721.766, 0.00000033351301, 10.001138, 9.999036 
5.2507496e+2, 2.9563376e+2, -45889.17, -172069.63, -75017.625, -0.09710319, 0.11039001, -10958.89, 31834.115, 0.0000041082662, 10.0005045, 9.998885 
5.250841e+2, 3.0563095e+2, -24356.797, -358236.97, 63766.47, 0.152379, 0.054405246, -12592.785, -12592.785, 0.000024723933, 10.001304, 9.9969 
5.250933e+2, 3.1562653e+2, 372374.47, 69839.76, -35712.8, 0.26023203, -0.11050394, 376533.03, 376533.03, 0.00007789345, 10.002955, 9.999041 
5.349684e+2, 1.256351e+2, -1699466.3, -1648433.0, 33139.742, 0.16822143, -0.049986195, -1632124.5, 76654.875, 0.000035694404, 9.999816, 10.000492 
5.349652e+2, 1.356384e+2, -1643493.9, -1574463.3, -148670.44, -0.40768307, 0.17484507, -1456354.1, 154393.66, 0.000008273398, 9.999515, 10.00053 
5.3497684e+2, 1.4563821e+2, -1678742.5, -1614074.0, 45114.316, 0.09816925, 0.15267503, -1590903.3, -78153.4, 0.00000061502607, 9.998942, 9.9998255 
5.3498346e+2, 1.5563694e+2, -1609951.9, -1526878.9, 34815.227, 0.025582073, -0.0028972675, -1514217.8, -99455.54, 0.00000000036285042, 9.9987335, 9.999854 
5.3498995e+2, 1.6563657e+2, -1452255.9, -1403008.5, 8898.893, 0.006230065, -0.020147564, -1401449.9, -84685.14, 0.0, 9.99915, 9.999842 
5.3499717e+2, 1.756367e+2, -1215423.5, -1245141.6, 47692.965, 0.08647474, -0.019218, -1180328.5, 38433.246, 0.0, 10.000125, 9.999785 
5.350038e+2, 1.856365e+2, -1170868.5, -1247680.0, 58030.8, 0.05138834, 0.025454974, -1139685.6, -18923.115, 0.0, 10.000099, 9.999096 
5.3500986e+2, 1.9563586e+2, -1196596.3, -1216898.3, 31264.207, -0.08030067, 0.023346545, -1173876.4, -151107.81, 0.0, 9.99928, 9.999035 
5.350173e+2, 2.0563504e+2, -1069395.4, -1161369.6, 19709.502, -0.10207753, 0.070500955, -1065349.6, -140570.3, 0.0, 9.999724, 9.998519 
5.3502613e+2, 2.156339e+2, -745966.7, -946310.8, 21435.895, -0.022691213, 0.074148394, -743698.8, 83097.02, 0.0, 10.0012245, 9.998606 
5.350331e+2, 2.2563332e+2, -564556.2, -678698.56, -33469.43, -0.015159127, 0.09777122, -555466.0, 173336.36, 0.0, 10.001255, 9.999753 
5.350386e+2, 2.3563297e+2, -631010.94, -662608.1, 27893.475, -0.06630215, 0.057722095, -614752.7, 16050.325, 0.0, 10.00013, 9.999735 
5.3504485e+2, 2.4563213e+2, -601715.25, -666648.5, 60563.59, -0.08017214, 0.037031878, -565464.9, -32655.627, 0.0, 9.999955, 9.999119 
5.350516e+2, 2.5563073e+2, -441262.28, -545122.06, 74425.195, -0.07568, -0.04330989, -402440.75, 32380.668, 0.0, 10.000407, 9.999062 
5.350586e+2, 2.6563007e+2, -342207.06, -545450.7, 48039.49, -0.050373755, 0.036160488, -331424.34, 5405.354, 0.0, 10.000855, 9.998165 
5.3506565e+2, 2.7562967e+2, -190842.72, -417736.78, 29127.295, -0.014718401, 0.14874026, -187163.2, 51674.67, 0.0, 10.001202, 9.998204 
5.350714e+2, 2.8562835e+2, -79529.336, -272057.63, -64767.594, -0.037557572, 0.18030497, -59769.227, 81082.16, 0.00000019037492, 10.00111, 9.998575 
5.3507566e+2, 2.9562622e+2, -78193.445, -225068.98, -74983.84, -0.11170907, 0.07334853, -46675.594, -3805.2502, 0.0000040138116, 10.000442, 9.998554 
5.350855e+2, 3.0562365e+2, 91865.44, -124863.08, 121829.37, 0.13932623, -0.027928242, 146550.89, 146550.89, 0.000024880646, 10.001325, 9.998494 
5.35095e+2, 3.156239e+2, 489552.38, 303033.13, 86916.76, 0.060924735, 0.11693084, 523775.6, 523775.6, 0.00007745561, 10.002973, 10.000643 
5.449679e+2, 1.2562637e+2, -1856773.1, -1705318.6, 201721.6, 0.20478259, -0.098332, -1565578.5, 143286.03, 0.00003031358, 9.998643, 10.000709 
5.449651e+2, 1.3563038e+2, -1695296.8, -1558577.9, -181579.83, -0.3313987, 0.17658296, -1432916.0, 177909.77, 0.000006366235, 9.998994, 10.0009 
5.4497474e+2, 1.456306e+2, -1659388.9, -1543608.9, 10685.229, 0.008209391, 0.14745764, -1542631.0, -29808.6, 0.00000037085837, 9.998805, 10.000385 
5.44983e+2, 1.5562887e+2, -1577505.8, -1451668.8, -25000.281, 0.11639612, -0.106664315, -1446883.9, -32047.6, 0.00000000007720086, 9.998693, 10.000395 
5.449903e+2, 1.6562882e+2, -1427776.4, -1364728.4, 4223.9873, 0.13296033, -0.13089964, -1364446.6, -47611.742, 0.0, 9.999227, 10.000056 
5.449976e+2, 1.756299e+2, -1199725.4, -1214494.0, -9479.44, 0.120285176, -0.05281368, -1195093.5, 23729.652, 0.0, 10.000161, 9.999969 
5.4500425e+2, 1.8562979e+2, -1103379.4, -1263244.8, -3019.6362, 0.061933365, 0.012637562, -1103322.4, 17502.352, 0.0, 10.000748, 9.998687 
5.4501045e+2, 1.9562857e+2, -957008.8, -1138844.8, -2989.8628, -0.03255608, -0.00761806, -956959.7, 65878.59, 0.0, 10.001072, 9.998707 
5.4501784e+2, 2.0562786e+2, -888550.8, -1035212.44, 72057.52, -0.07306444, 0.046158105, -859072.6, 65775.84, 0.0, 10.000802, 9.998871 
5.450263e+2, 2.156273e+2, -907648.8, -982153.2, 85851.81, -0.05531155, 0.074299976, -851315.44, -24457.234, 0.0, 9.9999485, 9.99897 
5.4503345e+2, 2.2562708e+2, -777644.5, -772325.44, -8710.879, -0.022160027, 0.1114579, -765877.1, -37015.797, 0.0, 9.999743, 9.99984 
5.450395e+2, 2.3562686e+2, -640211.1, -661942.6, -57271.832, 0.02225492, 0.07839473, -592783.4, 38078.297, 0.0, 10.000041, 9.999786 
5.4504603e+2, 2.4562588e+2, -520145.2, -638963.94, -10697.319, 0.0139993625, 0.04805899, -519189.78, 13679.63, 0.0, 10.000566, 9.999013 
5.4505277e+2, 2.5562415e+2, -318880.84, -496905.47, -35667.93, -0.038004138, -0.058325864, -312000.56, 122884.22, 0.0, 10.001297, 9.998963 
5.450595e+2, 2.6562354e+2, -310321.94, -520756.2, -37346.055, -0.04868889, 0.029330112, -303890.66, 33001.37, 0.0, 10.001035, 9.99825 
5.4506624e+2, 2.7562353e+2, -355749.0, -490000.84, -14889.944, -0.017040929, 0.17186074, -354117.38, -115221.31, 0.0, 10.000033, 9.998275 
5.450724e+2, 2.8562173e+2, -194910.97, -377417.7, -26093.275, -0.0067208544, 0.1755727, -191253.67, -50339.285, 0.00000011177434, 10.000551, 9.998119 
5.45078e+2, 2.956185e+2, 163005.98, -143851.39, -60339.34, -0.0060404795, 0.004441774, 174444.52, 217388.67, 0.0000045059896, 10.002287, 9.99821 
5.450882e+2, 3.0561572e+2, 314247.72, 15325.413, 107746.84, 0.21594289, -0.11789435, 349036.44, 349036.44, 0.000026381855, 10.002708, 9.998784 
5.450969e+2, 3.156179e+2, 278026.66, 187393.58, -50794.695, 0.029511223, 0.18526715, 300781.34, 300781.34, 0.00007890932, 10.001597, 10.00049 
5.549651e+2, 1.2561882e+2, -1909952.1, -1803314.0, 210017.11, 0.005317353, -0.104657024, -1639953.4, 68977.9, 0.000026661766, 9.998604, 10.000047 
5.549658e+2, 1.3562042e+2, -1736629.9, -1643566.4, -166349.22, -0.18333538, -0.00496764, -1517363.5, 93556.15, 0.0000052899522, 9.998989, 10.000322 
5.549732e+2, 1.4562115e+2, -1622732.5, -1458043.8, -10905.654, -0.061272953, 0.011531151, -1457324.8, 55587.125, 0.00000021782215, 9.99877, 10.000987 
5.5498165e+2, 1.5562125e+2, -1540401.0, -1376537.0, -11053.059, 0.07886886, -0.11560597, -1375794.8, 39112.21, 0.00000000000011946363, 9.998693, 10.000917 
5.549892e+2, 1.65622e+2, -1441452.5, -1386118.6, 29480.957, 0.07446089, -0.07568352, -1373355.5, -56457.32, 0.0, 9.999199, 9.999922 
5.549968e+2, 1.7562298e+2, -1214239.8, -1236296.4, 36377.914, 0.0017215761, 0.005866303, -1187255.3, 31633.96, 0.0, 10.000121, 9.999842 
5.5500424e+2, 1.8562216e+2, -1097200.6, -1228798.0, -1977.7413, -0.041706886, -0.00830125, -1097170.9, 23726.771, 0.0, 10.000654, 9.99897 
5.5501133e+2, 1.9561973e+2, -947086.9, -1102676.6, 18710.398, -0.07358747, -0.1744896, -944868.5, 78053.39, 0.0, 10.000995, 9.9990015 
5.550185e+2, 2.0561948e+2, -847311.3, -917728.5, 29752.248, -0.11133986, -0.13357982, -836423.9, 88501.24, 0.0, 10.000672, 9.999735 
5.5502564e+2, 2.156207e+2, -878170.8, -888419.56, 69033.02, -0.14308412, -0.01505103, -814072.25, 12842.243, 0.0, 9.999804, 9.999684 
5.550329e+2, 2.2562094e+2, -877603.56, -943547.56, -8700.694, -0.07096761, 0.09497268, -876474.94, -147559.61, 0.0, 9.999592, 9.998735 
5.550403e+2, 2.3562029e+2, -736525.94, -825427.94, -31978.22, 0.07446987, 0.12821072, -726218.4, -95291.75, 0.0, 9.9998865, 9.998736 
5.550472e+2, 2.4561918e+2, -552634.6, -686380.3, 7707.383, 0.052945968, 0.14784262, -552191.94, -19252.863, 0.0, 10.000471, 9.998739 
5.550537e+2, 2.5561744e+2, -347044.8, -530883.4, 2163.7842, -0.10062454, 0.07073641, -347019.34, 87935.34, 0.0, 10.001185, 9.998787 
5.550602e+2, 2.6561648e+2, -252005.11, -387488.63, -86764.71, -0.10650683, 0.07820871, -209669.34, 127293.32, 0.0, 10.000984, 9.999188 
5.5506665e+2, 2.756158e+2, -307884.63, -378558.34, -34401.05, -0.0037923912, 0.06443485, -293904.9, -54937.12, 0.0, 9.999978, 9.99907 
5.5507386e+2, 2.856137e+2, -229859.5, -445119.75, 26566.734, 0.05801708, 0.023616327, -226629.2, -85642.31, 0.00000024371042, 10.000528, 9.997668 
5.550814e+2, 2.9561037e+2, 124202.62, -216246.4, 16013.911, 0.072679974, -0.107876964, 124954.21, 167971.13, 0.0000058589785, 10.002241, 9.997742 
5.5509156e+2, 3.05607e+2, 245854.7, -117373.21, 61452.58, 0.25470796, -0.22209348, 255969.86, 255969.86, 0.000029984647, 10.002673, 9.997886 
5.550982e+2, 3.1560826e+2, 139099.88, -92418.555, -41606.582, -0.05839616, 0.085884236, 146350.02, 146350.02, 0.00008416486, 10.001543, 9.998604 
5.649624e+2, 1.2561119e+2, -1940557.1, -1800439.8, 171503.3, -0.09127581, -0.037903737, -1685237.5, 23767.033, 0.000022362967, 9.9983015, 10.000198 
5.649669e+2, 1.3561139e+2, -1846461.1, -1683659.4, -180611.16, 0.076888986, -0.09607402, -1566953.0, 44052.73, 0.000004259607, 9.998176, 10.0004225 
5.6497216e+2, 1.4561214e+2, -1649684.3, -1499269.1, 9167.102, -0.027283048, -0.07128684, -1498712.5, 14285.492, 0.00000013010742, 9.9986925, 10.000749 
5.6498075e+2, 1.55613e+2, -1399155.4, -1325869.3, -76553.06, 0.07859938, -0.097875975, -1277641.4, 137345.23, 0.0, 9.999749, 10.000753 
5.649888e+2, 1.6561389e+2, -1344083.5, -1333229.1, -37134.035, 0.08632097, -0.04010406, -1301127.8, 15849.118, 0.0, 9.999822, 9.999992 
5.6499684e+2, 1.7561446e+2, -1342244.3, -1283546.3, -34151.016, 0.050859015, -0.011905021, -1267865.8, -48893.844, 0.0, 9.999171, 9.999971 
5.6500465e+2, 1.8561386e+2, -1275652.5, -1274183.0, -24641.605, 0.0098590925, -0.030031616, -1250265.1, -129286.56, 0.0, 9.9992695, 9.999313 
5.6501204e+2, 1.9561218e+2, -1089200.9, -1127279.3, -20764.088, -0.041835684, -0.15834732, -1080068.5, -57072.49, 0.0, 9.999851, 9.999366 
5.6501913e+2, 2.0561202e+2, -919106.44, -937919.44, -45208.69, -0.08273907, -0.13489358, -882336.0, 42661.73, 0.0, 10.000108, 9.999871 
5.650259e+2, 2.1561283e+2, -833781.3, -850159.06, -78916.03, -0.09437104, -0.069953516, -762630.44, 64358.605, 0.0, 10.000042, 9.999828 
5.650333e+2, 2.2561285e+2, -761927.44, -922920.44, -83492.68, -0.03173353, 0.028666316, -726446.75, 2545.224, 0.0, 10.000538, 9.998422 
5.6504107e+2, 2.3561206e+2, -528866.8, -754515.8, -71467.76, 0.09295335, 0.07819706, -508136.06, 122870.3, 0.0, 10.001439, 9.998471 
5.6504816e+2, 2.4561109e+2, -464602.47, -622662.0, 1843.1158, 0.08320471, 0.11421135, -464580.97, 68436.945, 0.0, 10.001007, 9.998906 
5.650547e+2, 2.556097e+2, -569220.4, -622558.25, 2958.3313, -0.030312885, 0.05556575, -569056.8, -134026.9, 0.0, 9.999603, 9.998918 
5.6506133e+2, 2.6560867e+2, -392385.25, -446390.97, -56755.586, -0.030868327, 0.049090676, -356536.28, -19498.484, 0.0, 9.99998, 9.999266 
5.6506807e+2, 2.756078e+2, -42667.69, -236691.55, -89589.945, 0.059501804, 0.0016938467, -7627.842, 231416.67, 0.0, 10.001753, 9.999179 
5.650755e+2, 2.856058e+2, 29150.844, -331161.44, 508.76617, 0.08795745, -0.026187794, 29151.563, 170213.4, 0.00000046127252, 10.002327, 9.997591 
5.650834e+2, 2.95603e+2, 77877.35, -253242.05, -4885.9653, 0.06662887, -0.10163054, 77949.43, 121036.375, 0.000007820285, 10.001964, 9.997627 
5.650937e+2, 3.056001e+2, 132654.56, -197711.95, 67583.01, 0.24220085, -0.15053442, 145945.31, 145945.31, 0.00003595913, 10.002012, 9.997652 
5.6509984e+2, 3.1560016e+2, 172011.22, -140981.92, -18439.234, -0.059530474, 0.055552356, 173093.77, 173093.77, 0.000094486146, 10.002069, 9.998006 
5.749592e+2, 1.256033e+2, -1876285.1, -1651427.6, 63579.754, -0.3017735, 0.08379212, -1634695.1, 74390.836, 0.000015098279, 9.998244, 10.001237 
5.7496786e+2, 1.3560311e+2, -1791089.8, -1572024.8, -176569.31, 0.32007888, -0.10307165, -1473773.5, 137312.16, 0.0000026568694, 9.998181, 10.001184 
5.749714e+2, 1.4560348e+2, -1724197.9, -1646057.3, 31109.729, -0.008682338, -0.10043036, -1635184.5, -122103.27, 0.000000050157187, 9.998664, 9.999754 
5.7498e+2, 1.5560406e+2, -1468948.9, -1465209.5, -28333.434, 0.0065862653, -0.053283896, -1438684.1, -23608.223, 0.0, 9.9997225, 9.999814 
5.749886e+2, 1.6560438e+2, -1324727.9, -1277388.8, -76249.05, 0.06107428, -0.030142926, -1221220.0, 95852.26, 0.0, 9.999752, 10.000407 
5.749973e+2, 1.7560428e+2, -1319204.3, -1229535.8, -44190.6, 0.15003541, -0.10988514, -1211418.3, 7653.4824, 0.0, 9.99914, 10.00036 
5.7500505e+2, 1.8560492e+2, -1251004.1, -1207791.4, -12108.78, 0.10184525, -0.04867811, -1204629.6, -83562.734, 0.0, 9.999209, 9.999795 
5.75012e+2, 1.9560583e+2, -1074598.0, -1073928.1, 12092.745, -0.055860173, 0.037722573, -1062165.6, -39104.16, 0.0, 9.999754, 9.999778 
5.750194e+2, 2.056054e+2, -977037.4, -1025782.4, -61074.125, -0.08625522, 0.044189192, -935652.25, -10585.854, 0.0, 9.999967, 9.999336 
5.750269e+2, 2.1560372e+2, -890654.7, -933147.25, -68363.2, -0.023609733, -0.084554784, -840312.4, -13231.183, 0.0, 9.999888, 9.999335 
5.7503426e+2, 2.2560284e+2, -742936.2, -852355.9, -60305.848, -0.013547548, -0.085906856, -716221.5, 12869.748, 0.0, 10.000399, 9.998974 
5.7504135e+2, 2.3560227e+2, -511016.34, -684188.44, -29743.621, -0.045618616, -0.06661639, -506050.06, 125049.97, 0.0, 10.001293, 9.999024 
5.7504845e+2, 2.4560167e+2, -437775.22, -554504.94, -64334.566, -0.012586735, -0.047063038, -409275.84, 123829.914, 0.0, 10.00094, 9.999413 
5.750555e+2, 2.5560078e+2, -550214.9, -566124.9, -29047.723, 0.061329786, -0.10472584, -528052.56, -92941.37, 0.0, 9.99952, 9.99935 
5.7506275e+2, 2.6560006e+2, -444387.3, -554000.25, -903.9541, 0.0791208, -0.0627907, -444379.88, -107262.05, 0.0, 9.999967, 9.998539 
5.7507e+2, 2.7559927e+2, -93314.55, -333460.4, -17447.738, 0.043010905, -0.028746504, -92053.51, 147074.3, 0.0, 10.0016985, 9.9985485 
5.750768e+2, 2.85598e+2, 50107.14, -272498.84, -26375.29, -0.036364995, 0.021423494, 52249.28, 193389.27, 0.0000006054728, 10.002267, 9.998022 
5.750835e+2, 2.9559627e+2, 92016.38, -206169.22, -66.949486, -0.15367264, 0.011886199, 92016.39, 135171.36, 0.000009307056, 10.00189, 9.997985 
5.750943e+2, 3.0559495e+2, 154677.45, -147123.42, 63656.895, 0.07666985, 0.08758468, 167554.73, 167554.73, 0.000040671366, 10.001994, 9.9980135 
5.751013e+2, 3.1559306e+2, 192856.16, -83805.96, 31429.83, -0.18330696, 0.06446302, 196381.77, 196381.77, 0.000103750725, 10.002003, 9.998441 
5.849581e+2, 1.2559475e+2, -2041931.5, -1746384.8, 55275.227, -0.17041321, 0.104642816, -1736385.1, -27212.041, 0.000008007214, 9.997145, 10.001133 
5.8496773e+2, 1.3559464e+2, -1608005.9, -1501074.9, -201551.1, 0.43728057, -0.05622876, -1346018.4, 265153.38, 0.0000012151539, 9.999503, 10.001045 
5.8497036e+2, 1.4559479e+2, -1492738.5, -1538189.8, 12521.647, -0.052125342, -0.064681426, -1489517.1, 23651.957, 0.000000012980553, 10.000295, 9.999689 
5.8498037e+2, 1.5559515e+2, -1446581.6, -1458829.4, -10495.023, 0.06003023, -0.036737792, -1440554.5, -25389.07, 0.0, 9.999914, 9.999745 
5.8498895e+2, 1.6559522e+2, -1340707.9, -1293221.1, -44376.98, 0.13094124, -0.03275079, -1266635.0, 50529.258, 0.0, 9.999674, 10.000337 
5.849967e+2, 1.755949e+2, -1255200.9, -1200462.4, -68107.305, 0.16073933, -0.1270344, -1154430.8, 64735.46, 0.0, 9.999584, 10.000343 
5.850043e+2, 1.8559586e+2, -1192619.9, -1145491.9, -16811.396, 0.10430014, -0.048769042, -1140109.6, -18951.38, 0.0, 9.999453, 10.000116 
5.8501196e+2, 1.9559753e+2, -1125732.0, -1067124.8, -26369.074, -0.0064038, 0.08213509, -1057007.1, -33861.668, 0.0, 9.999252, 10.000081 
5.8501977e+2, 2.0559746e+2, -1008281.56, -1021815.7, -42525.02, -0.019175831, 0.10033896, -971988.56, -46841.51, 0.0, 9.999671, 9.999502 
5.8502775e+2, 2.1559581e+2, -776762.25, -862498.44, -19843.137, 0.040354446, -0.04254048, -772392.44, 54769.285, 0.0, 10.000593, 9.999484 
5.8503497e+2, 2.2559491e+2, -721610.94, -824248.7, 3502.431, 0.02122124, -0.05842544, -721491.56, 7679.887, 0.0, 10.000482, 9.99913 
5.850416e+2, 2.3559433e+2, -752122.56, -787151.4, -22591.305, -0.06283243, -0.054365527, -741051.6, -109871.65, 0.0, 9.999578, 9.999155 
5.8504874e+2, 2.4559389e+2, -561419.94, -580192.56, -53098.402, -0.030468205, -0.039195232, -516884.6, 16298.354, 0.0, 9.999939, 9.999715 
5.850562e+2, 2.5559336e+2, -253115.05, -390611.22, -55997.574, 0.09113549, -0.09286042, -233195.06, 201988.23, 0.0, 10.001423, 9.999629 
5.8506405e+2, 2.6559255e+2, -232633.9, -503046.25, 19279.406, 0.1305498, -0.049628753, -231266.27, 105924.9, 0.0, 10.001665, 9.998065 
5.850719e+2, 2.7559128e+2, -229188.31, -447335.63, -4108.515, 0.11047405, -0.012678854, -229110.97, 10096.278, 0.0, 10.0009985, 9.998098 
5.850788e+2, 2.855898e+2, -97950.04, -336214.8, -7099.1577, -0.0071998844, 0.03323449, -97738.7, 43483.664, 0.00000055145284, 10.001211, 9.998092 
5.8508503e+2, 2.9558802e+2, 110387.25, -191921.69, -34645.813, -0.18689899, 0.011179007, 114306.98, 157545.05, 0.000008783807, 10.00199, 9.998034 
5.85096e+2, 3.0558708e+2, 142760.88, -168377.3, 10638.737, 0.06235047, 0.13364466, 143124.22, 143124.22, 0.000039667964, 10.0019655, 9.997877 
5.8510303e+2, 3.1558472e+2, 92638.125, -90597.22, -78865.336, -0.15674286, 0.06413684, 121906.92, 121906.92, 0.00010388018, 10.001131, 9.998801 
5.949582e+2, 1.2558548e+2, -2114556.5, -1887115.9, -23359.846, 0.062284984, 0.031297565, -1884741.4, -175474.97, 0.0000033727015, 9.997136, 10.000156 
5.949663e+2, 1.3558592e+2, -1681736.5, -1647420.0, -108358.44, 0.32026795, 0.03747395, -1554869.8, 56394.395, 0.00000044999516, 9.999488, 10.000045 
5.949686e+2, 1.4558603e+2, -1439045.6, -1416864.9, -18438.076, -0.2881257, 0.024361625, -1406438.8, 106822.96, 0.000000014541682, 10.00025, 10.000542 
5.9498113e+2, 1.5558624e+2, -1397670.9, -1353198.9, -13180.115, 0.11647163, -0.04797161, -1349586.1, 65669.234, 0.0, 9.999892, 10.000484 
5.949895e+2, 1.6558644e+2, -1384081.1, -1371353.6, -60242.313, 0.18839556, -0.035790306, -1317139.9, 112.564224, 0.0, 9.99963, 9.99982 
5.949947e+2, 1.7558633e+2, -1292998.1, -1268901.3, -60773.63, -0.02008471, -0.058233943, -1218993.3, 262.00922, 0.0, 9.999545, 9.999891 
5.950021e+2, 1.8558668e+2, -1192193.0, -1127710.9, -37732.418, -0.0869956, -0.029694218, -1110321.1, 10932.015, 0.0, 9.99938, 10.000274 
5.950113e+2, 1.955872e+2, -1128083.8, -1046364.9, -20609.555, -0.024467578, -0.030636586, -1041461.4, -18212.668, 0.0, 9.9991455, 10.000274 
5.950199e+2, 2.0558813e+2, -963517.1, -898775.06, -19235.854, 0.00025651383, 0.032401342, -893491.06, 31748.734, 0.0, 9.99954, 10.000411 
5.950281e+2, 2.1558912e+2, -740210.44, -750794.2, 23509.428, -0.006898088, 0.06278299, -721404.6, 105825.39, 0.0, 10.000442, 10.000324 
5.9503514e+2, 2.2558916e+2, -758252.5, -876263.75, -44044.3, -0.03114864, 0.11658957, -743626.9, -14394.653, 0.0, 10.000369, 9.998833 
5.950413e+2, 2.3558816e+2, -791207.75, -839247.75, -39815.168, -0.07397571, 0.108902305, -768728.2, -137481.58, 0.0, 9.999448, 9.998864 
5.950484e+2, 2.4558768e+2, -563727.9, -569480.94, -7996.3374, -0.082245484, 0.12745416, -558106.44, -24856.375, 0.0, 9.999864, 9.999829 
5.950564e+2, 2.5558746e+2, -259027.6, -380165.56, 5074.56, -0.064306125, 0.09104637, -258815.39, 176430.73, 0.0, 10.001321, 9.999751 
5.950648e+2, 2.6558617e+2, -256821.31, -541445.9, -19617.121, 0.017253019, 0.09402088, -255475.61, 81781.6, 0.0, 10.001615, 9.997828 
5.9507346e+2, 2.755838e+2, -259334.7, -493779.63, -11504.181, 0.13942613, 0.0450199, -258771.55, -19488.34, 0.0, 10.000928, 9.997817 
5.9508103e+2, 2.8558114e+2, -125529.586, -380683.38, 12187.909, 0.063485615, 0.003935368, -124948.73, 16360.534, 0.0000003359344, 10.001163, 9.997807 
5.9508747e+2, 2.9557818e+2, 78742.19, -235497.58, 4644.497, -0.17438717, -0.110966064, 78810.82, 122147.48, 0.000006914508, 10.0019045, 9.99777 
5.950985e+2, 3.055766e+2, 100464.3, -253442.17, -28525.465, 0.085249, -0.012422884, 102748.75, 102748.75, 0.000035638073, 10.0019455, 9.997307 
5.9510404e+2, 3.1557506e+2, 114060.45, -35805.074, -37506.543, -0.23925428, 0.05994753, 122923.03, 122923.03, 0.00009897654, 10.001084, 9.999201 
6.0495645e+2, 1.255773e+2, -2080154.5, -1835807.4, -53132.383, 0.17665683, 0.08996739, -1824753.9, -115402.164, 0.0000011596172, 9.997208, 10.000489 
6.0496604e+2, 1.3557793e+2, -1707631.9, -1614642.9, 46506.105, 0.37678432, 0.07660786, -1595376.1, 15968.5205, 0.00000014603442, 9.999131, 10.000434 
6.0496897e+2, 1.45578e+2, -1511757.1, -1475333.9, 86657.23, -0.24552032, 0.05373934, -1404995.3, 108347.18, 0.0000000031309833, 9.999834, 10.000356 
6.049808e+2, 1.5557823e+2, -1437666.1, -1393519.0, -17180.51, 0.11710819, 0.0068052765, -1387621.0, 27717.559, 0.0, 9.999698, 10.000312 
6.049891e+2, 1.6557865e+2, -1373686.3, -1381781.9, -43855.617, 0.19119644, 0.054639876, -1333692.1, -16357.078, 0.0, 9.999755, 9.999697 
6.0499483e+2, 1.755789e+2, -1244211.8, -1260547.3, -39193.64, 0.015811648, 0.08033765, -1212343.8, 6990.982, 0.0, 9.999939, 9.999767 
6.0500187e+2, 1.8557882e+2, -1138587.8, -1101926.4, -1775.5797, -0.05790466, 0.074270554, -1101840.6, 19495.014, 0.0, 9.999759, 10.000264 
6.0501033e+2, 1.9557832e+2, -1104023.3, -1033267.5, -19067.71, -0.03906248, -0.028993072, -1028456.2, -5117.199, 0.0, 9.999311, 10.000282 
6.0501885e+2, 2.0557925e+2, -1035469.94, -933048.9, -11295.134, -0.025417197, 0.032726813, -931818.06, -6487.743, 0.0, 9.999045, 10.000421 
6.050276e+2, 2.1558101e+2, -966290.0, -857263.06, -60390.6, -0.015426932, 0.14054342, -830420.9, -3105.6238, 0.0, 9.998875, 10.000353 
6.05035e+2, 2.2558147e+2, -835324.9, -856370.0, -104300.9, -0.03448181, 0.20866857, -741017.1, -11704.405, 0.0, 9.999603, 9.999326 
6.050414e+2, 2.3558062e+2, -522513.4, -653185.9, -64337.453, -0.07952253, 0.16605175, -496153.78, 135168.61, 0.0, 10.001072, 9.999341 
6.0504895e+2, 2.4558012e+2, -386001.63, -532029.3, -465.01926, -0.0777749, 0.18308352, -386000.13, 147326.05, 0.0, 10.001316, 9.999378 
6.050575e+2, 2.5557968e+2, -390858.88, -491839.72, -54882.652, -0.039092083, 0.17238761, -366774.6, 68552.67, 0.0, 10.000634, 9.999315 
6.05066e+2, 2.6557815e+2, -396736.53, -576766.0, -76038.2, 0.03686405, 0.15612872, -368918.94, -31578.525, 0.0, 10.000497, 9.998131 
6.0507435e+2, 2.755755e+2, -260686.78, -462777.94, -48881.207, 0.1462615, 0.04928695, -249484.5, -10118.3955, 0.0, 10.00076, 9.998116 
6.050824e+2, 2.8557312e+2, -99423.47, -379732.75, 66575.9, 0.07728751, 0.025837775, -84414.734, 56974.94, 0.00000016006682, 10.001399, 9.997697 
6.0508996e+2, 2.9557085e+2, 141047.16, -215409.16, 41108.22, -0.1288419, -0.00418744, 145726.53, 189138.92, 0.0000052467194, 10.002372, 9.997685 
6.0510087e+2, 3.0556846e+2, 144158.52, -219890.2, -1356.5114, 0.12602207, 0.007986564, 144163.58, 144163.58, 0.000031333126, 10.002211, 9.997407 
6.051054e+2, 3.1556633e+2, 105616.86, -7893.762, 27370.121, -0.19180098, 0.021373425, 111871.78, 111871.78, 0.00009226463, 10.000887, 9.999501 
6.1495155e+2, 1.2557015e+2, -1955037.3, -1562260.5, -129120.23, -0.08902065, 0.27631137, -1523616.0, 185813.6, 0.000000319301, 9.997171, 10.002369 
6.149667e+2, 1.3557069e+2, -1588825.6, -1365787.8, 128976.21, 0.4916425, 0.066533506, -1306803.5, 304608.66, 0.000000018009526, 9.999129, 10.002141 
6.149711e+2, 1.4557073e+2, -1602867.3, -1665269.6, 62595.805, -0.05441623, 0.028688513, -1564127.5, -50716.54, 0.0, 9.999832, 9.999053 
6.1497915e+2, 1.5557112e+2, -1517763.3, -1567643.3, -11832.802, -0.050382223, 0.12393508, -1515098.6, -99683.484, 0.0, 9.999715, 9.999114 
6.149875e+2, 1.6557184e+2, -1362309.3, -1342788.1, -49851.125, 0.02589883, 0.24141356, -1301751.1, 15660.895, 0.0, 9.999697, 9.99999 
6.1499643e+2, 1.7557256e+2, -1233717.3, -1231037.9, -20799.541, 0.16139762, 0.286187, -1211534.9, 7870.415, 0.0, 9.999903, 9.999988 
6.150033e+2, 1.855723e+2, -1162170.6, -1131547.4, -29838.244, 0.081188746, 0.26021573, -1113321.4, 8084.7236, 0.0, 9.999675, 10.000099 
6.1500865e+2, 1.9557104e+2, -1130434.0, -1072491.8, -21934.027, -0.15456824, 0.09651424, -1065125.3, -41710.16, 0.0, 9.999238, 10.000051 
6.1501634e+2, 2.0557095e+2, -1114374.0, -1069078.4, -29031.914, -0.20239237, 0.115125775, -1054905.4, -129488.13, 0.0, 9.998927, 9.999542 
6.150259e+2, 2.1557154e+2, -1042034.4, -981291.06, -51607.438, -0.096529745, 0.1927065, -951781.44, -124364.71, 0.0, 9.998728, 9.999575 
6.1503416e+2, 2.2557187e+2, -766338.5, -679688.75, -57503.41, -0.10070269, 0.21850163, -651015.8, 78396.53, 0.0, 9.999459, 10.000608 
6.1504155e+2, 2.355718e+2, -465042.28, -495607.66, -508.86435, -0.19158411, 0.12469018, -465033.8, 166372.73, 0.0, 10.000907, 10.000503 
6.1504996e+2, 2.4557124e+2, -472689.75, -689844.1, -39847.21, -0.13084203, 0.1337858, -465608.78, 67802.51, 0.0, 10.001219, 9.9983425 
6.1505926e+2, 2.5557002e+2, -470027.13, -638152.6, -67329.28, 0.044200446, 0.14982401, -446387.63, -10961.018, 0.0, 10.000553, 9.998353 
6.150671e+2, 2.655685e+2, -343896.22, -456889.22, -77204.18, 0.07934772, 0.13289167, -304724.84, 32715.604, 0.0, 10.000452, 9.998977 
6.150739e+2, 2.7556643e+2, -218145.22, -351798.4, -23445.873, 0.0036878213, -0.00017659683, -214151.6, 25304.031, 0.0, 10.000665, 9.99892 
6.150825e+2, 2.8556573e+2, -100875.875, -374767.9, 90421.8, -0.07963558, 0.10448801, -73717.32, 67745.92, 0.00000012615395, 10.001362, 9.997746 
6.150921e+2, 2.955662e+2, 136102.08, -202465.4, 88319.11, -0.19457515, 0.33221444, 157756.16, 201220.7, 0.000004351736, 10.002278, 9.997813 
6.151028e+2, 3.0556262e+2, 185004.33, -133099.78, -60651.63, 0.068935156, 0.19034445, 196176.17, 196176.17, 0.000027327982, 10.002194, 9.998022 
6.1510605e+2, 3.155587e+2, 107012.25, 12979.213, 59984.277, -0.2805878, -0.027795235, 136210.34, 136210.34, 0.00008384043, 10.000814, 9.999683 
6.2494963e+2, 1.255615e+2, -1849039.0, -1520108.6, -110482.21, -0.01947507, 0.2767568, -1486444.8, 223071.36, 0.00000004128188, 9.997908, 10.002324 
6.2496537e+2, 1.3556227e+2, -1650535.6, -1392332.4, 37301.777, 0.4861292, 0.08707237, -1387051.5, 224445.45, 0.000000000001578113, 9.998671, 10.002194 
6.249716e+2, 1.4556244e+2, -1745855.1, -1741562.3, -50386.855, 0.06649366, 0.0649317, -1693276.1, -179780.8, 0.0, 9.998878, 9.998996 
6.249783e+2, 1.5556283e+2, -1614535.9, -1608299.4, -49193.617, -0.059841212, 0.16457286, -1562125.3, -146624.61, 0.0, 9.999053, 9.999142 
6.249866e+2, 1.6556363e+2, -1383424.5, -1315207.3, -7913.3594, -0.014524821, 0.27060884, -1314301.3, 3194.895, 0.0, 9.999401, 10.000315 
6.249965e+2, 1.7556445e+2, -1232479.8, -1192326.6, -9818.246, 0.18574448, 0.2923038, -1190054.4, 29432.072, 0.0, 9.999774, 10.000304 
6.250037e+2, 1.855643e+2, -1152665.5, -1168006.3, -19106.209, 0.15196683, 0.28105387, -1139747.5, -18261.38, 0.0, 9.999894, 9.999753 
6.25009e+2, 1.955631e+2, -1078296.3, -1079641.0, -43629.68, -0.0673611, 0.15540801, -1035333.8, -11837.846, 0.0, 9.99973, 9.9997635 
6.250161e+2, 2.0556271e+2, -1009024.56, -1024714.6, 9540.769, -0.1520066, 0.15913346, -1004517.6, -79016.914, 0.0, 9.999669, 9.9994955 
6.250248e+2, 2.1556269e+2, -904907.44, -913034.9, 29404.207, -0.11896234, 0.17875937, -879287.44, -51783.14, 0.0, 9.999667, 9.999587 
6.250335e+2, 2.2556266e+2, -738804.1, -678661.56, 47415.004, -0.11762222, 0.17410733, -652586.0, 76916.06, 0.0, 9.999695, 10.000506 
6.250424e+2, 2.3556244e+2, -641828.56, -596129.25, -21753.006, -0.13204032, 0.07567707, -587430.5, 44067.11, 0.0, 9.9997425, 10.000384 
6.250512e+2, 2.4556181e+2, -654520.0, -777324.06, -70693.52, -0.0636722, 0.0852247, -622285.6, -88782.56, 0.0, 9.99995, 9.998363 
6.250599e+2, 2.555607e+2, -496105.78, -645804.0, -41250.797, 0.06645914, 0.10623296, -485491.34, -49973.06, 0.0, 10.000347, 9.998401 
6.250678e+2, 2.655594e+2, -228695.8, -398467.97, 2453.9976, 0.063624725, 0.111298434, -228660.33, 108869.305, 0.0, 10.00123, 9.998997 
6.25075e+2, 2.7555767e+2, 42101.895, -226710.17, -35710.215, -0.03846393, 0.009617217, 46764.91, 286306.1, 0.0, 10.002447, 9.99892 
6.250839e+2, 2.8555703e+2, -42796.336, -354642.8, 27916.438, -0.0880333, 0.12420757, -40316.973, 101232.36, 0.000000116905284, 10.00179, 9.997689 
6.250938e+2, 2.955573e+2, -248962.34, -398492.06, -7978.7427, -0.110908076, 0.3429584, -248537.81, -204983.19, 0.000004287332, 9.999655, 9.99775 
6.251042e+2, 3.0555424e+2, -96209.77, -185936.06, -98071.43, 0.116891496, 0.21802154, -33227.164, -33227.164, 0.000025852014, 9.999926, 9.99874 
6.2510794e+2, 3.1555185e+2, 294286.53, 150763.6, 9757.729, -0.20813394, 0.0781904, 294946.88, 294946.88, 0.00007870898, 10.001907, 10.000096 
6.3494974e+2, 1.2555109e+2, -1974089.3, -1790162.0, -179284.27, 0.137507, 0.08069451, -1680630.8, 28982.988, 0.000000010756334, 9.99796, 10.0004425 
6.349619e+2, 1.3555238e+2, -1769923.8, -1642490.3, 63963.2, 0.24440534, 0.12931396, -1615923.5, -4321.757, 0.0, 9.998672, 10.0004835 
6.3497e+2, 1.4555304e+2, -1657079.9, -1539774.4, -62739.895, -0.007400897, 0.16387275, -1512540.9, 1055.825, 0.0, 9.998812, 10.000407 
6.349782e+2, 1.555534e+2, -1522106.6, -1419041.0, -25528.1, -0.01628688, 0.12177405, -1413064.5, 2530.4973, 0.0, 9.999058, 10.000442 
6.3498604e+2, 1.6555394e+2, -1368944.3, -1276290.9, -6873.788, -0.040173, 0.12591192, -1275783.6, 41804.805, 0.0, 9.999362, 10.000601 
6.349945e+2, 1.7555442e+2, -1217324.3, -1161573.9, 14486.116, -0.017030021, 0.08732292, -1158034.5, 61545.285, 0.0, 9.999763, 10.000528 
6.3500273e+2, 1.8555465e+2, -1195549.8, -1236415.0, -38021.832, 0.039523285, 0.12565875, -1172818.1, -51240.727, 0.0, 9.999815, 9.999315 
6.3501066e+2, 1.9555438e+2, -1120588.1, -1144410.4, -39814.38, 0.10536684, 0.13728167, -1090941.3, -67358.33, 0.0, 9.999632, 9.999365 
6.3501763e+2, 2.055544e+2, -972833.0, -916398.9, -2734.2083, 0.016226787, 0.15859224, -916266.75, 9315.381, 0.0, 9.999527, 10.000305 
6.3502395e+2, 2.1555439e+2, -879977.75, -823109.5, 42602.95, -0.19559857, 0.097250916, -800323.4, 27255.19, 0.0, 9.9995, 10.000285 
6.3503265e+2, 2.2555381e+2, -862901.3, -900529.8, 37627.73, -0.19261205, 0.07887627, -839646.3, -110063.664, 0.0, 9.999543, 9.999054 
6.3504344e+2, 2.355525e+2, -756120.1, -799395.0, -5639.6597, -0.018767577, 0.014922625, -755397.25, -123801.67, 0.0, 9.999595, 9.99906 
6.3505214e+2, 2.455519e+2, -596138.94, -633015.3, -65631.9, 0.0074073784, 0.03496446, -546404.44, -12803.536, 0.0, 9.999858, 9.999396 
6.3505894e+2, 2.5555167e+2, -446393.84, -517714.88, -13847.403, -0.08463365, 0.044717338, -443799.63, -8197.66, 0.0, 10.000242, 9.999331 
6.350675e+2, 2.655509e+2, -296822.1, -520914.7, 35193.566, -0.11175346, 0.09849591, -291424.97, 46183.19, 0.0, 10.001155, 9.99819 
6.3507724e+2, 2.7554935e+2, -30406.064, -347244.4, 16318.922, -0.09554139, 0.091420665, -29567.768, 210054.22, 0.0, 10.002324, 9.99815 
6.3508624e+2, 2.855471e+2, -56823.438, -373512.22, -66975.63, -0.06241316, 0.09087279, -43241.445, 98405.51, 0.0000001448745, 10.001749, 9.9975815 
6.3509464e+2, 2.9554448e+2, -271673.1, -424874.7, -61077.36, -0.024631849, 0.03495972, -250303.86, -206623.66, 0.000005079309, 9.999582, 9.997601 
6.3510454e+2, 3.055436e+2, -46772.656, -94583.57, -27181.174, 0.13028482, 0.10873381, -34480.227, -34480.227, 0.000027855136, 9.999951, 9.999366 
6.3511026e+2, 3.1554583e+2, 304224.13, 193812.27, 136935.95, -0.240472, 0.35495466, 396663.53, 396663.53, 0.00008149468, 10.0018, 10.00045 
6.4494985e+2, 1.2554274e+2, -1828418.6, -1812005.8, -117127.64, 0.29052112, 0.05210956, -1702797.4, 6896.791, 0.0000000047013002, 9.999359, 9.999616 
6.449594e+2, 1.3554366e+2, -1794429.8, -1737323.4, 157429.39, 0.13026217, 0.14844951, -1605878.8, 5812.568, 0.0, 9.998897, 9.9997015 
6.449692e+2, 1.4554472e+2, -1631181.1, -1462693.1, 69128.484, 0.042540487, 0.23253903, -1437961.0, 75721.46, 0.0, 9.998716, 10.00098 
6.4497787e+2, 1.5554562e+2, -1482507.3, -1337952.6, 15272.6, 0.05440893, 0.18303274, -1336356.6, 79315.45, 0.0, 9.9990635, 10.000993 
6.449856e+2, 1.6554582e+2, -1427028.8, -1347169.4, 360.42184, 0.00023116126, 0.14844626, -1347167.8, -29499.99, 0.0, 9.999136, 10.000232 
6.4499366e+2, 1.7554536e+2, -1357270.5, -1264220.1, -46730.863, -0.03209425, 0.05139716, -1244803.1, -25133.504, 0.0, 9.998953, 10.000216 
6.4500207e+2, 1.855455e+2, -1270128.0, -1256087.4, -67791.59, 0.024962163, 0.08889634, -1194953.5, -73284.72, 0.0, 9.999231, 9.999462 
6.450107e+2, 1.9554582e+2, -1082910.6, -1108460.6, -51688.203, 0.13660064, 0.14540522, -1042442.1, -18773.38, 0.0, 9.999823, 9.999516 
6.450179e+2, 2.0554607e+2, -886891.5, -880960.9, -12377.805, 0.069490604, 0.18471518, -871198.1, 54466.97, 0.0, 10.000149, 10.000243 
6.4502436e+2, 2.15546e+2, -785147.06, -789255.25, -61176.086, -0.12841913, 0.122761734, -725990.56, 101670.63, 0.0, 10.000207, 10.000173 
6.4503294e+2, 2.2554521e+2, -787920.1, -916652.94, -28089.152, -0.14872915, 0.11495627, -782058.1, -52390.19, 0.0, 10.000259, 9.998607 
6.450433e+2, 2.3554365e+2, -677776.9, -802439.7, -21477.047, -0.02210871, 0.06654197, -674180.56, -42495.11, 0.0, 10.000301, 9.998695 
6.4505213e+2, 2.4554287e+2, -483778.97, -559859.75, -43585.266, -0.0035826208, 0.076761186, -463968.28, 69723.664, 0.0, 10.000559, 9.999562 
6.4505976e+2, 2.555425e+2, -324663.03, -440433.44, -75408.01, -0.06204457, 0.05768954, -287484.75, 148206.84, 0.0, 10.001006, 9.9994955 
6.4506865e+2, 2.655415e+2, -362633.13, -574100.0, -8603.921, -0.084901564, 0.09173716, -362283.63, -24583.984, 0.0, 10.000795, 9.998 
6.450786e+2, 2.7553967e+2, -365571.3, -529937.8, -12912.807, -0.0628932, 0.08100882, -364563.03, -124845.375, 0.000000000000000000046744374, 10.000112, 9.997967 
6.450877e+2, 2.855374e+2, -202153.86, -430948.4, -60592.9, -0.030076744, 0.07344129, -187097.53, -45354.26, 0.00000034821963, 10.000696, 9.997689 
6.450957e+2, 2.9553458e+2, 110206.63, -238498.23, -66558.74, -0.00088028103, -0.005970447, 122479.055, 166255.03, 0.0000068469953, 10.002189, 9.997621 
6.451054e+2, 3.0553368e+2, 219213.73, -27301.781, -19319.248, 0.12436798, 0.09463817, 220718.6, 220718.6, 0.00003364889, 10.002059, 9.998791 
6.451123e+2, 3.1553596e+2, 83709.89, 33435.074, 4009.9229, -0.13027497, 0.38917562, 84027.72, 84027.72, 0.000093661416, 10.000532, 9.999935 
6.5494895e+2, 1.2553646e+2, -1801953.1, -1754380.9, -139656.7, 0.21110584, 0.18445128, -1636499.1, 73258.336, 0.000000001405694, 9.999354, 10.000008 
6.5495753e+2, 1.355362e+2, -1779379.3, -1710228.9, 145164.14, 0.018102543, 0.14276458, -1595579.1, 16185.35, 0.0, 9.99892, 9.99987 
6.5496886e+2, 1.4553757e+2, -1658273.6, -1514762.5, 64218.395, 0.10504478, 0.26764587, -1490222.4, 23529.64, 0.0, 9.998697, 10.000636 
6.5497696e+2, 1.5553942e+2, -1513667.9, -1397463.6, 40326.29, 0.035270423, 0.35001528, -1384840.5, 30891.674, 0.0, 9.999034, 10.000607 
6.5498483e+2, 1.6553922e+2, -1499591.1, -1482729.1, -20570.158, -0.017905734, 0.3401786, -1468929.1, -151194.64, 0.0, 9.999074, 9.999324 
6.549934e+2, 1.7553721e+2, -1420012.4, -1388258.1, -39984.426, 0.019552365, 0.17990886, -1361113.9, -141357.81, 0.0, 9.998928, 9.999372 
6.5500134e+2, 1.8553685e+2, -1229174.4, -1152875.3, -57374.72, 0.0016933162, 0.16786441, -1122124.6, -364.65524, 0.0, 9.999155, 10.000207 
6.5500855e+2, 1.9553751e+2, -1048552.25, -1015809.2, -16417.82, -0.08566246, 0.1806214, -1008995.1, 14757.282, 0.0, 9.999732, 10.0001955 
6.5501666e+2, 2.0553774e+2, -975609.1, -1036736.06, -23060.27, -0.09626224, 0.2397452, -967885.5, -42135.875, 0.0, 10.000025, 9.999238 
6.550257e+2, 2.1553735e+2, -872346.3, -932350.2, -47161.18, -0.038280364, 0.2506899, -846452.9, -18699.666, 0.0, 10.000046, 9.9992695 
6.55034e+2, 2.2553684e+2, -771863.56, -843871.94, -38498.406, -0.09330699, 0.2781718, -755156.94, -25398.664, 0.0, 10.000096, 9.99918 
6.550416e+2, 2.3553587e+2, -665906.9, -740552.3, -7855.5967, -0.25298828, 0.23394935, -665089.1, -33321.652, 0.0, 10.000147, 9.999192 
6.550509e+2, 2.455347e+2, -543270.94, -658530.6, -40061.734, -0.2041632, 0.21515283, -530714.3, 3062.1553, 0.0, 10.000455, 9.998932 
6.550617e+2, 2.5553313e+2, -380672.03, -529752.4, -47091.184, 0.008434189, 0.13583793, -367042.94, 68744.46, 0.0, 10.000896, 9.99893 
6.550709e+2, 2.6553124e+2, -339563.94, -522315.63, -46741.695, 0.032550316, 0.08773309, -328302.88, 9500.803, 0.0, 10.000769, 9.998372 
6.5507895e+2, 2.7552888e+2, -345376.47, -480447.75, -18164.2, -0.07947134, -0.013935777, -342976.4, -103149.67, 0.0000000002377775, 10.000066, 9.998334 
6.5508765e+2, 2.855279e+2, -188292.08, -384060.25, -15853.154, -0.13291931, 0.07832872, -187016.61, -45179.33, 0.0000008000927, 10.00063, 9.998035 
6.5509653e+2, 2.955277e+2, 107942.414, -212263.95, -664.2336, -0.17413905, 0.21944177, 107943.8, 151785.56, 0.000010270006, 10.002067, 9.997854 
6.5510625e+2, 3.0552468e+2, 95870.055, -286618.6, -82800.01, -0.027898602, 0.19063097, 113024.945, 113024.945, 0.00004390313, 10.00206, 9.997019 
6.551137e+2, 3.1552163e+2, -14395.238, -167166.05, -7171.3345, -0.114749305, 0.13606955, -14059.341, -14059.341, 0.00011355634, 10.000511, 9.998575 
6.649481e+2, 1.2552842e+2, -1794863.9, -1720135.6, -156072.86, 0.20591007, 0.2622926, -1597016.6, 112822.39, 0.00000000035571668, 9.999266, 10.000287 
6.649562e+2, 1.3552785e+2, -1746929.6, -1693730.4, 16698.28, 0.00241867, 0.18120146, -1688923.4, -77076.36, 0.0, 9.999116, 9.999906 
6.649688e+2, 1.4552863e+2, -1672452.0, -1533469.9, -13571.005, 0.23788077, 0.25023475, -1532157.1, -18317.918, 0.0, 9.998649, 10.00053 
6.6497624e+2, 1.5552986e+2, -1600184.3, -1447990.8, -45821.008, 0.09491147, 0.2769096, -1435260.3, -19435.582, 0.0, 9.998483, 10.000519 
6.6498405e+2, 1.6552985e+2, -1548230.4, -1506350.0, -25314.516, 0.02345894, 0.2910981, -1494437.3, -176611.4, 0.0, 9.998747, 9.999321 
6.649932e+2, 1.7552865e+2, -1370101.3, -1362447.0, -2645.9722, 0.10161716, 0.21037553, -1361621.4, -141779.9, 0.0, 9.999263, 9.999385 
6.6500115e+2, 1.8552856e+2, -1168107.4, -1128679.6, 10361.211, 0.05147097, 0.22853945, -1126122.6, -4279.35, 0.0, 9.999613, 10.000148 
6.6500777e+2, 1.955291e+2, -1045932.0, -1026088.44, -37797.3, -0.13287982, 0.23854691, -996932.4, 26904.188, 0.0, 9.999804, 10.00009 
6.6501623e+2, 2.0552886e+2, -984897.8, -1075203.8, -26057.166, -0.13665012, 0.27100807, -977918.56, -52080.008, 0.0, 10.000097, 9.998946 
6.650264e+2, 2.1552774e+2, -838510.9, -947742.06, -22937.123, 0.01951886, 0.23682368, -833889.9, -6039.931, 0.0, 10.000403, 9.998999 
6.6503495e+2, 2.2552718e+2, -695254.3, -778065.4, 13770.312, -0.01558208, 0.26136836, -693024.5, 36830.277, 0.0, 10.000511, 9.999434 
6.6504216e+2, 2.3552686e+2, -607913.44, -690554.25, -1888.1305, -0.21420537, 0.25939438, -607870.3, 23986.125, 0.0, 10.000457, 9.999392 
6.650516e+2, 2.4552573e+2, -534646.3, -693551.4, 5701.7915, -0.18300056, 0.2533401, -534442.0, -576.8661, 0.0, 10.000655, 9.998605 
6.6506284e+2, 2.555237e+2, -386435.3, -570694.6, -11029.968, 0.03814334, 0.16047628, -385777.4, 50104.484, 0.0, 10.000993, 9.998613 
6.650722e+2, 2.6552168e+2, -282691.78, -492162.4, -16842.945, 0.073678024, 0.11190747, -281346.13, 56554.184, 0.0, 10.001141, 9.998405 
6.6507995e+2, 2.7551952e+2, -183442.13, -393164.22, -36381.92, -0.02683364, 0.028579654, -177310.0, 62611.38, 0.0000000023427176, 10.001151, 9.998405 
6.650889e+2, 2.8551885e+2, -98212.086, -329392.47, 16573.82, -0.09310951, 0.13986829, -97029.914, 44898.37, 0.0000014418595, 10.0011835, 9.998152 
6.650983e+2, 2.9551885e+2, -9159.913, -248400.11, -14848.192, -0.1459299, 0.2881104, -8241.897, 35686.906, 0.000014823799, 10.001169, 9.998037 
6.651078e+2, 3.055151e+2, -10144.711, -323211.0, -50676.63, -0.033765014, 0.1657738, -2145.9563, -2145.9563, 0.000057815294, 10.001277, 9.997144 
6.651151e+2, 3.15511e+2, 75452.33, -136654.77, 109448.03, -0.0468883, 0.0019220209, 121800.31, 121800.31, 0.00014076945, 10.001178, 9.998468 
6.749468e+2, 1.2551877e+2, -1791837.9, -1709012.5, -128738.375, 0.085197195, 0.28940463, -1615189.9, 94747.4, 0.0000000023126079, 9.999256, 10.000364 
6.7495525e+2, 1.3551852e+2, -1757418.5, -1711348.5, 14121.939, -0.03404969, 0.24941562, -1707364.3, -95424.29, 0.0, 9.999107, 9.999786 
6.749685e+2, 1.4551793e+2, -1665442.9, -1509112.0, -38457.598, 0.30725157, 0.1797537, -1500163.6, 13779.964, 0.0, 9.998609, 10.000714 
6.749751e+2, 1.5551709e+2, -1581098.6, -1409077.9, -35892.613, 0.093858406, -0.017627368, -1401889.3, 14058.543, 0.0, 9.9984865, 10.000784 
6.7498296e+2, 1.6551785e+2, -1485772.1, -1374270.0, -19022.43, 0.00852874, 0.012330951, -1371114.0, -53174.0, 0.0, 9.99873, 10.000239 
6.7499286e+2, 1.755197e+2, -1316639.5, -1243980.1, 28706.799, 0.108389765, 0.14413819, -1234007.3, -14082.055, 0.0, 9.999227, 10.000217 
6.750011e+2, 1.8552065e+2, -1240561.3, -1262899.6, 1658.605, 0.06296163, 0.27261773, -1240438.8, -118520.17, 0.0, 9.99954, 9.999265 
6.750078e+2, 1.9552065e+2, -1119031.8, -1151584.1, -18805.95, -0.1284706, 0.32025722, -1110436.8, -86515.875, 0.0, 9.999692, 9.999284 
6.750163e+2, 2.0551951e+2, -979038.0, -1032700.2, -24975.79, -0.16338791, 0.2821018, -969212.56, -43281.28, 0.0, 9.999958, 9.999308 
6.750262e+2, 2.1551718e+2, -835266.06, -906304.06, -235.20255, -0.066281274, 0.08781894, -835265.3, -7314.326, 0.0, 10.00025, 9.999357 
6.7503566e+2, 2.2551642e+2, -723528.0, -799116.3, -681.77875, -0.018403163, 0.079156935, -723521.8, 6434.177, 0.0, 10.000351, 9.999367 
6.750447e+2, 2.3551671e+2, -636747.56, -710963.06, 11226.752, -0.024414485, 0.1439344, -635086.44, -3134.978, 0.0, 10.000291, 9.999329 
6.7505383e+2, 2.4551605e+2, -559356.94, -716281.0, 8932.026, -0.046813276, 0.19394866, -558850.2, -24893.115, 0.0, 10.000535, 9.998506 
6.7506295e+2, 2.5551432e+2, -412139.72, -598529.9, 13217.333, -0.08718496, 0.14243473, -411207.13, 24766.834, 0.0, 10.000877, 9.998478 
6.7507213e+2, 2.655129e+2, -316230.28, -538505.44, -29680.35, -0.07210776, 0.17582884, -312335.34, 25653.002, 0.0, 10.001048, 9.998129 
6.750815e+2, 2.7551156e+2, -215289.27, -439555.63, -20969.785, -0.019546604, 0.20090023, -213345.36, 26657.07, 0.0000000015372758, 10.001066, 9.99813 
6.7509115e+2, 2.8551015e+2, -101155.02, -332324.22, 5559.5303, -0.012048646, 0.25193176, -101021.4, 40995.14, 0.0000017821444, 10.00117, 9.998136 
6.751006e+2, 2.9550833e+2, -15102.777, -236116.28, 3806.36, -0.06655238, 0.21904811, -15037.242, 28997.018, 0.000019076204, 10.001064, 9.998172 
6.751093e+2, 3.055049e+2, 109916.05, -58507.223, -62066.33, -0.03609873, 0.019159628, 130317.17, 130317.17, 0.000073988194, 10.001223, 9.998981 
6.751156e+2, 3.1550393e+2, 143369.86, 33585.54, 137305.97, -0.17799392, -0.0042315302, 236349.53, 236349.53, 0.00017626988, 10.001071, 9.99968 
6.849458e+2, 1.255086e+2, -1771089.3, -1685443.0, -16700.625, 0.07584131, 0.2261721, -1682301.6, 27735.348, 0.0000000036242784, 9.999307, 10.000515 
6.849539e+2, 1.3550903e+2, -1823474.3, -1720524.0, 21440.639, -0.03614328, 0.2393844, -1716237.3, -104205.1, 0.0, 9.998584, 9.99996 
6.8496716e+2, 1.4550853e+2, -1729942.4, -1533364.5, 29240.986, 0.34888467, 0.16609411, -1529107.1, -15071.952, 0.0, 9.998128, 10.000787 
6.8497396e+2, 1.5550794e+2, -1614840.6, -1418319.5, -105.362564, 0.1556336, -0.0132664945, -1418319.4, -2281.484, 0.0, 9.998214, 10.000863 
6.8498206e+2, 1.6550896e+2, -1462101.8, -1348414.1, 31937.873, 0.050973535, 0.030293588, -1340056.4, -22028.201, 0.0, 9.998819, 10.000381 
6.849921e+2, 1.7551105e+2, -1224409.9, -1190594.0, -6136.863, 0.08541217, 0.17331138, -1189514.6, 30496.008, 0.0, 9.999812, 10.000312 
6.850008e+2, 1.8551177e+2, -1175788.5, -1255720.0, -35080.027, 0.057818703, 0.28756556, -1162576.6, -40570.543, 0.0, 10.000086, 9.999047 
6.850083e+2, 1.9551107e+2, -1128454.0, -1174846.5, -27223.455, -0.045691777, 0.28366345, -1115884.6, -91869.87, 0.0, 9.999704, 9.999111 
6.850168e+2, 2.0551002e+2, -1017767.94, -1012420.0, 19464.463, -0.08428647, 0.244498, -995446.7, -69422.94, 0.0, 9.999555, 9.99962 
6.850261e+2, 2.1550845e+2, -908054.75, -910722.94, 14395.622, -0.06373612, 0.09736194, -894931.5, -66896.33, 0.0, 9.999635, 9.999613 
6.850357e+2, 2.2550762e+2, -797953.56, -869580.8, 26342.072, -0.023896322, 0.08494136, -789309.1, -59268.26, 0.0, 9.9999695, 9.999069 
6.850456e+2, 2.3550718e+2, -633282.4, -742113.94, -3748.6294, 0.03028302, 0.10483563, -633153.4, -1109.5515, 0.0, 10.000435, 9.999048 
6.850549e+2, 2.4550629e+2, -582711.8, -729108.9, 5306.9736, 0.01852968, 0.14452541, -582519.7, -48467.387, 0.0, 10.000391, 9.998477 
6.850636e+2, 2.5550482e+2, -541350.4, -661199.7, -6179.113, -0.05106568, 0.12093591, -541032.7, -104965.234, 0.0, 10.000013, 9.998452 
6.850728e+2, 2.655036e+2, -425368.63, -594106.56, 5670.105, -0.066320665, 0.17605236, -425178.3, -87098.38, 0.0, 10.000302, 9.998103 
6.8508244e+2, 2.755023e+2, -219293.66, -444057.13, 4478.0156, -0.019690853, 0.20674738, -219204.47, 20888.338, 0.00000000039754933, 10.001039, 9.998109 
6.850924e+2, 2.8550056e+2, -144736.9, -376272.3, 30778.96, 0.015775999, 0.23458683, -140715.19, 1395.5929, 0.000001935021, 10.000979, 9.997922 
6.8510234e+2, 2.9549807e+2, -114719.69, -300570.22, -10814.627, 0.033712532, 0.16148718, -114092.51, -69956.234, 0.000022833043, 10.000447, 9.998028 
6.851109e+2, 3.0549574e+2, 111795.805, -2065.0332, -79603.15, 0.02689313, 0.05297168, 152731.28, 152731.28, 0.00009092674, 10.000996, 9.99948 
6.8511707e+2, 3.1549585e+2, 264524.47, 98974.234, -28425.072, -0.16259629, 0.09425233, 269269.1, 269269.1, 0.00021663251, 10.001841, 9.999777 
6.949449e+2, 1.2549806e+2, -1743455.1, -1625634.0, -6180.6064, -0.009917062, 0.082105815, -1625310.6, 84825.85, 0.00000000017840025, 9.999316, 10.000908 
6.949519e+2, 1.3549949e+2, -1792825.1, -1657480.3, 1347.8271, -0.12679352, 0.1559631, -1657466.8, -45344.47, 0.0, 9.998594, 10.000381 
6.949645e+2, 1.4550035e+2, -1729766.0, -1533030.0, 16770.46, 0.24112953, 0.19590488, -1531610.8, -17496.441, 0.0, 9.998121, 10.000795 
6.9497263e+2, 1.555023e+2, -1620409.8, -1434110.0, 19351.273, 0.17413945, 0.27266392, -1432121.1, -16025.074, 0.0, 9.998219, 10.000761 
6.94981e+2, 1.6550311e+2, -1516597.3, -1446548.9, 58450.848, 0.03468252, 0.33599812, -1413432.1, -95341.73, 0.0, 9.998767, 9.999725 
6.9499046e+2, 1.7550282e+2, -1274611.3, -1280912.1, 44220.023, -0.080452025, 0.30817407, -1233429.5, -13333.101, 0.0, 9.999756, 9.999717 
6.949998e+2, 1.8550202e+2, -1155026.5, -1191851.8, -57912.85, -0.07708134, 0.27155322, -1112669.8, 9434.667, 0.0, 9.999998, 9.999525 
6.9500875e+2, 1.9550048e+2, -1111706.9, -1116536.1, -27471.383, 0.0003907795, 0.13313869, -1086544.3, -62427.04, 0.0, 9.99961, 9.999553 
6.950173e+2, 2.0550044e+2, -1019483.25, -990465.4, 8322.107, -0.009908415, 0.16425717, -988248.06, -62132.67, 0.0, 9.999439, 9.999829 
6.950257e+2, 2.1550146e+2, -918541.4, -896350.56, 29240.004, -0.08700291, 0.25622293, -876171.6, -48067.99, 0.0, 9.999479, 9.999786 
6.950348e+2, 2.2550072e+2, -857393.44, -956012.56, 33051.125, -0.13190418, 0.2713449, -847341.3, -117231.516, 0.0, 9.99981, 9.99855 
6.950444e+2, 2.3549823e+2, -688468.1, -822728.44, 23927.256, -0.15748127, 0.13732395, -684331.4, -52197.625, 0.0, 10.000292, 9.99856 
6.950544e+2, 2.4549648e+2, -591574.6, -724971.5, -20228.25, -0.09621872, 0.111631006, -588574.7, -54424.594, 0.0, 10.000293, 9.998553 
6.950647e+2, 2.5549513e+2, -544949.3, -651617.06, -4433.8833, 0.029509697, 0.08926231, -544765.4, -108602.92, 0.0, 9.999936, 9.998556 
6.9507396e+2, 2.6549366e+2, -419149.34, -567382.56, 24020.25, -0.0027478626, 0.10281534, -415354.2, -77178.766, 0.0, 10.000245, 9.998315 
6.950824e+2, 2.7549177e+2, -220661.7, -427403.84, 42420.49, -0.15572424, 0.054299984, -212296.14, 27895.953, 0.0000000054780975, 10.000954, 9.998266 
6.950922e+2, 2.8548995e+2, -183560.92, -443287.78, -3747.542, -0.13132356, 0.09369501, -183506.86, -41295.457, 0.000002364329, 10.000925, 9.997483 
6.951029e+2, 2.9548806e+2, -157141.19, -371771.22, -7282.862, 0.0035390814, 0.11822283, -156894.34, -112659.67, 0.000027093956, 10.000381, 9.997565 
6.951123e+2, 3.0548757e+2, 58680.953, -115691.26, -49783.117, 0.034993675, 0.26063353, 71892.94, 71892.94, 0.00010798756, 10.0009985, 9.9987 
6.9511914e+2, 3.1548744e+2, 182447.67, -61377.73, 31592.988, -0.20631815, 0.35119212, 186474.73, 186474.73, 0.00025661878, 10.001788, 9.998702 
7.049449e+2, 1.2548928e+2, -1770313.9, -1634969.4, 70221.695, 0.08000133, 0.07332135, -1605119.3, 105101.44, 0.0, 9.999087, 10.000975 
7.049502e+2, 1.3549088e+2, -1800343.6, -1635292.4, -22231.877, -0.13573726, 0.13892509, -1632350.3, -20146.7, 0.0, 9.998401, 10.000639 
7.049617e+2, 1.4549157e+2, -1705520.3, -1555340.9, 54680.164, 0.13810314, 0.16621067, -1537541.5, -23343.836, 0.0, 9.998446, 10.000474 
7.049712e+2, 1.5549366e+2, -1435015.3, -1373701.3, 6756.6123, 0.14556538, 0.28839758, -1372965.5, 43214.625, 0.0, 9.999642, 10.000467 
7.0498025e+2, 1.6549432e+2, -1402497.6, -1425056.6, 57476.305, 0.0421418, 0.36589506, -1355204.5, -37027.527, 0.0, 9.999708, 9.999411 
7.0498973e+2, 1.754935e+2, -1450725.1, -1390361.4, 42713.66, -0.06522945, 0.3149867, -1368242.1, -148053.69, 0.0, 9.998671, 9.9994755 
7.049993e+2, 1.8549256e+2, -1293459.1, -1216563.0, -13343.556, -0.060740463, 0.25368035, -1214313.4, -92116.6, 0.0, 9.998857, 9.999912 
7.050086e+2, 1.9549115e+2, -1019981.56, -1035899.06, -13476.382, 0.014229257, 0.094833866, -1012289.25, 11916.553, 0.0, 10.000066, 9.999899 
7.050174e+2, 2.0549126e+2, -887406.44, -968690.5, 4871.2837, 0.0072351894, 0.14190179, -887115.56, 39087.605, 0.0, 10.000507, 9.999476 
7.0502573e+2, 2.1549238e+2, -831282.8, -891699.44, -37341.78, -0.06304208, 0.27945605, -813460.4, 14732.455, 0.0, 10.000222, 9.999469 
7.050351e+2, 2.2549167e+2, -814966.8, -915738.6, 8605.118, -0.08926952, 0.30444586, -814237.3, -84037.52, 0.0, 10.00004, 9.998707 
7.0504516e+2, 2.3548917e+2, -722707.1, -821179.1, 23109.418, -0.08790709, 0.15785539, -717553.5, -85330.22, 0.0, 10.000002, 9.998706 
7.0505506e+2, 2.454875e+2, -563905.56, -708750.7, 22559.973, -0.06294359, 0.13086863, -560473.1, -26234.57, 0.0, 10.000464, 9.998589 
7.050648e+2, 2.5548628e+2, -345816.2, -551983.7, 11997.462, -0.018279037, 0.116150126, -345120.34, 91128.984, 0.0, 10.001285, 9.998597 
7.050744e+2, 2.6548475e+2, -249141.19, -487670.1, 49300.69, -0.03995461, 0.12465359, -239353.06, 98909.82, 0.0, 10.00143, 9.998293 
7.050838e+2, 2.754827e+2, -213492.36, -421202.88, 22437.586, -0.10377523, 0.06600173, -211096.22, 29185.205, 0.000000016182126, 10.001009, 9.998275 
7.0509356e+2, 2.8548065e+2, -124557.01, -424363.88, 12364.97, -0.103609815, 0.0795882, -124047.9, 18255.34, 0.0000030357212, 10.001342, 9.99743 
7.051033e+2, 2.9547843e+2, 85640.55, -267036.9, 13250.894, -0.07159919, 0.07408835, 86137.71, 130466.68, 0.000031540207, 10.00208, 9.99748 
7.051133e+2, 3.054783e+2, 155431.6, -145983.34, 12852.364, -0.0035752172, 0.29412985, 155978.63, 155978.63, 0.00012311795, 10.001999, 9.998001 
7.051218e+2, 3.1547788e+2, 64316.105, -143465.44, 53384.57, -0.06547146, 0.41971627, 77229.46, 77229.46, 0.0002906225, 10.001102, 9.998449 
7.14945e+2, 1.2548216e+2, -1769129.9, -1634785.3, 33719.68, 0.11826471, 0.20416135, -1626796.9, 83493.805, 0.0, 9.999105, 10.000958 
7.1494853e+2, 1.3548309e+2, -1784306.3, -1609547.9, -40377.113, -0.1757104, 0.17404027, -1600670.0, 11607.038, 0.0, 9.998426, 10.000806 
7.1495837e+2, 1.4548221e+2, -1752797.9, -1651135.8, 82509.92, -0.08231258, 0.068676636, -1605056.1, -90770.86, 0.0, 9.998443, 9.999813 
7.149692e+2, 1.5548213e+2, -1480382.4, -1466811.1, 62021.49, -0.049927823, 0.03977696, -1411205.1, 5083.99, 0.0, 9.999631, 9.999835 
7.1497935e+2, 1.6548254e+2, -1407086.3, -1419755.3, 5561.4375, -0.040870305, 0.11819476, -1404991.3, -86702.69, 0.0, 9.999648, 9.9994755 
7.1498954e+2, 1.7548299e+2, -1452632.6, -1388534.5, 18911.951, 0.021918481, 0.18905768, -1383370.6, -163082.92, 0.0, 9.998646, 9.999502 
7.1499896e+2, 1.8548325e+2, -1279977.1, -1173568.3, 20540.082, -0.0047247796, 0.23280771, -1169741.1, -47457.035, 0.0, 9.998793, 10.000239 
7.150076e+2, 1.9548315e+2, -1017829.2, -1004528.06, 42975.39, -0.11759602, 0.1709632, -967691.7, 56588.68, 0.0, 9.999951, 10.000171 
7.150166e+2, 2.0548259e+2, -972622.4, -1107991.3, -16017.511, -0.14505512, 0.18394986, -970752.94, -44467.066, 0.0, 10.000354, 9.9985895 
7.1502584e+2, 2.1548134e+2, -916586.0, -1023489.8, -37110.574, -0.09899295, 0.17177735, -904966.44, -76664.625, 0.0, 10.000038, 9.998649 
7.150362e+2, 2.254806e+2, -783331.4, -814983.1, -5575.527, -0.005659546, 0.19562757, -782377.94, -52068.684, 0.0, 9.999887, 9.999474 
7.150474e+2, 2.354801e+2, -693435.5, -726418.56, 35865.563, 0.12208216, 0.17071046, -670451.56, -38139.617, 0.0, 9.999853, 9.99943 
7.150565e+2, 2.4547938e+2, -584115.25, -719773.4, 40502.902, 0.0100778, 0.2041286, -572942.6, -38624.91, 0.0, 10.000333, 9.998578 
7.150634e+2, 2.5547817e+2, -364379.47, -563284.06, 51907.387, -0.30776194, 0.19829012, -351648.25, 84680.54, 0.0, 10.001171, 9.998574 
7.150735e+2, 2.6547688e+2, -272521.7, -528262.1, 19465.678, -0.29244152, 0.24317418, -271048.56, 67293.93, 0.0, 10.00139, 9.998035 
7.150862e+2, 2.7547514e+2, -241332.13, -461867.63, 23292.271, 0.0056192963, 0.2376138, -238898.9, 1462.4673, 0.000000020828322, 10.000929, 9.998037 
7.150961e+2, 2.8547254e+2, -106922.28, -369488.44, 28960.227, -0.010446899, 0.18813981, -103766.0, 38621.06, 0.0000037854625, 10.001275, 9.997835 
7.1510315e+2, 2.9546908e+2, 94181.164, -227606.53, 56763.34, -0.32322383, 0.026998082, 103900.64, 148319.84, 0.000035842306, 10.002002, 9.997784 
7.151135e+2, 3.0546802e+2, 110565.15, -247431.2, -29774.846, -0.21316501, 0.17344351, 113024.65, 113024.65, 0.000135526, 10.002022, 9.997302 
7.151244e+2, 3.154664e+2, 72619.08, -107180.94, 73693.79, 0.0147223715, 0.24146917, 98963.58, 98963.58, 0.00031586387, 10.001007, 9.998756 
7.2494376e+2, 1.2547283e+2, -2013038.6, -1771112.6, 2685.1692, 0.18404105, 0.21758623, -1771082.9, -60700.258, 0.0, 9.997466, 10.000852 
7.2494805e+2, 1.3547362e+2, -1656957.8, -1516155.9, -129455.984, -0.0905466, 0.15555473, -1439196.1, 173172.94, 0.0, 9.999185, 10.001078 
7.249571e+2, 1.4547272e+2, -1618486.8, -1633815.3, 28358.027, -0.097785786, 0.05699196, -1596775.5, -82398.0, 0.0, 9.999554, 9.999413 
7.249685e+2, 1.5547231e+2, -1613951.9, -1567960.6, 3221.2458, -0.03746319, 0.03748807, -1567736.1, -151350.5, 0.0, 9.998873, 9.999512 
7.2497904e+2, 1.6547251e+2, -1467058.6, -1436431.6, -21509.537, -0.0023820624, 0.10441146, -1425341.3, -106954.875, 0.0, 9.999155, 9.99961 
7.2498935e+2, 1.7547286e+2, -1211452.6, -1256087.0, -25168.307, 0.0649222, 0.15021631, -1200132.0, 20252.416, 0.0, 10.00022, 9.999655 
7.249988e+2, 1.8547317e+2, -1095117.1, -1116448.3, -18653.115, 0.031408302, 0.20532387, -1084295.6, 38085.082, 0.0, 10.000201, 9.9999485 
7.2500724e+2, 1.9547321e+2, -1143105.8, -1091591.9, -67795.46, -0.10170046, 0.18439375, -1044825.4, -20447.006, 0.0, 9.999214, 9.999924 
7.2501665e+2, 2.0547257e+2, -1120539.9, -1153662.3, -71919.484, -0.10862676, 0.19267616, -1063299.4, -136914.89, 0.0, 9.999234, 9.998822 
7.250267e+2, 2.1547112e+2, -900090.25, -993077.6, -32443.42, -0.0029606365, 0.13826673, -889889.7, -61488.62, 0.0, 10.000054, 9.998854 
7.2503704e+2, 2.2547036e+2, -711742.7, -802630.5, 16339.87, 0.069141276, 0.16016778, -708894.4, 21514.414, 0.0, 10.000456, 9.999295 
7.250475e+2, 2.3547001e+2, -609987.6, -706314.0, -36042.46, 0.11929869, 0.16806816, -597994.75, 34416.73, 0.0, 10.000494, 9.999268 
7.2505677e+2, 2.4546939e+2, -546726.2, -676236.9, -9998.725, 0.008305629, 0.2067209, -545958.8, -11542.55, 0.0, 10.0004835, 9.998796 
7.250648e+2, 2.5546825e+2, -443806.63, -580525.6, -6453.718, -0.24780704, 0.18586245, -443502.66, -7077.254, 0.0, 10.000526, 9.998765 
7.250752e+2, 2.654671e+2, -401863.72, -592109.1, -22430.576, -0.2137751, 0.23740608, -399254.84, -60816.383, 0.0, 10.000522, 9.998008 
7.250877e+2, 2.754656e+2, -302289.53, -492319.16, -27500.28, 0.08614048, 0.2574471, -298389.84, -57932.074, 0.000000011844985, 10.000512, 9.99803 
7.250976e+2, 2.854637e+2, -99474.3, -311077.22, 62154.137, 0.029201802, 0.2511143, -82568.445, 59908.617, 0.000004675658, 10.001113, 9.9983015 
7.25105e+2, 2.9546118e+2, 160250.2, -145018.33, 59277.2, -0.34737533, 0.13867754, 171356.61, 215854.7, 0.000040333267, 10.002248, 9.998224 
7.2511524e+2, 3.054592e+2, 127454.375, -210706.67, -34253.445, -0.2336303, 0.16182645, 130889.13, 130889.13, 0.00014552829, 10.002025, 9.9975605 
7.251266e+2, 3.1545678e+2, 21698.316, -68648.6, 100446.48, 0.1782335, 0.12755182, 86661.76, 86661.76, 0.00033116215, 10.000398, 9.999317 
7.349409e+2, 1.2546115e+2, -2023065.4, -1776523.9, 18812.756, 0.08558572, 0.11593866, -1775096.6, -64598.7, 0.0, 9.997419, 10.000822 
7.349484e+2, 1.3546242e+2, -1645443.4, -1494765.1, -64123.89, -0.0002771274, 0.0851648, -1471170.8, 141309.64, 0.0, 9.999186, 10.001225 
7.3495746e+2, 1.4546296e+2, -1634095.9, -1647845.0, -13892.495, -0.048936695, 0.12463877, -1625470.0, -110994.164, 0.0, 9.999487, 9.999338 
7.349687e+2, 1.554641e+2, -1624546.3, -1591229.6, -4133.422, 0.06685706, 0.2675367, -1590724.5, -174253.72, 0.0, 9.998875, 9.999352 
7.3497903e+2, 1.6546424e+2, -1445927.9, -1390297.5, 5323.2383, 0.04844141, 0.32140073, -1389792.6, -71321.914, 0.0, 9.999146, 9.999928 
7.349888e+2, 1.7546327e+2, -1199029.6, -1222335.8, 25254.852, -0.03990201, 0.2021727, -1182869.0, 37608.574, 0.0, 10.000178, 9.999911 
7.349983e+2, 1.854624e+2, -1178205.5, -1261965.3, -66154.65, -0.06510394, 0.17611976, -1141788.8, -19302.428, 0.0, 10.000094, 9.998997 
7.350073e+2, 1.9546135e+2, -1219410.6, -1223463.6, -90537.31, -0.05148261, 0.14249067, -1130877.1, -106378.06, 0.0, 9.999107, 9.999064 
7.350173e+2, 2.0546128e+2, -1042211.2, -964589.06, -54648.26, 0.01071375, 0.17648403, -936372.3, -9873.511, 0.0, 9.999113, 10.000179 
7.3502815e+2, 2.1546178e+2, -832711.94, -818208.4, 9958.875, 0.10672247, 0.179381, -813140.75, 15349.297, 0.0, 9.9999, 10.000127 
7.3503727e+2, 2.2546102e+2, -812974.7, -975384.1, 5673.949, 0.0296811, 0.19721681, -812776.7, -82279.07, 0.0, 10.000294, 9.998187 
7.35045e+2, 2.3545894e+2, -705910.56, -867003.3, -21525.656, -0.19832876, 0.1422837, -703083.8, -70562.17, 0.0, 10.000331, 9.998241 
7.350556e+2, 2.4545763e+2, -525902.25, -612608.75, -18451.54, -0.18005273, 0.13911551, -522139.0, 12394.232, 0.0, 10.000396, 9.999274 
7.350685e+2, 2.5545672e+2, -430882.25, -524351.0, 8179.2197, 0.044259977, 0.08840608, -430171.9, 6365.409, 0.0, 10.0004015, 9.999211 
7.3507905e+2, 2.6545572e+2, -402721.16, -573635.5, -31866.973, 0.09643504, 0.12699947, -396972.88, -58424.63, 0.0, 10.000438, 9.998172 
7.3508775e+2, 2.7545428e+2, -300476.16, -472807.22, -7097.27, 0.01195908, 0.14009303, -300184.38, -59615.797, 0.000000051096855, 10.000448, 9.998194 
7.350976e+2, 2.854541e+2, -55754.684, -231711.98, 92795.88, -0.113067515, 0.27029356, -15861.062, 126711.7, 0.0000058850314, 10.001149, 9.998832 
7.3510814e+2, 2.9545468e+2, 187827.88, -73880.35, 115042.086, -0.29336882, 0.40941253, 231207.75, 275773.28, 0.000044056193, 10.002179, 9.998749 
7.35118e+2, 3.0545187e+2, 198713.63, -56057.824, -102563.234, -0.19037318, 0.26778603, 234870.98, 234870.98, 0.00015023243, 10.001995, 9.998636 
7.351272e+2, 3.1544843e+2, 70991.664, 47951.473, 90383.82, 0.13129942, 0.0229239, 150586.6, 150586.6, 0.0003329124, 10.000339, 10.000143 
7.449387e+2, 1.2545063e+2, -1826761.0, -1694411.9, 84202.1, 0.071079545, 0.11605798, -1653492.8, 57109.563, 0.0, 9.998846, 10.000677 
7.449486e+2, 1.3545203e+2, -1646858.3, -1503702.0, -47714.293, 0.1062634, 0.11045212, -1489256.4, 123328.62, 0.0, 9.999235, 10.001126 
7.449573e+2, 1.4545298e+2, -1626805.4, -1624106.5, -15650.325, 0.005700036, 0.1839902, -1609747.5, -95171.336, 0.0, 9.999453, 9.999512 
7.449683e+2, 1.5545374e+2, -1496871.0, -1507714.1, -16949.162, 0.10708128, 0.27014336, -1484497.4, -67925.05, 0.0, 9.999668, 9.999531 
7.4497855e+2, 1.6545366e+2, -1396109.5, -1381917.5, 32764.621, 0.07732679, 0.300977, -1355489.3, -36915.438, 0.0, 9.999557, 9.999796 
7.4498856e+2, 1.754526e+2, -1352689.3, -1305432.6, -7617.8237, -0.02137063, 0.18757528, -1304235.0, -83652.65, 0.0, 9.999166, 9.999831 
7.449981e+2, 1.854519e+2, -1302365.6, -1309875.8, -68485.08, -0.03335461, 0.17226459, -1237532.8, -114942.76, 0.0, 9.999172, 9.999124 
7.4500716e+2, 1.9545111e+2, -1159427.5, -1184472.1, -29948.078, 0.017478155, 0.15497567, -1139489.1, -114889.25, 0.0, 9.99946, 9.999171 
7.450173e+2, 2.054511e+2, -941520.9, -904267.7, 48028.973, 0.07143509, 0.18378296, -871379.9, 55218.574, 0.0, 9.999762, 10.000264 
7.4502826e+2, 2.1545146e+2, -802828.44, -797204.6, -12932.698, 0.12528238, 0.16637059, -786781.7, 41808.54, 0.0, 10.000084, 10.000175 
7.450376e+2, 2.2545072e+2, -795120.75, -982067.1, -10649.3955, 0.028758345, 0.19176339, -794516.06, -63918.324, 0.0, 10.000488, 9.998045 
7.4504554e+2, 2.354488e+2, -627364.2, -844469.25, 5446.9155, -0.20253064, 0.16418916, -627227.56, 5393.7407, 0.0, 10.000928, 9.998112 
7.450564e+2, 2.4544741e+2, -463947.25, -566463.3, 34242.055, -0.14961664, 0.15190938, -453561.9, 81071.96, 0.0, 10.000749, 9.99943 
7.4506974e+2, 2.5544629e+2, -455502.9, -515299.47, 13037.927, 0.15100697, 0.06575831, -452783.78, -16144.238, 0.0, 10.000149, 9.999394 
7.450804e+2, 2.654452e+2, -346976.06, -554434.06, 22173.197, 0.17020637, 0.088308886, -344632.66, -5981.5483, 0.0, 10.000849, 9.99811 
7.4508876e+2, 2.7544382e+2, 13583.946, -321750.47, 2706.5176, -0.034747735, 0.109537944, 13605.789, 254276.47, 0.00000017449423, 10.00262, 9.998179 
7.45099e+2, 2.8544375e+2, 77458.83, -148363.13, 45646.273, -0.1215188, 0.2487866, 86336.48, 229010.14, 0.0000070145306, 10.001987, 9.999004 
7.4511063e+2, 2.954446e+2, -205786.25, -238816.05, 14570.873, -0.10942925, 0.3969221, -200277.23, -155612.34, 0.00004543542, 9.9993725, 9.99897 
7.4512005e+2, 3.0544224e+2, -61896.547, -141155.48, -151633.73, -0.07387418, 0.27200755, 55200.773, 55200.773, 0.00014809403, 10.00003, 9.998991 
7.45129e+2, 3.1543908e+2, 456339.72, 217360.55, -58622.55, 0.14707534, 0.022265833, 469945.47, 469945.47, 0.00032280377, 10.003056, 9.999992 
7.549365e+2, 1.2544127e+2, -1853588.6, -1734406.6, 27742.574, -0.09073319, 0.20725584, -1728265.4, -17569.604, 0.0, 9.998791, 10.000424 
7.549483e+2, 1.354424e+2, -1675569.0, -1563120.3, -23062.732, 0.12298184, 0.21619327, -1558574.0, 54109.793, 0.0, 9.999235, 10.00072 
7.549567e+2, 1.4544263e+2, -1601954.5, -1567033.3, -24435.06, -0.041319698, 0.22029246, -1554461.5, -39782.01, 0.0, 9.999431, 9.999914 
7.549668e+2, 1.554413e+2, -1473945.6, -1452171.9, 1321.8662, -0.04880787, 0.055116616, -1452092.0, -35402.363, 0.0, 9.999634, 9.999932 
7.549772e+2, 1.6544078e+2, -1441332.3, -1464508.4, 2830.5254, -0.038045242, 0.048963275, -1440991.6, -122295.99, 0.0, 9.999507, 9.999253 
7.549883e+2, 1.754408e+2, -1394095.3, -1382409.6, -8362.057, 0.007949371, 0.10085075, -1378051.4, -157351.69, 0.0, 9.999127, 9.999322 
7.549981e+2, 1.8544154e+2, -1220559.3, -1123294.6, -71493.23, 0.018980397, 0.18932535, -1085460.9, 37231.97, 0.0, 9.999101, 10.000441 
7.550067e+2, 1.9544253e+2, -1089111.5, -1013627.0, -6004.6523, -0.007308487, 0.21721438, -1013152.3, 11527.89, 0.0, 9.999354, 10.000395 
7.550162e+2, 2.0544207e+2, -1053491.6, -1104073.1, 47499.375, -0.029613696, 0.21231607, -1024969.6, -98286.45, 0.0, 9.999619, 9.998966 
7.5502676e+2, 2.1544021e+2, -911964.75, -979423.7, 10120.355, -0.050627463, 0.10206611, -910479.2, -81778.07, 0.0, 9.999902, 9.999011 
7.550376e+2, 2.254396e+2, -762535.75, -875354.25, -4975.2026, -0.039129518, 0.1503306, -762316.8, -31608.504, 0.0, 10.000323, 9.9988575 
7.5504863e+2, 2.3543969e+2, -600673.8, -746248.4, 34576.035, -0.008308236, 0.2466981, -592878.9, 39830.684, 0.0, 10.0007515, 9.99887 
7.5505877e+2, 2.4543883e+2, -492752.66, -601649.1, -1341.7, -0.012027301, 0.2594609, -492736.13, 41981.1, 0.0, 10.000641, 9.999241 
7.5506824e+2, 2.5543684e+2, -481127.44, -549258.56, 5923.1216, -0.045612153, 0.10630251, -480616.34, -43882.676, 0.0, 10.000065, 9.999203 
7.5507873e+2, 2.6543537e+2, -369378.84, -588138.7, 77605.086, -0.10176437, 0.11357117, -344644.94, -5896.611, 0.0, 10.000799, 9.9979 
7.5509036e+2, 2.754341e+2, -22306.236, -365744.38, 77812.57, -0.17124833, 0.16901326, -5498.8223, 235265.36, 0.0000002213921, 10.00249, 9.99794 
7.5510144e+2, 2.854328e+2, 54216.215, -184715.58, -63649.625, -0.1031938, 0.20311771, 70114.18, 212892.78, 0.000006961638, 10.001929, 9.998787 
7.551121e+2, 2.9543105e+2, -221606.52, -268898.88, -54485.605, 0.058404487, 0.11937631, -185857.22, -141062.3, 0.00004401986, 9.999349, 9.998782 
7.551209e+2, 3.0543017e+2, -92372.586, -188988.72, -41221.996, -0.021502856, 0.16242817, -77175.36, -77175.36, 0.0001416952, 9.999982, 9.998673 
7.551308e+2, 3.1543005e+2, 366895.25, 61051.402, 85021.45, -0.043914612, 0.24947697, 388941.22, 388941.22, 0.0003069929, 10.002943, 9.998962 
7.6493526e+2, 1.2543122e+2, -1903279.3, -1764547.8, 22472.166, -0.064325556, 0.25048664, -1760998.5, -50202.97, 0.00000000032551553, 9.998407, 10.000417 
7.649476e+2, 1.3543229e+2, -1701965.9, -1604099.1, -25609.225, 0.14461017, 0.27158058, -1597803.0, 14983.346, 0.0, 9.999139, 10.000492 
7.649562e+2, 1.454325e+2, -1587008.6, -1537536.6, 1698.8824, -0.02904243, 0.2717647, -1537478.4, -22696.79, 0.0, 9.999416, 10.000137 
7.6496637e+2, 1.5543054e+2, -1453872.6, -1418320.8, -14782.368, -0.043668695, 0.023842083, -1412977.4, 3817.417, 0.0, 9.99965, 10.000168 
7.6497686e+2, 1.6543019e+2, -1412692.3, -1443256.6, 18049.54, -0.024644846, 0.018207064, -1404324.3, -85525.57, 0.0, 9.999684, 9.999304 
7.649879e+2, 1.7543094e+2, -1330344.3, -1346003.5, 27968.771, 0.036474586, 0.13656229, -1309129.9, -88332.89, 0.0, 9.999547, 9.999363 
7.6499784e+2, 1.8543184e+2, -1126349.3, -1065566.1, -16359.568, 0.06563178, 0.23273042, -1061442.8, 61345.66, 0.0, 9.999705, 10.000538 
7.6500696e+2, 1.954325e+2, -975031.9, -951861.25, -69353.58, 0.06227064, 0.218152, -893132.0, 131645.69, 0.0, 10.000109, 10.000456 
7.6501656e+2, 2.0543176e+2, -978565.9, -1118313.9, -2801.9194, 0.008679667, 0.20573872, -978509.75, -51726.168, 0.0, 10.000355, 9.998519 
7.6502645e+2, 2.1542957e+2, -860821.9, -1005896.0, -213.65515, -0.09227887, 0.10866066, -860821.56, -32015.31, 0.0, 10.000456, 9.998572 
7.650377e+2, 2.2542883e+2, -735299.3, -809573.7, 14035.299, -0.05380831, 0.14057134, -732735.6, -1921.6708, 0.0, 10.000293, 9.99932 
7.6504993e+2, 2.3542903e+2, -689928.94, -739979.4, 1805.6278, 0.096434645, 0.20295252, -689863.9, -57052.508, 0.0, 9.999939, 9.999295 
7.6506025e+2, 2.4542849e+2, -578699.6, -697166.56, -29197.014, 0.09549518, 0.2503512, -571894.75, -37077.01, 0.0, 10.000284, 9.998754 
7.650688e+2, 2.5542703e+2, -353077.38, -538025.2, -65868.47, -0.03572323, 0.20107922, -332016.8, 104817.2, 0.0, 10.001163, 9.99875 
7.650793e+2, 2.654257e+2, -304701.13, -505058.34, 51153.844, -0.12419341, 0.22023378, -292396.53, 46450.88, 0.0, 10.00102, 9.998369 
7.6509154e+2, 2.7542424e+2, -356895.34, -477756.5, 72153.27, -0.16255763, 0.20928513, -323209.25, -82348.44, 0.00000016204108, 9.99998, 9.998384 
7.6510286e+2, 2.8542227e+2, -195521.05, -337086.84, -49199.652, -0.06819867, 0.17471041, -180101.72, -37221.895, 0.000006290961, 10.000351, 9.998494 
7.651133e+2, 2.9541966e+2, 118503.04, -128793.2, -70198.54, 0.1256999, 0.026559364, 137040.33, 181946.14, 0.000041719115, 10.001809, 9.998542 
7.651218e+2, 3.0541956e+2, 191119.72, -83255.34, 24299.113, -0.015020185, 0.17130749, 193255.06, 193255.06, 0.00013461517, 10.002043, 9.998423 
7.6513255e+2, 3.154197e+2, 49357.74, -91212.25, 93355.83, -0.035364643, 0.3146013, 95928.59, 95928.59, 0.00029005748, 10.000741, 9.998993 
7.749339e+2, 1.2542044e+2, -1889571.1, -1716188.0, -39885.91, -0.11183138, 0.24262136, -1707452.6, 3449.4429, 0.0000000023621072, 9.998337, 10.000778 
7.749459e+2, 1.3542163e+2, -1703857.8, -1604069.9, 4333.0303, 0.03191436, 0.28229776, -1603882.1, 9010.526, 0.0, 9.99913, 10.000494 
7.749552e+2, 1.4542255e+2, -1573007.0, -1510275.0, -9071.478, -0.100358434, 0.3396165, -1508989.5, 5892.7515, 0.0, 9.999417, 10.000327 
7.7496684e+2, 1.5542161e+2, -1442329.9, -1394337.0, 8074.352, 0.009062851, 0.18017446, -1393015.0, 23871.87, 0.0, 9.999646, 10.000337 
7.749772e+2, 1.6542198e+2, -1371582.5, -1347872.0, -1363.2675, 0.012698613, 0.20564389, -1347793.9, -28911.488, 0.0, 9.999642, 9.999979 
7.7498686e+2, 1.7542313e+2, -1292095.3, -1257343.4, 38316.313, -0.049374998, 0.29588234, -1232647.1, -11773.845, 0.0, 9.999509, 9.99999 
7.749971e+2, 1.8542288e+2, -1219173.6, -1240411.6, -12353.519, -0.008449709, 0.30750164, -1213502.4, -90626.53, 0.0, 9.99962, 9.999386 
7.750078e+2, 1.9542117e+2, -1066628.3, -1117735.4, -41698.62, 0.109147534, 0.17213272, -1043276.25, -18385.479, 0.0, 9.999999, 9.999373 
7.750177e+2, 2.0542023e+2, -974111.4, -1071867.8, -12978.164, 0.065368034, 0.16813533, -972417.75, -45518.58, 0.0, 10.000196, 9.998912 
7.750269e+2, 2.1541962e+2, -861590.1, -964117.6, 14028.994, -0.11149451, 0.1904475, -859705.2, -30800.19, 0.0, 10.000276, 9.998943 
7.7503747e+2, 2.2541855e+2, -755502.25, -811632.56, -13065.92, -0.12463333, 0.16998154, -752609.8, -21696.193, 0.0, 10.000118, 9.999393 
7.7504915e+2, 2.3541677e+2, -705905.2, -742229.06, 2629.1125, -0.0021017354, 0.026419003, -705715.9, -72788.31, 0.0, 9.999799, 9.999352 
7.7506036e+2, 2.4541639e+2, -649423.8, -814668.56, -7723.0703, 0.05839556, 0.12637126, -649063.6, -114128.266, 0.0, 10.000162, 9.998005 
7.7507126e+2, 2.5541696e+2, -418350.56, -645485.2, -21110.967, 0.06737649, 0.3550566, -416405.1, 20534.832, 0.0, 10.001042, 9.99807 
7.750819e+2, 2.6541626e+2, -238884.88, -352027.6, 2399.8403, -0.002099478, 0.41130924, -238834.0, 100113.67, 0.0, 10.000952, 9.9994545 
7.7509207e+2, 2.7541402e+2, -292874.3, -332168.2, 51724.758, -0.1409775, 0.21826397, -257190.84, -16228.619, 0.00000014054619, 9.999921, 9.999417 
7.751028e+2, 2.8541204e+2, -228514.98, -388446.75, -4421.005, -0.14120047, 0.14833818, -228392.88, -85413.555, 0.0000059856334, 10.000285, 9.998168 
7.751139e+2, 2.9541016e+2, 85248.68, -183782.94, -682.27026, -0.031345695, 0.10152971, 85250.41, 130250.39, 0.0000396548, 10.001746, 9.998193 
7.751227e+2, 3.0541027e+2, 172401.97, -106668.58, -28955.877, -0.15669315, 0.2971402, 175374.72, 175374.72, 0.00012692052, 10.001986, 9.99829 
7.751337e+2, 3.1540817e+2, 88414.48, 12342.804, 62782.35, -0.06493962, 0.2295454, 123784.01, 123784.01, 0.00027215088, 10.000641, 9.999761 
7.84933e+2, 1.2540926e+2, -1876210.0, -1679514.9, -28274.645, -0.017126797, 0.21532705, -1675531.1, 35480.832, 0.0000000040597263, 9.99833, 10.001021 
7.849448e+2, 1.3541037e+2, -1792567.5, -1645216.9, -2404.7446, 0.043968037, 0.24682538, -1645177.6, -32175.557, 0.0, 9.998539, 10.000485 
7.8495455e+2, 1.4541145e+2, -1629394.9, -1529124.1, 9928.243, -0.08060072, 0.31861407, -1528150.5, -13159.767, 0.0, 9.999009, 10.000383 
7.8496647e+2, 1.5541144e+2, -1411131.3, -1375050.1, -14054.615, 0.008813192, 0.24880213, -1370221.6, 46766.79, 0.0, 9.999851, 10.000363 
7.84977e+2, 1.6541193e+2, -1336615.4, -1301476.0, -53940.473, 0.026346495, 0.27364525, -1262315.9, 56666.203, 0.0, 9.99975, 10.000243 
7.8498644e+2, 1.7541261e+2, -1387430.4, -1275388.1, -74037.17, 0.005031653, 0.28910506, -1238566.0, -17590.988, 0.0, 9.99874, 10.000231 
7.84997e+2, 1.8541211e+2, -1305514.8, -1320214.0, -24031.865, 0.05014432, 0.28036496, -1287733.8, -164753.7, 0.0, 9.999199, 9.999034 
7.8500843e+2, 1.9541031e+2, -971997.94, -1105297.6, -20394.363, 0.13935639, 0.17062388, -968947.5, 56050.625, 0.0, 10.000808, 9.999057 
7.8501844e+2, 2.0540948e+2, -847651.1, -969230.0, 4973.4336, 0.09371003, 0.17434797, -847448.06, 79557.26, 0.0, 10.000873, 9.999294 
7.8502727e+2, 2.1540919e+2, -949892.3, -965262.1, 9023.738, -0.059266083, 0.19159736, -945724.56, -116718.59, 0.0, 9.999487, 9.999316 
7.8503776e+2, 2.2540809e+2, -799117.9, -825815.75, 55172.137, -0.0857464, 0.14659968, -755702.75, -24689.371, 0.0, 9.999782, 9.999459 
7.850496e+2, 2.3540601e+2, -458177.47, -617425.5, 43332.758, -0.009687772, -0.034331176, -447149.88, 185879.38, 0.0, 10.001474, 9.999405 
7.8506124e+2, 2.4540561e+2, -418603.84, -711665.56, 59387.25, 0.05070268, 0.067002825, -407026.72, 128010.75, 0.0, 10.001789, 9.997922 
7.850725e+2, 2.5540638e+2, -436248.22, -663078.94, 66801.586, 0.09898022, 0.32322943, -418037.25, 19004.422, 0.0, 10.0009575, 9.997987 
7.850833e+2, 2.6540586e+2, -242226.72, -354944.63, 86499.39, 0.057470977, 0.40046647, -195345.78, 143703.08, 0.0, 10.000938, 9.999436 
7.850935e+2, 2.7540383e+2, -54697.19, -218265.61, 30101.156, -0.055530395, 0.22847393, -49333.613, 191728.58, 0.0000001311964, 10.001568, 9.999398 
7.8510416e+2, 2.8540197e+2, -57463.523, -303837.9, -3683.3135, -0.079297915, 0.17144822, -57408.47, 85669.55, 0.0000058891046, 10.001446, 9.998195 
7.851152e+2, 2.9540026e+2, -86515.12, -268989.56, -4455.9946, -0.0127599435, 0.14580207, -86406.37, -41310.12, 0.000037489564, 10.00057, 9.99818 
7.85124e+2, 3.053997e+2, -24744.813, -211650.97, -6709.2974, -0.14316438, 0.27703443, -24504.281, -24504.281, 0.00011865352, 10.000665, 9.998201 
7.851353e+2, 3.15398e+2, 212227.72, 134913.16, 14165.787, 0.020691609, 0.24920045, 214741.48, 214741.48, 0.00025448482, 10.001219, 10.000314 
7.949316e+2, 1.2539831e+2, -1855659.6, -1662085.9, -82018.6, -0.061965503, 0.215311, -1632007.6, 79111.35, 0.0000000034592607, 9.99843, 10.001098 
7.9494375e+2, 1.3539857e+2, -1785286.9, -1640674.9, 14160.91, 0.053085063, 0.1581465, -1639301.3, -26187.232, 0.0, 9.99858, 10.000496 
7.949538e+2, 1.4539923e+2, -1644627.0, -1555671.6, 23430.111, -0.09177785, 0.19865999, -1549877.6, -34771.023, 0.0, 9.998986, 10.000212 
7.949649e+2, 1.5540004e+2, -1419312.3, -1393376.9, 29714.816, -0.17248411, 0.21990839, -1373923.4, 43175.977, 0.0, 9.999858, 10.000232 
7.9497564e+2, 1.6540016e+2, -1352328.3, -1329398.1, -105048.1, -0.1122919, 0.2227583, -1235191.3, 83905.81, 0.0, 9.999724, 10.000068 
7.9498625e+2, 1.7539944e+2, -1398310.1, -1298574.4, -95984.555, 0.08156692, 0.116145544, -1240276.5, -19174.78, 0.0, 9.998733, 10.000079 
7.949973e+2, 1.8539946e+2, -1291659.9, -1266117.1, 24551.813, 0.12663706, 0.14612146, -1251213.6, -128111.95, 0.0, 9.999094, 9.999453 
7.950085e+2, 1.953998e+2, -953079.94, -1044941.1, 48957.836, 0.03210123, 0.20646381, -931880.2, 93220.445, 0.0, 10.000721, 9.99951 
7.950184e+2, 2.0539956e+2, -839791.06, -919347.75, -60657.14, -0.021796932, 0.2219352, -807032.5, 120069.45, 0.0, 10.0007305, 9.999704 
7.950271e+2, 2.1539834e+2, -945345.4, -920637.9, -27094.563, -0.04728711, 0.10515509, -903213.56, -74104.445, 0.0, 9.999332, 9.999698 
7.950381e+2, 2.2539753e+2, -822673.8, -833393.75, 108947.14, -0.050469313, 0.06803156, -718954.9, 12158.091, 0.0, 9.999604, 9.999493 
7.9505104e+2, 2.3539679e+2, -475705.75, -621506.44, 118465.766, -0.038597815, 0.020104118, -409506.84, 223609.3, 0.0, 10.001329, 9.999449 
7.950623e+2, 2.4539615e+2, -400996.84, -642816.2, 15111.841, -0.04318647, 0.06695144, -400056.13, 135068.3, 0.0, 10.001654, 9.998459 
7.9507214e+2, 2.5539523e+2, -421617.47, -605049.8, 50931.066, -0.06509353, 0.1032198, -408424.97, 28715.352, 0.0, 10.000838, 9.998444 
7.950833e+2, 2.653945e+2, -322159.28, -510262.56, 99647.19, -0.061653215, 0.19061305, -279188.03, 59963.445, 0.0, 10.000884, 9.998397 
7.950956e+2, 2.7539364e+2, -134497.63, -370781.7, 69182.27, -0.03204006, 0.23915482, -115731.93, 125428.98, 0.000000103459534, 10.001504, 9.9983835 
7.9510677e+2, 2.853922e+2, -37987.188, -254405.47, -47093.18, 0.005548601, 0.25071856, -28183.678, 114991.52, 0.0000054454867, 10.001407, 9.998557 
7.9511654e+2, 2.9539004e+2, -73115.414, -225213.14, -13437.552, 0.02543768, 0.14701718, -71937.36, -26742.355, 0.00003447301, 10.000498, 9.998521 
7.951252e+2, 3.0538797e+2, -35855.547, -226796.08, 13429.442, -0.1185517, 0.116455846, -34915.637, -34915.637, 0.0001104858, 10.000623, 9.998118 
7.9513687e+2, 3.1538707e+2, 213216.3, 152471.16, 62543.316, -0.023475144, 0.17799778, 252371.84, 252371.84, 0.000240168, 10.001135, 10.000481 
8.0493104e+2, 1.2538823e+2, -1668817.1, -1589914.1, 15893.965, -0.012545121, 0.21127424, -1586832.9, 124382.76, 0.0000000057252847, 9.999808, 10.000941 
8.049429e+2, 1.3538791e+2, -1576976.0, -1566921.0, 58793.66, 0.05175679, 0.12352028, -1512940.3, 100275.24, 0.0, 10.000114, 10.000286 
8.0495334e+2, 1.4538807e+2, -1556302.3, -1505123.8, 89768.6, -0.056979567, 0.12096053, -1437368.4, 77844.836, 0.0, 9.999573, 10.000276 
8.0496395e+2, 1.5538922e+2, -1610648.9, -1484253.8, 74066.27, -0.18351074, 0.17565136, -1450087.4, -32884.18, 0.0, 9.998543, 10.000248 
8.049749e+2, 1.6538928e+2, -1458672.3, -1377695.5, -3911.7922, -0.11661848, 0.17005265, -1377507.0, -58305.797, 0.0, 9.998998, 10.000087 
8.049865e+2, 1.7538816e+2, -1103866.3, -1156345.3, -8927.535, 0.12894653, 0.026067752, -1102389.1, 118819.45, 0.0, 10.000768, 10.000077 
8.0499744e+2, 1.8538837e+2, -1042387.2, -1111547.5, 116723.04, 0.16730103, 0.060263984, -955229.7, 167976.5, 0.0, 10.000657, 9.999764 
8.05008e+2, 1.9538948e+2, -1212630.6, -1144042.9, 103127.06, 0.015013962, 0.16920203, -1069657.1, -44459.125, 0.0, 9.998818, 9.99976 
8.05018e+2, 2.0538947e+2, -1043898.0, -1009842.9, 18457.38, -0.046961177, 0.19610484, -1001758.44, -74561.336, 0.0, 9.999291, 9.999784 
8.0502766e+2, 2.1538815e+2, -602658.3, -746403.5, -1491.4742, -0.031721488, 0.061006434, -602642.8, 226562.67, 0.0, 10.001655, 9.999776 
8.0503905e+2, 2.2538742e+2, -544683.06, -726442.8, 109114.28, -0.004974084, 0.040802956, -493559.16, 237650.47, 0.0, 10.001641, 9.999236 
8.0505204e+2, 2.3538692e+2, -757918.25, -782291.5, 72478.414, 0.02927112, 0.042248663, -696609.06, -63396.586, 0.0, 9.999516, 9.999208 
8.050631e+2, 2.4538611e+2, -703773.8, -744505.6, 174.96922, -0.007776072, 0.061711293, -703773.06, -168552.03, 0.0, 9.999362, 9.998878 
8.0507255e+2, 2.5538465e+2, -391798.7, -547598.56, 2372.2307, -0.09968251, 0.0012733435, -391762.56, 45475.16, 0.0, 10.000842, 9.998847 
8.05084e+2, 2.653837e+2, -295332.06, -537271.44, 90545.06, -0.08875799, 0.06594236, -265198.9, 74051.61, 0.0, 10.001233, 9.998053 
8.050972e+2, 2.7538285e+2, -269387.38, -471521.03, 88616.38, 0.023001628, 0.14898592, -236039.3, 5223.498, 0.00000004701224, 10.000716, 9.99808 
8.0510855e+2, 2.853818e+2, -116798.1, -292245.72, 6416.484, 0.080448024, 0.21751569, -116563.75, 26710.246, 0.000004093495, 10.000867, 9.998551 
8.0511796e+2, 2.9538038e+2, 93132.73, -143225.1, -17570.533, 0.07593609, 0.18303473, 94431.76, 139718.2, 0.000029631305, 10.001642, 9.998525 
8.051268e+2, 3.0537745e+2, 82868.71, -213895.3, 8243.299, -0.06100178, 0.083821744, 83097.516, 83097.516, 0.00010221737, 10.001631, 9.99773 
8.051392e+2, 3.1537637e+2, 75874.0, 2121.1409, -30317.059, 0.13860594, 0.16683803, 86736.39, 86736.39, 0.00023173698, 10.000583, 9.999708 
8.1493044e+2, 1.2537935e+2, -1698457.5, -1667690.1, -8522.019, -0.122232385, 0.2201962, -1665487.4, 45811.445, 0.000000004999778, 9.999879, 10.00037 
8.149418e+2, 1.3537866e+2, -1604379.9, -1631866.5, 77127.31, -0.09755268, 0.14379835, -1539780.9, 73523.6, 0.0, 10.000157, 9.999812 
8.149526e+2, 1.4537819e+2, -1542787.9, -1486478.1, 34696.883, -0.1196641, 0.09539832, -1469950.0, 45358.383, 0.0, 9.999604, 10.000395 
8.1496316e+2, 1.5537909e+2, -1599264.5, -1460433.5, 52638.426, -0.14903462, 0.1118614, -1442732.4, -25433.383, 0.0, 9.998539, 10.000415 
8.149743e+2, 1.6537933e+2, -1458594.3, -1365480.1, 48233.88, -0.1037712, 0.111947425, -1344999.4, -25705.445, 0.0, 9.998951, 10.00019 
8.1498647e+2, 1.7537874e+2, -1098874.5, -1137400.8, 66196.516, 0.027907923, 0.0061204415, -1049195.4, 172100.27, 0.0, 10.000735, 10.000218 
8.1499726e+2, 1.8537891e+2, -1046606.75, -1103923.8, 36229.652, 0.052788727, 0.022462826, -1029071.1, 94221.766, 0.0, 10.000582, 9.999855 
8.150066e+2, 1.9537938e+2, -1219298.4, -1141046.5, 53192.836, -0.035347633, 0.059051365, -1114139.8, -88850.04, 0.0, 9.998739, 9.99982 
8.150171e+2, 2.0537937e+2, -1091592.3, -1069933.9, 94323.87, -0.092041634, 0.10085819, -985819.56, -58529.996, 0.0, 9.999127, 9.99945 
8.150286e+2, 2.1537867e+2, -650396.9, -804815.7, 94876.016, -0.12095411, 0.05828746, -605284.0, 224010.63, 0.0, 10.001479, 9.999457 
8.150404e+2, 2.2537778e+2, -611027.3, -819667.56, 15488.205, -0.06134973, 0.066534854, -609883.9, 121419.445, 0.0, 10.0014515, 9.998688 
8.150522e+2, 2.3537634e+2, -817424.0, -868496.75, 10445.571, 0.06708099, 0.028187497, -815370.2, -182051.52, 0.0, 9.999353, 9.998694 
8.150632e+2, 2.4537541e+2, -702541.56, -709125.4, 42902.277, 0.040996216, 0.045483667, -662805.06, -127477.43, 0.0, 9.999224, 9.999187 
8.150735e+2, 2.5537467e+2, -387805.56, -512105.84, 67556.59, -0.11722472, 0.0255215, -358159.53, 79173.74, 0.0, 10.000726, 9.999147 
8.1508505e+2, 2.6537344e+2, -277081.47, -481718.06, 59090.13, -0.128584, 0.029014124, -261244.45, 78101.35, 0.0, 10.001161, 9.998467 
8.1509775e+2, 2.7537146e+2, -263778.25, -427885.47, 88377.66, -0.017436542, -0.040251844, -225235.83, 16131.65, 0.000000004527389, 10.000585, 9.998444 
8.1510913e+2, 2.853709e+2, -150071.97, -352686.16, 24541.883, 0.02065148, 0.0746669, -147141.69, -3767.1018, 0.0000024308686, 10.000824, 9.998158 
8.151192e+2, 2.9537132e+2, 45798.57, -220364.08, 28785.113, -0.0047326474, 0.2689287, 48876.055, 94246.74, 0.00002455122, 10.001554, 9.998038 
8.1512845e+2, 3.0536792e+2, 38922.348, -308849.25, -37810.34, -0.092993245, 0.18290758, 42985.68, 42985.68, 0.00009685274, 10.001647, 9.997067 
8.151411e+2, 3.153655e+2, -48093.26, -228506.36, -48633.508, 0.20603254, 0.1933878, -35818.4, -35818.4, 0.00023260372, 10.000473, 9.998178 
8.249306e+2, 1.2536968e+2, -1750176.0, -1746228.8, 21792.006, -0.07085847, 0.14841905, -1726321.1, -14932.092, 0.0000000017683296, 9.999725, 9.999908 
8.249412e+2, 1.3536966e+2, -1771896.9, -1753748.1, 68548.56, -0.11533308, 0.16922364, -1693676.0, -80284.59, 0.0, 9.9991665, 9.999456 
8.2495224e+2, 1.4536902e+2, -1627087.9, -1521604.3, 59899.668, -0.079028025, 0.119189605, -1494535.9, 20861.574, 0.0, 9.999014, 10.000428 
8.249627e+2, 1.5536954e+2, -1460388.8, -1392212.6, 39590.734, -0.08839827, 0.09606851, -1374056.9, 43333.242, 0.0, 9.999493, 10.000414 
8.24974e+2, 1.6536969e+2, -1339938.3, -1319272.5, 93868.33, -0.06269172, 0.08880507, -1235170.0, 84215.73, 0.0, 9.999793, 10.000105 
8.2498664e+2, 1.7536928e+2, -1235107.1, -1219876.0, 66256.83, 0.021725647, 0.009984879, -1160798.5, 60587.652, 0.0, 9.999844, 10.0000925 
8.2499754e+2, 1.8536927e+2, -1111204.6, -1156839.1, -11732.503, 0.05305728, 0.026240949, -1108365.0, 15020.405, 0.0, 10.000237, 9.999654 
8.2500684e+2, 1.9536927e+2, -916781.3, -1017017.8, -43297.19, 0.017170528, 0.037156746, -900669.06, 124717.695, 0.0, 10.000922, 9.999609 
8.2501763e+2, 2.0536903e+2, -870393.0, -993557.6, 62373.934, -0.023896897, 0.07798971, -844323.25, 83066.734, 0.0, 10.000779, 9.999167 
8.2502985e+2, 2.153683e+2, -908533.75, -961640.5, 36744.848, -0.06110773, 0.06345099, -889752.06, -60355.227, 0.0, 9.9998455, 9.9991665 
8.250413e+2, 2.2536746e+2, -811028.56, -920111.44, -34549.64, -0.033279058, 0.09147251, -801006.5, -69599.98, 0.0, 10.000075, 9.998678 
8.2505226e+2, 2.353661e+2, -535378.1, -734936.3, -25062.75, 0.0478884, 0.064859174, -532278.56, 101143.55, 0.0, 10.0012865, 9.998693 
8.2506347e+2, 2.453653e+2, -364360.13, -521774.84, 78166.625, 0.04695933, 0.08425943, -332140.2, 203289.23, 0.0, 10.001458, 9.99939 
8.250751e+2, 2.5536472e+2, -367817.4, -475927.66, 66328.12, -0.023711123, 0.06015817, -336307.5, 101124.234, 0.0, 10.000773, 9.999365 
8.250869e+2, 2.6536354e+2, -343343.13, -486918.63, 51088.18, -0.022406377, 0.04612492, -327020.25, 12421.579, 0.0, 10.000591, 9.998702 
8.25099e+2, 2.753615e+2, -220597.14, -379532.4, 40585.156, 0.0469374, -0.056363653, -210833.28, 30629.008, 0.0, 10.00077, 9.998677 
8.2511044e+2, 2.8536052e+2, -116111.81, -373347.53, 35842.508, 0.05704164, 0.021530638, -111210.99, 32262.045, 0.000001518397, 10.001224, 9.9978285 
8.251212e+2, 2.9536006e+2, 73057.945, -239465.86, 14496.758, 0.03341513, 0.16071878, 73728.95, 119207.1, 0.000022026383, 10.001871, 9.997759 
8.251307e+2, 3.053571e+2, 103332.25, -258128.11, -29790.877, -0.038875498, 0.124318756, 105771.1, 105771.1, 0.00009707927, 10.002022, 9.997224 
8.251426e+2, 3.1535414e+2, 98982.13, -188681.02, -51489.816, 0.27064255, 0.060912684, 107920.73, 107920.73, 0.00024343748, 10.001603, 9.997901 
8.349306e+2, 1.2535949e+2, -1777117.1, -1784896.9, -24380.93, -0.10814734, 0.020163838, -1756317.8, -44833.953, 0.000000000051048894, 9.999665, 9.99967 
8.3494073e+2, 1.3536106e+2, -1768531.3, -1746113.3, 60372.336, -0.11321911, 0.20217155, -1695918.3, -82443.83, 0.0, 9.999177, 9.999498 
8.349518e+2, 1.4536066e+2, -1643404.5, -1557237.4, 62161.723, -0.061709322, 0.18729036, -1524688.4, -9209.235, 0.0, 9.999018, 10.000182 
8.3496195e+2, 1.553606e+2, -1475431.9, -1421022.4, 69982.15, -0.13671613, 0.12536855, -1373143.1, 44333.28, 0.0, 9.999481, 10.00022 
8.349735e+2, 1.6536038e+2, -1369078.1, -1359792.0, 81722.33, -0.11634566, 0.103035666, -1282580.9, 36895.063, 0.0, 9.999712, 9.999867 
8.3498657e+2, 1.753599e+2, -1258489.6, -1258023.5, 84280.58, 0.0015754236, 0.045335438, -1173975.6, 47502.938, 0.0, 9.999807, 9.999846 
8.349982e+2, 1.853596e+2, -1158921.4, -1246018.8, 188.22282, 0.06015965, 0.07511966, -1158920.9, -35438.61, 0.0, 10.000189, 9.99907 
8.3500844e+2, 1.9535907e+2, -968418.4, -1099387.5, -6648.0347, 0.0533042, 0.08627684, -968081.8, 57408.55, 0.0, 10.000814, 9.999097 
8.350193e+2, 2.0535833e+2, -913450.5, -1044066.4, 13843.852, 0.042595122, 0.115959264, -911999.4, 15500.003, 0.0, 10.000611, 9.9989 
8.3503073e+2, 2.1535708e+2, -949209.75, -1007131.06, 17810.559, 0.023870168, 0.07330474, -944171.3, -114659.28, 0.0, 9.99968, 9.99893 
8.3504164e+2, 2.2535653e+2, -798839.0, -858721.9, -2201.6306, -0.034219068, 0.11707898, -798758.2, -67239.734, 0.0, 9.999911, 9.999182 
8.350519e+2, 2.3535627e+2, -520860.44, -675676.06, 33740.87, -0.14017545, 0.1479504, -513826.47, 119695.805, 0.0, 10.001148, 9.999172 
8.3506364e+2, 2.4535581e+2, -376593.78, -518621.63, 40694.883, -0.1036217, 0.1738359, -365759.97, 169765.95, 0.0, 10.001331, 9.999473 
8.350769e+2, 2.5535485e+2, -377735.4, -476145.38, 57603.035, 0.059575696, 0.10003942, -351182.63, 86350.125, 0.0, 10.000677, 9.999413 
8.350891e+2, 2.65354e+2, -350366.84, -483996.38, 47260.695, 0.11702904, 0.114940666, -335341.6, 4197.1836, 0.0, 10.000516, 9.998759 
8.351005e+2, 2.7535298e+2, -230941.73, -382010.9, 64257.04, 0.08288036, 0.109136365, -207307.56, 34239.594, 0.0, 10.000684, 9.998704 
8.35112e+2, 2.8535065e+2, -136178.16, -402423.34, 48122.44, 0.06448187, 0.066059574, -127747.25, 15821.785, 0.0000012583888, 10.001174, 9.997651 
8.351236e+2, 2.9534683e+2, 42180.063, -273714.16, 56302.965, 0.05278164, -0.11699201, 51915.133, 97521.445, 0.000022671806, 10.001744, 9.997588 
8.351331e+2, 3.05345e+2, 164271.83, -121906.56, -48552.97, -0.026605224, -0.07936002, 172284.95, 172284.95, 0.0001036696, 10.001979, 9.998179 
8.3514315e+2, 3.1534478e+2, 137303.61, -84615.15, -37770.81, 0.0938233, 0.041379206, 143556.08, 143556.08, 0.00026239955, 10.001508, 9.99866 
8.4493035e+2, 1.2534937e+2, -1917143.8, -1846162.4, -67933.54, -0.03128394, 0.035163455, -1805007.5, -93425.695, 0.0, 9.998674, 9.999729 
8.4494066e+2, 1.3535053e+2, -1694801.8, -1693443.5, -38417.234, -0.04577286, 0.15912361, -1655699.4, -42123.063, 0.0, 9.999607, 9.99966 
8.449521e+2, 1.4535013e+2, -1528698.4, -1529590.8, 6215.803, 0.024275059, 0.14774592, -1522912.8, -7331.1084, 0.0, 9.999921, 9.999939 
8.449623e+2, 1.553501e+2, -1404926.3, -1416665.3, -18196.45, -0.07640159, 0.11484378, -1391676.1, 25903.102, 0.0, 10.000091, 9.999961 
8.449735e+2, 1.6535006e+2, -1323137.8, -1324844.0, 16622.227, -0.090011604, 0.11829808, -1307346.8, 12231.132, 0.0, 9.999971, 9.999982 
8.449859e+2, 1.7534986e+2, -1308789.8, -1270364.0, 19171.537, -0.014258276, 0.077556014, -1262435.0, -40855.71, 0.0, 9.999416, 9.999948 
8.4499776e+2, 1.8534964e+2, -1251626.9, -1293474.0, 26018.334, 0.039365683, 0.11018501, -1239162.6, -115579.88, 0.0, 9.999565, 9.999042 
8.4500897e+2, 1.95349e+2, -1047046.4, -1147776.9, 30817.51, 0.06332192, 0.11507711, -1038366.06, -12774.631, 0.0, 10.000305, 9.999018 
8.4502023e+2, 2.053482e+2, -895804.0, -1031528.9, 64692.33, 0.08324243, 0.14134805, -869909.25, 57691.543, 0.0, 10.000713, 9.998942 
8.450317e+2, 2.1534695e+2, -793725.2, -933825.9, 62532.957, 0.104013406, 0.097779974, -769874.44, 59739.31, 0.0, 10.000749, 9.998926 
8.450425e+2, 2.2534636e+2, -667829.44, -768029.5, 103197.63, 0.036051475, 0.12674673, -603213.44, 128406.234, 0.0, 10.000714, 9.999398 
8.450529e+2, 2.3534617e+2, -588958.9, -680567.5, 82128.37, -0.11578149, 0.14033426, -540725.44, 92895.8, 0.0, 10.000593, 9.999385 
8.4506476e+2, 2.4534585e+2, -490800.66, -595596.3, 65794.234, -0.088857345, 0.1794791, -459088.97, 76534.96, 0.0, 10.000629, 9.999289 
8.4507793e+2, 2.5534505e+2, -377396.22, -490195.6, 38941.23, 0.09815601, 0.14295441, -365258.75, 72372.28, 0.0, 10.000745, 9.999276 
8.4509027e+2, 2.6534423e+2, -269636.8, -440108.63, 69264.85, 0.15991741, 0.16288519, -245042.02, 94594.97, 0.0, 10.001043, 9.998804 
8.4510195e+2, 2.7534312e+2, -102487.1, -312429.6, 59515.813, 0.1248985, 0.14239176, -86788.984, 154855.7, 0.0000000050987805, 10.001527, 9.998778 
8.4511364e+2, 2.8534088e+2, -86524.28, -347463.94, 75547.71, 0.11318536, 0.089056164, -66229.945, 77435.2, 0.0000017149706, 10.001367, 9.997936 
8.451254e+2, 2.9533726e+2, -110373.15, -305819.2, 88754.45, 0.1253072, -0.10552403, -76084.27, -30383.596, 0.0000255943, 10.000516, 9.997952 
8.451352e+2, 3.0533594e+2, 43743.19, -152205.64, 33421.234, 0.050397813, -0.050573546, 49286.723, 49286.723, 0.000114914044, 10.001014, 9.99845 
8.451446e+2, 3.1533518e+2, 325437.63, 86825.6, -56137.36, 0.06076942, -0.0118248835, 337985.06, 337985.06, 0.00028702893, 10.002411, 9.999423 
8.549292e+2, 1.2533927e+2, -1920520.8, -1834914.4, -51132.0, -0.079941265, 0.17227668, -1811034.8, -99351.086, 0.0, 9.998616, 9.999826 
8.549405e+2, 1.353382e+2, -1685805.3, -1654715.8, 1454.4829, -0.050363015, 0.04686556, -1654647.9, -40951.504, 0.0, 9.999556, 9.99993 
8.5495263e+2, 1.4533757e+2, -1541626.0, -1564584.8, -5168.8765, 0.0492008, 0.011307905, -1540516.0, -24812.654, 0.0, 9.999935, 9.999702 
8.549632e+2, 1.5533811e+2, -1413512.6, -1442728.1, 4658.811, -0.032137893, 0.058241643, -1412787.8, 4909.9224, 0.0, 10.000122, 9.999767 
8.5497373e+2, 1.6533877e+2, -1303421.8, -1274654.1, -19063.518, -0.094618015, 0.12393955, -1265156.8, 54534.477, 0.0, 9.999933, 10.000344 
8.549844e+2, 1.7533918e+2, -1285108.5, -1210885.0, 10752.618, -0.14021014, 0.10045085, -1209358.8, 12329.331, 0.0, 9.999378, 10.00037 
8.549959e+2, 1.853394e+2, -1228318.8, -1229418.1, 40780.17, -0.12914795, 0.13455945, -1188084.5, -64398.23, 0.0, 9.999487, 9.999524 
8.550081e+2, 1.9533922e+2, -1020825.25, -1080448.6, 69692.945, -0.08182107, 0.1355057, -974835.56, 50852.98, 0.0, 10.000241, 9.999512 
8.550203e+2, 2.0533882e+2, -896132.06, -1005902.06, 52144.875, -0.011070183, 0.16772969, -875310.7, 52381.996, 0.0, 10.000593, 9.999185 
8.5503227e+2, 2.1533787e+2, -797984.1, -903737.75, 78133.52, 0.07188966, 0.12783916, -756516.8, 73185.336, 0.0, 10.000577, 9.999217 
8.550438e+2, 2.2533686e+2, -706439.1, -804952.4, 85812.84, 0.07177686, 0.1088699, -656751.0, 74959.74, 0.0, 10.000526, 9.999238 
8.5505486e+2, 2.3533565e+2, -620308.56, -713771.9, 92916.625, -0.0016015373, 0.0337887, -563033.75, 70686.51, 0.0, 10.000451, 9.9992285 
8.5506624e+2, 2.4533533e+2, -540002.7, -666414.8, 57003.82, -0.027303034, 0.10381073, -518094.44, 17629.357, 0.0, 10.000499, 9.998863 
8.550778e+2, 2.5533536e+2, -425221.47, -559728.1, 56120.09, -0.01084455, 0.19103219, -404882.13, 32844.477, 0.0, 10.000615, 9.998863 
8.5509014e+2, 2.6533422e+2, -277923.47, -435007.75, 73802.01, 0.021456035, 0.19204396, -248689.9, 91047.09, 0.0, 10.000949, 9.998887 
8.55103e+2, 2.7533183e+2, -111215.96, -307272.03, 93063.32, 0.05666211, 0.037981465, -74076.41, 167679.33, 0.0000001292932, 10.00143, 9.998862 
8.55115e+2, 2.8533113e+2, -40633.176, -236602.77, 33715.59, 0.08475308, 0.09077167, -34994.805, 108766.93, 0.0000031613251, 10.001301, 9.998727 
8.55126e+2, 2.953312e+2, -68497.93, -204830.03, 74438.4, 0.10239536, 0.19013001, -35729.918, 10033.015, 0.000030116835, 10.000448, 9.998682 
8.551366e+2, 3.0532965e+2, 11509.244, -196239.17, 77688.586, 0.066290416, 0.20211889, 37347.668, 37347.668, 0.00012742863, 10.000936, 9.998179 
8.5514677e+2, 3.1532517e+2, 330943.1, 136681.61, 35360.85, -0.036289234, -0.09884207, 337179.53, 337179.53, 0.00031382052, 10.002263, 9.999834 
8.649286e+2, 1.2532768e+2, -1712939.1, -1731384.4, -8647.125, -0.054793146, 0.16457875, -1709519.4, 2279.6465, 0.00000000000000000000885557, 10.000002, 9.999875 
8.6493975e+2, 1.3532704e+2, -1710931.0, -1667731.8, -27142.682, -0.05603739, 0.07520533, -1654643.3, -40835.906, 0.0, 9.999343, 9.999961 
8.6495197e+2, 1.453268e+2, -1677565.9, -1555762.1, 20878.21, 0.059690624, 0.042549815, -1552282.9, -36473.324, 0.0, 9.998696, 10.000356 
8.649627e+2, 1.5532729e+2, -1633434.1, -1489698.9, 61767.613, 0.006355657, 0.025125418, -1466802.6, -49000.063, 0.0, 9.998345, 10.000315 
8.649732e+2, 1.6532822e+2, -1500001.4, -1366169.8, 89352.99, -0.06675402, 0.08964107, -1321453.8, -1659.7506, 0.0, 9.998582, 10.000356 
8.649835e+2, 1.7532925e+2, -1285400.6, -1218376.5, 60634.31, -0.15651754, 0.1326824, -1182609.5, 39177.03, 0.0, 9.999398, 10.000311 
8.6499524e+2, 1.8532957e+2, -1157709.1, -1176749.9, 99269.555, -0.15482564, 0.17061155, -1067504.5, 56279.668, 0.0, 9.999917, 9.999664 
8.650082e+2, 1.9532906e+2, -1027127.2, -1068513.6, 76135.16, -0.08787801, 0.12665223, -968923.2, 56864.69, 0.0, 10.000163, 9.999618 
8.650207e+2, 2.0532866e+2, -950666.5, -1043493.1, 34131.105, -0.0016340094, 0.1587949, -939467.94, -11675.786, 0.0, 10.000281, 9.999062 
8.6503285e+2, 2.1532801e+2, -865075.3, -952780.1, -70.05767, 0.090881154, 0.15915222, -865075.25, -35274.926, 0.0, 10.000197, 9.999055 
8.6504453e+2, 2.2532707e+2, -729570.5, -805625.7, 34929.72, 0.108357385, 0.15201622, -715963.0, 15844.903, 0.0, 10.000328, 9.999331 
8.65056e+2, 2.3532575e+2, -587835.5, -689772.94, 34350.93, 0.06445223, 0.059517797, -577340.44, 56476.094, 0.0, 10.000644, 9.9993 
8.650673e+2, 2.453249e+2, -520509.4, -702319.1, 31812.184, 0.024153458, 0.09181481, -515103.78, 20721.434, 0.0, 10.000836, 9.998448 
8.6507857e+2, 2.5532404e+2, -401592.28, -591572.6, 3545.6106, -0.013860067, 0.13254787, -401526.13, 36311.62, 0.0, 10.000975, 9.998468 
8.6509097e+2, 2.6532283e+2, -237322.67, -378632.56, 64301.066, 0.0054566497, 0.13297386, -212443.61, 127404.89, 0.0000000005766255, 10.001071, 9.99921 
8.6510444e+2, 2.7532113e+2, -130803.99, -282026.63, 68885.89, 0.07854771, 0.013919152, -104129.74, 137730.05, 0.000000514823, 10.001146, 9.999168 
8.6511624e+2, 2.853208e+2, -72661.266, -255669.05, -14398.403, 0.09579929, 0.09358127, -71535.38, 72326.94, 0.0000054394536, 10.001099, 9.998699 
8.6512643e+2, 2.9532117e+2, -2000.9435, -169198.1, -57432.426, 0.07905233, 0.22495198, 15826.342, 61688.484, 0.000035908153, 10.000901, 9.99871 
8.6513793e+2, 3.053194e+2, 48734.86, -172513.27, 15159.628, 0.10659991, 0.20816195, 49768.746, 49768.746, 0.00014009468, 10.001153, 9.998233 
8.651498e+2, 3.1531617e+2, 216932.42, 125714.664, -38055.344, 0.100236915, 0.025605535, 230723.7, 230723.7, 0.00033844914, 10.001316, 10.000191 
8.749276e+2, 1.2531498e+2, -1707241.8, -1723233.0, -60689.08, -0.21921979, 0.05300213, -1654023.9, 57900.3, 0.0000000055054987, 10.000015, 9.99992 
8.749382e+2, 1.3531722e+2, -1709678.3, -1655155.6, -42064.09, -0.18258098, 0.24202058, -1632291.4, -18383.52, 0.0, 9.999311, 10.000052 
8.749497e+2, 1.45318e+2, -1590257.0, -1368644.6, -9119.659, -0.06724603, 0.24289925, -1368270.0, 147628.47, 0.0, 9.998671, 10.001652 
8.749604e+2, 1.5531781e+2, -1547879.4, -1297957.9, 64057.355, -0.08169826, 0.021320747, -1282496.0, 135396.25, 0.0, 9.9983015, 10.001643 
8.7497145e+2, 1.6531867e+2, -1533943.6, -1430883.1, 107322.6, -0.12885734, 0.034010883, -1363360.9, -43477.66, 0.0, 9.998546, 9.999935 
8.749829e+2, 1.7532034e+2, -1318166.0, -1280806.6, 104057.16, -0.1810807, 0.18392341, -1193765.9, 28106.918, 0.0, 9.999373, 9.999894 
8.7499547e+2, 1.8532039e+2, -1185354.0, -1220765.1, 95797.66, -0.15086214, 0.23017597, -1105639.5, 18234.313, 0.0, 9.999859, 9.9993925 
8.7500894e+2, 1.9531852e+2, -1058169.3, -1109092.9, 99783.414, -0.060573556, 0.076514244, -980650.4, 45239.01, 0.0, 10.000062, 9.999387 
8.750213e+2, 2.0531766e+2, -1012824.3, -1137998.0, 18961.998, 0.0050591617, 0.10115043, -1010014.9, -82115.41, 0.0, 10.00013, 9.998488 
8.750328e+2, 2.1531746e+2, -926326.9, -1042862.4, 8583.64, 0.04566365, 0.20451179, -925698.06, -95791.195, 0.0, 10.000035, 9.998515 
8.7504435e+2, 2.2531715e+2, -732599.6, -774177.25, 32661.74, 0.0386861, 0.27124453, -714671.94, 17237.332, 0.0, 10.000163, 9.999629 
8.7505597e+2, 2.3531647e+2, -594911.6, -660307.44, 60172.68, -0.019291338, 0.21280268, -559126.7, 74783.54, 0.0, 10.000455, 9.999593 
8.750678e+2, 2.4531446e+2, -569491.1, -775679.94, 23437.527, -0.03838323, 0.13843618, -566860.5, -30932.115, 0.0, 10.000708, 9.998011 
8.750795e+2, 2.5531104e+2, -449930.22, -661234.5, 23925.365, -0.032802716, -0.03327911, -447255.1, -9290.871, 0.0, 10.000843, 9.998054 
8.750922e+2, 2.6531008e+2, -210790.42, -312060.9, 54763.36, 0.0012191323, -0.012181504, -186840.45, 153131.05, 0.0000000691861, 10.001016, 9.999696 
8.751058e+2, 2.7531096e+2, -114623.95, -222335.77, 85541.47, 0.062224984, 0.07513868, -67396.72, 174560.66, 0.000001269736, 10.001035, 9.999631 
8.7511706e+2, 2.853101e+2, -129942.57, -366123.78, -35960.914, 0.039673958, 0.115555935, -124588.54, 19376.963, 0.000008255043, 10.001055, 9.997969 
8.7512624e+2, 2.953072e+2, -53011.586, -273450.7, -45573.016, -0.067055814, -0.0032177279, -43961.49, 2036.543, 0.000042714033, 10.000882, 9.998012 
8.7513894e+2, 3.0530524e+2, 67128.03, -121721.13, 16264.927, 0.062092017, -0.026801405, 68518.63, 68518.63, 0.00015288098, 10.001107, 9.998599 
8.7515295e+2, 3.1530604e+2, 211619.44, 127886.6, 28389.842, 0.21425317, 0.16109407, 220337.4, 220337.4, 0.00035815634, 10.001251, 10.000243 
8.849277e+2, 1.2530458e+2, -1827212.6, -1771581.0, 29252.77, -0.15509643, 0.063735954, -1759030.4, -47005.625, 0.00000006865043, 9.99915, 10.000013 
8.8493705e+2, 1.3530643e+2, -1837965.5, -1719555.1, -12688.478, -0.16879116, 0.21812685, -1718210.8, -104198.81, 0.0, 9.998437, 10.00004 
8.849482e+2, 1.4530724e+2, -1630366.8, -1391304.4, 33930.953, -0.06889726, 0.22485468, -1386581.8, 129420.84, 0.0, 9.998428, 10.001603 
8.8495934e+2, 1.5530737e+2, -1399281.3, -1235244.4, -31412.432, -0.06176459, 0.04290329, -1229434.9, 188559.34, 0.0, 9.999365, 10.001553 
8.8497096e+2, 1.6530819e+2, -1363492.8, -1359545.1, 5426.1694, -0.08346372, 0.06320157, -1355744.9, -35759.17, 0.0, 9.999764, 9.999838 
8.8498294e+2, 1.7530961e+2, -1277520.3, -1270849.3, 37.22763, -0.12391758, 0.19735213, -1270849.1, -48871.484, 0.0, 9.999696, 9.999808 
8.8499594e+2, 1.8530956e+2, -1180959.0, -1210493.8, 37784.285, -0.082726456, 0.23316324, -1155158.8, -31178.973, 0.0, 9.999851, 9.999467 
8.850097e+2, 1.9530772e+2, -1034486.3, -1091918.5, 36736.504, 0.018241864, 0.077069335, -1016574.25, 9421.325, 0.0, 10.0001955, 9.999444 
8.8502204e+2, 2.0530678e+2, -946344.9, -1089098.5, 15279.252, 0.058080632, 0.08406526, -944727.8, -16722.387, 0.0, 10.00051, 9.998647 
8.8503313e+2, 2.1530645e+2, -805618.94, -970852.8, 37676.08, 0.048111476, 0.16075458, -797433.7, 32578.21, 0.0, 10.000802, 9.998649 
8.8504493e+2, 2.2530599e+2, -651381.9, -790971.4, 82474.98, 0.046618506, 0.23157844, -613133.0, 118883.72, 0.0, 10.000959, 9.999123 
8.850573e+2, 2.3530509e+2, -551904.56, -698256.44, 16782.479, 0.04515567, 0.20134312, -550004.75, 84018.71, 0.0, 10.00099, 9.999075 
8.850692e+2, 2.4530332e+2, -506691.78, -704531.06, 7870.459, 0.031300195, 0.15792084, -506379.16, 29660.475, 0.0, 10.000964, 9.99837 
8.850807e+2, 2.5530046e+2, -402349.47, -603474.44, 38230.707, -0.003311086, 0.0059984406, -395327.56, 42739.586, 0.00000000006372724, 10.000995, 9.998381 
8.8509315e+2, 2.652994e+2, -264415.44, -380246.47, 83891.55, 0.00584339, 0.019398319, -220389.8, 119685.61, 0.00000025387644, 10.0008335, 9.999315 
8.8510644e+2, 2.752996e+2, -204900.95, -307338.97, 21174.123, 0.062425144, 0.08125899, -200696.77, 41373.07, 0.0000021793016, 10.000591, 9.999262 
8.851182e+2, 2.8529826e+2, -135581.52, -386175.16, -54982.977, 0.049904153, 0.098459095, -124048.445, 20034.363, 0.000011106664, 10.001109, 9.997787 
8.8512826e+2, 2.9529512e+2, 148206.97, -198009.3, -56171.49, -0.021038389, -0.023657063, 157092.4, 203208.17, 0.000049522223, 10.002364, 9.997808 
8.8514113e+2, 3.0529302e+2, 257123.27, -77091.94, -10893.639, 0.10879894, -0.027493002, 257477.97, 257477.97, 0.00016467013, 10.002611, 9.99819 
8.85155e+2, 3.1529447e+2, 200155.61, 31215.412, -79023.04, 0.29008976, 0.27195877, 231356.77, 231356.77, 0.00037312726, 10.001571, 9.999436 
8.949281e+2, 1.2529631e+2, -1838535.5, -1765648.9, -30623.002, -0.08725743, 0.1797064, -1754490.9, -42388.57, 0.00000033567557, 9.999058, 10.000085 
8.9493614e+2, 1.3529496e+2, -1850939.3, -1733717.3, -30573.986, -0.12536274, 0.023208361, -1726222.1, -112105.79, 0.00000000007521531, 9.998407, 9.999948 
8.9494675e+2, 1.4529485e+2, -1734519.8, -1608522.5, 52697.28, -0.08521975, 0.017335841, -1589388.1, -73269.805, 0.0, 9.998422, 10.000121 
8.9495915e+2, 1.5529612e+2, -1503990.0, -1451082.5, 19566.037, -0.050667975, 0.09962345, -1444632.9, -26525.977, 0.0, 9.999353, 10.00008 
8.949713e+2, 1.652969e+2, -1354182.9, -1334767.5, -11570.475, -0.055906046, 0.17944115, -1329371.8, -9270.89, 0.0, 9.999742, 10.000017 
8.9498335e+2, 1.7529704e+2, -1270645.6, -1241630.5, 11643.043, -0.086294904, 0.16536114, -1237536.1, -15434.857, 0.0, 9.999637, 10.000034 
8.949963e+2, 1.8529712e+2, -1168860.8, -1164213.5, 38024.816, -0.057888057, 0.18357922, -1128441.4, -4339.807, 0.0, 9.999753, 9.999833 
8.950102e+2, 1.9529678e+2, -1028492.8, -1049068.6, 62217.83, 0.021347009, 0.14037788, -975718.06, 50386.97, 0.0, 10.000063, 9.999801 
8.950226e+2, 2.0529616e+2, -902340.56, -968268.6, 13276.486, 0.03383077, 0.11665956, -899767.44, 28341.223, 0.0, 10.000379, 9.99954 
8.950335e+2, 2.1529502e+2, -772358.7, -859566.94, 64237.59, -0.015519243, 0.020067785, -738324.0, 91791.03, 0.0, 10.000623, 9.999496 
8.950459e+2, 2.2529364e+2, -775609.94, -1008845.9, 71882.79, 0.025025578, 0.030411182, -755235.6, -23106.023, 0.0, 10.000781, 9.997717 
8.950594e+2, 2.352918e+2, -669218.7, -900098.06, 31228.814, 0.13506056, 0.04380617, -665069.25, -30914.992, 0.0, 10.000813, 9.997773 
8.950712e+2, 2.4529155e+2, -444418.38, -547982.4, -4281.369, 0.11264717, 0.15708809, -444241.7, 91915.94, 0.0, 10.000845, 9.999505 
8.950816e+2, 2.5529236e+2, -352539.63, -461254.63, 52783.77, -0.0342019, 0.25845367, -331128.63, 107017.17, 0.0000000002378373, 10.000832, 9.999437 
8.950933e+2, 2.6529095e+2, -360349.03, -560918.94, 63391.504, -0.083941214, 0.24774082, -341993.53, -1835.563, 0.00000030747992, 10.000754, 9.99811 
8.9510626e+2, 2.7528724e+2, -304414.7, -491361.47, 32316.479, -0.04692024, 0.039244458, -298985.97, -56790.656, 0.0000026197797, 10.000498, 9.998041 
8.951191e+2, 2.8528523e+2, -121582.4, -353669.75, -20102.459, -0.0007536824, 0.042278673, -119854.08, 24360.025, 0.000013171274, 10.001084, 9.998025 
8.9513177e+2, 2.9528463e+2, 155536.83, -169234.89, 3567.4382, 0.062044032, 0.14550398, 155576.0, 201793.94, 0.000055655084, 10.002295, 9.998041 
8.9514416e+2, 3.0528265e+2, 163714.2, -243939.7, -58987.97, 0.13145848, 0.1928979, 172078.22, 172078.22, 0.00017580122, 10.002513, 9.997084 
8.9515495e+2, 3.1528044e+2, 76098.64, -187834.5, -57753.098, 0.070705004, 0.23766589, 88182.74, 88182.74, 0.00038747952, 10.001429, 9.997987 
9.0492755e+2, 1.2528582e+2, -1979883.6, -1810737.0, -48909.504, 0.024912866, 0.16429155, -1797612.9, -85410.555, 0.0000010657902, 9.997945, 10.000323 
9.049359e+2, 1.3528381e+2, -1675543.3, -1642156.0, -78746.766, -0.04032009, -0.07333242, -1578352.9, 35866.78, 0.000000007369457, 9.999554, 10.000029 
9.0494645e+2, 1.4528334e+2, -1571778.6, -1620125.1, 64343.316, -0.020044914, -0.079105414, -1527217.5, -10992.045, 0.0, 9.99992, 9.999314 
9.0495896e+2, 1.5528446e+2, -1549130.1, -1558531.8, 49970.31, -0.001710187, 0.06574661, -1503640.0, -85420.805, 0.0, 9.999405, 9.999316 
9.0497124e+2, 1.6528498e+2, -1415092.5, -1345275.0, 69454.07, -0.001423558, 0.146557, -1302450.3, 17765.863, 0.0, 9.999239, 10.000197 
9.049835e+2, 1.7528464e+2, -1297609.5, -1235211.0, 61125.69, -0.004578748, 0.06657707, -1197782.6, 24436.154, 0.0, 9.999362, 10.000216 
9.049963e+2, 1.852849e+2, -1226443.3, -1198807.8, 99905.16, -0.004676713, 0.09632165, -1111769.3, 12448.197, 0.0, 9.999375, 9.999779 
9.050095e+2, 1.9528538e+2, -1132841.1, -1106815.0, 71309.45, -0.008247426, 0.14183304, -1047340.94, -21125.275, 0.0, 9.999354, 9.999753 
9.050223e+2, 2.0528513e+2, -956963.5, -960007.1, 26297.438, 0.008675614, 0.14141445, -932143.9, -3927.9238, 0.0, 9.999861, 9.99984 
9.050347e+2, 2.1528386e+2, -721821.3, -804453.5, -3595.2202, 0.03978782, 0.004273656, -721665.2, 108556.06, 0.0, 10.000836, 9.999768 
9.0504736e+2, 2.2528233e+2, -738878.94, -1004498.0, 32121.605, 0.0849306, -0.008073185, -735049.6, -2812.7014, 0.0, 10.001103, 9.997588 
9.050601e+2, 2.3528026e+2, -676853.94, -919404.2, 60697.523, 0.13438056, -0.00023777671, -662512.5, -28247.795, 0.0, 10.000833, 9.997631 
9.050722e+2, 2.4527994e+2, -443869.44, -553098.5, 58417.32, 0.12706941, 0.11473103, -418513.16, 117756.26, 0.0, 10.000874, 9.999453 
9.0508354e+2, 2.5528088e+2, -303112.66, -442251.28, -1732.9026, 0.067799, 0.23346992, -303091.1, 135165.08, 0.0, 10.001199, 9.999384 
9.050953e+2, 2.6527935e+2, -304343.28, -591389.94, 13713.192, 0.012777325, 0.24076247, -303689.63, 36580.91, 0.0000002007212, 10.001396, 9.997591 
9.051074e+2, 2.7527526e+2, -190620.47, -488237.88, 6516.823, -0.031453058, 0.047389995, -190477.84, 51835.426, 0.0000025589381, 10.00151, 9.99757 
9.0512043e+2, 2.8527302e+2, 7660.75, -287036.03, 44190.83, -0.009452149, 0.045337383, 14144.662, 158478.53, 0.000014749117, 10.0019455, 9.998081 
9.051344e+2, 2.9527238e+2, 200681.6, -136043.8, 22673.799, 0.08834544, 0.13967398, 202201.5, 248536.55, 0.00006245814, 10.002573, 9.998136 
9.0514684e+2, 3.0527005e+2, 187674.02, -266389.88, -44103.965, 0.14449534, 0.16363518, 191918.23, 191918.23, 0.00018874744, 10.0028105, 9.996795 
9.051573e+2, 3.1526592e+2, 182836.78, -184614.42, -28017.01, 0.12951215, 0.052826058, 184960.72, 184960.72, 0.0004049675, 10.002334, 9.997592 
9.149249e+2, 1.2527354e+2, -1945462.8, -1734840.0, -31395.094, -0.096833095, 0.050968233, -1730259.9, -17939.09, 0.000002613721, 9.997943, 10.000839 
9.1493577e+2, 1.3527304e+2, -1649236.1, -1581286.4, -10243.549, -0.036620665, -0.079110295, -1579775.8, 34545.535, 0.00000007607973, 9.999533, 10.000452 
9.14947e+2, 1.4527258e+2, -1588438.0, -1643896.3, 27878.299, -0.0031015256, -0.09465826, -1576846.5, -60520.734, 0.0, 9.999877, 9.999172 
9.149583e+2, 1.5527256e+2, -1560050.4, -1573938.6, 46250.605, -0.03860801, -0.053113934, -1520225.5, -101895.24, 0.0, 9.999381, 9.99922 
9.1497034e+2, 1.6527267e+2, -1406891.4, -1324357.3, 58042.94, -0.045444727, -0.015148604, -1294406.8, 25922.928, 0.0, 9.999219, 10.00035 
9.149832e+2, 1.7527258e+2, -1293946.8, -1220890.8, 78782.625, -0.0038393436, -0.08502029, -1170579.9, 51748.145, 0.0, 9.999329, 10.000331 
9.1499555e+2, 1.8527299e+2, -1266568.4, -1266030.0, 87325.69, -0.048049346, -0.023306703, -1178973.1, -54646.844, 0.0, 9.999305, 9.999353 
9.150075e+2, 1.9527361e+2, -1182393.6, -1179502.1, 87017.08, -0.17879885, 0.07870615, -1093918.8, -67591.94, 0.0, 9.999228, 9.999316 
9.150211e+2, 2.0527378e+2, -1008161.3, -1029891.44, 51408.59, -0.12719078, 0.16288307, -966482.2, -38155.727, 0.0, 9.999705, 9.999433 
9.150363e+2, 2.1527317e+2, -776898.6, -873340.3, 44247.42, 0.0944994, 0.13222103, -759674.2, 70654.55, 0.0, 10.000645, 9.999385 
9.150489e+2, 2.252721e+2, -680549.56, -852989.06, 6408.1567, 0.10697754, 0.12846431, -680311.75, 52026.293, 0.0, 10.000962, 9.998701 
9.1505915e+2, 2.3527041e+2, -628716.6, -780483.1, 65044.957, -0.06564145, 0.061998297, -604654.3, 29701.564, 0.0, 10.000664, 9.998666 
9.1507167e+2, 2.4526858e+2, -547232.1, -738174.7, 58323.84, -0.03703031, 0.037700307, -530826.56, 5547.4224, 0.0, 10.000742, 9.998247 
9.1508615e+2, 2.5526625e+2, -402683.84, -624326.8, 24920.727, 0.17420793, -0.04879455, -399916.38, 38479.78, 0.0, 10.001086, 9.998194 
9.150985e+2, 2.6526475e+2, -301845.03, -569655.8, 6157.796, 0.1718541, 0.010248447, -301703.53, 38708.22, 0.00000011562638, 10.001331, 9.997768 
9.1510934e+2, 2.752637e+2, -191942.61, -468602.84, 27838.576, -0.015063749, 0.102330536, -189169.19, 53255.367, 0.0000025826089, 10.001415, 9.997752 
9.1512185e+2, 2.8526163e+2, -10120.056, -303220.9, 53981.62, -0.08965501, 0.11292852, -494.162, 143947.81, 0.000017159802, 10.001864, 9.998006 
9.1513574e+2, 2.952585e+2, 178449.58, -163343.78, 64383.87, -0.06922901, -0.033262923, 190175.34, 236640.67, 0.00007135739, 10.002492, 9.99799 
9.151487e+2, 3.0525532e+2, 200324.64, -214668.77, -67312.45, 0.022779293, -0.10398851, 210969.75, 210969.75, 0.00020564985, 10.002711, 9.997188 
9.151609e+2, 3.1525123e+2, 218975.64, -73261.07, -495.9896, 0.18736117, -0.26307198, 218976.48, 218976.48, 0.00042848263, 10.002198, 9.998406 
9.2492324e+2, 1.2526132e+2, -2021391.8, -1752139.8, 23687.191, -0.020041697, -0.02458237, -1750071.8, -37633.313, 0.0000053718704, 9.997335, 10.001023 
9.249348e+2, 1.3526207e+2, -1804911.8, -1628193.6, -16019.85, -0.01923468, -0.05568251, -1626753.1, -12326.078, 0.00000033393198, 9.998344, 10.000716 
9.2494637e+2, 1.452618e+2, -1691247.0, -1661244.9, 23538.264, 0.0023263022, -0.07973826, -1648333.9, -131905.06, 0.0, 9.999029, 9.999467 
9.24958e+2, 1.5526138e+2, -1493462.8, -1514780.3, 41244.76, -0.015271508, -0.1036758, -1461521.8, -43086.77, 0.0, 9.999716, 9.999467 
9.2497015e+2, 1.6526131e+2, -1341033.1, -1327745.8, 71686.15, -0.004244866, -0.08065397, -1262396.1, 58039.848, 0.0, 9.999823, 10.0000305 
9.2498296e+2, 1.752613e+2, -1298671.8, -1258787.5, 27243.65, 0.042126082, -0.10968139, -1244967.1, -22532.445, 0.0, 9.999455, 10.000007 
9.249954e+2, 1.8526152e+2, -1236744.0, -1276189.8, 65296.914, -0.00046800132, -0.04085353, -1188256.4, -63821.05, 0.0, 9.999624, 9.999131 
9.250075e+2, 1.9526161e+2, -1055284.4, -1139946.1, 50329.49, -0.13273808, 0.029825848, -1031850.8, -5410.45, 0.0, 10.000204, 9.999114 
9.250213e+2, 2.052614e+2, -942070.25, -1032342.75, 56983.977, -0.09611248, 0.1016574, -914512.25, 13932.139, 0.0, 10.000304, 9.999132 
9.2503667e+2, 2.152606e+2, -880185.2, -953394.44, 39111.344, 0.102443755, 0.08231508, -863221.2, -32770.61, 0.0, 10.000059, 9.999123 
9.2504954e+2, 2.2525978e+2, -742212.94, -851297.06, -2317.1404, 0.11009145, 0.100402325, -742163.75, -9705.931, 0.0, 10.000393, 9.998988 
9.250601e+2, 2.3525873e+2, -527949.0, -704854.6, -35408.45, -0.055260435, 0.070406504, -521125.1, 113343.11, 0.0, 10.001221, 9.998922 
9.250728e+2, 2.4525687e+2, -461429.13, -744407.06, -19065.117, -0.02818431, 0.05389436, -460150.44, 76336.836, 0.0, 10.001545, 9.997821 
9.250873e+2, 2.5525397e+2, -369493.63, -649203.3, -23164.797, 0.17031823, -0.04514377, -367588.16, 70929.01, 0.0, 10.001507, 9.997819 
9.251001e+2, 2.6525238e+2, -255090.69, -525412.2, 10961.861, 0.19069926, 0.011711962, -254646.9, 85886.695, 0.00000007319143, 10.001533, 9.997989 
9.251116e+2, 2.752516e+2, -154729.25, -426083.16, 14277.009, 0.072037466, 0.10711092, -153980.16, 88561.36, 0.0000027897247, 10.001545, 9.99799 
9.2512447e+2, 2.852494e+2, -89695.1, -342401.38, 78596.25, 0.02309713, 0.0943811, -67244.73, 77314.555, 0.000020180585, 10.001319, 9.997994 
9.251384e+2, 2.9524583e+2, -51372.05, -275615.16, 62286.383, 0.03925841, -0.09699213, -35232.793, 11354.62, 0.00008285034, 10.000911, 9.997974 
9.2515105e+2, 3.052427e+2, 32258.012, -294597.44, -38549.945, 0.060519144, -0.1644402, 36743.12, 36743.12, 0.0002292469, 10.001516, 9.997227 
9.2516345e+2, 3.152392e+2, 318543.78, 12449.764, -50796.043, 0.21454164, -0.2637145, 326753.2, 326753.2, 0.0004645645, 10.002689, 9.998776 
9.349215e+2, 1.2524885e+2, -2040404.5, -1759107.9, 18685.105, 0.0109968055, -0.09710616, -1757872.1, -45313.688, 0.000009857008, 9.997228, 10.001016 
9.349324e+2, 1.35251e+2, -1790925.4, -1598579.0, 30669.486, -0.117356926, -0.002629743, -1593807.1, 20728.41, 0.0000009955157, 9.9983635, 10.0009 
9.3494433e+2, 1.4525118e+2, -1644182.3, -1568499.1, 33374.08, -0.14372063, -0.02163641, -1555884.6, -39352.188, 0.00000000002439963, 9.999048, 10.000097 
9.349576e+2, 1.5525101e+2, -1454323.0, -1423863.1, 80314.41, -0.054317523, -0.08576501, -1357347.4, 61185.688, 0.0, 9.999677, 10.00011 
9.349704e+2, 1.6525096e+2, -1403637.5, -1445231.1, 40642.83, 0.004085052, -0.054018028, -1378779.6, -58244.99, 0.0, 9.999765, 9.999254 
9.349825e+2, 1.7525087e+2, -1355695.6, -1371905.1, 27584.568, 0.023766842, -0.012589079, -1335049.8, -112511.125, 0.0, 9.99943, 9.999246 
9.349955e+2, 1.852505e+2, -1255602.8, -1295829.5, 76322.33, 0.02087505, 0.04205796, -1196788.0, -72243.72, 0.0, 9.999545, 9.999036 
9.3500936e+2, 1.9524942e+2, -1079513.3, -1163221.8, 84233.61, 0.0017809374, 0.004902212, -1027308.56, -752.85846, 0.0, 10.000091, 9.999011 
9.3502265e+2, 2.0524801e+2, -965232.6, -1051283.9, 33498.28, -0.01731106, -0.03327396, -953729.94, -25160.605, 0.0, 10.000177, 9.9990635 
9.350355e+2, 2.1524611e+2, -912959.94, -983811.4, 45260.7, -0.037576843, -0.15386404, -890909.5, -60322.496, 0.0, 9.999889, 9.9990015 
9.350489e+2, 2.2524534e+2, -809638.75, -946046.44, 17877.576, -0.014339605, -0.095661916, -807334.6, -74738.53, 0.0, 10.000202, 9.998427 
9.350627e+2, 2.3524529e+2, -590814.1, -796027.44, 7882.6655, 0.050936915, 0.029002992, -590511.75, 44088.973, 0.0, 10.001051, 9.99838 
9.350752e+2, 2.4524485e+2, -458162.66, -708789.3, -34008.945, 0.0334761, 0.16474015, -453629.78, 82978.69, 0.0, 10.001421, 9.998126 
9.350868e+2, 2.5524378e+2, -365897.97, -618341.7, -9764.432, -0.050681718, 0.21959467, -365520.88, 73100.73, 0.0, 10.001394, 9.998093 
9.3509966e+2, 2.6524198e+2, -245572.89, -475274.2, 2902.1423, -0.023166906, 0.22212406, -245536.22, 95102.16, 0.00000003612581, 10.001413, 9.998384 
9.351138e+2, 2.752391e+2, -149520.64, -384687.56, 31469.027, 0.10788089, 0.07031299, -145382.4, 97280.39, 0.0000027030533, 10.001424, 9.998327 
9.3512785e+2, 2.8523654e+2, -92723.95, -339869.78, 53217.797, 0.20192052, 0.0033174127, -81751.71, 62931.887, 0.000022488803, 10.001272, 9.998035 
9.35142e+2, 2.9523426e+2, -50868.3, -276600.75, 68387.586, 0.26275724, -0.0632722, -31766.172, 14935.294, 0.00009525127, 10.000908, 9.9979725 
9.3515354e+2, 3.0523196e+2, 5810.181, -342930.3, 283.4242, 0.13331006, -0.030269632, 5810.4116, 5810.4116, 0.00025879213, 10.001499, 9.996901 
9.351644e+2, 3.1522983e+2, 301259.84, 5706.404, 30833.86, -0.020380644, 0.03513305, 304442.34, 304442.34, 0.0005142612, 10.002576, 9.99878 
9.4491947e+2, 1.2523629e+2, -1926809.8, -1699521.8, -9545.483, 0.06837926, -0.057860352, -1699121.5, 13560.602, 0.000016753027, 9.997954, 10.001088 
9.449316e+2, 1.3523822e+2, -1752383.4, -1576626.5, -50475.188, -0.028928604, 0.009431205, -1563162.1, 51500.023, 0.000002343361, 9.998595, 10.000948 
9.449441e+2, 1.4523852e+2, -1652773.3, -1526123.9, -46723.945, -0.04938923, -0.021416062, -1510752.0, 5905.326, 0.0000000053592455, 9.998782, 10.000518 
9.449572e+2, 1.5523887e+2, -1553633.0, -1436524.3, -52102.68, -0.011002391, -0.07471542, -1416699.4, 1952.1525, 0.0, 9.998823, 10.000447 
9.449701e+2, 1.6523892e+2, -1478790.5, -1521506.0, -52426.04, 0.02371529, -0.027952839, -1443538.8, -122886.055, 0.0, 9.999419, 9.998896 
9.4498247e+2, 1.7523862e+2, -1222538.5, -1346488.1, -63059.41, 0.034939244, 0.026577681, -1196097.5, 26563.97, 0.0, 10.000513, 9.998893 
9.4499594e+2, 1.85238e+2, -1100682.8, -1204916.6, 15780.181, 0.06761802, 0.067421965, -1098346.1, 26322.9, 0.0, 10.000553, 9.999159 
9.4501036e+2, 1.9523671e+2, -1129905.3, -1172973.4, 14460.462, 0.12791607, -0.0040329657, -1125500.6, -98820.99, 0.0, 9.999695, 9.999121 
9.4502336e+2, 2.0523526e+2, -1048548.5, -1098375.1, 10715.078, 0.074930854, -0.050904445, -1046341.94, -117649.1, 0.0, 9.99962, 9.999013 
9.450351e+2, 2.152335e+2, -876104.2, -965553.7, -1109.2231, -0.077351846, -0.15389895, -876090.44, -45380.363, 0.0, 10.000143, 9.998997 
9.4504887e+2, 2.2523272e+2, -749242.4, -901785.3, 48066.117, -0.04865834, -0.10446088, -735360.2, -2641.0293, 0.0, 10.000568, 9.998549 
9.450646e+2, 2.3523249e+2, -594168.75, -780492.06, 63675.965, 0.15139465, -0.009789473, -574486.6, 60237.266, 0.0, 10.000972, 9.998518 
9.450775e+2, 2.4523212e+2, -485400.03, -708411.25, 41397.43, 0.13107306, 0.12113205, -477963.44, 58766.598, 0.0, 10.001174, 9.998242 
9.4508773e+2, 2.5523138e+2, -390429.9, -611917.44, 27873.977, -0.076862164, 0.19435382, -386975.88, 51764.055, 0.0, 10.001151, 9.998241 
9.451004e+2, 2.6522946e+2, -286408.22, -510875.34, 39834.074, -0.071232624, 0.18269643, -279548.84, 61209.508, 0.000000027783642, 10.001194, 9.998249 
9.4511527e+2, 2.752261e+2, -182901.72, -414061.94, 2376.035, 0.13752547, -0.0036187614, -182877.3, 59911.145, 0.000002329391, 10.001248, 9.998215 
9.4513e+2, 2.852239e+2, -10689.047, -285739.4, 47720.875, 0.27394116, -0.031807505, -2644.8032, 142162.19, 0.000023981273, 10.001782, 9.998166 
9.451446e+2, 2.9522276e+2, 213045.52, -134495.88, 41625.926, 0.3572689, 0.0023393326, 217961.63, 264777.78, 0.00010679835, 10.002669, 9.998105 
9.4515604e+2, 3.0522043e+2, 220515.7, -238918.53, 24609.682, 0.16936243, 0.031604804, 221830.16, 221830.16, 0.00028981623, 10.002995, 9.99689 
9.451666e+2, 3.1521866e+2, 299224.38, 2507.866, 14515.531, -0.044485025, 0.13217738, 299932.78, 299932.78, 0.00057081727, 10.0025835, 9.998751 
9.549162e+2, 1.2522386e+2, -1937710.3, -1706520.8, -27316.76, -0.11816895, 0.10837512, -1703336.9, 9470.475, 0.00002677623, 9.997914, 10.00104 
9.5493215e+2, 1.3522384e+2, -1766301.8, -1585719.8, -17389.402, 0.13250506, -0.01914051, -1584060.5, 30745.26, 0.0000047533053, 9.998531, 10.0009 
9.549454e+2, 1.4522372e+2, -1652024.3, -1514832.1, -64517.44, 0.16283302, -0.09411171, -1489258.6, 27545.996, 0.000000046136613, 9.998729, 10.000628 
9.5495635e+2, 1.5522496e+2, -1539334.6, -1415878.1, -37909.164, -0.016943652, -0.06858038, -1405166.9, 13623.154, 0.0, 9.9988575, 10.000574 
9.549688e+2, 1.6522537e+2, -1477835.3, -1515936.6, -24277.14, -0.07725329, 0.0047316826, -1466026.4, -145238.2, 0.0, 9.999406, 9.9989395 
9.549826e+2, 1.7522466e+2, -1224064.0, -1340718.6, -10106.765, -0.033414263, 0.0128867505, -1223194.9, -393.18082, 0.0, 10.000475, 9.998952 
9.549964e+2, 1.8522409e+2, -1083966.1, -1160615.1, -29432.541, 0.032021254, 0.03777464, -1073968.3, 50840.547, 0.0, 10.000502, 9.999493 
9.550103e+2, 1.9522338e+2, -1118453.6, -1131143.5, -3879.401, 0.120266095, -0.008939182, -1117361.6, -90548.64, 0.0, 9.999608, 9.9994545 
9.5502317e+2, 2.0522305e+2, -1067315.1, -1103776.6, 15303.052, 0.06788354, 0.039484203, -1061743.8, -132928.06, 0.0, 9.999479, 9.999044 
9.55035e+2, 2.1522279e+2, -901883.75, -975247.75, 30244.3, -0.12017802, 0.08369859, -891023.25, -60203.32, 0.0, 9.999952, 9.999026 
9.550492e+2, 2.2522192e+2, -716246.2, -790566.4, 49681.324, -0.09343152, 0.0812198, -691365.1, 41461.652, 0.0, 10.000387, 9.999398 
9.550656e+2, 2.3522018e+2, -564952.25, -678635.25, 92983.56, 0.13493982, -0.05625345, -512812.56, 122026.375, 0.0, 10.00079, 9.999309 
9.5507896e+2, 2.452186e+2, -511958.06, -720959.7, 28535.148, 0.1480243, -0.086322755, -508132.16, 28720.787, 0.0, 10.001001, 9.998232 
9.550896e+2, 2.552168e+2, -413656.63, -632017.2, 40670.223, -0.035527382, -0.114503734, -406327.7, 32544.129, 0.0, 10.001031, 9.998159 
9.551019e+2, 2.6521486e+2, -349353.25, -614398.3, 29602.951, -0.064353436, -0.089242935, -346087.13, -5194.272, 0.000000030362223, 10.001085, 9.997586 
9.5511585e+2, 2.7521244e+2, -240821.8, -513242.72, 22671.62, 0.039797366, -0.11700807, -238947.89, 3971.3076, 0.000002140531, 10.001162, 9.997573 
9.5513064e+2, 2.852113e+2, -6559.6763, -256338.06, 68794.77, 0.13067995, -0.023559745, 11134.549, 156065.8, 0.000025889522, 10.001697, 9.998407 
9.5514613e+2, 2.9521123e+2, 212510.4, -109276.8, 92422.055, 0.20942426, 0.09289656, 237166.23, 284097.88, 0.00011778403, 10.002556, 9.998331 
9.551583e+2, 3.052083e+2, 223741.5, -208343.77, 8034.3306, 0.06514945, 0.036259882, 223890.84, 223890.84, 0.00031950467, 10.002887, 9.997155 
9.551692e+2, 3.152057e+2, 285490.7, -10515.566, 27745.682, -0.107120514, 0.028174743, 288068.94, 288068.94, 0.00062882464, 10.002509, 9.9987 
9.6491444e+2, 1.2520984e+2, -1915407.0, -1724729.8, 31484.443, -0.08160927, 0.084755145, -1719665.6, -6721.245, 0.000040530904, 9.9981575, 10.000813 
9.649308e+2, 1.3520981e+2, -1784529.9, -1612325.4, -4615.5337, 0.16372974, -0.025645787, -1612201.8, 2741.9158, 0.000008656152, 9.998462, 10.000762 
9.6494454e+2, 1.4520979e+2, -1655425.9, -1509324.6, -22419.705, 0.2162942, -0.0868771, -1505961.6, 10981.214, 0.00000019058375, 9.998716, 10.000648 
9.6495545e+2, 1.5521115e+2, -1478594.6, -1382104.9, -40080.125, -0.007849951, -0.046955504, -1367628.4, 51299.83, 0.0, 9.999301, 10.000572 
9.6496826e+2, 1.6521177e+2, -1453356.5, -1469211.0, 6166.7144, -0.06770858, 0.029846167, -1451240.4, -130315.79, 0.0, 9.999441, 9.999234 
9.64983e+2, 1.752113e+2, -1393489.5, -1393300.8, 10381.3125, 0.026644822, 0.03391201, -1383013.4, -160078.7, 0.0, 9.999189, 9.999207 
9.649967e+2, 1.852109e+2, -1236877.8, -1213546.3, -2881.7039, 0.07716132, 0.0527623, -1213195.6, -88255.7, 0.0, 9.999345, 9.999702 
9.6500957e+2, 1.952103e+2, -1069001.1, -1087330.4, -10681.681, 0.08452682, -0.0006539807, -1064091.4, -37148.51, 0.0, 9.999847, 9.999653 
9.650227e+2, 2.0521021e+2, -951357.25, -1038953.56, 54640.008, 0.04053052, 0.05918215, -925128.25, 3814.5718, 0.0, 10.000266, 9.999098 
9.65036e+2, 2.1521032e+2, -797779.06, -918133.5, 40114.047, -0.044988986, 0.13304512, -785634.5, 45308.156, 0.0, 10.000656, 9.999068 
9.650502e+2, 2.2520928e+2, -711373.75, -798684.44, 30761.348, -0.01981143, 0.11606252, -701624.5, 31325.914, 0.0, 10.000456, 9.999317 
9.650656e+2, 2.3520689e+2, -724230.3, -756576.1, -17980.646, 0.120184265, -0.07785177, -716219.2, -81250.94, 0.0, 9.9997015, 9.999294 
9.650792e+2, 2.4520513e+2, -658941.6, -772406.75, -54767.51, 0.13129565, -0.13472311, -636819.5, -99835.95, 0.0, 9.999889, 9.998428 
9.6509117e+2, 2.5520375e+2, -415708.84, -611539.2, -52282.73, 0.03433015, -0.14038172, -402624.63, 36373.68, 0.0, 10.000923, 9.998361 
9.651039e+2, 2.6520213e+2, -288932.44, -596040.06, -19444.861, 0.01354211, -0.08624283, -287706.16, 53310.445, 0.000000012060779, 10.001535, 9.997496 
9.651174e+2, 2.7519992e+2, -172407.88, -492574.16, -14778.489, 0.06069863, -0.08390959, -171727.17, 71315.01, 0.0000023356135, 10.0016775, 9.997465 
9.6513176e+2, 2.8519878e+2, -70833.305, -284072.38, 64885.668, 0.10947635, 0.015140407, -52641.484, 92413.72, 0.000028869204, 10.001242, 9.998426 
9.6514696e+2, 2.9519862e+2, -122961.28, -267934.88, 37684.09, 0.16836292, 0.12083414, -113750.914, -66693.22, 0.00012892728, 10.000246, 9.998345 
9.6515995e+2, 3.0519575e+2, -21088.234, -260034.75, 21283.47, 0.06034364, 0.036361933, -19207.277, -19207.277, 0.00034703137, 10.000898, 9.997761 
9.651727e+2, 3.1519347e+2, 317418.6, 34244.355, 2612.8518, 0.0076411497, -0.0028774836, 317442.7, 317442.7, 0.0006841425, 10.002604, 9.998953 
9.749134e+2, 1.2519388e+2, -1936750.4, -1750797.1, -5000.005, -0.069706246, -0.15397853, -1750662.9, -37566.84, 0.000058506626, 9.9980955, 10.000656 
9.7492725e+2, 1.3519633e+2, -1787465.5, -1615470.0, 14291.457, -0.06283763, -0.01074216, -1614290.6, 783.7809, 0.00001444443, 9.998462, 10.000733 
9.749411e+2, 1.4519703e+2, -1671315.6, -1545295.1, -14941.537, -0.03577306, 0.012524477, -1543547.8, -26478.723, 0.0000005546723, 9.998723, 10.000402 
9.749542e+2, 1.5519753e+2, -1498106.1, -1418593.4, -1411.581, -0.09490976, -0.011206666, -1418568.4, 496.74744, 0.0, 9.999283, 10.000331 
9.7496814e+2, 1.6519807e+2, -1420888.0, -1395866.0, -19411.83, -0.055750974, 0.046044227, -1385282.8, -64221.043, 0.0, 9.99941, 9.999757 
9.7498316e+2, 1.7519847e+2, -1361212.4, -1321839.5, 11105.037, 0.1012552, 0.08464882, -1318923.4, -95862.54, 0.0, 9.999166, 9.999711 
9.749964e+2, 1.8519841e+2, -1242851.3, -1205645.5, 4621.6177, 0.08729372, 0.10901868, -1205080.0, -80018.125, 0.0, 9.999261, 9.999794 
9.7500795e+2, 1.951976e+2, -1078121.1, -1080162.3, 22287.791, -0.09177505, 0.022341903, -1056830.5, -29762.568, 0.0, 9.999739, 9.99975 
9.7502166e+2, 2.0519692e+2, -971029.0, -1048647.5, 54652.945, -0.108737856, 0.017797107, -942807.6, -13735.125, 0.0, 10.000127, 9.999103 
9.750375e+2, 2.1519603e+2, -824596.4, -934843.44, 66223.98, 0.024379497, -0.0040128, -793556.0, 37522.61, 0.0, 10.0004835, 9.999042 
9.7505164e+2, 2.2519471e+2, -802084.6, -944696.44, -12656.277, 0.051840194, -0.0028071871, -800970.1, -67879.36, 0.0, 10.000275, 9.998397 
9.750642e+2, 2.3519261e+2, -817105.3, -903525.6, -32939.53, -0.014864548, -0.07735102, -805981.94, -170870.25, 0.0, 9.999508, 9.998375 
9.7507775e+2, 2.4519183e+2, -649229.3, -722451.3, -28630.064, -0.025904428, -0.010456931, -639364.0, -102243.516, 0.0, 9.999759, 9.9988365 
9.750922e+2, 2.5519198e+2, -402745.56, -557860.94, 1668.2924, 0.013853342, 0.09611647, -402727.63, 36393.117, 0.0, 10.000805, 9.998788 
9.7510606e+2, 2.6519093e+2, -271382.44, -534891.25, -27471.477, 0.04789197, 0.15916441, -268548.9, 72583.516, 0.0000000034767167, 10.0014305, 9.997964 
9.7511953e+2, 2.7518842e+2, -153656.66, -432402.5, 5756.16, 0.07400844, 0.0842217, -153537.84, 89620.21, 0.0000028342504, 10.001585, 9.997921 
9.751331e+2, 2.8518653e+2, -95710.17, -320996.94, 16385.623, 0.0877759, 0.09460199, -94524.65, 50652.992, 0.000032313746, 10.001183, 9.9982 
9.751467e+2, 2.95185e+2, -144044.47, -302666.28, 24206.182, 0.08092039, 0.09052727, -140432.77, -93238.875, 0.0001399921, 10.00021, 9.998124 
9.751608e+2, 3.0518252e+2, 29287.633, -141094.45, 77361.7, 0.02229127, 0.015083046, 59171.99, 59171.99, 0.00037284024, 10.000839, 9.99861 
9.7517633e+2, 3.1518155e+2, 323816.13, 81460.52, 99327.37, 0.041696385, 0.018511724, 359322.66, 359322.66, 0.00073526404, 10.0024605, 9.999347 
9.849125e+2, 1.2518036e+2, -1851442.0, -1729636.0, 78100.445, 0.022027336, -0.20492938, -1691499.4, 21727.506, 0.00008108169, 9.998754, 10.000495 
9.849254e+2, 1.351831e+2, -1676513.0, -1586379.8, 45031.535, -0.12133414, -0.013534403, -1567737.4, 47466.855, 0.000022462764, 9.999306, 10.000542 
9.849393e+2, 1.4518398e+2, -1614496.4, -1536444.0, 29827.729, -0.10102171, 0.044784587, -1526350.5, -9151.935, 0.0000013019285, 9.99917, 10.000253 
9.849528e+2, 1.5518446e+2, -1598327.4, -1482399.5, 17322.012, -0.11131591, 0.031854972, -1479866.6, -60670.797, 0.0, 9.998645, 10.000199 
9.849673e+2, 1.6518487e+2, -1510849.3, -1392329.3, 39407.113, -0.027751744, 0.06093385, -1380422.9, -59230.57, 0.0, 9.998587, 10.000182 
9.849827e+2, 1.7518505e+2, -1347478.1, -1266852.8, 36726.95, 0.1533636, 0.037441302, -1252631.1, -29441.705, 0.0, 9.999059, 10.00014 
9.849962e+2, 1.8518507e+2, -1206334.6, -1230997.0, 49650.668, 0.1303431, 0.06747395, -1167506.8, -42316.906, 0.0, 9.999701, 9.999405 
9.8500794e+2, 1.9518463e+2, -1011478.25, -1092701.8, 334.7393, -0.093938895, 0.05731425, -1011476.9, 15719.313, 0.0, 10.000395, 9.999348 
9.8502207e+2, 2.0518377e+2, -900251.6, -1026059.3, 19199.361, -0.09993371, 0.060114514, -897386.9, 31816.432, 0.0, 10.000637, 9.999022 
9.850386e+2, 2.1518223e+2, -845668.0, -954568.25, -561.92126, 0.09563513, -0.02180039, -845665.06, -14450.854, 0.0, 10.000371, 9.998964 
9.850525e+2, 2.2518069e+2, -807053.1, -976981.94, -41770.484, 0.11883404, -0.024859909, -797340.56, -64112.2, 0.0, 10.000354, 9.998143 
9.850642e+2, 2.3517889e+2, -686055.44, -867849.56, -35610.05, -0.007891284, -0.045631714, -679329.0, -44080.973, 0.0, 10.000519, 9.9981365 
9.8507774e+2, 2.4517818e+2, -534822.56, -667008.9, 33769.348, -0.032436445, 0.04034629, -526695.3, 10561.708, 0.0, 10.000556, 9.998828 
9.850929e+2, 2.551781e+2, -449104.8, -583548.94, 3257.9253, 0.03244395, 0.12518986, -449025.9, -9766.02, 0.0, 10.000497, 9.998762 
9.8510736e+2, 2.651771e+2, -343306.2, -519863.8, -23754.094, 0.07596462, 0.17350368, -340166.13, 1104.1833, 0.00000001775074, 10.000726, 9.998415 
9.851212e+2, 2.75175e+2, -172770.81, -395149.1, -24887.375, 0.11382888, 0.100027554, -170019.6, 73270.58, 0.000003544514, 10.001249, 9.998351 
9.8513484e+2, 2.851731e+2, -20368.82, -329494.0, -13763.517, 0.11633568, 0.10595072, -19757.223, 125552.99, 0.00003520851, 10.001874, 9.997827 
9.851481e+2, 2.9517105e+2, 168398.78, -194079.64, -43195.23, 0.086905256, 0.08800579, 173475.11, 220808.38, 0.00014922032, 10.002521, 9.997768 
9.851625e+2, 3.0516905e+2, 275026.6, 15952.137, 39058.906, 0.049501657, 0.061913457, 280787.16, 280787.16, 0.00039592202, 10.002381, 9.998936 
9.8517907e+2, 3.151686e+2, 143420.08, -1924.6375, -36328.145, 0.14303756, 0.08880003, 151994.3, 151994.3, 0.0007798097, 10.001211, 9.999377 
9.94911e+2, 1.2516935e+2, -1874544.9, -1767651.5, 53831.465, -0.067768864, -0.0593913, -1745240.6, -31904.137, 0.000108580556, 9.99873, 10.000235 
9.94925e+2, 1.3517016e+2, -1702930.3, -1630675.6, 75135.164, -0.11455781, -0.032968823, -1583433.5, 31898.926, 0.000033028722, 9.999275, 10.000243 
9.949389e+2, 1.4517066e+2, -1619310.4, -1547647.8, -9284.538, -0.096194156, 0.0058349976, -1546464.4, -29133.537, 0.0000026281716, 9.9991665, 10.000184 
9.949512e+2, 1.5517205e+2, -1596421.4, -1482038.3, 9481.526, -0.17444602, 0.089029565, -1481257.6, -61937.805, 0.00000000019976186, 9.998652, 10.000204 
9.949653e+2, 1.6517228e+2, -1492276.9, -1344054.0, 42693.113, -0.11370419, 0.08003298, -1332636.4, -11321.065, 0.0, 9.998551, 10.000525 
9.9498135e+2, 1.7517109e+2, -1327528.1, -1221687.0, 68042.57, 0.07986651, -0.11366213, -1188408.0, 34912.4, 0.0, 9.99904, 10.00046 
9.9499583e+2, 1.8517084e+2, -1283153.9, -1372913.6, 61828.93, 0.09830377, -0.07848081, -1251633.4, -126309.16, 0.0, 9.99963, 9.998465 
9.9500906e+2, 1.9517122e+2, -1089514.1, -1230237.4, 38903.887, -0.04133213, 0.087108046, -1079475.0, -52145.938, 0.0, 10.000291, 9.998452 
9.9502337e+2, 2.0517066e+2, -936931.7, -1059981.0, -6163.2354, -0.050300285, 0.1701946, -936623.8, -7287.2114, 0.0, 10.0004635, 9.99887 
9.950388e+2, 2.1516888e+2, -880159.6, -982868.56, 1725.6425, 0.060546536, 0.0797217, -880130.6, -48781.055, 0.0, 10.00019, 9.998855 
9.9505275e+2, 2.2516733e+2, -805342.3, -925264.25, -48307.156, 0.083522305, 0.058414645, -788303.94, -54941.723, 0.0, 10.000152, 9.998595 
9.9506533e+2, 2.3516572e+2, -682930.06, -817701.75, -15514.664, 0.023634078, 0.01078889, -681167.1, -45789.805, 0.0, 10.000333, 9.998571 
9.9507874e+2, 2.4516411e+2, -588367.6, -743152.5, 18422.104, -0.010841622, 0.009806261, -586205.25, -48811.617, 0.0, 10.000404, 9.998376 
9.950931e+2, 2.551622e+2, -499636.44, -655416.9, 16908.846, -0.021991814, -0.043524332, -497822.25, -58407.598, 0.0, 10.000351, 9.998339 
9.951075e+2, 2.651609e+2, -337860.88, -482418.94, -15008.846, -0.0038165671, -0.022505257, -336319.0, 5109.0605, 0.000000028595345, 10.000618, 9.998724 
9.951221e+2, 2.7515978e+2, -166342.81, -360501.94, 13078.381, 0.04474096, -0.02822924, -165465.83, 77971.945, 0.000003781716, 10.001162, 9.998632 
9.951365e+2, 2.851584e+2, -62958.566, -401911.56, -268.71387, 0.06556205, 0.043961417, -62958.355, 82495.32, 0.000036350866, 10.001804, 9.997361 
9.951507e+2, 2.9515672e+2, 130753.64, -256740.39, 934.5736, 0.05843756, 0.10426049, 130755.89, 178231.9, 0.00015456251, 10.002455, 9.997367 
9.95165e+2, 3.051554e+2, 246254.55, -33360.273, -8415.123, 0.029060356, 0.17945208, 246507.58, 246507.58, 0.00041193186, 10.002335, 9.998621 
9.9517983e+2, 3.1515452e+2, 99124.35, -65165.203, -41824.29, 0.036365103, 0.1971407, 109158.94, 109158.94, 0.0008105773, 10.001087, 9.999003 
1.0049096e+3, 1.25157e+2, -1991485.4, -1798922.6, -5487.767, -0.034320146, 0.06664855, -1798766.4, -85303.125, 0.00014134821, 9.997814, 10.00046 
1.00492366e+3, 1.3515739e+2, -1908436.1, -1704686.8, 20166.918, -0.092865385, 0.026675757, -1702709.9, -87248.65, 0.000046426092, 9.997761, 10.000457 
1.00493826e+3, 1.4515762e+2, -1772041.9, -1628476.9, -1449.3661, -0.025989328, 0.03357344, -1628462.3, -111000.875, 0.00000474816, 9.99818, 10.000091 
1.004951e+3, 1.5515889e+2, -1488246.8, -1443137.3, -26426.072, -0.08869383, 0.11910863, -1430949.4, -11497.507, 0.000000004412824, 9.999466, 10.000079 
1.004965e+3, 1.6515893e+2, -1317129.0, -1288141.1, -6756.3306, -0.05800392, 0.109642744, -1286643.8, 34805.793, 0.0, 9.999862, 10.000288 
1.0049803e+3, 1.751575e+2, -1296188.9, -1229764.8, -49773.3, 0.060607, -0.086595215, -1203140.1, 20316.537, 0.0, 9.99935, 10.000259 
1.004995e+3, 1.8515718e+2, -1333904.8, -1376283.3, 11095.13, 0.08468256, -0.056833684, -1331175.6, -205715.73, 0.0, 9.999197, 9.998647 
1.0050095e+3, 1.9515762e+2, -1200667.8, -1263462.0, 45453.313, 0.024079273, 0.09704118, -1176822.0, -149360.02, 0.0, 9.999451, 9.998623 
1.0050244e+3, 2.0515695e+2, -1000747.9, -1088787.5, 67044.055, 0.027662015, 0.1595602, -964563.9, -35094.004, 0.0, 10.000011, 9.998888 
1.0050395e+3, 2.1515493e+2, -797496.1, -945290.7, 58674.547, 0.08744808, 0.044143446, -777035.0, 54451.285, 0.0, 10.000755, 9.998845 
1.0050534e+3, 2.2515355e+2, -661291.8, -831849.75, 22353.172, 0.100152984, 0.029455831, -658410.9, 75086.64, 0.0, 10.001041, 9.99881 
1.0050662e+3, 2.3515248e+2, -585838.25, -749308.6, 5909.3013, 0.06442884, 0.016532362, -585624.9, 49881.945, 0.0, 10.000907, 9.998767 
1.00507975e+3, 2.4515092e+2, -527991.25, -718697.56, 72012.13, 0.033006184, 0.012652295, -503853.94, 33668.336, 0.0, 10.0008335, 9.99834 
1.005094e+3, 2.5514868e+2, -436821.94, -621125.6, 73126.664, 0.019757254, -0.074833386, -411332.5, 28213.402, 0.0, 10.000786, 9.998351 
1.0051086e+3, 2.651473e+2, -258507.95, -465200.53, 93630.85, 0.021969264, -0.049671248, -222401.05, 119158.66, 0.000000017098808, 10.001257, 9.9985285 
1.00512356e+3, 2.7514637e+2, -38116.586, -315271.6, 58543.035, 0.036560822, -0.024659704, -26258.02, 217310.63, 0.000003428396, 10.002121, 9.99847 
1.0051383e+3, 2.851448e+2, 11329.224, -388127.53, 51011.19, 0.047220204, 0.04855784, 17740.523, 163326.88, 0.00003625069, 10.00242, 9.997149 
1.005153e+3, 2.9514262e+2, 64060.88, -314934.78, 35060.094, 0.07227714, 0.07829412, 67276.92, 114890.56, 0.00015744341, 10.002102, 9.997135 
1.0051675e+3, 3.0514133e+2, 179310.16, -120924.92, 26587.92, 0.07063079, 0.19446206, 181646.53, 181646.53, 0.00042211023, 10.00209, 9.998149 
1.00518204e+3, 3.1514022e+2, 219868.88, -57380.777, -65440.402, 0.114464, 0.23896, 234538.83, 234538.83, 0.0008305699, 10.002108, 9.998581 
1.0149071e+3, 1.2514329e+2, -1943695.3, -1677615.8, -65237.035, -0.12183044, 0.165115, -1662481.9, 51125.426, 0.0001798155, 9.997741, 10.001316 
1.0149208e+3, 1.351448e+2, -1857446.9, -1591108.0, 28053.193, -0.187988, 0.15617187, -1588185.4, 27404.654, 0.000062927356, 9.997736, 10.001241 
1.01493664e+3, 1.4514488e+2, -1793432.0, -1670363.9, 26094.979, -0.042501237, 0.12199715, -1665059.4, -147469.58, 0.000007860604, 9.998163, 9.999814 
1.0149521e+3, 1.5514502e+2, -1509897.3, -1487823.0, 33658.895, 0.034686048, 0.12254, -1463437.9, -43845.902, 0.000000028517778, 9.999462, 9.999774 
1.0149661e+3, 1.6514489e+2, -1374544.6, -1402657.3, -40803.48, 0.034362886, 0.15174884, -1345444.3, -23850.15, 0.0, 9.999843, 9.999511 
1.0149791e+3, 1.7514428e+2, -1349542.9, -1340396.4, -57613.008, -0.015146464, 0.11340538, -1287175.4, -63577.12, 0.0, 9.999345, 9.999505 
1.0149934e+3, 1.8514408e+2, -1254516.9, -1194028.4, 6054.182, -0.02787306, 0.1291064, -1193428.4, -67831.54, 0.0, 9.999123, 9.999933 
1.0150089e+3, 1.9514395e+2, -1126628.0, -1085599.0, 67476.516, -0.00864373, 0.09523339, -1035587.44, -7993.9756, 0.0, 9.999343, 9.999897 
1.01502456e+3, 2.051428e+2, -1011356.4, -1074740.1, 81586.805, 0.020178521, 0.03714293, -955522.4, -25920.39, 0.0, 9.99986, 9.999055 
1.0150401e+3, 2.151404e+2, -809942.44, -931625.1, 97650.47, 0.06014161, -0.13331921, -755730.4, 75893.94, 0.0, 10.000587, 9.999018 
1.0150542e+3, 2.2513938e+2, -698391.25, -859617.6, 2744.6714, 0.052560814, -0.115466334, -698344.5, 35289.703, 0.0, 10.000833, 9.998717 
1.01506665e+3, 2.3513936e+2, -615199.5, -771279.1, 14176.404, -0.004386157, -0.017208396, -613922.4, 21713.047, 0.0, 10.000737, 9.998695 
1.0150803e+3, 2.4513878e+2, -527522.06, -676878.8, 54427.8, -0.008186431, 0.061368395, -509792.4, 27848.941, 0.0, 10.000665, 9.998707 
1.0150952e+3, 2.5513735e+2, -429887.94, -579886.25, 84691.06, 0.036396574, 0.022502728, -391761.28, 47893.543, 0.0, 10.0006695, 9.998693 
1.01511024e+3, 2.6513612e+2, -312211.9, -554730.7, 115252.89, 0.033013288, 0.07134678, -266177.94, 75489.82, 0.000000011022683, 10.0011635, 9.997957 
1.0151253e+3, 2.751347e+2, -90869.85, -400553.0, 109201.51, -0.026375743, 0.109270714, -56236.145, 187446.88, 0.0000031084232, 10.002015, 9.997935 
1.01514004e+3, 2.851323e+2, -4988.5386, -401732.88, 26510.094, -0.04175797, 0.12296706, -3224.9973, 142483.61, 0.000035475467, 10.002339, 9.997091 
1.0151546e+3, 2.951287e+2, 40268.79, -336171.7, 42296.945, -0.018156953, 0.018502397, 44962.75, 92709.19, 0.00015874387, 10.001992, 9.997036 
1.0151695e+3, 3.0512688e+2, 130712.57, -212482.78, 19372.697, 0.0384686, 0.11613321, 131802.66, 131802.66, 0.00042931808, 10.002048, 9.997542 
1.01518475e+3, 3.151256e+2, 161904.88, -137084.14, -18036.725, 0.1153024, 0.20389904, 162989.02, 162989.02, 0.00084597495, 10.0019455, 9.998106 
1.0249053e+3, 1.25129e+2, -2050486.6, -1705330.3, 467.13263, -0.023230046, 0.16684219, -1705329.6, 8419.493, 0.00022439056, 9.996889, 10.0015545 
1.0249187e+3, 1.3513082e+2, -1776999.6, -1534915.4, 9682.46, -0.17282481, 0.17828365, -1534528.8, 81200.29, 0.0000828242, 9.998204, 10.001418 
1.02493495e+3, 1.4513119e+2, -1743444.9, -1622312.9, 28981.377, -0.024413759, 0.1501275, -1615736.1, -98010.414, 0.000012107546, 9.998395, 10.000037 
1.0249512e+3, 1.551314e+2, -1740074.1, -1574103.9, 46414.473, 0.10322046, 0.13376524, -1562005.8, -142280.1, 0.00000009714164, 9.997772, 9.999994 
1.0249657e+3, 1.6513142e+2, -1602146.4, -1522643.9, 59223.223, 0.092954755, 0.17484717, -1491068.0, -169341.47, 0.0, 9.998347, 9.9993925 
1.02497876e+3, 1.7513114e+2, -1233304.3, -1291931.0, 62195.8, -0.027691195, 0.18254998, -1193860.1, 29869.701, 0.0, 10.000204, 9.999408 
1.0249931e+3, 1.8513072e+2, -983531.4, -1034820.06, 104134.36, -0.037919894, 0.1630379, -901930.25, 223799.48, 0.0, 10.000836, 10.000208 
1.025009e+3, 1.9512981e+2, -980954.9, -986530.9, 66709.57, 0.039943684, 0.024510581, -916975.06, 110754.516, 0.0, 10.000204, 10.000171 
1.0250248e+3, 2.051288e+2, -1040257.25, -1085739.1, 75095.46, 0.07714696, -0.031685542, -984535.0, -54798.727, 0.0, 9.999657, 9.999083 
1.02504015e+3, 2.1512744e+2, -1012660.56, -1027374.0, 51191.33, 0.08269045, -0.09703007, -968300.06, -136548.11, 0.0, 9.999202, 9.999029 
1.0250545e+3, 2.2512679e+2, -823582.06, -898255.2, 12737.515, 0.068602264, -0.05390249, -821469.1, -87709.695, 0.0, 9.999886, 9.998903 
1.0250681e+3, 2.3512647e+2, -486565.34, -690015.6, 16865.344, 0.030532321, -0.0011173913, -485176.75, 150585.25, 0.0, 10.001553, 9.9988575 
1.02508225e+3, 2.4512571e+2, -291353.13, -569510.1, 42389.47, 0.047387686, 0.056600004, -285036.66, 252731.75, 0.0, 10.002324, 9.998634 
1.0250973e+3, 2.5512424e+2, -219479.53, -490319.13, 8440.003, 0.113567784, 0.020644026, -219216.78, 220564.95, 0.0, 10.002166, 9.998588 
1.0251124e+3, 2.6512277e+2, -200161.67, -538295.44, 79333.05, 0.102324136, 0.06906343, -182473.78, 159323.47, 0.00000001218603, 10.002092, 9.997623 
1.02512784e+3, 2.7512097e+2, -104765.67, -439987.9, 60341.664, 0.02766412, 0.09829702, -94234.695, 149582.9, 0.0000027111198, 10.002069, 9.997633 
1.0251427e+3, 2.8511837e+2, -1983.8237, -397935.44, 6115.8555, -0.0023985794, 0.10688704, -1889.381, 143955.27, 0.00003356842, 10.002352, 9.997115 
1.0251572e+3, 2.951147e+2, 162805.58, -276155.9, -4846.2476, 0.013684197, -0.004165947, 162859.08, 210740.45, 0.00015737157, 10.00283, 9.997051 
1.02517225e+3, 3.0511248e+2, 260309.19, -205857.38, 12295.665, 0.06530346, 0.08528632, 260633.27, 260633.27, 0.00043278775, 10.003208, 9.997014 
1.0251879e+3, 3.1511015e+2, 323593.8, -100528.83, -68380.09, 0.1753484, 0.11363481, 334345.94, 334345.94, 0.00085734465, 10.003237, 9.997728 
1.0349031e+3, 1.2511405e+2, -2073872.9, -1763639.0, -10227.574, 0.0051830835, 0.06262709, -1763302.1, -49412.69, 0.00027553758, 9.996927, 10.001135 
1.0349174e+3, 1.3511561e+2, -1814015.4, -1613016.0, 65743.74, -0.1657194, 0.097472236, -1593422.4, 22454.467, 0.000106410545, 9.998205, 10.000884 
1.03493296e+3, 1.4511658e+2, -1689207.6, -1510566.8, -13397.424, -0.107560426, 0.12259228, -1509567.6, 8300.3125, 0.000017580353, 9.998401, 10.000799 
1.03494816e+3, 1.5511794e+2, -1683524.0, -1459612.9, 35616.418, -0.009197847, 0.14214844, -1454084.1, -34230.85, 0.00000023822265, 9.997777, 10.00078 
1.0349633e+3, 1.6511852e+2, -1574301.3, -1451829.8, 111622.55, -0.013420185, 0.1706027, -1385749.4, -63902.21, 0.0, 9.998298, 9.9999 
1.0349786e+3, 1.751181e+2, -1205973.5, -1225615.5, 144124.52, -0.08292796, 0.113516144, -1071335.8, 152515.61, 0.0, 10.000161, 9.999884 
1.0349941e+3, 1.8511708e+2, -1045149.5, -1143261.1, 65175.035, -0.057113413, 0.048551336, -1012631.7, 113226.43, 0.0, 10.000756, 9.999501 
1.0350096e+3, 1.9511516e+2, -1045290.6, -1096961.5, 52670.047, 0.05592838, -0.12185359, -1012460.9, 15409.543, 0.0, 10.000102, 9.999463 
1.0350247e+3, 2.0511495e+2, -1077796.3, -1124162.9, 42905.32, 0.08747176, -0.05383236, -1052211.5, -122338.46, 0.0, 9.999487, 9.9988985 
1.0350393e+3, 2.1511602e+2, -1040962.2, -1058636.9, 49613.016, 0.050889235, 0.13927926, -999405.6, -167535.81, 0.0, 9.999074, 9.998878 
1.0350545e+3, 2.2511564e+2, -820336.75, -848780.2, 62481.27, 0.03846134, 0.19662456, -770479.06, -36604.883, 0.0, 9.999707, 9.999328 
1.03507e+3, 2.3511365e+2, -481104.25, -638900.9, 92163.375, 0.04648951, 0.038163517, -438680.56, 197207.52, 0.0, 10.001382, 9.9992895 
1.0350852e+3, 2.4511166e+2, -360364.63, -668650.4, 25916.908, 0.07687753, -0.020160845, -358201.03, 179703.47, 0.0, 10.002137, 9.998045 
1.03509985e+3, 2.5510943e+2, -278372.53, -581536.3, 19239.17, 0.1311454, -0.07639174, -277156.47, 162769.3, 0.0, 10.002033, 9.998024 
1.035115e+3, 2.6510745e+2, -221457.44, -558466.25, 65553.734, 0.12572072, -0.0465253, -209155.23, 132791.27, 0.00000000560088, 10.001992, 9.997531 
1.0351305e+3, 2.7510527e+2, -131086.75, -464940.66, 75837.44, 0.06348175, -0.04413574, -114667.24, 129303.56, 0.0000022721786, 10.001952, 9.997516 
1.03514574e+3, 2.8510305e+2, -5220.509, -387772.9, 11517.455, 0.03638214, 0.004444749, -4874.068, 141119.95, 0.000031172072, 10.002278, 9.99722 
1.0351605e+3, 2.9510078e+2, 156112.17, -266291.84, 33932.664, 0.027581863, 0.021236751, 158820.69, 206837.23, 0.00015322318, 10.002731, 9.997165 
1.0351754e+3, 3.0509835e+2, 208889.06, -295921.38, 5245.0757, 0.03733445, 0.110017866, 208943.55, 208943.55, 0.00043103905, 10.003142, 9.996424 
1.03519015e+3, 3.150941e+2, 265321.63, -161888.81, -19449.148, 0.023662452, 0.01039271, 266205.22, 266205.22, 0.0008619147, 10.003015, 9.997397 
1.0448997e+3, 1.2509881e+2, -2151401.0, -1824278.1, -28499.928, 0.0075942534, 0.01990857, -1821813.6, -107779.17, 0.0003338259, 9.996478, 10.000935 
1.0449163e+3, 1.3510008e+2, -1952495.9, -1707375.8, 43253.426, -0.034962818, 0.049699824, -1699967.3, -83940.414, 0.00013404706, 9.997357, 10.000641 
1.04493216e+3, 1.4510114e+2, -1721013.1, -1476811.3, -35983.285, -0.0029705532, 0.07363207, -1471619.4, 46397.883, 0.000024406929, 9.997977, 10.001233 
1.0449463e+3, 1.5510276e+2, -1525199.0, -1328648.6, -49239.36, -0.012671293, 0.076031305, -1317003.3, 102995.44, 0.0000004785213, 9.99865, 10.001252 
1.04496166e+3, 1.6510373e+2, -1479434.8, -1383889.5, 59774.18, -0.027178338, 0.110069074, -1355143.0, -33154.566, 0.0, 9.998838, 10.000116 
1.0449785e+3, 1.751038e+2, -1419521.8, -1304998.5, 45902.79, -0.027275627, 0.08062094, -1288871.0, -64882.367, 0.0, 9.998589, 10.0001 
1.0449945e+3, 1.851031e+2, -1353981.1, -1306131.3, -28871.09, 0.018534992, 0.04374463, -1292560.3, -166566.25, 0.0, 9.998709, 9.999366 
1.0450098e+3, 1.9510137e+2, -1183937.4, -1176698.4, -28737.775, 0.104034275, -0.0917935, -1151353.0, -123345.95, 0.0, 9.999218, 9.999336 
1.04502454e+3, 2.0510119e+2, -991340.8, -1083281.6, 31991.822, 0.10005123, -0.014138004, -981304.44, -51294.418, 0.0, 10.000079, 9.998894 
1.0450389e+3, 2.1510215e+2, -734587.1, -908802.0, 24734.92, 0.01688329, 0.16839004, -731143.3, 100863.4, 0.0, 10.001177, 9.998887 
1.0450547e+3, 2.2510162e+2, -540924.44, -707767.6, 65129.418, 0.014499777, 0.20555466, -518511.25, 215500.44, 0.0, 10.001578, 9.999406 
1.0450716e+3, 2.3509935e+2, -489714.94, -639342.9, 40809.664, 0.08655867, 0.014068363, -479308.28, 156719.14, 0.0, 10.001281, 9.99935 
1.0450875e+3, 2.4509731e+2, -453878.56, -741408.7, -7849.199, 0.13139233, -0.040418904, -453664.47, 84380.375, 0.0, 10.001599, 9.997813 
1.0451023e+3, 2.5509524e+2, -225194.97, -580901.3, -17621.563, 0.15466243, -0.05737715, -224324.14, 215742.17, 0.0, 10.002502, 9.997804 
1.04511745e+3, 2.6509318e+2, -116402.61, -524327.25, 40446.625, 0.13635205, -0.01703029, -112430.91, 229657.61, 0.0000000009945924, 10.002776, 9.9974 
1.0451327e+3, 2.750906e+2, -80898.91, -460818.94, 21142.006, 0.080770575, -0.036016483, -79726.01, 164390.27, 0.0000020282196, 10.00235, 9.997369 
1.0451483e+3, 2.8508842e+2, 54188.88, -346944.84, 22867.207, 0.06372113, 0.015074271, 55488.246, 201627.22, 0.00002862313, 10.002619, 9.997342 
1.0451642e+3, 2.950865e+2, 279736.28, -188890.02, 13095.888, 0.08942735, 0.05682735, 280101.97, 328259.0, 0.00014660136, 10.003497, 9.997329 
1.0451793e+3, 3.0508417e+2, 301489.47, -238318.22, 4783.3335, 0.09426837, 0.13631901, 301531.84, 301531.84, 0.00042212423, 10.003713, 9.996546 
1.04519345e+3, 3.150794e+2, 279355.5, -137406.25, -17020.326, 0.06321761, -0.028454404, 280049.44, 280049.44, 0.0008537748, 10.002973, 9.997614 
1.054894e+3, 1.2508313e+2, -2147589.5, -1803501.3, -50779.45, -0.27079192, 0.011422766, -1796163.9, -81977.96, 0.00039971265, 9.996441, 10.001085 
1.0549152e+3, 1.3508429e+2, -1952376.0, -1698539.6, 88006.6, 0.09496103, 0.023569161, -1671012.4, -54833.598, 0.00016604259, 9.997328, 10.000712 
1.054932e+3, 1.4508504e+2, -1717835.0, -1470500.8, -30395.48, 0.1545388, 0.010294608, -1466820.1, 51352.04, 0.000032768716, 9.997973, 10.00128 
1.0549452e+3, 1.5508592e+2, -1523634.9, -1328289.5, -12292.813, -0.018036133, -0.066275984, -1327518.9, 92642.21, 0.0000008393984, 9.998651, 10.001261 
1.05496034e+3, 1.6508712e+2, -1489780.1, -1394102.8, 35247.066, -0.07076824, -0.0051724613, -1382520.0, -60370.305, 0.0, 9.998797, 10.000061 
1.0549778e+3, 1.7508832e+2, -1426284.6, -1313512.0, 47202.973, 0.022902332, 0.07967198, -1296362.4, -72221.28, 0.0, 9.998566, 10.000052 
1.054994e+3, 1.8508883e+2, -1338920.9, -1255623.0, -26482.69, 0.07082696, 0.14842738, -1247916.5, -121779.6, 0.0, 9.998626, 9.999754 
1.0550089e+3, 1.9508843e+2, -1168761.6, -1127280.0, 3048.53, 0.068558745, 0.1038933, -1127057.1, -98917.445, 0.0, 9.999131, 9.999722 
1.0550238e+3, 2.0508759e+2, -1003235.2, -1072238.1, 57494.605, 0.0046361694, 0.08905959, -970684.56, -40537.72, 0.0, 9.9999275, 9.9990425 
1.0550391e+3, 2.1508595e+2, -749822.6, -904250.2, 77399.33, -0.11840067, -0.0036850225, -717708.3, 114453.55, 0.0, 10.001013, 9.9990015 
1.05505526e+3, 2.2508477e+2, -592842.7, -767762.44, 41439.984, -0.10712293, -0.021052497, -583521.9, 150649.63, 0.0, 10.001376, 9.999086 
1.0550726e+3, 2.3508367e+2, -532572.25, -691743.06, 43995.137, 0.037925374, -0.066565886, -521221.38, 114957.47, 0.0, 10.001122, 9.999063 
1.055089e+3, 2.4508277e+2, -472967.4, -742993.44, 11650.998, 0.09552992, 0.0032277217, -472465.63, 65722.586, 0.0, 10.001439, 9.997877 
1.0551042e+3, 2.5508174e+2, -241962.23, -582902.3, 27100.285, 0.0708435, 0.08282853, -239821.56, 200381.08, 0.0, 10.002361, 9.997858 
1.05511926e+3, 2.650799e+2, -148425.55, -560089.94, 12258.129, 0.027667213, 0.15380363, -148060.86, 194162.86, 0.000000000012280949, 10.00265, 9.997208 
1.05513416e+3, 2.7507704e+2, -106126.6, -490860.94, 23988.906, -0.03727792, 0.11720226, -104636.625, 139617.05, 0.0000016155456, 10.002257, 9.997201 
1.0551504e+3, 2.850746e+2, 53487.527, -330144.75, 43513.906, -0.027375104, 0.14237629, 58361.223, 204639.44, 0.000025306648, 10.002544, 9.997494 
1.0551677e+3, 2.9507214e+2, 269501.53, -180511.27, 67123.695, 0.061918978, 0.11545399, 279300.3, 327601.34, 0.00013793015, 10.003377, 9.997446 
1.0551833e+3, 3.0506998e+2, 345129.34, -129904.3, -28144.652, 0.098978505, 0.16974494, 346791.06, 346791.06, 0.00040720604, 10.003627, 9.997334 
1.05519675e+3, 3.150661e+2, 311418.03, -31803.795, 3974.3452, 0.03312154, 0.014152236, 311464.06, 311464.06, 0.00083313056, 10.00281, 9.998418 
1.06489174e+3, 1.2506723e+2, -1855475.0, -1620849.4, -35900.55, -0.22493248, -0.004861314, -1615479.1, 98862.91, 0.00047318285, 9.998275, 10.00146 
1.06491275e+3, 1.3506877e+2, -1978997.6, -1666033.3, 74573.734, 0.14044306, 0.009752421, -1649172.0, -32843.266, 0.00020250746, 9.996969, 10.00111 
1.0649291e+3, 1.4506982e+2, -1906822.1, -1584688.3, 34741.32, 0.13386759, 0.017777143, -1580984.0, -62665.2, 0.000042863663, 9.99677, 10.001086 
1.0649436e+3, 1.550705e+2, -1638200.6, -1400545.3, 990.09875, 0.006563047, -0.060769413, -1400541.1, 19770.29, 0.0000013547858, 9.997945, 10.001101 
1.0649593e+3, 1.6507159e+2, -1514419.0, -1387048.9, 45227.19, -0.026531426, -0.011357139, -1372623.3, -50322.293, 0.0, 9.998529, 10.000248 
1.0649767e+3, 1.7507286e+2, -1423744.0, -1292524.9, 46967.973, 0.06706993, 0.066133365, -1277446.1, -53156.184, 0.0, 9.9984865, 10.000245 
1.0649931e+3, 1.850735e+2, -1313496.3, -1257715.5, 22405.338, 0.112199284, 0.14214222, -1249830.5, -123545.41, 0.0, 9.998852, 9.999632 
1.0650084e+3, 1.9507323e+2, -1100239.1, -1108419.3, -14920.045, 0.09848289, 0.12429824, -1088858.8, -60569.414, 0.0, 9.999657, 9.999599 
1.06502414e+3, 2.050722e+2, -935241.0, -1026037.2, 49201.383, 0.029416181, 0.08871699, -913693.1, 16605.092, 0.0, 10.000341, 9.999155 
1.0650403e+3, 2.1507013e+2, -756576.8, -891810.06, 35552.063, -0.08480037, -0.056637105, -747800.0, 84514.41, 0.0, 10.000915, 9.999126 
1.0650568e+3, 2.2506884e+2, -632092.5, -829107.7, -8406.813, -0.084304586, -0.07188064, -631734.44, 102590.83, 0.0, 10.001284, 9.998712 
1.06507376e+3, 2.3506796e+2, -518498.0, -721789.25, -36427.02, 0.034258146, -0.05807003, -512167.9, 124165.94, 0.0, 10.001389, 9.99872 
1.0650902e+3, 2.4506734e+2, -428796.47, -687714.7, -12910.193, 0.08453321, 0.040966377, -428154.34, 110187.62, 0.0, 10.001598, 9.998179 
1.0651062e+3, 2.550666e+2, -287810.03, -574378.44, -7457.478, 0.06456889, 0.12338944, -287616.1, 152736.98, 0.0, 10.001912, 9.998138 
1.0651218e+3, 2.6506484e+2, -150240.6, -553469.44, 9251.341, 0.028312435, 0.1871538, -150028.45, 192344.31, 0.0, 10.002594, 9.997282 
1.06513724e+3, 2.75062e+2, 77131.1, -388403.13, 4589.923, -0.013172096, 0.13959782, 77176.35, 321578.72, 0.00000091217555, 10.003467, 9.997318 
1.06515355e+3, 2.850594e+2, 180105.66, -260763.44, 45486.47, 0.008072939, 0.1402445, 184749.78, 331177.88, 0.000020761427, 10.003372, 9.997576 
1.0651708e+3, 2.9505655e+2, 122907.09, -245132.78, 34757.99, 0.0977909, 0.06972379, 126160.9, 174615.81, 0.00012637535, 10.002318, 9.997519 
1.0651864e+3, 3.0505487e+2, 188785.89, -145467.31, -31010.479, 0.1194851, 0.14148341, 191638.56, 191638.56, 0.00038601994, 10.0023, 9.997852 
1.0652e+3, 3.150522e+2, 388654.1, 81622.92, -67098.21, 0.07348285, 0.05044282, 402677.2, 402677.2, 0.0008001297, 10.003023, 9.999071 
1.0748922e+3, 1.2505098e+2, -1821889.8, -1541701.0, -104780.02, -0.06743787, -0.04910748, -1506851.6, 207652.89, 0.00055371417, 9.9982605, 10.001998 
1.0749082e+3, 1.350536e+2, -1943066.1, -1581246.6, 30434.424, -0.028423136, 0.013661402, -1578704.5, 37771.605, 0.00024334127, 9.996937, 10.001701 
1.0749228e+3, 1.450555e+2, -1936268.4, -1644834.9, 57393.88, -0.20724602, 0.096001506, -1633939.3, -115482.05, 0.00005483326, 9.996754, 10.000686 
1.07494116e+3, 1.5505643e+2, -1664252.6, -1458116.4, 57982.418, -0.06482694, 0.08027709, -1442926.3, -22476.057, 0.000002073113, 9.997949, 10.00071 
1.0749584e+3, 1.650572e+2, -1490780.0, -1324340.4, 27299.281, -0.006740544, 0.09501062, -1319977.3, 2464.562, 0.0000000000166348, 9.99848, 10.000698 
1.0749748e+3, 1.7505755e+2, -1396935.4, -1229068.6, 58515.133, 0.003760159, 0.031859275, -1210684.6, 13749.867, 0.0, 9.998451, 10.000695 
1.07499145e+3, 1.8505722e+2, -1375315.0, -1361441.3, 38561.79, 0.033407938, 0.023845315, -1329197.4, -202759.53, 0.0, 9.998756, 9.998961 
1.0750082e+3, 1.9505586e+2, -1163711.8, -1210737.8, 28025.596, 0.07671283, -0.03700797, -1150642.1, -122186.85, 0.0, 9.999536, 9.998951 
1.07502505e+3, 2.0505506e+2, -958567.6, -1037938.7, 53910.79, 0.065129936, -0.015201637, -931310.56, -846.9528, 0.0, 10.000183, 9.999152 
1.07504226e+3, 2.1505457e+2, -777789.8, -898811.6, 70369.97, 0.001937571, -0.0077173854, -745491.75, 86973.62, 0.0, 10.000749, 9.999162 
1.0750588e+3, 2.2505374e+2, -689256.4, -899166.06, -16738.65, -0.027292779, 0.04160922, -687930.0, 46543.9, 0.0, 10.00108, 9.998328 
1.0750748e+3, 2.3505226e+2, -574034.2, -791539.0, -16109.225, -0.026390696, 0.03274136, -572847.5, 63644.402, 0.0, 10.001194, 9.998337 
1.0750912e+3, 2.4505103e+2, -425741.97, -635153.56, -11329.487, -0.008858012, 0.0688167, -425130.8, 113374.945, 0.0, 10.001408, 9.998628 
1.0751079e+3, 2.5504977e+2, -271343.8, -510575.2, 20714.77, 0.023398597, 0.05087092, -269563.38, 170954.7, 0.0, 10.001784, 9.998634 
1.07512474e+3, 2.6504806e+2, -155317.72, -525029.1, 30077.91, 0.036110748, 0.07598235, -152886.72, 189648.89, 0.000000000031670343, 10.002433, 9.997557 
1.07514136e+3, 2.750455e+2, 71909.95, -366023.94, 56303.582, 0.026397374, 0.036617864, 79032.85, 323594.6, 0.00000057346807, 10.003321, 9.997548 
1.07515745e+3, 2.850429e+2, 167738.36, -259074.6, -6718.8306, 0.039513268, 0.0275285, 167844.11, 314431.88, 0.000016841232, 10.003259, 9.997637 
1.07517324e+3, 2.9504007e+2, 116741.14, -234109.8, 18928.445, 0.07070776, -0.05642772, 117759.375, 166375.06, 0.000114238224, 10.002221, 9.997638 
1.0751882e+3, 3.050391e+2, 195080.89, -126195.695, -4417.137, 0.040202167, 0.06963674, 195141.61, 195141.61, 0.0003625103, 10.002271, 9.998004 
1.0752023e+3, 3.1503773e+2, 381781.94, 94113.91, 16931.72, -0.06767299, 0.091285154, 382775.06, 382775.06, 0.00076317973, 10.0029, 9.999227 
1.08489074e+3, 1.2503618e+2, -2057507.1, -1704274.8, -5330.363, 0.054801147, 0.012167519, -1704194.4, 10455.775, 0.00064071716, 9.996809, 10.001603 
1.0849058e+3, 1.3503788e+2, -1822619.6, -1557902.5, -23429.834, 0.0015300547, 0.012320466, -1555844.8, 60784.785, 0.00028839763, 9.997889, 10.001411 
1.0849194e+3, 1.4503929e+2, -1749812.8, -1569998.9, 41891.816, -0.27543265, 0.06758912, -1560718.1, -42103.91, 0.00006873226, 9.998137, 10.000509 
1.0849391e+3, 1.5504012e+2, -1687462.5, -1489908.6, 18036.354, -0.048715882, 0.063239045, -1488275.4, -67668.414, 0.0000030594845, 9.997898, 10.0005045 
1.0849571e+3, 1.6504048e+2, -1552962.5, -1383694.6, -7969.3965, 0.04837394, 0.05882073, -1383320.3, -60718.19, 0.000000000186287, 9.998174, 10.000438 
1.08497374e+3, 1.7504014e+2, -1335169.0, -1228999.8, -61813.543, 0.036967114, -0.04750956, -1200605.0, 23996.816, 0.0, 9.999005, 10.000425 
1.0849906e+3, 1.8503967e+2, -1244496.8, -1304088.8, -48885.48, 0.043381706, -0.052725695, -1217042.5, -90435.27, 0.0, 9.999677, 9.9989195 
1.0850078e+3, 1.9503881e+2, -1087516.5, -1177233.5, -41764.39, 0.0665385, -0.056723345, -1071084.3, -42463.61, 0.0, 10.000091, 9.998913 
1.08502515e+3, 2.0503844e+2, -932598.8, -999918.0, 31036.617, 0.06220137, -0.0005178647, -920473.7, 10151.886, 0.0, 10.000257, 9.9993725 
1.0850429e+3, 2.150382e+2, -848121.8, -912199.0, 29516.64, 0.02946236, 0.009611812, -836597.8, -3972.0886, 0.0, 10.00018, 9.999342 
1.0850596e+3, 2.2503759e+2, -802911.94, -923877.94, -6649.7, 0.00048969325, 0.060228746, -802547.5, -67915.484, 0.0, 10.000178, 9.998593 
1.08507544e+3, 2.3503634e+2, -690554.4, -818473.25, 8718.928, -0.02472039, 0.051563174, -689962.8, -53315.785, 0.0, 10.000275, 9.998595 
1.0850921e+3, 2.4503502e+2, -531847.44, -693218.8, 61226.906, -0.0065221656, 0.06606894, -511246.8, 27414.734, 0.0, 10.000679, 9.998602 
1.0851097e+3, 2.550333e+2, -355079.78, -556043.75, 31670.379, 0.058819305, 0.010403802, -350206.94, 90471.27, 0.0, 10.001217, 9.998611 
1.08512685e+3, 2.6503187e+2, -295355.25, -525069.06, 50426.508, 0.07734682, 0.03359773, -284773.16, 57919.715, 0.000000020287489, 10.001191, 9.998141 
1.08514346e+3, 2.7503023e+2, -276921.16, -469717.22, 65678.92, 0.04727773, 0.025152242, -256673.14, -11963.666, 0.0000009682407, 10.000652, 9.998111 
1.0851597e+3, 2.850282e+2, -103895.37, -355977.7, 59084.066, 0.034947723, 0.028887255, -90734.16, 55995.246, 0.000016002106, 10.001248, 9.997936 
1.0851754e+3, 2.9502562e+2, 220785.44, -145757.06, 61983.04, 0.057302322, -0.060265407, 230983.17, 279737.5, 0.00010691048, 10.002778, 9.997972 
1.0851909e+3, 3.0502447e+2, 352443.3, -69859.83, 63397.34, 0.036011323, 0.0459501, 361755.34, 361755.34, 0.00034615427, 10.00346, 9.997823 
1.0852058e+3, 3.150228e+2, 398154.5, 82792.32, 9357.844, 0.0075804605, 0.063293345, 398431.94, 398431.94, 0.0007399488, 10.003138, 9.999028 
1.0948873e+3, 1.2502272e+2, -2150043.0, -1878750.5, 60822.563, -0.03484524, 0.1548522, -1865738.5, -150958.25, 0.000734217, 9.9967375, 10.000439 
1.0949051e+3, 1.3502185e+2, -1894876.3, -1714112.0, 25995.861, 0.10850754, 0.0025803498, -1710447.8, -93661.19, 0.00033773432, 9.997907, 10.000333 
1.09491885e+3, 1.4502129e+2, -1759885.3, -1584856.6, 13849.217, -0.19702324, -0.078629926, -1583767.5, -64978.684, 0.0000845864, 9.998117, 10.000415 
1.09493725e+3, 1.5502156e+2, -1701516.8, -1506679.4, 23242.488, -0.05784116, -0.12778158, -1503945.1, -83163.24, 0.0000043925156, 9.997853, 10.000409 
1.09495535e+3, 1.6502145e+2, -1625978.9, -1531180.3, 6221.938, 0.020864233, -0.12277971, -1530773.6, -207991.9, 0.0000000006358386, 9.998151, 9.999439 
1.0949732e+3, 1.7502058e+2, -1402680.0, -1373190.1, -17051.654, 0.054078203, -0.18471977, -1365392.4, -140599.78, 0.0, 9.999009, 9.999439 
1.09499045e+3, 1.8502091e+2, -1215595.8, -1225110.6, -49777.938, 0.028704075, -0.08964459, -1170348.4, -43555.625, 0.0, 9.999602, 9.999493 
1.095007e+3, 1.9502218e+2, -1063360.5, -1099832.3, -10949.577, -0.044009462, 0.06227265, -1060325.6, -31540.945, 0.0, 9.999973, 9.999499 
1.0950242e+3, 2.0502229e+2, -928328.8, -960749.1, 13208.266, -0.08911228, 0.12028463, -923628.94, 7155.8467, 0.0, 10.00012, 9.999711 
1.09504186e+3, 2.1502098e+2, -846965.06, -872260.44, 39814.465, -0.10931982, -0.009014779, -817837.7, 14957.846, 0.0, 10.000013, 9.999701 
1.09505884e+3, 2.2502035e+2, -778293.7, -824710.8, -17811.113, -0.10974, -0.016628608, -772246.94, -37447.215, 0.0, 9.999976, 9.999368 
1.0950753e+3, 2.3502009e+2, -663150.3, -719483.7, 25663.498, -0.084635496, -0.010039829, -653212.2, -16411.43, 0.0, 10.0000925, 9.999362 
1.09509274e+3, 2.4501917e+2, -588405.5, -768209.44, 67992.305, -0.029916981, 0.028869672, -565589.6, -26778.713, 0.0, 10.000501, 9.998171 
1.0951111e+3, 2.5501734e+2, -406737.53, -629289.4, 67367.984, 0.055812955, 0.0002165843, -387933.56, 52899.168, 0.0, 10.001071, 9.998178 
1.0951279e+3, 2.650164e+2, -259381.36, -418840.1, 20777.988, 0.044325735, 0.0615498, -256718.39, 86124.8, 0.00000010014453, 10.001057, 9.998936 
1.0951433e+3, 2.7501604e+2, -228179.69, -355746.47, 65964.5, -0.06869312, 0.10080267, -200204.5, 44641.473, 0.0000018117424, 10.00059, 9.998928 
1.09515965e+3, 2.8501487e+2, -81147.76, -293086.2, 101593.29, -0.11785772, 0.12424577, -40315.508, 106540.52, 0.000017402066, 10.0011835, 9.998396 
1.09517716e+3, 2.9501268e+2, 237195.44, -91262.48, 134202.05, -0.087665126, 0.025057614, 285054.53, 333929.9, 0.00010435712, 10.002688, 9.99839 
1.09519385e+3, 3.0501083e+2, 299479.13, -162006.27, 37485.03, -0.035362072, 0.06859905, 302504.1, 302504.1, 0.00033796718, 10.00338, 9.997229 
1.09520994e+3, 3.1500742e+2, 336562.8, -30225.936, 41595.56, 0.041260112, -0.029100882, 341220.78, 341220.78, 0.00073106954, 10.003048, 9.998308 
1.1048851e+3, 1.25006e+2, -2050762.6, -1866337.5, 60236.676, 0.041778073, 0.15274604, -1848406.5, -133465.17, 0.00083503575, 9.99759, 10.000085 
1.1049036e+3, 1.3500471e+2, -1903636.4, -1756434.6, -40766.082, 0.17351966, -0.011904319, -1745898.9, -128945.75, 0.0003918232, 9.998014, 9.999979 
1.104918e+3, 1.4500356e+2, -1732051.0, -1613020.0, -21150.145, -0.09241726, -0.12025766, -1609373.6, -90411.945, 0.000102570426, 9.998454, 10.000076 
1.1049364e+3, 1.5500343e+2, -1540765.1, -1469448.0, -57144.984, 0.022439007, -0.17280711, -1437748.8, -16790.795, 0.0000061708192, 9.9991045, 10.000071 
1.1049545e+3, 1.6500321e+2, -1473198.5, -1470992.5, -10425.155, 0.071005225, -0.15793478, -1461612.1, -138652.5, 0.0000000015512864, 9.999273, 9.999302 
1.1049724e+3, 1.7500252e+2, -1403503.4, -1383420.6, -1995.4978, 0.075271, -0.18532659, -1383224.3, -158254.19, 0.0, 9.999074, 9.999324 
1.10498965e+3, 1.850032e+2, -1257602.3, -1191406.8, 17962.26, 0.022311766, -0.073914126, -1186846.8, -59880.34, 0.0, 9.999087, 9.999967 
1.1050061e+3, 1.950049e+2, -1127645.9, -1075775.0, 18951.71, -0.08768522, 0.07011809, -1069588.6, -40636.41, 0.0, 9.999304, 9.999979 
1.10502355e+3, 2.0500511e+2, -1037788.2, -1027233.25, 41986.66, -0.12163197, 0.11864561, -990193.7, -59242.406, 0.0, 9.999423, 9.999595 
1.1050419e+3, 2.1500356e+2, -931676.75, -924721.06, 4431.8467, -0.07983463, -0.02082514, -922565.4, -89599.21, 0.0, 9.999478, 9.9995985 
1.1050592e+3, 2.2500297e+2, -763757.0, -769970.2, -38757.816, -0.056541197, -0.04322951, -727981.44, 6988.3184, 0.0, 9.999862, 9.999801 
1.1050759e+3, 2.35003e+2, -564587.3, -623424.25, -45694.254, -0.046248235, -0.04854987, -539660.5, 97304.805, 0.0, 10.000558, 9.9998 
1.10509366e+3, 2.4500221e+2, -529479.4, -738048.4, 22643.496, -0.0069649667, -0.016782021, -527049.4, 11923.774, 0.0, 10.000924, 9.998154 
1.1051122e+3, 2.5500035e+2, -419182.0, -632695.56, 15209.736, 0.062611334, -0.047464453, -418103.97, 22892.107, 0.0, 10.001005, 9.998162 
1.1051291e+3, 2.6499948e+2, -177915.98, -380605.97, -21166.883, 0.043749385, 0.018025361, -175729.13, 167277.38, 0.00000018749917, 10.001598, 9.998951 
1.1051449e+3, 2.749993e+2, 57372.66, -215448.52, -61795.09, -0.057957597, 0.07606385, 70716.81, 315724.28, 0.0000025365616, 10.002538, 9.99896 
1.1051616e+3, 2.8499815e+2, 148558.73, -210049.44, -33344.863, -0.11708836, 0.11488575, 151632.92, 298650.88, 0.000019295574, 10.002886, 9.998154 
1.1051794e+3, 2.949958e+2, 200370.31, -135051.69, -85782.4, -0.1106591, 0.031665772, 221035.53, 270075.47, 0.00010487227, 10.0025625, 9.998149 
1.1051966e+3, 3.0499375e+2, 230516.22, -178871.69, -163675.88, -0.05874448, 0.056467637, 287908.9, 287908.9, 0.00033641586, 10.002794, 9.997405 
1.1052136e+3, 3.1498998e+2, 358495.03, 7385.675, -148870.86, 0.11164122, -0.09964954, 413118.5, 413118.5, 0.00073074934, 10.003088, 9.99853 
1.1148838e+3, 1.24986134e+2, -2026932.8, -1805563.4, 95946.305, 0.08937924, -0.018393066, -1769766.8, -54634.324, 0.000944546, 9.997562, 10.000514 
1.114901e+3, 1.3498653e+2, -1891831.5, -1724404.6, -12991.363, 0.08751063, -0.028513601, -1723402.5, -106274.21, 0.00045159098, 9.997988, 10.000216 
1.1149169e+3, 1.4498611e+2, -1765060.8, -1678890.5, -17240.521, -0.097491436, -0.05301841, -1675569.1, -156437.03, 0.00012308804, 9.998445, 9.999627 
1.11493625e+3, 1.5498596e+2, -1572317.8, -1537975.6, -19948.6, 0.06731389, -0.06628296, -1528825.8, -107692.65, 0.000008505592, 9.999117, 9.999595 
1.1149541e+3, 1.6498594e+2, -1427526.8, -1372978.8, -37488.234, 0.07703376, -0.037788387, -1353892.9, -30759.428, 0.0000000033697685, 9.999254, 9.9999895 
1.114971e+3, 1.7498605e+2, -1356038.0, -1283885.0, 3025.7976, -0.013165794, -0.053663064, -1283758.3, -58624.797, 0.0, 9.999056, 10.000026 
1.1149878e+3, 1.8498653e+2, -1241898.8, -1143365.8, 10872.096, -0.096467204, -0.016059555, -1142180.4, -15051.555, 0.0, 9.999023, 10.000327 
1.11500464e+3, 1.9498701e+2, -1120837.1, -1033893.94, 38777.035, -0.18450028, -0.028063482, -1019112.3, 10010.323, 0.0, 9.999187, 10.000322 
1.1150228e+3, 2.0498693e+2, -1093737.4, -1115896.5, 24054.582, -0.15462911, 0.001058566, -1078333.4, -147208.78, 0.0, 9.999303, 9.999042 
1.1150423e+3, 2.1498586e+2, -1000093.5, -1023678.8, 19528.063, -0.002023571, -0.037581936, -989073.6, -155935.25, 0.0, 9.99929, 9.999011 
1.1150603e+3, 2.2498538e+2, -781268.6, -761379.3, -25764.318, 0.040509928, -0.025445499, -743707.0, -8564.567, 0.0, 9.999676, 9.999946 
1.1150771e+3, 2.3498525e+2, -580220.25, -613240.2, -5547.673, -0.018744707, -0.06102067, -579313.1, 57825.89, 0.0, 10.000378, 9.999956 
1.11509435e+3, 2.4498428e+2, -535480.3, -712757.9, 13338.0205, -0.047481123, -0.06851693, -534482.4, 4664.797, 0.0, 10.000762, 9.998405 
1.1151123e+3, 2.5498217e+2, -420875.53, -608039.7, 34346.73, -0.0432946, -0.14865164, -414771.6, 26398.34, 0.0, 10.000879, 9.998394 
1.1151301e+3, 2.6498085e+2, -246049.88, -492711.7, -11.870471, -0.046366926, -0.1028278, -246049.88, 97134.4, 0.00000020790911, 10.001476, 9.998235 
1.1151477e+3, 2.7498e+2, -9318.607, -326294.53, -8669.232, -0.05784865, -0.046930958, -9081.683, 236111.89, 0.0000030041283, 10.002415, 9.998255 
1.1151649e+3, 2.8497827e+2, 62875.3, -354236.28, -55681.53, -0.090836875, 0.016280783, 70180.46, 217392.81, 0.000021785861, 10.0027485, 9.997226 
1.11518204e+3, 2.9497537e+2, 122941.86, -276766.84, -69553.74, -0.15173015, -0.032243337, 134699.14, 183943.33, 0.00010887074, 10.00248, 9.997217 
1.1151987e+3, 3.0497342e+2, 281605.1, -60314.73, -155755.64, -0.15063898, 0.010668268, 341918.0, 341918.0, 0.00034133886, 10.002743, 9.998243 
1.11521594e+3, 3.1497037e+2, 396892.75, 110635.32, -81109.12, -0.038254, -0.16163225, 418277.0, 418277.0, 0.0007374856, 10.002977, 9.9993 
1.1248823e+3, 1.24966e+2, -1953833.4, -1715792.1, 95507.46, 0.19175853, -0.1141467, -1682210.1, 33117.754, 0.0010643419, 9.997821, 10.001024 
1.1248988e+3, 1.349677e+2, -1836652.3, -1654668.5, -79503.33, 0.07417676, -0.03197451, -1624828.6, -7517.233, 0.00051804923, 9.998184, 10.000605 
1.1249162e+3, 1.4496788e+2, -1761617.1, -1666123.8, -7480.3716, 0.011463646, -0.018533444, -1665541.4, -146231.19, 0.00014661087, 9.998431, 9.999714 
1.1249355e+3, 1.5496764e+2, -1613798.8, -1546700.0, -7791.15, 0.107971475, -0.050523937, -1545807.3, -124493.45, 0.00001150662, 9.998801, 9.99968 
1.1249531e+3, 1.649679e+2, -1459266.1, -1371778.9, -11842.491, 0.08269549, -0.0062914654, -1370204.1, -46891.938, 0.0000000061074554, 9.99896, 10.000142 
1.1249696e+3, 1.7496859e+2, -1353534.0, -1261412.3, -41654.09, -0.028148154, 0.017513178, -1245371.0, -20064.5, 0.0, 9.998988, 10.000207 
1.1249867e+3, 1.849689e+2, -1233736.4, -1147514.4, -28469.414, -0.1021228, 0.03287197, -1138962.4, -11659.529, 0.0, 9.999099, 10.000268 
1.12500414e+3, 1.9496846e+2, -1100629.5, -1037719.06, -58171.82, -0.1555097, -0.066692725, -1003042.6, 26262.527, 0.0, 9.999346, 10.000237 
1.1250226e+3, 2.0496826e+2, -1033703.0, -1050615.1, -28168.627, -0.11772019, -0.056892823, -1012748.6, -81441.37, 0.0, 9.999584, 9.999346 
1.125042e+3, 2.1496794e+2, -879941.25, -924462.25, -2229.4548, 0.02047988, -0.050162762, -879829.94, -46517.38, 0.0, 9.999962, 9.999356 
1.1250604e+3, 2.2496761e+2, -722473.0, -776018.1, 4433.685, 0.07240556, -0.02188166, -722108.3, 13207.24, 0.0, 10.00025, 9.999577 
1.125078e+3, 2.349671e+2, -582231.5, -655029.4, -42475.348, 0.043735348, -0.05833619, -562692.6, 74625.516, 0.0, 10.000527, 9.999598 
1.1250957e+3, 2.4496618e+2, -477052.9, -633696.44, -13003.179, 0.010954229, -0.06541939, -475980.84, 63344.855, 0.0, 10.000945, 9.998865 
1.1251137e+3, 2.5496465e+2, -294066.8, -498118.94, -1804.8372, -0.023631567, -0.13114156, -294050.88, 147289.72, 0.0, 10.001541, 9.998839 
1.1251317e+3, 2.6496333e+2, -226583.72, -501416.34, 17877.92, -0.03380731, -0.10025294, -225425.63, 117928.516, 0.00000016860811, 10.001707, 9.998058 
1.1251499e+3, 2.749618e+2, -160539.19, -418823.9, 10104.612, -0.01816341, -0.08901861, -160144.48, 85225.695, 0.0000038179373, 10.001479, 9.998061 
1.1251678e+3, 2.8495973e+2, -66722.77, -420298.8, 42249.4, -0.022077331, -0.049348284, -61744.414, 85647.76, 0.000026510976, 10.001854, 9.997206 
1.1251856e+3, 2.9495692e+2, 149849.66, -260647.16, 59553.016, -0.040208854, -0.092878066, 158314.77, 207737.42, 0.00011807009, 10.002652, 9.997236 
1.1252024e+3, 3.0495507e+2, 361245.56, -39931.58, 7278.8066, -0.081392296, -0.029875733, 361377.56, 361377.56, 0.0003550206, 10.003407, 9.9980545 
1.1252191e+3, 3.149524e+2, 493807.28, 118103.13, -43494.742, -0.044454418, -0.13461645, 498776.88, 498776.88, 0.0007557831, 10.003819, 9.998954 
1.13487914e+3, 1.2494582e+2, -1913922.3, -1624357.0, 56578.22, 0.027620148, -0.11310977, -1613694.8, 101830.836, 0.0011953667, 9.997806, 10.001649 
1.13489635e+3, 1.349482e+2, -1796117.8, -1558770.1, -55493.34, -0.013828429, -0.028197559, -1546436.4, 71065.6, 0.00059164723, 9.998146, 10.001275 
1.1349159e+3, 1.4494906e+2, -1718149.9, -1573656.5, -10719.525, 0.09562478, -0.013414463, -1572865.6, -53372.125, 0.00017336896, 9.998418, 10.000361 
1.1349338e+3, 1.5494868e+2, -1569454.9, -1454630.1, 23369.83, 0.029729258, -0.11994938, -1450056.0, -28558.012, 0.000015247707, 9.9987955, 10.0003195 
1.1349512e+3, 1.6494916e+2, -1489088.0, -1430026.6, -27172.594, -0.04771679, -0.06831346, -1419427.4, -95932.23, 0.000000009421829, 9.998944, 9.999749 
1.13496825e+3, 1.7495015e+2, -1384647.3, -1324286.5, -29168.234, -0.09324526, 0.027553583, -1312495.0, -87006.57, 0.0, 9.9989805, 9.99978 
1.134986e+3, 1.8495034e+2, -1266805.6, -1209043.0, -37258.055, -0.113573395, 0.07112138, -1190783.1, -63294.73, 0.0, 9.999063, 9.9998665 
1.1350042e+3, 1.9494936e+2, -1148411.1, -1106575.0, -37208.25, -0.119557336, -0.04132404, -1084807.9, -55309.504, 0.0, 9.999208, 9.999834 
1.13502234e+3, 2.0494929e+2, -980777.5, -908806.5, -30832.83, -0.124770954, -0.050146643, -897404.0, 34093.49, 0.0, 9.999446, 10.000386 
1.13504075e+3, 2.149499e+2, -835700.2, -786813.4, 22446.873, -0.11412151, -0.055543963, -778070.25, 55417.69, 0.0, 9.999765, 10.000398 
1.1350596e+3, 2.2494973e+2, -806220.0, -909685.1, -2722.4202, -0.066743426, -0.021300845, -806148.44, -70659.59, 0.0, 10.000072, 9.998745 
1.1350785e+3, 2.3494852e+2, -670982.94, -796848.0, -18228.777, 0.021002416, -0.04587529, -668396.06, -30892.951, 0.0, 10.000341, 9.998715 
1.13509715e+3, 2.4494796e+2, -455426.16, -552559.6, -4382.4326, 0.04081172, -0.004982001, -455228.84, 84279.85, 0.0, 10.000788, 9.999497 
1.1351157e+3, 2.5494784e+2, -270313.53, -412174.6, 34296.35, 0.0053722956, 0.004252703, -262457.16, 179050.16, 0.0, 10.001382, 9.999506 
1.13513365e+3, 2.6494688e+2, -225313.27, -472850.94, -847.1292, -0.027184656, 0.02476281, -225310.38, 118205.18, 0.00000020663475, 10.001588, 9.998317 
1.1351512e+3, 2.7494457e+2, -158138.92, -397075.53, 21339.479, -0.059098557, -0.062041752, -156248.05, 89290.234, 0.0000055002247, 10.001397, 9.998258 
1.1351698e+3, 2.8494233e+2, -24859.55, -306562.06, 55469.74, -0.034618754, -0.09373529, -14330.595, 133228.98, 0.000033703815, 10.001754, 9.998026 
1.1351897e+3, 2.9494e+2, 190300.8, -147734.83, 105072.52, 0.06648749, -0.16790184, 220298.7, 269878.66, 0.00013271971, 10.002529, 9.99807 
1.13520704e+3, 3.0493835e+2, 259149.81, -218004.98, 13223.87, 0.009856329, -0.073279634, 259516.03, 259516.03, 0.00037893685, 10.003263, 9.996901 
1.1352223e+3, 3.1493592e+2, 379436.34, -80640.41, 18780.996, -0.17179382, -0.03998599, 380201.75, 380201.75, 0.0007912106, 10.0036545, 9.997666 
1.14487745e+3, 1.24925636e+2, -1949748.3, -1619297.9, 4429.9873, 0.10571883, -0.054167155, -1619238.5, 96486.92, 0.0013373722, 9.9974165, 10.00189 
1.1448937e+3, 1.349277e+2, -1878249.8, -1558638.6, -123741.125, -0.040884808, -0.043445434, -1516331.1, 101373.26, 0.000672049, 9.997361, 10.0016775 
1.1449148e+3, 1.4492947e+2, -1765023.5, -1504544.0, -27073.555, 0.19562234, -0.0014045924, -1501759.9, 17926.996, 0.0002032588, 9.997711, 10.001168 
1.1449327e+3, 1.5493031e+2, -1533436.8, -1348294.0, -22552.322, 0.05386697, -0.06190685, -1345586.5, 76092.31, 0.000019742625, 9.998665, 10.001108 
1.14494994e+3, 1.6493103e+2, -1472982.9, -1415281.0, -43974.926, -0.056740366, -0.026836066, -1391537.5, -67864.54, 0.000000013934886, 9.999028, 9.999809 
1.144967e+3, 1.7493133e+2, -1394906.5, -1322072.3, -35476.645, -0.09989533, -0.0070443177, -1307648.4, -81975.92, 0.0, 9.998879, 9.999843 
1.14498496e+3, 1.8493149e+2, -1284471.4, -1224357.6, 29086.846, -0.100526035, 0.035089996, -1212588.0, -84914.63, 0.0, 9.99899, 9.999788 
1.14500366e+3, 1.9493122e+2, -1124483.4, -1092558.5, 18904.113, -0.07819872, 0.0016512894, -1083778.9, -54100.695, 0.0, 9.999407, 9.999812 
1.14502236e+3, 2.0493142e+2, -920411.44, -886532.44, 31706.02, -0.07254249, 0.020441683, -867524.5, 64150.73, 0.0, 9.999856, 10.000358 
1.1450413e+3, 2.1493179e+2, -756433.8, -753126.94, -17731.568, -0.06704472, -0.0076764724, -736971.9, 96695.1, 0.0, 10.0002985, 10.000387 
1.1450602e+3, 2.2493136e+2, -705085.1, -866716.1, -22518.459, -0.03807934, 0.0040500243, -702006.5, 33663.676, 0.0, 10.00081, 9.998676 
1.1450792e+3, 2.3492981e+2, -510007.03, -720885.25, -13203.924, 0.009993474, -0.047282476, -509183.47, 128504.65, 0.0, 10.001469, 9.998687 
1.145098e+3, 2.4492927e+2, -391945.9, -524734.0, 4683.931, 0.039548103, -0.00122775, -391780.9, 147912.61, 0.0, 10.001226, 9.99948 
1.1451168e+3, 2.5492957e+2, -456258.72, -497407.75, -33734.246, 0.05884786, 0.050324503, -437319.8, 4368.23, 0.0, 10.000094, 9.999534 
1.14513524e+3, 2.649288e+2, -423598.97, -548391.3, -36948.938, 0.047015846, 0.07643376, -413479.6, -69785.086, 0.00000038376965, 10.000122, 9.99851 
1.1451532e+3, 2.749265e+2, -152128.1, -369139.06, -43731.15, 0.00447165, -0.03022804, -143647.03, 102069.734, 0.0000075917305, 10.001325, 9.998486 
1.1451723e+3, 2.8492433e+2, 39029.41, -267233.03, 2845.0137, 0.01594331, -0.0682347, 39055.836, 186792.64, 0.000041535674, 10.002155, 9.998108 
1.1451925e+3, 2.949222e+2, 186991.25, -139795.77, -36927.355, 0.11839505, -0.12791523, 191112.13, 240866.98, 0.00014998692, 10.002471, 9.998154 
1.14521034e+3, 3.0492052e+2, 214924.38, -224818.23, -85807.73, 0.05753107, -0.047671556, 231075.02, 231075.02, 0.00040887797, 10.002859, 9.997055 
1.14522606e+3, 3.1491822e+2, 277496.47, -120727.03, -38219.76, -0.10364532, -0.019466227, 281131.47, 281131.47, 0.0008407425, 10.002921, 9.99773 
1.1548745e+3, 1.2490497e+2, -1965498.4, -1634208.9, -133788.27, 0.015243767, 0.007120341, -1586927.6, 129004.78, 0.001489488, 9.997355, 10.001808 
1.15489036e+3, 1.349064e+2, -1865316.3, -1521437.8, -112527.836, -0.13808939, -0.07091238, -1487888.3, 130028.734, 0.00075867696, 9.997331, 10.001935 
1.15491256e+3, 1.4490908e+2, -1706753.1, -1390243.0, -9670.761, 0.16334547, 0.010947961, -1389947.9, 129942.266, 0.0002361324, 9.99772, 10.001961 
1.1549316e+3, 1.5491246e+2, -1468860.6, -1222422.3, 25547.078, 0.04973856, 0.11895233, -1219801.8, 202055.17, 0.000024990082, 9.998685, 10.001969 
1.1549491e+3, 1.6491362e+2, -1429118.8, -1322306.1, -66613.875, -0.076416686, 0.12028051, -1290333.1, 33511.957, 0.000000023716384, 9.999024, 10.000444 
1.1549656e+3, 1.7491226e+2, -1359178.6, -1236935.3, -27473.031, -0.1598676, -0.08809498, -1231044.8, -5187.4233, 0.0, 9.998837, 10.000442 
1.1549835e+3, 1.8491252e+2, -1284593.3, -1213422.9, 28295.393, -0.1826237, -0.07100032, -1203544.5, -75688.34, 0.0, 9.998939, 9.999887 
1.1550026e+3, 1.9491406e+2, -1129591.3, -1084227.5, 45352.383, -0.15744594, 0.061440717, -1056201.4, -26356.41, 0.0, 9.999316, 9.999916 
1.1550223e+3, 2.0491458e+2, -1005387.94, -1029401.7, 28031.46, -0.085722215, 0.15237184, -986900.06, -55058.88, 0.0, 9.999711, 9.999445 
1.1550429e+3, 2.149137e+2, -850129.0, -904812.44, 11703.23, 0.04523575, 0.09260958, -847729.6, -13880.944, 0.0, 10.000104, 9.999442 
1.155062e+3, 2.2491258e+2, -691062.8, -793231.3, -11281.777, 0.04512751, 0.052923948, -689831.9, 46026.625, 0.0, 10.000621, 9.99927 
1.1550798e+3, 2.3491095e+2, -495815.97, -648901.2, 25272.285, -0.09115871, -0.06548316, -491751.75, 146121.36, 0.0, 10.001287, 9.999269 
1.15509816e+3, 2.4491012e+2, -458375.53, -623158.94, -55387.14, -0.096290916, -0.048080597, -441489.22, 98391.36, 0.0, 10.001055, 9.998885 
1.15511686e+3, 2.5490987e+2, -518703.25, -599915.2, -64110.73, 0.027965114, 0.0076979455, -483420.94, -41538.13, 0.0, 9.99997, 9.99889 
1.15513586e+3, 2.6490906e+2, -427452.75, -530274.6, -5207.8843, 0.07700102, 0.05659434, -427189.63, -83298.914, 0.0000005356376, 10.000013, 9.998685 
1.15515515e+3, 2.7490738e+2, -150803.92, -340133.8, 18475.898, 0.04008383, -0.012269126, -149017.78, 96889.42, 0.000008957139, 10.001208, 9.99874 
1.1551745e+3, 2.8490576e+2, -17832.674, -355028.56, 4631.1113, 0.008588041, 0.014089214, -17769.082, 130154.625, 0.000047577858, 10.002027, 9.997567 
1.1551941e+3, 2.949037e+2, 132595.02, -240884.94, 2073.8113, -0.018584218, 0.019352537, 132606.53, 182551.22, 0.00016516355, 10.002404, 9.997499 
1.15521215e+3, 3.0490166e+2, 273233.84, -62141.285, -89283.65, -0.0695368, 0.043514717, 295521.78, 295521.78, 0.00043857994, 10.002698, 9.998239 
1.15522936e+3, 3.1489915e+2, 331776.22, 26707.611, 16065.127, -0.12918715, -0.07680799, 332619.9, 332619.9, 0.0008950193, 10.0027685, 9.998815 
1.16487294e+3, 1.24885686e+2, -2021057.4, -1684785.1, -44734.31, 0.1548227, 0.044973597, -1678935.9, 37186.17, 0.0016512593, 9.997084, 10.001586 
1.16488755e+3, 1.3488667e+2, -1788469.3, -1490918.6, -17237.74, -0.16672719, -0.06628314, -1489923.3, 128187.77, 0.0008513687, 9.997911, 10.001863 
1.1649097e+3, 1.4488903e+2, -1697154.6, -1395882.3, 63767.184, 0.099524915, -0.008435021, -1382941.3, 137146.34, 0.00027198074, 9.997839, 10.001857 
1.16492994e+3, 1.5489243e+2, -1733391.0, -1363297.6, -7940.1133, 0.10398589, 0.111643024, -1363127.4, 58927.227, 0.00003101119, 9.996932, 10.0018425 
1.164948e+3, 1.6489388e+2, -1672248.4, -1355264.0, -90458.62, 0.015391884, 0.11205663, -1331266.4, -7227.107, 0.00000004774233, 9.996997, 10.001196 
1.1649645e+3, 1.748931e+2, -1406864.5, -1178499.0, -74809.93, -0.12152489, -0.11033055, -1156174.5, 69869.47, 0.0, 9.998152, 10.001183 
1.1649828e+3, 1.8489371e+2, -1246086.4, -1189911.8, 22262.684, -0.14503995, -0.096664496, -1182158.9, -54120.418, 0.0, 9.999168, 9.999943 
1.165003e+3, 1.948955e+2, -1009000.2, -1020663.75, 8864.56, -0.078820154, 0.05755667, -1004221.1, 25803.623, 0.0, 10.000114, 9.999973 
1.1650231e+3, 2.0489582e+2, -941636.75, -1039995.3, 11240.715, -0.0018515686, 0.14613399, -940368.44, -8344.464, 0.0, 10.000348, 9.999052 
1.1650432e+3, 2.1489435e+2, -916290.9, -972428.9, -2584.6099, 0.09270986, 0.060549214, -916172.1, -82132.63, 0.0, 9.999837, 9.999087 
1.1650625e+3, 2.2489335e+2, -809592.5, -833570.1, 28605.725, 0.08344402, 0.042220898, -790564.9, -54516.035, 0.0, 9.999729, 9.999428 
1.16508104e+3, 2.3489249e+2, -666999.7, -712268.1, 9773.596, -0.025797559, -0.014854856, -664979.7, -26924.469, 0.0, 10.000028, 9.999445 
1.1650996e+3, 2.4489155e+2, -511583.16, -671092.9, -57664.42, -0.032427344, -0.006701839, -492920.44, 47142.758, 0.0, 10.000778, 9.998688 
1.1651181e+3, 2.5489032e+2, -239224.27, -489772.28, -66187.43, 0.061380103, -0.028319206, -222814.28, 219260.66, 0.0, 10.001983, 9.99868 
1.1651371e+3, 2.6488918e+2, -105870.305, -402584.9, 28152.19, 0.08690304, 0.010143525, -103222.86, 240863.81, 0.00000056359414, 10.002353, 9.9984255 
1.1651566e+3, 2.748879e+2, -83341.625, -336729.8, -16333.818, 0.04362944, 0.008736967, -82293.055, 163807.61, 0.00000928475, 10.00182, 9.998463 
1.16517626e+3, 2.8488663e+2, -49123.914, -306991.56, 9970.639, 0.02102185, 0.058087382, -48738.965, 99374.734, 0.000050789153, 10.001521, 9.998144 
1.1651963e+3, 2.9488504e+2, 25011.666, -220587.22, 56507.465, 0.027208868, 0.05000751, 37389.133, 87518.086, 0.00017624088, 10.001368, 9.99813 
1.1652147e+3, 3.0488324e+2, 173625.06, -76627.39, 32589.66, -0.023733297, 0.046974596, 177799.5, 177799.5, 0.0004642717, 10.001855, 9.998561 
1.1652322e+3, 3.1488135e+2, 312058.5, 49649.82, 33319.625, -0.09372609, -0.03221767, 316223.22, 316223.22, 0.0009430786, 10.002485, 9.999129 
1.17487095e+3, 1.24867216e+2, -2060678.4, -1735524.3, -99759.94, 0.17557237, -0.02108202, -1707357.1, 8942.869, 0.0018234614, 9.996981, 10.001277 
1.1748851e+3, 1.3486867e+2, -1820805.1, -1560358.1, 28459.22, -0.22309501, -0.033892196, -1557284.6, 60999.953, 0.0009506097, 9.997932, 10.001373 
1.1749055e+3, 1.4486945e+2, -1771761.8, -1547478.6, 15675.125, -0.13571967, -0.05965558, -1546388.4, -26111.098, 0.00031097958, 9.9978285, 10.000818 
1.1749271e+3, 1.5487027e+2, -1813659.8, -1527294.9, -26843.768, 0.096273474, -0.087989524, -1524800.3, -102529.25, 0.00003785508, 9.996917, 10.000725 
1.17494605e+3, 1.6487172e+2, -1627724.6, -1251544.0, -64069.234, 0.09017718, -0.06557151, -1240931.4, 83324.94, 0.00000010132158, 9.996951, 10.001925 
1.17496304e+3, 1.7487375e+2, -1357283.6, -1064413.5, -16563.475, -0.09765124, -0.09095949, -1063479.8, 162753.61, 0.0, 9.998102, 10.001988 
1.1749826e+3, 1.8487519e+2, -1251362.9, -1186646.0, 40897.777, -0.110043526, -0.038802586, -1166853.8, -38634.82, 0.0, 9.999108, 9.999995 
1.1750046e+3, 1.9487566e+2, -1021191.0, -1025673.0, 60878.445, 0.04367338, -0.019177508, -962512.3, 67704.57, 0.0, 10.00002, 9.9999895 
1.1750243e+3, 2.0487529e+2, -956690.2, -1040920.5, -23249.164, 0.061751295, -0.003622715, -950699.1, -18476.479, 0.0, 10.00022, 9.999105 
1.175042e+3, 2.1487376e+2, -938322.9, -980921.8, -9657.6045, -0.03926427, -0.09815228, -936235.7, -101996.66, 0.0, 9.999668, 9.999114 
1.1750613e+3, 2.248735e+2, -849842.4, -871641.25, 22430.555, -0.03483339, -0.03432641, -835803.4, -99560.77, 0.0, 9.9995365, 9.999258 
1.17508225e+3, 2.3487434e+2, -703677.44, -743666.3, 35824.918, 0.075328775, 0.093951836, -682645.06, -44410.35, 0.0, 9.999841, 9.999315 
1.1751019e+3, 2.4487358e+2, -528010.0, -665666.0, -25934.195, 0.10245277, 0.11877822, -523286.16, 16954.928, 0.0, 10.000602, 9.998816 
1.1751201e+3, 2.5487086e+2, -244295.95, -467883.84, -6982.7744, 0.04434371, -0.070694424, -244078.1, 198186.94, 0.0, 10.00184, 9.998899 
1.17513865e+3, 2.648691e+2, -182301.3, -527775.0, -5901.583, -0.014657117, -0.068865485, -182200.52, 162082.34, 0.0000005132723, 10.002207, 9.9976425 
1.1751572e+3, 2.7486795e+2, -154814.52, -464463.25, -17683.764, -0.10213503, 0.025560092, -153807.88, 92489.875, 0.000009286575, 10.001726, 9.997636 
1.1751771e+3, 2.8486693e+2, 44136.53, -87383.13, -7157.127, -0.06784414, 0.07132107, 44524.867, 192831.67, 0.000051726838, 10.001411, 9.999704 
1.1751987e+3, 2.9486594e+2, 138187.03, 24974.756, 67033.336, 0.10811881, -0.04787737, 169317.56, 219629.0, 0.00018255804, 10.0013075, 9.999849 
1.1752178e+3, 3.0486476e+2, 127572.625, -134723.94, 47574.23, 0.0730258, -0.060714837, 135934.84, 135934.84, 0.00047999644, 10.001713, 9.998224 
1.175234e+3, 3.148648e+2, 267718.1, 6011.8115, 97029.2, -0.22033398, 0.09157289, 299767.4, 299767.4, 0.0009686636, 10.002292, 9.998916 
1.18486755e+3, 1.248489e+2, -1991235.8, -1746598.8, -48521.29, 0.1238243, -0.052634217, -1737326.4, -20847.783, 0.0020081834, 9.997611, 10.00091 
1.1848844e+3, 1.3485064e+2, -1850829.3, -1644968.9, 20845.209, -0.08216532, 0.016745167, -1642879.3, -24417.541, 0.0010574218, 9.998, 10.000768 
1.1849037e+3, 1.4485067e+2, -1725477.1, -1551501.3, 36650.68, -0.115860105, -0.039645053, -1544095.5, -23634.016, 0.00035351914, 9.998257, 10.000585 
1.1849243e+3, 1.548503e+2, -1578150.8, -1431941.0, 21758.604, 0.055034876, -0.16674592, -1428771.6, -6306.0225, 0.00004562391, 9.998626, 10.000553 
1.1849436e+3, 1.6485164e+2, -1377226.6, -1177313.0, 47919.836, 0.06616056, -0.1268582, -1166420.0, 158032.55, 0.00000019883093, 9.99886, 10.001525 
1.184962e+3, 1.7485462e+2, -1251529.4, -1052970.6, -23306.947, -0.046920158, -0.020024076, -1050271.5, 176151.61, 0.0, 9.999001, 10.001633 
1.1849823e+3, 1.8485615e+2, -1251177.9, -1169571.9, 12866.526, -0.042857192, 0.052547403, -1167591.4, -39183.0, 0.0, 9.999041, 10.000142 
1.1850043e+3, 1.9485581e+2, -1152798.3, -1067688.3, 8535.669, 0.06448992, -0.02564442, -1066840.8, -36427.965, 0.0, 9.99903, 10.000172 
1.18502416e+3, 2.0485547e+2, -1038431.1, -1043566.1, -37406.145, 0.070707835, -0.031640552, -1003504.44, -71087.31, 0.0, 9.999494, 9.99945 
1.18504226e+3, 2.1485484e+2, -795416.5, -867310.44, -24697.53, -0.007091177, -0.06953669, -787749.8, 46674.62, 0.0, 10.000464, 9.999513 
1.18506186e+3, 2.2485471e+2, -622779.6, -784732.25, 53351.81, 0.0006620485, -0.002805942, -606783.9, 129642.586, 0.0, 10.001191, 9.999056 
1.185083e+3, 2.3485479e+2, -457152.13, -649929.44, 29339.105, 0.08607538, 0.06871964, -452785.84, 185640.23, 0.0, 10.001634, 9.999097 
1.1851031e+3, 2.4485388e+2, -397118.06, -624997.7, -19480.574, 0.113448456, 0.099916875, -395464.75, 144970.0, 0.0, 10.001608, 9.998609 
1.185122e+3, 2.5485164e+2, -364021.6, -557420.44, -57242.49, 0.082809575, -0.013573806, -348348.94, 94107.05, 0.0, 10.001155, 9.998622 
1.18514076e+3, 2.6484987e+2, -307581.53, -531034.5, -17281.9, 0.04051934, -0.017722217, -306252.88, 38220.117, 0.0000005059796, 10.001111, 9.998143 
1.1851593e+3, 2.748484e+2, -158618.67, -412703.94, 29878.973, -0.03873019, -0.011140414, -155152.36, 91335.97, 0.000009353779, 10.001473, 9.998113 
1.185179e+3, 2.8484732e+2, 18365.098, -123156.336, 45579.47, -0.01372343, 0.01414951, 31774.252, 180271.28, 0.000051580555, 10.00135, 9.999479 
1.1852002e+3, 2.9484662e+2, 31628.69, -55829.574, -44621.27, 0.1533522, -0.04291101, 50375.91, 100875.85, 0.00018437536, 10.000714, 9.999575 
1.1852196e+3, 3.0484512e+2, 48590.65, -154201.47, -46861.926, 0.12451231, -0.0864552, 58895.984, 58895.984, 0.0004810056, 10.001069, 9.998406 
1.1852368e+3, 3.1484497e+2, 257297.94, 21553.91, -10311.189, -0.14692158, 0.027832549, 257748.08, 257748.08, 0.0009623852, 10.002106, 9.999118 
1.19486265e+3, 1.24831036e+2, -2002012.8, -1770623.9, -14011.698, -0.19207612, -0.029981721, -1769778.5, -53123.4, 0.0022081332, 9.99762, 10.000732 
1.1948846e+3, 1.348325e+2, -1891539.6, -1731150.5, 44339.55, 0.12285647, 0.06768533, -1719709.0, -101065.83, 0.0011730703, 9.997996, 10.000176 
1.1949037e+3, 1.4483267e+2, -1687701.4, -1470508.1, 32294.053, 0.017070414, 0.026690286, -1465808.0, 54832.88, 0.00040013902, 9.998247, 10.001145 
1.19492136e+3, 1.5483265e+2, -1528904.1, -1343027.6, 50939.098, -0.13247588, -0.12489984, -1329983.3, 92653.54, 0.00005450229, 9.998672, 10.001144 
1.1949403e+3, 1.6483375e+2, -1477000.1, -1390152.3, 34326.71, -0.1814597, -0.0655511, -1378223.1, -53596.664, 0.00000035173326, 9.998881, 10.000056 
1.1949609e+3, 1.7483582e+2, -1364132.5, -1281632.1, -6293.2983, -0.079979785, 0.102303214, -1281154.9, -54542.813, 0.0, 9.998971, 10.000083 
1.1949814e+3, 1.8483663e+2, -1245702.3, -1144630.8, -2979.3625, -0.06190887, 0.17172247, -1144543.0, -15936.407, 0.0, 9.998986, 10.000338 
1.1950016e+3, 1.948359e+2, -1153207.1, -1044599.25, 21318.818, -0.1319062, 0.033372913, -1040564.44, -9951.658, 0.0, 9.998923, 10.000385 
1.19502224e+3, 2.0483631e+2, -1007895.5, -947558.4, -18643.654, -0.09444043, 0.055330038, -942262.5, -9654.224, 0.0, 9.999357, 10.000171 
1.1950437e+3, 2.1483761e+2, -771591.5, -775451.94, 24517.268, 0.06930202, 0.13741247, -748928.6, 85666.59, 0.0, 10.000281, 10.000231 
1.195064e+3, 2.2483696e+2, -671662.56, -841499.44, 53931.832, 0.071279526, 0.1298964, -655983.9, 80616.68, 0.0, 10.001, 9.998756 
1.195083e+3, 2.3483396e+2, -506300.97, -705850.6, 56712.957, -0.09885847, -0.078958385, -491309.2, 147318.72, 0.0, 10.00144, 9.998801 
1.1951026e+3, 2.4483259e+2, -465456.63, -727262.8, -52210.477, -0.108866215, -0.046384517, -455428.7, 85214.08, 0.0, 10.001431, 9.997997 
1.1951229e+3, 2.5483277e+2, -429621.25, -652479.25, -59243.727, 0.048600126, 0.14137548, -414851.06, 27795.807, 0.0, 10.000981, 9.998051 
1.19514294e+3, 2.6483172e+2, -221791.98, -317412.13, -16951.13, 0.124530405, 0.15988001, -218875.89, 125780.23, 0.0000006389743, 10.000954, 9.99969 
1.19516246e+3, 2.7482915e+2, -60103.37, -177818.28, 57559.727, 0.10874192, -0.101265065, -36636.332, 210036.75, 0.000009301616, 10.0013485, 9.999785 
1.1951815e+3, 2.8482777e+2, -128655.62, -411821.56, 8338.955, 0.0775371, -0.101668686, -128410.26, 20274.11, 0.00005191434, 10.001269, 9.997541 
1.1951999e+3, 2.948272e+2, -116663.87, -357724.4, -45129.574, 0.033064667, 0.049592104, -108492.06, -57798.137, 0.00018470343, 10.000673, 9.997527 
1.19521976e+3, 3.048244e+2, 61786.316, -94358.61, -11569.708, 0.008589867, -0.03331439, 62638.93, 62638.93, 0.0004730737, 10.000942, 9.998872 
1.19523965e+3, 3.14822e+2, 258138.58, 83158.74, 79979.164, -0.128217, -0.20389207, 289186.22, 289186.22, 0.0009339275, 10.001856, 9.999657 
1.20485984e+3, 1.2481223e+2, -2038236.4, -1786594.0, -4798.2495, -0.20703557, 0.04268919, -1786502.6, -69660.47, 0.0024257244, 9.997377, 10.0007515 
1.2048827e+3, 1.3481283e+2, -1864454.3, -1710163.3, -15350.283, 0.12520634, 0.055742275, -1708651.0, -89812.37, 0.0012988481, 9.998166, 10.0002365 
1.204902e+3, 1.4481345e+2, -1681443.6, -1466062.1, -2107.124, 0.029245244, 0.056807112, -1466041.5, 54790.06, 0.00045139206, 9.998272, 10.001168 
1.2049198e+3, 1.548143e+2, -1625145.8, -1382679.3, -64593.17, -0.10920114, -0.0132177705, -1366545.3, 56273.516, 0.00006471426, 9.997981, 10.001205 
1.2049391e+3, 1.6481517e+2, -1602438.1, -1488110.6, -12800.102, -0.14239806, 0.036233664, -1486695.0, -161884.72, 0.00000057087306, 9.998193, 9.999705 
1.20496035e+3, 1.7481573e+2, -1371465.6, -1319130.1, 5369.728, -0.038051847, 0.08971185, -1318584.9, -91775.05, 0.0, 9.999085, 9.999757 
1.2049807e+3, 1.8481596e+2, -1190197.5, -1120364.4, 53061.445, -0.035630964, 0.11851452, -1091761.8, 37047.27, 0.0, 9.999378, 10.000313 
1.20500036e+3, 1.9481559e+2, -1131385.0, -1029208.25, 33717.883, -0.14434563, 0.013184064, -1019084.5, 11726.056, 0.0, 9.999061, 10.000414 
1.2050214e+3, 2.0481616e+2, -1015649.2, -963892.06, 27559.367, -0.10718723, 0.053235285, -951965.6, -19161.088, 0.0, 9.999347, 10.000062 
1.2050441e+3, 2.1481735e+2, -772898.56, -791095.6, -21808.271, 0.09290798, 0.13474654, -758366.94, 76427.18, 0.0, 10.000316, 10.000111 
1.205065e+3, 2.2481678e+2, -700335.06, -849682.44, -10256.914, 0.110080004, 0.14101729, -699633.94, 37165.45, 0.0, 10.000778, 9.998812 
1.2050843e+3, 2.3481412e+2, -610376.5, -750714.44, -7695.7935, -0.06227641, -0.03519955, -609955.75, 28867.82, 0.0, 10.000703, 9.998853 
1.2051039e+3, 2.4481285e+2, -578537.7, -760188.44, -69249.78, -0.08322916, -0.0060091084, -555149.3, -14311.864, 0.0, 10.000571, 9.998172 
1.20512344e+3, 2.5481272e+2, -507659.6, -673351.94, -51908.793, 0.036064263, 0.13352221, -492740.7, -49896.61, 0.00000000020898414, 10.00037, 9.998196 
1.2051434e+3, 2.648118e+2, -287984.88, -340148.25, 20305.201, 0.120544516, 0.15615794, -281012.72, 63839.414, 0.00000074892756, 10.000455, 9.99977 
1.20516405e+3, 2.7480996e+2, -126909.41, -203471.16, -44518.285, 0.1717892, -0.041051004, -106476.54, 140386.95, 0.000009032264, 10.000847, 9.999848 
1.2051835e+3, 2.8480873e+2, -80019.3, -382031.53, -62084.58, 0.1399093, -0.035341892, -67754.65, 81118.85, 0.000052136886, 10.001588, 9.997588 
1.20520145e+3, 2.9480767e+2, 163896.64, -215572.1, -9988.598, 0.016916312, 0.06916779, 164159.39, 215045.31, 0.0001849306, 10.002596, 9.997568 
1.2052214e+3, 3.0480465e+2, 259127.63, -18363.81, 84943.875, 0.030557185, -0.034209184, 283065.13, 283065.13, 0.0004665325, 10.002388, 9.998691 
1.2052423e+3, 3.1480262e+2, 42527.92, -11995.72, 72798.96, 0.037878018, -0.14954458, 93002.164, 93002.164, 0.00090606173, 10.000375, 9.999697 
1.21486e+3, 1.2479228e+2, -2036236.4, -1755500.5, 55298.914, 0.0100575555, 0.14256625, -1745000.5, -27958.383, 0.0026624324, 9.997299, 10.000989 
1.214878e+3, 1.3479167e+2, -1824009.4, -1621687.8, 20619.488, -0.18677813, -0.02128503, -1619607.8, -560.70496, 0.0014356553, 9.9981575, 10.000849 
1.2148982e+3, 1.4479311e+2, -1711113.0, -1525192.0, -32839.574, -0.20909062, 0.047586095, -1519562.0, 1470.482, 0.0005075534, 9.998266, 10.000763 
1.2149193e+3, 1.5479526e+2, -1662600.8, -1458471.4, -60241.234, 0.013739748, 0.15478873, -1442019.4, -19007.844, 0.000076397075, 9.997967, 10.000697 
1.2149397e+3, 1.6479579e+2, -1551148.4, -1374196.0, 4490.2974, 0.06376922, 0.15984942, -1374082.1, -49077.13, 0.0000008702971, 9.998169, 10.000492 
1.21495984e+3, 1.7479439e+2, -1322488.0, -1206532.9, 52384.28, -0.027057376, -0.06310442, -1186372.8, 40643.555, 0.0, 9.999039, 10.000552 
1.21497996e+3, 1.8479417e+2, -1204179.9, -1140493.6, 25611.764, -0.08086861, -0.11379324, -1131471.8, -2456.0198, 0.0, 9.99934, 10.000194 
1.21500015e+3, 1.9479495e+2, -1157490.8, -1060941.1, 34574.742, -0.09496738, -0.089249544, -1049836.9, -18831.555, 0.0, 9.99896, 10.000248 
1.21502124e+3, 2.0479508e+2, -1103726.1, -1112615.1, 46222.547, -0.08546484, -0.0371514, -1061734.9, -128729.41, 0.0, 9.999204, 9.999107 
1.2150432e+3, 2.1479422e+2, -869889.1, -941963.7, 26518.205, -0.049588323, -0.06670341, -861183.75, -26164.242, 0.0, 10.0001, 9.999175 
1.21506505e+3, 2.2479436e+2, -701564.3, -808720.9, -28265.86, 0.006616864, 0.037466373, -694565.5, 42455.957, 0.0, 10.000584, 9.999191 
1.2150868e+3, 2.3479536e+2, -604391.25, -699944.3, 3745.3042, 0.08489159, 0.18718646, -604244.7, 34767.48, 0.0, 10.000531, 9.999286 
1.2151062e+3, 2.4479464e+2, -551878.7, -654459.25, -88927.336, 0.0660279, 0.20635372, -500510.47, 40508.48, 0.0, 10.000358, 9.998998 
1.215123e+3, 2.5479168e+2, -470122.53, -561811.5, -46438.902, -0.059014387, -0.022930378, -450711.44, -7665.029, 0.00000000018849695, 10.000227, 9.999028 
1.2151422e+3, 2.6479048e+2, -397903.56, -540556.4, 20587.148, -0.073612, -0.011187993, -394991.94, -49932.625, 0.00000061447383, 10.000329, 9.998459 
1.21516384e+3, 2.7479082e+2, -234379.6, -405965.78, -12303.096, 0.035435617, 0.15081495, -233501.92, 13557.434, 0.000008322687, 10.000748, 9.99851 
1.2151843e+3, 2.8479013e+2, 11627.209, -144197.05, -35382.555, 0.049672708, 0.19903986, 19285.08, 168349.44, 0.000050710027, 10.001397, 9.99931 
1.21520385e+3, 2.947881e+2, 270538.97, 41592.023, 48235.984, -0.028790282, 0.021887772, 280286.63, 331363.2, 0.00018357177, 10.002447, 9.999404 
1.2152245e+3, 3.0478558e+2, 176967.14, -156026.0, 251.30057, 0.07013586, -0.07974531, 176967.33, 176967.33, 0.00046227945, 10.002251, 9.997814 
1.21524386e+3, 3.1478602e+2, -3922.552, -84579.01, 33356.227, 0.10708732, 0.14495264, 8084.713, 8084.713, 0.00088881893, 10.000277, 9.999247 
1.2248582e+3, 1.2477115e+2, -1922152.6, -1695392.4, 105772.46, 0.09291522, 0.13884187, -1653714.9, 63534.17, 0.0029179724, 9.998008, 10.00108 
1.2248755e+3, 1.3477145e+2, -1787918.8, -1548060.0, 7372.52, -0.2289818, 0.016648887, -1547833.6, 71410.75, 0.0015834377, 9.99815, 10.001366 
1.2248971e+3, 1.4477295e+2, -1743040.3, -1568370.1, -28166.023, -0.12765151, 0.07836348, -1563940.5, -42710.887, 0.00056846405, 9.998176, 10.000505 
1.2249182e+3, 1.5477425e+2, -1612737.5, -1452599.8, -75863.984, 0.08741137, 0.119787194, -1422367.4, 851.4648, 0.00008951281, 9.998415, 10.000502 
1.2249387e+3, 1.647747e+2, -1449643.3, -1301859.9, 41525.77, 0.13057871, 0.11380268, -1290991.0, 34222.223, 0.0000012652538, 9.998732, 10.000742 
1.2249592e+3, 1.7477408e+2, -1285131.6, -1156275.5, 24884.19, 0.020592328, -0.05805647, -1151637.0, 75578.055, 0.0, 9.999136, 10.000865 
1.2249796e+3, 1.8477407e+2, -1207572.6, -1148600.3, -20516.443, -0.04028975, -0.10068868, -1142164.8, -12953.549, 0.0, 9.999331, 10.000152 
1.22499965e+3, 1.947744e+2, -1097339.1, -1038257.7, -36750.31, -0.056098178, -0.115914695, -1020647.2, 10557.869, 0.0, 9.999393, 10.000204 
1.2250207e+3, 2.0477425e+2, -1051744.8, -1110169.6, 67808.5, -0.05807309, -0.0774596, -1007123.9, -73916.17, 0.0, 9.999661, 9.998904 
1.2250432e+3, 2.1477339e+2, -884130.3, -971567.75, 76473.0, -0.045398034, -0.085449316, -839761.3, -4539.2124, 0.0, 10.000113, 9.998964 
1.22506544e+3, 2.2477353e+2, -751112.56, -820036.8, 36262.16, 0.021229843, 0.02284443, -735548.9, 1675.5217, 0.0, 10.000184, 9.999305 
1.2250874e+3, 2.3477443e+2, -701129.6, -737109.94, 9947.823, 0.13922784, 0.15197614, -698562.44, -59346.086, 0.0, 9.999819, 9.999378 
1.22510694e+3, 2.4477379e+2, -554139.7, -624602.06, -57767.99, 0.13086376, 0.16262145, -521707.16, 19514.262, 0.0, 10.000191, 9.999293 
1.22512415e+3, 2.5477126e+2, -280861.8, -433631.4, -78829.48, -0.015894389, -0.054977503, -247479.94, 195763.02, 0.0, 10.0013685, 9.99936 
1.2251435e+3, 2.6477012e+2, -207534.89, -502782.4, 7580.223, -0.04708785, -0.02815832, -207340.4, 137915.19, 0.0000003685213, 10.00189, 9.997953 
1.22516505e+3, 2.7477014e+2, -147407.53, -418654.75, -1394.2257, 0.03643077, 0.15278582, -147400.36, 99861.57, 0.0000073761885, 10.001619, 9.997982 
1.22518554e+3, 2.8476945e+2, 31155.31, -80091.93, -3246.0059, 0.050623566, 0.1997689, 31249.943, 180517.36, 0.000049087277, 10.001264, 9.999822 
1.22520566e+3, 2.9476777e+2, 45226.234, -13182.556, -36687.55, 0.0085508805, 0.0068313326, 62913.98, 114187.34, 0.00018153466, 10.000643, 9.999908 
1.2252269e+3, 3.0476546e+2, 38284.87, -289557.94, -83197.03, 0.1360718, -0.070078224, 58189.4, 58189.4, 0.00045750884, 10.001585, 9.997209 
1.2252467e+3, 3.147651e+2, 502055.5, 115695.67, -92801.74, 0.18182214, 0.14121331, 523189.94, 523189.94, 0.0008771935, 10.003902, 9.998884 
1.234854e+3, 1.2474754e+2, -1905592.4, -1678867.5, -20692.86, -0.19068198, -0.09946572, -1676994.4, 40481.418, 0.0031899144, 9.99807, 10.001163 
1.2348747e+3, 1.3475217e+2, -1749859.0, -1479898.4, 17294.73, -0.1450859, 0.1589849, -1478795.0, 140635.8, 0.0017411282, 9.998175, 10.001824 
1.23489834e+3, 1.4475295e+2, -1745591.8, -1581209.4, -37373.332, 0.13527149, 0.12878959, -1573111.3, -51687.65, 0.0006337289, 9.998201, 10.000411 
1.234916e+3, 1.5475112e+2, -1616187.9, -1469023.9, -56859.51, -0.00024786193, -0.12485116, -1449614.9, -26172.936, 0.00010392506, 9.998436, 10.00039 
1.2349358e+3, 1.6475172e+2, -1452745.9, -1311609.6, 35461.64, -0.062608905, -0.108521424, -1303200.6, 22235.61, 0.0000017603737, 9.998744, 10.000666 
1.23495825e+3, 1.747548e+2, -1294158.3, -1174712.3, 50597.992, -0.016487712, 0.09665335, -1156160.1, 71245.93, 0.0, 9.999124, 10.000748 
1.23497926e+3, 1.8475567e+2, -1217201.4, -1156807.0, -33049.023, -0.03686154, 0.14913918, -1142236.9, -12841.194, 0.0, 9.999282, 10.000119 
1.2349984e+3, 1.9475387e+2, -1112371.0, -1047678.44, -20732.627, -0.14223833, -0.07378378, -1041604.4, -10194.614, 0.0, 9.999295, 10.000188 
1.23501986e+3, 2.0475364e+2, -1036646.06, -1040633.94, 66218.33, -0.13440822, -0.072752394, -972391.7, -38980.24, 0.0, 9.9995, 9.999458 
1.2350439e+3, 2.1475483e+2, -871103.6, -904677.6, 106715.56, -0.003006889, 0.06950502, -779862.75, 55539.27, 0.0, 9.999936, 9.999511 
1.23506606e+3, 2.2475426e+2, -793115.1, -865855.4, 9817.906, 0.04211255, 0.09060617, -791813.25, -54404.83, 0.0, 10.000001, 9.999083 
1.23508595e+3, 2.3475143e+2, -743817.5, -787086.5, 13034.806, -0.007330069, -0.13023227, -740194.2, -100759.086, 0.0, 9.999646, 9.999123 
1.235106e+3, 2.4475047e+2, -592286.1, -660432.6, -28174.219, -0.014195954, -0.12957895, -582146.56, -40702.87, 0.0, 10.000006, 9.999136 
1.2351263e+3, 2.5475138e+2, -311192.06, -463826.22, -19533.205, 0.04094028, 0.011981991, -308731.97, 134702.5, 0.0, 10.001219, 9.999229 
1.2351468e+3, 2.647507e+2, -226922.84, -496538.0, -13715.875, 0.071798995, 0.08458053, -226226.89, 119215.2, 0.00000016286783, 10.001695, 9.998091 
1.2351671e+3, 2.74748e+2, -158438.69, -409723.7, 5875.5317, 0.059012417, -0.025700469, -158301.38, 89170.05, 0.000006622681, 10.001483, 9.99811 
1.2351869e+3, 2.8474665e+2, -27520.313, -168416.61, -36817.383, 0.021331383, -0.019564617, -18479.71, 131003.1, 0.000048750662, 10.001126, 9.999281 
1.2352063e+3, 2.9474658e+2, -6055.7153, -101371.555, -38402.313, -0.020702345, 0.0047671064, 7491.0625, 58968.145, 0.00018217463, 10.00056, 9.999347 
1.23522826e+3, 3.0474424e+2, -13323.774, -366516.9, -4031.3987, 0.084031835, -0.024679616, -13277.766, -13277.766, 0.00045752534, 10.001458, 9.996739 
1.23524964e+3, 3.1474018e+2, 436131.47, 49081.74, 26192.764, 0.030017419, -0.14285636, 437895.97, 437895.97, 0.000874485, 10.00361, 9.998562 
1.2448523e+3, 1.2472608e+2, -1933100.1, -1680157.3, -15693.952, -0.15632175, -0.1714283, -1679187.3, 38495.195, 0.003475539, 9.99787, 10.0012245 
1.2448732e+3, 1.3473095e+2, -1821668.6, -1541707.6, -7565.7886, -0.09116428, 0.13378154, -1541503.4, 78132.805, 0.0019075654, 9.997805, 10.0015745 
1.2448967e+3, 1.4473134e+2, -1748044.5, -1544649.3, -25041.658, 0.174957, 0.060070924, -1541611.5, -19978.527, 0.0007030745, 9.998017, 10.000753 
1.2449143e+3, 1.5473036e+2, -1546856.8, -1402414.6, -41499.98, -0.01541156, -0.14255494, -1391340.3, 32301.883, 0.00011956255, 9.998752, 10.000707 
1.24493435e+3, 1.6473128e+2, -1420001.3, -1312051.5, 83592.82, -0.09161066, -0.10281368, -1266522.4, 59111.207, 0.0000023468863, 9.999057, 10.000503 
1.2449573e+3, 1.7473409e+2, -1317199.3, -1203955.3, 59588.22, -0.011275297, 0.09550283, -1178377.5, 49229.926, 0.0, 9.9990635, 10.000565 
1.2449789e+3, 1.8473491e+2, -1226844.1, -1189276.4, -5074.7783, 0.0032875135, 0.16349956, -1188603.0, -59003.645, 0.0, 9.99934, 9.999861 
1.24499865e+3, 1.9473325e+2, -1041497.5, -1045467.56, -36882.375, -0.068041876, -0.020583183, -1006546.75, 25067.076, 0.0, 9.999916, 9.999903 
1.24502026e+3, 2.0473292e+2, -947599.25, -980804.6, 45847.652, -0.06646763, -0.020767676, -915440.7, 18175.441, 0.0, 10.000025, 9.999618 
1.24504395e+3, 2.1473384e+2, -912771.06, -901850.75, 26533.78, 0.022235243, 0.07280418, -880221.2, -44613.934, 0.0, 9.999547, 9.999715 
1.2450658e+3, 2.2473307e+2, -832232.5, -864735.06, -34048.223, 0.036032606, 0.05567523, -810756.0, -73142.266, 0.0, 9.999665, 9.999241 
1.2450856e+3, 2.3473012e+2, -612346.4, -700212.06, -30478.746, -0.03348191, -0.19486743, -602809.1, 36831.22, 0.0, 10.000467, 9.99931 
1.2451062e+3, 2.4472922e+2, -468708.16, -631560.1, -12809.371, -0.024086896, -0.18515272, -467706.78, 73941.91, 0.0, 10.000995, 9.998857 
1.24512784e+3, 2.5473037e+2, -337503.25, -507800.28, -44248.51, 0.07695003, 0.012164975, -326692.4, 116946.36, 0.0, 10.001187, 9.998936 
1.2451488e+3, 2.647295e+2, -251243.97, -500693.56, -43265.727, 0.12185044, 0.07706101, -243952.86, 101694.82, 0.000000050542315, 10.001472, 9.998176 
1.245169e+3, 2.7472612e+2, -104236.59, -379810.3, -56932.133, 0.091090314, -0.10533761, -92937.95, 154742.39, 0.0000061370592, 10.00181, 9.998176 
1.2451887e+3, 2.847242e+2, 23715.25, -239008.98, -97800.33, 0.06972006, -0.11713597, 56124.043, 205822.25, 0.000049451548, 10.0019045, 9.998415 
1.2452084e+3, 2.947236e+2, 98426.66, -142504.45, -161101.47, 0.077469386, -0.05704639, 179121.81, 230824.44, 0.00018750013, 10.0017, 9.998499 
1.2452306e+3, 3.0472186e+2, 40985.246, -268351.47, -13956.226, 0.1789773, -0.017885387, 41613.63, 41613.63, 0.000470274, 10.001491, 9.997419 
1.2452522e+3, 3.1471753e+2, 124838.54, -26969.48, 42456.25, 0.066188015, -0.2280365, 135905.52, 135905.52, 0.00089436676, 10.001141, 9.999242 
1.2548508e+3, 1.24707706e+2, -1912435.9, -1653497.5, -117148.97, -0.14846674, -0.0059672277, -1608363.9, 109496.42, 0.0037739007, 9.997923, 10.00139 
1.2548706e+3, 1.3470797e+2, -1889280.3, -1686637.8, 2299.6865, -0.15990494, -0.0624873, -1686611.6, -66752.484, 0.0020822603, 9.997824, 10.000572 
1.254892e+3, 1.4470825e+2, -1692291.8, -1431877.6, -15026.324, -0.13973472, -0.13316302, -1431013.5, 90843.24, 0.0007764397, 9.998026, 10.001522 
1.2549128e+3, 1.5471216e+2, -1486392.0, -1279614.8, 69.36166, -0.08830581, 0.06726109, -1279614.8, 144202.36, 0.00013646827, 9.998761, 10.001543 
1.2549339e+3, 1.6471358e+2, -1446387.3, -1369685.3, 65637.83, -0.066403, 0.13452525, -1332015.6, -6212.997, 0.0000030208696, 9.9990635, 10.000107 
1.2549561e+3, 1.7471208e+2, -1347338.5, -1261974.1, 71166.84, -0.06124798, -0.057616424, -1221671.5, 6146.3228, 0.0, 9.99904, 10.000178 
1.2549782e+3, 1.8471178e+2, -1263196.0, -1255529.9, -173.39337, -0.022813044, -0.06324821, -1255526.0, -125703.805, 0.0, 9.999297, 9.999432 
1.255e+3, 1.9471246e+2, -1083467.6, -1114766.0, -1978.9813, 0.049887475, 0.031647753, -1083343.0, -51525.348, 0.0, 9.999834, 9.999468 
1.2550215e+3, 2.0471215e+2, -986122.1, -1023269.9, 13327.73, 0.03441814, 0.06585219, -981835.2, -48013.7, 0.0, 9.9998665, 9.999406 
1.2550426e+3, 2.1471047e+2, -957535.06, -949255.8, 22483.395, -0.08466637, -0.074884884, -930534.1, -94697.38, 0.0, 9.99935, 9.99949 
1.255064e+3, 2.2470991e+2, -825055.7, -800922.44, -19827.848, -0.12256647, -0.08529229, -789778.1, -51937.707, 0.0, 9.999455, 9.999778 
1.255086e+3, 2.3471035e+2, -599208.0, -632824.75, 13260.258, -0.056568615, -0.054158352, -594607.1, 45226.277, 0.0, 10.00029, 9.99986 
1.2551075e+3, 2.4470992e+2, -523335.22, -701952.8, -19454.055, -0.018112756, -0.0074806185, -521240.94, 20596.023, 0.0, 10.000808, 9.998464 
1.2551282e+3, 2.5470823e+2, -396000.5, -589903.94, -21974.23, -0.016244547, -0.05276623, -393541.44, 50314.035, 0.0, 10.00101, 9.99846 
1.2551491e+3, 2.6470646e+2, -278189.34, -512546.1, -43899.504, -0.010635194, -0.052124158, -270236.03, 75636.586, 0.00000007625481, 10.001284, 9.998183 
1.2551701e+3, 2.7470446e+2, -121331.18, -382228.3, -24823.76, 0.0047460063, -0.1028501, -118990.266, 128899.79, 0.0000061507535, 10.001665, 9.998229 
1.2551908e+3, 2.847021e+2, -79524.11, -429187.4, -114402.49, 0.059514634, -0.10197011, -45420.277, 104493.625, 0.000051588533, 10.001797, 9.997159 
1.2552112e+3, 2.94699e+2, -4665.811, -338374.28, -147419.38, 0.17195092, -0.16696313, 51129.473, 103077.63, 0.00020006, 10.001616, 9.997195 
1.2552334e+3, 3.046983e+2, 149254.9, -25171.922, -35130.6, 0.2918975, -0.03828763, 156064.56, 156064.56, 0.00050364056, 10.001413, 9.999123 
1.2552533e+3, 3.1469694e+2, 194510.7, 163129.08, 63506.98, 0.005121277, -0.13804315, 244236.53, 244236.53, 0.00095293473, 10.000943, 10.000644 
1.2648484e+3, 1.2468614e+2, -2006714.8, -1666614.6, -169821.42, -0.1360646, -0.006549801, -1596339.1, 121733.805, 0.004085261, 9.997142, 10.0017 
1.2648691e+3, 1.3468572e+2, -1925090.8, -1717586.8, -65992.69, -0.056696597, -0.10406549, -1698377.4, -78300.71, 0.0022650692, 9.997667, 10.000431 
1.2648898e+3, 1.446863e+2, -1723447.3, -1447230.0, -34441.06, -0.152717, -0.13778013, -1443000.4, 79070.195, 0.00085386867, 9.997816, 10.001517 
1.2649114e+3, 1.5469027e+2, -1597128.8, -1327886.1, -117499.27, -0.04503461, 0.068710275, -1283820.6, 140210.13, 0.00015477135, 9.998002, 10.00157 
1.2649332e+3, 1.6469152e+2, -1576347.1, -1434363.0, -48317.914, 0.015885804, 0.120686, -1419480.3, -93462.39, 0.0000038088367, 9.998184, 10.000082 
1.2649554e+3, 1.7468958e+2, -1420513.6, -1304485.0, -44751.203, -0.0017039923, -0.11263288, -1289230.4, -61193.63, 0.0, 9.998562, 10.000122 
1.2649778e+3, 1.8468921e+2, -1323799.8, -1282680.6, -49454.973, 0.034580573, -0.12054404, -1249682.0, -119639.88, 0.0, 9.998871, 9.99945 
1.2650001e+3, 1.9469033e+2, -1182201.1, -1158882.1, -49163.758, 0.1260514, 0.018014777, -1120014.3, -87979.445, 0.0, 9.999152, 9.999489 
1.2650216e+3, 2.0469029e+2, -1027248.75, -1022208.4, 10816.718, 0.091500975, 0.06811641, -1013622.1, -79585.58, 0.0, 9.999497, 9.999585 
1.265042e+3, 2.1468864e+2, -864776.25, -883609.25, 17670.654, -0.09536588, -0.09060131, -854169.7, -18118.586, 0.0, 9.999896, 9.99967 
1.2650636e+3, 2.2468834e+2, -730886.2, -755017.06, 17884.754, -0.12628564, -0.08554596, -721377.6, 16674.355, 0.0, 10.000078, 9.999805 
1.265087e+3, 2.3468938e+2, -646145.9, -651330.4, -14291.088, 0.030632239, 0.0053204047, -634213.9, 5825.042, 0.0, 9.999936, 9.99991 
1.2651087e+3, 2.446889e+2, -618621.0, -725571.75, -21868.46, 0.07845844, 0.033314086, -614322.3, -72279.695, 0.0, 10.000043, 9.998677 
1.2651291e+3, 2.5468644e+2, -462121.56, -598315.1, -4604.1924, 0.002419095, -0.10932919, -461966.1, -17898.2, 0.0, 10.000439, 9.998685 
1.2651503e+3, 2.6468474e+2, -312470.1, -525895.6, 40618.35, -0.01135286, -0.11469821, -305001.13, 41083.242, 0.00000015326442, 10.001043, 9.998209 
1.2651722e+3, 2.7468365e+2, -89894.45, -360026.56, 23289.447, 0.046059877, -0.07447499, -87901.266, 160192.27, 0.0000068361555, 10.001861, 9.998281 
1.2651932e+3, 2.8468138e+2, -43306.426, -445644.78, -33390.574, 0.114005, -0.05505101, -40554.13, 109563.37, 0.000055437977, 10.002178, 9.996869 
1.2652135e+3, 2.946775e+2, 47902.47, -347743.25, -29008.92, 0.2152493, -0.16480984, 50018.1, 102178.53, 0.00021969865, 10.002116, 9.996898 
1.2652354e+3, 3.0467698e+2, 254567.58, 31912.834, 85870.98, 0.31908166, -0.0061230203, 283837.53, 283837.53, 0.00055760087, 10.002134, 9.999151 
1.2652549e+3, 3.1467584e+2, 296526.63, 161373.78, -9088.135, 0.027626986, -0.08145793, 297135.0, 297135.0, 0.0010537416, 10.001891, 10.00016 
1.2748443e+3, 1.2466245e+2, -1967929.4, -1598791.0, -67379.89, -0.33057562, -0.06395875, -1586876.5, 131433.77, 0.0044096503, 9.997192, 10.002135 
1.2748687e+3, 1.3466439e+2, -1885422.5, -1636194.3, -42354.668, 0.0963661, 0.011419714, -1629193.0, -8905.957, 0.0024558255, 9.997659, 10.000997 
1.2748893e+3, 1.4466567e+2, -1774285.5, -1561665.6, -45166.99, -0.012751354, 0.060334712, -1552468.6, -30196.203, 0.00093550276, 9.997851, 10.000714 
1.2749103e+3, 1.5466471e+2, -1654313.4, -1452761.0, -98073.99, 0.010928252, -0.1437737, -1412915.9, 11366.904, 0.00017466526, 9.998021, 10.000704 
1.274932e+3, 1.6466494e+2, -1546516.0, -1385031.3, -51684.94, 0.039247926, -0.16603358, -1369905.6, -43624.98, 0.0000047674703, 9.998226, 10.000405 
1.2749548e+3, 1.746665e+2, -1394571.5, -1253222.6, -17659.652, 0.055856284, -0.08557737, -1251049.8, -22784.76, 0.0, 9.998562, 10.000478 
1.274977e+3, 1.846673e+2, -1306181.1, -1230479.1, -52318.46, 0.05376224, -0.012828212, -1203755.3, -73497.07, 0.0, 9.998807, 9.999835 
1.2749988e+3, 1.9466697e+2, -1168088.0, -1108235.9, -23670.355, 0.04232509, -0.063110724, -1100006.3, -67741.95, 0.0, 9.99906, 9.99988 
1.2750202e+3, 2.0466733e+2, -1008263.06, -952645.2, 8916.45, -0.016648863, -0.017366603, -951250.7, -16989.293, 0.0, 9.999365, 10.000128 
1.2750418e+3, 2.1466829e+2, -853210.5, -817208.2, 44338.754, -0.12384215, 0.028209355, -787355.75, 48894.742, 0.0, 9.999708, 10.000219 
1.2750643e+3, 2.246684e+2, -789572.6, -826904.44, -1633.159, -0.086477436, 0.06429202, -789501.3, -51253.766, 0.0, 9.999871, 9.999406 
1.2750879e+3, 2.3466723e+2, -706879.2, -732465.6, -4233.85, 0.110829234, -0.023404887, -706196.8, -65940.234, 0.0, 9.999743, 9.999444 
1.2751098e+3, 2.4466613e+2, -596094.44, -631588.94, -20095.504, 0.14608803, -0.06621378, -587031.3, -44765.62, 0.0, 9.999842, 9.999416 
1.2751298e+3, 2.54665e+2, -427625.2, -487328.94, 26317.402, 0.0049282885, -0.15970679, -417680.8, 26595.121, 0.0, 10.000269, 9.999529 
1.2751515e+3, 2.646643e+2, -339112.1, -540641.25, 56194.41, -0.013235957, -0.10841861, -324502.0, 21780.889, 0.00000020123079, 10.0008745, 9.998185 
1.2751748e+3, 2.746637e+2, -124333.67, -386205.47, 69360.92, 0.092241526, -0.017112158, -107096.88, 141193.7, 0.0000077157165, 10.001674, 9.998188 
1.2751958e+3, 2.846619e+2, -24884.9, -377332.88, -52083.652, 0.11703919, 0.033061277, -17349.26, 132960.64, 0.000060411407, 10.002045, 9.997402 
1.2752144e+3, 2.9465878e+2, 67183.99, -273186.38, -11884.146, 0.075841464, -0.061810017, 67598.42, 119940.78, 0.00024271311, 10.001969, 9.997479 
1.275236e+3, 3.0465752e+2, 125342.586, -218560.2, 69375.75, 0.14357243, 0.07644156, 138810.38, 138810.38, 0.0006224366, 10.002049, 9.997474 
1.275256e+3, 3.1465495e+2, 95082.35, -200858.66, 13579.659, -0.09553743, 0.019647852, 95704.17, 95704.17, 0.0011818967, 10.001667, 9.997768 
1.2848423e+3, 1.2464093e+2, -1872363.1, -1579271.1, 79494.8, -0.26119742, 0.041630138, -1559098.4, 159423.39, 0.0047468157, 9.997932, 10.001909 
1.284866e+3, 1.3464187e+2, -1930901.4, -1619659.9, -40321.566, 0.10989123, -0.016724741, -1614521.0, 5985.354, 0.0026545508, 9.997165, 10.001337 
1.2848876e+3, 1.4464334e+2, -1927072.0, -1668522.9, 28223.05, 0.08250203, 0.040891014, -1665477.9, -142987.7, 0.0010215283, 9.996967, 10.000409 
1.2849088e+3, 1.5464215e+2, -1654704.6, -1485864.3, -14828.356, 0.064608745, -0.14797316, -1484571.8, -60067.395, 0.00019628371, 9.998166, 10.000411 
1.2849309e+3, 1.646424e+2, -1450944.8, -1346313.6, 56702.38, 0.08639544, -0.15167351, -1321479.5, 5024.0317, 0.0000059623408, 9.998906, 10.000351 
1.2849541e+3, 1.7464425e+2, -1306529.6, -1212037.5, 28461.27, 0.1057752, -0.037005655, -1204127.1, 24358.402, 0.0, 9.999178, 10.000462 
1.2849763e+3, 1.8464519e+2, -1236429.0, -1168354.1, -9295.579, 0.08378222, 0.039256793, -1167107.6, -36630.594, 0.0, 9.999171, 10.000086 
1.2849975e+3, 1.9464481e+2, -1161425.1, -1074151.0, -20425.006, 0.017787553, -0.04023357, -1069607.4, -37125.203, 0.0, 9.998985, 10.00015 
1.2850192e+3, 2.0464525e+2, -1047668.94, -967996.25, 29462.186, -0.031282607, -0.0016538178, -958285.06, -23806.889, 0.0, 9.999079, 10.000166 
1.285042e+3, 2.1464638e+2, -883580.7, -825127.2, 263.40787, -0.05992033, 0.058564503, -825126.0, 11340.047, 0.0, 9.999479, 10.0002775 
1.2850647e+3, 2.2464637e+2, -807195.7, -800566.25, -34719.152, -0.013523827, 0.06732966, -769003.94, -30540.63, 0.0, 9.999609, 9.999713 
1.2850875e+3, 2.3464485e+2, -730407.1, -704288.1, -15360.994, 0.11902017, -0.085855626, -697185.5, -56711.766, 0.0, 9.999433, 9.999781 
1.2851095e+3, 2.4464396e+2, -611413.75, -659796.2, 25390.371, 0.14715438, -0.1186304, -600535.25, -58054.137, 0.0, 9.999826, 9.99923 
1.2851308e+3, 2.5464356e+2, -366124.5, -480548.7, -34062.746, 0.06384177, -0.11345144, -356752.1, 87734.52, 0.0, 10.000798, 9.999316 
1.285153e+3, 2.6464313e+2, -277055.94, -500208.88, -26036.914, 0.055342104, -0.031021208, -274058.28, 72434.54, 0.00000014147287, 10.001227, 9.998303 
1.2851763e+3, 2.746423e+2, -198425.72, -405614.78, -28004.291, 0.1217716, 0.02358268, -194707.31, 53795.984, 0.000007879153, 10.001077, 9.998349 
1.2851974e+3, 2.8464082e+2, -93212.41, -353344.22, -108435.07, 0.11720226, 0.07266217, -53940.473, 96578.586, 0.00006527563, 10.001339, 9.997906 
1.2852162e+3, 2.9463834e+2, 116378.19, -190873.27, -110136.48, 0.05453484, -0.006171234, 151778.67, 204322.0, 0.000269289, 10.002048, 9.998008 
1.2852383e+3, 3.0463672e+2, 198980.02, -203942.22, 42174.71, 0.14695181, 0.07414062, 203347.2, 203347.2, 0.00069755525, 10.002629, 9.997313 
1.2852596e+3, 3.1463426e+2, 235738.52, -215802.02, 22557.578, 0.03450144, 0.06054695, 236862.63, 236862.63, 0.0013291562, 10.00293, 9.997088 
1.2948427e+3, 1.246209e+2, -1942120.1, -1715421.4, 12416.966, -0.082794785, 0.21690825, -1714743.4, 3970.1104, 0.0050962004, 9.997919, 10.000974 
1.2948611e+3, 1.3461837e+2, -1935879.9, -1613758.5, -64157.09, -0.12463327, -0.19400965, -1601450.5, 19282.63, 0.0028611089, 9.9971075, 10.001405 
1.2948841e+3, 1.4461921e+2, -1916091.8, -1643549.1, 49217.05, 0.004825948, -0.20545273, -1634933.6, -112209.26, 0.00111182, 9.996958, 10.000585 
1.2949064e+3, 1.5462285e+2, -1644323.5, -1461762.3, 47929.71, -0.000040129, 0.068684354, -1449943.8, -25250.54, 0.000219555, 9.998154, 10.0005865 
1.2949295e+3, 1.6462417e+2, -1477826.9, -1405124.5, 51394.316, 0.022655992, 0.18386054, -1378525.1, -51841.656, 0.0000074533, 9.998916, 9.99994 
1.294953e+3, 1.746229e+2, -1341412.1, -1283657.5, 51420.344, 0.034941062, 0.028977327, -1253560.6, -24863.004, 0.0, 9.999169, 9.999973 
1.294975e+3, 1.8462288e+2, -1235140.9, -1161768.1, -31494.969, 0.003233241, 0.031513482, -1150103.5, -19404.93, 0.0, 9.99915, 10.000143 
1.294996e+3, 1.9462396e+2, -1165104.9, -1067823.3, -15850.16, -0.054017857, 0.08887539, -1065306.0, -32618.197, 0.0, 9.998915, 10.000232 
1.2950182e+3, 2.0462407e+2, -1102565.9, -1044065.75, 28070.91, -0.06532224, 0.11267445, -1032775.2, -98088.766, 0.0, 9.998924, 9.999712 
1.295042e+3, 2.1462288e+2, -947016.94, -908000.3, 27478.762, -0.025122996, -0.0133107845, -893809.1, -57111.082, 0.0, 9.999274, 9.999803 
1.2950644e+3, 2.246223e+2, -774575.0, -681861.9, -54658.07, -0.023793068, -0.08178201, -656549.5, 82149.88, 0.0, 9.99939, 10.000635 
1.2950854e+3, 2.3462228e+2, -687201.1, -572636.8, -5239.125, -0.060149014, -0.18397383, -572397.7, 68292.734, 0.0, 9.999246, 10.000778 
1.2951076e+3, 2.4462233e+2, -726648.56, -841174.25, 44582.145, -0.035676517, -0.119165815, -711340.06, -168650.8, 0.0, 9.999593, 9.998092 
1.2951319e+3, 2.546221e+2, -484637.88, -673867.4, 18326.01, 0.06312666, 0.024141535, -482879.44, -38179.04, 0.0, 10.0005865, 9.998085 
1.2951548e+3, 2.6462126e+2, -278621.3, -473057.28, -43299.543, 0.085622534, 0.11608503, -269414.72, 77299.06, 0.000000052302592, 10.001086, 9.998564 
1.2951764e+3, 2.746196e+2, -198007.1, -366404.5, -16241.019, 0.014860774, 0.05818271, -196455.03, 52274.773, 0.000007172051, 10.00091, 9.998701 
1.2951976e+3, 2.846182e+2, -88451.71, -305586.06, -95966.57, -0.015745409, 0.07488512, -52117.492, 98625.95, 0.00006969282, 10.001172, 9.998312 
1.295218e+3, 2.946165e+2, 113898.38, -150649.95, -63428.66, 0.008212083, 0.029351976, 128319.984, 181079.75, 0.00030090337, 10.001858, 9.998371 
1.2952416e+3, 3.0461472e+2, 262472.16, -52623.7, 40426.332, 0.19480705, 0.024034427, 267576.1, 267576.1, 0.00078645255, 10.002538, 9.998401 
1.2952645e+3, 3.1461424e+2, 268448.3, -93658.82, 58989.26, 0.18259212, 0.085806794, 277815.66, 277815.66, 0.0014985187, 10.002706, 9.998034 
1.304842e+3, 1.2459789e+2, -2314847.5, -1923270.5, -4544.028, 0.19539313, 0.11856991, -1923217.9, -204283.92, 0.0054552136, 9.995493, 10.000717 
1.3048579e+3, 1.3459621e+2, -1773265.5, -1532280.1, -75768.6, -0.19410302, -0.20763125, -1510437.4, 110510.43, 0.003073975, 9.998216, 10.001431 
1.304882e+3, 1.4459677e+2, -1575418.6, -1478675.9, 57572.13, 0.0035209267, -0.24882513, -1451851.9, 71090.82, 0.0012055306, 9.999281, 10.000591 
1.3049051e+3, 1.5460068e+2, -1505803.5, -1388868.1, 16309.915, 0.017060047, 0.04612331, -1386635.9, 38272.805, 0.000244213, 9.99908, 10.000627 
1.3049287e+3, 1.6460222e+2, -1488677.0, -1404264.1, 45110.85, 0.054659646, 0.17865711, -1384693.8, -57797.01, 0.000009295233, 9.998846, 9.999973 
1.3049519e+3, 1.7460102e+2, -1395737.6, -1301411.6, 50019.53, 0.046529848, 0.03144657, -1279826.5, -50916.08, 0.0, 9.99879, 10.000027 
1.304974e+3, 1.846009e+2, -1268632.5, -1188646.9, 11288.96, 0.010954743, 0.025354082, -1187084.1, -56171.85, 0.0, 9.998951, 10.000063 
1.304995e+3, 1.9460171e+2, -1111003.1, -1048695.8, -12994.961, -0.04244363, 0.0643556, -1046094.06, -13190.349, 0.0, 9.999312, 10.000173 
1.3050175e+3, 2.0460166e+2, -1039619.75, -1027665.4, 65842.516, -0.042704817, 0.07978956, -967529.3, -32625.19, 0.0, 9.999412, 9.999592 
1.3050415e+3, 2.1460043e+2, -964233.44, -928729.8, 62213.38, 0.012650135, -0.03569855, -881785.2, -44868.953, 0.0, 9.999217, 9.999687 
1.3050643e+3, 2.2459987e+2, -764288.5, -713461.25, -11217.578, 0.023932924, -0.081573464, -711095.6, 27822.904, 0.0, 9.999605, 10.000311 
1.3050856e+3, 2.3459983e+2, -516113.5, -527550.4, -89100.95, -0.01036689, -0.1564536, -432547.7, 208364.13, 0.0, 10.000575, 10.000443 
1.3051082e+3, 2.4459961e+2, -511493.2, -734781.5, -18164.266, -0.011420264, -0.10262555, -510025.2, 32888.14, 0.0, 10.001039, 9.998128 
1.305132e+3, 2.5459892e+2, -426681.06, -642066.6, 22006.855, 0.026464889, -0.013593375, -424455.53, 20471.826, 0.0, 10.000944, 9.998138 
1.3051556e+3, 2.6459795e+2, -263875.8, -453664.13, 21331.87, 0.05922499, 0.06255663, -261507.7, 85432.79, 0.000000026393016, 10.001146, 9.998667 
1.3051784e+3, 2.7459657e+2, -69357.32, -300119.3, -4811.571, 0.07908656, 0.020587645, -69257.04, 179697.39, 0.0000066700077, 10.001759, 9.998759 
1.3051999e+3, 2.8459522e+2, 5228.5425, -287607.1, -84105.84, 0.05620626, 0.05240199, 27665.604, 178633.84, 0.00007506801, 10.001933, 9.998066 
1.3052195e+3, 2.9459345e+2, 76267.914, -201281.88, -133980.36, -0.011621817, 0.028875306, 130389.9, 183376.53, 0.00033560226, 10.001729, 9.998084 
1.3052435e+3, 3.0459103e+2, 259542.73, 2005.2937, -18506.527, 0.15559639, -0.047822975, 260865.8, 260865.8, 0.0008831013, 10.002288, 9.998888 
1.3052689e+3, 3.145918e+2, 456328.97, 73716.95, -113035.71, 0.30764812, 0.09096844, 487227.97, 487227.97, 0.001684596, 10.003665, 9.998726 
1.3148369e+3, 1.2457118e+2, -2273005.3, -1837871.4, -103319.61, 0.07933224, -0.33770105, -1814585.0, -95394.63, 0.005819013, 9.99549, 10.001308 
1.3148563e+3, 1.345755e+2, -1774203.1, -1542043.1, 40459.773, -0.21894494, -0.05422368, -1535194.0, 85954.88, 0.0032902497, 9.998238, 10.00136 
1.3148811e+3, 1.445762e+2, -1573533.8, -1481427.3, 28257.25, -0.07034328, -0.078356095, -1473449.3, 49693.91, 0.0013013786, 9.999321, 10.00055 
1.3149045e+3, 1.5457569e+2, -1516376.1, -1407917.5, 17228.86, 0.012477639, -0.214309, -1405246.5, 19903.727, 0.00026992275, 9.999068, 10.000505 
1.314928e+3, 1.645764e+2, -1453035.3, -1340217.4, 24252.086, 0.07142931, -0.17752382, -1335224.9, -8080.288, 0.00001153221, 9.998874, 10.000404 
1.3149507e+3, 1.7457853e+2, -1358831.5, -1230076.5, 59572.207, 0.037900567, -0.041054875, -1206742.5, 22382.0, 0.0, 9.998796, 10.000518 
1.3149731e+3, 1.8457924e+2, -1289809.6, -1215773.9, 9374.468, -0.011693328, 0.017013058, -1214605.4, -83487.18, 0.0, 9.998887, 9.999902 
1.3149944e+3, 1.9457804e+2, -1139206.5, -1085313.8, 12432.844, -0.063686125, -0.12809294, -1082583.9, -49453.332, 0.0, 9.999219, 9.999965 
1.3150167e+3, 2.04578e+2, -1046704.56, -1009213.4, 46608.234, -0.0795499, -0.10810645, -977722.3, -42591.258, 0.0, 9.999271, 9.999784 
1.3150403e+3, 2.1457912e+2, -973980.44, -915779.5, 70649.36, -0.05071653, -0.009742772, -868472.06, -31351.924, 0.0, 9.999062, 9.999856 
1.315064e+3, 2.2457905e+2, -903279.2, -949032.25, 11470.28, 0.012452155, 0.05916776, -900564.6, -161443.52, 0.0, 9.99939, 9.998793 
1.3150878e+3, 2.3457739e+2, -660053.6, -778234.8, -34784.707, 0.13802634, -0.017866494, -650575.44, -9437.022, 0.0, 10.000372, 9.998819 
1.3151105e+3, 2.445758e+2, -460189.2, -577295.0, -33431.074, 0.08963413, -0.07201651, -451317.47, 91835.61, 0.0, 10.000821, 9.999314 
1.3151313e+3, 2.545742e+2, -365861.75, -466376.72, 33607.84, -0.16217685, -0.20094217, -355660.13, 89505.03, 0.0, 10.000731, 9.999449 
1.3151549e+3, 2.6457343e+2, -299446.84, -485907.4, 29646.645, -0.14434259, -0.17376176, -294846.63, 52325.65, 0.000000066602475, 10.000967, 9.99853 
1.3151814e+3, 2.7457324e+2, -112509.24, -341870.1, 38321.773, 0.18156734, -0.07558633, -106275.82, 142900.6, 0.0000067822207, 10.001567, 9.998557 
1.3152035e+3, 2.845721e+2, -69870.195, -426058.1, -102025.12, 0.20391768, 0.030443965, -42716.535, 108474.55, 0.000081610815, 10.001841, 9.9971695 
1.3152204e+3, 2.9456934e+2, -10688.353, -346846.72, -118423.81, -0.124271214, -0.0034970678, 26840.86, 80063.28, 0.0003693932, 10.001572, 9.997168 
1.3152437e+3, 3.045658e+2, 224611.05, -40138.04, 25696.516, -0.08646501, -0.13021533, 227082.08, 227082.08, 0.00097588636, 10.002163, 9.998653 
1.3152716e+3, 3.14567e+2, 442975.13, 124882.125, -20562.031, 0.17230383, 0.06704456, 444298.78, 444298.78, 0.001864563, 10.0033455, 9.999223 
1.3248342e+3, 1.2454878e+2, -1852138.5, -1607596.5, -69909.54, 0.13918614, -0.36486334, -1589021.6, 130390.04, 0.006183249, 9.99821, 10.001596 
1.3248555e+3, 1.3455357e+2, -1840518.1, -1598112.5, 56080.703, -0.07347587, -0.0072400533, -1585767.0, 35597.45, 0.0035072896, 9.997908, 10.001116 
1.3248795e+3, 1.4455411e+2, -1834318.6, -1640608.4, 20761.773, -0.06931939, -0.023040567, -1638408.1, -115047.76, 0.0013982238, 9.997666, 10.000263 
1.3249032e+3, 1.5455295e+2, -1659764.9, -1508921.6, -29942.21, 0.031483397, -0.1950217, -1503195.5, -77820.74, 0.00029637254, 9.998214, 10.000231 
1.324927e+3, 1.6455337e+2, -1489762.1, -1322266.5, -7662.381, 0.11511656, -0.18803528, -1321916.8, 5454.6646, 0.000014169166, 9.998476, 10.000707 
1.3249499e+3, 1.7455553e+2, -1378730.3, -1207143.5, -15934.53, 0.07864871, -0.079811096, -1205676.3, 23672.316, 0.0, 9.99852, 10.000805 
1.324972e+3, 1.8455626e+2, -1314755.5, -1242326.8, -29331.803, 0.021108475, -0.02690078, -1231938.1, -100596.78, 0.0, 9.998783, 9.999769 
1.3249938e+3, 1.9455512e+2, -1124816.3, -1094599.8, -52306.113, -0.04183126, -0.14924368, -1055263.6, -21908.957, 0.0, 9.999394, 9.999813 
1.3250165e+3, 2.0455518e+2, -968244.94, -950751.25, -14043.43, -0.047995, -0.12091007, -942953.44, -7599.1704, 0.0, 9.999724, 9.999967 
1.3250402e+3, 2.1455646e+2, -866025.6, -836547.2, -15823.328, 0.006208183, -0.028205711, -829661.8, 7678.1113, 0.0, 9.9997015, 10.000085 
1.3250642e+3, 2.2455639e+2, -871955.5, -975397.25, 19935.469, 0.07867911, 0.04711074, -868246.5, -128905.24, 0.0, 9.999787, 9.998424 
1.3250884e+3, 2.3455462e+2, -738490.5, -851693.56, 36839.3, 0.19094682, -0.0025132229, -727557.8, -86195.195, 0.0, 10.000002, 9.998489 
1.3251114e+3, 2.445531e+2, -523938.03, -571098.25, 68635.28, 0.13930583, -0.047489513, -474945.25, 68431.47, 0.0, 10.000226, 9.999646 
1.3251323e+3, 2.545517e+2, -379600.78, -429984.6, 35851.438, -0.11210892, -0.1955991, -360975.34, 84409.05, 0.0, 10.000459, 9.999827 
1.325156e+3, 2.6455075e+2, -320042.03, -499101.44, 45606.656, -0.112581946, -0.19833937, -309095.2, 38295.74, 0.0000000978673, 10.000852, 9.9984865 
1.3251828e+3, 2.745501e+2, -126896.484, -353577.66, 33097.59, 0.1734257, -0.14084956, -122162.77, 127236.25, 0.000006920427, 10.001493, 9.998507 
1.3252054e+3, 2.8454885e+2, -14352.788, -401072.16, -48708.926, 0.20562416, -0.03940901, -8312.054, 143101.8, 0.000086783395, 10.002261, 9.997127 
1.3252234e+3, 2.9454657e+2, 243872.94, -228896.19, -46122.4, -0.05788099, -0.021089055, 248330.52, 301770.84, 0.00039493892, 10.003358, 9.99711 
1.3252464e+3, 3.0454245e+2, 362711.8, -71428.71, 135972.81, -0.08506031, -0.1615219, 401782.34, 401782.34, 0.0010490068, 10.003542, 9.997774 
1.3252737e+3, 3.1454253e+2, 290048.06, 19601.791, -20653.537, 0.103953406, 0.017335044, 291616.25, 291616.25, 0.0020087387, 10.002421, 9.998941 
1.334831e+3, 1.24531366e+2, -1831593.6, -1574969.6, -31953.635, -0.07250962, 0.09160868, -1571050.8, 148541.05, 0.0065457188, 9.998248, 10.001804 
1.3348559e+3, 1.3453043e+2, -1877894.6, -1676167.9, 41002.55, 0.13865478, -0.07737829, -1668152.3, -46557.44, 0.0037237175, 9.997901, 10.000585 
1.3348769e+3, 1.4453022e+2, -1862069.8, -1698257.3, 19786.754, -0.13287383, -0.11928848, -1695901.1, -172304.22, 0.0014951822, 9.99766, 9.999877 
1.334901e+3, 1.5453264e+2, -1685143.9, -1563459.4, 6181.523, -0.040757086, 0.10569171, -1563146.3, -137565.4, 0.00032323142, 9.998209, 9.999866 
1.3349251e+3, 1.6453339e+2, -1490510.4, -1318585.9, -21705.684, 0.059889525, 0.16286805, -1315887.9, 11687.1, 0.000017128494, 9.998456, 10.00074 
1.3349484e+3, 1.7453209e+2, -1380226.1, -1202335.3, -1972.1716, 0.061066255, -0.083069965, -1202313.4, 27268.557, 0.00000000003443261, 9.9984865, 10.000852 
1.3349709e+3, 1.8453199e+2, -1327520.4, -1267674.0, -23752.48, -0.0031568091, -0.109313756, -1259392.9, -127811.1, 0.0, 9.998768, 9.99961 
1.3349931e+3, 1.94533e+2, -1145113.5, -1125202.8, -18117.354, -0.085176125, 0.0020470137, -1114485.6, -80909.75, 0.0, 9.999328, 9.999643 
1.3350162e+3, 2.0453322e+2, -974974.8, -930750.1, -29600.816, -0.06313222, 0.0443912, -915914.4, 19659.158, 0.0, 9.99958, 10.0001745 
1.3350406e+3, 2.145323e+2, -878341.8, -822401.1, -3974.1624, 0.07081729, -0.103676215, -822120.2, 15456.804, 0.0, 9.999521, 10.0002775 
1.3350643e+3, 2.2453173e+2, -844829.7, -871385.44, 16759.05, 0.10393316, -0.12802844, -836726.06, -97145.74, 0.0, 9.999583, 9.999231 
1.3350871e+3, 2.3453148e+2, -707310.25, -747641.3, 60399.21, 0.037916757, -0.10747334, -663799.1, -22214.8, 0.0, 9.999827, 9.999289 
1.3351105e+3, 2.4453142e+2, -581704.0, -649716.1, 62776.92, 0.011175563, -0.028772118, -544314.3, -729.07117, 0.0, 10.000055, 9.999182 
1.3351345e+3, 2.545312e+2, -442119.2, -522810.44, 58286.746, 0.03450797, -0.0043128016, -411576.75, 34008.996, 0.0, 10.000301, 9.999262 
1.3351585e+3, 2.645299e+2, -339087.7, -510111.66, 53972.05, 0.021608038, -0.013621656, -323479.53, 24117.553, 0.00000008871969, 10.000724, 9.998473 
1.3351822e+3, 2.7452707e+2, -151631.53, -359636.16, 72955.51, -0.04725282, -0.1808015, -128594.53, 121028.5, 0.000006673535, 10.001303, 9.998554 
1.3352054e+3, 2.8452545e+2, 7019.097, -319925.34, -26564.084, -0.05473828, -0.14877497, 9163.354, 160801.14, 0.00008871381, 10.0021, 9.997762 
1.3352281e+3, 2.94525e+2, 263119.38, -147565.31, 13192.408, 0.032132965, -0.015203907, 263542.72, 317184.97, 0.0004076121, 10.003177, 9.997759 
1.335251e+3, 3.04521e+2, 244105.28, -281610.06, 90676.52, -0.0037863294, -0.113497704, 259305.84, 259305.84, 0.0010927352, 10.003392, 9.996397 
1.3352743e+3, 3.1451792e+2, 171157.31, -156150.34, -591.75977, -0.12696184, -0.106946565, 171158.38, 171158.38, 0.002102164, 10.002109, 9.997889 
1.3448286e+3, 1.2450939e+2, -1868158.4, -1593494.1, 6162.364, -0.09728365, 0.2252678, -1593355.9, 126454.766, 0.0069055543, 9.998012, 10.001788 
1.3448542e+3, 1.3450699e+2, -1899804.0, -1703547.3, -62957.26, 0.20217435, -0.07365238, -1685087.5, -63260.105, 0.0039389143, 9.997838, 10.000427 
1.3448747e+3, 1.4450698e+2, -1850094.6, -1638196.4, 22044.37, -0.09929828, -0.10982734, -1635927.3, -112101.15, 0.0015916337, 9.997517, 10.000353 
1.3448994e+3, 1.5450995e+2, -1671292.6, -1495445.8, 49665.82, -0.0042590154, 0.1187122, -1482387.9, -56586.0, 0.0003501717, 9.998056, 10.000396 
1.3449238e+3, 1.6451082e+2, -1502615.6, -1362200.6, 64386.984, 0.082917154, 0.17643227, -1337146.5, -9352.25, 0.000020254476, 9.998532, 10.000411 
1.3449468e+3, 1.745091e+2, -1349879.3, -1226339.8, 20909.271, 0.047918156, -0.07363076, -1222896.8, 6910.88, 0.0000000014653116, 9.998867, 10.000505 
1.3449696e+3, 1.8450892e+2, -1271047.9, -1226603.5, 26590.832, -0.0068458677, -0.093430154, -1214171.8, -82362.87, 0.0, 9.999104, 9.999724 
1.3449927e+3, 1.9451036e+2, -1131577.4, -1099932.1, 28468.885, -0.04687645, 0.04456271, -1083184.3, -49386.023, 0.0, 9.999356, 9.999795 
1.3450164e+3, 2.0451054e+2, -992053.44, -953292.25, 30190.828, 0.0015030558, 0.0822577, -936796.75, -1000.7933, 0.0, 9.999513, 10.000055 
1.3450408e+3, 2.1450913e+2, -887140.44, -833070.0, -1322.9396, 0.14242424, -0.10546974, -833037.6, 4767.011, 0.0, 9.999494, 10.000208 
1.3450643e+3, 2.2450833e+2, -780250.56, -810213.56, 37263.777, 0.14696161, -0.1611025, -755069.5, -15260.38, 0.0, 9.999896, 9.999503 
1.345087e+3, 2.3450811e+2, -535398.4, -630508.06, 17427.475, 0.00521493, -0.16692872, -532305.6, 109504.75, 0.0, 10.000864, 9.999592 
1.3451108e+3, 2.4450807e+2, -434728.56, -644103.75, 2551.7676, -0.014219474, -0.072265014, -434697.47, 109113.62, 0.0, 10.001354, 9.9986 
1.345136e+3, 2.5450802e+2, -345390.22, -542194.6, -36450.223, 0.11555823, 0.029838758, -338856.2, 106957.37, 0.0, 10.001268, 9.998665 
1.3451603e+3, 2.6450655e+2, -251543.16, -459853.13, -958.1291, 0.10378668, 0.034628585, -251538.75, 96288.34, 0.000000062099474, 10.001295, 9.998546 
1.3451833e+3, 2.7450308e+2, -111304.97, -331354.78, -11475.579, -0.0792595, -0.20507456, -110708.13, 139148.92, 0.0000065347235, 10.001526, 9.998647 
1.3452071e+3, 2.8450114e+2, 13081.743, -306125.78, -69721.31, -0.08918649, -0.21397145, 27645.781, 179519.28, 0.00008986311, 10.002077, 9.997876 
1.345232e+3, 2.9450116e+2, 252331.55, -127500.92, -108720.67, 0.112453766, -0.046135597, 281249.4, 335122.56, 0.00041355038, 10.003003, 9.997975 
1.3452548e+3, 3.044978e+2, 190623.89, -301581.47, -49624.848, 0.06955494, -0.09391516, 195577.3, 195577.3, 0.0011132387, 10.002966, 9.996483 
1.3452768e+3, 3.1449404e+2, 120843.27, -143786.17, -83287.61, -0.039829135, -0.16478874, 144874.36, 144874.36, 0.002148471, 10.001609, 9.998207 
1.3548289e+3, 1.2448237e+2, -1898284.8, -1640939.0, 135931.92, 0.06847044, -0.033004034, -1582437.6, 137634.95, 0.0072628423, 9.997973, 10.001474 
1.3548504e+3, 1.3448334e+2, -1892667.8, -1683995.6, -71895.945, 0.00006461888, -0.0071575157, -1661623.3, -39562.152, 0.004152666, 9.997827, 10.0005665 
1.3548724e+3, 1.4448453e+2, -1765953.0, -1454843.3, 18423.066, -0.10594488, 0.01344206, -1453756.0, 70290.164, 0.0016872559, 9.9974785, 10.001629 
1.354898e+3, 1.544848e+2, -1573987.4, -1297815.8, 85276.57, 0.022183929, -0.16799998, -1273606.1, 152432.19, 0.0003769789, 9.998064, 10.001752 
1.3549225e+3, 1.6448545e+2, -1547092.1, -1457044.8, 60706.977, 0.07073374, -0.17287251, -1426487.6, -98456.44, 0.000023370363, 9.99854, 9.999758 
1.3549449e+3, 1.7448646e+2, -1411097.1, -1344095.4, 45537.6, -0.058870118, -0.073315844, -1321063.3, -91036.88, 0.0000000068048798, 9.998821, 9.9997225 
1.354968e+3, 1.8448713e+2, -1257620.9, -1178571.6, 19668.547, -0.113611855, 0.015664604, -1173948.3, -41925.85, 0.0, 9.999024, 10.000087 
1.3549922e+3, 1.9448717e+2, -1116559.1, -1047273.8, 52587.684, -0.042106412, -0.02923077, -1018943.6, 15078.241, 0.0, 9.999261, 10.000202 
1.3550164e+3, 2.0448713e+2, -1043962.06, -1025584.06, 14085.903, 0.03383639, -0.0146065205, -1017954.94, -81933.195, 0.0, 9.999366, 9.999627 
1.3550402e+3, 2.144869e+2, -950838.25, -919144.25, 9886.7295, 0.117676504, -0.037135325, -916313.06, -78289.68, 0.0, 9.999293, 9.999715 
1.3550639e+3, 2.2448611e+2, -826958.3, -856998.2, 55078.434, 0.10243144, -0.055057473, -784888.56, -44859.727, 0.0, 9.9996805, 9.999285 
1.3550879e+3, 2.3448448e+2, -578096.94, -674775.4, 67066.36, -0.023972692, -0.18112564, -543764.7, 98276.055, 0.0, 10.000673, 9.99938 
1.355112e+3, 2.4448323e+2, -510719.38, -756223.1, -12399.039, -0.052790184, -0.16472751, -510094.75, 33957.99, 0.0, 10.001158, 9.997927 
1.3551366e+3, 2.544822e+2, -421161.56, -656004.4, -23582.754, 0.027203495, -0.088982776, -418816.8, 27249.877, 0.0, 10.001082, 9.997974 
1.355161e+3, 2.6448068e+2, -269405.44, -459244.28, -6682.6577, 0.026480153, -0.05895572, -269170.47, 78911.0, 0.000000036385206, 10.001133, 9.998631 
1.3551852e+3, 2.7447814e+2, -135998.53, -332791.06, 16302.343, -0.055864148, -0.21299483, -134657.19, 115443.484, 0.0000068750182, 10.001318, 9.998738 
1.3552096e+3, 2.8447616e+2, -39823.914, -375425.03, -47446.8, -0.050520442, -0.21476933, -33244.926, 118873.45, 0.00009120505, 10.001902, 9.997484 
1.3552345e+3, 2.944748e+2, 189613.72, -208183.33, -50427.914, 0.047290698, -0.13766328, 195906.8, 250041.16, 0.00041555686, 10.00278, 9.997535 
1.3552573e+3, 3.0447266e+2, 254547.78, -111620.71, -107751.43, 0.014179341, -0.111040294, 283902.25, 283902.25, 0.0011140582, 10.002744, 9.997885 
1.3552801e+3, 3.1447026e+2, 170762.97, 27662.672, -76453.89, 0.06590326, -0.19332232, 203924.9, 203924.9, 0.0021475311, 10.001339, 9.999509 
1.3648269e+3, 1.2445719e+2, -2044266.8, -1713452.9, 211840.84, 0.14110191, -0.13528879, -1610092.3, 110223.0, 0.0076198755, 9.996963, 10.001467 
1.3648468e+3, 1.3445956e+2, -1823316.0, -1595128.9, -28837.195, -0.12561525, -0.024294553, -1591541.0, 30751.47, 0.004366158, 9.998035, 10.001083 
1.3648714e+3, 1.4446126e+2, -1648061.5, -1399950.4, 62342.64, 0.019247996, 0.022506721, -1385166.5, 139106.5, 0.0017823466, 9.998292, 10.001612 
1.3648961e+3, 1.5446062e+2, -1565302.5, -1297608.5, -3415.041, 0.030920813, -0.24550904, -1297565.0, 128707.97, 0.0004035849, 9.998151, 10.001706 
1.3649206e+3, 1.6446117e+2, -1598214.3, -1473563.3, -26732.172, 0.047207236, -0.26275858, -1468072.3, -139805.48, 0.000026350568, 9.99814, 9.999845 
1.3649437e+3, 1.744631e+2, -1469499.6, -1358114.8, -8210.141, -0.018884234, -0.082109794, -1357512.9, -127258.74, 0.000000016360648, 9.998359, 9.999851 
1.3649672e+3, 1.8446408e+2, -1312117.6, -1174417.4, 29257.469, -0.048819285, 0.019209012, -1168458.9, -36212.38, 0.0, 9.998512, 10.000363 
1.3649915e+3, 1.9446376e+2, -1189522.9, -1044656.9, 23320.83, -0.010950706, -0.091967374, -1040995.2, -6748.5566, 0.0, 9.998606, 10.000531 
1.3650158e+3, 2.0446354e+2, -1097531.6, -1108822.9, 19989.945, 0.046986036, -0.089385815, -1082405.4, -146157.27, 0.0, 9.999241, 9.999117 
1.3650401e+3, 2.144633e+2, -801317.2, -909008.06, -15843.757, 0.1244325, -0.05838405, -799034.56, 39218.523, 0.0, 10.000581, 9.999165 
1.3650647e+3, 2.2446255e+2, -628492.06, -787670.1, 45415.82, 0.14203633, -0.03004593, -616445.9, 123813.97, 0.0, 10.001164, 9.999043 
1.3650894e+3, 2.3446113e+2, -575518.25, -700208.5, 22271.648, 0.0824422, -0.1134646, -571659.56, 70610.7, 0.0, 10.000806, 9.9991455 
1.3651139e+3, 2.4445945e+2, -557341.06, -797141.0, -11504.308, 0.03760772, -0.11683454, -556790.4, -12504.41, 0.0, 10.000916, 9.997762 
1.3651375e+3, 2.544573e+2, -345081.34, -637142.56, -14832.309, -0.0055092555, -0.13979414, -344330.0, 101980.08, 0.0, 10.001674, 9.997819 
1.365162e+3, 2.644555e+2, -188481.83, -429723.13, 27073.146, -0.00044259714, -0.12454023, -185480.89, 162846.3, 0.000000033203506, 10.001731, 9.998544 
1.3651875e+3, 2.744539e+2, -182873.86, -355028.7, 3981.723, 0.072916746, -0.18112573, -182781.81, 67556.15, 0.0000069323874, 10.001004, 9.998727 
1.3652124e+3, 2.844521e+2, -187100.14, -413207.0, 26002.021, 0.085919686, -0.17751709, -184148.47, -31794.795, 0.000089487476, 10.000782, 9.99775 
1.3652362e+3, 2.944501e+2, 7963.3604, -256026.14, 43365.254, 0.02210613, -0.1959852, 14904.421, 69279.56, 0.00040599646, 10.001379, 9.997871 
1.365259e+3, 3.044484e+2, 199921.81, -99895.58, -13642.709, -0.046659846, -0.15965603, 200541.33, 200541.33, 0.0010861106, 10.00221, 9.998226 
1.3652836e+3, 3.1444657e+2, 424336.25, 143472.47, -110295.336, 0.19196294, -0.20897813, 462471.38, 462471.38, 0.0020928015, 10.003084, 9.999492 
1.3748237e+3, 1.24433614e+2, -2030973.6, -1682849.5, 11953.591, 0.0602954, -0.10951994, -1682439.5, 38101.176, 0.0079810945, 9.996964, 10.001664 
1.374843e+3, 1.3443556e+2, -1752185.4, -1454688.5, 20112.182, -0.33438876, -0.13413376, -1453335.0, 169186.72, 0.0045821774, 9.998051, 10.002047 
1.3748714e+3, 1.4443713e+2, -1740688.3, -1595459.4, 32463.262, 0.15383841, -0.09074789, -1588533.1, -64026.098, 0.0018779465, 9.998308, 10.000262 
1.3748933e+3, 1.5443742e+2, -1675915.8, -1524480.6, 3794.4546, -0.091277786, -0.11476761, -1524385.5, -97879.625, 0.00043006244, 9.998136, 10.000158 
1.3749173e+3, 1.6443801e+2, -1537610.5, -1347759.6, -38928.508, -0.120930195, -0.084740855, -1340087.5, -11586.497, 0.000029160963, 9.998133, 10.000717 
1.3749431e+3, 1.7443901e+2, -1397691.5, -1209533.4, 13263.129, 0.051733684, -0.0987227, -1208603.1, 21887.78, 0.000000027808229, 9.9983425, 10.000888 
1.3749672e+3, 1.8443982e+2, -1301960.4, -1140567.1, 17104.633, 0.06864815, -0.083193235, -1138774.3, -6293.6367, 0.0, 9.9984665, 10.000614 
1.3749897e+3, 1.9444007e+2, -1196953.6, -1032468.94, 37574.105, -0.06257559, -0.15276048, -1024292.1, 10181.154, 0.0, 9.998486, 10.000676 
1.3750139e+3, 2.044397e+2, -1154858.9, -1194448.3, 52495.688, -0.08486077, -0.14832774, -1118549.9, -182073.75, 0.0, 9.999096, 9.9986 
1.37504e+3, 2.1443841e+2, -871564.7, -1008404.56, 48571.926, 0.037080646, -0.16233659, -856076.8, -17584.123, 0.0, 10.000379, 9.998582 
1.375066e+3, 2.2443786e+2, -682969.94, -848928.3, 20379.732, 0.1353597, -0.070659235, -680503.94, 59996.473, 0.0, 10.000944, 9.998726 
1.3750917e+3, 2.3443803e+2, -630373.9, -759807.3, 23007.574, 0.2023102, 0.03459105, -626405.75, 16093.165, 0.0, 10.000579, 9.998839 
1.375116e+3, 2.4443667e+2, -566112.4, -772044.5, -3908.7236, 0.1363781, 0.06513148, -566038.25, -21526.318, 0.0, 10.000722, 9.99803 
1.3751386e+3, 2.5443324e+2, -348763.22, -603426.5, 25370.78, -0.090801656, -0.1172677, -346260.28, 100283.74, 0.0, 10.001494, 9.998138 
1.3751629e+3, 2.6443112e+2, -221217.14, -465381.03, -10966.214, -0.093967974, -0.14287962, -220725.6, 127837.74, 0.000000022673568, 10.001589, 9.998365 
1.3751899e+3, 2.7443022e+2, -224902.67, -398632.72, -7569.724, 0.1838648, -0.11277261, -224573.47, 25997.105, 0.0000066245593, 10.000822, 9.998512 
1.3752145e+3, 2.8442886e+2, -137941.38, -286878.0, 27724.396, 0.19994116, -0.09579005, -132947.92, 19633.281, 0.000084736, 10.000668, 9.998675 
1.3752367e+3, 2.94427e+2, 49131.348, -123676.68, 84922.125, -0.09961937, -0.20186107, 83877.74, 138473.73, 0.00038240643, 10.001171, 9.998886 
1.3752595e+3, 3.0442494e+2, 124728.484, -212930.4, 10382.944, -0.24893114, -0.22593866, 125047.46, 125047.46, 0.0010237873, 10.002029, 9.997528 
1.3752858e+3, 3.144224e+2, 272212.53, -75802.46, -9978.59, 0.07498825, -0.25604028, 272498.4, 272498.4, 0.0019802414, 10.002696, 9.998153 
1.3848211e+3, 1.2441114e+2, -2047117.6, -1730631.8, 12026.677, 0.109701425, -0.11923259, -1730175.4, -9419.932, 0.008351057, 9.997051, 10.001285 
1.3848403e+3, 1.3441269e+2, -1841812.8, -1525692.6, 49661.773, -0.3695969, -0.15346484, -1518074.4, 104668.555, 0.004803759, 9.997575, 10.001787 
1.3848695e+3, 1.4441392e+2, -1854391.1, -1678064.5, 58732.684, 0.16955675, -0.11963037, -1660292.4, -135558.75, 0.0019753822, 9.997642, 10.000022 
1.384892e+3, 1.5441497e+2, -1729335.9, -1574793.3, 94017.97, -0.0059564495, -0.043505277, -1530367.3, -103641.04, 0.00045665295, 9.997878, 9.999937 
1.3849162e+3, 1.6441539e+2, -1553807.4, -1388926.5, 110203.234, -0.04248369, -0.0031893516, -1333739.9, -5017.1147, 0.00003186285, 9.998192, 10.000393 
1.3849413e+3, 1.744151e+2, -1371420.0, -1229989.6, 25305.986, 0.039544296, -0.115560845, -1225598.0, 5126.3037, 0.000000039188958, 9.998688, 10.00057 
1.3849656e+3, 1.8441518e+2, -1260623.0, -1171000.9, -30608.668, 0.060005426, -0.13551259, -1161544.8, -28823.973, 0.0, 9.998953, 10.000181 
1.3849893e+3, 1.9441554e+2, -1123477.1, -1037296.2, -78010.14, 0.020146525, -0.154973, -991266.7, 43446.332, 0.0, 9.999161, 10.000316 
1.385014e+3, 2.0441505e+2, -1091948.9, -1166155.3, -3429.87, 0.012713636, -0.1425084, -1091790.8, -155074.17, 0.0, 9.9995365, 9.998582 
1.3850404e+3, 2.1441334e+2, -894885.4, -1016696.6, 7070.489, 0.05091155, -0.20008764, -894476.3, -55740.484, 0.0, 10.000201, 9.998615 
1.3850664e+3, 2.2441243e+2, -782953.6, -951553.94, -15834.729, 0.1151852, -0.1256452, -781479.3, -40731.93, 0.0, 10.000473, 9.9982605 
1.3850921e+3, 2.3441227e+2, -681088.06, -840109.5, -57341.438, 0.20874014, -0.002397032, -662568.25, -19816.793, 0.0, 10.000453, 9.998359 
1.3851169e+3, 2.4441086e+2, -555441.6, -736950.6, -26528.035, 0.16773032, 0.037102856, -551643.94, -6878.5986, 0.0, 10.00068, 9.998276 
1.3851403e+3, 2.5440776e+2, -354077.3, -572593.6, -34347.63, -0.05082888, -0.14094783, -348805.53, 97987.04, 0.0, 10.001316, 9.998427 
1.3851649e+3, 2.644059e+2, -236727.66, -476897.16, -86258.516, -0.056121863, -0.15458873, -208958.16, 139851.33, 0.0000000049794013, 10.001502, 9.998327 
1.385191e+3, 2.744053e+2, -166122.39, -376531.25, -102808.0, 0.20114957, -0.087501414, -124230.06, 126585.875, 0.0000064670485, 10.001241, 9.998468 
1.3852155e+3, 2.8440416e+2, -81916.79, -250730.05, -33973.4, 0.22825669, -0.053017814, -75336.22, 77489.016, 0.00007993784, 10.000998, 9.998779 
1.3852383e+3, 2.9440206e+2, 30806.51, -106768.19, -74007.125, -0.030045802, -0.18815331, 63057.54, 117897.39, 0.00035406946, 10.000933, 9.999114 
1.385262e+3, 3.0439958e+2, 77018.59, -256946.52, -96582.195, -0.17440963, -0.26189682, 102938.336, 102938.336, 0.00094641367, 10.00176, 9.997367 
1.3852891e+3, 3.1439748e+2, 354009.4, -84880.516, -96743.22, 0.11710442, -0.23090717, 374388.0, 374388.0, 0.0018394246, 10.003416, 9.997754 
1.3948168e+3, 1.24388844e+2, -2118261.3, -1865192.3, -177495.33, -0.085809626, -0.25913098, -1773746.1, -52777.98, 0.008733579, 9.997013, 10.000371 
1.3948385e+3, 1.3439092e+2, -1952768.4, -1750557.6, 75493.055, -0.3441846, -0.09317016, -1725482.6, -102525.95, 0.005033633, 9.997554, 10.000247 
1.394865e+3, 1.443918e+2, -1784881.0, -1536301.8, 42706.477, -0.07514707, -0.057911184, -1529169.3, -4218.1587, 0.002076125, 9.99765, 10.00099 
1.3948919e+3, 1.5439339e+2, -1654763.6, -1413992.0, 119877.24, 0.14973319, -0.039160747, -1364485.9, 62446.387, 0.00048381835, 9.9978485, 10.001057 
1.3949166e+3, 1.6439334e+2, -1666787.0, -1625222.4, 110335.414, 0.15024646, -0.030980531, -1533729.1, -204797.0, 0.000034571214, 9.998196, 9.998772 
1.3949384e+3, 1.7439118e+2, -1509799.5, -1503682.1, 53850.9, -0.1551807, -0.1469402, -1452803.1, -221846.7, 0.00000005013657, 9.998627, 9.998726 
1.3949624e+3, 1.8439014e+2, -1327074.6, -1302447.9, -41619.49, -0.20024034, -0.13851242, -1271358.5, -138390.78, 0.0, 9.998928, 9.999289 
1.3949896e+3, 1.9439028e+2, -1200090.0, -1172625.3, -59339.535, 0.11514894, -0.091166735, -1125449.9, -90485.38, 0.0, 9.999054, 9.999442 
1.3950159e+3, 2.0438972e+2, -1075264.5, -1101038.5, 5058.392, 0.21880661, -0.064425364, -1074307.3, -137338.94, 0.0, 9.999404, 9.999092 
1.3950406e+3, 2.1438809e+2, -885617.8, -948506.4, 44344.516, 0.0488401, -0.17195912, -862700.56, -23718.146, 0.0, 9.999994, 9.999182 
1.3950655e+3, 2.2438629e+2, -844665.94, -1044470.5, -29642.672, -0.038081218, -0.18951933, -840360.94, -99360.57, 0.0, 10.000305, 9.997708 
1.3950907e+3, 2.3438412e+2, -748493.06, -944239.6, -41519.125, -0.0022973935, -0.20810749, -740050.7, -97025.83, 0.0, 10.000289, 9.997727 
1.3951163e+3, 2.4438238e+2, -568658.6, -725607.25, -17159.67, 0.014198381, -0.17718762, -566804.44, -21761.553, 0.0, 10.000514, 9.998435 
1.3951424e+3, 2.5438085e+2, -378275.53, -565507.1, 5386.3647, 0.0035778128, -0.21533383, -378120.7, 68934.97, 0.0, 10.001078, 9.998589 
1.3951671e+3, 2.643798e+2, -258557.03, -480975.8, -107701.07, 0.0036468306, -0.1576804, -214953.47, 134112.25, 0.0000000011462398, 10.001322, 9.998387 
1.3951907e+3, 2.7437934e+2, -188539.36, -382506.84, -94929.47, 0.027699295, -0.08714148, -149812.19, 101260.15, 0.0000063015364, 10.00106, 9.99852 
1.395215e+3, 2.8437817e+2, -152050.23, -362436.7, -50544.625, 0.05249159, -0.021717353, -140537.11, 12545.878, 0.00007549819, 10.000856, 9.998077 
1.3952406e+3, 2.9437545e+2, -49624.12, -238581.7, -54479.336, 0.077865586, -0.14467232, -35042.195, 20063.152, 0.0003302392, 10.000783, 9.998282 
1.3952659e+3, 3.0437237e+2, 89702.75, -194268.64, -51935.742, 0.024372553, -0.2513708, 98903.23, 98903.23, 0.00088409375, 10.001611, 9.997865 
1.3952929e+3, 3.1437245e+2, 321248.0, -36381.633, 20697.666, 0.083722346, -0.070657484, 322441.9, 322441.9, 0.0017247418, 10.002935, 9.998314 
1.4048132e+3, 1.2436566e+2, -2171674.5, -1879600.9, -265691.03, -0.102702126, -0.29509866, -1722457.1, -1262.7738, 0.009133226, 9.996552, 10.000509 
1.4048374e+3, 1.3436764e+2, -1979824.9, -1801286.8, 27770.412, -0.18919832, -0.10649144, -1797067.0, -173885.3, 0.005275387, 9.997509, 9.9999275 
1.4048623e+3, 1.4436813e+2, -1719568.9, -1556573.6, 33342.23, -0.15864041, -0.0751054, -1550016.9, -24837.467, 0.0021822979, 9.998323, 10.000526 
1.4048907e+3, 1.5436885e+2, -1458775.6, -1377127.1, -52262.16, 0.18770672, -0.091435336, -1351634.3, 75535.91, 0.00051218417, 9.999441, 10.000545 
1.404916e+3, 1.6436844e+2, -1472580.9, -1563901.1, -70232.93, 0.21438955, -0.076602206, -1434470.4, -105295.99, 0.000037386584, 9.999669, 9.998478 
1.4049372e+3, 1.7436656e+2, -1443959.0, -1493184.9, -37765.89, -0.15544853, -0.14490876, -1423493.6, -192297.64, 0.00000006103049, 9.999177, 9.998521 
1.4049613e+3, 1.8436538e+2, -1311130.5, -1327354.0, 3025.3418, -0.2075631, -0.12730461, -1310584.8, -177375.84, 0.0, 9.999189, 9.99899 
1.4049894e+3, 1.9436488e+2, -1088350.9, -1148655.6, -1645.8099, 0.14700295, -0.11784335, -1088305.9, -53093.414, 0.0, 9.999955, 9.999173 
1.4050162e+3, 2.0436409e+2, -978188.3, -1063080.1, 79455.61, 0.27259046, -0.09556602, -930551.75, 6666.8843, 0.0, 10.000116, 9.99901 
1.4050409e+3, 2.1436277e+2, -930127.7, -969538.5, 41207.035, 0.09661126, -0.16549228, -904156.8, -64927.36, 0.0, 9.999704, 9.999168 
1.4050661e+3, 2.2436109e+2, -873312.6, -1035590.0, 17746.873, 0.0039008334, -0.17826143, -871394.44, -130148.58, 0.0, 10.000026, 9.997896 
1.4050917e+3, 2.3435876e+2, -585896.94, -837136.2, 37814.863, 0.020974053, -0.2351375, -580328.75, 62942.285, 0.0, 10.001283, 9.997979 
1.4051175e+3, 2.4435693e+2, -431822.53, -695412.6, 81243.7, 0.052936096, -0.21204467, -408793.56, 136496.36, 0.0, 10.001605, 9.998122 
1.4051439e+3, 2.5435546e+2, -433005.84, -625019.5, 38004.844, 0.0838278, -0.21065111, -425757.25, 21546.105, 0.0, 10.00085, 9.998289 
1.4051688e+3, 2.6435414e+2, -334787.72, -537952.06, -51811.88, 0.075429864, -0.1568669, -322337.4, 26979.664, 0.0000000047036606, 10.000888, 9.998207 
1.4051922e+3, 2.7435312e+2, -57319.273, -332173.3, -95587.84, 0.031039529, -0.120184824, -27344.914, 223984.3, 0.000006310061, 10.002034, 9.99839 
1.4052166e+3, 2.843518e+2, 95259.164, -318326.4, -34723.32, 0.04726701, -0.032242227, 98154.16, 251496.8, 0.00007173929, 10.00288, 9.997401 
1.4052431e+3, 2.9434925e+2, 263816.4, -169458.33, -61144.414, 0.14255771, -0.06811899, 272279.88, 327645.75, 0.0003165935, 10.003293, 9.997549 
1.4052689e+3, 3.0434555e+2, 270838.78, -79456.87, -42616.11, 0.12672468, -0.20754772, 275948.8, 275948.8, 0.00085306884, 10.002749, 9.998102 
1.4052951e+3, 3.1434542e+2, 84752.0, -79644.1, -45035.35, 0.14647156, -0.075501725, 96280.69, 96280.69, 0.0016671364, 10.001006, 9.998947 
1.4148094e+3, 1.2434185e+2, -2070923.0, -1670351.4, -117146.61, -0.2238259, -0.21004127, -1638607.6, 82823.914, 0.009556688, 9.996541, 10.001964 
1.414837e+3, 1.3434295e+2, -1916380.5, -1662153.5, 70105.35, -0.018821009, -0.20221458, -1644102.9, -20685.686, 0.0055341963, 9.997477, 10.000904 
1.41486e+3, 1.443428e+2, -1857218.1, -1844488.0, 55640.04, -0.2357516, -0.20091896, -1794850.1, -269430.38, 0.0022969088, 9.998339, 9.998541 
1.4148885e+3, 1.5434133e+2, -1623986.1, -1713747.9, 488.8743, -0.008339536, -0.20449421, -1623983.5, -196542.86, 0.0005425403, 9.999421, 9.998242 
1.4149141e+3, 1.6434084e+2, -1380318.5, -1381720.4, -107711.28, 0.023427133, -0.13200377, -1273305.9, 56142.734, 0.000040406845, 9.999704, 9.999717 
1.4149374e+3, 1.7434147e+2, -1350640.0, -1284188.9, -44201.563, -0.07868306, -0.090919346, -1262117.8, -30676.904, 0.00000007226826, 9.999107, 9.999994 
1.414962e+3, 1.8434113e+2, -1295043.5, -1281875.3, 12706.4795, -0.084856935, -0.08327455, -1274148.4, -140706.23, 0.0, 9.999139, 9.999323 
1.4149882e+3, 1.9433929e+2, -1088324.9, -1124765.3, 38939.2, 0.0065798485, -0.23149875, -1063554.0, -28097.16, 0.0, 9.999854, 9.999384 
1.4150143e+3, 2.0433806e+2, -1036304.6, -1160205.5, 46085.336, 0.06186726, -0.23634078, -1021042.9, -83574.73, 0.0, 10.000005, 9.9984 
1.4150408e+3, 2.1433744e+2, -1007015.4, -1085591.4, 37990.32, 0.0902668, -0.17296015, -991651.6, -152174.81, 0.0, 9.999507, 9.998473 
1.4150675e+3, 2.2433679e+2, -838533.0, -912592.2, 44717.016, 0.12372174, -0.090544485, -817503.94, -76019.586, 0.0, 9.999812, 9.998839 
1.4150944e+3, 2.3433603e+2, -553751.9, -709652.0, 98041.305, 0.16142459, -0.09142794, -506448.97, 137042.58, 0.0, 10.001032, 9.998971 
1.4151204e+3, 2.4433449e+2, -504872.8, -807533.7, 43294.477, 0.14717747, -0.05868896, -498801.5, 46705.277, 0.0, 10.001425, 9.997439 
1.4151448e+3, 2.5433165e+2, -508308.5, -750762.06, 24817.508, 0.0684856, -0.1199693, -505794.25, -58259.023, 0.0, 10.000712, 9.997492 
1.4151697e+3, 2.64329e+2, -391333.9, -621848.2, -27650.12, 0.044154033, -0.13409226, -388063.66, -38501.082, 0.000000079284355, 10.000745, 9.997698 
1.4151949e+3, 2.743265e+2, -126854.96, -426255.47, -32959.363, 0.07861675, -0.19211374, -123269.586, 128318.695, 0.000007370644, 10.00182, 9.997847 
1.41522e+3, 2.8432482e+2, 33840.703, -404198.6, -30531.533, 0.06986535, -0.08657325, 35958.523, 189564.81, 0.00007202747, 10.002694, 9.996902 
1.4152457e+3, 2.9432338e+2, 186437.28, -272543.8, -20843.709, 0.039931722, 0.033692177, 187381.9, 243004.19, 0.0003176136, 10.003029, 9.996976 
1.4152707e+3, 3.043189e+2, 212594.83, -130519.984, -107762.586, 0.009502647, -0.13914011, 243632.39, 243632.39, 0.0008555456, 10.002479, 9.997862 
1.415296e+3, 3.1431654e+2, 58943.824, -50015.324, -54464.195, 0.07411251, -0.22321677, 81499.125, 81499.125, 0.0016671689, 10.000689, 9.999282 
1.4248054e+3, 1.2431591e+2, -2162024.5, -1685749.9, -42732.72, -0.21914442, -0.18693054, -1681946.3, 39739.758, 0.010011913, 9.995824, 10.002195 
1.424835e+3, 1.3431653e+2, -1850073.6, -1584644.0, -55148.684, 0.06032731, -0.2592918, -1573641.8, 50031.99, 0.0058154534, 9.997779, 10.001276 
1.4248593e+3, 1.4431645e+2, -1790664.3, -1841975.6, -28240.488, -0.17471974, -0.25550312, -1778165.8, -252491.72, 0.002423067, 9.99893, 9.99827 
1.424887e+3, 1.5431443e+2, -1755055.8, -1810387.9, 24816.375, -0.034080677, -0.28570884, -1745556.5, -317855.25, 0.00057589856, 9.998673, 9.997929 
1.4249128e+3, 1.6431393e+2, -1500723.5, -1411986.3, -14493.4375, -0.013921798, -0.20900646, -1409679.0, -79969.69, 0.00004378684, 9.998752, 9.999968 
1.4249372e+3, 1.7431536e+2, -1255606.9, -1204686.3, -70208.55, -0.011582867, -0.12000251, -1155464.1, 76229.57, 0.00000008454083, 9.999605, 10.000304 
1.4249623e+3, 1.8431538e+2, -1174330.8, -1229067.8, -36760.434, 0.007992527, -0.090536, -1155869.5, -22177.637, 0.0, 9.999984, 9.99928 
1.4249878e+3, 1.9431347e+2, -1086618.4, -1126976.4, -60746.88, -0.00090506964, -0.24214727, -1042786.6, -7077.9067, 0.0, 9.999882, 9.999352 
1.425014e+3, 2.0431215e+2, -1026846.0, -1163577.5, -21090.89, 0.031943336, -0.24907826, -1023666.6, -85945.33, 0.0, 10.000097, 9.998331 
1.4250413e+3, 2.1431135e+2, -817773.0, -1004848.25, -15077.706, 0.13400993, -0.19561481, -816565.56, 23165.73, 0.0, 10.000826, 9.998398 
1.4250685e+3, 2.2431058e+2, -688842.4, -869474.3, 11101.392, 0.19590041, -0.108907156, -688162.7, 53577.695, 0.0, 10.000963, 9.998586 
1.4250953e+3, 2.3430985e+2, -649979.1, -782760.8, -60139.684, 0.18714033, -0.07931211, -626790.25, 16958.582, 0.0, 10.000484, 9.998737 
1.4251214e+3, 2.4430847e+2, -599768.56, -808483.0, -106787.45, 0.16607447, -0.03454264, -554814.06, -9051.269, 0.0, 10.000583, 9.997842 
1.4251465e+3, 2.5430605e+2, -347606.44, -622107.3, -68923.734, 0.13313283, -0.09973435, -331272.5, 116513.74, 0.00000000006254562, 10.001587, 9.99796 
1.4251716e+3, 2.6430342e+2, -240531.53, -582246.0, -31920.365, 0.11671566, -0.1209977, -237575.34, 112237.22, 0.00000036239143, 10.00192, 9.9974 
1.4251967e+3, 2.7430058e+2, -211689.16, -502608.47, -51952.133, 0.10772585, -0.18348746, -202689.97, 49151.96, 0.000010087366, 10.00138, 9.99753 
1.4252219e+3, 2.842986e+2, -203764.27, -493717.34, 11156.938, 0.09087321, -0.102726765, -203335.61, -49472.434, 0.00007869426, 10.000958, 9.997128 
1.4252481e+3, 2.9429707e+2, -104444.336, -380056.8, 23542.953, 0.10119234, -0.016156895, -102447.75, -46567.473, 0.00033370158, 10.000898, 9.997259 
1.4252733e+3, 3.0429283e+2, 58701.73, -228063.19, -5291.915, 0.08883514, -0.17011262, 58799.355, 58799.355, 0.00088820356, 10.001473, 9.997701 
1.4252976e+3, 3.1429055e+2, 364573.53, 129816.41, 13277.428, 0.07322337, -0.23282729, 365322.06, 365322.06, 0.0017210246, 10.002606, 9.999618 
1.4348023e+3, 1.2428849e+2, -2238676.3, -1849780.1, 37271.684, -0.18453602, -0.18129444, -1846240.3, -124289.484, 0.010506618, 9.995825, 10.00107 
1.4348318e+3, 1.3428856e+2, -1888269.3, -1657504.6, 40113.55, -0.07457431, -0.25855073, -1650730.6, -26781.38, 0.006123269, 9.997752, 10.000781 
1.4348592e+3, 1.442893e+2, -1662624.0, -1592632.5, -49382.598, -0.11222845, -0.22733283, -1567102.6, -41161.668, 0.002563054, 9.998988, 9.999961 
1.4348863e+3, 1.5428834e+2, -1635565.5, -1554229.0, 28269.463, -0.001505889, -0.32893634, -1545368.8, -117419.125, 0.0006133788, 9.998628, 9.999718 
1.434912e+3, 1.6428787e+2, -1558926.6, -1525162.5, -3195.708, -0.029701121, -0.30962673, -1524862.8, -194907.72, 0.000047750204, 9.998722, 9.999205 
1.4349367e+3, 1.7428802e+2, -1327733.4, -1350533.1, -25922.21, -0.0653906, -0.25199056, -1310815.1, -78858.625, 0.00000010052836, 9.999583, 9.999317 
1.434962e+3, 1.8428797e+2, -1205439.1, -1281816.1, -57009.164, -0.04682021, -0.1595544, -1175009.8, -41050.047, 0.0, 9.999936, 9.9989395 
1.434988e+3, 1.9428742e+2, -1127078.1, -1183082.8, -52211.355, 0.0041713323, -0.14402427, -1095833.9, -59866.21, 0.0, 9.99976, 9.999028 
1.4350145e+3, 2.0428643e+2, -1012504.5, -1102134.0, -13664.937, 0.04564344, -0.12691772, -1010467.44, -72490.016, 0.0, 9.999958, 9.998817 
1.435042e+3, 2.1428461e+2, -814851.7, -950196.06, 25126.596, 0.11090493, -0.22548465, -810337.56, 29654.283, 0.0, 10.000615, 9.998874 
1.4350687e+3, 2.2428265e+2, -818627.5, -1089327.8, -19132.648, 0.104061946, -0.21703383, -817281.94, -75269.82, 0.0, 10.000752, 9.997176 
1.4350942e+3, 2.3428042e+2, -791459.06, -1022311.3, -61858.625, -0.0069542173, -0.18359658, -775928.44, -131887.63, 0.0, 10.000259, 9.997199 
1.4351206e+3, 2.4427901e+2, -532451.3, -621486.5, -88131.28, -0.0033632421, -0.12578619, -478232.2, 67824.65, 0.0, 10.000374, 9.9992285 
1.4351486e+3, 2.5427854e+2, -274224.3, -409849.28, -15883.591, 0.16073558, -0.15479365, -272388.97, 175668.4, 0.000000006122379, 10.001333, 9.999537 
1.4351743e+3, 2.642774e+2, -262299.6, -587489.94, -62053.36, 0.17813438, -0.111151285, -250860.83, 99206.18, 0.0000008787704, 10.00174, 9.997456 
1.4351971e+3, 2.742753e+2, -239331.8, -525598.2, -53694.184, 0.0010601854, -0.09185267, -229591.92, 22498.178, 0.000014147242, 10.001227, 9.997454 
1.435222e+3, 2.8427303e+2, -170256.78, -394400.28, -7369.644, -0.018171977, -0.07079359, -170014.73, -15901.359, 0.000090676054, 10.000826, 9.997871 
1.43525e+3, 2.9426998e+2, -83383.4, -298969.72, 40924.99, 0.17791598, -0.21517314, -75875.99, -19733.48, 0.00036367134, 10.000723, 9.997907 
1.4352763e+3, 3.0426705e+2, 39970.727, -211795.89, 18910.799, 0.21349901, -0.2770954, 41383.24, 41383.24, 0.00095405756, 10.0012665, 9.997899 
1.435299e+3, 3.142675e+2, 338480.2, 180377.98, 103192.62, -0.07700323, -0.09155345, 389420.6, 389420.6, 0.0018381028, 10.00217, 10.000176 
1.4447993e+3, 1.2426029e+2, -2007937.9, -1826873.8, 100334.69, -0.12685083, -0.23236652, -1782264.8, -60042.35, 0.011047917, 9.997773, 10.000288 
1.4448294e+3, 1.3426043e+2, -1974914.3, -1751408.1, 67666.69, -0.04016082, -0.26412022, -1732518.5, -108293.61, 0.00646129, 9.997368, 10.0003195 
1.4448583e+3, 1.4426145e+2, -1813978.3, -1591017.3, -50418.27, -0.01847913, -0.20824546, -1580146.3, -53930.707, 0.0027186894, 9.997652, 10.000599 
1.4448848e+3, 1.5426135e+2, -1567913.1, -1431921.4, -98039.48, -0.004327778, -0.30055788, -1380606.0, 47606.996, 0.0006559602, 9.998721, 10.0005045 
1.4449105e+3, 1.6426113e+2, -1511942.8, -1506823.8, -113783.94, -0.052993644, -0.2941711, -1395570.5, -65355.938, 0.000052490832, 9.99907, 9.999159 
1.444936e+3, 1.7426074e+2, -1438723.5, -1407982.8, -97749.94, -0.04110056, -0.2831041, -1324402.1, -92180.49, 0.00000012546444, 9.998857, 9.999261 
1.4449619e+3, 1.8426058e+2, -1338839.8, -1357906.1, -52025.01, 0.0022934754, -0.1960674, -1295481.8, -161254.7, 0.0, 9.999059, 9.998844 
1.4449881e+3, 1.9426046e+2, -1116297.6, -1183302.3, -58219.37, 0.03503358, -0.12940653, -1082629.3, -46397.156, 0.0, 9.999854, 9.998978 
1.4450148e+3, 2.0425974e+2, -925102.0, -1042060.94, 14918.949, 0.062066983, -0.08969565, -923229.0, 15011.137, 0.0, 10.000503, 9.998966 
1.4450428e+3, 2.1425799e+2, -739972.7, -887859.94, -3757.042, 0.113032855, -0.19921054, -739877.25, 100376.555, 0.0, 10.001041, 9.99909 
1.4450696e+3, 2.2425604e+2, -736130.8, -1007205.06, -6711.11, 0.11119544, -0.21725455, -735964.75, 6307.7695, 0.0, 10.001124, 9.997564 
1.4450948e+3, 2.342537e+2, -709805.2, -936177.4, 63645.223, 0.023818057, -0.2384067, -693138.25, -48838.89, 0.0, 10.000602, 9.997627 
1.445121e+3, 2.442523e+2, -564081.7, -659624.7, 126418.48, 0.03364622, -0.1965237, -476709.78, 69605.164, 0.0, 10.000264, 9.999011 
1.4451493e+3, 2.5425187e+2, -433180.53, -520517.7, 38114.91, 0.16652633, -0.1930682, -418886.28, 29431.557, 0.000000012932129, 10.00037, 9.999248 
1.4451756e+3, 2.6425093e+2, -380632.6, -617836.2, -54128.734, 0.17986935, -0.12279334, -368864.5, -18537.734, 0.0000016431604, 10.0008135, 9.997694 
1.4451988e+3, 2.7424932e+2, -129061.94, -437851.28, -60255.22, 0.029141963, -0.084437765, -117720.66, 134624.1, 0.000019343763, 10.001842, 9.997756 
1.4452238e+3, 2.8424716e+2, 54778.13, -287779.84, -7377.298, 0.013148855, -0.06894192, 54936.93, 209303.95, 0.00010742276, 10.0023775, 9.997853 
1.4452514e+3, 2.942441e+2, 124565.39, -196551.27, -41610.195, 0.19223341, -0.2141814, 129869.62, 186266.6, 0.00040939418, 10.002149, 9.997911 
1.4452781e+3, 3.0424196e+2, 129361.93, -173460.64, -34219.125, 0.24728087, -0.19381846, 133180.55, 133180.55, 0.0010586398, 10.0018835, 9.997879 
1.4453013e+3, 3.142423e+2, 248829.66, 137786.95, -38073.625, -0.01624151, -0.015481354, 260630.08, 260630.08, 0.002027643, 10.00156, 10.000169 
1.4547975e+3, 1.2423129e+2, -2023355.3, -1892704.3, -6160.279, -0.17346667, -0.3845138, -1892414.4, -169913.28, 0.011640448, 9.997909, 9.999776 
1.4548281e+3, 1.3423234e+2, -2016915.5, -1827459.3, 73966.75, 0.05980543, -0.28459156, -1802002.1, -177503.45, 0.0068325973, 9.997309, 9.999834 
1.4548561e+3, 1.4423302e+2, -1857398.8, -1673912.8, -26682.926, -0.048046723, -0.20140615, -1670111.3, -143615.13, 0.0028915813, 9.997626, 10.000038 
1.4548822e+3, 1.5423338e+2, -1604927.0, -1495407.4, -46688.31, -0.17710842, -0.20704296, -1478205.9, -49713.57, 0.00070428615, 9.998672, 10.000089 
1.4549083e+3, 1.6423376e+2, -1448565.0, -1386353.0, -140095.61, -0.21526116, -0.15790397, -1273951.6, 56536.465, 0.000058062662, 9.999108, 9.99997 
1.4549349e+3, 1.7423369e+2, -1382207.6, -1283823.1, -92443.63, -0.05117746, -0.20375338, -1228298.1, 4189.865, 0.00000016567238, 9.998819, 10.000134 
1.4549616e+3, 1.8423332e+2, -1328321.8, -1327225.6, -39641.344, 0.029601978, -0.1933258, -1288128.6, -153636.19, 0.0, 9.999019, 9.999077 
1.4549875e+3, 1.9423264e+2, -1122140.6, -1172057.0, -14399.16, -0.02268813, -0.19760534, -1118284.8, -81782.875, 0.0, 9.999746, 9.999114 
1.4550145e+3, 2.0423204e+2, -964710.56, -1083174.3, 19200.816, -0.037884522, -0.13980348, -961676.2, -23166.262, 0.0, 10.000335, 9.99876 
1.4550431e+3, 2.1423134e+2, -789064.56, -935696.56, 29879.938, 0.023645295, -0.12402508, -783209.56, 57308.633, 0.0, 10.000817, 9.998866 
1.4550707e+3, 2.2423056e+2, -611225.6, -697930.75, -40197.15, 0.08899522, -0.118027225, -595457.5, 147065.98, 0.0, 10.000908, 9.999792 
1.4550968e+3, 2.3422964e+2, -581772.8, -606320.2, 56204.695, 0.15293531, -0.23642643, -536517.25, 108007.875, 0.0, 10.000336, 10.000017 
1.4551228e+3, 2.4422827e+2, -711381.9, -924350.6, 112852.72, 0.14529423, -0.23761486, -662706.2, -116168.38, 0.0, 10.000074, 9.997293 
1.4551486e+3, 2.5422615e+2, -600048.6, -830159.0, 57638.094, 0.042579427, -0.2013916, -586418.75, -137852.02, 0.000000017460069, 10.000207, 9.997206 
1.4551748e+3, 2.6422423e+2, -381559.44, -584633.25, -30867.521, 0.002178977, -0.13448493, -376971.2, -26381.19, 0.000002726617, 10.000658, 9.997995 
1.4552012e+3, 2.742225e+2, -129758.59, -383072.47, -6297.4824, 0.051345196, -0.1589988, -129602.13, 123005.06, 0.000025176965, 10.001606, 9.998239 
1.455227e+3, 2.8422084e+2, -17443.5, -380114.28, -26988.836, 0.05921565, -0.09346101, -15446.075, 139178.94, 0.00012772917, 10.002133, 9.997336 
1.4552523e+3, 2.942192e+2, 55517.31, -291021.28, -28810.201, 0.02282363, -0.036494948, 57896.176, 114540.7, 0.00046719576, 10.001936, 9.99737 
1.4552784e+3, 3.0421755e+2, 79015.96, -234617.4, -56317.895, 0.075504445, 0.07000212, 88822.13, 88822.13, 0.0011939944, 10.001695, 9.997552 
1.4553036e+3, 3.1421492e+2, 132371.73, -28501.746, -13073.215, 0.004490302, -0.0116626425, 133427.19, 133427.19, 0.0022784644, 10.00123, 9.999189 
1.4647958e+3, 1.2420288e+2, -2085065.0, -1892616.3, -73243.086, -0.08257818, -0.3257428, -1867912.1, -145130.47, 0.012283002, 9.997374, 10.0000305 
1.4648262e+3, 1.342039e+2, -1845252.8, -1720913.3, -16990.275, 0.0966571, -0.25097105, -1718633.5, -93854.86, 0.00723705, 9.998402, 10.00003 
1.4648537e+3, 1.4420433e+2, -1769850.6, -1626196.3, -12086.409, -0.05012262, -0.20038587, -1625186.4, -98408.43, 0.0030819494, 9.998168, 10.000128 
1.464881e+3, 1.5420496e+2, -1692251.0, -1510112.5, -11716.715, -0.11842085, -0.19992979, -1509361.9, -80590.516, 0.0007585455, 9.997922, 10.000365 
1.4649077e+3, 1.642056e+2, -1582256.4, -1424223.3, -65079.043, -0.1165715, -0.15506981, -1400873.4, -70108.78, 0.00006440502, 9.998082, 10.000201 
1.4649339e+3, 1.7420562e+2, -1328796.5, -1233612.0, -100823.34, -0.039887697, -0.21314655, -1169712.6, 63050.31, 0.00000022299002, 9.999077, 10.000354 
1.4649603e+3, 1.8420528e+2, -1243929.5, -1257120.1, -49225.973, -0.0048517426, -0.22056812, -1200859.0, -66093.09, 0.0, 9.999499, 9.999314 
1.464987e+3, 1.9420463e+2, -1151774.5, -1151360.3, -49309.633, -0.027902087, -0.24764097, -1102257.3, -65483.926, 0.0, 9.999418, 9.999401 
1.4650144e+3, 2.0420413e+2, -1094287.0, -1150102.1, 28887.273, -0.01781216, -0.19563174, -1082028.6, -143248.23, 0.0, 9.999434, 9.998752 
1.4650433e+3, 2.1420361e+2, -953636.8, -1015822.3, 33873.973, 0.041809905, -0.15918855, -938749.06, -97960.66, 0.0, 9.999672, 9.99888 
1.4650713e+3, 2.242033e+2, -732490.1, -706417.7, -75713.84, 0.12202083, -0.12729572, -642626.0, 100163.76, 0.0, 9.999887, 10.0002165 
1.4650977e+3, 2.3420301e+2, -559293.75, -545673.1, -159045.83, 0.2220367, -0.22557145, -393291.88, 251492.47, 0.0, 10.000281, 10.000458 
1.4651237e+3, 2.4420185e+2, -620258.7, -887483.25, -79653.53, 0.21607998, -0.22357512, -598317.4, -51522.832, 0.0, 10.000737, 9.997225 
1.4651495e+3, 2.5419953e+2, -436596.3, -757951.06, -24766.125, 0.055206377, -0.19574285, -434698.84, 14126.987, 0.000000044837254, 10.00137, 9.997132 
1.4651759e+3, 2.6419744e+2, -260139.23, -536528.94, -27153.1, 0.013293168, -0.13623641, -257496.92, 93354.27, 0.0000038968087, 10.001541, 9.997902 
1.4652032e+3, 2.741956e+2, -203155.39, -431834.06, -68891.56, 0.12870511, -0.15770309, -184004.9, 68865.3, 0.000030518888, 10.001143, 9.9981365 
1.4652291e+3, 2.8419396e+2, -153589.52, -424390.6, -59265.996, 0.12261358, -0.09414882, -141186.94, 13701.526, 0.00014669269, 10.001102, 9.997532 
1.4652532e+3, 2.9419273e+2, 23948.68, -277748.75, -56018.465, -0.037584033, -0.017735193, 34014.24, 90918.49, 0.00052426284, 10.001609, 9.997611 
1.4652796e+3, 3.0419105e+2, 130654.46, -205026.58, -19969.322, 0.027375383, 0.073635176, 131838.23, 131838.23, 0.0013359482, 10.002052, 9.997561 
1.4653066e+3, 3.1418797e+2, 227914.56, -36871.406, -10188.295, 0.1506206, -0.043245677, 228306.02, 228306.02, 0.002551417, 10.002118, 9.998694 
1.4747933e+3, 1.2417442e+2, -2002623.9, -1719685.5, -4854.6455, -0.15326579, -0.09488074, -1719602.3, 3469.163, 0.012969953, 9.997385, 10.001192 
1.4748229e+3, 1.3417514e+2, -1792075.0, -1600373.9, 4830.921, -0.102914, -0.14322942, -1600252.3, 24812.44, 0.0076708426, 9.998366, 10.000866 
1.474851e+3, 1.4417535e+2, -1688823.9, -1478492.9, -49984.63, -0.18036127, -0.20202604, -1467218.5, 59842.715, 0.0032881629, 9.99824, 10.001115 
1.4748809e+3, 1.5417632e+2, -1627018.9, -1364223.4, -8317.221, 0.060244236, -0.27073786, -1363960.4, 65087.664, 0.00081847684, 9.997874, 10.001394 
1.4749084e+3, 1.6417685e+2, -1602619.8, -1475468.6, -47771.594, 0.11634631, -0.27375847, -1459520.8, -128479.17, 0.000071419374, 9.998113, 9.999834 
1.4749324e+3, 1.7417663e+2, -1374492.0, -1313280.6, -51551.594, -0.12778541, -0.3080198, -1283934.0, -50888.82, 0.0000002932695, 9.999016, 9.999832 
1.474958e+3, 1.8417652e+2, -1229475.9, -1230700.5, -67376.82, -0.22494835, -0.27373043, -1162708.6, -27661.664, 0.0, 9.9995, 9.999502 
1.4749858e+3, 1.9417638e+2, -1144603.0, -1119388.1, -40601.77, -0.099614054, -0.27907786, -1089481.4, -52434.047, 0.0, 9.999333, 9.999667 
1.4750142e+3, 2.0417593e+2, -1088845.4, -1108816.3, 17979.35, -0.006936221, -0.2509034, -1078264.6, -139212.77, 0.0, 9.999306, 9.999093 
1.4750431e+3, 2.1417502e+2, -963538.8, -985570.94, 53940.418, 0.044990927, -0.28806227, -919501.06, -78438.49, 0.0, 9.999458, 9.999188 
1.475071e+3, 2.2417443e+2, -858985.4, -926859.06, -76744.53, 0.08876831, -0.23518142, -809009.0, -65939.06, 0.0, 9.999693, 9.998804 
1.4750971e+3, 2.34174e+2, -693524.8, -783513.8, -128537.64, 0.11949613, -0.19448343, -602334.06, 42740.836, 0.0, 10.000101, 9.998916 
1.4751236e+3, 2.4417323e+2, -542977.56, -688914.4, -72504.13, 0.11398576, -0.13781938, -513080.84, 34002.2, 0.0, 10.000567, 9.998671 
1.4751512e+3, 2.541719e+2, -352717.6, -528945.0, 10958.847, 0.0745144, -0.1791548, -352038.72, 97057.5, 0.000000082863835, 10.001134, 9.998819 
1.4751783e+3, 2.641705e+2, -320457.28, -611549.0, -51964.203, 0.07891788, -0.12647556, -311459.06, 39652.723, 0.0000048986644, 10.00132, 9.997492 
1.4752045e+3, 2.741687e+2, -270789.06, -527829.0, -61733.074, 0.13499252, -0.09107369, -256731.48, -3598.0703, 0.00003489947, 10.000954, 9.997564 
1.4752299e+3, 2.8416675e+2, -137937.48, -355448.34, -58009.43, 0.06762996, -0.055402517, -123433.68, 31721.611, 0.00016199038, 10.000937, 9.998089 
1.4752541e+3, 2.9416457e+2, 39014.418, -194352.83, -18276.56, -0.14852749, -0.1402564, 40437.105, 97613.86, 0.00057622173, 10.001382, 9.998296 
1.4752813e+3, 3.0416244e+2, 128404.05, -159333.03, -28021.975, -0.048125755, -0.15096703, 131107.63, 131107.63, 0.0014704296, 10.001832, 9.997979 
1.4753093e+3, 3.1416127e+2, 181901.31, -49524.777, 30104.363, 0.15798885, -0.12296298, 185753.23, 185753.23, 0.002807485, 10.001769, 9.998772 
1.4847912e+3, 1.241441e+2, -2029579.6, -1682748.0, 96568.945, -0.059450056, -0.10770347, -1657673.0, 65698.234, 0.013700781, 9.996958, 10.001676 
1.4848204e+3, 1.341453e+2, -1921072.1, -1596253.9, 8563.178, -0.10713411, -0.15987344, -1596028.3, 29329.01, 0.00813248, 9.997159, 10.001497 
1.4848498e+3, 1.441461e+2, -1843831.6, -1492748.9, -35447.605, -0.07062109, -0.21808036, -1489205.6, 38141.438, 0.0035089266, 9.99696, 10.001612 
1.484879e+3, 1.5414764e+2, -1627035.5, -1307172.0, -68978.73, 0.10778261, -0.28097588, -1292930.8, 136397.97, 0.0008836724, 9.997653, 10.001874 
1.4849067e+3, 1.6414857e+2, -1569089.9, -1438200.9, -56740.19, 0.13182308, -0.27495158, -1417028.8, -85710.336, 0.00007901186, 9.998286, 10.0 
1.4849316e+3, 1.7414856e+2, -1344491.0, -1279672.8, -42325.156, -0.112366505, -0.30163196, -1258773.6, -25453.31, 0.00000037325287, 9.999157, 9.999997 
1.4849578e+3, 1.8414852e+2, -1195373.0, -1216611.4, -28795.459, -0.1912123, -0.2663349, -1175301.0, -39979.95, 0.0, 9.999745, 9.99948 
1.484986e+3, 1.9414839e+2, -1014933.9, -1059728.4, -57978.0, -0.05237846, -0.26687986, -975177.4, 62143.84, 0.0, 10.000236, 9.999641 
1.4850144e+3, 2.0414783e+2, -925991.0, -1022765.6, -1804.4777, 0.041663438, -0.2503718, -925957.4, 13369.181, 0.0, 10.000421, 9.999131 
1.4850433e+3, 2.1414663e+2, -843726.1, -916895.5, -20785.64, 0.07685576, -0.32113814, -838233.7, 3105.7603, 0.0, 10.000252, 9.999264 
1.485071e+3, 2.241458e+2, -802941.4, -944631.56, -82628.93, 0.10465309, -0.27748668, -764944.5, -21594.848, 0.0, 10.000254, 9.998415 
1.4850971e+3, 2.3414546e+2, -642275.06, -805257.06, -77418.85, 0.10043601, -0.18640937, -611362.94, 33993.45, 0.0, 10.000635, 9.998514 
1.4851241e+3, 2.4414471e+2, -515587.9, -637872.2, 341.21863, 0.100104995, -0.12234766, -515586.94, 31777.68, 0.0, 10.000591, 9.999017 
1.4851521e+3, 2.541433e+2, -486906.7, -547031.5, -40750.28, 0.11200527, -0.20929597, -466329.84, -16954.102, 0.00000011463164, 10.000011, 9.999241 
1.4851795e+3, 2.6414192e+2, -466582.16, -632220.94, -88127.64, 0.13085364, -0.1975307, -428465.47, -77076.24, 0.000005857849, 10.000121, 9.997919 
1.4852057e+3, 2.741404e+2, -196599.39, -446990.34, -68266.83, 0.14044206, -0.17215046, -179196.61, 74210.74, 0.000039275426, 10.001283, 9.997957 
1.4852312e+3, 2.8413892e+2, -9968.879, -272840.97, -21442.664, 0.07375984, -0.11628477, -8231.271, 147192.88, 0.00017769578, 10.001735, 9.998267 
1.485256e+3, 2.9413742e+2, 32173.56, -182473.64, -49711.887, -0.07600342, -0.14541751, 43127.71, 100567.305, 0.0006295016, 10.001256, 9.998448 
1.4852835e+3, 3.0413482e+2, 146869.1, -149154.06, -19606.676, 0.017549824, -0.21322231, 148162.06, 148162.06, 0.0015966581, 10.0019245, 9.998022 
1.4853118e+3, 3.1413355e+2, 494591.13, 107428.17, -68193.45, 0.14425136, -0.19524677, 506251.28, 506251.28, 0.003028199, 10.003884, 9.998834 
1.4947873e+3, 1.2411225e+2, -2004960.4, -1646394.9, -15084.388, -0.20329091, -0.32337928, -1645761.4, 77915.81, 0.014485426, 9.997024, 10.001889 
1.4948185e+3, 1.3411477e+2, -1901742.6, -1538115.3, 16345.186, -0.0461316, -0.2835154, -1537382.0, 88270.51, 0.008627366, 9.997087, 10.001933 
1.4948493e+3, 1.4411686e+2, -1832150.5, -1495868.0, -39988.68, 0.1538286, -0.23843142, -1491178.1, 36454.39, 0.0037456865, 9.997054, 10.0015545 
1.4948748e+3, 1.5411915e+2, -1647561.5, -1347236.9, -30954.877, -0.11131896, -0.20509091, -1344079.5, 85531.59, 0.0009542572, 9.99763, 10.001618 
1.4949018e+3, 1.6412093e+2, -1508472.9, -1324876.8, -43112.81, -0.23271488, -0.13693804, -1315256.9, 16336.897, 0.00008722728, 9.998333, 10.000752 
1.494931e+3, 1.7412142e+2, -1294330.4, -1164789.0, 2203.963, -0.10763621, -0.19248314, -1164751.5, 68835.945, 0.0000004647829, 9.999114, 10.000802 
1.4949594e+3, 1.8412146e+2, -1209974.1, -1252074.8, -27469.736, -0.031015199, -0.18425502, -1196416.6, -60829.965, 0.0, 9.999758, 9.999235 
1.4949869e+3, 1.9412087e+2, -1059121.4, -1125415.3, -28606.566, -0.016375171, -0.19664161, -1048484.2, -10890.849, 0.0, 10.000119, 9.9992485 
1.4950147e+3, 2.0411994e+2, -963790.0, -1073050.4, -23233.293, 0.0006868755, -0.18298669, -959054.8, -19451.643, 0.0, 10.000291, 9.998852 
1.4950433e+3, 2.1411839e+2, -890698.6, -970611.06, -15391.006, 0.037019186, -0.26144153, -887836.8, -46217.7, 0.0, 10.000063, 9.998986 
1.495071e+3, 2.2411746e+2, -787729.3, -870280.5, -86719.99, 0.055417217, -0.24067533, -732963.1, 10665.497, 0.0, 10.00006, 9.9990225 
1.4950974e+3, 2.3411736e+2, -625113.06, -719916.0, -49724.285, 0.0459013, -0.19926141, -603816.6, 41812.844, 0.0, 10.000419, 9.999207 
1.4951243e+3, 2.4411635e+2, -596924.56, -757340.0, -31216.885, 0.041802205, -0.16450915, -591063.8, -43424.816, 0.0, 10.000376, 9.9983 
1.4951517e+3, 2.5411382e+2, -573739.2, -687214.3, -43817.547, 0.054025084, -0.28279725, -558789.0, -109125.59, 0.00000015644366, 9.999833, 9.998366 
1.495179e+3, 2.6411185e+2, -425759.66, -502158.6, -62026.08, 0.051456664, -0.3277834, -391113.84, -39431.816, 0.000006865855, 9.9999275, 9.998903 
1.495206e+3, 2.7411062e+2, -149548.3, -295589.38, -6965.8467, 0.024248278, -0.3867085, -149216.8, 104475.71, 0.00004412461, 10.001056, 9.9991045 
1.4952324e+3, 2.8411037e+2, -50300.473, -309943.66, -49176.418, 0.0006223914, -0.264158, -41298.56, 114397.734, 0.00019465707, 10.001527, 9.998115 
1.4952585e+3, 2.9411107e+2, -11424.312, -232933.34, -41905.74, 0.021037657, -0.050687008, -3761.5408, 53932.66, 0.00068026903, 10.001074, 9.998194 
1.4952862e+3, 3.0410808e+2, 75640.11, -238092.53, 37722.684, 0.06490014, -0.12213664, 80112.08, 80112.08, 0.0016999418, 10.001685, 9.9975195 
1.4953135e+3, 3.141046e+2, 410186.6, 30611.537, 40441.168, -0.13942797, -0.27772853, 414447.5, 414447.5, 0.0031866326, 10.003462, 9.998508 
1.504785e+3, 1.2408317e+2, -1950402.9, -1650791.6, 76543.68, -0.15756586, -0.39364603, -1632369.3, 91590.016, 0.015336173, 9.9975395, 10.001609 
1.5048163e+3, 1.3408619e+2, -1907284.8, -1570854.3, 56124.57, 0.038245972, -0.28662735, -1561738.3, 64193.086, 0.0091627855, 9.997162, 10.001676 
1.5048471e+3, 1.44088e+2, -1839762.3, -1527146.0, 14194.287, 0.22483593, -0.24492913, -1526502.9, 1412.5908, 0.0040015904, 9.997147, 10.0012865 
1.5048721e+3, 1.5409009e+2, -1667711.5, -1380218.3, -14972.731, -0.12501843, -0.20472114, -1379440.6, 50455.83, 0.001031135, 9.997614, 10.001391 
1.5048993e+3, 1.6409186e+2, -1554650.5, -1324077.0, -9806.964, -0.27008632, -0.13337927, -1323660.6, 8218.322, 0.000096309515, 9.99789, 10.000986 
1.5049301e+3, 1.7409268e+2, -1383963.3, -1171518.5, -33631.844, -0.055045094, -0.1888417, -1166321.5, 67546.96, 0.000000575819, 9.998321, 10.001144 
1.5049595e+3, 1.8409286e+2, -1336995.6, -1306246.4, -40390.887, 0.05349001, -0.186798, -1278402.9, -142537.22, 0.0, 9.998866, 9.999281 
1.5049866e+3, 1.9409215e+2, -1095162.0, -1136038.1, -39494.133, -0.027003769, -0.21386118, -1071131.0, -33256.92, 0.0, 9.999849, 9.999294 
1.5050146e+3, 2.040914e+2, -975446.2, -1068149.1, -7749.077, -0.02535228, -0.18907894, -974802.9, -34920.277, 0.0, 10.000175, 9.998941 
1.5050437e+3, 2.1409051e+2, -930712.25, -982169.3, -8353.346, 0.09330252, -0.20962393, -929390.1, -87497.234, 0.0, 9.999752, 9.999063 
1.5050717e+3, 2.2408976e+2, -821007.44, -852561.25, -20254.582, 0.13592313, -0.18657517, -811110.25, -67209.91, 0.0, 9.999719, 9.999293 
1.5050977e+3, 2.3408915e+2, -619063.7, -682495.0, -46581.414, 0.055945083, -0.22191828, -594425.9, 51478.277, 0.0, 10.000336, 9.999491 
1.5051246e+3, 2.44088e+2, -539784.56, -739599.44, -18847.822, 0.036400292, -0.21404473, -538022.25, 9892.732, 0.0, 10.000823, 9.998196 
1.5051524e+3, 2.5408593e+2, -388961.16, -609856.1, -17941.746, 0.0964758, -0.2730384, -387513.34, 62423.29, 0.00000020302433, 10.001167, 9.99824 
1.50518e+3, 2.6408413e+2, -228722.52, -384625.16, 13165.595, 0.097682565, -0.30175564, -227618.53, 124335.36, 0.0000077496, 10.001172, 9.999114 
1.5052067e+3, 2.7408272e+2, -174879.25, -279619.97, -20793.49, 0.008992664, -0.4071688, -170902.25, 83062.71, 0.000048509926, 10.000737, 9.999376 
1.5052335e+3, 2.8408244e+2, -144824.61, -358610.47, -59749.855, -0.008060577, -0.29886904, -129258.8, 26709.664, 0.00020995413, 10.000901, 9.998078 
1.5052609e+3, 2.9408348e+2, 126233.6, -163994.23, -88046.46, 0.10641477, -0.046808764, 150855.44, 208819.47, 0.0007218459, 10.00205, 9.998171 
1.5052891e+3, 3.0408043e+2, 187572.89, -210003.56, 50242.27, 0.14678499, -0.112432696, 193823.8, 193823.8, 0.0017673858, 10.002548, 9.997314 
1.505316e+3, 3.1407663e+2, 160682.4, -68865.32, 20762.916, -0.11133933, -0.26611006, 162545.33, 162545.33, 0.0032624332, 10.00164, 9.998722 
1.514784e+3, 1.2405803e+2, -1979675.1, -1746074.0, -1792.7, -0.081488736, -0.26158303, -1746060.3, -21854.033, 0.016257107, 9.9976845, 10.000883 
1.5148136e+3, 1.3406006e+2, -2004884.0, -1747617.6, 75886.97, 0.024656475, -0.14938515, -1726901.1, -100712.18, 0.009740974, 9.997073, 10.000496 
1.5148419e+3, 1.4405987e+2, -1862527.6, -1601813.1, 10371.051, -0.044624582, -0.21417235, -1601401.1, -73209.32, 0.0042781597, 9.997245, 10.000733 
1.5148707e+3, 1.5406044e+2, -1697135.3, -1444709.1, 15309.932, -0.0583419, -0.28089577, -1443783.9, -13599.418, 0.0011151112, 9.997619, 10.00095 
1.5148991e+3, 1.6406135e+2, -1558684.1, -1347911.5, -15054.5, -0.108308084, -0.2629644, -1346841.8, -14667.89, 0.000106548556, 9.99795, 10.000793 
1.5149286e+3, 1.7406236e+2, -1403683.4, -1203489.5, -5627.4697, -0.06376449, -0.2862654, -1203331.5, 30830.795, 0.0000007145684, 9.998274, 10.000951 
1.5149574e+3, 1.8406281e+2, -1308776.0, -1246074.6, -20579.773, -0.07230383, -0.26909056, -1239923.4, -103766.1, 0.0, 9.9988575, 9.9997 
1.514985e+3, 1.9406228e+2, -1080775.4, -1079830.0, 9233.519, -0.19917385, -0.3210856, -1071057.1, -32894.18, 0.0, 9.999737, 9.999736 
1.5150136e+3, 2.0406233e+2, -966261.1, -1017947.25, -36767.418, -0.16455196, -0.25967503, -947163.06, -6999.0273, 0.0, 10.000036, 9.999355 
1.515044e+3, 2.1406312e+2, -931246.44, -934991.25, -11526.619, 0.12771668, -0.15328802, -921441.1, -79281.734, 0.0, 9.99954, 9.999491 
1.5150724e+3, 2.2406282e+2, -862206.94, -887225.94, -15758.359, 0.21533924, -0.10326663, -854596.44, -110433.1, 0.0, 9.999496, 9.9991665 
1.5150979e+3, 2.3406085e+2, -662544.2, -727570.2, -8153.6465, 0.01509403, -0.25363174, -661537.4, -15356.927, 0.0, 10.000139, 9.999279 
1.5151249e+3, 2.440596e+2, -540242.1, -696208.75, -21143.152, -0.04620249, -0.2604255, -537426.75, 10765.778, 0.0, 10.000623, 9.998596 
1.5151541e+3, 2.5405934e+2, -384223.94, -555639.8, 9605.183, 0.11238947, -0.18523566, -383687.38, 66510.54, 0.00000026346208, 10.000967, 9.998716 
1.5151817e+3, 2.640584e+2, -289354.75, -459115.03, -13537.636, 0.13528232, -0.13636766, -288281.94, 63926.41, 0.000008336701, 10.000955, 9.998708 
1.5152071e+3, 2.740565e+2, -239315.78, -367255.03, -16485.705, -0.036506575, -0.24526598, -237225.66, 17000.348, 0.00005112129, 10.000547, 9.998866 
1.5152338e+3, 2.8405517e+2, -176693.47, -385567.9, -36861.004, -0.09722064, -0.20707871, -170379.31, -14139.813, 0.00022272031, 10.000725, 9.997976 
1.5152626e+3, 2.9405448e+2, 87251.625, -196013.98, -21078.42, 0.03804863, -0.12534134, 88811.52, 147061.05, 0.0007568992, 10.001831, 9.998056 
1.5152915e+3, 3.0405158e+2, 152062.36, -211188.88, 13026.915, 0.120853074, -0.1748664, 152528.92, 152528.92, 0.0018094213, 10.002264, 9.997431 
1.5153188e+3, 3.1404945e+2, 164439.64, 28871.207, 43348.08, -0.05242289, -0.18720938, 177115.08, 177115.08, 0.0032761982, 10.001291, 9.999547 
1.5247816e+3, 1.2403083e+2, -1928010.5, -1746992.4, -3429.826, -0.090054, -0.2341714, -1746927.4, -22455.678, 0.017244658, 9.998175, 10.000635 
1.524812e+3, 1.3403198e+2, -1727456.4, -1713190.5, 7220.6216, 0.06363712, -0.12475616, -1710173.8, -83709.164, 0.010359608, 9.999424, 9.999589 
1.5248398e+3, 1.4403108e+2, -1596345.8, -1518837.6, -22244.08, -0.055860966, -0.1854997, -1512907.5, 15567.064, 0.0045741852, 9.999278, 10.000316 
1.5248692e+3, 1.5403105e+2, -1600228.6, -1425530.5, -45491.363, 0.0153236715, -0.28854197, -1414394.4, 16077.097, 0.0012060112, 9.998392, 10.000709 
1.5248983e+3, 1.6403136e+2, -1593508.1, -1397132.3, -15421.687, 0.012644156, -0.30308622, -1395928.6, -63462.195, 0.000118081814, 9.997888, 10.000476 
1.5249273e+3, 1.7403209e+2, -1393628.0, -1226640.5, -45979.297, -0.021964965, -0.32130665, -1214817.4, 19641.531, 0.0000008766353, 9.998498, 10.000673 
1.5249561e+3, 1.8403254e+2, -1281259.1, -1189692.3, -38412.89, -0.07586464, -0.30245018, -1175712.3, -39258.277, 0.0, 9.998852, 10.000103 
1.5249842e+3, 1.9403255e+2, -1138116.0, -1056901.6, -37009.86, -0.2004244, -0.34549746, -1042566.3, -4113.3477, 0.0, 9.999111, 10.00021 
1.5250133e+3, 2.0403293e+2, -1045666.8, -1039101.5, -83137.805, -0.15774594, -0.28333762, -959181.56, -18731.387, 0.0, 9.999394, 9.999523 
1.5250434e+3, 2.1403377e+2, -888228.9, -897438.0, -108727.09, 0.12921374, -0.18929027, -784008.9, 58436.387, 0.0, 9.999746, 9.999648 
1.5250722e+3, 2.2403356e+2, -759838.56, -824657.1, -64069.76, 0.22279654, -0.14363852, -720447.44, 24000.992, 0.0, 10.000128, 9.999296 
1.5250982e+3, 2.3403183e+2, -586271.06, -673298.7, -56134.723, 0.030655965, -0.2852302, -558759.8, 87703.73, 0.0, 10.000581, 9.999437 
1.5251257e+3, 2.440311e+2, -499535.0, -619243.2, -39958.63, -0.027530106, -0.2737532, -487422.4, 61048.582, 0.0, 10.000684, 9.999079 
1.5251546e+3, 2.5403172e+2, -430503.7, -515870.53, -38407.32, 0.11040314, -0.16108474, -415767.63, 34700.457, 0.0000003530132, 10.000402, 9.999247 
1.5251824e+3, 2.640313e+2, -341732.25, -507337.4, -16029.715, 0.13311344, -0.08077627, -340194.94, 12279.227, 0.000008619123, 10.000682, 9.998513 
1.5252082e+3, 2.7402934e+2, -85017.34, -313671.44, -34911.99, -0.01809788, -0.16451257, -79805.61, 174687.75, 0.000051931653, 10.001711, 9.998663 
1.5252355e+3, 2.840276e+2, 48817.473, -254869.39, -2714.4868, -0.062501036, -0.16820338, 48841.734, 205352.77, 0.00023518385, 10.002177, 9.998186 
1.5252645e+3, 2.9402596e+2, 95904.55, -168051.47, 401.34888, 0.07013256, -0.20093493, 95905.16, 154433.47, 0.0007914771, 10.001771, 9.9983 
1.5252937e+3, 3.0402383e+2, 99809.516, -246710.81, 67621.3, 0.1537404, -0.18170902, 112537.86, 112537.86, 0.0018456153, 10.0019245, 9.997366 
1.5253215e+3, 3.1402275e+2, 370960.34, 131527.44, 18012.615, 0.02891504, -0.080071025, 372307.84, 372307.84, 0.0032737567, 10.002672, 9.999604 
1.5347788e+3, 1.2400197e+2, -1909517.9, -1727550.0, 105336.5, -0.26623353, -0.28194135, -1679343.9, 45407.688, 0.018294634, 9.998247, 10.000737 
1.5348114e+3, 1.3400212e+2, -1772940.8, -1815506.1, 52461.26, 0.027248003, -0.20624217, -1737609.5, -110853.18, 0.011016667, 9.999461, 9.998868 
1.5348408e+3, 1.4400195e+2, -1591423.0, -1544911.1, -76474.06, 0.041452054, -0.13641018, -1488235.1, 40525.25, 0.0048880493, 9.999428, 10.000072 
1.5348676e+3, 1.5400216e+2, -1613754.8, -1436943.1, -70904.38, -0.026851397, -0.20618589, -1412021.9, 18733.379, 0.0013030368, 9.998331, 10.000661 
1.534896e+3, 1.6400215e+2, -1618946.5, -1463965.6, -18259.768, -0.03550166, -0.2294893, -1461843.3, -129089.19, 0.00013086536, 9.997938, 9.999998 
1.5349258e+3, 1.740019e+2, -1438805.0, -1310258.8, -12300.105, -0.040458273, -0.2894227, -1309092.4, -74334.6, 0.0000010420176, 9.998455, 10.00012 
1.5349552e+3, 1.8400215e+2, -1255372.1, -1140757.8, -46172.66, -0.08578274, -0.2738213, -1124471.3, 12283.647, 0.0, 9.998868, 10.000432 
1.5349841e+3, 1.94003e+2, -1114953.6, -993062.94, -17049.111, -0.14758997, -0.28089988, -990723.2, 48020.695, 0.0, 9.999037, 10.000687 
1.5350132e+3, 2.0400323e+2, -1071266.8, -1052832.0, -84799.74, -0.13422152, -0.25958487, -976750.1, -36009.324, 0.0, 9.99923, 9.999504 
1.535042e+3, 2.1400249e+2, -930839.94, -931768.1, -81893.305, -0.017016418, -0.31502068, -849409.44, -6659.071, 0.0, 9.999518, 9.99952 
1.5350705e+3, 2.2400208e+2, -765288.56, -780236.6, -61156.613, 0.028651461, -0.30075434, -711150.94, 33604.19, 0.0, 9.999886, 9.999718 
1.5350987e+3, 2.340021e+2, -580625.5, -612556.3, -22734.6, -0.010461246, -0.31813967, -568810.44, 77942.99, 0.0, 10.000365, 9.999961 
1.5351264e+3, 2.440024e+2, -501380.66, -561535.94, -61601.53, -0.03887907, -0.25685918, -462906.03, 85844.75, 0.0, 10.000427, 9.999593 
1.5351538e+3, 2.5400302e+2, -427565.7, -463344.88, -34027.496, -0.027765172, -0.19684713, -407011.72, 43735.453, 0.0000004707298, 10.000211, 9.999696 
1.5351816e+3, 2.6400283e+2, -366150.97, -515696.16, 0.73743373, -0.037987966, -0.11748799, -366150.97, -13399.993, 0.0000086272985, 10.000497, 9.998547 
1.5352096e+3, 2.7400136e+2, -114896.36, -331448.47, 16227.64, -0.07722453, -0.15245956, -113687.07, 141080.11, 0.000052741245, 10.001518, 9.998636 
1.5352379e+3, 2.8399962e+2, 46656.242, -208328.31, -27238.652, -0.054676183, -0.17495313, 49533.54, 206318.63, 0.00024875673, 10.001948, 9.998622 
1.5352665e+3, 2.939977e+2, 97810.72, -116907.88, 7815.8125, 0.058507163, -0.2885086, 98094.836, 156897.95, 0.00082809955, 10.001558, 9.998756 
1.5352952e+3, 3.03997e+2, 42161.3, -307688.78, 75536.51, 0.10231684, -0.13391854, 57773.746, 57773.746, 0.0018913832, 10.001686, 9.997055 
1.535323e+3, 3.1399658e+2, 265103.4, 17974.506, 96229.44, -0.12266808, 0.06382586, 298154.03, 298154.03, 0.0032998577, 10.002233, 9.999025 
1.5447785e+3, 1.23972714e+2, -1778813.0, -1665654.1, 75948.41, -0.13181883, -0.29710662, -1627526.8, 97509.3, 0.019406972, 9.999149, 10.000725 
1.5448101e+3, 1.3397221e+2, -1857988.6, -1843850.8, 33726.69, -0.0062084715, -0.3009287, -1816460.1, -189414.02, 0.0117135905, 9.9987955, 9.998999 
1.54484e+3, 1.4397244e+2, -1802712.8, -1645809.6, -13627.364, 0.12065477, -0.19868504, -1644634.9, -115589.1, 0.0052204016, 9.997979, 10.000079 
1.5448663e+3, 1.5397301e+2, -1510119.0, -1385671.4, -21044.732, 0.0064489082, -0.23553842, -1382209.0, 48828.344, 0.0014059248, 9.999013, 10.000698 
1.5448947e+3, 1.6397303e+2, -1435029.6, -1415759.0, 74205.125, -0.018691605, -0.24110606, -1350566.3, -17529.846, 0.00014487762, 9.999382, 9.999621 
1.5449242e+3, 1.7397253e+2, -1404323.8, -1344023.0, 57600.734, -0.048326086, -0.28976673, -1309158.9, -74114.48, 0.000001197513, 9.998893, 9.999678 
1.5449539e+3, 1.8397266e+2, -1309440.8, -1166368.3, 55926.785, -0.076932766, -0.26074615, -1147101.3, -10057.26, 0.0, 9.99852, 10.000412 
1.5449837e+3, 1.9397376e+2, -1159387.5, -1004186.44, 27873.52, -0.071134225, -0.24592842, -999332.3, 39698.383, 0.0, 9.998716, 10.000754 
1.5450129e+3, 2.0397392e+2, -1107347.5, -1054030.5, -23645.62, -0.045167062, -0.24341813, -1045054.94, -104026.88, 0.0, 9.998924, 9.999647 
1.5450414e+3, 2.1397266e+2, -961954.1, -928682.4, -33119.664, -0.0064498074, -0.36383373, -908255.25, -65214.33, 0.0, 9.999234, 9.999683 
1.54507e+3, 2.2397226e+2, -835280.7, -792002.1, 15135.42, 0.020911, -0.3661869, -787234.2, -42189.223, 0.0, 9.99933, 9.999897 
1.5450987e+3, 2.3397306e+2, -732327.44, -660835.94, -8151.9463, 0.02611806, -0.32494575, -659918.2, -12881.669, 0.0, 9.999244, 10.00016 
1.5451267e+3, 2.4397345e+2, -627559.75, -624994.1, -46127.91, 0.0010882199, -0.26127458, -580131.2, -31098.422, 0.000000000009610117, 9.999542, 9.999604 
1.5451537e+3, 2.5397334e+2, -400541.7, -452717.34, -76350.11, -0.05624243, -0.27204657, -345945.47, 105090.125, 0.0000005675007, 10.000381, 9.999709 
1.5451817e+3, 2.6397306e+2, -320429.3, -476734.94, -26229.855, -0.0672239, -0.2100173, -316145.06, 36895.344, 0.000008574752, 10.000754, 9.99869 
1.545211e+3, 2.739722e+2, -252758.63, -390490.34, -32265.625, -0.036416773, -0.19191884, -245574.66, 9476.957, 0.00005426492, 10.000527, 9.99872 
1.5452397e+3, 2.8397083e+2, -139238.97, -279816.38, -62141.484, 0.003033243, -0.18919231, -115708.34, 41358.176, 0.00026286932, 10.000627, 9.998735 
1.5452676e+3, 2.9396906e+2, 56466.93, -123815.17, -95315.445, 0.043057665, -0.29353923, 97514.46, 156597.27, 0.00086847367, 10.001246, 9.998834 
1.5452968e+3, 3.039689e+2, 97073.9, -254874.47, 29112.988, 0.076202326, -0.10255736, 99465.85, 99465.85, 0.001958194, 10.001938, 9.997305 
1.5453258e+3, 3.139677e+2, 275612.56, -14078.082, 26218.344, -0.062474873, 0.006234284, 277966.3, 277966.3, 0.0033838842, 10.0024605, 9.998694 
1.5547787e+3, 1.2394228e+2, -1759321.8, -1651705.9, -132599.33, -0.106909074, -0.3304106, -1562412.9, 162919.53, 0.020587768, 9.9992895, 10.000751 
1.5548071e+3, 1.3394222e+2, -1786746.1, -1670737.6, -8570.506, -0.20372869, -0.39427182, -1670107.9, -42773.656, 0.012455585, 9.998703, 10.000232 
1.5548375e+3, 1.4394245e+2, -1766198.0, -1581561.6, -12927.53, 0.037317254, -0.3840235, -1580660.9, -51329.355, 0.0055746003, 9.998015, 10.000507 
1.5548655e+3, 1.5394375e+2, -1499910.4, -1360789.4, 35870.758, -0.014068241, -0.37197453, -1352085.1, 79230.766, 0.001515748, 9.999002, 10.000872 
1.5548939e+3, 1.6394432e+2, -1434691.4, -1439430.3, 47051.53, -0.07429469, -0.32002383, -1389949.6, -56639.383, 0.00016035176, 9.999476, 9.99942 
1.5549223e+3, 1.7394409e+2, -1427080.9, -1381494.9, 48083.605, -0.1551122, -0.31292373, -1351075.5, -115758.11, 0.0000013687348, 9.998851, 9.999443 
1.5549517e+3, 1.8394424e+2, -1338643.4, -1219239.3, 44259.82, -0.17317225, -0.25497025, -1204622.6, -67303.69, 0.0, 9.998488, 10.000063 
1.5549824e+3, 1.9394489e+2, -1208823.8, -1075033.5, 48755.27, -0.09066763, -0.24778157, -1059151.6, -19838.328, 0.0, 9.998586, 10.00033 
1.5550125e+3, 2.0394495e+2, -1103362.0, -1023194.8, -28168.6, -0.019348104, -0.23937719, -1014286.94, -72974.73, 0.0, 9.998812, 9.999921 
1.5550412e+3, 2.1394427e+2, -959525.9, -887045.56, -7568.892, 0.049006883, -0.33633065, -886263.6, -42946.316, 0.0, 9.999061, 10.000063 
1.5550698e+3, 2.2394411e+2, -876282.56, -828269.2, -1212.6108, 0.06443077, -0.33190492, -828238.6, -82920.51, 0.0, 9.999117, 9.999751 
1.555098e+3, 2.3394449e+2, -775367.7, -715304.94, 2471.5586, 0.018046685, -0.3083636, -715203.4, -67888.99, 0.0, 9.9990835, 9.999868 
1.555126e+3, 2.4394417e+2, -687345.3, -696304.44, -30244.12, -0.04474255, -0.2839869, -661250.8, -111932.87, 0.0, 9.999319, 9.99922 
1.5551539e+3, 2.5394282e+2, -455173.16, -519616.8, -30260.416, -0.09745458, -0.38171053, -443191.6, 8140.5083, 0.0000005355393, 10.000185, 9.999343 
1.5551825e+3, 2.6394197e+2, -339487.22, -474196.2, -40630.563, -0.091522165, -0.35992247, -328181.25, 25160.766, 0.000008556659, 10.00057, 9.9987955 
1.5552118e+3, 2.7394187e+2, -266738.53, -380302.0, -19660.215, -0.008265468, -0.29036114, -263431.25, -8084.852, 0.000056489618, 10.000359, 9.998868 
1.5552405e+3, 2.8394118e+2, -191361.77, -342530.0, -54181.473, -0.0070575327, -0.20754217, -173948.08, -16592.861, 0.00027893353, 10.000435, 9.998396 
1.5552676e+3, 2.9393995e+2, 2949.799, -182287.0, -51381.363, -0.111938804, -0.23038898, 16247.463, 75616.03, 0.0009152954, 10.001029, 9.998532 
1.5552974e+3, 3.0393955e+2, 98165.22, -187758.95, 35234.254, -0.071865566, -0.07614363, 102443.11, 102443.11, 0.0020518804, 10.001678, 9.997879 
1.5553288e+3, 3.1393617e+2, 192420.28, -66935.95, 81979.984, -0.053458605, -0.25348148, 216160.33, 216160.33, 0.0035361347, 10.001978, 9.998546 
1.5647794e+3, 1.23914115e+2, -1794696.1, -1696883.8, -39935.758, 0.062290266, -0.3365781, -1682649.8, 42956.77, 0.021849003, 9.999158, 10.00051 
1.5648067e+3, 1.3391337e+2, -1727428.1, -1670889.0, 4719.3677, -0.12646255, -0.43484548, -1670497.8, -42883.613, 0.013250772, 9.999212, 10.000004 
1.5648355e+3, 1.4391308e+2, -1576195.9, -1494843.6, -11887.883, -0.023256937, -0.47127056, -1493142.0, 36474.22, 0.0059556314, 9.999352, 10.000453 
1.5648648e+3, 1.539145e+2, -1467823.3, -1364059.4, -20479.258, 0.006307145, -0.43147668, -1360163.8, 71435.97, 0.0016345053, 9.9993105, 10.000693 
1.5648931e+3, 1.6391511e+2, -1481681.0, -1467278.3, -9424.813, -0.05569645, -0.36378115, -1462618.5, -129024.73, 0.00017771397, 9.999172, 9.999384 
1.5649213e+3, 1.739149e+2, -1331849.8, -1336756.5, -15477.125, -0.16537035, -0.35085332, -1318632.8, -83032.625, 0.0000016137079, 9.999496, 9.999447 
1.5649505e+3, 1.8391494e+2, -1225262.3, -1206195.0, 17332.408, -0.16067043, -0.2884386, -1195947.3, -58343.863, 0.0, 9.9994335, 9.9997 
1.5649816e+3, 1.9391526e+2, -1178651.5, -1109025.9, -4971.3984, -0.030696055, -0.27566838, -1108672.6, -69069.46, 0.0, 9.998975, 9.999915 
1.5650119e+3, 2.0391549e+2, -1091022.8, -974642.2, -32445.035, 0.055837758, -0.24264118, -966208.25, -24606.674, 0.0, 9.998751, 10.000259 
1.5650406e+3, 2.139158e+2, -891044.7, -795193.5, -35633.945, 0.079414934, -0.2883856, -783397.75, 60198.55, 0.0, 9.999323, 10.000538 
1.5650694e+3, 2.2391583e+2, -795703.25, -814331.6, -12129.661, 0.07792787, -0.27881578, -789724.2, -44129.76, 0.0, 9.999755, 9.999546 
1.5650977e+3, 2.3391543e+2, -664632.06, -686761.06, -32343.635, 0.04296961, -0.31002724, -641512.75, 6085.634, 0.0, 9.999939, 9.99965 
1.565126e+3, 2.439147e+2, -568262.25, -655414.94, -12320.515, -0.008097627, -0.31052074, -566554.0, -16947.744, 0.0, 10.00019, 9.999088 
1.5651542e+3, 2.5391343e+2, -411257.4, -509118.3, -18538.176, -0.08490675, -0.38531843, -407863.38, 43756.684, 0.00000039469393, 10.000528, 9.999248 
1.5651833e+3, 2.639127e+2, -278514.94, -440690.3, -12785.674, -0.08108855, -0.3487102, -277513.13, 76116.05, 0.000008163994, 10.000978, 9.998824 
1.5652132e+3, 2.7391267e+2, -89894.09, -290278.6, -36746.773, 0.027507415, -0.27391383, -83367.97, 172264.8, 0.000058543963, 10.001557, 9.998903 
1.5652417e+3, 2.8391188e+2, -2546.3594, -259130.16, -37404.21, 0.022835068, -0.19862232, 2795.1448, 160437.28, 0.00029613846, 10.001749, 9.998361 
1.5652685e+3, 2.9391026e+2, 61873.1, -159431.7, -51656.43, -0.13243018, -0.24264488, 73336.8, 132994.77, 0.00096598663, 10.00144, 9.998512 
1.5652987e+3, 3.0390948e+2, 130170.76, -111240.96, 96219.555, -0.086677015, -0.15715966, 163828.45, 163828.45, 0.0021640193, 10.001611, 9.998438 
1.5653314e+3, 3.1390697e+2, 229356.75, -58841.785, 75394.52, 0.018308543, -0.30359614, 247888.77, 247888.77, 0.0037402343, 10.002202, 9.998515 
1.5747787e+3, 1.2388871e+2, -1800554.0, -1729206.4, -93696.48, 0.0038812123, -0.27839783, -1664622.3, 61231.49, 0.023204513, 9.999225, 10.000268 
1.5748084e+3, 1.3388637e+2, -1846565.0, -1921279.0, 31751.262, 0.094600536, -0.3653062, -1834894.5, -207015.44, 0.014108494, 9.999227, 9.998276 
1.5748337e+3, 1.4388475e+2, -1594987.0, -1566442.5, -29454.836, -0.19098024, -0.42364892, -1547984.3, -18088.229, 0.0063687824, 9.999492, 9.999895 
1.5748638e+3, 1.538853e+2, -1516519.4, -1456159.8, -16254.683, -0.040531754, -0.40488932, -1452060.9, -20172.125, 0.00176415, 9.999281, 10.0000725 
1.5748924e+3, 1.6388537e+2, -1461833.6, -1435620.5, -19347.637, -0.096345425, -0.3680093, -1425358.0, -91470.63, 0.00019721544, 9.999206, 9.999588 
1.5749207e+3, 1.73885e+2, -1316783.8, -1299462.5, 9980.364, -0.19882172, -0.4021106, -1294909.0, -59016.508, 0.0000019795527, 9.99947, 9.999717 
1.5749504e+3, 1.8388492e+2, -1240340.0, -1246100.8, -11726.601, -0.17043778, -0.35502234, -1231145.1, -93249.195, 0.0, 9.999464, 9.999413 
1.574981e+3, 1.9388516e+2, -1223150.1, -1174149.1, -12013.806, -0.007225946, -0.30953225, -1171362.1, -131464.05, 0.0, 9.998859, 9.999524 
1.5750107e+3, 2.0388581e+2, -1083123.5, -933795.1, -31738.348, 0.045929708, -0.23161985, -927329.44, 14564.253, 0.0, 9.998632, 10.0006 
1.575039e+3, 2.1388705e+2, -889304.4, -753697.3, -3715.1423, -0.032252252, -0.223548, -753595.56, 90283.83, 0.0, 9.999152, 10.00091 
1.575068e+3, 2.2388726e+2, -831136.25, -841482.06, -15895.378, -0.06380372, -0.21324445, -819593.25, -73717.6, 0.0, 9.9995575, 9.999452 
1.5750973e+3, 2.3388585e+2, -707990.9, -726948.4, -14399.86, -0.011911548, -0.3299551, -700230.06, -52341.492, 0.0, 9.999726, 9.999475 
1.5751262e+3, 2.4388503e+2, -597984.25, -661758.2, -14722.487, -0.021408131, -0.33315435, -594749.56, -44852.066, 0.0, 9.999948, 9.99916 
1.5751545e+3, 2.538851e+2, -434511.53, -514208.16, 7065.703, -0.12143246, -0.28770328, -433889.97, 18010.057, 0.00000029448665, 10.000336, 9.999303 
1.5751837e+3, 2.6388508e+2, -320571.72, -481145.66, -5571.9634, -0.14242725, -0.17765266, -320378.6, 33524.86, 0.000007127328, 10.000772, 9.998648 
1.5752141e+3, 2.738845e+2, -127758.67, -323696.84, 2487.7957, -0.054030433, -0.1415154, -127727.09, 128184.65, 0.000059012113, 10.001364, 9.998768 
1.5752429e+3, 2.8388292e+2, -22272.668, -257575.58, -60705.594, -0.054120053, -0.14839238, -7534.419, 150393.14, 0.00030982727, 10.001561, 9.99846 
1.5752698e+3, 2.9388028e+2, 31832.986, -161851.56, -39180.715, -0.16333494, -0.31100294, 39458.67, 99408.516, 0.0010139171, 10.001184, 9.998616 
1.5753001e+3, 3.0387878e+2, 127963.766, -50742.72, 104684.695, -0.11667928, -0.32183778, 176243.69, 176243.69, 0.0022794015, 10.001353, 9.998962 
1.5753329e+3, 3.138795e+2, 169210.58, -60139.676, 136902.77, -0.10161698, -0.21202643, 233120.88, 233120.88, 0.0039605875, 10.001711, 9.998718 
1.5847775e+3, 1.2385992e+2, -1818831.3, -1682895.9, -175022.17, 0.002712936, -0.28623185, -1563107.5, 163030.88, 0.024665277, 9.998877, 10.00075 
1.5848081e+3, 1.3385825e+2, -1961886.1, -1958220.1, -39194.137, 0.20124254, -0.32407442, -1920816.1, -292659.97, 0.0150364665, 9.9983635, 9.99843 
1.5848325e+3, 1.4385678e+2, -1743283.5, -1660155.1, 30672.564, -0.18056515, -0.36723188, -1650062.9, -119891.75, 0.0068181083, 9.998564, 9.999703 
1.5848635e+3, 1.5385653e+2, -1481036.0, -1470750.9, 34848.32, -0.0009688252, -0.39719817, -1440667.8, -8495.705, 0.0019058621, 9.999651, 9.999799 
1.5848924e+3, 1.638563e+2, -1334262.4, -1383636.9, 53269.57, -0.03934905, -0.37325466, -1300237.5, 33936.492, 0.0002187055, 10.000128, 9.999494 
1.5849209e+3, 1.7385611e+2, -1222943.4, -1257655.8, 25350.01, -0.13969493, -0.38504583, -1209577.3, 26600.172, 0.000002466339, 10.000139, 9.999674 
1.5849504e+3, 1.8385592e+2, -1189606.0, -1229514.1, 16.506895, -0.107608676, -0.34205976, -1189606.0, -51424.695, 0.0, 9.999863, 9.99933 
1.5849803e+3, 1.9385564e+2, -1128862.9, -1133155.5, -8254.967, 0.019810878, -0.34086397, -1122479.8, -82292.7, 0.0, 9.999539, 9.999469 
1.5850097e+3, 2.038559e+2, -1002850.6, -962666.4, 14232.015, 0.047473818, -0.27249163, -958136.5, -15949.96, 0.0, 9.999449, 10.000026 
1.5850383e+3, 2.1385698e+2, -835614.4, -801028.44, -54024.754, -0.041505318, -0.21787678, -761596.44, 82580.41, 0.0, 9.999796, 10.000292 
1.5850674e+3, 2.238571e+2, -779101.0, -794795.1, -88099.38, -0.068205155, -0.19040608, -698499.9, 47675.207, 0.0, 9.999843, 9.999641 
1.5850969e+3, 2.3385577e+2, -690744.75, -692590.0, -85232.9, -0.013700811, -0.31691065, -606429.5, 41755.99, 0.0, 9.99973, 9.999729 
1.5851259e+3, 2.4385515e+2, -625148.56, -655980.2, -33782.855, -0.014458171, -0.31754935, -603430.44, -53238.887, 0.0, 9.99971, 9.999298 
1.5851547e+3, 2.538557e+2, -486098.6, -527932.0, -44398.414, -0.11313647, -0.23325884, -457936.5, -5746.5273, 0.00000023115544, 9.999951, 9.999387 
1.585184e+3, 2.6385576e+2, -412945.63, -515029.78, -16589.764, -0.14742522, -0.121035784, -410317.28, -56124.832, 0.0000061293663, 10.000099, 9.998732 
1.5852143e+3, 2.7385482e+2, -277548.75, -380409.06, -24816.11, -0.09730819, -0.12696718, -271874.63, -15671.634, 0.000060026516, 10.00029, 9.998879 
1.5852438e+3, 2.8385317e+2, -161373.17, -340023.22, -70150.625, -0.069017455, -0.13941777, -137119.72, 21098.926, 0.0003212461, 10.000672, 9.998314 
1.585272e+3, 2.938505e+2, 35070.96, -178905.28, -108707.85, -0.059538856, -0.28728476, 80607.77, 140849.11, 0.0010569163, 10.001267, 9.998457 
1.5853027e+3, 3.0384824e+2, 196631.02, -15817.009, 53997.406, -0.011217069, -0.37494528, 209567.66, 209567.66, 0.0023844014, 10.001787, 9.999024 
1.5853345e+3, 3.138497e+2, 213390.0, -12144.631, -23271.393, -0.105674595, -0.1788113, 215766.19, 215766.19, 0.0041548307, 10.001873, 9.999001 
1.5947782e+3, 1.23827994e+2, -1720658.8, -1536452.4, -29508.164, 0.112414904, -0.36376044, -1531840.9, 194617.23, 0.026239868, 9.999053, 10.001703 
1.5948057e+3, 1.338289e+2, -1829049.3, -1683522.9, -39414.586, 0.10756624, -0.33901843, -1673533.5, -45087.1, 0.016040104, 9.998363, 10.000313 
1.5948318e+3, 1.4382909e+2, -1715646.0, -1635670.1, 51654.99, -0.1530501, -0.32060656, -1610333.8, -79891.28, 0.0073062, 9.998684, 9.999823 
1.5948635e+3, 1.5382847e+2, -1471642.9, -1462878.9, 87804.55, 0.0060536433, -0.39714065, -1379347.1, 53099.836, 0.002060233, 9.999687, 9.999843 
1.5948932e+3, 1.6382824e+2, -1352207.8, -1440384.0, 39535.047, -0.0075849216, -0.35541597, -1337077.8, -2627.5623, 0.00024185247, 10.00021, 9.999065 
1.594922e+3, 1.7382845e+2, -1262208.5, -1332409.9, 36047.207, -0.085119516, -0.2782503, -1246995.5, -10542.956, 0.0000030340082, 10.0001135, 9.999171 
1.5949507e+3, 1.8382807e+2, -1177302.1, -1209653.6, -27589.86, -0.0988877, -0.23576804, -1161495.8, -23037.176, 0.0, 9.99988, 9.999459 
1.5949793e+3, 1.9382669e+2, -1130691.3, -1112214.3, -7861.046, -0.06353207, -0.3646605, -1109322.4, -68852.48, 0.0, 9.999434, 9.999662 
1.5950084e+3, 2.0382585e+2, -1121559.0, -1178311.0, 11661.9, -0.06070368, -0.35368037, -1119256.1, -176776.7, 0.0, 9.999319, 9.998606 
1.595038e+3, 2.1382578e+2, -982919.44, -1051530.9, -28835.445, -0.063684404, -0.25436538, -972410.4, -127923.92, 0.0, 9.999568, 9.998678 
1.5950675e+3, 2.2382562e+2, -782803.0, -755951.2, -103687.49, -0.066590056, -0.18343833, -664824.0, 81665.98, 0.0, 9.999632, 10.000012 
1.5950961e+3, 2.3382533e+2, -678300.4, -622115.56, -70412.37, -0.07472692, -0.2706311, -574398.44, 74089.49, 0.0, 9.999531, 10.000312 
1.5951249e+3, 2.4382521e+2, -652682.4, -662813.44, -34000.64, -0.114193395, -0.25420687, -623372.0, -72884.93, 0.0, 9.999497, 9.999351 
1.5951541e+3, 2.5382528e+2, -516244.5, -537787.94, -19631.348, -0.17662774, -0.21926585, -504623.84, -52134.43, 0.00000009760233, 9.999738, 9.999415 
1.5951838e+3, 2.6382485e+2, -424536.72, -499540.72, -22488.748, -0.21231925, -0.16551802, -418310.66, -63815.39, 0.0000054247644, 9.999922, 9.998925 
1.5952136e+3, 2.7382386e+2, -295145.5, -370513.1, 824.6464, -0.21677527, -0.20791551, -295136.47, -38631.297, 0.0000627863, 10.000082, 9.99905 
1.5952438e+3, 2.8382266e+2, -223810.63, -412404.9, -62896.484, -0.15230376, -0.16519472, -204759.1, -46242.46, 0.0003316825, 10.000431, 9.997932 
1.5952744e+3, 2.9382068e+2, -30437.314, -257382.66, -61258.656, 0.025985178, -0.2009972, -14957.785, 45578.1, 0.0010853008, 10.001023, 9.998037 
1.5953054e+3, 3.0381757e+2, 116284.85, -110212.06, 47360.68, 0.06800929, -0.32134202, 125789.18, 125789.18, 0.0024493474, 10.0015, 9.998504 
1.5953355e+3, 3.138178e+2, 151346.23, -17569.303, 18216.307, -0.23771448, -0.2048092, 153288.39, 153288.39, 0.0042672292, 10.001378, 9.999191 
1.6047773e+3, 1.2379798e+2, -1991044.1, -1616286.6, 106844.64, 0.23375738, -0.3388007, -1587965.3, 138792.0, 0.027939666, 9.997038, 10.0021105 
1.6048037e+3, 1.3379973e+2, -1685803.1, -1547940.8, -60843.574, 0.04992688, -0.28056857, -1524929.3, 103807.73, 0.01712635, 9.999096, 10.000887 
1.6048323e+3, 1.4380053e+2, -1564277.9, -1561345.9, -12499.815, -0.0128704, -0.22923535, -1550226.5, -19499.139, 0.007836914, 9.999749, 9.999797 
1.6048633e+3, 1.537996e+2, -1524603.6, -1484806.1, -23188.209, 0.04971366, -0.33975533, -1474149.1, -41414.063, 0.0022287087, 9.999325, 9.99985 
1.6048929e+3, 1.6379927e+2, -1529864.3, -1495621.1, -31910.605, 0.028280435, -0.3171044, -1476528.9, -141790.16, 0.00026665046, 9.998872, 9.999329 
1.6049215e+3, 1.7379998e+2, -1421114.8, -1373635.3, -5358.955, -0.058369923, -0.2193409, -1373038.0, -136302.38, 0.0000036433328, 9.998875, 9.999488 
1.6049503e+3, 1.8379985e+2, -1263719.3, -1253582.6, 1470.7291, -0.08295365, -0.16451563, -1253373.5, -114635.805, 0.0, 9.999282, 9.999448 
1.6049793e+3, 1.937983e+2, -947569.5, -1030278.56, -23229.588, -0.054899585, -0.3095577, -941491.9, 99258.03, 0.0, 10.00069, 9.999625 
1.6050085e+3, 2.0379703e+2, -872036.94, -1090685.1, 24213.816, -0.046113487, -0.3264996, -869387.5, 73375.46, 0.0, 10.001195, 9.9983 
1.6050379e+3, 2.1379623e+2, -873340.1, -1033032.1, 44699.16, -0.066446945, -0.26274607, -861679.8, -16903.178, 0.0, 10.000491, 9.998356 
1.6050671e+3, 2.2379571e+2, -716814.2, -740323.06, 43117.5, -0.07525799, -0.20257168, -683877.6, 62906.082, 0.0, 10.000157, 9.999855 
1.605096e+3, 2.3379572e+2, -532209.9, -551641.9, -4344.3486, -0.081357636, -0.25401384, -531282.9, 117496.17, 0.0, 10.000557, 10.000271 
1.605125e+3, 2.4379551e+2, -486513.16, -618272.8, 16717.248, -0.10923451, -0.23306249, -484425.22, 66353.91, 0.0, 10.000782, 9.999051 
1.6051546e+3, 2.5379482e+2, -386416.8, -514210.25, -15761.847, -0.14711569, -0.23617023, -384501.47, 68287.09, 0.000000007673713, 10.000777, 9.999091 
1.6051844e+3, 2.6379386e+2, -284664.8, -411616.38, -6396.7295, -0.1620447, -0.22581612, -284343.34, 70455.36, 0.0000049768487, 10.000788, 9.999122 
1.6052146e+3, 2.7379283e+2, -174033.78, -289646.3, -22356.139, -0.1524449, -0.28563172, -169861.33, 86945.555, 0.00006482946, 10.000798, 9.999283 
1.605245e+3, 2.83792e+2, -131273.33, -369480.56, -16611.836, -0.09555409, -0.2216786, -130120.45, 28694.457, 0.00033743004, 10.0010395, 9.99795 
1.6052756e+3, 2.93791e+2, 75145.51, -203659.31, -21916.525, 0.03114173, -0.16070923, 76857.83, 137684.69, 0.0010901192, 10.00173, 9.998071 
1.6053067e+3, 3.0378783e+2, 139981.4, -156421.72, 110929.27, 0.05383556, -0.26264727, 176898.75, 176898.75, 0.0024527118, 10.001899, 9.997988 
1.6053377e+3, 3.137862e+2, 112826.86, -39002.285, -1738.2012, -0.11092813, -0.2829589, 112846.76, 112846.76, 0.00426785, 10.001089, 9.999182 
1.6147739e+3, 1.2377001e+2, -1976703.1, -1639288.1, -47179.055, 0.10325572, -0.2167911, -1632815.5, 94218.64, 0.02978273, 9.997244, 10.001861 
1.6148016e+3, 1.3377137e+2, -1744362.8, -1678707.9, 13049.162, -0.10040339, -0.10476484, -1676209.4, -47187.156, 0.018308382, 9.999128, 9.999975 
1.6148335e+3, 1.4377154e+2, -1560806.3, -1580282.1, -39013.332, 0.092204474, -0.054738246, -1530333.9, 687.6742, 0.008418617, 9.999852, 9.99962 
1.6148625e+3, 1.5376988e+2, -1532782.9, -1503329.8, -28020.139, 0.014933545, -0.22376677, -1486401.9, -53365.05, 0.0024150687, 9.999333, 9.99972 
1.6148913e+3, 1.6376932e+2, -1441710.0, -1346171.3, -55090.547, -0.071234986, -0.26296195, -1321023.6, 14017.52, 0.0002938315, 9.999, 10.000296 
1.6149196e+3, 1.7377065e+2, -1344580.4, -1215924.0, 3919.4268, -0.16478334, -0.21213269, -1215804.6, 21221.781, 0.000004294035, 9.998863, 10.000583 
1.6149488e+3, 1.8377127e+2, -1277588.0, -1279379.3, 33419.64, -0.18676575, -0.13587561, -1245052.0, -106032.73, 0.0, 9.999274, 9.999269 
1.6149801e+3, 1.9377056e+2, -986634.75, -1089881.5, 42096.816, -0.067953385, -0.16578725, -971646.5, 69379.76, 0.0, 10.000603, 9.999256 
1.61501e+3, 2.0376956e+2, -842151.0, -994500.7, -11455.6455, -0.043583244, -0.16667742, -841294.44, 101741.51, 0.0, 10.001046, 9.999029 
1.6150378e+3, 2.1376826e+2, -840208.3, -923380.44, 28137.26, -0.15406875, -0.24170819, -831583.75, 13464.656, 0.0, 10.000316, 9.99919 
1.6150662e+3, 2.237673e+2, -800111.44, -853438.44, 37992.9, -0.20574647, -0.24371468, -780359.44, -33302.215, 0.0, 9.9999075, 9.999195 
1.6150959e+3, 2.3376681e+2, -625127.3, -689152.0, 24886.74, -0.1565903, -0.26081446, -616591.7, 32468.5, 0.0, 10.000326, 9.999435 
1.6151257e+3, 2.4376589e+2, -559608.2, -724612.56, 2024.883, -0.13525514, -0.23913632, -559583.4, -8514.055, 0.0, 10.000577, 9.998422 
1.6151555e+3, 2.5376424e+2, -462130.72, -621162.56, 759.29895, -0.14757109, -0.28061733, -462127.1, -9039.206, 0.00000000987263, 10.000561, 9.99846 
1.6151857e+3, 2.6376283e+2, -318296.3, -423639.28, -20030.3, -0.13048027, -0.2875532, -314616.25, 40486.184, 0.000004852571, 10.000546, 9.999148 
1.6152166e+3, 2.737616e+2, -194770.44, -281593.5, -2066.5996, -0.054849233, -0.3820789, -194721.28, 62389.605, 0.00006465758, 10.000594, 9.999425 
1.6152467e+3, 2.8376108e+2, -143442.52, -344344.13, -11864.888, -0.050349038, -0.30354714, -142744.22, 16370.675, 0.0003366383, 10.000821, 9.998228 
1.6152756e+3, 2.9376155e+2, 61609.99, -175139.9, 25524.672, -0.17176925, -0.13503113, 64330.613, 125443.81, 0.0010767062, 10.001482, 9.998387 
1.6153066e+3, 3.037588e+2, 61194.81, -247334.38, 67342.7, -0.1891798, -0.1918781, 75253.13, 75253.13, 0.0024076046, 10.001615, 9.9974785 
1.6153401e+3, 3.1375512e+2, 25326.85, -92789.52, 23642.586, -0.031386178, -0.35974926, 29883.451, 29883.451, 0.0041744797, 10.000595, 9.999018 
1.6247718e+3, 1.23740666e+2, -1888898.3, -1677143.6, -137583.2, 0.15261045, -0.13119659, -1609414.6, 117911.39, 0.03179242, 9.998189, 10.00112 
1.6248015e+3, 1.3374197e+2, -1802799.3, -1715237.8, 25578.174, 0.006292898, -0.025991408, -1708313.5, -78998.15, 0.019603958, 9.998732, 9.999908 
1.6248332e+3, 1.437416e+2, -1734711.0, -1670511.5, 9833.857, 0.13694419, -0.025405636, -1669039.0, -137718.83, 0.009062119, 9.998708, 9.999547 
1.624862e+3, 1.5374033e+2, -1566480.6, -1522135.8, -1158.726, 0.038588896, -0.1502538, -1522105.5, -88773.64, 0.002624408, 9.9991255, 9.999684 
1.6248906e+3, 1.6373982e+2, -1377075.6, -1313202.4, -20462.275, -0.045574065, -0.18031907, -1307209.4, 28125.662, 0.00032476612, 9.999449, 10.000299 
1.6249192e+3, 1.7374057e+2, -1194354.9, -1135454.1, -74115.95, -0.12531206, -0.19368824, -1085151.8, 152172.5, 0.000005034694, 9.999877, 10.000632 
1.624949e+3, 1.8374087e+2, -1189054.0, -1251331.4, -44711.15, -0.12444202, -0.14374422, -1165706.9, -26387.299, 0.0, 9.999951, 9.999142 
1.624981e+3, 1.937405e+2, -1117111.1, -1156937.9, -45143.484, 0.0030950205, -0.1255148, -1087684.1, -46359.914, 0.0, 9.999753, 9.999199 
1.6250108e+3, 2.0373984e+2, -1011380.3, -1033892.94, -99840.695, 0.015402671, -0.10910278, -922163.4, 21167.215, 0.0, 9.999687, 9.999417 
1.6250376e+3, 2.1373865e+2, -863427.8, -885330.7, -118977.83, -0.16080958, -0.21704644, -754898.5, 90441.48, 0.0, 9.999927, 9.999645 
1.6250658e+3, 2.2373776e+2, -777928.5, -845615.25, -65903.61, -0.23219828, -0.23351379, -737686.4, 9660.685, 0.0, 10.000055, 9.999183 
1.625096e+3, 2.3373729e+2, -675695.94, -728462.7, -50937.023, -0.14681551, -0.23942293, -644715.06, 4636.3257, 0.0, 10.00002, 9.999324 
1.6251265e+3, 2.4373633e+2, -618300.8, -758269.4, 3094.2454, -0.088000014, -0.20980373, -618232.5, -66871.37, 0.0, 10.000203, 9.998363 
1.6251566e+3, 2.5373465e+2, -421874.72, -609958.0, 7278.937, -0.10435419, -0.25111663, -421593.44, 31785.91, 0.000000011745934, 10.000864, 9.998387 
1.6251868e+3, 2.6373297e+2, -248951.14, -424413.7, 15025.135, -0.09935597, -0.26137725, -247673.81, 107721.87, 0.0000048598445, 10.001178, 9.9988365 
1.6252173e+3, 2.737313e+2, -168749.11, -309627.44, -36785.418, -0.044730566, -0.36431825, -159722.28, 97687.21, 0.00006306325, 10.000945, 9.99906 
1.6252477e+3, 2.8373054e+2, -107229.91, -305807.03, -11724.13, -0.030993639, -0.29849958, -106540.1, 52876.027, 0.00033149842, 10.001006, 9.998388 
1.6252775e+3, 2.9373115e+2, 92714.12, -139763.06, -31533.725, -0.120253615, -0.13022539, 96915.49, 158327.64, 0.001055369, 10.001617, 9.998559 
1.6253084e+3, 3.03729e+2, 118214.2, -224354.38, 25145.77, -0.16367447, -0.13470034, 120050.16, 120050.16, 0.0023387242, 10.002012, 9.99746 
1.6253415e+3, 3.1372505e+2, 230181.7, -14935.969, -50062.098, -0.009939479, -0.31334797, 240012.0, 240012.0, 0.004022567, 10.0020485, 9.998885 
1.634769e+3, 1.2370992e+2, -1958611.8, -1849962.1, -160319.73, -0.036307994, -0.101924255, -1735013.3, -7379.7285, 0.03398967, 9.99831, 9.999854 
1.6348028e+3, 1.3371144e+2, -1745579.4, -1599450.5, 46558.43, 0.2509886, -0.047147766, -1585877.3, 43739.793, 0.02102759, 9.998739, 10.000705 
1.6348307e+3, 1.437105e+2, -1701244.9, -1638389.0, -4155.817, -0.01657143, -0.15418267, -1638115.4, -106490.664, 0.009775217, 9.99885, 9.999708 
1.6348608e+3, 1.5371111e+2, -1559352.5, -1509944.0, 25302.83, -0.011939187, -0.10028269, -1499285.4, -65667.375, 0.002860367, 9.999132, 9.99977 
1.6348904e+3, 1.6371107e+2, -1436287.6, -1449234.5, -21035.0, -0.03294087, -0.048736665, -1420752.5, -85135.02, 0.00036087315, 9.999499, 9.999346 
1.6349201e+3, 1.7370969e+2, -1279102.6, -1307823.9, -50710.83, -0.047834363, -0.15868637, -1240758.3, -3128.7734, 0.000005927034, 9.999861, 9.999458 
1.6349503e+3, 1.8370855e+2, -1179197.3, -1244703.1, -67939.25, -0.023857318, -0.18998149, -1136528.1, 3111.7332, 0.0, 10.000002, 9.999168 
1.6349813e+3, 1.9370802e+2, -1114622.5, -1136762.0, -42942.95, 0.051514644, -0.20424384, -1081345.5, -39700.266, 0.0, 9.99968, 9.99938 
1.6350107e+3, 2.037076e+2, -1029055.3, -1032867.7, -107235.87, 0.013411415, -0.1726518, -923708.7, 19940.52, 0.0, 9.999526, 9.999504 
1.6350374e+3, 2.1370731e+2, -884530.3, -888391.94, -94316.414, -0.19655955, -0.20013586, -792124.94, 53526.82, 0.0, 9.999746, 9.999716 
1.6350654e+3, 2.2370714e+2, -779519.94, -790131.44, -76285.914, -0.2943251, -0.17082983, -708355.5, 39297.5, 0.0, 9.999806, 9.99968 
1.635096e+3, 2.337072e+2, -668433.9, -660335.94, -38820.535, -0.16633596, -0.18226537, -625353.75, 24298.027, 0.0, 9.999798, 9.999894 
1.6351268e+3, 2.4370688e+2, -629401.4, -720117.56, 10236.262, -0.09427036, -0.14064926, -628260.7, -76606.21, 0.0, 9.999946, 9.998746 
1.6351572e+3, 2.537059e+2, -421753.5, -562335.1, 48458.01, -0.13610888, -0.14541736, -406668.8, 46994.57, 0.000000006263202, 10.000673, 9.998801 
1.6351873e+3, 2.6370445e+2, -320334.34, -536934.1, -4180.777, -0.18832316, -0.12853537, -320253.7, 35423.734, 0.000005059976, 10.001005, 9.998157 
1.6352166e+3, 2.7370209e+2, -250624.23, -441858.78, -21199.477, -0.23241758, -0.2257024, -248302.34, 9398.704, 0.000060994436, 10.000767, 9.998244 
1.6352475e+3, 2.8370035e+2, -153017.98, -342347.94, -4836.1035, -0.18341202, -0.20547177, -152894.53, 6823.623, 0.0003219481, 10.0007715, 9.998242 
1.6352807e+3, 2.9369977e+2, 47994.313, -168162.92, 19254.021, 0.008037576, -0.14808013, 49695.95, 111419.52, 0.0010251402, 10.00136, 9.998481 
1.6353118e+3, 3.0369842e+2, 87454.08, -208238.6, 12396.319, -0.046485167, -0.0799163, 87972.86, 87972.86, 0.0022546886, 10.001676, 9.997731 
1.6353415e+3, 3.13696e+2, 157339.95, -44744.023, 17471.85, -0.25357983, -0.15008573, 158839.42, 158839.42, 0.0038422053, 10.001539, 9.9989195 
1.6447656e+3, 1.2367889e+2, -2070072.4, -1941167.6, 32151.828, -0.14923221, -0.13632303, -1933593.4, -205657.77, 0.036383986, 9.997756, 9.999494 
1.6448021e+3, 1.3368045e+2, -1634649.8, -1517693.6, 44941.957, 0.2859001, -0.09349686, -1502419.0, 127499.24, 0.022584815, 9.999411, 10.000949 
1.6448295e+3, 1.4367943e+2, -1559527.1, -1566885.9, -25710.037, -0.05928684, -0.223075, -1537234.5, -5307.913, 0.010560797, 9.999798, 9.999749 
1.6448602e+3, 1.5368058e+2, -1480053.8, -1471865.6, -34752.906, 0.004502779, -0.11900458, -1440966.5, -7050.97, 0.0031241647, 9.999659, 9.9997835 
1.6448908e+3, 1.6368061e+2, -1470705.4, -1522133.5, -33526.75, 0.04667045, -0.040128157, -1454167.1, -118251.8, 0.0004029895, 9.999498, 9.998851 
1.6449206e+3, 1.736786e+2, -1350538.6, -1410033.3, -43681.45, 0.033181373, -0.15351695, -1327437.4, -89501.695, 0.0000070009137, 9.99965, 9.998869 
1.6449505e+3, 1.8367715e+2, -1236841.9, -1246901.4, -22165.584, 0.041853316, -0.19131337, -1219142.6, -79192.62, 0.0, 9.999516, 9.999371 
1.6449809e+3, 1.9367678e+2, -1157515.6, -1122085.6, -20319.576, 0.059901327, -0.22304508, -1112843.1, -70890.195, 0.0, 9.9992485, 9.999676 
1.64501e+3, 2.0367664e+2, -1069878.8, -1032812.94, -30420.549, 0.022219652, -0.18970492, -1015724.5, -71770.516, 0.0, 9.999163, 9.999673 
1.6450377e+3, 2.1367681e+2, -912562.7, -875929.1, -38425.13, -0.11706651, -0.18957792, -851678.4, -5726.403, 0.0, 9.999459, 9.999921 
1.6450661e+3, 2.2367692e+2, -792235.06, -820410.8, -13807.474, -0.1849265, -0.13474457, -786596.94, -38645.914, 0.0, 9.999825, 9.9994755 
1.6450964e+3, 2.3367684e+2, -611773.2, -664248.9, -63756.21, -0.1255399, -0.13128613, -569067.0, 80885.84, 0.0, 10.000321, 9.999629 
1.645127e+3, 2.4367645e+2, -502668.25, -606680.1, -15600.014, -0.0900434, -0.09962835, -500378.88, 51576.94, 0.0, 10.000586, 9.999221 
1.6451578e+3, 2.5367555e+2, -409960.97, -500071.78, 5080.432, -0.13375564, -0.14941803, -409675.44, 44285.63, 0.000000005166704, 10.000501, 9.999325 
1.6451882e+3, 2.636743e+2, -387322.94, -587924.9, -2656.4453, -0.15947382, -0.13143308, -387287.78, -31315.795, 0.000005473011, 10.000645, 9.997964 
1.6452183e+3, 2.736724e+2, -175708.86, -434616.1, -29077.316, -0.1651253, -0.15272173, -172483.44, 85509.664, 0.000058881178, 10.001437, 9.997951 
1.6452493e+3, 2.836703e+2, 2175.948, -288714.03, 37097.87, -0.12085193, -0.14311942, 6832.581, 166846.75, 0.0003079229, 10.001919, 9.998076 
1.6452819e+3, 2.936682e+2, 65618.72, -174861.58, 15377.701, -0.0028491733, -0.22164081, 66598.07, 128630.94, 0.0009851714, 10.001552, 9.998346 
1.6453128e+3, 3.0366686e+2, 77098.51, -156721.86, 50812.734, -0.07425369, -0.1661946, 87663.516, 87663.516, 0.002164133, 10.001318, 9.998276 
1.6453435e+3, 3.1366658e+2, 87875.09, -55995.04, -3784.8755, -0.16138951, -0.08090641, 87974.6, 87974.6, 0.0036698945, 10.000962, 9.999117 
1.6547635e+3, 1.23647854e+2, -2001747.6, -1836194.8, 250290.47, -0.19801779, -0.22299796, -1655347.9, 72881.23, 0.03897044, 9.9979, 10.000167 
1.6547988e+3, 1.3364924e+2, -1662536.3, -1579322.0, 96206.625, -0.013022411, -0.15112714, -1516110.9, 114105.53, 0.024272982, 9.999426, 10.000523 
1.6548288e+3, 1.4364858e+2, -1553312.8, -1569934.3, -48161.96, -0.1486942, -0.22064659, -1512749.8, 19473.943, 0.0114189135, 9.999869, 9.999691 
1.65486e+3, 1.5364872e+2, -1484449.4, -1485788.9, -30618.607, -0.030382127, -0.20676918, -1454493.1, -20268.98, 0.0034161112, 9.999683, 9.999675 
1.6548908e+3, 1.6364846e+2, -1450243.8, -1509193.4, -47384.535, 0.054693986, -0.15203096, -1423914.8, -87685.87, 0.00045137366, 9.999614, 9.998888 
1.6549201e+3, 1.7364751e+2, -1344210.0, -1391187.1, -27818.32, 0.012820861, -0.17210558, -1331290.1, -93049.2, 0.000008273259, 9.999626, 9.999007 
1.6549496e+3, 1.8364687e+2, -1213194.4, -1202955.1, -43102.566, -0.044531863, -0.15046006, -1164669.3, -24420.8, 0.0, 9.999527, 9.999673 
1.6549787e+3, 1.936468e+2, -1145406.0, -1081301.1, -20121.084, -0.08601703, -0.18156457, -1075508.9, -33261.516, 0.0, 9.99917, 9.999999 
1.6550083e+3, 2.0364688e+2, -1075521.5, -1008595.6, -34886.676, -0.09587066, -0.15355876, -993717.6, -49472.64, 0.0, 9.999012, 9.99991 
1.6550381e+3, 2.1364713e+2, -924368.0, -853330.94, -15998.622, -0.031226745, -0.17217539, -849894.06, -3653.1685, 0.0, 9.999259, 10.000173 
1.6550678e+3, 2.2364694e+2, -885327.7, -963700.8, -12915.169, -0.032483768, -0.12479826, -883254.25, -135010.98, 0.0, 9.999608, 9.998597 
1.6550969e+3, 2.3364604e+2, -715465.5, -832052.5, -28974.637, -0.13968831, -0.09640156, -708661.7, -58405.793, 0.0, 10.000115, 9.998579 
1.6551267e+3, 2.4364504e+2, -506372.72, -556818.0, -24335.781, -0.21656817, -0.08735488, -496546.66, 55718.938, 0.0, 10.000341, 9.999678 
1.6551577e+3, 2.5364372e+2, -392526.3, -412974.28, 15859.19, -0.20694469, -0.2535368, -383881.2, 70390.305, 0.00000000856411, 10.000295, 10.000012 
1.6551894e+3, 2.6364258e+2, -412140.1, -597517.4, 6280.4653, -0.1368969, -0.26223576, -411927.56, -55648.344, 0.0000057188686, 10.000453, 9.997995 
1.6552217e+3, 2.73642e+2, -203708.4, -449189.9, 19510.592, 0.018433204, -0.15075885, -202167.39, 56121.32, 0.00005720022, 10.001238, 9.997951 
1.6552527e+3, 2.836402e+2, -52526.188, -333415.88, 10278.27, 0.005968675, -0.107352, -52150.59, 108156.51, 0.0002952708, 10.001618, 9.997915 
1.655281e+3, 2.936362e+2, 19558.172, -219531.11, 26704.916, -0.27682424, -0.35902807, 22504.646, 84847.32, 0.0009504649, 10.001317, 9.998158 
1.655311e+3, 3.0363414e+2, 63272.004, -95699.47, 21502.715, -0.39627513, -0.39413643, 66129.14, 66129.14, 0.002096844, 10.00096, 9.998856 
1.6553465e+3, 3.1363618e+2, 35383.727, -64054.465, 43211.766, -0.010818402, -0.14258444, 51537.58, 51537.58, 0.003555798, 10.000522, 9.999276 
1.664763e+3, 1.23615034e+2, -1867569.4, -1770137.6, 186598.58, -0.06874555, -0.3286099, -1626000.6, 102544.02, 0.041736465, 9.998788, 10.000208 
1.6647962e+3, 1.3361701e+2, -1801617.6, -1624349.5, 20911.723, -0.1546881, -0.2197474, -1621916.0, 8611.389, 0.026087236, 9.998345, 10.0007305 
1.664828e+3, 1.4361687e+2, -1841314.9, -1699302.6, -61003.074, -0.08918114, -0.24812323, -1676696.5, -144165.36, 0.012349877, 9.99788, 9.999744 
1.664859e+3, 1.5361702e+2, -1570928.9, -1510791.0, -50406.492, -0.031204607, -0.24385388, -1482166.1, -47632.895, 0.003737191, 9.999043, 9.999795 
1.6648902e+3, 1.636172e+2, -1433235.5, -1452521.6, -38669.2, 0.051692016, -0.17051373, -1403025.1, -66490.22, 0.00050616945, 9.999549, 9.999294 
1.6649199e+3, 1.7361708e+2, -1387872.3, -1362587.5, -27975.662, 0.057015132, -0.15240684, -1344530.3, -105991.53, 0.000009797576, 9.999118, 9.999444 
1.6649494e+3, 1.8361694e+2, -1302077.3, -1230565.1, 3203.6196, 0.02424118, -0.10998854, -1230421.9, -89880.6, 0.0, 9.9988575, 9.9998 
1.6649781e+3, 1.9361694e+2, -1097660.9, -1043349.1, -15093.314, -0.067780234, -0.14765446, -1039436.5, 3103.316, 0.0, 9.999445, 10.0001135 
1.6650076e+3, 2.0361683e+2, -956302.44, -993643.1, -24714.814, -0.09078289, -0.13104515, -943998.5, 541.11896, 0.0, 10.000014, 9.999533 
1.6650383e+3, 2.1361652e+2, -757006.56, -824739.6, -79483.24, -0.0032608497, -0.15649858, -704475.6, 142066.0, 0.0, 10.000628, 9.999713 
1.6650683e+3, 2.2361584e+2, -707127.44, -870326.9, -64903.76, 0.016139125, -0.13268903, -684463.0, 64085.273, 0.0, 10.000803, 9.99865 
1.6650973e+3, 2.3361464e+2, -674006.94, -791846.7, -29260.365, -0.093415074, -0.1526785, -667141.4, -16579.7, 0.0, 10.000316, 9.99874 
1.6651273e+3, 2.4361353e+2, -529659.25, -608154.06, 36789.434, -0.16209823, -0.15102449, -515112.38, 37459.62, 0.0, 10.000328, 9.999352 
1.6651589e+3, 2.5361237e+2, -287083.63, -404410.88, -21879.924, -0.15814553, -0.25394064, -283136.13, 171442.44, 0.0000000057748837, 10.001191, 9.99965 
1.6651906e+3, 2.636113e+2, -251369.0, -493946.97, -51039.92, -0.09019743, -0.2493333, -241067.36, 115519.86, 0.0000055479773, 10.001436, 9.998237 
1.665223e+3, 2.736104e+2, -273073.6, -463028.94, -51191.67, 0.052329328, -0.191571, -260156.2, -1558.2908, 0.000055377644, 10.000638, 9.998168 
1.6652538e+3, 2.836088e+2, -245845.34, -405948.06, -6948.32, 0.042315423, -0.14818847, -245544.36, -84930.51, 0.00028510438, 10.000206, 9.998076 
1.6652821e+3, 2.9360592e+2, -99639.6, -259236.77, -20014.137, -0.24166317, -0.30117625, -97168.016, -34528.684, 0.0009269267, 10.000458, 9.998272 
1.6653122e+3, 3.0360338e+2, 72203.71, -103927.266, 15261.405, -0.3626964, -0.38665128, 73516.3, 73516.3, 0.0020627284, 10.001068, 9.998737 
1.665348e+3, 3.1360474e+2, 178243.48, -16513.947, -87478.625, 0.04287964, -0.18975239, 211765.97, 211765.97, 0.0035152223, 10.001615, 9.999056 
1.6747618e+3, 1.2358084e+2, -1886963.5, -1839653.4, -92297.11, -0.14298004, -0.4126301, -1768028.3, -39149.594, 0.044670317, 9.998914, 9.999646 
1.6747935e+3, 1.3358393e+2, -1735729.1, -1501435.6, -5450.0293, -0.26795116, -0.28076047, -1501308.9, 129541.05, 0.028026333, 9.998377, 10.001589 
1.6748272e+3, 1.4358424e+2, -1814277.4, -1652514.3, -52277.473, -0.014241107, -0.32299966, -1637090.3, -104240.56, 0.013357116, 9.997916, 10.000049 
1.6748576e+3, 1.5358561e+2, -1552347.4, -1470003.1, 9414.686, -0.115337275, -0.22627288, -1468940.4, -34098.734, 0.004090086, 9.999027, 10.000088 
1.6748884e+3, 1.6358685e+2, -1367975.3, -1337314.3, -62010.11, -0.10697221, -0.09663637, -1288767.8, 48065.457, 0.0005678562, 9.99963, 10.000051 
1.6749191e+3, 1.735874e+2, -1338831.4, -1251278.9, -36964.09, 0.055677988, -0.08923089, -1237760.3, 1067.9277, 0.000011659807, 9.999078, 10.000231 
1.6749494e+3, 1.8358752e+2, -1301617.1, -1236044.8, 4494.185, 0.110373124, -0.062115297, -1235738.3, -94911.16, 0.0, 9.998875, 9.999763 
1.6749786e+3, 1.9358715e+2, -1123255.8, -1076504.8, 16124.659, 0.005518028, -0.11901252, -1071482.8, -28652.227, 0.0, 9.999352, 9.999937 
1.6750081e+3, 2.0358641e+2, -1037546.44, -1137156.1, -16027.571, -0.0845653, -0.11772649, -1035031.06, -90192.57, 0.0, 9.9999, 9.998605 
1.6750376e+3, 2.1358496e+2, -863268.56, -1002687.8, -42158.465, -0.14606248, -0.14894746, -851511.9, -4657.4844, 0.0, 10.000435, 9.9985895 
1.6750674e+3, 2.2358365e+2, -683593.9, -758666.0, -88356.62, -0.17107761, -0.1624813, -625130.75, 123735.33, 0.0, 10.000535, 9.999541 
1.6750978e+3, 2.3358263e+2, -619569.7, -632645.5, -36662.395, -0.101164214, -0.28342542, -588866.8, 62003.4, 0.0, 10.000117, 9.9999275 
1.6751288e+3, 2.4358186e+2, -634057.56, -770599.94, 46961.813, -0.06700882, -0.26931006, -619465.25, -66589.8, 0.0, 10.000096, 9.998345 
1.6751607e+3, 2.5358158e+2, -415704.47, -617089.9, 29658.918, -0.10608886, -0.15550047, -411427.28, 43454.996, 0.0000000017385277, 10.000954, 9.9983015 
1.6751918e+3, 2.635804e+2, -272088.6, -468000.8, -83548.99, -0.15096244, -0.09871887, -241297.53, 115598.18, 0.0000048816705, 10.00114, 9.99856 
1.6752216e+3, 2.7357763e+2, -259857.6, -394009.0, -58612.773, -0.17064647, -0.2832811, -237856.88, 21063.959, 0.000051551386, 10.000453, 9.998735 
1.6752523e+3, 2.8357613e+2, -268674.0, -392397.13, -14014.893, -0.15305911, -0.26818556, -267106.3, -106172.11, 0.0002714196, 9.9999485, 9.998296 
1.6752845e+3, 2.9357684e+2, -108124.12, -233441.2, 18599.492, -0.074749835, -0.08812815, -105421.86, -42494.57, 0.0008993855, 10.000251, 9.998559 
1.6753155e+3, 3.0357412e+2, -42677.504, -240800.72, 22454.883, -0.16752501, -0.1811037, -40164.39, -40164.39, 0.0020323566, 10.000658, 9.997986 
1.6753471e+3, 3.135716e+2, 72411.664, -133672.25, -7407.866, -0.25808868, -0.28000706, 72677.6, 72677.6, 0.0035038409, 10.001189, 9.998448 
1.6847618e+3, 1.2355044e+2, -1972585.9, -1819930.9, -25004.25, 0.022999052, -0.30205384, -1815939.6, -86761.414, 0.04776628, 9.998092, 10.000158 
1.6847928e+3, 1.3355245e+2, -1802931.6, -1553160.5, 37712.55, -0.15089674, -0.27028057, -1547590.5, 83567.84, 0.030093629, 9.998034, 10.001379 
1.6848253e+3, 1.4355236e+2, -1748455.8, -1591195.4, 4790.527, 0.0033720415, -0.3536739, -1591049.5, -57888.65, 0.0144471, 9.998224, 10.000328 
1.6848566e+3, 1.5355425e+2, -1615101.4, -1463615.4, 43789.492, -0.07075277, -0.2396426, -1451868.3, -16720.703, 0.004479329, 9.998433, 10.000425 
1.6848879e+3, 1.635557e+2, -1497994.9, -1374935.4, -31264.738, -0.07439315, -0.11503161, -1367447.8, -30311.406, 0.0006375465, 9.99863, 10.000277 
1.6849184e+3, 1.7355616e+2, -1264781.4, -1185616.4, -73528.305, 0.0499741, -0.14062692, -1141693.3, 97437.95, 0.00001399049, 9.999462, 10.000488 
1.6849487e+3, 1.835563e+2, -1184464.4, -1199967.6, -40124.64, 0.1155395, -0.12088528, -1151349.4, -10219.188, 0.0, 9.999779, 9.999568 
1.6849783e+3, 1.9355606e+2, -1133263.3, -1116264.6, -59702.41, 0.050239183, -0.13545862, -1064459.6, -21324.967, 0.0, 9.999433, 9.999629 
1.6850081e+3, 2.035554e+2, -1105939.9, -1143441.8, -25851.479, -0.021729907, -0.1154018, -1092755.0, -147612.2, 0.0, 9.999324, 9.998837 
1.6850379e+3, 2.1355423e+2, -945847.56, -998596.44, 22614.709, -0.10661806, -0.15262447, -937479.56, -90324.41, 0.0, 9.999698, 9.998963 
1.6850682e+3, 2.2355296e+2, -731428.44, -813920.9, 24378.66, -0.13491553, -0.17280427, -724762.56, 24403.19, 0.0, 10.00032, 9.999289 
1.6850986e+3, 2.3355147e+2, -478325.56, -605201.1, -55569.297, -0.07180715, -0.30502898, -457428.9, 193745.2, 0.0, 10.0012455, 9.999594 
1.6851297e+3, 2.4355046e+2, -467411.97, -716237.0, -2202.7988, -0.02342256, -0.28449652, -467392.47, 85789.63, 0.0, 10.001361, 9.998094 
1.6851617e+3, 2.5355032e+2, -548520.75, -715764.75, 18559.395, -0.03223293, -0.13192393, -546485.94, -91296.24, 0.0000000018399801, 10.00018, 9.997995 
1.6851927e+3, 2.6354924e+2, -460279.44, -532346.56, -12473.72, -0.078658685, -0.061392732, -458181.5, -100977.98, 0.0000039092515, 9.999734, 9.9987955 
1.685222e+3, 2.7354652e+2, -204548.38, -314461.88, -37184.586, -0.17147294, -0.27273166, -193150.48, 66076.21, 0.000046409757, 10.000662, 9.999154 
1.6852528e+3, 2.8354526e+2, -71794.04, -307239.72, 24985.652, -0.15166754, -0.25657237, -69171.75, 92066.03, 0.00025645504, 10.001312, 9.998251 
1.6852863e+3, 2.935463e+2, 31908.299, -179018.06, -4513.6313, 0.039123032, -0.026112456, 32004.842, 95234.1, 0.000866263, 10.001253, 9.998471 
1.6853175e+3, 3.0354348e+2, 19220.494, -220229.03, 42383.555, -0.032993045, -0.119108304, 26501.184, 26501.184, 0.0019892203, 10.001064, 9.99797 
1.685348e+3, 3.1354114e+2, -26949.879, -144008.56, 7746.879, -0.20762484, -0.18404047, -26439.42, -26439.42, 0.003476974, 10.000269, 9.998879 
1.6947609e+3, 1.2352272e+2, -1836778.9, -1573598.5, -47355.72, 0.05524976, -0.13912271, -1565336.9, 164117.39, 0.051028147, 9.998189, 10.001871 
1.6947933e+3, 1.3352244e+2, -1905026.6, -1753218.0, 61506.848, 0.06592258, -0.2132197, -1731426.1, -99972.336, 0.032295942, 9.997991, 10.00001 
1.694822e+3, 1.4352134e+2, -1716591.6, -1551304.9, 1787.7618, -0.18556087, -0.33700585, -1551285.5, -17821.879, 0.015627254, 9.998327, 10.000557 
1.6948558e+3, 1.5352307e+2, -1591498.0, -1421670.4, 60934.55, -0.013619536, -0.26570782, -1402069.3, 33379.566, 0.004910431, 9.998459, 10.000703 
1.6948876e+3, 1.635238e+2, -1502284.1, -1399099.6, -22066.283, 0.013374673, -0.22192037, -1394578.8, -57135.277, 0.0007170378, 9.998691, 10.00008 
1.694917e+3, 1.7352346e+2, -1287312.0, -1227702.4, -29676.518, -0.07054731, -0.30272758, -1215447.5, 23999.625, 0.000016975888, 9.999439, 10.000208 
1.6949466e+3, 1.8352336e+2, -1204398.0, -1254610.6, -63271.574, -0.09737837, -0.27450016, -1161433.6, -19983.643, 0.0, 9.999828, 9.999171 
1.694977e+3, 1.935236e+2, -1176319.8, -1184370.4, -65496.547, -0.057314318, -0.19871235, -1114725.0, -71272.38, 0.0, 9.99934, 9.999205 
1.6950075e+3, 2.0352387e+2, -1040147.5, -963825.94, -31849.871, -0.032058794, -0.11675165, -952281.0, -6829.127, 0.0, 9.999136, 10.000164 
1.695039e+3, 2.1352431e+2, -855693.7, -775628.6, 48085.836, -0.004803516, -0.15349405, -753092.4, 94352.17, 0.0, 9.99953, 10.000584 
1.6950697e+3, 2.2352366e+2, -849607.4, -1000428.5, 42678.36, -0.022900928, -0.15655279, -838368.06, -88919.41, 0.0, 10.000076, 9.998122 
1.6950995e+3, 2.3352109e+2, -636739.6, -870105.0, -2651.5688, -0.11970829, -0.23151386, -636709.5, 14764.113, 0.0, 10.000976, 9.997903 
1.6951302e+3, 2.4351917e+2, -491946.4, -693258.44, -46309.45, -0.15486541, -0.21982324, -481804.4, 71688.8, 0.0, 10.001047, 9.9984045 
1.695162e+3, 2.5351846e+2, -528150.0, -632024.44, -9472.61, -0.047889013, -0.18629076, -527293.2, -71790.625, 0.0000000033657745, 10.000001, 9.998659 
1.6951932e+3, 2.6351756e+2, -488208.75, -529842.44, -738.4322, -0.0216956, -0.13707173, -488195.66, -130683.4, 0.0000030031388, 9.999483, 9.998927 
1.6952236e+3, 2.7351663e+2, -233317.03, -321783.8, 16720.197, -0.094105706, -0.18352951, -230262.39, 29257.197, 0.000041455987, 10.00044, 9.999207 
1.6952547e+3, 2.8351563e+2, -138610.81, -374048.97, 9884.567, -0.11085296, -0.13432114, -138196.55, 23332.88, 0.00024337543, 10.001006, 9.99794 
1.695287e+3, 2.9351398e+2, -25822.135, -252502.53, 13822.097, -0.035701286, -0.13154294, -24982.428, 38565.914, 0.00083297, 10.001034, 9.99808 
1.6953179e+3, 3.035112e+2, -7077.926, -171340.6, 2654.7117, -0.113794155, -0.21837032, -7035.033, -7035.033, 0.0019296512, 10.000655, 9.998486 
1.6953497e+3, 3.1351334e+2, 3527.9873, 53389.664, 28745.36, -0.11278786, 0.0809448, 66509.35, 66509.35, 0.0034048194, 9.999718, 10.000485 
1.7047592e+3, 1.2349142e+2, -1775539.4, -1497886.9, -114867.56, 0.07126865, -0.16003327, -1456526.3, 273237.5, 0.054460447, 9.998402, 10.002334 
1.7047922e+3, 1.334917e+2, -1827703.8, -1729027.5, 2624.7517, 0.15756884, -0.1596785, -1728957.8, -97200.95, 0.034638863, 9.998582, 9.999892 
1.7048207e+3, 1.4348999e+2, -1701008.3, -1519969.9, 12653.663, -0.14264554, -0.34882444, -1519089.8, 14681.653, 0.016903277, 9.998357, 10.000757 
1.7048545e+3, 1.5349181e+2, -1661822.3, -1427997.9, 31691.865, 0.046631206, -0.2940022, -1423778.6, 11975.128, 0.00538814, 9.997871, 10.000936 
1.7048864e+3, 1.634924e+2, -1616860.6, -1460408.1, 18876.166, 0.06628943, -0.27263933, -1458162.9, -120414.52, 0.0008082668, 9.997928, 10.000023 
1.7049159e+3, 1.7349206e+2, -1318872.8, -1252813.9, 6702.7344, -0.096939914, -0.34461626, -1252140.6, -12387.539, 0.000020835996, 9.999257, 10.00013 
1.7049459e+3, 1.8349206e+2, -1177792.6, -1229715.9, -19935.342, -0.14694795, -0.3070036, -1171021.6, -29265.984, 0.0, 9.999954, 9.999292 
1.7049764e+3, 1.9349238e+2, -1087350.0, -1125795.9, -10891.451, -0.054667495, -0.2377158, -1084479.0, -40722.063, 0.0, 9.999871, 9.999364 
1.7050074e+3, 2.0349282e+2, -949180.94, -921915.5, 49405.227, 0.02231831, -0.1484538, -884296.6, 61457.754, 0.0, 9.999771, 10.0001335 
1.705039e+3, 2.1349369e+2, -819024.7, -767453.2, -18370.133, 0.060645625, -0.13605358, -761578.75, 86164.39, 0.0, 9.999833, 10.000483 
1.7050703e+3, 2.2349313e+2, -850006.56, -1026974.7, -25668.084, 0.041232366, -0.11263754, -846358.8, -96611.25, 0.0, 10.000194, 9.997873 
1.7051007e+3, 2.3349014e+2, -647679.8, -900707.1, -302.27222, -0.08135566, -0.204832, -647679.5, 4099.336, 0.0, 10.001022, 9.997655 
1.7051315e+3, 2.4348801e+2, -435216.78, -663094.7, -15063.03, -0.12472769, -0.20149186, -434225.4, 119576.04, 0.0, 10.001422, 9.998439 
1.7051625e+3, 2.5348738e+2, -365215.5, -533940.94, -54019.902, -0.03461002, -0.16920201, -349402.28, 106406.38, 0.0000000026261497, 10.001057, 9.9988165 
1.7051937e+3, 2.6348644e+2, -324144.6, -469394.22, -16082.987, 0.013628854, -0.12380602, -322385.1, 35432.508, 0.0000021613648, 10.000663, 9.998789 
1.7052247e+3, 2.734853e+2, -279446.16, -370272.44, -41924.46, -0.01523675, -0.1720809, -263053.03, -3225.7583, 0.000036656253, 10.000204, 9.999006 
1.7052561e+3, 2.8348416e+2, -248565.02, -416025.13, -2943.1108, -0.01237417, -0.1251266, -248513.3, -86674.836, 0.00022921336, 10.000216, 9.998018 
1.7052883e+3, 2.934826e+2, -12273.517, -234158.98, -3632.9475, 0.00819767, -0.12283498, -12214.05, 51643.176, 0.0007930789, 10.0011015, 9.998158 
1.7053187e+3, 3.0348018e+2, 70321.78, -107350.75, -24198.273, -0.09878603, -0.1876837, 73558.516, 73558.516, 0.0018420495, 10.00107, 9.998708 
1.7053498e+3, 3.1348142e+2, -39746.004, 102693.71, -128655.95, -0.018004097, -0.00708959, 178526.98, 178526.98, 0.0032654046, 9.999156, 10.001051 
1.7147581e+3, 1.2345665e+2, -1836535.6, -1634193.4, -100199.4, 0.048677437, -0.36599302, -1592972.4, 137133.27, 0.058051143, 9.998462, 10.001325 
1.7147897e+3, 1.3346085e+2, -1759013.4, -1583570.3, 22216.35, 0.015526645, -0.060485885, -1580800.8, 51260.945, 0.037118543, 9.998567, 10.000912 
1.7148207e+3, 1.4345846e+2, -1666471.9, -1478614.0, -17482.42, -0.026818637, -0.3816058, -1477000.9, 57082.27, 0.018276531, 9.99847, 10.000997 
1.714852e+3, 1.5346026e+2, -1652813.8, -1407918.6, 27027.191, -0.017073195, -0.3441163, -1404971.3, 31092.555, 0.005915651, 9.99786, 10.001081 
1.7148836e+3, 1.6346157e+2, -1604616.8, -1440484.3, 42353.242, -0.04634998, -0.26660603, -1430199.6, -92148.67, 0.0009130136, 9.997958, 10.000139 
1.7149149e+3, 1.7346218e+2, -1320614.9, -1242350.0, 67778.1, -0.13695258, -0.25449723, -1203218.8, 36828.813, 0.000025810483, 9.999207, 10.00022 
1.7149459e+3, 1.8346255e+2, -1133923.1, -1138190.6, -28611.428, -0.16481988, -0.21005823, -1107366.0, 34679.71, 0.0, 9.9999485, 9.999925 
1.7149766e+3, 1.9346245e+2, -1046518.6, -1021399.0, -2238.1138, -0.05558995, -0.25761667, -1021201.1, 22845.693, 0.0, 9.999788, 10.000121 
1.7150073e+3, 2.0346232e+2, -1067813.0, -1134672.8, 38502.35, 0.0014372199, -0.21018164, -1050252.9, -104203.8, 0.0, 9.99963, 9.99874 
1.7150383e+3, 2.1346226e+2, -978093.5, -1042780.7, -4068.386, -0.023972567, -0.1141317, -977838.6, -129786.695, 0.0, 9.9995985, 9.998705 
1.7150697e+3, 2.2346123e+2, -848326.1, -960946.94, -9658.896, -0.056808893, -0.0626781, -847503.75, -97439.95, 0.0, 9.999918, 9.998465 
1.715102e+3, 2.3345855e+2, -605969.2, -770706.56, 46524.87, -0.08034342, -0.21990134, -593737.8, 58352.605, 0.0, 10.000823, 9.998652 
1.7151333e+3, 2.4345683e+2, -492271.53, -707648.7, -36799.676, -0.099049605, -0.22496852, -486157.47, 67950.63, 0.0, 10.001117, 9.998273 
1.7151631e+3, 2.534568e+2, -430828.25, -614321.94, -51947.023, -0.105400294, -0.0962602, -417142.78, 38967.668, 0.0000000000058928205, 10.000817, 9.99838 
1.7151932e+3, 2.634556e+2, -386277.78, -542248.5, -46567.566, -0.10299525, -0.03950931, -373432.22, -15309.561, 0.0000014626683, 10.000428, 9.998401 
1.7152245e+3, 2.7345252e+2, -333900.28, -437135.7, -40814.355, -0.057547938, -0.23846698, -319713.75, -59563.91, 0.000032258973, 10.000006, 9.998644 
1.7152567e+3, 2.8345093e+2, -268098.25, -393278.06, 9806.618, -0.006887884, -0.22741942, -267334.66, -105170.03, 0.00021422842, 9.999942, 9.998308 
1.7152898e+3, 2.934519e+2, -16438.371, -182494.14, 60253.246, 0.007926233, -0.025676083, 3120.6987, 67279.37, 0.0007459909, 10.000835, 9.998642 
1.7153196e+3, 3.0345005e+2, -14809.187, -181722.92, -94855.33, -0.14975141, -0.04992782, 28077.06, 28077.06, 0.0017319232, 10.000658, 9.998387 
1.7153482e+3, 3.1344533e+2, -136596.36, 19367.838, -152024.66, -0.16241437, -0.42113504, 112244.47, 112244.47, 0.0030783708, 9.998689, 10.00069 
1.7247574e+3, 1.2342595e+2, -1761321.3, -1697303.0, 64269.14, 0.11610831, -0.37623122, -1657513.1, 72894.8, 0.06177432, 9.999409, 10.000403 
1.7247882e+3, 1.3343032e+2, -1640661.8, -1525460.0, 110268.89, -0.010209736, -0.07180788, -1458654.0, 173709.95, 0.039721623, 9.99937, 10.000931 
1.7248206e+3, 1.434289e+2, -1597424.9, -1486416.9, 36249.063, 0.09877539, -0.27794728, -1475628.4, 58748.117, 0.019743169, 9.999103, 10.00065 
1.7248504e+3, 1.5342993e+2, -1464938.6, -1346019.1, 10838.969, -0.023036681, -0.28932065, -1345039.4, 91325.75, 0.006494274, 9.999244, 10.000863 
1.7248815e+3, 1.6343112e+2, -1440662.3, -1342121.5, 63762.258, -0.0839831, -0.21575886, -1310811.5, 27541.246, 0.001032908, 9.998992, 10.000329 
1.724914e+3, 1.7343202e+2, -1390756.4, -1243506.0, 79124.07, -0.09754542, -0.20379429, -1209051.1, 31293.658, 0.00003215152, 9.998579, 10.00052 
1.7249459e+3, 1.834324e+2, -1321191.9, -1220369.1, 4784.5503, -0.077655956, -0.17795919, -1220142.6, -77801.375, 0.0, 9.998635, 9.999989 
1.7249767e+3, 1.934322e+2, -1018133.1, -1003699.4, -49193.742, -0.020927595, -0.23755081, -961195.94, 83146.234, 0.0, 9.999973, 10.00015 
1.7250074e+3, 2.034316e+2, -918342.7, -1109707.4, -2425.0835, 0.007912192, -0.2189038, -918312.0, 28036.217, 0.0, 10.000853, 9.998336 
1.7250386e+3, 2.1343037e+2, -789619.0, -1007317.7, 24127.572, -0.018870752, -0.1899128, -786977.0, 61385.98, 0.0, 10.001121, 9.998228 
1.7250702e+3, 2.2342901e+2, -700374.3, -877512.94, 80490.484, -0.040592127, -0.14618905, -669263.9, 81114.96, 0.0, 10.000911, 9.998543 
1.7251024e+3, 2.3342764e+2, -714782.94, -802838.56, 41108.004, -0.0654294, -0.1865857, -698575.25, -46180.88, 0.0, 10.000022, 9.998801 
1.725134e+3, 2.4342652e+2, -663353.4, -782438.56, -29147.332, -0.0796116, -0.14534615, -656602.06, -102194.89, 0.0, 9.99989, 9.998348 
1.7251639e+3, 2.5342584e+2, -389993.0, -581376.25, -31235.6, -0.096792765, -0.09066376, -385024.06, 71390.375, 0.0000000000049057277, 10.001034, 9.998495 
1.7251943e+3, 2.6342437e+2, -198873.61, -453080.4, 14713.904, -0.0930479, -0.065918, -198024.77, 160403.34, 0.0000011502509, 10.001737, 9.998372 
1.7252254e+3, 2.7342153e+2, -105163.6, -336723.66, 3245.5178, -0.028788038, -0.23295504, -105118.125, 155334.61, 0.000029351942, 10.001624, 9.998549 
1.7252576e+3, 2.8341997e+2, -85045.63, -277137.25, 99807.74, 0.043900967, -0.2294934, -42576.527, 119890.64, 0.00020332959, 10.001096, 9.998541 
1.7252906e+3, 2.934204e+2, -132195.02, -206483.7, 84669.05, 0.06065739, -0.09909006, -76880.99, -12416.373, 0.0007056686, 9.999934, 9.998896 
1.7253204e+3, 3.03419e+2, -86970.766, -232174.36, -16671.44, -0.10168279, -0.086775534, -85081.234, -85081.234, 0.0016348903, 10.000171, 9.998313 
1.7253494e+3, 3.134145e+2, 405564.78, 211459.86, -112248.97, -0.07948505, -0.41183326, 456900.38, 456900.38, 0.0029115556, 10.002618, 10.000184 
1.7347553e+3, 1.2340063e+2, -1803967.4, -1807508.5, -95341.71, -0.11912137, -0.09063309, -1710379.8, 20278.18, 0.06561491, 9.999519, 9.999567 
1.7347874e+3, 1.3339987e+2, -1715106.6, -1678613.4, 109182.3, -0.062139668, -0.22035183, -1586163.5, 46502.16, 0.042436883, 9.999366, 9.999856 
1.73482e+3, 1.4340107e+2, -1656417.9, -1621032.3, 17154.705, 0.08671922, -0.05016462, -1614081.1, -79426.96, 0.021297567, 9.999166, 9.9996805 
1.734849e+3, 1.5340093e+2, -1508431.9, -1438765.9, 25339.695, -0.104939125, -0.11429755, -1430524.0, 6132.2466, 0.0071235094, 9.999264, 10.000207 
1.7348796e+3, 1.6340126e+2, -1396951.4, -1284345.4, 33468.145, -0.20105393, -0.10267789, -1275149.3, 63502.668, 0.0011691477, 9.999117, 10.000671 
1.734913e+3, 1.7340158e+2, -1355710.9, -1178325.5, 72289.875, -0.086057976, -0.19491185, -1152597.0, 88047.875, 0.00004011834, 9.998596, 10.000965 
1.7349455e+3, 1.8340161e+2, -1361740.4, -1303057.9, 27924.309, -0.025758406, -0.20705794, -1291893.9, -149251.53, 0.0, 9.998633, 9.999419 
1.7349763e+3, 1.9340149e+2, -1093939.4, -1126431.3, 10656.231, -0.07018136, -0.1838992, -1090756.4, -46112.17, 0.0, 9.9998255, 9.999375 
1.7350076e+3, 2.0340058e+2, -902381.4, -1038987.75, -1373.3433, -0.093049765, -0.17724006, -902367.56, 44285.375, 0.0, 10.000687, 9.9989 
1.7350395e+3, 2.1339811e+2, -758191.3, -904365.9, 45923.67, -0.05297518, -0.35352418, -744961.0, 103714.43, 0.0, 10.000953, 9.999015 
1.7350711e+3, 2.2339664e+2, -772898.75, -971808.6, 39277.035, -0.06742584, -0.34551704, -765423.94, -14732.469, 0.0, 10.0006695, 9.99801 
1.7351016e+3, 2.3339717e+2, -795832.9, -926669.7, 22073.305, -0.15851477, -0.1254225, -792209.3, -139515.81, 0.0, 9.99982, 9.998051 
1.7351328e+3, 2.4339673e+2, -679614.7, -745787.7, -7783.5596, -0.19771053, 0.012768146, -678711.5, -124009.88, 0.0, 9.999601, 9.998737 
1.7351647e+3, 2.5339454e+2, -383164.53, -506034.1, 31445.313, -0.14032066, -0.14440826, -375584.53, 81135.81, 0.000000000000012544113, 10.000781, 9.999132 
1.7351961e+3, 2.633928e+2, -230443.16, -442968.1, 5133.169, -0.10396948, -0.19527884, -230319.23, 128415.414, 0.0000010511417, 10.001414, 9.998594 
1.735227e+3, 2.7339217e+2, -132413.67, -330860.25, 17880.527, -0.06895566, -0.15972841, -130815.46, 129922.516, 0.000029114979, 10.001367, 9.998705 
1.7352583e+3, 2.8339082e+2, -132161.56, -315362.88, 41043.82, -0.010721963, -0.13727498, -123386.55, 39363.11, 0.00019954766, 10.0008335, 9.998408 
1.7352903e+3, 2.933878e+2, -181295.13, -251395.73, 61528.836, 0.020576285, -0.34304985, -145533.56, -80754.586, 0.00068418466, 9.999688, 9.998708 
1.7353204e+3, 3.033868e+2, -139172.11, -243286.55, 33820.652, -0.13696295, -0.2853972, -129150.42, -129150.42, 0.0015843388, 9.999782, 9.998406 
1.7353526e+3, 3.1338748e+2, 278121.25, 124644.984, 34942.14, -0.093427695, -0.12311008, 285702.13, 285702.13, 0.002832177, 10.0019045, 9.999899 
1.7447545e+3, 1.2337353e+2, -1921998.0, -1804696.1, -106440.79, -0.079964384, 0.1053073, -1741817.0, -10893.247, 0.06957688, 9.998486, 10.00008 
1.7447872e+3, 1.3336939e+2, -1784531.4, -1775608.6, 45641.83, 0.005540693, -0.3008723, -1734210.8, -101246.875, 0.045260757, 9.999184, 9.99927 
1.7448197e+3, 1.433712e+2, -1622061.5, -1636684.3, 40184.75, 0.13862766, -0.025519678, -1588528.4, -53582.086, 0.022935338, 9.999554, 9.999372 
1.744849e+3, 1.5337095e+2, -1538702.4, -1483198.0, 34367.67, -0.037639566, -0.07422083, -1466776.4, -29826.088, 0.0078018596, 9.999199, 9.999913 
1.7448792e+3, 1.6337077e+2, -1449811.8, -1343878.5, 69113.06, -0.13744755, -0.08610786, -1309770.0, 29181.65, 0.0013223152, 9.998914, 10.000361 
1.7449123e+3, 1.7337057e+2, -1252044.0, -1161877.5, 22290.436, -0.051140666, -0.19689637, -1156668.0, 84281.664, 0.000049909977, 9.999466, 10.000661 
1.7449448e+3, 1.8337035e+2, -1211216.3, -1227623.9, 3716.7854, -0.0011712573, -0.21728255, -1210413.6, -67464.32, 0.0000000000000006446772, 9.999644, 9.999445 
1.7449759e+3, 1.9337021e+2, -1162172.3, -1148112.8, 25332.053, -0.059749886, -0.20802866, -1128853.1, -83902.664, 0.0, 9.999301, 9.99947 
1.7450075e+3, 2.0336942e+2, -1121089.4, -1141076.4, 59959.54, -0.072445385, -0.19595101, -1070296.3, -123338.4, 0.0, 9.999167, 9.998931 
1.7450403e+3, 2.1336749e+2, -937246.44, -984478.0, 19759.236, -0.0018956008, -0.32016474, -930070.5, -81094.336, 0.0, 9.999704, 9.9990635 
1.745072e+3, 2.2336617e+2, -840267.3, -999965.6, 551.3257, -0.0015917058, -0.30105054, -840265.4, -89274.55, 0.0, 10.000158, 9.998081 
1.7451018e+3, 2.3336622e+2, -705064.56, -873247.94, 17136.957, -0.14038226, -0.13566376, -703336.2, -50339.95, 0.0, 10.000389, 9.998153 
1.7451327e+3, 2.4336562e+2, -548126.94, -652219.3, 63831.664, -0.19382142, -0.031189416, -517812.4, 37192.06, 0.0, 10.0004015, 9.998983 
1.7451653e+3, 2.533637e+2, -471069.75, -518894.94, 46045.492, -0.107808776, -0.184235, -443097.88, 13921.191, 0.0, 10.000079, 9.999372 
1.7451973e+3, 2.633621e+2, -433298.1, -550719.7, 14394.456, -0.045941785, -0.22828521, -431559.25, -72527.75, 0.0000010008785, 10.000048, 9.998517 
1.745228e+3, 2.733614e+2, -255295.53, -409014.9, -27739.105, -0.03468292, -0.18631206, -250443.11, 10594.739, 0.000030147008, 10.000582, 9.998551 
1.7452593e+3, 2.8336e+2, -86824.29, -300468.25, 3394.9373, -0.0005493247, -0.15393068, -86770.35, 76280.016, 0.00019898178, 10.001158, 9.99836 
1.7452905e+3, 2.93357e+2, 88021.05, -142691.4, -17015.213, -0.005100123, -0.34977528, 89269.18, 154347.16, 0.00068108423, 10.001587, 9.998559 
1.7453204e+3, 3.033559e+2, 100139.3, -114379.28, 31024.15, -0.1699615, -0.30073646, 104535.97, 104535.97, 0.0015908242, 10.001356, 9.998544 
1.7453542e+3, 3.1335714e+2, 42425.92, -21569.102, -39897.195, -0.010844286, -0.08899876, 61571.61, 61571.61, 0.0028696053, 10.000402, 9.999617 
1.7547539e+3, 1.2334229e+2, -1775788.4, -1520186.9, 11999.617, -0.060071487, -0.011782708, -1519624.8, 211603.67, 0.07366958, 9.998485, 10.002151 
1.754787e+3, 1.3333891e+2, -1795453.6, -1790164.0, 85138.766, 0.037812077, -0.31582212, -1707629.0, -74371.53, 0.048192136, 9.999153, 9.999182 
1.7548192e+3, 1.433397e+2, -1573810.8, -1563251.6, 22586.287, 0.09609796, -0.17714897, -1545336.0, -10087.82, 0.024652572, 9.999659, 9.999834 
1.7548496e+3, 1.5334003e+2, -1529563.0, -1472643.6, 30429.178, 0.07230978, -0.17534575, -1459439.3, -22192.658, 0.008527423, 9.999221, 9.999986 
1.7548795e+3, 1.633394e+2, -1519106.1, -1494464.4, 59989.594, -0.028158916, -0.18822214, -1445543.5, -106289.32, 0.0014925194, 9.998951, 9.999308 
1.7549114e+3, 1.733388e+2, -1340418.3, -1330922.1, 55097.09, -0.10855235, -0.222726, -1280368.9, -39108.203, 0.00006156021, 9.999414, 9.99952 
1.7549434e+3, 1.833386e+2, -1162991.8, -1129376.4, -18476.854, -0.13883808, -0.20597966, -1121206.3, 22055.78, 0.0000000010737394, 9.999652, 10.000114 
1.7549749e+3, 1.9333841e+2, -1105556.4, -1013762.25, 21015.23, -0.11037772, -0.29879996, -1009179.8, 36080.426, 0.0, 9.999226, 10.000429 
1.7550069e+3, 2.0333816e+2, -1179200.0, -1230575.1, 58472.383, -0.07124267, -0.2649937, -1141021.5, -193759.23, 0.0, 9.999032, 9.99838 
1.7550404e+3, 2.1333818e+2, -1021139.25, -1115729.6, 51250.16, 0.025095588, -0.11683722, -998696.25, -149428.27, 0.0, 9.999513, 9.998256 
1.7550726e+3, 2.2333734e+2, -831338.6, -922880.25, -1917.8105, 0.02890711, -0.03025682, -831298.44, -80018.91, 0.0, 9.999909, 9.99873 
1.7551024e+3, 2.3333488e+2, -668899.8, -755133.8, 40456.297, -0.1390026, -0.20669837, -652891.6, 409.97534, 0.0, 10.000197, 9.999058 
1.755133e+3, 2.4333322e+2, -587968.7, -676819.0, 44152.938, -0.2309796, -0.26048845, -569759.4, -14444.017, 0.0, 10.000148, 9.998937 
1.7551653e+3, 2.533331e+2, -511674.9, -562275.0, 47726.97, -0.13465036, -0.21671078, -482956.88, -25643.95, 0.0, 9.999898, 9.999162 
1.7551973e+3, 2.6333195e+2, -496196.9, -637197.6, 11590.832, -0.06439118, -0.18422122, -495250.47, -135927.67, 0.00000094846536, 9.999849, 9.998024 
1.7552286e+3, 2.7332926e+2, -318220.0, -488202.3, 9614.279, -0.054565523, -0.2967569, -317677.94, -56326.156, 0.000030605133, 10.000366, 9.998108 
1.7552601e+3, 2.833277e+2, -130554.664, -328327.8, 5919.171, -0.07790108, -0.2573897, -130377.67, 32989.992, 0.0002004244, 10.000886, 9.998299 
1.7552905e+3, 2.9332784e+2, 34305.656, -172919.55, 16565.773, -0.18456024, -0.1384403, 35621.586, 100985.03, 0.00069697236, 10.001246, 9.998509 
1.7553198e+3, 3.033263e+2, 20883.52, -176449.2, -24683.158, -0.39118278, -0.11759839, 23924.135, 23924.135, 0.0016493566, 10.000919, 9.998323 
1.7553544e+3, 3.1332418e+2, -97738.54, -160816.36, -11326.605, -0.09257427, -0.24437998, -95766.33, -95766.33, 0.0029987826, 9.999786, 9.998936 
1.7647529e+3, 1.2330864e+2, -1599106.0, -1458742.5, 89935.64, -0.05431849, -0.28930628, -1414845.8, 316705.3, 0.07790593, 9.999835, 10.0019655 
1.7647856e+3, 1.333078e+2, -1779056.0, -1762053.3, 46173.89, 0.0078015598, -0.35581228, -1723604.6, -90048.62, 0.05123237, 9.999144, 9.999383 
1.764819e+3, 1.4330797e+2, -1698725.5, -1632459.9, 10978.435, 0.16372803, -0.2919269, -1630688.5, -95134.89, 0.026445003, 9.9988365, 9.999763 
1.7648497e+3, 1.5330838e+2, -1425193.5, -1441252.8, -35316.79, 0.15461038, -0.26178673, -1397005.0, 40547.098, 0.009296644, 10.000041, 9.999806 
1.7648798e+3, 1.6330792e+2, -1326936.6, -1425612.8, 19843.691, 0.03646311, -0.23803957, -1323095.5, 16463.59, 0.0016790463, 10.000377, 9.999082 
1.7649107e+3, 1.7330734e+2, -1392264.3, -1387547.5, 48450.125, -0.10129632, -0.2509209, -1341398.4, -99831.234, 0.000074904594, 9.999179, 9.999243 
1.7649424e+3, 1.833071e+2, -1316244.1, -1224121.3, 43324.734, -0.13915989, -0.21289088, -1206947.5, -63377.33, 0.000000009428086, 9.998705, 9.999924 
1.764975e+3, 1.9330706e+2, -965925.1, -962576.4, -27630.557, -0.061707817, -0.26988915, -936569.5, 108998.96, 0.0, 10.0002775, 10.000278 
1.7650075e+3, 2.0330693e+2, -887489.0, -1075068.0, -24243.277, 0.0025119581, -0.218284, -884406.44, 63163.7, 0.0, 10.000974, 9.998512 
1.7650403e+3, 2.1330705e+2, -948429.5, -1059443.0, 11207.8, 0.053236656, -0.07378439, -947309.3, -97734.92, 0.0, 9.999928, 9.998441 
1.7650722e+3, 2.2330624e+2, -885054.56, -923391.75, 37691.1, 0.041289967, -0.0056467266, -861937.8, -110352.93, 0.0, 9.999445, 9.99894 
1.7651029e+3, 2.3330364e+2, -642250.8, -713351.06, -151.92096, -0.10677488, -0.21817128, -642250.44, 11356.398, 0.0, 10.000278, 9.999293 
1.7651337e+3, 2.4330181e+2, -498678.0, -648581.4, -31674.922, -0.17833228, -0.29654667, -492259.8, 63361.39, 0.0, 10.000785, 9.998849 
1.7651658e+3, 2.533015e+2, -432871.75, -546159.5, -49126.496, -0.10011849, -0.25247917, -414536.0, 43084.67, 0.0, 10.000494, 9.999008 
1.7651978e+3, 2.633003e+2, -409398.25, -618274.4, -13514.313, -0.0436172, -0.20694244, -408527.5, -48895.805, 0.0000007067664, 10.000568, 9.997797 
1.7652296e+3, 2.732976e+2, -186610.77, -456360.28, -33542.543, -0.054155458, -0.28680927, -182502.42, 79159.625, 0.000029110019, 10.001421, 9.997813 
1.765261e+3, 2.8329602e+2, -44964.99, -285262.63, -40449.754, -0.077271245, -0.23361942, -38338.727, 125340.586, 0.00020337792, 10.001471, 9.998317 
1.7652915e+3, 2.9329595e+2, -129864.51, -252495.16, -81796.48, -0.14504805, -0.13082482, -88953.45, -23276.813, 0.00072556926, 10.000123, 9.9985075 
1.7653205e+3, 3.0329365e+2, -152467.61, -250281.73, -52248.117, -0.3396015, -0.18946683, -129808.15, -129808.15, 0.0017283146, 9.999669, 9.998416 
1.765355e+3, 3.1329203e+2, 27826.82, -100605.2, -70652.02, -0.022704754, -0.266649, 59085.434, 59085.434, 0.003137363, 10.000598, 9.9989805 
1.7747524e+3, 1.232754e+2, -1778676.8, -1869679.4, 81857.82, -0.15946274, -0.46937475, -1730524.0, 1339.3228, 0.08231803, 9.999976, 9.998933 
1.7747831e+3, 1.3327643e+2, -1740111.9, -1683505.3, 23907.863, -0.18976645, -0.39838845, -1674759.1, -40903.17, 0.054393712, 9.9991455, 9.999922 
1.7748185e+3, 1.4327568e+2, -1743497.1, -1733090.8, 21672.982, 0.18227217, -0.4104031, -1716005.1, -180139.23, 0.02831169, 9.998865, 9.99906 
1.7748493e+3, 1.53276e+2, -1454171.4, -1505732.8, 23558.205, 0.07005838, -0.3409146, -1445028.9, -7161.6895, 0.010105246, 10.0000515, 9.999359 
1.7748792e+3, 1.6327645e+2, -1278092.9, -1335983.8, -26973.51, -0.08743304, -0.23080458, -1267473.0, 72392.83, 0.0018804772, 10.000427, 9.999674 
1.7749095e+3, 1.7327625e+2, -1350198.8, -1291100.3, 12456.041, -0.145223, -0.27075607, -1288582.1, -46714.008, 0.00008970714, 9.999145, 9.99992 
1.7749414e+3, 1.8327597e+2, -1391492.9, -1386327.0, 69904.63, -0.14148682, -0.22757933, -1318957.6, -175085.1, 0.000000028818846, 9.998725, 9.998802 
1.7749758e+3, 1.93276e+2, -1076931.6, -1177916.6, 46804.418, -0.032288827, -0.13508686, -1058575.4, -12699.125, 0.0, 10.000204, 9.998838 
1.7750089e+3, 2.0327558e+2, -857506.06, -975787.6, -60009.703, 0.015206783, -0.06357791, -832392.5, 115490.14, 0.0, 10.000825, 9.999258 
1.7750396e+3, 2.1327412e+2, -900253.44, -909654.2, -18660.805, -0.030299466, -0.19254325, -885710.1, -35814.83, 0.0, 9.999723, 9.99956 
1.7750706e+3, 2.2327287e+2, -942071.0, -991679.44, 45052.68, -0.092970245, -0.21679671, -915445.75, -163538.95, 0.0, 9.999219, 9.998584 
1.7751029e+3, 2.332722e+2, -707624.94, -815874.1, 46902.15, -0.1544627, -0.18131515, -690130.56, -36216.324, 0.0, 10.000116, 9.998674 
1.775135e+3, 2.4327101e+2, -543908.4, -678917.3, -48997.402, -0.16853796, -0.15677635, -528000.6, 27924.533, 0.0, 10.000522, 9.998761 
1.7751662e+3, 2.5326896e+2, -462972.0, -559818.3, -45603.61, -0.11034556, -0.28965294, -444878.28, 13063.002, 0.0, 10.000295, 9.999006 
1.7751978e+3, 2.6326725e+2, -459103.78, -661188.0, 1191.5764, -0.10425248, -0.28928205, -459096.75, -99139.836, 0.00000032366296, 10.000314, 9.997624 
1.7752299e+3, 2.732665e+2, -247353.22, -506364.1, 20224.693, -0.16831674, -0.15549196, -245783.5, 16185.365, 0.00002512301, 10.001116, 9.997607 
1.7752619e+3, 2.83265e+2, -103791.95, -336145.16, -94533.766, -0.16335623, -0.071164444, -70189.94, 93795.516, 0.00020098852, 10.001156, 9.998122 
1.7752928e+3, 2.932616e+2, -168343.47, -279522.56, -110214.71, -0.053861428, -0.29723078, -100492.82, -34478.066, 0.0007424846, 9.999896, 9.998429 
1.7753217e+3, 3.032582e+2, -183700.95, -239088.45, -41175.33, -0.20495641, -0.47015157, -161772.63, -161772.63, 0.0017696349, 9.999352, 9.998641 
1.7753558e+3, 3.132621e+2, -17910.223, -18428.527, 45888.93, -0.06371642, -0.026249014, 27720.285, 27720.285, 0.0031804799, 9.999899, 9.999853 
1.7847529e+3, 1.2324324e+2, -1908161.9, -2097598.8, 153729.52, -0.083413035, -0.46001503, -1822313.6, -90139.92, 0.08696164, 9.999849, 9.997403 
1.7847826e+3, 1.332442e+2, -1639043.6, -1599705.3, -109401.63, -0.16229407, -0.41139442, -1508218.8, 125951.45, 0.057701517, 9.999753, 10.000215 
1.7848168e+3, 1.4324404e+2, -1726097.6, -1694548.9, 2989.8374, 0.15283836, -0.38824314, -1694268.0, -158092.7, 0.030258754, 9.998864, 9.999323 
1.7848486e+3, 1.5324414e+2, -1519654.5, -1502797.6, 51486.73, 0.045816496, -0.37397498, -1459054.0, -20876.773, 0.0109521225, 9.999445, 9.999675 
1.7848793e+3, 1.6324475e+2, -1372877.9, -1403132.1, -5626.3755, -0.0894709, -0.25958872, -1371865.5, -31691.805, 0.0020959692, 9.999863, 9.999483 
1.7849097e+3, 1.7324471e+2, -1201488.6, -1248696.9, -83797.99, -0.09902051, -0.2581892, -1138033.8, 104142.19, 0.000105867584, 10.000306, 9.999641 
1.7849416e+3, 1.832442e+2, -1197299.6, -1326170.8, 9154.644, -0.055739813, -0.20847265, -1196652.5, -52468.813, 0.0000000562377, 10.000198, 9.998511 
1.7849761e+3, 1.9324358e+2, -1218915.4, -1273741.4, 56068.625, 0.02782208, -0.15595165, -1183917.1, -137723.23, 0.0, 9.999334, 9.998601 
1.785009e+3, 2.0324278e+2, -1126767.1, -1078928.5, -9924.463, 0.05335819, -0.11767676, -1076951.4, -128748.23, 0.0, 9.998855, 9.999507 
1.785039e+3, 2.132415e+2, -914376.75, -875806.3, -58229.64, -0.02769099, -0.2643079, -833751.44, 16460.771, 0.0, 9.999445, 9.999935 
1.78507e+3, 2.2324051e+2, -833222.8, -934404.1, 39396.004, -0.09414164, -0.28417274, -819692.8, -67472.35, 0.0, 9.999952, 9.998628 
1.7851032e+3, 2.3324029e+2, -683970.06, -809674.3, 58674.453, -0.12383168, -0.19687589, -660839.2, -6614.114, 0.0, 10.00031, 9.99863 
1.7851359e+3, 2.4323936e+2, -549353.3, -699242.94, -12989.968, -0.119517714, -0.13382016, -548235.9, 7999.363, 0.0, 10.000583, 9.998576 
1.785167e+3, 2.5323722e+2, -402371.88, -555911.06, -61478.883, -0.087662235, -0.25299478, -380788.94, 77465.73, 0.0, 10.00084, 9.998755 
1.7851985e+3, 2.6323557e+2, -347772.16, -548672.56, 20795.244, -0.08867238, -0.25558904, -345642.22, 14627.6, 0.00000018370703, 10.000795, 9.998182 
1.7852305e+3, 2.7323484e+2, -328923.03, -480115.5, 78100.945, -0.16436304, -0.18563816, -295824.5, -33547.75, 0.000020759246, 10.00021, 9.998258 
1.7852625e+3, 2.8323328e+2, -272130.75, -420413.6, 34928.99, -0.13851015, -0.14112777, -264314.94, -100023.46, 0.0001926232, 10.000037, 9.998067 
1.7852941e+3, 2.9323015e+2, -50419.74, -249059.8, -37377.375, 0.04870165, -0.3214387, -43619.383, 22702.26, 0.00073848246, 10.0008335, 9.998176 
1.7853232e+3, 3.0322683e+2, 101706.46, -89346.01, 63700.953, -0.073048115, -0.4721521, 120997.79, 120997.79, 0.0017537118, 10.001267, 9.998747 
1.7853563e+3, 3.1323025e+2, 117553.08, 75052.37, 66963.62, -0.00073348556, -0.079485334, 166557.28, 166557.28, 0.0030983181, 10.000679, 10.000141 
1.7947526e+3, 1.2321048e+2, -1882161.1, -2068681.6, 276811.0, -0.16872644, -0.4496672, -1683322.4, 49177.137, 0.09190124, 9.999961, 9.997572 
1.7947838e+3, 1.33211e+2, -1624446.8, -1595718.6, -145718.53, -0.05406713, -0.41875094, -1463657.9, 170843.33, 0.06119029, 9.999846, 10.000224 
1.7948137e+3, 1.4321333e+2, -1642019.5, -1527077.3, -15416.138, -0.080404654, -0.20268914, -1525045.5, 11434.318, 0.03230053, 9.998901, 10.000453 
1.7948475e+3, 1.5321298e+2, -1450723.1, -1347027.6, 85541.914, -0.029017005, -0.3456889, -1298847.3, 139633.48, 0.011841973, 9.999397, 10.000771 
1.7948794e+3, 1.632129e+2, -1434747.0, -1545641.9, -4508.7354, -0.101910174, -0.3209869, -1434564.0, -94081.68, 0.0023264778, 9.999912, 9.998488 
1.7949106e+3, 1.732126e+2, -1290830.9, -1440436.3, -58811.668, -0.06756242, -0.21201691, -1270479.6, -27987.64, 0.00012352158, 10.000321, 9.998327 
1.7949423e+3, 1.8321165e+2, -1151555.0, -1238875.4, -33100.613, -0.017534802, -0.15475665, -1140425.9, 4079.1628, 0.000000085167756, 10.000236, 9.99909 
1.7949754e+3, 1.9320974e+2, -1170280.9, -1149573.5, 29477.41, -0.0015169837, -0.32299578, -1128684.4, -82162.77, 0.0, 9.999236, 9.999501 
1.7950073e+3, 2.0320863e+2, -1159311.8, -1115740.0, -13057.648, -0.022964278, -0.3599287, -1112126.6, -163595.86, 0.0, 9.9987135, 9.999328 
1.7950383e+3, 2.1320923e+2, -964291.8, -944557.1, -23244.156, -0.053844783, -0.2801663, -929172.6, -78647.984, 0.0, 9.999282, 9.999549 
1.7950702e+3, 2.232091e+2, -848209.94, -909244.1, 40801.715, -0.088982195, -0.20450248, -827775.4, -75248.94, 0.0, 9.999712, 9.998917 
1.7951037e+3, 2.3320773e+2, -688678.3, -762993.0, 86284.25, -0.12704526, -0.2743543, -631890.75, 22650.22, 0.0, 10.0000725, 9.999061 
1.7951362e+3, 2.4320666e+2, -618154.5, -774895.56, -13180.189, -0.16004501, -0.23625891, -617053.94, -60500.395, 0.0, 10.000293, 9.998198 
1.7951673e+3, 2.5320622e+2, -475295.16, -649371.2, -36739.273, -0.14897127, -0.13500062, -467858.88, -9297.299, 0.0, 10.000599, 9.998226 
1.7951989e+3, 2.6320505e+2, -305656.9, -399193.8, -7980.8896, -0.13827129, -0.10459454, -304980.84, 55591.516, 0.00000013255313, 10.000526, 9.999339 
1.7952308e+3, 2.7320263e+2, -251952.73, -261108.17, 68812.06, -0.17214072, -0.357448, -187566.3, 75019.57, 0.0000188634, 9.999973, 9.999866 
1.7952627e+3, 2.8320113e+2, -319284.84, -458412.7, 34809.805, -0.15363793, -0.40051746, -311061.47, -146465.66, 0.00018772867, 9.99977, 9.997941 
1.7952947e+3, 2.9320136e+2, -131398.03, -331505.8, 17503.71, 0.0052003316, -0.20232116, -129878.484, -63278.992, 0.0007307819, 10.00048, 9.997773 
1.7953242e+3, 3.0319908e+2, 5630.571, -191908.4, 29041.398, -0.121886, -0.20133539, 9811.627, 9811.627, 0.0017125614, 10.000833, 9.998261 
1.7953561e+3, 3.1319684e+2, 41287.67, 58104.086, 113315.94, -0.14844921, -0.35431468, 163323.34, 163323.34, 0.0029538858, 10.00011, 10.0002775 
1.8047532e+3, 1.2317787e+2, -1922580.5, -2088434.9, 365330.97, -0.062013973, -0.3088979, -1630883.0, 101941.5, 0.097200245, 9.999743, 9.997556 
1.8047836e+3, 1.3317718e+2, -1594412.1, -1463421.1, -196345.4, -0.019548073, -0.4905416, -1321935.5, 312900.4, 0.06490086, 9.999539, 10.001338 
1.8048121e+3, 1.4318225e+2, -1645660.6, -1524908.5, 15463.87, -0.12115008, -0.07239875, -1522959.5, 13826.172, 0.034457777, 9.998844, 10.000494 
1.804847e+3, 1.531808e+2, -1485755.4, -1384996.0, 1690.8269, 0.0044622715, -0.31118593, -1384967.6, 53829.727, 0.0127833225, 9.999248, 10.00057 
1.8048795e+3, 1.631798e+2, -1491073.8, -1580781.6, -84179.08, -0.05871519, -0.3599015, -1440544.3, -99736.664, 0.0025744103, 9.999567, 9.998416 
1.8049106e+3, 1.7317986e+2, -1339136.5, -1462214.8, -70558.64, -0.058478378, -0.21193095, -1307051.0, -64237.223, 0.00014305822, 9.999992, 9.99833 
1.8049426e+3, 1.831792e+2, -1156280.5, -1218262.1, -5601.2725, -0.0034079952, -0.13573417, -1155778.4, -10954.899, 0.00000010953618, 10.000091, 9.999304 
1.8049748e+3, 1.931772e+2, -1059143.4, -1064041.0, -22877.172, 0.009420344, -0.33997583, -1038584.25, 8255.042, 0.0, 9.999863, 9.999783 
1.8050064e+3, 2.0317613e+2, -994533.3, -1037884.06, -22996.598, -0.015450691, -0.3894781, -984607.0, -35759.58, 0.0, 9.999852, 9.999319 
1.805038e+3, 2.1317703e+2, -808394.25, -874744.25, -28664.691, -0.0611026, -0.27198356, -797725.9, 53113.36, 0.0, 10.000385, 9.999495 
1.8050702e+3, 2.2317705e+2, -740331.1, -842088.8, 39342.293, -0.080647245, -0.18338248, -726894.5, 25945.404, 0.0, 10.000404, 9.999028 
1.8051037e+3, 2.331755e+2, -747115.6, -777479.2, 30009.078, -0.08288494, -0.2819656, -728666.56, -73810.11, 0.0, 9.999622, 9.999165 
1.8051367e+3, 2.4317454e+2, -737505.3, -810415.56, -18314.434, -0.09285003, -0.24993856, -733163.44, -176295.02, 0.0, 9.999353, 9.998431 
1.805168e+3, 2.5317463e+2, -538205.0, -658618.06, -8835.4, -0.10297203, -0.114228465, -537560.2, -78688.305, 0.0, 10.000042, 9.998461 
1.8051998e+3, 2.6317364e+2, -291529.16, -374042.75, 27542.984, -0.08900786, -0.08225717, -283180.1, 77700.63, 0.00000007008213, 10.000559, 9.999486 
1.8052319e+3, 2.731708e+2, -133278.72, -201021.31, -39524.0, -0.09619375, -0.38349795, -115098.01, 147800.22, 0.000018211349, 10.000772, 9.999898 
1.8052636e+3, 2.831692e+2, -164402.42, -370461.47, -84539.44, -0.08200035, -0.43839043, -134157.8, 30751.152, 0.00018396281, 10.000765, 9.998064 
1.8052949e+3, 2.9317015e+2, -97033.516, -309563.03, -101726.26, -0.00737394, -0.17143069, -56191.402, 10715.184, 0.0007176876, 10.000669, 9.997843 
1.805325e+3, 3.0316848e+2, -33995.566, -215924.05, -41402.42, -0.092819825, -0.11424425, -25016.555, -25016.555, 0.0016605181, 10.000609, 9.998187 
1.8053576e+3, 3.1316486e+2, 25644.018, 18157.857, -29136.762, 0.0153038, -0.3705224, 51277.145, 51277.145, 0.0028147476, 10.000047, 10.000076 
1.8147542e+3, 1.23145305e+2, -1947555.1, -2163257.5, 423362.06, -0.011216217, -0.030598272, -1618522.8, 114627.266, 0.10291468, 9.999835, 9.997013 
1.8147816e+3, 1.331426e+2, -1438776.0, -1142933.9, -215131.83, -0.2113993, -0.62847877, -1029775.75, 605399.75, 0.06887483, 9.999517, 10.003701 
1.8148115e+3, 1.4315063e+2, -1702816.9, -1649706.3, -2086.4749, -0.104530334, -0.018292662, -1649624.4, -112530.086, 0.036753505, 9.998867, 9.999628 
1.8148468e+3, 1.5314735e+2, -1590124.9, -1606998.6, 29919.01, 0.02539913, -0.28675, -1567475.9, -128347.016, 0.01378539, 9.999265, 9.999041 
1.8148787e+3, 1.6314545e+2, -1421820.9, -1450151.9, -86089.2, -0.115200065, -0.37729838, -1348739.5, -7589.5786, 0.002842686, 9.999623, 9.999283 
1.8149097e+3, 1.7314653e+2, -1253007.8, -1279786.9, -44120.426, -0.17538424, -0.25479385, -1220289.9, 22851.105, 0.00016504708, 9.999967, 9.999598 
1.8149416e+3, 1.8314692e+2, -1161065.6, -1229400.3, -25314.91, -0.13656975, -0.14421003, -1152709.5, -7571.2515, 0.00000012908751, 10.000092, 9.9992285 
1.8149742e+3, 1.9314604e+2, -1089217.0, -1115671.5, -21314.97, -0.05036881, -0.20352755, -1077358.6, -30211.93, 0.0, 9.999812, 9.999455 
1.8150063e+3, 2.0314528e+2, -1008520.0, -1032109.2, -20315.416, -0.051719517, -0.20819262, -996823.56, -47670.016, 0.0, 9.999707, 9.999426 
1.8150376e+3, 2.1314481e+2, -824328.2, -862178.5, 4807.8994, -0.15308064, -0.24854448, -823727.0, 27429.875, 0.0, 10.000187, 9.999676 
1.8150698e+3, 2.2314426e+2, -789645.44, -882847.25, 5788.419, -0.19370978, -0.22230746, -789287.3, -36124.957, 0.0, 10.000139, 9.998877 
1.8151033e+3, 2.3314366e+2, -794805.44, -827221.5, 14006.861, -0.10912743, -0.20429713, -789591.7, -134420.69, 0.0, 9.999409, 9.998927 
1.8151364e+3, 2.4314296e+2, -727994.5, -730862.56, -11597.996, -0.06533561, -0.15635495, -717742.2, -160562.28, 0.0, 9.999098, 9.999096 
1.8151684e+3, 2.5314227e+2, -500498.5, -530406.2, 35203.324, -0.0716253, -0.19496071, -477204.6, -18017.707, 0.0, 9.999831, 9.999436 
1.8152007e+3, 2.631412e+2, -399978.6, -535485.2, 28204.24, -0.07529585, -0.19120498, -394342.6, -33145.996, 0.0000000874347, 10.000279, 9.998514 
1.8152331e+3, 2.7313927e+2, -271394.53, -419935.5, -8712.921, -0.06929323, -0.2713011, -270885.22, -7672.2056, 0.00001648955, 10.000493, 9.99852 
1.8152644e+3, 2.831377e+2, -201400.81, -381046.5, -97735.12, -0.09560952, -0.24787082, -158482.19, 6745.986, 0.00017264257, 10.000472, 9.998135 
1.8152946e+3, 2.9313692e+2, -93874.63, -250451.45, -76912.07, -0.14737651, -0.2021903, -62415.418, 4823.0386, 0.00068283465, 10.000438, 9.998358 
1.815325e+3, 3.031354e+2, -89537.48, -250927.9, -71359.27, -0.17802127, -0.1615178, -62511.46, -62511.46, 0.0015898239, 10.0002775, 9.998103 
1.8153585e+3, 3.1313217e+2, -84184.695, -15231.32, -8977.23, 0.052043904, -0.37260363, -14081.716, -14081.716, 0.0027072954, 9.999292, 10.000168 
1.824754e+3, 1.23111725e+2, -2094490.1, -2253457.3, 398732.8, 0.059541624, 0.086755134, -1767395.9, -33913.723, 0.10907774, 9.998855, 9.996817 
1.8247806e+3, 1.3310796e+2, -1446280.4, -1037270.0, -262386.66, -0.23003589, -0.72025245, -909105.5, 726411.5, 0.07313931, 9.998918, 10.004797 
1.8248115e+3, 1.4311819e+2, -1601950.6, -1581342.3, -39127.16, -0.00086579676, 0.0348208, -1551185.3, -13772.065, 0.039204508, 9.999503, 9.999782 
1.8248466e+3, 1.5311478e+2, -1556548.8, -1616256.5, 61151.832, 0.06967371, -0.22966704, -1518352.6, -78902.6, 0.014855209, 9.9996195, 9.998803 
1.8248782e+3, 1.6311245e+2, -1384621.3, -1387895.6, 18616.193, -0.115000755, -0.36171278, -1367570.4, -26095.584, 0.0031336718, 9.999683, 9.999678 
1.8249096e+3, 1.7311344e+2, -1201663.0, -1189775.5, -19353.406, -0.17635679, -0.30587083, -1175473.6, 67990.1, 0.00019006866, 10.000048, 10.000173 
1.8249418e+3, 1.8311414e+2, -1151578.3, -1201095.9, -20729.643, -0.11794581, -0.20566194, -1144046.0, 1410.5237, 0.00000015151502, 10.000066, 9.999433 
1.8249741e+3, 1.931143e+2, -1108256.9, -1111040.9, -18832.094, -0.03056374, -0.17078498, -1090765.4, -43308.793, 0.0, 9.999653, 9.9995575 
1.825006e+3, 2.0311396e+2, -1058682.1, -1054963.0, 40000.676, -0.011149096, -0.13839217, -1016778.7, -67318.24, 0.0, 9.999355, 9.999426 
1.8250379e+3, 2.1311265e+2, -937472.44, -914194.8, 31516.656, -0.089873776, -0.26442373, -892236.56, -40765.188, 0.0, 9.999407, 9.999679 
1.82507e+3, 2.2311176e+2, -861925.3, -896644.4, 45532.977, -0.12854035, -0.28100824, -830554.94, -77075.49, 0.0, 9.999527, 9.999092 
1.8251027e+3, 2.3311184e+2, -722936.4, -756520.94, 61176.957, -0.11279023, -0.22536023, -676288.9, -20808.154, 0.0, 9.999747, 9.999254 
1.8251356e+3, 2.4311149e+2, -584496.1, -632081.75, 94838.53, -0.08226077, -0.17474337, -510511.4, 46973.953, 0.0, 9.999957, 9.999348 
1.8251689e+3, 2.531105e+2, -445615.03, -475457.47, 68388.914, -0.016777588, -0.26891115, -390538.5, 68955.94, 0.0, 10.00009, 9.999672 
1.825202e+3, 2.631096e+2, -410744.16, -551017.8, 72294.91, 0.027314264, -0.26129115, -380154.97, -18651.637, 0.00000011582431, 10.000257, 9.998421 
1.825234e+3, 2.7310863e+2, -275180.72, -448753.22, 74333.98, -0.0046969946, -0.22003911, -247698.02, 15816.4795, 0.000015405387, 10.000573, 9.998296 
1.8252654e+3, 2.8310734e+2, -136684.3, -333364.34, 68746.59, -0.056658756, -0.15889803, -115037.44, 50491.34, 0.00016033727, 10.000855, 9.998278 
1.8252952e+3, 2.931058e+2, 12328.377, -184358.66, 30396.307, -0.14937109, -0.20425148, 16918.736, 84463.664, 0.0006397898, 10.001097, 9.998502 
1.8253262e+3, 3.031041e+2, 66667.2, -153148.66, 52046.17, -0.1196924, -0.19886549, 78367.484, 78367.484, 0.0015188638, 10.001227, 9.998326 
1.8253593e+3, 3.1310165e+2, 160712.95, 88963.016, 7120.186, 0.15066737, -0.3373923, 161412.72, 161412.72, 0.002646335, 10.000949, 10.00014 
1.8347529e+3, 1.2307678e+2, -2060595.5, -2205335.0, -6308.4116, -0.021088352, -0.025161644, -2060321.0, -326496.78, 0.11569034, 9.9989395, 9.9971075 
1.8347803e+3, 1.3307334e+2, -1455138.8, -1062641.8, -213653.69, -0.17863455, -0.76270765, -968784.5, 667074.5, 0.07769921, 9.99894, 10.004617 
1.8348116e+3, 1.4308506e+2, -1516065.5, -1426027.9, -47563.508, 0.005483743, 0.09626011, -1405556.4, 132185.03, 0.04181763, 9.999584, 10.000841 
1.8348458e+3, 1.5308309e+2, -1478190.1, -1460068.3, 76394.195, 0.0063588377, -0.13403234, -1392199.5, 47561.06, 0.015997248, 9.9996395, 9.99987 
1.8348776e+3, 1.630809e+2, -1375316.9, -1384716.3, 13221.204, -0.18728396, -0.3105385, -1365984.9, -24203.936, 0.0034491862, 9.999751, 9.99967 
1.8349099e+3, 1.7308043e+2, -1210170.6, -1215540.1, 4016.0469, -0.17078134, -0.3816912, -1208024.6, 35758.65, 0.00021871291, 10.00007, 9.99999 
1.8349424e+3, 1.830806e+2, -1127398.3, -1148311.5, -46876.41, -0.09595422, -0.3408868, -1089826.4, 55954.234, 0.00000018976193, 10.000061, 9.999793 
1.8349737e+3, 1.9308174e+2, -1089335.8, -1053650.5, -25363.82, -0.047282185, -0.25207224, -1040482.06, 7289.1055, 0.0, 9.999574, 9.999989 
1.8350054e+3, 2.0308198e+2, -1080815.3, -1068280.1, 24496.893, -0.027189903, -0.18800658, -1049261.6, -99491.8, 0.0, 9.999213, 9.999405 
1.8350385e+3, 2.1308057e+2, -972729.1, -946008.8, 42335.887, 0.0073090508, -0.31133395, -914975.0, -63192.0, 0.0, 9.999227, 9.999548 
1.8350707e+3, 2.2307965e+2, -858972.5, -828660.94, 41904.387, -0.025939893, -0.34649092, -799255.8, -45464.676, 0.0, 9.999261, 9.999689 
1.8351017e+3, 2.3307987e+2, -698457.5, -655931.44, 84580.07, -0.19939977, -0.3540804, -589982.6, 65805.336, 0.0, 9.999534, 10.0000515 
1.8351339e+3, 2.4307987e+2, -634917.06, -670478.9, 86812.51, -0.26207393, -0.31124783, -564083.25, -6295.4927, 0.0, 9.999669, 9.9992285 
1.8351687e+3, 2.5307938e+2, -512281.88, -552554.5, 88096.39, -0.053359687, -0.31668967, -442049.8, 17743.883, 0.0, 9.999832, 9.9992695 
1.8352027e+3, 2.6307896e+2, -417298.16, -508380.16, 69597.47, 0.06309191, -0.25034967, -379665.9, -17866.492, 0.000000090536304, 10.000007, 9.998836 
1.8352345e+3, 2.7307865e+2, -253718.06, -357301.63, 104488.58, -0.033525452, -0.21598718, -188889.73, 74915.125, 0.00001528185, 10.000369, 9.999022 
1.8352658e+3, 2.8307778e+2, -171081.11, -341321.34, 53848.89, -0.12877911, -0.16064563, -155478.16, 10336.816, 0.00015301339, 10.000578, 9.998357 
1.8352963e+3, 2.9307625e+2, -39673.918, -213831.52, 59551.086, -0.17512923, -0.20284744, -21258.406, 46572.516, 0.00060731446, 10.00077, 9.998448 
1.8353279e+3, 3.0307445e+2, 5965.2964, -174871.2, 26506.754, -0.11500587, -0.203142, 9770.546, 9770.546, 0.0014670701, 10.000787, 9.998384 
1.8353581e+3, 3.1307355e+2, 58020.336, 709.5178, 17154.744, -0.107320346, -0.22082648, 62762.797, 62762.797, 0.002622712, 10.000442, 9.999759 
1.8447508e+3, 1.2304349e+2, -2170196.0, -2194040.0, -5968.1323, -0.04165179, -0.14101297, -2168785.5, -434635.75, 0.12272786, 9.997911, 9.997695 
1.8447807e+3, 1.3304123e+2, -1458042.6, -1136641.4, -76443.695, -0.020857334, -0.6942623, -1119386.0, 516787.5, 0.08254445, 9.999292, 10.003909 
1.8448113e+3, 1.4305173e+2, -1434613.8, -1390328.9, 12512.808, 0.012978451, 0.08592159, -1387037.9, 151030.55, 0.04459436, 10.00016, 10.000834 
1.844845e+3, 1.5304977e+2, -1455039.8, -1429341.5, 26281.11, -0.024589276, -0.15747029, -1412936.6, 27149.668, 0.017215712, 9.99971, 10.000047 
1.8448772e+3, 1.6304803e+2, -1453087.8, -1381447.3, -32419.852, -0.15540491, -0.31639275, -1368954.6, -26852.945, 0.0037916328, 9.999069, 10.000017 
1.84491e+3, 1.730481e+2, -1395756.4, -1260936.4, -26889.703, -0.09376187, -0.36881542, -1255771.1, -11672.828, 0.00025177147, 9.998632, 10.000364 
1.8449424e+3, 1.8304838e+2, -1346647.5, -1237905.1, -30434.826, -0.009042422, -0.3449913, -1229966.5, -83872.63, 0.00000025167606, 9.998472, 9.999948 
1.8449734e+3, 1.9304892e+2, -1137514.3, -1064941.6, -55506.277, -0.01723501, -0.3302451, -1034913.2, 13176.404, 0.0, 9.999174, 10.000104 
1.8450049e+3, 2.0304903e+2, -1013473.7, -1020069.75, 5272.454, -0.019385973, -0.29183066, -1010552.75, -60463.41, 0.0, 9.9996195, 9.999539 
1.845038e+3, 2.1304853e+2, -880163.4, -886611.3, 14321.654, 0.01940016, -0.3323866, -868707.3, -16612.625, 0.0, 9.999822, 9.999669 
1.8450706e+3, 2.2304818e+2, -767791.9, -782504.6, 32868.695, 0.007827179, -0.31854367, -741466.44, 12631.715, 0.0, 9.999884, 9.999697 
1.8451017e+3, 2.3304804e+2, -670332.1, -646835.56, -8475.041, -0.15601933, -0.36126676, -644097.7, 12000.911, 0.0, 9.999733, 10.000009 
1.8451339e+3, 2.4304783e+2, -633383.44, -662560.9, -6602.888, -0.21102242, -0.340794, -631958.75, -73858.56, 0.0, 9.999661, 9.999278 
1.8451686e+3, 2.5304756e+2, -507796.28, -547668.0, -7453.4395, -0.045058705, -0.32856527, -506448.53, -46344.44, 0.0, 9.99984, 9.999302 
1.8452024e+3, 2.6304716e+2, -417679.44, -504292.06, 17863.9, 0.050975367, -0.26420453, -414139.66, -52029.816, 0.00000009817215, 10.000007, 9.998853 
1.8452345e+3, 2.7304667e+2, -271896.7, -365822.6, -23271.277, -0.04631179, -0.24340774, -266447.13, -2329.3376, 0.000013983738, 10.000261, 9.999001 
1.8452662e+3, 2.8304586e+2, -181923.25, -324585.4, -81120.46, -0.11868565, -0.18561329, -145232.8, 20894.94, 0.00014297603, 10.000405, 9.998563 
1.845297e+3, 2.930449e+2, -68703.57, -194423.2, -106435.26, -0.12273387, -0.18931642, -7951.822, 60185.633, 0.00057426473, 10.000417, 9.998767 
1.8453293e+3, 3.0304298e+2, 22992.225, -164439.92, -63970.402, -0.03204391, -0.22678916, 42743.832, 42743.832, 0.001412024, 10.000891, 9.998417 
1.845359e+3, 3.130419e+2, 310749.75, 110892.38, -204368.28, -0.13181615, -0.23424381, 438312.03, 438312.03, 0.002576916, 10.002225, 9.999662 
1.8547475e+3, 1.2301269e+2, -2084488.8, -2054242.6, 6650.6567, -0.23475105, -0.21249633, -2052844.9, -318394.0, 0.13014582, 9.998041, 9.998606 
1.8547818e+3, 1.3301194e+2, -1549053.6, -1331247.1, -7789.9297, 0.12777229, -0.5129692, -1330968.9, 305488.47, 0.08765755, 9.999302, 10.002467 
1.8548106e+3, 1.4301813e+2, -1496095.5, -1534848.5, -4198.1274, -0.12538941, -0.023301259, -1495645.9, 42748.5, 0.04753598, 10.000236, 9.999764 
1.8548438e+3, 1.5301476e+2, -1504449.0, -1543782.9, 17415.24, -0.14981762, -0.31964377, -1497846.6, -57418.65, 0.01851746, 9.999756, 9.999242 
1.8548763e+3, 1.6301368e+2, -1400020.1, -1283850.8, -68792.55, -0.17818508, -0.39395267, -1251900.8, 90537.58, 0.0041650403, 9.999122, 10.000663 
1.8549092e+3, 1.7301632e+2, -1335997.3, -1132778.5, -32920.504, -0.05577536, -0.27693316, -1127578.6, 116831.19, 0.00029041685, 9.998607, 10.001261 
1.8549414e+3, 1.8301743e+2, -1346195.0, -1234897.5, -27929.066, 0.01103686, -0.22494283, -1228282.1, -81885.234, 0.0000003514084, 9.998466, 9.999973 
1.8549722e+3, 1.9301584e+2, -1163225.8, -1097481.4, -19673.736, -0.056550376, -0.4037331, -1092043.8, -43632.297, 0.0, 9.999082, 9.999928 
1.8550037e+3, 2.0301513e+2, -1022064.94, -1002617.4, 1961.3088, -0.12456281, -0.4432628, -1002421.56, -52003.133, 0.0, 9.999465, 9.999735 
1.8550362e+3, 2.1301645e+2, -885836.56, -857643.3, 33916.133, -0.1501029, -0.3326887, -835010.94, 17396.453, 0.0, 9.999642, 9.999955 
1.855069e+3, 2.2301714e+2, -836730.94, -871468.3, 18599.191, -0.1521442, -0.2135818, -828651.6, -74248.93, 0.0, 9.999642, 9.999207 
1.855102e+3, 2.330164e+2, -751657.75, -769539.1, 125.195816, -0.1070015, -0.24357955, -751656.9, -95244.95, 0.0, 9.99953, 9.999269 
1.8551351e+3, 2.4301566e+2, -664583.06, -664829.7, -13502.911, -0.08557446, -0.23519568, -651202.9, -92782.65, 0.0, 9.999396, 9.999387 
1.8551679e+3, 2.5301507e+2, -514423.75, -505168.28, 14258.726, -0.09893015, -0.2929273, -494805.13, -34380.14, 0.0, 9.999609, 9.999698 
1.855201e+3, 2.6301417e+2, -482625.25, -579267.1, 11350.5, -0.1229985, -0.28595978, -481310.03, -118875.87, 0.00000008466028, 9.999748, 9.998465 
1.8552339e+3, 2.730128e+2, -354841.5, -476751.94, 7896.1245, -0.160392, -0.29776382, -354332.2, -89879.945, 0.000011476472, 10.000004, 9.998363 
1.8552662e+3, 2.8301182e+2, -224478.77, -340052.44, -94641.58, -0.18051012, -0.21867384, -171376.7, -4912.17, 0.00012753508, 10.000088, 9.998613 
1.8552975e+3, 2.9301193e+2, -79363.08, -146814.64, -83543.36, -0.1408238, -0.14978005, -22994.898, 45467.676, 0.00053210376, 10.000121, 9.999235 
1.85533e+3, 3.0300975e+2, -53139.016, -229179.94, -41635.863, -0.06711663, -0.23532103, -43788.297, -43788.297, 0.0013363026, 10.000493, 9.99816 
1.855362e+3, 3.1300864e+2, 216190.2, 80060.93, -144261.28, -0.10490804, -0.20221464, 307637.7, 307637.7, 0.0024703583, 10.00155, 9.999758 
1.8647471e+3, 1.22981794e+2, -1678387.0, -1727755.0, -4233.6245, -0.17974965, -0.19557509, -1678026.5, 56727.35, 0.1378835, 10.000393, 9.999685 
1.8647817e+3, 1.3298164e+2, -1522075.9, -1459512.1, -59096.203, 0.1397385, -0.3366978, -1423929.1, 212824.66, 0.09301642, 10.000207, 10.001051 
1.8648107e+3, 1.4298396e+2, -1584301.1, -1595134.1, -35753.6, -0.07663522, -0.14062974, -1553556.0, -14826.8125, 0.050644647, 9.9997015, 9.999599 
1.864843e+3, 1.5298134e+2, -1586246.8, -1561418.6, 20059.979, -0.15198635, -0.38100412, -1550242.3, -109487.44, 0.01991141, 9.999104, 9.999434 
1.8648754e+3, 1.6298094e+2, -1472211.1, -1330884.6, 1714.3129, -0.15251228, -0.39355, -1330863.9, 11894.623, 0.0045744055, 9.99866, 10.000559 
1.864908e+3, 1.7298375e+2, -1290264.1, -1123817.9, -61159.17, -0.025983036, -0.25063166, -1103762.0, 140967.97, 0.0003360051, 9.998977, 10.001133 
1.8649404e+3, 1.829848e+2, -1230960.9, -1176897.0, -54750.406, 0.038326707, -0.19857252, -1142868.9, 3849.4287, 0.00000050835786, 9.999253, 9.999987 
1.8649717e+3, 1.9298281e+2, -1059464.0, -1043433.7, -52669.418, -0.052322727, -0.4229273, -998173.06, 50562.3, 0.0, 9.999778, 9.999966 
1.8650033e+3, 2.0298211e+2, -931833.9, -935087.6, -12147.079, -0.11964605, -0.47182098, -921205.2, 29535.723, 0.0, 9.999979, 9.999953 
1.8650356e+3, 2.1298416e+2, -849760.5, -812177.75, -11446.224, -0.1665485, -0.31512466, -808966.1, 43756.594, 0.0, 9.999753, 10.00022 
1.8650685e+3, 2.2298501e+2, -848042.9, -896699.75, 8191.2456, -0.15254578, -0.1875621, -846700.94, -91984.55, 0.0, 9.99966, 9.999029 
1.8651024e+3, 2.3298347e+2, -701221.44, -779198.56, -8292.949, -0.038377374, -0.2654412, -700349.25, -43614.99, 0.0, 10.000034, 9.998967 
1.8651357e+3, 2.429824e+2, -544402.44, -612521.6, 11402.565, 0.014717363, -0.26725426, -542544.44, 16201.861, 0.0, 10.0002365, 9.999345 
1.8651678e+3, 2.5298256e+2, -447662.7, -470868.2, -8606.577, -0.093153864, -0.2519551, -444819.1, 15925.338, 0.0, 10.000058, 9.999719 
1.8652003e+3, 2.6298192e+2, -441556.5, -550023.25, 21277.785, -0.1547739, -0.22417444, -437531.8, -74780.52, 0.000000065173005, 9.999981, 9.998558 
1.8652341e+3, 2.7297994e+2, -321033.03, -451939.44, 29653.223, -0.124362156, -0.2995744, -314629.2, -49855.16, 0.000009433609, 10.000191, 9.998449 
1.8652673e+3, 2.8297883e+2, -176058.73, -298121.28, -10901.316, -0.07398623, -0.24882133, -175092.8, -8306.323, 0.00011541226, 10.000352, 9.99876 
1.8652989e+3, 2.9297906e+2, -24581.248, -102732.15, -55494.496, -0.03787896, -0.17977165, 4214.721, 72996.28, 0.00049646525, 10.000426, 9.999377 
1.8653308e+3, 3.0297622e+2, -21478.018, -256905.19, 50345.133, -0.040148854, -0.32504472, -11163.791, -11163.791, 0.0012600875, 10.000868, 9.997786 
1.8653642e+3, 3.1297597e+2, 298379.5, 77015.06, -147812.33, -0.06285127, -0.15930136, 372356.53, 372356.53, 0.0023282347, 10.0022335, 9.999414 
1.8747482e+3, 1.22949585e+2, -1601953.9, -1599369.0, -53519.086, -0.18655226, -0.25639167, -1547126.8, 187944.1, 0.14588223, 10.000533, 10.000662 
1.8747795e+3, 1.3295028e+2, -1613946.4, -1662636.0, -64171.86, -0.12725788, -0.18317994, -1569656.6, 67407.16, 0.0986057, 10.000257, 9.999533 
1.8748116e+3, 1.429492e+2, -1517642.0, -1478827.3, -68179.555, -0.0051216013, -0.27080604, -1427346.8, 111726.78, 0.053927336, 9.999792, 10.000382 
1.8748423e+3, 1.529495e+2, -1492666.3, -1372596.5, 11136.236, -0.146105, -0.3427945, -1371572.4, 69494.37, 0.021407956, 9.99911, 10.000741 
1.8748738e+3, 1.6294998e+2, -1515879.4, -1430987.6, -5997.593, -0.21565232, -0.3158064, -1430566.0, -87505.75, 0.0050250688, 9.998705, 9.999851 
1.8749064e+3, 1.7295042e+2, -1376685.9, -1301495.9, -36262.3, -0.13217664, -0.29053128, -1286857.4, -41799.035, 0.00038988978, 9.99896, 9.999929 
1.8749388e+3, 1.8295033e+2, -1229207.5, -1175620.1, -54234.72, -0.09419264, -0.27898884, -1141921.6, 5138.0967, 0.000000733184, 9.999267, 9.999991 
1.874971e+3, 1.9294976e+2, -1056324.6, -1010815.0, -23694.432, -0.11963673, -0.38571835, -1000718.5, 48343.16, 0.0, 9.999673, 10.000239 
1.8750033e+3, 2.0294991e+2, -926210.44, -903273.75, -33499.37, -0.14196302, -0.37815404, -879334.06, 71723.555, 0.0, 9.99988, 10.000225 
1.8750356e+3, 2.129517e+2, -858440.9, -790578.4, -10687.966, -0.15137236, -0.27044088, -788934.9, 64105.18, 0.0, 9.999576, 10.000458 
1.8750685e+3, 2.2295195e+2, -883993.6, -914517.06, 3878.0222, -0.14408576, -0.21733958, -883508.6, -128470.555, 0.0, 9.999408, 9.999031 
1.8751022e+3, 2.3294911e+2, -735156.6, -796936.94, 18927.215, -0.06492764, -0.42494312, -729819.1, -72752.43, 0.0, 9.999808, 9.99895 
1.8751356e+3, 2.4294783e+2, -596087.7, -659975.25, -4851.8936, -0.04326526, -0.44140738, -595721.3, -36640.395, 0.0, 9.999972, 9.999153 
1.8751673e+3, 2.5294986e+2, -496694.78, -519621.03, -267.67014, -0.15414646, -0.2127621, -496691.66, -35627.652, 0.0, 9.999833, 9.999493 
1.8752001e+3, 2.6295033e+2, -446792.3, -509618.53, 12586.014, -0.19754463, -0.0793891, -444364.75, -81302.914, 0.00000004605578, 9.999744, 9.998959 
1.875235e+3, 2.7294806e+2, -310719.28, -378490.06, 55671.703, -0.07768472, -0.2427564, -279431.38, -14346.959, 0.000008319171, 9.999956, 9.999074 
1.875269e+3, 2.8294677e+2, -206817.31, -297783.72, -22316.818, 0.016021432, -0.25518823, -201637.3, -34541.637, 0.00010877432, 10.000073, 9.9989 
1.8753001e+3, 2.929461e+2, -79334.914, -141067.13, -26865.041, 0.040612534, -0.27232108, -69281.016, -183.74533, 0.00047256332, 10.00011, 9.999267 
1.875331e+3, 3.0294216e+2, -108192.414, -343652.78, 71937.62, -0.14959085, -0.49996987, -87953.695, -87953.695, 0.0011934324, 10.0004835, 9.997371 
1.8753667e+3, 3.1294325e+2, 142838.42, -63516.89, -41448.855, -0.09755255, -0.16261658, 150852.66, 150852.66, 0.0021805223, 10.001489, 9.998794 
1.8847497e+3, 1.22918084e+2, -1728735.6, -1556183.3, 24857.688, 0.0031908646, -0.32765862, -1552673.8, 182704.44, 0.15411249, 9.998933, 10.001813 
1.8847784e+3, 1.329195e+2, -1877892.3, -1896370.5, 38333.047, -0.17035836, -0.12734723, -1847700.6, -210336.64, 0.10442951, 9.998853, 9.998594 
1.8848112e+3, 1.4291623e+2, -1628327.0, -1535424.4, 58079.277, 0.015222855, -0.3702054, -1507505.5, 31890.357, 0.057399224, 9.999073, 10.000306 
1.8848425e+3, 1.529181e+2, -1409658.8, -1282054.6, 38678.645, -0.06272692, -0.32372174, -1271246.1, 170127.28, 0.023018045, 9.999514, 10.001156 
1.8848738e+3, 1.629192e+2, -1411902.4, -1453152.9, 22003.541, -0.12392323, -0.23612387, -1402368.9, -59007.734, 0.005521801, 9.999717, 9.999217 
1.8849054e+3, 1.7291805e+2, -1299943.4, -1364148.6, -5423.195, -0.15113214, -0.28534678, -1299488.5, -54112.004, 0.0004532519, 9.999903, 9.999055 
1.8849376e+3, 1.8291713e+2, -1167089.5, -1166257.3, 10204.631, -0.14625336, -0.29776573, -1156460.3, -9073.33, 0.0000010252129, 9.999781, 9.999802 
1.8849707e+3, 1.9291706e+2, -1071928.4, -1015419.44, 2895.7058, -0.093869075, -0.35516182, -1015271.44, 34111.145, 0.0, 9.999548, 10.000259 
1.8850036e+3, 2.029173e+2, -1012726.94, -976806.44, -11910.406, -0.06762296, -0.33226696, -973216.06, -21839.037, 0.0, 9.999435, 9.9999275 
1.8850356e+3, 2.1291803e+2, -832171.75, -818410.56, -65194.3, -0.12203768, -0.29111984, -759734.8, 93635.35, 0.0, 9.999938, 10.000086 
1.8850681e+3, 2.2291777e+2, -759043.0, -841505.9, -50940.133, -0.13692483, -0.2714773, -734738.75, 20634.3, 0.0, 10.00022, 9.99913 
1.885102e+3, 2.3291555e+2, -664113.94, -741340.5, -40436.25, -0.0913683, -0.43398672, -646815.9, 10579.019, 0.0, 10.0002, 9.999144 
1.8851353e+3, 2.4291457e+2, -573529.9, -647276.1, -31828.979, -0.056700017, -0.4315373, -561692.5, -2286.7297, 0.0, 10.000134, 9.999154 
1.885168e+3, 2.5291604e+2, -469071.72, -521282.94, -56236.02, -0.083276644, -0.24880987, -433177.4, 28217.355, 0.0, 10.000089, 9.999359 
1.885201e+3, 2.629163e+2, -377740.66, -430152.1, -5675.354, -0.07546173, -0.14412571, -377133.16, -13738.829, 0.000000017635879, 10.000051, 9.999337 
1.8852353e+3, 2.7291474e+2, -239448.73, -277690.16, 4194.8076, -0.029783547, -0.28624403, -238994.0, 26413.975, 0.000007223604, 10.000197, 9.999624 
1.8852693e+3, 2.8291398e+2, -145799.45, -250529.78, -35322.23, 0.0422562, -0.2853061, -134999.98, 32413.006, 0.00010058898, 10.000441, 9.999035 
1.8853018e+3, 2.9291323e+2, 65760.89, -75241.67, -77515.625, 0.1444237, -0.31133777, 100040.82, 169456.1, 0.0004433926, 10.001124, 9.999227 
1.8853319e+3, 3.0290982e+2, 90709.48, -190965.77, 85103.86, -0.13420549, -0.5097631, 114425.5, 114425.5, 0.0011172837, 10.001563, 9.9979315 
1.8853682e+3, 3.1291047e+2, 53383.2, -99130.01, -31237.79, -0.023374729, -0.27443686, 59533.324, 59533.324, 0.002026479, 10.000833, 9.998874 
1.894749e+3, 1.228884e+2, -1657068.3, -1439787.3, -10551.346, -0.02461155, -0.33041877, -1439276.0, 296388.56, 0.16258536, 9.999064, 10.002737 
1.894778e+3, 1.328898e+2, -1899535.8, -1939326.9, 61459.36, -0.1298948, -0.145794, -1854831.9, -217182.06, 0.110513955, 9.998823, 9.998332 
1.8948087e+3, 1.4288525e+2, -1689961.3, -1656589.9, 63467.492, -0.17982616, -0.44962424, -1607651.4, -67956.81, 0.06108175, 9.999059, 9.999465 
1.8948427e+3, 1.5288714e+2, -1458290.9, -1379189.0, 68702.2, -0.022595748, -0.33263713, -1339466.5, 102208.375, 0.024752133, 9.999505, 10.000482 
1.8948749e+3, 1.6288842e+2, -1427844.8, -1514092.1, 16879.482, -0.031275213, -0.16547047, -1424659.0, -80996.375, 0.0060684755, 9.99983, 9.998746 
1.8949051e+3, 1.7288662e+2, -1332338.0, -1432303.8, 10174.796, -0.19141597, -0.23530617, -1331312.9, -85628.42, 0.0005270964, 9.999901, 9.99859 
1.8949367e+3, 1.828851e+2, -1181190.3, -1200146.6, -9503.41, -0.24556987, -0.2698971, -1177246.5, -29545.82, 0.0000013718216, 9.999809, 9.999549 
1.8949704e+3, 1.92885e+2, -1099884.4, -1048262.56, 1525.4061, -0.09956745, -0.31422165, -1048217.5, 1478.2313, 0.0, 9.999452, 10.000075 
1.8950035e+3, 2.028845e+2, -1094343.9, -1121058.0, -10324.746, -0.049071793, -0.3146534, -1090818.6, -139121.58, 0.0, 9.999314, 9.999003 
1.895035e+3, 2.1288316e+2, -934699.1, -993200.94, -32820.367, -0.18151414, -0.37331027, -919986.5, -66273.92, 0.0, 9.999762, 9.998978 
1.8950674e+3, 2.228823e+2, -785972.6, -836139.94, -61808.473, -0.26272476, -0.3537393, -744351.9, 11371.1, 0.0, 9.99996, 9.9992895 
1.8951008e+3, 2.3288284e+2, -664131.75, -685620.94, -24801.271, -0.24220599, -0.28914452, -647847.7, 9870.415, 0.0, 9.999967, 9.999633 
1.8951346e+3, 2.4288277e+2, -611841.8, -670516.5, -46503.14, -0.17486273, -0.22520083, -586195.3, -26475.992, 0.0, 9.999878, 9.9991255 
1.895169e+3, 2.5288114e+2, -509689.56, -556106.7, -43475.34, 0.004566634, -0.3420819, -483615.88, -21879.885, 0.0, 9.999875, 9.999223 
1.8952028e+3, 2.6287976e+2, -390684.7, -402186.6, -14581.578, 0.0746102, -0.39855567, -380760.97, -17011.857, 0.0000000071100716, 9.999814, 9.999644 
1.8952352e+3, 2.7287987e+2, -248227.14, -228796.89, 25725.215, -0.102233715, -0.42235845, -211013.47, 54732.523, 0.0000064443307, 9.999923, 10.000088 
1.8952681e+3, 2.828803e+2, -185203.1, -260093.58, -33529.836, -0.14564146, -0.33446524, -172385.06, -4645.6074, 0.0000894982, 10.000118, 9.999128 
1.8953028e+3, 2.9288018e+2, 1648.3483, -125522.26, -25266.125, 0.110948965, -0.3045552, 6484.298, 76222.47, 0.00040206578, 10.00076, 9.999062 
1.895333e+3, 3.0287877e+2, 116178.07, -34263.023, 53848.363, -0.22829463, -0.34439212, 133465.78, 133465.78, 0.0010244871, 10.001146, 9.999195 
1.8953688e+3, 3.128776e+2, -45635.285, -126392.7, 41624.56, -0.10768933, -0.44465694, -28022.234, -28022.234, 0.0018689361, 10.000138, 9.998994 
1.9047475e+3, 1.228569e+2, -1814340.9, -1528476.4, -84113.91, -0.017451122, -0.2795247, -1505563.0, 230408.7, 0.1713416, 9.998063, 10.002481 
1.9047768e+3, 1.3285737e+2, -1757943.1, -1811964.0, -82652.75, -0.13728163, -0.25607643, -1697999.3, -60033.543, 0.11689223, 9.999592, 9.998805 
1.9048087e+3, 1.4285456e+2, -1589998.0, -1674192.1, -5621.7456, -0.10656774, -0.38075152, -1589624.3, -49630.844, 0.06499328, 9.999981, 9.998922 
1.9048427e+3, 1.52855e+2, -1401396.4, -1405123.5, -14163.069, 0.0203204, -0.359137, -1388974.9, 53013.363, 0.026617203, 10.000084, 10.000041 
1.9048749e+3, 1.6285558e+2, -1406024.6, -1520482.1, -14830.631, -0.012179493, -0.22932059, -1404134.1, -60151.05, 0.0066676727, 10.00007, 9.998585 
1.9049057e+3, 1.7285419e+2, -1226923.1, -1382677.8, -17795.137, -0.15156649, -0.2514666, -1224915.9, 21084.586, 0.0006122247, 10.000657, 9.998552 
1.9049373e+3, 1.8285267e+2, -1068365.8, -1202425.1, -25519.504, -0.19049072, -0.2606441, -1063672.3, 84344.234, 0.0000017786746, 10.000839, 9.999042 
1.9049704e+3, 1.9285189e+2, -979459.25, -1062577.8, -79454.39, -0.10596165, -0.3074002, -931351.5, 118668.76, 0.0, 10.000594, 9.999438 
1.905003e+3, 2.0285083e+2, -978012.1, -1086459.1, -54711.098, -0.05932967, -0.31360257, -955206.5, -3178.098, 0.0, 10.000227, 9.998789 
1.9050357e+3, 2.1284921e+2, -909465.25, -991811.3, -30730.125, -0.10069049, -0.38832074, -899261.7, -45215.324, 0.0, 9.999996, 9.998867 
1.9050683e+3, 2.2284839e+2, -797349.6, -815970.44, 6422.3936, -0.14128809, -0.36901045, -795349.4, -39293.406, 0.0, 9.999752, 9.999537 
1.9051008e+3, 2.328495e+2, -693920.25, -665912.3, 6791.7803, -0.20787053, -0.2811391, -664352.25, -6307.776, 0.0, 9.99959, 9.99996 
1.9051343e+3, 2.4284971e+2, -642082.0, -688092.4, 22255.996, -0.17134164, -0.2069923, -633078.3, -73036.055, 0.0, 9.999711, 9.99907 
1.9051698e+3, 2.528476e+2, -395409.25, -515536.63, -1799.431, 0.06585359, -0.35592648, -395382.3, 66681.45, 0.0, 10.000734, 9.999076 
1.9052039e+3, 2.6284605e+2, -220436.0, -338074.03, 11542.576, 0.15652941, -0.41991463, -219314.16, 144765.03, 0.000000016068412, 10.001041, 9.9995 
1.9052348e+3, 2.7284634e+2, -262795.63, -261735.11, -33437.87, -0.10252903, -0.40524036, -228823.3, 37251.293, 0.000006020835, 9.999882, 9.999903 
1.9052674e+3, 2.8284654e+2, -274704.06, -284686.28, -36995.324, -0.16436026, -0.33636618, -242364.69, -74294.01, 0.00007835106, 9.999407, 9.999314 
1.9053039e+3, 2.92846e+2, 23055.066, -79388.766, -38912.54, 0.15857096, -0.3690733, 36159.43, 106232.89, 0.00035541714, 10.000753, 9.999383 
1.9053344e+3, 3.0284604e+2, 215205.95, 49125.355, 23862.533, -0.17440729, -0.30072236, 218566.53, 218566.53, 0.0009236993, 10.001685, 9.999512 
1.9053707e+3, 3.1284416e+2, 136293.08, -83061.58, -129914.66, 0.015837796, -0.48098755, 196636.14, 196636.14, 0.0017174939, 10.001498, 9.998686 
1.9147456e+3, 1.228223e+2, -1943182.0, -1750081.1, -25536.465, -0.09652627, -0.29842165, -1746761.1, -10448.829, 0.18042894, 9.998046, 10.00065 
1.9147749e+3, 1.3282153e+2, -1671413.6, -1637577.6, -46219.72, -0.32746646, -0.5017214, -1605276.9, 33041.695, 0.12358676, 9.999615, 10.000009 
1.9148111e+3, 1.4282383e+2, -1572563.0, -1674320.4, -16491.36, 0.083906464, -0.17158423, -1569957.0, -29661.846, 0.069141634, 10.0001335, 9.998851 
1.9148423e+3, 1.5282173e+2, -1408364.3, -1419824.4, -4432.176, -0.06490932, -0.39421734, -1406850.1, 35463.13, 0.028615344, 10.000087, 9.999936 
1.9148731e+3, 1.6282077e+2, -1382217.4, -1489856.0, -14500.558, -0.2250609, -0.42076913, -1380298.1, -35976.52, 0.0073205116, 10.000151, 9.998753 
1.9149067e+3, 1.728208e+2, -1213338.9, -1347847.1, 12731.773, -0.15372075, -0.32623833, -1212144.4, 34179.063, 0.00070924795, 10.000632, 9.998798 
1.9149393e+3, 1.8281992e+2, -1121479.0, -1323960.9, -46005.348, -0.119064346, -0.2537919, -1111516.4, 36817.387, 0.0000023137907, 10.000876, 9.998196 
1.91497e+3, 1.9281776e+2, -1071004.1, -1232436.3, -80286.836, -0.21674155, -0.32500532, -1037873.56, 12482.3125, 0.0, 10.000502, 9.99832 
1.9150019e+3, 2.0281619e+2, -970743.9, -1042336.06, -78100.06, -0.2344148, -0.33027813, -920627.3, 31744.395, 0.0, 10.000093, 9.999156 
1.9150367e+3, 2.128161e+2, -878684.44, -887107.6, -30309.63, -0.004437508, -0.3317429, -852295.2, 2077.1025, 0.0, 9.999813, 9.999672 
1.9150706e+3, 2.2281593e+2, -809046.25, -781103.7, -10554.934, 0.09409616, -0.30973065, -777564.9, -21192.086, 0.0, 9.999494, 9.999905 
1.9151016e+3, 2.3281565e+2, -712639.1, -647981.4, 14045.423, -0.09867826, -0.38369954, -645062.1, 13310.686, 0.0, 9.999355, 10.0001955 
1.915134e+3, 2.4281535e+2, -690150.0, -727951.6, 38174.77, -0.19073075, -0.36805183, -666453.25, -106077.98, 0.0, 9.999449, 9.998924 
1.9151698e+3, 2.5281528e+2, -446817.38, -563187.75, 51789.58, -0.025783105, -0.29418948, -427107.25, 35272.65, 0.0, 10.000486, 9.998865 
1.915204e+3, 2.62815e+2, -304644.4, -450249.88, -33019.145, 0.024285784, -0.19177353, -297506.53, 66878.625, 0.000000038925435, 10.000763, 9.998869 
1.9152342e+3, 2.7281412e+2, -349825.72, -389024.8, -63673.633, -0.17462115, -0.22436503, -302803.4, -36409.715, 0.0000054500297, 9.999659, 9.999133 
1.9152668e+3, 2.8281268e+2, -298071.7, -280882.63, -23351.65, -0.197413, -0.2762305, -264594.13, -96187.86, 0.00006657065, 9.999183, 9.999449 
1.9153045e+3, 2.9281077e+2, -4236.074, -48199.42, 34980.78, 0.12862362, -0.4872361, 15096.283, 85517.19, 0.0003045757, 10.000387, 9.999771 
1.9153367e+3, 3.0281186e+2, 111697.79, -75701.78, 6419.8237, -0.16408066, -0.30603245, 111917.46, 111917.46, 0.0008128508, 10.0012865, 9.99884 
1.9153705e+3, 3.1281188e+2, -7131.593, -191897.23, -38510.645, -0.1860328, -0.23472093, 573.82336, 573.82336, 0.001554527, 10.000736, 9.998273 
1.9247454e+3, 1.22790284e+2, -1774487.6, -1742967.8, 72580.016, 0.048035875, -0.18903999, -1684456.3, 52171.53, 0.18987963, 9.99951, 10.000065 
1.9247743e+3, 1.3278791e+2, -1619552.1, -1602610.3, -15772.929, -0.34217662, -0.5563012, -1593177.5, 45472.39, 0.13060497, 9.999907, 10.000137 
1.9248122e+3, 1.4279142e+2, -1605174.9, -1700574.0, -8329.487, 0.19522849, -0.1104588, -1604453.1, -63838.68, 0.07352615, 9.999978, 9.9987335 
1.9248424e+3, 1.5278883e+2, -1369273.5, -1422956.0, -36435.934, -0.06084527, -0.36209673, -1350859.6, 91777.56, 0.030745408, 10.000482, 9.999714 
1.9248733e+3, 1.6278696e+2, -1302953.1, -1443465.6, -31686.818, -0.24794155, -0.4697703, -1296138.0, 48515.887, 0.008026891, 10.000673, 9.998811 
1.9249073e+3, 1.727871e+2, -1214048.4, -1335246.4, -40272.83, -0.14637932, -0.376668, -1201886.5, 44766.28, 0.0008187495, 10.000571, 9.998917 
1.9249402e+3, 1.8278648e+2, -1219511.9, -1387321.1, -65386.47, -0.070757985, -0.280482, -1197042.8, -48382.754, 0.0000031359323, 10.000243, 9.998074 
1.9249706e+3, 1.9278434e+2, -1138645.4, -1283591.0, -56096.914, -0.16592784, -0.33723563, -1119471.1, -68787.47, 0.0, 10.000083, 9.998173 
1.9250022e+3, 2.0278285e+2, -1013354.4, -1065887.5, 3386.5803, -0.1743047, -0.32848498, -1013137.0, -60437.04, 0.0, 9.99981, 9.999135 
1.9250366e+3, 2.1278301e+2, -897825.25, -895290.3, -29046.693, 0.0214885, -0.30433655, -867483.44, -12785.579, 0.0, 9.99968, 9.999681 
1.9250703e+3, 2.227829e+2, -792224.75, -791108.44, -24422.924, 0.12721717, -0.26923376, -767237.3, -10539.739, 0.0, 9.999718, 9.999716 
1.9251022e+3, 2.327821e+2, -583334.56, -609832.4, -60862.684, -0.016046658, -0.37069932, -534295.44, 124407.55, 0.0, 10.000363, 9.999967 
1.925135e+3, 2.4278148e+2, -508183.56, -627929.44, -26423.277, -0.09133109, -0.37782574, -502612.2, 58095.92, 0.0, 10.000615, 9.999062 
1.92517e+3, 2.5278172e+2, -489882.22, -564552.1, -6395.4155, -0.025131362, -0.28943157, -489338.4, -26630.256, 0.0, 10.000073, 9.999077 
1.925204e+3, 2.6278165e+2, -429108.88, -517689.6, -33714.16, 0.0061597843, -0.1788126, -417737.03, -53026.14, 0.000000047147957, 9.999952, 9.998791 
1.9252352e+3, 2.7278048e+2, -167681.7, -319822.2, -59979.164, -0.08685191, -0.22117732, -146879.95, 119843.0, 0.0000044268, 10.000994, 9.998967 
1.9252683e+3, 2.8277892e+2, -12676.903, -166213.11, 24576.592, -0.064744, -0.26713377, -8838.862, 159898.89, 0.000054025306, 10.001259, 9.999221 
1.9253047e+3, 2.927772e+2, -73984.3, -121068.79, -3051.2595, 0.14644742, -0.42649862, -73787.39, -3035.5664, 0.0002523606, 10.000055, 9.999431 
1.9253372e+3, 3.0277705e+2, -131097.98, -177999.55, 23107.057, -0.12478541, -0.35375684, -121626.51, -121626.51, 0.0006949365, 9.999557, 9.998964 
1.9253716e+3, 3.1277847e+2, 73068.64, -56074.145, 5365.873, -0.13100469, -0.16128029, 73291.21, 73291.21, 0.0013690214, 10.00079, 9.999209 
1.9347459e+3, 1.22759126e+2, -1683267.0, -1593590.8, -154738.58, 0.04603199, -0.14052258, -1477325.0, 259610.56, 0.1997211, 9.999696, 10.001238 
1.9347747e+3, 1.3275655e+2, -1699338.5, -1760695.8, -4048.0503, -0.3333501, -0.42043412, -1699072.6, -60113.41, 0.13795441, 9.999874, 9.999033 
1.9348109e+3, 1.427576e+2, -1604455.1, -1718618.4, -10898.097, 0.023037584, -0.16636312, -1603424.1, -62475.43, 0.07814733, 10.0000515, 9.998578 
1.9348429e+3, 1.5275636e+2, -1387927.0, -1473758.4, -8276.35, -0.08630048, -0.25017062, -1387136.3, 55823.19, 0.033007, 10.00052, 9.999351 
1.9348745e+3, 1.6275406e+2, -1288752.9, -1435699.8, -46180.45, -0.22588012, -0.37785423, -1275445.0, 69535.5, 0.008786739, 10.000764, 9.998826 
1.9349071e+3, 1.72753e+2, -1210588.6, -1330035.4, -36619.082, -0.23848857, -0.40467286, -1200256.0, 46733.156, 0.00094156526, 10.000574, 9.998958 
1.9349396e+3, 1.8275236e+2, -1163175.8, -1280222.3, -85921.516, -0.20305654, -0.34530184, -1117740.0, 31255.064, 0.0000044945964, 10.000283, 9.998789 
1.934972e+3, 1.9275177e+2, -1091604.5, -1169634.0, -51130.016, -0.07255823, -0.33179787, -1066304.1, -15301.756, 0.0, 10.000003, 9.998999 
1.9350038e+3, 2.0275095e+2, -1062254.3, -1136847.1, -16550.674, -0.02388981, -0.2906229, -1058747.0, -105734.96, 0.0, 9.999676, 9.998714 
1.935035e+3, 2.1274997e+2, -987535.0, -1031191.44, -23562.918, -0.1274569, -0.29978517, -977243.44, -122220.71, 0.0, 9.999464, 9.998854 
1.9350673e+3, 2.2274911e+2, -889650.75, -923474.0, -18957.723, -0.17853789, -0.2602322, -881157.7, -124125.65, 0.0, 9.999422, 9.998947 
1.9351019e+3, 2.3274869e+2, -669307.4, -735104.7, -21156.709, -0.08845766, -0.24828526, -663091.75, -4055.7324, 0.0, 10.000135, 9.999214 
1.9351363e+3, 2.4274807e+2, -521458.78, -593263.44, -50741.46, -0.03399516, -0.22362536, -495202.7, 65838.34, 0.0, 10.000343, 9.999434 
1.93517e+3, 2.52747e+2, -474068.34, -480612.56, -14754.145, -0.048457682, -0.3322018, -462227.8, 820.568, 0.0, 9.999859, 9.999758 
1.9352037e+3, 2.6274595e+2, -447777.88, -486953.53, -22323.598, -0.038540468, -0.37293833, -437666.78, -72609.9, 0.00000001782158, 9.999667, 9.999134 
1.9352375e+3, 2.7274546e+2, -194753.14, -295970.63, -5438.3486, 0.025753256, -0.377988, -194461.77, 72600.93, 0.0000033385966, 10.000678, 9.999269 
1.9352712e+3, 2.8274542e+2, -100678.63, -288076.75, -26348.37, 0.06361809, -0.26295137, -97044.5, 72019.54, 0.00004416703, 10.00098, 9.998528 
1.935304e+3, 2.927453e+2, -175828.61, -266428.75, -31436.424, 0.04176864, -0.1787895, -165989.36, -94922.16, 0.00021030588, 9.999781, 9.998562 
1.935336e+3, 3.0274186e+2, -142628.97, -127280.06, 29920.393, -0.23872122, -0.39654288, -104065.57, -104065.57, 0.0005915153, 9.999237, 9.999467 
1.9353716e+3, 3.127422e+2, 97171.695, 183730.69, 118317.59, -0.25107864, -0.4155255, 266436.0, 266436.0, 0.0011871255, 10.000043, 10.001185 
1.9447458e+3, 1.22725815e+2, -1639208.8, -1490395.5, -119778.95, 0.10570422, -0.2956789, -1423793.9, 313470.5, 0.20999403, 9.999546, 10.002191 
1.9447756e+3, 1.3272561e+2, -1757838.8, -1888638.1, 8226.692, -0.19838381, -0.24830721, -1757323.4, -118059.3, 0.14565058, 9.999871, 9.998176 
1.94481e+3, 1.4272377e+2, -1507463.8, -1690539.4, 37677.02, -0.10376029, -0.2413335, -1500013.0, 41269.367, 0.083007626, 10.00081, 9.998422 
1.9448435e+3, 1.5272342e+2, -1404309.0, -1524574.8, -6851.0107, -0.06398486, -0.2015145, -1403919.9, 39365.91, 0.03539992, 10.000576, 9.9989805 
1.944876e+3, 1.6272153e+2, -1381163.5, -1449055.9, -15767.393, -0.11232824, -0.27895713, -1377680.4, -32376.94, 0.009600047, 9.999983, 9.999115 
1.9449075e+3, 1.7272033e+2, -1258781.8, -1300701.8, 1500.5011, -0.21582797, -0.36707038, -1258728.1, -11416.178, 0.0010784023, 10.000013, 9.999428 
1.9449395e+3, 1.8271974e+2, -1174223.4, -1251709.5, -13705.814, -0.21432683, -0.3409692, -1171870.5, -22555.078, 0.0000066792873, 10.000092, 9.999068 
1.9449723e+3, 1.9271956e+2, -989010.44, -1091695.9, -50544.227, -0.055580225, -0.30871704, -968306.0, 83012.45, 0.0, 10.000632, 9.999214 
1.9450043e+3, 2.0271888e+2, -901891.1, -1078960.4, -23864.787, 0.008825043, -0.2559219, -898731.06, 54594.945, 0.0, 10.0008745, 9.998531 
1.9450347e+3, 2.1271743e+2, -818939.6, -981109.4, -21155.441, -0.1592708, -0.28364706, -816225.25, 39116.02, 0.0, 10.000768, 9.998566 
1.9450666e+3, 2.2271608e+2, -761706.4, -907642.0, 50192.242, -0.22522648, -0.2596496, -746110.3, 11244.927, 0.0, 10.000479, 9.9985485 
1.945102e+3, 2.3271514e+2, -730020.94, -813484.44, 50964.273, -0.06320842, -0.25585952, -705882.4, -46517.887, 0.0, 9.999914, 9.998791 
1.9451371e+3, 2.4271417e+2, -632816.06, -659427.1, 51701.363, 0.048743002, -0.23750536, -592735.56, -31362.33, 0.0, 9.999665, 9.999296 
1.9451705e+3, 2.527128e+2, -393662.63, -455120.25, 3530.9924, 0.0020544126, -0.36760244, -393460.4, 69923.01, 0.0, 10.000473, 9.999631 
1.9452041e+3, 2.6271138e+2, -266652.53, -390489.3, -19548.838, -0.007058344, -0.43829864, -263639.84, 101755.18, 0.000000002142629, 10.000843, 9.999241 
1.945238e+3, 2.7271104e+2, -253795.4, -313507.03, -40137.24, 0.044575147, -0.44178352, -233627.55, 33771.77, 0.0000030022966, 10.000177, 9.999414 
1.9452715e+3, 2.8271145e+2, -283538.28, -392900.16, -30875.148, 0.07736638, -0.2832813, -275423.66, -106026.984, 0.00003904193, 9.999798, 9.998384 
1.9453038e+3, 2.9271224e+2, -88523.59, -243937.8, -33802.707, 0.0323861, -0.08143125, -81489.82, -10097.875, 0.00018459432, 10.00045, 9.998406 
1.9453366e+3, 3.0270758e+2, 39041.176, -112726.27, 79735.805, -0.14829221, -0.3870954, 73230.78, 73230.78, 0.00051477127, 10.000819, 9.9987955 
1.9453727e+3, 3.1270707e+2, 129801.97, 133327.77, -28129.025, -0.1446968, -0.3934266, 159749.08, 159749.08, 0.0010271264, 10.000501, 10.000643 
1.954745e+3, 1.22694224e+2, -1578507.5, -1418759.6, 67103.27, -0.0180283, -0.2744542, -1394313.4, 343263.2, 0.22070916, 9.9997635, 10.002783 
1.9547772e+3, 1.3269532e+2, -1769826.8, -1944910.5, 63876.14, -0.061629534, -0.03128564, -1749000.1, -109437.766, 0.15369554, 9.999983, 9.9977455 
1.9548088e+3, 1.4268999e+2, -1497971.3, -1707540.5, 39716.61, -0.33933258, -0.35256994, -1490696.8, 50918.34, 0.08810495, 10.000979, 9.998221 
1.9548438e+3, 1.5268998e+2, -1433022.5, -1593660.3, -10104.072, -0.12232283, -0.23339875, -1432389.5, 11227.487, 0.037922986, 10.000602, 9.998498 
1.9548768e+3, 1.6268939e+2, -1326184.3, -1355546.5, -38885.008, -0.07396367, -0.17286716, -1299301.3, 46321.043, 0.010466628, 10.000071, 9.999718 
1.9549079e+3, 1.726891e+2, -1193822.9, -1173217.3, 13943.819, -0.18972242, -0.256126, -1166182.9, 81437.16, 0.0012294218, 10.000033, 10.000298 
1.9549395e+3, 1.8268868e+2, -1179533.3, -1272681.9, -8327.763, -0.2519945, -0.26110482, -1178794.6, -29173.69, 0.000009908067, 10.000141, 9.998897 
1.9549713e+3, 1.9268765e+2, -1037908.3, -1172521.1, -20786.914, -0.23157394, -0.2639224, -1034771.44, 16860.893, 0.0, 10.000547, 9.998701 
1.955003e+3, 2.0268644e+2, -924010.0, -1088473.8, -38027.68, -0.22151476, -0.23423922, -915642.8, 38001.848, 0.0, 10.000713, 9.998544 
1.9550352e+3, 2.1268524e+2, -831693.06, -963485.6, -14876.37, -0.2020283, -0.25642607, -830034.7, 25620.123, 0.0, 10.000581, 9.998774 
1.9550678e+3, 2.2268368e+2, -798070.8, -927874.56, 22146.488, -0.16284873, -0.26751006, -794396.3, -36727.832, 0.0, 10.000231, 9.998534 
1.9551022e+3, 2.3268147e+2, -766575.44, -839696.94, 40921.586, -0.06002762, -0.38579842, -748261.2, -88572.17, 0.0, 9.999707, 9.998708 
1.9551365e+3, 2.4267972e+2, -727562.8, -789432.9, 58368.46, 0.00049176766, -0.41043225, -692438.4, -130732.64, 0.0, 9.99938, 9.998538 
1.9551711e+3, 2.5267893e+2, -493712.84, -603596.0, 50378.51, -0.0023532377, -0.39169332, -474112.0, -10397.629, 0.0, 10.000232, 9.998716 
1.9552049e+3, 2.6267806e+2, -314620.34, -432308.28, -46566.29, -0.044863794, -0.34942076, -298424.13, 67299.68, 0.00000003752054, 10.000582, 9.999087 
1.9552365e+3, 2.726773e+2, -278923.47, -317087.6, -51365.176, -0.14518909, -0.40116605, -243210.4, 24521.457, 0.0000033251551, 9.99997, 9.999489 
1.955269e+3, 2.8267726e+2, -315911.44, -390152.4, -36137.844, -0.17211004, -0.29879093, -301225.78, -131492.69, 0.000036409245, 9.999499, 9.998545 
1.955304e+3, 2.9267845e+2, -108928.914, -208536.05, 15239.812, -0.027277626, -0.08646891, -106649.4, -34926.44, 0.00016708692, 10.000131, 9.998795 
1.9553387e+3, 3.026744e+2, -143328.92, -412976.38, 52797.016, -0.06442768, -0.28419992, -133359.83, -133359.83, 0.00045041088, 10.000456, 9.996923 
1.9553754e+3, 3.1267262e+2, -135637.2, -274269.4, -13234.507, 0.030431692, -0.17853938, -134385.08, -134385.08, 0.0008724593, 9.999923, 9.998103 
1.9647439e+3, 1.2266121e+2, -1781501.4, -1447660.8, 82215.09, 0.0120596, -0.19999342, -1428512.0, 309389.06, 0.23177752, 9.997822, 10.003451 
1.964776e+3, 1.3266231e+2, -1926995.0, -2034021.9, -6297.2, -0.102846324, 0.05654933, -1926625.8, -286738.2, 0.1620495, 9.999059, 9.997529 
1.9648106e+3, 1.426556e+2, -1660238.5, -1734736.0, -24859.092, -0.17412019, -0.40202057, -1652705.1, -110750.69, 0.093428105, 9.9996395, 9.998653 
1.964844e+3, 1.526568e+2, -1464680.4, -1516915.6, -29744.596, -0.116083704, -0.23669896, -1451214.3, -7271.365, 0.04057487, 10.000012, 9.999282 
1.9648762e+3, 1.6265717e+2, -1326333.4, -1352798.1, 6604.365, -0.11365954, -0.13472834, -1324776.8, 21161.543, 0.011385711, 10.000051, 9.99975 
1.9649082e+3, 1.7265667e+2, -1246108.4, -1216024.0, -40438.453, -0.14165463, -0.22352578, -1187920.8, 60018.42, 0.0013940044, 9.999753, 10.00014 
1.9649401e+3, 1.8265602e+2, -1260122.8, -1314786.8, -62647.887, -0.15790573, -0.24182633, -1219104.3, -69161.55, 0.000014255441, 9.99959, 9.998879 
1.9649719e+3, 1.9265476e+2, -1074864.8, -1189315.6, -54762.875, -0.21981475, -0.2701607, -1052883.4, -928.2449, 0.0, 10.000277, 9.99872 
1.9650036e+3, 2.0265332e+2, -928917.56, -1099152.4, -47389.867, -0.23654433, -0.26277146, -916614.4, 37354.26, 0.0, 10.000704, 9.998475 
1.9650361e+3, 2.126518e+2, -842116.56, -983259.2, -75960.13, -0.14628457, -0.30555466, -809004.44, 46976.93, 0.0, 10.000546, 9.998661 
1.9650692e+3, 2.2265019e+2, -765001.9, -914482.1, -28573.078, -0.057155874, -0.3139918, -759726.3, -1730.7147, 0.0, 10.000477, 9.998509 
1.9651026e+3, 2.326483e+2, -580809.56, -756648.75, -35478.34, -0.039145928, -0.39260092, -573921.06, 86092.66, 0.0, 10.001, 9.998661 
1.9651365e+3, 2.4264666e+2, -477290.1, -685274.56, 24542.566, -0.013318669, -0.39616078, -474433.25, 87596.82, 0.0, 10.00112, 9.998443 
1.9651711e+3, 2.52646e+2, -523834.75, -634608.94, 46810.23, 0.005452246, -0.35233545, -506703.38, -42665.01, 0.0, 10.000064, 9.99861 
1.9652049e+3, 2.6264533e+2, -472392.3, -517687.3, 26246.363, -0.021792438, -0.27925682, -460373.1, -94326.625, 0.00000006167767, 9.999566, 9.998981 
1.9652364e+3, 2.7264443e+2, -201754.03, -298864.5, -31082.027, -0.17647536, -0.32650396, -192657.7, 75398.22, 0.000003603985, 10.0006, 9.999302 
1.9652689e+3, 2.8264362e+2, -58717.324, -257202.88, 2754.8171, -0.20207576, -0.29314166, -58679.094, 111385.33, 0.00003430298, 10.001234, 9.99862 
1.9653049e+3, 2.9264355e+2, 18482.227, -143622.28, 3986.096, 0.027693959, -0.20608659, 18580.186, 90645.29, 0.00015136057, 10.000984, 9.998842 
1.96534e+3, 3.0264094e+2, -101683.92, -342932.6, 89796.09, 0.033398382, -0.2796077, -71930.17, -71930.17, 0.00039140965, 10.000525, 9.997377 
1.9653748e+3, 3.1263962e+2, -187264.94, -218872.6, 78082.7, 0.031241693, -0.1709045, -123402.77, -123402.77, 0.00072698283, 9.999196, 9.998856 
1.9747423e+3, 1.2262589e+2, -1730380.8, -1413113.6, 505.87643, -0.017233104, -0.2056211, -1413112.8, 325133.4, 0.24301729, 9.998026, 10.003704 
1.9747719e+3, 1.3262652e+2, -1939297.8, -2075308.8, 45461.676, -0.4618732, -0.002994175, -1925501.6, -285261.22, 0.17062773, 9.999106, 9.9972315 
1.9748148e+3, 1.426205e+2, -1563670.0, -1563247.0, -27034.107, 0.23368469, -0.39931348, -1536423.5, 5877.6006, 0.09895461, 9.99975, 9.999786 
1.9748439e+3, 1.5262389e+2, -1319477.3, -1223149.4, -8209.502, -0.16231427, -0.21204397, -1222454.6, 221809.19, 0.04335473, 10.000046, 10.001356 
1.974874e+3, 1.6262476e+2, -1342971.3, -1408806.6, -13227.106, -0.37930563, -0.16837166, -1340413.1, 5839.171, 0.012356995, 10.000151, 9.999315 
1.9749078e+3, 1.7262293e+2, -1332324.5, -1392010.0, -43661.81, -0.1824631, -0.27392578, -1309281.1, -61011.074, 0.0015709848, 9.999747, 9.998934 
1.974941e+3, 1.826216e+2, -1246403.1, -1294425.9, -60949.24, -0.06910572, -0.28977627, -1204906.1, -54623.625, 0.000019593592, 9.999619, 9.999008 
1.974973e+3, 1.9262074e+2, -1045108.7, -1108391.9, -17331.66, -0.15087102, -0.3288621, -1040672.94, 11614.806, 0.0, 10.000196, 9.999311 
1.975005e+3, 2.026194e+2, -966410.7, -1139499.5, -56022.336, -0.18945506, -0.3424306, -949860.8, 4437.941, 0.0, 10.000544, 9.998276 
1.9750372e+3, 2.1261726e+2, -900621.94, -1058388.4, -71930.64, -0.102720015, -0.40845942, -872750.44, -16431.15, 0.0, 10.000345, 9.998242 
1.9750698e+3, 2.2261575e+2, -818292.8, -963447.56, -28694.426, -0.060163904, -0.3740295, -812826.3, -54491.613, 0.0, 10.000202, 9.998308 
1.975103e+3, 2.3261558e+2, -613251.75, -784559.2, 2055.0713, -0.10617805, -0.27401108, -613227.1, 47111.93, 0.0, 10.00082, 9.998559 
1.9751365e+3, 2.4261503e+2, -481629.38, -635415.9, -14317.768, -0.13114373, -0.18189019, -480307.72, 82038.17, 0.0, 10.000862, 9.998912 
1.9751704e+3, 2.5261402e+2, -500649.38, -547783.6, 17963.303, -0.086706534, -0.23796214, -494583.94, -30228.758, 0.0, 9.999893, 9.9992895 
1.975204e+3, 2.6261306e+2, -531182.8, -577467.7, 33113.227, -0.0943324, -0.22263461, -513926.5, -147562.44, 0.000000055759365, 9.999297, 9.998698 
1.975237e+3, 2.7261236e+2, -273266.97, -386438.03, 27203.676, -0.1855025, -0.20939203, -267067.47, 1304.5157, 0.0000036492006, 10.000344, 9.998814 
1.9752707e+3, 2.8261065e+2, -115271.43, -311942.72, -15209.109, -0.17822234, -0.22975865, -114102.22, 56286.78, 0.00003270768, 10.00095, 9.99839 
1.9753063e+3, 2.9260755e+2, -26129.4, -185540.31, 20397.379, 0.037613902, -0.43428633, -23560.846, 48857.58, 0.00013942833, 10.000759, 9.998665 
1.9753398e+3, 3.026071e+2, -35108.96, -96117.15, 29532.934, -0.060456954, -0.34707084, -23154.914, -23154.914, 0.00034788318, 10.000082, 9.999279 
1.9753729e+3, 3.1260806e+2, -6589.237, 301493.25, 45891.883, -0.119710945, -0.2961243, 308183.97, 308183.97, 0.0006199965, 9.998617, 10.002688 
1.9847421e+3, 1.2259021e+2, -1581550.0, -1438236.9, 15524.325, 0.07876609, -0.3061062, -1436574.5, 302019.84, 0.25424254, 9.999897, 10.002649 
1.9847715e+3, 1.3259114e+2, -1667249.8, -1883237.6, 113536.055, -0.46980852, -0.114993244, -1618549.4, 22037.592, 0.17932345, 10.000716, 9.9978 
1.984816e+3, 1.4258763e+2, -1579009.1, -1537175.5, 68308.44, 0.39895794, -0.3024567, -1486653.1, 55970.05, 0.104643695, 9.999499, 10.000122 
1.9848436e+3, 1.5259047e+2, -1456803.9, -1243770.0, -43192.375, -0.12047402, -0.21275146, -1235345.9, 209244.75, 0.046255346, 9.998855, 10.001799 
1.9848731e+3, 1.6259111e+2, -1522653.5, -1476629.5, -62825.723, -0.4084387, -0.22648022, -1432734.0, -86152.94, 0.013380272, 9.99885, 9.999467 
1.9849078e+3, 1.7258984e+2, -1218671.5, -1326814.5, -17891.969, -0.1754579, -0.28617194, -1215788.3, 32805.57, 0.0017591557, 10.000494, 9.999016 
1.984942e+3, 1.825888e+2, -1016297.94, -1208694.8, 19061.414, -0.017886538, -0.26855665, -1014427.6, 136176.16, 0.0000256483, 10.001288, 9.998794 
1.9849737e+3, 1.9258751e+2, -1037019.06, -1141243.6, -29507.762, -0.09269958, -0.3268764, -1029244.8, 23369.803, 0.0, 10.000373, 9.999011 
1.9850057e+3, 2.0258589e+2, -1051384.4, -1166539.6, -55923.523, -0.11760575, -0.3531817, -1028696.06, -74067.25, 0.0, 9.999902, 9.998402 
1.9850384e+3, 2.1258411e+2, -771396.2, -970181.7, -46862.113, -0.053789, -0.40538916, -760902.75, 95742.484, 0.0, 10.001127, 9.99847 
1.9850709e+3, 2.2258274e+2, -591368.06, -865015.7, 32922.37, -0.031204138, -0.3658499, -587462.94, 171195.8, 0.0, 10.0018, 9.998215 
1.9851036e+3, 2.3258242e+2, -608132.44, -805358.2, 26560.258, -0.1243884, -0.2617668, -604618.2, 56046.918, 0.0, 10.000951, 9.99835 
1.9851367e+3, 2.425819e+2, -563245.1, -652865.06, 11232.868, -0.15760909, -0.159893, -561858.7, 813.0068, 0.0, 10.000258, 9.999053 
1.9851704e+3, 2.5258097e+2, -415167.53, -483165.56, -20192.191, -0.095959954, -0.22786444, -409623.44, 55055.43, 0.0, 10.000405, 9.999471 
1.9852042e+3, 2.625798e+2, -367680.38, -520474.53, 28618.137, -0.05971093, -0.23812532, -362496.13, 4192.932, 0.00000004684117, 10.000525, 9.998487 
1.9852383e+3, 2.725784e+2, -263416.5, -424738.16, 7227.6787, -0.090766355, -0.25278467, -263093.34, 5610.8345, 0.000003631824, 10.000611, 9.998414 
1.9852725e+3, 2.8257668e+2, -139908.03, -300567.25, -12057.991, -0.0612631, -0.2544873, -139008.08, 31713.404, 0.000030883682, 10.000698, 9.998575 
1.9853066e+3, 2.9257452e+2, -37726.39, -158847.2, -314.74374, 0.023950169, -0.39447382, -37725.574, 35015.957, 0.00012822116, 10.000572, 9.998918 
1.9853391e+3, 3.0257404e+2, 42062.26, -52416.508, 16670.297, -0.14353381, -0.32962915, 44917.37, 44917.37, 0.0003141248, 10.00054, 9.999361 
1.9853742e+3, 3.12574e+2, 320654.88, 423207.5, -230403.6, 0.060228538, -0.37158197, 607971.56, 607971.56, 0.0005496592, 10.000942, 10.002421 
1.99474e+3, 1.22556224e+2, -1696186.4, -1709815.6, -32147.959, -0.18434891, -0.27350602, -1670138.8, 68786.5, 0.26535824, 10.000112, 10.000039 
1.9947748e+3, 1.3255613e+2, -1553341.9, -1646179.3, 79360.99, -0.2413101, -0.28428066, -1507821.1, 133106.39, 0.18805622, 10.00084, 9.999414 
1.9948135e+3, 1.4255702e+2, -1587981.5, -1588221.0, 16750.797, 0.15278706, -0.1229753, -1571350.0, -28429.842, 0.11045076, 9.999634, 9.9996805 
1.9948429e+3, 1.5255648e+2, -1544397.0, -1416485.5, -57549.875, -0.10611118, -0.24958271, -1394404.5, 50519.527, 0.04926506, 9.998857, 10.000559 
1.9948731e+3, 1.6255608e+2, -1459721.5, -1361946.4, -30784.744, -0.33096808, -0.31753, -1353061.1, -6135.108, 0.014456319, 9.998915, 10.000223 
1.9949082e+3, 1.7255731e+2, -1118104.3, -1117295.5, 53592.15, -0.22957754, -0.26295647, -1064106.3, 184804.88, 0.0019582892, 10.000494, 10.000453 
1.9949423e+3, 1.8255754e+2, -1048355.6, -1283458.6, -5906.797, -0.14257707, -0.1873633, -1048207.3, 102700.54, 0.000032105352, 10.001329, 9.9982605 
1.9949737e+3, 1.9255504e+2, -1130196.3, -1312059.1, -57637.41, -0.14988734, -0.2579628, -1113468.1, -60532.203, 0.0, 10.000288, 9.997875 
1.9950056e+3, 2.0255293e+2, -1050295.0, -1129376.3, -45197.51, -0.15489009, -0.27523226, -1029783.3, -74825.52, 0.0, 9.999746, 9.998731 
1.9950391e+3, 2.125522e+2, -740210.6, -864405.4, 13017.404, -0.11302916, -0.29980808, -738860.9, 118099.59, 0.0, 10.000949, 9.999281 
1.9950722e+3, 2.2255102e+2, -630972.2, -888892.94, 9143.633, -0.11651075, -0.2912979, -630648.44, 128320.445, 0.0, 10.001543, 9.998176 
1.995104e+3, 2.3254892e+2, -656904.06, -863489.3, 7742.4883, -0.2072967, -0.3412783, -656614.25, 4376.935, 0.0, 10.000756, 9.998047 
1.9951363e+3, 2.4254723e+2, -628673.8, -723290.3, -5308.205, -0.24622485, -0.3269862, -628376.94, -65368.707, 0.0, 9.999971, 9.998712 
1.9951706e+3, 2.525468e+2, -463430.8, -539659.44, 1035.3772, -0.13180156, -0.3150962, -463416.75, 1593.4014, 0.0, 10.000214, 9.999175 
1.995205e+3, 2.6254544e+2, -431734.1, -589711.25, 17673.748, -0.055816654, -0.31389692, -429780.97, -62758.813, 0.000000042002604, 10.000259, 9.998138 
1.9952397e+3, 2.7254257e+2, -323700.94, -491449.63, 26247.555, -0.025997488, -0.44340673, -319689.9, -50637.28, 0.0000035134383, 10.000376, 9.998062 
1.9952738e+3, 2.8254148e+2, -166327.78, -288981.6, -29795.594, -0.03179533, -0.36950573, -159472.83, 11591.914, 0.00002820436, 10.000405, 9.998799 
1.9953056e+3, 2.9254377e+2, -42316.473, -104618.3, 9474.98, -0.16531461, -0.119856335, -40907.37, 32133.9, 0.00011358975, 10.00029, 9.999427 
1.9953373e+3, 3.025415e+2, -146493.77, -321128.34, 2058.3955, -0.40322524, -0.21607044, -146469.52, -146469.52, 0.0002776181, 10.000042, 9.997743 
1.9953768e+3, 3.1253794e+2, -73747.58, -243337.16, -112917.98, 0.15388232, -0.38161042, -17331.086, -17331.086, 0.00049017585, 10.000334, 9.998106 
2.0047393e+3, 1.2252329e+2, -1679647.8, -1795366.1, 34443.65, -0.28123885, -0.16025063, -1670171.6, 69074.24, 0.27641812, 10.000748, 9.999066 
2.0047766e+3, 1.3252111e+2, -1686606.9, -1677129.6, -1918.6901, -0.067653395, -0.4077827, -1676755.9, -35486.29, 0.1968332, 9.999598, 9.999741 
2.0048101e+3, 1.4252447e+2, -1779982.8, -1685642.1, -75158.68, -0.05845867, -0.023930732, -1644077.6, -100838.84, 0.11636926, 9.998347, 9.999625 
2.0048425e+3, 1.5252289e+2, -1477715.9, -1416305.9, -76143.25, -0.05329488, -0.23192453, -1364909.8, 80343.69, 0.05238356, 9.999448, 10.000283 
2.0048743e+3, 1.6252199e+2, -1300958.9, -1281370.6, 14587.934, -0.1333562, -0.33392665, -1273594.0, 73666.625, 0.015589432, 9.99996, 10.000292 
2.0049085e+3, 1.7252351e+2, -1257648.5, -1171144.3, -11222.039, -0.17314245, -0.27089274, -1169712.1, 79530.34, 0.0021699998, 9.999435, 10.000608 
2.0049423e+3, 1.82524e+2, -1359251.9, -1401978.1, -100760.53, -0.1505282, -0.1888549, -1277614.6, -126378.11, 0.00003871999, 9.999081, 9.998523 
2.004974e+3, 1.9252223e+2, -1138666.4, -1289082.0, -84058.08, -0.12660752, -0.20948243, -1101082.4, -47824.035, 0.0, 10.000134, 9.998105 
2.0050061e+3, 2.0252055e+2, -906725.94, -1069318.6, 18221.793, -0.10910654, -0.1941705, -904708.9, 50568.31, 0.0, 10.000785, 9.998644 
2.0050398e+3, 2.1251938e+2, -805178.44, -917272.1, -10121.633, -0.10387517, -0.24231803, -804271.8, 53013.41, 0.0, 10.000599, 9.999093 
2.0050731e+3, 2.2251791e+2, -775169.9, -921902.9, -58550.785, -0.10501331, -0.26192302, -754670.3, 4626.3003, 0.0, 10.000427, 9.998474 
2.0051049e+3, 2.325159e+2, -640187.2, -801613.8, -50976.45, -0.16577797, -0.3398858, -625437.2, 35877.566, 0.0, 10.000684, 9.998491 
2.0051375e+3, 2.4251409e+2, -505661.97, -723955.75, 4242.3027, -0.16134065, -0.34516206, -505579.56, 57751.715, 0.0, 10.001038, 9.99821 
2.0051722e+3, 2.5251278e+2, -342494.4, -570057.2, -41583.01, -0.036567885, -0.3435857, -335133.9, 130209.805, 0.0, 10.001414, 9.998392 
2.0052063e+3, 2.6251096e+2, -254452.0, -515504.03, -29909.068, 0.023150526, -0.33757326, -251069.11, 116292.26, 0.000000029896977, 10.0014925, 9.998065 
2.0052397e+3, 2.7250826e+2, -223714.45, -433894.94, -16693.297, -0.069013976, -0.45613217, -222396.88, 46991.734, 0.0000031274246, 10.00097, 9.998192 
2.0052733e+3, 2.8250748e+2, -143805.53, -287572.1, -18211.992, -0.10789792, -0.36017963, -141534.36, 29862.795, 0.000025154262, 10.000595, 9.998724 
2.0053062e+3, 2.9250962e+2, -491.4574, -114413.484, -75797.28, -0.14103535, -0.09504573, 37362.004, 110738.37, 0.00009776422, 10.000707, 9.999164 
2.0053388e+3, 3.0250666e+2, 18110.082, -213303.66, -25516.71, -0.28370345, -0.25971708, 20890.268, 20890.268, 0.00024035014, 10.001042, 9.998016 
2.0053782e+3, 3.125043e+2, -1345.0331, -341420.13, 10563.072, 0.23081106, -0.30938345, -1017.24945, -1017.24945, 0.00043376363, 10.001381, 9.996959 
2.0147409e+3, 1.22489445e+2, -1621880.9, -1682051.4, 59511.086, -0.29077497, -0.17532226, -1585282.6, 154292.83, 0.28771394, 10.000894, 9.999924 
2.0147766e+3, 1.3248594e+2, -1756566.3, -1826494.5, -70763.42, -0.051842004, -0.49498227, -1712600.4, -70985.59, 0.20582092, 9.999609, 9.998717 
2.0148055e+3, 1.4248972e+2, -1747228.1, -1634680.3, -79616.52, -0.39821047, -0.012683377, -1593457.9, -49876.117, 0.12247417, 9.998412, 9.999947 
2.0148417e+3, 1.524896e+2, -1417455.5, -1297817.9, -24930.695, -0.08913778, -0.15233482, -1292830.6, 152749.38, 0.055639356, 9.999456, 10.00113 
2.0148765e+3, 1.6248901e+2, -1319321.0, -1348204.0, -5868.397, 0.034270573, -0.26149875, -1318174.3, 29409.055, 0.016791714, 10.000083, 9.999771 
2.014909e+3, 1.7248848e+2, -1336249.4, -1325459.4, -26406.404, -0.09839556, -0.30001163, -1303902.5, -54314.766, 0.0023981123, 9.999404, 9.999562 
2.0149414e+3, 1.8248829e+2, -1286152.8, -1261341.0, -94044.03, -0.17733912, -0.2596382, -1178888.1, -27298.791, 0.000045425786, 9.999118, 9.999476 
2.0149742e+3, 1.9248903e+2, -1038256.0, -1063164.3, -35750.406, -0.14273703, -0.1785434, -1012852.5, 40730.465, 0.0, 10.000058, 9.999693 
2.015007e+3, 2.0248877e+2, -962056.0, -1147622.5, 9580.897, -0.12791923, -0.106172755, -961562.6, -5975.749, 0.0, 10.0006275, 9.998183 
2.0150402e+3, 2.1248578e+2, -921770.25, -1109476.6, -6323.653, -0.13366783, -0.22295041, -921557.44, -63939.07, 0.0, 10.000388, 9.997876 
2.0150733e+3, 2.2248337e+2, -783475.44, -882819.6, -64214.68, -0.14041364, -0.27362248, -751963.56, 7678.287, 0.0, 10.000171, 9.998873 
2.0151064e+3, 2.3248307e+2, -591148.25, -669318.5, -27673.45, -0.11247425, -0.27057692, -582343.25, 79295.24, 0.0, 10.000534, 9.999479 
2.0151399e+3, 2.4248202e+2, -593561.2, -843121.0, 7765.4346, -0.058692954, -0.23701651, -593319.8, -29674.754, 0.0, 10.000774, 9.997516 
2.0151748e+3, 2.5247875e+2, -461997.72, -768227.75, -14422.908, 0.06265254, -0.31259027, -461319.94, 4360.659, 0.0, 10.001206, 9.997131 
2.0152083e+3, 2.6247594e+2, -286468.84, -515578.9, -53158.56, 0.021027109, -0.32795683, -274735.75, 92974.04, 0.0000000091701935, 10.001209, 9.998201 
2.0152384e+3, 2.7247542e+2, -212027.75, -350666.63, -19630.703, -0.33242163, -0.2950259, -209301.73, 60411.29, 0.0000023642951, 10.000725, 9.9988785 
2.0152706e+3, 2.8247485e+2, -234746.39, -403335.38, -39346.59, -0.46258152, -0.19826826, -226015.55, -54297.89, 0.000021595964, 10.000288, 9.998072 
2.0153077e+3, 2.924723e+2, -108759.99, -294124.4, -50068.28, -0.08348805, -0.30419397, -96100.734, -22355.838, 0.000083873885, 10.000491, 9.998037 
2.0153426e+3, 3.0246934e+2, 55936.723, -27736.662, -29678.266, -0.043554027, -0.4535858, 65394.36, 65394.36, 0.00020823472, 10.000611, 9.999481 
2.0153765e+3, 3.1247467e+2, 7167.797, -117402.67, 120556.984, -0.11037971, 0.02275675, 80578.69, 80578.69, 0.00038339235, 10.000565, 9.998854 
2.0247425e+3, 1.22456305e+2, -1619383.0, -1596412.0, 66399.18, -0.16723993, -0.13034648, -1540512.3, 199387.56, 0.29983783, 10.000451, 10.000965 
2.024776e+3, 1.324516e+2, -1847489.0, -1881438.3, -59569.566, -0.023688382, -0.5758626, -1802522.8, -160573.19, 0.21537028, 9.999074, 9.998574 
2.0248044e+3, 1.4245547e+2, -1566440.3, -1545341.8, 53029.37, -0.4079703, -0.08388538, -1501822.5, 42092.336, 0.12892798, 9.999636, 10.000001 
2.0248416e+3, 1.5245591e+2, -1336214.8, -1267981.9, 27108.709, -0.07675264, -0.16374911, -1258522.9, 187385.0, 0.05909158, 10.000087, 10.001048 
2.024877e+3, 1.6245534e+2, -1350293.5, -1390641.1, -1976.312, 0.10920269, -0.2558293, -1350196.9, -2285.3997, 0.018083457, 10.000024, 9.999488 
2.0249091e+3, 1.7245424e+2, -1274871.5, -1338282.4, -11102.034, -0.02340963, -0.3112258, -1272984.0, -23061.43, 0.0026487417, 10.000055, 9.99914 
2.0249416e+3, 1.8245372e+2, -1162263.1, -1180896.9, -25116.627, -0.101835825, -0.28658122, -1144791.0, 7136.8574, 0.000052423693, 9.999877, 9.999656 
2.0249744e+3, 1.9245432e+2, -1067782.4, -1044360.3, -70956.68, -0.09565138, -0.25204948, -984154.75, 69766.95, 0.0, 9.999696, 9.999996 
2.0250075e+3, 2.0245428e+2, -1092365.8, -1189142.6, -50095.24, -0.0836968, -0.18539363, -1071105.3, -115182.234, 0.0, 9.999647, 9.998359 
2.0250407e+3, 2.1245243e+2, -930533.6, -1103130.6, -3665.7495, -0.1133929, -0.20183408, -930455.8, -72510.69, 0.0, 10.000278, 9.997963 
2.025074e+3, 2.2245052e+2, -699640.9, -876967.94, 16366.372, -0.11187385, -0.19748275, -698143.0, 61821.883, 0.0, 10.000892, 9.998558 
2.0251079e+3, 2.3244917e+2, -469254.5, -660382.8, -62723.414, -0.050427377, -0.25753176, -450508.84, 211463.97, 0.0, 10.001589, 9.999022 
2.0251419e+3, 2.4244757e+2, -433448.38, -762461.8, -72218.64, 0.02339018, -0.25263214, -418294.3, 145691.22, 0.0, 10.001878, 9.997522 
2.0251758e+3, 2.5244507e+2, -448708.9, -750287.94, -32534.771, 0.063346125, -0.25592384, -445238.9, 20774.65, 0.0, 10.001255, 9.997222 
2.0252089e+3, 2.624428e+2, -335635.16, -518843.2, 14760.057, 0.010353423, -0.23443937, -334453.66, 33583.805, 0.000000001074916, 10.000789, 9.998381 
2.0252395e+3, 2.724418e+2, -188707.16, -312653.44, -13299.234, -0.2741538, -0.26521453, -187296.23, 82746.63, 0.0000018159459, 10.000796, 9.999095 
2.025272e+3, 2.824406e+2, -172087.64, -406669.22, -10744.939, -0.37340826, -0.2300598, -171596.5, 455.6514, 0.000018189116, 10.000835, 9.997794 
2.0253083e+3, 2.924378e+2, -102407.26, -325389.38, -12615.9795, -0.06541275, -0.3231088, -101695.734, -27611.602, 0.000072171526, 10.000691, 9.997719 
2.0253445e+3, 3.0243522e+2, 115168.875, -6103.196, 48655.72, 0.094153896, -0.4124641, 132276.7, 132276.7, 0.00017992329, 10.000966, 9.999502 
2.0253766e+3, 3.1244034e+2, 192585.89, 90890.24, -44589.38, -0.17614211, 0.04014841, 209367.31, 209367.31, 0.00033564065, 10.001232, 10.000005 
2.0347445e+3, 1.224232e+2, -1543827.5, -1472708.6, -99930.51, -0.11447188, -0.14526254, -1402199.3, 338026.5, 0.3135409, 10.00063, 10.002166 
2.0347743e+3, 1.3241817e+2, -1781867.8, -1776899.1, -37213.13, -0.14553401, -0.6532692, -1742087.5, -99814.42, 0.22593072, 9.999187, 9.999246 
2.0348063e+3, 1.4242159e+2, -1551557.0, -1565376.4, 62587.137, -0.23728947, -0.2544632, -1495499.3, 48740.254, 0.13594478, 9.999866, 9.999752 
2.0348416e+3, 1.5242179e+2, -1395391.3, -1399152.9, 42701.996, -0.12008248, -0.27190065, -1354528.6, 91708.91, 0.06282382, 10.000126, 10.00007 
2.0348758e+3, 1.6242093e+2, -1347178.1, -1403339.8, -19195.72, -0.07269137, -0.32602715, -1341244.1, 7001.636, 0.019494196, 10.000101, 9.999365 
2.0349091e+3, 1.7242073e+2, -1249829.0, -1298545.8, 560.22644, -0.07031139, -0.3107834, -1249822.5, 425.13556, 0.0029308582, 10.000097, 9.999394 
2.0349422e+3, 1.8242024e+2, -1199947.9, -1269620.6, -40789.87, -0.07218989, -0.2785959, -1181143.0, -28890.408, 0.00006041413, 9.999925, 9.999026 
2.0349744e+3, 1.9241816e+2, -1147517.4, -1187671.8, -68770.72, -0.09079984, -0.41984138, -1095953.0, -41678.953, 0.0, 9.999606, 9.999056 
2.035007e+3, 2.024171e+2, -1060167.1, -1086878.4, -47735.133, -0.12845974, -0.42364186, -1023954.44, -67668.875, 0.0, 9.999499, 9.999131 
2.0350407e+3, 2.1241915e+2, -858052.3, -910599.0, 31862.271, -0.1573011, -0.1789952, -843028.06, 15238.705, 0.0, 10.000098, 9.999373 
2.0350745e+3, 2.2241928e+2, -809101.56, -1032934.6, 31502.205, -0.17038438, -0.028152179, -804752.44, -44485.746, 0.0, 10.000599, 9.9976225 
2.0351091e+3, 2.3241423e+2, -634661.7, -942143.6, -19706.512, -0.093262285, -0.29101762, -633403.8, 28913.275, 0.0, 10.001334, 9.997205 
2.0351431e+3, 2.4241066e+2, -439898.66, -706831.1, -94580.62, -0.06530469, -0.3866173, -409783.94, 154568.92, 0.0, 10.00158, 9.998049 
2.0351753e+3, 2.5241166e+2, -376877.03, -562539.4, -46907.99, -0.13755114, -0.17098248, -365698.66, 100645.48, 0.0, 10.001083, 9.998598 
2.0352082e+3, 2.6241127e+2, -371383.88, -524118.47, -5037.5654, -0.16644312, -0.05122604, -371217.9, -2871.0598, 0.000000023664393, 10.000508, 9.998472 
2.0352428e+3, 2.724071e+2, -242474.81, -377925.1, 2541.2844, -0.053714637, -0.3743815, -242427.16, 27953.994, 0.0000019634658, 10.000592, 9.998745 
2.0352763e+3, 2.8240448e+2, -224272.36, -428178.8, -32896.79, -0.039177578, -0.46393424, -219096.4, -46692.555, 0.000016146072, 10.000478, 9.997813 
2.0353079e+3, 2.9240564e+2, -122336.2, -305210.84, 2679.916, -0.2061224, -0.1731602, -122296.94, -47898.28, 0.00006227005, 10.000416, 9.997996 
2.035344e+3, 3.024037e+2, -81055.29, -267609.53, 42733.055, -0.09283314, -0.15041488, -71732.53, -71732.53, 0.00015436458, 10.000375, 9.997971 
2.0353784e+3, 3.124e+2, 139800.03, 164677.58, -14397.65, -0.16859818, -0.4189674, 171265.5, 171265.5, 0.0002908974, 10.000504, 10.000833 
2.0447461e+3, 1.22389324e+2, -1727792.4, -1588129.3, -30870.69, 0.084553175, -0.21166384, -1581610.0, 158948.64, 0.3294151, 9.998958, 10.001866 
2.0447727e+3, 1.3238564e+2, -1737706.8, -1784799.6, -116461.375, -0.22845145, -0.5319748, -1642435.4, 158.17792, 0.23787552, 9.99965, 9.99897 
2.0448077e+3, 1.423878e+2, -1600797.6, -1623495.3, -39744.5, -0.04624469, -0.22810592, -1570813.4, -26240.88, 0.14372098, 9.99967, 9.999416 
2.0448415e+3, 1.5238726e+2, -1495439.9, -1489952.6, -70145.06, -0.08690815, -0.27700552, -1422497.6, 24080.096, 0.06692591, 9.999627, 9.999662 
2.0448747e+3, 1.6238621e+2, -1407949.4, -1382655.6, -64844.7, -0.12970246, -0.3441179, -1329236.0, 19351.365, 0.021061258, 9.999453, 9.999828 
2.044909e+3, 1.7238696e+2, -1221412.0, -1203524.8, -28633.756, -0.070636906, -0.3068041, -1182470.4, 68107.74, 0.003256253, 9.99993, 10.000137 
2.0449427e+3, 1.8238702e+2, -1164757.1, -1275839.1, -19698.473, -0.0075113745, -0.25538084, -1161367.4, -8790.947, 0.00007088071, 10.000277, 9.998812 
2.0449749e+3, 1.923843e+2, -1017799.94, -1181676.1, -41885.91, -0.043424744, -0.41277954, -1007714.75, 46890.035, 0.0, 10.000758, 9.998532 
2.0450075e+3, 2.0238264e+2, -821074.6, -972979.06, 12481.955, -0.091478854, -0.44271398, -820055.8, 136566.36, 0.0, 10.001123, 9.999147 
2.0450413e+3, 2.1238448e+2, -642797.75, -777614.5, -12797.306, -0.15546268, -0.24161057, -641593.7, 217009.8, 0.0, 10.0014515, 9.999639 
2.0450756e+3, 2.2238468e+2, -700588.9, -1001008.9, -43072.848, -0.16216427, -0.093542494, -694535.3, 66066.875, 0.0, 10.001417, 9.997462 
2.0451105e+3, 2.3238e+2, -766247.7, -1041514.8, -22089.002, -0.04449208, -0.28506306, -764486.44, -101834.5, 0.0, 10.000568, 9.996902 
2.0451446e+3, 2.423767e+2, -627022.9, -775613.44, -175.76884, 0.0027072355, -0.34465253, -627022.7, -62335.363, 0.0, 10.000187, 9.9982605 
2.045176e+3, 2.5237754e+2, -343904.6, -500862.47, -39017.313, -0.16495922, -0.17900553, -334740.53, 131937.83, 0.0, 10.00111, 9.999011 
2.0452088e+3, 2.623771e+2, -205755.05, -456067.53, -31860.576, -0.20526302, -0.0838133, -201763.38, 166917.2, 0.00000011200642, 10.001674, 9.998383 
2.0452446e+3, 2.7237323e+2, -175576.63, -382962.44, -61374.965, 0.05659354, -0.34942186, -158774.28, 111940.07, 0.000002326167, 10.0012, 9.998419 
2.0452785e+3, 2.8237063e+2, -157751.81, -375055.44, -59058.035, 0.12988162, -0.4235899, -142738.48, 29999.152, 0.000014696717, 10.000831, 9.998009 
2.0453084e+3, 2.923715e+2, -42989.355, -224621.95, -52133.773, -0.20854394, -0.18328725, -29089.225, 45642.61, 0.00005375532, 10.000792, 9.998364 
2.0453446e+3, 3.0237034e+2, -19509.346, -257463.97, 83555.38, -0.051157814, -0.10022775, 6899.3906, 6899.3906, 0.00013253847, 10.000874, 9.997787 
2.0453805e+3, 3.123648e+2, 132690.89, 110916.84, -86949.65, 0.00074263156, -0.51168966, 209432.45, 209432.45, 0.0002539401, 10.000616, 10.000412 
2.0547456e+3, 1.2235598e+2, -1899593.9, -1893908.1, 284075.7, 0.05501487, -0.21469782, -1612661.1, 128224.055, 0.3476065, 9.999133, 9.999422 
2.0547704e+3, 1.3235436e+2, -1813582.8, -1955246.4, -95487.02, -0.4417941, -0.18559091, -1765524.1, -122616.04, 0.2513395, 9.999707, 9.997772 
2.0548081e+3, 1.4235424e+2, -1618665.8, -1689964.9, -51621.004, -0.03832262, -0.0069137914, -1591580.8, -46667.05, 0.15236652, 9.999793, 9.998899 
2.0548414e+3, 1.5235257e+2, -1476832.6, -1466539.1, -60797.48, -0.115697, -0.1717136, -1410671.0, 36256.12, 0.071473114, 9.999683, 9.999804 
2.0548737e+3, 1.6235125e+2, -1326191.9, -1247240.8, -69105.22, -0.21561252, -0.30401802, -1207130.8, 141805.19, 0.022826005, 9.999583, 10.000718 
2.0549084e+3, 1.7235294e+2, -1136889.4, -1028206.9, -3176.6643, -0.13306777, -0.28972176, -1028114.06, 222800.08, 0.0036400491, 9.999925, 10.001352 
2.0549428e+3, 1.8235393e+2, -1141885.9, -1247000.6, -13672.11, -0.06313314, -0.22615352, -1140136.6, 12764.349, 0.00008593674, 10.00034, 9.998987 
2.0549756e+3, 1.9235253e+2, -1027660.56, -1200503.8, -14588.724, -0.07991323, -0.24288093, -1026437.8, 28478.5, 0.0, 10.000732, 9.998424 
2.0550086e+3, 2.0235074e+2, -894323.75, -1092519.0, 13998.719, -0.13128397, -0.25529745, -893339.94, 63594.9, 0.0, 10.000985, 9.998392 
2.0550422e+3, 2.1234828e+2, -741179.94, -935965.1, 11554.312, -0.22477028, -0.38914046, -740496.94, 118459.266, 0.0, 10.001248, 9.998649 
2.0550764e+3, 2.2234643e+2, -710060.6, -948977.25, -76151.53, -0.23908372, -0.4027812, -687852.6, 73121.0, 0.0, 10.001118, 9.997959 
2.0551114e+3, 2.3234627e+2, -720343.75, -897136.94, -42991.105, -0.025170088, -0.24423958, -710443.9, -47464.152, 0.0, 10.000361, 9.9979925 
2.0551455e+3, 2.4234536e+2, -679634.5, -810286.9, 4768.963, 0.067912616, -0.12863298, -679460.6, -114468.945, 0.0, 9.99988, 9.998162 
2.0551775e+3, 2.5234255e+2, -419760.03, -593748.6, 13268.238, -0.14341496, -0.2860717, -418754.03, 48264.16, 0.0, 10.000846, 9.998495 
2.0552102e+3, 2.6234034e+2, -281708.2, -531237.6, -47305.637, -0.254901, -0.32667089, -273041.06, 95997.99, 0.00000017468948, 10.001324, 9.998032 
2.0552449e+3, 2.723399e+2, -230012.5, -450698.25, -64038.88, -0.058271524, -0.21188019, -212775.88, 58268.766, 0.0000023499456, 10.000997, 9.998056 
2.0552781e+3, 2.8233862e+2, -207411.38, -391683.3, -77062.09, -0.024028057, -0.12805739, -179432.39, -6375.3696, 0.000012296112, 10.000475, 9.998059 
2.0553091e+3, 2.9233542e+2, -60451.996, -198668.63, -29948.203, -0.25056, -0.34478936, -54241.96, 20841.906, 0.000044415407, 10.000524, 9.998668 
2.0553462e+3, 3.0233452e+2, -50473.703, -184316.64, 59525.83, -0.02990571, -0.29836234, -27830.63, -27830.63, 0.00011238554, 10.0003195, 9.99854 
2.0553821e+3, 3.1233326e+2, -129521.31, -239535.42, -168107.0, 0.044124514, -0.34703636, -7650.6133, -7650.6133, 0.00022337346, 9.999826, 9.998367 
2.064744e+3, 1.2231996e+2, -1881360.1, -1917878.3, 256578.83, -0.0006391748, -0.26934475, -1642391.5, 98847.56, 0.36771804, 9.999392, 9.999067 
2.0647722e+3, 1.3232125e+2, -1596115.9, -1719811.9, -83657.71, -0.27250424, -0.057743847, -1553926.5, 89307.58, 0.26616043, 10.000811, 9.998898 
2.0648076e+3, 1.423208e+2, -1619392.8, -1681193.8, 105694.52, -0.031015651, 0.016239936, -1540174.4, 5067.5693, 0.1618756, 9.999728, 9.999003 
2.0648411e+3, 1.5231861e+2, -1440341.3, -1448854.6, 81400.23, -0.10026892, -0.20680572, -1363086.5, 84172.086, 0.07651462, 9.999927, 9.99983 
2.064874e+3, 1.623173e+2, -1274060.9, -1272182.5, 69869.73, -0.1636438, -0.32696596, -1203245.6, 146021.31, 0.024829434, 10.000196, 10.000228 
2.0649087e+3, 1.7231862e+2, -1115699.9, -1093754.8, -22541.12, -0.11105249, -0.28156197, -1079657.4, 171594.0, 0.0041003036, 10.00042, 10.000644 
2.0649432e+3, 1.8231939e+2, -1118687.0, -1225734.0, -99504.2, -0.053066943, -0.19908962, -1059224.4, 94017.91, 0.000108260756, 10.000469, 9.999058 
2.0649762e+3, 1.9231868e+2, -960788.9, -1123522.0, -93470.95, -0.07250898, -0.1804544, -918230.75, 137019.02, 0.0, 10.001008, 9.998813 
2.0650098e+3, 2.0231704e+2, -874755.75, -1117262.8, -24048.172, -0.08564803, -0.18580611, -872394.0, 84871.38, 0.0, 10.001266, 9.998081 
2.0650445e+3, 2.123133e+2, -819517.9, -1038626.6, -26258.818, -0.106410995, -0.39521906, -816414.9, 42884.902, 0.0, 10.000997, 9.998061 
2.0650786e+3, 2.2231066e+2, -719534.06, -914796.3, -76102.58, -0.109578736, -0.45796937, -693377.3, 67947.016, 0.0, 10.000876, 9.998314 
2.0651115e+3, 2.3231146e+2, -542731.3, -731224.2, -95094.35, -0.08450364, -0.26969635, -503092.25, 160227.06, 0.0, 10.001247, 9.998697 
2.0651448e+3, 2.4231139e+2, -449921.44, -661512.5, -25783.123, -0.05655116, -0.12910813, -446824.97, 118496.76, 0.0, 10.001293, 9.998501 
2.0651789e+3, 2.5230846e+2, -462892.88, -587239.4, 4957.5215, -0.051642362, -0.31879467, -462695.53, 4653.0176, 0.0, 10.000436, 9.998729 
2.0652126e+3, 2.6230615e+2, -475365.53, -638207.7, 17274.29, -0.049393605, -0.38319668, -473553.25, -104182.41, 0.00000012472299, 10.00004, 9.997922 
2.0652457e+3, 2.7230594e+2, -225596.38, -465716.8, -11033.759, -0.08424245, -0.22447836, -225090.44, 46286.07, 0.0000018192295, 10.001104, 9.997899 
2.0652783e+3, 2.823051e+2, -21737.648, -286847.63, -6948.022, -0.11025585, -0.09915127, -21555.68, 151830.16, 0.000008845643, 10.001675, 9.99821 
2.065311e+3, 2.9230177e+2, -42097.33, -171063.73, -25821.664, -0.09339302, -0.33894372, -37119.453, 38291.57, 0.000033872344, 10.00058, 9.998827 
2.0653474e+3, 3.022997e+2, -31467.15, -113881.836, 109564.016, 0.09207183, -0.44394687, 44382.41, 44382.41, 0.00009226449, 10.00012, 9.999164 
2.065383e+3, 3.1229997e+2, 14194.249, -175048.31, -258814.03, 0.12544581, -0.393416, 195141.27, 195141.27, 0.00019361054, 10.000799, 9.998375 
2.0747395e+3, 1.2228156e+2, -1718896.5, -1674829.3, -9104.152, -0.4695397, -0.3180505, -1673022.5, 68595.266, 0.38886976, 9.999597, 10.000732 
2.0747778e+3, 1.3228604e+2, -1388517.0, -1300068.5, -82355.6, 0.1666632, -0.164136, -1250814.3, 392759.16, 0.28190908, 10.000947, 10.002604 
2.0748061e+3, 1.4228734e+2, -1545851.6, -1550813.6, 59411.695, -0.20380068, -0.17115337, -1488869.1, 56688.71, 0.17213808, 9.999849, 9.999878 
2.0748405e+3, 1.5228532e+2, -1433994.1, -1439900.4, 103395.35, -0.17289633, -0.39137632, -1333509.8, 114062.61, 0.08207624, 9.999959, 9.999883 
2.074875e+3, 1.6228424e+2, -1389096.8, -1538173.6, 71460.164, -0.12592503, -0.4240403, -1360375.6, -10794.749, 0.027111659, 10.000303, 9.998339 
2.0749094e+3, 1.72284e+2, -1300423.3, -1477764.3, -8101.164, -0.11259206, -0.28007382, -1300053.9, -48464.094, 0.0046569863, 10.000426, 9.997997 
2.0749433e+3, 1.8228343e+2, -1118016.9, -1241502.3, -97549.82, -0.11568171, -0.15916517, -1064312.0, 89288.086, 0.00014131474, 10.000545, 9.998912 
2.074977e+3, 1.922826e+2, -917396.56, -1016597.06, -65930.88, -0.12705706, -0.21797355, -884491.9, 171114.17, 0.0000000002137382, 10.000936, 9.999582 
2.0750113e+3, 2.022814e+2, -888956.7, -1116211.8, -41833.508, -0.09647677, -0.23424022, -881500.5, 76115.336, 0.0, 10.001125, 9.998158 
2.0750473e+3, 2.1227923e+2, -856521.06, -1075643.0, -24192.447, 0.077107154, -0.2705167, -853881.9, 5754.9395, 0.0, 10.000819, 9.997894 
2.0750816e+3, 2.2227716e+2, -752199.0, -907334.44, -75646.36, 0.08604806, -0.27825996, -721419.5, 40237.043, 0.0, 10.000569, 9.998504 
2.0751104e+3, 2.322756e+2, -561955.44, -706341.44, -65881.625, -0.3278395, -0.35492957, -536413.0, 127257.54, 0.0, 10.000986, 9.998987 
2.0751418e+3, 2.4227466e+2, -452460.2, -585515.8, -57279.71, -0.5154528, -0.34507304, -431198.97, 134479.22, 0.0, 10.000947, 9.9991865 
2.0751797e+3, 2.5227502e+2, -434542.44, -482063.94, -17997.465, -0.01929894, -0.28496483, -428495.78, 39176.477, 0.0, 10.000241, 9.999543 
2.0752159e+3, 2.6227427e+2, -511180.66, -640227.56, 22008.082, 0.23521946, -0.24983728, -507530.56, -137851.73, 0.000000021824269, 9.999741, 9.998051 
2.0752461e+3, 2.722712e+2, -263232.78, -485152.22, 46917.66, -0.15601866, -0.37925372, -253721.23, 17990.842, 0.00000084431264, 10.000862, 9.997882 
2.075278e+3, 2.8226963e+2, -75899.19, -301433.38, -47000.465, -0.32202142, -0.33156163, -66496.48, 107231.67, 0.000005133315, 10.001269, 9.998297 
2.0753138e+3, 2.9226995e+2, -91385.74, -219109.45, -49440.617, 0.10477704, -0.2046905, -74484.3, 1235.2115, 0.000023723636, 10.000328, 9.998624 
2.0753479e+3, 3.0226573e+2, -105016.305, -114139.03, 99989.62, 0.10189087, -0.5149265, -9484.0625, -9484.0625, 0.00007269807, 9.999525, 9.999419 
2.0753816e+3, 3.122663e+2, -17716.111, -17793.3, -167652.5, -0.14489575, -0.511223, 149897.8, 149897.8, 0.00016065389, 9.999933, 9.999829 
2.0847388e+3, 1.2224774e+2, -1814695.6, -1779030.5, 138102.11, -0.48091343, -0.27183598, -1657614.4, 84331.36, 0.40993002, 9.9993725, 10.000035 
2.0847793e+3, 1.3224986e+2, -1567047.5, -1346397.8, -67361.94, 0.33692628, -0.40464026, -1327458.5, 316464.63, 0.29801235, 9.998995, 10.003153 
2.0848061e+3, 1.4225392e+2, -1552218.8, -1551604.4, -47115.543, -0.17214496, -0.18248247, -1504795.0, 41085.17, 0.18298064, 9.999821, 9.999865 
2.0848408e+3, 1.5225148e+2, -1378421.1, -1467602.9, -66267.055, -0.1461104, -0.3984311, -1343139.3, 104762.055, 0.088167645, 10.000618, 9.999357 
2.0848761e+3, 1.6225001e+2, -1334364.3, -1569396.1, -84483.484, -0.052278988, -0.41294625, -1307147.9, 42767.523, 0.029713616, 10.000918, 9.9978485 
2.0849106e+3, 1.72249e+2, -1254543.0, -1508195.6, -40749.66, -0.050145756, -0.29891625, -1248157.3, 3775.0837, 0.005333032, 10.000944, 9.997559 
2.0849445e+3, 1.8224782e+2, -1100546.1, -1245707.0, 2565.222, -0.056682754, -0.20772406, -1100500.8, 53448.156, 0.00018960002, 10.000716, 9.998814 
2.084978e+3, 1.9224694e+2, -966787.6, -1040501.06, -32610.123, -0.1024597, -0.2676005, -954432.1, 101523.36, 0.000000020895914, 10.000601, 9.999583 
2.0850122e+3, 2.022461e+2, -954294.8, -1098794.5, -18352.793, -0.071046606, -0.2642735, -952000.3, 5961.944, 0.0, 10.000509, 9.998556 
2.0850489e+3, 2.1224514e+2, -782517.9, -976522.75, 17998.533, 0.14249037, -0.2303025, -780862.2, 79108.875, 0.0, 10.001084, 9.998428 
2.0850833e+3, 2.2224367e+2, -652681.6, -859324.94, 1224.319, 0.18780456, -0.21229498, -652674.4, 109310.14, 0.0, 10.001224, 9.998537 
2.0851116e+3, 2.3224102e+2, -691214.56, -785135.9, -47910.6, -0.26923388, -0.38760465, -671087.75, -7079.3984, 0.0, 10.000136, 9.998873 
2.0851423e+3, 2.4223943e+2, -635806.94, -654276.25, -27869.596, -0.47504824, -0.44283298, -615681.9, -49660.313, 0.0, 9.99959, 9.999372 
2.0851804e+3, 2.5224057e+2, -328494.66, -404391.03, -42690.13, -0.004163271, -0.32915092, -309324.44, 158683.55, 0.0, 10.000837, 9.999797 
2.0852165e+3, 2.622405e+2, -212112.84, -457133.22, 2227.6082, 0.24556299, -0.25026768, -212092.6, 157914.5, 0.0, 10.001633, 9.998394 
2.085247e+3, 2.7223748e+2, -226121.64, -432367.47, 18480.508, -0.14667045, -0.40494466, -224478.8, 47560.074, 0.000000115745564, 10.000981, 9.998181 
2.0852795e+3, 2.8223553e+2, -158382.03, -326176.5, -51685.805, -0.2505368, -0.41673934, -143739.08, 30319.002, 0.0000020138657, 10.000615, 9.998446 
2.0853157e+3, 2.9223576e+2, 14280.923, -141285.39, -88739.39, 0.23936479, -0.3161287, 54501.574, 130553.07, 0.000014504671, 10.000949, 9.998855 
2.0853479e+3, 3.022336e+2, 163794.14, 46285.184, 143512.61, 0.09049892, -0.45483992, 260113.69, 260113.69, 0.00005340342, 10.001167, 9.999759 
2.0853826e+3, 3.122341e+2, 112205.35, -11130.562, -173994.39, -0.07009732, -0.46368158, 235136.92, 235136.92, 0.0001257325, 10.000925, 9.999447 
2.0947418e+3, 1.2221798e+2, -1991003.8, -2195955.3, 138184.78, -0.22496872, -0.2238089, -1921443.6, -179216.0, 0.42994058, 9.999494, 9.996905 
2.0947759e+3, 1.3221246e+2, -1731577.1, -1632686.6, -54503.48, 0.048272625, -0.80462456, -1608542.0, 35744.28, 0.31401625, 9.998988, 10.000422 
2.0948073e+3, 1.4222048e+2, -1601076.0, -1688820.4, -35049.93, -0.0993889, 0.006903789, -1588794.3, -42584.313, 0.19429262, 9.999936, 9.998845 
2.0948417e+3, 1.5221705e+2, -1442239.3, -1627838.0, -37695.47, -0.15084735, -0.20214508, -1434875.5, 13370.772, 0.094824284, 10.000682, 9.998216 
2.0948769e+3, 1.6221453e+2, -1248302.6, -1423078.4, -98010.24, -0.1176106, -0.2782051, -1204379.3, 145892.7, 0.032688897, 10.001075, 9.998783 
2.094912e+3, 1.7221366e+2, -1123230.3, -1241897.6, -35045.504, -0.040547583, -0.32071328, -1113653.3, 138625.52, 0.0061590113, 10.000974, 9.999373 
2.0949458e+3, 1.8221262e+2, -1090747.3, -1244155.5, -14839.72, -0.028832754, -0.33059192, -1089325.0, 64962.926, 0.00026052183, 10.000793, 9.998788 
2.0949785e+3, 1.9221182e+2, -1026771.2, -1155279.5, -29742.521, -0.120683976, -0.31843472, -1020221.3, 36075.957, 0.00000016154512, 10.000558, 9.998816 
2.0950122e+3, 2.0221119e+2, -937262.94, -1028677.8, -17330.951, -0.15740699, -0.26501775, -934087.56, 24216.406, 0.0, 10.0003605, 9.999105 
2.0950486e+3, 2.1221091e+2, -741808.56, -839070.75, 50252.652, -0.020102404, -0.26291972, -720508.9, 139794.8, 0.0, 10.000865, 9.999473 
2.0950833e+3, 2.2221003e+2, -700261.75, -891348.4, -34908.508, 0.04723342, -0.2514428, -694084.25, 68225.63, 0.0, 10.000936, 9.998455 
2.095114e+3, 2.3220755e+2, -759078.5, -876481.44, -78566.086, -0.053998668, -0.36280495, -719706.06, -55371.99, 0.0, 9.999922, 9.998349 
2.0951454e+3, 2.4220555e+2, -702516.6, -721572.44, -14384.809, -0.12704994, -0.41582564, -694790.44, -128437.39, 0.0, 9.999286, 9.999055 
2.0951802e+3, 2.5220513e+2, -374985.84, -451610.88, 22710.797, -0.114797704, -0.4363325, -368760.4, 99594.445, 0.0, 10.000621, 9.999579 
2.0952144e+3, 2.6220495e+2, -235039.11, -422945.66, -15719.114, -0.16223232, -0.37556335, -233733.22, 136621.73, 0.0, 10.001292, 9.998788 
2.0952478e+3, 2.7220452e+2, -229523.44, -379554.28, 7189.0425, -0.19864896, -0.32482272, -229179.75, 43180.49, 0.0, 10.000725, 9.998664 
2.0952822e+3, 2.8220257e+2, -215697.95, -339635.3, -63023.03, -0.08102948, -0.36318266, -189281.0, -14902.528, 0.00000039293647, 10.000173, 9.998566 
2.0953162e+3, 2.921993e+2, 5118.4326, -89036.72, -50867.402, 0.16974057, -0.63596314, 27350.242, 103755.03, 0.000007667558, 10.000646, 9.99936 
2.0953465e+3, 3.022018e+2, 69882.984, 29831.738, 115370.96, -0.2048852, -0.36826715, 166953.4, 166953.4, 0.000037309022, 10.00046, 9.999962 
2.0953858e+3, 3.1220242e+2, -131493.47, -271820.22, 28100.1, 0.09334147, -0.33960417, -126075.67, -126075.67, 0.00009614077, 9.999962, 9.998083 
2.1047431e+3, 1.2218446e+2, -1837444.5, -1988882.9, -23988.34, -0.025044177, -0.13229635, -1833735.5, -91181.66, 0.44859928, 9.999958, 9.998096 
2.104774e+3, 1.3217792e+2, -1557398.8, -1615435.8, -100697.195, -0.1292931, -0.79676867, -1481622.3, 163000.16, 0.3298663, 10.000808, 9.999785 
2.1048088e+3, 1.4218496e+2, -1473132.6, -1645988.4, 4454.035, 0.024156896, -0.029595688, -1473017.9, 73538.484, 0.20615475, 10.001081, 9.998575 
2.1048433e+3, 1.5218212e+2, -1468467.6, -1636210.1, 38344.69, -0.06198583, -0.178161, -1460117.9, -11529.541, 0.10215144, 10.000508, 9.998219 
2.1048774e+3, 1.6217962e+2, -1395391.5, -1457852.0, 49902.125, -0.10438544, -0.26648578, -1367752.9, -17138.115, 0.036114734, 9.9998865, 9.999093 
2.1049124e+3, 1.7217904e+2, -1175837.1, -1211885.6, 2866.8672, -0.04858301, -0.32868528, -1175610.5, 77006.26, 0.007176738, 10.000375, 9.999856 
2.1049465e+3, 1.8217841e+2, -1135695.4, -1274796.4, -37828.3, -0.011900664, -0.3279453, -1126073.5, 28547.316, 0.0003661867, 10.00053, 9.9987 
2.1049793e+3, 1.9217733e+2, -1097292.3, -1223356.3, -55377.11, -0.089241914, -0.31337687, -1076421.5, -19787.174, 0.00000091193453, 10.000235, 9.998497 
2.1050127e+3, 2.021765e+2, -965582.94, -1011379.1, 11008.136, -0.11790846, -0.2693825, -963074.3, -4430.5635, 0.0, 9.999984, 9.999432 
2.1050486e+3, 2.121763e+2, -805477.75, -814759.4, 32306.525, -0.04939428, -0.311013, -777480.4, 83161.14, 0.0, 10.000135, 10.000026 
2.1050835e+3, 2.2217582e+2, -781180.44, -902459.6, -59032.613, 0.023802755, -0.30342904, -757191.4, 5451.894, 0.0, 10.000285, 9.998674 
2.1051155e+3, 2.3217419e+2, -598894.9, -791101.25, -99289.74, 0.06088598, -0.33658656, -556816.0, 107844.055, 0.0, 10.001007, 9.998395 
2.1051477e+3, 2.4217254e+2, -428373.22, -608909.1, 17637.742, 0.06612404, -0.34866637, -426666.22, 140010.33, 0.0, 10.001247, 9.99889 
2.1051806e+3, 2.5217137e+2, -491556.6, -531702.0, 30981.604, -0.099329345, -0.42082238, -474713.53, -6027.089, 0.0, 9.99994, 9.9993515 
2.1052139e+3, 2.6217082e+2, -529492.44, -541360.5, 13822.33, -0.21495508, -0.39113587, -520384.22, -149693.92, 0.0, 9.999147, 9.999018 
2.105249e+3, 2.7217093e+2, -308911.2, -372589.13, 2145.887, -0.09591429, -0.31620318, -308838.94, -36150.754, 0.0, 9.999974, 9.999077 
2.1052842e+3, 2.821694e+2, -127999.81, -288544.3, -30911.037, 0.09149147, -0.3451752, -122253.89, 52448.18, 0.00000006547354, 10.000769, 9.9986105 
2.1053164e+3, 2.9216567e+2, 35133.0, -103500.33, -100858.7, 0.14063855, -0.63625634, 88198.02, 164933.84, 0.000004738257, 10.001012, 9.999073 
2.1053472e+3, 3.021682e+2, 76917.92, -49826.844, -5571.3745, -0.1657576, -0.3138541, 77162.35, 77162.35, 0.00002905632, 10.000835, 9.999237 
2.1053872e+3, 3.1216714e+2, -72614.05, -122824.414, -159776.36, 0.26320156, -0.382137, 64017.453, 64017.453, 0.00007991688, 9.999812, 9.999183 
2.1147409e+3, 1.2214268e+2, -1576373.5, -1433205.1, 54414.676, -0.34693915, -0.45766172, -1414871.3, 328098.1, 0.46656317, 10.0000305, 10.003725 
2.1147726e+3, 1.3214676e+2, -1471072.3, -1453518.3, -72403.086, -0.35969847, -0.3302476, -1389362.1, 255564.31, 0.34608045, 10.000936, 10.001324 
2.1148103e+3, 1.4214687e+2, -1427821.1, -1577291.0, -7400.237, 0.0054648216, -0.34029308, -1427455.6, 119468.125, 0.21890919, 10.001305, 9.998943 
2.1148445e+3, 1.5214653e+2, -1372880.3, -1449811.6, 15963.592, -0.011141667, -0.3458977, -1369699.3, 79229.805, 0.110347085, 10.000635, 9.999438 
2.1148773e+3, 1.6214518e+2, -1393483.4, -1482842.8, 43486.04, -0.16822474, -0.3942583, -1375814.8, -24870.58, 0.040102176, 10.000006, 9.998867 
2.1149117e+3, 1.7214514e+2, -1235885.6, -1344769.8, 32274.652, -0.19275099, -0.32127476, -1227037.9, 25908.377, 0.008443992, 10.000398, 9.998935 
2.1149458e+3, 1.8214498e+2, -1145257.4, -1304150.4, -57018.434, -0.16841662, -0.20699993, -1126914.0, 28035.691, 0.00052604213, 10.000573, 9.998474 
2.1149792e+3, 1.9214334e+2, -1105713.8, -1221426.3, -61495.85, -0.12526734, -0.25065774, -1079136.1, -22167.861, 0.0000034897541, 10.000155, 9.998545 
2.115013e+3, 2.021419e+2, -986184.8, -1009605.7, -1719.0992, -0.10431706, -0.27689546, -986059.3, -27076.283, 0.0, 9.999797, 9.999534 
2.1150486e+3, 2.1214141e+2, -830898.2, -809987.8, 46751.77, -0.06537803, -0.3598484, -772536.44, 88447.375, 0.0, 9.99991, 10.000158 
2.1150835e+3, 2.2214109e+2, -799580.3, -869223.9, -47381.46, -0.04255347, -0.35958505, -775601.1, -12617.01, 0.0, 9.999974, 9.999054 
2.1151157e+3, 2.321408e+2, -598446.94, -740559.8, -57389.336, -0.030668743, -0.30338478, -578165.75, 86821.9, 0.0, 10.000791, 9.998848 
2.115148e+3, 2.4214019e+2, -480371.66, -642976.3, -23056.932, -0.051427122, -0.23942624, -477165.47, 89828.66, 0.0, 10.000936, 9.998799 
2.1151806e+3, 2.5213888e+2, -541676.4, -593610.44, -10714.48, -0.08996728, -0.30092567, -539552.7, -70546.44, 0.0, 9.999766, 9.999002 
2.1152146e+3, 2.6213768e+2, -573325.75, -558092.75, 14202.928, -0.09525124, -0.30869177, -549592.94, -178576.77, 0.0, 9.998838, 9.999046 
2.1152502e+3, 2.7213678e+2, -310959.0, -334316.88, 55028.074, 0.01593028, -0.3683884, -266384.16, 6637.9565, 0.0, 9.999789, 9.999427 
2.115285e+3, 2.8213555e+2, -210559.61, -371892.16, -28614.201, 0.050017163, -0.38454354, -205634.88, -30602.0, 0.00000005479561, 10.000389, 9.998222 
2.1153161e+3, 2.9213405e+2, -89449.27, -299561.72, -63513.395, -0.026755383, -0.38692492, -71742.47, 5309.612, 0.0000044706885, 10.000721, 9.997873 
2.1153492e+3, 3.0213243e+2, -184722.13, -370444.78, -56579.93, -0.096417375, -0.29203978, -168842.86, -168842.86, 0.000027145721, 9.999952, 9.997427 
2.115387e+3, 3.1212896e+2, -37250.78, 163930.08, -79537.06, 0.19193327, -0.5153988, 191576.06, 191576.06, 0.00007500438, 9.998969, 10.001533 
2.1247469e+3, 1.2210891e+2, -1653176.9, -1698498.0, 177936.63, 0.20069364, -0.42789337, -1496463.6, 246835.84, 0.48543465, 10.000973, 10.000322 
2.124773e+3, 1.3211337e+2, -1595738.1, -1511706.9, -29481.783, -0.36020872, -0.21547844, -1502395.3, 142855.95, 0.3637423, 9.999666, 10.001341 
2.1248108e+3, 1.4211057e+2, -1718150.6, -1722906.8, 40937.277, 0.062158156, -0.5110312, -1679522.4, -132245.72, 0.23315269, 9.999026, 9.999045 
2.1248452e+3, 1.5211132e+2, -1382712.8, -1420644.6, -12187.372, 0.0147062065, -0.43892995, -1379134.5, 70136.3, 0.1197026, 10.000361, 9.99982 
2.1248779e+3, 1.6211088e+2, -1249818.3, -1407337.5, -19572.764, -0.132435, -0.42320266, -1247422.6, 103854.76, 0.044803485, 10.001, 9.9989195 
2.1249123e+3, 1.7211105e+2, -1255592.8, -1370261.5, -3532.3848, -0.1405768, -0.31263074, -1255484.0, -2204.7954, 0.01004214, 10.000328, 9.998799 
2.1249467e+3, 1.82111e+2, -1268082.8, -1353743.0, -21414.576, -0.08698229, -0.18329526, -1263027.5, -107744.695, 0.0007722133, 9.999669, 9.998571 
2.12498e+3, 1.9210905e+2, -1107037.6, -1206268.0, -31260.182, -0.056527663, -0.27391565, -1098011.0, -40708.17, 0.000010944595, 10.0000515, 9.998709 
2.1250136e+3, 2.0210744e+2, -946864.2, -1019764.3, 39781.55, -0.027235843, -0.31759503, -929358.9, 29960.066, 0.0, 10.000218, 9.999244 
2.1250491e+3, 2.12107e+2, -839761.25, -862921.6, 16275.935, -0.013781526, -0.35070768, -831366.25, 29955.684, 0.0, 10.000091, 9.999683 
2.125084e+3, 2.2210674e+2, -757706.0, -814968.06, -66145.63, 0.016748445, -0.32628682, -714260.8, 49062.586, 0.0, 10.000104, 9.999369 
2.1251164e+3, 2.3210669e+2, -582077.8, -657327.25, -76293.29, -0.0092181275, -0.30381948, -534636.2, 130686.02, 0.0, 10.00058, 9.999521 
2.1251489e+3, 2.4210638e+2, -484934.53, -637325.56, -46251.44, -0.025847228, -0.2576568, -471995.56, 95328.49, 0.0, 10.000885, 9.998857 
2.1251819e+3, 2.5210503e+2, -413501.44, -558845.3, -69842.43, -0.0031882066, -0.29647788, -385380.63, 83956.63, 0.0, 10.000767, 9.998764 
2.1252155e+3, 2.621037e+2, -300334.97, -407892.9, 14320.195, 0.052788284, -0.31140777, -298461.03, 72888.32, 0.0, 10.000648, 9.999202 
2.1252507e+3, 2.721025e+2, -196361.16, -245655.06, 30873.113, 0.053058974, -0.41861904, -181503.4, 91853.836, 0.0, 10.00046, 9.999709 
2.1252847e+3, 2.821019e+2, -201126.5, -331996.56, -24063.424, 0.00732014, -0.40244555, -196842.14, -21480.584, 0.000000117451826, 10.000275, 9.99857 
2.1253167e+3, 2.9210195e+2, -174886.86, -304573.38, -31087.04, -0.008698977, -0.2703065, -167820.1, -90453.23, 0.0000050467984, 9.999973, 9.998202 
2.1253516e+3, 3.020989e+2, -128110.016, -387351.2, 149542.6, 0.15052532, -0.32225412, -59830.418, -59830.418, 0.00002697455, 10.000428, 9.997144 
2.1253872e+3, 3.120971e+2, 378050.66, 383422.44, 52734.473, 0.21807912, -0.3294402, 433539.38, 433539.38, 0.00007158717, 10.00163, 10.001828 
2.1347742e+3, 1.3207762e+2, -1685733.6, -1667951.4, -96557.36, -0.22333819, -0.4215677, -1579876.6, 65721.55, 0.38411817, 9.999701, 9.999851 
2.1348098e+3, 1.420763e+2, -1726686.1, -1770013.4, 42846.8, -0.0006827634, -0.49824145, -1700337.6, -152724.8, 0.24951555, 9.9991455, 9.99866 
2.1348445e+3, 1.5207654e+2, -1402574.5, -1482330.0, 40134.27, -0.11184484, -0.43402377, -1385874.9, 63738.73, 0.13052814, 10.000445, 9.999335 
2.1348791e+3, 1.6207649e+2, -1206501.6, -1352823.5, -42525.535, -0.16593085, -0.35934624, -1195040.1, 156576.63, 0.050404422, 10.001173, 9.999213 
2.1349142e+3, 1.7207664e+2, -1208352.8, -1273323.5, -27184.932, -0.007714017, -0.3119659, -1198478.8, 55138.344, 0.012084308, 10.000339, 9.999455 
2.1349485e+3, 1.820764e+2, -1230008.9, -1290065.8, -29271.629, 0.08173603, -0.26063925, -1218102.4, -62481.938, 0.001155736, 9.999733, 9.998978 
2.1349807e+3, 1.9207451e+2, -1095242.9, -1172567.6, -5391.2656, 0.00012759586, -0.37447748, -1094868.8, -37230.945, 0.000030850606, 10.000006, 9.998965 
2.135014e+3, 2.02073e+2, -1026153.5, -1140347.4, 27190.633, -0.060532432, -0.39765084, -1020009.7, -60356.867, 0.0, 10.0000305, 9.9985075 
2.1350496e+3, 2.1207288e+2, -950112.9, -1041343.8, 21800.902, 0.0034510575, -0.29258257, -945170.94, -83512.41, 0.0, 9.999876, 9.998563 
2.1350844e+3, 2.2207269e+2, -785707.7, -793317.75, -60516.617, 0.04192323, -0.19871122, -728876.56, 34785.547, 0.0, 9.999775, 9.999668 
2.1351175e+3, 2.3207195e+2, -555062.6, -554386.75, -45457.21, 0.003000534, -0.3253415, -509266.25, 156397.16, 0.0, 10.00038, 10.000325 
2.1351501e+3, 2.4207109e+2, -523539.88, -650361.7, -55076.727, -0.033257768, -0.38719013, -502960.38, 64706.78, 0.0, 10.000601, 9.9989 
2.135183e+3, 2.5206983e+2, -453913.13, -604254.5, -62339.844, 0.042894892, -0.4024989, -431426.8, 38253.305, 0.0, 10.000598, 9.99853 
2.1352166e+3, 2.6206854e+2, -345527.78, -425694.8, -5127.254, 0.06996404, -0.40012515, -345201.2, 26491.229, 0.0, 10.000336, 9.999223 
2.1352498e+3, 2.720677e+2, -224499.97, -254046.97, 39063.633, -0.10045116, -0.48514566, -197509.58, 76187.74, 0.00000000014169585, 10.000241, 9.999757 
2.1352828e+3, 2.8206778e+2, -213203.98, -244523.19, -49210.465, -0.24296872, -0.4278657, -177221.63, -1527.0419, 0.000000256191, 9.999821, 9.999372 
2.1353172e+3, 2.9206905e+2, -110838.52, -116849.32, -12921.105, 0.036333594, -0.30293536, -100577.9, -22893.15, 0.0000052967753, 9.999723, 9.999613 
2.1353532e+3, 3.020663e+2, -179703.77, -289373.3, 170655.25, 0.24476264, -0.4753268, -55289.92, -55289.92, 0.000025200057, 9.999634, 9.998158 
2.1353854e+3, 3.120666e+2, 83773.78, 82475.195, 114429.51, -0.17505962, -0.31656513, 197555.84, 197555.84, 0.00006359548, 10.000407, 10.000297 
2.1447757e+3, 1.320436e+2, -1593551.6, -1668201.8, -22761.38, -0.08084526, -0.46196964, -1587158.9, 58773.668, 0.40760165, 10.000728, 9.999207 
2.144811e+3, 1.420434e+2, -1518607.0, -1687541.6, 60832.758, 0.15172327, -0.3824857, -1498981.3, 48955.9, 0.26811564, 10.000784, 9.998446 
2.1448447e+3, 1.5204269e+2, -1495565.9, -1546803.3, 84263.375, -0.08777071, -0.3966771, -1433112.8, 16833.676, 0.14296411, 9.999849, 9.999171 
2.1448794e+3, 1.6204229e+2, -1494251.9, -1471384.9, 20247.57, -0.13690892, -0.35199404, -1459565.6, -107613.48, 0.057087187, 9.999067, 9.999404 
2.144915e+3, 1.7204255e+2, -1302196.8, -1275110.1, -13268.671, 0.08004769, -0.33405995, -1269693.5, -15742.871, 0.014719365, 9.999534, 9.999821 
2.1449494e+3, 1.8204235e+2, -1187885.9, -1252130.5, 3228.0647, 0.20055905, -0.3035535, -1187724.1, -31771.443, 0.0017550356, 9.999957, 9.999129 
2.1449815e+3, 1.920409e+2, -945933.2, -1086558.9, 816.9356, 0.036179002, -0.3845572, -945928.44, 112037.14, 0.00008036648, 10.00099, 9.999071 
2.1450144e+3, 2.0203966e+2, -830396.44, -1063179.8, 33495.56, -0.05821528, -0.3830626, -825672.56, 134305.69, 0.000000018813253, 10.001446, 9.998358 
2.14505e+3, 2.1203913e+2, -851779.4, -1026881.5, 55866.684, 0.037763562, -0.29389867, -835473.5, 26514.916, 0.0, 10.000669, 9.99829 
2.1450849e+3, 2.2203861e+2, -736676.75, -768078.8, 55312.484, 0.11309056, -0.2177072, -694880.0, 69115.66, 0.0, 10.000103, 9.99969 
2.145118e+3, 2.3203793e+2, -506424.75, -513492.6, 9796.551, 0.0307535, -0.34545955, -499544.22, 166451.86, 0.0, 10.000651, 10.000476 
2.1451509e+3, 2.4203716e+2, -454127.1, -628168.5, -31762.813, -0.01191003, -0.40477017, -448511.53, 119487.48, 0.0, 10.001115, 9.9988165 
2.1451841e+3, 2.5203583e+2, -387026.94, -592386.06, -66898.305, 0.062099107, -0.4055556, -367156.6, 102856.66, 0.0, 10.001142, 9.998355 
2.1452174e+3, 2.620344e+2, -257972.03, -406710.94, -1607.7668, 0.09762351, -0.39895386, -257954.66, 114073.04, 0.0, 10.001013, 9.999033 
2.14525e+3, 2.7203342e+2, -217941.97, -271204.44, -15652.738, -0.08460356, -0.47717366, -213682.58, 60352.586, 0.00000000016893417, 10.000369, 9.999577 
2.1452829e+3, 2.820336e+2, -196852.42, -228339.56, -90792.06, -0.17767276, -0.4034798, -120449.055, 55582.813, 0.0000002738674, 9.999846, 9.999485 
2.1453176e+3, 2.92035e+2, -50676.855, -32303.545, -153520.27, 0.09898468, -0.28750762, 112304.69, 190324.25, 0.0000047479944, 9.999905, 10.000095 
2.1453533e+3, 3.020332e+2, 36996.246, -63030.945, 51822.387, 0.26449254, -0.4661858, 59002.92, 59002.92, 0.000021563434, 10.000485, 9.999344 
2.1453865e+3, 3.120344e+2, 134931.66, 28713.385, -88579.78, -0.120194316, -0.29853943, 185103.48, 185103.48, 0.000054127682, 10.001011, 9.999644 
2.1547762e+3, 1.3201186e+2, -1582132.8, -1654117.6, 1760.8865, -0.18905729, -0.2695125, -1582089.8, 64159.535, 0.43279883, 10.000906, 9.999185 
2.1548137e+3, 1.4201145e+2, -1478030.4, -1665252.6, -4074.801, 0.23396473, -0.21794844, -1477941.8, 70312.234, 0.28823382, 10.001146, 9.998418 
2.1548454e+3, 1.5200986e+2, -1475030.9, -1531904.4, 52971.69, -0.04877847, -0.33372694, -1443345.6, 6923.116, 0.15688464, 9.999954, 9.999217 
2.154878e+3, 1.6200851e+2, -1473801.3, -1465648.3, 12210.092, -0.22290815, -0.3928226, -1456852.1, -104570.81, 0.06501248, 9.99923, 9.999362 
2.1549138e+3, 1.7200868e+2, -1308300.6, -1286229.1, 9959.29, -0.0051965113, -0.3720687, -1282399.6, -28119.342, 0.018139776, 9.999533, 9.99974 
2.1549487e+3, 1.8200867e+2, -1185108.9, -1263270.0, 20195.855, 0.10729218, -0.31157178, -1180199.0, -23917.998, 0.0026903055, 10.000022, 9.999026 
2.1549816e+3, 1.9200818e+2, -952913.8, -1089246.0, 49361.426, -0.07657786, -0.29606426, -936918.3, 121368.38, 0.00019736934, 10.000943, 9.999073 
2.1550149e+3, 2.0200737e+2, -822188.8, -1015096.56, 8801.736, -0.1911267, -0.26569906, -821788.06, 138507.31, 0.0000007869328, 10.0013075, 9.998755 
2.15505e+3, 2.1200567e+2, -838557.8, -960751.0, 31772.492, -0.033047777, -0.34717938, -830790.2, 31522.428, 0.0, 10.000496, 9.998829 
2.1550848e+3, 2.2200438e+2, -799885.5, -835471.9, 49761.582, 0.06106274, -0.37355474, -764831.6, -506.43588, 0.0, 9.999824, 9.99936 
2.1551181e+3, 2.3200446e+2, -580421.8, -621218.25, 45993.18, -0.04829294, -0.3670945, -550506.44, 115815.47, 0.0, 10.000446, 9.999834 
2.155151e+3, 2.4200432e+2, -527215.94, -694141.3, -35436.535, -0.1239536, -0.31456816, -520004.66, 48317.285, 0.0, 10.000761, 9.998526 
2.1551843e+3, 2.5200278e+2, -427183.9, -632029.56, -54196.074, -0.051305458, -0.3204977, -413729.0, 56609.99, 0.0, 10.000951, 9.998173 
2.1552172e+3, 2.6200095e+2, -336936.47, -495404.88, -24405.402, -0.03246459, -0.32856774, -333263.0, 39095.32, 0.0, 10.000697, 9.998572 
2.1552509e+3, 2.7199924e+2, -283483.94, -364178.8, -24942.166, -0.04551798, -0.42714292, -276396.9, -2022.2219, 0.0, 10.000178, 9.999033 
2.1552847e+3, 2.8199866e+2, -304314.5, -341472.6, -109310.47, -0.01571853, -0.3730207, -212015.42, -35635.105, 0.000000100631844, 9.999415, 9.998898 
2.155317e+3, 2.9199964e+2, -148124.53, -151934.03, -117524.664, 0.03353248, -0.2419033, -32489.184, 45882.953, 0.0000031808167, 9.999556, 9.999438 
2.1553501e+3, 3.0199847e+2, -23778.637, 29431.176, 53586.91, -0.1388117, -0.36037615, 62654.176, 62654.176, 0.000016664693, 9.999607, 10.000371 
2.1553884e+3, 3.120019e+2, -45814.98, -138081.02, 93205.875, -0.10845893, -0.12736869, 12050.032, 12050.032, 0.000045618737, 10.000136, 9.998912 
2.1647748e+3, 1.3197564e+2, -2063540.8, -1712879.5, -35198.438, -0.1549834, -0.29400685, -1709381.3, -62772.82, 0.45757636, 9.996507, 10.000939 
2.1648134e+3, 1.419766e+2, -1523807.4, -1561910.8, -51874.656, 0.17172001, -0.23156452, -1487596.5, 60999.02, 0.3088363, 10.0001955, 9.999647 
2.1648458e+3, 1.5197605e+2, -1382694.5, -1420873.0, -15694.16, -0.017811304, -0.32385123, -1377071.4, 73527.76, 0.17204043, 10.000422, 9.999776 
2.1648784e+3, 1.619751e+2, -1377484.6, -1442269.3, -6741.8403, -0.111185625, -0.36769816, -1376790.5, -24183.248, 0.07433442, 9.999954, 9.9991865 
2.1649133e+3, 1.7197442e+2, -1218082.1, -1284070.4, -25764.322, -0.028333884, -0.3989036, -1209214.5, 45400.355, 0.022589553, 10.000301, 9.999406 
2.164948e+3, 1.8197404e+2, -1144373.0, -1224854.8, -3867.854, 0.027482942, -0.36025426, -1144187.5, 12432.49, 0.00413868, 10.000248, 9.999172 
2.1649821e+3, 1.9197439e+2, -1108342.9, -1137265.3, 14277.064, -0.048632633, -0.28275666, -1102482.6, -43864.266, 0.00045452762, 9.999769, 9.999315 
2.1650161e+3, 2.019742e+2, -1064897.9, -1083962.9, -2350.9277, -0.0753645, -0.22196105, -1064612.3, -103991.305, 0.000007502901, 9.999414, 9.999201 
2.1650504e+3, 2.1197234e+2, -858440.6, -909401.9, -4299.349, -0.031249275, -0.3682082, -858080.44, 4556.598, 0.0, 10.000099, 9.999374 
2.1650845e+3, 2.2197098e+2, -723191.56, -828847.56, 41296.0, 0.011336957, -0.42525306, -708966.2, 55682.766, 0.0, 10.000498, 9.999068 
2.1651186e+3, 2.3197101e+2, -654740.9, -735586.75, 14175.117, -0.0025395835, -0.36400354, -652327.5, 14321.669, 0.0, 10.000273, 9.999129 
2.1651526e+3, 2.4197067e+2, -604936.94, -731066.56, -38206.51, -0.0055946507, -0.28133103, -594266.4, -25613.32, 0.0, 10.000209, 9.998544 
2.1651848e+3, 2.5196913e+2, -425828.4, -579511.1, -42547.754, -0.07496761, -0.3168846, -414835.22, 55833.47, 0.0, 10.000766, 9.998606 
2.1652173e+3, 2.6196772e+2, -285895.47, -500103.3, 16681.686, -0.11952991, -0.3070314, -284604.16, 88079.33, 0.0, 10.001163, 9.998322 
2.165252e+3, 2.719662e+2, -209027.16, -385514.63, -13362.247, -0.0006972096, -0.33074713, -208021.2, 66678.51, 0.0, 10.000943, 9.998513 
2.1652861e+3, 2.8196478e+2, -149607.05, -320713.72, -58339.438, 0.13161714, -0.31472975, -131609.13, 45105.926, 0.0000000029805467, 10.00069, 9.998433 
2.1653163e+3, 2.919639e+2, -67996.35, -164112.27, -93689.46, -0.018710237, -0.31203347, -10758.1455, 67967.28, 0.000001345268, 10.0003395, 9.998973 
2.1653487e+3, 3.0196476e+2, 53885.73, 122384.81, 97588.914, -0.22488685, -0.2305729, 191559.77, 191559.77, 0.000010778314, 9.999892, 10.000875 
2.1653897e+3, 3.1196666e+2, -178602.61, -196817.63, 32673.12, 0.06392543, -0.20190766, -153791.4, -153791.4, 0.00003608632, 9.999236, 9.998932 
2.1747732e+3, 1.3193609e+2, -1805664.3, -1400598.0, -20555.85, -0.053941216, -0.37174314, -1399557.6, 247440.92, 0.48078975, 9.996746, 10.004403 
2.1748103e+3, 1.4193945e+2, -1402858.6, -1348787.3, 13085.354, -0.25172052, -0.41573235, -1345787.0, 203168.6, 0.32934, 10.000467, 10.001586 
2.1748455e+3, 1.5194131e+2, -1339196.4, -1339620.3, -18910.258, -0.11422085, -0.35416585, -1320496.9, 130439.734, 0.18832743, 10.000472, 10.000442 
2.17488e+3, 1.619418e+2, -1372745.4, -1475438.8, -13919.165, 0.0054617003, -0.27870098, -1370892.3, -17959.94, 0.0852701, 10.000133, 9.998871 
2.1749131e+3, 1.7193985e+2, -1236802.9, -1339921.1, -2468.6628, -0.12180202, -0.40356332, -1236743.9, 18209.984, 0.028395085, 10.00037, 9.998982 
2.1749462e+3, 1.8193847e+2, -1121273.8, -1195607.4, -28787.836, -0.20437334, -0.4459987, -1111428.8, 45540.676, 0.006367479, 10.00033, 9.999331 
2.1749827e+3, 1.9193932e+2, -1089304.9, -1087727.9, 1256.9888, -0.002022054, -0.3512008, -1087032.5, -28070.059, 0.0009868387, 9.999724, 9.999673 
2.1750179e+3, 2.0193982e+2, -1052972.8, -1028366.6, -739.3907, 0.110258, -0.261935, -1028344.44, -67386.484, 0.000047582707, 9.999272, 9.999655 
2.1750501e+3, 2.1193899e+2, -849602.8, -842762.7, 32433.156, -0.07214707, -0.35980853, -813569.75, 49393.164, 0.00000000032497088, 9.999889, 9.999933 
2.1750833e+3, 2.2193821e+2, -799378.5, -908055.9, 33093.613, -0.18308486, -0.38304874, -790094.25, -25125.305, 0.0, 10.000164, 9.998683 
2.1751197e+3, 2.3193718e+2, -743109.6, -867665.4, 16769.344, 0.0439562, -0.35300407, -740891.44, -73910.055, 0.0, 10.00006, 9.99832 
2.1751548e+3, 2.4193591e+2, -639708.7, -714664.3, -36200.74, 0.15355963, -0.32358757, -625080.06, -56084.75, 0.0, 9.999843, 9.998823 
2.1751851e+3, 2.519347e+2, -401437.4, -477770.72, -9555.52, -0.13037732, -0.40200514, -400259.4, 70745.234, 0.0, 10.000552, 9.999403 
2.1752165e+3, 2.6193437e+2, -347108.34, -538106.0, 3058.7324, -0.326309, -0.33308357, -347059.38, 25947.375, 0.0, 10.000799, 9.998227 
2.1752521e+3, 2.7193415e+2, -282152.22, -478959.34, -6601.9443, -0.07583088, -0.18459317, -281931.0, -6918.742, 0.0, 10.000706, 9.997979 
2.1752864e+3, 2.8193167e+2, -251616.45, -422644.6, -84261.93, 0.05628797, -0.22153276, -217077.5, -40037.63, 0.0, 10.000243, 9.997937 
2.1753147e+3, 2.919274e+2, -149947.7, -270628.88, -90746.805, -0.24977134, -0.5234294, -101311.375, -22227.928, 0.00000028754212, 10.00007, 9.998364 
2.1753484e+3, 3.0193046e+2, -78911.055, 8731.681, 49625.34, -0.30591625, -0.14121152, 31114.441, 31114.441, 0.0000061263827, 9.999258, 10.000367 
2.1753912e+3, 3.1193122e+2, -268917.16, -169577.89, 132137.92, 0.21619673, -0.24577785, -78082.71, -78082.71, 0.000027574106, 9.9983425, 9.999534 
2.1848105e+3, 1.4190665e+2, -1488800.4, -1351236.9, 27857.818, -0.18807712, -0.5052631, -1345809.5, 203464.38, 0.34983045, 9.999236, 10.0022135 
2.184846e+3, 1.5190907e+2, -1443140.1, -1435649.9, 75996.84, -0.06615243, -0.31769738, -1363306.0, 87942.53, 0.2059314, 9.999834, 10.000025 
2.1848801e+3, 1.6190776e+2, -1442745.0, -1494374.5, 89615.08, 0.03208525, -0.41411006, -1375300.6, -22038.67, 0.09816949, 9.999607, 9.998992 
2.1849133e+3, 1.7190681e+2, -1364449.3, -1389662.5, 119413.09, -0.09124371, -0.44247437, -1256979.1, -1705.5317, 0.036017943, 9.999493, 9.999047 
2.1849462e+3, 1.8190588e+2, -1253472.4, -1297878.1, 125027.46, -0.18585132, -0.4359577, -1148691.6, 8593.624, 0.009796201, 9.99955, 9.999018 
2.1849829e+3, 1.9190563e+2, -1015741.7, -1104753.0, 79983.48, 0.037480053, -0.4099615, -968715.3, 90574.96, 0.0020521113, 10.000433, 9.999214 
2.1850185e+3, 2.0190556e+2, -844086.4, -948110.6, 45036.098, 0.19632903, -0.34091458, -827297.94, 133994.58, 0.00020967671, 10.000816, 9.999459 
2.1850505e+3, 2.1190561e+2, -810568.06, -836880.2, -2694.2192, -0.0158468, -0.3404606, -810295.0, 52995.402, 0.00000086887735, 10.000216, 9.99982 
2.1850835e+3, 2.2190522e+2, -851145.5, -956863.25, 6798.3477, -0.14590415, -0.30735576, -850710.1, -85416.734, 0.0, 9.999887, 9.998498 
2.1851198e+3, 2.319033e+2, -625409.8, -821326.2, 16613.521, 0.024480747, -0.3472979, -624011.0, 43302.875, 0.0, 10.00093, 9.998216 
2.1851553e+3, 2.4190135e+2, -371278.56, -593410.75, -399.54227, 0.13363662, -0.37812036, -371277.84, 198056.0, 0.0, 10.001704, 9.998768 
2.1851867e+3, 2.519002e+2, -281941.66, -431575.84, -57298.758, -0.059721973, -0.4418329, -262521.03, 208821.61, 0.0, 10.001387, 9.999335 
2.1852188e+3, 2.6190013e+2, -321650.56, -507925.06, -73208.055, -0.17345934, -0.35074025, -296322.78, 77019.43, 0.0, 10.000877, 9.998408 
2.1852529e+3, 2.719002e+2, -311220.34, -467538.7, -70025.27, -0.059788615, -0.18558429, -284439.56, -9095.016, 0.0, 10.000391, 9.998221 
2.1852857e+3, 2.818979e+2, -246747.67, -405057.22, -63984.863, -0.011691738, -0.2350954, -224120.63, -46750.406, 0.0, 10.000167, 9.998118 
2.1853152e+3, 2.9189304e+2, -84416.61, -250945.92, -68734.336, -0.20843035, -0.59178525, -59711.77, 19706.973, 0.000000027227998, 10.000534, 9.998297 
2.1853499e+3, 3.018961e+2, 84981.74, -16354.229, 98673.29, -0.10957539, -0.16240643, 145235.64, 145235.64, 0.0000044959556, 10.000745, 9.999527 
2.185389e+3, 3.1189558e+2, 24039.74, 138749.92, -7534.401, 0.1331602, -0.29410142, 139242.69, 139242.69, 0.000025056477, 9.999497, 10.001165 
2.1948135e+3, 1.4187545e+2, -1470231.6, -1276938.8, -284210.78, 0.07504841, -0.599163, -1073391.4, 476185.66, 0.371045, 9.999354, 10.003192 
2.1948467e+3, 1.5187868e+2, -1498897.6, -1574812.3, 109180.13, -0.022339774, -0.22288235, -1421264.9, 30276.11, 0.22535217, 9.999932, 9.998966 
2.1948779e+3, 1.6187292e+2, -1381098.6, -1384924.6, 54475.777, -0.21139412, -0.761431, -1328502.3, 25094.11, 0.113554515, 9.999701, 9.999707 
2.1949133e+3, 1.7187509e+2, -1340167.0, -1331634.1, 125064.54, -0.04758608, -0.52148235, -1210763.3, 44813.234, 0.046104282, 9.999468, 9.999466 
2.1949475e+3, 1.8187585e+2, -1289741.6, -1387644.0, 142926.86, -0.076240584, -0.3505649, -1187615.8, -30044.193, 0.015073848, 9.999609, 9.998377 
2.1949826e+3, 1.9187336e+2, -1101316.0, -1274058.3, 120733.44, -0.045257438, -0.44207296, -1039240.06, 20361.404, 0.004138987, 10.0004, 9.99807 
2.1950178e+3, 2.0187148e+2, -932734.25, -1099269.0, 23145.271, 0.008172263, -0.44248074, -929577.4, 32047.008, 0.00072646124, 10.000678, 9.998485 
2.1950513e+3, 2.1187198e+2, -901940.7, -974512.44, -20912.406, 0.00045860538, -0.3115779, -896345.9, -32724.465, 0.000022642807, 9.999999, 9.99897 
2.1950845e+3, 2.2187187e+2, -898704.56, -977868.1, 16265.592, -0.052937984, -0.19669431, -895492.8, -129869.42, 0.000000000011542125, 9.999551, 9.998513 
2.195119e+3, 2.3186924e+2, -621488.3, -769277.3, 70146.95, -0.17659234, -0.35236594, -593495.7, 74152.17, 0.0, 10.000734, 9.998666 
2.1951535e+3, 2.4186687e+2, -465174.44, -686052.7, -8477.513, -0.23720181, -0.43955383, -464849.53, 104820.445, 0.0, 10.001281, 9.998326 
2.195189e+3, 2.5186563e+2, -377137.25, -575125.8, -60046.75, -0.0012251004, -0.43576127, -360349.5, 111333.35, 0.0, 10.001159, 9.998454 
2.195223e+3, 2.6186484e+2, -373493.16, -511178.38, -102703.29, 0.12943976, -0.36079308, -318694.06, 54997.156, 0.0, 10.000452, 9.998574 
2.1952532e+3, 2.7186415e+2, -298128.97, -375056.75, -71924.92, -0.095480956, -0.34652996, -255028.98, 20669.854, 0.0, 10.000133, 9.9989605 
2.1952836e+3, 2.8186283e+2, -263203.34, -339982.2, -73315.43, -0.27031398, -0.37362137, -218834.67, -41122.367, 0.0, 9.999766, 9.998747 
2.1953176e+3, 2.9186064e+2, -102089.59, -222139.75, -31625.94, -0.0614012, -0.5104481, -94267.71, -14534.917, 0.000000020729713, 10.000259, 9.998624 
2.1953525e+3, 3.0186093e+2, -110160.09, -250015.28, 68575.93, 0.025606364, -0.3057932, -82146.234, -82146.234, 0.0000055230016, 10.000062, 9.998218 
2.195383e+3, 3.1185812e+2, -91681.125, 167431.92, -44663.21, -0.44381365, -0.5525699, 174914.44, 174914.44, 0.000029811183, 9.998444, 10.001821 
2.2048113e+3, 1.4184202e+2, -1649073.3, -1353565.0, -206249.86, 0.019310545, -0.7494908, -1247606.1, 302299.2, 0.39437363, 9.9977665, 10.003212 
2.2048469e+3, 1.5184467e+2, -1555954.8, -1635405.8, -5288.969, 0.03670699, -0.340598, -1555604.3, -103729.86, 0.24751917, 9.999667, 9.998652 
2.2048777e+3, 1.6184078e+2, -1409586.9, -1381992.5, -70278.164, -0.17511305, -0.68549275, -1324170.0, 29741.06, 0.13222682, 9.999408, 9.999894 
2.204913e+3, 1.7184238e+2, -1220006.5, -1264522.9, -20470.99, -0.034871385, -0.5158097, -1212024.1, 43871.074, 0.059555795, 10.000203, 9.999601 
2.204948e+3, 1.8184261e+2, -1158929.8, -1337625.3, 23928.502, -0.0062101493, -0.40099373, -1155781.1, 2113.2825, 0.023171267, 10.000556, 9.998272 
2.2049834e+3, 1.9184037e+2, -1090799.1, -1299950.6, 39935.79, -0.012997761, -0.44386715, -1083433.1, -23510.59, 0.008108057, 10.000591, 9.997821 
2.2050186e+3, 2.0183858e+2, -982521.0, -1166009.5, 4132.5557, 0.02457727, -0.40373066, -982428.0, -20482.506, 0.0021629941, 10.000511, 9.998119 
2.2050518e+3, 2.1183825e+2, -817783.06, -980769.75, -31657.959, 0.03425854, -0.31392455, -811849.94, 52101.84, 0.00023583506, 10.000761, 9.99857 
2.205085e+3, 2.218374e+2, -709852.7, -869080.94, 65094.918, 0.006024269, -0.2491372, -686628.3, 79333.03, 0.0000019906881, 10.000768, 9.998678 
2.2051191e+3, 2.3183544e+2, -675624.9, -758779.0, 90508.03, -0.17588943, -0.3719267, -617600.94, 50377.25, 0.0, 10.000188, 9.999018 
2.2051539e+3, 2.4183364e+2, -680849.75, -785245.5, 37040.24, -0.23359653, -0.4209275, -669043.0, -99048.83, 0.0, 9.9997635, 9.9983835 
2.2051898e+3, 2.518327e+2, -537511.94, -645256.06, 7875.1787, 0.028463194, -0.38924477, -536939.4, -64933.527, 0.0, 10.000077, 9.998472 
2.2052239e+3, 2.6183173e+2, -386916.28, -536688.06, 15154.642, 0.18324815, -0.3292949, -385398.25, -11380.765, 0.0, 10.000418, 9.998427 
2.2052534e+3, 2.7183032e+2, -208656.97, -366436.88, -32221.605, -0.096079856, -0.361502, -202330.39, 73702.25, 0.0, 10.000852, 9.998695 
2.2052844e+3, 2.8182948e+2, -62343.008, -227955.34, -60537.92, -0.23174313, -0.33356744, -42573.83, 135468.03, 0.0, 10.001088, 9.998873 
2.2053194e+3, 2.9182824e+2, 42559.957, -118382.836, -88943.53, 0.061921034, -0.38051915, 82032.7, 162084.7, 0.00000007580395, 10.001127, 9.998912 
2.2053535e+3, 3.0182707e+2, -80230.98, -329848.3, 29557.111, 0.11461008, -0.323956, -76778.875, -76778.875, 0.0000083740215, 10.000632, 9.997416 
2.2053833e+3, 3.1182513e+2, -61255.57, 106456.984, -204494.44, -0.2775537, -0.34110132, 243620.72, 243620.72, 0.000042885644, 9.998936, 10.001163 
2.2148056e+3, 1.418132e+2, -1789337.6, -1529554.9, 392586.47, -0.39254037, -0.26719272, -1245929.8, 304262.5, 0.4221777, 9.997622, 10.002023 
2.2148466e+3, 1.5180673e+2, -1554791.4, -1619814.3, 13672.556, 0.030894987, -0.6737508, -1552033.4, -99781.125, 0.27423543, 9.999626, 9.998786 
2.2148786e+3, 1.6181105e+2, -1401029.8, -1402715.3, -78165.61, -0.060653266, -0.17182277, -1323702.4, 30506.541, 0.15564767, 9.999579, 9.999664 
2.2149122e+3, 1.718087e+2, -1217526.0, -1259305.9, 9477.27, -0.19315164, -0.4081078, -1215476.8, 40752.906, 0.07778218, 10.000216, 9.999622 
2.2149478e+3, 1.8180619e+2, -1130217.3, -1289190.8, 16548.424, -0.13869199, -0.5758409, -1128512.9, 29740.662, 0.035576556, 10.000608, 9.998583 
2.2149846e+3, 1.9180657e+2, -1063817.3, -1217581.3, 47266.23, 0.016359398, -0.40960798, -1050449.9, 9804.54, 0.0154146915, 10.000484, 9.998434 
2.2150198e+3, 2.0180662e+2, -988883.8, -1144367.8, 2017.5181, 0.07407125, -0.2358342, -988857.6, -26599.703, 0.005714695, 10.000354, 9.998345 
2.215052e+3, 2.1180424e+2, -840164.94, -984641.8, -10316.927, -0.041825946, -0.3575591, -839431.9, 24850.996, 0.0013616167, 10.000576, 9.9986315 
2.2150844e+3, 2.2180209e+2, -755365.6, -879626.7, 40008.125, -0.14767592, -0.43323186, -743598.56, 22706.277, 0.00013056793, 10.00041, 9.998777 
2.2151203e+3, 2.3180166e+2, -694312.9, -748613.3, 79284.25, -0.10360984, -0.4164009, -637659.0, 30648.373, 0.0000045921656, 9.999972, 9.999192 
2.2151555e+3, 2.4180144e+2, -713355.3, -748488.4, 21186.646, -0.06007617, -0.3330233, -703399.94, -133091.11, 0.000000030624218, 9.99934, 9.998829 
2.2151887e+3, 2.5180098e+2, -529997.56, -564562.44, 30658.014, -0.07959548, -0.3149541, -512086.28, -39770.906, 0.0, 9.999815, 9.999144 
2.2152212e+3, 2.618001e+2, -483293.13, -636237.0, 12739.142, -0.15143004, -0.27541682, -482239.3, -107911.96, 0.0, 10.000009, 9.997934 
2.2152534e+3, 2.717985e+2, -322440.28, -533898.25, -5363.7344, -0.19338645, -0.24222137, -322304.3, -45955.863, 0.0, 10.000573, 9.99767 
2.2152866e+3, 2.817975e+2, -185414.48, -361065.38, -68496.23, -0.14880985, -0.12952498, -161862.02, 16499.746, 0.0, 10.000589, 9.998184 
2.2153203e+3, 2.9179546e+2, -19566.803, -167955.67, -66330.195, 0.017840065, -0.2299737, 5760.161, 86140.19, 0.00000027397763, 10.000807, 9.998713 
2.2153524e+3, 3.0179387e+2, -183273.0, -400414.94, -34835.75, -0.11289284, -0.21638127, -177821.22, -177821.22, 0.000015050563, 10.000064, 9.997176 
2.2153854e+3, 3.1179416e+2, -392125.88, -352626.06, -104161.15, -0.011872187, 0.052867893, -266358.97, -266358.97, 0.00007034586, 9.998017, 9.9984255 
2.2248079e+3, 1.4177452e+2, -1549827.3, -1392733.5, 287768.47, -0.039537307, -0.046239145, -1172984.8, 377589.47, 0.45833316, 9.999257, 10.002499 
2.2248457e+3, 1.5177035e+2, -1447267.4, -1459827.8, -140652.73, -0.034300692, -0.7263363, -1312754.8, 139858.84, 0.30885017, 10.00007, 9.9998455 
2.2248787e+3, 1.6177668e+2, -1549826.6, -1488530.3, -98441.29, 0.036689032, -0.05852605, -1416076.6, -61524.94, 0.18666483, 9.998589, 9.999535 
2.224912e+3, 1.7177384e+2, -1264449.8, -1258466.5, -17366.258, -0.18042038, -0.35854816, -1243836.1, 12740.579, 0.103338934, 9.999783, 9.999838 
2.2249483e+3, 1.8177132e+2, -1161548.9, -1251133.6, -9787.719, -0.112525396, -0.5578125, -1160492.0, -1892.8256, 0.054786276, 10.0001335, 9.999087 
2.2249849e+3, 1.9177178e+2, -1111727.3, -1162997.4, -790.20135, 0.048562255, -0.44816646, -1111715.0, -51119.93, 0.028543482, 9.999797, 9.999141 
2.2250201e+3, 2.0177193e+2, -1063049.0, -1137365.8, 11818.469, 0.11428738, -0.32914603, -1061214.9, -98620.24, 0.013685946, 9.999676, 9.998707 
2.2250524e+3, 2.1177013e+2, -815601.8, -958705.75, -12502.735, -0.040844284, -0.40783924, -814517.6, 50096.574, 0.005262215, 10.000701, 9.998747 
2.2250855e+3, 2.2176848e+2, -599527.4, -814519.2, 34390.957, -0.12959571, -0.4355062, -594160.0, 172472.03, 0.001420654, 10.001495, 9.998713 
2.2251214e+3, 2.3176824e+2, -524244.66, -675729.94, 23250.129, -0.035031643, -0.3927465, -520756.53, 147878.27, 0.0002619265, 10.00116, 9.99913 
2.2251564e+3, 2.4176799e+2, -509940.2, -641778.6, -19517.48, 0.036183547, -0.3062789, -507111.5, 63526.133, 0.000035642544, 10.000691, 9.99892 
2.2251888e+3, 2.517675e+2, -417040.72, -492616.0, -53779.297, -0.098480895, -0.31063926, -389100.75, 83543.88, 0.0000011567587, 10.000471, 9.999349 
2.2252207e+3, 2.6176667e+2, -416244.66, -565965.75, -45456.586, -0.19946854, -0.28671136, -403524.38, -28869.041, 0.0, 10.000298, 9.998282 
2.2252546e+3, 2.717655e+2, -252152.64, -443921.88, -1552.8267, -0.13398224, -0.24325609, -252140.06, 24530.611, 0.0, 10.00085, 9.998149 
2.2252886e+3, 2.817648e+2, -137442.73, -366890.84, 21581.77, -0.014988453, -0.12713607, -135430.4, 43250.48, 0.0, 10.001015, 9.997964 
2.2253205e+3, 2.9176244e+2, -48582.7, -239233.63, -20691.21, -0.011745575, -0.19561374, -46362.94, 34342.348, 0.00000073017384, 10.000852, 9.998204 
2.2253525e+3, 3.017616e+2, -47107.688, -286959.28, -9330.921, -0.1020812, -0.11657441, -46745.234, -46745.234, 0.00002755439, 10.000763, 9.997645 
2.2253858e+3, 3.1175894e+2, -22688.564, -129495.086, -98816.98, 0.1053816, -0.15017994, 36232.27, 36232.27, 0.000118261974, 10.000285, 9.998919 
2.2348431e+3, 1.5173611e+2, -1392274.4, -1269393.6, -241262.05, -0.34260073, -0.40209165, -1081871.5, 371081.0, 0.35698506, 9.9998, 10.001916 
2.2348772e+3, 1.6173686e+2, -1570174.9, -1523341.3, -86841.055, -0.047303762, -0.4094196, -1456815.3, -101868.05, 0.23053116, 9.998547, 9.999317 
2.2349128e+3, 1.7173737e+2, -1255639.0, -1222157.9, 25548.113, -0.111122295, -0.39576137, -1208354.1, 48586.15, 0.14104874, 9.999686, 10.000168 
2.2349487e+3, 1.8173783e+2, -1120985.6, -1153621.6, -21135.83, -0.11912305, -0.3574119, -1110601.5, 48331.164, 0.08532412, 10.000107, 9.999773 
2.2349842e+3, 1.9173597e+2, -1067427.6, -1049302.9, -8052.7, -0.035470452, -0.5574686, -1046242.0, 14702.808, 0.05187056, 9.999701, 9.999973 
2.2350188e+3, 2.0173465e+2, -1067813.4, -1097973.3, 22189.072, -0.022309026, -0.65263283, -1056065.0, -93111.164, 0.030293982, 9.999468, 9.999077 
2.235053e+3, 2.1173568e+2, -832281.7, -944919.06, 37137.18, -0.08330543, -0.47089598, -821139.56, 43808.406, 0.015773455, 10.000494, 9.99894 
2.2350875e+3, 2.2173634e+2, -671803.94, -869466.9, 27210.516, -0.12016248, -0.27104178, -668126.56, 98819.234, 0.0069356123, 10.001102, 9.998514 
2.235122e+3, 2.3173504e+2, -574173.5, -729379.75, 20479.738, -0.10287143, -0.31588265, -571516.6, 97444.82, 0.002541045, 10.000942, 9.9988575 
2.2351557e+3, 2.4173339e+2, -599364.3, -729185.44, -45553.23, -0.12741211, -0.33581156, -584974.94, -13995.012, 0.00075579167, 10.000282, 9.998507 
2.2351885e+3, 2.5173226e+2, -474471.47, -548389.06, -50089.93, -0.16636126, -0.3781038, -449181.13, 23811.023, 0.00014769337, 10.000201, 9.999089 
2.2352214e+3, 2.6173154e+2, -435004.94, -482967.38, -55066.883, -0.18719287, -0.35076466, -398924.0, -23923.992, 0.000007045108, 9.999802, 9.999074 
2.2352563e+3, 2.7173132e+2, -188982.42, -242774.19, 30515.508, -0.069942445, -0.3591474, -175201.72, 101798.61, 0.00000000065814787, 10.000556, 9.999657 
2.2352898e+3, 2.8173098e+2, -218141.88, -399865.13, -11004.147, -0.036682837, -0.3193473, -217477.94, -38474.266, 0.0, 10.000479, 9.9979725 
2.2353198e+3, 2.9172912e+2, -199753.34, -426883.75, -11130.625, -0.2027329, -0.28014296, -199209.19, -118179.875, 0.0000012574419, 10.000348, 9.997135 
2.2353533e+3, 3.0172923e+2, -161450.23, -311179.2, -41531.047, -0.17316239, -0.020282166, -150702.11, -150702.11, 0.000044073433, 9.999902, 9.997867 
2.235385e+3, 3.1172302e+2, -10791.696, 198311.2, -32578.943, -0.04783555, -0.5494108, 203269.53, 203269.53, 0.00018419352, 9.999091, 10.001704 
2.2448425e+3, 1.5170537e+2, -2002381.5, -1778916.0, -74443.06, -0.25280848, -0.067586266, -1756387.9, -303134.1, 0.42759266, 9.996385, 9.999061 
2.244878e+3, 1.617002e+2, -1336568.0, -1383896.1, 44659.223, 0.11459306, -0.5616147, -1309690.6, 45616.39, 0.29616648, 10.0001335, 9.999554 
2.2449128e+3, 1.7170282e+2, -1164535.1, -1145787.3, 105177.96, -0.06912442, -0.37103382, -1049566.4, 207713.03, 0.19952731, 10.000274, 10.000565 
2.244948e+3, 1.8170479e+2, -1111099.0, -1118810.9, 68834.375, -0.16596404, -0.21980396, -1046012.7, 113243.875, 0.13536815, 10.000068, 10.000075 
2.2449839e+3, 1.9170259e+2, -890692.6, -946557.25, 16827.332, -0.070462555, -0.47624308, -886015.56, 175255.66, 0.09319166, 10.000938, 10.00017 
2.2450192e+3, 2.0170084e+2, -797208.94, -993725.1, 23477.922, 0.00048409833, -0.6213402, -794443.0, 168841.14, 0.06306426, 10.001467, 9.998875 
2.2450536e+3, 2.1170115e+2, -814671.56, -977844.25, -23619.36, -0.04235764, -0.46792683, -811321.44, 53963.76, 0.0400799, 10.000768, 9.998613 
2.245088e+3, 2.2170131e+2, -783785.2, -903858.0, -35533.82, -0.08427796, -0.2995453, -774057.56, -6769.23, 0.023131557, 10.000218, 9.99872 
2.2451223e+3, 2.3170051e+2, -678002.7, -725800.7, -36702.82, -0.09930533, -0.33379212, -658103.75, 11195.487, 0.011994159, 9.999998, 9.999343 
2.245156e+3, 2.416995e+2, -585119.56, -671492.9, -12304.035, -0.0947387, -0.33087564, -583401.06, -12089.5, 0.0054928027, 10.000109, 9.999011 
2.2451892e+3, 2.5169912e+2, -346995.1, -411017.97, 32581.293, -0.12819427, -0.36353353, -333330.78, 139984.64, 0.002050329, 10.000737, 9.999785 
2.2452222e+3, 2.6169872e+2, -289630.06, -420196.16, 69064.086, -0.11774661, -0.3400485, -259877.73, 115441.05, 0.0004876709, 10.000804, 9.999038 
2.2452573e+3, 2.716979e+2, -185856.92, -267613.2, 26803.24, -0.014992128, -0.38450527, -177853.2, 99472.43, 0.000047167257, 10.000684, 9.999435 
2.2452903e+3, 2.816973e+2, -223984.17, -323764.6, -90041.055, 0.024653466, -0.38905343, -170935.44, 8396.282, 0.00000034188096, 10.000082, 9.998695 
2.2453198e+3, 2.9169604e+2, -195133.58, -330142.3, -19962.098, -0.19085552, -0.35956058, -192243.88, -110894.164, 0.0000013302117, 9.999923, 9.9980345 
2.245353e+3, 3.0169657e+2, -251689.42, -338287.13, 75097.445, -0.115583606, -0.13677472, -208302.53, -208302.53, 0.0000584347, 9.999144, 9.998057 
2.2453848e+3, 3.1169233e+2, -104406.65, 293838.6, -115053.61, 0.095949784, -0.43899214, 324688.03, 324688.03, 0.00025945, 9.99772, 10.003034 
2.25488e+3, 1.6166766e+2, -1419858.5, -1440513.5, 78631.28, 0.23136057, -0.39785463, -1350879.4, 4742.2744, 0.39765337, 9.999538, 9.999403 
2.2549126e+3, 1.7167003e+2, -1158234.8, -1112398.4, 78943.47, -0.18755016, -0.29110527, -1053113.8, 204481.52, 0.29298013, 10.000193, 10.001039 
2.2549462e+3, 1.8167195e+2, -1178406.6, -1197230.9, 51582.59, -0.437497, -0.15898007, -1135384.5, 24188.625, 0.21888196, 9.999789, 9.999615 
2.254984e+3, 1.9167116e+2, -970372.9, -1040241.3, 43878.113, -0.19763196, -0.23339829, -949220.6, 112358.62, 0.16615056, 10.000678, 9.99958 
2.255021e+3, 2.0167007e+2, -897365.1, -1133497.6, 8331.403, -0.026632516, -0.26134026, -897071.56, 66517.95, 0.12546477, 10.001168, 9.998036 
2.2550544e+3, 2.1166644e+2, -903475.4, -1121536.4, -40815.63, -0.07425329, -0.42401987, -896086.1, -30458.738, 0.0914258, 10.000581, 9.997698 
2.2550876e+3, 2.2166349e+2, -826612.06, -901368.56, -55068.633, -0.20451352, -0.5106537, -797434.4, -29775.826, 0.062582165, 9.999825, 9.998927 
2.2551224e+3, 2.3166464e+2, -642826.75, -601043.5, -30066.076, -0.13252528, -0.44225526, -585323.25, 84325.766, 0.039919913, 9.999755, 10.00034 
2.2551568e+3, 2.416662e+2, -604295.9, -541630.94, -16015.434, -0.07003395, -0.28371862, -537775.06, 33859.516, 0.023601582, 9.99941, 10.000228 
2.2551902e+3, 2.5166783e+2, -292002.7, -202277.31, 62260.742, -0.13271369, -0.2786501, -170399.78, 303216.47, 0.012405956, 10.000361, 10.001406 
2.2552226e+3, 2.6166788e+2, -442528.28, -604143.7, 35445.67, -0.18385021, -0.27138242, -435096.06, -59480.97, 0.005154125, 10.000261, 9.998025 
2.255257e+3, 2.7166504e+2, -382850.7, -566082.6, 30198.467, -0.12088982, -0.3580919, -378002.0, -100354.04, 0.0013586987, 10.000234, 9.99759 
2.2552899e+3, 2.8166345e+2, -272333.53, -251512.25, -130927.57, -0.072914235, -0.36763757, -130582.08, 49085.137, 0.00015517221, 9.999387, 9.999505 
2.2553205e+3, 2.9166347e+2, -94147.21, 8975.071, -7452.08, -0.14810745, -0.4138792, 9510.809, 91174.58, 0.0000026982873, 9.999445, 10.000553 
2.2553512e+3, 3.016638e+2, -369287.47, -407876.3, -6237.0435, -0.25559503, -0.3965661, -368304.44, -368304.44, 0.000065484004, 9.998455, 9.997887 
2.2553818e+3, 3.1166285e+2, -274285.0, 154767.48, 31460.422, -0.031960543, -0.21818097, 157062.06, 157062.06, 0.00034262822, 9.99688, 10.002466 
2.2649151e+3, 1.7163187e+2, -1097158.3, -1188292.9, -195922.16, -0.009142244, -0.32354987, -941574.2, 316399.63, 0.44342524, 10.00125, 10.000437 
2.2649492e+3, 1.8163054e+2, -1354212.5, -1275299.1, -159347.72, -0.06893823, -0.7011096, -1150595.8, 9384.656, 0.3585124, 9.998343, 9.999815 
2.2649848e+3, 1.91633e+2, -1134172.1, -994293.1, -35008.805, -0.061279908, -0.52221656, -986020.4, 75932.74, 0.29413474, 9.99875, 10.000945 
2.26502e+3, 2.0163472e+2, -946668.75, -1057369.4, 71916.05, -0.16678245, -0.41120085, -911269.0, 52665.1, 0.24160613, 10.000292, 9.999055 
2.2650518e+3, 2.1163167e+2, -765490.44, -1022549.44, 66255.16, -0.42758027, -0.5436506, -749418.5, 116546.234, 0.1940874, 10.001555, 9.997956 
2.2650854e+3, 2.2162926e+2, -496068.5, -713393.44, 89937.64, -0.498706, -0.60507697, -463676.7, 304312.8, 0.14888066, 10.002299, 9.999117 
2.2651216e+3, 2.3163071e+2, -548424.6, -555077.06, 21294.355, -0.20301034, -0.49529347, -530198.25, 139778.16, 0.108788945, 10.000471, 10.000401 
2.2651565e+3, 2.4163194e+2, -620631.06, -523633.1, 41044.29, 0.004684802, -0.3773823, -508596.38, 63368.62, 0.07581198, 9.999072, 10.000571 
2.2651905e+3, 2.5163364e+2, -413144.3, -241575.92, 23977.762, -0.06416878, -0.4018699, -238287.89, 235659.22, 0.048806984, 9.999291, 10.0017805 
2.2652227e+3, 2.6163417e+2, -521731.88, -630986.3, -23173.045, -0.15646641, -0.36129385, -517020.06, -141077.5, 0.026684597, 9.999578, 9.998205 
2.2652574e+3, 2.716323e+2, -203619.67, -451151.0, 90333.22, -0.16185197, -0.37760222, -174159.9, 103806.92, 0.010897145, 10.00124, 9.997946 
2.2652896e+3, 2.8163147e+2, -80698.38, -150305.16, -23636.295, -0.05936276, -0.33592114, -73431.0, 106548.195, 0.002788968, 10.000619, 9.999635 
2.2653213e+3, 2.916316e+2, 19338.098, 74723.41, -42133.664, -0.028734831, -0.3658193, 97450.27, 179423.64, 0.0003034348, 10.000202, 10.000644 
2.2653508e+3, 3.0163053e+2, -213530.44, -299352.56, -137513.03, -0.1724585, -0.54918534, -112388.76, -112388.76, 0.000074942734, 9.999431, 9.998177 
2.2653809e+3, 3.1163037e+2, -55737.164, 121523.74, -49821.133, 0.08382359, -0.15321358, 134566.8, 134566.8, 0.00045627946, 9.998839, 10.001401 
2.275021e+3, 2.0159918e+2, -909369.44, -931489.56, 130381.164, -0.15531388, -0.58423233, -789580.06, 174695.22, 0.4526298, 10.000421, 10.000234 
2.2750552e+3, 2.116002e+2, -764133.9, -883540.6, 105143.19, -0.27046192, -0.472107, -702925.8, 163339.2, 0.38963944, 10.001358, 9.999095 
2.275094e+3, 2.2159925e+2, -808877.1, -932134.7, 11290.724, 0.06931607, -0.48317352, -807851.44, -39576.523, 0.32267725, 10.0000925, 9.99856 
2.2751248e+3, 2.315972e+2, -906723.8, -820224.1, -37449.246, 0.046413668, -0.66521794, -806263.9, -135967.42, 0.25840095, 9.998378, 9.999425 
2.2751555e+3, 2.4159537e+2, -907676.94, -828980.2, 34483.145, -0.1012515, -0.7286875, -816008.56, -243692.34, 0.20062341, 9.997867, 9.998991 
2.2751905e+3, 2.5159642e+2, -593396.75, -418567.03, 47700.14, -0.042648267, -0.7804566, -406399.47, 67909.62, 0.14660953, 9.998471, 10.000901 
2.275222e+3, 2.615982e+2, -736730.8, -700414.8, -18880.67, -0.22674964, -0.55637354, -692377.56, -316082.28, 0.09444842, 9.998004, 9.998444 
2.2752579e+3, 2.7160057e+2, -145488.64, -162174.69, 142488.84, -0.2678143, -0.37862685, -11098.772, 267175.7, 0.04983968, 10.000586, 10.000246 
2.2752897e+3, 2.8160185e+2, -322922.6, -373974.38, -137695.34, -0.15883075, -0.243181, -208407.14, -28143.074, 0.019500945, 9.999469, 9.998621 
2.2753213e+3, 2.9160026e+2, -249564.16, -312298.03, -53560.89, -0.06325622, -0.2819185, -218861.34, -136581.08, 0.004786881, 9.99952, 9.99828 
2.2753501e+3, 3.0159664e+2, -378362.8, -347802.28, -234004.02, -0.2526456, -0.6049385, -128580.16, -128580.16, 0.0007184054, 9.998285, 9.998339 
2.2753792e+3, 3.1159678e+2, -478926.6, -301528.72, 47051.12, -0.028434746, -0.2526852, -289821.94, -289821.94, 0.0007782504, 9.997113, 9.999216 
2.2851558e+3, 2.4156608e+2, -440362.3, -109275.8, -73699.27, 0.035905514, -0.18471439, -93611.57, 479001.78, 0.45869297, 9.997353, 10.007426 
2.2851838e+3, 2.5156337e+2, -820952.94, -548479.4, -185961.75, -0.47104698, -0.47646302, -454190.13, 20449.719, 0.36361384, 9.996934, 10.000876 
2.2852232e+3, 2.6156756e+2, -374517.3, -301178.38, -39808.082, -0.026853738, -0.1074946, -283724.53, 92874.92, 0.26167566, 9.999191, 10.000897 
2.285261e+3, 2.7156875e+2, 51443.12, 70875.35, 97031.28, 0.003117881, -0.2160274, 158675.77, 437259.25, 0.1640845, 10.001439, 10.001977 
2.28529e+3, 2.8156713e+2, -298778.88, -216375.7, -262173.28, -0.03282647, -0.4755861, 7813.744, 188410.31, 0.0825175, 9.99891, 10.000095 
2.285321e+3, 2.915689e+2, 137919.61, 113421.93, 225449.06, -0.11982667, -0.38567907, 351452.34, 434034.8, 0.030766618, 10.000975, 10.000651 
2.2853528e+3, 3.0157137e+2, 306208.72, 230802.11, 160539.56, 0.051203303, -0.3428501, 433412.94, 433412.94, 0.009050321, 10.001702, 10.000769 
2.2853746e+3, 3.1156972e+2, -621758.7, -54637.305, 74366.56, -0.06672068, -0.34448573, -45047.777, -45047.777, 0.003966125, 9.994721, 10.002049 
2.2952618e+3, 2.7153072e+2, -236902.7, -35589.836, 66289.0, -0.113061704, -0.53543967, -15722.624, 263231.88, 0.434636, 9.998592, 10.003276 
2.2952902e+3, 2.8152713e+2, -901301.2, -432044.97, -499935.78, 0.004271709, -1.1527232, -114417.59, 66561.86, 0.2541771, 9.994537, 10.0006695 
2.2953196e+3, 2.9154167e+2, 390127.6, 872405.7, 383316.94, -0.42719895, -0.5270185, 1084124.1, 1166964.9, 0.121767476, 10.0001135, 10.007006 
2.2953586e+3, 3.0155763e+2, -679665.4, -233287.42, -25829.377, 0.31480926, 0.45510504, -231797.8, -231797.8, 0.054011386, 9.995055, 10.000637 
2.2953704e+3, 3.1154615e+2, -620786.9, 469112.28, -488055.63, -0.115007065, -0.92120564, 655714.75, 655714.75, 0.031507406, 9.992744, 10.006535 
2.3053312e+3, 2.9153597e+2, -85608.59, -947215.7, -232316.23, 0.025706666, 0.012759033, -26960.887, 55943.375, 0.3613777, 10.003367, 9.992634 
2.3053496e+3, 3.015209e+2, -1383552.9, 48864.63, -73657.0, -0.34911403, -1.6718148, 52642.215, 52642.215, 0.21539779, 9.987113, 10.006608 
2.3053738e+3, 3.11538e+2, -47529.938, -56906.57, 1110199.4, 0.36893365, -0.1730368, 1057991.0, 1057991.0, 0.16801359, 9.999511, 10.001219 
2.3444246e+3, 2.768704e+2, -1510078.5, -319811.3, 803059.4, -0.56519717, -0.06320244, 84599.16, 311247.78, 0.45309556, 9.987732, 10.005961 
2.3440264e+3, 2.8686497e+2, -2263272.0, -604277.4, 885319.4, -0.25370115, -0.4104994, -220573.88, -91878.5, 0.378208, 9.98213, 10.00484 
2.3436372e+3, 2.9687393e+2, -4804928.0, -1423180.3, 3839165.0, 0.4332183, -0.058930658, 1080971.9, 1111584.5, 0.365682, 9.964024, 10.010494 
2.3431787e+3, 3.0686077e+2, -5026219.0, -1926229.3, 2752067.5, -0.5661319, -0.059039585, -317686.4, -317686.4, 0.42175597, 9.965549, 10.00356 
2.3581652e+3, 1.7730838e+2, -427025.03, -876645.56, -149190.6, 0.31155542, 0.11931284, -382025.2, 820357.9, 0.4364247, 10.0091505, 9.998873 
2.3577924e+3, 1.8730551e+2, -702566.44, -898772.44, -183348.92, 0.37973958, 0.5940456, -592724.7, 511680.63, 0.37760636, 10.004038, 9.999513 
2.3574118e+3, 1.9729464e+2, -1562891.4, -1392716.1, 88238.234, 0.053529687, 0.054798774, -1355223.6, -348719.75, 0.33353668, 9.996198, 9.998462 
2.3570262e+3, 2.0727707e+2, -1287751.3, -1102252.5, -86337.46, -0.88601685, -0.87288946, -1068287.3, -159608.08, 0.3009786, 9.997088, 9.999271 
2.356661e+3, 2.1728057e+2, -1188793.4, -1040167.1, 329880.72, 0.4931906, 0.15332928, -776332.75, 34320.953, 0.27814484, 9.996953, 9.999346 
2.3562866e+3, 2.2728078e+2, 3484.986, -388353.94, 137472.23, 0.4909794, 0.90645254, 46904.3, 759553.9, 0.26104888, 10.006185, 9.999344 
2.3559073e+3, 2.3726402e+2, -541196.5, -670008.6, -148919.77, -0.3887091, -0.18585104, -443352.03, 171453.42, 0.2456314, 10.000492, 9.9988785 
2.355541e+3, 2.4725431e+2, -369298.97, -911371.8, 64290.434, 0.4576033, -0.16364361, -361778.38, 155123.1, 0.23008795, 10.002836, 9.995274 
2.355168e+3, 2.5724375e+2, -918944.8, -937185.25, 414559.25, 0.3768073, -0.10521386, -513405.47, -94394.35, 0.2098318, 9.9970455, 9.997292 
2.3547886e+3, 2.672384e+2, 27382.168, 351158.16, -59690.99, 0.07961105, -0.22527394, 361812.16, 682872.2, 0.17457764, 9.999479, 10.00537 
2.3544194e+3, 2.7723315e+2, -1022344.7, -954368.06, -321955.97, -0.11267442, -0.34873825, -664611.3, -441508.9, 0.12535183, 9.995562, 9.996542 
2.3540315e+3, 2.872268e+2, 1136210.0, 560181.06, -1528689.9, -0.023676215, -0.23020782, 2403780.5, 2528936.5, 0.09163212, 10.008724, 10.000718 
2.3536414e+3, 2.9722613e+2, 2004931.3, 977907.56, -1351016.8, -0.1341981, -0.32414034, 2936736.3, 2963892.0, 0.102218166, 10.015345, 10.000181 
2.353228e+3, 3.0721185e+2, 7468193.0, 2211929.5, -2932682.5, -0.6213514, -0.08706185, 8778043.0, 8778043.0, 0.16273841, 10.069374, 9.985299 
2.3688969e+3, 1.5768889e+2, -1531995.1, -1693872.8, 134565.81, -0.3102274, -0.45534107, -1455902.0, -61259.64, 0.40917483, 9.999173, 9.997796 
2.3685229e+3, 1.6768736e+2, -1249712.5, -1344664.0, 99151.38, -0.45459136, 0.20251086, -1187256.6, 109406.98, 0.3191415, 10.0004015, 9.998941 
2.3681438e+3, 1.776721e+2, -1667191.1, -1519766.3, 156133.83, -1.3013185, -0.60070306, -1420819.3, -222005.66, 0.25440004, 9.99659, 9.998919 
2.3677744e+3, 1.8766786e+2, -1134270.3, -832744.3, -35715.703, -0.6785887, -0.41628224, -828571.56, 272281.13, 0.20803122, 9.997835, 10.00276 
2.3674095e+3, 1.9767234e+2, -701080.6, -683356.8, -118075.26, 0.55653155, 0.41327053, -573811.4, 428993.25, 0.17323056, 10.00093, 10.001723 
2.3670278e+3, 2.0766424e+2, -645370.2, -724922.3, -137332.44, 0.10076676, 0.22527269, -542169.56, 362708.94, 0.14628343, 10.001246, 10.000301 
2.3666431e+3, 2.1765159e+2, -634788.7, -743170.06, -136625.11, -0.6153976, -0.40932813, -541999.56, 264997.84, 0.1255341, 10.00079, 9.999643 
2.3662752e+3, 2.2764397e+2, -697987.3, -983189.9, 85848.94, -0.12979159, -0.29999062, -674139.9, 34935.97, 0.10829949, 10.000715, 9.997224 
2.3659092e+3, 2.3763575e+2, -596842.2, -812321.7, 23780.012, 0.4290931, -0.14835267, -594249.06, 16913.326, 0.09199208, 10.000352, 9.997942 
2.365528e+3, 2.4763072e+2, -292020.53, -202384.45, -59957.67, -0.13561413, 0.0059393314, -172345.44, 340866.88, 0.07586676, 10.000105, 10.0017605 
2.365147e+3, 2.576258e+2, -494647.63, -649536.9, 73602.91, -0.94008845, 0.20262228, -465250.97, -49991.51, 0.059159197, 9.999742, 9.997987 
2.3647742e+3, 2.6761636e+2, -236307.52, -458713.06, 58684.063, -0.70389086, 0.14719488, -221772.97, 95578.24, 0.040412202, 10.000801, 9.998091 
2.3644112e+3, 2.776035e+2, -657495.25, -1013055.5, 345268.47, -0.07775747, -0.13902618, -446924.88, -227448.25, 0.02172668, 9.999183, 9.994305 
2.3640293e+3, 2.8759214e+2, -4144.9814, -365674.4, -327286.5, -0.07418542, -0.12989698, 188978.44, 310559.4, 0.010830073, 10.001931, 9.99668 
2.3636454e+3, 2.9758322e+2, 277920.1, -385983.47, -11329.819, -0.18988396, -0.31234682, 278113.4, 301772.8, 0.015263418, 10.004355, 9.995048 
2.3632663e+3, 3.0756068e+2, 502189.28, -1980846.8, -38623.21, -0.55606085, -0.24279119, 502789.9, 502789.9, 0.03802072, 10.013411, 9.979719 
2.3792689e+3, 1.4806613e+2, -1566645.0, -1675434.8, 189591.3, 0.24710102, -0.645279, -1423799.8, 65145.39, 0.38968244, 9.99995, 9.9981785 
2.378895e+3, 1.5806663e+2, -1388667.5, -1570738.8, 19097.947, 0.07108343, 0.13165623, -1386685.8, 4260.606, 0.27836236, 10.000317, 9.998119 
2.378521e+3, 1.68061e+2, -1217680.9, -998907.3, 78592.555, 0.005758196, 0.18874297, -973600.9, 319397.44, 0.19862524, 9.998886, 10.002439 
2.3781462e+3, 1.7805545e+2, -1497041.5, -1241605.0, 75528.1, -0.106309146, 0.010397307, -1220943.9, -25896.791, 0.1461588, 9.997034, 10.000585 
2.377771e+3, 1.8804887e+2, -1347941.3, -1219066.9, 76533.414, -0.18781067, 0.072630055, -1183456.5, -86343.664, 0.11113541, 9.997939, 9.9995575 
2.377398e+3, 1.9804077e+2, -1069060.8, -1101017.6, -77829.29, -0.0045481436, -0.06681479, -1005586.7, -6392.025, 0.08556882, 9.9992695, 9.999173 
2.3770244e+3, 2.0803176e+2, -822747.6, -818151.75, -151633.55, 0.2933385, -0.27569523, -668798.75, 232474.3, 0.065839775, 9.999965, 10.000064 
2.3766465e+3, 2.1802153e+2, -931319.3, -1012702.7, -133112.44, 0.27502495, -0.64879453, -832817.9, -29456.982, 0.050802168, 9.999243, 9.998422 
2.376271e+3, 2.280154e+2, -884291.5, -944306.7, 82417.484, 0.011340803, -0.4261684, -826588.8, -121159.64, 0.038884565, 9.99903, 9.998238 
2.3758997e+3, 2.3801023e+2, -971772.94, -1036413.56, -6480.736, 0.004591585, -0.07290839, -971129.6, -363635.84, 0.028499383, 9.998131, 9.997451 
2.3755242e+3, 2.4800451e+2, -409872.38, -248397.14, -104988.44, 0.050997682, 0.012248719, -196691.8, 312858.72, 0.019239577, 9.999366, 10.001573 
2.3751503e+3, 2.5799704e+2, -678143.0, -695888.94, 29968.205, 0.055590037, -0.107382186, -655761.8, -244141.55, 0.011432521, 9.998497, 9.998214 
2.3747754e+3, 2.679907e+2, -202302.55, -169317.56, 26853.707, -0.0060915668, -0.02668446, -154296.19, 159383.5, 0.005416997, 10.000069, 10.000339 
2.374403e+3, 2.779829e+2, -597523.25, -675461.0, 239932.83, -0.17449692, -0.15224071, -393415.3, -177660.55, 0.001679893, 9.998345, 9.9970255 
2.3740208e+3, 2.87972e+2, -120812.52, -510009.0, -185830.08, -0.4313628, -0.1318985, -46335.887, 71528.195, 0.00033449047, 10.001521, 9.995891 
2.373642e+3, 2.9796588e+2, -136286.33, -503840.28, 102305.26, -0.24290499, 0.09909074, -109729.42, -89802.39, 0.0005987133, 10.00109, 9.995869 
2.3732683e+3, 3.079487e+2, 266665.34, -192398.66, 553593.4, -0.43076414, -0.37781626, 636425.1, 636425.1, 0.0032037143, 10.003544, 9.996708 
2.3896377e+3, 1.3846248e+2, -1831217.9, -1691312.3, 49914.715, 0.01657254, 0.6167276, -1675329.9, -92261.79, 0.42782593, 9.997862, 9.999562 
2.3892634e+3, 1.4845085e+2, -1302321.9, -1484966.9, 109746.78, 0.18005481, 0.22110072, -1250871.4, 234308.75, 0.2998544, 10.001826, 9.998737 
2.3888886e+3, 1.5844078e+2, -1182489.5, -1400687.3, 88502.125, -0.113849886, 0.012354341, -1151106.4, 236172.11, 0.19614406, 10.001706, 9.998749 
2.3885141e+3, 1.6843495e+2, -926662.4, -857437.9, 4702.915, -0.09671064, 0.002046936, -857119.8, 432208.97, 0.12585048, 10.001075, 10.002383 
2.38814e+3, 1.7843021e+2, -1087146.1, -1075649.3, -17034.025, -0.010858396, -0.032619007, -1063419.9, 127947.53, 0.083471425, 9.999913, 10.000466 
2.3877658e+3, 1.8842241e+2, -1139680.1, -1207714.6, 11421.731, 0.046911612, -0.062119856, -1137813.8, -44365.46, 0.057587944, 9.9996605, 9.998852 
2.3873918e+3, 1.9841321e+2, -1104598.1, -1178759.0, -36257.563, 0.053358994, -0.2098861, -1089817.5, -94272.13, 0.03970386, 9.999222, 9.9986725 
2.3870158e+3, 2.0840523e+2, -787562.25, -817043.1, -117804.875, 0.1020954, -0.2867306, -683579.2, 214037.64, 0.026570952, 10.000206, 9.999932 
2.3866397e+3, 2.1839735e+2, -550200.7, -761111.56, -61040.316, 0.15689133, -0.38032672, -533808.8, 265875.0, 0.017417854, 10.001548, 9.999052 
2.3862651e+3, 2.283914e+2, -560691.75, -684920.7, 89120.51, 0.062961556, -0.21883446, -514175.3, 187571.89, 0.011141793, 10.00076, 9.999232 
2.3858918e+3, 2.3838504e+2, -695734.6, -813806.7, 112263.09, -0.05915064, -0.034637246, -627931.1, -24111.81, 0.0065593217, 9.999588, 9.998271 
2.3855178e+3, 2.4837725e+2, -307415.3, -318052.16, -12391.721, 0.060209535, -0.10409273, -299248.9, 206648.45, 0.0032030866, 10.000535, 10.000511 
2.3851462e+3, 2.5836894e+2, -296163.5, -445479.6, 58411.496, 0.26327133, -0.22502406, -276028.47, 131948.86, 0.0011282732, 10.000811, 9.998784 
2.3847702e+3, 2.6836392e+2, -130115.016, -59058.625, -48886.51, 0.10002699, -0.06603101, -34153.85, 275870.56, 0.00023273825, 10.000216, 10.001018 
2.3843943e+3, 2.7835867e+2, -421669.94, -304540.16, -12548.867, -0.28396088, -0.0406973, -303210.8, -91136.695, 0.000018051116, 9.998266, 9.999576 
2.3840141e+3, 2.8834936e+2, -280506.44, -444675.34, -204075.94, -0.4644683, -0.07586224, -142625.33, -28452.44, 0.000004039042, 9.99976, 9.997175 
2.3836389e+3, 2.9834524e+2, 118557.73, -109134.625, 97002.27, -0.050982714, 0.32498524, 154278.9, 170500.53, 0.000013627165, 10.001502, 9.9984 
2.3832652e+3, 3.0833197e+2, 630905.3, 1091388.4, -168022.67, -0.32083902, -0.33668536, 1146178.1, 1146178.1, 0.00006391446, 10.001125, 10.006747 
2.4000114e+3, 1.2883544e+2, -2145213.5, -1672217.6, 132187.19, 0.18382959, -0.10892238, -1637782.5, 39630.355, 0.49043512, 9.995574, 10.001575 
2.3996301e+3, 1.3883398e+2, -1551112.0, -1585179.3, -27463.682, -0.069523305, 0.14324817, -1535828.4, 43600.94, 0.36336103, 10.000052, 9.999436 
2.3992553e+3, 1.4882511e+2, -1402264.8, -1544844.9, 168088.58, -0.13592054, 0.027624864, -1290973.1, 190540.2, 0.24041095, 10.001044, 9.998569 
2.3988816e+3, 1.5881456e+2, -1404093.0, -1519786.5, 109029.44, -0.25926343, -0.24062662, -1338515.0, 45097.17, 0.14389461, 10.000024, 9.998594 
2.3985061e+3, 1.6880818e+2, -1099228.9, -1006265.4, 26232.996, -0.29558095, -0.24587081, -999373.7, 286292.44, 0.08188297, 10.000171, 10.001489 
2.3981306e+3, 1.7880186e+2, -1194573.8, -1235575.5, -39608.93, -0.21959022, -0.3299715, -1170474.8, 17245.133, 0.047678713, 9.999658, 9.999435 
2.397759e+3, 1.8879536e+2, -1208607.1, -1256987.3, 8369.505, 0.10462236, -0.18723464, -1207200.1, -117409.31, 0.028905774, 9.999354, 9.9986315 
2.3973872e+3, 1.9878913e+2, -1307340.1, -1342359.1, -48220.637, 0.3937745, -0.009534742, -1273548.4, -281686.38, 0.017015342, 9.998236, 9.998016 
2.3970081e+3, 2.0878254e+2, -923486.9, -890031.7, -67157.24, 0.012458011, 0.080542706, -837550.1, 56377.117, 0.00915297, 9.999415, 9.999774 
2.3966289e+3, 2.1877544e+2, -797680.06, -892807.0, -70395.35, -0.3246868, 0.07941312, -760285.94, 35708.14, 0.0045936005, 10.000005, 9.998885 
2.3962563e+3, 2.287685e+2, -603649.9, -571947.0, 17682.88, -0.17223662, 0.049594384, -564050.75, 134008.56, 0.0022051786, 9.999955, 10.000371 
2.395885e+3, 2.3876011e+2, -873219.2, -913140.2, 52502.188, -0.0030946282, -0.082758486, -837011.2, -236871.3, 0.0009056362, 9.998517, 9.998106 
2.3955095e+3, 2.4875122e+2, -489604.25, -540020.25, -6680.656, -0.105065696, -0.1867201, -488734.0, 13496.726, 0.00023937336, 10.000057, 9.999111 
2.3951355e+3, 2.5874215e+2, -560562.25, -741977.94, 2983.5334, -0.20447488, -0.2929239, -560513.25, -156189.2, 0.000025130046, 9.999803, 9.997241 
2.3947595e+3, 2.687375e+2, -226906.23, -203555.72, -103673.03, -0.3245231, 0.01559086, -110902.61, 195468.6, 0.00000030344088, 10.000094, 10.000039 
2.3943838e+3, 2.787338e+2, -531280.94, -276745.53, -94982.125, -0.49387968, 0.20497075, -245209.34, -36801.15, 0.000000006555133, 9.99724, 10.0002775 
2.3940091e+3, 2.8872558e+2, -115954.28, 56361.32, -112109.22, -0.24999672, -0.025618296, 111595.33, 222087.69, 0.00000087941476, 9.9992, 10.000833 
2.3936364e+3, 2.9871973e+2, -445606.16, -613352.0, 127585.42, 0.17438516, 0.019229263, -376794.06, -364239.78, 0.0000072209577, 9.998764, 9.996219 
2.3932543e+3, 3.087106e+2, -184899.28, -29323.242, -123084.234, -0.86185855, 0.2051446, 38493.36, 38493.36, 0.00003484927, 9.998784, 10.000059 
2.4100037e+3, 1.292131e+2, -1585939.5, -1613982.6, -77239.984, -0.027367689, -0.05881597, -1521458.8, 152252.06, 0.44509998, 10.000692, 9.999817 
2.4096264e+3, 1.3920663e+2, -1435894.5, -1591097.8, -57896.605, 0.03154726, -0.07770791, -1416676.5, 159101.34, 0.31930807, 10.001468, 9.998811 
2.4092504e+3, 1.4920032e+2, -1313564.0, -1314278.1, 58737.586, -0.08928194, -0.049133595, -1255182.4, 222651.4, 0.20041417, 10.000706, 10.00049 
2.4088745e+3, 1.5919259e+2, -1496467.9, -1513448.9, 129527.586, -0.3143252, -0.18420343, -1375152.8, 4749.304, 0.110025235, 9.999111, 9.999069 
2.4084993e+3, 1.691849e+2, -1208346.9, -1255677.0, 46529.55, -0.3185316, -0.20819126, -1179810.1, 102164.22, 0.054970514, 10.000208, 9.999615 
2.4081242e+3, 1.7917717e+2, -1072615.3, -1288752.1, -37033.676, -0.2836152, -0.24864212, -1066445.8, 117602.15, 0.027314784, 10.00094, 9.998466 
2.407751e+3, 1.8917015e+2, -1045268.1, -1203955.5, -41747.28, -0.032998856, -0.12310806, -1034955.5, 51166.55, 0.013986388, 10.00052, 9.998463 
2.4073777e+3, 1.9916311e+2, -1113085.6, -1258443.6, -37392.184, 0.1734324, 0.010779805, -1104030.9, -115833.0, 0.006556314, 9.999522, 9.997994 
2.407001e+3, 2.0915599e+2, -872863.44, -933901.56, -49992.2, 0.0006789925, 0.088446535, -844810.9, 45459.13, 0.002469395, 10.000018, 9.999218 
2.4066238e+3, 2.191486e+2, -693019.94, -843636.2, -53677.97, -0.2690286, 0.13057262, -675847.56, 116495.34, 0.00078321603, 10.000606, 9.998972 
2.4062495e+3, 2.2914141e+2, -596352.06, -553915.6, -75627.25, -0.18944241, 0.055517133, -496586.47, 197822.95, 0.00023610769, 9.99981, 10.000612 
2.405877e+3, 2.3913345e+2, -778444.2, -781949.1, -26681.887, -0.07594053, -0.07184229, -753457.25, -156973.83, 0.000047296035, 9.998677, 9.998949 
2.4055019e+3, 2.491255e+2, -570671.7, -563629.44, 13602.324, -0.18426968, -0.11930432, -553099.9, -54534.246, 0.0000020598873, 9.999386, 9.999293 
2.4051279e+3, 2.5911734e+2, -446084.25, -564408.7, 97841.01, -0.35685498, -0.1535568, -390909.13, 9742.069, 0.0, 9.999976, 9.998371 
2.404752e+3, 2.691119e+2, -205708.78, -210320.52, 7272.563, -0.42827526, 0.061647695, -200385.28, 102321.48, 0.0, 10.000294, 9.999913 
2.4043763e+3, 2.7910757e+2, -100592.83, 10729.983, -23322.611, -0.48998946, 0.23842071, 15418.691, 220169.28, 0.0, 9.9997, 10.001113 
2.4040015e+3, 2.891003e+2, -97473.63, 202081.3, -171357.4, -0.23115917, -0.0055164914, 279892.63, 386716.72, 0.0000001537889, 9.998568, 10.002235 
2.403629e+3, 2.9909492e+2, -488418.25, -595012.0, 23908.74, 0.13520335, 0.0033355316, -483301.22, -474421.4, 0.000003139397, 9.998087, 9.996729 
2.4032505e+3, 3.090857e+2, 300288.4, -183479.45, 74008.586, -0.6967513, 0.411178, 311357.25, 311357.25, 0.000017282315, 10.003472, 9.996866 
2.4199973e+3, 1.2958848e+2, -1701501.6, -1799754.1, 81984.586, -0.022035794, -0.08841542, -1655051.4, 14979.935, 0.4141129, 9.999925, 9.9986 
2.4196236e+3, 1.3958056e+2, -1447560.9, -1625872.5, 5340.4355, 0.3177139, -0.13612762, -1447401.0, 124711.664, 0.28877336, 10.001271, 9.998653 
2.4192461e+3, 1.4957604e+2, -1163665.4, -1062202.0, 67498.875, 0.10217898, -0.06438058, -1028495.5, 445653.13, 0.17287979, 10.000873, 10.002506 
2.4188684e+3, 1.595711e+2, -1391579.9, -1476042.8, 66614.41, -0.18031497, -0.07078625, -1354938.1, 21249.896, 0.08747846, 9.999776, 9.9990835 
2.4184936e+3, 1.6956249e+2, -1308522.9, -1513409.4, 74308.234, -0.21158442, -0.061531484, -1284410.5, -6134.4243, 0.038149297, 10.0004015, 9.997723 
2.4181193e+3, 1.7955358e+2, -1228433.5, -1500370.0, -21663.174, -0.15600255, -0.049765114, -1226718.6, -46350.06, 0.01570925, 10.000491, 9.997193 
2.4177432e+3, 1.8954512e+2, -1033141.25, -1191506.0, -46784.254, -0.16912235, -0.050290633, -1020352.9, 62100.39, 0.0064830934, 10.000613, 9.998462 
2.4173674e+3, 1.9953634e+2, -1172291.3, -1375460.3, -33712.55, -0.10526174, -0.08304707, -1166843.3, -182302.6, 0.0021827125, 9.999553, 9.997162 
2.4169944e+3, 2.0952755e+2, -904793.4, -1057008.9, 3877.19, 0.046123058, -0.08680809, -904694.7, -18066.275, 0.00044835047, 10.000277, 9.998232 
2.4166213e+3, 2.1951903e+2, -871376.3, -1020927.7, -56197.813, 0.16728708, -0.092937954, -852612.75, -63899.34, 0.000068581576, 9.999888, 9.998078 
2.4162439e+3, 2.2951278e+2, -664961.06, -589973.4, -116312.82, -0.026495269, -0.038661834, -505260.56, 185512.9, 0.0000096515805, 9.999566, 10.000396 
2.4158677e+3, 2.3950663e+2, -908090.7, -815824.7, -52512.043, -0.16632858, 0.0035537526, -792059.44, -199226.73, 0.00000040342232, 9.99783, 9.999093 
2.4154946e+3, 2.495015e+2, -494224.66, -355206.97, 51408.23, -0.1825444, 0.11060111, -338261.88, 156624.47, 0.0, 9.999254, 10.000752 
2.4151225e+3, 2.5949576e+2, -563137.3, -557322.7, 69779.195, -0.20627527, 0.15854897, -490390.25, -93443.93, 0.0, 9.998994, 9.998909 
2.414747e+3, 2.6948768e+2, -300419.75, -237859.2, -5056.9575, -0.24144027, 0.05597447, -237453.08, 61572.54, 0.0, 9.999689, 9.999946 
2.4143708e+3, 2.7947977e+2, -503953.28, -422298.4, -84888.99, -0.29572654, -0.08078577, -368929.13, -167826.33, 0.0, 9.998068, 9.9989195 
2.4139895e+3, 2.894741e+2, -368179.7, -109672.89, -242932.22, -0.56208056, 0.029378757, 36250.938, 139412.28, 0.0000000009564638, 9.997684, 10.000428 
2.4136133e+3, 2.9946992e+2, -983188.8, -775317.56, 124256.93, -0.5725569, 0.24174161, -717258.1, -712052.06, 0.0000004799063, 9.994641, 9.997122 
2.4132541e+3, 3.0946028e+2, 266760.88, 107020.61, 270966.2, -0.1539622, 0.18083733, 469383.06, 469383.06, 0.0000055147566, 10.002109, 9.999454 
2.4299878e+3, 1.2996952e+2, -1741248.1, -1827747.8, 226377.25, -0.37488294, -0.10654204, -1554026.3, 112265.555, 0.39271495, 9.999914, 9.998609 
2.4296187e+3, 1.3996296e+2, -1461683.5, -1742557.6, 214078.95, 0.24271944, 0.05816108, -1346088.6, 222271.75, 0.26710206, 10.001717, 9.997755 
2.4292412e+3, 1.4995441e+2, -1190587.4, -1339881.1, 91692.21, 0.094149895, -0.027415598, -1146998.9, 323441.25, 0.15331793, 10.001956, 9.999674 
2.428863e+3, 1.5994595e+2, -1286099.4, -1547330.6, 10229.742, -0.17868252, -0.12776515, -1285699.4, 86819.25, 0.07196278, 10.0010805, 9.997966 
2.4284886e+3, 1.6993792e+2, -1183820.1, -1436442.8, 50646.523, -0.1791704, -0.045783028, -1174044.6, 100557.44, 0.027363949, 10.001203, 9.997878 
2.428114e+3, 1.7992957e+2, -1113137.3, -1379601.5, 45165.926, -0.19052605, 0.007503546, -1105689.8, 70999.69, 0.009079448, 10.000989, 9.997767 
2.4277376e+3, 1.8992144e+2, -766761.4, -987158.25, 40463.87, -0.21576615, -0.011244536, -759567.25, 319200.1, 0.002868925, 10.002092, 9.999173 
2.4273616e+3, 1.9991294e+2, -649957.3, -1073911.9, 102301.43, -0.22936542, -0.047427762, -626562.6, 354285.72, 0.00059867656, 10.002851, 9.997665 
2.4269892e+3, 2.0990317e+2, -559017.5, -961264.4, 145468.52, 0.01759331, -0.11287494, -511923.84, 371020.3, 0.000045539302, 10.00282, 9.997722 
2.426617e+3, 2.1989353e+2, -525614.3, -857690.5, 100536.125, 0.20206586, -0.16092509, -497548.9, 287490.13, 0.0000022398012, 10.002177, 9.998104 
2.4262373e+3, 2.2988632e+2, -433834.97, -521216.3, 11046.18, -0.07568249, -0.15493521, -432460.22, 254648.5, 0.000000052409952, 10.001306, 10.000042 
2.4258587e+3, 2.3987989e+2, -488358.22, -545984.44, 99063.64, -0.36194658, -0.09694694, -414002.53, 175169.19, 0.0, 10.0003605, 9.9997225 
2.4254875e+3, 2.4987587e+2, -313202.22, -260134.84, 134484.6, -0.21994117, 0.12255951, -149591.39, 341625.97, 0.0, 10.000396, 10.000898 
2.4251172e+3, 2.598714e+2, -320782.4, -350792.0, 23294.232, -0.09584173, 0.29191953, -308078.63, 85188.49, 0.0, 10.000131, 9.999803 
2.4247402e+3, 2.6986256e+2, -406110.1, -320577.63, -110400.01, -0.19997434, 0.10092058, -244949.98, 50404.504, 0.0, 9.998932, 9.99982 
2.4243627e+3, 2.7985352e+2, -477704.22, -420293.28, -139930.34, -0.29866675, -0.10321311, -306154.4, -108711.78, 0.0, 9.998126, 9.998928 
2.4239817e+3, 2.8984764e+2, 160291.78, 3048.2207, -212524.97, -0.605554, 0.08056907, 308271.5, 407772.88, 0.0, 10.001725, 9.999336 
2.4236055e+3, 2.9984277e+2, 469140.4, 90399.41, 158278.7, -0.70725447, 0.28800538, 526576.2, 528127.94, 0.000000008678429, 10.003658, 9.9987755 
2.4232551e+3, 3.098349e+2, -179277.56, 24887.482, -36663.613, 0.4804594, 0.27266464, 31271.83, 31271.83, 0.0000009202062, 9.998011, 10.001072 
2.44036e+3, 1.20359145e+2, -1768875.9, -1877871.5, 382869.84, 0.6041862, 0.09558004, -1436644.8, 323821.97, 0.49454194, 10.00099, 9.99917 
2.4399795e+3, 1.3034973e+2, -1753229.9, -1799268.3, 93666.66, -0.53896165, -0.11282288, -1679795.4, -17234.982, 0.3775347, 9.999566, 9.998793 
2.4396138e+3, 1.4034446e+2, -1554304.8, -1926242.9, 62152.477, 0.28252035, 0.1859906, -1544193.8, 20422.621, 0.25111946, 10.001293, 9.996558 
2.4392363e+3, 1.5033239e+2, -1464995.4, -1848217.9, 4881.482, 0.1345588, 0.0015970442, -1464933.1, 1802.9797, 0.13882844, 10.001373, 9.9962845 
2.4388582e+3, 1.6032006e+2, -1460897.0, -1778281.0, 4015.568, -0.051195383, -0.19593315, -1460846.3, -91987.72, 0.060861234, 10.000516, 9.996621 
2.4384834e+3, 1.7031267e+2, -1150352.3, -1328308.0, 65815.56, -0.10263942, -0.092509545, -1128656.0, 142278.95, 0.02025213, 10.00111, 9.99863 
2.4381086e+3, 1.8030562e+2, -1074677.6, -1300270.3, 50209.91, -0.115311064, 0.023305606, -1064007.1, 109000.164, 0.0052852775, 10.001023, 9.998315 
2.4377331e+3, 1.9029859e+2, -735762.94, -891730.1, 49928.4, -0.16602553, 0.031787936, -721149.1, 353922.56, 0.0012089658, 10.001984, 9.99989 
2.4373582e+3, 2.0029114e+2, -771161.8, -1111230.0, 68005.67, -0.13228618, 0.038295344, -758066.5, 219072.92, 0.00012403581, 10.002052, 9.997764 
2.436985e+3, 2.1028136e+2, -677962.6, -1011305.06, 99683.99, 0.014895053, -0.04893568, -650427.3, 228805.8, 0.000001917801, 10.002144, 9.997598 
2.436611e+3, 2.2027105e+2, -762388.6, -1068437.8, 47493.7, 0.13502891, -0.14689699, -755187.8, 26144.416, 0.000000018702426, 10.001076, 9.99714 
2.43623e+3, 2.3026164e+2, -526671.56, -650587.7, -35707.258, -0.24596468, -0.30235952, -517118.75, 166302.75, 0.0, 10.001047, 9.999241 
2.43585e+3, 2.4025309e+2, -717173.75, -813934.06, 64154.44, -0.5576677, -0.39211193, -685201.94, -99697.375, 0.0, 9.99954, 9.998274 
2.4354807e+3, 2.5024924e+2, -454208.8, -444101.38, 126617.97, -0.26302662, -0.055739768, -322436.3, 165117.75, 0.0, 10.000078, 9.999727 
2.4351111e+3, 2.6024526e+2, -586852.25, -650798.2, -31044.465, 0.00013460297, 0.27701914, -574260.3, -184655.89, 0.0, 9.999182, 9.998179 
2.4347305e+3, 2.7023786e+2, -511952.97, -414549.38, -177660.33, -0.35330492, 0.28953794, -279036.47, 12644.474, 0.0, 9.998496, 9.999337 
2.4343511e+3, 2.802297e+2, -781513.8, -683202.3, -103786.19, -0.59593153, 0.20544618, -617519.6, -423756.97, 0.0, 9.996649, 9.997841 
2.4339804e+3, 2.9022023e+2, 30522.742, -145722.06, -48436.484, -0.27188593, 0.070545316, 42957.043, 138808.63, 0.0, 10.001311, 9.998469 
2.4336097e+3, 3.0021152e+2, -36514.5, -376902.84, 49731.977, -0.12025869, 0.013077796, -29397.291, -29397.291, 0.0, 10.001322, 9.996677 
2.4332385e+3, 3.1020358e+2, -913352.3, -439523.5, -117498.58, -0.27019352, 0.02998226, -411986.88, -411986.88, 0.00000009984614, 9.993903, 9.999667 
2.4503474e+3, 1.2072266e+2, -1652630.1, -1447126.8, -224837.6, -0.14630626, -0.2982869, -1302674.4, 454233.0, 0.4853985, 9.999035, 10.004245 
2.4499768e+3, 1.3071872e+2, -1752506.0, -1631306.0, -41214.723, -0.066749424, -0.22211002, -1618618.8, 40323.438, 0.36593348, 9.99881, 10.0004425 
2.4496065e+3, 1.4071383e+2, -1439476.4, -1624558.6, -87951.28, 0.03212279, -0.07098962, -1404348.9, 156643.0, 0.23856215, 10.001354, 9.998629 
2.4492295e+3, 1.5070641e+2, -1332518.0, -1496519.4, -83855.84, -0.013785694, -0.048971824, -1297233.1, 165834.69, 0.1275105, 10.001206, 9.9988 
2.4488525e+3, 1.6069785e+2, -1396034.3, -1602445.5, 96335.125, -0.058817346, -0.07603089, -1358059.6, 7095.1143, 0.052560914, 10.00035, 9.997895 
2.448478e+3, 1.7068964e+2, -1076728.6, -1294334.0, 169845.11, -0.112563185, -0.07352288, -983825.1, 283412.22, 0.01541553, 10.001594, 9.998655 
2.4481036e+3, 1.806815e+2, -922710.7, -1267326.9, 113839.7, -0.20095623, -0.036737252, -888501.1, 280817.66, 0.0031067657, 10.002211, 9.997976 
2.4477285e+3, 1.9067384e+2, -747785.44, -1014577.75, 34337.594, -0.18290167, 0.003345314, -743436.9, 327955.0, 0.00048131414, 10.002388, 9.998855 
2.447354e+3, 2.0066597e+2, -747423.25, -1082715.0, -22071.201, -0.15968423, 0.040437188, -745976.6, 227489.92, 0.000015932997, 10.002093, 9.997926 
2.4469793e+3, 2.1065703e+2, -719324.94, -952389.56, -10600.556, -0.07463008, -0.023093801, -718843.8, 156708.45, 0.0000000054715246, 10.001492, 9.99832 
2.446604e+3, 2.2064771e+2, -720317.2, -960426.4, -17017.617, -0.055473015, -0.08995721, -719117.1, 58524.137, 0.0, 10.000887, 9.997992 
2.446224e+3, 2.3063816e+2, -499811.38, -682643.8, -71242.55, -0.29475576, -0.24888423, -475329.25, 204401.88, 0.0, 10.001305, 9.998971 
2.445845e+3, 2.4062903e+2, -452358.9, -697171.2, 35481.73, -0.5208717, -0.34940407, -447320.1, 134499.3, 0.0, 10.001252, 9.99829 
2.4454738e+3, 2.506234e+2, -496037.03, -570260.4, 107872.75, -0.29861352, -0.11123583, -419070.63, 64815.156, 0.0, 10.000109, 9.99893 
2.4451031e+3, 2.6061815e+2, -557775.75, -633284.4, -19025.893, -0.123620205, 0.17678963, -553252.7, -167303.84, 0.0, 9.999201, 9.998341 
2.4447231e+3, 2.7061114e+2, -162610.73, -315836.22, -151996.4, -0.39305016, 0.27219996, -69010.62, 219012.42, 0.0, 10.001055, 9.998856 
2.4443445e+3, 2.8060338e+2, 104112.484, -235430.83, -46710.973, -0.58323014, 0.28833944, 110421.3, 300523.38, 0.0, 10.002458, 9.99815 
2.4439763e+3, 2.905929e+2, 28851.992, -179913.06, 47945.98, -0.15664603, 0.07521817, 39336.906, 131537.52, 0.0, 10.001271, 9.9983225 
2.4436076e+3, 3.005828e+2, -197203.08, -435044.84, 19313.232, 0.13538998, -0.07678704, -195645.02, -195645.02, 0.0, 9.999884, 9.9970255 
2.4432258e+3, 3.1057644e+2, -50426.813, 15690.576, -81578.5, -0.57466197, 0.21675277, 70654.2, 70654.2, 0.000000000000427524, 9.999342, 10.000261 
2.4603406e+3, 1.210934e+2, -1490632.0, -1262264.9, -304500.5, -0.058143403, -0.107679695, -1051243.3, 702033.0, 0.47722423, 9.999988, 10.006121 
2.4599744e+3, 1.3108735e+2, -1609122.1, -1457439.8, 184303.61, 0.45059055, -0.35851327, -1333982.9, 321344.9, 0.3557266, 9.999284, 10.0021715 
2.4595994e+3, 1.410829e+2, -1488032.8, -1420032.9, 21015.295, -0.11609481, -0.3146264, -1414062.4, 143308.1, 0.22774403, 9.999648, 10.001113 
2.459223e+3, 1.5108033e+2, -1305002.0, -1168236.3, -104768.39, -0.07255785, -0.10327517, -1111508.6, 347891.22, 0.11809006, 9.999937, 10.001893 
2.4588472e+3, 1.6107635e+2, -1401305.9, -1492964.3, 30543.625, 0.070435286, 0.08114786, -1392060.4, -30618.102, 0.04605504, 9.9998255, 9.998905 
2.4584731e+3, 1.7106721e+2, -1175987.3, -1368322.9, 129560.195, -0.074249335, -0.03287784, -1110804.3, 152727.17, 0.012013259, 10.0010195, 9.998412 
2.4580988e+3, 1.8105774e+2, -1122746.6, -1503528.6, 58068.195, -0.1875441, -0.09367071, -1114088.3, 51536.168, 0.0018483637, 10.001469, 9.996712 
2.457724e+3, 1.9104838e+2, -951268.94, -1319121.6, -3486.4146, -0.16046016, -0.073489964, -951235.94, 116482.75, 0.00018026956, 10.00187, 9.997015 
2.4573493e+3, 2.0103936e+2, -923350.1, -1227041.3, -52880.754, -0.101140216, -0.015167269, -914405.56, 55403.625, 0.0000007906511, 10.001215, 9.997367 
2.4569726e+3, 2.1103163e+2, -733060.6, -861641.2, -60151.06, -0.16758396, -0.026046649, -709308.94, 162575.39, 0.0, 10.001039, 9.999176 
2.4565962e+3, 2.2102381e+2, -887250.0, -1027266.44, -61168.336, -0.1855083, -0.012098521, -864292.0, -90332.414, 0.0, 9.999849, 9.998014 
2.456219e+3, 2.3101597e+2, -605101.0, -704261.3, -78919.11, -0.18752871, -0.030061297, -561480.25, 114553.49, 0.0, 10.0007, 9.999002 
2.455842e+3, 2.4100775e+2, -705784.25, -920650.94, -334.88776, -0.20373942, -0.0277718, -705783.75, -127670.6, 0.0, 10.000102, 9.997273 
2.4554665e+3, 2.5099862e+2, -619433.75, -724224.3, 41983.14, -0.3468031, -0.07283546, -604688.5, -124479.46, 0.0, 9.999713, 9.99803 
2.4550922e+3, 2.609899e+2, -833020.44, -896304.7, -25419.559, -0.41598177, -0.055225853, -824074.7, -441772.9, 0.0, 9.997991, 9.997093 
2.4547185e+3, 2.7098212e+2, -276623.25, -416774.16, -73186.03, -0.26512155, 0.001360409, -245373.67, 39009.41, 0.0, 10.000607, 9.998306 
2.4543445e+3, 2.8097478e+2, -139107.38, -413218.03, -35711.695, -0.17901035, 0.11343, -134531.19, 51927.723, 0.0, 10.001225, 9.997495 
2.4539678e+3, 2.9096693e+2, -123005.71, -217046.2, -13263.3125, -0.45960256, 0.123184144, -121170.875, -32634.527, 0.0, 10.00021, 9.998527 
2.4535957e+3, 3.009577e+2, -798064.8, -782065.1, 7415.907, -0.33427966, 0.08701575, -779156.56, -779156.56, 0.0, 9.99625, 9.996346 
2.453224e+3, 3.1095272e+2, -315578.8, 117950.99, 59986.84, -0.14291419, 0.38491607, 126098.17, 126098.17, 0.0, 9.996996, 10.001914 
2.4703337e+3, 1.214749e+2, -1541545.0, -1572707.8, -182594.95, -0.24102455, 0.052211788, -1373867.9, 375664.53, 0.46784666, 10.0017805, 10.001044 
2.469967e+3, 1.3146488e+2, -1624467.0, -1532939.9, 312485.34, 0.3827614, -0.40939817, -1262884.8, 388740.28, 0.34520847, 9.999834, 10.001319 
2.4695918e+3, 1.4146075e+2, -1929465.9, -1801825.4, 152312.42, -0.089592665, -0.20351486, -1700503.0, -146838.73, 0.21743059, 9.997352, 9.999312 
2.4692151e+3, 1.5145484e+2, -1631761.8, -1517063.8, -76816.664, -0.072912045, -0.11794813, -1478549.8, -22821.318, 0.109704144, 9.998562, 9.999858 
2.46884e+3, 1.614486e+2, -1476212.9, -1572390.3, -22764.564, 0.0043458566, -0.01002759, -1471096.8, -113302.33, 0.040704507, 9.999505, 9.998508 
2.4684678e+3, 1.7144005e+2, -1194570.6, -1351732.0, 56037.824, -0.03468601, -0.08358714, -1176636.3, 83239.766, 0.00953522, 10.00074, 9.998687 
2.4680947e+3, 1.8143111e+2, -1115525.1, -1415960.8, -29119.658, -0.11572149, -0.122579604, -1112728.8, 49232.94, 0.0011160366, 10.00113, 9.99748 
2.4677199e+3, 1.9142163e+2, -1039780.1, -1301406.6, -29042.244, -0.057167534, -0.17628726, -1036595.0, 27461.371, 0.00006263998, 10.000984, 9.997583 
2.4673443e+3, 2.0141266e+2, -990045.8, -1190351.0, -9579.573, -0.062702574, -0.15056637, -989588.7, -23442.248, 0.0000000031066179, 10.000428, 9.998004 
2.4669665e+3, 2.1140555e+2, -773177.25, -895152.2, -44661.758, -0.20437299, -0.08994726, -758572.75, 109645.336, 0.0, 10.0007715, 9.999125 
2.466589e+3, 2.2139834e+2, -714608.4, -878117.44, -87581.49, -0.31767413, -0.0068686716, -676553.4, 93736.06, 0.0, 10.000651, 9.998676 
2.4662131e+3, 2.3139112e+2, -670643.2, -709810.94, -106202.555, -0.15554719, 0.0051282793, -582233.94, 90124.38, 0.0, 10.000038, 9.999332 
2.4658372e+3, 2.4138342e+2, -699814.7, -846506.56, -3041.6428, -0.07393953, 0.0354935, -699751.6, -125319.1, 0.0, 9.9997, 9.998009 
2.4654607e+3, 2.5137368e+2, -487981.1, -666915.7, 78814.234, -0.30012223, -0.07623647, -458217.2, 18313.602, 0.0, 10.000501, 9.9981165 
2.4650852e+3, 2.61364e+2, -351318.28, -595813.8, 89815.4, -0.45926493, -0.14968409, -321871.22, 56757.89, 0.0, 10.000817, 9.997828 
2.4647133e+3, 2.7135605e+2, -351252.7, -457416.5, 84525.72, -0.16488376, -0.11385446, -304523.34, -23811.475, 0.0, 9.999953, 9.9984045 
2.4643403e+3, 2.813491e+2, -317736.7, -434655.97, 97482.67, -0.044719636, 0.04218813, -262528.38, -79743.5, 0.0, 9.99959, 9.998154 
2.4639598e+3, 2.9134202e+2, -18482.248, -194478.67, 52150.586, -0.6379601, 0.16250062, -4189.848, 80668.16, 0.0, 10.00087, 9.998461 
2.4635872e+3, 3.0133286e+2, 30666.998, -260615.23, 76206.59, -0.45892397, 0.13899897, 49399.785, 49399.785, 0.0, 10.001151, 9.997632 
2.4632187e+3, 3.1132507e+2, 80952.695, 395066.8, 50193.1, 0.09994104, 0.12699892, 402892.34, 402892.34, 0.0, 9.998854, 10.003114 
2.4803293e+3, 1.2185428e+2, -1862726.8, -2155071.0, -416086.6, -0.16734919, -0.061172478, -1567883.8, 177928.05, 0.45571527, 10.000944, 9.996785 
2.4799594e+3, 1.3184306e+2, -1575047.8, -1632157.1, 105272.97, 0.28864107, -0.45421112, -1494525.5, 153392.36, 0.33319858, 10.000652, 9.999656 
2.479585e+3, 1.418391e+2, -1814476.3, -1980521.1, 5015.4814, 0.14058973, -0.059746902, -1814324.9, -264370.03, 0.20679392, 9.999178, 9.997212 
2.4792078e+3, 1.518291e+2, -1598721.1, -1818705.1, -89566.61, -0.006433368, -0.13659257, -1566866.8, -114806.05, 0.10179194, 10.0001, 9.997107 
2.4788332e+3, 1.6181938e+2, -1423670.0, -1623107.9, 18949.672, 0.025378646, -0.16263865, -1421885.5, -67724.04, 0.036105353, 10.0002365, 9.99781 
2.4784629e+3, 1.7181188e+2, -1236263.8, -1325698.6, 83919.76, 0.08111969, -0.15739214, -1185890.9, 70340.664, 0.0076701324, 10.000332, 9.9990425 
2.4780913e+3, 1.8180399e+2, -1221275.4, -1386900.0, -31655.252, 0.13064587, -0.13006856, -1215431.5, -57126.027, 0.000687035, 10.000143, 9.998124 
2.4777156e+3, 1.9179499e+2, -1024764.2, -1139613.1, -68964.75, 0.12149511, -0.27132624, -992446.2, 67946.164, 0.000019881356, 10.00054, 9.998841 
2.477339e+3, 2.0178631e+2, -1071629.5, -1247997.3, -45391.25, 0.09930614, -0.30082238, -1060632.9, -98155.055, 0.0, 10.000023, 9.997759 
2.4769604e+3, 2.1177945e+2, -880398.2, -1011701.9, -55069.72, -0.16421695, -0.1842151, -860359.7, 4189.985, 0.0, 10.000395, 9.998419 
2.4765822e+3, 2.2177249e+2, -885604.1, -1005769.3, -107449.53, -0.31746885, -0.03268676, -822579.75, -55958.74, 0.0, 9.999736, 9.998215 
2.4762061e+3, 2.3176484e+2, -708972.6, -708174.75, -141645.69, -0.13958573, -0.093373016, -566927.44, 101767.016, 0.0, 9.9997, 9.999496 
2.4758306e+3, 2.4175705e+2, -854542.7, -895044.25, 7876.5044, 0.0109698, -0.096332625, -853064.8, -282295.8, 0.0, 9.9986725, 9.998141 
2.475456e+3, 2.5174895e+2, -506661.97, -568129.9, 103075.64, -0.10726077, -0.14282979, -429835.88, 43012.086, 0.0, 10.000055, 9.998926 
2.4750815e+3, 2.617408e+2, -549432.06, -692828.06, 71403.48, -0.19023542, -0.12379849, -519941.8, -145013.27, 0.0, 9.99963, 9.997712 
2.4747063e+3, 2.7173358e+2, -457172.3, -466946.63, 37996.38, -0.17668925, -0.055075727, -423750.1, -146746.47, 0.0, 9.999186, 9.998672 
2.4743304e+3, 2.8172642e+2, -669894.7, -725757.94, 116351.53, -0.2778936, 0.10220652, -578169.06, -399090.78, 0.0, 9.997817, 9.997 
2.4739544e+3, 2.917178e+2, -215145.9, -343364.4, 117129.836, -0.60457623, 0.114052504, -145728.4, -64561.14, 0.0, 9.999948, 9.997794 
2.473585e+3, 3.017085e+2, -318135.47, -439294.1, 12956.091, -0.170922, 0.111333355, -316765.5, -316765.5, 0.0, 9.999004, 9.997398 
2.4732064e+3, 3.116968e+2, -331586.6, 261794.78, -101747.5, -0.37523258, -0.43061966, 278756.63, 278756.63, 0.0, 9.995943, 10.003547 
2.4903259e+3, 1.22226715e+2, -1801935.6, -1851281.1, -238501.72, 0.050932817, -0.016212905, -1586833.9, 155336.67, 0.4399176, 10.000012, 9.999315 
2.4899529e+3, 1.322172e+2, -1500703.0, -1639178.3, -18002.402, 0.14211175, -0.2554981, -1498400.9, 145859.81, 0.31901658, 10.001686, 9.998915 
2.4895816e+3, 1.422112e+2, -1556604.1, -1834973.6, -112882.52, 0.34146863, -0.028686091, -1516582.8, 29735.021, 0.19536594, 10.000962, 9.997334 
2.4892023e+3, 1.5220143e+2, -1304965.0, -1588820.5, -84522.26, -0.045516353, -0.14553079, -1281703.5, 166712.73, 0.094030365, 10.001909, 9.997801 
2.4888256e+3, 1.6219199e+2, -1186935.9, -1441513.6, 30679.057, -0.23863918, -0.2053176, -1183291.0, 167219.27, 0.032013185, 10.001623, 9.998378 
2.4884556e+3, 1.7218497e+2, -1266670.3, -1307250.0, 89311.3, -0.0038186845, -0.18176757, -1195373.1, 57201.918, 0.0062260167, 9.999961, 9.999344 
2.4880843e+3, 1.8217766e+2, -1396275.4, -1419417.5, 17252.545, 0.10665228, -0.12148032, -1387072.9, -232429.45, 0.00043419475, 9.998671, 9.9986105 
2.4877085e+3, 1.921692e+2, -1040580.6, -1120881.1, -32974.754, 0.03172049, -0.22893187, -1028775.3, 27950.709, 0.0000058323185, 10.000257, 9.999127 
2.4873321e+3, 2.0216103e+2, -859532.3, -1085368.1, -69232.445, -0.06932605, -0.23499748, -839998.0, 118808.766, 0.000000000090419006, 10.001137, 9.998345 
2.4869548e+3, 2.1215402e+2, -721692.3, -909780.2, -46155.71, -0.17493698, -0.16133127, -710976.44, 149901.77, 0.0, 10.001247, 9.998747 
2.4865772e+3, 2.221468e+2, -646311.1, -822756.75, -99134.77, -0.27385157, -0.07196232, -601827.6, 161123.4, 0.0, 10.001004, 9.998856 
2.4861997e+3, 2.3213881e+2, -532376.2, -627530.7, -136005.6, -0.14324833, -0.15654749, -435866.25, 229161.22, 0.0, 10.000879, 9.999518 
2.4858235e+3, 2.4213089e+2, -479964.94, -635951.9, 17305.69, -0.053171583, -0.17827162, -478068.06, 89035.3, 0.0, 10.000808, 9.998896 
2.4854502e+3, 2.5212333e+2, -341917.97, -466369.34, 74768.46, -0.0942267, -0.201101, -306869.0, 162307.39, 0.0, 10.000953, 9.999245 
2.4850762e+3, 2.621158e+2, -287908.6, -494852.88, -39891.184, -0.15119164, -0.15405704, -280485.3, 90764.57, 0.0, 10.000957, 9.998459 
2.4846992e+3, 2.7210903e+2, -172377.69, -323623.03, -74325.24, -0.21100074, -0.054489464, -141967.2, 131352.2, 0.0, 10.000958, 9.99888 
2.4843228e+3, 2.8210172e+2, -213544.53, -426135.66, 49013.844, -0.3313812, 0.05329243, -202788.38, -27394.004, 0.0, 10.0004, 9.997864 
2.4839489e+3, 2.9209232e+2, -312925.75, -371443.9, 121732.46, -0.44143888, -0.02741262, -216985.44, -139496.52, 0.0, 9.999004, 9.998146 
2.4835794e+3, 3.020833e+2, -300582.94, -305649.3, 12526.89, -0.0014129558, -0.060586486, -290335.66, -290335.66, 0.0, 9.998448, 9.998611 
2.4831961e+3, 3.1207165e+2, 158281.48, 436598.47, -258455.58, -0.5062838, -0.53013766, 590977.6, 590977.6, 0.0, 9.999218, 10.003323 
2.500319e+3, 1.22597925e+2, -1580539.8, -1544713.6, 61005.074, -0.027781516, -0.10256939, -1499046.1, 239495.11, 0.42027465, 10.000578, 10.001824 
2.4999477e+3, 1.3259174e+2, -1586647.4, -1740628.8, 15773.301, 0.14909521, 0.015893215, -1585048.3, 55552.21, 0.30251706, 10.000977, 9.998604 
2.4995783e+3, 1.4258316e+2, -1529888.9, -1741386.9, -29205.36, 0.61339575, 0.0068140007, -1525930.0, 16753.398, 0.18302314, 10.000648, 9.998176 
2.499197e+3, 1.525741e+2, -1277711.8, -1460324.4, -26498.783, -0.05879497, -0.1528195, -1273944.4, 170824.81, 0.08629053, 10.001504, 9.998912 
2.4988188e+3, 1.625657e+2, -1187276.1, -1394399.6, 738.26526, -0.39015457, -0.195913, -1187273.5, 159575.02, 0.028287582, 10.001392, 9.998802 
2.498448e+3, 1.7255877e+2, -1192977.4, -1274374.3, -3289.1484, -0.0748977, -0.19865212, -1192844.8, 56067.41, 0.0050760456, 10.000412, 9.999362 
2.498076e+3, 1.8255158e+2, -1345779.6, -1416601.1, 24750.197, 0.11793476, -0.12357161, -1337987.5, -187007.05, 0.00028139996, 9.999195, 9.998365 
2.4977005e+3, 1.9254395e+2, -1056901.1, -1139201.3, 8399.125, -0.1047989, -0.14237289, -1056052.6, -2995.726, 0.0000014559199, 10.000286, 9.998973 
2.4973246e+3, 2.025363e+2, -946364.56, -1094437.1, -54753.125, -0.20999992, -0.09182587, -928317.9, 26815.361, 0.0, 10.000501, 9.998584 
2.4969493e+3, 2.1252926e+2, -785160.3, -829798.56, -57393.543, -0.1366823, -0.11585006, -745898.9, 111302.945, 0.0, 10.00051, 9.999603 
2.4965727e+3, 2.2252189e+2, -847029.2, -965668.1, -118936.336, -0.08301338, -0.07200518, -773440.25, -14167.132, 0.0, 9.999931, 9.998395 
2.4961936e+3, 2.3251328e+2, -620771.2, -702481.06, -150281.33, -0.119341865, -0.20447333, -505890.4, 155465.02, 0.0, 10.000481, 9.999169 
2.4958162e+3, 2.4250492e+2, -680166.0, -804033.75, 23789.613, -0.15152939, -0.2297589, -675754.2, -112318.18, 0.0, 9.999826, 9.9981985 
2.4954423e+3, 2.5249708e+2, -472769.2, -544782.94, 70637.5, -0.2605908, -0.2763735, -429490.8, 36022.64, 0.0, 10.0002365, 9.9990015 
2.4950683e+3, 2.6248953e+2, -505924.22, -651663.56, -47178.355, -0.307085, -0.20026773, -491985.0, -124396.63, 0.0, 9.999811, 9.997907 
2.4946934e+3, 2.724824e+2, -255005.0, -367729.06, -70699.97, -0.19180217, -0.15173686, -220950.42, 48710.125, 0.0, 10.00048, 9.998781 
2.4943183e+3, 2.8247464e+2, -371618.8, -423175.88, -7566.766, -0.13792121, -0.101627685, -370531.22, -198794.1, 0.0, 9.999129, 9.998458 
2.4939421e+3, 2.924652e+2, -394412.63, -239598.97, 67599.37, -0.31698078, -0.3673234, -214236.67, -140409.88, 0.0, 9.997814, 9.999573 
2.4935687e+3, 3.0245754e+2, -714257.7, -611685.25, 24121.111, -0.21169429, -0.31410906, -606296.06, -606296.06, 0.0, 9.996291, 9.99749 
2.4931921e+3, 3.1245318e+2, -324246.16, -75454.28, -130601.61, -0.21901415, 0.02720016, -19486.334, -19486.334, 0.0, 9.997506, 10.000477 
2.5103116e+3, 1.2297331e+2, -1598193.4, -1462243.8, 1288.8948, -0.2317132, -0.124620155, -1462231.6, 272633.5, 0.39734322, 9.999817, 10.002962 
2.509941e+3, 1.3296959e+2, -1708273.9, -1858580.8, 129803.14, 0.070197746, 0.26723853, -1633437.6, 3464.9302, 0.28406283, 10.000271, 9.998081 
2.5095704e+3, 1.4295806e+2, -1607488.8, -1756732.3, 93932.11, 0.37443534, 0.0057855267, -1562145.4, -23129.172, 0.16993596, 10.000029, 9.998352 
2.5091916e+3, 1.5295102e+2, -1297919.0, -1417492.9, 101844.4, -0.07430588, 0.0061517395, -1239609.5, 201472.17, 0.078587286, 10.001096, 9.999432 
2.5088146e+3, 1.6294327e+2, -1223458.8, -1466877.6, 69760.516, -0.34544525, 0.035413425, -1204883.8, 138270.14, 0.024857625, 10.0013685, 9.998304 
2.508442e+3, 1.7293394e+2, -1061160.9, -1289917.0, 39216.688, -0.14211223, -0.1228856, -1054624.5, 190617.0, 0.0041356636, 10.001664, 9.998652 
2.508069e+3, 1.8292542e+2, -998408.06, -1196670.1, 32213.072, -0.059249472, -0.1414319, -993305.5, 154016.8, 0.00018434241, 10.001339, 9.99883 
2.507694e+3, 1.9291885e+2, -885663.7, -1014701.75, 71387.12, -0.1588403, -0.08359043, -853959.94, 195426.84, 0.00000026313862, 10.001249, 9.999379 
2.507319e+3, 2.0291172e+2, -863700.7, -1004386.56, -39367.656, -0.23498149, -0.00889062, -853433.8, 98022.97, 0.0, 10.000803, 9.999065 
2.5069427e+3, 2.1290356e+2, -843977.1, -867473.44, -72409.17, -0.12290137, -0.12673154, -782369.25, 71166.3, 0.0, 10.000074, 9.999613 
2.5065663e+3, 2.2289577e+2, -770479.75, -861423.56, -115960.47, -0.07416343, -0.13918348, -691394.4, 64216.242, 0.0, 10.000023, 9.999119 
2.506188e+3, 2.3288827e+2, -441048.63, -593841.5, -104379.25, -0.13504632, -0.18584028, -388094.97, 269587.34, 0.0, 10.001467, 9.999516 
2.5058106e+3, 2.4288066e+2, -316680.7, -598559.06, 55157.66, -0.20579247, -0.15515047, -306271.84, 253484.28, 0.0, 10.002065, 9.998553 
2.5054368e+3, 2.5287256e+2, -364415.97, -529661.94, 83688.305, -0.24585222, -0.19179702, -329436.7, 132400.89, 0.0, 10.000999, 9.998805 
2.5050625e+3, 2.6286468e+2, -383120.13, -523939.03, -25144.088, -0.2702166, -0.14848475, -378765.2, -14848.843, 0.0, 10.0002575, 9.998595 
2.5046873e+3, 2.7285716e+2, -231760.66, -344023.3, -34040.902, -0.18181239, -0.13459189, -222245.13, 43746.227, 0.0, 10.000494, 9.998994 
2.5043118e+3, 2.8284928e+2, -45472.574, -137377.98, -13496.653, -0.15991189, -0.14226711, -43531.535, 124536.25, 0.0, 10.000649, 9.999728 
2.5039342e+3, 2.9284045e+2, 76449.59, 53508.06, -10326.732, -0.34852082, -0.4143897, 80413.195, 150561.42, 0.0, 10.000541, 10.000368 
2.5035602e+3, 3.0283424e+2, -113908.23, -319777.1, 1441.7786, -0.22194196, -0.2685453, -113898.13, -113898.13, 0.0, 10.000177, 9.997687 
2.5031894e+3, 3.128326e+2, -5866.8154, -86561.55, -28442.684, 0.28118607, 0.4555691, 3150.7476, 3150.7476, 0.0, 10.000062, 9.9992895 
2.5203055e+3, 1.2335305e+2, -1595551.4, -1526065.3, -134440.19, -0.17361549, 0.20009428, -1421951.4, 309192.8, 0.3720952, 10.000129, 10.0019865 
2.5199327e+3, 1.3334626e+2, -1752682.0, -1980917.8, 8533.075, -0.095819205, 0.36189145, -1752363.4, -119148.875, 0.26429757, 10.0003, 9.997251 
2.5195622e+3, 1.4333391e+2, -1628649.4, -1712014.8, 38031.313, 0.2673122, 0.039223917, -1613906.6, -78568.83, 0.15642525, 9.999707, 9.998757 
2.5191864e+3, 1.5332884e+2, -1378660.4, -1426262.8, 33032.848, 0.011098487, 0.18916726, -1361747.1, 75637.914, 0.071005836, 10.000448, 9.999613 
2.5188112e+3, 1.6332148e+2, -1390996.5, -1637020.8, 22874.502, -0.109791376, 0.28208324, -1388887.8, -49433.49, 0.021693112, 10.000638, 9.997487 
2.518437e+3, 1.7330955e+2, -1241492.1, -1458323.9, -6349.6743, -0.13414526, -0.050994, -1241306.3, 261.35822, 0.00335279, 10.000911, 9.99783 
2.5180626e+3, 1.8329997e+2, -1094768.4, -1243756.6, 18464.254, -0.113023184, -0.13139564, -1092514.1, 51144.176, 0.00011963712, 10.000675, 9.998822 
2.517689e+3, 1.9329429e+2, -925219.7, -997251.6, 27984.617, -0.10249198, -0.044551156, -915625.44, 130086.11, 0.00000002568285, 10.000787, 9.999707 
2.517314e+3, 2.032873e+2, -999036.2, -1146214.3, -80723.09, -0.07900699, 0.0417606, -963393.56, -15615.376, 0.0, 10.000211, 9.998376 
2.5169364e+3, 2.1327738e+2, -939496.56, -987788.4, -126062.05, -0.07464462, -0.21354577, -835288.8, 14586.222, 0.0, 9.999716, 9.998951 
2.516559e+3, 2.2326925e+2, -909373.56, -908764.06, -69372.67, -0.06637847, -0.2290393, -839695.5, -87741.34, 0.0, 9.999122, 9.999178 
2.5161818e+3, 2.3326409e+2, -490032.78, -540868.7, -63373.79, -0.13592263, -0.12714659, -447169.66, 206833.86, 0.0, 10.000912, 10.000104 
2.5158063e+3, 2.4325792e+2, -521585.53, -760192.06, 25006.803, -0.1338515, 0.043292113, -518992.9, 37071.285, 0.0, 10.00107, 9.997901 
2.515433e+3, 2.532496e+2, -500679.13, -632795.6, 24396.875, -0.010113871, 0.0008595299, -496317.94, -38168.637, 0.0, 10.000359, 9.998365 
2.5150582e+3, 2.632414e+2, -575079.2, -652774.25, -39238.164, -0.029354613, 0.060531918, -558711.06, -198479.13, 0.0, 9.999242, 9.998163 
2.5146794e+3, 2.7323335e+2, -334044.28, -360542.9, -33973.992, -0.30521688, -0.029356023, -310827.5, -48515.2, 0.0, 9.9998, 9.999138 
2.514302e+3, 2.8322577e+2, -252955.53, -269060.7, -15501.989, -0.49504483, -0.0055542653, -243539.39, -79153.4, 0.0, 9.999544, 9.9993105 
2.5139266e+3, 2.932194e+2, -11949.29, 19431.006, -6219.4727, -0.505096, -0.053023417, 20618.73, 87062.53, 0.0, 10.000067, 10.000296 
2.513554e+3, 3.0321363e+2, -190758.34, -286791.25, -13116.752, -0.23546867, 0.12291522, -188999.02, -188999.02, 0.0, 9.999541, 9.998161 
2.5131774e+3, 3.13202e+2, -167659.4, -24973.73, 68234.734, -0.31706205, -0.32060155, 2404.143, 2404.143, 0.0, 9.998648, 10.000286 
2.530303e+3, 1.2372245e+2, -1794759.0, -1909463.9, -47526.7, 0.09336769, -0.043698683, -1777625.9, -50105.21, 0.34545994, 9.999901, 9.9986 
2.5299242e+3, 1.3371573e+2, -1778273.0, -1895668.8, -81401.54, -0.30826458, 0.06090946, -1736613.3, -107021.72, 0.24384509, 9.999731, 9.998088 
2.529554e+3, 1.437077e+2, -1829007.9, -1825926.9, -1469.5029, 0.103766315, 0.13102663, -1825338.4, -293664.97, 0.14280653, 9.99847, 9.998535 
2.52918e+3, 1.5370135e+2, -1523853.8, -1518456.1, -1552.8094, 0.026977679, 0.17876245, -1518041.3, -84305.46, 0.06363834, 9.999542, 9.999381 
2.528806e+3, 1.6369388e+2, -1458845.4, -1603569.3, -62615.996, -0.036197666, 0.24537724, -1435515.1, -99707.086, 0.0187796, 9.9998665, 9.998087 
2.5284305e+3, 1.7368363e+2, -1299338.6, -1421297.8, -22607.408, -0.13600811, 0.009464617, -1295282.9, -57377.43, 0.0026956536, 10.000142, 9.99849 
2.528056e+3, 1.8367487e+2, -1165107.9, -1265545.1, 8600.818, -0.19064598, -0.027232299, -1164376.6, -24387.027, 0.00007576087, 10.00014, 9.998912 
2.527683e+3, 1.9366845e+2, -972538.5, -1054003.1, -3242.42, -0.09270966, 0.024917131, -972409.7, 69643.06, 0.00000000011876218, 10.000563, 9.999435 
2.5273085e+3, 2.0366149e+2, -863958.5, -985437.6, -151636.73, -0.066573344, 0.092374995, -761348.8, 182771.2, 0.0, 10.000689, 9.999233 
2.5269297e+3, 2.136531e+2, -713923.3, -814576.9, -127826.805, -0.11285646, -0.06269418, -626872.94, 219326.63, 0.0, 10.000923, 9.999571 
2.526552e+3, 2.2364563e+2, -599811.75, -727953.7, -41865.723, -0.16410038, -0.05753842, -587346.25, 160925.0, 0.0, 10.001012, 9.99952 
2.5261763e+3, 2.336397e+2, -441726.97, -550504.4, -59446.652, -0.15227716, 0.010453559, -415542.5, 234786.08, 0.0, 10.001259, 9.999924 
2.525801e+3, 2.4363291e+2, -439047.75, -652911.2, -45018.563, -0.14503069, 0.10314017, -429957.66, 122437.75, 0.0, 10.001237, 9.998584 
2.5254264e+3, 2.5362438e+2, -361501.84, -540565.6, -6127.798, -0.08755195, 0.032752432, -361292.38, 93188.56, 0.0, 10.001122, 9.998671 
2.5250506e+3, 2.6361647e+2, -252768.5, -394759.44, -27470.156, -0.13767986, 0.066358864, -247639.3, 108920.26, 0.0, 10.000873, 9.999185 
2.5246724e+3, 2.736092e+2, -234577.63, -272033.16, -403.30472, -0.36017615, 0.0244572, -234573.28, 24058.088, 0.0, 10.000149, 9.99964 
2.5242954e+3, 2.8360227e+2, -217287.4, -246301.52, 16568.547, -0.4937806, 0.09371526, -209772.39, -49073.703, 0.0, 9.999701, 9.999378 
2.5239208e+3, 2.9359633e+2, -66766.66, -87413.57, -50402.16, -0.4283841, 0.17548804, -25641.58, 37113.71, 0.0, 9.999945, 9.999665 
2.5235477e+3, 3.0358875e+2, 3482.604, -156935.75, -125815.69, -0.18850873, 0.19864455, 72481.67, 72481.67, 0.0, 10.000581, 9.998613 
2.5231704e+3, 3.135755e+2, 271881.44, 215284.47, -145195.81, -0.37802798, -0.37573606, 391510.72, 391510.72, 0.0, 10.001337, 10.0007515 
2.5402984e+3, 1.2409438e+2, -1803739.5, -1893619.0, -20885.113, 0.2840982, 0.086576305, -1799123.5, -75250.414, 0.31815657, 9.999786, 9.998745 
2.539917e+3, 1.3408573e+2, -1626326.5, -1675057.8, -147160.56, -0.2814643, -0.14705858, -1501528.1, 124434.14, 0.22319712, 10.000236, 9.999475 
2.5395453e+3, 1.4408065e+2, -1579830.5, -1723704.6, 20522.49, 0.026473407, 0.15336412, -1576960.4, -48944.945, 0.12934339, 10.000196, 9.998437 
2.539174e+3, 1.5407287e+2, -1498181.4, -1579020.8, 6765.5015, 0.11792656, 0.09685482, -1497619.1, -67524.125, 0.05657354, 9.999959, 9.99883 
2.5388008e+3, 1.6406548e+2, -1437345.6, -1485322.4, -40581.246, 0.14518744, 0.17171246, -1414193.0, -82025.08, 0.016116831, 9.999558, 9.999041 
2.5384244e+3, 1.7405798e+2, -1256186.9, -1290803.8, -28012.67, -0.079131395, 0.08308056, -1240566.8, -6327.825, 0.0021455006, 9.99994, 9.999486 
2.5380495e+3, 1.8405038e+2, -1262428.3, -1381162.6, 41873.83, -0.14917593, 0.13709553, -1249146.5, -112832.54, 0.000046550977, 9.99977, 9.998313 
2.5376776e+3, 1.9404253e+2, -1124647.9, -1212888.0, 16452.246, -0.021912163, 0.10088635, -1121680.3, -83284.16, 0.0, 9.999889, 9.998688 
2.5373024e+3, 2.0403574e+2, -962658.1, -942848.44, -122974.58, 0.020456519, 0.19972019, -829380.44, 111082.69, 0.0, 9.999722, 9.999953 
2.536923e+3, 2.1402997e+2, -770163.3, -718995.75, -136704.94, -0.1421479, 0.1787426, -605501.25, 237012.84, 0.0, 10.000103, 10.000583 
2.5365454e+3, 2.2402321e+2, -813216.94, -913429.2, -31806.516, -0.1921737, 0.24192679, -803974.3, -59396.94, 0.0, 10.000019, 9.998703 
2.5361708e+3, 2.3401481e+2, -629980.7, -713351.2, -57003.945, -0.12437285, 0.11464201, -601046.5, 45613.57, 0.0, 10.000419, 9.99916 
2.5357947e+3, 2.4400656e+2, -590563.8, -695705.75, -45364.54, -0.16845608, 0.102440804, -573696.7, -24956.416, 0.0, 10.000217, 9.998729 
2.535417e+3, 2.539976e+2, -423704.47, -492552.88, -14550.14, -0.45431992, -0.10757256, -420755.78, 30070.047, 0.0, 10.000453, 9.999273 
2.5350407e+3, 2.639903e+2, -382048.13, -400283.5, -54777.266, -0.5095476, -0.060371194, -335634.9, 17259.686, 0.0, 9.999885, 9.999579 
2.5346667e+3, 2.7398524e+2, -315412.8, -217048.47, -29671.0, -0.23539828, 0.009127086, -208791.52, 46149.81, 0.0, 9.999309, 10.0003805 
2.534292e+3, 2.8397873e+2, -561209.94, -646040.7, 13961.651, -0.092724584, 0.18051806, -558971.2, -401966.75, 0.0, 9.998475, 9.997201 
2.5339165e+3, 2.9396912e+2, -369614.8, -446542.28, -42752.83, -0.16732347, 0.058235552, -350569.72, -291468.5, 0.0, 9.998919, 9.997644 
2.5335422e+3, 3.0395806e+2, -334517.28, -506313.1, -92435.11, -0.121618204, -0.05905319, -294230.0, -294230.0, 0.0, 9.999257, 9.996793 
2.5331673e+3, 3.1395006e+2, 52470.65, 149997.6, -104640.7, -0.20299755, -0.044081792, 216679.14, 216679.14, 0.0, 9.999858, 10.00096 
2.5502834e+3, 1.24464616e+2, -1930011.1, -1794326.5, -87387.836, -0.57646185, -0.04842134, -1751537.9, -31292.79, 0.29081753, 9.998374, 10.000077 
2.5499123e+3, 1.3445918e+2, -1421246.6, -1488210.4, -7923.7944, -0.2075809, -0.03548149, -1420321.8, 201977.83, 0.2027681, 10.001511, 10.000261 
2.5495395e+3, 1.4445266e+2, -1297413.8, -1518681.8, -6807.4063, -0.09846032, 0.06339567, -1297204.5, 227160.69, 0.11625642, 10.002142, 9.998894 
2.549168e+3, 1.5444452e+2, -1413507.5, -1508504.5, 15414.497, 0.13194923, -0.060039997, -1411068.9, 15378.481, 0.04988728, 10.000409, 9.999098 
2.5487942e+3, 1.6443764e+2, -1404281.3, -1366346.3, 18254.98, 0.13590014, 0.020601284, -1358988.6, -30473.508, 0.013707004, 9.999364, 9.999946 
2.5484174e+3, 1.7443177e+2, -1171975.5, -1154943.1, 57982.22, -0.11654419, 0.03205784, -1104855.0, 125715.27, 0.0016894786, 10.000119, 10.000337 
2.5480425e+3, 1.8442538e+2, -1151872.3, -1236561.8, 77342.93, -0.22143257, 0.13007344, -1106041.0, 26592.982, 0.000027889511, 10.000102, 9.999151 
2.54767e+3, 1.9441794e+2, -1159338.1, -1174278.3, 122459.0, -0.08656445, 0.09322738, -1044121.56, -9409.284, 0.0, 9.999364, 9.999233 
2.5472948e+3, 2.04411e+2, -1037282.2, -956802.9, -7017.597, -0.053370014, 0.1521094, -956195.56, -19413.88, 0.0, 9.999055, 10.000191 
2.5469163e+3, 2.1440437e+2, -830785.44, -771815.44, -40766.28, -0.15095213, 0.08269855, -750988.9, 87853.72, 0.0, 9.999674, 10.000464 
2.546539e+3, 2.2439742e+2, -789969.94, -860706.1, 16327.615, -0.188717, 0.12017575, -786383.0, -45474.234, 0.0, 9.999947, 9.999111 
2.5461644e+3, 2.3438959e+2, -663289.44, -730290.1, 47109.934, -0.12592037, 0.069786236, -638983.06, 4003.0115, 0.0, 10.00013, 9.999211 
2.5457883e+3, 2.4438159e+2, -548909.4, -631867.6, 42325.34, -0.20050862, 0.06897124, -531126.75, 13937.407, 0.0, 10.000164, 9.999248 
2.54541e+3, 2.5437295e+2, -509726.5, -536572.9, 33951.387, -0.4855154, -0.08954466, -486641.06, -39493.8, 0.0, 9.999696, 9.999418 
2.545034e+3, 2.6436555e+2, -367810.56, -365094.06, -65310.76, -0.5127684, -0.07364622, -301127.44, 48089.785, 0.0, 9.999747, 9.9999275 
2.544661e+3, 2.7435997e+2, -135400.58, -164909.11, -123221.234, -0.115297586, 0.004296695, -26053.438, 225214.73, 0.0, 10.000586, 10.000186 
2.5442868e+3, 2.8435293e+2, -155017.88, -414017.72, -47335.004, 0.080535606, 0.10469283, -146638.02, 6697.774, 0.0, 10.000934, 9.997672 
2.54391e+3, 2.9434273e+2, -135423.11, -361115.88, 36330.805, -0.07056893, -0.04472528, -129718.94, -74281.47, 0.0, 10.0004835, 9.997559 
2.543537e+3, 3.0433163e+2, -148553.08, -336488.94, 115170.86, 0.07606148, -0.18736047, -93879.49, -93879.49, 0.0, 9.999972, 9.997704 
2.54316e+3, 3.1432366e+2, -163683.36, -99479.28, 76301.516, -0.19625299, -0.11316642, -48801.72, -48801.72, 0.0, 9.99868, 9.999933 
2.5602797e+3, 1.2483886e+2, -1892399.1, -1807487.1, -200251.42, -0.11928092, -0.03246994, -1645240.6, 71337.125, 0.26403108, 9.998656, 10.000042 
2.5599077e+3, 1.3483357e+2, -1448520.4, -1536193.6, 99761.57, -0.15399945, 0.039351206, -1383389.0, 235238.88, 0.18292536, 10.001412, 9.999915 
2.5595355e+3, 1.4482558e+2, -1315350.9, -1492924.1, -33943.56, -0.01749604, 0.0064571737, -1309083.8, 211622.22, 0.1037245, 10.001776, 9.999266 
2.5591618e+3, 1.5481694e+2, -1413706.3, -1495104.9, -71578.73, 0.170762, -0.21013294, -1372065.1, 50726.645, 0.043632858, 10.000309, 9.999247 
2.558787e+3, 1.6481045e+2, -1326707.6, -1241698.6, 55530.496, 0.16818659, -0.13699983, -1214272.6, 110582.12, 0.011545959, 9.9995775, 10.0006695 
2.558411e+3, 1.7480582e+2, -1125130.9, -1072611.4, 47363.12, -0.098169774, -0.07548444, -1044715.4, 182182.56, 0.0013158798, 10.000244, 10.000808 
2.5580359e+3, 1.8480045e+2, -1133742.9, -1129623.0, 18641.48, -0.2027304, 0.06268086, -1112928.0, 16022.822, 0.000016496271, 9.999897, 9.99997 
2.5576615e+3, 1.9479384e+2, -1210572.6, -1120133.1, 26061.266, -0.14130796, 0.010595076, -1113160.8, -82142.4, 0.0, 9.998722, 9.999926 
2.5572863e+3, 2.0478643e+2, -1200687.6, -1094405.9, -31608.46, -0.08085329, 0.021558117, -1085716.0, -152623.8, 0.0, 9.99829, 9.9995985 
2.5569093e+3, 2.1477781e+2, -1003045.56, -934036.0, -67010.15, -0.06655586, -0.20189264, -893168.75, -57992.797, 0.0, 9.998947, 9.999685 
2.5565332e+3, 2.247707e+2, -884700.3, -884136.06, 6858.552, -0.061573353, -0.14036888, -877553.8, -140308.8, 0.0, 9.999293, 9.999226 
2.5561574e+3, 2.3476458e+2, -771004.44, -754346.7, 24500.701, -0.11713861, -0.083819985, -736797.9, -97493.42, 0.0, 9.999345, 9.999388 
2.555782e+3, 2.4475792e+2, -748510.75, -788838.56, 23433.018, -0.1239309, 0.07451091, -737760.44, -196390.13, 0.0, 9.999174, 9.998596 
2.555406e+3, 2.5475013e+2, -678272.0, -682971.06, 465.83688, -0.15435164, 0.023878934, -678226.25, -234777.75, 0.0, 9.99894, 9.998733 
2.5550303e+3, 2.6474187e+2, -627605.94, -666556.06, -44180.14, -0.14113432, 0.07573601, -598798.9, -253268.58, 0.0, 9.998879, 9.998196 
2.554655e+3, 2.747325e+2, -336468.84, -450303.8, -94620.87, -0.079241775, -0.110501915, -282965.75, -35343.64, 0.0, 10.000122, 9.998396 
2.5542793e+3, 2.8472447e+2, -126372.47, -163737.42, -76602.3, -0.0846924, -0.102260046, -66207.33, 83489.734, 0.0, 10.000257, 9.999652 
2.553903e+3, 2.9471782e+2, -97421.57, -86232.83, 18921.918, -0.17956533, -0.17857936, -72095.6, -20340.125, 0.0, 9.999749, 9.999729 
2.5535318e+3, 3.0471015e+2, -272579.38, -360484.72, 56544.242, 0.2522364, -0.09484826, -244914.39, -244914.39, 0.0, 9.999175, 9.997809 
2.553154e+3, 3.1470498e+2, -395726.88, -175520.88, 91564.29, -0.019120498, 0.15656954, -142422.31, -142422.31, 0.0, 9.99726, 9.999945 
2.570272e+3, 1.2521183e+2, -1946131.0, -1738569.9, 84939.87, -0.16508861, -0.20671721, -1708241.6, 4680.888, 0.23823552, 9.997963, 10.000692 
2.5699025e+3, 1.3520736e+2, -1568992.6, -1588078.5, 214969.14, -0.13269818, -0.08119083, -1363354.8, 251607.92, 0.16394834, 10.000482, 9.999998 
2.5695303e+3, 1.4519961e+2, -1459233.6, -1570338.8, -31613.11, -0.052214526, -0.07653018, -1450868.4, 66169.76, 0.09188186, 10.000715, 9.999214 
2.569153e+3, 1.5519226e+2, -1434666.8, -1506546.4, -41504.574, -0.08795791, -0.14850254, -1415704.0, 3409.148, 0.03784501, 10.000157, 9.99925 
2.5687778e+3, 1.6518584e+2, -1259612.6, -1229423.9, 87936.586, -0.10840814, -0.061171267, -1155295.6, 165881.1, 0.009625426, 10.000146, 10.000463 
2.5684047e+3, 1.7517976e+2, -1044877.56, -1087348.3, 79477.88, -0.17779858, -0.09571535, -983847.06, 239387.64, 0.0010124295, 10.001001, 10.000349 
2.5680292e+3, 1.8517385e+2, -1061906.0, -1063286.0, -116917.79, -0.2278046, 0.002983489, -945676.2, 179615.69, 0.000009793076, 10.000237, 10.000253 
2.5676528e+3, 1.9516763e+2, -1294505.9, -1143862.0, -106452.875, -0.19947761, -0.014711184, -1088778.4, -61425.047, 0.0, 9.998027, 10.000103 
2.5672776e+3, 2.0516059e+2, -1261311.6, -1145195.0, -87059.34, -0.111310355, 0.015407673, -1098610.6, -169186.33, 0.0, 9.997899, 9.999458 
2.5669035e+3, 2.1515241e+2, -862200.3, -914230.44, -87170.2, 0.054004375, -0.11187393, -797246.0, 34260.74, 0.0, 10.000034, 9.999337 
2.5665277e+3, 2.2514562e+2, -592515.25, -611172.06, -94765.4, 0.030818522, -0.07269885, -506620.22, 226952.36, 0.0, 10.000611, 10.00049 
2.56615e+3, 2.3513985e+2, -671308.1, -623672.3, -38071.246, -0.14331867, -0.061095577, -602582.44, 33043.63, 0.0, 9.999503, 10.000268 
2.565774e+3, 2.4513337e+2, -650172.3, -659896.6, 13520.68, -0.18990159, 0.029333789, -640666.1, -102977.99, 0.0, 9.999421, 9.999367 
2.5653994e+3, 2.55126e+2, -410031.2, -515112.78, 52881.164, -0.12102863, 0.0043203793, -388027.0, 51734.137, 0.0, 10.000513, 9.999159 
2.5650245e+3, 2.6511768e+2, -338807.28, -538109.3, 66925.055, -0.08391836, 0.031725053, -318419.63, 23424.746, 0.0, 10.000787, 9.998177 
2.5646487e+3, 2.7510768e+2, -325130.1, -503052.13, 91212.21, -0.07386145, -0.13902946, -286679.47, -42734.64, 0.0, 10.000294, 9.997989 
2.5642726e+3, 2.8509948e+2, -83656.54, -61149.0, 42043.88, -0.12519127, -0.15542975, -28878.807, 117143.69, 0.0, 10.000084, 10.000463 
2.5638962e+3, 2.9509354e+2, -4627.384, 9955.571, -27847.3, -0.17725125, -0.16702458, 31450.162, 79522.78, 0.0, 10.000034, 10.000293 
2.5635242e+3, 3.050869e+2, -134849.78, -249009.67, -34028.55, 0.20608516, -0.04196366, -125476.27, -125476.27, 0.0, 9.999737, 9.998374 
2.563142e+3, 3.1507644e+2, -101312.8, -129775.945, -86509.41, -0.41416115, -0.2921926, -27872.166, -27872.166, 0.0, 9.999359, 9.999365 
2.5802654e+3, 1.2558748e+2, -1753370.8, -1672965.0, 173204.73, -0.017306883, -0.003981379, -1535358.6, 173882.88, 0.21373183, 9.999243, 10.000746 
2.5798973e+3, 1.3558121e+2, -1579796.4, -1534104.1, 181565.16, -0.0040646307, -0.16443726, -1373953.4, 237344.7, 0.14603193, 9.999932, 10.00068 
2.5795245e+3, 1.4557412e+2, -1557928.3, -1598088.5, -72487.766, -0.012256783, -0.14503032, -1502790.8, 10576.836, 0.080827504, 9.999932, 9.9993925 
2.5791442e+3, 1.555688e+2, -1453436.0, -1526495.5, -85015.375, -0.27570584, -0.020197935, -1397434.5, 17989.795, 0.032553293, 10.000104, 9.999133 
2.5787693e+3, 1.6556206e+2, -1320300.3, -1337225.5, 131577.63, -0.31255504, 0.07785183, -1196913.4, 120578.625, 0.007938516, 10.000062, 9.999736 
2.5783986e+3, 1.755539e+2, -1257169.3, -1283437.4, 79601.3, -0.1974369, -0.10848158, -1189625.8, 29945.908, 0.00076767127, 9.999945, 9.999496 
2.578023e+3, 1.8554717e+2, -1161730.1, -1131515.6, -167607.78, -0.14991854, -0.03570456, -978335.6, 143300.84, 0.000005913737, 9.99972, 9.999999 
2.5776443e+3, 1.9554116e+2, -1249965.6, -1148866.8, -184017.4, -0.15342829, -0.03110104, -1008582.1, 15111.958, 0.0, 9.998558, 9.999765 
2.5772697e+3, 2.0553483e+2, -1243320.4, -1192425.5, 16299.255, -0.0025180995, 0.12061896, -1187653.1, -261894.27, 0.0, 9.998307, 9.998913 
2.5768983e+3, 2.1552774e+2, -1036829.75, -1049427.3, -2692.4727, 0.24946377, 0.11749108, -1036278.4, -208443.89, 0.0, 9.999087, 9.998848 
2.5765228e+3, 2.255215e+2, -723916.06, -532168.0, -103578.21, 0.18994218, 0.1787912, -486902.8, 242992.17, 0.0, 9.999284, 10.001622 
2.5761425e+3, 2.3551549e+2, -763861.7, -541047.4, -83685.69, -0.121608995, 0.031025035, -513117.38, 118830.664, 0.0, 9.998493, 10.001277 
2.5757656e+3, 2.4550876e+2, -716970.5, -580486.75, 54034.902, -0.2931618, 0.006024692, -561684.25, -27675.58, 0.0, 9.9986315, 10.000241 
2.5753906e+3, 2.5550082e+2, -494828.94, -470530.06, 84348.77, -0.35401085, -0.20041166, -397460.22, 38621.55, 0.0, 9.999689, 9.999823 
2.5750163e+3, 2.654938e+2, -438850.0, -517807.47, 47190.52, -0.25483924, -0.095506236, -416802.2, -78651.64, 0.0, 9.999915, 9.998721 
2.5746423e+3, 2.7548707e+2, -457281.63, -510950.4, 81870.41, -0.038821716, -0.033751898, -397960.06, -157740.23, 0.0, 9.999284, 9.99839 
2.5742665e+3, 2.8547904e+2, -371251.3, -420367.4, 68254.95, -0.023320967, 0.0590263, -323270.84, -180969.34, 0.0, 9.999181, 9.998388 
2.5738892e+3, 2.9546943e+2, -284997.06, -355378.56, 3858.203, -0.20609128, -0.14886342, -284786.2, -240388.31, 0.0, 9.999216, 9.998151 
2.5735128e+3, 3.0546358e+2, -145106.08, -78890.57, -19352.469, -0.18248035, 0.09193139, -73649.38, -73649.38, 0.0, 9.999081, 9.9998045 
2.573136e+3, 3.1545764e+2, 19376.2, 422971.84, 58221.69, -0.27984118, 0.10798928, 431202.88, 431202.88, 0.0, 9.998296, 10.003632 
2.5902584e+3, 1.2596203e+2, -1669882.5, -1565034.0, 182844.8, -0.14708054, 0.054626316, -1427246.5, 278327.4, 0.19077115, 9.999643, 10.001359 
2.589891e+3, 1.3595687e+2, -1739292.9, -1623367.8, 167014.84, 0.035759445, 0.03118516, -1504543.4, 103080.86, 0.12932457, 9.998875, 10.00049 
2.5895172e+3, 1.4594992e+2, -1638227.8, -1486375.4, -61950.2, 0.021294203, 0.0020033636, -1464308.6, 45382.266, 0.07062259, 9.998749, 10.000739 
2.589139e+3, 1.5594502e+2, -1382664.6, -1371093.1, 6583.457, -0.17180434, 0.057947718, -1368114.4, 43623.32, 0.027766839, 10.000083, 10.000206 
2.5887635e+3, 1.6593844e+2, -1363424.1, -1375809.1, 131381.31, -0.26241654, 0.13573982, -1238089.5, 75713.6, 0.0064744665, 9.999842, 9.999577 
2.588391e+3, 1.7593013e+2, -1513520.0, -1443021.0, 128083.69, -0.21524885, -0.017995127, -1345424.9, -129538.51, 0.0005723583, 9.998282, 9.999232 
2.588016e+3, 1.8592268e+2, -1212430.0, -1137719.8, -54092.375, -0.1412186, -0.00951008, -1109337.6, 8619.468, 0.0000035552432, 9.999271, 10.000183 
2.587639e+3, 1.9591548e+2, -745901.2, -902317.7, -36972.758, -0.0819023, -0.09765741, -737602.1, 282420.75, 0.0, 10.001928, 9.999867 
2.5872633e+3, 2.0590886e+2, -706448.94, -789994.94, 63775.957, -0.026204066, -0.044291288, -671983.1, 250103.6, 0.0, 10.001327, 10.000248 
2.586889e+3, 2.159024e+2, -1057920.5, -955070.3, 140355.13, 0.06273064, -0.046932537, -857015.94, -32863.88, 0.0, 9.998388, 9.999893 
2.586513e+3, 2.258964e+2, -985216.2, -726042.56, 56978.426, 0.03640274, 0.03570481, -714069.2, 12143.004, 0.0, 9.997709, 10.001069 
2.5861347e+3, 2.3589048e+2, -754174.9, -613343.75, 712.2352, -0.10512498, 0.0012381481, -613340.2, 14930.39, 0.0, 9.99878, 10.000681 
2.585759e+3, 2.4588373e+2, -592116.1, -468257.53, 39669.977, -0.22619662, -0.02785847, -456641.3, 73691.72, 0.0, 9.99913, 10.000816 
2.5853837e+3, 2.5587603e+2, -564571.0, -458919.7, 33351.688, -0.31769288, -0.2319232, -449272.25, -16869.703, 0.0, 9.998873, 10.000346 
2.5850093e+3, 2.6586962e+2, -445660.53, -435281.84, -45378.82, -0.26711887, -0.14437927, -394796.63, -60331.99, 0.0, 9.999432, 9.999546 
2.5846353e+3, 2.758641e+2, -216510.56, -322205.63, -25543.186, -0.0613416, 0.005601527, -210661.28, 25860.61, 0.0, 10.000523, 9.999135 
2.58426e+3, 2.8585652e+2, -186534.33, -273087.28, 16184.405, -0.0015191999, 0.05626984, -183607.03, -45006.297, 0.0, 10.000102, 9.9989805 
2.5838822e+3, 2.958465e+2, -316111.97, -348793.25, 97822.56, -0.14249735, -0.19023004, -233274.63, -192569.88, 0.0, 9.998748, 9.998479 
2.5835046e+3, 3.0584234e+2, -25478.975, -10781.961, 90437.99, -0.28808743, 0.21258739, 72605.58, 72605.58, 0.0, 9.999736, 10.000017 
2.583128e+3, 3.1583345e+2, 186053.75, 100623.055, -173020.05, -0.3923095, -0.023335624, 321553.28, 321553.28, 0.0, 10.000998, 10.000166 
2.6002532e+3, 1.2633802e+2, -1671448.9, -1761718.5, 150944.72, -0.04921244, 0.12940386, -1559035.4, 142856.3, 0.16949552, 10.000535, 9.999398 
2.599884e+3, 1.3633229e+2, -1660212.1, -1680610.8, 75242.03, 0.112632334, 0.17727461, -1594481.3, 9471.517, 0.11391175, 9.999812, 9.9996 
2.5995106e+3, 1.4632604e+2, -1472938.0, -1266465.6, -48774.46, 0.11900085, 0.17411534, -1255523.6, 250487.56, 0.061296463, 9.999282, 10.00204 
2.5991344e+3, 1.5632086e+2, -1426496.3, -1305244.3, -51223.3, 0.063058704, 0.07231462, -1286501.9, 121552.555, 0.023481611, 9.999397, 10.000997 
2.5987586e+3, 1.6631454e+2, -1419854.9, -1418670.3, 14006.412, -0.0362388, 0.14574426, -1405243.6, -95127.305, 0.005220199, 9.999509, 9.999483 
2.5983834e+3, 1.763071e+2, -1445806.9, -1445279.0, -1287.5642, -0.10540138, 0.09002442, -1444228.6, -232035.4, 0.00041937284, 9.998903, 9.99895 
2.598009e+3, 1.8629898e+2, -1225851.4, -1144820.9, 12266.1455, -0.04621334, 0.037204176, -1143004.9, -28735.91, 0.0000020172258, 9.999203, 10.000147 
2.5976354e+3, 1.9629006e+2, -1027659.94, -1047748.9, -1724.7609, 0.07317177, -0.2365642, -1027512.94, -11165.109, 0.0, 10.000061, 9.999753 
2.5972572e+3, 2.0628305e+2, -820511.9, -656835.2, -63603.03, -0.01647759, -0.30649924, -635025.75, 283383.28, 0.0, 9.999834, 10.001846 
2.5968772e+3, 2.1627699e+2, -1116706.5, -870620.94, -10885.536, -0.21261796, -0.4489652, -870140.4, -49678.28, 0.0, 9.997623, 10.000797 
2.596501e+3, 2.2627127e+2, -1154008.4, -1030861.06, 71387.13, -0.1908032, -0.2637617, -998161.56, -275639.0, 0.0, 9.997579, 9.999013 
2.596127e+3, 2.362652e+2, -999634.1, -957859.9, 12785.322, -0.02812616, -0.13548116, -954257.44, -329665.03, 0.0, 9.998148, 9.99859 
2.595753e+3, 2.4625896e+2, -723095.0, -554427.8, 32065.879, 0.022761894, -0.004443468, -548537.4, -21882.287, 0.0, 9.998438, 10.000532 
2.595379e+3, 2.562521e+2, -748464.4, -602522.9, 15835.233, -0.0017886239, -0.12017798, -600824.44, -172106.0, 0.0, 9.997936, 9.9998 
2.5950035e+3, 2.6624498e+2, -553660.5, -465073.2, -9685.105, -0.10787681, -0.08165816, -464026.7, -133238.38, 0.0, 9.998718, 9.999645 
2.5946274e+3, 2.762374e+2, -346842.9, -373267.03, -12204.993, -0.2123153, -0.17930505, -342068.3, -109203.234, 0.0, 9.999672, 9.999177 
2.5942522e+3, 2.8623107e+2, -127362.95, 61834.89, -60675.695, -0.07766072, -0.14443025, 79621.445, 214548.19, 0.0, 9.999301, 10.001642 
2.593876e+3, 2.96225e+2, -408004.5, -204359.81, 55273.348, 0.08972247, -0.2779062, -190324.77, -153340.06, 0.0, 9.997447, 10.000066 
2.5934997e+3, 3.062205e+2, -336307.8, -470456.72, 164248.48, -0.05363384, 0.17785645, -225965.95, -225965.95, 0.0, 9.999123, 9.997069 
2.5931275e+3, 3.162065e+2, 300041.34, 544779.3, -30113.316, 0.056114674, -0.3296459, 548430.06, 548430.06, 0.0, 10.000308, 10.003499 
2.61025e+3, 1.2671013e+2, -1678819.1, -1687238.0, 53116.242, 0.109335914, 0.017237367, -1629745.8, 68494.34, 0.14988421, 10.000119, 10.0000515 
2.6098767e+3, 1.367048e+2, -1595114.6, -1691416.4, 65772.68, -0.05461206, 0.101281, -1561751.4, 38548.83, 0.09979623, 10.000479, 9.999204 
2.6095015e+3, 1.4669853e+2, -1486351.4, -1316781.5, -114566.625, -0.075923525, 0.14179227, -1259039.3, 243320.89, 0.05285716, 9.999435, 10.001587 
2.6091263e+3, 1.566915e+2, -1642901.0, -1489244.6, -131097.67, 0.0078475615, -0.076722555, -1414121.6, -9699.142, 0.019694533, 9.998234, 10.000306 
2.6087517e+3, 1.6668543e+2, -1418515.4, -1345174.4, -54360.66, -0.018770792, 0.0060236547, -1316271.9, -9789.012, 0.004163879, 9.999216, 10.000108 
2.6083773e+3, 1.7667946e+2, -1100209.0, -1209908.9, -50252.484, -0.11250677, 0.041082494, -1080669.3, 127876.83, 0.00030229846, 10.000985, 9.999546 
2.608002e+3, 1.8667306e+2, -1048802.5, -915151.6, -116790.62, -0.039451636, 0.047990706, -847419.7, 263184.94, 0.0000010444409, 9.999738, 10.001478 
2.607627e+3, 1.9666591e+2, -1454747.1, -1163722.6, -45295.824, 0.08995322, -0.14964196, -1156835.6, -144169.55, 0.0, 9.996638, 10.000635 
2.6072487e+3, 2.0665905e+2, -1198553.0, -899420.3, -99088.58, -0.032124825, -0.22185004, -869574.75, 45152.86, 0.0, 9.997442, 10.001343 
2.606869e+3, 2.166522e+2, -765520.6, -756705.1, -140715.64, -0.3076818, -0.37692297, -620328.25, 196461.69, 0.0, 10.000165, 10.000374 
2.6064935e+3, 2.2664613e+2, -576017.6, -702555.9, -64444.336, -0.2602044, -0.26432282, -548975.9, 169875.34, 0.0, 10.001212, 9.999559 
2.6061207e+3, 2.3664014e+2, -540747.2, -719803.7, 6760.028, -0.031720474, -0.14401111, -540492.3, 80423.6, 0.0, 10.001069, 9.998868 
2.6057467e+3, 2.4663357e+2, -411504.0, -454261.34, 12354.82, 0.031958774, -0.04040199, -408190.78, 114792.12, 0.0, 10.000712, 10.000141 
2.6053715e+3, 2.5662652e+2, -407270.72, -488105.03, -21619.182, -0.005673523, -0.091759205, -401851.9, 23200.26, 0.0, 10.000345, 9.999468 
2.604996e+3, 2.666196e+2, -424234.03, -307186.34, -32608.52, -0.07225425, -0.08072009, -298715.0, 28404.893, 0.0, 9.999075, 10.000598 
2.6046202e+3, 2.766123e+2, -597517.7, -398047.06, 11206.8545, -0.14633687, -0.19634493, -397419.4, -168228.05, 0.0, 9.997384, 10.000153 
2.6042446e+3, 2.8660634e+2, -198019.7, 100764.26, -102154.12, -0.041334987, -0.21603744, 132351.36, 263598.4, 0.0, 9.998389, 10.002384 
2.6038685e+3, 2.9660153e+2, 70417.92, 71481.62, -117547.93, 0.13200268, -0.26514524, 188498.9, 221788.9, 0.0, 10.000401, 10.000579 
2.6034942e+3, 3.0659664e+2, -117801.445, -458406.53, 91848.3, 0.05582734, 0.14902718, -94612.22, -94612.22, 0.0, 10.000839, 9.996376 
2.6031142e+3, 3.1658158e+2, 113028.695, 15854.401, 65596.95, -0.6626088, -0.3666864, 146072.86, 146072.86, 0.0, 10.000694, 9.999692 
2.6202455e+3, 1.2708102e+2, -1551097.4, -1568990.6, 101429.59, 0.29351565, -0.23848143, -1458220.6, 236380.05, 0.13183987, 10.000886, 10.000535 
2.619869e+3, 1.3707793e+2, -1717366.6, -1728578.0, 38586.25, -0.1385807, 0.040912397, -1683981.0, -87340.23, 0.08692974, 9.99953, 9.999391 
2.6194933e+3, 1.4707097e+2, -1532505.3, -1464890.0, -106182.39, -0.1762742, 0.06484269, -1387263.1, 111446.016, 0.045284748, 9.999582, 10.0005 
2.6191178e+3, 1.5706196e+2, -1472550.6, -1500469.5, -110424.234, 0.020660173, -0.23715644, -1375207.0, 25585.908, 0.01638905, 9.99976, 9.99953 
2.6187444e+3, 1.6705604e+2, -1303439.6, -1228618.1, 78191.055, 0.020885233, -0.13635114, -1179349.0, 123503.695, 0.0032885466, 9.999777, 10.000632 
2.6183718e+3, 1.7705128e+2, -1243064.8, -1211604.1, 12844.191, -0.052446563, -0.032072295, -1207026.4, -2122.227, 0.00021471751, 9.999721, 10.00016 
2.6179957e+3, 1.8704706e+2, -1019983.1, -739081.06, -205322.02, 0.026003793, 0.07689503, -630767.9, 476174.34, 0.00000047553752, 9.999236, 10.002934 
2.6176175e+3, 1.9704293e+2, -1327905.0, -1035649.7, -160259.6, 0.17838249, 0.032279443, -964898.56, 44077.223, 0.0, 9.997272, 10.001209 
2.61724e+3, 2.0703608e+2, -1245246.4, -1120201.4, -16495.459, 0.034904003, 0.046445023, -1118062.0, -207019.31, 0.0, 9.998018, 9.99953 
2.6168627e+3, 2.1702775e+2, -996112.2, -1024007.44, -81400.586, -0.22922371, -0.10004926, -927472.94, -114346.195, 0.0, 9.999334, 9.998928 
2.616488e+3, 2.2702134e+2, -599492.2, -501141.78, -73793.31, -0.19717075, -0.067027934, -461639.75, 253545.92, 0.0, 10.000274, 10.001346 
2.6161146e+3, 2.3701558e+2, -709867.25, -690891.3, -25875.396, -0.022275839, -0.11707788, -672819.2, -55583.17, 0.0, 9.999581, 9.999748 
2.6157388e+3, 2.4700806e+2, -622074.3, -666343.7, 2356.758, -0.113590226, -0.08102372, -621949.2, -102637.15, 0.0, 9.999871, 9.999035 
2.615362e+3, 2.5699955e+2, -645880.06, -711115.75, -55467.758, -0.29546595, -0.1911765, -614150.44, -192749.16, 0.0, 9.999301, 9.998404 
2.6149872e+3, 2.669942e+2, -436515.84, -159817.27, -97726.89, -0.14604278, -0.055561114, -128782.17, 194669.83, 0.0, 9.998417, 10.001874 
2.6146132e+3, 2.7698985e+2, -748105.44, -437230.4, -26163.055, 0.14111298, -0.033910803, -435043.9, -209553.3, 0.0, 9.996314, 10.000358 
2.6142368e+3, 2.8698266e+2, -432397.16, -206613.42, -18300.84, 0.024174955, -0.07442535, -205139.67, -77579.9, 0.0, 9.997766, 10.000511 
2.613859e+3, 2.9697448e+2, -158173.97, -229316.0, -58951.56, -0.24933907, -0.307072, -124893.09, -95253.22, 0.0, 9.999773, 9.998791 
2.6134863e+3, 3.069719e+2, -67636.89, -170008.98, 24941.139, -0.14514166, 0.28476733, -61883.74, -61883.74, 0.0, 10.000176, 9.998641 
2.6131073e+3, 3.169628e+2, -89304.73, -60658.836, 267811.44, -0.83065, 0.1365021, 193212.39, 193212.39, 0.0, 9.999431, 9.999749 
2.63024e+3, 1.2745707e+2, -1630359.4, -1644613.8, 26951.479, 0.17993826, -0.15324084, -1609608.6, 81308.07, 0.11528824, 10.000503, 10.000091 
2.6298624e+3, 1.3745405e+2, -1963797.8, -1889206.8, 44793.008, -0.06647825, 0.15423553, -1868215.3, -275258.22, 0.07524984, 9.998025, 9.999013 
2.6294866e+3, 1.4744699e+2, -1558990.0, -1452328.9, 31573.113, -0.13869096, 0.17679408, -1443683.6, 51342.523, 0.038529176, 9.999315, 10.000689 
2.629112e+3, 1.5743795e+2, -1128062.5, -1296898.3, 60133.09, -0.07827465, -0.143555, -1108835.0, 288275.4, 0.013527696, 10.002002, 9.999848 
2.6287377e+3, 1.6743225e+2, -1110709.1, -1089330.0, 104991.23, -0.0892766, -0.051975284, -994485.56, 304682.03, 0.0025719018, 10.000868, 10.001085 
2.628363e+3, 1.7742783e+2, -1498231.4, -1314828.6, 93421.78, -0.1577656, 0.06412284, -1275622.5, -74408.055, 0.00015054179, 9.9978285, 10.000381 
2.6279867e+3, 1.8742248e+2, -1140548.6, -935847.2, -126396.35, -0.0907545, 0.13034645, -875558.1, 227707.52, 0.0000001940375, 9.998973, 10.001728 
2.6276088e+3, 1.974167e+2, -810037.6, -890338.7, -157592.2, -0.010263839, 0.04665844, -687561.7, 317757.47, 0.0, 10.001179, 10.000359 
2.627233e+3, 2.0741023e+2, -797914.06, -925557.1, -55766.152, -0.0092547415, 0.13506258, -776982.7, 130402.16, 0.0, 10.001146, 9.999365 
2.6268578e+3, 2.1740313e+2, -856455.94, -962300.56, -33540.68, -0.08986054, 0.14688255, -846722.44, -37263.31, 0.0, 10.000215, 9.998956 
2.6264825e+3, 2.2739598e+2, -741760.44, -580872.3, -120936.336, -0.08186063, 0.10703717, -516068.88, 195455.63, 0.0, 9.999285, 10.001294 
2.6261067e+3, 2.3738904e+2, -864415.0, -736071.3, -153155.2, -0.05444988, -0.045799114, -634187.3, -20603.088, 0.0, 9.998277, 10.000095 
2.6257303e+3, 2.473818e+2, -804101.4, -722647.25, -95131.31, -0.17115004, -0.033273175, -659891.7, -144235.86, 0.0, 9.998385, 9.999404 
2.625354e+3, 2.573742e+2, -658034.5, -646615.2, -60699.055, -0.35584784, -0.07135206, -591357.9, -173622.92, 0.0, 9.998801, 9.999112 
2.6249793e+3, 2.6736864e+2, -222838.27, -90574.01, -175836.55, -0.19249384, 0.014947453, 31155.379, 350942.13, 0.0, 9.999896, 10.0016985 
2.6246053e+3, 2.7736408e+2, -67947.99, -120344.32, -198082.69, 0.13193725, 0.055316716, 105661.484, 327487.4, 0.0, 10.000861, 10.000402 
2.6242292e+3, 2.8735623e+2, -35852.91, -122442.6, -124870.55, 0.0049858876, -0.023221701, 53015.387, 176917.77, 0.0, 10.000843, 9.999647 
2.6238516e+3, 2.9734716e+2, -27679.428, -170050.47, -116401.04, -0.34341764, -0.24473447, 37577.64, 63570.676, 0.0, 10.000571, 9.998851 
2.623479e+3, 3.0734518e+2, 52181.66, -24682.584, -133493.38, -0.22127165, 0.3290455, 152665.0, 152665.0, 0.0, 10.000502, 9.9995575 
2.623109e+3, 3.173345e+2, -3733.8489, 209542.22, 191826.3, 0.034097303, -0.018807378, 322378.56, 322378.56, 0.0, 9.998797, 10.002012 
2.6402333e+3, 1.2783338e+2, -1744568.9, -1749680.9, -94915.85, 0.15736659, -0.08055931, -1652174.6, 35056.598, 0.10017185, 9.999783, 9.999763 
2.6398557e+3, 1.3783017e+2, -1630910.4, -1732014.9, -56293.97, 0.11823145, 0.25485462, -1605802.0, -16529.414, 0.06469282, 10.000312, 9.999006 
2.6394808e+3, 1.4782347e+2, -1351554.0, -1333262.6, 83675.17, 0.0098687485, 0.28499618, -1258234.8, 233103.55, 0.032530583, 10.000686, 10.000859 
2.6391068e+3, 1.578149e+2, -1260862.0, -1348913.8, 11427.173, -0.08861246, -0.008857714, -1259403.1, 134015.44, 0.011066901, 10.001018, 9.999956 
2.6387307e+3, 1.6780962e+2, -1140035.0, -1068937.9, -78406.81, -0.14343518, 0.08095169, -1018397.4, 277073.88, 0.0019930317, 10.000512, 10.001388 
2.6383537e+3, 1.7780536e+2, -1426939.3, -1351401.1, -89339.29, -0.19012156, 0.19183166, -1292175.4, -94660.016, 0.00010503105, 9.9986, 9.999784 
2.6379776e+3, 1.8779801e+2, -1244025.1, -1175302.1, -94192.28, -0.19413626, 0.17902851, -1109399.5, -9810.873, 0.00000008640195, 9.999236, 9.999875 
2.6376012e+3, 1.9778953e+2, -1058591.9, -1183936.9, -138100.72, -0.16631383, -0.0008098542, -969608.06, 32064.605, 0.0, 10.000339, 9.998712 
2.6372272e+3, 2.0778382e+2, -856458.8, -903633.8, -90471.41, -0.0034379691, 0.19052826, -786550.6, 117181.35, 0.0, 10.000547, 9.999812 
2.6368535e+3, 2.177788e+2, -1059432.8, -1097675.5, -95814.42, 0.20838712, 0.36604896, -980850.4, -175065.38, 0.0, 9.999021, 9.998619 
2.6364765e+3, 2.277705e+2, -919343.75, -809586.06, -152070.6, 0.124040276, 0.30005893, -702795.0, 5069.308, 0.0, 9.99873, 9.99996 
2.636098e+3, 2.3776124e+2, -1087750.0, -959467.94, -169853.73, -0.043741006, 0.021465322, -842048.06, -232097.17, 0.0, 9.997308, 9.999026 
2.6357225e+3, 2.477555e+2, -773874.6, -543144.56, -72872.25, -0.12744448, 0.13148332, -522056.47, -10051.274, 0.0, 9.997971, 10.000804 
2.6353475e+3, 2.5775045e+2, -795555.9, -690840.3, -48374.934, -0.18096086, 0.20304829, -671913.6, -257859.98, 0.0, 9.997855, 9.999261 
2.634972e+3, 2.6774254e+2, -438379.97, -376755.78, -142091.77, -0.21700737, 0.15335143, -262173.75, 53954.523, 0.0, 9.999344, 9.999939 
2.634596e+3, 2.7773386e+2, -357905.03, -464291.1, -184943.69, -0.20797977, -0.06574173, -218656.72, -446.68256, 0.0, 9.999881, 9.998496 
2.6342222e+3, 2.8772652e+2, -126176.61, -159968.28, -162120.33, -0.10808441, -0.01998034, 19925.924, 140206.84, 0.0, 10.0003, 9.999607 
2.633848e+3, 2.977196e+2, -255862.55, -351783.38, -152972.03, -0.081974365, -0.04702753, -143508.77, -121159.61, 0.0, 9.999427, 9.998134 
2.633472e+3, 3.077129e+2, -99714.37, -200215.86, -176229.2, -0.26488462, 0.1260291, 33288.453, 33288.453, 0.0, 10.000052, 9.998476 
2.6330963e+3, 3.1770003e+2, -328042.94, -140255.63, -56002.652, -0.4638492, -0.38203713, -124822.64, -124822.64, 0.0, 9.997603, 10.000105 
2.6502228e+3, 1.2820739e+2, -1937769.1, -1689931.8, -44352.543, -0.21927379, -0.0034934464, -1682233.6, 1334.9982, 0.086430125, 9.997939, 10.000994 
2.649851e+3, 1.3820131e+2, -1312009.0, -1519977.5, 45767.234, 0.06667292, -0.0763422, -1302382.6, 283245.03, 0.055199515, 10.002393, 9.999485 
2.649476e+3, 1.4819568e+2, -1255058.4, -1393226.4, 12914.792, 0.0032461712, 0.0988725, -1253861.5, 233824.1, 0.027235242, 10.001835, 9.999874 
2.6491004e+3, 1.5818931e+2, -1555407.4, -1614498.6, -54172.37, -0.15002444, 0.12600015, -1523247.3, -133496.08, 0.0089680515, 9.999483, 9.998877 
2.648724e+3, 1.6818276e+2, -1295059.0, -1273007.8, -184150.48, -0.18572634, 0.19455203, -1099553.1, 192267.44, 0.0015322798, 10.000069, 10.000163 
2.6483473e+3, 1.7817618e+2, -1120867.0, -1254703.0, -244216.25, -0.22686943, 0.17944483, -934566.5, 259323.6, 0.00007382683, 10.000895, 9.999341 
2.6479715e+3, 1.881699e+2, -970562.3, -951611.94, -211783.0, -0.16962756, 0.21437922, -749092.25, 346859.47, 0.000000036839044, 10.000681, 10.000731 
2.6475954e+3, 1.9816333e+2, -1055290.4, -1091406.8, -146669.2, -0.1239953, 0.15527473, -925571.9, 72442.86, 0.0, 9.999897, 9.999574 
2.6472208e+3, 2.0815688e+2, -955064.3, -904907.7, -122764.49, 0.026509434, 0.21147873, -804686.2, 95392.27, 0.0, 9.999644, 10.000239 
2.646846e+3, 2.1815068e+2, -959519.56, -971950.44, -97045.12, 0.16697782, 0.23716417, -868491.06, -66350.586, 0.0, 9.999287, 9.999367 
2.6464683e+3, 2.2814357e+2, -740017.8, -686470.0, -85473.81, 0.05689286, 0.23019657, -623674.9, 80533.875, 0.0, 9.999708, 10.000367 
2.6460895e+3, 2.3813584e+2, -591076.4, -668910.1, 1574.5385, -0.14600293, 0.10174832, -591044.5, 15237.282, 0.0, 10.000343, 9.999597 
2.645715e+3, 2.4812958e+2, -421587.06, -379834.13, 44516.402, -0.14516537, 0.15112892, -351542.16, 156798.19, 0.0, 10.000324, 10.000838 
2.6453412e+3, 2.5812382e+2, -468409.22, -528397.9, -8274.25, -0.10449474, 0.1864379, -467288.88, -56895.24, 0.0, 9.999937, 9.999411 
2.6449645e+3, 2.6811516e+2, -440952.34, -488961.97, -79254.766, -0.24198283, 0.11640228, -382146.84, -69668.9, 0.0, 9.999711, 9.999027 
2.6445878e+3, 2.7810565e+2, -397680.28, -490071.38, -72122.1, -0.36417025, -0.07047535, -358227.56, -143656.02, 0.0, 9.999495, 9.998537 
2.6442152e+3, 2.8809893e+2, -165264.22, -161409.97, -33619.297, -0.12460472, 0.020904696, -129662.61, -13026.184, 0.0, 9.999782, 9.999928 
2.6438427e+3, 2.980932e+2, -134550.6, -253591.34, -3586.1162, 0.07780703, 0.13317555, -134442.66, -115750.76, 0.0, 9.9999075, 9.998623 
2.643466e+3, 3.0808306e+2, -153184.55, -263856.0, -8024.0474, -0.18201177, -0.019728735, -152605.81, -152605.81, 0.0, 9.99968, 9.998287 
2.6430902e+3, 3.1807303e+2, 51159.508, 114664.49, -8294.621, -0.30189228, -0.18248898, 115730.01, 115730.01, 0.0, 9.999626, 10.00096 
2.6602134e+3, 1.2858129e+2, -1485266.9, -1392314.4, 92352.984, -0.3588595, 0.028346263, -1335402.4, 344505.2, 0.07399981, 10.000615, 10.001903 
2.6598468e+3, 1.3857262e+2, -1398866.1, -1556837.8, 1997.0267, 0.09778607, -0.38581747, -1398841.0, 183141.56, 0.046711504, 10.001625, 9.999616 
2.6594713e+3, 1.4856787e+2, -1395933.3, -1552153.5, -111394.99, 0.0372007, -0.07300177, -1337991.8, 146042.08, 0.022592498, 10.0012865, 9.9990425 
2.6590934e+3, 1.5856369e+2, -1588793.8, -1764932.6, -117457.914, -0.09747527, 0.27359915, -1530055.1, -143971.06, 0.0071954923, 9.999857, 9.997686 
2.6587176e+3, 1.6855508e+2, -1410438.3, -1513037.5, -86894.24, -0.13054773, 0.28545907, -1360830.6, -72652.43, 0.001170623, 10.000058, 9.998534 
2.6583424e+3, 1.7854573e+2, -1298122.3, -1402328.8, -153077.47, -0.10580663, 0.13607451, -1188523.8, 1754.9061, 0.00005271245, 10.000007, 9.998744 
2.6579666e+3, 1.8854126e+2, -905253.25, -749138.56, -172383.66, -0.015897421, 0.26732665, -637963.06, 454357.2, 0.000000014947995, 10.00039, 10.002267 
2.6575908e+3, 1.9853781e+2, -1060486.9, -999579.4, -164820.66, 0.118972406, 0.37549925, -862422.6, 131926.3, 0.0, 9.999516, 10.000391 
2.6572138e+3, 2.085298e+2, -994448.75, -864198.9, -125686.984, 0.101097435, 0.21330391, -787766.44, 108657.39, 0.0, 9.999259, 10.000623 
2.6568368e+3, 2.1852088e+2, -1150840.8, -1022378.44, -114036.96, 0.055160806, -0.08743007, -955727.7, -157219.2, 0.0, 9.997943, 9.999614 
2.6564592e+3, 2.2851637e+2, -734892.0, -521975.9, -59251.613, -0.10194372, 0.060834836, -506597.72, 193951.95, 0.0, 9.999177, 10.001675 
2.656082e+3, 2.3851246e+2, -751949.4, -736794.4, -8177.5776, -0.24218526, 0.17590965, -733223.3, -130638.13, 0.0, 9.999335, 9.999579 
2.655708e+3, 2.4850407e+2, -596491.8, -593731.2, 16158.987, -0.18150246, 0.09262416, -578893.6, -74230.11, 0.0, 9.999785, 9.999589 
2.655334e+3, 2.5849476e+2, -770132.94, -825451.25, -32296.645, -0.102900244, -0.12467751, -755270.3, -348518.66, 0.0, 9.998671, 9.997949 
2.6549572e+3, 2.6848736e+2, -566701.1, -550933.4, -83438.45, -0.23303, -0.016304052, -475007.16, -166179.73, 0.0, 9.999035, 9.998838 
2.6545805e+3, 2.7848035e+2, -598911.7, -613983.5, -53363.88, -0.33733538, 0.044377025, -552554.25, -341653.3, 0.0, 9.998404, 9.998164 
2.6542082e+3, 2.8847426e+2, -196460.38, -65530.76, -9298.714, -0.11469921, 0.14384504, -64873.656, 48086.414, 0.0, 9.999275, 10.000739 
2.653835e+3, 2.9846853e+2, -322929.25, -335253.38, 26606.285, 0.013246937, 0.17310849, -301780.78, -286766.22, 0.0, 9.998759, 9.998569 
2.6534608e+3, 3.0845895e+2, -241949.34, -263949.38, 6266.6978, 0.0432493, 0.05091096, -240289.52, -240289.52, 0.0, 9.999023, 9.998523 
2.653083e+3, 3.1845048e+2, -92325.2, 64657.977, 183563.02, -0.36084616, -0.027446372, 185806.84, 185806.84, 0.0, 9.998759, 10.000977 
2.6702118e+3, 1.2895472e+2, -1457650.3, -1511660.6, -24685.877, -0.13113816, 0.15139176, -1448067.6, 228190.61, 0.062782034, 10.001499, 10.000566 
2.66984e+3, 1.3894767e+2, -1675355.4, -1751584.8, -94060.5, -0.064917244, 0.005107324, -1611980.6, -33659.273, 0.039146993, 9.999932, 9.999098 
2.6694638e+3, 1.4894117e+2, -1458135.8, -1415297.6, -148145.61, -0.102977335, 0.050906405, -1287030.8, 193352.9, 0.018543638, 10.000194, 10.000491 
2.669087e+3, 1.5893498e+2, -1405502.5, -1513542.0, -66693.77, -0.14835836, 0.05887037, -1373695.8, 8749.846, 0.005710664, 10.000404, 9.999154 
2.6687115e+3, 1.6892824e+2, -1295046.1, -1306681.3, 24872.67, -0.0927202, 0.11908479, -1275319.8, 9197.603, 0.0008890518, 10.00018, 9.99989 
2.668336e+3, 1.7892118e+2, -1345149.5, -1368540.3, 83072.734, -0.06355879, 0.10868838, -1272952.9, -86360.05, 0.000037964888, 9.999399, 9.999263 
2.6679593e+3, 1.8891576e+2, -1025809.75, -936415.75, 4057.1467, -0.07497754, 0.22784957, -936232.0, 152414.05, 0.0000000057994387, 10.000116, 10.001108 
2.6675826e+3, 1.9891079e+2, -928424.5, -969642.8, -97349.89, -0.088712916, 0.3034658, -849526.2, 141166.58, 0.0, 10.000501, 10.000131 
2.667206e+3, 2.0890324e+2, -930280.75, -790360.8, -128927.7, 0.03194892, 0.17537837, -713634.9, 179129.08, 0.0, 9.999475, 10.001056 
2.6668292e+3, 2.1889506e+2, -1058893.1, -911651.9, -71339.77, 0.09341815, -0.07314223, -882757.3, -87916.0, 0.0, 9.998176, 10.000291 
2.666452e+3, 2.288904e+2, -686734.06, -511190.3, -19904.59, -0.10700996, 0.04397874, -508961.66, 187922.34, 0.0, 9.999458, 10.001676 
2.666075e+3, 2.3888646e+2, -460859.25, -566609.0, -59544.063, -0.3317934, 0.1781515, -434102.16, 164817.61, 0.0, 10.001084, 9.999941 
2.6657003e+3, 2.4887806e+2, -493839.56, -557212.3, -71674.61, -0.23263498, 0.07512358, -447159.66, 53839.176, 0.0, 10.000441, 9.999565 
2.6653263e+3, 2.588686e+2, -637125.8, -693093.4, -31702.467, -0.12157815, -0.14139816, -622823.2, -219734.53, 0.0, 9.999145, 9.998662 
2.6649502e+3, 2.6886165e+2, -425820.9, -426616.9, 5350.905, -0.20473585, -0.05178519, -420853.22, -115694.125, 0.0, 9.999623, 9.999466 
2.664574e+3, 2.7885532e+2, -245853.67, -349744.72, 70699.28, -0.26960155, 0.04764845, -210068.2, -2842.895, 0.0, 10.000285, 9.999096 
2.6642016e+3, 2.888492e+2, -57067.93, -88.044365, 55125.563, -0.07229163, 0.12321729, 33474.445, 142760.17, 0.0, 10.000179, 10.000798 
2.6638287e+3, 2.988432e+2, -99592.055, -153211.98, 11939.094, 0.051774934, 0.14478055, -97053.836, -85709.63, 0.0, 9.99982, 9.999354 
2.6634544e+3, 3.0883533e+2, -69833.06, -108000.39, 7829.9766, 0.118397534, 0.12748379, -68289.2, -68289.2, 0.0, 9.999795, 9.999276 
2.663074e+3, 3.1882903e+2, -89157.18, 90544.98, 238950.4, -0.48323792, 0.24806584, 255979.06, 255979.06, 0.0, 9.998441, 10.001372 
2.6802105e+3, 1.2932943e+2, -1564839.3, -1707457.3, 86027.31, 0.23235066, 0.29538628, -1524409.0, 148187.0, 0.05267765, 10.001248, 9.99934 
2.6798323e+3, 1.3932414e+2, -1666229.1, -1740566.1, 26017.805, -0.118109375, 0.4553024, -1658027.8, -83381.125, 0.03242507, 9.999977, 9.999136 
2.6794562e+3, 1.4931539e+2, -1393704.5, -1227600.0, 6299.4575, -0.17246446, 0.17408282, -1227361.5, 249363.4, 0.015032841, 9.9999, 10.001921 
2.679081e+3, 1.5930645e+2, -1392988.6, -1327506.1, -21660.973, -0.07940154, -0.23741102, -1320989.5, 57814.984, 0.0044764117, 9.999721, 10.00075 
2.6787055e+3, 1.6930248e+2, -1149025.9, -1021199.5, 6800.0225, 0.0052132956, -0.07606482, -1020838.8, 260004.67, 0.00066900725, 10.000318, 10.001772 
2.67833e+3, 1.79299e+2, -1255628.5, -1307989.4, 24307.197, 0.06382061, 0.1165667, -1246084.3, -63204.547, 0.000027210404, 9.999985, 9.999404 
2.6779518e+3, 1.8929152e+2, -1154901.3, -1226538.6, 18511.842, -0.15596664, 0.16545741, -1150400.4, -65444.465, 0.000000001728097, 10.000255, 9.999051 
2.6775736e+3, 1.9928376e+2, -1163729.8, -1226149.8, -100088.56, -0.319451, 0.1512558, -1090098.1, -103063.46, 0.0, 9.999566, 9.9988165 
2.6771978e+3, 2.092776e+2, -929218.94, -762132.44, -179495.81, -0.0042154714, 0.17078689, -647690.3, 241405.03, 0.0, 9.999388, 10.001281 
2.6768225e+3, 2.1927162e+2, -1169284.8, -1026910.5, -92101.46, 0.3379555, 0.13102502, -981691.94, -190538.66, 0.0, 9.997745, 9.999719 
2.6764455e+3, 2.2926515e+2, -784401.06, -653429.44, 42880.94, 0.030672176, 0.12635711, -640639.06, 52575.535, 0.0, 9.999228, 10.0007925 
2.6760688e+3, 2.3925889e+2, -737861.8, -790723.94, -41784.996, -0.3357399, 0.099958934, -714850.1, -119576.234, 0.0, 9.9996805, 9.999065 
2.6756933e+3, 2.4925226e+2, -561871.6, -493813.34, -111846.914, -0.26878315, 0.13385467, -410933.5, 86404.17, 0.0, 9.999722, 10.000242 
2.675318e+3, 2.5924537e+2, -801467.44, -726048.2, -44364.535, -0.13118228, 0.08447914, -705532.2, -306128.3, 0.0, 9.997955, 9.998971 
2.6749432e+3, 2.6923797e+2, -419705.63, -285264.3, 32920.145, -0.17124026, 0.025141662, -277636.1, 23836.922, 0.0, 9.999153, 10.000622 
2.6745683e+3, 2.7923045e+2, -443896.8, -483385.53, 73661.38, -0.18603964, -0.100129396, -387379.53, -183835.33, 0.0, 9.99918, 9.998709 
2.6741958e+3, 2.8922305e+2, -229370.27, -229017.75, 23087.45, 0.004857188, -0.060883738, -206105.89, -100486.32, 0.0, 9.999681, 9.999434 
2.6738223e+3, 2.992163e+2, -330912.84, -337168.4, -16215.864, 0.12621003, -0.01617211, -317525.88, -309836.84, 0.0, 9.998657, 9.998639 
2.6734456e+3, 3.0921227e+2, -53315.418, 58210.676, -7947.199, -0.04775462, 0.2671546, 58774.133, 58774.133, 0.0, 9.999375, 10.000553 
2.673066e+3, 3.1920317e+2, -509908.16, -231626.95, -22118.549, -0.47057134, 0.0019003521, -229879.88, -229879.88, 0.0, 9.996325, 10.000118 
2.6902032e+3, 1.2970905e+2, -1696205.4, -1619371.4, 148182.17, 0.033136945, 0.38751152, -1504707.3, 164166.83, 0.043619107, 9.999819, 10.000543 
2.689825e+3, 1.3970251e+2, -1803874.6, -1804074.6, 220134.61, -0.19537319, 0.31176403, -1583840.0, -12906.971, 0.026486209, 9.999074, 9.9991045 
2.6894495e+3, 1.496935e+2, -1624950.8, -1507050.9, 162230.2, -0.11413045, 0.13160123, -1393392.3, 79625.04, 0.012009438, 9.999044, 10.000399 
2.6890755e+3, 1.5968445e+2, -1593473.1, -1546137.8, 96396.96, 0.04434424, -0.13237454, -1470545.5, -95443.32, 0.003455713, 9.998851, 9.9996605 
2.6887e+3, 1.6968009e+2, -1113789.6, -1081131.5, 73804.59, 0.0223392, 0.0614184, -1021871.2, 255274.81, 0.00049606664, 10.000857, 10.001095 
2.6883236e+3, 1.7967619e+2, -906941.9, -1143064.9, -10574.794, -0.09823363, 0.26618233, -906469.2, 272716.34, 0.00001910138, 10.002339, 9.999408 
2.6879454e+3, 1.896676e+2, -933973.8, -1041534.2, -16379.862, -0.2134225, 0.1445954, -931534.7, 149733.36, 0.0000000002885943, 10.001357, 9.999812 
2.687567e+3, 1.9965883e+2, -1137739.9, -1233880.3, -3110.79, -0.31344482, -0.0065507684, -1137639.3, -154285.95, 0.0, 9.999739, 9.998691 
2.6871908e+3, 2.0965266e+2, -818108.56, -884638.25, -102228.664, -0.04388035, 0.13684523, -743868.75, 141549.64, 0.0, 10.000841, 9.999762 
2.6868153e+3, 2.1964699e+2, -586690.9, -781810.3, -84746.41, 0.22424658, 0.26915556, -555022.7, 232455.42, 0.0, 10.001812, 9.999444 
2.6864392e+3, 2.2964008e+2, -598440.7, -529661.1, 37840.074, 0.05965968, 0.20423894, -512918.44, 176624.73, 0.0, 10.000293, 10.001158 
2.686063e+3, 2.3963326e+2, -817574.8, -697213.8, 22135.635, -0.19757442, 0.094995975, -693271.94, -101665.49, 0.0, 9.998452, 10.000322 
2.6856866e+3, 2.4962734e+2, -578370.3, -411739.06, -7545.7817, -0.20377259, 0.109106936, -411398.06, 82264.68, 0.0, 9.999089, 10.001189 
2.6853105e+3, 2.5962138e+2, -406186.3, -437510.0, 82692.35, -0.1692894, 0.10528142, -337685.72, 58033.99, 0.0, 10.000088, 9.999961 
2.6849365e+3, 2.696146e+2, -130046.99, -156148.83, 90807.99, -0.16291575, 0.09217274, -51356.875, 246427.05, 0.0, 10.001072, 10.00065 
2.6845628e+3, 2.796073e+2, -79526.19, -281755.22, 28069.62, -0.1317825, 0.011719138, -75702.4, 124150.5, 0.0, 10.001431, 9.999033 
2.6841888e+3, 2.895984e+2, -208759.97, -276958.72, -369.74576, 0.002802554, -0.08213753, -208757.97, -106816.1, 0.0, 9.99992, 9.999034 
2.683814e+3, 2.995906e+2, -344634.6, -312163.78, 38797.367, 0.08390043, -0.09633369, -286341.78, -282320.13, 0.0, 9.998274, 9.999009 
2.683437e+3, 3.0958915e+2, -37097.465, 118032.63, 23350.021, -0.15866762, 0.40121073, 121471.05, 121471.05, 0.0, 9.999116, 10.001143 
2.683059e+3, 3.1957722e+2, 98451.89, 10846.763, -241537.44, -0.29786003, -0.15304443, 300126.4, 300126.4, 0.0, 10.000509, 9.9998 
2.700195e+3, 1.3008834e+2, -1655319.4, -1472043.9, -21371.818, -0.097680464, 0.3802305, -1469584.6, 195569.14, 0.03555001, 9.9994135, 10.001803 
2.699818e+3, 1.4008054e+2, -1614357.8, -1746251.5, 526.7366, -0.12740801, 0.096428014, -1614355.6, -47135.03, 0.021269772, 10.000434, 9.998896 
2.6994437e+3, 1.5007214e+2, -1463377.0, -1624898.4, 19049.672, 0.054045387, 0.089165255, -1461160.8, 8143.059, 0.009415533, 10.000971, 9.998683 
2.69907e+3, 1.6006386e+2, -1433260.9, -1646419.4, 37513.88, 0.28817055, 0.07265398, -1426851.5, -55464.195, 0.0026134893, 10.000713, 9.998083 
2.6986942e+3, 1.7005841e+2, -1173651.8, -1242805.1, 93160.8, 0.045277074, 0.274359, -1108858.0, 164585.8, 0.0003600524, 10.001023, 9.999886 
2.6983175e+3, 1.8005298e+2, -1145496.8, -1256959.3, -25707.209, -0.21813434, 0.416116, -1139853.5, 35645.063, 0.000012952271, 10.000751, 9.999372 
2.6979396e+3, 1.9004408e+2, -912400.94, -846866.44, -103250.91, -0.18569, 0.13317902, -771308.06, 306269.72, 0.000000000007316074, 10.000801, 10.001376 
2.6975617e+3, 2.0003505e+2, -1208627.5, -1346584.1, -57047.55, -0.09530919, -0.14771675, -1188093.6, -208433.86, 0.0, 9.999641, 9.997973 
2.6971844e+3, 2.100282e+2, -977195.2, -1219894.4, -60746.9, -0.052084874, 0.10419915, -962839.56, -81103.08, 0.0, 10.00091, 9.997408 
2.6968077e+3, 2.200219e+2, -820106.1, -1016049.9, -68081.11, 0.02292919, 0.36851773, -798773.7, -14965.725, 0.0, 10.000848, 9.998274 
2.6964325e+3, 2.300155e+2, -605058.9, -416711.63, -28625.79, 0.09541045, 0.29810095, -412457.06, 273409.16, 0.0, 9.999901, 10.002031 
2.6960576e+3, 2.400093e+2, -939678.25, -708246.7, -8375.006, 0.12736936, 0.15566286, -707944.06, -120023.12, 0.0, 9.997516, 10.000675 
2.6956806e+3, 2.50003e+2, -552467.0, -275679.72, 12178.906, -0.03642711, 0.03355615, -275144.88, 214832.78, 0.0, 9.998823, 10.002202 
2.695304e+3, 2.599971e+2, -645807.9, -623378.2, 106365.94, -0.17784663, -0.049317606, -527637.5, -135604.64, 0.0, 9.998904, 9.999215 
2.6949307e+3, 2.6999223e+2, -307607.6, -371314.0, 121657.875, -0.1704138, 0.22870919, -213702.03, 80383.78, 0.0, 10.0005455, 9.999351 
2.6945573e+3, 2.7998674e+2, -301942.03, -451392.97, 13176.374, -0.1461345, 0.417116, -300789.22, -104644.84, 0.0, 10.000343, 9.998357 
2.6941803e+3, 2.8997666e+2, -249744.31, -174508.4, -68227.91, -0.13730773, 0.14678937, -134215.14, -35975.2, 0.0, 9.999309, 9.999954 
2.6938024e+3, 2.999674e+2, -594947.0, -486776.63, 53773.734, -0.2010899, -0.06967301, -464593.72, -464265.8, 0.0, 9.996947, 9.998426 
2.6934266e+3, 3.099659e+2, -198114.44, -82816.63, 86534.85, -0.38006595, 0.49865955, -36486.324, -36486.324, 0.0, 9.998646, 9.999953 
2.6930553e+3, 3.1995422e+2, 182074.81, 201727.6, 8950.81, -0.15537617, 0.0032963196, 205193.11, 205193.11, 0.0, 10.000653, 10.001014 
2.710187e+3, 1.3045876e+2, -1861093.6, -1528381.1, -133453.6, -0.17353542, 0.23779598, -1481467.0, 180056.77, 0.028414996, 9.997918, 10.002106 
2.7098137e+3, 1.4045188e+2, -1463275.4, -1644545.0, -109617.7, -0.0720481, -0.00840656, -1411675.5, 151906.1, 0.016713178, 10.001413, 9.999109 
2.709439e+3, 1.504458e+2, -1109810.5, -1379163.1, -93990.69, -0.02349021, 0.13931249, -1080255.4, 385389.78, 0.0071980846, 10.0031395, 9.999299 
2.7090642e+3, 1.6043948e+2, -988502.44, -1343257.9, -73328.74, 0.018754674, 0.24320956, -973942.75, 393768.9, 0.0019202423, 10.003388, 9.998877 
2.7086884e+3, 1.704331e+2, -1095401.8, -1119088.1, -8026.3857, -0.016886467, 0.26567736, -1092938.1, 176835.1, 0.00025324232, 10.001176, 10.000681 
2.7083114e+3, 1.804267e+2, -1435863.5, -1366170.9, -29721.252, -0.12418452, 0.25889918, -1355217.4, -183383.3, 0.000008369746, 9.998577, 9.999681 
2.7079335e+3, 1.9041893e+2, -1066045.5, -974335.7, -115091.92, -0.13764356, 0.114524506, -896300.25, 177604.52, 0.0, 9.999969, 10.00091 
2.7075556e+3, 2.0041108e+2, -890872.06, -1105004.4, -112780.48, -0.14685076, -0.030379515, -842430.7, 133545.78, 0.0, 10.001388, 9.998803 
2.7071792e+3, 2.1040344e+2, -650470.6, -922967.7, 2084.3381, -0.075644866, 0.023029946, -650454.6, 227599.66, 0.0, 10.002457, 9.998764 
2.7068028e+3, 2.2039628e+2, -479994.22, -778953.75, 75915.84, -0.038294323, 0.115204036, -461821.3, 318307.28, 0.0, 10.002759, 9.999017 
2.7064264e+3, 2.3039033e+2, -408004.47, -440008.13, 10950.08, 0.042506147, 0.16564417, -404616.53, 277570.4, 0.0, 10.001676, 10.001083 
2.70605e+3, 2.4038446e+2, -497946.8, -519393.66, -31160.957, 0.09541809, 0.16639578, -475715.78, 108527.055, 0.0, 10.000531, 10.000542 
2.7056736e+3, 2.50378e+2, -369258.0, -224809.83, -73227.85, -0.009057519, 0.055848595, -194181.4, 292122.16, 0.0, 10.000182, 10.001922 
2.7052972e+3, 2.6037192e+2, -484017.84, -507368.13, -47343.19, -0.14043872, -0.01769282, -446931.47, -58569.79, 0.0, 9.999761, 9.999589 
2.7049243e+3, 2.703671e+2, -409785.13, -443130.7, 19272.61, -0.16889115, 0.2508548, -400974.28, -110560.17, 0.0, 9.999838, 9.999224 
2.704551e+3, 2.8036174e+2, -296880.4, -370412.38, -67824.02, -0.1561007, 0.45903888, -256498.23, -64026.89, 0.0, 9.9999275, 9.999118 
2.7041733e+3, 2.9035193e+2, -49959.64, -11804.451, -183297.7, -0.12144703, 0.14771785, 153405.78, 247968.25, 0.0, 10.000344, 10.000613 
2.7037942e+3, 3.0034283e+2, -70874.14, -168489.44, -49186.805, -0.21438052, -0.10150046, -50388.73, -50388.73, 0.0, 10.000147, 9.999096 
2.7034178e+3, 3.1034136e+2, -185655.63, -125559.12, 61092.52, -0.47185257, 0.4921941, -87525.12, -87525.12, 0.0, 9.998849, 9.999624 
2.703052e+3, 3.2033068e+2, -31685.242, 174439.75, 207328.05, 0.12445624, 0.14451538, 302908.7, 302908.7, 0.0, 9.998705, 10.00181 
2.7201802e+3, 1.3082902e+2, -1462199.5, -1343553.3, 111936.86, -0.08214826, 0.05054034, -1276191.4, 381704.28, 0.022191128, 10.000613, 10.002154 
2.7198103e+3, 1.4082329e+2, -1529387.8, -1633036.5, 8633.696, 0.12900293, -0.04744062, -1528673.5, 31270.242, 0.012784308, 10.000685, 9.999577 
2.7194342e+3, 1.5081906e+2, -1275157.3, -1356009.9, 1429.917, -0.08381312, 0.19970031, -1275131.9, 186859.31, 0.00532732, 10.001529, 10.000262 
2.719058e+3, 1.6081436e+2, -1158692.6, -1292572.3, -68455.95, -0.19156697, 0.37641677, -1129887.1, 234155.58, 0.0013580795, 10.001697, 10.000038 
2.7186823e+3, 1.7080724e+2, -1057134.6, -957554.7, -99178.766, 0.005399654, 0.19366907, -896369.56, 369737.03, 0.00016970174, 10.000884, 10.001922 
2.7183062e+3, 1.8080011e+2, -1370297.4, -1372721.3, -57094.848, 0.16798203, 0.041988958, -1314401.6, -146230.83, 0.0000049540654, 9.99923, 9.999327 
2.7179274e+3, 1.9079363e+2, -1084286.1, -1117548.4, -56202.85, -0.037838288, 0.115024075, -1042305.3, 27928.71, 0.0, 10.000433, 9.999677 
2.7175495e+3, 2.0078696e+2, -953763.9, -1050426.5, -70405.33, -0.1671543, 0.1501768, -916697.2, 55600.69, 0.0, 10.000683, 9.999483 
2.7171752e+3, 2.1077885e+2, -605132.7, -560195.0, -3553.1392, -0.025516534, -0.09710005, -559915.8, 314452.6, 0.0, 10.001455, 10.001659 
2.7167997e+3, 2.207711e+2, -789811.2, -962737.8, 12379.826, 0.10394242, -0.27367306, -788929.4, -12491.312, 0.0, 10.00089, 9.998644 
2.7164203e+3, 2.3076501e+2, -654203.9, -794181.1, -53830.848, -0.011797052, -0.07557155, -635896.56, 42607.93, 0.0, 10.001081, 9.998906 
2.7160415e+3, 2.4075924e+2, -814035.4, -907891.75, -50606.2, -0.091997, 0.14192495, -791947.3, -211379.03, 0.0, 9.999531, 9.998321 
2.7156663e+3, 2.507527e+2, -546550.5, -463469.22, -77923.94, -0.048755735, 0.16098695, -416704.9, 65931.17, 0.0, 9.999723, 10.000457 
2.7152914e+3, 2.6074612e+2, -701470.8, -697224.8, -41466.094, -0.018016985, 0.15917246, -657827.44, -273125.06, 0.0, 9.998728, 9.998799 
2.7149177e+3, 2.7073902e+2, -427984.44, -342887.25, 21595.605, -0.13075945, 0.13067757, -337720.5, -50950.44, 0.0, 9.99936, 10.0001135 
2.7145436e+3, 2.8073174e+2, -497925.22, -490176.53, -76413.484, -0.1675731, 0.08421997, -417539.25, -228700.38, 0.0, 9.998752, 9.998862 
2.714168e+3, 2.9072312e+2, -127970.02, -64257.273, -186538.58, 0.04306363, -0.115085825, 93125.53, 184044.52, 0.0, 9.999925, 10.0004225 
2.7137902e+3, 3.0071574e+2, -212878.42, -237123.47, -104152.05, 0.03606825, -0.19454, -120145.79, -120145.79, 0.0, 9.99929, 9.99901 
2.7134115e+3, 3.1071377e+2, -223526.44, -24100.525, -34267.414, -0.29437143, 0.2440124, -18376.63, -18376.63, 0.0, 9.998188, 10.000556 
2.713041e+3, 3.207012e+2, -510461.97, -422121.6, 402296.63, -0.14062503, -0.29644614, -61577.59, -61577.59, 0.0, 9.997203, 9.998358 
2.7301753e+3, 1.3120562e+2, -1433156.3, -1465708.5, 41893.246, -0.15130876, 0.16584371, -1404488.5, 249717.4, 0.016854065, 10.0015335, 10.000774 
2.7298036e+3, 1.4120004e+2, -1809726.5, -1780183.1, 48684.13, 0.12533988, 0.15655042, -1744079.0, -187823.8, 0.009467284, 9.998862, 9.999423 
2.729427e+3, 1.5119411e+2, -1578072.0, -1400752.0, 102273.0, -0.110857025, 0.17356597, -1354059.3, 104255.72, 0.0037924994, 9.999042, 10.001133 
2.7290508e+3, 1.6118823e+2, -1505828.5, -1405704.5, 28958.174, -0.2869158, 0.17247641, -1397932.5, -37558.51, 0.0009170214, 9.999103, 10.000488 
2.7286753e+3, 1.7118256e+2, -1081288.8, -965264.3, -22521.023, -0.10867692, 0.13310075, -961046.2, 301380.03, 0.0001065257, 10.000715, 10.001942 
2.7282995e+3, 1.8117669e+2, -1007210.9, -1196458.0, -21322.838, 0.034025636, 0.12062761, -1004838.1, 159642.22, 0.0000025959862, 10.001691, 9.999349 
2.727923e+3, 1.9116932e+2, -907343.9, -1077473.4, -1181.6818, 0.048555117, 0.14040528, -907335.7, 159217.53, 0.0, 10.0017605, 9.999366 
2.727546e+3, 2.0116204e+2, -900447.9, -1015673.8, -45842.992, 0.008491752, 0.15398632, -884434.56, 84189.84, 0.0, 10.000938, 9.999603 
2.7271688e+3, 2.1115471e+2, -871449.06, -719524.8, -107896.52, -0.0008523141, 0.0043157847, -663532.75, 207156.8, 0.0, 9.999702, 10.001431 
2.7267918e+3, 2.2114755e+2, -1001342.75, -995742.4, -151596.47, -0.029095791, -0.11206964, -846920.2, -74166.57, 0.0, 9.999048, 9.999308 
2.7264133e+3, 2.3114038e+2, -659532.0, -745747.0, -98030.34, -0.09924769, -0.08964889, -595549.8, 79276.48, 0.0, 10.000731, 9.99943 
2.7260357e+3, 2.4113375e+2, -448018.5, -740284.7, -13431.779, -0.14495476, 0.022827188, -447402.5, 129493.52, 0.0, 10.001987, 9.998288 
2.7256605e+3, 2.5112754e+2, -303289.88, -506938.7, -26276.242, -0.0075800065, 0.19680555, -299954.16, 179010.64, 0.0, 10.001951, 9.999153 
2.725286e+3, 2.6112095e+2, -267435.22, -425189.16, 10337.769, 0.07550946, 0.2932444, -266760.66, 114273.76, 0.0, 10.00132, 9.999436 
2.7249107e+3, 2.7111265e+2, -300340.97, -190176.69, 61542.473, -0.120399185, 0.0845635, -162666.34, 120442.625, 0.0, 9.999773, 10.00101 
2.7245358e+3, 2.811043e+2, -472112.03, -429354.97, -12254.872, -0.20326145, -0.11092741, -426091.6, -240907.5, 0.0, 9.998554, 9.9994135 
2.7241614e+3, 2.91097e+2, -204665.05, -168984.3, -132681.47, 0.0846065, -0.13765773, -52949.17, 34305.234, 0.0, 9.999524, 9.999961 
2.723785e+3, 3.010905e+2, -42075.094, -163170.95, -131888.13, 0.18014881, -0.076032944, 42499.438, 42499.438, 0.0, 10.000361, 9.999024 
2.7234057e+3, 3.1108576e+2, 164883.64, 93424.414, -216312.1, -0.1255669, 0.12542677, 348397.1, 348397.1, 0.0, 10.000998, 10.000092 
2.7230301e+3, 3.2107306e+2, -406288.88, -481553.5, 185398.48, -0.40095475, -0.3468927, -254741.92, -254741.92, 0.0, 9.998114, 9.997596 
2.7401713e+3, 1.3158357e+2, -1247846.1, -1532989.8, -27878.684, -0.079890184, 0.3183463, -1245146.0, 405356.84, 0.012358498, 10.003406, 9.999408 
2.7397972e+3, 1.4157735e+2, -1540854.5, -1630459.3, -2850.784, 0.23573901, 0.36068287, -1540763.9, 11797.315, 0.0067449147, 10.000601, 9.999588 
2.73942e+3, 1.5156956e+2, -1384075.1, -1215710.6, 81549.44, -0.052638665, 0.11010983, -1182688.1, 271945.25, 0.0025850076, 9.999937, 10.001969 
2.7390438e+3, 1.6156262e+2, -1470279.3, -1383657.6, 33502.723, -0.22418289, -0.056317795, -1372212.1, -15513.379, 0.0005889778, 9.999298, 10.000538 
2.7386683e+3, 1.7155868e+2, -1122978.0, -1047667.4, 4133.899, -0.18958545, 0.09792412, -1047441.1, 211296.56, 0.00006228534, 10.000644, 10.001424 
2.738293e+3, 1.8155403e+2, -1131945.1, -1315396.5, -24984.775, -0.06898728, 0.26329336, -1128603.3, 32180.596, 0.0000011486238, 10.001122, 9.998797 
2.737919e+3, 1.9154544e+2, -972366.1, -1096303.1, -21781.324, 0.21795699, 0.14932512, -968649.6, 94218.26, 0.0, 10.001335, 9.999391 
2.7375436e+3, 2.0153742e+2, -1077897.0, -1238755.6, -68713.46, 0.38241428, 0.11999909, -1052541.5, -87594.27, 0.0, 10.000399, 9.998315 
2.7371618e+3, 2.1153127e+2, -963560.6, -967662.44, -139186.58, 0.0460846, 0.23975307, -826409.8, 40599.723, 0.0, 9.9999275, 9.999622 
2.7367818e+3, 2.215247e+2, -1061575.3, -1001363.8, -98200.69, -0.19596641, 0.30058146, -928757.7, -159684.36, 0.0, 9.998598, 9.999476 
2.7364066e+3, 2.3151603e+2, -601176.75, -483802.13, -45509.7, -0.13822848, -0.013520163, -468224.16, 202926.3, 0.0, 10.000226, 10.001424 
2.7360314e+3, 2.4150826e+2, -695360.75, -936907.2, -11105.479, -0.03475185, -0.13258876, -694851.25, -121628.016, 0.0, 10.000697, 9.997551 
2.7356568e+3, 2.5150266e+2, -492475.8, -726788.1, -39088.414, 0.10439365, 0.18634947, -486127.03, -10838.016, 0.0, 10.001289, 9.997908 
2.735281e+3, 2.6149675e+2, -482834.2, -582131.3, -29104.24, 0.14020878, 0.43791404, -474932.47, -97578.164, 0.0, 10.00021, 9.998854 
2.7349028e+3, 2.7148825e+2, -338381.88, -131392.75, -826.64, -0.16602555, 0.13557895, -131389.44, 148039.23, 0.0, 9.999246, 10.001618 
2.734526e+3, 2.814802e+2, -717649.1, -652389.8, -11857.083, -0.33012298, -0.051336456, -650302.25, -468801.72, 0.0, 9.997477, 9.998361 
2.734153e+3, 2.9147443e+2, -351155.5, -339986.03, -87073.4, -0.016750798, 0.1536993, -258318.45, -174757.39, 0.0, 9.999089, 9.998941 
2.7337778e+3, 3.014678e+2, -406961.2, -681092.4, -103132.74, 0.102469504, 0.3671014, -372494.44, -372494.44, 0.0, 9.999485, 9.995864 
2.7333993e+3, 3.1145683e+2, -88974.94, -388688.97, -220018.5, -0.21689892, 0.23797949, 27373.35, 27373.35, 0.0, 10.000971, 9.996701 
2.7330214e+3, 3.2144514e+2, -301517.78, 141326.06, -316702.3, -0.42265853, -0.08335355, 306333.97, 306333.97, 0.0, 9.996613, 10.002516 
2.7501675e+3, 1.3196003e+2, -1247298.4, -1645296.0, -173975.78, -0.2871161, 0.32167074, -1181971.5, 464842.53, 0.008685325, 10.003972, 9.998338 
2.7497932e+3, 1.4195232e+2, -1388555.0, -1556839.3, -22550.318, 0.29241088, 0.26532117, -1385585.6, 163302.36, 0.004592608, 10.001693, 9.999547 
2.7494144e+3, 1.5194596e+2, -1245188.1, -1107005.4, 72406.08, 0.004088672, 0.12138633, -1076015.5, 374928.56, 0.0016782222, 10.000721, 10.00234 
2.7490374e+3, 1.6193984e+2, -1446724.8, -1411382.9, 45198.773, -0.2234736, 0.03494916, -1380523.5, -27523.71, 0.0003582281, 9.999636, 10.000177 
2.7486622e+3, 1.7193475e+2, -1215008.4, -1173678.5, 32021.08, -0.14634803, 0.14194487, -1156233.3, 98818.71, 0.000033741435, 10.000374, 10.000681 
2.7482876e+3, 1.8192917e+2, -1154149.8, -1263489.0, -28433.46, -0.082571514, 0.2521369, -1147197.8, 9910.279, 0.00000040337267, 10.000669, 9.999369 
2.7479124e+3, 1.9192079e+2, -936614.3, -987559.3, 2201.669, 0.078145064, 0.082375, -936519.4, 122668.5, 0.0, 10.001141, 10.000249 
2.747536e+3, 2.0191327e+2, -889217.7, -1122180.9, -28124.604, 0.16070665, 0.053380713, -885870.44, 75390.93, 0.0, 10.00149, 9.998614 
2.747156e+3, 2.1190755e+2, -631115.25, -863997.7, -25370.277, -0.0033153202, 0.2551762, -628383.5, 234939.38, 0.0, 10.002317, 9.99925 
2.7467766e+3, 2.2190116e+2, -525024.4, -778772.5, 12770.457, -0.15899198, 0.39068568, -524383.3, 241005.1, 0.0, 10.002337, 9.999224 
2.7464008e+3, 2.3189214e+2, -549582.56, -564308.2, -59396.113, -0.10250143, 0.14091384, -497094.66, 170377.08, 0.0, 10.000933, 10.00059 
2.746025e+3, 2.4188389e+2, -735678.1, -808756.9, -115121.766, -0.047581926, -0.0028488354, -651436.06, -81887.73, 0.0, 9.999664, 9.998952 
2.7456495e+3, 2.5187802e+2, -666201.94, -650629.5, -9368.888, 0.01851016, 0.15700288, -646233.7, -174623.88, 0.0, 9.9993515, 9.9994 
2.7452728e+3, 2.6187208e+2, -586957.7, -558102.1, 93963.0, 0.021843402, 0.31517947, -477465.66, -103794.31, 0.0, 9.999052, 9.999599 
2.7448955e+3, 2.718643e+2, -392052.25, -235943.56, 25172.133, -0.15835212, 0.15334262, -231985.0, 43757.926, 0.0, 9.999081, 10.001048 
2.7445185e+3, 2.8185675e+2, -411232.38, -453763.2, 3021.2527, -0.27201742, 0.058199983, -411018.84, -233205.64, 0.0, 9.999262, 9.9988785 
2.7441454e+3, 2.918503e+2, -97687.16, -203666.75, 31094.053, -0.09196088, 0.20169352, -89237.89, -9357.906, 0.0, 10.000719, 9.999137 
2.7437702e+3, 3.0184314e+2, -147903.22, -563540.75, 93042.945, -0.033705756, 0.38704333, -128025.64, -128025.64, 0.0, 10.00116, 9.995906 
2.7433932e+3, 3.1183195e+2, -359694.94, -620921.1, 171342.92, -0.18136351, 0.34432572, -274859.25, -274859.25, 0.0, 9.999378, 9.995965 
2.7430144e+3, 3.2182252e+2, 79303.07, 616011.06, -215962.27, -0.1673924, 0.27584204, 692118.3, 692118.3, 0.0, 9.997742, 10.0052805 
2.7601644e+3, 1.3233691e+2, -1291652.5, -1711637.6, -182529.77, -0.30217505, 0.25479665, -1223411.4, 419708.72, 0.005822727, 10.003795, 9.997986 
2.75979e+3, 1.4232823e+2, -1230381.0, -1488514.0, -8581.258, 0.46625054, 0.16485368, -1230096.1, 315107.66, 0.002969682, 10.002807, 9.999496 
2.7594095e+3, 1.5232311e+2, -1023344.9, -1007032.9, 38482.98, 0.10503973, 0.1489118, -975851.1, 471396.56, 0.0010279784, 10.00231, 10.002247 
2.7590314e+3, 1.6231766e+2, -1272419.6, -1421133.8, 29819.65, -0.10967354, 0.17112876, -1266663.1, 82633.68, 0.0002033788, 10.00121, 9.999382 
2.7586573e+3, 1.7231086e+2, -1186343.6, -1253125.1, 41747.707, -0.0040279552, 0.1851534, -1166275.9, 85090.375, 0.000016580547, 10.000955, 9.999873 
2.7582824e+3, 1.8230402e+2, -1174440.8, -1221092.4, -3836.1763, 0.043473203, 0.20633326, -1174127.4, -20693.262, 0.00000009587778, 10.000372, 9.999791 
2.7579045e+3, 1.9229627e+2, -914882.3, -864290.6, -18539.553, -0.102052756, -0.0036405262, -858224.1, 197281.77, 0.0, 10.000848, 10.001231 
2.7575272e+3, 2.0228921e+2, -1002199.94, -1167171.3, -21477.578, -0.14784043, -0.043031618, -999449.7, -41876.477, 0.0, 10.000735, 9.998666 
2.757151e+3, 2.1228364e+2, -716337.9, -864179.8, -29097.443, 0.011920752, 0.13394648, -710817.25, 148816.27, 0.0, 10.001663, 9.999515 
2.7567744e+3, 2.2227749e+2, -870575.3, -1158179.4, -22756.256, 0.1172736, 0.3391509, -868785.94, -107086.31, 0.0, 10.001045, 9.9972 
2.7563956e+3, 2.3226878e+2, -809104.8, -968467.8, -96673.78, 0.012725144, 0.3461807, -763506.75, -99717.59, 0.0, 10.00046, 9.998 
2.7560174e+3, 2.4226056e+2, -813456.06, -715270.44, -108739.77, -0.083934955, 0.33557203, -645055.06, -79185.78, 0.0, 9.998722, 10.000008 
2.7556396e+3, 2.5225344e+2, -522123.9, -212149.77, -17544.25, -0.19325987, 0.047690984, -211159.94, 256768.39, 0.0, 9.998843, 10.002606 
2.7552626e+3, 2.6224685e+2, -819649.06, -782803.0, 87592.836, -0.21277878, -0.033750717, -711716.75, -341729.78, 0.0, 9.998064, 9.998523 
2.7548885e+3, 2.7224085e+2, -644219.8, -578336.0, 5190.0034, -0.046230383, 0.15701321, -577929.7, -305877.9, 0.0, 9.998468, 9.998942 
2.754514e+3, 2.8223366e+2, -594966.4, -548166.2, 30584.115, 0.015545652, 0.23901153, -533057.1, -358932.2, 0.0, 9.998156, 9.998747 
2.7541378e+3, 2.9222333e+2, -74774.73, -37513.332, 87185.18, -0.22582035, -0.15333737, 33009.54, 109231.195, 0.0, 10.000274, 10.000464 
2.7537617e+3, 3.0221605e+2, -119529.42, -229529.52, 52720.063, -0.31765017, -0.15850581, -98342.79, -98342.79, 0.0, 10.000111, 9.998678 
2.7533895e+3, 3.122156e+2, -262251.56, -118087.336, 151444.86, 0.24383564, 0.47081688, -22445.332, -22445.332, 0.0, 9.998208, 9.999935 
2.753005e+3, 3.2220554e+2, -429814.03, -174887.61, 41441.12, -0.20766427, 0.23713511, -168320.1, -168320.1, 0.0, 9.996883, 10.000167 
2.7701625e+3, 1.3271537e+2, -1356752.6, -1523660.1, -212217.02, -0.19115916, 0.2028426, -1212170.0, 427235.13, 0.0036892197, 10.002496, 9.999849 
2.769785e+3, 1.4270642e+2, -1290786.0, -1692648.6, 93577.664, 0.26639378, 0.0072819046, -1270064.1, 271424.9, 0.0018042208, 10.003198, 9.99788 
2.7694052e+3, 1.5270014e+2, -968325.4, -1273400.9, 74836.42, -0.03542648, 0.12125682, -950956.5, 492596.03, 0.00058557204, 10.003974, 9.999597 
2.7690274e+3, 1.6269362e+2, -933204.25, -1279274.0, -36104.29, -0.19651233, 0.20976813, -929477.75, 416138.72, 0.00010501939, 10.003616, 9.999197 
2.7686524e+3, 1.7268614e+2, -979624.5, -1090842.8, 20594.795, -0.029274693, 0.107827276, -975933.4, 271754.25, 0.0000068884756, 10.002072, 10.000471 
2.7682766e+3, 1.8267922e+2, -1157365.4, -1227856.0, 12164.437, 0.02250037, 0.10133433, -1155325.3, -5570.9077, 0.00000000965895, 10.000546, 9.999654 
2.767898e+3, 1.926725e+2, -994054.0, -972448.4, -15518.138, -0.14302412, 0.0580526, -964343.2, 87477.07, 0.0, 10.0005665, 10.000642 
2.7675208e+3, 2.0266591e+2, -993509.6, -1079945.3, -75793.0, -0.22451614, 0.07684438, -949478.56, 4406.475, 0.0, 10.000419, 9.999406 
2.7671456e+3, 2.1265943e+2, -794100.56, -827419.7, -48373.285, 0.029608337, 0.103358485, -759598.44, 96351.78, 0.0, 10.000807, 10.000191 
2.7667692e+3, 2.2265294e+2, -769200.7, -967951.4, -32606.72, 0.15220709, 0.19676651, -763988.0, -5971.6895, 0.0, 10.00106, 9.998518 
2.7663895e+3, 2.3264538e+2, -641843.94, -801098.5, 69458.79, -0.023382375, 0.25341114, -615806.5, 44287.105, 0.0, 10.001147, 9.99888 
2.76601e+3, 2.4263781e+2, -458018.8, -503961.78, 125594.62, -0.19231369, 0.2742707, -353312.2, 208855.98, 0.0, 10.000896, 10.000427 
2.7656314e+3, 2.5263005e+2, -328137.28, -198873.98, 4893.6494, -0.28668863, 0.012831165, -198688.98, 265547.13, 0.0, 10.000404, 10.002009 
2.765255e+3, 2.626231e+2, -492722.16, -601027.0, -26024.3, -0.2800944, -0.06848635, -486793.4, -120493.33, 0.0, 10.000093, 9.998813 
2.7648816e+3, 2.7261767e+2, -323085.6, -454431.03, 31252.707, -0.01668309, 0.20522997, -316028.4, -47667.742, 0.0, 10.000702, 9.998771 
2.7645075e+3, 2.8261077e+2, -212812.36, -273011.75, 136579.58, 0.09573838, 0.3123655, -103055.09, 67377.516, 0.0, 10.000252, 9.99964 
2.7641302e+3, 2.925997e+2, -329848.13, -126242.54, 111552.76, -0.257846, -0.18593203, -77022.73, -4488.023, 0.0, 9.998167, 10.000944 
2.7637535e+3, 3.0259275e+2, -353257.84, -49100.832, -28388.34, -0.3717702, -0.28758898, -46473.91, -46473.91, 0.0, 9.997094, 10.001379 
2.7633828e+3, 3.1259632e+2, -19200.723, 320922.34, -53830.99, 0.4550722, 0.46286047, 329238.78, 329238.78, 0.0, 9.998387, 10.002878 
2.762996e+3, 3.2258558e+2, -157264.72, -461033.53, -20551.867, -0.30024987, 0.112050205, -155880.56, -155880.56, 0.0, 10.000371, 9.996537 
2.7801603e+3, 1.3309394e+2, -1202858.3, -1292508.1, -222661.0, 0.025439067, 0.13907297, -1020555.06, 615133.8, 0.0021709546, 10.002803, 10.001317 
2.77978e+3, 1.4308433e+2, -1327981.0, -1883740.3, -5448.8975, 0.14543185, -0.14348845, -1327927.5, 209851.44, 0.0010072378, 10.003562, 9.996453 
2.7794012e+3, 1.5307711e+2, -1197700.9, -1667739.4, 70166.875, -0.12480014, 0.09288425, -1187450.0, 252408.4, 0.00030058212, 10.003485, 9.997206 
2.779024e+3, 1.6306967e+2, -1025839.3, -1299439.3, -12680.18, -0.18914048, 0.23516735, -1025252.9, 316682.3, 0.000046417692, 10.002881, 9.99942 
2.7786475e+3, 1.7306174e+2, -887608.9, -959882.56, -32587.775, -0.009134505, 0.0074503766, -875085.3, 368920.34, 0.0000020738605, 10.002345, 10.001243 
2.7782708e+3, 1.8305486e+2, -1145304.4, -1319247.4, 9119.936, 0.07436699, 0.0034010026, -1144827.5, 1242.4951, 0.00000000000031198744, 10.001076, 9.998764 
2.7778926e+3, 1.930494e+2, -1070670.0, -1124549.6, -22032.855, -0.059414998, 0.17329088, -1062807.5, -14677.711, 0.0, 10.000587, 9.999558 
2.7775154e+3, 2.0304331e+2, -1087923.8, -1110422.0, -42746.15, -0.08252023, 0.30239728, -1054971.4, -104778.65, 0.0, 9.999803, 9.999473 
2.77714e+3, 2.1303521e+2, -826287.8, -763171.94, -46681.297, 0.096748516, 0.093670644, -738382.3, 113885.7, 0.0, 10.000323, 10.000845 
2.776763e+3, 2.2302805e+2, -814529.06, -775282.94, -33850.406, 0.16907603, 0.010578858, -755779.1, -1444.898, 0.0, 9.999883, 10.00039 
2.7763826e+3, 2.3302197e+2, -562689.7, -455465.66, 31480.357, -0.08186147, -0.073193856, -446906.44, 209483.08, 0.0, 10.000426, 10.001562 
2.776003e+3, 2.4301557e+2, -818385.0, -959293.75, 81242.34, -0.24122365, -0.0048913076, -781302.7, -222850.48, 0.0, 9.999762, 9.997827 
2.7756253e+3, 2.5300786e+2, -688320.0, -766185.0, -33497.28, -0.22740316, 0.06897611, -675892.94, -215357.56, 0.0, 9.999765, 9.998384 
2.775249e+3, 2.6300076e+2, -658015.56, -652931.8, -6325.368, -0.1780088, 0.1970545, -648656.7, -286046.94, 0.0, 9.999007, 9.998924 
2.7748746e+3, 2.729946e+2, -298522.16, -239989.88, 55588.49, -0.10655518, 0.21125725, -206434.14, 58236.777, 0.0, 10.000109, 10.000472 
2.7744997e+3, 2.8298837e+2, -419649.78, -420969.56, 67017.66, -0.04861202, 0.30017388, -353288.78, -186555.45, 0.0, 9.999187, 9.999105 
2.7741227e+3, 2.9298106e+2, -551436.8, -297515.7, 21138.928, -0.10210424, 0.21902688, -295767.9, -226961.3, 0.0, 9.99709, 10.000212 
2.7737448e+3, 3.029744e+2, -613229.7, -178261.03, -4947.219, -0.23079868, 0.20350587, -178204.77, -178204.77, 0.0, 9.995514, 10.00121 
2.773369e+3, 3.129692e+2, -114389.82, 342881.34, -20531.04, -0.06103178, -0.0038313728, 343801.3, 343801.3, 0.0, 9.997589, 10.003368 
2.7729928e+3, 3.229632e+2, -218842.84, -406883.16, 67824.836, -0.029049478, 0.0888796, -196932.0, -196932.0, 0.0, 9.999798, 9.997165 
2.7901566e+3, 1.3347124e+2, -1573405.1, -1903571.0, -231968.25, 0.0024037824, 0.24565583, -1453774.9, 178217.11, 0.0011673695, 10.002187, 9.997398 
2.7897772e+3, 1.434609e+2, -1244664.0, -1652482.9, -124347.55, 0.11539435, 0.043815393, -1209740.0, 324361.47, 0.00050489604, 10.003359, 9.998117 
2.7893975e+3, 1.5345511e+2, -1149484.0, -1299505.5, 81961.63, -0.1250229, 0.114301264, -1113389.8, 322763.72, 0.00013439951, 10.002359, 10.000263 
2.7890196e+3, 1.6344862e+2, -1202129.4, -1416005.4, 104729.72, -0.19253412, 0.20163539, -1159387.5, 178827.27, 0.000016423304, 10.001804, 9.999135 
2.7886432e+3, 1.7344055e+2, -863280.9, -1073353.9, 63759.96, -0.055005763, 0.07772124, -845443.5, 394851.1, 0.0000003300107, 10.003039, 10.000128 
2.788266e+3, 1.8343338e+2, -877533.6, -1189409.9, -11648.561, -0.016550036, 0.11447078, -877099.1, 265266.6, 0.0, 10.002864, 9.998811 
2.787887e+3, 1.9342704e+2, -989069.8, -1089541.4, 11171.56, -0.04641705, 0.21737817, -987842.6, 56587.723, 0.0, 10.001109, 9.999592 
2.7875093e+3, 2.0342025e+2, -1075954.1, -1067248.0, 25756.871, -0.03593378, 0.28428707, -1045478.94, -98981.69, 0.0, 9.999715, 9.999795 
2.7871332e+3, 2.1341176e+2, -910062.0, -819539.7, 27057.89, 0.0944455, 0.06149666, -812068.5, 36507.44, 0.0, 9.999797, 10.000727 
2.7867562e+3, 2.2340451e+2, -784596.9, -752337.25, -42876.363, 0.102535374, -0.016435025, -722657.1, 27986.871, 0.0, 9.999942, 10.000536 
2.786376e+3, 2.3339918e+2, -601081.3, -505405.78, -118051.22, -0.12132471, -0.0006302611, -425867.94, 226828.1, 0.0, 10.000165, 10.001388 
2.7859962e+3, 2.4339344e+2, -679015.25, -788787.5, -128017.46, -0.2543477, 0.08860412, -594614.06, -39861.02, 0.0, 10.00019, 9.9988 
2.785619e+3, 2.5338608e+2, -583547.56, -662126.94, 6059.112, -0.1767689, 0.14451346, -583083.06, -126253.68, 0.0, 10.0001545, 9.998957 
2.7852425e+3, 2.6337898e+2, -434448.84, -451067.53, 191176.28, -0.14259923, 0.22137643, -251401.4, 107501.31, 0.0, 10.000003, 9.999854 
2.784867e+3, 2.73372e+2, -267277.13, -202467.45, 156441.45, -0.18658745, 0.15398045, -75109.95, 185860.95, 0.0, 10.000055, 10.000829 
2.7844918e+3, 2.8336582e+2, -296979.22, -342350.16, 43966.797, -0.13190952, 0.22944793, -270190.34, -107156.62, 0.0, 9.999866, 9.999318 
2.7841154e+3, 2.9336047e+2, -198369.22, -180067.61, -9511.574, 0.02352946, 0.4088519, -176019.66, -110927.36, 0.0, 9.999661, 9.999797 
2.7837366e+3, 3.0335373e+2, -18181.117, 98896.23, 40701.02, -0.09656991, 0.40642706, 111655.164, 111655.164, 0.0, 9.999474, 10.001252 
2.7833578e+3, 3.1334418e+2, 202404.6, 417927.66, -48434.04, -0.3819314, -0.16284057, 428311.8, 428311.8, 0.0, 9.999895, 10.00288 
2.7829906e+3, 3.2334167e+2, -43523.766, -203283.28, 59991.523, 0.38862276, 0.29233697, -23504.783, -23504.783, 0.0, 10.000265, 9.998414 
2.8001523e+3, 1.3384861e+2, -1635341.8, -2380198.3, -29098.291, 0.020528257, 0.304162, -1634206.8, -5911.032, 0.0005664125, 10.003564, 9.993495 
2.799775e+3, 1.4383817e+2, -1017505.3, -1281650.4, -7667.971, 0.26843667, 0.22193743, -1017282.94, 513134.38, 0.00022570654, 10.003801, 10.000421 
2.7993938e+3, 1.5383358e+2, -893060.4, -823436.5, 28005.531, -0.035219714, 0.111092314, -813569.8, 618872.4, 0.00005282333, 10.002613, 10.003383 
2.7990153e+3, 1.63828e+2, -1287377.5, -1552121.8, 83204.52, -0.11537338, 0.1474585, -1263399.5, 71089.695, 0.000004777361, 10.001692, 9.998198 
2.7986392e+3, 1.7382024e+2, -1068327.1, -1341094.6, 60245.387, -0.04205974, 0.18083009, -1055613.5, 180962.84, 0.00000002399446, 10.002367, 9.998582 
2.7982616e+3, 1.8381271e+2, -996394.4, -1244652.1, -58377.652, 0.008891678, 0.26954845, -983352.06, 155302.86, 0.0, 10.002109, 9.9987755 
2.797882e+3, 1.9380508e+2, -979651.44, -1040932.0, -69801.266, 0.03875693, 0.19906847, -934061.5, 106663.84, 0.0, 10.001047, 9.999937 
2.7975032e+3, 2.0379731e+2, -1121918.0, -1172595.0, 37823.85, 0.089988425, 0.18451354, -1101729.8, -158932.05, 0.0, 9.999776, 9.999046 
2.7971262e+3, 2.1378861e+2, -947287.0, -911018.06, 20524.799, 0.13451117, -0.010415827, -901764.1, -56884.35, 0.0, 9.999853, 10.000064 
2.796749e+3, 2.2378172e+2, -1032258.94, -1067698.1, -12046.915, 0.10391817, 0.06363499, -1028551.6, -281601.88, 0.0, 9.999244, 9.998659 
2.7963692e+3, 2.3377693e+2, -848456.44, -820720.44, -102151.086, -0.073513925, 0.30020496, -731500.25, -82492.44, 0.0, 9.999437, 9.999538 
2.79599e+3, 2.4377158e+2, -673403.3, -496454.28, -102824.984, -0.14780848, 0.43394655, -449279.53, 101782.32, 0.0, 9.99909, 10.001315 
2.7956128e+3, 2.5376466e+2, -440834.53, -173388.88, 389.6151, -0.08423399, 0.15194702, -173388.31, 279728.94, 0.0, 9.999423, 10.002626 
2.7952355e+3, 2.6375774e+2, -669463.25, -652023.2, 196717.1, -0.10404666, 0.07683676, -463832.97, -108652.94, 0.0, 9.998885, 9.998994 
2.7948597e+3, 2.7375007e+2, -465322.53, -418164.97, 157014.36, -0.24014224, 0.024349287, -282968.84, -25708.7, 0.0, 9.999325, 9.99966 
2.794484e+3, 2.8374305e+2, -509280.94, -545816.5, 30947.783, -0.20459129, 0.13252844, -491611.6, -332277.4, 0.0, 9.998972, 9.998321 
2.7941084e+3, 2.937361e+2, -298900.2, -262236.34, -20802.986, 0.044816863, 0.1751776, -252840.6, -191432.86, 0.0, 9.999232, 9.99941 
2.7937302e+3, 3.0372992e+2, -266038.7, -238950.4, 19284.18, -0.04062562, 0.33371037, -228929.25, -228929.25, 0.0, 9.998894, 9.999139 
2.793351e+3, 3.1372428e+2, -73288.8, 55186.332, -62446.17, -0.34462473, 0.34024122, 80536.65, 80536.65, 0.0, 9.9991665, 10.000649 
2.7929816e+3, 3.237166e+2, -128718.12, -9175.6, 120669.78, 0.075829506, 0.31421128, 65714.94, 65714.94, 0.0, 9.999017, 10.000208 
2.810145e+3, 1.3422692e+2, -1518311.0, -2146430.5, 47017.527, -0.5039734, 0.09738188, -1514811.0, 109769.555, 0.00024939553, 10.003689, 9.995014 
2.8097746e+3, 1.4421804e+2, -1165202.6, -1488295.4, 65612.555, 0.48166695, 0.14168845, -1152386.6, 374301.28, 0.00009135431, 10.003446, 9.999149 
2.809389e+3, 1.5421197e+2, -1082185.0, -1133193.4, 3027.3193, -0.104966305, 0.07788523, -1082006.0, 346726.7, 0.000018191195, 10.002293, 10.001405 
2.8090087e+3, 1.6420548e+2, -1331377.4, -1553802.8, 2282.4802, -0.29815432, 0.13062635, -1331353.9, -562.18744, 0.000001253609, 10.00132, 9.998366 
2.808634e+3, 1.7419824e+2, -1231076.1, -1381473.6, 73266.555, -0.06289112, 0.19196244, -1201285.1, 31587.863, 0.0000000065346386, 10.001099, 9.998921 
2.808257e+3, 1.8419102e+2, -1094855.4, -1187010.0, -54941.977, 0.051356606, 0.26249135, -1069226.8, 65719.79, 0.0, 10.001011, 9.999669 
2.8078768e+3, 1.94183e+2, -833256.4, -908758.44, -20212.582, 0.06318589, 0.104365796, -828185.8, 208831.55, 0.0, 10.001781, 10.000494 
2.8074977e+3, 2.0417519e+2, -782971.75, -1010658.2, 68006.695, 0.06607279, 0.06423345, -764205.8, 174883.95, 0.0, 10.002066, 9.999049 
2.8071195e+3, 2.1416703e+2, -671929.75, -830774.7, 82385.13, 0.027885376, -0.024292823, -636917.75, 204252.23, 0.0, 10.001881, 9.999665 
2.8067413e+3, 2.2416012e+2, -737085.06, -904376.6, 37510.395, -0.03480023, 0.0734759, -729059.44, 14181.992, 0.0, 10.001126, 9.998883 
2.806362e+3, 2.3415448e+2, -796555.2, -819493.06, 66507.32, -0.09656543, 0.26891595, -740535.1, -95228.75, 0.0, 9.999818, 9.999398 
2.8059834e+3, 2.4414852e+2, -610048.0, -435411.53, 62238.36, -0.11558299, 0.35941005, -415500.63, 131865.52, 0.0, 9.999301, 10.00164 
2.8056058e+3, 2.541417e+2, -354592.3, -141885.81, -53744.1, -0.06380013, 0.113923214, -129077.65, 320343.94, 0.0, 9.999942, 10.002639 
2.8052285e+3, 2.6413512e+2, -502298.88, -559546.75, -14710.482, -0.10611443, 0.055635646, -498740.1, -147258.97, 0.0, 9.999845, 9.999214 
2.8048515e+3, 2.741281e+2, -547045.44, -500321.03, 8579.411, -0.26782677, 0.096673384, -498795.5, -245239.55, 0.0, 9.998779, 9.999444 
2.8044757e+3, 2.8412065e+2, -455063.03, -460444.44, 2302.6545, -0.2591841, 0.13302106, -454212.25, -298578.5, 0.0, 9.998919, 9.998984 
2.8041008e+3, 2.9411218e+2, -23646.309, -133798.22, 5388.0693, -0.030864783, 0.022653969, -23383.379, 34334.918, 0.0, 10.000949, 9.999553 
2.8037235e+3, 3.0410603e+2, 23885.104, -192221.42, 41627.44, -0.037637033, 0.2245407, 31626.277, 31626.277, 0.0, 10.00121, 9.998343 
2.8033456e+3, 3.1410292e+2, -71862.71, -110193.086, -1699.5459, -0.17357852, 0.6546195, -71787.5, -71787.5, 0.0, 9.999785, 9.999254 
2.802972e+3, 3.2409137e+2, -83828.664, 108488.55, 160169.34, -0.1306422, 0.28772593, 199147.23, 199147.23, 0.0, 9.998678, 10.001264 
2.8201395e+3, 1.3460545e+2, -1524467.9, -1909834.8, 51173.14, -0.7068403, -0.16511454, -1517788.4, 103075.38, 0.00010704309, 10.002621, 9.997159 
2.8197736e+3, 1.4459841e+2, -1209435.5, -1715941.1, -32640.096, 0.7214838, 0.06307866, -1207340.8, 315612.06, 0.000035101017, 10.004046, 9.997301 
2.8193843e+3, 1.5459037e+2, -1127495.8, -1438266.0, -53577.375, -0.11799259, 0.045905065, -1118518.3, 306506.06, 0.0000055355054, 10.003242, 9.998853 
2.8190026e+3, 1.645831e+2, -1159101.5, -1405222.9, 47243.773, -0.34455708, 0.14176297, -1150344.5, 176749.8, 0.0000002527922, 10.002247, 9.998953 
2.818629e+3, 1.7457633e+2, -1120012.5, -1241544.4, 71976.86, 0.021994852, 0.1720051, -1086580.9, 142586.58, 0.0, 10.001538, 9.999696 
2.818252e+3, 1.8456939e+2, -1032988.2, -1100342.9, -667.8828, 0.18718629, 0.21157405, -1032981.56, 98253.336, 0.0, 10.00119, 10.000191 
2.8178722e+3, 1.9456123e+2, -792794.5, -849669.25, -7994.7666, 0.14225537, -0.019480692, -791692.06, 241612.98, 0.0, 10.001856, 10.000891 
2.8174928e+3, 2.0455363e+2, -905921.2, -1117352.5, 65202.793, 0.083218545, -0.027194435, -887430.56, 47945.645, 0.0, 10.001539, 9.998522 
2.8171134e+3, 2.1454623e+2, -823185.25, -940432.6, 50544.34, -0.063801534, -0.026593072, -804404.4, 33048.89, 0.0, 10.00111, 9.999234 
2.816734e+3, 2.2453919e+2, -814141.6, -882517.8, -6847.452, -0.14168794, 0.059861593, -813462.6, -73937.945, 0.0, 10.000437, 9.999337 
2.8163543e+3, 2.3453186e+2, -767422.56, -701000.1, -2781.6873, -0.09879742, -0.017548079, -700883.9, -59287.305, 0.0, 9.999685, 10.000227 
2.8159758e+3, 2.4452487e+2, -885270.25, -884344.2, 79667.914, -0.08543879, 0.061517715, -805137.94, -261471.53, 0.0, 9.998903, 9.998717 
2.8155985e+3, 2.5451738e+2, -660363.0, -619530.1, -37072.72, -0.08024955, 0.023486713, -597623.75, -151881.95, 0.0, 9.999366, 9.999599 
2.8152213e+3, 2.6451138e+2, -642457.0, -610436.7, -45543.953, -0.13380349, 0.19408295, -578170.8, -230367.72, 0.0, 9.998982, 9.999216 
2.8148434e+3, 2.745062e+2, -608245.94, -436961.47, -32115.76, -0.26505747, 0.3190158, -431137.78, -181279.5, 0.0, 9.998116, 10.000126 
2.8144667e+3, 2.8449908e+2, -552780.3, -436881.13, 68426.97, -0.3570153, 0.33735895, -405162.4, -253234.73, 0.0, 9.998125, 9.999464 
2.814092e+3, 2.9448906e+2, -67816.82, -43120.027, 84064.34, -0.32719672, -0.049984314, 29498.02, 83517.445, 0.0, 10.000321, 10.000409 
2.813716e+3, 3.044818e+2, -137414.84, -346046.56, -21027.713, -0.23315437, 0.041586746, -135316.6, -135316.6, 0.0, 10.000537, 9.997594 
2.8133413e+3, 3.1447753e+2, -288897.16, -262003.05, -52077.22, 0.11044797, 0.3760262, -221664.8, -221664.8, 0.0, 9.998591, 9.998759 
2.8129622e+3, 3.2446727e+2, -392676.38, -108049.64, 207716.03, -0.32202095, 0.1777585, 1428.6553, 1428.6553, 0.0, 9.997109, 10.000436 
2.8301388e+3, 1.3498533e+2, -1820766.8, -2055400.6, 136514.36, -0.32940787, 0.018851351, -1758085.3, -140936.17, 0.000050582996, 10.000652, 9.99709 
2.8297663e+3, 1.4497888e+2, -1143729.5, -1556302.3, -115335.68, 0.24644691, 0.24503978, -1113676.4, 405550.66, 0.000015386415, 10.003997, 9.998388 
2.8293812e+3, 1.5497021e+2, -1001813.9, -1309770.6, -11176.792, -0.113901235, 0.08020658, -1001408.8, 419895.13, 0.0000020566958, 10.003833, 9.999437 
2.829001e+3, 1.6496257e+2, -964154.5, -1239012.6, 85149.14, -0.1857597, 0.08859304, -939913.75, 383461.22, 0.00000005936716, 10.003278, 9.999585 
2.8286242e+3, 1.7495531e+2, -951395.3, -1125855.3, 134399.67, -0.008867836, 0.037153784, -878399.4, 347047.28, 0.0, 10.002508, 10.000035 
2.8282464e+3, 1.8494825e+2, -923458.5, -1106228.1, 44987.363, 0.061913062, 0.08110375, -912985.3, 214529.5, 0.0, 10.002144, 9.999717 
2.8278664e+3, 1.9494066e+2, -762924.4, -922799.6, 29118.32, 0.033261616, -0.011604272, -757786.1, 271800.1, 0.0, 10.002386, 10.000163 
2.8274867e+3, 2.0493369e+2, -815439.94, -1012894.4, 13402.214, -0.022213485, 0.05280336, -814534.44, 117120.63, 0.0, 10.001863, 9.999103 
2.827107e+3, 2.1492667e+2, -841771.25, -934714.0, 59174.06, -0.14626332, 0.092366785, -813002.0, 20726.662, 0.0, 10.000863, 9.999425 
2.826728e+3, 2.2491938e+2, -617282.8, -757243.4, 34408.016, -0.16774726, 0.13379698, -609281.4, 126520.19, 0.0, 10.001591, 9.999659 
2.8263497e+3, 2.3491125e+2, -165250.39, -442536.16, 610.11633, -0.06522589, 0.005858313, -165249.05, 472629.53, 0.0, 10.003849, 10.000046 
2.8259706e+3, 2.4490342e+2, -203724.34, -603428.25, 6282.6235, -0.085447975, 0.022782676, -203625.63, 336329.9, 0.0, 10.003705, 9.998356 
2.825591e+3, 2.548952e+2, -455356.66, -642989.2, 33290.258, -0.19315428, 0.029525733, -449625.28, -7586.053, 0.0, 10.001181, 9.998612 
2.825213e+3, 2.6488882e+2, -399518.56, -389759.47, 123911.16, -0.21918367, 0.17656295, -270631.8, 73472.73, 0.0, 10.000134, 10.000183 
2.8248364e+3, 2.7488393e+2, -196837.19, -199253.45, 102915.734, -0.21890257, 0.31865034, -95122.49, 151032.19, 0.0, 10.00071, 10.000528 
2.82446e+3, 2.8487667e+2, -175379.95, -208745.4, 192722.2, -0.28630847, 0.2950554, 1380.241, 149603.95, 0.0, 10.000402, 9.999983 
2.8240845e+3, 2.9486623e+2, -177423.0, -118445.02, 131558.6, -0.4091884, -0.094278045, -13110.926, 37207.97, 0.0, 9.999529, 10.000338 
2.8237087e+3, 3.0485886e+2, -206723.2, -321975.9, -25826.586, -0.3143077, -0.043279927, -201200.45, -201200.45, 0.0, 9.999666, 9.9982195 
2.8233352e+3, 3.148546e+2, 16916.762, -141109.94, -22443.193, 0.246752, 0.3023987, 20042.357, 20042.357, 0.0, 10.000613, 9.99868 
2.8229535e+3, 3.2484487e+2, -126420.26, -67251.86, 241508.97, -0.35534, 0.20214078, 146478.16, 146478.16, 0.0, 9.999048, 9.999888 
2.840138e+3, 1.3536619e+2, -1343112.4, -1872919.6, 377791.16, 0.11340378, 0.250566, -1146605.0, 466819.9, 0.000026717651, 10.003947, 9.996843 
2.839759e+3, 1.4535928e+2, -1223763.0, -1433994.3, -46910.914, -0.14525057, 0.39475623, -1213770.4, 301731.75, 0.000008259606, 10.00269, 9.999875 
2.839379e+3, 1.553505e+2, -1094014.5, -1230588.1, -22985.227, 0.023184936, 0.10499054, -1090249.9, 327328.9, 0.0000013335809, 10.002599, 10.000596 
2.8389996e+3, 1.6534269e+2, -1061876.4, -1244544.0, 71445.74, 0.09435131, 0.021237254, -1037251.7, 282396.25, 0.000000073245815, 10.002475, 9.999909 
2.83862e+3, 1.7533474e+2, -936666.25, -1110796.8, 73125.48, 0.011234645, -0.123041384, -910031.44, 311688.47, 0.0, 10.002596, 10.000089 
2.8382403e+3, 1.8532762e+2, -1001677.06, -1263428.4, 47884.77, -0.03100875, -0.03156568, -993192.06, 130598.15, 0.0, 10.00218, 9.998579 
2.837861e+3, 1.953206e+2, -930189.9, -1144790.9, 8338.433, -0.04917239, 0.027305804, -929866.3, 95998.71, 0.0, 10.001888, 9.998841 
2.837481e+3, 2.0531422e+2, -849052.1, -974430.94, -11774.997, -0.07481173, 0.1965637, -847955.9, 79976.31, 0.0, 10.001443, 9.999557 
2.8371006e+3, 2.1530771e+2, -852936.06, -893883.2, 1774.182, -0.12749057, 0.21195541, -852859.3, -22859.412, 0.0, 10.000663, 9.999773 
2.836723e+3, 2.2530049e+2, -777261.25, -926534.56, 120958.945, -0.08337908, 0.29323092, -709765.2, 22306.92, 0.0, 10.000971, 9.998781 
2.8363475e+3, 2.3529202e+2, -394378.28, -664472.56, 67279.74, 0.04307223, 0.18938439, -378547.03, 255607.3, 0.0, 10.002816, 9.999013 
2.8359672e+3, 2.452837e+2, -340110.5, -621593.6, -76249.625, -0.07904465, 0.20078804, -320782.72, 215450.78, 0.0, 10.002656, 9.998728 
2.8355834e+3, 2.5527474e+2, -546202.3, -630090.94, -68147.98, -0.3616457, 0.049093846, -508124.94, -69807.32, 0.0, 10.000423, 9.999045 
2.8352052e+3, 2.6526734e+2, -519732.75, -434760.0, 141827.98, -0.33842075, 0.076192066, -329191.4, 11195.465, 0.0, 9.999405, 10.000168 
2.8348315e+3, 2.7526063e+2, -317647.63, -264446.94, 122643.555, -0.07771181, -0.008201789, -165552.19, 76897.42, 0.0, 10.000038, 10.000351 
2.8344557e+3, 2.852531e+2, -382781.47, -450948.94, 157928.34, -0.057153843, 0.028799355, -255300.78, -110776.83, 0.0, 9.999718, 9.998605 
2.8340787e+3, 2.952439e+2, -421758.34, -386544.34, 91771.805, -0.23441933, -0.14783934, -310705.78, -264087.88, 0.0, 9.998611, 9.998909 
2.833701e+3, 3.052384e+2, -292006.56, -221952.28, 25526.03, -0.3376033, 0.1101324, -213638.0, -213638.0, 0.0, 9.99867, 9.999315 
2.833326e+3, 3.152358e+2, -68707.03, -70055.125, 51387.12, -0.07891328, 0.4762329, -17989.537, -17989.537, 0.0, 9.99974, 9.999516 
2.8329468e+3, 3.2522452e+2, -256009.8, -16659.584, 164757.7, -0.2845201, 0.08853018, 67300.36, 67300.36, 0.0, 9.997977, 10.000611 
2.8501377e+3, 1.3574882e+2, -1078420.9, -1650158.8, 65485.11, 0.11877056, 0.38532192, -1071016.4, 538656.9, 0.000013313982, 10.00539, 9.997679 
2.849752e+3, 1.4573745e+2, -1532739.9, -1603635.5, -1502.1025, -0.32302833, 0.066764496, -1532708.0, -20919.076, 0.0000038169696, 10.000685, 9.999668 
2.849374e+3, 1.5573117e+2, -1417101.8, -1450954.3, 33810.406, 0.057370774, 0.07142123, -1396217.4, 17627.498, 0.0000005153316, 10.000663, 10.000023 
2.8489956e+3, 1.6572408e+2, -1199469.4, -1317307.9, 100978.01, 0.16275695, 0.09692678, -1141478.3, 174431.1, 0.00000002542409, 10.001563, 9.999837 
2.8486156e+3, 1.7571592e+2, -893270.25, -1126267.4, 116380.05, -0.034273483, -0.04628053, -845098.75, 372886.1, 0.0, 10.00305, 9.999757 
2.8482354e+3, 1.857084e+2, -872982.1, -1189116.5, 779.726, -0.14660795, 0.017030424, -872980.2, 247079.98, 0.0, 10.002994, 9.998688 
2.8478548e+3, 1.9570091e+2, -975602.1, -1179275.1, 38955.72, -0.16145876, 0.05276568, -968405.5, 53734.703, 0.0, 10.001579, 9.998759 
2.8474748e+3, 2.0569402e+2, -853292.75, -988893.06, 28041.23, -0.17282592, 0.17999695, -847722.8, 76489.14, 0.0, 10.001419, 9.999471 
2.8470948e+3, 2.1568698e+2, -648688.1, -829502.8, 27780.566, -0.19428676, 0.18525572, -644516.2, 181766.95, 0.0, 10.002124, 9.999532 
2.846718e+3, 2.2567979e+2, -632888.25, -869769.7, 109916.64, -0.10617593, 0.2797411, -589743.5, 138612.75, 0.0, 10.0019655, 9.998695 
2.846343e+3, 2.3567176e+2, -661351.2, -824959.0, 99702.984, 0.03013359, 0.28071, -614187.8, 16249.312, 0.0, 10.001011, 9.998813 
2.8459623e+3, 2.4566346e+2, -539706.4, -605054.0, -87847.695, -0.03927169, 0.24457482, -478652.97, 53860.773, 0.0, 10.000692, 9.999822 
2.845578e+3, 2.5565454e+2, -424293.5, -493105.88, -39559.184, -0.28033134, 0.048899706, -406271.5, 28320.227, 0.0, 10.000785, 9.999866 
2.845199e+3, 2.656462e+2, -350256.16, -450664.78, 154766.52, -0.28297752, -0.01800922, -237754.75, 98915.375, 0.0, 10.000887, 9.999391 
2.8448254e+3, 2.7563798e+2, -175176.9, -291916.44, 48673.766, -0.09044214, -0.11418487, -157545.6, 81204.69, 0.0, 10.001318, 9.999601 
2.8444493e+3, 2.8563076e+2, -175863.14, -305843.4, 41251.234, -0.0731537, -0.05545045, -163876.77, -23053.922, 0.0, 10.000826, 9.999109 
2.844071e+3, 2.956236e+2, -263440.75, -290547.84, 75147.875, -0.23436308, -0.016228128, -200633.95, -157736.02, 0.0, 9.999522, 9.999164 
2.8436935e+3, 3.056183e+2, -101802.055, -93789.02, 100574.266, -0.34132522, 0.22582036, 2858.4946, 2858.4946, 0.0, 9.999656, 9.999793 
2.8433186e+3, 3.156148e+2, 132240.92, 42585.793, 14538.379, -0.17638803, 0.51116765, 134539.52, 134539.52, 0.0, 10.000878, 9.999836 
2.8429395e+3, 3.2560408e+2, -130320.58, -618.89014, -214348.98, -0.16664551, 0.18567182, 158474.72, 158474.72, 0.0, 9.998713, 10.000513 
2.8601357e+3, 1.361301e+2, -1377874.8, -1722123.9, -238493.45, 0.16567507, 0.3312062, -1255880.4, 350053.03, 0.0000059672334, 10.002973, 9.998363 
2.8597462e+3, 1.4611582e+2, -1269599.3, -1526677.4, -43830.54, -0.29791257, -0.26835603, -1262331.9, 245741.38, 0.0000015122073, 10.002714, 9.999212 
2.859369e+3, 1.5611205e+2, -1300720.4, -1473824.8, -7237.582, 0.17154601, 0.041126195, -1300418.3, 109690.3, 0.0000000966577, 10.001792, 9.999319 
2.8589913e+3, 1.6610569e+2, -1186488.8, -1339193.5, 156986.7, 0.26611042, 0.18380916, -1088271.6, 223897.81, 0.00000000026919006, 10.001758, 9.999612 
2.858612e+3, 1.7609742e+2, -1031990.0, -1233257.5, 140778.27, -0.0051520816, 0.052769046, -959575.56, 254673.8, 0.0, 10.002259, 9.9994135 
2.8582308e+3, 1.8608975e+2, -970071.06, -1188067.0, -27371.574, -0.17007816, 0.10245585, -966686.9, 149640.08, 0.0, 10.002217, 9.999056 
2.857849e+3, 1.9608189e+2, -1001162.8, -1172194.4, -25663.754, -0.18892108, 0.06624348, -997394.94, 21013.65, 0.0, 10.001422, 9.998864 
2.857469e+3, 2.0607409e+2, -895749.75, -1099851.9, 63555.285, -0.17911726, 0.14662647, -877577.3, 42909.625, 0.0, 10.001532, 9.998661 
2.8570902e+3, 2.1606565e+2, -754676.7, -997943.5, 29587.184, -0.17134447, 0.076483905, -751129.9, 71439.984, 0.0, 10.001894, 9.998516 
2.8567126e+3, 2.2605817e+2, -744674.9, -945977.2, 79698.63, -0.09437984, 0.20829274, -716941.75, 7704.9834, 0.0, 10.001369, 9.998409 
2.8563365e+3, 2.3605078e+2, -812985.56, -921975.5, 40950.273, 0.037825283, 0.261429, -799314.4, -172589.56, 0.0, 10.000208, 9.998468 
2.855957e+3, 2.4604315e+2, -600893.9, -516874.53, -76039.32, 0.08377519, 0.25825852, -472011.94, 56780.895, 0.0, 9.999952, 10.000671 
2.8555748e+3, 2.560346e+2, -537696.4, -519896.44, -37684.367, 0.064148985, -0.027276834, -490075.3, -59213.21, 0.0, 10.000029, 9.999964 
2.8551954e+3, 2.660256e+2, -616436.8, -856800.5, 164546.22, -0.074090704, -0.012461138, -532856.25, -199904.16, 0.0, 10.00035, 9.996818 
2.854818e+3, 2.7601582e+2, -447688.6, -687609.3, 45435.71, -0.2535992, -0.054613713, -439372.34, -204312.4, 0.0, 10.000637, 9.997201 
2.85444e+3, 2.8600976e+2, -186128.27, -100486.22, -18120.402, -0.37859046, 0.13927047, -96810.055, 40309.863, 0.0, 10.00003, 10.000831 
2.8540608e+3, 2.9600528e+2, -338600.56, -196918.55, 39275.895, -0.50065225, 0.2442957, -186759.28, -147600.9, 0.0, 9.998583, 10.000214 
2.8536853e+3, 3.0599752e+2, -349532.38, -396095.28, 135452.7, -0.42731395, 0.29792693, -235374.89, -235374.89, 0.0, 9.998922, 9.997986 
2.8533137e+3, 3.1598833e+2, -244166.0, -379472.75, 16911.197, -0.038736552, 0.14501975, -242084.39, -242084.39, 0.0, 9.999514, 9.997517 
2.8529292e+3, 3.259817e+2, -396600.13, -171331.06, -376084.13, -0.3629338, 0.3274243, 108622.99, 108622.99, 0.0, 9.99733, 9.999903 
2.870129e+3, 1.3650753e+2, -1648009.4, -1697985.3, -29249.096, -0.015672693, 0.13266897, -1634527.8, -32291.531, 0.0000021514043, 10.000473, 9.999726 
2.869747e+3, 1.4649718e+2, -997928.5, -1346955.1, -127195.15, 0.046549525, -0.15918137, -956493.94, 547841.1, 0.00000043033984, 10.00438, 9.999629 
2.8693646e+3, 1.5649259e+2, -1162886.6, -1395639.9, -36315.76, 0.10631702, 0.044345953, -1157352.0, 249027.2, 0.000000019645139, 10.002677, 9.999435 
2.8689852e+3, 1.6648605e+2, -1145826.8, -1252089.9, 133673.67, 0.1360582, 0.13069032, -1055112.5, 253329.98, 0.0, 10.001752, 10.00021 
2.8686064e+3, 1.7647816e+2, -1214941.3, -1295761.1, 177417.75, -0.048908394, 0.008191316, -1073389.6, 137129.55, 0.0, 10.000859, 9.999675 
2.8682256e+3, 1.8647088e+2, -1096476.6, -1255269.9, 3455.5898, -0.17827936, 0.08746322, -1096401.5, 16191.861, 0.0, 10.0013075, 9.99906 
2.8678438e+3, 1.9646321e+2, -912400.6, -1169235.8, 41217.92, -0.22198772, 0.10356545, -905947.94, 108725.21, 0.0, 10.0021, 9.998609 
2.8674647e+3, 2.0645478e+2, -688197.1, -1035910.44, 101619.41, -0.20892261, 0.15198834, -660676.94, 256080.33, 0.0, 10.003118, 9.998325 
2.8670865e+3, 2.164455e+2, -476886.75, -910126.75, 88725.38, -0.20326653, 0.0757819, -459420.38, 359427.6, 0.0, 10.003949, 9.998143 
2.8667086e+3, 2.2643752e+2, -493164.7, -783557.06, 42808.785, -0.09489977, 0.15012187, -486985.4, 233943.13, 0.0, 10.002845, 9.998838 
2.8663304e+3, 2.3643011e+2, -722825.94, -839444.3, 54658.15, 0.06355431, 0.20449035, -701213.44, -78208.195, 0.0, 10.000557, 9.998905 
2.865951e+3, 2.464224e+2, -487696.88, -475045.94, -21129.168, 0.13178308, 0.170828, -459315.72, 65759.47, 0.0, 10.00068, 10.00065 
2.86557e+3, 2.5641394e+2, -208864.84, -381725.4, -42911.77, 0.13258322, -0.05421034, -198798.42, 228347.72, 0.0, 10.002251, 9.999891 
2.8651902e+3, 2.664058e+2, -321688.7, -704832.4, 176025.52, -0.056083083, 0.030599793, -253097.61, 76132.695, 0.0, 10.002212, 9.997004 
2.8648114e+3, 2.7639723e+2, -350478.4, -643604.8, 222515.72, -0.3690392, 0.15915509, -230594.6, 734.15643, 0.0, 10.001184, 9.997275 
2.8644326e+3, 2.8639033e+2, -124943.414, -75517.36, 92419.984, -0.46373352, 0.2773559, -4563.324, 128832.06, 0.0, 10.000403, 10.000833 
2.8640538e+3, 2.9638448e+2, -121106.71, -97086.06, 1555.37, -0.48094872, 0.2890447, -96985.766, -61543.406, 0.0, 9.999984, 10.00025 
2.863678e+3, 3.063759e+2, -307354.7, -392483.38, 148870.16, -0.4050954, 0.25354764, -195083.5, -195083.5, 0.0, 9.999151, 9.9979515 
2.8633058e+3, 3.1636557e+2, -394657.9, -448624.53, 116322.02, -0.08306672, 0.063641824, -302230.53, -302230.53, 0.0, 9.998302, 9.9976845 
2.8629205e+3, 3.2636026e+2, 205648.27, 72603.11, -251284.66, -0.43752068, 0.41907912, 399066.5, 399066.5, 0.0, 10.001452, 9.999661 
2.8801227e+3, 1.3688536e+2, -1386894.1, -1420600.8, 306744.03, -0.046829823, -0.058651738, -1096540.8, 501994.75, 0.00000033823923, 10.001534, 10.001135 
2.8797483e+3, 1.4687964e+2, -1173948.6, -1391189.8, -152331.61, 0.48867106, 0.050105482, -1095477.4, 405110.22, 0.000000039050374, 10.002985, 10.000007 
2.8793597e+3, 1.5687327e+2, -1155517.4, -1371165.8, -96209.46, 0.09423478, 0.06484775, -1118834.4, 283815.38, 0.0000000006124831, 10.002622, 9.999652 
2.878979e+3, 1.668664e+2, -1082449.6, -1168046.3, 97798.18, 0.032079004, 0.08113192, -1018495.06, 286221.25, 0.0, 10.001973, 10.000645 
2.878601e+3, 1.7685887e+2, -1183207.5, -1271287.4, 84168.695, 0.0041274847, -0.067481235, -1132253.3, 74536.125, 0.0, 10.00103, 9.999747 
2.8782204e+3, 1.8685198e+2, -1081180.5, -1269890.8, 238.05104, -0.09735758, 0.057520263, -1081180.3, 27679.861, 0.0, 10.001603, 9.998791 
2.8778392e+3, 1.9684486e+2, -886502.56, -1214627.0, 13627.012, -0.14277126, 0.13929409, -885937.6, 124997.19, 0.0, 10.002599, 9.998051 
2.877461e+3, 2.0683613e+2, -759320.56, -1125284.1, 119578.67, -0.16043279, 0.21393259, -723712.8, 189309.33, 0.0, 10.002974, 9.997755 
2.8770834e+3, 2.1682623e+2, -684638.2, -1081007.5, 65556.734, -0.1554644, 0.11781064, -674076.94, 141042.31, 0.0, 10.002952, 9.997419 
2.8767046e+3, 2.2681776e+2, -575351.9, -750034.0, -42188.914, -0.020555345, 0.14313476, -565696.2, 151505.7, 0.0, 10.002085, 9.999405 
2.876325e+3, 2.3680982e+2, -831681.25, -902417.0, -19035.934, 0.19420642, 0.07501244, -826883.8, -207604.31, 0.0, 9.999977, 9.998734 
2.8759447e+3, 2.468016e+2, -637352.44, -667953.8, 52098.56, 0.17244177, 0.07351302, -598354.25, -76996.38, 0.0, 10.000246, 9.999532 
2.875564e+3, 2.5679284e+2, -438792.47, -607153.2, 9846.003, 0.03835315, -0.08969855, -438218.63, -14778.223, 0.0, 10.001271, 9.99881 
2.875184e+3, 2.6678744e+2, -298357.28, -440798.78, 144545.9, -0.16802734, 0.19583838, -208438.63, 117058.01, 0.0, 10.001419, 9.999147 
2.874805e+3, 2.767828e+2, -477271.4, -600213.0, 186613.45, -0.384238, 0.48491302, -342265.13, -114715.58, 0.0, 9.999993, 9.998115 
2.8744277e+3, 2.867724e+2, -427545.72, -532889.2, 81230.08, -0.28623778, 0.3845234, -383405.06, -253756.3, 0.0, 9.999743, 9.997977 
2.8740507e+3, 2.967592e+2, -454277.25, -552721.25, -17261.746, -0.053864274, -0.08881155, -451338.22, -419567.7, 0.0, 9.99906, 9.997552 
2.873672e+3, 3.067526e+2, -317039.56, -157979.19, 77997.9, -0.21462728, 0.07725248, -126114.92, -126114.92, 0.0, 9.998227, 9.999965 
2.8732938e+3, 3.1674868e+2, -674359.4, -474513.13, 134162.13, -0.40290713, 0.32492545, -407151.75, -407151.75, 0.0, 9.996068, 9.998564 
2.8729165e+3, 3.2673806e+2, 117421.875, 117335.375, 147966.22, -0.36648756, -0.020570753, 265344.84, 265344.84, 0.0, 10.000826, 10.000108 
2.8901163e+3, 1.37266e+2, -1455650.8, -1403636.0, 180308.58, -0.2540697, -0.048398335, -1247468.8, 347338.13, 0.0000000028010363, 10.000894, 10.001559 
2.889744e+3, 1.4726357e+2, -1495694.6, -1553235.5, -119438.03, 0.6001571, 0.37609804, -1401610.8, 95217.22, 0.0, 10.000835, 9.999909 
2.8893536e+3, 1.572544e+2, -1260955.0, -1455632.1, -36966.742, -0.07813437, 0.12436494, -1254171.8, 144747.47, 0.0, 10.002039, 9.999351 
2.888973e+3, 1.67247e+2, -1085081.1, -1266340.9, 41707.426, -0.14598645, 0.13987316, -1075944.9, 225048.88, 0.0, 10.002341, 9.999796 
2.8885952e+3, 1.7723994e+2, -1121355.0, -1328681.6, 23133.844, -0.07662106, 0.12967932, -1118805.0, 84259.78, 0.0, 10.001788, 9.998999 
2.888216e+3, 1.8723269e+2, -847342.0, -1171840.5, -31099.805, -0.11090152, 0.2453945, -844388.3, 260750.48, 0.0, 10.003208, 9.998709 
2.8878367e+3, 1.9722514e+2, -532576.44, -1045342.06, -15507.038, -0.17871423, 0.30920723, -532107.9, 475108.16, 0.0, 10.004944, 9.998115 
2.8874582e+3, 2.0721589e+2, -569197.4, -992107.8, -7462.315, -0.12183542, 0.288645, -569065.75, 340241.06, 0.0, 10.004025, 9.998177 
2.8870803e+3, 2.1720563e+2, -764771.06, -1036907.6, 24443.732, -0.061280705, 0.12236706, -762592.9, 48813.168, 0.0, 10.001933, 9.99824 
2.8866997e+3, 2.2719842e+2, -433158.2, -574079.06, -40730.137, -0.053024173, 0.16725056, -422233.0, 291241.63, 0.0, 10.002517, 10.000429 
2.886318e+3, 2.3719214e+2, -167008.6, -474846.44, 15759.189, -0.06669822, 0.1929688, -166203.92, 449329.8, 0.0, 10.003939, 9.9998 
2.8859374e+3, 2.4718411e+2, -309976.2, -545628.6, 84013.49, -0.009863938, 0.17344452, -283091.34, 234520.22, 0.0, 10.00254, 9.999315 
2.8855577e+3, 2.5717503e+2, -613954.75, -684113.44, 125125.92, 0.0061591007, 0.039916143, -519083.88, -99383.05, 0.0, 9.999883, 9.999006 
2.8851783e+3, 2.6716888e+2, -393273.97, -429410.3, 219381.1, -0.19566694, 0.2150704, -191218.27, 130544.4, 0.0, 10.000447, 9.99972 
2.884799e+3, 2.7716392e+2, -45657.66, -324806.8, 135307.95, -0.47760433, 0.4522726, 9162.469, 232976.39, 0.0, 10.002547, 9.998805 
2.8844222e+3, 2.8715298e+2, -54186.71, -429914.22, 90520.125, -0.24967663, 0.2895591, -33515.855, 92400.92, 0.0, 10.002475, 9.997425 
2.8840467e+3, 2.9713872e+2, -102868.07, -407072.88, 170074.9, 0.18817914, -0.18496715, -26802.516, 1246.9557, 0.0, 10.001421, 9.997462 
2.8836662e+3, 3.071315e+2, 66085.97, 42841.055, 204933.42, -0.028897546, -0.08011403, 259726.25, 259726.25, 0.0, 10.000738, 10.000189 
2.8832853e+3, 3.171277e+2, -23222.373, -62658.92, 130844.93, -0.395185, 0.21781181, 89381.71, 89381.71, 0.0, 10.000007, 9.99957 
2.8829128e+3, 3.2711962e+2, 31920.451, 210162.78, 231255.17, -0.15398833, 0.07389323, 368875.3, 368875.3, 0.0, 9.999332, 10.001675 
2.9001105e+3, 1.3764715e+2, -1482427.3, -1437423.8, 36153.492, -0.22385119, -0.0066583236, -1417341.4, 173732.17, 0.00000000011876347, 10.000706, 10.001476 
2.8997383e+3, 1.4764644e+2, -1430439.3, -1541185.0, -96886.06, 0.64186656, 0.60898, -1374218.8, 118860.15, 0.0, 10.001346, 9.999778 
2.899348e+3, 1.576348e+2, -1207326.8, -1473045.6, -52578.29, -0.13827166, 0.12268142, -1197301.3, 197894.67, 0.0, 10.002578, 9.998988 
2.898968e+3, 1.6762745e+2, -1139138.4, -1395870.1, 22270.559, -0.19950296, 0.21472713, -1137220.8, 160052.13, 0.0, 10.002496, 9.998802 
2.89859e+3, 1.7762116e+2, -1234304.0, -1488434.6, 46649.91, -0.05205625, 0.37656084, -1226011.3, -26671.172, 0.0, 10.001511, 9.998034 
2.8982124e+3, 1.8761352e+2, -956803.5, -1241023.6, 106867.86, -0.08924, 0.50378346, -921104.6, 180312.98, 0.0, 10.002526, 9.998542 
2.8978348e+3, 1.9760516e+2, -709673.4, -1136510.0, 64492.906, -0.12671004, 0.4834513, -700141.7, 303359.28, 0.0, 10.003786, 9.998004 
2.897456e+3, 2.0759532e+2, -632418.1, -941646.7, -31519.713, -0.012097836, 0.36218163, -629238.0, 276357.88, 0.0, 10.003292, 9.998833 
2.897077e+3, 2.175847e+2, -819133.3, -986626.75, -7435.0625, 0.1666641, 0.07697662, -818803.9, -11106.954, 0.0, 10.001304, 9.998856 
2.8966942e+3, 2.2757976e+2, -455817.38, -440673.75, 40241.367, -0.10309849, 0.24450864, -407298.03, 302444.44, 0.0, 10.001861, 10.001601 
2.8963104e+3, 2.375764e+2, -345182.2, -506781.13, 22120.373, -0.48544872, 0.4345624, -342208.97, 269563.66, 0.0, 10.00257, 10.000213 
2.8959298e+3, 2.4756907e+2, -418851.47, -548553.1, -19985.508, -0.281053, 0.4517882, -415841.78, 98001.59, 0.0, 10.001735, 9.99958 
2.895551e+3, 2.5755975e+2, -811959.56, -832947.5, 62754.98, 0.107096665, 0.2432726, -758827.2, -342892.8, 0.0, 9.99891, 9.998379 
2.895172e+3, 2.6754957e+2, -554795.3, -643248.9, 309240.44, -0.16166681, 0.117705494, -286635.06, 31398.887, 0.0, 10.00002, 9.998409 
2.894793e+3, 2.7753925e+2, -225493.9, -509114.16, 181821.22, -0.6409209, -0.08999677, -136719.84, 83414.87, 0.0, 10.00183, 9.997866 
2.8944162e+3, 2.8753227e+2, 40949.184, -90197.02, 40984.152, -0.43146428, 0.02516224, 52703.52, 174900.42, 0.0, 10.002032, 9.999918 
2.89404e+3, 2.9752544e+2, -189780.47, -350658.44, 162159.8, 0.050465353, 0.05030085, -89205.01, -64949.336, 0.0, 10.000568, 9.998208 
2.8936586e+3, 3.0751526e+2, -43913.81, -267125.28, 219619.17, -0.16343652, -0.030049548, 90830.66, 90830.66, 0.0, 10.001307, 9.997602 
2.8932768e+3, 3.1750503e+2, -254324.98, -594936.6, 146507.92, -0.607122, -0.11660614, -199978.53, -199978.53, 0.0, 10.000474, 9.995555 
2.8929052e+3, 3.275027e+2, -620270.7, -19405.299, 53380.04, -0.12019664, 0.3421997, -14699.9375, -14699.9375, 0.0, 9.994941, 10.001872 
2.9101077e+3, 1.3802701e+2, -1625334.9, -1442001.8, -88464.04, 0.07740231, 0.112579204, -1406276.6, 181078.78, 0.0000000000007792345, 9.999478, 10.002048 
2.9097283e+3, 1.4802413e+2, -1462527.4, -1576357.1, -78563.805, 0.18178941, 0.5059795, -1422429.0, 66950.7, 0.0, 10.001219, 9.9996 
2.9093453e+3, 1.5801159e+2, -1146308.3, -1437611.1, -47338.44, -0.07345506, -0.05784063, -1138808.5, 252695.16, 0.0, 10.002953, 9.999069 
2.9089648e+3, 1.6800578e+2, -1026665.1, -1202620.6, -37105.44, -0.102246225, 0.0955782, -1019160.44, 274403.22, 0.0, 10.002649, 10.000057 
2.9085842e+3, 1.780016e+2, -1197727.4, -1352545.4, 103315.29, -0.15481767, 0.35947832, -1146038.8, 49569.617, 0.0, 10.001197, 9.999136 
2.908207e+3, 1.8799378e+2, -1028832.7, -1189580.0, 239228.22, -0.17706583, 0.37839383, -856837.44, 240847.88, 0.0, 10.001597, 9.999366 
2.9078305e+3, 1.9798477e+2, -925400.0, -1179870.6, 240298.5, -0.19167879, 0.24222817, -780730.56, 219042.27, 0.0, 10.001965, 9.998612 
2.907452e+3, 2.0797595e+2, -739715.25, -1024081.5, 71717.8, -0.027640322, 0.22790042, -722651.75, 179208.84, 0.0, 10.002599, 9.998635 
2.9070723e+3, 2.1796691e+2, -571804.8, -839910.7, 75648.68, 0.12162048, 0.14379707, -551932.75, 252017.5, 0.0, 10.002789, 9.999179 
2.9066893e+3, 2.2796132e+2, -462123.38, -429688.44, 60991.71, -0.11498965, 0.22353776, -382794.94, 323207.34, 0.0, 10.001677, 10.001806 
2.9063046e+3, 2.3795676e+2, -649476.56, -607315.0, 27060.578, -0.5029102, 0.2998112, -594093.1, 13950.107, 0.0, 10.000139, 10.000739 
2.9059243e+3, 2.4795067e+2, -418651.3, -532528.44, -36205.957, -0.32743797, 0.40243015, -408114.9, 101989.19, 0.0, 10.001543, 9.999824 
2.905545e+3, 2.5794342e+2, -71082.28, -445700.16, 54212.332, 0.01653227, 0.39860764, -63394.766, 348782.94, 0.0, 10.003698, 9.998772 
2.905167e+3, 2.6793212e+2, -179547.34, -560019.06, 318348.34, -0.14442192, 0.1915332, 1074.395, 315364.66, 0.0, 10.002848, 9.997691 
2.9047891e+3, 2.7791983e+2, -303662.5, -492882.72, 212718.81, -0.51597244, -0.13324949, -165462.89, 50948.863, 0.0, 10.00092, 9.998453 
2.90441e+3, 2.8791547e+2, -36041.566, 77810.09, 44419.246, -0.44379634, 0.094547294, 93089.66, 211536.22, 0.0, 10.000553, 10.00181 
2.904033e+3, 2.9791164e+2, -123512.11, -139943.89, 133031.61, -0.02892756, 0.27041036, 1557.0643, 22030.39, 0.0, 10.000067, 9.999927 
2.9201034e+3, 1.3840619e+2, -1405636.6, -1315797.3, -55762.234, 0.33811674, 0.15334632, -1289112.5, 294530.28, 0.0, 10.000905, 10.002189 
2.9197186e+3, 1.4840177e+2, -1426468.0, -1570444.9, 23491.447, -0.1948873, 0.39413837, -1422732.1, 62948.527, 0.0, 10.001521, 9.999469 
2.919343e+3, 1.5838867e+2, -1332862.1, -1488363.3, 20568.021, 0.15406093, -0.21022749, -1330187.6, 57620.004, 0.0, 10.001494, 9.999421 
2.9189616e+3, 1.6838418e+2, -1060322.3, -1066041.5, -54441.344, 0.07157006, -0.029716618, -1008665.44, 281186.38, 0.0, 10.001712, 10.001486 
2.918578e+3, 1.7838156e+2, -1117881.1, -1176624.0, 51614.734, -0.16567558, 0.24908927, -1087866.0, 104011.94, 0.0, 10.00116, 10.000386 
2.9182008e+3, 1.8837374e+2, -997996.9, -1049486.9, 217771.64, -0.21492678, 0.1452236, -804453.75, 289497.7, 0.0, 10.001366, 10.000391 
2.917826e+3, 1.983642e+2, -1032416.7, -1219993.9, 174908.52, -0.12922727, -0.1465688, -927737.94, 68303.58, 0.0, 10.001194, 9.998718 
2.9174474e+3, 2.0835721e+2, -898421.9, -1161942.6, 59891.797, -0.030423833, 0.05515941, -885448.6, 12666.392, 0.0, 10.001853, 9.998031 
2.917067e+3, 2.1835053e+2, -808016.56, -1038385.56, 41883.664, 0.05906664, 0.24859531, -800638.0, -450.6546, 0.0, 10.001604, 9.998389 
2.9166842e+3, 2.2834246e+2, -585169.0, -535961.7, -6426.6426, -0.043243084, 0.12814185, -535136.2, 167126.95, 0.0, 10.001095, 10.001329 
2.9163006e+3, 2.3833433e+2, -813798.8, -760470.7, -9724.113, -0.1859997, -0.12512915, -758752.9, -154415.67, 0.0, 9.999438, 10.000001 
2.9159197e+3, 2.4833003e+2, -489755.3, -549225.0, 47358.22, -0.216836, 0.17216158, -463570.94, 42813.094, 0.0, 10.001089, 9.999886 
2.9155394e+3, 2.583261e+2, -278804.94, -597232.94, 91020.97, -0.1772519, 0.47665286, -254623.42, 153806.61, 0.0, 10.00261, 9.998238 
2.9151633e+3, 2.6831692e+2, -311772.47, -613522.5, 235170.39, -0.09250078, 0.49860576, -183240.27, 127288.17, 0.0, 10.002108, 9.997565 
2.9147872e+3, 2.7830648e+2, -494876.44, -577407.8, 161003.89, -0.06853976, 0.332971, -369934.1, -157296.39, 0.0, 9.999727, 9.998402 
2.9144043e+3, 2.883031e+2, -92355.96, 132960.67, 46655.043, -0.35709152, 0.60055214, 142239.17, 256901.5, 0.0, 9.999949, 10.002405 
2.9140267e+3, 2.982946e+2, -319403.63, -165107.16, 146771.31, 0.049025916, 0.18428318, -76443.25, -59710.34, 0.0, 9.998599, 10.000427 
2.9300988e+3, 1.387844e+2, -1486444.5, -1524926.5, -28652.889, 0.33442026, 0.065016545, -1471171.8, 108761.96, 0.0, 10.001136, 10.000634 
2.929712e+3, 1.4878212e+2, -1378324.8, -1381826.8, -23918.604, -0.33224365, 0.46559232, -1356093.1, 125862.4, 0.0, 10.0011015, 10.000985 
2.9293364e+3, 1.587724e+2, -1638350.3, -1566773.6, 68215.67, 0.09762345, 0.07434366, -1525528.4, -141478.84, 0.0, 9.9990635, 10.000073 
2.9289553e+3, 1.6876648e+2, -1316624.3, -1262723.8, 4183.6807, 0.039431434, 0.1384299, -1262401.0, 23707.012, 0.0, 10.000273, 10.000826 
2.9285723e+3, 1.7876129e+2, -1095084.5, -1220989.9, 46718.285, -0.26569352, 0.23302369, -1079643.0, 108516.66, 0.0, 10.001512, 9.9999275 
2.9281962e+3, 1.8875381e+2, -1022139.0, -1116893.8, 85175.4, -0.19630955, 0.20151314, -972051.2, 118181.625, 0.0, 10.001414, 9.999911 
2.9278216e+3, 1.9874555e+2, -1099026.8, -1188556.8, 11151.592, -0.031560037, 0.06998808, -1097658.6, -105345.45, 0.0, 10.000414, 9.999318 
2.9274416e+3, 2.0873919e+2, -944089.25, -999488.9, -40160.324, -0.026309533, 0.18222247, -923002.5, -28625.47, 0.0, 10.000701, 9.999722 
2.9270598e+3, 2.1873301e+2, -831592.7, -948311.44, 42726.48, -0.12378263, 0.28612298, -817623.8, -21183.826, 0.0, 10.000871, 9.999403 
2.926678e+3, 2.2872439e+2, -493123.88, -609910.25, -17818.867, -0.11987925, 0.14323868, -490465.66, 208055.52, 0.0, 10.002077, 10.000435 
2.926296e+3, 2.3871537e+2, -272107.97, -524726.9, -30993.693, -0.1444142, -0.100014575, -268360.94, 332244.34, 0.0, 10.003085, 9.999938 
2.925915e+3, 2.4871047e+2, -249920.83, -441592.75, 8660.393, -0.188253, 0.12688959, -249530.31, 253126.56, 0.0, 10.002636, 9.999955 
2.9255345e+3, 2.5870633e+2, -330728.5, -533310.1, 32879.023, -0.24310094, 0.42086864, -325525.84, 79177.805, 0.0, 10.001696, 9.999183 
2.9251578e+3, 2.686989e+2, -439286.47, -544950.7, 191059.63, -0.11340191, 0.4940578, -293888.88, 12894.854, 0.0, 10.000517, 9.998862 
2.924781e+3, 2.786908e+2, -382150.3, -411498.84, 218227.16, 0.008153952, 0.46181753, -178104.61, 30766.13, 0.0, 9.999783, 9.999593 
2.924399e+3, 2.886876e+2, 107895.484, 115089.05, 94388.266, -0.23191734, 0.77039903, 205949.03, 316846.78, 0.0, 10.001582, 10.001637 
2.9240233e+3, 2.9867542e+2, 387277.34, 101845.1, 51758.125, 0.2630372, 0.098708294, 396372.94, 409382.8, 0.0, 10.003404, 10.000073 
2.9400924e+3, 1.3916308e+2, -1692710.4, -1796501.4, 51806.56, 0.2801306, 0.020092653, -1671277.4, -95058.1, 0.0, 10.000354, 9.999193 
2.9397064e+3, 1.4916222e+2, -1365567.5, -1206038.6, -74983.82, -0.27370206, 0.5031084, -1176327.3, 301904.78, 0.0, 10.000466, 10.002506 
2.9393288e+3, 1.5915677e+2, -1424658.0, -1405963.8, -25848.307, 0.10397683, 0.40347803, -1387824.5, -7539.42, 0.0, 10.000305, 10.000579 
2.9389486e+3, 1.6914915e+2, -1316084.8, -1380115.3, 10494.456, 0.027147384, 0.35025445, -1314408.6, -32046.75, 0.0, 10.000848, 9.999709 
2.938567e+3, 1.7914087e+2, -1241349.3, -1420607.5, 37999.63, -0.22122324, 0.23648688, -1233626.6, -49181.063, 0.0, 10.001113, 9.998708 
2.9381913e+3, 1.8913415e+2, -1169558.3, -1291206.8, 68610.12, -0.0836277, 0.3789164, -1138693.1, -52176.902, 0.0, 10.000877, 9.998964 
2.9378173e+3, 1.9912758e+2, -1178022.9, -1195494.8, 7969.7993, 0.21517137, 0.48291996, -1174933.6, -186348.6, 0.0, 9.999811, 9.999545 
2.9374355e+3, 2.091213e+2, -853351.5, -673810.9, -30268.088, 0.035857543, 0.4081161, -668845.4, 221797.33, 0.0, 10.000179, 10.002166 
2.9370522e+3, 2.191148e+2, -967290.94, -962618.5, 21934.975, -0.21750982, 0.26767254, -942895.7, -150194.14, 0.0, 9.999782, 9.999828 
2.936672e+3, 2.2910693e+2, -671288.9, -814477.25, 16398.416, -0.21560177, 0.26043057, -669434.9, 25341.643, 0.0, 10.001506, 9.999209 
2.9362914e+3, 2.390986e+2, -509460.75, -767264.2, -26126.594, -0.14871524, 0.17714822, -506839.66, 90017.16, 0.0, 10.002158, 9.9986515 
2.9359105e+3, 2.4909125e+2, -365120.2, -492291.84, -28453.842, -0.15527132, 0.19983558, -359044.13, 139883.84, 0.0, 10.00201, 9.999809 
2.9355296e+3, 2.5908452e+2, -487709.56, -533848.4, -213.0059, -0.15548638, 0.20728084, -487708.56, -86715.03, 0.0, 10.0004835, 9.999714 
2.9351503e+3, 2.6907852e+2, -346549.84, -213472.22, 155415.55, -0.22073245, 0.22358368, -110950.664, 192101.56, 0.0, 10.000001, 10.001378 
2.9347712e+3, 2.7907255e+2, -570201.0, -490736.13, 237359.44, -0.27268577, 0.18251501, -289806.63, -84694.77, 0.0, 9.998603, 9.999587 
2.934396e+3, 2.8906778e+2, -138964.5, -286858.1, 186831.75, -0.030982397, 0.51339775, -11977.9, 95185.05, 0.0, 10.001303, 9.998923 
2.934018e+3, 2.9905665e+2, 100535.1, -176319.42, 55253.324, 0.06885304, 0.1885943, 111154.94, 120432.66, 0.0, 10.002393, 9.99853 
2.95008e+3, 1.3954543e+2, -1924470.3, -1853939.6, -122046.586, -0.2672179, 0.3167918, -1762165.5, -189700.88, 0.0, 9.998538, 9.999697 
2.949703e+3, 1.495364e+2, -1568545.3, -1433670.4, -57205.152, 0.098991, 0.027933823, -1412675.8, 61882.52, 0.0, 9.999652, 10.001334 
2.9493207e+3, 1.5953316e+2, -1325100.4, -1447912.8, -93215.336, -0.16837361, 0.26206008, -1274883.0, 101709.6, 0.0, 10.0013485, 9.999808 
2.9489425e+3, 1.6952673e+2, -1245956.5, -1357326.3, -107608.2, -0.052485567, 0.34265321, -1180478.9, 98181.49, 0.0, 10.001337, 9.999643 
2.948563e+3, 1.7951962e+2, -1287819.0, -1372853.9, -39135.08, -0.08328989, 0.3417655, -1272549.9, -91814.945, 0.0, 10.000434, 9.999383 
2.9481855e+3, 1.8951322e+2, -1170551.0, -1158274.5, 46872.906, -0.033667974, 0.3947736, -1117139.6, -34338.836, 0.0, 10.000223, 10.000218 
2.947809e+3, 1.9950698e+2, -1138391.9, -1087336.9, 75164.695, 0.056192584, 0.43772534, -1033483.1, -48618.688, 0.0, 9.999603, 10.000414 
2.947428e+3, 2.095014e+2, -884179.0, -704534.3, -30884.746, -0.03065026, 0.41709906, -699372.9, 187544.56, 0.0, 9.999904, 10.002153 
2.947046e+3, 2.1949543e+2, -909024.94, -933998.06, -46244.902, -0.21439616, 0.34987387, -873610.5, -84637.16, 0.0, 10.00004, 9.999947 
2.946667e+3, 2.2948758e+2, -670575.94, -880289.94, -16209.713, -0.17619663, 0.36387616, -669330.44, 21720.543, 0.0, 10.00172, 9.9986925 
2.946288e+3, 2.394793e+2, -312047.94, -662078.4, -84298.52, -0.12968665, 0.33945858, -292804.16, 300328.47, 0.0, 10.00334, 9.998832 
2.9459056e+3, 2.4947137e+2, -266217.0, -469639.44, -132494.75, -0.19371301, 0.29344028, -200895.2, 294312.03, 0.0, 10.00264, 9.999738 
2.9455233e+3, 2.594635e+2, -236787.19, -327525.34, -101482.28, -0.2535955, 0.1958129, -170994.2, 226285.8, 0.0, 10.001646, 10.000632 
2.9451442e+3, 2.6945743e+2, -89388.6, 13775.782, -50522.242, -0.21083482, 0.09117904, 34396.22, 333731.22, 0.0, 10.001182, 10.002441 
2.9447648e+3, 2.7945206e+2, -182308.47, -212739.94, -11617.862, -0.20901933, 0.020221971, -178380.19, 23004.191, 0.0, 10.000702, 10.000539 
2.9443917e+3, 2.894473e+2, -232787.63, -387287.5, 161281.94, 0.12594277, 0.322557, -131209.67, -27772.268, 0.0, 10.0006895, 9.998628 
2.94401e+3, 2.9943898e+2, 9151.934, -180722.61, 140273.34, -0.31219834, 0.35094517, 83594.99, 89123.55, 0.0, 10.001243, 9.999144 
2.9600722e+3, 1.3992365e+2, -1724516.8, -1674792.6, -170895.7, -0.23160155, 0.19498082, -1526960.0, 41791.516, 0.0, 9.999554, 10.000447 
2.9596996e+3, 1.4991024e+2, -1414567.3, -1533336.6, 35629.758, 0.4379661, -0.4315953, -1404698.6, 66189.18, 0.0, 10.001479, 9.999782 
2.9593137e+3, 1.5990795e+2, -1277598.9, -1520866.9, -56490.24, -0.3271269, 0.05072218, -1265121.0, 107794.37, 0.0, 10.002057, 9.998985 
2.9589364e+3, 1.6990292e+2, -1225544.9, -1338683.3, -110976.36, -0.06914002, 0.2815387, -1157551.6, 117420.234, 0.0, 10.001386, 9.999778 
2.958559e+3, 1.7989735e+2, -1273212.0, -1255428.4, -28943.709, 0.18811667, 0.39630297, -1234041.4, -57008.902, 0.0, 10.000065, 10.000379 
2.958179e+3, 1.8989134e+2, -1091387.6, -897923.44, 31223.18, 0.012725333, 0.31055796, -893009.2, 186081.25, 0.0, 9.999899, 10.002119 
2.9578e+3, 1.9988512e+2, -1222087.8, -1119764.5, 42313.04, -0.06693731, 0.20309524, -1104534.1, -123384.08, 0.0, 9.999069, 10.000437 
2.9574206e+3, 2.0988053e+2, -986034.8, -865070.1, -33261.508, -0.04435971, 0.35802555, -856527.5, 26670.588, 0.0, 9.99982, 10.001029 
2.9570407e+3, 2.1987543e+2, -1060733.6, -1122043.3, -16353.607, -0.024183556, 0.4723892, -1056644.3, -271392.84, 0.0, 9.9996395, 9.998797 
2.956663e+3, 2.2986686e+2, -759705.8, -943138.44, 61134.426, -0.015923522, 0.45908386, -741198.25, -53859.36, 0.0, 10.001269, 9.998445 
2.9562852e+3, 2.398582e+2, -564974.3, -827435.06, -68285.83, 0.0012945642, 0.40348706, -548271.0, 41155.047, 0.0, 10.001884, 9.998399 
2.9559004e+3, 2.4985075e+2, -350842.88, -491434.63, -165423.75, -0.2514897, 0.40182084, -241398.58, 250095.86, 0.0, 10.002065, 9.999824 
2.955516e+3, 2.5984326e+2, -448554.66, -508034.47, -112114.26, -0.41839793, 0.33213565, -362302.88, 31259.482, 0.0, 10.000668, 9.999823 
2.9551393e+3, 2.698357e+2, -222676.33, -112107.15, -67382.82, -0.07350973, 0.13749275, -80231.94, 215399.13, 0.0, 10.000642, 10.001763 
2.9547626e+3, 2.7982917e+2, -332843.4, -219794.17, -34591.637, 0.19299681, -0.031465128, -210049.53, -12358.404, 0.0, 9.99956, 10.000988 
2.9543847e+3, 2.8982732e+2, -116736.87, 31375.91, 151823.56, 0.07175022, 0.2953441, 126241.81, 225951.13, 0.0, 10.000112, 10.001686 
2.9540023e+3, 2.9981712e+2, -134923.8, -80430.266, 228018.66, -0.47806385, -0.16660267, 121963.76, 123775.516, 0.0, 9.99975, 10.000497 
2.9700685e+3, 1.4029829e+2, -1489235.4, -1368053.8, 20957.74, -0.0007652069, -0.2826562, -1364531.6, 200553.66, 0.0, 10.000382, 10.002137 
2.9696915e+3, 1.5029258e+2, -1294615.1, -1621515.6, 68858.586, 0.03126191, -0.08769143, -1280702.9, 186439.73, 0.0, 10.002932, 9.998468 
2.9693106e+3, 1.6028751e+2, -1197689.5, -1526890.5, -61014.73, -0.26103547, 0.23553452, -1186744.8, 182452.55, 0.0, 10.002795, 9.998589 
2.9689294e+3, 1.7028004e+2, -1158297.8, -1254256.4, -125258.67, -0.23031315, 0.19225998, -1072143.8, 199130.08, 0.0, 10.001613, 10.000261 
2.9685482e+3, 1.8027265e+2, -1228312.0, -1184190.1, -28889.602, -0.26195595, 0.0965863, -1169901.5, 3447.7813, 0.0, 10.000116, 10.000858 
2.9681706e+3, 1.902681e+2, -1039649.3, -844019.25, -9890.802, -0.14689936, 0.121158406, -843520.44, 231874.45, 0.0, 10.000032, 10.002477 
2.9677936e+3, 2.002633e+2, -1127599.3, -1071017.3, -26272.16, -0.024124399, 0.13547763, -1060699.9, -83257.44, 0.0, 9.99959, 10.000559 
2.9674152e+3, 2.1025775e+2, -897471.94, -913094.6, -67090.805, 0.03490779, 0.24903782, -837739.25, 41760.047, 0.0, 10.00081, 10.000227 
2.9670358e+3, 2.202521e+2, -702666.25, -917079.56, -48427.383, 0.02096953, 0.36776727, -692235.9, 89322.16, 0.0, 10.00184, 9.999181 
2.9666582e+3, 2.3024431e+2, -664104.3, -838231.44, 53055.484, 0.023406366, 0.37218434, -649212.25, 34426.69, 0.0, 10.001502, 9.999142 
2.96628e+3, 2.4023631e+2, -595052.7, -712376.94, -33195.22, -0.02660248, 0.32594797, -586311.8, -591.30054, 0.0, 10.000963, 9.999679 
2.9658955e+3, 2.5022936e+2, -349976.8, -398800.28, -84576.414, -0.20930582, 0.27996168, -286359.56, 201424.03, 0.0, 10.001514, 10.000798 
2.9655114e+3, 2.6022238e+2, -192389.08, -355649.34, 3429.6292, -0.34793115, 0.21908107, -192317.06, 197529.45, 0.0, 10.002105, 10.000227 
2.9651344e+3, 2.7021483e+2, 4869.639, -152211.05, 35130.625, -0.02400899, 0.119754866, 12368.509, 304287.06, 0.0, 10.002669, 10.000612 
2.964757e+3, 2.8020823e+2, 168057.47, 54506.668, -12097.845, 0.20172764, 0.067411244, 169332.1, 363313.6, 0.0, 10.002633, 10.001474 
2.9643768e+3, 2.9020867e+2, -20175.512, 199427.55, -11127.14, -0.06946561, 0.5268796, 199989.9, 295964.34, 0.0, 10.000092, 10.002946 
2.9639965e+3, 3.0019793e+2, -158897.38, 40647.563, 37719.29, -0.37032896, -0.079141706, 47539.477, 47539.477, 0.0, 9.9988165, 10.00185 
2.9800636e+3, 1.406782e+2, -1199970.1, -1123668.1, 141107.95, 0.034100473, -0.20276459, -1015644.75, 545723.4, 0.0, 10.001848, 10.003134 
2.9796836e+3, 1.5067579e+2, -1451046.8, -1789654.5, 27393.656, -0.33666173, 0.3736515, -1448844.9, 14545.67, 0.0, 10.002227, 9.997677 
2.9793084e+3, 1.6066764e+2, -1484553.6, -1674252.4, -77316.24, -0.026338855, 0.43303242, -1457033.9, -91559.27, 0.0, 10.000854, 9.99855 
2.9789227e+3, 1.7065789e+2, -1239091.0, -1224033.8, -147423.97, -0.32687053, 0.12280005, -1083946.3, 183622.48, 0.0, 10.000819, 10.000856 
2.978538e+3, 1.8064861e+2, -1245068.3, -1228992.5, -13930.382, -0.6276403, -0.19111304, -1220947.4, -51288.44, 0.0, 10.000179, 10.000548 
2.9781628e+3, 1.9064535e+2, -1048579.6, -894318.1, -27756.879, -0.23653714, 0.01160759, -889475.75, 182219.89, 0.0, 10.00019, 10.002072 
2.9777884e+3, 2.0064223e+2, -1163997.4, -1142995.3, -41442.957, 0.20986217, 0.21273981, -1110743.6, -137013.14, 0.0, 9.999621, 10.0000515 
2.9774103e+3, 2.106342e+2, -895215.8, -1018682.5, -22688.1, 0.18994024, 0.13933274, -891178.7, -15369.853, 0.0, 10.001217, 9.999343 
2.9770315e+3, 2.2062694e+2, -800685.7, -954378.7, -16541.666, 0.17417805, 0.14103033, -798925.5, -21045.152, 0.0, 10.001198, 9.999241 
2.976653e+3, 2.3062119e+2, -747968.3, -715079.06, 35008.93, 0.06693501, 0.23219419, -692844.9, -12903.561, 0.0, 10.000372, 10.00048 
2.9762733e+3, 2.406145e+2, -842866.25, -736635.7, -28760.813, -0.030566905, 0.20439486, -729348.8, -147338.88, 0.0, 9.998983, 10.000451 
2.9758912e+3, 2.5060785e+2, -412413.6, -247189.23, -67664.555, -0.06754392, 0.0463676, -223015.34, 261054.25, 0.0, 10.000481, 10.002282 
2.9755092e+3, 2.6060134e+2, -463487.63, -586080.06, 23839.486, -0.050543606, -0.047877144, -459014.94, -72886.38, 0.0, 10.000822, 9.999248 
2.9751298e+3, 2.705947e+2, -196256.08, -410841.88, 44310.152, -0.07827964, 0.07607651, -187466.44, 100731.766, 0.0, 10.00214, 9.9990425 
2.974749e+3, 2.8058922e+2, -192114.34, -352999.53, -68998.5, -0.1848302, 0.286425, -166576.73, 23679.307, 0.0, 10.00136, 9.999261 
2.9743674e+3, 2.905902e+2, -319668.78, -133647.48, -150589.28, -0.2603697, 0.97500527, -49660.65, 42585.188, 0.0, 9.999036, 10.001109 
2.973992e+3, 3.0058166e+2, -346493.25, 65573.63, 186737.42, -0.039940342, 0.6744471, 137606.1, 137606.1, 0.0, 9.997356, 10.002645 
2.9900604e+3, 1.4106728e+2, -1365639.5, -1383260.3, 229532.75, 0.06097338, 1.1069766, -1144748.1, 412811.7, 0.0, 10.001595, 10.00149 
2.989677e+3, 1.510507e+2, -1602199.5, -1618966.8, -140600.8, -0.47424915, 0.13063735, -1469732.6, -10012.215, 0.0, 10.000219, 9.999821 
2.9893e+3, 1.6104124e+2, -1922830.9, -1745039.1, -66833.98, -0.11591742, -0.12167661, -1722717.8, -360903.53, 0.0, 9.997246, 9.99981 
2.9889223e+3, 1.7103697e+2, -1471486.1, -1259890.4, -69701.89, 0.34942773, 0.039817832, -1238993.6, 24860.12, 0.0, 9.998885, 10.001556 
2.9885426e+3, 1.810327e+2, -1282673.1, -1328522.4, 38006.008, 0.4130221, 0.21539617, -1261213.1, -95318.914, 0.0, 10.000279, 9.999806 
2.9881582e+3, 1.9102755e+2, -1115031.9, -1181917.3, -42148.383, -0.120595574, 0.433856, -1094670.3, -26719.879, 0.0, 10.000869, 9.99976 
2.9877767e+3, 2.01022e+2, -1026835.9, -1061903.1, -84562.42, -0.40770948, 0.575421, -958008.5, 12001.128, 0.0, 10.000464, 10.000197 
2.9874027e+3, 2.1101363e+2, -496542.25, -611915.2, 56400.3, -0.16405144, 0.31542298, -473552.1, 398537.94, 0.0, 10.002975, 10.001323 
2.9870257e+3, 2.210052e+2, -283430.34, -552292.6, 609.24194, -0.083618544, 0.06082076, -283428.94, 490742.8, 0.0, 10.003973, 10.00069 
2.986642e+3, 2.3100132e+2, -909387.56, -720621.06, -46320.266, -0.2904758, 0.27359167, -709867.44, -33652.188, 0.0, 9.998841, 10.001236 
2.9862604e+3, 2.409984e+2, -1303655.3, -844225.0, 19090.639, -0.40770575, 0.54824007, -843433.1, -265185.56, 0.0, 9.995211, 10.00156 
2.9858822e+3, 2.509938e+2, -641195.4, -378305.53, 7211.77, -0.23341933, 0.5908415, -378107.84, 102179.43, 0.0, 9.998918, 10.002197 
2.985503e+3, 2.6098752e+2, -269573.1, -438231.88, -14535.944, -0.14497659, 0.53833705, -268329.47, 114014.63, 0.0, 10.001765, 9.999879 
2.9851234e+3, 2.7097866e+2, -313939.8, -429299.34, 74914.164, -0.14905344, 0.42277876, -277072.84, 7361.707, 0.0, 10.001111, 9.999489 
2.9847428e+3, 2.809701e+2, -230460.55, -364534.38, 55853.973, -0.24089521, 0.33076566, -210241.44, -23718.318, 0.0, 10.000899, 9.999502 
2.984361e+3, 2.9095843e+2, 37069.465, -84211.24, 16686.533, -0.2026309, -0.1436991, 39323.41, 127961.77, 0.0, 10.001842, 10.000281 
2.983985e+3, 3.009554e+2, -139514.06, 275234.75, 458493.6, 0.083549455, 0.20611078, 571070.56, 571070.56, 0.0, 9.997954, 10.004034 
3.0000564e+3, 1.4142989e+2, -1718027.3, -1563762.6, 138360.58, 0.09712212, -0.20370768, -1482487.1, 71520.34, 0.0, 9.998935, 10.001627 
2.9996705e+3, 1.5142989e+2, -1189501.8, -1032833.56, -34405.17, -0.39204627, 0.15811041, -1025610.94, 430394.75, 0.0, 10.001328, 10.003286 
2.999293e+3, 1.6142797e+2, -1289319.8, -1411455.1, 150480.94, 0.05020651, 0.43842012, -1187987.4, 170036.1, 0.0, 10.0013075, 10.000128 
2.9989067e+3, 1.7141983e+2, -1056355.4, -1163974.5, -32153.059, -0.45024106, 0.26113102, -1047480.94, 212620.45, 0.0, 10.002083, 10.000591 
2.9985297e+3, 1.8141271e+2, -1008012.94, -1373459.9, -31291.15, -0.28308192, 0.20655055, -1005353.0, 156816.9, 0.0, 10.002777, 9.998303 
2.9981533e+3, 1.9140284e+2, -1111352.0, -1370813.5, 170341.45, 0.011733517, 0.051178448, -1026965.25, 37305.047, 0.0, 10.001602, 9.99806 
2.997772e+3, 2.0139283e+2, -1094517.5, -1191185.6, 409919.22, -0.2875084, -0.05391171, -730092.6, 236279.55, 0.0, 10.0003, 9.99938 
2.997398e+3, 2.1139249e+2, -1167524.8, -661792.2, 380998.03, -0.16393639, 0.3314519, -457383.0, 410991.78, 0.0, 9.997216, 10.003639 
2.9970238e+3, 2.2138809e+2, -1303770.9, -1015342.2, -15460.92, 0.06800606, 0.32799855, -1014515.75, -244097.45, 0.0, 9.996825, 10.000905 
2.996641e+3, 2.3138231e+2, -799450.56, -632814.56, -88467.88, 0.48623902, 0.2944892, -594607.0, 77875.3, 0.0, 9.999488, 10.001383 
2.9962525e+3, 2.413784e+2, -900799.75, -803959.0, 104479.58, -0.02693603, 0.4639953, -737225.06, -162699.39, 0.0, 9.99868, 10.000081 
2.9958698e+3, 2.5136667e+2, -60656.42, -257269.89, -56790.64, -0.65897334, -0.107433, -45431.703, 431205.1, 0.0, 10.0037155, 10.00053 
2.995499e+3, 2.6136407e+2, 374678.34, -135787.5, -174542.06, -0.07736284, 0.24621083, 428652.13, 807309.4, 0.0, 10.006317, 9.99966 
2.995124e+3, 2.7135956e+2, -261408.67, -186883.3, 72905.664, 0.4879772, 0.36963367, -142269.6, 138427.75, 0.0, 10.000709, 10.001144 
2.9947364e+3, 2.813534e+2, -743915.7, -620552.75, 110682.4, -0.2821714, 0.38298222, -555525.1, -372769.97, 0.0, 9.997508, 9.999279 
2.9943556e+3, 2.913384e+2, -64724.1, -169060.55, 110971.54, -0.22197081, -0.4303549, 5729.882, 90634.055, 0.0, 10.001526, 9.999642 
2.9939735e+3, 3.0133995e+2, -143201.31, 390522.47, -412544.13, -0.09329962, 0.3366123, 614993.4, 614993.4, 0.0, 9.997709, 10.004746 
