coord_x,coord_y,stress_xx,stress_yy,tau_xy,velocity_x,velocity_y,stress_1,eps,damage,lx,ly
5.002321e+0, 1.2372521e+2, -1228556.9, -1809948.0, 891.3813, -0.0059726206, 0.36328316, -1228555.5, 498969.5, 0.000054953784, 10.00476, 9.997054 
5.002063e+0, 1.3372271e+2, -1142412.5, -1628878.9, 3605.698, -0.008520424, 0.33232287, -1142385.8, 487163.2, 0.00001917453, 10.004295, 9.997848 
5.001841e+0, 1.4372015e+2, -1117929.8, -1576578.5, 6973.8633, -0.007649881, 0.2977078, -1117823.8, 413750.9, 0.0000027034666, 10.003835, 9.997754 
5.00165e+0, 1.5371843e+2, -1085851.8, -1511670.5, 9364.686, -0.004412224, 0.34771225, -1085645.9, 347948.9, 0.000000021272871, 10.003387, 9.997742 
5.001421e+0, 1.6371699e+2, -994554.44, -1314411.8, 9949.365, -0.0029452601, 0.39037535, -994245.25, 341366.47, 0.0, 10.0029, 9.998659 
5.0011307e+0, 1.7371608e+2, -966042.3, -1233062.5, 11946.186, -0.0044658445, 0.41780204, -965508.94, 272113.56, 0.0, 10.002351, 9.998809 
5.000848e+0, 1.837153e+2, -888563.25, -1051744.0, 13034.42, -0.0056020436, 0.42577618, -887528.7, 252102.06, 0.0, 10.001808, 9.999642 
5.00058e+0, 1.9371484e+2, -857933.6, -970948.3, 11353.613, -0.005984748, 0.39978486, -856804.3, 184829.88, 0.0, 10.00128, 9.999779 
5.00034e+0, 2.0371465e+2, -805722.06, -844821.75, 10462.828, -0.0034942473, 0.3862672, -803098.3, 140536.52, 0.0, 10.000749, 10.000228 
5.0001425e+0, 2.1371503e+2, -780010.0, -772569.0, 11216.158, 0.0035581738, 0.38937184, -764472.4, 81158.016, 0.0, 10.000214, 10.000309 
4.999916e+0, 2.2371529e+2, -740087.9, -679230.1, 11786.656, 0.005897395, 0.3767521, -677027.1, 70598.97, 0.0, 9.999714, 10.000518 
4.999644e+0, 2.3371547e+2, -702883.7, -605333.2, 8030.7695, 0.0006488025, 0.33714953, -604676.5, 44944.563, 0.0, 9.999274, 10.000564 
4.9994022e+0, 2.4371554e+2, -697759.9, -598004.3, 6234.669, -0.0015090385, 0.30821094, -597616.1, -45998.19, 0.0, 9.998835, 10.000154 
4.9992108e+0, 2.537155e+2, -666940.0, -537120.56, 8111.318, 0.0013676247, 0.29029688, -536615.7, -82998.36, 0.0, 9.998394, 10.000111 
4.9990004e+0, 2.6371542e+2, -645772.3, -499744.6, 10951.21, 0.001663028, 0.281864, -498927.9, -143309.8, 0.0, 9.997968, 9.9999 
4.9987626e+0, 2.7371547e+2, -606957.0, -431587.03, 13618.942, -0.0021351904, 0.29342237, -430535.72, -172916.47, 0.0, 9.997567, 9.999887 
4.998559e+0, 2.8371575e+2, -569882.6, -367735.4, 15286.6, -0.0026107398, 0.3405931, -366585.97, -206967.38, 0.0000000005106852, 9.9971695, 9.999845 
4.9984074e+0, 2.9371643e+2, -531421.06, -301453.66, 15304.081, 0.0020104381, 0.41954267, -300439.66, -238823.23, 0.000003227908, 9.996774, 9.999817 
4.998227e+0, 3.03716e+2, -487147.72, -174970.16, 15126.189, 0.0027775958, 0.36666355, -174238.94, -174238.94, 0.000038102575, 9.996398, 10.000532 
4.9980345e+0, 3.137173e+2, -432166.2, 20621.357, 12995.739, 0.0010560659, 0.42948282, 20994.049, 20994.049, 0.00014042419, 9.996047, 10.002045 
1.5006961e+1, 1.2372517e+2, -1222485.9, -1797166.8, -15031.533, -0.018010663, 0.33520097, -1222093.0, 505431.97, 0.000051528925, 10.004759, 9.997142 
1.5006189e+1, 1.33723e+2, -1135889.3, -1615241.8, -13946.303, -0.025562204, 0.32919702, -1135483.9, 494062.06, 0.000017684464, 10.004295, 9.997941 
1.5005523e+1, 1.4372063e+2, -1113337.3, -1566970.6, -10000.063, -0.022949504, 0.30425522, -1113116.9, 418453.0, 0.0000024017534, 10.003835, 9.99782 
1.500495e+1, 1.5371883e+2, -1081588.0, -1502753.6, -7448.9663, -0.013237684, 0.3410195, -1081456.3, 352134.28, 0.000000014045858, 10.003387, 9.997804 
1.5004262e+1, 1.6371739e+2, -990362.8, -1305664.6, -10323.642, -0.00883353, 0.37877494, -990025.2, 345582.16, 0.0, 10.0029, 9.998719 
1.5003392e+1, 1.7371665e+2, -961887.4, -1224394.1, -8776.422, -0.013401657, 0.41597685, -961594.3, 276022.25, 0.0, 10.00235, 9.998869 
1.5002544e+1, 1.8371597e+2, -890880.44, -1056522.4, -6964.503, -0.016806679, 0.43048847, -890588.1, 249035.97, 0.0, 10.001808, 9.99961 
1.5001741e+1, 1.9371547e+2, -861202.75, -977728.9, -8509.132, -0.017957954, 0.40519872, -860584.7, 181043.64, 0.0, 10.00128, 9.999733 
1.5001018e+1, 2.0371525e+2, -804773.06, -842835.4, -9667.236, -0.010485636, 0.39024574, -802458.5, 141170.9, 0.0, 10.000749, 10.000242 
1.5000427e+1, 2.137156e+2, -778512.4, -769418.44, -8953.581, 0.010673795, 0.3895106, -763923.44, 81701.16, 0.0, 10.000214, 10.000331 
1.4999749e+1, 2.2371581e+2, -746386.0, -692252.9, -5225.4, 0.01768601, 0.3756643, -691753.06, 55867.477, 0.0, 9.999714, 10.000428 
1.499893e+1, 2.3371592e+2, -710367.9, -620839.75, -8496.9375, 0.0019350073, 0.33904353, -620040.44, 29576.42, 0.0, 9.999274, 10.000458 
1.4998206e+1, 2.4371599e+2, -695569.44, -593432.5, -10382.383, -0.0045290613, 0.31415638, -592387.75, -40773.625, 0.0, 9.998835, 10.000185 
1.4997631e+1, 2.5371605e+2, -663345.56, -529639.75, -8495.991, 0.0040958766, 0.30221438, -529102.06, -75489.695, 0.0, 9.998394, 10.000162 
1.4997001e+1, 2.6371604e+2, -641106.44, -490031.38, -4370.285, 0.0049875984, 0.2931676, -489905.06, -134292.73, 0.0, 9.997968, 9.999967 
1.4996287e+1, 2.73716e+2, -602172.75, -421637.8, -1445.6127, -0.006408898, 0.29398134, -421626.25, -164012.81, 0.0, 9.997567, 9.999956 
1.4995676e+1, 2.8371632e+2, -569313.56, -366518.9, 353.4421, -0.007836474, 0.33264074, -366518.3, -206905.47, 0.00000000036389677, 9.9971695, 9.999853 
1.4995222e+1, 2.937169e+2, -531509.2, -301616.72, 468.38916, 0.0060317996, 0.40722936, -301615.78, -240004.88, 0.0000031171262, 9.996774, 9.999816 
1.4994681e+1, 3.037164e+2, -490760.5, -182442.45, 1741.9985, 0.008331937, 0.35001856, -182432.61, -182432.61, 0.0000374169, 9.996398, 10.000481 
1.4994103e+1, 3.1371766e+2, -436475.4, 11775.366, -46.857212, 0.0031297323, 0.40946662, 11775.371, 11775.371, 0.00013856335, 9.996047, 10.001984 
2.5011468e+1, 1.23725705e+2, -1236971.9, -1798188.6, 12900.915, -0.037033767, 0.3087293, -1236675.5, 490843.44, 0.00004657793, 10.004634, 9.997195 
2.5010338e+1, 1.3372381e+2, -1139120.6, -1610795.4, 9465.568, -0.037875716, 0.3241474, -1138930.8, 490606.9, 0.000015521124, 10.004248, 9.997994 
2.500927e+1, 1.4372161e+2, -1114616.8, -1560516.8, 9258.942, -0.030148806, 0.3103785, -1114424.5, 417135.78, 0.0000019703816, 10.003796, 9.997884 
2.5008172e+1, 1.5371981e+2, -1097490.3, -1503241.1, 11731.106, -0.022818046, 0.34277177, -1097151.4, 336429.4, 0.000000006345991, 10.003247, 9.997868 
2.5006962e+1, 1.637184e+2, -1014569.3, -1311296.6, 7534.745, -0.019234834, 0.3766675, -1014378.1, 321219.1, 0.0, 10.0027075, 9.998773 
2.5005576e+1, 1.7371768e+2, -981936.0, -1228219.4, 8401.699, -0.021960031, 0.4113195, -981649.7, 255956.31, 0.0, 10.002188, 9.998921 
2.5004235e+1, 1.8371704e+2, -909948.56, -1066464.0, 11721.213, -0.021926032, 0.4269338, -909075.6, 230537.58, 0.0, 10.00168, 9.999603 
2.5002986e+1, 1.937166e+2, -874728.6, -985953.5, 12669.5625, -0.017159896, 0.40851468, -873303.7, 168313.47, 0.0, 10.001194, 9.999718 
2.50018e+1, 2.0371637e+2, -806611.8, -845468.2, 13302.78, -0.0071287416, 0.39340293, -802493.9, 141124.5, 0.0, 10.000744, 10.000226 
2.5000712e+1, 2.1371658e+2, -759585.5, -762122.3, 11382.752, 0.011074527, 0.38156804, -749400.7, 96213.75, 0.0, 10.000351, 10.000315 
2.4999543e+1, 2.2371672e+2, -726773.9, -692648.4, 12180.262, 0.016809506, 0.3652483, -688746.94, 58864.16, 0.0, 9.999891, 10.00034 
2.4998236e+1, 2.3371686e+2, -710607.25, -632045.7, 9207.252, 0.0026291627, 0.34021956, -630981.06, 18626.791, 0.0, 9.99932, 10.000359 
2.4997051e+1, 2.4371696e+2, -701024.8, -594730.6, 8808.41, -0.0013614892, 0.3223224, -594005.6, -42400.383, 0.0, 9.998792, 10.000197 
2.4996065e+1, 2.5371704e+2, -670281.3, -529820.5, 9241.519, 0.011056149, 0.30996716, -529215.06, -75612.02, 0.0, 9.998332, 10.000191 
2.4995013e+1, 2.6371697e+2, -648632.56, -491605.13, 12864.048, 0.012299972, 0.29762793, -490558.25, -134955.28, 0.0, 9.997908, 9.999985 
2.4993862e+1, 2.7371693e+2, -605605.8, -421436.63, 12264.1875, -0.004078607, 0.2908473, -420623.53, -163019.02, 0.0, 9.997536, 9.999972 
2.4992847e+1, 2.837172e+2, -568094.56, -362443.78, 12583.458, -0.0073561044, 0.32616773, -361676.66, -202072.81, 0.00000000025082827, 9.997163, 9.999884 
2.4992031e+1, 2.9371786e+2, -527440.6, -295934.72, 15295.706, 0.009077809, 0.404406, -294928.5, -233327.47, 0.000002969252, 9.996786, 9.999849 
2.4991077e+1, 3.0371737e+2, -490835.28, -183947.77, 19724.336, 0.00783537, 0.34544918, -182685.23, -182685.23, 0.00003639656, 9.996404, 10.000467 
2.4990067e+1, 3.137185e+2, -443476.5, 5825.4316, 20968.215, -0.0033590833, 0.39626846, 6801.8633, 6801.8633, 0.0001357669, 9.99601, 10.001961 
3.5015842e+1, 1.2372682e+2, -1235901.3, -1795678.9, -377.21518, -0.063145265, 0.28393236, -1235901.0, 491605.88, 0.00004009092, 10.004633, 9.997213 
3.5014507e+1, 1.337251e+2, -1138291.1, -1608932.5, -5162.746, -0.045525946, 0.31723154, -1138234.5, 491289.94, 0.000012699634, 10.004247, 9.998008 
3.5013068e+1, 1.4372307e+2, -1110415.3, -1551707.3, -10701.31, -0.029356813, 0.31615937, -1110155.9, 421390.03, 0.0000014374051, 10.003795, 9.997944 
3.5011315e+1, 1.537214e+2, -1092784.4, -1493420.0, -8930.632, -0.03323511, 0.352982, -1092585.4, 340979.9, 0.0000000013691683, 10.003247, 9.997935 
3.500952e+1, 1.6372001e+2, -1011213.25, -1304330.6, -12209.752, -0.034209076, 0.384042, -1010705.5, 324875.88, 0.0, 10.0027075, 9.998821 
3.5007682e+1, 1.737192e+2, -978767.25, -1221663.8, -11160.703, -0.030175317, 0.40385297, -978255.5, 259335.4, 0.0, 10.002188, 9.998966 
3.5005927e+1, 1.8371853e+2, -908575.0, -1063603.6, -6740.8276, -0.021014458, 0.41514504, -908282.44, 231315.64, 0.0, 10.00168, 9.999623 
3.5004315e+1, 1.9371822e+2, -873595.1, -983597.2, -5607.253, -0.003632423, 0.40973786, -873310.0, 168290.7, 0.0, 10.001194, 9.999734 
3.500268e+1, 2.03718e+2, -809774.44, -852038.0, -1920.1537, 0.0065122433, 0.39574024, -809687.44, 133914.5, 0.0, 10.000744, 10.000181 
3.5001e+1, 2.1371798e+2, -763400.56, -770038.8, -3377.13, 0.004696112, 0.36554047, -761984.56, 83615.49, 0.0, 10.000351, 10.00026 
3.49993e+1, 2.2371802e+2, -732887.25, -705294.6, -8510.548, 0.0032022127, 0.3455071, -702880.8, 44716.984, 0.0, 9.999891, 10.000254 
3.499756e+1, 2.3371826e+2, -717075.1, -645433.1, -12371.702, 0.002699441, 0.3406656, -643356.9, 6237.151, 0.0, 9.99932, 10.000267 
3.4995937e+1, 2.437184e+2, -701607.94, -595894.0, -9058.003, 0.00795121, 0.33273366, -595123.5, -43532.28, 0.0, 9.998791, 10.000189 
3.499451e+1, 2.5371844e+2, -669959.94, -529103.25, -8032.6484, 0.022227705, 0.31355295, -528646.7, -75057.195, 0.0, 9.998332, 10.0001955 
3.4993035e+1, 2.6371834e+2, -650759.0, -496002.28, -1592.0771, 0.023551783, 0.29523718, -495985.9, -140395.89, 0.0, 9.997908, 9.999955 
3.4991485e+1, 2.7371818e+2, -608076.56, -426558.28, -1721.3646, 0.004809406, 0.284005, -426541.94, -168949.44, 0.0, 9.997536, 9.999937 
3.499007e+1, 2.8371844e+2, -564284.3, -354548.2, -1654.5757, -0.001239639, 0.32116097, -354535.13, -194943.45, 0.00000000021451357, 9.997163, 9.999938 
3.4988838e+1, 2.9371932e+2, -522662.13, -286043.25, 1094.76, 0.011087664, 0.41106707, -286038.2, -224451.34, 0.0000027944461, 9.996786, 9.999917 
3.4987414e+1, 3.0371886e+2, -489099.94, -180317.8, 4948.511, 0.0012434581, 0.35301286, -180238.52, -180238.52, 0.000035014476, 9.996404, 10.000493 
3.4985924e+1, 3.1371987e+2, -442469.97, 7945.904, 6199.186, -0.018666117, 0.38987616, 8031.2085, 8031.2085, 0.00013190451, 9.99601, 10.001976 
4.5020345e+1, 1.23728715e+2, -1239720.6, -1793345.8, 23438.537, -0.07382245, 0.2847463, -1238730.1, 488757.72, 0.00003254018, 10.004589, 9.997251 
4.5018587e+1, 1.3372701e+2, -1163890.4, -1617578.1, 18425.832, -0.053012695, 0.3149316, -1163143.3, 466362.5, 0.000009492417, 10.004055, 9.998041 
4.50167e+1, 1.4372502e+2, -1138731.0, -1555305.9, 13780.056, -0.033976465, 0.31373787, -1138275.6, 393251.03, 0.00000089505704, 10.003557, 9.9980345 
4.501444e+1, 1.5372348e+2, -1103253.8, -1487458.1, 17766.816, -0.039178435, 0.35296434, -1102433.9, 331110.56, 0.00000000008098328, 10.003128, 9.9980345 
4.501217e+1, 1.6372211e+2, -1017872.7, -1311441.4, 12740.834, -0.038537256, 0.38204214, -1017320.8, 318239.34, 0.0, 10.002679, 9.998786 
4.5009896e+1, 1.7372115e+2, -980732.0, -1228691.3, 6326.2114, -0.028203528, 0.39258674, -980570.7, 257000.63, 0.0, 10.0022, 9.998912 
4.500766e+1, 1.8372045e+2, -901865.6, -1058069.3, 6933.8726, -0.017524553, 0.40254378, -901558.44, 238020.48, 0.0, 10.001717, 9.999644 
4.5005497e+1, 1.9372031e+2, -866759.2, -976772.25, 9201.793, -0.0064844675, 0.40894684, -865994.8, 175585.23, 0.0, 10.001225, 9.999765 
4.5003358e+1, 2.0372011e+2, -815563.06, -861916.44, 14464.24, 0.00044672497, 0.4001302, -811419.94, 132160.94, 0.0, 10.000734, 10.000118 
4.5001256e+1, 2.1371995e+2, -784755.06, -788944.8, 11489.29, 0.0006902217, 0.36409235, -775171.25, 70409.25, 0.0, 10.000241, 10.000183 
4.499912e+1, 2.237199e+2, -751422.06, -718242.94, 5509.4165, 0.0016281621, 0.34008113, -717352.0, 30227.275, 0.0, 9.999781, 10.000218 
4.4996917e+1, 2.337201e+2, -711335.3, -645979.94, 6035.5522, 0.0040221843, 0.3345245, -645427.2, 4148.5527, 0.0, 9.999374, 10.000237 
4.4994828e+1, 2.4372022e+2, -682276.75, -591037.8, 11757.332, 0.01028273, 0.32797232, -589547.06, -37973.85, 0.0, 9.998943, 10.000149 
4.4992912e+1, 2.5372025e+2, -652482.44, -525309.56, 9453.537, 0.022400785, 0.31341696, -524610.7, -71039.06, 0.0, 9.998472, 10.0001545 
4.4990993e+1, 2.6372012e+2, -640400.0, -496700.13, 14752.89, 0.024242723, 0.29736516, -495201.16, -139628.53, 0.0, 9.998003, 9.999904 
4.498908e+1, 2.7371988e+2, -611614.6, -434051.72, 13540.021, 0.010529378, 0.28438932, -433025.16, -175449.11, 0.0, 9.997537, 9.999886 
4.4987294e+1, 2.837202e+2, -565907.06, -349280.22, 15187.235, 0.0065063015, 0.3222797, -348220.66, -188645.44, 0.00000000034042036, 9.997126, 9.999992 
4.4985676e+1, 2.9372117e+2, -515268.25, -274605.94, 18454.402, 0.015459046, 0.41670007, -273199.03, -211630.14, 0.0000026033522, 9.996802, 9.999988 
4.498382e+1, 3.037208e+2, -488233.06, -181498.89, 18038.088, 0.00043785377, 0.3614196, -180441.78, -180441.78, 0.00003329706, 9.996417, 10.000479 
4.498187e+1, 3.137218e+2, -457166.44, -2797.426, 15358.035, -0.02090404, 0.40132403, -2278.904, -2278.904, 0.00012697614, 9.995925, 10.001943 
5.5024976e+1, 1.2373139e+2, -1236092.4, -1785494.1, 5041.7744, -0.06989884, 0.31123194, -1236046.1, 491415.84, 0.000024779769, 10.004587, 9.997305 
5.502256e+1, 1.337295e+2, -1160346.3, -1610036.3, -1855.3663, -0.060519163, 0.3172701, -1160338.6, 469142.97, 0.0000063725665, 10.004054, 9.998094 
5.502016e+1, 1.4372747e+2, -1130436.0, -1538023.8, -2922.2893, -0.044051334, 0.30317253, -1130415.0, 401087.56, 0.00000045379167, 10.003556, 9.998153 
5.5017555e+1, 1.5372604e+2, -1094201.8, -1468689.5, 1611.0052, -0.040777672, 0.34282354, -1094194.8, 339323.44, 0.0, 10.003128, 9.998163 
5.5014914e+1, 1.637247e+2, -1026089.4, -1328515.5, -5101.705, -0.03239161, 0.37074772, -1026003.4, 309530.1, 0.0, 10.002679, 9.998669 
5.5012214e+1, 1.7372355e+2, -991514.94, -1251071.3, -11716.134, -0.016225439, 0.37755907, -990987.1, 246560.05, 0.0, 10.0022, 9.998758 
5.5009437e+1, 1.837228e+2, -900350.44, -1054953.1, -11491.7295, -0.011648834, 0.38916832, -899500.94, 240054.83, 0.0, 10.001717, 9.999665 
5.500653e+1, 1.9372278e+2, -863461.75, -969973.6, -9262.901, -0.025791438, 0.40618497, -862662.25, 178892.95, 0.0, 10.001225, 9.999812 
5.5003834e+1, 2.0372269e+2, -821291.1, -873811.6, -4085.947, -0.02536005, 0.40658608, -820975.1, 122580.125, 0.0, 10.000734, 10.000036 
5.500148e+1, 2.1372248e+2, -791804.94, -803549.6, -7082.763, -0.0010387887, 0.37721488, -788476.75, 57079.063, 0.0, 10.000241, 10.000083 
5.4999e+1, 2.2372234e+2, -750415.3, -716098.7, -10267.883, 0.011962307, 0.34894267, -713261.06, 34294.516, 0.0, 9.999781, 10.000233 
5.499632e+1, 2.3372234e+2, -709084.25, -641287.7, -9283.298, 0.0065417094, 0.32177982, -640039.5, 9513.627, 0.0, 9.999373, 10.00027 
5.499372e+1, 2.4372238e+2, -687334.3, -601551.0, -5727.2656, 0.005498224, 0.30798167, -601170.3, -49619.14, 0.0, 9.998943, 10.000077 
5.4991275e+1, 2.537225e+2, -658648.7, -538140.94, -8347.091, 0.0114295995, 0.30955967, -537565.5, -84016.01, 0.0, 9.998472, 10.000066 
5.4988897e+1, 2.637224e+2, -645394.06, -507106.84, -2907.583, 0.014242473, 0.30401352, -507045.75, -151494.9, 0.0, 9.998003, 9.999832 
5.4986644e+1, 2.737221e+2, -616431.4, -444071.8, -4091.4907, 0.013009722, 0.29202697, -443974.75, -186419.6, 0.0, 9.997537, 9.999817 
5.498451e+1, 2.8372237e+2, -562096.56, -341369.88, 2348.9456, 0.015821328, 0.32951692, -341344.88, -181790.39, 0.0000000006700443, 9.997126, 10.000047 
5.4982543e+1, 2.937234e+2, -510143.72, -263949.84, 6303.667, 0.022172976, 0.42128524, -263788.53, -202241.33, 0.0000023959767, 9.996802, 10.000061 
5.4980284e+1, 3.037231e+2, -491976.47, -189278.61, 292.6987, 0.0053648185, 0.37061298, -189278.33, -189278.33, 0.000031288328, 9.996417, 10.000425 
5.49779e+1, 3.1372422e+2, -462756.2, -14476.372, -3181.699, -0.010422097, 0.43059266, -14453.791, -14453.791, 0.0001210288, 9.995925, 10.001863 
6.5029365e+1, 1.2373425e+2, -1285211.6, -1804498.3, 24012.764, -0.07165397, 0.3122045, -1284103.6, 443330.1, 0.000017708246, 10.00423, 9.997347 
6.5026534e+1, 1.3373241e+2, -1174431.9, -1612914.8, 14421.614, -0.06350628, 0.31812936, -1173958.1, 455495.13, 0.000003786908, 10.003941, 9.998128 
6.502372e+1, 1.437304e+2, -1119550.1, -1521329.6, 11104.753, -0.04435384, 0.3026897, -1119243.5, 412230.2, 0.0000001737419, 10.003582, 9.998256 
6.5020734e+1, 1.5372904e+2, -1086812.1, -1452554.9, 14229.962, -0.035497487, 0.33571544, -1086259.3, 347228.84, 0.0, 10.003124, 9.998275 
6.5017647e+1, 1.6372769e+2, -1034510.8, -1337033.5, 7458.535, -0.025035597, 0.3599702, -1034327.0, 301175.97, 0.0, 10.002641, 9.998629 
6.501441e+1, 1.7372648e+2, -1007645.0, -1265818.3, 7360.125, -0.012672286, 0.3682392, -1007435.3, 230082.06, 0.0, 10.00212, 9.998696 
6.5011096e+1, 1.8372571e+2, -915042.94, -1062924.6, 11219.077, -0.012120471, 0.3795968, -914196.6, 225329.83, 0.0, 10.001619, 9.999658 
6.500767e+1, 1.9372566e+2, -873842.2, -975018.2, 10067.318, -0.030506177, 0.3936368, -872850.2, 168675.89, 0.0, 10.001155, 9.999812 
6.500449e+1, 2.0372558e+2, -831237.4, -884855.1, 14174.238, -0.0310758, 0.39697915, -827720.94, 115805.31, 0.0, 10.000693, 9.99998 
6.50017e+1, 2.1372543e+2, -797009.44, -813185.2, 13866.874, -0.0025418221, 0.38007206, -789044.2, 56482.414, 0.0, 10.0002365, 10.000019 
6.499879e+1, 2.2372524e+2, -753305.25, -722785.1, 11749.305, 0.0124969715, 0.35394096, -718786.0, 28740.879, 0.0, 9.9997835, 10.000186 
6.499566e+1, 2.3372509e+2, -717808.44, -650469.7, 7212.6387, 0.005538055, 0.31234276, -649705.8, -179.71626, 0.0, 9.999335, 10.000225 
6.499263e+1, 2.4372503e+2, -698323.7, -614771.06, 7109.7383, 0.0040939692, 0.2965561, -614170.4, -62645.363, 0.0, 9.998901, 10.000006 
6.498975e+1, 2.5372523e+2, -661054.6, -547696.3, 5325.166, 0.011411669, 0.31628132, -547446.75, -93923.695, 0.0, 9.998492, 9.999991 
6.4986956e+1, 2.6372516e+2, -632254.9, -501939.22, 14116.59, 0.0149141215, 0.31965077, -500427.56, -144903.3, 0.0, 9.998098, 9.999822 
6.4984274e+1, 2.7372482e+2, -588180.2, -430549.06, 18117.594, 0.013310751, 0.30155113, -428493.5, -170964.53, 0.0, 9.99773, 9.999816 
6.498174e+1, 2.8372505e+2, -529798.9, -322064.44, 27755.572, 0.016119305, 0.33309376, -318419.94, -158891.47, 0.0000000009839726, 9.997332, 10.00008 
6.497939e+1, 2.937261e+2, -496371.88, -252922.94, 29247.684, 0.022660716, 0.41931698, -249458.45, -187937.53, 0.0000021664155, 9.996879, 10.0001 
6.4976674e+1, 3.0372575e+2, -498267.88, -198334.33, 17912.94, 0.0043222923, 0.36787805, -197268.31, -197268.31, 0.000029021434, 9.9964, 10.000371 
6.497381e+1, 3.1372693e+2, -474695.25, -28951.156, 14095.998, -0.0096247485, 0.43930894, -28505.836, -28505.836, 0.00011410821, 9.995881, 10.001784 
7.5033516e+1, 1.23737305e+2, -1283118.8, -1800105.3, 13943.154, -0.07932788, 0.28775114, -1282743.0, 444660.22, 0.000011943673, 10.00423, 9.997377 
7.503049e+1, 1.337357e+2, -1173202.0, -1610280.0, 3370.6309, -0.062263954, 0.3174456, -1173176.0, 456244.63, 0.0000019539243, 10.003941, 9.998146 
7.5027394e+1, 1.4373387e+2, -1113706.3, -1509019.3, -5464.775, -0.035237607, 0.3121457, -1113630.8, 417809.0, 0.00000004027787, 10.003582, 9.998341 
7.502398e+1, 1.5373245e+2, -1080305.3, -1438803.6, -3124.336, -0.023580553, 0.3315964, -1080278.0, 353176.22, 0.0, 10.003123, 9.99837 
7.502037e+1, 1.6373111e+2, -1032096.25, -1331833.3, -11932.638, -0.016602857, 0.34973246, -1031621.94, 303846.72, 0.0, 10.00264, 9.998665 
7.501648e+1, 1.7373002e+2, -1005723.1, -1261789.3, -12259.412, -0.01762914, 0.36456892, -1005137.56, 232344.36, 0.0, 10.002119, 9.998724 
7.501265e+1, 1.8372919e+2, -917753.0, -1068545.1, -6520.4863, -0.019020068, 0.37376493, -917471.56, 222019.45, 0.0, 10.001619, 9.999619 
7.500893e+1, 1.9372894e+2, -877206.94, -982015.2, -7393.885, -0.020712854, 0.37130752, -876687.9, 164804.92, 0.0, 10.001155, 9.9997635 
7.500532e+1, 2.0372878e+2, -833386.25, -889337.06, -3072.052, -0.016807657, 0.37135613, -833218.06, 110275.7, 0.0, 10.000693, 9.999949 
7.500193e+1, 2.1372879e+2, -798951.44, -817210.6, -3340.3667, -0.003918579, 0.37267417, -798359.56, 47133.258, 0.0, 10.0002365, 9.999992 
7.499848e+1, 2.2372863e+2, -761062.4, -738856.56, -5173.6157, 0.0031096882, 0.35510784, -737710.3, 9782.824, 0.0, 9.9997835, 10.000075 
7.499495e+1, 2.3372827e+2, -726378.8, -668241.1, -9697.137, 0.0009410229, 0.30621654, -666666.4, -17171.734, 0.0, 9.999335, 10.000103 
7.499155e+1, 2.4372815e+2, -703230.44, -624935.4, -8571.66, 0.006029981, 0.2937125, -624007.94, -72513.19, 0.0, 9.998901, 9.999936 
7.498836e+1, 2.537285e+2, -665412.75, -556741.94, -10145.2295, 0.022333574, 0.33363122, -555802.9, -102310.74, 0.0, 9.998492, 9.999928 
7.498517e+1, 2.637285e+2, -628668.7, -494545.9, 34.41538, 0.026215024, 0.34434173, -494545.9, -139052.94, 0.0, 9.998098, 9.999873 
7.498199e+1, 2.737281e+2, -583401.2, -420700.63, 4276.692, 0.011347504, 0.3129225, -420588.3, -163090.8, 0.0, 9.997731, 9.999884 
7.497899e+1, 2.8372824e+2, -528941.0, -320360.22, 11069.772, 0.0072569395, 0.33294708, -319774.38, -160277.31, 0.0000000010869243, 9.997332, 10.0000925 
7.497621e+1, 2.937292e+2, -496027.2, -252257.83, 12101.847, 0.016778983, 0.4106799, -251658.52, -190168.5, 0.0000019142904, 9.996879, 10.000105 
7.4973005e+1, 3.0372876e+2, -502139.47, -206372.03, -1332.1003, -0.0028656032, 0.3530798, -206366.03, -206366.03, 0.000026528098, 9.9964, 10.000316 
7.4969596e+1, 3.137299e+2, -480065.7, -40041.504, -5461.794, -0.018897181, 0.42720777, -39973.72, -39973.72, 0.000106300286, 9.99588, 10.001708 
8.503785e+1, 1.2374079e+2, -1253807.6, -1780354.4, 29332.576, -0.077813216, 0.26917636, -1252178.6, 475189.97, 0.000007725496, 10.004407, 9.997427 
8.503443e+1, 1.3373941e+2, -1174237.9, -1606623.0, 18750.582, -0.06057779, 0.31657508, -1173426.3, 455957.8, 0.000000857536, 10.003916, 9.998183 
8.503091e+1, 1.437377e+2, -1136971.1, -1516039.3, 5727.5366, -0.033249322, 0.32102022, -1136884.6, 394517.47, 0.00000000288778, 10.003404, 9.998378 
8.5026985e+1, 1.5373626e+2, -1114411.4, -1451026.8, 3282.3735, -0.022508055, 0.33415136, -1114379.4, 319037.7, 0.0, 10.0028715, 9.998407 
8.502287e+1, 1.6373494e+2, -1057093.4, -1326451.9, -2644.8018, -0.017904134, 0.34491265, -1057067.5, 278363.5, 0.0, 10.002393, 9.99882 
8.501848e+1, 1.7373392e+2, -1010243.0, -1244654.6, 7858.3584, -0.023672806, 0.3509135, -1009979.9, 227462.36, 0.0, 10.002006, 9.998897 
8.50142e+1, 1.8373312e+2, -926034.56, -1079216.1, 18747.52, -0.024190022, 0.35565105, -923773.5, 215677.16, 0.0, 10.001592, 9.999558 
8.501012e+1, 1.9373281e+2, -886735.6, -997019.8, 14514.46, -0.015912663, 0.35566896, -884857.4, 156596.25, 0.0, 10.001135, 9.99967 
8.500608e+1, 2.0373258e+2, -838197.56, -897663.6, 16660.277, -0.009991622, 0.35725954, -833848.06, 109607.47, 0.0, 10.000687, 9.999896 
8.500213e+1, 2.1373256e+2, -799823.25, -822935.7, 14930.52, -0.008167721, 0.3584766, -792499.1, 52955.93, 0.0, 10.000254, 9.999945 
8.4998184e+1, 2.2373237e+2, -763590.56, -752513.6, 12362.005, -0.00624598, 0.34570086, -744506.1, 2949.8455, 0.0, 9.99982, 9.999964 
8.499426e+1, 2.33732e+2, -727559.4, -682271.0, 7929.252, -0.0036420878, 0.3095203, -680922.9, -31464.822, 0.0, 9.999385, 9.999983 
8.4990484e+1, 2.4373186e+2, -699540.25, -633150.9, 9946.455, 0.0061969073, 0.30504978, -631692.7, -80233.7, 0.0, 9.99897, 9.999847 
8.498694e+1, 2.5373214e+2, -657769.56, -562474.4, 6881.0127, 0.026965968, 0.3451068, -561980.1, -108522.41, 0.0, 9.998585, 9.999845 
8.4983355e+1, 2.6373208e+2, -611721.3, -477331.3, 16766.637, 0.031064553, 0.35279673, -475271.06, -119812.21, 0.0, 9.998176, 9.999953 
8.49797e+1, 2.7373168e+2, -576596.94, -405666.63, 23724.328, 0.009794208, 0.31364194, -402434.9, -144972.63, 0.0, 9.997727, 9.999989 
8.4976256e+1, 2.8373188e+2, -534300.56, -323672.75, 30962.105, 0.0032230231, 0.32960573, -319215.66, -159754.48, 0.0000000009777485, 9.997298, 10.000086 
8.497309e+1, 2.937328e+2, -494478.16, -253885.1, 29850.674, 0.016163891, 0.4087349, -250236.8, -188782.52, 0.0000016479609, 9.9969, 10.000084 
8.496945e+1, 3.0373234e+2, -486087.9, -197636.39, 16545.377, -0.0034296245, 0.34617442, -196690.45, -196690.45, 0.000023861305, 9.996506, 10.000325 
8.496559e+1, 3.137334e+2, -445566.03, -23473.113, 17883.414, -0.019131897, 0.41095203, -22716.777, -22716.777, 0.00009776159, 9.996118, 10.001708 
9.504236e+1, 1.2374472e+2, -1249126.9, -1770411.5, 12232.452, -0.06791396, 0.25625178, -1248839.9, 478489.97, 0.000005010395, 10.004405, 9.997496 
9.503836e+1, 1.3374351e+2, -1170672.8, -1598852.1, 58.17426, -0.05874613, 0.31545016, -1170672.8, 458670.72, 0.00000033785767, 10.003914, 9.998238 
9.5034254e+1, 1.4374194e+2, -1137992.1, -1517752.1, -14164.003, -0.0385599, 0.32932004, -1137464.5, 393896.03, 0.0, 10.003402, 9.998366 
9.5029753e+1, 1.5374048e+2, -1115945.8, -1454015.8, -16768.605, -0.032420333, 0.3431799, -1115116.0, 318260.38, 0.0, 10.002871, 9.998387 
9.5025146e+1, 1.6373916e+2, -1038071.6, -1286878.5, -17852.877, -0.029061517, 0.34528473, -1036797.1, 298592.66, 0.0, 10.002393, 9.999093 
9.502041e+1, 1.7373823e+2, -988278.56, -1198960.3, -6680.2197, -0.030927865, 0.32732597, -988066.94, 249331.42, 0.0, 10.002005, 9.99921 
9.501575e+1, 1.837375e+2, -931857.1, -1091222.4, 1853.6245, -0.027788213, 0.32535952, -931835.56, 207569.7, 0.0, 10.001591, 9.999476 
9.5011246e+1, 1.9373727e+2, -896509.2, -1017313.9, -2706.8743, -0.016170928, 0.34671855, -896448.56, 144960.02, 0.0, 10.001135, 9.999531 
9.500676e+1, 2.0373699e+2, -843620.7, -908947.0, 247.86656, -0.010682272, 0.35462663, -843619.7, 99791.89, 0.0, 10.000687, 9.999819 
9.500231e+1, 2.1373671e+2, -804581.4, -832836.7, -1361.3201, -0.015387975, 0.33749518, -804515.94, 40897.492, 0.0, 10.000254, 9.999877 
9.4997907e+1, 2.2373644e+2, -771485.06, -768918.2, -4037.9727, -0.015670026, 0.32576242, -765964.6, -18549.303, 0.0, 9.99982, 9.999851 
9.49936e+1, 2.3373628e+2, -735910.94, -699614.2, -8469.441, -0.00825815, 0.3222891, -697735.25, -48318.926, 0.0, 9.999385, 9.999864 
9.498944e+1, 2.4373616e+2, -707167.6, -649017.7, -4802.128, 0.0045264754, 0.33058664, -648623.8, -97206.01, 0.0, 9.99897, 9.999738 
9.498551e+1, 2.537361e+2, -665223.6, -577994.1, -7638.5767, 0.025193958, 0.350646, -577330.25, -123910.63, 0.0, 9.998585, 9.999738 
9.4981503e+1, 2.6373592e+2, -603913.5, -461159.72, 118.563126, 0.029352667, 0.34487993, -461159.63, -105737.68, 0.0, 9.998176, 10.000065 
9.4977415e+1, 2.7373564e+2, -566599.1, -384919.7, 6773.279, 0.008578205, 0.30363253, -384667.53, -127244.25, 0.0, 9.997727, 10.000132 
9.4973564e+1, 2.8373593e+2, -536081.7, -327382.28, 15731.779, 0.003934119, 0.32300127, -326203.06, -166782.3, 0.00000000065795036, 9.997298, 10.00006 
9.497004e+1, 2.9373693e+2, -497883.5, -260953.13, 14796.354, 0.020822464, 0.41350484, -260032.67, -198618.95, 0.000001379458, 9.9969, 10.000035 
9.496602e+1, 3.0373642e+2, -480967.56, -187076.81, 1977.3334, 0.002687815, 0.34716505, -187063.5, -187063.5, 0.000021105876, 9.996506, 10.000398 
9.49618e+1, 3.1373736e+2, -440167.78, -12524.8125, 3301.7954, -0.010497821, 0.39027634, -12499.32, -12499.32, 0.000088718174, 9.996119, 10.001782 
1.0504666e+2, 1.2374928e+2, -1269434.5, -1762925.9, 22114.848, -0.06702274, 0.26833385, -1268445.4, 458840.72, 0.0000035696996, 10.004191, 9.99765 
1.0504214e+2, 1.3374811e+2, -1201832.5, -1597677.8, 15034.072, -0.058144517, 0.31744364, -1201262.4, 428036.06, 0.000000177014, 10.00363, 9.998383 
1.050375e+2, 1.4374658e+2, -1175446.6, -1532259.5, 8289.594, -0.040269375, 0.32680696, -1175254.1, 356060.53, 0.0, 10.00313, 9.998398 
1.05032496e+2, 1.5374511e+2, -1134288.4, -1461155.6, 8528.933, -0.038644116, 0.33811316, -1134066.0, 299264.78, 0.0, 10.002737, 9.998403 
1.05027445e+2, 1.6374385e+2, -1038795.1, -1269915.4, 6024.57, -0.034569554, 0.3367108, -1038638.2, 296705.44, 0.0, 10.002314, 9.999247 
1.0502237e+2, 1.7374301e+2, -1000221.9, -1185091.9, 6993.8413, -0.027514657, 0.31359848, -999957.7, 237392.38, 0.0, 10.001839, 9.999385 
1.0501731e+2, 1.8374237e+2, -961346.7, -1111307.9, 11666.62, -0.022441346, 0.3104045, -960444.44, 178911.42, 0.0, 10.001414, 9.999424 
1.05012305e+2, 1.937421e+2, -911527.6, -1034131.25, 11087.578, -0.020096647, 0.33677343, -910533.0, 130827.05, 0.0, 10.001073, 9.999445 
1.0500738e+2, 2.0374176e+2, -844057.8, -915843.2, 16374.159, -0.019123178, 0.34692454, -840499.25, 102864.68, 0.0, 10.000712, 9.999759 
1.0500254e+2, 2.137414e+2, -799051.56, -836420.44, 15610.033, -0.020544443, 0.3276403, -793388.9, 51977.8, 0.0, 10.000319, 9.999821 
1.0499775e+2, 2.237411e+2, -764302.44, -774675.44, 13731.537, -0.01785013, 0.31990004, -754810.56, -7441.383, 0.0, 9.999908, 9.999769 
1.0499304e+2, 2.3374102e+2, -728985.94, -705897.94, 11657.691, -0.008182755, 0.33029926, -701035.7, -51665.426, 0.0, 9.999475, 9.999778 
1.0498845e+2, 2.4374084e+2, -700947.4, -655771.4, 18974.936, 0.004218486, 0.3438744, -648859.1, -97486.625, 0.0, 9.999055, 9.999651 
1.04984075e+2, 2.5374064e+2, -660411.1, -585406.44, 17794.73, 0.020203955, 0.35541093, -581398.8, -128022.67, 0.0, 9.99866, 9.999651 
1.04979664e+2, 2.6374036e+2, -592699.3, -450868.3, 21620.656, 0.024695128, 0.34589857, -447645.72, -92266.59, 0.0, 9.998232, 10.000109 
1.0497519e+2, 2.737402e+2, -559142.56, -374353.16, 21823.613, 0.012489295, 0.30917087, -371810.78, -114431.67, 0.0, 9.997748, 10.000194 
1.0497094e+2, 2.8374055e+2, -534598.6, -324045.13, 31214.463, 0.011550472, 0.32890117, -319515.06, -160139.25, 0.00000000025503108, 9.997297, 10.000084 
1.0496697e+2, 2.937415e+2, -496977.97, -258440.69, 35491.457, 0.023948878, 0.4125234, -253271.98, -191903.06, 0.000001118805, 9.996897, 10.000053 
1.0496253e+2, 3.0374095e+2, -476717.3, -182589.45, 25217.0, 0.0019420675, 0.33971953, -180443.14, -180443.14, 0.000018367069, 9.996525, 10.000419 
1.0495797e+2, 3.137419e+2, -428958.03, -6597.7373, 21395.56, -0.008907756, 0.38410276, -5516.6665, -5516.6665, 0.00007944771, 9.996194, 10.001787 
1.1505076e+2, 1.2375445e+2, -1253160.8, -1728563.1, 2499.38, -0.0753941, 0.30490452, -1253147.6, 474089.84, 0.0000030485949, 10.0041895, 9.997888 
1.1504576e+2, 1.3375321e+2, -1185637.0, -1563736.9, -6181.078, -0.05903465, 0.32232964, -1185536.0, 443712.88, 0.00000018630364, 10.003629, 9.998616 
1.1504065e+2, 1.4375165e+2, -1170636.0, -1522036.9, -7233.7676, -0.038747035, 0.3134357, -1170487.3, 360777.03, 0.0000000000835116, 10.003129, 9.998468 
1.150352e+2, 1.5375018e+2, -1131135.5, -1454378.9, -6175.519, -0.041490253, 0.31912112, -1131017.6, 302262.75, 0.0, 10.002736, 9.998449 
1.1502975e+2, 1.6374898e+2, -1036279.0, -1264519.8, -11453.871, -0.0346685, 0.31936523, -1035705.7, 299586.84, 0.0, 10.002313, 9.999285 
1.1502434e+2, 1.737483e+2, -997699.56, -1179805.9, -10881.58, -0.013636059, 0.30961835, -997051.7, 240245.53, 0.0, 10.001839, 9.999422 
1.1501886e+2, 1.8374771e+2, -963150.44, -1115040.3, -1779.829, -0.008315945, 0.31062898, -963129.56, 176172.89, 0.0, 10.001414, 9.999398 
1.1501331e+2, 1.937473e+2, -913947.0, -1039130.3, -1695.6702, -0.027758688, 0.3257915, -913924.06, 127383.96, 0.0, 10.001073, 9.999411 
1.1500793e+2, 2.037469e+2, -847131.94, -922181.1, 1800.7915, -0.03534208, 0.3342112, -847088.75, 96223.87, 0.0, 10.000712, 9.999715 
1.1500283e+2, 2.1374664e+2, -802185.2, -842938.25, 767.04846, -0.023661694, 0.32892, -802170.75, 43144.1, 0.0, 10.000319, 9.999776 
1.14997715e+2, 2.2374637e+2, -767969.1, -782307.5, -2490.3757, -0.012831587, 0.3280688, -767548.9, -20231.352, 0.0, 9.999908, 9.999717 
1.1499255e+2, 2.3374617e+2, -732720.6, -713660.0, -4755.0195, -0.0034576103, 0.33352345, -712539.6, -63219.754, 0.0, 9.999474, 9.999724 
1.1498751e+2, 2.4374592e+2, -705530.25, -665317.6, 3909.6833, 0.0051936526, 0.34491864, -664941.0, -113617.9, 0.0, 9.999055, 9.999585 
1.1498266e+2, 2.5374568e+2, -665129.9, -595250.3, 2930.741, 0.01192043, 0.35942018, -595127.6, -141800.34, 0.0, 9.99866, 9.999584 
1.1497782e+2, 2.6374543e+2, -594419.44, -454476.4, 3796.9185, 0.017059837, 0.35590976, -454373.47, -99043.14, 0.0, 9.998232, 10.000084 
1.1497303e+2, 2.7374536e+2, -560501.25, -377192.34, 3564.4033, 0.021548247, 0.33035955, -377123.06, -119793.336, 0.0, 9.997748, 10.0001745 
1.14968374e+2, 2.8374568e+2, -529561.3, -313587.38, 15753.097, 0.026065428, 0.34738863, -312444.4, -153118.1, 0.000000000026412617, 9.997297, 10.000155 
1.14963874e+2, 2.9374644e+2, -490989.0, -245986.3, 20424.344, 0.02541671, 0.40559927, -244295.33, -182975.38, 0.0000008745259, 9.996897, 10.000139 
1.1495897e+2, 3.037458e+2, -478861.63, -187056.77, 12543.037, -0.0058873673, 0.32366112, -186518.61, -186518.61, 0.000015743772, 9.996525, 10.000388 
1.149541e+2, 3.1374702e+2, -433634.66, -16415.816, 8854.336, -0.014793745, 0.39246944, -16227.992, -16227.992, 0.000070235736, 9.996194, 10.00172 
1.2505475e+2, 1.23760074e+2, -1300975.8, -1741563.4, 32433.99, -0.077897504, 0.3242208, -1298601.0, 428582.16, 0.0000030793126, 10.003818, 9.997977 
1.250493e+2, 1.3375871e+2, -1207431.9, -1566033.8, 10718.357, -0.05849359, 0.32273254, -1207111.8, 422083.25, 0.0000002714346, 10.003444, 9.99869 
1.2504375e+2, 1.4375713e+2, -1176096.8, -1514402.1, 5562.3086, -0.03702071, 0.30473313, -1176005.3, 355204.7, 0.0000000011616538, 10.003047, 9.998561 
1.250379e+2, 1.5375575e+2, -1141838.6, -1448881.6, 10323.339, -0.0401623, 0.30904686, -1141491.9, 291733.03, 0.0, 10.002617, 9.998545 
1.2503202e+2, 1.6375463e+2, -1052627.9, -1274493.5, 4833.424, -0.033760846, 0.31219026, -1052522.6, 282713.66, 0.0, 10.00221, 9.999266 
1.2502618e+2, 1.7375402e+2, -1000063.2, -1184956.9, -86.76851, -0.01321998, 0.31208453, -1000063.2, 237177.63, 0.0, 10.00184, 9.999386 
1.2502028e+2, 1.837534e+2, -959232.06, -1110040.8, 8050.102, -0.00801469, 0.31093308, -958803.56, 180442.75, 0.0, 10.001428, 9.999426 
1.2501432e+2, 1.9375281e+2, -929471.94, -1042432.6, 13409.01, -0.026961263, 0.3049043, -927902.0, 113350.836, 0.0, 10.000948, 9.999448 
1.2500854e+2, 2.0375237e+2, -878498.06, -941076.75, 21312.182, -0.034039818, 0.30809557, -871929.4, 71328.35, 0.0, 10.000513, 9.999681 
1.2500308e+2, 2.1375225e+2, -829738.75, -861188.75, 20485.986, -0.021833234, 0.32324672, -819638.4, 25620.697, 0.0, 10.000151, 9.999731 
1.2499757e+2, 2.2375205e+2, -790317.8, -800803.0, 15950.026, -0.011112212, 0.3333715, -778770.9, -31509.164, 0.0, 9.999788, 9.999647 
1.24992006e+2, 2.3375173e+2, -744976.2, -727674.6, 12129.266, -0.0029716408, 0.33410257, -721427.25, -72161.64, 0.0, 9.999425, 9.999652 
1.2498656e+2, 2.4375142e+2, -704683.44, -665910.1, 22679.355, 0.0038474672, 0.34359306, -655460.6, -104191.016, 0.0, 9.999065, 9.999577 
1.249813e+2, 2.537512e+2, -657839.44, -591764.9, 26826.83, 0.007736293, 0.36136803, -582244.6, -128971.39, 0.0, 9.998711, 9.999583 
1.24976054e+2, 2.6375094e+2, -584819.56, -461895.2, 26018.518, 0.011491658, 0.36327642, -456614.88, -101338.46, 0.0, 9.99835, 9.999976 
1.24970846e+2, 2.7375084e+2, -535757.8, -379077.06, 17702.56, 0.017031081, 0.34656566, -377101.84, -119824.81, 0.0, 9.997978, 10.000051 
1.24965765e+2, 2.8375113e+2, -486321.63, -283122.66, 25013.0, 0.02272066, 0.3626459, -280088.94, -120814.875, 0.0, 9.997553, 10.000241 
1.2496082e+2, 2.9375184e+2, -461936.5, -218905.78, 31745.096, 0.022973243, 0.40382212, -214827.63, -153560.55, 0.0000006546641, 9.99704, 10.000257 
1.24955475e+2, 3.0375123e+2, -477172.28, -189015.84, 27420.049, -0.008779576, 0.31656575, -186429.84, -186429.84, 0.0000132978475, 9.996549, 10.000363 
1.2495023e+2, 3.1375256e+2, -453983.66, -33779.74, 23868.273, -0.015528679, 0.4062945, -32428.326, -32428.326, 0.000061306615, 9.996087, 10.001652 
1.350586e+2, 1.2376615e+2, -1304955.3, -1749601.1, 19077.717, -0.07500665, 0.3265874, -1304138.3, 422985.03, 0.0000033835456, 10.003817, 9.997923 
1.3505276e+2, 1.3376464e+2, -1213640.5, -1578494.4, -3321.0547, -0.056865934, 0.3188138, -1213610.3, 415526.7, 0.00000039333747, 10.003442, 9.998605 
1.3504681e+2, 1.4376308e+2, -1168513.4, -1498204.4, -10286.13, -0.03540032, 0.30069157, -1168192.8, 362959.06, 0.0000000035362315, 10.003045, 9.9986725 
1.3504055e+2, 1.5376185e+2, -1132154.3, -1428395.1, -5812.2334, -0.034924902, 0.30773363, -1132040.3, 301124.2, 0.0, 10.002615, 9.998686 
1.3503426e+2, 1.637608e+2, -1058230.1, -1285835.6, -9321.883, -0.032024696, 0.31500158, -1057849.0, 277325.94, 0.0, 10.002208, 9.999188 
1.350279e+2, 1.7376016e+2, -1007866.0, -1200981.1, -13932.321, -0.026320854, 0.32090732, -1006866.0, 230314.81, 0.0, 10.001839, 9.999276 
1.3502158e+2, 1.8375942e+2, -953664.4, -1098428.8, -9464.965, -0.021523518, 0.31129667, -953048.1, 186139.31, 0.0, 10.001428, 9.999506 
1.3501537e+2, 1.9375862e+2, -921938.06, -1026843.2, -4654.5894, -0.017766213, 0.2741564, -921731.94, 119462.61, 0.0, 10.000948, 9.999556 
1.3500924e+2, 2.0375815e+2, -880253.56, -944777.9, 7124.202, -0.015357949, 0.26860946, -879476.3, 63722.914, 0.0, 10.000513, 9.999656 
1.350033e+2, 2.1375827e+2, -832894.4, -867745.5, 6881.204, -0.015156364, 0.31063882, -831584.9, 13614.337, 0.0, 10.000151, 9.999686 
1.3499734e+2, 2.2375813e+2, -796410.3, -813449.75, 2233.6472, -0.012789379, 0.33582202, -796122.4, -48920.58, 0.0, 9.999788, 9.99956 
1.3499139e+2, 2.3375767e+2, -751466.25, -741163.75, -1593.3655, -0.0067928336, 0.33203438, -740922.94, -91715.45, 0.0, 9.999425, 9.999559 
1.3498558e+2, 2.4375732e+2, -701360.4, -659047.8, 9265.802, 0.00014151391, 0.33989814, -657107.7, -105895.67, 0.0, 9.999065, 9.999623 
1.3498001e+2, 2.537572e+2, -653116.3, -582015.7, 13484.356, 0.0076330393, 0.3612299, -579544.25, -126330.19, 0.0, 9.998711, 9.99965 
1.3497436e+2, 2.6375696e+2, -598282.2, -489929.63, 12106.197, 0.007877993, 0.3679326, -488593.5, -133376.13, 0.0, 9.99835, 9.9997835 
1.3496864e+2, 2.7375668e+2, -551774.0, -412480.78, 3700.8008, -0.0013080491, 0.35769978, -412382.53, -155161.53, 0.0, 9.997978, 9.999822 
1.3496311e+2, 2.837569e+2, -479199.2, -268519.66, 6315.3804, 0.0012029542, 0.3745801, -268330.5, -109111.37, 0.0, 9.997553, 10.000341 
1.3495779e+2, 2.9375765e+2, -451540.8, -197423.6, 12384.688, 0.01649585, 0.40723863, -196821.44, -135611.16, 0.0000004660869, 9.997041, 10.000403 
1.3495204e+2, 3.037571e+2, -478604.78, -192016.06, 9830.867, -0.006789854, 0.31853616, -191679.22, -191679.22, 0.000011042731, 9.996549, 10.000343 
1.3494636e+2, 3.1375858e+2, -458888.1, -43918.582, 6267.435, -0.011487497, 0.42540658, -43823.945, -43823.945, 0.000052781335, 9.996087, 10.001583 
1.4506249e+2, 1.23772524e+2, -1317126.4, -1757359.5, 26586.232, -0.06328312, 0.32752234, -1315526.6, 411533.84, 0.0000037559382, 10.003741, 9.997906 
1.4505613e+2, 1.337709e+2, -1252781.9, -1602507.6, 6180.611, -0.05107999, 0.31389537, -1252672.6, 376402.75, 0.00000052701, 10.003195, 9.998559 
1.4504969e+2, 1.4376935e+2, -1211214.5, -1507819.9, 1826.8885, -0.033469163, 0.294723, -1211203.3, 319886.94, 0.000000006774009, 10.002705, 9.998771 
1.4504305e+2, 1.5376826e+2, -1170049.8, -1433388.5, 4756.098, -0.031036856, 0.3019926, -1169963.9, 263137.3, 0.0, 10.002298, 9.998805 
1.4503634e+2, 1.6376728e+2, -1098076.8, -1305782.4, 5558.101, -0.03013738, 0.30970547, -1097928.1, 237182.78, 0.0, 10.001938, 9.999182 
1.4502956e+2, 1.737666e+2, -1037241.8, -1217953.5, 7581.48, -0.033048708, 0.3162705, -1036924.3, 200193.16, 0.0, 10.001649, 9.999251 
1.4502287e+2, 1.8376587e+2, -962504.06, -1096291.4, 12046.559, -0.03006904, 0.30652896, -961428.0, 177696.13, 0.0, 10.001339, 9.999563 
1.4501634e+2, 1.9376513e+2, -910679.9, -1013784.6, 13559.96, -0.017147712, 0.2681383, -908926.3, 132203.73, 0.0, 10.000993, 9.999623 
1.4500988e+2, 2.0376466e+2, -872202.06, -948659.75, 22276.652, -0.008926847, 0.2630286, -866185.06, 76949.37, 0.0, 10.000602, 9.999586 
1.4500351e+2, 2.1376473e+2, -840392.44, -881255.2, 18714.785, -0.008548993, 0.30795434, -833116.7, 12018.823, 0.0, 10.000142, 9.999598 
1.4499715e+2, 2.2376454e+2, -805200.44, -822830.56, 16507.508, -0.008685728, 0.3351591, -795301.8, -48162.86, 0.0, 9.99975, 9.999515 
1.4499082e+2, 2.3376405e+2, -747614.94, -743802.06, 17000.96, -0.009239871, 0.3322192, -728601.0, -79455.86, 0.0, 9.999471, 9.999519 
1.4498465e+2, 2.4376369e+2, -684948.06, -649128.0, 28218.045, -0.005354966, 0.3402304, -633616.06, -82466.33, 0.0, 9.999169, 9.999641 
1.4497875e+2, 2.537636e+2, -634133.6, -569936.75, 29233.99, 0.0046890667, 0.36044726, -558619.3, -105467.98, 0.0, 9.998829, 9.999677 
1.4497271e+2, 2.6376334e+2, -590212.06, -494102.9, 27757.967, 0.0030223604, 0.3675747, -486662.0, -131507.13, 0.0, 9.998441, 9.999711 
1.4496648e+2, 2.73763e+2, -558249.1, -425214.38, 29688.62, -0.015218959, 0.3602439, -418889.63, -161729.86, 0.0, 9.997975, 9.999735 
1.4496048e+2, 2.8376317e+2, -481420.38, -263438.75, 34516.59, -0.013756693, 0.378667, -258103.73, -98945.55, 0.0, 9.997512, 10.000397 
1.449548e+2, 2.9376402e+2, -445144.1, -185859.17, 34851.867, 0.0130980825, 0.41036573, -181256.27, -120108.28, 0.00000031171322, 9.997048, 10.000479 
1.4494863e+2, 3.0376348e+2, -473338.97, -189480.08, 30666.082, -0.0032579317, 0.31925434, -186204.92, -186204.92, 0.000008961074, 9.996585, 10.000343 
1.4494254e+2, 3.13765e+2, -457729.56, -47716.91, 29213.225, -0.00456813, 0.42863178, -45645.94, -45645.94, 0.000044704477, 9.996114, 10.001544 
1.5506642e+2, 1.237792e+2, -1316200.8, -1754719.5, 7201.306, -0.04335358, 0.32719523, -1316082.5, 410911.97, 0.0000040952054, 10.003737, 9.997925 
1.5505941e+2, 1.3377753e+2, -1253669.5, -1603957.6, -14182.611, -0.04146582, 0.30806735, -1253096.3, 375914.2, 0.00000065226897, 10.003193, 9.998549 
1.5505242e+2, 1.4377598e+2, -1205566.0, -1495863.4, -13868.666, -0.031456623, 0.28690302, -1204904.9, 326120.25, 0.000000011338887, 10.002704, 9.998854 
1.5504536e+2, 1.5377495e+2, -1163438.3, -1419568.8, -10405.727, -0.028677136, 0.29195458, -1163016.1, 270018.78, 0.0, 10.002297, 9.9989 
1.550383e+2, 1.6377403e+2, -1093717.9, -1296720.6, -5742.456, -0.028275238, 0.29646334, -1093555.5, 241488.42, 0.0, 10.001938, 9.999245 
1.550312e+2, 1.7377338e+2, -1033283.94, -1209634.9, -3171.9758, -0.03357401, 0.29835364, -1033226.9, 203823.77, 0.0, 10.001649, 9.999309 
1.5502417e+2, 1.8377277e+2, -960310.44, -1091580.1, -706.65314, -0.033813186, 0.29675785, -960306.6, 178749.66, 0.0, 10.001338, 9.999596 
1.5501724e+2, 1.9377235e+2, -908719.25, -1009652.94, 528.888, -0.025151527, 0.2867598, -908716.5, 132342.92, 0.0, 10.000993, 9.999652 
1.550104e+2, 2.0377195e+2, -880230.9, -965317.8, 5423.5713, -0.0147353895, 0.29118127, -879886.56, 63176.84, 0.0, 10.000602, 9.999472 
1.5500371e+2, 2.1377166e+2, -849739.75, -900668.3, 1337.3859, -0.0020675121, 0.31512833, -849704.7, -4636.727, 0.0, 10.000142, 9.999464 
1.5499699e+2, 2.2377129e+2, -805631.3, -823754.0, 5123.7813, 0.0011227244, 0.33140764, -804283.0, -57209.76, 0.0, 9.99975, 9.999508 
1.5499027e+2, 2.3377086e+2, -746788.44, -742131.4, 6521.7134, -0.010369408, 0.33467215, -737534.94, -88456.44, 0.0, 9.999471, 9.999531 
1.5498373e+2, 2.4377052e+2, -685800.3, -650941.7, 15645.251, -0.012743699, 0.3445556, -644949.75, -93866.93, 0.0, 9.999169, 9.999629 
1.5497752e+2, 2.5377035e+2, -635208.3, -572217.4, 16378.577, -0.0012053457, 0.35898837, -568213.2, -115128.03, 0.0, 9.998829, 9.9996605 
1.5497108e+2, 2.6377004e+2, -586785.56, -487046.75, 10778.128, -0.003151315, 0.36215368, -485895.3, -130806.34, 0.0, 9.998441, 9.99976 
1.5496436e+2, 2.7376977e+2, -554196.56, -416817.78, 12166.643, -0.024696121, 0.35410357, -415748.6, -158655.25, 0.0, 9.997975, 9.999793 
1.5495792e+2, 2.8377002e+2, -480916.13, -262393.84, 17097.316, -0.022098498, 0.37481725, -261064.22, -101973.07, 0.0, 9.997512, 10.000403 
1.5495184e+2, 2.9377094e+2, -445041.72, -185657.88, 17474.62, 0.012796421, 0.41321635, -184485.9, -123405.74, 0.000000191647, 9.997047, 10.000481 
1.5494528e+2, 3.037704e+2, -471930.75, -186597.05, 13056.762, 0.0017089914, 0.31867513, -186000.83, -186000.83, 0.000007033754, 9.996585, 10.000362 
1.5493874e+2, 3.1377175e+2, -458267.66, -48925.063, 11224.264, 0.0048192125, 0.4153604, -48617.52, -48617.52, 0.00003709365, 9.996114, 10.001535 
1.6507006e+2, 1.2378629e+2, -1360208.3, -1768522.9, 25639.344, -0.037168253, 0.31978536, -1358604.6, 368320.06, 0.00000436046, 10.003404, 9.997992 
1.6506256e+2, 1.337847e+2, -1279911.1, -1612288.6, 7180.933, -0.036165517, 0.3045461, -1279756.1, 349183.8, 0.00000075351153, 10.002995, 9.998589 
1.6505511e+2, 1.4378321e+2, -1217651.0, -1500134.1, 10662.749, -0.028937988, 0.28697452, -1217249.0, 313705.0, 0.000000017178404, 10.002614, 9.998867 
1.6504768e+2, 1.5378217e+2, -1166812.5, -1420001.6, 8295.234, -0.027595332, 0.2900559, -1166541.0, 266423.06, 0.0, 10.002269, 9.998911 
1.6504022e+2, 1.6378129e+2, -1097100.0, -1291031.9, 9677.624, -0.026083095, 0.2934498, -1096618.3, 238354.72, 0.0, 10.001883, 9.99931 
1.650328e+2, 1.737807e+2, -1060161.4, -1214434.5, 13290.164, -0.026460346, 0.29568645, -1059024.9, 177953.89, 0.0, 10.001429, 9.999382 
1.6502544e+2, 1.8378016e+2, -1000988.5, -1109082.9, 18231.727, -0.026585398, 0.29712972, -997996.3, 140987.23, 0.0, 10.00105, 9.999615 
1.6501813e+2, 1.9377983e+2, -937342.25, -1022178.4, 18483.803, -0.02541977, 0.29433298, -933490.0, 107495.93, 0.0, 10.000791, 9.999663 
1.6501093e+2, 2.037794e+2, -897291.56, -979658.2, 21821.316, -0.018038996, 0.2984907, -891867.6, 51122.484, 0.0, 10.000511, 9.999417 
1.650039e+2, 2.1377893e+2, -845829.75, -905885.2, 22544.086, -0.0012514725, 0.31012386, -838308.8, 6687.635, 0.0, 10.000199, 9.999401 
1.6499683e+2, 2.2377847e+2, -789296.56, -817682.44, 31255.092, 0.0031864583, 0.32214302, -769162.8, -22160.318, 0.0, 9.99987, 9.999492 
1.6498974e+2, 2.3377813e+2, -741037.2, -740392.2, 31409.81, -0.011747218, 0.33433026, -709303.25, -60296.184, 0.0, 9.999516, 9.999521 
1.6498284e+2, 2.4377783e+2, -693735.1, -656756.06, 36839.418, -0.016926214, 0.34952867, -634026.6, -83015.51, 0.0, 9.999124, 9.999611 
1.649762e+2, 2.5377762e+2, -658868.3, -585653.4, 36938.902, -0.007233871, 0.3630189, -570255.2, -117241.2, 0.0, 9.998675, 9.999642 
1.6496938e+2, 2.6377735e+2, -605545.56, -488868.2, 31910.82, -0.007942451, 0.36426556, -480711.0, -125693.12, 0.0, 9.9982815, 9.999824 
1.6496234e+2, 2.737771e+2, -549744.75, -406096.97, 34676.58, -0.023169437, 0.35305488, -398164.13, -141142.56, 0.0, 9.99797, 9.999869 
1.6495551e+2, 2.8377742e+2, -466116.13, -254843.55, 38219.348, -0.018747559, 0.37370735, -248142.2, -89123.41, 0.0, 9.997612, 10.000407 
1.6494893e+2, 2.9377836e+2, -426627.7, -177379.94, 37800.375, 0.010374928, 0.41657284, -171773.33, -110765.86, 0.000000103903474, 9.997177, 10.000475 
1.6494186e+2, 3.0377775e+2, -453385.5, -173831.33, 31279.104, -0.0029152664, 0.31504357, -170374.3, -170374.3, 0.0000052712203, 9.9966955, 10.000397 
1.6493487e+2, 3.1377897e+2, -454879.97, -46426.31, 29957.363, 0.007414126, 0.39348337, -44240.83, -44240.83, 0.00002996744, 9.996133, 10.001543 
1.7507339e+2, 1.23793796e+2, -1352758.3, -1752552.8, 10596.265, -0.044697315, 0.3057798, -1352477.5, 374373.28, 0.0000045093057, 10.003402, 9.998102 
1.7506556e+2, 1.3379242e+2, -1274240.9, -1600109.4, -7966.2437, -0.03522407, 0.30339924, -1274046.3, 354817.53, 0.0000008179498, 10.002993, 9.998673 
1.7505775e+2, 1.4379105e+2, -1221630.8, -1508096.0, -2395.4473, -0.026088377, 0.29486597, -1221610.6, 309266.4, 0.000000022541565, 10.002612, 9.998814 
1.7504993e+2, 1.5378992e+2, -1172114.3, -1430713.9, -4523.3, -0.027889255, 0.29622564, -1172035.1, 260853.64, 0.0, 10.002268, 9.998838 
1.7504212e+2, 1.6378902e+2, -1092441.3, -1281165.4, -6834.547, -0.023638418, 0.30057564, -1092194.0, 242703.77, 0.0, 10.001882, 9.999378 
1.7503437e+2, 1.7378858e+2, -1054011.1, -1201739.1, -3747.6863, -0.011884326, 0.30810776, -1053916.1, 182985.58, 0.0, 10.001429, 9.999469 
1.7502666e+2, 1.8378809e+2, -1000578.7, -1108393.6, 7647.9497, -0.008632681, 0.3074766, -1000038.9, 138866.97, 0.0, 10.00105, 9.9996195 
1.75019e+2, 1.9378759e+2, -937782.4, -1023145.06, 8794.816, -0.018094636, 0.29090258, -936885.7, 104023.92, 0.0, 10.000791, 9.999657 
1.7501143e+2, 2.0378706e+2, -897031.7, -979117.4, 10285.756, -0.018926807, 0.2850579, -895762.44, 47152.242, 0.0, 10.000511, 9.999421 
1.7500404e+2, 2.1378656e+2, -845448.06, -905123.1, 10768.539, -0.00617119, 0.29298502, -843564.3, 1356.741, 0.0, 10.000199, 9.999406 
1.7499664e+2, 2.2378612e+2, -791193.6, -821655.0, 18049.41, -0.0026024207, 0.30734134, -782807.5, -35880.63, 0.0, 9.99987, 9.999465 
1.7498924e+2, 2.3378587e+2, -743206.7, -744949.06, 17992.514, -0.013412935, 0.33117753, -726064.3, -77133.58, 0.0, 9.999516, 9.99949 
1.7498195e+2, 2.4378562e+2, -695467.06, -660350.8, 20295.166, -0.017959706, 0.35517278, -651072.75, -100138.234, 0.0, 9.999124, 9.999586 
1.7497481e+2, 2.5378543e+2, -660511.44, -588993.6, 20023.871, -0.013479494, 0.37261736, -583768.94, -130831.12, 0.0, 9.998674, 9.9996195 
1.7496763e+2, 2.6378515e+2, -599984.5, -477277.3, 19600.21, -0.011353175, 0.37401277, -474222.6, -119281.01, 0.0, 9.998281, 9.999904 
1.7496043e+2, 2.7378497e+2, -543078.2, -392306.0, 23060.234, -0.010547346, 0.35715404, -388857.88, -131913.47, 0.0, 9.99797, 9.999964 
1.7495327e+2, 2.837853e+2, -466142.9, -255030.31, 22413.268, -0.0037332005, 0.37538466, -252676.98, -93735.9, 0.0, 9.997612, 10.000406 
1.7494605e+2, 2.9378626e+2, -427472.53, -179299.69, 21519.766, 0.0056469133, 0.42047995, -177447.47, -116517.6, 0.00000004563321, 9.997177, 10.000462 
1.7493841e+2, 3.0378556e+2, -449937.38, -166799.28, 10696.362, -0.01743659, 0.30833933, -166395.78, -166395.78, 0.0000037135492, 9.9966955, 10.000445 
1.7493097e+2, 3.137866e+2, -453275.3, -43096.01, 8375.12, 0.0026022845, 0.36265418, -42925.08, -42925.08, 0.000023373406, 9.996133, 10.001566 
1.8507677e+2, 1.2380198e+2, -1378142.1, -1756794.3, 34960.727, -0.03561792, 0.3071261, -1374941.3, 351829.2, 0.0000044977733, 10.003193, 9.998174 
1.850685e+2, 1.3380057e+2, -1302132.0, -1609042.9, 13105.779, -0.030284017, 0.29689667, -1301573.4, 327210.16, 0.0000008390777, 10.002782, 9.9987135 
1.8506025e+2, 1.4379923e+2, -1257042.8, -1528905.1, 18996.201, -0.025490228, 0.29043308, -1255721.8, 275074.8, 0.000000025661054, 10.002385, 9.99878 
1.8505208e+2, 1.5379818e+2, -1214082.3, -1455773.3, 19117.129, -0.026085474, 0.30348745, -1212579.5, 220228.77, 0.0, 10.002, 9.998795 
1.8504393e+2, 1.637973e+2, -1119179.6, -1289468.0, 18030.39, -0.020501329, 0.31160325, -1117291.5, 217525.77, 0.0, 10.001678, 9.999419 
1.8503587e+2, 1.7379682e+2, -1046754.2, -1192360.6, 18606.674, -0.007420684, 0.31029183, -1044414.06, 192406.69, 0.0, 10.001453, 9.999521 
1.8502781e+2, 1.8379629e+2, -988405.9, -1106971.4, 27024.879, -0.0037316775, 0.3032809, -982536.6, 156288.5, 0.0, 10.001153, 9.999579 
1.8501979e+2, 1.937957e+2, -949891.8, -1034755.5, 24733.89, -0.014150659, 0.28452304, -943209.25, 97620.68, 0.0, 10.000732, 9.999605 
1.8501188e+2, 2.0379515e+2, -916665.6, -985837.2, 26485.205, -0.01776115, 0.27800718, -907689.44, 35145.844, 0.0, 10.000364, 9.999445 
1.8500413e+2, 2.1379471e+2, -859876.6, -908192.8, 29316.342, -0.010636581, 0.28785187, -846047.06, -1206.229, 0.0, 10.000084, 9.999441 
1.8499641e+2, 2.2379428e+2, -800219.94, -823781.5, 38478.277, -0.008977381, 0.30083773, -771759.44, -24913.207, 0.0, 9.9998, 9.999484 
1.8498872e+2, 2.3379397e+2, -742953.94, -742787.94, 41983.793, -0.015746983, 0.31794035, -700887.06, -52036.758, 0.0, 9.999509, 9.999508 
1.849811e+2, 2.4379373e+2, -684733.5, -656285.56, 44593.375, -0.020088205, 0.34154066, -623702.56, -72848.45, 0.0, 9.999202, 9.999577 
1.849735e+2, 2.5379363e+2, -633026.3, -577221.2, 44706.6, -0.021646703, 0.36859077, -552424.3, -99567.06, 0.0, 9.99887, 9.999606 
1.8496594e+2, 2.6379344e+2, -568483.5, -457884.03, 42982.996, -0.018885948, 0.37535012, -443143.78, -88283.15, 0.0, 9.998479, 9.999941 
1.8495844e+2, 2.7379325e+2, -536609.0, -384162.97, 42618.176, -0.006679055, 0.35696778, -373057.56, -116194.695, 0.0, 9.9979925, 10.000009 
1.8495092e+2, 2.8379357e+2, -479285.44, -266092.47, 37895.344, 0.004611187, 0.3747136, -259556.86, -100697.34, 0.0, 9.997542, 10.000363 
1.8494324e+2, 2.9379448e+2, -435555.66, -189114.27, 33914.684, 0.0070944284, 0.42087692, -184532.2, -123682.984, 0.000000013949684, 9.997148, 10.000409 
1.8493514e+2, 3.0379376e+2, -438148.13, -156495.8, 18953.197, -0.018005485, 0.30716813, -155226.11, -155226.11, 0.0000024106344, 9.996757, 10.000486 
1.8492728e+2, 3.1379482e+2, -418309.0, -24162.293, 15558.432, 0.010706179, 0.36177787, -23549.098, -23549.098, 0.000017412012, 9.996365, 10.001584 
1.950802e+2, 1.2381084e+2, -1376229.3, -1752383.4, 19763.719, -0.010806339, 0.32335863, -1375193.6, 351489.94, 0.0000042941406, 10.003191, 9.998205 
1.9507137e+2, 1.3380915e+2, -1302638.8, -1609687.4, -2074.2114, -0.021606358, 0.28522834, -1302624.8, 326074.28, 0.0000008137795, 10.00278, 9.99871 
1.9506261e+2, 1.4380775e+2, -1258233.8, -1531062.0, 4638.5835, -0.027207365, 0.27405614, -1258154.9, 272557.75, 0.000000025948266, 10.002383, 9.998766 
1.9505411e+2, 1.5380692e+2, -1215169.3, -1457965.9, 4767.7363, -0.022324478, 0.31187993, -1215075.6, 217647.16, 0.0, 10.002, 9.99878 
1.9504564e+2, 1.6380613e+2, -1118229.9, -1287535.3, 8976.293, -0.016789075, 0.32646015, -1117755.4, 216975.94, 0.0, 10.001678, 9.999433 
1.9503726e+2, 1.7380543e+2, -1045587.94, -1189853.9, 10253.891, -0.013017726, 0.3023795, -1044862.75, 191873.31, 0.0, 10.001452, 9.999539 
1.9502889e+2, 1.8380475e+2, -994405.8, -1119301.1, 12048.665, -0.011784631, 0.28476283, -993254.1, 145487.33, 0.0, 10.001152, 9.9994955 
1.9502053e+2, 1.9380419e+2, -956690.7, -1048896.8, 8835.007, -0.013576139, 0.2752092, -955851.75, 84895.1, 0.0, 10.000732, 9.999508 
1.9501227e+2, 2.0380367e+2, -913543.9, -979465.3, 15306.615, -0.014623345, 0.27732182, -910163.1, 32588.83, 0.0, 10.000364, 9.999489 
1.9500417e+2, 2.1380338e+2, -855432.94, -899029.4, 18784.672, -0.014733252, 0.29472327, -848455.75, -3699.8987, 0.0, 10.000084, 9.999504 
1.9499613e+2, 2.2380295e+2, -795604.44, -814227.44, 27543.684, -0.016017683, 0.30258515, -775840.9, -29080.336, 0.0, 9.9998, 9.99955 
1.949882e+2, 2.3380245e+2, -738256.44, -733105.06, 31026.346, -0.018788043, 0.29448533, -704547.7, -55781.92, 0.0, 9.999509, 9.999575 
1.9498025e+2, 2.4380216e+2, -684430.6, -655744.8, 32271.258, -0.02336441, 0.30848807, -634772.6, -84002.68, 0.0, 9.999203, 9.99958 
1.9497226e+2, 2.538022e+2, -633249.6, -577850.0, 32224.246, -0.031843215, 0.35082513, -563056.5, -110284.266, 0.0, 9.998871, 9.999601 
1.9496429e+2, 2.6380208e+2, -568812.9, -458726.4, 25317.045, -0.030716231, 0.36816168, -453183.25, -98408.21, 0.0, 9.99848, 9.999935 
1.9495639e+2, 2.7380195e+2, -537049.9, -385126.47, 24261.871, -0.011738552, 0.35241884, -381345.97, -124569.07, 0.0, 9.9979925, 10.000002 
1.9494846e+2, 2.8380224e+2, -485320.25, -278523.53, 22654.094, 0.0061536096, 0.37166727, -276070.94, -117296.875, 0.0, 9.997541, 10.000278 
1.9494045e+2, 2.9380307e+2, -442238.72, -202920.03, 19158.773, 0.014830974, 0.41777387, -201395.97, -140630.48, 0.0000000023315327, 9.997147, 10.000315 
1.9493203e+2, 3.0380237e+2, -435828.16, -151723.0, 4206.7896, -0.004347027, 0.31176934, -151660.72, -151660.72, 0.0000014034579, 9.996757, 10.000519 
1.9492386e+2, 3.1380376e+2, -417265.13, -22325.732, 365.9441, 0.03182444, 0.39157683, -22325.393, -22325.393, 0.000012235335, 9.996366, 10.001596 
2.0508341e+2, 1.23820126e+2, -1390076.0, -1756707.8, 44138.39, -0.0024695168, 0.32635987, -1384837.1, 341754.9, 0.000003892583, 10.003085, 9.998226 
2.0507412e+2, 1.3381828e+2, -1332216.1, -1625695.3, 21442.438, -0.01344041, 0.27462628, -1330657.8, 297951.22, 0.00000074131736, 10.002584, 9.998694 
2.0506495e+2, 1.4381684e+2, -1288756.8, -1549582.1, 31957.723, -0.020940306, 0.2620423, -1284898.3, 245724.9, 0.000000023374444, 10.002191, 9.998732 
2.0505616e+2, 1.5381612e+2, -1224032.1, -1466251.3, 31082.805, -0.013785303, 0.31285504, -1220107.0, 212525.72, 0.0, 10.001956, 9.998744 
2.050474e+2, 1.6381532e+2, -1121793.9, -1292474.8, 33210.65, -0.00960501, 0.33149225, -1115559.5, 219081.75, 0.0, 10.001668, 9.999404 
2.0503862e+2, 1.738145e+2, -1071239.6, -1205290.5, 31124.982, -0.013133234, 0.29733714, -1064365.4, 172281.64, 0.0, 10.00129, 9.999512 
2.0502989e+2, 1.8381375e+2, -1025914.94, -1141329.8, 30890.262, -0.015245984, 0.27730882, -1018167.4, 120485.586, 0.0, 10.000966, 9.999434 
2.0502125e+2, 1.9381322e+2, -962082.2, -1058774.3, 29818.193, -0.013976414, 0.27754533, -953626.25, 87032.234, 0.0, 10.000727, 9.999443 
2.0501268e+2, 2.0381273e+2, -899233.75, -970125.06, 37742.316, -0.01364951, 0.2847386, -882902.25, 59761.27, 0.0, 10.000453, 9.999511 
2.0500426e+2, 2.1381244e+2, -847241.94, -891158.2, 39169.688, -0.015233443, 0.29963285, -824295.44, 20371.51, 0.0, 10.000123, 9.999538 
2.0499592e+2, 2.23812e+2, -791516.44, -805642.06, 46621.26, -0.017507592, 0.30074698, -751426.0, -4754.5283, 0.0, 9.999799, 9.999609 
2.0498767e+2, 2.3381144e+2, -737393.56, -725650.9, 49810.688, -0.020397993, 0.2793718, -681366.7, -32689.885, 0.0, 9.999484, 9.999637 
2.0497943e+2, 2.4381112e+2, -689938.75, -658253.2, 49861.85, -0.024339851, 0.2888852, -621777.75, -71096.695, 0.0, 9.999164, 9.999581 
2.0497112e+2, 2.5381124e+2, -639273.3, -581595.3, 49445.574, -0.031000879, 0.34043154, -553193.1, -100510.02, 0.0, 9.998833, 9.999594 
2.049628e+2, 2.6381123e+2, -562645.94, -447929.72, 41696.094, -0.0296989, 0.36365968, -434375.8, -79690.586, 0.0, 9.998488, 10.000006 
2.0495442e+2, 2.7381116e+2, -513000.28, -364607.97, 46618.508, -0.013107258, 0.3486017, -351177.9, -94492.15, 0.0, 9.998119, 10.000082 
2.0494607e+2, 2.8381145e+2, -467005.6, -279934.9, 48289.79, 0.004103154, 0.36622435, -268205.06, -109522.13, 0.0, 9.997711, 10.000187 
2.0493764e+2, 2.938121e+2, -436340.22, -212739.72, 43436.406, 0.014703585, 0.40701416, -204598.25, -143921.67, 0.000000000097020676, 9.997242, 10.000201 
2.0492883e+2, 3.038114e+2, -428205.88, -147178.7, 28183.314, -0.0012369802, 0.30438685, -144380.16, -144380.16, 0.0000007042908, 9.996805, 10.000526 
2.0492035e+2, 3.1381303e+2, -410926.16, -21160.418, 21881.742, 0.041502338, 0.40621954, -19935.807, -19935.807, 0.000007994477, 9.996417, 10.001579 
2.1508643e+2, 1.2382984e+2, -1389682.8, -1755405.4, 25279.305, -0.010345635, 0.31666282, -1387943.6, 338552.22, 0.0000033185577, 10.003083, 9.998236 
2.1507679e+2, 1.3382797e+2, -1334325.4, -1629911.3, 2711.6494, -0.005776514, 0.26511723, -1334300.5, 294212.84, 0.00000061904166, 10.0025835, 9.998666 
2.150673e+2, 1.4382651e+2, -1292618.9, -1557568.4, 22186.135, -0.0069579557, 0.2542802, -1290773.9, 239754.2, 0.000000017936356, 10.002191, 9.998677 
2.1505825e+2, 1.5382574e+2, -1228175.6, -1474712.0, 22432.496, -0.0006428572, 0.30657828, -1226151.1, 206387.1, 0.0, 10.001956, 9.998687 
2.1504916e+2, 1.6382489e+2, -1126915.1, -1302923.6, 19675.79, 0.0009267883, 0.32692704, -1124742.5, 209804.72, 0.0, 10.001667, 9.999332 
2.1503997e+2, 1.7382403e+2, -1076396.8, -1215922.5, 16900.064, -0.007929325, 0.29515845, -1074378.9, 162174.67, 0.0, 10.001289, 9.999438 
2.1503086e+2, 1.8382327e+2, -1028709.0, -1147156.0, 21330.762, -0.014272306, 0.28079945, -1024984.7, 113575.11, 0.0, 10.000966, 9.999394 
2.1502195e+2, 1.938228e+2, -964545.3, -1063906.9, 20889.773, -0.015412322, 0.291487, -960332.1, 80232.78, 0.0, 10.000727, 9.999408 
2.1501312e+2, 2.0382233e+2, -899283.94, -970253.94, 25740.686, -0.014852265, 0.30021355, -890930.94, 51639.02, 0.0, 10.000453, 9.99951 
2.1500441e+2, 2.138219e+2, -846839.06, -890395.5, 26723.625, -0.012216741, 0.30255726, -834143.5, 10430.775, 0.0, 10.000123, 9.999544 
2.1499574e+2, 2.2382142e+2, -787796.7, -797994.4, 34697.63, -0.013558088, 0.29534182, -757825.25, -11246.295, 0.0, 9.999799, 9.999661 
2.1498716e+2, 2.3382089e+2, -733240.94, -717096.5, 37949.78, -0.020634823, 0.2726952, -686369.94, -37786.45, 0.0, 9.999484, 9.999696 
2.1497859e+2, 2.4382062e+2, -690082.3, -658606.94, 37448.53, -0.023020387, 0.28281057, -633723.6, -83136.27, 0.0, 9.999165, 9.999578 
2.1497007e+2, 2.5382075e+2, -640015.1, -583185.06, 36973.7, -0.019034447, 0.33744726, -564968.9, -112379.17, 0.0, 9.998833, 9.999583 
2.1496141e+2, 2.638208e+2, -552382.94, -426652.78, 27973.398, -0.01573297, 0.36190316, -420709.97, -66118.8, 0.0, 9.998488, 10.000152 
2.1495256e+2, 2.738209e+2, -501252.38, -340342.22, 32805.05, -0.010833723, 0.34555578, -333911.22, -77321.9, 0.0, 9.998119, 10.000249 
2.1494372e+2, 2.838212e+2, -473859.6, -294318.63, 31086.652, -0.0017719939, 0.35833082, -289088.47, -130502.41, 0.0, 9.997712, 10.000088 
2.149348e+2, 2.938216e+2, -445594.9, -232054.94, 25844.541, 0.0064250003, 0.38841552, -228971.53, -168389.11, 0.0, 9.997242, 10.000069 
2.1492556e+2, 3.038208e+2, -429499.7, -149922.38, 13321.341, -0.009047581, 0.28476432, -149289.06, -149289.06, 0.00000028677624, 9.996806, 10.000508 
2.1491674e+2, 3.138226e+2, -414208.56, -28050.207, 6907.781, 0.039009634, 0.40491244, -27926.678, -27926.678, 0.0000047712674, 9.996418, 10.001532 
2.2508942e+2, 1.2383981e+2, -1414966.4, -1769940.3, 37641.26, -0.010458999, 0.29423434, -1411018.8, 315378.06, 0.0000026194793, 10.00292, 9.998215 
2.2507939e+2, 1.3383813e+2, -1344057.1, -1641441.1, 13128.295, 0.0005538203, 0.26677164, -1343478.8, 284934.84, 0.0000004546107, 10.002546, 9.998605 
2.2506955e+2, 1.4383674e+2, -1294550.9, -1561839.6, 37225.68, 0.00017295998, 0.2665055, -1289463.3, 240964.9, 0.000000010467296, 10.002192, 9.998648 
2.2506022e+2, 1.5383582e+2, -1243740.5, -1484977.6, 40339.94, 0.0069359504, 0.30796108, -1237173.6, 195265.66, 0.0, 10.001861, 9.998662 
2.2505082e+2, 1.6383487e+2, -1150894.5, -1324133.9, 36649.156, 0.007896044, 0.32360706, -1143460.3, 190988.94, 0.0, 10.001544, 9.999246 
2.2504127e+2, 1.7383395e+2, -1088976.1, -1232574.3, 31960.313, -0.0032413318, 0.29708144, -1082184.0, 154272.36, 0.0, 10.001249, 9.999344 
2.2503187e+2, 1.8383318e+2, -1029835.8, -1147970.9, 39241.957, -0.011357129, 0.2849238, -1017988.56, 120474.48, 0.0, 10.000959, 9.999392 
2.2502267e+2, 1.9383268e+2, -970965.8, -1065964.6, 42412.85, -0.013464127, 0.2929752, -954786.0, 85682.08, 0.0, 10.000678, 9.999417 
2.2501355e+2, 2.0383218e+2, -907314.56, -973173.06, 47768.008, -0.014355956, 0.29819164, -882225.56, 60247.625, 0.0, 10.000394, 9.999518 
2.250045e+2, 2.1383171e+2, -849051.06, -890615.94, 48719.137, -0.013954692, 0.29553503, -816866.9, 27610.902, 0.0, 10.000105, 9.999552 
2.2499552e+2, 2.2383124e+2, -784805.44, -794879.0, 55663.29, -0.014999707, 0.28852937, -733951.5, 12530.824, 0.0, 9.999813, 9.999677 
2.2498667e+2, 2.3383081e+2, -727818.25, -712805.25, 55635.664, -0.017876828, 0.27439344, -664172.0, -15686.027, 0.0, 9.999515, 9.999711 
2.2497784e+2, 2.4383059e+2, -684441.8, -650524.8, 53109.227, -0.01751883, 0.2872552, -611732.25, -61243.01, 0.0, 9.99918, 9.999627 
2.2496894e+2, 2.5383073e+2, -642966.4, -578777.8, 56997.59, -0.013081591, 0.335466, -545459.8, -92968.1, 0.0, 9.998788, 9.999636 
2.2495991e+2, 2.638308e+2, -553954.9, -417410.25, 49728.113, -0.011552608, 0.35493276, -401219.6, -46726.895, 0.0, 9.998434, 10.000241 
2.2495069e+2, 2.7383095e+2, -491786.13, -325246.9, 49225.56, -0.011839936, 0.3361182, -311785.03, -55295.266, 0.0, 9.998139, 10.000343 
2.2494145e+2, 2.8383127e+2, -463576.22, -294894.9, 42696.58, -0.0052666613, 0.34777218, -284703.34, -126217.25, 0.0, 9.997807, 10.000039 
2.249321e+2, 2.9383162e+2, -425540.1, -229846.45, 41885.246, 0.0046570124, 0.37864253, -221258.44, -160775.38, 0.0, 9.997413, 10.000002 
2.2492246e+2, 3.0383068e+2, -400257.9, -142303.88, 32887.434, -0.009123143, 0.2699776, -138176.97, -138176.97, 0.00000008572978, 9.997034, 10.00045 
2.249133e+2, 3.138323e+2, -382630.2, -24340.168, 22155.47, 0.040366814, 0.37910792, -22975.346, -22975.346, 0.000002540607, 9.996684, 10.00143 
2.350924e+2, 1.23850055e+2, -1418880.0, -1777489.6, 22837.775, -0.0032973953, 0.2595949, -1417431.5, 308863.6, 0.0000018640146, 10.002917, 9.998165 
2.3508199e+2, 1.3384876e+2, -1350815.3, -1655050.0, -853.7929, 0.0054676337, 0.27933502, -1350812.9, 277496.6, 0.0000002777255, 10.002544, 9.998512 
2.3507173e+2, 1.438475e+2, -1295345.5, -1563123.5, 24797.61, 0.0005599355, 0.29817125, -1293068.5, 237254.84, 0.0000000036051038, 10.00219, 9.99864 
2.350621e+2, 1.5384634e+2, -1243524.6, -1484231.8, 27988.72, 0.009038105, 0.3168337, -1240313.0, 192023.05, 0.0, 10.00186, 9.998668 
2.3505239e+2, 1.6384524e+2, -1158236.0, -1339177.5, 25472.23, 0.0113506615, 0.321549, -1154718.5, 179628.89, 0.0, 10.001543, 9.999144 
2.3504256e+2, 1.738443e+2, -1097266.9, -1249739.8, 20924.338, 0.00088064774, 0.3030641, -1094447.5, 141908.0, 0.0, 10.001249, 9.999227 
2.3503286e+2, 1.8384346e+2, -1027522.75, -1143165.6, 28655.818, -0.0066126073, 0.2896722, -1020811.5, 117551.3, 0.0, 10.000959, 9.999425 
2.350234e+2, 1.9384286e+2, -967237.5, -1058251.0, 31863.031, -0.008237968, 0.28211716, -957191.44, 83176.555, 0.0, 10.000678, 9.99947 
2.3501395e+2, 2.038423e+2, -906255.56, -971039.4, 36923.426, -0.012262679, 0.27878007, -889529.5, 52843.594, 0.0, 10.000394, 9.999533 
2.3500454e+2, 2.1384187e+2, -848373.75, -889300.06, 37831.14, -0.020480646, 0.2785872, -825826.06, 18551.459, 0.0, 10.000105, 9.99956 
2.3499528e+2, 2.2384147e+2, -786482.8, -798421.56, 44483.03, -0.021859659, 0.28034994, -747570.44, -1188.8594, 0.0, 9.999813, 9.999653 
2.3498625e+2, 2.3384121e+2, -729812.56, -717020.56, 44398.516, -0.0121286465, 0.2845472, -678559.7, -30175.488, 0.0, 9.999515, 9.999682 
2.349771e+2, 2.4384107e+2, -677611.75, -636384.0, 38706.168, -0.007893109, 0.30226898, -613144.7, -62757.895, 0.0, 9.99918, 9.999724 
2.3496771e+2, 2.5384116e+2, -635007.0, -562242.3, 42203.652, -0.013305746, 0.33443356, -542903.75, -90514.79, 0.0, 9.998787, 9.999749 
2.3495828e+2, 2.6384118e+2, -551783.9, -412881.84, 38253.723, -0.017342558, 0.34263027, -403043.56, -48653.74, 0.0, 9.998434, 10.000273 
2.3494875e+2, 2.7384135e+2, -490398.53, -322422.47, 38187.473, -0.016255898, 0.3201409, -314148.53, -57761.45, 0.0, 9.998139, 10.000362 
2.3493923e+2, 2.8384167e+2, -463491.13, -294846.03, 28287.967, -0.0064545744, 0.3345065, -290227.6, -131844.64, 0.0, 9.997807, 10.000039 
2.3492956e+2, 2.9384214e+2, -425401.25, -229772.75, 27069.977, 0.009518735, 0.3780027, -226096.06, -165717.64, 0.0, 9.997413, 10.000002 
2.3491958e+2, 3.0384108e+2, -406979.72, -156630.8, 19581.322, -0.0013288126, 0.2600207, -155108.48, -155108.48, 0.000000016806371, 9.997036, 10.000351 
2.3491003e+2, 3.138422e+2, -393428.9, -47258.164, 8551.426, 0.045234025, 0.32747447, -47047.047, -47047.047, 0.0000011714155, 9.996686, 10.001271 
2.4509524e+2, 1.2386065e+2, -1448720.9, -1783660.5, 17145.57, 0.0011038363, 0.25029194, -1447845.5, 278345.44, 0.0000011498672, 10.002677, 9.998238 
2.450845e+2, 1.3385952e+2, -1375469.3, -1662277.4, 4084.6423, 0.010969506, 0.28256273, -1375411.0, 252793.03, 0.00000012802465, 10.002355, 9.998553 
2.4507385e+2, 1.4385833e+2, -1314398.0, -1567437.6, 37796.504, 0.0016676848, 0.3051265, -1308873.0, 221344.14, 0.00000000023702618, 10.002039, 9.998683 
2.4506389e+2, 1.5385714e+2, -1259887.6, -1487171.8, 43904.52, 0.0077409055, 0.3140276, -1251701.5, 180528.42, 0.0, 10.001726, 9.998712 
2.4505387e+2, 1.6385597e+2, -1178096.9, -1361683.6, 45246.47, 0.010016265, 0.31515172, -1167551.3, 166690.4, 0.0, 10.001463, 9.999027 
2.4504384e+2, 1.7385495e+2, -1102886.6, -1267765.1, 39541.83, 0.0028951883, 0.30297253, -1093894.0, 142357.31, 0.0, 10.001277, 9.999089 
2.450339e+2, 1.8385406e+2, -1015098.06, -1135940.3, 43760.19, -0.0019986774, 0.29199147, -1000915.8, 137343.53, 0.0, 10.0010395, 9.999435 
2.4502416e+2, 1.9385345e+2, -958508.5, -1050671.0, 44942.53, -0.0022388224, 0.2806947, -940221.2, 100042.95, 0.0, 10.000724, 9.9995 
2.450144e+2, 2.0385292e+2, -900020.75, -966040.7, 49913.73, -0.0071223867, 0.27615994, -873188.94, 69079.96, 0.0, 10.000428, 9.999551 
2.4500468e+2, 2.1385252e+2, -838489.2, -882707.2, 51394.723, -0.019631077, 0.27891922, -804649.75, 39623.145, 0.0, 10.000165, 9.999577 
2.4499512e+2, 2.2385216e+2, -775658.06, -790710.44, 58671.79, -0.021898532, 0.2811379, -724031.75, 22245.04, 0.0, 9.999876, 9.999675 
2.4498582e+2, 2.3385186e+2, -723375.8, -711274.75, 62272.594, -0.0077753216, 0.28188545, -654759.44, -6479.905, 0.0, 9.999548, 9.999705 
2.4497634e+2, 2.4385175e+2, -664425.56, -619533.4, 57348.652, -0.0026516984, 0.29577366, -580394.6, -30112.893, 0.0, 9.999226, 9.999818 
2.4496657e+2, 2.538519e+2, -609689.8, -538548.56, 59832.42, -0.01264702, 0.32359812, -504511.8, -52229.22, 0.0, 9.998912, 9.999852 
2.4495678e+2, 2.6385197e+2, -536980.56, -411020.94, 52681.06, -0.018509666, 0.33010206, -391892.56, -37609.473, 0.0, 9.998559, 10.000225 
2.4494691e+2, 2.7385205e+2, -494699.22, -332074.78, 45904.848, -0.015045599, 0.30995074, -320011.78, -63730.414, 0.0, 9.998142, 10.000295 
2.4493705e+2, 2.838524e+2, -469820.06, -294485.97, 32610.17, -0.002580849, 0.3268767, -288617.28, -130339.87, 0.0, 9.997749, 10.00007 
2.4492703e+2, 2.9385293e+2, -425519.22, -224735.06, 34595.316, 0.016618827, 0.37368557, -218941.42, -158669.72, 0.0, 9.997391, 10.000048 
2.4491672e+2, 3.0385184e+2, -407339.25, -163122.14, 32374.432, 0.007982679, 0.25165102, -158903.33, -158903.33, 0.0000000018495133, 9.997061, 10.000295 
2.4490683e+2, 3.1385273e+2, -388686.38, -58016.06, 24123.258, 0.05355027, 0.30431807, -56265.473, -56265.473, 0.00000045275593, 9.996775, 10.001154 
2.5509793e+2, 1.238716e+2, -1435756.8, -1756034.6, 4336.6997, 0.0026256412, 0.2652602, -1435698.0, 290386.66, 0.0000005982307, 10.002674, 9.998429 
2.550869e+2, 1.3387044e+2, -1363741.8, -1637600.3, -7739.843, 0.016924514, 0.27673796, -1363523.1, 264574.2, 0.00000003796869, 10.002354, 9.998724 
2.550759e+2, 1.4386927e+2, -1308042.5, -1554148.8, 26269.012, 0.0033359393, 0.28821835, -1305269.9, 224839.63, 0.0, 10.002038, 9.998775 
2.5506556e+2, 1.538682e+2, -1254148.9, -1475330.6, 32254.516, 0.0029361807, 0.29993752, -1249541.3, 182579.44, 0.0, 10.001726, 9.998794 
2.5505528e+2, 1.6386706e+2, -1187245.4, -1380751.4, 37792.09, 0.0038067831, 0.30457398, -1180126.4, 154005.94, 0.0, 10.001463, 9.998897 
2.5504512e+2, 1.7386591e+2, -1114006.1, -1290805.0, 32644.377, 0.0027569397, 0.29697156, -1108171.1, 127972.74, 0.0, 10.001276, 9.998931 
2.5503498e+2, 1.83865e+2, -1015983.4, -1137702.4, 32465.008, 0.002422574, 0.29198593, -1007865.6, 130287.09, 0.0, 10.001039, 9.999424 
2.5502494e+2, 1.9386446e+2, -958057.56, -1049756.8, 33057.04, 0.004482271, 0.28867915, -947383.25, 92773.38, 0.0, 10.000724, 9.999506 
2.5501493e+2, 2.03864e+2, -898596.1, -963126.94, 39815.95, 0.0010085948, 0.29028824, -879613.5, 62547.11, 0.0, 10.000428, 9.999571 
2.550049e+2, 2.1386367e+2, -836902.2, -879446.25, 41531.426, -0.011519349, 0.29654065, -811512.06, 32651.912, 0.0, 10.000165, 9.999599 
2.5499505e+2, 2.2386324e+2, -770871.25, -780821.5, 46549.926, -0.01524714, 0.29084158, -729031.4, 17136.605, 0.0, 9.999876, 9.9997425 
2.549854e+2, 2.338628e+2, -718113.7, -700436.44, 49872.645, -0.0048864577, 0.26623923, -658625.25, -10453.335, 0.0, 9.999548, 9.99978 
2.5497556e+2, 2.4386263e+2, -658083.1, -606441.9, 45481.656, -0.0018811873, 0.26759422, -579962.56, -29788.588, 0.0, 9.999226, 9.9999075 
2.5496548e+2, 2.5386292e+2, -603178.5, -525149.6, 48068.18, -0.011184619, 0.30288556, -502255.47, -50082.824, 0.0, 9.998912, 9.999944 
2.5495535e+2, 2.6386306e+2, -546050.5, -429930.66, 37403.01, -0.015112165, 0.31736958, -418925.84, -64753.32, 0.0, 9.998559, 10.000095 
2.5494513e+2, 2.738631e+2, -505832.53, -355162.72, 30168.326, -0.008146206, 0.3056576, -349346.66, -93174.016, 0.0, 9.998142, 10.000136 
2.5493488e+2, 2.838634e+2, -465665.66, -285746.56, 18833.172, 0.0064382073, 0.32497606, -283796.3, -125626.805, 0.0, 9.997748, 10.00013 
2.549245e+2, 2.9386395e+2, -419267.66, -211640.19, 21064.416, 0.025942644, 0.3655407, -209524.69, -149361.75, 0.0, 9.99739, 10.000138 
2.5491387e+2, 3.0386296e+2, -408400.2, -165296.28, 21363.447, 0.01875733, 0.24497184, -163433.17, -163433.17, 0.000000000039700524, 9.997061, 10.000279 
2.549037e+2, 3.138639e+2, -393993.3, -69135.07, 12901.595, 0.06522254, 0.31025285, -68623.49, -68623.49, 0.00000014491832, 9.996775, 10.001078 
2.6510054e+2, 1.2388307e+2, -1461273.3, -1755344.6, 38487.547, 0.0074612186, 0.27033764, -1456319.5, 269652.78, 0.00000026973817, 10.002443, 9.998545 
2.6508927e+2, 1.3388185e+2, -1377258.9, -1634303.1, 21724.559, 0.025303768, 0.2684016, -1375435.6, 252549.16, 0.0000000060296985, 10.002218, 9.998812 
2.6507798e+2, 1.4388068e+2, -1310936.3, -1555899.5, 50437.063, 0.00724497, 0.2736636, -1300957.9, 229038.94, 0.0, 10.00202, 9.998772 
2.650673e+2, 1.5387964e+2, -1236202.5, -1468313.1, 49310.777, 0.0011186621, 0.29003513, -1226161.1, 205846.67, 0.0, 10.001857, 9.998778 
2.650568e+2, 1.6387852e+2, -1170665.8, -1382594.8, 51290.76, 0.0006873393, 0.30055374, -1158905.0, 175114.58, 0.0, 10.001619, 9.998809 
2.650464e+2, 1.7387734e+2, -1121808.5, -1305493.9, 50423.75, 0.0049566827, 0.30056226, -1108877.0, 127154.91, 0.0, 10.00127, 9.998834 
2.6503605e+2, 1.8387638e+2, -1030541.75, -1151002.1, 51115.973, 0.007670705, 0.298541, -1011774.94, 126266.625, 0.0, 10.000966, 9.999368 
2.6502573e+2, 1.9387576e+2, -959891.56, -1056455.3, 47361.51, 0.0092687635, 0.29100847, -940540.2, 99506.19, 0.0, 10.000736, 9.9994545 
2.6501542e+2, 2.0387526e+2, -889142.9, -953177.8, 51910.0, 0.00696462, 0.29125884, -860170.5, 81879.93, 0.0, 10.00047, 9.9996195 
2.6500517e+2, 2.1387503e+2, -835379.9, -871877.2, 56388.563, -0.0019179203, 0.30073616, -794360.6, 49691.98, 0.0, 10.000146, 9.9996605 
2.64995e+2, 2.2387464e+2, -770949.06, -774446.0, 62688.473, -0.0067526023, 0.29234388, -709984.7, 36071.3, 0.0, 9.999848, 9.9998 
2.6498497e+2, 2.3387413e+2, -707899.2, -689133.56, 64677.61, -0.004828268, 0.2559221, -633161.75, 14898.656, 0.0, 9.999591, 9.999837 
2.649748e+2, 2.4387397e+2, -644545.9, -589845.5, 57299.527, -0.004141003, 0.25151312, -553703.44, -3641.4373, 0.0, 9.999275, 9.999998 
2.649644e+2, 2.538744e+2, -602611.3, -514266.4, 59735.164, -0.0062613063, 0.2905172, -484145.56, -32086.678, 0.0, 9.998871, 10.000038 
2.6495397e+2, 2.6387456e+2, -556686.2, -443825.16, 51603.49, -0.0073266067, 0.30699342, -423787.88, -69729.55, 0.0, 9.998524, 10.000016 
2.6494336e+2, 2.738745e+2, -494909.47, -361084.53, 48752.883, -0.0043361764, 0.2945288, -345207.38, -89147.234, 0.0, 9.998265, 10.000036 
2.6493275e+2, 2.8387472e+2, -435333.63, -273419.56, 36314.414, 0.007850648, 0.31478855, -265647.94, -107589.92, 0.0, 9.997967, 10.000109 
2.64922e+2, 2.9387534e+2, -388666.34, -197767.42, 30916.648, 0.027646435, 0.35923636, -192885.23, -132833.84, 0.0, 9.997604, 10.00013 
2.6491106e+2, 3.0387443e+2, -386370.56, -151551.8, 27975.635, 0.022597523, 0.24851213, -148264.86, -148264.86, 0.0, 9.997199, 10.000307 
2.649005e+2, 3.138756e+2, -401524.97, -74417.32, 23364.387, 0.07123757, 0.33100632, -72756.9, -72756.9, 0.000000037775372, 9.996731, 10.001062 
2.7510306e+2, 1.2389506e+2, -1458620.3, -1749486.9, 28365.861, 0.015224555, 0.2659632, -1455879.8, 269974.25, 0.00000012804327, 10.002441, 9.998586 
2.750916e+2, 1.3389379e+2, -1376868.5, -1633403.4, 13404.048, 0.03579767, 0.2578197, -1376170.1, 251696.69, 0.0000000018569922, 10.002218, 9.998817 
2.7508005e+2, 1.4389254e+2, -1317804.0, -1570069.3, 44157.914, 0.013117443, 0.26156914, -1310297.8, 219581.64, 0.0, 10.002019, 9.998674 
2.7506918e+2, 1.5389146e+2, -1243977.1, -1484276.3, 43215.715, 0.0021024528, 0.28431016, -1236441.5, 195449.83, 0.0, 10.001856, 9.99867 
2.7505842e+2, 1.6389033e+2, -1174012.9, -1389374.1, 38935.67, 0.00051375164, 0.30303603, -1167189.9, 166713.78, 0.0, 10.001618, 9.998762 
2.750477e+2, 1.7388923e+2, -1124514.8, -1311104.5, 37276.34, 0.009326767, 0.31370848, -1117343.4, 118572.055, 0.0, 10.00127, 9.9987955 
2.7503705e+2, 1.838882e+2, -1037673.9, -1165910.1, 42012.32, 0.0136013115, 0.3115978, -1025135.8, 112790.07, 0.0, 10.000967, 9.999265 
2.7502647e+2, 1.9388731e+2, -967606.44, -1072582.8, 38801.465, 0.012064437, 0.28770676, -954821.6, 85111.81, 0.0, 10.000737, 9.999344 
2.7501592e+2, 2.038867e+2, -883809.8, -942189.5, 40121.457, 0.0107148085, 0.27914813, -863383.3, 78555.07, 0.0, 10.00047, 9.999695 
2.7500543e+2, 2.138866e+2, -828395.75, -857485.75, 44201.1, 0.009156456, 0.291543, -796408.06, 47530.727, 0.0, 10.000147, 9.99976 
2.7499494e+2, 2.2388631e+2, -767763.6, -767929.3, 52698.94, 0.0035290988, 0.28566945, -715147.44, 30793.432, 0.0, 9.999848, 9.999845 
2.749845e+2, 2.3388585e+2, -705192.1, -683579.2, 54984.93, -0.007693935, 0.2510148, -638348.8, 9596.058, 0.0, 9.999591, 9.999875 
2.74974e+2, 2.4388576e+2, -638333.56, -576951.75, 42598.836, -0.009501687, 0.24767059, -555139.4, -5193.6543, 0.0, 9.999275, 10.000087 
2.7496338e+2, 2.5388628e+2, -595951.6, -500381.5, 44442.508, 0.0021603957, 0.28659898, -482909.0, -30967.72, 0.0, 9.99887, 10.000134 
2.7495262e+2, 2.6388648e+2, -558618.7, -447809.66, 41298.555, 0.004872339, 0.29897842, -434111.13, -80170.62, 0.0, 9.998524, 9.9999895 
2.7494162e+2, 2.7388623e+2, -497821.84, -367241.7, 39143.49, -0.003784443, 0.27636957, -356406.84, -100463.02, 0.0, 9.998266, 9.999993 
2.7493063e+2, 2.838864e+2, -442577.22, -288684.56, 23109.969, 0.0013420323, 0.29609075, -285289.1, -127346.18, 0.0, 9.997968, 10.000004 
2.7491957e+2, 2.9388702e+2, -396307.8, -213905.98, 17176.72, 0.02145133, 0.3548253, -212302.56, -152365.5, 0.0, 9.997605, 10.000019 
2.749082e+2, 3.0388626e+2, -381278.34, -141129.23, 10723.609, 0.019252788, 0.26258403, -140651.33, -140651.33, 0.0, 9.997199, 10.000379 
2.7489725e+2, 3.1388775e+2, -398465.3, -67834.38, 5197.1084, 0.070794605, 0.36715102, -67752.71, -67752.71, 0.00000000643165, 9.99673, 10.001108 
2.851055e+2, 1.2390727e+2, -1471064.8, -1758986.6, 40284.1, 0.022325493, 0.25674367, -1465534.8, 260198.5, 0.000000073181255, 10.002371, 9.998554 
2.8509384e+2, 1.339059e+2, -1376200.1, -1640869.1, 21774.605, 0.039520178, 0.24633664, -1374420.6, 253326.23, 0.00000000048290855, 10.002256, 9.998748 
2.8508207e+2, 1.439046e+2, -1315479.1, -1576572.9, 48081.805, 0.011706038, 0.25115302, -1306906.1, 222854.2, 0.0, 10.0020685, 9.998607 
2.8507102e+2, 1.5390353e+2, -1262308.9, -1500594.3, 49765.336, 0.0040232292, 0.28205705, -1252333.1, 179439.55, 0.0, 10.001762, 9.998603 
2.8506e+2, 1.639024e+2, -1189995.4, -1398777.9, 47759.313, 0.0037899762, 0.30619735, -1179589.1, 154196.13, 0.0, 10.001516, 9.998748 
2.8504905e+2, 1.7390132e+2, -1111162.9, -1305655.9, 48213.742, 0.010753741, 0.31804782, -1099867.0, 135930.02, 0.0, 10.001366, 9.998786 
2.850381e+2, 1.8390024e+2, -1013710.2, -1160708.8, 55307.88, 0.014017411, 0.3151236, -995225.2, 142582.77, 0.0, 10.001159, 9.999208 
2.850273e+2, 1.9389926e+2, -953277.2, -1072693.3, 55598.375, 0.012787152, 0.2876646, -931399.5, 108417.06, 0.0, 10.000866, 9.999281 
2.8501645e+2, 2.038986e+2, -869164.9, -930452.94, 55268.47, 0.012542817, 0.2747037, -836613.5, 105208.51, 0.0, 10.00055, 9.999737 
2.8500563e+2, 2.1389847e+2, -816142.9, -845490.56, 55772.465, 0.01330284, 0.2814664, -773146.2, 70675.68, 0.0, 10.000205, 9.999814 
2.8499484e+2, 2.2389822e+2, -760304.44, -758141.75, 64480.58, 0.008466986, 0.27388415, -694733.5, 51089.836, 0.0, 9.999873, 9.9999 
2.8498414e+2, 2.3389786e+2, -705116.75, -677377.8, 68223.43, -0.004343352, 0.24353763, -621628.3, 26198.049, 0.0, 9.999565, 9.99993 
2.849733e+2, 2.4389784e+2, -635701.94, -568818.75, 53357.53, -0.0063943723, 0.24230106, -539289.2, 10537.2, 0.0, 9.999264, 10.000148 
2.8496236e+2, 2.538984e+2, -576651.25, -484110.9, 52340.445, 0.007093571, 0.27991515, -460520.88, -8699.534, 0.0, 9.998973, 10.000196 
2.8495124e+2, 2.638986e+2, -538945.5, -436151.8, 50438.516, 0.008563195, 0.2893663, -415537.0, -61716.71, 0.0, 9.99865, 10.000009 
2.849399e+2, 2.7389833e+2, -495328.5, -364339.1, 52640.066, -0.006117602, 0.26139683, -345806.84, -89982.98, 0.0, 9.998276, 10.000009 
2.8492856e+2, 2.838985e+2, -452111.03, -303448.8, 39487.348, -0.0020871756, 0.28265443, -293611.25, -135787.81, 0.0, 9.997946, 9.999913 
2.849172e+2, 2.9389915e+2, -392524.0, -223696.92, 34121.258, 0.024737462, 0.35380834, -217061.55, -157243.11, 0.0, 9.997682, 9.999915 
2.8490555e+2, 3.0389842e+2, -350620.13, -124156.88, 23687.79, 0.026441818, 0.27023894, -121705.695, -121705.695, 0.0, 9.9974, 10.000399 
2.8489417e+2, 3.138999e+2, -346672.3, -44465.023, 12652.923, 0.07335928, 0.37369365, -43936.19, -43936.19, 0.00000000043435586, 9.997092, 10.001095 
2.9510793e+2, 1.2391969e+2, -1478219.0, -1773849.3, 33703.902, 0.028239392, 0.24313332, -1474425.3, 251184.73, 0.000000040732502, 10.002371, 9.998453 
2.9509607e+2, 1.339182e+2, -1386345.0, -1661917.9, 17611.016, 0.036450256, 0.23413245, -1385224.1, 242401.13, 0.0000000000036468957, 10.002256, 9.998604 
2.9508406e+2, 1.4391685e+2, -1318392.5, -1582497.0, 37451.258, 0.0029861208, 0.24246818, -1313184.5, 216455.27, 0.0, 10.002068, 9.998567 
2.950728e+2, 1.5391584e+2, -1264285.4, -1504555.6, 38254.35, 0.0066311825, 0.2833901, -1258341.8, 173310.03, 0.0, 10.001761, 9.998576 
2.9506156e+2, 1.6391474e+2, -1189041.9, -1396677.1, 41505.75, 0.010245601, 0.31016892, -1181052.4, 152611.94, 0.0, 10.001515, 9.998762 
2.9505038e+2, 1.7391358e+2, -1109859.5, -1302833.1, 42653.97, 0.009174078, 0.31373602, -1100851.9, 134824.83, 0.0, 10.001366, 9.998806 
2.950392e+2, 1.839125e+2, -1014650.8, -1162549.8, 44858.297, 0.008921204, 0.3093195, -1002108.75, 135578.95, 0.0, 10.001158, 9.999196 
2.9502812e+2, 1.939116e+2, -954473.7, -1075140.3, 44572.473, 0.011399683, 0.29096824, -939794.9, 99900.91, 0.0, 10.000865, 9.999265 
2.95017e+2, 2.039109e+2, -868662.44, -929402.56, 42451.125, 0.012380602, 0.2778845, -846836.3, 94864.87, 0.0, 10.00055, 9.999744 
2.950058e+2, 2.1391065e+2, -815452.06, -844082.2, 42761.594, 0.01045945, 0.2704899, -784673.06, 59028.84, 0.0, 10.000204, 9.999824 
2.949947e+2, 2.2391039e+2, -755819.94, -748877.25, 52689.66, 0.008023745, 0.25702593, -699544.7, 46158.555, 0.0, 9.999873, 9.999964 
2.9498377e+2, 2.3391016e+2, -700079.2, -666999.6, 56615.49, 0.005246288, 0.23350938, -624557.4, 23147.379, 0.0, 9.999565, 10.000002 
2.949727e+2, 2.4391024e+2, -633523.25, -564355.4, 42282.03, 0.005139258, 0.2353571, -544314.94, 5388.9604, 0.0, 9.999264, 10.000178 
2.949613e+2, 2.539108e+2, -574781.2, -480317.25, 41381.934, 0.0083600925, 0.2703788, -464753.34, -13054.284, 0.0, 9.998973, 10.000223 
2.9494983e+2, 2.6391104e+2, -534243.3, -426473.7, 36628.242, 0.0035285102, 0.2781136, -415203.28, -61505.586, 0.0, 9.99865, 10.000075 
2.949381e+2, 2.7391082e+2, -490319.63, -353880.97, 38529.117, -0.011421165, 0.24969491, -343752.53, -88052.305, 0.0, 9.998276, 10.000081 
2.949265e+2, 2.8391102e+2, -457624.06, -314825.8, 29139.555, -0.0023790617, 0.27463517, -309108.47, -151408.88, 0.0, 9.997946, 9.999835 
2.9491502e+2, 2.939117e+2, -399128.0, -237521.42, 24244.45, 0.037759736, 0.35633647, -233962.6, -174267.13, 0.0, 9.997682, 9.99982 
2.9490313e+2, 3.0391088e+2, -353012.16, -129453.54, 12416.091, 0.0443985, 0.27115792, -128766.086, -128766.086, 0.0, 9.997401, 10.000362 
2.9489133e+2, 3.139121e+2, -351616.1, -55472.105, 763.941, 0.0785795, 0.34868222, -55470.137, -55470.137, 0.0, 9.997095, 10.001018 
3.0511022e+2, 1.2393215e+2, -1457176.5, -1760480.9, 26387.3, 0.013888109, 0.23147053, -1454897.9, 270589.03, 0.000000022140249, 10.002502, 9.998482 
3.050983e+2, 1.3393065e+2, -1384792.6, -1661449.3, 22870.053, 0.034839787, 0.22118531, -1382914.9, 244587.4, 0.0, 10.002269, 9.998601 
3.0508608e+2, 1.4392927e+2, -1325345.4, -1588256.1, 45346.05, 0.004923572, 0.22972809, -1317744.0, 211772.92, 0.0, 10.00203, 9.998545 
3.0507457e+2, 1.5392831e+2, -1263650.3, -1506830.4, 45971.215, 0.01019416, 0.2770362, -1255250.0, 176279.02, 0.0, 10.001777, 9.998553 
3.050631e+2, 1.6392723e+2, -1189204.4, -1396935.5, 51136.84, 0.013625556, 0.3066993, -1177298.5, 156243.13, 0.0, 10.001515, 9.998761 
3.0505165e+2, 1.7392606e+2, -1127615.9, -1311247.3, 51194.74, 0.009444657, 0.30804363, -1114307.8, 121246.6, 0.0, 10.001243, 9.998808 
3.0504024e+2, 1.8392502e+2, -1037767.4, -1169338.6, 52404.8, 0.0070476127, 0.30622268, -1019445.9, 118119.08, 0.0, 10.00098, 9.999235 
3.050289e+2, 1.9392423e+2, -970278.94, -1077863.6, 56325.64, 0.00894231, 0.29784608, -946185.5, 93386.31, 0.0, 10.000736, 9.999309 
3.050175e+2, 2.0392361e+2, -874051.8, -929757.25, 56776.977, 0.010635321, 0.28597394, -838663.75, 102912.984, 0.0, 10.000504, 9.9997635 
3.0500606e+2, 2.1392326e+2, -801581.3, -835455.1, 57620.727, 0.011278442, 0.26663175, -758459.9, 85118.17, 0.0, 10.000292, 9.999841 
3.049947e+2, 2.2392294e+2, -733382.5, -734436.1, 64599.523, 0.011341387, 0.2456033, -669307.6, 76271.88, 0.0, 10.000012, 9.999996 
3.0498344e+2, 2.3392273e+2, -688022.4, -657315.1, 65454.95, 0.010946911, 0.22128472, -605437.2, 42143.387, 0.0, 9.999631, 10.000036 
3.04972e+2, 2.4392281e+2, -631372.25, -563183.7, 50063.992, 0.010624973, 0.22280256, -536707.2, 12872.354, 0.0, 9.999278, 10.000179 
3.049603e+2, 2.539234e+2, -575782.75, -481166.13, 47074.168, 0.009717165, 0.25810385, -461735.75, -10160.804, 0.0, 9.998968, 10.000219 
3.0494848e+2, 2.6392365e+2, -528281.1, -415960.6, 39696.848, 0.0043892562, 0.26714286, -403347.22, -49773.95, 0.0, 9.998658, 10.000144 
3.0493644e+2, 2.7392355e+2, -474566.7, -337718.53, 41697.152, -0.0056872, 0.24157745, -326014.53, -70440.04, 0.0, 9.998347, 10.000157 
3.0492458e+2, 2.839238e+2, -442287.9, -313166.47, 36866.59, 0.005942147, 0.27009887, -303381.84, -145808.42, 0.0, 9.9980755, 9.9997835 
3.0491287e+2, 2.9392445e+2, -377198.06, -234257.55, 34589.656, 0.045510013, 0.3569918, -226327.3, -166757.13, 0.0, 9.997864, 9.999755 
3.0490074e+2, 3.0392358e+2, -316340.7, -116420.84, 23928.025, 0.051387347, 0.27143493, -113596.836, -113596.836, 0.0, 9.997673, 10.00032 
3.048886e+2, 3.1392458e+2, -297017.88, -38890.367, 11141.924, 0.079582214, 0.33322582, -38410.33, -38410.33, 0.0, 9.997512, 10.000931 
3.1511235e+2, 1.2394465e+2, -1447040.1, -1738672.9, 15565.8955, -0.020251462, 0.22165011, -1446211.6, 279152.6, 0.00000002336468, 10.002499, 9.998632 
3.1510055e+2, 1.3394323e+2, -1375903.9, -1642460.4, 14407.049, 0.03441649, 0.20766221, -1375127.5, 252250.38, 0.0, 10.002266, 9.998733 
3.150882e+2, 1.4394192e+2, -1325894.8, -1589031.3, 36009.453, 0.016977692, 0.21320194, -1321055.9, 208335.84, 0.0, 10.002028, 9.998541 
3.1507638e+2, 1.5394096e+2, -1265200.9, -1509819.4, 36482.438, 0.0144465035, 0.26324332, -1259875.8, 171528.44, 0.0, 10.001776, 9.998533 
3.150646e+2, 1.639399e+2, -1190582.5, -1399646.5, 40970.266, 0.013808857, 0.29602212, -1182840.3, 150576.78, 0.0, 10.001514, 9.998743 
3.1505293e+2, 1.7393874e+2, -1128914.9, -1313831.5, 40996.25, 0.011406461, 0.30107078, -1120233.5, 115196.336, 0.0, 10.001242, 9.998791 
3.1504124e+2, 1.8393779e+2, -1031522.75, -1156363.8, 43112.98, 0.008235441, 0.30584675, -1018081.2, 119358.5, 0.0, 10.00098, 9.999325 
3.1502956e+2, 1.9393723e+2, -963150.44, -1063110.0, 47133.582, 0.0053756475, 0.30826005, -944431.2, 95013.46, 0.0, 10.000735, 9.99941 
3.1501794e+2, 2.039367e+2, -871736.8, -925001.75, 48673.53, 0.00729349, 0.29894587, -842885.94, 98562.62, 0.0, 10.000504, 9.999797 
3.1500638e+2, 2.1393627e+2, -799891.44, -832012.06, 49642.297, 0.015673894, 0.2698871, -763776.2, 79674.086, 0.0, 10.000292, 9.999865 
3.1499475e+2, 2.2393587e+2, -733422.7, -734591.4, 50913.063, 0.018280352, 0.2396028, -683090.6, 62361.555, 0.0, 10.000012, 9.999995 
3.1498307e+2, 2.3393558e+2, -688228.3, -657811.75, 51038.25, 0.012671635, 0.20680344, -619764.06, 27689.64, 0.0, 9.999631, 10.000033 
3.1497124e+2, 2.4393561e+2, -633504.1, -567679.9, 38041.938, 0.009981822, 0.20457587, -550289.0, -835.8283, 0.0, 9.999278, 10.000149 
3.1495926e+2, 2.539362e+2, -578147.94, -486110.97, 35333.617, 0.01112545, 0.2430923, -474110.78, -22661.77, 0.0, 9.998968, 10.000186 
3.1494722e+2, 2.639365e+2, -523509.38, -406083.5, 27951.81, 0.011180651, 0.25651932, -399769.44, -46322.473, 0.0, 9.998657, 10.000212 
3.1493494e+2, 2.7393654e+2, -468861.38, -325959.28, 29966.156, 0.011246811, 0.2371533, -319929.84, -64483.23, 0.0, 9.998347, 10.000238 
3.149228e+2, 2.8393686e+2, -443979.75, -316871.44, 28482.973, 0.022940984, 0.26913878, -310780.7, -153335.75, 0.0, 9.998076, 9.999759 
3.1491074e+2, 2.9393747e+2, -379544.78, -239436.44, 26653.51, 0.047693726, 0.3556929, -234537.31, -175094.81, 0.0, 9.997865, 9.999719 
3.1489834e+2, 3.0393657e+2, -319333.28, -123198.234, 17773.08, 0.046928972, 0.27104777, -121600.71, -121600.71, 0.0, 9.997675, 10.000273 
3.1488606e+2, 3.1393743e+2, -303186.13, -52710.473, 4901.933, 0.07549813, 0.32710752, -52614.574, -52614.574, 0.0, 9.997516, 10.000834 
3.2511467e+2, 1.23957574e+2, -1465788.4, -1738266.4, 35768.816, -0.034116738, 0.21182682, -1461171.1, 264065.8, 0.00000007294155, 10.002329, 9.998717 
3.2510272e+2, 1.3395625e+2, -1392423.4, -1643744.0, 32032.654, 0.034152117, 0.20090199, -1388404.9, 238844.5, 0.00000000003860718, 10.002124, 9.998793 
3.2509023e+2, 1.4395495e+2, -1345502.8, -1601952.9, 48698.7, 0.019875024, 0.20520324, -1336566.5, 192696.7, 0.0, 10.001909, 9.998509 
3.2507813e+2, 1.5395392e+2, -1283843.6, -1523455.9, 47376.367, 0.01592944, 0.25326425, -1274816.5, 156460.03, 0.0, 10.001668, 9.998491 
3.2506606e+2, 1.6395284e+2, -1203087.5, -1403651.1, 51548.69, 0.014055952, 0.2867575, -1190614.3, 142675.33, 0.0, 10.00142, 9.998761 
3.250541e+2, 1.7395175e+2, -1138662.1, -1315769.5, 54587.832, 0.010693709, 0.2965275, -1123189.0, 112112.74, 0.0, 10.0011635, 9.998815 
3.2504216e+2, 1.8395084e+2, -1039274.8, -1159409.8, 56872.676, 0.0055673793, 0.30325702, -1016622.25, 120689.06, 0.0, 10.000924, 9.9993305 
3.2503024e+2, 1.9395025e+2, -966356.1, -1064208.0, 53730.72, -0.0007713619, 0.30346498, -942613.4, 96703.37, 0.0, 10.000711, 9.9994135 
3.2501838e+2, 2.0394975e+2, -871433.9, -917656.44, 51800.51, 0.00077008485, 0.2947847, -837822.8, 103497.51, 0.0, 10.000475, 9.999861 
3.250066e+2, 2.1394944e+2, -808023.25, -828022.3, 56131.793, 0.013393773, 0.2706194, -761007.25, 82313.37, 0.0, 10.000202, 9.999935 
3.249947e+2, 2.2394909e+2, -745398.1, -737821.94, 56915.797, 0.018728737, 0.23956938, -684568.3, 60753.64, 0.0, 9.999919, 10.000018 
3.249827e+2, 2.3394874e+2, -688278.2, -655890.5, 58142.516, 0.013533902, 0.19758663, -611728.8, 35595.227, 0.0, 9.999622, 10.000051 
3.2497057e+2, 2.4394873e+2, -623807.3, -562101.0, 49136.684, 0.01217941, 0.19138104, -534934.06, 14389.572, 0.0, 9.999341, 10.000156 
3.2495835e+2, 2.5394934e+2, -560996.1, -477014.1, 49680.81, 0.016097654, 0.23366128, -453955.7, -2636.5454, 0.0, 9.999083, 10.000193 
3.2494602e+2, 2.6394966e+2, -499675.72, -395963.5, 41405.242, 0.019314412, 0.24936242, -381461.13, -28144.135, 0.0, 9.998827, 10.000199 
3.2493353e+2, 2.739497e+2, -436090.97, -311665.53, 36227.22, 0.022944797, 0.22992761, -301886.34, -46569.33, 0.0, 9.998579, 10.000225 
3.2492113e+2, 2.8395003e+2, -408660.22, -305041.3, 32254.568, 0.034296677, 0.26414403, -295821.47, -138505.81, 0.0, 9.998342, 9.999712 
3.249088e+2, 2.9395065e+2, -345617.25, -228460.45, 29676.38, 0.05307922, 0.35685256, -221372.14, -162058.66, 0.0, 9.998121, 9.999671 
3.248962e+2, 3.039498e+2, -282333.25, -107690.016, 23569.664, 0.050742574, 0.27960116, -104565.0, -104565.0, 0.0, 9.99794, 10.000252 
3.2488376e+2, 3.1395066e+2, -264469.06, -41231.555, 12955.548, 0.07896492, 0.33498707, -40482.195, -40482.195, 0.0, 9.997813, 10.00077 
3.35117e+2, 1.23970896e+2, -1465089.9, -1735877.5, 25278.549, -0.029130677, 0.20204137, -1462750.3, 262355.06, 0.00000025481785, 10.002325, 9.998735 
3.3510485e+2, 1.3396966e+2, -1393411.4, -1645345.5, 24426.654, 0.033605058, 0.20058277, -1391065.0, 236052.02, 0.0000000058941185, 10.002121, 9.998783 
3.3509207e+2, 1.4396833e+2, -1349762.9, -1610504.0, 39752.785, 0.013651487, 0.20534125, -1343836.9, 185294.3, 0.0, 10.001907, 9.998451 
3.3507976e+2, 1.5396716e+2, -1288459.6, -1532788.8, 38302.902, 0.0145680355, 0.24695796, -1282595.6, 148550.25, 0.0, 10.001667, 9.998428 
3.350675e+2, 1.6396606e+2, -1199512.3, -1396071.9, 41933.285, 0.014240754, 0.27885923, -1190940.1, 142219.16, 0.0, 10.001419, 9.998814 
3.3505523e+2, 1.739651e+2, -1134155.6, -1306430.5, 44947.418, 0.007237364, 0.2943509, -1123133.8, 112036.23, 0.0, 10.001163, 9.998879 
3.35043e+2, 1.8396418e+2, -1044618.56, -1170570.1, 48711.2, -0.0010067654, 0.29840064, -1027978.2, 109201.73, 0.0, 10.000924, 9.999254 
3.3503085e+2, 1.9396333e+2, -972950.2, -1077908.6, 45788.66, -0.00954064, 0.2835731, -955782.6, 83405.34, 0.0, 10.000711, 9.99932 
3.3501872e+2, 2.0396282e+2, -864764.6, -903791.56, 41751.14, -0.008994923, 0.27365792, -838191.94, 102999.95, 0.0, 10.000475, 9.999956 
3.3500668e+2, 2.1396282e+2, -799835.2, -811067.25, 45855.887, 0.0043777837, 0.2689021, -759252.7, 83936.44, 0.0, 10.000202, 10.0000515 
3.3499455e+2, 2.2396263e+2, -742233.44, -731337.1, 45825.906, 0.012603947, 0.24551341, -690636.7, 54552.184, 0.0, 9.999919, 10.000062 
3.349823e+2, 2.339622e+2, -685670.8, -650566.9, 46972.633, 0.01347197, 0.1936807, -617974.06, 29217.44, 0.0, 9.999623, 10.000087 
3.3496997e+2, 2.439622e+2, -620546.94, -555468.9, 39201.51, 0.017158644, 0.18332401, -537061.4, 12129.588, 0.0, 9.999342, 10.000202 
3.3495748e+2, 2.5396293e+2, -557546.6, -470003.63, 39934.645, 0.024645891, 0.22991344, -454523.8, -3338.4946, 0.0, 9.999083, 10.000241 
3.349449e+2, 2.6396322e+2, -506272.63, -409882.44, 31980.691, 0.028763028, 0.24569872, -400236.97, -47053.61, 0.0, 9.998828, 10.000104 
3.3493215e+2, 2.7396306e+2, -443705.7, -327813.28, 26844.326, 0.029203853, 0.21975115, -321897.28, -66711.61, 0.0, 9.99858, 10.0001135 
3.349195e+2, 2.8396332e+2, -413189.84, -314890.8, 23809.008, 0.039767865, 0.25496727, -309427.66, -152242.05, 0.0, 9.9983425, 9.999643 
3.34907e+2, 2.93964e+2, -349608.0, -237233.05, 21386.03, 0.061710633, 0.36057842, -233300.69, -174117.52, 0.0, 9.998122, 9.99961 
3.3489427e+2, 3.0396324e+2, -281693.34, -106948.63, 18456.254, 0.06303016, 0.29741102, -105020.586, -105020.586, 0.0, 9.997942, 10.000256 
3.348817e+2, 3.1396413e+2, -266360.84, -45983.582, 7968.167, 0.08966091, 0.35669464, -45695.85, -45695.85, 0.0, 9.997816, 10.000735 
3.451192e+2, 1.2398436e+2, -1494165.6, -1749284.6, 22065.777, -0.03026432, 0.19856903, -1492271.3, 232701.39, 0.00000066099744, 10.002123, 9.998741 
3.4510684e+2, 1.339831e+2, -1411913.1, -1656543.0, 23377.75, 0.029191557, 0.1980082, -1409699.1, 217285.53, 0.000000050287014, 10.002005, 9.998762 
3.4509385e+2, 1.4398174e+2, -1359043.3, -1611237.8, 37742.027, 0.00590852, 0.19934072, -1353516.1, 175483.05, 0.0000000000012273421, 10.001827, 9.998485 
3.4508136e+2, 1.539806e+2, -1302459.3, -1535114.6, 43256.074, 0.013180484, 0.23768915, -1294677.3, 136336.3, 0.0, 10.001552, 9.998467 
3.4506884e+2, 1.639795e+2, -1213999.3, -1402024.3, 51077.11, 0.014867739, 0.2690187, -1201020.0, 132006.63, 0.0, 10.001315, 9.998822 
3.4505633e+2, 1.7397858e+2, -1137011.4, -1307212.6, 49842.418, 0.003349474, 0.28809434, -1123489.5, 111547.64, 0.0, 10.001141, 9.998884 
3.450439e+2, 1.8397766e+2, -1044424.0, -1169728.9, 52728.56, -0.006129028, 0.29309732, -1025188.56, 111858.54, 0.0, 10.000922, 9.999261 
3.450315e+2, 1.939768e+2, -983315.06, -1082238.1, 57070.688, -0.010995714, 0.2753782, -957255.06, 81800.34, 0.0, 10.000638, 9.999326 
3.4501913e+2, 2.039763e+2, -879163.8, -908241.94, 54075.652, -0.009737935, 0.26503053, -837706.8, 103352.49, 0.0, 10.000365, 9.999979 
3.450068e+2, 2.1397637e+2, -811415.7, -814020.6, 51205.246, -0.000016851449, 0.26358104, -761496.4, 81559.74, 0.0, 10.000111, 10.000075 
3.4499443e+2, 2.2397621e+2, -749216.0, -729629.94, 46557.914, 0.008250855, 0.24228409, -691846.25, 53209.082, 0.0, 9.999849, 10.000108 
3.449819e+2, 2.3397583e+2, -689011.06, -646900.4, 48394.188, 0.014568634, 0.19078134, -615179.56, 31877.934, 0.0, 9.9995775, 10.0001335 
3.4496936e+2, 2.4397588e+2, -616830.06, -548940.44, 43292.02, 0.02221161, 0.17891462, -527872.06, 21184.445, 0.0, 9.999347, 10.000245 
3.449567e+2, 2.5397658e+2, -540749.44, -457188.16, 43855.645, 0.031472128, 0.22117826, -438397.03, 12653.483, 0.0, 9.999178, 10.000283 
3.4494388e+2, 2.639769e+2, -489454.72, -410690.0, 35235.656, 0.03612153, 0.23892556, -397228.03, -44179.426, 0.0, 9.998982, 10.000024 
3.449309e+2, 2.7397677e+2, -425792.75, -329612.7, 31298.633, 0.03514277, 0.22392823, -320324.53, -65272.93, 0.0, 9.998748, 10.00002 
3.44918e+2, 2.83977e+2, -387477.94, -303515.94, 31906.822, 0.04593703, 0.26212114, -292766.97, -135714.78, 0.0, 9.998524, 9.999635 
3.449053e+2, 2.9397756e+2, -321557.78, -223534.08, 34351.703, 0.070890754, 0.35974586, -212694.44, -153644.19, 0.0, 9.998315, 9.999611 
3.4489232e+2, 3.0397686e+2, -255700.28, -93136.39, 36190.395, 0.07119193, 0.2985884, -85443.625, -85443.625, 0.0, 9.998116, 10.000267 
3.448795e+2, 3.139778e+2, -252540.39, -43043.434, 25679.04, 0.085103646, 0.362235, -39941.75, -39941.75, 0.0, 9.997928, 10.000702 
3.5512125e+2, 1.2399796e+2, -1495458.9, -1750942.9, 14424.319, -0.037760872, 0.20097272, -1494647.0, 230191.77, 0.0000013452728, 10.002118, 9.998732 
3.5510877e+2, 1.3399659e+2, -1414614.4, -1661493.1, 19129.82, 0.020890202, 0.1931815, -1413140.8, 213711.56, 0.00000017487064, 10.002001, 9.99873 
3.550956e+2, 1.439952e+2, -1350941.0, -1593952.0, 27968.56, -0.0034869185, 0.18737608, -1347763.6, 181103.6, 0.0000000006565857, 10.001825, 9.998605 
3.550829e+2, 1.5399419e+2, -1292983.5, -1515212.6, 32809.02, 0.01155972, 0.22546354, -1288240.9, 142638.44, 0.0, 10.001551, 9.998605 
3.5507017e+2, 1.6399316e+2, -1216580.6, -1407257.0, 44079.7, 0.015772087, 0.2572051, -1206883.6, 126007.875, 0.0, 10.001314, 9.998787 
3.5505745e+2, 1.739922e+2, -1141000.1, -1315281.4, 43338.39, -0.0010225055, 0.2778089, -1130818.1, 104085.13, 0.0, 10.00114, 9.99883 
3.5504475e+2, 1.8399133e+2, -1038417.5, -1157034.4, 42431.906, -0.009862966, 0.28738782, -1024801.6, 112111.26, 0.0, 10.000921, 9.999349 
3.550322e+2, 1.9399068e+2, -976147.9, -1067277.9, 46390.387, -0.005291263, 0.27875465, -956688.0, 82231.016, 0.0, 10.000637, 9.999429 
3.550196e+2, 2.039902e+2, -882866.44, -915963.9, 44388.11, -0.0016138969, 0.26874742, -852042.56, 88879.96, 0.0, 10.000365, 9.999926 
3.550069e+2, 2.1399006e+2, -816308.25, -824242.7, 41667.223, 0.00009852485, 0.2545712, -778419.8, 64501.723, 0.0, 10.000111, 10.000005 
3.549942e+2, 2.2398987e+2, -746113.25, -723255.25, 36359.28, 0.0055821706, 0.22986096, -696571.0, 48350.426, 0.0, 9.999849, 10.000152 
3.549815e+2, 2.3398966e+2, -684992.1, -638644.44, 38128.875, 0.01678989, 0.18892881, -617199.5, 29722.492, 0.0, 9.9995775, 10.000191 
3.5496876e+2, 2.4398975e+2, -614157.94, -543529.44, 36509.652, 0.027264928, 0.1781581, -528049.5, 20870.746, 0.0, 9.999347, 10.000282 
3.549559e+2, 2.5399035e+2, -538182.9, -452027.9, 37466.496, 0.0364245, 0.20732643, -438014.16, 12900.592, 0.0, 9.999178, 10.000319 
3.549429e+2, 2.6399073e+2, -493923.84, -420172.38, 26578.076, 0.041247845, 0.22903994, -411592.5, -58679.71, 0.0, 9.998982, 9.999958 
3.5492966e+2, 2.7399078e+2, -431032.0, -340701.03, 22416.824, 0.040722348, 0.24290307, -335443.97, -80529.15, 0.0, 9.998749, 9.999944 
3.549166e+2, 2.8399104e+2, -383782.6, -296062.2, 23954.64, 0.052768216, 0.2860271, -289946.97, -133031.58, 0.0, 9.998525, 9.999685 
3.549037e+2, 2.939914e+2, -316703.84, -213743.66, 26583.002, 0.08054751, 0.35410672, -207285.38, -148370.64, 0.0, 9.998316, 9.999679 
3.548905e+2, 3.0399063e+2, -254365.0, -90723.32, 29110.766, 0.07484833, 0.2824335, -85698.98, -85698.98, 0.0, 9.9981165, 10.000283 
3.548772e+2, 3.139916e+2, -254674.64, -47870.773, 18718.19, 0.06365791, 0.3491379, -46190.215, -46190.215, 0.0, 9.997929, 10.000669 
3.6512324e+2, 1.24011576e+2, -1529259.1, -1764825.9, 15963.194, -0.038991008, 0.19426216, -1528182.3, 196522.55, 0.000002293197, 10.001876, 9.998754 
3.6511064e+2, 1.3401026e+2, -1448514.9, -1677631.1, 26646.752, 0.019039886, 0.19054401, -1445456.6, 181261.86, 0.00000039420158, 10.001768, 9.998732 
3.6509725e+2, 1.4400887e+2, -1370855.0, -1592167.9, 32187.293, -0.0077151298, 0.18304455, -1366268.9, 162464.1, 0.000000005977529, 10.00164, 9.998706 
3.6508438e+2, 1.5400796e+2, -1296563.9, -1504148.3, 34729.684, 0.010437247, 0.2176328, -1290907.5, 139836.1, 0.0, 10.001471, 9.998718 
3.6507145e+2, 1.64007e+2, -1227171.0, -1411164.6, 45543.254, 0.0150880525, 0.24757837, -1216515.0, 116240.125, 0.0, 10.001237, 9.998797 
3.6505842e+2, 1.7400603e+2, -1174438.9, -1331373.9, 48676.023, -0.0051344633, 0.2688607, -1160567.3, 74199.96, 0.0, 10.000911, 9.99883 
3.6504546e+2, 1.8400525e+2, -1071878.9, -1161614.4, 51019.633, -0.014780561, 0.28242686, -1048804.6, 87971.555, 0.0, 10.000642, 9.999452 
3.650327e+2, 1.9400479e+2, -994102.9, -1063182.1, 55795.348, -0.007220408, 0.28265873, -963021.56, 75758.516, 0.0, 10.000459, 9.999542 
3.650199e+2, 2.0400435e+2, -897756.06, -929085.7, 55222.367, -0.002284018, 0.27195987, -856019.7, 84763.53, 0.0, 10.000289, 9.999872 
3.6500698e+2, 2.1400398e+2, -817985.2, -833097.4, 52381.51, -0.001928863, 0.24301618, -772617.56, 70167.11, 0.0, 10.000134, 9.999932 
3.6499408e+2, 2.2400373e+2, -730910.9, -715754.1, 44096.78, 0.0023003407, 0.2172177, -678589.25, 66196.09, 0.0, 9.999953, 10.000153 
3.649811e+2, 2.3400372e+2, -661588.9, -626287.44, 42054.1, 0.012498322, 0.19524993, -598330.06, 48454.11, 0.0, 9.999734, 10.0002 
3.6496815e+2, 2.4400388e+2, -592019.44, -531102.25, 38638.965, 0.024756646, 0.18817094, -512360.28, 36421.664, 0.0, 9.999492, 10.000298 
3.6495513e+2, 2.540043e+2, -531008.6, -446709.3, 38147.816, 0.039652005, 0.1986013, -432009.63, 18768.172, 0.0, 9.99922, 10.000335 
3.6494195e+2, 2.6400465e+2, -493715.6, -420118.16, 29124.824, 0.04836882, 0.21683535, -409987.13, -57211.08, 0.0, 9.998984, 9.999958 
3.649285e+2, 2.7400488e+2, -422971.44, -337014.1, 30536.44, 0.04901185, 0.24931423, -327270.47, -72493.664, 0.0, 9.998805, 9.999942 
3.6491525e+2, 2.840052e+2, -364807.53, -283927.25, 35430.68, 0.060368776, 0.29707134, -270601.8, -113824.93, 0.0, 9.998642, 9.999712 
3.6490214e+2, 2.9400542e+2, -287031.8, -195883.16, 35477.293, 0.08499052, 0.34994036, -183702.33, -124925.49, 0.0, 9.998505, 9.99971 
3.6488873e+2, 3.0400464e+2, -223462.7, -78707.17, 34314.035, 0.07596283, 0.27380356, -70985.03, -70985.03, 0.0, 9.998342, 10.0002575 
3.6487514e+2, 3.1400555e+2, -229008.89, -43814.477, 20602.459, 0.055341404, 0.3372815, -41550.184, -41550.184, 0.0, 9.99814, 10.000594 
3.7512514e+2, 1.24025226e+2, -1526088.1, -1757782.9, 8647.2, -0.03459837, 0.17875247, -1525765.9, 198804.72, 0.000003431768, 10.001874, 9.998803 
3.751124e+2, 1.340241e+2, -1446522.1, -1673141.0, 22957.584, 0.023186767, 0.18998659, -1444219.8, 182363.06, 0.0000006949508, 10.001766, 9.998763 
3.750989e+2, 1.4402281e+2, -1365295.9, -1580265.3, 26174.37, -0.0070863194, 0.18595958, -1362154.8, 166441.72, 0.00000001953993, 10.001638, 9.998789 
3.750858e+2, 1.5402189e+2, -1290595.1, -1491421.6, 28405.152, 0.009718316, 0.21401206, -1286654.9, 143951.66, 0.0, 10.00147, 9.998807 
3.7507263e+2, 1.6402097e+2, -1223489.8, -1403260.3, 33785.36, 0.012776719, 0.24005803, -1217349.9, 115267.555, 0.0, 10.001235, 9.998853 
3.7505928e+2, 1.7402005e+2, -1170881.1, -1323951.5, 36393.074, -0.009132056, 0.26116046, -1162669.1, 71960.22, 0.0, 10.00091, 9.99888 
3.7504604e+2, 1.8401939e+2, -1063650.5, -1144663.0, 43632.742, -0.021006377, 0.2781441, -1044620.44, 92016.75, 0.0, 10.000642, 9.999568 
3.7503308e+2, 1.9401915e+2, -985446.56, -1045321.2, 48973.18, -0.016755683, 0.28708163, -957985.1, 80653.5, 0.0, 10.00046, 9.999665 
3.750201e+2, 2.0401873e+2, -901581.25, -937128.25, 49328.184, -0.0116977105, 0.2746472, -866922.25, 73719.17, 0.0, 10.000289, 9.999817 
3.750071e+2, 2.1401812e+2, -823190.3, -844026.7, 46593.957, -0.0061353897, 0.22893156, -785864.0, 56781.574, 0.0, 10.000134, 9.999858 
3.7499398e+2, 2.2401784e+2, -733883.94, -722070.75, 36070.44, -0.0017175527, 0.20443614, -691426.5, 53220.613, 0.0, 9.999954, 10.00011 
3.7498072e+2, 2.3401806e+2, -664218.0, -631925.56, 33755.258, 0.0015657218, 0.20985448, -610653.6, 35990.52, 0.0, 9.999734, 10.000161 
3.749675e+2, 2.4401823e+2, -592466.6, -532215.4, 28516.227, 0.014550651, 0.20905128, -520859.3, 27782.352, 0.0, 9.999493, 10.00029 
3.7495434e+2, 2.5401843e+2, -531275.94, -447345.63, 27820.47, 0.041091233, 0.19506381, -438961.47, 11678.152, 0.0, 9.99922, 10.000331 
3.7494105e+2, 2.6401868e+2, -489203.6, -410778.84, 21956.002, 0.0574745, 0.20219353, -405050.44, -52411.957, 0.0, 9.998984, 10.000022 
3.7492743e+2, 2.7401906e+2, -417856.1, -326408.03, 23776.34, 0.059950568, 0.24277793, -320595.66, -65958.03, 0.0, 9.998805, 10.000015 
3.7491393e+2, 2.8401947e+2, -364834.34, -284113.75, 30126.766, 0.068523325, 0.2949497, -274109.63, -117472.9, 0.0, 9.998643, 9.999711 
3.749006e+2, 2.9401967e+2, -287326.13, -196811.69, 30313.066, 0.08388423, 0.34736973, -187597.83, -128961.26, 0.0, 9.998506, 9.999703 
3.7488705e+2, 3.0401886e+2, -228129.08, -88887.86, 26916.887, 0.074378885, 0.27297002, -83865.664, -83865.664, 0.0, 9.998343, 10.000187 
3.748733e+2, 3.140196e+2, -236803.66, -60566.668, 13105.818, 0.060047835, 0.32479447, -59597.39, -59597.39, 0.0, 9.998143, 10.000478 
3.8512695e+2, 1.2403933e+2, -1535754.8, -1758955.8, 28858.1, -0.03532915, 0.17058188, -1532084.0, 192347.88, 0.000004652705, 10.001793, 9.998834 
3.8511407e+2, 1.3403828e+2, -1458926.9, -1677635.0, 45344.07, 0.018178215, 0.18964824, -1449898.6, 176544.84, 0.0000010439659, 10.001675, 9.998776 
3.8510036e+2, 1.4403702e+2, -1381097.4, -1584623.3, 42855.89, -0.016403748, 0.18592303, -1372441.4, 156015.45, 0.000000039313953, 10.001515, 9.998817 
3.8508713e+2, 1.540361e+2, -1314730.5, -1499527.3, 40438.656, 0.0026425975, 0.20968068, -1306268.8, 124198.03, 0.0, 10.001288, 9.998838 
3.8507372e+2, 1.6403517e+2, -1245029.9, -1409477.9, 40588.297, 0.0077882446, 0.23292315, -1235557.6, 96920.0, 0.0, 10.00107, 9.998889 
3.8506013e+2, 1.7403428e+2, -1174576.9, -1321553.8, 41874.453, -0.012171068, 0.2533138, -1163483.9, 71005.41, 0.0, 10.000867, 9.998918 
3.8504666e+2, 1.8403368e+2, -1057710.4, -1137555.9, 48240.066, -0.023992224, 0.27076188, -1035015.8, 101480.82, 0.0, 10.000665, 9.999605 
3.850335e+2, 1.9403347e+2, -982323.44, -1039722.3, 47398.516, -0.022510273, 0.28188783, -955612.8, 82884.68, 0.0, 10.0004635, 9.9997015 
3.850203e+2, 2.0403309e+2, -904853.56, -938911.2, 46629.24, -0.017883949, 0.2701097, -872241.0, 68259.07, 0.0, 10.000268, 9.999815 
3.8500714e+2, 2.1403247e+2, -831697.56, -848916.06, 49027.81, -0.009350887, 0.2229389, -790528.9, 51975.89, 0.0, 10.00008, 9.99985 
3.849939e+2, 2.240322e+2, -739936.1, -721299.1, 42846.996, -0.0021190648, 0.20039278, -686769.0, 57737.133, 0.0, 9.999897, 10.000142 
3.8498047e+2, 2.3403251e+2, -663784.2, -627533.2, 46184.215, 0.0036753828, 0.2124927, -596045.06, 50457.113, 0.0, 9.99972, 10.000198 
3.8496703e+2, 2.4403274e+2, -588617.8, -535844.8, 41726.277, 0.016797803, 0.21544743, -512862.0, 35637.457, 0.0, 9.999542, 10.00024 
3.8495362e+2, 2.5403288e+2, -513903.84, -445535.6, 36761.72, 0.040110726, 0.20094644, -429520.34, 20977.982, 0.0, 9.999368, 10.000272 
3.849401e+2, 2.6403305e+2, -460833.9, -396849.44, 27480.19, 0.056495253, 0.20499134, -386667.44, -34169.61, 0.0, 9.999178, 10.000024 
3.8492632e+2, 2.740334e+2, -393024.6, -313288.66, 24540.47, 0.063504696, 0.23844577, -306341.13, -51843.8, 0.0, 9.998971, 10.000025 
3.849127e+2, 2.8403375e+2, -340256.0, -270181.97, 31359.748, 0.071674414, 0.28758717, -258197.45, -101701.12, 0.0, 9.998802, 9.999729 
3.8489917e+2, 2.9403406e+2, -258714.9, -180729.66, 33838.152, 0.07975299, 0.34378445, -168094.33, -109598.95, 0.0, 9.9986925, 9.999723 
3.8488546e+2, 3.0403325e+2, -203893.44, -85773.54, 28783.068, 0.07268608, 0.2760166, -79133.09, -79133.09, 0.0, 9.998547, 10.00011 
3.8487163e+2, 3.1403384e+2, -215289.6, -63973.99, 14121.414, 0.0691797, 0.3217798, -62667.4, -62667.4, 0.0, 9.99835, 10.000355 
3.951287e+2, 1.24053866e+2, -1535440.4, -1757678.1, 20664.047, -0.04109656, 0.16901551, -1533535.4, 190753.33, 0.000005817951, 10.00179, 9.998844 
3.951156e+2, 1.3405283e+2, -1459755.1, -1678880.8, 41012.883, 0.004304511, 0.18947989, -1452330.5, 173969.73, 0.0000013925978, 10.001672, 9.998769 
3.951017e+2, 1.4405152e+2, -1383085.0, -1588358.9, 34644.32, -0.03540763, 0.18304725, -1377395.8, 150918.44, 0.00000005997622, 10.0015135, 9.998793 
3.950883e+2, 1.5405056e+2, -1316652.4, -1503355.9, 31840.396, -0.01068971, 0.20466837, -1311371.6, 118953.086, 0.0, 10.001287, 9.998813 
3.950747e+2, 1.640496e+2, -1243897.1, -1407078.5, 32825.086, 0.00012865836, 0.22613566, -1237541.6, 94794.2, 0.0, 10.001069, 9.998906 
3.9506096e+2, 1.7404872e+2, -1173042.1, -1318336.0, 34289.863, -0.014272532, 0.24532168, -1165356.1, 68990.82, 0.0, 10.000867, 9.99894 
3.950473e+2, 1.8404809e+2, -1060721.3, -1143826.4, 40700.277, -0.023838744, 0.26033643, -1044109.1, 92245.5, 0.0, 10.000665, 9.999562 
3.950339e+2, 1.940478e+2, -985784.8, -1046995.6, 39884.332, -0.024586763, 0.26720077, -966116.44, 72240.164, 0.0, 10.0004635, 9.999652 
3.950205e+2, 2.0404743e+2, -901326.6, -931726.8, 39544.4, -0.020958323, 0.25847554, -874161.6, 66197.555, 0.0, 10.000268, 9.999865 
3.950072e+2, 2.1404701e+2, -827461.3, -840238.44, 42002.676, -0.011675983, 0.22507104, -791364.1, 50998.063, 0.0, 10.00008, 9.99991 
3.949938e+2, 2.2404684e+2, -732360.06, -705680.7, 36156.13, 0.001069178, 0.20500907, -680481.9, 63880.58, 0.0, 9.999897, 10.00025 
3.949803e+2, 2.3404713e+2, -655848.06, -611160.56, 39526.273, 0.018903537, 0.20297706, -588099.8, 58258.47, 0.0, 9.99972, 10.000311 
3.9496672e+2, 2.4404739e+2, -595128.8, -549506.0, 35133.547, 0.031536017, 0.20726708, -530427.94, 17927.38, 0.0, 9.999543, 10.000146 
3.9495295e+2, 2.5404763e+2, -521960.94, -462463.56, 30155.516, 0.03654827, 0.2165554, -449852.63, 501.27667, 0.0, 9.999368, 10.000155 
3.9493915e+2, 2.6404777e+2, -465105.16, -405985.97, 19718.887, 0.04510587, 0.22562157, -400012.44, -47658.23, 0.0, 9.999179, 9.999961 
3.9492527e+2, 2.7404785e+2, -396884.66, -321541.06, 16618.969, 0.05939378, 0.23628758, -318038.16, -63682.13, 0.0, 9.998971, 9.999969 
3.9491147e+2, 2.840481e+2, -337468.72, -264658.47, 26777.186, 0.06957471, 0.27475902, -255871.22, -99515.39, 0.0, 9.998803, 9.999766 
3.9489776e+2, 2.940485e+2, -255138.42, -173602.16, 29608.918, 0.0723645, 0.33923736, -163984.48, -105631.19, 0.0, 9.998693, 9.999772 
3.9488396e+2, 3.0404782e+2, -209749.78, -98340.89, 21576.836, 0.07072332, 0.2831952, -94308.04, -94308.04, 0.0, 9.9985485, 10.000023 
3.948701e+2, 3.140483e+2, -224363.08, -83340.03, 6954.174, 0.081954196, 0.3261302, -82997.94, -82997.94, 0.0, 9.998352, 10.000221 
4.051303e+2, 1.24068394e+2, -1548897.1, -1753465.9, 10531.124, -0.04783472, 0.17072178, -1548356.5, 175789.88, 0.0000067594556, 10.001652, 9.9989395 
4.051171e+2, 1.3406742e+2, -1477755.8, -1678043.8, 41402.48, -0.0038575067, 0.18814577, -1469534.8, 156622.06, 0.0000016759602, 10.001508, 9.998854 
4.05103e+2, 1.4406613e+2, -1403756.8, -1596756.6, 37776.023, -0.04612853, 0.17774367, -1396626.3, 131544.16, 0.00000007424828, 10.001366, 9.998806 
4.050894e+2, 1.5406518e+2, -1326538.8, -1507489.9, 36954.023, -0.020282816, 0.1999955, -1319283.0, 110898.234, 0.0, 10.001218, 9.998817 
4.0507567e+2, 1.6406423e+2, -1246444.4, -1403462.9, 38829.72, -0.0069784387, 0.22099523, -1237366.8, 94825.2, 0.0, 10.001031, 9.998949 
4.0506178e+2, 1.7406338e+2, -1180247.0, -1316543.1, 41983.74, -0.016769614, 0.23814863, -1168352.6, 65849.88, 0.0, 10.000794, 9.998987 
4.0504792e+2, 1.8406272e+2, -1075580.0, -1154063.0, 50629.92, -0.024935842, 0.24970327, -1050764.6, 85445.48, 0.0, 10.000576, 9.999535 
4.0503427e+2, 1.9406234e+2, -999818.8, -1057813.9, 50833.863, -0.028927619, 0.25117108, -970293.4, 67920.0, 0.0, 10.000385, 9.999615 
4.0502068e+2, 2.04062e+2, -908805.75, -931303.2, 50954.535, -0.027040295, 0.24547367, -867873.06, 72342.836, 0.0, 10.000199, 9.9999 
4.0500718e+2, 2.1406177e+2, -833091.7, -838033.1, 52163.742, -0.017308341, 0.22715248, -783340.2, 58877.027, 0.0, 10.000021, 9.999954 
4.0499365e+2, 2.2406168e+2, -737699.1, -705795.8, 43226.258, -0.0011077815, 0.20997906, -675671.8, 68545.05, 0.0, 9.99985, 10.000271 
4.0498006e+2, 2.3406182e+2, -658674.94, -610302.8, 39529.266, 0.024281146, 0.19323677, -588147.44, 58066.215, 0.0, 9.999691, 10.000331 
4.049663e+2, 2.4406204e+2, -596955.4, -557573.1, 33586.71, 0.03717955, 0.19518353, -538330.9, 9880.324, 0.0, 9.999561, 10.000082 
4.0495232e+2, 2.5406238e+2, -511431.66, -465448.6, 31887.498, 0.03209463, 0.21992214, -449128.25, 1081.2963, 0.0, 9.9994755, 10.000083 
4.049383e+2, 2.6406252e+2, -435741.1, -392818.56, 24430.373, 0.03670979, 0.23440744, -381761.72, -29551.771, 0.0, 9.999385, 9.999952 
4.0492433e+2, 2.740625e+2, -350379.6, -299300.78, 25346.408, 0.055816825, 0.23559658, -288858.22, -34645.86, 0.0, 9.999291, 9.999967 
4.0491045e+2, 2.8406268e+2, -286249.6, -240380.02, 36383.656, 0.067599714, 0.26957518, -220305.78, -64093.395, 0.0, 9.999157, 9.999763 
4.0489656e+2, 2.9406315e+2, -215827.31, -154880.75, 35217.48, 0.067635104, 0.33782908, -138782.67, -80573.1, 0.0, 9.998964, 9.99977 
4.048826e+2, 3.040625e+2, -184920.0, -94734.125, 23370.629, 0.069082566, 0.28978163, -89037.7, -89037.7, 0.0, 9.9987545, 9.9999485 
4.048686e+2, 3.1406283e+2, -207013.47, -87421.836, 10305.411, 0.086392306, 0.32911867, -86540.3, -86540.3, 0.0, 9.998526, 10.000109 
4.151319e+2, 1.24082945e+2, -1537162.1, -1728246.4, 1301.6096, -0.05560094, 0.17544134, -1537153.3, 186851.23, 0.0000073152505, 10.001648, 9.999114 
4.151186e+2, 1.3408206e+2, -1466050.1, -1653110.6, 36132.79, -0.0065895114, 0.18569764, -1459313.3, 166699.75, 0.0000018222407, 10.001505, 9.999026 
4.1510433e+2, 1.4408085e+2, -1400851.1, -1590177.0, 32131.447, -0.048963048, 0.17012516, -1395546.6, 132479.03, 0.00000007352536, 10.001363, 9.998853 
4.150906e+2, 1.5407994e+2, -1324479.8, -1502741.8, 31277.11, -0.026333913, 0.19567071, -1319151.3, 110884.81, 0.0, 10.001215, 9.998852 
4.1507664e+2, 1.6407907e+2, -1242056.8, -1394036.5, 30088.574, -0.013581257, 0.21747503, -1236316.6, 95729.63, 0.0, 10.00103, 9.999015 
4.150625e+2, 1.7407826e+2, -1175529.9, -1306587.5, 33097.973, -0.019734796, 0.23179942, -1167645.5, 66410.19, 0.0, 10.000793, 9.999056 
4.1504845e+2, 1.8407758e+2, -1076692.4, -1156333.1, 43290.492, -0.027381336, 0.23888604, -1057693.3, 78369.91, 0.0, 10.000576, 9.999519 
4.1503456e+2, 1.9407712e+2, -1001543.25, -1061477.9, 43717.93, -0.03555306, 0.23378718, -978507.75, 59559.996, 0.0, 10.000385, 9.99959 
4.150208e+2, 2.040768e+2, -907245.25, -928234.6, 44193.746, -0.036131296, 0.2311184, -872317.2, 67753.125, 0.0, 10.0002, 9.999921 
4.150071e+2, 2.1407676e+2, -831179.25, -834243.56, 45487.5, -0.026318727, 0.22920352, -787198.1, 54871.707, 0.0, 10.000021, 9.99998 
4.149934e+2, 2.2407667e+2, -742230.5, -715322.2, 37167.383, -0.008802021, 0.21530437, -689248.75, 54820.53, 0.0, 9.99985, 10.000206 
4.149797e+2, 2.3407662e+2, -664006.6, -621459.6, 33552.145, 0.019666683, 0.18325879, -603005.2, 43063.11, 0.0, 9.999691, 10.000254 
4.1496584e+2, 2.440767e+2, -599349.06, -562653.9, 30031.89, 0.033568207, 0.17910944, -545808.44, 2258.6729, 0.0, 9.999562, 10.000047 
4.149517e+2, 2.5407708e+2, -513423.88, -469765.88, 28605.191, 0.026692528, 0.21077809, -455612.06, -5546.7065, 0.0, 9.9994755, 10.000053 
4.1493765e+2, 2.6407728e+2, -432347.84, -386114.44, 20887.97, 0.03129599, 0.23115167, -378075.25, -26010.115, 0.0, 9.999387, 9.999998 
4.1492358e+2, 2.7407736e+2, -346368.7, -291495.47, 21813.697, 0.05270613, 0.23650582, -283880.63, -29814.313, 0.0, 9.999293, 10.000019 
4.1490954e+2, 2.8407758e+2, -289284.88, -247267.9, 29465.342, 0.065655716, 0.27235544, -232088.5, -76022.47, 0.0, 9.999159, 9.999715 
4.1489547e+2, 2.9407793e+2, -219611.34, -163211.17, 27800.453, 0.065594524, 0.33971146, -151811.89, -93747.68, 0.0, 9.998966, 9.999712 
4.1488132e+2, 3.040773e+2, -189159.33, -103879.79, 14692.995, 0.06761207, 0.29576454, -101419.3, -101419.3, 0.0, 9.998756, 9.999885 
4.1486707e+2, 3.140775e+2, -213294.61, -100617.266, 2100.7795, 0.080808125, 0.32764485, -100578.11, -100578.11, 0.0, 9.998526, 10.000018 
4.2513335e+2, 1.2409758e+2, -1565830.5, -1725721.0, 3180.405, -0.058490522, 0.17532429, -1565767.3, 158094.56, 0.000007399852, 10.001381, 9.99926 
4.251199e+2, 1.3409688e+2, -1489548.0, -1648481.9, 39886.746, -0.0136937415, 0.18924674, -1480099.6, 145768.17, 0.0000017914846, 10.001275, 9.999169 
4.251055e+2, 1.4409572e+2, -1431884.9, -1604467.9, 31846.436, -0.05785695, 0.17170241, -1426195.9, 101683.66, 0.000000055205398, 10.001147, 9.998858 
4.2509162e+2, 1.5409477e+2, -1359171.9, -1520258.4, 27746.809, -0.030322094, 0.19259654, -1354526.5, 75364.445, 0.0, 10.00098, 9.998844 
4.2507753e+2, 1.6409393e+2, -1263275.0, -1385063.9, 26387.13, -0.015864203, 0.21140628, -1257803.6, 74096.92, 0.0, 10.000801, 9.999186 
4.2506313e+2, 1.740933e+2, -1189315.6, -1292115.0, 37967.4, -0.02459104, 0.2250676, -1176813.5, 57093.707, 0.0, 10.000608, 9.999245 
4.2504892e+2, 1.840927e+2, -1099221.0, -1171336.3, 53977.223, -0.032030925, 0.23093171, -1070365.6, 65547.99, 0.0, 10.00044, 9.999482 
4.250349e+2, 1.9409215e+2, -1017580.44, -1075960.8, 51894.04, -0.036254395, 0.22395413, -987230.2, 50689.266, 0.0, 10.000304, 9.999529 
4.2502096e+2, 2.0409183e+2, -910737.5, -929666.1, 50641.14, -0.03592865, 0.22230093, -868683.9, 71238.7, 0.0, 10.000175, 9.999923 
4.250071e+2, 2.1409182e+2, -826075.1, -830818.06, 50508.79, -0.029470598, 0.22539626, -777882.2, 64039.297, 0.0, 10.000052, 9.999989 
4.2499322e+2, 2.2409175e+2, -736601.56, -721896.6, 41121.43, -0.015566312, 0.21494108, -687475.5, 56445.574, 0.0, 9.999929, 10.000122 
4.2497933e+2, 2.340916e+2, -654032.4, -627043.25, 36160.14, 0.008953757, 0.18403548, -601941.75, 43979.516, 0.0, 9.9998045, 10.000161 
4.2496535e+2, 2.4409162e+2, -583871.06, -556163.7, 33830.93, 0.02429911, 0.17728788, -533459.8, 14461.143, 0.0, 9.999673, 10.000038 
4.2495123e+2, 2.5409192e+2, -505366.6, -465797.66, 34662.18, 0.026440158, 0.20108752, -445671.06, 4248.5996, 0.0, 9.999531, 10.000053 
4.2493707e+2, 2.640921e+2, -421168.22, -373787.2, 30469.006, 0.034674127, 0.21802408, -358882.38, -6963.157, 0.0, 9.9994335, 10.00006 
4.249229e+2, 2.7409226e+2, -326186.8, -274097.28, 32603.105, 0.051966995, 0.22581503, -258413.27, -4494.063, 0.0, 9.999399, 10.000088 
4.2490873e+2, 2.8409252e+2, -269002.38, -240174.88, 37786.46, 0.0617758, 0.26416117, -214146.4, -58228.008, 0.0, 9.9993105, 9.999691 
4.2489448e+2, 2.9409292e+2, -196081.19, -155457.66, 37517.285, 0.060238034, 0.3345621, -133106.63, -75189.71, 0.0, 9.999143, 9.99968 
4.2488018e+2, 3.040923e+2, -151943.94, -88801.734, 28157.125, 0.06422688, 0.29382807, -78069.664, -78069.664, 0.0, 9.999024, 9.99986 
4.2486578e+2, 3.1409228e+2, -151128.27, -76000.02, 19224.291, 0.079568595, 0.31247613, -71366.555, -71366.555, 0.0, 9.998976, 9.99997 
4.3513474e+2, 1.24112315e+2, -1558171.6, -1709086.3, -4824.2017, -0.057169776, 0.17042832, -1558017.5, 165700.56, 0.0000070344795, 10.001377, 9.999376 
4.3512103e+2, 1.3411187e+2, -1481993.9, -1632278.0, 36091.805, -0.0250667, 0.19851553, -1473775.5, 151945.45, 0.0000016069694, 10.001272, 9.999282 
4.351065e+2, 1.4411075e+2, -1434784.8, -1609959.5, 25736.125, -0.07258202, 0.18205763, -1431082.0, 96650.21, 0.000000030249723, 10.001144, 9.998822 
4.3509257e+2, 1.5410963e+2, -1362917.0, -1527556.8, 21494.885, -0.032363124, 0.19067794, -1360156.9, 69588.87, 0.0, 10.000978, 9.9987955 
4.3507835e+2, 1.6410883e+2, -1244325.9, -1345448.6, 19182.371, -0.014083089, 0.20284952, -1240809.4, 90945.4, 0.0, 10.0008, 9.999459 
4.350637e+2, 1.7410852e+2, -1168055.9, -1247945.0, 30647.37, -0.031390343, 0.21794502, -1157653.4, 76103.68, 0.0, 10.0006075, 9.999548 
4.3504927e+2, 1.8410806e+2, -1103512.1, -1180313.1, 48600.992, -0.038880687, 0.22580898, -1079971.9, 55789.574, 0.0, 10.00044, 9.999421 
4.3503526e+2, 1.9410746e+2, -1024383.0, -1090167.9, 46824.965, -0.03115313, 0.22160897, -1000052.3, 37716.246, 0.0, 10.000304, 9.999432 
4.3502122e+2, 2.0410706e+2, -911938.44, -932295.56, 45988.336, -0.026617123, 0.21891423, -875015.75, 64756.973, 0.0, 10.000175, 9.999906 
4.3500718e+2, 2.1410699e+2, -826727.5, -832374.4, 45935.297, -0.026858555, 0.21573214, -783528.94, 58243.293, 0.0, 10.000052, 9.999977 
4.3499306e+2, 2.2410691e+2, -743723.44, -736842.7, 36434.145, -0.02148672, 0.20899896, -703686.9, 40085.36, 0.0, 9.999929, 10.00002 
4.3497896e+2, 2.3410681e+2, -661810.5, -643363.3, 31473.826, -0.008003473, 0.19574712, -619789.4, 25983.066, 0.0, 9.999805, 10.000049 
4.3496487e+2, 2.4410678e+2, -582574.5, -553667.75, 28493.13, 0.0092568165, 0.18985717, -536171.8, 11600.86, 0.0, 9.999673, 10.000055 
4.3495077e+2, 2.5410688e+2, -503224.44, -461491.94, 29282.932, 0.031397752, 0.19080682, -446401.38, 3371.1152, 0.0, 9.999532, 10.000083 
4.3493664e+2, 2.64107e+2, -415661.56, -362524.16, 28807.172, 0.04694191, 0.19478482, -349904.22, 1867.991, 0.0, 9.9994335, 10.000137 
4.3492234e+2, 2.7410725e+2, -320330.47, -262178.6, 31311.844, 0.053565226, 0.20320825, -248524.66, 5246.4443, 0.0, 9.9994, 10.00017 
4.34908e+2, 2.8410757e+2, -268806.16, -240021.52, 31948.543, 0.0557785, 0.24466044, -219373.17, -63603.633, 0.0, 9.9993105, 9.999692 
4.3489352e+2, 2.9410803e+2, -196415.17, -156407.72, 31180.045, 0.051337793, 0.3221751, -139366.28, -81598.59, 0.0, 9.999144, 9.999673 
4.3487915e+2, 3.0410743e+2, -150784.8, -86913.56, 26124.61, 0.058785032, 0.28366354, -77589.28, -77589.28, 0.0, 9.999026, 9.999871 
4.348648e+2, 3.1410724e+2, -150794.58, -76395.484, 18339.854, 0.08204109, 0.28008583, -72120.26, -72120.26, 0.0, 9.99898, 9.999966 
4.4513595e+2, 1.24127336e+2, -1583459.3, -1712491.9, -513.6099, -0.061055686, 0.17961678, -1583457.3, 140114.17, 0.00000631539, 10.001166, 9.9994545 
4.4512218e+2, 1.3412695e+2, -1504772.5, -1634790.4, 42078.043, -0.02786288, 0.20567587, -1492342.9, 133230.47, 0.0000013346397, 10.00108, 9.999357 
4.451075e+2, 1.4412583e+2, -1459433.4, -1615959.3, 29873.326, -0.076724954, 0.1838406, -1453925.8, 73658.414, 0.000000013876045, 10.000951, 9.998875 
4.4509336e+2, 1.541247e+2, -1392489.4, -1536082.9, 32589.504, -0.04011107, 0.18599957, -1385439.1, 44158.652, 0.0, 10.000751, 9.998847 
4.4507894e+2, 1.6412395e+2, -1269671.5, -1349299.5, 28722.803, -0.021627842, 0.19537008, -1260392.1, 71214.17, 0.0, 10.00059, 9.999534 
4.4506422e+2, 1.7412373e+2, -1180395.9, -1245371.0, 23583.006, -0.033199426, 0.21285017, -1172738.8, 60868.613, 0.0, 10.000486, 9.999624 
4.4504967e+2, 1.8412334e+2, -1115146.8, -1184159.6, 34556.977, -0.035632145, 0.22141077, -1100818.0, 34793.05, 0.0, 10.000352, 9.999436 
4.4503555e+2, 1.9412272e+2, -1042980.2, -1098058.6, 40523.83, -0.023822015, 0.21547484, -1021523.6, 16094.41, 0.0, 10.000173, 9.999441 
4.4502136e+2, 2.0412228e+2, -936476.4, -948723.4, 44785.965, -0.019666798, 0.20988017, -897397.25, 42225.383, 0.0, 10.000027, 9.999864 
4.4500715e+2, 2.1412212e+2, -847967.75, -847856.3, 42106.258, -0.026554246, 0.20238645, -805805.75, 35817.625, 0.0, 9.999929, 9.99993 
4.4499293e+2, 2.2412206e+2, -754820.3, -740265.6, 35570.523, -0.02455056, 0.19963494, -711235.6, 32387.832, 0.0, 9.9998455, 10.000037 
4.4497874e+2, 2.3412213e+2, -664471.75, -642066.7, 40762.742, -0.009986832, 0.20183672, -610995.1, 34627.004, 0.0, 9.999776, 10.000072 
4.4496453e+2, 2.4412213e+2, -576961.56, -551990.7, 42527.664, 0.0070301807, 0.19827685, -520153.56, 27468.42, 0.0, 9.999716, 10.000046 
4.4495034e+2, 2.5412205e+2, -483806.1, -453550.28, 40035.684, 0.027231975, 0.18313934, -425879.72, 23743.44, 0.0, 9.999671, 10.000071 
4.449361e+2, 2.641221e+2, -392375.7, -352776.25, 35523.465, 0.043336287, 0.18075934, -331907.25, 19716.21, 0.0, 9.9996, 10.000124 
4.4492176e+2, 2.7412242e+2, -307414.88, -257478.03, 30770.469, 0.053798158, 0.19623233, -242820.14, 10801.781, 0.0, 9.9994955, 10.000155 
4.449073e+2, 2.8412277e+2, -250604.86, -226657.4, 27645.055, 0.056110397, 0.23797882, -208504.42, -52884.297, 0.0, 9.999416, 9.999733 
4.448927e+2, 2.9412317e+2, -159798.02, -133596.58, 30593.04, 0.046860848, 0.3068977, -113417.23, -55798.992, 0.0, 9.999373, 9.99972 
4.4487822e+2, 3.041226e+2, -109357.83, -66392.95, 28761.264, 0.053259134, 0.26851404, -51976.848, -51976.848, 0.0, 9.999309, 9.999877 
4.4486383e+2, 3.1412238e+2, -117820.22, -62086.52, 20709.195, 0.077419564, 0.26305813, -55234.04, -55234.04, 0.0, 9.999213, 9.999952 
4.55137e+2, 1.24142654e+2, -1581316.9, -1706875.8, -8259.74, -0.07035121, 0.2014837, -1580775.8, 142646.08, 0.0000053674253, 10.001161, 9.9994955 
4.551233e+2, 1.3414213e+2, -1502597.3, -1629397.8, 38967.375, -0.022543322, 0.21074466, -1491579.5, 133845.39, 0.0000010357217, 10.001076, 9.999396 
4.5510846e+2, 1.44141e+2, -1450298.0, -1596349.3, 22533.404, -0.070960894, 0.17736655, -1446900.5, 80535.0, 0.000000007555667, 10.000947, 9.999011 
4.5509392e+2, 1.5414e+2, -1382414.5, -1514940.9, 24918.418, -0.053566836, 0.17865819, -1377884.0, 51563.0, 0.0, 10.00075, 9.998993 
4.5507935e+2, 1.6413927e+2, -1278165.6, -1366947.9, 24346.166, -0.038244005, 0.18894358, -1271927.6, 59527.54, 0.0, 10.000589, 9.999413 
4.5506468e+2, 1.7413895e+2, -1190767.0, -1266881.1, 19672.86, -0.030163903, 0.20972776, -1185982.9, 47475.27, 0.0, 10.000486, 9.999476 
4.5505017e+2, 1.841385e+2, -1108826.6, -1171013.4, 28024.504, -0.022602879, 0.21768086, -1098061.0, 37401.297, 0.0, 10.000352, 9.999527 
4.550358e+2, 1.9413795e+2, -1035005.2, -1081602.9, 33759.76, -0.014373145, 0.20560043, -1017285.06, 20182.822, 0.0, 10.000173, 9.999555 
4.5502144e+2, 2.0413746e+2, -941044.5, -958390.94, 40856.777, -0.015101198, 0.19528921, -907950.5, 31521.875, 0.0, 10.000028, 9.999798 
4.5500705e+2, 2.1413721e+2, -853850.56, -860255.8, 38497.18, -0.02860994, 0.18537755, -818423.0, 23051.957, 0.0, 9.99993, 9.999845 
4.5499277e+2, 2.241372e+2, -745191.3, -720424.4, 32880.477, -0.024756806, 0.18683486, -697672.75, 45802.035, 0.0, 9.9998455, 10.000174 
4.5497862e+2, 2.3413758e+2, -653357.25, -619125.0, 38170.344, 0.0031306304, 0.2022797, -594408.9, 51061.406, 0.0, 9.999776, 10.000229 
4.5496434e+2, 2.4413767e+2, -579526.75, -557533.06, 40760.43, 0.017654194, 0.20254886, -526312.06, 21156.836, 0.0, 9.999717, 10.000008 
4.5494986e+2, 2.5413746e+2, -487647.97, -461846.44, 38335.05, 0.013603215, 0.17816608, -434299.63, 15171.987, 0.0, 9.999672, 10.000013 
4.549355e+2, 2.6413742e+2, -399758.38, -368455.9, 31718.68, 0.02344344, 0.17622076, -348737.16, 2735.7861, 0.0, 9.999601, 10.000016 
4.5492125e+2, 2.7413777e+2, -315238.0, -273946.03, 26688.197, 0.052624054, 0.2054893, -260850.1, -7378.3833, 0.0, 9.9994955, 10.000043 
4.549068e+2, 2.8413805e+2, -244778.05, -214771.7, 25791.164, 0.06290522, 0.24459486, -199937.33, -44467.11, 0.0, 9.999416, 9.999814 
4.548921e+2, 2.941383e+2, -152527.03, -118930.02, 28913.672, 0.046879265, 0.28848553, -102289.18, -44820.527, 0.0, 9.999374, 9.99982 
4.5487747e+2, 3.0413777e+2, -109415.06, -67013.98, 25367.55, 0.047544144, 0.24825841, -55154.34, -55154.34, 0.0, 9.99931, 9.999872 
4.548629e+2, 3.1413773e+2, -119543.71, -65952.086, 17793.648, 0.064578906, 0.26034436, -60582.24, -60582.24, 0.0, 9.999214, 9.999926 
4.65138e+2, 1.2415785e+2, -1623100.5, -1722478.0, -16835.31, -0.07310996, 0.21408167, -1620325.9, 102947.31, 0.000004304928, 10.0008545, 9.999536 
4.6512425e+2, 1.341572e+2, -1544318.4, -1645218.4, 34941.234, -0.020400088, 0.2061258, -1533399.9, 91877.375, 0.0000007438799, 10.000771, 9.999434 
4.6510932e+2, 1.4415607e+2, -1478086.5, -1596117.8, 15904.834, -0.068455234, 0.16510531, -1475980.9, 51306.715, 0.0000000034677494, 10.000698, 9.999133 
4.6509454e+2, 1.5415527e+2, -1390970.8, -1504606.0, 16896.797, -0.060277116, 0.17473885, -1388511.5, 40784.965, 0.0, 10.000628, 9.999122 
4.650798e+2, 1.6415463e+2, -1291646.3, -1379746.8, 17922.523, -0.04612498, 0.18910253, -1288139.9, 43163.953, 0.0, 10.0005245, 9.999356 
4.6506515e+2, 1.7415422e+2, -1212459.6, -1285780.3, 18517.264, -0.027566878, 0.20783754, -1208048.4, 25259.998, 0.0, 10.000374, 9.999401 
4.6505052e+2, 1.8415374e+2, -1119669.0, -1162853.4, 29194.371, -0.015769994, 0.21110302, -1104949.6, 30363.3, 0.0, 10.000219, 9.999646 
4.6503595e+2, 1.9415323e+2, -1041702.9, -1069459.3, 36553.24, -0.012138325, 0.19091947, -1016481.94, 20834.88, 0.0, 10.00006, 9.999691 
4.6502143e+2, 2.0415281e+2, -954484.44, -967807.5, 49245.164, -0.015268485, 0.17758305, -911452.3, 27868.383, 0.0, 9.9999485, 9.999771 
4.6500695e+2, 2.1415253e+2, -861392.7, -868742.1, 50256.395, -0.028065499, 0.17160675, -814676.8, 26647.127, 0.0, 9.9999, 9.999802 
4.649926e+2, 2.2415255e+2, -742078.7, -713418.3, 43384.617, -0.023895273, 0.17721686, -682058.44, 61265.27, 0.0, 9.999844, 10.000222 
4.649784e+2, 2.3415303e+2, -649613.75, -610919.06, 41030.07, 0.0036892188, 0.19708963, -584903.56, 60414.57, 0.0, 9.999774, 10.000286 
4.6496403e+2, 2.4415319e+2, -581105.06, -563444.75, 40596.11, 0.01620434, 0.19971853, -530729.56, 16586.904, 0.0, 9.999728, 9.999961 
4.649495e+2, 2.5415286e+2, -485486.4, -467097.06, 38274.02, 0.007769968, 0.1749057, -436928.78, 12391.223, 0.0, 9.999714, 9.999957 
4.6493506e+2, 2.6415282e+2, -388076.06, -371446.1, 32502.547, 0.01665392, 0.17608991, -346211.78, 5110.1294, 0.0, 9.999719, 9.999939 
4.6492082e+2, 2.7415314e+2, -283803.94, -267738.34, 29840.627, 0.049602356, 0.21331374, -244868.27, 8452.763, 0.0, 9.99975, 9.999963 
4.6490633e+2, 2.8415337e+2, -198279.45, -189172.77, 27121.357, 0.062145893, 0.2491595, -166225.17, -10905.1875, 0.0, 9.9997225, 9.999843 
4.6489155e+2, 2.941535e+2, -115305.46, -96688.97, 25284.24, 0.046397343, 0.27458057, -79054.01, -21735.0, 0.0, 9.999612, 9.999858 
4.6487683e+2, 3.0415294e+2, -88245.805, -59629.297, 16206.309, 0.04526507, 0.2326111, -52318.797, -52318.797, 0.0, 9.999468, 9.999846 
4.6486202e+2, 3.14153e+2, -113314.59, -67506.3, 7537.7974, 0.0558841, 0.25755015, -66297.83, -66297.83, 0.0, 9.999277, 9.999884 
4.7513884e+2, 1.2417295e+2, -1621083.3, -1717364.3, -24696.53, -0.07033882, 0.2173929, -1615118.1, 108007.195, 0.0000032345054, 10.000851, 9.999573 
4.75125e+2, 1.3417217e+2, -1542039.0, -1640091.6, 31999.123, -0.021437922, 0.19228475, -1532520.3, 92610.31, 0.00000048107097, 10.000769, 9.999471 
4.7511e+2, 1.4417106e+2, -1470857.4, -1580783.3, 13090.45, -0.0691907, 0.14739127, -1469320.1, 57820.348, 0.000000000765976, 10.000696, 9.999239 
4.7509518e+2, 1.5417056e+2, -1383506.5, -1488542.4, 14213.898, -0.06058182, 0.17419997, -1381617.0, 47529.168, 0.0, 10.000626, 9.999233 
4.750803e+2, 1.6417004e+2, -1291733.0, -1379422.9, 12347.029, -0.045677707, 0.19565189, -1290027.6, 41124.465, 0.0, 10.000523, 9.999359 
4.7506553e+2, 1.7416954e+2, -1213118.4, -1286953.0, 12826.801, -0.025587687, 0.20713952, -1210953.6, 22204.416, 0.0, 10.000373, 9.999393 
4.7505072e+2, 1.8416905e+2, -1109433.3, -1141612.3, 23196.016, -0.015164218, 0.20178299, -1097292.9, 37869.668, 0.0, 10.000219, 9.999792 
4.7503594e+2, 1.941686e+2, -1030433.25, -1046197.75, 30550.908, -0.017093463, 0.17147282, -1006764.2, 30400.623, 0.0, 10.000061, 9.999851 
4.750213e+2, 2.0416825e+2, -953645.4, -966243.9, 47082.223, -0.020150656, 0.15677194, -912442.9, 26724.621, 0.0, 9.9999485, 9.999782 
4.750069e+2, 2.1416807e+2, -861528.75, -869245.25, 48474.3, -0.024957925, 0.16110379, -816759.4, 24410.984, 0.0, 9.999901, 9.999798 
4.7499245e+2, 2.2416812e+2, -744864.75, -719376.56, 40858.703, -0.022101311, 0.17075127, -689320.6, 53849.695, 0.0, 9.999844, 10.000181 
4.7497803e+2, 2.341685e+2, -652763.25, -617608.75, 38426.652, -0.00853009, 0.18618576, -592930.06, 52235.707, 0.0, 9.999775, 10.00024 
4.7496364e+2, 2.4416861e+2, -584908.56, -571553.9, 39849.82, 0.0025196574, 0.18976708, -537825.8, 9338.895, 0.0, 9.999729, 9.999906 
4.749492e+2, 2.5416836e+2, -489313.28, -475282.75, 37702.31, 0.009908274, 0.1734746, -443948.6, 5219.7437, 0.0, 9.999715, 9.9999 
4.7493485e+2, 2.641683e+2, -391222.56, -378320.38, 33538.258, 0.02317734, 0.18048327, -350618.4, 552.04865, 0.0, 9.999721, 9.999891 
4.749205e+2, 2.7416858e+2, -286820.16, -274564.28, 31047.293, 0.04451174, 0.21961525, -249045.95, 4123.983, 0.0, 9.999752, 9.999915 
4.7490597e+2, 2.8416875e+2, -199958.95, -193272.42, 23382.465, 0.053443044, 0.25158626, -172995.42, -17825.918, 0.0, 9.999725, 9.999813 
4.7489116e+2, 2.9416874e+2, -117022.74, -100683.63, 20994.889, 0.04534879, 0.26538774, -86324.83, -29155.398, 0.0, 9.999614, 9.99983 
4.748763e+2, 3.041681e+2, -91628.54, -66815.95, 9149.062, 0.046538834, 0.22181912, -63807.27, -63807.27, 0.0, 9.999468, 9.999797 
4.7486126e+2, 3.1416816e+2, -117610.73, -76165.15, 651.74384, 0.050739545, 0.25274292, -76154.9, -76154.9, 0.0, 9.999276, 9.9998255 
4.851396e+2, 1.2418806e+2, -1647178.9, -1725430.1, -27578.025, -0.06891128, 0.21761431, -1638436.4, 84540.78, 0.000002270887, 10.000652, 9.999613 
4.8512557e+2, 1.3418728e+2, -1559581.0, -1644143.4, 34128.582, -0.029492531, 0.19109063, -1547525.8, 77456.62, 0.0000002759338, 10.000629, 9.99951 
4.8511052e+2, 1.4418621e+2, -1487963.1, -1579334.8, 11206.189, -0.07434861, 0.14297478, -1486608.8, 40382.906, 0.000000000009128432, 10.000537, 9.999326 
4.850957e+2, 1.5418577e+2, -1419689.5, -1495921.4, 10409.48, -0.054388724, 0.16691846, -1418293.6, 10702.859, 0.0, 10.000335, 9.999323 
4.8508078e+2, 1.6418533e+2, -1333680.1, -1390812.3, 11451.194, -0.03645918, 0.1872044, -1331470.4, -468.8774, 0.0, 10.000196, 9.999438 
4.850658e+2, 1.7418492e+2, -1240446.6, -1291500.6, 18253.244, -0.024406448, 0.19961408, -1234591.9, -1585.3173, 0.0, 10.000149, 9.999471 
4.8505086e+2, 1.8418448e+2, -1123417.4, -1140978.1, 28621.78, -0.017391952, 0.19278266, -1102259.5, 32750.979, 0.0, 10.000092, 9.999858 
4.85036e+2, 1.9418404e+2, -1031574.44, -1039605.9, 28708.02, -0.016498521, 0.15786302, -1006602.6, 30409.56, 0.0, 10.000023, 9.999914 
4.8502126e+2, 2.0418374e+2, -953813.56, -963786.0, 42917.613, -0.016157798, 0.14418222, -915593.5, 23420.76, 0.0, 9.999937, 9.999804 
4.850068e+2, 2.1418369e+2, -870737.75, -871554.0, 45931.8, -0.016648836, 0.1570441, -825212.25, 15804.128, 0.0, 9.999828, 9.999817 
4.849923e+2, 2.2418375e+2, -760426.9, -732316.44, 40205.344, -0.0156109305, 0.16941422, -703780.4, 39236.063, 0.0, 9.999761, 10.000133 
4.8497775e+2, 2.3418404e+2, -660582.6, -627678.2, 37057.332, -0.012368875, 0.17973545, -603585.1, 41428.063, 0.0, 9.999748, 10.000184 
4.849633e+2, 2.4418409e+2, -584723.94, -571432.4, 40716.402, -0.003456096, 0.18246245, -536822.94, 10189.763, 0.0, 9.99973, 9.999906 
4.8494893e+2, 2.541839e+2, -490428.9, -475229.53, 43163.234, 0.0130177755, 0.17136006, -439002.06, 10013.768, 0.0, 9.999705, 9.999906 
4.8493457e+2, 2.6418385e+2, -392523.28, -377918.34, 45356.23, 0.026041009, 0.1795553, -339280.5, 11737.252, 0.0, 9.999707, 9.9999 
4.8492014e+2, 2.741841e+2, -287162.9, -273770.13, 47183.6, 0.034194257, 0.21418251, -232810.11, 20207.361, 0.0, 9.999746, 9.999923 
4.8490554e+2, 2.8418425e+2, -197786.2, -192106.44, 38401.137, 0.038618024, 0.24224131, -156440.31, -1423.1027, 0.0, 9.99974, 9.999814 
4.8489073e+2, 2.9418418e+2, -109029.95, -96863.56, 37504.77, 0.038065758, 0.25323647, -64951.848, -7934.6245, 0.0, 9.999669, 9.999829 
4.848758e+2, 3.0418357e+2, -73285.73, -58865.71, 26638.174, 0.043426026, 0.21131603, -38479.043, -38479.043, 0.0, 9.9995985, 9.999788 
4.848606e+2, 3.1418365e+2, -82503.914, -60559.15, 21446.723, 0.04663487, 0.24613519, -47440.97, -47440.97, 0.0, 9.999523, 9.999813 
4.9514025e+2, 1.2420318e+2, -1645124.4, -1720078.9, -33172.836, -0.06957438, 0.21463476, -1632551.9, 90276.86, 0.0000015131092, 10.000648, 9.999652 
4.9512607e+2, 1.3420258e+2, -1557297.5, -1638623.8, 33473.02, -0.044392116, 0.20197053, -1545292.5, 79539.81, 0.00000014199817, 10.000626, 9.99955 
4.9511096e+2, 1.4420155e+2, -1483891.4, -1570123.9, 3934.736, -0.083938114, 0.15120505, -1483712.3, 43129.137, 0.0, 10.000534, 9.999391 
4.9509612e+2, 1.5420096e+2, -1415350.4, -1486434.9, 2702.6672, -0.042132165, 0.15314478, -1415247.8, 13599.39, 0.0, 10.000332, 9.99939 
4.9508116e+2, 1.6420053e+2, -1323227.8, -1368949.8, 9082.598, -0.018971574, 0.16432853, -1321489.6, 9362.114, 0.0, 10.0001955, 9.999589 
4.9506593e+2, 1.7420036e+2, -1229449.6, -1268588.0, 16397.305, -0.024121532, 0.18548137, -1223487.9, 9366.198, 0.0, 10.000148, 9.999628 
4.9505088e+2, 1.8420006e+2, -1124634.8, -1143438.5, 25973.912, -0.02242891, 0.18411925, -1106413.4, 28443.223, 0.0, 10.000092, 9.999842 
4.9503604e+2, 1.9419959e+2, -1033861.44, -1044449.4, 26058.334, -0.010472721, 0.15006894, -1012564.75, 24294.225, 0.0, 10.000023, 9.999882 
4.9502134e+2, 2.0419933e+2, -951400.75, -958937.7, 38947.68, -0.0034728807, 0.13978714, -916039.6, 22821.285, 0.0, 9.999937, 9.999837 
4.9500677e+2, 2.1419936e+2, -867874.56, -865812.25, 41847.977, -0.0032493037, 0.15940072, -824982.75, 15879.266, 0.0, 9.999828, 9.999856 
4.949922e+2, 2.2419944e+2, -764421.75, -740801.94, 39475.14, -0.0044851056, 0.17323053, -711407.94, 31454.127, 0.0, 9.999761, 10.000074 
4.949775e+2, 2.341996e+2, -665306.5, -637679.8, 36616.777, -0.0077908533, 0.17777637, -612357.56, 32502.947, 0.0, 9.999749, 10.000115 
4.9496302e+2, 2.4419963e+2, -580770.3, -563403.56, 39741.066, -0.0017019478, 0.17779794, -531408.3, 15452.236, 0.0, 9.999731, 9.999961 
4.9494866e+2, 2.541995e+2, -485770.06, -465683.97, 42204.44, 0.016994199, 0.16852824, -432344.1, 16518.436, 0.0, 9.999705, 9.999971 
4.9493426e+2, 2.641995e+2, -387934.97, -368502.25, 46697.61, 0.025019065, 0.1731644, -330520.88, 20342.955, 0.0, 9.999707, 9.999965 
4.9491972e+2, 2.741997e+2, -282657.22, -264468.47, 48776.766, 0.018439263, 0.19661835, -223945.5, 28918.146, 0.0, 9.999746, 9.999987 
4.9490505e+2, 2.8419986e+2, -195849.47, -188033.84, 36208.1, 0.017414555, 0.22069156, -155523.28, -660.1305, 0.0, 9.99974, 9.999843 
4.9489024e+2, 2.9419985e+2, -107391.54, -93380.305, 35038.934, 0.02421496, 0.23801014, -64653.504, -7791.093, 0.0, 9.999668, 9.999853 
4.948753e+2, 3.0419934e+2, -70936.375, -54058.05, 24213.625, 0.035619337, 0.20115001, -36855.08, -36855.08, 0.0, 9.9995985, 9.999822 
4.9486008e+2, 3.1419948e+2, -79947.04, -55637.94, 19280.268, 0.043059796, 0.23627475, -45000.785, -45000.785, 0.0, 9.999524, 9.999846 
5.0514066e+2, 1.2421831e+2, -1673995.9, -1726896.4, -37086.22, -0.07862029, 0.20982698, -1654894.0, 67786.28, 0.0000009949754, 10.00042, 9.999715 
5.0512654e+2, 1.3421786e+2, -1588248.3, -1646098.3, 36247.082, -0.047306787, 0.20452756, -1570799.8, 53882.965, 0.000000065122016, 10.000381, 9.999617 
5.051114e+2, 1.4421691e+2, -1510871.3, -1569936.1, 3493.7642, -0.078163184, 0.15461563, -1510665.3, 16025.422, 0.0, 10.000292, 9.999508 
5.050964e+2, 1.5421638e+2, -1438431.4, -1484002.6, 5728.9414, -0.037429597, 0.15102115, -1437722.3, -9026.763, 0.0, 10.000115, 9.99951 
5.0508124e+2, 1.6421598e+2, -1348271.9, -1375392.4, 15903.103, -0.016290262, 0.15631105, -1340932.6, -10233.197, 0.0, 10.0, 9.999639 
5.05066e+2, 1.742158e+2, -1253155.9, -1275156.8, 15101.979, -0.024233673, 0.17134714, -1245472.8, -12770.905, 0.0, 9.999965, 9.999671 
5.050509e+2, 1.8421552e+2, -1142896.4, -1148633.5, 22120.34, -0.022959253, 0.1688521, -1123459.4, 11244.673, 0.0, 9.99995, 9.999873 
5.0503606e+2, 1.9421513e+2, -1040302.44, -1044217.2, 26736.979, -0.008285165, 0.14045423, -1015451.3, 21254.447, 0.0, 9.999964, 9.999911 
5.050213e+2, 2.0421493e+2, -951974.4, -957511.8, 38670.215, 0.0007002545, 0.1335501, -915973.9, 22733.396, 0.0, 9.999927, 9.999852 
5.050066e+2, 2.14215e+2, -868515.3, -864545.0, 39261.223, 0.0019256908, 0.15332702, -827218.75, 13489.396, 0.0, 9.999818, 9.999869 
5.0499195e+2, 2.2421508e+2, -770893.25, -746290.56, 39512.04, 0.0014223921, 0.16728364, -717209.25, 25499.102, 0.0, 9.999727, 10.000052 
5.049773e+2, 2.342152e+2, -680017.5, -647664.56, 39983.297, -0.0015722734, 0.17175046, -620709.4, 23997.95, 0.0, 9.9996605, 10.000089 
5.049627e+2, 2.4421524e+2, -591503.56, -563095.6, 46005.18, 0.002267492, 0.17312792, -529151.6, 17555.643, 0.0, 9.999634, 10.00001 
5.049483e+2, 2.5421518e+2, -488539.16, -460935.56, 47639.215, 0.015257186, 0.16748397, -425139.13, 23569.213, 0.0, 9.9996605, 10.000025 
5.049339e+2, 2.6421523e+2, -391491.75, -367129.44, 50735.99, 0.019898614, 0.17270184, -327132.8, 23576.285, 0.0, 9.99967, 9.999991 
5.0491935e+2, 2.7421546e+2, -294112.3, -267324.63, 49639.426, 0.013061193, 0.19245628, -229303.81, 23405.117, 0.0, 9.999657, 10.0000105 
5.049047e+2, 2.8421557e+2, -206195.9, -193245.72, 33336.695, 0.0110320095, 0.21493222, -165761.11, -11052.668, 0.0, 9.99967, 9.99984 
5.0488985e+2, 2.9421562e+2, -100936.44, -90926.18, 29657.623, 0.015881991, 0.23376323, -65854.31, -9146.611, 0.0, 9.999716, 9.999846 
5.048748e+2, 3.0421507e+2, -53167.383, -43111.664, 14817.524, 0.025936013, 0.19636358, -32492.209, -32492.209, 0.0, 9.999711, 9.999843 
5.048595e+2, 3.1421518e+2, -63094.164, -44852.79, 8814.567, 0.032928925, 0.22639367, -41289.49, -41289.49, 0.0, 9.999629, 9.99987 
5.1514095e+2, 1.2423343e+2, -1668885.8, -1715150.4, -42990.313, -0.09641718, 0.2029574, -1643199.4, 79332.305, 0.00000067894854, 10.000414, 9.999799 
5.1512694e+2, 1.3423309e+2, -1582514.1, -1633212.6, 35065.22, -0.038997315, 0.19933249, -1564595.0, 59938.21, 0.000000029496794, 10.000377, 9.999707 
5.1511186e+2, 1.4423232e+2, -1499756.5, -1546150.0, -2887.1807, -0.05807276, 0.15362881, -1499577.5, 26962.113, 0.0, 10.000289, 9.999673 
5.150965e+2, 1.5423205e+2, -1426442.5, -1458967.6, -1100.7563, -0.040231243, 0.16023406, -1426405.3, 2136.1033, 0.0, 10.000114, 9.999682 
5.150811e+2, 1.6423169e+2, -1351882.0, -1382955.9, 14017.932, -0.02796987, 0.16267674, -1346492.9, -15948.287, 0.0, 10.0, 9.999587 
5.150659e+2, 1.7423123e+2, -1258147.3, -1285556.6, 13734.315, -0.02481776, 0.15721326, -1252449.6, -19900.1, 0.0, 9.999964, 9.9996 
5.150508e+2, 1.8423088e+2, -1137422.0, -1137287.8, 22487.91, -0.01926795, 0.14718612, -1114866.9, 19685.602, 0.0, 9.99995, 9.999951 
5.15036e+2, 1.9423069e+2, -1034026.44, -1031212.9, 27235.176, -0.00998949, 0.12904003, -1005348.2, 31204.262, 0.0, 9.999964, 10.000001 
5.150212e+2, 2.0423056e+2, -952303.2, -958245.44, 34922.2, -0.0035992758, 0.12540343, -920225.94, 18327.29, 0.0, 9.999926, 9.999847 
5.150064e+2, 2.1423055e+2, -869364.56, -866495.1, 35184.36, -0.0011601761, 0.13880484, -832716.25, 7838.6396, 0.0, 9.999818, 9.999856 
5.149917e+2, 2.242306e+2, -769813.1, -744258.4, 36901.242, 0.0020263563, 0.15155521, -717985.0, 24570.262, 0.0, 9.999727, 10.000067 
5.14977e+2, 2.342308e+2, -678863.9, -645434.6, 37502.71, 0.00627527, 0.16163985, -621090.4, 23463.25, 0.0, 9.999661, 10.000104 
5.149624e+2, 2.4423094e+2, -588599.5, -557219.06, 46744.645, 0.008373451, 0.16845086, -523601.66, 22951.297, 0.0, 9.999635, 10.00005 
5.149479e+2, 2.5423098e+2, -485597.44, -454974.34, 48681.19, 0.007578653, 0.16825531, -419253.53, 29299.807, 0.0, 9.9996605, 10.000066 
5.1493347e+2, 2.6423112e+2, -392566.4, -369424.84, 50326.26, 0.010595159, 0.17837279, -329356.34, 21197.31, 0.0, 9.99967, 9.999976 
5.1491904e+2, 2.742313e+2, -295728.0, -270509.4, 49081.574, 0.018387495, 0.20221566, -232443.31, 20110.06, 0.0, 9.999656, 9.999989 
5.1490444e+2, 2.8423145e+2, -209042.03, -198895.9, 34902.395, 0.019842904, 0.22560221, -168699.81, -14146.655, 0.0, 9.999668, 9.999802 
5.1488954e+2, 2.9423138e+2, -103815.93, -96807.125, 31401.75, 0.013161575, 0.24097782, -68714.84, -12161.605, 0.0, 9.999716, 9.999807 
5.1487446e+2, 3.0423078e+2, -52879.227, -42570.563, 12092.181, 0.014160378, 0.19725476, -34580.01, -34580.01, 0.0, 9.99971, 9.999846 
5.14859e+2, 3.1423077e+2, -62495.504, -43680.797, 5765.586, 0.015404712, 0.21628062, -42054.55, -42054.55, 0.0, 9.999629, 9.999879 
5.251412e+2, 1.2424877e+2, -1697723.5, -1721940.3, -36439.813, -0.09517069, 0.19905747, -1671433.0, 50947.76, 0.0000005002885, 10.000186, 9.999862 
5.251272e+2, 1.3424839e+2, -1625448.9, -1646333.0, 44458.008, -0.037354562, 0.18572679, -1590223.1, 34159.5, 0.000000016983103, 10.00005, 9.999775 
5.2511203e+2, 1.442477e+2, -1538371.8, -1557347.8, 2537.51, -0.05286944, 0.1406629, -1538038.4, -11650.054, 0.0, 9.999992, 9.999739 
5.250965e+2, 1.5424767e+2, -1435157.0, -1455857.4, -3562.9758, -0.045345485, 0.16336708, -1434560.9, -6172.8228, 0.0, 10.000024, 9.999747 
5.2508104e+2, 1.6424738e+2, -1348558.6, -1375368.6, 10757.659, -0.03487593, 0.16687174, -1344775.8, -14385.284, 0.0, 9.999997, 9.99964 
5.2506584e+2, 1.7424677e+2, -1265440.9, -1283358.4, 19293.984, -0.021376856, 0.142335, -1253127.3, -20731.041, 0.0, 9.99989, 9.999651 
5.2505076e+2, 1.842464e+2, -1156994.5, -1143830.9, 32701.285, -0.01132579, 0.12670068, -1117055.6, 17343.566, 0.0, 9.9998045, 9.999977 
5.250359e+2, 1.9424635e+2, -1064383.9, -1043286.6, 32481.605, -0.005608097, 0.12112627, -1019683.75, 16714.373, 0.0, 9.999745, 10.000023 
5.25021e+2, 2.0424631e+2, -980251.1, -967501.06, 37971.88, -0.001324025, 0.12230771, -935372.8, 3025.5117, 0.0, 9.999717, 9.999885 
5.250062e+2, 2.1424627e+2, -879856.6, -867301.44, 41848.97, 0.0009865373, 0.13000754, -831261.8, 9138.054, 0.0, 9.999728, 9.999894 
5.2499145e+2, 2.2424631e+2, -772384.8, -747878.44, 44271.184, 0.004236176, 0.1387584, -714196.0, 28204.445, 0.0, 9.999721, 10.000045 
5.249767e+2, 2.3424646e+2, -676933.56, -647493.75, 41592.133, 0.008917188, 0.14719257, -618093.56, 26305.756, 0.0, 9.999687, 10.000077 
5.24962e+2, 2.442466e+2, -585812.8, -559751.9, 48764.59, 0.009379116, 0.15856588, -522306.8, 24092.012, 0.0, 9.999671, 10.000014 
5.249475e+2, 2.5424674e+2, -486134.94, -459252.6, 44881.574, 0.004154259, 0.17124331, -425842.72, 22556.176, 0.0, 9.999675, 10.00003 
5.249331e+2, 2.6424688e+2, -394207.28, -374328.72, 41782.13, 0.0060892096, 0.18839955, -341319.94, 9079.237, 0.0, 9.999678, 9.999938 
5.249187e+2, 2.7424708e+2, -295427.97, -274527.72, 39095.547, 0.017248942, 0.21127217, -244509.75, 7889.582, 0.0, 9.999677, 9.999951 
5.2490413e+2, 2.8424713e+2, -210995.23, -205736.52, 24870.313, 0.019622866, 0.23230906, -183356.97, -28957.156, 0.0, 9.999681, 9.999748 
5.248892e+2, 2.9424697e+2, -111379.65, -106534.37, 20277.518, 0.010530657, 0.2436286, -88535.28, -32134.389, 0.0, 9.99969, 9.999752 
5.248741e+2, 3.042463e+2, -45155.336, -37544.58, 540.3986, 0.0075315153, 0.1952236, -37506.4, -37506.4, 0.0, 9.999759, 9.999858 
5.248586e+2, 3.1424624e+2, -21857.477, -22104.71, -5195.1294, 0.002999518, 0.20811561, -16784.494, -16784.494, 0.0, 9.9999, 9.999896 
5.351415e+2, 1.24264315e+2, -1695471.5, -1716180.4, -45663.805, -0.077075295, 0.19723023, -1659002.9, 63224.79, 0.00000041209, 10.000181, 9.999904 
5.351272e+2, 1.342638e+2, -1622472.9, -1639780.8, 39508.426, -0.04231681, 0.16427101, -1590681.8, 33548.89, 0.000000018082496, 10.000048, 9.999822 
5.35112e+2, 1.4426306e+2, -1540804.6, -1562159.8, 3193.7898, -0.061981212, 0.11648352, -1540337.3, -14100.55, 0.0, 9.99999, 9.999707 
5.350964e+2, 1.5426321e+2, -1438206.6, -1461822.5, -2348.3018, -0.05283007, 0.16084933, -1437975.4, -9739.955, 0.0, 10.000022, 9.999707 
5.3508097e+2, 1.6426302e+2, -1338043.3, -1353257.5, 7101.713, -0.037379656, 0.16909385, -1335243.5, -5006.6807, 0.0, 9.999995, 9.999793 
5.3506577e+2, 1.7426242e+2, -1253787.3, -1259026.8, 15204.863, -0.0141243525, 0.12678824, -1240978.1, -8736.418, 0.0, 9.999889, 9.999819 
5.3505075e+2, 1.8426208e+2, -1159068.0, -1148116.8, 30321.244, 0.0007510619, 0.10739758, -1122780.8, 11463.324, 0.0, 9.999804, 9.9999485 
5.350357e+2, 1.9426215e+2, -1067530.5, -1049959.9, 30204.041, 0.004736547, 0.11667728, -1027289.44, 8953.3, 0.0, 9.999745, 9.999977 
5.350208e+2, 2.0426218e+2, -974698.8, -956166.6, 38209.56, 0.0073840814, 0.124241166, -926115.7, 12126.786, 0.0, 9.999717, 9.999963 
5.35006e+2, 2.1426217e+2, -873650.06, -854642.5, 42297.45, 0.00827684, 0.12694953, -820794.3, 19448.887, 0.0, 9.999729, 9.999981 
5.3499115e+2, 2.2426216e+2, -776371.2, -756414.06, 43189.06, 0.00796477, 0.12885639, -722065.8, 20178.143, 0.0, 9.999722, 9.999986 
5.349763e+2, 2.3426214e+2, -681819.5, -657891.1, 40369.332, 0.0062181232, 0.12829766, -627750.4, 16494.148, 0.0, 9.999688, 10.000006 
5.3496164e+2, 2.4426223e+2, -593639.06, -576249.7, 48837.766, 0.0051980373, 0.14344375, -535338.7, 10906.325, 0.0, 9.999671, 9.999901 
5.349472e+2, 2.5426248e+2, -494326.28, -476465.88, 45009.586, 0.0050683212, 0.17657445, -439509.13, 8735.94, 0.0, 9.999676, 9.999911 
5.3493273e+2, 2.6426262e+2, -398397.72, -383157.1, 41696.797, 0.006381111, 0.20286106, -348390.0, 1855.8182, 0.0, 9.999678, 9.999878 
5.3491825e+2, 2.7426267e+2, -299410.22, -282874.25, 38981.234, 0.009302757, 0.2195493, -251293.81, 953.15894, 0.0, 9.999677, 9.999894 
5.349037e+2, 2.842626e+2, -216095.89, -216287.5, 25053.469, 0.009973552, 0.23491098, -191138.05, -36889.47, 0.0, 9.9996805, 9.999677 
5.348888e+2, 2.9426232e+2, -116766.4, -117437.83, 20456.467, 0.007911419, 0.24157725, -96642.89, -40391.977, 0.0, 9.999689, 9.999678 
5.3487384e+2, 3.042616e+2, -44014.45, -35084.33, 5470.7324, 0.006149135, 0.1902301, -32487.826, -32487.826, 0.0, 9.999758, 9.999876 
5.3485847e+2, 3.1426156e+2, -19801.705, -18407.045, 190.23914, -0.004305748, 0.20161448, -18381.56, -18381.56, 0.0, 9.999902, 9.999921 
5.4514164e+2, 1.2428007e+2, -1729793.5, -1728282.4, -37046.51, -0.07065455, 0.19772679, -1691983.8, 30088.855, 0.00000036785775, 9.9999275, 9.999943 
5.4512715e+2, 1.342795e+2, -1638709.9, -1642437.0, 52031.227, -0.0449109, 0.15567334, -1588508.9, 35566.926, 0.000000024396927, 9.999915, 9.9998665 
5.4511195e+2, 1.4427875e+2, -1554890.3, -1567700.1, 18899.79, -0.059016667, 0.1014501, -1541339.6, -15257.617, 0.0, 9.999889, 9.999718 
5.450964e+2, 1.5427889e+2, -1465332.4, -1474099.1, 16773.426, -0.047052972, 0.14459582, -1452379.1, -24298.068, 0.0, 9.999833, 9.999714 
5.4508096e+2, 1.6427876e+2, -1363998.9, -1356084.5, 23261.162, -0.03240555, 0.1548693, -1336446.4, -6364.541, 0.0, 9.999776, 9.999879 
5.4506564e+2, 1.742783e+2, -1272455.6, -1257607.9, 25467.334, -0.01419707, 0.11882407, -1238504.4, -6419.6694, 0.0, 9.999717, 9.999911 
5.4505044e+2, 1.8427801e+2, -1180415.4, -1166657.8, 38331.074, 0.000407385, 0.10158574, -1134593.1, -506.37634, 0.0, 9.999693, 9.999874 
5.450355e+2, 1.9427796e+2, -1077953.5, -1064770.9, 35078.305, 0.010229024, 0.10761934, -1035670.0, 417.118, 0.0, 9.999716, 9.999889 
5.450206e+2, 2.0427793e+2, -975664.3, -958363.06, 38396.13, 0.015389928, 0.11625286, -927655.1, 10432.343, 0.0, 9.999718, 9.999947 
5.4500574e+2, 2.14278e+2, -880009.7, -858898.5, 35032.176, 0.014586077, 0.12564288, -832866.2, 7221.4556, 0.0, 9.999691, 9.9999695 
5.449909e+2, 2.2427797e+2, -783317.44, -765373.9, 32811.87, 0.011024179, 0.1288928, -740329.3, 1759.3322, 0.0, 9.999699, 9.999935 
5.44976e+2, 2.3427784e+2, -676290.4, -661339.5, 31248.19, 0.0039336598, 0.12285515, -636685.0, 7405.302, 0.0, 9.999753, 9.99995 
5.449614e+2, 2.442779e+2, -580022.06, -574580.0, 42627.836, 0.0015561207, 0.13835743, -534586.44, 11504.971, 0.0, 9.999786, 9.999857 
5.449469e+2, 2.5427815e+2, -480598.2, -474737.1, 44280.957, 0.0052496716, 0.17933415, -433289.8, 14801.782, 0.0, 9.999791, 9.9998665 
5.449325e+2, 2.6427832e+2, -382373.25, -374683.75, 45715.477, 0.006704124, 0.20838146, -332651.63, 17440.719, 0.0, 9.999784, 9.999884 
5.4491794e+2, 2.742783e+2, -286350.2, -275451.16, 47945.13, 0.0049590506, 0.22095539, -232646.83, 19446.617, 0.0, 9.999762, 9.999904 
5.4490334e+2, 2.8427818e+2, -208747.13, -218142.17, 38283.33, 0.0037858048, 0.2313889, -174874.19, -20778.676, 0.0, 9.999755, 9.999628 
5.448885e+2, 2.9427785e+2, -109164.21, -119715.15, 35166.707, 0.0035848564, 0.23235077, -78879.48, -22780.445, 0.0, 9.999767, 9.999624 
5.4487354e+2, 3.0427706e+2, -34847.594, -31905.36, 24177.965, 0.0024997464, 0.18392932, -9153.797, -9153.797, 0.0, 9.999826, 9.999864 
5.448583e+2, 3.1427717e+2, -14104.602, -16448.12, 16608.729, -0.007969527, 0.20866577, 1373.6512, 1373.6512, 0.000000000015387011, 9.999945, 9.999913 
5.5514157e+2, 1.2429606e+2, -1727749.6, -1723532.4, -41381.914, -0.07604844, 0.20009956, -1684205.4, 37710.137, 0.0000003291145, 9.999925, 9.999976 
5.55127e+2, 1.3429555e+2, -1636074.6, -1636501.3, 51653.047, -0.045417234, 0.15943514, -1584634.5, 39283.418, 0.000000025104656, 9.999912, 9.999909 
5.5511194e+2, 1.4429474e+2, -1551712.9, -1560593.1, 16804.99, -0.04474039, 0.095124416, -1538771.4, -12846.977, 0.0, 9.9998865, 9.999767 
5.550964e+2, 1.542947e+2, -1462185.9, -1467200.4, 14502.44, -0.028665345, 0.1151586, -1449975.5, -22050.7, 0.0, 9.999831, 9.999763 
5.5508083e+2, 1.642946e+2, -1362681.3, -1353242.3, 20880.652, -0.020320496, 0.12494485, -1336554.4, -6629.0854, 0.0, 9.999775, 9.999899 
5.550653e+2, 1.7429444e+2, -1271183.1, -1255126.4, 23055.318, -0.02155332, 0.11837939, -1238741.5, -6816.1074, 0.0, 9.999717, 9.999928 
5.5505e+2, 1.842942e+2, -1188658.5, -1184077.4, 38878.414, -0.012209649, 0.108921215, -1147422.1, -13494.814, 0.0, 9.999694, 9.999754 
5.5503523e+2, 1.942938e+2, -1087020.9, -1083870.8, 35893.49, 0.010866914, 0.093935944, -1049517.8, -13586.643, 0.0, 9.999717, 9.999758 
5.5502033e+2, 2.0429361e+2, -983306.4, -974483.0, 37461.215, 0.022632286, 0.0984597, -941174.6, -3241.1965, 0.0, 9.999719, 9.999836 
5.550055e+2, 2.1429375e+2, -887617.1, -874922.25, 34004.06, 0.019823298, 0.12608995, -846678.3, -6744.9336, 0.0, 9.999691, 9.99986 
5.549906e+2, 2.2429374e+2, -786201.06, -771664.56, 34657.883, 0.013321324, 0.13889292, -743521.0, -1586.5786, 0.0, 9.999699, 9.999892 
5.5497575e+2, 2.3429355e+2, -678879.1, -667072.0, 33357.94, 0.0020174528, 0.13102496, -639099.25, 4837.4546, 0.0, 9.999754, 9.99991 
5.5496114e+2, 2.4429356e+2, -578032.56, -570839.4, 42912.31, -0.0016381202, 0.14340287, -531373.2, 14565.026, 0.0, 9.999787, 9.999882 
5.549467e+2, 2.542938e+2, -478312.66, -470390.1, 44478.92, 0.004561235, 0.17938726, -429696.4, 18242.148, 0.0, 9.999792, 9.999896 
5.5493224e+2, 2.6429397e+2, -376979.28, -363824.66, 44957.098, 0.006967234, 0.20473209, -324966.28, 24972.596, 0.0, 9.999785, 9.999958 
5.5491775e+2, 2.7429405e+2, -280832.06, -264232.47, 47157.62, 0.0042735445, 0.21530658, -224649.81, 27288.979, 0.0, 9.999763, 9.999981 
5.5490303e+2, 2.842939e+2, -210569.84, -222050.39, 38765.66, 0.0010578078, 0.22156094, -177121.77, -23181.084, 0.0, 9.999755, 9.999601 
5.548882e+2, 2.9429343e+2, -111568.51, -124745.92, 35802.258, -0.0026703815, 0.21570526, -81753.74, -25808.459, 0.0, 9.999766, 9.99959 
5.548733e+2, 3.0429274e+2, -38076.016, -38548.273, 28555.97, -0.0036637532, 0.17641559, -9755.198, -9755.198, 0.0, 9.9998255, 9.999819 
5.548582e+2, 3.1429306e+2, -17553.846, -23278.717, 21262.451, -0.008200088, 0.23036711, 1037.9812, 1037.9812, 0.0000000020600701, 9.999943, 9.999867 
5.651414e+2, 1.24312006e+2, -1750303.3, -1729976.4, -33119.348, -0.07173227, 0.18190718, -1705496.1, 16261.804, 0.00000027083397, 9.999751, 10.000016 
5.6512684e+2, 1.3431169e+2, -1663442.3, -1644189.8, 63999.785, -0.04183565, 0.15548404, -1589096.4, 34662.387, 0.000000017878008, 9.999701, 9.999958 
5.651118e+2, 1.4431092e+2, -1584922.6, -1576587.8, 26893.535, -0.031613603, 0.09391669, -1553540.6, -27775.777, 0.0, 9.999659, 9.999767 
5.650962e+2, 1.543108e+2, -1493521.9, -1482763.1, 20520.592, -0.018049562, 0.10435155, -1466928.5, -39162.21, 0.0, 9.999619, 9.999759 
5.650806e+2, 1.6431065e+2, -1386880.5, -1371353.9, 24496.281, -0.013365338, 0.11348581, -1353420.3, -23652.969, 0.0, 9.999638, 9.999842 
5.65065e+2, 1.7431056e+2, -1273263.6, -1263225.1, 20685.3, -0.019251226, 0.11831098, -1246958.8, -15191.668, 0.0, 9.999733, 9.999865 
5.650497e+2, 1.8431024e+2, -1180062.1, -1186841.6, 34744.13, -0.013950095, 0.10983722, -1148542.8, -14773.154, 0.0, 9.9997835, 9.999692 
5.6503487e+2, 1.9430965e+2, -1083632.0, -1089268.4, 36631.41, 0.0057483204, 0.0820645, -1049710.5, -13935.455, 0.0, 9.999771, 9.999695 
5.6502e+2, 2.0430939e+2, -981551.9, -981984.7, 41561.28, 0.017924728, 0.08485662, -940206.44, -2428.2078, 0.0, 9.999767, 9.999761 
5.650052e+2, 2.1430957e+2, -881001.94, -880413.0, 40394.85, 0.020492246, 0.12529081, -840311.56, -533.5836, 0.0, 9.999774, 9.999782 
5.6499034e+2, 2.2430952e+2, -779456.44, -778033.7, 42392.57, 0.016627098, 0.14319037, -736346.5, 5433.082, 0.0, 9.999787, 9.999805 
5.649755e+2, 2.3430921e+2, -677301.7, -676131.2, 37491.258, 0.004414927, 0.13027585, -639220.6, 4562.746, 0.0, 9.999807, 9.999823 
5.6496096e+2, 2.4430914e+2, -575747.3, -572583.75, 41890.813, 0.000024799498, 0.14259574, -532244.9, 13540.733, 0.0, 9.999816, 9.999856 
5.649465e+2, 2.5430945e+2, -477768.4, -472483.13, 39379.64, 0.005722374, 0.18487595, -435657.53, 12128.156, 0.0, 9.999806, 9.999875 
5.64932e+2, 2.643096e+2, -369727.13, -355247.56, 36898.47, 0.0065900944, 0.21024466, -324885.34, 24900.475, 0.0, 9.999814, 10.000004 
5.649175e+2, 2.7430966e+2, -265909.7, -251414.42, 36966.785, 0.0010726758, 0.21277755, -220991.5, 30794.031, 0.0, 9.999841, 10.0000305 
5.6490284e+2, 2.843095e+2, -191390.45, -212347.48, 29863.26, -0.0026798737, 0.21537288, -170220.69, -16433.496, 0.0, 9.999885, 9.999605 
5.64888e+2, 2.9430905e+2, -84864.07, -111758.85, 29649.063, -0.0040128673, 0.21160844, -65755.37, -9963.816, 0.0, 9.999949, 9.999591 
5.6487316e+2, 3.0430838e+2, -21799.396, -33928.65, 23677.893, -0.0036085509, 0.17637774, -3421.7983, -3421.7983, 0.0, 9.999951, 9.999789 
5.6485814e+2, 3.1430873e+2, -29731.775, -32565.969, 17399.355, -0.00735298, 0.23663662, -13691.904, -13691.904, 0.000000017271022, 9.999875, 9.999836 
5.7514125e+2, 1.2432793e+2, -1748066.3, -1724008.5, -38610.707, -0.059058823, 0.14409433, -1695596.3, 26003.367, 0.00000019303324, 9.999745, 10.00006 
5.7512665e+2, 1.3432793e+2, -1660105.5, -1636461.3, 61867.527, -0.034595758, 0.14439139, -1585296.4, 38301.79, 0.000000007774616, 9.999697, 10.000013 
5.751116e+2, 1.4432731e+2, -1588793.4, -1584130.3, 25022.492, -0.019739542, 0.09782923, -1561330.9, -35727.47, 0.0, 9.999657, 9.999718 
5.7509583e+2, 1.5432717e+2, -1497553.1, -1491109.5, 18728.135, -0.015040509, 0.11150449, -1475328.0, -47722.63, 0.0, 9.999618, 9.9997015 
5.750802e+2, 1.6432692e+2, -1396351.8, -1391238.9, 27617.098, -0.011409156, 0.11976837, -1366060.3, -36452.617, 0.0, 9.999638, 9.999704 
5.7506484e+2, 1.7432663e+2, -1283324.8, -1284298.1, 24168.953, -0.00753645, 0.11854721, -1259637.6, -28027.848, 0.0, 9.999734, 9.99972 
5.750496e+2, 1.8432617e+2, -1180464.8, -1187856.5, 34488.445, -0.005154164, 0.104541995, -1149474.8, -15861.265, 0.0, 9.9997835, 9.999685 
5.7503456e+2, 1.9432554e+2, -1083313.4, -1088836.1, 36075.375, -0.005174349, 0.072007306, -1049893.9, -14274.942, 0.0, 9.999771, 9.999698 
5.7501966e+2, 2.0432526e+2, -984390.0, -988148.6, 41749.945, 0.0013408782, 0.07537326, -944477.06, -6855.1597, 0.0, 9.999767, 9.999719 
5.7500494e+2, 2.1432547e+2, -884132.06, -887214.44, 40672.516, 0.016578, 0.12322826, -844971.5, -5350.0264, 0.0, 9.999775, 9.999735 
5.7499015e+2, 2.2432534e+2, -788536.06, -797240.8, 43174.06, 0.020865265, 0.1417519, -749495.56, -7871.491, 0.0, 9.999788, 9.999673 
5.7497543e+2, 2.343248e+2, -686862.8, -696310.56, 38300.688, 0.011139634, 0.120473504, -652995.8, -9365.4795, 0.0, 9.999808, 9.999683 
5.7496077e+2, 2.4432467e+2, -581113.94, -584000.7, 41642.754, 0.0065849256, 0.13585591, -540889.56, 4744.1245, 0.0, 9.999817, 9.999778 
5.7494634e+2, 2.5432506e+2, -482900.0, -483400.94, 39016.883, 0.008722693, 0.19596733, -444132.78, 3500.3384, 0.0, 9.999807, 9.9998 
5.749318e+2, 2.6432526e+2, -368536.38, -353021.1, 37815.99, 0.0054903454, 0.22517042, -322175.22, 27458.004, 0.0, 9.999814, 10.000019 
5.7491726e+2, 2.7432516e+2, -264316.28, -248381.36, 37955.5, -0.0048605385, 0.21345331, -217566.1, 34067.69, 0.0, 9.999842, 10.0000515 
5.7490265e+2, 2.84325e+2, -188765.0, -207169.89, 32148.715, -0.007629337, 0.21297841, -164527.58, -10892.354, 0.0, 9.999886, 9.99964 
5.74888e+2, 2.943247e+2, -82176.03, -106435.875, 32079.973, -0.0003530049, 0.22072576, -60009.31, -4371.3545, 0.0, 9.99995, 9.999627 
5.7487315e+2, 3.0432403e+2, -22890.568, -36172.793, 20917.676, 0.0028147511, 0.18417603, -7585.076, -7585.076, 0.00000000021282408, 9.999951, 9.999775 
5.74858e+2, 3.1432423e+2, -31481.592, -35457.98, 14389.268, -0.0056969416, 0.2262259, -18943.81, -18943.81, 0.0000000699572, 9.999871, 9.999818 
5.851408e+2, 1.2434378e+2, -1811610.0, -1747944.1, -50771.5, -0.049242888, 0.11318518, -1719851.5, 1591.0886, 0.00000011738098, 9.99928, 10.000119 
5.851261e+2, 1.3434406e+2, -1710577.3, -1652666.9, 53896.438, -0.03397746, 0.13366567, -1620440.1, 2998.961, 0.0000000014227642, 9.999315, 10.000086 
5.851112e+2, 1.443436e+2, -1625715.4, -1603012.5, 21327.152, -0.012993438, 0.097912654, -1590204.0, -64760.574, 0.0, 9.999408, 9.999707 
5.8509547e+2, 1.5434341e+2, -1505508.0, -1496556.4, 18153.94, -0.010229667, 0.1123041, -1482334.6, -54889.2, 0.0, 9.99957, 9.999687 
5.850799e+2, 1.643431e+2, -1399129.6, -1405632.8, 29300.504, -0.0069373813, 0.11923911, -1372900.9, -43452.39, 0.0, 9.999676, 9.999588 
5.850646e+2, 1.7434265e+2, -1296409.3, -1304545.4, 27065.86, -0.00062237994, 0.1141365, -1273107.4, -41654.855, 0.0, 9.999704, 9.999595 
5.850494e+2, 1.843421e+2, -1189643.3, -1196246.3, 35425.746, -0.00061670004, 0.09903069, -1157365.5, -23908.17, 0.0, 9.999738, 9.999649 
5.8503425e+2, 1.9434147e+2, -1084443.4, -1092642.6, 34280.137, -0.0094429245, 0.069052674, -1054018.6, -18555.95, 0.0, 9.999778, 9.999668 
5.8501935e+2, 2.0434117e+2, -979270.0, -989886.25, 39226.906, -0.0064095603, 0.07454608, -944993.7, -7528.0317, 0.0, 9.999822, 9.9996805 
5.850047e+2, 2.1434136e+2, -873331.0, -886351.44, 38597.8, 0.012300148, 0.123729795, -840698.25, -1232.778, 0.0, 9.999868, 9.999696 
5.8499e+2, 2.2434114e+2, -777220.1, -802401.94, 42743.61, 0.02018408, 0.14021122, -745251.56, -3782.6396, 0.0, 9.999912, 9.999578 
5.8497536e+2, 2.3434044e+2, -673100.7, -700790.0, 40721.91, 0.014125808, 0.112622984, -643934.3, -457.45435, 0.0, 9.999951, 9.999584 
5.849607e+2, 2.4434023e+2, -558458.06, -581277.8, 46014.707, 0.010215394, 0.12907363, -522459.72, 23021.297, 0.0, 10.000008, 9.999704 
5.849463e+2, 2.5434068e+2, -447698.66, -474564.16, 43469.1, 0.009155491, 0.19968477, -415634.13, 31846.047, 0.0, 10.000084, 9.999727 
5.849318e+2, 2.643408e+2, -336378.3, -350110.78, 35580.57, 0.0027597237, 0.23232192, -307007.53, 42473.48, 0.0, 10.00009, 9.999907 
5.8491707e+2, 2.7434054e+2, -248946.31, -253917.67, 25094.604, -0.010696369, 0.21489434, -226214.58, 25269.021, 0.0, 10.000003, 9.999935 
5.8490247e+2, 2.8434032e+2, -179906.03, -199396.05, 14866.492, -0.011337044, 0.21350415, -171875.28, -18389.668, 0.0, 9.999931, 9.999672 
5.848879e+2, 2.943401e+2, -89696.836, -105359.73, 15250.228, 0.004756821, 0.22670947, -80384.74, -24897.758, 0.0, 9.999879, 9.99967 
5.8487314e+2, 3.0433944e+2, -33916.652, -40274.13, 4411.233, 0.0104567, 0.18697684, -31658.172, -31658.172, 0.000000006848287, 9.99987, 9.999785 
5.848579e+2, 3.143395e+2, -22894.178, -30258.834, -17.089691, -0.0031152114, 0.2144888, -22894.139, -22894.139, 0.00000018333391, 9.999926, 9.999827 
5.9514016e+2, 1.2435957e+2, -1807308.8, -1737846.8, -52486.473, -0.042975727, 0.088088706, -1709640.8, 11645.709, 0.000000058921596, 9.999275, 10.000192 
5.951254e+2, 1.3436009e+2, -1704518.6, -1640007.4, 55015.277, -0.039792392, 0.123212606, -1608489.1, 14792.178, 0.000000000010343272, 9.999314, 10.000174 
5.951106e+2, 1.4435974e+2, -1623697.8, -1599105.0, 26795.295, -0.011176776, 0.09422961, -1581919.4, -56634.84, 0.0, 9.999409, 9.999734 
5.950951e+2, 1.543596e+2, -1503765.3, -1493069.4, 24032.725, -0.0037848563, 0.10700834, -1473796.8, -46510.645, 0.0, 9.999571, 9.999711 
5.9507966e+2, 1.6435923e+2, -1406122.8, -1420246.6, 30532.563, -0.00017654145, 0.11217054, -1381846.1, -52556.41, 0.0, 9.999676, 9.999488 
5.9506434e+2, 1.7435862e+2, -1303876.6, -1320277.8, 27977.309, 0.001504633, 0.10518927, -1282922.8, -51627.32, 0.0, 9.999705, 9.999487 
5.950491e+2, 1.8435803e+2, -1194086.6, -1205823.3, 36812.98, -0.00029797, 0.0933238, -1162677.1, -29376.086, 0.0, 9.999739, 9.999583 
5.9503406e+2, 1.9435742e+2, -1088781.6, -1101991.4, 35703.31, -0.0071598347, 0.07316922, -1059077.4, -23771.133, 0.0, 9.999779, 9.999603 
5.9501916e+2, 2.0435712e+2, -981515.7, -994868.75, 40950.47, -0.005502859, 0.08230523, -946701.06, -9391.6, 0.0, 9.999823, 9.999646 
5.950045e+2, 2.1435723e+2, -875509.56, -891187.3, 40364.18, 0.0075407443, 0.12674212, -842230.1, -2920.2693, 0.0, 9.999869, 9.999662 
5.949899e+2, 2.2435692e+2, -781216.1, -811019.44, 44287.504, 0.01449673, 0.13855608, -749390.44, -8076.383, 0.0, 9.999913, 9.999518 
5.9497523e+2, 2.3435612e+2, -677268.7, -709819.5, 42254.945, 0.013282665, 0.10678122, -648263.1, -4940.1113, 0.0, 9.999952, 9.999521 
5.949607e+2, 2.4435583e+2, -563022.1, -591240.3, 48896.535, 0.010775894, 0.12224577, -526239.75, 19087.965, 0.0, 10.00001, 9.999635 
5.9494627e+2, 2.543562e+2, -452336.38, -484836.63, 46435.19, 0.0068287253, 0.19582868, -419390.03, 27936.93, 0.0, 10.000087, 9.999656 
5.949318e+2, 2.6435623e+2, -353219.75, -385701.63, 32685.32, -0.0017913298, 0.2315035, -332962.78, 16366.473, 0.0, 10.000092, 9.999661 
5.94917e+2, 2.7435574e+2, -266859.66, -291476.72, 21742.541, -0.01649623, 0.21718127, -254183.42, -2848.2864, 0.0, 10.000004, 9.999677 
5.949024e+2, 2.843554e+2, -178024.58, -195531.75, 12642.957, -0.013868652, 0.2170848, -171400.6, -18062.053, 0.0, 9.999931, 9.999699 
5.9488785e+2, 2.9435524e+2, -86692.43, -98749.83, 13088.339, 0.011174573, 0.22933282, -78311.07, -22972.205, 0.0, 9.999877, 9.999717 
5.9487313e+2, 3.0435458e+2, -31699.574, -35136.1, 6075.321, 0.019133033, 0.18446694, -27104.205, -27104.205, 0.000000033052434, 9.999867, 9.999823 
5.948579e+2, 3.143545e+2, -20532.021, -24963.771, 2088.5947, 0.00021123872, 0.20119238, -19702.846, -19702.846, 0.00000037488923, 9.999924, 9.999866 
6.0513926e+2, 1.2437552e+2, -1868599.9, -1763489.3, -49955.004, -0.03771825, 0.08189211, -1743535.5, -22406.041, 0.000000021349177, 9.998838, 10.000225 
6.051246e+2, 1.3437605e+2, -1723281.1, -1643519.5, 57222.973, -0.03920623, 0.114225775, -1613651.1, 9473.21, 0.0, 9.999163, 10.000222 
6.0511005e+2, 1.4437574e+2, -1623040.9, -1594016.6, 26107.19, -0.002680925, 0.08341012, -1578659.3, -53531.992, 0.0, 9.9993925, 9.999776 
6.050947e+2, 1.5437561e+2, -1510633.3, -1491507.0, 24592.844, -0.00088915153, 0.095223844, -1474683.4, -47555.273, 0.0, 9.999502, 9.999754 
6.0507923e+2, 1.6437523e+2, -1420632.4, -1436343.3, 30247.46, -0.0014489255, 0.09974281, -1397236.9, -68105.15, 0.0, 9.999616, 9.999406 
6.05064e+2, 1.7437455e+2, -1306346.5, -1331476.6, 28704.049, -0.0016199206, 0.09261339, -1287577.9, -56439.066, 0.0, 9.999731, 9.999397 
6.0504884e+2, 1.8437392e+2, -1188324.3, -1210751.6, 36836.133, -0.0019963642, 0.086573884, -1161032.8, -27887.861, 0.0, 9.999812, 9.999514 
6.050339e+2, 1.9437338e+2, -1083634.0, -1107214.6, 35129.566, -0.0034028457, 0.07987861, -1058369.0, -23219.262, 0.0, 9.999848, 9.999535 
6.0501903e+2, 2.0437302e+2, -979728.1, -1005605.0, 37849.754, -0.00022443752, 0.09120044, -952666.44, -15512.78, 0.0, 9.999885, 9.999542 
6.050044e+2, 2.1437289e+2, -875172.06, -902985.5, 31593.674, 0.009336033, 0.123164564, -854559.8, -15403.429, 0.0, 9.999924, 9.999555 
6.049898e+2, 2.2437249e+2, -769589.8, -808623.2, 35205.402, 0.012820418, 0.13264199, -748853.25, -7691.7236, 0.0, 10.000007, 9.99949 
6.049752e+2, 2.3437178e+2, -650854.06, -699904.25, 35986.605, 0.008290466, 0.11175339, -631830.1, 11339.468, 0.0, 10.000146, 9.999496 
6.0496074e+2, 2.4437147e+2, -536082.1, -581387.7, 43144.01, 0.0047566947, 0.1278915, -510005.53, 35168.754, 0.0, 10.000208, 9.999607 
6.0494643e+2, 2.543717e+2, -442237.53, -483296.5, 43578.723, 0.0025588172, 0.1889526, -414594.78, 32579.623, 0.0, 10.000171, 9.999626 
6.049319e+2, 2.6437157e+2, -358165.16, -405722.03, 31667.156, -0.0025041734, 0.22016217, -342342.8, 6835.1987, 0.0, 10.0001335, 9.999503 
6.049171e+2, 2.74371e+2, -264966.84, -309346.7, 27285.947, -0.011277584, 0.21189402, -251986.95, -801.2247, 0.0, 10.000098, 9.999509 
6.049024e+2, 2.843706e+2, -157829.42, -183813.66, 22059.783, -0.0077947793, 0.21466392, -145220.19, 7969.6533, 0.0, 10.000061, 9.999716 
6.0488784e+2, 2.9437044e+2, -62914.51, -84012.29, 21144.945, 0.011528726, 0.22553787, -49833.168, 5356.241, 0.00000000003092486, 10.000026, 9.999745 
6.0487306e+2, 3.0436975e+2, -20382.633, -33168.234, 11736.836, 0.020822244, 0.17796357, -13410.509, -13410.509, 0.00000008707832, 9.999961, 9.99979 
6.048579e+2, 3.1436962e+2, -31796.613, -34198.04, 2244.9448, 0.013073113, 0.19007666, -30451.45, -30451.45, 0.0000006525611, 9.999863, 9.99983 
6.151381e+2, 1.2439162e+2, -1868987.8, -1764277.0, -40541.89, -0.033888396, 0.09294274, -1750415.1, -29443.723, 0.0000000039655865, 9.998838, 10.00022 
6.1512387e+2, 1.3439198e+2, -1722572.5, -1642174.4, 69175.22, -0.03258431, 0.10654638, -1602366.1, 20601.916, 0.0, 9.999163, 10.000233 
6.151096e+2, 1.443916e+2, -1619102.6, -1585810.8, 30282.313, 0.01210175, 0.06571388, -1567900.9, -42929.496, 0.0, 9.9993925, 9.999833 
6.150941e+2, 1.5439153e+2, -1506380.9, -1482796.9, 28317.533, -0.001522869, 0.07717186, -1463914.3, -36943.074, 0.0, 9.999502, 9.999814 
6.1507875e+2, 1.6439115e+2, -1425062.9, -1445798.9, 34261.383, -0.010552009, 0.08214168, -1399635.1, -70660.52, 0.0, 9.999616, 9.999341 
6.150636e+2, 1.743904e+2, -1311354.6, -1342191.3, 32817.035, -0.00989231, 0.076538555, -1290514.4, -59531.95, 0.0, 9.999732, 9.999323 
6.150486e+2, 1.8438978e+2, -1193368.1, -1221575.0, 38164.035, -0.005719521, 0.07886519, -1166785.0, -33796.188, 0.0, 9.999813, 9.999439 
6.1503375e+2, 1.9438934e+2, -1088735.0, -1118165.6, 36350.977, 0.0017681427, 0.089167155, -1064233.8, -29240.828, 0.0, 9.999849, 9.999459 
6.15019e+2, 2.0438887e+2, -991836.2, -1031105.5, 39210.55, 0.009353776, 0.10121163, -967619.0, -30620.643, 0.0, 9.9998865, 9.999367 
6.150044e+2, 2.1438836e+2, -887807.6, -929534.8, 33067.15, 0.017609129, 0.11301072, -869572.3, -30567.236, 0.0, 9.999925, 9.9993725 
6.149898e+2, 2.2438787e+2, -769447.9, -808654.94, 40266.668, 0.0150634395, 0.12254456, -744266.3, -3255.0151, 0.0, 10.000008, 9.999489 
6.149753e+2, 2.3438743e+2, -649867.25, -698304.4, 41309.215, -0.0009938383, 0.12771392, -626200.6, 16816.125, 0.0, 10.000148, 9.999507 
6.149608e+2, 2.4438715e+2, -534979.56, -579548.56, 42115.434, -0.0079982495, 0.14612809, -509616.3, 35404.39, 0.0, 10.000209, 9.9996195 
6.149465e+2, 2.543871e+2, -441263.3, -481568.97, 42167.133, -0.0036932616, 0.17890534, -414680.66, 32341.926, 0.0, 10.000171, 9.999638 
6.14932e+2, 2.643868e+2, -362976.16, -415924.84, 30389.553, 0.00072804716, 0.19802089, -349146.47, -119.0954, 0.0, 10.000134, 9.999433 
6.1491734e+2, 2.7438626e+2, -270164.56, -320387.5, 26098.81, 0.005215389, 0.19875148, -259058.17, -8022.719, 0.0, 10.000098, 9.9994335 
6.149027e+2, 2.843859e+2, -157256.13, -182860.48, 20909.982, 0.0069553917, 0.20592983, -145540.48, 7499.032, 0.0, 10.000062, 9.9997225 
6.148878e+2, 2.943857e+2, -62109.734, -82490.53, 20034.652, 0.0053817695, 0.21507744, -49822.777, 5215.884, 0.0000000010306047, 10.000026, 9.999756 
6.1487293e+2, 3.0438498e+2, -27975.49, -48831.367, 8301.756, 0.015159428, 0.16739635, -25074.473, -25074.473, 0.00000016756015, 9.99996, 9.999683 
6.14858e+2, 3.1438476e+2, -40269.55, -51071.203, -1359.4906, 0.03563554, 0.18136011, -40101.074, -40101.074, 0.000001002472, 9.999859, 9.999717 
6.251371e+2, 1.24407515e+2, -1888199.3, -1773730.5, -40090.875, -0.011903815, 0.09786291, -1761086.0, -40270.863, 0.00000000008306351, 9.998708, 10.000218 
6.251229e+2, 1.344078e+2, -1743031.1, -1650554.0, 71880.53, -0.029395986, 0.103730455, -1611324.4, 11488.065, 0.0, 9.999016, 10.000245 
6.2510896e+2, 1.444074e+2, -1639467.9, -1598121.8, 24019.295, 0.01626006, 0.061525807, -1587104.1, -62288.156, 0.0, 9.999264, 9.99981 
6.250936e+2, 1.5440737e+2, -1517631.8, -1491039.3, 15450.258, -0.0031518857, 0.077973634, -1483951.6, -57135.957, 0.0, 9.999437, 9.999788 
6.250784e+2, 1.6440697e+2, -1426472.1, -1447893.8, 19917.531, -0.0127771925, 0.08266707, -1414568.1, -85748.84, 0.0, 9.999613, 9.999328 
6.250634e+2, 1.7440616e+2, -1304228.3, -1340221.9, 22789.596, -0.005739923, 0.070316255, -1293186.3, -62358.56, 0.0, 9.999788, 9.99931 
6.250485e+2, 1.8440549e+2, -1184679.8, -1226925.0, 26681.805, 0.00000020975045, 0.071890436, -1171771.8, -38937.207, 0.0, 9.999914, 9.999353 
6.250337e+2, 1.9440502e+2, -1076020.3, -1122222.6, 23362.137, 0.002786593, 0.088875294, -1066266.4, -31427.13, 0.0, 9.999981, 9.999368 
6.2501895e+2, 2.0440444e+2, -972622.44, -1028683.44, 29599.371, 0.008031135, 0.10077395, -959887.4, -23041.863, 0.0, 10.000048, 9.999305 
6.250044e+2, 2.144038e+2, -864007.06, -924818.75, 32475.7, 0.016876215, 0.103750534, -849924.9, -11071.3545, 0.0, 10.000117, 9.999311 
6.2498987e+2, 2.2440328e+2, -744097.8, -796676.0, 45994.23, 0.013272637, 0.11404202, -717409.7, 23450.258, 0.0, 10.000183, 9.999487 
6.249754e+2, 2.3440295e+2, -635924.6, -691472.0, 46322.4, -0.0058018663, 0.13221173, -609687.75, 33176.434, 0.0, 10.000243, 9.999507 
6.24961e+2, 2.4440268e+2, -533325.44, -583041.94, 39147.586, -0.013436242, 0.15103965, -511810.6, 33057.58, 0.0, 10.000239, 9.99958 
6.249466e+2, 2.5440243e+2, -446552.66, -488688.72, 34716.848, -0.0068154493, 0.16802989, -427011.3, 19860.463, 0.0, 10.0001545, 9.999597 
6.249321e+2, 2.6440206e+2, -369574.66, -419897.03, 23960.303, 0.001452024, 0.1825634, -359991.3, -11114.239, 0.0, 10.0000925, 9.999426 
6.249175e+2, 2.744016e+2, -276222.7, -323904.6, 24943.34, 0.011715338, 0.19307671, -265559.13, -14674.925, 0.0, 10.00006, 9.999428 
6.249028e+2, 2.8440124e+2, -164788.22, -193703.47, 20543.982, 0.0139920935, 0.20370787, -154124.58, -1236.2781, 0.0, 10.000042, 9.999658 
6.248878e+2, 2.9440096e+2, -64392.617, -91298.4, 13493.112, 0.00631204, 0.20846623, -58791.785, -3903.115, 0.000000004235602, 10.000044, 9.999686 
6.248729e+2, 3.0440015e+2, -20500.52, -50037.92, -932.5637, 0.017329777, 0.15922147, -20471.105, -20471.105, 0.000000262113, 10.000032, 9.99964 
6.24858e+2, 3.143999e+2, -21299.957, -46512.56, -5226.3647, 0.048686113, 0.17440063, -20259.512, -20259.512, 0.0000013873902, 10.00001, 9.999676 
6.351362e+2, 1.2442324e+2, -1887557.6, -1773504.8, -30746.4, 0.026508143, 0.0966923, -1765744.1, -45083.61, 0.0, 9.998713, 10.000217 
6.3512194e+2, 1.3442357e+2, -1741465.8, -1648100.6, 82883.13, -0.029699748, 0.105563775, -1599657.6, 22999.8, 0.0, 9.999019, 10.000261 
6.351082e+2, 1.444232e+2, -1646340.6, -1612723.8, 30141.143, 0.010149259, 0.07030585, -1595021.1, -70360.13, 0.0, 9.999265, 9.99971 
6.35093e+2, 1.5442316e+2, -1525100.3, -1506795.5, 21527.727, -0.005805596, 0.09693381, -1492555.4, -65893.875, 0.0, 9.999438, 9.9996805 
6.35078e+2, 1.644227e+2, -1423870.9, -1442703.1, 26147.26, -0.008395718, 0.10071537, -1405496.0, -76830.23, 0.0, 9.999613, 9.999364 
6.3506335e+2, 1.7442179e+2, -1301005.6, -1333759.3, 29090.035, 0.010458647, 0.07366891, -1283999.4, -53324.984, 0.0, 9.999788, 9.999354 
6.3504857e+2, 1.8442099e+2, -1191477.1, -1241288.8, 29139.787, 0.014808005, 0.06559021, -1178049.9, -45367.74, 0.0, 9.999915, 9.999255 
6.350336e+2, 1.944204e+2, -1083498.5, -1138039.5, 25718.883, -0.00043113824, 0.079105794, -1073283.8, -38595.21, 0.0, 9.999982, 9.999259 
6.350189e+2, 2.0441979e+2, -968930.0, -1021353.4, 32123.79, -0.004190628, 0.090036094, -953681.0, -16985.861, 0.0, 10.000049, 9.999355 
6.350044e+2, 2.144192e+2, -859734.0, -916313.06, 35112.09, 0.0070502344, 0.09545344, -842933.0, -4231.2275, 0.0, 10.000118, 9.99937 
6.3499e+2, 2.2441873e+2, -744339.7, -797537.0, 48328.1, 0.007358491, 0.107094534, -715774.1, 24933.402, 0.0, 10.000184, 9.99948 
6.349757e+2, 2.3441839e+2, -636485.1, -693013.94, 48656.363, -0.0060793147, 0.12507685, -608479.5, 34232.438, 0.0, 10.000244, 9.999496 
6.3496125e+2, 2.4441804e+2, -539684.1, -596528.5, 36264.99, -0.011533725, 0.14250582, -522030.63, 22686.117, 0.0, 10.00024, 9.999488 
6.3494676e+2, 2.544177e+2, -453334.47, -502938.63, 31527.068, -0.0069145635, 0.15641294, -438022.97, 8699.022, 0.0, 10.000155, 9.999498 
6.3493216e+2, 2.6441732e+2, -365621.28, -411754.47, 22613.074, -0.00058462005, 0.1739864, -356385.88, -7658.6636, 0.0, 10.0000925, 9.999482 
6.349175e+2, 2.7441704e+2, -271692.44, -314439.44, 23818.352, 0.0077870083, 0.19515797, -261063.75, -10331.666, 0.0, 10.000059, 9.999494 
6.349028e+2, 2.8441665e+2, -174828.7, -214469.66, 20664.2, 0.012983214, 0.20830946, -166015.98, -13279.723, 0.0, 10.000041, 9.999516 
6.3488793e+2, 2.9441616e+2, -75389.61, -114028.555, 13649.896, 0.014549529, 0.2058542, -71054.02, -16314.3955, 0.000000008608103, 10.000043, 9.999531 
6.3487303e+2, 3.0441523e+2, -19039.51, -46952.152, -1746.3064, 0.027460676, 0.153462, -18930.68, -18930.68, 0.00000035003856, 10.000031, 9.999662 
6.34858e+2, 3.14415e+2, -18955.084, -41740.13, -5876.295, 0.05128548, 0.16918865, -17528.855, -17528.855, 0.0000017531521, 10.00001, 9.999708 
6.4513505e+2, 1.2443838e+2, -1861012.3, -1762980.8, -52272.28, 0.035465427, 0.07988599, -1740338.0, -19826.738, 0.0, 9.998904, 10.000197 
6.45121e+2, 1.3443886e+2, -1734453.4, -1645184.1, 60829.508, -0.03087696, 0.102143526, -1614370.3, 8136.8604, 0.0, 9.999068, 10.0002575 
6.451075e+2, 1.4443855e+2, -1652197.6, -1619948.9, 7283.7764, 0.01788709, 0.07541081, -1618380.0, -93869.58, 0.0, 9.999244, 9.999671 
6.450925e+2, 1.5443845e+2, -1528242.8, -1512907.0, 3505.1355, 0.00212583, 0.101393744, -1512143.9, -85632.04, 0.0, 9.999437, 9.9996395 
6.4507765e+2, 1.6443801e+2, -1421864.8, -1437913.3, 9798.893, -0.0025080978, 0.10553433, -1417223.9, -88707.555, 0.0, 9.999611, 9.999397 
6.450631e+2, 1.7443714e+2, -1302654.3, -1330317.8, 12025.704, 0.011916798, 0.08023352, -1298157.4, -67633.305, 0.0, 9.999759, 9.999392 
6.4504844e+2, 1.8443635e+2, -1194941.6, -1242595.9, 12674.38, 0.014265766, 0.07062103, -1191780.4, -59248.637, 0.0, 9.999889, 9.999258 
6.450336e+2, 1.9443569e+2, -1080713.5, -1136762.5, 17004.39, -0.000074737065, 0.07852372, -1075958.1, -41419.387, 0.0, 10.000001, 9.999258 
6.4501894e+2, 2.0443507e+2, -958715.44, -1009586.6, 27105.463, -0.004472924, 0.08407253, -946980.1, -10434.864, 0.0, 10.00009, 9.999415 
6.450045e+2, 2.1443449e+2, -850589.94, -904816.2, 30296.004, 0.004312958, 0.08452605, -837046.3, 1504.8682, 0.0, 10.000152, 9.999433 
6.4499015e+2, 2.2443405e+2, -742919.94, -794972.2, 43230.227, 0.0046283607, 0.09593045, -718486.06, 22070.172, 0.0, 10.000187, 9.999496 
6.4497584e+2, 2.3443379e+2, -643565.44, -694975.9, 45156.043, -0.0058901557, 0.11936739, -617310.8, 25249.176, 0.0, 10.00019, 9.999509 
6.449615e+2, 2.4443343e+2, -553035.25, -614134.9, 30923.396, -0.009190083, 0.1379236, -540116.1, 4449.233, 0.0, 10.000197, 9.999388 
6.4494693e+2, 2.5443292e+2, -453256.1, -514918.63, 25185.656, -0.0033134313, 0.14757912, -444276.75, 2295.8032, 0.0, 10.000208, 9.999391 
6.449324e+2, 2.6443252e+2, -348312.13, -398990.38, 15039.007, 0.0020218114, 0.16555494, -344185.28, 4392.837, 0.0, 10.000193, 9.999521 
6.449176e+2, 2.7443233e+2, -255697.38, -301334.75, 14759.792, 0.006600994, 0.19285046, -251339.89, -758.5866, 0.0, 10.000147, 9.999541 
6.449028e+2, 2.844319e+2, -174466.44, -229085.33, 12095.3, 0.012491803, 0.20795836, -171907.8, -19322.105, 0.0, 10.000108, 9.999383 
6.44888e+2, 2.9443127e+2, -80205.195, -132466.86, 5944.738, 0.02042733, 0.20247707, -79537.51, -24945.848, 0.000000011710588, 10.00008, 9.999387 
6.4487314e+2, 3.0443025e+2, -8402.286, -37786.32, -7710.854, 0.034374498, 0.14765476, -6501.7554, -6501.7554, 0.00000040808163, 10.000088, 9.999698 
6.448581e+2, 3.1443006e+2, 3531.259, -25664.055, -10744.994, 0.05291165, 0.16067672, 7059.4536, 7059.4536, 0.0000020407565, 10.000142, 9.999755 
6.551338e+2, 1.2445299e+2, -1863241.5, -1768693.5, -47081.855, 0.016099727, 0.047613192, -1749247.8, -28880.707, 0.0, 9.998909, 10.000156 
6.5512e+2, 1.3445367e+2, -1735735.9, -1648636.3, 66608.19, -0.0328309, 0.09378516, -1612604.5, 9756.705, 0.0, 9.999071, 10.000233 
6.5510696e+2, 1.4445347e+2, -1650804.0, -1617341.3, 13951.566, 0.038864825, 0.07691873, -1612287.6, -87923.72, 0.0, 9.999245, 9.999688 
6.550921e+2, 1.5445328e+2, -1526732.1, -1509785.4, 10467.502, 0.020165, 0.091842085, -1504791.5, -78425.04, 0.0, 9.999436, 9.9996605 
6.5507734e+2, 1.6445287e+2, -1419811.3, -1433643.9, 15219.063, 0.0046661966, 0.09762653, -1410010.6, -81639.98, 0.0, 9.99961, 9.999428 
6.5506274e+2, 1.7445222e+2, -1300536.9, -1326024.9, 17387.824, -0.0011408286, 0.090012245, -1291722.9, -61346.152, 0.0, 9.999759, 9.999421 
6.5504813e+2, 1.8445155e+2, -1187782.8, -1227893.8, 16718.861, -0.0012919266, 0.08677921, -1181728.0, -49344.855, 0.0, 9.99989, 9.999359 
6.5503365e+2, 1.9445093e+2, -1073350.4, -1121674.0, 21059.111, 0.0038576592, 0.08702356, -1065461.0, -31071.281, 0.0, 10.000002, 9.999362 
6.550191e+2, 2.0445028e+2, -953685.06, -999446.0, 29429.998, 0.00703259, 0.082828924, -939287.7, -2891.7124, 0.0, 10.000091, 9.999485 
6.550047e+2, 2.1444966e+2, -845750.8, -895159.8, 32584.813, 0.008618919, 0.070908666, -829564.2, 8837.578, 0.0, 10.000153, 9.999498 
6.549904e+2, 2.2444926e+2, -740193.0, -789600.25, 43508.277, 0.0050546783, 0.08053077, -714864.25, 25541.865, 0.0, 10.000187, 9.999534 
6.54976e+2, 2.3444915e+2, -641040.1, -690000.7, 45322.625, -0.005310131, 0.11513992, -614009.0, 28399.436, 0.0, 10.000191, 9.999543 
6.5496165e+2, 2.4444877e+2, -560698.56, -630282.44, 31310.963, -0.0064367233, 0.13734895, -548683.94, -4269.8413, 0.0, 10.000197, 9.999276 
6.549472e+2, 2.544481e+2, -461545.34, -532408.9, 25617.033, 0.004058428, 0.14158449, -453254.78, -6831.1855, 0.0, 10.000209, 9.99927 
6.549326e+2, 2.6444763e+2, -346859.13, -396283.2, 13386.291, 0.009325893, 0.15728442, -343466.4, 4963.5425, 0.0, 10.000194, 9.999539 
6.549177e+2, 2.7444747e+2, -253770.67, -297530.4, 13028.335, 0.00812998, 0.18599053, -250185.53, 246.52771, 0.0, 10.000147, 9.999567 
6.549029e+2, 2.8444704e+2, -183195.14, -247304.34, 10977.257, 0.012420992, 0.20247193, -181367.64, -28930.807, 0.0, 10.000108, 9.999258 
6.548881e+2, 2.9444626e+2, -89727.43, -152188.77, 4961.223, 0.023755861, 0.1983479, -89335.82, -34890.84, 0.000000011654482, 10.000079, 9.999251 
6.548733e+2, 3.0444515e+2, -5027.264, -30761.266, -5778.5234, 0.037808664, 0.14188093, -3789.2644, -3789.2644, 0.00000041978168, 10.000087, 9.999746 
6.548583e+2, 3.14445e+2, 7731.748, -17060.32, -8561.716, 0.053179007, 0.14860791, 10401.06, 10401.06, 0.0000022012798, 10.000142, 9.999814 
6.651327e+2, 1.244676e+2, -1840812.6, -1760948.8, -54202.195, 0.014027749, 0.031392183, -1733557.4, -13334.285, 0.0, 9.999077, 10.000128 
6.6511905e+2, 1.3446835e+2, -1727499.0, -1645902.5, 60274.69, -0.032250952, 0.08614154, -1613916.6, 8300.131, 0.0, 9.999134, 10.00022 
6.6510624e+2, 1.4446819e+2, -1655194.4, -1617562.6, 9100.956, 0.051621106, 0.07295506, -1615477.3, -91257.93, 0.0, 9.999207, 9.999704 
6.650915e+2, 1.5446794e+2, -1544336.3, -1515996.9, 5595.5977, 0.0241982, 0.080249675, -1514932.1, -88709.69, 0.0, 9.999307, 9.9996805 
6.6507685e+2, 1.6446756e+2, -1438272.6, -1435497.8, 12471.837, 0.004466553, 0.085107505, -1424336.5, -96110.01, 0.0, 9.999454, 9.99949 
6.650624e+2, 1.7446704e+2, -1310735.8, -1323685.8, 17137.352, 0.00020104003, 0.085081734, -1298891.0, -68659.68, 0.0, 9.999658, 9.999486 
6.6504806e+2, 1.8446653e+2, -1195353.3, -1224819.3, 13506.706, 0.0004920884, 0.08865987, -1190099.0, -57862.49, 0.0, 9.999809, 9.999419 
6.650336e+2, 1.9446601e+2, -1084524.0, -1120479.6, 14182.279, 0.0046933107, 0.094651125, -1079603.4, -45361.367, 0.0, 9.999897, 9.99942 
6.6501915e+2, 2.044654e+2, -962895.5, -997043.5, 20098.0, 0.007723784, 0.08822744, -953598.06, -17350.37, 0.0, 9.999998, 9.999546 
6.6500485e+2, 2.1446472e+2, -846409.6, -888738.4, 22608.844, 0.010034665, 0.0643782, -836604.8, 1648.7637, 0.0, 10.000119, 9.999558 
6.6499054e+2, 2.2446431e+2, -741059.9, -788064.8, 28803.307, 0.005913752, 0.06948566, -727387.1, 12870.658, 0.0, 10.000174, 9.999551 
6.649762e+2, 2.3446426e+2, -646878.7, -691210.44, 28757.73, -0.006387277, 0.10859933, -632735.7, 9523.913, 0.0, 10.000144, 9.999557 
6.649619e+2, 2.444639e+2, -568779.1, -634387.2, 19078.063, -0.007840062, 0.132549, -563634.8, -19369.738, 0.0, 10.000144, 9.999274 
6.649474e+2, 2.544632e+2, -466225.47, -535060.6, 22202.652, 0.004138386, 0.1351956, -459685.4, -13410.572, 0.0, 10.000178, 9.999266 
6.649328e+2, 2.644627e+2, -344754.38, -389347.97, 13465.267, 0.010742388, 0.14656092, -341003.88, 7277.37, 0.0, 10.000184, 9.999592 
6.649179e+2, 2.7446255e+2, -249432.73, -289348.06, 14989.125, 0.010709013, 0.16747032, -244430.78, 5852.493, 0.0, 10.000151, 9.99962 
6.649031e+2, 2.8446215e+2, -180027.39, -251131.2, 18389.023, 0.016462779, 0.1883146, -175553.13, -23265.451, 0.0, 10.000153, 9.999209 
6.648883e+2, 2.9446152e+2, -76169.76, -151769.95, 18430.098, 0.02949142, 0.20343257, -71916.125, -17620.945, 0.000000008469742, 10.000199, 9.999196 
6.648735e+2, 3.0446038e+2, 12410.147, -25852.914, 8332.137, 0.04512638, 0.14776097, 14145.815, 14145.815, 0.00000038345433, 10.000222, 9.999715 
6.648585e+2, 3.1445992e+2, 16268.598, -16306.951, -1441.4149, 0.06242631, 0.13179815, 16332.254, 16332.254, 0.000002213461, 10.000216, 9.9997835 
6.751319e+2, 1.244822e+2, -1841679.8, -1763538.3, -52034.066, 0.027612427, 0.029829448, -1737539.3, -17459.893, 0.0, 9.99908, 10.000109 
6.751182e+2, 1.344829e+2, -1727263.5, -1645998.0, 61964.02, -0.029469991, 0.07908989, -1612532.4, 9541.063, 0.0, 9.999135, 10.000219 
6.751055e+2, 1.4448272e+2, -1654096.1, -1615595.0, 12255.63, 0.056321364, 0.06373775, -1612024.9, -87948.67, 0.0, 9.9992075, 9.999719 
6.750907e+2, 1.5448244e+2, -1543059.6, -1513670.3, 9114.438, 0.014556768, 0.06675931, -1511073.1, -84993.58, 0.0, 9.999307, 9.999697 
6.7507625e+2, 1.6448209e+2, -1431587.9, -1421901.0, 19755.162, -0.0029102883, 0.06811641, -1406404.3, -78320.87, 0.0, 9.9994545, 9.999583 
6.7506224e+2, 1.7448165e+2, -1303871.5, -1309611.4, 24599.377, 0.015591257, 0.065741904, -1281975.3, -51887.64, 0.0, 9.999659, 9.999582 
6.7504805e+2, 1.8448125e+2, -1194060.0, -1222336.3, 16770.998, 0.019076629, 0.07658045, -1186262.9, -54171.227, 0.0, 9.99981, 9.999435 
6.7503345e+2, 1.9448093e+2, -1083480.3, -1118621.3, 17300.795, 0.002298763, 0.101468734, -1076392.4, -42296.805, 0.0, 9.999898, 9.999433 
6.75019e+2, 2.0448042e+2, -959177.9, -989689.1, 24485.62, -0.002338453, 0.10021919, -945584.25, -9483.79, 0.0, 9.999999, 9.999597 
6.7500496e+2, 2.1447967e+2, -842560.7, -881119.44, 27143.016, 0.008480881, 0.06496032, -828546.9, 9559.793, 0.0, 10.00012, 9.999611 
6.7499065e+2, 2.2447921e+2, -741257.9, -788796.0, 28031.848, 0.007056207, 0.06283589, -728274.3, 11836.853, 0.0, 10.0001745, 9.999545 
6.749763e+2, 2.3447913e+2, -647329.3, -692470.75, 27660.316, -0.009223369, 0.09967201, -634199.5, 7914.088, 0.0, 10.000145, 9.999548 
6.749619e+2, 2.4447882e+2, -561207.25, -618940.7, 20244.156, -0.013578344, 0.12344571, -554816.1, -10697.687, 0.0, 10.000144, 9.99938 
6.749475e+2, 2.5447825e+2, -458280.5, -518762.56, 23543.64, -0.0033400764, 0.1284415, -450196.3, -4069.9358, 0.0, 10.000179, 9.999378 
6.749329e+2, 2.6447782e+2, -338798.5, -377131.34, 12405.897, 0.0060645943, 0.1332998, -335133.84, 12998.301, 0.0, 10.000184, 9.999676 
6.749181e+2, 2.7447754e+2, -243754.66, -277693.8, 13906.674, 0.014321062, 0.1368408, -238784.27, 11350.818, 0.0, 10.000151, 9.999701 
6.7490333e+2, 2.844773e+2, -177948.84, -246959.98, 20143.205, 0.024631543, 0.16518275, -172499.66, -20361.287, 0.0, 10.000153, 9.999238 
6.748886e+2, 2.9447705e+2, -74293.45, -148111.6, 20529.346, 0.037640028, 0.21827003, -68968.26, -14825.979, 0.0000000040864183, 10.0002, 9.999222 
6.748738e+2, 3.0447593e+2, 4101.668, -43295.156, 8442.53, 0.05648164, 0.16581224, 5560.582, 5560.582, 0.0000003121116, 10.000223, 9.999595 
6.7485887e+2, 3.1447494e+2, 7149.941, -35154.605, -1531.1165, 0.080913946, 0.10979331, 7205.284, 7205.284, 0.0000020895884, 10.000215, 9.999655 
6.85131e+2, 1.2449672e+2, -1836170.3, -1759647.9, -64791.973, 0.03153673, 0.040639192, -1722663.4, -2726.0, 0.0, 9.999113, 10.000119 
6.851173e+2, 1.3449733e+2, -1728959.4, -1643571.3, 50110.406, -0.032767117, 0.07882924, -1620433.5, 1498.5745, 0.0, 9.99911, 10.000248 
6.851047e+2, 1.4449717e+2, -1655210.4, -1607860.8, 6693.888, 0.060457338, 0.061190408, -1606932.6, -82998.484, 0.0, 9.999165, 9.999791 
6.8508995e+2, 1.54497e+2, -1539115.0, -1503283.0, 8218.561, 0.012311317, 0.06547768, -1501487.9, -75551.51, 0.0, 9.999298, 9.999772 
6.8507564e+2, 1.6449669e+2, -1432871.5, -1420063.5, 20493.686, -0.006744149, 0.06802931, -1404996.5, -77056.94, 0.0, 9.999435, 9.999604 
6.850619e+2, 1.744963e+2, -1314824.3, -1312733.3, 19503.057, 0.016192088, 0.06684498, -1294247.6, -64303.75, 0.0, 9.999575, 9.999601 
6.850478e+2, 1.844959e+2, -1201814.8, -1220030.5, 8502.643, 0.020860149, 0.07393466, -1198462.8, -66514.68, 0.0, 9.999731, 9.99949 
6.850333e+2, 1.9449553e+2, -1077694.9, -1109545.1, 12049.236, 0.0011792388, 0.089009084, -1073650.1, -39698.3, 0.0, 9.99991, 9.999489 
6.85019e+2, 2.0449507e+2, -952258.75, -981667.06, 18611.695, -0.0057438454, 0.08771156, -943243.56, -7287.399, 0.0, 10.000027, 9.999638 
6.8500495e+2, 2.1449448e+2, -847360.1, -878838.56, 20168.387, 0.0035402328, 0.06434853, -837516.4, 444.58746, 0.0, 10.000068, 9.999651 
6.8499076e+2, 2.2449407e+2, -752649.0, -793525.6, 17633.479, 0.0024341417, 0.064227775, -746093.5, -6128.235, 0.0, 10.000093, 9.999552 
6.849764e+2, 2.3449388e+2, -653860.7, -695124.94, 17919.793, -0.011277031, 0.09089879, -647165.1, -5196.246, 0.0, 10.000098, 9.999552 
6.8496203e+2, 2.4449363e+2, -555747.06, -594043.6, 14746.904, -0.013147051, 0.11035399, -550726.6, -6753.6577, 0.0, 10.000087, 9.999578 
6.849476e+2, 2.544933e+2, -462017.16, -497163.53, 25300.287, -0.0005857902, 0.11816416, -448785.78, -2808.2083, 0.0, 10.000053, 9.999587 
6.849331e+2, 2.6449296e+2, -357453.4, -387898.9, 14774.599, 0.011665973, 0.12450725, -351462.47, -3480.4211, 0.0, 10.000064, 9.99966 
6.849183e+2, 2.7449268e+2, -249180.22, -283560.72, 7834.278, 0.023428274, 0.12778114, -247479.17, 2506.9023, 0.0, 10.000129, 9.999672 
6.8490356e+2, 2.8449243e+2, -168405.56, -236104.94, 11914.613, 0.035813294, 0.15796778, -166369.89, -14380.501, 0.0, 10.000193, 9.999293 
6.848889e+2, 2.944923e+2, -62065.797, -135555.16, 14908.282, 0.049205523, 0.21584457, -59156.617, -5164.685, 0.0000000009738006, 10.000256, 9.999281 
6.848742e+2, 3.0449122e+2, 17424.012, -43426.68, 6224.6494, 0.06512394, 0.16504915, 18054.227, 18054.227, 0.00000022618863, 10.000343, 9.999536 
6.848593e+2, 3.144901e+2, 38364.08, -27579.752, 860.3249, 0.08279955, 0.10575359, 38375.297, 38375.297, 0.0000018662819, 10.000462, 9.999588 
6.9513005e+2, 1.2451116e+2, -1833405.5, -1754522.3, -63640.996, 0.025668293, 0.062777475, -1719091.9, 704.9329, 0.0, 9.999115, 10.000154 
6.9511634e+2, 1.3451168e+2, -1724698.0, -1635565.1, 49691.914, -0.042058215, 0.08513868, -1613382.4, 8409.709, 0.0, 9.999113, 10.000302 
6.951039e+2, 1.4451158e+2, -1645773.9, -1588968.5, 11043.149, 0.06393082, 0.06513414, -1586897.3, -63104.164, 0.0, 9.999167, 9.99992 
6.950893e+2, 1.545116e+2, -1529676.5, -1484192.1, 12995.891, 0.017123727, 0.07587442, -1480740.8, -54948.035, 0.0, 9.9993, 9.999903 
6.9507504e+2, 1.645114e+2, -1436248.0, -1427465.0, 25478.55, -0.0073202285, 0.08426547, -1406002.3, -78207.266, 0.0, 9.999436, 9.999554 
6.9506127e+2, 1.7451097e+2, -1318835.9, -1321376.4, 24474.87, 0.002203655, 0.08794178, -1295598.4, -65798.07, 0.0, 9.999575, 9.999542 
6.950474e+2, 1.8451045e+2, -1195473.6, -1207128.9, 14971.002, 0.0061831693, 0.08044213, -1185236.0, -53430.477, 0.0, 9.999731, 9.999578 
6.950332e+2, 1.9450979e+2, -1070822.4, -1095548.5, 18689.305, 0.0013381419, 0.057359982, -1060777.1, -26966.133, 0.0, 9.999911, 9.999584 
6.9501907e+2, 2.0450935e+2, -949934.7, -977139.9, 20300.826, -0.0026659342, 0.05096039, -939100.56, -3285.8064, 0.0, 10.000028, 9.999669 
6.9500494e+2, 2.1450914e+2, -845285.9, -874904.8, 21666.172, -0.0048857043, 0.0626368, -833851.44, 3965.1284, 0.0, 10.000069, 9.999678 
6.949907e+2, 2.2450887e+2, -751312.3, -791103.6, 17927.412, -0.007998561, 0.073640004, -744426.8, -4606.7227, 0.0, 10.000094, 9.999568 
6.9497645e+2, 2.3450851e+2, -652653.75, -692965.75, 18160.14, -0.0125476215, 0.08229696, -645679.44, -3853.8113, 0.0, 10.000099, 9.999567 
6.9496214e+2, 2.4450831e+2, -535227.6, -551715.3, 13559.042, -0.0065034255, 0.09329153, -527603.0, 16225.645, 0.0, 10.000087, 9.999869 
6.9494784e+2, 2.5450832e+2, -440597.38, -452809.97, 24094.588, 0.012546496, 0.104312204, -421847.38, 23981.115, 0.0, 10.000053, 9.999891 
6.949333e+2, 2.645082e+2, -366020.4, -405768.72, 17058.635, 0.027717728, 0.12038634, -359703.38, -11872.42, 0.0, 10.000064, 9.9995365 
6.949186e+2, 2.7450794e+2, -259318.52, -304750.9, 10350.5625, 0.038130745, 0.14109984, -257071.53, -7235.1826, 0.0, 10.000129, 9.999526 
6.9490385e+2, 2.8450763e+2, -162608.34, -224225.22, 14337.331, 0.05007957, 0.16718167, -159435.63, -7594.746, 0.0, 10.000193, 9.999375 
6.9488937e+2, 2.9450727e+2, -55478.47, -122016.36, 17423.105, 0.06433104, 0.19517463, -51192.29, 2652.1423, 0.000000000021633938, 10.000256, 9.999373 
6.948746e+2, 3.045062e+2, 17747.502, -43013.223, 10714.072, 0.07080232, 0.14460835, 19581.387, 19581.387, 0.00000014519733, 10.000343, 9.999538 
6.9485956e+2, 3.145055e+2, 38406.465, -28057.95, 5592.7114, 0.06680263, 0.12070386, 38873.785, 38873.785, 0.0000015881137, 10.0004635, 9.999584 
7.0512915e+2, 1.2452547e+2, -1836910.0, -1757968.8, -58482.734, 0.023762744, 0.070817284, -1726883.3, -7226.7407, 0.0, 9.9991, 10.000137 
7.051155e+2, 1.3452585e+2, -1715297.0, -1631026.1, 48814.574, -0.042689208, 0.07861658, -1608677.0, 12975.93, 0.0, 9.999178, 10.000301 
7.051032e+2, 1.4452574e+2, -1627824.6, -1574092.0, 8249.583, 0.07389325, 0.054469597, -1572853.9, -49200.15, 0.0, 9.999264, 9.999975 
7.050886e+2, 1.545258e+2, -1515385.4, -1470773.3, 5091.5137, 0.01845165, 0.06496472, -1470199.5, -44547.01, 0.0, 9.999371, 9.99996 
7.050744e+2, 1.6452569e+2, -1434010.4, -1431068.8, 15011.731, -0.012818098, 0.07915365, -1417456.0, -89801.59, 0.0, 9.999473, 9.999511 
7.050607e+2, 1.7452535e+2, -1322906.4, -1328537.8, 14761.238, -0.007891768, 0.09583956, -1310694.8, -81034.95, 0.0, 9.99957, 9.999495 
7.05047e+2, 1.8452483e+2, -1192941.5, -1190377.4, 8716.019, -0.002328505, 0.08700435, -1182849.6, -51184.83, 0.0, 9.999682, 9.999717 
7.0503306e+2, 1.9452415e+2, -1074757.8, -1080956.6, 16203.015, 0.0018028583, 0.045382634, -1061360.4, -27690.895, 0.0, 9.999814, 9.999731 
7.0501906e+2, 2.0452374e+2, -968300.25, -982598.4, 14910.399, -0.0007439515, 0.034073655, -958913.6, -23241.111, 0.0, 9.999887, 9.999699 
7.050049e+2, 2.1452369e+2, -869468.94, -883955.2, 15613.755, -0.010467229, 0.057300616, -859500.06, -21826.578, 0.0, 9.999892, 9.999701 
7.049907e+2, 2.245235e+2, -772358.6, -793522.25, 13598.914, -0.013617273, 0.07397441, -765709.5, -26033.148, 0.0, 9.999917, 9.999637 
7.049765e+2, 2.345232e+2, -667203.3, -692116.44, 17901.79, -0.009332695, 0.08102368, -657850.7, -16169.262, 0.0, 9.999967, 9.999637 
7.0496225e+2, 2.4452308e+2, -538214.2, -538986.25, 8405.694, 0.0013784246, 0.08778907, -530185.7, 13497.916, 0.0, 10.000006, 9.999995 
7.0494795e+2, 2.5452313e+2, -434353.22, -435401.44, 5463.504, 0.020018343, 0.09161998, -429388.75, 16293.424, 0.0, 10.000034, 10.00002 
7.0493346e+2, 2.6452303e+2, -365683.5, -412556.0, -3405.123, 0.03690654, 0.10878125, -365437.4, -17753.244, 0.0, 10.000096, 9.999475 
7.049188e+2, 2.7452284e+2, -254339.58, -310454.4, -4525.5405, 0.051626682, 0.14049579, -253976.94, -4286.85, 0.0, 10.000198, 9.999454 
7.0490426e+2, 2.8452253e+2, -144959.39, -206272.27, 1288.1241, 0.06266684, 0.16602919, -144932.34, 6762.4536, 0.0, 10.000274, 9.99946 
7.0488966e+2, 2.9452214e+2, -39833.434, -104171.41, 4169.0396, 0.06969748, 0.17955957, -39564.41, 14133.749, 0.0, 10.0003195, 9.999466 
7.0487493e+2, 3.0452108e+2, 28554.053, -40168.793, -127.824356, 0.072495, 0.12968901, 28554.291, 28554.291, 0.00000008201181, 10.000428, 9.999517 
7.048601e+2, 3.1452054e+2, 58035.598, -21840.662, -7056.022, 0.06935437, 0.12313209, 58654.113, 58654.113, 0.0000012936833, 10.000613, 9.999555 
7.1512824e+2, 1.2453969e+2, -1840805.8, -1767363.0, -53411.84, 0.024864625, 0.06519729, -1739267.0, -19750.734, 0.0, 9.9991045, 10.000071 
7.151148e+2, 1.3453987e+2, -1718635.8, -1638838.5, 51544.78, -0.035149775, 0.05972578, -1613554.6, 7959.8154, 0.0, 9.999182, 10.000247 
7.151026e+2, 1.4453965e+2, -1628785.6, -1576622.4, 11942.218, 0.08994637, 0.029617554, -1574018.3, -50502.293, 0.0, 9.999266, 9.999957 
7.1508795e+2, 1.5453964e+2, -1516196.1, -1472923.5, 8943.592, 0.016196936, 0.033552356, -1471147.9, -45632.508, 0.0, 9.999372, 9.999945 
7.1507376e+2, 1.6453955e+2, -1436320.9, -1436260.1, 18548.76, -0.023215435, 0.0534265, -1417741.8, -90224.33, 0.0, 9.999474, 9.9994755 
7.1506023e+2, 1.7453939e+2, -1325375.6, -1333974.1, 18303.338, -0.014247226, 0.09080986, -1310873.4, -81351.18, 0.0, 9.999571, 9.999457 
7.1504664e+2, 1.8453908e+2, -1179790.3, -1163371.9, 13460.304, -0.004907356, 0.093638346, -1155815.0, -24289.297, 0.0, 9.999683, 9.999902 
7.150329e+2, 1.945386e+2, -1060896.3, -1052484.3, 21019.441, 0.0024675245, 0.052907027, -1035254.1, -1726.6736, 0.0, 9.999814, 9.999927 
7.150189e+2, 2.0453826e+2, -966306.75, -978779.94, 15192.057, -0.000006254238, 0.03680805, -956121.0, -20591.469, 0.0, 9.999888, 9.999724 
7.150047e+2, 2.1453808e+2, -868078.6, -881445.56, 15751.67, -0.013244805, 0.048233043, -857651.2, -20119.338, 0.0, 9.999893, 9.999718 
7.149906e+2, 2.2453798e+2, -763854.25, -776214.4, 15389.608, -0.014495899, 0.06528195, -753450.2, -13916.059, 0.0, 9.999918, 9.999756 
7.1497655e+2, 2.3453794e+2, -658384.44, -674143.6, 19841.62, -0.0016632956, 0.08720669, -644915.06, -3378.7742, 0.0, 9.999968, 9.99976 
7.1496236e+2, 2.4453786e+2, -541122.5, -545312.75, 9509.07, 0.010424127, 0.09391459, -533480.5, 10057.4375, 0.0, 10.000007, 9.999952 
7.1494794e+2, 2.545377e+2, -437958.2, -443188.25, 6508.0234, 0.021619508, 0.08003961, -433559.47, 11979.316, 0.0, 10.000035, 9.999967 
7.149336e+2, 2.645375e+2, -365670.84, -412899.75, 212.47586, 0.03901764, 0.089454256, -365669.88, -18127.984, 0.0, 10.000097, 9.999472 
7.1491915e+2, 2.745373e+2, -254158.56, -310458.47, -696.2202, 0.06386616, 0.12544198, -254149.95, -4602.4434, 0.0, 10.000199, 9.999454 
7.149046e+2, 2.8453708e+2, -138850.5, -193900.97, 3056.3145, 0.07335544, 0.15409543, -138681.34, 12870.044, 0.0, 10.000274, 9.999545 
7.148899e+2, 2.9453677e+2, -33574.863, -91362.46, 5923.104, 0.064635664, 0.16928934, -32974.008, 20579.307, 0.0, 10.0003195, 9.999554 
7.1487534e+2, 3.045358e+2, 25270.979, -47207.28, 6625.3184, 0.069872, 0.12051462, 25871.629, 25871.629, 0.00000004119849, 10.000429, 9.999469 
7.148609e+2, 3.1453517e+2, 54214.426, -30098.27, -61.24866, 0.091311544, 0.112207636, 54214.473, 54214.473, 0.0000010048329, 10.000614, 9.999497 
7.251275e+2, 1.24553785e+2, -1809404.5, -1756928.9, -46116.496, 0.029315963, 0.044557303, -1730108.8, -10732.071, 0.0, 9.999341, 10.000028 
7.2511387e+2, 1.3455398e+2, -1703293.8, -1634944.5, 57564.434, -0.04052509, 0.043155327, -1602174.6, 19199.854, 0.0, 9.999303, 10.000215 
7.2510195e+2, 1.4455374e+2, -1628275.6, -1585814.4, 19186.94, 0.08992166, 0.015782636, -1578429.0, -55052.49, 0.0, 9.9993105, 9.999872 
7.250873e+2, 1.5455356e+2, -1519255.0, -1484085.9, 11137.212, 0.01174304, 0.011402236, -1480855.6, -55477.586, 0.0, 9.999393, 9.999858 
7.2507316e+2, 1.6455346e+2, -1432640.0, -1428135.9, 20838.938, -0.028061738, 0.033009488, -1409427.6, -82047.24, 0.0, 9.999473, 9.999531 
7.250598e+2, 1.745535e+2, -1324746.3, -1326626.8, 27807.502, -0.0145901535, 0.08425566, -1297863.1, -68479.64, 0.0, 9.999546, 9.999519 
7.250463e+2, 1.8455331e+2, -1184066.8, -1160270.6, 22937.768, -0.005124817, 0.09491194, -1146328.6, -14943.026, 0.0, 9.999632, 9.999948 
7.2503257e+2, 1.9455288e+2, -1069300.6, -1051541.5, 19146.803, -0.0029116936, 0.054966476, -1039315.44, -5928.505, 0.0, 9.999736, 9.99997 
7.2501874e+2, 2.0455255e+2, -973718.7, -977406.5, 4735.5425, -0.004942819, 0.03487791, -970480.75, -35091.863, 0.0, 9.999817, 9.999768 
7.2500455e+2, 2.1455233e+2, -868342.2, -876620.06, 6991.9907, -0.011115315, 0.036456004, -864355.94, -26964.258, 0.0, 9.99987, 9.999762 
7.2499055e+2, 2.2455227e+2, -756161.4, -763414.6, 7240.022, -0.00946662, 0.052284107, -751690.44, -12297.081, 0.0, 9.999932, 9.999837 
7.2497654e+2, 2.3455241e+2, -647594.3, -659628.9, 8606.617, 0.0014149518, 0.08322015, -643110.1, -1716.4976, 0.0, 10.000002, 9.999843 
7.249624e+2, 2.4455239e+2, -536492.3, -547993.44, -4227.792, 0.012887656, 0.09289996, -535105.44, 8289.404, 0.0, 10.00006, 9.9999075 
7.2494805e+2, 2.545521e+2, -431372.75, -445785.22, -7188.6094, 0.024963183, 0.074936725, -428400.28, 16996.828, 0.0, 10.000106, 9.999915 
7.2493374e+2, 2.645519e+2, -351592.34, -395562.38, -8748.531, 0.04447706, 0.080153145, -349915.63, -2515.2363, 0.0, 10.000149, 9.999566 
7.2491944e+2, 2.7455175e+2, -248153.4, -296236.22, -2025.5579, 0.07287172, 0.11179242, -248068.23, 1336.4739, 0.0, 10.000192, 9.999554 
7.2490495e+2, 2.8455156e+2, -143286.95, -198357.6, 1481.1681, 0.081631295, 0.13989963, -143247.14, 8160.7627, 0.0, 10.000254, 9.999523 
7.2489023e+2, 2.945513e+2, -32586.068, -93928.91, -4549.581, 0.067087024, 0.15924653, -32250.477, 21159.43, 0.0, 10.0003395, 9.999526 
7.2487587e+2, 3.045503e+2, 34486.8, -46732.188, -2217.4338, 0.07495122, 0.109891474, 34547.297, 34547.297, 0.000000018939705, 10.00051, 9.9994335 
7.2486174e+2, 3.1454954e+2, 76479.58, -23561.914, -7358.328, 0.10919577, 0.09327246, 77017.91, 77017.91, 0.0000007295325, 10.000786, 9.999459 
7.351269e+2, 1.2456781e+2, -1810768.4, -1760090.6, -44722.625, 0.036291294, 0.009375577, -1734027.5, -14790.202, 0.0, 9.999342, 10.000006 
7.35113e+2, 1.3456818e+2, -1703782.6, -1636599.1, 55633.348, -0.058559567, 0.029018776, -1605202.6, 16030.475, 0.0, 9.999305, 10.000203 
7.351011e+2, 1.44568e+2, -1638665.4, -1608043.5, 21676.879, 0.07425141, 0.012644313, -1596815.5, -73580.32, 0.0, 9.999313, 9.999719 
7.350866e+2, 1.5456755e+2, -1530127.3, -1507248.8, 14083.176, 0.00509596, -0.0018553636, -1500544.3, -75303.89, 0.0, 9.999395, 9.999698 
7.350726e+2, 1.6456741e+2, -1422261.3, -1407178.9, 23479.055, -0.027580133, 0.017661273, -1390059.6, -62816.375, 0.0, 9.999475, 9.999675 
7.350594e+2, 1.7456767e+2, -1313454.9, -1303748.6, 30333.98, -0.009137322, 0.07620876, -1277882.0, -48638.71, 0.0, 9.999547, 9.999676 
7.350459e+2, 1.8456759e+2, -1190456.9, -1174021.4, 26545.844, -0.0031342956, 0.09093636, -1154450.4, -23205.725, 0.0, 9.999634, 9.999852 
7.350322e+2, 1.9456705e+2, -1076621.3, -1067190.3, 22894.78, -0.014354879, 0.051596593, -1048530.4, -15282.566, 0.0, 9.999737, 9.999863 
7.3501843e+2, 2.0456666e+2, -969279.0, -968603.5, 6709.2017, -0.015536879, 0.028313978, -962223.56, -26972.951, 0.0, 9.999818, 9.999828 
7.3500454e+2, 2.1456641e+2, -863356.94, -866664.5, 8984.206, -0.004120407, 0.021966072, -855875.56, -18622.56, 0.0, 9.999872, 9.999829 
7.349906e+2, 2.2456637e+2, -753060.75, -757415.1, 9864.306, 0.0013758678, 0.034912266, -745136.2, -5882.152, 0.0, 9.999933, 9.999877 
7.3497653e+2, 2.345666e+2, -644527.7, -653699.25, 11289.708, -0.00024224666, 0.06892036, -636927.94, 4325.4316, 0.0, 10.000003, 9.999883 
7.349624e+2, 2.4456662e+2, -539604.1, -554861.8, -2496.326, 0.008636172, 0.084697925, -539206.06, 4048.2886, 0.0, 10.000061, 9.999861 
7.3494816e+2, 2.545664e+2, -434809.56, -453337.7, -5454.797, 0.030061832, 0.07652214, -433322.94, 11934.298, 0.0, 10.000107, 9.999863 
7.34934e+2, 2.6456624e+2, -337990.47, -367687.0, -7184.923, 0.053268816, 0.08111507, -336343.44, 10916.327, 0.0, 10.00015, 9.999757 
7.3491967e+2, 2.745662e+2, -233838.45, -266720.1, -307.21588, 0.07836807, 0.09956118, -233835.58, 15426.18, 0.0, 10.000193, 9.999757 
7.349053e+2, 2.8456602e+2, -152660.42, -217930.3, 4757.2407, 0.08729869, 0.12338362, -152315.52, -1051.036, 0.0, 10.000254, 9.99939 
7.348907e+2, 2.9456565e+2, -42993.55, -115726.305, -1216.558, 0.07744702, 0.14942454, -42973.207, 10294.955, 0.0, 10.00034, 9.999376 
7.3487645e+2, 3.045645e+2, 32871.703, -50457.24, 7861.266, 0.08802662, 0.09766171, 33606.85, 33606.85, 0.0000000073965225, 10.000511, 9.999408 
7.348627e+2, 3.1456357e+2, 75198.34, -26711.37, 3164.1763, 0.12217644, 0.06561223, 75296.49, 75296.49, 0.0000004773962, 10.000787, 9.999437 
7.451263e+2, 1.24581896e+2, -1809534.3, -1758317.6, -53077.73, 0.037143506, -0.0016832796, -1724993.5, -5895.3174, 0.0, 9.999346, 10.000015 
7.4511224e+2, 1.3458224e+2, -1692351.9, -1628985.0, 45604.82, -0.069519065, 0.010986828, -1605137.9, 15956.182, 0.0, 9.999374, 10.00022 
7.451003e+2, 1.4458206e+2, -1631191.6, -1613931.4, 17732.145, 0.069566086, 0.0018849538, -1602840.8, -79744.66, 0.0, 9.999406, 9.999633 
7.45086e+2, 1.5458167e+2, -1527412.8, -1515977.8, 15455.093, 0.004157523, 0.00044987127, -1505216.5, -80114.64, 0.0, 9.999458, 9.999607 
7.450721e+2, 1.6458152e+2, -1409879.5, -1395698.1, 24959.023, -0.026599033, 0.022310125, -1376842.1, -49737.246, 0.0, 9.9995365, 9.9997225 
7.4505895e+2, 1.7458174e+2, -1295544.1, -1289085.8, 24041.148, -0.0084645, 0.070518136, -1268057.9, -38953.258, 0.0, 9.999645, 9.999729 
7.450456e+2, 1.8458161e+2, -1176924.6, -1172092.3, 18332.11, -0.005352292, 0.081035696, -1156017.8, -24911.518, 0.0, 9.999747, 9.99981 
7.450319e+2, 1.9458106e+2, -1065024.9, -1066860.5, 19055.223, -0.02247046, 0.044914573, -1046865.4, -13755.233, 0.0, 9.99984, 9.999815 
7.450182e+2, 2.045807e+2, -951889.6, -954550.8, 3007.0388, -0.022607353, 0.024089923, -949931.94, -14819.105, 0.0, 9.999913, 9.999879 
7.450045e+2, 2.1458052e+2, -846094.25, -852168.0, 4092.7947, -0.002055789, 0.01902408, -844034.7, -6920.429, 0.0, 9.999965, 9.999885 
7.449906e+2, 2.245805e+2, -740695.25, -748715.5, 3670.4807, 0.007578748, 0.028170059, -739269.06, -154.1148, 0.0, 10.000007, 9.999902 
7.449766e+2, 2.3458064e+2, -637492.8, -647717.8, 3651.0725, 0.00411017, 0.05251567, -636323.0, 4791.636, 0.0, 10.00004, 9.999906 
7.449625e+2, 2.4458067e+2, -543622.5, -561561.5, -11982.146, 0.0122508, 0.07034383, -537624.56, 5491.139, 0.0, 10.000055, 9.999817 
7.449483e+2, 2.5458056e+2, -446855.1, -464204.8, -14596.195, 0.03432391, 0.07796473, -438550.5, 6567.993, 0.0, 10.000047, 9.999817 
7.4493414e+2, 2.645805e+2, -332959.2, -352664.8, -15522.611, 0.056592803, 0.085125335, -324426.44, 22693.996, 0.0, 10.000131, 9.999869 
7.449199e+2, 2.745804e+2, -206171.4, -240020.92, -14921.153, 0.078827724, 0.09049513, -200533.19, 48588.05, 0.0, 10.000325, 9.999876 
7.4490565e+2, 2.8458014e+2, -131312.55, -220180.94, -14124.865, 0.09126644, 0.107349664, -129121.53, 22002.596, 0.0, 10.000455, 9.999277 
7.448912e+2, 2.9457965e+2, -26618.906, -121455.92, -18215.543, 0.09248014, 0.13375239, -23240.555, 29889.057, 0.0, 10.000512, 9.999254 
7.448772e+2, 3.0457848e+2, 48055.24, -48574.605, -2794.6375, 0.100976765, 0.08776867, 48135.996, 48135.996, 0.0000000015345106, 10.000639, 9.999358 
7.4486345e+2, 3.145776e+2, 81874.86, -28783.803, -9247.395, 0.11769089, 0.065823846, 82642.31, 82642.31, 0.00000026410652, 10.000856, 9.99939 
7.551255e+2, 1.2459606e+2, -1807213.1, -1753145.4, -48595.66, 0.031452183, 0.009731839, -1724570.3, -5611.147, 0.0, 9.999344, 10.000052 
7.551116e+2, 1.3459611e+2, -1689164.3, -1622661.4, 46111.336, -0.07381228, -0.010896363, -1599062.9, 21894.383, 0.0, 9.999375, 10.000264 
7.550998e+2, 1.44596e+2, -1632496.1, -1617205.3, 19141.705, 0.07535274, -0.016194532, -1604238.6, -81279.72, 0.0, 9.999408, 9.99961 
7.550855e+2, 1.5459591e+2, -1528860.0, -1519635.3, 17103.74, 0.008602576, 0.017943496, -1506532.9, -81570.65, 0.0, 9.99946, 9.999581 
7.550717e+2, 1.6459583e+2, -1412899.1, -1402601.9, 28712.088, -0.025267074, 0.046408724, -1378580.4, -51615.273, 0.0, 9.999538, 9.999675 
7.550586e+2, 1.745957e+2, -1298782.8, -1296322.3, 27886.361, -0.012589382, 0.06705314, -1269639.0, -40671.652, 0.0, 9.999647, 9.99968 
7.5504524e+2, 1.8459544e+2, -1176120.8, -1170836.3, 21660.234, -0.011768598, 0.06528822, -1151657.6, -20687.475, 0.0, 9.999748, 9.999819 
7.550317e+2, 1.9459495e+2, -1064161.5, -1065477.5, 22403.459, -0.027325068, 0.034957882, -1042406.4, -9432.551, 0.0, 9.999842, 9.999825 
7.5501806e+2, 2.0459469e+2, -949049.3, -949031.6, 4818.6904, -0.026265904, 0.022200072, -944221.8, -9246.138, 0.0, 9.999914, 9.999916 
7.550044e+2, 2.1459465e+2, -843194.56, -846518.5, 5956.4004, -0.0050015496, 0.027627736, -838672.6, -1697.1654, 0.0, 9.999966, 9.999923 
7.549906e+2, 2.2459461e+2, -740119.6, -747913.4, 4969.6777, 0.009115302, 0.032030415, -737701.2, 1274.831, 0.0, 10.000008, 9.999907 
7.5497675e+2, 2.3459452e+2, -637124.06, -647358.4, 4970.658, 0.014516317, 0.03394462, -635107.25, 5870.0986, 0.0, 10.000042, 9.999908 
7.549626e+2, 2.4459453e+2, -546279.3, -567445.3, -12255.058, 0.023730142, 0.04979008, -540670.2, 2308.8572, 0.0, 10.000056, 9.999777 
7.549484e+2, 2.545946e+2, -449691.38, -470333.25, -14897.921, 0.037618555, 0.07928879, -441888.56, 3092.399, 0.0, 10.000047, 9.999775 
7.549342e+2, 2.6459455e+2, -330822.38, -348531.7, -8485.741, 0.054223366, 0.09227418, -327412.75, 19569.742, 0.0, 10.000132, 9.999898 
7.549202e+2, 2.7459437e+2, -203696.53, -235428.0, -7530.6206, 0.073995024, 0.08472162, -202000.03, 46983.273, 0.0, 10.000327, 9.9999075 
7.549061e+2, 2.84594e+2, -137488.77, -233610.48, -11896.814, 0.093376, 0.09180939, -136038.2, 14948.911, 0.0, 10.000457, 9.999184 
7.54892e+2, 2.9459336e+2, -33263.906, -135660.92, -16118.378, 0.11228966, 0.112000264, -30786.633, 22207.93, 0.0, 10.000513, 9.999157 
7.548779e+2, 3.0459225e+2, 42985.95, -59598.3, 5059.2593, 0.11352882, 0.080555044, 43234.86, 43234.86, 0.00000000001992495, 10.000641, 9.999282 
7.548641e+2, 3.1459168e+2, 76659.9, -40130.79, -1032.7561, 0.09410136, 0.095623516, 76669.02, 76669.02, 0.000000109993245, 10.000858, 9.999311 
7.651247e+2, 1.24609984e+2, -1834505.8, -1763962.4, -54192.38, 0.02549485, 0.015874667, -1734574.1, -15751.712, 0.0, 9.999147, 10.0000725 
7.6511085e+2, 1.346099e+2, -1697697.6, -1623884.0, 34788.71, -0.07927167, -0.02167634, -1610072.3, 10749.729, 0.0, 9.999305, 10.000289 
7.650992e+2, 1.4460984e+2, -1629542.0, -1615237.5, 7375.5166, 0.07791231, -0.022675786, -1612115.9, -89292.73, 0.0, 9.999427, 9.999615 
7.65085e+2, 1.5460993e+2, -1518801.3, -1514316.0, 7547.0586, 0.0075845607, 0.029085224, -1508685.5, -83860.516, 0.0, 9.999528, 9.999585 
7.650712e+2, 1.6460982e+2, -1402713.8, -1399727.5, 21776.92, -0.027643263, 0.05612235, -1379392.6, -52564.652, 0.0, 9.999618, 9.999656 
7.650582e+2, 1.7460945e+2, -1293381.4, -1295952.4, 22947.307, -0.013847865, 0.05303277, -1271683.6, -42851.41, 0.0, 9.999694, 9.999659 
7.65045e+2, 1.8460912e+2, -1173109.3, -1168791.8, 17201.719, -0.012738524, 0.0475581, -1153613.9, -22778.4, 0.0, 9.999767, 9.999824 
7.650315e+2, 1.9460884e+2, -1064551.6, -1065056.3, 17419.672, -0.02901498, 0.03696156, -1047382.44, -14544.843, 0.0, 9.999837, 9.999829 
7.650179e+2, 2.0460868e+2, -947190.6, -943729.5, -1136.8182, -0.028358307, 0.031360146, -943389.5, -8550.875, 0.0, 9.999908, 9.999955 
7.6500434e+2, 2.1460861e+2, -838076.25, -839570.9, -130.32758, -0.0071084118, 0.029428678, -838064.94, -1226.4734, 0.0, 9.999982, 9.999963 
7.649906e+2, 2.2460853e+2, -735622.6, -741495.7, -1711.8712, 0.009024438, 0.026333904, -735160.1, 3678.929, 0.0, 10.000021, 9.999944 
7.649768e+2, 2.346084e+2, -637465.75, -643422.5, 652.52356, 0.018853575, 0.020363344, -637395.06, 3445.2588, 0.0, 10.000022, 9.999944 
7.649628e+2, 2.4460839e+2, -544153.2, -574634.7, -14075.078, 0.029967967, 0.03635947, -538648.1, 4194.032, 0.0, 10.000107, 9.999702 
7.649486e+2, 2.5460848e+2, -420056.9, -464721.13, -19448.607, 0.042642016, 0.0754342, -412775.3, 32069.152, 0.0, 10.000289, 9.999697 
7.649345e+2, 2.6460835e+2, -294190.3, -337954.8, -16356.326, 0.05532512, 0.09131217, -288752.9, 58093.71, 0.0, 10.000414, 9.999834 
7.6492053e+2, 2.746081e+2, -186418.92, -234171.67, -22674.799, 0.0680706, 0.078833856, -177367.67, 71480.82, 0.0, 10.000477, 9.999844 
7.649065e+2, 2.8460765e+2, -124466.625, -233258.39, -30743.715, 0.08838418, 0.08452254, -116379.805, 34473.168, 0.0, 10.000572, 9.99913 
7.648926e+2, 2.9460695e+2, -8451.581, -129576.28, -31659.525, 0.11757574, 0.10741239, -675.62683, 52185.035, 0.0, 10.00071, 9.999104 
7.6487875e+2, 3.046059e+2, 62810.387, -57426.984, -6854.78, 0.11888273, 0.08269462, 63199.918, 63199.918, 0.0, 10.00081, 9.999215 
7.6486486e+2, 3.1460533e+2, 73794.91, -49300.32, -12303.895, 0.08736166, 0.106796525, 75012.69, 75012.69, 0.000000028836135, 10.000873, 9.999241 
7.751238e+2, 1.24623686e+2, -1834228.6, -1763681.6, -44394.793, 0.01862533, 0.016920183, -1742253.1, -23565.146, 0.0, 9.999147, 10.000074 
7.7511007e+2, 1.3462359e+2, -1697123.6, -1623178.0, 40162.39, -0.08601145, -0.021753801, -1605561.4, 15126.6455, 0.0, 9.999307, 10.000294 
7.750986e+2, 1.4462359e+2, -1627339.0, -1611198.8, 10660.0625, 0.07720303, -0.018035814, -1605898.6, -83210.12, 0.0, 9.999428, 9.999641 
7.750845e+2, 1.5462373e+2, -1516454.9, -1510098.9, 11068.815, 0.0011436659, 0.03404474, -1501760.9, -77071.14, 0.0, 9.99953, 9.999613 
7.750708e+2, 1.6462353e+2, -1401874.6, -1398646.4, 24408.152, -0.033688523, 0.051864527, -1375799.0, -49105.902, 0.0, 9.9996195, 9.999662 
7.750579e+2, 1.7462297e+2, -1292711.8, -1295126.9, 25560.008, -0.012346062, 0.02870247, -1268330.9, -39631.836, 0.0, 9.999696, 9.999663 
7.750448e+2, 1.8462269e+2, -1173005.1, -1168998.5, 19583.496, -0.008439063, 0.027934186, -1151316.1, -20614.25, 0.0, 9.999768, 9.999823 
7.750314e+2, 1.9462276e+2, -1064508.6, -1065352.5, 19872.795, -0.027647745, 0.050807983, -1045053.3, -12351.897, 0.0, 9.999838, 9.999827 
7.750178e+2, 2.0462266e+2, -944356.5, -938232.94, 1501.3412, -0.028979138, 0.05140752, -937884.6, -3182.8008, 0.0, 9.999909, 9.999993 
7.7500427e+2, 2.1462238e+2, -835189.8, -833999.3, 2552.8394, -0.008462569, 0.024371568, -831973.25, 4730.1274, 0.0, 9.999983, 10.000001 
7.749906e+2, 2.2462223e+2, -730708.75, -731707.9, -1590.0486, 0.0071898643, 0.011101136, -729541.6, 9162.375, 0.0, 10.000022, 10.000011 
7.7497673e+2, 2.3462227e+2, -632479.4, -633447.44, 723.60986, 0.016970672, 0.011876248, -632092.9, 8610.711, 0.0, 10.000023, 10.000012 
7.749629e+2, 2.4462225e+2, -551704.6, -590778.4, -7436.1714, 0.030841881, 0.030109892, -550337.3, -7632.1523, 0.0, 10.000108, 9.999592 
7.749489e+2, 2.546222e+2, -427900.5, -481682.84, -12499.997, 0.04938944, 0.06625721, -425137.22, 19571.826, 0.0, 10.000291, 9.999579 
7.7493495e+2, 2.6462194e+2, -305138.5, -361434.34, -13900.028, 0.05988498, 0.08206526, -301893.47, 44819.566, 0.0, 10.000417, 9.999672 
7.749209e+2, 2.7462155e+2, -197730.4, -258149.05, -20409.72, 0.060974758, 0.072888605, -191482.1, 57234.965, 0.0, 10.000478, 9.999679 
7.74907e+2, 2.8462106e+2, -125273.17, -235394.75, -25771.582, 0.07587504, 0.08594312, -119540.336, 31181.635, 0.0, 10.000574, 9.999115 
7.7489316e+2, 2.946205e+2, -8573.651, -130627.1, -26473.967, 0.107287064, 0.120983295, -3078.7097, 49649.414, 0.0, 10.000712, 9.999095 
7.748795e+2, 3.0461937e+2, 59001.914, -66109.836, -4524.49, 0.11636485, 0.09467201, 59165.324, 59165.324, 0.0, 10.000812, 9.999155 
7.7486587e+2, 3.1461853e+2, 69192.9, -58807.348, -9941.566, 0.09826419, 0.09791097, 69960.445, 69960.445, 0.0000000029769756, 10.000872, 9.999177 
7.851229e+2, 1.24637164e+2, -1838647.9, -1770712.9, -42420.164, 0.01494554, 0.008128229, -1750336.4, -31780.744, 0.0, 9.999139, 10.0000305 
7.851093e+2, 1.3463718e+2, -1701438.1, -1630156.0, 33648.77, -0.0933787, -0.014889459, -1616781.5, 3773.8657, 0.0, 9.999298, 10.00025 
7.850981e+2, 1.4463724e+2, -1621335.5, -1602022.6, 1943.0946, 0.0752399, -0.006150706, -1601829.0, -79273.62, 0.0, 9.999443, 9.999697 
7.85084e+2, 1.5463723e+2, -1503215.8, -1496912.3, 4808.5806, -0.0012189122, 0.027197523, -1494314.6, -69757.46, 0.0, 9.999593, 9.999674 
7.850704e+2, 1.6463704e+2, -1388811.0, -1389149.5, 17754.88, -0.037294112, 0.039284006, -1371224.6, -44664.22, 0.0, 9.999697, 9.99969 
7.8505754e+2, 1.746366e+2, -1283403.5, -1287635.8, 20222.736, -0.01825951, 0.025557484, -1265186.5, -36621.242, 0.0, 9.999747, 9.99969 
7.850445e+2, 1.8463638e+2, -1168115.6, -1164074.4, 15402.459, -0.012870903, 0.029687548, -1150560.5, -19993.102, 0.0, 9.999791, 9.999845 
7.850312e+2, 1.9463646e+2, -1064640.6, -1062937.3, 17285.158, -0.026202546, 0.052389245, -1046482.8, -13916.059, 0.0, 9.999826, 9.999849 
7.850178e+2, 2.0463635e+2, -946205.9, -938864.75, -184.61754, -0.027289072, 0.049653497, -938860.06, -4292.7603, 0.0, 9.999897, 9.999994 
7.850042e+2, 2.1463601e+2, -831937.7, -832326.4, -2130.4832, -0.013075534, 0.015727961, -829992.7, 6576.702, 0.0, 10.000006, 10.000001 
7.849906e+2, 2.2463587e+2, -718252.8, -728078.75, -12288.238, -0.00014834711, 0.002673402, -709931.8, 28638.27, 0.0, 10.000118, 9.9999895 
7.849768e+2, 2.3463593e+2, -602749.6, -621453.44, -16940.053, 0.010977273, 0.011648609, -592751.56, 47817.668, 0.0, 10.000238, 9.999991 
7.849631e+2, 2.4463592e+2, -520490.97, -574301.75, -22443.928, 0.028089467, 0.029623525, -512358.8, 30211.893, 0.0, 10.000317, 9.999603 
7.849493e+2, 2.5463578e+2, -418519.1, -475674.7, -17661.105, 0.05207001, 0.05583416, -413502.16, 31072.758, 0.0, 10.000349, 9.999592 
7.8493536e+2, 2.646355e+2, -312432.34, -378246.03, -13079.755, 0.06303192, 0.07253001, -309928.16, 36651.33, 0.0, 10.000424, 9.999552 
7.849214e+2, 2.746351e+2, -195997.42, -271271.44, -16746.78, 0.05888001, 0.07673036, -192439.78, 56144.61, 0.0, 10.000551, 9.999553 
7.849076e+2, 2.846346e+2, -106373.75, -224417.39, -17402.299, 0.07194737, 0.09176098, -103861.72, 46728.145, 0.0, 10.000696, 9.999131 
7.8489393e+2, 2.9463395e+2, 14910.331, -116833.766, -15885.303, 0.1054115, 0.11590916, 16798.666, 69394.805, 0.0, 10.000863, 9.999117 
7.848804e+2, 3.0463278e+2, 72191.47, -63188.574, 2385.9512, 0.11649527, 0.08700734, 72233.51, 72233.51, 0.0, 10.000918, 9.999124 
7.848667e+2, 3.1463197e+2, 63612.9, -65304.75, -1023.974, 0.10033392, 0.0940518, 63621.03, 63621.03, 0.0, 10.000851, 9.999142 
7.95122e+2, 1.2465044e+2, -1844895.5, -1783986.4, -32116.748, 0.013549503, -0.010237446, -1770180.8, -51755.69, 0.0, 9.99914, 9.999939 
7.951085e+2, 1.3465068e+2, -1707779.5, -1643884.6, 39063.52, -0.10150278, -0.0011770608, -1625368.3, -4944.598, 0.0, 9.9993, 10.0001545 
7.950975e+2, 1.4465079e+2, -1615308.5, -1590193.0, 6985.7676, 0.07200063, 0.012733898, -1588380.6, -65957.26, 0.0, 9.999445, 9.999778 
7.950836e+2, 1.5465051e+2, -1496666.9, -1483923.8, 10124.719, 0.00030869243, 0.008851538, -1478332.6, -53905.668, 0.0, 9.999594, 9.999763 
7.9507005e+2, 1.6465035e+2, -1385361.1, -1382435.1, 19485.352, -0.03865108, 0.01869454, -1364357.9, -37928.43, 0.0, 9.999698, 9.999737 
7.950572e+2, 1.7465033e+2, -1280090.8, -1281129.8, 21857.16, -0.031537715, 0.043240108, -1258746.9, -30316.25, 0.0, 9.999748, 9.999735 
7.950442e+2, 1.8465023e+2, -1164958.9, -1157859.4, 16489.254, -0.02592599, 0.052342657, -1144542.1, -14110.137, 0.0, 9.999792, 9.999887 
7.95031e+2, 1.9465001e+2, -1061440.4, -1056722.1, 18401.709, -0.024698189, 0.04175175, -1040528.94, -8095.422, 0.0, 9.999827, 9.999891 
7.950177e+2, 2.0464976e+2, -948547.8, -944185.8, 3652.581, -0.023382243, 0.026347216, -942112.6, -7677.6323, 0.0, 9.999898, 9.999958 
7.950041e+2, 2.1464948e+2, -834544.06, -838171.94, 1887.1274, -0.02102989, 0.0035584746, -833740.44, 2696.0676, 0.0, 10.000007, 9.999961 
7.949906e+2, 2.2464938e+2, -725954.75, -744523.56, -7855.331, -0.01305907, 0.0010629038, -723077.5, 15359.837, 0.0, 10.00012, 9.999876 
7.94977e+2, 2.3464945e+2, -610467.0, -638021.9, -12443.073, 0.0007913915, 0.019767707, -605679.75, 34757.547, 0.0, 10.000239, 9.999877 
7.949633e+2, 2.446494e+2, -510760.44, -554659.9, -21156.885, 0.021581486, 0.034981623, -502224.03, 40214.793, 0.0, 10.000319, 9.999738 
7.949496e+2, 2.5464922e+2, -408294.1, -454834.3, -16420.592, 0.05053376, 0.044159204, -403083.78, 41358.355, 0.0, 10.000351, 9.999735 
7.9493576e+2, 2.64649e+2, -317860.22, -389871.7, -8420.231, 0.06466231, 0.06284574, -316888.75, 29557.299, 0.0, 10.000425, 9.999472 
7.9492193e+2, 2.7464876e+2, -201888.38, -284006.1, -11847.402, 0.061664857, 0.09079959, -200213.28, 48237.324, 0.0, 10.000552, 9.999465 
7.9490834e+2, 2.8464818e+2, -102932.26, -217851.47, -10988.977, 0.07657915, 0.10212654, -101890.89, 48565.883, 0.0, 10.000698, 9.999176 
7.948949e+2, 2.9464725e+2, 18646.398, -109588.734, -9369.671, 0.11242467, 0.09138552, 19327.39, 71792.305, 0.0, 10.000865, 9.999166 
7.948813e+2, 3.0464604e+2, 72119.38, -63683.91, 298.32602, 0.11945417, 0.059002213, 72120.04, 72120.04, 0.0, 10.000918, 9.99912 
7.9486746e+2, 3.146455e+2, 63123.91, -66296.25, -3128.9583, 0.09215793, 0.09532411, 63199.51, 63199.51, 0.0, 10.00085, 9.999136 
8.051212e+2, 1.2466371e+2, -1850418.5, -1789386.9, -35443.363, 0.020151533, -0.0063703232, -1773132.5, -54837.324, 0.0, 9.999114, 9.999914 
8.051077e+2, 1.3466395e+2, -1705036.8, -1645924.8, 35076.65, -0.10878297, 0.006557493, -1629612.1, -9318.064, 0.0, 9.999334, 10.000124 
8.0509686e+2, 1.4466408e+2, -1606131.5, -1581840.1, 1322.382, 0.063113995, 0.021759441, -1581768.4, -59474.65, 0.0, 9.999492, 9.999812 
8.050831e+2, 1.546637e+2, -1493697.3, -1478054.5, 902.11316, -0.007948266, 0.004525592, -1478002.6, -53704.707, 0.0, 9.999596, 9.999802 
8.050697e+2, 1.646636e+2, -1386750.3, -1375915.9, 5458.509, -0.044336025, 0.014972637, -1373642.8, -47343.13, 0.0, 9.999658, 9.999801 
8.0505687e+2, 1.7466381e+2, -1286974.8, -1277200.8, 9027.0625, -0.032632224, 0.056131527, -1271822.8, -43524.09, 0.0, 9.99967, 9.999799 
8.050439e+2, 1.8466373e+2, -1174590.3, -1160934.9, 4389.6533, -0.025142731, 0.06412205, -1159645.5, -29346.025, 0.0, 9.99972, 9.999901 
8.050308e+2, 1.9466332e+2, -1063507.4, -1056393.0, 3875.1401, -0.024984177, 0.032188836, -1054689.9, -22387.318, 0.0, 9.999808, 9.999903 
8.050176e+2, 2.0466302e+2, -947063.0, -945230.56, -9448.326, -0.02427924, 0.01107752, -936654.1, -2349.5608, 0.0, 9.999916, 9.999942 
8.050042e+2, 2.1466285e+2, -830039.94, -837927.06, -9613.518, -0.02222175, 0.00032698913, -823592.56, 12712.692, 0.0, 10.000047, 9.999943 
8.049907e+2, 2.2466278e+2, -721691.75, -744545.94, -15680.841, -0.012783033, 0.0031405601, -713716.1, 24589.762, 0.0, 10.000159, 9.999857 
8.0497724e+2, 2.346628e+2, -610255.94, -640039.1, -13263.843, 0.0045809266, 0.019670313, -605205.4, 35100.965, 0.0, 10.000251, 9.999857 
8.049637e+2, 2.4466272e+2, -501570.3, -543690.56, -22427.229, 0.02399216, 0.030138835, -491865.06, 50442.945, 0.0, 10.000354, 9.999796 
8.0494994e+2, 2.546625e+2, -386602.84, -437485.9, -24096.441, 0.046058327, 0.03138039, -377002.8, 67308.19, 0.0, 10.00047, 9.999796 
8.049363e+2, 2.6466236e+2, -295869.63, -379752.94, -15200.59, 0.060211215, 0.051947273, -293200.06, 53114.313, 0.0, 10.000579, 9.999467 
8.049226e+2, 2.7466223e+2, -183881.81, -276073.38, -12582.121, 0.065001585, 0.09304361, -182195.48, 66122.64, 0.0, 10.00068, 9.999457 
8.0490905e+2, 2.8466165e+2, -87394.09, -208495.11, -8313.332, 0.078893624, 0.10429036, -86826.06, 63498.22, 0.0, 10.000797, 9.999192 
8.048957e+2, 2.946606e+2, 30479.807, -101885.55, -9239.117, 0.10363098, 0.07843312, 31121.586, 83454.92, 0.0, 10.000938, 9.999183 
8.0488217e+2, 3.046594e+2, 86465.46, -58458.863, -7938.927, 0.11045552, 0.044595074, 86899.06, 86899.06, 0.0, 10.001025, 9.9991045 
8.048684e+2, 3.1465894e+2, 90469.055, -55051.184, -12635.53, 0.0952852, 0.09227554, 91558.05, 91558.05, 0.0, 10.001046, 9.999118 
8.151204e+2, 1.24677e+2, -1847232.5, -1784043.0, -22451.28, 0.033691656, 0.018292092, -1776878.4, -58712.57, 0.0, 9.999119, 9.9999485 
8.15107e+2, 1.3467705e+2, -1702744.9, -1641953.1, 42780.6, -0.11537894, 0.008364496, -1619869.5, 296.71906, 0.0, 9.999337, 10.000151 
8.150962e+2, 1.4467713e+2, -1606683.9, -1583489.4, 4789.4224, 0.04871064, 0.021305427, -1582539.4, -60373.285, 0.0, 9.999493, 9.999801 
8.1508243e+2, 1.5467687e+2, -1494238.5, -1479705.6, 4514.2183, -0.025767103, 0.013913481, -1478417.5, -54247.867, 0.0, 9.999598, 9.999789 
8.1506926e+2, 1.6467682e+2, -1380913.1, -1364355.9, 5718.8643, -0.054209117, 0.027659293, -1362572.6, -36401.875, 0.0, 9.99966, 9.999879 
8.150566e+2, 1.7467706e+2, -1280934.3, -1265266.3, 9219.72, -0.021815008, 0.06426945, -1261001.8, -32832.883, 0.0, 9.999672, 9.999881 
8.1504375e+2, 1.8467696e+2, -1175571.4, -1163519.1, 7414.742, -0.010918404, 0.06524349, -1159990.5, -29820.77, 0.0, 9.999722, 9.999883 
8.150306e+2, 1.9467643e+2, -1064727.3, -1059406.6, 7026.445, -0.02717459, 0.023724834, -1054553.8, -22379.795, 0.0, 9.999809, 9.999882 
8.150174e+2, 2.0467612e+2, -946769.9, -945100.06, -4790.788, -0.029972598, 0.0037595534, -941072.0, -6896.0537, 0.0, 9.999918, 9.999943 
8.150043e+2, 2.1467608e+2, -829611.44, -837535.94, -4787.491, -0.016692102, 0.0060359957, -827359.2, 8816.285, 0.0, 10.000048, 9.999946 
8.1499094e+2, 2.2467604e+2, -716401.44, -734034.94, -12229.829, 0.0006529159, 0.0089041, -710141.6, 28034.01, 0.0, 10.00016, 9.999928 
8.1497765e+2, 2.3467599e+2, -604871.4, -629315.2, -9776.138, 0.022426093, 0.011261567, -601442.44, 38733.844, 0.0, 10.000253, 9.99993 
8.149641e+2, 2.4467589e+2, -503007.6, -547126.8, -18085.5, 0.035338055, 0.015005996, -496541.6, 45636.652, 0.0, 10.000356, 9.999772 
8.1495035e+2, 2.546757e+2, -388183.88, -441292.22, -19685.063, 0.03837238, 0.017529834, -381683.16, 62498.516, 0.0, 10.000472, 9.999769 
8.149367e+2, 2.6467553e+2, -290648.38, -369508.16, -11389.025, 0.04933633, 0.03977424, -289036.5, 57148.152, 0.0, 10.000581, 9.9995365 
8.1492335e+2, 2.7467552e+2, -178438.81, -265368.78, -8703.972, 0.068973064, 0.08308609, -177575.89, 70611.21, 0.0, 10.000682, 9.999531 
8.149099e+2, 2.8467503e+2, -88303.72, -210947.9, -3013.7998, 0.07878779, 0.09810261, -88229.7, 61962.84, 0.0, 10.000799, 9.999175 
8.1489635e+2, 2.9467398e+2, 29318.271, -104764.77, -3812.6855, 0.077737615, 0.07777344, 29426.598, 81628.16, 0.0, 10.000939, 9.999164 
8.1488293e+2, 3.0467275e+2, 84404.8, -63151.957, -6768.6763, 0.08840791, 0.04449791, 84714.63, 84714.63, 0.0, 10.001026, 9.999072 
8.1486964e+2, 3.146722e+2, 88322.28, -60021.39, -11571.002, 0.11045355, 0.0842254, 89219.41, 89219.41, 0.0, 10.001048, 9.9990835 
8.251196e+2, 1.2468994e+2, -1804956.3, -1764145.6, -23668.596, 0.032805867, 0.024326142, -1753300.6, -35261.2, 0.0, 9.999412, 9.999944 
8.2510626e+2, 1.3468991e+2, -1690841.8, -1637778.1, 32829.63, -0.12629691, 0.00978264, -1622099.5, -2059.0466, 0.0, 9.999426, 10.000135 
8.2509553e+2, 1.4469007e+2, -1609097.5, -1584719.9, -6729.289, 0.037729196, 0.028470935, -1582985.8, -60945.813, 0.0, 9.999477, 9.9998 
8.2508194e+2, 1.5468985e+2, -1495578.3, -1480392.4, -6020.619, -0.03297925, 0.027894393, -1478295.1, -54251.91, 0.0, 9.999589, 9.999789 
8.2506883e+2, 1.6468984e+2, -1372212.3, -1349819.0, -6763.1455, -0.057514764, 0.038956065, -1347934.9, -21890.988, 0.0, 9.999675, 9.999971 
8.250563e+2, 1.7469004e+2, -1266057.6, -1247471.0, -2522.016, -0.02118971, 0.061987363, -1247134.9, -19093.156, 0.0, 9.999729, 9.999975 
8.250435e+2, 1.8468991e+2, -1167969.1, -1159998.1, -2288.5217, -0.010069181, 0.056969035, -1159387.8, -29345.451, 0.0, 9.999775, 9.999881 
8.250304e+2, 1.946894e+2, -1065035.6, -1060040.9, -1573.3822, -0.030418407, 0.018129416, -1059586.5, -27540.092, 0.0, 9.99981, 9.999877 
8.250173e+2, 2.0468915e+2, -948663.1, -940573.1, -9091.9, -0.033233657, 0.0008380231, -934667.0, -618.955, 0.0, 9.999882, 9.99999 
8.250043e+2, 2.146892e+2, -834295.6, -834100.44, -5575.3228, -0.015218726, 0.0057878545, -828621.9, 7425.0195, 0.0, 9.999991, 9.999995 
8.2499117e+2, 2.2468919e+2, -721082.1, -729441.94, -12564.997, 0.004052029, 0.0061232666, -712020.0, 26026.484, 0.0, 10.000099, 9.9999895 
8.2497793e+2, 2.3468912e+2, -607824.0, -623937.6, -11285.792, 0.024529172, 0.000073893505, -602014.25, 38032.723, 0.0, 10.000203, 9.99999 
8.2496446e+2, 2.44689e+2, -507985.6, -554864.75, -19264.178, 0.03757631, 0.0039316947, -501085.06, 40963.83, 0.0, 10.000345, 9.999723 
8.249509e+2, 2.5468883e+2, -383311.16, -444546.44, -22804.77, 0.04220172, 0.016121048, -375751.6, 68300.85, 0.0, 10.00053, 9.999719 
8.249374e+2, 2.6468873e+2, -269820.78, -352704.28, -16986.848, 0.05184644, 0.038929053, -266474.44, 79580.91, 0.0, 10.000696, 9.999597 
8.24924e+2, 2.7468866e+2, -150965.23, -244883.17, -15194.334, 0.06703723, 0.07243543, -148568.22, 99489.266, 0.0, 10.00084, 9.999595 
8.2491064e+2, 2.8468817e+2, -68608.97, -204179.75, -11051.699, 0.070305236, 0.08642317, -67713.945, 82348.75, 0.0, 10.000947, 9.999149 
8.2489717e+2, 2.9468718e+2, 37465.605, -103786.26, -12553.641, 0.060353026, 0.07513465, 38572.625, 90644.195, 0.0, 10.001009, 9.999136 
8.2488394e+2, 3.0468598e+2, 97391.586, -57119.277, -15193.611, 0.077204816, 0.043133613, 98871.45, 98871.45, 0.0, 10.001118, 9.999069 
8.248709e+2, 3.146853e+2, 121393.914, -44369.48, -17735.297, 0.12193312, 0.07242313, 123270.2, 123270.2, 0.0, 10.001277, 9.99908 
8.351189e+2, 1.2470256e+2, -1807638.9, -1770610.0, -18012.89, 0.017458359, 0.012685467, -1763293.3, -45377.49, 0.0, 9.999415, 9.999899 
8.3510554e+2, 1.3470261e+2, -1694532.9, -1646075.8, 32839.137, -0.14141919, 0.010982245, -1629494.5, -9578.3955, 0.0, 9.999428, 10.000078 
8.350949e+2, 1.4470287e+2, -1608370.5, -1583768.6, -3184.9731, 0.029990051, 0.0430458, -1583363.0, -61448.125, 0.0, 9.999479, 9.999805 
8.350816e+2, 1.547027e+2, -1494785.9, -1479260.4, -2014.6626, -0.030037431, 0.046318535, -1479003.3, -55085.05, 0.0, 9.99959, 9.999796 
8.350685e+2, 1.6470265e+2, -1364823.3, -1334969.0, -4885.745, -0.054623853, 0.0488618, -1334189.8, -8270.751, 0.0, 9.999676, 10.0000725 
8.3505595e+2, 1.7470275e+2, -1258427.5, -1232154.3, -730.3075, -0.03066038, 0.04944591, -1232133.9, -4217.054, 0.0, 9.99973, 10.00008 
8.3504313e+2, 1.8470262e+2, -1166883.6, -1158245.8, -1193.3917, -0.022400197, 0.03945418, -1158083.9, -28166.777, 0.0, 9.999776, 9.999892 
8.3503014e+2, 1.9470227e+2, -1064149.5, -1058749.4, -427.19843, -0.034721427, 0.015412359, -1058715.8, -26795.713, 0.0, 9.999812, 9.999886 
8.3501714e+2, 2.0470211e+2, -941863.56, -927022.25, -5183.408, -0.03418127, 0.002270443, -925391.1, 8529.736, 0.0, 9.999884, 10.000083 
8.350042e+2, 2.1470216e+2, -827302.56, -820155.9, -1540.139, -0.017910268, -0.00043792886, -819838.1, 16081.2, 0.0, 9.999993, 10.000091 
8.3499116e+2, 2.2470218e+2, -717593.4, -722679.94, -8705.268, -0.0027348462, -0.005213933, -711067.5, 26850.96, 0.0, 10.0001, 10.000035 
8.34978e+2, 2.3470213e+2, -604523.4, -617545.94, -7373.0986, 0.010652727, -0.013895001, -601198.06, 38720.406, 0.0, 10.000205, 10.000034 
8.349647e+2, 2.4470207e+2, -513123.63, -565991.75, -12396.583, 0.030549806, -0.0029771107, -510361.2, 31558.838, 0.0, 10.000346, 9.999647 
8.349515e+2, 2.54702e+2, -388621.5, -456105.56, -15772.081, 0.05781459, 0.02745302, -385117.28, 58806.156, 0.0, 10.000532, 9.999639 
8.349382e+2, 2.6470187e+2, -266155.97, -345730.13, -11493.655, 0.0679659, 0.049660176, -264529.1, 81397.5, 0.0, 10.000698, 9.999644 
8.349248e+2, 2.7470163e+2, -147055.75, -237439.33, -9678.92, 0.058665603, 0.061052073, -146030.88, 101898.57, 0.0, 10.000842, 9.999645 
8.349114e+2, 2.8470108e+2, -70765.97, -209219.89, -8528.646, 0.052868705, 0.06910157, -70242.59, 79692.37, 0.0, 10.000949, 9.999115 
8.3489805e+2, 2.947002e+2, 35044.418, -109225.164, -10120.026, 0.05194627, 0.07043629, 35750.848, 87694.46, 0.0, 10.00101, 9.999099 
8.34885e+2, 3.04699e+2, 99508.586, -53193.12, -9077.992, 0.077406414, 0.040371843, 100046.375, 100046.375, 0.0, 10.001119, 9.999096 
8.3487225e+2, 3.1469825e+2, 123653.65, -40307.64, -11278.0205, 0.12886524, 0.056042954, 124425.77, 124425.77, 0.0, 10.001279, 9.999107 
8.451182e+2, 1.24715105e+2, -1786975.4, -1759293.5, -27233.871, 0.00070131966, 0.014338868, -1742585.1, -24792.182, 0.0, 9.999551, 9.99991 
8.4510493e+2, 1.3471511e+2, -1684740.6, -1641352.0, 21766.693, -0.1455445, 0.0071683396, -1632314.6, -12520.894, 0.0, 9.999496, 10.000077 
8.4509444e+2, 1.4471543e+2, -1603777.9, -1576954.4, -7102.5166, 0.03222766, 0.043594092, -1575189.8, -53397.914, 0.0, 9.999491, 9.999846 
8.4508115e+2, 1.5471534e+2, -1497054.4, -1475600.4, -3103.8528, -0.030605765, 0.05232069, -1475160.3, -51365.96, 0.0, 9.999555, 9.999838 
8.4506816e+2, 1.6471532e+2, -1370478.4, -1332957.9, -7994.4136, -0.05652258, 0.051631164, -1331325.5, -5530.5728, 0.0, 9.999618, 10.000114 
8.4505564e+2, 1.7471531e+2, -1263115.8, -1229701.0, -8691.586, -0.032613598, 0.039167292, -1227575.4, 217.92249, 0.0, 9.999679, 10.000121 
8.450429e+2, 1.8471523e+2, -1165285.5, -1147642.8, -9124.097, -0.022383574, 0.026680265, -1143773.0, -13979.925, 0.0, 9.999745, 9.99998 
8.4502995e+2, 1.9471505e+2, -1057354.0, -1045413.94, -2503.8403, -0.030187981, 0.012158973, -1044910.1, -13116.071, 0.0, 9.999816, 9.999975 
8.450171e+2, 2.04715e+2, -937688.1, -923658.2, -5072.7764, -0.029257257, 0.0034735224, -922016.2, 11777.85, 0.0, 9.9999075, 10.000094 
8.450042e+2, 2.1471506e+2, -822769.4, -816864.4, -8085.0483, -0.017320957, -0.00038414964, -811209.56, 24583.135, 0.0, 10.000021, 10.0001 
8.4499127e+2, 2.2471505e+2, -709833.7, -717894.56, -19628.959, -0.0044480087, -0.0072866, -693825.7, 43966.426, 0.0, 10.00015, 10.000044 
8.4497815e+2, 2.3471498e+2, -590301.6, -609553.7, -21087.71, 0.008782274, -0.01953589, -576746.8, 63045.43, 0.0, 10.0002985, 10.000044 
8.449651e+2, 2.4471496e+2, -499226.5, -556582.6, -22929.566, 0.028343588, -0.006646542, -491186.75, 50606.656, 0.0, 10.00043, 9.99967 
8.4495205e+2, 2.5471503e+2, -384875.13, -451538.47, -18536.322, 0.05518796, 0.03222598, -380067.63, 63728.2, 0.0, 10.000546, 9.999662 
8.449389e+2, 2.6471484e+2, -265205.9, -342880.7, -10860.565, 0.06329565, 0.050013863, -263715.94, 82083.05, 0.0, 10.000694, 9.999664 
8.449255e+2, 2.7471444e+2, -140432.66, -231911.0, -11542.944, 0.050072804, 0.042485066, -138998.63, 108804.38, 0.0, 10.000878, 9.999665 
8.449123e+2, 2.847139e+2, -61354.68, -205458.56, -13899.526, 0.04540766, 0.048969325, -60026.25, 89782.3, 0.0, 10.001018, 9.999106 
8.448991e+2, 2.9471317e+2, 48366.32, -103656.19, -13598.639, 0.051344197, 0.06829564, 49573.16, 101389.11, 0.0, 10.001106, 9.99909 
8.448862e+2, 3.04712e+2, 117262.75, -52821.277, -10452.164, 0.07483264, 0.045591597, 117902.66, 117902.66, 0.0, 10.001277, 9.999022 
8.448735e+2, 3.147111e+2, 155098.81, -33604.63, -20580.008, 0.11417729, 0.053327203, 157317.19, 157317.19, 0.0, 10.001533, 9.999031 
8.5511756e+2, 1.247276e+2, -1782072.3, -1749834.5, -23916.547, -0.017974326, 0.028432332, -1737112.0, -19441.164, 0.0, 9.999554, 9.999974 
8.551045e+2, 1.3472743e+2, -1680834.4, -1633826.1, 19205.61, -0.13921605, -0.0014965406, -1626977.4, -7304.5195, 0.0, 9.999497, 10.000129 
8.550941e+2, 1.4472777e+2, -1598482.6, -1566591.6, -5314.9185, 0.04392907, 0.030691251, -1565729.1, -44058.707, 0.0, 9.999493, 9.999917 
8.5508066e+2, 1.5472783e+2, -1491577.3, -1464883.0, -942.7427, -0.034657966, 0.04633105, -1464849.8, -41178.484, 0.0, 9.999557, 9.999911 
8.5506773e+2, 1.6472784e+2, -1371576.8, -1335857.6, -6018.6035, -0.063064925, 0.04748357, -1334870.8, -9199.272, 0.0, 9.9996195, 10.000094 
8.5505533e+2, 1.7472778e+2, -1264486.9, -1233100.8, -6652.0415, -0.027270325, 0.031190317, -1231749.1, -4078.1824, 0.0, 9.99968, 10.000097 
8.550428e+2, 1.8472777e+2, -1153769.6, -1124263.9, -6701.9463, -0.010363867, 0.018615814, -1122812.9, 6857.033, 0.0, 9.999746, 10.00014 
8.550299e+2, 1.947278e+2, -1045398.25, -1021148.1, -85.1388, -0.017001078, 0.008322149, -1021147.9, 10520.57, 0.0, 9.999817, 10.000141 
8.5501707e+2, 2.0472783e+2, -942484.6, -934163.2, -1041.6487, -0.018568922, 0.0044177757, -934034.75, -367.33218, 0.0, 9.999908, 10.000022 
8.5500425e+2, 2.1472788e+2, -828047.94, -828419.7, -3940.2986, -0.013519205, 0.005947675, -824289.1, 11377.917, 0.0, 10.000022, 10.00002 
8.5499144e+2, 2.2472781e+2, -711751.06, -722435.94, -14193.851, -0.0011035099, -0.00007819665, -701927.5, 35739.793, 0.0, 10.000152, 10.000012 
8.5497856e+2, 2.3472767e+2, -592006.2, -613686.56, -15535.479, 0.019000478, -0.016785633, -583902.75, 55765.574, 0.0, 10.000299, 10.000015 
8.5496557e+2, 2.4472766e+2, -490266.28, -538540.2, -18577.176, 0.030871034, -0.0070781093, -483945.0, 57724.152, 0.0, 10.000432, 9.999794 
8.549524e+2, 2.5472784e+2, -375774.94, -433106.47, -14130.43, 0.033770055, 0.030281112, -372481.4, 71188.28, 0.0, 10.000547, 9.999789 
8.549393e+2, 2.6472762e+2, -265722.22, -344384.72, -3916.9717, 0.03728296, 0.03977607, -265527.66, 80145.0, 0.0, 10.000696, 9.999654 
8.5492635e+2, 2.7472705e+2, -141144.06, -233942.42, -4499.4883, 0.041287255, 0.016490804, -140926.4, 106751.92, 0.0, 10.00088, 9.999651 
8.5491335e+2, 2.8472653e+2, -59858.086, -202865.7, -10310.561, 0.048170045, 0.025848683, -59118.54, 90565.11, 0.0, 10.001019, 9.999125 
8.5490024e+2, 2.9472607e+2, 49810.793, -100999.88, -10060.548, 0.058611646, 0.06881521, 50478.97, 102167.734, 0.0, 10.001106, 9.999108 
8.5488737e+2, 3.0472493e+2, 104606.65, -79584.4, -546.9358, 0.06902675, 0.05922267, 104608.27, 104608.27, 0.0, 10.001278, 9.998838 
8.548746e+2, 3.1472382e+2, 142338.6, -61020.016, -10556.419, 0.07637051, 0.06484011, 142885.11, 142885.11, 0.0, 10.001535, 9.998841 
8.651171e+2, 1.2473985e+2, -1764583.6, -1735160.9, -29877.613, -0.025107808, 0.03090845, -1716569.1, 982.18616, 0.00000000000000000000885557, 9.999647, 10.00003 
8.65104e+2, 1.3473968e+2, -1669743.1, -1623919.1, 6330.0767, -0.1391039, -0.0015762878, -1623060.8, -3507.8933, 0.0, 9.999556, 10.000168 
8.650935e+2, 1.4474007e+2, -1587856.6, -1552560.3, -13503.122, 0.04310411, 0.030496439, -1547987.0, -26437.412, 0.0, 9.999528, 9.999995 
8.650801e+2, 1.5474017e+2, -1481785.5, -1451004.9, -8328.842, -0.04300722, 0.04060369, -1448895.8, -25345.96, 0.0, 9.999585, 9.999992 
8.6506724e+2, 1.647402e+2, -1369829.4, -1333972.9, -12880.5625, -0.06991598, 0.040297315, -1329825.6, -4275.9424, 0.0, 9.999627, 10.000103 
8.65055e+2, 1.747402e+2, -1268410.5, -1234101.0, -11374.316, -0.02286671, 0.0270288, -1230672.8, -3123.648, 0.0, 9.99965, 10.000105 
8.650426e+2, 1.8474023e+2, -1154755.1, -1115089.3, -11876.273, -0.0007872722, 0.015864339, -1111805.3, 17742.246, 0.0, 9.999699, 10.000226 
8.650298e+2, 1.9474036e+2, -1045237.4, -1011130.8, -11221.752, -0.008907718, 0.0053423746, -1007769.8, 23774.918, 0.0, 9.999777, 10.000229 
8.6501706e+2, 2.0474042e+2, -951559.06, -939416.1, -12351.324, -0.0123175, 0.00021144624, -931724.7, 1818.7599, 0.0, 9.999851, 10.000013 
8.650043e+2, 2.1474041e+2, -843556.75, -837080.7, -10271.244, -0.0096640065, -0.00073187175, -829549.1, 5994.575, 0.0, 9.999922, 10.000009 
8.649916e+2, 2.2474039e+2, -727472.9, -727230.3, -13855.058, 0.0012975907, -0.0049272133, -713496.0, 24047.99, 0.0, 10.000032, 10.000036 
8.6497885e+2, 2.3474033e+2, -606760.6, -617833.3, -11217.788, 0.021171078, -0.01491033, -599787.4, 39756.883, 0.0, 10.000187, 10.000041 
8.649659e+2, 2.4474037e+2, -498659.34, -536617.6, -15208.249, 0.03017035, -0.0053683952, -493317.75, 48226.84, 0.0, 10.00035, 9.999846 
8.649528e+2, 2.547405e+2, -375672.6, -427019.84, -16463.408, 0.027202407, 0.02400526, -370847.4, 72697.57, 0.0, 10.000524, 9.999843 
8.6493987e+2, 2.647403e+2, -271002.63, -350417.75, -9500.392, 0.029189957, 0.030739674, -269881.9, 75666.086, 0.0, 10.000675, 9.999622 
8.649271e+2, 2.747397e+2, -154516.45, -244073.75, -11797.972, 0.03652103, 0.010584331, -152988.31, 94565.71, 0.0, 10.000805, 9.999617 
8.649143e+2, 2.847392e+2, -64160.285, -204962.42, -18884.303, 0.046269797, 0.022079203, -61671.523, 87887.92, 0.0, 10.00099, 9.999124 
8.649014e+2, 2.9473874e+2, 68696.4, -91739.875, -20153.77, 0.058904435, 0.066123545, 71189.35, 122753.73, 0.0, 10.001237, 9.999109 
8.648886e+2, 3.0473763e+2, 119545.164, -76436.305, -6046.3564, 0.059545156, 0.05941826, 119731.53, 119731.53, 0.0, 10.001399, 9.998801 
8.648758e+2, 3.147365e+2, 128578.28, -71783.35, -4774.251, 0.043931495, 0.06750536, 128691.98, 128691.98, 0.0, 10.001459, 9.998803 
8.7511677e+2, 1.24751866e+2, -1761580.5, -1729184.6, -27759.23, -0.022087831, 0.022473034, -1713243.1, 4190.8237, 0.0000000055054987, 9.999647, 10.000071 
8.7510353e+2, 1.347519e+2, -1667729.8, -1620219.6, 2523.38, -0.14508311, 0.00662968, -1620086.0, -652.46985, 0.0, 9.999557, 10.000194 
8.750929e+2, 1.447524e+2, -1581658.9, -1540322.6, -11889.887, 0.030202394, 0.042494632, -1537146.8, -15717.704, 0.0, 9.99953, 10.000079 
8.750796e+2, 1.5475239e+2, -1475564.0, -1438565.1, -6383.137, -0.055618316, 0.035169054, -1437494.9, -14065.454, 0.0, 9.999586, 10.000077 
8.750668e+2, 1.6475245e+2, -1367147.5, -1328914.5, -12260.429, -0.07723257, 0.030292273, -1325320.6, 108.35366, 0.0, 9.999629, 10.000137 
8.750548e+2, 1.7475255e+2, -1265660.5, -1229123.0, -10798.527, -0.0194595, 0.026596904, -1226170.1, 1257.5072, 0.0, 9.999652, 10.000138 
8.750424e+2, 1.8475264e+2, -1153687.9, -1113631.9, -9290.856, 0.0063306107, 0.018269494, -1111581.8, 17843.889, 0.0, 9.9997015, 10.000235 
8.750296e+2, 1.9475274e+2, -1044349.9, -1009928.1, -8561.595, -0.0059337183, 0.0032272816, -1007916.2, 23506.73, 0.0, 9.999779, 10.000237 
8.750169e+2, 2.0475276e+2, -947546.0, -931664.75, -9898.711, -0.010540289, -0.009114855, -926915.3, 6506.5654, 0.0, 9.999852, 10.000066 
8.7500423e+2, 2.147527e+2, -839451.9, -829162.9, -7751.202, -0.0058083283, -0.020468151, -825004.3, 10418.368, 0.0, 9.999924, 10.000063 
8.749916e+2, 2.2475278e+2, -721788.06, -715970.6, -8175.398, 0.0026483543, -0.021880815, -710201.94, 27220.146, 0.0, 10.000034, 10.0001135 
8.7497896e+2, 2.3475295e+2, -601068.8, -606543.5, -5411.553, 0.015133465, -0.013892756, -597741.6, 41678.316, 0.0, 10.000188, 10.000118 
8.7496626e+2, 2.4475305e+2, -499984.9, -539838.2, -8654.801, 0.026208235, -0.0015225299, -498186.53, 43233.215, 0.0, 10.000351, 9.999825 
8.7495345e+2, 2.5475302e+2, -377137.44, -430533.63, -9852.983, 0.03575829, 0.013254946, -375377.3, 68044.38, 0.0, 10.0005245, 9.999818 
8.749407e+2, 2.647528e+2, -274841.88, -358790.94, -4548.5986, 0.039302457, 0.022973096, -274596.16, 70828.97, 0.0, 10.000676, 9.999564 
8.7492794e+2, 2.7475238e+2, -158542.34, -252623.0, -6846.7524, 0.035768107, 0.025440646, -158046.67, 89383.53, 0.0, 10.000805, 9.999558 
8.7491524e+2, 2.8475186e+2, -65693.555, -208352.63, -9543.17, 0.039469533, 0.038259465, -65058.0, 84378.12, 0.0, 10.000991, 9.999101 
8.749026e+2, 2.9475117e+2, 67545.414, -94730.87, -10638.044, 0.05182648, 0.059980724, 68239.82, 119682.91, 0.0, 10.001239, 9.999088 
8.748899e+2, 3.0475e+2, 127795.92, -59850.637, -3291.2305, 0.04611716, 0.04556186, 127853.625, 127853.625, 0.0, 10.0014, 9.998915 
8.74877e+2, 3.1474906e+2, 136603.58, -54907.855, -2082.675, 0.016806796, 0.059931323, 136626.23, 136626.23, 0.0, 10.001457, 9.99892 
8.851164e+2, 1.2476413e+2, -1768031.8, -1733216.3, -13277.63, -0.022178847, 0.024566032, -1728730.5, -11416.84, 0.00000006865042, 9.999608, 10.000062 
8.8510305e+2, 1.3476412e+2, -1664656.3, -1621651.4, 7227.6787, -0.14583631, 0.0067366613, -1620469.1, -1155.4795, 0.0, 9.999592, 10.000166 
8.850924e+2, 1.4476459e+2, -1572828.0, -1530541.4, -7975.8506, 0.026721345, 0.03934529, -1529087.1, -7777.983, 0.0, 9.999568, 10.000128 
8.8507915e+2, 1.5476453e+2, -1478054.9, -1434004.0, -4938.44, -0.05655, 0.020619897, -1433457.1, -10147.447, 0.0, 9.999546, 10.000128 
8.850664e+2, 1.6476461e+2, -1370345.0, -1328411.0, -10514.264, -0.076974325, 0.01633015, -1325922.4, -613.53723, 0.0, 9.999599, 10.0001545 
8.8505447e+2, 1.7476487e+2, -1252707.4, -1220907.1, -10419.167, -0.019856483, 0.02634319, -1217797.5, 9508.949, 0.0, 9.999734, 10.0001545 
8.8504213e+2, 1.8476498e+2, -1137361.1, -1105916.3, -11224.82, 0.007229393, 0.019285504, -1102320.5, 26983.777, 0.0, 9.999815, 10.000233 
8.8502944e+2, 1.9476496e+2, -1036180.94, -1006178.6, -11555.019, -0.0014883485, -0.008047021, -1002244.3, 29058.266, 0.0, 9.999836, 10.000235 
8.850168e+2, 2.0476495e+2, -944113.0, -927144.5, -14319.743, -0.0066086105, -0.022755254, -918984.3, 14317.321, 0.0, 9.999865, 10.000091 
8.8500416e+2, 2.1476501e+2, -841054.4, -826840.7, -14490.561, -0.0067287283, -0.025831414, -817808.0, 17493.518, 0.0, 9.9999, 10.00009 
8.849915e+2, 2.2476517e+2, -727683.0, -715493.3, -14619.048, -0.0025132704, -0.022133801, -705749.5, 31550.87, 0.0, 9.99998, 10.000143 
8.84979e+2, 2.3476541e+2, -610460.4, -607799.06, -15646.831, 0.006208438, -0.012118678, -593426.44, 45871.46, 0.0, 10.000111, 10.000147 
8.8496643e+2, 2.447655e+2, -512726.56, -544818.06, -18660.557, 0.018815465, -0.001609299, -504161.7, 37135.996, 0.0, 10.000259, 9.999834 
8.849539e+2, 2.5476542e+2, -390460.2, -435784.38, -17389.404, 0.035707157, 0.0066827238, -384557.22, 58742.895, 0.0, 10.000428, 9.999827 
8.849413e+2, 2.6476526e+2, -286980.88, -367506.44, -10251.306, 0.03988407, 0.021964343, -285696.34, 59606.965, 0.0, 10.000606, 9.999538 
8.8492864e+2, 2.7476498e+2, -162260.25, -257374.45, -10371.421, 0.029649524, 0.043253634, -161142.47, 86164.87, 0.0, 10.0007925, 9.999531 
8.8491607e+2, 2.8476444e+2, -71530.81, -212476.25, -10316.986, 0.030528888, 0.05589452, -70779.625, 78534.0, 0.0, 10.000957, 9.999087 
8.8490367e+2, 2.947635e+2, 45258.426, -106638.29, -10877.278, 0.04441678, 0.056621786, 46033.39, 97355.93, 0.0, 10.001091, 9.999077 
8.848911e+2, 3.0476236e+2, 110634.2, -61099.145, -7669.9517, 0.03484081, 0.040424723, 110976.08, 110976.08, 0.0, 10.001253, 9.998977 
8.8487816e+2, 3.1476167e+2, 138793.34, -46645.074, -10864.023, -0.0041920147, 0.072053015, 139427.64, 139427.64, 0.0, 10.001443, 9.998984 
8.95116e+2, 1.2477664e+2, -1771906.3, -1742030.4, -8757.354, -0.026019672, 0.036539897, -1739652.6, -22462.123, 0.00000033535434, 9.99961, 10.000001 
8.951027e+2, 1.3477635e+2, -1670119.8, -1633402.0, 6132.201, -0.14169148, -0.00095777086, -1632404.9, -13211.91, 0.00000000007521531, 9.999593, 10.000086 
8.9509207e+2, 1.4477669e+2, -1571899.3, -1529057.6, -9220.01, 0.032205798, 0.021711448, -1527157.6, -5968.144, 0.0, 9.999569, 10.000137 
8.950788e+2, 1.5477659e+2, -1476742.0, -1431957.0, -6110.3135, -0.04625042, -0.002720522, -1431138.4, -7947.9805, 0.0, 9.999548, 10.000141 
8.950661e+2, 1.6477673e+2, -1370180.9, -1328805.0, -5922.486, -0.06943415, -0.0014861678, -1327974.0, -2785.046, 0.0, 9.999601, 10.000152 
8.9505416e+2, 1.7477717e+2, -1252690.9, -1221414.3, -5686.208, -0.024094721, 0.02630983, -1220412.5, 6772.568, 0.0, 9.999735, 10.000152 
8.950419e+2, 1.8477727e+2, -1138333.4, -1108361.8, -10641.342, 0.001937949, 0.01892143, -1104967.9, 24215.395, 0.0, 9.999816, 10.000216 
8.950293e+2, 1.9477701e+2, -1037133.75, -1008658.8, -11048.232, 0.004365433, -0.028427718, -1004874.94, 26308.527, 0.0, 9.999838, 10.000217 
8.950167e+2, 2.0477703e+2, -944189.75, -927865.0, -13233.1, -0.00063738436, -0.04064306, -920479.4, 12703.132, 0.0, 9.9998665, 10.000086 
8.95004e+2, 2.1477737e+2, -841028.94, -827389.7, -13313.647, -0.012535741, -0.016790595, -819250.7, 15929.621, 0.0, 9.999902, 10.000086 
8.949914e+2, 2.2477756e+2, -728897.7, -718599.2, -9908.475, -0.014297157, -0.0056964774, -712581.9, 24596.924, 0.0, 9.999982, 10.000121 
8.94979e+2, 2.3477764e+2, -611814.7, -611185.4, -10751.551, -0.0056645446, -0.009645688, -600743.9, 38434.137, 0.0, 10.000112, 10.000123 
8.949666e+2, 2.4477768e+2, -509725.75, -539076.25, -12330.233, 0.007851826, -0.005666772, -505233.4, 35945.066, 0.0, 10.00026, 9.999873 
8.949542e+2, 2.5477764e+2, -387358.88, -429704.38, -10951.51, 0.02679784, 0.004376504, -384694.25, 58486.066, 0.0, 10.000429, 9.999869 
8.949418e+2, 2.647776e+2, -286720.84, -367278.8, -3177.6272, 0.030675925, 0.02784492, -286595.7, 58586.957, 0.0, 10.000607, 9.999539 
8.9492935e+2, 2.747775e+2, -161980.48, -257136.55, -3197.1113, 0.017918732, 0.064105004, -161873.19, 85312.35, 0.0, 10.000793, 9.999533 
8.9491695e+2, 2.847769e+2, -71853.28, -213334.19, -5002.67, 0.019232519, 0.07504466, -71676.61, 77515.555, 0.0, 10.000957, 9.999082 
8.949047e+2, 2.9477578e+2, 44714.566, -107540.13, -5663.494, 0.036612563, 0.056170538, 44924.94, 96127.88, 0.0, 10.001089, 9.999072 
8.948922e+2, 3.047747e+2, 110695.63, -60730.21, -209.987, 0.025791507, 0.04445629, 110695.89, 110695.89, 0.0, 10.001251, 9.9989805 
8.9487946e+2, 3.1477427e+2, 139023.89, -46293.516, -3330.63, -0.019105392, 0.104803346, 139083.73, 139083.73, 0.0, 10.001442, 9.998987 
9.051156e+2, 1.24788895e+2, -1757516.8, -1731236.6, -15712.514, -0.026927128, 0.03892915, -1723893.9, -6823.9116, 0.0000010631732, 9.999693, 10.000034 
9.051023e+2, 1.3478848e+2, -1667229.6, -1630223.8, 488.79825, -0.13890104, -0.013303758, -1630217.3, -11144.184, 0.000000007369457, 9.999605, 10.0001 
9.0509164e+2, 1.4478874e+2, -1574769.0, -1536528.6, -11341.317, 0.03202259, 0.005098737, -1533418.1, -12348.054, 0.0, 9.999577, 10.000082 
9.0507835e+2, 1.547886e+2, -1471033.8, -1435460.9, -13416.406, -0.044295527, -0.016914377, -1430968.3, -7896.647, 0.0, 9.999615, 10.000085 
9.050657e+2, 1.6478878e+2, -1361249.4, -1321756.0, -12248.898, -0.0669188, -0.011769628, -1318265.5, 6804.548, 0.0, 9.999652, 10.0001745 
9.0505385e+2, 1.747893e+2, -1257859.3, -1221029.3, -10027.139, -0.023185467, 0.021388069, -1218476.3, 8589.112, 0.0, 9.999688, 10.000175 
9.0504164e+2, 1.847894e+2, -1152142.6, -1117016.1, -16018.754, 0.0015285931, 0.014472528, -1110808.3, 18255.18, 0.0, 9.999731, 10.000196 
9.050291e+2, 1.9478908e+2, -1047313.0, -1015661.7, -16895.652, 0.0031710656, -0.037643235, -1008337.5, 22726.982, 0.0, 9.999778, 10.000197 
9.0501654e+2, 2.0478907e+2, -951721.06, -933675.4, -19650.203, -0.0007774608, -0.04959193, -921075.5, 11988.353, 0.0, 9.999825, 10.000065 
9.0500385e+2, 2.1478945e+2, -846762.5, -832242.56, -21127.361, -0.009660628, -0.019902699, -817162.6, 17898.771, 0.0, 9.999872, 10.000066 
9.049914e+2, 2.2478966e+2, -734847.94, -722368.06, -15390.534, -0.01121392, -0.0063611753, -712000.6, 25059.281, 0.0, 9.999946, 10.000113 
9.0497905e+2, 2.3478971e+2, -621970.44, -616955.0, -15225.48, -0.005422392, -0.01194439, -604032.06, 35027.38, 0.0, 10.000047, 10.000114 
9.049668e+2, 2.4478975e+2, -520475.78, -545641.1, -15870.241, 0.0037059248, -0.00748265, -512805.34, 28254.822, 0.0, 10.000194, 9.99986 
9.0495455e+2, 2.5478974e+2, -394080.9, -434254.44, -18666.994, 0.01657318, 0.005639199, -386746.25, 56315.883, 0.0, 10.000389, 9.999857 
9.049423e+2, 2.6478973e+2, -294147.4, -363991.2, -12837.243, 0.019019067, 0.031084254, -291862.7, 53201.426, 0.0, 10.000526, 9.9996 
9.0492994e+2, 2.7478966e+2, -186112.08, -261649.4, -8420.33, 0.009957944, 0.06805693, -185184.83, 61881.35, 0.0, 10.000598, 9.999596 
9.049177e+2, 2.8478914e+2, -99818.89, -228585.16, -5374.2573, 0.009731536, 0.08041544, -99594.98, 49477.47, 0.0, 10.000773, 9.999065 
9.0490556e+2, 2.9478803e+2, 39393.71, -111999.414, -7151.124, 0.019718245, 0.06371463, 39730.746, 90814.125, 0.0, 10.001061, 9.999054 
9.048934e+2, 3.0478692e+2, 109367.016, -62501.105, -5775.819, 0.012920981, 0.052120324, 109560.9, 109560.9, 0.0, 10.001247, 9.998969 
9.0488094e+2, 3.1478643e+2, 119906.445, -56642.535, -10204.348, -0.015198772, 0.108804606, 120494.29, 120494.29, 0.0, 10.001316, 9.998977 
9.151153e+2, 1.2480094e+2, -1748612.0, -1713529.1, -14022.793, -0.025899138, 0.032539334, -1708613.0, 8338.406, 0.0000026057617, 9.999696, 10.000155 
9.1510195e+2, 1.3480052e+2, -1659636.8, -1615050.8, -3269.6023, -0.13760647, -0.030120747, -1614812.3, 4141.2974, 0.00000007607973, 9.999607, 10.000204 
9.150911e+2, 1.448008e+2, -1583114.3, -1554402.4, -10369.683, 0.026249133, -0.010500663, -1551048.9, -30098.576, 0.0, 9.999578, 9.999959 
9.150779e+2, 1.5480062e+2, -1479812.4, -1454156.6, -12254.296, -0.050527453, -0.022195393, -1449244.1, -26291.055, 0.0, 9.999617, 9.999956 
9.1506535e+2, 1.6480078e+2, -1357843.1, -1315205.6, -11182.962, -0.06933699, -0.014743971, -1312450.6, 12501.394, 0.0, 9.999654, 10.000219 
9.150536e+2, 1.7480128e+2, -1254158.3, -1213923.5, -8989.647, -0.017297287, 0.011638318, -1212006.3, 14940.699, 0.0, 9.99969, 10.000224 
9.150414e+2, 1.848014e+2, -1153625.0, -1120654.1, -14586.506, 0.005785802, 0.0060508023, -1115127.4, 13817.298, 0.0, 9.999733, 10.000172 
9.150288e+2, 1.9480117e+2, -1048918.5, -1019528.6, -15451.464, -0.0051072836, -0.035786975, -1012900.1, 18045.336, 0.0, 9.999779, 10.000171 
9.150163e+2, 2.0480111e+2, -954143.7, -939249.0, -18127.197, -0.006999972, -0.04975046, -927098.94, 5846.5366, 0.0, 9.999826, 10.000027 
9.1500384e+2, 2.1480128e+2, -849210.9, -837896.8, -19525.365, 0.0018813738, -0.03524727, -823225.5, 11719.248, 0.0, 9.999874, 10.000027 
9.149915e+2, 2.2480147e+2, -734416.25, -722052.0, -11690.445, 0.0066968715, -0.024191367, -715009.7, 21933.959, 0.0, 9.999948, 10.0001135 
9.1497916e+2, 2.3480164e+2, -621464.1, -616462.3, -11440.552, 0.006940421, -0.01902503, -607252.5, 31689.756, 0.0, 10.000049, 10.000117 
9.14967e+2, 2.448017e+2, -525047.4, -555641.0, -8527.634, 0.006367139, -0.007016857, -522831.0, 18111.887, 0.0, 10.000195, 9.999791 
9.149548e+2, 2.5480166e+2, -398774.1, -444477.13, -11221.391, 0.004936433, 0.010520207, -396167.56, 46778.094, 0.0, 10.000391, 9.999786 
9.149426e+2, 2.6480162e+2, -285704.63, -346765.4, -10020.477, 0.004808465, 0.031526376, -284102.25, 60845.6, 0.0, 10.000527, 9.999719 
9.1493046e+2, 2.7480158e+2, -177589.08, -243942.44, -5682.4966, 0.00577335, 0.054551322, -177105.95, 69843.45, 0.0, 10.000597, 9.999719 
9.149184e+2, 2.8480113e+2, -102167.8, -233320.63, 5500.1973, 0.0018869895, 0.071628205, -101937.54, 47017.125, 0.0, 10.0007715, 9.999034 
9.149064e+2, 2.9480022e+2, 36964.45, -117066.36, 3952.119, -0.006716604, 0.079669505, 37065.785, 88029.82, 0.0, 10.001061, 9.99902 
9.148944e+2, 3.0479905e+2, 107297.27, -66881.35, -2768.202, -0.0039048698, 0.06349769, 107341.26, 107341.26, 0.0, 10.001247, 9.99894 
9.148824e+2, 3.1479815e+2, 117651.64, -60990.47, -7359.569, 0.008204109, 0.082019754, 117954.32, 117954.32, 0.0, 10.001314, 9.998948 
9.25115e+2, 1.24812864e+2, -1733623.8, -1703609.1, -10955.248, -0.029676132, 0.013712285, -1700035.9, 16797.502, 0.000005355975, 9.999787, 10.000178 
9.251015e+2, 1.3481246e+2, -1650942.1, -1610058.0, -12637.548, -0.14129424, -0.049194288, -1606467.1, 12368.188, 0.00000033393198, 9.999665, 10.00021 
9.250906e+2, 1.4481276e+2, -1581182.6, -1557022.6, -15264.531, 0.018415907, -0.023698084, -1549636.5, -28804.754, 0.0, 9.999608, 9.999927 
9.2507756e+2, 1.5481266e+2, -1480637.8, -1458152.5, -10187.523, -0.050726775, -0.026193924, -1454223.4, -31389.24, 0.0, 9.999627, 9.999923 
9.2506504e+2, 1.6481277e+2, -1360337.6, -1320496.9, -8376.018, -0.066798046, -0.020068882, -1318807.6, 6026.075, 0.0, 9.999655, 10.000182 
9.2505324e+2, 1.7481309e+2, -1257008.6, -1219358.8, -12730.842, -0.017480658, -0.0064627444, -1215458.1, 11372.093, 0.0, 9.999689, 10.000187 
9.250411e+2, 1.848132e+2, -1156373.9, -1124452.4, -21368.11, 0.0033858411, -0.011654645, -1113742.1, 15086.0625, 0.0, 9.999725, 10.000149 
9.250285e+2, 1.9481307e+2, -1052777.9, -1023789.7, -22166.404, -0.009190197, -0.038818836, -1011799.25, 19028.74, 0.0, 9.999764, 10.000148 
9.2501605e+2, 2.0481305e+2, -952686.56, -939641.44, -22275.498, -0.008989363, -0.050420586, -922953.2, 9874.822, 0.0, 9.999842, 10.000016 
9.2500377e+2, 2.148131e+2, -837345.06, -833265.06, -21794.791, 0.0060579316, -0.046833113, -813415.0, 21413.238, 0.0, 9.999961, 10.000016 
9.249915e+2, 2.2481324e+2, -723220.44, -724260.2, -15551.623, 0.0114579, -0.035939027, -708180.0, 28647.746, 0.0, 10.000057, 10.000045 
9.249793e+2, 2.3481345e+2, -614423.4, -620706.75, -21000.285, 0.0063684466, -0.019438868, -596331.06, 42495.383, 0.0, 10.000131, 10.000048 
9.2496717e+2, 2.4481352e+2, -523224.78, -555722.3, -16672.893, 0.0027432733, -0.0022180406, -516192.5, 24634.697, 0.0, 10.000212, 9.999782 
9.2495507e+2, 2.5481346e+2, -412242.9, -451809.94, -14785.026, 0.0006627595, 0.014014671, -407328.56, 35501.61, 0.0, 10.000302, 9.999779 
9.2494303e+2, 2.6481342e+2, -293381.5, -345574.13, -14102.939, -0.0012472607, 0.03206276, -289814.53, 55017.887, 0.0, 10.000454, 9.999762 
9.2493105e+2, 2.7481335e+2, -163647.22, -232213.33, -15875.112, -0.0033395223, 0.050303552, -160150.03, 86683.81, 0.0, 10.000671, 9.999763 
9.2491907e+2, 2.8481296e+2, -94263.23, -224119.66, -4074.038, -0.008179804, 0.067888305, -94135.54, 54702.992, 0.0, 10.000803, 9.999082 
9.249072e+2, 2.9481217e+2, 8001.836, -125481.59, 526.82666, -0.015383607, 0.08226837, 8003.915, 58850.73, 0.0, 10.000839, 9.999069 
9.248955e+2, 3.04811e+2, 70966.305, -80133.64, -655.11017, -0.0074935723, 0.06385118, 70969.15, 70969.15, 0.0, 10.00098, 9.998977 
9.248838e+2, 3.1481004e+2, 109403.85, -60617.563, -398.65067, 0.0137191, 0.068933986, 109404.79, 109404.79, 0.0, 10.00124, 9.998986 
9.351147e+2, 1.2482472e+2, -1738764.1, -1714358.9, -11110.592, -0.039073892, -0.016872533, -1710058.5, 6657.0234, 0.000009813605, 9.999787, 10.000106 
9.351011e+2, 1.3482429e+2, -1657251.3, -1623456.5, -17652.285, -0.1498211, -0.07045031, -1615917.8, 2800.186, 0.0000009955157, 9.999665, 10.000118 
9.350901e+2, 1.448247e+2, -1577378.8, -1549599.1, -14955.697, 0.008562421, -0.03461808, -1543078.1, -22364.404, 0.00000000002439963, 9.999609, 9.999977 
9.350772e+2, 1.5482473e+2, -1476601.0, -1450215.6, -9761.463, -0.04524845, -0.028934048, -1446996.9, -24282.365, 0.0, 9.999628, 9.999977 
9.3506473e+2, 1.6482475e+2, -1368618.3, -1338192.1, -7392.017, -0.059643738, -0.027673455, -1336491.3, -11776.406, 0.0, 9.999657, 10.00006 
9.350529e+2, 1.7482477e+2, -1265426.8, -1237427.5, -11795.369, -0.023684798, -0.03278978, -1233120.8, -6406.0347, 0.0, 9.999691, 10.000062 
9.350407e+2, 1.848248e+2, -1157832.1, -1128112.5, -20251.25, -0.005577452, -0.03852248, -1117854.1, 10859.749, 0.0, 9.999727, 10.000123 
9.3502825e+2, 1.9482484e+2, -1053999.3, -1026973.44, -21021.621, -0.009169604, -0.04670497, -1015496.2, 15215.833, 0.0, 9.999766, 10.000126 
9.350159e+2, 2.0482486e+2, -951403.2, -937583.6, -18080.027, -0.0068862317, -0.051595487, -925138.0, 7573.392, 0.0, 9.999844, 10.00003 
9.350037e+2, 2.1482486e+2, -836055.6, -831146.9, -17502.465, 0.0027650932, -0.05463328, -815927.5, 18784.371, 0.0, 9.999963, 10.0000305 
9.3499154e+2, 2.2482495e+2, -732949.25, -745064.7, -12871.321, 0.002962614, -0.041557938, -724781.4, 11930.7295, 0.0, 10.000059, 9.999902 
9.3497926e+2, 2.3482515e+2, -624220.0, -641716.75, -18292.873, -0.0072840774, -0.013166398, -612691.25, 26020.791, 0.0, 10.000133, 9.999904 
9.349672e+2, 2.4482521e+2, -519505.47, -548606.3, -13276.854, -0.0072968616, 0.006892965, -514358.44, 26354.756, 0.0, 10.000214, 9.99983 
9.349554e+2, 2.5482515e+2, -408407.1, -444231.8, -11306.209, 0.0037690657, 0.016083527, -405137.3, 37578.426, 0.0, 10.000303, 9.99983 
9.3494356e+2, 2.6482508e+2, -295838.84, -351000.8, -5902.6514, 0.00084844144, 0.032735877, -295214.3, 49503.582, 0.0, 10.000455, 9.999724 
9.349315e+2, 2.74825e+2, -166080.56, -237773.77, -7546.4067, -0.017554075, 0.055530228, -165294.83, 81424.805, 0.0, 10.000673, 9.999724 
9.349197e+2, 2.848246e+2, -85250.766, -205694.0, -2558.0361, -0.020510066, 0.069202654, -85196.46, 63527.793, 0.0, 10.000804, 9.999208 
9.3490815e+2, 2.9482386e+2, 16953.012, -106481.445, 1913.5278, -0.005881452, 0.070973225, 16982.67, 67714.64, 0.0, 10.000836, 9.999201 
9.348965e+2, 3.048228e+2, 77705.875, -65549.734, 9223.802, 0.0022584104, 0.052825175, 78297.33, 78297.33, 0.0, 10.000977, 9.99908 
9.348849e+2, 3.1482205e+2, 116379.81, -45852.14, 9932.024, 0.0002482124, 0.07003832, 116985.6, 116985.6, 0.0, 10.001238, 9.999089 
9.451142e+2, 1.2483665e+2, -1765040.1, -1725292.3, -17157.912, -0.052464306, -0.023643894, -1718910.4, -2312.7646, 0.000016619406, 9.999599, 10.000121 
9.451008e+2, 1.3483621e+2, -1663387.0, -1626625.9, -22025.234, -0.14547203, -0.080182314, -1616319.3, 2281.128, 0.0000023427797, 9.999625, 10.000115 
9.4508976e+2, 1.448366e+2, -1574639.8, -1547012.3, -15993.053, 0.011925677, -0.044522516, -1539693.1, -19097.121, 0.0000000053592455, 9.999623, 9.999988 
9.450768e+2, 1.5483667e+2, -1481477.1, -1451091.8, -14090.213, -0.042209078, -0.038127173, -1445563.6, -22967.342, 0.0, 9.999589, 9.9999895 
9.4506437e+2, 1.6483665e+2, -1383129.4, -1359350.4, -10797.457, -0.059033543, -0.03659348, -1355179.3, -30581.926, 0.0, 9.999619, 9.999932 
9.450525e+2, 1.7483652e+2, -1270688.9, -1254354.5, -15728.522, -0.028333828, -0.04202767, -1244799.1, -18200.129, 0.0, 9.999718, 9.999932 
9.450404e+2, 1.8483648e+2, -1146054.5, -1123469.5, -24034.523, -0.010109227, -0.048045635, -1108206.9, 20392.143, 0.0, 9.999814, 10.000113 
9.450281e+2, 1.948365e+2, -1034656.94, -1018431.06, -23923.234, -0.0075042606, -0.0563031, -1001282.5, 29314.47, 0.0, 9.999903, 10.000117 
9.4501585e+2, 2.0483652e+2, -941269.56, -941381.44, -24142.531, -0.004548558, -0.05807351, -917182.9, 15413.519, 0.0, 9.999951, 9.999951 
9.450037e+2, 2.1483651e+2, -842647.06, -843115.44, -30816.832, -0.00018021418, -0.054949466, -812063.56, 22533.785, 0.0, 9.999956, 9.99995 
9.4499147e+2, 2.2483653e+2, -747864.75, -762631.7, -27370.045, -0.0012963332, -0.039720945, -726899.75, 9698.795, 0.0, 10.000003, 9.999808 
9.4497937e+2, 2.3483661e+2, -636354.4, -658018.25, -29093.053, -0.00870979, -0.013079385, -616142.2, 22457.883, 0.0, 10.000095, 9.999809 
9.449674e+2, 2.4483664e+2, -514785.25, -538413.3, -20256.777, -0.009392383, 0.006184662, -503149.16, 37452.195, 0.0, 10.000213, 9.9999 
9.449557e+2, 2.5483665e+2, -395585.34, -429849.44, -16893.594, -0.0026789946, 0.015330012, -388657.03, 53945.395, 0.0, 10.000357, 9.999904 
9.449439e+2, 2.6483658e+2, -297698.53, -361412.44, -10904.534, -0.0052789487, 0.031172246, -295883.9, 48720.715, 0.0, 10.0004835, 9.9996395 
9.449321e+2, 2.7483642e+2, -184220.63, -256234.66, -16385.838, -0.018323967, 0.052436832, -180667.55, 65940.51, 0.0, 10.000591, 9.999637 
9.449205e+2, 2.8483602e+2, -97310.05, -198970.13, -18587.084, -0.019509602, 0.06695804, -94018.26, 54594.41, 0.0, 10.000668, 9.99932 
9.449089e+2, 2.9483542e+2, 7006.3535, -98249.1, -15586.665, -0.007038709, 0.072287254, 9265.981, 59884.547, 0.0, 10.000712, 9.999317 
9.448975e+2, 3.0483449e+2, 57349.285, -68677.14, -4399.648, 0.0008706179, 0.057015643, 57502.695, 57502.695, 0.0, 10.000809, 9.999138 
9.4488597e+2, 3.148338e+2, 80116.31, -56615.25, -7079.824, 0.0010247115, 0.07464747, 80481.92, 80481.92, 0.0, 10.00096, 9.999148 
9.5511365e+2, 1.2484872e+2, -1758307.0, -1711541.6, -12292.025, -0.07039782, -0.0077658305, -1708507.6, 7971.4307, 0.000026449812, 9.999599, 10.000216 
9.5510054e+2, 1.3484822e+2, -1657871.5, -1615315.3, -21517.094, -0.12896578, -0.0788916, -1606332.1, 12150.093, 0.0000047469885, 9.999625, 10.000194 
9.550895e+2, 1.4484854e+2, -1576669.5, -1551637.1, -17541.617, 0.027775269, -0.053445254, -1542604.3, -22125.955, 0.000000046136613, 9.999624, 9.999956 
9.550764e+2, 1.548485e+2, -1483295.5, -1455677.6, -15787.209, -0.041590806, -0.05367272, -1448512.3, -26033.229, 0.0, 9.999592, 9.999957 
9.5506394e+2, 1.6484843e+2, -1392238.4, -1379130.3, -7524.4136, -0.0647702, -0.046811495, -1375705.8, -51225.266, 0.0, 9.999621, 9.999796 
9.550522e+2, 1.7484835e+2, -1280043.6, -1274443.6, -12314.423, -0.031547423, -0.034475554, -1264614.9, -38132.145, 0.0, 9.99972, 9.999794 
9.550402e+2, 1.8484823e+2, -1145671.6, -1123284.8, -20929.732, -0.010401351, -0.040546443, -1110743.3, 17740.281, 0.0, 9.999815, 10.0001135 
9.5502806e+2, 1.9484809e+2, -1034149.5, -1017985.8, -20854.924, -0.004251267, -0.067650996, -1003701.5, 26781.234, 0.0, 9.999905, 10.00012 
9.550158e+2, 2.04848e+2, -953220.56, -966740.75, -24216.521, -0.002012706, -0.06977408, -934838.25, -2355.219, 0.0, 9.999953, 9.999777 
9.5500356e+2, 2.1484801e+2, -854710.0, -868690.25, -30830.291, -0.0028715087, -0.04776939, -830087.3, 4397.1304, 0.0, 9.999957, 9.999775 
9.5499146e+2, 2.2484793e+2, -750921.44, -769559.7, -24104.164, -0.0013878011, -0.030461622, -734397.6, 2089.342, 0.0, 10.000004, 9.99976 
9.5497954e+2, 2.3484781e+2, -639274.25, -664672.9, -25647.121, 0.0021670428, -0.01925606, -623354.56, 15136.092, 0.0, 10.000096, 9.999763 
9.5496774e+2, 2.4484782e+2, -508279.72, -525506.8, -14839.236, -0.003525922, -0.0044369968, -499735.3, 40756.477, 0.0, 10.000215, 9.999989 
9.549559e+2, 2.54848e+2, -388854.56, -416504.9, -11335.334, -0.018911097, 0.011632409, -384801.66, 57688.645, 0.0, 10.000359, 9.999994 
9.5494425e+2, 2.648479e+2, -307168.78, -381609.47, -6782.7524, -0.019819707, 0.027193742, -306555.8, 37936.926, 0.0, 10.000484, 9.9995 
9.5493287e+2, 2.7484754e+2, -194053.8, -276828.56, -12280.453, -0.0055124452, 0.040781967, -192270.3, 54228.984, 0.0, 10.000591, 9.9994955 
9.5492125e+2, 2.8484717e+2, -90917.04, -185595.34, -16796.537, -0.0051246816, 0.06111003, -88025.53, 60478.457, 0.0, 10.000667, 9.999413 
9.549095e+2, 2.9484683e+2, 13671.916, -84312.96, -13749.509, -0.019283043, 0.08659821, 15564.721, 66071.52, 0.0, 10.000711, 9.9994135 
9.548981e+2, 3.0484605e+2, 57809.453, -67422.04, 1329.0802, -0.012004181, 0.07689352, 57823.555, 57823.555, 0.0, 10.000807, 9.999148 
9.548871e+2, 3.148452e+2, 80046.7, -55682.645, -1240.6854, 0.01617949, 0.082748644, 80058.04, 80058.04, 0.0, 10.000955, 9.999158 
9.6511316e+2, 1.2486043e+2, -1776256.9, -1718902.9, -14258.865, -0.067505196, -0.01667098, -1715553.5, 810.04474, 0.00003990401, 9.999472, 10.000226 
9.6510017e+2, 1.3486001e+2, -1673820.8, -1623536.4, -33686.742, -0.12098506, -0.07707425, -1606643.8, 11722.236, 0.000008636752, 9.999518, 10.000188 
9.650892e+2, 1.4486028e+2, -1580901.6, -1558093.4, -32303.352, 0.028550643, -0.05499309, -1535240.3, -14877.575, 0.00000019058375, 9.999615, 9.999916 
9.6507615e+2, 1.5486002e+2, -1461581.9, -1449617.8, -31408.232, -0.038031086, -0.07348281, -1423627.0, -1261.7924, 0.0, 9.999761, 9.999917 
9.650637e+2, 1.6485992e+2, -1364469.8, -1367040.6, -20016.934, -0.060949426, -0.06644827, -1345697.0, -21330.191, 0.0, 9.999819, 9.9997835 
9.6505195e+2, 1.7486003e+2, -1271940.6, -1271739.6, -15601.584, -0.030263847, -0.034627426, -1256238.3, -29870.793, 0.0, 9.999782, 9.999783 
9.6504e+2, 1.8485993e+2, -1152960.6, -1136886.8, -20527.107, -0.01099486, -0.03541685, -1122879.3, 5489.1304, 0.0, 9.999809, 10.000022 
9.650279e+2, 1.9485958e+2, -1040145.1, -1031085.7, -27736.885, -0.00612062, -0.07219796, -1007511.06, 22858.658, 0.0, 9.999908, 10.000028 
9.6501577e+2, 2.0485938e+2, -953003.6, -973465.75, -33164.63, -0.0026147782, -0.0787231, -928527.8, 3843.4602, 0.0, 9.999985, 9.999715 
9.650036e+2, 2.1485934e+2, -847493.0, -871885.25, -31322.453, 0.00047151963, -0.055592343, -826076.0, 8296.963, 0.0, 10.000036, 9.999714 
9.6499157e+2, 2.2485922e+2, -742390.7, -773181.9, -19302.348, 0.0023720441, -0.035385747, -733096.1, 3279.7651, 0.0, 10.000097, 9.99969 
9.6497965e+2, 2.3485908e+2, -634299.9, -670066.3, -22882.367, 0.002788409, -0.019502709, -623141.56, 15238.499, 0.0, 10.000165, 9.999692 
9.649679e+2, 2.4485905e+2, -507000.25, -527273.2, -16345.006, -0.0059960145, -0.004568025, -497903.75, 42477.934, 0.0, 10.000235, 9.999967 
9.649561e+2, 2.5485912e+2, -398261.94, -423216.8, -21498.52, -0.02454319, 0.006854454, -385882.34, 56498.375, 0.0, 10.000304, 9.999974 
9.6494466e+2, 2.6485902e+2, -321827.56, -387488.53, -16263.418, -0.02499416, 0.019482998, -318020.1, 26363.262, 0.0, 10.00038, 9.99951 
9.6493334e+2, 2.7485865e+2, -212268.58, -284304.3, -10408.089, -0.0063632433, 0.03198782, -210794.9, 35594.848, 0.0, 10.000461, 9.999507 
9.6492195e+2, 2.8485832e+2, -105243.8, -192941.94, -12977.545, -0.0041659256, 0.05499797, -103363.695, 45030.566, 0.0, 10.00057, 9.999408 
9.649102e+2, 2.9485807e+2, 13251.691, -84858.22, -17747.254, -0.01917774, 0.08705051, 16363.332, 66760.1, 0.0, 10.0007105, 9.99941 
9.648989e+2, 3.0485728e+2, 53650.25, -57871.61, -5913.374, -0.014634854, 0.07540396, 53962.926, 53962.926, 0.0, 10.00073, 9.99925 
9.6488774e+2, 3.1485644e+2, 39390.855, -63510.86, -1433.2395, 0.00875761, 0.06880229, 39410.816, 39410.816, 0.0, 10.000626, 9.999262 
9.7511286e+2, 1.2487182e+2, -1781188.3, -1729567.8, -9194.964, -0.046080798, -0.048860956, -1727978.8, -11728.164, 0.000057479218, 9.999473, 10.000154 
9.750997e+2, 1.3487166e+2, -1679697.5, -1636496.4, -32188.963, -0.121331915, -0.07482057, -1619332.1, -1080.6637, 0.000014404859, 9.999521, 10.000098 
9.750886e+2, 1.4487189e+2, -1584066.0, -1565510.4, -27090.773, 0.014826564, -0.04958031, -1546152.8, -25903.977, 0.0000005546723, 9.999618, 9.999864 
9.7507596e+2, 1.5487127e+2, -1464890.0, -1457052.9, -26177.729, -0.031734172, -0.09749148, -1434502.0, -12247.498, 0.0, 9.999763, 9.999866 
9.750637e+2, 1.6487117e+2, -1356741.0, -1351589.6, -21560.48, -0.04798964, -0.095264, -1332451.5, -8195.532, 0.0, 9.99982, 9.999889 
9.7505176e+2, 1.7487158e+2, -1263849.4, -1255708.0, -17343.33, -0.024635805, -0.042315733, -1241964.0, -15711.068, 0.0, 9.9997835, 9.999892 
9.750398e+2, 1.8487155e+2, -1165617.9, -1163898.9, -17235.744, -0.011949142, -0.03257876, -1147501.3, -19247.723, 0.0, 9.999812, 9.999836 
9.750278e+2, 1.9487102e+2, -1053153.4, -1058709.0, -24315.14, -0.013135905, -0.0699992, -1031457.9, -1200.1262, 0.0, 9.99991, 9.999838 
9.7501576e+2, 2.0487066e+2, -949399.75, -966565.44, -31454.121, -0.0063692415, -0.08500914, -925378.5, 6882.387, 0.0, 9.999987, 9.999762 
9.750037e+2, 2.1487048e+2, -843610.3, -864414.2, -29577.836, 0.00982561, -0.078452446, -822658.7, 11604.109, 0.0, 10.000038, 9.999765 
9.749917e+2, 2.248704e+2, -748834.56, -787182.2, -16829.943, 0.009911417, -0.054461118, -742495.94, -6230.748, 0.0, 10.000099, 9.999594 
9.7497976e+2, 2.348704e+2, -640889.75, -684399.75, -20355.662, -0.007042554, -0.013760843, -632851.56, 5416.678, 0.0, 10.000167, 9.999594 
9.74968e+2, 2.448703e+2, -516309.56, -547199.9, -13694.608, -0.016959615, 0.0058131497, -511112.66, 29158.426, 0.0, 10.000236, 9.999829 
9.7495645e+2, 2.548701e+2, -407668.63, -443192.47, -18796.822, -0.019442748, 0.0009890931, -399569.25, 42704.457, 0.0, 10.000305, 9.999837 
9.7494507e+2, 2.648699e+2, -310500.78, -364270.2, -13094.693, -0.020772915, 0.008011551, -307481.34, 36795.21, 0.0, 10.0003805, 9.99967 
9.749337e+2, 2.7486974e+2, -200649.25, -260485.53, -7084.2036, -0.02135329, 0.025969412, -199821.97, 46457.605, 0.0, 10.000462, 9.99967 
9.7492236e+2, 2.8486946e+2, -112863.54, -208943.7, -7466.7583, -0.017093726, 0.048324887, -112286.73, 35996.883, 0.0, 10.00057, 9.999299 
9.7491103e+2, 2.94869e+2, 5325.029, -101262.23, -12190.206, -0.006576711, 0.07308608, 6701.4287, 56990.133, 0.0, 10.00071, 9.999298 
9.7489965e+2, 3.0486816e+2, 66956.7, -29864.51, -9515.853, -0.0071257604, 0.051717952, 67883.08, 67883.08, 0.0, 10.000727, 9.999445 
9.748881e+2, 3.148674e+2, 52583.145, -35200.914, -4883.1616, -0.022718716, 0.031320695, 52853.945, 52853.945, 0.0, 10.000621, 9.999459 
9.8511237e+2, 1.2488331e+2, -1790740.9, -1744991.9, -1653.0338, -0.03936327, -0.06798687, -1744932.3, -28795.973, 0.00007951568, 9.9994545, 10.000056 
9.850993e+2, 1.3488314e+2, -1667907.9, -1643418.0, -29727.326, -0.11754723, -0.084503315, -1623512.5, -5374.1484, 0.000022398126, 9.999658, 9.999984 
9.850882e+2, 1.4488333e+2, -1562653.5, -1557396.1, -26231.826, 0.010305906, -0.05463529, -1533661.6, -13525.22, 0.0000013019285, 9.999775, 9.999844 
9.8507583e+2, 1.548827e+2, -1461811.1, -1457439.0, -23090.473, -0.024306245, -0.10248651, -1436431.3, -14289.084, 0.0, 9.999792, 9.999848 
9.8506355e+2, 1.648826e+2, -1351848.3, -1343287.4, -21770.965, -0.03811421, -0.10196343, -1325380.0, -1236.6552, 0.0, 9.999829, 9.999942 
9.8505163e+2, 1.7488304e+2, -1245044.3, -1240500.9, -21874.879, -0.022820303, -0.05259757, -1220780.0, 5359.486, 0.0, 9.999887, 9.999947 
9.8503965e+2, 1.8488298e+2, -1160258.0, -1176748.9, -20829.95, -0.013570462, -0.040449385, -1146100.9, -17960.492, 0.0, 9.999916, 9.999698 
9.850277e+2, 1.9488238e+2, -1062666.1, -1078932.6, -24371.334, -0.013142635, -0.069191284, -1045106.75, -14960.55, 0.0, 9.999913, 9.999698 
9.8501575e+2, 2.0488194e+2, -953004.06, -971519.56, -30933.168, -0.0038009817, -0.08448023, -929973.0, 2177.3333, 0.0, 9.999976, 9.999732 
9.850038e+2, 2.1488166e+2, -835289.7, -863484.94, -35265.63, 0.01593119, -0.08747134, -811408.25, 22744.523, 0.0, 10.00011, 9.999737 
9.849919e+2, 2.248815e+2, -737290.9, -787231.94, -25185.832, 0.013082203, -0.06582175, -726795.2, 9360.348, 0.0, 10.000203, 9.999542 
9.849799e+2, 2.348815e+2, -631681.75, -685546.44, -25385.467, -0.01359186, -0.020259285, -621603.7, 16554.902, 0.0, 10.000256, 9.999542 
9.849681e+2, 2.4488136e+2, -520196.0, -561455.94, -17723.629, -0.025655001, 0.00307124, -513628.13, 26534.107, 0.0, 10.000264, 9.999718 
9.8495674e+2, 2.5488105e+2, -427165.8, -465068.44, -21263.912, -0.022287168, 0.0011749614, -417633.7, 24532.836, 0.0, 10.000226, 9.999724 
9.849453e+2, 2.648809e+2, -316412.63, -353683.78, -12507.587, -0.023237698, 0.009260128, -312604.38, 31564.709, 0.0, 10.000283, 9.999789 
9.8493403e+2, 2.7488086e+2, -195449.95, -244181.64, -9808.937, -0.029284533, 0.026078252, -193549.67, 52620.18, 0.0, 10.000439, 9.999793 
9.8492277e+2, 2.8488052e+2, -132026.92, -226248.56, -14078.419, -0.02452048, 0.042698912, -129968.33, 18205.49, 0.0, 10.000475, 9.999226 
9.8491156e+2, 2.948799e+2, -47327.39, -134841.2, -16261.512, -0.0070501254, 0.057031054, -44403.43, 5777.6943, 0.0, 10.000384, 9.999224 
9.8490024e+2, 3.04879e+2, 31984.29, -34847.37, -14876.458, -0.006392469, 0.029006127, 35146.14, 35146.14, 0.0, 10.000437, 9.99955 
9.848887e+2, 3.1487828e+2, 63318.684, -17784.68, -17140.166, -0.026833285, 0.004159852, 66792.266, 66792.266, 0.0, 10.000643, 9.999568 
9.9511176e+2, 1.24894924e+2, -1798934.3, -1762887.3, 8400.287, -0.04785175, -0.074967824, -1761025.9, -45005.434, 0.00010622788, 9.999456, 9.999932 
9.9509907e+2, 1.3489448e+2, -1677594.1, -1663895.5, -22406.473, -0.10987546, -0.10574706, -1647314.9, -29288.611, 0.00003292342, 9.999659, 9.999844 
9.950881e+2, 1.4489467e+2, -1561977.6, -1556383.5, -25772.121, 0.014459005, -0.06962791, -1533257.1, -13232.162, 0.0000026281716, 9.999776, 9.99985 
9.950757e+2, 1.5489434e+2, -1460500.8, -1455504.9, -22835.787, -0.015884137, -0.08897407, -1435030.8, -13002.731, 0.00000000019976186, 9.999794, 9.999861 
9.950634e+2, 1.6489424e+2, -1351578.5, -1343638.4, -19997.523, -0.03128899, -0.08726848, -1327220.6, -3191.8726, 0.0, 9.999832, 9.999938 
9.9505144e+2, 1.748944e+2, -1244828.0, -1240858.8, -20076.44, -0.024786621, -0.0655607, -1222669.1, 3357.8755, 0.0, 9.999889, 9.999943 
9.950395e+2, 1.8489423e+2, -1166564.6, -1190554.9, -21302.271, -0.015896332, -0.05888417, -1154112.4, -26083.484, 0.0, 9.999918, 9.999602 
9.9502766e+2, 1.9489373e+2, -1068937.5, -1092664.5, -24852.207, -0.0062581133, -0.06975649, -1053262.4, -23227.584, 0.0, 9.999915, 9.999602 
9.9501574e+2, 2.0489326e+2, -960375.94, -987516.94, -26255.736, 0.0049758297, -0.07716311, -944391.06, -12351.573, 0.0, 9.999979, 9.999621 
9.9500394e+2, 2.1489283e+2, -842722.06, -879564.25, -30477.473, 0.018704185, -0.08266023, -825531.1, 8511.771, 0.0, 10.000112, 9.999626 
9.949921e+2, 2.2489254e+2, -737603.0, -788522.06, -23319.895, 0.011823781, -0.06951458, -728537.06, 7509.6724, 0.0, 10.000205, 9.999533 
9.949801e+2, 2.3489238e+2, -631777.1, -686408.4, -23491.857, -0.016847227, -0.039112307, -623064.8, 14986.197, 0.0, 10.0002575, 9.9995365 
9.9496835e+2, 2.4489222e+2, -526135.3, -574418.44, -19070.469, -0.03212578, -0.012850722, -519511.66, 20543.5, 0.0, 10.000265, 9.999628 
9.9495685e+2, 2.5489205e+2, -433277.5, -478291.75, -22539.855, -0.0333688, 0.0074707647, -423931.6, 18127.586, 0.0, 10.000228, 9.999634 
9.9494547e+2, 2.6489198e+2, -311082.22, -343012.06, -6531.661, -0.032643862, 0.023349026, -309797.75, 34263.293, 0.0, 10.000283, 9.999863 
9.9493444e+2, 2.748919e+2, -190031.34, -233110.48, -3698.8354, -0.03003385, 0.032509223, -189716.06, 56344.625, 0.0, 10.000439, 9.999869 
9.9492323e+2, 2.8489152e+2, -134931.03, -232184.19, -17112.484, -0.026499895, 0.03821064, -132007.81, 16057.217, 0.0, 10.000473, 9.999186 
9.949118e+2, 2.9489067e+2, -50408.48, -140921.33, -19336.066, -0.021402437, 0.038687177, -46450.805, 3623.4263, 0.0, 10.000381, 9.999184 
9.949006e+2, 3.0488974e+2, 32272.473, -33903.137, -6803.423, -0.012925382, 0.007141207, 32964.684, 32964.684, 0.0, 10.000434, 9.999558 
9.948895e+2, 3.148891e+2, 63878.62, -16374.154, -8820.088, -0.002750209, -0.012631237, 64836.547, 64836.547, 0.0, 10.000641, 9.999578 
1.0051111e+3, 1.2490621e+2, -1782976.5, -1760722.1, -2633.4658, -0.058476966, -0.08774557, -1760414.8, -44506.367, 0.00013782152, 9.999591, 9.999883 
1.0050988e+3, 1.3490573e+2, -1684878.9, -1674631.1, -30489.078, -0.09836984, -0.114285134, -1648838.4, -30923.227, 0.000046236724, 9.99964, 9.999778 
1.0050879e+3, 1.4490594e+2, -1564566.4, -1558228.4, -32451.73, 0.022100795, -0.072413415, -1528791.3, -8877.212, 0.00000474816, 9.999762, 9.999845 
1.0050756e+3, 1.5490572e+2, -1439125.5, -1445595.1, -31040.762, -0.0116277775, -0.08246562, -1411151.5, 10764.822, 0.000000004412824, 9.999944, 9.999857 
1.0050634e+3, 1.6490556e+2, -1325887.9, -1334067.3, -33102.715, -0.02832348, -0.0843582, -1296623.1, 27294.178, 0.0, 10.000021, 9.999912 
1.0050514e+3, 1.7490554e+2, -1231936.6, -1237347.1, -34980.215, -0.021293543, -0.07992061, -1199557.1, 26359.95, 0.0, 9.99999, 9.999918 
1.0050396e+3, 1.8490534e+2, -1157182.8, -1191948.4, -34809.97, -0.013886594, -0.07196516, -1135656.8, -7737.272, 0.0, 10.000009, 9.999549 
1.0050276e+3, 1.9490498e+2, -1048905.1, -1088804.6, -35411.26, -0.0076595494, -0.062117565, -1028210.6, 1713.9038, 0.0, 10.000078, 9.99955 
1.0050158e+3, 2.0490451e+2, -939100.1, -979199.75, -29947.1, 0.00073959125, -0.06704494, -923110.75, 8818.617, 0.0, 10.0001335, 9.999603 
1.00500405e+3, 2.149039e+2, -834771.56, -877682.44, -27356.824, 0.012093176, -0.0891087, -821460.2, 12473.706, 0.0, 10.000175, 9.999607 
1.0049923e+3, 2.249035e+2, -743728.2, -795321.3, -20730.14, 0.007410384, -0.08424228, -736430.94, -492.47528, 0.0, 10.00018, 9.999497 
1.00498036e+3, 2.349033e+2, -650208.75, -699002.9, -23342.441, -0.014173049, -0.05358431, -640840.6, -2897.5415, 0.0, 10.000148, 9.999502 
1.0049686e+3, 2.4490316e+2, -542687.5, -589167.75, -18314.367, -0.030112432, -0.019998774, -536338.44, 3608.8572, 0.0, 10.000182, 9.999566 
1.004957e+3, 2.5490308e+2, -429109.53, -483093.25, -19848.236, -0.040154923, 0.014910432, -422597.47, 19353.535, 0.0, 10.000287, 9.999572 
1.0049457e+3, 2.6490292e+2, -313259.63, -345731.88, -7019.373, -0.03934741, 0.029635647, -311807.22, 32146.156, 0.0, 10.0002775, 9.999846 
1.00493476e+3, 2.749027e+2, -233416.47, -255469.5, -11456.271, -0.027302789, 0.021363327, -228542.34, 17412.012, 0.0, 10.000148, 9.999855 
1.0049236e+3, 2.8490224e+2, -175987.83, -247915.8, -24427.592, -0.024468645, 0.02183231, -168476.36, -20517.572, 0.0, 10.000175, 9.999221 
1.004912e+3, 2.9490155e+2, -49763.43, -136351.61, -20986.203, -0.030920357, 0.02967998, -44945.16, 5021.5967, 0.0, 10.000369, 9.999221 
1.0049009e+3, 3.0490065e+2, 29590.264, -33873.74, -5783.9487, -0.018720308, -0.0011767367, 30113.09, 30113.09, 0.0, 10.000411, 9.999569 
1.0048901e+3, 3.1489992e+2, 13644.926, -39065.688, -7920.41, 0.011578547, -0.028580032, 14809.341, 14809.341, 0.0, 10.000291, 9.999591 
1.0151106e+3, 1.2491724e+2, -1781552.0, -1758401.8, 886.11316, -0.07293237, -0.10537033, -1758367.9, -42568.297, 0.00017450533, 9.999593, 9.999898 
1.01509854e+3, 1.3491696e+2, -1684382.5, -1674278.5, -28911.951, -0.08325277, -0.11058644, -1649980.5, -32175.764, 0.000062540406, 9.999642, 9.99978 
1.01508774e+3, 1.4491722e+2, -1565749.8, -1561420.0, -25811.348, 0.032993536, -0.063607775, -1537682.9, -17879.582, 0.000007860604, 9.9997635, 9.999822 
1.0150755e+3, 1.5491687e+2, -1440404.9, -1448946.4, -24484.838, -0.011536748, -0.08288968, -1419821.1, 1985.5021, 0.000000028517778, 9.999946, 9.999833 
1.01506345e+3, 1.649166e+2, -1329150.8, -1341483.1, -34534.434, -0.029176857, -0.0929349, -1300236.4, 23572.43, 0.0, 10.000023, 9.999861 
1.0150515e+3, 1.7491646e+2, -1235076.5, -1244563.1, -36468.805, -0.012499742, -0.095646106, -1203043.9, 22765.854, 0.0, 9.999992, 9.999868 
1.0150396e+3, 1.849163e+2, -1157856.1, -1194066.6, -32562.396, -0.007736813, -0.07980392, -1138704.0, -10892.191, 0.0, 10.0000105, 9.999534 
1.0150276e+3, 1.9491619e+2, -1049573.3, -1090872.5, -33075.9, -0.01736424, -0.046377484, -1031230.25, -1415.0432, 0.0, 10.00008, 9.999536 
1.0150158e+3, 2.049157e+2, -933849.8, -968940.9, -28680.684, -0.016488051, -0.054213353, -917773.5, 14046.26, 0.0, 10.000135, 9.999673 
1.015004e+3, 2.1491486e+2, -829427.0, -867274.1, -25982.74, -0.0039336346, -0.1068939, -816207.06, 17618.504, 0.0, 10.000177, 9.999679 
1.0149923e+3, 2.2491437e+2, -748062.56, -804991.94, -22097.375, -0.0001995377, -0.11001916, -740492.1, -4661.4883, 0.0, 10.000182, 9.999431 
1.0149806e+3, 2.3491426e+2, -654615.25, -708764.44, -24640.766, -0.0055850246, -0.063620575, -645081.06, -7246.2373, 0.0, 10.00015, 9.999434 
1.0149689e+3, 2.449142e+2, -544965.6, -594487.9, -14394.288, -0.019617304, -0.018299835, -541085.7, -1247.0771, 0.0, 10.000184, 9.99953 
1.0149573e+3, 2.5491416e+2, -431373.0, -488338.5, -15705.221, -0.04256818, 0.023567917, -427330.06, 14511.956, 0.0, 10.000288, 9.999535 
1.01494595e+3, 2.6491383e+2, -321060.13, -362273.63, -11583.135, -0.04333502, 0.028025556, -318027.78, 25818.396, 0.0, 10.0002775, 9.999733 
1.014935e+3, 2.7491322e+2, -241463.23, -272177.2, -16125.3955, -0.021361956, -0.007872998, -234552.19, 11298.898, 0.0, 10.000147, 9.999742 
1.01492375e+3, 2.8491277e+2, -168500.1, -232209.94, -17012.783, -0.018656725, -0.0067864237, -164241.7, -16386.375, 0.0, 10.000174, 9.99933 
1.0149124e+3, 2.9491246e+2, -41969.043, -120103.52, -13222.762, -0.0353275, 0.030437721, -39792.004, 10066.877, 0.0, 10.000368, 9.999333 
1.0149013e+3, 3.0491164e+2, 30081.293, -32690.293, -9663.874, -0.02379689, 0.0046215854, 31535.39, 31535.39, 0.0, 10.000409, 9.999578 
1.01489045e+3, 3.1491074e+2, 13878.314, -38008.273, -11896.195, 0.014749809, -0.043849092, 16475.764, 16475.764, 0.0, 10.000287, 9.9996 
1.02511026e+3, 1.2492818e+2, -1760933.1, -1743306.3, -2620.7532, -0.08035639, -0.11783818, -1742924.9, -27232.932, 0.0002164286, 9.999713, 9.999944 
1.0250983e+3, 1.3492803e+2, -1663265.8, -1660611.3, -32058.516, -0.08024906, -0.11411954, -1629852.5, -12156.808, 0.00008198819, 9.999774, 9.99981 
1.0250875e+3, 1.4492834e+2, -1547866.6, -1548894.5, -22357.54, 0.029313684, -0.06669763, -1526017.1, -6323.3022, 0.000012107449, 9.99987, 9.999856 
1.0250755e+3, 1.5492795e+2, -1431179.9, -1440575.3, -17080.207, -0.010518817, -0.09214775, -1418163.1, 3533.9995, 0.00000009714164, 9.999992, 9.999867 
1.0250635e+3, 1.6492763e+2, -1329154.9, -1350001.9, -32106.07, -0.025309267, -0.10551453, -1305822.6, 17877.18, 0.0, 10.00006, 9.999784 
1.0250516e+3, 1.7492738e+2, -1229416.4, -1250396.3, -36272.76, -0.007888173, -0.10856311, -1202147.1, 23554.816, 0.0, 10.000069, 9.999791 
1.0250397e+3, 1.8492724e+2, -1147133.5, -1187554.4, -30571.605, -0.0045133764, -0.08937803, -1130695.8, -2991.491, 0.0, 10.000079, 9.999544 
1.0250277e+3, 1.949272e+2, -1046573.06, -1087934.4, -29199.475, -0.017724885, -0.048748843, -1031472.44, -1765.7126, 0.0, 10.000095, 9.999548 
1.02501586e+3, 2.0492674e+2, -935544.6, -970207.94, -26685.521, -0.019779753, -0.05513191, -921056.44, 10654.546, 0.0, 10.000127, 9.999668 
1.0250042e+3, 2.1492584e+2, -830134.06, -867953.0, -29816.285, -0.009476837, -0.11253741, -813736.56, 19980.623, 0.0, 10.0001745, 9.999675 
1.0249925e+3, 2.2492531e+2, -749069.25, -813253.7, -30959.748, -0.0043682386, -0.117251426, -736569.8, -846.9436, 0.0, 10.00021, 9.99936 
1.0249807e+3, 2.3492515e+2, -647615.2, -713203.5, -34022.457, -0.0046631764, -0.06903301, -633154.9, 4572.9434, 0.0, 10.000232, 9.999364 
1.02496915e+3, 2.4492507e+2, -539864.9, -586648.2, -20627.191, -0.0129812965, -0.023916049, -532069.2, 7662.456, 0.0, 10.000196, 9.999577 
1.0249575e+3, 2.5492504e+2, -455184.66, -494169.22, -15840.461, -0.029522091, 0.01543799, -449559.8, -7825.561, 0.0, 10.000101, 9.999584 
1.0249463e+3, 2.649247e+2, -350582.75, -383209.13, -7364.636, -0.03362229, 0.019246066, -348997.38, -5258.8604, 0.0, 10.000105, 9.999671 
1.024935e+3, 2.7492404e+2, -236479.86, -276541.97, -8236.608, -0.025147269, -0.015468616, -234852.55, 10891.887, 0.0, 10.000212, 9.99968 
1.0249239e+3, 2.8492355e+2, -160675.75, -223180.23, -8021.147, -0.022673493, -0.015788361, -159662.81, -11913.871, 0.0, 10.000206, 9.999375 
1.02491274e+3, 2.9492328e+2, -80371.85, -133072.47, -9344.648, -0.025634328, 0.017389975, -78763.95, -29011.99, 0.0, 10.000081, 9.999381 
1.02490164e+3, 3.0492255e+2, -18606.21, -49590.082, -9081.172, -0.013248048, -0.004758173, -16140.76, -16140.76, 0.0, 10.000048, 9.999636 
1.0248906e+3, 3.1492183e+2, -7538.4346, -41810.24, -7801.326, 0.012523014, -0.04292823, -5846.1704, -5846.1704, 0.0, 10.000113, 9.999658 
1.0351098e+3, 1.24939084e+2, -1755575.4, -1732989.9, 466.58377, -0.08056631, -0.1258389, -1732980.3, -17395.5, 0.0002637313, 9.999715, 10.000013 
1.035098e+3, 1.3493897e+2, -1659032.8, -1652706.3, -29968.076, -0.08904479, -0.12468592, -1625734.9, -8147.091, 0.00010469639, 9.999776, 9.999864 
1.03508726e+3, 1.449393e+2, -1541523.6, -1536447.4, -17994.193, 0.011561017, -0.08129152, -1520813.1, -1228.0659, 0.000017566988, 9.999872, 9.999941 
1.0350754e+3, 1.5493897e+2, -1424907.0, -1427975.0, -12817.012, -0.008586771, -0.10996655, -1413532.5, 8054.848, 0.00000023822265, 9.999993, 9.999954 
1.0350636e+3, 1.6493866e+2, -1336389.1, -1365459.5, -32147.607, -0.01694982, -0.12200091, -1315643.4, 7946.88, 0.0, 10.000061, 9.999678 
1.03505164e+3, 1.7493837e+2, -1236660.8, -1266110.4, -36317.59, -0.007510926, -0.1187419, -1212196.4, 13397.431, 0.0, 10.000071, 9.999682 
1.0350398e+3, 1.8493818e+2, -1144345.0, -1182514.6, -30383.0, -0.0041924263, -0.100741535, -1127550.0, 46.716625, 0.0, 10.000082, 9.999578 
1.0350278e+3, 1.9493808e+2, -1043688.1, -1082690.8, -28901.744, -0.008858077, -0.06913769, -1028323.8, 1275.0586, 0.0, 10.000097, 9.999583 
1.0350161e+3, 2.0493765e+2, -940962.5, -982170.25, -25183.09, -0.009310581, -0.06969385, -929028.56, 2574.2737, 0.0, 10.000129, 9.999586 
1.0350044e+3, 2.1493687e+2, -835564.5, -879948.06, -28222.781, -0.0046401825, -0.105983265, -821853.6, 11755.083, 0.0, 10.000177, 9.999592 
1.0349927e+3, 2.249363e+2, -754173.1, -824534.2, -30272.813, -0.005203811, -0.10592548, -742941.2, -7326.0947, 0.0, 10.000212, 9.999282 
1.03498094e+3, 2.3493595e+2, -652802.6, -724668.4, -33249.047, -0.01151216, -0.06982776, -639779.7, -2157.6162, 0.0, 10.000235, 9.999285 
1.0349694e+3, 2.4493578e+2, -530570.1, -567961.1, -24157.463, -0.010220861, -0.03695467, -518718.84, 20907.46, 0.0, 10.000198, 9.999704 
1.034958e+3, 2.5493577e+2, -445941.56, -475322.9, -19287.043, -0.000943912, -0.009785392, -436387.53, 5240.2764, 0.0, 10.000102, 9.999714 
1.0349465e+3, 2.6493558e+2, -351319.25, -384986.84, -3132.0251, -0.010223952, 0.0032332097, -351030.34, -7399.853, 0.0, 10.000105, 9.99966 
1.0349352e+3, 2.7493522e+2, -237222.19, -278418.16, -3797.8127, -0.038839243, -0.0007098786, -236874.98, 8759.4375, 0.0, 10.000213, 9.999667 
1.03492394e+3, 2.8493467e+2, -162407.84, -226912.8, -12265.0205, -0.03669471, -0.0046081357, -160154.48, -12514.769, 0.0, 10.000205, 9.999351 
1.034913e+3, 2.9493397e+2, -82331.266, -136821.14, -13670.766, -0.001887208, -0.009927129, -79093.81, -29447.54, 0.0, 10.000079, 9.999357 
1.03490196e+3, 3.049333e+2, -11563.924, -34555.32, -6282.3857, 0.012859698, -0.029672273, -9959.262, -9959.262, 0.0, 10.000045, 9.999742 
1.0348906e+3, 3.149331e+2, -426.04956, -26785.818, -4647.946, 0.0045731184, -0.025269203, 369.5, 369.5, 0.0, 10.000111, 9.999763 
1.0451096e+3, 1.2495003e+2, -1738364.0, -1717367.5, 6254.783, -0.077353455, -0.13188371, -1715645.5, -167.9924, 0.00031664252, 9.999803, 10.000078 
1.0450979e+3, 1.3494995e+2, -1633859.1, -1634333.9, -24200.752, -0.08148155, -0.13121124, -1609894.6, 7584.8247, 0.00013079311, 9.999924, 9.999918 
1.0450871e+3, 1.4495029e+2, -1525711.6, -1526913.6, -16739.07, 0.008490475, -0.090539046, -1509562.8, 9913.545, 0.000024312307, 9.999973, 9.999957 
1.0450754e+3, 1.5494996e+2, -1432657.1, -1429660.4, -17150.512, -0.011003483, -0.12059477, -1413943.0, 7535.676, 0.0000004785213, 9.999932, 9.999971 
1.0450636e+3, 1.6494966e+2, -1355331.6, -1381908.3, -37007.207, -0.017722806, -0.12868756, -1329299.3, -5817.552, 0.0, 9.999964, 9.999612 
1.04505174e+3, 1.7494941e+2, -1240837.5, -1275330.4, -38179.945, -0.006366531, -0.11627617, -1216189.4, 9296.183, 0.0, 10.000074, 9.999618 
1.0450399e+3, 1.8494917e+2, -1129854.8, -1168181.0, -30838.201, -0.001225599, -0.10141589, -1112710.5, 14778.097, 0.0, 10.000151, 9.999643 
1.04502805e+3, 1.9494899e+2, -1025510.0, -1066458.3, -27260.89, -0.0039364123, -0.085562184, -1011890.9, 17599.766, 0.0, 10.000192, 9.999649 
1.0450162e+3, 2.0494853e+2, -939926.94, -996031.6, -24898.063, -0.005496806, -0.08603058, -930471.3, 1023.6652, 0.0, 10.000199, 9.999456 
1.0450045e+3, 2.149478e+2, -845115.5, -898940.9, -31742.67, -0.0051047793, -0.10564891, -830412.2, 3089.3818, 0.0, 10.0001745, 9.999462 
1.0449928e+3, 2.2494723e+2, -758490.6, -824458.1, -31711.984, -0.0066402326, -0.099717416, -745718.75, -10210.396, 0.0, 10.0001745, 9.999301 
1.0449811e+3, 2.3494683e+2, -656669.3, -724250.6, -27538.555, -0.010557387, -0.06926997, -646868.94, -9353.602, 0.0, 10.000198, 9.999304 
1.0449696e+3, 2.449466e+2, -527896.25, -559213.75, -20886.707, -0.005942274, -0.046171874, -517450.4, 22069.19, 0.0, 10.000186, 9.99977 
1.04495816e+3, 2.5494653e+2, -436554.4, -463324.16, -21215.18, 0.007519, -0.032727994, -424854.66, 16666.418, 0.0, 10.000135, 9.99978 
1.04494676e+3, 2.649464e+2, -358925.88, -390808.94, -5065.1865, -0.0010408475, -0.01448139, -358140.53, -14617.417, 0.0, 10.000063, 9.999639 
1.0449353e+3, 2.7494627e+2, -274299.97, -298451.1, -6557.309, -0.032325394, 0.0061525987, -272634.44, -27108.719, 0.0, 9.999969, 9.999646 
1.044924e+3, 2.8494573e+2, -201550.27, -240384.16, -15618.468, -0.02915455, 0.004262116, -196048.25, -48517.37, 0.0, 9.999914, 9.999397 
1.0449131e+3, 2.9494488e+2, -104093.336, -141866.2, -11808.701, 0.010203039, -0.022119861, -100705.51, -51167.008, 0.0, 9.9999075, 9.999404 
1.044902e+3, 3.0494422e+2, -29433.84, -40375.1, -1103.8505, 0.023939261, -0.047657307, -29323.584, -29323.584, 0.0, 9.999911, 9.999764 
1.0448907e+3, 3.1494412e+2, -26552.059, -36641.61, -5879.1533, 0.00937564, -0.033598423, -23849.951, -23849.951, 0.0, 9.999921, 9.999785 
1.0551095e+3, 1.2496102e+2, -1733730.8, -1708925.9, 10000.108, -0.07241876, -0.13613, -1705396.5, 9973.164, 0.0003754382, 9.999806, 10.000134 
1.055098e+3, 1.3496102e+2, -1629919.6, -1626785.0, -19751.52, -0.058124732, -0.1338659, -1608538.8, 8831.501, 0.00016041061, 9.999925, 9.9999695 
1.05508715e+3, 1.4496133e+2, -1529366.6, -1535005.3, -18360.723, 0.019417578, -0.094615504, -1513610.0, 5757.1646, 0.000032450233, 9.999974, 9.999902 
1.0550753e+3, 1.5496096e+2, -1436084.5, -1437614.5, -19087.729, -0.01788266, -0.1242791, -1417746.5, 3624.0286, 0.0000008393984, 9.999935, 9.999916 
1.05506346e+3, 1.6496068e+2, -1356955.1, -1386191.3, -33294.824, -0.02746411, -0.12587154, -1335210.8, -11836.913, 0.0, 9.999967, 9.999581 
1.0550519e+3, 1.7496052e+2, -1242420.3, -1279349.3, -34301.043, -0.004465636, -0.101427294, -1221929.6, 3447.3323, 0.0, 10.000076, 9.999589 
1.05504006e+3, 1.8496026e+2, -1123074.5, -1154757.0, -29585.678, 0.0042171604, -0.091616586, -1105356.0, 22023.787, 0.0, 10.000153, 9.999735 
1.0550282e+3, 1.9495994e+2, -1018651.44, -1052931.6, -26066.666, -0.003041882, -0.09813541, -1004594.5, 24787.383, 0.0, 10.000194, 9.999742 
1.0550164e+3, 2.0495939e+2, -952188.7, -1022216.94, -26084.943, -0.008359758, -0.10416426, -943540.3, -12153.067, 0.0, 10.000201, 9.999276 
1.0550047e+3, 2.1495861e+2, -857381.44, -925165.9, -32869.016, -0.010942239, -0.11158987, -844060.75, -10665.011, 0.0, 10.000176, 9.999281 
1.05499305e+3, 2.2495806e+2, -750284.9, -808155.25, -30923.748, -0.008753755, -0.098678075, -736870.06, -1467.5033, 0.0, 10.000176, 9.999412 
1.0549814e+3, 2.3495781e+2, -648295.6, -707529.1, -26640.07, -0.0018374568, -0.06731302, -638077.1, -669.543, 0.0, 10.0002, 9.999418 
1.0549699e+3, 2.4495755e+2, -527715.4, -559451.94, -22710.926, -0.00031755475, -0.051490657, -515878.28, 23533.197, 0.0, 10.000187, 9.999768 
1.0549581e+3, 2.5495732e+2, -436558.84, -463850.47, -22866.268, -0.0044915285, -0.053333998, -423576.22, 17837.92, 0.0, 10.000136, 9.999776 
1.0549468e+3, 2.649572e+2, -361213.0, -395873.44, -8440.405, -0.0062386147, -0.03388268, -359266.88, -15850.376, 0.0, 10.000064, 9.999604 
1.0549355e+3, 2.7495718e+2, -276715.3, -303440.06, -9933.555, -0.0053867046, 0.004976928, -273427.5, -28008.994, 0.0, 9.999967, 9.999613 
1.0549243e+3, 2.849568e+2, -193591.44, -223661.22, -15667.379, 0.0000522518, 0.0108746365, -186911.94, -39489.313, 0.0, 9.999912, 9.999514 
1.05491295e+3, 2.9495603e+2, -96054.02, -124997.61, -11577.272, 0.010319824, -0.018561324, -91992.984, -42564.2, 0.0, 9.999906, 9.999521 
1.05490185e+3, 3.0495524e+2, -34219.848, -50231.344, -223.2707, 0.019653196, -0.058523677, -34216.734, -34216.734, 0.0, 9.999909, 9.999698 
1.05489075e+3, 3.149549e+2, -31315.88, -46444.47, -5309.8125, 0.026389655, -0.06272858, -29638.28, -29638.28, 0.0, 9.999919, 9.99972 
1.0651096e+3, 1.24972165e+2, -1696737.1, -1689507.8, 18539.186, -0.05774137, -0.13492109, -1674234.3, 41026.086, 0.00044022893, 10.000054, 10.000148 
1.0650981e+3, 1.3497211e+2, -1621375.4, -1621316.3, -13311.313, -0.04700406, -0.14010133, -1608034.5, 9226.198, 0.0001936281, 9.999979, 9.99998 
1.0650872e+3, 1.4497235e+2, -1531516.4, -1544988.5, -13957.412, 0.016316842, -0.103512816, -1522754.6, -3496.2417, 0.00004209593, 10.0, 9.99982 
1.0650753e+3, 1.5497196e+2, -1416825.4, -1437290.0, -16939.67, -0.021492932, -0.12660338, -1407267.4, 13995.201, 0.0000013547506, 10.000107, 9.999835 
1.0650635e+3, 1.649717e+2, -1328594.1, -1366534.9, -29428.898, -0.029910292, -0.1255124, -1312551.1, 10714.784, 0.0, 10.000136, 9.999634 
1.06505185e+3, 1.7497157e+2, -1237333.9, -1270783.6, -24544.379, -0.004202632, -0.10237748, -1224357.9, 910.3616, 0.0, 10.000086, 9.999642 
1.06504016e+3, 1.8497129e+2, -1136171.4, -1166336.1, -21440.807, 0.004352461, -0.09728724, -1125039.5, 2231.5063, 0.0, 10.000086, 9.999687 
1.0650283e+3, 1.9497083e+2, -1029546.56, -1063320.9, -28543.844, -0.0058596865, -0.11209319, -1013268.56, 16005.79, 0.0, 10.000142, 9.999695 
1.0650166e+3, 2.0497024e+2, -956183.6, -1027008.75, -29797.18, -0.011775623, -0.116441526, -945315.25, -14035.15, 0.0, 10.000187, 9.999249 
1.0650049e+3, 2.1496956e+2, -852611.1, -925707.44, -25142.729, -0.012679975, -0.11182265, -844798.0, -11509.645, 0.0, 10.000222, 9.999255 
1.06499314e+3, 2.2496906e+2, -743667.5, -802920.8, -21863.19, -0.009343579, -0.095381066, -736473.8, -1178.8037, 0.0, 10.000214, 9.999429 
1.0649816e+3, 2.3496875e+2, -652917.5, -707536.56, -25078.549, -0.0017176932, -0.069267526, -643149.5, -5849.4126, 0.0, 10.00016, 9.999437 
1.06497e+3, 2.4496849e+2, -535504.7, -561719.56, -25088.143, 0.0017396961, -0.055151835, -520306.28, 18997.482, 0.0, 10.000129, 9.999781 
1.06495835e+3, 2.549683e+2, -438385.13, -463153.6, -24417.15, 0.0007541626, -0.05517568, -423391.16, 17914.834, 0.0, 10.000118, 9.999789 
1.0649469e+3, 2.6496813e+2, -364616.0, -396843.22, -11465.824, 0.0041601397, -0.03765245, -360953.03, -17644.541, 0.0, 10.000038, 9.99961 
1.0649357e+3, 2.7496812e+2, -287674.4, -307870.4, -10171.345, 0.012108655, -0.0043217307, -283439.72, -38128.523, 0.0, 9.999888, 9.9996195 
1.0649243e+3, 2.8496778e+2, -206014.48, -228360.22, -13814.196, 0.016872553, 0.00698157, -199420.39, -52105.51, 0.0, 9.999823, 9.999524 
1.064913e+3, 2.949672e+2, -104636.21, -127678.87, -17920.734, 0.01849537, -0.0060660723, -94852.76, -45533.31, 0.0, 9.999841, 9.999534 
1.0649017e+3, 3.0496633e+2, -44197.773, -49742.645, -7543.575, 0.026150957, -0.055247094, -38933.3, -38933.3, 0.0, 9.99982, 9.999744 
1.0648908e+3, 3.149658e+2, -50635.406, -50019.566, -4538.9233, 0.037789665, -0.08176461, -45778.133, -45778.133, 0.0, 9.999763, 9.99977 
1.07510984e+3, 1.249835e+2, -1698713.5, -1694436.0, 14058.94, -0.034353796, -0.12856133, -1682354.0, 32794.88, 0.0005108164, 10.000056, 10.0001135 
1.075098e+3, 1.3498323e+2, -1623226.3, -1626045.3, -16437.42, -0.047903214, -0.14980596, -1608138.0, 9012.566, 0.00023041679, 9.999982, 9.999948 
1.07508704e+3, 1.4498338e+2, -1538817.1, -1560999.0, -10112.397, -0.00045029016, -0.11706382, -1534899.1, -15749.599, 0.000053336094, 10.000002, 9.999709 
1.07507534e+3, 1.54983e+2, -1424207.4, -1453227.1, -13198.569, -0.021856409, -0.127585, -1419102.5, 2052.158, 0.0000020676762, 10.000109, 9.999725 
1.0750637e+3, 1.6498274e+2, -1319347.5, -1347953.9, -31615.984, -0.025276536, -0.12757884, -1298949.8, 24208.031, 0.0000000000166348, 10.000138, 9.999761 
1.075052e+3, 1.7498259e+2, -1227836.6, -1251936.3, -26807.594, -0.0056842067, -0.11887289, -1210495.3, 14663.612, 0.0, 10.000089, 9.999771 
1.0750402e+3, 1.8498223e+2, -1149028.6, -1193926.0, -19750.4, -0.00083285605, -0.1181737, -1141577.1, -14414.934, 0.0, 10.000089, 9.999496 
1.0750285e+3, 1.9498165e+2, -1042415.56, -1090809.6, -26722.213, -0.012402566, -0.12739666, -1030563.0, -1395.194, 0.0, 10.000144, 9.999505 
1.0750167e+3, 2.0498112e+2, -947139.1, -1008952.56, -28736.953, -0.01580222, -0.12292969, -935843.5, -4670.0166, 0.0, 10.000189, 9.9993725 
1.07500516e+3, 2.1498066e+2, -843566.56, -907670.3, -23987.441, -0.010376945, -0.10632433, -835584.44, -2405.2813, 0.0, 10.000225, 9.999378 
1.0749934e+3, 2.2498019e+2, -748966.44, -814657.25, -24009.525, -0.008495341, -0.08979847, -741126.7, -5941.1084, 0.0, 10.000216, 9.999348 
1.0749817e+3, 2.3497969e+2, -658275.7, -719323.06, -27077.95, -0.010330101, -0.0752601, -647996.06, -10803.286, 0.0, 10.000162, 9.999355 
1.0749701e+3, 2.4497944e+2, -533607.9, -558383.7, -25423.295, 0.00018750748, -0.05711887, -517714.97, 21481.488, 0.0, 10.00013, 9.999803 
1.0749586e+3, 2.5497943e+2, -436473.13, -459708.3, -24583.197, 0.02337694, -0.03781399, -420900.63, 20296.047, 0.0, 10.000119, 9.999812 
1.0749471e+3, 2.649793e+2, -361396.25, -390528.6, -16858.215, 0.030192599, -0.02548021, -353683.0, -10483.823, 0.0, 10.000039, 9.999654 
1.07493564e+3, 2.74979e+2, -284554.63, -301617.78, -15444.687, 0.019934857, -0.022045454, -275441.75, -30237.838, 0.0, 9.999888, 9.999663 
1.0749242e+3, 2.8497866e+2, -213195.6, -243435.81, -12813.594, 0.02108039, -0.007653529, -208496.38, -61288.56, 0.0, 9.999823, 9.999422 
1.074913e+3, 2.9497832e+2, -111715.734, -142489.08, -16963.523, 0.034762006, 0.015838519, -104200.21, -54989.477, 0.0, 9.999841, 9.999433 
1.07490174e+3, 3.0497748e+2, -33051.883, -26644.186, -9403.909, 0.043454908, -0.037234396, -19913.34, -19913.34, 0.0, 9.999819, 9.999905 
1.0748905e+3, 3.1497684e+2, -39165.844, -26005.854, -6465.9087, 0.043038346, -0.09055231, -23360.648, -23360.648, 0.0, 9.999761, 9.999936 
1.0851101e+3, 1.249947e+2, -1675611.4, -1685069.5, 10096.272, -0.018449405, -0.13025792, -1669191.5, 45847.117, 0.0005868399, 10.000224, 10.000096 
1.0850982e+3, 1.3499431e+2, -1590763.1, -1612160.6, -17425.498, -0.043694664, -0.16367096, -1581014.1, 36027.0, 0.00027068684, 10.000214, 9.99993 
1.0850869e+3, 1.4499441e+2, -1515829.3, -1553932.9, -5764.781, -0.010045942, -0.13101819, -1514976.3, 4064.2083, 0.00006622561, 10.000178, 9.999672 
1.08507544e+3, 1.5499417e+2, -1427813.0, -1459054.8, -3974.9224, -0.022955038, -0.12487032, -1427315.3, -6270.2207, 0.000003027, 10.000103, 9.999687 
1.0850638e+3, 1.6499393e+2, -1320371.9, -1345202.5, -23046.025, -0.024598734, -0.12306002, -1306609.8, 16438.361, 0.000000000186287, 10.000118, 9.999788 
1.0850521e+3, 1.7499368e+2, -1205478.4, -1237914.0, -25857.031, -0.010545016, -0.12754299, -1191174.0, 33875.473, 0.0, 10.00023, 9.999799 
1.0850403e+3, 1.8499324e+2, -1129471.0, -1190260.8, -19030.445, -0.006946296, -0.13255695, -1124005.0, 3048.324, 0.0, 10.00025, 9.999444 
1.0850286e+3, 1.9499262e+2, -1041403.3, -1096104.6, -15965.17, -0.015217056, -0.13982189, -1037084.7, -8025.245, 0.0, 10.000177, 9.999453 
1.0850169e+3, 2.0499213e+2, -955740.44, -1015643.6, -17540.908, -0.01766566, -0.12857851, -950982.06, -19916.879, 0.0, 10.000142, 9.999349 
1.08500525e+3, 2.1499176e+2, -856613.7, -916280.0, -24055.506, -0.01368831, -0.1007813, -848123.44, -15052.908, 0.0, 10.000146, 9.999356 
1.08499356e+3, 2.2499129e+2, -756781.4, -816004.25, -27400.637, -0.010913767, -0.08418731, -746048.94, -10971.856, 0.0, 10.000153, 9.999369 
1.0849818e+3, 2.349907e+2, -656540.56, -715941.0, -22987.11, -0.00971615, -0.08032183, -648684.0, -11599.318, 0.0, 10.000164, 9.999377 
1.0849702e+3, 2.4499045e+2, -533795.3, -556160.94, -19101.68, 0.004762182, -0.06441673, -522843.78, 16244.432, 0.0, 10.000119, 9.999823 
1.0849588e+3, 2.5499055e+2, -449993.13, -463829.03, -18763.514, 0.032967616, -0.039146025, -436912.9, 4174.742, 0.0, 10.000017, 9.999833 
1.0849473e+3, 2.6499042e+2, -374896.53, -397072.84, -14506.384, 0.041812688, -0.02591555, -367725.9, -24635.908, 0.0, 9.999948, 9.999652 
1.0849357e+3, 2.7499005e+2, -281331.53, -300041.5, -16658.129, 0.030573381, -0.026738847, -271581.3, -26486.063, 0.0, 9.999911, 9.999662 
1.08492404e+3, 2.8498974e+2, -211422.28, -242868.1, -10342.99, 0.030814176, -0.012581679, -208325.31, -61226.08, 0.0, 9.999836, 9.999418 
1.0849129e+3, 2.9498944e+2, -129004.1, -151088.06, -7101.2856, 0.043702718, 0.01485349, -126917.734, -77815.84, 0.0, 9.999723, 9.99943 
1.0849016e+3, 3.0498856e+2, -54346.215, -38556.79, -1586.2272, 0.051343244, -0.038153496, -38399.01, -38399.01, 0.0, 9.9996805, 9.999888 
1.0848904e+3, 3.1498808e+2, -47053.793, -30426.756, -12601.819, 0.049358312, -0.077711284, -23643.24, -23643.24, 0.0, 9.99971, 9.999929 
1.0951105e+3, 1.2500586e+2, -1675669.5, -1685391.1, 7418.9478, -0.010156585, -0.1397736, -1671660.8, 43268.152, 0.00066826155, 10.000224, 10.000095 
1.0950985e+3, 1.3500537e+2, -1590820.1, -1612741.0, -18073.836, -0.034481388, -0.18151774, -1580643.1, 36288.91, 0.00031450897, 10.000215, 9.999927 
1.09508716e+3, 1.4500552e+2, -1513587.5, -1549946.5, -8786.281, -0.012692615, -0.14539525, -1511575.6, 7355.2134, 0.000080840386, 10.00018, 9.9997 
1.0950755e+3, 1.5500551e+2, -1425464.5, -1455009.8, -7311.174, -0.024973487, -0.118554085, -1423754.3, -2820.9578, 0.0000043066148, 10.000105, 9.999715 
1.0950638e+3, 1.6500528e+2, -1325177.5, -1356042.5, -19299.213, -0.027959814, -0.1121153, -1315899.3, 7037.13, 0.0000000006358386, 10.000121, 9.999714 
1.0950522e+3, 1.7500484e+2, -1210374.6, -1248806.4, -22027.064, -0.01876831, -0.12854086, -1200359.6, 24580.19, 0.0, 10.000232, 9.999723 
1.0950405e+3, 1.8500434e+2, -1123602.8, -1178766.4, -22110.951, -0.014038524, -0.14054784, -1115834.1, 11109.984, 0.0, 10.000252, 9.999522 
1.0950287e+3, 1.9500378e+2, -1035488.56, -1084644.3, -19003.418, -0.014390543, -0.14943667, -1028998.75, -49.746666, 0.0, 10.000179, 9.99953 
1.095017e+3, 2.0500328e+2, -967579.44, -1041019.6, -17685.54, -0.017455019, -0.13344203, -963542.44, -32587.322, 0.0, 10.000144, 9.999174 
1.0950053e+3, 2.1500285e+2, -868334.3, -941334.7, -24090.076, -0.02272199, -0.09530344, -861101.3, -28138.922, 0.0, 10.000148, 9.999184 
1.09499365e+3, 2.2500235e+2, -747916.06, -798303.7, -27153.615, -0.016695913, -0.07860394, -736068.7, -1099.4066, 0.0, 10.0001545, 9.99949 
1.094982e+3, 2.3500179e+2, -647697.44, -698270.06, -22556.973, 0.00012116093, -0.084324114, -639098.44, -2122.608, 0.0, 10.000166, 9.999498 
1.0949705e+3, 2.4500151e+2, -532520.25, -554136.44, -22827.398, 0.015379715, -0.077065095, -518071.56, 20907.477, 0.0, 10.000121, 9.999837 
1.09495886e+3, 2.5500154e+2, -448756.9, -461723.56, -22365.846, 0.029222393, -0.05961516, -431953.66, 9025.315, 0.0, 10.000018, 9.999847 
1.0949472e+3, 2.6500148e+2, -378359.97, -404662.3, -15513.913, 0.03873875, -0.03921386, -371173.13, -28192.035, 0.0, 9.999948, 9.9996 
1.0949357e+3, 2.750013e+2, -284530.03, -307149.56, -17601.332, 0.043959506, -0.017953126, -274918.1, -29932.863, 0.0, 9.999912, 9.999614 
1.09492406e+3, 2.8500095e+2, -204636.55, -229075.73, -14263.345, 0.04595525, -0.0076061953, -198074.2, -51084.902, 0.0, 9.999837, 9.999514 
1.0949126e+3, 2.9500046e+2, -122358.234, -137259.42, -10819.759, 0.044930443, -0.009888649, -116671.914, -67678.8, 0.0, 9.9997225, 9.999526 
1.0949013e+3, 3.0499953e+2, -68758.195, -68483.55, 30.541445, 0.049421012, -0.05855238, -68480.19, -68480.19, 0.0, 9.999679, 9.999684 
1.09489016e+3, 3.1499946e+2, -60493.0, -58440.664, -11255.571, 0.056260277, -0.038505662, -48164.58, -48164.58, 0.0, 9.999709, 9.999739 
1.1051107e+3, 1.2501705e+2, -1669219.4, -1683575.3, 5058.452, -0.010354798, -0.14097399, -1667616.0, 47203.04, 0.00075576623, 10.000275, 10.000082 
1.1050987e+3, 1.3501649e+2, -1588620.6, -1612853.5, -19314.652, -0.026838109, -0.18926577, -1577936.5, 38886.242, 0.00036234639, 10.0002365, 9.999914 
1.10508725e+3, 1.4501661e+2, -1503412.4, -1541375.1, -10338.34, -0.013285645, -0.1563144, -1500779.6, 18041.986, 0.00009737699, 10.000236, 9.999731 
1.1050757e+3, 1.5501669e+2, -1401188.6, -1439456.1, -8929.311, -0.026694313, -0.12395994, -1399207.6, 21615.447, 0.0000060098255, 10.000257, 9.999747 
1.1050639e+3, 1.6501647e+2, -1310075.0, -1353290.0, -17315.889, -0.031871043, -0.1153319, -1303992.6, 18833.295, 0.0000000015512864, 10.000246, 9.999672 
1.1050524e+3, 1.7501599e+2, -1217063.8, -1256414.3, -17703.402, -0.026446963, -0.13286063, -1210271.5, 14558.725, 0.0, 10.000206, 9.999683 
1.1050407e+3, 1.8501547e+2, -1127618.9, -1177338.3, -20268.498, -0.021279313, -0.14539982, -1120403.4, 6431.224, 0.0, 10.000211, 9.999551 
1.1050289e+3, 1.9501495e+2, -1021754.6, -1074623.3, -21039.125, -0.016917408, -0.15430301, -1014404.06, 14434.889, 0.0, 10.00026, 9.999559 
1.1050172e+3, 2.0501445e+2, -956414.8, -1042901.44, -18409.262, -0.019129226, -0.13639496, -952659.4, -21814.158, 0.0, 10.000254, 9.999108 
1.1050054e+3, 2.15014e+2, -866994.5, -947767.7, -16853.766, -0.027429594, -0.0945086, -863618.94, -30765.57, 0.0, 10.000189, 9.99912 
1.10499375e+3, 2.2501351e+2, -748613.5, -790878.44, -18226.36, -0.019165987, -0.0763925, -741839.3, -6979.103, 0.0, 10.000117, 9.999558 
1.1049822e+3, 2.35013e+2, -661447.44, -697156.6, -17853.09, 0.00529132, -0.08305583, -654052.9, -17187.277, 0.0, 10.000039, 9.999567 
1.1049706e+3, 2.4501275e+2, -548356.9, -561311.4, -21041.299, 0.019767405, -0.0794422, -532818.44, 6050.1753, 0.0, 10.000011, 9.99984 
1.1049587e+3, 2.550127e+2, -446128.25, -459965.94, -21684.855, 0.024219807, -0.06823479, -430285.22, 10583.86, 0.0, 10.000034, 9.999851 
1.1049472e+3, 2.650126e+2, -375224.7, -404270.34, -15760.865, 0.034776933, -0.04810204, -368315.8, -25444.45, 0.0, 9.999975, 9.99959 
1.10493556e+3, 2.750125e+2, -297061.6, -314254.6, -15034.977, 0.051592905, -0.021104489, -288339.03, -43463.684, 0.0, 9.999832, 9.999603 
1.1049241e+3, 2.8501222e+2, -208319.6, -221085.86, -9197.861, 0.05645186, -0.007942486, -203506.97, -56628.254, 0.0, 9.99977, 9.9996 
1.1049124e+3, 2.9501182e+2, -106281.48, -119746.49, -6631.4614, 0.049453318, -0.010495982, -103563.96, -54682.566, 0.0, 9.999792, 9.999613 
1.104901e+3, 3.0501089e+2, -69369.67, -76262.99, 7758.023, 0.05163486, -0.062383275, -64327.14, -64327.14, 0.0, 9.999708, 9.999616 
1.1048897e+3, 3.1501085e+2, -90819.5, -78731.78, 6389.3296, 0.06000798, -0.028233452, -75980.66, -75980.66, 0.0, 9.999527, 9.999686 
1.1151108e+3, 1.2502836e+2, -1671304.5, -1688095.4, 859.03033, -0.019121455, -0.13448432, -1671260.6, 43448.055, 0.00085056474, 10.000275, 10.000052 
1.1150991e+3, 1.350277e+2, -1590425.4, -1617067.1, -21028.775, -0.020877087, -0.1871986, -1578853.4, 37859.695, 0.00041499882, 10.000237, 9.999886 
1.1150875e+3, 1.4502776e+2, -1500729.4, -1536385.6, -9854.928, -0.012099312, -0.16378582, -1498186.9, 20525.568, 0.00011616446, 10.000237, 9.999765 
1.11507595e+3, 1.5502778e+2, -1398525.1, -1434620.0, -8625.349, -0.028146105, -0.1407401, -1396569.9, 24143.93, 0.000008247579, 10.000258, 9.999781 
1.1150642e+3, 1.6502757e+2, -1310520.1, -1355066.3, -19278.53, -0.036319185, -0.13232467, -1303335.5, 19380.943, 0.0000000033697685, 10.000248, 9.999659 
1.1150525e+3, 1.7502716e+2, -1217287.1, -1257890.0, -19597.135, -0.033671882, -0.1404621, -1209371.6, 15348.758, 0.0, 10.000209, 9.999672 
1.1150408e+3, 1.8502669e+2, -1128845.9, -1180812.9, -18779.834, -0.028763957, -0.14722064, -1122769.6, 3954.8574, 0.0, 10.000214, 9.999527 
1.11502916e+3, 1.9502616e+2, -1022962.94, -1077909.0, -19508.71, -0.02285751, -0.15446204, -1016740.9, 11988.091, 0.0, 10.000262, 9.9995365 
1.1150173e+3, 2.0502564e+2, -953412.9, -1037343.2, -21082.736, -0.022770291, -0.13743712, -948414.7, -17679.355, 0.0, 10.000256, 9.999146 
1.1150056e+3, 2.1502519e+2, -863832.3, -941886.44, -19475.818, -0.027880445, -0.09833962, -859242.7, -26499.18, 0.0, 10.000191, 9.99916 
1.1149939e+3, 2.2502476e+2, -747541.4, -789345.4, -21302.154, -0.018384958, -0.07751081, -738599.2, -3849.4368, 0.0, 10.000119, 9.999569 
1.1149823e+3, 2.3502435e+2, -660322.3, -695444.1, -20846.691, 0.005682238, -0.0765634, -650625.75, -13871.603, 0.0, 10.000041, 9.999578 
1.1149706e+3, 2.450241e+2, -548921.1, -563060.56, -20050.875, 0.017797204, -0.071504, -534730.1, 4026.7935, 0.0, 10.000012, 9.999827 
1.11495875e+3, 2.5502402e+2, -446614.53, -461558.06, -20524.848, 0.017833374, -0.06475904, -432243.75, 8514.214, 0.0, 10.000036, 9.999841 
1.11494705e+3, 2.6502383e+2, -373111.63, -400350.6, -20833.713, 0.029776143, -0.05250738, -361840.7, -19079.732, 0.0, 9.999976, 9.999617 
1.1149354e+3, 2.7502364e+2, -295116.44, -310469.88, -19997.41, 0.05325189, -0.036560144, -281372.88, -36607.23, 0.0, 9.999832, 9.99963 
1.1149238e+3, 2.850235e+2, -203149.33, -210609.0, -7865.9214, 0.06209991, -0.0136472555, -198173.75, -51406.113, 0.0, 9.99977, 9.999673 
1.11491226e+3, 2.9502347e+2, -100842.32, -109024.375, -5209.3364, 0.057285633, 0.013933889, -98309.625, -49542.797, 0.0, 9.999793, 9.999686 
1.1149008e+3, 3.050225e+2, -64327.438, -66157.24, 1344.5304, 0.057989653, -0.049169358, -63616.055, -63616.055, 0.0, 9.999708, 9.999686 
1.1148893e+3, 3.1502226e+2, -84967.02, -66010.2, 22.806637, 0.060004734, -0.0450482, -66010.17, -66010.17, 0.0, 9.999523, 9.999776 
1.1251112e+3, 1.2503976e+2, -1670874.6, -1690041.4, 1963.429, -0.013220807, -0.119859755, -1670675.6, 43922.17, 0.0009537465, 10.000288, 10.000031 
1.12509936e+3, 1.3503909e+2, -1575386.5, -1611980.4, -16644.783, -0.019655913, -0.17203192, -1568948.3, 47654.01, 0.00047316175, 10.000351, 9.999865 
1.12508774e+3, 1.4503904e+2, -1481024.9, -1524675.9, -7027.517, -0.021068504, -0.1589973, -1479921.4, 38680.89, 0.00013752929, 10.000364, 9.9997835 
1.1250762e+3, 1.5503891e+2, -1389144.0, -1427893.5, -7467.4014, -0.031054992, -0.15104438, -1387754.8, 32849.45, 0.00001111389, 10.000315, 9.999799 
1.1250644e+3, 1.6503869e+2, -1299348.6, -1348113.0, -16997.236, -0.03863842, -0.14503822, -1294008.8, 28597.912, 0.0000000061074554, 10.0003195, 9.999672 
1.1250527e+3, 1.7503841e+2, -1192096.6, -1244198.5, -15648.062, -0.041136276, -0.14320417, -1187758.3, 36851.367, 0.0, 10.000377, 9.999684 
1.125041e+3, 1.8503796e+2, -1108969.4, -1176688.1, -15668.864, -0.038004298, -0.1458253, -1105519.6, 21094.117, 0.0, 10.000375, 9.999476 
1.1250293e+3, 1.9503735e+2, -1019010.8, -1081427.1, -18585.955, -0.030453293, -0.15472327, -1013895.6, 14723.593, 0.0, 10.000315, 9.999487 
1.12501755e+3, 2.0503683e+2, -951648.9, -1033564.9, -23816.89, -0.026894506, -0.13876036, -945227.5, -14601.588, 0.0, 10.000256, 9.999171 
1.1250057e+3, 2.1503639e+2, -860837.3, -937420.94, -23620.64, -0.026852835, -0.09999878, -854138.06, -21504.19, 0.0, 10.000199, 9.999186 
1.124994e+3, 2.2503603e+2, -741635.3, -780788.1, -25137.873, -0.016449466, -0.077349454, -729350.3, 5289.108, 0.0, 10.000136, 9.999619 
1.1249823e+3, 2.3503569e+2, -652948.5, -685980.44, -21925.676, 0.004286874, -0.07272741, -642014.3, -5371.6685, 0.0, 10.000067, 9.99963 
1.1249706e+3, 2.4503541e+2, -560379.75, -573865.25, -20767.854, 0.017718334, -0.06988175, -545287.5, -6641.974, 0.0, 9.999958, 9.99978 
1.1249588e+3, 2.550352e+2, -483117.16, -484323.6, -24404.602, 0.023759054, -0.07091478, -459308.3, -18660.314, 0.0, 9.999808, 9.999793 
1.1249469e+3, 2.6503503e+2, -400147.94, -403712.44, -23948.154, 0.035425268, -0.061957005, -377915.8, -35264.85, 0.0, 9.999749, 9.9997015 
1.12493515e+3, 2.750349e+2, -296534.94, -301384.5, -18858.598, 0.05236983, -0.044960536, -279945.88, -35291.613, 0.0, 9.999781, 9.999717 
1.1249236e+3, 2.8503487e+2, -210648.33, -215188.0, -7847.3438, 0.061054587, -0.018753849, -204749.14, -58093.484, 0.0, 9.999723, 9.999662 
1.124912e+3, 2.950349e+2, -132647.8, -125289.01, -11703.144, 0.06243101, 0.0143800285, -116700.5, -68045.414, 0.0, 9.999579, 9.999677 
1.12490036e+3, 3.050339e+2, -90678.3, -64517.227, -9103.346, 0.06509355, -0.053947255, -61661.285, -61661.285, 0.0, 9.999467, 9.999813 
1.1248888e+3, 3.1503382e+2, -93227.42, -53030.797, -6400.741, 0.06525645, -0.04579968, -52036.18, -52036.18, 0.0, 9.999394, 9.999927 
1.1351117e+3, 1.2505127e+2, -1672120.9, -1692565.0, 1143.216, 0.0066593727, -0.097261146, -1672057.1, 42428.81, 0.0010656647, 10.000287, 10.000016 
1.13509975e+3, 1.3505065e+2, -1576347.4, -1614502.9, -14719.362, -0.023137342, -0.144414, -1571329.1, 45161.023, 0.00053702114, 10.000352, 9.999847 
1.1350879e+3, 1.4505048e+2, -1480834.3, -1525083.0, -9244.632, -0.03995265, -0.14263743, -1478980.4, 39510.49, 0.00016162105, 10.000366, 9.99978 
1.1350764e+3, 1.5505016e+2, -1388782.3, -1427947.0, -9888.473, -0.035495877, -0.1550661, -1386427.1, 34066.777, 0.000014669085, 10.000317, 9.999798 
1.1350648e+3, 1.6504991e+2, -1296581.9, -1343190.1, -15331.327, -0.038983226, -0.15350401, -1291991.0, 30505.23, 0.000000009421829, 10.000321, 9.999704 
1.135053e+3, 1.7504975e+2, -1189409.9, -1239438.8, -13972.579, -0.048883468, -0.14114717, -1185772.0, 38725.65, 0.0, 10.00038, 9.999717 
1.1350413e+3, 1.850493e+2, -1114228.5, -1188371.3, -18362.768, -0.049032137, -0.14125514, -1109929.9, 16572.227, 0.0, 10.000377, 9.999396 
1.1350296e+3, 1.9504857e+2, -1024119.8, -1092841.5, -21178.936, -0.03974886, -0.15514335, -1018117.1, 10392.232, 0.0, 10.000317, 9.999408 
1.1350178e+3, 2.0504801e+2, -950773.56, -1032504.3, -26230.855, -0.031561885, -0.14044762, -943079.3, -12562.473, 0.0, 10.0002575, 9.999178 
1.13500595e+3, 2.150476e+2, -859964.2, -936314.5, -25914.57, -0.024437495, -0.099538215, -851999.25, -19474.84, 0.0, 10.000201, 9.999192 
1.1349941e+3, 2.2504728e+2, -735257.9, -768199.25, -27928.39, -0.01344934, -0.07594601, -719305.1, 15223.992, 0.0, 10.000138, 9.999704 
1.1349823e+3, 2.3504704e+2, -646388.0, -672998.25, -24544.865, 0.0010103594, -0.07155188, -631774.0, 4757.037, 0.0, 10.000069, 9.999719 
1.1349705e+3, 2.450467e+2, -566455.8, -587041.5, -26346.055, 0.019505685, -0.07464371, -548463.4, -9928.915, 0.0, 9.999959, 9.999689 
1.1349587e+3, 2.5504628e+2, -489235.8, -497345.97, -29812.906, 0.042182386, -0.086892545, -463203.47, -22664.223, 0.0, 9.999809, 9.999704 
1.1349469e+3, 2.6504615e+2, -390188.4, -383275.4, -22383.643, 0.051830947, -0.07650837, -364082.97, -21541.42, 0.0, 9.999749, 9.999843 
1.13493495e+3, 2.7504632e+2, -286351.63, -280673.94, -17133.076, 0.048622467, -0.046132877, -266146.13, -21604.836, 0.0, 9.999782, 9.999859 
1.13492325e+3, 2.8504622e+2, -217425.73, -229552.23, -12909.729, 0.052939136, -0.023395816, -209226.31, -62683.32, 0.0, 9.999723, 9.999564 
1.1349115e+3, 2.9504597e+2, -139759.5, -139725.9, -16757.035, 0.06481521, -0.010010906, -122985.66, -74439.13, 0.0, 9.9995775, 9.999579 
1.1348999e+3, 3.0504504e+2, -78285.34, -38406.54, -11303.967, 0.07291514, -0.07717044, -35425.223, -35425.223, 0.0, 9.999464, 9.999994 
1.1348883e+3, 3.150456e+2, -78509.09, -22637.936, -8601.944, 0.075231366, -0.025338255, -21343.564, -21343.564, 0.0, 9.999394, 10.000136 
1.1451121e+3, 1.2506269e+2, -1668011.0, -1698840.8, 5729.125, 0.013217349, -0.09085586, -1666980.8, 47393.824, 0.0011858052, 10.000352, 9.999941 
1.1451001e+3, 1.3506204e+2, -1569634.3, -1619373.0, -11575.511, -0.01949908, -0.13217618, -1567072.3, 49307.08, 0.00060623867, 10.000435, 9.999774 
1.1450882e+3, 1.4506176e+2, -1464116.4, -1515354.1, -11781.427, -0.046043158, -0.1366388, -1461537.1, 56843.65, 0.00018835878, 10.000475, 9.999794 
1.14507675e+3, 1.5506135e+2, -1368545.3, -1416615.8, -11751.435, -0.038218662, -0.15971905, -1365826.3, 54557.68, 0.000018936791, 10.00045, 9.999811 
1.14506505e+3, 1.6506109e+2, -1281187.6, -1336161.6, -16142.692, -0.040562924, -0.16200691, -1276798.0, 45588.176, 0.000000013934886, 10.00043, 9.9997 
1.14505336e+3, 1.7506094e+2, -1183783.4, -1237121.9, -17889.762, -0.05198249, -0.14709936, -1178338.9, 46048.6, 0.0, 10.000421, 9.999712 
1.14504166e+3, 1.850605e+2, -1114422.6, -1192796.4, -25036.387, -0.052357152, -0.14282788, -1107107.5, 19284.55, 0.0, 10.000395, 9.999356 
1.1450298e+3, 1.950598e+2, -1021740.5, -1095826.1, -25133.629, -0.04191139, -0.15048465, -1014018.75, 14381.066, 0.0, 10.000352, 9.99937 
1.14501804e+3, 2.0505925e+2, -943160.6, -1021573.94, -27776.396, -0.032525495, -0.13475609, -934318.5, -3911.346, 0.0, 10.00028, 9.999242 
1.1450061e+3, 2.1505886e+2, -858503.8, -928238.8, -23289.879, -0.024175977, -0.098250784, -851440.9, -19026.871, 0.0, 10.000181, 9.999257 
1.1449943e+3, 2.2505859e+2, -742257.94, -767321.94, -25804.773, -0.012835271, -0.07692557, -726103.06, 8315.139, 0.0, 10.0000725, 9.999742 
1.1449823e+3, 2.3505838e+2, -660066.94, -675235.94, -26497.227, 0.000964108, -0.07230124, -640090.1, -3670.5728, 0.0, 9.999957, 9.999757 
1.1449704e+3, 2.4505803e+2, -577114.9, -591460.9, -26843.76, 0.020161236, -0.07865511, -556502.25, -18079.357, 0.0, 9.999884, 9.999694 
1.1449585e+3, 2.5505754e+2, -482653.38, -493412.3, -23397.242, 0.045039233, -0.097705536, -464025.16, -23596.938, 0.0, 9.999852, 9.999709 
1.1449467e+3, 2.650574e+2, -381774.88, -373353.3, -14131.106, 0.055132333, -0.09154475, -362818.97, -20388.615, 0.0, 9.9997835, 9.999894 
1.1449347e+3, 2.7505758e+2, -297964.47, -280475.0, -16088.463, 0.050549477, -0.06290067, -270908.28, -26478.984, 0.0, 9.999679, 9.999909 
1.1449228e+3, 2.8505757e+2, -236075.83, -240066.08, -14586.631, 0.053847834, -0.036916595, -223348.52, -76917.836, 0.0, 9.999603, 9.99955 
1.1449111e+3, 2.9505736e+2, -142931.63, -142741.63, -12362.54, 0.065029606, -0.015698643, -130473.73, -82039.37, 0.0, 9.999563, 9.999564 
1.1448994e+3, 3.0505642e+2, -63838.117, -32461.205, -8193.281, 0.07595137, -0.08328651, -30450.578, -30450.578, 0.0, 9.999569, 9.999984 
1.14488795e+3, 3.150571e+2, -44024.17, -3307.7495, -20604.31, 0.08540358, -0.018723138, 5299.439, 5299.439, 0.0, 9.99962, 10.000159 
1.1551123e+3, 1.25074e+2, -1677350.5, -1718847.9, 4988.196, 0.0064847423, -0.10043382, -1676759.4, 37503.88, 0.0013130474, 10.000353, 9.999804 
1.1551007e+3, 1.350733e+2, -1578706.4, -1638783.0, -8808.548, -0.008988678, -0.1344783, -1577441.5, 38827.902, 0.0006802244, 10.000436, 9.99964 
1.1550888e+3, 1.4507295e+2, -1462041.4, -1511587.6, -13068.513, -0.039725844, -0.14027476, -1458805.8, 59465.79, 0.00021757523, 10.000477, 9.99982 
1.1550773e+3, 1.5507254e+2, -1366608.6, -1413366.5, -13323.866, -0.03940916, -0.16500796, -1363078.5, 57195.36, 0.000023929451, 10.000453, 9.999832 
1.1550655e+3, 1.6507222e+2, -1284023.0, -1342944.1, -17062.873, -0.043466, -0.17069611, -1279438.5, 42837.715, 0.000000023716384, 10.000433, 9.999653 
1.1550537e+3, 1.7507198e+2, -1186535.6, -1243678.5, -18689.604, -0.050630346, -0.16096187, -1180965.8, 43312.94, 0.0, 10.0004225, 9.999666 
1.155042e+3, 1.8507159e+2, -1114317.5, -1193303.0, -27007.314, -0.04823868, -0.15043311, -1105966.0, 20317.398, 0.0, 10.000397, 9.999352 
1.1550303e+3, 1.9507106e+2, -1021580.6, -1096188.8, -27124.834, -0.037079286, -0.14076053, -1012761.5, 15528.784, 0.0, 10.000354, 9.999367 
1.1550183e+3, 2.050706e+2, -934623.7, -1004534.3, -31746.734, -0.029861815, -0.12172336, -922359.0, 7937.705, 0.0, 10.000281, 9.999358 
1.1550064e+3, 2.1507023e+2, -849799.3, -910888.3, -27219.578, -0.026144376, -0.09617877, -839430.9, -7128.2173, 0.0, 10.000183, 9.999376 
1.1549943e+3, 2.2506993e+2, -743203.6, -769980.9, -30279.336, -0.014686761, -0.08031746, -723484.94, 10821.5205, 0.0, 10.000074, 9.999723 
1.1549823e+3, 2.3506972e+2, -660971.8, -677741.44, -30900.62, 0.0041207, -0.075000025, -637338.6, -1030.525, 0.0, 9.999959, 9.99974 
1.1549703e+3, 2.4506941e+2, -570054.75, -577394.8, -27934.709, 0.019557493, -0.08191316, -545550.0, -7239.0703, 0.0, 9.999886, 9.99979 
1.1549582e+3, 2.55069e+2, -475514.78, -479225.56, -24288.71, 0.031875003, -0.103310876, -453010.7, -12695.775, 0.0, 9.999854, 9.999806 
1.1549463e+3, 2.650688e+2, -384819.47, -380199.47, -17737.771, 0.044970572, -0.10717974, -364621.9, -22304.438, 0.0, 9.999784, 9.999847 
1.1549345e+3, 2.7506876e+2, -301251.3, -287426.44, -19645.482, 0.058439877, -0.09566379, -273512.75, -29194.238, 0.0, 9.999678, 9.999863 
1.1549226e+3, 2.8506884e+2, -231599.63, -230810.08, -15585.888, 0.063981794, -0.059365742, -215613.95, -69295.016, 0.0, 9.999602, 9.999614 
1.1549106e+3, 2.9506907e+2, -138318.69, -133633.55, -13126.47, 0.062321387, -0.0018206122, -122642.26, -74323.52, 0.0, 9.999564, 9.999627 
1.1548991e+3, 3.0506802e+2, -78391.03, -63469.676, -5746.743, 0.07346827, -0.07165228, -61512.99, -61512.99, 0.0, 9.999571, 9.99977 
1.1548876e+3, 3.150683e+2, -55965.203, -28886.135, -18466.188, 0.09606387, -0.024256146, -19527.654, -19527.654, 0.0, 9.999622, 9.999983 
1.1651128e+3, 1.2508531e+2, -1644571.9, -1708926.8, 2757.7473, 0.00019850089, -0.10738211, -1644453.9, 69698.33, 0.0014461256, 10.000606, 9.999749 
1.1651012e+3, 1.3508464e+2, -1560697.1, -1635921.3, -1744.1151, -0.007651031, -0.13201137, -1560656.6, 55501.563, 0.0007584584, 10.000586, 9.999587 
1.1650894e+3, 1.4508425e+2, -1449893.6, -1509125.3, -7442.7075, -0.04221215, -0.14020681, -1448972.6, 69188.28, 0.00024917058, 10.000576, 9.999788 
1.16507776e+3, 1.5508373e+2, -1353241.6, -1410388.1, -12410.584, -0.040030774, -0.17101035, -1350662.8, 69501.21, 0.000029664654, 10.000561, 9.9998 
1.1650661e+3, 1.6508338e+2, -1271370.9, -1335849.6, -17065.703, -0.043145392, -0.17912643, -1267132.6, 55033.934, 0.00000004774233, 10.000517, 9.9996605 
1.1650542e+3, 1.7508316e+2, -1183218.3, -1241146.5, -14949.93, -0.050449565, -0.1685509, -1179587.5, 44581.324, 0.0, 10.0004425, 9.999674 
1.1650424e+3, 1.8508282e+2, -1118809.9, -1195553.0, -22085.424, -0.047845747, -0.15167768, -1112908.0, 13265.316, 0.0, 10.000367, 9.999351 
1.1650305e+3, 1.950824e+2, -1030463.06, -1100468.8, -22299.56, -0.036252618, -0.1301953, -1023963.3, 4216.445, 0.0, 10.000294, 9.999366 
1.1650185e+3, 2.0508198e+2, -935640.25, -997392.75, -29155.053, -0.029311119, -0.11024531, -924050.5, 6135.1816, 0.0, 10.000243, 9.999426 
1.16500646e+3, 2.1508159e+2, -840667.2, -898715.56, -28711.885, -0.026526105, -0.094684266, -828865.2, 3325.9465, 0.0, 10.000213, 9.999445 
1.1649944e+3, 2.2508125e+2, -734425.75, -765954.2, -35317.36, -0.015878586, -0.08564176, -711514.06, 22680.953, 0.0, 10.000137, 9.99972 
1.1649823e+3, 2.35081e+2, -652989.44, -674086.25, -35022.957, 0.002403794, -0.08382641, -626960.9, 9236.316, 0.0, 10.000015, 9.999737 
1.1649701e+3, 2.4508074e+2, -562993.94, -569960.06, -31679.197, 0.01586991, -0.08768304, -534606.9, 3592.6648, 0.0, 9.999918, 9.9998255 
1.164958e+3, 2.5508046e+2, -474330.56, -474565.53, -33111.19, 0.024560282, -0.09991335, -441336.66, -1134.5757, 0.0, 9.9998455, 9.999842 
1.164946e+3, 2.650802e+2, -384609.47, -379484.38, -28256.809, 0.038832363, -0.10824001, -353674.16, -11469.4795, 0.0, 9.999784, 9.999851 
1.1649342e+3, 2.7508003e+2, -292519.25, -282516.75, -26576.244, 0.05826318, -0.11431803, -260475.28, -16268.132, 0.0, 9.999736, 9.999867 
1.1649223e+3, 2.8508013e+2, -215987.75, -218580.14, -20396.617, 0.065500185, -0.078254364, -196846.19, -50638.84, 0.0, 9.999691, 9.999655 
1.1649103e+3, 2.9508054e+2, -123546.69, -121963.38, -19895.105, 0.061381, -0.0042782472, -102844.18, -54638.86, 0.0, 9.999647, 9.999666 
1.1648986e+3, 3.0507952e+2, -84584.88, -79213.87, -8822.574, 0.075451896, -0.069710985, -72677.13, -72677.13, 0.0, 9.999585, 9.999655 
1.1648873e+3, 3.150798e+2, -77578.41, -47300.266, -14401.839, 0.10713209, -0.009287615, -41544.258, -41544.258, 0.0, 9.99951, 9.99991 
1.17511325e+3, 1.2509665e+2, -1642910.6, -1706051.5, -2110.0598, -0.00551471, -0.11170467, -1642840.1, 71200.82, 0.0015842223, 10.000607, 9.999769 
1.1751017e+3, 1.3509612e+2, -1559006.5, -1633168.0, -3058.493, -0.015453026, -0.12527531, -1558880.5, 57164.957, 0.0008407167, 10.000587, 9.999606 
1.1750897e+3, 1.4509565e+2, -1456071.9, -1522680.1, -8545.428, -0.053527173, -0.1369972, -1454993.0, 63055.94, 0.0002831922, 10.000578, 9.999694 
1.1750782e+3, 1.5509494e+2, -1359079.9, -1423142.5, -13564.201, -0.040142987, -0.17757379, -1356326.3, 63727.535, 0.000036181405, 10.000562, 9.999712 
1.1750665e+3, 1.6509455e+2, -1267113.5, -1327701.9, -20321.68, -0.03968816, -0.18708389, -1260928.8, 61127.992, 0.00000010132158, 10.000519, 9.999717 
1.1750545e+3, 1.7509446e+2, -1178924.0, -1233054.9, -18218.53, -0.051470477, -0.16994926, -1173363.5, 50694.297, 0.0, 10.000445, 9.999728 
1.1750427e+3, 1.8509422e+2, -1118691.6, -1196175.4, -25336.502, -0.051189125, -0.14666304, -1111142.3, 14919.314, 0.0, 10.00037, 9.999346 
1.1750308e+3, 1.9509386e+2, -1030173.06, -1100780.9, -25364.973, -0.0394717, -0.11888369, -1022005.7, 6062.248, 0.0, 10.000297, 9.999363 
1.1750188e+3, 2.0509343e+2, -934320.44, -995492.2, -30511.967, -0.030959021, -0.100425795, -921703.56, 8370.321, 0.0, 10.000245, 9.999438 
1.1750067e+3, 2.1509296e+2, -839285.4, -896605.06, -30040.1, -0.025400145, -0.09373835, -826426.6, 5652.7754, 0.0, 10.000216, 9.999458 
1.1749945e+3, 2.2509255e+2, -733525.0, -764816.8, -40015.63, -0.016483523, -0.09287245, -706205.3, 27878.441, 0.0, 10.000139, 9.999727 
1.1749822e+3, 2.3509222e+2, -652107.0, -672959.94, -39581.63, -0.0043008383, -0.09888385, -621601.6, 14485.098, 0.0, 10.000017, 9.999743 
1.17497e+3, 2.45092e+2, -565054.75, -574918.4, -34394.758, 0.008981399, -0.096007034, -535240.0, 2848.7268, 0.0, 9.99992, 9.999791 
1.1749579e+3, 2.550919e+2, -476239.4, -479077.38, -35634.89, 0.02323112, -0.08729835, -441995.25, -1905.4648, 0.0, 9.999846, 9.999811 
1.1749458e+3, 2.650917e+2, -380975.78, -372426.22, -29725.148, 0.036721244, -0.094368555, -346670.03, -4577.9893, 0.0, 9.999785, 9.9999 
1.1749338e+3, 2.7509138e+2, -288859.75, -275470.6, -27902.246, 0.049264394, -0.118510805, -253471.05, -9375.694, 0.0, 9.999738, 9.999915 
1.17492184e+3, 2.850914e+2, -214789.94, -216653.72, -21650.908, 0.057686925, -0.09357357, -194050.88, -47954.715, 0.0, 9.999692, 9.999668 
1.1749099e+3, 2.9509178e+2, -122554.8, -120245.27, -21215.629, 0.06263978, -0.023753418, -100153.0, -52058.496, 0.0, 9.999647, 9.999679 
1.1748982e+3, 3.0509087e+2, -85948.914, -82215.836, -11150.599, 0.08232825, -0.07771552, -72776.63, -72776.63, 0.0, 9.999584, 9.999636 
1.1748868e+3, 3.150916e+2, -75617.44, -43418.754, -16810.59, 0.11744026, 0.029591987, -36241.824, -36241.824, 0.0, 9.99951, 9.999938 
1.18511386e+3, 1.2510796e+2, -1616813.9, -1692232.3, -6756.486, -0.012690935, -0.11437651, -1616213.4, 97716.93, 0.0017273793, 10.000782, 9.999779 
1.1851023e+3, 1.3510753e+2, -1531839.6, -1618714.4, -4824.693, -0.017622828, -0.12000908, -1531572.5, 84361.23, 0.0009271282, 10.00077, 9.999617 
1.1850903e+3, 1.4510702e+2, -1436926.0, -1514135.4, -9708.974, -0.059306532, -0.13446645, -1435723.9, 82213.414, 0.00031980837, 10.000713, 9.999687 
1.18507884e+3, 1.5510628e+2, -1356272.6, -1422351.6, -9031.309, -0.042871695, -0.17870155, -1355060.5, 64881.887, 0.0000435681, 10.000585, 9.999706 
1.185067e+3, 1.6510585e+2, -1271519.4, -1333539.4, -15639.418, -0.03912466, -0.19030201, -1267798.8, 54146.984, 0.00000019883093, 10.000505, 9.999682 
1.1850551e+3, 1.751057e+2, -1176286.6, -1235287.9, -20415.215, -0.047865443, -0.174146, -1169911.5, 54035.96, 0.0, 10.00048, 9.999696 
1.1850431e+3, 1.8510553e+2, -1104414.1, -1184170.5, -29346.277, -0.049308017, -0.14619698, -1094780.0, 31171.0, 0.0, 10.000447, 9.999391 
1.18503116e+3, 1.951053e+2, -1011375.56, -1086452.5, -26070.527, -0.043635815, -0.10849324, -1003210.56, 24745.506, 0.0, 10.000404, 9.999409 
1.185019e+3, 2.051049e+2, -920987.44, -982822.2, -28978.719, -0.03664119, -0.09358825, -909529.7, 20431.918, 0.0, 10.000311, 9.999493 
1.1850069e+3, 2.1510431e+2, -841759.7, -891540.6, -25616.12, -0.028404105, -0.1030387, -830932.94, 1034.5038, 0.0, 10.000173, 9.999514 
1.18499465e+3, 2.2510387e+2, -746372.7, -776687.7, -36731.926, -0.018074824, -0.106652156, -721793.75, 12178.345, 0.0, 10.000076, 9.999675 
1.1849822e+3, 2.3510356e+2, -654917.0, -679724.3, -41085.047, -0.005790783, -0.10639905, -624404.06, 11571.35, 0.0, 10.000023, 9.999694 
1.18497e+3, 2.4510337e+2, -555699.9, -562675.6, -34048.875, 0.008614275, -0.100210726, -524960.7, 13016.364, 0.0, 9.999952, 9.999859 
1.1849578e+3, 2.5510335e+2, -468745.9, -467724.9, -27983.787, 0.02511367, -0.09078805, -440246.97, -270.0397, 0.0, 9.9998665, 9.999879 
1.18494555e+3, 2.6510313e+2, -379343.34, -371642.38, -19599.428, 0.03660953, -0.10118225, -355518.78, -13539.802, 0.0, 9.999798, 9.999898 
1.1849335e+3, 2.7510273e+2, -287843.75, -274992.6, -21934.387, 0.043069437, -0.13259824, -258561.98, -14578.954, 0.0, 9.999745, 9.999914 
1.1849215e+3, 2.8510275e+2, -214400.95, -213555.48, -17573.418, 0.052704986, -0.10889765, -196399.72, -50415.8, 0.0, 9.999683, 9.999693 
1.1849096e+3, 2.9510322e+2, -125537.45, -118814.72, -16454.77, 0.0658883, -0.034817588, -105381.5, -57399.78, 0.0, 9.999616, 9.999702 
1.1848978e+3, 3.0510235e+2, -86710.33, -85073.086, -5442.263, 0.08556183, -0.0835352, -80388.22, -80388.22, 0.0, 9.999591, 9.999612 
1.1848863e+3, 3.151033e+2, -60572.527, -32788.48, -11808.353, 0.1141759, 0.04860352, -28447.965, -28447.965, 0.0, 9.999599, 9.999967 
1.1951146e+3, 1.251193e+2, -1616747.6, -1692749.6, -11657.6875, -0.021668231, -0.116017744, -1614999.8, 98820.1, 0.0018763061, 10.000783, 9.999775 
1.19510315e+3, 1.3511892e+2, -1531485.1, -1618789.1, -5648.6807, -0.014272557, -0.115888454, -1531121.1, 84701.336, 0.0010180003, 10.000772, 9.999616 
1.1950911e+3, 1.4511843e+2, -1431534.5, -1503735.8, -14910.192, -0.05963389, -0.13222855, -1428576.5, 89248.914, 0.00035919753, 10.000715, 9.999758 
1.1950793e+3, 1.5511777e+2, -1351091.8, -1412445.0, -14564.365, -0.048314784, -0.17468943, -1347810.0, 72019.46, 0.00005194898, 10.0005865, 9.999774 
1.19506754e+3, 1.6511728e+2, -1279887.3, -1351829.0, -17220.678, -0.04151142, -0.18910235, -1275977.6, 45855.773, 0.00000035173326, 10.000508, 9.999556 
1.1950557e+3, 1.7511694e+2, -1184327.8, -1252836.6, -21795.62, -0.03980756, -0.18114829, -1177981.5, 45856.063, 0.0, 10.000482, 9.999576 
1.19504355e+3, 1.8511675e+2, -1097852.8, -1171304.3, -31284.887, -0.042420182, -0.15023753, -1086334.1, 39506.984, 0.0, 10.000449, 9.999478 
1.1950315e+3, 1.9511677e+2, -1004719.9, -1073358.3, -28075.314, -0.04877961, -0.09895549, -994699.2, 33144.68, 0.0, 10.000405, 9.999498 
1.19501926e+3, 2.0511639e+2, -914094.56, -969260.06, -34431.965, -0.04631855, -0.0896688, -897559.6, 32288.938, 0.0, 10.000313, 9.999585 
1.195007e+3, 2.1511568e+2, -834938.06, -878206.06, -30968.98, -0.03556807, -0.1226641, -818795.0, 13060.075, 0.0, 10.0001745, 9.999604 
1.1949946e+3, 2.2511521e+2, -754189.75, -793727.7, -38864.93, -0.020726329, -0.1270416, -730354.9, 3505.1233, 0.0, 10.000079, 9.9995575 
1.1949823e+3, 2.3511499e+2, -662378.06, -695971.2, -43149.176, -0.002082032, -0.106232986, -632871.5, 2991.802, 0.0, 10.000025, 9.999582 
1.1949699e+3, 2.4511483e+2, -543687.2, -538456.56, -37157.5, 0.014760703, -0.10027058, -503822.47, 34042.055, 0.0, 9.999954, 10.000025 
1.19495764e+3, 2.5511476e+2, -457014.06, -443952.94, -30857.744, 0.029981978, -0.11077022, -418942.28, 20921.266, 0.0, 9.999867, 10.000042 
1.1949454e+3, 2.6511455e+2, -383288.53, -380349.88, -21116.99, 0.03827314, -0.12914309, -360651.16, -18785.564, 0.0, 9.999799, 9.999839 
1.1949332e+3, 2.7511412e+2, -291704.38, -283431.94, -23452.195, 0.03996521, -0.15687482, -263754.0, -19883.64, 0.0, 9.999746, 9.999856 
1.1949211e+3, 2.851142e+2, -212137.7, -209198.42, -19603.557, 0.05074159, -0.12427976, -191009.5, -45138.664, 0.0, 9.999684, 9.9997225 
1.1949092e+3, 2.9511482e+2, -123512.32, -114862.18, -18367.09, 0.07021944, -0.03704617, -100317.8, -52450.613, 0.0, 9.999616, 9.99973 
1.19489744e+3, 3.0511394e+2, -88800.95, -89702.92, -4497.463, 0.084043734, -0.08706342, -84731.92, -84731.92, 0.0, 9.999591, 9.99958 
1.1948859e+3, 3.151149e+2, -58552.5, -29006.268, -10973.734, 0.09694985, 0.048631612, -25376.455, -25376.455, 0.0, 9.9996, 9.999993 
1.2051154e+3, 1.251308e+2, -1582391.3, -1675047.6, -4624.027, -0.035471305, -0.1143032, -1582161.1, 131546.28, 0.002031728, 10.001017, 9.9997835 
1.205104e+3, 1.3513042e+2, -1508125.6, -1606013.8, 6142.229, -0.01578348, -0.11503426, -1507741.8, 107968.02, 0.001113559, 10.000928, 9.999628 
1.2050918e+3, 1.451299e+2, -1414878.1, -1496566.0, -8512.627, -0.060485285, -0.134551, -1414000.4, 103712.51, 0.0004014388, 10.000834, 9.999749 
1.2050799e+3, 1.5512928e+2, -1332042.0, -1404128.3, -14489.648, -0.04806388, -0.17141187, -1329238.5, 90477.88, 0.000061428385, 10.000723, 9.999764 
1.2050681e+3, 1.6512878e+2, -1267293.0, -1347476.4, -14411.023, -0.039803583, -0.18678647, -1264781.6, 56938.914, 0.00000057087306, 10.000603, 9.999539 
1.20505616e+3, 1.7512834e+2, -1187081.9, -1255975.1, -11278.61, -0.036318704, -0.18640392, -1185282.5, 38443.02, 0.0, 10.000472, 9.9995575 
1.2050441e+3, 1.8512812e+2, -1109591.1, -1173463.9, -19220.873, -0.039036334, -0.15977389, -1104253.1, 21476.104, 0.0, 10.000355, 9.999509 
1.2050319e+3, 1.9512816e+2, -1025090.75, -1079633.1, -20734.088, -0.047312286, -0.1097654, -1018103.8, 9628.026, 0.0, 10.000252, 9.999529 
1.2050195e+3, 2.0512787e+2, -928283.4, -969276.56, -31140.953, -0.04667986, -0.09718689, -911499.0, 18236.719, 0.0, 10.000188, 9.999645 
1.20500706e+3, 2.1512727e+2, -833285.3, -870752.5, -30477.346, -0.037685093, -0.12248192, -816244.4, 15496.471, 0.0, 10.000158, 9.999663 
1.2049948e+3, 2.2512682e+2, -749366.2, -793452.56, -34823.65, -0.022382045, -0.12673828, -730195.44, 3550.1616, 0.0, 10.000122, 9.999538 
1.2049823e+3, 2.3512651e+2, -655950.44, -694633.94, -32089.188, -0.001128563, -0.11296802, -637824.6, -2074.891, 0.0, 10.000077, 9.999565 
1.20496996e+3, 2.4512632e+2, -533186.7, -530841.94, -29629.713, 0.015968861, -0.11144347, -502361.44, 35389.797, 0.0, 10.000016, 10.000046 
1.2049575e+3, 2.5512627e+2, -444949.2, -435418.2, -34518.344, 0.029147198, -0.12398038, -405337.97, 34412.13, 0.0, 9.99994, 10.000065 
1.2049452e+3, 2.6512605e+2, -372151.75, -372489.75, -26497.537, 0.035815917, -0.14044951, -345822.7, -4070.9636, 0.0, 9.9998665, 9.99986 
1.20493285e+3, 2.751257e+2, -282891.44, -276485.34, -22953.418, 0.036406625, -0.16254029, -256512.56, -12756.736, 0.0, 9.999797, 9.999879 
1.2049208e+3, 2.8512585e+2, -205027.52, -207245.95, -17949.45, 0.04861522, -0.12614517, -188153.05, -42397.043, 0.0, 9.999741, 9.999708 
1.2049088e+3, 2.9512647e+2, -113177.3, -111339.555, -20208.668, 0.07172129, -0.03723738, -92028.88, -44276.453, 0.0, 9.999695, 9.999716 
1.20489694e+3, 3.0512547e+2, -88275.734, -90648.91, -7580.154, 0.083074495, -0.097970136, -81789.85, -81789.85, 0.0, 9.999601, 9.999568 
1.20488524e+3, 3.1512636e+2, -75157.664, -31133.072, -12893.341, 0.08933487, 0.031792484, -27634.988, -27634.988, 0.0, 9.999462, 10.000044 
1.2151162e+3, 1.2514251e+2, -1581021.1, -1673154.4, -12598.9, -0.05370017, -0.1089444, -1579329.4, 134263.17, 0.0021936102, 10.0010195, 9.999796 
1.2151048e+3, 1.3514207e+2, -1506578.5, -1603667.6, 2147.007, -0.022246411, -0.117611356, -1506531.0, 109064.2, 0.0012136708, 10.00093, 9.999643 
1.2150926e+3, 1.4514148e+2, -1420624.8, -1509354.1, -13283.745, -0.062108558, -0.14153548, -1418678.8, 98920.49, 0.00044641417, 10.000837, 9.999661 
1.2150807e+3, 1.5514089e+2, -1337522.5, -1416474.0, -19243.096, -0.042325877, -0.16874981, -1333082.0, 86520.984, 0.00007201624, 10.000726, 9.99968 
1.2150687e+3, 1.6514038e+2, -1260930.3, -1335227.5, -19861.844, -0.034163993, -0.1833038, -1255954.0, 65652.96, 0.0000008702971, 10.000606, 9.999622 
1.2150566e+3, 1.7513995e+2, -1180827.6, -1244000.6, -16689.922, -0.03734618, -0.18997248, -1176689.4, 46921.65, 0.0, 10.000475, 9.9996395 
1.2150444e+3, 1.8513964e+2, -1111399.8, -1178248.3, -23520.588, -0.039082807, -0.17478491, -1103953.5, 21661.852, 0.0, 10.000358, 9.999475 
1.2150321e+3, 1.9513948e+2, -1026724.06, -1084017.8, -24826.322, -0.039392035, -0.14080949, -1017463.25, 10156.548, 0.0, 10.000255, 9.999498 
1.21501975e+3, 2.051393e+2, -926379.4, -966228.8, -32493.37, -0.037952323, -0.11603265, -908188.3, 21434.645, 0.0, 10.000191, 9.999665 
1.2150073e+3, 2.1513912e+2, -831245.44, -867353.56, -31737.115, -0.03488098, -0.10238733, -812786.56, 18838.143, 0.0, 10.000161, 9.999685 
1.21499486e+3, 2.2513872e+2, -743852.0, -782834.6, -36541.973, -0.023107318, -0.10574396, -721928.0, 11700.72, 0.0, 10.000124, 9.999611 
1.2149824e+3, 2.3513813e+2, -650554.3, -684198.8, -33677.742, -0.0030112457, -0.12681916, -629731.1, 5903.545, 0.0, 10.00008, 9.999637 
1.2149698e+3, 2.4513784e+2, -541824.4, -549523.6, -32392.36, 0.012091863, -0.13386475, -513053.72, 24583.559, 0.0, 10.000018, 9.999917 
1.2149574e+3, 2.5513783e+2, -453304.63, -453489.75, -37108.76, 0.022513691, -0.13027565, -416288.3, 23348.322, 0.0, 9.999942, 9.999941 
1.21494494e+3, 2.651377e+2, -364954.1, -358188.2, -28682.41, 0.02911538, -0.1348047, -332689.9, 8947.54, 0.0, 9.999867, 9.999958 
1.21493265e+3, 2.7513754e+2, -275923.88, -262527.4, -25026.908, 0.031846277, -0.14905965, -243317.88, 321.69357, 0.0, 9.999798, 9.999975 
1.2149205e+3, 2.8513768e+2, -209325.0, -216557.34, -19109.613, 0.045748655, -0.11406978, -193492.42, -47852.79, 0.0, 9.999742, 9.999644 
1.2149086e+3, 2.9513812e+2, -117318.48, -120417.95, -21502.422, 0.07062694, -0.035651185, -97310.016, -49672.254, 0.0, 9.999696, 9.999654 
1.2148966e+3, 3.0513692e+2, -88045.1, -90393.32, -12276.28, 0.08304043, -0.11691173, -76886.914, -76886.914, 0.0, 9.999601, 9.999571 
1.21488474e+3, 3.1513765e+2, -70700.67, -21435.355, -17649.125, 0.0908565, -0.001296227, -15765.217, -15765.217, 0.0, 9.999459, 10.000113 
1.2251173e+3, 1.2515436e+2, -1553321.9, -1673463.0, -1175.2627, -0.05928494, -0.1144707, -1553310.4, 160165.19, 0.0023606704, 10.00127, 9.999672 
1.2251058e+3, 1.3515384e+2, -1485438.6, -1606035.0, 7932.5947, -0.025606217, -0.11874005, -1484919.0, 130560.586, 0.0013175874, 10.001131, 9.99953 
1.2250935e+3, 1.4515315e+2, -1398195.5, -1498771.5, -9953.325, -0.068038225, -0.14551674, -1397220.0, 120264.766, 0.0004937232, 10.000994, 9.999658 
1.2250814e+3, 1.5515257e+2, -1321753.9, -1409044.3, -10300.351, -0.04628155, -0.17091067, -1320554.9, 98933.44, 0.000083587045, 10.000835, 9.999677 
1.2250693e+3, 1.6515209e+2, -1245201.9, -1326179.8, -10048.61, -0.035505585, -0.1844251, -1243973.5, 77518.44, 0.0000012652538, 10.000709, 9.999635 
1.2250571e+3, 1.7515168e+2, -1159752.1, -1232111.8, -12307.317, -0.035719246, -0.19108371, -1157716.1, 65779.664, 0.0, 10.000613, 9.999654 
1.2250448e+3, 1.8515134e+2, -1088438.5, -1165238.5, -19897.703, -0.036972634, -0.180138, -1083589.5, 41910.688, 0.0, 10.000508, 9.999491 
1.2250324e+3, 1.951511e+2, -1005904.0, -1072062.8, -17766.479, -0.038984004, -0.15427628, -1001434.8, 26070.076, 0.0, 10.000391, 9.999515 
1.22502e+3, 2.0515096e+2, -916083.75, -963733.06, -24316.143, -0.036806956, -0.12723272, -905865.94, 23642.012, 0.0, 10.000273, 9.999642 
1.2250075e+3, 2.1515086e+2, -833737.2, -870784.3, -27122.725, -0.030784149, -0.10165372, -819416.2, 12093.139, 0.0, 10.0001545, 9.999664 
1.224995e+3, 2.2515048e+2, -744917.0, -778072.1, -33049.625, -0.020178827, -0.10464735, -724520.4, 8992.803, 0.0, 10.000095, 9.999657 
1.22498244e+3, 2.3514985e+2, -645699.25, -676592.75, -32568.121, -0.0051561524, -0.13610916, -625100.44, 10418.705, 0.0, 10.000092, 9.999682 
1.22496985e+3, 2.4514951e+2, -537931.2, -554114.1, -30873.506, 0.0078103654, -0.14605285, -514106.44, 23415.623, 0.0, 10.000074, 9.999859 
1.2249574e+3, 2.5514945e+2, -442122.44, -454164.88, -30679.447, 0.018862942, -0.13847707, -416878.9, 22643.154, 0.0, 10.000046, 9.999886 
1.2249448e+3, 2.651494e+2, -346516.03, -341181.9, -23022.488, 0.025188996, -0.13879192, -320672.5, 20850.023, 0.0, 9.999961, 10.000029 
1.2249324e+3, 2.7514935e+2, -267795.88, -250648.55, -21638.445, 0.026757501, -0.14856592, -235947.13, 7576.1265, 0.0, 9.999821, 10.000045 
1.22492015e+3, 2.8514954e+2, -215469.33, -225841.66, -14451.53, 0.03855707, -0.1124043, -205301.56, -59778.418, 0.0, 9.999727, 9.999587 
1.2249081e+3, 2.951499e+2, -123865.23, -129957.82, -16691.807, 0.06051262, -0.036350045, -109944.016, -62421.73, 0.0, 9.99968, 9.999596 
1.2248961e+3, 3.051485e+2, -87217.695, -97186.64, -11751.304, 0.07603174, -0.1274665, -79437.45, -79437.45, 0.0, 9.9996395, 9.999505 
1.22488424e+3, 3.1514916e+2, -50273.79, -11019.443, -22667.373, 0.094807126, -0.015668916, -662.69244, -662.69244, 0.0, 9.9995985, 10.000116 
1.23511866e+3, 1.2516637e+2, -1571151.6, -1710911.5, -11676.439, -0.053001463, -0.13050732, -1570182.8, 143173.5, 0.0025307094, 10.001271, 9.999415 
1.23510696e+3, 1.3516577e+2, -1501893.4, -1641057.3, 2117.192, -0.026062258, -0.11835889, -1501861.3, 113501.28, 0.0014240493, 10.001133, 9.999289 
1.2350944e+3, 1.4516498e+2, -1392675.8, -1488235.0, -16307.885, -0.07808628, -0.14652878, -1389969.4, 127399.64, 0.00054276333, 10.000996, 9.999729 
1.23508215e+3, 1.5516442e+2, -1316390.4, -1398905.5, -16866.39, -0.05970892, -0.17778417, -1313075.9, 106296.164, 0.00009593835, 10.000838, 9.999745 
1.2350699e+3, 1.6516393e+2, -1248813.9, -1334747.1, -14245.049, -0.0437051, -0.19006662, -1246514.0, 74861.54, 0.0000017602412, 10.000711, 9.999575 
1.23505786e+3, 1.7516354e+2, -1163148.3, -1240172.0, -16325.662, -0.0316092, -0.189817, -1159830.8, 63548.73, 0.0, 10.000616, 9.999598 
1.2350454e+3, 1.8516324e+2, -1083779.8, -1156478.1, -24673.19, -0.032916058, -0.17598557, -1076196.8, 49186.582, 0.0, 10.000511, 9.999551 
1.2350327e+3, 1.9516307e+2, -1001281.56, -1063364.8, -22498.07, -0.046067175, -0.15034251, -993985.94, 33400.95, 0.0, 10.000393, 9.999574 
1.23502016e+3, 2.0516282e+2, -920782.56, -974379.5, -28984.129, -0.043166164, -0.13094635, -908106.5, 21284.117, 0.0, 10.000276, 9.999569 
1.2350077e+3, 2.1516252e+2, -838252.06, -881039.0, -31623.389, -0.025406742, -0.12042361, -821465.44, 9929.102, 0.0, 10.000157, 9.999594 
1.2349951e+3, 2.251621e+2, -743422.5, -775819.25, -33269.773, -0.013683401, -0.12346955, -722617.3, 10781.4795, 0.0, 10.000098, 9.999672 
1.2349824e+3, 2.3516162e+2, -644308.8, -674491.6, -32686.357, -0.007688754, -0.14065422, -623398.2, 12004.916, 0.0, 10.000093, 9.999697 
1.2349699e+3, 2.4516132e+2, -536965.6, -552914.6, -31744.346, 0.0030128544, -0.14789185, -512209.47, 25196.2, 0.0, 10.000076, 9.9998665 
1.2349574e+3, 2.551612e+2, -441206.97, -452964.72, -31411.352, 0.0180612, -0.14864554, -415129.1, 24277.453, 0.0, 10.000048, 9.999893 
1.2349448e+3, 2.6516113e+2, -343434.06, -335353.7, -27758.648, 0.023890175, -0.15261585, -311342.75, 30064.322, 0.0, 9.999962, 10.000069 
1.2349321e+3, 2.7516115e+2, -264782.3, -244981.95, -26245.563, 0.021208772, -0.16161555, -226831.42, 16575.695, 0.0, 9.999822, 10.000084 
1.2349198e+3, 2.8516132e+2, -219336.5, -234278.9, -15683.501, 0.026880633, -0.12170583, -209435.56, -64028.734, 0.0, 9.999728, 9.999529 
1.2349076e+3, 2.9516172e+2, -128163.83, -138964.31, -17872.188, 0.040327832, -0.0393021, -114893.83, -67487.586, 0.0, 9.999679, 9.999535 
1.23489566e+3, 3.0516025e+2, -97279.39, -118119.055, -12509.39, 0.061105166, -0.1291272, -91418.63, -91418.63, 0.0, 9.999638, 9.999363 
1.2348839e+3, 3.1516084e+2, -54918.37, -21136.238, -23494.332, 0.10131621, -0.00895745, -9091.311, -9091.311, 0.0, 9.999599, 10.000048 
1.2451199e+3, 1.2517837e+2, -1564588.8, -1712029.6, -21841.389, -0.059422664, -0.14164722, -1561421.3, 151816.47, 0.002701762, 10.001337, 9.999374 
1.245108e+3, 1.3517775e+2, -1491632.0, -1638935.3, 12004.602, -0.026140671, -0.1282001, -1490660.1, 124584.375, 0.0015319061, 10.001217, 9.999262 
1.24509536e+3, 1.4517696e+2, -1376445.9, -1480138.1, -2103.3423, -0.078524955, -0.15558816, -1376403.3, 140848.13, 0.00059303787, 10.001107, 9.99973 
1.245083e+3, 1.5517652e+2, -1294663.5, -1388041.4, -8261.48, -0.0610114, -0.17504385, -1293938.3, 125315.2, 0.00010892868, 10.000988, 9.999747 
1.2450707e+3, 1.6517606e+2, -1228629.3, -1324943.4, -5560.9243, -0.04632949, -0.18433864, -1228309.3, 92947.43, 0.0000023447426, 10.000852, 9.999575 
1.2450585e+3, 1.751756e+2, -1151072.1, -1234278.3, -3599.1167, -0.035938054, -0.18938887, -1150916.8, 72344.34, 0.0, 10.0007, 9.999597 
1.2450459e+3, 1.8517527e+2, -1077294.0, -1154602.1, -12859.057, -0.035556033, -0.18045402, -1075211.3, 50054.027, 0.0, 10.000563, 9.999538 
1.2450332e+3, 1.9517504e+2, -996098.9, -1062046.5, -16500.305, -0.043981362, -0.15931897, -992200.8, 35068.11, 0.0, 10.000436, 9.999561 
1.2450205e+3, 2.0517474e+2, -915206.06, -973018.56, -23183.498, -0.038640905, -0.1418488, -907057.7, 22215.238, 0.0, 10.00032, 9.999556 
1.24500796e+3, 2.1517444e+2, -830579.4, -878479.9, -21565.098, -0.020502891, -0.1308376, -822301.25, 8975.864, 0.0, 10.0002165, 9.999582 
1.2449952e+3, 2.2517404e+2, -736958.9, -773500.4, -18787.822, -0.011262187, -0.1314767, -729022.7, 4258.572, 0.0, 10.000147, 9.999663 
1.24498256e+3, 2.351736e+2, -642226.94, -674093.44, -20256.773, -0.010437569, -0.14438324, -632388.0, 2897.2324, 0.0, 10.000112, 9.99969 
1.24497e+3, 2.4517329e+2, -536066.25, -550500.94, -20586.713, -0.0013373255, -0.151264, -521468.38, 15819.385, 0.0, 10.000075, 9.999883 
1.2449574e+3, 2.5517315e+2, -441583.28, -451047.28, -19935.504, 0.01538304, -0.15542538, -425825.88, 13462.934, 0.0, 10.000037, 9.999911 
1.2449447e+3, 2.651731e+2, -342771.88, -335953.22, -21226.402, 0.020543415, -0.1591583, -317864.1, 23425.31, 0.0, 9.999971, 10.00006 
1.2449319e+3, 2.7517313e+2, -257100.77, -242170.4, -23662.39, 0.015108792, -0.16444618, -224823.55, 18465.8, 0.0, 9.999879, 10.000075 
1.24491945e+3, 2.8517333e+2, -209753.23, -231316.97, -11291.903, 0.019119391, -0.12193717, -204922.42, -59633.37, 0.0, 9.999802, 9.999514 
1.2449072e+3, 2.951737e+2, -121216.99, -137518.23, -10542.317, 0.031765606, -0.03813664, -116041.96, -68753.414, 0.0, 9.999735, 9.9995165 
1.24489516e+3, 3.0517218e+2, -92101.375, -124022.43, 557.1841, 0.050733045, -0.12903456, -92091.66, -92091.66, 0.0, 9.999711, 9.999287 
1.24488354e+3, 3.1517276e+2, -37000.48, -12346.79, -5513.16, 0.09070569, -0.0033743181, -11170.078, -11170.078, 0.0, 9.9997225, 10.000048 
1.255121e+3, 1.251904e+2, -1553463.5, -1689224.1, -31365.39, -0.07774697, -0.14802127, -1546567.4, 166552.08, 0.002872962, 10.001337, 9.999533 
1.2551093e+3, 1.3518983e+2, -1479517.0, -1614329.6, 6913.4956, -0.025886314, -0.1479227, -1479163.4, 135961.75, 0.001640651, 10.001219, 9.999432 
1.2550965e+3, 1.4518914e+2, -1380995.9, -1490282.3, -7245.7144, -0.069828495, -0.17242068, -1380517.6, 136613.75, 0.0006444068, 10.001109, 9.9996605 
1.2550841e+3, 1.551889e+2, -1298942.5, -1397844.3, -13446.58, -0.050691165, -0.16305429, -1297146.9, 121985.37, 0.00012257921, 10.00099, 9.99968 
1.2550716e+3, 1.6518849e+2, -1224537.6, -1317436.5, -11830.723, -0.043655153, -0.16764507, -1223054.6, 98080.52, 0.0000030126384, 10.0008545, 9.999625 
1.255059e+3, 1.7518792e+2, -1147070.3, -1226992.8, -9761.245, -0.048582654, -0.18979919, -1145895.3, 77244.87, 0.0, 10.000704, 9.999646 
1.2550464e+3, 1.8518741e+2, -1083147.0, -1167745.1, -18026.102, -0.04476522, -0.19342065, -1079466.1, 45679.406, 0.0, 10.000566, 9.999447 
1.2550338e+3, 1.95187e+2, -1001724.2, -1074656.8, -21539.107, -0.03288666, -0.18112327, -995838.1, 31312.77, 0.0, 10.000438, 9.999475 
1.255021e+3, 2.0518674e+2, -911853.6, -966939.1, -27321.455, -0.023469316, -0.15985034, -900601.2, 28553.482, 0.0, 10.000323, 9.999597 
1.2550081e+3, 2.1518663e+2, -827254.0, -872443.25, -25570.04, -0.016234748, -0.1328231, -815726.1, 15430.674, 0.0, 10.000218, 9.999623 
1.2549953e+3, 2.2518627e+2, -739029.4, -778666.8, -20137.37, -0.013033748, -0.12867177, -730593.94, 2566.6165, 0.0, 10.00015, 9.999627 
1.2549827e+3, 2.3518574e+2, -644192.1, -678979.2, -21506.188, -0.013438774, -0.14737825, -633926.1, 1239.5049, 0.0, 10.000114, 9.999656 
1.25497e+3, 2.4518542e+2, -534184.7, -547319.7, -21780.377, -0.0052990573, -0.15622044, -518003.22, 19165.197, 0.0, 10.000077, 9.999905 
1.2549575e+3, 2.551853e+2, -439759.72, -447912.84, -20983.764, 0.010713459, -0.15881944, -422460.22, 16708.785, 0.0, 10.000039, 9.999932 
1.2549447e+3, 2.6518527e+2, -346982.16, -345279.2, -24140.51, 0.015000056, -0.15833686, -321975.16, 19194.496, 0.0, 9.999972, 9.999996 
1.2549317e+3, 2.7518532e+2, -261269.39, -251294.67, -26450.945, 0.008162419, -0.15674017, -229365.0, 13805.129, 0.0, 9.99988, 10.000012 
1.2549192e+3, 2.8518552e+2, -208120.84, -228285.75, -13098.625, 0.015152521, -0.11280363, -201673.64, -56503.58, 0.0, 9.999802, 9.999535 
1.254907e+3, 2.951859e+2, -119563.2, -134555.4, -12231.958, 0.035387676, -0.032981694, -112713.14, -65543.67, 0.0, 9.999736, 9.999537 
1.2548947e+3, 3.051843e+2, -92641.97, -125561.414, 1789.3722, 0.04505578, -0.12743558, -92544.99, -92544.99, 0.0, 9.999711, 9.999276 
1.254883e+3, 3.151849e+2, -32155.943, -2499.8242, -4111.1436, 0.061175015, 0.0024393883, -1940.4586, -1940.4586, 0.0, 9.999722, 10.000116 
1.2651221e+3, 1.2520269e+2, -1563805.3, -1690749.6, -16793.877, -0.087282605, -0.15856273, -1561621.1, 151377.77, 0.0030443578, 10.001252, 9.999562 
1.2651105e+3, 1.3520224e+2, -1478660.8, -1608284.3, 16856.945, -0.028919956, -0.14978331, -1476504.5, 138498.72, 0.0017503432, 10.001202, 9.99948 
1.2650977e+3, 1.4520152e+2, -1378887.3, -1491229.0, -981.91327, -0.070987955, -0.17549698, -1378878.6, 138130.81, 0.00069703115, 10.001134, 9.999641 
1.265085e+3, 1.552013e+2, -1293547.4, -1397200.4, -3970.6443, -0.0525576, -0.16470097, -1293395.5, 125615.15, 0.00013704965, 10.001038, 9.9996605 
1.2650725e+3, 1.6520092e+2, -1214336.6, -1312350.4, -3937.5916, -0.045821946, -0.16618589, -1214178.6, 106834.875, 0.0000037895563, 10.000925, 9.999625 
1.2650597e+3, 1.7520037e+2, -1133482.8, -1220374.8, -5979.2354, -0.050480057, -0.18410972, -1133073.1, 89944.914, 0.0, 10.000798, 9.999645 
1.265047e+3, 1.8519983e+2, -1072511.1, -1165830.0, -14300.188, -0.04430127, -0.19107535, -1070369.0, 54654.766, 0.0, 10.000653, 9.999416 
1.2650342e+3, 1.9519928e+2, -996184.4, -1075263.1, -13613.775, -0.02809197, -0.18901937, -993906.3, 33123.72, 0.0, 10.000492, 9.999444 
1.2650214e+3, 2.0519896e+2, -906045.4, -967772.94, -18309.652, -0.018393336, -0.16979502, -901023.0, 28011.264, 0.0, 10.0003805, 9.999562 
1.2650084e+3, 2.1519887e+2, -815787.0, -870455.2, -22619.713, -0.014668207, -0.13713405, -807641.5, 23394.78, 0.0, 10.000314, 9.99959 
1.2649956e+3, 2.2519854e+2, -722782.56, -768047.2, -16590.629, -0.013042989, -0.13205598, -717353.0, 15686.984, 0.0, 10.000251, 9.999651 
1.2649828e+3, 2.3519798e+2, -631677.3, -670109.7, -13748.114, -0.01319577, -0.15426189, -627265.75, 7779.304, 0.0, 10.000189, 9.99968 
1.2649702e+3, 2.4519768e+2, -525559.1, -541761.25, -12498.512, -0.0062683644, -0.16403487, -518765.9, 18281.799, 0.0, 10.000132, 9.999916 
1.2649573e+3, 2.551976e+2, -433467.66, -443545.38, -12945.942, 0.007159056, -0.16506806, -424614.5, 14433.511, 0.0, 10.000077, 9.999944 
1.2649445e+3, 2.6519758e+2, -344667.94, -348625.7, -17464.238, 0.008768973, -0.16179387, -329070.8, 11978.003, 0.0, 10.000009, 9.999955 
1.2649316e+3, 2.751976e+2, -257268.14, -253542.9, -18276.39, -0.0008358013, -0.15622571, -237034.47, 6015.3726, 0.0, 9.999927, 9.999974 
1.2649189e+3, 2.8519782e+2, -200168.48, -220305.7, -3282.172, 0.0046947175, -0.11068034, -199647.02, -54597.324, 0.0, 9.99984, 9.999571 
1.2649067e+3, 2.951982e+2, -115476.0, -128508.59, -1426.3136, 0.024640333, -0.03163392, -115321.73, -68273.24, 0.0, 9.999747, 9.999573 
1.2648945e+3, 3.0519658e+2, -98083.19, -127271.16, 15459.847, 0.030735616, -0.13240018, -91417.086, -91417.086, 0.0, 9.999671, 9.999283 
1.2648824e+3, 3.1519714e+2, -42582.38, 2633.2893, 10818.504, 0.042811602, -0.009375944, 5088.4595, 5088.4595, 0.0, 9.999608, 10.000206 
1.2751234e+3, 1.2521522e+2, -1569933.4, -1704481.0, -23942.686, -0.088432, -0.17269795, -1565799.9, 147075.92, 0.003216271, 10.001255, 9.999467 
1.2751116e+3, 1.35215e+2, -1482884.9, -1618263.5, 14294.949, -0.03525087, -0.13460284, -1481391.9, 133486.33, 0.0018611854, 10.001205, 9.999411 
1.2750988e+3, 1.452142e+2, -1376643.9, -1487677.3, -5284.964, -0.08169134, -0.16550344, -1376392.9, 140492.34, 0.0007511169, 10.001138, 9.999665 
1.2750861e+3, 1.5521374e+2, -1291563.1, -1394017.8, -8284.318, -0.06623898, -0.17957327, -1290897.6, 127990.77, 0.0001525157, 10.0010395, 9.999681 
1.2750733e+3, 1.6521336e+2, -1217683.6, -1320214.6, -9301.91, -0.052705172, -0.17945078, -1216846.5, 104044.91, 0.000004722807, 10.000928, 9.999571 
1.2750605e+3, 1.7521302e+2, -1136710.9, -1228117.9, -11229.501, -0.041911114, -0.17243652, -1135351.5, 87543.09, 0.0, 10.000801, 9.999591 
1.2750477e+3, 1.8521251e+2, -1070406.3, -1162498.0, -20780.107, -0.03447054, -0.17372996, -1065934.5, 58965.195, 0.0, 10.000657, 9.999439 
1.2750347e+3, 1.9521189e+2, -994174.0, -1072122.1, -19899.025, -0.029631365, -0.18320757, -989387.94, 37518.316, 0.0, 10.000495, 9.999465 
1.2750217e+3, 2.0521143e+2, -913697.94, -984620.3, -20990.455, -0.023376789, -0.1718288, -907951.2, 20960.318, 0.0, 10.000383, 9.999446 
1.2750088e+3, 2.1521118e+2, -823138.0, -886596.25, -25223.824, -0.015830535, -0.1437987, -814333.44, 16581.889, 0.0, 10.000317, 9.999478 
1.2749958e+3, 2.252108e+2, -716909.3, -756689.8, -18922.71, -0.011339899, -0.14159288, -709346.1, 23573.342, 0.0, 10.000253, 9.999728 
1.274983e+3, 2.3521031e+2, -625746.0, -658556.94, -15927.325, -0.00977954, -0.16506453, -619286.25, 15637.313, 0.0, 10.000191, 9.999759 
1.2749702e+3, 2.4521004e+2, -525597.06, -542582.5, -14286.036, -0.0043304237, -0.17477624, -517470.0, 19455.76, 0.0, 10.000133, 9.99991 
1.2749574e+3, 2.5520998e+2, -433482.16, -444208.78, -14589.202, 0.0046545537, -0.17422436, -423301.66, 15624.349, 0.0, 10.000079, 9.999939 
1.2749444e+3, 2.6520994e+2, -345991.0, -351925.28, -19981.066, 0.0017714227, -0.16962297, -328757.97, 12169.121, 0.0, 10.00001, 9.999932 
1.2749314e+3, 2.7520996e+2, -258367.45, -256387.17, -20627.658, -0.012005989, -0.16321948, -236725.9, 6202.768, 0.0, 9.9999275, 9.999955 
1.2749186e+3, 2.852102e+2, -196741.16, -213571.23, -6044.777, -0.012614558, -0.11590255, -194795.11, -49866.9, 0.0, 9.99984, 9.999618 
1.2749061e+3, 2.9521066e+2, -112418.63, -122172.86, -4134.195, -0.0012509787, -0.03416021, -110902.17, -63976.324, 0.0, 9.999746, 9.999618 
1.2748937e+3, 3.0520898e+2, -96934.74, -124710.37, 13876.237, 0.007284943, -0.14415279, -91190.41, -91190.41, 0.0, 9.999669, 9.999303 
1.274882e+3, 3.152094e+2, -35695.09, 17179.123, 9523.016, 0.035881292, -0.038934436, 18841.988, 18841.988, 0.0, 9.999605, 10.000308 
1.2851247e+3, 1.2522814e+2, -1555446.4, -1707430.1, -17034.059, -0.08840414, -0.16046178, -1553560.6, 159188.3, 0.0033890037, 10.0014, 9.999376 
1.2851128e+3, 1.3522772e+2, -1464049.4, -1615644.1, 25968.607, -0.04059961, -0.13508794, -1459724.4, 155028.97, 0.0019731622, 10.001364, 9.9993515 
1.2850998e+3, 1.4522684e+2, -1358215.3, -1478303.4, 2060.9897, -0.08619505, -0.17460646, -1358179.9, 158581.5, 0.0008066489, 10.001264, 9.999668 
1.285087e+3, 1.5522642e+2, -1285070.9, -1390565.9, -2884.3682, -0.066335864, -0.18312107, -1284992.1, 133771.81, 0.00016903538, 10.001084, 9.999683 
1.2850742e+3, 1.6522606e+2, -1214915.8, -1321610.0, -2453.1184, -0.050684076, -0.17971201, -1214859.4, 105907.414, 0.00000585612, 10.00096, 9.999544 
1.2850614e+3, 1.752257e+2, -1126040.4, -1225609.0, -2527.8142, -0.03959759, -0.17155813, -1125976.3, 96794.02, 0.0, 10.000887, 9.999566 
1.2850484e+3, 1.8522517e+2, -1052717.0, -1156391.9, -14604.746, -0.032690577, -0.17248452, -1050698.9, 74076.67, 0.0, 10.000791, 9.999415 
1.2850353e+3, 1.9522452e+2, -970775.7, -1063191.4, -17477.379, -0.029206641, -0.1822707, -967580.9, 59201.313, 0.0, 10.000668, 9.999442 
1.285022e+3, 2.0522398e+2, -896302.2, -980184.6, -16529.893, -0.023003807, -0.17601164, -893162.3, 35625.645, 0.0, 10.000521, 9.99941 
1.2850091e+3, 2.152236e+2, -820411.56, -888988.44, -14966.833, -0.01425115, -0.15764214, -817287.4, 13505.478, 0.0, 10.000353, 9.999444 
1.2849961e+3, 2.2522321e+2, -715123.8, -753200.7, -5726.217, -0.009880247, -0.15527268, -714281.3, 18515.713, 0.0, 10.000255, 9.99975 
1.2849832e+3, 2.3522285e+2, -619575.44, -652700.44, -7384.3027, -0.009745812, -0.16947195, -618003.9, 16796.373, 0.0, 10.000222, 9.9997835 
1.2849703e+3, 2.4522263e+2, -520088.84, -535350.8, -7456.01, -0.006489205, -0.17696282, -517051.0, 19750.92, 0.0, 10.000153, 9.99995 
1.2849574e+3, 2.5522256e+2, -435265.84, -440650.6, -4708.091, -0.00039512035, -0.1805264, -432534.66, 6267.33, 0.0, 10.000049, 9.999977 
1.2849443e+3, 2.6522252e+2, -357033.53, -360210.88, -9459.152, -0.003997587, -0.17471734, -349030.6, -8227.531, 0.0, 9.999948, 9.999905 
1.2849312e+3, 2.752226e+2, -271653.75, -265622.28, -10891.992, -0.016433898, -0.1622383, -257336.25, -14531.465, 0.0, 9.999849, 9.999928 
1.2849183e+3, 2.8522283e+2, -205373.7, -217619.47, 2248.3538, -0.01964902, -0.114702545, -204973.95, -60169.45, 0.0, 9.999782, 9.999618 
1.2849057e+3, 2.9522324e+2, -113445.9, -122685.984, 374.77032, -0.01461066, -0.038235698, -113430.73, -66628.4, 0.0, 9.999741, 9.999616 
1.2848933e+3, 3.0522153e+2, -103503.34, -127182.66, 13748.861, -0.008572174, -0.15271206, -97198.89, -97198.89, 0.0, 9.999622, 9.999308 
1.2848814e+3, 3.152219e+2, -55074.79, 17942.074, 8193.955, 0.02427031, -0.051347513, 18850.303, 18850.303, 0.0, 9.999431, 10.000397 
1.2951261e+3, 1.252415e+2, -1561499.0, -1720841.6, -23741.29, -0.08712979, -0.12317885, -1558036.9, 154581.2, 0.0035624073, 10.001402, 9.999284 
1.2951142e+3, 1.352405e+2, -1467580.3, -1623893.0, 23852.053, -0.045069486, -0.15075833, -1464021.6, 150606.27, 0.0020858154, 10.001367, 9.999294 
1.295101e+3, 1.4523944e+2, -1359186.4, -1481259.9, -5348.743, -0.08477214, -0.20201176, -1358952.5, 157684.97, 0.00086324645, 10.0012665, 9.999647 
1.2950882e+3, 1.5523936e+2, -1286116.0, -1393844.8, -10232.342, -0.053360723, -0.17571664, -1285152.8, 133484.28, 0.0001865044, 10.001088, 9.99966 
1.2950753e+3, 1.6523904e+2, -1214626.8, -1322068.5, -5869.1733, -0.04011845, -0.16747363, -1214307.1, 106332.336, 0.0000072252774, 10.000963, 9.99954 
1.2950623e+3, 1.7523846e+2, -1125850.3, -1226024.4, -5786.8037, -0.043504898, -0.1813464, -1125517.1, 97127.766, 0.0, 10.00089, 9.999563 
1.2950492e+3, 1.8523784e+2, -1057510.9, -1167058.1, -19582.066, -0.038885858, -0.18704247, -1054115.8, 70535.35, 0.0, 10.000792, 9.999342 
1.2950361e+3, 1.9523722e+2, -975380.94, -1073571.0, -22397.762, -0.026899295, -0.18606634, -970513.2, 56144.48, 0.0, 10.0006695, 9.999371 
1.2950227e+3, 2.0523664e+2, -893220.6, -974660.75, -23091.564, -0.017386008, -0.18229985, -887128.9, 41534.727, 0.0, 10.000524, 9.999447 
1.2950094e+3, 2.1523614e+2, -817368.56, -883523.6, -21287.2, -0.010016236, -0.17874984, -811110.75, 19558.025, 0.0, 10.000355, 9.999481 
1.2949963e+3, 2.2523579e+2, -717493.4, -758935.0, -6948.1904, -0.008777558, -0.17317405, -716359.44, 16313.258, 0.0, 10.0002575, 9.999711 
1.2949833e+3, 2.3523559e+2, -621673.0, -657836.44, -8555.844, -0.013210524, -0.1673676, -619750.94, 14924.202, 0.0, 10.000224, 9.999748 
1.2949704e+3, 2.4523543e+2, -514041.75, -523495.72, -11092.477, -0.012842978, -0.17043868, -506711.06, 29965.246, 0.0, 10.000154, 10.000031 
1.2949574e+3, 2.5523534e+2, -429443.63, -429108.1, -8172.434, -0.008098746, -0.18396248, -421101.72, 17574.348, 0.0, 10.00005, 10.000057 
1.2949443e+3, 2.6523536e+2, -359709.5, -366220.13, -12552.8, -0.008588611, -0.17702465, -349996.78, -9319.922, 0.0, 9.9999485, 9.999864 
1.294931e+3, 2.752355e+2, -274424.38, -271611.47, -13831.159, -0.014014226, -0.15301438, -259115.44, -16437.096, 0.0, 9.999849, 9.999888 
1.294918e+3, 2.8523564e+2, -209043.38, -225380.3, 1477.0255, -0.016147291, -0.10688035, -208910.9, -64232.117, 0.0, 9.999781, 9.999565 
1.2949054e+3, 2.9523587e+2, -117088.35, -130485.38, -489.89948, -0.015082791, -0.04401518, -117070.46, -70392.195, 0.0, 9.999741, 9.999563 
1.2948929e+3, 3.0523413e+2, -104891.62, -130067.17, 7164.5273, -0.016716614, -0.15793568, -102995.52, -102995.52, 0.0, 9.99962, 9.999289 
1.2948807e+3, 3.1523463e+2, -50853.977, 27224.824, 1932.0629, 0.0074268323, -0.0448179, 27272.604, 27272.604, 0.0, 9.999427, 10.000463 
1.3051276e+3, 1.2525429e+2, -1556285.3, -1715317.4, -33217.586, -0.08464239, -0.1323698, -1549625.9, 162866.66, 0.0037353144, 10.001427, 9.999309 
1.3051155e+3, 1.3525341e+2, -1457543.1, -1612214.5, 26880.957, -0.045388293, -0.15286669, -1453004.6, 161496.13, 0.002198173, 10.001408, 9.999353 
1.3051024e+3, 1.4525236e+2, -1352350.4, -1483993.1, -4532.1206, -0.08263282, -0.20352621, -1352194.5, 164315.88, 0.00092024496, 10.001341, 9.999592 
1.3050894e+3, 1.5525226e+2, -1271074.5, -1392458.9, -12191.763, -0.051030423, -0.1744382, -1269862.0, 148648.56, 0.00020472471, 10.001218, 9.999606 
1.3050763e+3, 1.6525193e+2, -1201489.6, -1311585.3, -7950.6484, -0.039028827, -0.16690142, -1200918.5, 119594.86, 0.000008878654, 10.001037, 9.999577 
1.305063e+3, 1.7525135e+2, -1136419.4, -1226985.8, -5268.734, -0.044390053, -0.18461931, -1136114.0, 86404.46, 0.0, 10.0008, 9.9995985 
1.30505e+3, 1.8525073e+2, -1083609.3, -1184123.1, -15222.759, -0.038562987, -0.18920945, -1081354.4, 43170.17, 0.0, 10.000633, 9.999301 
1.3050367e+3, 1.9525012e+2, -998577.94, -1088930.4, -15871.547, -0.022759138, -0.18257459, -995871.0, 30660.215, 0.0, 10.000529, 9.999331 
1.3050231e+3, 2.052495e+2, -899940.6, -977101.5, -16011.745, -0.013463281, -0.18274632, -896749.94, 31787.623, 0.0, 10.000475, 9.999453 
1.3050099e+3, 2.1524887e+2, -801173.6, -874855.1, -16937.266, -0.009887576, -0.19203019, -797466.75, 33076.71, 0.0, 10.0004635, 9.999488 
1.3049966e+3, 2.2524852e+2, -704421.7, -753897.4, -3984.3162, -0.010177439, -0.18496133, -704102.94, 28444.309, 0.0, 10.000354, 9.999699 
1.3049835e+3, 2.3524846e+2, -632776.7, -664290.1, -3895.6475, -0.013959688, -0.16448393, -632302.25, 2246.4658, 0.0, 10.0001545, 9.999737 
1.3049705e+3, 2.4524833e+2, -524941.5, -523244.16, -4933.8926, -0.01584301, -0.1662046, -519086.47, 17463.127, 0.0, 10.000056, 10.000079 
1.3049574e+3, 2.552482e+2, -426163.9, -422305.16, -4955.5386, -0.016088897, -0.19054423, -418916.66, 19633.043, 0.0, 10.000051, 10.000102 
1.3049442e+3, 2.652482e+2, -354706.06, -368067.66, -12220.5625, -0.017509544, -0.18490848, -347459.34, -6908.6597, 0.0, 10.000002, 9.999825 
1.3049309e+3, 2.7524835e+2, -267575.7, -272588.88, -13810.076, -0.020087158, -0.1535177, -256046.58, -13494.353, 0.0, 9.999916, 9.999848 
1.3049178e+3, 2.8524855e+2, -202981.69, -221485.25, 4402.218, -0.020458316, -0.10455022, -201987.75, -57435.13, 0.0, 9.99982, 9.999573 
1.304905e+3, 2.9524875e+2, -121145.875, -131891.84, 6608.372, -0.018756775, -0.043151613, -118001.84, -71449.914, 0.0, 9.999711, 9.999567 
1.3048923e+3, 3.0524695e+2, -120427.03, -146942.95, 9140.304, -0.026865905, -0.1575715, -117581.62, -117581.62, 0.0, 9.999556, 9.999204 
1.3048798e+3, 3.152473e+2, -60534.082, 22760.092, -969.9164, -0.012547272, -0.049227487, 22771.385, 22771.385, 0.0, 9.99936, 10.0004635 
1.3151291e+3, 1.252666e+2, -1546543.0, -1696408.1, -38663.91, -0.08088907, -0.18532333, -1537156.0, 175215.19, 0.003906043, 10.001431, 9.999437 
1.3151169e+3, 1.3526653e+2, -1445392.3, -1588180.4, 25423.643, -0.041776143, -0.14188534, -1441000.6, 173370.75, 0.0023090318, 10.001411, 9.999518 
1.3151038e+3, 1.4526564e+2, -1358510.4, -1497595.8, -9927.449, -0.079918645, -0.18037058, -1357805.4, 158574.44, 0.000976971, 10.001343, 9.999497 
1.3150905e+3, 1.5526515e+2, -1277025.8, -1405450.5, -17500.98, -0.059137337, -0.17925815, -1274683.5, 143700.86, 0.00022350362, 10.00122, 9.9995165 
1.3150772e+3, 1.6526474e+2, -1196272.1, -1301500.6, -17392.758, -0.04718684, -0.1776389, -1193471.9, 126916.06, 0.000010883257, 10.001039, 9.999645 
1.315064e+3, 1.7526437e+2, -1131291.8, -1217360.6, -14525.696, -0.042341948, -0.18145679, -1128906.4, 93484.25, 0.0, 10.000803, 9.999663 
1.3150506e+3, 1.8526386e+2, -1083992.0, -1186002.3, -19580.787, -0.031927202, -0.17923014, -1080362.6, 44033.17, 0.0, 10.000637, 9.999287 
1.3150372e+3, 1.9526324e+2, -998957.9, -1090710.0, -19947.652, -0.01688144, -0.17201145, -994808.75, 31593.967, 0.0, 10.000532, 9.999319 
1.3150238e+3, 2.0526254e+2, -901615.8, -981501.1, -16632.771, -0.011317548, -0.1774945, -898291.1, 30118.672, 0.0, 10.000478, 9.999422 
1.3150102e+3, 2.1526179e+2, -802682.6, -878907.2, -17615.082, -0.013997338, -0.19741723, -798808.75, 31608.04, 0.0, 10.000466, 9.999459 
1.314997e+3, 2.2526143e+2, -703433.9, -752713.3, -11504.811, -0.014146757, -0.19054268, -700880.3, 31540.238, 0.0, 10.000356, 9.999706 
1.3149837e+3, 2.3526144e+2, -631795.3, -662958.7, -11076.675, -0.011978708, -0.16091007, -628259.44, 6161.559, 0.0, 10.000155, 9.999746 
1.3149704e+3, 2.4526133e+2, -524078.03, -522104.72, -4843.1577, -0.015564528, -0.16439395, -518148.72, 18273.195, 0.0, 10.000058, 10.000087 
1.3149573e+3, 2.5526106e+2, -425239.56, -421056.44, -4819.818, -0.024561856, -0.20029476, -417893.94, 20529.129, 0.0, 10.000052, 10.000111 
1.314944e+3, 2.6526102e+2, -357653.47, -374773.47, -14913.53, -0.030997459, -0.19846213, -349017.9, -8593.139, 0.0, 10.000004, 9.999779 
1.3149306e+3, 2.7526116e+2, -270330.47, -278824.97, -16350.193, -0.03497538, -0.16407456, -257684.89, -15258.191, 0.0, 9.999917, 9.999806 
1.3149175e+3, 2.8526145e+2, -198420.3, -212362.64, 1076.4788, -0.032946713, -0.10787508, -198337.67, -53911.41, 0.0, 9.99982, 9.999636 
1.3149047e+3, 2.952618e+2, -117275.35, -123961.57, 3174.9873, -0.025857244, -0.035330128, -116007.94, -69584.32, 0.0, 9.99971, 9.999622 
1.3148917e+3, 3.0525994e+2, -131780.97, -170392.58, 2529.0225, -0.03924947, -0.15143353, -131616.03, -131616.03, 0.0, 9.999554, 9.999044 
1.3148789e+3, 3.152599e+2, -65983.36, 11719.64, -7005.8716, -0.036286805, -0.06409896, 12346.252, 12346.252, 0.0, 9.999358, 10.00039 
1.3251305e+3, 1.2527932e+2, -1518467.9, -1682652.4, -31126.559, -0.0841768, -0.2105168, -1512765.0, 199480.53, 0.004073657, 10.001626, 9.999437 
1.3251182e+3, 1.3527946e+2, -1429665.0, -1575716.3, 27130.822, -0.047698323, -0.14975552, -1424788.0, 189455.55, 0.0024175402, 10.0015, 9.99956 
1.3251051e+3, 1.4527868e+2, -1359168.3, -1497197.3, -12736.487, -0.0823211, -0.1817875, -1358002.9, 158248.48, 0.0010328876, 10.001336, 9.999503 
1.3250917e+3, 1.5527822e+2, -1290671.0, -1411393.3, -13423.558, -0.06389193, -0.17951101, -1289196.5, 129059.78, 0.00024265106, 10.001124, 9.999521 
1.3250783e+3, 1.6527781e+2, -1207961.5, -1308676.0, -13598.479, -0.050021432, -0.17690407, -1206157.8, 114102.266, 0.000013283229, 10.000967, 9.99963 
1.3250647e+3, 1.7527743e+2, -1124213.0, -1215222.0, -17098.7, -0.03885195, -0.17974739, -1121106.5, 101156.484, 0.0, 10.000858, 9.999651 
1.3250513e+3, 1.8527691e+2, -1066462.8, -1173999.9, -21468.666, -0.026807124, -0.17704482, -1062335.1, 61932.785, 0.0, 10.000743, 9.999317 
1.3250378e+3, 1.9527633e+2, -984670.0, -1080336.5, -18784.803, -0.014482598, -0.16974348, -981113.7, 45160.566, 0.0, 10.000617, 9.999349 
1.3250242e+3, 2.0527564e+2, -899697.25, -983433.8, -11931.809, -0.011024711, -0.17549181, -898030.25, 30251.047, 0.0, 10.0005045, 9.999395 
1.3250108e+3, 2.1527484e+2, -813512.75, -886572.0, -13043.215, -0.015156073, -0.19594327, -811254.0, 19034.797, 0.0, 10.000404, 9.999435 
1.3249972e+3, 2.2527446e+2, -704202.4, -744974.94, -7639.1016, -0.017022321, -0.19448733, -702818.06, 29474.486, 0.0, 10.000318, 9.999777 
1.3249838e+3, 2.3527446e+2, -614306.5, -646715.94, -2753.8328, -0.016914807, -0.17477353, -614074.2, 20218.482, 0.0, 10.000243, 9.999814 
1.3249706e+3, 2.4527435e+2, -518455.2, -523400.7, 5253.1064, -0.019762814, -0.1770416, -515121.94, 21171.451, 0.0, 10.000115, 10.00005 
1.3249573e+3, 2.5527418e+2, -444333.03, -434074.47, 1455.3031, -0.025515968, -0.20162638, -433872.03, 4422.3696, 0.0, 9.999939, 10.000075 
1.3249439e+3, 2.6527414e+2, -380379.03, -382762.06, -6832.57, -0.03305391, -0.19692847, -374634.88, -34338.79, 0.0, 9.999836, 9.999804 
1.3249305e+3, 2.7527425e+2, -286225.8, -283638.56, -3349.6377, -0.041971993, -0.16743283, -281341.44, -39043.41, 0.0, 9.999797, 9.99983 
1.3249172e+3, 2.8527454e+2, -218588.53, -223463.0, 10561.469, -0.042747248, -0.110935666, -210186.73, -65889.2, 0.0, 9.999688, 9.999622 
1.3249041e+3, 2.9527497e+2, -146278.02, -139546.61, 6475.223, -0.036632847, -0.033335734, -135614.61, -89319.92, 0.0, 9.999519, 9.999607 
1.324891e+3, 3.0527312e+2, -160701.4, -189008.1, 6778.322, -0.051837366, -0.14704551, -159161.98, -159161.98, 0.0, 9.999377, 9.999001 
1.324878e+3, 3.1527293e+2, -78260.586, 10550.734, 6486.4385, -0.04775894, -0.070478946, 11021.979, 11021.979, 0.0, 9.999255, 10.00043 
1.335132e+3, 1.2529252e+2, -1527496.1, -1701765.6, -40359.293, -0.09406999, -0.20924152, -1518603.1, 193512.05, 0.0042385682, 10.001627, 9.999307 
1.3351196e+3, 1.352923e+2, -1434837.0, -1587121.8, 21742.936, -0.062824324, -0.17585541, -1431793.4, 182323.47, 0.0025235927, 10.001502, 9.999482 
1.3351063e+3, 1.4529154e+2, -1352171.5, -1483443.1, -21359.45, -0.089737214, -0.20669863, -1348783.5, 167341.06, 0.0010875799, 10.001338, 9.999598 
1.3350928e+3, 1.5529145e+2, -1284101.3, -1398633.3, -21970.074, -0.06544048, -0.17522012, -1280031.5, 138094.34, 0.00026189684, 10.001126, 9.999608 
1.3350792e+3, 1.652911e+2, -1214531.5, -1323232.0, -18250.273, -0.0477535, -0.16505037, -1211549.3, 108580.234, 0.000016032998, 10.000969, 9.99953 
1.3350657e+3, 1.7529051e+2, -1130389.0, -1228943.5, -21569.77, -0.034024682, -0.17955808, -1125875.0, 96260.25, 0.00000000003443261, 10.000861, 9.999557 
1.3350521e+3, 1.8528995e+2, -1061138.1, -1163821.9, -26547.338, -0.023237733, -0.18254812, -1054680.8, 69459.99, 0.0, 10.000746, 9.999387 
1.3350384e+3, 1.9528943e+2, -979581.0, -1070704.8, -23745.863, -0.015591295, -0.17562942, -973764.4, 52381.273, 0.0, 10.00062, 9.999414 
1.3350247e+3, 2.0528878e+2, -901168.8, -987420.75, -15904.272, -0.012611318, -0.17664494, -898329.6, 29822.426, 0.0, 10.000507, 9.999367 
1.3350111e+3, 2.1528807e+2, -814662.56, -889856.8, -16886.193, -0.013379267, -0.18769847, -811044.56, 19114.912, 0.0, 10.000406, 9.999413 
1.3349976e+3, 2.2528763e+2, -694757.8, -726224.44, -10387.63, -0.018907374, -0.1969816, -691638.06, 40525.344, 0.0, 10.0003195, 9.999906 
1.334984e+3, 2.3528746e+2, -605304.4, -628863.56, -5429.662, -0.028986806, -0.2062233, -604113.25, 30050.602, 0.0, 10.000246, 9.999937 
1.3349706e+3, 2.4528742e+2, -524260.78, -536190.7, -1080.546, -0.028519396, -0.20414095, -524163.7, 12000.363, 0.0, 10.000117, 9.999962 
1.3349573e+3, 2.552875e+2, -449984.94, -446322.9, -4599.039, -0.01874758, -0.194349, -443203.78, -5039.966, 0.0, 9.99994, 9.999991 
1.3349439e+3, 2.6528758e+2, -373893.56, -369618.1, -7629.56, -0.02349094, -0.18011147, -363832.44, -23667.668, 0.0, 9.999836, 9.999895 
1.3349302e+3, 2.7528766e+2, -280037.56, -271073.38, -4141.349, -0.04108178, -0.16346648, -269453.0, -27286.605, 0.0, 9.999797, 9.999917 
1.3349168e+3, 2.8528783e+2, -225646.78, -238139.47, 4970.292, -0.049994584, -0.11374045, -223910.6, -79743.95, 0.0, 9.999687, 9.999522 
1.3349035e+3, 2.9528818e+2, -153278.03, -153767.17, 977.9988, -0.051294155, -0.03742038, -152514.48, -106348.99, 0.0, 9.9995165, 9.999511 
1.3348903e+3, 3.0528635e+2, -156015.61, -178877.33, 3138.7024, -0.06466053, -0.14448497, -155592.53, -155592.53, 0.0, 9.999374, 9.999073 
1.3348773e+3, 3.1528625e+2, -67751.305, 32611.129, 3535.8293, -0.046740986, -0.06722259, 32735.543, 32735.543, 0.0, 9.999252, 10.000584 
1.3451335e+3, 1.2530571e+2, -1538135.3, -1702408.0, -50749.563, -0.10400008, -0.199141, -1523721.6, 188264.28, 0.0044024647, 10.001535, 9.999345 
1.3451211e+3, 1.353054e+2, -1433929.3, -1577136.0, 26721.105, -0.065505624, -0.18370278, -1429105.8, 184882.16, 0.0026278205, 10.001469, 9.999566 
1.3451079e+3, 1.4530462e+2, -1352428.3, -1482356.4, -18324.178, -0.08328829, -0.21942185, -1349893.4, 166102.11, 0.0011408281, 10.001332, 9.999607 
1.345094e+3, 1.5530463e+2, -1283428.3, -1397198.3, -25438.547, -0.063963555, -0.1808076, -1277999.3, 139996.94, 0.00028088767, 10.001127, 9.999618 
1.3450801e+3, 1.6530433e+2, -1215381.8, -1323650.6, -17684.643, -0.048644595, -0.16490851, -1212566.4, 107433.26, 0.000018979208, 10.000964, 9.999529 
1.3450666e+3, 1.753038e+2, -1134048.6, -1230415.5, -13903.853, -0.03405469, -0.17463756, -1132082.6, 89922.555, 0.0000000014653116, 10.000836, 9.9995575 
1.3450527e+3, 1.8530323e+2, -1062579.1, -1158109.4, -16510.752, -0.023871334, -0.1804618, -1059806.0, 64204.668, 0.0, 10.00071, 9.999443 
1.345039e+3, 1.9530267e+2, -981157.25, -1065156.9, -14986.651, -0.018510919, -0.18345042, -978563.5, 47451.91, 0.0, 10.000583, 9.999469 
1.3450252e+3, 2.0530203e+2, -910612.7, -994483.2, -7214.19, -0.015020427, -0.18435067, -909996.7, 18024.967, 0.0, 10.000455, 9.999344 
1.3450114e+3, 2.153014e+2, -828075.25, -898366.7, -8168.3013, -0.012688403, -0.18615746, -827138.5, 2890.3794, 0.0, 10.000324, 9.999393 
1.3449977e+3, 2.2530097e+2, -710560.1, -728209.06, -4677.1997, -0.01704316, -0.19587976, -709397.2, 22635.459, 0.0, 10.000188, 9.999954 
1.3449842e+3, 2.3530075e+2, -630979.0, -635555.56, -6100.9297, -0.02765013, -0.21428922, -626751.3, 7281.7095, 0.0, 10.000047, 9.999986 
1.3449706e+3, 2.4530074e+2, -553998.3, -551821.94, -3201.554, -0.030833963, -0.21061014, -549528.7, -13495.711, 0.0, 9.99992, 9.9999485 
1.344957e+3, 2.553009e+2, -470331.6, -457284.1, -1261.6582, -0.02736598, -0.18958229, -457163.22, -19131.021, 0.0, 9.999806, 9.999979 
1.3449435e+3, 2.65301e+2, -388891.53, -375355.06, -1317.5054, -0.031056644, -0.17495936, -375228.03, -35194.86, 0.0, 9.999728, 9.999907 
1.34493e+3, 2.75301e+2, -296025.84, -277229.0, -4321.65, -0.04124042, -0.16764788, -276283.03, -34247.703, 0.0, 9.999681, 9.999929 
1.3449164e+3, 2.8530118e+2, -239098.1, -242168.75, 2338.1938, -0.050571512, -0.12103677, -237836.22, -93800.516, 0.0, 9.999586, 9.999543 
1.344903e+3, 2.9530156e+2, -162736.48, -156082.33, 7121.742, -0.05918693, -0.04237366, -151548.83, -105514.5, 0.0, 9.999444, 9.99953 
1.3448896e+3, 3.0529985e+2, -170950.48, -183609.84, 10883.732, -0.07663608, -0.14073776, -164689.67, -164689.67, 0.0, 9.999262, 9.999093 
1.3448763e+3, 3.1529975e+2, -90708.72, 32891.004, 7831.8203, -0.05613001, -0.06495552, 33385.285, 33385.285, 0.0, 9.999047, 10.000684 
1.3551348e+3, 1.2531896e+2, -1524200.3, -1674311.9, -56690.97, -0.11394756, -0.18042967, -1505196.3, 206660.81, 0.0045679878, 10.001538, 9.999538 
1.3551226e+3, 1.353188e+2, -1417088.3, -1542839.1, 23480.373, -0.056302443, -0.17401375, -1412847.0, 201009.34, 0.0027314809, 10.00147, 9.999803 
1.3551092e+3, 1.4531799e+2, -1357707.4, -1493946.5, -26694.203, -0.063646, -0.22050443, -1352663.8, 163200.08, 0.0011927416, 10.001334, 9.999527 
1.355095e+3, 1.5531777e+2, -1288078.8, -1407795.0, -33560.555, -0.059728924, -0.19602898, -1279312.5, 138554.45, 0.00029931884, 10.00113, 9.999544 
1.355081e+3, 1.6531754e+2, -1208381.1, -1310115.6, -22985.623, -0.052696567, -0.17609492, -1203428.9, 116441.18, 0.00002192539, 10.000967, 9.99962 
1.3550672e+3, 1.7531729e+2, -1127276.4, -1217212.4, -19165.852, -0.03891771, -0.165081, -1123362.4, 98510.42, 0.0000000068048798, 10.000838, 9.999648 
1.3550535e+3, 1.8531677e+2, -1059549.3, -1152652.3, -21652.52, -0.028730001, -0.17100379, -1054760.0, 69117.484, 0.0, 10.000711, 9.99948 
1.3550395e+3, 1.9531608e+2, -978031.75, -1059567.1, -20011.5, -0.023253102, -0.1932533, -973385.06, 52498.313, 0.0, 10.000586, 9.999507 
1.3550255e+3, 2.053154e+2, -911827.56, -997901.7, -12322.429, -0.018266473, -0.19859302, -910098.2, 17791.844, 0.0, 10.000457, 9.99932 
1.3550118e+3, 2.1531482e+2, -829174.7, -901614.6, -13170.425, -0.013177555, -0.19126806, -826854.44, 3042.5808, 0.0, 10.000327, 9.999371 
1.354998e+3, 2.2531445e+2, -712539.25, -733258.9, -9936.562, -0.011481555, -0.19106318, -708544.25, 23356.2, 0.0, 10.000191, 9.999919 
1.3549842e+3, 2.3531432e+2, -632867.25, -640240.44, -11235.863, -0.012794042, -0.19884735, -624728.6, 9171.728, 0.0, 10.000049, 9.999953 
1.3549705e+3, 2.4531431e+2, -549542.44, -543170.7, -7125.175, -0.026797052, -0.1964449, -538551.56, -2651.359, 0.0, 9.999922, 10.000009 
1.3549566e+3, 2.5531444e+2, -466219.22, -449275.44, -4955.1323, -0.051943887, -0.18745653, -447932.75, -10033.074, 0.0, 9.999807, 10.000034 
1.354943e+3, 2.6531443e+2, -394026.8, -386431.2, -2448.7075, -0.056258194, -0.18164602, -385710.22, -45808.695, 0.0, 9.999729, 9.999831 
1.3549295e+3, 2.7531427e+2, -300799.44, -287437.34, -5450.0317, -0.04240835, -0.18024293, -285496.38, -43591.29, 0.0, 9.999681, 9.999861 
1.354916e+3, 2.853145e+2, -229441.34, -222215.94, -2174.7317, -0.044352207, -0.13309231, -221611.88, -77706.85, 0.0, 9.999585, 9.999681 
1.3549024e+3, 2.9531506e+2, -153646.52, -137309.63, 2563.9695, -0.060442287, -0.048255976, -136916.69, -91015.14, 0.0, 9.999443, 9.99966 
1.3548885e+3, 3.053135e+2, -173694.7, -189271.63, 3641.7468, -0.08818817, -0.13568124, -172885.34, -172885.34, 0.0, 9.999261, 9.999056 
1.3548753e+3, 3.1531337e+2, -88271.26, 38368.47, 1495.0498, -0.07681717, -0.062450632, 38386.117, 38386.117, 0.0, 9.999044, 10.000724 
1.3651365e+3, 1.253324e+2, -1509449.5, -1674071.3, -29966.48, -0.11817867, -0.1869127, -1504164.4, 207560.3, 0.0047382293, 10.001671, 9.9994755 
1.3651241e+3, 1.3533224e+2, -1425864.9, -1548155.8, 33897.53, -0.05981678, -0.17846318, -1417097.5, 196626.6, 0.0028363883, 10.001415, 9.999792 
1.3651106e+3, 1.4533144e+2, -1368197.3, -1496560.4, -20841.334, -0.05805997, -0.22579086, -1364898.1, 150833.33, 0.0012438492, 10.001253, 9.999548 
1.3650963e+3, 1.5533115e+2, -1281405.5, -1402168.9, -20643.129, -0.057357784, -0.20967467, -1277974.3, 139760.83, 0.0003170788, 10.001167, 9.999564 
1.365082e+3, 1.6533095e+2, -1203003.5, -1306650.6, -11732.279, -0.053411655, -0.18718603, -1201692.0, 118045.77, 0.00002472805, 10.001001, 9.999627 
1.3650681e+3, 1.7533085e+2, -1137631.1, -1221354.5, -14427.768, -0.041694466, -0.16374068, -1135214.6, 86525.1, 0.000000016360648, 10.000765, 9.999655 
1.3650541e+3, 1.8533033e+2, -1073175.5, -1157738.3, -18159.0, -0.031855255, -0.16967812, -1069441.0, 54303.434, 0.0, 10.000612, 9.999492 
1.36504e+3, 1.9532953e+2, -984535.56, -1061131.9, -18809.918, -0.02550991, -0.20296308, -980165.7, 45585.492, 0.0, 10.000535, 9.99952 
1.365026e+3, 2.053289e+2, -911395.8, -992200.8, -10309.512, -0.020203939, -0.20671201, -910101.25, 17656.186, 0.0, 10.000438, 9.999368 
1.3650121e+3, 2.153285e+2, -826665.44, -895157.3, -6248.239, -0.015176819, -0.1867113, -826100.1, 3662.6655, 0.0, 10.000323, 9.999416 
1.3649982e+3, 2.2532818e+2, -718857.06, -741238.6, -2804.4443, -0.012564076, -0.18373145, -718511.0, 13255.094, 0.0, 10.000171, 9.999873 
1.3649842e+3, 2.3532793e+2, -645463.4, -650963.44, -5221.211, -0.012082977, -0.197356, -642312.25, -8545.022, 0.0, 9.999984, 9.99991 
1.3649704e+3, 2.4532788e+2, -557576.06, -543937.44, -619.59283, -0.027323935, -0.1985094, -543909.3, -8141.9, 0.0, 9.999854, 10.000034 
1.3649563e+3, 2.55328e+2, -469111.47, -447677.84, -1341.7509, -0.056456994, -0.19111268, -447594.16, -9827.707, 0.0, 9.999777, 10.00006 
1.3649426e+3, 2.65328e+2, -402221.25, -390635.72, 2931.176, -0.06188605, -0.18519421, -389936.34, -50168.254, 0.0, 9.999675, 9.999827 
1.3649292e+3, 2.753279e+2, -319899.22, -296802.94, 4824.7554, -0.046450827, -0.1823658, -295835.56, -54063.95, 0.0, 9.999553, 9.999857 
1.3649155e+3, 2.853281e+2, -250861.17, -229089.36, 4040.956, -0.04626381, -0.13542333, -228363.55, -84591.945, 0.0, 9.999425, 9.999711 
1.3649017e+3, 2.9532868e+2, -173852.44, -143853.52, 177.90302, -0.05998158, -0.05218872, -143852.45, -98084.3, 0.0, 9.999291, 9.999687 
1.3648878e+3, 3.053272e+2, -187619.7, -191905.47, -1542.4915, -0.090122364, -0.1320832, -187122.28, -187122.28, 0.0, 9.999149, 9.999091 
1.3648741e+3, 3.1532705e+2, -88058.45, 50551.32, 2292.8706, -0.081056215, -0.06382965, 50589.24, 50589.24, 0.0, 9.998995, 10.000831 
1.3751382e+3, 1.2534608e+2, -1530719.8, -1719137.9, -42548.2, -0.11712206, -0.21709502, -1521557.1, 190031.06, 0.0049160505, 10.001674, 9.999165 
1.3751253e+3, 1.3534579e+2, -1442691.5, -1584278.9, 24000.01, -0.075626835, -0.19631745, -1438734.0, 174856.5, 0.0029444871, 10.001419, 9.999542 
1.3751118e+3, 1.45345e+2, -1359773.3, -1480149.5, -24664.504, -0.06601251, -0.23504817, -1354915.6, 160682.47, 0.0012949365, 10.001256, 9.9996605 
1.3750975e+3, 1.553448e+2, -1273626.9, -1386812.0, -24539.504, -0.056811143, -0.22173187, -1268535.5, 149064.7, 0.0003342444, 10.001169, 9.99967 
1.3750832e+3, 1.6534463e+2, -1208331.3, -1318541.3, -21141.629, -0.050981432, -0.19817021, -1204414.9, 115187.9, 0.000027345353, 10.001004, 9.999546 
1.3750689e+3, 1.7534447e+2, -1142453.0, -1232488.3, -23494.281, -0.042496677, -0.17042969, -1136691.0, 84914.49, 0.000000027808229, 10.000768, 9.9995775 
1.3750547e+3, 1.8534392e+2, -1074027.5, -1160623.5, -21418.658, -0.033318624, -0.17630921, -1069019.4, 54591.69, 0.0, 10.000616, 9.999472 
1.3750406e+3, 1.9534305e+2, -985121.7, -1063311.0, -21984.287, -0.025419893, -0.21261686, -979364.3, 46254.35, 0.0, 10.000538, 9.999504 
1.3750264e+3, 2.0534256e+2, -903082.9, -975815.94, -14787.164, -0.020976098, -0.20883583, -900191.44, 27432.236, 0.0, 10.000441, 9.999479 
1.3750124e+3, 2.1534243e+2, -818689.0, -879503.06, -10685.462, -0.018708484, -0.17258672, -816866.1, 12759.97, 0.0, 10.000326, 9.999523 
1.3749982e+3, 2.2534207e+2, -722665.5, -750089.06, -9765.403, -0.02033747, -0.17401692, -719543.5, 12086.129, 0.0, 10.000173, 9.999812 
1.3749841e+3, 2.3534155e+2, -649253.75, -659679.44, -11862.509, -0.025728077, -0.20992132, -641509.25, -7875.5825, 0.0, 9.999986, 9.99985 
1.3749701e+3, 2.453414e+2, -558111.25, -545820.5, -3171.3105, -0.032479215, -0.21687233, -545050.5, -9415.784, 0.0, 9.999856, 10.000021 
1.3749564e+3, 2.5534162e+2, -469529.97, -449242.44, -3826.4736, -0.04051543, -0.2007176, -448544.72, -10911.941, 0.0, 9.999778, 10.000049 
1.3749424e+3, 2.653417e+2, -397643.16, -381612.88, -1008.898, -0.04768012, -0.18565919, -381549.63, -41916.477, 0.0, 9.999676, 9.999889 
1.3749287e+3, 2.7534175e+2, -315786.84, -288534.5, 1035.5367, -0.05383161, -0.17371638, -288495.22, -46860.086, 0.0, 9.999553, 9.999915 
1.3749148e+3, 2.8534195e+2, -257187.9, -242281.7, -125.90132, -0.05687843, -0.12768373, -242280.64, -98644.98, 0.0, 9.999423, 9.999621 
1.374901e+3, 2.9534236e+2, -179891.31, -156311.88, -4110.457, -0.05773905, -0.054116465, -155615.88, -109981.28, 0.0, 9.99929, 9.999603 
1.374887e+3, 3.0534095e+2, -180602.0, -177310.58, -6403.0933, -0.08205524, -0.13004859, -172345.1, -172345.1, 0.0, 9.999147, 9.999192 
1.3748732e+3, 3.1534082e+2, -76212.57, 74780.79, -1622.8276, -0.06878453, -0.068091504, 74798.23, 74798.23, 0.0, 9.998995, 10.000998 
1.3851398e+3, 1.2536009e+2, -1521854.4, -1732090.0, -37151.223, -0.11189366, -0.23212212, -1515482.4, 195966.72, 0.0051032617, 10.001811, 9.999008 
1.3851267e+3, 1.3535963e+2, -1425698.1, -1587931.5, 41911.695, -0.08342921, -0.21598215, -1415510.4, 197943.28, 0.003057239, 10.001589, 9.999434 
1.385113e+3, 1.4535886e+2, -1347034.9, -1474901.4, -4400.9463, -0.066307366, -0.24828354, -1346883.5, 168577.94, 0.0013467348, 10.0013485, 9.999651 
1.3850985e+3, 1.5535869e+2, -1285618.4, -1393679.5, -13304.149, -0.05437771, -0.23031929, -1284004.5, 133458.56, 0.0003509688, 10.001093, 9.999659 
1.3850841e+3, 1.6535848e+2, -1220559.3, -1327363.1, -11553.013, -0.049413282, -0.20703028, -1219323.9, 100142.016, 0.000029813278, 10.000934, 9.999518 
1.3850696e+3, 1.7535828e+2, -1131186.3, -1230108.0, -10230.811, -0.04397855, -0.18311147, -1130139.3, 91330.055, 0.000000039188958, 10.00086, 9.999549 
1.3850553e+3, 1.8535772e+2, -1062318.4, -1160359.6, -7240.0083, -0.036114793, -0.18480551, -1061786.6, 61688.67, 0.0, 10.000721, 9.999422 
1.385041e+3, 1.9535692e+2, -990212.06, -1070679.5, -10311.524, -0.028316494, -0.21002536, -988911.75, 36571.24, 0.0, 10.000525, 9.999459 
1.3850267e+3, 2.0535646e+2, -915380.25, -974471.6, -7168.588, -0.021392357, -0.20429122, -914523.06, 12964.697, 0.0, 10.000326, 9.999543 
1.3850126e+3, 2.1535634e+2, -844008.6, -884669.06, -6903.151, -0.014193952, -0.17404532, -842868.56, -13378.983, 0.0, 10.000123, 9.999584 
1.3849984e+3, 2.2535597e+2, -746100.6, -765158.9, -4607.1255, -0.017062591, -0.17600162, -745045.4, -13552.351, 0.0, 10.00003, 9.999777 
1.3849841e+3, 2.3535547e+2, -644836.94, -661067.0, -5081.5356, -0.029152947, -0.2076799, -643377.2, -9879.888, 0.0, 10.000032, 9.999818 
1.38497e+3, 2.4535525e+2, -551500.06, -545665.44, 1597.3411, -0.03549821, -0.21742745, -545256.75, -9757.807, 0.0, 9.999916, 9.999992 
1.3849561e+3, 2.5535536e+2, -483187.4, -458617.88, -487.34784, -0.036939975, -0.21008414, -458608.22, -21110.37, 0.0, 9.999698, 10.000023 
1.3849421e+3, 2.6535547e+2, -411500.9, -385842.4, 2034.5833, -0.043785036, -0.19280492, -385682.1, -46184.145, 0.0, 9.999572, 9.999909 
1.3849281e+3, 2.7535564e+2, -318594.5, -287504.6, 329.21405, -0.055139877, -0.16912322, -287501.1, -46002.438, 0.0, 9.999525, 9.999934 
1.3849142e+3, 2.8535584e+2, -261511.88, -244294.05, -1907.998, -0.060364988, -0.12518322, -244085.14, -100585.76, 0.0, 9.999395, 9.99962 
1.3849002e+3, 2.9535607e+2, -193995.4, -162987.98, 528.4999, -0.060599342, -0.06563174, -162978.98, -117479.26, 0.0, 9.999194, 9.999602 
1.384886e+3, 3.0535477e+2, -188366.61, -175399.97, 1346.8943, -0.08299181, -0.13549194, -175261.55, -175261.55, 0.0, 9.999071, 9.999241 
1.3848723e+3, 3.1535468e+2, -65489.164, 92484.64, 2825.883, -0.062409397, -0.07594248, 92535.18, 92535.18, 0.0, 9.999017, 10.001108 
1.3951418e+3, 1.2537447e+2, -1522956.8, -1734425.4, -47767.22, -0.102917984, -0.23301362, -1512667.5, 198639.39, 0.005300489, 10.00181, 9.998994 
1.3951284e+3, 1.3537385e+2, -1424226.6, -1585154.1, 32716.033, -0.083682485, -0.23734844, -1417829.9, 195483.39, 0.0031755816, 10.001589, 9.9994545 
1.3951145e+3, 1.4537303e+2, -1355896.0, -1493952.1, -14776.519, -0.059406314, -0.26528078, -1354332.1, 160989.25, 0.0013999565, 10.00135, 9.99952 
1.3950998e+3, 1.5537286e+2, -1293681.9, -1411729.9, -23199.717, -0.05024242, -0.23550509, -1289286.1, 128037.43, 0.0003674642, 10.001097, 9.999534 
1.395085e+3, 1.653726e+2, -1218564.6, -1324615.0, -14815.636, -0.048723817, -0.2138286, -1216533.8, 102793.26, 0.00003219316, 10.000938, 9.999536 
1.3950704e+3, 1.7537229e+2, -1129656.6, -1227951.9, -13553.254, -0.04620958, -0.20171246, -1127822.0, 93508.9, 0.00000005013657, 10.000863, 9.999563 
1.395056e+3, 1.8537177e+2, -1067751.3, -1172517.1, -14948.537, -0.040337604, -0.19514936, -1065660.0, 57676.83, 0.0, 10.000723, 9.999338 
1.3950415e+3, 1.9537114e+2, -995332.1, -1082312.5, -17868.037, -0.034193877, -0.19534272, -991804.6, 33539.32, 0.0, 10.000528, 9.999378 
1.395027e+3, 2.053706e+2, -914133.56, -972897.6, -14955.405, -0.021441529, -0.19322923, -910546.4, 16803.074, 0.0, 10.000329, 9.999553 
1.3950129e+3, 2.1537021e+2, -842830.75, -883225.7, -14245.988, -0.0017364391, -0.19111206, -838312.1, -8958.877, 0.0, 10.000126, 9.999594 
1.3949986e+3, 2.2536989e+2, -746494.2, -766983.4, -4375.677, -0.0028532734, -0.18957885, -745598.9, -14242.586, 0.0, 10.000032, 9.9997635 
1.3949843e+3, 2.3536965e+2, -645255.5, -662903.4, -4971.4575, -0.022364419, -0.19050366, -643951.4, -10593.135, 0.0, 10.000035, 9.9998045 
1.3949698e+3, 2.4536943e+2, -554541.94, -552815.75, -6258.6494, -0.036491755, -0.20012367, -547361.0, -12000.69, 0.0, 9.999919, 9.999943 
1.3949557e+3, 2.5536922e+2, -486275.16, -465618.4, -7916.2173, -0.046123326, -0.21925576, -462933.66, -25571.752, 0.0, 9.9997, 9.999974 
1.3949415e+3, 2.6536924e+2, -413431.44, -390292.97, 975.6538, -0.050509922, -0.20667781, -390251.9, -50889.15, 0.0, 9.999572, 9.99988 
1.3949278e+3, 2.7536952e+2, -320145.4, -291146.9, -904.3135, -0.050234415, -0.16867204, -291118.75, -49756.207, 0.0, 9.999525, 9.99991 
1.3949136e+3, 2.8536972e+2, -255566.98, -232317.23, -8652.728, -0.05668269, -0.12816852, -229450.47, -86087.35, 0.0, 9.999395, 9.999703 
1.3948995e+3, 2.9536986e+2, -188569.92, -151911.28, -6078.4595, -0.06924645, -0.08712247, -150929.67, -105565.7, 0.0, 9.999194, 9.99968 
1.394885e+3, 3.0536866e+2, -189058.45, -177139.1, 216.24464, -0.09382341, -0.14872268, -177135.17, -177135.17, 0.0, 9.999071, 9.99923 
1.3948713e+3, 3.153686e+2, -62042.16, 98990.57, 2590.7422, -0.062460825, -0.0865132, 99032.234, 99032.234, 0.0, 9.999018, 10.001153 
1.4051436e+3, 1.2538889e+2, -1533321.5, -1737552.0, -46628.984, -0.10253939, -0.24108334, -1523179.1, 187985.66, 0.0055082403, 10.001733, 9.999008 
1.4051297e+3, 1.353883e+2, -1444334.3, -1589676.8, 36016.906, -0.086314835, -0.24608901, -1435898.6, 177272.1, 0.0033006065, 10.00143, 9.999499 
1.4051159e+3, 1.4538756e+2, -1370541.6, -1508051.1, -3737.2527, -0.05388952, -0.2672847, -1370440.1, 144738.3, 0.0014556336, 10.001282, 9.999455 
1.4051008e+3, 1.5538728e+2, -1272357.5, -1408225.5, -7384.37, -0.05205348, -0.24054441, -1271957.3, 145224.25, 0.00038406154, 10.001274, 9.999472 
1.4050859e+3, 1.6538692e+2, -1195470.6, -1319050.3, -1461.1837, -0.053192254, -0.22235908, -1195453.3, 123732.516, 0.00003454216, 10.001122, 9.999485 
1.4050713e+3, 1.7538652e+2, -1136141.4, -1236829.9, -5686.283, -0.04816035, -0.21333414, -1135821.3, 85369.32, 0.00000006103049, 10.000845, 9.99951 
1.4050567e+3, 1.8538602e+2, -1080783.9, -1185943.6, -7825.0566, -0.0407441, -0.20056795, -1080204.9, 42991.957, 0.0, 10.000666, 9.999273 
1.405042e+3, 1.9538547e+2, -992944.5, -1087901.4, -9642.825, -0.034299105, -0.18658128, -991975.2, 33228.563, 0.0, 10.000575, 9.999317 
1.4050275e+3, 2.0538488e+2, -891385.56, -959985.75, -6494.289, -0.02225625, -0.18707997, -890776.2, 36433.54, 0.0, 10.000478, 9.999569 
1.405013e+3, 2.1538432e+2, -805575.8, -863670.94, -5577.2446, -0.004057146, -0.20213911, -805045.25, 24169.17, 0.0, 10.000376, 9.999606 
1.4049986e+3, 2.2538398e+2, -726084.94, -762307.06, 3781.4167, -0.0037866193, -0.20020859, -725694.44, 5523.183, 0.0, 10.000196, 9.999716 
1.4049843e+3, 2.3538388e+2, -661212.06, -675644.6, 128.98541, -0.019365009, -0.18549971, -661210.9, -27991.865, 0.0, 9.9999485, 9.999758 
1.4049697e+3, 2.4538365e+2, -570688.0, -560118.4, -1172.1875, -0.03429927, -0.1924201, -559989.94, -24768.873, 0.0, 9.999807, 9.999946 
1.4049554e+3, 2.5538334e+2, -478095.25, -461416.5, 680.0545, -0.04878202, -0.2200677, -461388.8, -24165.629, 0.0, 9.999756, 9.999975 
1.4049412e+3, 2.653833e+2, -406257.94, -390829.53, 11720.087, -0.053074855, -0.21190523, -384512.72, -45288.188, 0.0, 9.99964, 9.999843 
1.4049272e+3, 2.7538353e+2, -330451.6, -299710.97, 8789.092, -0.048467804, -0.17485501, -297375.5, -56150.777, 0.0, 9.999472, 9.999876 
1.4049129e+3, 2.8538373e+2, -257873.83, -228687.23, -2016.1475, -0.05451885, -0.13641916, -228548.63, -85323.24, 0.0, 9.99936, 9.999744 
1.4048986e+3, 2.9538387e+2, -170373.06, -138670.69, -2864.9282, -0.070263825, -0.09818323, -138413.88, -93187.914, 0.0, 9.999301, 9.999718 
1.4048842e+3, 3.053828e+2, -177126.05, -171612.17, 2088.7236, -0.09643298, -0.15025374, -170910.28, -170910.28, 0.0, 9.999156, 9.999227 
1.4048703e+3, 3.153826e+2, -70272.45, 100419.836, 5899.5947, -0.060742483, -0.09854247, 100623.5, 100623.5, 0.0, 9.9989395, 10.0012 
1.4151452e+3, 1.254034e+2, -1531215.8, -1732814.6, -59201.004, -0.110578, -0.25619096, -1515116.5, 195905.63, 0.0057284734, 10.00173, 9.999043 
1.4151312e+3, 1.3540307e+2, -1439762.1, -1580970.4, 24248.898, -0.09128473, -0.24267963, -1435714.0, 177311.61, 0.00343434, 10.001431, 9.999559 
1.4151172e+3, 1.4540243e+2, -1370467.9, -1508852.6, -4984.839, -0.049776804, -0.25493094, -1370288.5, 144743.53, 0.001515353, 10.001285, 9.99945 
1.415102e+3, 1.5540199e+2, -1272602.9, -1409294.9, -8612.667, -0.05968274, -0.24553388, -1272062.3, 144974.4, 0.00040130108, 10.001275, 9.999464 
1.415087e+3, 1.654015e+2, -1203996.9, -1337368.1, -12425.767, -0.06274401, -0.23259681, -1202849.0, 116193.195, 0.000036934056, 10.001123, 9.999359 
1.4150721e+3, 1.7540105e+2, -1144271.8, -1254791.5, -16268.8545, -0.04987992, -0.21811737, -1141926.8, 79121.336, 0.00000007226826, 10.000848, 9.999386 
1.4150573e+3, 1.8540049e+2, -1083822.6, -1193499.3, -11561.84, -0.03745085, -0.20115732, -1082617.0, 40437.938, 0.0, 10.0006695, 9.99922 
1.4150426e+3, 1.9539991e+2, -995822.94, -1095016.9, -13225.131, -0.028825056, -0.18373156, -994089.94, 30972.365, 0.0, 10.000579, 9.999268 
1.415028e+3, 2.053993e+2, -889668.44, -957436.5, -10409.614, -0.024023026, -0.18584916, -888105.5, 38962.97, 0.0, 10.000481, 9.999586 
1.4150134e+3, 2.153987e+2, -804188.75, -861764.9, -9601.126, -0.021225773, -0.20717213, -802629.9, 26443.217, 0.0, 10.000379, 9.9996195 
1.4149986e+3, 2.253983e+2, -731918.06, -775319.25, -5354.8247, -0.019892428, -0.20797265, -731267.1, -190.1493, 0.0, 10.000198, 9.999626 
1.4149842e+3, 2.353981e+2, -666716.6, -687890.94, -8582.707, -0.020175783, -0.19280255, -663674.75, -30595.023, 0.0, 9.999951, 9.999674 
1.4149696e+3, 2.4539791e+2, -566940.7, -553095.2, -2604.5134, -0.028935112, -0.1943111, -552621.44, -17540.004, 0.0, 9.999809, 9.999994 
1.4149551e+3, 2.5539774e+2, -474607.72, -454950.3, -776.54553, -0.044906616, -0.21224838, -454919.7, -17837.826, 0.0, 9.999758, 10.00002 
1.4149408e+3, 2.6539767e+2, -409537.78, -398343.4, 6082.2744, -0.05154782, -0.20838203, -395674.84, -56591.39, 0.0, 9.999641, 9.999791 
1.4149266e+3, 2.7539772e+2, -333860.22, -307231.84, 3402.6968, -0.0501759, -0.1879992, -306803.9, -65718.37, 0.0, 9.999472, 9.9998255 
1.4149123e+3, 2.8539783e+2, -258167.72, -229687.84, -3361.0847, -0.054171495, -0.15003078, -229296.56, -86210.04, 0.0, 9.999361, 9.999738 
1.4148979e+3, 2.9539815e+2, -170597.11, -139780.03, -4486.983, -0.06343598, -0.09820781, -139140.02, -94053.984, 0.0, 9.999302, 9.99971 
1.4148833e+3, 3.0539712e+2, -176910.78, -171813.5, -5366.5396, -0.09062244, -0.1394936, -168421.16, -168421.16, 0.0, 9.999157, 9.999226 
1.4148693e+3, 3.1539673e+2, -67303.72, 106277.0, -227.39734, -0.057866532, -0.11111029, 106277.3, 106277.3, 0.0, 9.9989395, 10.001241 
1.4251469e+3, 1.2541823e+2, -1560355.8, -1744006.4, -49493.094, -0.10466335, -0.25883082, -1547866.9, 163009.92, 0.005965021, 10.001518, 9.999067 
1.4251325e+3, 1.354179e+2, -1435127.6, -1574129.3, 31961.617, -0.10133797, -0.24992606, -1428130.8, 184749.5, 0.0035795863, 10.001445, 9.9995985 
1.4251184e+3, 1.4541736e+2, -1370342.3, -1508602.1, 4263.1157, -0.05210827, -0.25398877, -1370211.0, 144674.56, 0.0015810293, 10.0012865, 9.99945 
1.4251031e+3, 1.5541692e+2, -1303333.9, -1424410.4, 714.0685, -0.060296714, -0.2453761, -1303329.6, 113560.336, 0.00041995206, 10.001067, 9.99946 
1.425088e+3, 1.6541633e+2, -1238678.4, -1367158.0, -4760.0815, -0.061757848, -0.23513022, -1238502.3, 80394.32, 0.000039492217, 10.000943, 9.99924 
1.425073e+3, 1.7541571e+2, -1144613.6, -1267374.9, -8311.945, -0.046232343, -0.22433284, -1144053.5, 76850.766, 0.00000008454083, 10.000901, 9.999273 
1.4250581e+3, 1.8541512e+2, -1062336.1, -1182010.1, 655.9997, -0.03348988, -0.20697786, -1062332.5, 60579.11, 0.0, 10.000814, 9.9992285 
1.4250432e+3, 1.9541459e+2, -979121.1, -1086092.6, 3191.091, -0.026946904, -0.1859985, -979026.0, 45892.313, 0.0, 10.00069, 9.999273 
1.4250284e+3, 2.0541395e+2, -887259.44, -963980.2, 2940.661, -0.024344899, -0.18589106, -887146.9, 39777.703, 0.0, 10.000532, 9.999516 
1.4250135e+3, 2.154133e+2, -813975.6, -873819.0, -3006.8804, -0.023718407, -0.205913, -813824.94, 15105.074, 0.0, 10.000344, 9.999552 
1.424999e+3, 2.2541283e+2, -729087.56, -775870.25, 588.20215, -0.022305103, -0.20871973, -729080.2, 1854.3374, 0.0, 10.000228, 9.999608 
1.4249842e+3, 2.3541257e+2, -636234.3, -675271.25, 2298.421, -0.020607235, -0.19834273, -636099.5, -3161.81, 0.0, 10.000171, 9.999654 
1.4249696e+3, 2.4541235e+2, -537509.2, -545918.7, 7029.195, -0.027751954, -0.1968511, -533523.1, 1416.5546, 0.0, 10.000043, 9.99993 
1.424955e+3, 2.5541222e+2, -464862.9, -456881.72, -18.01287, -0.042366147, -0.20512958, -456881.66, -19941.527, 0.0, 9.999854, 9.999959 
1.4249404e+3, 2.6541212e+2, -404230.25, -395010.3, 3150.9216, -0.049930856, -0.20182952, -394036.38, -55094.39, 0.0, 9.999676, 9.999797 
1.4249262e+3, 2.7541205e+2, -328462.2, -303988.5, 4465.4297, -0.05146377, -0.19099106, -303199.2, -62254.707, 0.0, 9.999507, 9.99983 
1.4249118e+3, 2.8541213e+2, -266788.53, -236141.56, 163.07143, -0.052969243, -0.1575076, -236140.69, -93194.85, 0.0, 9.999312, 9.999716 
1.4248972e+3, 2.9541242e+2, -202171.36, -157615.56, -2370.5435, -0.055145465, -0.10545286, -157489.8, -112544.18, 0.0, 9.999098, 9.999685 
1.4248824e+3, 3.0541152e+2, -206668.36, -189125.67, -5209.1694, -0.080763936, -0.13264523, -187695.45, -187695.45, 0.0, 9.998967, 9.999198 
1.4248683e+3, 3.15411e+2, -71158.97, 105278.04, -1252.727, -0.046640348, -0.1121115, 105286.93, 105286.93, 0.0, 9.998911, 10.001247 
1.4351486e+3, 1.254334e+2, -1560081.6, -1743156.5, -52385.35, -0.085923985, -0.250227, -1546151.9, 164576.4, 0.006222031, 10.001515, 9.999076 
1.4351338e+3, 1.3543281e+2, -1433924.1, -1572042.5, 28101.176, -0.11638894, -0.26742342, -1428425.6, 184308.36, 0.0037388622, 10.001446, 9.999614 
1.4351197e+3, 1.4543235e+2, -1370124.9, -1508958.0, -4927.975, -0.060629465, -0.26399794, -1369950.3, 144788.06, 0.0016542807, 10.001288, 9.999447 
1.4351043e+3, 1.5543208e+2, -1303230.0, -1425477.8, -7815.668, -0.054196816, -0.2402123, -1302732.3, 114008.79, 0.00044086375, 10.001071, 9.999452 
1.4350891e+3, 1.6543141e+2, -1246310.4, -1384378.5, -6923.2026, -0.05064936, -0.23019636, -1245964.1, 72784.33, 0.000042391872, 10.000948, 9.999121 
1.4350739e+3, 1.7543055e+2, -1151655.6, -1283202.4, -10379.134, -0.037452962, -0.2320157, -1150841.8, 69917.086, 0.00000010052836, 10.000904, 9.999164 
1.435059e+3, 1.854299e+2, -1057323.6, -1172670.8, -4259.475, -0.02900416, -0.21801658, -1057166.5, 65600.08, 0.0, 10.000817, 9.999291 
1.435044e+3, 1.9542947e+2, -974861.2, -1078308.6, -1743.8107, -0.028698133, -0.19332479, -974831.8, 49939.824, 0.0, 10.000694, 9.999326 
1.4350289e+3, 2.0542885e+2, -897986.56, -987272.44, -4218.532, -0.023219148, -0.18712613, -897787.7, 28990.338, 0.0, 10.000535, 9.999355 
1.435014e+3, 2.1542811e+2, -824027.75, -895691.56, -9783.474, -0.011620266, -0.19837846, -822716.1, 6068.9897, 0.0, 10.000347, 9.999401 
1.4349991e+3, 2.2542758e+2, -725331.5, -769052.6, -1348.2914, -0.011176947, -0.20247419, -725290.0, 5500.21, 0.0, 10.000231, 9.999655 
1.4349844e+3, 2.3542728e+2, -633196.6, -669949.7, 322.0526, -0.02084427, -0.20208386, -633193.8, -400.76105, 0.0, 10.000174, 9.999689 
1.4349696e+3, 2.4542698e+2, -549722.9, -572252.9, 444.9262, -0.030932073, -0.20003499, -549714.06, -14918.195, 0.0, 10.000045, 9.999749 
1.4349549e+3, 2.554268e+2, -476521.75, -481942.1, -6513.719, -0.041345697, -0.19879314, -472176.88, -35378.645, 0.0, 9.999856, 9.999786 
1.4349402e+3, 2.6542664e+2, -399783.7, -386457.1, -2408.4092, -0.048374325, -0.19212735, -386035.2, -47234.836, 0.0, 9.999678, 9.999856 
1.4349256e+3, 2.7542663e+2, -324409.72, -296136.78, -1054.075, -0.0523879, -0.1833458, -296097.53, -55295.69, 0.0, 9.999508, 9.999885 
1.434911e+3, 2.8542665e+2, -269673.3, -242517.89, -7210.9277, -0.051029984, -0.15859102, -240721.86, -97918.18, 0.0, 9.999312, 9.999673 
1.4348963e+3, 2.954267e+2, -205549.52, -164661.22, -9547.262, -0.045767505, -0.12035144, -162541.83, -117736.68, 0.0, 9.999097, 9.999639 
1.4348815e+3, 3.0542594e+2, -211311.45, -198763.13, -6527.547, -0.06706025, -0.12991968, -195983.34, -195983.34, 0.0, 9.998965, 9.999133 
1.4348674e+3, 3.154255e+2, -73612.125, 99830.16, -1380.3794, -0.02674812, -0.09963426, 99841.14, 99841.14, 0.0, 9.998911, 10.00121 
1.4451501e+3, 1.2544881e+2, -1595753.1, -1757934.1, -31499.617, -0.07669195, -0.2420916, -1589850.0, 120727.59, 0.006501599, 10.001261, 9.999096 
1.4451352e+3, 1.3544811e+2, -1456539.3, -1581464.0, 46891.645, -0.11738266, -0.27066547, -1440896.8, 171687.33, 0.003913358, 10.001286, 9.999625 
1.4451209e+3, 1.4544767e+2, -1378738.0, -1518946.1, 7115.5713, -0.05416924, -0.2641033, -1378377.8, 136210.39, 0.0017359345, 10.001256, 9.9993925 
1.4451055e+3, 1.5544724e+2, -1288729.8, -1424353.6, 560.43225, -0.051852927, -0.24670544, -1288727.5, 127864.57, 0.000464682, 10.001198, 9.999397 
1.44509e+3, 1.6544656e+2, -1229320.8, -1382766.1, 3339.1921, -0.0511428, -0.23549631, -1229248.1, 89351.78, 0.000045794342, 10.001095, 9.99906 
1.4450748e+3, 1.7544572e+2, -1148725.8, -1288386.9, 3596.917, -0.038728617, -0.22886689, -1148633.3, 71976.98, 0.00000012546444, 10.000955, 9.999103 
1.4450596e+3, 1.8544501e+2, -1060090.1, -1179504.6, 5462.1514, -0.029721381, -0.21523082, -1059840.8, 62777.797, 0.0, 10.000824, 9.999241 
1.4450446e+3, 1.9544445e+2, -977179.94, -1084729.9, -800.3644, -0.028178062, -0.19873467, -977174.0, 47450.805, 0.0, 10.000703, 9.999277 
1.4450295e+3, 2.054438e+2, -891303.5, -985004.6, -2357.2747, -0.021644222, -0.19192186, -891244.25, 35387.152, 0.0, 10.0005865, 9.999345 
1.4450145e+3, 2.1544315e+2, -806754.8, -888724.7, 3078.6853, -0.00883786, -0.19474374, -806639.4, 21998.352, 0.0, 10.000474, 9.999388 
1.4449996e+3, 2.2544254e+2, -709546.3, -768274.44, 14429.394, -0.007867242, -0.20077431, -706192.56, 24450.678, 0.0, 10.00037, 9.999592 
1.4449847e+3, 2.3544206e+2, -623128.5, -672035.75, 7292.0474, -0.01770342, -0.21128874, -622064.44, 10583.1455, 0.0, 10.000274, 9.999626 
1.4449696e+3, 2.454417e+2, -543954.0, -576936.56, 3674.4219, -0.029241657, -0.20909303, -543549.6, -8898.386, 0.0, 10.000118, 9.9996805 
1.4449547e+3, 2.5544155e+2, -472935.78, -487318.47, 4874.313, -0.042164605, -0.19819412, -471439.53, -34785.68, 0.0, 9.999913, 9.9997225 
1.4449398e+3, 2.6544145e+2, -392708.94, -381840.3, 11348.095, -0.04780662, -0.18659724, -374692.47, -36036.58, 0.0, 9.9997225, 9.999866 
1.4449252e+3, 2.754414e+2, -318794.25, -292351.13, 8660.967, -0.0471619, -0.17705378, -289766.94, -49110.063, 0.0, 9.999543, 9.999892 
1.4449105e+3, 2.8544134e+2, -259617.73, -241085.8, 1469.3246, -0.04429636, -0.15898769, -240970.03, -98310.71, 0.0, 9.999397, 9.999641 
1.4448956e+3, 2.9544124e+2, -180934.34, -156429.45, -304.798, -0.040189363, -0.13342911, -156425.66, -111763.43, 0.0, 9.999282, 9.999605 
1.4448807e+3, 3.054406e+2, -207939.14, -200567.27, 2002.6244, -0.061208736, -0.1269574, -200058.36, -200058.36, 0.0, 9.999004, 9.999101 
1.4448662e+3, 3.1544015e+2, -120185.95, 75944.86, 10810.482, -0.015151517, -0.09206714, 76538.92, 76538.92, 0.0, 9.998598, 10.001196 
1.4551513e+3, 1.2546448e+2, -1593653.5, -1754728.8, -29734.33, -0.07679486, -0.23524494, -1588339.9, 122084.4, 0.0068028797, 10.001265, 9.999117 
1.4551365e+3, 1.3546383e+2, -1456111.1, -1581412.1, 46500.35, -0.10507098, -0.2603127, -1440740.0, 171690.17, 0.004102922, 10.001287, 9.999626 
1.4551224e+3, 1.4546332e+2, -1386172.3, -1535082.0, 3658.6677, -0.033615727, -0.2548068, -1386082.4, 128352.59, 0.0018261482, 10.001258, 9.999282 
1.4551066e+3, 1.5546252e+2, -1295632.6, -1439528.9, -2460.9912, -0.05328247, -0.26450658, -1295590.5, 120852.055, 0.00049169204, 10.0012, 9.999292 
1.4550911e+3, 1.654618e+2, -1229700.6, -1384564.0, -2530.588, -0.06290596, -0.25063908, -1229659.3, 88791.33, 0.0000497536, 10.001098, 9.999047 
1.4550757e+3, 1.7546123e+2, -1149635.6, -1291453.1, -2046.8154, -0.04982375, -0.21510445, -1149606.1, 70851.92, 0.00000016567238, 10.000958, 9.999081 
1.4550605e+3, 1.8546045e+2, -1071270.3, -1203918.1, 535.74097, -0.03554565, -0.19895099, -1071268.1, 51199.25, 0.0, 10.000827, 9.999072 
1.4550453e+3, 1.9545951e+2, -987301.7, -1106895.1, -5469.6514, -0.025475316, -0.20233797, -987052.06, 37425.613, 0.0, 10.000706, 9.999124 
1.4550301e+3, 2.0545882e+2, -881562.2, -965878.6, -6655.184, -0.019779528, -0.20027092, -881040.1, 45444.38, 0.0, 10.000589, 9.9994755 
1.455015e+3, 2.1545838e+2, -798022.8, -871633.6, -1056.2937, -0.015451373, -0.19498582, -798007.7, 30480.152, 0.0, 10.000477, 9.999504 
1.4549997e+3, 2.2545771e+2, -721551.06, -794145.1, 11032.448, -0.012409946, -0.20362832, -719911.44, 10582.334, 0.0, 10.000372, 9.9994135 
1.4549848e+3, 2.3545694e+2, -634349.94, -696301.94, 3858.1228, -0.01120329, -0.22608326, -634110.56, -1609.216, 0.0, 10.000277, 9.999459 
1.4549698e+3, 2.4545653e+2, -540742.7, -571138.1, -3538.3074, -0.022731565, -0.2241429, -540336.25, -5830.336, 0.0, 10.00012, 9.999721 
1.4549546e+3, 2.5545648e+2, -470029.53, -482004.7, -2043.3965, -0.044919346, -0.20331538, -469690.47, -33183.246, 0.0, 9.999914, 9.999759 
1.4549395e+3, 2.654564e+2, -395550.44, -388424.3, 5467.2837, -0.048304796, -0.18526396, -385461.53, -46952.773, 0.0, 9.999723, 9.99982 
1.4549248e+3, 2.7545643e+2, -321618.1, -298919.66, 2908.7732, -0.035871495, -0.1723232, -298552.84, -58042.91, 0.0, 9.999545, 9.999847 
1.4549099e+3, 2.8545624e+2, -260859.8, -244503.34, -1863.3339, -0.032916557, -0.15880354, -244293.75, -101780.64, 0.0, 9.999399, 9.999619 
1.4548948e+3, 2.9545605e+2, -182112.48, -159867.69, -4160.736, -0.03858089, -0.14450836, -159114.92, -114597.71, 0.0, 9.999285, 9.999581 
1.4548795e+3, 3.0545554e+2, -208037.67, -201257.36, -12690.524, -0.06360642, -0.123686016, -191511.97, -191511.97, 0.0, 9.999005, 9.999097 
1.4548649e+3, 3.1545508e+2, -120442.32, 76022.445, -1991.9355, -0.012849888, -0.08866164, 76042.63, 76042.63, 0.0, 9.998594, 10.0012 
1.4651527e+3, 1.254802e+2, -1584201.3, -1755953.3, -21235.664, -0.061026935, -0.22860818, -1581614.6, 128655.5, 0.0071233953, 10.001357, 9.999063 
1.4651377e+3, 1.3547948e+2, -1467753.6, -1595959.1, 45453.965, -0.10222304, -0.25399783, -1453273.8, 159003.45, 0.004306822, 10.001247, 9.999544 
1.4651236e+3, 1.4547896e+2, -1403954.4, -1548693.6, 1382.577, -0.026239257, -0.2421012, -1403941.1, 110341.15, 0.0019247683, 10.001159, 9.999235 
1.4651078e+3, 1.5547805e+2, -1311864.3, -1452070.5, -287.3324, -0.05282088, -0.25981596, -1311863.8, 104427.4, 0.0005218786, 10.001111, 9.9992485 
1.465092e+3, 1.6547728e+2, -1235694.8, -1387638.3, -14.381198, -0.06618677, -0.24778172, -1235694.8, 82604.6, 0.0000541964, 10.00106, 9.999043 
1.4650767e+3, 1.7547674e+2, -1143899.5, -1289318.1, 748.0989, -0.05306026, -0.20826806, -1143895.6, 76410.43, 0.00000022299002, 10.001002, 9.999073 
1.4650613e+3, 1.8547589e+2, -1066512.9, -1209991.0, 5810.6733, -0.036957894, -0.19472985, -1066277.9, 56038.082, 0.0, 10.000897, 9.998996 
1.465046e+3, 1.9547479e+2, -985309.44, -1113772.4, 6374.853, -0.023924544, -0.20629004, -984993.9, 39334.34, 0.0, 10.000755, 9.999052 
1.4650308e+3, 2.0547408e+2, -866939.44, -954738.3, 6120.5825, -0.020027433, -0.20420662, -866514.8, 59820.254, 0.0, 10.000674, 9.999511 
1.4650154e+3, 2.1547374e+2, -771566.6, -855423.94, 4003.4365, -0.021440143, -0.19216576, -771375.94, 56960.914, 0.0, 10.000645, 9.999534 
1.4650002e+3, 2.2547303e+2, -711242.4, -797410.44, 12437.641, -0.017144993, -0.20321573, -709483.06, 20860.105, 0.0, 10.00048, 9.999339 
1.4649852e+3, 2.3547208e+2, -650246.3, -711681.2, 12775.486, -0.008858445, -0.23567799, -647695.5, -15342.861, 0.0, 10.000202, 9.999389 
1.46497e+3, 2.4547166e+2, -553304.4, -577731.75, 8367.786, -0.016698614, -0.23204099, -550712.9, -16355.295, 0.0, 10.000038, 9.999714 
1.4649545e+3, 2.5547174e+2, -463245.94, -479484.5, 5798.2993, -0.037937336, -0.19976725, -461388.1, -25030.092, 0.0, 9.999966, 9.999751 
1.4649393e+3, 2.6547167e+2, -390505.78, -391827.6, 7963.1987, -0.04121145, -0.1778874, -383176.13, -44816.5, 0.0, 9.999784, 9.999766 
1.4649244e+3, 2.754716e+2, -329598.66, -308293.7, 4556.3906, -0.02944323, -0.16753462, -307360.16, -66998.484, 0.0, 9.999515, 9.999797 
1.4649093e+3, 2.8547135e+2, -278126.6, -252286.0, 2840.5645, -0.024139382, -0.15795858, -251977.44, -109611.93, 0.0, 9.99928, 9.999621 
1.4648941e+3, 2.954711e+2, -212503.66, -174010.0, 2025.3574, -0.025037622, -0.14831898, -173903.73, -129533.73, 0.0, 9.999075, 9.999584 
1.4648785e+3, 3.0547073e+2, -228126.14, -208411.95, -10414.235, -0.054098405, -0.11285427, -203929.64, -203929.64, 0.0, 9.9988575, 9.999118 
1.4648636e+3, 3.1547025e+2, -113088.95, 81514.26, 3731.3276, -0.010762339, -0.08452793, 81585.77, 81585.77, 0.0, 9.998638, 10.001215 
1.4751545e+3, 1.2549604e+2, -1593394.4, -1775657.1, -23647.54, -0.030828713, -0.22290926, -1590376.3, 119738.49, 0.007461449, 10.001358, 9.998928 
1.4751391e+3, 1.354951e+2, -1478881.6, -1620004.8, 40185.035, -0.10851668, -0.25166285, -1468241.1, 143883.56, 0.0045245043, 10.00125, 9.999378 
1.4751248e+3, 1.4549464e+2, -1403044.3, -1547795.3, -1612.0374, -0.031447884, -0.22620966, -1403026.3, 111103.25, 0.0020316239, 10.001162, 9.999241 
1.4751089e+3, 1.5549384e+2, -1310939.4, -1451110.5, -2759.6948, -0.050554212, -0.23348974, -1310885.0, 105252.38, 0.0005551441, 10.001113, 9.999255 
1.475093e+3, 1.6549301e+2, -1235351.5, -1387883.1, -2744.7742, -0.06134987, -0.22764644, -1235302.1, 82843.77, 0.000059017875, 10.001061, 9.999042 
1.4750776e+3, 1.7549227e+2, -1143512.4, -1289463.5, -1954.2711, -0.048775557, -0.20832117, -1143486.3, 76667.71, 0.0000002932695, 10.001005, 9.999072 
1.4750622e+3, 1.8549135e+2, -1065511.8, -1208917.3, 59.357433, -0.034187585, -0.20227063, -1065511.8, 56652.63, 0.0, 10.0009, 9.999002 
1.4750467e+3, 1.954903e+2, -984544.56, -1113331.1, 1010.9811, -0.023584384, -0.2105121, -984536.6, 39639.58, 0.0, 10.000758, 9.999054 
1.4750314e+3, 2.0548959e+2, -871060.5, -964394.44, 4914.6494, -0.022422872, -0.2037924, -870802.44, 55380.5, 0.0, 10.000677, 9.999444 
1.475016e+3, 2.1548924e+2, -775595.0, -864769.75, 2549.003, -0.026918272, -0.18632478, -775522.2, 52662.64, 0.0, 10.000648, 9.999469 
1.4750007e+3, 2.254885e+2, -709125.6, -793903.25, 2157.2625, -0.022201177, -0.19950478, -709070.75, 21120.746, 0.0, 10.000483, 9.999363 
1.4749853e+3, 2.3548749e+2, -648426.4, -708722.44, 3083.5818, -0.01074098, -0.23994698, -648269.06, -16067.53, 0.0, 10.000204, 9.999409 
1.47497e+3, 2.4548708e+2, -557040.2, -586305.44, 6239.004, -0.011156805, -0.23268801, -555765.56, -21559.152, 0.0, 10.00004, 9.999656 
1.4749546e+3, 2.554872e+2, -467071.28, -488303.1, 3408.0503, -0.021222752, -0.18753855, -466537.66, -30331.229, 0.0, 9.999968, 9.99969 
1.4749393e+3, 2.6548713e+2, -394751.1, -401417.78, -1324.7416, -0.026599435, -0.16442494, -394497.5, -56288.758, 0.0, 9.999786, 9.999701 
1.474924e+3, 2.7548686e+2, -333652.22, -317294.22, -4493.667, -0.028020155, -0.16264999, -316141.06, -75928.66, 0.0, 9.999516, 9.999736 
1.4749087e+3, 2.8548658e+2, -276270.38, -248800.95, -4025.8342, -0.017983394, -0.15636374, -248223.1, -106006.2, 0.0, 9.99928, 9.999646 
1.4748935e+3, 2.954864e+2, -210852.27, -170661.33, -4963.252, 0.00063204276, -0.14465848, -170057.48, -125836.45, 0.0, 9.999074, 9.999609 
1.4748777e+3, 3.054862e+2, -225235.84, -202572.58, -17759.28, -0.032510914, -0.09429346, -192837.7, -192837.7, 0.0, 9.998857, 9.999159 
1.4748622e+3, 3.1548563e+2, -111131.48, 84808.52, -1697.8251, -0.009072997, -0.078437544, 84823.234, 84823.234, 0.0, 9.998639, 10.001238 
1.4851558e+3, 1.2551165e+2, -1606519.1, -1778718.1, -30818.66, -0.018895477, -0.22381724, -1601169.8, 108792.08, 0.007817738, 10.001255, 9.998956 
1.4851402e+3, 1.3551062e+2, -1485536.8, -1625538.9, 39761.16, -0.11057451, -0.26085246, -1475032.6, 136940.13, 0.004756172, 10.001216, 9.999356 
1.4851259e+3, 1.4551026e+2, -1407263.6, -1551842.1, 1705.2524, -0.028152352, -0.22348809, -1407243.5, 106733.43, 0.0021468382, 10.001143, 9.999221 
1.4851099e+3, 1.5550956e+2, -1319952.3, -1457000.9, -1337.1818, -0.049637202, -0.21707346, -1319939.3, 96044.87, 0.00059159106, 10.00106, 9.99924 
1.4850941e+3, 1.655087e+2, -1245613.1, -1389026.0, -1313.6487, -0.06097247, -0.21604253, -1245601.1, 72391.734, 0.0000641918, 10.000977, 9.999074 
1.4850786e+3, 1.755078e+2, -1157728.4, -1292898.9, 1511.4481, -0.0466367, -0.21622702, -1157711.5, 62290.32, 0.00000037325287, 10.000895, 9.999101 
1.4850631e+3, 1.8550687e+2, -1077238.6, -1216514.0, 2258.7693, -0.033763815, -0.21017309, -1077202.0, 44810.152, 0.0, 10.00083, 9.998983 
1.4850475e+3, 1.9550596e+2, -982571.6, -1114105.1, 936.7198, -0.028032603, -0.20264328, -982564.94, 41457.984, 0.0, 10.000781, 9.999037 
1.485032e+3, 2.0550527e+2, -872680.06, -963602.4, 6605.3745, -0.02589986, -0.19563818, -872202.7, 53826.918, 0.0, 10.000661, 9.999456 
1.4850165e+3, 2.155048e+2, -798944.25, -874563.7, 9703.081, -0.024579592, -0.19056235, -797719.06, 30313.219, 0.0, 10.000483, 9.99948 
1.485001e+3, 2.2550404e+2, -728526.4, -803258.9, 7727.3633, -0.019726444, -0.20521215, -727735.75, 2303.3115, 0.0, 10.000351, 9.999361 
1.4849856e+3, 2.3550309e+2, -641032.7, -705249.5, 6502.184, -0.012752387, -0.23786145, -640380.94, -8332.442, 0.0, 10.000257, 9.999407 
1.4849702e+3, 2.455027e+2, -543865.6, -580091.06, 13448.605, -0.011886406, -0.22962089, -539418.75, -5365.389, 0.0, 10.000133, 9.999653 
1.4849547e+3, 2.555028e+2, -465353.94, -487930.25, 14106.12, -0.015904903, -0.1893481, -458575.4, -22521.615, 0.0, 9.999983, 9.999684 
1.4849392e+3, 2.6550266e+2, -395748.63, -404642.53, 7624.7256, -0.01914148, -0.1652522, -391368.8, -53312.5, 0.0, 9.999793, 9.999675 
1.4849235e+3, 2.7550244e+2, -328087.13, -317430.28, 7046.046, -0.02167481, -0.1577352, -313924.75, -73864.75, 0.0, 9.999568, 9.999709 
1.484908e+3, 2.8550217e+2, -268233.9, -245272.06, 8508.683, -0.0100142155, -0.14976954, -242462.81, -100398.14, 0.0, 9.999338, 9.999641 
1.4848927e+3, 2.9550195e+2, -206241.4, -168661.1, 4864.7534, 0.0124106, -0.13916928, -168041.56, -123972.45, 0.0, 9.999108, 9.999605 
1.4848766e+3, 3.0550188e+2, -219575.67, -192210.38, -8744.093, -0.023238314, -0.08058567, -189654.98, -189654.98, 0.0, 9.998864, 9.999226 
1.4848608e+3, 3.1550115e+2, -112054.09, 88785.45, 10895.074, -0.0037715682, -0.086541794, 89374.75, 89374.75, 0.0, 9.998616, 10.001276 
1.495157e+3, 1.255271e+2, -1593985.6, -1753789.1, -29286.096, -0.024908826, -0.2318583, -1588787.6, 121022.88, 0.0081952335, 10.00126, 9.9991255 
1.4951415e+3, 1.3552606e+2, -1477728.8, -1610146.5, 36956.0, -0.10860663, -0.28091693, -1468113.0, 143707.77, 0.005003208, 10.001219, 9.999461 
1.4951271e+3, 1.4552581e+2, -1410507.6, -1559327.1, -2567.3533, -0.016852219, -0.23314524, -1410463.4, 103360.555, 0.0022711838, 10.001144, 9.99917 
1.495111e+3, 1.5552525e+2, -1322617.0, -1463368.4, -5095.002, -0.050165597, -0.21020052, -1322432.9, 93397.81, 0.00063171395, 10.001061, 9.999196 
1.495095e+3, 1.6552435e+2, -1241031.8, -1380501.6, -4997.288, -0.06496245, -0.21272328, -1240853.0, 76986.78, 0.000069858055, 10.000979, 9.999132 
1.4950794e+3, 1.7552333e+2, -1153540.8, -1285368.5, -1989.3104, -0.046635624, -0.23169032, -1153510.8, 66338.77, 0.00000046463128, 10.000897, 9.999151 
1.4950639e+3, 1.8552248e+2, -1080208.5, -1223800.3, 122.91117, -0.03573689, -0.21832882, -1080208.4, 41650.742, 0.0, 10.0008335, 9.998933 
1.4950483e+3, 1.9552179e+2, -985009.0, -1120186.5, -1293.1924, -0.037290104, -0.18291152, -984996.6, 38871.563, 0.0, 10.000784, 9.998995 
1.4950326e+3, 2.0552108e+2, -866254.2, -951262.5, -183.8943, -0.030477423, -0.17993897, -866253.8, 59621.215, 0.0, 10.000664, 9.99954 
1.4950171e+3, 2.155204e+2, -792845.4, -862942.94, 3168.1035, -0.014451273, -0.2048236, -792702.5, 35176.766, 0.0, 10.000485, 9.999559 
1.4950015e+3, 2.2551966e+2, -730269.1, -807881.9, 4436.2705, -0.009803599, -0.22024491, -730016.4, -130.5281, 0.0, 10.000353, 9.999329 
1.4949857e+3, 2.3551892e+2, -642598.7, -709495.7, 3242.5225, -0.015114599, -0.22939003, -642441.9, -10548.221, 0.0, 10.000259, 9.999376 
1.49497e+3, 2.455185e+2, -540099.25, -573237.7, 8404.749, -0.019133268, -0.22289452, -538089.44, -4190.911, 0.0, 10.000134, 9.9997 
1.4949545e+3, 2.555184e+2, -461823.2, -481399.25, 9098.814, -0.022188835, -0.2054668, -458247.3, -22346.96, 0.0, 9.999985, 9.999729 
1.494939e+3, 2.6551834e+2, -394949.8, -403719.1, 124.40339, -0.018960666, -0.18063581, -394948.06, -57045.42, 0.0, 9.999794, 9.999681 
1.4949232e+3, 2.755183e+2, -327519.03, -317101.22, -425.60336, -0.010423874, -0.15287077, -317083.88, -77179.15, 0.0, 9.99957, 9.999711 
1.4949074e+3, 2.855181e+2, -270739.8, -251297.13, 896.72955, -0.00049608655, -0.13815376, -251255.86, -109346.65, 0.0, 9.99934, 9.9996 
1.4948918e+3, 2.955178e+2, -208555.53, -174266.6, -2856.6497, 0.009593331, -0.13182248, -174030.23, -130115.6, 0.0, 9.99911, 9.999567 
1.4948754e+3, 3.0551776e+2, -213203.14, -179768.44, -17249.084, -0.026830632, -0.072058655, -172464.95, -172464.95, 0.0, 9.998866, 9.999311 
1.4948595e+3, 3.1551683e+2, -108691.7, 95179.29, 4495.6934, 0.0051007853, -0.108568594, 95278.375, 95278.375, 0.0, 9.998616, 10.00132 
1.5051582e+3, 1.2554261e+2, -1571856.8, -1728352.1, -21495.111, -0.029674558, -0.23919758, -1568958.1, 140700.67, 0.008597475, 10.001351, 9.999255 
1.5051426e+3, 1.3554177e+2, -1481192.6, -1604487.5, 36226.938, -0.108059816, -0.27673984, -1471336.3, 140330.7, 0.0052676955, 10.001165, 9.999525 
1.5051283e+3, 1.455416e+2, -1426304.4, -1564923.4, -1116.5511, -0.006332445, -0.22569402, -1426295.4, 87373.875, 0.0024058474, 10.001029, 9.9991865 
1.505112e+3, 1.5554094e+2, -1336599.8, -1468126.9, 1109.2955, -0.047098022, -0.21291712, -1336590.4, 79086.47, 0.0006761825, 10.000958, 9.999212 
1.5050961e+3, 1.6554004e+2, -1250298.9, -1384379.0, 1604.2377, -0.066285275, -0.2168542, -1250279.6, 67406.5, 0.0000762831, 10.000915, 9.999135 
1.5050803e+3, 1.7553908e+2, -1154368.0, -1284746.1, 143.02127, -0.049107, -0.23040408, -1154367.8, 65327.78, 0.00000057502143, 10.000889, 9.999159 
1.5050647e+3, 1.8553826e+2, -1080590.4, -1214734.5, 3844.557, -0.036799345, -0.21585678, -1080480.3, 41224.227, 0.0, 10.0007925, 9.999014 
1.505049e+3, 1.9553766e+2, -1000820.25, -1119093.5, 11772.286, -0.03530479, -0.18252273, -999659.9, 24052.584, 0.0, 10.00064, 9.999071 
1.5050332e+3, 2.0553693e+2, -884330.7, -960647.6, 12698.076, -0.02961825, -0.18274552, -882273.3, 43445.92, 0.0, 10.000544, 9.999533 
1.5050176e+3, 2.155362e+2, -792005.56, -862904.1, 8735.49, -0.01781286, -0.21164118, -790945.1, 36779.207, 0.0, 10.000494, 9.999555 
1.5050018e+3, 2.2553551e+2, -721100.8, -797608.2, 9733.272, -0.013455352, -0.22471514, -719881.94, 9848.576, 0.0, 10.000393, 9.999379 
1.504986e+3, 2.3553489e+2, -640930.7, -703235.0, 14199.244, -0.015998486, -0.22634651, -637847.25, -6110.225, 0.0, 10.000249, 9.999424 
1.5049702e+3, 2.4553451e+2, -551356.4, -577020.8, 17659.264, -0.017748864, -0.2192472, -542359.4, -8617.75, 0.0, 10.000052, 9.999712 
1.5049544e+3, 2.5553438e+2, -486425.75, -491923.97, 15163.159, -0.018888455, -0.20694949, -473764.5, -38020.664, 0.0, 9.999812, 9.999739 
1.5049388e+3, 2.6553434e+2, -422361.66, -417892.13, 3871.5552, -0.013883045, -0.18007825, -415656.66, -77910.58, 0.0, 9.999612, 9.999671 
1.5049227e+3, 2.755344e+2, -346648.9, -327580.4, 1597.9907, -0.003689598, -0.14445612, -327447.4, -87699.72, 0.0, 9.999446, 9.999698 
1.5049069e+3, 2.855341e+2, -276134.03, -255387.45, 4126.933, 0.005441802, -0.13071293, -254596.67, -112844.1, 0.0, 9.999311, 9.999585 
1.5048909e+3, 2.9553372e+2, -196272.06, -169721.31, 1846.821, 0.012691235, -0.13209274, -169593.47, -125834.48, 0.0, 9.999202, 9.999553 
1.5048744e+3, 3.0553383e+2, -189591.03, -162361.69, -16266.434, -0.026157878, -0.063993864, -154764.19, -154764.19, 0.0, 9.999003, 9.999364 
1.5048581e+3, 3.1553274e+2, -90403.16, 104246.0, 4781.6416, 0.0073088584, -0.11467967, 104363.4, 104363.4, 0.0, 9.998743, 10.001321 
1.5151596e+3, 1.2555824e+2, -1565501.9, -1715961.5, -24518.068, -0.033766154, -0.24614882, -1561607.4, 147898.56, 0.009026395, 10.001354, 9.99934 
1.5151438e+3, 1.3555777e+2, -1479520.8, -1601721.4, 28178.107, -0.109010816, -0.24977258, -1473336.3, 138174.44, 0.0055510993, 10.001166, 9.999544 
1.5151294e+3, 1.455576e+2, -1420832.8, -1554342.3, -4896.896, 0.0033110406, -0.20226793, -1420653.4, 92859.27, 0.002551727, 10.001031, 9.999259 
1.515113e+3, 1.5555665e+2, -1331622.0, -1458770.4, -2043.4258, -0.0406551, -0.2248084, -1331589.1, 83933.29, 0.0007254567, 10.000961, 9.999276 
1.5150969e+3, 1.6555578e+2, -1253528.4, -1392150.3, 99.80072, -0.065138884, -0.22795479, -1253528.3, 64003.668, 0.00008370529, 10.000917, 9.999082 
1.5150812e+3, 1.7555504e+2, -1156715.8, -1290653.3, -1491.1705, -0.054065768, -0.21284339, -1156699.1, 62840.82, 0.00000071310234, 10.000892, 9.999118 
1.5150654e+3, 1.8555428e+2, -1065773.5, -1185035.9, -2271.2498, -0.036980715, -0.20313405, -1065730.3, 55817.813, 0.0, 10.000795, 9.999217 
1.5150496e+3, 1.9555354e+2, -987167.7, -1091928.5, 6024.2295, -0.022282956, -0.20118348, -986822.44, 36733.254, 0.0, 10.000643, 9.999257 
1.5150338e+3, 2.0555285e+2, -891072.44, -975784.75, 10728.529, -0.023548607, -0.20370945, -889734.8, 35827.54, 0.0, 10.000547, 9.999428 
1.5150177e+3, 2.1555221e+2, -798016.0, -876450.06, 6692.868, -0.03479098, -0.2109965, -797448.94, 30118.545, 0.0, 10.000497, 9.999461 
1.515002e+3, 2.255516e+2, -711657.9, -779037.6, 4587.348, -0.030690644, -0.21872969, -711347.0, 18226.234, 0.0, 10.000396, 9.999506 
1.5149862e+3, 2.3555104e+2, -632132.4, -685990.44, 9003.943, -0.015312233, -0.22878984, -630667.0, 911.81287, 0.0, 10.000252, 9.999541 
1.5149704e+3, 2.4555072e+2, -553000.7, -581338.2, 9209.997, -0.0076421346, -0.21862745, -550270.4, -16687.69, 0.0, 10.000054, 9.999682 
1.5149544e+3, 2.5555068e+2, -488263.34, -496460.78, 6983.681, -0.0059795096, -0.19354227, -484264.47, -48679.992, 0.0, 9.999813, 9.999708 
1.5149383e+3, 2.6555064e+2, -424713.22, -423341.16, -1469.1703, -0.0039814524, -0.16333054, -422405.75, -84818.836, 0.0, 9.999613, 9.999634 
1.5149222e+3, 2.755506e+2, -348947.38, -332935.4, -3521.6494, -0.0017627088, -0.13247974, -332195.1, -92605.77, 0.0, 9.999447, 9.999661 
1.5149061e+3, 2.8555024e+2, -275436.22, -254747.14, 1007.1859, 0.0075932513, -0.12765537, -254698.23, -113103.03, 0.0, 9.999313, 9.99959 
1.5148902e+3, 2.9554972e+2, -195444.4, -169049.0, -1759.645, 0.021929607, -0.14046378, -168932.22, -125329.52, 0.0, 9.999205, 9.9995575 
1.5148734e+3, 3.0554995e+2, -188306.02, -160800.88, -25265.299, -0.021179905, -0.056501705, -145787.69, -145787.69, 0.0, 9.999007, 9.999374 
1.514857e+3, 3.15549e+2, -93450.016, 96641.61, -1884.4761, 0.0020933005, -0.10229646, 96660.29, 96660.29, 0.0, 9.998747, 10.001267 
1.5251608e+3, 1.255741e+2, -1568795.1, -1715433.0, -16305.1875, -0.027791902, -0.24060628, -1567004.0, 142346.78, 0.009480747, 10.001325, 9.999356 
1.5251449e+3, 1.355736e+2, -1493351.9, -1613146.0, 25579.451, -0.10437, -0.24271405, -1488118.5, 123237.48, 0.0058531812, 10.001094, 9.9995 
1.5251304e+3, 1.455734e+2, -1424818.8, -1544586.9, -3453.4465, 0.012229133, -0.1993929, -1424719.3, 88638.586, 0.002708946, 10.000955, 9.999362 
1.525114e+3, 1.555725e+2, -1333030.9, -1448824.4, 1577.2509, -0.040068816, -0.22902933, -1333009.4, 82357.41, 0.00077962264, 10.000908, 9.999369 
1.5250978e+3, 1.6557169e+2, -1264613.8, -1400904.3, 5837.323, -0.0671554, -0.22907364, -1264364.3, 53011.676, 0.000092205315, 10.000858, 9.999049 
1.525082e+3, 1.7557102e+2, -1171165.3, -1300046.4, 5292.827, -0.053707927, -0.20278512, -1170948.3, 48435.82, 0.0000008739153, 10.000805, 9.999095 
1.5250662e+3, 1.8557031e+2, -1064678.0, -1167515.6, -230.23601, -0.036997285, -0.19523461, -1064677.5, 56713.98, 0.0, 10.000731, 9.999368 
1.5250503e+3, 1.9556959e+2, -977785.7, -1071635.6, 3859.1143, -0.024972618, -0.20617487, -977627.3, 45770.55, 0.0, 10.000641, 9.999396 
1.5250343e+3, 2.0556891e+2, -895964.3, -981868.06, 10581.637, -0.02829285, -0.21093279, -894680.06, 30724.225, 0.0, 10.000531, 9.999393 
1.5250182e+3, 2.1556833e+2, -813189.44, -886557.1, 11268.903, -0.04113378, -0.21153243, -811497.56, 15912.301, 0.0, 10.000406, 9.999434 
1.5250023e+3, 2.255678e+2, -722364.94, -769452.1, 8806.399, -0.036347374, -0.21489853, -720771.8, 8642.951, 0.0, 10.00026, 9.999637 
1.5249863e+3, 2.3556739e+2, -646216.9, -679022.56, 13066.368, -0.018486677, -0.22287649, -641648.7, -10230.206, 0.0, 10.000097, 9.999663 
1.5249704e+3, 2.4556711e+2, -569744.0, -593767.56, 11615.987, -0.0074193613, -0.21367769, -565046.06, -31623.928, 0.0, 9.999961, 9.999641 
1.5249543e+3, 2.55567e+2, -486819.72, -499824.34, 8048.9453, -0.0015311225, -0.19160277, -482974.78, -47549.86, 0.0, 9.999843, 9.99967 
1.524938e+3, 2.6556692e+2, -414252.3, -415861.2, 924.1584, 0.0019247431, -0.16244139, -413831.53, -76403.97, 0.0, 9.999677, 9.999654 
1.5249218e+3, 2.755669e+2, -344584.72, -328577.22, 2883.6646, 0.0033150706, -0.13140926, -328073.6, -88644.055, 0.0, 9.999469, 9.99968 
1.5249056e+3, 2.8556654e+2, -281476.47, -257672.61, 10378.292, 0.013419458, -0.12814224, -253783.25, -112347.75, 0.0, 9.999274, 9.999587 
1.5248895e+3, 2.9556602e+2, -212374.98, -177313.2, 6617.158, 0.029721873, -0.14333165, -176105.92, -132662.53, 0.0, 9.999091, 9.999554 
1.5248725e+3, 3.0556637e+2, -190430.36, -162209.52, -17872.15, -0.015722482, -0.04691287, -153548.95, -153548.95, 0.0, 9.998996, 9.999369 
1.5248556e+3, 3.1556532e+2, -66365.93, 101075.27, 6340.223, 0.0052390164, -0.09978705, 101315.01, 101315.01, 0.0, 9.998972, 10.001189 
1.5351623e+3, 1.2559023e+2, -1572478.5, -1724173.4, -20298.309, -0.0135061685, -0.22422549, -1569809.4, 139383.67, 0.009956889, 10.0013275, 9.999296 
1.5351461e+3, 1.3558932e+2, -1500366.5, -1629259.5, 16257.861, -0.09454594, -0.254468, -1498347.4, 112855.12, 0.0061724978, 10.001099, 9.999388 
1.5351315e+3, 1.4558911e+2, -1415170.0, -1526086.8, -6093.671, 0.020420011, -0.21566172, -1414836.1, 98368.29, 0.0028771062, 10.00096, 9.999487 
1.5351148e+3, 1.5558852e+2, -1324138.5, -1431727.1, -804.2923, -0.04518806, -0.22589928, -1324132.5, 91077.13, 0.000838507, 10.000912, 9.999485 
1.5350987e+3, 1.6558778e+2, -1265381.3, -1403638.3, 3293.9436, -0.07225666, -0.22073568, -1265302.8, 51915.18, 0.000101727834, 10.000861, 9.99903 
1.5350829e+3, 1.7558706e+2, -1171625.0, -1301943.6, 2882.512, -0.04822905, -0.20004924, -1171561.3, 47666.2, 0.0000010362653, 10.000807, 9.999082 
1.535067e+3, 1.8558638e+2, -1057658.5, -1153939.4, -3910.0825, -0.037024174, -0.19197024, -1057500.0, 63734.51, 0.0, 10.000733, 9.99946 
1.5350507e+3, 1.9558582e+2, -971000.0, -1058736.8, 240.16774, -0.0432582, -0.19771533, -970999.4, 52239.57, 0.0, 10.000645, 9.999484 
1.5350346e+3, 2.0558515e+2, -893389.6, -977689.9, 5799.3364, -0.043687247, -0.2046526, -892992.5, 32252.43, 0.0, 10.000535, 9.999421 
1.5350187e+3, 2.1558453e+2, -810368.3, -881841.0, 6582.2754, -0.03682417, -0.21332699, -809767.2, 17484.266, 0.0, 10.00041, 9.999467 
1.5350026e+3, 2.2558412e+2, -712775.4, -750666.6, 2883.695, -0.030555945, -0.21321638, -712557.2, 16698.074, 0.0, 10.000263, 9.999764 
1.5349863e+3, 2.3558398e+2, -637473.8, -661911.0, 7493.1543, -0.02576675, -0.20854329, -635359.2, -4102.897, 0.0, 10.0001, 9.99978 
1.5349703e+3, 2.4558365e+2, -573417.7, -602349.9, 7812.338, -0.017294532, -0.20444347, -571442.94, -38182.793, 0.0, 9.999963, 9.999582 
1.5349542e+3, 2.555833e+2, -490082.3, -507558.97, 4224.9424, -0.00574811, -0.20146509, -489114.53, -53849.055, 0.0, 9.9998455, 9.999617 
1.5349378e+3, 2.6558316e+2, -408849.5, -405609.03, -5901.0186, 0.0036597839, -0.17784388, -401109.84, -63841.484, 0.0, 9.999679, 9.999723 
1.5349212e+3, 2.755833e+2, -339514.9, -319046.16, -3892.2979, 0.011645469, -0.14172, -318331.0, -79062.21, 0.0, 9.999472, 9.999744 
1.5349048e+3, 2.8558302e+2, -282301.78, -260171.44, 4475.544, 0.022974066, -0.13239914, -259300.6, -118026.66, 0.0, 9.999276, 9.999571 
1.5348887e+3, 2.9558253e+2, -213459.89, -180193.7, 849.70123, 0.035586085, -0.1403624, -180172.02, -136890.42, 0.0, 9.999092, 9.999535 
1.5348715e+3, 3.0558294e+2, -191967.36, -166422.28, -17760.088, -0.010104132, -0.03512457, -157318.83, -157318.83, 0.0, 9.998999, 9.999339 
1.5348549e+3, 3.1558168e+2, -73322.13, 84823.78, 8692.258, 0.017281879, -0.10654273, 85300.11, 85300.11, 0.0, 9.998978, 10.001075 
1.5451638e+3, 1.2560631e+2, -1559687.3, -1711803.3, -9994.613, -0.0024673368, -0.22373016, -1559033.4, 150002.19, 0.010452642, 10.001392, 9.999349 
1.5451472e+3, 1.3560541e+2, -1482506.6, -1621176.0, 28771.932, -0.09647803, -0.25286368, -1476773.9, 134270.92, 0.006508303, 10.001226, 9.999381 
1.5451325e+3, 1.4560515e+2, -1396804.1, -1517274.0, 9219.089, 0.020867463, -0.21864706, -1396102.6, 116944.58, 0.0030559867, 10.001089, 9.999485 
1.5451159e+3, 1.5560459e+2, -1312157.0, -1425648.4, 5118.789, -0.04309703, -0.22636203, -1311926.6, 103125.69, 0.0009019718, 10.000995, 9.999486 
1.5450995e+3, 1.6560389e+2, -1262064.8, -1394408.5, 6533.2236, -0.06817103, -0.21949813, -1261743.0, 55317.145, 0.000112228045, 10.000853, 9.999097 
1.5450837e+3, 1.7560324e+2, -1187085.4, -1302045.1, 12125.113, -0.041565645, -0.19874327, -1185820.5, 33248.547, 0.0000011877057, 10.000671, 9.9991455 
1.5450676e+3, 1.856026e+2, -1074444.0, -1158215.5, 8358.963, -0.03465268, -0.19205783, -1073618.1, 47457.535, 0.0, 10.000604, 9.999493 
1.5450513e+3, 1.9560203e+2, -971204.7, -1054603.9, 7505.0854, -0.05075759, -0.19983165, -970534.7, 52545.285, 0.0, 10.000627, 9.99952 
1.5450351e+3, 2.0560147e+2, -886894.9, -963135.3, 9387.286, -0.051360067, -0.20619664, -885756.0, 39329.17, 0.0, 10.000532, 9.999522 
1.545019e+3, 2.1560095e+2, -813332.75, -872557.3, 15304.085, -0.03697737, -0.21263951, -809611.8, 17478.6, 0.0, 10.000345, 9.99956 
1.5450028e+3, 2.2560063e+2, -720809.7, -753077.25, 9436.267, -0.028933877, -0.20950183, -718252.8, 10840.848, 0.0, 10.000204, 9.999776 
1.5449865e+3, 2.3560053e+2, -636941.44, -659860.6, 4759.736, -0.026861867, -0.20084509, -635992.25, -4897.7207, 0.0, 10.000098, 9.999794 
1.5449701e+3, 2.4560022e+2, -574573.2, -595011.94, 4731.5796, -0.017165493, -0.19864222, -573531.0, -40432.863, 0.0, 9.999923, 9.999651 
1.5449539e+3, 2.5559986e+2, -508012.34, -508924.66, 10387.754, -0.0013470037, -0.20250429, -498070.72, -62967.7, 0.0, 9.999693, 9.99968 
1.5449373e+3, 2.6559976e+2, -427151.9, -413791.78, 2592.4517, 0.009333163, -0.18115802, -413306.38, -76200.664, 0.0, 9.999553, 9.999727 
1.5449208e+3, 2.755999e+2, -337915.28, -317879.1, -1052.9564, 0.016321048, -0.14368613, -317823.9, -78717.89, 0.0, 9.999483, 9.999745 
1.5449041e+3, 2.855996e+2, -269220.66, -254334.6, 4281.22, 0.027571347, -0.13445644, -253191.14, -112079.89, 0.0, 9.99937, 9.999564 
1.5448879e+3, 2.955991e+2, -195642.84, -172201.56, 1325.4437, 0.040675256, -0.14303339, -172126.86, -129007.805, 0.0, 9.99922, 9.999527 
1.5448704e+3, 3.0559963e+2, -176081.08, -157953.27, -11292.726, -0.0076057925, -0.025725888, -152536.84, -152536.84, 0.0, 9.999106, 9.999345 
1.5448539e+3, 3.1559834e+2, -72859.68, 74805.79, 19756.201, 0.017885776, -0.10035321, 77403.28, 77403.28, 0.0, 9.999027, 10.000981 
1.5551654e+3, 1.2562242e+2, -1547917.1, -1689547.5, -10953.5205, 0.0046019033, -0.23735617, -1547075.0, 161802.84, 0.010971542, 10.001401, 9.999499 
1.5551484e+3, 1.356219e+2, -1475927.3, -1608678.4, 21491.164, -0.10963512, -0.23894112, -1472534.8, 138347.97, 0.006862425, 10.00123, 9.999465 
1.5551336e+3, 1.4562155e+2, -1405606.4, -1536458.9, 4650.5864, 0.013905644, -0.2093884, -1405441.3, 107444.71, 0.0032463204, 10.001091, 9.999353 
1.5551168e+3, 1.5562072e+2, -1319791.0, -1442315.3, 836.10156, -0.03417348, -0.23019627, -1319785.3, 95109.125, 0.0009703306, 10.000997, 9.9993725 
1.5551005e+3, 1.6562006e+2, -1251620.1, -1373726.9, -776.93994, -0.055369657, -0.22497398, -1251615.1, 65286.99, 0.00012386087, 10.000855, 9.999238 
1.5550844e+3, 1.7561959e+2, -1177291.8, -1283050.0, 5385.0054, -0.03384017, -0.19882506, -1177018.3, 41890.117, 0.0000013544981, 10.000675, 9.999275 
1.5550682e+3, 1.8561895e+2, -1075888.1, -1162529.5, 8941.866, -0.029955842, -0.19541068, -1074974.9, 45939.96, 0.0, 10.0006075, 9.999462 
1.555052e+3, 1.9561829e+2, -971987.44, -1057351.3, 7750.3027, -0.047683954, -0.21236238, -971289.44, 51631.38, 0.0, 10.000629, 9.999501 
1.5550357e+3, 2.0561782e+2, -874739.0, -938987.8, 2316.8206, -0.051533904, -0.2154909, -874655.56, 50269.418, 0.0, 10.000535, 9.999687 
1.5550193e+3, 2.156176e+2, -802342.56, -850863.3, 8504.639, -0.0417584, -0.20944841, -800895.06, 26031.78, 0.0, 10.000348, 9.999709 
1.555003e+3, 2.2561729e+2, -728058.5, -769295.56, 5789.885, -0.03152115, -0.20378523, -727261.0, 1669.0375, 0.0, 10.000207, 9.999664 
1.5549865e+3, 2.3561704e+2, -643010.0, -673627.8, 931.4605, -0.021696368, -0.19986111, -642981.7, -12048.2, 0.0, 10.000101, 9.999699 
1.5549701e+3, 2.4561681e+2, -560663.0, -567132.1, -3311.7258, -0.007021413, -0.19629824, -559268.3, -26332.012, 0.0, 9.999926, 9.999842 
1.5549538e+3, 2.556167e+2, -495408.56, -483611.56, 2920.4397, 0.01167183, -0.194596, -482928.16, -47990.324, 0.0, 9.999695, 9.999853 
1.554937e+3, 2.6561663e+2, -431965.53, -424658.22, 1017.07983, 0.01889918, -0.17213911, -424519.3, -87579.43, 0.0, 9.999555, 9.999652 
1.5549202e+3, 2.7561668e+2, -342626.13, -328642.63, -2855.574, 0.016910473, -0.13695665, -328081.97, -89140.305, 0.0, 9.999486, 9.999672 
1.5549035e+3, 2.8561628e+2, -268708.2, -254427.06, -412.1555, 0.026728973, -0.13421914, -254415.17, -113467.2, 0.0, 9.999373, 9.999562 
1.5548871e+3, 2.956157e+2, -194963.84, -172217.64, -3435.8508, 0.04503994, -0.15197064, -171709.98, -128753.58, 0.0, 9.999224, 9.999526 
1.5548696e+3, 3.056164e+2, -172956.66, -152984.02, -13514.771, -0.008391227, -0.019110933, -146166.31, -146166.31, 0.0, 9.999111, 9.999377 
1.5548527e+3, 3.1561527e+2, -77813.09, 63246.37, 20053.186, 0.0057035, -0.07832266, 66041.76, 66041.76, 0.0, 9.999031, 10.000901 
1.5651669e+3, 1.2563881e+2, -1504916.8, -1668519.6, 4649.8994, 0.0060553956, -0.24739039, -1504784.8, 203932.36, 0.0115225995, 10.0017, 9.9995 
1.5651496e+3, 1.3563839e+2, -1466177.0, -1608137.4, 20396.879, -0.11005131, -0.23456377, -1463304.5, 147416.34, 0.0072392947, 10.001318, 9.999426 
1.5651347e+3, 1.4563797e+2, -1415384.1, -1545951.3, 7860.268, 0.01832451, -0.20779307, -1414912.6, 97812.54, 0.003449955, 10.001046, 9.999309 
1.5651178e+3, 1.5563713e+2, -1339282.8, -1455763.0, 10163.839, -0.027377568, -0.22594917, -1338402.5, 76331.84, 0.00104445, 10.000882, 9.999334 
1.5651013e+3, 1.6563648e+2, -1254652.4, -1364796.1, 9551.8, -0.05054627, -0.22165233, -1253830.1, 62911.598, 0.00013699086, 10.000792, 9.99933 
1.565085e+3, 1.7563605e+2, -1159554.6, -1264586.4, 11777.33, -0.03444109, -0.20021243, -1158250.3, 60496.594, 0.0000015912761, 10.000755, 9.999362 
1.5650688e+3, 1.8563545e+2, -1066146.0, -1153432.3, 17783.01, -0.029518865, -0.19949499, -1062662.1, 58090.64, 0.0, 10.000657, 9.9995 
1.5650524e+3, 1.956348e+2, -986835.25, -1060168.0, 21065.791, -0.041244872, -0.21712838, -981214.6, 41544.11, 0.0, 10.00051, 9.999538 
1.5650362e+3, 2.0563439e+2, -884759.5, -935288.7, 12125.971, -0.048778538, -0.2203971, -882000.2, 42762.094, 0.0, 10.000431, 9.999762 
1.5650195e+3, 2.1563424e+2, -789833.2, -837157.6, 10904.026, -0.05014898, -0.21424527, -787441.6, 39321.582, 0.0, 10.000402, 9.999776 
1.5650032e+3, 2.25634e+2, -719419.3, -766829.06, 7051.0947, -0.03996342, -0.20689446, -718392.8, 10373.404, 0.0, 10.000276, 9.999647 
1.5649867e+3, 2.3563373e+2, -648500.94, -677690.1, 8716.294, -0.0216488, -0.19992806, -646096.25, -15326.131, 0.0, 10.000072, 9.999684 
1.5649702e+3, 2.4563354e+2, -558502.5, -558779.8, 870.79224, -0.0032225926, -0.19470525, -557759.4, -24986.887, 0.0, 9.999911, 9.999905 
1.5649535e+3, 2.556335e+2, -478730.8, -469136.25, -2856.327, 0.015534185, -0.19253469, -468350.28, -33577.35, 0.0, 9.999784, 9.999908 
1.5649366e+3, 2.6563346e+2, -420807.38, -423131.44, -5080.5176, 0.021811998, -0.17102836, -416757.7, -79982.73, 0.0, 9.99965, 9.999616 
1.5649197e+3, 2.7563342e+2, -341591.28, -331868.34, -6400.195, 0.01808578, -0.1380426, -328692.63, -89915.03, 0.0, 9.999511, 9.999637 
1.564903e+3, 2.85633e+2, -262621.56, -248341.08, -2009.5181, 0.027596772, -0.13687137, -248063.69, -107279.65, 0.0, 9.999403, 9.999589 
1.5648864e+3, 2.9563245e+2, -179671.22, -162325.36, -3348.093, 0.04677109, -0.15509482, -161701.53, -118909.58, 0.0, 9.99932, 9.999546 
1.5648688e+3, 3.0563325e+2, -164209.11, -152510.08, -15831.779, -0.0074045868, -0.012565154, -141481.73, -141481.73, 0.0, 9.999188, 9.999342 
1.5648519e+3, 3.1563208e+2, -89912.37, 40382.664, 15175.153, 0.006721633, -0.07037795, 42126.734, 42126.734, 0.0, 9.9990225, 10.000747 
1.5751685e+3, 1.256555e+2, -1515442.9, -1690402.5, -4284.832, 0.0011635536, -0.25357392, -1515338.0, 193214.86, 0.01211553, 10.0017, 9.99935 
1.575151e+3, 1.3565491e+2, -1477263.4, -1632153.5, 5420.5815, -0.09856792, -0.238921, -1477073.9, 133484.92, 0.0076441537, 10.001321, 9.999261 
1.5751359e+3, 1.4565444e+2, -1412350.3, -1540962.6, 837.54987, 0.033440445, -0.2130086, -1412344.9, 100219.484, 0.0036693097, 10.00105, 9.999342 
1.5751188e+3, 1.5565379e+2, -1336646.0, -1451639.1, 3791.011, -0.022666866, -0.2141077, -1336521.3, 78050.67, 0.0011253739, 10.000886, 9.999361 
1.575102e+3, 1.6565317e+2, -1251363.6, -1359316.1, 7736.3374, -0.053447023, -0.21007568, -1250812.1, 65766.67, 0.00015191178, 10.000795, 9.999366 
1.5750858e+3, 1.7565264e+2, -1156133.9, -1258757.5, 9842.64, -0.04320379, -0.20290017, -1155198.5, 63385.758, 0.0000019351096, 10.000759, 9.999401 
1.5750694e+3, 1.8565208e+2, -1058630.5, -1139098.1, 12004.437, -0.033317506, -0.2042924, -1056877.9, 63711.547, 0.0, 10.000661, 9.999598 
1.575053e+3, 1.956516e+2, -980019.25, -1047368.06, 15690.397, -0.031599574, -0.21428844, -976543.25, 46050.285, 0.0, 10.000515, 9.999625 
1.5750366e+3, 2.056512e+2, -885715.94, -938581.1, 11034.051, -0.043245863, -0.22101097, -883505.4, 41091.8, 0.0, 10.000435, 9.999738 
1.57502e+3, 2.156509e+2, -790470.75, -839735.1, 9527.064, -0.0621759, -0.22703119, -788692.56, 37907.055, 0.0, 10.000406, 9.999758 
1.5750031e+3, 2.2565068e+2, -713881.2, -756511.94, -360.58057, -0.054324757, -0.21884064, -713878.1, 14724.227, 0.0, 10.000279, 9.999718 
1.5749867e+3, 2.356506e+2, -643759.1, -668931.25, 1718.055, -0.02687411, -0.2011167, -643642.44, -13037.848, 0.0, 10.000074, 9.999744 
1.57497e+3, 2.4565043e+2, -563192.44, -569572.8, -3220.3823, -0.005980134, -0.19394355, -561849.6, -29242.65, 0.0, 9.999914, 9.99983 
1.5749532e+3, 2.5565028e+2, -483134.94, -479371.5, -6844.8574, 0.009947143, -0.19634832, -474154.4, -39545.766, 0.0, 9.999787, 9.999838 
1.5749362e+3, 2.6565012e+2, -420596.94, -423834.8, -9376.217, 0.01779618, -0.1780322, -412700.9, -76089.54, 0.0, 9.999653, 9.999611 
1.5749192e+3, 2.7565008e+2, -341049.34, -332013.56, -10561.936, 0.019786948, -0.14754993, -325043.8, -86429.5, 0.0, 9.999515, 9.999635 
1.5749024e+3, 2.8564972e+2, -258746.08, -241606.13, -4315.1514, 0.030076213, -0.14272869, -240581.05, -99961.055, 0.0, 9.999407, 9.999634 
1.5748855e+3, 2.956493e+2, -176729.97, -157474.77, -6094.841, 0.045318194, -0.15180278, -155707.73, -113081.48, 0.0, 9.999324, 9.999579 
1.574868e+3, 3.056501e+2, -171409.6, -168672.1, -21438.89, -0.004911121, -0.0058856555, -148558.31, -148558.31, 0.0, 9.999192, 9.99923 
1.574851e+3, 3.1564867e+2, -105949.24, 5862.484, 12392.642, 0.021661311, -0.07595672, 7219.5503, 7219.5503, 0.0, 9.999026, 10.000509 
1.58517e+3, 1.2567239e+2, -1540187.1, -1708208.1, 110.36186, 0.0018558771, -0.2495544, -1540187.1, 168200.16, 0.012755513, 10.001556, 9.999294 
1.5851523e+3, 1.3567169e+2, -1485406.3, -1643156.4, 10994.959, -0.09671341, -0.23964304, -1484643.5, 125751.17, 0.008080295, 10.001297, 9.999195 
1.585137e+3, 1.4567113e+2, -1406726.4, -1539582.9, 13631.293, 0.036978003, -0.21701227, -1405342.1, 107059.125, 0.0039060588, 10.001097, 9.999328 
1.5851198e+3, 1.5567067e+2, -1326574.5, -1447861.5, 13379.224, -0.019789783, -0.19821005, -1325116.1, 89291.15, 0.0012136656, 10.000961, 9.99935 
1.585103e+3, 1.6567002e+2, -1237183.9, -1345853.3, 20015.56, -0.052060094, -0.1975719, -1233614.5, 82799.44, 0.0001685595, 10.000866, 9.999424 
1.5850866e+3, 1.7566934e+2, -1146555.6, -1248097.4, 23022.559, -0.04420983, -0.21265465, -1141579.5, 76840.68, 0.0000023797534, 10.000801, 9.999454 
1.5850702e+3, 1.8566881e+2, -1049107.6, -1132449.6, 19493.158, -0.036579892, -0.21526216, -1044773.6, 75651.32, 0.0, 10.000719, 9.999615 
1.5850537e+3, 1.956685e+2, -963412.3, -1037697.2, 16981.531, -0.03683046, -0.20995475, -959714.4, 62713.32, 0.0, 10.000624, 9.999639 
1.585037e+3, 2.0566809e+2, -875981.9, -935518.0, 11183.073, -0.046494957, -0.21618836, -873950.6, 50480.914, 0.0, 10.00051, 9.999722 
1.5850203e+3, 2.1566767e+2, -794739.7, -843005.94, 9650.486, -0.060570747, -0.23307084, -792881.6, 33553.637, 0.0, 10.000384, 9.999744 
1.5850036e+3, 2.2566749e+2, -711302.1, -747813.7, -3629.1199, -0.053149447, -0.22291996, -710944.9, 17492.676, 0.0, 10.000266, 9.999783 
1.5849867e+3, 2.356676e+2, -628119.75, -654921.8, -2268.474, -0.03018471, -0.19370799, -627929.1, 2508.7947, 0.0, 10.000156, 9.999801 
1.5849699e+3, 2.456674e+2, -547903.56, -566622.2, -5198.303, -0.01154912, -0.18818411, -546556.8, -14116.463, 0.0, 10.000039, 9.999789 
1.5849529e+3, 2.556671e+2, -466889.8, -475855.78, -6887.1294, 0.0038652169, -0.20193858, -463155.16, -28711.553, 0.0, 9.999919, 9.999798 
1.584936e+3, 2.656669e+2, -399659.56, -413879.63, -8795.009, 0.014367869, -0.18572794, -395460.1, -59013.35, 0.0, 9.9998, 9.999608 
1.5849188e+3, 2.756669e+2, -317557.47, -321123.94, -9980.988, 0.02152228, -0.15060242, -309201.66, -70752.42, 0.0, 9.99968, 9.999629 
1.5849018e+3, 2.8566656e+2, -238895.34, -234155.6, -5893.7505, 0.033833515, -0.1429177, -230173.1, -89718.38, 0.0, 9.999555, 9.999614 
1.584885e+3, 2.9566613e+2, -163580.11, -153032.25, -13265.714, 0.048545327, -0.14997624, -144030.55, -101569.66, 0.0, 9.999424, 9.99956 
1.5848672e+3, 3.0566686e+2, -157958.2, -159416.44, -26932.53, -0.0016239077, -0.007972311, -131744.92, -131744.92, 0.0, 9.999274, 9.999253 
1.58485e+3, 3.1566536e+2, -101599.3, -4473.051, 19967.81, 0.026823755, -0.092086084, -528.1714, -528.1714, 0.0, 9.999111, 10.000396 
1.5951717e+3, 1.2568954e+2, -1538090.0, -1704083.3, -4173.6445, 0.0062364386, -0.23462044, -1537985.1, 170234.6, 0.013441269, 10.001556, 9.999324 
1.5951535e+3, 1.3568872e+2, -1483518.4, -1639929.6, 491.67325, -0.104000516, -0.2374608, -1483516.8, 126711.51, 0.008547444, 10.001299, 9.999218 
1.595138e+3, 1.456881e+2, -1410753.8, -1549069.6, 7631.084, 0.02953904, -0.22025876, -1410334.0, 101901.76, 0.004160194, 10.001101, 9.999262 
1.5951207e+3, 1.5568781e+2, -1329774.1, -1455900.0, 7976.024, -0.018789062, -0.17824042, -1329271.6, 84968.64, 0.0013091589, 10.000966, 9.999293 
1.5951037e+3, 1.656871e+2, -1231484.1, -1335446.9, 17081.064, -0.046653192, -0.18403858, -1228749.6, 87497.445, 0.00018659334, 10.000871, 9.999494 
1.5950873e+3, 1.7568617e+2, -1141793.4, -1239471.8, 20122.752, -0.037755676, -0.22932887, -1137810.3, 80444.36, 0.0000028938316, 10.000805, 9.999512 
1.5950708e+3, 1.8568563e+2, -1053398.5, -1142577.1, 15587.413, -0.039440256, -0.23222917, -1050752.5, 69506.945, 0.0, 10.000723, 9.999544 
1.5950541e+3, 1.9568549e+2, -967363.2, -1047235.25, 13143.283, -0.056750774, -0.20415206, -965256.0, 57005.246, 0.0, 10.0006275, 9.999572 
1.5950373e+3, 2.0568508e+2, -876395.2, -937666.94, 6411.744, -0.058385037, -0.2060661, -875731.44, 48533.88, 0.0, 10.000514, 9.999706 
1.5950207e+3, 2.1568455e+2, -795068.06, -844864.56, 5060.0215, -0.045451365, -0.2324488, -794559.06, 31711.17, 0.0, 10.000387, 9.999731 
1.5950039e+3, 2.2568443e+2, -707035.75, -740127.56, -7458.376, -0.03660581, -0.2191533, -705432.4, 22839.498, 0.0, 10.00027, 9.999834 
1.5949868e+3, 2.3568471e+2, -624243.25, -648071.44, -5929.9604, -0.031693548, -0.1776308, -622849.06, 7421.1763, 0.0, 10.000159, 9.999846 
1.5949698e+3, 2.4568447e+2, -548367.7, -568795.6, -9070.407, -0.020051923, -0.17739938, -544921.6, -12648.643, 0.0, 10.000043, 9.999774 
1.5949528e+3, 2.5568396e+2, -467442.4, -478278.13, -10551.312, -0.0028881251, -0.20950633, -460999.28, -26721.127, 0.0, 9.999923, 9.999781 
1.5949357e+3, 2.6568374e+2, -399420.94, -414734.88, -12333.79, 0.011359675, -0.19417343, -392560.63, -56279.15, 0.0, 9.999804, 9.9996 
1.5949185e+3, 2.7568388e+2, -317972.28, -323270.03, -13624.269, 0.023186257, -0.14668703, -306741.78, -68459.016, 0.0, 9.999683, 9.999614 
1.5949015e+3, 2.8568348e+2, -244973.31, -248159.86, -9948.175, 0.038803134, -0.13710454, -236491.64, -96202.94, 0.0, 9.999558, 9.9995165 
1.5948845e+3, 2.9568288e+2, -168306.19, -164556.2, -17608.256, 0.05640015, -0.15020923, -148723.39, -106426.82, 0.0, 9.99943, 9.999479 
1.5948665e+3, 3.0568358e+2, -145971.95, -136140.61, -32595.086, 0.002106404, -0.019719798, -108092.62, -108092.62, 0.0, 9.99928, 9.999412 
1.5948491e+3, 3.1568205e+2, -100276.13, -2941.2488, 17522.316, 0.021246731, -0.117444865, 117.04207, 117.04207, 0.0, 9.999115, 10.000406 
1.605173e+3, 1.257067e+2, -1567487.4, -1717730.9, 10574.221, 0.0042828503, -0.23310143, -1566746.8, 141305.23, 0.01416758, 10.001352, 9.999328 
1.6051547e+3, 1.3570605e+2, -1492862.9, -1642642.3, 7489.9673, -0.101517595, -0.2227793, -1492489.3, 117570.07, 0.009042928, 10.001229, 9.999232 
1.6051391e+3, 1.4570533e+2, -1409716.6, -1553388.0, 18348.121, 0.031428847, -0.21362437, -1407410.4, 104657.37, 0.004430615, 10.00113, 9.999217 
1.6051216e+3, 1.5570498e+2, -1317479.1, -1454851.0, 19853.475, -0.018877544, -0.17350864, -1314667.4, 99405.39, 0.0014114145, 10.001074, 9.9992485 
1.6051048e+3, 1.6570422e+2, -1219036.4, -1330096.1, 25190.205, -0.045306552, -0.18064892, -1213589.9, 102489.68, 0.00020576516, 10.00096, 9.999486 
1.6050883e+3, 1.7570327e+2, -1142940.6, -1241066.0, 22403.748, -0.032827172, -0.22788933, -1138067.4, 80019.7, 0.0000034510517, 10.000803, 9.9995 
1.6050716e+3, 1.8570268e+2, -1056582.4, -1149259.1, 17907.844, -0.036801647, -0.23289776, -1053242.4, 66849.945, 0.0, 10.000726, 9.9994955 
1.6050547e+3, 1.9570246e+2, -959271.0, -1048431.94, 16364.82, -0.060792066, -0.20652947, -956362.25, 65732.66, 0.0, 10.000707, 9.999524 
1.6050379e+3, 2.0570204e+2, -862230.0, -931716.4, 7394.743, -0.061114192, -0.20605719, -861451.8, 62647.344, 0.0, 10.000617, 9.999697 
1.6050212e+3, 2.1570155e+2, -783372.9, -840098.0, 5961.968, -0.040729955, -0.22709219, -782753.0, 43350.777, 0.0, 10.000473, 9.999722 
1.6050042e+3, 2.2570142e+2, -693200.5, -730370.4, -6839.629, -0.03149795, -0.21646306, -691981.9, 36123.57, 0.0, 10.000353, 9.999861 
1.6049871e+3, 2.3570165e+2, -609842.94, -638616.5, -7929.5234, -0.03162453, -0.18368833, -607802.44, 22301.514, 0.0, 10.000249, 9.999867 
1.6049698e+3, 2.457014e+2, -541394.8, -568434.75, -14307.361, -0.023374727, -0.18344171, -535230.0, -3123.205, 0.0, 10.000105, 9.999745 
1.6049527e+3, 2.5570092e+2, -468242.78, -481679.72, -17021.324, -0.0083504245, -0.20880227, -456661.97, -22549.969, 0.0, 9.999931, 9.999752 
1.6049354e+3, 2.6570076e+2, -396174.16, -411025.88, -16591.576, 0.0062742257, -0.19205284, -385422.47, -49307.24, 0.0, 9.999818, 9.999619 
1.6049182e+3, 2.7570084e+2, -307366.06, -316742.03, -16369.092, 0.020385029, -0.147342, -295026.88, -56910.605, 0.0, 9.999752, 9.999624 
1.604901e+3, 2.857004e+2, -231586.58, -245100.98, -9928.277, 0.03728861, -0.14017053, -226334.17, -86211.78, 0.0, 9.999666, 9.999485 
1.604884e+3, 2.9569978e+2, -150934.08, -159610.39, -12834.241, 0.055412173, -0.15512227, -141724.64, -99593.9, 0.0, 9.999565, 9.999448 
1.6048658e+3, 3.057004e+2, -112154.5, -119691.03, -31918.102, 0.0032675734, -0.02922033, -83782.99, -83782.99, 0.0, 9.999513, 9.999412 
1.6048484e+3, 3.1569892e+2, -53744.59, 3756.4185, 8934.554, 0.025685254, -0.124964505, 5112.6865, 5112.6865, 0.0, 9.999504, 10.000263 
1.6151743e+3, 1.2572399e+2, -1569272.4, -1722246.9, 11144.45, -0.0050791902, -0.24253805, -1568464.8, 139418.42, 0.014930091, 10.001354, 9.999296 
1.6151561e+3, 1.357237e+2, -1492486.6, -1642883.0, 1762.3934, -0.09004945, -0.19575286, -1492466.0, 117421.38, 0.009564833, 10.001232, 9.999229 
1.6151403e+3, 1.4572284e+2, -1411382.4, -1558115.5, 15214.177, 0.041917462, -0.19727883, -1409821.5, 102075.39, 0.0047169235, 10.001134, 9.999184 
1.6151227e+3, 1.5572219e+2, -1319943.3, -1461197.5, 16877.81, -0.020104565, -0.1835661, -1317954.6, 95949.68, 0.0015205952, 10.001077, 9.999204 
1.6151056e+3, 1.6572142e+2, -1224473.5, -1342723.0, 18669.396, -0.047891296, -0.18702881, -1221596.0, 94315.28, 0.00022625244, 10.000965, 9.999398 
1.615089e+3, 1.7572063e+2, -1148086.8, -1253320.6, 16490.346, -0.029454837, -0.20881253, -1145563.1, 72354.195, 0.0000040571203, 10.000809, 9.999415 
1.6150723e+3, 1.8571994e+2, -1058178.9, -1154044.0, 16998.79, -0.02888082, -0.2177831, -1055254.0, 64669.56, 0.0, 10.00073, 9.999462 
1.6150554e+3, 1.9571944e+2, -961124.44, -1053469.0, 15261.731, -0.049317453, -0.21701843, -958667.5, 63261.11, 0.0, 10.0007105, 9.999489 
1.6150385e+3, 2.05719e+2, -862521.44, -933451.5, 2015.452, -0.054947115, -0.21595642, -862464.2, 61468.785, 0.0, 10.000621, 9.999684 
1.6150217e+3, 2.157187e+2, -783778.2, -842139.06, 810.6977, -0.046530936, -0.2169858, -783766.94, 42169.094, 0.0, 10.000477, 9.999707 
1.6150045e+3, 2.2571845e+2, -693045.0, -731219.06, -10419.37, -0.037903715, -0.21491402, -690386.25, 37552.063, 0.0, 10.000357, 9.999854 
1.6149873e+3, 2.3571837e+2, -610066.6, -640238.94, -11516.88, -0.02999073, -0.21211362, -606173.06, 23766.158, 0.0, 10.000253, 9.999856 
1.61497e+3, 2.4571815e+2, -544257.7, -575507.6, -20186.781, -0.021547038, -0.20643654, -534355.3, -2413.2034, 0.0, 10.000109, 9.999696 
1.6149525e+3, 2.5571796e+2, -470901.75, -488246.06, -22490.668, -0.012560821, -0.19949092, -455469.22, -21523.688, 0.0, 9.999934, 9.999706 
1.6149352e+3, 2.657178e+2, -393102.16, -405838.44, -18167.098, -0.0010328983, -0.17916892, -380219.4, -44270.992, 0.0, 9.999821, 9.999654 
1.6149178e+3, 2.7571774e+2, -304228.44, -311748.22, -18032.549, 0.012559732, -0.15309048, -289567.97, -51617.703, 0.0, 9.999757, 9.999658 
1.6149007e+3, 2.8571728e+2, -228753.69, -240783.98, -13042.72, 0.028579984, -0.15267032, -220405.88, -80449.516, 0.0, 9.999672, 9.999513 
1.6148834e+3, 2.957167e+2, -149412.4, -157724.17, -15853.689, 0.045169316, -0.16465384, -137178.94, -95215.0, 0.0, 9.999569, 9.999459 
1.6148654e+3, 3.0571726e+2, -123501.25, -145032.42, -31538.057, 0.0017418311, -0.03607437, -100941.97, -100941.97, 0.0, 9.999518, 9.999236 
1.6148481e+3, 3.157158e+2, -73797.51, -40703.25, 12183.455, 0.040198978, -0.1109254, -36701.8, -36701.8, 0.0, 9.999515, 9.999954 
1.6251756e+3, 1.2574154e+2, -1576869.6, -1734084.0, 20476.705, -0.0034187029, -0.23106822, -1574246.4, 133465.8, 0.015727159, 10.001339, 9.999222 
1.6251573e+3, 1.3574134e+2, -1494890.1, -1647225.6, 2358.392, -0.08510554, -0.17328086, -1494853.6, 114862.24, 0.0101132095, 10.001232, 9.999199 
1.6251415e+3, 1.4574035e+2, -1412536.1, -1560704.3, 16906.3, 0.046869013, -0.18617211, -1410631.6, 101094.87, 0.005019992, 10.001137, 9.999164 
1.6251239e+3, 1.5573955e+2, -1322864.6, -1465315.4, 19419.635, -0.010414659, -0.18325298, -1320264.8, 93469.805, 0.0016376381, 10.001071, 9.999178 
1.6251066e+3, 1.6573872e+2, -1218889.9, -1346003.8, 21788.361, -0.041270066, -0.18810606, -1215258.9, 100482.93, 0.00024865236, 10.001031, 9.999343 
1.62509e+3, 1.7573793e+2, -1122896.1, -1247138.1, 21455.613, -0.032313585, -0.20446329, -1119295.4, 98452.62, 0.00000475879, 10.001009, 9.99936 
1.6250731e+3, 1.857372e+2, -1037666.06, -1145447.3, 22371.52, -0.03115554, -0.21479072, -1033207.06, 86547.43, 0.0, 10.000878, 9.999449 
1.6250561e+3, 1.9573662e+2, -968918.75, -1058762.0, 21790.236, -0.0431704, -0.22055513, -963912.75, 57847.453, 0.0, 10.000666, 9.999474 
1.6250391e+3, 2.0573616e+2, -875835.8, -941671.25, 8986.589, -0.048215434, -0.21964914, -874631.2, 49133.54, 0.0, 10.000539, 9.999666 
1.6250221e+3, 2.1573588e+2, -785495.56, -844736.7, 7068.15, -0.04530469, -0.21607542, -784663.94, 41103.594, 0.0, 10.000475, 9.999689 
1.6250049e+3, 2.257356e+2, -686225.0, -726863.94, -3753.9934, -0.040398575, -0.21801798, -685881.1, 41888.94, 0.0, 10.000401, 9.999862 
1.6249876e+3, 2.3573542e+2, -600588.9, -635497.25, -4409.511, -0.034789026, -0.2255908, -600040.5, 29731.041, 0.0, 10.000319, 9.999856 
1.6249701e+3, 2.4573521e+2, -531592.1, -576329.94, -15238.502, -0.028539615, -0.2148968, -526894.8, 4879.7246, 0.0, 10.000227, 9.999633 
1.6249524e+3, 2.557351e+2, -446820.34, -482926.75, -18940.635, -0.02169012, -0.19147825, -438707.44, -4929.769, 0.0, 10.000128, 9.999649 
1.624935e+3, 2.657349e+2, -363542.34, -387576.75, -14099.678, -0.0108397445, -0.17233399, -357033.5, -21252.836, 0.0, 10.000009, 9.999688 
1.6249175e+3, 2.7573478e+2, -286061.9, -300192.0, -14056.782, 0.0031858908, -0.1608029, -277394.56, -39611.613, 0.0, 9.99987, 9.999681 
1.6249003e+3, 2.8573427e+2, -217832.67, -244797.84, -13145.367, 0.0196183, -0.16154802, -212484.94, -72695.555, 0.0, 9.999788, 9.999429 
1.624883e+3, 2.9573366e+2, -128844.43, -156197.03, -24894.516, 0.03660308, -0.16417032, -114116.89, -72319.75, 0.0, 9.999748, 9.999383 
1.624865e+3, 3.057342e+2, -104072.516, -131734.4, -35552.47, -0.0005636919, -0.040314037, -79755.42, -79755.42, 0.0, 9.999637, 9.9992695 
1.6248475e+3, 3.1573284e+2, -87125.9, -58483.645, 27213.906, 0.04677264, -0.10499553, -42052.676, -42052.676, 0.0, 9.999474, 9.999851 
1.6351771e+3, 1.2575944e+2, -1584671.0, -1751418.3, 20957.902, 0.00615402, -0.19774513, -1582077.1, 125461.18, 0.016557895, 10.001342, 9.999103 
1.6351585e+3, 1.35759e+2, -1498813.0, -1656631.8, -2750.8982, -0.086403705, -0.1555481, -1498765.0, 110779.23, 0.010688402, 10.001236, 9.999133 
1.6351426e+3, 1.4575784e+2, -1412772.3, -1562453.8, 13446.761, 0.046707366, -0.18036501, -1411573.9, 99982.2, 0.0053406963, 10.001141, 9.999151 
1.6351251e+3, 1.557571e+2, -1323393.8, -1467576.0, 16472.123, 0.009633922, -0.17284656, -1321535.8, 92027.38, 0.0017634478, 10.001074, 9.999162 
1.6351078e+3, 1.6575618e+2, -1220553.9, -1350579.5, 20450.691, -0.026020307, -0.18396148, -1217413.3, 98157.695, 0.00027359868, 10.001034, 9.999311 
1.6350909e+3, 1.7575522e+2, -1124589.5, -1251756.0, 19741.816, -0.04135381, -0.21441114, -1121595.1, 95983.445, 0.000005604758, 10.001012, 9.999328 
1.6350739e+3, 1.8575448e+2, -1037162.5, -1145583.4, 14058.906, -0.04337767, -0.22354777, -1035369.1, 84215.95, 0.0, 10.000881, 9.999447 
1.6350569e+3, 1.95754e+2, -968615.0, -1059475.9, 14025.872, -0.04232443, -0.21717112, -966499.1, 55090.473, 0.0, 10.0006695, 9.999467 
1.6350397e+3, 2.0575352e+2, -877222.44, -945885.6, 6577.616, -0.041022178, -0.21722169, -876598.0, 46996.363, 0.0, 10.000543, 9.999636 
1.6350228e+3, 2.1575311e+2, -786768.94, -848629.9, 4748.542, -0.037080616, -0.22441944, -786406.56, 39191.78, 0.0, 10.000479, 9.999662 
1.6350052e+3, 2.2575285e+2, -684654.1, -724761.4, -6495.22, -0.039028, -0.22575285, -683628.5, 43972.33, 0.0, 10.000403, 9.999876 
1.6349877e+3, 2.3575275e+2, -599709.1, -634878.5, -7045.76, -0.046213042, -0.22391881, -598350.1, 31251.088, 0.0, 10.000321, 9.999859 
1.6349702e+3, 2.4575254e+2, -536855.4, -588538.7, -18221.412, -0.04458615, -0.2086816, -531077.25, 527.17365, 0.0, 10.00023, 9.999548 
1.6349524e+3, 2.5575235e+2, -451490.72, -494078.72, -21828.258, -0.036074873, -0.18488838, -442290.34, -8681.577, 0.0, 10.000133, 9.999571 
1.6349348e+3, 2.657521e+2, -360759.25, -383315.78, -18424.81, -0.023439175, -0.17166843, -350434.9, -14822.525, 0.0, 10.000013, 9.999716 
1.6349174e+3, 2.7575186e+2, -284901.06, -299121.56, -18257.387, -0.007638529, -0.17042862, -272418.28, -34803.5, 0.0, 9.999874, 9.999688 
1.6349e+3, 2.8575128e+2, -231602.69, -274844.6, -13859.903, 0.010462381, -0.16667297, -227541.7, -87919.695, 0.0, 9.999792, 9.999221 
1.6348827e+3, 2.9575068e+2, -140071.13, -181368.98, -26159.88, 0.029187594, -0.15346996, -127392.625, -85761.586, 0.0, 9.999754, 9.999208 
1.6348645e+3, 3.057511e+2, -85917.36, -95625.76, -41434.637, -0.004319925, -0.04203661, -49053.547, -49053.547, 0.0, 9.999641, 9.9995165 
1.6348471e+3, 3.1575e+2, -79240.414, -42907.676, 25071.816, 0.04512927, -0.105361424, -30112.568, -30112.568, 0.0, 9.999475, 9.999958 
1.6451785e+3, 1.257771e+2, -1590775.1, -1754329.1, 19602.549, 0.011965722, -0.17639314, -1588458.5, 118908.16, 0.017420573, 10.001301, 9.999102 
1.6451599e+3, 1.3577664e+2, -1490018.5, -1646519.1, -1441.5684, -0.07758649, -0.14149223, -1490005.3, 119367.055, 0.011289107, 10.001274, 9.999184 
1.6451438e+3, 1.457754e+2, -1409223.1, -1564564.6, 16570.867, 0.0502247, -0.1769516, -1407475.1, 103909.59, 0.0056783757, 10.0011835, 9.999115 
1.6451262e+3, 1.5577456e+2, -1327476.3, -1473695.8, 17732.707, 0.01326335, -0.17209326, -1325356.5, 88035.72, 0.0018979618, 10.001065, 9.999123 
1.6451089e+3, 1.6577362e+2, -1227804.3, -1354478.5, 23554.496, -0.021864519, -0.18473415, -1223566.3, 91833.84, 0.00030132462, 10.000988, 9.999306 
1.6450918e+3, 1.7577264e+2, -1136130.0, -1258442.9, 24123.28, -0.03736062, -0.21627286, -1131544.1, 85863.625, 0.0000066039856, 10.000939, 9.999316 
1.6450746e+3, 1.8577188e+2, -1042039.1, -1153788.4, 12774.128, -0.04113425, -0.22355494, -1040597.5, 78817.03, 0.0, 10.000875, 9.9993925 
1.6450576e+3, 1.9577141e+2, -953827.44, -1057837.8, 8544.965, -0.042640574, -0.21290317, -953130.1, 68289.35, 0.0, 10.000796, 9.999416 
1.6450404e+3, 2.0577091e+2, -850475.3, -929397.06, 4018.9907, -0.041283593, -0.21364059, -850271.2, 73153.05, 0.0, 10.000712, 9.999666 
1.6450232e+3, 2.1577048e+2, -764013.7, -835043.56, 5999.39, -0.035506107, -0.225445, -763510.5, 61917.434, 0.0, 10.000626, 9.999683 
1.6450058e+3, 2.2577018e+2, -672008.8, -724479.56, -7639.2817, -0.03839801, -0.22720915, -670919.2, 56511.46, 0.0, 10.000517, 9.999822 
1.644988e+3, 2.3577006e+2, -593071.0, -637241.3, -13774.773, -0.048536427, -0.22261645, -589127.4, 40304.27, 0.0, 10.000393, 9.999807 
1.6449703e+3, 2.4576986e+2, -526359.44, -580701.9, -22459.498, -0.047757685, -0.20717023, -518278.7, 13156.328, 0.0, 10.000292, 9.999572 
1.6449524e+3, 2.5576967e+2, -439840.44, -486736.03, -18487.914, -0.038570862, -0.18511318, -433428.53, 10.606929, 0.0, 10.000207, 9.999585 
1.6449349e+3, 2.657694e+2, -349782.47, -384610.25, -16504.53, -0.028659716, -0.1710644, -343203.8, -7760.938, 0.0, 10.000118, 9.999656 
1.6449171e+3, 2.757691e+2, -266782.72, -297168.9, -23243.947, -0.018050931, -0.16714475, -254206.92, -16761.314, 0.0, 10.00003, 9.999626 
1.6448997e+3, 2.8576845e+2, -219110.88, -272450.88, -13912.335, 0.0010007824, -0.16627267, -215700.28, -76246.73, 0.0, 9.999895, 9.9991865 
1.6448823e+3, 2.9576772e+2, -146127.2, -186661.16, -13294.699, 0.02528803, -0.1598256, -142155.8, -100692.29, 0.0, 9.999724, 9.999186 
1.6448641e+3, 3.057681e+2, -85359.5, -81733.78, -29916.041, -0.009588282, -0.06154601, -53575.723, -53575.723, 0.0, 9.999589, 9.999636 
1.6448463e+3, 3.1576738e+2, -77568.62, -41654.47, 30272.502, 0.028552255, -0.10038978, -24413.805, -24413.805, 0.0, 9.999487, 9.99996 
1.6551799e+3, 1.2579462e+2, -1582428.4, -1738570.3, 22604.814, 0.011887315, -0.16470842, -1579221.8, 127974.67, 0.01831341, 10.001308, 9.9992075 
1.6551614e+3, 1.3579433e+2, -1478923.6, -1624168.6, -3932.137, -0.059502587, -0.13054562, -1478817.3, 130382.234, 0.011912873, 10.001277, 9.999336 
1.655145e+3, 1.4579302e+2, -1413503.1, -1574473.1, 11147.806, 0.056912407, -0.17555767, -1412734.8, 98477.3, 0.0060311556, 10.001186, 9.999046 
1.6551273e+3, 1.5579203e+2, -1331413.8, -1483285.0, 12841.472, 0.0010554498, -0.18060754, -1330335.6, 82885.56, 0.002040319, 10.00107, 9.999056 
1.6551097e+3, 1.6579108e+2, -1226025.1, -1352299.4, 21137.6, -0.028310934, -0.19029333, -1222580.8, 92648.21, 0.00033169176, 10.000992, 9.99932 
1.6550928e+3, 1.7579022e+2, -1135307.6, -1258141.8, 21793.732, -0.02073896, -0.21028675, -1131555.5, 85679.83, 0.000007747774, 10.000943, 9.999317 
1.6550758e+3, 1.8578944e+2, -1049338.1, -1170231.5, 9533.348, -0.024986489, -0.21499947, -1048591.0, 70651.71, 0.0, 10.000879, 9.999279 
1.6550584e+3, 1.957888e+2, -960200.0, -1072384.4, 5467.825, -0.04418766, -0.20787434, -959934.1, 61315.5, 0.0, 10.0008, 9.999316 
1.655041e+3, 2.057883e+2, -844145.0, -917492.7, 761.35315, -0.048905943, -0.20901099, -844137.1, 79117.164, 0.0, 10.000716, 9.999747 
1.6550238e+3, 2.1578796e+2, -759068.7, -825911.8, 2757.5974, -0.040684994, -0.2190837, -758955.06, 66301.24, 0.0, 10.000628, 9.999745 
1.6550063e+3, 2.2578761e+2, -680495.5, -743199.3, -12021.728, -0.03861264, -0.22228025, -678269.7, 48990.074, 0.0, 10.00052, 9.999693 
1.6549885e+3, 2.3578732e+2, -600343.4, -653526.8, -17825.422, -0.04172924, -0.22174035, -594921.56, 34341.594, 0.0, 10.000397, 9.999696 
1.6549706e+3, 2.457871e+2, -516997.88, -562527.0, -24995.621, -0.037945885, -0.2104949, -505954.06, 25312.578, 0.0, 10.000296, 9.999696 
1.6549529e+3, 2.55787e+2, -432123.9, -472014.44, -20882.068, -0.028915325, -0.19231011, -423192.28, 10076.81, 0.0, 10.000211, 9.999685 
1.6549349e+3, 2.6578674e+2, -360156.2, -407618.25, -19011.89, -0.026370019, -0.17050035, -353479.78, -18207.258, 0.0, 10.000123, 9.999496 
1.654917e+3, 2.7578646e+2, -275624.1, -317171.22, -26002.549, -0.028542947, -0.15046202, -263115.94, -25839.967, 0.0, 10.000034, 9.999487 
1.6548994e+3, 2.8578573e+2, -208514.77, -251904.72, -19772.465, -0.009170987, -0.16018899, -200856.34, -61571.766, 0.0, 9.9999, 9.999327 
1.6548821e+3, 2.9578486e+2, -136881.8, -168311.36, -19012.65, 0.025381079, -0.18409494, -127930.1, -86634.97, 0.0, 9.999726, 9.999311 
1.6548635e+3, 3.057851e+2, -86253.79, -84500.82, -33082.02, -0.016396614, -0.09966351, -52283.68, -52283.68, 0.0, 9.999591, 9.999618 
1.6548455e+3, 3.1578484e+2, -84814.555, -58038.426, 30472.441, -0.004616599, -0.08724975, -38142.71, -38142.71, 0.0, 9.999491, 9.999846 
1.6651812e+3, 1.2581205e+2, -1550417.6, -1723230.5, 30756.3, 0.015312717, -0.1708169, -1545107.0, 161918.86, 0.019234147, 10.001536, 9.999202 
1.6651627e+3, 1.3581194e+2, -1480372.4, -1618878.0, -8603.778, -0.047613893, -0.12474238, -1479840.0, 129187.2, 0.01255734, 10.001244, 9.999388 
1.665146e+3, 1.4581065e+2, -1425230.6, -1582926.5, 8345.466, 0.061100394, -0.1684495, -1424790.1, 86249.24, 0.0063973893, 10.00112, 9.999021 
1.6651283e+3, 1.5580957e+2, -1324699.6, -1483465.6, 12842.6045, 0.0001959839, -0.178911, -1323667.5, 89381.734, 0.0021897932, 10.001132, 9.999023 
1.6651109e+3, 1.6580856e+2, -1214572.6, -1350907.9, 19222.03, -0.025882265, -0.19161925, -1211914.4, 103143.3, 0.00036457216, 10.00109, 9.999281 
1.665094e+3, 1.7580767e+2, -1128861.1, -1258806.0, 15605.373, -0.009711373, -0.21249157, -1127013.4, 90051.195, 0.000009059679, 10.001005, 9.999282 
1.6650768e+3, 1.8580689e+2, -1040088.9, -1162022.6, 7267.979, -0.016746012, -0.21552117, -1039657.2, 79414.6, 0.0, 10.000928, 9.9993105 
1.665059e+3, 1.9580632e+2, -950435.4, -1064451.6, 13387.904, -0.046796296, -0.20520292, -948884.44, 72193.58, 0.0, 10.000855, 9.999343 
1.6650417e+3, 2.0580582e+2, -841537.6, -916872.25, 7556.0234, -0.052273467, -0.20733954, -840787.25, 82295.36, 0.0, 10.000739, 9.99974 
1.6650245e+3, 2.1580544e+2, -765936.9, -830314.4, 2529.975, -0.037547987, -0.2210624, -765837.56, 59247.453, 0.0, 10.000587, 9.999734 
1.6650067e+3, 2.2580507e+2, -689779.06, -750928.06, -10753.896, -0.03453514, -0.22245711, -687943.0, 39145.754, 0.0, 10.000472, 9.999662 
1.6649888e+3, 2.3580481e+2, -604357.7, -658367.4, -9574.448, -0.040636837, -0.21647899, -602710.6, 26381.713, 0.0, 10.000383, 9.999667 
1.664971e+3, 2.458046e+2, -509429.0, -553505.1, -15716.628, -0.036671035, -0.20507163, -504398.84, 26696.756, 0.0, 10.000326, 9.999742 
1.6649531e+3, 2.558045e+2, -417437.1, -460459.6, -18203.45, -0.02528709, -0.19036572, -410768.56, 22328.854, 0.0, 10.000294, 9.999723 
1.664935e+3, 2.6580423e+2, -352198.84, -404532.66, -14981.609, -0.027098663, -0.17377552, -348213.56, -13112.483, 0.0, 10.000182, 9.999488 
1.664917e+3, 2.7580386e+2, -279959.94, -320333.53, -10840.387, -0.038508262, -0.16020271, -277233.4, -40128.047, 0.0, 10.000011, 9.9994755 
1.6648991e+3, 2.858032e+2, -212616.06, -253002.75, -6495.867, -0.020936657, -0.16316172, -211596.97, -72483.586, 0.0, 9.999869, 9.999332 
1.6648817e+3, 2.9580247e+2, -133124.6, -165530.78, -16344.509, 0.017254531, -0.17083184, -126312.836, -85190.58, 0.0, 9.999749, 9.999318 
1.6648631e+3, 3.0580252e+2, -84527.77, -80150.35, -32621.479, -0.024995571, -0.10984291, -49644.242, -49644.242, 0.0, 9.999589, 9.999646 
1.6648448e+3, 3.1580234e+2, -100502.16, -69799.164, 38148.777, -0.024775855, -0.091935836, -44028.918, -44028.918, 0.0, 9.999403, 9.999807 
1.6751827e+3, 1.258295e+2, -1558270.3, -1740197.5, 22739.809, 0.018802982, -0.19127668, -1555471.0, 151383.4, 0.020177929, 10.001537, 9.999085 
1.6751641e+3, 1.3582952e+2, -1483018.3, -1626141.3, -19896.178, -0.04160786, -0.1237694, -1480303.9, 128551.07, 0.013220325, 10.00125, 9.999336 
1.6751473e+3, 1.4582834e+2, -1423493.6, -1581431.4, 7896.0034, 0.06301011, -0.15616432, -1423099.9, 87766.52, 0.0067765256, 10.001126, 9.999028 
1.6751294e+3, 1.5582725e+2, -1324039.0, -1483903.1, 12423.359, 0.01009484, -0.16751647, -1323079.3, 89796.52, 0.0023464474, 10.001139, 9.999019 
1.6751121e+3, 1.6582611e+2, -1220625.4, -1364920.5, 15518.026, -0.015117885, -0.18883221, -1218975.4, 95910.336, 0.00040014452, 10.001095, 9.999184 
1.675095e+3, 1.7582498e+2, -1133692.6, -1269995.4, 12102.969, -0.0042526415, -0.22261314, -1132626.3, 84268.92, 0.00001061599, 10.001009, 9.999205 
1.6750777e+3, 1.8582426e+2, -1027786.94, -1137581.8, 4295.8813, -0.016240247, -0.22485745, -1027619.1, 91282.484, 0.0, 10.000931, 9.999478 
1.67506e+3, 1.9582395e+2, -939859.75, -1043618.2, 10310.972, -0.050512943, -0.20472994, -938845.0, 82059.59, 0.0, 10.000858, 9.999485 
1.6750425e+3, 2.0582344e+2, -848083.94, -931555.8, 1838.7957, -0.051514577, -0.20848039, -848043.44, 74865.84, 0.0, 10.000742, 9.999639 
1.6750251e+3, 2.1582288e+2, -771756.4, -843540.94, -2846.144, -0.026176674, -0.23143496, -771643.7, 53270.45, 0.0, 10.00059, 9.999642 
1.6750073e+3, 2.2582255e+2, -684987.2, -742181.8, -13814.754, -0.026251582, -0.22780396, -681825.2, 45092.527, 0.0, 10.000476, 9.999722 
1.6749892e+3, 2.3582251e+2, -600238.44, -651023.0, -12250.679, -0.045441423, -0.20674032, -597437.7, 31481.693, 0.0, 10.000386, 9.999718 
1.6749711e+3, 2.4582233e+2, -511620.56, -559347.25, -16221.9375, -0.044149872, -0.190738, -506628.9, 24293.184, 0.0, 10.00033, 9.999701 
1.6749534e+3, 2.5582218e+2, -418817.88, -464712.56, -18988.867, -0.02799723, -0.17903681, -411980.03, 20944.445, 0.0, 10.000298, 9.999693 
1.6749352e+3, 2.6582178e+2, -341753.94, -384247.75, -20636.156, -0.03104168, -0.18103032, -333381.9, 1547.0647, 0.0, 10.000187, 9.999626 
1.6749169e+3, 2.7582127e+2, -271457.1, -303867.53, -16324.528, -0.04775072, -0.1973474, -264660.16, -27725.832, 0.0, 10.000014, 9.999588 
1.6748989e+3, 2.858208e+2, -221967.19, -273528.06, -10228.967, -0.034371246, -0.1753952, -220012.03, -81071.57, 0.0, 9.999872, 9.999191 
1.6748813e+3, 2.958206e+2, -141118.55, -183342.38, -20474.785, -0.00006246762, -0.11801696, -132820.78, -91875.48, 0.0, 9.999753, 9.999195 
1.6748625e+3, 3.058203e+2, -79038.59, -70013.85, -39274.285, -0.035859533, -0.09056596, -34993.566, -34993.566, 0.0, 9.999593, 9.999716 
1.674844e+3, 3.1581977e+2, -97792.81, -65210.3, 35451.453, -0.030741699, -0.111842014, -42486.04, -42486.04, 0.0, 9.999405, 9.999839 
1.6851842e+3, 1.2584707e+2, -1576062.5, -1760687.3, 17848.924, 0.014258115, -0.18898365, -1574352.8, 132329.3, 0.021138081, 10.001466, 9.998979 
1.6851655e+3, 1.3584703e+2, -1455962.9, -1617641.5, -28397.69, -0.03876209, -0.12430724, -1451120.1, 157563.7, 0.013899301, 10.001461, 9.999291 
1.6851486e+3, 1.4584586e+2, -1381457.8, -1555934.4, 4223.8896, 0.060991075, -0.15516791, -1381355.5, 129339.43, 0.0071684015, 10.001397, 9.999071 
1.6851306e+3, 1.558448e+2, -1298087.3, -1467282.4, 10744.144, 0.010931892, -0.16867472, -1297407.8, 115296.05, 0.0025108194, 10.001301, 9.999054 
1.6851132e+3, 1.6584364e+2, -1213484.6, -1363025.0, 14729.89, -0.012168953, -0.19125547, -1212047.6, 102666.16, 0.0004388093, 10.001152, 9.999168 
1.685096e+3, 1.7584248e+2, -1140990.8, -1274446.4, 17111.543, -0.0008676257, -0.22517613, -1138831.6, 77892.16, 0.000012516376, 10.000964, 9.999194 
1.6850786e+3, 1.8584183e+2, -1033559.1, -1131175.4, 10189.572, -0.012674375, -0.22543372, -1032506.8, 86222.734, 0.0, 10.000854, 9.999558 
1.6850609e+3, 1.9584164e+2, -944309.06, -1037745.56, 9157.994, -0.04646049, -0.20197177, -943419.94, 77311.21, 0.0, 10.000794, 9.999556 
1.6850433e+3, 2.0584114e+2, -856258.56, -938560.3, -1630.2919, -0.046355408, -0.20678608, -856226.3, 66509.56, 0.0, 10.0007, 9.99961 
1.6850257e+3, 2.158405e+2, -775356.4, -848141.1, -1077.9983, -0.019728035, -0.2338699, -775340.4, 49401.414, 0.0, 10.00058, 9.999616 
1.6850078e+3, 2.2584021e+2, -673585.25, -732987.56, -7955.607, -0.022877047, -0.22651757, -672538.25, 54206.99, 0.0, 10.00054, 9.999753 
1.6849896e+3, 2.3584029e+2, -573450.1, -634544.44, -9348.284, -0.048198126, -0.19605814, -572051.75, 56694.008, 0.0, 10.000557, 9.999747 
1.6849716e+3, 2.4584012e+2, -491104.13, -543969.75, -13578.309, -0.05028199, -0.18314928, -487820.56, 42927.65, 0.0, 10.000449, 9.999748 
1.6849534e+3, 2.5583988e+2, -422779.38, -461519.25, -10117.515, -0.035470765, -0.18358903, -420296.2, 12454.741, 0.0, 10.000251, 9.999737 
1.6849352e+3, 2.6583952e+2, -347375.28, -380768.25, -13281.506, -0.037914254, -0.18679161, -342737.03, -7982.0366, 0.0, 10.000123, 9.99968 
1.6849169e+3, 2.7583912e+2, -263913.16, -295481.97, -15706.206, -0.05265737, -0.19647132, -257430.27, -20670.973, 0.0, 10.000048, 9.999629 
1.6848987e+3, 2.8583872e+2, -215235.3, -275906.9, -8455.026, -0.041674007, -0.16814023, -214079.06, -75314.07, 0.0, 9.999945, 9.99914 
1.6848809e+3, 2.958385e+2, -135083.17, -185837.05, -12733.644, -0.012860667, -0.104454115, -132067.61, -91297.85, 0.0, 9.99982, 9.9991455 
1.6848621e+3, 3.058379e+2, -82460.65, -75013.28, -37841.816, -0.04152988, -0.10264549, -40712.383, -40712.383, 0.0, 9.999585, 9.999683 
1.6848435e+3, 3.1583756e+2, -118726.36, -78191.88, 32997.297, -0.032231998, -0.10459703, -59734.676, -59734.676, 0.0, 9.999276, 9.99981 
1.6951856e+3, 1.2586485e+2, -1582484.3, -1775431.6, 19397.707, -0.00091009424, -0.16374941, -1580553.5, 125954.68, 0.022110628, 10.001471, 9.998877 
1.6951668e+3, 1.3586447e+2, -1458471.1, -1623883.5, -29996.414, -0.03912126, -0.12635806, -1453199.5, 155313.83, 0.014592254, 10.001465, 9.9992485 
1.6951498e+3, 1.4586325e+2, -1376085.1, -1545735.4, -139.70161, 0.054999094, -0.1648618, -1376085.1, 134439.67, 0.007572671, 10.0014, 9.999141 
1.6951318e+3, 1.5586221e+2, -1292857.1, -1457548.6, 6227.383, 0.0030283513, -0.1817384, -1292622.0, 119910.695, 0.002683379, 10.001305, 9.99912 
1.6951142e+3, 1.6586117e+2, -1208865.5, -1354681.5, 7107.635, -0.016750824, -0.19865389, -1208519.9, 106021.625, 0.0004809482, 10.001156, 9.999225 
1.6950971e+3, 1.7586021e+2, -1136890.8, -1267334.3, 10079.749, 0.00048706753, -0.22050245, -1136116.4, 80433.71, 0.000014849569, 10.000968, 9.999242 
1.6950795e+3, 1.858596e+2, -1033652.4, -1132688.9, 7788.871, -0.0061831796, -0.21754983, -1033043.5, 85512.086, 0.0, 10.000857, 9.999547 
1.6950616e+3, 1.9585937e+2, -944249.8, -1038800.75, 6646.476, -0.0348792, -0.19708167, -943784.9, 76772.7, 0.0, 10.000798, 9.999548 
1.6950439e+3, 2.0585887e+2, -853237.2, -933423.4, -6158.0586, -0.03699752, -0.20238745, -852767.0, 69795.305, 0.0, 10.000704, 9.999644 
1.6950263e+3, 2.1585828e+2, -772741.5, -843910.94, -5029.021, -0.018301649, -0.22830857, -772387.9, 52180.152, 0.0, 10.000584, 9.999644 
1.6950083e+3, 2.2585802e+2, -673272.8, -733592.4, -6951.7354, -0.02443831, -0.21847296, -672482.0, 54089.266, 0.0, 10.000544, 9.999748 
1.6949901e+3, 2.3585814e+2, -572524.8, -633922.3, -8848.804, -0.048949976, -0.18448813, -571274.94, 57296.707, 0.0, 10.000561, 9.999751 
1.6949719e+3, 2.4585792e+2, -481394.34, -525131.56, -20408.514, -0.05515612, -0.18251358, -473350.7, 57223.52, 0.0, 10.000453, 9.999877 
1.6949536e+3, 2.5585762e+2, -414357.34, -445234.47, -16415.941, -0.047841176, -0.2043706, -407260.78, 25316.428, 0.0, 10.000254, 9.999848 
1.6949353e+3, 2.6585743e+2, -349697.1, -386820.9, -15293.865, -0.047825668, -0.19080316, -344208.06, -9628.524, 0.0, 10.000127, 9.999638 
1.694917e+3, 2.7585742e+2, -265941.7, -301110.72, -17903.047, -0.053402364, -0.1560742, -258431.7, -21851.033, 0.0, 10.000052, 9.999589 
1.6948988e+3, 2.858569e+2, -212206.42, -271103.78, -12564.052, -0.042860318, -0.14088054, -209638.23, -71050.78, 0.0, 9.999949, 9.999171 
1.6948806e+3, 2.9585618e+2, -133273.08, -183464.48, -17517.523, -0.020745011, -0.13227412, -127763.914, -87167.53, 0.0, 9.999824, 9.999161 
1.6948615e+3, 3.058553e+2, -92021.27, -96046.016, -49138.137, -0.04170159, -0.14742665, -44854.32, -44854.32, 0.0, 9.999589, 9.999539 
1.6948426e+3, 3.1585568e+2, -124937.42, -91997.54, 25606.416, -0.029059703, -0.06353467, -78021.67, -78021.67, 0.0, 9.999278, 9.999716 
1.705187e+3, 1.2588234e+2, -1568024.0, -1766329.6, 14848.744, -0.0035299591, -0.1547174, -1566918.3, 139418.69, 0.023094978, 10.001566, 9.998892 
1.7051682e+3, 1.358819e+2, -1457343.4, -1616689.9, -29763.197, -0.03932195, -0.13042726, -1451965.6, 156376.98, 0.0152980285, 10.001447, 9.999305 
1.705151e+3, 1.4588076e+2, -1378431.8, -1538851.4, 2529.418, 0.04843997, -0.16694859, -1378391.9, 131961.17, 0.007988725, 10.001351, 9.999211 
1.7051332e+3, 1.5587981e+2, -1291844.0, -1449489.5, 8217.138, 0.00041844216, -0.18334505, -1291416.9, 120943.45, 0.0028641522, 10.001281, 9.999186 
1.7051153e+3, 1.6587886e+2, -1203167.6, -1345437.8, 5886.8955, -0.01635721, -0.19659919, -1202924.5, 111443.75, 0.0005267183, 10.001168, 9.999282 
1.705098e+3, 1.75878e+2, -1124938.4, -1255396.5, 8700.221, 0.0023398285, -0.2118128, -1124360.8, 92015.11, 0.000017669796, 10.001025, 9.999296 
1.7050803e+3, 1.8587741e+2, -1027548.5, -1125408.1, 10411.153, -0.00097594975, -0.21220432, -1026453.2, 91927.97, 0.0, 10.000882, 9.999584 
1.7050625e+3, 1.9587712e+2, -950871.7, -1038325.7, 12409.147, -0.024665492, -0.20242777, -949145.0, 71238.59, 0.0, 10.000738, 9.999578 
1.7050447e+3, 2.0587665e+2, -860741.6, -935975.5, -62.22728, -0.029654108, -0.20571823, -860741.56, 61646.53, 0.0, 10.000649, 9.999652 
1.7050269e+3, 2.1587618e+2, -770194.6, -841403.7, -1405.6938, -0.019598974, -0.22045727, -770166.9, 54226.242, 0.0, 10.000597, 9.999654 
1.7050087e+3, 2.2587597e+2, -678899.8, -730014.7, -1572.4624, -0.027228914, -0.20905986, -678851.5, 47544.543, 0.0, 10.00048, 9.999803 
1.7049906e+3, 2.3587608e+2, -604438.8, -642905.75, 461.94702, -0.04802721, -0.18034543, -604433.25, 23963.139, 0.0, 10.000316, 9.999806 
1.7049722e+3, 2.4587594e+2, -503614.75, -524677.7, -11791.299, -0.055053186, -0.17857595, -498336.5, 32061.604, 0.0, 10.000255, 9.999974 
1.7049539e+3, 2.5587574e+2, -407087.84, -432099.75, -10655.414, -0.05183461, -0.19711812, -403164.03, 29235.623, 0.0, 10.000264, 9.999932 
1.7049354e+3, 2.658756e+2, -344889.03, -387336.16, -10931.981, -0.052333158, -0.18318588, -342239.0, -7837.172, 0.0, 10.000174, 9.99961 
1.7049168e+3, 2.7587554e+2, -273476.75, -307036.78, -12595.236, -0.055863727, -0.15004778, -269275.6, -32871.93, 0.0, 10.000012, 9.999566 
1.7048986e+3, 2.8587505e+2, -220401.9, -267607.53, -6149.7026, -0.045427527, -0.13382444, -219613.9, -81203.9, 0.0, 9.999863, 9.999236 
1.7048803e+3, 2.9587442e+2, -145122.25, -183685.94, -9110.593, -0.024753876, -0.12270855, -143078.23, -102660.56, 0.0, 9.999721, 9.9992075 
1.7048612e+3, 3.0587327e+2, -93590.625, -112771.36, -40792.094, -0.04357063, -0.1634507, -61276.695, -61276.695, 0.0, 9.999649, 9.999394 
1.7048419e+3, 3.158737e+2, -76368.77, -73030.57, 37446.723, -0.043750837, -0.05581613, -37215.77, -37215.77, 0.0, 9.999633, 9.999674 
1.7151886e+3, 1.2589969e+2, -1559535.9, -1749379.8, 11240.055, 0.001849658, -0.15894613, -1558872.8, 147294.86, 0.024090363, 10.00157, 9.999007 
1.7151697e+3, 1.3589936e+2, -1446799.0, -1595867.3, -34902.168, -0.0393379, -0.13619775, -1439031.9, 169139.28, 0.016015902, 10.0014515, 9.999448 
1.7151524e+3, 1.4589842e+2, -1373260.9, -1529408.4, -715.44073, 0.04144549, -0.16182326, -1373257.6, 136921.98, 0.008416149, 10.001356, 9.999274 
1.7151344e+3, 1.5589759e+2, -1287051.3, -1440825.1, 4688.5747, 0.0027135531, -0.17417045, -1286908.4, 125277.98, 0.0030529583, 10.001285, 9.999245 
1.7151166e+3, 1.6589671e+2, -1198999.3, -1338070.6, 77.82193, -0.011375329, -0.18552978, -1198999.3, 115194.51, 0.00057611073, 10.001172, 9.999331 
1.715099e+3, 1.7589591e+2, -1120548.5, -1247638.1, 2978.5674, 0.0045553152, -0.19921538, -1120478.8, 95721.88, 0.00002102365, 10.001029, 9.999349 
1.7150813e+3, 1.858953e+2, -1021433.8, -1114042.3, 4794.915, 0.002906176, -0.20937935, -1021186.2, 97019.81, 0.0, 10.000886, 9.999661 
1.7150633e+3, 1.9589488e+2, -945755.0, -1028992.06, 7186.964, -0.015844684, -0.21783324, -945139.0, 75070.03, 0.0, 10.000742, 9.999642 
1.7150454e+3, 2.0589449e+2, -862091.94, -939975.8, -1975.2476, -0.024315692, -0.2165394, -862041.9, 60171.332, 0.0, 10.000652, 9.999624 
1.7150274e+3, 2.1589418e+2, -770812.1, -843789.9, -3542.2012, -0.023654308, -0.21036589, -770640.6, 53576.45, 0.0, 10.0006, 9.999637 
1.7150092e+3, 2.2589405e+2, -670825.4, -714447.6, -7464.327, -0.03131945, -0.19845398, -669583.44, 56636.156, 0.0, 10.000483, 9.999908 
1.714991e+3, 2.3589411e+2, -596820.3, -628290.4, -4609.9697, -0.045507565, -0.18366334, -596158.94, 32061.25, 0.0, 10.0003195, 9.999906 
1.7149726e+3, 2.4589416e+2, -498941.66, -516157.0, -10670.6045, -0.04998592, -0.17105483, -493839.72, 36380.434, 0.0, 10.0002575, 10.000032 
1.7149541e+3, 2.558943e+2, -402954.8, -424917.4, -10010.311, -0.047471132, -0.16116054, -399076.94, 33141.676, 0.0, 10.000269, 9.999981 
1.7149356e+3, 2.6589403e+2, -345514.75, -390088.3, -16351.531, -0.051493507, -0.16392958, -340159.66, -5937.347, 0.0, 10.000178, 9.99959 
1.7149167e+3, 2.7589345e+2, -273799.1, -308931.22, -17889.342, -0.060064416, -0.17972662, -266293.34, -30064.428, 0.0, 10.000015, 9.999553 
1.7148983e+3, 2.8589317e+2, -213546.27, -254361.58, -10920.475, -0.04937282, -0.14741683, -210808.1, -72574.836, 0.0, 9.999866, 9.999327 
1.71488e+3, 2.9589325e+2, -139593.92, -173207.75, -13585.23, -0.025063941, -0.0736799, -134789.94, -94555.9, 0.0, 9.9997225, 9.99928 
1.7148606e+3, 3.0589166e+2, -103507.125, -135152.63, -40835.96, -0.047681857, -0.14933443, -75535.64, -75535.64, 0.0, 9.999654, 9.999239 
1.7148411e+3, 3.158916e+2, -74325.99, -71781.16, 40573.71, -0.07688512, -0.07957467, -32459.916, -32459.916, 0.0, 9.999643, 9.999679 
1.7251901e+3, 1.259173e+2, -1540325.3, -1738456.4, 32410.633, -0.002363713, -0.16512488, -1535158.1, 170836.58, 0.025095664, 10.001702, 9.999018 
1.7251712e+3, 1.3591693e+2, -1428061.9, -1582739.9, -23207.955, -0.036538873, -0.15057611, -1424654.8, 183343.6, 0.016745616, 10.001567, 9.999482 
1.7251538e+3, 1.4591612e+2, -1361113.6, -1519967.9, 6834.467, 0.038509965, -0.16616714, -1360820.1, 149185.66, 0.008854771, 10.001428, 9.999304 
1.7251356e+3, 1.5591538e+2, -1284393.0, -1435770.3, 9236.133, 0.00035245772, -0.17127073, -1283831.6, 128180.43, 0.003249545, 10.001288, 9.999276 
1.7251179e+3, 1.6591457e+2, -1193431.1, -1325808.6, 4333.9556, -0.012659719, -0.18229562, -1193289.4, 120729.42, 0.00062906195, 10.001171, 9.999415 
1.7251001e+3, 1.7591384e+2, -1109809.1, -1233964.6, 9007.351, 0.0036170923, -0.19951814, -1109159.0, 106866.01, 0.00002497822, 10.001068, 9.999422 
1.7250821e+3, 1.8591322e+2, -1014358.0, -1109827.6, 7251.835, 0.0030979884, -0.21034598, -1013810.3, 104219.81, 0.0, 10.000933, 9.999667 
1.725064e+3, 1.9591284e+2, -940887.5, -1025548.25, 4080.9976, -0.013479919, -0.21793644, -940691.25, 79342.03, 0.0, 10.000772, 9.99965 
1.725046e+3, 2.0591249e+2, -865189.94, -934936.8, -2462.08, -0.021511015, -0.21486282, -865103.1, 56933.906, 0.0, 10.000605, 9.9996805 
1.725028e+3, 2.1591228e+2, -791628.6, -847468.1, 1824.5958, -0.021860674, -0.20589164, -791569.06, 32471.018, 0.0, 10.000432, 9.999692 
1.7250097e+3, 2.259122e+2, -689307.0, -716232.44, -1853.1835, -0.031868935, -0.19316, -689180.06, 36862.027, 0.0, 10.000327, 9.99997 
1.7249912e+3, 2.3591232e+2, -600051.75, -623486.8, -2796.1973, -0.04915521, -0.17919117, -599722.75, 28319.436, 0.0, 10.000272, 9.999961 
1.7249727e+3, 2.4591245e+2, -512284.3, -520931.06, -11283.965, -0.054960214, -0.16254668, -504523.8, 25517.871, 0.0, 10.000161, 10.000045 
1.7249542e+3, 2.5591266e+2, -439161.47, -440254.13, -14390.11, -0.05271941, -0.14507732, -425307.3, 6732.2935, 0.0, 10.000013, 9.999997 
1.7249356e+3, 2.6591238e+2, -374251.84, -393269.22, -18330.07, -0.054485746, -0.15257724, -363110.9, -29067.746, 0.0, 9.999937, 9.999683 
1.7249167e+3, 2.7591178e+2, -283400.56, -304086.16, -11649.719, -0.05887594, -0.18176177, -278164.88, -42115.0, 0.0, 9.999911, 9.999636 
1.7248982e+3, 2.859116e+2, -214919.17, -253096.69, -5431.3115, -0.052286923, -0.14243117, -214161.52, -76108.414, 0.0, 9.99985, 9.999342 
1.7248796e+3, 2.959119e+2, -132727.16, -168254.14, -13614.897, -0.037936304, -0.047478024, -128109.695, -88057.79, 0.0, 9.999765, 9.999292 
1.7248604e+3, 3.0591005e+2, -91761.16, -130779.91, -33258.12, -0.05728158, -0.150283, -72712.55, -72712.55, 0.0, 9.9997425, 9.999226 
1.7248407e+3, 3.1590995e+2, -43584.543, -35347.145, 61688.38, -0.096198, -0.0869966, 22359.877, 22359.877, 0.0, 9.9997635, 9.99987 
1.7351916e+3, 1.2593526e+2, -1546313.8, -1752366.3, 27019.537, -0.018123882, -0.17153049, -1542829.6, 162988.25, 0.026112983, 10.001707, 9.998921 
1.7351729e+3, 1.3593465e+2, -1432534.5, -1593105.9, -29188.764, -0.031341188, -0.1730696, -1427393.1, 180430.7, 0.017487902, 10.001571, 9.99941 
1.7351551e+3, 1.459339e+2, -1361177.8, -1521351.3, 1117.6671, 0.039046716, -0.17944516, -1361170.0, 148661.03, 0.0093043, 10.001431, 9.999293 
1.7351368e+3, 1.5593325e+2, -1283460.4, -1435411.8, 3540.5273, -0.0064625135, -0.17423567, -1283378.0, 128458.945, 0.0034534705, 10.001294, 9.999277 
1.7351188e+3, 1.6593248e+2, -1185002.9, -1309894.8, 114.92013, -0.019898053, -0.18656613, -1185002.8, 128840.484, 0.00068548496, 10.001176, 9.999523 
1.735101e+3, 1.7593177e+2, -1102976.6, -1221131.1, 4596.6035, -0.00044451997, -0.2123099, -1102798.1, 113050.71, 0.00002961696, 10.001072, 9.99951 
1.735083e+3, 1.8593125e+2, -1018750.5, -1120108.4, 1044.4235, -0.0003909954, -0.21488832, -1018739.75, 99113.65, 0.0, 10.000936, 9.999597 
1.7350648e+3, 1.9593099e+2, -944024.56, -1033169.7, -2070.342, -0.017518157, -0.2030134, -943976.5, 75879.71, 0.0, 10.000775, 9.999598 
1.7350467e+3, 2.0593067e+2, -855264.94, -915502.6, -8903.746, -0.021267233, -0.20104465, -853976.44, 67883.18, 0.0, 10.000608, 9.999813 
1.7350285e+3, 2.1593043e+2, -782622.44, -830070.9, -4088.5784, -0.014394058, -0.20709369, -782272.7, 41589.598, 0.0, 10.000436, 9.99981 
1.7350098e+3, 2.2593042e+2, -687983.2, -714838.06, -3574.7832, -0.02903885, -0.19305195, -687515.44, 38348.113, 0.0, 10.000331, 9.999979 
1.7349914e+3, 2.3593068e+2, -599294.5, -623182.5, -4691.5083, -0.05911565, -0.16680804, -598406.1, 29456.56, 0.0, 10.000276, 9.999962 
1.7349726e+3, 2.4593076e+2, -514477.78, -526695.5, -16292.01, -0.0701879, -0.15320623, -503187.0, 26676.105, 0.0, 10.000164, 10.000005 
1.7349541e+3, 2.559308e+2, -440110.1, -443236.94, -18831.33, -0.067795016, -0.14935705, -422777.4, 9085.746, 0.0, 10.000015, 9.999977 
1.7349355e+3, 2.6593068e+2, -359807.53, -364262.72, -18615.838, -0.061388806, -0.14908753, -343286.47, -9421.603, 0.0, 9.99994, 9.999883 
1.7349167e+3, 2.7593052e+2, -270739.63, -279042.63, -12088.636, -0.052441828, -0.15498923, -262109.48, -26242.559, 0.0, 9.999914, 9.999806 
1.734898e+3, 2.8593037e+2, -219121.5, -263239.0, -8164.3604, -0.05456053, -0.11836641, -217659.08, -79789.0, 0.0, 9.999854, 9.999271 
1.7348792e+3, 2.9593036e+2, -135851.84, -176177.81, -16025.827, -0.06386425, -0.04546049, -130258.805, -90386.71, 0.0, 9.999769, 9.999237 
1.7348598e+3, 3.0592838e+2, -81851.766, -111964.64, -32138.059, -0.07241708, -0.16676779, -61418.05, -61418.05, 0.0, 9.999748, 9.999352 
1.7348404e+3, 3.159287e+2, -15416.4375, 20885.188, 65350.77, -0.1002423, -0.07189364, 70558.97, 70558.97, 0.0, 9.999772, 10.000254 
1.7451933e+3, 1.259534e+2, -1523243.9, -1742409.4, 29868.203, -0.026295051, -0.16712284, -1519246.4, 186393.36, 0.027146768, 10.00188, 9.998906 
1.7451744e+3, 1.359527e+2, -1425262.0, -1590113.0, -21599.168, -0.034297634, -0.17990814, -1422479.0, 185167.67, 0.018243046, 10.001628, 9.999402 
1.7451565e+3, 1.4595197e+2, -1355036.1, -1519950.8, 13692.068, 0.031293854, -0.18286516, -1353907.0, 155746.6, 0.009763315, 10.001484, 9.999277 
1.7451382e+3, 1.5595128e+2, -1266409.0, -1428266.1, 14872.58, -0.0139888665, -0.1790924, -1265053.8, 146606.3, 0.0036636468, 10.001418, 9.999266 
1.74512e+3, 1.6595055e+2, -1167414.1, -1295787.1, 6598.883, -0.027013095, -0.19046544, -1167075.9, 146590.3, 0.0007450982, 10.001274, 9.999572 
1.7451021e+3, 1.759499e+2, -1099682.5, -1214814.5, 6206.103, -0.00769841, -0.21290748, -1099348.9, 116321.96, 0.00003499582, 10.001076, 9.99955 
1.745084e+3, 1.8594943e+2, -1027476.2, -1125187.3, 2430.6003, -0.0046062535, -0.21240374, -1027415.8, 90259.46, 0.0, 10.000881, 9.999587 
1.7450656e+3, 1.9594917e+2, -956868.0, -1039492.44, 3459.244, -0.016204236, -0.19773118, -956723.44, 62954.93, 0.0, 10.0006895, 9.999595 
1.7450473e+3, 2.0594889e+2, -856508.25, -906139.06, -2413.881, -0.020916644, -0.19771644, -856391.1, 65290.33, 0.0, 10.000559, 9.999901 
1.7450288e+3, 2.1594869e+2, -772423.6, -816363.1, -1505.7145, -0.019566718, -0.20890011, -772372.06, 51311.32, 0.0, 10.000469, 9.999887 
1.7450103e+3, 2.2594874e+2, -688246.8, -713788.75, -2422.8362, -0.033133015, -0.19334278, -688019.0, 37665.125, 0.0, 10.000326, 9.999988 
1.7449915e+3, 2.3594907e+2, -617670.75, -631024.06, -3830.7986, -0.057634916, -0.16119513, -616649.8, 11033.16, 0.0, 10.000147, 9.9999695 
1.7449728e+3, 2.4594915e+2, -527834.56, -530517.75, -11906.621, -0.071514234, -0.146902, -517194.2, 12489.206, 0.0, 10.000063, 10.000027 
1.744954e+3, 2.559492e+2, -434286.5, -437831.78, -10348.687, -0.07744617, -0.14576595, -425559.72, 6123.936, 0.0, 10.000047, 9.999998 
1.7449352e+3, 2.6594913e+2, -357582.13, -357792.0, -15946.607, -0.069085635, -0.14300227, -341740.13, -8055.2188, 0.0, 9.999933, 9.999928 
1.7449164e+3, 2.759491e+2, -290568.88, -283362.97, -20700.354, -0.05148039, -0.14268251, -265954.34, -30268.486, 0.0, 9.999758, 9.999851 
1.7448977e+3, 2.8594893e+2, -234363.38, -262717.06, -12843.06, -0.057356, -0.106876984, -229411.0, -91722.625, 0.0, 9.999718, 9.999339 
1.7448786e+3, 2.9594898e+2, -132492.17, -168520.97, -10537.482, -0.07844832, -0.04036378, -129636.57, -89946.49, 0.0, 9.999768, 9.999289 
1.7448595e+3, 3.0594683e+2, -94494.23, -129519.19, -33875.707, -0.07939655, -0.17290634, -73872.07, -73872.07, 0.0, 9.999713, 9.9992485 
1.74484e+3, 3.1594715e+2, -28188.357, 37728.684, 47648.164, -0.11189769, -0.073018104, 62706.434, 62706.434, 0.0, 9.999587, 10.000457 
1.7551953e+3, 1.2597182e+2, -1520044.5, -1735130.0, 19393.65, -0.030512257, -0.15203182, -1518309.8, 187149.9, 0.02820003, 10.001878, 9.998958 
1.7551759e+3, 1.3597108e+2, -1421348.1, -1583195.9, -31376.771, -0.04474271, -0.17201252, -1415478.1, 191988.31, 0.019010184, 10.001632, 9.99945 
1.7551579e+3, 1.4597033e+2, -1356445.4, -1524343.5, 10536.138, 0.015886936, -0.17697434, -1355786.9, 153686.47, 0.010229628, 10.001489, 9.999246 
1.7551394e+3, 1.559695e+2, -1268279.3, -1432953.0, 11273.273, -0.022335343, -0.18576853, -1267511.0, 143970.11, 0.003878522, 10.00142, 9.999233 
1.7551212e+3, 1.6596878e+2, -1168249.8, -1298229.6, -1301.4087, -0.034188602, -0.19389473, -1168236.8, 145250.63, 0.0008073514, 10.001275, 9.999556 
1.755103e+3, 1.7596826e+2, -1099950.0, -1216413.5, -1546.4418, -0.018125579, -0.20170416, -1099929.4, 115561.62, 0.00004108452, 10.001079, 9.999539 
1.7550847e+3, 1.8596779e+2, -1023934.5, -1119066.8, -4971.8345, -0.009583515, -0.20322858, -1023675.4, 93820.234, 0.000000000016639355, 10.000885, 9.999628 
1.7550662e+3, 1.9596744e+2, -953447.6, -1033734.94, -3460.9094, -0.009762888, -0.20201162, -953298.7, 66200.95, 0.0, 10.000693, 9.999634 
1.7550477e+3, 2.0596716e+2, -853498.25, -901220.2, -5651.126, -0.020572519, -0.20465454, -852838.2, 68664.33, 0.0, 10.000563, 9.999933 
1.7550291e+3, 2.1596704e+2, -769872.5, -812313.56, -4946.5415, -0.037293747, -0.21119247, -769303.6, 54199.805, 0.0, 10.000473, 9.999914 
1.7550103e+3, 2.2596712e+2, -687479.06, -713479.25, -8862.091, -0.044093166, -0.19407092, -684745.75, 40758.215, 0.0, 10.00033, 9.999989 
1.7549919e+3, 2.3596744e+2, -616506.4, -629884.94, -9465.895, -0.044763137, -0.1624791, -611604.7, 15898.513, 0.0, 10.000151, 9.999976 
1.754973e+3, 2.4596761e+2, -521965.9, -519637.38, -11827.538, -0.05893854, -0.14357631, -508916.94, 20585.934, 0.0, 10.000067, 10.0001 
1.754954e+3, 2.5596783e+2, -429779.3, -429925.47, -10801.601, -0.08183423, -0.1339904, -419050.53, 12450.98, 0.0, 10.000051, 10.0000515 
1.7549351e+3, 2.6596767e+2, -365031.4, -374664.88, -22061.791, -0.07787353, -0.13434274, -347266.66, -13762.992, 0.0, 9.999938, 9.999812 
1.7549163e+3, 2.7596742e+2, -296374.7, -296479.94, -25980.955, -0.056081142, -0.14552811, -270446.3, -34938.97, 0.0, 9.999761, 9.999761 
1.7548974e+3, 2.8596735e+2, -219563.8, -233152.69, -10476.024, -0.06051069, -0.10851369, -213871.8, -76363.12, 0.0, 9.999721, 9.999542 
1.7548785e+3, 2.9596767e+2, -120953.17, -146160.48, -8923.393, -0.081706256, -0.031949963, -118114.06, -78607.59, 0.0, 9.999773, 9.999441 
1.7548592e+3, 3.059654e+2, -118740.37, -181400.52, -38761.94, -0.07847571, -0.16782281, -100230.086, -100230.086, 0.0, 9.999717, 9.998891 
1.7548394e+3, 3.1596518e+2, -27516.504, 38346.613, 43718.184, -0.13077024, -0.08304438, 60148.656, 60148.656, 0.0, 9.999588, 10.000462 
1.765197e+3, 1.2599011e+2, -1539905.8, -1744286.6, 24430.025, -0.031785898, -0.15696405, -1537026.1, 168254.42, 0.029275268, 10.001738, 9.9989605 
1.7651774e+3, 1.3598949e+2, -1404352.1, -1574374.4, -30851.781, -0.059332136, -0.16732349, -1398927.0, 208359.44, 0.019789457, 10.001752, 9.999453 
1.7651592e+3, 1.4598879e+2, -1342708.4, -1515925.6, 8651.462, -0.0005060293, -0.1678168, -1342277.4, 167015.33, 0.010701914, 10.001579, 9.999259 
1.7651407e+3, 1.5598784e+2, -1287215.6, -1440464.5, 12164.142, -0.023258422, -0.1884309, -1286256.1, 125045.18, 0.004096641, 10.001285, 9.999246 
1.7651223e+3, 1.659871e+2, -1193694.1, -1309070.3, 2731.3352, -0.03331649, -0.19790995, -1193629.5, 119677.984, 0.00087147695, 10.001097, 9.999566 
1.765104e+3, 1.7598668e+2, -1113679.9, -1221815.4, 3832.2205, -0.025503913, -0.19892977, -1113544.3, 101766.41, 0.000047732003, 10.000981, 9.999548 
1.7650855e+3, 1.8598622e+2, -1029052.44, -1121126.3, -1333.4904, -0.019694738, -0.19891684, -1029033.1, 88282.06, 0.0000000004293444, 10.00085, 9.99963 
1.7650668e+3, 1.9598585e+2, -951073.4, -1031814.1, -3038.1606, -0.018527359, -0.20019762, -950959.2, 68360.4, 0.0, 10.000709, 9.999639 
1.7650482e+3, 2.0598559e+2, -850872.3, -894990.25, -4781.9116, -0.027669728, -0.20309994, -850359.94, 70962.25, 0.0, 10.000561, 9.999976 
1.7650294e+3, 2.1598554e+2, -776872.8, -811611.5, -3917.1528, -0.042574, -0.20830274, -776436.6, 46885.78, 0.0, 10.000409, 9.9999485 
1.7650108e+3, 2.259856e+2, -696808.94, -719668.6, -9745.227, -0.045706052, -0.19165133, -693218.44, 32104.574, 0.0, 10.000276, 9.999971 
1.7649919e+3, 2.3598589e+2, -617393.7, -632039.4, -11970.322, -0.041326422, -0.161717, -610684.0, 16638.709, 0.0, 10.000154, 9.999959 
1.764973e+3, 2.459861e+2, -526425.4, -522471.5, -15896.22, -0.054025795, -0.13862146, -508429.78, 20892.512, 0.0, 10.000041, 10.0000925 
1.764954e+3, 2.5598636e+2, -447270.22, -439307.7, -21402.416, -0.078143425, -0.1209262, -421519.38, 9801.118, 0.0, 9.999936, 10.000041 
1.764935e+3, 2.6598623e+2, -371770.84, -377768.84, -31225.453, -0.07777823, -0.121501155, -343400.7, -10077.909, 0.0, 9.999893, 9.999811 
1.764916e+3, 2.759859e+2, -277424.75, -286751.16, -26387.535, -0.06092366, -0.13855696, -255291.53, -19964.604, 0.0, 9.99989, 9.999764 
1.764897e+3, 2.8598583e+2, -203434.13, -218552.92, -12228.144, -0.067754164, -0.106384695, -196617.44, -59289.375, 0.0, 9.9998045, 9.999601 
1.764878e+3, 2.9598618e+2, -134493.94, -148596.7, -21504.566, -0.08969509, -0.034189872, -118914.18, -79589.016, 0.0, 9.999665, 9.9994755 
1.764859e+3, 3.0598384e+2, -139604.25, -212968.64, -47836.492, -0.07879266, -0.16406874, -116004.49, -116004.49, 0.0, 9.999669, 9.998696 
1.7648388e+3, 3.1598318e+2, 9834.089, 74548.41, 47399.715, -0.14389306, -0.10500274, 99582.18, 99582.18, 0.0, 9.999768, 10.000623 
1.7751987e+3, 1.2600838e+2, -1543148.8, -1751864.6, 23733.785, -0.032627612, -0.17913353, -1540484.0, 164617.52, 0.030378198, 10.00174, 9.998909 
1.7751789e+3, 1.3600792e+2, -1407533.6, -1581250.1, -32301.285, -0.07812874, -0.16553329, -1401721.9, 205384.16, 0.020584289, 10.001753, 9.999405 
1.7751606e+3, 1.4600734e+2, -1339324.0, -1509261.3, -2975.3013, -0.018038547, -0.15552694, -1339272.0, 169839.36, 0.011180918, 10.00158, 9.999306 
1.7751421e+3, 1.5600634e+2, -1283398.6, -1433646.3, 1211.3322, -0.017111406, -0.18731838, -1283388.9, 127731.44, 0.0043172166, 10.001287, 9.999292 
1.7751235e+3, 1.6600557e+2, -1190948.5, -1304886.0, -1965.6633, -0.024803996, -0.20254186, -1190914.6, 122211.91, 0.0009367269, 10.0011015, 9.999594 
1.7751049e+3, 1.7600517e+2, -1111556.9, -1218933.8, -918.5447, -0.030074382, -0.20425788, -1111549.0, 103580.41, 0.00005469773, 10.000986, 9.999566 
1.7750862e+3, 1.8600474e+2, -1031417.25, -1127454.0, -6767.245, -0.034895007, -0.19921824, -1030942.75, 86191.086, 0.0000000022461928, 10.0008545, 9.999585 
1.7750674e+3, 1.960044e+2, -952923.06, -1036968.4, -8393.871, -0.042199712, -0.19232646, -952092.94, 67045.266, 0.0, 10.000712, 9.999602 
1.7750485e+3, 2.0600419e+2, -847059.4, -888392.5, -10347.183, -0.04206422, -0.19320937, -844613.8, 76526.8, 0.0, 10.000565, 10.000021 
1.7750299e+3, 2.1600413e+2, -773704.75, -806387.6, -9263.435, -0.035698064, -0.20039792, -771261.75, 51878.664, 0.0, 10.000413, 9.999984 
1.775011e+3, 2.2600418e+2, -699192.75, -725981.56, -13933.536, -0.03824198, -0.18613312, -693259.6, 31881.65, 0.0, 10.000279, 9.9999275 
1.774992e+3, 2.360044e+2, -620269.94, -639355.2, -15943.71, -0.047405373, -0.15876853, -611231.3, 15910.343, 0.0, 10.000157, 9.999908 
1.774973e+3, 2.4600457e+2, -532536.3, -536512.0, -19249.896, -0.056822754, -0.13201362, -515171.88, 13970.106, 0.0, 10.000045, 9.999995 
1.774954e+3, 2.560048e+2, -452157.34, -450788.5, -24292.842, -0.06627012, -0.10679654, -427170.44, 3970.6528, 0.0, 9.99994, 9.999961 
1.774935e+3, 2.6600474e+2, -363383.38, -361795.25, -30687.203, -0.06870948, -0.104441226, -331891.84, 1250.9142, 0.0, 9.999897, 9.99992 
1.7749158e+3, 2.760045e+2, -270209.94, -273600.28, -26401.28, -0.06653864, -0.121151514, -245449.45, -10304.317, 0.0, 9.999896, 9.999853 
1.7748967e+3, 2.860043e+2, -209132.17, -232134.25, -17371.826, -0.079751894, -0.1002843, -199799.25, -62652.066, 0.0, 9.999809, 9.999506 
1.7748776e+3, 2.9600435e+2, -140267.89, -161854.64, -25798.328, -0.10239262, -0.048092347, -123096.1, -83949.02, 0.0, 9.999668, 9.999384 
1.7748585e+3, 3.0600214e+2, -141111.13, -217639.95, -44001.96, -0.08014368, -0.16177796, -121063.125, -121063.125, 0.0, 9.999674, 9.998663 
1.7748386e+3, 3.1600118e+2, 32437.002, 119206.43, 51129.797, -0.15099658, -0.12991975, 142877.58, 142877.58, 0.0, 9.999776, 10.000927 
1.7852004e+3, 1.2602702e+2, -1534954.4, -1744208.8, 33220.094, -0.044619553, -0.17527089, -1529807.1, 175111.9, 0.031514455, 10.001787, 9.998939 
1.7851806e+3, 1.3602656e+2, -1422693.5, -1586085.4, -18298.527, -0.08235833, -0.16453755, -1420669.4, 186254.47, 0.021398189, 10.001639, 9.999425 
1.785162e+3, 1.4602603e+2, -1352789.6, -1511800.3, 6879.1455, -0.025430975, -0.15189832, -1352492.5, 156435.88, 0.011667826, 10.001472, 9.999338 
1.7851433e+3, 1.56025e+2, -1280405.0, -1428469.6, 10055.791, -0.026778733, -0.18813108, -1279725.3, 131211.92, 0.004539834, 10.001295, 9.999323 
1.7851245e+3, 1.6602425e+2, -1183008.5, -1300397.3, 9118.917, -0.0341338, -0.2063345, -1182304.4, 130639.16, 0.0010024497, 10.001156, 9.999597 
1.7851058e+3, 1.7602383e+2, -1103197.0, -1214657.9, 7708.1084, -0.038085267, -0.20942584, -1102666.4, 112280.086, 0.00006171727, 10.001045, 9.999566 
1.7850868e+3, 1.8602341e+2, -1026376.94, -1126039.4, 606.51166, -0.043634906, -0.20190535, -1026373.2, 90577.61, 0.0000000068240182, 10.0008955, 9.999574 
1.785068e+3, 1.9602312e+2, -953220.25, -1038811.4, 985.00226, -0.052753914, -0.1900845, -953208.94, 65746.02, 0.0, 10.00072, 9.999584 
1.7850491e+3, 2.0602287e+2, -849116.44, -895613.8, -4111.902, -0.049456008, -0.18832229, -848755.6, 72202.15, 0.0, 10.000579, 9.999963 
1.7850302e+3, 2.1602277e+2, -770264.56, -810398.1, -11050.508, -0.036603935, -0.19431725, -767423.06, 55535.285, 0.0, 10.0004635, 9.999931 
1.7850113e+3, 2.2602281e+2, -691841.56, -722197.25, -17263.498, -0.036317788, -0.17900878, -684032.56, 40926.777, 0.0, 10.00033, 9.9999275 
1.7849922e+3, 2.3602302e+2, -617177.8, -639026.5, -16330.656, -0.045114987, -0.15088676, -608454.5, 18504.816, 0.0, 10.000185, 9.999896 
1.784973e+3, 2.4602312e+2, -539455.94, -550987.94, -18414.07, -0.053842116, -0.12577878, -525926.2, 3034.3252, 0.0, 10.000048, 9.999893 
1.7849539e+3, 2.5602326e+2, -461898.03, -464977.03, -23803.518, -0.06218594, -0.10383642, -439584.28, -8622.963, 0.0, 9.999916, 9.999874 
1.7849348e+3, 2.660232e+2, -372002.75, -359797.28, -30357.707, -0.06408434, -0.09803993, -334934.97, -1972.2733, 0.0, 9.999813, 9.999973 
1.7849156e+3, 2.7602306e+2, -291207.75, -278441.8, -30353.373, -0.06221596, -0.10651384, -253807.53, -18844.059, 0.0, 9.999731, 9.999899 
1.7848966e+3, 2.8602278e+2, -219297.83, -236872.05, -18780.332, -0.08188471, -0.09769035, -207350.58, -70384.336, 0.0, 9.999741, 9.999506 
1.7848772e+3, 2.960226e+2, -119933.41, -152933.06, -20346.908, -0.1144302, -0.07161229, -110237.03, -71268.586, 0.0, 9.999813, 9.999374 
1.7848583e+3, 3.060207e+2, -146134.6, -229468.56, -39625.164, -0.07810793, -0.14543992, -130301.22, -130301.22, 0.0, 9.999681, 9.998577 
1.7848383e+3, 3.1601948e+2, -8712.648, 119989.305, 50640.355, -0.14383666, -0.13677566, 137525.4, 137525.4, 0.0, 9.999407, 10.001109 
1.7952019e+3, 1.2604609e+2, -1528525.5, -1730370.5, 26411.996, -0.06900325, -0.14695866, -1525126.6, 179606.3, 0.032682225, 10.001786, 9.999034 
1.7951822e+3, 1.3604544e+2, -1417787.6, -1575836.6, -24847.004, -0.07286772, -0.16443758, -1413973.5, 192765.64, 0.022230543, 10.001637, 9.999498 
1.7951635e+3, 1.460449e+2, -1351912.0, -1510255.4, -514.4501, -0.023429293, -0.1563056, -1351910.3, 156833.23, 0.012162478, 10.001472, 9.999351 
1.7951442e+3, 1.560439e+2, -1279406.9, -1427275.8, 2974.678, -0.051640373, -0.19063953, -1279347.0, 131404.72, 0.0047642384, 10.001297, 9.999331 
1.7951253e+3, 1.6604312e+2, -1184563.6, -1304642.8, 4454.586, -0.060466096, -0.20927909, -1184398.6, 128359.54, 0.0010682015, 10.001158, 9.999568 
1.7951067e+3, 1.7604265e+2, -1104574.0, -1218419.3, 2919.3518, -0.049395334, -0.21446997, -1104499.1, 110262.58, 0.00006858208, 10.001047, 9.99954 
1.7950878e+3, 1.8604223e+2, -1025012.1, -1124310.4, -6246.0947, -0.04621074, -0.20692629, -1024620.8, 92145.305, 0.000000015228453, 10.000898, 9.999585 
1.7950687e+3, 1.9604196e+2, -952941.2, -1039688.5, -5468.547, -0.05068646, -0.19340086, -952597.8, 66172.05, 0.0, 10.000724, 9.9995775 
1.7950498e+3, 2.0604166e+2, -860026.25, -919746.9, -8348.152, -0.0501529, -0.18836668, -858881.25, 61892.465, 0.0, 10.000584, 9.999796 
1.7950307e+3, 2.1604146e+2, -779867.75, -831687.5, -15284.46, -0.045196794, -0.18987666, -775695.44, 47080.844, 0.0, 10.000467, 9.999784 
1.7950116e+3, 2.2604147e+2, -688545.75, -716669.2, -22281.777, -0.03985233, -0.17018309, -676259.6, 48517.695, 0.0, 10.000334, 9.999965 
1.7949924e+3, 2.3604178e+2, -615149.8, -636126.5, -21210.367, -0.034656625, -0.13816889, -601976.25, 24799.744, 0.0, 10.000189, 9.999915 
1.7949732e+3, 2.4604173e+2, -546697.94, -567400.06, -22700.752, -0.04527063, -0.12002048, -532099.7, -3321.4116, 0.0, 10.0000515, 9.99978 
1.7949538e+3, 2.5604162e+2, -468368.88, -479801.56, -27909.537, -0.06617804, -0.11205184, -445596.3, -14814.721, 0.0, 9.99992, 9.999772 
1.7949346e+3, 2.6604155e+2, -371919.0, -361052.8, -32904.55, -0.064074755, -0.10243515, -333135.8, -352.65558, 0.0, 9.999817, 9.999964 
1.7949155e+3, 2.7604157e+2, -290825.3, -278981.9, -32384.836, -0.04749132, -0.0951922, -251981.81, -17199.264, 0.0, 9.999734, 9.999894 
1.7948963e+3, 2.860412e+2, -212168.89, -223564.56, -15615.921, -0.07382292, -0.09916374, -201243.78, -64457.875, 0.0, 9.999745, 9.999597 
1.7948769e+3, 2.9604077e+2, -114239.06, -143106.42, -18563.668, -0.12657294, -0.10486825, -105158.05, -66368.09, 0.0, 9.99982, 9.99944 
1.794858e+3, 3.0603948e+2, -155591.14, -250648.3, -50019.99, -0.07305738, -0.113505505, -134119.97, -134119.97, 0.0, 9.999686, 9.99843 
1.7948379e+3, 3.1603807e+2, -6853.18, 123648.18, 39455.44, -0.120844334, -0.10752329, 134649.6, 134649.6, 0.0, 9.999406, 10.001136 
1.8052036e+3, 1.2606506e+2, -1538952.0, -1728710.4, 31239.777, -0.07830259, -0.1410187, -1533941.4, 170606.11, 0.03387297, 10.001686, 9.999093 
1.8051837e+3, 1.3606447e+2, -1443071.3, -1583358.8, -22619.654, -0.07703379, -0.15670517, -1439514.3, 167038.75, 0.023077281, 10.001443, 9.999538 
1.8051648e+3, 1.4606397e+2, -1375459.6, -1519074.0, 3254.854, -0.032538652, -0.14769103, -1375385.9, 133170.97, 0.012663681, 10.0013, 9.999372 
1.8051454e+3, 1.5606292e+2, -1288568.5, -1430139.5, 6632.892, -0.06497801, -0.19058496, -1288258.4, 122306.96, 0.0049904073, 10.00123, 9.999343 
1.8051264e+3, 1.6606207e+2, -1200838.9, -1318891.5, 5200.5596, -0.06949507, -0.21171404, -1200610.3, 111962.125, 0.0011338704, 10.001077, 9.999508 
1.8051076e+3, 1.7606157e+2, -1134713.9, -1238722.3, 1190.7256, -0.0488427, -0.21494159, -1134700.3, 79876.336, 0.0000752009, 10.000867, 9.999487 
1.8050887e+3, 1.8606114e+2, -1041678.6, -1130896.6, -6901.4653, -0.043305896, -0.20650901, -1041147.9, 75433.07, 0.000000026593373, 10.00078, 9.999597 
1.8050694e+3, 1.9606088e+2, -945688.0, -1036088.44, -6951.198, -0.050087553, -0.19305795, -945156.6, 73427.74, 0.0, 10.000775, 9.999577 
1.8050502e+3, 2.0606054e+2, -854206.75, -927309.8, -9050.013, -0.051346082, -0.18527867, -853103.06, 67485.65, 0.0, 10.00067, 9.9997015 
1.8050312e+3, 2.160603e+2, -781961.5, -842868.56, -10973.752, -0.04789916, -0.18185158, -780044.7, 42547.55, 0.0, 10.000499, 9.999691 
1.805012e+3, 2.2606026e+2, -685242.56, -721862.25, -19491.635, -0.041917473, -0.16121052, -676809.7, 47784.34, 0.0, 10.000388, 9.999903 
1.8049927e+3, 2.3606047e+2, -600677.56, -635380.44, -26469.613, -0.034535345, -0.13117258, -586379.2, 40214.258, 0.0, 10.000318, 9.999858 
1.8049733e+3, 2.4606034e+2, -526684.44, -558217.7, -27744.97, -0.043599986, -0.11775164, -510539.13, 18057.057, 0.0, 10.000193, 9.999774 
1.8049538e+3, 2.5606015e+2, -453191.72, -473657.34, -24971.658, -0.06347766, -0.11613716, -436437.6, -5837.777, 0.0, 10.0000305, 9.99976 
1.8049344e+3, 2.6606005e+2, -363498.63, -362806.44, -27251.102, -0.061191622, -0.1031597, -335899.22, -3297.7666, 0.0, 9.999902, 9.99991 
1.8049152e+3, 2.760602e+2, -284918.4, -280808.06, -29800.775, -0.044860594, -0.086233966, -252991.67, -18390.986, 0.0, 9.999797, 9.999851 
1.804896e+3, 2.8605974e+2, -216828.19, -220242.19, -13517.9795, -0.07218819, -0.09924579, -204909.86, -68305.01, 0.0, 9.999691, 9.999644 
1.8048766e+3, 2.960591e+2, -145873.36, -153945.83, -20318.975, -0.12633291, -0.12604526, -129193.62, -90583.32, 0.0, 9.999585, 9.999477 
1.8048577e+3, 3.060584e+2, -180121.03, -263550.47, -51959.746, -0.06049431, -0.07624357, -155202.92, -155202.92, 0.0, 9.999524, 9.998419 
1.8048374e+3, 3.1605658e+2, 6006.461, 130780.086, 45853.324, -0.11298665, -0.113376014, 145818.34, 145818.34, 0.0, 9.999492, 10.0011425 
1.8152052e+3, 1.2608403e+2, -1538122.4, -1726406.4, 20789.705, -0.07555725, -0.15506044, -1535854.1, 168507.8, 0.035080627, 10.001684, 9.99911 
1.8151851e+3, 1.3608372e+2, -1442476.1, -1583193.8, -31995.752, -0.09424247, -0.14183864, -1435542.8, 170822.3, 0.023936015, 10.001447, 9.999539 
1.8151659e+3, 1.4608328e+2, -1373305.5, -1515943.4, -174.09273, -0.05210879, -0.12709966, -1373305.3, 135062.81, 0.013171479, 10.001305, 9.999392 
1.8151467e+3, 1.5608206e+2, -1287620.8, -1429161.3, 2811.1062, -0.0674471, -0.18824622, -1287564.9, 122812.81, 0.0052190083, 10.001232, 9.99935 
1.8151276e+3, 1.6608113e+2, -1207126.6, -1333159.5, -3231.531, -0.062192697, -0.21359932, -1207043.9, 105341.87, 0.0011998421, 10.00108, 9.99941 
1.8151087e+3, 1.7608058e+2, -1139933.8, -1251292.1, -6202.9336, -0.037028912, -0.21095614, -1139589.3, 74801.47, 0.00008165094, 10.000873, 9.999398 
1.8150894e+3, 1.8608013e+2, -1040784.4, -1130735.4, -7148.811, -0.035199936, -0.2008391, -1040219.75, 76175.555, 0.000000038391406, 10.000785, 9.999596 
1.8150702e+3, 1.9607987e+2, -945297.25, -1036604.44, -7789.334, -0.050953135, -0.18905951, -944637.5, 73761.04, 0.0, 10.000779, 9.999572 
1.8150508e+3, 2.0607953e+2, -855839.5, -931920.4, -15411.822, -0.05304378, -0.1790117, -852836.1, 67566.68, 0.0, 10.000673, 9.999669 
1.8150316e+3, 2.160793e+2, -784707.8, -849822.06, -16805.209, -0.04503478, -0.17040329, -780626.4, 41779.85, 0.0, 10.000502, 9.999642 
1.8150124e+3, 2.260791e+2, -696506.75, -746547.6, -21722.566, -0.042754214, -0.15221405, -688392.7, 36017.0, 0.0, 10.000391, 9.999732 
1.8149929e+3, 2.3607908e+2, -609931.56, -656002.75, -28961.395, -0.044746056, -0.12973769, -595961.7, 30450.176, 0.0, 10.000321, 9.999715 
1.8149734e+3, 2.4607894e+2, -519137.47, -544075.2, -33142.04, -0.04883109, -0.118834615, -496196.3, 32218.354, 0.0, 10.000196, 9.99987 
1.8149538e+3, 2.5607884e+2, -447306.72, -463092.38, -30168.918, -0.054157708, -0.11626633, -424015.25, 6401.228, 0.0, 10.000036, 9.999831 
1.8149345e+3, 2.6607877e+2, -369963.94, -377930.94, -30602.605, -0.05564242, -0.10031452, -343086.66, -10668.576, 0.0, 9.999907, 9.999805 
1.814915e+3, 2.760788e+2, -290695.5, -294403.75, -33267.07, -0.055088993, -0.07929803, -259230.94, -24812.525, 0.0, 9.999802, 9.999757 
1.8148956e+3, 2.8607824e+2, -215982.48, -219991.19, -17297.83, -0.07742542, -0.09756329, -200573.27, -64149.574, 0.0, 9.999695, 9.999645 
1.8148762e+3, 2.9607752e+2, -144957.34, -153208.1, -23996.594, -0.11296756, -0.13527548, -124734.11, -86303.88, 0.0, 9.999588, 9.999482 
1.8148574e+3, 3.0607742e+2, -170980.53, -245684.4, -52826.793, -0.040140696, -0.034190185, -143634.42, -143634.42, 0.0, 9.999527, 9.998541 
1.8148369e+3, 3.160751e+2, 3553.241, 124051.67, 43268.758, -0.1219091, -0.1322466, 137978.95, 137978.95, 0.0, 9.999497, 10.001095 
1.8252067e+3, 1.2610322e+2, -1565667.8, -1741687.5, 25763.033, -0.06997573, -0.15249977, -1561974.5, 142199.27, 0.0363064, 10.001499, 9.999094 
1.8251865e+3, 1.3610286e+2, -1434476.1, -1582704.5, -29990.26, -0.1051222, -0.14195602, -1428638.3, 177539.48, 0.024808751, 10.001522, 9.999505 
1.8251671e+3, 1.4610244e+2, -1357834.5, -1505119.8, -736.56604, -0.06499695, -0.12434888, -1357830.8, 150349.75, 0.01368808, 10.001401, 9.999418 
1.8251479e+3, 1.5610124e+2, -1292969.9, -1429287.4, 2305.9016, -0.06528438, -0.1866798, -1292930.9, 117258.97, 0.005451592, 10.001187, 9.999369 
1.8251286e+3, 1.6610031e+2, -1209982.4, -1336858.8, -193.50558, -0.059218146, -0.2111779, -1209982.0, 102215.8, 0.0012669698, 10.001072, 9.999387 
1.8251096e+3, 1.7609976e+2, -1120052.1, -1244337.9, 1792.8496, -0.043178327, -0.20587544, -1120026.3, 94176.734, 0.0000881637, 10.001022, 9.9993725 
1.8250902e+3, 1.8609926e+2, -1026858.8, -1127022.1, 2420.7278, -0.040278208, -0.19954911, -1026800.4, 89407.72, 0.00000004824908, 10.0008955, 9.999567 
1.825071e+3, 1.9609886e+2, -956687.1, -1045648.3, -931.0477, -0.04802856, -0.19583546, -956677.4, 61534.676, 0.0, 10.000718, 9.999538 
1.8250515e+3, 2.060985e+2, -871561.06, -945511.4, -12308.653, -0.04732456, -0.18444069, -869566.1, 50650.445, 0.0, 10.000594, 9.999613 
1.8250321e+3, 2.1609828e+2, -789015.75, -858611.5, -15809.703, -0.040023603, -0.1684614, -785592.75, 36627.363, 0.0, 10.000504, 9.99958 
1.8250127e+3, 2.2609802e+2, -705101.1, -761982.3, -17889.807, -0.03922711, -0.14891726, -699942.44, 24282.041, 0.0, 10.000383, 9.999629 
1.8249932e+3, 2.3609787e+2, -627816.5, -674593.3, -20604.576, -0.043264057, -0.12897648, -620035.0, 6193.1387, 0.0, 10.000243, 9.999624 
1.8249737e+3, 2.4609767e+2, -526722.8, -545947.06, -27551.508, -0.048706234, -0.11942114, -507154.8, 21076.42, 0.0, 10.000139, 9.999885 
1.824954e+3, 2.5609758e+2, -443993.4, -460702.63, -31061.766, -0.054788172, -0.11733995, -420182.3, 10050.302, 0.0, 10.000057, 9.999836 
1.8249343e+3, 2.6609755e+2, -367396.6, -382387.8, -31393.83, -0.05837798, -0.097596765, -342615.94, -10381.802, 0.0, 9.999951, 9.999752 
1.8249147e+3, 2.7609757e+2, -290409.88, -299316.44, -30213.441, -0.060903702, -0.0698519, -264323.28, -30088.637, 0.0, 9.999827, 9.999709 
1.8248953e+3, 2.860969e+2, -210278.22, -215606.14, -11485.08, -0.08147639, -0.09878924, -201152.2, -64911.06, 0.0, 9.999729, 9.999659 
1.8248759e+3, 2.9609597e+2, -133289.61, -143635.89, -17599.955, -0.11178645, -0.15865721, -120118.28, -81868.74, 0.0, 9.999653, 9.9995165 
1.824857e+3, 3.0609646e+2, -162296.66, -214168.25, -41955.934, -0.023525449, -0.011495107, -138907.34, -138907.34, 0.0, 9.999471, 9.998784 
1.8248361e+3, 3.160939e+2, -45191.73, 90351.695, 60263.848, -0.11428372, -0.15379183, 113270.31, 113270.31, 0.0, 9.999208, 10.001001 
1.8352084e+3, 1.2612271e+2, -1569268.3, -1750039.0, 25049.262, -0.06350298, -0.1356825, -1565861.4, 138121.14, 0.037556387, 10.001501, 9.999037 
1.8351878e+3, 1.3612196e+2, -1439619.0, -1593390.1, -30970.85, -0.110224366, -0.15603897, -1433615.5, 172375.06, 0.02570087, 10.001521, 9.999432 
1.8351683e+3, 1.4612152e+2, -1356118.0, -1501888.4, -9501.118, -0.07171974, -0.13797523, -1355501.4, 152492.34, 0.014217793, 10.001401, 9.999442 
1.8351491e+3, 1.561205e+2, -1290532.9, -1425441.1, -5625.2344, -0.058842923, -0.18576923, -1290298.8, 119702.74, 0.005690783, 10.001191, 9.999395 
1.8351297e+3, 1.6611965e+2, -1206511.4, -1331215.5, -2583.424, -0.06051003, -0.20478979, -1206457.9, 105550.734, 0.0013364826, 10.001077, 9.999424 
1.8351102e+3, 1.7611913e+2, -1117512.3, -1240575.6, -988.55396, -0.06667613, -0.19983043, -1117504.3, 96508.89, 0.000095082636, 10.001027, 9.999397 
1.835091e+3, 1.861185e+2, -1030658.4, -1136374.0, -4543.475, -0.058078278, -0.20249419, -1030463.5, 85555.64, 0.000000055274803, 10.0009, 9.999501 
1.8350716e+3, 1.9611791e+2, -960805.56, -1055703.3, -7345.141, -0.041506205, -0.21316835, -960240.44, 57784.426, 0.0, 10.000723, 9.999468 
1.8350522e+3, 2.0611747e+2, -876977.75, -958223.3, -15584.554, -0.034484144, -0.20138381, -874090.94, 45939.27, 0.0, 10.000598, 9.999525 
1.8350327e+3, 2.1611726e+2, -794266.75, -870873.56, -19203.432, -0.032852925, -0.17570125, -789722.5, 32311.35, 0.0, 10.000507, 9.9994955 
1.8350132e+3, 2.2611699e+2, -707414.56, -768098.44, -22793.432, -0.031319894, -0.15107606, -699806.9, 24231.615, 0.0, 10.000386, 9.999587 
1.8349935e+3, 2.3611683e+2, -630523.44, -681558.75, -25138.703, -0.030326322, -0.12897055, -620220.6, 5821.7617, 0.0, 10.000247, 9.999576 
1.8349737e+3, 2.4611655e+2, -531388.44, -557040.6, -29927.2, -0.043443765, -0.11962066, -511654.66, 16391.578, 0.0, 10.000143, 9.999807 
1.8349539e+3, 2.5611636e+2, -448212.53, -471002.66, -33616.97, -0.065605894, -0.11917841, -424111.84, 5936.789, 0.0, 10.000062, 9.999764 
1.834934e+3, 2.661163e+2, -366804.56, -382883.47, -35502.594, -0.069601126, -0.09489641, -338442.53, -6392.358, 0.0, 9.999956, 9.999747 
1.8349145e+3, 2.7611643e+2, -289904.84, -300050.72, -34301.6, -0.062274635, -0.058333486, -260303.1, -26253.121, 0.0, 9.999832, 9.999703 
1.8348949e+3, 2.861156e+2, -208039.67, -212646.61, -13994.135, -0.08454723, -0.103397965, -196160.69, -60102.85, 0.0, 9.999734, 9.999678 
1.8348753e+3, 2.961144e+2, -128610.086, -135541.47, -20888.986, -0.1238351, -0.19620672, -110901.25, -72832.32, 0.0, 9.999658, 9.999571 
1.8348566e+3, 3.061155e+2, -135901.36, -160843.34, -51492.324, -0.011083885, -0.009102775, -95391.37, -95391.37, 0.0, 9.9994755, 9.999149 
1.8348357e+3, 3.1611332e+2, -56392.53, 66125.766, 48196.082, -0.08820098, -0.14915699, 82812.41, 82812.41, 0.0, 9.99921, 10.000835 
1.8452099e+3, 1.26142e+2, -1570857.9, -1747982.6, 24545.65, -0.062566906, -0.13744715, -1567519.4, 136273.83, 0.03883764, 10.001481, 9.99906 
1.8451893e+3, 1.3614115e+2, -1463843.3, -1605070.3, -26184.225, -0.10571605, -0.16654673, -1459144.9, 146657.31, 0.026618557, 10.001353, 9.99943 
1.8451697e+3, 1.4614078e+2, -1373549.0, -1507532.5, -5152.5576, -0.07260551, -0.1438273, -1373351.1, 134453.75, 0.014765603, 10.00127, 9.999465 
1.8451501e+3, 1.5613985e+2, -1286048.8, -1421154.8, -1790.9136, -0.063128054, -0.18353316, -1286025.0, 123786.945, 0.0059396694, 10.001215, 9.999412 
1.8451308e+3, 1.6613904e+2, -1196798.9, -1327559.8, 956.1497, -0.06498892, -0.19940513, -1196791.9, 115026.99, 0.0014096296, 10.00115, 9.999413 
1.8451113e+3, 1.761385e+2, -1111078.4, -1239000.4, -1881.5562, -0.06998, -0.19437844, -1111050.8, 102772.82, 0.00010278079, 10.00108, 9.999382 
1.8450917e+3, 1.8613783e+2, -1023867.94, -1136467.3, -9252.319, -0.060247093, -0.19878305, -1023112.7, 92717.164, 0.00000006030829, 10.000963, 9.99947 
1.8450724e+3, 1.9613717e+2, -949823.75, -1054264.8, -9982.699, -0.042274594, -0.21257941, -948878.1, 68957.914, 0.0, 10.000817, 9.999432 
1.8450528e+3, 2.0613666e+2, -869691.6, -960806.4, -14637.784, -0.03315306, -0.20261152, -867397.75, 52444.164, 0.0, 10.000676, 9.999469 
1.8450332e+3, 2.161364e+2, -793633.5, -876793.3, -16249.131, -0.029155537, -0.17776416, -790571.25, 31274.967, 0.0, 10.000541, 9.999438 
1.8450135e+3, 2.2613606e+2, -705054.1, -773046.8, -20003.666, -0.027859127, -0.15341695, -699605.56, 24245.879, 0.0, 10.000431, 9.99953 
1.8449938e+3, 2.3613584e+2, -621395.4, -683196.5, -23908.152, -0.028550072, -0.13122289, -613226.2, 12629.766, 0.0, 10.000338, 9.999519 
1.8449739e+3, 2.4613553e+2, -525510.75, -558562.25, -27970.871, -0.04316936, -0.12049389, -509548.53, 18311.703, 0.0, 10.000204, 9.999766 
1.8449539e+3, 2.5613534e+2, -453865.56, -478166.72, -29327.42, -0.06681909, -0.11780044, -434271.3, -4408.4097, 0.0, 10.000044, 9.9997225 
1.8449341e+3, 2.6613525e+2, -375690.28, -390239.34, -31365.621, -0.06948674, -0.09198984, -350766.66, -18901.861, 0.0, 9.99991, 9.999718 
1.8449143e+3, 2.7613536e+2, -296868.22, -305602.16, -32286.293, -0.059145905, -0.054402016, -268654.9, -34789.957, 0.0, 9.999796, 9.999681 
1.8448946e+3, 2.8613454e+2, -217856.89, -209429.31, -11079.264, -0.084880866, -0.1001376, -201789.58, -65916.93, 0.0, 9.999635, 9.999746 
1.8448749e+3, 2.9613337e+2, -154127.23, -137282.45, -14846.156, -0.13121527, -0.19444513, -128636.016, -90752.875, 0.0, 9.999439, 9.999662 
1.8448561e+3, 3.061348e+2, -137455.25, -124915.76, -47169.46, 0.0019526555, -0.00086172676, -83601.19, -83601.19, 0.0, 9.999309, 9.999475 
1.844835e+3, 3.1613266e+2, -73281.484, 30116.871, 44816.113, -0.07312483, -0.16165853, 46837.64, 46837.64, 0.0, 9.999216, 10.000584 
1.8552113e+3, 1.2616114e+2, -1564355.8, -1734671.4, 17999.57, -0.06802933, -0.15636475, -1562474.3, 141130.75, 0.040156323, 10.001483, 9.99915 
1.8551908e+3, 1.3616048e+2, -1459518.4, -1596781.8, -31470.467, -0.092468195, -0.17395397, -1452647.1, 152964.95, 0.027566783, 10.001356, 9.999488 
1.855171e+3, 1.4616022e+2, -1372195.1, -1505793.3, -7986.2925, -0.06834705, -0.14279014, -1371719.5, 135894.44, 0.015335415, 10.001273, 9.999476 
1.8551512e+3, 1.5615933e+2, -1285411.0, -1421197.4, -4596.826, -0.07775583, -0.18009953, -1285255.5, 124365.52, 0.0062008454, 10.001219, 9.999411 
1.8551317e+3, 1.661585e+2, -1200675.3, -1336956.6, -2216.7717, -0.07246987, -0.19484489, -1200639.3, 110989.26, 0.0014874892, 10.001154, 9.999348 
1.8551125e+3, 1.7615789e+2, -1114790.8, -1247911.6, -5165.633, -0.053960286, -0.18941842, -1114590.5, 99043.49, 0.000111600515, 10.001083, 9.99932 
1.855093e+3, 1.8615724e+2, -1023859.3, -1137730.9, -14944.1, -0.047590207, -0.18860587, -1021930.75, 93709.44, 0.00000006571913, 10.000967, 9.99946 
1.8550731e+3, 1.9615667e+2, -950026.44, -1056171.8, -15525.139, -0.050247245, -0.19444957, -947802.3, 69843.33, 0.0, 10.000821, 9.999417 
1.8550535e+3, 2.0615608e+2, -871140.94, -965241.75, -19699.295, -0.043062884, -0.18838857, -867183.44, 52468.508, 0.0, 10.000681, 9.999437 
1.8550338e+3, 2.1615566e+2, -795698.5, -882325.0, -20899.492, -0.02908823, -0.17484814, -790919.94, 30737.46, 0.0, 10.000544, 9.999399 
1.855014e+3, 2.261552e+2, -709947.44, -784500.06, -23168.51, -0.029021146, -0.15606351, -703334.06, 20329.582, 0.0, 10.000435, 9.999451 
1.854994e+3, 2.361549e+2, -625769.4, -693735.1, -27174.242, -0.037941236, -0.13561691, -616240.44, 9428.636, 0.0, 10.000342, 9.999446 
1.854974e+3, 2.4615458e+2, -525560.2, -560254.5, -33404.46, -0.047871746, -0.12185393, -505267.16, 22406.35, 0.0, 10.000209, 9.999754 
1.8549539e+3, 2.5615442e+2, -454495.28, -480956.2, -34581.734, -0.058393274, -0.11316928, -430699.5, -1023.6718, 0.0, 10.000049, 9.999702 
1.8549341e+3, 2.661543e+2, -379406.56, -399428.75, -35168.2, -0.057913028, -0.088978246, -352852.3, -21173.807, 0.0, 9.999915, 9.999654 
1.8549141e+3, 2.7615428e+2, -299260.88, -312066.25, -36411.664, -0.05152069, -0.058164485, -268693.25, -35013.082, 0.0, 9.999801, 9.999636 
1.8548942e+3, 2.8615364e+2, -209307.31, -193086.06, -18215.887, -0.08251165, -0.08838921, -181256.77, -45570.594, 0.0, 9.999639, 9.999858 
1.8548742e+3, 2.961529e+2, -144865.56, -119185.04, -21825.541, -0.13385858, -0.15176712, -106702.84, -69010.09, 0.0, 9.999442, 9.999787 
1.8548556e+3, 3.061542e+2, -117682.87, -85115.055, -50016.594, 0.015352019, 0.01232414, -48798.34, -48798.34, 0.0, 9.999312, 9.999748 
1.8548343e+3, 3.1615224e+2, -97330.72, -21540.71, 35612.63, -0.06928978, -0.158516, -7432.919, -7432.919, 0.0, 9.999222, 10.000227 
1.8652126e+3, 1.2618048e+2, -1556409.1, -1722509.1, 17876.016, -0.077669054, -0.16014728, -1554507.1, 148908.23, 0.041514024, 10.001509, 9.999221 
1.8651922e+3, 1.3617983e+2, -1459525.9, -1592749.8, -32301.32, -0.08687393, -0.18029952, -1452107.3, 153314.8, 0.02854696, 10.001341, 9.999522 
1.8651722e+3, 1.4617966e+2, -1370692.6, -1503887.9, -6141.6084, -0.06615294, -0.14348221, -1370410.0, 137013.17, 0.015928667, 10.001282, 9.999485 
1.8651524e+3, 1.5617883e+2, -1275570.9, -1415604.8, -3772.8276, -0.08346622, -0.17418253, -1275469.4, 133960.67, 0.006475788, 10.001286, 9.999416 
1.8651329e+3, 1.6617797e+2, -1197059.6, -1335185.4, -2404.4165, -0.07677642, -0.19038941, -1197017.8, 114419.875, 0.0015707911, 10.001181, 9.999346 
1.8651135e+3, 1.7617734e+2, -1126595.5, -1254001.9, -1112.2191, -0.051296845, -0.19127592, -1126585.8, 86857.94, 0.0001217937, 10.001005, 9.999315 
1.8650939e+3, 1.8617667e+2, -1033527.3, -1144380.5, -8862.294, -0.046682745, -0.18988241, -1032823.25, 82626.73, 0.00000007494837, 10.000911, 9.99944 
1.8650739e+3, 1.961761e+2, -945117.06, -1056426.3, -10876.603, -0.056576647, -0.19081633, -944064.2, 73390.984, 0.0, 10.000869, 9.999392 
1.865054e+3, 2.0617549e+2, -865899.94, -968002.8, -18769.52, -0.048250645, -0.18505925, -862558.9, 56903.06, 0.0, 10.000741, 9.999388 
1.8650343e+3, 2.1617499e+2, -796584.1, -887676.25, -21580.025, -0.027804734, -0.17519501, -791730.4, 29737.803, 0.0, 10.000561, 9.999353 
1.8650144e+3, 2.261745e+2, -711715.1, -785169.7, -19129.277, -0.026373653, -0.15838502, -707032.0, 16442.68, 0.0, 10.000424, 9.999451 
1.8649943e+3, 2.3617415e+2, -630611.1, -697166.06, -17978.182, -0.03721066, -0.138752, -626065.25, -585.2065, 0.0, 10.000316, 9.9994335 
1.8649742e+3, 2.4617383e+2, -530035.4, -570202.0, -26060.043, -0.046535816, -0.12232643, -517217.84, 10266.993, 0.0, 10.000215, 9.999681 
1.8649541e+3, 2.5617364e+2, -449104.8, -484785.6, -32420.309, -0.05465815, -0.10882256, -429940.38, -452.56625, 0.0, 10.000115, 9.999642 
1.864934e+3, 2.6617348e+2, -373977.38, -389303.03, -30864.125, -0.051571444, -0.08807652, -349839.03, -18348.322, 0.0, 9.999923, 9.999719 
1.864914e+3, 2.7617344e+2, -315201.9, -313408.2, -22864.766, -0.042628624, -0.06578407, -291422.7, -57930.355, 0.0, 9.999666, 9.99969 
1.8648937e+3, 2.86173e+2, -236999.66, -206359.86, -6666.763, -0.07758625, -0.08423823, -204972.13, -69474.96, 0.0, 9.999451, 9.999856 
1.8648735e+3, 2.9617244e+2, -169067.39, -128077.04, -18443.182, -0.13667521, -0.123146474, -121000.43, -83498.56, 0.0, 9.999267, 9.999809 
1.864855e+3, 3.061735e+2, -107588.086, -50800.668, -44029.93, 0.028201634, -0.0019415634, -26803.18, -26803.18, 0.0, 9.999257, 10.000009 
1.8648335e+3, 3.1617197e+2, -96788.086, -46527.88, 32974.68, -0.06494184, -0.14985432, -30198.947, -30198.947, 0.0, 9.999336, 9.999999 
1.875214e+3, 1.2620007e+2, -1553661.6, -1716730.3, 9731.958, -0.09299444, -0.15099707, -1553082.9, 150141.08, 0.042906, 10.00151, 9.999261 
1.8751934e+3, 1.3619928e+2, -1458617.6, -1592171.3, -38511.18, -0.08843529, -0.18540856, -1448308.4, 156923.11, 0.029556876, 10.001347, 9.999525 
1.8751734e+3, 1.4619912e+2, -1369902.5, -1503808.9, -6574.1646, -0.06586541, -0.14539765, -1369580.5, 137651.97, 0.01654497, 10.0012865, 9.999484 
1.8751536e+3, 1.5619841e+2, -1274689.0, -1415103.9, -4939.4897, -0.080915675, -0.16593243, -1274515.4, 134723.05, 0.006765209, 10.001289, 9.999418 
1.875134e+3, 1.6619754e+2, -1192743.6, -1327588.6, -9514.911, -0.07832564, -0.18616772, -1192075.6, 119170.5, 0.0016600671, 10.001184, 9.999397 
1.8751144e+3, 1.7619681e+2, -1123127.1, -1248403.4, -7506.6167, -0.061546013, -0.19973123, -1122678.9, 90573.6, 0.00013349493, 10.00101, 9.999352 
1.8750946e+3, 1.861961e+2, -1035122.5, -1149298.4, -10672.171, -0.05708446, -0.20217894, -1034133.5, 81125.61, 0.00000009512311, 10.000916, 9.999406 
1.8750747e+3, 1.9619553e+2, -947402.6, -1062606.6, -13098.804, -0.061407045, -0.20127016, -945932.0, 71332.664, 0.0, 10.000873, 9.999349 
1.8750548e+3, 2.0619486e+2, -870515.25, -978969.44, -25502.99, -0.048956014, -0.19238093, -864817.56, 54454.387, 0.0, 10.000745, 9.999311 
1.8750349e+3, 2.1619433e+2, -800143.25, -896502.75, -27783.754, -0.025357157, -0.17861022, -792706.2, 28572.428, 0.0, 10.000566, 9.999291 
1.8750149e+3, 2.2619388e+2, -706087.6, -774913.44, -22920.303, -0.019949228, -0.16022915, -699153.4, 24131.377, 0.0, 10.000428, 9.999519 
1.8749948e+3, 2.361936e+2, -626914.94, -690890.5, -21483.85, -0.026474124, -0.1406295, -620369.94, 4919.115, 0.0, 10.0003195, 9.999476 
1.8749745e+3, 2.4619323e+2, -539297.8, -590977.2, -29088.297, -0.039252423, -0.122021824, -526229.7, 1064.9012, 0.0, 10.000219, 9.999537 
1.8749543e+3, 2.5619295e+2, -455714.6, -500245.97, -36140.85, -0.05583904, -0.104863904, -435531.22, -6231.942, 0.0, 10.000121, 9.999535 
1.874934e+3, 2.661928e+2, -360111.78, -362164.1, -40074.027, -0.050724957, -0.089371525, -321050.78, 10251.185, 0.0, 9.9999275, 9.999904 
1.8749137e+3, 2.761928e+2, -304233.63, -291960.2, -31851.648, -0.0325511, -0.07754494, -265659.47, -32357.473, 0.0, 9.99967, 9.999837 
1.8748933e+3, 2.8619242e+2, -245650.73, -225418.56, -13354.115, -0.070039146, -0.08812394, -218781.52, -83475.2, 0.0, 9.999454, 9.999724 
1.8748727e+3, 2.9619196e+2, -175048.9, -141596.02, -24083.54, -0.1397287, -0.109090544, -129000.266, -91688.99, 0.0, 9.9992695, 9.999716 
1.8748543e+3, 3.0619252e+2, -90031.99, -16149.034, -40201.336, 0.04015744, -0.045519818, 1506.3767, 1506.3767, 0.0, 9.999263, 10.000245 
1.874833e+3, 3.161921e+2, -101528.695, -59073.234, 26411.639, -0.059271365, -0.10686591, -46415.996, -46415.996, 0.0, 9.999346, 9.999909 
1.8852155e+3, 1.2621967e+2, -1555487.9, -1713208.4, 15174.626, -0.09205644, -0.14517836, -1554041.3, 148990.89, 0.044327244, 10.001481, 9.999298 
1.8851948e+3, 1.3621886e+2, -1439550.8, -1582672.9, -32612.53, -0.091824606, -0.18477336, -1432469.8, 172569.95, 0.030593988, 10.001484, 9.999525 
1.8851748e+3, 1.4621869e+2, -1350624.8, -1494530.8, -264.1485, -0.06810569, -0.14553821, -1350624.3, 156416.4, 0.017183522, 10.001424, 9.999481 
1.8851551e+3, 1.5621798e+2, -1270602.9, -1412960.3, 377.2477, -0.07148323, -0.16626316, -1270601.9, 138444.92, 0.0070692445, 10.00132, 9.999418 
1.8851353e+3, 1.6621712e+2, -1186722.4, -1320554.1, -8484.389, -0.07351545, -0.18704335, -1186186.6, 124867.61, 0.0017555967, 10.00121, 9.999433 
1.8851154e+3, 1.7621641e+2, -1108786.8, -1238529.8, -7788.534, -0.07207766, -0.20133272, -1108320.9, 104739.37, 0.00014669658, 10.001098, 9.999376 
1.8850954e+3, 1.8621571e+2, -1025264.7, -1146364.0, -8678.882, -0.06690212, -0.20293781, -1024645.9, 90421.0, 0.0000001366546, 10.000993, 9.999388 
1.8850756e+3, 1.9621514e+2, -945762.75, -1063616.5, -10727.0, -0.0602509, -0.20042406, -944794.3, 72278.4, 0.0, 10.000894, 9.9993305 
1.8850556e+3, 2.0621446e+2, -864413.7, -974951.7, -21688.242, -0.047408044, -0.19268171, -860310.6, 58769.414, 0.0, 10.000785, 9.999319 
1.8850353e+3, 2.162139e+2, -785098.75, -889103.06, -18215.564, -0.0300903, -0.18148853, -782000.75, 39086.004, 0.0, 10.0006695, 9.999291 
1.8850152e+3, 2.2621344e+2, -695222.44, -773105.7, -15809.29, -0.021810502, -0.16083716, -692135.7, 30957.2, 0.0, 10.00052, 9.999487 
1.8849951e+3, 2.3621318e+2, -625031.44, -693008.3, -22630.803, -0.019696034, -0.13610484, -618186.5, 6910.808, 0.0, 10.000348, 9.999447 
1.8849747e+3, 2.4621281e+2, -551611.5, -595268.5, -27478.672, -0.031042956, -0.117714345, -538346.44, -11243.423, 0.0, 10.00013, 9.99955 
1.8849543e+3, 2.562125e+2, -489555.28, -514495.44, -23223.514, -0.05069662, -0.10407234, -475665.66, -46557.676, 0.0, 9.999883, 9.999551 
1.8849339e+3, 2.6621234e+2, -384629.75, -367277.5, -28742.51, -0.043890987, -0.09078852, -345930.2, -14819.751, 0.0, 9.999733, 9.999961 
1.8849134e+3, 2.7621242e+2, -304902.56, -286524.88, -30800.877, -0.021165583, -0.08027952, -263571.4, -30461.443, 0.0, 9.999643, 9.999886 
1.8848929e+3, 2.8621215e+2, -246862.08, -224290.52, -11522.25, -0.061499428, -0.07978819, -219447.72, -84334.836, 0.0, 9.99944, 9.999738 
1.884872e+3, 2.962119e+2, -189542.5, -147724.55, -9979.098, -0.13815582, -0.0827115, -145465.28, -108349.266, 0.0, 9.999168, 9.999721 
1.8848537e+3, 3.0621174e+2, -97748.8, -20675.393, -20151.555, 0.050899822, -0.08919652, -15724.596, -15724.596, 0.0, 9.999215, 10.000236 
1.8848322e+3, 3.162119e+2, -91850.336, -59785.76, 16170.286, -0.059443943, -0.087735355, -53047.18, -53047.18, 0.0, 9.999438, 9.999859 
1.895217e+3, 1.262394e+2, -1553563.9, -1710060.5, 12927.317, -0.07785501, -0.14270745, -1552503.3, 150336.08, 0.045780357, 10.001486, 9.999318 
1.8951961e+3, 1.3623862e+2, -1439576.6, -1584334.1, -33851.16, -0.09731221, -0.17901699, -1432051.9, 172794.47, 0.03165952, 10.00149, 9.999512 
1.8951762e+3, 1.4623839e+2, -1350576.4, -1495900.4, -4844.6123, -0.07295593, -0.14428815, -1350415.0, 156432.53, 0.017844489, 10.00143, 9.999471 
1.8951567e+3, 1.5623754e+2, -1270900.6, -1414687.6, -4244.328, -0.05562231, -0.17466505, -1270775.4, 138079.2, 0.00738753, 10.001323, 9.999406 
1.8951365e+3, 1.6623673e+2, -1185192.3, -1318740.5, -13200.293, -0.06275764, -0.19253735, -1183900.0, 126961.76, 0.0018571934, 10.001214, 9.999444 
1.8951163e+3, 1.7623614e+2, -1107447.8, -1237551.3, -12274.246, -0.083042674, -0.19621411, -1106299.9, 106566.91, 0.00016122115, 10.001103, 9.999382 
1.8950963e+3, 1.8623549e+2, -1025123.1, -1147752.1, -12591.322, -0.07625277, -0.19256014, -1023843.6, 91029.53, 0.00000020674742, 10.0009985, 9.999376 
1.8950765e+3, 1.9623491e+2, -945159.06, -1063782.9, -14611.32, -0.05332349, -0.18861759, -943385.9, 73493.414, 0.0, 10.000897, 9.999329 
1.8950564e+3, 2.0623423e+2, -857857.44, -962774.2, -25909.908, -0.043770652, -0.18610716, -851807.6, 67078.76, 0.0, 10.000789, 9.999402 
1.895036e+3, 2.1623367e+2, -780690.9, -881415.1, -22526.682, -0.042087495, -0.1839287, -775882.4, 45010.195, 0.0, 10.000674, 9.999343 
1.8950157e+3, 2.2623318e+2, -704638.44, -794087.06, -21901.438, -0.03197864, -0.16027035, -699563.75, 23335.574, 0.0, 10.000524, 9.999342 
1.8949954e+3, 2.3623289e+2, -631984.25, -708926.94, -28925.633, -0.016967133, -0.12508877, -622323.06, 2581.8953, 0.0, 10.000353, 9.999336 
1.894975e+3, 2.4623252e+2, -539467.3, -571556.5, -36272.438, -0.021979824, -0.10930271, -515849.34, 11061.119, 0.0, 10.000134, 9.999712 
1.8949543e+3, 2.5623226e+2, -479756.56, -495467.44, -31258.26, -0.03912614, -0.10646376, -455381.78, -26467.54, 0.0, 9.9998865, 9.9996805 
1.8949336e+3, 2.6623213e+2, -389892.8, -379595.78, -31524.697, -0.030951811, -0.09229161, -352801.94, -21885.299, 0.0, 9.999737, 9.999875 
1.8949132e+3, 2.762322e+2, -308459.63, -295551.9, -34566.508, -0.008638982, -0.073668815, -266841.94, -33925.12, 0.0, 9.999648, 9.999822 
1.8948923e+3, 2.8623214e+2, -235272.03, -201758.13, -21812.07, -0.05211582, -0.058722343, -191009.4, -56091.88, 0.0, 9.999445, 9.999891 
1.8948711e+3, 2.962322e+2, -182119.44, -133710.84, -17816.303, -0.13178085, -0.043579694, -127860.72, -90944.016, 0.0, 9.999172, 9.999817 
1.894853e+3, 3.062311e+2, -116461.49, -61449.703, -10716.166, 0.06011555, -0.13338238, -59435.934, -59435.934, 0.0, 9.999221, 9.999954 
1.8948317e+3, 3.1623158e+2, -90314.43, -58878.96, 9933.479, -0.064240605, -0.07655383, -56003.117, -56003.117, 0.0, 9.999446, 9.999863 
1.9052187e+3, 1.2625928e+2, -1538634.3, -1702827.1, 19207.99, -0.069028065, -0.13143116, -1536417.3, 166228.1, 0.047271304, 10.001598, 9.999313 
1.905198e+3, 1.3625841e+2, -1415490.6, -1576057.6, -29069.0, -0.09228138, -0.17059527, -1410390.0, 194262.7, 0.032756284, 10.001679, 9.999477 
1.9051777e+3, 1.462581e+2, -1331638.6, -1485583.5, -7703.7734, -0.07379213, -0.1423568, -1331254.1, 175400.3, 0.018527925, 10.00156, 9.999479 
1.9051579e+3, 1.5625718e+2, -1272667.5, -1414250.1, -5722.919, -0.05700518, -0.18216045, -1272436.5, 136225.52, 0.007718689, 10.0013075, 9.999415 
1.9051377e+3, 1.662564e+2, -1180412.1, -1311116.3, -8401.83, -0.06677492, -0.20007147, -1179874.4, 130794.52, 0.001963835, 10.001226, 9.999489 
1.9051175e+3, 1.7625591e+2, -1083769.5, -1222165.6, -6277.3623, -0.0914296, -0.19785936, -1083485.4, 129187.38, 0.00017665364, 10.001251, 9.999415 
1.9050972e+3, 1.8625529e+2, -1009808.3, -1141827.6, -10571.646, -0.080687575, -0.19066231, -1008967.1, 105711.89, 0.00000030333933, 10.001112, 9.999361 
1.9050774e+3, 1.9625473e+2, -950121.3, -1067637.3, -12898.659, -0.048577495, -0.18459499, -948722.25, 67963.17, 0.0, 10.000872, 9.999313 
1.9050571e+3, 2.0625405e+2, -857553.75, -959911.0, -23717.719, -0.041702107, -0.18280417, -852325.06, 66367.49, 0.0, 10.000781, 9.999424 
1.9050366e+3, 2.1625347e+2, -764104.75, -871720.3, -26353.836, -0.05007864, -0.18331331, -757997.56, 62701.063, 0.0, 10.000783, 9.999356 
1.9050162e+3, 2.2625299e+2, -702494.6, -795470.44, -29472.01, -0.03741721, -0.15842734, -693939.56, 28765.91, 0.0, 10.000551, 9.999318 
1.9049959e+3, 2.362527e+2, -658720.3, -723303.44, -27345.55, -0.011980773, -0.11950195, -648697.3, -23985.941, 0.0, 10.000177, 9.999321 
1.904975e+3, 2.4625242e+2, -553642.5, -571020.2, -32010.604, -0.015155129, -0.099999465, -529162.44, -2446.237, 0.0, 10.000008, 9.999775 
1.9049542e+3, 2.5625226e+2, -464986.53, -482161.4, -34851.156, -0.035626836, -0.09349646, -437680.4, -8961.469, 0.0, 9.999964, 9.999733 
1.9049335e+3, 2.6625207e+2, -384730.0, -377332.2, -35646.473, -0.025110321, -0.08568103, -345193.22, -14471.527, 0.0, 9.999776, 9.99987 
1.9049129e+3, 2.76252e+2, -330223.22, -305768.6, -32984.46, 0.0027411538, -0.07948904, -282818.06, -50094.973, 0.0, 9.999501, 9.999822 
1.9048917e+3, 2.8625208e+2, -254500.28, -205094.05, -24212.006, -0.04091162, -0.05390546, -195207.22, -60484.71, 0.0, 9.99929, 9.999941 
1.9048704e+3, 2.962524e+2, -189122.11, -135348.64, -26367.475, -0.12363437, -0.014374087, -124577.17, -87858.34, 0.0, 9.99912, 9.999829 
1.9048521e+3, 3.0625072e+2, -151323.72, -102067.86, -6926.7886, 0.068030134, -0.15240605, -101112.29, -101112.29, 0.0, 9.999087, 9.999739 
1.904831e+3, 3.1625137e+2, -121695.914, -45316.133, 3201.19, -0.06452268, -0.060264386, -45182.2, -45182.2, 0.0, 9.999109, 10.000117 
1.9152203e+3, 1.2627931e+2, -1540281.9, -1707954.4, 19617.148, -0.06695384, -0.11286146, -1538017.3, 164432.3, 0.04879973, 10.001605, 9.999276 
1.9151996e+3, 1.362783e+2, -1419557.4, -1584709.8, -28213.688, -0.07750575, -0.15956832, -1414870.5, 189587.9, 0.033883143, 10.00168, 9.999417 
1.9151792e+3, 1.4627789e+2, -1330109.4, -1483038.5, -17680.203, -0.071031295, -0.13958515, -1328092.0, 178368.88, 0.019231623, 10.001561, 9.999497 
1.915159e+3, 1.562769e+2, -1270038.6, -1410767.4, -14445.52, -0.0748685, -0.18874925, -1268571.1, 139897.67, 0.008060078, 10.001314, 9.999436 
1.9151388e+3, 1.6627613e+2, -1174634.5, -1301052.6, -7784.186, -0.08484997, -0.20957024, -1174157.0, 136318.14, 0.002073773, 10.001233, 9.999557 
1.9151185e+3, 1.7627573e+2, -1079567.8, -1214556.5, -6884.404, -0.09738256, -0.20608526, -1079217.5, 133260.67, 0.00019241177, 10.001254, 9.999467 
1.9150984e+3, 1.8627512e+2, -1011148.75, -1145794.1, -19876.234, -0.080505766, -0.19690198, -1008275.94, 106208.4, 0.0000004124449, 10.001115, 9.999333 
1.9150783e+3, 1.9627456e+2, -951586.2, -1072388.9, -20868.807, -0.046063147, -0.18801874, -948082.7, 68408.41, 0.0, 10.000877, 9.99928 
1.9150579e+3, 2.0627388e+2, -859994.0, -966642.3, -23388.87, -0.041203063, -0.18264587, -855090.1, 63408.516, 0.0, 10.000786, 9.999376 
1.9150373e+3, 2.1627328e+2, -765740.06, -876465.4, -27716.799, -0.054182142, -0.17957473, -759189.5, 61315.516, 0.0, 10.000787, 9.999323 
1.9150168e+3, 2.2627284e+2, -695559.94, -782417.25, -43336.99, -0.038237017, -0.15527096, -677636.0, 44875.555, 0.0, 10.000555, 9.999407 
1.914996e+3, 2.3627262e+2, -653139.9, -713079.4, -39404.938, -0.0048279795, -0.11942734, -633602.7, -9086.02, 0.0, 10.000181, 9.999391 
1.914975e+3, 2.4627241e+2, -556018.25, -577552.1, -32937.254, -0.01071441, -0.089797184, -532132.8, -5612.0684, 0.0, 10.000012, 9.999729 
1.914954e+3, 2.562724e+2, -466657.06, -487410.38, -37052.246, -0.040560503, -0.06489463, -438555.9, -10033.376, 0.0, 9.9999695, 9.999696 
1.9149332e+3, 2.662721e+2, -378912.1, -366911.44, -45766.89, -0.02665298, -0.0708338, -326753.22, 3772.9253, 0.0, 9.999781, 9.999941 
1.9149125e+3, 2.762718e+2, -325955.4, -298230.06, -42651.113, 0.01293273, -0.09823437, -267245.3, -34715.867, 0.0, 9.999504, 9.999873 
1.9148913e+3, 2.8627187e+2, -258509.4, -214715.73, -30627.672, -0.027864585, -0.06607222, -198962.53, -64433.938, 0.0, 9.999293, 9.999875 
1.9148697e+3, 2.962725e+2, -194379.33, -147854.14, -31915.037, -0.1138273, 0.0043734303, -131623.47, -95100.1, 0.0, 9.999125, 9.9997425 
1.9148512e+3, 3.0627054e+2, -161232.77, -124115.195, -5513.6333, 0.0742576, -0.14433458, -123313.49, -123313.49, 0.0, 9.999091, 9.999586 
1.91483e+3, 3.1627128e+2, -84213.945, 32055.988, -12775.709, -0.058746174, -0.03352647, 33443.23, 33443.23, 0.0, 9.999108, 10.00065 
1.925222e+3, 1.2629928e+2, -1513336.5, -1695373.5, 26842.52, -0.062410843, -0.11385835, -1509460.9, 192793.06, 0.050357446, 10.001808, 9.999265 
1.9252014e+3, 1.3629828e+2, -1441164.1, -1598330.4, -17515.51, -0.06147916, -0.15583223, -1439235.8, 165027.11, 0.03503257, 10.001545, 9.999385 
1.9251809e+3, 1.4629786e+2, -1339033.3, -1484594.4, -5908.6855, -0.065277435, -0.13808443, -1338793.8, 167471.7, 0.019949425, 10.001491, 9.999519 
1.9251603e+3, 1.5629682e+2, -1234207.1, -1391112.1, -3087.5024, -0.08759588, -0.19311903, -1234146.4, 174127.2, 0.00840757, 10.001555, 9.999455 
1.9251399e+3, 1.6629606e+2, -1147794.0, -1286103.0, -205.69122, -0.09325131, -0.2133498, -1147793.6, 162486.0, 0.002184992, 10.001411, 9.999572 
1.9251199e+3, 1.7629571e+2, -1095726.6, -1221399.6, -3645.9614, -0.08795126, -0.2054292, -1095620.9, 116661.25, 0.00020795391, 10.001142, 9.999474 
1.9250995e+3, 1.8629512e+2, -1024676.6, -1154336.5, -18119.607, -0.0739412, -0.19525655, -1022192.06, 92096.36, 0.0000005155152, 10.001033, 9.999313 
1.9250791e+3, 1.9629453e+2, -932203.7, -1065354.3, -19169.178, -0.05477934, -0.18753485, -929498.9, 86796.77, 0.0, 10.001022, 9.999257 
1.9250587e+3, 2.0629385e+2, -847419.7, -961408.4, -19743.37, -0.04922859, -0.17887105, -844096.9, 74206.4, 0.0, 10.000878, 9.999367 
1.9250381e+3, 2.1629332e+2, -785229.5, -885645.44, -22506.559, -0.051876765, -0.1697957, -780415.8, 39893.7, 0.0, 10.000654, 9.999323 
1.9250172e+3, 2.2629288e+2, -702025.5, -775107.25, -42511.855, -0.036578853, -0.14884736, -682508.44, 39807.234, 0.0, 10.000468, 9.999498 
1.9249962e+3, 2.3629265e+2, -629865.6, -693066.4, -38341.77, -0.010446898, -0.12208395, -611780.25, 12540.133, 0.0, 10.000305, 9.999467 
1.924975e+3, 2.462925e+2, -546278.1, -573121.1, -26390.668, -0.015070652, -0.09177268, -530092.1, -3768.1055, 0.0, 10.000083, 9.999724 
1.9249539e+3, 2.5629255e+2, -487761.28, -497528.25, -27826.52, -0.038452953, -0.06012446, -464392.97, -36067.52, 0.0, 9.999826, 9.999694 
1.9249329e+3, 2.6629227e+2, -396257.38, -371230.56, -39034.973, -0.023086796, -0.0664314, -342752.34, -12423.371, 0.0, 9.999647, 9.999974 
1.924912e+3, 2.762919e+2, -323539.16, -294055.56, -38854.09, 0.015069494, -0.09866232, -267240.63, -34908.297, 0.0, 9.999511, 9.999897 
1.9248904e+3, 2.8629202e+2, -260242.95, -217359.83, -26330.996, -0.021325871, -0.068051696, -204844.63, -70512.836, 0.0, 9.999292, 9.999856 
1.9248688e+3, 2.9629257e+2, -212131.92, -161956.31, -22705.227, -0.099379316, 0.0035198173, -153207.38, -116880.4, 0.0, 9.999029, 9.99969 
1.9248502e+3, 3.0629072e+2, -197911.92, -166834.05, 9794.582, 0.07785471, -0.12511134, -164004.73, -164004.73, 0.0, 9.998949, 9.99936 
1.924829e+3, 3.1629112e+2, -81799.42, 75334.92, -21403.807, -0.061622404, -0.022735745, 78198.23, 78198.23, 0.0, 9.998946, 10.001024 
1.935224e+3, 1.2631924e+2, -1512451.6, -1694607.8, 14823.202, -0.057203438, -0.13391966, -1511253.3, 190804.72, 0.051934242, 10.001814, 9.999269 
1.9352031e+3, 1.363184e+2, -1441322.4, -1600534.6, -26250.71, -0.044460513, -0.15872125, -1437105.9, 166959.66, 0.036193907, 10.001553, 9.999367 
1.9351824e+3, 1.46318e+2, -1336818.4, -1481739.3, -3989.8025, -0.05693762, -0.13766673, -1336708.6, 169359.36, 0.020672923, 10.001497, 9.999537 
1.9351618e+3, 1.5631695e+2, -1232981.9, -1389870.8, -2908.0884, -0.0956027, -0.19542758, -1232928.0, 175148.19, 0.008756633, 10.001559, 9.999463 
1.9351414e+3, 1.6631623e+2, -1150200.3, -1292379.8, -10967.077, -0.092510276, -0.21166629, -1149359.3, 160722.95, 0.0022959346, 10.001415, 9.999528 
1.9351213e+3, 1.763159e+2, -1098121.8, -1227902.1, -12990.834, -0.06392522, -0.19615586, -1096834.1, 115250.47, 0.000223007, 10.001145, 9.999428 
1.9351007e+3, 1.8631528e+2, -1025488.2, -1157606.9, -18582.076, -0.06141094, -0.18602775, -1022924.4, 91166.836, 0.000000599565, 10.001038, 9.9992895 
1.93508e+3, 1.963146e+2, -932919.8, -1068282.5, -20568.264, -0.0745387, -0.18334556, -929863.5, 86235.695, 0.0, 10.001026, 9.999236 
1.9350593e+3, 2.0631397e+2, -845314.75, -958441.25, -28033.854, -0.06557197, -0.17154428, -838748.8, 79357.9, 0.0, 10.000882, 9.999387 
1.9350387e+3, 2.1631354e+2, -782727.1, -881892.0, -30367.396, -0.043309454, -0.15410244, -774166.7, 45945.555, 0.0, 10.000658, 9.999348 
1.9350177e+3, 2.263131e+2, -695455.3, -762938.7, -48189.023, -0.032638688, -0.13925335, -670369.44, 51748.676, 0.0, 10.000472, 9.99958 
1.9349964e+3, 2.3631279e+2, -624041.0, -682426.0, -44341.07, -0.029014166, -0.12740035, -600145.56, 23977.174, 0.0, 10.00031, 9.999539 
1.934975e+3, 2.4631259e+2, -543273.0, -568498.8, -35581.027, -0.028262742, -0.105998136, -518135.5, 7991.028, 0.0, 10.000088, 9.999755 
1.934954e+3, 2.563126e+2, -485293.66, -493950.4, -36350.1, -0.029209718, -0.07972354, -453015.16, -24886.916, 0.0, 9.999831, 9.999718 
1.9349326e+3, 2.6631248e+2, -396405.9, -373008.9, -43735.516, -0.014493673, -0.07269003, -339434.34, -9303.609, 0.0, 9.999651, 9.999961 
1.9349113e+3, 2.7631235e+2, -323721.44, -296053.22, -44349.61, 0.008636196, -0.079997785, -263430.16, -31297.877, 0.0, 9.999516, 9.999883 
1.9348897e+3, 2.8631237e+2, -257671.47, -213681.53, -36423.74, -0.021612974, -0.059534673, -193126.92, -58994.18, 0.0, 9.999297, 9.99988 
1.9348681e+3, 2.9631266e+2, -212995.3, -165357.8, -31124.338, -0.08006531, -0.018090466, -149983.97, -113853.46, 0.0, 9.999034, 9.999665 
1.9348492e+3, 3.0631113e+2, -219455.25, -212983.86, 10471.064, 0.07830822, -0.09349693, -205259.95, -205259.95, 0.0, 9.998953, 9.9990425 
1.9348279e+3, 3.163109e+2, -67630.445, 103947.86, -38532.418, -0.072790764, -0.028031236, 112204.05, 112204.05, 0.0, 9.998947, 10.001222 
1.9452259e+3, 1.2633963e+2, -1494802.0, -1688018.6, 26732.615, -0.04726773, -0.13932878, -1491171.6, 210686.28, 0.05352074, 10.001956, 9.999247 
1.9452047e+3, 1.3633871e+2, -1412419.9, -1591795.4, -13727.493, -0.04422349, -0.16526073, -1411375.4, 192490.73, 0.03735767, 10.001786, 9.999314 
1.9451839e+3, 1.4633831e+2, -1317765.9, -1480930.0, 9923.607, -0.059471436, -0.13843822, -1317164.5, 188704.45, 0.02139506, 10.001671, 9.999458 
1.9451633e+3, 1.563373e+2, -1234979.5, -1398795.1, 2601.5256, -0.093235165, -0.18456508, -1234938.3, 172939.14, 0.009103926, 10.001583, 9.999389 
1.9451429e+3, 1.6633654e+2, -1152130.6, -1297048.4, -15569.57, -0.08615547, -0.19923463, -1150476.8, 159407.22, 0.002405855, 10.001421, 9.999492 
1.9451225e+3, 1.7633614e+2, -1090526.6, -1227159.4, -16590.092, -0.05444732, -0.18851194, -1088541.1, 123346.0, 0.0002375857, 10.001213, 9.999399 
1.9451018e+3, 1.8633546e+2, -1015597.7, -1147840.4, -12947.081, -0.057265557, -0.18279691, -1014342.06, 99551.76, 0.0000006629477, 10.001086, 9.999331 
1.9450809e+3, 1.963348e+2, -933239.44, -1064318.1, -11573.256, -0.0808203, -0.1841056, -932225.44, 83675.98, 0.0, 10.001009, 9.99927 
1.94506e+3, 2.0633419e+2, -851259.06, -960665.1, -24303.553, -0.07341435, -0.1705255, -846103.2, 71805.48, 0.0, 10.000841, 9.99939 
1.9450393e+3, 2.163338e+2, -787936.94, -883004.6, -28127.596, -0.04720309, -0.1479961, -780238.3, 39675.777, 0.0, 10.000618, 9.999357 
1.945018e+3, 2.2633342e+2, -695699.56, -754522.94, -44944.09, -0.03690739, -0.13269714, -671398.9, 50520.49, 0.0, 10.000436, 9.999655 
1.9449964e+3, 2.3633316e+2, -624351.2, -674966.1, -42696.32, -0.03638866, -0.12325657, -600025.56, 23897.521, 0.0, 10.000277, 9.999604 
1.944975e+3, 2.4633294e+2, -547588.44, -567034.75, -38082.47, -0.03355488, -0.107747756, -518007.47, 7919.393, 0.0, 10.000045, 9.999784 
1.9449537e+3, 2.563329e+2, -492803.38, -494699.44, -38616.004, -0.029010138, -0.089144915, -455123.75, -27194.746, 0.0, 9.999769, 9.999741 
1.9449322e+3, 2.663329e+2, -412485.72, -380761.3, -42364.145, -0.01422996, -0.07205376, -351387.16, -21456.455, 0.0, 9.999543, 9.999959 
1.9449107e+3, 2.7633297e+2, -348364.1, -308264.97, -42321.266, 0.005409612, -0.059177913, -281484.25, -49553.56, 0.0, 9.99935, 9.999877 
1.944889e+3, 2.8633285e+2, -269126.25, -219123.23, -35833.297, -0.018876066, -0.05186904, -200431.48, -66498.9, 0.0, 9.99922, 9.999878 
1.9448672e+3, 2.9633284e+2, -201277.63, -161482.66, -31918.053, -0.06532342, -0.04153913, -143768.02, -107834.71, 0.0, 9.999125, 9.999647 
1.9448482e+3, 3.0633184e+2, -225858.77, -225104.92, 22597.658, 0.07694344, -0.05563068, -202881.05, -202881.05, 0.0, 9.998951, 9.998959 
1.9448268e+3, 3.1633106e+2, -96042.95, 101401.73, -26890.264, -0.066073604, -0.03970673, 104998.43, 104998.43, 0.0, 9.998707, 10.001318 
1.9552279e+3, 1.2636043e+2, -1498083.5, -1695671.9, 17907.404, -0.03465994, -0.13205357, -1496473.6, 205180.17, 0.05510992, 10.001961, 9.99919 
1.9552062e+3, 1.3635929e+2, -1417553.9, -1604673.3, -20472.428, -0.059694383, -0.17539047, -1415340.1, 188324.06, 0.038519535, 10.001796, 9.99922 
1.9551854e+3, 1.4635882e+2, -1328913.1, -1505986.8, 5926.978, -0.07208911, -0.14033806, -1328714.9, 176953.36, 0.022113826, 10.001678, 9.99928 
1.955165e+3, 1.5635788e+2, -1245628.9, -1422203.0, -1829.4465, -0.08116464, -0.1611926, -1245609.9, 162067.03, 0.009448931, 10.001587, 9.999227 
1.9551443e+3, 1.66357e+2, -1154065.5, -1302387.0, -23701.36, -0.07470736, -0.17663382, -1150370.1, 159314.52, 0.0025148941, 10.001425, 9.9994545 
1.9551235e+3, 1.763564e+2, -1091123.0, -1230245.1, -23953.541, -0.059018552, -0.18251784, -1087114.3, 124575.15, 0.0002518684, 10.001219, 9.999376 
1.9551028e+3, 1.863557e+2, -1007827.44, -1133425.8, -15851.146, -0.061146, -0.18528469, -1005857.8, 107838.2, 0.00000071117205, 10.001092, 9.99943 
1.955082e+3, 1.9635509e+2, -927070.3, -1052794.8, -15158.634, -0.07409594, -0.18960322, -925268.44, 90433.875, 0.0, 10.001012, 9.999349 
1.955061e+3, 2.0635451e+2, -852202.2, -963826.25, -32511.238, -0.073152415, -0.17569736, -843423.5, 74285.914, 0.0, 10.000844, 9.999368 
1.9550398e+3, 2.1635413e+2, -788214.94, -884908.6, -35873.15, -0.06349109, -0.15124185, -776359.6, 43355.633, 0.0, 10.000622, 9.999344 
1.9550183e+3, 2.2635382e+2, -690884.5, -745987.94, -50520.3, -0.049263, -0.12899041, -660891.5, 60828.25, 0.0, 10.00044, 9.999713 
1.9549969e+3, 2.3635373e+2, -620061.6, -667531.75, -48674.375, -0.032679055, -0.109743126, -589643.7, 34078.125, 0.0, 10.000281, 9.999655 
1.9549751e+3, 2.4635352e+2, -545410.5, -564017.1, -47970.12, -0.031140734, -0.09705175, -505849.88, 19875.555, 0.0, 10.00005, 9.999804 
1.9549532e+3, 2.5635344e+2, -491071.06, -492590.06, -48187.785, -0.03816556, -0.08802876, -443636.78, -15908.529, 0.0, 9.999773, 9.999755 
1.9549316e+3, 2.6635346e+2, -411630.0, -380501.22, -49494.215, -0.022499166, -0.06418971, -344181.8, -14452.424, 0.0, 9.999547, 9.99996 
1.9549102e+3, 2.763537e+2, -347950.3, -308853.6, -48886.895, 0.0053534177, -0.03626777, -275751.53, -44023.23, 0.0, 9.999353, 9.999872 
1.9548883e+3, 2.8635335e+2, -270950.66, -224478.2, -39488.7, -0.013276381, -0.045265283, -201896.53, -68164.45, 0.0, 9.999225, 9.999841 
1.9548663e+3, 2.9635298e+2, -201597.44, -164051.53, -36334.81, -0.055537205, -0.06686894, -141926.53, -106190.34, 0.0, 9.99913, 9.999628 
1.954847e+3, 3.063528e+2, -213956.6, -202021.64, 13931.414, 0.07367718, -0.010776497, -192833.44, -192833.44, 0.0, 9.998955, 9.999117 
1.9548257e+3, 3.163516e+2, -98126.81, 96353.71, -50309.7, -0.03993151, -0.051848035, 108597.4, 108597.4, 0.0, 9.998708, 10.001285 
1.96523e+3, 1.2638119e+2, -1494899.6, -1699108.8, 17151.457, -0.023552144, -0.1287547, -1493469.0, 207981.3, 0.056699432, 10.002012, 9.99914 
1.9652082e+3, 1.3637996e+2, -1388188.1, -1597998.8, -20235.701, -0.06594667, -0.172017, -1386254.3, 217207.5, 0.039681073, 10.002044, 9.999146 
1.9651872e+3, 1.4637944e+2, -1305186.3, -1501354.9, 6531.69, -0.07450342, -0.13471133, -1304969.0, 200497.53, 0.022831904, 10.001879, 9.999214 
1.9651668e+3, 1.5637851e+2, -1248659.5, -1429881.0, 6498.721, -0.06422206, -0.14929518, -1248426.8, 159048.64, 0.009793364, 10.0015955, 9.999168 
1.9651459e+3, 1.6637759e+2, -1150136.0, -1300877.3, -9261.818, -0.061143156, -0.16679846, -1149569.1, 159914.55, 0.0026236707, 10.001456, 9.999449 
1.9651249e+3, 1.7637691e+2, -1065313.8, -1218345.3, -8088.0806, -0.062581204, -0.17996575, -1064887.5, 146601.6, 0.0002660043, 10.001401, 9.999369 
1.9651039e+3, 1.8637617e+2, -993560.1, -1126398.9, -6182.3706, -0.06504129, -0.18480255, -993273.0, 120222.71, 0.0000007473898, 10.001192, 9.999429 
1.9650829e+3, 1.9637558e+2, -944767.25, -1060544.6, -13142.107, -0.06815307, -0.18792245, -943294.2, 72207.58, 0.0, 10.00089, 9.999353 
1.9650616e+3, 2.0637503e+2, -872738.3, -967314.44, -30029.004, -0.06870288, -0.17384486, -864009.44, 53498.96, 0.0, 10.000678, 9.999423 
1.9650403e+3, 2.163747e+2, -800253.2, -885500.75, -28104.879, -0.06736195, -0.1498917, -791821.44, 27692.186, 0.0, 10.00052, 9.999388 
1.9650187e+3, 2.2637439e+2, -702563.5, -752225.06, -42801.703, -0.054220892, -0.12934351, -677911.44, 43606.625, 0.0, 10.000364, 9.999705 
1.9649969e+3, 2.3637427e+2, -630381.06, -672442.2, -46827.887, -0.03436404, -0.11255156, -600078.06, 23442.438, 0.0, 10.000212, 9.999654 
1.9649751e+3, 2.4637409e+2, -547077.5, -558717.94, -49841.098, -0.033933163, -0.10041468, -502717.97, 22805.863, 0.0, 10.000013, 9.999857 
1.964953e+3, 2.5637403e+2, -486262.03, -485620.3, -47357.688, -0.044654217, -0.09060238, -438582.4, -11056.46, 0.0, 9.999788, 9.999794 
1.9649312e+3, 2.663741e+2, -402400.34, -378162.84, -46003.94, -0.029767722, -0.06197864, -342708.22, -13181.423, 0.0, 9.999621, 9.999939 
1.9649094e+3, 2.763744e+2, -330033.4, -302320.25, -47310.137, -0.0007318091, -0.02743168, -266879.22, -35353.598, 0.0, 9.999488, 9.999851 
1.9648875e+3, 2.8637403e+2, -265718.06, -221697.9, -37699.215, -0.012436793, -0.042965606, -200053.95, -66523.67, 0.0, 9.999262, 9.999841 
1.9648655e+3, 2.9637352e+2, -221146.84, -170074.36, -31548.164, -0.044767067, -0.07710301, -155022.6, -119486.98, 0.0, 9.998983, 9.999657 
1.9648458e+3, 3.0637383e+2, -221125.86, -179837.5, 23526.258, 0.0687544, 0.019305512, -169182.05, -169182.05, 0.0, 9.998797, 9.999344 
1.9648246e+3, 3.1637242e+2, -120483.03, 65556.2, -49902.008, -0.013080006, -0.06284166, 78096.33, 78096.33, 0.0, 9.998642, 10.001103 
1.975232e+3, 1.2640196e+2, -1497531.5, -1706494.0, 15941.808, -0.0148706455, -0.12998618, -1496322.3, 204924.78, 0.058294192, 10.00202, 9.999085 
1.9752102e+3, 1.3640083e+2, -1392037.1, -1607144.3, -21312.031, -0.0637919, -0.15594718, -1389946.0, 213312.06, 0.040848214, 10.0020485, 9.999082 
1.9751891e+3, 1.4640027e+2, -1302584.9, -1496906.9, -4625.5117, -0.067613475, -0.12195753, -1302474.9, 202788.4, 0.02355414, 10.001883, 9.999246 
1.9751684e+3, 1.5639926e+2, -1246019.8, -1425851.0, -3456.187, -0.042885322, -0.14819576, -1245953.3, 161319.33, 0.010139796, 10.0016, 9.999195 
1.9751474e+3, 1.6639832e+2, -1148223.8, -1298419.4, -11621.46, -0.045690186, -0.16894542, -1147329.9, 161950.92, 0.0027330357, 10.00146, 9.999465 
1.9751263e+3, 1.7639767e+2, -1064975.0, -1218820.6, -11635.901, -0.06531463, -0.18061784, -1064099.9, 147185.89, 0.0002801359, 10.001404, 9.999366 
1.975105e+3, 1.8639691e+2, -1000293.3, -1141655.1, -17708.672, -0.068998374, -0.18144749, -998108.7, 115184.21, 0.00000077122036, 10.001195, 9.999323 
1.9750838e+3, 1.9639626e+2, -949270.4, -1071571.3, -23730.852, -0.063005276, -0.17926474, -944827.1, 70472.664, 0.0, 10.0008955, 9.999276 
1.9750625e+3, 2.0639575e+2, -863214.5, -949271.9, -35733.105, -0.06019152, -0.16509792, -850311.75, 66993.945, 0.0, 10.000683, 9.999545 
1.9750409e+3, 2.1639551e+2, -793016.6, -872028.7, -33692.87, -0.059167568, -0.14408584, -780600.25, 38709.027, 0.0, 10.000524, 9.99948 
1.975019e+3, 2.263951e+2, -707593.56, -764140.6, -48142.063, -0.0520268, -0.13384542, -680036.5, 41278.1, 0.0, 10.000369, 9.999622 
1.974997e+3, 2.3639475e+2, -633999.75, -681433.25, -52468.97, -0.04151909, -0.13155128, -600136.3, 23183.121, 0.0, 10.0002165, 9.999591 
1.974975e+3, 2.4639457e+2, -540773.7, -547179.44, -57870.094, -0.04197614, -0.117757805, -486017.9, 39304.504, 0.0, 10.000018, 9.999935 
1.9749527e+3, 2.563947e+2, -481369.66, -477067.94, -54964.926, -0.048658274, -0.097059846, -424211.8, 3110.7974, 0.0, 9.999793, 9.999851 
1.9749306e+3, 2.6639482e+2, -405157.72, -385678.53, -50757.375, -0.036234595, -0.06579302, -343734.75, -14411.323, 0.0, 9.999627, 9.999886 
1.9749089e+3, 2.7639505e+2, -332163.16, -308706.3, -53042.098, -0.013076703, -0.033038486, -266111.44, -34788.11, 0.0, 9.999494, 9.999805 
1.9748867e+3, 2.863947e+2, -262490.22, -216778.94, -48533.906, -0.0166166, -0.04486087, -185988.33, -52660.445, 0.0, 9.999267, 9.999873 
1.9748646e+3, 2.963943e+2, -215420.63, -159451.36, -41475.188, -0.033429183, -0.071374446, -137402.7, -102070.445, 0.0, 9.998986, 9.999729 
1.9748445e+3, 3.0639493e+2, -200248.42, -137569.23, 18135.549, 0.061758753, 0.03321623, -132700.16, -132700.16, 0.0, 9.9988, 9.999634 
1.9748235e+3, 3.1639367e+2, -145077.31, 13313.938, -65919.0, 0.014741708, -0.054051153, 37158.41, 37158.41, 0.0, 9.998645, 10.000745 
1.9852342e+3, 1.2642285e+2, -1482202.5, -1705102.9, 24796.336, -0.0124540115, -0.13140886, -1479477.4, 221564.97, 0.059905183, 10.002165, 9.999024 
1.9852124e+3, 1.3642174e+2, -1395386.8, -1615102.6, -12743.591, -0.04659172, -0.1490921, -1394650.1, 208403.73, 0.04202892, 10.002056, 9.999022 
1.9851911e+3, 1.4642118e+2, -1296755.1, -1485699.8, -995.4812, -0.05295941, -0.11602671, -1296749.9, 208309.06, 0.024285633, 10.00189, 9.999319 
1.9851701e+3, 1.564202e+2, -1230433.6, -1411752.3, 3453.1843, -0.03829866, -0.14519583, -1230367.9, 176699.77, 0.010490902, 10.001683, 9.99925 
1.985149e+3, 1.6641928e+2, -1145856.3, -1302003.3, -2367.538, -0.04320795, -0.1644777, -1145820.4, 163255.23, 0.0028440533, 10.0015, 9.99942 
1.9851276e+3, 1.764186e+2, -1078528.1, -1229554.1, -7623.263, -0.060620308, -0.17234659, -1078144.4, 132936.73, 0.00029456127, 10.001331, 9.999326 
1.9851062e+3, 1.8641786e+2, -1001314.6, -1141173.0, -14060.378, -0.065666795, -0.17241943, -999915.06, 113173.19, 0.0000007914033, 10.001186, 9.99933 
1.9850849e+3, 1.964172e+2, -926039.5, -1059354.4, -12614.373, -0.062895715, -0.17130208, -924856.44, 90238.74, 0.0, 10.001053, 9.999283 
1.9850633e+3, 2.0641665e+2, -838000.94, -933350.25, -25969.389, -0.059942197, -0.16265252, -831386.7, 85714.33, 0.0, 10.000842, 9.999577 
1.9850414e+3, 2.1641634e+2, -781920.25, -863283.06, -30878.098, -0.056946937, -0.14970173, -771528.8, 47575.7, 0.0, 10.000587, 9.999508 
1.9850194e+3, 2.2641592e+2, -703475.3, -759145.06, -41542.62, -0.05337876, -0.14359118, -681304.5, 39805.316, 0.0, 10.000386, 9.999647 
1.9849972e+3, 2.3641558e+2, -633086.44, -678629.7, -38638.16, -0.049518667, -0.14306453, -611008.8, 12105.669, 0.0, 10.000215, 9.99961 
1.9849749e+3, 2.4641544e+2, -540201.2, -546446.5, -46829.52, -0.046530828, -0.12841056, -496390.34, 28727.016, 0.0, 10.000022, 9.999937 
1.9849525e+3, 2.5641558e+2, -477865.75, -474969.88, -49484.484, -0.04396302, -0.10531292, -426912.16, 205.25491, 0.0, 9.999817, 9.999853 
1.9849303e+3, 2.6641572e+2, -406106.16, -383905.84, -42654.145, -0.033245128, -0.0732344, -350931.2, -21813.072, 0.0, 9.999613, 9.999904 
1.9849081e+3, 2.7641594e+2, -343959.84, -312838.28, -40262.125, -0.017997855, -0.04066814, -285234.53, -54116.605, 0.0, 9.999409, 9.999818 
1.984886e+3, 2.8641567e+2, -275645.4, -222974.53, -38590.824, -0.015096058, -0.045563474, -202589.45, -69467.5, 0.0, 9.999178, 9.999872 
1.9848636e+3, 2.964154e+2, -220681.55, -158130.73, -32910.613, -0.017680435, -0.060785145, -144005.05, -108879.54, 0.0, 9.998936, 9.999762 
1.9848433e+3, 3.0641586e+2, -177656.05, -103560.06, 27742.168, 0.050447542, 0.016043646, -94324.34, -94324.34, 0.0, 9.9988575, 9.999839 
1.9848225e+3, 3.16415e+2, -131516.83, -8402.091, -69166.33, 0.037227683, -0.051340785, 22632.607, 22632.607, 0.0, 9.998861, 10.00049 
1.9952363e+3, 1.2644392e+2, -1485880.6, -1716025.6, 18834.658, -0.017147448, -0.133821, -1484349.4, 216486.5, 0.061545417, 10.002178, 9.998944 
1.9952147e+3, 1.3644272e+2, -1399076.1, -1624797.5, -17473.98, -0.015568224, -0.15071796, -1397731.5, 205117.25, 0.043232605, 10.002064, 9.998953 
1.995193e+3, 1.464422e+2, -1288550.4, -1470105.8, -9047.039, -0.03129544, -0.11633529, -1288100.6, 216752.64, 0.02503264, 10.001895, 9.999428 
1.9951718e+3, 1.5644138e+2, -1224266.0, -1400811.5, -4562.032, -0.04958766, -0.14033619, -1224148.1, 182711.92, 0.010850317, 10.00169, 9.999324 
1.9951504e+3, 1.6644047e+2, -1152491.1, -1317755.6, -9042.118, -0.05293541, -0.15371372, -1151997.9, 156870.3, 0.0029583636, 10.001506, 9.99931 
1.995129e+3, 1.7643976e+2, -1083384.0, -1241375.6, -13900.469, -0.048896704, -0.15551946, -1082170.4, 128704.36, 0.0003098211, 10.001337, 9.999243 
1.9951074e+3, 1.8643901e+2, -993264.9, -1125982.4, -19065.26, -0.055541396, -0.15790953, -990580.4, 122301.45, 0.00000083281077, 10.001191, 9.999433 
1.9950858e+3, 1.9643839e+2, -919966.5, -1048045.7, -18234.893, -0.067830406, -0.16403241, -917420.94, 97466.984, 0.0, 10.001056, 9.99936 
1.995064e+3, 2.064377e+2, -842053.7, -943085.5, -35379.555, -0.06777646, -0.16637255, -830896.5, 85997.99, 0.0, 10.000846, 9.99951 
1.9950418e+3, 2.1643722e+2, -784220.75, -869481.06, -39680.855, -0.06067158, -0.16646756, -768610.9, 50288.66, 0.0, 10.000591, 9.999465 
1.9950196e+3, 2.2643685e+2, -694050.2, -741035.5, -47604.117, -0.05832469, -0.15838884, -664457.44, 56446.33, 0.0, 10.00039, 9.999771 
1.9949973e+3, 2.3643674e+2, -625991.44, -665367.56, -44805.082, -0.0585266, -0.14718135, -596739.56, 26166.426, 0.0, 10.000218, 9.9997 
1.9949749e+3, 2.464366e+2, -545219.5, -558485.9, -54087.375, -0.047658376, -0.13241817, -497360.1, 27548.979, 0.0, 10.000027, 9.999853 
1.9949524e+3, 2.5643662e+2, -481345.88, -483930.3, -56838.22, -0.030445455, -0.11515789, -425785.2, 1125.6458, 0.0, 9.999823, 9.999791 
1.9949299e+3, 2.6643673e+2, -399438.13, -371713.25, -50201.617, -0.020639086, -0.08426276, -333495.25, -4583.888, 0.0, 9.999618, 9.999987 
1.9949076e+3, 2.7643707e+2, -338958.16, -303892.5, -48148.7, -0.01554414, -0.050538406, -270183.75, -39273.793, 0.0, 9.999413, 9.999878 
1.9948852e+3, 2.864369e+2, -277901.3, -229107.11, -48004.14, -0.007877641, -0.045057297, -199656.13, -66742.984, 0.0, 9.999182, 9.99983 
1.9948629e+3, 2.964367e+2, -221236.19, -160844.84, -40722.51, 0.0026761475, -0.044892777, -140344.34, -105428.3, 0.0, 9.99894, 9.9997425 
1.994842e+3, 3.064366e+2, -169062.16, -87675.66, 27819.805, 0.034535117, -0.034598276, -79075.07, -79075.07, 0.0, 9.998864, 9.999946 
1.9948214e+3, 3.164365e+2, -139977.25, -28619.832, -72674.266, 0.054079004, -0.034352943, 7252.907, 7252.907, 0.0, 9.998871, 10.000348 
2.0052385e+3, 1.2646526e+2, -1430479.6, -1687932.9, 30042.176, -0.028804014, -0.1367581, -1427020.5, 273606.1, 0.063225694, 10.002589, 9.998943 
2.0052171e+3, 1.3646403e+2, -1383400.6, -1618616.9, 1284.3212, 0.0026925774, -0.15400922, -1383393.6, 219245.88, 0.044468734, 10.002189, 9.998934 
2.0051953e+3, 1.464635e+2, -1278563.0, -1467225.0, 9188.538, -0.012310391, -0.1198131, -1278116.6, 226527.83, 0.02580235, 10.001978, 9.999407 
2.0051734e+3, 1.564627e+2, -1199498.3, -1391358.8, 4209.3413, -0.044989742, -0.14024484, -1199405.9, 207245.31, 0.0112224715, 10.001875, 9.999299 
2.005152e+3, 1.6646178e+2, -1127633.6, -1308869.4, -1797.3579, -0.05046457, -0.15169236, -1127615.8, 181043.84, 0.0030779804, 10.001693, 9.99928 
2.0051305e+3, 1.7646104e+2, -1066973.8, -1236185.5, -1446.6608, -0.04152819, -0.15272252, -1066961.4, 143705.28, 0.0003265317, 10.001464, 9.999216 
2.0051087e+3, 1.8646032e+2, -986182.0, -1120005.9, -8257.801, -0.04812585, -0.15234175, -985674.4, 126999.26, 0.0000009170216, 10.00123, 9.999454 
2.0050868e+3, 1.9645973e+2, -927351.75, -1048723.8, -14152.222, -0.06320634, -0.15459879, -925723.44, 88955.65, 0.0, 10.000996, 9.999384 
2.0050646e+3, 2.0645906e+2, -848203.8, -939351.6, -29655.93, -0.06625313, -0.16324952, -839404.44, 77281.016, 0.0, 10.000777, 9.999567 
2.0050424e+3, 2.164585e+2, -784495.0, -864195.7, -25092.658, -0.062359564, -0.1755108, -777252.94, 41437.54, 0.0, 10.000568, 9.999511 
2.0050201e+3, 2.2645813e+2, -695891.5, -741637.8, -33902.867, -0.060769446, -0.16977058, -677867.4, 42827.285, 0.0, 10.000379, 9.999771 
2.0049974e+3, 2.3645803e+2, -628941.3, -666254.7, -40924.05, -0.060214575, -0.1549667, -602621.9, 20074.777, 0.0, 10.000198, 9.999702 
2.0049748e+3, 2.4645796e+2, -548300.8, -556128.5, -49414.16, -0.045917, -0.13532355, -502645.75, 22053.336, 0.0, 9.999991, 9.999886 
2.0049523e+3, 2.5645807e+2, -487417.13, -483631.97, -43508.723, -0.023833469, -0.113013074, -441974.7, -15274.748, 0.0, 9.999769, 9.999817 
2.0049296e+3, 2.664581e+2, -403119.38, -372177.1, -36335.11, -0.016020395, -0.09441219, -348156.5, -19455.176, 0.0, 9.999589, 9.999996 
2.004907e+3, 2.764582e+2, -335953.6, -301649.3, -40276.613, -0.016604502, -0.08203274, -275024.72, -44323.063, 0.0, 9.999432, 9.999884 
2.0048843e+3, 2.8645822e+2, -275666.66, -228197.77, -42784.617, -0.0027790575, -0.05769032, -203005.25, -70302.06, 0.0, 9.9992, 9.999826 
2.004862e+3, 2.9645842e+2, -222993.52, -161565.81, -31172.041, 0.019643135, -0.017643971, -148518.53, -113815.86, 0.0, 9.99893, 9.999742 
2.0048405e+3, 3.064577e+2, -183655.47, -95003.85, 39188.83, 0.01544223, -0.06793087, -80164.28, -80164.28, 0.0, 9.998768, 9.999941 
2.0048204e+3, 3.1645787e+2, -160892.14, -25331.771, -65516.242, 0.07361505, -0.039894473, 1156.447, 1156.447, 0.0, 9.9986725, 10.000464 
2.0152408e+3, 1.264869e+2, -1425326.0, -1678667.8, 13563.814, -0.047799837, -0.14103167, -1424601.9, 275812.4, 0.064955264, 10.002598, 9.999008 
2.0152192e+3, 1.3648571e+2, -1381214.6, -1615607.6, -12324.061, 0.008972753, -0.1589675, -1380568.5, 221857.67, 0.045745816, 10.002196, 9.998952 
2.0151974e+3, 1.4648509e+2, -1287824.0, -1488212.1, 4960.1333, 0.0040218052, -0.12636583, -1287701.4, 216730.78, 0.02660151, 10.001985, 9.999257 
2.0151755e+3, 1.5648416e+2, -1207132.9, -1408969.6, -617.5534, -0.025612758, -0.14456108, -1207131.0, 199309.67, 0.011611653, 10.001882, 9.999176 
2.0151536e+3, 1.664832e+2, -1124393.3, -1303572.5, -10661.383, -0.036678087, -0.15782502, -1123761.1, 184688.56, 0.0032048475, 10.001698, 9.999315 
2.015132e+3, 1.7648245e+2, -1065101.9, -1233455.8, -10320.282, -0.03843112, -0.16323395, -1064471.5, 145985.16, 0.00034520094, 10.001467, 9.999235 
2.01511e+3, 1.8648176e+2, -990391.25, -1129941.6, -17152.375, -0.043295294, -0.15525128, -988313.94, 124149.58, 0.0000010607014, 10.001233, 9.999385 
2.015088e+3, 1.9648126e+2, -929193.75, -1053935.6, -22759.152, -0.049414005, -0.14296578, -925171.1, 89297.586, 0.0, 10.000999, 9.999348 
2.0150656e+3, 2.0648065e+2, -835450.06, -914386.44, -37241.285, -0.05575125, -0.15340343, -820653.6, 95820.37, 0.0, 10.000781, 9.999738 
2.0150429e+3, 2.1648015e+2, -775036.75, -846081.9, -32450.957, -0.062171705, -0.17701523, -762445.75, 56031.938, 0.0, 10.000573, 9.999635 
2.0150204e+3, 2.264797e+2, -704363.94, -760737.75, -40392.23, -0.060755264, -0.17776799, -683296.06, 37186.656, 0.0, 10.000382, 9.9996395 
2.0149978e+3, 2.3647945e+2, -634706.1, -679755.2, -47544.52, -0.05468285, -0.16625737, -604620.44, 17866.44, 0.0, 10.000203, 9.999609 
2.0149748e+3, 2.464795e+2, -537499.5, -535328.56, -57431.008, -0.041448887, -0.13699827, -478972.78, 45515.023, 0.0, 9.999996, 10.000028 
2.014952e+3, 2.564799e+2, -479155.53, -468015.2, -51192.508, -0.024452379, -0.0987004, -422090.72, 4394.4814, 0.0, 9.999773, 9.999924 
2.014929e+3, 2.6647967e+2, -407309.16, -382524.72, -42074.418, -0.019688305, -0.10376816, -351055.53, -22567.012, 0.0, 9.999594, 9.999925 
2.0149064e+3, 2.7647927e+2, -339204.94, -310216.44, -46859.113, -0.021370577, -0.13587874, -275661.13, -45167.42, 0.0, 9.999437, 9.999824 
2.0148836e+3, 2.8647956e+2, -272738.84, -223766.38, -53409.543, -0.000063326464, -0.083920896, -189497.58, -57004.777, 0.0, 9.999205, 9.999855 
2.014861e+3, 2.9648048e+2, -221924.36, -160659.3, -40457.54, 0.03264465, 0.02160591, -140545.75, -106059.73, 0.0, 9.998933, 9.999747 
2.014839e+3, 3.064791e+2, -192418.25, -114405.08, 34399.59, -0.0070214416, -0.08293828, -101403.53, -101403.53, 0.0, 9.998771, 9.999807 
2.0148192e+3, 3.1647912e+2, -132226.67, 32874.793, -61746.688, 0.0956498, -0.060136665, 53412.746, 53412.746, 0.0, 9.998675, 10.000864 
2.0252436e+3, 1.265088e+2, -1395679.0, -1664883.0, 17720.572, -0.043033436, -0.1464198, -1394517.5, 305682.0, 0.0667436, 10.002825, 9.998999 
2.0252216e+3, 1.3650768e+2, -1355115.8, -1605687.8, -10332.345, 0.011323145, -0.15631998, -1354690.4, 247520.11, 0.047070254, 10.002403, 9.9989195 
2.0251995e+3, 1.4650694e+2, -1269569.8, -1488260.9, 16681.648, 0.0054500634, -0.12743862, -1268304.6, 235912.88, 0.02743433, 10.002156, 9.999173 
2.0251775e+3, 1.5650585e+2, -1195386.5, -1411604.9, 14451.413, -0.022482451, -0.15172853, -1194425.0, 211802.81, 0.01202056, 10.002002, 9.999099 
2.0251556e+3, 1.6650489e+2, -1120307.8, -1302843.9, -1375.2135, -0.030600838, -0.16238888, -1120297.4, 187939.73, 0.0033402527, 10.001733, 9.999302 
2.0251334e+3, 1.765042e+2, -1075084.0, -1238867.1, -4436.496, -0.02917428, -0.16073246, -1074964.0, 135279.8, 0.0003661045, 10.001403, 9.999228 
2.0251112e+3, 1.8650353e+2, -995697.1, -1127448.1, -5177.0483, -0.03812867, -0.15284462, -995494.0, 116756.26, 0.0000012791296, 10.001178, 9.999429 
2.0250888e+3, 1.9650304e+2, -925330.1, -1048296.06, -3410.5957, -0.05212976, -0.14453322, -925235.6, 89019.586, 0.0, 10.001012, 9.999379 
2.0250663e+3, 2.065024e+2, -828577.5, -912292.44, -23787.09, -0.058585994, -0.15765499, -822290.6, 93970.0, 0.0, 10.000836, 9.999724 
2.0250435e+3, 2.1650185e+2, -763775.94, -841076.94, -32796.914, -0.06085397, -0.18312508, -751736.2, 66528.47, 0.0, 10.000654, 9.999628 
2.0250207e+3, 2.2650145e+2, -689392.25, -747851.3, -37160.195, -0.059621178, -0.18100645, -671343.4, 48925.8, 0.0, 10.0004635, 9.999687 
2.0249979e+3, 2.3650129e+2, -622986.4, -669775.44, -31749.768, -0.056079544, -0.16414188, -606942.94, 15329.356, 0.0, 10.000267, 9.999645 
2.0249748e+3, 2.4650134e+2, -531471.7, -533680.75, -45874.06, -0.04256684, -0.13686746, -486688.88, 37584.36, 0.0, 10.000045, 10.000013 
2.0249517e+3, 2.5650167e+2, -474711.7, -466582.38, -51130.38, -0.023835532, -0.10468244, -419355.34, 6915.849, 0.0, 9.999809, 9.999915 
2.0249288e+3, 2.6650143e+2, -408350.56, -379283.94, -40246.363, -0.019583775, -0.11335344, -351027.22, -22752.691, 0.0, 9.999573, 9.999955 
2.0249057e+3, 2.7650103e+2, -352078.63, -313249.38, -37165.22, -0.022579685, -0.14744335, -290733.3, -60453.914, 0.0, 9.999337, 9.999849 
2.0248829e+3, 2.8650132e+2, -265179.56, -217740.81, -39682.94, 0.0045572724, -0.09863298, -195228.77, -62950.35, 0.0, 9.9992485, 9.999874 
2.0248601e+3, 2.9650217e+2, -178282.2, -140679.9, -28896.563, 0.04556572, 0.0022166853, -125006.516, -90734.73, 0.0, 9.99924, 9.999736 
2.0248376e+3, 3.065008e+2, -206142.64, -140724.6, 33377.53, -0.02492183, -0.09417699, -126700.97, -126700.97, 0.0, 9.998764, 9.999629 
2.0248178e+3, 3.1650075e+2, -199125.9, 39930.676, -51130.453, 0.11085954, -0.063147046, 50407.52, 50407.52, 0.0, 9.99805, 10.001213 
2.0352466e+3, 1.2653096e+2, -1402345.9, -1677385.1, 580.47784, -0.018142326, -0.15453483, -1402344.8, 297637.5, 0.068599164, 10.002822, 9.99891 
2.035224e+3, 1.3652992e+2, -1359684.1, -1617991.8, -24517.406, 0.00976469, -0.14640361, -1357377.6, 244614.78, 0.04844632, 10.002415, 9.998832 
2.0352015e+3, 1.4652906e+2, -1270273.3, -1492136.4, 10625.876, -0.006982207, -0.12318887, -1269765.5, 234234.92, 0.028302716, 10.002167, 9.999143 
2.0351793e+3, 1.5652782e+2, -1197528.6, -1417331.9, 7261.2646, -0.034673423, -0.16165532, -1197289.0, 208723.25, 0.012450322, 10.002006, 9.999059 
2.0351572e+3, 1.6652685e+2, -1124430.8, -1312750.1, -14157.085, -0.031871583, -0.1654997, -1123372.4, 184649.34, 0.0034848975, 10.001737, 9.999233 
2.035135e+3, 1.7652628e+2, -1076759.1, -1244254.1, -16125.961, -0.014181536, -0.145836, -1075220.8, 134807.03, 0.0003893878, 10.001409, 9.999189 
2.0351124e+3, 1.865256e+2, -984909.6, -1106858.3, -11455.545, -0.03285063, -0.14541262, -983842.9, 128191.04, 0.0000015848547, 10.001183, 9.999568 
2.0350897e+3, 1.9652502e+2, -918498.56, -1035565.6, -9761.293, -0.070890345, -0.15888669, -917690.2, 96348.445, 0.0, 10.001016, 9.999466 
2.0350671e+3, 2.0652427e+2, -841992.0, -941526.6, -30455.746, -0.07433381, -0.17550662, -833412.6, 82632.9, 0.0, 10.00084, 9.999523 
2.0350443e+3, 2.165236e+2, -772894.9, -861423.3, -39351.215, -0.058547653, -0.19364895, -757932.06, 60119.633, 0.0, 10.000658, 9.999488 
2.0350212e+3, 2.2652338e+2, -673340.5, -715988.7, -44212.492, -0.057572447, -0.17947264, -645578.3, 74475.97, 0.0, 10.000467, 9.999906 
2.0349981e+3, 2.3652358e+2, -611310.8, -647096.94, -38980.918, -0.06453791, -0.14865161, -586312.44, 35740.84, 0.0, 10.000271, 9.999801 
2.0349748e+3, 2.4652345e+2, -543082.06, -559497.75, -54446.883, -0.049355455, -0.13498497, -496227.84, 27827.947, 0.0, 10.000051, 9.999835 
2.0349516e+3, 2.565233e+2, -483136.53, -485810.72, -59743.71, -0.022157213, -0.13129602, -424714.97, 1343.5214, 0.0, 9.999814, 9.999782 
2.0349282e+3, 2.6652327e+2, -398514.6, -360478.0, -49257.59, -0.015751302, -0.122947745, -326694.72, 1365.2054, 0.0, 9.9995775, 10.000084 
2.034905e+3, 2.7652344e+2, -344140.06, -298027.84, -45005.574, -0.020078512, -0.11495063, -270516.3, -40457.1, 0.0, 9.99934, 9.999953 
2.034882e+3, 2.8652337e+2, -264219.8, -217471.73, -39873.777, 0.011105846, -0.10166356, -194626.05, -62565.355, 0.0, 9.999254, 9.999875 
2.0348595e+3, 2.9652348e+2, -179630.89, -146272.6, -33123.61, 0.05798389, -0.07928074, -125865.805, -91804.805, 0.0, 9.999249, 9.999694 
2.0348361e+3, 3.0652267e+2, -221884.25, -174861.97, 3761.301, -0.03811139, -0.100586064, -174563.0, -174563.0, 0.0, 9.998768, 9.999393 
2.0348158e+3, 3.165227e+2, -180315.45, 79870.984, -59187.332, 0.116943054, -0.04544045, 92702.17, 92702.17, 0.0, 9.998043, 10.001492 
2.0452495e+3, 1.265534e+2, -1426960.3, -1691594.1, 10710.048, 0.0017590425, -0.15633379, -1426527.5, 273234.34, 0.07052423, 10.002659, 9.998882 
2.0452264e+3, 1.3655221e+2, -1320401.9, -1602540.8, -9787.3, 0.00054990506, -0.15821569, -1320062.8, 281710.5, 0.04987525, 10.002723, 9.998787 
2.0452036e+3, 1.4655133e+2, -1233069.9, -1481005.5, 20465.217, -0.019553214, -0.13277902, -1231392.0, 272389.78, 0.029206946, 10.002464, 9.999077 
2.0451814e+3, 1.5655014e+2, -1199804.6, -1425118.9, 14743.773, -0.03513794, -0.1587264, -1198844.0, 206949.39, 0.012900946, 10.002021, 9.998997 
2.0451589e+3, 1.6654913e+2, -1121993.4, -1313879.1, -3504.43, -0.031576503, -0.16205795, -1121929.4, 185873.95, 0.0036389919, 10.001765, 9.99921 
2.0451364e+3, 1.7654847e+2, -1048277.3, -1232230.0, -2776.069, -0.019479556, -0.14865822, -1048235.44, 161574.7, 0.00041515523, 10.001614, 9.999172 
2.0451136e+3, 1.8654777e+2, -957348.06, -1089877.9, -2545.5708, -0.034912083, -0.1507963, -957299.2, 154517.1, 0.0000019870433, 10.001358, 9.999599 
2.0450908e+3, 1.9654723e+2, -912562.6, -1029970.56, -8724.895, -0.064949565, -0.16479033, -911917.75, 101902.68, 0.0, 10.001046, 9.999488 
2.0450678e+3, 2.0654646e+2, -844791.5, -943678.25, -21509.045, -0.07090023, -0.18175241, -840315.6, 75511.73, 0.0, 10.000826, 9.999514 
2.0450447e+3, 2.1654579e+2, -773892.5, -862564.25, -17437.818, -0.06327652, -0.19992417, -770586.5, 47247.36, 0.0, 10.000656, 9.99948 
2.0450217e+3, 2.2654559e+2, -678387.1, -716100.5, -28793.46, -0.059975825, -0.18395287, -662825.25, 57010.99, 0.0, 10.000425, 9.999924 
2.0449983e+3, 2.3654583e+2, -626457.25, -652341.06, -38470.67, -0.0588797, -0.15055841, -598809.94, 23024.65, 0.0, 10.000161, 9.999816 
2.0449749e+3, 2.4654566e+2, -552478.3, -561861.9, -48548.023, -0.044088688, -0.14386359, -508395.9, 15441.447, 0.0, 9.999979, 9.999852 
2.0449515e+3, 2.5654542e+2, -479257.22, -483403.84, -39990.027, -0.02197776, -0.15221453, -441286.78, -15446.03, 0.0, 9.999841, 9.999784 
2.0449279e+3, 2.6654541e+2, -393468.88, -363777.34, -35052.793, -0.01643782, -0.13663124, -340556.13, -12714.222, 0.0, 9.9996395, 10.00003 
2.0449042e+3, 2.7654567e+2, -337376.16, -298179.03, -43582.75, -0.018916676, -0.11087263, -269991.0, -40150.664, 0.0, 9.999404, 9.999921 
2.0448813e+3, 2.8654552e+2, -263466.1, -206304.97, -33861.664, 0.015068914, -0.11523349, -190574.58, -58731.785, 0.0, 9.999215, 9.9999695 
2.0448586e+3, 2.9654533e+2, -205521.44, -151297.56, -23347.61, 0.064084515, -0.12951344, -142630.06, -108784.99, 0.0, 9.999042, 9.999758 
2.0448348e+3, 3.0654517e+2, -251387.78, -195552.28, 5010.9126, -0.042713515, -0.08483251, -195106.14, -195106.14, 0.0, 9.998595, 9.999332 
2.0448138e+3, 3.165447e+2, -181046.56, 79483.38, -25602.605, 0.11927056, -0.070261925, 81975.54, 81975.54, 0.0, 9.99804, 10.00149 
2.0552525e+3, 1.2657614e+2, -1424508.6, -1688472.4, 11009.187, 0.016155308, -0.15352476, -1424050.3, 275488.0, 0.07251364, 10.002671, 9.998901 
2.055229e+3, 1.3657461e+2, -1321142.6, -1604344.0, -10853.87, -0.015956726, -0.19045267, -1320727.3, 280825.3, 0.051355157, 10.002726, 9.998775 
2.055206e+3, 1.4657377e+2, -1240223.6, -1496220.5, 3439.1572, -0.032443587, -0.1553714, -1240177.4, 263383.78, 0.030146558, 10.002465, 9.99897 
2.0551834e+3, 1.5657283e+2, -1205036.5, -1437800.8, -636.8787, -0.024805507, -0.14358035, -1205034.9, 200536.06, 0.013372168, 10.002027, 9.998908 
2.0551607e+3, 1.6657175e+2, -1120119.1, -1311928.6, -9460.527, -0.030048914, -0.15243466, -1119653.6, 187928.08, 0.0038025365, 10.001772, 9.999223 
2.0551378e+3, 1.765708e+2, -1047780.9, -1232838.5, -9631.797, -0.044201408, -0.16842817, -1047280.94, 162309.97, 0.0004435064, 10.001618, 9.9991665 
2.055115e+3, 1.8657006e+2, -962392.3, -1101780.0, -14479.914, -0.0438893, -0.16834417, -960904.0, 150693.28, 0.0000024928308, 10.001362, 9.999517 
2.055092e+3, 1.9656964e+2, -915126.0, -1036662.25, -19668.775, -0.03523322, -0.16250011, -912022.1, 101578.39, 0.0, 10.00105, 9.999442 
2.0550689e+3, 2.0656899e+2, -832252.4, -919042.6, -27683.07, -0.04909112, -0.1767461, -824174.3, 91431.92, 0.0, 10.00083, 9.999682 
2.0550454e+3, 2.1656841e+2, -765447.8, -846433.56, -24086.65, -0.07507504, -0.20196776, -758825.56, 58785.85, 0.0, 10.00066, 9.99959 
2.055022e+3, 2.2656807e+2, -690920.3, -743542.5, -38569.44, -0.066682585, -0.19436128, -670542.3, 49072.934, 0.0, 10.000429, 9.999735 
2.0549986e+3, 2.3656803e+2, -634719.5, -671043.0, -47339.055, -0.0392248, -0.16994551, -602177.8, 19438.76, 0.0, 10.000165, 9.999687 
2.054975e+3, 2.465679e+2, -537221.56, -531897.25, -53373.668, -0.026880873, -0.16357411, -481119.38, 42498.89, 0.0, 9.999984, 10.000056 
2.0549512e+3, 2.565679e+2, -469265.66, -464359.06, -45433.406, -0.023416165, -0.16727252, -421312.78, 4305.635, 0.0, 9.999846, 9.999914 
2.0549275e+3, 2.6656777e+2, -410095.28, -400033.88, -43939.234, -0.021789795, -0.15463284, -360838.28, -33217.258, 0.0, 9.999644, 9.99978 
2.0549038e+3, 2.7656776e+2, -349267.0, -324782.5, -52153.152, -0.019537594, -0.136351, -283454.0, -53830.484, 0.0, 9.99941, 9.999736 
2.0548806e+3, 2.865676e+2, -249866.17, -179563.8, -40782.008, 0.015986443, -0.13965161, -160874.69, -29249.2, 0.0, 9.99922, 10.000153 
2.0548576e+3, 2.9656765e+2, -193699.64, -127305.016, -32855.652, 0.0636065, -0.14649056, -113795.2, -80170.62, 0.0, 9.9990425, 9.999924 
2.0548335e+3, 3.065682e+2, -242855.7, -178503.89, -17967.459, -0.037766416, -0.045768715, -173827.14, -173827.14, 0.0, 9.998596, 9.999451 
2.0548117e+3, 3.1656685e+2, -203514.77, 30577.588, -26724.568, 0.11391807, -0.12767613, 33589.773, 33589.773, 0.0, 9.998048, 10.001151 
2.0652552e+3, 1.2659897e+2, -1382568.6, -1673301.8, 20988.852, 0.0003665803, -0.1602545, -1381061.1, 318252.47, 0.07455795, 10.003014, 9.998847 
2.0652317e+3, 1.3659735e+2, -1329826.1, -1614791.8, -5255.809, -0.017581733, -0.200882, -1329729.3, 271599.72, 0.052880682, 10.002695, 9.998716 
2.0652083e+3, 1.4659646e+2, -1248485.5, -1503208.5, 4025.907, -0.03373795, -0.16483928, -1248421.9, 254916.19, 0.031119075, 10.002425, 9.998939 
2.0651856e+3, 1.5659559e+2, -1186310.4, -1432330.4, 5273.0947, -0.032383658, -0.14540325, -1186197.5, 219150.2, 0.01386304, 10.002176, 9.998873 
2.0651624e+3, 1.6659448e+2, -1099386.4, -1305631.9, 459.46664, -0.03626426, -0.15098876, -1099385.4, 207973.22, 0.0039753728, 10.001933, 9.9991865 
2.0651394e+3, 1.7659351e+2, -1039355.25, -1232708.4, -4158.4688, -0.045265824, -0.16682096, -1039265.8, 170102.16, 0.00047454174, 10.001695, 9.999129 
2.0651162e+3, 1.865927e+2, -957704.4, -1103302.8, -12092.222, -0.04409325, -0.17186786, -956706.94, 154668.28, 0.0000031175111, 10.001412, 9.999481 
2.065093e+3, 1.9659215e+2, -908824.25, -1035879.1, -13912.205, -0.036491767, -0.17343295, -907318.75, 106060.9, 0.0, 10.001105, 9.999419 
2.0650695e+3, 2.0659159e+2, -825656.94, -908061.9, -22516.266, -0.04679432, -0.18031004, -819905.94, 95478.44, 0.0, 10.000844, 9.99975 
2.0650461e+3, 2.1659124e+2, -769471.3, -842179.1, -26951.1, -0.06708176, -0.19051275, -760570.75, 56816.74, 0.0, 10.000608, 9.999643 
2.0650224e+3, 2.2659083e+2, -699269.4, -747824.0, -36995.195, -0.06033879, -0.19151498, -679297.06, 40094.668, 0.0, 10.000376, 9.99973 
2.0649987e+3, 2.3659058e+2, -638412.1, -673196.94, -32401.34, -0.038195975, -0.18838458, -619030.3, 2364.478, 0.0, 10.000144, 9.999681 
2.0649749e+3, 2.4659044e+2, -545996.0, -534540.25, -40999.05, -0.025398642, -0.18350777, -498870.9, 24525.559, 0.0, 9.999919, 10.000069 
2.0649509e+3, 2.5659055e+2, -490081.63, -473204.63, -47641.523, -0.01867177, -0.17782371, -433260.06, -7864.4526, 0.0, 9.999701, 9.999922 
2.064927e+3, 2.6659045e+2, -429320.22, -408343.16, -39704.527, -0.018932937, -0.16286774, -377765.16, -50367.21, 0.0, 9.999511, 9.999785 
2.0649031e+3, 2.765904e+2, -360482.75, -329905.22, -28955.824, -0.020941107, -0.14637338, -312449.72, -83049.13, 0.0, 9.999334, 9.999736 
2.0648797e+3, 2.8659022e+2, -264823.56, -187497.31, -20326.729, 0.009900276, -0.15250959, -182479.64, -51076.734, 0.0, 9.999123, 10.000143 
2.0648564e+3, 2.9659024e+2, -213959.02, -133315.19, -28549.354, 0.052018754, -0.16198328, -124231.414, -90829.12, 0.0, 9.998889, 9.999954 
2.064832e+3, 3.0659103e+2, -225615.8, -140224.75, -20181.604, -0.032563314, -0.052877963, -135695.23, -135695.23, 0.0, 9.998589, 9.999716 
2.0648098e+3, 3.1658968e+2, -194218.8, -342.61627, -2362.393, 0.109735586, -0.15783706, -313.83466, -313.83466, 0.0, 9.998266, 10.000833 
2.0752576e+3, 1.2662195e+2, -1391340.6, -1690298.1, 7688.964, -0.043189913, -0.17683879, -1391143.0, 307944.6, 0.076646104, 10.003013, 9.998723 
2.0752344e+3, 1.3662046e+2, -1336673.5, -1630098.6, -16801.41, -0.0056929807, -0.19103482, -1335714.6, 265387.5, 0.05444277, 10.002698, 9.998611 
2.075211e+3, 1.4661947e+2, -1245998.6, -1499243.4, -5580.3687, -0.024810586, -0.1621864, -1245875.8, 257236.53, 0.03211882, 10.00243, 9.998965 
2.0751873e+3, 1.566184e+2, -1184854.4, -1431222.8, -4557.8843, -0.056995053, -0.16329777, -1184770.1, 220353.28, 0.014371255, 10.002183, 9.9988785 
2.0751643e+3, 1.6661738e+2, -1104611.5, -1318287.9, -8881.164, -0.04970863, -0.15716901, -1104243.0, 202890.7, 0.004157122, 10.001939, 9.999099 
2.0751414e+3, 1.766166e+2, -1044054.8, -1243635.0, -13715.471, -0.023965368, -0.14482154, -1043116.7, 166024.73, 0.0005083953, 10.001698, 9.999054 
2.0751177e+3, 1.8661563e+2, -957071.75, -1103309.5, -23778.78, -0.036282994, -0.16207963, -953302.4, 157847.78, 0.0000038992757, 10.001416, 9.99948 
2.075094e+3, 1.9661474e+2, -908521.44, -1037046.56, -25068.457, -0.06780342, -0.19711146, -903805.0, 109352.74, 0.0, 10.001111, 9.99941 
2.0750703e+3, 2.0661429e+2, -827571.1, -913699.8, -31200.879, -0.06323958, -0.19201244, -817456.2, 97705.66, 0.0, 10.000849, 9.99971 
2.0750469e+3, 2.1661425e+2, -769404.7, -843416.75, -35456.38, -0.039723236, -0.16591847, -755160.3, 62001.992, 0.0, 10.000612, 9.999634 
2.0750229e+3, 2.2661385e+2, -686807.5, -723402.75, -45409.297, -0.04143476, -0.17571771, -656147.94, 63017.984, 0.0, 10.00038, 9.999897 
2.0749988e+3, 2.3661342e+2, -630093.44, -657505.8, -40697.63, -0.05603023, -0.20581561, -600855.94, 20313.56, 0.0, 10.000149, 9.999788 
2.0749746e+3, 2.4661319e+2, -558656.4, -562440.6, -49058.324, -0.039686337, -0.20351562, -511453.7, 11718.623, 0.0, 9.999924, 9.999876 
2.0749506e+3, 2.5661325e+2, -497895.56, -490916.7, -55461.16, -0.007771472, -0.18365592, -438835.3, -13662.472, 0.0, 9.999705, 9.9998 
2.0749265e+3, 2.6661333e+2, -410331.84, -370401.7, -46397.305, -0.007848243, -0.16104771, -339856.22, -12683.024, 0.0, 9.999515, 10.000045 
2.0749024e+3, 2.7661356e+2, -347070.25, -303537.03, -35931.707, -0.023138918, -0.14049588, -283293.25, -54121.242, 0.0, 9.999338, 9.999917 
2.0748787e+3, 2.8661326e+2, -279646.44, -219540.08, -29447.852, -0.003571885, -0.15334508, -207517.5, -76341.9, 0.0, 9.9991255, 9.999923 
2.074855e+3, 2.9661295e+2, -221891.92, -150799.97, -38560.125, 0.028160289, -0.17566355, -133901.69, -100722.68, 0.0, 9.998892, 9.999835 
2.0748305e+3, 3.066135e+2, -196040.1, -80347.68, -33753.535, -0.027327944, -0.10999355, -71220.125, -71220.125, 0.0, 9.998592, 10.000127 
2.074808e+3, 3.1661338e+2, -214601.94, -45565.055, -5647.106, 0.106412426, -0.1296651, -45376.61, -45376.61, 0.0, 9.998277, 10.000518 
2.0852603e+3, 1.2664531e+2, -1407247.6, -1702240.6, 11604.12, -0.06258791, -0.17195633, -1406791.9, 292066.1, 0.07876326, 10.002921, 9.998679 
2.0852368e+3, 1.3664365e+2, -1343560.8, -1638815.3, -6237.7256, -0.020837499, -0.20030014, -1343429.1, 257445.28, 0.056028813, 10.002677, 9.99856 
2.085213e+3, 1.4664257e+2, -1238736.5, -1501460.5, 5841.508, -0.03517973, -0.17405172, -1238606.8, 264278.66, 0.033137266, 10.002512, 9.998909 
2.0851895e+3, 1.5664151e+2, -1159777.9, -1424310.9, 107.64717, -0.062405124, -0.16855405, -1159777.8, 245118.61, 0.014892742, 10.002384, 9.998828 
2.0851663e+3, 1.6664046e+2, -1085916.9, -1310758.6, -7544.8647, -0.051184133, -0.1630113, -1085664.0, 221242.95, 0.0043465937, 10.002077, 9.999083 
2.0851429e+3, 1.766396e+2, -1049285.3, -1248521.4, -7209.877, -0.02193159, -0.15487002, -1049024.6, 159890.48, 0.0005450198, 10.001675, 9.999031 
2.0851192e+3, 1.8663861e+2, -956334.94, -1108057.4, -14864.629, -0.03447737, -0.17147548, -954892.3, 156032.06, 0.000004891204, 10.001446, 9.999433 
2.0850949e+3, 1.966377e+2, -882460.2, -1028504.75, -20580.479, -0.068336256, -0.20329688, -879615.44, 133317.1, 0.0, 10.001309, 9.999372 
2.0850714e+3, 2.0663726e+2, -801049.1, -898175.56, -28074.906, -0.06106762, -0.1951624, -793517.94, 121418.62, 0.0, 10.001021, 9.999732 
2.0850477e+3, 2.1663728e+2, -761997.9, -836941.9, -27811.111, -0.031953696, -0.16605946, -752805.06, 64131.438, 0.0, 10.000652, 9.999658 
2.0850234e+3, 2.266369e+2, -680502.7, -715053.06, -39307.21, -0.035297953, -0.17623939, -654842.0, 64097.605, 0.0, 10.000402, 9.999943 
2.0849988e+3, 2.366365e+2, -618564.9, -648407.06, -44407.055, -0.055612262, -0.20872378, -586639.1, 34303.598, 0.0, 10.000215, 9.999818 
2.0849746e+3, 2.4663626e+2, -559185.7, -565942.1, -50298.71, -0.04141262, -0.20701374, -512151.88, 10793.865, 0.0, 9.999937, 9.999845 
2.0849505e+3, 2.566363e+2, -512710.88, -499451.94, -44483.926, -0.0094116125, -0.1866504, -461106.22, -36159.453, 0.0, 9.999612, 9.999784 
2.084926e+3, 2.6663637e+2, -422322.84, -365320.47, -36305.48, -0.008275627, -0.16747095, -347665.34, -20718.525, 0.0, 9.999389, 10.00014 
2.0849016e+3, 2.7663666e+2, -359694.56, -301766.9, -38863.03, -0.021761486, -0.15213647, -282261.78, -53316.91, 0.0, 9.99922, 9.999985 
2.0848776e+3, 2.866365e+2, -309216.4, -239541.22, -32138.928, -0.0058137383, -0.15047976, -226980.83, -96033.555, 0.0, 9.99895, 9.999868 
2.0848538e+3, 2.9663634e+2, -263178.97, -173939.13, -28669.283, 0.019195125, -0.14974985, -165522.6, -132573.14, 0.0, 9.998624, 9.999804 
2.0848294e+3, 3.0663624e+2, -205752.6, -73972.87, -32707.066, -0.021909358, -0.15837614, -66301.69, -66301.69, 0.0, 9.998481, 10.000223 
2.0848064e+3, 3.1663674e+2, -195896.9, -43024.86, -19673.266, 0.091991246, -0.1170705, -40533.684, -40533.684, 0.0, 9.998435, 10.000458 
2.0952632e+3, 1.266691e+2, -1406184.0, -1699621.5, 796.64685, -0.061439674, -0.14863142, -1406181.9, 292442.78, 0.080892436, 10.002925, 9.998696 
2.0952393e+3, 1.3666692e+2, -1343148.4, -1640275.9, -15270.209, -0.060960475, -0.22721101, -1342365.8, 258279.56, 0.05762656, 10.002688, 9.998546 
2.0952153e+3, 1.4666578e+2, -1247008.0, -1521170.6, 543.41785, -0.06313235, -0.19918428, -1247006.9, 255650.05, 0.03416663, 10.002521, 9.998771 
2.0951921e+3, 1.5666492e+2, -1167186.0, -1440427.9, -6756.2725, -0.049981914, -0.1619161, -1167019.1, 237647.47, 0.015423303, 10.002385, 9.998717 
2.0951682e+3, 1.6666369e+2, -1082516.8, -1304593.4, -23072.5, -0.04180113, -0.16866104, -1080145.0, 226533.19, 0.004541982, 10.002079, 9.9991255 
2.0951442e+3, 1.7666253e+2, -1047048.2, -1245986.1, -21002.195, -0.038412336, -0.19539951, -1044855.1, 163833.64, 0.00058404374, 10.001681, 9.999046 
2.0951205e+3, 1.8666162e+2, -962564.06, -1122788.6, -19879.71, -0.03827414, -0.19898812, -960134.3, 150563.39, 0.0000061235637, 10.001451, 9.9993305 
2.0950967e+3, 1.9666101e+2, -887301.25, -1039446.1, -26937.033, -0.039275184, -0.19264148, -882672.94, 130031.195, 0.0, 10.00131, 9.999297 
2.0950726e+3, 2.0666052e+2, -795353.44, -887416.44, -41817.848, -0.041182254, -0.19024181, -779194.6, 135513.88, 0.0, 10.001024, 9.999806 
2.0950481e+3, 2.166603e+2, -757974.4, -830199.25, -40277.688, -0.04361905, -0.19029549, -739990.6, 76719.45, 0.0, 10.000657, 9.999703 
2.0950237e+3, 2.2665998e+2, -685682.3, -727363.44, -46009.563, -0.0416049, -0.19256605, -656013.4, 62699.56, 0.0, 10.000406, 9.999857 
2.0949993e+3, 2.3665978e+2, -621563.06, -656153.75, -51919.438, -0.037025735, -0.19717313, -584134.06, 36580.75, 0.0, 10.000219, 9.9997635 
2.0949747e+3, 2.4665959e+2, -549868.0, -548226.3, -62447.31, -0.030771438, -0.19407834, -486594.47, 36122.62, 0.0, 9.999941, 9.999965 
2.0949496e+3, 2.566596e+2, -506021.0, -487046.75, -55664.46, -0.02408436, -0.18685535, -440066.75, -15348.9375, 0.0, 9.999616, 9.999869 
2.0949253e+3, 2.6665956e+2, -427540.7, -377593.63, -42702.77, -0.020537311, -0.18241906, -353097.94, -26378.51, 0.0, 9.9993925, 10.000055 
2.0949009e+3, 2.7665958e+2, -362948.1, -309901.72, -46492.797, -0.016888235, -0.18171942, -282898.66, -54178.742, 0.0, 9.999224, 9.999928 
2.0948768e+3, 2.866598e+2, -300986.16, -223490.31, -45245.758, 0.0036023252, -0.14338326, -202668.27, -71949.65, 0.0, 9.998952, 9.999979 
2.0948523e+3, 2.966604e+2, -259361.47, -166627.78, -39931.87, 0.026162697, -0.08195389, -151802.81, -119088.664, 0.0, 9.998625, 9.999855 
2.0948276e+3, 3.0665904e+2, -222907.97, -110876.17, -35309.25, -0.016663581, -0.19801937, -100676.33, -100676.33, 0.0, 9.998484, 9.9999695 
2.0948045e+3, 3.166599e+2, -177913.14, -8189.059, -22480.49, 0.06806336, -0.103942856, -5261.9297, -5261.9297, 0.0, 9.998444, 10.000694 
2.1052662e+3, 1.266925e+2, -1394007.8, -1692294.8, 4304.95, -0.065823935, -0.16807152, -1393945.6, 304448.9, 0.08301783, 10.003018, 9.998704 
2.1052417e+3, 1.3669057e+2, -1291665.0, -1614142.4, -12863.171, -0.0865007, -0.22288276, -1291152.8, 309260.22, 0.05922472, 10.003072, 9.998539 
2.1052177e+3, 1.4668937e+2, -1217241.3, -1511052.8, -1019.23926, -0.081407264, -0.19736385, -1217237.8, 285187.4, 0.0351993, 10.002758, 9.998725 
2.1051943e+3, 1.5668832e+2, -1188756.9, -1454118.1, -2110.076, -0.045952953, -0.17289084, -1188740.0, 215696.34, 0.015958209, 10.002252, 9.998687 
2.1051703e+3, 1.6668709e+2, -1087896.6, -1301049.5, -13404.782, -0.039807003, -0.18404217, -1087056.9, 219391.22, 0.0047409055, 10.002018, 9.999178 
2.105146e+3, 1.7668597e+2, -1009111.2, -1223730.5, -11417.883, -0.051391277, -0.21104728, -1008505.44, 199952.42, 0.00062479224, 10.001927, 9.99908 
2.1051218e+3, 1.8668512e+2, -945762.6, -1120540.5, -10053.906, -0.04575958, -0.2076198, -945186.2, 165280.44, 0.0000075799267, 10.001594, 9.999275 
2.1050979e+3, 1.9668454e+2, -916300.9, -1058121.0, -13780.6875, -0.030308083, -0.19024129, -914974.25, 97498.8, 0.0, 10.001134, 9.999253 
2.1050735e+3, 2.0668402e+2, -812704.3, -893778.2, -28772.18, -0.0326273, -0.19121628, -803531.3, 110946.6, 0.0, 10.000898, 9.999822 
2.1050489e+3, 2.1668372e+2, -739858.1, -820409.1, -32464.83, -0.04459558, -0.20236303, -728402.75, 88077.375, 0.0, 10.000779, 9.99971 
2.1050242e+3, 2.266834e+2, -677678.9, -725152.2, -38425.715, -0.04235748, -0.2023749, -656249.56, 62233.383, 0.0, 10.000471, 9.99984 
2.1049996e+3, 2.3668328e+2, -645472.94, -668889.3, -39560.293, -0.03211526, -0.19731459, -615924.6, 4559.6875, 0.0, 10.000062, 9.99975 
2.1049744e+3, 2.4668312e+2, -571319.2, -555649.4, -52384.48, -0.02590029, -0.19164827, -510517.13, 11969.314, 0.0, 9.9997835, 9.999989 
2.1049495e+3, 2.5668314e+2, -510763.7, -486711.34, -52820.74, -0.022549033, -0.18616906, -444565.03, -20077.871, 0.0, 9.999574, 9.99989 
2.1049246e+3, 2.6668304e+2, -438986.13, -379782.97, -35935.957, -0.021124952, -0.18591528, -362826.56, -36337.69, 0.0, 9.999302, 10.000083 
2.1048999e+3, 2.7668306e+2, -394390.56, -321968.44, -31617.572, -0.018418692, -0.19010735, -310107.53, -81618.125, 0.0, 9.998997, 9.999953 
2.1048754e+3, 2.8668344e+2, -325733.9, -231139.0, -32101.502, 0.003087391, -0.143626, -221273.92, -90786.74, 0.0, 9.998766, 10.000015 
2.104851e+3, 2.9668418e+2, -268000.7, -172415.3, -31677.377, 0.02695179, -0.06865192, -162870.4, -130389.02, 0.0, 9.998574, 9.999838 
2.1048261e+3, 3.066824e+2, -256339.66, -154399.48, -25016.004, -0.017869221, -0.21129045, -148591.5, -148591.5, 0.0, 9.998375, 9.999722 
2.1048024e+3, 3.1668323e+2, -185424.64, 39523.87, -8724.398, 0.044584002, -0.10121153, 39861.73, 39861.73, 0.0, 9.998174, 10.001151 
2.115269e+3, 1.2671565e+2, -1393396.5, -1692856.8, 4769.437, -0.07561904, -0.22602959, -1393320.5, 304846.28, 0.08512452, 10.003032, 9.998695 
2.1152446e+3, 1.3671461e+2, -1292700.3, -1615547.5, -14619.983, -0.09910333, -0.18995039, -1292039.5, 308137.47, 0.060809094, 10.003071, 9.998531 
2.1152204e+3, 1.4671336e+2, -1215499.5, -1507146.3, -20050.594, -0.09123674, -0.17111005, -1214127.5, 288062.28, 0.03622391, 10.002757, 9.998754 
2.1151966e+3, 1.567118e+2, -1185481.9, -1449286.4, -18895.568, -0.049945958, -0.20029202, -1184135.4, 220070.22, 0.016490392, 10.002259, 9.998718 
2.1151723e+3, 1.6671064e+2, -1082925.5, -1292940.4, -16915.47, -0.044771172, -0.2082415, -1081571.8, 224644.63, 0.0049402528, 10.002026, 9.999231 
2.115148e+3, 1.7670992e+2, -1005729.1, -1217999.4, -17321.242, -0.061163697, -0.20301281, -1004325.0, 203897.47, 0.00066643907, 10.00193, 9.999119 
2.1151233e+3, 1.8670906e+2, -946199.9, -1122810.3, -27674.938, -0.056954093, -0.19834758, -941964.75, 168266.34, 0.000009223164, 10.001597, 9.99926 
2.1150988e+3, 1.9670832e+2, -916963.0, -1061473.4, -28964.584, -0.040823538, -0.19579351, -911373.75, 100865.586, 0.0, 10.001141, 9.9992285 
2.1150742e+3, 2.0670775e+2, -815421.3, -901160.44, -32866.055, -0.03498858, -0.19781318, -804272.6, 109972.2, 0.0, 10.000903, 9.99977 
2.1150495e+3, 2.1670745e+2, -741992.7, -826043.0, -38295.316, -0.03520207, -0.20277265, -727161.5, 89085.51, 0.0, 10.000782, 9.999672 
2.1150246e+3, 2.2670712e+2, -674131.2, -719051.25, -53635.37, -0.037886564, -0.20600268, -638443.06, 79806.92, 0.0, 10.000474, 9.999882 
2.1149993e+3, 2.3670696e+2, -643418.1, -666147.2, -53434.234, -0.041064397, -0.20895204, -600153.25, 20098.404, 0.0, 10.000067, 9.999768 
2.1149741e+3, 2.4670678e+2, -576405.9, -567780.75, -60055.266, -0.026728285, -0.19963342, -511883.4, 10370.785, 0.0, 9.999788, 9.999905 
2.114949e+3, 2.567068e+2, -513454.8, -493910.25, -61134.848, -0.004582532, -0.18452966, -441771.6, -17516.287, 0.0, 9.999578, 9.99984 
2.1149239e+3, 2.6670685e+2, -428829.06, -360174.2, -47715.48, -0.00997321, -0.17753468, -335721.2, -9465.565, 0.0, 9.999306, 10.0002165 
2.1148987e+3, 2.7670705e+2, -386812.9, -307261.1, -42785.664, -0.026888082, -0.17646767, -288618.38, -60364.51, 0.0, 9.998999, 10.000054 
2.114874e+3, 2.8670722e+2, -328859.75, -238676.47, -39739.29, -0.007941562, -0.15212914, -223664.31, -93410.65, 0.0, 9.998768, 9.999964 
2.1148494e+3, 2.967075e+2, -273963.4, -186322.42, -39541.363, 0.020967051, -0.11336606, -171119.56, -138867.31, 0.0, 9.998578, 9.999742 
2.1148245e+3, 3.067062e+2, -273521.63, -191297.67, -34036.89, -0.02626462, -0.1945688, -179036.39, -179036.39, 0.0, 9.998377, 9.999469 
2.1148005e+3, 3.1670654e+2, -136413.06, 141079.13, -14738.808, 0.023555897, -0.114755064, 141859.78, 141859.78, 0.0, 9.998172, 10.001851 
2.125272e+3, 1.2673956e+2, -1346024.0, -1671260.9, 21821.432, -0.097583085, -0.24276613, -1344566.5, 353365.0, 0.087195285, 10.003403, 9.998677 
2.1252479e+3, 1.3673864e+2, -1317078.1, -1629465.1, 2427.1272, -0.08709016, -0.19265035, -1317059.3, 282881.44, 0.062361255, 10.002905, 9.998514 
2.1252231e+3, 1.4673735e+2, -1231682.3, -1514749.6, -6784.2056, -0.08389635, -0.17638132, -1231519.8, 270434.06, 0.03722527, 10.0026455, 9.998754 
2.1251987e+3, 1.5673572e+2, -1150814.4, -1432721.3, -7273.3047, -0.067048326, -0.21406038, -1150626.9, 253343.45, 0.017010711, 10.002507, 9.998711 
2.1251743e+3, 1.6673456e+2, -1053954.5, -1282032.1, -6989.748, -0.058890518, -0.22021367, -1053740.5, 252240.77, 0.0051362677, 10.002241, 9.999201 
2.1251497e+3, 1.7673385e+2, -1009907.8, -1222016.3, -14675.043, -0.058317892, -0.20776008, -1008897.3, 199089.92, 0.0007080475, 10.001913, 9.999098 
2.125125e+3, 1.8673305e+2, -937117.8, -1114216.5, -29310.31, -0.056687362, -0.20023191, -932392.94, 177602.61, 0.000011018927, 10.001644, 9.999295 
2.1251e+3, 1.9673234e+2, -877285.06, -1039682.0, -27006.813, -0.053036213, -0.19728899, -872911.56, 139091.83, 0.0, 10.001404, 9.999249 
2.1250752e+3, 2.0673175e+2, -798697.9, -896692.4, -26919.99, -0.04327441, -0.2006168, -791789.7, 122219.45, 0.0, 10.001037, 9.999736 
2.1250503e+3, 2.167314e+2, -769813.44, -841943.06, -31733.346, -0.031035569, -0.20756419, -757840.0, 58171.945, 0.0, 10.000605, 9.999647 
2.125025e+3, 2.2673106e+2, -692465.3, -723293.3, -47727.895, -0.03256191, -0.21153417, -657724.1, 60290.83, 0.0, 10.000331, 9.99992 
2.1249995e+3, 2.3673093e+2, -631348.7, -657258.06, -48166.742, -0.040419333, -0.21469997, -594424.94, 25591.355, 0.0, 10.000138, 9.999794 
2.1249738e+3, 2.4673079e+2, -571937.3, -567313.25, -51424.105, -0.02639708, -0.20373683, -518149.22, 3869.5703, 0.0, 9.999828, 9.999887 
2.1249485e+3, 2.5673082e+2, -532083.9, -504142.75, -47788.21, -0.002274929, -0.18588993, -468324.84, -44304.883, 0.0, 9.999458, 9.999826 
2.1249232e+3, 2.667309e+2, -449065.0, -367759.03, -38383.945, -0.009423224, -0.17435817, -352501.44, -26481.629, 0.0, 9.99916, 10.000234 
2.1248977e+3, 2.7673116e+2, -400257.9, -311788.28, -41556.27, -0.029910788, -0.16839191, -295330.06, -67312.73, 0.0, 9.9989, 10.000071 
2.1248728e+3, 2.8673115e+2, -335837.38, -238925.83, -34493.652, -0.014451134, -0.1635017, -227902.42, -97883.6, 0.0, 9.998709, 9.9999895 
2.1248479e+3, 2.967312e+2, -278867.0, -188004.23, -29232.412, 0.010786364, -0.15429328, -179412.06, -147392.02, 0.0, 9.998544, 9.999745 
2.1248227e+3, 3.0673072e+2, -299498.38, -208805.73, -15363.961, -0.02726309, -0.14539772, -206273.67, -206273.67, 0.0, 9.998222, 9.999421 
2.1247983e+3, 3.1673038e+2, -171843.11, 146586.61, 17252.053, 0.005973127, -0.13303915, 147518.56, 147518.56, 0.0, 9.997834, 10.00205 
2.1352749e+3, 1.2676421e+2, -1348214.8, -1675897.8, 2819.407, -0.13098282, -0.22358379, -1348190.5, 349498.38, 0.089213125, 10.0034075, 9.998641 
2.135251e+3, 1.3676272e+2, -1318497.0, -1634411.3, -13754.04, -0.052589286, -0.22771086, -1317899.4, 281804.13, 0.06386603, 10.002914, 9.998477 
2.1352261e+3, 1.4676142e+2, -1232914.8, -1519377.9, -12173.251, -0.061119396, -0.21007852, -1232398.4, 269318.38, 0.03819201, 10.002654, 9.998719 
2.135201e+3, 1.5676005e+2, -1153726.6, -1440157.6, -13992.341, -0.096645296, -0.215081, -1153044.8, 250685.89, 0.017512362, 10.002511, 9.998659 
2.1351762e+3, 1.667588e+2, -1061556.9, -1299013.1, -19519.436, -0.08152285, -0.22092566, -1059963.0, 245779.83, 0.0053258575, 10.002245, 9.9990835 
2.1351519e+3, 1.7675783e+2, -1015269.8, -1234530.8, -26474.018, -0.0435989, -0.22465883, -1012118.56, 195633.36, 0.00074871694, 10.001917, 9.999012 
2.1351267e+3, 1.8675707e+2, -931197.56, -1103233.1, -38124.63, -0.045737397, -0.21266645, -923127.4, 186632.45, 0.0000129273485, 10.001647, 9.99937 
2.1351013e+3, 1.967566e+2, -872819.06, -1031530.7, -37041.785, -0.06711925, -0.19493277, -864599.56, 147165.8, 0.0, 10.001406, 9.999306 
2.135076e+3, 2.06756e+2, -799910.4, -900471.94, -43042.516, -0.057367783, -0.19973692, -784003.44, 129767.66, 0.0, 10.0010395, 9.999709 
2.1350507e+3, 2.1675552e+2, -770388.94, -844704.0, -46082.707, -0.032061487, -0.21634442, -748349.4, 67425.73, 0.0, 10.000608, 9.999627 
2.1350254e+3, 2.267552e+2, -689874.0, -719544.2, -54576.313, -0.02637996, -0.21876797, -648152.44, 69625.57, 0.0, 10.000336, 9.999945 
2.1349995e+3, 2.3675516e+2, -628874.1, -653612.25, -56232.457, -0.0303918, -0.21470931, -583666.44, 36112.21, 0.0, 10.000143, 9.999818 
2.1349739e+3, 2.4675505e+2, -568231.3, -561167.56, -65303.473, -0.025181226, -0.20408043, -499300.53, 22480.164, 0.0, 9.999833, 9.999928 
2.134948e+3, 2.5675508e+2, -530325.7, -501886.28, -60955.957, -0.016163308, -0.19023775, -453513.4, -29731.8, 0.0, 9.999462, 9.999842 
2.1349221e+3, 2.6675513e+2, -456266.78, -384068.66, -48399.883, -0.019719955, -0.17652433, -359788.16, -34006.164, 0.0, 9.999163, 10.000121 
2.1348965e+3, 2.7675533e+2, -405204.56, -323548.75, -50996.535, -0.027371233, -0.16614893, -299050.06, -71269.52, 0.0, 9.998904, 9.999989 
2.1348713e+3, 2.8675514e+2, -328211.0, -224682.7, -41213.26, -0.016469048, -0.17791392, -210279.95, -80496.6, 0.0, 9.998713, 10.000087 
2.1348462e+3, 2.967551e+2, -270969.94, -173098.86, -37887.39, -0.0040883496, -0.19121782, -160146.27, -128360.75, 0.0, 9.9985485, 9.999847 
2.1348208e+3, 3.06756e+2, -287483.4, -184530.11, -31215.443, -0.020300804, -0.060783744, -175805.02, -175805.02, 0.0, 9.998223, 9.999589 
2.134796e+3, 3.1675473e+2, -199385.81, 89668.24, 3598.689, -0.009005221, -0.15125717, 89713.04, 89713.04, 0.0, 9.99783, 10.001662 
2.1452786e+3, 1.2678888e+2, -1321860.8, -1664401.4, 9053.402, -0.13390677, -0.23290285, -1321621.6, 375824.63, 0.09116392, 10.003622, 9.998624 
2.1452539e+3, 1.3678738e+2, -1281422.5, -1617462.3, -4191.5986, -0.06278459, -0.23651859, -1281370.3, 318090.7, 0.06531552, 10.003203, 9.998453 
2.1452288e+3, 1.4678602e+2, -1206515.9, -1509922.8, 4490.05, -0.073057935, -0.21988818, -1206449.4, 295025.2, 0.039119765, 10.002864, 9.998681 
2.1452034e+3, 1.5678464e+2, -1148270.3, -1441509.8, 1620.0935, -0.108074225, -0.22401008, -1148261.3, 255227.45, 0.017992288, 10.00257, 9.99862 
2.1451785e+3, 1.6678335e+2, -1063227.3, -1303933.8, -3944.504, -0.087847345, -0.23074003, -1063162.6, 242338.88, 0.005506994, 10.0022545, 9.999043 
2.1451539e+3, 1.7678231e+2, -1016472.75, -1238673.5, -5648.5083, -0.042373486, -0.23641616, -1016329.25, 191182.28, 0.00078764785, 10.001926, 9.998977 
2.1451284e+3, 1.8678157e+2, -935974.75, -1104469.5, -17258.705, -0.044108164, -0.22124726, -934225.1, 175294.08, 0.000014882025, 10.001613, 9.999377 
2.1451025e+3, 1.9678116e+2, -887358.5, -1038166.06, -22198.031, -0.06884658, -0.19775212, -884158.94, 127365.12, 0.0, 10.0013075, 9.999307 
2.1450768e+3, 2.0678051e+2, -806526.5, -905826.3, -33080.54, -0.062294625, -0.20540309, -796515.44, 117014.85, 0.0, 10.001005, 9.999688 
2.1450515e+3, 2.1677993e+2, -758275.9, -841472.6, -35624.746, -0.039873984, -0.22888817, -745106.1, 70429.11, 0.0, 10.000706, 9.999601 
2.1450256e+3, 2.2677965e+2, -680536.44, -718093.4, -42857.133, -0.03139839, -0.2248343, -652524.25, 65013.914, 0.0, 10.000415, 9.999915 
2.1449998e+3, 2.367797e+2, -632088.44, -656804.25, -49274.723, -0.029758813, -0.20793332, -593645.56, 25892.64, 0.0, 10.00013, 9.999801 
2.1449736e+3, 2.4677959e+2, -558814.2, -550386.3, -61406.582, -0.02582151, -0.20035471, -493049.22, 28491.002, 0.0, 9.999872, 9.999983 
2.1449472e+3, 2.5677958e+2, -504295.66, -485721.72, -56460.047, -0.02147013, -0.19728066, -437789.94, -14248.646, 0.0, 9.999627, 9.999872 
2.1449214e+3, 2.6677963e+2, -439656.8, -382819.03, -41289.313, -0.021191653, -0.17988488, -361113.66, -35571.992, 0.0, 9.999308, 10.000059 
2.1448955e+3, 2.767799e+2, -401776.1, -327256.06, -40046.76, -0.020830935, -0.15939263, -309816.4, -82276.2, 0.0, 9.998953, 9.999939 
2.1448699e+3, 2.8677964e+2, -351290.7, -233023.98, -32594.893, -0.015335813, -0.17747976, -224635.64, -95092.05, 0.0, 9.998545, 10.00011 
2.1448445e+3, 2.9677945e+2, -330460.3, -194375.66, -34395.52, -0.01440396, -0.20268477, -186176.19, -154629.89, 0.0, 9.99811, 9.999911 
2.144819e+3, 3.067808e+2, -306135.6, -162673.73, -20822.691, -0.0067454944, -0.04622507, -159712.55, -159712.55, 0.0, 9.997965, 9.999863 
2.1447937e+3, 3.1677943e+2, -219340.5, 22081.625, 13984.257, -0.021140875, -0.16583191, 22888.955, 22888.955, 0.0, 9.997945, 10.001141 
2.1552822e+3, 1.2681364e+2, -1323203.0, -1665993.1, -6947.014, -0.110674754, -0.2679121, -1323062.4, 374140.53, 0.09303584, 10.003621, 9.998613 
2.1552566e+3, 1.3681263e+2, -1282709.1, -1620660.5, -19010.867, -0.11401116, -0.22135335, -1281643.1, 317569.84, 0.06670477, 10.003206, 9.998431 
2.155231e+3, 1.468112e+2, -1209371.5, -1517213.1, -6627.2803, -0.116478264, -0.2080967, -1209228.9, 291998.38, 0.040006436, 10.002869, 9.998631 
2.1552058e+3, 1.5680948e+2, -1150148.0, -1446921.9, -9811.411, -0.102559395, -0.24027623, -1149824.0, 253420.33, 0.01844864, 10.002575, 9.998582 
2.1551807e+3, 1.6680817e+2, -1060893.9, -1300521.3, -16460.053, -0.07930537, -0.24885498, -1059768.5, 245488.72, 0.005678194, 10.002258, 9.999066 
2.1551555e+3, 1.7680725e+2, -1015504.75, -1237974.8, -18087.43, -0.054157577, -0.2432407, -1014043.75, 193222.2, 0.0008241895, 10.001929, 9.998981 
2.1551299e+3, 1.868065e+2, -940012.6, -1114255.4, -28777.617, -0.051250383, -0.22616288, -935382.75, 173891.11, 0.000016789034, 10.001616, 9.99931 
2.155104e+3, 1.9680598e+2, -890955.7, -1047053.6, -33522.152, -0.05872601, -0.20555274, -884061.25, 127218.4, 0.0, 10.001311, 9.999245 
2.1550779e+3, 2.0680526e+2, -807756.1, -909855.8, -44104.6, -0.05856963, -0.21739961, -791342.6, 121944.164, 0.0, 10.00101, 9.99966 
2.155052e+3, 2.1680461e+2, -760458.8, -847481.3, -46461.332, -0.05463914, -0.24521513, -740315.6, 74977.05, 0.0, 10.00071, 9.999559 
2.1550259e+3, 2.2680438e+2, -686142.4, -731262.1, -53309.152, -0.047594626, -0.22978288, -650816.0, 66479.63, 0.0, 10.00042, 9.999825 
2.1549998e+3, 2.3680453e+2, -635926.94, -666333.4, -59509.59, -0.03855818, -0.19417396, -589709.25, 29586.137, 0.0, 10.000134, 9.999735 
2.1549734e+3, 2.4680437e+2, -553985.94, -542083.06, -70402.73, -0.028309517, -0.19244854, -477380.7, 43917.09, 0.0, 9.999878, 10.000038 
2.154947e+3, 2.5680423e+2, -500693.53, -480121.4, -66359.05, -0.01830831, -0.20707595, -423255.94, 43.591743, 0.0, 9.999633, 9.999909 
2.1549207e+3, 2.668043e+2, -439954.78, -385339.06, -54932.99, -0.013840067, -0.18446904, -351300.75, -26001.328, 0.0, 9.999313, 10.00004 
2.1548945e+3, 2.7680472e+2, -402854.06, -331137.34, -54248.133, -0.010259964, -0.14791292, -301967.4, -74670.48, 0.0, 9.998958, 9.999911 
2.1548684e+3, 2.8680447e+2, -355331.38, -242304.27, -50030.777, -0.010921817, -0.16126521, -223340.27, -94040.14, 0.0, 9.998546, 10.000046 
2.1548425e+3, 2.9680422e+2, -329516.3, -192361.31, -49053.02, -0.020194931, -0.18717828, -176623.5, -145320.47, 0.0, 9.998107, 9.9999275 
2.1548171e+3, 3.0680498e+2, -279337.3, -107792.13, -20998.295, 0.013832238, -0.10887843, -105259.2, -105259.2, 0.0, 9.997966, 10.00024 
2.1547915e+3, 3.1680477e+2, -266655.53, -78383.27, -880.8016, -0.030413901, -0.14375529, -78379.16, -78379.16, 0.0, 9.997952, 10.000449 
2.165286e+3, 1.2683903e+2, -1335104.3, -1675968.0, 4942.782, -0.11939678, -0.2714391, -1335032.6, 361920.66, 0.09481582, 10.003561, 9.998566 
2.1652597e+3, 1.3683791e+2, -1272535.6, -1619412.8, -8694.656, -0.12518068, -0.22924012, -1272317.8, 326646.5, 0.0680243, 10.003305, 9.99839 
2.165234e+3, 1.4683644e+2, -1191529.8, -1507708.0, 5825.9727, -0.12511402, -0.21926327, -1191422.5, 309556.47, 0.040845696, 10.002999, 9.9986315 
2.1652085e+3, 1.5683474e+2, -1137841.9, -1441633.9, 5509.2305, -0.10583752, -0.25174692, -1137742.0, 265253.88, 0.01887772, 10.002668, 9.998571 
2.1651828e+3, 1.6683343e+2, -1056551.6, -1302980.0, -4555.6763, -0.082555085, -0.25398123, -1056467.5, 248541.23, 0.0058378065, 10.002311, 9.9990225 
2.1651572e+3, 1.7683259e+2, -1016366.4, -1242449.3, -11000.438, -0.060445666, -0.23940174, -1015832.44, 191184.86, 0.0008577964, 10.001944, 9.998942 
2.1651314e+3, 1.8683171e+2, -940070.6, -1114744.5, -19381.121, -0.05488887, -0.23101562, -937946.0, 171080.08, 0.000018546296, 10.00162, 9.999303 
2.1651052e+3, 1.9683102e+2, -891134.94, -1048774.0, -20249.49, -0.056618918, -0.22733209, -888575.4, 122457.914, 0.0, 10.001319, 9.999228 
2.1650791e+3, 2.0683032e+2, -806239.0, -913956.44, -30039.252, -0.05805559, -0.2328471, -798428.25, 114612.07, 0.0, 10.001043, 9.999614 
2.1650527e+3, 2.168298e+2, -753823.25, -849412.75, -34228.37, -0.059481427, -0.2430061, -742830.94, 72214.46, 0.0, 10.00078, 9.999511 
2.165026e+3, 2.2682953e+2, -680290.06, -733520.5, -40201.508, -0.051180866, -0.226122, -658691.9, 58357.14, 0.0, 10.0004835, 9.999777 
2.1649997e+3, 2.3682958e+2, -633130.9, -668476.56, -43512.074, -0.037541542, -0.19698647, -603839.6, 15210.413, 0.0, 10.000171, 9.9997015 
2.1649732e+3, 2.468294e+2, -555154.25, -537112.1, -53596.523, -0.029852767, -0.19581911, -491782.78, 29269.398, 0.0, 9.999848, 10.000086 
2.1649465e+3, 2.5682932e+2, -514444.9, -482324.22, -50518.152, -0.025776364, -0.20840919, -445374.97, -22321.95, 0.0, 9.999521, 9.999947 
2.16492e+3, 2.668294e+2, -450730.13, -389220.63, -38735.207, -0.018626433, -0.1903143, -370515.6, -45462.402, 0.0, 9.999236, 10.00005 
2.1648936e+3, 2.7682972e+2, -401709.75, -329776.6, -37183.58, -0.008143011, -0.1607386, -314011.03, -86959.555, 0.0, 9.998964, 9.999916 
2.1648669e+3, 2.8682965e+2, -357085.84, -243052.89, -34272.55, -0.0104220165, -0.15724856, -233545.03, -104492.09, 0.0, 9.998536, 10.000045 
2.1648404e+3, 2.9682964e+2, -337536.63, -193488.28, -25825.852, -0.025054345, -0.15744615, -188998.03, -157944.98, 0.0, 9.998043, 9.999949 
2.1648152e+3, 3.068295e+2, -289001.56, -100043.14, 3763.6724, 0.017962083, -0.18052718, -99968.2, -99968.2, 0.0, 9.9978485, 10.000349 
2.1647893e+3, 3.168302e+2, -304049.5, -104765.63, -9074.321, -0.02936986, -0.13225496, -104353.29, -104353.29, 0.0, 9.997734, 10.000371 
2.1752888e+3, 1.2686504e+2, -1341161.3, -1688178.6, -5464.3555, -0.1563674, -0.24789575, -1341075.3, 355622.16, 0.09649051, 10.003563, 9.998473 
2.1752632e+3, 1.3686334e+2, -1277212.1, -1629614.5, -18993.732, -0.1002064, -0.2581357, -1276191.3, 322523.16, 0.06926157, 10.003306, 9.998322 
2.1752371e+3, 1.4686182e+2, -1189004.1, -1502299.9, -6719.1196, -0.10259986, -0.25108546, -1188860.1, 311869.34, 0.041628785, 10.002999, 9.99867 
2.1752109e+3, 1.5686038e+2, -1137253.3, -1440779.5, -7534.35, -0.1174456, -0.25853214, -1137066.4, 265677.16, 0.0192755, 10.002668, 9.998579 
2.1751851e+3, 1.6685916e+2, -1064165.6, -1319948.9, -18652.703, -0.09667399, -0.2469937, -1062812.6, 241943.31, 0.0059846696, 10.002314, 9.998906 
2.1751592e+3, 1.7685826e+2, -1021717.25, -1255205.3, -24485.482, -0.06164857, -0.225563, -1019177.1, 187588.28, 0.00088817236, 10.001948, 9.998854 
2.1751331e+3, 1.868572e+2, -936297.4, -1108743.5, -30649.549, -0.055428058, -0.2358656, -931011.94, 177763.97, 0.000020075104, 10.001626, 9.999343 
2.1751064e+3, 1.9685625e+2, -889004.6, -1046155.4, -31241.92, -0.062397808, -0.26250672, -883021.44, 127763.5, 0.0, 10.001325, 9.999245 
2.17508e+3, 2.0685567e+2, -810404.2, -924337.1, -39646.934, -0.06060585, -0.25144544, -797965.6, 114825.37, 0.0, 10.001048, 9.999541 
2.1750535e+3, 2.1685547e+2, -757508.44, -858616.56, -44099.086, -0.054609656, -0.22242749, -740977.2, 73816.484, 0.0, 10.000784, 9.999447 
2.1750268e+3, 2.2685507e+2, -680600.4, -735731.94, -51657.254, -0.042386398, -0.21397066, -649614.1, 67184.41, 0.0, 10.000488, 9.999761 
2.175e+3, 2.3685478e+2, -633064.4, -669857.75, -55256.316, -0.027026217, -0.21641628, -593222.75, 25579.701, 0.0, 10.0001745, 9.999691 
2.1749732e+3, 2.4685468e+2, -552228.5, -532628.9, -65851.445, -0.030694852, -0.21044688, -475852.03, 44951.84, 0.0, 9.999852, 10.000115 
2.1749458e+3, 2.5685486e+2, -511688.9, -478113.3, -62305.176, -0.04420888, -0.20098922, -430373.88, -7571.7407, 0.0, 9.999526, 9.999974 
2.174919e+3, 2.6685482e+2, -447828.56, -384713.7, -48961.137, -0.035920795, -0.19767779, -358021.1, -33217.633, 0.0, 9.99924, 10.00008 
2.1748923e+3, 2.7685487e+2, -398755.53, -325337.9, -49381.527, -0.015202131, -0.19925593, -300515.66, -73711.055, 0.0, 9.998969, 9.999946 
2.1748655e+3, 2.868551e+2, -352430.94, -234809.27, -53804.895, -0.014303785, -0.16589817, -213910.13, -85107.516, 0.0, 9.998539, 10.000101 
2.1748383e+3, 2.9685572e+2, -335948.25, -191258.0, -41633.2, -0.028990578, -0.11202711, -180133.73, -149336.98, 0.0, 9.998045, 9.999966 
2.1748127e+3, 3.068542e+2, -301914.75, -128156.2, 761.1816, 0.0040958608, -0.262878, -128152.87, -128152.87, 0.0, 9.997851, 10.000155 
2.174787e+3, 3.1685567e+2, -259819.89, -13739.12, -35371.566, -0.011846363, -0.11982927, -8755.742, -8755.742, 0.0, 9.997735, 10.000998 
2.1852925e+3, 1.2689097e+2, -1335672.1, -1687620.6, -1339.8379, -0.15975752, -0.25282386, -1335667.0, 360775.63, 0.09805127, 10.003623, 9.998447 
2.1852663e+3, 1.3688919e+2, -1282616.3, -1633684.0, -10357.169, -0.1107461, -0.26674026, -1282311.0, 316149.44, 0.070408754, 10.003278, 9.998305 
2.18524e+3, 1.4688769e+2, -1196222.3, -1502126.6, 1898.4634, -0.109756604, -0.2592847, -1196210.4, 304264.78, 0.042350892, 10.002936, 9.998699 
2.1852136e+3, 1.5688634e+2, -1146334.0, -1442915.1, 279.3921, -0.11682261, -0.2622453, -1146333.8, 256154.77, 0.019640561, 10.002599, 9.998596 
2.1851872e+3, 1.6688508e+2, -1065851.6, -1322770.8, -5985.221, -0.0997414, -0.25357747, -1065712.4, 238788.86, 0.006118843, 10.002314, 9.998885 
2.1851611e+3, 1.7688408e+2, -1008010.8, -1250950.4, -5620.9897, -0.073665805, -0.23861946, -1007880.8, 198630.73, 0.0009154211, 10.002055, 9.998831 
2.1851346e+3, 1.86883e+2, -916541.8, -1101597.0, -12636.951, -0.06570281, -0.24762262, -915682.9, 192839.31, 0.000021349408, 10.001774, 9.999319 
2.1851079e+3, 1.9688207e+2, -867785.94, -1038220.5, -18097.777, -0.06575112, -0.2693901, -865885.44, 144645.6, 0.0, 10.001483, 9.999221 
2.1850811e+3, 2.068815e+2, -791373.06, -916644.44, -25181.86, -0.06043812, -0.25565565, -786500.56, 126036.516, 0.0, 10.001188, 9.999526 
2.1850543e+3, 2.168813e+2, -743313.94, -853093.1, -26395.893, -0.052549195, -0.22479247, -737296.94, 77242.914, 0.0, 10.00089, 9.999433 
2.1850273e+3, 2.2688088e+2, -673019.75, -731957.9, -33903.688, -0.041359324, -0.2186891, -657567.94, 58977.047, 0.0, 10.000542, 9.999759 
2.1850002e+3, 2.3688054e+2, -633800.6, -669847.25, -36537.793, -0.028412871, -0.22577551, -611082.7, 7466.6997, 0.0, 10.000171, 9.999692 
2.1849729e+3, 2.4688043e+2, -552787.2, -530263.4, -46756.27, -0.031345613, -0.22059852, -493431.84, 27118.805, 0.0, 9.99984, 10.000137 
2.1849453e+3, 2.5688064e+2, -510643.53, -475706.94, -44157.51, -0.042680576, -0.20992099, -445688.13, -23139.586, 0.0, 9.999527, 9.9999895 
2.184918e+3, 2.668806e+2, -457234.22, -388875.0, -32686.807, -0.03834858, -0.20610963, -375761.13, -51211.22, 0.0, 9.999177, 10.000081 
2.1848911e+3, 2.7688065e+2, -421055.44, -333766.7, -36306.746, -0.024303775, -0.20736705, -320639.5, -94088.24, 0.0, 9.998808, 9.999965 
2.184864e+3, 2.86881e+2, -357366.88, -224020.17, -41854.195, -0.015484097, -0.17127311, -211971.8, -83423.65, 0.0, 9.998451, 10.0002165 
2.1848367e+3, 2.9688174e+2, -325565.44, -181141.03, -24181.092, -0.01581997, -0.11491284, -177199.92, -146659.2, 0.0, 9.998096, 10.000009 
2.1848103e+3, 3.0687994e+2, -351636.94, -179509.17, 19933.38, -0.010107239, -0.27836612, -177230.92, -177230.92, 0.0, 9.99763, 9.999908 
2.1847847e+3, 3.1688142e+2, -310681.38, 32389.432, -33361.8, 0.0061364947, -0.124292724, 35603.574, 35603.574, 0.0, 9.997085, 10.001626 
2.1952964e+3, 1.2691687e+2, -1334563.8, -1684337.5, -14314.086, -0.13453533, -0.28326, -1333978.9, 362209.16, 0.099500686, 10.003621, 9.998474 
2.195269e+3, 1.3691553e+2, -1280960.9, -1630348.5, -22866.89, -0.15351954, -0.25669357, -1279470.6, 318731.38, 0.071469806, 10.00328, 9.998329 
2.1952425e+3, 1.4691408e+2, -1195050.4, -1500526.4, -10673.589, -0.1436203, -0.24610592, -1194677.9, 305538.38, 0.043016076, 10.00294, 9.998711 
2.1952163e+3, 1.5691258e+2, -1144564.5, -1440325.5, -12010.145, -0.10515825, -0.26321852, -1144077.6, 258152.95, 0.019976018, 10.002602, 9.998613 
2.1951897e+3, 1.6691118e+2, -1061006.8, -1314118.3, -15834.547, -0.09294457, -0.27275392, -1060020.0, 244224.34, 0.006242001, 10.002317, 9.998944 
2.1951628e+3, 1.7691004e+2, -1005308.0, -1246899.4, -15784.048, -0.09600182, -0.27679846, -1004281.1, 201974.4, 0.0009401602, 10.00206, 9.9988575 
2.195136e+3, 1.8690914e+2, -922364.2, -1115209.3, -23663.941, -0.085187554, -0.2656184, -919502.8, 188762.14, 0.000022413657, 10.001779, 9.999225 
2.1951094e+3, 1.9690849e+2, -872146.6, -1048642.1, -29034.055, -0.066828564, -0.24899046, -867493.1, 142778.53, 0.0, 10.001487, 9.999149 
2.1950823e+3, 2.0690781e+2, -788555.06, -912151.56, -36144.223, -0.05777221, -0.24609712, -778761.25, 133517.52, 0.0, 10.001191, 9.999557 
2.1950552e+3, 2.169073e+2, -741013.5, -849631.25, -37724.055, -0.053550992, -0.24972305, -729197.06, 85087.07, 0.0, 10.000893, 9.999456 
2.1950276e+3, 2.2690693e+2, -671945.0, -731188.25, -47696.273, -0.04819825, -0.23992385, -645420.6, 70868.08, 0.0, 10.0005455, 9.9997635 
2.1950002e+3, 2.369068e+2, -632844.1, -669427.7, -49972.0, -0.041770987, -0.22492161, -597921.3, 20369.676, 0.0, 10.000175, 9.999694 
2.1949726e+3, 2.4690664e+2, -551806.8, -529862.25, -58404.375, -0.031667467, -0.22630994, -481408.44, 38884.44, 0.0, 9.999845, 10.000138 
2.1949448e+3, 2.5690666e+2, -510377.9, -476781.84, -56286.445, -0.02094894, -0.23555091, -434840.3, -12547.646, 0.0, 9.999532, 9.999981 
2.1949172e+3, 2.6690674e+2, -459273.0, -394591.0, -46896.832, -0.025805006, -0.2153106, -369964.88, -45671.9, 0.0, 9.999181, 10.000041 
2.19489e+3, 2.769071e+2, -420580.44, -333910.16, -50579.605, -0.03566951, -0.18349989, -310640.25, -84348.4, 0.0, 9.998811, 9.999964 
2.1948624e+3, 2.869073e+2, -345098.16, -199675.83, -55611.367, -0.013608321, -0.17372088, -180847.19, -52556.984, 0.0, 9.998453, 10.000384 
2.194835e+3, 2.9690766e+2, -320262.66, -171960.53, -38920.797, 0.0153330015, -0.1699311, -162366.7, -132080.75, 0.0, 9.998102, 10.000071 
2.1948078e+3, 3.069068e+2, -373833.22, -226285.27, -1380.2357, -0.025474245, -0.22010383, -226272.34, -226272.34, 0.0, 9.99763, 9.999589 
2.194782e+3, 3.1690705e+2, -267870.7, 123269.21, -57965.67, 0.026610602, -0.16495228, 131678.73, 131678.73, 0.0, 9.997074, 10.002257 
2.2052997e+3, 1.2694341e+2, -1345034.6, -1689303.9, 6185.028, -0.145485, -0.29286364, -1344923.5, 351003.56, 0.10084932, 10.003549, 9.99847 
2.2052725e+3, 1.3694206e+2, -1272146.6, -1625409.6, -4100.919, -0.16004026, -0.2656633, -1272099.0, 325842.03, 0.07245561, 10.003349, 9.998328 
2.2052453e+3, 1.469406e+2, -1178744.5, -1490108.0, 5619.235, -0.15053616, -0.25712085, -1178643.1, 321312.3, 0.043632787, 10.00305, 9.998731 
2.2052188e+3, 1.569391e+2, -1129803.8, -1431083.9, 5334.6787, -0.11454183, -0.27606872, -1129709.4, 272260.25, 0.020286694, 10.0027, 9.998629 
2.2051919e+3, 1.6693771e+2, -1049243.9, -1307944.1, 1286.774, -0.1008421, -0.2846522, -1049237.5, 254745.67, 0.006356315, 10.002399, 9.998946 
2.2051647e+3, 1.7693661e+2, -996785.7, -1243706.5, -3405.6685, -0.10096741, -0.2867309, -996738.7, 209255.45, 0.00096326123, 10.002125, 9.998846 
2.2051378e+3, 1.8693565e+2, -920545.25, -1120533.3, -12380.88, -0.08846916, -0.2743441, -919781.7, 188222.34, 0.000023369355, 10.00182, 9.9991665 
2.2051106e+3, 1.9693497e+2, -872721.44, -1052382.3, -15695.656, -0.06873182, -0.2564876, -871360.5, 138650.97, 0.0, 10.0015, 9.999116 
2.2050832e+3, 2.0693427e+2, -787029.25, -902308.5, -20335.973, -0.058656257, -0.257182, -783547.06, 128471.37, 0.0, 10.001165, 9.999635 
2.205056e+3, 2.1693377e+2, -746953.3, -845423.56, -19344.854, -0.053673208, -0.26707947, -743289.25, 70733.914, 0.0, 10.000824, 9.999517 
2.2050281e+3, 2.2693342e+2, -681383.8, -735733.06, -29781.322, -0.04824922, -0.25705668, -668242.4, 47785.113, 0.0, 10.0004835, 9.999762 
2.2050002e+3, 2.3693334e+2, -638330.9, -672945.7, -32834.734, -0.042018957, -0.23846047, -618521.4, -491.72195, 0.0, 10.000144, 9.999683 
2.2049724e+3, 2.4693316e+2, -562297.94, -538468.75, -42910.8, -0.029608062, -0.23689064, -505849.16, 14182.598, 0.0, 9.99979, 10.000104 
2.2049443e+3, 2.5693315e+2, -527652.8, -487908.7, -44194.52, -0.015353752, -0.2434456, -459324.0, -37292.15, 0.0, 9.999428, 9.999953 
2.2049165e+3, 2.6693332e+2, -482174.8, -403509.75, -35092.195, -0.02119738, -0.21974726, -390130.7, -66098.875, 0.0, 9.999017, 10.000057 
2.2048885e+3, 2.769337e+2, -452691.4, -347731.44, -34143.863, -0.033802923, -0.18478487, -337601.9, -111571.836, 0.0, 9.998586, 9.999975 
2.2048609e+3, 2.869337e+2, -364418.06, -208312.6, -42465.54, -0.007486132, -0.19576965, -197508.4, -69477.945, 0.0, 9.998321, 10.000387 
2.2048332e+3, 2.9693377e+2, -315521.63, -166884.34, -40025.184, 0.027239423, -0.22063427, -156791.64, -126762.44, 0.0, 9.998125, 10.000093 
2.2048052e+3, 3.0693406e+2, -375174.72, -209953.95, 5840.749, -0.041132245, -0.16737717, -209747.73, -209747.73, 0.0, 9.997551, 9.999738 
2.2047791e+3, 3.1693354e+2, -297775.4, 116598.516, -14458.584, 0.050562605, -0.20500468, 117102.41, 117102.41, 0.0, 9.996838, 10.002324 
2.2153027e+3, 1.2697056e+2, -1346069.9, -1694420.6, -1384.4547, -0.18850547, -0.284654, -1346064.4, 349595.2, 0.1021057, 10.003566, 9.998425 
2.2152759e+3, 1.3696884e+2, -1274444.8, -1630701.1, -12403.729, -0.1342232, -0.2916631, -1274013.4, 323664.0, 0.07337336, 10.00335, 9.998293 
2.2152485e+3, 1.469673e+2, -1176863.6, -1487106.4, -7339.2344, -0.13374598, -0.28980342, -1176690.1, 323002.25, 0.04420635, 10.003053, 9.998752 
2.2152212e+3, 1.5696591e+2, -1127963.6, -1430121.5, -7482.472, -0.14346722, -0.29963535, -1127778.5, 273926.94, 0.020575888, 10.002711, 9.9986315 
2.2151941e+3, 1.6696468e+2, -1052119.5, -1316386.8, -9171.951, -0.12216142, -0.28963545, -1051801.6, 251916.03, 0.00646361, 10.002408, 9.998885 
2.215167e+3, 1.7696373e+2, -1000248.0, -1252043.1, -14181.027, -0.08967725, -0.270098, -999451.9, 206275.58, 0.0009856035, 10.002128, 9.998789 
2.2151397e+3, 1.8696257e+2, -922245.6, -1125106.6, -24418.367, -0.07666018, -0.27445912, -919347.75, 188391.7, 0.00002434694, 10.001822, 9.999135 
2.215112e+3, 1.969615e+2, -872412.56, -1053013.1, -27704.576, -0.07171561, -0.29076713, -868258.2, 141492.31, 0.0, 10.001503, 9.999111 
2.2150844e+3, 2.0696092e+2, -778291.6, -885498.06, -32971.145, -0.063059956, -0.2880145, -768963.1, 142792.9, 0.0, 10.001168, 9.99975 
2.2150566e+3, 2.1696074e+2, -740253.75, -832807.8, -31912.521, -0.052949686, -0.27679875, -730317.1, 83440.04, 0.0, 10.000827, 9.999603 
2.2150289e+3, 2.2696038e+2, -682054.4, -738589.0, -42382.176, -0.04153728, -0.2701628, -659377.7, 56383.855, 0.0, 10.000487, 9.999742 
2.2150005e+3, 2.3696011e+2, -639782.75, -677577.3, -45610.46, -0.02936633, -0.26641384, -609309.8, 8455.864, 0.0, 10.000148, 9.999651 
2.2149722e+3, 2.4696003e+2, -567181.1, -550206.25, -56522.45, -0.025466913, -0.25218156, -501537.56, 18230.04, 0.0, 9.999795, 10.000023 
2.2149436e+3, 2.569602e+2, -530838.94, -496013.0, -58377.258, -0.026464377, -0.23315626, -452507.06, -30740.51, 0.0, 9.999432, 9.999897 
2.2149153e+3, 2.6696023e+2, -477265.22, -394490.06, -51856.29, -0.024623917, -0.21954672, -369530.03, -45763.082, 0.0, 9.99902, 10.000119 
2.2148871e+3, 2.769604e+2, -451399.06, -345989.38, -49126.875, -0.018330522, -0.21256943, -326643.9, -100877.41, 0.0, 9.998588, 9.999988 
2.2148591e+3, 2.8696015e+2, -376531.53, -234683.27, -50088.81, 0.0025967981, -0.2384325, -218779.3, -91009.6, 0.0, 9.998323, 10.000206 
2.2148311e+3, 2.9696003e+2, -316247.44, -170123.92, -52179.332, 0.018470354, -0.2667233, -153404.27, -123632.98, 0.0, 9.99813, 10.00007 
2.2148025e+3, 3.069616e+2, -329518.34, -116055.98, -23941.24, -0.056811307, -0.12031148, -113403.76, -113403.76, 0.0, 9.997552, 10.000383 
2.2147761e+3, 3.1696087e+2, -340540.8, 27550.457, -21870.69, 0.073645175, -0.23166953, 28845.38, 28845.38, 0.0, 9.996837, 10.001714 
2.2253063e+3, 1.2699795e+2, -1278862.5, -1671672.5, 15209.01, -0.20570959, -0.30241433, -1278274.5, 417115.13, 0.10327044, 10.004133, 9.998323 
2.2252794e+3, 1.369961e+2, -1271155.1, -1637856.5, 3893.7915, -0.13142368, -0.30964592, -1271113.8, 326294.8, 0.07422241, 10.003419, 9.998209 
2.2252516e+3, 1.4699455e+2, -1164506.4, -1483027.6, 14251.267, -0.13265559, -0.30592108, -1163870.1, 335553.88, 0.044736758, 10.003154, 9.998732 
2.225224e+3, 1.569932e+2, -1075045.4, -1406766.1, 9501.86, -0.1548531, -0.3111614, -1074773.4, 326663.5, 0.020844676, 10.003097, 9.998605 
2.2251965e+3, 1.6699193e+2, -1014252.25, -1302090.1, 623.5941, -0.13226335, -0.2995672, -1014250.9, 289198.5, 0.0065651424, 10.002689, 9.998847 
2.2251692e+3, 1.7699094e+2, -1003588.1, -1256733.6, -2223.044, -0.091729686, -0.27992156, -1003568.56, 201891.13, 0.0010078596, 10.00212, 9.99876 
2.2251414e+3, 1.8698975e+2, -933316.44, -1128114.5, -6076.531, -0.078136556, -0.28548613, -933127.06, 174344.8, 0.000025475509, 10.001739, 9.999154 
2.2251135e+3, 1.9698869e+2, -879153.3, -1053720.0, -6872.3203, -0.07627797, -0.30396017, -878883.2, 130599.695, 0.0, 10.001448, 9.999132 
2.2250855e+3, 2.0698813e+2, -783797.7, -884345.75, -16685.26, -0.06618167, -0.30216932, -781101.2, 130386.97, 0.0, 10.001117, 9.999782 
2.2250573e+3, 2.1698798e+2, -747561.3, -833196.3, -22236.203, -0.052419562, -0.2909959, -742131.6, 71357.21, 0.0, 10.000766, 9.999629 
2.225029e+3, 2.2698763e+2, -696336.4, -744224.75, -34132.344, -0.038654238, -0.28388724, -678587.1, 36905.934, 0.0, 10.000387, 9.999749 
2.2250007e+3, 2.3698738e+2, -662113.7, -687952.75, -35197.33, -0.024767727, -0.27955627, -637539.7, -20042.557, 0.0, 9.999996, 9.999652 
2.224972e+3, 2.4698728e+2, -585341.1, -561602.56, -41416.977, -0.023979062, -0.2622889, -530387.7, -10888.529, 0.0, 9.999684, 9.999996 
2.224943e+3, 2.5698748e+2, -536208.0, -500545.2, -40473.555, -0.030341703, -0.23905922, -474149.13, -52650.844, 0.0, 9.999406, 9.999877 
2.2249143e+3, 2.669875e+2, -478295.5, -393256.66, -39236.1, -0.02677056, -0.23000763, -377919.6, -54420.52, 0.0, 9.999008, 10.000132 
2.2248857e+3, 2.7698755e+2, -456692.1, -348315.44, -38896.188, -0.015051158, -0.23172805, -335800.78, -110301.73, 0.0, 9.998553, 9.999987 
2.2248574e+3, 2.8698733e+2, -403301.5, -251652.08, -28787.887, 0.006195842, -0.2496954, -246371.13, -118869.3, 0.0, 9.99816, 10.000167 
2.224829e+3, 2.9698735e+2, -362002.47, -186591.56, -22957.459, 0.01891405, -0.2625971, -183636.7, -154134.19, 0.0, 9.997795, 10.000116 
2.2248e+3, 3.0698884e+2, -318919.9, -67810.44, -13829.323, -0.053035293, -0.15164241, -67051.12, -67051.12, 0.0, 9.997441, 10.000767 
2.2247732e+3, 3.1698847e+2, -327436.66, -17884.451, -7135.184, 0.08311067, -0.2563191, -17720.072, -17720.072, 0.0, 9.997151, 10.001248 
2.2353105e+3, 1.2702559e+2, -1289932.9, -1692330.3, -10777.54, -0.20125832, -0.34289327, -1289644.5, 405472.34, 0.10434496, 10.004124, 9.998171 
2.2352825e+3, 1.3702391e+2, -1278095.6, -1656665.4, -17296.588, -0.14960663, -0.3204672, -1277307.0, 319827.72, 0.07500382, 10.003432, 9.9980755 
2.2352546e+3, 1.4702235e+2, -1167553.9, -1492014.8, 12314.626, -0.14567342, -0.30712602, -1167087.3, 332063.06, 0.045225833, 10.003165, 9.998663 
2.2352271e+3, 1.5702093e+2, -1079672.0, -1416379.4, 3483.6565, -0.15040301, -0.31148896, -1079636.0, 321528.0, 0.021095254, 10.003094, 9.998541 
2.2351992e+3, 1.6701949e+2, -1016171.2, -1306214.5, -21091.314, -0.13239849, -0.31399396, -1014645.5, 288532.75, 0.006662328, 10.002687, 9.99882 
2.2351712e+3, 1.7701827e+2, -1003544.9, -1258311.4, -21798.014, -0.10656191, -0.3144534, -1001693.3, 203497.42, 0.0010305197, 10.002125, 9.998748 
2.235143e+3, 1.8701726e+2, -928395.3, -1119870.0, -16942.127, -0.09223169, -0.30657107, -926907.75, 180293.4, 0.00002688948, 10.001744, 9.999209 
2.235115e+3, 1.9701652e+2, -876010.8, -1048863.3, -18226.61, -0.08234419, -0.2967477, -874109.75, 135099.05, 0.0, 10.001452, 9.999165 
2.2350867e+3, 2.0701587e+2, -787039.06, -892584.8, -29694.246, -0.06810574, -0.30028224, -779258.44, 131956.5, 0.0, 10.001121, 9.999724 
2.2350581e+3, 2.1701546e+2, -749909.9, -839438.2, -35472.28, -0.05231285, -0.30971673, -737559.1, 75659.28, 0.0, 10.00077, 9.999586 
2.2350295e+3, 2.2701515e+2, -693787.8, -740376.1, -48687.35, -0.03973141, -0.2981034, -663109.06, 52113.15, 0.0, 10.000391, 9.999775 
2.2350004e+3, 2.370151e+2, -659744.25, -684569.9, -49042.094, -0.028351732, -0.27772588, -621568.5, -4344.1978, 0.0, 10.0, 9.999674 
2.2349717e+3, 2.4701497e+2, -583168.5, -558631.2, -51666.547, -0.025124159, -0.26725733, -517796.63, 1430.1788, 0.0, 9.999688, 10.000015 
2.2349423e+3, 2.57015e+2, -535130.8, -499924.56, -52234.734, -0.026987055, -0.26161632, -462406.56, -41178.992, 0.0, 9.999411, 9.99988 
2.2349133e+3, 2.6701498e+2, -481013.7, -400367.2, -56783.707, -0.027897654, -0.25130242, -371045.97, -47817.266, 0.0, 9.999012, 10.000082 
2.234884e+3, 2.7701512e+2, -457737.94, -351870.53, -55851.53, -0.02463594, -0.24176474, -327853.78, -102625.484, 0.0, 9.998557, 9.999962 
2.2348554e+3, 2.870153e+2, -396114.22, -237526.98, -43387.21, 0.0031105282, -0.22751182, -226432.94, -99205.68, 0.0, 9.998161, 10.000264 
2.2348268e+3, 2.9701576e+2, -354666.0, -171402.34, -37260.746, 0.028876666, -0.20473312, -164116.25, -134893.17, 0.0, 9.997793, 10.000223 
2.2347976e+3, 3.0701557e+2, -312239.38, -54949.43, -27630.703, -0.028585708, -0.2700069, -52015.586, -52015.586, 0.0, 9.997443, 10.000855 
2.2347702e+3, 3.170165e+2, -346090.28, -60650.07, 1441.727, 0.07311684, -0.24497205, -60642.79, -60642.79, 0.0, 9.997166, 10.000949 
2.2453147e+3, 1.2705386e+2, -1313065.0, -1705006.8, -3479.125, -0.18335433, -0.34790203, -1313034.1, 381804.94, 0.10533856, 10.003955, 9.998162 
2.245286e+3, 1.3705204e+2, -1213109.4, -1625931.3, -530.04926, -0.17068139, -0.33637464, -1213108.8, 383748.8, 0.075726904, 10.003934, 9.998043 
2.2452578e+3, 1.4705038e+2, -1126391.9, -1484700.4, 29716.826, -0.16059457, -0.32401446, -1123944.0, 374929.97, 0.04568088, 10.003521, 9.998543 
2.24523e+3, 1.570489e+2, -1110200.3, -1441887.3, 16672.88, -0.13881753, -0.32387346, -1109364.4, 291524.34, 0.021331616, 10.002928, 9.9984455 
2.2452016e+3, 1.6704743e+2, -1037598.7, -1315220.5, -10080.467, -0.12426907, -0.3257534, -1037233.1, 265670.25, 0.0067564347, 10.002536, 9.998831 
2.2451732e+3, 1.770462e+2, -986112.9, -1248298.5, -7977.157, -0.11576892, -0.32772493, -985870.4, 219045.55, 0.0010538278, 10.00224, 9.99876 
2.2451445e+3, 1.870452e+2, -903405.8, -1104285.5, -747.30615, -0.10342033, -0.32057902, -903403.0, 203523.13, 0.000028719203, 10.001903, 9.999238 
2.2451162e+3, 1.9704449e+2, -861873.8, -1040816.3, -4823.0684, -0.08812302, -0.31057072, -861743.9, 147189.36, 0.0, 10.001547, 9.999173 
2.2450876e+3, 2.0704384e+2, -789014.06, -900635.0, -19874.943, -0.06978884, -0.310849, -785580.8, 125358.88, 0.0, 10.001141, 9.999659 
2.2450589e+3, 2.170434e+2, -761747.0, -850110.7, -26776.418, -0.050699417, -0.31625205, -754266.4, 58677.48, 0.0, 10.000712, 9.999539 
2.2450298e+3, 2.2704306e+2, -701644.6, -739420.56, -39632.87, -0.03997722, -0.30857795, -676629.06, 38318.777, 0.0, 10.000319, 9.999815 
2.2450005e+3, 2.3704295e+2, -665785.75, -682913.25, -38789.363, -0.032567192, -0.2952388, -634626.06, -17676.186, 0.0, 9.999942, 9.999712 
2.2449712e+3, 2.470429e+2, -603390.44, -563534.1, -39415.203, -0.024390137, -0.28160626, -539295.7, -20343.883, 0.0, 9.999532, 10.000056 
2.2449416e+3, 2.5704303e+2, -576250.56, -514756.75, -38545.633, -0.017410696, -0.26868066, -496197.1, -75245.35, 0.0, 9.99911, 9.999922 
2.2449121e+3, 2.6704302e+2, -508340.38, -407012.3, -37688.543, -0.019901242, -0.2634549, -394531.53, -71578.65, 0.0, 9.998799, 10.000137 
2.2448826e+3, 2.7704313e+2, -458150.97, -346647.06, -29626.172, -0.022696849, -0.2634481, -339264.3, -114311.52, 0.0, 9.998533, 10.000008 
2.2448535e+3, 2.8704348e+2, -398560.78, -236422.0, -20532.633, 0.0029155777, -0.2306147, -233862.25, -106912.555, 0.0, 9.998137, 10.000281 
2.2448248e+3, 2.9704422e+2, -372207.97, -181716.1, -20856.408, 0.02839197, -0.18070957, -179459.33, -150516.53, 0.0, 9.997684, 10.000203 
2.2447954e+3, 3.070431e+2, -349960.13, -92524.09, -26865.45, -0.0028060277, -0.33065465, -89750.36, -89750.36, 0.0, 9.997271, 10.000679 
2.2447671e+3, 3.170446e+2, -366961.47, -37379.844, 2420.9539, 0.06773346, -0.23621777, -37362.063, -37362.063, 0.0, 9.996882, 10.001244 
2.255319e+3, 1.270827e+2, -1306186.4, -1689909.8, -5165.002, -0.1540328, -0.32255057, -1306116.9, 388439.3, 0.10626079, 10.003958, 9.998269 
2.2552896e+3, 1.3708055e+2, -1209809.5, -1619048.5, -5891.0977, -0.19499852, -0.35670832, -1209724.6, 386852.13, 0.07640236, 10.003936, 9.998091 
2.255261e+3, 1.470787e+2, -1137925.3, -1509955.0, 7381.751, -0.17753851, -0.3548187, -1137778.8, 360816.13, 0.046109818, 10.003524, 9.998364 
2.2552332e+3, 1.570771e+2, -1118689.3, -1461261.9, -3672.037, -0.120874666, -0.34722668, -1118649.9, 281960.94, 0.021557188, 10.002932, 9.998312 
2.2552043e+3, 1.6707574e+2, -1034357.9, -1310103.4, -21330.56, -0.1086809, -0.3349241, -1032717.56, 269907.1, 0.006848074, 10.002541, 9.998865 
2.2551753e+3, 1.770747e+2, -983570.56, -1244561.8, -19707.438, -0.11985491, -0.3209617, -982090.9, 222544.64, 0.001077814, 10.002244, 9.998785 
2.2551465e+3, 1.8707356e+2, -902951.06, -1104709.1, -14087.475, -0.11193394, -0.32798922, -901972.2, 204674.58, 0.000031062955, 10.001906, 9.999235 
2.2551177e+3, 1.970726e+2, -862854.4, -1043994.6, -18695.357, -0.093826264, -0.34458807, -860945.0, 147711.19, 0.0, 10.001549, 9.999151 
2.2550887e+3, 2.0707199e+2, -794474.7, -913203.5, -35776.285, -0.071346164, -0.3332459, -784527.7, 126134.75, 0.0, 10.0011425, 9.999572 
2.2550596e+3, 2.1707174e+2, -765317.3, -858856.2, -42267.035, -0.047673855, -0.31055924, -749048.0, 63617.344, 0.0, 10.000715, 9.999478 
2.25503e+3, 2.2707129e+2, -697819.25, -732961.75, -53484.816, -0.039464273, -0.31546465, -659093.3, 55577.023, 0.0, 10.000322, 9.999859 
2.2550002e+3, 2.3707093e+2, -661907.06, -676470.2, -53236.52, -0.037616994, -0.33247048, -615456.44, 1217.859, 0.0, 9.999947, 9.999755 
2.2549707e+3, 2.4707106e+2, -599157.8, -556203.4, -55458.656, -0.021837601, -0.30535132, -518208.47, 466.0049, 0.0, 9.999536, 10.000106 
2.2549409e+3, 2.5707155e+2, -570854.8, -504704.2, -53395.68, -0.0015715412, -0.25969526, -474969.66, -54298.56, 0.0, 9.999112, 9.99999 
2.254911e+3, 2.6707157e+2, -497079.03, -384706.38, -47776.2, -0.002452985, -0.26622063, -367139.94, -44467.953, 0.0, 9.998801, 10.000291 
2.2548814e+3, 2.7707148e+2, -450099.84, -331327.34, -41338.97, -0.008963583, -0.297358, -318355.9, -93682.914, 0.0, 9.998537, 10.000112 
2.2548518e+3, 2.870719e+2, -403391.9, -247742.2, -38425.5, 0.0053443233, -0.2605721, -238772.89, -112103.13, 0.0, 9.99814, 10.000204 
2.254822e+3, 2.970727e+2, -383678.2, -206518.83, -38253.055, 0.016499808, -0.19288592, -198611.95, -169949.39, 0.0, 9.9976845, 10.000033 
2.2547927e+3, 3.070714e+2, -383415.9, -162482.27, -43492.586, 0.024767859, -0.32771304, -154228.73, -154228.73, 0.0, 9.997271, 10.000199 
2.2547638e+3, 3.1707248e+2, -298655.63, 104215.88, -12159.808, 0.06494326, -0.24218206, 104582.57, 104582.57, 0.0, 9.996881, 10.00222 
2.265323e+3, 1.2711148e+2, -1289557.8, -1681269.4, 10980.1045, -0.14667903, -0.3284103, -1289250.3, 405023.6, 0.10710306, 10.004088, 9.998271 
2.2652934e+3, 1.3710935e+2, -1192421.5, -1610330.0, 170.09421, -0.19661503, -0.35759372, -1192421.4, 403872.13, 0.07702598, 10.004071, 9.998084 
2.2652647e+3, 1.4710742e+2, -1123354.0, -1505773.5, 659.1482, -0.18021388, -0.36238828, -1123352.9, 374959.44, 0.04651053, 10.003646, 9.998333 
2.2652361e+3, 1.5710568e+2, -1105616.6, -1456757.0, 857.56226, -0.12119242, -0.3652601, -1105614.5, 294715.03, 0.021770446, 10.003035, 9.998292 
2.265207e+3, 1.6710433e+2, -1019864.94, -1298972.8, -4945.561, -0.110781856, -0.35250166, -1019777.4, 282565.78, 0.006936265, 10.002626, 9.9988985 
2.2651775e+3, 1.771034e+2, -971871.1, -1235441.8, -4565.3394, -0.125534, -0.33315444, -971792.1, 232561.03, 0.001102139, 10.002313, 9.998814 
2.2651482e+3, 1.8710229e+2, -902528.5, -1102827.5, -1617.7933, -0.11310517, -0.33788452, -902515.4, 203848.6, 0.00003393106, 10.0019045, 9.999248 
2.2651191e+3, 1.9710134e+2, -876811.75, -1050556.9, -5717.274, -0.087123305, -0.35390723, -876623.8, 131749.5, 0.0, 10.001455, 9.99915 
2.2650899e+3, 2.0710069e+2, -810907.7, -925851.3, -20655.088, -0.06945862, -0.34359914, -807308.75, 103071.375, 0.0, 10.001053, 9.999527 
2.2650601e+3, 2.1710038e+2, -772826.75, -864347.8, -24353.781, -0.05589854, -0.3224056, -766749.7, 45634.168, 0.0, 10.000674, 9.999459 
2.2650303e+3, 2.2709994e+2, -695725.44, -722833.06, -32095.855, -0.043980133, -0.32927218, -674438.94, 39949.53, 0.0, 10.0003, 9.999938 
2.2650002e+3, 2.3709963e+2, -660271.3, -668526.0, -29952.68, -0.032459773, -0.34875983, -634162.94, -17771.479, 0.0, 9.999929, 9.999817 
2.2649702e+3, 2.4709976e+2, -598803.8, -555072.25, -35175.258, -0.017863331, -0.32297873, -535520.56, -17128.959, 0.0, 9.9995365, 10.000112 
2.26494e+3, 2.5710028e+2, -567281.56, -501221.13, -36208.203, -0.0032457667, -0.27751255, -485240.84, -64852.38, 0.0, 9.999132, 10.000004 
2.2649099e+3, 2.671004e+2, -506515.47, -383277.63, -35039.395, 0.0013950096, -0.2741792, -374011.78, -51623.543, 0.0, 9.9987135, 10.000341 
2.26488e+3, 2.7710053e+2, -482339.2, -340775.34, -36491.996, 0.0050406917, -0.2920185, -331922.2, -107534.625, 0.0, 9.998293, 10.000164 
2.2648498e+3, 2.8710076e+2, -425625.44, -251319.36, -30090.607, 0.011544502, -0.27520245, -246271.0, -119885.414, 0.0, 9.99796, 10.000265 
2.2648196e+3, 2.9710135e+2, -389276.56, -211384.94, -19944.393, 0.007957058, -0.23951039, -209176.3, -180795.53, 0.0, 9.997659, 10.000011 
2.2647902e+3, 3.071006e+2, -409533.88, -205848.13, -13711.401, 0.047449097, -0.29697847, -204929.27, -204929.27, 0.0, 9.997227, 9.999922 
2.2647604e+3, 3.171009e+2, -314614.88, 123174.32, 13097.524, 0.05563173, -0.26441282, 123565.81, 123565.81, 0.0, 9.996658, 10.002456 
2.2753268e+3, 1.2714022e+2, -1293981.0, -1693398.8, 9739.713, -0.15928462, -0.3615319, -1293743.6, 400247.4, 0.10783332, 10.004104, 9.998172 
2.2752978e+3, 1.3713852e+2, -1197067.1, -1619613.4, -4861.186, -0.17820859, -0.34083056, -1197011.3, 398996.16, 0.07757284, 10.004066, 9.998024 
2.2752683e+3, 1.4713657e+2, -1118097.8, -1493511.8, -21818.79, -0.17051795, -0.34903717, -1116833.9, 381192.22, 0.04686684, 10.00364, 9.998423 
2.2752391e+3, 1.5713465e+2, -1100216.4, -1446123.3, -19850.56, -0.13844585, -0.37842217, -1099081.0, 300963.6, 0.021963378, 10.0030365, 9.998365 
2.2752093e+3, 1.6713324e+2, -1017537.06, -1295507.4, -16700.21, -0.12916437, -0.3778066, -1016537.3, 285521.3, 0.0070181265, 10.00263, 9.998922 
2.2751796e+3, 1.7713226e+2, -969785.94, -1232290.6, -17456.348, -0.13286416, -0.36305985, -968630.2, 235438.47, 0.0011260561, 10.002315, 9.998836 
2.2751501e+3, 1.8713136e+2, -900848.56, -1100515.0, -18619.654, -0.10749877, -0.349942, -899127.0, 206950.8, 0.000037226386, 10.001907, 9.999264 
2.2751209e+3, 1.9713068e+2, -875660.5, -1049470.1, -22067.457, -0.06865755, -0.3393601, -872902.5, 135182.28, 0.000000000000000002497382, 10.001458, 9.999158 
2.2750908e+3, 2.071299e+2, -810926.6, -927456.3, -34707.74, -0.06441629, -0.34250814, -801372.44, 108720.51, 0.0, 10.001058, 9.999516 
2.2750606e+3, 2.1712929e+2, -771251.2, -862700.06, -38172.395, -0.0753766, -0.35174134, -757411.75, 54687.87, 0.0, 10.000679, 9.99947 
2.2750305e+3, 2.27129e+2, -687770.6, -707846.5, -45827.84, -0.0534285, -0.34974724, -650894.25, 63208.16, 0.0, 10.000304, 10.00004 
2.2750002e+3, 2.3712905e+2, -654661.8, -658379.1, -44035.152, -0.01711911, -0.3436633, -612446.1, 3655.613, 0.0, 9.999933, 9.999886 
2.2749697e+3, 2.47129e+2, -601417.3, -562028.75, -50387.99, -0.012695691, -0.33452088, -527623.0, -9519.54, 0.0, 9.99954, 10.000063 
2.274939e+3, 2.5712913e+2, -570288.3, -509058.03, -51656.387, -0.02319541, -0.32309717, -479625.94, -59521.668, 0.0, 9.999137, 9.9999485 
2.2749084e+3, 2.671295e+2, -510725.47, -393284.66, -51593.453, -0.008865694, -0.28723153, -373838.75, -51736.68, 0.0, 9.998716, 10.000273 
2.2748782e+3, 2.7713016e+2, -482972.97, -342843.3, -52101.66, 0.01930251, -0.2454186, -325594.53, -101497.55, 0.0, 9.998293, 10.000151 
2.2748479e+3, 2.8713006e+2, -411541.34, -222821.14, -42028.688, 0.021683207, -0.274114, -213884.39, -87786.63, 0.0, 9.997961, 10.000462 
2.2748171e+3, 2.9713e+2, -379835.4, -192951.17, -33610.375, 0.0026062052, -0.32303917, -187090.28, -158992.1, 0.0, 9.997662, 10.000138 
2.2747876e+3, 3.071307e+2, -414055.94, -216209.05, -32978.785, 0.06451572, -0.23391375, -210856.67, -210856.67, 0.0, 9.997229, 9.999851 
2.274757e+3, 3.1712982e+2, -359331.0, 30662.791, -34660.78, 0.040443264, -0.31023508, 33719.32, 33719.32, 0.0, 9.996654, 10.001823 
2.285331e+3, 1.2716958e+2, -1232014.0, -1667634.1, 24619.32, -0.17929988, -0.37284756, -1230627.0, 463075.13, 0.10840763, 10.004606, 9.998126 
2.285302e+3, 1.371678e+2, -1222080.0, -1633879.0, 13323.593, -0.15486737, -0.35592666, -1221649.4, 374069.94, 0.07800571, 10.003889, 9.99801 
2.285272e+3, 1.4716591e+2, -1142942.9, -1494745.5, -4828.1953, -0.14974424, -0.3630017, -1142876.6, 354860.72, 0.04715264, 10.003417, 9.99852 
2.285242e+3, 1.5716413e+2, -1092826.4, -1434254.9, -1366.5269, -0.14097041, -0.3886711, -1092820.9, 306933.53, 0.02212211, 10.003056, 9.998436 
2.285212e+3, 1.6716269e+2, -1012584.9, -1295699.1, 3355.6187, -0.13039556, -0.39074537, -1012545.1, 289223.53, 0.0070884903, 10.002679, 9.998896 
2.2851822e+3, 1.7716163e+2, -974066.3, -1235582.8, -2162.1199, -0.12171012, -0.38135356, -974048.44, 229731.03, 0.0011483129, 10.002294, 9.998821 
2.2851521e+3, 1.8716078e+2, -904813.1, -1098113.4, -6927.703, -0.096557535, -0.36449394, -904565.1, 201223.11, 0.000040776646, 10.001864, 9.999299 
2.2851223e+3, 1.9716021e+2, -879560.1, -1047777.6, -8538.48, -0.06358263, -0.34624416, -879127.9, 128666.42, 0.00000000020988672, 10.001419, 9.9991865 
2.2850917e+3, 2.0715943e+2, -807075.06, -924788.4, -16666.553, -0.06267398, -0.35203177, -804760.8, 105041.76, 0.0, 10.001083, 9.99952 
2.2850613e+3, 2.1715873e+2, -754365.1, -853603.94, -20670.2, -0.07582895, -0.3684035, -750231.9, 61577.957, 0.0, 10.000793, 9.9994755 
2.2850308e+3, 2.2715849e+2, -680741.06, -702368.56, -35887.93, -0.05360802, -0.3619264, -654073.06, 59739.164, 0.0, 10.000346, 10.000056 
2.2850002e+3, 2.3715866e+2, -668292.44, -662334.7, -39810.83, -0.015721893, -0.34631765, -625391.44, -9580.837, 0.0, 9.999831, 9.999907 
2.2849692e+3, 2.471586e+2, -613721.06, -563265.7, -41604.03, -0.01201364, -0.34106216, -539838.2, -22025.824, 0.0, 9.999438, 10.000102 
2.284938e+3, 2.5715867e+2, -574087.4, -507774.34, -36923.27, -0.02428819, -0.3393992, -491305.44, -71491.91, 0.0, 9.9991, 9.999974 
2.2849073e+3, 2.6715904e+2, -513889.16, -396619.25, -33861.504, -0.008928265, -0.30176404, -387544.1, -65732.79, 0.0, 9.998705, 10.000254 
2.2848764e+3, 2.7715975e+2, -485053.22, -344243.13, -30806.957, 0.021747448, -0.2532857, -337798.06, -113992.06, 0.0, 9.998283, 10.000144 
2.2848457e+3, 2.8715968e+2, -430510.0, -225771.86, -26897.133, 0.027180225, -0.28508124, -222297.27, -96490.47, 0.0, 9.997807, 10.000514 
2.2848147e+3, 2.9715958e+2, -424002.72, -203201.84, -27855.602, 0.010990246, -0.33954367, -199741.88, -171934.8, 0.0, 9.9973135, 10.000234 
2.2847846e+3, 3.0716068e+2, -412091.63, -184459.11, -8687.084, 0.061467748, -0.23122862, -184128.06, -184128.06, 0.0, 9.997112, 10.000124 
2.2847536e+3, 3.171597e+2, -347873.75, -15233.553, -13793.346, 0.033169303, -0.3394467, -14662.575, -14662.575, 0.0, 9.996957, 10.001361 
2.2953354e+3, 1.2719956e+2, -1231980.5, -1668608.9, -374.0202, -0.206315, -0.36524066, -1231980.1, 461427.0, 0.108787775, 10.00461, 9.998117 
2.2953059e+3, 1.3719726e+2, -1220284.1, -1631451.4, -9476.928, -0.1271198, -0.3995413, -1220065.8, 375363.25, 0.07829153, 10.003895, 9.998025 
2.2952756e+3, 1.4719549e+2, -1135591.8, -1481264.4, -17991.623, -0.11912802, -0.40126836, -1134657.8, 362788.1, 0.04734318, 10.003423, 9.998615 
2.2952451e+3, 1.5719411e+2, -1088104.0, -1425888.0, -15194.639, -0.13051684, -0.39608824, -1087421.8, 312037.3, 0.022232022, 10.00306, 9.998492 
2.2952145e+3, 1.671927e+2, -1017633.7, -1307736.6, -11152.868, -0.11605634, -0.39229515, -1017205.56, 284267.75, 0.0071412507, 10.002683, 9.998813 
2.2951846e+3, 1.771915e+2, -977455.5, -1244073.5, -17145.186, -0.09339082, -0.38869658, -976357.5, 227128.19, 0.0011673318, 10.002297, 9.998762 
2.295154e+3, 1.8719056e+2, -900696.6, -1091283.1, -23739.193, -0.08077668, -0.38145155, -897784.25, 207711.08, 0.000044358083, 10.001869, 9.999345 
2.2951235e+3, 1.9718993e+2, -875853.4, -1042026.75, -24028.902, -0.071529895, -0.37377945, -872448.5, 135053.27, 0.0000000020348991, 10.001425, 9.999225 
2.2950931e+3, 2.0718923e+2, -805580.4, -923351.25, -27130.787, -0.06401773, -0.37164843, -799630.9, 109878.24, 0.0, 10.001088, 9.999529 
2.2950622e+3, 2.171887e+2, -754490.94, -855119.56, -32996.137, -0.057710383, -0.37226173, -744636.5, 66878.305, 0.0, 10.000796, 9.999465 
2.295031e+3, 2.2718844e+2, -685515.7, -713625.9, -55183.395, -0.0449266, -0.36593905, -642625.6, 70892.54, 0.0, 10.00035, 9.999979 
2.2949998e+3, 2.3718844e+2, -670121.56, -667649.1, -57865.383, -0.02859627, -0.35717404, -611006.75, 4511.698, 0.0, 9.999835, 9.999869 
2.2949685e+3, 2.4718854e+2, -604607.3, -545880.6, -54308.06, -0.015755344, -0.3424942, -513506.03, 4012.4714, 0.0, 9.999443, 10.000221 
2.2949372e+3, 2.571889e+2, -566601.2, -493694.97, -50462.92, -0.0060545825, -0.3253896, -467895.9, -48379.387, 0.0, 9.999104, 10.000071 
2.2949061e+3, 2.6718903e+2, -511528.97, -393052.16, -50070.51, 0.001332728, -0.31814873, -374726.13, -53209.793, 0.0, 9.998709, 10.000278 
2.2948745e+3, 2.7718922e+2, -485067.3, -345635.2, -47742.49, 0.011416421, -0.3184826, -330854.66, -107339.375, 0.0, 9.998286, 10.000134 
2.2948435e+3, 2.871895e+2, -438121.7, -242264.67, -46869.52, 0.027731268, -0.30798876, -231626.4, -106113.16, 0.0, 9.997807, 10.000402 
2.2948122e+3, 2.971901e+2, -420202.9, -195026.23, -44334.15, 0.034058053, -0.283906, -186611.88, -159104.14, 0.0, 9.99731, 10.000294 
2.2947815e+3, 3.071904e+2, -367140.72, -92074.2, -11799.873, 0.03580277, -0.29690275, -91568.94, -91568.94, 0.0, 9.997113, 10.000759 
2.2947507e+3, 3.1719086e+2, -367637.75, -58754.258, -42347.63, 0.042319804, -0.31477714, -53053.645, -53053.645, 0.0, 9.996965, 10.001059 
2.30534e+3, 1.2722994e+2, -1204327.3, -1654652.5, 15872.483, -0.1963221, -0.37777832, -1203768.5, 489339.56, 0.10894815, 10.004824, 9.998121 
2.30531e+3, 1.372276e+2, -1196010.9, -1618427.1, 10738.434, -0.118762605, -0.41599768, -1195738.1, 399392.16, 0.078409106, 10.004077, 9.998025 
2.3052792e+3, 1.4722584e+2, -1115041.8, -1472301.6, 7994.0615, -0.110621326, -0.41573435, -1114863.0, 382284.06, 0.047422256, 10.003579, 9.998603 
2.3052482e+3, 1.572245e+2, -1069767.6, -1417673.0, 3497.255, -0.12155164, -0.40534082, -1069732.5, 329427.63, 0.022282496, 10.003197, 9.998481 
2.3052175e+3, 1.6722307e+2, -1005271.5, -1301666.0, 7648.2383, -0.10756993, -0.402626, -1005074.3, 296100.06, 0.0071711424, 10.002771, 9.99881 
2.3051868e+3, 1.7722183e+2, -974085.1, -1243631.5, 6830.374, -0.08579186, -0.40301883, -973912.1, 229274.95, 0.0011814176, 10.002329, 9.998749 
2.305156e+3, 1.8722086e+2, -891469.1, -1092249.3, -2554.158, -0.07816031, -0.39545003, -891436.6, 213760.61, 0.0000476708, 10.001959, 9.999293 
2.305125e+3, 1.972202e+2, -850172.0, -1032981.4, -10449.375, -0.07559532, -0.38543096, -849576.6, 157627.64, 0.000000006496825, 10.001618, 9.999191 
2.305094e+3, 2.0721953e+2, -793995.25, -912760.75, -15117.312, -0.06588102, -0.3806888, -792101.25, 117110.02, 0.0, 10.001149, 9.999571 
2.305063e+3, 2.1721907e+2, -777572.06, -862960.4, -19082.594, -0.053403463, -0.37867135, -773501.5, 37714.727, 0.0, 10.000627, 9.999492 
2.3050313e+3, 2.2721878e+2, -700743.25, -723740.56, -38202.07, -0.04378271, -0.3725451, -672346.8, 40873.03, 0.0, 10.000259, 9.999951 
2.3049995e+3, 2.3721875e+2, -653489.94, -660882.7, -37466.336, -0.03464769, -0.3651364, -619538.06, -4317.143, 0.0, 9.999957, 9.999856 
2.3049681e+3, 2.4721889e+2, -590903.6, -534379.8, -37507.46, -0.018917883, -0.34815532, -515678.47, 1542.0724, 0.0, 9.999518, 10.000262 
2.3049363e+3, 2.5721928e+2, -575470.5, -492405.03, -39340.3, -0.001964485, -0.32746014, -476730.88, -57513.293, 0.0, 9.999021, 10.000117 
2.3049046e+3, 2.6721942e+2, -524800.75, -390905.6, -38275.133, 0.0039021333, -0.32818288, -380736.6, -59519.23, 0.0, 9.998583, 10.000352 
2.3048729e+3, 2.772196e+2, -499214.03, -346275.22, -32857.758, 0.009403226, -0.34082437, -339514.8, -116298.13, 0.0, 9.998165, 10.000187 
2.3048413e+3, 2.8722003e+2, -455701.22, -252049.6, -28066.855, 0.039054547, -0.31491062, -248252.28, -123038.945, 0.0, 9.997694, 10.000388 
2.3048098e+3, 2.9722086e+2, -433124.7, -197058.53, -16905.799, 0.062955976, -0.26593357, -195853.98, -168647.97, 0.0, 9.997205, 10.000329 
2.3047781e+3, 3.072207e+2, -403196.84, -88165.06, 917.588, 0.0072389594, -0.33780035, -88162.39, -88162.39, 0.0, 9.996777, 10.000947 
2.3047476e+3, 3.1722203e+2, -428172.44, -63978.645, -54743.0, 0.052139666, -0.28425905, -55928.03, -55928.03, 0.0, 9.99645, 10.001269 
2.3153453e+3, 1.2726079e+2, -1204609.1, -1654437.1, -10441.35, -0.15485597, -0.40770963, -1204367.0, 488437.72, 0.10887382, 10.004817, 9.998127 
2.315314e+3, 1.3725881e+2, -1196679.4, -1621649.1, -13330.428, -0.1284812, -0.4080892, -1196261.6, 398561.7, 0.078347445, 10.004082, 9.998002 
2.3152827e+3, 1.4725696e+2, -1121861.6, -1488899.3, -6069.5938, -0.1220788, -0.4090556, -1121761.3, 375079.88, 0.047382325, 10.003588, 9.998481 
2.3152515e+3, 1.5725532e+2, -1074312.6, -1429459.0, -11139.537, -0.113895684, -0.4162775, -1073963.6, 324893.47, 0.02226842, 10.003203, 9.998399 
2.3152202e+3, 1.6725384e+2, -1000053.0, -1292691.9, -9025.674, -0.10468499, -0.42090684, -999774.9, 301096.88, 0.0071749436, 10.002777, 9.99887 
2.315189e+3, 1.772526e+2, -972164.44, -1241378.3, -9159.469, -0.0977179, -0.42388642, -971853.2, 231030.63, 0.0011891417, 10.002335, 9.998763 
2.3151577e+3, 1.8725164e+2, -901696.56, -1114950.5, -15137.809, -0.08789428, -0.4065972, -900627.4, 204266.83, 0.000050385515, 10.001963, 9.999137 
2.3151265e+3, 1.9725098e+2, -857296.44, -1048901.9, -24490.525, -0.07597991, -0.3816756, -854215.7, 152686.27, 0.000000012642861, 10.001621, 9.999083 
2.3150949e+3, 2.072503e+2, -788932.2, -903623.56, -34615.285, -0.06843115, -0.3795837, -779294.7, 129614.51, 0.0, 10.001152, 9.999633 
2.3150635e+3, 2.1724978e+2, -773139.75, -855397.25, -36712.023, -0.062800445, -0.38786578, -759138.2, 51776.07, 0.0, 10.000631, 9.999542 
2.3150314e+3, 2.2724953e+2, -699093.25, -721899.1, -49094.008, -0.05002289, -0.38171068, -660095.3, 52822.305, 0.0, 10.000264, 9.999963 
2.3149996e+3, 2.3724954e+2, -652795.7, -660882.1, -50343.332, -0.033869322, -0.369869, -606333.5, 8584.788, 0.0, 9.999961, 9.999855 
2.3149672e+3, 2.472496e+2, -593451.25, -541163.5, -56348.2, -0.021708468, -0.3580469, -505189.56, 11729.211, 0.0, 9.999522, 10.000216 
2.314935e+3, 2.572499e+2, -575645.0, -494165.88, -57604.51, -0.012731017, -0.34623325, -464350.56, -45433.293, 0.0, 9.999024, 10.000105 
2.3149031e+3, 2.6725024e+2, -516066.97, -373926.25, -54421.414, -0.0015163311, -0.3313979, -355483.0, -34568.133, 0.0, 9.998586, 10.000469 
2.3148708e+3, 2.7725077e+2, -491199.03, -330566.9, -49849.59, 0.016138555, -0.31800193, -316354.4, -93443.99, 0.0, 9.998167, 10.000296 
2.314839e+3, 2.8725117e+2, -449738.53, -240285.94, -47337.203, 0.06185467, -0.30524036, -230084.4, -105176.96, 0.0, 9.997694, 10.00047 
2.3148073e+3, 2.9725173e+2, -433454.88, -198278.13, -35012.805, 0.09803445, -0.2883152, -193176.16, -166273.56, 0.0, 9.997205, 10.000321 
2.3147744e+3, 3.0725148e+2, -425379.13, -133795.75, -16092.444, -0.025381204, -0.35111088, -132910.31, -132910.31, 0.0, 9.996772, 10.000638 
2.3147438e+3, 3.1725308e+2, -371656.8, 54466.574, -41208.992, 0.0641737, -0.2536471, 58415.17, 58415.17, 0.0, 9.996443, 10.002089 
2.3253503e+3, 1.2729222e+2, -1229039.9, -1668397.3, 1872.6454, -0.12567888, -0.42214248, -1229031.9, 463463.8, 0.10855437, 10.00464, 9.998103 
2.3253182e+3, 1.3729033e+2, -1174289.0, -1611899.0, -1393.0087, -0.121148326, -0.41173384, -1174284.6, 420229.16, 0.07809843, 10.004258, 9.997983 
2.3252864e+3, 1.4728844e+2, -1089598.0, -1474165.6, 14447.974, -0.11891204, -0.41460946, -1089056.0, 407475.78, 0.04721786, 10.003826, 9.99847 
2.3252547e+3, 1.5728672e+2, -1051237.3, -1420161.4, 16311.019, -0.10695472, -0.42865056, -1050517.5, 348030.8, 0.022186164, 10.003377, 9.998377 
2.3252231e+3, 1.6728517e+2, -982125.2, -1289349.8, 14245.411, -0.098990485, -0.43408683, -981466.06, 319097.34, 0.0071502347, 10.002928, 9.998819 
2.3251913e+3, 1.7728391e+2, -954791.1, -1237850.5, 6316.3594, -0.0956847, -0.43527654, -954650.25, 247925.55, 0.0011893669, 10.002479, 9.998716 
2.3251596e+3, 1.872829e+2, -898141.2, -1116104.6, 4811.234, -0.08879167, -0.41947514, -898035.0, 206551.73, 0.000052244875, 10.002003, 9.999108 
2.3251282e+3, 1.9728217e+2, -873646.2, -1058889.8, 3468.2705, -0.07921393, -0.39741454, -873581.3, 133013.8, 0.000000017833118, 10.001521, 9.999061 
2.3250961e+3, 2.0728149e+2, -791741.1, -904264.3, -7904.289, -0.07250252, -0.39382014, -791188.56, 117413.805, 0.0, 10.001133, 9.999637 
2.325064e+3, 2.1728101e+2, -751442.0, -844512.3, -14721.761, -0.06714222, -0.39877474, -749168.8, 61438.418, 0.0, 10.000781, 9.999543 
2.3250318e+3, 2.2728075e+2, -694517.3, -719763.7, -28938.361, -0.054245353, -0.39212766, -675568.75, 37041.863, 0.0, 10.0002985, 9.99996 
2.3249993e+3, 2.3728076e+2, -681627.56, -674665.0, -31176.355, -0.03764092, -0.38096973, -646776.1, -32164.664, 0.0, 9.999765, 9.999854 
2.3249668e+3, 2.4728082e+2, -608761.94, -547185.06, -33937.152, -0.026086925, -0.36980367, -532151.5, -15539.415, 0.0, 9.9994135, 10.000225 
2.3249342e+3, 2.572811e+2, -559956.56, -485666.66, -32509.59, -0.018249683, -0.35854298, -473449.47, -54838.906, 0.0, 9.99913, 10.000111 
2.3249017e+3, 2.6728153e+2, -512849.3, -372431.8, -38424.61, -0.0061892862, -0.3364776, -362604.84, -41997.285, 0.0, 9.9986105, 10.000466 
2.3248689e+3, 2.7728215e+2, -516096.34, -342091.97, -41851.2, 0.0139696915, -0.31291232, -332549.3, -109947.09, 0.0, 9.997996, 10.000298 
2.3248367e+3, 2.872824e+2, -457822.63, -241240.81, -41523.76, 0.06613861, -0.31464928, -233552.66, -108952.02, 0.0, 9.997629, 10.000494 
2.3248047e+3, 2.972828e+2, -413543.47, -189901.5, -34652.055, 0.108106196, -0.3202552, -184655.42, -158057.5, 0.0, 9.997349, 10.000308 
2.3247713e+3, 3.072831e+2, -430914.16, -150097.38, -12142.174, -0.02382113, -0.31647825, -149573.33, -149573.33, 0.0, 9.996795, 10.000513 
2.3247403e+3, 3.1728417e+2, -384613.88, 74136.93, 2455.458, 0.06796, -0.26338014, 74150.07, 74150.07, 0.0, 9.996245, 10.002317 
2.335355e+3, 1.2732424e+2, -1231292.8, -1675696.9, -11201.599, -0.10761128, -0.42372385, -1231010.5, 461170.8, 0.10798354, 10.004647, 9.998044 
2.3353225e+3, 1.3732219e+2, -1174510.1, -1615306.1, -15228.02, -0.09897531, -0.4253745, -1173984.6, 420216.44, 0.07765513, 10.004266, 9.997957 
2.3352903e+3, 1.4732032e+2, -1083389.9, -1463312.4, -1822.6255, -0.103038125, -0.4306739, -1083381.1, 412837.5, 0.046922687, 10.003832, 9.998547 
2.3352581e+3, 1.5731868e+2, -1049280.3, -1417173.9, -617.87494, -0.10096979, -0.44229382, -1049279.3, 348954.4, 0.022031266, 10.003379, 9.998398 
2.3352261e+3, 1.6731709e+2, -993205.3, -1313609.0, -2679.1191, -0.090764716, -0.44263443, -993182.9, 307066.4, 0.0070946203, 10.00293, 9.998652 
2.335194e+3, 1.7731574e+2, -962023.06, -1254243.8, -10772.368, -0.080766045, -0.43776694, -961626.5, 240636.7, 0.0011813338, 10.002481, 9.998603 
2.3351619e+3, 1.8731458e+2, -891780.56, -1104467.9, -13296.938, -0.081591554, -0.43407387, -890952.5, 213322.44, 0.000053136322, 10.0020075, 9.999187 
2.3351294e+3, 1.9731376e+2, -869495.75, -1051961.3, -13456.419, -0.0853506, -0.43180695, -868508.7, 137775.13, 0.000000019606611, 10.001526, 9.999107 
2.3350972e+3, 2.0731309e+2, -795499.7, -913516.7, -20732.668, -0.078044586, -0.4226714, -791963.44, 116327.51, 0.0, 10.001137, 9.999573 
2.3350647e+3, 2.1731272e+2, -754858.2, -852757.5, -29051.154, -0.06663505, -0.411105, -746886.5, 63408.813, 0.0, 10.000784, 9.999487 
2.335032e+3, 2.2731243e+2, -696023.56, -724274.25, -49073.65, -0.056632973, -0.40376177, -659082.75, 53216.426, 0.0, 10.000301, 9.999928 
2.3349988e+3, 2.3731235e+2, -681691.94, -676300.44, -49207.49, -0.046258233, -0.39858565, -629714.9, -15413.993, 0.0, 9.999769, 9.999842 
2.334966e+3, 2.4731249e+2, -603892.06, -538581.94, -44275.02, -0.032112774, -0.3833941, -516222.16, 78.55634, 0.0, 9.999417, 10.000283 
2.3349331e+3, 2.573129e+2, -558085.0, -483433.56, -45993.492, -0.018406063, -0.36405596, -461525.78, -43227.953, 0.0, 9.999135, 10.000125 
2.3348999e+3, 2.673132e+2, -522015.38, -392725.72, -62502.566, -0.010241878, -0.3435423, -367451.0, -47155.176, 0.0, 9.998613, 10.000326 
2.3348667e+3, 2.7731365e+2, -524259.94, -359727.22, -62798.344, 0.0020543789, -0.32659832, -338497.75, -116205.055, 0.0, 9.997996, 10.000177 
2.3348342e+3, 2.8731367e+2, -460716.03, -248297.05, -52401.082, 0.050382677, -0.34449753, -236073.73, -111780.09, 0.0, 9.99763, 10.000446 
2.3348017e+3, 2.9731387e+2, -414461.9, -193784.98, -49600.516, 0.09110225, -0.36268, -183149.11, -156856.3, 0.0, 9.9973545, 10.00028 
2.3347683e+3, 3.0731553e+2, -425944.9, -140743.77, -38720.445, 0.015918495, -0.22794852, -135580.36, -135580.36, 0.0, 9.996797, 10.000578 
2.3347363e+3, 3.173151e+2, -417204.06, 6088.915, 10116.925, 0.05070805, -0.32678065, 6330.5767, 6330.5767, 0.0, 9.9962435, 10.001852 
2.34536e+3, 1.2735683e+2, -1212028.8, -1669139.3, 18088.676, -0.08036356, -0.43027857, -1211314.0, 480546.94, 0.10716065, 10.0048065, 9.998016 
2.3453268e+3, 1.3735469e+2, -1153006.4, -1607949.8, 15545.544, -0.09021278, -0.43733284, -1152475.9, 441405.63, 0.07701515, 10.004442, 9.997921 
2.3452942e+3, 1.4735276e+2, -1071629.5, -1465234.8, 19494.834, -0.09435727, -0.4434332, -1070666.4, 425233.34, 0.046493348, 10.003952, 9.998473 
2.3452617e+3, 1.5735106e+2, -1048953.3, -1423406.4, 11585.672, -0.08481288, -0.45342195, -1048595.1, 349320.13, 0.02180055, 10.003411, 9.998338 
2.345229e+3, 1.6734944e+2, -992494.94, -1314636.0, 15410.137, -0.078473054, -0.4533183, -991759.44, 308171.8, 0.007006479, 10.002943, 9.998637 
2.3451966e+3, 1.7734806e+2, -959176.44, -1254138.5, 17112.867, -0.07696439, -0.44875482, -958186.9, 243758.4, 0.0011647528, 10.002509, 9.998589 
2.3451638e+3, 1.8734689e+2, -881616.0, -1100475.6, 12555.351, -0.08256821, -0.4462568, -880898.06, 223059.19, 0.000053067106, 10.002084, 9.999176 
2.3451309e+3, 1.9734602e+2, -851041.44, -1043978.9, 5485.94, -0.089368306, -0.44538894, -850885.6, 155080.75, 0.000000017443154, 10.001659, 9.999096 
2.3450981e+3, 2.0734538e+2, -797120.44, -915339.5, -1671.4971, -0.07984193, -0.43351284, -797096.8, 110876.67, 0.0, 10.001133, 9.99956 
2.3450655e+3, 2.1734504e+2, -786526.9, -868513.0, -6351.1685, -0.06418146, -0.41756573, -786037.8, 23940.025, 0.0, 10.000571, 9.999479 
2.345032e+3, 2.2734474e+2, -708622.4, -729156.94, -21793.418, -0.05731498, -0.4103421, -694798.8, 17182.813, 0.0, 10.000213, 9.999936 
2.3449986e+3, 2.3734465e+2, -658497.6, -665545.1, -19387.928, -0.052839503, -0.40731966, -642315.8, -28332.521, 0.0, 9.999933, 9.999835 
2.3449653e+3, 2.4734472e+2, -602104.8, -543209.4, -20242.885, -0.036781773, -0.39440826, -536922.75, -20939.07, 0.0, 9.999456, 10.000232 
2.3449321e+3, 2.5734505e+2, -595074.6, -505723.44, -30273.219, -0.017978916, -0.37704962, -496432.6, -78451.05, 0.0, 9.998903, 10.000083 
2.3448984e+3, 2.6734534e+2, -530173.1, -397254.0, -43167.098, -0.009367203, -0.35683775, -384465.4, -64485.598, 0.0, 9.998562, 10.000319 
2.3448648e+3, 2.7734578e+2, -482613.78, -342586.16, -34110.95, 0.0011732741, -0.33987644, -334718.7, -112741.89, 0.0, 9.998298, 10.000149 
2.3448318e+3, 2.8734574e+2, -450778.44, -252951.97, -24136.143, 0.04229399, -0.3571885, -250049.77, -126071.234, 0.0, 9.997743, 10.000359 
2.3447989e+3, 2.9734585e+2, -459640.53, -221512.36, -24382.164, 0.07580394, -0.3730138, -219041.48, -193062.9, 0.0, 9.997073, 10.000224 
2.3447657e+3, 3.0734766e+2, -428910.53, -135419.39, -13736.439, 0.056221977, -0.22473294, -134777.88, -134777.88, 0.0, 9.99675, 10.000635 
2.3447327e+3, 3.1734684e+2, -401797.38, -17203.076, 38927.863, 0.038749013, -0.362689, -13302.437, -13302.437, 0.0, 9.996485, 10.0015745 
2.355365e+3, 1.2739003e+2, -1210746.0, -1670000.1, 4968.795, -0.04581921, -0.44048998, -1210692.3, 480842.3, 0.10609015, 10.004815, 9.998007 
2.3553313e+3, 1.3738786e+2, -1155536.4, -1616183.4, 757.8258, -0.09365522, -0.44798732, -1155535.1, 438019.88, 0.07618397, 10.004447, 9.997864 
2.3552981e+3, 1.4738576e+2, -1085113.4, -1495311.8, -483.28284, -0.092048235, -0.45352018, -1085112.9, 410462.22, 0.04593422, 10.003956, 9.998256 
2.3552652e+3, 1.5738387e+2, -1057583.5, -1443752.0, -7589.3604, -0.05957999, -0.46205965, -1057434.4, 340158.7, 0.021496184, 10.003416, 9.998198 
2.3552322e+3, 1.6738223e+2, -983588.56, -1297809.6, -840.2626, -0.06269342, -0.4658078, -983586.3, 316022.78, 0.0068864487, 10.002948, 9.998752 
2.355199e+3, 1.773809e+2, -954100.7, -1244942.0, 732.3405, -0.083648615, -0.46760377, -954098.9, 247523.36, 0.0011397512, 10.002513, 9.9986515 
2.3551658e+3, 1.8737979e+2, -888463.0, -1115996.1, -3290.895, -0.09122858, -0.45594677, -888415.4, 215218.44, 0.00005205263, 10.002087, 9.999069 
2.3551326e+3, 1.9737896e+2, -855699.06, -1054955.6, -11615.192, -0.091468155, -0.43906334, -855024.25, 150618.52, 0.000000012769815, 10.001662, 9.999021 
2.3550993e+3, 2.0737833e+2, -794481.25, -911458.7, -22916.785, -0.07815582, -0.427165, -790151.9, 117498.24, 0.0, 10.001137, 9.999586 
2.355066e+3, 2.1737795e+2, -783610.9, -864268.7, -24982.977, -0.060037423, -0.41826895, -776499.56, 33155.28, 0.0, 10.000576, 9.999508 
2.3550323e+3, 2.2737765e+2, -704968.9, -723340.9, -31795.355, -0.05637831, -0.41178614, -681059.1, 30598.984, 0.0, 10.000218, 9.999975 
2.3549986e+3, 2.3737761e+2, -658549.1, -667247.44, -32243.941, -0.057472434, -0.40716183, -630362.4, -16703.44, 0.0, 9.999937, 9.999823 
2.3549649e+3, 2.4737749e+2, -613767.3, -568799.25, -41467.695, -0.040204406, -0.40289778, -544112.3, -28451.037, 0.0, 9.999459, 10.000055 
2.354931e+3, 2.5737754e+2, -602265.0, -521672.1, -49018.15, -0.017208662, -0.39781407, -498513.2, -80851.0, 0.0, 9.998905, 9.999974 
2.3548973e+3, 2.6737788e+2, -521117.0, -379832.63, -52987.945, -0.0033753742, -0.376547, -362168.28, -42508.4, 0.0, 9.998566, 10.000438 
2.3548633e+3, 2.7737844e+2, -477433.78, -334153.0, -47663.195, 0.011918058, -0.35269365, -319746.16, -98091.305, 0.0, 9.998305, 10.000204 
2.3548293e+3, 2.8737855e+2, -460089.25, -273617.53, -50782.89, 0.04215696, -0.35130274, -260684.52, -137028.97, 0.0, 9.9977455, 10.0002165 
2.3547956e+3, 2.9737872e+2, -466931.84, -236193.48, -46439.785, 0.06193102, -0.3488607, -227197.47, -201542.06, 0.0, 9.997068, 10.000127 
2.3547627e+3, 3.0737936e+2, -425932.25, -130191.72, -20856.615, 0.09764225, -0.31729433, -128728.08, -128728.08, 0.0, 9.996752, 10.000672 
2.354729e+3, 3.1737974e+2, -406126.4, -28815.33, 274.07953, 0.032303013, -0.33712938, -28815.13, -28815.13, 0.0, 9.996492, 10.0014925 
2.36537e+3, 1.2742355e+2, -1195318.4, -1668505.6, 13821.474, -0.04792371, -0.4452599, -1194915.0, 496290.16, 0.10477682, 10.004958, 9.997948 
2.365336e+3, 1.3742134e+2, -1145000.8, -1616256.1, 5679.572, -0.07372963, -0.45226994, -1144932.3, 448293.97, 0.075169355, 10.004547, 9.997814 
2.3653023e+3, 1.4741918e+2, -1073490.3, -1491962.6, 8362.0625, -0.075036265, -0.45902312, -1073323.3, 421923.6, 0.04525293, 10.00405, 9.998234 
2.3652686e+3, 1.5741727e+2, -1044316.25, -1439435.5, 14349.077, -0.054959994, -0.46907175, -1043795.9, 353469.4, 0.021123122, 10.00352, 9.998176 
2.3652351e+3, 1.6741562e+2, -972161.44, -1293259.4, 21113.648, -0.060225703, -0.47226238, -970779.06, 328502.25, 0.006736333, 10.003034, 9.998741 
2.3652014e+3, 1.7741428e+2, -947339.56, -1242916.6, 13963.2, -0.07939018, -0.47275317, -946681.4, 254612.98, 0.0011064293, 10.002567, 9.998638 
2.3651677e+3, 1.8741313e+2, -887007.2, -1117841.6, 11610.906, -0.08668914, -0.46216312, -886424.6, 216881.69, 0.000050042654, 10.0021105, 9.999044 
2.3651342e+3, 1.9741227e+2, -857892.7, -1058672.8, 7940.1313, -0.08715007, -0.4471863, -857579.1, 147736.53, 0.000000007665355, 10.001661, 9.998994 
2.3651004e+3, 2.0741159e+2, -779090.06, -907021.0, -6097.4497, -0.07641995, -0.43426892, -778800.06, 128523.266, 0.0, 10.001258, 9.999557 
2.3650667e+3, 2.1741119e+2, -742511.25, -846560.56, -11824.41, -0.061797433, -0.4232067, -741184.4, 68143.93, 0.0, 10.000871, 9.999486 
2.3650324e+3, 2.2741091e+2, -677774.94, -709696.2, -19533.059, -0.059798278, -0.41627026, -668510.94, 42820.613, 0.0, 10.000405, 9.999977 
2.3649983e+3, 2.3741086e+2, -662386.0, -668489.75, -23339.467, -0.06176752, -0.41204706, -641899.75, -28567.527, 0.0, 9.999911, 9.9998255 
2.364964e+3, 2.4741067e+2, -612070.4, -567153.75, -27070.55, -0.04526483, -0.41375354, -554438.4, -39103.57, 0.0, 9.999471, 10.00006 
2.3649299e+3, 2.5741065e+2, -581925.6, -512063.72, -20783.535, -0.022538172, -0.4168592, -506348.3, -89012.164, 0.0, 9.999048, 9.999969 
2.3648955e+3, 2.6741096e+2, -525118.7, -384798.03, -26122.844, -0.002923683, -0.3954342, -380092.66, -60758.453, 0.0, 9.998554, 10.000408 
2.3648614e+3, 2.7741155e+2, -518400.2, -354789.28, -33117.566, 0.020013522, -0.36720154, -348339.97, -127010.62, 0.0, 9.998031, 10.000194 
2.3648271e+3, 2.8741178e+2, -479299.06, -277016.0, -34011.867, 0.046674855, -0.3554008, -271450.38, -148121.56, 0.0, 9.997591, 10.000266 
2.3647927e+3, 2.9741207e+2, -451169.22, -229143.28, -14147.204, 0.059630103, -0.34353322, -228245.47, -202918.19, 0.0, 9.997182, 10.000119 
2.3647593e+3, 3.0741218e+2, -446121.13, -159089.4, 9140.911, 0.10575387, -0.3561059, -158798.6, -158798.6, 0.0, 9.996698, 10.000498 
2.3647253e+3, 3.1741282e+2, -438845.75, -689.92017, -7358.6875, 0.042590763, -0.33515903, -566.36816, -566.36816, 0.0, 9.996082, 10.001882 
2.3753746e+3, 1.2745745e+2, -1199464.6, -1682304.5, -173.2691, -0.08151455, -0.4461893, -1199464.5, 491408.03, 0.10322664, 10.004972, 9.997835 
2.3753408e+3, 1.3745517e+2, -1148127.3, -1623953.9, -9330.097, -0.033426, -0.45057487, -1147944.4, 444950.3, 0.07397688, 10.004541, 9.997765 
2.3753063e+3, 1.4745307e+2, -1063645.3, -1472704.9, -10622.303, -0.045600493, -0.46005157, -1063369.6, 431544.94, 0.044454228, 10.004049, 9.998374 
2.3752719e+3, 1.5745121e+2, -1037748.25, -1428347.0, -4830.3247, -0.06928522, -0.4746901, -1037688.5, 359243.25, 0.020684805, 10.003529, 9.998249 
2.3752381e+3, 1.6744955e+2, -980426.2, -1312807.6, 3563.096, -0.06974813, -0.47320142, -980388.0, 318560.0, 0.0065578343, 10.00304, 9.998605 
2.3752041e+3, 1.7744818e+2, -953182.44, -1256344.9, -3438.7915, -0.06505968, -0.46518546, -953143.44, 247818.42, 0.0010650834, 10.002569, 9.998547 
2.37517e+3, 1.8744692e+2, -883575.4, -1111957.6, -5256.124, -0.06993993, -0.46527785, -883454.44, 219520.2, 0.000047060163, 10.002113, 9.999084 
2.375136e+3, 1.9744591e+2, -856709.8, -1057595.1, -8290.753, -0.07691531, -0.4689544, -856368.2, 148616.84, 0.000000003596552, 10.001665, 9.9990015 
2.3751016e+3, 2.0744519e+2, -784818.25, -920384.1, -20312.406, -0.074792005, -0.45406207, -781840.2, 125152.99, 0.0, 10.001262, 9.999465 
2.3750673e+3, 2.174448e+2, -747460.94, -858275.5, -26978.53, -0.06950304, -0.43236345, -741241.8, 67756.48, 0.0, 10.000874, 9.999406 
2.3750328e+3, 2.2744448e+2, -680340.06, -716447.44, -38025.785, -0.067599066, -0.42383808, -656299.9, 54702.207, 0.0, 10.000409, 9.99993 
2.374998e+3, 2.3744439e+2, -661135.94, -667302.4, -41425.56, -0.065982126, -0.42176446, -622679.0, -9675.619, 0.0, 9.999914, 9.999833 
2.3749633e+3, 2.4744427e+2, -598622.56, -540793.6, -42940.55, -0.052146424, -0.42683116, -517940.0, -2935.5098, 0.0, 9.999475, 10.00024 
2.3749287e+3, 2.5744435e+2, -574855.3, -499113.9, -37620.117, -0.034337044, -0.4341539, -483604.25, -66600.58, 0.0, 9.999053, 10.000057 
2.374894e+3, 2.6744458e+2, -538474.56, -413695.63, -46569.004, -0.008365431, -0.4135252, -398231.9, -79228.836, 0.0, 9.998557, 10.00021 
2.3748593e+3, 2.7744502e+2, -524776.25, -368295.22, -52655.453, 0.025170749, -0.3836864, -352226.8, -131225.98, 0.0, 9.99803, 10.000103 
2.3748247e+3, 2.8744537e+2, -461961.16, -241545.1, -49892.543, 0.056165718, -0.37032917, -230777.61, -107778.766, 0.0, 9.997591, 10.000511 
2.3747899e+3, 2.974459e+2, -445160.13, -218278.11, -30565.85, 0.069479726, -0.35832664, -214232.38, -189237.77, 0.0, 9.997187, 10.000194 
2.3747556e+3, 3.0744606e+2, -475367.06, -220524.77, -11826.06, 0.07620925, -0.33557516, -219977.16, -219977.16, 0.0, 9.996698, 10.000077 
2.3747216e+3, 3.1744596e+2, -374591.88, 135072.08, -53366.574, 0.0815166, -0.37167925, 140600.1, 140600.1, 0.0, 9.99607, 10.002822 
2.3853794e+3, 1.2749197e+2, -1153187.4, -1661450.1, 16508.977, -0.10261929, -0.45047253, -1152651.6, 537882.0, 0.101449385, 10.005325, 9.997823 
2.3853454e+3, 1.3748956e+2, -1177086.0, -1640055.0, 17343.598, -0.0046123834, -0.46332985, -1176437.3, 416119.6, 0.07261055, 10.004327, 9.997757 
2.3853105e+3, 1.4748746e+2, -1081055.6, -1481242.9, 22275.615, -0.023817254, -0.47183254, -1079819.5, 414757.3, 0.043539435, 10.003922, 9.998371 
2.3852754e+3, 1.5748566e+2, -1007900.44, -1415423.9, 17072.74, -0.0761639, -0.48128456, -1007186.44, 389407.28, 0.020182678, 10.003745, 9.998232 
2.385241e+3, 1.67484e+2, -958747.4, -1309674.6, 19696.518, -0.07304046, -0.47565174, -957645.3, 340964.88, 0.0063527673, 10.003223, 9.998536 
2.3852068e+3, 1.7748258e+2, -956103.44, -1262416.1, 18372.676, -0.052113578, -0.46438175, -955005.4, 245619.14, 0.0010167558, 10.002572, 9.998502 
2.3851721e+3, 1.8748122e+2, -883153.7, -1108352.9, 20973.53, -0.0553508, -0.47180432, -881217.0, 221420.73, 0.000043354004, 10.002104, 9.999112 
2.3851377e+3, 1.9748013e+2, -848982.7, -1051517.4, 16808.914, -0.066740684, -0.4864901, -847597.2, 157051.4, 0.0000000010889621, 10.00171, 9.99902 
2.385103e+3, 2.0747943e+2, -780978.56, -919605.2, 9031.439, -0.069632396, -0.470501, -780392.6, 126263.86, 0.0, 10.001296, 9.999453 
2.3850681e+3, 2.174791e+2, -748870.9, -860315.1, 6921.0522, -0.06945686, -0.4431315, -748442.7, 60218.6, 0.0, 10.000873, 9.999391 
2.3850332e+3, 2.2747874e+2, -678367.0, -718268.0, -3474.9944, -0.06886648, -0.434864, -678066.6, 32598.8, 0.0, 10.000437, 9.999903 
2.384998e+3, 2.3747855e+2, -650611.6, -663343.2, -5798.786, -0.06687805, -0.43528506, -648366.44, -35699.047, 0.0, 9.999994, 9.999821 
2.3849629e+3, 2.4747847e+2, -591126.25, -533153.06, -15099.246, -0.05455772, -0.44050312, -529456.2, -14787.928, 0.0, 9.999512, 10.000274 
2.3849277e+3, 2.574786e+2, -580117.8, -499592.2, -20807.166, -0.03913419, -0.44693658, -494533.56, -77866.73, 0.0, 9.999011, 10.0000725 
2.3848926e+3, 2.674788e+2, -545278.44, -420846.0, -25632.193, -0.013384252, -0.42555803, -415772.78, -97106.3, 0.0, 9.99853, 10.000172 
2.3848574e+3, 2.7747923e+2, -521839.38, -368212.6, -19635.61, 0.021515124, -0.3953066, -365742.63, -145077.84, 0.0, 9.998058, 10.000088 
2.3848222e+3, 2.8747952e+2, -451713.97, -229759.42, -21406.22, 0.059907317, -0.38628882, -227713.77, -105051.05, 0.0, 9.997635, 10.000569 
2.384787e+3, 2.9748008e+2, -439037.47, -210890.72, -17236.703, 0.080335096, -0.37977916, -209595.83, -184937.69, 0.0, 9.997212, 10.00023 
2.3847519e+3, 3.074803e+2, -497723.47, -232492.31, 13077.343, 0.055721097, -0.35075364, -231849.08, -231849.08, 0.0, 9.996552, 10.000064 
2.3847178e+3, 3.1748018e+2, -389255.0, 147932.05, -8628.435, 0.10350207, -0.38734376, 148070.6, 148070.6, 0.0, 9.995886, 10.002997 
2.3953845e+3, 1.2752704e+2, -1148463.1, -1653465.1, -18539.691, -0.11423558, -0.4569926, -1147783.4, 542405.1, 0.09945974, 10.005321, 9.997887 
2.39535e+3, 1.3752452e+2, -1174279.0, -1637550.6, -11086.3125, 0.013933729, -0.4890017, -1174013.9, 418198.7, 0.07107774, 10.004334, 9.997771 
2.3953147e+3, 1.4752239e+2, -1088292.3, -1500206.4, 16395.947, -0.008783977, -0.49330541, -1087640.6, 406592.75, 0.042512886, 10.003932, 9.998235 
2.3952793e+3, 1.5752058e+2, -1014034.8, -1430664.9, 6386.51, -0.076683775, -0.4886006, -1013936.94, 382314.06, 0.019621054, 10.003751, 9.998126 
2.3952441e+3, 1.675189e+2, -958808.9, -1311613.6, -4952.6523, -0.070909426, -0.47942945, -958739.4, 339528.4, 0.0061249505, 10.003228, 9.998523 
2.3952092e+3, 1.7751746e+2, -955772.2, -1263700.6, -3802.841, -0.040594812, -0.46990767, -955725.25, 244557.05, 0.0009634804, 10.002578, 9.998492 
2.3951744e+3, 1.8751608e+2, -881686.44, -1107387.5, 6373.7656, -0.042897552, -0.4813637, -881506.56, 220789.02, 0.000039368104, 10.0021105, 9.999118 
2.3951393e+3, 1.9751494e+2, -846603.44, -1048540.3, 1887.4937, -0.056805983, -0.5000207, -846585.75, 157720.58, 0.0000000001152025, 10.001717, 9.999039 
2.3951043e+3, 2.0751429e+2, -776375.9, -911664.6, -6648.2637, -0.06112668, -0.48381495, -776049.94, 130263.625, 0.0, 10.0013, 9.999506 
2.3950692e+3, 2.1751401e+2, -745722.56, -855080.44, -8966.813, -0.062053896, -0.45518985, -744992.2, 63325.313, 0.0, 10.000876, 9.999427 
2.3950334e+3, 2.2751364e+2, -678925.0, -720870.4, -19932.543, -0.063831344, -0.44911104, -670964.0, 39357.824, 0.0, 10.000441, 9.999885 
2.394998e+3, 2.3751341e+2, -653085.1, -670013.7, -23074.264, -0.06454718, -0.45280054, -636971.7, -24647.258, 0.0, 9.999998, 9.999774 
2.3949625e+3, 2.4751325e+2, -599405.4, -551748.1, -34039.863, -0.052455205, -0.45480666, -534025.4, -19699.064, 0.0, 9.999516, 10.000146 
2.3949267e+3, 2.575133e+2, -584216.2, -509363.63, -39792.348, -0.036892336, -0.45505092, -492162.47, -75836.445, 0.0, 9.999014, 10.000005 
2.394891e+3, 2.6751357e+2, -536440.94, -403700.84, -43962.113, -0.018168494, -0.43123886, -390461.53, -72136.83, 0.0, 9.998532, 10.00029 
2.3948552e+3, 2.775141e+2, -517639.6, -360804.13, -37036.945, 0.008189867, -0.40180832, -352497.72, -132176.27, 0.0, 9.998061, 10.000138 
2.3948199e+3, 2.8751424e+2, -462030.63, -252440.67, -37544.117, 0.057488695, -0.40367553, -245918.31, -123597.48, 0.0, 9.997638, 10.000414 
2.3947844e+3, 2.9751453e+2, -439029.25, -211945.08, -36998.63, 0.092550814, -0.40915185, -206068.98, -181750.5, 0.0, 9.997214, 10.000223 
2.3947485e+3, 3.075148e+2, -468278.9, -170985.11, -16340.227, 0.044710584, -0.4042832, -170089.69, -170089.69, 0.0, 9.996549, 10.000489 
2.3947136e+3, 3.1751564e+2, -442048.0, 38696.746, -6558.572, 0.102106795, -0.36696196, 38786.203, 38786.203, 0.0, 9.995882, 10.00225 
2.4053898e+3, 1.2756263e+2, -1156065.3, -1657411.3, -7562.347, -0.1001388, -0.47578958, -1155951.3, 533887.5, 0.09727343, 10.005253, 9.997888 
2.4053542e+3, 1.3756019e+2, -1154254.6, -1629485.9, 2850.838, 0.006330458, -0.49866083, -1154237.5, 437624.56, 0.06939135, 10.004487, 9.997752 
2.4053186e+3, 1.4755805e+2, -1073541.1, -1502972.5, 49615.723, -0.011374687, -0.4972095, -1067883.1, 426000.06, 0.041386157, 10.004079, 9.998144 
2.405283e+3, 1.5755619e+2, -1011215.94, -1437650.3, 39138.64, -0.06405148, -0.48813096, -1007653.5, 388248.06, 0.019009763, 10.003806, 9.998051 
2.4052475e+3, 1.6755442e+2, -946992.94, -1309118.3, 16862.467, -0.06090441, -0.48331833, -946209.44, 351709.9, 0.0058806916, 10.003325, 9.998491 
2.405212e+3, 1.7755288e+2, -929091.3, -1251740.4, 18675.059, -0.040040296, -0.4813006, -928014.0, 271920.9, 0.0009078612, 10.002768, 9.998482 
2.4051765e+3, 1.8755153e+2, -847918.0, -1086223.1, 36248.797, -0.043445587, -0.490087, -842526.2, 259421.34, 0.00003557309, 10.002324, 9.999159 
2.4051411e+3, 1.9755049e+2, -815149.9, -1030741.06, 32714.701, -0.055018682, -0.5025432, -810294.94, 193662.08, 0.000000000004061441, 10.001924, 9.99906 
2.4051055e+3, 2.0754978e+2, -762041.6, -908836.56, 16907.318, -0.0581921, -0.49076098, -760119.5, 145845.27, 0.0, 10.001419, 9.999467 
2.4050698e+3, 2.1754938e+2, -748035.3, -859110.94, 7782.636, -0.0586087, -0.4702654, -747492.6, 60477.2, 0.0, 10.000875, 9.999397 
2.405034e+3, 2.2754899e+2, -686118.56, -723936.6, -3395.8235, -0.060955953, -0.46396503, -685816.06, 24158.31, 0.0, 10.000393, 9.999886 
2.4049978e+3, 2.375488e+2, -663133.94, -675388.1, -5299.1094, -0.062447518, -0.46395808, -661160.3, -49183.504, 0.0, 9.999935, 9.999766 
2.4049617e+3, 2.4754868e+2, -607831.2, -559478.44, -12129.295, -0.050332174, -0.4578505, -556606.4, -42627.996, 0.0, 9.999476, 10.00011 
2.4049255e+3, 2.575488e+2, -585728.56, -512386.3, -11529.953, -0.034471635, -0.4491655, -510616.44, -94638.664, 0.0, 9.999017, 9.999982 
2.4048895e+3, 2.6754895e+2, -534471.44, -400716.63, -19760.467, -0.01407759, -0.43922397, -397858.38, -79880.766, 0.0, 9.998541, 10.000304 
2.4048533e+3, 2.7754927e+2, -518381.06, -360433.6, -19603.195, 0.014458565, -0.43077138, -358036.97, -138061.05, 0.0, 9.998056, 10.000141 
2.4048173e+3, 2.8754961e+2, -464699.94, -256506.25, -13659.527, 0.05814182, -0.4072233, -255613.88, -133641.14, 0.0, 9.997635, 10.000385 
2.4047814e+3, 2.9755023e+2, -434730.53, -205646.19, -7267.5625, 0.084003605, -0.37588733, -205415.86, -181449.13, 0.0, 9.99723, 10.0002575 
2.4047449e+3, 3.0754942e+2, -442710.84, -138460.9, -6873.175, 0.045498084, -0.4955773, -138305.72, -138305.72, 0.0, 9.99664, 10.000668 
2.4047095e+3, 3.1755123e+2, -451646.7, -16317.938, 13482.393, 0.110473596, -0.37004176, -15900.781, -15900.781, 0.0, 9.996037, 10.001796 
2.4153955e+3, 1.275987e+2, -1161396.9, -1666845.5, -34902.44, -0.064819016, -0.5055641, -1158998.1, 530486.0, 0.094906874, 10.00523, 9.997827 
2.4153584e+3, 1.3759656e+2, -1153290.1, -1636087.3, -20069.307, -0.024894523, -0.4939945, -1152457.3, 439047.97, 0.067572065, 10.004514, 9.997696 
2.4153225e+3, 1.4759442e+2, -1073759.4, -1510101.0, 39700.664, -0.029584926, -0.48555464, -1070176.6, 423349.6, 0.040179633, 10.004101, 9.998086 
2.415287e+3, 1.5759249e+2, -1015030.56, -1446524.3, 25931.084, -0.039554313, -0.48095077, -1013477.75, 382067.72, 0.018363815, 10.003805, 9.997992 
2.415251e+3, 1.6759053e+2, -950815.0, -1317818.0, -4488.546, -0.04412604, -0.48739856, -950760.1, 346804.88, 0.005627946, 10.0033245, 9.998433 
2.4152146e+3, 1.7758879e+2, -929284.7, -1254487.1, -868.5014, -0.05007599, -0.4978983, -929282.4, 270299.94, 0.00085262675, 10.002775, 9.99846 
2.4151787e+3, 1.8758759e+2, -842386.44, -1076527.0, 21327.502, -0.056191586, -0.4979052, -840459.6, 261133.97, 0.000032342843, 10.002329, 9.999224 
2.4151431e+3, 1.9758676e+2, -814091.0, -1029257.4, 16235.487, -0.06098207, -0.49459377, -812872.9, 190727.95, 0.000000000003904099, 10.0019245, 9.999071 
2.4151069e+3, 2.0758586e+2, -771576.25, -929555.3, -3556.8943, -0.060718648, -0.4916017, -771496.2, 134114.08, 0.0, 10.00142, 9.999326 
2.4150705e+3, 2.1758516e+2, -754500.5, -873953.0, -11679.573, -0.0591592, -0.4885034, -753369.25, 54249.29, 0.0, 10.000879, 9.999295 
2.4150342e+3, 2.2758476e+2, -684772.4, -722670.9, -20414.299, -0.0602577, -0.47945955, -675868.1, 33755.117, 0.0, 10.000397, 9.999893 
2.4149978e+3, 2.3758468e+2, -661058.3, -672475.3, -22684.986, -0.06086837, -0.46857297, -643374.56, -31749.893, 0.0, 9.999938, 9.999786 
2.4149612e+3, 2.4758475e+2, -603807.2, -552554.75, -29518.92, -0.048367724, -0.44934547, -539090.44, -25465.857, 0.0, 9.99948, 10.000157 
2.4149245e+3, 2.5758502e+2, -584467.6, -511168.38, -29236.95, -0.032018665, -0.42891368, -500935.22, -85312.984, 0.0, 9.999021, 9.9999895 
2.414888e+3, 2.6758477e+2, -541229.0, -415972.97, -38568.938, -0.0006631699, -0.44986743, -405049.44, -87423.9, 0.0, 9.998543, 10.0002 
2.4148516e+3, 2.7758455e+2, -521916.72, -368905.63, -37719.8, 0.041462407, -0.48363265, -360112.38, -140483.61, 0.0, 9.998058, 10.000084 
2.414815e+3, 2.8758565e+2, -457470.94, -242531.53, -29426.494, 0.0616725, -0.39528817, -238575.67, -116957.016, 0.0, 9.997637, 10.000482 
2.4147783e+3, 2.9758725e+2, -429917.78, -196611.13, -25199.838, 0.052192956, -0.27449426, -193920.28, -170317.55, 0.0, 9.997231, 10.00032 
2.4147417e+3, 3.07584e+2, -449532.5, -153725.83, -33077.43, 0.05985322, -0.6310675, -150072.2, -150072.2, 0.0, 9.996642, 10.000563 
2.4147058e+3, 3.1758696e+2, -459139.6, -34616.598, 5140.0293, 0.1240588, -0.3813376, -34554.375, -34554.375, 0.0, 9.996044, 10.001668 
2.4254006e+3, 1.2763546e+2, -1236662.9, -1714571.4, -1090.1991, -0.022288265, -0.5196801, -1236660.5, 452462.44, 0.09237883, 10.004691, 9.997743 
2.4253628e+3, 1.3763331e+2, -1065755.8, -1601479.9, 7813.089, -0.057686694, -0.4982449, -1065641.8, 525502.44, 0.06564586, 10.005197, 9.997602 
2.4253264e+3, 1.4763106e+2, -1009310.4, -1491471.1, 48095.723, -0.051153403, -0.49068788, -1004559.6, 488606.94, 0.03891739, 10.004618, 9.997964 
2.4252908e+3, 1.5762895e+2, -1042703.44, -1467891.5, 32756.09, -0.018102389, -0.490943, -1040194.75, 354992.72, 0.017698778, 10.003646, 9.99792 
2.4252541e+3, 1.6762704e+2, -960774.06, -1315187.0, 15039.945, -0.028576992, -0.49539325, -960137.0, 337069.6, 0.0053739953, 10.003226, 9.998497 
2.4252173e+3, 1.776254e+2, -893067.2, -1233245.5, 24694.107, -0.05858911, -0.5012929, -891284.0, 307938.9, 0.0008000376, 10.00301, 9.998491 
2.425181e+3, 1.8762419e+2, -826171.56, -1075993.0, 37179.98, -0.06514211, -0.49823886, -820755.6, 280478.8, 0.000029880799, 10.002475, 9.999156 
2.4251448e+3, 1.9762333e+2, -831422.8, -1041223.56, 23099.705, -0.061511386, -0.49257213, -828909.56, 174332.78, 0.0000000000084542815, 10.001823, 9.999036 
2.4251081e+3, 2.076224e+2, -780017.9, -927542.4, 12143.382, -0.061760608, -0.49413598, -779024.94, 126226.9, 0.0, 10.001339, 9.999377 
2.4250716e+3, 2.1762165e+2, -747120.75, -867381.2, 17188.49, -0.06371597, -0.49815807, -744712.3, 62547.72, 0.0, 10.000919, 9.999319 
2.4250346e+3, 2.2762126e+2, -678547.25, -725430.8, 9145.766, -0.061430965, -0.48648626, -676826.3, 32438.479, 0.0, 10.000467, 9.999839 
2.4249978e+3, 2.376212e+2, -654748.7, -673639.7, 1899.1354, -0.05639086, -0.4693115, -654559.7, -43293.24, 0.0, 10.000003, 9.999745 
2.4249607e+3, 2.4762124e+2, -597423.94, -549089.56, -9532.383, -0.044098265, -0.45149302, -547277.56, -34010.93, 0.0, 9.999525, 10.000157 
2.4249236e+3, 2.5762147e+2, -581775.5, -509851.72, -12645.426, -0.029943714, -0.43529126, -507693.22, -92428.52, 0.0, 9.999042, 9.999987 
2.4248865e+3, 2.676212e+2, -537624.25, -415199.44, -18183.695, 0.003443054, -0.45854133, -412555.72, -95287.68, 0.0, 9.998575, 10.000188 
2.4248496e+3, 2.7762094e+2, -515198.8, -366398.38, -10658.035, 0.048925154, -0.49414268, -365638.84, -146367.64, 0.0, 9.998111, 10.000074 
2.4248125e+3, 2.8762195e+2, -459397.0, -243229.23, -5211.8887, 0.060965203, -0.40942883, -243103.64, -121842.234, 0.0, 9.997625, 10.000481 
2.4247754e+3, 2.9762354e+2, -442311.28, -198801.14, -9214.256, 0.039911695, -0.29201135, -198452.98, -175207.16, 0.0, 9.997132, 10.000351 
2.4247386e+3, 3.0762044e+2, -435487.13, -132398.92, -11326.153, 0.07195659, -0.6422416, -131976.25, -131976.25, 0.0, 9.996679, 10.00069 
2.4247016e+3, 3.176235e+2, -460646.94, -59526.508, 40956.66, 0.12349524, -0.3878901, -55387.313, -55387.313, 0.0, 9.996141, 10.001449 
2.4354057e+3, 1.2767288e+2, -1239906.6, -1729805.1, 16116.365, 0.025811084, -0.5204292, -1239377.1, 449377.78, 0.08971304, 10.004709, 9.99763 
2.4353677e+3, 1.376705e+2, -1073925.8, -1621675.9, 11670.493, -0.09251987, -0.51057225, -1073677.1, 517101.63, 0.06363852, 10.005192, 9.997467 
2.4353307e+3, 1.47668e+2, -1021795.94, -1519456.6, 11150.254, -0.076136455, -0.5105901, -1021546.25, 471257.53, 0.037619784, 10.004614, 9.997773 
2.4352947e+3, 1.5766567e+2, -1047697.56, -1480926.0, 3235.905, 0.0002851984, -0.5158551, -1047673.44, 347153.53, 0.017026022, 10.003652, 9.997829 
2.4352576e+3, 1.6766396e+2, -948206.1, -1290878.6, 7493.4043, -0.014241371, -0.5067215, -948042.4, 348801.66, 0.005123642, 10.003231, 9.998664 
2.4352202e+3, 1.7766267e+2, -888457.1, -1223882.8, 12405.294, -0.06567453, -0.49281543, -887998.94, 310857.88, 0.00075144495, 10.003009, 9.998558 
2.4351834e+3, 1.8766133e+2, -840533.3, -1106280.4, 12335.206, -0.07069113, -0.491761, -839961.94, 260908.17, 0.000028194901, 10.002475, 9.998949 
2.4351464e+3, 1.9766018e+2, -836910.44, -1054073.5, 873.5954, -0.057235677, -0.4959805, -836906.94, 165974.67, 0.00000000002968512, 10.001827, 9.998947 
2.4351093e+3, 2.0765936e+2, -763298.44, -894416.94, -3353.4722, -0.061544042, -0.49814108, -763212.75, 141676.86, 0.0, 10.001344, 9.999603 
2.4350722e+3, 2.1765886e+2, -737159.4, -847982.0, 1129.6677, -0.0723042, -0.49933112, -737147.8, 69746.69, 0.0, 10.000922, 9.999453 
2.435035e+3, 2.2765847e+2, -686927.8, -744234.06, -8216.109, -0.06449239, -0.48510545, -685773.1, 23126.19, 0.0, 10.000471, 9.999709 
2.4349979e+3, 2.3765828e+2, -661725.06, -689658.9, -15920.481, -0.049069, -0.46625555, -654513.3, -43611.117, 0.0, 10.000007, 9.999635 
2.4349602e+3, 2.4765806e+2, -600707.94, -557422.3, -27906.072, -0.037554782, -0.46469548, -543750.0, -30845.121, 0.0, 9.999529, 10.0001 
2.4349226e+3, 2.5765806e+2, -582809.0, -513370.7, -30965.385, -0.028526561, -0.46924645, -501568.06, -86662.555, 0.0, 9.999045, 9.999963 
2.434885e+3, 2.6765808e+2, -531870.6, -404572.5, -36103.62, -0.0024220997, -0.4646948, -395045.9, -78140.62, 0.0, 9.998578, 10.000261 
2.4348474e+3, 2.7765828e+2, -512504.38, -362140.47, -28857.566, 0.035421453, -0.45978788, -356792.4, -137889.17, 0.0, 9.998114, 10.000103 
2.4348101e+3, 2.8765848e+2, -467322.1, -260516.66, -24721.205, 0.055766135, -0.45281065, -257602.6, -136700.94, 0.0, 9.997626, 10.000363 
2.4347724e+3, 2.9765895e+2, -443292.3, -201094.19, -28071.281, 0.048869416, -0.43879026, -197883.23, -174985.73, 0.0, 9.99713, 10.000338 
2.4347351e+3, 3.0765882e+2, -409539.56, -79694.75, -28870.594, 0.081565745, -0.5115437, -77186.836, -77186.836, 0.0, 9.996681, 10.001053 
2.4346977e+3, 3.1766048e+2, -482966.03, -107243.25, -1727.832, 0.10819869, -0.42738265, -107235.305, -107235.305, 0.0, 9.996144, 10.0011215 
2.4454103e+3, 1.2771016e+2, -1187992.4, -1699849.8, 22097.494, 0.001504604, -0.52575976, -1187040.3, 501348.63, 0.08693415, 10.005076, 9.997659 
2.4453728e+3, 1.3770787e+2, -1103092.1, -1631813.9, 17322.627, -0.07444235, -0.50924563, -1102525.1, 487886.8, 0.061568335, 10.004949, 9.997514 
2.4453354e+3, 1.4770538e+2, -1038821.4, -1517329.9, 5783.1533, -0.0630204, -0.515843, -1038751.5, 453685.1, 0.036297232, 10.004444, 9.997869 
2.4452983e+3, 1.5770303e+2, -1020364.1, -1459150.0, 19871.277, -0.007808391, -0.53154576, -1019466.06, 374993.56, 0.01634957, 10.003807, 9.997902 
2.4452607e+3, 1.6770136e+2, -938831.8, -1285091.9, 34014.164, -0.017590566, -0.51985294, -935522.1, 360954.06, 0.0048778974, 10.003292, 9.9986725 
2.4452232e+3, 1.7770016e+2, -913825.8, -1234379.3, 26379.57, -0.05535393, -0.49893597, -911669.44, 286819.0, 0.0007068101, 10.00283, 9.99857 
2.4451858e+3, 1.8769884e+2, -852526.9, -1110594.6, 28773.668, -0.063373424, -0.49780214, -849357.6, 251144.25, 0.000027088983, 10.002389, 9.99896 
2.4451484e+3, 1.9769767e+2, -818396.25, -1044711.4, 31786.459, -0.058667593, -0.5042332, -814016.56, 188497.2, 0.00000000008671795, 10.001955, 9.998948 
2.4451108e+3, 2.0769688e+2, -747921.75, -889253.6, 19850.52, -0.06538457, -0.5012063, -745186.6, 159334.92, 0.0, 10.001462, 9.99958 
2.445073e+3, 2.1769644e+2, -734317.5, -846992.06, 6465.1045, -0.07607061, -0.4950959, -733947.75, 72578.28, 0.0, 10.000947, 9.999446 
2.4450354e+3, 2.2769599e+2, -686908.1, -740275.8, 617.85913, -0.06497112, -0.48762223, -686901.0, 21630.05, 0.0, 10.000457, 9.999742 
2.4449976e+3, 2.3769571e+2, -664819.3, -688885.06, 4687.2456, -0.045153998, -0.48032936, -663938.6, -53404.18, 0.0, 9.999979, 9.999653 
2.4449597e+3, 2.4769548e+2, -603063.94, -560746.1, -2453.139, -0.03430481, -0.47966745, -560604.4, -48067.086, 0.0, 9.999525, 10.000077 
2.4449216e+3, 2.5769547e+2, -578324.7, -511536.2, -3078.526, -0.027929438, -0.48094836, -511394.6, -96856.66, 0.0, 9.99908, 9.999957 
2.4448836e+3, 2.6769558e+2, -520921.47, -394378.47, -9239.343, -0.004911511, -0.47094977, -393707.44, -77170.74, 0.0, 9.998635, 10.000302 
2.4448454e+3, 2.776959e+2, -501759.06, -354634.84, -5674.7505, 0.03000559, -0.46180856, -354416.3, -135882.83, 0.0, 9.99818, 10.000121 
2.4448076e+3, 2.8769568e+2, -476875.84, -270469.1, -2441.657, 0.056239773, -0.4888129, -270440.22, -149904.72, 0.0, 9.997586, 10.000312 
2.4447696e+3, 2.976957e+2, -468455.66, -211343.66, 1726.0067, 0.05768837, -0.51294446, -211332.06, -188796.36, 0.0, 9.996953, 10.000351 
2.4447317e+3, 3.076972e+2, -396506.84, -48880.758, 1623.5259, 0.0768846, -0.4378861, -48873.176, -48873.176, 0.0, 9.996668, 10.001269 
2.4446939e+3, 3.176978e+2, -455591.78, -125288.28, 810.253, 0.10559329, -0.4762018, -125286.3, -125286.3, 0.0, 9.9964695, 10.000839 
2.4554145e+3, 1.2774742e+2, -1172470.5, -1677271.0, 18681.248, -0.084268734, -0.5345985, -1171780.1, 516243.56, 0.084062524, 10.005111, 9.997804 
2.4553785e+3, 1.3774551e+2, -1091223.6, -1604444.5, 8001.5156, -0.010032369, -0.49577025, -1091098.9, 498944.1, 0.059443973, 10.004931, 9.997711 
2.4553403e+3, 1.4774324e+2, -1017541.1, -1471108.6, -17931.605, -0.0172553, -0.50832057, -1016833.3, 475231.53, 0.034950472, 10.00443, 9.9981985 
2.4553017e+3, 1.5774104e+2, -1005625.7, -1429662.1, -2587.8928, -0.04015564, -0.53928816, -1005609.9, 388475.75, 0.015666911, 10.003809, 9.998105 
2.4552637e+3, 1.677393e+2, -948219.94, -1306151.0, 16593.459, -0.036835503, -0.5346703, -947452.3, 348650.8, 0.004634123, 10.003296, 9.998528 
2.455226e+3, 1.7773794e+2, -916846.06, -1241399.4, 9418.265, -0.029389681, -0.5179541, -916573.0, 281544.47, 0.00066451624, 10.0028305, 9.998523 
2.4551882e+3, 1.8773672e+2, -838277.4, -1081584.5, 12674.717, -0.04445508, -0.515263, -837618.9, 262510.63, 0.000026177097, 10.002389, 9.99916 
2.4551502e+3, 1.9773577e+2, -813319.7, -1034597.25, 14631.251, -0.065581, -0.5172253, -812356.44, 189782.53, 0.00000000016280782, 10.001955, 9.99902 
2.455112e+3, 2.0773496e+2, -766906.7, -929533.8, 605.34863, -0.07307039, -0.503373, -766904.44, 137243.42, 0.0, 10.001463, 9.999305 
2.455074e+3, 2.1773437e+2, -744083.1, -868619.56, -12241.957, -0.075341545, -0.4854868, -742891.1, 63263.527, 0.0, 10.00095, 9.999298 
2.4550356e+3, 2.277338e+2, -673437.06, -713810.6, -17158.25, -0.06307707, -0.49416482, -667130.2, 41029.957, 0.0, 10.000461, 9.999924 
2.4549976e+3, 2.3773347e+2, -654873.44, -669587.0, -13112.285, -0.04482114, -0.5116986, -647195.1, -37031.723, 0.0, 9.999982, 9.999784 
2.4549592e+3, 2.4773344e+2, -602312.3, -560526.06, -19295.613, -0.03446504, -0.49611863, -552979.06, -40814.94, 0.0, 9.999528, 10.000078 
2.4549207e+3, 2.577337e+2, -577441.56, -511123.6, -20092.6, -0.028308373, -0.46952972, -505511.06, -91348.94, 0.0, 9.9990835, 9.999959 
2.4548821e+3, 2.6773363e+2, -520407.7, -394724.1, -26537.05, -0.00391791, -0.47777298, -389350.75, -73188.19, 0.0, 9.998638, 10.000299 
2.4548438e+3, 2.777336e+2, -501453.78, -355350.84, -25022.865, 0.033122897, -0.5025239, -351184.06, -133021.58, 0.0, 9.998184, 10.000116 
2.4548052e+3, 2.8773353e+2, -476006.97, -269231.25, -27777.35, 0.062748514, -0.51605517, -265564.75, -145401.64, 0.0, 9.997586, 10.000322 
2.4547663e+3, 2.9773387e+2, -466683.5, -207465.63, -18194.115, 0.065943584, -0.5081092, -206194.84, -184034.75, 0.0, 9.996949, 10.000381 
2.454728e+3, 3.0773547e+2, -393117.13, -42898.727, -4802.293, 0.055542726, -0.42953905, -42832.887, -42832.887, 0.0, 9.996669, 10.001311 
2.4546905e+3, 3.177356e+2, -471233.4, -160315.48, -14040.38, 0.12153328, -0.5094453, -159682.73, -159682.73, 0.0, 9.996478, 10.000596 
2.4654195e+3, 1.277854e+2, -1071487.8, -1634976.3, 41902.688, -0.13522963, -0.548989, -1068388.8, 619261.44, 0.08111001, 10.00588, 9.997747 
2.4653833e+3, 1.3778344e+2, -1155184.8, -1632975.6, 23654.965, 0.02546841, -0.51065075, -1154016.5, 435653.78, 0.05726435, 10.004438, 9.997752 
2.4653445e+3, 1.4778139e+2, -1067420.6, -1465171.4, 4430.5884, 0.009000326, -0.5202707, -1067371.3, 424318.7, 0.03357189, 10.00394, 9.998475 
2.4653052e+3, 1.577795e+2, -994550.3, -1401706.1, 14910.007, -0.05674422, -0.54769856, -994005.06, 399702.53, 0.014970309, 10.00379, 9.998304 
2.4652669e+3, 1.6777778e+2, -942439.9, -1303989.9, 36024.19, -0.05219342, -0.5474193, -938885.44, 356839.4, 0.004387014, 10.003341, 9.998519 
2.4652287e+3, 1.777763e+2, -923734.5, -1244227.6, 37479.133, -0.027543051, -0.5371752, -919410.0, 278329.97, 0.0006219308, 10.002784, 9.998525 
2.4651904e+3, 1.8777518e+2, -854628.1, -1086620.9, 34790.93, -0.040263217, -0.5287834, -849523.0, 250228.63, 0.000025000976, 10.002267, 9.999183 
2.4651521e+3, 1.9777434e+2, -838323.06, -1043382.2, 24813.957, -0.06466902, -0.5212988, -835363.06, 166397.2, 0.00000000021615258, 10.001772, 9.999045 
2.4651136e+3, 2.077735e+2, -784177.8, -934681.06, 23306.67, -0.07223358, -0.5099191, -780651.25, 123117.97, 0.0, 10.001333, 9.9993305 
2.4650747e+3, 2.1777289e+2, -748152.6, -868330.2, 30430.416, -0.073377185, -0.49833414, -740886.56, 64889.79, 0.0, 10.000916, 9.999315 
2.465036e+3, 2.2777236e+2, -674050.1, -714061.7, 20593.543, -0.063040495, -0.5051537, -665344.9, 42436.824, 0.0, 10.000459, 9.999921 
2.4649976e+3, 2.3777205e+2, -653226.9, -667098.56, 11645.771, -0.047688268, -0.5184635, -646608.0, -36823.527, 0.0, 9.999989, 9.999797 
2.4649584e+3, 2.4777202e+2, -599369.75, -553828.1, 4678.1367, -0.03595817, -0.5062878, -553352.56, -41567.453, 0.0, 9.999528, 10.000123 
2.4649197e+3, 2.5777224e+2, -577674.94, -507390.97, 6325.01, -0.027188415, -0.4854284, -506826.28, -93043.164, 0.0, 9.999068, 9.999991 
2.4648806e+3, 2.6777223e+2, -534162.1, -401412.34, -935.2815, -0.0058450196, -0.49142876, -401405.75, -85622.414, 0.0, 9.998547, 10.000297 
2.4648416e+3, 2.7777222e+2, -524883.2, -363332.3, 794.2586, 0.026990129, -0.51090765, -363328.4, -145545.5, 0.0, 9.998012, 10.000143 
2.4648027e+3, 2.877722e+2, -461758.4, -249780.45, 3419.2122, 0.060793195, -0.5264434, -249725.31, -129942.48, 0.0, 9.997633, 10.000432 
2.4647634e+3, 2.977726e+2, -420141.28, -187696.19, 18813.113, 0.06894513, -0.5247268, -186183.39, -164404.05, 0.0, 9.997283, 10.000355 
2.4647246e+3, 3.0777395e+2, -431700.88, -104432.89, 9300.411, 0.04589703, -0.44111374, -104168.8, -104168.8, 0.0, 9.9965925, 10.000924 
2.4646865e+3, 3.1777388e+2, -500075.4, -86785.57, -6137.0933, 0.122290015, -0.52410674, -86694.46, -86694.46, 0.0, 9.995907, 10.001374 
2.475425e+3, 1.2782407e+2, -1087581.1, -1667349.3, -9445.151, -0.15699142, -0.5687288, -1087427.3, 599841.44, 0.07807749, 10.005856, 9.997518 
2.4753878e+3, 1.378217e+2, -1161292.6, -1648310.5, -15581.748, 0.034135, -0.54962415, -1160794.6, 428499.0, 0.05501951, 10.004435, 9.997649 
2.4753486e+3, 1.4781988e+2, -1051275.8, -1434777.3, 268.52832, 0.017628523, -0.5486328, -1051275.6, 440035.94, 0.032148164, 10.003944, 9.99869 
2.4753088e+3, 1.5781838e+2, -981148.3, -1375141.9, 5781.393, -0.05926715, -0.5562056, -981063.5, 412261.8, 0.014249484, 10.003791, 9.998489 
2.47527e+3, 1.6781677e+2, -935199.5, -1289420.1, 15121.458, -0.06434032, -0.5582095, -934555.1, 360786.16, 0.0041307975, 10.003339, 9.998621 
2.4752314e+3, 1.778153e+2, -921355.94, -1239844.6, 16968.986, -0.04792034, -0.55680263, -920454.4, 276901.75, 0.0005767445, 10.002783, 9.998556 
2.4751927e+3, 1.8781419e+2, -865034.44, -1109070.1, 16248.471, -0.049609043, -0.5386936, -863957.3, 235410.92, 0.000023236666, 10.002268, 9.999029 
2.4751538e+3, 1.9781338e+2, -839473.7, -1046807.3, 7310.9253, -0.056557506, -0.51665103, -839216.25, 162161.33, 0.00000000023303823, 10.001774, 9.9990225 
2.4751148e+3, 2.0781258e+2, -762451.2, -890783.0, 7910.011, -0.06343371, -0.5207264, -761965.44, 141420.14, 0.0, 10.001336, 9.999632 
2.4750757e+3, 2.1781199e+2, -736196.1, -844735.4, 14326.03, -0.070278354, -0.53313977, -734337.1, 71054.305, 0.0, 10.000917, 9.999477 
2.4750367e+3, 2.2781159e+2, -687054.06, -742497.7, 2998.5383, -0.06490833, -0.5201911, -686892.4, 20503.463, 0.0, 10.000463, 9.999725 
2.4749973e+3, 2.3781143e+2, -660585.7, -683891.8, -6118.0063, -0.0539292, -0.5003429, -659077.3, -49679.3, 0.0, 9.999992, 9.999681 
2.474958e+3, 2.4781117e+2, -593144.6, -542312.5, -12624.763, -0.038867593, -0.51055086, -539349.7, -27949.146, 0.0, 9.999532, 10.000202 
2.4749185e+3, 2.578111e+2, -573544.06, -500035.94, -12085.873, -0.024687551, -0.52981716, -498099.8, -84698.54, 0.0, 9.99907, 10.000042 
2.4748789e+3, 2.678113e+2, -535012.6, -403954.94, -21974.475, -0.011020583, -0.51173145, -400368.6, -84969.33, 0.0, 9.998548, 10.00028 
2.4748394e+3, 2.7781177e+2, -521225.44, -356099.3, -17682.197, 0.010715324, -0.48474374, -354227.1, -136832.25, 0.0, 9.998011, 10.000195 
2.4748e+3, 2.8781173e+2, -446707.34, -219833.92, -9120.682, 0.049698774, -0.5189674, -219467.84, -100073.04, 0.0, 9.997635, 10.000638 
2.4747607e+3, 2.9781178e+2, -425884.84, -202340.23, 835.4094, 0.06641705, -0.56457376, -202337.13, -180943.3, 0.0, 9.997292, 10.000251 
2.4747209e+3, 3.078126e+2, -493385.06, -232278.95, -23178.195, 0.048765726, -0.4762562, -230237.4, -230237.4, 0.0, 9.996589, 10.00005 
2.4746822e+3, 3.1781253e+2, -363266.44, 200309.47, -4946.2764, 0.1011992, -0.509235, 200352.89, 200352.89, 0.0, 9.995891, 10.003357 
2.4854307e+3, 1.2786354e+2, -1149568.6, -1690218.8, -1700.1306, -0.14447184, -0.578349, -1149563.3, 537316.94, 0.07494967, 10.0053425, 9.997596 
2.4853918e+3, 1.3786098e+2, -1152279.5, -1638557.6, 19483.088, 0.017051322, -0.58727586, -1151500.1, 437406.6, 0.052691117, 10.00447, 9.997698 
2.4853523e+3, 1.478592e+2, -1045791.25, -1435268.6, 53945.91, 0.00038510864, -0.5781137, -1038457.4, 452466.88, 0.030663606, 10.003995, 9.998659 
2.4853125e+3, 1.578579e+2, -997313.25, -1382789.9, 40524.46, -0.065912805, -0.5650166, -993099.06, 399837.78, 0.013494704, 10.003677, 9.998489 
2.4852732e+3, 1.6785635e+2, -949430.5, -1288605.0, 35323.03, -0.071278326, -0.56467754, -945790.9, 349161.44, 0.0038611556, 10.00321, 9.998687 
2.4852338e+3, 1.7785493e+2, -931144.3, -1237888.6, 35441.883, -0.058918986, -0.56780607, -927102.56, 269864.34, 0.0005278061, 10.00269, 9.998613 
2.4851947e+3, 1.8785378e+2, -874322.4, -1110517.1, 44421.617, -0.056441363, -0.55234975, -866244.2, 232734.8, 0.000020785536, 10.002194, 9.999054 
2.4851555e+3, 1.9785297e+2, -847182.06, -1048104.1, 47029.605, -0.056241572, -0.5317197, -836718.8, 164269.53, 0.00000000017417703, 10.001714, 9.999042 
2.485116e+3, 2.0785223e+2, -770670.06, -893996.5, 36373.563, -0.06190476, -0.53146553, -760741.44, 142254.58, 0.0, 10.001279, 9.999636 
2.4850765e+3, 2.178517e+2, -743434.56, -846231.6, 21817.271, -0.06985867, -0.5382861, -738995.8, 66005.58, 0.0, 10.000862, 9.999492 
2.4850368e+3, 2.2785129e+2, -688522.06, -739252.5, 16291.718, -0.06660612, -0.5283569, -683740.7, 23265.049, 0.0, 10.000439, 9.999758 
2.484997e+3, 2.378511e+2, -657201.4, -680382.7, 22874.84, -0.058023896, -0.5134256, -643148.3, -34140.2, 0.0, 10.0000105, 9.999696 
2.4849573e+3, 2.478509e+2, -592414.7, -545252.56, 13458.443, -0.04447788, -0.51762086, -541682.3, -30671.9, 0.0, 9.999554, 10.00017 
2.4849175e+3, 2.5785086e+2, -573205.6, -501272.16, 5104.676, -0.031241177, -0.5283763, -500911.72, -87900.82, 0.0, 9.999082, 10.000027 
2.4848774e+3, 2.6785102e+2, -530977.75, -399054.1, -6907.0474, -0.01604104, -0.5156817, -398693.47, -83684.234, 0.0, 9.998565, 10.000303 
2.4848375e+3, 2.778514e+2, -516083.16, -351644.4, 1953.3007, 0.007992908, -0.49731183, -351621.22, -134616.0, 0.0, 9.998039, 10.00021 
2.4847975e+3, 2.8785145e+2, -440444.72, -217923.5, 4371.062, 0.04536155, -0.5239952, -217837.67, -98833.13, 0.0, 9.997685, 10.000626 
2.4847578e+3, 2.978516e+2, -417639.25, -203682.34, -4488.2295, 0.059008703, -0.56010765, -203588.23, -182585.28, 0.0, 9.997374, 10.000201 
2.4847178e+3, 3.0785194e+2, -472237.34, -237943.17, -2455.5664, 0.05194853, -0.5087553, -237917.44, -237917.44, 0.0, 9.996804, 9.999905 
2.484678e+3, 3.1785205e+2, -313871.56, 254024.13, 56514.49, 0.08418181, -0.5136009, 259593.58, 259593.58, 0.0, 9.996104, 10.003621 
2.4954362e+3, 1.2790382e+2, -1129785.9, -1646599.9, -32450.578, -0.10419138, -0.5786305, -1127756.3, 558728.3, 0.07169827, 10.005313, 9.997931 
2.495396e+3, 1.379012e+2, -1139030.5, -1614321.5, -7239.3174, -0.02332052, -0.62380373, -1138920.3, 449589.75, 0.050258145, 10.0044775, 9.997862 
2.4953558e+3, 1.4789939e+2, -1060839.3, -1471201.8, 42377.656, -0.039486557, -0.60850024, -1056508.6, 434019.75, 0.02910606, 10.004006, 9.998401 
2.495316e+3, 1.5789804e+2, -1008864.4, -1408263.1, 26667.545, -0.076170266, -0.57397723, -1007091.7, 385450.7, 0.012701049, 10.003677, 9.998315 
2.4952762e+3, 1.6789651e+2, -947670.9, -1285207.6, 15870.093, -0.07365792, -0.56719124, -946926.4, 347631.6, 0.0035770952, 10.003207, 9.9987135 
2.4952365e+3, 1.778951e+2, -926091.8, -1227892.4, 16294.394, -0.061683025, -0.5706891, -925214.6, 271357.63, 0.00047530854, 10.002689, 9.998683 
2.4951968e+3, 1.8789399e+2, -861551.44, -1085036.5, 26189.98, -0.06118434, -0.56944925, -858523.3, 240060.58, 0.000017741677, 10.002196, 9.999229 
2.495157e+3, 1.9789314e+2, -843549.2, -1041879.44, 29284.066, -0.06333642, -0.5654288, -839315.6, 161277.1, 0.00000000005180779, 10.001717, 9.999084 
2.4951172e+3, 2.0789248e+2, -790347.4, -936297.06, 20725.564, -0.067341164, -0.5419014, -787461.3, 115139.26, 0.0, 10.001283, 9.999345 
2.4950771e+3, 2.1789202e+2, -752066.3, -865627.44, 6297.066, -0.07225547, -0.5145285, -751718.2, 52888.137, 0.0, 10.000866, 9.999358 
2.4950372e+3, 2.2789146e+2, -670624.5, -703548.2, 449.5609, -0.06820313, -0.5301583, -670618.4, 35993.332, 0.0, 10.0004425, 10.000003 
2.4949971e+3, 2.3789106e+2, -647523.3, -661601.75, 6253.04, -0.060095564, -0.5579028, -645147.0, -36532.01, 0.0, 10.000013, 9.999825 
2.4949569e+3, 2.4789116e+2, -602736.2, -567964.8, -4342.456, -0.053007066, -0.526862, -567430.7, -56815.793, 0.0, 9.999557, 10.000014 
2.4949163e+3, 2.5789157e+2, -579077.2, -514742.44, -13657.885, -0.04734231, -0.47933552, -511963.03, -99350.9, 0.0, 9.999084, 9.999934 
2.4948758e+3, 2.6789135e+2, -526606.5, -391109.47, -27597.75, -0.020807698, -0.5032055, -385704.06, -71090.57, 0.0, 9.998568, 10.000359 
2.4948354e+3, 2.7789113e+2, -518156.78, -357115.25, -16001.09, 0.01970148, -0.5513404, -355540.78, -138926.14, 0.0, 9.998042, 10.000173 
2.4947955e+3, 2.8789136e+2, -458064.03, -255821.4, -7756.4575, 0.047973853, -0.54207367, -255524.36, -136911.73, 0.0, 9.997688, 10.000365 
2.4947551e+3, 2.9789197e+2, -416405.2, -202395.2, -21021.162, 0.04565516, -0.5073947, -200349.95, -179742.88, 0.0, 9.997376, 10.00021 
2.4947144e+3, 3.0789194e+2, -425343.84, -142313.25, -27796.225, 0.055985462, -0.5368418, -139609.23, -139609.23, 0.0, 9.996809, 10.000561 
2.4946739e+3, 3.1789243e+2, -439913.25, -9587.593, 20633.64, 0.070375465, -0.534992, -8600.497, -8600.497, 0.0, 9.996109, 10.001809 
2.5054416e+3, 1.2794465e+2, -1206398.6, -1676421.4, 1448.5183, -0.06813762, -0.59469837, -1206394.3, 479689.3, 0.06829894, 10.004697, 9.998006 
2.5054e+3, 1.3794214e+2, -1108107.0, -1598023.1, 10707.542, -0.06720865, -0.6346091, -1107873.0, 480234.38, 0.047708154, 10.004688, 9.99787 
2.5053594e+3, 1.4794023e+2, -1045149.94, -1482255.0, 58768.49, -0.0753707, -0.61688113, -1037386.44, 452740.47, 0.027473217, 10.004196, 9.99823 
2.5053197e+3, 1.5793873e+2, -1033992.56, -1432163.8, 48312.28, -0.073548906, -0.580824, -1028214.4, 363928.44, 0.01187157, 10.003552, 9.99821 
2.5052792e+3, 1.6793717e+2, -969214.7, -1288657.0, 40305.695, -0.07008338, -0.57564956, -964207.56, 329951.03, 0.0032819086, 10.003031, 9.998773 
2.505239e+3, 1.7793581e+2, -942476.4, -1231377.5, 42615.223, -0.07008045, -0.5814305, -936321.44, 259851.08, 0.00042065585, 10.002561, 9.99872 
2.5051987e+3, 1.8793471e+2, -870465.75, -1091955.8, 43796.98, -0.07125066, -0.5767384, -862119.9, 236063.95, 0.0000143640455, 10.002149, 9.999203 
2.5051588e+3, 1.979339e+2, -839037.1, -1041294.94, 33479.043, -0.07123468, -0.5681151, -833639.5, 166553.02, 0.0000000000010010511, 10.001757, 9.999067 
2.5051185e+3, 2.0793316e+2, -787090.44, -935155.0, 36100.79, -0.071271986, -0.5495613, -778757.4, 123443.52, 0.0, 10.00131, 9.999338 
2.505078e+3, 2.1793261e+2, -755775.25, -867690.6, 40077.7, -0.07174917, -0.529173, -742903.56, 61303.91, 0.0, 10.000845, 9.999353 
2.5050375e+3, 2.2793213e+2, -679264.75, -707657.94, 25237.125, -0.06973392, -0.53834116, -664505.25, 41707.113, 0.0, 10.000385, 10.0 
2.504997e+3, 2.3793182e+2, -660547.94, -668134.94, 13555.716, -0.065577924, -0.5564894, -650264.94, -42050.01, 0.0, 9.999928, 9.999819 
2.5049564e+3, 2.4793185e+2, -614060.9, -575456.4, 5563.6177, -0.055925246, -0.53007084, -574670.56, -64455.16, 0.0, 9.999491, 9.999993 
2.5049153e+3, 2.5793216e+2, -583004.5, -516656.84, 5558.1997, -0.045917816, -0.49074888, -516194.4, -103980.87, 0.0, 9.999061, 9.999931 
2.5048742e+3, 2.6793194e+2, -509993.78, -378343.0, -7357.301, -0.022935808, -0.5181777, -377933.1, -63718.273, 0.0, 9.998664, 10.000399 
2.5048333e+3, 2.779317e+2, -486694.2, -342069.03, 3327.7483, 0.01223593, -0.56886816, -341992.5, -125776.82, 0.0, 9.998261, 10.000169 
2.504793e+3, 2.8793198e+2, -468919.97, -272374.75, 19535.16, 0.04809694, -0.5474362, -270451.9, -152238.55, 0.0, 9.997665, 10.000261 
2.5047523e+3, 2.9793268e+2, -462922.44, -218951.33, 17987.15, 0.055432025, -0.49612707, -217632.33, -197425.02, 0.0, 9.997035, 10.000259 
2.504711e+3, 3.0793244e+2, -391734.34, -79806.664, 1916.6041, 0.03851177, -0.57271796, -79794.88, -79794.88, 0.0, 9.996843, 10.000972 
2.50467e+3, 3.1793338e+2, -409958.72, -84531.08, 32699.557, 0.062440995, -0.5480355, -81277.88, -81277.88, 0.0, 9.996702, 10.001006 
2.5154465e+3, 1.27986e+2, -1214648.5, -1697383.9, 430.87924, -0.03661957, -0.624061, -1214648.1, 471028.9, 0.06475344, 10.004693, 9.99786 
2.515404e+3, 1.3798377e+2, -1115163.4, -1616633.0, 3403.0835, -0.11418151, -0.62262064, -1115140.4, 472558.5, 0.04505208, 10.004688, 9.997745 
2.5153634e+3, 1.4798173e+2, -1051305.6, -1497785.1, 34492.96, -0.10769496, -0.60601777, -1048656.6, 441063.1, 0.025779517, 10.004197, 9.998123 
2.5153232e+3, 1.5797998e+2, -1037281.1, -1440227.4, 25576.027, -0.059950344, -0.58596134, -1035664.25, 356073.94, 0.01101863, 10.0035515, 9.998156 
2.5152823e+3, 1.6797838e+2, -963047.94, -1277288.6, 22253.346, -0.061478637, -0.5893573, -961479.9, 332274.34, 0.0029826919, 10.003034, 9.998851 
2.5152412e+3, 1.7797704e+2, -941940.7, -1232260.3, 25406.559, -0.083725706, -0.59919345, -939734.06, 256033.5, 0.00036615646, 10.002566, 9.998713 
2.5152007e+3, 1.8797599e+2, -885062.6, -1123992.5, 29164.863, -0.08629881, -0.5748081, -881554.1, 216224.66, 0.000011028373, 10.002153, 9.998982 
2.51516e+3, 1.9797522e+2, -844082.8, -1052914.3, 18204.182, -0.08025813, -0.54167575, -842507.8, 157279.86, 0.0, 10.00176, 9.998987 
2.5151196e+3, 2.0797428e+2, -769017.7, -898675.7, 18749.238, -0.07384604, -0.5549096, -766360.9, 135436.2, 0.0, 10.001312, 9.999589 
2.5150788e+3, 2.1797352e+2, -748192.8, -852965.8, 22669.139, -0.06846577, -0.5809985, -743498.4, 60306.48, 0.0, 10.000847, 9.9994545 
2.515038e+3, 2.2797328e+2, -696592.9, -745020.8, 8091.0693, -0.07131425, -0.55217165, -695276.9, 10531.033, 0.0, 10.000389, 9.999743 
2.5149965e+3, 2.3797336e+2, -670051.25, -689392.5, -3575.278, -0.07467376, -0.50910705, -669411.5, -61603.543, 0.0, 9.999932, 9.999673 
2.5149557e+3, 2.4797295e+2, -606113.2, -560245.9, -10878.979, -0.053060494, -0.52802294, -557796.4, -47984.27, 0.0, 9.999494, 10.000097 
2.5149146e+3, 2.5797257e+2, -577025.2, -505423.47, -10509.312, -0.026508674, -0.5649069, -503912.84, -92097.21, 0.0, 9.999063, 10.000009 
2.514873e+3, 2.679727e+2, -508384.06, -376445.5, -22439.635, -0.02267586, -0.5610757, -372733.5, -58919.934, 0.0, 9.998667, 10.000411 
2.5148314e+3, 2.7797315e+2, -484014.84, -338332.7, -14970.152, -0.015888723, -0.54708475, -336810.28, -121001.87, 0.0, 9.998266, 10.000194 
2.5147906e+3, 2.879733e+2, -465172.75, -265030.4, -6255.597, 0.04580736, -0.5395999, -264835.06, -147028.17, 0.0, 9.997664, 10.000314 
2.5147495e+3, 2.9797363e+2, -458409.03, -208225.95, 120.85228, 0.09055727, -0.53045243, -208225.9, -188421.8, 0.0, 9.9970255, 10.000339 
2.514707e+3, 3.079734e+2, -382059.0, -61163.43, 43.952824, -0.0038810347, -0.618191, -61163.426, -61163.426, 0.0, 9.996846, 10.001101 
2.5146666e+3, 3.1797495e+2, -380904.63, -29255.797, 14257.458, 0.06844867, -0.54999423, -28678.68, -28678.68, 0.0, 9.996721, 10.001378 
2.5254512e+3, 1.2802774e+2, -1217936.9, -1691602.0, 9099.56, -0.03963908, -0.62067986, -1217762.1, 467505.84, 0.061095316, 10.00462, 9.997934 
2.5254086e+3, 1.3802561e+2, -1122551.1, -1615217.8, 18477.672, -0.12731598, -0.615564, -1121859.0, 465429.5, 0.0423266, 10.0046015, 9.997795 
2.525367e+3, 1.4802352e+2, -1063792.9, -1505312.8, 40137.973, -0.12274314, -0.6064659, -1060173.6, 429136.25, 0.024054613, 10.00411, 9.998112 
2.5253263e+3, 1.5802164e+2, -1049506.1, -1446008.0, 39293.57, -0.07242432, -0.5972118, -1045649.56, 345679.9, 0.010160197, 10.003467, 9.998157 
2.5252852e+3, 1.680201e+2, -960783.5, -1273496.0, 41355.56, -0.07332159, -0.5957107, -955406.75, 337938.13, 0.0026876489, 10.003039, 9.998873 
2.5252438e+3, 1.7801885e+2, -923693.56, -1222163.5, 40449.047, -0.09584008, -0.5963406, -918308.94, 277048.1, 0.00031428054, 10.002688, 9.998721 
2.5252026e+3, 1.880177e+2, -877602.94, -1123438.6, 51815.04, -0.093907006, -0.5814813, -867128.1, 230241.11, 0.000008091692, 10.002221, 9.998952 
2.5251618e+3, 1.9801675e+2, -851516.3, -1057575.1, 52317.06, -0.08190175, -0.5626119, -838994.3, 160385.36, 0.0, 10.001716, 9.998975 
2.5251207e+3, 2.080159e+2, -779457.25, -900461.5, 42859.53, -0.07392119, -0.56945986, -765814.56, 135573.78, 0.0, 10.001229, 9.999616 
2.5250795e+3, 2.1801525e+2, -761406.7, -858598.75, 32153.854, -0.06847523, -0.58387077, -751732.25, 51662.52, 0.0, 10.000756, 9.999458 
2.525038e+3, 2.2801493e+2, -702722.44, -754946.94, 25834.361, -0.07103014, -0.5594174, -692102.4, 13296.287, 0.0, 10.00038, 9.999678 
2.5249967e+3, 2.3801486e+2, -658877.1, -688087.2, 26539.629, -0.07378546, -0.5248547, -643189.25, -35789.117, 0.0, 10.00003, 9.999633 
2.524955e+3, 2.4801439e+2, -594467.4, -552077.3, 15487.176, -0.050180785, -0.548768, -547021.94, -37617.324, 0.0, 9.999565, 10.000117 
2.5249135e+3, 2.58014e+2, -575397.5, -502401.56, 10669.025, -0.021650473, -0.58980006, -500874.16, -89465.984, 0.0, 9.999067, 10.000026 
2.5248715e+3, 2.6801425e+2, -506735.0, -375120.28, -1056.3766, -0.022588676, -0.57529485, -375111.8, -61706.773, 0.0, 9.998679, 10.000414 
2.5248292e+3, 2.7801484e+2, -475048.7, -331310.0, 3067.4412, -0.022119537, -0.5467369, -331244.56, -115846.016, 0.0, 9.998319, 10.000216 
2.524788e+3, 2.880148e+2, -433471.44, -242999.83, 5773.026, 0.04221473, -0.56279284, -242825.02, -125426.26, 0.0, 9.997856, 10.000372 
2.5247467e+3, 2.9801485e+2, -411468.1, -184960.1, 15366.549, 0.090711474, -0.5844156, -183922.36, -164524.08, 0.0, 9.997348, 10.000342 
2.524704e+3, 3.0801538e+2, -385492.7, -74542.016, 9677.445, -0.017916678, -0.59225667, -74241.125, -74241.125, 0.0, 9.996877, 10.000993 
2.5246632e+3, 3.1801644e+2, -393740.72, -1393.8542, 6423.2705, 0.07008484, -0.56647944, -1288.7244, -1288.7244, 0.0, 9.9964905, 10.001679 
2.5354552e+3, 1.280699e+2, -1198521.4, -1656170.9, 8798.987, -0.07194389, -0.5899388, -1198352.3, 486503.75, 0.057376184, 10.004625, 9.998187 
2.5354132e+3, 1.3806774e+2, -1110834.6, -1588759.0, 11164.065, -0.11142893, -0.61281586, -1110574.0, 476301.94, 0.03957951, 10.004582, 9.997987 
2.5353712e+3, 1.4806561e+2, -1060370.1, -1497600.1, 15426.739, -0.123347655, -0.6165986, -1059826.5, 429070.56, 0.022332339, 10.004099, 9.998171 
2.5353295e+3, 1.5806374e+2, -1046211.25, -1440774.8, 17731.627, -0.108355865, -0.6137219, -1045416.0, 345500.5, 0.009313713, 10.0034685, 9.998193 
2.5352877e+3, 1.6806234e+2, -963025.4, -1279088.9, 28308.924, -0.10335037, -0.5953668, -960509.8, 332420.6, 0.0024035233, 10.00304, 9.998836 
2.5352463e+3, 1.7806128e+2, -923024.1, -1220347.3, 25515.488, -0.106642626, -0.5748153, -920850.4, 274090.6, 0.000266946, 10.002685, 9.998737 
2.535205e+3, 1.8805987e+2, -868334.6, -1104312.6, 32668.512, -0.094721295, -0.59642446, -863895.56, 233059.53, 0.0000057652073, 10.002218, 9.999085 
2.5351635e+3, 1.9805853e+2, -848714.2, -1052704.1, 33445.656, -0.076612845, -0.627792, -843370.5, 155597.78, 0.0, 10.001718, 9.999009 
2.5351217e+3, 2.0805798e+2, -792711.5, -929316.0, 24861.805, -0.07180386, -0.59206796, -788327.44, 112647.31, 0.0, 10.001232, 9.999417 
2.53508e+3, 2.1805783e+2, -767681.3, -873111.5, 15820.278, -0.07205429, -0.5394123, -765358.56, 37618.973, 0.0, 10.00076, 9.999358 
2.5350383e+3, 2.2805709e+2, -694232.25, -738755.6, 13081.803, -0.06886006, -0.5609888, -690673.1, 14311.685, 0.0, 10.000383, 9.999789 
2.5349966e+3, 2.3805633e+2, -654515.7, -680306.8, 11595.086, -0.06289278, -0.603729, -650069.3, -43077.715, 0.0, 10.000032, 9.999686 
2.5349545e+3, 2.480562e+2, -599268.75, -563354.1, -3687.2222, -0.04758237, -0.5916272, -562979.5, -53986.38, 0.0, 9.999569, 10.00004 
2.5349122e+3, 2.5805643e+2, -578673.06, -510493.16, -6955.6704, -0.032096304, -0.5633495, -509790.78, -98799.59, 0.0, 9.99907, 9.9999695 
2.5348702e+3, 2.680565e+2, -507559.3, -378044.0, -14857.4375, -0.02246891, -0.56011486, -376361.5, -63372.06, 0.0, 9.998681, 10.000394 
2.534828e+3, 2.780567e+2, -473905.3, -330201.78, -12255.653, -0.0051604025, -0.5699111, -329164.06, -114177.46, 0.0, 9.998322, 10.000223 
2.534786e+3, 2.880564e+2, -428871.8, -235177.7, -13904.889, 0.036631383, -0.6195107, -234184.6, -117195.11, 0.0, 9.99786, 10.000424 
2.5347435e+3, 2.980563e+2, -416774.22, -198403.89, -4124.6426, 0.05236576, -0.6592279, -198326.02, -179335.67, 0.0, 9.997355, 10.000248 
2.534701e+3, 3.0805835e+2, -412415.16, -131023.64, -9277.165, 0.00023894483, -0.48463327, -130718.12, -130718.12, 0.0, 9.996876, 10.000607 
2.5346595e+3, 3.180576e+2, -377919.3, 31769.957, 2894.5, 0.055488493, -0.61423254, 31790.406, 31790.406, 0.0, 9.996485, 10.001912 
2.5454596e+3, 1.2811215e+2, -1173151.4, -1633184.3, 29518.738, -0.1020912, -0.5942328, -1171265.0, 513176.9, 0.05364212, 10.004744, 9.998295 
2.5454175e+3, 1.381102e+2, -1169854.9, -1604691.3, 22988.117, -0.108472325, -0.6068816, -1168643.0, 417816.72, 0.03684756, 10.004091, 9.998113 
2.545375e+3, 1.481082e+2, -1101420.8, -1499726.8, 27678.28, -0.12262253, -0.6140608, -1099506.5, 388972.84, 0.02063666, 10.003729, 9.998333 
2.545333e+3, 1.5810639e+2, -1041098.25, -1426136.4, 35658.785, -0.121213354, -0.61884314, -1037823.75, 352674.0, 0.008490762, 10.003451, 9.9983 
2.5452906e+3, 1.6810499e+2, -977271.1, -1288718.4, 48086.34, -0.111408435, -0.6039623, -970015.75, 322496.06, 0.002134245, 10.002955, 9.998809 
2.545249e+3, 1.7810388e+2, -962719.94, -1237397.4, 45986.508, -0.10409508, -0.58512676, -955225.3, 239297.6, 0.00022501893, 10.002405, 9.998754 
2.5452068e+3, 1.8810254e+2, -890462.4, -1102526.3, 52669.914, -0.09441904, -0.60544515, -878101.3, 218434.64, 0.0000040749073, 10.002016, 9.999194 
2.545165e+3, 1.9810133e+2, -850891.8, -1047323.7, 51078.633, -0.082203366, -0.6351118, -838403.7, 160144.11, 0.0, 10.0016775, 9.9990635 
2.545123e+3, 2.0810077e+2, -794361.25, -938627.8, 47283.19, -0.07498531, -0.59802276, -780245.4, 120309.12, 0.0, 10.001261, 9.999338 
2.5450808e+3, 2.1810053e+2, -762481.8, -875434.1, 46352.516, -0.070247844, -0.54369015, -745895.56, 56662.61, 0.0, 10.000819, 9.999311 
2.5450388e+3, 2.2809973e+2, -695878.1, -736686.3, 41598.58, -0.0647814, -0.57131034, -669949.0, 34616.914, 0.0, 10.000363, 9.999811 
2.5449964e+3, 2.380989e+2, -672485.7, -688105.56, 33657.066, -0.05752957, -0.6227008, -645744.3, -39171.223, 0.0, 9.999908, 9.999691 
2.544954e+3, 2.4809882e+2, -604362.25, -570367.06, 18202.691, -0.043962777, -0.6041663, -562459.7, -53885.53, 0.0, 9.999557, 9.999996 
2.5449115e+3, 2.5809908e+2, -558946.44, -505488.25, 17091.822, -0.030940847, -0.5651046, -500490.78, -89919.055, 0.0, 9.9992285, 9.999927 
2.544869e+3, 2.68099e+2, -493325.47, -376707.78, 7732.0356, -0.019211737, -0.5765851, -376197.34, -63625.4, 0.0, 9.998806, 10.000341 
2.5448263e+3, 2.7809894e+2, -472265.84, -332553.97, 6621.3555, 0.0010142833, -0.60629445, -332240.88, -117669.195, 0.0, 9.998349, 10.000192 
2.5447834e+3, 2.8809893e+2, -423010.25, -229253.16, -335.34985, 0.031548046, -0.6229211, -229252.58, -112681.54, 0.0, 9.99789, 10.000449 
2.5447407e+3, 2.9809925e+2, -408182.0, -198083.23, 9669.581, 0.033774503, -0.62394315, -197639.14, -179071.53, 0.0, 9.997435, 10.000211 
2.544698e+3, 3.0809993e+2, -392125.94, -144024.4, 18239.7, 0.015187202, -0.57256246, -142690.64, -142690.64, 0.0, 9.997116, 10.0004 
2.544656e+3, 3.180997e+2, -357749.97, 31220.078, 23896.076, 0.046391953, -0.6281351, 32682.615, 32682.615, 0.0, 9.996671, 10.001818 
2.555464e+3, 1.281546e+2, -1171912.0, -1635105.0, 6080.6133, -0.13141969, -0.6272251, -1171832.1, 512192.88, 0.049920857, 10.0047455, 9.99828 
2.5554213e+3, 1.3815306e+2, -1164175.9, -1595266.6, 3640.4321, -0.11695036, -0.59790355, -1164145.1, 421894.38, 0.034147184, 10.00409, 9.9981785 
2.5553787e+3, 1.481513e+2, -1084496.1, -1465822.1, 17991.76, -0.120670766, -0.60057646, -1083649.1, 404407.66, 0.01897717, 10.003727, 9.998571 
2.555336e+3, 1.5814961e+2, -1030623.8, -1403722.8, 21965.008, -0.11385919, -0.61390024, -1029335.1, 360738.0, 0.007696237, 10.003444, 9.998459 
2.5552937e+3, 1.6814804e+2, -979458.6, -1293153.0, 26888.545, -0.10003365, -0.6206499, -977170.56, 314918.4, 0.0018811532, 10.002952, 9.998781 
2.555251e+3, 1.781467e+2, -961853.7, -1236555.1, 27506.063, -0.089822054, -0.62408423, -959126.56, 234976.03, 0.00018830437, 10.002406, 9.99876 
2.5552088e+3, 1.8814577e+2, -884529.25, -1091620.4, 40096.67, -0.09348678, -0.6082983, -877036.8, 219075.02, 0.0000029076905, 10.002019, 9.999269 
2.5551665e+3, 1.9814512e+2, -845814.06, -1038132.75, 36993.297, -0.098380715, -0.5882277, -838943.7, 159174.67, 0.0, 10.001681, 9.999126 
2.5551242e+3, 2.0814422e+2, -792195.06, -935247.1, 30643.484, -0.083058365, -0.5888659, -785907.2, 114220.71, 0.0, 10.001263, 9.999361 
2.5550818e+3, 2.1814342e+2, -762629.44, -876634.06, 29620.71, -0.0630783, -0.5950686, -755392.75, 46743.96, 0.0, 10.00082, 9.999305 
2.555039e+3, 2.2814289e+2, -700680.2, -747935.06, 24293.496, -0.059089128, -0.58932155, -690419.1, 13722.851, 0.0, 10.000366, 9.999734 
2.5549963e+3, 2.3814258e+2, -675633.3, -696079.75, 17742.893, -0.05819176, -0.5816677, -665379.1, -59234.434, 0.0, 9.999912, 9.999636 
2.5549537e+3, 2.4814221e+2, -605056.1, -573253.56, 5988.5747, -0.039242204, -0.58667773, -572163.3, -64015.242, 0.0, 9.999559, 9.999976 
2.5549108e+3, 2.5814196e+2, -561123.2, -511562.13, 3163.2754, -0.017843468, -0.59655184, -511361.06, -101211.02, 0.0, 9.999232, 9.999885 
2.5548676e+3, 2.6814163e+2, -499594.5, -391053.2, -9991.288, -0.012956688, -0.6259976, -390141.13, -77988.164, 0.0, 9.998809, 10.000243 
2.5548244e+3, 2.7814144e+2, -477661.06, -344718.44, -11147.22, -0.004436267, -0.655998, -343790.22, -129636.164, 0.0, 9.998351, 10.000109 
2.554781e+3, 2.8814247e+2, -424045.03, -232287.47, -18563.014, 0.02712415, -0.56765443, -230507.0, -114363.75, 0.0, 9.997891, 10.000429 
2.554738e+3, 2.9814377e+2, -406427.13, -195615.63, -6097.5283, 0.03643618, -0.4688852, -195439.4, -177309.81, 0.0, 9.997437, 10.000228 
2.554695e+3, 3.0813977e+2, -391746.8, -145490.61, 7305.882, 0.02675113, -0.8843789, -145274.06, -145274.06, 0.0, 9.997123, 10.000388 
2.5546527e+3, 3.181433e+2, -394585.56, -46898.29, -29527.922, 0.04655736, -0.54869574, -44408.414, -44408.414, 0.0, 9.996674, 10.001281 
2.5654683e+3, 1.281979e+2, -1161732.6, -1640489.0, 29932.38, -0.16275045, -0.6500631, -1159868.5, 523730.75, 0.04622829, 10.0048485, 9.998189 
2.5654253e+3, 1.3819638e+2, -1169961.1, -1599938.8, 27359.162, -0.120189354, -0.60798603, -1168227.3, 417386.94, 0.031482443, 10.004048, 9.998166 
2.565382e+3, 1.4819472e+2, -1101279.4, -1457466.5, 46503.926, -0.12048036, -0.6086392, -1095307.9, 392322.4, 0.017354343, 10.003533, 9.998721 
2.5653392e+3, 1.5819317e+2, -1067950.0, -1408903.3, 43300.125, -0.11887261, -0.6234171, -1062536.9, 327108.34, 0.0069304747, 10.00313, 9.998573 
2.5652963e+3, 1.6819164e+2, -1006835.25, -1302860.6, 46631.42, -0.10467006, -0.63177305, -999663.4, 291997.22, 0.0016439282, 10.00275, 9.998811 
2.5652534e+3, 1.7819029e+2, -964272.1, -1235392.0, 51664.44, -0.09202953, -0.6366863, -954760.7, 238913.56, 0.00015606394, 10.002382, 9.998778 
2.5652108e+3, 1.881894e+2, -884553.06, -1093025.3, 63232.668, -0.096331105, -0.6164257, -866873.06, 228810.22, 0.0000021053752, 10.0020275, 9.999254 
2.5651678e+3, 1.9818881e+2, -845855.4, -1036156.44, 52102.613, -0.10276295, -0.5902131, -832524.1, 165165.38, 0.0, 10.001675, 9.999142 
2.5651252e+3, 2.081879e+2, -795994.4, -928585.2, 42922.473, -0.083751194, -0.59742045, -783312.44, 116386.52, 0.0, 10.001204, 9.999434 
2.5650826e+3, 2.1818705e+2, -777239.06, -879907.1, 46142.984, -0.058519598, -0.6139459, -759548.75, 42158.992, 0.0, 10.000708, 9.999335 
2.5650394e+3, 2.2818655e+2, -703445.94, -756700.6, 44705.355, -0.05354792, -0.6010584, -678038.9, 25674.004, 0.0, 10.000382, 9.999664 
2.5649965e+3, 2.381863e+2, -652070.25, -689893.44, 37902.74, -0.05278461, -0.5809309, -628623.06, -22907.752, 0.0, 10.000099, 9.999586 
2.5649533e+3, 2.4818584e+2, -596224.9, -570482.6, 24452.146, -0.031890616, -0.5923639, -555720.94, -48001.395, 0.0, 9.99963, 9.999959 
2.56491e+3, 2.5818545e+2, -579313.8, -521695.66, 22947.771, -0.008585197, -0.6143204, -513673.2, -103950.46, 0.0, 9.999117, 9.999869 
2.5648662e+3, 2.6818514e+2, -498485.47, -391798.63, 16393.785, -0.010568112, -0.63928014, -389336.34, -77610.93, 0.0, 9.998825, 10.000228 
2.5648224e+3, 2.7818504e+2, -446000.22, -332181.88, 19398.338, -0.010400035, -0.66033906, -328966.6, -115240.695, 0.0, 9.998583, 10.000082 
2.5647792e+3, 2.8818595e+2, -393236.6, -224155.19, 7367.904, 0.027678171, -0.57616323, -223834.73, -108118.88, 0.0, 9.998135, 10.000367 
2.5647357e+3, 2.9818714e+2, -382499.88, -188316.92, 17296.957, 0.04610602, -0.48496655, -186788.22, -169084.88, 0.0, 9.997622, 10.000188 
2.5646922e+3, 3.0818295e+2, -389527.38, -142387.13, 31168.568, 0.016225955, -0.9162244, -138516.84, -138516.84, 0.0, 9.997133, 10.000402 
2.5646493e+3, 3.1818703e+2, -402853.78, -53972.438, -14502.227, 0.055696648, -0.5283061, -53370.65, -53370.65, 0.0, 9.9966345, 10.001249 
2.5754726e+3, 1.2824193e+2, -1172492.8, -1663079.3, 488.37885, -0.19602267, -0.66487294, -1172492.3, 510672.9, 0.042582672, 10.00483, 9.9980345 
2.575429e+3, 1.3824017e+2, -1175091.9, -1612745.9, 2162.0334, -0.1193113, -0.63399106, -1175081.3, 410102.34, 0.028858952, 10.004044, 9.998081 
2.5753856e+3, 1.4823852e+2, -1095424.3, -1448401.8, 31633.379, -0.12221134, -0.6348367, -1092611.8, 394588.16, 0.01576847, 10.003539, 9.998783 
2.575342e+3, 1.5823708e+2, -1061717.4, -1398727.5, 28486.338, -0.13511534, -0.64528733, -1059326.5, 329887.22, 0.0061930204, 10.003138, 9.998641 
2.5752988e+3, 1.6823578e+2, -1000772.9, -1292425.1, 32631.94, -0.12369628, -0.637607, -997166.44, 294060.34, 0.0014220574, 10.002756, 9.99888 
2.5752556e+3, 1.7823467e+2, -962271.3, -1232778.0, 37683.06, -0.10921613, -0.62547076, -957119.94, 236118.16, 0.0001276747, 10.002386, 9.9987955 
2.5752127e+3, 1.8823348e+2, -891655.1, -1108656.4, 50159.656, -0.102462225, -0.6299325, -880621.75, 214628.53, 0.0000015362658, 10.002028, 9.999147 
2.5751698e+3, 1.9823244e+2, -848480.06, -1041835.75, 37198.99, -0.09606147, -0.6379005, -841570.44, 155690.39, 0.0, 10.001673, 9.999105 
2.5751266e+3, 2.082318e+2, -788112.6, -913114.3, 23847.809, -0.07777122, -0.62206167, -783717.44, 115549.945, 0.0, 10.0012045, 9.999541 
2.575083e+3, 2.1823142e+2, -772653.75, -871981.44, 29859.365, -0.057071008, -0.6012554, -764368.6, 36902.895, 0.0, 10.000711, 9.999389 
2.57504e+3, 2.2823071e+2, -707562.2, -766799.7, 34623.41, -0.048074767, -0.60718304, -691617.25, 11661.447, 0.0, 10.000386, 9.999595 
2.5749964e+3, 2.3823008e+2, -655078.25, -697551.9, 24429.373, -0.041085318, -0.6206628, -643945.4, -38660.31, 0.0, 10.000103, 9.999534 
2.5749528e+3, 2.482297e+2, -597522.6, -574397.0, 4252.7627, -0.022086823, -0.6210697, -573639.75, -66351.01, 0.0, 9.999633, 9.999932 
2.574909e+3, 2.5822955e+2, -578653.56, -521285.34, 6494.0903, -0.0037979865, -0.6174077, -520559.4, -111269.47, 0.0, 9.999118, 9.999873 
2.574865e+3, 2.6822954e+2, -493546.94, -382795.5, 7656.522, -0.012296269, -0.6143767, -382268.7, -70979.41, 0.0, 9.998828, 10.00029 
2.574821e+3, 2.7822968e+2, -443588.7, -329117.13, 7071.931, -0.01710948, -0.61696464, -328681.88, -115394.77, 0.0, 9.998589, 10.000101 
2.5747773e+3, 2.8822932e+2, -400533.28, -241137.33, -12508.532, 0.033507183, -0.6558254, -240161.69, -124871.984, 0.0, 9.998139, 10.000249 
2.5747332e+3, 2.982291e+2, -389831.6, -205100.56, -1783.5693, 0.06344272, -0.6884254, -205083.34, -187792.7, 0.0, 9.997625, 10.000072 
2.5746888e+3, 3.0822983e+2, -387716.63, -139259.13, 11568.264, -0.020129694, -0.62571424, -138721.67, -138721.67, 0.0, 9.997133, 10.000426 
2.574646e+3, 3.182299e+2, -361984.13, 31324.29, -29032.723, 0.08040462, -0.6550097, 33455.836, 33455.836, 0.0, 9.99663, 10.001839 
2.5854772e+3, 1.2828648e+2, -1200898.8, -1678658.8, 10585.017, -0.20717427, -0.68056417, -1200664.4, 482062.2, 0.039007433, 10.00462, 9.998024 
2.585433e+3, 1.3828465e+2, -1194297.3, -1623074.8, 25336.676, -0.1312516, -0.6568458, -1192805.3, 391940.97, 0.026289387, 10.003904, 9.998077 
2.585389e+3, 1.4828302e+2, -1097695.0, -1449907.9, 65052.18, -0.13432164, -0.6544772, -1086064.1, 400698.16, 0.014224672, 10.003523, 9.998778 
2.5853452e+3, 1.5828162e+2, -1045124.94, -1391196.8, 55910.855, -0.14730579, -0.65852726, -1036316.3, 352459.4, 0.0054854946, 10.003255, 9.998634 
2.5853014e+3, 1.6828033e+2, -990773.3, -1288814.5, 52117.54, -0.13744745, -0.6492713, -981922.56, 308866.3, 0.0012158366, 10.002832, 9.998868 
2.5852576e+3, 1.782792e+2, -964738.2, -1232441.6, 51927.395, -0.1242582, -0.63733625, -955018.56, 237781.81, 0.000102820115, 10.002365, 9.998807 
2.5852144e+3, 1.8827799e+2, -907716.2, -1110405.6, 71502.51, -0.108080715, -0.64668345, -885031.25, 209781.31, 0.0000011114956, 10.001896, 9.999198 
2.5851712e+3, 1.9827694e+2, -881382.25, -1055509.5, 68254.97, -0.08963487, -0.66049474, -857816.7, 139006.52, 0.0, 10.001441, 9.999122 
2.5851274e+3, 2.0827633e+2, -803158.56, -927002.4, 48629.32, -0.072363116, -0.6381673, -786345.9, 112483.805, 0.0, 10.001133, 9.999479 
2.5850838e+3, 2.18276e+2, -753744.7, -866372.0, 42815.14, -0.056082144, -0.60771555, -739316.8, 61516.883, 0.0, 10.000859, 9.999354 
2.58504e+3, 2.2827521e+2, -704979.1, -763700.56, 48551.66, -0.041178346, -0.6199933, -677600.8, 25240.596, 0.0, 10.0004, 9.999608 
2.5849965e+3, 2.3827446e+2, -684449.44, -709659.7, 44044.53, -0.026004996, -0.64389044, -651241.8, -46393.156, 0.0, 9.999896, 9.999549 
2.5849524e+3, 2.4827413e+2, -603959.4, -575456.7, 27345.27, -0.0127911465, -0.6391877, -558871.94, -52020.266, 0.0, 9.999583, 9.999948 
2.5849083e+3, 2.582741e+2, -551308.06, -508508.53, 32321.004, -0.0036936402, -0.6260924, -491144.94, -82293.05, 0.0, 9.9993105, 9.999866 
2.584864e+3, 2.6827407e+2, -494488.75, -390122.63, 27144.379, -0.0100039225, -0.620956, -383484.84, -72633.19, 0.0, 9.998855, 10.000226 
2.5848195e+3, 2.7827415e+2, -479331.38, -349256.13, 17583.855, -0.009308961, -0.6239199, -346921.0, -134070.72, 0.0, 9.998359, 10.0000725 
2.5847754e+3, 2.8827366e+2, -403547.6, -237932.77, 4163.2065, 0.038046867, -0.67766845, -237828.19, -122973.97, 0.0, 9.998102, 10.000288 
2.584731e+3, 2.9827332e+2, -356979.1, -192279.52, 22609.164, 0.060555946, -0.7257216, -189232.22, -172375.84, 0.0, 9.997868, 10.000041 
2.5846857e+3, 3.0827475e+2, -395781.7, -160983.45, 21165.213, -0.023721075, -0.579909, -159090.83, -159090.83, 0.0, 9.997157, 10.000264 
2.5846425e+3, 3.1827372e+2, -349495.53, 77595.516, -12931.314, 0.08295068, -0.7141082, 77986.69, 77986.69, 0.0, 9.996545, 10.002196 
2.595482e+3, 1.2833156e+2, -1196262.3, -1666168.3, -16595.982, -0.20136876, -0.69659853, -1195676.8, 486606.44, 0.035523646, 10.00459, 9.998128 
2.5954366e+3, 1.3832977e+2, -1189412.0, -1615731.5, 2763.3047, -0.15462327, -0.67726135, -1189394.1, 394908.06, 0.0237902, 10.003906, 9.998127 
2.5953922e+3, 1.4832817e+2, -1101348.8, -1460476.8, 54659.516, -0.15516132, -0.6687444, -1093213.8, 393104.3, 0.012732761, 10.003528, 9.998704 
2.595348e+3, 1.583268e+2, -1050844.9, -1403234.8, 42940.5, -0.15611269, -0.6642209, -1045687.75, 342643.75, 0.004812382, 10.00325, 9.998555 
2.595304e+3, 1.6832529e+2, -997628.75, -1303137.1, 34336.71, -0.14677623, -0.6662804, -993817.1, 296529.6, 0.0010265025, 10.00283, 9.998772 
2.5952598e+3, 1.7832392e+2, -964469.9, -1232793.1, 34372.813, -0.13756907, -0.6699472, -960136.6, 232223.98, 0.000081372455, 10.002367, 9.998805 
2.595216e+3, 1.8832296e+2, -894053.5, -1083582.0, 53789.49, -0.11335099, -0.66588914, -879851.9, 214518.22, 0.0000007755459, 10.0019, 9.999381 
2.5951725e+3, 1.9832228e+2, -876865.06, -1048006.56, 52646.668, -0.083841406, -0.65947104, -861966.8, 134410.11, 0.0, 10.001447, 9.999171 
2.5951287e+3, 2.0832145e+2, -818559.8, -960440.2, 38644.496, -0.06751108, -0.64658296, -808716.9, 89669.05, 0.0, 10.001137, 9.9992485 
2.5950846e+3, 2.1832073e+2, -762142.6, -884671.56, 29930.021, -0.05526837, -0.6330775, -755222.5, 45171.66, 0.0, 10.00086, 9.999229 
2.5950405e+3, 2.2832002e+2, -698879.8, -752091.44, 29185.945, -0.032960244, -0.63910204, -685992.7, 16408.44, 0.0, 10.0004015, 9.999688 
2.5949967e+3, 2.3831949e+2, -678808.4, -699169.44, 27652.246, -0.0082058, -0.65027505, -659522.2, -55115.97, 0.0, 9.999898, 9.99962 
2.594952e+3, 2.4831921e+2, -599873.5, -568398.6, 17594.412, -0.004182376, -0.64669895, -560530.4, -54121.867, 0.0, 9.999587, 9.999996 
2.5949073e+3, 2.583191e+2, -552624.4, -512878.7, 19198.918, -0.008400732, -0.6410338, -505119.5, -96710.664, 0.0, 9.999315, 9.999835 
2.5948626e+3, 2.6831868e+2, -508797.25, -420679.56, 7108.684, -0.0034491767, -0.6610967, -420109.78, -109696.77, 0.0, 9.998856, 10.000016 
2.594818e+3, 2.7831838e+2, -485890.6, -362611.22, 1784.6272, 0.013846137, -0.6842917, -362585.4, -150169.23, 0.0, 9.998356, 9.999984 
2.5947735e+3, 2.88319e+2, -389789.75, -209979.03, -3507.209, 0.041029386, -0.6344672, -209910.66, -95501.68, 0.0, 9.998102, 10.000481 
2.5947282e+3, 2.9831985e+2, -352296.28, -184538.81, 6354.944, 0.035243943, -0.580275, -184298.42, -167899.23, 0.0, 9.997873, 10.000093 
2.5946832e+3, 3.0831727e+2, -421660.9, -214669.81, -12007.966, 0.009128068, -0.81821537, -213975.53, -213975.53, 0.0, 9.997154, 9.999898 
2.5946385e+3, 3.1831917e+2, -347544.1, 80466.38, 5350.2065, 0.049393598, -0.619145, 80533.25, 80533.25, 0.0, 9.996546, 10.002217 
2.6054862e+3, 1.283771e+2, -1258974.5, -1694064.6, -239.52687, -0.19836959, -0.7077311, -1258974.4, 422861.22, 0.03214261, 10.004118, 9.998159 
2.6054403e+3, 1.3837525e+2, -1183288.8, -1612612.1, 14624.591, -0.17146079, -0.6941245, -1182791.1, 401063.56, 0.021374868, 10.0039425, 9.99813 
2.6053956e+3, 1.4837363e+2, -1109537.4, -1471995.4, 66235.71, -0.16808777, -0.6853859, -1097812.8, 388058.38, 0.011303087, 10.003503, 9.998633 
2.6053512e+3, 1.583722e+2, -1088030.3, -1423544.0, 54465.176, -0.15703678, -0.67924654, -1079410.3, 308474.94, 0.004179176, 10.003005, 9.998533 
2.6053065e+3, 1.6837068e+2, -1021663.2, -1306978.8, 54226.05, -0.14460504, -0.6860356, -1011704.75, 278195.56, 0.000855522, 10.002634, 9.998838 
2.605262e+3, 1.7836931e+2, -972770.5, -1234457.1, 62858.668, -0.13542563, -0.69523025, -958454.6, 233459.42, 0.000063243526, 10.002303, 9.998823 
2.605218e+3, 1.8836842e+2, -897494.4, -1094659.5, 68759.32, -0.11214025, -0.6789414, -875883.9, 218039.31, 0.0000005058523, 10.00192, 9.999294 
2.6051742e+3, 1.983678e+2, -869443.3, -1050001.9, 50951.406, -0.0833001, -0.65676194, -856057.8, 139872.0, 0.0, 10.001524, 9.999119 
2.6051298e+3, 2.0836684e+2, -822042.8, -961140.2, 47695.625, -0.06257078, -0.65602833, -807259.5, 90680.56, 0.0, 10.001112, 9.999254 
2.605085e+3, 2.1836594e+2, -784714.4, -894369.6, 53405.055, -0.04508838, -0.6611226, -763003.4, 36946.434, 0.0, 10.000704, 9.999237 
2.6050407e+3, 2.2836533e+2, -701391.06, -752397.94, 50121.92, -0.025591966, -0.65769106, -670657.2, 31298.715, 0.0, 10.000383, 9.999693 
2.6049963e+3, 2.3836495e+2, -652430.0, -686479.7, 43838.227, -0.005364907, -0.65250635, -622426.8, -18467.246, 0.0, 10.000083, 9.999618 
2.6049516e+3, 2.4836461e+2, -586095.6, -565082.8, 29310.48, -0.002304447, -0.6530618, -544452.56, -38490.016, 0.0, 9.999699, 9.999963 
2.6049066e+3, 2.583644e+2, -557195.2, -516971.72, 24638.684, -0.0068157464, -0.65658313, -505278.63, -97314.47, 0.0, 9.999295, 9.999815 
2.6048613e+3, 2.6836398e+2, -493965.7, -413340.7, 20797.775, -0.002252307, -0.67470026, -408291.9, -98323.664, 0.0, 9.99896, 10.000015 
2.6048163e+3, 2.783637e+2, -448013.25, -347013.88, 30824.107, 0.014911234, -0.693174, -338349.88, -126378.75, 0.0, 9.998631, 9.999957 
2.6047716e+3, 2.8836432e+2, -380675.22, -214050.75, 15314.202, 0.03555316, -0.63734674, -212654.94, -98690.72, 0.0, 9.998204, 10.000402 
2.604726e+3, 2.9836518e+2, -372294.3, -196816.38, 2140.8506, 0.023080766, -0.5767896, -196790.27, -180835.45, 0.0, 9.99775, 10.000067 
2.6046804e+3, 3.0836236e+2, -383287.0, -188024.13, -4519.282, 0.028884469, -0.83846605, -187919.6, -187919.6, 0.0, 9.997386, 9.999968 
2.604635e+3, 3.1836477e+2, -318772.66, 60883.445, 53113.758, 0.035050433, -0.5924212, 68174.04, 68174.04, 0.0, 9.996893, 10.001914 
2.6154903e+3, 1.2842308e+2, -1261175.9, -1699201.5, -7356.1216, -0.1974573, -0.7154158, -1261052.4, 420331.25, 0.028868021, 10.004106, 9.998131 
2.6154438e+3, 1.3842118e+2, -1186675.3, -1619812.3, 3553.942, -0.18413767, -0.7074654, -1186646.1, 396757.38, 0.019051628, 10.003931, 9.998087 
2.6153988e+3, 1.4841942e+2, -1114978.9, -1484380.0, 46894.773, -0.17487249, -0.70373803, -1109118.6, 376302.4, 0.00994348, 10.0035, 9.998551 
2.6153544e+3, 1.5841788e+2, -1086391.0, -1421456.3, 37188.887, -0.1511033, -0.70229805, -1082313.0, 305123.13, 0.0035902862, 10.003007, 9.998548 
2.6153094e+3, 1.684165e+2, -1007016.9, -1277967.3, 41336.203, -0.1321921, -0.708142, -1000850.94, 288598.53, 0.00070380565, 10.002637, 9.999037 
2.6152644e+3, 1.7841534e+2, -970801.75, -1231734.3, 48779.133, -0.119610116, -0.7139492, -961981.06, 229479.72, 0.00004826116, 10.002306, 9.998841 
2.6152197e+3, 1.8841434e+2, -921178.1, -1144865.5, 53535.297, -0.10525671, -0.68653804, -909025.7, 184446.27, 0.0000003029616, 10.001923, 9.99895 
2.6151752e+3, 1.9841352e+2, -879818.44, -1072258.1, 35844.816, -0.087628305, -0.6528073, -873358.6, 122122.984, 0.0, 10.001525, 9.998967 
2.6151305e+3, 2.0841251e+2, -806359.7, -929816.06, 32180.303, -0.057540953, -0.6664494, -798475.06, 99016.74, 0.0, 10.001115, 9.99947 
2.615086e+3, 2.1841161e+2, -775556.2, -876920.06, 39282.87, -0.026556814, -0.6912779, -762114.75, 37385.86, 0.0, 10.000708, 9.999356 
2.615041e+3, 2.2841111e+2, -706014.6, -763464.94, 39104.93, -0.01939516, -0.6756492, -686218.3, 15287.523, 0.0, 10.000387, 9.999617 
2.6149964e+3, 2.3841085e+2, -657975.1, -699359.9, 31161.654, -0.017294876, -0.65101707, -641261.3, -37752.406, 0.0, 10.000086, 9.999529 
2.614951e+3, 2.4841033e+2, -594407.6, -583652.56, 13663.563, -0.007141957, -0.6583939, -574346.4, -68832.3, 0.0, 9.9997015, 9.999835 
2.6149058e+3, 2.5840992e+2, -557761.1, -519152.5, 10079.233, 0.0008415874, -0.67249924, -516679.6, -109161.445, 0.0, 9.999297, 9.999801 
2.6148602e+3, 2.6840994e+2, -478888.56, -383295.56, 8393.278, -0.0070814835, -0.6597685, -382564.2, -73046.79, 0.0, 9.998962, 10.000221 
2.6148146e+3, 2.7841014e+2, -445433.4, -343539.34, 16840.621, -0.008003665, -0.6470698, -340828.13, -129313.266, 0.0, 9.998635, 9.999979 
2.6147693e+3, 2.8840947e+2, -407111.2, -269944.47, -2832.2805, 0.020781418, -0.6926421, -269886.0, -156365.13, 0.0, 9.998206, 10.000019 
2.6147237e+3, 2.9840901e+2, -380829.97, -214256.14, -14720.833, 0.025140688, -0.7300867, -212965.2, -197439.86, 0.0, 9.997746, 9.99995 
2.6146778e+3, 3.084104e+2, -344712.28, -109989.555, -17793.37, 0.034570966, -0.6038457, -108648.375, -108648.375, 0.0, 9.997392, 10.000503 
2.614632e+3, 3.184097e+2, -365902.53, -39588.445, 7130.344, 0.047662776, -0.7064593, -39432.715, -39432.715, 0.0, 9.996901, 10.001222 
2.625494e+3, 1.284693e+2, -1293246.6, -1701131.1, 7689.0996, -0.19115518, -0.7207632, -1293101.8, 387827.97, 0.025705991, 10.003808, 9.9982605 
2.6254475e+3, 1.3846739e+2, -1206853.6, -1620994.0, 23151.54, -0.19198392, -0.72469634, -1205563.5, 377385.4, 0.016827479, 10.003747, 9.998166 
2.6254022e+3, 1.4846559e+2, -1133871.3, -1496613.4, 61971.863, -0.18173398, -0.7253022, -1123576.0, 361390.72, 0.008659539, 10.003381, 9.998523 
2.625357e+3, 1.58464e+2, -1097311.5, -1428128.3, 56091.92, -0.1514906, -0.725039, -1088059.5, 298922.9, 0.0030482584, 10.002939, 9.998532 
2.625312e+3, 1.6846272e+2, -1013744.2, -1280355.4, 54252.14, -0.13245937, -0.72168523, -1003127.3, 285867.7, 0.0005712194, 10.002591, 9.999042 
2.6252666e+3, 1.7846167e+2, -976913.0, -1234893.1, 48413.055, -0.12150251, -0.71680367, -968126.94, 222878.53, 0.000036096004, 10.002269, 9.9988365 
2.6252216e+3, 1.8846056e+2, -934260.1, -1154893.5, 64264.113, -0.102739654, -0.69768536, -916906.75, 176111.03, 0.00000016598092, 10.001852, 9.998913 
2.625177e+3, 1.9845958e+2, -896423.25, -1082124.0, 66545.74, -0.07964933, -0.67603153, -875039.1, 119990.04, 0.0, 10.001422, 9.998947 
2.625132e+3, 2.0845866e+2, -805322.2, -928150.3, 57560.688, -0.053957343, -0.6798948, -782564.3, 114474.24, 0.0, 10.00112, 9.999476 
2.6250866e+3, 2.184579e+2, -755382.4, -866897.25, 50142.203, -0.029422024, -0.69016355, -736152.25, 62893.73, 0.0, 10.000849, 9.999355 
2.6250416e+3, 2.2845735e+2, -695316.8, -761505.6, 48668.12, -0.021863455, -0.67785084, -669556.94, 31494.93, 0.0, 10.000478, 9.999585 
2.6249963e+3, 2.3845698e+2, -659233.06, -700176.56, 43987.016, -0.017779266, -0.66070676, -631187.3, -28131.215, 0.0, 10.000081, 9.999524 
2.6249507e+3, 2.484565e+2, -587284.25, -576000.75, 35858.082, -0.0069412827, -0.66741806, -545343.3, -40282.348, 0.0, 9.999736, 9.99987 
2.624905e+3, 2.584561e+2, -542091.9, -510104.13, 43242.625, 0.0015366154, -0.67887604, -479992.38, -72927.945, 0.0, 9.999401, 9.999811 
2.6248592e+3, 2.6845616e+2, -466857.66, -381748.4, 30077.04, -0.010200207, -0.66339874, -372192.34, -63128.51, 0.0, 9.999066, 10.000181 
2.6248133e+3, 2.7845633e+2, -434803.75, -341092.2, 20601.975, -0.015513281, -0.64831793, -336762.97, -125701.35, 0.0, 9.998723, 9.999953 
2.6247677e+3, 2.884556e+2, -389801.75, -263220.34, 15361.032, 0.01880098, -0.70305455, -261382.9, -148313.89, 0.0, 9.998335, 10.000002 
2.6247215e+3, 2.9845503e+2, -355415.4, -199847.45, 28531.479, 0.029366797, -0.7484466, -194779.81, -179705.06, 0.0, 9.997915, 9.999967 
2.624675e+3, 3.084571e+2, -341155.28, -96123.27, 6027.3105, 0.022151733, -0.56010103, -95975.11, -95975.11, 0.0, 9.997366, 10.000608 
2.6246288e+3, 3.1845558e+2, -368784.88, -52705.75, 9196.407, 0.06293947, -0.7516222, -52438.402, -52438.402, 0.0, 9.996934, 10.001114 
2.6354977e+3, 1.2851582e+2, -1275181.9, -1665358.3, 5732.51, -0.1810329, -0.7233074, -1275097.6, 405375.56, 0.022674426, 10.003805, 9.998509 
2.6354513e+3, 1.3851397e+2, -1195293.8, -1597409.1, 15326.0, -0.19670531, -0.74529773, -1194710.5, 387780.06, 0.014714378, 10.003741, 9.998332 
2.6354054e+3, 1.4851217e+2, -1133471.5, -1496259.9, 43932.125, -0.18894604, -0.7497038, -1128227.3, 356280.8, 0.0074576703, 10.003377, 9.9985285 
2.6353598e+3, 1.5851063e+2, -1101253.5, -1436364.3, 39570.887, -0.1574818, -0.74733543, -1096644.3, 289879.66, 0.0025548777, 10.002935, 9.998479 
2.6353142e+3, 1.6850936e+2, -1026162.1, -1306597.6, 41818.258, -0.14424035, -0.7274601, -1020059.0, 268477.8, 0.00045697592, 10.00259, 9.998863 
2.6352686e+3, 1.7850833e+2, -978830.5, -1239787.1, 34680.527, -0.13961968, -0.70539874, -974300.2, 216247.48, 0.000026377018, 10.002271, 9.998803 
2.6352233e+3, 1.8850711e+2, -917325.94, -1121174.6, 47406.348, -0.104146466, -0.7122947, -906840.6, 185719.86, 0.00000008213487, 10.001856, 9.999145 
2.6351783e+3, 1.98506e+2, -889638.75, -1069734.4, 51707.63, -0.06062529, -0.7242263, -875848.75, 118723.516, 0.0, 10.001427, 9.999031 
2.6351327e+3, 2.0850529e+2, -818476.06, -956888.4, 47390.46, -0.05209959, -0.6957063, -803805.25, 92775.04, 0.0, 10.001123, 9.999279 
2.635087e+3, 2.1850482e+2, -763497.4, -884846.75, 38434.805, -0.05268618, -0.659379, -752348.3, 46237.75, 0.0, 10.000851, 9.999232 
2.6350418e+3, 2.2850405e+2, -694742.75, -761419.8, 33776.38, -0.0326192, -0.66513073, -680622.9, 19971.293, 0.0, 10.00048, 9.999585 
2.6349965e+3, 2.3850335e+2, -653814.9, -690020.44, 29741.102, -0.0074212397, -0.6812957, -637100.3, -34499.14, 0.0, 10.000084, 9.999594 
2.6349506e+3, 2.485031e+2, -573307.25, -548249.06, 23219.607, -0.0019418764, -0.6799038, -534393.94, -29790.672, 0.0, 9.999739, 10.00006 
2.6349044e+3, 2.5850305e+2, -539948.4, -507060.6, 30586.104, -0.005026344, -0.67544264, -488778.25, -82175.17, 0.0, 9.999405, 9.999831 
2.6348582e+3, 2.685026e+2, -488190.6, -427273.0, 16910.006, -0.011358722, -0.6872099, -422893.8, -114285.96, 0.0, 9.999069, 9.999868 
2.6348117e+3, 2.7850223e+2, -439980.5, -352956.28, 6363.644, -0.0065244483, -0.7002987, -352493.4, -141881.31, 0.0, 9.998725, 9.999871 
2.6347658e+3, 2.8850263e+2, -363374.16, -209436.6, -446.921, 0.0306677, -0.6622362, -209435.3, -96827.086, 0.0, 9.998337, 10.000372 
2.6347193e+3, 2.985033e+2, -344713.44, -178718.05, 10923.512, 0.03563298, -0.61727405, -178002.3, -163400.83, 0.0, 9.997917, 10.000113 
2.634672e+3, 3.0850205e+2, -368093.22, -151939.77, -16716.809, -0.012227638, -0.74058056, -150654.58, -150654.58, 0.0, 9.997363, 10.000228 
2.634626e+3, 3.1850305e+2, -329679.28, 27701.824, 28176.541, 0.08482123, -0.65398353, 29909.672, 29909.672, 0.0, 9.996935, 10.001667 
2.6455012e+3, 1.2856251e+2, -1294139.9, -1665694.0, 31141.623, -0.19372976, -0.741322, -1291547.8, 388466.56, 0.019802328, 10.003624, 9.998593 
2.6454547e+3, 1.3856076e+2, -1213330.9, -1600600.3, 25180.633, -0.1854611, -0.7602688, -1211700.4, 370329.94, 0.012730279, 10.003587, 9.9983835 
2.6454085e+3, 1.4855903e+2, -1160666.6, -1511496.1, 39280.082, -0.18366256, -0.7601302, -1156322.5, 327725.2, 0.0063465815, 10.003198, 9.998508 
2.6453626e+3, 1.5855747e+2, -1130840.3, -1449890.6, 35767.406, -0.1643561, -0.7539627, -1126879.6, 259183.86, 0.0021122305, 10.002731, 9.998484 
2.6453167e+3, 1.685562e+2, -1043875.44, -1310890.6, 53839.395, -0.14672112, -0.7401261, -1033428.3, 254648.4, 0.00036024698, 10.002453, 9.9988985 
2.6452708e+3, 1.7855512e+2, -983669.06, -1238810.4, 56956.156, -0.13411003, -0.7252798, -971531.9, 218556.02, 0.000018812569, 10.002226, 9.99883 
2.6452252e+3, 1.8855399e+2, -914770.5, -1118675.5, 56332.84, -0.10217601, -0.72427416, -900242.56, 191857.4, 0.000000036221024, 10.001871, 9.999152 
2.6451796e+3, 1.98553e+2, -879909.56, -1062340.6, 47786.47, -0.06468508, -0.72592723, -868150.25, 125960.53, 0.0, 10.001486, 9.999052 
2.6451337e+3, 2.0855226e+2, -814730.8, -952177.1, 55306.324, -0.055472888, -0.7029551, -795240.25, 100878.734, 0.0, 10.001141, 9.999302 
2.6450878e+3, 2.1855171e+2, -767884.25, -883667.06, 60161.03, -0.05406459, -0.6749395, -742284.56, 55840.773, 0.0, 10.00081, 9.999259 
2.6450422e+3, 2.28551e+2, -692226.1, -756924.9, 58230.324, -0.03542375, -0.6786203, -657962.8, 42170.3, 0.0, 10.000486, 9.999612 
2.6449963e+3, 2.3855036e+2, -642076.7, -682842.6, 54802.445, -0.0116222445, -0.69041145, -603989.4, -1849.6714, 0.0, 10.000161, 9.999604 
2.64495e+3, 2.4855015e+2, -566649.1, -547928.0, 35509.984, -0.004217348, -0.68385357, -520565.53, -16424.006, 0.0, 9.9998, 10.000031 
2.6449037e+3, 2.585501e+2, -537720.75, -506062.78, 28642.557, -0.004786371, -0.67505264, -489166.34, -83025.07, 0.0, 9.999423, 9.999827 
2.644857e+3, 2.6854956e+2, -493995.8, -427071.78, 30950.336, -0.0062784455, -0.69891834, -414952.75, -106805.59, 0.0, 9.999019, 9.999892 
2.6448107e+3, 2.7854908e+2, -455809.1, -359847.78, 43396.074, 0.003913083, -0.7241027, -343134.06, -132981.47, 0.0, 9.998616, 9.999875 
2.6447642e+3, 2.885499e+2, -362741.03, -211913.4, 18679.605, 0.033339273, -0.6429531, -209634.42, -97489.27, 0.0, 9.998356, 10.000344 
2.644717e+3, 2.9855093e+2, -320515.3, -171499.14, -1410.9706, 0.027747322, -0.55595964, -171485.78, -157350.75, 0.0, 9.998104, 10.000071 
2.6446694e+3, 3.0854812e+2, -334383.2, -148602.42, -26266.662, 0.0063345362, -0.8273884, -144960.11, -144960.11, 0.0, 9.997653, 10.00011 
2.644623e+3, 3.1855047e+2, -274864.8, 72335.445, 59067.813, 0.07494747, -0.59758127, 82109.28, 82109.28, 0.0, 9.997236, 10.001827 
2.6555043e+3, 1.2860945e+2, -1294873.3, -1671908.5, 29722.39, -0.22487935, -0.7718659, -1292544.6, 387008.16, 0.017119989, 10.003634, 9.998546 
2.6554585e+3, 1.3860786e+2, -1217738.5, -1608507.5, 17790.404, -0.16107883, -0.76948005, -1216930.3, 364637.28, 0.01089404, 10.003572, 9.998338 
2.6554117e+3, 1.4860618e+2, -1165333.1, -1520552.5, 20881.324, -0.16849673, -0.7582149, -1164109.9, 319474.84, 0.005335375, 10.003189, 9.998452 
2.655365e+3, 1.5860467e+2, -1127325.6, -1443596.3, 20948.043, -0.17258476, -0.74697506, -1125944.3, 259656.5, 0.0017222441, 10.002732, 9.998528 
2.655319e+3, 1.6860327e+2, -1028783.5, -1280129.3, 45327.047, -0.1408845, -0.7590564, -1020859.2, 266755.16, 0.00028014154, 10.002453, 9.99911 
2.655273e+3, 1.7860208e+2, -979566.7, -1229973.4, 45674.6, -0.10756032, -0.7730694, -971495.7, 218130.16, 0.000013158939, 10.002222, 9.998894 
2.6552272e+3, 1.8860123e+2, -929057.6, -1148772.1, 41302.152, -0.09765834, -0.7332813, -921550.1, 170085.89, 0.000000014940222, 10.001871, 9.998947 
2.6551807e+3, 1.9860056e+2, -882358.4, -1068748.1, 33776.03, -0.09019315, -0.68478274, -876426.5, 117218.17, 0.0, 10.00149, 9.999007 
2.6551348e+3, 2.0859955e+2, -798630.8, -919949.56, 42856.504, -0.063552044, -0.70296276, -785018.8, 110635.984, 0.0, 10.001143, 9.999523 
2.655089e+3, 2.1859862e+2, -756526.2, -860895.2, 47808.176, -0.03501346, -0.73489743, -737937.5, 59726.223, 0.0, 10.000811, 9.999416 
2.6550424e+3, 2.2859819e+2, -688971.5, -751220.75, 46122.258, -0.030850919, -0.7171483, -664454.4, 35214.39, 0.0, 10.000488, 9.999651 
2.6549962e+3, 2.3859799e+2, -645846.7, -691907.25, 41863.348, -0.03031726, -0.6880341, -621096.9, -19425.203, 0.0, 10.000164, 9.999542 
2.6549497e+3, 2.4859759e+2, -584345.06, -585836.1, 21251.621, -0.0138004515, -0.6793515, -563825.94, -60149.9, 0.0, 9.999803, 9.999771 
2.654903e+3, 2.5859725e+2, -539464.75, -510659.72, 13621.543, 0.0022051071, -0.67780954, -505238.53, -99559.21, 0.0, 9.999425, 9.999797 
2.6548558e+3, 2.68597e+2, -467865.72, -373377.8, 14843.423, 0.0051636435, -0.6975213, -371100.88, -63419.047, 0.0, 9.999019, 10.000262 
2.654809e+3, 2.785969e+2, -450679.75, -349301.0, 30494.799, 0.01551844, -0.7176181, -340835.1, -131152.27, 0.0, 9.998614, 9.999949 
2.6547623e+3, 2.885973e+2, -395638.25, -280924.5, 9731.66, 0.025744386, -0.64851224, -280104.78, -168424.38, 0.0, 9.998356, 9.999871 
2.654715e+3, 2.985978e+2, -337285.72, -208044.69, -15352.874, 0.0042806473, -0.5722972, -206245.92, -192568.95, 0.0, 9.99811, 9.999818 
2.6546678e+3, 3.0859542e+2, -321940.88, -124766.53, -46613.31, 0.08591086, -0.80312383, -114302.195, -114302.195, 0.0, 9.997659, 10.000272 
2.6546195e+3, 3.1859738e+2, -295218.72, 25859.822, 50954.48, 0.014164475, -0.6208278, 33752.188, 33752.188, 0.0, 9.99725, 10.001504 
2.6655078e+3, 1.2865683e+2, -1284251.6, -1666648.4, 34580.355, -0.23891617, -0.774281, -1281149.6, 397937.72, 0.014648217, 10.0037, 9.998549 
2.665462e+3, 1.3865522e+2, -1272512.3, -1630416.0, 25066.547, -0.14334753, -0.7764006, -1270765.1, 310337.6, 0.009218416, 10.003169, 9.998381 
2.6654148e+3, 1.4865355e+2, -1203098.0, -1526598.3, 36656.867, -0.1568396, -0.7724792, -1198996.3, 284123.13, 0.0044296244, 10.002875, 9.99856 
2.6653677e+3, 1.5865205e+2, -1135278.5, -1439489.6, 46295.188, -0.17535584, -0.7680866, -1128389.3, 256745.67, 0.0013850862, 10.0026455, 9.998596 
2.6653212e+3, 1.6865076e+2, -1053794.1, -1293558.1, 61288.04, -0.14047275, -0.7723896, -1039036.1, 248111.66, 0.00021523162, 10.00229, 9.999095 
2.665275e+3, 1.7864965e+2, -1023661.1, -1250859.1, 47849.117, -0.10034724, -0.7764183, -1013995.06, 175163.69, 0.000009125485, 10.001921, 9.998894 
2.6652285e+3, 1.8864873e+2, -952386.7, -1158348.1, 52991.082, -0.096711844, -0.7431372, -939552.56, 151616.94, 0.000000005798, 10.001706, 9.998959 
2.665182e+3, 1.9864798e+2, -874903.44, -1060162.4, 56977.5, -0.09838873, -0.7036647, -858782.5, 134396.33, 0.0, 10.001522, 9.999049 
2.665136e+3, 2.0864707e+2, -793578.0, -907685.7, 57998.727, -0.072385594, -0.7185121, -769274.6, 125913.15, 0.0, 10.001139, 9.999608 
2.6650894e+3, 2.1864629e+2, -767745.6, -860228.6, 53998.785, -0.041506168, -0.7448815, -742894.6, 54300.73, 0.0, 10.0007105, 9.999467 
2.6650426e+3, 2.286459e+2, -704444.7, -760891.75, 48489.76, -0.034311965, -0.72252184, -676562.75, 22637.412, 0.0, 10.000395, 9.999628 
2.664996e+3, 2.3864572e+2, -654903.8, -696845.3, 40496.105, -0.03147446, -0.6895492, -630270.75, -29067.56, 0.0, 10.000107, 9.999534 
2.6649493e+3, 2.4864523e+2, -585833.8, -586306.06, 33196.844, -0.016467707, -0.68972945, -552872.25, -49663.813, 0.0, 9.999794, 9.999771 
2.6649022e+3, 2.5864482e+2, -533118.44, -507369.72, 41495.074, -0.0018651003, -0.6978672, -476797.66, -71584.91, 0.0, 9.999471, 9.999796 
2.664855e+3, 2.6864472e+2, -450187.22, -364805.0, 22724.979, 0.004814972, -0.6984416, -359133.38, -51919.61, 0.0, 9.999143, 10.00026 
2.6648077e+3, 2.7864483e+2, -424140.78, -336688.72, 14753.366, 0.019133257, -0.69600725, -334266.88, -125053.9, 0.0, 9.9988, 9.999946 
2.6647604e+3, 2.88645e+2, -392279.84, -282203.66, 16532.133, 0.022965245, -0.6503784, -279774.34, -168561.36, 0.0, 9.998395, 9.999843 
2.6647127e+3, 2.9864517e+2, -352836.2, -215260.2, 24101.459, -0.0030567534, -0.6030942, -211160.14, -197947.64, 0.0, 9.998005, 9.999818 
2.664666e+3, 3.086433e+2, -268002.72, -90684.2, -4203.093, 0.117247656, -0.7863821, -90584.63, -90584.63, 0.0, 9.997997, 10.000341 
2.6646164e+3, 3.18645e+2, -245696.13, 18923.545, 61777.023, -0.015993072, -0.6344415, 32635.26, 32635.26, 0.0, 9.9977255, 10.0012245 
2.6755115e+3, 1.2870468e+2, -1281740.0, -1662640.5, 13693.729, -0.24067523, -0.7537583, -1281248.3, 397369.88, 0.012394253, 10.0036955, 9.99858 
2.675465e+3, 1.3870285e+2, -1263948.6, -1614677.1, 8479.25, -0.13139667, -0.7813288, -1263743.8, 316891.6, 0.007707048, 10.003171, 9.998488 
2.6754174e+3, 1.4870118e+2, -1185006.8, -1490826.5, 27850.635, -0.14791478, -0.80040157, -1182491.1, 300160.38, 0.0036293734, 10.002879, 9.998805 
2.67537e+3, 1.586997e+2, -1129372.1, -1428231.1, 34873.67, -0.1736243, -0.813488, -1125356.6, 259309.03, 0.0010984509, 10.002646, 9.998673 
2.6753235e+3, 1.6869865e+2, -1068951.4, -1326390.9, 46344.258, -0.14529976, -0.78036076, -1060862.6, 225814.39, 0.00016352923, 10.002294, 9.998869 
2.675277e+3, 1.786978e+2, -1027015.2, -1259750.4, 36024.867, -0.11071043, -0.74008054, -1021566.5, 167120.25, 0.0000063491566, 10.001927, 9.998831 
2.6752302e+3, 1.8869652e+2, -937754.1, -1129270.9, 46507.426, -0.09888037, -0.75447685, -927057.8, 163642.39, 0.0000000017280947, 10.00171, 9.999158 
2.6751837e+3, 1.9869533e+2, -867437.3, -1044947.5, 46629.332, -0.09099004, -0.7780145, -855933.94, 136778.84, 0.0, 10.001521, 9.999156 
2.6751366e+3, 2.0869488e+2, -797194.2, -915977.3, 41296.51, -0.082376264, -0.74765176, -784247.94, 110469.99, 0.0, 10.00114, 9.999551 
2.6750895e+3, 2.1869469e+2, -771378.9, -869136.0, 39423.76, -0.072528146, -0.7065903, -757461.4, 39259.008, 0.0, 10.000714, 9.999405 
2.675043e+3, 2.2869411e+2, -710149.25, -773898.7, 37788.496, -0.04544531, -0.696001, -692587.44, 6139.9385, 0.0, 10.000398, 9.999538 
2.6749963e+3, 2.3869354e+2, -651522.0, -690851.8, 29243.271, -0.015563732, -0.6951728, -635946.6, -35212.316, 0.0, 10.00011, 9.999575 
2.674949e+3, 2.4869303e+2, -567608.2, -549567.0, 20949.363, -0.012458452, -0.7152653, -535778.6, -33039.773, 0.0, 9.999797, 10.000023 
2.6749015e+3, 2.586927e+2, -531656.75, -505530.9, 29231.533, -0.017743288, -0.73569465, -486576.28, -81834.67, 0.0, 9.999474, 9.999808 
2.674854e+3, 2.686927e+2, -478172.63, -424065.84, 9650.4, -0.008074317, -0.70152724, -422396.13, -115652.88, 0.0, 9.9991455, 9.999853 
2.6748064e+3, 2.7869287e+2, -429567.78, -349414.38, -105.648636, 0.014067223, -0.65803266, -349414.22, -140670.73, 0.0, 9.998804, 9.999858 
2.6747587e+3, 2.8869292e+2, -360632.16, -217014.61, -417.06555, 0.025299001, -0.6483005, -217013.4, -106270.33, 0.0, 9.998394, 10.000292 
2.6747108e+3, 2.9869306e+2, -334978.13, -177572.67, 15721.919, 0.0068376823, -0.65015405, -176017.7, -163276.14, 0.0, 9.997999, 10.00008 
2.6746637e+3, 3.0869177e+2, -269549.2, -97003.055, -8.009235, 0.09323453, -0.7786553, -97003.055, -97003.055, 0.0, 9.998008, 10.000295 
2.6746142e+3, 3.1869334e+2, -262862.4, -19055.432, -5311.39, 0.0022926142, -0.6325345, -18939.777, -18939.777, 0.0, 9.997733, 10.000961 
2.6855153e+3, 1.287526e+2, -1301291.9, -1668367.0, 25610.742, -0.2248755, -0.7673892, -1299513.6, 378633.88, 0.010353788, 10.003538, 9.998615 
2.6854682e+3, 1.3875087e+2, -1277252.1, -1613180.0, 24430.934, -0.13044828, -0.7899184, -1275484.6, 304679.47, 0.0063556046, 10.003043, 9.998559 
2.6854202e+3, 1.4874929e+2, -1195196.0, -1482380.6, 44435.05, -0.1489934, -0.8071191, -1188478.0, 293700.84, 0.0029297734, 10.002752, 9.998922 
2.6853725e+3, 1.5874794e+2, -1143990.3, -1430129.8, 42029.74, -0.1734416, -0.81955504, -1137944.4, 246247.25, 0.00085799553, 10.002526, 9.998717 
2.6853254e+3, 1.6874681e+2, -1080320.3, -1342223.0, 56388.477, -0.14810774, -0.7893592, -1068695.6, 217508.4, 0.00012279267, 10.002263, 9.998775 
2.6852787e+3, 1.7874585e+2, -1019346.5, -1257912.6, 54019.85, -0.1172153, -0.7520336, -1007684.56, 180530.61, 0.0000044684857, 10.00199, 9.998812 
2.6852316e+3, 1.8874465e+2, -941323.1, -1119704.4, 61262.0, -0.10398582, -0.7655748, -922310.25, 167917.5, 0.0000000002885943, 10.001639, 9.999256 
2.6851848e+3, 1.9874355e+2, -898498.75, -1053162.0, 53760.12, -0.09343673, -0.7882755, -881647.94, 110591.17, 0.0, 10.001282, 9.999212 
2.6851374e+3, 2.0874308e+2, -813407.75, -926993.9, 47463.895, -0.08586364, -0.7573572, -796185.44, 98058.81, 0.0, 10.001045, 9.999519 
2.6850903e+3, 2.1874289e+2, -755593.06, -861802.4, 46779.098, -0.07828485, -0.71500987, -737927.75, 58319.32, 0.0, 10.000827, 9.9994 
2.6850432e+3, 2.2874232e+2, -704148.1, -767666.9, 50487.074, -0.051354617, -0.70682263, -676261.9, 21992.36, 0.0, 10.000427, 9.999566 
2.6849964e+3, 2.3874173e+2, -665810.9, -692946.75, 50016.39, -0.0202737, -0.70926344, -627554.8, -27293.602, 0.0, 9.999993, 9.999615 
2.6849484e+3, 2.4874131e+2, -572614.94, -546002.0, 33283.066, -0.017027508, -0.72561544, -523464.03, -21199.11, 0.0, 9.999739, 10.000073 
2.6849008e+3, 2.5874105e+2, -525149.75, -501540.94, 28049.805, -0.02269458, -0.7410807, -482912.88, -78646.13, 0.0, 9.999517, 9.999813 
2.684853e+3, 2.68741e+2, -478317.47, -433714.75, 22947.121, -0.011052278, -0.7062135, -424017.34, -117748.17, 0.0, 9.999189, 9.999764 
2.684805e+3, 2.787411e+2, -427879.25, -352097.1, 33311.1, 0.014136492, -0.6633165, -339536.6, -131265.9, 0.0, 9.998834, 9.999824 
2.684757e+3, 2.8874108e+2, -336202.1, -199144.7, 12081.067, 0.029128928, -0.66320485, -198087.95, -87817.14, 0.0, 9.998539, 10.000343 
2.6847088e+3, 2.987412e+2, -292792.25, -147781.06, 4727.955, 0.011876165, -0.6715171, -147627.08, -135358.02, 0.0, 9.998251, 10.000162 
2.6846611e+3, 3.0874065e+2, -265411.3, -79868.125, 466.44022, 0.074784294, -0.7401023, -79866.95, -79866.95, 0.0, 9.997973, 10.000427 
2.684612e+3, 3.187415e+2, -252691.92, -47259.98, -7462.949, 0.020636871, -0.6668321, -46989.223, -46989.223, 0.0, 9.997949, 10.000662 
2.6955187e+3, 1.288007e+2, -1297357.4, -1662329.3, 6403.412, -0.19565944, -0.808278, -1297245.0, 380429.66, 0.008516509, 10.00354, 9.998656 
2.695471e+3, 1.3879928e+2, -1274335.4, -1608483.3, 8735.85, -0.13909557, -0.8018286, -1274107.1, 305581.5, 0.00515523, 10.003044, 9.998592 
2.6954228e+3, 1.4879796e+2, -1194600.8, -1482866.4, 35746.43, -0.15885325, -0.795947, -1190234.1, 291467.2, 0.0023232147, 10.002756, 9.998919 
2.695375e+3, 1.5879677e+2, -1142576.5, -1429011.4, 32453.469, -0.17507558, -0.79148287, -1138945.5, 244767.27, 0.00065835734, 10.002531, 9.998724 
2.6953277e+3, 1.6879526e+2, -1079175.9, -1340775.9, 46045.277, -0.14927371, -0.7996824, -1071307.9, 214420.63, 0.00009083877, 10.002264, 9.998784 
2.6952806e+3, 1.7879385e+2, -1019002.0, -1257209.3, 42229.656, -0.120514825, -0.807071, -1011737.06, 176006.44, 0.0000031725767, 10.001988, 9.998818 
2.6952332e+3, 1.8879311e+2, -941350.25, -1120402.6, 47184.613, -0.11194623, -0.7754779, -929677.0, 160074.94, 0.000000000007316074, 10.00164, 9.999252 
2.6951858e+3, 1.987926e+2, -897666.3, -1052799.9, 41849.465, -0.10492744, -0.73911375, -887096.9, 104661.06, 0.0, 10.001286, 9.999214 
2.6951385e+3, 2.0879172e+2, -814157.7, -929254.4, 39820.656, -0.083048776, -0.7497921, -801723.94, 92043.01, 0.0, 10.001046, 9.999504 
2.6950914e+3, 2.187909e+2, -752843.9, -856065.75, 35816.03, -0.060258817, -0.76875323, -741633.8, 54141.48, 0.0, 10.000825, 9.999441 
2.6950434e+3, 2.2879049e+2, -694866.06, -749190.75, 33603.48, -0.052584723, -0.75366104, -678819.75, 18960.814, 0.0, 10.000428, 9.999693 
2.6949957e+3, 2.3879029e+2, -663576.06, -689453.1, 36375.457, -0.045884382, -0.73110276, -637906.56, -38122.582, 0.0, 9.999996, 9.999639 
2.694948e+3, 2.4879004e+2, -583419.3, -569505.4, 25167.693, -0.030233253, -0.7201653, -550350.8, -48564.15, 0.0, 9.999742, 9.999912 
2.6949e+3, 2.587899e+2, -525011.6, -502286.84, 17694.307, -0.016424213, -0.7129214, -492620.84, -88832.58, 0.0, 9.999519, 9.999808 
2.694852e+3, 2.6878965e+2, -461241.53, -399052.6, 9028.073, -0.0037720695, -0.71327347, -397768.5, -91976.79, 0.0, 9.99919, 10.000003 
2.694804e+3, 2.7878946e+2, -427537.13, -351919.88, 21081.932, 0.019447772, -0.7155621, -346439.47, -138644.77, 0.0, 9.998834, 9.9998255 
2.6947555e+3, 2.8878936e+2, -363550.72, -256965.33, 885.4687, 0.034753427, -0.696436, -256957.97, -147161.36, 0.0, 9.998541, 9.999947 
2.694707e+3, 2.9878956e+2, -300176.06, -165045.36, -7300.763, 0.011527216, -0.6637194, -164652.06, -152856.55, 0.0, 9.998257, 10.000042 
2.694659e+3, 3.0878985e+2, -242688.2, -32672.121, -11782.863, 0.060276467, -0.66517895, -32013.117, -32013.117, 0.0, 9.997972, 10.000753 
2.69461e+3, 3.1878936e+2, -275563.22, -98537.43, 36247.824, 0.038034935, -0.7466391, -91402.86, -91402.86, 0.0, 9.997962, 10.000305 
2.7055222e+3, 1.2884955e+2, -1318424.0, -1677468.1, 23365.002, -0.1857442, -0.82272494, -1316909.9, 360284.6, 0.0068727913, 10.003411, 9.998613 
2.705474e+3, 1.3884807e+2, -1299681.8, -1624030.5, 24884.934, -0.13700938, -0.8179456, -1297783.6, 281425.94, 0.0040968494, 10.002883, 9.998562 
2.7054256e+3, 1.4884676e+2, -1212198.3, -1494527.1, 57698.305, -0.1569275, -0.80723953, -1200861.9, 280360.38, 0.0018017555, 10.00265, 9.998888 
2.7053773e+3, 1.588456e+2, -1149148.6, -1432110.5, 50085.066, -0.17070347, -0.7969756, -1140545.0, 242688.45, 0.00049404067, 10.002488, 9.998722 
2.70533e+3, 1.688441e+2, -1096346.1, -1344896.8, 60805.46, -0.14477897, -0.8068862, -1082268.0, 202980.97, 0.00006574034, 10.002131, 9.998818 
2.7052823e+3, 1.7884268e+2, -1053311.0, -1271467.3, 58879.9, -0.11678846, -0.8178478, -1038433.94, 148830.08, 0.0000022107067, 10.001746, 9.998836 
2.7052346e+3, 1.8884195e+2, -962604.6, -1133622.8, 64111.95, -0.109110594, -0.783008, -941239.25, 148033.11, 0.0, 10.00151, 9.999223 
2.705187e+3, 1.9884147e+2, -895506.06, -1050662.8, 55953.926, -0.1025047, -0.7419564, -877432.75, 113845.586, 0.0, 10.001298, 9.999222 
2.7051395e+3, 2.0884055e+2, -834809.94, -933159.44, 55399.188, -0.07715629, -0.76047975, -809908.9, 83378.53, 0.0, 10.000881, 9.999556 
2.7050918e+3, 2.1883968e+2, -805718.94, -876777.5, 56197.777, -0.050784007, -0.7897148, -774761.25, 20534.793, 0.0, 10.000444, 9.999481 
2.7050436e+3, 2.2883932e+2, -709423.25, -755087.75, 49818.496, -0.05262159, -0.7696121, -677454.1, 19846.586, 0.0, 10.000326, 9.999701 
2.704996e+3, 2.3883921e+2, -625270.0, -670031.1, 43535.973, -0.057480924, -0.7388601, -598698.9, 604.50964, 0.0, 10.000258, 9.999644 
2.704948e+3, 2.4883895e+2, -566730.56, -562829.75, 36940.973, -0.03716887, -0.7279888, -527787.75, -26481.457, 0.0, 9.999866, 9.999897 
2.7048996e+3, 2.5883874e+2, -540322.0, -508865.6, 39678.383, -0.015011717, -0.7220512, -481911.84, -78603.555, 0.0, 9.999414, 9.999812 
2.704851e+3, 2.6883852e+2, -454902.3, -392519.2, 21663.338, -0.0022600198, -0.7228936, -385734.28, -80422.86, 0.0, 9.999222, 10.000031 
2.7048028e+3, 2.7883834e+2, -395154.22, -338503.25, 19063.736, 0.019526945, -0.7264795, -332685.53, -125371.39, 0.0, 9.999068, 9.999804 
2.7047542e+3, 2.8883818e+2, -346744.2, -261835.83, 10485.08, 0.036706604, -0.7079532, -260560.22, -151243.11, 0.0, 9.998715, 9.999827 
2.704705e+3, 2.9883823e+2, -295729.06, -172888.3, 23081.285, 0.014915582, -0.67505956, -168694.6, -157377.22, 0.0, 9.998334, 9.999949 
2.7046567e+3, 3.0883846e+2, -197062.95, -16658.682, 3151.0208, 0.058942415, -0.67709976, -16603.662, -16603.662, 0.0, 9.998313, 10.000697 
2.704608e+3, 3.188378e+2, -264882.06, -87846.93, 26999.297, 0.049471512, -0.7724511, -83820.875, -83820.875, 0.0, 9.998014, 10.000352 
2.7155256e+3, 1.288991e+2, -1328203.9, -1696174.0, 1237.4515, -0.1915532, -0.81658286, -1328199.8, 348507.66, 0.0054175183, 10.003398, 9.998491 
2.7154768e+3, 1.3889724e+2, -1303125.3, -1636493.1, 8940.986, -0.12660271, -0.8372314, -1302885.6, 275840.94, 0.0031741466, 10.002901, 9.998468 
2.715428e+3, 1.4889577e+2, -1214306.9, -1502640.6, 51600.645, -0.14535843, -0.837412, -1205350.5, 275390.53, 0.0013589618, 10.002663, 9.998828 
2.71538e+3, 1.588945e+2, -1150130.1, -1434611.4, 40195.9, -0.16119689, -0.83156323, -1144559.8, 238193.55, 0.00036018944, 10.002487, 9.998706 
2.715332e+3, 1.6889334e+2, -1092588.0, -1338093.8, 45276.367, -0.13538039, -0.810996, -1084504.3, 200261.3, 0.000045949084, 10.002133, 9.998865 
2.715284e+3, 1.7889228e+2, -1051080.0, -1268924.8, 46202.746, -0.106940895, -0.7892059, -1041685.94, 145091.05, 0.000001439657, 10.001753, 9.998851 
2.715236e+3, 1.8889117e+2, -966349.1, -1142612.9, 56563.01, -0.09651336, -0.7892425, -949759.44, 139029.6, 0.0, 10.0015135, 9.99916 
2.7151886e+3, 1.9889018e+2, -895227.56, -1050174.5, 44436.684, -0.0876133, -0.7931469, -883388.3, 107411.37, 0.0, 10.001296, 9.999227 
2.7151403e+3, 2.0888959e+2, -827079.06, -918344.06, 37550.313, -0.06862076, -0.78741276, -813615.44, 79190.1, 0.0, 10.000884, 9.999657 
2.715092e+3, 2.1888919e+2, -802865.25, -872966.3, 44603.156, -0.04979896, -0.77838624, -781188.5, 13620.908, 0.0, 10.000451, 9.999505 
2.715044e+3, 2.288888e+2, -716690.9, -771714.25, 48367.56, -0.0514571, -0.7555671, -688558.06, 8256.719, 0.0, 10.000331, 9.999585 
2.7149957e+3, 2.3888849e+2, -625850.75, -672330.06, 35718.387, -0.055187833, -0.7332256, -606477.2, -7657.6904, 0.0, 10.00026, 9.999628 
2.7149475e+3, 2.4888805e+2, -557763.6, -545055.7, 18813.736, -0.037934113, -0.74977297, -531551.94, -30728.111, 0.0, 9.9998665, 10.000019 
2.714899e+3, 2.588877e+2, -540283.6, -509360.53, 26778.574, -0.01912703, -0.7696674, -493900.38, -91073.47, 0.0, 9.999414, 9.999809 
2.7148503e+3, 2.688877e+2, -468871.8, -422434.03, 16410.71, -0.0069913897, -0.7345065, -417220.06, -112391.59, 0.0, 9.999224, 9.999826 
2.7148014e+3, 2.7888778e+2, -397942.4, -345836.56, 9637.21, 0.013748185, -0.69238454, -344111.25, -137282.16, 0.0, 9.999073, 9.999752 
2.7147526e+3, 2.888875e+2, -333836.22, -236154.02, -5658.78, 0.03415958, -0.6957573, -235827.3, -126994.99, 0.0, 9.998717, 10.000004 
2.7147034e+3, 2.9888722e+2, -301499.03, -185414.63, 14501.234, 0.022085654, -0.70890564, -183630.56, -172795.75, 0.0, 9.998334, 9.999865 
2.7146554e+3, 3.088863e+2, -230924.06, -89330.58, 5301.2813, 0.07454407, -0.79108685, -89132.375, -89132.375, 0.0, 9.998322, 10.0001955 
2.714606e+3, 3.1888703e+2, -228961.23, -11925.263, -49695.15, 0.048846245, -0.71395016, -1087.6407, -1087.6407, 0.0, 9.998005, 10.000879 
2.7255288e+3, 1.2894863e+2, -1388059.9, -1725323.9, 7783.42, -0.16867036, -0.82484573, -1387880.4, 288340.7, 0.0041490197, 10.002984, 9.99849 
2.7254796e+3, 1.389468e+2, -1281432.3, -1627464.0, 20380.863, -0.14066848, -0.8420948, -1280236.0, 298004.22, 0.0023833262, 10.0030575, 9.998454 
2.7254307e+3, 1.4894529e+2, -1211790.6, -1506848.9, 62359.69, -0.15025905, -0.8435235, -1199152.4, 281102.75, 0.0009899926, 10.002706, 9.998776 
2.7253824e+3, 1.5894394e+2, -1180709.5, -1450657.9, 51205.703, -0.14716445, -0.84000796, -1171322.8, 210945.16, 0.00025276057, 10.002286, 9.998692 
2.725334e+3, 1.689428e+2, -1103835.0, -1340291.6, 55523.523, -0.122784175, -0.8201013, -1091446.4, 192833.75, 0.000030382693, 10.002046, 9.998891 
2.725286e+3, 1.7894177e+2, -1037398.8, -1260046.3, 54532.414, -0.09999698, -0.7981338, -1024759.8, 161531.33, 0.0000008235445, 10.00184, 9.998869 
2.7252376e+3, 1.8894064e+2, -973184.7, -1146849.5, 66826.35, -0.08662864, -0.7994972, -950446.9, 137856.44, 0.0, 10.001473, 9.999149 
2.7251896e+3, 1.989396e+2, -924322.4, -1064013.9, 57708.316, -0.07383316, -0.8054819, -903566.4, 86748.0, 0.0, 10.0011, 9.999225 
2.725141e+3, 2.0893905e+2, -813832.6, -912697.5, 46029.496, -0.06445377, -0.7972876, -795720.44, 96599.39, 0.0, 10.000981, 9.999647 
2.7250925e+3, 2.1893865e+2, -740366.94, -844730.9, 45276.547, -0.056821063, -0.7847842, -723462.56, 70860.74, 0.0, 10.000891, 9.999485 
2.7250442e+3, 2.2893816e+2, -703137.4, -770145.44, 50426.676, -0.053144407, -0.7678915, -676099.1, 20230.49, 0.0, 10.000448, 9.999537 
2.724996e+3, 2.3893775e+2, -670264.44, -693006.9, 42067.12, -0.048438046, -0.7526347, -638058.75, -39723.266, 0.0, 9.999955, 9.999632 
2.7249473e+3, 2.4893741e+2, -560354.5, -538955.6, 22494.309, -0.03310008, -0.76374626, -524745.75, -24407.08, 0.0, 9.99982, 10.000082 
2.7248982e+3, 2.5893715e+2, -492077.06, -484626.38, 27516.15, -0.018724084, -0.7773559, -460584.53, -58244.016, 0.0, 9.9997425, 9.999821 
2.7248493e+3, 2.6893702e+2, -442547.38, -418496.25, 24344.5, -0.012584428, -0.7510373, -403369.13, -99025.77, 0.0, 9.999445, 9.999744 
2.7248004e+3, 2.7893695e+2, -396335.4, -348002.2, 24451.494, 0.0038330834, -0.71817404, -337790.03, -131444.48, 0.0, 9.999101, 9.9997225 
2.7247515e+3, 2.8893676e+2, -305453.94, -217798.2, 427.0242, 0.04130039, -0.7117339, -217796.13, -109448.65, 0.0, 9.998896, 10.000043 
2.7247018e+3, 2.989366e+2, -250047.53, -164580.53, 15091.7295, 0.045287244, -0.7170005, -161993.92, -151645.06, 0.0, 9.998707, 9.999826 
2.7246532e+3, 3.089352e+2, -242190.83, -113845.21, 26958.871, 0.04438371, -0.83505654, -108412.484, -108412.484, 0.0, 9.998328, 10.000023 
2.724604e+3, 3.1893632e+2, -223869.2, 20410.557, -45979.44, 0.06876301, -0.7113114, 28778.375, 28778.375, 0.0, 9.997915, 10.0011425 
2.7355322e+3, 1.2899825e+2, -1379539.5, -1710899.5, 10877.99, -0.12360487, -0.8438418, -1379182.8, 296551.6, 0.003066814, 10.002995, 9.998586 
2.7354822e+3, 1.3899677e+2, -1278983.3, -1621828.8, 14698.236, -0.17558011, -0.8354125, -1278354.4, 299395.97, 0.0017212916, 10.003051, 9.998497 
2.735433e+3, 1.4899528e+2, -1215439.8, -1514683.1, 44816.28, -0.16888264, -0.82969826, -1208872.0, 270892.66, 0.0006904252, 10.002704, 9.998725 
2.7353844e+3, 1.5899391e+2, -1181534.8, -1453896.9, 37644.223, -0.12946938, -0.8259062, -1176427.6, 205350.11, 0.00016836295, 10.00229, 9.998669 
2.735336e+3, 1.6899247e+2, -1103502.0, -1340547.3, 48058.234, -0.10772091, -0.83388186, -1094129.3, 189662.98, 0.000018432016, 10.002048, 9.998889 
2.7352875e+3, 1.7899117e+2, -1036467.44, -1258290.8, 43890.438, -0.09595596, -0.8405436, -1028098.9, 157706.94, 0.00000037747915, 10.001839, 9.998882 
2.735239e+3, 1.8899035e+2, -970551.44, -1142890.5, 51462.625, -0.079311624, -0.8126485, -956353.7, 131461.34, 0.0, 10.001478, 9.999175 
2.7351907e+3, 1.9898973e+2, -924309.94, -1066609.6, 47343.426, -0.06140172, -0.7814692, -909998.1, 79824.35, 0.0, 10.001108, 9.999204 
2.735142e+3, 2.0898888e+2, -821330.1, -929904.6, 43847.36, -0.064561196, -0.791671, -805834.2, 85996.15, 0.0, 10.000987, 9.999528 
2.7350932e+3, 2.1898808e+2, -744673.56, -854186.75, 36127.92, -0.071597986, -0.8090934, -733829.0, 60008.535, 0.0, 10.000892, 9.999421 
2.7350447e+3, 2.2898744e+2, -702205.3, -769012.25, 30516.836, -0.05760425, -0.8060448, -690364.2, 5480.8467, 0.0, 10.00045, 9.999545 
2.7349958e+3, 2.3898698e+2, -669082.4, -691539.7, 29240.709, -0.037806086, -0.7961665, -648988.5, -51137.3, 0.0, 9.999958, 9.999641 
2.734947e+3, 2.4898703e+2, -560231.44, -539788.1, 20369.582, -0.022773556, -0.7690876, -527219.4, -27368.53, 0.0, 9.999823, 10.000076 
2.734898e+3, 2.589872e+2, -489903.63, -481697.7, 20932.805, -0.01375977, -0.74378127, -464469.53, -62620.42, 0.0, 9.999747, 9.999839 
2.7348486e+3, 2.6898652e+2, -439254.72, -412762.88, 10364.081, -0.019253332, -0.7738378, -409190.1, -105333.76, 0.0, 9.999448, 9.9997835 
2.7347994e+3, 2.7898577e+2, -397861.28, -351521.84, 13351.242, -0.010708038, -0.80909437, -347950.38, -142086.27, 0.0, 9.9991, 9.9997 
2.7347505e+3, 2.8898597e+2, -313524.4, -235633.84, -6482.724, 0.05938466, -0.7580265, -235097.97, -127234.84, 0.0, 9.9988985, 9.99992 
2.734701e+3, 2.9898638e+2, -247739.17, -161887.36, 4673.615, 0.085932635, -0.69523865, -161633.69, -151774.08, 0.0, 9.9987135, 9.999843 
2.7346504e+3, 3.0898526e+2, -228877.47, -85962.7, 9232.571, -0.04072867, -0.79647315, -85368.734, -85368.734, 0.0, 9.998324, 10.000217 
2.7346024e+3, 3.1898534e+2, -232599.23, 4327.8115, -44683.676, 0.12407982, -0.7883945, 12474.86, 12474.86, 0.0, 9.997906, 10.001038 
2.745535e+3, 1.2904815e+2, -1396363.0, -1713582.0, 16760.205, -0.11490349, -0.8392856, -1395479.9, 279765.28, 0.002169671, 10.002853, 9.998634 
2.745485e+3, 1.3904674e+2, -1324766.5, -1635841.4, 13262.944, -0.17476583, -0.82913643, -1324202.0, 253058.45, 0.0011841968, 10.002702, 9.998568 
2.7454355e+3, 1.4904526e+2, -1245097.6, -1520066.6, 42911.934, -0.16323537, -0.83166116, -1238556.4, 240718.19, 0.00045552987, 10.002463, 9.998802 
2.745387e+3, 1.5904386e+2, -1187846.6, -1447944.1, 44742.77, -0.11598413, -0.8372032, -1180365.0, 200922.34, 0.00010423969, 10.00221, 9.998747 
2.745338e+3, 1.6904248e+2, -1117398.9, -1339713.0, 62532.15, -0.097787395, -0.8466442, -1101017.1, 182284.06, 0.000009845442, 10.001922, 9.998954 
2.7452892e+3, 1.7904124e+2, -1062474.9, -1268126.6, 61976.33, -0.092288285, -0.8533492, -1045241.5, 140072.52, 0.00000012200492, 10.001651, 9.998903 
2.7452403e+3, 1.890404e+2, -967015.6, -1148149.3, 65299.695, -0.07973245, -0.82439315, -945929.44, 141394.11, 0.0, 10.001534, 9.99911 
2.7451918e+3, 1.990397e+2, -879626.4, -1048982.9, 55446.633, -0.06452006, -0.7918156, -863088.3, 126243.1, 0.0, 10.001434, 9.9991665 
2.745143e+3, 2.0903878e+2, -805640.75, -923798.44, 56823.656, -0.06410302, -0.80781096, -782748.6, 108591.33, 0.0, 10.001103, 9.999513 
2.745094e+3, 2.190379e+2, -767797.2, -865974.4, 53781.992, -0.06721519, -0.8321723, -744069.6, 49278.18, 0.0, 10.000738, 9.999413 
2.7450448e+3, 2.2903727e+2, -690111.25, -764579.75, 45045.105, -0.05761092, -0.8262974, -668903.6, 26451.43, 0.0, 10.000542, 9.999531 
2.744996e+3, 2.3903683e+2, -612776.25, -668168.6, 43269.87, -0.042423803, -0.812338, -589097.75, 8263.144, 0.0, 10.000363, 9.999605 
2.7449468e+3, 2.4903676e+2, -540627.4, -539708.3, 31404.94, -0.021879874, -0.7889232, -508759.53, -9397.946, 0.0, 10.000001, 9.9999895 
2.7448976e+3, 2.590368e+2, -511503.53, -493847.2, 25474.998, -0.006291058, -0.7675144, -475714.03, -74353.1, 0.0, 9.99961, 9.99982 
2.7448478e+3, 2.690362e+2, -446751.4, -408567.88, 13638.469, -0.012067588, -0.79504496, -404196.8, -100829.6, 0.0, 9.999366, 9.99985 
2.7447984e+3, 2.7903554e+2, -390639.47, -350418.56, 20382.86, -0.0058631687, -0.8288966, -341895.28, -136521.19, 0.0, 9.999163, 9.999676 
2.7447492e+3, 2.890355e+2, -310054.3, -252556.17, 125.95217, 0.050215803, -0.7889769, -252555.89, -145180.2, 0.0, 9.999005, 9.999751 
2.7446994e+3, 2.990357e+2, -236492.39, -155336.77, 2614.2944, 0.06633368, -0.73249644, -155252.64, -145878.2, 0.0, 9.99879, 9.999849 
2.744649e+3, 3.0903527e+2, -219510.11, -53430.117, 1270.1262, 0.0017894797, -0.7817335, -53420.402, -53420.402, 0.0, 9.998272, 10.000464 
2.7446005e+3, 3.19035e+2, -217671.36, -5907.0156, -15013.229, 0.13124971, -0.826731, -4847.9355, -4847.9355, 0.0, 9.998087, 10.000878 
2.7555376e+3, 1.2909834e+2, -1393018.5, -1711403.1, 11047.595, -0.13493463, -0.8161821, -1392635.6, 282117.56, 0.0014534983, 10.0028715, 9.998641 
2.755488e+3, 1.3909678e+2, -1319681.1, -1623933.0, 5983.5845, -0.14466208, -0.8226894, -1319563.5, 257206.39, 0.00076653186, 10.002693, 9.998654 
2.755438e+3, 1.4909525e+2, -1233384.6, -1494758.1, 33344.484, -0.13791409, -0.84664506, -1229197.8, 249586.23, 0.00027987343, 10.002457, 9.9989805 
2.7553892e+3, 1.5909386e+2, -1176729.9, -1425101.3, 34139.465, -0.10642632, -0.8703325, -1172122.8, 208673.69, 0.00005822764, 10.002209, 9.998905 
2.7553397e+3, 1.6909282e+2, -1108568.4, -1322493.9, 51117.37, -0.09228907, -0.85822415, -1096981.5, 185825.08, 0.0000044041435, 10.001925, 9.999072 
2.755291e+3, 1.790919e+2, -1060524.5, -1265680.6, 53578.49, -0.08915523, -0.8397808, -1047374.8, 137441.17, 0.000000024025011, 10.001657, 9.998919 
2.7552417e+3, 1.8909071e+2, -977634.25, -1170942.4, 62196.26, -0.0874132, -0.83541536, -959351.9, 127476.91, 0.0, 10.001536, 9.998954 
2.7551928e+3, 1.9908959e+2, -883680.2, -1057270.1, 47794.82, -0.08206493, -0.83449817, -871390.8, 117450.2, 0.0, 10.001432, 9.999112 
2.755144e+3, 2.0908876e+2, -800202.94, -913190.4, 42352.043, -0.06298623, -0.8441401, -786090.44, 104757.92, 0.0, 10.001104, 9.999585 
2.7550948e+3, 2.190881e+2, -764892.3, -861237.3, 42719.563, -0.045042444, -0.85309756, -748678.9, 44175.156, 0.0, 10.000742, 9.999444 
2.7550453e+3, 2.2908765e+2, -692637.56, -771079.9, 39047.875, -0.05371158, -0.8286763, -676514.0, 18345.568, 0.0, 10.0005455, 9.999485 
2.7549958e+3, 2.3908728e+2, -618567.8, -681212.06, 33439.098, -0.062259607, -0.80189896, -604072.4, -7207.7407, 0.0, 10.000366, 9.999516 
2.7549466e+3, 2.4908659e+2, -552745.3, -565630.75, 15817.972, -0.03050127, -0.8245604, -542108.3, -43237.313, 0.0, 10.000003, 9.999811 
2.7548972e+3, 2.59086e+2, -516324.84, -503991.22, 12909.362, 0.003473151, -0.8505899, -495851.34, -94975.06, 0.0, 9.999609, 9.999752 
2.7548474e+3, 2.690861e+2, -440840.97, -396414.56, 5331.6143, 0.009806492, -0.8131074, -395783.66, -92907.64, 0.0, 9.999365, 9.999935 
2.7547976e+3, 2.7908623e+2, -392982.28, -355727.94, 13494.778, 0.019348312, -0.7714884, -351353.34, -146478.14, 0.0, 9.999163, 9.9996395 
2.7547476e+3, 2.890853e+2, -326208.06, -286704.25, -6783.5317, 0.009984453, -0.80448914, -285571.84, -178686.39, 0.0, 9.999005, 9.999517 
2.7546972e+3, 2.9908445e+2, -237749.67, -158185.92, -12276.447, -0.020133618, -0.8366544, -156334.77, -147440.27, 0.0, 9.998789, 9.999831 
2.7546492e+3, 3.0908513e+2, -200126.14, -11045.787, -21678.027, 0.19422778, -0.7930953, -8592.242, -8592.242, 0.0, 9.9982605, 10.000762 
2.7545974e+3, 3.190853e+2, -232462.55, -40740.137, 20950.996, 0.04932795, -0.81527233, -38477.367, -38477.367, 0.0, 9.998098, 10.000636 
2.7655402e+3, 1.2914842e+2, -1388028.3, -1699860.1, 16559.832, -0.16381279, -0.8331476, -1387151.4, 287110.06, 0.000909464, 10.002866, 9.998722 
2.7654904e+3, 1.39147e+2, -1374961.8, -1637490.6, 19363.256, -0.10977849, -0.8335167, -1373541.3, 202735.23, 0.0004596148, 10.002258, 9.99877 
2.7654403e+3, 1.4914559e+2, -1282010.0, -1502181.1, 51321.08, -0.11167519, -0.859856, -1270635.0, 207654.52, 0.00015660137, 10.002055, 9.999122 
2.7653912e+3, 1.5914427e+2, -1208160.8, -1429915.5, 48273.457, -0.10210757, -0.8869394, -1198107.9, 182193.1, 0.000028159127, 10.001951, 9.998996 
2.7653417e+3, 1.6914332e+2, -1124860.4, -1330129.3, 57402.445, -0.087804176, -0.86812043, -1109898.6, 172411.81, 0.0000015734015, 10.001815, 9.999072 
2.7652925e+3, 1.791425e+2, -1055742.6, -1258333.9, 53934.313, -0.08070895, -0.84243906, -1042278.94, 142040.14, 0.0000000017471812, 10.001669, 9.998962 
2.765243e+3, 1.8914126e+2, -988079.94, -1166359.3, 75670.96, -0.08312304, -0.85019636, -960292.4, 126039.49, 0.0, 10.001426, 9.999038 
2.7651942e+3, 1.9914006e+2, -918044.06, -1069645.8, 74956.29, -0.08319873, -0.86384726, -887241.9, 101102.52, 0.0, 10.001181, 9.999146 
2.7651447e+3, 2.091393e+2, -806722.9, -922219.44, 63616.68, -0.06633676, -0.8646531, -778552.94, 111798.52, 0.0, 10.001088, 9.99953 
2.7650955e+3, 2.191387e+2, -729582.0, -847502.4, 54362.074, -0.048798162, -0.8608587, -708345.3, 84011.38, 0.0, 10.001001, 9.999413 
2.7650458e+3, 2.2913818e+2, -676863.2, -764798.5, 49358.18, -0.051850386, -0.8407236, -654729.5, 39633.105, 0.0, 10.000662, 9.999471 
2.764996e+3, 2.3913772e+2, -631323.3, -689505.6, 46813.33, -0.055002514, -0.82200664, -605298.4, -8930.179, 0.0, 10.000291, 9.999494 
2.7649465e+3, 2.4913691e+2, -536988.5, -563933.2, 37123.594, -0.028169742, -0.8526987, -510968.22, -12592.665, 0.0, 10.000139, 9.999756 
2.7648968e+3, 2.591362e+2, -466039.28, -490633.7, 39828.23, 0.00047144794, -0.88519865, -436653.03, -36271.08, 0.0, 10.000003, 9.999652 
2.764847e+3, 2.6913625e+2, -416080.2, -403168.1, 15654.16, 0.015419604, -0.8352243, -392690.94, -90308.69, 0.0, 9.999619, 9.999765 
2.764797e+3, 2.7913642e+2, -397041.94, -368596.56, 9800.687, 0.034794778, -0.7793196, -365546.78, -161164.9, 0.0, 9.999186, 9.999538 
2.7647465e+3, 2.8913522e+2, -336063.44, -294094.34, 2242.4858, 0.011091173, -0.8281508, -293974.84, -187580.98, 0.0, 9.998953, 9.999491 
2.764696e+3, 2.9913417e+2, -241604.11, -164227.02, 5810.225, -0.034145128, -0.8791208, -163793.16, -155388.4, 0.0, 9.998783, 9.999791 
2.7646476e+3, 3.0913502e+2, -151355.84, 6014.2104, -29559.09, 0.23375827, -0.8140933, 11383.174, 11383.174, 0.0, 9.998626, 10.000702 
2.7645954e+3, 3.1913513e+2, -207063.05, -73006.16, 30849.307, 0.030350136, -0.82689786, -66247.8, -66247.8, 0.0, 9.9984665, 10.0002365 
2.7755424e+3, 1.2919848e+2, -1380126.6, -1680923.3, -7513.524, -0.20015222, -0.88170904, -1379939.0, 293829.84, 0.0005219381, 10.002853, 9.998859 
2.775493e+3, 1.3919744e+2, -1362349.8, -1616763.5, 3794.873, -0.070922725, -0.8586251, -1362293.1, 213486.98, 0.00024991535, 10.002279, 9.998903 
2.7754426e+3, 1.4919625e+2, -1272085.9, -1485600.8, 47486.195, -0.084661, -0.8716104, -1262001.1, 215789.94, 0.00007711832, 10.00207, 9.999229 
2.7753928e+3, 1.5919513e+2, -1206030.9, -1426336.4, 43261.18, -0.10253109, -0.88929874, -1197840.3, 181960.9, 0.000011151193, 10.001953, 9.99902 
2.7753434e+3, 1.6919406e+2, -1132586.3, -1346534.4, 52362.707, -0.08446501, -0.87660235, -1120458.3, 161353.94, 0.00000042374444, 10.001815, 9.9989605 
2.7752942e+3, 1.7919306e+2, -1050905.4, -1248666.3, 47034.85, -0.06778337, -0.8595083, -1040288.7, 143533.98, 0.00000000000031093438, 10.001669, 9.999029 
2.7752447e+3, 1.8919206e+2, -967188.9, -1123404.3, 65682.9, -0.06802836, -0.8681616, -943242.44, 142590.2, 0.0, 10.001426, 9.999333 
2.7751952e+3, 1.9919112e+2, -910603.8, -1054753.6, 67768.6, -0.06968505, -0.8803289, -883747.56, 104094.17, 0.0, 10.001182, 9.999249 
2.7751458e+3, 2.0919037e+2, -819470.44, -949255.6, 61209.152, -0.07426655, -0.87009865, -795157.6, 94691.62, 0.0, 10.001089, 9.999345 
2.7750963e+3, 2.1918972e+2, -736163.94, -861599.6, 46744.57, -0.07723931, -0.85678047, -720660.44, 71195.51, 0.0, 10.001001, 9.999316 
2.7750465e+3, 2.291889e+2, -675982.75, -763587.3, 34464.242, -0.051644687, -0.8629539, -664049.75, 29814.412, 0.0, 10.000664, 9.999479 
2.7749968e+3, 2.3918816e+2, -628481.56, -684251.8, 36571.72, -0.021237085, -0.87217176, -610376.75, -14505.152, 0.0, 10.000292, 9.99953 
2.7749467e+3, 2.4918774e+2, -532365.2, -555378.9, 33156.168, -0.015204387, -0.8721623, -508775.9, -10900.773, 0.0, 10.000142, 9.999814 
2.7748966e+3, 2.5918737e+2, -475449.84, -511754.84, 30648.398, -0.016239548, -0.86941344, -457981.6, -58103.785, 0.0, 10.000009, 9.999506 
2.7748463e+3, 2.6918665e+2, -447144.13, -468553.16, -1800.7977, 0.0036297778, -0.86301756, -446993.7, -145107.52, 0.0, 9.99962, 9.999316 
2.774796e+3, 2.791859e+2, -409479.53, -394509.6, -3949.1748, 0.039842557, -0.8579199, -393531.66, -189636.72, 0.0, 9.999184, 9.999362 
2.7747458e+3, 2.8918532e+2, -323075.53, -266462.94, -5460.205, 0.058605943, -0.85920733, -265941.13, -160040.05, 0.0, 9.998948, 9.999683 
2.7746952e+3, 2.9918492e+2, -247956.95, -176395.39, 532.9811, 0.031749915, -0.85226077, -176391.42, -168486.94, 0.0, 9.998776, 9.999712 
2.774645e+3, 3.0918482e+2, -183936.13, -64250.016, -37062.934, 0.09200999, -0.8489741, -53702.36, -53702.36, 0.0, 9.998635, 10.0002165 
2.7745947e+3, 3.1918445e+2, -249168.94, -161099.47, 42798.168, 0.12448897, -0.85771686, -143727.84, -143727.84, 0.0, 9.99847, 9.999629 
2.785545e+3, 1.2924916e+2, -1438808.4, -1694463.0, 18304.557, -0.20383899, -0.916497, -1437504.5, 235765.08, 0.00026777093, 10.002387, 9.99899 
2.7854952e+3, 1.3924819e+2, -1346641.5, -1601875.4, 28880.46, -0.06059699, -0.8974007, -1343414.4, 231865.44, 0.00011908332, 10.0023575, 9.998967 
2.785445e+3, 1.4924718e+2, -1275294.0, -1492153.4, 65405.68, -0.07698387, -0.89364195, -1257094.6, 220195.19, 0.000031577423, 10.002072, 9.999183 
2.7853948e+3, 1.592462e+2, -1232491.5, -1436988.4, 54188.8, -0.099884406, -0.8934651, -1219019.8, 160279.61, 0.0000033549736, 10.001763, 9.999038 
2.785345e+3, 1.6924506e+2, -1157120.1, -1349209.5, 74879.945, -0.08043719, -0.89209294, -1131379.9, 149930.9, 0.00000007042765, 10.001609, 9.99904 
2.7852955e+3, 1.7924401e+2, -1073123.5, -1252319.4, 77800.47, -0.061244193, -0.88995093, -1044059.25, 139262.42, 0.0, 10.001489, 9.99909 
2.7852458e+3, 1.8924314e+2, -983953.56, -1129023.9, 80003.05, -0.06317417, -0.88813317, -948498.75, 136831.63, 0.0, 10.001303, 9.999352 
2.7851963e+3, 1.9924235e+2, -919924.56, -1056382.4, 67109.58, -0.06714618, -0.88612825, -892451.44, 94886.61, 0.0, 10.001108, 9.999272 
2.7851468e+3, 2.0924158e+2, -841879.44, -959428.8, 71065.99, -0.07148064, -0.8795955, -808432.44, 80913.484, 0.0, 10.000935, 9.999349 
2.785097e+3, 2.1924084e+2, -768409.75, -875181.9, 66623.73, -0.073840015, -0.8734732, -736421.44, 54931.96, 0.0, 10.000774, 9.999331 
2.785047e+3, 2.2924003e+2, -675398.7, -761389.6, 53492.25, -0.046486884, -0.88311154, -649764.5, 43596.992, 0.0, 10.000662, 9.999494 
2.784997e+3, 2.3923928e+2, -595073.1, -671922.9, 55461.68, -0.013476834, -0.89416736, -566026.0, 29342.887, 0.0, 10.00054, 9.999494 
2.784947e+3, 2.4923883e+2, -520985.25, -563068.4, 41682.645, -0.006770919, -0.88598686, -495334.3, 2038.2969, 0.0, 10.000279, 9.999694 
2.7848965e+3, 2.5923842e+2, -483730.4, -525281.9, 27639.266, -0.008561501, -0.8754347, -469929.25, -70553.484, 0.0, 9.999995, 9.999417 
2.7848458e+3, 2.6923746e+2, -425817.75, -465491.66, 14385.319, 0.007855225, -0.88695997, -421150.78, -119764.516, 0.0, 9.999801, 9.999249 
2.7847952e+3, 2.792364e+2, -353261.34, -375738.78, 37800.723, 0.041582596, -0.9013269, -325064.0, -121666.664, 0.0, 9.999608, 9.999286 
2.7847448e+3, 2.892359e+2, -277135.5, -255020.4, 22856.307, 0.0683072, -0.8845108, -240687.4, -135284.64, 0.0, 9.999311, 9.999585 
2.784694e+3, 2.9923564e+2, -229699.84, -185858.13, 11804.157, 0.04962113, -0.8556189, -182881.95, -175476.55, 0.0, 9.998983, 9.999546 
2.7846435e+3, 3.092351e+2, -178157.33, -93942.73, -14990.3, 0.08532167, -0.8682214, -91354.016, -91354.016, 0.0, 9.998817, 9.999924 
2.7845934e+3, 3.1923443e+2, -248563.05, -154080.25, 70042.0, 0.16571192, -0.8865678, -116837.15, -116837.15, 0.0, 9.998448, 9.999686 
2.7955472e+3, 1.2930045e+2, -1427935.0, -1675734.1, 17342.863, -0.18198222, -0.940779, -1426727.1, 246036.97, 0.0001178132, 10.002402, 9.999112 
2.7954972e+3, 1.3929933e+2, -1347774.1, -1602761.6, 22455.27, -0.07472652, -0.94732744, -1345811.8, 228963.69, 0.00004669238, 10.00235, 9.998965 
2.7954465e+3, 1.4929837e+2, -1288435.8, -1519141.9, 52736.28, -0.08584047, -0.9238528, -1276952.5, 199833.3, 0.000009788546, 10.002069, 9.999 
2.7953961e+3, 1.592975e+2, -1230740.9, -1435228.8, 45142.652, -0.09488071, -0.89889365, -1221218.6, 157576.66, 0.00000067164456, 10.00177, 9.999047 
2.7953464e+3, 1.6929638e+2, -1139289.6, -1313712.8, 70325.17, -0.07585511, -0.91390973, -1114467.8, 166338.16, 0.0000000035986794, 10.001614, 9.999282 
2.795297e+3, 1.7929532e+2, -1069900.5, -1246190.9, 71459.04, -0.06060787, -0.93237895, -1044573.4, 138242.84, 0.0, 10.00149, 9.999133 
2.795247e+3, 1.8929449e+2, -1000287.75, -1163757.5, 72326.63, -0.06786612, -0.9095869, -972881.75, 111943.46, 0.0, 10.001305, 9.999114 
2.7951974e+3, 1.9929378e+2, -922838.6, -1063512.9, 60148.484, -0.07465183, -0.8823167, -900627.7, 86205.62, 0.0, 10.001111, 9.999223 
2.7951476e+3, 2.0929293e+2, -829156.25, -933842.06, 64797.21, -0.05840413, -0.893449, -798201.75, 90639.65, 0.0, 10.0009365, 9.999523 
2.7950978e+3, 2.1929215e+2, -760451.1, -859196.25, 61286.215, -0.04050025, -0.9096672, -731123.94, 59724.887, 0.0, 10.000775, 9.999441 
2.7950475e+3, 2.2929156e+2, -674195.1, -759820.9, 49545.863, -0.037101805, -0.9004017, -651527.2, 41327.477, 0.0, 10.000664, 9.999504 
2.7949974e+3, 2.3929103e+2, -602831.7, -689024.3, 48496.293, -0.031821363, -0.8880389, -581049.75, 13810.276, 0.0, 10.000543, 9.999376 
2.794947e+3, 2.4929018e+2, -542243.56, -607898.4, 30378.406, -0.0026509333, -0.8949313, -530344.1, -33475.98, 0.0, 10.00028, 9.999386 
2.7948967e+3, 2.5928932e+2, -485643.97, -529537.5, 18202.883, 0.024369642, -0.90442985, -479077.5, -80201.38, 0.0, 9.999995, 9.999389 
2.7948457e+3, 2.6928866e+2, -402241.3, -417400.28, 7738.5156, 0.028696574, -0.9060579, -398988.75, -98106.375, 0.0, 9.999803, 9.999579 
2.7947947e+3, 2.7928805e+2, -351276.47, -373550.16, 29708.844, 0.038908128, -0.9065709, -330685.66, -127797.16, 0.0, 9.999615, 9.999299 
2.7947438e+3, 2.892871e+2, -306416.5, -317524.4, 10231.434, 0.035258327, -0.90419203, -300328.78, -195429.81, 0.0, 9.999317, 9.999155 
2.7946925e+3, 2.9928625e+2, -247961.69, -224526.0, 1000.98956, 0.013886979, -0.89230084, -224483.33, -217575.22, 0.0, 9.998985, 9.99928 
2.7946436e+3, 3.0928597e+2, -183497.4, -104666.016, -19913.701, 0.23828173, -0.86820847, -99921.18, -99921.18, 0.0, 9.998815, 9.999852 
2.7945912e+3, 3.1928512e+2, -191372.28, -33544.074, 6085.3613, 0.10905846, -0.9172762, -33309.793, -33309.793, 0.0, 9.998436, 10.000524 
2.8055495e+3, 1.2935191e+2, -1438380.3, -1667198.8, 16470.592, -0.17205207, -0.95444834, -1437200.8, 235057.31, 0.00004090907, 10.002274, 9.999231 
2.805499e+3, 1.3935089e+2, -1410218.0, -1624619.5, 22532.176, -0.07631024, -0.9608807, -1407875.6, 166392.44, 0.000013370687, 10.001887, 9.999038 
2.8054485e+3, 1.4934988e+2, -1337543.1, -1544067.4, 63261.8, -0.08411694, -0.9440294, -1319705.6, 156573.31, 0.000001926778, 10.0017395, 9.998987 
2.8053978e+3, 1.5934895e+2, -1246655.9, -1440624.5, 65084.746, -0.08632735, -0.9248963, -1226841.3, 151447.95, 0.000000061834285, 10.001654, 9.999065 
2.805348e+3, 1.6934796e+2, -1152469.8, -1315313.6, 81616.77, -0.07004869, -0.931583, -1118605.8, 161693.06, 0.0, 10.001505, 9.999323 
2.8052983e+3, 1.7934701e+2, -1087323.6, -1250366.8, 71460.19, -0.059461635, -0.9409379, -1060437.0, 121870.945, 0.0, 10.001354, 9.999168 
2.8052482e+3, 1.8934616e+2, -1009252.4, -1167471.6, 84208.68, -0.06502511, -0.92399704, -972822.25, 111495.14, 0.0, 10.001243, 9.999118 
2.805198e+3, 1.9934537e+2, -918079.1, -1059265.3, 85672.63, -0.06869526, -0.9041533, -877662.4, 108663.86, 0.0, 10.001138, 9.999238 
2.8051484e+3, 2.0934458e+2, -823259.06, -929233.75, 82193.26, -0.052331276, -0.9119053, -778453.8, 109880.164, 0.0, 10.000972, 9.999537 
2.8050986e+3, 2.1934384e+2, -757077.3, -857071.7, 68514.84, -0.034529246, -0.9224518, -722257.06, 68083.84, 0.0, 10.000798, 9.999444 
2.8050482e+3, 2.2934331e+2, -675165.25, -763289.8, 53614.13, -0.030939387, -0.90652984, -649830.4, 42515.973, 0.0, 10.000672, 9.9994755 
2.804998e+3, 2.393428e+2, -603253.75, -692203.6, 50038.688, -0.026339868, -0.88996136, -580781.75, 13569.944, 0.0, 10.000555, 9.999347 
2.8049472e+3, 2.4934171e+2, -524216.88, -604443.5, 45287.98, -0.00011824196, -0.9144179, -503831.63, -7469.852, 0.0, 10.000429, 9.999337 
2.8048968e+3, 2.5934067e+2, -445194.16, -512494.13, 48371.195, 0.024581134, -0.9404544, -419919.66, -21548.06, 0.0, 10.000285, 9.999366 
2.8048456e+3, 2.6934025e+2, -364294.94, -398850.47, 19409.043, 0.028419036, -0.916858, -355587.47, -55211.89, 0.0, 10.000064, 9.999579 
2.8047943e+3, 2.7933988e+2, -325065.06, -364637.75, 19411.217, 0.039972704, -0.8916905, -317133.28, -114753.95, 0.0, 9.999813, 9.999263 
2.804743e+3, 2.8933847e+2, -284248.25, -319719.94, 13833.519, 0.049208336, -0.92370063, -279491.28, -175097.3, 0.0, 9.999527, 9.999038 
2.8046918e+3, 2.993372e+2, -216066.55, -217541.19, 28466.793, 0.03702479, -0.9437145, -188327.53, -181920.2, 0.0, 9.999242, 9.999204 
2.8046423e+3, 3.093377e+2, -163567.16, -97760.805, 15036.47, 0.2310979, -0.83965856, -94487.83, -94487.83, 0.0, 9.998964, 9.999826 
2.8045896e+3, 3.1933627e+2, -150680.8, -1234.7971, 7115.9497, 0.10085618, -0.94437706, -896.7322, -896.7322, 0.0, 9.998662, 10.000635 
2.8155518e+3, 1.2940359e+2, -1433184.6, -1652086.0, 133.06743, -0.17180799, -0.9587658, -1433184.6, 238566.2, 0.000009398705, 10.002254, 9.999346 
2.815501e+3, 1.394029e+2, -1400169.6, -1605712.0, 11238.915, -0.068007015, -0.94420135, -1399556.9, 174200.61, 0.0000021889277, 10.001894, 9.999165 
2.81545e+3, 1.4940174e+2, -1327997.6, -1525861.6, 59500.863, -0.07368645, -0.9562815, -1311483.1, 164286.19, 0.00000016251443, 10.001745, 9.99911 
2.8153998e+3, 1.5940057e+2, -1245732.5, -1438582.4, 60091.207, -0.074790105, -0.96870756, -1228540.9, 149240.36, 0.0000000005064632, 10.001652, 9.999082 
2.8153497e+3, 1.693998e+2, -1162479.6, -1336045.3, 75590.49, -0.06359644, -0.9450417, -1134174.8, 145614.66, 0.0, 10.001503, 9.999182 
2.8152996e+3, 1.793991e+2, -1085190.6, -1246296.9, 66534.04, -0.05822742, -0.91911095, -1061266.0, 120530.8, 0.0, 10.001354, 9.999197 
2.8152496e+3, 1.893981e+2, -993949.6, -1135886.4, 80476.0, -0.05530171, -0.9326426, -957619.9, 126187.03, 0.0, 10.001242, 9.999335 
2.8151995e+3, 1.9939713e+2, -913796.25, -1050283.6, 80469.61, -0.05080818, -0.9497154, -876529.0, 109287.77, 0.0, 10.001136, 9.999301 
2.8151494e+3, 2.0939648e+2, -833600.25, -950988.5, 75376.48, -0.053305574, -0.93403596, -796761.06, 91062.516, 0.0, 10.000972, 9.999389 
2.815099e+3, 2.1939594e+2, -764300.94, -872636.0, 62792.883, -0.054761067, -0.91284484, -735540.4, 54289.223, 0.0, 10.000799, 9.999337 
2.8150487e+3, 2.2939527e+2, -679787.44, -773624.06, 49292.668, -0.027663302, -0.90239674, -658653.56, 33183.066, 0.0, 10.000674, 9.999404 
2.8149986e+3, 2.3939456e+2, -598959.5, -683877.6, 45565.613, 0.0024816163, -0.90024453, -579136.94, 14706.913, 0.0, 10.000556, 9.999404 
2.8149474e+3, 2.4939345e+2, -509358.28, -574437.1, 40396.984, 0.00009443236, -0.9443373, -490025.44, 5827.886, 0.0, 10.000432, 9.999543 
2.8148964e+3, 2.5939244e+2, -447022.16, -517588.38, 41664.406, -0.00991029, -0.9833327, -427708.38, -29846.213, 0.0, 10.00029, 9.99933 
2.814845e+3, 2.6939216e+2, -388789.66, -450857.53, 9933.749, 0.0058577266, -0.9186315, -387238.56, -87372.61, 0.0, 10.000068, 9.999222 
2.814794e+3, 2.7939188e+2, -330691.34, -377141.66, 8662.428, 0.04537363, -0.8549118, -329128.47, -127258.27, 0.0, 9.999815, 9.999177 
2.8147432e+3, 2.8939006e+2, -268221.97, -286754.1, 2285.1606, 0.115886, -0.9434966, -267944.34, -164056.28, 0.0, 9.999527, 9.999265 
2.8146917e+3, 2.993885e+2, -207249.88, -199639.06, 19122.209, 0.12519671, -1.0125602, -183947.3, -178044.22, 0.0, 9.999242, 9.999328 
2.8146392e+3, 3.0939034e+2, -162413.39, -96002.484, 3896.1702, 0.03249077, -0.77570677, -95774.69, -95774.69, 0.0, 9.998964, 9.99984 
2.8145888e+3, 3.1938788e+2, -206119.17, -114969.555, 12079.789, 0.18539214, -0.97302586, -113395.82, -113395.82, 0.0, 9.998656, 9.999857 
2.8255537e+3, 1.2945528e+2, -1526925.6, -1689496.1, 5482.516, -0.160187, -0.9713303, -1526740.9, 144502.08, 0.000000966965, 10.001577, 9.999414 
2.8255028e+3, 1.3945475e+2, -1423042.6, -1604314.8, 12615.286, -0.06742759, -0.94814605, -1422168.9, 151079.39, 0.000000116965474, 10.001685, 9.999274 
2.8254518e+3, 1.4945365e+2, -1351240.4, -1521486.9, 60607.605, -0.07102776, -0.96620244, -1331868.5, 143390.61, 0.0000000014119189, 10.00152, 9.999248 
2.825401e+3, 1.5945254e+2, -1285839.0, -1446004.1, 63594.313, -0.06725703, -0.987144, -1263659.9, 113610.17, 0.0, 10.001327, 9.999186 
2.8253508e+3, 1.6945182e+2, -1200122.8, -1349538.1, 90406.19, -0.057732686, -0.9651245, -1157550.8, 121727.22, 0.0, 10.001227, 9.999222 
2.8253007e+3, 1.7945117e+2, -1110856.8, -1252406.3, 91260.58, -0.054738346, -0.9385719, -1066143.1, 115141.95, 0.0, 10.001153, 9.999251 
2.8252506e+3, 1.8945025e+2, -1016423.9, -1140160.3, 97576.55, -0.050457634, -0.9492067, -962754.8, 120539.57, 0.0, 10.001061, 9.999392 
2.8252006e+3, 1.9944936e+2, -934958.7, -1054153.6, 87547.94, -0.04427498, -0.9634574, -888648.2, 96655.32, 0.0, 10.000966, 9.999355 
2.8251502e+3, 2.0944877e+2, -850120.2, -955672.94, 90214.195, -0.047874406, -0.94564974, -798378.9, 88931.01, 0.0, 10.000847, 9.999415 
2.8250998e+3, 2.1944825e+2, -773693.7, -876641.5, 90819.586, -0.051571473, -0.92306584, -720775.25, 68540.41, 0.0, 10.000735, 9.99934 
2.8250495e+3, 2.294475e+2, -677187.06, -776961.1, 82470.336, -0.028920444, -0.9182722, -630689.06, 60634.65, 0.0, 10.000714, 9.999361 
2.824999e+3, 2.394467e+2, -578530.75, -672379.4, 78095.914, -0.0020157443, -0.9210287, -534346.0, 58985.902, 0.0, 10.000691, 9.999417 
2.824948e+3, 2.4944577e+2, -486329.16, -555305.6, 62325.46, -0.0017171148, -0.95394343, -449586.06, 45753.645, 0.0, 10.000557, 9.999613 
2.824897e+3, 2.594449e+2, -432629.34, -511760.75, 55206.54, -0.009786253, -0.9815641, -404274.44, -6927.5635, 0.0, 10.000395, 9.999317 
2.8248453e+3, 2.6944447e+2, -371551.7, -457236.3, 35405.91, -0.0006154138, -0.9248019, -358814.84, -59462.168, 0.0, 10.000251, 9.999089 
2.8247938e+3, 2.7944398e+2, -293810.34, -362525.03, 45608.273, 0.03574661, -0.8703437, -271066.53, -69707.29, 0.0, 10.000084, 9.999146 
2.8247428e+3, 2.894422e+2, -233944.33, -261544.14, 27945.488, 0.13730836, -0.9567964, -216577.14, -113200.93, 0.0, 9.999727, 9.99934 
2.8246912e+3, 2.9944077e+2, -188455.7, -185485.22, 37946.34, 0.16557887, -1.0202032, -148995.06, -143605.33, 0.0, 9.9993515, 9.999372 
2.8246373e+3, 3.0944282e+2, -125946.14, -82484.49, 20867.076, -0.057715517, -0.76437193, -74087.86, -74087.86, 0.0, 9.999234, 9.999802 
2.8245878e+3, 3.1944004e+2, -202138.67, -128573.28, 7952.785, 0.23228231, -0.9841238, -127723.37, -127723.37, 0.0, 9.998754, 9.999715 
2.8355554e+3, 1.2950704e+2, -1523269.4, -1684648.5, 10559.906, -0.14014854, -0.99074894, -1522581.4, 148152.9, 0.000000016734337, 10.001589, 9.999443 
2.835504e+3, 1.3950655e+2, -1415757.8, -1590549.4, 11582.522, -0.0736282, -0.96873873, -1414993.5, 157746.17, 0.00000000000042985277, 10.00169, 9.999368 
2.835453e+3, 1.4950572e+2, -1341120.3, -1500439.3, 52661.55, -0.07513791, -0.9736233, -1325287.0, 149460.75, 0.0, 10.001519, 9.999393 
2.8354025e+3, 1.5950486e+2, -1274020.1, -1420683.5, 57753.78, -0.06368763, -0.9836471, -1254008.1, 122747.7, 0.0, 10.001323, 9.999362 
2.835352e+3, 1.6950403e+2, -1187181.3, -1322191.1, 87330.12, -0.052419428, -0.9915665, -1144307.4, 134456.94, 0.0, 10.001224, 9.999412 
2.8353018e+3, 1.7950325e+2, -1106516.6, -1242954.3, 87731.97, -0.049427025, -0.99502563, -1063601.6, 117170.86, 0.0, 10.00115, 9.999318 
2.8352514e+3, 1.8950263e+2, -1023303.5, -1154364.1, 93979.625, -0.05042701, -0.97227204, -974263.4, 108516.51, 0.0, 10.0010605, 9.999295 
2.8352013e+3, 1.9950205e+2, -931891.9, -1047919.1, 83639.875, -0.048240133, -0.94763124, -888115.5, 96671.164, 0.0, 10.000965, 9.999399 
2.835151e+3, 2.0950143e+2, -836656.44, -928146.56, 85611.07, -0.03629927, -0.94798917, -785335.2, 101457.62, 0.0, 10.000847, 9.999605 
2.8351006e+3, 2.1950081e+2, -766443.1, -862098.0, 88300.984, -0.026501441, -0.95263666, -713848.8, 74950.14, 0.0, 10.000736, 9.999439 
2.83505e+3, 2.2950001e+2, -678534.25, -780512.75, 82276.44, -0.035195448, -0.9534173, -632728.3, 58079.234, 0.0, 10.000716, 9.999336 
2.834999e+3, 2.3949923e+2, -581045.4, -678374.4, 75292.85, -0.04001193, -0.9517692, -540059.2, 52756.656, 0.0, 10.000694, 9.999375 
2.8349483e+3, 2.4949865e+2, -491074.9, -565939.4, 56210.836, -0.0052266154, -0.942526, -460973.22, 33847.633, 0.0, 10.000559, 9.999539 
2.8348973e+3, 2.594981e+2, -431416.66, -509879.63, 49210.62, 0.026290048, -0.9338452, -407713.3, -10887.606, 0.0, 10.000397, 9.9993305 
2.8348455e+3, 2.6949713e+2, -364118.47, -442538.5, 30213.496, 0.0094061, -0.9365803, -353828.2, -54992.434, 0.0, 10.000253, 9.999189 
2.8347933e+3, 2.7949613e+2, -292175.4, -360115.0, 36483.76, 0.008822922, -0.94266015, -276295.3, -75448.734, 0.0, 10.000087, 9.999163 
2.834742e+3, 2.8949496e+2, -240994.45, -276512.16, 13072.663, 0.10761208, -0.9614222, -236701.73, -133843.7, 0.0, 9.999727, 9.999239 
2.8346905e+3, 2.9949415e+2, -192392.94, -193156.17, 28252.377, 0.15210351, -0.9579903, -164519.6, -159653.05, 0.0, 9.999348, 9.999321 
2.834637e+3, 3.0949497e+2, -133031.77, -97114.82, 18279.643, -0.0173464, -0.8151806, -89448.07, -89448.07, 0.0, 9.999232, 9.999702 
2.8345865e+3, 3.1949306e+2, -161986.61, -41081.188, -72353.78, 0.20652692, -0.9546695, -7249.227, -7249.227, 0.0, 9.9987335, 10.000327 
2.8455567e+3, 1.2955889e+2, -1551270.5, -1689310.5, 28042.584, -0.14240494, -1.0194861, -1545791.1, 124432.914, 0.0, 10.001359, 9.99952 
2.8455055e+3, 1.395585e+2, -1452773.3, -1594966.0, 25489.734, -0.06736915, -0.9961606, -1448342.0, 123886.86, 0.0, 10.001379, 9.999486 
2.8454542e+3, 1.4955789e+2, -1384968.3, -1505387.6, 60189.688, -0.07226674, -0.9921787, -1360042.8, 114192.195, 0.0, 10.00115, 9.9995365 
2.8454033e+3, 1.5955727e+2, -1324079.0, -1429503.0, 67904.586, -0.06478339, -0.99299157, -1290828.3, 85412.766, 0.0, 10.000915, 9.999497 
2.845353e+3, 1.6955653e+2, -1230496.3, -1330729.0, 96649.01, -0.054540828, -1.0018394, -1171742.6, 106505.96, 0.0, 10.000875, 9.999519 
2.8453025e+3, 1.7955583e+2, -1139230.1, -1245996.1, 92687.555, -0.052075826, -1.0082024, -1085651.9, 94604.2, 0.0, 10.000873, 9.99943 
2.8452522e+3, 1.8955533e+2, -1049842.9, -1156240.4, 108746.22, -0.050961435, -0.98331314, -981980.3, 100281.945, 0.0, 10.0008335, 9.999392 
2.845202e+3, 1.9955488e+2, -950346.3, -1045810.8, 109491.92, -0.046400275, -0.95578456, -878634.6, 105633.32, 0.0, 10.0007925, 9.999496 
2.8451517e+3, 2.095543e+2, -842116.9, -921480.8, 106399.05, -0.0356593, -0.95974064, -768240.9, 118032.68, 0.0, 10.0007715, 9.999686 
2.8451014e+3, 2.1955374e+2, -757963.44, -847186.06, 103642.49, -0.027344465, -0.968046, -689738.9, 98540.234, 0.0, 10.00075, 9.999535 
2.8450504e+3, 2.295531e+2, -674826.6, -768322.0, 104139.67, -0.037901346, -0.96240973, -607423.44, 82862.68, 0.0, 10.000699, 9.999428 
2.8449994e+3, 2.3955244e+2, -589139.25, -681476.56, 103439.58, -0.044534486, -0.95372146, -522032.6, 70260.54, 0.0, 10.000637, 9.999381 
2.8449488e+3, 2.4955179e+2, -497148.97, -581528.0, 80916.75, -0.0057493914, -0.9455474, -448083.47, 46216.07, 0.0, 10.000573, 9.999425 
2.8448978e+3, 2.595511e+2, -417995.88, -504027.66, 70534.43, 0.031603597, -0.9385857, -378395.34, 17910.57, 0.0, 10.000494, 9.999323 
2.8448457e+3, 2.6955017e+2, -338079.97, -417166.75, 51233.32, 0.01949383, -0.94584775, -312904.47, -14589.138, 0.0, 10.000379, 9.999303 
2.8447938e+3, 2.7954918e+2, -267509.63, -345307.94, 55256.074, 0.021067517, -0.95614725, -238833.8, -38508.508, 0.0, 10.000245, 9.999187 
2.844742e+3, 2.895482e+2, -197865.14, -267040.03, 28994.254, 0.103932925, -0.9578045, -187319.9, -84984.164, 0.0, 10.000074, 9.999135 
2.8446898e+3, 2.9954737e+2, -123982.66, -164266.05, 41067.586, 0.13433625, -0.9430081, -98383.4, -94039.21, 0.0, 9.999838, 9.999282 
2.8446358e+3, 3.095474e+2, -153890.73, -110769.32, 31322.678, 0.00933212, -0.87655836, -94304.055, -94304.055, 0.0, 9.999108, 9.999667 
2.8445846e+3, 3.195464e+2, -122402.95, -5914.3276, -59122.184, 0.18983833, -0.92438066, 18834.326, 18834.326, 0.0, 9.998939, 10.000469 
2.8555575e+3, 1.2961084e+2, -1540525.4, -1671592.0, 29901.969, -0.1624578, -1.0552565, -1534025.8, 135686.5, 0.0, 10.001378, 9.999634 
2.855507e+3, 1.3961059e+2, -1444250.5, -1575982.0, 21177.904, -0.051335163, -1.0293065, -1440929.5, 130786.37, 0.0, 10.001372, 9.99962 
2.8554553e+3, 1.4961018e+2, -1375681.9, -1485894.3, 49835.92, -0.06401614, -1.0200729, -1356489.4, 117231.266, 0.0, 10.001148, 9.999671 
2.855404e+3, 1.5960976e+2, -1316517.4, -1415349.3, 62455.93, -0.06995477, -1.0130522, -1286292.4, 89432.93, 0.0, 10.00092, 9.999593 
2.8553537e+3, 1.6960934e+2, -1227556.9, -1325738.5, 96678.13, -0.0634508, -0.99750894, -1168220.0, 109510.54, 0.0, 10.000879, 9.999553 
2.8553033e+3, 1.796089e+2, -1128712.0, -1224469.4, 91834.766, -0.06210084, -0.9827445, -1073024.3, 106711.375, 0.0, 10.000874, 9.9995775 
2.855253e+3, 1.8960837e+2, -1031454.44, -1117980.6, 106858.36, -0.052067652, -0.9840455, -959433.5, 122308.15, 0.0, 10.000832, 9.999655 
2.855203e+3, 1.9960785e+2, -941066.25, -1026158.0, 107943.27, -0.03979036, -0.9864899, -867586.7, 116160.73, 0.0, 10.000791, 9.999633 
2.8551525e+3, 2.0960742e+2, -843939.5, -925509.25, 105522.46, -0.04564721, -0.97996736, -771594.4, 114157.625, 0.0, 10.0007715, 9.99966 
2.8551015e+3, 2.1960703e+2, -751692.7, -834474.4, 102367.67, -0.052953895, -0.9695679, -682664.6, 105091.484, 0.0, 10.00075, 9.999622 
2.8550512e+3, 2.2960675e+2, -660481.1, -739009.44, 101737.98, -0.036891934, -0.94575655, -590693.5, 99066.06, 0.0, 10.0007, 9.999629 
2.8550005e+3, 2.3960637e+2, -585708.25, -675022.44, 101187.74, -0.016048938, -0.92746687, -519761.5, 72002.414, 0.0, 10.000639, 9.999425 
2.8549492e+3, 2.4960515e+2, -508177.88, -605129.5, 78132.49, -0.0038514072, -0.96390027, -464704.84, 29070.998, 0.0, 10.000576, 9.999263 
2.8548977e+3, 2.5960395e+2, -420072.72, -509124.3, 66722.01, 0.0045250757, -0.99758, -384383.97, 11403.7295, 0.0, 10.000496, 9.999288 
2.8548458e+3, 2.696036e+2, -329401.94, -399841.75, 46723.387, 0.030096162, -0.95132464, -306111.0, -8319.722, 0.0, 10.0003805, 9.999421 
2.8547943e+3, 2.796033e+2, -265267.56, -341265.63, 49128.664, 0.075738944, -0.90551037, -241157.39, -41362.516, 0.0, 10.000247, 9.999215 
2.854742e+3, 2.896018e+2, -204989.84, -282997.16, 22996.957, 0.12869862, -0.9467767, -198714.97, -96905.57, 0.0, 10.000078, 9.999024 
2.854689e+3, 2.9960036e+2, -125680.11, -169135.08, 22892.969, 0.11176904, -0.9834225, -115845.41, -112022.04, 0.0, 9.999844, 9.999247 
2.854635e+3, 3.0960009e+2, -155024.03, -108783.01, -565.17267, 0.015696501, -0.94972414, -108776.1, -108776.1, 0.0, 9.999088, 9.99969 
2.8545836e+3, 3.196e+2, -153378.0, -71610.1, 14523.118, 0.18599369, -0.90059507, -69107.2, -69107.2, 0.0, 9.998941, 10.000017 
2.865559e+3, 1.2966321e+2, -1557636.6, -1677970.0, 33363.066, -0.15134333, -1.067107, -1549005.6, 120191.984, 0.0, 10.001253, 9.99965 
2.8655082e+3, 1.3966292e+2, -1515080.3, -1597816.6, 21370.479, -0.06346366, -1.0485361, -1509886.4, 61315.45, 0.0, 10.000834, 9.999729 
2.865456e+3, 1.4966276e+2, -1416889.6, -1484688.0, 54626.09, -0.07684031, -1.0305837, -1386499.1, 86705.06, 0.0, 10.000775, 9.999859 
2.8654045e+3, 1.5966263e+2, -1327860.0, -1406159.8, 71750.7, -0.07914308, -1.0141792, -1285273.3, 89933.24, 0.0, 10.00078, 9.9997225 
2.865354e+3, 1.6966222e+2, -1247808.9, -1329546.8, 108672.164, -0.07165289, -1.003658, -1172574.8, 104636.69, 0.0, 10.000716, 9.999604 
2.8653038e+3, 1.796618e+2, -1155374.8, -1226311.9, 103503.16, -0.07000813, -0.9941861, -1081431.6, 97785.09, 0.0, 10.000644, 9.999675 
2.8652534e+3, 1.8966144e+2, -1058244.8, -1115118.9, 110632.945, -0.061525244, -0.9895238, -972452.56, 108768.36, 0.0, 10.000581, 9.999795 
2.865203e+3, 1.9966112e+2, -969079.6, -1024284.75, 106463.13, -0.04999895, -0.98628753, -886699.0, 96525.86, 0.0, 10.000533, 9.999768 
2.865153e+3, 2.0966075e+2, -863920.5, -922121.4, 112754.336, -0.04974806, -0.98474675, -776571.94, 108656.57, 0.0, 10.00058, 9.999774 
2.8651023e+3, 2.1966042e+2, -763528.75, -831345.6, 115817.5, -0.051233154, -0.97983515, -676758.0, 110473.914, 0.0, 10.000632, 9.9997 
2.8650516e+3, 2.2966017e+2, -674325.9, -743449.5, 102972.95, -0.037241902, -0.95516855, -600269.3, 88965.74, 0.0, 10.000597, 9.999647 
2.8650007e+3, 2.3965985e+2, -590590.7, -665751.7, 93990.85, -0.0180337, -0.934524, -526945.8, 64293.176, 0.0, 10.000557, 9.999527 
2.8649497e+3, 2.4965881e+2, -493685.9, -579721.56, 90588.46, -0.0012135656, -0.968688, -436420.1, 56829.117, 0.0, 10.000598, 9.999426 
2.864898e+3, 2.5965774e+2, -396149.03, -489480.16, 98878.414, 0.010536848, -1.0016325, -333477.44, 61782.254, 0.0, 10.000627, 9.999358 
2.8648463e+3, 2.696574e+2, -300048.6, -390170.6, 70345.68, 0.030397052, -0.95764846, -261569.13, 35694.586, 0.0, 10.000603, 9.99938 
2.8647944e+3, 2.7965704e+2, -226885.23, -321436.34, 58672.492, 0.07159601, -0.91195613, -198812.02, 455.67123, 0.0, 10.000507, 9.999225 
2.8647423e+3, 2.8965563e+2, -182044.17, -267146.2, 40058.42, 0.12791583, -0.94953, -166154.9, -64873.53, 0.0, 10.000217, 9.999064 
2.864689e+3, 2.9965422e+2, -111587.15, -166162.95, 42540.234, 0.114003785, -0.98585546, -88334.95, -85039.89, 0.0, 9.999959, 9.999209 
2.8646344e+3, 3.0965373e+2, -69637.086, -89258.73, 2109.5103, 0.030987889, -0.9619337, -69412.85, -69412.85, 0.0, 9.999771, 9.999495 
2.8645825e+3, 3.1965348e+2, -95201.61, -51936.164, 49874.926, 0.17279485, -0.9081222, -19204.531, -19204.531, 0.0, 9.999379, 9.999941 
2.8755602e+3, 1.2971593e+2, -1562011.5, -1686850.9, 15345.009, -0.11670474, -1.05963, -1560153.0, 108527.27, 0.0, 10.001252, 9.99959 
2.8755084e+3, 1.3971546e+2, -1508031.9, -1584790.0, 12524.9375, -0.09929457, -1.0558968, -1506039.8, 64646.855, 0.0, 10.00084, 9.999816 
2.8754562e+3, 1.4971563e+2, -1399471.9, -1450994.0, 55199.766, -0.107306495, -1.0264856, -1364317.9, 108367.84, 0.0, 10.000786, 10.000085 
2.8754053e+3, 1.5971579e+2, -1315651.8, -1383266.3, 70496.555, -0.09209681, -0.9995505, -1271275.3, 103409.37, 0.0, 10.00079, 9.999875 
2.8753546e+3, 1.6971517e+2, -1242700.3, -1320254.3, 105644.76, -0.079430185, -1.0194256, -1168940.8, 107750.72, 0.0, 10.000721, 9.999666 
2.8753042e+3, 1.7971453e+2, -1151990.3, -1219571.3, 100922.9, -0.07638894, -1.0384285, -1079351.3, 99347.5, 0.0, 10.000645, 9.999722 
2.8752536e+3, 1.8971455e+2, -1056122.5, -1111354.5, 108321.06, -0.07881813, -0.99876523, -971952.56, 108747.38, 0.0, 10.000583, 9.99982 
2.8752035e+3, 1.9971468e+2, -959318.6, -1004731.94, 106377.09, -0.07558769, -0.95735234, -873251.75, 109448.445, 0.0, 10.000535, 9.999902 
2.875153e+3, 2.0971432e+2, -846553.94, -886552.3, 115075.08, -0.04820299, -0.9752591, -749753.1, 134949.84, 0.0, 10.000581, 10.000018 
2.875103e+3, 2.197139e+2, -759330.6, -822884.3, 115949.914, -0.024036672, -0.9989487, -670882.06, 115824.47, 0.0, 10.000632, 9.999758 
2.875052e+3, 2.297134e+2, -685544.7, -767322.94, 100884.66, -0.039471358, -0.99029464, -617577.8, 71134.84, 0.0, 10.000599, 9.999483 
2.8750008e+3, 2.3971294e+2, -578885.6, -641946.4, 94256.95, -0.050475642, -0.9745635, -511025.2, 79693.26, 0.0, 10.000558, 9.99969 
2.8749502e+3, 2.4971281e+2, -459128.9, -508579.75, 92073.77, 0.002493341, -0.9589158, -388518.47, 104201.14, 0.0, 10.000599, 9.999914 
2.8748992e+3, 2.5971258e+2, -383900.13, -464987.25, 99402.234, 0.05045826, -0.9487724, -317091.06, 77630.5, 0.0, 10.00063, 9.999526 
2.8748468e+3, 2.6971152e+2, -314478.25, -421393.06, 68445.33, 0.01869198, -0.96605366, -281088.34, 15644.343, 0.0, 10.0006075, 9.999164 
2.8747943e+3, 2.7971038e+2, -226980.47, -323288.56, 49670.65, 0.0029619164, -0.98075205, -205953.7, -7209.425, 0.0, 10.000513, 9.99921 
2.874742e+3, 2.8970966e+2, -167925.03, -237838.8, 30194.05, 0.098389335, -0.9654817, -156690.31, -55938.707, 0.0, 10.000217, 9.999267 
2.874689e+3, 2.99709e+2, -115669.68, -173317.05, 33494.344, 0.14273722, -0.9419243, -100304.27, -97545.945, 0.0, 9.999954, 9.999164 
2.8746343e+3, 3.0970833e+2, -99642.5, -153842.55, -2041.5577, 0.058075316, -0.9017318, -99565.71, -99565.71, 0.0, 9.999782, 9.999045 
2.8745815e+3, 3.197068e+2, -71019.14, 1045.1261, 3476.26, 0.14980537, -0.95552176, 1212.4266, 1212.4266, 0.0, 9.999366, 10.000311 
2.8855616e+3, 1.2976876e+2, -1612201.0, -1697438.1, 8935.686, -0.106324926, -1.0530864, -1611274.3, 56888.188, 0.0, 10.000849, 9.999712 
2.8855085e+3, 1.3976832e+2, -1539311.1, -1587759.3, 23737.375, -0.12589304, -1.0588192, -1529619.5, 40548.723, 0.0, 10.000574, 9.999924 
2.8854567e+3, 1.4976849e+2, -1416949.8, -1452175.8, 67554.516, -0.12853573, -1.036614, -1364750.0, 107417.15, 0.0, 10.000635, 10.00015 
2.8854057e+3, 1.5976867e+2, -1317557.6, -1371939.4, 70694.77, -0.10187446, -1.0143261, -1269004.9, 105160.68, 0.0, 10.000725, 9.999984 
2.885355e+3, 1.6976826e+2, -1248165.5, -1305645.0, 105564.41, -0.0880104, -1.0276822, -1167498.6, 108671.76, 0.0, 10.000608, 9.999821 
2.8853047e+3, 1.797678e+2, -1170658.6, -1217584.1, 108389.65, -0.08516931, -1.0405011, -1083221.4, 94954.38, 0.0, 10.000469, 9.99982 
2.885254e+3, 1.8976785e+2, -1072038.4, -1115010.4, 118768.35, -0.08492368, -1.0052545, -972828.2, 107348.69, 0.0, 10.000457, 9.999855 
2.8852037e+3, 1.9976796e+2, -964354.56, -998557.0, 117000.984, -0.07936377, -0.9684011, -863211.6, 118965.65, 0.0, 10.000464, 9.999979 
2.8851536e+3, 2.0976776e+2, -857310.8, -877778.4, 118871.46, -0.05487276, -0.9836556, -748233.44, 135945.2, 0.0, 10.000448, 10.000142 
2.8851032e+3, 2.1976748e+2, -779181.2, -818021.56, 114123.914, -0.032364212, -1.0053425, -682836.9, 103343.74, 0.0, 10.000435, 9.9998865 
2.8850526e+3, 2.2976701e+2, -693372.0, -755797.3, 115867.24, -0.039224267, -1.0055474, -604587.0, 83599.21, 0.0, 10.00048, 9.999619 
2.8850016e+3, 2.3976661e+2, -578261.9, -627797.9, 124001.766, -0.043019354, -0.9976045, -476578.72, 113612.65, 0.0, 10.0005045, 9.999813 
2.8849503e+3, 2.4976672e+2, -492350.25, -514308.9, 96081.27, 0.0009259171, -0.9676844, -406623.03, 85567.484, 0.0, 10.000329, 10.000004 
2.8848994e+3, 2.597668e+2, -432111.2, -463306.3, 86332.195, 0.040084895, -0.9418063, -359978.88, 34211.242, 0.0, 10.000195, 9.999745 
2.8848472e+3, 2.697659e+2, -322886.97, -392686.6, 86540.97, 0.012941435, -0.96929455, -264473.7, 31725.563, 0.0, 10.000411, 9.999454 
2.8847945e+3, 2.797649e+2, -208267.25, -285017.38, 91809.164, -0.0010156918, -0.9978852, -147135.69, 51073.656, 0.0, 10.000519, 9.999469 
2.884742e+3, 2.897644e+2, -134118.98, -215949.88, 77539.11, 0.06952906, -0.9709957, -87362.39, 12851.781, 0.0, 10.00043, 9.999312 
2.8846884e+3, 2.997639e+2, -47959.46, -156346.36, 65000.07, 0.09695744, -0.93332344, -17524.668, -15305.024, 0.0, 10.000491, 9.99902 
2.884634e+3, 3.0976254e+2, -112022.96, -219847.95, 15064.3955, 0.06801923, -0.9230403, -109957.84, -109957.84, 0.0, 9.999956, 9.998509 
2.8845805e+3, 3.1976077e+2, 13956.807, 134959.53, 19537.557, 0.13096024, -0.97246134, 138035.92, 138035.92, 0.0, 9.999549, 10.001145 
2.895562e+3, 1.2982169e+2, -1596146.6, -1659899.5, -3193.237, -0.115318745, -1.047508, -1595987.1, 71656.99, 0.0, 10.000831, 9.999978 
2.8955087e+3, 1.3982143e+2, -1528825.0, -1569853.6, 20031.936, -0.1450411, -1.0585781, -1520666.8, 48980.395, 0.0, 10.00059, 10.000039 
2.895457e+3, 1.4982136e+2, -1421057.9, -1462727.3, 72064.84, -0.14227581, -1.0588431, -1366876.4, 104771.84, 0.0, 10.000643, 10.000073 
2.8954062e+3, 1.5982133e+2, -1313004.5, -1361713.1, 70743.41, -0.10908834, -1.0536779, -1262540.6, 111108.17, 0.0, 10.000721, 10.000056 
2.8953555e+3, 1.6982149e+2, -1231723.0, -1271564.8, 99436.47, -0.097544484, -1.0289936, -1150231.5, 125416.61, 0.0, 10.000608, 10.000055 
2.895305e+3, 1.7982161e+2, -1160345.6, -1197164.0, 105058.61, -0.096244074, -1.0053385, -1072095.5, 105552.43, 0.0, 10.000473, 9.999958 
2.8952545e+3, 1.8982132e+2, -1068778.8, -1109115.0, 118899.6, -0.08099319, -1.0098455, -968348.94, 111303.02, 0.0, 10.00046, 9.999895 
2.895204e+3, 1.9982103e+2, -962800.06, -995752.56, 116821.19, -0.06390084, -1.0164108, -861298.94, 120356.914, 0.0, 10.000465, 9.999998 
2.8951535e+3, 2.0982108e+2, -856147.06, -876014.0, 118025.85, -0.06990774, -1.0084927, -747637.44, 136017.9, 0.0, 10.00045, 10.0001545 
2.8951034e+3, 2.1982116e+2, -765030.75, -789015.2, 114633.86, -0.07445778, -0.99959594, -661763.56, 123890.69, 0.0, 10.000436, 10.000086 
2.8950527e+3, 2.2982103e+2, -663588.7, -694028.1, 117879.68, -0.036056694, -1.0012712, -559950.25, 127705.44, 0.0, 10.00048, 10.000044 
2.895002e+3, 2.3982087e+2, -573737.1, -618665.56, 120778.58, 0.0035436566, -1.0037143, -473351.4, 116306.484, 0.0, 10.000505, 9.999875 
2.8949508e+3, 2.4982053e+2, -515128.13, -561322.8, 87915.08, -0.007052182, -0.99584866, -447326.88, 44335.344, 0.0, 10.000327, 9.999682 
2.8948987e+3, 2.5982028e+2, -412835.63, -422691.4, 89122.28, -0.022759823, -0.98250777, -328505.1, 65160.6, 0.0, 10.000192, 10.000026 
2.8948474e+3, 2.6982057e+2, -265214.06, -273791.9, 93783.53, 0.014337923, -0.96564686, -175621.42, 120041.87, 0.0, 10.000413, 10.000271 
2.8947955e+3, 2.7982065e+2, -169673.38, -206216.42, 86385.06, 0.06493518, -0.95882547, -99648.65, 98013.516, 0.0, 10.000523, 10.000009 
2.894742e+3, 2.8981996e+2, -142862.31, -232516.31, 84103.75, 0.041113254, -0.96822894, -92385.06, 7283.8115, 0.0, 10.000426, 9.999199 
2.8946877e+3, 2.9981887e+2, -66064.914, -191466.06, 59055.215, -0.03267818, -0.97233284, -42632.563, -40952.926, 0.0, 10.000482, 9.998782 
2.8946337e+3, 3.0981618e+2, -158123.63, -311010.4, -12051.451, 0.054886796, -1.0480293, -157179.5, -157179.5, 0.0, 9.999937, 9.997892 
2.8945798e+3, 3.198157e+2, 109294.586, 339833.72, 44374.04, 0.116607174, -0.94548774, 348079.84, 348079.84, 0.0, 9.999523, 10.002564 
2.9055625e+3, 1.2987457e+2, -1678758.3, -1677110.3, 6150.845, -0.11570024, -1.0549327, -1671728.5, -4602.909, 0.0, 10.000166, 10.00018 
2.9055092e+3, 1.398745e+2, -1527039.6, -1557081.0, 24710.697, -0.1637507, -1.0659069, -1513142.5, 55983.613, 0.0, 10.000551, 10.000146 
2.9054576e+3, 1.4987443e+2, -1444059.1, -1475508.1, 76142.555, -0.15407908, -1.0660411, -1382034.4, 89092.695, 0.0, 10.000492, 10.000059 
2.9054064e+3, 1.5987441e+2, -1364086.3, -1384520.0, 76835.15, -0.11194974, -1.0610555, -1296791.6, 76336.266, 0.0, 10.000361, 10.000073 
2.9053557e+3, 1.6987464e+2, -1262883.6, -1280195.0, 94317.74, -0.103752404, -1.0337179, -1176825.3, 98301.5, 0.0, 10.000366, 10.000113 
2.905305e+3, 1.7987487e+2, -1165050.8, -1185708.4, 91629.06, -0.10708074, -1.007792, -1083170.3, 93955.414, 0.0, 10.0003805, 10.000082 
2.9052547e+3, 1.8987468e+2, -1068851.0, -1086982.9, 114224.68, -0.09255341, -1.0188333, -963333.06, 115795.05, 0.0, 10.000363, 10.000094 
2.9052043e+3, 1.9987449e+2, -974034.94, -990635.7, 122591.26, -0.0745284, -1.0321584, -859463.4, 121667.23, 0.0, 10.000342, 10.0000925 
2.905154e+3, 2.0987462e+2, -867907.6, -881207.06, 124748.74, -0.07617356, -1.0186341, -749631.5, 133498.23, 0.0, 10.000366, 10.000159 
2.9051036e+3, 2.198748e+2, -770227.75, -781314.44, 116435.4, -0.076636486, -1.0019758, -659203.8, 125924.26, 0.0, 10.000356, 10.000177 
2.905053e+3, 2.298749e+2, -706403.0, -690157.2, 103146.555, -0.033693854, -1.0001376, -594814.2, 92313.11, 0.0, 10.00008, 10.000263 
2.9050025e+3, 2.3987493e+2, -657911.4, -643585.6, 101429.91, 0.010652701, -1.0027062, -549066.0, 40061.254, 0.0, 9.99986, 10.000015 
2.904951e+3, 2.4987453e+2, -511197.63, -545661.3, 99733.14, -0.005418379, -1.0131066, -427218.63, 63913.38, 0.0, 10.000296, 9.9998045 
2.9048988e+3, 2.5987425e+2, -339531.13, -364261.94, 113146.12, -0.02968325, -1.0149645, -238076.73, 155058.63, 0.0, 10.000597, 10.000232 
2.9048473e+3, 2.6987508e+2, -366213.4, -281223.06, 72226.26, 0.009623843, -0.97092927, -239918.05, 55209.598, 0.0, 9.999544, 10.000636 
2.904795e+3, 2.7987581e+2, -389281.3, -281427.03, 70232.3, 0.07156425, -0.93783545, -246806.38, -49685.566, 0.0, 9.998888, 10.000276 
2.904742e+3, 2.8987512e+2, -80750.484, -143981.56, 87835.33, 0.051961593, -0.98269117, -19014.07, 80112.98, 0.0, 10.000608, 9.999715 
2.9155624e+3, 1.2992744e+2, -1666690.4, -1654049.9, 22327.72, -0.10942037, -1.0720965, -1637165.1, 29441.758, 0.0, 10.0001745, 10.000334 
2.9155093e+3, 1.3992754e+2, -1519729.0, -1542362.6, 31048.246, -0.18260077, -1.0789379, -1497999.4, 70605.7, 0.0, 10.000552, 10.000246 
2.9154578e+3, 1.4992774e+2, -1441618.1, -1470463.0, 69493.586, -0.16436273, -1.0605477, -1385066.1, 85537.76, 0.0, 10.000491, 10.000093 
2.9154068e+3, 1.5992786e+2, -1366513.5, -1389512.3, 74030.73, -0.1110654, -1.0415744, -1303094.4, 69509.234, 0.0, 10.000361, 10.000039 
2.915356e+3, 1.6992772e+2, -1269358.3, -1294480.8, 94974.016, -0.10707353, -1.0419886, -1186118.4, 88487.625, 0.0, 10.000369, 10.000013 
2.9153052e+3, 1.7992763e+2, -1156510.4, -1169021.4, 92184.7, -0.118227184, -1.0434307, -1070369.1, 106238.945, 0.0, 10.000384, 10.000195 
2.9152545e+3, 1.8992797e+2, -1044136.9, -1036661.56, 112911.1, -0.118435465, -1.0314593, -927426.25, 151178.89, 0.0, 10.000366, 10.000438 
2.9152045e+3, 1.9992834e+2, -962334.94, -966889.5, 122171.305, -0.108738475, -1.0184689, -842419.7, 138182.05, 0.0, 10.000343, 10.000256 
2.915154e+3, 2.099284e+2, -868102.44, -881655.8, 125398.484, -0.07379999, -1.0150341, -749297.6, 133304.3, 0.0, 10.000366, 10.000156 
2.915104e+3, 2.1992844e+2, -771670.5, -784030.7, 110820.555, -0.041606247, -1.0117037, -666857.9, 117744.31, 0.0, 10.000354, 10.00016 
2.915053e+3, 2.299286e+2, -704852.75, -687355.75, 90654.49, -0.03314141, -1.001745, -605028.56, 81572.42, 0.0, 10.000081, 10.000281 
2.9150018e+3, 2.399288e+2, -641655.94, -610521.2, 105573.47, -0.02134522, -0.994954, -519373.5, 69225.97, 0.0, 9.999862, 10.000241 
2.914951e+3, 2.4992871e+2, -470478.5, -462510.78, 119948.63, 0.0068849637, -1.0193644, -346479.88, 144119.84, 0.0, 10.0003, 10.000374 
2.9149e+3, 2.5992873e+2, -331860.22, -349982.13, 97607.97, 0.020606644, -1.0386838, -242893.53, 149705.44, 0.0, 10.000604, 10.000327 
2.9148465e+3, 2.699295e+2, -378991.8, -303280.22, 22558.152, -0.0036514406, -0.9862637, -297068.7, -2475.8857, 0.0, 9.999525, 10.000494 
2.9147932e+3, 2.7993026e+2, -398114.2, -293425.1, 111112.586, 0.013109999, -0.9368916, -222944.73, -26358.174, 0.0, 9.99886, 10.000208 
2.9147434e+3, 2.8992978e+2, 4676.9346, 12210.591, 130330.09, 0.10901184, -1.0126907, 138828.28, 237418.6, 0.0, 10.000688, 10.000757 
2.9255623e+3, 1.299802e+2, -1690325.1, -1655132.6, 24484.098, -0.13150494, -1.0803727, -1642577.6, 23511.344, 0.0, 9.999969, 10.000425 
2.9255095e+3, 1.3998044e+2, -1557842.3, -1556707.1, 20094.826, -0.18148379, -1.0811626, -1537171.8, 30914.049, 0.0, 10.000273, 10.000282 
2.925458e+3, 1.4998062e+2, -1480992.6, -1492254.9, 42924.418, -0.16378404, -1.0631301, -1443331.5, 26753.553, 0.0, 10.000233, 10.00007 
2.925407e+3, 1.5998074e+2, -1394036.5, -1393942.0, 51138.83, -0.11401546, -1.0459586, -1342850.4, 29234.75, 0.0, 10.000133, 10.00012 
2.925356e+3, 1.6998065e+2, -1277432.5, -1276899.4, 91865.54, -0.114460796, -1.0579752, -1185300.0, 88786.53, 0.0, 10.000219, 10.000207 
2.925305e+3, 1.7998064e+2, -1162273.1, -1163470.6, 102374.58, -0.12923531, -1.0681579, -1060495.6, 115591.66, 0.0, 10.000307, 10.000271 
2.9252547e+3, 1.8998112e+2, -1053666.1, -1044484.5, 101023.555, -0.12759228, -1.0401193, -947947.5, 130135.695, 0.0, 10.000313, 10.000411 
2.9252043e+3, 1.9998167e+2, -966235.44, -961434.25, 88545.88, -0.11541783, -1.0110279, -875256.44, 104822.3, 0.0, 10.000283, 10.000322 
2.9251543e+3, 2.0998181e+2, -887864.06, -871523.4, 98403.586, -0.075399674, -1.0133036, -780951.5, 101126.48, 0.0, 10.000144, 10.000334 
2.925104e+3, 2.1998194e+2, -812386.8, -794859.06, 96694.35, -0.039093584, -1.0175498, -706532.25, 77545.125, 0.0, 10.000034, 10.00024 
2.9250526e+3, 2.2998217e+2, -679881.7, -672421.94, 79219.3, -0.04202301, -1.0061293, -596844.75, 89231.016, 0.0, 10.000237, 10.00031 
2.9250017e+3, 2.3998243e+2, -554703.3, -553089.0, 94069.05, -0.0386606, -0.9978568, -459823.66, 128249.86, 0.0, 10.00039, 10.000383 
2.9249513e+3, 2.499826e+2, -500513.78, -439141.75, 94369.34, 0.021211302, -1.0240207, -370594.7, 119476.016, 0.0, 9.999928, 10.000715 
2.9249004e+3, 2.5998285e+2, -485411.13, -424365.34, 54387.203, 0.062577605, -1.0441072, -392521.47, -454.49728, 0.0, 9.999546, 10.000327 
2.924846e+3, 2.6998338e+2, -265273.88, -271624.22, -24725.25, -0.0072566667, -0.9993567, -243520.77, 50542.637, 0.0, 10.0004015, 10.000292 
2.9247928e+3, 2.799838e+2, -80857.43, -145525.78, 77876.19, -0.030556316, -0.9676598, -28869.607, 167191.0, 0.0, 10.001053, 10.000173 
2.924744e+3, 2.8998333e+2, -128555.24, -34502.96, 56328.23, 0.16040044, -1.058238, -8151.1255, 89912.75, 0.0, 9.999682, 10.000929 
2.9355615e+3, 1.3003288e+2, -1685859.5, -1648320.6, 36738.434, -0.17562063, -1.0825105, -1625834.8, 39737.31, 0.0, 9.99998, 10.000466 
2.93551e+3, 1.4003322e+2, -1561582.6, -1560466.5, 25612.72, -0.16386676, -1.0752895, -1535405.8, 32162.441, 0.0, 10.000256, 10.000265 
2.935458e+3, 1.5003319e+2, -1486670.9, -1503407.1, 38218.24, -0.1549317, -1.0727763, -1455915.4, 13654.592, 0.0, 10.00023, 9.999995 
2.935407e+3, 1.6003314e+2, -1379524.0, -1366376.3, 51900.445, -0.121366784, -1.0702708, -1320635.0, 50936.82, 0.0, 10.000143, 10.000304 
2.935356e+3, 1.7003347e+2, -1245134.8, -1211116.0, 95217.5, -0.12605731, -1.0801418, -1131400.5, 142167.42, 0.0, 10.000224, 10.000657 
2.9353055e+3, 1.8003386e+2, -1160170.9, -1158421.4, 103109.92, -0.14014784, -1.0829701, -1056182.5, 119380.96, 0.0, 10.000303, 10.000308 
2.935255e+3, 1.900342e+2, -1079373.5, -1097489.9, 99976.21, -0.121795036, -1.0449506, -988046.0, 89516.26, 0.0, 10.000311, 10.000049 
2.9352045e+3, 2.0003453e+2, -967238.6, -963358.9, 85677.48, -0.09798778, -1.0091208, -879599.3, 99961.71, 0.0, 10.000282, 10.00031 
2.9351544e+3, 2.1003489e+2, -863302.2, -820562.56, 91966.414, -0.08147258, -1.0134355, -747515.8, 134041.88, 0.0, 10.000143, 10.000685 
2.9351038e+3, 2.2003531e+2, -799993.25, -769423.75, 98439.78, -0.06721875, -1.0204655, -685089.1, 98464.58, 0.0, 10.000035, 10.000415 
2.9350528e+3, 2.3003556e+2, -676741.06, -666397.7, 88272.57, -0.05975196, -1.0131876, -583145.44, 102406.125, 0.0, 10.000239, 10.000351 
2.9350019e+3, 2.400358e+2, -551007.75, -545905.56, 88396.79, -0.04217072, -1.0102891, -460023.06, 127526.15, 0.0, 10.000391, 10.000433 
2.9349512e+3, 2.5003615e+2, -492523.66, -422665.56, 72559.984, 0.03665611, -1.0262878, -377065.2, 112479.805, 0.0, 9.9999275, 10.00083 
2.9349002e+3, 2.6003665e+2, -491568.75, -436605.38, 63133.867, 0.09552427, -1.0306957, -395231.2, -3691.7876, 0.0, 9.999543, 10.000245 
2.9348466e+3, 2.7003673e+2, -277964.7, -305300.1, 15173.605, 0.000178342, -1.0097482, -271210.72, 22328.781, 0.0, 10.000431, 10.000047 
2.9347932e+3, 2.800364e+2, -70175.4, -138314.98, 53412.426, -0.060688812, -1.0344169, -40891.91, 154651.47, 0.0, 10.001115, 10.000194 
2.9347438e+3, 2.9003617e+2, -163180.2, -88000.13, 469.44916, 0.19940417, -1.0845317, -87997.2, 9546.766, 0.0, 9.999609, 10.000593 
2.9455614e+3, 1.3008508e+2, -1691867.6, -1640327.0, 16379.146, -0.19249907, -1.1005903, -1635562.3, 29497.494, 0.0, 9.99989, 10.0005665 
2.94551e+3, 1.4008571e+2, -1628703.4, -1580914.4, 14165.3545, -0.1417742, -1.0752437, -1577031.1, -9977.985, 0.0, 9.999743, 10.000373 
2.945458e+3, 1.5008579e+2, -1513784.1, -1505961.3, 35795.273, -0.1597857, -1.0722699, -1473864.4, -4810.5225, 0.0, 9.999996, 10.000091 
2.9454064e+3, 1.6008578e+2, -1366431.8, -1355597.5, 53809.953, -0.15660019, -1.0730782, -1306932.8, 64122.492, 0.0, 10.000212, 10.000346 
2.945356e+3, 1.7008625e+2, -1254585.3, -1214392.4, 69982.58, -0.14369816, -1.0718111, -1161677.9, 111372.23, 0.0, 10.000152, 10.00067 
2.9453054e+3, 1.8008673e+2, -1195969.5, -1171007.5, 56532.086, -0.13792296, -1.0685595, -1125595.0, 49449.6, 0.0, 10.000035, 10.000351 
2.9452547e+3, 1.9008689e+2, -1111980.8, -1105002.0, 77089.195, -0.12598297, -1.0540833, -1031323.25, 45721.516, 0.0, 10.00005, 10.000125 
2.9452047e+3, 2.000871e+2, -992790.5, -970413.2, 85819.43, -0.10884471, -1.0388321, -895056.1, 83988.47, 0.0, 10.000081, 10.0003605 
2.945154e+3, 2.1008763e+2, -871091.6, -821499.94, 73511.805, -0.087857656, -1.0303009, -768714.75, 112325.17, 0.0, 10.000074, 10.000713 
2.9451036e+3, 2.2008823e+2, -788121.0, -758305.4, 66216.3, -0.06884265, -1.0209163, -705339.44, 77694.82, 0.0, 10.00009, 10.000466 
2.945053e+3, 2.3008852e+2, -674765.8, -655322.75, 61409.227, -0.059435457, -1.0185658, -602870.3, 82161.375, 0.0, 10.000205, 10.000445 
2.945002e+3, 2.4008875e+2, -563566.94, -546490.25, 54254.617, -0.042318854, -1.0264956, -500106.22, 86923.25, 0.0, 10.000277, 10.000485 
2.944951e+3, 2.5008914e+2, -460003.9, -404625.63, 24265.014, 0.029494539, -1.0430648, -395497.9, 93527.17, 0.0, 10.000135, 10.000855 
2.9448998e+3, 2.6008978e+2, -411853.2, -386152.44, 35574.266, 0.088117905, -1.0383044, -361178.75, 29839.395, 0.0, 10.000034, 10.000358 
2.944847e+3, 2.7008998e+2, -264281.78, -285870.22, 39798.555, 0.01826494, -1.0148038, -233839.61, 59176.594, 0.0, 10.000463, 10.000169 
2.9447943e+3, 2.800894e+2, -114745.945, -161405.61, 46818.797, -0.0364284, -1.069159, -85766.305, 109255.8, 0.0, 10.000807, 10.000188 
2.9447433e+3, 2.9008976e+2, -94752.91, -49697.77, -28976.309, 0.19023566, -1.0497566, -35522.234, 61495.273, 0.0, 10.000052, 10.000644 
2.955561e+3, 1.3013694e+2, -1678486.9, -1616907.8, 9531.94, -0.18922515, -1.1273326, -1615466.0, 49085.18, 0.0, 9.999909, 10.000717 
2.9555097e+3, 1.4013799e+2, -1611748.8, -1549708.6, 17374.54, -0.116137005, -1.0771871, -1545174.3, 21365.725, 0.0, 9.999761, 10.000578 
2.955458e+3, 1.501384e+2, -1496620.5, -1471082.4, 45138.75, -0.1753699, -1.0626155, -1436941.3, 31595.557, 0.0, 9.999999, 10.000329 
2.955406e+3, 1.6013859e+2, -1373837.1, -1368629.1, 55906.52, -0.2135315, -1.0580362, -1315266.0, 55270.105, 0.0, 10.000201, 10.000261 
2.9553556e+3, 1.7013894e+2, -1279752.0, -1266852.6, 65310.586, -0.16501835, -1.0383458, -1207674.0, 64859.1, 0.0, 10.000153, 10.000311 
2.9553053e+3, 1.8013924e+2, -1190500.8, -1161449.8, 54888.758, -0.1239983, -1.0298566, -1119197.0, 55333.535, 0.0, 10.000043, 10.000414 
2.9552546e+3, 1.9013923e+2, -1078036.6, -1035575.25, 78022.414, -0.13913324, -1.0683665, -975946.56, 100584.0, 0.0, 10.000053, 10.0006 
2.9552042e+3, 2.0013939e+2, -985385.44, -955281.3, 85874.28, -0.14472957, -1.097877, -883149.94, 95379.47, 0.0, 10.000081, 10.000464 
2.9551542e+3, 2.1014002e+2, -890132.2, -861387.94, 72389.01, -0.09427066, -1.0617995, -801958.1, 78566.484, 0.0, 10.000075, 10.000439 
2.9551038e+3, 2.2014073e+2, -792357.4, -767407.7, 69222.39, -0.04649347, -1.0178977, -709545.0, 72973.82, 0.0, 10.000091, 10.000404 
2.9550532e+3, 2.3014106e+2, -664274.8, -633570.3, 65716.26, -0.041945774, -1.0223095, -581436.9, 103079.28, 0.0, 10.000204, 10.000596 
2.9550022e+3, 2.4014124e+2, -558763.5, -536667.75, 52567.7, -0.03904127, -1.0475234, -493999.53, 92514.86, 0.0, 10.000277, 10.000554 
2.9549506e+3, 2.501415e+2, -462952.78, -411282.38, 17528.479, -0.0015034954, -1.0752364, -405897.3, 82613.73, 0.0, 10.000137, 10.00081 
2.954899e+3, 2.6014224e+2, -386655.4, -336637.84, 40718.05, 0.037701167, -1.0665759, -313861.7, 76641.26, 0.0, 10.000045, 10.000693 
2.9548475e+3, 2.7014327e+2, -225715.67, -207272.81, 63357.727, 0.047423992, -1.013012, -152468.97, 140023.88, 0.0, 10.000469, 10.000707 
2.954796e+3, 2.8014302e+2, -119000.69, -166453.0, 33301.246, 0.044544592, -1.0695848, -101837.92, 92657.76, 0.0, 10.000792, 10.00016 
2.9547423e+3, 2.9014322e+2, -80971.98, -16074.158, -58143.97, 0.10133879, -1.0514555, 18062.611, 114556.0, 0.0, 10.000036, 10.000879 
2.9655606e+3, 1.3018933e+2, -1655697.8, -1621525.3, -1495.8411, -0.22076187, -1.105197, -1621459.9, 42577.06, 0.0, 10.000132, 10.000578 
2.96551e+3, 1.4018986e+2, -1589996.3, -1546792.3, -1074.9214, -0.10176907, -1.0947304, -1546765.5, 19265.281, 0.0, 9.99994, 10.000513 
2.9654577e+3, 1.5019014e+2, -1503918.0, -1469102.6, 16767.615, -0.1600534, -1.094603, -1462340.4, 5688.087, 0.0, 9.999923, 10.0003805 
2.965406e+3, 1.601904e+2, -1414537.9, -1382404.0, 21952.666, -0.20045067, -1.092603, -1371266.8, -1239.784, 0.0, 9.999895, 10.000317 
2.9653558e+3, 1.7019065e+2, -1298068.5, -1275393.4, 50322.58, -0.16535145, -1.0848958, -1235147.0, 36878.035, 0.0, 10.000022, 10.000317 
2.9653051e+3, 1.8019094e+2, -1177920.1, -1154542.5, 56767.62, -0.1331369, -1.0765705, -1108272.8, 65749.8, 0.0, 10.000122, 10.000425 
2.9652548e+3, 1.9019124e+2, -1061515.0, -1024310.94, 56224.297, -0.13691488, -1.0872877, -983691.3, 92328.3, 0.0, 10.000149, 10.000632 
2.9652044e+3, 2.0019157e+2, -972422.2, -948412.1, 37136.85, -0.13734512, -1.0993608, -921388.1, 56628.355, 0.0, 10.000165, 10.000473 
2.965154e+3, 2.1019208e+2, -878296.5, -851710.75, 38115.145, -0.096441954, -1.0786155, -824637.0, 55375.52, 0.0, 10.000136, 10.000478 
2.9651037e+3, 2.201927e+2, -782469.06, -752525.7, 57530.863, -0.052775692, -1.0502462, -708050.3, 73957.2, 0.0, 10.000112, 10.000499 
2.9650533e+3, 2.3019329e+2, -678125.9, -627265.7, 55277.914, -0.03305711, -1.0404147, -591848.94, 92153.62, 0.0, 10.00005, 10.000716 
2.9650024e+3, 2.4019375e+2, -595660.75, -547239.5, 40737.7, -0.020307207, -1.0490168, -524061.2, 61937.234, 0.0, 9.999989, 10.000622 
2.9649508e+3, 2.5019395e+2, -462021.0, -421476.94, 5322.018, -0.01681529, -1.0806888, -420789.97, 67206.21, 0.0, 10.000184, 10.00072 
2.9648986e+3, 2.601946e+2, -330746.0, -289598.0, 19950.932, -0.00015212047, -1.079057, -281513.16, 108476.21, 0.0, 10.000337, 10.000879 
2.964848e+3, 2.7019605e+2, -300803.13, -208255.69, 28705.031, 0.08171625, -1.0196627, -200075.42, 91900.055, 0.0, 9.999798, 10.001025 
2.9647967e+3, 2.8019616e+2, -306756.53, -242504.28, -5754.232, 0.12227032, -1.0651699, -241993.02, -48018.457, 0.0, 9.999436, 10.000294 
2.9647416e+3, 2.9019624e+2, 29841.139, 42166.824, -71638.9, 0.0015198704, -1.0590875, 107907.48, 203881.36, 0.0, 10.0007715, 10.000931 
2.97556e+3, 1.3024196e+2, -1676181.9, -1673721.9, -22989.93, -0.27602237, -1.0566902, -1651929.1, 11590.905, 0.0, 10.000175, 10.000198 
2.9755095e+3, 1.4024124e+2, -1607266.0, -1584159.3, -8553.839, -0.09807768, -1.1329068, -1581337.4, -15810.938, 0.0, 9.999948, 10.000253 
2.975458e+3, 1.502411e+2, -1505386.3, -1479295.6, 11270.125, -0.12252668, -1.1627034, -1475101.6, -7573.729, 0.0, 9.999954, 10.000295 
2.9754063e+3, 1.602413e+2, -1398278.5, -1354135.4, 21763.424, -0.13477746, -1.1672049, -1345210.1, 24316.186, 0.0, 9.999919, 10.000499 
2.9753557e+3, 1.7024148e+2, -1275506.4, -1228240.5, 51844.285, -0.15253395, -1.1967958, -1194896.8, 76627.65, 0.0, 10.000021, 10.000641 
2.975305e+3, 1.8024193e+2, -1182367.3, -1161328.8, 55525.49, -0.16430148, -1.1937306, -1115334.8, 58184.902, 0.0, 10.000112, 10.000383 
2.975255e+3, 1.9024292e+2, -1088769.4, -1079067.4, 54598.754, -0.12233826, -1.1074885, -1029104.5, 46406.965, 0.0, 10.000141, 10.00026 
2.975205e+3, 2.0024365e+2, -977309.0, -957623.6, 35878.633, -0.09274516, -1.048085, -930262.06, 47243.8, 0.0, 10.000161, 10.000411 
2.975154e+3, 2.1024385e+2, -854831.75, -802041.56, 35986.184, -0.09559642, -1.0835223, -783808.1, 95695.55, 0.0, 10.000133, 10.000821 
2.9751033e+3, 2.2024417e+2, -765912.2, -716924.7, 55926.777, -0.08543846, -1.1178952, -680363.1, 101137.14, 0.0, 10.000106, 10.000746 
2.9750532e+3, 2.3024525e+2, -671510.44, -613051.44, 52240.617, -0.03246041, -1.0712157, -582419.06, 101071.66, 0.0, 10.000047, 10.000815 
2.9750028e+3, 2.4024636e+2, -591649.44, -538403.0, 42351.293, 0.0122783, -1.0279571, -515001.94, 70479.21, 0.0, 9.999986, 10.000684 
2.9749507e+3, 2.502465e+2, -471261.88, -440886.9, 15313.321, -0.016382763, -1.0570806, -434506.88, 52973.438, 0.0, 10.000185, 10.000586 
2.9748988e+3, 2.6024684e+2, -327626.63, -283796.03, 11361.479, -0.02474707, -1.0753183, -281026.03, 108451.375, 0.0, 10.000339, 10.000918 
2.9748482e+3, 2.7024823e+2, -295045.44, -192719.55, 5489.3306, 0.12063184, -1.037672, -192425.9, 99038.62, 0.0, 9.999782, 10.001141 
2.9747966e+3, 2.802489e+2, -286759.13, -191663.69, 11685.562, 0.19460145, -1.0494217, -190248.8, 3209.1348, 0.0, 9.999401, 10.000658 
2.9747418e+3, 2.9024905e+2, 8792.208, -2687.3594, -1198.4885, -0.068467945, -1.0574368, 8915.997, 104372.44, 0.0, 10.000785, 10.000611 
2.9855612e+3, 1.3029212e+2, -1611375.3, -1655735.5, -103437.35, -0.18652405, -1.135844, -1527766.8, 135260.66, 0.0, 10.000682, 10.000076 
2.985509e+3, 1.4029196e+2, -1584670.8, -1563615.0, -63632.113, -0.14630525, -1.1503644, -1509645.8, 55382.547, 0.0, 10.000068, 10.000332 
2.985457e+3, 1.502929e+2, -1464977.0, -1446947.4, -23770.719, -0.21112809, -1.0858648, -1430539.5, 36479.574, 0.0, 10.00018, 10.000406 
2.985405e+3, 1.6029358e+2, -1388916.3, -1358232.5, -19032.889, -0.25625142, -1.047116, -1349128.0, 19884.693, 0.0, 10.000026, 10.000417 
2.985355e+3, 1.70294e+2, -1296935.1, -1253242.5, -14814.232, -0.2124373, -1.0379465, -1248693.4, 22314.973, 0.0, 9.999943, 10.0005045 
2.9853046e+3, 1.8029414e+2, -1202618.1, -1170600.6, -31682.172, -0.1790089, -1.0597061, -1151112.4, 21894.559, 0.0, 9.999976, 10.000382 
2.9852545e+3, 1.9029424e+2, -1108712.4, -1076091.6, -10315.953, -0.17212564, -1.0716269, -1073103.1, 1903.7352, 0.0, 9.999954, 10.000369 
2.9852042e+3, 2.0029464e+2, -988913.1, -938313.4, 6623.9717, -0.14442489, -1.0615494, -937460.56, 39543.17, 0.0, 9.999975, 10.000633 
2.9851535e+3, 2.1029505e+2, -867585.1, -786150.1, 207.87282, -0.11644317, -1.0974243, -786149.6, 92850.31, 0.0, 9.9999485, 10.0010195 
2.985103e+3, 2.2029562e+2, -792665.0, -708855.3, 8659.41, -0.09231207, -1.1260402, -707969.94, 73024.47, 0.0, 9.99983, 10.000935 
2.985053e+3, 2.3029676e+2, -684329.7, -598209.3, 11429.81, -0.0327349, -1.0926905, -596718.2, 86266.06, 0.0, 9.9998665, 10.001004 
2.9850024e+3, 2.4029796e+2, -581090.4, -508568.94, 7402.4517, 0.012421179, -1.0592405, -507821.06, 77152.875, 0.0, 9.999949, 10.000907 
2.9849505e+3, 2.5029865e+2, -505687.22, -427957.97, 7642.2744, -0.012900745, -1.0611093, -427213.7, 59754.36, 0.0, 9.99982, 10.000852 
2.9848987e+3, 2.6029938e+2, -414482.44, -318215.03, 20029.42, -0.012318547, -1.0642637, -314214.0, 74748.07, 0.0, 9.999708, 10.000987 
2.9848477e+3, 2.7030036e+2, -305406.78, -215034.53, -6718.2065, 0.12301899, -1.0551729, -214537.83, 76415.48, 0.0, 9.999781, 10.00099 
2.984796e+3, 2.803012e+2, -200023.0, -141075.69, 1411.1223, 0.16707306, -1.046071, -141041.92, 51903.62, 0.0, 9.999955, 10.000743 
2.984742e+3, 2.9030135e+2, -84407.53, -91975.99, 5786.8374, -0.06956508, -1.0568508, -81277.44, 13667.293, 0.0, 10.000325, 10.000231 
2.995561e+3, 1.3034235e+2, -1592014.6, -1647878.6, 66520.34, -0.2623441, -1.1542296, -1547799.9, 114734.06, 0.0, 10.000805, 10.000079 
2.9955086e+3, 1.4034231e+2, -1645721.8, -1565674.4, 62908.004, -0.1857966, -1.1676931, -1531137.3, 33396.273, 0.0, 9.999518, 10.00059 
2.9954576e+3, 1.5034312e+2, -1506123.3, -1450896.5, 49977.563, -0.13269979, -1.1353053, -1421411.3, 45114.58, 0.0, 9.999815, 10.000563 
2.995406e+3, 1.6034319e+2, -1392374.9, -1399407.3, 16637.166, -0.14745669, -1.1537659, -1378886.4, -10360.818, 0.0, 10.000158, 10.000076 
2.995355e+3, 1.7034252e+2, -1270143.1, -1304926.6, 30490.48, -0.1938476, -1.2010264, -1252433.0, 18099.791, 0.0, 10.000387, 9.999944 
2.995305e+3, 1.8034315e+2, -1133720.9, -1135112.5, 10087.099, -0.10766717, -1.1341264, -1124305.6, 48221.37, 0.0, 10.000421, 10.000422 
2.9952544e+3, 1.9034281e+2, -1018747.2, -972519.75, 37308.832, -0.13917926, -1.2296407, -951745.06, 122783.586, 0.0, 10.000296, 10.000925 
2.9952037e+3, 2.0034368e+2, -977870.25, -886624.8, 40875.523, -0.17638762, -1.2349268, -870992.0, 105526.88, 0.0, 9.999839, 10.0010605 
2.9951537e+3, 2.1034549e+2, -936830.9, -815285.9, 10244.573, -0.08278469, -1.1435585, -814428.5, 64074.68, 0.0, 9.999448, 10.001063 
2.9951024e+3, 2.2034673e+2, -822415.3, -709797.4, -1560.3173, -0.11663711, -1.1082723, -709775.75, 70717.18, 0.0, 9.999567, 10.001056 
2.995052e+3, 2.3034751e+2, -685810.8, -568195.2, -2894.1914, -0.09070369, -1.1373595, -568124.0, 114362.22, 0.0, 9.999724, 10.001279 
2.9950017e+3, 2.4034841e+2, -539938.1, -442898.5, -5082.4473, -0.032019094, -1.1586366, -442633.03, 141845.13, 0.0, 10.000034, 10.001317 
2.99495e+3, 2.5035042e+2, -452627.03, -325435.75, 1153.3734, -0.0069585554, -1.0949413, -325425.3, 161034.03, 0.0, 9.999853, 10.001539 
2.9948986e+3, 2.6035213e+2, -409792.9, -307179.8, 19728.438, 0.037089013, -1.0460126, -303517.53, 84925.414, 0.0, 9.9997015, 10.001066 
2.994847e+3, 2.7035245e+2, -337501.7, -282117.4, -691.33136, 0.08386653, -1.0728759, -282108.78, 8333.047, 0.0, 9.999782, 10.000529 
2.9947942e+3, 2.80353e+2, -217614.36, -175696.97, 12306.862, 0.02843718, -1.0615056, -172350.81, 20087.676, 0.0, 9.999953, 10.000503 
2.9947433e+3, 2.9035428e+2, -104684.445, -123137.46, 22996.348, 0.01749114, -0.94693625, -89132.73, 5295.6553, 0.0, 10.000289, 10.00003 
