coord_x,coord_y,stress_xx,stress_yy,tau_xy,velocity_x,velocity_y,stress_1,eps,damage,lx,ly
4.999922e+0, 1.2566592e+2, -1743178.5, -1658746.1, 31753.97, 0.017469198, -0.68110484, -1648136.9, 60292.574, 0.0026898824, 9.999392, 10.000673 
4.9993977e+0, 1.3566831e+2, -1655883.1, -1779290.5, 42709.473, -0.07705504, -0.3783003, -1642543.9, -32131.504, 0.0015908045, 10.00028, 9.998736 
4.9994713e+0, 1.4566846e+2, -1457876.1, -1457594.5, 2984.394, -0.0667894, -0.3099928, -1454747.6, 57666.668, 0.0007108368, 10.000224, 10.000289 
4.999968e+0, 1.5566784e+2, -1479564.5, -1419166.0, -50663.414, 0.023770098, -0.45298147, -1390384.0, 24037.03, 0.00020845741, 9.999412, 10.000274 
5.000102e+0, 1.656682e+2, -1429512.5, -1457883.4, -19633.438, 0.029177323, -0.38723373, -1419476.1, -103058.81, 0.000030560106, 9.999576, 9.999257 
4.9999166e+0, 1.7566855e+2, -1203592.5, -1304148.8, -5161.1753, -0.034516614, -0.3153137, -1203328.3, 15084.242, 0.0000010193884, 10.000479, 9.999205 
4.9999642e+0, 1.8566705e+2, -1058134.5, -1155991.6, -15640.517, -0.040874243, -0.39580572, -1055695.4, 64727.027, 0.0, 10.000697, 9.99944 
5.000183e+0, 1.9566406e+2, -1015803.25, -1100656.5, -33330.914, -0.0030080173, -0.6763204, -1004276.5, 18167.746, 0.0, 10.00038, 9.999304 
5.000433e+0, 2.0566367e+2, -968573.9, -1122507.3, -20158.033, 0.018394321, -0.5962135, -965977.9, -41529.79, 0.0, 10.000451, 9.998442 
5.0006616e+0, 2.1566509e+2, -823385.6, -1009697.06, -31210.855, 0.02344926, -0.33559418, -818296.2, 8143.731, 0.0, 10.000805, 9.998375 
5.000594e+0, 2.2566381e+2, -724409.3, -926834.06, -48176.707, 0.01328906, -0.2883097, -713528.25, 14925.708, 0.0, 10.000881, 9.998234 
5.0003207e+0, 2.3566028e+2, -649968.0, -846994.75, -85016.61, -0.00762367, -0.5074421, -618355.6, 12131.219, 0.0, 10.000747, 9.998176 
5.0003207e+0, 2.4565884e+2, -567369.25, -788202.9, -67703.01, -0.008614622, -0.44937468, -548265.5, -15763.923, 0.0, 10.000773, 9.997893 
5.000548e+0, 2.556588e+2, -446788.88, -683035.5, -43833.523, 0.00516188, -0.2802422, -438918.16, -4413.6143, 0.000000000017365094, 10.000943, 9.997862 
5.000502e+0, 2.6565722e+2, -314078.88, -460381.34, -47377.766, 0.012027773, -0.26888868, -300076.5, 36442.82, 0.000000288742, 10.000721, 9.99882 
5.000244e+0, 2.7565452e+2, -306465.9, -421586.84, -78017.95, 0.013417433, -0.46297938, -267072.75, -28529.816, 0.0000032414011, 10.000165, 9.998681 
5.000543e+0, 2.85653e+2, -248789.81, -554817.06, -21704.564, 0.011593177, -0.3801667, -247258.11, -106700.086, 0.00001724438, 10.000806, 9.996778 
5.0012106e+0, 2.9565147e+2, 82345.31, -344535.47, 13862.149, -0.0019792053, -0.25476396, 82794.99, 125370.94, 0.000074921634, 10.002393, 9.996789 
5.0011605e+0, 3.0564526e+2, 58398.125, -452228.53, 2381.2078, -0.0073898793, -0.5014454, 58409.23, 58409.23, 0.0002850154, 10.002415, 9.995706 
5.00069e+0, 3.156423e+2, 103990.36, -48780.688, 27499.055, 0.0111607425, -0.4063443, 108789.48, 108789.48, 0.0007432572, 10.001032, 9.999154 
1.499971e+1, 1.2566927e+2, -1727500.0, -1576646.6, 36824.914, 0.04925438, -0.383574, -1568137.3, 140264.05, 0.0025876667, 9.999213, 10.001334 
1.4998232e+1, 1.356686e+2, -1626744.0, -1694152.6, 79033.4, -0.22572178, -0.4227252, -1574528.3, 35880.484, 0.0015348786, 10.000199, 9.999373 
1.4998408e+1, 1.4566858e+2, -1554273.6, -1628948.8, -35502.887, -0.19985329, -0.34180582, -1540088.9, -27675.736, 0.00068435894, 10.0001135, 9.999177 
1.4999911e+1, 1.5566996e+2, -1565878.3, -1573887.8, -69004.445, 0.07249883, -0.14815767, -1500762.5, -86356.08, 0.00019662973, 9.999321, 9.999265 
1.5000315e+1, 1.6566953e+2, -1398127.0, -1364789.0, 7285.154, 0.089594975, -0.150796, -1363266.5, -46856.938, 0.000026649353, 9.999469, 9.999956 
1.4999786e+1, 1.7566708e+2, -1167539.1, -1209551.1, 33404.65, -0.100934386, -0.40942198, -1149084.8, 69341.914, 0.00000066228677, 10.000399, 9.999903 
1.4999865e+1, 1.8566602e+2, -1092885.1, -1194217.3, -34048.406, -0.123645864, -0.4695236, -1082507.4, 37925.375, 0.0, 10.00057, 9.999244 
1.500056e+1, 1.9566613e+2, -1045672.2, -1134116.4, -35142.918, -0.0077835056, -0.4005739, -1033408.7, -10979.282, 0.0, 10.000268, 9.999136 
1.5001273e+1, 2.0566522e+2, -990964.25, -1131595.4, -12788.947, 0.054674923, -0.36397964, -989810.7, -65372.39, 0.0, 10.000312, 9.998449 
1.5001968e+1, 2.156634e+2, -846720.94, -1020313.1, -9487.063, 0.069769576, -0.4097979, -846204.0, -19746.123, 0.0, 10.000661, 9.998375 
1.5001778e+1, 2.2566143e+2, -790706.5, -1031359.7, -62256.465, 0.04107261, -0.4011838, -775554.9, -47075.395, 0.0, 10.000755, 9.997583 
1.5000938e+1, 2.3565935e+2, -709587.4, -934602.0, -80439.69, -0.023933144, -0.385367, -683789.1, -53286.98, 0.0, 10.000609, 9.997645 
1.5000975e+1, 2.4565758e+2, -521690.63, -667186.06, -68612.65, -0.02491682, -0.38455582, -494438.72, 38080.12, 0.0, 10.000671, 9.998781 
1.5001632e+1, 2.5565588e+2, -406711.53, -562081.6, -32153.281, 0.014322326, -0.45344657, -400320.4, 34211.93, 0.0, 10.000793, 9.998771 
1.5001513e+1, 2.65654e+2, -373214.47, -553048.8, -76226.26, 0.037797906, -0.49127308, -345252.28, -8701.848, 0.00000013049092, 10.00061, 9.998243 
1.5000758e+1, 2.75652e+2, -363919.0, -504618.7, -87886.555, 0.0429855, -0.5345331, -321693.78, -83122.195, 0.0000023602508, 10.000021, 9.99819 
1.5001585e+1, 2.8565112e+2, -178521.23, -378102.47, 31989.205, 0.031646986, -0.42612135, -173519.31, -32939.344, 0.000014211254, 10.000694, 9.99805 
1.5003628e+1, 2.9565054e+2, 147366.95, -166043.16, 80136.914, -0.007914243, -0.31575537, 166668.7, 209254.03, 0.0000647229, 10.0022135, 9.998108 
1.500351e+1, 3.056463e+2, 101554.016, -318135.6, -54248.758, -0.016013522, -0.4788825, 108452.766, 108452.766, 0.00025372737, 10.002274, 9.996702 
1.5002064e+1, 3.1564388e+2, 89117.4, -1323.5525, 7326.313, 0.0359068, -0.39212218, 89707.03, 89707.03, 0.0006708774, 10.000742, 9.999629 
2.4999832e+1, 1.2567031e+2, -1483383.0, -1525021.1, 13874.967, 0.04986298, -0.24992116, -1479183.1, 229209.88, 0.002469487, 10.001189, 10.000721 
2.4998453e+1, 1.3566819e+2, -1688238.1, -1780324.4, -52734.98, -0.20795797, -0.39196667, -1664274.5, -53858.477, 0.0014658497, 10.00004, 9.998851 
2.4998456e+1, 1.4566754e+2, -1596017.5, -1654926.5, -132099.9, -0.1878327, -0.3462874, -1490128.1, 22297.793, 0.0006493342, 9.999869, 9.999103 
2.4999706e+1, 1.5566891e+2, -1405450.6, -1507095.3, -93261.52, 0.067861855, -0.15106893, -1350062.6, 64354.246, 0.00018140074, 10.000478, 9.999154 
2.500024e+1, 1.6566852e+2, -1248876.8, -1277050.0, 31296.055, 0.09176622, -0.15105489, -1228643.1, 87775.66, 0.000022322774, 10.000439, 10.000076 
2.5000247e+1, 1.756662e+2, -1239963.5, -1228475.3, 3884.1248, -0.06340771, -0.41886437, -1227285.3, -8850.585, 0.00000035252413, 9.999859, 10.000014 
2.50004e+1, 1.8566547e+2, -1223300.4, -1274254.0, -68104.914, -0.081575625, -0.44142327, -1176063.0, -55624.1, 0.0, 9.999742, 9.999088 
2.5000802e+1, 1.9566615e+2, -1112806.0, -1177655.1, -69680.5, 0.01472028, -0.30666423, -1068375.4, -45942.83, 0.0, 9.99986, 9.999022 
2.5001457e+1, 2.0566502e+2, -1008197.6, -1124882.5, 1414.4764, 0.055635165, -0.29549563, -1008180.44, -83737.195, 0.0, 10.000115, 9.9985895 
2.5002295e+1, 2.1566233e+2, -876116.56, -1021277.2, 7424.7046, 0.054186463, -0.45085505, -875737.8, -49268.74, 0.0, 10.000395, 9.998493 
2.5002545e+1, 2.256604e+2, -801347.6, -1014944.8, 8107.3823, 0.054171693, -0.450779, -801040.3, -72551.4, 0.0, 10.000585, 9.997768 
2.5002378e+1, 2.356591e+2, -691026.3, -910029.44, 46095.277, 0.060414515, -0.38552105, -681719.75, -51215.516, 0.0, 10.00066, 9.997782 
2.5002068e+1, 2.4565744e+2, -528091.44, -659765.06, 75762.32, 0.024464305, -0.38189036, -493556.88, 38962.883, 0.0, 10.000595, 9.998857 
2.5001615e+1, 2.5565538e+2, -460777.94, -587104.44, 39711.082, -0.043008875, -0.500677, -449331.78, -14794.699, 0.0, 10.000419, 9.998772 
2.5001752e+1, 2.6565355e+2, -382121.13, -603964.5, -177.9171, -0.002354416, -0.5032, -382121.0, -45565.64, 0.00000003137998, 10.000759, 9.997814 
2.5002342e+1, 2.7565214e+2, -176748.73, -455551.97, -8723.262, 0.1306421, -0.45308346, -176476.08, 62097.05, 0.0000016165861, 10.001495, 9.997806 
2.5003314e+1, 2.856511e+2, -81234.39, -295999.2, 107895.12, 0.1146868, -0.36515123, -36392.168, 104191.49, 0.000011342512, 10.001203, 9.998369 
2.5004655e+1, 2.9564977e+2, -146900.84, -266051.84, 73316.305, -0.010342855, -0.3623995, -112006.66, -69412.35, 0.00005395602, 10.000026, 9.998468 
2.5004593e+1, 3.056473e+2, -158241.36, -336666.9, -80924.19, -0.014026597, -0.41643682, -127006.45, -127006.45, 0.00022021512, 10.000038, 9.997655 
2.50039e+1, 3.1564528e+2, 141271.33, 69485.04, -40535.934, 0.15100387, -0.39815205, 159521.33, 159521.33, 0.00059438485, 10.000921, 10.000022 
3.500011e+1, 1.2566902e+2, -1619447.8, -1788786.1, -54528.04, -0.08608555, -0.3161756, -1603408.5, 104996.02, 0.0023442833, 10.0011215, 9.998941 
3.4999835e+1, 1.3566707e+2, -1785247.8, -1979385.6, -86244.43, -0.097929955, -0.2684209, -1752468.8, -142034.6, 0.0013882996, 10.000043, 9.997482 
3.4999335e+1, 1.4566524e+2, -1521430.8, -1488811.9, -117270.08, -0.11272633, -0.33927384, -1386722.5, 125730.875, 0.0006086515, 9.999826, 10.000259 
3.4999102e+1, 1.5566471e+2, -1333165.6, -1348824.6, -63969.254, -0.06511042, -0.4486384, -1276548.5, 137904.06, 0.00016439817, 10.000452, 10.000248 
3.499976e+1, 1.6566513e+2, -1275736.0, -1324136.8, -4.330152, -0.021974253, -0.40392917, -1275736.0, 40709.195, 0.000017966355, 10.000396, 9.999783 
3.5001123e+1, 1.7566569e+2, -1263798.1, -1273059.3, -7362.2476, 0.015660675, -0.34412193, -1259731.3, -41293.004, 0.00000014192928, 9.999836, 9.999726 
3.500137e+1, 1.8566522e+2, -1229655.3, -1266213.1, -69309.34, 0.021036059, -0.33357248, -1176255.0, -55812.402, 0.0, 9.999658, 9.999181 
3.5000706e+1, 1.95664e+2, -1113277.9, -1163644.3, -55448.53, -0.0031358548, -0.39561167, -1077561.8, -55106.93, 0.0, 9.999796, 9.999149 
3.5000792e+1, 2.0566297e+2, -990223.25, -1060588.6, 2683.1274, -0.03953558, -0.40798005, -990121.1, -65657.016, 0.0, 10.000008, 9.999082 
3.5001454e+1, 2.156619e+2, -853245.5, -947767.5, 25909.533, -0.08946435, -0.44196284, -846609.3, -20136.457, 0.0, 10.00029, 9.999048 
3.5002723e+1, 2.2566076e+2, -735737.9, -848635.06, 4762.9355, -0.0051433784, -0.45490396, -735537.3, -7054.816, 0.0, 10.000461, 9.99897 
3.5004425e+1, 2.3565954e+2, -630675.0, -755592.2, 56747.8, 0.17958604, -0.4924884, -608745.3, 21747.398, 0.0, 10.000542, 9.998898 
3.5003427e+1, 2.4565843e+2, -586432.8, -761693.7, 61745.254, 0.08371013, -0.45190963, -566864.5, -34360.14, 0.0, 10.000511, 9.9982 
3.5000324e+1, 2.556573e+2, -520463.88, -684263.06, 43629.867, -0.23428474, -0.40997326, -509567.4, -75048.89, 0.0, 10.00031, 9.998156 
3.5001075e+1, 2.6565608e+2, -400048.97, -629721.94, 21090.23, -0.16321199, -0.31468496, -398128.38, -61595.12, 0.0000000045955626, 10.000704, 9.997667 
3.5004747e+1, 2.7565497e+2, -201007.81, -484199.97, 25063.701, 0.19922857, -0.21150349, -198806.67, 39740.863, 0.0000011861115, 10.001398, 9.99766 
3.5005534e+1, 2.8565285e+2, -123246.0, -366156.6, 55498.14, 0.19671628, -0.20436345, -111166.91, 29402.377, 0.000009324045, 10.001137, 9.997916 
3.500406e+1, 2.9564923e+2, -190732.02, -335302.5, 41753.285, -0.09633969, -0.38325578, -179539.75, -136936.67, 0.00004426637, 9.999934, 9.998038 
3.5004112e+1, 3.056481e+2, -85634.3, -179982.66, -53851.81, -0.08345798, -0.33618113, -61216.43, -61216.43, 0.00018818198, 10.000001, 9.998748 
3.5005748e+1, 3.1564647e+2, 159596.92, 120703.79, 21627.547, 0.20188569, -0.3854296, 169235.05, 169235.05, 0.00052315294, 10.000848, 10.000412 
4.4999856e+1, 1.2566653e+2, -1967485.5, -1919258.4, -120712.734, -0.07789115, -0.36147645, -1820274.3, -111842.45, 0.0022184679, 9.998602, 9.99925 
4.5000303e+1, 1.3566609e+2, -1747160.8, -1904279.4, -35517.914, -0.04366722, -0.20997389, -1739504.8, -129058.87, 0.0013082918, 10.000075, 9.997979 
4.5000038e+1, 1.456644e+2, -1402625.5, -1392643.0, -14354.416, -0.046934914, -0.30870095, -1382436.8, 130025.21, 0.00056754425, 10.000463, 10.0006275 
4.4999737e+1, 1.5566333e+2, -1379963.8, -1338428.4, -43206.934, -0.0138604725, -0.50401086, -1311257.1, 103207.19, 0.00014805637, 9.999978, 10.000563 
4.500004e+1, 1.6566378e+2, -1380432.5, -1380195.1, 8491.561, 0.009528534, -0.46822158, -1371821.4, -55365.035, 0.000013959289, 9.999703, 9.999731 
4.5000857e+1, 1.756648e+2, -1299263.9, -1296508.0, 5840.5806, 0.024507724, -0.3563767, -1291885.0, -73438.71, 0.000000037538413, 9.999608, 9.999681 
4.5001298e+1, 1.8566433e+2, -1192141.4, -1235716.1, -7745.0386, 0.045357917, -0.34729204, -1190805.6, -70354.664, 0.0, 9.999861, 9.9993 
4.5001388e+1, 1.9566287e+2, -1033734.0, -1109999.5, -6948.721, 0.06822741, -0.44398993, -1033106.06, -10640.4795, 0.0, 10.000283, 9.999284 
4.5001328e+1, 2.0566216e+2, -938689.0, -1003383.1, 46052.453, 0.009761168, -0.44461113, -914758.5, 9713.396, 0.0, 10.000217, 9.999377 
4.5001197e+1, 2.1566187e+2, -920463.5, -946711.1, 40089.688, -0.10542664, -0.4316932, -891404.2, -64930.69, 0.0, 9.999679, 9.999353 
4.5002478e+1, 2.2566123e+2, -799421.0, -820180.44, 19023.56, -0.03330492, -0.4331909, -788129.7, -59652.734, 0.0, 9.999772, 9.999497 
4.500483e+1, 2.3566036e+2, -627536.8, -703470.44, 4671.746, 0.18230107, -0.4894928, -627250.5, 3231.5078, 0.0, 10.00035, 9.999351 
4.5004323e+1, 2.4565934e+2, -590304.7, -803402.5, 2945.5261, 0.121982604, -0.44340762, -590263.94, -57770.504, 0.0, 10.00066, 9.997839 
4.500159e+1, 2.5565797e+2, -478134.97, -704336.06, -4553.0938, -0.15572487, -0.38440526, -478043.38, -43531.41, 0.0, 10.000768, 9.997798 
4.5002294e+1, 2.6565656e+2, -343671.66, -582377.3, 30292.064, -0.12119232, -0.30479303, -339887.56, -3358.8855, 0.000000013083459, 10.001016, 9.997834 
4.500568e+1, 2.7565524e+2, -189932.67, -464483.38, 39412.035, 0.15911102, -0.23755437, -184387.05, 54155.613, 0.0000010541644, 10.001416, 9.997787 
4.500657e+1, 2.8565285e+2, -112977.336, -375740.28, 61169.617, 0.18615042, -0.25425428, -99435.336, 41131.3, 0.000008050424, 10.00128, 9.997786 
4.5005435e+1, 2.95649e+2, -82576.97, -302055.06, 57976.156, 0.012839652, -0.44315064, -68203.59, -25599.465, 0.00003666787, 10.000768, 9.997868 
4.5005095e+1, 3.0564877e+2, -10887.514, -158664.52, -14561.992, -0.0060199522, -0.28764406, -9466.239, -9466.239, 0.00016032506, 10.000563, 9.998627 
4.5005783e+1, 3.1564677e+2, 72723.266, 45889.453, -51910.08, 0.1544702, -0.3686467, 112922.305, 112922.305, 0.00046162336, 10.000383, 10.000122 
5.4998124e+1, 1.2566307e+2, -1792291.5, -1595923.1, -96624.13, -0.1744073, -0.37725177, -1556352.6, 152119.77, 0.0020911084, 9.998749, 10.001408 
5.499952e+1, 1.3566522e+2, -1571330.9, -1568690.1, 24712.73, -0.1634445, -0.2174504, -1545262.5, 65188.652, 0.0012261746, 10.000185, 10.000235 
5.5000395e+1, 1.4566499e+2, -1426100.4, -1453337.9, -42719.168, -0.0904761, -0.25280458, -1394881.6, 117570.32, 0.0005263589, 10.000512, 10.000188 
5.500128e+1, 1.556648e+2, -1404728.6, -1398461.6, -52349.703, 0.114449084, -0.31340396, -1349151.8, 65299.676, 0.00013276051, 10.000014, 10.000134 
5.500065e+1, 1.6566445e+2, -1372880.0, -1359814.4, -2942.7793, 0.07504142, -0.3454891, -1359182.1, -42729.953, 0.0000106646075, 9.999686, 9.999877 
5.499906e+1, 1.756634e+2, -1288659.3, -1274139.8, 11539.829, -0.14245585, -0.4600506, -1267766.0, -49306.316, 0.000000007551507, 9.99961, 9.999832 
5.49999e+1, 1.8566282e+2, -1185863.1, -1215030.1, -788.02155, -0.102908015, -0.47592574, -1185841.8, -65377.832, 0.0, 9.999826, 9.999458 
5.500252e+1, 1.9566278e+2, -1026187.25, -1088623.0, 13112.469, 0.1280613, -0.44630182, -1023545.2, -1080.4222, 0.0, 10.00026, 9.99944 
5.5002767e+1, 2.0566261e+2, -941980.25, -992073.0, 18626.402, 0.11132421, -0.40739775, -935813.44, -11346.726, 0.0, 10.000144, 9.999487 
5.500118e+1, 2.1566217e+2, -922867.4, -936680.8, 30051.49, -0.09825833, -0.41965914, -898939.1, -72467.85, 0.0, 9.999618, 9.999449 
5.500149e+1, 2.2566186e+2, -816659.3, -843027.44, 33071.598, -0.13157149, -0.38949865, -794240.7, -65768.24, 0.0, 9.999713, 9.99937 
5.500336e+1, 2.3566163e+2, -646817.56, -727512.56, 32965.855, -0.021381693, -0.36956117, -635062.6, -4591.2637, 0.0, 10.000277, 9.999222 
5.500444e+1, 2.4566013e+2, -605477.7, -819843.6, 1570.8414, 0.046634264, -0.35991344, -605466.2, -72979.195, 0.0, 10.0006, 9.997753 
5.500501e+1, 2.556575e+2, -497250.75, -715569.3, 7928.9346, 0.08518186, -0.42273486, -496963.16, -62445.938, 0.0, 10.000654, 9.997771 
5.500508e+1, 2.6565507e+2, -317081.5, -520463.7, 37514.855, 0.03372205, -0.46744418, -310382.34, 26158.688, 0.000000016276152, 10.000982, 9.998279 
5.5004877e+1, 2.756529e+2, -169299.31, -407346.72, 59324.92, -0.08435721, -0.5311253, -155333.95, 83225.03, 0.00000094951764, 10.001348, 9.998217 
5.500613e+1, 2.8565103e+2, -103722.875, -349270.53, 33321.688, -0.0059050913, -0.5208597, -99281.34, 41295.11, 0.0000068870954, 10.001251, 9.99798 
5.5008465e+1, 2.9564893e+2, -89212.11, -298901.0, 49949.38, 0.21224892, -0.5519729, -77921.73, -35322.918, 0.00003048685, 10.000689, 9.99793 
5.500725e+1, 3.0564922e+2, -105984.3, -337931.03, -23659.344, 0.13253629, -0.28382915, -103595.57, -103595.57, 0.0001366128, 10.000497, 9.997426 
5.5003387e+1, 3.1564605e+2, -3930.3806, -94578.29, -39893.316, -0.16823548, -0.36304465, 11125.609, 11125.609, 0.00040785797, 10.00031, 9.999187 
6.499712e+1, 1.256618e+2, -1701422.6, -1482496.8, 87187.59, -0.15357511, -0.37971398, -1452017.5, 256467.33, 0.0019647046, 9.999046, 10.002052 
6.4999986e+1, 1.35664e+2, -1670353.0, -1507412.0, 77514.21, -0.0682991, -0.31517553, -1476428.5, 134029.69, 0.0011417874, 9.99902, 10.00122 
6.500111e+1, 1.4566435e+2, -1638919.6, -1568424.4, -24622.773, 0.007505402, -0.33486232, -1560675.8, -48222.34, 0.0004823996, 9.999116, 10.000064 
6.500137e+1, 1.5566538e+2, -1485717.3, -1445669.3, -28424.484, 0.15487118, -0.25904137, -1430923.9, -16478.867, 0.00011742101, 9.9995, 10.000049 
6.5000314e+1, 1.6566524e+2, -1359040.6, -1316204.5, 54202.793, 0.08273015, -0.28558373, -1279341.5, 37103.047, 0.000008467286, 9.9996195, 10.000209 
6.499849e+1, 1.7566362e+2, -1293103.6, -1242230.3, 68755.46, -0.14594387, -0.48833528, -1194357.0, 24098.803, 0.000000004638606, 9.999439, 10.000132 
6.4999497e+1, 1.8566307e+2, -1213863.4, -1231917.3, 89718.766, -0.11060035, -0.5149491, -1132718.6, -12258.941, 0.0, 9.999655, 9.999422 
6.50026e+1, 1.9566342e+2, -1047340.56, -1105655.3, 69756.664, 0.12201312, -0.44156528, -1000892.75, 21564.258, 0.0, 10.000135, 9.999389 
6.500302e+1, 2.0566326e+2, -965607.7, -1024170.94, 33263.793, 0.13208494, -0.3869848, -950573.44, -26114.082, 0.0, 10.000069, 9.999305 
6.500138e+1, 2.1566266e+2, -953357.06, -970483.5, 11622.97, -0.028448297, -0.39756927, -947483.44, -121016.95, 0.0, 9.999495, 9.999275 
6.500152e+1, 2.256619e+2, -828339.4, -861425.4, 60246.082, -0.09328291, -0.39562023, -782406.25, -53934.21, 0.0, 9.999686, 9.999262 
6.500306e+1, 2.3566106e+2, -627999.5, -727032.6, 43121.516, -0.08194656, -0.42542335, -611855.1, 18621.197, 0.0, 10.000442, 9.99915 
6.500475e+1, 2.456596e+2, -582552.44, -802347.3, 9277.923, 0.017668057, -0.41112867, -582161.5, -49669.73, 0.0, 10.000712, 9.997836 
6.500659e+1, 2.5565758e+2, -501279.25, -706073.6, 12033.694, 0.18952829, -0.4176105, -500574.6, -66057.805, 0.0, 10.000572, 9.997889 
6.500677e+1, 2.656554e+2, -398512.56, -529495.5, 56469.527, 0.14413118, -0.4573325, -377528.94, -40990.902, 0.00000000394634, 10.000284, 9.998561 
6.500572e+1, 2.7565315e+2, -356480.94, -463593.88, 52422.656, -0.05739781, -0.55797225, -335094.56, -96538.82, 0.0000007712445, 9.999922, 9.998513 
6.5006775e+1, 2.8565145e+2, -255237.61, -412103.6, 34491.918, -0.0049177594, -0.5546631, -247988.47, -107417.016, 0.000006042053, 10.000163, 9.998071 
6.500949e+1, 2.956497e+2, -71170.82, -279782.72, 28161.63, 0.24989754, -0.55720603, -67436.0, -24846.172, 0.000026514133, 10.000777, 9.998013 
6.5008295e+1, 3.0564946e+2, -6311.3423, -333210.53, 10295.803, 0.15233044, -0.3331698, -5987.3936, -5987.3936, 0.00011960156, 10.001362, 9.997045 
6.5004194e+1, 3.1564617e+2, 227305.14, 16555.264, 23862.3, -0.18650326, -0.3794378, 229973.19, 229973.19, 0.000365328, 10.001893, 9.999203 
7.499629e+1, 1.256625e+2, -1735780.6, -1569518.0, 52319.83, -0.19524933, -0.37163827, -1554424.1, 154046.8, 0.0018421272, 9.999124, 10.001412 
7.500129e+1, 1.3566235e+2, -1681450.1, -1542348.3, 79851.2, 0.13030683, -0.5078193, -1506005.1, 104462.24, 0.0010580781, 9.999079, 10.00095 
7.500172e+1, 1.4566244e+2, -1617113.0, -1534286.9, -18585.84, 0.12734239, -0.5548562, -1530307.5, -17840.686, 0.0004375462, 9.99916, 10.000279 
7.4999636e+1, 1.5566501e+2, -1464088.5, -1415394.3, -5655.237, 0.002535874, -0.34657377, -1414746.1, -300.34857, 0.00010224, 9.9995575, 10.000234 
7.4998736e+1, 1.6566613e+2, -1322394.3, -1240308.8, 40212.98, -0.061426494, -0.28000927, -1223892.0, 92541.53, 0.000007138289, 9.9996195, 10.00073 
7.4998885e+1, 1.7566554e+2, -1257130.1, -1172673.9, 70626.03, -0.075886786, -0.4358055, -1132614.4, 85819.97, 0.00000003688298, 9.999458, 10.0006 
7.499981e+1, 1.8566501e+2, -1233213.3, -1271822.4, 101069.86, -0.06726077, -0.467546, -1149620.9, -29182.715, 0.0, 9.999649, 9.999155 
7.500133e+1, 1.9566466e+2, -1068801.1, -1147840.9, 93144.664, -0.043865062, -0.43972406, -1007139.25, 15304.108, 0.0, 10.000124, 9.999107 
7.500183e+1, 2.0566413e+2, -1008665.8, -1100537.1, 5759.308, -0.0134283565, -0.38324025, -1008306.1, -83856.22, 0.0, 10.000014, 9.998805 
7.5001556e+1, 2.1566331e+2, -995441.7, -1044168.06, 734.6044, 0.018902592, -0.3665241, -995430.6, -168971.45, 0.0, 9.999431, 9.998802 
7.5002235e+1, 2.256614e+2, -848108.5, -885875.4, 82961.336, -0.008974141, -0.45375994, -781908.6, -53432.992, 0.0, 9.999616, 9.9991255 
7.500364e+1, 2.3565857e+2, -648700.56, -751946.7, 78575.91, -0.087802485, -0.6688292, -606307.06, 24190.883, 0.0, 10.000359, 9.99902 
7.5004905e+1, 2.4565776e+2, -575019.7, -772129.0, -2666.114, -0.054805283, -0.59814626, -574983.7, -42475.54, 0.0, 10.000654, 9.998066 
7.5006104e+1, 2.5565833e+2, -497644.1, -681959.06, 12500.184, 0.062713586, -0.36971116, -496800.2, -62289.785, 0.0, 10.000495, 9.998092 
7.5007033e+1, 2.656577e+2, -397783.8, -511372.22, 36992.176, 0.12524514, -0.27265498, -386798.97, -50279.867, 0.00000000015133415, 10.000221, 9.9987135 
7.500785e+1, 2.7565613e+2, -362225.47, -452409.3, 53284.777, 0.14035894, -0.32013696, -337513.75, -98981.29, 0.00000065427645, 9.9998255, 9.998635 
7.500823e+1, 2.856541e+2, -258177.52, -411742.2, 52190.465, 0.10273341, -0.35639316, -242119.28, -101568.11, 0.0000058927376, 10.000133, 9.99809 
7.500821e+1, 2.9565132e+2, -80627.02, -281340.3, 58611.44, 0.020177739, -0.46785894, -64765.094, -22187.486, 0.000025865007, 10.000689, 9.99805 
7.500798e+1, 3.0564922e+2, 12414.717, -281689.72, 29235.557, -0.03492348, -0.44452566, 15292.725, 15292.725, 0.00011192772, 10.001314, 9.997415 
7.500766e+1, 3.156468e+2, 275452.7, 149157.44, 67785.88, -0.06902652, -0.4526445, 304947.13, 304947.13, 0.00033923058, 10.001753, 10.000177 
8.4996444e+1, 1.256624e+2, -1770458.5, -1646848.4, 7970.2427, -0.084471576, -0.37728348, -1646336.6, 62134.926, 0.0017237901, 9.999158, 10.00086 
8.5000944e+1, 1.356626e+2, -1765930.6, -1599712.6, 13835.606, 0.22292805, -0.45359635, -1598568.9, 11897.845, 0.0009802121, 9.998584, 10.00079 
8.500085e+1, 1.4566238e+2, -1639931.6, -1494567.9, -19774.965, 0.14921707, -0.54812634, -1491925.8, 20542.547, 0.00039778455, 9.998775, 10.000744 
8.49984e+1, 1.5566435e+2, -1432390.3, -1355145.9, -7389.3745, -0.072871685, -0.44583994, -1354445.4, 60004.742, 0.000088897265, 9.999583, 10.000633 
8.4998053e+1, 1.6566576e+2, -1293682.5, -1265489.6, 3512.9612, -0.10504789, -0.35283205, -1265058.5, 51377.37, 0.000006071428, 9.999989, 10.0003805 
8.4999406e+1, 1.7566608e+2, -1199458.8, -1177347.5, -47177.48, 0.009084801, -0.3790218, -1139947.6, 78482.95, 0.000000076650345, 9.999996, 10.000309 
8.500021e+1, 1.8566565e+2, -1200457.5, -1231482.6, -8046.6694, 0.0074810395, -0.3996869, -1198494.6, -78060.81, 0.0, 9.999774, 9.999372 
8.500067e+1, 1.9566482e+2, -1170798.5, -1172843.8, 7445.982, -0.07602819, -0.43822828, -1164305.3, -141863.42, 0.0, 9.9993305, 9.999312 
8.500118e+1, 2.056641e+2, -1048034.6, -1128515.9, -25802.223, -0.0626807, -0.40802798, -1040472.9, -116023.33, 0.0, 9.999774, 9.998735 
8.500168e+1, 2.156633e+2, -798696.7, -957933.06, -16495.53, 0.024584152, -0.38000798, -797005.9, 29452.646, 0.0, 10.000813, 9.9987335 
8.500249e+1, 2.256615e+2, -731145.56, -833834.94, 74390.92, 0.018234985, -0.44905657, -692100.6, 36374.074, 0.0, 10.000445, 9.999079 
8.500359e+1, 2.3565893e+2, -851807.75, -851524.1, 62980.508, -0.05328759, -0.63269675, -788685.25, -158188.94, 0.0, 9.998978, 9.998997 
8.5004646e+1, 2.4565832e+2, -768485.5, -806520.1, 45604.684, -0.0630951, -0.5673467, -738091.8, -205588.17, 0.0, 9.999071, 9.998588 
8.500568e+1, 2.5565916e+2, -479361.03, -618548.7, 66242.81, -0.01745458, -0.36552724, -452874.63, -18374.043, 0.0, 10.000397, 9.998567 
8.5007167e+1, 2.6565862e+2, -326125.9, -521613.3, 59784.35, 0.08854423, -0.25889277, -309292.13, 27216.652, 0.0000000019213902, 10.000891, 9.998327 
8.5009116e+1, 2.75657e+2, -268465.0, -447596.7, 20709.178, 0.25027716, -0.27340618, -266102.0, -27575.855, 0.0000006294421, 10.000632, 9.998286 
8.500954e+1, 2.856552e+2, -172895.95, -369504.22, 46806.574, 0.19716854, -0.2695286, -162321.45, -21777.375, 0.0000062489003, 10.0007105, 9.998103 
8.500875e+1, 2.9565305e+2, -9310.646, -239899.28, 35698.246, -0.010585864, -0.32128236, -3910.5376, 38654.16, 0.000027811611, 10.001149, 9.998111 
8.500865e+1, 3.056497e+2, -54810.664, -284776.38, -8907.626, -0.06128137, -0.44134364, -54466.145, -54466.145, 0.000112212314, 10.000718, 9.997686 
8.5009295e+1, 3.1564704e+2, -29496.715, 74899.64, -8190.2314, 0.051276714, -0.50165653, 75538.28, 75538.28, 0.00032853556, 9.999343, 10.000816 
9.4997007e+1, 1.2566173e+2, -1804478.1, -1722949.0, -39067.734, 0.0055687902, -0.3756928, -1707250.9, 1233.4135, 0.0016162735, 9.9991865, 10.000318 
9.4998527e+1, 1.3566472e+2, -1762998.5, -1615003.8, 2245.2373, 0.09472058, -0.15614876, -1614969.8, -4513.294, 0.000914127, 9.9986725, 10.000639 
9.4998163e+1, 1.4566422e+2, -1585235.6, -1386477.9, 3622.0356, -0.023071464, -0.31342348, -1386411.9, 126045.98, 0.00036652523, 9.998801, 10.001471 
9.4997436e+1, 1.5566348e+2, -1387228.3, -1269411.3, 30676.516, -0.15512785, -0.55259484, -1261902.5, 152555.1, 0.00007896126, 9.999618, 10.0012045 
9.499805e+1, 1.6566414e+2, -1382343.6, -1447864.5, -3339.0654, -0.12550753, -0.4929466, -1382173.9, -65723.41, 0.000005121987, 9.999979, 9.999133 
9.499974e+1, 1.7566524e+2, -1273713.4, -1337150.8, -40531.746, 0.018249836, -0.31916678, -1253964.6, -35520.207, 0.00000007826353, 10.000018, 9.999202 
9.500044e+1, 1.8566498e+2, -1157601.6, -1136964.4, -31102.309, 0.034357563, -0.3063618, -1114513.8, 5932.826, 0.0, 9.999747, 10.000032 
9.50004e+1, 1.9566385e+2, -1128361.0, -1080572.4, 2932.669, -0.05973539, -0.44377825, -1080393.1, -57939.97, 0.0, 9.999311, 9.999955 
9.5000786e+1, 2.0566314e+2, -1032078.25, -1082528.3, 6663.5176, -0.09855437, -0.45992577, -1031213.0, -106754.39, 0.0, 9.999717, 9.999078 
9.5001435e+1, 2.1566255e+2, -785072.75, -917423.06, 25858.992, -0.10162191, -0.44704518, -780199.75, 46265.492, 0.0, 10.000755, 9.999042 
9.500202e+1, 2.2566217e+2, -743524.4, -843920.75, 13180.009, -0.092026025, -0.38589227, -741822.94, -13352.915, 0.0, 10.000377, 9.999042 
9.5002604e+1, 2.3566194e+2, -858464.9, -851595.44, 20952.64, -0.07112537, -0.3358621, -833797.9, -203324.28, 0.0, 9.998913, 9.999028 
9.500367e+1, 2.4566121e+2, -719927.3, -688729.44, 87453.74, -0.08509779, -0.3289417, -615494.3, -83014.95, 0.0, 9.999002, 9.999428 
9.500509e+1, 2.5566003e+2, -438842.2, -520414.9, 121765.11, -0.13710077, -0.41540053, -351214.1, 83273.766, 0.0, 10.000332, 9.999273 
9.500696e+1, 2.6565814e+2, -401185.53, -666083.0, 43265.516, -0.03862454, -0.4249702, -394298.06, -57789.8, 0.0000000017799018, 10.000843, 9.997357 
9.500921e+1, 2.7565566e+2, -343168.4, -583478.1, 19713.652, 0.17553416, -0.42957374, -341561.97, -103023.66, 0.0000005677249, 10.000548, 9.997392 
9.5010436e+1, 2.8565478e+2, -178044.11, -369365.06, 55526.523, 0.19691303, -0.29373106, -163096.63, -22545.994, 0.0000064583187, 10.000665, 9.998124 
9.501079e+1, 2.9565498e+2, -21340.064, -242770.38, 61996.324, 0.05407928, -0.11618016, -5163.9673, 37386.902, 0.000029725905, 10.001053, 9.998137 
9.501e+1, 3.05651e+2, -42801.18, -255159.84, -63639.97, -0.017762953, -0.31285858, -25189.979, -25189.979, 0.00011359201, 10.000692, 9.9979 
9.5008415e+1, 3.156471e+2, -32977.12, 95527.69, -27301.643, -0.015406199, -0.51474285, 101087.55, 101087.55, 0.00032159366, 9.999218, 10.00102 
1.0499583e+2, 1.256624e+2, -1871667.4, -1753754.6, 41722.563, 0.0054129125, -0.3468797, -1740484.8, -32004.2, 0.0015309328, 9.99868, 10.000362 
1.049972e+2, 1.35666e+2, -1719954.0, -1566988.5, 99965.93, 0.09462867, -0.09833367, -1517603.1, 92842.73, 0.0008642909, 9.998822, 10.000907 
1.0499717e+2, 1.4566547e+2, -1583817.9, -1453123.5, 110284.27, -0.01231667, -0.24086821, -1390279.9, 122167.48, 0.00034447288, 9.999118, 10.000854 
1.04997106e+2, 1.5566394e+2, -1451618.9, -1375214.0, 14807.083, -0.13548316, -0.48815918, -1372444.9, 42010.484, 0.00007296801, 9.999506, 10.000535 
1.049982e+2, 1.6566385e+2, -1423651.8, -1502180.8, -21925.494, -0.09601677, -0.45403162, -1417944.9, -101488.97, 0.000004414203, 9.99985, 9.9988165 
1.05000354e+2, 1.7566435e+2, -1278929.3, -1374706.5, -9568.693, 0.07646955, -0.30850846, -1277982.6, -59526.74, 0.000000050630582, 10.000146, 9.998876 
1.0500077e+2, 1.8566391e+2, -1119549.4, -1117958.4, -7946.4927, 0.08381307, -0.3002555, -1110767.6, 9692.186, 0.0, 9.999998, 10.00004 
1.0499985e+2, 1.9566287e+2, -1120198.0, -1071682.5, -36390.707, -0.042063873, -0.43124604, -1052205.5, -29740.28, 0.0, 9.999341, 10.000001 
1.0499994e+2, 2.0566241e+2, -1066742.1, -1029006.1, 13304.337, -0.122891776, -0.4584775, -1024787.2, -100319.89, 0.0, 9.999188, 9.999697 
1.0500087e+2, 2.1566221e+2, -948526.4, -929233.4, 32955.703, -0.1584369, -0.46784008, -904541.4, -78073.05, 0.0, 9.999357, 9.999628 
1.0500189e+2, 2.2566238e+2, -848754.56, -904630.25, 2481.4893, -0.10373627, -0.37606737, -848644.6, -120176.234, 0.0, 9.999687, 9.998969 
1.0500307e+2, 2.3566279e+2, -685612.25, -774790.9, -3944.2751, 0.029013725, -0.25225502, -685438.1, -54970.168, 0.0, 10.000127, 9.998977 
1.0500408e+2, 2.4566175e+2, -566041.8, -605827.06, 73094.56, 0.008582443, -0.27911758, -510181.38, 22294.885, 0.0, 10.000019, 9.999508 
1.0500504e+2, 2.556595e+2, -562378.4, -573221.8, 36167.508, -0.1267188, -0.4778466, -531228.5, -96736.2, 0.0, 9.999456, 9.999331 
1.0500682e+2, 2.6565745e+2, -515479.1, -712539.25, -2686.067, -0.091358274, -0.5108134, -515442.5, -178929.22, 0.00000000014537505, 10.000032, 9.997421 
1.0500932e+2, 2.7565548e+2, -196862.16, -509843.4, 29851.275, 0.087135196, -0.46796215, -194040.47, 44497.99, 0.00000042821608, 10.001539, 9.99742 
1.0501093e+2, 2.8565466e+2, -81236.41, -332529.28, 68519.234, 0.15041637, -0.32495382, -63767.81, 76783.516, 0.0000059800022, 10.001351, 9.998058 
1.0501176e+2, 2.956546e+2, -206649.81, -338876.6, 52581.816, 0.11521582, -0.16663688, -188289.38, -145734.14, 0.000029321069, 9.999795, 9.998092 
1.0501123e+2, 3.0565125e+2, -78746.23, -292628.78, -35541.01, 0.051233727, -0.28839558, -72995.0, -72995.0, 0.000109979665, 10.000544, 9.997714 
1.0500989e+2, 3.1564814e+2, 494442.6, 312770.2, -57348.44, 0.029819554, -0.3915516, 511031.06, 511031.06, 0.000307793, 10.003005, 10.000693 
1.1499217e+2, 1.2566407e+2, -1816677.4, -1658191.9, 11504.613, -0.28378353, -0.31087878, -1657361.1, 51102.504, 0.001474528, 9.998762, 10.0009775 
1.1499674e+2, 1.3566634e+2, -1658137.0, -1451789.3, 110972.234, 0.13981144, -0.28680447, -1403438.5, 206997.39, 0.00083337264, 9.998879, 10.001668 
1.14997715e+2, 1.4566612e+2, -1728692.3, -1750392.8, 116886.7, 0.10586642, -0.32501647, -1622153.3, -109716.31, 0.00033260565, 9.999104, 9.998822 
1.14997e+2, 1.5566568e+2, -1574671.1, -1642442.1, 41192.844, -0.12356443, -0.26181835, -1555217.4, -140773.47, 0.0000710648, 9.99956, 9.998672 
1.149982e+2, 1.6566487e+2, -1383016.4, -1422780.3, -17756.926, -0.10546576, -0.24141237, -1376241.3, -59788.945, 0.0000041843605, 9.999865, 9.999359 
1.1500104e+2, 1.7566337e+2, -1238410.6, -1300636.4, 7824.8276, 0.10657078, -0.35394982, -1237441.8, -18975.932, 0.000000024917117, 10.000184, 9.999369 
1.15001015e+2, 1.856624e+2, -1172736.5, -1213653.4, -38473.344, 0.0884175, -0.38667038, -1149620.4, -29146.09, 0.0, 9.999937, 9.999414 
1.1499869e+2, 1.9566189e+2, -1159796.1, -1148634.6, -52484.066, -0.11653088, -0.40365395, -1101435.5, -78956.98, 0.0, 9.99932, 9.999483 
1.1499841e+2, 2.056619e+2, -1015768.44, -911778.06, 11651.374, -0.2117542, -0.40172967, -910488.56, 13987.042, 0.0, 9.999133, 10.000531 
1.1499969e+2, 2.156622e+2, -902271.75, -818714.7, 45989.92, -0.23079579, -0.44733855, -798360.2, 28108.475, 0.0, 9.9992895, 10.000422 
1.15001865e+2, 2.2566204e+2, -867468.5, -925745.8, 11461.716, -0.09074914, -0.4189192, -865295.25, -136824.84, 0.0, 9.999613, 9.998858 
1.15004726e+2, 2.3566143e+2, -708533.25, -800791.8, 18804.049, 0.16215761, -0.38550022, -704847.9, -74368.37, 0.0, 10.000033, 9.998842 
1.1500569e+2, 2.456599e+2, -628139.44, -716854.9, 44491.152, 0.14828585, -0.41694313, -609671.44, -77177.32, 0.0, 9.999944, 9.998782 
1.1500519e+2, 2.556575e+2, -614747.7, -664404.2, 24910.945, -0.076090835, -0.5577917, -604405.0, -169890.77, 0.0, 9.999382, 9.998741 
1.1500649e+2, 2.656565e+2, -444312.84, -558990.44, 47563.934, -0.14554293, -0.51900303, -427152.88, -90628.68, 0.0, 10.000003, 9.998494 
1.1500919e+2, 2.7565646e+2, -138476.9, -373129.13, 88746.18, -0.10033878, -0.38960922, -108693.19, 129833.695, 0.0000002594802, 10.001467, 9.998401 
1.1501073e+2, 2.856548e+2, -101558.67, -360244.03, 3424.234, -0.021302644, -0.3618358, -101513.35, 39032.64, 0.000005001763, 10.001298, 9.997891 
1.1501138e+2, 2.9565194e+2, -241510.45, -378060.44, 12544.306, 0.07484644, -0.46568143, -240367.63, -197789.94, 0.000026475647, 9.9996605, 9.997886 
1.1501207e+2, 3.0565044e+2, -127465.31, -378484.7, 56418.24, 0.06282653, -0.36021093, -115367.95, -115367.95, 0.000100772006, 10.000487, 9.997148 
1.1501314e+2, 3.1565e+2, 418155.97, 181376.78, 52007.203, 0.009455168, -0.1434352, 429075.5, 429075.5, 0.00028477213, 10.0028925, 9.999843 
1.24991335e+2, 1.25665e+2, -1961058.4, -1796011.1, 39966.645, -0.20169748, -0.30348518, -1786842.5, -78391.0, 0.0014451224, 9.998081, 10.000359 
1.24996305e+2, 1.3566573e+2, -1430982.0, -1393243.3, 6483.214, 0.12781456, -0.3808265, -1392160.6, 218279.45, 0.000820366, 10.000668, 10.001211 
1.2499784e+2, 1.4566551e+2, -1441035.3, -1645796.6, 6416.9297, 0.11187621, -0.38374528, -1440834.4, 71608.3, 0.00033115427, 10.001221, 9.998517 
1.2499795e+2, 1.5566556e+2, -1475425.4, -1626768.6, 38726.773, -0.02061525, -0.24095051, -1466091.4, -51645.164, 0.00007354598, 10.000376, 9.998382 
1.2499879e+2, 1.6566479e+2, -1340670.1, -1376254.0, 49914.98, -0.037266493, -0.21671677, -1305471.0, 10982.958, 0.0000047036624, 10.000036, 9.999602 
1.2500036e+2, 1.7566305e+2, -1261338.9, -1288883.5, 36413.164, 0.037694845, -0.3740791, -1236180.5, -17712.355, 0.000000012759114, 9.999918, 9.999585 
1.2500031e+2, 1.8566215e+2, -1197136.3, -1245864.0, -3380.065, 0.034726277, -0.3998781, -1196902.9, -76426.42, 0.0, 9.99986, 9.99923 
1.2499903e+2, 1.9566199e+2, -1104105.3, -1144723.8, 805.6764, -0.03244985, -0.35943785, -1104089.3, -81609.875, 0.0, 9.999802, 9.999281 
1.2499877e+2, 2.0566203e+2, -945685.1, -870004.44, 66609.18, -0.10683984, -0.34891883, -831237.5, 93239.234, 0.0, 9.999579, 10.000598 
1.2499932e+2, 2.1566215e+2, -916309.6, -815512.6, 29468.992, -0.18491061, -0.4191932, -807529.4, 18941.586, 0.0, 9.999152, 10.000505 
1.2500146e+2, 2.2566196e+2, -858816.5, -865598.75, 35143.723, -0.07775039, -0.42592245, -826900.7, -98429.16, 0.0, 9.99943, 9.999354 
1.2500487e+2, 2.3566146e+2, -651845.75, -725004.1, 68657.85, 0.17061375, -0.4321689, -610630.75, 19846.57, 0.0, 10.00022, 9.999268 
1.250062e+2, 2.4566013e+2, -531980.75, -712944.06, 119995.945, 0.1687485, -0.44448933, -472176.16, 60314.54, 0.0, 10.000785, 9.998405 
1.2500599e+2, 2.55658e+2, -371719.9, -586030.7, 113039.484, -0.020347062, -0.519006, -323118.4, 111392.71, 0.0, 10.001207, 9.998406 
1.2500729e+2, 2.6565725e+2, -310481.25, -426728.94, 143999.33, -0.09422267, -0.46677175, -213317.66, 123200.086, 0.0, 10.00064, 9.99909 
1.2500978e+2, 2.7565753e+2, -411709.2, -440314.63, 135363.03, -0.075023346, -0.36834314, -289895.34, -51381.055, 0.00000012209664, 9.99933, 9.998959 
1.2501135e+2, 2.8565556e+2, -292580.7, -464860.0, 62631.05, -0.020229915, -0.39539307, -272218.28, -131682.86, 0.000003888246, 10.000052, 9.997765 
1.2501226e+2, 2.9565194e+2, 138847.0, -207894.06, 59361.906, 0.0706554, -0.56127065, 148728.14, 191302.58, 0.00002250982, 10.002338, 9.997758 
1.2501347e+2, 3.056514e+2, 154790.72, -256380.31, 147931.97, 0.06439117, -0.34917247, 202482.28, 202482.28, 0.000088219014, 10.002458, 9.997057 
1.2501502e+2, 3.1564978e+2, 87285.875, 2426.7466, 144548.27, 0.028576296, -0.23875214, 195503.16, 195503.16, 0.00025421128, 10.000698, 9.999678 
1.3499282e+2, 1.25665e+2, -2092967.6, -2068428.0, 105133.805, 0.09036985, -0.33619827, -1974850.4, -266404.38, 0.0014399097, 9.99809, 9.998481 
1.349955e+2, 1.3566421e+2, -1532766.1, -1614317.0, 101496.56, -0.045520723, -0.388104, -1464160.6, 146297.58, 0.0008240123, 10.000728, 9.999655 
1.3499728e+2, 1.4566368e+2, -1338897.9, -1451334.5, -35190.47, -0.09488317, -0.41868034, -1328792.1, 183671.61, 0.00033951883, 10.001283, 9.9998255 
1.3499966e+2, 1.556636e+2, -1383929.0, -1444614.0, 17964.23, 0.08797738, -0.42411783, -1379009.9, 35452.12, 0.00008018549, 10.0004015, 9.999621 
1.3499966e+2, 1.6566361e+2, -1352413.3, -1387390.4, 37523.605, 0.027657542, -0.37376353, -1328502.9, -12042.226, 0.0000062149566, 9.999989, 9.999544 
1.3499787e+2, 1.7566341e+2, -1264954.9, -1295837.8, 42193.91, -0.22355893, -0.37314695, -1235465.6, -17002.434, 0.000000017143847, 9.999927, 9.999527 
1.3499834e+2, 1.8566324e+2, -1184173.6, -1218603.3, -13233.949, -0.17170528, -0.3341014, -1179674.8, -59208.793, 0.0, 9.999846, 9.999428 
1.3500051e+2, 1.956632e+2, -1094785.8, -1122148.8, 6295.1743, 0.11260877, -0.30272785, -1093406.9, -70939.055, 0.0, 9.999785, 9.999443 
1.3500077e+2, 2.0566283e+2, -1005521.2, -981993.8, 43025.258, 0.11619673, -0.3025356, -949153.06, -24682.33, 0.0, 9.999526, 9.999858 
1.3499945e+2, 2.1566208e+2, -973005.25, -909399.0, 25333.684, -0.10810728, -0.38677993, -900542.1, -74066.75, 0.0, 9.999054, 9.999907 
1.3500044e+2, 2.2566216e+2, -793838.56, -717164.5, 56222.88, -0.1428881, -0.39383912, -687452.0, 41019.473, 0.0, 9.999361, 10.000412 
1.3500316e+2, 2.3566279e+2, -590414.8, -583803.0, 103514.125, -0.041185066, -0.39392468, -483542.0, 146919.83, 0.0, 10.000156, 10.000268 
1.3500537e+2, 2.4566233e+2, -540622.44, -720166.5, 127640.09, -0.010743213, -0.36251667, -474346.38, 58120.03, 0.0, 10.000738, 9.998381 
1.3500723e+2, 2.5566098e+2, -385014.5, -592749.8, 132052.88, -0.037458245, -0.3573497, -320874.84, 113607.67, 0.0, 10.001117, 9.998404 
1.3500896e+2, 2.6565984e+2, -312522.53, -417996.47, 88552.67, -0.008028507, -0.34958202, -262192.72, 74300.42, 0.0, 10.000588, 9.999172 
1.3501076e+2, 2.756587e+2, -419194.16, -433866.22, 103395.26, 0.068218656, -0.40430906, -322875.0, -84373.79, 0.000000046518082, 9.999238, 9.999044 
1.3501252e+2, 2.8565675e+2, -299171.88, -471080.44, 141280.69, 0.07131971, -0.42924538, -219752.73, -79232.11, 0.0000029362805, 10.000018, 9.997742 
1.3501422e+2, 2.9565436e+2, 127745.95, -215614.56, 145261.63, 0.007709982, -0.46756002, 180954.67, 223501.97, 0.000019015239, 10.002266, 9.997745 
1.3501509e+2, 3.0565402e+2, 174330.56, -198774.78, 78263.445, -0.03333069, -0.2610272, 190082.28, 190082.28, 0.000075927965, 10.002392, 9.9974785 
1.3501492e+2, 3.1564748e+2, 104968.38, 66019.695, 104947.65, -0.091453, -0.6804326, 192233.25, 192233.25, 0.00022269739, 10.000582, 10.000171 
1.449924e+2, 1.2566383e+2, -1861914.8, -1961502.9, 21566.957, 0.17244534, -0.30803165, -1857444.8, -148985.44, 0.0014542761, 9.999689, 9.9984455 
1.4499527e+2, 1.3566299e+2, -1826838.8, -1752186.8, 118457.73, -0.03224142, -0.36652005, -1665313.5, -54840.73, 0.0008417685, 9.998679, 9.999698 
1.4499712e+2, 1.456631e+2, -1650935.8, -1508560.4, 11642.223, -0.10776557, -0.38069555, -1507614.6, 4856.1084, 0.0003553583, 9.998733, 10.00067 
1.4499925e+2, 1.5566336e+2, -1448231.4, -1387672.9, 11036.388, 0.054905124, -0.4338781, -1385724.3, 28738.584, 0.00008912462, 9.999576, 10.000419 
1.4499936e+2, 1.6566359e+2, -1360210.0, -1382603.0, 35740.53, 0.008448735, -0.40632382, -1333953.3, -17494.51, 0.000008328298, 9.999905, 9.999612 
1.4499794e+2, 1.7566352e+2, -1282908.9, -1298736.9, 30865.19, -0.19908734, -0.39682648, -1258959.3, -40498.805, 0.0000000715251, 9.999773, 9.999581 
1.4499858e+2, 1.8566366e+2, -1150530.9, -1159648.8, 9581.852, -0.12929563, -0.34831843, -1144478.8, -24019.025, 0.0, 9.999897, 9.99981 
1.4500079e+2, 1.9566399e+2, -1015918.44, -1050140.5, 25091.344, 0.14748396, -0.3176375, -1002659.06, 19797.795, 0.0, 10.000169, 9.999762 
1.4500123e+2, 2.0566346e+2, -896070.4, -971237.7, 89333.555, 0.16800627, -0.32742715, -836736.44, 87724.734, 0.0, 10.000468, 9.999473 
1.4500025e+2, 2.1566217e+2, -751624.2, -849821.75, 78994.04, -0.012658277, -0.42535838, -707713.56, 118758.516, 0.0, 10.000776, 9.999488 
1.4500073e+2, 2.2566207e+2, -638933.9, -647597.25, 92064.555, -0.09945856, -0.4268802, -551099.2, 177371.19, 0.0, 10.000462, 10.000354 
1.4500234e+2, 2.3566282e+2, -661662.6, -624744.6, 38760.535, -0.112057514, -0.40751183, -600272.1, 30187.412, 0.0, 9.999697, 10.000213 
1.4500494e+2, 2.4566256e+2, -679423.2, -742273.3, 71674.35, -0.066405155, -0.3750838, -632587.5, -100125.57, 0.0, 9.999597, 9.998776 
1.4500834e+2, 2.5566152e+2, -518841.8, -614443.25, 89175.57, 0.023364348, -0.37937763, -465463.53, -30989.11, 0.0, 10.000029, 9.998772 
1.4501056e+2, 2.656603e+2, -273786.44, -443110.1, 40685.184, 0.076444395, -0.3794814, -264517.9, 71968.78, 0.0, 10.001029, 9.998795 
1.4501196e+2, 2.7565873e+2, 21645.348, -260921.4, 7335.585, 0.11292029, -0.43181568, 21835.654, 260335.77, 0.00000002138944, 10.002426, 9.998707 
1.4501384e+2, 2.8565702e+2, 37592.727, -278423.63, 72687.08, 0.0978313, -0.4340045, 53509.81, 194027.48, 0.0000023054517, 10.002184, 9.99803 
1.4501593e+2, 2.9565537e+2, -85339.52, -284468.2, 80640.234, 0.038982954, -0.43071148, -56779.297, -14242.743, 0.000016570593, 10.000652, 9.998048 
1.4501709e+2, 3.0565548e+2, -104716.18, -311217.22, -257.7193, 0.034639195, -0.20117301, -104715.86, -104715.86, 0.0000664134, 10.000389, 9.997659 
1.4501631e+2, 3.1564787e+2, 176117.27, 133350.28, -15970.127, -0.018534055, -0.7525768, 181422.7, 181422.7, 0.0001967113, 10.000939, 10.000448 
1.5498959e+2, 1.2566182e+2, -1721789.6, -1698748.9, -51744.543, -0.13018623, -0.19621432, -1657257.8, 51230.76, 0.0014746141, 9.9998045, 10.000196 
1.5499532e+2, 1.3566215e+2, -1710029.5, -1515706.1, 88901.38, 0.08081327, -0.3053154, -1481171.8, 129311.3, 0.00086313457, 9.9987, 10.001314 
1.5499695e+2, 1.4566374e+2, -1622528.1, -1446453.8, 33935.445, -0.018303847, -0.26969585, -1440139.6, 72324.266, 0.00037152023, 9.998723, 10.0011 
1.549964e+2, 1.5566486e+2, -1416500.0, -1326939.8, 50215.07, -0.21350916, -0.27719945, -1304438.3, 110010.43, 0.00009663115, 9.999602, 10.00082 
1.549976e+2, 1.6566475e+2, -1351535.1, -1360115.1, 23151.695, -0.17778935, -0.3104244, -1332279.3, -15831.945, 0.000009881803, 9.999887, 9.999778 
1.5500027e+2, 1.7566355e+2, -1271621.5, -1270140.0, 36505.895, 0.035404507, -0.4301882, -1234367.4, -15908.844, 0.00000020107916, 9.999755, 9.999787 
1.5500078e+2, 1.8566348e+2, -1116008.9, -1085384.1, 12291.403, 0.08044571, -0.43860114, -1081061.1, 39395.973, 0.0, 9.999884, 10.000328 
1.5499957e+2, 1.9566432e+2, -991754.7, -984621.1, 43824.73, -0.010851659, -0.407077, -944218.25, 78227.89, 0.0, 10.000114, 10.000235 
1.5499996e+2, 2.0566392e+2, -907965.8, -988471.75, 93617.84, -0.027262013, -0.42039222, -846313.94, 78134.03, 0.0, 10.000424, 9.999381 
1.5500142e+2, 2.156625e+2, -771220.9, -873666.5, 95090.22, 0.0068043675, -0.52558243, -714434.75, 112025.68, 0.0, 10.000705, 9.999358 
1.5500209e+2, 2.2566177e+2, -735073.0, -833979.56, 56180.918, -0.027523402, -0.5171261, -709680.3, 18786.87, 0.0, 10.000401, 9.999105 
1.5500216e+2, 2.3566152e+2, -750785.9, -793822.7, 21988.719, -0.11711036, -0.4737963, -741538.3, -111067.86, 0.0, 9.999624, 9.999088 
1.5500464e+2, 2.4566074e+2, -629147.7, -629003.0, 80755.82, -0.07541307, -0.4838652, -548319.44, -15842.21, 0.0, 9.999554, 9.999576 
1.5500906e+2, 2.556594e+2, -480562.44, -522920.6, 117079.47, 0.07165946, -0.59544194, -382761.88, 51726.227, 0.0, 9.999967, 9.999435 
1.5501179e+2, 2.656584e+2, -337449.06, -564221.2, 86379.86, 0.07835224, -0.557583, -308294.34, 28204.996, 0.0, 10.000988, 9.997979 
1.550132e+2, 2.756576e+2, -42683.008, -376535.4, 62194.555, -0.02500189, -0.45981276, -31472.969, 207038.88, 0.000000019825112, 10.002345, 9.997952 
1.55015e+2, 2.856563e+2, 73597.13, -190504.13, 9496.285, -0.021715935, -0.41575748, 73938.16, 214465.16, 0.0000019865888, 10.002132, 9.998655 
1.550171e+2, 2.9565477e+2, -55859.137, -204028.98, 40595.32, 0.06461291, -0.46130618, -45465.92, -2922.614, 0.000014949104, 10.0005665, 9.998643 
1.550192e+2, 3.0565578e+2, -115984.9, -319222.7, 17632.633, 0.18894164, -0.16877413, -114466.46, -114466.46, 0.000059797247, 10.000336, 9.997621 
1.5501872e+2, 3.1565094e+2, 164247.55, 132774.47, 34880.145, 0.08715915, -0.43922004, 186776.7, 186776.7, 0.0001777337, 10.000844, 10.000485 
1.6499e+2, 1.2566026e+2, -1664952.3, -1601004.9, 59795.156, -0.06747255, -0.21678048, -1565171.6, 143332.75, 0.0014821975, 9.999882, 10.000829 
1.6499448e+2, 1.3566138e+2, -1617104.9, -1427831.5, 92145.03, 0.111645386, -0.2927534, -1390381.9, 220106.58, 0.0008719991, 9.999145, 10.001706 
1.6499579e+2, 1.4566322e+2, -1648825.6, -1482904.9, 32555.332, 0.0019807261, -0.23777576, -1476745.9, 35721.004, 0.0003781117, 9.998673, 10.000857 
1.649956e+2, 1.5566356e+2, -1582687.4, -1431399.3, -21423.217, -0.19764161, -0.29897383, -1428424.1, -13962.808, 0.000098805474, 9.998581, 10.0005865 
1.6499738e+2, 1.656634e+2, -1454122.3, -1373848.5, -48455.465, -0.13862583, -0.34171167, -1351065.6, -34604.887, 0.000009884257, 9.999013, 10.000106 
1.6500087e+2, 1.7566282e+2, -1247436.4, -1221586.6, -35856.324, 0.124923706, -0.43762407, -1196396.9, 22068.043, 0.0000002904704, 9.999751, 10.000124 
1.6500138e+2, 1.8566278e+2, -1082849.5, -1071491.9, -65717.484, 0.14279081, -0.45904806, -1011208.25, 109254.28, 0.0, 10.000139, 10.000287 
1.6499954e+2, 1.956631e+2, -968116.25, -977096.1, -92079.65, -0.028117135, -0.47647828, -880417.1, 142038.81, 0.0, 10.000292, 10.000195 
1.65e+2, 2.0566288e+2, -917374.1, -967328.06, -34562.293, -0.050921436, -0.48209125, -899708.4, 24747.28, 0.0, 10.000262, 9.9996 
1.6500211e+2, 2.1566221e+2, -844287.7, -888613.5, -27375.945, 0.039974067, -0.52935034, -831227.94, -4767.486, 0.0, 10.000119, 9.999537 
1.650033e+2, 2.2566126e+2, -757486.6, -898558.9, -14939.177, 0.052120816, -0.52533865, -755922.0, -27452.145, 0.0, 10.000488, 9.998615 
1.6500372e+2, 2.3566014e+2, -550358.1, -744796.2, -9469.773, 0.0018507648, -0.5207254, -549898.0, 80584.555, 0.0, 10.0012245, 9.998644 
1.6500586e+2, 2.4565905e+2, -367374.3, -508136.1, 57467.58, 0.0043125493, -0.53685814, -346892.72, 185600.33, 0.0, 10.001379, 9.999527 
1.6500935e+2, 2.5565797e+2, -319290.8, -444314.63, 15262.71, 0.053360954, -0.6211564, -317454.53, 117047.69, 0.0, 10.001076, 9.999436 
1.6501236e+2, 2.656574e+2, -341885.94, -523412.44, 42520.57, 0.052370388, -0.5591976, -332419.6, 4089.1794, 0.0, 10.000765, 9.99837 
1.6501504e+2, 2.756572e+2, -285337.5, -443450.28, 91117.49, 0.025285492, -0.44203183, -243760.92, -5246.486, 0.000000024295247, 10.000474, 9.998382 
1.6501673e+2, 2.8565592e+2, -133684.1, -270139.75, 41187.574, 0.019332768, -0.42987472, -122215.92, 18312.86, 0.0000019697127, 10.000631, 9.998826 
1.6501771e+2, 2.9565394e+2, 44220.953, -129458.07, 22386.453, 0.047186434, -0.53662723, 47060.055, 89608.44, 0.000013995548, 10.001147, 9.998875 
1.6502023e+2, 3.0565464e+2, 79567.375, -193405.2, 51118.426, 0.20914508, -0.30357388, 88826.07, 88826.07, 0.00005518299, 10.001527, 9.997923 
1.65021e+2, 3.1565213e+2, 269912.1, 166731.5, 71926.79, 0.19853018, -0.36337227, 306837.44, 306837.44, 0.00016337763, 10.001634, 10.000344 
1.7499301e+2, 1.2565906e+2, -1692034.0, -1659908.8, 3542.0645, 0.2009297, -0.3846126, -1659522.9, 48984.797, 0.001464911, 9.999902, 10.000409 
1.7499247e+2, 1.3566081e+2, -1670557.3, -1537733.5, 69538.16, -0.025356099, -0.32380602, -1507988.9, 102498.79, 0.0008580161, 9.999157, 10.000937 
1.7499347e+2, 1.4566165e+2, -1714185.1, -1626277.5, 20442.656, -0.121750675, -0.27963832, -1621756.1, -109277.57, 0.00036898247, 9.998697, 9.999868 
1.7499658e+2, 1.5565944e+2, -1640587.3, -1555331.5, -12385.261, 0.017321581, -0.49828815, -1553568.8, -139067.81, 0.00009401229, 9.998594, 9.999732 
1.7499846e+2, 1.6565955e+2, -1416398.8, -1289865.3, -27858.248, 0.044725303, -0.50646406, -1284003.4, 32495.563, 0.000008393363, 9.998989, 10.000694 
1.7499943e+2, 1.7566141e+2, -1214804.3, -1150006.6, -2001.2394, -0.0147367455, -0.41243953, -1149944.9, 68534.03, 0.00000020811186, 9.9997425, 10.000618 
1.7500007e+2, 1.856616e+2, -1124112.4, -1159370.4, -66079.7, -0.020648738, -0.4009992, -1073350.5, 47124.54, 0.0, 10.000136, 9.999689 
1.7500043e+2, 1.9566043e+2, -1009385.8, -1053576.8, -79054.93, 0.010201484, -0.5109543, -949396.6, 73088.18, 0.0, 10.00025, 9.99969 
1.7500111e+2, 2.0566043e+2, -889661.0, -900043.5, -49570.17, 0.01726857, -0.49756834, -845011.0, 79471.99, 0.0, 10.000215, 10.000088 
1.7500207e+2, 2.1566129e+2, -823225.7, -829532.25, -23023.996, 0.006578143, -0.44195035, -803140.06, 23332.795, 0.0, 10.000054, 9.999974 
1.7500405e+2, 2.2566059e+2, -746860.44, -864732.56, 5010.6963, 0.061354402, -0.4451386, -746647.9, -18169.658, 0.0, 10.000432, 9.998876 
1.7500676e+2, 2.3565865e+2, -544756.4, -722827.9, 23241.889, 0.16456361, -0.55035466, -541772.9, 88723.57, 0.0, 10.001172, 9.998822 
1.7500833e+2, 2.4565753e+2, -439558.34, -646493.9, 38039.336, 0.096637994, -0.5288767, -432787.44, 99721.65, 0.0, 10.001331, 9.998596 
1.7500895e+2, 2.5565705e+2, -385470.63, -563029.8, 9339.13, -0.11134601, -0.459856, -384980.75, 49536.813, 0.0, 10.000997, 9.998659 
1.7501213e+2, 2.6565716e+2, -228887.72, -284132.0, 24146.434, -0.06387932, -0.38443947, -219821.53, 116694.23, 0.0, 10.000742, 10.000025 
1.7501725e+2, 2.756575e+2, -186578.02, -226471.02, 89927.16, 0.17868821, -0.37902924, -114411.77, 124096.68, 0.000000035492793, 10.000418, 9.999902 
1.7501876e+2, 2.8565574e+2, -156408.08, -311927.56, 50741.28, 0.13938059, -0.4683758, -141317.11, -793.71387, 0.0000021240596, 10.000609, 9.998548 
1.7501742e+2, 2.956527e+2, 20359.85, -161227.58, 50445.2, -0.120253265, -0.6576175, 33432.477, 75985.07, 0.000013429294, 10.001078, 9.998686 
1.7502004e+2, 3.056518e+2, 126935.17, -95390.7, 49540.72, 0.018742148, -0.60856664, 137474.67, 137474.67, 0.000050917075, 10.001524, 9.998604 
1.7502245e+2, 3.156514e+2, 231302.67, 112600.555, 118427.51, 0.13838008, -0.52092785, 304419.06, 304419.06, 0.00014886881, 10.001533, 10.000017 
1.8499246e+2, 1.2565786e+2, -1923737.5, -1787255.4, -48597.117, 0.24036603, -0.46542454, -1771719.9, -63206.03, 0.0014182838, 9.998368, 10.00028 
1.849913e+2, 1.3565955e+2, -1683949.1, -1588189.5, 18507.709, -0.056737706, -0.37254915, -1584737.0, 25759.29, 0.00082149997, 9.99925, 10.0005455 
1.8499258e+2, 1.4566016e+2, -1638222.3, -1630823.3, 21639.031, -0.109110795, -0.31209984, -1612569.8, -100078.94, 0.00034638878, 9.99938, 9.999507 
1.8499659e+2, 1.5565749e+2, -1593784.4, -1566732.0, 21086.01, 0.1418931, -0.5437589, -1555206.8, -140687.86, 0.000084445885, 9.999053, 9.999434 
1.8499832e+2, 1.6565777e+2, -1427719.1, -1277609.5, 42436.258, 0.14346808, -0.5300323, -1266443.4, 50072.555, 0.000006352812, 9.998848, 10.000841 
1.8499841e+2, 1.7566025e+2, -1349639.0, -1202811.3, 21657.645, -0.03903351, -0.38838276, -1199683.3, 18806.67, 0.000000056960435, 9.998764, 10.000725 
1.8499944e+2, 1.8566051e+2, -1238434.4, -1236636.1, -12261.4, -0.06065784, -0.36735657, -1225241.0, -104754.9, 0.0, 9.999453, 9.999488 
1.8500109e+2, 1.9565898e+2, -960104.1, -1051314.6, -13804.066, 0.03367032, -0.49129045, -958060.75, 64438.83, 0.0, 10.000686, 9.999495 
1.8500203e+2, 2.056587e+2, -857307.8, -928010.94, -39901.65, 0.07096601, -0.47590727, -839350.1, 85151.39, 0.0, 10.00062, 9.999701 
1.8500242e+2, 2.1565937e+2, -920639.56, -914483.4, -87885.96, 0.06474106, -0.4024432, -829621.6, -3126.6838, 0.0, 9.999535, 9.999644 
1.8500459e+2, 2.2565867e+2, -801306.9, -841229.44, -5485.381, 0.105808854, -0.4143623, -800566.94, -72067.4, 0.0, 9.999837, 9.99933 
1.8500812e+2, 2.3565693e+2, -509145.13, -660520.6, 7465.21, 0.18606816, -0.54248464, -508777.88, 121735.4, 0.0, 10.001212, 9.999237 
1.8500946e+2, 2.4565607e+2, -472660.56, -678033.8, 13004.782, 0.0888672, -0.507869, -471840.34, 60682.816, 0.0, 10.001167, 9.998459 
1.850091e+2, 2.5565588e+2, -534990.1, -645595.44, 30967.7, -0.14264446, -0.3950337, -526909.94, -92380.03, 0.0, 10.000015, 9.998564 
1.8501209e+2, 2.656557e+2, -320476.84, -283220.0, 64692.33, -0.09776701, -0.36531624, -234527.42, 102002.43, 0.0, 9.999919, 10.000426 
1.8501765e+2, 2.756553e+2, -127599.45, -157849.06, 20563.018, 0.16864733, -0.47124678, -117197.85, 121328.95, 0.000000044067633, 10.000642, 10.000271 
1.850194e+2, 2.856538e+2, -83198.89, -275698.53, -25467.352, 0.12334196, -0.55415016, -79886.6, 60651.76, 0.000002141611, 10.001094, 9.99857 
1.8501818e+2, 2.9565182e+2, 62274.15, -140900.48, -23930.412, -0.15866819, -0.6335269, 65054.68, 107612.21, 0.000012353572, 10.001349, 9.998704 
1.8502098e+2, 3.0565053e+2, 103090.14, -49172.14, -31413.396, -0.0116707785, -0.65646815, 109316.47, 109316.47, 0.0000445169, 10.00111, 9.999112 
1.850236e+2, 3.156507e+2, 9530.945, -85489.61, 19356.854, 0.16804275, -0.55461675, 13322.854, 13322.854, 0.00012870552, 10.000361, 9.999237 
1.9498785e+2, 1.256567e+2, -1907396.6, -1754799.1, -48257.895, -0.1055497, -0.44579154, -1740818.8, -32296.307, 0.0013429979, 9.998387, 10.000489 
1.949907e+2, 1.356575e+2, -1689388.4, -1589920.8, 50832.875, -0.06310933, -0.44119075, -1568538.9, 41976.1, 0.0007683095, 9.999227, 10.000538 
1.9499287e+2, 1.456587e+2, -1613386.8, -1581931.8, -1051.131, -0.04399218, -0.33806893, -1581896.6, -69392.62, 0.00031677555, 9.999382, 9.9998455 
1.9499533e+2, 1.5565781e+2, -1570652.1, -1521917.5, 16680.027, 0.087955534, -0.42798552, -1516755.4, -102241.086, 0.000073711046, 9.999064, 9.999738 
1.9499673e+2, 1.656582e+2, -1448404.0, -1321924.8, 33600.32, 0.0816152, -0.4005855, -1313552.8, 2957.527, 0.0000047225935, 9.998844, 10.000543 
1.949976e+2, 1.7565945e+2, -1367910.9, -1241184.1, 31868.125, -0.018832441, -0.35415742, -1233621.5, -15124.605, 0.0000000036456946, 9.99876, 10.000466 
1.9499919e+2, 1.8565953e+2, -1230056.4, -1210594.8, 26324.625, -0.049102277, -0.34862903, -1192260.0, -71765.336, 0.0, 9.999413, 9.999688 
1.9500126e+2, 1.956587e+2, -959111.2, -1041893.25, 35211.39, -0.036116436, -0.422855, -946160.2, 76340.78, 0.0, 10.00065, 9.999579 
1.9500242e+2, 2.056577e+2, -953634.6, -1111038.1, -87152.85, 0.030988865, -0.4167919, -914907.3, 9604.096, 0.0, 10.00055, 9.998474 
1.9500287e+2, 2.1565647e+2, -1008591.06, -1078517.1, -115174.97, 0.1380382, -0.40959665, -923189.3, -96663.04, 0.0, 9.999457, 9.998553 
1.9500467e+2, 2.2565562e+2, -770031.4, -758955.94, 38090.547, 0.11566746, -0.423106, -726002.7, 2530.252, 0.0, 9.999765, 9.9999275 
1.9500752e+2, 2.3565498e+2, -477106.4, -575382.0, 60363.9, -0.012456326, -0.49890015, -448408.97, 182124.33, 0.0, 10.001134, 9.999858 
1.9500904e+2, 2.4565463e+2, -436922.72, -589223.0, -38271.1, -0.086713634, -0.47577268, -427846.56, 104688.84, 0.0, 10.001104, 9.9991 
1.9500948e+2, 2.5565445e+2, -508422.03, -570805.44, 123.75821, -0.124115914, -0.42930758, -508421.78, -73882.46, 0.0, 9.999933, 9.999115 
1.9501196e+2, 2.6565313e+2, -384599.47, -410712.06, 84871.805, -0.11889518, -0.49394774, -311785.56, 24764.611, 0.0, 9.999892, 9.999567 
1.9501595e+2, 2.7565068e+2, -190958.48, -278536.8, 56227.594, -0.085197076, -0.71693444, -163480.31, 75088.57, 0.000000036761158, 10.000588, 9.999473 
1.9501844e+2, 2.8565004e+2, -70250.46, -237792.56, -22122.258, -0.09876872, -0.6881237, -67378.664, 73195.086, 0.0000018181237, 10.001053, 9.998848 
1.950198e+2, 2.9565147e+2, 64352.586, -111067.16, -3594.7075, -0.15325196, -0.45879197, 64426.22, 106988.5, 0.000010151812, 10.001252, 9.998951 
1.9502279e+2, 3.056509e+2, 125759.734, 2412.1165, -62635.57, 0.040114816, -0.44106156, 151988.56, 151988.56, 0.00003534469, 10.001088, 9.999476 
1.9502392e+2, 3.156505e+2, -72269.305, -234548.14, 33200.15, 0.12313191, -0.43568367, -65739.72, -65739.72, 0.0001028295, 10.000283, 9.998241 
2.0498589e+2, 1.2565511e+2, -1947187.8, -1760006.0, -40037.6, -0.1179222, -0.42696768, -1751801.6, -43265.418, 0.0012444656, 9.998071, 10.000599 
2.049901e+2, 1.3565488e+2, -1783349.4, -1649310.6, 26828.445, -0.00756236, -0.5150676, -1644140.3, -33600.926, 0.00070293987, 9.99863, 10.000426 
2.0499267e+2, 1.4565611e+2, -1612038.0, -1539205.8, -23750.918, 0.008354324, -0.42130005, -1532145.0, -19617.107, 0.00028321997, 9.999224, 10.000214 
2.049942e+2, 1.556566e+2, -1411914.4, -1408521.3, -28335.193, 0.027300004, -0.4088657, -1381831.9, 32691.754, 0.000063005726, 9.999999, 10.000064 
2.0499577e+2, 1.6565706e+2, -1291394.3, -1301142.9, -16794.475, 0.037664924, -0.36457857, -1278781.0, 37738.246, 0.0000035155435, 10.000167, 10.000045 
2.0499761e+2, 1.7565738e+2, -1243543.4, -1232525.3, -49950.57, 0.05810386, -0.3594109, -1187780.9, 30735.21, 0.0000000004928599, 9.999843, 10.000003 
2.0499942e+2, 1.8565722e+2, -1240499.4, -1210000.9, -35912.87, 0.041640073, -0.3598475, -1186233.8, -65716.96, 0.0, 9.999312, 9.999742 
2.050011e+2, 1.9565664e+2, -1253345.4, -1179225.3, -53284.324, -0.01139755, -0.41218013, -1151380.3, -128859.58, 0.0, 9.998607, 9.999621 
2.0500255e+2, 2.0565535e+2, -1104829.5, -1200218.3, -107257.98, 0.040729497, -0.43113706, -1035139.75, -110606.24, 0.0, 9.999579, 9.998333 
2.0500389e+2, 2.156534e+2, -680101.2, -936606.94, -69849.9, 0.18249497, -0.47990477, -662313.6, 164240.77, 0.0, 10.001787, 9.998407 
2.0500548e+2, 2.2565265e+2, -512233.1, -650194.6, 69514.83, 0.13071866, -0.46745297, -483281.94, 245278.77, 0.0, 10.001601, 9.999786 
2.0500723e+2, 2.3565274e+2, -717449.9, -706130.0, 21538.14, -0.071415976, -0.45782813, -689520.5, -58964.098, 0.0, 9.999546, 9.999724 
2.050091e+2, 2.456524e+2, -675985.0, -667339.94, -89174.49, -0.09512292, -0.44636497, -582383.3, -49825.313, 0.0, 9.9993, 9.999432 
2.0501108e+2, 2.5565162e+2, -407110.7, -496739.88, -88240.375, 0.016690092, -0.48965147, -352957.03, 81607.8, 0.0, 10.000509, 9.999351 
2.0501336e+2, 2.656502e+2, -306985.47, -446301.8, 9921.303, -0.0073765526, -0.5410755, -306282.5, 30295.172, 0.0, 10.000751, 9.998903 
2.0501585e+2, 2.75648e+2, -281060.38, -386856.6, -24569.807, -0.13241178, -0.67220885, -275632.8, -37035.43, 0.00000002096579, 10.000266, 9.998875 
2.0501842e+2, 2.8564727e+2, -184337.27, -261227.08, -75402.055, -0.15619618, -0.63963354, -138144.83, 2458.9282, 0.0000012828043, 10.000136, 9.999127 
2.0502101e+2, 2.9564834e+2, -58183.496, -141247.81, -64839.496, -0.10221951, -0.4744863, -22715.135, 19878.42, 0.000007381431, 10.000288, 9.999206 
2.0502415e+2, 3.056484e+2, 134034.36, 14980.24, -119538.61, 0.070389315, -0.4078034, 208047.38, 208047.38, 0.000026183789, 10.001125, 9.999547 
2.0502482e+2, 3.1564835e+2, 196437.7, -163552.45, -59389.375, 0.08653627, -0.37538183, 205982.4, 205982.4, 0.00007851838, 10.002418, 9.997692 
2.1498597e+2, 1.2565315e+2, -1948969.8, -1762535.1, -54194.996, 0.0377397, -0.408637, -1747925.9, -39371.113, 0.0011273269, 9.998068, 10.000586 
2.149893e+2, 1.356518e+2, -1791514.8, -1674212.5, 55416.777, 0.027610563, -0.5872847, -1652173.0, -41604.805, 0.0006276391, 9.998667, 10.000238 
2.1499161e+2, 1.4565255e+2, -1587976.4, -1493078.0, -6101.489, -0.044188447, -0.54747045, -1492687.4, 19873.217, 0.0002466057, 9.999236, 10.000526 
2.1499296e+2, 1.5565394e+2, -1387197.0, -1365198.4, 5777.6196, -0.12304726, -0.4789543, -1363773.3, 50772.96, 0.000052325075, 10.00003, 10.000348 
2.1499515e+2, 1.6565436e+2, -1343882.9, -1404551.1, -37114.96, -0.06185511, -0.4164679, -1326282.9, -9740.066, 0.000002586899, 10.000144, 9.999346 
2.1499823e+2, 1.7565395e+2, -1293849.6, -1330613.6, -54557.133, 0.11573966, -0.41338098, -1254661.0, -36112.816, 0.000000000052014764, 9.999821, 9.999337 
2.1499985e+2, 1.8565346e+2, -1254587.3, -1231697.0, -69030.88, 0.13646662, -0.40752596, -1173168.9, -52615.66, 0.0, 9.999275, 9.999613 
2.1500035e+2, 1.9565278e+2, -1257305.3, -1184361.5, -64511.766, 0.031925753, -0.46070603, -1146725.6, -124166.375, 0.0, 9.9985895, 9.999595 
2.1500222e+2, 2.0565163e+2, -1047141.56, -1067601.6, -32136.895, 0.03333444, -0.5153716, -1023645.7, -99077.46, 0.0, 9.999524, 9.9992695 
2.150052e+2, 2.1565005e+2, -631946.5, -819627.06, 9744.275, 0.11645599, -0.62013614, -631442.0, 195138.06, 0.0, 10.001712, 9.999246 
2.1500668e+2, 2.256497e+2, -587609.6, -785229.94, -15501.05, 0.076410934, -0.5587928, -586401.1, 142182.78, 0.0, 10.001512, 9.9989 
2.15007e+2, 2.3565021e+2, -790384.25, -832077.5, -38842.473, -0.0656669, -0.42196706, -767147.75, -136565.17, 0.0, 9.99944, 9.998908 
2.1500947e+2, 2.4564937e+2, -683745.06, -672723.0, -50435.043, -0.009192886, -0.42055875, -627498.8, -94908.18, 0.0, 9.999256, 9.999415 
2.1501361e+2, 2.5564748e+2, -422996.2, -507335.9, -39477.34, 0.2002044, -0.5707118, -407401.38, 27204.416, 0.0, 10.000418, 9.999321 
2.1501604e+2, 2.6564693e+2, -350362.4, -528080.06, -15637.483, 0.16803122, -0.50383115, -348996.94, -12385.104, 0.0, 10.000713, 9.998359 
2.1501707e+2, 2.7564716e+2, -328809.94, -466534.8, -32650.01, -0.057926483, -0.33998168, -321461.78, -82848.28, 0.00000000626477, 10.00018, 9.998369 
2.1501903e+2, 2.856454e+2, -160000.25, -200371.48, -78027.71, -0.12841786, -0.41212028, -99589.445, 41039.684, 0.00000075455597, 10.000095, 9.999564 
2.1502171e+2, 2.956426e+2, -45949.05, -101631.98, -48327.37, -0.082749076, -0.6729716, -18017.03, 24633.328, 0.0000049684672, 10.000228, 9.999507 
2.1502489e+2, 3.0564314e+2, 109514.94, -37968.3, -75195.57, 0.015114641, -0.5480889, 141092.83, 141092.83, 0.000019548965, 10.001128, 9.999187 
2.1502596e+2, 3.1564426e+2, 162475.88, -218536.52, 32931.42, -0.08164134, -0.36854765, 165301.23, 165301.23, 0.00006122242, 10.002343, 9.997358 
2.2498648e+2, 1.2565076e+2, -1705799.1, -1659330.6, -95959.664, 0.20861657, -0.36915115, -1583832.5, 124748.72, 0.0009979393, 9.999783, 10.000473 
2.2498772e+2, 1.3564976e+2, -1780675.4, -1686299.8, -8665.348, 0.0022165622, -0.49778125, -1685510.6, -74918.87, 0.0005469221, 9.99883, 10.000071 
2.2499034e+2, 1.4565003e+2, -1688579.3, -1547348.0, -33184.02, -0.05647462, -0.49589872, -1539939.5, -27351.37, 0.00020906674, 9.998575, 10.000476 
2.2499336e+2, 1.5565114e+2, -1547453.5, -1448094.3, -67919.69, -0.02568538, -0.44906214, -1413624.4, 950.4034, 0.000042237294, 9.998955, 10.0003 
2.2499558e+2, 1.6565105e+2, -1486259.0, -1481615.6, -107579.43, 0.02004894, -0.4316308, -1376332.9, -59758.145, 0.0000020119714, 9.999192, 9.999279 
2.2499737e+2, 1.7564991e+2, -1387296.9, -1388264.8, -94929.04, 0.082974434, -0.49432954, -1292850.5, -74264.59, 0.0, 9.999221, 9.999235 
2.2499903e+2, 1.8564938e+2, -1197571.1, -1218058.0, -65708.52, 0.10655637, -0.4796891, -1141312.4, -20720.484, 0.0, 9.999735, 9.99948 
2.2500053e+2, 1.9564928e+2, -979294.75, -1062036.0, -77031.555, 0.096030556, -0.46193025, -933227.44, 89366.76, 0.0, 10.000566, 9.999479 
2.2500281e+2, 2.0564863e+2, -870014.6, -937427.8, -30245.629, 0.09197201, -0.4806735, -858434.0, 66164.695, 0.0, 10.000542, 9.999679 
2.2500567e+2, 2.156475e+2, -888594.3, -902953.7, -45638.09, 0.09448423, -0.58344924, -849574.6, -22969.04, 0.0, 9.999773, 9.999611 
2.2500724e+2, 2.2564702e+2, -854955.3, -960169.7, -103648.984, 0.06611322, -0.5308739, -791327.3, -62716.1, 0.0, 9.999871, 9.998494 
2.250078e+2, 2.3564693e+2, -650027.44, -808264.5, -104694.6, 0.017807301, -0.41295165, -597918.3, 32698.629, 0.0, 10.000592, 9.998516 
2.250104e+2, 2.4564575e+2, -432266.84, -589019.1, -45606.93, 0.06767638, -0.40992042, -419963.25, 112665.88, 0.0, 10.001142, 9.999085 
2.2501455e+2, 2.5564367e+2, -271429.53, -466403.75, -77367.81, 0.19916159, -0.54705715, -244459.77, 190187.0, 0.0, 10.001592, 9.99904 
2.2501692e+2, 2.656433e+2, -253858.64, -446489.63, -65957.56, 0.1632345, -0.46615514, -233439.08, 103211.61, 0.0, 10.001221, 9.998675 
2.2501788e+2, 2.7564406e+2, -291996.22, -417912.66, -28011.57, 0.004208258, -0.28109896, -286045.9, -47400.06, 0.00000000006385136, 10.000289, 9.998653 
2.2501987e+2, 2.8564218e+2, -116949.1, -204780.03, -8709.8545, -0.06750844, -0.36852047, -116093.71, 24568.283, 0.00000032397858, 10.000487, 9.99935 
2.2502266e+2, 2.9563862e+2, 119776.93, -55820.883, -48148.16, -0.06841039, -0.6858574, 132112.39, 174803.03, 0.000003287384, 10.001505, 9.99921 
2.2502589e+2, 3.0563888e+2, 181707.27, -55333.63, -78113.62, -0.025498921, -0.543616, 205133.4, 205133.4, 0.00001589248, 10.001844, 9.99872 
2.2502774e+2, 3.1563893e+2, 84925.05, -243270.17, 15418.604, -0.09793896, -0.4387355, 85647.82, 85647.82, 0.000052100033, 10.001742, 9.997481 
2.34987e+2, 1.2564798e+2, -1709287.1, -1684581.5, -166420.0, 0.23265152, -0.3070534, -1530056.5, 178559.03, 0.0008671324, 9.999862, 10.000263 
2.3498502e+2, 1.356487e+2, -1783979.1, -1711543.5, -43696.207, -0.17174894, -0.24251051, -1691006.6, -80395.734, 0.0004662031, 9.998894, 9.999875 
2.3498851e+2, 1.4564838e+2, -1717985.0, -1600125.1, -28489.174, -0.11690006, -0.27310354, -1593600.0, -80987.62, 0.00017258529, 9.998545, 10.000128 
2.3499522e+2, 1.5564811e+2, -1565108.3, -1489883.1, -45254.84, 0.23923428, -0.32739723, -1468651.0, -54041.117, 0.000033446406, 9.998978, 10.000004 
2.3499686e+2, 1.6564706e+2, -1455203.5, -1410924.3, -115967.66, 0.20688029, -0.41754866, -1315001.8, 1614.0101, 0.0000017722703, 9.9991665, 9.99978 
2.3499487e+2, 1.756452e+2, -1349252.1, -1311241.0, -85071.086, -0.111002624, -0.60619754, -1243078.3, -24448.12, 0.0000000001389195, 9.999226, 9.999764 
2.3499668e+2, 1.8564501e+2, -1219315.6, -1249169.4, -41702.305, -0.119183816, -0.5732667, -1189949.3, -69316.695, 0.0, 9.999678, 9.999296 
2.3500134e+2, 1.956461e+2, -996087.1, -1090780.1, -42208.99, 0.101099625, -0.4148057, -980004.25, 42621.69, 0.0, 10.000538, 9.999296 
2.3500396e+2, 2.0564632e+2, -887342.2, -954742.7, -66460.74, 0.1392626, -0.3356751, -846525.75, 78099.82, 0.0, 10.000464, 9.999597 
2.3500507e+2, 2.1564573e+2, -906576.56, -919984.2, -63103.113, 0.037835993, -0.37507865, -849822.2, -23191.123, 0.0, 9.999683, 9.999537 
2.3500693e+2, 2.256446e+2, -868729.1, -963826.4, -82631.71, 0.032665007, -0.38508385, -820942.2, -92299.914, 0.0, 9.99977, 9.998516 
2.3500937e+2, 2.3564292e+2, -664257.9, -816766.8, -70140.484, 0.09614151, -0.4241713, -636905.25, -6246.1475, 0.0, 10.000504, 9.998501 
2.3501156e+2, 2.4564148e+2, -482046.47, -680508.25, -37685.492, 0.052077997, -0.41610608, -475131.38, 57542.83, 0.0, 10.001091, 9.998481 
2.350136e+2, 2.5564015e+2, -320332.16, -544669.94, -56260.67, -0.074389145, -0.4207635, -307013.53, 127674.94, 0.0, 10.0014925, 9.998549 
2.3501578e+2, 2.6563933e+2, -176273.17, -274420.47, -108853.836, -0.091671154, -0.42440668, -105942.54, 230751.34, 0.0, 10.001176, 9.99988 
2.3501801e+2, 2.7563876e+2, -226639.88, -265562.8, -49523.977, -0.028783841, -0.4911042, -192890.69, 45803.594, 0.0, 10.000216, 9.999738 
2.3502065e+2, 2.8563765e+2, -183451.53, -333958.88, 22346.16, -0.057297524, -0.504696, -180203.83, -39501.504, 0.00000009734078, 10.000449, 9.998482 
2.3502357e+2, 2.9563624e+2, 45899.68, -191001.11, -6266.5015, -0.14952898, -0.5173058, 46065.324, 88780.555, 0.0000024854203, 10.001419, 9.998326 
2.3502684e+2, 3.056356e+2, 144889.63, -126550.08, -88030.33, -0.13329919, -0.39831987, 170938.8, 170938.8, 0.00001465121, 10.001816, 9.998248 
2.3502964e+2, 3.1563237e+2, 118314.68, -161374.06, 49904.977, -0.12135418, -0.57545996, 126952.48, 126952.48, 0.000049295926, 10.001676, 9.998083 
2.449855e+2, 1.2564452e+2, -2084821.8, -1913210.8, -60748.742, 0.2236501, -0.36101773, -1893883.0, -185235.97, 0.0007416808, 9.9974985, 9.999837 
2.4498564e+2, 1.3564593e+2, -1487578.3, -1601262.6, 22215.436, -0.10136647, -0.198558, -1483391.3, 127246.43, 0.00038814702, 10.001075, 9.999582 
2.449893e+2, 1.456451e+2, -1310870.3, -1448683.1, -20607.064, -0.034951854, -0.24349211, -1307854.9, 204790.3, 0.00013769997, 10.001521, 9.999732 
2.4499427e+2, 1.5564428e+2, -1499410.6, -1500007.8, -54006.824, 0.2210175, -0.3157181, -1445701.5, -31052.557, 0.000025817635, 9.999615, 9.999624 
2.4499585e+2, 1.6564317e+2, -1417484.5, -1369098.5, -79851.375, 0.18624862, -0.40422487, -1309855.6, 6799.9727, 0.0000016011192, 9.99933, 9.999985 
2.4499525e+2, 1.7564158e+2, -1191266.4, -1213698.1, -91125.52, -0.040051796, -0.58546025, -1110669.1, 107997.78, 0.0000000006420841, 10.000225, 9.99995 
2.4499732e+2, 1.856415e+2, -1123842.8, -1183581.6, -45143.305, -0.044921767, -0.56061137, -1099581.9, 21086.06, 0.0, 10.000244, 9.999472 
2.4500136e+2, 1.9564256e+2, -1138797.8, -1142435.8, -33234.273, 0.106539026, -0.42282242, -1107332.8, -84671.73, 0.0, 9.999485, 9.999444 
2.4500358e+2, 2.0564304e+2, -1032135.06, -1041160.6, -39891.453, 0.10526185, -0.316107, -996501.94, -71842.586, 0.0, 9.999543, 9.999446 
2.4500456e+2, 2.1564297e+2, -851111.75, -908351.2, -55227.87, 0.0026848114, -0.2884509, -817528.5, 9133.927, 0.0, 10.000136, 9.999397 
2.4500711e+2, 2.2564167e+2, -678013.8, -859339.94, -23165.521, 0.01593, -0.31603593, -675101.06, 53573.957, 0.0, 10.001024, 9.998629 
2.4501084e+2, 2.356393e+2, -425956.2, -691633.5, -20554.635, 0.117742546, -0.4367547, -424375.34, 206320.52, 0.0, 10.002102, 9.9985895 
2.4501285e+2, 2.4563779e+2, -450518.97, -703388.5, -17117.582, 0.056566365, -0.42011955, -449365.5, 83346.19, 0.0, 10.00147, 9.998145 
2.450136e+2, 2.556369e+2, -627550.6, -728349.44, -29599.91, -0.120290995, -0.34626654, -619501.3, -184777.22, 0.0, 9.999536, 9.998234 
2.45016e+2, 2.6563576e+2, -391993.53, -379976.13, -67700.72, -0.1098379, -0.36588496, -318018.0, 18714.705, 0.0, 9.999696, 9.99987 
2.4501963e+2, 2.756344e+2, -42370.98, -175783.3, -115419.28, 0.05039868, -0.5113458, 24231.979, 262971.0, 0.0, 10.001489, 9.999737 
2.4502254e+2, 2.856333e+2, -43206.914, -288691.1, -57984.277, 0.03968769, -0.51302373, -30199.98, 110547.22, 0.00000009803459, 10.001511, 9.998282 
2.4502492e+2, 2.9563236e+2, -150036.58, -300725.13, -53043.89, -0.08953786, -0.4598653, -133237.4, -90479.99, 0.0000023443192, 10.000147, 9.998183 
2.4502766e+2, 3.056317e+2, -127146.71, -237254.75, -47035.8, -0.1282743, -0.3471961, -109790.016, -109790.016, 0.000014050109, 9.999874, 9.998415 
2.4503137e+2, 3.156288e+2, -5642.1343, -119665.47, 114117.23, -0.04324896, -0.51326585, 64912.15, 64912.15, 0.000047419504, 10.00042, 9.998955 
2.549814e+2, 1.2564048e+2, -2126428.0, -2004971.4, 53920.363, 0.019344414, -0.524225, -1984488.0, -275813.0, 0.000622871, 9.997525, 9.999192 
2.5498942e+2, 1.356413e+2, -1506676.0, -1643836.1, 148163.7, 0.14818685, -0.38498753, -1411990.3, 198682.92, 0.00031436078, 10.001097, 9.999275 
2.549927e+2, 1.4564016e+2, -1344052.4, -1520398.5, -101176.23, 0.12557808, -0.4221893, -1298020.0, 214667.31, 0.00010539114, 10.00153, 9.999236 
2.5499013e+2, 1.5563963e+2, -1526663.4, -1563253.5, -111056.44, -0.17488551, -0.41951215, -1432405.3, -17712.727, 0.000019009012, 9.999638, 9.99918 
2.5499222e+2, 1.6563937e+2, -1432972.0, -1389981.3, -52292.418, -0.12825531, -0.39564672, -1354938.6, -38244.203, 0.0000013062046, 9.9992895, 9.999858 
2.5499827e+2, 1.7563911e+2, -1197968.5, -1225686.0, -51662.457, 0.21591921, -0.43085614, -1158338.3, 60357.566, 0.000000000635992, 10.000223, 9.999866 
2.5500074e+2, 1.8563887e+2, -1094565.0, -1112390.3, -80351.94, 0.25283077, -0.4442542, -1022632.9, 98064.76, 0.0, 10.000198, 9.999984 
2.5500032e+2, 1.9563861e+2, -1108359.0, -1072334.4, -51670.62, 0.032900143, -0.4931451, -1035626.5, -12926.428, 0.0, 9.999453, 9.999942 
2.550015e+2, 2.0563875e+2, -1064925.1, -1087479.4, -24217.396, -0.075021274, -0.42899066, -1049487.9, -124787.164, 0.0, 9.999452, 9.999171 
2.550039e+2, 2.1563908e+2, -875923.25, -946532.25, -23788.453, -0.096476294, -0.33474654, -868656.7, -41955.664, 0.0, 10.000077, 9.999165 
2.5500748e+2, 2.2563809e+2, -671716.0, -828952.5, 9836.366, -0.06545986, -0.33177155, -671103.06, 57607.29, 0.0, 10.000949, 9.998875 
2.5501192e+2, 2.3563595e+2, -421843.06, -664557.7, 21521.322, -0.0023717405, -0.4560994, -419949.56, 210778.2, 0.0, 10.002018, 9.9988165 
2.5501403e+2, 2.4563466e+2, -465331.75, -722521.8, -97831.05, 0.0084945755, -0.42317635, -432348.34, 100393.34, 0.0, 10.00142, 9.998036 
2.550143e+2, 2.556339e+2, -651703.56, -760165.7, -87901.24, -0.024019547, -0.32508296, -602650.4, -167896.27, 0.0, 9.999452, 9.998057 
2.5501728e+2, 2.6563263e+2, -482492.8, -556492.6, -7027.127, 0.03264625, -0.2887434, -481831.44, -145064.19, 0.0, 9.99965, 9.998681 
2.5502238e+2, 2.7563086e+2, -128612.695, -339366.94, -45940.1, 0.15585884, -0.35337794, -119034.04, 119747.45, 0.0, 10.001413, 9.998655 
2.5502527e+2, 2.8562906e+2, -20795.564, -223025.81, -118284.055, 0.14214951, -0.40271813, 33702.246, 174499.97, 0.00000013920514, 10.001441, 9.998761 
2.5502634e+2, 2.95627e+2, -128665.09, -227850.27, -93747.41, 0.01754327, -0.5109299, -72201.086, -29383.873, 0.0000022917138, 10.000033, 9.9987335 
2.550281e+2, 3.0562705e+2, -75658.23, -126913.414, -31505.256, -0.09058305, -0.39625466, -60673.574, -60673.574, 0.000012885881, 9.999857, 9.999183 
2.550324e+2, 3.1562766e+2, 53812.176, 16384.19, 162201.22, -0.026222493, -0.27241272, 198375.39, 198375.39, 0.000044516015, 10.0003605, 9.999925 
2.649808e+2, 1.2563561e+2, -1675408.9, -1761512.8, -19860.69, 0.06903855, -0.59472615, -1671048.6, 37671.813, 0.0005136847, 10.000487, 9.999429 
2.649896e+2, 1.3563684e+2, -1801055.9, -1734664.3, 100899.32, 0.18218441, -0.4714033, -1661640.4, -50928.004, 0.0002486243, 9.998824, 9.999755 
2.6499313e+2, 1.4563593e+2, -1781900.3, -1731760.4, -125192.46, 0.17323264, -0.5075675, -1629152.4, -116427.74, 0.00007773356, 9.998537, 9.999227 
2.6498973e+2, 1.5563542e+2, -1512084.9, -1555456.3, -116236.66, -0.17857297, -0.5007308, -1415528.3, -795.73474, 0.000013419433, 9.999742, 9.999182 
2.6499176e+2, 1.6563578e+2, -1323745.1, -1346433.6, -1577.235, -0.13513274, -0.41173592, -1323636.0, -6905.05, 0.0000010267595, 10.000067, 9.999792 
2.6499838e+2, 1.7563662e+2, -1297077.0, -1279560.3, -12307.291, 0.24394664, -0.32950175, -1273213.0, -54489.28, 0.0000000012219834, 9.999565, 9.999814 
2.650009e+2, 1.8563643e+2, -1184627.3, -1157585.3, -60955.082, 0.28462574, -0.33511716, -1108669.5, 12055.993, 0.0, 9.999588, 9.999969 
2.650002e+2, 1.956354e+2, -1042057.44, -1046709.25, -88401.77, 0.052765056, -0.45758617, -955951.0, 66783.836, 0.0, 9.999932, 9.999891 
2.650016e+2, 2.0563501e+2, -908488.6, -1028235.2, -25858.74, -0.060831204, -0.43579626, -903143.2, 21596.625, 0.0, 10.000602, 9.999021 
2.6500478e+2, 2.1563505e+2, -693925.75, -878379.44, -36948.84, -0.07924848, -0.3551647, -686799.6, 139942.81, 0.0, 10.001416, 9.998986 
2.650083e+2, 2.2563425e+2, -689029.7, -840802.44, -35891.64, -0.068438046, -0.32190692, -680969.94, 47780.62, 0.0, 10.00084, 9.998848 
2.6501215e+2, 2.3563278e+2, -842537.44, -872310.56, -62432.26, -0.03145637, -0.37459847, -793241.44, -162478.3, 0.0, 9.999146, 9.998777 
2.650147e+2, 2.4563149e+2, -716548.94, -829501.5, -149870.6, 0.027237613, -0.3449778, -612866.7, -80089.7, 0.0, 9.999646, 9.998154 
2.650162e+2, 2.556302e+2, -290098.75, -572305.75, -134682.16, 0.10655444, -0.31150532, -236139.5, 198653.31, 0.0, 10.001893, 9.998163 
2.6501897e+2, 2.6562864e+2, -197110.83, -472308.47, -9206.194, 0.13293166, -0.28247827, -196803.19, 140005.9, 0.0, 10.001835, 9.998209 
2.6502272e+2, 2.7562696e+2, -366447.84, -497866.28, -11710.377, 0.12857269, -0.2952286, -365412.53, -126587.46, 0.0, 9.99998, 9.998252 
2.6502576e+2, 2.856253e+2, -224757.13, -310309.56, -56759.977, 0.12657873, -0.3147926, -196459.44, -55618.9, 0.00000017298198, 9.99998, 9.998867 
2.6502812e+2, 2.9562342e+2, 83971.16, -106861.84, -74956.42, 0.13069154, -0.41927052, 109892.09, 152750.63, 0.000002277503, 10.001396, 9.998915 
2.6502904e+2, 3.056231e+2, 193323.64, -21345.28, -41563.074, -0.06864076, -0.33858368, 201089.9, 201089.9, 0.000011802607, 10.001796, 9.998989 
2.6503256e+2, 3.1562352e+2, 177281.83, 70626.72, 55166.273, -0.08057009, -0.20929506, 200682.02, 200682.02, 0.000041814666, 10.001216, 9.999895 
2.749834e+2, 1.2562965e+2, -1589887.9, -1593819.3, -108621.625, 0.22629622, -0.5978329, -1483214.1, 225571.72, 0.00042107303, 10.000526, 10.000562 
2.7498585e+2, 1.3563257e+2, -1700509.0, -1535677.3, 42637.543, -0.10260747, -0.44354907, -1525301.3, 85452.99, 0.00019522583, 9.998863, 10.001101 
2.749903e+2, 1.4563249e+2, -1750089.9, -1665994.8, -94573.266, 0.008849007, -0.48343235, -1604543.0, -91786.67, 0.000056360343, 9.998544, 9.999671 
2.7499285e+2, 1.5563168e+2, -1481660.5, -1492278.8, -65905.44, 0.13642927, -0.55259687, -1420850.8, -6081.673, 0.000009372096, 9.99975, 9.999609 
2.7499437e+2, 1.6563238e+2, -1319562.8, -1338745.6, -28371.023, 0.097283535, -0.45179406, -1299205.8, 17559.648, 0.0000008660051, 10.000068, 9.999842 
2.749953e+2, 1.7563406e+2, -1296325.4, -1281727.5, -22145.992, -0.045607455, -0.2907972, -1265708.6, -46957.418, 0.000000004874734, 9.999579, 9.99979 
2.7499753e+2, 1.856341e+2, -1235448.9, -1248902.4, -55864.0, -0.03227494, -0.23758121, -1185908.1, -65155.82, 0.0, 9.999533, 9.999367 
2.750006e+2, 1.9563293e+2, -1083798.4, -1125390.6, -65491.977, 0.0811707, -0.31771195, -1035880.0, -13115.128, 0.0, 9.999904, 9.999361 
2.7500373e+2, 2.0563191e+2, -925567.9, -1047491.1, -2525.2446, 0.076044984, -0.3279627, -925515.6, -740.09106, 0.0, 10.000529, 9.998926 
2.750069e+2, 2.1563083e+2, -713085.44, -897222.3, -3587.462, -0.026682826, -0.35212117, -713015.56, 113771.14, 0.0, 10.001324, 9.998901 
2.7500936e+2, 2.256301e+2, -733133.06, -905048.2, -107131.85, -0.06226146, -0.28807884, -681737.3, 47058.45, 0.0, 10.000726, 9.998463 
2.7501127e+2, 2.3562965e+2, -879627.6, -926203.5, -111397.75, -0.05150798, -0.19978917, -789109.6, -158306.3, 0.0, 9.999049, 9.998456 
2.750146e+2, 2.4562815e+2, -698881.8, -778487.0, -72990.91, 0.03837611, -0.19654943, -655546.44, -122727.79, 0.0, 9.999586, 9.998531 
2.7501908e+2, 2.5562567e+2, -276761.66, -528433.06, -51587.83, 0.1822902, -0.3220839, -266597.63, 168243.89, 0.0, 10.001817, 9.998504 
2.7502087e+2, 2.6562378e+2, -189861.8, -443812.75, -89343.85, 0.1184251, -0.35134757, -161579.11, 175279.81, 0.0, 10.001781, 9.998429 
2.7502048e+2, 2.7562243e+2, -365077.0, -479096.66, -66199.766, -0.1143515, -0.3508207, -334722.47, -95850.61, 0.00000000009324417, 9.99991, 9.998417 
2.7502385e+2, 2.856218e+2, -245076.03, -342230.0, -11535.67, -0.08290205, -0.265339, -243725.11, -102846.49, 0.00000023612336, 9.999939, 9.998664 
2.7502993e+2, 2.9562145e+2, 60672.176, -139064.63, -16769.3, 0.14659137, -0.19311363, 62070.29, 104953.195, 0.0000024951785, 10.001324, 9.998727 
2.7503017e+2, 3.0562004e+2, 115358.77, -170588.83, -70820.664, -0.15716662, -0.16738836, 131937.7, 131937.7, 0.000011675634, 10.001756, 9.997973 
2.750312e+2, 3.1561652e+2, 80700.72, -95079.52, 40181.203, -0.37690008, -0.32356367, 89450.15, 89450.15, 0.000040361934, 10.001074, 9.99882 
2.8498355e+2, 1.2562686e+2, -1654963.8, -1601424.8, 15133.849, 0.22609311, -0.46773934, -1597443.0, 111377.07, 0.00034660724, 9.999983, 10.00077 
2.849845e+2, 1.356293e+2, -1641415.9, -1458804.6, 50704.63, -0.12359342, -0.40077895, -1445670.4, 165120.0, 0.00015383559, 9.999082, 10.001513 
2.8498968e+2, 1.4562972e+2, -1680890.9, -1619393.1, -30732.912, 0.07971099, -0.41858628, -1606667.9, -93881.2, 0.00004093297, 9.998959, 9.999794 
2.8499404e+2, 1.5562926e+2, -1492037.9, -1487096.0, -47028.637, 0.29277733, -0.46298742, -1442473.4, -27677.314, 0.0000066741927, 9.99962, 9.999713 
2.8499517e+2, 1.6562966e+2, -1348755.8, -1368245.1, -53996.21, 0.18123813, -0.3905284, -1303632.0, 13163.617, 0.00000074756446, 9.999946, 9.999697 
2.8499407e+2, 1.7563048e+2, -1241883.0, -1275637.8, -79569.3, -0.14499639, -0.2955614, -1177420.9, 41368.688, 0.000000006090155, 10.000038, 9.9996195 
2.8499627e+2, 1.8563041e+2, -1143938.1, -1213020.1, -62948.375, -0.13773724, -0.24192998, -1106676.8, 14114.766, 0.0, 10.000198, 9.99929 
2.85001e+2, 1.9562969e+2, -1028730.2, -1110331.6, -51633.773, 0.11456467, -0.2664553, -1003722.56, 19077.047, 0.0, 10.00033, 9.999262 
2.850048e+2, 2.0562875e+2, -956753.3, -1073325.6, 41505.547, 0.14355046, -0.25955147, -943485.4, -18675.822, 0.0, 10.000363, 9.998821 
2.850079e+2, 2.156275e+2, -880183.2, -989888.9, 18061.127, -0.0003885185, -0.29042774, -877286.25, -50463.48, 0.0, 10.000237, 9.998782 
2.8501e+2, 2.2562656e+2, -811142.6, -951323.8, -96035.53, -0.040254574, -0.23761113, -762340.4, -33505.973, 0.0, 10.000229, 9.9983835 
2.8501138e+2, 2.3562582e+2, -705120.06, -849704.7, -86578.57, 0.002429825, -0.16924438, -664620.44, -33775.23, 0.0, 10.000277, 9.99839 
2.8501478e+2, 2.4562424e+2, -562450.3, -691348.75, 44166.496, 0.059552006, -0.1826871, -548768.94, -15907.986, 0.0, 10.00042, 9.998728 
2.850198e+2, 2.5562194e+2, -432073.25, -580900.1, 29874.102, 0.13406248, -0.30976838, -426300.5, 8580.349, 0.0, 10.000657, 9.998698 
2.8502157e+2, 2.656205e+2, -306307.66, -478216.22, -71944.52, 0.06213677, -0.31331527, -280172.0, 56721.445, 0.0, 10.000897, 9.998611 
2.8502095e+2, 2.756197e+2, -182006.63, -373262.56, -64440.523, -0.11197631, -0.27997747, -162320.72, 76580.72, 0.0000000018932573, 10.001093, 9.998569 
2.8502432e+2, 2.8561872e+2, -163413.23, -373057.44, 35820.03, -0.0658536, -0.20351702, -157461.94, -16549.908, 0.00000028816427, 10.000799, 9.998046 
2.850307e+2, 2.956176e+2, -144592.13, -298080.53, -16427.148, 0.15449719, -0.1449284, -142853.69, -99928.8, 0.0000027347362, 10.000181, 9.998185 
2.8503057e+2, 3.0561575e+2, -129214.67, -321782.25, -61593.2, -0.20463537, -0.12784499, -111199.336, -111199.336, 0.000012525966, 10.000202, 9.997683 
2.8503188e+2, 3.1561163e+2, -48202.27, -167968.61, 53552.48, -0.362267, -0.31136954, -27749.504, -27749.504, 0.000040482082, 10.000231, 9.99872 
2.9498056e+2, 1.2562746e+2, -1696908.1, -1707585.6, -29788.02, -0.12905866, -0.19198437, -1671984.3, 36837.066, 0.00028487924, 10.00006, 10.000006 
2.949854e+2, 1.3562709e+2, -1680212.8, -1549341.0, 20749.018, 0.0312766, -0.34459376, -1546130.1, 64690.535, 0.000121053716, 9.999131, 10.000864 
2.9499114e+2, 1.456275e+2, -1687531.6, -1645088.8, -20641.934, 0.30225575, -0.32049128, -1636705.5, -123888.945, 0.000029834508, 9.998998, 9.999604 
2.9499292e+2, 1.5562816e+2, -1505772.3, -1519113.0, -18167.34, 0.19452102, -0.23392975, -1493089.4, -78275.72, 0.000004731658, 9.999634, 9.999488 
2.9499388e+2, 1.6562761e+2, -1379514.1, -1425878.0, -57462.48, 0.03626965, -0.22318482, -1340733.6, -23912.545, 0.00000054097734, 9.999925, 9.999309 
2.949944e+2, 1.75626e+2, -1262398.6, -1316366.4, -64574.957, -0.13659379, -0.33879888, -1219396.4, -558.7425, 0.0000000012704189, 10.00004, 9.999332 
2.9499698e+2, 1.8562543e+2, -1119178.4, -1156418.8, -65219.89, -0.10789522, -0.34517205, -1069972.8, 50869.934, 0.0, 10.000171, 9.999696 
2.9500106e+2, 1.9562559e+2, -1008943.4, -1062645.8, -38724.176, 0.06551757, -0.3175962, -988671.9, 34167.555, 0.0, 10.0003, 9.999603 
2.9500452e+2, 2.0562543e+2, -979985.06, -1102946.0, 30580.744, 0.06047864, -0.24120955, -972799.44, -47956.723, 0.0, 10.000284, 9.998656 
2.950074e+2, 2.1562494e+2, -902273.6, -1012844.06, 22907.445, -0.09210139, -0.17915834, -897715.6, -70863.97, 0.0, 10.000142, 9.998668 
2.9501e+2, 2.2562355e+2, -809769.8, -922730.7, -102252.96, -0.08132679, -0.18012805, -749435.44, -20568.422, 0.0, 10.000119, 9.9986315 
2.9501238e+2, 2.3562135e+2, -703360.06, -821519.06, -75364.82, 0.056791168, -0.28276116, -666678.2, -35789.973, 0.0, 10.000175, 9.99863 
2.950151e+2, 2.4561992e+2, -567968.94, -691330.6, 45338.043, 0.029952362, -0.29311964, -553098.75, -20196.482, 0.0, 10.000365, 9.998761 
2.9501805e+2, 2.55619e+2, -438814.03, -580906.06, 45778.957, -0.12532124, -0.27954188, -425342.28, 9568.962, 0.0, 10.000591, 9.998738 
2.950209e+2, 2.6561868e+2, -299103.63, -455570.38, -71467.2, -0.11470901, -0.18521453, -271374.63, 65539.805, 0.0, 10.00086, 9.998787 
2.950237e+2, 2.7561864e+2, -183859.55, -362643.97, -53658.934, 0.03206821, -0.08826501, -168991.28, 69923.195, 0.0000000016821552, 10.001026, 9.998676 
2.9502687e+2, 2.8561616e+2, -239139.05, -518911.0, 1796.7483, 0.089227915, -0.11822168, -239127.52, -98187.3, 0.00000022409213, 10.000754, 9.9970665 
2.9503015e+2, 2.9561183e+2, -216688.6, -436697.22, -23158.41, 0.055884566, -0.28172672, -214277.34, -171292.66, 0.0000026534976, 10.00013, 9.997262 
2.9503006e+2, 3.0561012e+2, -103182.2, -258880.75, -60434.1, -0.29719687, -0.2276392, -82477.99, -82477.99, 0.00001292508, 10.000163, 9.998133 
2.9503384e+2, 3.156084e+2, 9217.083, -42803.87, 53959.54, -0.24132472, -0.22037692, 43108.0, 43108.0, 0.00004085486, 10.000195, 9.999597 
3.0498028e+2, 1.2562557e+2, -1827019.3, -1858082.4, 24314.05, -0.12665541, -0.16735326, -1813699.4, -104860.766, 0.00023189351, 9.999552, 9.999228 
3.0498526e+2, 1.3562386e+2, -1459878.1, -1532642.1, 4029.6655, 0.018366266, -0.36573398, -1459655.6, 151199.58, 0.000094942065, 10.001008, 10.00009 
3.0499104e+2, 1.4562461e+2, -1397751.6, -1468922.1, -17801.691, 0.30433866, -0.28905246, -1393547.3, 119301.24, 0.000021738364, 10.000862, 9.999898 
3.0499265e+2, 1.5562586e+2, -1461684.0, -1471723.8, -1625.9681, 0.19986159, -0.16762902, -1461427.3, -46589.48, 0.0000030875526, 9.999837, 9.999708 
3.0499387e+2, 1.6562513e+2, -1439836.8, -1475299.6, 15270.276, 0.06837525, -0.17704304, -1434167.6, -117321.79, 0.0000002653173, 9.999593, 9.999128 
3.0499503e+2, 1.7562276e+2, -1299352.6, -1352259.8, 5389.1504, -0.06344529, -0.3500227, -1298809.3, -79939.65, 0.0, 9.999868, 9.9991665 
3.0499768e+2, 1.8562187e+2, -1121892.4, -1185490.9, 485.09827, -0.055604853, -0.36844662, -1121888.6, -1010.5731, 0.0, 10.000273, 9.999449 
3.0500138e+2, 1.9562198e+2, -961813.9, -1067943.3, -39187.063, 0.050665513, -0.32102272, -948912.8, 73963.23, 0.0, 10.000734, 9.999365 
3.0500454e+2, 2.0562187e+2, -944177.1, -1047517.7, 15961.311, 0.03579543, -0.24528894, -941768.0, -16889.223, 0.0, 10.000367, 9.999 
3.0500728e+2, 2.1562155e+2, -997043.75, -1025121.2, 31893.191, -0.071917675, -0.19760329, -976236.25, -149350.58, 0.0, 9.999336, 9.9989805 
3.0501035e+2, 2.2562042e+2, -836739.2, -904865.2, -9895.338, -0.037660208, -0.2014908, -835331.0, -106433.57, 0.0, 9.999799, 9.998909 
3.0501363e+2, 2.3561859e+2, -504475.9, -697545.7, -1053.6671, 0.10746952, -0.29714787, -504470.16, 126443.56, 0.0, 10.001425, 9.998877 
3.0501598e+2, 2.4561739e+2, -473499.5, -660254.9, 73113.14, 0.053218596, -0.2888671, -448281.56, 84644.03, 0.0, 10.001089, 9.99862 
3.050176e+2, 2.556166e+2, -636398.8, -687047.1, 53563.754, -0.1591328, -0.2504622, -602474.44, -167539.88, 0.0, 9.999295, 9.998625 
3.0502087e+2, 2.6561603e+2, -549909.56, -601775.3, -13797.854, -0.11821269, -0.16606219, -546467.4, -209526.47, 0.0, 9.99924, 9.998568 
3.050255e+2, 2.7561545e+2, -262074.94, -427569.4, -42765.777, 0.13368776, -0.10250816, -251677.03, -12730.223, 0.00000000014964384, 10.0006, 9.998441 
3.0502874e+2, 2.856126e+2, -172841.39, -503626.13, 15297.411, 0.1833853, -0.14379548, -172135.45, -31159.86, 0.00000013461268, 10.001289, 9.996905 
3.050309e+2, 2.9560837e+2, -49253.81, -374391.03, 37581.105, 0.062323242, -0.28541753, -44966.516, -1947.2969, 0.0000024184974, 10.001378, 9.997078 
3.0503088e+2, 3.056064e+2, 52984.44, -191881.08, 23807.838, -0.27677926, -0.24505477, 55277.758, 55277.758, 0.00001259153, 10.001269, 9.998069 
3.0503595e+2, 3.1560516e+2, 101247.01, 21976.447, 46046.918, -0.06845732, -0.18228927, 122367.586, 122367.586, 0.000039631555, 10.000737, 9.999793 
3.1498235e+2, 1.256213e+2, -1867007.6, -1956546.3, 73666.26, 0.07855027, -0.37458444, -1825573.6, -116702.59, 0.00018871382, 9.999626, 9.998511 
3.149837e+2, 1.356199e+2, -1521559.6, -1652748.4, 54047.453, -0.25782862, -0.4500427, -1502161.4, 108730.266, 0.00007509751, 10.0009985, 9.99926 
3.14989e+2, 1.4562126e+2, -1347904.4, -1375105.6, -68631.94, -0.009440586, -0.30600694, -1291538.4, 221341.95, 0.00001598166, 10.000891, 10.000532 
3.1499293e+2, 1.5562238e+2, -1414290.4, -1382765.4, -27514.73, 0.21904652, -0.26584846, -1366818.0, 48050.168, 0.00000170519, 9.999874, 10.000299 
3.1499502e+2, 1.6562214e+2, -1439248.8, -1476035.9, 13600.471, 0.20280156, -0.25172317, -1434766.6, -117895.99, 0.000000057148895, 9.999595, 9.999126 
3.149957e+2, 1.7562076e+2, -1304443.0, -1361190.8, 20668.41, -0.0047532576, -0.32569185, -1297713.4, -78827.82, 0.0, 9.999861, 9.999109 
3.1499803e+2, 1.8561974e+2, -1188694.4, -1319289.9, 9121.64, -0.064932495, -0.30517367, -1188060.4, -67162.76, 0.0, 10.000247, 9.998546 
3.1500164e+2, 1.9561887e+2, -1020809.4, -1179415.4, -17472.408, -0.017309058, -0.2695842, -1018907.4, 4001.3608, 0.0, 10.000688, 9.998622 
3.1500468e+2, 2.0561813e+2, -901312.1, -936911.4, -31936.701, -0.0062462953, -0.2643237, -882549.75, 42367.223, 0.0, 10.000278, 9.999801 
3.150073e+2, 2.1561742e+2, -958307.56, -920827.3, 6998.498, -0.022338215, -0.33546108, -919563.2, -92639.414, 0.0, 9.999238, 9.999742 
3.150108e+2, 2.256173e+2, -823919.9, -860915.94, 43654.086, 0.007784947, -0.29100254, -795006.3, -66081.92, 0.0, 9.9997225, 9.99925 
3.1501487e+2, 2.3561755e+2, -494953.6, -658819.6, 59825.09, 0.07156363, -0.21184768, -475436.8, 155484.84, 0.0, 10.001343, 9.999186 
3.1501722e+2, 2.4561657e+2, -498775.72, -704183.5, -3507.8093, 0.043791775, -0.17931788, -498715.84, 34215.668, 0.0, 10.001051, 9.998335 
3.150181e+2, 2.556147e+2, -669098.25, -735089.06, -2675.5925, -0.054707184, -0.22408105, -668990.0, -234039.02, 0.0, 9.999208, 9.998337 
3.1502125e+2, 2.656126e+2, -594694.8, -687025.1, 30125.227, -0.02233975, -0.24704912, -585735.1, -248762.86, 0.0, 9.999206, 9.998002 
3.1502604e+2, 2.7561006e+2, -304549.63, -501843.4, 14759.948, 0.10821116, -0.32336572, -303451.53, -64453.375, 0.00000000001473293, 10.000538, 9.997963 
3.1502974e+2, 2.8560808e+2, -137020.44, -416556.66, 10508.694, 0.13468154, -0.2875039, -136625.94, 4392.4775, 0.000000108201135, 10.001239, 9.997526 
3.150326e+2, 2.9560706e+2, -25068.71, -308815.66, 48124.145, 0.06856281, -0.16921516, -17128.914, 25901.256, 0.0000023186144, 10.001306, 9.997564 
3.1503284e+2, 3.056044e+2, 10479.785, -271245.34, 1610.5992, -0.22789693, -0.188631, 10488.992, 10488.992, 0.000012381474, 10.001232, 9.997541 
3.1503767e+2, 3.1560177e+2, 67828.61, -31535.313, 26993.342, -0.014128542, -0.22313188, 74688.12, 74688.12, 0.000038035574, 10.000663, 9.999464 
3.2498348e+2, 1.2561649e+2, -1658840.6, -1802991.0, -30557.428, 0.17892596, -0.45392245, -1652630.5, 56286.93, 0.00015750076, 10.000804, 9.999 
3.249842e+2, 1.3561589e+2, -1776494.5, -1766946.5, -20997.713, -0.20938693, -0.4635906, -1750186.9, -139256.61, 0.00006189271, 9.999176, 9.999368 
3.249886e+2, 1.4561753e+2, -1639212.8, -1512785.9, -105463.65, -0.032673214, -0.29921636, -1453041.9, 59874.67, 0.000012633238, 9.998865, 10.000571 
3.2499185e+2, 1.5561794e+2, -1396548.1, -1366152.5, -124289.6, 0.12558562, -0.3348243, -1256135.0, 158776.16, 0.0000008198343, 9.999951, 10.000382 
3.2499456e+2, 1.6561785e+2, -1301005.8, -1390023.6, -71041.06, 0.1576492, -0.31756207, -1261682.3, 55229.973, 0.000000004124255, 10.000475, 9.999284 
3.2499674e+2, 1.756174e+2, -1198144.6, -1297929.3, -70045.23, 0.08506032, -0.31256363, -1162039.4, 56879.19, 0.0, 10.000533, 9.999221 
3.249992e+2, 1.8561667e+2, -1145829.8, -1281758.5, -19880.852, 0.021895317, -0.27628198, -1142981.8, -22053.518, 0.0, 10.000476, 9.998683 
3.250019e+2, 1.9561562e+2, -1070734.8, -1185939.6, 8627.619, -0.03415558, -0.2730255, -1070092.3, -47150.99, 0.0, 10.000282, 9.998762 
3.250047e+2, 2.0561501e+2, -913343.5, -941919.0, -14802.746, -0.021594692, -0.26415306, -907057.94, 17890.285, 0.0, 10.000182, 9.999818 
3.2500762e+2, 2.156147e+2, -834209.0, -859186.75, -44803.945, 0.049068388, -0.29819834, -800185.9, 26765.209, 0.0, 10.00008, 9.999763 
3.2501122e+2, 2.2561443e+2, -769656.44, -835250.44, 18875.666, 0.06839875, -0.26916608, -764612.56, -35659.355, 0.0, 10.000096, 9.999247 
3.2501537e+2, 2.3561409e+2, -654931.56, -735419.7, -7809.0894, 0.047373567, -0.24851067, -654180.94, -23224.951, 0.0, 10.000237, 9.999192 
3.2501796e+2, 2.4561325e+2, -527839.6, -706818.2, -98514.36, 0.03075095, -0.20810702, -484237.2, 48727.465, 0.0, 10.000794, 9.9984455 
3.250193e+2, 2.5561205e+2, -291651.34, -543594.6, -79002.4, 0.020911573, -0.19488935, -268927.88, 166049.86, 0.0, 10.001748, 9.998433 
3.250222e+2, 2.656098e+2, -247310.53, -531065.6, 21859.506, 0.03316067, -0.23193327, -245636.44, 91364.086, 0.0, 10.001654, 9.997888 
3.2502618e+2, 2.7560642e+2, -282747.97, -500215.97, 24940.117, 0.065640606, -0.37865272, -279924.4, -40890.277, 0.00000000010851988, 10.000741, 9.997869 
3.2503036e+2, 2.8560486e+2, -162144.72, -394888.78, 50903.918, 0.09462028, -0.31667414, -151498.4, -10447.664, 0.00000014604628, 10.000906, 9.997844 
3.250347e+2, 2.9560515e+2, 72733.81, -229922.47, 46563.063, 0.12873386, -0.09766064, 79735.47, 122785.17, 0.0000023415487, 10.001837, 9.997851 
3.250348e+2, 3.0560225e+2, 22164.107, -238876.11, -22443.11, -0.14652634, -0.16246252, 24079.613, 24079.613, 0.000012312151, 10.001217, 9.99776 
3.2503784e+2, 3.1559983e+2, -154728.92, -152441.27, 1289.4316, 0.02037956, -0.20441167, -151861.45, -151861.45, 0.000036624067, 9.999227, 9.999308 
3.3498308e+2, 1.2561117e+2, -1539934.9, -1561163.3, -106703.0, 0.008900713, -0.39508772, -1443319.5, 265658.16, 0.00013853858, 10.000834, 10.000642 
3.349865e+2, 1.3561189e+2, -1701481.4, -1603921.1, -78736.25, 0.082459114, -0.39514977, -1560078.9, 50892.13, 0.000055370125, 9.999172, 10.000474 
3.349896e+2, 1.456134e+2, -1674571.1, -1587126.0, -79393.234, 0.15298697, -0.2649883, -1540212.3, -27255.238, 0.000011804474, 9.998866, 10.000061 
3.3498907e+2, 1.5561272e+2, -1421975.0, -1421163.9, -77682.61, -0.16901362, -0.3631918, -1343885.8, 71079.1, 0.00000057438905, 9.999964, 9.999997 
3.3499214e+2, 1.6561247e+2, -1283168.3, -1351449.4, -76015.48, -0.15372589, -0.36216056, -1233978.6, 82990.28, 0.00000000201948, 10.000466, 9.999556 
3.3499792e+2, 1.7561272e+2, -1175153.0, -1250963.6, -59441.965, 0.123525985, -0.31295598, -1142559.0, 76409.49, 0.0, 10.000536, 9.999543 
3.3500093e+2, 1.8561263e+2, -1075409.0, -1122880.1, -36603.547, 0.12580837, -0.28500265, -1055518.9, 65450.973, 0.0, 10.000421, 9.999803 
3.350019e+2, 1.9561215e+2, -1006694.75, -1043590.75, 7930.6943, -0.084831364, -0.33820748, -1005062.3, 17911.94, 0.0, 10.000241, 9.99976 
3.3500433e+2, 2.0561245e+2, -974318.94, -1052095.5, -27878.22, -0.088387184, -0.24491075, -965358.56, -40385.504, 0.0, 10.000114, 9.999094 
3.35008e+2, 2.1561329e+2, -896285.5, -964447.0, -40607.652, 0.06352861, -0.09244809, -877352.3, -50383.95, 0.0, 9.99998, 9.999088 
3.3501148e+2, 2.2561173e+2, -809645.3, -897371.5, 15371.883, 0.06699872, -0.14206783, -807029.75, -78045.55, 0.0, 10.000006, 9.998864 
3.3501482e+2, 2.3560824e+2, -690522.75, -786405.06, 4713.674, -0.04728808, -0.4007797, -690291.56, -59275.004, 0.0, 10.000139, 9.998889 
3.3501798e+2, 2.4560745e+2, -494799.7, -630403.06, -69414.14, -0.06446253, -0.37023234, -465568.44, 67456.18, 0.0, 10.000757, 9.998989 
3.3502093e+2, 2.5560874e+2, -264234.6, -472177.28, -40089.895, -0.010689617, -0.16347747, -256773.27, 178241.02, 0.0, 10.001686, 9.998954 
3.350235e+2, 2.6560763e+2, -233724.89, -496163.22, -20330.242, -0.017699175, -0.122839175, -232159.31, 104866.2, 0.0, 10.001625, 9.99814 
3.3502564e+2, 2.7560446e+2, -275267.2, -466660.16, 1775.9237, -0.08365025, -0.275372, -275250.72, -36194.973, 0.000000000044508567, 10.000664, 9.998135 
3.3503035e+2, 2.8560287e+2, -159176.28, -383647.3, 79490.93, -0.01923425, -0.23749587, -133877.73, 7194.957, 0.00000018851506, 10.000876, 9.997939 
3.3503693e+2, 2.956027e+2, 71095.305, -223000.22, 83979.82, 0.14010379, -0.06987446, 93386.414, 136463.19, 0.0000023038672, 10.001781, 9.997932 
3.350364e+2, 3.0559993e+2, 72374.64, -122218.78, -102240.336, -0.12476071, -0.17090923, 116215.23, 116215.23, 0.000011796056, 10.001167, 9.998582 
3.3503592e+2, 3.1559914e+2, -176613.81, -174156.66, -63084.598, -0.13773699, -0.13156936, -112288.67, -112288.67, 0.000034748333, 9.999123, 9.999211 
3.449828e+2, 1.2560712e+2, -1774554.0, -1619948.3, 13043.501, -0.002501212, -0.3273601, -1618855.5, 90167.44, 0.00012841672, 9.999008, 10.001115 
3.44987e+2, 1.3560805e+2, -1556869.8, -1528170.9, -96781.12, 0.17596103, -0.31761843, -1444681.3, 166331.44, 0.00005393956, 10.000124, 10.00055 
3.4498957e+2, 1.4560917e+2, -1478067.9, -1491665.4, -64838.633, 0.20188798, -0.22891642, -1419672.5, 93329.266, 0.00001321429, 10.000222, 10.000054 
3.449884e+2, 1.556083e+2, -1459702.4, -1443564.4, -53572.945, -0.21468194, -0.34420308, -1397456.1, 17555.441, 0.00000089811203, 9.999722, 9.99996 
3.4499165e+2, 1.6560829e+2, -1345627.1, -1352572.0, -19713.998, -0.21269555, -0.32965517, -1329082.0, -12068.8545, 0.0000000015154811, 9.999902, 9.999824 
3.449982e+2, 1.7560913e+2, -1145118.4, -1201168.6, -19926.043, 0.10200522, -0.24970998, -1138756.8, 80250.2, 0.0, 10.000595, 9.999854 
3.4500146e+2, 1.8560934e+2, -1026213.5, -1058465.4, -40082.023, 0.1323666, -0.22794767, -999135.06, 121869.9, 0.0, 10.00058, 10.00017 
3.450023e+2, 1.9560884e+2, -1025557.94, -1017347.3, -61441.3, -0.05000795, -0.31748044, -959874.3, 63134.3, 0.0, 9.99995, 10.000087 
3.4500474e+2, 2.056091e+2, -930516.1, -1034018.4, -45024.16, -0.07355483, -0.2423862, -913671.7, 11335.577, 0.0, 10.000421, 9.999072 
3.450084e+2, 2.1560985e+2, -647793.75, -849540.6, -25895.965, 0.022976914, -0.09468948, -644522.8, 182480.31, 0.0, 10.001696, 9.999053 
3.4501177e+2, 2.256085e+2, -583317.06, -777399.75, 46269.49, 0.025487855, -0.1270686, -572850.75, 156166.31, 0.0, 10.001517, 9.998959 
3.45015e+2, 2.3560543e+2, -675845.2, -769430.75, 56584.0, -0.041495167, -0.34920725, -649212.44, -18166.666, 0.0, 10.000196, 9.9989805 
3.4501854e+2, 2.4560468e+2, -616391.56, -656490.6, 41399.99, -0.033450004, -0.33770254, -590441.7, -57388.1, 0.0, 9.999792, 9.999273 
3.4502226e+2, 2.5560552e+2, -472549.22, -545041.94, 33727.598, 0.03366057, -0.19833656, -459284.47, -24237.842, 0.0, 10.0001335, 9.999207 
3.450249e+2, 2.6560497e+2, -342581.2, -514370.06, 35392.906, 0.008858169, -0.13077351, -335575.06, 1477.2295, 0.0, 10.000729, 9.99845 
3.450267e+2, 2.7560315e+2, -125420.61, -362127.5, 46694.78, -0.084902644, -0.17735879, -116542.21, 122527.27, 0.0, 10.001551, 9.998432 
3.4503105e+2, 2.8560147e+2, -142033.7, -350299.75, 128670.195, -0.028536038, -0.17030963, -80638.16, 60448.637, 0.00000016974016, 10.000914, 9.99814 
3.4503737e+2, 2.956e+2, -298528.56, -378482.38, 123297.62, 0.14525062, -0.15307337, -208888.9, -165785.61, 0.0000020169734, 9.999162, 9.998124 
3.4503737e+2, 3.0559784e+2, -54427.773, -127673.89, -18294.865, -0.08052663, -0.2261426, -50112.457, -50112.457, 0.0000103175025, 10.000031, 9.999101 
3.4503758e+2, 3.1559804e+2, 352607.84, 71359.44, -37880.68, -0.059168093, -0.14474903, 357620.56, 357620.56, 0.00003196276, 10.002772, 9.999143 
3.5498208e+2, 1.2560447e+2, -1816861.0, -1728958.3, 47554.75, -0.03287342, -0.23683073, -1708154.9, 897.0609, 0.00012227354, 9.999088, 10.000333 
3.5498527e+2, 1.3560447e+2, -1608804.6, -1644869.4, -52736.668, -0.032584853, -0.22355403, -1571102.6, 39951.277, 0.00005490219, 10.000169, 9.999724 
3.5498816e+2, 1.4560503e+2, -1447456.4, -1438489.0, -94540.44, 0.008767051, -0.1755561, -1348326.0, 164722.8, 0.000015641235, 10.000262, 10.000404 
3.549896e+2, 1.5560468e+2, -1432512.1, -1398543.0, -62880.86, -0.09376915, -0.2678539, -1350393.3, 64657.91, 0.0000017221555, 9.999769, 10.000248 
3.5499296e+2, 1.6560528e+2, -1322497.6, -1303918.0, -4117.565, -0.09921566, -0.22416247, -1303046.4, 13999.508, 0.000000007086625, 9.999895, 10.000161 
3.5499734e+2, 1.7560665e+2, -1121753.1, -1156327.4, 11826.866, -0.065083615, -0.12523027, -1118094.6, 100939.36, 0.0, 10.000607, 10.000158 
3.5500047e+2, 1.8560678e+2, -1061517.0, -1118750.5, -69768.33, -0.045393128, -0.10585765, -1014724.6, 106308.94, 0.0, 10.000526, 9.999781 
3.5500282e+2, 1.9560578e+2, -1053601.8, -1066718.1, -72658.59, -0.013113797, -0.20620994, -987206.0, 35837.527, 0.0, 9.999912, 9.999764 
3.5500556e+2, 2.0560506e+2, -897235.94, -948130.3, -4208.1704, -0.04866577, -0.24808262, -896890.3, 28159.662, 0.0, 10.000345, 9.999699 
3.550085e+2, 2.1560445e+2, -615137.06, -763316.56, 24403.344, -0.14932336, -0.2995621, -611221.56, 215832.97, 0.0, 10.001616, 9.999684 
3.5501194e+2, 2.2560482e+2, -557777.56, -708011.0, -9910.953, -0.12794524, -0.21920606, -557126.56, 171924.75, 0.0, 10.001445, 9.999471 
3.550157e+2, 2.3560579e+2, -653484.4, -707180.94, 17162.328, -0.009976369, -0.08879852, -648467.7, -17424.678, 0.0, 10.000126, 9.999442 
3.5501933e+2, 2.4560489e+2, -628565.1, -668828.94, 45820.29, 0.052497435, -0.10733414, -598649.1, -65597.31, 0.0, 9.999739, 9.999213 
3.5502288e+2, 2.556024e+2, -486347.06, -552999.3, 52450.39, 0.0686754, -0.30092096, -457530.8, -22455.53, 0.0, 10.0000515, 9.999187 
3.550261e+2, 2.6560184e+2, -322643.75, -463983.56, 61155.277, 0.04040702, -0.25355232, -299856.7, 37224.145, 0.0, 10.000689, 9.998814 
3.5502905e+2, 2.7560264e+2, -112080.55, -318239.5, 81357.38, -0.022175826, -0.07719669, -83842.08, 155231.89, 0.0, 10.001482, 9.998763 
3.5503235e+2, 2.8560078e+2, -132720.02, -325558.84, 54380.523, -0.01032445, -0.11270298, -118441.89, 22650.69, 0.00000011654808, 10.00089, 9.998321 
3.5503587e+2, 2.9559687e+2, -290816.63, -351078.66, 76610.3, 0.054185066, -0.36040437, -238625.02, -195494.48, 0.0000016052002, 9.999112, 9.998336 
3.550375e+2, 3.0559593e+2, -32389.818, -76920.54, 83077.69, -0.08999525, -0.3380945, 31354.404, 31354.404, 0.000008325357, 10.0000105, 9.99946 
3.5504207e+2, 3.1559715e+2, 336790.03, 64585.063, 78247.35, 0.070771314, -0.19266486, 357679.72, 357679.72, 0.000028550077, 10.002667, 9.9991455 
3.649827e+2, 1.256014e+2, -1747639.1, -1746688.8, 77180.91, 0.09718625, -0.17547485, -1669981.5, 39101.92, 0.000118926524, 9.999786, 9.999874 
3.649843e+2, 1.3560054e+2, -1773697.1, -1777553.0, -32261.557, -0.09238883, -0.19820216, -1743305.9, -132210.61, 0.000056465244, 9.999274, 9.999235 
3.649871e+2, 1.4560048e+2, -1557471.8, -1509972.5, -63084.81, -0.08327209, -0.17953868, -1466314.9, 46782.04, 0.00001794202, 9.99959, 10.000239 
3.6499104e+2, 1.5560071e+2, -1333386.1, -1361995.0, -86326.62, 0.042393055, -0.19812964, -1260186.8, 154907.1, 0.000002788093, 10.000502, 10.000146 
3.649944e+2, 1.6560136e+2, -1248749.0, -1228931.1, -37508.67, 0.04673797, -0.16050844, -1200044.6, 117042.44, 0.00000008230677, 10.00024, 10.000507 
3.649967e+2, 1.7560238e+2, -1329890.1, -1219727.1, -41116.137, -0.10391424, -0.13391283, -1206073.6, 13003.507, 0.0, 9.9990225, 10.000485 
3.6499962e+2, 1.8560265e+2, -1238787.1, -1218130.9, -71910.94, -0.117573105, -0.10844162, -1155810.1, -34734.902, 0.0, 9.999371, 9.999658 
3.6500332e+2, 1.9560221e+2, -917577.1, -1011126.25, -68864.516, 0.0026855357, -0.13963455, -881104.0, 141977.39, 0.0, 10.0008955, 9.999674 
3.6500654e+2, 2.0560142e+2, -815486.75, -878622.7, -11449.619, -0.0027022613, -0.19681005, -813474.5, 111613.52, 0.0, 10.000785, 9.999964 
3.6500928e+2, 2.1560027e+2, -927615.5, -884295.75, -27866.39, -0.11652601, -0.33042374, -870661.3, -43565.145, 0.0, 9.999352, 9.999943 
3.6501262e+2, 2.2560082e+2, -811380.94, -807134.0, -66983.74, -0.107122056, -0.25104105, -742240.06, -13149.734, 0.0, 9.999599, 9.999681 
3.6501646e+2, 2.3560266e+2, -491649.03, -606902.56, -75697.41, 0.010316399, -0.055223018, -454139.38, 176934.95, 0.0, 10.001139, 9.999644 
3.6502016e+2, 2.4560203e+2, -393033.53, -549720.06, -51654.625, 0.08481551, -0.06137162, -377537.22, 155543.25, 0.0, 10.001316, 9.999281 
3.650236e+2, 2.5559932e+2, -431736.66, -517007.25, -49296.8, 0.12576157, -0.2805961, -409195.72, 25909.336, 0.0, 10.000379, 9.999282 
3.6502674e+2, 2.6559862e+2, -414709.66, -489065.25, -8225.319, 0.07363351, -0.26050365, -413810.63, -76698.63, 0.0, 9.99998, 9.99898 
3.6502954e+2, 2.7559933e+2, -312855.97, -394924.3, -20763.14, -0.043373704, -0.10769708, -307902.0, -68795.195, 0.0, 10.000023, 9.998936 
3.6503285e+2, 2.8559783e+2, -161825.97, -312673.47, -63732.406, -0.02907823, -0.12959297, -138504.78, 2616.8499, 0.000000055764154, 10.000553, 9.998578 
3.6503643e+2, 2.9559466e+2, 64557.902, -150927.86, -49203.887, 0.09187994, -0.33240345, 75261.43, 118412.82, 0.0000011855267, 10.001427, 9.998594 
3.6503902e+2, 3.0559427e+2, 221506.83, -1504.8197, 11234.184, -0.027608018, -0.24876325, 222071.33, 222071.33, 0.0000067298934, 10.001974, 9.999031 
3.6504465e+2, 3.1559357e+2, 234125.56, -10224.034, -84699.24, 0.096976906, -0.24262477, 260613.63, 260613.63, 0.000025648078, 10.002084, 9.998919 
3.7498394e+2, 1.2559816e+2, -1746423.1, -1760349.3, 28326.205, 0.1954197, -0.11263839, -1724216.8, -15101.84, 0.0001191897, 9.999849, 9.999746 
3.7498382e+2, 1.3559633e+2, -1774105.4, -1793663.0, -41936.1, -0.09624941, -0.22919278, -1740823.1, -129687.17, 0.00005856906, 9.999332, 9.999095 
3.7498608e+2, 1.4559555e+2, -1602003.3, -1600147.3, -38148.43, -0.16933173, -0.24405266, -1562915.5, -49769.438, 0.000020069963, 9.999584, 9.999622 
3.7499243e+2, 1.5559638e+2, -1364909.1, -1437413.4, -46537.598, 0.1058903, -0.14119032, -1342170.0, 72969.96, 0.0000038584762, 10.000543, 9.99961 
3.749958e+2, 1.6559659e+2, -1230266.3, -1187470.8, -91516.57, 0.13897243, -0.13984288, -1114883.6, 202253.1, 0.00000020238203, 10.000228, 10.000796 
3.7499607e+2, 1.7559633e+2, -1310894.1, -1183293.4, -71942.664, -0.09418259, -0.2686748, -1150936.5, 68199.27, 0.0, 9.99903, 10.000733 
3.7499872e+2, 1.8559691e+2, -1232019.9, -1192903.0, -21293.756, -0.1654636, -0.23381731, -1183548.5, -62418.203, 0.0, 9.999327, 9.999848 
3.7500358e+2, 1.9559807e+2, -913580.3, -989938.56, -8911.587, -0.08140672, -0.12530625, -912554.0, 110568.43, 0.0, 10.000845, 9.99984 
3.7500745e+2, 2.0559813e+2, -836539.44, -908550.75, -73689.08, -0.007042515, -0.09588501, -790529.9, 134591.97, 0.0, 10.000723, 9.999789 
3.7501037e+2, 2.1559724e+2, -950562.3, -911009.4, -68654.62, 0.041527733, -0.18483575, -859339.56, -32211.541, 0.0, 9.999265, 9.9998 
3.7501362e+2, 2.2559659e+2, -829028.1, -825732.94, -17851.03, 0.019622022, -0.2164336, -809453.6, -80319.87, 0.0, 9.999516, 9.999597 
3.7501708e+2, 2.35596e+2, -503855.5, -617875.3, -16621.125, -0.057496022, -0.2563069, -501482.0, 129658.086, 0.0, 10.001068, 9.999604 
3.7502068e+2, 2.4559605e+2, -389752.56, -524688.25, -92780.46, -0.0075887213, -0.2044805, -342502.84, 190636.67, 0.0, 10.001242, 9.999488 
3.7502423e+2, 2.555964e+2, -431346.5, -498928.56, -73684.13, 0.13050848, -0.13608532, -384074.7, 51060.44, 0.0, 10.000301, 9.999444 
3.7502655e+2, 2.655954e+2, -425606.38, -503421.75, -13479.662, 0.041176293, -0.14998531, -423337.5, -86191.93, 0.0, 9.999947, 9.998897 
3.750279e+2, 2.755932e+2, -325224.88, -405010.6, -8566.132, -0.23231678, -0.27978364, -324315.53, -85146.96, 0.0, 9.999953, 9.998901 
3.7503216e+2, 2.855927e+2, -142464.7, -258176.06, -37502.27, -0.16843824, -0.22174248, -131373.3, 9800.473, 0.00000003400916, 10.000494, 9.998982 
3.7503883e+2, 2.9559347e+2, 74304.26, -114930.305, -8079.6255, 0.16491567, -0.0674455, 74648.6, 117814.05, 0.000000899484, 10.001353, 9.998881 
3.750416e+2, 3.0559278e+2, 123219.086, -190980.55, 10974.108, 0.01768873, 0.040812116, 123601.914, 123601.914, 0.000005766145, 10.001917, 9.997757 
3.7504467e+2, 3.155872e+2, 183445.42, -91348.87, -49975.98, -0.14889437, -0.31250274, 192252.16, 192252.16, 0.000023919054, 10.001981, 9.99841 
3.849834e+2, 1.255931e+2, -1745553.5, -1727136.4, -20807.693, 0.16878845, -0.15562531, -1713590.6, -4425.3286, 0.00012316402, 9.999719, 10.00004 
3.8498503e+2, 1.3559227e+2, -1635216.1, -1679402.4, -70514.97, 0.05784506, -0.21411383, -1583414.3, 27760.877, 0.000061385945, 10.000074, 9.999533 
3.8498667e+2, 1.4559153e+2, -1505765.3, -1538824.9, 16668.129, -0.09387585, -0.25436065, -1498820.4, 14363.924, 0.000022093489, 10.000178, 9.999755 
3.849921e+2, 1.5559238e+2, -1458306.9, -1470785.5, 33754.418, 0.05902387, -0.16171433, -1430219.9, -15042.247, 0.000004863891, 9.999861, 9.999705 
3.849956e+2, 1.6559231e+2, -1252884.6, -1246588.3, -15668.515, 0.10090952, -0.17010628, -1233754.8, 83422.625, 0.00000029520132, 10.00026, 10.000386 
3.849967e+2, 1.7559153e+2, -1019892.4, -1082509.9, -58743.582, -0.03590649, -0.3128153, -984635.0, 234547.33, 0.0, 10.001189, 10.000389 
3.8499942e+2, 1.8559216e+2, -959440.8, -1034821.25, 3199.6238, -0.11074809, -0.26890203, -959305.25, 161871.0, 0.0, 10.001076, 10.000094 
3.850038e+2, 1.9559376e+2, -1006306.75, -1014187.1, 980.3547, -0.09654862, -0.14102072, -1006186.6, 16976.797, 0.0, 10.000103, 10.000037 
3.8500798e+2, 2.05594e+2, -910559.9, -971062.7, -61847.867, -0.00072249514, -0.09087753, -871961.4, 53199.74, 0.0, 10.000326, 9.999554 
3.8501173e+2, 2.1559308e+2, -647575.25, -794903.4, -75264.37, 0.14428426, -0.15867466, -615924.94, 211243.3, 0.0, 10.001456, 9.99955 
3.8501477e+2, 2.2559209e+2, -603560.8, -719873.75, -2986.9585, 0.11019116, -0.21058969, -603484.2, 125693.48, 0.0, 10.001088, 9.999558 
3.850173e+2, 2.3559096e+2, -727899.3, -728263.56, -18680.416, -0.06363485, -0.30267358, -709400.1, -78210.45, 0.0, 9.999558, 9.999566 
3.8502052e+2, 2.4559113e+2, -648961.3, -635563.94, -86638.28, -0.04865978, -0.24050924, -555365.75, -22178.215, 0.0, 9.999408, 9.9996 
3.8502428e+2, 2.5559223e+2, -422902.25, -487822.97, -88734.67, 0.11030756, -0.111654475, -360877.1, 74298.7, 0.0, 10.00033, 9.999503 
3.8502672e+2, 2.655911e+2, -353639.94, -493911.34, -27259.545, 0.040054094, -0.12565169, -348528.72, -11341.499, 0.0, 10.000533, 9.998686 
3.8502818e+2, 2.7558824e+2, -310090.78, -416543.0, -47300.594, -0.2010592, -0.30551934, -292110.4, -52893.113, 0.0, 10.000136, 9.998734 
3.8503283e+2, 2.8558764e+2, -148293.77, -252758.7, -38472.848, -0.14279087, -0.2518643, -135654.13, 5568.8745, 0.000000026095549, 10.0004225, 9.999054 
3.8504001e+2, 2.955888e+2, 54493.66, -119703.83, -47600.316, 0.16078499, -0.06523205, 66652.06, 109862.14, 0.00000066980994, 10.001208, 9.998915 
3.8504314e+2, 3.055879e+2, 19861.652, -304468.7, -23585.49, 0.009305595, 0.04876345, 21567.828, 21567.828, 0.000005131084, 10.00147, 9.997189 
3.8504663e+2, 3.1558204e+2, 62931.25, -153455.13, -51394.383, -0.09806491, -0.2828571, 74517.65, 74517.65, 0.000023468077, 10.001167, 9.998371 
3.9498055e+2, 1.2558623e+2, -1701771.0, -1631876.9, -48147.79, -0.1343212, -0.30677825, -1607330.3, 101904.49, 0.0001272644, 9.999724, 10.000686 
3.949876e+2, 1.3558832e+2, -1564599.0, -1533436.9, -48479.637, 0.29052964, -0.16805463, -1498096.0, 113117.445, 0.00006380605, 10.000092, 10.000523 
3.949886e+2, 1.4558837e+2, -1452762.5, -1430581.9, -1061.5963, 0.054436013, -0.21469308, -1430531.1, 82680.734, 0.000023677207, 10.000173, 10.000507 
3.949897e+2, 1.5558869e+2, -1404925.0, -1374446.6, 32933.8, -0.19398057, -0.25306445, -1353397.1, 61810.29, 0.000005569423, 9.999913, 10.000344 
3.9499354e+2, 1.6558845e+2, -1327385.5, -1393467.5, 7313.2783, -0.15347846, -0.25406057, -1326585.9, -9375.789, 0.00000035120044, 10.0002365, 9.999387 
3.9499843e+2, 1.7558792e+2, -1086394.9, -1214662.3, -20504.564, -0.00065714767, -0.27172264, -1083196.9, 136020.52, 0.0, 10.001169, 9.99949 
3.9500162e+2, 1.8558834e+2, -948170.44, -999478.5, -40393.527, -0.016577499, -0.22101599, -925972.94, 195240.84, 0.0, 10.001021, 10.000365 
3.9500389e+2, 1.955894e+2, -996618.1, -978975.56, -23832.602, -0.122368105, -0.17569119, -962384.06, 60819.31, 0.0, 10.000042, 10.000307 
3.950079e+2, 2.0558912e+2, -942750.6, -1016450.8, -27848.668, -0.056479175, -0.1759981, -933411.1, -8205.987, 0.0, 10.000236, 9.999286 
3.9501306e+2, 2.1558778e+2, -682212.8, -836333.9, -29845.715, 0.116716795, -0.25828847, -676635.0, 150581.6, 0.0, 10.001333, 9.99932 
3.9501593e+2, 2.2558732e+2, -620352.5, -735149.56, -68128.195, 0.09756214, -0.24291393, -588666.56, 140555.4, 0.0, 10.001, 9.999499 
3.9501688e+2, 2.355874e+2, -744894.1, -742093.56, -62793.746, -0.079833925, -0.2056633, -680684.5, -49460.508, 0.0, 9.999466, 9.999516 
3.9501953e+2, 2.4558719e+2, -655922.4, -638199.56, -58352.43, -0.108606525, -0.18059374, -588039.56, -54813.848, 0.0, 9.999356, 9.999611 
3.9502352e+2, 2.5558665e+2, -432051.8, -491304.03, -48952.33, -0.018098906, -0.21515292, -404458.72, 30769.43, 0.0, 10.0002575, 9.999517 
3.9502707e+2, 2.6558575e+2, -384630.0, -542995.1, -48480.93, 0.0020023163, -0.1935869, -370967.13, -33729.848, 0.0, 10.000468, 9.998381 
3.9503017e+2, 2.7558437e+2, -341095.3, -466808.9, -50600.3, -0.03521341, -0.18847826, -323259.06, -84005.6, 0.0, 10.000071, 9.998425 
3.9503452e+2, 2.8558266e+2, -169204.03, -283060.1, -15627.697, -0.034428585, -0.22143483, -167097.95, -25828.64, 0.000000010243951, 10.000375, 9.998865 
3.9503974e+2, 2.9558074e+2, 26695.37, -151992.0, -8442.3955, -0.009022998, -0.3211827, 27093.36, 70377.89, 0.0000005130985, 10.001104, 9.998742 
3.9504343e+2, 3.0557966e+2, 25394.412, -281667.2, -37369.23, -0.12643345, -0.22695784, 29876.795, 29876.795, 0.0000059963604, 10.001419, 9.997369 
3.9505002e+2, 3.1557786e+2, 79014.56, -96501.805, -35932.535, 0.08551203, -0.17331606, 86085.945, 86085.945, 0.000027743677, 10.001075, 9.998803 
4.0498012e+2, 1.2558186e+2, -1639657.8, -1599533.3, 16535.402, -0.15586773, -0.30430228, -1593597.3, 115682.49, 0.0001282802, 10.000123, 10.00072 
4.0498802e+2, 1.3558432e+2, -1615408.4, -1525177.0, -31295.31, 0.35334432, -0.1649617, -1515385.3, 95868.07, 0.00006493345, 9.999596, 10.00082 
4.0498883e+2, 1.4558458e+2, -1490712.4, -1469321.1, -8227.104, 0.07693326, -0.19515172, -1466523.0, 46726.68, 0.00002457309, 10.000007, 10.000317 
4.0499014e+2, 1.5558466e+2, -1270192.0, -1332201.5, -69074.92, -0.18451154, -0.23796773, -1225482.6, 189766.38, 0.000005781208, 10.000932, 10.000143 
4.0499413e+2, 1.6558449e+2, -1264965.0, -1369233.0, -82320.89, -0.13343404, -0.22089176, -1219658.4, 97593.016, 0.0000003430959, 10.000689, 9.999333 
4.04999e+2, 1.7558426e+2, -1336522.4, -1345176.8, -59045.87, 0.026382584, -0.2015167, -1281645.4, -62390.582, 0.0, 9.999489, 9.999404 
4.050023e+2, 1.8558425e+2, -1179150.4, -1150571.8, -52832.13, 0.0261892, -0.17450403, -1110130.6, 11124.336, 0.0, 9.999609, 10.000009 
4.0500492e+2, 1.9558412e+2, -921910.3, -979492.2, -95058.41, -0.05042538, -0.2065023, -851378.44, 171876.77, 0.0, 10.000713, 9.999983 
4.050085e+2, 2.0558363e+2, -848283.44, -926995.7, -79031.305, -0.0396755, -0.23298196, -799351.1, 125906.82, 0.0, 10.0007, 9.999673 
4.050126e+2, 2.1558277e+2, -886745.9, -899225.2, -52178.69, 0.020756412, -0.30579528, -840435.06, -13171.714, 0.0, 9.999772, 9.999641 
4.050156e+2, 2.255827e+2, -813631.44, -844594.7, -76961.26, 0.03299754, -0.25946933, -750610.1, -21345.293, 0.0, 9.999746, 9.999351 
4.0501764e+2, 2.355831e+2, -611531.7, -697092.5, -90843.46, 0.0073158494, -0.17393035, -553899.5, 77364.99, 0.0, 10.000456, 9.9993515 
4.0502027e+2, 2.4558254e+2, -479137.44, -549188.9, -48311.883, -0.027284635, -0.17703186, -454490.4, 78778.67, 0.0, 10.000557, 9.999643 
4.0502325e+2, 2.5558123e+2, -436053.4, -483128.0, -53461.844, -0.06476792, -0.29393452, -401176.9, 34100.574, 0.0, 10.000207, 9.999589 
4.050273e+2, 2.6558033e+2, -384602.16, -558374.44, -30631.031, -0.017729398, -0.2723931, -379360.88, -42074.742, 0.0, 10.000529, 9.998247 
4.050322e+2, 2.7557948e+2, -162343.86, -399262.0, -31969.576, 0.10066016, -0.20235628, -158105.72, 81191.695, 0.0, 10.001372, 9.998262 
4.050362e+2, 2.855775e+2, -59538.867, -264581.1, 11170.444, 0.062890925, -0.23663427, -58932.11, 82384.32, 0.0000000008315615, 10.0012665, 9.998565 
4.050396e+2, 2.9557467e+2, -90708.89, -234386.42, -6103.704, -0.086405024, -0.402165, -90450.055, -47108.297, 0.0000007104038, 10.000399, 9.998514 
4.0504366e+2, 3.055735e+2, -27359.957, -260355.14, 15118.626, -0.20968075, -0.32760966, -26383.033, -26383.033, 0.000009515816, 10.000852, 9.997792 
4.0505326e+2, 3.1557292e+2, 282257.84, 42381.7, 3581.011, 0.24979264, -0.19035909, 282311.3, 282311.3, 0.0000394484, 10.002272, 9.999188 
4.1498175e+2, 1.2557988e+2, -1666777.9, -1673724.9, -71621.56, -0.060755372, -0.16041055, -1598545.8, 110755.87, 0.0001259659, 10.000191, 10.000178 
4.1498578e+2, 1.3558039e+2, -1621742.8, -1562042.3, -38213.07, 0.14614452, -0.19391336, -1543402.5, 67890.96, 0.00006410072, 9.999681, 10.000527 
4.149871e+2, 1.4558017e+2, -1570385.0, -1634109.5, 22405.193, -0.12551941, -0.19953467, -1563296.1, -49998.45, 0.00002430965, 10.000017, 9.999178 
4.149933e+2, 1.5558031e+2, -1342252.5, -1475787.1, -27950.271, 0.013284391, -0.12216474, -1336638.3, 78664.05, 0.0000053776803, 10.0009165, 9.999162 
4.1499722e+2, 1.655804e+2, -1212731.1, -1251839.8, -135169.42, 0.08683729, -0.0750446, -1095708.9, 221592.16, 0.0000002359893, 10.000648, 10.000159 
4.1499808e+2, 1.7558064e+2, -1284248.3, -1238591.4, -90297.55, -0.03853792, -0.09309775, -1168281.3, 51012.453, 0.0, 9.999495, 10.0001335 
4.1500115e+2, 1.8557985e+2, -1252585.6, -1293522.3, -18940.69, -0.06722822, -0.12634668, -1245166.6, -123866.94, 0.0, 9.999573, 9.9990425 
4.150066e+2, 1.9557805e+2, -988699.56, -1102902.6, -50977.855, 0.03134852, -0.23122697, -969254.9, 54063.19, 0.0, 10.000657, 9.999158 
4.150095e+2, 2.0557763e+2, -791659.56, -794744.44, -121542.695, -0.023578819, -0.26346332, -671649.5, 253669.58, 0.0, 10.0006275, 10.000622 
4.1501006e+2, 2.1557814e+2, -837125.75, -773493.0, -78291.58, -0.22678421, -0.2938952, -720799.94, 106507.82, 0.0, 9.999674, 10.000552 
4.1501355e+2, 2.255783e+2, -846948.6, -891411.5, -57317.023, -0.16217144, -0.25294906, -807702.56, -78397.21, 0.0, 9.999649, 9.999078 
4.1501933e+2, 2.3557806e+2, -641229.6, -738211.3, -58208.523, 0.11323264, -0.20581646, -613960.4, 17350.709, 0.0, 10.000369, 9.999111 
4.1502237e+2, 2.4557726e+2, -480515.0, -542574.56, -69246.37, 0.10887598, -0.22680369, -435663.9, 97653.195, 0.0, 10.000512, 9.999708 
4.150231e+2, 2.5557587e+2, -439710.88, -477527.56, -56577.97, -0.119867116, -0.3588165, -398965.28, 36359.4, 0.0, 10.000145, 9.99966 
4.1502723e+2, 2.655747e+2, -383425.47, -547132.44, -4712.6914, -0.09642725, -0.36879843, -383289.9, -45955.246, 0.0, 10.000497, 9.998336 
4.1503397e+2, 2.755736e+2, -170512.42, -397447.9, 5013.478, 0.118448965, -0.3337374, -170401.72, 68946.14, 0.0, 10.001296, 9.998309 
4.1503778e+2, 2.855722e+2, -88679.14, -325372.03, -30324.72, 0.06948253, -0.29413927, -84855.74, 56507.918, 0.00000000001177225, 10.001257, 9.998157 
4.1503933e+2, 2.9557046e+2, -123509.36, -288863.06, -26123.617, -0.18039998, -0.31060395, -119480.36, -76097.89, 0.0000013022876, 10.000332, 9.998177 
4.1504353e+2, 3.0556938e+2, 19146.05, -153453.28, 65572.25, -0.32973385, -0.24925056, 41231.59, 41231.59, 0.000014575742, 10.000817, 9.998538 
4.1505578e+2, 3.1556767e+2, 292587.22, 100007.375, 61479.36, 0.23313427, -0.30497938, 310540.28, 310540.28, 0.000055427667, 10.002133, 9.999643 
4.2498258e+2, 1.255781e+2, -1679360.6, -1748798.5, 11662.906, 0.00042436196, -0.13228406, -1677454.1, 31862.32, 0.000120138786, 10.000385, 9.999572 
4.2498568e+2, 1.3557766e+2, -1392505.5, -1517123.5, 51192.254, 0.084381804, -0.20906414, -1374173.0, 237146.69, 0.00006079175, 10.001514, 9.99996 
4.249874e+2, 1.4557719e+2, -1368444.5, -1602163.5, 128374.52, -0.1736653, -0.1830939, -1311706.3, 201621.69, 0.00002257458, 10.001675, 9.998603 
4.2499512e+2, 1.5557688e+2, -1420738.8, -1573257.1, 93311.04, 0.1271694, -0.09445967, -1376488.9, 38849.35, 0.0000044461326, 10.000632, 9.9986315 
4.2499897e+2, 1.6557679e+2, -1167637.6, -1211466.8, 2301.583, 0.18836203, -0.05052218, -1167517.0, 149821.34, 0.00000009724189, 10.000883, 10.00032 
4.249984e+2, 1.7557693e+2, -879028.6, -1029346.2, -18896.32, -0.08487887, -0.09456114, -876689.56, 342640.34, 0.0, 10.00222, 10.0002575 
4.2500153e+2, 1.8557583e+2, -935697.1, -1191885.4, 53511.258, -0.10264294, -0.13900791, -924969.2, 196368.73, 0.0, 10.0019655, 9.998588 
4.2500812e+2, 1.9557358e+2, -1060405.5, -1192116.9, 45263.723, 0.13175973, -0.24363732, -1046350.1, -22989.045, 0.0, 10.00039, 9.998676 
4.2501077e+2, 2.055729e+2, -907289.06, -890711.4, -48070.973, 0.076427236, -0.25923434, -850219.9, 75145.61, 0.0, 10.0000105, 10.000254 
4.250101e+2, 2.1557339e+2, -734234.56, -764179.7, -118215.65, -0.23163003, -0.25683516, -630047.06, 197309.13, 0.0, 10.000554, 10.000192 
4.2501357e+2, 2.2557318e+2, -657168.4, -782696.75, -89821.305, -0.17904682, -0.24232443, -610355.1, 119000.984, 0.0, 10.000881, 9.999228 
4.2502046e+2, 2.3557238e+2, -542772.25, -678279.4, -78489.72, 0.1603338, -0.2632148, -506837.88, 124525.94, 0.0, 10.000996, 9.999219 
4.250237e+2, 2.455714e+2, -433220.56, -579520.3, -107180.97, 0.16832553, -0.27881896, -376606.56, 156765.56, 0.0, 10.001097, 9.999173 
4.250241e+2, 2.5557008e+2, -316275.97, -473019.1, -155287.77, -0.084259905, -0.3504854, -220703.89, 214678.72, 0.0, 10.001226, 9.99917 
4.2502797e+2, 2.655689e+2, -277563.8, -458688.25, -88122.34, -0.09781929, -0.35445905, -241765.19, 95627.625, 0.0, 10.001063, 9.998677 
4.2503452e+2, 2.7556777e+2, -239337.95, -390603.53, -75308.19, 0.08081753, -0.35452503, -208239.11, 31164.695, 0.0, 10.000654, 9.998668 
4.2503855e+2, 2.8556675e+2, -186554.69, -349986.22, -83041.484, 0.063893914, -0.30507538, -151765.7, -10350.464, 0.0000000012455732, 10.000501, 9.998343 
4.2504072e+2, 2.9556558e+2, -76465.24, -246398.5, -51555.176, -0.08266923, -0.27970824, -62047.445, -18618.305, 0.0000019825331, 10.000571, 9.998353 
4.250446e+2, 3.0556473e+2, -24666.26, -169297.92, 86040.914, -0.27899578, -0.20760396, 15412.83, 15412.83, 0.000019679212, 10.000492, 9.9985895 
4.2505628e+2, 3.1556246e+2, 24696.477, -14099.78, -37176.2, 0.17621367, -0.3211488, 47231.117, 47231.117, 0.00007104561, 10.000222, 9.9997835 
4.3498197e+2, 1.2557669e+2, -1733510.6, -1851356.0, -22633.033, -0.14523569, -0.21773227, -1729313.3, -19990.352, 0.000112459136, 10.000377, 9.99886 
4.349876e+2, 1.3557623e+2, -1449578.1, -1634356.0, 105603.98, 0.10088161, -0.21117303, -1401653.4, 209677.67, 0.000055857796, 10.001525, 9.9991455 
4.349896e+2, 1.4557561e+2, -1372652.5, -1614197.0, 87283.43, -0.14887963, -0.15485717, -1344413.6, 168927.5, 0.000019900395, 10.001679, 9.998524 
4.3499532e+2, 1.5557438e+2, -1417492.0, -1580878.4, 67777.086, 0.060091536, -0.15352313, -1393036.6, 22320.48, 0.0000034951138, 10.000682, 9.998561 
4.34999e+2, 1.6557355e+2, -1204044.1, -1281281.4, 43615.273, 0.08144387, -0.15549737, -1184407.4, 132956.7, 0.000000032016867, 10.000866, 9.999846 
4.3499976e+2, 1.7557307e+2, -913029.4, -1094865.4, 34250.543, -0.19369265, -0.2115344, -906791.94, 312571.44, 0.0, 10.002201, 9.999816 
4.3500307e+2, 1.8557215e+2, -942970.56, -1191893.6, -12739.382, -0.16212207, -0.22011553, -942320.3, 179049.66, 0.0, 10.0019045, 9.998617 
4.3500906e+2, 1.9557069e+2, -1073282.5, -1204310.0, -1622.7235, 0.16896322, -0.24703728, -1073262.4, -49878.305, 0.0, 10.000333, 9.998619 
4.35012e+2, 2.0556955e+2, -1040927.44, -1146265.0, -35372.313, 0.18447655, -0.21757814, -1030151.75, -104755.43, 0.0, 9.999919, 9.998542 
4.3501237e+2, 2.1556851e+2, -857845.6, -1000711.44, -90688.06, -0.0769476, -0.19600286, -813836.0, 13572.205, 0.0, 10.000469, 9.998607 
4.3501544e+2, 2.2556743e+2, -638345.94, -717311.4, -93180.414, -0.09730613, -0.2215106, -576628.5, 152787.6, 0.0, 10.000768, 9.999732 
4.3502071e+2, 2.3556615e+2, -527119.3, -622866.2, -66583.28, 0.07186868, -0.3436835, -492985.44, 138436.78, 0.0, 10.000897, 9.999646 
4.350241e+2, 2.4556503e+2, -526105.8, -759016.4, -109620.91, 0.08080579, -0.32792905, -482628.1, 50805.555, 0.0, 10.001039, 9.997969 
4.350259e+2, 2.5556394e+2, -404551.88, -639430.56, -144194.39, -0.042626485, -0.25923166, -336023.44, 99427.04, 0.0, 10.001154, 9.998061 
4.3502918e+2, 2.6556298e+2, -236803.05, -369339.5, -110169.53, -0.096714236, -0.22392283, -174506.88, 162953.16, 0.0, 10.001041, 9.999301 
4.3503347e+2, 2.75562e+2, -201935.4, -301862.84, -79942.64, -0.1074937, -0.27347115, -157627.19, 81838.04, 0.0, 10.000601, 9.999304 
4.3503818e+2, 2.855611e+2, -141139.27, -245038.36, -86224.64, -0.04108741, -0.2742127, -92423.8, 49047.523, 0.000000012355592, 10.0004635, 9.999078 
4.3504345e+2, 2.955602e+2, -42620.715, -161177.73, -39628.848, 0.11400538, -0.29757205, -30594.334, 12885.89, 0.0000027662056, 10.000513, 9.998965 
4.350466e+2, 3.055596e+2, -69528.21, -266795.75, 72409.87, -0.14636078, -0.19562304, -45802.637, -45802.637, 0.000024180765, 10.000499, 9.997918 
4.3505412e+2, 3.155573e+2, -2550.0754, -51391.336, -67775.734, -0.10197229, -0.24402697, 45070.38, 45070.38, 0.00008333817, 10.000141, 9.999563 
4.449821e+2, 1.255733e+2, -1952999.0, -1932904.5, -183430.73, -0.0768086, -0.25701347, -1759246.1, -49890.594, 0.00010599228, 9.99879, 9.999062 
4.4498906e+2, 1.3557315e+2, -1553925.5, -1676237.6, 35897.652, 0.13678336, -0.22518602, -1544168.1, 67193.25, 0.00005101591, 10.000795, 9.9992075 
4.4499147e+2, 1.4557281e+2, -1339544.5, -1590548.4, 6006.7534, -0.13196428, -0.14473523, -1339400.9, 173966.63, 0.000017295639, 10.001878, 9.998587 
4.449957e+2, 1.5557136e+2, -1237362.5, -1486497.9, -27862.36, -0.026273116, -0.17688462, -1234284.5, 181098.78, 0.0000027656245, 10.001894, 9.998619 
4.4499946e+2, 1.6557017e+2, -1215672.4, -1356438.6, -18346.172, 0.03696772, -0.184815, -1213320.6, 104073.92, 0.000000035556127, 10.001074, 9.999236 
4.4500175e+2, 1.7556931e+2, -1331760.0, -1355523.0, -52050.516, -0.079078056, -0.22062488, -1290252.1, -70850.734, 0.0, 9.999583, 9.999285 
4.4500482e+2, 1.8556851e+2, -1212158.4, -1256355.1, -61521.59, -0.067025505, -0.22155909, -1168886.8, -47480.49, 0.0, 9.999771, 9.999203 
4.4500917e+2, 1.9556758e+2, -906768.5, -1065970.5, -24833.45, 0.10770063, -0.25473696, -902984.75, 120426.79, 0.0, 10.001222, 9.99914 
4.4501242e+2, 2.0556618e+2, -821870.4, -1109509.9, 27139.762, 0.14531271, -0.2431096, -819332.06, 106093.45, 0.0, 10.001732, 9.997916 
4.450146e+2, 2.1556424e+2, -759167.9, -1021397.3, 36153.563, 0.054364424, -0.24671805, -754274.7, 73172.94, 0.0, 10.00145, 9.99799 
4.4501743e+2, 2.2556275e+2, -590370.25, -732852.0, 43842.99, 0.0040239724, -0.26743925, -577960.25, 151500.08, 0.0, 10.001257, 9.999387 
4.4502085e+2, 2.3556142e+2, -521253.78, -661427.44, -10025.165, -0.012704052, -0.35995534, -520540.44, 110926.66, 0.0, 10.001107, 9.999281 
4.4502425e+2, 2.4556027e+2, -543126.06, -799631.44, -24807.393, -0.004494068, -0.3160729, -540748.9, -7268.733, 0.0, 10.001055, 9.997683 
4.4502765e+2, 2.5555915e+2, -433294.56, -684413.4, -5563.0947, 0.02083614, -0.21976547, -433171.4, 2328.091, 0.0, 10.001084, 9.997787 
4.450309e+2, 2.6555806e+2, -205125.64, -331942.13, 46855.02, -0.033446625, -0.19611542, -189692.28, 147817.9, 0.0, 10.001166, 9.99949 
4.4503394e+2, 2.755569e+2, -84144.34, -225832.95, 27874.027, -0.15453039, -0.285062, -78857.99, 160657.13, 0.0, 10.001334, 9.999468 
4.4503856e+2, 2.855559e+2, -29587.875, -206984.83, -13006.335, -0.0869736, -0.29874822, -28639.352, 112882.38, 0.00000003062236, 10.001293, 9.998943 
4.450447e+2, 2.955549e+2, 21988.297, -134108.97, -49683.39, 0.17025732, -0.32044083, 36460.086, 79991.91, 0.0000032986038, 10.000986, 9.998916 
4.4504803e+2, 3.0555388e+2, -57247.945, -266069.3, 74441.96, -0.050753396, -0.2519467, -33427.6, -33427.6, 0.000027227657, 10.000606, 9.997871 
4.450541e+2, 3.1555185e+2, 21299.584, -10437.797, -78783.87, -0.11326958, -0.26952076, 85797.01, 85797.01, 0.000091368296, 10.000168, 9.999834 
4.5498246e+2, 1.2556784e+2, -1865669.3, -1761295.8, -185122.84, 0.026819736, -0.2584901, -1621144.4, 88270.98, 0.00010140695, 9.998836, 10.000215 
4.5498955e+2, 1.3556832e+2, -1478728.5, -1537658.4, 119541.766, 0.08694131, -0.2605377, -1385073.9, 226337.88, 0.00004730018, 10.000862, 10.000131 
4.5499268e+2, 1.4556867e+2, -1320465.6, -1552160.4, 4754.228, -0.22457941, -0.16749154, -1320368.0, 193040.56, 0.000015080613, 10.00189, 9.99884 
4.5499593e+2, 1.5556781e+2, -1224403.4, -1458550.0, -19916.168, -0.21810521, -0.16279912, -1222721.4, 192695.33, 0.0000021144335, 10.001898, 9.998807 
4.5500016e+2, 1.655667e+2, -1263912.8, -1459575.5, -84865.164, -0.025965124, -0.13403879, -1232233.3, 85196.28, 0.00000004449902, 10.001078, 9.998529 
4.5500416e+2, 1.7556554e+2, -1367998.6, -1442031.5, -94020.375, 0.17937726, -0.12948959, -1303970.3, -84525.55, 0.0, 9.99962, 9.998679 
4.5500654e+2, 1.8556486e+2, -1139332.3, -1091758.1, -13715.424, 0.10670994, -0.15108983, -1088087.3, 33360.07, 0.0, 9.999721, 10.000353 
4.5500815e+2, 1.955643e+2, -839881.06, -910959.06, 33369.49, -0.13884264, -0.26218626, -826670.25, 196772.56, 0.0, 10.00116, 10.00023 
4.5501164e+2, 2.0556282e+2, -804364.4, -1052560.6, 6949.903, -0.124262415, -0.33072594, -804169.9, 121282.766, 0.0, 10.001638, 9.998354 
4.5501643e+2, 2.1556056e+2, -750089.1, -975017.8, 34216.03, 0.07903693, -0.41282982, -744999.4, 82475.07, 0.0, 10.001329, 9.998365 
4.550193e+2, 2.2555912e+2, -691648.94, -918051.4, 32536.55, 0.048185885, -0.38164485, -687065.8, 42423.055, 0.0, 10.001149, 9.998171 
4.5502055e+2, 2.3555815e+2, -609958.8, -825631.9, -5605.586, -0.17221272, -0.31615722, -609813.2, 21685.725, 0.0, 10.00102, 9.998197 
4.5502385e+2, 2.4555708e+2, -510749.2, -709768.06, -31220.053, -0.16495402, -0.24770714, -505966.63, 27545.559, 0.0, 10.000968, 9.99834 
4.5502892e+2, 2.5555575e+2, -403271.56, -599164.3, 4228.3564, 0.025440848, -0.23515967, -403180.34, 32349.379, 0.0, 10.000989, 9.99842 
4.550328e+2, 2.6555422e+2, -234281.19, -379770.38, 47869.07, 0.025055895, -0.26990753, -219944.06, 117599.04, 0.0, 10.001113, 9.999188 
4.550356e+2, 2.7555245e+2, -120428.26, -284186.28, 43798.75, -0.14441556, -0.38848573, -109449.836, 130103.98, 0.0, 10.00126, 9.999102 
4.550394e+2, 2.8555104e+2, -101554.516, -347152.84, -30849.791, -0.15202431, -0.37770206, -97738.734, 43827.645, 0.000000022691747, 10.001247, 9.998006 
4.5504427e+2, 2.9554963e+2, -38807.793, -251788.66, -50970.52, 0.0024852073, -0.34418786, -27238.045, 16345.378, 0.0000033720132, 10.000936, 9.998139 
4.5504868e+2, 3.0554757e+2, -19902.816, -180398.38, 56436.895, -0.06802361, -0.38033706, -2044.3811, -2044.3811, 0.000028360193, 10.000584, 9.998464 
4.5505574e+2, 3.1554607e+2, 57432.68, 91484.695, -95512.05, -0.0052918014, -0.40346283, 171476.39, 171476.39, 0.00009465621, 10.000062, 10.000582 
4.6498325e+2, 1.2556441e+2, -1420043.9, -1550879.5, -34050.566, 0.07650657, -0.26836464, -1411712.6, 297737.22, 0.000096649455, 10.001888, 10.000189 
4.6498987e+2, 1.3556525e+2, -1506919.6, -1577275.4, 200040.56, 0.04367701, -0.21583013, -1338987.4, 272455.6, 0.00004344866, 10.0007515, 9.999922 
4.6499422e+2, 1.4556542e+2, -1518772.0, -1621075.6, 52706.438, -0.17939958, -0.14364552, -1496476.6, 16964.139, 0.000012657647, 10.000409, 9.9990835 
4.6499723e+2, 1.555641e+2, -1404286.8, -1519813.5, 4158.7324, -0.2046874, -0.21151799, -1404137.3, 11314.401, 0.0000014631825, 10.0005455, 9.999042 
4.650011e+2, 1.6556302e+2, -1330076.3, -1512276.1, -41313.156, -0.014580203, -0.18164124, -1321146.4, -3682.083, 0.000000030371112, 10.000733, 9.998328 
4.6500504e+2, 1.7556216e+2, -1179896.5, -1372824.3, -29999.83, 0.2404641, -0.123621404, -1175339.3, 44138.44, 0.0, 10.001017, 9.998478 
4.6500748e+2, 1.8556142e+2, -1003422.1, -1046043.06, 60283.33, 0.18374288, -0.1349288, -960793.44, 160688.53, 0.0, 10.000732, 10.000182 
4.6500918e+2, 1.955605e+2, -1028799.5, -1020414.94, -1917.0302, -0.08436246, -0.26395538, -1019997.44, 3484.0303, 0.0, 9.99993, 10.000078 
4.650126e+2, 2.0555915e+2, -976461.9, -1097895.3, -53940.227, -0.11806357, -0.33218658, -955962.4, -30472.875, 0.0, 10.000289, 9.998693 
4.6501723e+2, 2.1555735e+2, -696862.94, -918394.1, -56218.836, 0.020699827, -0.3991372, -683412.7, 144092.6, 0.0, 10.001557, 9.998645 
4.650204e+2, 2.2555597e+2, -633844.9, -917010.1, -40260.953, 0.022412159, -0.3624566, -628231.75, 101287.59, 0.0, 10.001669, 9.997922 
4.6502233e+2, 2.3555474e+2, -645631.1, -866546.7, -22026.754, -0.081972145, -0.300378, -643456.3, -11922.684, 0.0, 10.000887, 9.997976 
4.650255e+2, 2.455536e+2, -518463.72, -665699.44, 13395.85, -0.0803098, -0.25012603, -517254.84, 16291.568, 0.0, 10.000697, 9.998776 
4.6502972e+2, 2.5555244e+2, -378293.66, -542585.6, 18735.275, 0.011081511, -0.26769638, -376184.25, 59375.027, 0.0, 10.000965, 9.998819 
4.6503383e+2, 2.6555097e+2, -246270.86, -429050.1, 65287.152, 0.017457725, -0.2957971, -225346.3, 112226.09, 0.0, 10.001208, 9.99881 
4.6503776e+2, 2.7554908e+2, -130075.85, -332923.4, 38732.406, -0.053320933, -0.38518858, -122931.76, 116655.4, 0.0, 10.001374, 9.99872 
4.650413e+2, 2.8554758e+2, -91653.67, -385086.3, -4073.234, -0.08765486, -0.34624925, -91597.14, 50005.26, 0.00000001636591, 10.001487, 9.997634 
4.6504498e+2, 2.9554617e+2, 41896.688, -242496.52, -5194.1895, -0.047526427, -0.2785167, 41991.523, 85611.69, 0.0000038591365, 10.001612, 9.997878 
4.6504962e+2, 3.0554363e+2, 57707.035, -98117.195, 96506.87, -0.040812984, -0.3741676, 103826.66, 103826.66, 0.000029778155, 10.000915, 9.998882 
4.6505618e+2, 3.1554276e+2, -38895.684, 56399.08, -111415.54, 0.076756746, -0.36506924, 129927.99, 129927.99, 0.00009717631, 9.999355, 10.000689 
4.749836e+2, 1.25563e+2, -1500715.3, -1709678.4, -134722.78, -0.1285561, -0.28311196, -1434707.5, 274751.53, 0.000091564856, 10.001876, 9.999091 
4.7498962e+2, 1.3556404e+2, -1596984.6, -1756875.9, 171288.16, -0.07716429, -0.080874726, -1487904.0, 123550.25, 0.000038474074, 10.000741, 9.998681 
4.749959e+2, 1.4556316e+2, -1498285.3, -1584707.5, 52948.402, -0.08302339, -0.06546676, -1473153.6, 40309.523, 0.000009911169, 10.00042, 9.999336 
4.7499928e+2, 1.5556024e+2, -1373464.8, -1471819.4, 18672.848, -0.08143248, -0.32274613, -1370039.0, 45449.03, 0.0000009593812, 10.000603, 9.999351 
4.7500208e+2, 1.6555907e+2, -1311487.6, -1472194.5, -39146.1, -0.011526109, -0.3305874, -1302459.3, 15039.796, 0.000000014696447, 10.000727, 9.998607 
4.7500408e+2, 1.7555913e+2, -1167765.6, -1349120.9, -12172.808, 0.024690272, -0.20630601, -1166952.3, 52548.76, 0.0, 10.001023, 9.998637 
4.7500736e+2, 1.8555814e+2, -1107724.3, -1253850.8, 23616.133, 0.07915804, -0.17454606, -1104002.4, 17508.148, 0.0, 10.000692, 9.998777 
4.7501203e+2, 1.955562e+2, -1124254.0, -1213912.8, -19143.285, 0.18612829, -0.26572073, -1120337.8, -96810.33, 0.0, 9.999906, 9.998765 
4.7501507e+2, 2.0555514e+2, -974023.75, -1075948.9, -12777.859, 0.084135614, -0.25003955, -972446.25, -46910.273, 0.0, 10.000218, 9.998877 
4.7501674e+2, 2.1555467e+2, -694727.1, -893617.1, -4642.9214, -0.20306219, -0.20371066, -694618.8, 132920.83, 0.0, 10.001471, 9.998857 
4.7502044e+2, 2.2555329e+2, -594316.1, -820120.7, -76478.89, -0.15612276, -0.21479128, -570851.44, 158700.56, 0.0, 10.001596, 9.998628 
4.7502595e+2, 2.3555106e+2, -611861.6, -775579.8, -40458.32, 0.17213367, -0.31946725, -602409.25, 29162.799, 0.0, 10.000791, 9.998651 
4.7502887e+2, 2.4554978e+2, -511453.56, -635271.1, 17455.627, 0.16872782, -0.32845542, -509039.75, 24543.434, 0.0, 10.00063, 9.999017 
4.7502974e+2, 2.5554913e+2, -378024.6, -526921.9, 37201.344, -0.10530121, -0.31889173, -369247.4, 66341.234, 0.0, 10.000893, 9.998964 
4.7503376e+2, 2.6554817e+2, -285552.34, -497748.16, 66056.734, -0.12975681, -0.28119752, -266669.22, 70929.94, 0.0, 10.001153, 9.9983635 
4.750402e+2, 2.7554667e+2, -165952.66, -392962.22, 54298.656, 0.032388672, -0.28391626, -153633.44, 85982.45, 0.0, 10.001314, 9.998335 
4.750442e+2, 2.855454e+2, -85102.516, -365554.5, -7907.0874, 0.029150942, -0.21245296, -84879.76, 56750.844, 0.0000000367379, 10.001459, 9.997782 
4.7504655e+2, 2.9554424e+2, 37892.55, -233971.0, 5931.124, -0.07700636, -0.13424666, 38021.887, 81665.95, 0.000004901276, 10.001526, 9.997983 
4.7505054e+2, 3.055418e+2, 64361.57, -62708.645, 32361.268, -0.052908354, -0.24088818, 72128.37, 72128.37, 0.000032907166, 10.000828, 9.999164 
4.7505486e+2, 3.1554154e+2, -84255.195, -28030.71, -144932.1, -0.032029465, -0.19365782, 91490.414, 91490.414, 0.00010232853, 9.999312, 10.000128 
4.8498377e+2, 1.2555994e+2, -1815740.9, -1830231.3, -285734.38, -0.17466606, -0.24858178, -1537159.9, 172329.92, 0.00008660855, 9.999561, 9.999392 
4.849901e+2, 1.3556077e+2, -1538219.5, -1707276.1, 117990.7, -0.11130692, -0.09068632, -1477603.6, 133880.78, 0.000032757685, 10.001025, 9.9989 
4.8499814e+2, 1.4555979e+2, -1388242.3, -1535183.4, 51548.38, 0.06575922, -0.09399153, -1371962.3, 141532.23, 0.000007215262, 10.001205, 9.999288 
4.8500055e+2, 1.5555738e+2, -1397040.3, -1486614.3, -33057.242, -0.0006946733, -0.2944665, -1386161.6, 29355.135, 0.00000059770906, 10.000466, 9.999309 
4.8500276e+2, 1.6555633e+2, -1305392.6, -1422873.6, -49751.457, -0.004017102, -0.31225726, -1287154.9, 30370.873, 0.0000000048834687, 10.000567, 9.999022 
4.8500484e+2, 1.7555612e+2, -1098027.6, -1276017.0, -24827.234, -0.01424884, -0.2551744, -1094629.5, 124896.836, 0.0, 10.001337, 9.998983 
4.8500827e+2, 1.8555495e+2, -994621.2, -1284615.0, 29194.502, 0.050621215, -0.21849024, -991711.3, 129827.305, 0.0, 10.001838, 9.99801 
4.850131e+2, 1.9555292e+2, -859361.44, -1161399.0, 21193.447, 0.20042649, -0.24592277, -857881.56, 165679.52, 0.0, 10.00206, 9.998078 
4.8501623e+2, 2.0555192e+2, -804182.56, -972444.06, 68533.57, 0.12944947, -0.2032959, -779801.4, 145769.25, 0.0, 10.0012865, 9.999079 
4.8501807e+2, 2.1555157e+2, -940158.8, -986096.9, 70300.15, -0.122015394, -0.16587327, -889170.5, -61598.66, 0.0, 9.999675, 9.999088 
4.8502177e+2, 2.255503e+2, -838311.75, -904483.7, 13123.178, -0.09078295, -0.19280204, -835804.2, -106222.27, 0.0, 9.99978, 9.998924 
4.8502696e+2, 2.3554812e+2, -526044.75, -705598.2, 3168.5754, 0.1758943, -0.3209262, -525988.8, 105611.62, 0.0, 10.001254, 9.998909 
4.850297e+2, 2.4554668e+2, -400128.2, -613880.2, 22118.846, 0.14703317, -0.34546646, -397863.34, 135750.0, 0.0, 10.001532, 9.99873 
4.850304e+2, 2.5554568e+2, -406522.22, -567344.8, -12606.504, -0.11591198, -0.33970937, -405540.03, 30082.684, 0.0, 10.000821, 9.998716 
4.8503467e+2, 2.6554498e+2, -368367.16, -530846.7, 49030.566, -0.12068216, -0.26327232, -354718.06, -17086.275, 0.0, 10.000556, 9.998421 
4.8504162e+2, 2.755443e+2, -250798.28, -423326.56, 60400.293, 0.083094835, -0.19692357, -231754.8, 7888.5444, 0.0, 10.000684, 9.998429 
4.850455e+2, 2.8554308e+2, -172849.08, -326343.22, 42888.45, 0.06467678, -0.15911041, -161678.39, -20022.107, 0.00000008825205, 10.000513, 9.998503 
4.8504698e+2, 2.9554173e+2, -136729.78, -244836.06, 75845.8, -0.09988596, -0.17169653, -97646.85, -53978.535, 0.0000056092463, 10.000025, 9.998624 
4.8505124e+2, 3.0553988e+2, -60541.625, -146509.47, 111697.89, -0.017442806, -0.23710355, 16157.52, 16157.52, 0.000035389916, 10.000062, 9.998948 
4.8505497e+2, 3.155399e+2, 45618.316, -38780.13, -111506.48, -0.006230867, -0.14538948, 122643.55, 122643.55, 0.00010599746, 10.000514, 9.999465 
4.94983e+2, 1.2555517e+2, -1690517.5, -1577185.0, -255671.03, -0.25994253, -0.16699137, -1371975.9, 337567.13, 0.00007902746, 9.999599, 10.001105 
4.9499092e+2, 1.3555543e+2, -1411884.8, -1449428.6, 175370.81, -0.15266667, -0.25224087, -1254284.0, 357249.53, 0.000026309019, 10.001048, 10.000656 
4.950006e+2, 1.455553e+2, -1424079.6, -1604286.0, 13695.878, 0.16533558, -0.22965944, -1423044.6, 90490.19, 0.0000047383246, 10.001186, 9.998821 
4.9500072e+2, 1.5555552e+2, -1426267.5, -1546818.6, -50226.777, -0.051221814, -0.120331176, -1408083.8, 7454.215, 0.0000002991547, 10.000468, 9.998892 
4.9500287e+2, 1.6555479e+2, -1265332.0, -1335160.0, -29845.6, -0.07005165, -0.11706795, -1254314.0, 63229.883, 0.0000000005507737, 10.000545, 9.999637 
4.9500704e+2, 1.7555313e+2, -1057515.6, -1190913.0, 9880.629, 0.052422848, -0.26871696, -1056787.8, 162766.0, 0.0, 10.001333, 9.99957 
4.9501005e+2, 1.855518e+2, -1009950.5, -1305243.5, 29627.25, 0.024555437, -0.26910785, -1007007.25, 114559.35, 0.0, 10.001789, 9.997892 
4.9501213e+2, 1.9555056e+2, -870902.2, -1178219.3, 29925.023, -0.119533285, -0.20404692, -868015.4, 155568.11, 0.0, 10.002023, 9.997984 
4.9501586e+2, 2.0554937e+2, -791004.75, -929532.06, -1040.5233, -0.052298766, -0.19377786, -790996.94, 134597.23, 0.0, 10.001215, 9.9994135 
4.95021e+2, 2.155481e+2, -928914.25, -949319.75, 23718.752, 0.1867205, -0.28196847, -913296.94, -85695.67, 0.0, 9.999605, 9.999382 
4.9502397e+2, 2.2554693e+2, -863559.1, -934057.06, 63307.176, 0.13620432, -0.30354056, -826349.2, -96739.24, 0.0, 9.999688, 9.998762 
4.9502513e+2, 2.3554574e+2, -555590.25, -739957.6, 62297.547, -0.15124385, -0.31767714, -536513.8, 95106.9, 0.0, 10.0011425, 9.998726 
4.9502772e+2, 2.4554414e+2, -463312.7, -731108.6, -11133.7, -0.22148174, -0.30874094, -462850.6, 70787.32, 0.0, 10.001474, 9.997952 
4.950315e+2, 2.5554198e+2, -465524.63, -674948.3, -29925.559, -0.11272354, -0.33755073, -461332.34, -25670.22, 0.0, 10.000756, 9.99801 
4.9503627e+2, 2.6554137e+2, -336395.3, -452223.25, 45331.117, -0.032492694, -0.24762152, -320763.78, 16907.355, 0.0, 10.0005045, 9.998986 
4.950418e+2, 2.755418e+2, -223251.19, -342839.97, 74055.55, 0.007742095, -0.12758252, -187863.67, 51806.41, 0.0, 10.000587, 9.999027 
4.950449e+2, 2.8554073e+2, -93553.664, -146156.45, 19344.232, -0.06622204, -0.17389193, -87205.97, 54472.35, 0.00000018947561, 10.00045, 9.99977 
4.9504623e+2, 2.9553857e+2, -62663.92, -81733.37, 70587.21, -0.20457546, -0.38931587, -970.38403, 42722.785, 0.000005650319, 9.999988, 9.999761 
4.9505165e+2, 3.0553782e+2, -105171.125, -243136.13, 122518.375, -0.006093912, -0.36472008, -33550.152, -33550.152, 0.00003451672, 10.000068, 9.998284 
4.9505565e+2, 3.1553796e+2, -14709.303, -150250.45, -45709.09, -0.037206218, -0.20270786, -735.3255, -735.3255, 0.00010174547, 10.00045, 9.998728 
5.0498486e+2, 1.255505e+2, -1462946.9, -1485225.8, -109144.96, -0.107077494, -0.19573289, -1364374.4, 345213.72, 0.00006639799, 10.001267, 10.000923 
5.0499094e+2, 1.3555056e+2, -1501192.9, -1501730.9, 113632.39, -0.21449384, -0.29197508, -1387829.1, 223751.6, 0.00001955312, 10.000475, 10.000579 
5.050017e+2, 1.455504e+2, -1538024.1, -1645180.6, -75929.78, 0.20773338, -0.2707457, -1498672.5, 14910.019, 0.0000028130235, 10.000348, 9.998945 
5.050014e+2, 1.5555131e+2, -1324854.0, -1481934.8, -116183.89, -0.05572096, -0.10476839, -1263154.3, 152425.58, 0.00000011765629, 10.001105, 9.999028 
5.050037e+2, 1.6555099e+2, -1161637.6, -1268549.3, -73046.87, -0.071316555, -0.07595984, -1124576.1, 193006.27, 0.000000000026416515, 10.001177, 9.99979 
5.0500864e+2, 1.7554945e+2, -1153573.1, -1222738.5, -85928.27, 0.12223801, -0.22821559, -1095529.5, 124062.37, 0.0, 10.000598, 9.999712 
5.050116e+2, 1.8554819e+2, -1208121.8, -1362172.0, -48297.75, 0.08440868, -0.24596858, -1194231.8, -72628.27, 0.0, 10.000271, 9.998232 
5.050129e+2, 1.9554704e+2, -1121730.3, -1262027.4, -28932.002, -0.14645366, -0.20362133, -1115998.1, -92380.24, 0.0, 10.000156, 9.998302 
5.050164e+2, 2.0554578e+2, -887953.6, -970694.75, -64012.363, -0.08331875, -0.21809134, -853106.7, 72521.91, 0.0, 10.000529, 9.9994545 
5.0502175e+2, 2.1554431e+2, -697838.7, -832519.3, -77407.59, 0.22555605, -0.32996464, -662579.5, 165058.1, 0.0, 10.001183, 9.999415 
5.050246e+2, 2.2554329e+2, -627092.7, -830537.2, 9705.45, 0.15553531, -0.3301671, -626630.75, 103014.734, 0.0, 10.001351, 9.998673 
5.050255e+2, 2.3554257e+2, -565821.75, -751209.0, -1534.0812, -0.21609175, -0.29103833, -565809.06, 65844.305, 0.0, 10.0011015, 9.998665 
5.0502837e+2, 2.4554119e+2, -549967.8, -751655.9, -55796.098, -0.26707825, -0.2667602, -535561.1, -1892.3334, 0.0, 10.000791, 9.99814 
5.050327e+2, 2.5553912e+2, -487127.34, -663086.3, -14315.35, -0.046871644, -0.3091201, -485970.3, -50278.402, 0.0, 10.000514, 9.998209 
5.050373e+2, 2.6553845e+2, -335385.7, -417359.03, 116593.43, 0.032747284, -0.2516838, -252784.6, 84915.484, 0.0, 10.000362, 9.999296 
5.050419e+2, 2.7553874e+2, -252325.97, -327116.44, 101976.305, -0.014225954, -0.17159836, -181104.58, 58593.37, 0.00000000061010413, 10.0002575, 9.999295 
5.0504476e+2, 2.8553787e+2, -131297.69, -173444.8, -6634.9775, -0.1050193, -0.20713763, -130277.86, 11426.822, 0.00000027597625, 10.000232, 9.999687 
5.0504637e+2, 2.9553613e+2, -30648.43, -78523.54, -71188.055, -0.19818737, -0.37012058, 20518.912, 64236.508, 0.0000049916057, 10.000264, 9.999652 
5.050526e+2, 3.055358e+2, -13839.811, -193710.63, 8444.883, 0.058860574, -0.29807743, -13444.195, -13444.195, 0.000030276777, 10.000688, 9.998328 
5.0505674e+2, 3.1553513e+2, 141727.89, -29113.262, -108607.516, -0.009142989, -0.22170737, 194482.08, 194482.08, 0.000090525835, 10.001323, 9.999155 
5.1498854e+2, 1.2554589e+2, -1607161.8, -1796711.0, -119456.59, 0.0831072, -0.33295712, -1549450.0, 160175.45, 0.0000519356, 10.001319, 9.998757 
5.1499e+2, 1.3554618e+2, -1629060.4, -1777519.3, 93219.64, -0.37784272, -0.20724896, -1584126.4, 27498.914, 0.000013925394, 10.000519, 9.998663 
5.1500136e+2, 1.4554518e+2, -1484396.1, -1540294.8, -60773.92, 0.10471683, -0.21412857, -1445452.8, 68184.2, 0.000001645238, 10.000371, 9.999658 
5.150023e+2, 1.5554474e+2, -1275705.3, -1384556.1, -79734.4, -0.09942827, -0.2542483, -1233592.1, 182050.45, 0.00000003629146, 10.001122, 9.999692 
5.150048e+2, 1.6554487e+2, -1193593.0, -1322820.1, -100494.57, -0.09626245, -0.19574578, -1138732.5, 178909.92, 0.0, 10.001131, 9.999434 
5.150094e+2, 1.7554514e+2, -1176896.8, -1268520.1, -98172.7, 0.11074193, -0.13338795, -1114372.9, 105267.46, 0.0, 10.000591, 9.999395 
5.150127e+2, 1.8554427e+2, -1155536.0, -1249391.8, -61688.535, 0.14530407, -0.137163, -1124954.5, -3306.7935, 0.0, 10.000253, 9.999012 
5.150151e+2, 1.9554238e+2, -1073095.1, -1159106.8, -23127.666, 0.03649805, -0.24955465, -1067270.8, -43606.97, 0.0, 10.000139, 9.999019 
5.150175e+2, 2.0554103e+2, -926307.75, -1027558.9, -46899.24, -0.038912848, -0.28735885, -907922.56, 17752.002, 0.0, 10.000434, 9.999108 
5.1502e+2, 2.1554002e+2, -733644.5, -886234.75, -47588.035, -0.08011519, -0.32203045, -720019.8, 107662.58, 0.0, 10.001089, 9.999094 
5.150236e+2, 2.2553928e+2, -638167.4, -832234.25, -8499.173, -0.10159926, -0.28183767, -637795.9, 91894.05, 0.0, 10.001259, 9.998707 
5.150279e+2, 2.3553868e+2, -573081.94, -743280.94, -4332.1055, -0.10817245, -0.23338315, -572971.75, 58726.207, 0.0, 10.001005, 9.998765 
5.150313e+2, 2.4553795e+2, -473530.66, -582550.6, -74133.375, -0.07460589, -0.21055447, -436023.8, 97681.164, 0.0, 10.000744, 9.999326 
5.1503384e+2, 2.55537e+2, -418640.1, -503816.6, -13743.157, -0.012521541, -0.26092076, -416477.53, 19234.686, 0.0, 10.000437, 9.999341 
5.150375e+2, 2.6553613e+2, -343712.94, -422420.72, 105731.9, -0.008298731, -0.27693388, -270248.56, 67470.22, 0.0, 10.000316, 9.999285 
5.150419e+2, 2.7553508e+2, -268140.38, -343494.72, 108929.5, -0.06253786, -0.3279579, -190556.08, 49171.23, 0.0000000018853024, 10.00019, 9.999217 
5.150449e+2, 2.8553447e+2, -235334.1, -381943.13, -13247.187, -0.13269112, -0.25389418, -234146.73, -92411.46, 0.00000034894228, 10.000198, 9.99827 
5.150469e+2, 2.9553443e+2, -132911.6, -278390.03, -57410.066, -0.19704817, -0.11637482, -112985.23, -69243.37, 0.000004315403, 10.000208, 9.998304 
5.1505375e+2, 3.0553377e+2, 26013.82, -99189.25, 28074.428, 0.083630785, -0.04464237, 32020.781, 32020.781, 0.000026122347, 10.000649, 9.998996 
5.15058e+2, 3.1553125e+2, 228091.84, 189659.94, -22127.572, -0.058620222, -0.21633033, 238182.58, 238182.58, 0.00008115159, 10.001175, 10.000724 
5.2499163e+2, 1.2554258e+2, -1458028.0, -1818373.0, -80477.12, 0.20105858, -0.30949464, -1440871.6, 268786.25, 0.000041741634, 10.002729, 9.997933 
5.249908e+2, 1.3554196e+2, -1397064.3, -1736945.3, 128625.32, -0.43609807, -0.20371458, -1353875.1, 257793.2, 0.000010470756, 10.002414, 9.998028 
5.250025e+2, 1.4554071e+2, -1327549.0, -1427883.3, 44366.09, 0.14193787, -0.22558321, -1310745.3, 202936.63, 0.0000009776196, 10.001292, 9.999984 
5.250031e+2, 1.555403e+2, -1420854.1, -1421420.1, -20243.838, -0.07446696, -0.29602134, -1400891.4, 14793.04, 0.000000005050013, 9.999979, 9.999988 
5.250054e+2, 1.6554052e+2, -1383586.6, -1460854.9, -18070.063, -0.09248043, -0.22010864, -1379569.6, -61885.477, 0.0, 10.000022, 9.999031 
5.250101e+2, 1.7554097e+2, -1122066.5, -1282529.3, -38708.43, 0.106705144, -0.09940317, -1113217.0, 106467.234, 0.0, 10.001137, 9.999043 
5.2501357e+2, 1.8554023e+2, -946594.3, -1101205.1, -21893.037, 0.14736055, -0.0955716, -943554.06, 178136.6, 0.0, 10.001482, 9.999442 
5.2501583e+2, 1.955384e+2, -905400.56, -1031302.56, -27839.059, 0.045591645, -0.24158579, -899519.6, 124183.766, 0.0, 10.0011, 9.999433 
5.250181e+2, 2.0553726e+2, -900706.8, -1047419.3, -29860.895, -0.036488395, -0.26377198, -894861.94, 30851.098, 0.0, 10.000744, 9.998822 
5.2502066e+2, 2.1553655e+2, -851125.1, -967134.8, -42893.16, -0.09031669, -0.2390824, -836988.56, -9267.078, 0.0, 10.000389, 9.99887 
5.2502424e+2, 2.2553597e+2, -801792.56, -848216.5, 14094.198, -0.083405755, -0.20235239, -797848.6, -68121.06, 0.0, 9.999865, 9.9992695 
5.2502877e+2, 2.3553534e+2, -800671.3, -793666.25, 44019.594, -0.02666864, -0.21298805, -753010.06, -121276.414, 0.0, 9.999184, 9.999302 
5.2503216e+2, 2.4553485e+2, -609330.1, -613484.06, 4406.58, 0.003770939, -0.2069278, -606535.56, -72799.2, 0.0, 9.999661, 9.999634 
5.250347e+2, 2.555344e+2, -305481.47, -419528.4, -21985.371, 0.012039393, -0.23708323, -301390.03, 134347.36, 0.0, 10.001088, 9.999606 
5.250382e+2, 2.6553324e+2, -248746.52, -421197.3, 28506.43, -0.0044325404, -0.27495494, -244156.53, 93589.75, 0.0, 10.001161, 9.998884 
5.2504224e+2, 2.7553126e+2, -303984.97, -400604.8, -9657.924, -0.03604441, -0.3791609, -303029.03, -63265.46, 0.00000000009174081, 10.000127, 9.998847 
5.250453e+2, 2.8553042e+2, -298403.0, -436516.3, -48999.855, -0.091798656, -0.30317476, -282784.94, -141010.97, 0.00000033351301, 9.999868, 9.9980545 
5.250475e+2, 2.9553053e+2, -147819.8, -315791.22, -28270.37, -0.15776643, -0.124869406, -143189.4, -99410.56, 0.0000041082662, 10.000223, 9.998045 
5.2505434e+2, 3.055291e+2, -62634.066, -162343.84, 75298.77, 0.11442607, -0.108571924, -22181.615, -22181.615, 0.000024723933, 10.000125, 9.998815 
5.250583e+2, 3.1552663e+2, -8127.325, 90460.945, -42363.5, -0.037293904, -0.25555897, 106163.56, 106163.56, 0.000077842684, 9.999473, 10.000867 
5.349937e+2, 1.2554032e+2, -1399381.6, -1715512.4, -41235.03, 0.0769256, -0.14675349, -1394091.6, 315596.3, 0.000035627574, 10.002819, 9.998592 
5.3499305e+2, 1.3553795e+2, -1351515.1, -1640348.3, 112333.445, -0.4748375, -0.28177547, -1312970.1, 298739.56, 0.000008273398, 10.002409, 9.998696 
5.3500473e+2, 1.4553699e+2, -1334105.6, -1437765.9, -15545.229, 0.21531676, -0.3030576, -1331824.6, 181892.83, 0.00000061502607, 10.001275, 9.999921 
5.3500336e+2, 1.5553802e+2, -1425982.0, -1436709.5, -55422.08, -0.061435778, -0.22646566, -1375664.8, 40040.484, 0.00000000036285042, 9.999995, 9.999875 
5.350052e+2, 1.65538e+2, -1417854.8, -1528570.6, 14651.259, -0.1351715, -0.14501643, -1415948.8, -98241.1, 0.0, 10.000008, 9.998574 
5.350108e+2, 1.7553695e+2, -1150052.3, -1345510.5, 10045.186, 0.038336318, -0.12568274, -1149537.4, 70186.0, 0.0, 10.001153, 9.99861 
5.3501385e+2, 1.85536e+2, -946850.0, -1093248.6, -42718.42, 0.00814293, -0.12539312, -935296.75, 186435.84, 0.0, 10.00145, 9.99951 
5.3501457e+2, 1.9553502e+2, -910870.6, -1035275.8, -32336.703, -0.20213059, -0.19404158, -902967.4, 120770.266, 0.0, 10.001061, 9.999427 
5.3501785e+2, 2.0553443e+2, -925688.94, -1080855.4, -50422.56, -0.15815262, -0.15056114, -910743.3, 15001.043, 0.0, 10.000668, 9.998627 
5.350233e+2, 2.1553406e+2, -872054.75, -992576.44, -49278.95, 0.11200002, -0.07379661, -854471.0, -26717.69, 0.0, 10.000307, 9.998736 
5.3502643e+2, 2.2553346e+2, -739567.6, -700394.9, -20060.674, 0.13172488, -0.08839908, -691944.56, 37813.39, 0.0, 9.9997835, 10.000324 
5.3502786e+2, 2.3553252e+2, -744458.8, -657747.75, 29301.174, -0.05503314, -0.23637906, -648774.9, -17014.266, 0.0, 9.999102, 10.000273 
5.3503096e+2, 2.4553183e+2, -660576.4, -707721.4, 52098.47, -0.10531921, -0.2646816, -626965.75, -93201.87, 0.0, 9.999613, 9.99901 
5.350354e+2, 2.5553122e+2, -359486.22, -517315.8, 36626.92, -0.053446975, -0.24689785, -351400.6, 84368.0, 0.0, 10.001026, 9.998964 
5.3503925e+2, 2.6552972e+2, -304488.8, -528849.44, -17391.066, -0.034519166, -0.24796745, -303148.78, 34634.125, 0.0, 10.001123, 9.998162 
5.350426e+2, 2.7552727e+2, -356101.03, -496435.38, -34763.938, -0.03877997, -0.32929572, -347961.34, -108154.32, 0.0, 10.000069, 9.998219 
5.3504556e+2, 2.855256e+2, -236909.2, -304968.78, -42176.83, -0.07331943, -0.3583777, -216745.72, -74924.266, 0.00000019037492, 9.999852, 9.998965 
5.35048e+2, 2.9552445e+2, -101768.18, -203359.03, -4389.854, -0.14861293, -0.39334416, -101578.84, -57750.242, 0.0000040138116, 10.000151, 9.998852 
5.3505427e+2, 3.0552182e+2, -141662.3, -321559.16, 49767.535, 0.07611913, -0.47906098, -128812.24, -128812.24, 0.000024880646, 10.000097, 9.997735 
5.3505725e+2, 3.155211e+2, -95875.84, -91772.625, -6958.953, -0.14213188, -0.35039884, -86569.16, -86569.16, 0.000077454766, 9.999462, 9.9996195 
5.4499644e+2, 1.255386e+2, -1468143.9, -1698458.5, 88706.19, 0.11451046, -0.015513228, -1437939.5, 271771.47, 0.000030309948, 10.002131, 9.9990635 
5.4499483e+2, 1.3553582e+2, -1637983.8, -1728677.9, 97585.48, -0.42050433, -0.23437223, -1575723.8, 36009.363, 0.000006366235, 10.000234, 9.999143 
5.450061e+2, 1.4553466e+2, -1563866.5, -1600914.9, 20471.43, 0.29519644, -0.26945576, -1554782.3, -41041.016, 0.00000037085837, 9.999922, 9.999457 
5.450043e+2, 1.5553544e+2, -1221358.0, -1383241.9, -67033.22, -0.040698636, -0.17477435, -1197204.5, 218527.75, 0.00000000007720086, 10.001599, 9.999468 
5.450059e+2, 1.6553487e+2, -1148228.6, -1388429.3, 27578.285, -0.14224723, -0.1338631, -1145102.9, 172635.88, 0.0, 10.001827, 9.998651 
5.4501176e+2, 1.7553307e+2, -1205478.3, -1360675.5, 45954.324, 0.042451385, -0.19691102, -1192891.9, 26867.443, 0.0, 10.000742, 9.998693 
5.4501486e+2, 1.855322e+2, -1094044.8, -1174904.0, 20738.459, 0.01849519, -0.18963574, -1089036.0, 32731.963, 0.0, 10.0004635, 9.999435 
5.450156e+2, 1.9553198e+2, -941239.1, -1051094.4, 5837.0317, -0.19339351, -0.17673123, -940929.9, 82838.26, 0.0, 10.000849, 9.999422 
5.450187e+2, 2.0553169e+2, -894168.75, -1025436.44, 8730.357, -0.13474019, -0.12283497, -893590.6, 32181.455, 0.0, 10.000708, 9.998997 
5.4502386e+2, 2.1553116e+2, -883007.0, -958454.94, 41223.4, 0.16443545, -0.09653275, -864851.94, -37071.1, 0.0, 10.000065, 9.999091 
5.4502684e+2, 2.2553065e+2, -644174.3, -672938.2, 82028.18, 0.16264485, -0.10915589, -575276.8, 154507.4, 0.0, 10.000522, 10.0001545 
5.45028e+2, 2.3553002e+2, -353497.88, -492361.78, 21074.127, -0.08615558, -0.2086429, -350370.1, 281414.9, 0.0, 10.001886, 10.000068 
5.4503125e+2, 2.4552907e+2, -392884.53, -618846.75, 11482.971, -0.12776548, -0.2341836, -392302.5, 141489.33, 0.0, 10.001617, 9.998655 
5.450364e+2, 2.5552776e+2, -529061.06, -635829.94, -857.3581, -0.0051806676, -0.25065106, -529054.1, -93249.7, 0.0, 10.000023, 9.9986315 
5.450402e+2, 2.6552635e+2, -474803.7, -622361.06, 4190.4277, 0.006881447, -0.22125687, -474684.78, -136865.77, 0.0, 10.000008, 9.998058 
5.4504305e+2, 2.755246e+2, -183661.14, -425957.94, 14047.914, -0.05806236, -0.2249111, -182849.39, 56988.33, 0.0, 10.001302, 9.998115 
5.450462e+2, 2.8552255e+2, -8315.389, -212708.23, -13973.637, -0.07473014, -0.27446657, -7364.483, 134490.4, 0.00000011177434, 10.001513, 9.998796 
5.4504937e+2, 2.955203e+2, -2059.147, -165508.4, -72720.53, -0.058627497, -0.4037007, 25610.88, 69481.74, 0.0000045059896, 10.000905, 9.998739 
5.4505515e+2, 3.0551717e+2, -28443.887, -245148.08, 13201.255, 0.12693238, -0.54212, -27642.65, -27642.65, 0.000026381855, 10.000782, 9.997925 
5.4505736e+2, 3.1551775e+2, 69513.414, -38761.68, 36561.633, -0.13580242, -0.30110827, 80702.94, 80702.94, 0.00007890932, 10.000729, 9.999366 
5.549993e+2, 1.255377e+2, -1436053.3, -1634406.8, 80843.805, 0.13924797, 0.122944534, -1407277.9, 302446.72, 0.000026661139, 10.002157, 9.999482 
5.549959e+2, 1.3553564e+2, -1624702.5, -1696929.8, 27893.463, -0.35112113, -0.051404465, -1615184.5, -3446.5908, 0.0000052899522, 10.000232, 9.999355 
5.550064e+2, 1.4553379e+2, -1616217.5, -1719237.3, 67617.26, 0.3099082, -0.124154255, -1582725.3, -68971.92, 0.00000021782215, 9.999955, 9.998633 
5.550056e+2, 1.5553254e+2, -1267778.1, -1490420.1, 2268.9104, -0.09488032, -0.1458288, -1267755.0, 148010.63, 0.00000000000011946363, 10.001633, 9.998724 
5.550074e+2, 1.655311e+2, -1106643.5, -1299114.1, -20599.76, -0.20423338, -0.18863808, -1104463.5, 213314.42, 0.0, 10.00182, 9.999262 
5.5501264e+2, 1.7552926e+2, -1168526.9, -1281339.6, 15797.741, 0.040617615, -0.3181626, -1166356.4, 53436.266, 0.0, 10.0007305, 9.999243 
5.550164e+2, 1.855288e+2, -1110802.5, -1198502.5, 27968.143, 0.109221935, -0.28852496, -1102642.5, 19154.572, 0.0, 10.000416, 9.999296 
5.5501854e+2, 1.955293e+2, -953908.56, -1070536.0, 26648.023, -0.00255811, -0.18684629, -948108.25, 75686.445, 0.0, 10.000812, 9.999314 
5.5502045e+2, 2.0552896e+2, -833543.7, -882835.56, -22556.094, -0.046088163, -0.18392545, -824780.06, 101016.96, 0.0, 10.000639, 10.000005 
5.5502236e+2, 2.1552779e+2, -835504.56, -841781.7, 29186.875, -0.014593371, -0.3219736, -809288.0, 18516.895, 0.0, 9.999982, 9.999934 
5.550253e+2, 2.2552748e+2, -761095.06, -889869.06, 127243.14, -0.06462813, -0.27845713, -682875.94, 46931.547, 0.0, 10.000417, 9.998713 
5.550289e+2, 2.355278e+2, -465999.13, -698390.2, 76968.92, -0.19199227, -0.13722108, -442818.84, 188987.9, 0.0, 10.00177, 9.998708 
5.55033e+2, 2.4552664e+2, -411231.84, -640132.25, -54334.926, -0.1377967, -0.11353533, -398988.97, 134830.52, 0.0, 10.001543, 9.998548 
5.550373e+2, 2.555241e+2, -544253.7, -651168.6, -46007.293, 0.06715685, -0.24342224, -527181.94, -91337.266, 0.0, 9.999952, 9.998562 
5.550407e+2, 2.655231e+2, -445736.7, -554375.6, 46547.23, 0.046991516, -0.19906303, -428521.22, -90665.85, 0.0, 9.999978, 9.998537 
5.550434e+2, 2.7552307e+2, -169358.95, -380490.5, 68418.445, -0.16653644, -0.071805276, -149126.42, 90730.02, 0.0, 10.001235, 9.998459 
5.55047e+2, 2.855212e+2, -98671.38, -395580.25, -44294.402, -0.16384654, -0.053110704, -92204.19, 49670.773, 0.00000024371042, 10.001487, 9.997556 
5.550512e+2, 2.9551786e+2, -80700.15, -326639.2, -81705.414, 0.010696795, -0.17096478, -56030.656, -12123.061, 0.0000058589785, 10.000885, 9.997649 
5.550566e+2, 3.0551502e+2, 67040.766, -42543.504, 9889.064, 0.16967757, -0.30317414, 67926.02, 67926.02, 0.000029984647, 10.000767, 9.999319 
5.550581e+2, 3.1551617e+2, 104985.695, 51510.92, 68153.695, -0.17657794, -0.14091434, 151459.06, 151459.06, 0.00008416486, 10.000648, 10.000028 
5.650021e+2, 1.2553415e+2, -1418204.1, -1633084.6, 124743.76, 0.20979586, 0.008210957, -1361010.1, 348746.78, 0.000022362587, 10.002287, 9.999428 
5.649973e+2, 1.355337e+2, -1528875.4, -1662570.9, -81045.336, -0.2596731, -0.000749238, -1490666.1, 121091.05, 0.000004259607, 10.000918, 9.99926 
5.650066e+2, 1.4553183e+2, -1599596.0, -1719974.3, 93712.38, 0.32670197, -0.06477964, -1548408.6, -34635.082, 0.00000013010742, 10.00011, 9.998556 
5.6500685e+2, 1.555294e+2, -1468357.0, -1586709.6, 66905.56, -0.060830407, -0.1978582, -1438212.6, -22415.906, 0.0, 10.000266, 9.99872 
5.650085e+2, 1.6552812e+2, -1298476.4, -1335464.6, 30027.363, -0.18437651, -0.25118962, -1281704.8, 36101.594, 0.0, 10.000251, 9.999779 
5.6501293e+2, 1.755275e+2, -1226147.6, -1252258.9, 44268.254, 0.0306223, -0.31130114, -1193050.0, 26757.89, 0.0, 10.000083, 9.999757 
5.650166e+2, 1.8552735e+2, -1148979.0, -1217140.5, 110665.46, 0.103953496, -0.27265924, -1067265.4, 54543.305, 0.0, 10.00016, 9.999287 
5.6501937e+2, 1.9552752e+2, -1016615.44, -1099720.4, 107180.72, 0.023168057, -0.20724694, -943214.4, 80595.75, 0.0, 10.000387, 9.99931 
5.6502116e+2, 2.0552686e+2, -825405.3, -933315.25, 8953.218, -0.04485043, -0.21255489, -824667.5, 101148.88, 0.0, 10.000936, 9.999512 
5.650226e+2, 2.155254e+2, -617423.6, -786465.4, -67933.766, -0.072897896, -0.32927763, -593506.6, 234321.08, 0.0, 10.001709, 9.999473 
5.650257e+2, 2.2552465e+2, -677599.3, -899502.3, 33451.215, -0.10020653, -0.2885683, -672666.3, 57169.46, 0.0, 10.001193, 9.998277 
5.650302e+2, 2.3552431e+2, -812333.56, -908607.75, 46109.23, -0.124958724, -0.17059639, -793813.0, -161970.53, 0.0, 9.999575, 9.998321 
5.6503445e+2, 2.455232e+2, -650210.8, -744660.0, -18231.418, -0.05734928, -0.1275734, -646813.75, -112958.51, 0.0, 9.999882, 9.998617 
5.650383e+2, 2.555212e+2, -269536.88, -514214.03, -17617.145, 0.09117283, -0.20723058, -268274.94, 167600.36, 0.0, 10.001828, 9.998596 
5.6504154e+2, 2.655202e+2, -176669.7, -410338.1, 68851.62, 0.045270123, -0.17025137, -157891.31, 179994.19, 0.0, 10.001768, 9.998656 
5.6504405e+2, 2.7551985e+2, -328040.9, -438049.4, 50924.98, -0.16167794, -0.094280325, -308086.38, -68197.72, 0.0, 10.000084, 9.998602 
5.6504786e+2, 2.855182e+2, -300236.25, -522672.8, 14398.173, -0.15973012, -0.048495952, -299308.16, -157401.78, 0.00000046127252, 10.0002165, 9.997301 
5.650526e+2, 2.955155e+2, 39846.79, -295355.47, 34067.66, 0.020444252, -0.072638825, 43274.15, 87209.8, 0.000007820285, 10.001818, 9.99742 
5.650577e+2, 3.055132e+2, 171256.25, 28819.162, 68772.625, 0.18076201, -0.14763424, 199041.52, 199041.52, 0.00003595913, 10.001393, 9.999509 
5.650589e+2, 3.1551367e+2, -123718.484, -64327.68, 10849.139, -0.07316656, -0.07915867, -62407.887, -62407.887, 0.000094486146, 9.999113, 9.999965 
5.750046e+2, 1.2552781e+2, -1443697.4, -1696755.6, 117358.15, 0.18006402, -0.37561455, -1397650.3, 312159.22, 0.000015098279, 10.002335, 9.998962 
5.749986e+2, 1.3552994e+2, -1555808.0, -1719644.5, -134396.4, -0.24441238, -0.08461621, -1480331.9, 131459.63, 0.0000026568694, 10.000922, 9.998862 
5.7500625e+2, 1.4552887e+2, -1553580.1, -1621401.8, 83130.29, 0.25921375, -0.085134104, -1497710.3, 16091.048, 0.000000050157187, 10.000102, 9.999234 
5.7500774e+2, 1.55526e+2, -1424474.0, -1493121.1, 80801.49, -0.01682476, -0.32797077, -1371008.1, 44817.64, 0.0, 10.00026, 9.999366 
5.750093e+2, 1.6552588e+2, -1263621.0, -1263606.5, 13054.135, -0.1552938, -0.32322297, -1250559.6, 67265.125, 0.0, 10.000245, 10.000276 
5.750122e+2, 1.7552775e+2, -1194366.8, -1187289.9, 46206.87, -0.068218835, -0.18157735, -1144486.1, 75319.05, 0.0, 10.000081, 10.000206 
5.750151e+2, 1.8552798e+2, -1139374.9, -1189081.1, 112803.76, -0.0767488, -0.13804166, -1048718.8, 73083.32, 0.0, 10.000131, 9.999492 
5.750177e+2, 1.9552669e+2, -1018584.2, -1091420.4, 125408.164, -0.19878943, -0.23653214, -924413.25, 99401.195, 0.0, 10.000336, 9.999392 
5.7502073e+2, 2.0552538e+2, -976902.06, -1227586.6, 29680.2, -0.2004818, -0.20492889, -973435.94, -47605.83, 0.0, 10.000848, 9.997534 
5.7502425e+2, 2.1552397e+2, -761741.94, -1063471.3, -35634.64, -0.09191998, -0.11935246, -757590.56, 70259.055, 0.0, 10.001608, 9.997621 
5.750278e+2, 2.2552207e+2, -644222.9, -807669.75, -34612.152, -0.019986963, -0.14133112, -637195.44, 92674.17, 0.0, 10.001098, 9.998951 
5.750315e+2, 2.3551956e+2, -781785.3, -824111.56, 1764.2927, 0.022839988, -0.30496654, -781711.94, -149820.31, 0.0, 9.999483, 9.998944 
5.750354e+2, 2.4551867e+2, -642153.0, -724595.0, 47327.797, 0.026403496, -0.27790892, -620611.8, -86712.125, 0.0, 9.999855, 9.998774 
5.750394e+2, 2.5551894e+2, -268815.97, -497890.1, 57783.195, -0.007734312, -0.14680946, -255065.72, 180831.92, 0.0, 10.001758, 9.998745 
5.750425e+2, 2.6551762e+2, -192714.7, -440223.97, -1943.9716, -0.062280513, -0.13902253, -192699.44, 145210.34, 0.0, 10.001744, 9.998468 
5.7504463e+2, 2.7551475e+2, -341334.28, -461578.34, 45.43685, -0.13677654, -0.29297256, -341334.25, -101398.99, 0.0, 10.000051, 9.998465 
5.750483e+2, 2.855134e+2, -251787.88, -407952.22, 65595.49, -0.15160568, -0.25488144, -227891.64, -85941.93, 0.0000006054728, 10.000161, 9.998116 
5.750532e+2, 2.955132e+2, 77314.82, -199280.84, 98088.76, -0.12011904, -0.10699156, 108568.44, 152523.95, 0.000009307056, 10.001744, 9.998114 
5.7505834e+2, 3.0551177e+2, 100990.86, -117784.484, -19550.938, 0.090603925, -0.07803608, 102724.3, 102724.3, 0.000040671366, 10.001386, 9.998515 
5.750594e+2, 3.1550992e+2, -178973.83, -179621.72, -51935.867, 0.017630856, -0.14139904, -127360.9, -127360.9, 0.000103750725, 9.999101, 9.99919 
5.850052e+2, 1.255246e+2, -1773299.8, -1859870.1, 144008.14, 0.14030448, -0.39449605, -1666212.3, 43627.016, 0.000008007214, 10.000066, 9.998945 
5.850004e+2, 1.3552646e+2, -1505233.9, -1688290.9, -162141.42, -0.17047606, -0.1282735, -1410570.8, 201254.53, 0.0000012151539, 10.00124, 9.998925 
5.8500636e+2, 1.4552581e+2, -1402759.9, -1483663.1, 78050.88, 0.2256008, -0.12069078, -1355300.9, 158529.94, 0.000000012980553, 10.000863, 9.999804 
5.8500785e+2, 1.5552402e+2, -1474906.3, -1459136.9, 52943.246, 0.008898975, -0.3153435, -1413494.5, 2348.7244, 0.0, 9.999659, 9.999881 
5.850095e+2, 1.6552417e+2, -1416202.0, -1367160.4, -7877.303, -0.10377914, -0.29331416, -1365926.1, -48085.94, 0.0, 9.999328, 10.000004 
5.8501244e+2, 1.7552574e+2, -1261319.0, -1243993.5, -46961.617, -0.029755056, -0.1581168, -1204902.4, 14924.169, 0.0, 9.999727, 9.999983 
5.850154e+2, 1.8552575e+2, -1119600.5, -1173078.4, 14442.509, -0.059978012, -0.13057299, -1115949.4, 5876.6987, 0.0, 10.000239, 9.999553 
5.850182e+2, 1.955243e+2, -948270.44, -1051986.8, 37.705616, -0.20189801, -0.24674551, -948270.44, 75567.6, 0.0, 10.000793, 9.999445 
5.850218e+2, 2.0552313e+2, -972209.56, -1248243.1, -10740.13, -0.18036939, -0.19555752, -971792.3, -45939.37, 0.0, 10.000972, 9.9973345 
5.8502626e+2, 2.1552205e+2, -884110.1, -1143711.8, 42665.22, -0.010868409, -0.05959549, -877278.0, -49406.535, 0.0, 10.000854, 9.997437 
5.8502954e+2, 2.2552015e+2, -668042.8, -826084.0, 53329.41, 0.055187907, -0.06896978, -651730.94, 78161.24, 0.0, 10.0009775, 9.998883 
5.850319e+2, 2.3551734e+2, -525246.75, -711096.44, 18872.018, 0.037405927, -0.254467, -523349.75, 108567.055, 0.0, 10.001291, 9.998855 
5.850357e+2, 2.4551623e+2, -450391.2, -643809.4, 98472.05, 0.013502486, -0.23934977, -409080.75, 124845.71, 0.0, 10.001215, 9.998675 
5.8504057e+2, 2.5551638e+2, -395265.9, -568156.6, 72857.3, -0.015977094, -0.11095421, -368658.25, 67266.43, 0.0, 10.000927, 9.998659 
5.8504397e+2, 2.6551476e+2, -335462.94, -530153.25, -35618.508, -0.03939455, -0.116728485, -329151.16, 8788.096, 0.0, 10.000864, 9.998272 
5.8504593e+2, 2.755115e+2, -209289.55, -418052.53, -47104.49, -0.05389891, -0.29060254, -199153.22, 40815.76, 0.0, 10.001049, 9.998283 
5.8504933e+2, 2.8551003e+2, -123650.28, -300552.4, 62806.47, -0.10003979, -0.27671587, -103619.805, 38363.9, 0.00000055145284, 10.000847, 9.998519 
5.850537e+2, 2.9551002e+2, -115047.81, -250953.16, 46551.344, -0.16512866, -0.15343218, -100631.84, -56645.645, 0.000008783807, 10.000253, 9.998472 
5.850588e+2, 3.0550876e+2, 23040.006, -159012.94, -57645.188, 0.033226475, -0.11958708, 39757.613, 39757.613, 0.000039667964, 10.000866, 9.998472 
5.8506e+2, 3.1550685e+2, 313136.38, 73609.87, -44931.125, 0.010065103, -0.19208863, 321287.3, 321287.3, 0.00010388018, 10.002413, 9.999321 
5.950041e+2, 1.2552439e+2, -1725428.4, -1766108.6, 196319.89, -0.03885938, -0.050292615, -1548397.8, 161449.56, 0.0000033726953, 10.000108, 9.999562 
5.950023e+2, 1.3552333e+2, -1468861.1, -1610645.4, -124814.59, -0.11532023, -0.12938839, -1396211.0, 215647.1, 0.00000044999516, 10.001244, 9.999454 
5.950065e+2, 1.4552268e+2, -1366424.1, -1409155.9, 18116.62, 0.13269351, -0.17507453, -1359777.4, 154084.48, 0.000000014541682, 10.000866, 10.000313 
5.95007e+2, 1.5552348e+2, -1447697.4, -1403666.5, 17163.023, -0.07172024, -0.15881187, -1397766.9, 18081.813, 0.0, 9.999661, 10.000261 
5.95009e+2, 1.6552314e+2, -1490730.6, -1514332.3, -2535.463, -0.10709735, -0.14993103, -1490461.4, -172609.78, 0.0, 9.999301, 9.999006 
5.950134e+2, 1.7552152e+2, -1326888.9, -1378699.6, -23358.027, 0.06788162, -0.23147818, -1317913.1, -98042.34, 0.0, 9.999725, 9.99906 
5.950172e+2, 1.8552066e+2, -1127653.8, -1185759.9, 26673.385, 0.071789354, -0.24367368, -1117266.4, 4613.6113, 0.0, 10.00022, 9.9994755 
5.950205e+2, 1.9552033e+2, -955733.56, -1055699.9, 27331.889, -0.07754144, -0.24374288, -948748.8, 75132.89, 0.0, 10.000742, 9.999445 
5.950241e+2, 2.0552008e+2, -867605.5, -1013825.0, -22647.104, -0.06506206, -0.18705961, -864178.1, 61707.203, 0.0, 10.000896, 9.9989805 
5.9502834e+2, 2.1551968e+2, -790549.2, -930735.9, 47853.434, 0.09196698, -0.14374569, -775771.9, 52120.74, 0.0, 10.000772, 9.99894 
5.9503067e+2, 2.255189e+2, -737760.06, -954565.56, 56837.29, 0.048767824, -0.068012625, -723763.4, 6139.8926, 0.0, 10.000904, 9.998038 
5.9503144e+2, 2.3551755e+2, -596981.44, -839045.5, 37467.08, -0.16208741, -0.022021068, -591314.9, 40603.688, 0.0, 10.001196, 9.998025 
5.9503525e+2, 2.4551576e+2, -478633.8, -694397.44, 79886.91, -0.17574221, -0.018606119, -452275.53, 81660.74, 0.0, 10.001173, 9.998351 
5.9504163e+2, 2.5551352e+2, -426940.88, -617612.8, 69393.03, -0.025499571, -0.10001644, -404360.16, 31596.428, 0.0, 10.000853, 9.998358 
5.950457e+2, 2.6551172e+2, -356866.72, -564020.6, -36430.535, 0.03243809, -0.100294836, -350646.72, -12672.974, 0.0, 10.000821, 9.998059 
5.950478e+2, 2.7551e+2, -233009.67, -454106.38, -31079.803, 0.00088507956, -0.096175574, -228723.83, 11266.758, 0.0, 10.000992, 9.998063 
5.950505e+2, 2.8550804e+2, -130074.6, -305019.06, 32001.379, -0.08269867, -0.122178845, -124404.58, 17604.236, 0.0000003359344, 10.000813, 9.998501 
5.950538e+2, 2.9550576e+2, -123800.88, -249831.83, 35714.094, -0.20472239, -0.22102354, -114384.0, -70355.836, 0.000006914508, 10.000175, 9.998512 
5.95059e+2, 3.0550405e+2, 75586.33, -41320.68, -4945.192, -0.06534635, -0.2799985, 75795.13, 75795.13, 0.000035638073, 10.000827, 9.999303 
5.9506017e+2, 3.1550443e+2, 366653.1, 212556.16, 43836.625, -0.26092163, -0.20568779, 378250.63, 378250.63, 0.00009897654, 10.002299, 10.00033 
6.0500383e+2, 1.2552185e+2, -1735533.4, -1737014.5, 254521.03, -0.05351491, 0.033728477, -1481751.9, 228120.55, 0.0000011578151, 9.999873, 9.999892 
6.0500354e+2, 1.3551986e+2, -1761609.3, -1703380.9, -119435.5, -0.0022585928, -0.18155636, -1609562.3, 2327.6877, 0.00000014603442, 9.999039, 9.999873 
6.0500616e+2, 1.4551911e+2, -1629518.9, -1561019.5, 7231.2188, 0.10364615, -0.24576193, -1560264.5, -46369.516, 0.0000000031309833, 9.999164, 10.000099 
6.050075e+2, 1.5552053e+2, -1359810.9, -1385648.1, -67264.97, -0.015573665, -0.14169668, -1304235.3, 111643.34, 0.0, 10.000368, 10.0000515 
6.0501e+2, 1.6552013e+2, -1249196.8, -1430862.9, -48385.39, -0.030504217, -0.114045925, -1237113.4, 80770.03, 0.0, 10.001088, 9.998722 
6.050141e+2, 1.7551798e+2, -1107018.6, -1303969.1, -33160.36, 0.086778, -0.22412148, -1101585.4, 118323.16, 0.0, 10.001363, 9.998788 
6.0501784e+2, 1.8551712e+2, -1012321.3, -1118277.1, 42749.793, 0.083576396, -0.2277481, -997224.25, 124693.375, 0.0, 10.000964, 9.9995775 
6.0502124e+2, 1.9551723e+2, -1051471.1, -1085979.0, 42994.777, -0.028366733, -0.19425936, -1022397.4, 1517.351, 0.0, 10.000017, 9.999582 
6.0502493e+2, 2.055171e+2, -934124.5, -991194.6, -6984.631, -0.026217908, -0.1570907, -933282.1, -7365.946, 0.0, 10.000204, 9.999475 
6.050291e+2, 2.1551657e+2, -689923.94, -831345.2, -38484.96, 0.07816194, -0.17524348, -680129.4, 147793.73, 0.0, 10.00124, 9.9994 
6.0503185e+2, 2.2551602e+2, -613827.44, -914875.75, -30437.674, 0.03954421, -0.08781555, -610780.9, 119150.78, 0.0, 10.001839, 9.997861 
6.0503346e+2, 2.3551525e+2, -475141.25, -792446.5, -16141.616, -0.11439797, 0.031589326, -474322.22, 157620.86, 0.0, 10.002096, 9.997905 
6.05037e+2, 2.455135e+2, -398444.0, -637837.0, 51905.39, -0.14336497, 0.036561668, -387674.34, 146286.16, 0.0, 10.001673, 9.99849 
6.05042e+2, 2.5551078e+2, -436666.3, -608485.8, 61417.035, -0.06533413, -0.104557484, -416970.5, 19013.678, 0.0, 10.00074, 9.998472 
6.050463e+2, 2.6550895e+2, -344004.4, -569677.8, 34707.773, 0.006797827, -0.1059554, -338787.1, -785.7351, 0.0, 10.000945, 9.99797 
6.0504997e+2, 2.755077e+2, -81418.44, -392227.3, 30430.912, 0.075776, -0.047873206, -78467.01, 161548.03, 0.0, 10.002064, 9.997981 
6.0505277e+2, 2.8550565e+2, 68188.6, -214325.9, 69433.84, 0.0003807145, -0.07081253, 84331.06, 226364.27, 0.00000016006682, 10.002189, 9.998465 
6.0505486e+2, 2.9550302e+2, 72743.4, -158791.66, 56008.926, -0.17725442, -0.20612085, 85580.38, 129635.24, 0.0000052467194, 10.001527, 9.998492 
6.050596e+2, 3.0550084e+2, 101681.58, -26057.064, 41312.73, -0.082133874, -0.31419694, 113878.23, 113878.23, 0.000031333126, 10.001006, 9.999324 
6.0506105e+2, 3.1550103e+2, 94978.41, 56830.88, 5515.144, -0.30602473, -0.24776663, 95759.75, 95759.75, 0.000092264556, 10.000538, 10.000123 
6.150041e+2, 1.2551717e+2, -1717499.9, -1701548.1, 177320.78, -0.055412352, -0.13082862, -1532024.0, 177889.22, 0.00000031033701, 9.999896, 10.0001135 
6.1500365e+2, 1.355161e+2, -1744100.5, -1665688.9, -142875.08, 0.08530722, -0.27978593, -1556738.1, 55181.953, 0.000000018009526, 9.999045, 10.000122 
6.1500514e+2, 1.4551508e+2, -1692012.6, -1701244.8, 35887.31, 0.0528643, -0.33180442, -1660445.8, -146515.53, 0.0, 9.999197, 9.999125 
6.150091e+2, 1.5551512e+2, -1415128.0, -1514497.9, -16159.098, 0.09135339, -0.27098233, -1412566.4, 3366.6873, 0.0, 10.000412, 9.999152 
6.15012e+2, 1.6551515e+2, -1221464.6, -1364448.4, -46787.063, 0.038455326, -0.1841907, -1207515.8, 110419.92, 0.0, 10.00106, 9.99919 
6.1501443e+2, 1.7551494e+2, -1077226.4, -1243438.8, -16543.068, -0.039864164, -0.14138462, -1075595.9, 144344.56, 0.0, 10.001366, 9.999205 
6.1501724e+2, 1.8551499e+2, -1000213.94, -1078049.0, -791.7721, -0.09668332, -0.09046192, -1000205.94, 121733.984, 0.0, 10.000903, 9.999879 
6.150204e+2, 1.9551508e+2, -1041750.5, -1056138.9, 19844.861, -0.13306242, -0.08969299, -1027836.06, -3899.5022, 0.0, 9.999974, 9.999809 
6.1502415e+2, 2.0551434e+2, -988919.44, -1087257.0, 24242.576, -0.14483002, -0.09135877, -983267.9, -57323.63, 0.0, 10.00013, 9.998848 
6.1502844e+2, 2.1551277e+2, -746323.2, -924756.7, 6339.1743, -0.1291657, -0.15202482, -746098.25, 81864.21, 0.0, 10.001137, 9.998809 
6.1503303e+2, 2.2551158e+2, -591783.06, -847166.3, -26628.854, -0.04392741, -0.1259755, -589036.0, 140940.83, 0.0, 10.001741, 9.998372 
6.1503786e+2, 2.3551057e+2, -453353.22, -724232.06, 272.2542, 0.09798832, -0.08431725, -453352.94, 178636.4, 0.0, 10.001995, 9.998422 
6.1504054e+2, 2.4550943e+2, -369279.94, -564521.44, 7500.1553, 0.029180491, -0.069673195, -368992.25, 165006.92, 0.0, 10.001616, 9.99902 
6.150414e+2, 2.5550804e+2, -411787.2, -543532.94, 35832.797, -0.21490559, -0.1329916, -402671.9, 33336.547, 0.0, 10.000679, 9.998948 
6.150455e+2, 2.6550645e+2, -347531.94, -567336.9, 69315.45, -0.18351462, -0.13500981, -327499.1, 10523.542, 0.0, 10.000905, 9.998004 
6.1505216e+2, 2.7550453e+2, -93620.664, -393783.44, 79396.11, 0.07317254, -0.14692387, -73913.46, 166128.95, 0.0, 10.001966, 9.9980135 
6.150558e+2, 2.85503e+2, 56410.098, -227497.58, 35385.28, 0.06002063, -0.11770726, 60753.938, 202810.33, 0.00000012615395, 10.002136, 9.998399 
6.1505663e+2, 2.9550183e+2, 54423.273, -174971.3, 38985.69, -0.17974702, -0.105268754, 60867.85, 104933.11, 0.000004351736, 10.001436, 9.998421 
6.150606e+2, 3.0549914e+2, 39172.516, -152500.36, 18043.78, -0.0992638, -0.21396399, 40856.336, 40856.336, 0.000027327982, 10.000985, 9.998473 
6.15062e+2, 3.154968e+2, -16744.96, -154543.06, 29524.736, -0.30690527, -0.3131407, -10685.428, -10685.428, 0.00008383067, 10.000452, 9.998715 
6.250045e+2, 1.2551242e+2, -1784474.4, -1731587.4, 107600.53, 0.023616323, -0.21879591, -1647228.6, 62730.434, 0.000000031381585, 9.999412, 10.000154 
6.250046e+2, 1.3551253e+2, -1462714.8, -1520000.3, -222994.55, 0.18475008, -0.25960177, -1266531.0, 345424.66, 0.000000000001578113, 10.000915, 10.0002365 
6.250048e+2, 1.4551185e+2, -1440954.0, -1611727.6, -981.6459, 0.01623939, -0.267271, -1440948.4, 73015.414, 0.0, 10.001061, 9.9988365 
6.2501013e+2, 1.5551144e+2, -1436996.6, -1549587.0, -16637.236, 0.15197022, -0.2237885, -1434589.6, -18616.799, 0.0, 10.000394, 9.998904 
6.250131e+2, 1.6551134e+2, -1354510.3, -1408504.9, -24368.963, 0.10487944, -0.14784747, -1345138.5, -27161.627, 0.0, 10.00006, 9.99937 
6.250148e+2, 1.755113e+2, -1285303.8, -1316864.8, -36508.85, -0.054043286, -0.10840501, -1261310.9, -41332.105, 0.0, 9.999843, 9.999425 
6.250174e+2, 1.8551135e+2, -1114131.8, -1130706.8, -29045.375, -0.12131016, -0.070300035, -1092214.6, 29762.822, 0.0, 10.000091, 9.999921 
6.250208e+2, 1.9551124e+2, -937350.75, -998940.0, -39757.098, -0.11826124, -0.09499503, -917856.8, 106118.766, 0.0, 10.000654, 9.999878 
6.250247e+2, 2.0551059e+2, -943616.2, -1077412.9, 5003.1978, -0.12050413, -0.08524711, -943429.4, -17447.014, 0.0, 10.000493, 9.998741 
6.2502897e+2, 2.1550928e+2, -956637.3, -1030458.56, 12071.823, -0.11440289, -0.10980789, -954713.4, -126715.01, 0.0, 9.999722, 9.998761 
6.250338e+2, 2.2550796e+2, -872178.56, -946657.7, 14357.426, -0.031347077, -0.11107627, -869506.7, -139493.45, 0.0, 9.999663, 9.99869 
6.250391e+2, 2.3550649e+2, -696922.0, -809776.1, 10462.589, 0.11867317, -0.1474067, -695960.2, -63931.234, 0.0, 10.000181, 9.998711 
6.2504214e+2, 2.4550556e+2, -481076.2, -618687.6, -10238.458, 0.0712027, -0.12655473, -480318.63, 53718.18, 0.0, 10.000828, 9.999039 
6.250433e+2, 2.5550497e+2, -271989.06, -470633.16, -34108.902, -0.13611348, -0.111121476, -266295.47, 169743.95, 0.0, 10.001608, 9.999005 
6.2504727e+2, 2.655035e+2, -237857.33, -483629.34, 13120.391, -0.12660861, -0.11565672, -237158.89, 100892.734, 0.0, 10.001523, 9.99828 
6.2505335e+2, 2.7550113e+2, -262509.7, -447323.25, 21794.314, 0.061704125, -0.2018059, -259974.34, -19900.287, 0.0, 10.000684, 9.998261 
6.25057e+2, 2.8549963e+2, -192201.45, -384157.4, -12305.672, 0.048810393, -0.16475198, -191415.8, -49327.31, 0.000000116905284, 10.000592, 9.99807 
6.250584e+2, 2.9549882e+2, -11095.997, -249662.95, -48786.11, -0.12216827, -0.07975204, -1504.9913, 42591.555, 0.000004287332, 10.001157, 9.998054 
6.250625e+2, 3.0549663e+2, 120678.06, -142906.88, -37630.668, -0.03444308, -0.104953855, 125945.15, 125945.15, 0.000025852014, 10.001685, 9.998191 
6.250641e+2, 3.1549346e+2, 193633.58, -100576.56, 1107.8157, -0.21926087, -0.26304606, 193637.75, 193637.75, 0.00007867894, 10.002104, 9.998279 
6.3500446e+2, 1.2550743e+2, -1779226.8, -1738511.6, 77794.95, 0.031316657, -0.24336262, -1678454.8, 31557.227, 0.0000000061075784, 9.999494, 10.000065 
6.350059e+2, 1.3550906e+2, -1465106.5, -1528042.4, -170545.3, 0.21132892, -0.12385277, -1323150.4, 288846.9, 0.0, 10.000924, 10.000179 
6.35005e+2, 1.4550948e+2, -1410872.5, -1542773.9, -37610.656, -0.09381031, -0.04557743, -1400901.8, 113093.48, 0.0, 10.0010395, 9.999318 
6.350102e+2, 1.5550943e+2, -1401744.8, -1487800.4, -28173.994, 0.09302119, -0.0082560675, -1393341.4, 22656.969, 0.0, 10.000435, 9.999313 
6.350132e+2, 1.655086e+2, -1362604.3, -1421503.8, -42283.26, 0.0875471, -0.02174246, -1340525.8, -22517.59, 0.0, 10.000046, 9.999285 
6.35015e+2, 1.7550695e+2, -1289704.9, -1332522.8, -35657.754, -0.03563549, -0.13442397, -1269522.8, -49498.094, 0.0, 9.99986, 9.999315 
6.350181e+2, 1.8550606e+2, -1130196.5, -1155790.0, -15125.528, -0.07694166, -0.17428371, -1123180.6, -1149.0681, 0.0, 10.00006, 9.999759 
6.350222e+2, 1.9550563e+2, -953944.8, -1024646.94, -13939.249, -0.06417764, -0.21511652, -951295.9, 72736.59, 0.0, 10.000613, 9.999722 
6.3502634e+2, 2.0550573e+2, -926955.44, -1019475.9, -33162.918, -0.024164414, -0.14559163, -916296.5, 9735.043, 0.0, 10.000396, 9.999185 
6.350304e+2, 2.1550608e+2, -941614.0, -973013.5, -5704.155, 0.03960763, -0.049590256, -940609.9, -112579.01, 0.0, 9.99961, 9.999208 
6.3503397e+2, 2.2550511e+2, -877351.4, -936825.4, 26630.373, -0.00037637394, -0.044113018, -867170.2, -137128.72, 0.0, 9.999571, 9.998803 
6.3503695e+2, 2.3550288e+2, -704874.7, -804682.9, 40323.08, -0.13065405, -0.16765079, -690619.8, -58556.78, 0.0, 10.000083, 9.9987955 
6.350415e+2, 2.4550182e+2, -524424.2, -692752.75, 12909.552, -0.09301095, -0.13892968, -523439.84, 10633.716, 0.0, 10.000763, 9.998561 
6.350473e+2, 2.5550157e+2, -314325.6, -540072.7, 645.6033, 0.085962564, -0.040009715, -314323.75, 121752.77, 0.0, 10.001526, 9.9985695 
6.350512e+2, 2.655002e+2, -214563.0, -416868.28, -26947.814, 0.10032415, -0.04450045, -211034.97, 127053.086, 0.0, 10.001453, 9.998767 
6.350533e+2, 2.754976e+2, -248214.83, -391964.88, 1802.575, -0.03489031, -0.20240693, -248192.23, -8083.039, 0.0, 10.000582, 9.998689 
6.350562e+2, 2.8549558e+2, -235758.88, -468166.03, -1993.8997, -0.10418115, -0.20846795, -235741.77, -93612.48, 0.0000001448745, 10.000565, 9.997508 
6.3505995e+2, 2.9549402e+2, -63771.563, -336814.22, -16921.307, -0.10859532, -0.13463302, -62726.89, -18578.758, 0.000005079309, 10.001076, 9.99749 
6.350649e+2, 3.0549347e+2, 132743.8, -123262.38, -25634.75, 0.009503524, 0.02393125, 135285.45, 135285.45, 0.000027855136, 10.001691, 9.99833 
6.350665e+2, 3.1549105e+2, 196607.63, -63865.22, 61367.57, -0.22941986, -0.08208983, 210341.69, 210341.69, 0.00008145653, 10.001966, 9.998601 
6.450044e+2, 1.255036e+2, -1867908.3, -1771877.8, 108863.25, 0.12063619, -0.1919706, -1700911.1, 9141.443, 0.0000000021671396, 9.998841, 10.0001545 
6.4500654e+2, 1.3550518e+2, -1619729.8, -1585866.6, -94730.96, 0.23921092, -0.08625541, -1506566.0, 105473.54, 0.0, 9.999814, 10.000301 
6.4500475e+2, 1.4550611e+2, -1525716.8, -1543575.4, 5166.1826, -0.16597192, 0.01217356, -1524330.0, -10298.136, 0.0, 10.000014, 9.99981 
6.4501023e+2, 1.5550654e+2, -1500975.8, -1481040.1, -2076.2117, 0.10978773, 0.043154214, -1480826.1, -64797.418, 0.0, 9.99952, 9.999802 
6.4501345e+2, 1.6550566e+2, -1435429.8, -1472382.6, 27607.943, 0.13003306, 0.013634744, -1420686.0, -102647.97, 0.0, 9.999611, 9.999149 
6.4501506e+2, 1.7550367e+2, -1248902.5, -1325591.0, 17379.68, -0.029289914, -0.11907939, -1245147.6, -25089.082, 0.0, 10.000196, 9.999202 
6.450185e+2, 1.8550275e+2, -1102260.4, -1150900.8, 53376.746, -0.052339505, -0.15459102, -1067924.4, 54142.258, 0.0, 10.00029, 9.999681 
6.4502347e+2, 1.9550247e+2, -1059344.4, -1080749.3, 44011.133, 0.033930115, -0.17289655, -1024753.06, -686.32166, 0.0, 9.999924, 9.999663 
6.450274e+2, 2.0550247e+2, -945895.3, -1012513.44, 29059.984, 0.06267614, -0.11915158, -935000.56, -8934.591, 0.0, 10.000192, 9.999329 
6.450307e+2, 2.1550252e+2, -744499.94, -866400.4, 15122.022, 0.050422404, -0.06761688, -742652.06, 85414.34, 0.0, 10.000906, 9.999317 
6.4503413e+2, 2.2550178e+2, -630018.4, -796419.2, 63349.22, -0.017493326, -0.055405658, -608646.2, 121427.58, 0.0, 10.001171, 9.999 
6.450375e+2, 2.355002e+2, -546763.4, -706657.3, 63316.652, -0.13026194, -0.13455658, -524727.4, 107361.09, 0.0, 10.001073, 9.99899 
6.4504266e+2, 2.4549901e+2, -500730.5, -706281.2, 74344.555, -0.061118916, -0.11558662, -476659.94, 57440.52, 0.0, 10.0010395, 9.998336 
6.4504933e+2, 2.55498e+2, -397343.53, -602100.25, 67089.29, 0.16488686, -0.068542786, -377319.7, 58791.72, 0.0, 10.001059, 9.998368 
6.4505315e+2, 2.6549658e+2, -252796.77, -450791.16, 19985.254, 0.16703747, -0.059308883, -250799.63, 87324.59, 0.0, 10.001247, 9.998639 
6.4505464e+2, 2.7549458e+2, -105182.02, -337432.63, -14195.552, -0.0037436541, -0.1465584, -104317.586, 135823.36, 0.000000000000000000046744374, 10.0016165, 9.99857 
6.450576e+2, 2.854924e+2, -10647.974, -370594.06, 29584.83, -0.097569905, -0.15884972, -8232.535, 133930.08, 0.00000034821963, 10.002154, 9.997412 
6.4506173e+2, 2.9548994e+2, 170147.14, -241799.67, 27002.496, -0.12171791, -0.168104, 171909.58, 216099.16, 0.0000068469953, 10.002741, 9.997346 
6.45067e+2, 3.0548948e+2, 184212.86, -148503.89, -3731.4026, 0.025147842, 0.03421351, 184254.7, 184254.7, 0.00003364889, 10.002277, 9.997863 
6.4506966e+2, 3.1548697e+2, 74519.32, -102376.945, 8145.285, -0.060997266, -0.038972884, 74893.58, 74893.58, 0.000093640454, 10.001053, 9.998763 
6.5500385e+2, 1.2550093e+2, -1838193.0, -1712802.3, 41724.21, 0.13863105, -0.066926904, -1700187.4, 9893.526, 0.0000000012982254, 9.998859, 10.000547 
6.55006e+2, 1.355009e+2, -1592046.5, -1537468.8, -54843.945, 0.1804636, -0.15101929, -1503499.6, 108582.89, 0.0, 9.999858, 10.000609 
6.550039e+2, 1.4550173e+2, -1485001.1, -1467955.6, -25598.6, -0.27793056, -0.1065163, -1449498.3, 64576.125, 0.0, 10.000049, 10.000318 
6.5501004e+2, 1.5550266e+2, -1467786.6, -1416399.4, -11449.872, 0.115191266, -0.071342506, -1413963.6, 2100.8713, 0.0, 9.999532, 10.000246 
6.5501344e+2, 1.6550255e+2, -1445751.9, -1490305.4, 39709.64, 0.14417362, -0.039388143, -1422497.3, -104430.17, 0.0, 9.999597, 9.999028 
6.550146e+2, 1.7550153e+2, -1255852.0, -1344949.6, 46115.72, -0.11809122, -0.06381053, -1236281.8, -16201.42, 0.0, 10.000214, 9.99906 
6.550183e+2, 1.8550137e+2, -1103892.1, -1146428.3, 30816.691, -0.1200582, -0.016584337, -1087717.0, 34365.895, 0.0, 10.0002575, 9.999728 
6.550241e+2, 1.9550174e+2, -1060423.5, -1072674.8, 41781.742, 0.09395046, 0.024103971, -1024320.75, -242.37877, 0.0, 9.999883, 9.999739 
6.5502775e+2, 2.0550081e+2, -973064.1, -1051160.5, 48505.277, 0.06527223, -0.0074640056, -949842.56, -23756.875, 0.0, 10.0001135, 9.999104 
6.550296e+2, 2.1549858e+2, -771629.7, -899603.56, 48289.16, -0.16794503, -0.16163294, -755453.25, 72651.766, 0.0, 10.000806, 9.999137 
6.55034e+2, 2.2549795e+2, -631035.56, -770324.94, 51055.63, -0.15971601, -0.14293471, -614326.0, 115784.05, 0.0, 10.001056, 9.99923 
6.550404e+2, 2.354984e+2, -548863.56, -681777.9, 67519.27, 0.03837667, -0.04149827, -520582.13, 111523.2, 0.0, 10.000954, 9.999214 
6.550454e+2, 2.454971e+2, -508157.78, -702649.75, 65093.797, 0.091343954, -0.04932041, -488382.47, 45735.035, 0.0, 10.000959, 9.998398 
6.550491e+2, 2.5549415e+2, -406827.6, -601597.75, 77161.9, 0.017636698, -0.20369068, -379963.66, 56181.36, 0.0, 10.0009775, 9.998406 
6.5505296e+2, 2.6549268e+2, -304276.8, -555358.1, 24001.33, 0.005183409, -0.16681348, -302003.1, 36157.61, 0.0, 10.001228, 9.997934 
6.550571e+2, 2.754922e+2, -158679.11, -437336.0, 10875.181, 0.05146367, -0.026191154, -158255.33, 81912.82, 0.0000000002377775, 10.00156, 9.997917 
6.550605e+2, 2.8549024e+2, 6589.667, -317240.16, 43219.88, -0.0382647, -0.006329175, 12258.754, 154446.14, 0.0000008000927, 10.002089, 9.997804 
6.550633e+2, 2.954867e+2, 172466.5, -204096.78, 55672.492, -0.2564799, -0.16703478, 180524.88, 224744.45, 0.000010270006, 10.002615, 9.997659 
6.5506846e+2, 3.0548486e+2, 106632.83, -313460.25, -55976.105, -0.07108047, -0.05674685, 113963.55, 113963.55, 0.00004390313, 10.002279, 9.996739 
6.5507275e+2, 3.154811e+2, 64065.313, -115021.09, -2770.2556, 0.09965672, -0.13831465, 64108.152, 64108.152, 0.00011355579, 10.00101, 9.998706 
6.650032e+2, 1.2549777e+2, -1762986.8, -1669746.9, 54427.21, 0.17068209, -0.05092463, -1644702.8, 65410.168, 0.00000000035571668, 9.999341, 10.000605 
6.650053e+2, 1.3549788e+2, -1711506.0, -1610965.5, -29390.56, 0.17679356, -0.11388688, -1603004.3, 9110.137, 0.0, 9.999085, 10.000489 
6.650034e+2, 1.4549848e+2, -1602448.3, -1509732.5, -25911.803, -0.2828166, -0.09171455, -1502982.3, 11125.992, 0.0, 9.999193, 10.000437 
6.650099e+2, 1.5549879e+2, -1423138.9, -1379355.4, -59345.816, 0.13545255, -0.13147067, -1337992.3, 78110.61, 0.0, 9.99978, 10.000376 
6.650136e+2, 1.654989e+2, -1324258.8, -1394771.9, 38290.945, 0.1758073, -0.101677366, -1307465.1, 10637.027, 0.0, 10.000274, 9.999357 
6.6501534e+2, 1.7549877e+2, -1168715.0, -1266276.8, 59075.023, -0.08577405, -0.07326073, -1140883.6, 79222.29, 0.0, 10.000654, 9.999383 
6.650191e+2, 1.8549912e+2, -1047533.56, -1138009.8, 40442.715, -0.08521291, 0.017534686, -1032091.4, 90013.11, 0.0, 10.000736, 9.999551 
6.6502464e+2, 1.9549966e+2, -971146.94, -1052026.9, 16911.852, 0.12979805, 0.096615724, -967753.06, 56347.53, 0.0, 10.0005865, 9.999543 
6.650283e+2, 2.054984e+2, -890734.4, -1003091.06, 67119.234, 0.081096314, 0.037043486, -859385.56, 66725.4, 0.0, 10.000645, 9.999178 
6.6503024e+2, 2.1549544e+2, -764953.2, -892226.2, 70034.69, -0.18329719, -0.19540831, -733961.7, 94173.195, 0.0, 10.000838, 9.999172 
6.6503507e+2, 2.2549458e+2, -671622.44, -836702.3, 54683.367, -0.14937252, -0.17864567, -655151.7, 74990.516, 0.0, 10.0009775, 9.998815 
6.6504216e+2, 2.3549528e+2, -570293.4, -740249.56, 8038.946, 0.12398486, -0.009307218, -569913.94, 62223.457, 0.0, 10.001009, 9.998793 
6.65047e+2, 2.4549383e+2, -454695.38, -669704.5, 10698.536, 0.1488319, -0.013708532, -454164.34, 79986.9, 0.0, 10.001282, 9.998472 
6.650499e+2, 2.5549042e+2, -290991.66, -543615.2, 732.2123, -0.031187506, -0.22372934, -290989.53, 145192.88, 0.0, 10.001741, 9.9984455 
6.6505396e+2, 2.6548892e+2, -190523.1, -511255.56, -10425.027, -0.056329407, -0.18253142, -190184.6, 148013.69, 0.0, 10.002058, 9.997837 
6.650589e+2, 2.7548894e+2, -57971.61, -395243.75, 3233.016, 0.051889967, 0.013814387, -57940.62, 182262.0, 0.0000000023427176, 10.002287, 9.99785 
6.6506284e+2, 2.8548715e+2, 20819.537, -294717.63, 60483.723, -0.010310217, 0.049214553, 32016.059, 174235.7, 0.0000014418595, 10.002116, 9.997945 
6.650658e+2, 2.954835e+2, 38236.684, -246948.22, 33276.305, -0.21493755, -0.13994086, 42068.0, 86319.12, 0.000014823799, 10.001604, 9.997845 
6.6507053e+2, 3.0548084e+2, 25616.303, -369469.66, -38702.355, -0.0619781, -0.11634791, 29371.861, 29371.861, 0.000057815294, 10.001807, 9.996578 
6.650749e+2, 3.1547734e+2, 285279.88, 19850.24, 50692.46, 0.14980672, -0.14960928, 294631.78, 294631.78, 0.00014076727, 10.00241, 9.9989605 
6.750019e+2, 1.2549415e+2, -1778639.6, -1715544.5, -48012.33, 0.056403425, -0.15505162, -1689642.6, 20505.486, 0.0000000023126079, 9.999405, 10.0002575 
6.7500436e+2, 1.3549615e+2, -1748205.6, -1687639.1, -33483.996, 0.14475974, 0.023654444, -1672775.4, -60640.336, 0.0, 9.999096, 9.999955 
6.7500293e+2, 1.4549658e+2, -1618740.8, -1546606.8, -15050.9795, -0.27457458, 0.06822291, -1543592.3, -29460.576, 0.0, 9.999203, 10.00018 
6.750092e+2, 1.5549514e+2, -1430967.8, -1402402.0, -27226.877, 0.06889061, -0.11966063, -1385939.1, 30203.021, 0.0, 9.999807, 10.000206 
6.750137e+2, 1.6549483e+2, -1263763.3, -1273968.8, 43199.863, 0.13998447, -0.16739705, -1225365.8, 92776.64, 0.0, 10.000288, 10.000183 
6.7501694e+2, 1.7549539e+2, -1115405.6, -1154400.8, 80784.21, -0.005776394, -0.15001792, -1051799.4, 168335.88, 0.0, 10.000647, 10.000156 
6.7502064e+2, 1.8549594e+2, -1081367.9, -1202891.9, 25282.34, -0.028361581, -0.054212444, -1076318.0, 45813.754, 0.0, 10.000709, 9.99912 
6.750246e+2, 1.9549628e+2, -1007671.5, -1113548.4, 20376.455, 0.05112989, 0.04690409, -1003885.4, 20247.734, 0.0, 10.000525, 9.99915 
6.7502856e+2, 2.0549531e+2, -882735.1, -966913.2, 66750.81, 0.03037371, 0.021932762, -845911.8, 80229.19, 0.0, 10.000554, 9.999474 
6.750324e+2, 2.154931e+2, -759501.4, -861111.44, 85120.53, -0.07328694, -0.16848485, -711176.94, 116979.164, 0.0, 10.00075, 9.99943 
6.750371e+2, 2.2549175e+2, -761142.0, -994341.75, 49032.34, -0.05945829, -0.1591996, -751251.94, -21082.232, 0.0, 10.00086, 9.997787 
6.7504257e+2, 2.3549093e+2, -655585.4, -888882.6, 21425.648, 0.043136407, -0.03811804, -653634.0, -21450.277, 0.0, 10.000894, 9.997825 
6.750473e+2, 2.4548937e+2, -466818.28, -676217.25, 22329.049, 0.033799917, -0.007697373, -464463.72, 69736.695, 0.0, 10.001204, 9.998463 
6.750515e+2, 2.5548697e+2, -304941.0, -550765.0, 26536.387, -0.067556255, -0.11654106, -302109.06, 134112.61, 0.0, 10.001645, 9.998442 
6.750558e+2, 2.6548553e+2, -165301.6, -442266.66, -9605.854, -0.099442184, -0.09382635, -164968.84, 173266.45, 0.0, 10.001988, 9.998344 
6.7506003e+2, 2.7548483e+2, -35125.125, -330023.8, 21560.836, -0.08295852, -0.020974668, -33557.09, 206686.92, 0.0000000015372758, 10.002213, 9.998335 
6.7506444e+2, 2.854832e+2, 15942.92, -303734.47, 32821.207, -0.08404716, 0.007964048, 19277.875, 161537.19, 0.0000017821444, 10.002109, 9.997889 
6.7506874e+2, 2.9548052e+2, 25176.58, -252366.98, 27220.664, -0.1050496, -0.07385918, 27821.105, 72103.94, 0.000019076204, 10.001509, 9.997855 
6.750726e+2, 3.0547735e+2, 65987.68, -269390.0, -21552.709, -0.05483567, -0.14230911, 67367.07, 67367.07, 0.000073988194, 10.001743, 9.99729 
6.750753e+2, 3.154755e+2, 305060.16, 93508.96, 86231.09, -0.09557277, -0.08223396, 335755.34, 335755.34, 0.00017626329, 10.002284, 9.9995165 
6.8500054e+2, 1.2549132e+2, -1863875.0, -1757924.8, -110553.56, 0.023864228, -0.1254917, -1688309.3, 21869.828, 0.0000000036242784, 9.998819, 10.000256 
6.8500346e+2, 1.3549322e+2, -1643356.6, -1647926.6, -43225.348, 0.119963266, 0.056529954, -1602356.0, 9810.785, 0.0, 9.999873, 9.999846 
6.8500286e+2, 1.4549366e+2, -1468990.6, -1470012.9, 21018.91, -0.24116185, 0.104812175, -1448476.6, 65685.99, 0.0, 10.000201, 10.000227 
6.850089e+2, 1.5549257e+2, -1397632.0, -1380804.6, 13227.523, 0.05444317, -0.054738685, -1373541.8, 42626.695, 0.0, 10.000003, 10.000263 
6.8501365e+2, 1.6549209e+2, -1331243.4, -1314961.8, 71428.38, 0.13106018, -0.12026485, -1251211.8, 66958.27, 0.0, 9.999861, 10.000111 
6.850175e+2, 1.7549202e+2, -1247071.3, -1227613.1, 23531.049, 0.031618334, -0.15698296, -1211879.1, 8289.854, 0.0, 9.999783, 10.000073 
6.8502116e+2, 1.8549213e+2, -1182750.3, -1244229.8, -25973.748, 0.0016346485, -0.10320488, -1173246.1, -51077.11, 0.0, 9.999982, 9.9991865 
6.850248e+2, 1.9549215e+2, -1029578.25, -1114238.1, -8586.183, 0.02628835, -0.041912913, -1028716.2, -4544.019, 0.0, 10.000337, 9.999232 
6.850291e+2, 2.0549156e+2, -858405.6, -956437.5, 66369.83, 0.028874047, -0.033209134, -824913.9, 101262.664, 0.0, 10.000732, 9.999453 
6.850341e+2, 2.1549033e+2, -701900.2, -835720.5, 44146.805, 0.012297925, -0.12333662, -688648.56, 139534.98, 0.0, 10.001156, 9.999407 
6.8503886e+2, 2.25489e+2, -653290.8, -945386.06, 50195.65, -0.00073073327, -0.109880805, -644905.56, 85291.695, 0.0, 10.0016, 9.997773 
6.850434e+2, 2.3548743e+2, -493365.56, -813300.25, 78988.62, -0.010312567, -0.064195916, -474926.75, 157291.3, 0.0, 10.002006, 9.997812 
6.850482e+2, 2.4548586e+2, -396415.25, -648225.9, 114335.164, -0.015502904, -0.031026099, -352248.0, 181986.84, 0.0, 10.001712, 9.998407 
6.8505317e+2, 2.5548413e+2, -419104.66, -608909.8, 102555.94, -0.019099781, -0.06585868, -374278.13, 61971.867, 0.0, 10.000887, 9.998401 
6.850577e+2, 2.6548263e+2, -339471.34, -531298.6, 81959.125, -0.041508697, -0.04929762, -309223.47, 29041.021, 0.0, 10.0008135, 9.998296 
6.8506193e+2, 2.754811e+2, -167331.81, -397877.56, 50948.484, -0.066918366, -0.054675225, -156574.6, 83705.64, 0.00000000039754933, 10.00132, 9.998298 
6.8506634e+2, 2.8547946e+2, -93627.57, -363886.84, 32338.398, -0.0671955, -0.02063197, -89811.93, 52483.594, 0.000001935021, 10.001383, 9.997826 
6.850706e+2, 2.9547748e+2, -22750.762, -277879.53, 12521.814, -0.049612332, -0.024085438, -22137.66, 22175.352, 0.000022833043, 10.00118, 9.997843 
6.8507427e+2, 3.05474e+2, 74305.18, -223658.13, 8178.758, -0.04842187, -0.14394988, 74529.51, 74529.51, 0.00009092674, 10.00161, 9.99767 
6.8507713e+2, 3.1547213e+2, 287655.8, 80274.336, 49920.008, -0.11950601, -0.11906532, 299046.7, 299046.7, 0.00021663119, 10.002143, 9.999511 
6.949986e+2, 1.2548946e+2, -1823521.5, -1691282.8, -142190.98, -0.105448574, 0.049017552, -1600590.0, 109614.14, 0.00000000017840025, 9.998905, 10.000661 
6.950025e+2, 1.354892e+2, -1620302.8, -1605331.4, 1005.17535, 0.015236961, -0.01082009, -1605264.1, 6944.1963, 0.0, 9.999902, 10.000121 
6.950031e+2, 1.4548971e+2, -1435649.9, -1409691.8, 5078.082, -0.26624906, 0.009119042, -1408733.8, 105467.33, 0.0, 10.000235, 10.0006275 
6.950088e+2, 1.5549101e+2, -1370754.3, -1335160.5, 16753.209, 0.012916464, 0.05016095, -1328515.6, 87666.83, 0.0, 10.000039, 10.000566 
6.9501305e+2, 1.6549063e+2, -1401230.6, -1459685.9, 59948.668, 0.061679054, 0.03428918, -1363764.3, -45579.15, 0.0, 9.999865, 9.999111 
6.950167e+2, 1.7548877e+2, -1313841.6, -1363934.4, 31667.283, -0.054864537, -0.08226186, -1298513.0, -78307.16, 0.0, 9.999772, 9.999144 
6.9502056e+2, 1.8548779e+2, -1147079.4, -1161275.6, -18822.58, -0.07628526, -0.12451832, -1134061.0, -11845.761, 0.0, 9.999946, 9.99977 
6.9502485e+2, 1.9548732e+2, -999960.3, -1040772.2, 14490.339, -0.025354553, -0.17079054, -995338.8, 28878.695, 0.0, 10.000291, 9.999756 
6.9502974e+2, 2.0548713e+2, -892706.94, -1010936.7, 73457.945, -0.0039202906, -0.12865385, -857531.6, 68686.17, 0.0, 10.000658, 9.999115 
6.950352e+2, 2.1548708e+2, -735708.8, -883444.25, 68152.62, -0.008389893, -0.06693133, -709071.7, 119146.04, 0.0, 10.00106, 9.999125 
6.9504017e+2, 2.254863e+2, -601282.8, -812401.1, 57687.375, -0.043502726, -0.034963325, -586548.3, 143676.78, 0.0, 10.001494, 9.998737 
6.9504464e+2, 2.3548469e+2, -443710.97, -686112.2, 100058.17, -0.11076707, -0.0885063, -407745.34, 224495.48, 0.0, 10.0019045, 9.998733 
6.950495e+2, 2.4548331e+2, -410172.6, -659108.2, 75305.41, -0.07731901, -0.0792414, -389164.84, 145089.53, 0.0, 10.0016365, 9.99837 
6.950548e+2, 2.5548193e+2, -430924.7, -621721.3, 82485.18, 0.03223247, -0.076292254, -400209.4, 36058.375, 0.0, 10.000833, 9.998342 
6.9505966e+2, 2.654801e+2, -387513.6, -621465.7, 94407.25, 0.049788732, -0.056631163, -354169.56, -15883.179, 0.0, 10.000777, 9.997692 
6.950641e+2, 2.754777e+2, -220457.88, -492212.38, 78205.9, 0.0010554146, -0.085278615, -199558.89, 40752.48, 0.0000000054780975, 10.001251, 9.997683 
6.95068e+2, 2.854759e+2, -104710.125, -374311.44, 16326.094, -0.05781139, -0.034582008, -103725.08, 38603.45, 0.000002364329, 10.001332, 9.997775 
6.95071e+2, 2.9547447e+2, -34774.516, -286622.75, 22595.717, -0.15375036, 0.015873505, -32763.299, 11577.707, 0.000027093956, 10.001114, 9.99781 
6.9507533e+2, 3.0547082e+2, 77943.58, -214071.72, 26764.45, -0.124586076, -0.12424537, 80376.38, 80376.38, 0.00010798756, 10.001601, 9.997743 
6.9508034e+2, 3.1546757e+2, 230318.14, -12420.434, 83300.68, -0.06320415, -0.2397417, 256154.52, 256154.52, 0.00025661878, 10.002037, 9.998926 
7.049966e+2, 1.2548651e+2, -1962038.0, -1736618.0, -83448.28, -0.13483016, 0.0867971, -1709088.4, 1148.5393, 0.0, 9.997849, 10.000873 
7.0500255e+2, 1.35486e+2, -1632196.1, -1592980.4, 55534.92, 0.044510424, -0.014890606, -1553693.5, 58545.934, 0.0, 9.999732, 10.000291 
7.050046e+2, 1.454859e+2, -1440144.6, -1456268.1, -10511.764, -0.1450269, -0.043294188, -1434959.1, 79278.38, 0.0, 10.000408, 10.000218 
7.050089e+2, 1.5548705e+2, -1342079.6, -1358157.3, -79280.24, 0.00947014, 0.023672871, -1270431.6, 145791.0, 0.0, 10.000417, 10.000212 
7.050126e+2, 1.6548696e+2, -1334820.3, -1415241.6, -799.7238, 0.017415376, 0.048425484, -1334812.4, -16589.092, 0.0, 10.000272, 9.999217 
7.0501643e+2, 1.7548566e+2, -1288113.9, -1334478.1, 38383.547, -0.056928124, -0.02509353, -1266455.1, -46216.52, 0.0, 9.999885, 9.999286 
7.050208e+2, 1.8548487e+2, -1059109.0, -1094219.5, 67063.63, -0.067691214, -0.06604794, -1007340.94, 114903.97, 0.0, 10.00044, 9.999996 
7.0502573e+2, 1.954843e+2, -766665.9, -908064.0, 55142.035, -0.032873377, -0.1435834, -747704.44, 276541.78, 0.0, 10.001795, 9.9999485 
7.05031e+2, 2.0548381e+2, -721831.7, -969617.75, 81631.12, -0.003232597, -0.1209851, -697356.56, 228893.08, 0.0, 10.002016, 9.998746 
7.0503664e+2, 2.1548331e+2, -733123.56, -919012.3, 57942.746, 0.022949103, -0.06682078, -716541.6, 111714.15, 0.0, 10.001241, 9.998795 
7.0504165e+2, 2.2548246e+2, -659067.5, -787384.94, 55107.223, -0.01488864, -0.049766637, -638649.94, 91613.22, 0.0, 10.000878, 9.999198 
7.050459e+2, 2.3548116e+2, -562107.94, -693925.2, 44203.96, -0.114391565, -0.12049081, -548657.0, 83616.555, 0.0, 10.000888, 9.999165 
7.050509e+2, 2.4547997e+2, -454805.6, -685587.2, 11003.553, -0.085330434, -0.109420426, -454282.13, 80002.21, 0.0, 10.001354, 9.998322 
7.050564e+2, 2.554787e+2, -236757.97, -530923.4, 2817.009, 0.051997438, -0.0901629, -236730.98, 199566.02, 0.0, 10.002185, 9.99831 
7.050615e+2, 2.6547688e+2, -149036.13, -508128.66, 56712.258, 0.08482166, -0.07072646, -140292.34, 198022.97, 0.0, 10.002423, 9.997682 
7.050662e+2, 2.754743e+2, -93694.79, -428743.1, 65388.24, 0.044562303, -0.11360352, -81385.78, 158954.6, 0.000000016182126, 10.002119, 9.997698 
7.0507e+2, 2.8547212e+2, -20882.818, -357126.94, 32181.861, -0.014885717, -0.09157226, -17830.408, 124530.336, 0.0000030357212, 10.001993, 9.997583 
7.0507294e+2, 2.954702e+2, 75194.77, -250860.48, 14062.804, -0.10349326, -0.071177855, 75800.18, 120178.19, 0.000031540207, 10.001937, 9.997664 
7.050776e+2, 3.0546683e+2, 114632.91, -174353.63, 45150.66, -0.05824928, -0.1878187, 121522.88, 121522.88, 0.00012311795, 10.001764, 9.997931 
7.050828e+2, 3.1546357e+2, 128448.336, -53736.18, 68350.125, 0.025259737, -0.32492754, 151239.95, 151239.95, 0.00029061802, 10.001317, 9.998974 
7.149937e+2, 1.2548257e+2, -1934029.8, -1695845.1, -52810.754, -0.25175127, 0.008925737, -1684661.0, 25615.588, 0.0, 9.997929, 10.001109 
7.150034e+2, 1.3548358e+2, -1615087.5, -1573987.5, 126367.516, 0.12653305, 0.03389763, -1466510.0, 145750.6, 0.0, 9.999795, 10.000395 
7.15007e+2, 1.4548223e+2, -1522564.4, -1635016.6, -22871.45, 0.031037183, -0.05663126, -1518090.5, -3818.5056, 0.0, 10.000446, 9.998968 
7.1500903e+2, 1.5548077e+2, -1421052.4, -1523092.3, -70116.734, -0.04107728, -0.12821451, -1385357.9, 30930.309, 0.0, 10.000419, 9.99908 
7.1501213e+2, 1.6548109e+2, -1250262.1, -1233452.9, -22691.594, -0.08042075, -0.07474619, -1217659.5, 100625.164, 0.0, 10.00025, 10.000472 
7.1501654e+2, 1.7548262e+2, -1206488.0, -1166283.0, 35062.6, -0.051296446, 0.011744736, -1145968.9, 74298.61, 0.0, 9.999893, 10.000436 
7.150216e+2, 1.854833e+2, -1068219.6, -1110405.3, 110459.94, -0.050665133, 0.067781076, -976856.7, 145401.95, 0.0, 10.000426, 9.999891 
7.150272e+2, 1.9548315e+2, -786512.8, -930697.94, 112025.47, -0.081804976, 0.042205885, -725387.4, 298870.53, 0.0, 10.001717, 9.99983 
7.150327e+2, 2.0548172e+2, -767317.0, -1040373.44, 44384.227, -0.049782883, -0.0024347024, -760283.7, 165987.3, 0.0, 10.001917, 9.998305 
7.150381e+2, 2.15479e+2, -780949.8, -989488.94, 35924.15, 0.031418383, -0.123502135, -774934.8, 53362.81, 0.0, 10.001123, 9.9983635 
7.150428e+2, 2.254775e+2, -674016.44, -795636.94, 47120.613, 0.008884518, -0.15112254, -657896.6, 72414.59, 0.0, 10.000778, 9.99919 
7.1504706e+2, 2.3547684e+2, -576309.44, -703003.06, 54627.484, -0.10579995, -0.15742119, -556008.3, 76307.36, 0.0, 10.000798, 9.9991455 
7.150521e+2, 2.4547584e+2, -470729.75, -701483.4, 33883.594, -0.115609854, -0.1202353, -465857.22, 68467.0, 0.0, 10.001279, 9.998252 
7.1505785e+2, 2.5547445e+2, -248978.05, -540229.4, 39715.695, -0.043514404, -0.10759231, -243659.45, 192678.47, 0.0, 10.002115, 9.9982815 
7.150631e+2, 2.6547286e+2, -112474.57, -424373.8, 36166.246, -0.015931351, -0.091150716, -108335.836, 230015.64, 0.0, 10.002386, 9.998275 
7.1506786e+2, 2.7547085e+2, -65482.746, -355793.66, 64632.715, -0.024875674, -0.14056298, -51743.6, 188624.11, 0.000000020828322, 10.002053, 9.998232 
7.150723e+2, 2.854681e+2, -44943.26, -396382.72, 20885.295, -0.010691174, -0.18975052, -43706.445, 98685.99, 0.0000037854625, 10.001954, 9.997333 
7.1507615e+2, 2.9546475e+2, 42378.867, -299905.5, 22831.615, 0.0002066594, -0.28179723, 43895.1, 88319.06, 0.000035842306, 10.001863, 9.997363 
7.150806e+2, 3.054621e+2, 136116.97, -128800.56, 23429.28, 0.047313277, -0.32605773, 138173.1, 138173.1, 0.00013552594, 10.001751, 9.998253 
7.150839e+2, 3.1545997e+2, 155956.61, 20735.262, 72135.61, -0.043405876, -0.3903456, 187213.27, 187213.27, 0.00031582415, 10.001233, 9.999532 
7.249937e+2, 1.2548012e+2, -1728601.5, -1646799.9, 38028.008, -0.11715663, 0.03163377, -1631852.6, 78446.2, 0.0, 9.999509, 10.000713 
7.2500306e+2, 1.3548054e+2, -1591457.0, -1583475.9, 152851.27, 0.11424605, 0.027414467, -1434563.1, 177725.0, 0.0, 10.000056, 10.000204 
7.250078e+2, 1.454788e+2, -1576478.4, -1706646.1, 4972.8643, 0.07433103, -0.07283346, -1576288.6, -61983.938, 0.0, 10.00026, 9.998576 
7.2500944e+2, 1.5547746e+2, -1464868.0, -1581480.1, 6746.193, -0.027870322, -0.09475865, -1464479.0, -48156.555, 0.0, 10.000272, 9.998751 
7.2501254e+2, 1.6547748e+2, -1210743.0, -1222707.3, 50545.492, -0.07390494, -0.053598497, -1165826.9, 152495.06, 0.0, 10.000541, 10.000415 
7.2501713e+2, 1.7547832e+2, -1043967.7, -1092371.3, -6712.544, -0.030435218, -0.029967755, -1043054.06, 177255.2, 0.0, 10.001022, 10.0004015 
7.2502244e+2, 1.8547893e+2, -1032156.06, -1108786.6, 42863.383, -0.019603686, 0.026908904, -1012979.3, 109321.664, 0.0, 10.000737, 9.999754 
7.250283e+2, 1.9547918e+2, -1076385.0, -1082530.3, 26028.203, -0.04743277, 0.056797087, -1053248.6, -28950.795, 0.0, 9.999772, 9.999729 
7.250339e+2, 2.0547795e+2, -1008628.3, -1097308.1, 16754.941, -0.02779297, 0.0092869755, -1005568.25, -79260.26, 0.0, 9.999994, 9.998849 
7.2503924e+2, 2.1547525e+2, -735054.8, -915190.06, 68272.14, 0.031977817, -0.16490574, -712103.56, 116228.21, 0.0, 10.001196, 9.998848 
7.250442e+2, 2.2547378e+2, -568068.4, -795421.44, 104908.62, 0.020366002, -0.18920562, -527057.56, 203287.34, 0.0, 10.001728, 9.998734 
7.250489e+2, 2.3547319e+2, -471770.47, -701663.8, 60754.316, -0.04472893, -0.13914461, -456702.44, 175648.08, 0.0, 10.001728, 9.998708 
7.250541e+2, 2.4547186e+2, -411628.34, -656620.6, 61730.523, -0.056400664, -0.12524782, -396953.2, 137408.72, 0.0, 10.001616, 9.998395 
7.250597e+2, 2.554697e+2, -338026.97, -571986.0, 67279.445, -0.036395144, -0.1997377, -320059.34, 116320.555, 0.0, 10.00145, 9.998386 
7.250647e+2, 2.65468e+2, -249578.64, -510214.66, 41970.598, -0.048105236, -0.19203472, -242986.77, 95407.66, 0.0, 10.001539, 9.998088 
7.2506934e+2, 2.754664e+2, -102695.086, -394500.75, -7154.588, -0.06738879, -0.1819201, -102519.77, 137888.78, 0.000000011844985, 10.001888, 9.998046 
7.250742e+2, 2.8546366e+2, -62619.977, -418271.1, -57603.07, -0.012482195, -0.21326707, -53522.977, 88911.43, 0.000004675658, 10.001907, 9.997196 
7.2507876e+2, 2.954599e+2, -4118.9375, -339337.56, -66649.7, 0.089020506, -0.33069223, 8646.54, 53117.184, 0.000040333267, 10.001623, 9.997204 
7.250832e+2, 3.054574e+2, 92418.79, -153556.67, -58948.12, 0.14718048, -0.34701192, 105816.04, 105816.04, 0.00014552726, 10.001471, 9.9982195 
7.2508514e+2, 3.154566e+2, 184851.88, 56425.43, -71205.664, -0.036025386, -0.2792121, 216521.83, 216521.83, 0.0003310756, 10.001334, 9.999731 
7.3499596e+2, 1.2547913e+2, -1787412.3, -1772783.5, 39617.01, 0.11830415, 0.16564468, -1739811.3, -29507.594, 0.0, 9.999543, 9.99982 
7.3500144e+2, 1.3547693e+2, -1636349.3, -1682113.0, 173864.63, -0.0727361, -0.032996092, -1483867.3, 128454.875, 0.0, 10.000072, 9.99952 
7.350064e+2, 1.4547548e+2, -1543296.8, -1627729.1, -5105.5786, -0.10675085, -0.101709194, -1542989.1, -28652.05, 0.0, 10.000231, 9.999122 
7.350099e+2, 1.5547705e+2, -1437108.4, -1526889.9, 19114.248, -0.03695724, 0.11510591, -1433208.4, -16882.354, 0.0, 10.000288, 9.999116 
7.350136e+2, 1.654761e+2, -1298745.6, -1411767.4, 58141.35, -0.044305064, 0.11212383, -1274176.9, 44158.168, 0.0, 10.000565, 9.9991045 
7.35018e+2, 1.7547284e+2, -1131463.5, -1274640.3, 17968.129, -0.07122626, -0.14597358, -1129243.0, 91119.97, 0.0, 10.001019, 9.999154 
7.350231e+2, 1.8547183e+2, -1052957.6, -1140531.9, -423.62854, -0.051122483, -0.18146606, -1052955.6, 69415.68, 0.0, 10.000691, 9.9995575 
7.350286e+2, 1.9547251e+2, -1094127.6, -1103256.0, 1633.144, -0.0067294305, -0.08952239, -1093844.1, -69479.04, 0.0, 9.99971, 9.999613 
7.3503417e+2, 2.0547265e+2, -908693.7, -873507.3, 54955.14, -0.0120830685, -0.07568871, -833397.94, 92961.85, 0.0, 9.999921, 10.000421 
7.3503965e+2, 2.1547215e+2, -646657.06, -706028.3, 120805.914, -0.062415935, -0.18850425, -551942.94, 276414.1, 0.0, 10.00109, 10.00033 
7.350454e+2, 2.254714e+2, -651017.6, -945435.94, 95700.99, -0.054204628, -0.15920433, -622644.3, 107718.67, 0.0, 10.001627, 9.997756 
7.3505116e+2, 2.3547024e+2, -550274.94, -839459.25, 69044.66, -0.0034973184, -0.0733454, -534635.9, 97742.38, 0.0, 10.001618, 9.997816 
7.350566e+2, 2.4546799e+2, -396036.44, -607972.06, 48582.637, 0.011207911, -0.12694418, -385430.47, 148966.98, 0.0, 10.001545, 9.998763 
7.3506165e+2, 2.554646e+2, -330381.1, -535282.25, 69935.234, -0.004866444, -0.36301956, -308787.1, 127635.22, 0.0, 10.001362, 9.99868 
7.350662e+2, 2.6546243e+2, -327754.4, -658958.0, 49262.418, -0.07271032, -0.3617897, -320582.56, 17860.162, 0.0, 10.001479, 9.997096 
7.3507035e+2, 2.7546102e+2, -176596.77, -536241.5, 18625.576, -0.17584573, -0.23333417, -175634.75, 64827.28, 0.000000051096855, 10.001835, 9.997101 
7.350752e+2, 2.854588e+2, -61608.164, -416256.06, -74953.164, -0.1172649, -0.16966602, -46417.8, 96068.97, 0.0000058850314, 10.001904, 9.997211 
7.3508036e+2, 2.9545578e+2, -13331.212, -350583.8, -63740.152, 0.06449617, -0.21781647, -1686.5051, 42830.75, 0.000044056193, 10.001586, 9.997145 
7.35085e+2, 3.0545294e+2, 58839.617, -226781.44, -66641.484, 0.16129947, -0.23917891, 73623.3, 73623.3, 0.00015023218, 10.00148, 9.997715 
7.3508596e+2, 3.1545314e+2, 152423.22, 11403.794, -41925.04, -0.1406264, -0.019567447, 163945.98, 163945.98, 0.00033283475, 10.001236, 9.999469 
7.449963e+2, 1.2547414e+2, -1685602.5, -1722285.5, -89794.69, 0.17314352, 0.08748988, -1612295.3, 98054.48, 0.0, 10.000252, 9.999813 
7.450007e+2, 1.3547309e+2, -1845303.5, -1749603.1, 71572.71, -0.06729361, -0.017223692, -1711358.6, -98999.83, 0.0, 9.998521, 9.999793 
7.4500626e+2, 1.4547217e+2, -1778185.9, -1685340.9, -9739.22, -0.041378826, -0.07275349, -1684330.4, -169961.73, 0.0, 9.99837, 9.999625 
7.4501044e+2, 1.5547377e+2, -1480740.3, -1493295.5, -8657.181, 0.017241096, 0.09520119, -1476324.1, -59968.664, 0.0, 9.999755, 9.9995985 
7.450145e+2, 1.654729e+2, -1363979.5, -1483930.5, 71181.71, 0.00747472, 0.09573307, -1330875.0, -12510.94, 0.0, 10.000296, 9.998741 
7.4501914e+2, 1.7546968e+2, -1281486.4, -1383761.1, 83066.97, -0.0050285533, -0.12043069, -1235078.1, -14684.592, 0.0, 10.000148, 9.998827 
7.45024e+2, 1.854683e+2, -1127305.9, -1177511.3, 101437.28, 0.007920623, -0.17571932, -1047911.4, 74493.81, 0.0, 10.000186, 9.999547 
7.450289e+2, 1.9546826e+2, -999008.44, -1059677.6, 104290.07, 0.02273769, -0.15582922, -920730.8, 103673.28, 0.0, 10.00037, 9.999593 
7.450346e+2, 2.0546842e+2, -819514.75, -843560.6, 148996.39, 0.0043450356, -0.13430725, -682057.0, 244341.67, 0.0, 10.000598, 10.00029 
7.4504083e+2, 2.1546857e+2, -693156.4, -745892.94, 67363.26, -0.03630478, -0.16710223, -647184.5, 181206.88, 0.0, 10.000847, 10.000174 
7.4504703e+2, 2.2546776e+2, -738619.5, -986865.9, 15776.268, -0.007342021, -0.13568649, -737620.94, -7223.034, 0.0, 10.001021, 9.997764 
7.450532e+2, 2.3546599e+2, -624980.94, -877107.0, 43024.01, 0.06595005, -0.11144195, -617841.3, 14576.518, 0.0, 10.0011015, 9.99781 
7.450586e+2, 2.4546355e+2, -458757.7, -666162.9, 47413.426, 0.07538512, -0.17053781, -448432.84, 86006.43, 0.0, 10.001231, 9.998519 
7.450635e+2, 2.5546038e+2, -327391.06, -559074.6, 3908.677, 0.041269366, -0.3579921, -327325.16, 109138.67, 0.0, 10.00149, 9.998457 
7.4506813e+2, 2.654583e+2, -316655.25, -642490.1, 26555.969, -0.019752786, -0.3444543, -314505.06, 23979.47, 0.0, 10.001501, 9.997203 
7.450726e+2, 2.754569e+2, -247673.3, -555140.75, 60072.65, -0.09934483, -0.22618169, -236353.14, 4150.847, 0.00000017449423, 10.001289, 9.99723 
7.450774e+2, 2.85455e+2, -84554.76, -437199.6, 28521.318, -0.07881426, -0.13391703, -82262.9, 60263.41, 0.0000070145306, 10.001784, 9.997126 
7.4508226e+2, 2.9545248e+2, 175969.48, -265917.66, 12061.672, 0.032237336, -0.123703904, 176298.47, 220850.94, 0.00004543542, 10.002915, 9.997084 
7.450871e+2, 3.054491e+2, 262277.84, -179546.22, 693.976, 0.1488622, -0.17354888, 262278.94, 262278.94, 0.00014809403, 10.003099, 9.997261 
7.4508846e+2, 3.1544867e+2, 251770.16, -21433.238, 11295.166, -0.058424454, 0.033277787, 252236.34, 252236.34, 0.0003227844, 10.00227, 9.998745 
7.549942e+2, 1.254651e+2, -1621070.0, -1583866.0, -159747.5, -0.11022141, -0.20836085, -1441641.1, 268796.16, 0.0, 10.000249, 10.000758 
7.550006e+2, 1.3546893e+2, -1763836.1, -1582203.4, 15087.65, 0.04871114, 0.058487415, -1580958.6, 31440.459, 0.0, 9.998538, 10.00093 
7.5500727e+2, 1.454688e+2, -1739934.8, -1614084.8, 29375.213, 0.19154263, 0.0031181644, -1607565.9, -93165.86, 0.0, 9.998401, 10.000102 
7.550106e+2, 1.5546776e+2, -1443345.4, -1416756.8, 49480.336, 0.040209908, -0.13976294, -1378815.9, 37593.313, 0.0, 9.999756, 10.000127 
7.550149e+2, 1.6546793e+2, -1323008.3, -1397911.1, 55172.633, -0.0033950082, -0.095249824, -1293776.6, 24631.71, 0.0, 10.000292, 9.999335 
7.550205e+2, 1.7546883e+2, -1245334.0, -1307207.8, 85781.586, 0.09103954, 0.046233367, -1185081.1, 35320.016, 0.0, 10.000145, 9.999353 
7.5502515e+2, 1.8546835e+2, -1113688.3, -1144213.8, 99209.62, 0.077148505, 0.043098792, -1028574.2, 93828.88, 0.0, 10.000161, 9.99979 
7.550288e+2, 1.9546647e+2, -996895.5, -1041159.0, 120299.61, -0.0467406, -0.14383432, -896708.75, 127706.03, 0.0, 10.000311, 9.999748 
7.5503474e+2, 2.0546527e+2, -964601.2, -1127902.6, 149341.69, -0.05467793, -0.16409276, -876046.75, 50377.887, 0.0, 10.00052, 9.998381 
7.5504255e+2, 2.1546449e+2, -833182.06, -1007392.1, 84515.414, 0.037046026, -0.101531066, -798919.3, 29515.436, 0.0, 10.000727, 9.998434 
7.5504917e+2, 2.2546296e+2, -686036.75, -850759.1, 12174.25, 0.083922215, -0.11229914, -685141.8, 45306.863, 0.0, 10.000909, 9.998753 
7.550546e+2, 2.3546058e+2, -579517.8, -755717.6, 57021.617, 0.0823226, -0.24321254, -562674.6, 69793.46, 0.0, 10.00099, 9.998697 
7.5505984e+2, 2.454587e+2, -530659.06, -803043.25, 48799.086, 0.055502754, -0.24134357, -522180.4, 12305.613, 0.0, 10.001174, 9.997607 
7.5506485e+2, 2.55457e+2, -389990.53, -678810.7, 22143.627, 0.012116542, -0.19559239, -388302.7, 48202.54, 0.0, 10.001441, 9.997661 
7.5507027e+2, 2.654555e+2, -236078.56, -466741.56, 11634.47, 0.021092568, -0.14880806, -235493.22, 103027.4, 0.0, 10.00147, 9.998423 
7.550759e+2, 2.75454e+2, -179879.86, -397828.28, 65907.02, 0.07411188, -0.16139935, -161499.8, 79035.055, 0.0000002213921, 10.001218, 9.998345 
7.5508046e+2, 2.8545222e+2, -103414.35, -468574.56, 63027.848, 0.028788349, -0.09689865, -92841.66, 49711.258, 0.000006961638, 10.001747, 9.996933 
7.550841e+2, 2.954499e+2, 155180.3, -295943.66, 62917.81, -0.10246673, -0.04297714, 163791.02, 208367.94, 0.00004401986, 10.002848, 9.996919 
7.55089e+2, 3.0544567e+2, 223281.98, -237835.55, -34405.85, 0.011773679, -0.15709943, 225835.0, 225835.0, 0.0001416952, 10.003019, 9.996889 
7.550919e+2, 3.1544363e+2, 158922.06, -191005.53, 26379.203, 0.018950202, -0.07380472, 160899.48, 160899.48, 0.00030699253, 10.002182, 9.997615 
7.6499283e+2, 1.254599e+2, -2025048.5, -1757641.9, 17257.477, -0.113276795, -0.29463154, -1756532.8, -46048.816, 0.00000000032551553, 9.997328, 10.000989 
7.649998e+2, 1.3546434e+2, -1691613.9, -1506980.1, 72751.31, 0.10792435, -0.013485748, -1481759.1, 130680.76, 0.0, 9.998817, 10.001322 
7.65007e+2, 1.4546455e+2, -1609496.1, -1544724.9, 103214.72, 0.29038063, -0.056461398, -1468934.3, 45502.69, 0.0, 9.999265, 10.000165 
7.650103e+2, 1.5546326e+2, -1504871.8, -1440481.1, 69606.266, 0.059423935, -0.23163079, -1395985.0, 20463.566, 0.0, 9.999301, 10.000192 
7.6501477e+2, 1.6546372e+2, -1427414.1, -1437630.1, 37957.895, 0.0026816262, -0.16506411, -1394222.1, -75776.75, 0.0, 9.999536, 9.999423 
7.650209e+2, 1.7546538e+2, -1276271.9, -1312315.4, 15986.749, 0.13632903, 0.04196044, -1270203.0, -49770.92, 0.0, 9.999897, 9.999433 
7.650259e+2, 1.8546489e+2, -1111616.5, -1178748.9, 15799.278, 0.13805465, 0.049195185, -1108084.1, 14350.38, 0.0, 10.000328, 9.999471 
7.650299e+2, 1.9546238e+2, -949703.56, -1058103.4, -22021.098, 0.0108688185, -0.16887182, -945400.8, 79051.22, 0.0, 10.000795, 9.999404 
7.6503587e+2, 2.0546079e+2, -929799.1, -1159048.4, 55592.992, -0.008960191, -0.19014058, -917029.2, 9437.767, 0.0, 10.000964, 9.997956 
7.650435e+2, 2.1545973e+2, -841245.75, -1058766.4, 83982.02, 0.06045752, -0.11041214, -812595.06, 15886.906, 0.0, 10.000859, 9.998027 
7.650501e+2, 2.2545823e+2, -645248.25, -789015.9, 58372.49, 0.08862226, -0.11720201, -624532.75, 105963.21, 0.0, 10.001019, 9.999121 
7.6505566e+2, 2.3545623e+2, -490462.0, -673296.2, 38682.547, 0.077448204, -0.2482549, -482614.66, 149895.98, 0.0, 10.001441, 9.999041 
7.650614e+2, 2.4545464e+2, -463173.06, -788549.9, 54897.758, 0.078596555, -0.22550726, -454160.3, 80366.66, 0.0, 10.001724, 9.99744 
7.650673e+2, 2.554532e+2, -337829.8, -668648.9, 65746.69, 0.09035648, -0.13316044, -325242.34, 111303.98, 0.0, 10.001876, 9.997518 
7.650727e+2, 2.6545197e+2, -120147.38, -381070.66, 49849.86, 0.09030097, -0.06873918, -110947.836, 227612.11, 0.0, 10.002139, 9.998692 
7.650779e+2, 2.7545065e+2, 24718.416, -266658.44, 16629.889, 0.0917816, -0.087162875, 25664.469, 266234.97, 0.00000016204108, 10.00249, 9.9986315 
7.650826e+2, 2.8544867e+2, 17370.951, -402967.4, 29874.168, 0.029779678, -0.061172128, 19483.541, 162073.08, 0.000006290961, 10.002545, 9.996999 
7.650867e+2, 2.9544586e+2, 81014.92, -317413.3, 30115.125, -0.08759607, -0.067211404, 83278.305, 127896.17, 0.000041719115, 10.002293, 9.997029 
7.6509184e+2, 3.0544195e+2, 194083.19, -262704.25, -39438.266, 0.011051754, -0.14810254, 197463.22, 197463.22, 0.00013461517, 10.002852, 9.996802 
7.6509535e+2, 3.154395e+2, 354672.16, -143956.03, 22887.559, 0.07086081, -0.09714919, 355720.5, 355720.5, 0.00029005748, 10.003737, 9.997184 
7.7499163e+2, 1.254585e+2, -2051065.5, -1810669.9, 68213.38, -0.020245072, -0.18121, -1792662.8, -82172.15, 0.00000000045588486, 9.997329, 10.000622 
7.74998e+2, 1.3545935e+2, -1708916.0, -1546935.3, 124198.48, 0.016537456, -0.22586158, -1479653.3, 132827.2, 0.0, 9.9988365, 10.001037 
7.750053e+2, 1.4545947e+2, -1627124.6, -1588373.9, 88774.555, 0.16730446, -0.2506745, -1516885.0, -2405.7363, 0.0, 9.999291, 9.999855 
7.7500916e+2, 1.554603e+2, -1526043.4, -1490939.3, 80949.83, -0.008311026, -0.17725733, -1425660.5, -9187.64, 0.0, 9.999326, 9.999835 
7.75014e+2, 1.6546033e+2, -1453081.3, -1491103.3, 41605.64, -0.055325553, -0.11568862, -1426349.0, -107874.53, 0.0, 9.999534, 9.999057 
7.750202e+2, 1.754594e+2, -1301501.3, -1365277.0, 39327.973, 0.051688638, -0.13416351, -1282757.9, -62272.324, 0.0, 9.999897, 9.99907 
7.750262e+2, 1.85458e+2, -1181404.0, -1313490.9, 26423.127, 0.1108669, -0.15135786, -1176314.4, -53815.88, 0.0, 10.000283, 9.998572 
7.750319e+2, 1.9545607e+2, -1016412.1, -1179455.8, 3284.0564, 0.11478814, -0.22170144, -1016346.0, 8168.724, 0.0, 10.000722, 9.998608 
7.7503765e+2, 2.0545499e+2, -873964.8, -1017217.56, 42296.855, 0.059717778, -0.20847332, -862408.5, 64116.29, 0.0, 10.000854, 9.998983 
7.7504355e+2, 2.1545438e+2, -793230.94, -927816.0, 88651.44, -0.044736654, -0.18480277, -749224.94, 79307.12, 0.0, 10.000731, 9.998984 
7.750497e+2, 2.2545373e+2, -682687.56, -838580.56, 64359.547, -0.071375765, -0.13885587, -659550.9, 70987.734, 0.0, 10.000895, 9.998842 
7.7505624e+2, 2.3545279e+2, -522936.9, -715165.9, 62773.125, -0.031885944, -0.13646458, -504253.94, 128292.92, 0.0, 10.0013275, 9.998811 
7.750631e+2, 2.4545123e+2, -437544.2, -714014.44, 51082.492, 0.059814245, -0.12807289, -428407.75, 106155.28, 0.0, 10.001636, 9.997993 
7.7507037e+2, 2.5544903e+2, -317003.6, -605543.06, 80982.39, 0.1962106, -0.16655982, -295828.75, 140758.39, 0.0, 10.001791, 9.9979925 
7.750753e+2, 2.654477e+2, -173547.73, -482696.4, 56254.773, 0.1201022, -0.09877744, -163629.44, 174972.73, 0.0, 10.002094, 9.998017 
7.750783e+2, 2.7544674e+2, -26900.426, -360939.28, 38365.336, -0.13349198, -0.013432394, -22550.697, 218061.69, 0.00000014054619, 10.002426, 9.998021 
7.750833e+2, 2.854442e+2, 33214.816, -353817.53, 12610.0625, -0.16766001, -0.03588254, 33625.234, 176262.69, 0.0000059856334, 10.002482, 9.997362 
7.7509e+2, 2.954401e+2, 99569.34, -272970.7, 34832.395, -0.018569093, -0.2068812, 102798.18, 147474.86, 0.0000396548, 10.002262, 9.99735 
7.7509546e+2, 3.0543783e+2, 203702.38, -231412.33, -8680.536, 0.06876988, -0.14936183, 203875.48, 203875.48, 0.00012692052, 10.002809, 9.997038 
7.7509797e+2, 3.1543642e+2, 346148.1, -139516.36, 87209.36, -0.09027737, -0.013900475, 361333.25, 361333.25, 0.00027215088, 10.003632, 9.997273 
7.849906e+2, 1.2545486e+2, -1819115.0, -1727270.9, 11219.948, 0.068828076, -0.11611604, -1725920.0, -15395.733, 0.0000000009851104, 9.999059, 10.000354 
7.8499657e+2, 1.354542e+2, -1764181.1, -1595406.9, 9020.198, 0.011715136, -0.28978553, -1594926.1, 17602.707, 0.0, 9.998576, 10.000818 
7.8500414e+2, 1.4545451e+2, -1703332.3, -1621694.8, 8444.232, 0.15023868, -0.2873938, -1620830.5, -106304.266, 0.0, 9.998756, 9.999883 
7.850087e+2, 1.5545613e+2, -1480524.4, -1469986.3, 10834.802, 0.0074076653, -0.13477196, -1463207.3, -46694.58, 0.0, 9.999648, 9.999821 
7.85014e+2, 1.6545579e+2, -1372574.4, -1482007.0, 828.11053, -0.03734185, -0.09365987, -1372568.1, -54050.383, 0.0, 10.000219, 9.998781 
7.8502023e+2, 1.7545359e+2, -1239377.6, -1365492.8, -18231.135, 0.041696075, -0.21354249, -1236795.1, -16254.303, 0.0, 10.00046, 9.998791 
7.850266e+2, 1.8545207e+2, -1146919.9, -1320384.9, 13812.718, 0.11393908, -0.21946882, -1145827.0, -23271.045, 0.0, 10.000622, 9.998361 
7.8503305e+2, 1.9545095e+2, -1045643.5, -1212816.9, 24598.162, 0.1648798, -0.18697019, -1042099.25, -17532.799, 0.0, 10.000615, 9.9984255 
7.8503877e+2, 2.0544995e+2, -947070.94, -1026597.9, 48781.344, 0.11798829, -0.16793704, -923899.94, 2675.7908, 0.0, 10.000246, 9.999207 
7.8504395e+2, 2.1544887e+2, -964506.2, -986287.44, 19121.38, -0.0062812488, -0.21533346, -953391.5, -124805.53, 0.0, 9.999458, 9.999191 
7.850503e+2, 2.2544841e+2, -853991.6, -918433.44, 42006.88, -0.031983472, -0.16108672, -833271.4, -102680.37, 0.0, 9.999695, 9.998874 
7.850577e+2, 2.3544827e+2, -602121.2, -747772.5, 44964.574, 0.022736842, -0.08157686, -589358.4, 43235.133, 0.0, 10.000753, 9.998864 
7.850647e+2, 2.45447e+2, -489551.75, -704555.8, 24775.3, 0.087018795, -0.064140946, -486733.78, 47873.004, 0.0, 10.001132, 9.998296 
7.850714e+2, 2.5544456e+2, -414852.78, -620451.75, 17800.688, 0.1619942, -0.15736513, -413323.0, 23307.79, 0.0, 10.0009775, 9.998276 
7.850766e+2, 2.654429e+2, -338696.25, -597375.75, 29762.41, 0.09814973, -0.11755079, -335316.1, 3332.7869, 0.0, 10.001115, 9.997701 
7.8508073e+2, 2.7544162e+2, -182289.23, -467903.56, 18529.434, -0.07921019, -0.036055665, -181092.14, 59572.605, 0.0000001311964, 10.001497, 9.997733 
7.85086e+2, 2.8543928e+2, 1464.7257, -322953.4, 19983.354, -0.11938215, -0.04550628, 2691.0154, 145380.05, 0.0000058891046, 10.002059, 9.997781 
7.850923e+2, 2.9543602e+2, 191997.1, -180124.88, 29041.379, -0.030810961, -0.16909292, 194249.92, 238970.11, 0.000037489564, 10.002695, 9.997779 
7.8509766e+2, 3.0543476e+2, 267817.06, -128382.62, 30826.438, 0.010200076, -0.06737376, 270201.16, 270201.16, 0.00011865352, 10.002921, 9.997695 
7.851007e+2, 3.1543332e+2, 282935.75, -46780.0, 130099.45, -0.11927811, -0.007090492, 328087.38, 328087.38, 0.0002544846, 10.002651, 9.9983835 
7.949894e+2, 1.2544915e+2, -1823656.5, -1754830.1, -10877.032, -0.015590921, -0.10145518, -1753152.0, -42568.73, 0.0000000034592607, 9.999138, 10.00013 
7.9499525e+2, 1.3544898e+2, -1764480.0, -1609204.8, -4164.006, -0.0026674517, -0.20783545, -1609093.3, 3490.9001, 0.0, 9.998637, 10.000692 
7.950031e+2, 1.4544971e+2, -1679129.6, -1572461.6, 29749.793, 0.14937261, -0.17448573, -1564725.5, -50148.29, 0.0, 9.998761, 10.0002165 
7.950087e+2, 1.554508e+2, -1453822.4, -1418986.1, 54903.508, 0.018976577, -0.1131075, -1378804.0, 37763.53, 0.0, 9.999666, 10.00016 
7.950145e+2, 1.6545019e+2, -1393325.0, -1521270.0, 1153.093, -0.028889457, -0.103745356, -1393314.6, -74739.81, 0.0, 10.0002, 9.998525 
7.950208e+2, 1.7544797e+2, -1252595.8, -1397085.9, -1468.0669, 0.029069874, -0.19715361, -1252580.9, -31983.256, 0.0, 10.000472, 9.998571 
7.950269e+2, 1.8544705e+2, -1122331.3, -1255165.3, 5074.008, 0.066333875, -0.15733355, -1122137.8, 469.1611, 0.0, 10.000561, 9.998836 
7.950329e+2, 1.95447e+2, -1020423.8, -1151189.0, 32018.107, 0.06761526, -0.06877779, -1013005.0, 11602.239, 0.0, 10.000575, 9.998864 
7.9503876e+2, 2.0544569e+2, -1001126.44, -1117151.8, 9661.477, 0.07953652, -0.07106819, -1000327.44, -73707.875, 0.0, 10.0001545, 9.99863 
7.950446e+2, 2.1544309e+2, -1015444.9, -1070459.0, 1121.304, 0.09826488, -0.21321996, -1015422.0, -186777.53, 0.0, 9.999366, 9.99866 
7.9505175e+2, 2.2544228e+2, -846809.44, -875507.2, 75153.4, 0.12634575, -0.18767832, -784647.4, -53994.33, 0.0, 9.999576, 9.999225 
7.9506e+2, 2.3544279e+2, -593617.4, -708560.9, 92946.31, 0.15703815, -0.07671904, -541809.56, 90840.0, 0.0, 10.000656, 9.999182 
7.95066e+2, 2.4544196e+2, -496639.4, -702049.2, 8966.944, 0.07695153, -0.033394344, -496248.72, 38408.984, 0.0, 10.001058, 9.998349 
7.950699e+2, 2.5543973e+2, -423554.0, -619999.56, 21052.54, -0.09843636, -0.10866411, -421323.2, 15354.429, 0.0, 10.0008955, 9.99832 
7.950764e+2, 2.6543757e+2, -338906.88, -594155.8, 34936.01, -0.06001204, -0.1254941, -334211.56, 4488.879, 0.0, 10.00109, 9.997738 
7.9508483e+2, 2.754352e+2, -187128.25, -469303.13, 45423.063, 0.15629445, -0.1542393, -179996.52, 60731.293, 0.000000103459534, 10.001453, 9.997746 
7.950904e+2, 2.854339e+2, 30323.156, -255467.66, 37356.24, 0.09141469, -0.08141499, 35125.367, 177868.98, 0.0000054454867, 10.0020275, 9.998259 
7.950933e+2, 2.9543352e+2, 213282.52, -114221.98, 65759.01, -0.22520007, 0.029035108, 225992.86, 270742.53, 0.00003447301, 10.002601, 9.998279 
7.950981e+2, 3.0543262e+2, 335145.44, 23325.814, 17765.305, -0.2560611, 0.08670537, 336154.3, 336154.3, 0.0001104858, 10.002866, 9.998764 
7.9510313e+2, 3.1542918e+2, 400646.84, 218083.72, 152554.03, -0.19254437, -0.16146632, 487143.38, 487143.38, 0.000240168, 10.002559, 10.000252 
8.0498916e+2, 1.254429e+2, -1741175.8, -1707033.9, -29474.264, 0.03300614, -0.1002251, -1690043.9, 20603.031, 0.0000000057252847, 9.999686, 10.0002 
8.0499434e+2, 1.3544321e+2, -1782041.5, -1627226.3, -63016.074, 0.049703363, -0.15017384, -1604819.3, 7824.115, 0.0, 9.998553, 10.000626 
8.05002e+2, 1.4544415e+2, -1727313.1, -1570107.5, 48543.797, 0.18486027, -0.102994844, -1556325.8, -41691.695, 0.0, 9.9983225, 10.000444 
8.050084e+2, 1.5544482e+2, -1534173.8, -1435449.3, 35916.797, 0.058455054, -0.10461602, -1423765.3, -7137.2993, 0.0, 9.999018, 10.000362 
8.0501485e+2, 1.6544439e+2, -1471282.8, -1511104.5, 5480.7305, 0.02971514, -0.10919468, -1470542.3, -151909.88, 0.0, 9.999454, 9.998966 
8.0502164e+2, 1.754429e+2, -1347511.0, -1397980.3, 38248.9, 0.117534004, -0.16933833, -1326922.5, -106275.82, 0.0, 9.999627, 9.9989805 
8.0502766e+2, 1.8544216e+2, -1210887.4, -1296584.4, 61554.535, 0.113860786, -0.13197827, -1178736.1, -56081.793, 0.0, 9.999956, 9.998837 
8.050328e+2, 1.9544178e+2, -1059846.1, -1176806.3, 31149.5, 0.016392794, -0.07170284, -1052067.5, -27408.408, 0.0, 10.000332, 9.998812 
8.050389e+2, 2.0544042e+2, -918161.5, -1090430.1, 12261.008, 0.05291358, -0.07282966, -917293.2, 9379.288, 0.0, 10.000774, 9.998519 
8.050459e+2, 2.1543796e+2, -755199.2, -957452.2, 19444.629, 0.20604853, -0.1882484, -753346.75, 75348.64, 0.0, 10.001207, 9.9985485 
8.0505323e+2, 2.2543691e+2, -629579.6, -807728.9, 114971.25, 0.2361518, -0.16513953, -573214.7, 157492.16, 0.0, 10.001234, 9.998884 
8.0506074e+2, 2.3543683e+2, -586434.8, -739342.56, 65621.1, 0.15859832, -0.07907589, -562134.94, 70575.52, 0.0, 10.000865, 9.998863 
8.050667e+2, 2.4543586e+2, -476816.34, -661516.5, -17558.531, 0.0501611, -0.046655998, -475161.97, 59557.676, 0.0, 10.00105, 9.998638 
8.0507135e+2, 2.5543392e+2, -288982.84, -524931.4, -5554.491, -0.0779455, -0.12598346, -288852.16, 147883.83, 0.0, 10.001678, 9.998606 
8.0507815e+2, 2.6543203e+2, -206063.47, -507557.16, 38075.168, -0.026844293, -0.1365393, -201329.36, 137425.75, 0.0, 10.001911, 9.997931 
8.050867e+2, 2.7543e+2, -112865.48, -407336.97, 42528.063, 0.18014221, -0.15585172, -106846.53, 133932.47, 0.00000004701224, 10.00185, 9.997975 
8.0509245e+2, 2.8542915e+2, -31814.588, -244841.56, 49411.84, 0.13432619, -0.06858176, -20911.496, 121878.81, 0.000004093495, 10.001432, 9.998617 
8.050959e+2, 2.954292e+2, -25258.744, -191053.2, 47661.96, -0.13062735, 0.04915538, -12533.732, 32258.5, 0.000029631305, 10.000796, 9.998619 
8.051005e+2, 3.054278e+2, 88660.91, -99243.83, -11778.667, -0.2099279, 0.045985747, 89396.37, 89396.37, 0.00010221737, 10.001202, 9.998729 
8.051053e+2, 3.15425e+2, 387527.03, 251843.02, 14992.573, -0.20380113, -0.1313576, 389163.9, 389163.9, 0.00023173695, 10.002323, 10.000594 
8.149893e+2, 1.2543638e+2, -1719825.3, -1682128.8, -85186.15, 0.03101945, -0.101349704, -1613730.6, 96982.07, 0.000000004999778, 9.999764, 10.000336 
8.149933e+2, 1.3543695e+2, -1772973.8, -1621432.0, -98373.82, 0.07319131, -0.12583391, -1573031.1, 39674.965, 0.0, 9.99861, 10.000634 
8.1500036e+2, 1.4543791e+2, -1726947.0, -1572592.0, 62840.64, 0.16541868, -0.075832285, -1550244.1, -35547.777, 0.0, 9.998337, 10.000423 
8.1500745e+2, 1.5543823e+2, -1525401.8, -1421395.3, 71535.664, 0.0341292, -0.11080364, -1384958.1, 31735.121, 0.0, 9.999039, 10.000449 
8.150147e+2, 1.6543846e+2, -1395164.5, -1351155.9, 1082.839, 0.050593846, -0.110849515, -1351129.3, -32439.531, 0.0, 9.999444, 10.000067 
8.150225e+2, 1.7543843e+2, -1272779.6, -1244171.9, 53620.85, 0.21775429, -0.13977888, -1202979.9, 17707.84, 0.0, 9.999631, 10.000033 
8.150283e+2, 1.8543746e+2, -1257435.1, -1382424.9, 68477.75, 0.1704573, -0.14786005, -1227221.8, -104523.766, 0.0, 9.999907, 9.998275 
8.150324e+2, 1.9543539e+2, -1101254.4, -1255299.4, 55114.82, -0.074181646, -0.1993087, -1083566.3, -58844.676, 0.0, 10.000295, 9.998291 
8.150389e+2, 2.0543419e+2, -914779.3, -1058606.6, 19036.594, -0.038381618, -0.17228793, -912302.4, 14431.481, 0.0, 10.000668, 9.998791 
8.150476e+2, 2.1543352e+2, -755575.44, -932466.56, 43066.03, 0.23773119, -0.13874477, -745647.7, 83090.586, 0.0, 10.001094, 9.998776 
8.1505436e+2, 2.2543228e+2, -719328.7, -963174.9, 91949.945, 0.21749218, -0.09092285, -688542.8, 42209.45, 0.0, 10.001102, 9.997882 
8.1505954e+2, 2.3543032e+2, -667545.3, -882306.25, 62665.83, -0.060149845, -0.09433709, -650597.3, -17820.707, 0.0, 10.000756, 9.997934 
8.1506664e+2, 2.4542871e+2, -452941.53, -591805.4, -2416.6816, -0.07534268, -0.11021135, -452899.47, 81893.52, 0.0, 10.000962, 9.99916 
8.150754e+2, 2.5542718e+2, -264338.56, -457710.8, 25204.594, 0.13675305, -0.19725831, -261107.33, 175697.27, 0.0, 10.001609, 9.999103 
8.1508166e+2, 2.6542637e+2, -184032.92, -451776.63, 28117.117, 0.12010922, -0.1465251, -181112.06, 157700.16, 0.0, 10.00187, 9.998333 
8.1508595e+2, 2.7542594e+2, -104117.555, -359501.53, 50231.453, -0.09512322, -0.04228194, -94592.77, 146225.73, 0.000000004527389, 10.00173, 9.99836 
8.15092e+2, 2.8542486e+2, -20073.953, -215016.34, 14463.772, -0.07598198, -0.008525021, -19006.656, 123823.35, 0.0000024308686, 10.001399, 9.998841 
8.1509966e+2, 2.9542315e+2, -27226.969, -182950.14, 35906.023, 0.14620557, -0.08834556, -19346.678, 25500.54, 0.00002455122, 10.000743, 9.998702 
8.151046e+2, 3.0542046e+2, 13969.788, -257729.36, 25865.31, 0.055034995, -0.1623546, 16410.203, 16410.203, 0.00009685274, 10.001215, 9.997629 
8.151066e+2, 3.154202e+2, 290250.25, 81237.47, 84202.625, -0.35971594, 0.012582241, 319951.4, 319951.4, 0.00023260323, 10.002192, 9.999483 
8.249889e+2, 1.2542959e+2, -2012496.9, -1807519.1, -38665.4, 0.12833233, -0.11752281, -1800468.1, -89688.836, 0.0000000017683296, 9.997664, 10.0004835 
8.2499325e+2, 1.3543007e+2, -1564430.8, -1530659.5, -97018.66, 0.13716623, -0.15087885, -1449068.0, 163705.5, 0.0, 10.000069, 10.000555 
8.2499987e+2, 1.4543101e+2, -1455322.5, -1461128.6, 45828.824, 0.1944612, -0.089164756, -1412304.9, 102459.23, 0.0, 10.000293, 10.000239 
8.250068e+2, 1.5543126e+2, -1572538.4, -1466740.8, 18850.352, 0.078705005, -0.111477464, -1463482.4, -46720.31, 0.0, 9.998816, 10.000239 
8.25014e+2, 1.6543157e+2, -1506545.6, -1381926.8, -47374.223, 0.081463315, -0.10275556, -1365962.4, -47203.887, 0.0, 9.998589, 10.000257 
8.2502186e+2, 1.7543183e+2, -1299874.9, -1240002.4, -85108.95, 0.20879814, -0.12161478, -1179718.3, 41036.66, 0.0, 9.999368, 10.000185 
8.2502836e+2, 1.8543127e+2, -1211835.6, -1327128.0, -49142.164, 0.18235472, -0.10999238, -1193732.0, -70970.1, 0.0, 10.00008, 9.9985695 
8.2503366e+2, 1.9542977e+2, -1026827.1, -1185946.1, -18698.422, 0.010232333, -0.13427874, -1024659.4, 120.65145, 0.0, 10.000676, 9.998577 
8.250402e+2, 2.0542878e+2, -880475.4, -1038598.94, -31245.998, 0.020466452, -0.10347814, -874524.94, 52265.664, 0.0, 10.000894, 9.998811 
8.2504797e+2, 2.1542798e+2, -810278.8, -957426.4, -46466.79, 0.19026867, -0.08212543, -796833.8, 31962.615, 0.0, 10.000713, 9.998786 
8.250546e+2, 2.254266e+2, -761874.25, -965843.5, 52633.66, 0.15014039, -0.058333397, -749093.2, -18282.309, 0.0, 10.000725, 9.9980545 
8.2506025e+2, 2.3542444e+2, -639740.1, -853126.8, 91543.7, -0.069352336, -0.09709257, -605849.94, 26985.314, 0.0, 10.000873, 9.998087 
8.2506794e+2, 2.45423e+2, -456555.38, -628279.75, 70611.97, -0.042815845, -0.08650902, -431249.38, 103601.83, 0.0, 10.001096, 9.998844 
8.250774e+2, 2.55422e+2, -307075.63, -504928.34, 18270.318, 0.1930341, -0.09205867, -305402.63, 131459.05, 0.0, 10.001448, 9.998851 
8.2508355e+2, 2.6542124e+2, -223540.75, -416874.6, -16273.343, 0.14939827, -0.04754317, -222180.55, 116687.61, 0.0, 10.001366, 9.99882 
8.2508683e+2, 2.7542043e+2, -195197.86, -352981.5, -4321.1587, -0.12924062, -0.029181443, -195079.6, 45794.34, 0.0, 10.000882, 9.9988165 
8.2509303e+2, 2.854192e+2, -89468.16, -280799.84, -24561.467, -0.09399748, -0.02037696, -86365.49, 56520.008, 0.000001518397, 10.001069, 9.998548 
8.251016e+2, 2.9541734e+2, 106933.66, -147552.48, -58553.137, 0.21993192, -0.08238075, 119759.39, 164663.3, 0.000022026383, 10.001791, 9.998441 
8.2510704e+2, 3.0541408e+2, 156762.23, -200289.17, -230.47543, 0.1369022, -0.19533452, 156762.39, 156762.39, 0.00009707927, 10.002244, 9.99752 
8.2511e+2, 3.1541383e+2, 282613.47, 10016.687, 89596.36, -0.23244861, -0.016055413, 309424.75, 309424.75, 0.00024343694, 10.002415, 9.998878 
8.349872e+2, 1.2542255e+2, -2000597.5, -1782448.1, 30591.268, 0.14662197, -0.15368499, -1778239.5, -67392.98, 0.000000000051048894, 9.997668, 10.000653 
8.349938e+2, 1.3542272e+2, -1550414.4, -1513444.9, -4450.748, 0.15582974, -0.22475678, -1512916.5, 99927.73, 0.0, 10.000125, 10.000642 
8.350003e+2, 1.4542362e+2, -1486879.3, -1536916.1, -21387.375, 0.17835316, -0.14442442, -1478983.5, 35852.51, 0.0, 10.00033, 9.999703 
8.35006e+2, 1.5542394e+2, -1602542.9, -1535276.8, -24923.625, 0.09054196, -0.11135567, -1527048.5, -110214.336, 0.0, 9.99884, 9.999757 
8.350123e+2, 1.6542378e+2, -1564762.4, -1492908.1, -26959.383, 0.03428269, -0.088964924, -1483918.0, -165079.7, 0.0, 9.99855, 9.999516 
8.350195e+2, 1.7542323e+2, -1344967.4, -1333178.3, -44443.516, 0.016976448, -0.11298293, -1294240.1, -73392.8, 0.0, 9.9993725, 9.999541 
8.350276e+2, 1.8542375e+2, -1137682.8, -1170469.5, -36496.477, 0.07359198, -0.017538724, -1114066.9, 8777.855, 0.0, 10.000063, 9.999658 
8.3503634e+2, 1.9542487e+2, -959442.3, -1034179.25, 12038.718, 0.18158418, 0.10806217, -957551.0, 67284.44, 0.0, 10.000621, 9.999648 
8.3504254e+2, 2.0542406e+2, -915613.25, -1084230.9, -47103.4, 0.14260009, 0.12074754, -903347.2, 23496.605, 0.0, 10.000775, 9.998553 
8.3504677e+2, 2.154214e+2, -838522.2, -991443.2, -43039.652, -0.020364244, -0.022038791, -827240.94, 1628.5112, 0.0, 10.000609, 9.998599 
8.350535e+2, 2.2541992e+2, -685693.44, -784059.6, 47462.793, -0.042295262, -0.06596788, -666526.75, 64355.38, 0.0, 10.000617, 9.999357 
8.3506244e+2, 2.3541924e+2, -569298.1, -686454.1, 106465.734, 0.047675814, -0.08558089, -506359.34, 126526.6, 0.0, 10.000776, 9.999281 
8.350703e+2, 2.454188e+2, -546804.2, -798096.7, 75051.305, 0.062886104, 0.02595133, -526095.8, 8797.979, 0.0, 10.001018, 9.997716 
8.350772e+2, 2.554183e+2, -394033.4, -668595.75, 41126.18, 0.01519714, 0.18384492, -388005.53, 48901.83, 0.0, 10.0013685, 9.997767 
8.350834e+2, 2.654166e+2, -191766.56, -336687.8, -40579.406, -0.01174517, 0.15451643, -181177.63, 157745.9, 0.0, 10.001306, 9.999399 
8.35089e+2, 2.7541366e+2, -169536.7, -285514.06, -9030.025, -0.019581856, -0.09946553, -168837.83, 72106.21, 0.0, 10.000822, 9.999311 
8.350951e+2, 2.8541225e+2, -145476.56, -390705.97, -5436.6206, -0.011172141, -0.08874228, -145356.1, -2400.899, 0.0000012583888, 10.001044, 9.997804 
8.351015e+2, 2.9541183e+2, 44753.46, -255771.44, -20303.936, 0.008502604, 0.06655381, 46119.023, 91080.71, 0.000022671806, 10.001702, 9.997742 
8.3510774e+2, 3.0540854e+2, 212709.83, -77772.59, 4503.697, -0.042592075, -0.06297958, 212779.63, 212779.63, 0.0001036696, 10.002214, 9.99838 
8.351151e+2, 3.1540713e+2, 261170.06, -16902.232, 125791.1, -0.024547055, -0.073233135, 309629.13, 309629.13, 0.0002623637, 10.002345, 9.998729 
8.4498644e+2, 1.2541573e+2, -1787778.8, -1720051.0, 110887.65, 0.23402688, -0.17711625, -1637971.6, 72939.77, 0.0, 9.999316, 10.000288 
8.4499305e+2, 1.3541602e+2, -1712370.8, -1650582.6, -12109.984, 0.1217217, -0.17916156, -1648293.9, -35381.863, 0.0, 9.999285, 10.000106 
8.4499943e+2, 1.4541659e+2, -1618806.8, -1589220.8, -67709.88, 0.11531345, -0.11008331, -1534706.8, -19798.793, 0.0, 9.999385, 9.999795 
8.450057e+2, 1.5541644e+2, -1454702.9, -1459766.6, -48172.52, 0.13631397, -0.13107878, -1408995.8, 7913.5903, 0.0, 9.999839, 9.999795 
8.450121e+2, 1.6541639e+2, -1343649.8, -1389660.8, 50451.02, 0.09043597, -0.09824815, -1311206.6, 7705.2827, 0.0, 10.000077, 9.999493 
8.45019e+2, 1.7541641e+2, -1259852.8, -1296121.5, 65789.97, -0.0020821253, -0.06132616, -1209743.6, 11171.993, 0.0, 9.999974, 9.999509 
8.45027e+2, 1.8541694e+2, -1190110.8, -1187741.0, 60178.586, 0.03693445, 0.030397577, -1128735.6, -5822.3516, 0.0, 9.999669, 9.999725 
8.450361e+2, 1.9541757e+2, -1168427.6, -1131604.1, 12473.659, 0.1758148, 0.10276441, -1127776.6, -102867.96, 0.0, 9.999164, 9.999684 
8.450429e+2, 2.0541692e+2, -1056030.8, -1111944.5, -21909.756, 0.16342166, 0.110050984, -1048468.25, -121552.305, 0.0, 9.999638, 9.998917 
8.450479e+2, 2.154149e+2, -779428.5, -926818.0, 5923.8726, 0.028847734, 0.0003264127, -779190.8, 49744.887, 0.0, 10.000857, 9.998928 
8.45055e+2, 2.2541384e+2, -589523.56, -708085.44, 67622.14, 0.01818703, -0.029286433, -558876.8, 172067.19, 0.0, 10.001167, 9.999599 
8.4506375e+2, 2.3541349e+2, -568234.6, -655722.94, 26223.943, 0.10805497, -0.044431925, -560976.4, 71967.35, 0.0, 10.00068, 9.999523 
8.450713e+2, 2.4541311e+2, -597818.5, -830320.75, 39802.97, 0.07994293, 0.06445747, -591193.25, -56242.477, 0.0, 10.000697, 9.997649 
8.4507775e+2, 2.554124e+2, -437388.44, -693769.7, 64024.152, -0.045915335, 0.20788018, -422289.38, 14677.303, 0.0, 10.001097, 9.997717 
8.4508425e+2, 2.6541042e+2, -199510.47, -387195.13, -17246.92, -0.064885885, 0.1768646, -197938.75, 141047.86, 0.0, 10.001456, 9.998974 
8.450907e+2, 2.7540725e+2, -50829.418, -268597.3, -74600.664, 0.019427743, -0.0599637, -27724.83, 213286.72, 0.0000000050987805, 10.001817, 9.998943 
8.4509706e+2, 2.8540573e+2, 30542.275, -301313.16, -31171.123, 0.02399886, -0.04524475, 33444.785, 176468.28, 0.0000017149706, 10.002226, 9.997848 
8.4510314e+2, 2.9540524e+2, 183955.78, -174150.7, -8255.421, -0.036173582, 0.09355341, 184145.98, 229174.45, 0.0000255943, 10.002597, 9.997865 
8.451096e+2, 3.0540258e+2, 259491.72, -63086.395, 10164.087, -0.088422194, 0.020936308, 259811.66, 259811.66, 0.000114907256, 10.002569, 9.998319 
8.451184e+2, 3.1540018e+2, 193253.02, -99610.89, 28488.014, 0.09436458, -0.078844815, 195998.42, 195998.42, 0.00028673265, 10.002073, 9.998304 
8.5498613e+2, 1.2540956e+2, -1861081.1, -1887217.4, 79736.625, 0.21762708, -0.16303155, -1793348.9, -82379.125, 0.0, 9.999375, 9.999118 
8.549907e+2, 1.3541007e+2, -1795541.9, -1825265.3, -10493.385, -0.057311088, -0.013515382, -1792210.8, -179234.88, 0.0, 9.999305, 9.998892 
8.5499716e+2, 1.4541e+2, -1564262.6, -1486118.6, -61451.465, -0.08172001, 0.01505031, -1452369.6, 62609.79, 0.0, 9.999416, 10.000495 
8.5500574e+2, 1.5540884e+2, -1397872.9, -1352284.0, -17652.506, 0.12754779, -0.17712271, -1346248.0, 70739.04, 0.0, 9.999883, 10.00051 
8.5501325e+2, 1.654095e+2, -1303682.0, -1307842.9, 35888.79, 0.16975445, -0.13523042, -1269813.4, 49165.305, 0.0, 10.000076, 10.000058 
8.550198e+2, 1.7541139e+2, -1219682.3, -1214597.1, 68944.23, 0.06776786, 0.026255814, -1148148.6, 72811.24, 0.0, 9.999979, 10.000068 
8.5502636e+2, 1.8541086e+2, -1265145.6, -1333770.8, 33023.18, -0.015228153, 0.035766114, -1251836.0, -128868.836, 0.0, 9.999624, 9.998747 
8.550328e+2, 1.9540803e+2, -1233231.1, -1262696.3, 4874.6597, -0.09054587, -0.1390468, -1232445.6, -207447.14, 0.0, 9.999145, 9.998795 
8.5504115e+2, 2.0540749e+2, -1000894.25, -984752.56, 14216.331, 0.010037082, -0.124824286, -976475.8, -49470.188, 0.0, 9.999576, 9.9998255 
8.550512e+2, 2.1540856e+2, -730701.1, -804991.6, 59154.574, 0.25564465, -0.018158272, -697996.3, 130998.63, 0.0, 10.000761, 9.999815 
8.550586e+2, 2.2540842e+2, -670062.75, -841149.7, 40840.113, 0.24904148, 0.042382777, -660813.8, 70182.63, 0.0, 10.001024, 9.9987545 
8.550638e+2, 2.3540708e+2, -635739.5, -774194.5, 19602.262, 0.0299589, 0.014224024, -633017.75, -8.148463, 0.0, 10.000586, 9.998755 
8.550706e+2, 2.4540585e+2, -542554.3, -696082.25, 44823.12, -0.06861562, 0.024506124, -530426.06, 4596.69, 0.0, 10.000615, 9.9986105 
8.550789e+2, 2.5540435e+2, -389972.56, -575134.6, 86484.07, -0.06499119, -0.007896137, -355862.06, 81177.18, 0.0, 10.001007, 9.998577 
8.550858e+2, 2.6540276e+2, -302870.88, -587500.8, -13583.172, -0.069959156, 0.029152429, -302224.13, 36833.37, 0.0, 10.001391, 9.997634 
8.5509163e+2, 2.7540106e+2, -154785.19, -461626.88, -49223.42, -0.09053982, 0.075860955, -147082.17, 93995.914, 0.0000001292932, 10.001717, 9.99767 
8.550985e+2, 2.8539956e+2, 81390.484, -175774.17, -22767.11, -0.07184589, 0.10509651, 83390.53, 226481.78, 0.0000031613251, 10.002145, 9.998747 
8.551062e+2, 2.953977e+2, 230782.69, -61229.75, 14591.717, -0.019511793, 0.01913947, 231510.02, 276613.4, 0.000030116835, 10.002527, 9.998676 
8.5511225e+2, 3.0539614e+2, 190031.23, -192756.92, -14520.541, -0.09327297, 0.06541849, 190581.27, 190581.27, 0.0001273879, 10.00252, 9.997448 
8.5511965e+2, 3.1539354e+2, 103827.93, -244699.19, 21393.115, -0.028162137, 0.040988043, 105136.164, 105136.164, 0.00031292601, 10.001913, 9.997383 
8.649851e+2, 1.2540227e+2, -1871677.1, -1859696.9, -37966.21, 0.20086817, -0.09602626, -1827251.1, -116204.93, 0.00000000000000000000885557, 9.999164, 9.999398 
8.649901e+2, 1.3540271e+2, -1875669.8, -1846806.6, -38312.055, -0.010555088, 0.022025166, -1820298.1, -207246.36, 0.0, 9.9986515, 9.999067 
8.649965e+2, 1.4540285e+2, -1665149.5, -1508196.0, -4621.37, -0.039228354, 0.049298845, -1508060.0, 6993.2075, 0.0, 9.998623, 10.000721 
8.6500525e+2, 1.5540253e+2, -1498120.6, -1383198.0, -21660.793, 0.13653396, -0.0756819, -1379250.9, 37802.23, 0.0, 9.999117, 10.000675 
8.650129e+2, 1.6540296e+2, -1388065.4, -1336952.3, 767.5433, 0.16370386, -0.06782827, -1336940.8, -17895.303, 0.0, 9.999456, 10.000143 
8.650196e+2, 1.754038e+2, -1255428.8, -1228216.9, -28056.477, 0.059083797, -0.019782756, -1210641.4, 10392.427, 0.0, 9.999715, 10.000096 
8.650261e+2, 1.8540294e+2, -1182621.4, -1284398.5, -24659.13, -0.022646865, -0.047790762, -1176961.5, -53919.027, 0.0, 10.000162, 9.998818 
8.650327e+2, 1.9540048e+2, -1000229.75, -1143190.5, 10979.289, -0.09021065, -0.19312014, -999391.44, 25678.652, 0.0, 10.000729, 9.998843 
8.650414e+2, 2.0540027e+2, -819532.25, -907942.5, 45273.84, 0.017458346, -0.14079031, -800461.7, 126613.13, 0.0, 10.000881, 9.999711 
8.650519e+2, 2.1540174e+2, -762333.0, -833592.9, -10713.987, 0.2668848, 0.01339099, -760757.0, 68305.42, 0.0, 10.000617, 9.999678 
8.650595e+2, 2.2540152e+2, -703537.0, -869466.9, -31530.1, 0.25475326, 0.07980332, -697747.6, 33318.152, 0.0, 10.0008335, 9.998662 
8.650647e+2, 2.3539974e+2, -521025.7, -728442.4, -12181.535, 0.026111543, 0.016051408, -520312.72, 112771.26, 0.0, 10.001406, 9.998679 
8.6507165e+2, 2.4539836e+2, -396978.1, -581291.25, 29345.176, -0.06445399, -0.0028950232, -392418.72, 142678.61, 0.0, 10.001432, 9.998998 
8.6508006e+2, 2.5539705e+2, -358664.1, -518651.5, 8976.929, -0.040484954, -0.05268335, -358161.97, 78947.32, 0.0, 10.001052, 9.9989395 
8.650871e+2, 2.6539588e+2, -405064.03, -658701.3, -43439.168, -0.0488005, 0.015301329, -397830.72, -58706.6, 0.0000000005766255, 10.000782, 9.997435 
8.650928e+2, 2.7539462e+2, -327684.5, -565883.4, -15807.151, -0.081446715, 0.12740889, -326640.1, -85497.29, 0.000000514823, 10.000615, 9.997481 
8.651001e+2, 2.8539276e+2, -95687.914, -277859.88, 48778.992, -0.058623713, 0.13709049, -83448.945, 59711.277, 0.0000054394536, 10.000986, 9.998614 
8.651088e+2, 2.9538995e+2, 121879.32, -121249.195, -4402.0903, 0.024776582, -0.030824877, 121959.0, 167139.72, 0.000035908153, 10.001806, 9.998617 
8.651148e+2, 3.05389e+2, 154494.34, -198804.13, -41517.426, -0.066628635, 0.067185014, 159307.64, 159307.64, 0.00014004746, 10.002219, 9.997542 
8.6512166e+2, 3.1538677e+2, 155507.94, -144697.34, 20818.53, -0.013754466, 0.0666604, 156944.78, 156944.78, 0.00033713353, 10.001954, 9.99803 
8.7498266e+2, 1.2539414e+2, -1742259.4, -1606249.1, -86399.87, -0.011095987, 0.044245526, -1564301.4, 146836.86, 0.0000000055054987, 9.999218, 10.001112 
8.749908e+2, 1.3539411e+2, -1749998.0, -1586409.3, -47937.465, 0.17586808, -0.07150421, -1573396.9, 39741.324, 0.0, 9.99866, 10.000842 
8.749974e+2, 1.4539528e+2, -1692283.1, -1571430.8, 2450.0767, 0.15706734, -0.0026428278, -1571381.0, -56253.61, 0.0, 9.998647, 10.000279 
8.75004e+2, 1.5539758e+2, -1522938.0, -1435137.1, 6159.6416, 0.07676684, 0.17263897, -1434707.1, -17600.547, 0.0, 9.999126, 10.00031 
8.750107e+2, 1.6539694e+2, -1417417.9, -1403594.8, 1759.3132, -0.016299967, 0.112239584, -1403374.3, -84263.83, 0.0, 9.999471, 9.999684 
8.750178e+2, 1.7539376e+2, -1279908.1, -1285209.5, -8980.5625, -0.10861285, -0.19426458, -1273195.3, -52059.195, 0.0, 9.999738, 9.999696 
8.750261e+2, 1.8539332e+2, -1109499.3, -1129204.5, -12145.19, -0.06418937, -0.21377786, -1103712.8, 19425.2, 0.0, 10.000144, 9.999894 
8.750354e+2, 1.9539489e+2, -933103.44, -995693.56, 40008.12, 0.09177019, -0.069042, -913604.5, 111519.0, 0.0, 10.0006895, 9.999875 
8.7504333e+2, 2.0539522e+2, -919402.4, -1091048.9, 26391.213, 0.1044702, 0.049786583, -915436.25, 11687.514, 0.0, 10.000775, 9.998507 
8.7505e+2, 2.1539438e+2, -856467.1, -1005516.0, -11588.818, -0.01038793, 0.0957805, -855571.44, -26433.521, 0.0, 10.000513, 9.998548 
8.7505764e+2, 2.253932e+2, -673862.4, -782449.94, -18837.209, -0.03221122, 0.08683003, -670687.44, 60463.816, 0.0, 10.000722, 9.999313 
8.750662e+2, 2.353915e+2, -494211.34, -643634.56, 17763.84, 0.022158636, -0.036190648, -492128.56, 141037.63, 0.0, 10.001278, 9.999324 
8.75074e+2, 2.4539068e+2, -427003.25, -620616.2, 6420.302, 0.0130390115, -0.0193198, -426790.6, 108383.31, 0.0, 10.001328, 9.99878 
8.750811e+2, 2.553905e+2, -388234.8, -552491.25, 6402.0815, -0.057046704, 0.06263956, -387985.66, 49191.516, 0.0, 10.000935, 9.998763 
8.750878e+2, 2.6538962e+2, -351328.22, -537497.3, -57499.918, -0.07504694, 0.12600712, -335000.84, 4186.608, 0.0000000691861, 10.000735, 9.998291 
8.75094e+2, 2.753879e+2, -282816.22, -456676.84, -11360.252, -0.048902996, 0.1063009, -282077.06, -40870.91, 0.000001269736, 10.0005455, 9.998265 
8.7510175e+2, 2.8538546e+2, -168709.58, -425099.94, 68593.19, -0.018996937, 0.07121947, -151512.1, -8282.526, 0.000008255043, 10.000965, 9.997617 
8.751107e+2, 2.9538196e+2, 46144.055, -261658.97, 36962.67, 0.011081184, -0.06251637, 50520.508, 95781.555, 0.000042714033, 10.001731, 9.997693 
8.7511706e+2, 3.05381e+2, 217237.47, -49075.047, -52098.082, -0.08379919, 0.024848007, 227066.52, 227066.52, 0.00015286829, 10.002139, 9.998607 
8.7512386e+2, 3.1537884e+2, 270030.94, 111003.22, 19629.086, -0.041529745, -0.07325387, 272417.94, 272417.94, 0.00035722472, 10.001879, 9.999825 
8.849811e+2, 1.2538691e+2, -1855535.4, -1590914.5, 62372.375, -0.030100087, 0.07216506, -1576949.9, 134263.92, 0.00000006865043, 9.998153, 10.001734 
8.849899e+2, 1.3538726e+2, -1785377.3, -1537389.1, -8458.161, 0.25514087, -0.06736681, -1537101.0, 76104.94, 0.0, 9.998128, 10.001446 
8.849966e+2, 1.4538835e+2, -1740416.9, -1633742.0, 63218.582, 0.22886835, -0.014260512, -1604366.3, -89171.37, 0.0, 9.998497, 9.999914 
8.850029e+2, 1.553906e+2, -1499881.6, -1467590.8, 43464.04, 0.051648982, 0.19308782, -1437370.3, -20194.113, 0.0, 9.999473, 9.999914 
8.850099e+2, 1.6538964e+2, -1406619.5, -1422602.1, 36522.59, -0.054091386, 0.1300105, -1377224.1, -58039.89, 0.0, 9.999665, 9.999459 
8.850174e+2, 1.7538594e+2, -1375448.4, -1354431.6, 26988.928, -0.09387578, -0.20336512, -1335977.5, -114762.41, 0.0, 9.999196, 9.999481 
8.8502645e+2, 1.853856e+2, -1187615.5, -1166277.5, 38877.8, -0.013177128, -0.20209871, -1136631.4, -13415.252, 0.0, 9.999604, 9.9999 
8.8503677e+2, 1.9538787e+2, -929136.25, -994416.44, -14779.086, 0.16118814, 0.012977355, -925946.25, 99248.59, 0.0, 10.000725, 9.9998665 
8.850444e+2, 2.0538801e+2, -894444.0, -1080964.3, -47458.594, 0.13020203, 0.113879174, -883063.0, 44132.938, 0.0, 10.000944, 9.998501 
8.850497e+2, 2.1538623e+2, -883507.8, -1020457.56, -8919.031, -0.07447314, 0.06757878, -882929.4, -53712.07, 0.0, 10.000327, 9.998543 
8.8505733e+2, 2.2538503e+2, -757823.2, -798862.0, 49542.14, -0.09506969, 0.04694132, -724719.2, 6511.558, 0.0, 10.0000515, 9.999515 
8.8506705e+2, 2.3538409e+2, -657960.25, -701320.8, 25989.55, 0.03945703, -0.018213144, -645795.44, -12555.793, 0.0, 10.000068, 9.999505 
8.850752e+2, 2.4538374e+2, -597659.5, -678690.1, 16905.557, 0.06628015, 0.024557184, -594273.9, -59030.73, 0.0, 10.000047, 9.998999 
8.8508207e+2, 2.5538364e+2, -500385.56, -584062.0, 30661.35, -0.0031354679, 0.0923415, -490353.22, -53108.656, 0.00000000006372724, 10.000049, 9.998976 
8.850888e+2, 2.6538265e+2, -360904.9, -541848.2, -5833.7485, -0.038089596, 0.13588691, -360717.03, -21461.697, 0.00000025387644, 10.000668, 9.998296 
8.850953e+2, 2.7538073e+2, -85631.28, -359563.25, -41432.344, -0.038145393, 0.09203653, -79501.77, 161774.6, 0.0000021793016, 10.001885, 9.998288 
8.851032e+2, 2.8537828e+2, -15235.559, -352258.94, 50034.45, -0.0143663315, 0.053395223, -7964.3257, 135336.14, 0.000011106664, 10.002052, 9.997578 
8.851124e+2, 2.9537493e+2, -10388.728, -293185.22, 67659.86, 0.038313683, -0.055715248, 4965.445, 50296.125, 0.000049522223, 10.00137, 9.997643 
8.851191e+2, 3.0537367e+2, 106702.47, -127878.4, -12487.952, -0.05649617, 0.015531404, 107365.4, 107365.4, 0.00016466355, 10.001485, 9.998392 
8.8512605e+2, 3.1537247e+2, 309934.56, 154760.02, -77688.18, -0.010704698, 0.04059931, 342143.63, 342143.63, 0.00037254568, 10.002038, 10.000072 
8.949797e+2, 1.253805e+2, -1895421.3, -1670007.8, 26364.014, -0.026162693, -0.018588316, -1666965.4, 44308.418, 0.00000033567557, 9.998153, 10.001184 
8.949872e+2, 1.3538235e+2, -1819486.1, -1607325.8, -4673.252, 0.15542622, 0.04735387, -1607222.9, 6030.253, 0.00000000007521531, 9.998141, 10.000953 
8.949939e+2, 1.4538243e+2, -1762028.3, -1685850.3, 89091.03, 0.085665666, 0.037710533, -1627047.6, -111795.414, 0.0, 9.998522, 9.99955 
8.9500195e+2, 1.5538183e+2, -1524850.5, -1522806.0, 89817.52, -0.020459477, -0.0006730943, -1434004.9, -16745.066, 0.0, 9.999486, 9.999532 
8.9500993e+2, 1.6538121e+2, -1406838.8, -1429006.5, 8723.9795, -0.03793439, -0.0061191996, -1403817.3, -84551.98, 0.0, 9.999683, 9.999409 
8.95018e+2, 1.7538032e+2, -1378262.0, -1362761.5, 21323.795, 0.03024166, -0.05602279, -1347823.3, -126552.29, 0.0, 9.999202, 9.999423 
8.950269e+2, 1.8537983e+2, -1271229.9, -1332161.3, 72859.65, 0.053595252, -0.0128134675, -1222722.9, -99446.56, 0.0, 9.999567, 9.998782 
8.9503646e+2, 1.9537947e+2, -1010985.56, -1151838.3, 33701.69, 0.03459218, 0.053172212, -1003337.1, 21946.348, 0.0, 10.000666, 9.9988165 
8.950443e+2, 2.0537868e+2, -824933.44, -914143.7, -79104.97, 0.013404284, 0.050376095, -778724.44, 148566.34, 0.0, 10.000848, 9.999692 
8.950508e+2, 2.1537732e+2, -821131.56, -861060.94, -20950.791, -0.009435821, -0.075228006, -812156.25, 17143.96, 0.0, 10.000201, 9.999695 
8.950584e+2, 2.2537707e+2, -800307.56, -860312.44, 41515.277, -0.011780545, -0.03807388, -779088.25, -47784.64, 0.0, 9.999928, 9.999156 
8.950668e+2, 2.353776e+2, -695198.94, -754470.9, 35662.695, -0.0047733462, 0.076706775, -678465.5, -45161.74, 0.0, 9.999961, 9.999193 
8.950749e+2, 2.4537748e+2, -561776.7, -589715.06, 7101.709, 0.013616525, 0.12675698, -560075.1, -24769.848, 0.0, 9.99998, 9.999644 
8.950828e+2, 2.553766e+2, -474732.34, -506360.75, 41356.15, 0.038455013, 0.0522571, -446269.9, -8959.402, 0.0000000002378373, 9.999945, 9.999562 
8.950899e+2, 2.653753e+2, -422099.66, -656163.2, 31935.3, -0.016473044, 0.06955392, -417820.66, -78495.234, 0.00000030747992, 10.000615, 9.997534 
8.9509636e+2, 2.7537322e+2, -153469.94, -475661.2, 13808.966, -0.13986883, 0.09593232, -152879.17, 88472.555, 0.0000026197797, 10.001785, 9.997538 
8.9510435e+2, 2.853711e+2, 36204.875, -239886.63, 15683.201, -0.12977043, 0.08605194, 37092.895, 180465.88, 0.000013171274, 10.002018, 9.998367 
8.9511365e+2, 2.9536873e+2, 35805.383, -188751.92, 54583.414, -0.001696978, -0.0120525705, 48370.01, 93760.82, 0.000055655084, 10.001326, 9.998383 
8.951206e+2, 3.0536693e+2, -1704.1809, -339467.5, 2234.3264, -0.071037024, 0.044245243, -1689.4012, -1689.4012, 0.00017577781, 10.001438, 9.996956 
8.9512753e+2, 3.153657e+2, 209206.6, -17844.176, -40624.266, -0.101561494, 0.20518322, 216256.27, 216256.27, 0.0003866523, 10.0019, 9.998938 
9.049786e+2, 1.2537351e+2, -2041721.4, -1814811.8, 4239.0063, 0.092175305, -0.039617755, -1814732.6, -103391.5, 0.0000010657902, 9.997446, 10.000541 
9.049859e+2, 1.3537537e+2, -1514980.3, -1524596.4, -59224.85, 0.095847875, 0.084301226, -1460368.6, 152954.52, 0.000000007369457, 10.000497, 10.000386 
9.049928e+2, 1.4537516e+2, -1409494.1, -1505729.0, 3446.0679, 0.009910556, 0.06954403, -1409370.9, 105954.68, 0.0, 10.000894, 9.999639 
9.0500134e+2, 1.5537405e+2, -1566486.4, -1532170.5, 18478.164, -0.0036840066, -0.032439433, -1524112.6, -106775.22, 0.0, 9.99915, 9.999628 
9.0501e+2, 1.6537379e+2, -1461765.5, -1450547.8, 18259.957, 0.025693996, -0.0065757986, -1437054.6, -117715.336, 0.0, 9.999284, 9.999457 
9.050188e+2, 1.75374e+2, -1108169.1, -1227069.8, 14799.414, 0.10058369, 0.048362788, -1106354.8, 114980.74, 0.0, 10.001032, 9.999471 
9.050274e+2, 1.8537323e+2, -1070788.8, -1260262.0, 92539.73, 0.08139683, 0.072226755, -1033091.9, 90251.65, 0.0, 10.001047, 9.99856 
9.05036e+2, 1.9537145e+2, -1178245.8, -1255456.4, 108694.39, -0.022976387, 0.01840907, -1101504.4, -76141.3, 0.0, 9.999603, 9.998621 
9.05044e+2, 2.0537035e+2, -982339.2, -935307.0, 30753.488, -0.030660622, -0.031186968, -920108.94, 7262.467, 0.0, 9.999534, 10.000175 
9.0505177e+2, 2.1536958e+2, -724145.2, -764867.7, 11629.813, 0.047160935, -0.145365, -721057.94, 108314.58, 0.0, 10.000653, 10.000135 
9.050593e+2, 2.2536968e+2, -680947.5, -839100.0, 51878.117, 0.040692367, -0.07885833, -665449.0, 65923.82, 0.0, 10.000908, 9.998831 
9.050666e+2, 2.353703e+2, -643491.75, -765689.0, 30830.367, -0.042968903, 0.08082452, -636153.9, -2779.3516, 0.0, 10.000472, 9.998871 
9.0507454e+2, 2.4536994e+2, -498830.38, -548427.3, 8838.109, -0.03586476, 0.115518175, -497302.5, 38076.664, 0.0, 10.00038, 9.999727 
9.0508306e+2, 2.553685e+2, -369088.66, -443268.2, -17251.533, 0.047105797, -0.021447053, -365272.84, 72115.43, 0.0, 10.0006275, 9.999659 
9.05091e+2, 2.6536736e+2, -370524.94, -619912.56, 30123.68, 0.02341658, 0.006602972, -366937.88, -27536.666, 0.0000002007212, 10.000932, 9.99763 
9.050984e+2, 2.753662e+2, -214854.05, -493172.7, 53866.05, -0.08282142, 0.1050951, -204792.5, 36628.13, 0.0000025589381, 10.001316, 9.9976425 
9.051065e+2, 2.8536445e+2, -18241.928, -261021.1, 43552.203, -0.09052205, 0.13094686, -10665.525, 132773.2, 0.000014749117, 10.001611, 9.998429 
9.051151e+2, 2.9536226e+2, 104342.08, -144231.6, 8616.457, -0.0055217836, 0.04813549, 104640.4, 150095.84, 0.00006245814, 10.001755, 9.998484 
9.051223e+2, 3.0535993e+2, 115369.41, -290884.28, 34534.324, -0.083778694, 0.04692355, 118284.14, 118284.14, 0.00018870574, 10.002277, 9.996888 
9.051298e+2, 3.1535882e+2, 326608.44, -8237.566, 40048.496, -0.11065667, 0.23545526, 331331.72, 331331.72, 0.00040376265, 10.0028925, 9.998538 
9.1497684e+2, 1.2536637e+2, -2086902.9, -1913278.5, 87464.07, 0.12572174, 0.041616905, -1876857.9, -165446.3, 0.000002613721, 9.997482, 9.999842 
9.1498566e+2, 1.3536637e+2, -1557290.4, -1609451.0, 55340.35, -0.0040422687, 0.04159701, -1522192.9, 91222.22, 0.00000007607973, 10.000489, 9.999804 
9.149929e+2, 1.4536646e+2, -1373063.8, -1428314.9, -73246.13, -0.09248579, 0.05760888, -1322406.6, 193009.33, 0.0, 10.000882, 10.000177 
9.150009e+2, 1.5536734e+2, -1524873.6, -1450776.5, -31119.006, 0.013491717, 0.09946889, -1439441.3, -22033.426, 0.0, 9.99917, 10.000177 
9.150097e+2, 1.6536762e+2, -1452876.1, -1432213.4, 73565.125, 0.049176708, 0.14366798, -1368257.8, -48853.27, 0.0, 9.999287, 9.99958 
9.1501933e+2, 1.7536716e+2, -1102960.5, -1211380.6, 85362.3, 0.033588935, 0.120571, -1056049.6, 165357.55, 0.0, 10.001011, 9.999589 
9.150278e+2, 1.8536592e+2, -1025961.5, -1158899.8, 29498.938, -0.012007643, 0.057562843, -1019709.75, 103706.79, 0.0, 10.001008, 9.999278 
9.15035e+2, 1.9536388e+2, -1142611.1, -1163725.0, 68854.31, -0.09002788, -0.093269266, -1083509.1, -58075.77, 0.0, 9.999528, 9.999289 
9.1504323e+2, 2.053631e+2, -1015931.56, -983668.75, 64994.87, -0.08137206, -0.12774223, -932833.3, -5395.9556, 0.0, 9.99944, 9.9998865 
9.150522e+2, 2.1536317e+2, -762132.94, -815629.9, 59363.586, 0.009731185, -0.12990573, -723769.9, 105662.945, 0.0, 10.000533, 9.999843 
9.150597e+2, 2.2536294e+2, -715949.5, -891116.44, 24774.057, -0.02258449, -0.06627117, -712513.06, 18924.283, 0.0, 10.000811, 9.998525 
9.1506606e+2, 2.3536228e+2, -681966.9, -820092.7, 24802.205, -0.15793028, -0.0046594474, -677648.4, -44196.918, 0.0, 10.0003605, 9.998552 
9.150738e+2, 2.4536121e+2, -541996.5, -621275.94, 11537.154, -0.16676863, -0.0015967961, -540351.7, -4888.214, 0.0, 10.000303, 9.999266 
9.150828e+2, 2.553595e+2, -410669.53, -513077.88, 3405.29, -0.06433696, -0.11853076, -410556.4, 26920.105, 0.0, 10.000551, 9.999221 
9.150919e+2, 2.6535904e+2, -312596.75, -489982.63, 37291.137, -0.000089514666, -0.048553053, -305076.03, 34406.28, 0.00000011562638, 10.000891, 9.998541 
9.151011e+2, 2.7535942e+2, -164707.11, -371612.06, 79916.74, 0.036610372, 0.11780562, -137434.3, 104049.664, 0.0000025826089, 10.001239, 9.998516 
9.1510934e+2, 2.8535828e+2, -70474.59, -354949.1, 39370.35, 0.01472167, 0.18810616, -65126.41, 78371.64, 0.000017159802, 10.001551, 9.997812 
9.151165e+2, 2.9535562e+2, 50474.703, -240949.95, 28080.557, -0.06289245, 0.12060843, 53155.77, 98679.85, 0.00007135739, 10.001687, 9.997853 
9.151237e+2, 3.053526e+2, 184048.25, -127728.85, 55062.016, -0.17907293, 0.026525093, 193486.84, 193486.84, 0.00020552066, 10.002194, 9.998045 
9.1513205e+2, 3.1535143e+2, 345368.78, 65276.395, 84087.93, -0.22086407, 0.084886245, 368674.1, 368674.1, 0.00042645857, 10.002753, 9.999104 
9.249758e+2, 1.2535799e+2, -1740841.8, -1696925.8, 64507.895, 0.17801735, 0.07544405, -1650741.1, 60755.563, 0.0000053718704, 9.999629, 10.000296 
9.249843e+2, 1.3535818e+2, -1977966.3, -1751752.0, 89511.234, -0.026106086, 0.038924206, -1720618.0, -107122.13, 0.00000033393198, 9.997336, 10.000357 
9.249918e+2, 1.4535865e+2, -1877360.9, -1639869.9, 10892.386, -0.11300405, 0.052480277, -1639371.4, -123879.2, 0.0, 9.997284, 10.000465 
9.250003e+2, 1.5535994e+2, -1467661.8, -1394448.1, 9110.227, 0.023651596, 0.10791663, -1393331.5, 24148.682, 0.0, 9.999436, 10.00044 
9.250096e+2, 1.6536032e+2, -1329093.4, -1367304.3, 134960.66, 0.07348464, 0.14705618, -1211892.5, 107583.5, 0.0, 10.000106, 9.999628 
9.2501974e+2, 1.7535979e+2, -1320290.9, -1309350.5, 123579.35, 0.048641723, 0.10978918, -1191120.3, 30359.813, 0.0, 9.999489, 9.999648 
9.2502826e+2, 1.8535879e+2, -1188600.9, -1190116.3, 41068.47, 0.008206696, 0.04609901, -1148283.1, -24796.479, 0.0, 9.999693, 9.999696 
9.250355e+2, 1.9535719e+2, -962293.7, -1030232.1, 35214.69, -0.049388222, -0.10294317, -947334.56, 78162.95, 0.0, 10.000572, 9.999695 
9.2504346e+2, 2.053567e+2, -859136.4, -956793.44, 58162.305, -0.06254222, -0.10689964, -832023.6, 95476.45, 0.0, 10.000726, 9.999458 
9.2505217e+2, 2.1535695e+2, -823331.8, -889179.56, 29236.281, -0.028684206, -0.047437113, -812224.56, 17272.893, 0.0, 10.0003, 9.999455 
9.250599e+2, 2.2535646e+2, -792716.5, -907278.56, 10538.531, -0.043242965, 0.0007424631, -791755.1, -60250.66, 0.0, 10.000203, 9.998697 
9.2506695e+2, 2.3535518e+2, -664310.25, -793619.75, 25712.398, -0.101144865, -0.017030962, -659385.1, -25863.588, 0.0, 10.000403, 9.99871 
9.2507476e+2, 2.4535403e+2, -494406.0, -613597.0, 75602.85, -0.11576339, -0.0241856, -457734.1, 77799.54, 0.0, 10.000692, 9.999137 
9.2508334e+2, 2.553527e+2, -336747.22, -486570.25, 74653.93, -0.09135061, -0.08857238, -305899.84, 131644.0, 0.0, 10.001103, 9.999137 
9.250926e+2, 2.6535228e+2, -246408.39, -432912.78, 104751.37, -0.02953654, -0.025349608, -199415.02, 140133.8, 0.00000007319143, 10.001224, 9.998777 
9.2510265e+2, 2.753523e+2, -175147.2, -349075.6, 82047.41, 0.0793154, 0.07895794, -142551.6, 99000.18, 0.0000027897247, 10.001043, 9.998764 
9.2511123e+2, 2.8535104e+2, -140466.78, -409057.2, 63278.24, 0.075068004, 0.13900277, -126305.48, 17261.666, 0.000020180585, 10.0011635, 9.997621 
9.2511845e+2, 2.953486e+2, 22493.61, -273664.6, 60696.22, -0.022556592, 0.11068662, 34450.29, 80044.4, 0.00008284934, 10.001575, 9.99768 
9.2512614e+2, 3.053461e+2, 144352.31, -61819.19, 99412.91, -0.11606711, 0.036197368, 184478.28, 184478.28, 0.00022869528, 10.001524, 9.998828 
9.251346e+2, 3.1534496e+2, 98308.734, -8885.712, 59916.54, -0.13730605, 0.019209344, 125102.14, 125102.14, 0.00046065266, 10.000842, 9.999517 
9.349748e+2, 1.2534788e+2, -1628789.9, -1452656.8, -54820.918, 0.06104921, 0.00903426, -1436987.8, 274612.97, 0.000009857008, 9.999593, 10.001985 
9.349814e+2, 1.3535091e+2, -1846386.4, -1493474.6, 13195.374, -0.06439871, 0.072402574, -1492981.9, 120582.945, 0.0000009955157, 9.997403, 10.002094 
9.34989e+2, 1.4535195e+2, -1874558.4, -1647081.9, 79149.14, -0.14831327, 0.06338944, -1622252.6, -106700.28, 0.00000000002439963, 9.997338, 10.000393 
9.3499917e+2, 1.5535186e+2, -1473946.4, -1402760.1, 95770.79, -0.055994708, -0.009351619, -1336182.3, 81372.016, 0.0, 9.999416, 10.000393 
9.3500936e+2, 1.6535191e+2, -1329189.1, -1359777.4, 100180.25, 0.01518981, -0.0043089585, -1243142.3, 76412.04, 0.0, 10.0000725, 9.999697 
9.3501955e+2, 1.7535198e+2, -1314150.5, -1299383.9, 111931.766, 0.06431402, 0.01310805, -1194592.1, 26961.775, 0.0, 9.9995, 9.999713 
9.350286e+2, 1.8535192e+2, -1191335.5, -1187324.4, 66969.016, 0.056312285, 0.038843844, -1122330.9, 1222.2092, 0.0, 9.999658, 9.999734 
9.350367e+2, 1.9535148e+2, -972230.44, -1033519.25, 74980.73, 0.0023412118, 0.0006994502, -921873.7, 103681.33, 0.0, 10.000501, 9.999709 
9.350443e+2, 2.0535122e+2, -899230.0, -1027387.2, 30589.104, -0.063831486, 0.04195259, -892303.25, 35255.645, 0.0, 10.000665, 9.999005 
9.3505144e+2, 2.1535093e+2, -869965.94, -963209.5, 22913.236, -0.1429675, 0.096956626, -864639.56, -35073.523, 0.0, 10.000195, 9.999003 
9.350597e+2, 2.2535028e+2, -768247.6, -828585.2, 11497.639, -0.10034448, 0.119314425, -766131.0, -34557.26, 0.0, 10.000083, 9.999294 
9.35069e+2, 2.3534903e+2, -640985.94, -720210.6, 43990.37, 0.04990154, 0.04518009, -621401.25, 12183.353, 0.0, 10.000292, 9.99927 
9.350771e+2, 2.4534835e+2, -491360.44, -588145.0, 81613.74, 0.031181829, 0.047743462, -444870.63, 90719.266, 0.0, 10.000609, 9.999351 
9.350843e+2, 2.5534794e+2, -335176.13, -467989.97, 98757.47, -0.12019794, 0.054035775, -282574.97, 155017.19, 0.0, 10.001029, 9.999305 
9.3509287e+2, 2.6534688e+2, -279550.5, -484792.34, 91774.17, -0.13661033, 0.06414426, -244499.52, 95102.79, 0.00000003612581, 10.001154, 9.998451 
9.351027e+2, 2.753449e+2, -211033.84, -404613.0, 88275.56, -0.036451582, 0.001839299, -176824.19, 64798.305, 0.0000027030533, 10.000967, 9.998417 
9.3511194e+2, 2.8534302e+2, -129760.164, -381669.5, 71862.09, 0.008074811, 0.004575828, -110701.94, 32941.613, 0.000022488803, 10.001133, 9.997825 
9.3512064e+2, 2.9534122e+2, 32295.627, -251741.9, 89721.24, 0.013756655, 0.01883229, 58262.668, 103927.82, 0.000095232324, 10.001558, 9.997843 
9.351291e+2, 3.0534023e+2, 167648.73, -6696.6533, 69958.36, 0.004798919, 0.0706823, 192249.25, 192249.25, 0.0002574787, 10.001503, 9.999213 
9.351368e+2, 3.1533992e+2, 103880.93, 24509.178, 62396.313, -0.042160038, 0.090951875, 138142.8, 138142.8, 0.0005076494, 10.000755, 9.999785 
9.4497323e+2, 1.2533985e+2, -1837573.1, -1550006.6, 37355.49, 0.03355161, 0.024355037, -1545233.4, 166447.17, 0.000016753027, 9.998127, 10.002034 
9.4498e+2, 1.3534296e+2, -1618373.3, -1379192.4, -57296.176, -0.0124669485, 0.093166895, -1366175.4, 247468.4, 0.000002343361, 9.998946, 10.002137 
9.4498783e+2, 1.4534402e+2, -1619077.3, -1516257.8, 31683.684, -0.072929434, 0.08155522, -1507278.6, 8351.872, 0.0000000053592455, 9.999061, 10.000457 
9.4499815e+2, 1.5534365e+2, -1574030.8, -1448034.0, 34783.77, -0.05180399, -0.02599149, -1439069.1, -21434.828, 0.0, 9.99871, 10.000426 
9.450087e+2, 1.6534375e+2, -1484085.0, -1398920.3, 43624.785, 0.004420666, -0.03516272, -1380540.5, -60906.78, 0.0, 9.998862, 10.000007 
9.4501925e+2, 1.7534408e+2, -1296012.6, -1256241.8, 50951.992, 0.0878271, -0.020700872, -1221432.3, 198.5563, 0.0, 9.99948, 10.000013 
9.450285e+2, 1.8534456e+2, -1178850.6, -1145125.5, 51938.49, 0.08880129, 0.024418768, -1107380.8, 16244.312, 0.0, 9.999594, 10.000047 
9.4503677e+2, 1.9534482e+2, -1127401.4, -1075134.3, 67143.19, 0.020104334, 0.026399741, -1029218.06, -3597.9905, 0.0, 9.999294, 10.000001 
9.4504446e+2, 2.0534474e+2, -1061846.9, -1114859.0, 61638.234, -0.0600655, 0.07750671, -1021257.2, -93634.055, 0.0, 9.999595, 9.998915 
9.4505167e+2, 2.1534425e+2, -845393.56, -954722.56, 61167.496, -0.1463747, 0.117396094, -818023.5, 11610.901, 0.0, 10.000386, 9.99896 
9.450602e+2, 2.2534367e+2, -616655.5, -698183.8, 81800.234, -0.104191616, 0.12238293, -566024.94, 165615.4, 0.0, 10.000877, 9.99981 
9.450698e+2, 2.3534282e+2, -483373.3, -585670.6, 91785.414, 0.05477629, 0.035345018, -429447.03, 204196.64, 0.0, 10.001129, 9.999788 
9.450782e+2, 2.453423e+2, -422130.84, -586946.44, 125048.375, 0.04993629, 0.046688374, -354778.38, 180868.2, 0.0, 10.001221, 9.999065 
9.450857e+2, 2.5534195e+2, -336731.28, -494668.2, 87997.29, -0.08307462, 0.08086619, -297464.63, 140186.17, 0.0, 10.001134, 9.999065 
9.450942e+2, 2.6534054e+2, -257281.52, -489492.1, 88526.34, -0.12238543, 0.07878486, -227382.19, 112282.3, 0.000000027783642, 10.001372, 9.998317 
9.451037e+2, 2.7533802e+2, -82788.84, -355154.4, 80663.914, -0.074942596, -0.026061974, -60692.066, 180997.45, 0.000002329391, 10.0019, 9.998313 
9.451131e+2, 2.8533623e+2, 42133.754, -270517.56, 95309.5, -0.03593417, -0.020977022, 68897.18, 212606.1, 0.000023981273, 10.002194, 9.998082 
9.451224e+2, 2.9533505e+2, 142940.8, -169153.97, 96446.3, 0.0068487306, 0.030456148, 170340.06, 216063.66, 0.000106754764, 10.002203, 9.998098 
9.451314e+2, 3.0533433e+2, 248531.92, -19943.674, 50499.66, 0.05296116, 0.120116055, 257716.58, 257716.58, 0.00028782972, 10.002294, 9.998747 
9.45139e+2, 3.1533274e+2, 314210.56, 88335.4, -45592.723, 0.031079222, 0.061464917, 323066.22, 323066.22, 0.00056179153, 10.002366, 9.999457 
9.549705e+2, 1.253342e+2, -1956205.1, -1800073.5, 43321.84, -0.10691818, 0.14067632, -1788858.6, -77125.74, 0.00002677623, 9.99816, 10.00029 
9.549798e+2, 1.3533452e+2, -1742092.6, -1626237.0, -22606.87, 0.051467326, 0.103240244, -1621982.0, -8250.941, 0.0000047533053, 9.998914, 10.000448 
9.5498824e+2, 1.4533485e+2, -1611217.6, -1492077.4, 6276.6855, 0.028476102, 0.08906852, -1491747.6, 23979.666, 0.000000046136613, 9.999023, 10.000643 
9.54997e+2, 1.5533538e+2, -1551682.4, -1414125.0, 31944.92, -0.06390381, 0.05307423, -1407068.5, 10651.386, 0.0, 9.998763, 10.000633 
9.5500714e+2, 1.6533592e+2, -1444651.4, -1325542.0, 57948.938, -0.05484411, 0.05443382, -1302001.4, 17711.873, 0.0, 9.998896, 10.000496 
9.550185e+2, 1.7533623e+2, -1261258.1, -1184174.0, 81799.97, 0.044039253, 0.015458161, -1132290.9, 89418.766, 0.0, 9.999477, 10.000512 
9.550277e+2, 1.8533672e+2, -1136853.5, -1053988.6, 31807.646, 0.027241789, 0.007747995, -1043187.2, 80514.734, 0.0, 9.999573, 10.000685 
9.5503515e+2, 1.9533722e+2, -1090669.5, -987546.2, 65432.98, -0.087274805, -0.030457601, -955800.7, 69891.98, 0.0, 9.999245, 10.000626 
9.550435e+2, 2.0533735e+2, -1054461.5, -1082691.4, 81254.695, -0.12914962, -0.0039082426, -986104.9, -58412.332, 0.0, 9.999519, 9.999176 
9.5505255e+2, 2.153369e+2, -847687.0, -928521.94, 98971.86, -0.1136283, 0.016906021, -781198.0, 48504.734, 0.0, 10.00025, 9.999208 
9.550609e+2, 2.2533669e+2, -600245.44, -632964.06, 82344.914, -0.12860078, 0.01919121, -532650.56, 199053.6, 0.0, 10.000747, 10.0003195 
9.550688e+2, 2.3533641e+2, -470574.16, -532052.8, 110718.36, -0.1650122, -0.05648796, -386407.16, 247293.02, 0.0, 10.001009, 10.000218 
9.5507765e+2, 2.4533582e+2, -489502.56, -699307.06, 113837.55, -0.141934, -0.036849104, -439603.44, 96101.26, 0.0, 10.001112, 9.998341 
9.5508724e+2, 2.5533473e+2, -401427.66, -608041.1, 94462.08, -0.06389886, 0.000014395714, -364750.94, 72967.914, 0.0, 10.001044, 9.998328 
9.550964e+2, 2.6533335e+2, -266039.16, -488638.2, 99943.336, -0.06047034, 0.03016593, -227751.72, 111982.84, 0.000000030362223, 10.001294, 9.99836 
9.551053e+2, 2.7533144e+2, -91607.06, -357033.0, 111624.805, -0.1272308, -0.0139402775, -50904.844, 190849.36, 0.000002140531, 10.001827, 9.998337 
9.5511436e+2, 2.8533038e+2, 54568.02, -226825.92, 86405.66, -0.14693509, 0.04606064, 78981.85, 222747.44, 0.000025889522, 10.002122, 9.998413 
9.5512354e+2, 2.9532996e+2, 152272.05, -135121.77, 106573.9, -0.124389686, 0.13918181, 187479.58, 233250.02, 0.000117742304, 10.002139, 9.998362 
9.5513296e+2, 3.0532843e+2, 153913.95, -203071.45, 50288.637, -0.038855698, 0.19709381, 160862.86, 160862.86, 0.00031737162, 10.002237, 9.997518 
9.551409e+2, 3.1532404e+2, 239787.69, -51329.973, -5883.2188, -0.063810825, -0.01620138, 239906.53, 239906.53, 0.0006187192, 10.002297, 9.998534 
9.64969e+2, 1.253264e+2, -1999428.6, -1923039.1, -6243.9688, -0.06399876, 0.16694364, -1922532.1, -210725.13, 0.000040530904, 9.998292, 9.999387 
9.649793e+2, 1.3532554e+2, -1804240.5, -1748178.4, -39231.406, 0.121738866, 0.097555056, -1727992.9, -114172.43, 0.000008656152, 9.998879, 9.99963 
9.6498793e+2, 1.453257e+2, -1616147.4, -1478941.4, 15458.805, 0.11198462, 0.10058585, -1477221.3, 38598.652, 0.00000019058375, 9.9989395, 10.000762 
9.649958e+2, 1.5532681e+2, -1541275.1, -1392102.9, 10749.209, -0.05893752, 0.111090936, -1391332.3, 26474.42, 0.0, 9.998783, 10.000764 
9.6500564e+2, 1.6532779e+2, -1469785.0, -1284583.4, 62027.23, -0.07159966, 0.12575564, -1265728.9, 54066.41, 0.0, 9.998503, 10.000966 
9.650174e+2, 1.7532843e+2, -1423280.0, -1212294.5, 67462.13, 0.05556156, 0.07280084, -1192568.0, 29219.672, 0.0, 9.998151, 10.000961 
9.650268e+2, 1.8532893e+2, -1303766.4, -1105350.9, 18168.17, 0.046591017, 0.030733675, -1103701.0, 20078.217, 0.0, 9.998293, 10.000957 
9.6503425e+2, 1.9532914e+2, -1125254.5, -974012.25, 8140.9756, -0.08122437, -0.06053124, -973575.3, 52196.71, 0.0, 9.998869, 10.000907 
9.6504307e+2, 2.0532946e+2, -1051679.0, -1011017.25, 56740.297, -0.10642928, -0.059459195, -971075.4, -43307.277, 0.0, 9.999256, 9.999782 
9.650531e+2, 2.1532966e+2, -914016.4, -894645.5, 80441.81, -0.044063784, -0.03789514, -823308.1, 6460.8135, 0.0, 9.999527, 9.999778 
9.6506166e+2, 2.2532964e+2, -768645.2, -773148.5, 46894.695, -0.079465516, -0.01641564, -723948.1, 7820.9565, 0.0, 9.999836, 9.999803 
9.650692e+2, 2.353292e+2, -627461.25, -655060.5, -15446.246, -0.18744765, -0.05819545, -620548.1, 13222.255, 0.0, 10.000139, 9.99979 
9.65078e+2, 2.4532844e+2, -580373.8, -723036.6, 871.4584, -0.17465028, -0.04521475, -580368.5, -44591.48, 0.0, 10.000393, 9.99853 
9.650882e+2, 2.5532728e+2, -450473.13, -611074.25, 34657.883, -0.04590253, -0.03375413, -443313.13, -5523.512, 0.0, 10.000627, 9.99851 
9.650979e+2, 2.6532584e+2, -327625.63, -556765.9, 93402.08, -0.019824043, -0.0011897522, -294377.4, 45428.094, 0.000000012060779, 10.001026, 9.99802 
9.651073e+2, 2.753238e+2, -161127.98, -426684.6, 56783.22, -0.08541054, -0.022816557, -149495.72, 92331.516, 0.0000023356135, 10.001501, 9.998013 
9.651165e+2, 2.8532246e+2, 21738.809, -259696.83, 10798.386, -0.12730572, 0.02924553, 22152.523, 165994.36, 0.000028869204, 10.001972, 9.998255 
9.651256e+2, 2.9532155e+2, 181033.13, -140308.56, -27605.521, -0.1412036, 0.09281777, 183387.39, 229238.0, 0.00012890252, 10.002428, 9.998183 
9.651354e+2, 3.053197e+2, 229929.88, -217716.89, -50664.445, -0.04405611, 0.15298754, 235592.42, 235592.42, 0.00034520676, 10.002972, 9.997062 
9.65144e+2, 3.1531546e+2, 377871.34, 7767.389, -76947.92, -0.023751248, -0.0085095735, 393231.97, 393231.97, 0.0006746709, 10.003297, 9.998444 
9.7496825e+2, 1.2531616e+2, -1985894.6, -1902596.6, -13961.415, -0.019438108, 0.07864314, -1900318.9, -188413.44, 0.000058506626, 9.998323, 9.99951 
9.749782e+2, 1.353161e+2, -1786632.5, -1720045.3, -14968.462, 0.10761089, 0.07454767, -1716835.1, -102924.46, 0.00001444443, 9.998918, 9.999802 
9.749868e+2, 1.4531681e+2, -1614519.3, -1485504.3, -700.7845, 0.07988431, 0.12217969, -1485500.5, 30405.621, 0.0000005546723, 9.9989805, 10.000701 
9.7499424e+2, 1.5531805e+2, -1547596.6, -1402749.4, 14946.57, -0.11070154, 0.15453199, -1401223.3, 16670.564, 0.0, 9.998774, 10.000696 
9.7500384e+2, 1.6531938e+2, -1437216.8, -1216610.0, 35635.055, -0.12267146, 0.18321939, -1210996.6, 108883.01, 0.0, 9.998495, 10.001438 
9.750156e+2, 1.7532064e+2, -1388337.1, -1146787.8, 60764.473, 0.041869044, 0.14528948, -1132363.1, 89502.195, 0.0, 9.998176, 10.001401 
9.750255e+2, 1.8532112e+2, -1311960.8, -1118670.8, 32782.363, 0.06373664, 0.08506954, -1113262.1, 10595.115, 0.0, 9.998278, 10.000872 
9.7503376e+2, 1.953207e+2, -1137207.8, -985736.56, 39193.05, -0.040474094, -0.06374219, -976196.3, 49660.824, 0.0, 9.998811, 10.000854 
9.750429e+2, 2.0532124e+2, -999966.2, -885887.25, 56193.27, -0.067262135, -0.08313305, -862856.9, 64991.605, 0.0, 9.999175, 10.000683 
9.7505295e+2, 2.1532243e+2, -871608.56, -784210.3, 97311.66, -0.026170775, -0.05118724, -721236.2, 108598.016, 0.0, 9.999425, 10.000589 
9.75062e+2, 2.2532244e+2, -886945.2, -989637.75, 47222.96, -0.043120816, 0.008882186, -868531.56, -136695.48, 0.0, 9.999715, 9.998371 
9.7507024e+2, 2.3532118e+2, -745816.44, -864922.44, 4284.761, -0.1067717, 0.027107637, -745662.5, -111808.23, 0.0, 9.999989, 9.998419 
9.7507906e+2, 2.4532026e+2, -512890.94, -566187.0, 140.44261, -0.12867561, 0.033636823, -512890.56, 22972.03, 0.0, 10.000316, 9.999648 
9.7508824e+2, 2.5531945e+2, -384145.22, -461009.8, 53330.285, -0.117243715, -0.032164924, -356841.97, 81022.26, 0.0, 10.000567, 9.999573 
9.750985e+2, 2.6531777e+2, -385146.13, -659297.94, 102394.47, -0.08575397, -0.038071044, -351124.3, -11245.041, 0.0000000034767167, 10.000958, 9.997346 
9.751095e+2, 2.7531514e+2, -217569.77, -529417.94, 85601.15, -0.03741246, -0.056591097, -195617.83, 46290.773, 0.0000028342504, 10.001438, 9.997336 
9.751195e+2, 2.8531256e+2, -29265.266, -356256.25, 19863.586, -0.057844304, -0.059062634, -28063.041, 115873.125, 0.000032313746, 10.001932, 9.997615 
9.751282e+2, 2.953099e+2, 128363.44, -236718.86, 4730.2773, -0.14889829, -0.10711067, 128424.72, 174388.3, 0.00013997531, 10.00237, 9.997553 
9.7513837e+2, 3.0530804e+2, 227590.25, -196605.02, -43673.13, -0.058706835, -0.024852997, 232039.95, 232039.95, 0.00037147623, 10.002867, 9.997254 
9.751476e+2, 3.1530637e+2, 393030.7, 68564.87, -27365.408, -0.03310969, 0.049996365, 395322.5, 395322.5, 0.0007275027, 10.003175, 9.998916 
9.8496777e+2, 1.2530607e+2, -1812164.5, -1741195.6, -7966.44, 0.067321755, 0.033623446, -1740312.4, -28309.164, 0.00008108169, 9.999187, 10.000202 
9.8497695e+2, 1.353065e+2, -1716657.8, -1617322.0, -2297.901, 0.08435478, 0.014951248, -1617268.9, -3268.4282, 0.000022462764, 9.99909, 10.00043 
9.849857e+2, 1.4530739e+2, -1647043.6, -1497396.4, 33505.22, 0.08741904, 0.049938884, -1490237.3, 25756.088, 0.0000013019285, 9.998731, 10.000742 
9.849935e+2, 1.553087e+2, -1606180.3, -1424336.0, 36135.816, -0.031675916, 0.07955039, -1417418.3, 563.759, 0.0, 9.998338, 10.000756 
9.8500293e+2, 1.6531017e+2, -1486707.3, -1248134.6, 72516.47, -0.042530593, 0.1249348, -1227822.0, 92145.805, 0.0, 9.998197, 10.001362 
9.850139e+2, 1.7531167e+2, -1372805.1, -1143979.8, 38666.957, 0.055550884, 0.12166446, -1137622.4, 84329.68, 0.0, 9.998317, 10.001345 
9.850239e+2, 1.853124e+2, -1261896.3, -1107152.8, 28121.623, 0.06843442, 0.09273099, -1102200.6, 21742.268, 0.0, 9.998674, 10.000762 
9.8503304e+2, 1.9531222e+2, -1094694.0, -976611.2, 11463.705, -0.003333018, -0.022132298, -975508.56, 50433.18, 0.0, 9.999155, 10.0007515 
9.850425e+2, 2.0531277e+2, -957898.44, -853849.5, 3265.948, -0.03084379, -0.040592376, -853747.06, 74185.49, 0.0, 9.999393, 10.000809 
9.850524e+2, 2.1531378e+2, -871216.56, -770162.8, -28714.555, -0.015147127, -0.039290104, -762573.5, 67344.89, 0.0, 9.999358, 10.000725 
9.8506194e+2, 2.2531362e+2, -872401.3, -983205.75, -13556.936, -0.018590951, -0.0038501585, -870766.75, -138845.73, 0.0, 9.99981, 9.998368 
9.8507124e+2, 2.3531221e+2, -647071.4, -819232.4, 31153.572, -0.031401217, -0.00085197424, -641607.4, -7666.9653, 0.0, 10.000669, 9.998405 
9.850804e+2, 2.4531128e+2, -416166.78, -540412.2, 29989.05, -0.05271887, 0.014557496, -409307.06, 126642.32, 0.0, 10.001085, 9.999449 
9.850894e+2, 2.5531048e+2, -311390.56, -449586.22, -35334.746, -0.085152075, -0.025865112, -302880.06, 135071.72, 0.0, 10.001166, 9.999364 
9.851e+2, 2.6530868e+2, -316692.38, -620022.25, 20921.547, -0.051259443, -0.036594637, -315256.16, 24711.87, 0.00000001775074, 10.001403, 9.997409 
9.85112e+2, 2.7530587e+2, -166776.9, -499385.7, 38506.79, 0.054795746, -0.0764852, -162377.1, 79620.88, 0.000003544514, 10.001765, 9.997391 
9.851221e+2, 2.8530315e+2, -46185.285, -395959.94, 22788.516, 0.021930527, -0.08343303, -44706.816, 99319.79, 0.00003520851, 10.001945, 9.997341 
9.8513037e+2, 2.9530028e+2, 46741.5, -304684.8, 17033.104, -0.13708596, -0.12674744, 47565.137, 93621.17, 0.00014919741, 10.001929, 9.997299 
9.8514086e+2, 3.0529797e+2, 188644.9, -225704.03, 18210.176, -0.075926825, -0.07175299, 189443.67, 189443.67, 0.00039500848, 10.002637, 9.997165 
9.851513e+2, 3.152969e+2, 487747.2, 118260.88, -12807.844, -0.0030535178, 0.07177774, 488190.63, 488190.63, 0.00077432854, 10.003782, 9.998976 
9.949669e+2, 1.2529631e+2, -1727609.1, -1570554.6, -40360.973, 0.013769013, 0.049474638, -1560789.6, 151308.64, 0.000108580556, 9.999219, 10.001353 
9.949752e+2, 1.3529679e+2, -1639678.1, -1457049.8, -1442.1176, -0.014358093, -0.07829762, -1457038.4, 157050.44, 0.000033028722, 9.999094, 10.001526 
9.949844e+2, 1.4529757e+2, -1633541.9, -1471909.5, 4848.2437, 0.051646367, -0.1143936, -1471764.1, 44316.21, 0.0000026281716, 9.998736, 10.0009165 
9.9499327e+2, 1.5529881e+2, -1585621.8, -1394199.0, 30228.053, 0.08770678, -0.11098229, -1389539.1, 28531.717, 0.00000000019976186, 9.9983835, 10.000945 
9.9500257e+2, 1.6530025e+2, -1529076.8, -1339368.9, 67355.21, 0.07650946, -0.04691778, -1317887.1, 2171.8105, 0.0, 9.998212, 10.000727 
9.950122e+2, 1.7530163e+2, -1413115.5, -1232964.6, 51627.184, 0.029037882, -0.0013487128, -1219218.4, 2829.3567, 0.0, 9.998333, 10.000729 
9.95022e+2, 1.8530276e+2, -1277962.5, -1133913.1, 35301.4, -0.0143500725, 0.050955266, -1125727.3, -1690.7194, 0.0, 9.998649, 10.000592 
9.9503183e+2, 1.9530359e+2, -1111731.3, -1003034.94, 36580.496, -0.05380098, 0.054142423, -991870.8, 34156.043, 0.0, 9.999115, 10.00059 
9.9504155e+2, 2.0530398e+2, -1014759.06, -947350.06, -9229.721, -0.0776554, 0.05916911, -946109.2, -18088.281, 0.0, 9.999291, 10.000215 
9.950512e+2, 2.1530381e+2, -925038.4, -853645.25, -20778.014, -0.087052055, 0.0009113899, -848038.44, -18017.975, 0.0, 9.999237, 10.00021 
9.9506134e+2, 2.2530329e+2, -795115.56, -788116.44, 10149.864, -0.07641326, -0.04470496, -780879.8, -48857.35, 0.0, 9.999664, 9.999777 
9.950719e+2, 2.3530234e+2, -573185.2, -634743.9, 70434.9, -0.048653685, -0.1391877, -527098.1, 106930.27, 0.0, 10.000539, 9.999733 
9.9508184e+2, 2.4530146e+2, -536183.06, -769706.2, 21738.303, -0.03380386, -0.10408586, -534176.7, 1860.8717, 0.0, 10.000995, 9.997919 
9.9509126e+2, 2.5530043e+2, -426969.8, -667228.75, -23361.256, -0.032993596, -0.015130749, -424719.4, 13332.312, 0.0, 10.001066, 9.997918 
9.9510217e+2, 2.652987e+2, -276741.38, -520729.97, 27135.05, 0.010663014, 0.012260263, -273760.0, 66310.15, 0.000000028595345, 10.001332, 9.998125 
9.9511427e+2, 2.752961e+2, -129851.695, -405154.47, 64028.895, 0.086834274, -0.07973021, -115688.71, 126406.055, 0.000003781716, 10.00169, 9.9980755 
9.9512416e+2, 2.8529403e+2, -48084.543, -383943.75, 12557.245, 0.015002351, -0.0530843, -47615.7, 96498.47, 0.000036350866, 10.001877, 9.997456 
9.95132e+2, 2.952925e+2, 52493.164, -284637.84, 29157.945, -0.19055836, 0.021682436, 54996.402, 101125.695, 0.00015454051, 10.001898, 9.997448 
9.951428e+2, 3.0528945e+2, 157939.28, -285266.66, 56680.965, -0.16129015, 0.011840928, 165073.3, 165073.3, 0.00041140616, 10.002621, 9.996765 
9.9515426e+2, 3.1528676e+2, 433838.8, 56502.297, 59875.03, -0.13028643, 0.03751547, 443111.78, 443111.78, 0.0008072552, 10.003582, 9.998643 
1.0049655e+3, 1.2528649e+2, -1807140.8, -1590370.6, -2844.5857, -0.006809357, 0.0050602797, -1590333.4, 121859.984, 0.00014134821, 9.998595, 10.001515 
1.0049735e+3, 1.3528776e+2, -1853051.9, -1537634.1, -64107.914, -0.008751717, -0.061729975, -1525102.3, 89074.72, 0.000046426092, 9.99755, 10.001705 
1.00498304e+3, 1.4528896e+2, -1806644.5, -1519063.6, -29609.656, 0.11935537, -0.08134108, -1516046.6, 118.120804, 0.00000474816, 9.997407, 10.001228 
1.0049922e+3, 1.5529044e+2, -1590406.5, -1365517.3, -21839.203, 0.1517607, -0.08147511, -1363416.0, 54736.54, 0.000000004412824, 9.998225, 10.00122 
1.0050015e+3, 1.6529173e+2, -1453885.8, -1332866.1, 53623.555, 0.12200177, -0.031524654, -1312524.8, 7617.0425, 0.0, 9.998841, 10.000481 
1.00501105e+3, 1.7529263e+2, -1296505.0, -1202702.8, 50267.03, 0.04065735, -0.008599504, -1180854.5, 41280.09, 0.0, 9.999242, 10.000503 
1.005021e+3, 1.8529342e+2, -1186401.9, -1104463.5, 64876.875, 0.0019099562, 0.026419329, -1068702.8, 55423.656, 0.0, 9.999353, 10.000444 
1.00503154e+3, 1.9529395e+2, -1108850.9, -1020144.56, 48142.727, 0.0012171919, 0.014981946, -999038.4, 27080.695, 0.0, 9.9992285, 10.000412 
1.0050414e+3, 2.0529407e+2, -1007486.6, -991453.6, 30946.342, -0.03414671, 0.021087572, -967502.3, -39385.594, 0.0, 9.999542, 9.999789 
1.0050507e+3, 2.1529363e+2, -820884.75, -850135.3, 11320.922, -0.10291503, -0.020930732, -817015.1, 13105.626, 0.0, 10.0001545, 9.99979 
1.00506105e+3, 2.2529314e+2, -680046.7, -703303.94, 22736.96, -0.09731485, -0.05658931, -666137.25, 65984.98, 0.0, 10.000328, 10.000044 
1.0050724e+3, 2.3529239e+2, -618761.6, -632613.4, -20945.12, -0.026552211, -0.1546365, -603627.0, 30496.912, 0.0, 10.000115, 9.999957 
1.00508295e+3, 2.452913e+2, -649374.4, -866278.4, -44812.555, 0.00817786, -0.13274564, -640480.7, -104345.56, 0.0, 10.000393, 9.997546 
1.0050928e+3, 2.5528973e+2, -448667.88, -712602.2, -22282.11, 0.016745903, -0.063912556, -446799.97, -8643.651, 0.0, 10.00108, 9.997594 
1.0051037e+3, 2.6528814e+2, -207281.14, -464889.53, 67187.48, 0.028159985, -0.014344904, -190810.84, 149362.56, 0.000000017098808, 10.001726, 9.998309 
1.00511566e+3, 2.752863e+2, -26404.834, -333707.34, 43384.145, 0.03652401, -0.0479662, -20397.414, 221792.28, 0.000003428396, 10.002316, 9.998256 
1.005126e+3, 2.852844e+2, 125761.95, -300940.38, -8701.476, -0.038081378, -0.018008651, 125939.32, 270146.06, 0.00003625069, 10.003066, 9.997456 
1.0051351e+3, 2.9528233e+2, 337722.38, -152116.63, -21511.209, -0.17012006, 0.0075512663, 338665.22, 384890.7, 0.00015742959, 10.003857, 9.997425 
1.00514635e+3, 3.0527863e+2, 330445.1, -228072.13, 14420.402, -0.12625499, -0.05695864, 330817.2, 330817.2, 0.0004215928, 10.003917, 9.996537 
1.00515805e+3, 3.1527582e+2, 349012.06, -37689.785, -6668.518, -0.0803572, -0.014510872, 349127.0, 349127.0, 0.0008275706, 10.003205, 9.998189 
1.0149629e+3, 1.2527663e+2, -1857241.4, -1703234.4, -80110.83, -0.17880781, -0.11222772, -1669119.5, 43168.926, 0.0001798155, 9.9986315, 10.000719 
1.0149715e+3, 1.3527943e+2, -1899135.8, -1649267.5, -95294.695, 0.007795821, 0.051602934, -1617072.3, -2807.387, 0.000062927356, 9.997604, 10.000916 
1.0149814e+3, 1.4528154e+2, -1780129.0, -1466506.1, -11106.439, 0.19216092, 0.14308831, -1466113.4, 50133.145, 0.000007860604, 9.997419, 10.00158 
1.0149899e+3, 1.5528361e+2, -1567083.8, -1318330.5, 17700.053, 0.08187802, 0.16882278, -1317077.4, 101149.56, 0.000000028517778, 9.998233, 10.001538 
1.0149995e+3, 1.652847e+2, -1438721.6, -1305321.3, 58325.473, 0.014478768, 0.17357145, -1283416.8, 36798.563, 0.0, 9.998855, 10.000662 
1.0150102e+3, 1.7528477e+2, -1279784.4, -1176290.3, 72981.07, 0.010921002, 0.09331438, -1138572.3, 83639.97, 0.0, 9.9992695, 10.000673 
1.015021e+3, 1.852844e+2, -1201066.8, -1130676.6, 49999.797, 0.03749099, 0.012530317, -1104727.0, 19485.195, 0.0, 9.999334, 10.000275 
1.0150317e+3, 1.9528335e+2, -1129085.1, -1048978.3, 52457.06, 0.08147732, -0.13818055, -1023031.5, 3186.209, 0.0, 9.9991665, 10.000245 
1.0150416e+3, 2.0528303e+2, -1043068.6, -1039932.25, 44557.76, 0.015387875, -0.1537388, -996915.06, -68695.555, 0.0, 9.999436, 9.999505 
1.0150506e+3, 2.1528319e+2, -854909.9, -899089.6, 40062.344, -0.1458879, -0.108142525, -831250.94, -1031.1652, 0.0, 10.000063, 9.999496 
1.0150609e+3, 2.2528309e+2, -760645.7, -840134.7, 4481.079, -0.161019, -0.0481756, -760393.9, -28172.81, 0.0, 10.000199, 9.999165 
1.01507254e+3, 2.352825e+2, -693280.2, -759627.7, -19218.926, -0.04793419, -0.042536415, -688115.1, -53889.504, 0.0, 9.999996, 9.99914 
1.01508334e+3, 2.4528095e+2, -614727.8, -765933.06, -28341.41, -0.0014798675, -0.06419503, -609590.1, -73350.12, 0.0, 10.000275, 9.998292 
1.0150936e+3, 2.5527835e+2, -409778.53, -615611.4, 12974.669, -0.02146704, -0.17385963, -408963.9, 29301.313, 0.0, 10.001011, 9.998293 
1.01510465e+3, 2.6527694e+2, -237845.97, -518179.38, 82081.086, -0.0787453, -0.12098254, -215581.13, 124697.46, 0.000000011022683, 10.001677, 9.99797 
1.0151161e+3, 2.7527648e+2, -58208.555, -381669.56, 78723.98, -0.1741411, 0.016973209, -40066.27, 202216.64, 0.0000031084232, 10.002234, 9.997967 
1.0151276e+3, 2.852742e+2, 103792.37, -327210.03, 12416.678, -0.20452595, 0.0280503, 104149.78, 248453.56, 0.000035475467, 10.002988, 9.997308 
1.0151391e+3, 2.9527006e+2, 302824.03, -186257.53, 19392.2, -0.18054315, -0.14214756, 303591.75, 349933.28, 0.00015859005, 10.003706, 9.997254 
1.015151e+3, 3.0526564e+2, 309414.4, -252628.47, -17770.729, -0.07627417, -0.25977895, 309975.72, 309975.72, 0.00042792913, 10.003827, 9.996414 
1.015162e+3, 3.1526402e+2, 293857.78, -114374.5, 57.853077, -0.05051538, -0.09276169, 293857.78, 293857.78, 0.0008407522, 10.003055, 9.997728 
1.024961e+3, 1.2526856e+2, -2126379.3, -1802003.5, -40562.586, -0.11630129, -0.09846079, -1797008.1, -84640.81, 0.00022439056, 9.996637, 10.001016 
1.02496915e+3, 1.3527137e+2, -1856328.6, -1602433.0, 7981.38, 0.005984017, 0.04582867, -1602182.3, 12160.239, 0.0000828242, 9.997781, 10.001161 
1.0249793e+3, 1.4527327e+2, -1662254.9, -1447914.5, 144290.77, 0.1852482, 0.119475245, -1375348.0, 140977.63, 0.000012107546, 9.998382, 10.00125 
1.0249878e+3, 1.5527514e+2, -1531689.1, -1337788.6, 103299.484, 0.033902414, 0.1545709, -1293069.8, 125238.24, 0.00000009714164, 9.998624, 10.001216 
1.0249979e+3, 1.6527581e+2, -1459242.4, -1347777.8, 117708.05, -0.020066582, 0.14996514, -1273274.6, 47025.746, 0.0, 9.998866, 10.0003605 
1.02500975e+3, 1.7527536e+2, -1307652.3, -1220364.8, 75531.57, 0.04497747, 0.048498623, -1176774.4, 45527.89, 0.0, 9.999223, 10.000388 
1.0250208e+3, 1.8527484e+2, -1196075.6, -1143283.9, 37822.03, 0.08510902, -0.027311848, -1123557.6, 746.41614, 0.0, 9.99942, 10.00015 
1.025031e+3, 1.95274e+2, -1094046.1, -1045867.8, 28092.611, 0.0849121, -0.14457259, -1032950.44, -6642.2773, 0.0, 9.999461, 10.000126 
1.0250411e+3, 2.0527373e+2, -1018766.9, -1047535.9, 64026.223, 0.021988034, -0.14098993, -967529.2, -39218.883, 0.0, 9.999702, 9.999325 
1.0250512e+3, 2.1527374e+2, -859778.1, -925036.6, 46313.863, -0.08782105, -0.08732037, -835753.7, -5441.239, 0.0, 10.00014, 9.999284 
1.02506176e+3, 2.252733e+2, -765786.2, -896352.8, 22920.637, -0.095227204, -0.024470141, -761879.44, -29561.39, 0.0, 10.000398, 9.998682 
1.025073e+3, 2.3527227e+2, -669228.6, -800554.3, 10701.494, -0.013849859, -0.011814045, -668362.3, -34033.906, 0.0, 10.0004, 9.998665 
1.0250843e+3, 2.4527065e+2, -452120.03, -654632.3, 58292.746, 0.019283595, -0.03205889, -436539.3, 99803.21, 0.0, 10.001261, 9.998571 
1.0250957e+3, 2.5526828e+2, -127365.31, -453303.38, 40140.453, 0.0016943236, -0.14695491, -122494.65, 315867.7, 0.0, 10.002842, 9.998523 
1.0251069e+3, 2.6526633e+2, -91743.125, -510442.94, 49926.508, -0.0749281, -0.13256887, -85872.125, 254507.7, 0.00000001218603, 10.002937, 9.997421 
1.0251178e+3, 2.752646e+2, -179995.86, -497053.94, 13236.652, -0.1934626, -0.06890047, -179444.2, 62952.695, 0.0000027111198, 10.001641, 9.997458 
1.0251298e+3, 2.8526205e+2, -117596.336, -440750.38, 3681.37, -0.20370393, -0.05507802, -117554.41, 26866.713, 0.00003356273, 10.001514, 9.997231 
1.0251426e+3, 2.952585e+2, 109048.78, -287080.9, -11090.737, -0.1173559, -0.15583585, 109359.055, 155813.52, 0.00015687123, 10.002413, 9.997182 
1.0251549e+3, 3.052544e+2, 221639.27, -220882.73, -32948.63, -0.011109284, -0.270403, 224079.05, 224079.05, 0.00042992222, 10.002917, 9.997065 
1.0251656e+3, 3.1525305e+2, 297140.72, -73137.9, 2634.4905, 0.030972557, -0.13936274, 297159.44, 297159.44, 0.0008482756, 10.002896, 9.998092 
1.0349595e+3, 1.2526235e+2, -2021154.3, -1595535.4, -48784.15, 0.0056265607, 0.051873438, -1590015.4, 122414.15, 0.00027553758, 9.99669, 10.002407 
1.034966e+3, 1.3526371e+2, -1771575.8, -1426804.4, 55759.31, -0.092441335, -0.075806834, -1418010.8, 196398.03, 0.000106410545, 9.997786, 10.002366 
1.0349761e+3, 1.452642e+2, -1724401.8, -1586981.0, 140501.06, 0.005158711, -0.15000695, -1499289.1, 17112.635, 0.000017580353, 9.99842, 10.000279 
1.0349856e+3, 1.5526496e+2, -1592411.3, -1471995.4, 119669.23, -0.07999549, -0.13093127, -1398241.8, 20154.438, 0.00000023822265, 9.998652, 10.000285 
1.0349966e+3, 1.6526507e+2, -1516322.4, -1463001.9, 118362.37, -0.066293344, -0.105975196, -1368334.4, -47938.01, 0.0, 9.998859, 9.999569 
1.0350094e+3, 1.7526445e+2, -1367208.4, -1337789.3, 97082.91, 0.06654132, -0.14521806, -1254307.9, -31903.785, 0.0, 9.999201, 9.999592 
1.0350201e+3, 1.8526483e+2, -1205431.0, -1155832.0, 29306.9, 0.06326837, -0.08720887, -1142240.0, -17838.984, 0.0, 9.99939, 10.00008 
1.03502914e+3, 1.9526592e+2, -1105748.0, -1059929.3, 36102.695, -0.068686955, -0.0075996635, -1040080.6, -13690.34, 0.0, 9.999412, 10.000055 
1.03503995e+3, 2.0526612e+2, -1043618.56, -1075234.3, 69995.586, -0.09098619, 0.054402187, -987668.0, -59278.875, 0.0, 9.999599, 9.999184 
1.03505224e+3, 2.1526524e+2, -881332.3, -949236.06, 72741.52, -0.007197872, 0.031398542, -835009.25, -4610.249, 0.0, 10.000046, 9.999163 
1.0350635e+3, 2.2526377e+2, -795811.9, -927056.75, 13726.522, 0.020866172, 0.005409482, -794391.7, -61978.23, 0.0, 10.000265, 9.998534 
1.0350736e+3, 2.3526168e+2, -691426.0, -825389.06, 21605.127, -0.009073548, -0.07787691, -688027.8, -53594.695, 0.0, 10.000309, 9.998537 
1.0350855e+3, 2.4526031e+2, -487994.44, -702161.6, 110469.02, -0.014934305, -0.051476367, -441226.47, 95217.35, 0.0, 10.001146, 9.998301 
1.0350987e+3, 2.5525945e+2, -160380.11, -498230.88, 107956.17, 0.0026577893, 0.010803105, -128830.26, 309618.03, 0.0, 10.00274, 9.998263 
1.03511035e+3, 2.6525632e+2, -155141.27, -619703.4, -8779.923, -0.036365993, -0.046266638, -154975.39, 185501.27, 0.00000000560088, 10.002848, 9.996711 
1.03512034e+3, 2.752508e+2, -245548.19, -607871.25, -22158.014, -0.12689184, -0.2891312, -244198.14, -1668.4805, 0.0000022721786, 10.001546, 9.996738 
1.0351322e+3, 2.85248e+2, -126449.734, -451117.06, 29984.361, -0.13420326, -0.26097843, -123703.78, 20854.162, 0.000031159278, 10.001475, 9.99718 
1.03514574e+3, 2.952477e+2, 98372.31, -290926.84, 38788.82, -0.076224476, -0.034459766, 102199.516, 148763.05, 0.00015252481, 10.002337, 9.99719 
1.0351581e+3, 3.0524483e+2, 304430.4, -41590.91, -39207.008, -0.010125079, -0.089616545, 308817.28, 308817.28, 0.00042681763, 10.002887, 9.998308 
1.0351683e+3, 3.1524304e+2, 347447.44, 77957.945, 28305.486, -0.035539765, -0.1294961, 350388.38, 350388.38, 0.00084848254, 10.002726, 9.999197 
1.04495704e+3, 1.2525454e+2, -2010996.8, -1600191.8, -48743.93, 0.099365614, 0.068202384, -1594487.3, 118017.44, 0.0003338259, 9.996795, 10.002323 
1.0449632e+3, 1.3525535e+2, -1912722.6, -1517747.0, -58455.227, -0.09732418, -0.098854214, -1509277.4, 105211.02, 0.00013404706, 9.996905, 10.002164 
1.0449739e+3, 1.4525515e+2, -1879390.9, -1726251.5, 27648.557, -0.009790085, -0.202864, -1721412.5, -204924.22, 0.000024406929, 9.997644, 9.999697 
1.04498476e+3, 1.5525529e+2, -1560007.0, -1514491.3, 7808.866, -0.038579047, -0.18419339, -1513188.8, -94698.78, 0.0000004785213, 9.999144, 9.999752 
1.044996e+3, 1.6525538e+2, -1446004.5, -1418296.1, 29767.23, -0.022812737, -0.14170131, -1399317.0, -78826.15, 0.0, 9.999293, 9.999666 
1.0450078e+3, 1.752552e+2, -1499109.8, -1391533.0, 60023.484, 0.049853187, -0.14935048, -1364723.6, -142229.95, 0.0, 9.998251, 9.999679 
1.04501896e+3, 1.8525563e+2, -1361673.0, -1254232.1, 74375.28, 0.053042118, -0.07739565, -1216205.3, -91714.87, 0.0, 9.9984255, 9.999869 
1.0450293e+3, 1.9525655e+2, -1074414.3, -1065711.6, 49953.2, -0.007807818, 0.008500454, -1019920.6, 6562.5767, 0.0, 9.99973, 9.99986 
1.0450404e+3, 2.0525666e+2, -964733.1, -1042036.44, 75855.08, -0.015890215, 0.072779134, -918249.94, 10233.045, 0.0, 10.000147, 9.999154 
1.0450525e+3, 2.1525577e+2, -938280.06, -979734.3, 69603.54, 0.0296541, 0.05052913, -886383.0, -55891.414, 0.0, 9.999668, 9.999137 
1.0450642e+3, 2.25254e+2, -792429.3, -958817.06, 59236.945, 0.05822198, 0.009316069, -773494.7, -40986.246, 0.0, 10.000424, 9.998243 
1.0450756e+3, 2.3525123e+2, -425522.34, -735444.4, 33910.754, 0.06390925, -0.10693884, -421855.3, 212679.2, 0.0, 10.002284, 9.998211 
1.0450878e+3, 2.4524954e+2, -347389.03, -689072.2, 91837.68, 0.05076915, -0.074789226, -324269.25, 212279.86, 0.0, 10.00233, 9.997831 
1.0451007e+3, 2.552486e+2, -484239.22, -705316.4, 56225.94, 0.02454632, 0.026971322, -470761.13, -32206.06, 0.0, 10.000725, 9.997817 
1.0451127e+3, 2.6524526e+2, -402422.72, -731554.1, -6011.091, -0.003444832, -0.030065864, -402312.97, -61727.695, 0.0000000009945924, 10.001125, 9.996775 
1.0451236e+3, 2.752394e+2, 12146.932, -482072.3, 15668.501, -0.03150892, -0.31297898, 12643.181, 255284.42, 0.0000020282196, 10.003291, 9.996772 
1.0451354e+3, 2.852366e+2, 212572.25, -290852.47, 98032.18, -0.074400626, -0.2840438, 230988.4, 375657.22, 0.00002862002, 10.003804, 9.997168 
1.0451477e+3, 2.9523665e+2, 161054.3, -262269.7, 85468.94, -0.1287879, -0.023902243, 177659.13, 224329.72, 0.00014590684, 10.002762, 9.9971895 
1.0451605e+3, 3.0523348e+2, 352128.4, -65707.24, 6863.382, -0.06970781, -0.08609643, 352241.1, 352241.1, 0.0004168189, 10.003423, 9.997877 
1.04517296e+3, 3.1523052e+2, 709687.3, 180644.67, -85175.02, 0.031637665, -0.19623663, 723062.25, 723062.25, 0.0008363063, 10.005488, 9.998589 
1.05495304e+3, 1.2524523e+2, -2112987.5, -1815956.0, -103094.71, -0.032138545, -0.05908959, -1783680.5, -71088.17, 0.00039971265, 9.996824, 10.000821 
1.0549604e+3, 1.3524641e+2, -2024774.1, -1751082.5, -46869.39, -0.10126116, -0.023000643, -1743278.8, -128698.375, 0.00016604259, 9.996913, 10.000558 
1.0549724e+3, 1.452463e+2, -1889426.9, -1757135.4, 70492.62, 0.047133915, -0.028556306, -1726614.4, -210030.58, 0.000032768716, 9.997683, 9.999469 
1.0549854e+3, 1.5524626e+2, -1573768.6, -1548988.8, 70283.78, 0.08212184, -0.0040508504, -1490011.3, -71422.6, 0.0000008393984, 9.999161, 9.999512 
1.05499595e+3, 1.6524678e+2, -1377010.6, -1270911.4, -19486.24, 0.024041723, 0.04144405, -1267445.8, 53137.418, 0.0, 9.99928, 10.00068 
1.055005e+3, 1.7524758e+2, -1429116.4, -1248961.3, 29410.648, -0.08534189, 0.030206216, -1244281.5, -21710.682, 0.0, 9.998262, 10.00065 
1.05501674e+3, 1.8524732e+2, -1393176.1, -1312895.0, 112548.93, -0.027018173, 0.0044671823, -1233542.8, -108970.97, 0.0, 9.998398, 9.999478 
1.055031e+3, 1.9524592e+2, -1107978.4, -1124422.5, 106120.83, 0.17774825, -0.10352078, -1009761.56, 16825.271, 0.0, 9.999681, 9.99948 
1.0550426e+3, 2.052454e+2, -973531.0, -1039234.4, 46890.293, 0.16446383, -0.08647391, -949129.5, -20537.924, 0.0, 10.000054, 9.999218 
1.0550515e+3, 2.1524543e+2, -947564.6, -980674.5, 60934.113, -0.045852955, -0.025115548, -900976.6, -70387.42, 0.0, 9.999583, 9.999173 
1.0550636e+3, 2.25244e+2, -845829.6, -1042682.8, 120264.38, -0.05628156, -0.0066018114, -788849.3, -56246.82, 0.0, 10.000307, 9.997722 
1.0550785e+3, 2.3524103e+2, -475800.34, -815212.9, 109477.73, 0.119288646, -0.09733631, -443552.2, 191080.03, 0.0, 10.002175, 9.997712 
1.05509095e+3, 2.4523842e+2, -409783.47, -795880.56, 20371.18, 0.12668715, -0.096910976, -408711.63, 127945.83, 0.0, 10.002231, 9.997146 
1.0551012e+3, 2.552359e+2, -538675.7, -804485.3, 6082.6377, -0.016442517, -0.085560925, -538536.56, -99855.76, 0.0, 10.000664, 9.997164 
1.0551134e+3, 2.6523328e+2, -360769.88, -627753.8, 67760.44, -0.05077342, -0.080250315, -344556.88, -3851.6694, 0.000000000012280949, 10.001055, 9.997517 
1.0551275e+3, 2.7523035e+2, 47598.395, -382168.97, 107934.94, 0.0075731548, -0.14580308, 73182.9, 315914.88, 0.0000016155456, 10.003183, 9.997507 
1.055139e+3, 2.8522784e+2, 201947.31, -298103.63, 47538.46, -0.103302255, -0.12273502, 206426.53, 351180.53, 0.000025303238, 10.003736, 9.997154 
1.0551483e+3, 2.9522547e+2, 145682.34, -278859.53, 60401.043, -0.3627836, -0.10160829, 154108.58, 200882.88, 0.000137169, 10.002698, 9.997108 
1.05516195e+3, 3.052205e+2, 202634.47, -362602.1, 80595.5, -0.2802826, -0.23640206, 213901.77, 213901.77, 0.0004008363, 10.0033655, 9.995865 
1.0551791e+3, 3.1521595e+2, 526027.56, -142350.86, 20678.191, 0.045204435, -0.30855656, 526666.7, 526666.7, 0.00081260194, 10.005253, 9.996478 
1.0649492e+3, 1.2523559e+2, -2365244.8, -1941557.8, -165634.05, 0.005847279, -0.058041923, -1884491.8, -171803.83, 0.00047318285, 9.995112, 10.000791 
1.06495865e+3, 1.3523674e+2, -1825610.4, -1662244.3, 744.4993, -0.02816861, -0.013615592, -1662240.9, -47564.156, 0.00020250746, 9.998321, 10.000487 
1.06497094e+3, 1.4523695e+2, -1685768.0, -1641948.3, 151243.53, 0.06938844, 0.009727251, -1511035.9, 5640.99, 0.000042863663, 9.999009, 9.999619 
1.0649836e+3, 1.5523726e+2, -1801536.0, -1640286.5, 156000.98, 0.08458411, 0.051570952, -1545307.5, -126629.81, 0.0000013547858, 9.997524, 9.999668 
1.0649945e+3, 1.6523758e+2, -1614345.1, -1402433.9, 71919.625, 0.026797375, 0.07625857, -1380330.9, -59657.066, 0.0, 9.997711, 10.000545 
1.065004e+3, 1.7523779e+2, -1267387.1, -1183920.3, 15646.485, -0.054692067, 0.022965739, -1181083.5, 41583.164, 0.0, 9.999426, 10.000543 
1.0650164e+3, 1.852373e+2, -1169991.0, -1246376.5, 83204.414, 0.0095233135, -0.0030456935, -1116632.4, 8037.901, 0.0, 10.000093, 9.999122 
1.0650309e+3, 1.9523595e+2, -1115196.0, -1170054.8, 61790.617, 0.19203408, -0.0711424, -1075020.3, -48334.49, 0.0, 9.999798, 9.999116 
1.065043e+3, 2.052349e+2, -946797.9, -1045941.4, 7132.976, 0.19023554, -0.08032647, -946287.3, -17592.076, 0.0, 10.000334, 9.999029 
1.0650528e+3, 2.1523397e+2, -660561.06, -862218.0, -18902.77, 0.024768466, -0.09480896, -658804.44, 171896.27, 0.0, 10.001653, 9.998982 
1.06506534e+3, 2.2523248e+2, -589275.44, -955636.25, 73176.0, -0.0075364327, -0.055611208, -575200.2, 157514.6, 0.0, 10.002214, 9.997408 
1.0650802e+3, 2.3523031e+2, -519937.7, -869056.56, 58927.176, 0.08465676, -0.034520727, -510259.75, 124478.945, 0.0, 10.002012, 9.997423 
1.065093e+3, 2.4522755e+2, -394653.6, -805631.6, -28732.691, 0.101208545, -0.02754468, -392654.53, 144111.75, 0.0, 10.002414, 9.996989 
1.0651038e+3, 2.5522396e+2, -154747.7, -639914.1, -25942.44, 0.043257467, -0.10370394, -153364.47, 285435.44, 0.0, 10.003387, 9.996987 
1.0651161e+3, 2.6522136e+2, -68877.68, -483741.63, 64032.277, 0.01200119, -0.088273495, -59219.45, 281605.06, 0.0, 10.003035, 9.997555 
1.0651298e+3, 2.7521947e+2, -213847.72, -501897.2, 28422.164, 0.007904049, -0.051968332, -211070.06, 31771.908, 0.00000091217555, 10.001359, 9.997561 
1.06514186e+3, 2.8521696e+2, -63340.547, -461720.84, -19495.3, -0.11378378, -0.018695964, -62388.79, 82475.91, 0.000020741376, 10.00208, 9.9968195 
1.06515236e+3, 2.9521346e+2, 463514.44, -162738.92, -52985.844, -0.33665842, -0.07254264, 467965.8, 514861.5, 0.00012515363, 10.005038, 9.996778 
1.0651663e+3, 3.052084e+2, 440966.03, -261480.39, -2027.1198, -0.2745675, -0.19955355, 440971.88, 440971.88, 0.00037813088, 10.005051, 9.995749 
1.06518246e+3, 3.152043e+2, 73024.56, -373076.56, 32018.615, 0.019025896, -0.21596758, 75310.96, 75310.96, 0.0007771597, 10.002179, 9.996369 
1.074945e+3, 1.2522541e+2, -2260069.0, -1720603.8, -91223.47, 0.033978477, 0.048747078, -1705595.4, 7198.2544, 0.00055371417, 9.995121, 10.002291 
1.0749579e+3, 1.352264e+2, -1727493.3, -1452940.5, 120468.52, 0.03756038, -0.07080469, -1407576.6, 207200.63, 0.00024334127, 9.99831, 10.001922 
1.07496925e+3, 1.4522716e+2, -1641637.5, -1562503.5, 79805.664, -0.029431485, -0.08907993, -1512994.8, 3772.4849, 0.00005483326, 9.999047, 10.000152 
1.0749794e+3, 1.5522821e+2, -1761488.9, -1565839.8, 109661.8, -0.12143021, -0.02721078, -1516710.8, -97952.805, 0.000002073113, 9.997554, 10.000169 
1.0749912e+3, 1.6522785e+2, -1703152.1, -1586367.1, 125089.4, -0.09632567, -0.031591937, -1506712.4, -185950.36, 0.0000000000166348, 9.997714, 9.999279 
1.07500486e+3, 1.7522588e+2, -1352953.8, -1365278.8, 86648.17, 0.06870717, -0.17647247, -1272249.3, -49468.38, 0.0, 9.999437, 9.999293 
1.0750173e+3, 1.8522564e+2, -1199201.8, -1294679.3, 61409.926, 0.08554311, -0.102677196, -1169157.6, -44372.18, 0.0, 10.000048, 9.998809 
1.07502855e+3, 1.952267e+2, -1145906.8, -1218463.4, 59939.094, -0.039114397, 0.102165334, -1112122.1, -85342.914, 0.0, 9.999738, 9.99881 
1.0750415e+3, 2.0522524e+2, -995801.3, -1127925.5, 45403.348, -0.010773783, 0.09561443, -981703.2, -52910.297, 0.0, 10.000248, 9.998509 
1.0750559e+3, 2.1522132e+2, -711489.56, -940951.4, 38813.285, 0.15978353, -0.16977397, -705102.1, 125724.43, 0.0, 10.001533, 9.998502 
1.0750689e+3, 2.2521943e+2, -615626.56, -977025.8, 57664.875, 0.124456994, -0.14421436, -606648.56, 126196.8, 0.0, 10.002074, 9.997329 
1.07508056e+3, 2.352192e+2, -543753.5, -889033.2, 63223.254, -0.10153812, 0.07965189, -532541.0, 102311.55, 0.0, 10.001887, 9.997348 
1.0750936e+3, 2.4521697e+2, -395343.63, -778078.1, 2459.0293, -0.09536447, 0.13175191, -395327.8, 141546.97, 0.0, 10.002293, 9.997234 
1.0751081e+3, 2.552127e+2, -148795.2, -608639.4, 21119.604, 0.12239636, -0.041214455, -147827.27, 291085.66, 0.0, 10.0033045, 9.99724 
1.0751203e+3, 2.6520947e+2, -129555.914, -588009.6, -8441.375, 0.11184896, -0.06449742, -129400.54, 211543.06, 0.000000000031670343, 10.002944, 9.996884 
1.0751301e+3, 2.7520698e+2, -269260.88, -604886.25, -18523.748, -0.11037255, -0.024740165, -268241.63, -25271.936, 0.00000057346807, 10.001307, 9.996883 
1.0751433e+3, 2.8520414e+2, -113557.03, -557666.5, 84244.97, -0.19419509, 0.04506886, -98113.305, 46885.582, 0.000016659129, 10.002041, 9.996181 
1.07515946e+3, 2.9520082e+2, 405985.3, -253338.53, 73447.26, -0.15734336, 0.069831, 414068.1, 461100.4, 0.000111912384, 10.004913, 9.996215 
1.0751727e+3, 3.0519712e+2, 540109.3, -35235.46, -110328.06, -0.15393513, 0.022628555, 560540.3, 560540.3, 0.0003521945, 10.004965, 9.997347 
1.0751827e+3, 3.1519526e+2, 166110.55, -157799.55, -46065.793, -0.21971977, 0.07454484, 172534.53, 172534.53, 0.0007370206, 10.002087, 9.997895 
1.0849414e+3, 1.2521377e+2, -1877968.4, -1520722.3, -36608.957, 0.031102113, 0.03684295, -1517009.3, 195900.66, 0.00064071716, 9.997655, 10.002452 
1.0849563e+3, 1.3521552e+2, -1905994.4, -1519269.1, 46789.867, 0.12708561, -0.026101332, -1513688.5, 101198.234, 0.00028839763, 9.996979, 10.002119 
1.08496726e+3, 1.452167e+2, -1896875.4, -1632430.1, -71693.07, -0.02266653, -0.033411603, -1614244.3, -97372.64, 0.00006873226, 9.997098, 10.000596 
1.0849774e+3, 1.5521747e+2, -1639382.8, -1461381.6, -77795.26, -0.10215449, -0.0424677, -1432173.9, -13311.009, 0.0000030594845, 9.998206, 10.000566 
1.08498976e+3, 1.6521682e+2, -1540324.6, -1555964.0, 33401.113, -0.06570585, -0.072841875, -1513840.0, -192970.53, 0.000000000186287, 9.999041, 9.998842 
1.08500466e+3, 1.7521468e+2, -1352972.0, -1413739.5, 36094.535, 0.09325315, -0.19235462, -1336175.4, -113283.305, 0.0, 9.999655, 9.99885 
1.0850175e+3, 1.8521436e+2, -1172131.6, -1290502.1, 30909.229, 0.09331433, -0.09798006, -1164546.5, -39648.848, 0.0, 10.000268, 9.998736 
1.0850287e+3, 1.9521555e+2, -994683.9, -1153897.6, 27481.326, -0.051374856, 0.12801099, -990073.9, 36815.516, 0.0, 10.000819, 9.998732 
1.085042e+3, 2.0521401e+2, -897537.0, -1140427.6, 62455.68, -0.024802223, 0.1437743, -882418.5, 46486.25, 0.0, 10.001174, 9.997977 
1.08505726e+3, 2.1520971e+2, -775955.1, -1032671.7, 30658.662, 0.1552122, -0.1059464, -772344.44, 58600.01, 0.0, 10.001343, 9.997965 
1.0850707e+3, 2.2520752e+2, -695540.8, -980343.1, 49741.55, 0.13291453, -0.09857473, -687103.25, 45862.68, 0.0, 10.001394, 9.997626 
1.0850824e+3, 2.3520708e+2, -595022.8, -879726.4, 60203.418, -0.07334775, 0.07687787, -582815.56, 52157.0, 0.0, 10.001407, 9.997637 
1.0850959e+3, 2.4520493e+2, -456685.94, -784029.75, 61394.51, -0.06115768, 0.11071814, -445550.0, 91442.76, 0.0, 10.001757, 9.997462 
1.0851112e+3, 2.55201e+2, -280000.47, -648980.25, 60723.89, 0.15393046, -0.04623158, -270263.9, 168763.16, 0.0, 10.002302, 9.997454 
1.0851236e+3, 2.651978e+2, -125512.63, -619614.25, 25336.809, 0.14588584, -0.060743716, -124216.8, 216840.86, 0.000000020287489, 10.003118, 9.996576 
1.0851332e+3, 2.7519503e+2, 127377.25, -447744.3, 17746.824, -0.06879083, -0.02043939, 127924.35, 371011.75, 0.0000009638229, 10.004178, 9.996574 
1.08514674e+3, 2.8519204e+2, 176463.4, -379500.34, 223682.67, -0.1416148, 0.033116244, 255283.81, 400401.63, 0.00001551447, 10.003869, 9.996522 
1.0851637e+3, 2.9518875e+2, 35646.113, -392011.47, 254383.39, -0.07922806, 0.024065638, 154132.92, 201283.17, 0.000103287646, 10.002198, 9.99657 
1.0851768e+3, 3.0518565e+2, 235176.5, -135768.75, 54462.984, -0.12153915, 0.0003845887, 243007.55, 243007.55, 0.00033301808, 10.002686, 9.997754 
1.0851858e+3, 3.1518507e+2, 617560.3, 97331.11, -10891.038, -0.260627, 0.14118552, 617788.25, 617788.25, 0.0007093365, 10.005047, 9.998222 
1.094938e+3, 1.252006e+2, -1954033.4, -1688598.6, -68947.62, -0.12294477, -0.11851436, -1671757.8, 41279.863, 0.000734217, 9.997694, 10.001282 
1.0949537e+3, 1.3520439e+2, -1974540.0, -1667282.1, 25420.063, 0.14999983, 0.12529427, -1665193.3, -50190.79, 0.00033773432, 9.996999, 10.001096 
1.09496474e+3, 1.4520581e+2, -1880876.9, -1599241.3, -41705.984, -0.006207451, 0.18065335, -1593195.0, -76207.086, 0.0000845864, 9.997101, 10.00082 
1.0949774e+3, 1.5520504e+2, -1625349.6, -1428276.0, -25961.713, 0.06313686, -0.0022338638, -1424913.4, -5920.864, 0.0000043925156, 9.998198, 10.0007925 
1.09499015e+3, 1.6520457e+2, -1509637.6, -1500578.4, 44390.02, 0.039872237, -0.044897623, -1460487.5, -139491.69, 0.0000000006358386, 9.999069, 9.999212 
1.09500304e+3, 1.7520408e+2, -1320286.3, -1358454.1, 69012.0, -0.05648581, -0.03675323, -1267768.1, -44767.57, 0.0, 9.999696, 9.999214 
1.0950166e+3, 1.852035e+2, -1164927.8, -1269354.5, 40917.414, -0.046811324, 0.0054526804, -1150805.1, -25798.717, 0.0, 10.000249, 9.998885 
1.0950309e+3, 1.9520259e+2, -995406.7, -1137790.6, 58331.242, 0.074462295, 0.0050752293, -974561.56, 52453.824, 0.0, 10.000746, 9.998875 
1.0950443e+3, 2.0520118e+2, -950794.44, -1233290.9, 57311.18, 0.06924499, 0.056292146, -939610.3, -10579.354, 0.0, 10.001094, 9.997382 
1.0950566e+3, 2.1519916e+2, -830426.0, -1122265.6, 44210.344, -0.058077987, 0.09531666, -823875.6, 7178.3765, 0.0, 10.001239, 9.997403 
1.0950703e+3, 2.251968e+2, -675331.3, -909059.44, 40087.055, -0.055822432, 0.08532984, -668647.1, 64428.91, 0.0, 10.00127, 9.998172 
1.09508544e+3, 2.3519386e+2, -573730.25, -808431.6, 70336.51, 0.072410755, -0.04641051, -554265.7, 80833.95, 0.0, 10.00129, 9.9981785 
1.0950995e+3, 2.4519132e+2, -455254.16, -755738.25, 72081.19, 0.11137716, -0.090849236, -438857.78, 98263.35, 0.0, 10.001648, 9.997709 
1.0951128e+3, 2.5518894e+2, -273495.75, -618012.5, 91679.75, 0.06528446, -0.12046726, -250617.94, 188524.17, 0.0, 10.002223, 9.997706 
1.0951258e+3, 2.651865e+2, -141800.83, -629406.06, 57703.113, 0.042562693, -0.07325083, -135065.3, 206100.63, 0.00000010014453, 10.0030155, 9.996558 
1.09513864e+3, 2.7518368e+2, 119962.44, -449491.88, 70396.6, 0.03672083, -0.03411885, 128535.87, 371730.88, 0.0000018004142, 10.004116, 9.996593 
1.09515175e+3, 2.8518054e+2, 254446.38, -206941.42, 148473.86, -0.044459827, -0.058641206, 298095.63, 443319.22, 0.000016749305, 10.003822, 9.99773 
1.095165e+3, 2.95177e+2, 109160.836, -227243.44, 203630.45, -0.18793061, -0.21512614, 205074.81, 252327.69, 0.00010005187, 10.002144, 9.997729 
1.0951782e+3, 3.0517396e+2, 170944.78, -252743.02, 133599.55, -0.26342, -0.24809845, 209553.83, 209553.83, 0.00032272984, 10.002613, 9.996985 
1.09519094e+3, 3.1517372e+2, 539648.2, -36744.504, 97540.15, -0.30005655, 0.0042902417, 555707.0, 555707.0, 0.00069606194, 10.00492, 9.997367 
1.1049357e+3, 1.251892e+2, -1986515.3, -1733594.5, -83306.07, -0.106560856, -0.031161832, -1708621.3, 4531.4897, 0.00083503575, 9.997616, 10.000995 
1.1049507e+3, 1.3519235e+2, -2063433.0, -1727887.4, -256.26187, 0.17955571, 0.16208075, -1727887.1, -112762.73, 0.0003918232, 9.996462, 10.0009365 
1.1049614e+3, 1.4519343e+2, -1933137.1, -1638821.9, 65457.47, -0.025477616, 0.19479206, -1624920.4, -107806.984, 0.000102570426, 9.996786, 10.0007105 
1.10497646e+3, 1.5519264e+2, -1566615.3, -1411280.9, 37812.195, 0.13083707, 0.02177172, -1402565.4, 16552.293, 0.0000061708192, 9.998637, 10.000702 
1.1049901e+3, 1.6519244e+2, -1426725.3, -1452103.0, 69126.05, 0.10875893, 0.0067964713, -1369133.1, -48014.816, 0.0000000015512864, 9.999613, 9.999277 
1.1050027e+3, 1.7519255e+2, -1287821.1, -1332589.4, 46225.758, -0.06272201, 0.06757415, -1258845.0, -35727.508, 0.0, 9.999889, 9.99929 
1.1050166e+3, 1.8519163e+2, -1178568.3, -1299454.3, 12043.908, -0.06236273, 0.08418944, -1177380.0, -52254.137, 0.0, 10.000261, 9.998673 
1.10503174e+3, 1.9518954e+2, -1015312.44, -1168620.5, -17436.22, 0.09687692, -0.016088923, -1013354.4, 13790.653, 0.0, 10.000709, 9.998678 
1.10504575e+3, 2.05188e+2, -934147.0, -1214357.9, 11899.939, 0.11560414, 0.03016397, -933642.5, -4480.956, 0.0, 10.001167, 9.997477 
1.1050586e+3, 2.151869e+2, -759527.56, -1076180.9, 28706.486, 0.0035400514, 0.15208475, -756946.2, 74230.89, 0.0, 10.001682, 9.997503 
1.10507265e+3, 2.2518465e+2, -532808.75, -847571.5, 42620.137, -0.0023363247, 0.15027656, -527139.94, 206057.97, 0.0, 10.002272, 9.998115 
1.1050876e+3, 2.3518108e+2, -346230.72, -708678.6, 10086.147, 0.094092995, -0.036869545, -345950.25, 289275.97, 0.0, 10.002886, 9.998102 
1.1051018e+3, 2.4517834e+2, -268194.25, -670295.25, -10503.361, 0.11255255, -0.09203418, -267920.06, 269329.56, 0.0, 10.002969, 9.997647 
1.105115e+3, 2.5517622e+2, -223703.94, -597579.0, -40455.375, 0.056052726, -0.09007189, -219376.53, 219893.53, 0.0, 10.002601, 9.997651 
1.1051287e+3, 2.6517397e+2, -97350.984, -546302.56, -8064.316, 0.035688236, -0.046571057, -97206.17, 244084.89, 0.00000018749917, 10.003047, 9.99712 
1.105143e+3, 2.7517146e+2, 161701.13, -368314.7, 24108.416, 0.05243661, -0.03607703, 162795.47, 406110.1, 0.0000025324416, 10.004144, 9.997142 
1.1051561e+3, 2.851685e+2, 293774.25, -214580.69, 2420.3079, -0.0044164667, -0.05595457, 293785.78, 439126.97, 0.000018771152, 10.004217, 9.997486 
1.10516846e+3, 2.9516503e+2, 255213.25, -184343.83, -70656.22, -0.11536566, -0.17667294, 266291.63, 313663.72, 0.00010057408, 10.003278, 9.997475 
1.1051815e+3, 3.0516154e+2, 266629.88, -207528.3, -34899.707, -0.20666881, -0.24070771, 269184.88, 269184.88, 0.0003198817, 10.003256, 9.996989 
1.1051956e+3, 3.1516045e+2, 389722.84, -91804.21, -58402.414, -0.25713888, -0.0778689, 396704.97, 396704.97, 0.00069231197, 10.003831, 9.997497 
1.11493446e+3, 1.251797e+2, -1948333.5, -1650878.6, -91921.375, -0.036890935, 0.28016484, -1624765.0, 88489.43, 0.000944546, 9.997616, 10.001561 
1.11494705e+3, 1.3517956e+2, -2021482.0, -1639149.5, -34072.41, 0.1496768, 0.091961175, -1636136.9, -20885.914, 0.00045159098, 9.996459, 10.001549 
1.1149572e+3, 1.4517964e+2, -1954221.5, -1689355.6, 120808.14, -0.16660492, 0.0119003765, -1642531.5, -125284.56, 0.00012308804, 9.996812, 10.000354 
1.1149741e+3, 1.5518045e+2, -1587875.4, -1462422.9, 115209.836, 0.0120207025, 0.03236012, -1393970.3, 25266.383, 0.000008505592, 9.998663, 10.000342 
1.1149894e+3, 1.6518064e+2, -1445864.5, -1493215.3, 65711.695, 0.049196184, 0.0882688, -1399693.3, -78458.02, 0.0000000033697685, 9.999619, 9.998995 
1.11500345e+3, 1.751801e+2, -1307375.1, -1375460.5, 64665.793, -0.0017329791, 0.11838371, -1268338.6, -45095.94, 0.0, 9.999892, 9.999002 
1.1150173e+3, 1.8517876e+2, -1218051.6, -1379821.0, 17413.383, -0.03618485, 0.1334724, -1216198.4, -90942.03, 0.0, 10.000256, 9.998124 
1.1150311e+3, 1.9517645e+2, -1060375.6, -1251915.6, 6959.662, -0.06343875, 0.068736225, -1060123.1, -32845.574, 0.0, 10.000664, 9.998129 
1.1150463e+3, 2.0517458e+2, -891506.44, -1108715.9, 17757.584, 0.032643244, 0.069004014, -890064.25, 39231.67, 0.0, 10.001094, 9.998235 
1.115063e+3, 2.1517289e+2, -729324.56, -981777.25, 58546.285, 0.24953018, 0.05469263, -716407.94, 114906.2, 0.0, 10.001545, 9.998218 
1.1150771e+3, 2.2517097e+2, -598032.56, -950216.75, 56796.938, 0.20416343, 0.086321145, -589099.44, 144232.84, 0.0, 10.002134, 9.997474 
1.115089e+3, 2.3516878e+2, -407852.34, -807358.5, 42686.348, -0.07578603, 0.09938779, -403342.3, 232009.19, 0.0, 10.002763, 9.997483 
1.11510254e+3, 2.4516611e+2, -317418.78, -746562.06, -31763.602, -0.12763187, 0.104190245, -315080.47, 222296.78, 0.0, 10.002855, 9.997179 
1.1151175e+3, 2.5516278e+2, -266360.97, -669226.1, -40422.543, 0.035886258, 0.028675338, -262345.1, 177066.39, 0.0, 10.002525, 9.997195 
1.115132e+3, 2.6516026e+2, -29538.932, -388498.8, 24624.555, 0.039064143, 0.011003034, -27857.57, 313576.0, 0.00000020790911, 10.002974, 9.998239 
1.1151456e+3, 2.7515832e+2, 222579.77, -217413.31, 77899.7, -0.10822085, -0.03099736, 235964.55, 479410.84, 0.0000030041272, 10.004035, 9.998231 
1.1151594e+3, 2.8515598e+2, 161382.28, -462397.56, -39630.813, -0.10657058, 0.039349865, 163890.08, 309359.63, 0.000021469468, 10.004103, 9.995838 
1.1151735e+3, 2.95153e+2, 139203.48, -421164.22, -84498.016, 0.03466712, 0.13078266, 151667.73, 199173.03, 0.00010458993, 10.00326, 9.995857 
1.11518666e+3, 3.0514848e+2, 313874.44, -111667.98, -14908.407, -0.045581277, 0.01082102, 314396.13, 314396.13, 0.00032358602, 10.003263, 9.997644 
1.1151993e+3, 3.1514505e+2, 429751.75, 15532.606, -7859.0513, -0.3151677, -0.12841415, 429900.8, 429900.8, 0.00069607235, 10.00372, 9.998291 
1.124932e+3, 1.2516712e+2, -2132949.5, -1754636.3, -17678.598, 0.026275426, 0.3165607, -1753812.0, -40432.69, 0.0010643419, 9.996403, 10.001442 
1.1249448e+3, 1.3516663e+2, -1798205.8, -1548424.5, -111535.33, 0.2139787, 0.10650708, -1505870.3, 109508.62, 0.00051804923, 9.998072, 10.00139 
1.1249552e+3, 1.4516638e+2, -1708458.9, -1586201.9, 73360.77, -0.11908233, 0.009084115, -1551839.5, -34462.043, 0.00014661087, 9.9985695, 10.000209 
1.1249724e+3, 1.5516727e+2, -1673165.9, -1519950.0, 54986.375, 0.0065830974, 0.048542567, -1502259.1, -82892.67, 0.00001150662, 9.998153, 10.00019 
1.1249884e+3, 1.6516724e+2, -1590978.8, -1600275.0, 44982.832, 0.045438748, 0.109582625, -1550404.5, -229037.02, 0.0000000061074554, 9.998771, 9.998674 
1.1250038e+3, 1.7516626e+2, -1251211.0, -1377383.9, 24294.139, 0.029871395, 0.12232576, -1246694.9, -23313.941, 0.0, 10.000406, 9.998737 
1.1250182e+3, 1.8516484e+2, -1065189.9, -1291932.1, -1121.499, -0.012925319, 0.13603517, -1065184.4, 60211.14, 0.0, 10.001244, 9.998249 
1.1250317e+3, 1.9516274e+2, -945174.7, -1185419.6, 19437.98, -0.08932844, 0.081005216, -943612.1, 83801.44, 0.0, 10.001391, 9.998242 
1.1250472e+3, 2.0516099e+2, -847047.3, -1082531.3, 43429.344, 0.009038164, 0.086098954, -839293.2, 90137.34, 0.0, 10.001387, 9.998272 
1.1250646e+3, 2.151593e+2, -762810.56, -988628.75, 7046.2817, 0.2770511, 0.06833327, -762590.94, 68857.99, 0.0, 10.001285, 9.99829 
1.12507924e+3, 2.2515741e+2, -665702.06, -983252.8, 46425.434, 0.23350033, 0.09680598, -659053.94, 74413.375, 0.0, 10.001665, 9.997477 
1.1250913e+3, 2.3515522e+2, -433706.84, -817395.75, 60579.02, -0.09740298, 0.11015046, -424369.5, 211117.33, 0.0, 10.002568, 9.997506 
1.12510525e+3, 2.4515277e+2, -289425.78, -718682.06, 14007.792, -0.14404614, 0.12815839, -288969.16, 248541.77, 0.0, 10.002993, 9.997304 
1.12512074e+3, 2.5514987e+2, -192752.11, -621086.7, 31888.496, 0.0736296, 0.08837178, -190391.11, 249150.06, 0.0, 10.002981, 9.99731 
1.1251351e+3, 2.6514742e+2, -23267.096, -359913.16, 127513.85, 0.073213674, 0.060235854, 19579.059, 361141.6, 0.00000016860811, 10.00292, 9.998455 
1.1251487e+3, 2.7514514e+2, 63477.457, -269659.8, 87724.4, -0.13238089, -0.03842273, 85165.77, 328743.8, 0.0000038179373, 10.002848, 9.998434 
1.1251631e+3, 2.8514296e+2, 88371.37, -524600.75, 10112.347, -0.119469754, 0.04717649, 88538.15, 234138.81, 0.000026281929, 10.003705, 9.9956045 
1.1251783e+3, 2.9514062e+2, 425442.1, -305700.66, 42070.07, 0.104141414, 0.22650456, 427854.84, 475486.84, 0.00011359424, 10.005326, 9.995651 
1.1251917e+3, 3.0513617e+2, 601055.94, -1038.6321, 115655.43, 0.033608247, 0.13718969, 622507.75, 622507.75, 0.00033603996, 10.005379, 9.997385 
1.1252035e+3, 3.1513247e+2, 423585.3, -13905.499, 15664.319, -0.25921217, 0.0039570285, 424145.47, 424145.47, 0.00071148464, 10.003779, 9.998075 
1.13492794e+3, 1.2515152e+2, -2175056.3, -1843123.4, 84888.73, -0.06534635, 0.07317021, -1822673.8, -109146.96, 0.0011953667, 9.996426, 10.000815 
1.13494374e+3, 1.3515362e+2, -1849869.3, -1661741.5, -44685.434, 0.2681751, 0.20107017, -1651667.0, -36159.805, 0.00059164723, 9.9980955, 10.000602 
1.1349554e+3, 1.451538e+2, -1703751.0, -1578218.8, 44778.32, 0.017797433, 0.18364699, -1563883.1, -46379.438, 0.00017336896, 9.99858, 10.00026 
1.1349711e+3, 1.5515319e+2, -1667306.1, -1513510.1, 51644.207, 0.03558763, 0.07191171, -1497777.6, -78271.79, 0.000015247707, 9.998175, 10.000227 
1.134987e+3, 1.6515236e+2, -1609524.4, -1642650.3, 94873.11, 0.0006078196, 0.06610429, -1529779.3, -208265.05, 0.000000009421829, 9.998788, 9.998373 
1.1350036e+3, 1.7515112e+2, -1268483.5, -1420242.0, 92804.47, -0.056971792, 0.08240968, -1224486.4, -955.4534, 0.0, 10.000433, 9.99843 
1.1350191e+3, 1.8514991e+2, -1006036.4, -1171944.1, -8178.918, -0.07829039, 0.089668415, -1005634.1, 119908.8, 0.0, 10.001251, 9.99907 
1.1350336e+3, 1.9514847e+2, -900083.06, -1075064.4, 32632.27, -0.06836685, 0.018733753, -894195.56, 133357.16, 0.0, 10.001312, 9.999041 
1.13504834e+3, 2.0514731e+2, -911188.5, -1195758.5, 27967.438, -0.03891503, 0.08063109, -908465.9, 21098.826, 0.0, 10.001299, 9.997538 
1.1350635e+3, 2.1514623e+2, -829325.8, -1101159.1, 10365.06, 0.019947292, 0.19777474, -828931.1, 2649.4888, 0.0, 10.001171, 9.997576 
1.13507874e+3, 2.2514398e+2, -634602.4, -890979.0, 68246.8, 0.010169447, 0.19060367, -617567.2, 116035.375, 0.0, 10.001547, 9.998165 
1.1350945e+3, 2.3514043e+2, -409334.78, -732627.8, 104560.73, -0.058705643, -0.002960086, -378464.97, 257167.16, 0.0, 10.002419, 9.998159 
1.1351095e+3, 2.4513836e+2, -261172.34, -631028.8, 3163.6118, -0.03551666, -0.009409042, -261145.28, 276505.1, 0.0, 10.002866, 9.997967 
1.1351239e+3, 2.5513762e+2, -156072.38, -527450.25, 40515.08, 0.0865944, 0.095985144, -151703.81, 287955.2, 0.0, 10.002903, 9.997992 
1.13513805e+3, 2.6513553e+2, -78323.23, -463457.47, 117833.91, 0.0598299, 0.10421698, -45131.79, 296546.22, 0.00000020663475, 10.002869, 9.997772 
1.135152e+3, 2.751319e+2, 6934.5376, -376758.2, 100874.03, -0.11303377, -0.05867996, 31838.252, 275548.2, 0.0000055002247, 10.002799, 9.997727 
1.1351669e+3, 2.8512928e+2, 151210.88, -372478.9, 58825.105, -0.13731562, -0.031509742, 157737.25, 303472.84, 0.00003348711, 10.003623, 9.996682 
1.1351828e+3, 2.9512766e+2, 479588.28, -159876.83, 111897.0, -0.002565678, 0.10824336, 498603.2, 546358.6, 0.00012808957, 10.005183, 9.996719 
1.1351964e+3, 3.0512443e+2, 503278.56, -171708.53, 48956.535, -0.053527, 0.13850233, 506810.88, 506810.88, 0.00035914758, 10.005242, 9.996278 
1.13520764e+3, 3.1512251e+2, 336114.53, -174815.6, -18793.316, -0.27027902, 0.30027574, 336804.88, 336804.88, 0.0007447867, 10.003697, 9.997005 
1.1449243e+3, 1.2513608e+2, -2119525.3, -1820855.1, 125881.04, -0.07661316, -0.04798258, -1774877.8, -61203.21, 0.0013373722, 9.996799, 10.000808 
1.1449411e+3, 1.3513888e+2, -1880659.8, -1690474.5, -30058.82, 0.21275839, 0.16337317, -1685836.8, -70187.8, 0.000672049, 9.997923, 10.0005045 
1.1449547e+3, 1.4513941e+2, -1733255.6, -1632235.0, 40274.65, 0.103420466, 0.20091404, -1618143.9, -100499.61, 0.0002032588, 9.9985485, 9.999904 
1.1449702e+3, 1.5513846e+2, -1607718.3, -1523263.4, -9849.585, 0.103412025, 0.09450392, -1522129.9, -102477.44, 0.000019742625, 9.99876, 9.999873 
1.1449862e+3, 1.6513751e+2, -1557878.5, -1579137.5, 103541.24, 0.03352353, 0.07807308, -1464422.6, -142760.44, 0.000000013934886, 9.99898, 9.998715 
1.14500314e+3, 1.7513634e+2, -1421933.9, -1456347.8, 132273.06, -0.07212068, 0.06473228, -1305753.3, -82077.57, 0.0, 9.999218, 9.998768 
1.1450194e+3, 1.8513541e+2, -1255705.5, -1276870.4, 20933.182, -0.076140314, 0.077423476, -1242831.9, -117147.35, 0.0, 9.9994755, 9.999204 
1.1450348e+3, 1.9513452e+2, -1108557.3, -1151603.5, -11678.123, 0.003155961, 0.04704196, -1105593.1, -77902.45, 0.0, 9.999805, 9.999225 
1.1450497e+3, 2.0513351e+2, -969106.06, -1222789.3, 31966.297, 0.00006662495, 0.11297272, -965140.06, -35438.52, 0.0, 10.000891, 9.997553 
1.14506446e+3, 2.1513219e+2, -608486.9, -991294.9, 54300.582, -0.06657844, 0.20356388, -600933.44, 230785.14, 0.0, 10.002671, 9.997609 
1.1450802e+3, 2.2512998e+2, -447410.63, -783195.0, 94215.38, -0.051804338, 0.1912522, -422781.84, 310958.34, 0.0, 10.002755, 9.998324 
1.1450972e+3, 2.3512673e+2, -574307.94, -790164.56, 69959.89, 0.039808784, 0.012176356, -553617.0, 82151.11, 0.0, 10.001197, 9.998352 
1.1451125e+3, 2.4512494e+2, -478101.75, -714158.6, -1892.0402, 0.06673535, 0.012935748, -478086.6, 59697.56, 0.0, 10.001282, 9.9981575 
1.1451264e+3, 2.5512436e+2, -131569.1, -489297.2, -20576.57, 0.040230755, 0.11471515, -130389.414, 309401.16, 0.0, 10.00297, 9.99821 
1.14514075e+3, 2.651225e+2, 29191.613, -450214.78, 35016.81, -0.0011838768, 0.14865103, 31735.809, 373544.38, 0.00000038376965, 10.003757, 9.997441 
1.1451557e+3, 2.751191e+2, 111689.26, -361715.72, 27551.258, -0.059090424, 0.043780237, 113287.29, 357127.53, 0.0000075917305, 10.003655, 9.997423 
1.1451709e+3, 2.851163e+2, 197009.64, -267042.22, 45331.953, -0.08521616, 0.027596405, 201396.52, 347262.9, 0.0000412879, 10.003568, 9.99744 
1.1451865e+3, 2.9511404e+2, 275326.72, -175417.7, 50476.79, -0.053977296, 0.031841267, 280910.22, 328797.34, 0.0001451199, 10.003417, 9.997468 
1.1452006e+3, 3.051109e+2, 353261.5, -269713.5, 8744.786, -0.10324181, 0.047199138, 353384.22, 353384.22, 0.00038839233, 10.004291, 9.99607 
1.14521325e+3, 3.1510997e+2, 652704.4, -30083.531, -39069.67, -0.17983069, 0.3170271, 654932.75, 654932.75, 0.0007929748, 10.00591, 9.996928 
1.1549203e+3, 1.2512071e+2, -2077104.3, -1724207.4, 150582.2, -0.20407672, -0.059144143, -1668688.0, 45135.11, 0.001489488, 9.996777, 10.001472 
1.1549366e+3, 1.3512252e+2, -1834440.0, -1599163.3, 20756.506, -0.038022757, -0.011765802, -1597346.1, 18457.129, 0.00075867696, 9.997944, 10.001116 
1.154953e+3, 1.4512315e+2, -1789177.5, -1756443.5, 36744.887, 0.04596697, 0.049211923, -1732585.4, -214785.98, 0.0002361324, 9.998576, 9.999043 
1.15496926e+3, 1.5512305e+2, -1656702.3, -1638463.1, 6304.8516, 0.110289566, 0.11116323, -1636495.9, -216689.25, 0.000024990082, 9.998809, 9.9990635 
1.1549855e+3, 1.6512269e+2, -1480293.9, -1422806.0, 99636.516, 0.046697255, 0.13633035, -1347850.1, -26038.709, 0.000000023716384, 9.999003, 9.999776 
1.1550024e+3, 1.7512192e+2, -1351113.9, -1306556.3, 148910.39, -0.091428146, 0.059693918, -1178267.3, 45547.723, 0.0, 9.999209, 9.999798 
1.15501896e+3, 1.8512143e+2, -1301752.4, -1370144.6, 22102.516, -0.08617126, 0.098543875, -1295231.3, -169411.88, 0.0, 9.999464, 9.9985695 
1.1550351e+3, 1.9512095e+2, -1156611.4, -1243769.8, 8008.8994, 0.03527885, 0.1678493, -1155881.5, -128054.414, 0.0, 9.999765, 9.998615 
1.15505114e+3, 2.0511957e+2, -919520.94, -1102800.6, 83667.0, 0.035038635, 0.18412066, -887072.0, 42769.074, 0.0, 10.000815, 9.998411 
1.1550672e+3, 2.1511713e+2, -570700.25, -882423.2, 128290.336, -0.06915201, 0.07794007, -524692.44, 307170.72, 0.0, 10.002529, 9.998428 
1.15508325e+3, 2.2511539e+2, -497958.75, -851160.75, 25593.15, -0.036475938, 0.091236904, -496113.9, 237766.53, 0.0, 10.0026, 9.9979315 
1.15509935e+3, 2.3511413e+2, -616892.2, -854656.5, 22302.643, 0.120687425, 0.14931026, -614818.3, 21076.672, 0.0, 10.001095, 9.997959 
1.1551141e+3, 2.451124e+2, -510666.7, -755827.75, 48724.14, 0.08595173, 0.18897296, -501338.06, 36574.883, 0.0, 10.001171, 9.997923 
1.15512766e+3, 2.551101e+2, -169124.94, -537937.8, 50656.77, -0.13756685, 0.1423863, -162293.72, 277642.03, 0.0, 10.002841, 9.997939 
1.15514286e+3, 2.6510823e+2, 12240.032, -455357.56, 21571.094, -0.18519086, 0.19024618, 13233.036, 355187.4, 0.0000005356376, 10.003633, 9.997465 
1.1551594e+3, 2.7510658e+2, 106247.555, -349270.53, 34795.594, -0.06825806, 0.25280902, 108890.15, 352860.9, 0.000008957139, 10.00356, 9.997552 
1.1551749e+3, 2.8510392e+2, 222200.42, -195668.22, 31212.715, -0.054640453, 0.21555702, 224519.0, 370512.16, 0.00004724257, 10.003484, 9.997973 
1.15518935e+3, 2.951e+2, 303998.78, -112466.96, 62593.285, -0.14822136, 0.0024904893, 313202.9, 361227.6, 0.00015981888, 10.00339, 9.99792 
1.1552039e+3, 3.0509582e+2, 369049.47, -207958.44, 62148.707, -0.21397434, -0.12753983, 375667.53, 375667.53, 0.00041739317, 10.004181, 9.996537 
1.15521945e+3, 3.1509447e+2, 675159.5, 57849.94, 48010.49, -0.19355069, 0.0477721, 678871.1, 678871.1, 0.0008468107, 10.005738, 9.997609 
1.16491854e+3, 1.2510617e+2, -2009189.9, -1694854.3, 135753.98, -0.0695402, 0.08044834, -1644342.4, 69625.68, 0.0016512593, 9.997248, 10.001443 
1.16493374e+3, 1.3510662e+2, -1802476.1, -1567069.8, -42640.406, -0.122829676, -0.015928894, -1559584.1, 56376.406, 0.0008513687, 9.998114, 10.001243 
1.1649519e+3, 1.451071e+2, -1768040.3, -1764996.6, -21592.205, 0.07600534, 0.032112885, -1744872.6, -226914.33, 0.00027198074, 9.998805, 9.998872 
1.1649685e+3, 1.5510747e+2, -1619548.1, -1641200.3, -25582.277, 0.14824283, 0.15845317, -1602595.5, -182632.97, 0.00003101119, 9.999153, 9.998879 
1.164985e+3, 1.6510735e+2, -1415725.0, -1357357.4, 75705.27, 0.08797378, 0.20445555, -1305405.6, 16559.252, 0.00000004774233, 9.999308, 10.000074 
1.1650021e+3, 1.7510666e+2, -1300918.6, -1251351.9, 45220.19, -0.051609408, 0.10753596, -1224569.0, -602.4168, 0.0, 9.999422, 10.000076 
1.16501905e+3, 1.8510613e+2, -1231753.6, -1342165.3, -49823.895, -0.049156632, 0.13113719, -1212594.9, -86623.82, 0.0, 9.999959, 9.998526 
1.1650357e+3, 1.9510558e+2, -992186.06, -1170221.6, -37362.984, 0.06222641, 0.20031568, -984662.9, 43316.918, 0.0, 10.00091, 9.998574 
1.16505235e+3, 2.0510414e+2, -876311.5, -1042163.7, 53470.58, 0.07144125, 0.19448426, -860567.25, 69426.85, 0.0, 10.000944, 9.998761 
1.1650691e+3, 2.151017e+2, -896550.3, -995391.6, 34618.094, -0.005744022, 0.049990077, -885631.8, -53616.8, 0.0, 10.000114, 9.998807 
1.1650852e+3, 2.2510046e+2, -815875.9, -988916.9, -65677.6, 0.0080308225, 0.08887808, -793771.56, -59743.953, 0.0, 10.000358, 9.998064 
1.16510056e+3, 2.3510012e+2, -532314.8, -799317.06, -48546.152, 0.11249504, 0.2263905, -523762.16, 112272.836, 0.0, 10.001618, 9.998088 
1.1651156e+3, 2.450985e+2, -354933.56, -656340.94, 64142.62, 0.06848761, 0.2581097, -341851.16, 196200.5, 0.0, 10.002122, 9.998154 
1.16513014e+3, 2.5509554e+2, -296252.03, -576659.44, 80639.05, -0.124206744, 0.12512136, -274716.03, 165362.3, 0.0, 10.001851, 9.998159 
1.165146e+3, 2.6509345e+2, -160040.03, -544982.7, 86712.62, -0.16688284, 0.14172529, -141408.81, 200689.83, 0.00000056359414, 10.002482, 9.997399 
1.1651632e+3, 2.7509192e+2, 155796.11, -337633.78, 65368.02, -0.061596192, 0.22722901, 164308.98, 408423.94, 0.00000928475, 10.003959, 9.997444 
1.1651789e+3, 2.8508943e+2, 343101.34, -168337.2, 4975.777, -0.05091257, 0.2286778, 343149.75, 489286.44, 0.000050363375, 10.004455, 9.997687 
1.165193e+3, 2.9508588e+2, 369343.47, -108354.445, -47034.566, -0.13770518, 0.07819341, 373930.5, 422096.3, 0.00017050822, 10.00398, 9.997652 
1.1652084e+3, 3.0508143e+2, 434434.78, -139605.39, 11181.462, -0.19110964, -0.0838311, 434652.5, 434652.5, 0.00044288923, 10.004467, 9.996877 
1.16522595e+3, 3.1507894e+2, 677157.1, 116124.6, -47681.28, -0.09834825, -0.045633905, 681180.6, 681180.6, 0.0008955327, 10.005498, 9.998139 
1.17491744e+3, 1.2509206e+2, -2065598.6, -1804315.3, 76366.02, 0.057735167, 0.32379162, -1783632.8, -69519.9, 0.0018234614, 9.997227, 10.000699 
1.1749321e+3, 1.3509123e+2, -1828073.1, -1630410.5, -1923.3654, -0.115427196, 0.14679815, -1630391.8, -14271.2705, 0.0009506097, 9.998152, 10.000792 
1.1749513e+3, 1.4509131e+2, -1728200.0, -1682479.3, -19057.107, 0.103072405, 0.14468242, -1675577.6, -157456.66, 0.00031097958, 9.998812, 9.999431 
1.1749678e+3, 1.5509179e+2, -1584995.3, -1569867.0, -3950.0684, 0.13957286, 0.23249276, -1568897.8, -148778.67, 0.00003785508, 9.999156, 9.999365 
1.17498435e+3, 1.6509157e+2, -1456034.0, -1443265.0, 68870.35, 0.068809435, 0.27513564, -1380483.9, -58361.965, 0.00000010132158, 9.999316, 9.999479 
1.17500186e+3, 1.7509058e+2, -1338692.1, -1329960.0, 58904.645, -0.035422385, 0.20263301, -1275259.9, -51129.867, 0.0, 9.999423, 9.999536 
1.17501915e+3, 1.8508963e+2, -1192363.0, -1259732.1, -25826.27, -0.04967812, 0.18116127, -1183601.8, -57463.605, 0.0, 9.999953, 9.999096 
1.1750363e+3, 1.9508846e+2, -960687.8, -1095611.1, 8919.309, 0.005509556, 0.13113075, -960100.75, 68048.016, 0.0, 10.000861, 9.999114 
1.175053e+3, 2.050873e+2, -901085.4, -1074590.9, 10973.672, 0.028030459, 0.13815638, -900394.06, 29765.705, 0.0, 10.000864, 9.998576 
1.1750698e+3, 2.1508601e+2, -924101.4, -1029999.0, 12644.229, 0.037572857, 0.12514722, -922612.56, -90439.65, 0.0, 10.000011, 9.998623 
1.1750856e+3, 2.2508518e+2, -788437.2, -901424.56, -29293.443, 0.005051893, 0.18204439, -781294.06, -47112.168, 0.0, 10.000227, 9.998727 
1.1751004e+3, 2.3508471e+2, -506989.3, -710272.4, 9173.883, -0.069018096, 0.23963113, -506576.16, 129611.945, 0.0, 10.001464, 9.998772 
1.17511645e+3, 2.4508326e+2, -331251.4, -572915.56, 44398.258, -0.07616002, 0.22081132, -323352.78, 214847.16, 0.0, 10.001972, 9.9988 
1.1751332e+3, 2.5508067e+2, -256979.33, -477619.4, 80343.305, -0.01442868, 0.054303393, -230823.89, 209394.95, 0.0, 10.001776, 9.998874 
1.17515005e+3, 2.650781e+2, -189921.42, -588463.06, 130572.12, -0.02501628, 0.0014906892, -150953.0, 191288.86, 0.0000005132723, 10.0023985, 9.997146 
1.17516674e+3, 2.7507526e+2, 122610.58, -386722.56, 132599.05, -0.12645395, -0.020966448, 155063.44, 399335.34, 0.000009286575, 10.003869, 9.997151 
1.1751824e+3, 2.8507304e+2, 245447.45, -347092.94, -22169.82, -0.16183527, 0.08204895, 246275.78, 392571.16, 0.00005131962, 10.004351, 9.99651 
1.1751974e+3, 2.950714e+2, 294024.75, -262321.3, -50565.254, -0.123093314, 0.23435636, 298583.2, 346896.3, 0.0001770123, 10.003957, 9.996608 
1.1752136e+3, 3.050673e+2, 439739.84, -100799.14, 48350.496, -0.122034796, 0.14130446, 444030.7, 444030.7, 0.00045933764, 10.004366, 9.997186 
1.1752321e+3, 3.1506363e+2, 688521.9, 185421.27, 17150.178, -0.07242956, 0.031224715, 689105.8, 689105.8, 0.0009226208, 10.005322, 9.998691 
1.18491635e+3, 1.2507473e+2, -2150192.8, -1903873.5, 30357.383, 0.2454267, 0.31832224, -1900187.3, -185902.98, 0.0020081834, 9.9968815, 10.000187 
1.18493065e+3, 1.3507462e+2, -1790364.8, -1647696.5, 6531.8975, -0.086463906, 0.2375059, -1647398.1, -31109.713, 0.0010574218, 9.998536, 10.000501 
1.1849501e+3, 1.4507467e+2, -1622447.3, -1568505.5, -26462.998, 0.09362752, 0.21961047, -1557691.3, -39402.348, 0.00035351914, 9.999271, 9.999986 
1.18496716e+3, 1.550748e+2, -1540921.4, -1481964.9, -38159.344, 0.16522677, 0.2154768, -1463223.8, -42937.574, 0.00004562391, 9.999184, 9.999948 
1.184984e+3, 1.650746e+2, -1487036.4, -1472655.3, 78378.23, 0.117829464, 0.2378352, -1401138.5, -78850.984, 0.00000019883093, 9.999159, 9.99936 
1.1850014e+3, 1.7507397e+2, -1368796.4, -1355117.1, 86048.38, 0.0057270546, 0.2093806, -1275637.0, -51343.168, 0.0, 9.999254, 9.999446 
1.185019e+3, 1.8507314e+2, -1243126.9, -1248364.1, 46822.176, -0.022267252, 0.1892224, -1198850.1, -72549.18, 0.0, 9.999463, 9.999405 
1.1850365e+3, 1.9507194e+2, -1083830.6, -1114681.5, 34766.816, 0.011413219, 0.10395911, -1061220.9, -32910.02, 0.0, 9.99986, 9.999456 
1.18505344e+3, 2.050712e+2, -958845.56, -1102673.9, 31597.07, 0.017627113, 0.13508654, -952210.25, -21892.121, 0.0, 10.000468, 9.998581 
1.1850702e+3, 2.1507065e+2, -741893.0, -937794.25, 32605.371, 0.014479829, 0.19933486, -736608.75, 95716.45, 0.0, 10.001251, 9.998658 
1.18508615e+3, 2.2506966e+2, -632046.56, -821174.25, 5311.4966, -0.011635349, 0.23335846, -631897.5, 102438.41, 0.0, 10.001266, 9.99878 
1.1851014e+3, 2.3506807e+2, -636956.94, -766405.8, -25363.873, -0.065170735, 0.17196205, -632164.6, 4186.978, 0.0, 10.00053, 9.998837 
1.1851179e+3, 2.4506676e+2, -507572.3, -651051.06, -3720.1963, -0.054544207, 0.16106303, -507475.9, 30886.152, 0.0, 10.000739, 9.998856 
1.1851354e+3, 2.5506547e+2, -235967.56, -468239.63, -34006.586, 0.022627778, 0.12683618, -231091.1, 209278.66, 0.0, 10.001924, 9.998871 
1.185153e+3, 2.6506305e+2, -176279.73, -572353.5, 26163.287, 0.022201108, 0.086227186, -174558.95, 167832.47, 0.0000005059796, 10.002471, 9.997209 
1.1851703e+3, 2.7505925e+2, -91201.66, -484965.03, 23570.383, -0.075652845, -0.03604795, -89795.77, 154633.38, 0.000009353779, 10.002395, 9.997179 
1.1851863e+3, 2.850567e+2, 76718.71, -410304.7, -52728.633, -0.1393428, 0.02583658, 82362.09, 228816.6, 0.000051335024, 10.00312, 9.996664 
1.1852014e+3, 2.9505542e+2, 397506.75, -195735.66, -10544.296, -0.1463248, 0.20263395, 397694.1, 446161.75, 0.00017979782, 10.004609, 9.996748 
1.185218e+3, 3.0505168e+2, 511177.34, -128079.125, 100687.14, -0.15250446, 0.1651726, 526661.2, 526661.2, 0.0004624939, 10.005096, 9.996659 
1.1852373e+3, 3.1504783e+2, 525209.06, 66690.96, -28784.568, -0.027611518, 0.08869927, 527009.0, 527009.0, 0.00091940095, 10.004333, 9.9983635 
1.1949136e+3, 1.2505372e+2, -2160984.0, -1918706.3, -4700.3506, 0.23484951, 0.004029232, -1918615.1, -204128.48, 0.0022081332, 9.996859, 10.000092 
1.1949291e+3, 1.3505681e+2, -1790952.8, -1645846.6, 77291.06, -0.12176157, 0.24078336, -1612390.9, 4072.9417, 0.0011730703, 9.998526, 10.000516 
1.1949481e+3, 1.4505722e+2, -1587842.4, -1497737.9, -39560.543, -0.05931024, 0.23693317, -1482834.0, 35627.36, 0.00040013902, 9.999273, 10.000473 
1.1949664e+3, 1.5505661e+2, -1499383.3, -1408476.4, -30779.762, 0.14812787, 0.10907073, -1399035.3, 21427.459, 0.00005450229, 9.999227, 10.000438 
1.1949838e+3, 1.6505659e+2, -1449976.3, -1402316.9, 66914.06, 0.15296936, 0.09779053, -1355116.0, -32655.275, 0.00000035173326, 9.999187, 9.999829 
1.19500086e+3, 1.7505692e+2, -1342367.9, -1295752.8, 97364.76, 0.0030488356, 0.124361575, -1218944.8, 5512.2725, 0.0, 9.999235, 9.999865 
1.19501844e+3, 1.8505676e+2, -1247207.0, -1255751.6, 51713.344, -0.050372582, 0.15497723, -1199589.8, -73131.32, 0.0, 9.999456, 9.999359 
1.1950364e+3, 1.95056e+2, -1093908.1, -1126376.5, 58919.133, -0.0064126323, 0.11893465, -1049027.6, -20561.318, 0.0, 9.999811, 9.999405 
1.19505346e+3, 2.0505568e+2, -953085.25, -1069068.3, 47851.3, -0.043199852, 0.18022175, -935891.94, -5421.634, 0.0, 10.00038, 9.998851 
1.1950699e+3, 2.1505558e+2, -742215.4, -909737.8, 69817.75, -0.14928596, 0.2612983, -716933.2, 115539.21, 0.0, 10.001129, 9.998908 
1.1950864e+3, 2.2505382e+2, -688966.0, -911218.8, -33141.164, -0.12414965, 0.23445505, -684129.44, 50360.605, 0.0, 10.0011425, 9.99822 
1.19510315e+3, 2.3505026e+2, -689826.3, -853215.0, -43959.73, 0.035670813, 0.030453028, -678749.9, -42225.473, 0.0, 10.00043, 9.998289 
1.1951198e+3, 2.4504909e+2, -560492.8, -739854.75, 29798.072, 0.042785358, 0.089116186, -555671.94, -17134.986, 0.0, 10.000646, 9.998295 
1.1951362e+3, 2.550501e+2, -287909.25, -552742.94, 20696.19, -0.097170435, 0.33709332, -286301.66, 154228.19, 0.0, 10.001824, 9.998337 
1.1951543e+3, 2.6504838e+2, -176043.6, -552699.0, 14902.142, -0.10799932, 0.38391024, -175454.9, 167091.39, 0.0000006389743, 10.002382, 9.997393 
1.19517356e+3, 2.750438e+2, -79996.39, -448388.3, 33297.35, 0.0033780125, 0.16359627, -77010.984, 167576.5, 0.000009301616, 10.002339, 9.997457 
1.1951903e+3, 2.8504044e+2, 162370.3, -220067.8, -6186.875, -0.064186916, 0.06149784, 162470.36, 309084.6, 0.000051838055, 10.00306, 9.998003 
1.1952047e+3, 2.9503804e+2, 476108.5, -16485.953, 57519.89, -0.30147794, -0.0071840533, 482735.88, 531365.1, 0.00018153801, 10.004527, 9.998024 
1.1952211e+3, 3.050347e+2, 388090.72, -345845.6, 65901.17, -0.37151724, 0.005281683, 393961.13, 393961.13, 0.00045795442, 10.004945, 9.99523 
1.195241e+3, 3.1503138e+2, 424627.63, -98978.305, -21301.951, -0.12943691, 0.117070846, 425492.8, 425492.8, 0.00089609716, 10.004157, 9.997302 
1.2049101e+3, 1.2503561e+2, -1942713.5, -1753402.4, 22816.387, 0.16238604, -0.02331837, -1750691.3, -36025.434, 0.0024257244, 9.998114, 10.000624 
1.20492786e+3, 1.3503955e+2, -1949608.1, -1682115.1, 108475.17, -0.025474625, 0.2709844, -1643655.4, -27022.367, 0.0012988481, 9.997296, 10.00085 
1.2049464e+3, 1.4503984e+2, -1830154.4, -1602006.4, 25998.852, -0.06283013, 0.23169826, -1599081.3, -80450.34, 0.00045139206, 9.997537, 10.000605 
1.2049652e+3, 1.550394e+2, -1528471.5, -1401125.0, -14144.378, 0.13461338, 0.101475775, -1399572.9, 21057.705, 0.00006471426, 9.998932, 10.000632 
1.2049833e+3, 1.650396e+2, -1390487.6, -1356707.5, 56792.05, 0.1706962, 0.09711382, -1314347.1, 8278.991, 0.00000057087306, 9.999526, 9.999974 
1.2050009e+3, 1.7504011e+2, -1303520.6, -1256677.3, 41518.78, 0.0725427, 0.12688668, -1232429.4, -7808.7886, 0.0, 9.999426, 10.000032 
1.20501846e+3, 1.8504007e+2, -1248717.8, -1267629.9, 19288.586, 0.010983631, 0.16406235, -1236692.0, -110070.48, 0.0, 9.999499, 9.999249 
1.20503604e+3, 1.9503929e+2, -1104399.8, -1137726.3, 5675.0557, -0.019877598, 0.13475168, -1103459.9, -74829.55, 0.0, 9.999778, 9.999331 
1.2050535e+3, 2.050389e+2, -979096.5, -1055060.3, 21664.027, -0.06256272, 0.18143065, -973352.5, -42717.203, 0.0, 10.000079, 9.999091 
1.20507106e+3, 2.1503872e+2, -830627.56, -925831.5, 19179.568, -0.10913738, 0.22673476, -826908.94, 5729.652, 0.0, 10.000395, 9.999154 
1.2050879e+3, 2.2503726e+2, -705656.75, -885417.06, -54040.363, -0.066976406, 0.20620246, -690661.75, 43990.242, 0.0, 10.000886, 9.998525 
1.2051044e+3, 2.3503444e+2, -508322.28, -731488.8, -20035.742, 0.06814781, 0.048488606, -506537.78, 130139.17, 0.0, 10.001538, 9.998591 
1.2051211e+3, 2.4503313e+2, -397021.47, -749415.9, 126729.79, 0.046717174, 0.11616356, -356179.75, 182512.27, 0.0, 10.00215, 9.997498 
1.205138e+3, 2.5503302e+2, -215210.6, -607649.3, 78244.875, -0.14310862, 0.33221322, -200185.31, 240514.44, 0.00000000020898414, 10.0027075, 9.997532 
1.2051565e+3, 2.6503107e+2, -66635.47, -485535.88, 52224.6, -0.14529285, 0.38892502, -60222.758, 282496.7, 0.00000074892756, 10.003073, 9.997517 
1.2051768e+3, 2.750271e+2, 62481.75, -367353.16, 41792.773, 0.04057213, 0.21734035, 66507.55, 311260.2, 0.000009032264, 10.003259, 9.997566 
1.20519444e+3, 2.850236e+2, 225221.89, -190848.89, -5425.7256, 0.01896398, 0.093794644, 225292.63, 372072.28, 0.000052112464, 10.003499, 9.997993 
1.2052096e+3, 2.950203e+2, 352459.44, -77116.97, -65917.5, -0.21056134, -0.058413796, 362346.75, 411149.56, 0.00018292929, 10.003691, 9.998007 
1.2052258e+3, 3.0501723e+2, 283514.63, -382388.84, -58064.43, -0.33705625, -0.023516025, 288539.72, 288539.72, 0.0004549238, 10.00418, 9.995335 
1.20524526e+3, 3.15014e+2, 502553.0, -34355.625, -76962.84, -0.13615377, 0.08827529, 513367.38, 513367.38, 0.0008743961, 10.004615, 9.997507 
1.2149055e+3, 1.2502037e+2, -1854333.5, -1566803.4, 10015.692, -0.16201311, 0.21311375, -1566454.9, 148367.64, 0.0026624324, 9.99812, 10.001893 
1.2149269e+3, 1.3502297e+2, -1916346.5, -1619973.9, 82181.945, 0.13535395, 0.32830355, -1598710.9, 18083.938, 0.0014356553, 9.997315, 10.001273 
1.21494494e+3, 1.4502254e+2, -1836450.8, -1606621.6, 65022.746, 0.009037815, 0.1976384, -1589500.9, -70703.79, 0.0005075534, 9.997512, 10.00058 
1.2149635e+3, 1.5502317e+2, -1534364.3, -1413007.1, 50347.21, 0.041542463, 0.18145126, -1394839.5, 25949.865, 0.000076397075, 9.998928, 10.000555 
1.21498205e+3, 1.6502364e+2, -1403564.4, -1385512.6, 42810.64, 0.07269126, 0.21832056, -1350786.8, -28002.563, 0.0000008702971, 9.9995365, 9.999768 
1.2150012e+3, 1.750236e+2, -1317941.3, -1287452.5, 46787.246, 0.13998663, 0.21316908, -1253488.8, -28704.31, 0.0, 9.999422, 9.9998255 
1.2150189e+3, 1.8502304e+2, -1252051.1, -1274384.8, 17642.617, 0.080286935, 0.21045098, -1242338.3, -115547.97, 0.0, 9.999499, 9.999205 
1.215035e+3, 1.9502182e+2, -1115791.5, -1154455.0, 25983.295, -0.11204114, 0.1425543, -1102737.3, -73934.414, 0.0, 9.99974, 9.999241 
1.2150531e+3, 2.0502092e+2, -982228.0, -1035231.3, 22081.992, -0.12858784, 0.13453642, -974234.0, -43421.08, 0.0, 9.999972, 9.999273 
1.215073e+3, 2.1502016e+2, -838276.56, -907493.44, 39368.15, 0.042047653, 0.10605161, -820467.5, 12354.591, 0.0, 10.000247, 9.999349 
1.2150903e+3, 2.2502008e+2, -646613.7, -730806.56, -41790.64, 0.07480393, 0.15318513, -629392.6, 105428.18, 0.0, 10.000747, 9.999656 
1.2151051e+3, 2.3502055e+2, -444605.38, -574150.75, 13891.97, -0.028854841, 0.21126956, -443132.4, 193677.6, 0.0, 10.001428, 9.999728 
1.2151217e+3, 2.4501877e+2, -491876.25, -911951.2, 139517.72, -0.12106319, 0.22902009, -449761.13, 89067.06, 0.0, 10.002008, 9.996445 
1.2151404e+3, 2.5501448e+2, -303483.22, -768525.9, 109543.695, -0.19340427, 0.12990569, -278971.5, 161906.39, 0.00000000018849695, 10.002614, 9.99647 
1.2151595e+3, 2.6501134e+2, -78482.89, -489467.6, 50406.977, -0.17477748, 0.12322919, -72390.81, 270518.44, 0.00000061447383, 10.002978, 9.997539 
1.2151792e+3, 2.750092e+2, 53554.05, -370303.38, 60527.73, -0.053864155, 0.13022174, 62028.12, 306952.53, 0.000008322687, 10.003182, 9.997586 
1.215198e+3, 2.8500617e+2, 110798.64, -397222.66, -5404.6646, 0.011845096, 0.121661924, 110856.13, 257806.52, 0.000050693892, 10.003374, 9.996634 
1.21521585e+3, 2.9500222e+2, 253444.5, -269422.25, -39477.67, 0.018145325, 0.03535107, 256408.36, 305395.8, 0.0001822275, 10.003635, 9.99671 
1.2152321e+3, 3.0499923e+2, 366875.16, -193310.67, -45505.066, -0.14700209, 0.07431382, 370547.56, 370547.56, 0.00045360107, 10.004112, 9.996667 
1.2152493e+3, 3.1499553e+2, 573806.9, 143036.22, -25493.121, -0.23947619, 0.0026464406, 575310.3, 575310.3, 0.0008631906, 10.004496, 9.998781 
1.2249029e+3, 1.2500343e+2, -1949925.5, -1593459.1, 92851.28, -0.1846433, 0.28124905, -1570723.6, 144264.88, 0.0029179724, 9.997321, 10.002115 
1.22492544e+3, 1.350045e+2, -1849696.8, -1619659.5, 14814.081, 0.24234529, 0.26862636, -1618709.4, -1736.8368, 0.0015834377, 9.997892, 10.001 
1.22494325e+3, 1.4500387e+2, -1735295.1, -1577274.8, 30959.912, 0.056247696, 0.14102611, -1571425.5, -52449.074, 0.00056846405, 9.998296, 10.000399 
1.224962e+3, 1.5500498e+2, -1567106.4, -1438726.8, -18536.691, 0.020138517, 0.18181759, -1436103.9, -15137.104, 0.00008951281, 9.998763, 10.000445 
1.22498095e+3, 1.6500555e+2, -1459366.4, -1415399.8, -27955.719, 0.038716175, 0.23648632, -1401819.3, -78857.51, 0.0000012652538, 9.999135, 9.999776 
1.2250005e+3, 1.7500536e+2, -1320987.4, -1284527.3, -21765.996, 0.13711253, 0.21167485, -1274365.5, -49401.49, 0.0, 9.999368, 9.999883 
1.2250184e+3, 1.850051e+2, -1239971.8, -1215637.3, -2778.1033, 0.09853002, 0.21352202, -1215324.1, -88357.29, 0.0, 9.999352, 9.999682 
1.2250348e+3, 1.9500463e+2, -1163481.4, -1120651.8, 21011.13, -0.079083115, 0.1730248, -1112065.6, -83094.05, 0.0, 9.999176, 9.999743 
1.2250532e+3, 2.050039e+2, -1053126.0, -1067313.0, 71264.06, -0.08055621, 0.1550602, -988603.25, -57624.152, 0.0, 9.999459, 9.999307 
1.2250737e+3, 2.1500278e+2, -851671.3, -908244.56, 61314.73, 0.10028902, 0.08478224, -812432.94, 20558.164, 0.0, 10.000131, 9.999398 
1.22509144e+3, 2.2500272e+2, -613503.8, -733077.9, -35579.2, 0.10076533, 0.14016356, -603718.1, 131272.14, 0.0, 10.001053, 9.999488 
1.22510634e+3, 2.3500353e+2, -341608.34, -543280.9, -102857.35, -0.08582924, 0.24880156, -298404.38, 338574.2, 0.0, 10.0022135, 9.999559 
1.22512355e+3, 2.450017e+2, -388589.8, -837020.5, 11410.083, -0.16544549, 0.2604218, -388299.7, 150697.05, 0.0, 10.002597, 9.996688 
1.2251433e+3, 2.549971e+2, -339848.13, -754015.9, 59712.867, -0.13224643, 0.10678792, -331410.88, 109635.375, 0.0, 10.002231, 9.996756 
1.22516274e+3, 2.649939e+2, -163237.11, -541546.75, 76169.89, -0.11268259, 0.08423613, -148476.75, 194600.86, 0.0000003685213, 10.00245, 9.997434 
1.22518174e+3, 2.749919e+2, 46471.145, -383395.8, 54652.05, -0.10887508, 0.11706311, 53310.625, 298403.88, 0.0000073761885, 10.003197, 9.997481 
1.2252012e+3, 2.8498882e+2, 164909.92, -422666.8, 34451.695, -0.023823926, 0.13110341, 166923.05, 314044.66, 0.00004908337, 10.003944, 9.996187 
1.2252211e+3, 2.949846e+2, 355411.25, -273664.47, 42229.754, 0.14210474, 0.065060765, 358233.47, 407396.66, 0.00018069042, 10.004555, 9.996244 
1.2252378e+3, 3.0498183e+2, 540258.4, -107907.914, 50175.02, -0.03521885, 0.14737625, 544119.44, 544119.44, 0.00045125643, 10.005295, 9.996685 
1.22525394e+3, 3.1497732e+2, 757038.94, 188087.1, -58114.742, -0.27637264, -0.0009556748, 762914.3, 762914.3, 0.00085665786, 10.005896, 9.998436 
1.2349038e+3, 1.2498485e+2, -1992037.5, -1683646.1, 175932.28, 0.12838118, 0.18920647, -1603900.6, 111262.23, 0.0031899144, 9.997339, 10.001481 
1.234923e+3, 1.3498405e+2, -1903182.5, -1744164.0, 34379.777, 0.18456833, 0.07230088, -1737049.4, -119882.125, 0.0017411282, 9.997938, 10.000125 
1.2349409e+3, 1.4498375e+2, -1753733.8, -1627806.3, 36660.266, -0.029974595, 0.038518097, -1617911.1, -98741.22, 0.0006337289, 9.998341, 10.000036 
1.2349607e+3, 1.5498464e+2, -1584154.1, -1489950.6, 6134.34, -0.006041816, 0.09763258, -1489552.9, -68388.76, 0.00010392506, 9.99881, 10.000083 
1.23497985e+3, 1.6498521e+2, -1426028.0, -1348821.5, -33717.316, -0.0068645906, 0.14676802, -1336169.8, -13009.555, 0.0000017603737, 9.999151, 10.000221 
1.2349984e+3, 1.7498538e+2, -1290690.3, -1225396.1, -5961.1406, -0.021728529, 0.11518503, -1224856.3, 302.84113, 0.0, 9.999376, 10.000287 
1.2350167e+3, 1.8498622e+2, -1177729.8, -1082313.8, -20537.525, -0.023991227, 0.16128865, -1078081.0, 49070.035, 0.0, 9.999338, 10.000605 
1.2350349e+3, 1.9498758e+2, -1105495.3, -989758.9, 23911.889, -0.008233404, 0.21348408, -985013.1, 44124.36, 0.0, 9.999126, 10.000669 
1.2350536e+3, 2.0498772e+2, -1068035.9, -1074827.4, 81696.766, -0.0009983459, 0.23390307, -989664.3, -58529.043, 0.0, 9.999362, 9.999301 
1.235073e+3, 2.1498647e+2, -870404.56, -922092.7, 93870.8, -0.004180569, 0.15408269, -798885.2, 34260.695, 0.0, 10.000017, 9.99936 
1.23509094e+3, 2.2498515e+2, -736736.06, -958369.75, -2170.9841, -0.06602938, 0.15907364, -736714.8, -1554.456, 0.0, 10.00092, 9.998007 
1.2351076e+3, 2.3498349e+2, -466692.66, -773610.4, -47583.78, -0.18829572, 0.16847296, -459484.66, 177696.53, 0.0, 10.002084, 9.998044 
1.2351261e+3, 2.4498203e+2, -299158.5, -622035.75, -12849.891, -0.18644181, 0.21912467, -298647.9, 240548.27, 0.0, 10.002473, 9.998221 
1.2351466e+3, 2.5498074e+2, -242294.34, -535022.0, 54967.625, -0.04725925, 0.23995735, -232313.02, 208893.23, 0.0, 10.002151, 9.998303 
1.23516604e+3, 2.6497847e+2, -202969.22, -591896.94, 95286.49, -0.048054468, 0.24537171, -180878.9, 162347.92, 0.00000016286783, 10.002318, 9.9971485 
1.2351842e+3, 2.7497503e+2, 11263.309, -434239.28, 95518.375, -0.20112619, 0.16420919, 30879.295, 276139.47, 0.000006622681, 10.003102, 9.997177 
1.2352039e+3, 2.849714e+2, 176380.63, -373207.0, 49402.344, -0.16861117, 0.11533804, 180786.08, 328080.88, 0.00004875032, 10.003838, 9.996577 
1.2352251e+3, 2.9496732e+2, 373277.56, -222527.6, 78931.266, 0.069345295, 0.02456246, 383556.9, 432889.06, 0.00018165189, 10.004488, 9.996632 
1.2352427e+3, 3.0496487e+2, 441572.8, -291642.44, 70917.6, -0.09716271, 0.18257241, 448369.06, 448369.06, 0.00045269527, 10.0052, 9.995471 
1.2352589e+3, 3.149596e+2, 611634.6, -75074.2, 3039.6177, -0.42241338, 0.07671338, 611648.06, 611648.06, 0.0008564501, 10.00573, 9.996705 
1.24490306e+3, 1.2496479e+2, -2126251.5, -1771166.8, 118795.65, 0.36975712, 0.15863828, -1735088.6, -19732.244, 0.003475539, 9.996555, 10.001244 
1.2449198e+3, 1.349634e+2, -1886499.1, -1730943.5, -28136.293, 0.08116642, -0.015272748, -1726010.8, -108642.766, 0.0019075654, 9.99805, 10.000163 
1.2449392e+3, 1.4496389e+2, -1714560.9, -1594131.6, 11640.76, -0.039367825, 0.021983404, -1593016.8, -73652.88, 0.0007030745, 9.998549, 10.000166 
1.2449598e+3, 1.5496492e+2, -1687994.8, -1526435.6, -4570.0786, 0.068058625, 0.08357768, -1526306.5, -104949.54, 0.00011956255, 9.998049, 10.0001955 
1.2449789e+3, 1.6496567e+2, -1568688.8, -1361557.8, 8086.602, 0.052964345, 0.119478524, -1361242.5, -37891.082, 0.0000023468863, 9.9979515, 10.000702 
1.24499686e+3, 1.749661e+2, -1405975.6, -1222773.0, 15767.605, -0.06499713, 0.066813156, -1221425.9, 3921.342, 0.0, 9.998363, 10.000778 
1.2450154e+3, 1.8496726e+2, -1224985.9, -1120510.5, -15294.226, -0.072577685, 0.12759247, -1118317.5, 9018.801, 0.0, 9.9990635, 10.000477 
1.2450348e+3, 1.9496897e+2, -986423.5, -948915.7, -63876.08, 0.034825888, 0.22463138, -901097.4, 128223.86, 0.0, 10.000001, 10.000531 
1.2450539e+3, 2.0496927e+2, -882730.1, -939513.94, -9898.365, 0.050517373, 0.24871762, -881054.1, 50262.375, 0.0, 10.000439, 9.999711 
1.245073e+3, 2.1496803e+2, -793569.56, -835666.8, 10466.541, -0.019584361, 0.127331, -791110.9, 42212.508, 0.0, 10.000338, 9.999797 
1.24509156e+3, 2.2496653e+2, -795623.06, -1054457.9, 12386.825, -0.089223266, 0.12183652, -795031.6, -59691.637, 0.0, 10.000811, 9.997397 
1.2451099e+3, 2.3496445e+2, -542425.56, -875825.75, 10215.869, -0.15938611, 0.15138018, -542112.8, 95256.3, 0.0, 10.001849, 9.99745 
1.2451289e+3, 2.4496298e+2, -294809.88, -576534.4, 8748.646, -0.14002857, 0.2080567, -294538.47, 244846.9, 0.0, 10.002312, 9.998613 
1.2451488e+3, 2.5496203e+2, -214781.2, -476156.53, -26768.064, -0.024930704, 0.2251079, -212068.0, 229321.44, 0.0, 10.00215, 9.998703 
1.2451686e+3, 2.6496014e+2, -177232.78, -572859.06, 39030.32, -0.024322676, 0.24578217, -173419.03, 169987.1, 0.000000050542315, 10.00245, 9.997219 
1.2451879e+3, 2.7495712e+2, 27771.85, -422819.1, 43841.523, -0.14312676, 0.1999272, 31997.898, 277435.63, 0.0000061370592, 10.003178, 9.997231 
1.245208e+3, 2.8495377e+2, 202155.69, -331467.88, 25489.684, -0.14261805, 0.16985565, 203370.48, 350840.34, 0.000049451537, 10.003903, 9.996831 
1.2452287e+3, 2.949499e+2, 409694.9, -172092.42, 18377.758, -0.010435064, 0.07253713, 410274.84, 459779.47, 0.00018703757, 10.004615, 9.996911 
1.2452472e+3, 3.049477e+2, 436969.16, -309586.78, 61192.063, -0.16148765, 0.24545905, 441951.56, 441951.56, 0.00046553955, 10.005216, 9.995353 
1.2452655e+3, 3.1494254e+2, 554410.6, -170578.92, 39607.203, -0.31431767, 0.1677199, 556568.0, 556568.0, 0.0008755992, 10.005626, 9.996108 
1.2549005e+3, 1.249432e+2, -2110641.3, -1765058.9, 98418.586, 0.41358098, 0.1810262, -1738995.9, -23426.225, 0.0037739007, 9.996643, 10.001254 
1.2549159e+3, 1.3494264e+2, -1813984.5, -1598017.4, 36733.297, -0.13632895, 0.0019892799, -1591940.5, 25633.646, 0.0020822603, 9.998105, 10.001058 
1.254938e+3, 1.4494446e+2, -1661819.1, -1492810.5, -18146.523, -0.039515834, 0.09058778, -1490884.0, 28672.924, 0.0007764397, 9.998584, 10.000843 
1.254959e+3, 1.5494597e+2, -1637564.1, -1431512.3, -14925.365, 0.15310505, 0.13608669, -1430436.8, -8892.807, 0.00013646827, 9.998084, 10.000832 
1.2549779e+3, 1.6494694e+2, -1537724.0, -1303144.0, 9983.928, 0.13623184, 0.14533474, -1302719.9, 20814.871, 0.0000030208696, 9.997973, 10.001093 
1.2549953e+3, 1.7494747e+2, -1375132.6, -1163994.6, 38410.1, -0.06298038, 0.060744222, -1157224.1, 68304.19, 0.0, 9.998378, 10.001176 
1.2550141e+3, 1.8494819e+2, -1298180.9, -1271335.3, 7443.9966, -0.119299755, 0.107058786, -1269409.4, -141886.13, 0.0, 9.999058, 9.999446 
1.2550344e+3, 1.9494885e+2, -1064379.5, -1102625.5, -20223.334, -0.036705572, 0.2026157, -1055669.6, -26147.586, 0.0, 9.999961, 9.9994955 
1.255054e+3, 2.0494866e+2, -844221.25, -833271.25, -24959.197, -0.006201287, 0.19170433, -813193.6, 118327.914, 0.0, 10.000329, 10.000495 
1.2550732e+3, 2.1494749e+2, -756685.0, -732590.9, 15954.52, -0.031101193, 0.00019949896, -724645.94, 108877.055, 0.0, 10.000222, 10.000565 
1.2550928e+3, 2.2494675e+2, -797455.3, -1027026.44, 39260.8, -0.061762165, 0.020785086, -790926.7, -55396.7, 0.0, 10.000675, 9.997651 
1.2551126e+3, 2.349463e+2, -540940.06, -848107.0, 57956.81, -0.08551436, 0.1866735, -530368.5, 107175.36, 0.0, 10.001736, 9.997699 
1.2551317e+3, 2.449445e+2, -361870.88, -681802.94, -6575.72, -0.107056476, 0.22935387, -361735.78, 177828.8, 0.0, 10.002168, 9.997959 
1.25515e+3, 2.5494108e+2, -280257.94, -587592.3, -21465.063, -0.13521573, 0.06820412, -278766.0, 162828.5, 0.0, 10.002038, 9.997992 
1.2551703e+3, 2.64939e+2, -170443.28, -529733.56, 57623.81, -0.11609195, 0.08612582, -161427.66, 182187.14, 0.00000007625481, 10.002327, 9.997575 
1.2551923e+3, 2.7493814e+2, 38933.426, -375084.3, 84757.69, -0.037325643, 0.22059935, 55613.043, 301239.03, 0.0000061507535, 10.00307, 9.997611 
1.2552129e+3, 2.8493607e+2, 197061.03, -326206.38, 42926.06, -0.055017404, 0.2934191, 200559.08, 348205.6, 0.000051588533, 10.003827, 9.996905 
1.255232e+3, 2.949324e+2, 404382.9, -170662.92, 59207.22, -0.17627214, 0.20847704, 410415.66, 460095.22, 0.00019968045, 10.004549, 9.996957 
1.2552512e+3, 3.0493015e+2, 478562.2, -199283.17, 69053.914, -0.31311244, 0.33180654, 485525.38, 485525.38, 0.0004989457, 10.00512, 9.99615 
1.255273e+3, 3.1492603e+2, 540078.94, -148932.95, 90714.21, -0.16513592, 0.27662265, 551822.1, 551822.1, 0.0009332099, 10.005407, 9.996361 
1.264898e+3, 1.24921545e+2, -1892361.8, -1629982.0, 69642.1, 0.45220938, 0.18038261, -1612643.1, 103142.63, 0.004085261, 9.9980345, 10.001506 
1.2649134e+3, 1.349229e+2, -1909122.8, -1547692.3, 47909.316, -0.14145614, 0.11791516, -1541449.4, 76322.69, 0.0022650692, 9.997073, 10.001879 
1.2649368e+3, 1.4492545e+2, -1845982.6, -1501794.1, 6992.813, 0.069470525, 0.20020206, -1501652.1, 18094.947, 0.00085386867, 9.99698, 10.0015545 
1.2649573e+3, 1.5492693e+2, -1635736.1, -1350326.4, -12212.474, 0.20620655, 0.17443542, -1349804.8, 71927.71, 0.00015477135, 9.997765, 10.00154 
1.2649763e+3, 1.6492818e+2, -1516755.4, -1311818.9, 23259.686, 0.17869306, 0.18347791, -1309212.1, 14508.231, 0.0000038088367, 9.99819, 10.00093 
1.2649944e+3, 1.749292e+2, -1384107.8, -1189001.0, -9359.653, -0.0024190757, 0.16587509, -1188553.0, 37157.44, 0.0, 9.998397, 10.001 
1.2650135e+3, 1.8492962e+2, -1325284.8, -1269182.3, 18467.371, -0.066247806, 0.18349189, -1263649.1, -135941.53, 0.0, 9.998816, 9.999575 
1.2650341e+3, 1.9492918e+2, -1126635.5, -1117634.1, 52546.86, -0.022733515, 0.1594341, -1069395.5, -39681.46, 0.0, 9.999487, 9.999617 
1.2650543e+3, 2.049288e+2, -862805.0, -876445.0, 57942.547, 0.0047288737, 0.1380243, -811282.44, 120433.125, 0.0, 10.000346, 10.000186 
1.2650743e+3, 2.1492833e+2, -620516.2, -702706.94, -3686.5337, 0.007951651, 0.045825798, -620351.2, 213362.45, 0.0, 10.001311, 10.00024 
1.2650944e+3, 2.2492784e+2, -614868.94, -884083.0, 8500.483, 0.0013209311, 0.084051125, -614600.8, 121116.87, 0.0, 10.00168, 9.998155 
1.2651148e+3, 2.349273e+2, -556942.25, -795477.3, 27037.998, -0.0023636152, 0.19052073, -553915.9, 83812.414, 0.0, 10.001368, 9.998238 
1.2651342e+3, 2.4492548e+2, -461501.1, -757796.0, 230.41988, -0.035284776, 0.21732952, -461500.9, 78247.32, 0.0, 10.001601, 9.997708 
1.2651525e+3, 2.5492212e+2, -250416.67, -602980.1, -5712.7896, -0.10190853, 0.08979659, -250324.13, 191456.23, 0.0, 10.002368, 9.997729 
1.265173e+3, 2.6491976e+2, -101048.88, -521064.6, 95597.82, -0.094687834, 0.1061016, -80313.93, 263490.53, 0.00000015326442, 10.002908, 9.997358 
1.2651956e+3, 2.7491832e+2, 34781.38, -397630.84, 55462.406, -0.0041101305, 0.20121798, 41781.81, 287603.1, 0.0000068361555, 10.003135, 9.997422 
1.2652169e+3, 2.8491616e+2, 152453.13, -351185.38, 18803.863, -0.020234933, 0.2788097, 153154.2, 300996.78, 0.000055437977, 10.003539, 9.996866 
1.2652366e+3, 2.9491305e+2, 363649.72, -191533.27, 2541.2063, -0.14575073, 0.25172514, 363661.34, 413532.34, 0.00021946494, 10.004285, 9.996928 
1.2652563e+3, 3.0491027e+2, 468049.47, -143475.95, 1670.471, -0.28295255, 0.2989566, 468054.03, 468054.03, 0.00055347977, 10.004794, 9.996682 
1.2652788e+3, 3.1490615e+2, 467485.06, -154080.78, -29112.309, -0.085762896, 0.19068749, 468845.63, 468845.63, 0.0010350875, 10.004794, 9.996606 
1.2748937e+3, 1.24900214e+2, -1838919.6, -1546284.5, -117797.7, 0.16300511, 0.16733436, -1504758.8, 211242.52, 0.0044096503, 9.998137, 10.002036 
1.274912e+3, 1.3490444e+2, -1862877.0, -1463910.4, 20462.988, -0.009474079, 0.33740944, -1462863.5, 155095.81, 0.0024558255, 9.9971075, 10.002448 
1.2749352e+3, 1.4490692e+2, -1787947.3, -1390154.0, 26039.256, 0.18061002, 0.3457527, -1388456.8, 131476.94, 0.00093550276, 9.997017, 10.002303 
1.2749547e+3, 1.5490785e+2, -1582443.1, -1246859.3, 27503.229, 0.14957719, 0.19131447, -1244620.1, 177301.97, 0.00017466526, 9.997788, 10.00224 
1.274974e+3, 1.6490933e+2, -1556828.0, -1406784.1, 17567.576, 0.097163826, 0.22157186, -1404754.8, -80846.31, 0.0000047674703, 9.998233, 10.000259 
1.2749933e+3, 1.7491135e+2, -1425874.6, -1284907.6, 6031.2344, 0.031424377, 0.370242, -1284650.1, -58757.1, 0.0, 9.998429, 10.000328 
1.2750132e+3, 1.8491164e+2, -1244873.0, -1101177.9, 33058.37, -0.0020330695, 0.35170394, -1093937.4, 33951.348, 0.0, 9.998809, 10.000731 
1.275034e+3, 1.9490996e+2, -1047775.0, -950510.4, 87715.86, -0.0043649026, 0.085374944, -898847.25, 131050.375, 0.0, 9.999464, 10.000778 
1.2750548e+3, 2.0490962e+2, -973012.44, -1083538.5, 81926.93, -0.0003466098, 0.07836155, -929452.25, 2447.0378, 0.0, 10.000255, 9.998809 
1.275076e+3, 2.1491052e+2, -737564.7, -913341.75, 40429.004, 0.015216463, 0.26345602, -728711.8, 105183.23, 0.0, 10.001169, 9.998862 
1.2750965e+3, 2.2490989e+2, -582940.9, -779626.44, -13171.932, 0.020560399, 0.31493556, -582062.7, 153839.23, 0.0, 10.001521, 9.998946 
1.2751165e+3, 2.3490745e+2, -520516.63, -692885.56, 26383.29, 0.011708538, 0.15324555, -516568.75, 121353.22, 0.0, 10.00125, 9.998999 
1.2751362e+3, 2.4490586e+2, -476776.97, -759684.25, 18476.658, -0.004527661, 0.16262493, -475575.38, 64361.863, 0.0, 10.001473, 9.997758 
1.2751558e+3, 2.5490502e+2, -258012.86, -595285.9, 33884.656, -0.02404095, 0.27567446, -254642.28, 187306.11, 0.0, 10.002263, 9.997832 
1.2751764e+3, 2.6490244e+2, -170069.69, -640642.2, 93936.234, -0.05945503, 0.30117053, -152011.03, 191964.58, 0.00000020123079, 10.002806, 9.996584 
1.2751977e+3, 2.7489772e+2, -38898.855, -524797.8, 76984.516, -0.121518224, 0.14911713, -26993.35, 219029.19, 0.0000077157165, 10.003025, 9.996601 
1.2752198e+3, 2.8489423e+2, 124217.875, -387062.5, 35433.746, -0.11544938, 0.14256029, 126661.89, 274718.66, 0.000060411407, 10.003441, 9.996667 
1.2752423e+3, 2.9489183e+2, 331071.1, -228398.89, 46939.3, -0.02953205, 0.20487691, 334981.94, 385060.7, 0.00024258053, 10.004151, 9.996741 
1.2752622e+3, 3.0488822e+2, 466897.03, -122176.375, -1517.7993, -0.17803028, 0.16865854, 466900.94, 466900.94, 0.00061877083, 10.004689, 9.996877 
1.2752825e+3, 3.1488374e+2, 448181.13, -146826.6, 12323.164, -0.23660363, -0.0052470295, 448436.25, 448436.25, 0.0011643849, 10.004602, 9.996742 
1.284891e+3, 1.2488105e+2, -1691506.0, -1483095.3, -71471.9, 0.043039117, 0.19737338, -1460940.1, 255252.52, 0.0047468157, 9.999152, 10.001992 
1.2849106e+3, 1.34885e+2, -1924177.1, -1526724.8, 18725.248, 0.15766156, 0.36888853, -1525844.5, 92308.76, 0.0026545508, 9.996831, 10.002142 
1.2849322e+3, 1.4488688e+2, -1893990.4, -1427933.5, 94027.46, 0.23267709, 0.32698634, -1409678.4, 110454.59, 0.0010215283, 9.996232, 10.002428 
1.2849523e+3, 1.5488833e+2, -1546656.5, -1208270.3, 33716.523, 0.12285698, 0.21017782, -1204943.5, 217172.11, 0.00019628371, 9.997943, 10.002432 
1.2849723e+3, 1.6488989e+2, -1470832.5, -1367859.4, 8651.501, 0.07597928, 0.23887701, -1367137.5, -43036.94, 0.0000059623408, 9.998839, 10.000237 
1.2849922e+3, 1.7489143e+2, -1362465.5, -1256989.0, 23331.615, 0.06068659, 0.34636652, -1252058.5, -25969.625, 0.0, 9.998886, 10.000299 
1.2850125e+3, 1.8489167e+2, -1188319.3, -1060867.0, 71954.67, 0.044941053, 0.31904393, -1028476.06, 99607.89, 0.0, 9.999145, 10.000844 
1.2850338e+3, 1.948904e+2, -1006562.8, -916378.44, 27198.42, 0.028232811, 0.08161427, -908810.75, 121276.6, 0.0, 9.999697, 10.000896 
1.285055e+3, 2.0489e+2, -1029836.94, -1176913.0, 31397.125, 0.014618661, 0.09281628, -1023414.8, -91324.42, 0.0, 10.000145, 9.998223 
1.2850766e+3, 2.1489035e+2, -882183.4, -1047046.06, 30428.873, 0.008247967, 0.2808473, -876746.4, -42651.76, 0.0, 10.000455, 9.99829 
1.2850976e+3, 2.2488935e+2, -660871.56, -777449.94, -13140.323, 0.020993387, 0.3080594, -659408.75, 76695.96, 0.0, 10.000824, 9.999292 
1.285118e+3, 2.3488678e+2, -497011.72, -641582.8, -29670.816, 0.04973461, 0.09839577, -491159.2, 146963.33, 0.0, 10.001249, 9.999347 
1.2851384e+3, 2.4488524e+2, -437203.5, -774735.9, -17139.764, 0.051284846, 0.11118628, -436335.38, 103801.45, 0.0, 10.0018835, 9.99746 
1.2851588e+3, 2.5488466e+2, -219475.9, -612018.75, -51723.05, 0.029390587, 0.28147855, -212775.06, 229373.69, 0.0, 10.00268, 9.9975195 
1.2851797e+3, 2.6488215e+2, -127656.195, -602194.8, 17804.93, -0.015032653, 0.32310304, -126989.08, 217186.92, 0.00000014147287, 10.00302, 9.996741 
1.285201e+3, 2.748774e+2, -32819.586, -503176.94, 44070.293, -0.08623149, 0.15131353, -28726.033, 217495.48, 0.000007879153, 10.002985, 9.996765 
1.2852232e+3, 2.848738e+2, 98715.27, -392475.75, 89482.984, -0.08256164, 0.12625377, 114509.05, 262765.25, 0.00006527563, 10.003232, 9.996736 
1.2852465e+3, 2.948712e+2, 265024.8, -253098.6, 91428.94, 0.008338031, 0.16013354, 280685.2, 330966.97, 0.00026909672, 10.00366, 9.996812 
1.2852669e+3, 3.0486754e+2, 386374.72, -113456.15, 66165.78, -0.13621989, 0.09352095, 394985.2, 394985.2, 0.00069339434, 10.003926, 9.997312 
1.2852874e+3, 3.1486478e+2, 410051.97, -102972.72, 61408.04, -0.16291945, 0.049779803, 417299.97, 417299.97, 0.0013102284, 10.004035, 9.997333 
1.294888e+3, 1.24864265e+2, -1726554.9, -1557457.6, -149707.31, -0.2301111, 0.26632455, -1470073.9, 246283.94, 0.0050962004, 9.999175, 10.001468 
1.294909e+3, 1.348646e+2, -2016752.3, -1714257.0, -68291.19, 0.29684067, 0.19840135, -1699554.3, -81200.69, 0.0028611089, 9.996821, 10.000858 
1.2949277e+3, 1.448653e+2, -1926951.5, -1498398.6, 139567.02, 0.13286904, 0.13597499, -1456953.9, 63391.18, 0.00111182, 9.996241, 10.001939 
1.2949497e+3, 1.5486859e+2, -1571616.3, -1265831.8, 108422.0, 0.039727654, 0.23914567, -1231290.4, 191020.97, 0.000219555, 9.997963, 10.002029 
1.2949708e+3, 1.6487e+2, -1425096.4, -1278461.9, -2799.3625, 0.02317901, 0.24252856, -1278408.5, 45887.03, 0.0000074533, 9.998859, 10.000842 
1.2949908e+3, 1.748695e+2, -1317389.6, -1170126.9, 31806.918, 0.0128289675, 0.083896905, -1163550.6, 62747.348, 0.0, 9.998909, 10.000885 
1.2950115e+3, 1.8486975e+2, -1253549.4, -1198310.1, 81193.34, -0.007405619, 0.07756169, -1140167.3, -11874.252, 0.0, 9.999149, 9.999902 
1.2950334e+3, 1.9487059e+2, -1075702.1, -1055919.1, 56082.617, -0.0049233194, 0.14573354, -1008862.4, 21420.24, 0.0, 9.999671, 9.999955 
1.295055e+3, 2.0487e+2, -1029110.94, -1154514.5, 32864.434, -0.031517588, 0.1750012, -1021020.2, -88731.69, 0.0, 10.000058, 9.998417 
1.2950762e+3, 2.1486783e+2, -887891.7, -1028623.0, 50053.74, -0.092120185, 0.09092048, -871905.1, -37592.66, 0.0, 10.000326, 9.998478 
1.2950975e+3, 2.2486627e+2, -690339.3, -807556.75, -7131.6924, -0.076651834, 0.062835544, -689907.0, 46419.04, 0.0, 10.000688, 9.999153 
1.2951191e+3, 2.3486528e+2, -520355.66, -665459.4, -1774.2728, 0.022959726, 0.022158658, -520333.97, 117995.8, 0.0, 10.001137, 9.99924 
1.2951404e+3, 2.4486369e+2, -505647.7, -880601.5, 1679.9513, 0.04164347, 0.066670686, -505640.2, 34706.363, 0.0, 10.001737, 9.9968 
1.2951611e+3, 2.5486127e+2, -290095.0, -721902.3, -10462.226, -0.020053025, 0.11979962, -289841.7, 152537.61, 0.0, 10.002531, 9.996833 
1.2951827e+3, 2.648591e+2, -72732.375, -470671.97, 7570.066, -0.035437252, 0.18645915, -72588.42, 271815.16, 0.000000052302592, 10.002932, 9.997694 
1.295205e+3, 2.748573e+2, 24835.7, -362369.66, 55614.566, -0.0020872448, 0.20723401, 32665.336, 279083.7, 0.000007172051, 10.002887, 9.997785 
1.2952271e+3, 2.8485486e+2, 102337.12, -357926.06, 95218.61, -0.03062861, 0.2283076, 121258.0, 269699.75, 0.000069692775, 10.003114, 9.997027 
1.295249e+3, 2.9485124e+2, 261195.34, -228632.6, 120409.83, -0.12685986, 0.13309795, 289194.13, 339673.16, 0.00030038494, 10.003523, 9.997044 
1.29527e+3, 3.048481e+2, 407227.16, -42949.723, 56742.66, -0.23636165, 0.08828411, 414269.16, 414269.16, 0.000780444, 10.0038185, 9.9978485 
1.2952933e+3, 3.1484896e+2, 450849.63, 35052.348, 103372.52, -0.03253769, 0.34465387, 475131.34, 475131.34, 0.0014751725, 10.003825, 9.998379 
1.3048868e+3, 1.2484705e+2, -2109527.8, -1789712.5, -27629.506, -0.129436, 0.29310137, -1787343.1, -70817.45, 0.0054552136, 9.996758, 10.001031 
1.3049076e+3, 1.3484618e+2, -1767571.8, -1682825.4, -58926.28, 0.38255203, 0.18457696, -1652619.0, -34084.883, 0.003073975, 9.998911, 10.000069 
1.3049243e+3, 1.4484636e+2, -1590102.9, -1446756.3, 198315.31, 0.038773026, 0.15679711, -1307559.9, 212972.6, 0.0012055306, 9.999018, 10.000954 
1.3049468e+3, 1.5484901e+2, -1649458.0, -1409588.9, 109616.125, -0.008236289, 0.29269114, -1367042.8, 55463.86, 0.000244213, 9.997886, 10.001077 
1.304969e+3, 1.6484983e+2, -1574554.8, -1333083.5, -9660.247, 0.039202858, 0.27930513, -1332697.6, -8201.746, 0.000009295233, 9.997769, 10.000988 
1.30499e+3, 1.748488e+2, -1323190.5, -1154631.4, -31697.314, 0.06794672, 0.052285954, -1148867.9, 77632.695, 0.0, 9.998801, 10.0010395 
1.3050114e+3, 1.8484896e+2, -1189842.3, -1231801.0, 43195.01, 0.043385614, 0.056604728, -1162801.4, -34304.477, 0.0, 9.999853, 9.999338 
1.3050334e+3, 1.948502e+2, -934010.4, -1050687.1, 26880.441, -0.011528433, 0.22204307, -928115.4, 102371.195, 0.0, 10.000912, 9.999395 
1.3050553e+3, 2.0484944e+2, -822339.6, -1017248.2, 12755.824, -0.05290457, 0.24641101, -821508.4, 110985.46, 0.0, 10.001322, 9.99875 
1.3050768e+3, 2.1484652e+2, -759034.7, -926825.3, 21463.205, -0.08968048, 0.053954765, -756332.7, 78187.31, 0.0, 10.00105, 9.998826 
1.3050985e+3, 2.2484474e+2, -641186.94, -881353.44, -8371.496, -0.083522685, 0.027256157, -640895.5, 95640.75, 0.0, 10.001444, 9.998279 
1.3051204e+3, 2.34844e+2, -384419.38, -696432.4, -80641.01, -0.027579192, 0.0988068, -364809.8, 273733.6, 0.0, 10.002495, 9.998364 
1.3051419e+3, 2.4484225e+2, -346180.88, -778088.56, -79446.03, -0.014439962, 0.15955377, -332030.97, 208532.48, 0.0, 10.002718, 9.99703 
1.305163e+3, 2.548392e+2, -335914.7, -715965.1, -44495.965, -0.04191188, 0.12906285, -330774.66, 111824.336, 0.0, 10.002086, 9.99709 
1.3051853e+3, 2.648372e+2, -141464.66, -461539.6, 23456.7, -0.021780457, 0.18019961, -139754.77, 204865.6, 0.000000026393016, 10.002286, 9.998069 
1.3052087e+3, 2.748362e+2, 124866.49, -274680.16, 1570.229, 0.045473587, 0.24658434, 124872.664, 371500.34, 0.0000066700077, 10.003404, 9.998143 
1.3052309e+3, 2.8483436e+2, 171540.78, -331059.5, 3708.5195, 0.011160364, 0.3111187, 171568.16, 320214.6, 0.0000750639, 10.003622, 9.9969635 
1.305252e+3, 2.9483128e+2, 171667.33, -282521.66, -23654.457, -0.12901875, 0.276982, 172895.95, 223576.27, 0.00033457708, 10.002951, 9.996948 
1.3052736e+3, 3.0482772e+2, 334569.38, -86971.27, -57086.242, -0.21283016, 0.20179166, 342163.34, 342163.34, 0.0008745093, 10.003346, 9.997777 
1.3052987e+3, 3.1482768e+2, 625694.2, 159418.28, -83117.94, 0.0873192, 0.37498567, 640067.7, 640067.7, 0.001655077, 10.004837, 9.998759 
1.3148868e+3, 1.2482906e+2, -2140930.8, -1848419.5, 202202.75, 0.1507385, 0.23078017, -1745122.1, -28423.105, 0.005819013, 9.996736, 10.000638 
1.314906e+3, 1.348298e+2, -1786426.4, -1728611.6, 17945.086, 0.3176035, 0.32025924, -1723494.5, -104800.09, 0.0032902497, 9.998937, 9.999743 
1.3149217e+3, 1.4483017e+2, -1684878.9, -1651612.4, 134806.03, -0.14923206, 0.39509115, -1532417.4, -11723.835, 0.0013013786, 9.999059, 9.999528 
1.3149442e+3, 1.5482973e+2, -1753856.1, -1626651.5, 73786.8, -0.08983623, 0.37111104, -1592838.5, -170138.28, 0.00026992275, 9.997888, 9.999589 
1.3149671e+3, 1.648295e+2, -1597087.3, -1386379.3, 16222.93, 0.043118265, 0.3458627, -1385137.5, -60436.555, 0.00001153221, 9.997787, 10.000618 
1.3149899e+3, 1.7482942e+2, -1341831.8, -1200694.8, 14534.281, 0.15518521, 0.24753831, -1199213.6, 27482.254, 0.0, 9.998822, 10.000716 
1.3150121e+3, 1.8482938e+2, -1206937.4, -1262753.0, 71051.21, 0.11296909, 0.25793344, -1158509.6, -29814.865, 0.0, 9.999834, 9.999135 
1.315034e+3, 1.9482926e+2, -954400.7, -1083788.3, 73586.195, -0.06655651, 0.30575958, -921113.8, 109585.484, 0.0, 10.000866, 9.999192 
1.3150561e+3, 2.0482832e+2, -801956.25, -952199.2, -7636.8027, -0.1283702, 0.30014566, -801569.06, 131137.28, 0.0, 10.001226, 9.999242 
1.3150783e+3, 2.1482646e+2, -740378.2, -864919.3, 19639.223, -0.06381503, 0.16426232, -737354.6, 97362.49, 0.0, 10.000941, 9.999308 
1.3151e+3, 2.2482471e+2, -773102.06, -1120009.9, 20821.156, -0.08413248, 0.19268289, -771856.9, -35121.477, 0.0, 10.001298, 9.996711 
1.3151217e+3, 2.348229e+2, -522027.84, -945431.7, -27688.69, -0.18199264, 0.32119933, -520224.8, 118538.3, 0.0, 10.002337, 9.996734 
1.315143e+3, 2.4482086e+2, -293592.13, -630641.2, -110866.805, -0.19865547, 0.38322464, -260394.16, 280393.2, 0.0, 10.002552, 9.998125 
1.3151646e+3, 2.5481856e+2, -275103.97, -559631.3, -56217.53, -0.123223886, 0.3102555, -264399.13, 178408.45, 0.0, 10.001952, 9.998231 
1.3151874e+3, 2.6481643e+2, -174091.92, -502363.47, 54730.09, -0.06559802, 0.30218953, -165207.64, 179619.36, 0.000000066602475, 10.00217, 9.997844 
1.3152114e+3, 2.7481428e+2, 83801.164, -321494.72, 58759.945, -0.028893346, 0.27626312, 92148.3, 338996.53, 0.0000067822207, 10.003249, 9.99789 
1.3152343e+3, 2.8481254e+2, 130844.375, -401376.38, -29284.943, -0.037529696, 0.39047033, 132450.9, 281318.5, 0.000081605765, 10.003543, 9.996529 
1.3152556e+3, 2.9481116e+2, 132626.33, -351350.34, -31758.336, -0.09759589, 0.56747544, 134701.39, 185587.36, 0.000368061, 10.002885, 9.996516 
1.3152775e+3, 3.0480644e+2, 275620.72, -190778.05, -7424.7056, -0.1758531, 0.42513445, 275738.9, 275738.9, 0.00096515875, 10.003277, 9.9970875 
1.315303e+3, 3.148013e+2, 570047.44, 115597.93, 21636.793, 0.0028508862, 0.16185471, 571075.25, 571075.25, 0.0018296523, 10.00455, 9.998585 
1.3248846e+3, 1.2480856e+2, -2093643.6, -1869929.9, 148569.73, 0.24882546, 0.23184432, -1795816.5, -78918.05, 0.006183249, 9.997209, 10.000276 
1.3249029e+3, 1.348095e+2, -1873752.9, -1763925.3, -149775.38, 0.15466978, 0.33986798, -1659314.1, -40420.496, 0.0035072896, 9.998322, 9.999784 
1.3249207e+3, 1.4480992e+2, -1739693.3, -1713332.1, -26498.154, -0.13646618, 0.43418455, -1696917.5, -176025.22, 0.0013982238, 9.998833, 9.999212 
1.3249433e+3, 1.5480855e+2, -1591432.9, -1587447.5, -17089.54, -0.0100520495, 0.34974438, -1572234.9, -149327.67, 0.00029637254, 9.999166, 9.999244 
1.3249665e+3, 1.6480787e+2, -1384934.5, -1354840.6, 24881.334, 0.11949828, 0.33068037, -1340810.3, -15897.442, 0.000014169166, 9.999557, 9.999974 
1.3249892e+3, 1.7480792e+2, -1211521.3, -1214547.3, -23165.89, 0.15422238, 0.31166568, -1189819.0, 37089.95, 0.0, 10.00005, 10.000029 
1.3250117e+3, 1.8480764e+2, -1179980.6, -1263960.4, 25309.777, 0.08886778, 0.340175, -1172942.6, -44031.02, 0.0, 10.000092, 9.998996 
1.3250342e+3, 1.948069e+2, -1134692.5, -1183997.5, 11316.994, -0.06370935, 0.3414477, -1132219.0, -101296.766, 0.0, 9.999703, 9.999055 
1.3250569e+3, 2.0480584e+2, -954415.5, -1029859.6, -59943.953, -0.101627685, 0.33050534, -921312.2, 11618.57, 0.0, 10.00019, 9.999209 
1.3250798e+3, 2.1480434e+2, -648069.94, -822392.6, -89382.375, -0.020977445, 0.23370856, -610386.1, 224551.88, 0.0, 10.001585, 9.999289 
1.325102e+3, 2.2480273e+2, -671829.5, -1046219.2, -42347.324, -0.04752993, 0.26904976, -667099.4, 69855.32, 0.0, 10.001895, 9.996926 
1.3251232e+3, 2.3480092e+2, -690627.1, -996838.2, 22145.332, -0.17804122, 0.3721168, -689033.8, -50051.285, 0.0, 10.001063, 9.996989 
1.3251448e+3, 2.4479902e+2, -467020.66, -686653.5, 10215.924, -0.20017837, 0.4239283, -466546.5, 74457.49, 0.0, 10.001238, 9.998375 
1.3251668e+3, 2.5479698e+2, -181881.19, -482442.72, -21903.494, -0.10879607, 0.3512544, -180293.34, 262725.78, 0.0, 10.002462, 9.998509 
1.3251899e+3, 2.6479462e+2, -132568.05, -556141.06, 56557.188, -0.050645486, 0.33504838, -125146.34, 219894.95, 0.0000000978673, 10.002779, 9.997176 
1.325214e+3, 2.7479157e+2, -125070.734, -499504.5, 5251.2114, -0.032885876, 0.29187632, -124997.11, 122076.88, 0.000006920427, 10.002141, 9.997204 
1.3252376e+3, 2.847892e+2, 21687.186, -449301.1, -37488.758, -0.005923507, 0.3772733, 24652.47, 173752.22, 0.000086783104, 10.0027895, 9.996556 
1.3252605e+3, 2.9478756e+2, 440072.84, -195446.44, -38098.71, 0.024641959, 0.52348405, 442348.66, 493467.03, 0.0003935442, 10.004977, 9.996573 
1.3252828e+3, 3.0478287e+2, 529003.44, -149361.42, -4356.4575, -0.08402686, 0.42065254, 529031.4, 529031.4, 0.0010369824, 10.005371, 9.996364 
1.3253058e+3, 3.1477717e+2, 419225.16, -8782.791, -11982.951, -0.10717018, 0.1709778, 419560.4, 419560.4, 0.0019697412, 10.003721, 9.998128 
1.3348797e+3, 1.247852e+2, -2107898.0, -1897266.5, 175363.95, -0.0062834434, 0.26895815, -1798024.4, -80897.08, 0.0065457188, 9.997205, 10.00009 
1.3348979e+3, 1.3478516e+2, -1844958.6, -1702681.0, -113168.984, -0.19624028, 0.23923619, -1640148.8, -21016.104, 0.0037237175, 9.998315, 10.000207 
1.334921e+3, 1.4478539e+2, -1669076.0, -1575247.6, -30512.525, -0.007860182, 0.24382327, -1566197.9, -45066.695, 0.0014951822, 9.99886, 10.000153 
1.3349445e+3, 1.5478548e+2, -1524601.8, -1457875.4, 5363.49, 0.15487707, 0.21919297, -1457447.0, -34319.867, 0.00032323142, 9.999193, 10.000126 
1.3349669e+3, 1.6478515e+2, -1455832.5, -1502528.8, 32040.693, 0.17883076, 0.23859093, -1439535.5, -114405.72, 0.000017128494, 9.999558, 9.9989605 
1.3349879e+3, 1.7478438e+2, -1282532.6, -1366213.6, 4873.273, -0.0068834727, 0.24202712, -1282249.9, -55110.715, 0.00000000003443261, 10.000064, 9.998982 
1.3350101e+3, 1.8478379e+2, -1186521.5, -1282189.6, 211.02196, -0.110430434, 0.2975981, -1186521.0, -57373.94, 0.0, 10.000107, 9.998867 
1.3350339e+3, 1.9478317e+2, -1144839.3, -1204003.8, 4466.6846, -0.083134525, 0.32401565, -1144504.0, -113348.6, 0.0, 9.999688, 9.99893 
1.3350578e+3, 2.0478201e+2, -1003991.2, -1112183.8, -19532.86, -0.05708211, 0.33564046, -1000572.75, -67406.19, 0.0, 10.000101, 9.998687 
1.3350815e+3, 2.1478017e+2, -705120.9, -913878.06, -27238.627, -0.038850985, 0.2560811, -701625.3, 133556.94, 0.0, 10.001458, 9.998728 
1.3351038e+3, 2.247788e+2, -556187.4, -773394.9, -79409.8, -0.059934713, 0.25021338, -530252.3, 206942.0, 0.0, 10.001752, 9.998867 
1.335125e+3, 2.34778e+2, -564803.44, -715255.1, 1326.2163, -0.11082548, 0.2550718, -564791.75, 74410.53, 0.0, 10.000968, 9.998971 
1.335147e+3, 2.4477665e+2, -516965.28, -768190.25, 42945.758, -0.12576185, 0.28576034, -509826.72, 31387.813, 0.0, 10.001143, 9.997859 
1.3351695e+3, 2.5477457e+2, -238022.84, -576653.4, 32290.91, -0.09623538, 0.2647069, -234971.17, 208262.19, 0.0, 10.002364, 9.9979105 
1.3351926e+3, 2.6477176e+2, -219865.53, -723968.25, 22861.533, -0.069579326, 0.29265413, -218830.86, 126432.1, 0.00000008871969, 10.002713, 9.996059 
1.335216e+3, 2.7476802e+2, -210382.16, -665375.3, -5435.5415, -0.05468816, 0.2885914, -210317.22, 36988.664, 0.000006673535, 10.002087, 9.996094 
1.3352408e+3, 2.8476438e+2, 40610.29, -399703.94, 29776.607, 0.0023083996, 0.28229386, 42614.832, 191958.2, 0.00008870036, 10.002741, 9.996921 
1.3352668e+3, 2.9476076e+2, 440718.1, -152039.55, 59189.203, 0.12861887, 0.19091606, 446570.56, 497945.75, 0.00040607934, 10.004791, 9.9969635 
1.3352887e+3, 3.047575e+2, 458307.8, -254698.84, -66284.914, -0.04221661, 0.24307339, 464417.66, 464417.66, 0.0010795484, 10.005203, 9.995716 
1.335307e+3, 3.1475455e+2, 333221.78, -135910.61, -28457.531, -0.3996809, 0.33736876, 334941.72, 334941.72, 0.002058819, 10.0035095, 9.997356 
1.3448764e+3, 1.2476076e+2, -2242339.3, -1926757.0, 78730.1, 0.01934097, 0.33862707, -1908206.1, -190836.38, 0.0069055543, 9.996143, 10.000393 
1.3448952e+3, 1.3476059e+2, -1884478.0, -1660691.3, -154944.78, -0.26922232, 0.24299264, -1581461.6, 37913.527, 0.0039389143, 9.997787, 10.000756 
1.3449217e+3, 1.4476074e+2, -1678914.6, -1519774.0, -114796.15, 0.19422701, 0.18481871, -1459667.6, 61705.72, 0.0015916337, 9.99855, 10.000675 
1.3449442e+3, 1.5476161e+2, -1597043.9, -1436693.9, -135748.81, 0.25843397, 0.19096148, -1359211.8, 64148.195, 0.0003501717, 9.998477, 10.000606 
1.3449661e+3, 1.6476169e+2, -1557221.6, -1550567.5, -42360.445, 0.1895975, 0.22864866, -1511403.6, -186045.56, 0.000020254476, 9.998867, 9.998963 
1.3449872e+3, 1.7476091e+2, -1321627.1, -1379970.5, -11755.285, -0.06230901, 0.23032698, -1319347.8, -91978.94, 0.0000000014653116, 9.999795, 9.999009 
1.34501e+3, 1.8476015e+2, -1159032.3, -1290246.9, 8538.885, -0.1493752, 0.27774724, -1158479.0, -29100.42, 0.0, 10.00039, 9.998673 
1.3450344e+3, 1.9475925e+2, -1016076.75, -1164902.6, -12388.46, -0.042561073, 0.296085, -1015052.56, 16336.645, 0.0, 10.000676, 9.998722 
1.3450585e+3, 2.0475796e+2, -924381.3, -1087855.3, 16577.803, -0.003252063, 0.31343108, -922717.1, 10685.684, 0.0, 10.000713, 9.998556 
1.3450822e+3, 2.1475622e+2, -859933.8, -992912.44, 16780.867, -0.042724445, 0.25470087, -857848.9, -22428.768, 0.0, 10.000441, 9.998658 
1.345105e+3, 2.2475515e+2, -624648.9, -738609.7, -55352.254, -0.07696487, 0.25155747, -602189.75, 135239.17, 0.0, 10.000977, 9.999488 
1.3451268e+3, 2.3475476e+2, -315115.97, -523112.44, -88994.51, -0.09807749, 0.2335517, -282235.94, 357193.4, 0.0, 10.00237, 9.999619 
1.3451491e+3, 2.4475351e+2, -275094.9, -679844.44, -65660.6, -0.10250879, 0.25435963, -264709.56, 276729.9, 0.0, 10.002946, 9.997594 
1.3451721e+3, 2.547512e+2, -218382.88, -598684.1, -75576.6, -0.08751144, 0.24231903, -203914.14, 239547.53, 0.0, 10.00265, 9.9976225 
1.3451956e+3, 2.6474833e+2, -166688.67, -725721.1, -22029.998, -0.065880045, 0.29017064, -165821.88, 179671.19, 0.000000062099474, 10.003206, 9.995806 
1.3452196e+3, 2.7474463e+2, 169146.83, -507938.44, -13836.975, -0.042531073, 0.31505612, 169429.48, 416965.84, 0.0000065347235, 10.004811, 9.995855 
1.3452445e+3, 2.8474075e+2, 353761.8, -256345.03, 49549.508, 0.009269571, 0.30425593, 357759.75, 507335.84, 0.00008983349, 10.00492, 9.99686 
1.3452706e+3, 2.9473692e+2, 231503.31, -248687.25, 16740.518, 0.106543906, 0.1941058, 232086.22, 283696.3, 0.00041177458, 10.003338, 9.996996 
1.3452931e+3, 3.0473438e+2, 201216.58, -365611.53, -75381.56, -0.014703832, 0.30693987, 211070.17, 211070.17, 0.0010986787, 10.003348, 9.995868 
1.3453121e+3, 3.1473175e+2, 551022.75, -36591.027, -16782.768, -0.31049922, 0.4225213, 551501.7, 551501.7, 0.0021001054, 10.005029, 9.997312 
1.3548747e+3, 1.2473515e+2, -2187560.8, -1808919.9, -50968.95, 0.17514557, 0.4005357, -1802179.0, -84551.484, 0.0072628423, 9.996137, 10.001204 
1.3548945e+3, 1.3473603e+2, -1839428.4, -1565576.1, -78930.6, -0.12347344, 0.3445106, -1544455.4, 75163.89, 0.004152666, 9.9977865, 10.00141 
1.3549222e+3, 1.4473623e+2, -1681447.1, -1528208.6, -127623.29, 0.36925837, 0.26720247, -1455971.5, 65644.44, 0.0016872559, 9.998562, 10.000611 
1.3549423e+3, 1.5473706e+2, -1594032.1, -1441018.9, -129426.14, 0.21001472, 0.26922807, -1367177.9, 56426.965, 0.0003769789, 9.998511, 10.000563 
1.354964e+3, 1.6473748e+2, -1479097.8, -1397799.4, -23118.719, 0.06496329, 0.29031363, -1391685.0, -66086.086, 0.000023370363, 9.9989, 10.0 
1.3549869e+3, 1.7473738e+2, -1248084.1, -1230914.9, 29955.205, -0.08168113, 0.258352, -1208338.5, 19260.55, 0.0000000068048798, 9.999796, 10.000039 
1.3550107e+3, 1.8473668e+2, -1181499.8, -1330112.0, 8343.118, -0.121205404, 0.27223897, -1181032.9, -51426.41, 0.0, 10.000364, 9.998408 
1.3550355e+3, 1.947351e+2, -1041503.7, -1211513.1, 8375.525, -0.026306648, 0.25082874, -1041092.06, -9468.034, 0.0, 10.000643, 9.99842 
1.3550593e+3, 2.0473368e+2, -921206.6, -1059884.0, -4213.0684, -0.020668188, 0.25943664, -921078.75, 12560.557, 0.0, 10.000624, 9.998791 
1.3550821e+3, 2.1473247e+2, -859099.6, -965509.06, 13971.622, -0.10843183, 0.22756971, -857295.75, -21643.484, 0.0, 10.000323, 9.998906 
1.355105e+3, 2.2473167e+2, -691010.25, -835446.6, -17325.816, -0.1731265, 0.26668406, -688961.0, 48699.01, 0.0, 10.000805, 9.998904 
1.3551281e+3, 2.3473126e+2, -380570.28, -623393.2, -27995.262, -0.2123962, 0.30821595, -377384.5, 262278.44, 0.0, 10.002217, 9.999003 
1.3551512e+3, 2.4472974e+2, -298286.84, -696990.2, -85041.57, -0.20755717, 0.33539385, -280905.6, 260771.38, 0.0, 10.002807, 9.997547 
1.3551742e+3, 2.547269e+2, -237382.25, -610834.25, -74817.52, -0.1607521, 0.2714374, -222950.94, 220753.06, 0.0, 10.002531, 9.997598 
1.3551983e+3, 2.6472414e+2, -147828.86, -662411.25, 25980.648, -0.12305629, 0.310068, -146520.45, 199212.38, 0.000000036385206, 10.0031, 9.996293 
1.3552241e+3, 2.7472126e+2, 175073.61, -453608.44, 59675.58, -0.08218084, 0.37121633, 180687.98, 428453.9, 0.0000068750182, 10.004629, 9.99632 
1.3552487e+3, 2.847183e+2, 299638.16, -333124.06, -14497.925, -0.083243035, 0.44810638, 299970.16, 449768.47, 0.00009118057, 10.004766, 9.996405 
1.3552718e+3, 2.947154e+2, 183962.58, -329050.28, -25705.145, -0.12641303, 0.4808668, 185247.34, 237075.88, 0.00041364625, 10.003251, 9.996491 
1.3552958e+3, 3.0471286e+2, 248967.97, -239158.92, -25069.328, -0.09425464, 0.576395, 250252.1, 250252.1, 0.0010985584, 10.003254, 9.996771 
1.3553199e+3, 3.1470853e+2, 540649.3, 10051.172, 79711.71, -0.07593441, 0.42646518, 552365.6, 552365.6, 0.0020953564, 10.004758, 9.997753 
1.3648716e+3, 1.2470877e+2, -2099819.8, -1665893.5, -42823.05, 0.25903973, 0.335261, -1661707.8, 56181.113, 0.0076198755, 9.996284, 10.002122 
1.364893e+3, 1.3471143e+2, -1872426.3, -1523187.5, -5238.6826, -0.01609734, 0.39728168, -1523109.0, 96751.836, 0.004366158, 9.997293, 10.001941 
1.3649206e+3, 1.4471197e+2, -1755368.4, -1586266.9, -69171.88, 0.37811413, 0.3372766, -1561576.8, -39722.816, 0.0017823466, 9.998155, 10.000407 
1.3649407e+3, 1.5471204e+2, -1489286.4, -1410322.6, -101342.76, 0.14543979, 0.2847298, -1341042.5, 82809.89, 0.0004035849, 9.999333, 10.00037 
1.3649628e+3, 1.6471235e+2, -1355866.3, -1317197.0, -26853.846, 0.02050852, 0.2984469, -1303441.5, 22406.719, 0.000026350568, 9.999648, 10.00019 
1.3649869e+3, 1.7471306e+2, -1338731.5, -1248473.0, -59119.313, -0.018426904, 0.32153678, -1219226.5, 8613.89, 0.000000016360648, 9.999066, 10.000264 
1.3650113e+3, 1.847126e+2, -1325741.8, -1362874.4, -50838.91, -0.029887594, 0.33248332, -1290185.0, -160340.36, 0.0, 9.999213, 9.99874 
1.365036e+3, 1.9471069e+2, -1084031.6, -1187424.3, -23376.385, 0.0027067475, 0.24291216, -1078992.0, -47128.074, 0.0, 10.0001745, 9.998803 
1.3650599e+3, 2.0470951e+2, -907567.9, -1043429.2, -26721.305, -0.01549806, 0.24975841, -902501.25, 31375.172, 0.0, 10.000666, 9.998891 
1.3650827e+3, 2.1470912e+2, -809072.75, -932257.3, -37486.992, -0.09262028, 0.29405403, -798561.75, 37320.24, 0.0, 10.000623, 9.998998 
1.3651061e+3, 2.2470832e+2, -730914.6, -902875.5, -11918.644, -0.14537038, 0.34899038, -730092.44, 7797.9995, 0.0, 10.000738, 9.998467 
1.36513e+3, 2.3470698e+2, -593452.2, -780185.7, -34548.55, -0.17600869, 0.34292674, -587265.1, 52637.94, 0.0, 10.000982, 9.998524 
1.3651535e+3, 2.4470499e+2, -466185.94, -774571.1, -78125.47, -0.18612757, 0.34797788, -447523.25, 94398.4, 0.0, 10.001644, 9.997569 
1.3651764e+3, 2.5470215e+2, -188526.14, -581413.8, -87349.92, -0.18521035, 0.28320563, -169981.17, 273966.66, 0.0, 10.002844, 9.997643 
1.3652013e+3, 2.646994e+2, -101552.086, -597739.9, 34836.414, -0.14285226, 0.2989597, -99118.23, 246856.88, 0.000000033203506, 10.003239, 9.996671 
1.365228e+3, 2.7469656e+2, -69484.04, -519350.5, 39034.8, -0.048832625, 0.32022458, -66122.125, 181882.81, 0.0000069323874, 10.002736, 9.996773 
1.3652527e+3, 2.8469387e+2, 37195.484, -456806.2, -18742.244, -0.050971422, 0.39998013, 37905.54, 187939.5, 0.00008947194, 10.002971, 9.996413 
1.3652752e+3, 2.946915e+2, 325012.72, -250337.4, -16015.315, -0.14655028, 0.48705357, 325458.2, 377519.0, 0.00040406178, 10.004196, 9.996567 
1.3653001e+3, 3.0468893e+2, 520308.44, -119144.37, 37470.16, -0.078274265, 0.57609636, 522496.6, 522496.6, 0.0010701418, 10.005158, 9.996686 
1.3653257e+3, 3.1468406e+2, 612410.0, -20675.885, 23679.158, 0.0060079214, 0.3894197, 613294.44, 613294.44, 0.002038269, 10.005491, 9.997214 
1.3748673e+3, 1.24681726e+2, -2034844.5, -1527531.3, -72801.805, 0.14959416, 0.12921491, -1517290.6, 200862.48, 0.0079810945, 9.996287, 10.003065 
1.3748902e+3, 1.3468675e+2, -1845403.8, -1469207.9, 34684.527, -0.04564716, 0.38958734, -1466036.9, 154062.9, 0.0045821774, 9.997298, 10.002312 
1.3749164e+3, 1.4468794e+2, -1777840.5, -1635797.1, -42756.816, 0.12030677, 0.39229724, -1623919.9, -101833.03, 0.0018779465, 9.998167, 10.000062 
1.3749385e+3, 1.5468651e+2, -1512405.3, -1461303.1, -45920.004, -0.018243631, 0.22323176, -1434304.3, -10201.34, 0.00043006244, 9.999344, 10.000014 
1.3749622e+3, 1.6468643e+2, -1395290.5, -1408531.1, -60292.598, -0.0326047, 0.2477047, -1341255.9, -15150.216, 0.000029160963, 9.99968, 9.999556 
1.3749869e+3, 1.7468797e+2, -1376798.8, -1338434.9, -72490.19, 0.045923878, 0.4195125, -1282631.8, -54538.97, 0.000000027808229, 9.999094, 9.999645 
1.3750115e+3, 1.8468793e+2, -1259424.0, -1224115.6, -28948.324, 0.040081374, 0.45768392, -1207863.0, -77769.99, 0.0, 9.999214, 9.99969 
1.3750361e+3, 1.9468592e+2, -1024096.7, -1051025.8, 18676.852, -0.030587228, 0.26167223, -1014536.9, 17572.78, 0.0, 10.00012, 9.999769 
1.3750602e+3, 2.0468529e+2, -917630.75, -1043528.75, -38083.863, -0.07616748, 0.2713613, -907006.94, 27108.535, 0.0, 10.000578, 9.998932 
1.3750835e+3, 2.1468617e+2, -827917.1, -943048.9, -28402.387, -0.08697624, 0.44229233, -821291.7, 14817.717, 0.0, 10.000498, 9.998984 
1.3751076e+3, 2.2468519e+2, -778613.7, -964516.4, -11947.914, -0.091125675, 0.4986718, -777848.94, -39729.508, 0.0, 10.000581, 9.998118 
1.375132e+3, 2.34682e+2, -638328.06, -841094.1, -15144.825, -0.08341203, 0.34053898, -637203.1, 2946.0278, 0.0, 10.000848, 9.998167 
1.3751559e+3, 2.4467927e+2, -482900.0, -782711.75, -47661.957, -0.1314427, 0.29119077, -475505.44, 66668.48, 0.0, 10.001524, 9.997575 
1.375179e+3, 2.5467712e+2, -203837.64, -585073.94, -34195.53, -0.23513788, 0.28746656, -200794.72, 243398.25, 0.0, 10.002718, 9.997682 
1.375204e+3, 2.646743e+2, -94004.15, -556468.5, 7393.296, -0.20734622, 0.28211454, -93885.984, 252332.34, 0.000000022673568, 10.003131, 9.9970045 
1.3752311e+3, 2.746705e+2, -62061.188, -479372.06, 29480.738, -0.032401543, 0.17259498, -59988.824, 188265.03, 0.0000066245593, 10.002639, 9.997091 
1.3752566e+3, 2.846675e+2, 66493.5, -385350.4, 10192.339, 0.0116249, 0.17911832, 66723.3, 217006.83, 0.00008472814, 10.002919, 9.996931 
1.3752805e+3, 2.9466555e+2, 338674.3, -184262.28, 42697.598, -0.06838441, 0.25837797, 342137.63, 394442.56, 0.00038041946, 10.004027, 9.997108 
1.3753054e+3, 3.046628e+2, 426227.78, -273030.13, 46488.863, -0.074214354, 0.3417898, 429304.97, 429304.97, 0.0010070632, 10.004988, 9.995704 
1.3753292e+3, 3.1465814e+2, 467687.75, -250363.0, 59967.14, -0.22194225, 0.2917241, 472661.38, 472661.38, 0.0019225699, 10.005213, 9.995755 
1.3848636e+3, 1.24657616e+2, -1974537.8, -1544878.1, -33013.875, 0.13467677, 0.228442, -1542356.3, 176033.69, 0.008351057, 9.99689, 10.002663 
1.3848874e+3, 1.3466072e+2, -1966868.4, -1592869.0, -50974.668, -0.015291954, 0.3553761, -1586045.8, 34310.207, 0.004803759, 9.996745, 10.001729 
1.3849129e+3, 1.4466184e+2, -1948804.6, -1681480.6, -77042.47, 0.022858487, 0.36833107, -1660866.6, -138522.48, 0.0019753822, 9.996838, 10.000388 
1.3849372e+3, 1.5466172e+2, -1647118.3, -1483215.0, -47415.973, -0.033753, 0.29042315, -1470486.5, -46138.664, 0.00045665295, 9.998232, 10.000401 
1.3849618e+3, 1.6466174e+2, -1474596.0, -1471430.8, -38807.52, -0.0019229674, 0.31488723, -1434173.5, -107823.66, 0.00003186285, 9.99926, 9.999322 
1.3849865e+3, 1.7466201e+2, -1280138.1, -1315824.4, -48591.695, 0.06321945, 0.3841169, -1246217.1, -17867.758, 0.000000039188958, 9.999885, 9.999413 
1.3850111e+3, 1.846619e+2, -1119793.9, -1128286.8, 18300.424, 0.050979555, 0.41539055, -1105253.8, 25096.412, 0.0, 10.000044, 9.999954 
1.385036e+3, 1.9466133e+2, -1038716.5, -1019133.75, -1181.6078, -0.032861445, 0.33225656, -1019062.7, 13289.966, 0.0, 9.999855, 10.000113 
1.3850603e+3, 2.0466092e+2, -1001020.6, -1120872.0, -70986.86, -0.08278717, 0.3628607, -968047.3, -33691.016, 0.0, 10.000166, 9.998594 
1.3850842e+3, 2.1466063e+2, -764036.3, -949159.0, -111503.266, -0.09182537, 0.44951627, -711681.9, 124680.13, 0.0, 10.001095, 9.9986515 
1.3851088e+3, 2.2465904e+2, -621695.2, -897746.7, -81724.516, -0.06473652, 0.46399334, -599315.2, 139062.45, 0.0, 10.00168, 9.998061 
1.3851343e+3, 2.3465586e+2, -471646.53, -764605.25, -80547.945, 0.0070071258, 0.31533754, -450960.78, 189445.17, 0.0, 10.001999, 9.998145 
1.3851587e+3, 2.4465327e+2, -362560.97, -729504.06, -58193.395, -0.028155178, 0.284494, -353553.22, 188875.75, 0.0, 10.002383, 9.997516 
1.3851821e+3, 2.5465143e+2, -176371.03, -575252.5, -76682.3, -0.1908395, 0.31768155, -162137.3, 282308.38, 0.0, 10.002933, 9.997636 
1.3852073e+3, 2.6464853e+2, -42921.555, -525354.7, -60307.684, -0.19655208, 0.30245388, -35496.918, 310974.66, 0.0000000049794013, 10.003456, 9.99706 
1.3852344e+3, 2.7464423e+2, 145843.08, -374578.5, -77878.21, -0.027639851, 0.13969423, 157247.22, 405757.56, 0.0000064670485, 10.004035, 9.997144 
1.3852601e+3, 2.8464115e+2, 247563.86, -296202.75, -90693.13, 0.009612373, 0.13803248, 262291.4, 412831.78, 0.000079933714, 10.00415, 9.996958 
1.385284e+3, 2.9463953e+2, 317056.4, -182574.88, -119441.7, -0.09001343, 0.24429494, 344141.78, 396701.78, 0.0003520002, 10.003826, 9.997213 
1.38531e+3, 3.0463666e+2, 380335.06, -227954.66, -42616.363, -0.05898867, 0.2855833, 383306.22, 383306.22, 0.000928383, 10.004375, 9.996309 
1.3853355e+3, 3.146331e+2, 578640.9, -131790.23, 40313.29, -0.13396019, 0.2778329, 580921.1, 580921.1, 0.0017774237, 10.005683, 9.996343 
1.3948603e+3, 1.24636e+2, -2108737.0, -1800486.6, -16419.383, 0.07747701, 0.59244454, -1799614.5, -81010.44, 0.008733579, 9.996826, 10.000916 
1.3948844e+3, 1.3463332e+2, -2072497.0, -1810952.3, -66658.664, -0.0196416, 0.2893171, -1794943.3, -174313.39, 0.005033633, 9.996744, 10.000229 
1.3949098e+3, 1.446338e+2, -1871467.8, -1527439.6, -50114.516, 0.0045182146, 0.2645667, -1520288.1, 2336.693, 0.002076125, 9.996859, 10.001438 
1.3949358e+3, 1.5463774e+2, -1568853.9, -1321649.6, 15815.02, -0.000032553482, 0.4837944, -1320642.0, 103944.445, 0.00048381835, 9.998227, 10.001517 
1.3949615e+3, 1.6463831e+2, -1463019.1, -1453669.3, -27926.629, 0.005377157, 0.5005894, -1430029.0, -103448.64, 0.000034571214, 9.999284, 9.999435 
1.3949855e+3, 1.74635e+2, -1280527.9, -1312186.0, -19481.264, -0.03902472, 0.2053757, -1271255.6, -42644.066, 0.00000005013657, 9.999862, 9.999452 
1.39501e+3, 1.846344e+2, -1132686.8, -1160996.1, -3134.622, -0.080973916, 0.19817524, -1132343.9, -1727.0132, 0.0, 10.000064, 9.999722 
1.3950354e+3, 1.9463691e+2, -1063898.5, -1064206.1, -515.249, -0.08600558, 0.45030698, -1063514.6, -30922.057, 0.0, 9.999812, 9.999831 
1.3950603e+3, 2.046365e+2, -1062344.5, -1226451.0, -48460.313, -0.12008187, 0.5278434, -1049102.8, -114504.805, 0.0, 10.000076, 9.9979105 
1.3950844e+3, 2.146326e+2, -836216.9, -1065855.6, -68295.17, -0.19104663, 0.32615614, -817440.9, 19197.842, 0.0, 10.000955, 9.997918 
1.3951097e+3, 2.2462994e+2, -617076.7, -865264.4, -79449.22, -0.15629546, 0.25829977, -593822.44, 144841.75, 0.0, 10.001571, 9.998339 
1.3951366e+3, 2.346287e+2, -466580.38, -729358.25, -57143.953, 0.017723763, 0.27075782, -454691.7, 185980.38, 0.0, 10.001883, 9.998446 
1.395162e+3, 2.446272e+2, -392697.13, -761357.06, -47080.082, 0.03169133, 0.33640313, -386779.7, 155905.2, 0.0, 10.002253, 9.997359 
1.3951857e+3, 2.546251e+2, -214895.5, -618950.6, -44661.14, -0.13895144, 0.36741152, -210017.89, 234687.88, 0.0, 10.002783, 9.997405 
1.3952109e+3, 2.64622e+2, -73582.2, -565058.5, -48062.21, -0.19424933, 0.3553213, -68926.234, 277808.8, 0.0000000011462398, 10.003346, 9.996842 
1.3952377e+3, 2.7461782e+2, 107411.29, -417418.25, -41891.113, -0.11055646, 0.22132517, 110733.94, 359507.22, 0.0000063015364, 10.003866, 9.996936 
1.3952628e+3, 2.84615e+2, 189012.98, -377140.63, -108673.11, -0.14384937, 0.2805524, 209156.1, 359958.38, 0.00007549202, 10.003981, 9.996479 
1.395286e+3, 2.9461333e+2, 254213.14, -277433.75, -111412.336, -0.29685962, 0.4317355, 276616.72, 329442.13, 0.0003283142, 10.003675, 9.996634 
1.395314e+3, 3.0461043e+2, 507892.84, 70607.38, -2275.5342, -0.13266511, 0.40003592, 507904.7, 507904.7, 0.00086549856, 10.0042305, 9.99843 
1.3953437e+3, 3.1460905e+2, 692114.06, 197483.64, 101878.74, 0.0739219, 0.3800251, 712276.1, 712276.1, 0.0016603988, 10.00529, 9.9987955 
1.4048572e+3, 1.2460997e+2, -2229841.8, -1911248.5, -36110.89, 0.1269297, 0.64982957, -1907206.8, -188347.48, 0.009133226, 9.996194, 10.000468 
1.4048819e+3, 1.3460644e+2, -1888680.5, -1727188.5, -41098.637, 0.01451812, 0.26491535, -1717330.9, -96436.56, 0.005275387, 9.998012, 10.000198 
1.4049083e+3, 1.4460702e+2, -1640383.1, -1417532.8, 5288.2754, 0.10723083, 0.24775903, -1417407.4, 105481.91, 0.0021822979, 9.998439, 10.001437 
1.4049344e+3, 1.5461163e+2, -1692770.0, -1387756.5, -42942.46, 0.0729659, 0.5391665, -1381826.0, 43019.316, 0.00051218417, 9.9974, 10.001467 
1.40496e+3, 1.6461256e+2, -1687094.1, -1506417.1, -56446.01, 0.03410908, 0.5716791, -1490232.4, -163397.11, 0.000037386584, 9.997516, 9.999916 
1.404985e+3, 1.746092e+2, -1323975.5, -1272025.8, -32818.15, -0.030900655, 0.21486641, -1256147.0, -27282.512, 0.00000006103049, 9.999301, 9.999989 
1.4050102e+3, 1.8460843e+2, -1158511.3, -1214563.3, -32156.686, -0.058309723, 0.18114258, -1143881.6, -13010.735, 0.0, 10.000074, 9.999344 
1.4050357e+3, 1.9461071e+2, -1097933.4, -1123059.0, -65865.555, -0.036721263, 0.4487017, -1043443.25, -10592.401, 0.0, 9.999769, 9.999442 
1.4050609e+3, 2.0461014e+2, -1050635.9, -1200163.0, -21742.254, -0.061932698, 0.5207785, -1047538.5, -112680.68, 0.0, 10.000068, 9.9981 
1.4050859e+3, 2.1460623e+2, -784299.6, -1010280.25, 11460.492, -0.14470823, 0.2960539, -783719.9, 53176.336, 0.0, 10.001189, 9.998183 
1.4051117e+3, 2.2460367e+2, -596507.0, -882784.4, 11299.584, -0.12868538, 0.23830943, -596061.7, 142858.52, 0.0, 10.00186, 9.998067 
1.4051384e+3, 2.3460266e+2, -462271.97, -750559.94, -36072.7, 0.003927765, 0.29932773, -457826.8, 183100.98, 0.0, 10.00204, 9.998211 
1.405164e+3, 2.44601e+2, -381763.2, -764603.7, -15811.96, 0.023729455, 0.36654085, -381111.25, 161831.58, 0.0, 10.002355, 9.997296 
1.4051889e+3, 2.545984e+2, -204641.16, -618533.5, -20570.68, -0.09755047, 0.3515828, -203621.3, 241347.06, 0.0, 10.002865, 9.997376 
1.4052147e+3, 2.6459527e+2, -108549.625, -578691.44, 3744.8293, -0.13913743, 0.33763534, -108519.8, 238478.19, 0.0000000047036606, 10.003089, 9.996875 
1.4052413e+3, 2.7459183e+2, 170.87814, -458768.56, -4435.384, -0.08575529, 0.27550742, 213.73956, 249243.28, 0.000006310061, 10.003096, 9.997019 
1.4052664e+3, 2.845891e+2, 59201.1, -450787.0, -38520.48, -0.13090318, 0.34300548, 62094.223, 213151.61, 0.000071733004, 10.003142, 9.996371 
1.4052896e+3, 2.9458663e+2, 175219.39, -326945.34, -34652.92, -0.27052054, 0.42806095, 177599.4, 230686.25, 0.0003149259, 10.003198, 9.996517 
1.405318e+3, 3.0458316e+2, 370592.56, 41216.55, 75013.16, -0.09236955, 0.32837668, 386871.72, 386871.72, 0.00083516777, 10.003116, 9.99877 
1.4053482e+3, 3.145824e+2, 396186.2, 142530.16, -10118.892, 0.13827515, 0.33437145, 396589.22, 396589.22, 0.0016041158, 10.00286, 9.999593 
1.4148533e+3, 1.2457885e+2, -2159362.0, -1762170.5, -41232.563, 0.071933374, 0.3158555, -1757935.4, -38773.05, 0.009556688, 9.996183, 10.001499 
1.4148799e+3, 1.3458012e+2, -1784625.5, -1508461.4, 38032.977, -0.006626179, 0.27165562, -1503319.3, 117829.42, 0.0055341963, 9.998001, 10.00171 
1.4149083e+3, 1.4458148e+2, -1705375.5, -1566375.6, -45225.027, 0.22112207, 0.297081, -1552956.8, -29819.156, 0.0022969088, 9.998496, 10.000389 
1.4149323e+3, 1.5458347e+2, -1780206.3, -1570985.4, -75137.1, 0.10562162, 0.4516353, -1546797.8, -121673.71, 0.0005425403, 9.997407, 10.000208 
1.4149573e+3, 1.645846e+2, -1616458.9, -1365872.4, -8356.4, -0.0007358553, 0.52768594, -1365594.0, -38480.613, 0.000040406845, 9.997538, 10.0008745 
1.4149849e+3, 1.7458476e+2, -1255108.0, -1123436.6, 42984.566, 0.007625586, 0.42167005, -1110646.6, 118459.74, 0.00000007226826, 9.99927, 10.001029 
1.4150113e+3, 1.8458422e+2, -1195009.8, -1290796.3, -52968.176, 0.027530454, 0.37864625, -1171493.0, -40382.844, 0.0, 10.000075, 9.998819 
1.4150363e+3, 1.9458275e+2, -1146624.6, -1215843.5, -69623.28, 0.030631112, 0.33196068, -1103483.1, -70355.625, 0.0, 9.999732, 9.998823 
1.4150618e+3, 2.045818e+2, -977975.06, -1040406.9, 1825.1655, 0.006331112, 0.34553182, -977921.75, -42785.465, 0.0, 10.000022, 9.99922 
1.4150883e+3, 2.1458143e+2, -722448.25, -852268.3, 60544.402, -0.028976964, 0.35591245, -698594.94, 138540.42, 0.0, 10.001051, 9.99934 
1.4151143e+3, 2.2458008e+2, -674269.0, -1008509.44, 6361.684, -0.06655616, 0.39600104, -674148.0, 64999.195, 0.0, 10.001706, 9.997274 
1.4151393e+3, 2.3457755e+2, -550307.6, -895999.9, -18746.482, -0.11292138, 0.39396092, -549294.0, 91880.45, 0.0, 10.001885, 9.997283 
1.4151649e+3, 2.445747e+2, -388928.97, -760647.5, -6254.223, -0.14287873, 0.38706735, -388823.78, 154378.81, 0.0, 10.002261, 9.997371 
1.4151914e+3, 2.5457132e+2, -210054.53, -608071.44, 10612.766, -0.14640902, 0.27886656, -209771.75, 235461.33, 0.0, 10.002762, 9.9975 
1.4152181e+3, 2.645684e+2, -112917.555, -560480.06, -4035.927, -0.11474942, 0.2676781, -112881.164, 234378.55, 0.000000079284355, 10.0029745, 9.997051 
1.415245e+3, 2.74566e+2, -6091.439, -448758.3, 11021.025, -0.049759597, 0.2944468, -5817.2197, 243464.4, 0.000007370644, 10.003, 9.99713 
1.4152704e+3, 2.8456318e+2, 79343.84, -404753.94, -45621.285, -0.061428115, 0.3304072, 83605.664, 234914.2, 0.000072022085, 10.003112, 9.996707 
1.4152944e+3, 2.9455942e+2, 179092.95, -296432.03, -15520.299, -0.12763599, 0.24931449, 179598.97, 232944.45, 0.0003160208, 10.003078, 9.996797 
1.4153215e+3, 3.0455482e+2, 248034.5, -171459.22, 58759.12, -0.054057315, 0.09428007, 256109.55, 256109.55, 0.00083869376, 10.002956, 9.997368 
1.415349e+3, 3.145533e+2, 304763.56, 1877.1031, -2892.4888, -0.08774498, 0.1601718, 304791.2, 304791.2, 0.0016078657, 10.002678, 9.9986925 
1.424851e+3, 1.2455105e+2, -1993608.1, -1659871.6, 103720.3, 0.18909268, 0.14412521, -1630263.6, 89168.33, 0.010011913, 9.997227, 10.001706 
1.424877e+3, 1.3455495e+2, -1888621.9, -1522690.0, 113460.98, -0.039655752, 0.337057, -1490365.6, 131028.78, 0.0058154534, 9.997165, 10.002005 
1.424906e+3, 1.4455622e+2, -1806207.6, -1656125.0, 1588.0265, 0.16909538, 0.3565911, -1656108.3, -132723.83, 0.002423067, 9.998007, 9.999997 
1.4249308e+3, 1.5455635e+2, -1517761.1, -1491609.4, 1489.8102, 0.1450875, 0.36756706, -1491524.8, -66136.97, 0.00057589856, 9.99943, 9.999763 
1.4249565e+3, 1.6455705e+2, -1334619.3, -1265527.9, 84315.02, 0.07095201, 0.43411303, -1208955.9, 118426.31, 0.00004378684, 9.99961, 10.000568 
1.4249843e+3, 1.7455849e+2, -1380200.9, -1215242.1, 15304.07, 0.069805175, 0.48513165, -1213834.3, 15531.003, 0.00000008454083, 9.998543, 10.000751 
1.4250115e+3, 1.8455814e+2, -1373233.0, -1380827.5, -73225.67, 0.091499075, 0.47844875, -1303706.3, -172338.08, 0.0, 9.998873, 9.998779 
1.4250371e+3, 1.9455563e+2, -966368.5, -1131320.9, -66407.29, 0.091164984, 0.32943654, -942956.75, 90437.97, 0.0, 10.000983, 9.9988 
1.4250632e+3, 2.0455445e+2, -713262.56, -908032.94, -13462.628, 0.047057442, 0.32092947, -712336.44, 223068.69, 0.0, 10.0018215, 9.999262 
1.4250894e+3, 2.1455474e+2, -689839.4, -831359.7, -62358.92, -0.032389384, 0.3942359, -666282.9, 171114.7, 0.0, 10.001245, 9.9993925 
1.4251158e+3, 2.245536e+2, -711850.9, -1000571.9, -92756.63, -0.06835141, 0.44029883, -684619.56, 54787.523, 0.0, 10.001331, 9.997513 
1.4251417e+3, 2.3455077e+2, -470491.47, -830999.7, -56056.668, -0.06593849, 0.38664496, -461976.16, 179460.53, 0.0, 10.002305, 9.997535 
1.425168e+3, 2.4454792e+2, -296999.25, -694202.7, 14895.621, -0.07879183, 0.35807252, -296441.44, 247023.17, 0.0, 10.002815, 9.997557 
1.4251946e+3, 2.5454494e+2, -168584.4, -562011.9, 7890.3174, -0.11172586, 0.26985177, -168426.22, 277065.16, 0.00000000006254562, 10.002948, 9.997722 
1.4252213e+3, 2.6454222e+2, -44105.793, -512752.16, 17964.947, -0.107768476, 0.26524484, -43418.137, 304097.56, 0.00000036239143, 10.003381, 9.997187 
1.4252482e+3, 2.7453998e+2, 168739.88, -346930.3, 15318.252, -0.06291848, 0.28840187, 169194.52, 418731.16, 0.000010087366, 10.004117, 9.997294 
1.4252743e+3, 2.8453714e+2, 243076.23, -326002.66, -49951.816, -0.03262606, 0.3161933, 247427.56, 398990.63, 0.00007867192, 10.004242, 9.996708 
1.4252992e+3, 2.9453337e+2, 292670.72, -238872.75, -83487.734, 0.0058805984, 0.23661551, 305475.38, 359074.16, 0.00033170477, 10.003858, 9.996813 
1.4253259e+3, 3.0452865e+2, 326599.66, -287439.03, 32117.48, 0.041263875, 0.13432299, 328275.0, 328275.0, 0.0008710458, 10.004132, 9.996021 
1.4253522e+3, 3.14526e+2, 569337.2, 8278.856, -64406.043, -0.14083195, 0.2236801, 576635.7, 576635.7, 0.0016636102, 10.005001, 9.997631 
1.4348496e+3, 1.24527484e+2, -2015065.8, -1725345.8, 32930.1, 0.27657643, 0.1816965, -1721650.0, -1990.6051, 0.010506618, 9.9973, 10.00122 
1.4348733e+3, 1.345314e+2, -1971541.0, -1685615.8, 134523.53, -0.14943312, 0.4791987, -1632275.4, -10648.534, 0.006123269, 9.997129, 10.000895 
1.4349009e+3, 1.4453158e+2, -1775974.9, -1607169.1, 45476.27, -0.16052122, 0.4320742, -1595697.5, -72070.516, 0.002563054, 9.998055, 10.000317 
1.4349301e+3, 1.5453044e+2, -1490310.3, -1437837.5, 64350.758, 0.10750574, 0.28351852, -1394580.3, 31055.205, 0.0006133788, 9.999435, 10.000136 
1.4349572e+3, 1.6452993e+2, -1440170.8, -1491703.5, 33510.953, 0.15385099, 0.28604457, -1423665.5, -96024.62, 0.000047750204, 9.9996395, 9.999003 
1.4349832e+3, 1.7453025e+2, -1495056.6, -1458563.5, -17613.373, 0.07346498, 0.3895307, -1451449.3, -221807.11, 0.00000010052836, 9.998558, 9.999077 
1.4350101e+3, 1.8453012e+2, -1341368.0, -1313265.0, -13749.462, 0.050670784, 0.4715315, -1307657.0, -176011.45, 0.0, 9.998868, 9.999247 
1.435038e+3, 1.9452935e+2, -939325.3, -1057720.9, 21230.59, 0.06382457, 0.44236448, -935633.4, 98019.05, 0.0, 10.000906, 9.999346 
1.4350642e+3, 2.0452817e+2, -794848.75, -1057743.9, -43353.32, -0.032946818, 0.44839394, -787884.0, 147779.63, 0.0, 10.001734, 9.998276 
1.4350888e+3, 2.1452633e+2, -789488.6, -1004169.5, -73590.48, -0.23534201, 0.41499838, -766684.8, 70996.42, 0.0, 10.001098, 9.998277 
1.4351156e+3, 2.2452441e+2, -651221.25, -839050.7, -69077.37, -0.21836719, 0.38898033, -628552.7, 111145.3, 0.0, 10.001179, 9.998695 
1.4351454e+3, 2.3452249e+2, -404266.5, -652555.2, -10352.526, 0.05921449, 0.2951747, -403835.6, 237877.56, 0.0, 10.002134, 9.998842 
1.435173e+3, 2.4452071e+2, -300669.9, -669012.56, 7118.9985, 0.11752944, 0.292684, -300532.38, 243196.33, 0.0, 10.002664, 9.9978075 
1.4351979e+3, 2.54519e+2, -180748.56, -551252.5, 21890.936, -0.08431751, 0.31604874, -179459.64, 266285.75, 0.000000006122379, 10.002792, 9.99787 
1.4352238e+3, 2.6451674e+2, -43803.637, -485341.84, 33937.8, -0.19563267, 0.33649966, -41210.316, 306556.3, 0.0000008787704, 10.003258, 9.997438 
1.4352512e+3, 2.7451384e+2, 162191.02, -323193.72, 56480.867, -0.20310345, 0.27349278, 168676.64, 418470.0, 0.000014147242, 10.003948, 9.997546 
1.4352778e+3, 2.845111e+2, 194291.78, -397260.22, -73079.91, -0.13446233, 0.31105876, 203186.28, 355006.44, 0.00009061613, 10.004105, 9.9962845 
1.4353035e+3, 2.9450813e+2, 243265.9, -330171.3, -81838.61, 0.035482857, 0.35836744, 254716.92, 308567.13, 0.00036054887, 10.003798, 9.996221 
1.4353307e+3, 3.0450422e+2, 245685.25, -441584.6, 56909.844, 0.09155086, 0.4226852, 250365.84, 250365.84, 0.00093367894, 10.004088, 9.994978 
1.4353572e+3, 3.1450024e+2, 442426.06, -178185.39, 4012.7053, -0.18717484, 0.48855728, 442452.0, 442452.0, 0.0017768575, 10.00467, 9.996515 
1.4448464e+3, 1.24502376e+2, -1977775.9, -1737248.1, -43709.83, 0.22255282, 0.23522983, -1729551.3, -9644.673, 0.011047917, 9.997678, 10.000955 
1.4448714e+3, 1.3450551e+2, -1922828.9, -1750910.1, 37909.957, -0.06442788, 0.52654487, -1742921.8, -121038.69, 0.00646129, 9.997833, 10.000104 
1.4448987e+3, 1.4450508e+2, -1741933.6, -1593293.1, 7715.3003, -0.19628312, 0.4661332, -1592893.8, -69005.05, 0.0027186894, 9.998311, 10.000279 
1.4449294e+3, 1.5450376e+2, -1501260.3, -1432683.4, -26130.215, 0.08872016, 0.29227147, -1423861.8, 2034.5607, 0.0006559602, 9.999325, 10.00022 
1.4449573e+3, 1.6450281e+2, -1393304.8, -1515764.9, -52974.39, 0.17039923, 0.26507983, -1373569.4, -45664.305, 0.000052490832, 10.00018, 9.998569 
1.4449833e+3, 1.7450227e+2, -1147193.8, -1338127.5, -34213.2, 0.10887339, 0.33111426, -1141248.3, 88666.805, 0.00000012546444, 10.001167, 9.998635 
1.4450103e+3, 1.8450198e+2, -953601.9, -1115672.5, 57065.133, 0.07460944, 0.4133265, -935525.4, 196394.58, 0.0, 10.001471, 9.9993515 
1.4450385e+3, 1.9450189e+2, -915093.1, -1025639.6, 41225.37, 0.02991306, 0.43459585, -901412.3, 132506.86, 0.0, 10.000985, 9.999522 
1.4450651e+3, 2.0450088e+2, -929073.0, -1134717.9, -22890.156, -0.054673605, 0.45514014, -926555.9, 9372.627, 0.0, 10.000867, 9.998164 
1.4450905e+3, 2.1449865e+2, -775122.8, -1006644.9, -5477.8413, -0.16461779, 0.39529568, -774993.3, 62957.734, 0.0, 10.00124, 9.998189 
1.4451177e+3, 2.2449659e+2, -615307.4, -818107.94, 44875.887, -0.12617926, 0.35342416, -605820.94, 134149.05, 0.0, 10.001402, 9.998734 
1.4451472e+3, 2.344946e+2, -508244.56, -696810.4, -5476.2725, 0.07597992, 0.2472474, -508085.66, 133899.5, 0.0, 10.001382, 9.998901 
1.445175e+3, 2.4449326e+2, -436482.8, -700130.7, -17470.043, 0.1087976, 0.27050808, -435330.22, 108666.65, 0.0, 10.001591, 9.998102 
1.4452004e+3, 2.5449255e+2, -246525.5, -555122.4, -11859.677, -0.0667168, 0.36369422, -246070.39, 199935.31, 0.000000012932129, 10.002198, 9.998139 
1.4452271e+3, 2.644907e+2, -161179.19, -519298.8, 18838.885, -0.14553337, 0.40031922, -160190.89, 187832.89, 0.0000016431604, 10.002366, 9.997623 
1.445255e+3, 2.744875e+2, -82442.12, -415756.88, 4559.89, -0.115239434, 0.2875295, -82379.74, 167672.88, 0.000019343763, 10.002173, 9.99775 
1.4452818e+3, 2.8448442e+2, 59850.64, -463312.44, -61142.66, -0.0855166, 0.28621015, 66901.43, 218983.3, 0.00010729349, 10.003186, 9.996268 
1.4453073e+3, 2.944814e+2, 499387.4, -204822.44, -50927.617, -0.04352368, 0.32629132, 503051.34, 557164.1, 0.00040473163, 10.005549, 9.996229 
1.4453349e+3, 3.044783e+2, 539792.6, -276803.03, 122103.78, 0.0069254474, 0.46343136, 557659.6, 557659.6, 0.0010328956, 10.006007, 9.995198 
1.4453626e+3, 3.1447464e+2, 392112.28, -183471.19, 99844.98, -0.07948562, 0.5303099, 408940.13, 408940.13, 0.0019570412, 10.004261, 9.996668 
1.4548425e+3, 1.24476485e+2, -1984685.5, -1761026.5, 43696.39, 0.0055138473, 0.35631722, -1752792.6, -32626.387, 0.011640448, 9.997725, 10.000764 
1.4548716e+3, 1.3447739e+2, -1964257.1, -1830159.6, 50383.547, 0.14444931, 0.46899396, -1813339.1, -191176.4, 0.0068325973, 9.997804, 9.999577 
1.4548989e+3, 1.4447685e+2, -1770666.6, -1655460.1, 32064.469, -0.035054114, 0.4527999, -1647137.3, -122968.15, 0.0028915813, 9.998321, 9.999847 
1.4549279e+3, 1.5447634e+2, -1525851.4, -1479186.4, 18802.93, -0.0029342694, 0.38884133, -1472553.0, -46382.613, 0.00070428615, 9.999307, 9.999908 
1.4549562e+3, 1.6447571e+2, -1333780.5, -1403837.1, -30960.234, 0.026178282, 0.37587136, -1322059.3, 6114.693, 0.000058062662, 10.000225, 9.999317 
1.4549845e+3, 1.7447469e+2, -1092947.4, -1224812.9, 12960.673, 0.104011685, 0.31294164, -1091685.6, 138497.08, 0.00000016567238, 10.00116, 9.999419 
1.4550121e+3, 1.8447383e+2, -967262.06, -1145499.0, 29943.756, 0.07659558, 0.30703154, -962366.0, 169823.97, 0.0, 10.001477, 9.999144 
1.4550385e+3, 1.9447324e+2, -944219.1, -1075244.9, 31421.363, -0.09303479, 0.30858716, -937073.6, 97120.95, 0.0, 10.000934, 9.999212 
1.4550656e+3, 2.0447256e+2, -891398.56, -1030933.1, -21978.637, -0.109650254, 0.34398028, -888018.5, 48181.973, 0.0, 10.000763, 9.998923 
1.4550944e+3, 2.144717e+2, -738184.56, -894526.75, 16405.48, 0.087205105, 0.336802, -736481.7, 101726.47, 0.0, 10.001093, 9.999028 
1.4551216e+3, 2.2447e+2, -700152.8, -962339.3, 32436.611, 0.108342364, 0.33195248, -696199.5, 44024.938, 0.0, 10.001263, 9.997811 
1.4551471e+3, 2.3446722e+2, -609725.6, -865019.7, 5686.537, -0.09111263, 0.25191098, -609599.06, 32652.564, 0.0, 10.001206, 9.997829 
1.4551738e+3, 2.4446568e+2, -427194.88, -660611.44, -3837.9421, -0.18188246, 0.2971886, -427131.78, 117136.305, 0.0, 10.001489, 9.99843 
1.455202e+3, 2.5446567e+2, -232418.2, -500037.7, 22041.834, -0.13686465, 0.41835064, -230614.92, 215656.08, 0.000000017460069, 10.002084, 9.998575 
1.4552306e+3, 2.6446417e+2, -173635.67, -523418.0, 3281.1194, -0.055467334, 0.46513736, -173604.9, 174680.81, 0.000002726617, 10.002262, 9.99765 
1.4552593e+3, 2.744607e+2, -97050.94, -424946.84, 8832.604, 0.0802901, 0.32435343, -96813.18, 153502.94, 0.000025176965, 10.002082, 9.997731 
1.4552861e+3, 2.844571e+2, 80050.03, -395232.34, 13478.653, 0.0143902125, 0.24663982, 80431.97, 232781.25, 0.0001274956, 10.003074, 9.996793 
1.4553106e+3, 2.9445344e+2, 507143.22, -136426.42, 52447.695, -0.2995309, 0.16749975, 511389.44, 565774.1, 0.00046125852, 10.00532, 9.996817 
1.455338e+3, 3.0445126e+2, 591583.8, -112462.0, 54285.625, -0.28447634, 0.30325282, 595744.94, 595744.94, 0.0011631809, 10.005763, 9.996441 
1.4553678e+3, 3.1444886e+2, 423967.9, -76467.34, 56984.152, -0.015295968, 0.37177253, 430374.63, 430374.63, 0.002197103, 10.004086, 9.997486 
1.4648388e+3, 1.2444937e+2, -2098737.0, -1819709.8, 98533.23, -0.070803724, 0.44334888, -1788422.8, -67989.26, 0.012283002, 9.996947, 10.000747 
1.46487e+3, 1.3444889e+2, -1824590.4, -1759891.6, 30751.408, 0.17524727, 0.4153829, -1747607.8, -125166.76, 0.00723705, 9.998751, 9.999603 
1.4648987e+3, 1.4444831e+2, -1654288.4, -1625631.3, 64271.266, 0.10025156, 0.40787235, -1574110.8, -49663.773, 0.0030819494, 9.999215, 9.999631 
1.4649275e+3, 1.5444812e+2, -1551959.0, -1504447.6, 41027.25, 0.04926747, 0.38901234, -1480794.9, -54348.363, 0.0007585455, 9.9991665, 9.999808 
1.4649561e+3, 1.6444775e+2, -1440534.8, -1422734.0, 18712.932, 0.035610054, 0.3925927, -1410912.6, -82465.305, 0.00006440502, 9.999348, 9.999613 
1.4649846e+3, 1.7444685e+2, -1233591.9, -1257804.8, 3951.1492, 0.0506222, 0.31025776, -1232963.4, -2510.4397, 0.00000022299002, 10.000039, 9.999736 
1.4650124e+3, 1.8444578e+2, -1152756.8, -1273133.4, -20514.023, 0.025871737, 0.28705186, -1149356.9, -16895.154, 0.0, 10.000383, 9.998788 
1.4650396e+3, 1.9444466e+2, -1033869.4, -1155105.5, -49709.66, -0.046226997, 0.269207, -1016093.56, 18379.602, 0.0, 10.000488, 9.998868 
1.4650671e+3, 2.0444377e+2, -900056.8, -1015375.2, -83231.46, -0.029391268, 0.29438958, -856463.56, 80017.97, 0.0, 10.000612, 9.999109 
1.4650954e+3, 2.1444319e+2, -750997.75, -871987.3, -104542.43, 0.09869939, 0.29198486, -690708.7, 147777.33, 0.0, 10.000884, 9.999285 
1.4651227e+3, 2.2444199e+2, -662165.4, -897895.25, -47542.79, 0.09440715, 0.30490926, -652938.0, 87558.8, 0.0, 10.001335, 9.998219 
1.4651488e+3, 2.3443988e+2, -447218.44, -739396.56, 9877.448, -0.07242914, 0.25068855, -446884.9, 195631.81, 0.0, 10.002113, 9.998259 
1.4651759e+3, 2.4443828e+2, -332351.94, -670504.56, 42951.063, -0.1473395, 0.29330537, -326981.72, 217552.63, 0.0, 10.002392, 9.997925 
1.4652044e+3, 2.544374e+2, -252665.97, -567421.0, -24453.982, -0.12134016, 0.38182256, -250777.42, 195771.25, 0.000000044837254, 10.002208, 9.998045 
1.465233e+3, 2.644357e+2, -106560.664, -459193.5, -42784.52, -0.04096614, 0.427813, -101443.914, 247122.17, 0.0000038968087, 10.002591, 9.997933 
1.4652623e+3, 2.7443302e+2, 164396.16, -264485.34, -27227.701, 0.104862705, 0.33611107, 166117.81, 416705.72, 0.000030518888, 10.003719, 9.998054 
1.4652897e+3, 2.844299e+2, 226798.25, -259101.67, 15164.22, 0.040124383, 0.26439834, 227271.05, 379886.8, 0.00014638911, 10.003802, 9.997376 
1.4653145e+3, 2.9442656e+2, 163227.89, -228134.44, 16356.061, -0.28920588, 0.16096015, 163910.27, 218558.23, 0.00051755557, 10.002654, 9.997459 
1.465342e+3, 3.0442485e+2, 259959.44, -211413.77, 22218.795, -0.31458616, 0.2794081, 261004.42, 261004.42, 0.0013018141, 10.003224, 9.996969 
1.4653721e+3, 3.1442302e+2, 671763.44, 37571.85, -54737.938, -0.055744458, 0.36049592, 676453.25, 676453.25, 0.002461811, 10.005791, 9.997454 
1.4748359e+3, 1.24419674e+2, -2085558.8, -1780779.4, 148789.75, -0.12247139, 0.38842186, -1720187.9, 533.3755, 0.012969953, 9.996928, 10.001001 
1.4748661e+3, 1.3442e+2, -1782768.3, -1665905.3, 87569.336, -0.117651135, 0.372113, -1619062.8, 3654.8389, 0.0076708426, 9.998727, 10.000254 
1.4748985e+3, 1.4441945e+2, -1633257.1, -1603288.8, 42253.645, 0.103191935, 0.32821226, -1573441.1, -48719.023, 0.0032881629, 9.999294, 9.999751 
1.474928e+3, 1.5441927e+2, -1551733.6, -1497783.3, 46495.184, 0.16972272, 0.30192503, -1471004.8, -44281.977, 0.00081847684, 9.999135, 9.999873 
1.4749563e+3, 1.6441905e+2, -1444269.9, -1442361.9, 29020.473, 0.10340459, 0.32471246, -1414279.8, -85555.95, 0.000071419374, 9.999389, 9.999459 
1.474983e+3, 1.7441884e+2, -1249445.9, -1288016.8, 36847.86, -0.14113003, 0.32826224, -1227141.8, 3583.3306, 0.0000002932695, 10.000024, 9.999536 
1.4750111e+3, 1.8441793e+2, -1181379.3, -1341273.8, -27660.75, -0.17037086, 0.3557362, -1176729.4, -43994.688, 0.0, 10.000412, 9.998311 
1.4750415e+3, 1.9441612e+2, -1074739.9, -1229513.0, -37791.35, 0.08593735, 0.31809527, -1066005.3, -31250.021, 0.0, 10.000437, 9.998388 
1.4750692e+3, 2.0441455e+2, -928123.9, -1059697.3, -87736.0, 0.09596061, 0.31112063, -884249.75, 52522.08, 0.0, 10.000548, 9.998836 
1.4750934e+3, 2.1441329e+2, -794292.5, -928791.4, -87668.5, -0.20194994, 0.2691754, -751050.94, 87732.18, 0.0, 10.000741, 9.998963 
1.4751208e+3, 2.2441262e+2, -571229.94, -675173.25, -30053.5, -0.24272105, 0.2786147, -563166.0, 177620.34, 0.0, 10.001182, 9.9998255 
1.4751521e+3, 2.3441261e+2, -343639.13, -494270.56, 47543.066, 0.036862727, 0.25862813, -329888.6, 312891.44, 0.0, 10.001981, 10.000009 
1.475181e+3, 2.444111e+2, -437277.56, -867153.8, 22983.457, 0.09795111, 0.27758205, -436052.22, 108743.25, 0.0, 10.002291, 9.996626 
1.4752068e+3, 2.5440767e+2, -378041.88, -797758.6, -22133.893, -0.10684714, 0.2617339, -376877.88, 69960.91, 0.000000082863835, 10.002075, 9.996531 
1.4752343e+3, 2.6440543e+2, -88725.53, -390466.28, -9311.995, -0.18530011, 0.30562183, -88438.43, 260425.45, 0.0000048986644, 10.002453, 9.998468 
1.475264e+3, 2.744046e+2, 185655.14, -177551.02, 31483.633, -0.10937552, 0.325161, 188364.02, 439230.94, 0.00003489947, 10.003537, 9.998733 
1.4752923e+3, 2.8440294e+2, 234661.77, -211564.92, -35575.87, -0.09532921, 0.34333342, 237480.28, 390361.16, 0.00016158463, 10.003654, 9.997781 
1.4753187e+3, 2.944005e+2, 179099.72, -175218.08, -17198.852, -0.15125458, 0.28895095, 179932.61, 234838.69, 0.0005683206, 10.002561, 9.997871 
1.4753464e+3, 3.0439875e+2, 244247.73, -216312.56, 101127.12, -0.2123981, 0.37886676, 265474.3, 265474.3, 0.0014331543, 10.003117, 9.996981 
1.4753754e+3, 3.1439716e+2, 567702.7, -84222.445, 73158.22, -0.3457308, 0.48535222, 575811.5, 575811.5, 0.0027115392, 10.00541, 9.996786 
1.4848351e+3, 1.2438945e+2, -1876128.5, -1701188.8, 95734.36, 0.05203677, 0.35678992, -1658981.9, 62032.07, 0.013700781, 9.998426, 10.00085 
1.4848639e+3, 1.3438924e+2, -1758092.0, -1641185.9, 4833.928, -0.1959097, 0.2831344, -1640986.4, -17971.096, 0.00813248, 9.998814, 10.000397 
1.4848979e+3, 1.4438887e+2, -1673251.9, -1592267.3, -57283.35, 0.14273585, 0.23818767, -1562609.6, -37591.563, 0.0035089266, 9.998915, 9.999999 
1.4849271e+3, 1.5438956e+2, -1477702.3, -1430708.1, -63638.918, 0.15987746, 0.27364093, -1386367.0, 40643.875, 0.0008836724, 9.999521, 10.000136 
1.4849555e+3, 1.6438973e+2, -1413570.5, -1442002.4, -48834.188, 0.08742441, 0.32743317, -1376925.1, -47915.547, 0.00007901186, 9.999692, 9.999306 
1.4849828e+3, 1.7438918e+2, -1333114.6, -1343207.3, -65042.36, -0.11351105, 0.31793883, -1272923.1, -41906.906, 0.00000037325287, 9.999534, 9.999388 
1.4850116e+3, 1.8438838e+2, -1270624.9, -1355261.0, -72764.33, -0.11647428, 0.35079318, -1228767.8, -95741.88, 0.0, 9.999674, 9.998572 
1.4850423e+3, 1.9438726e+2, -1043261.7, -1179789.1, -45181.15, 0.11751093, 0.3521613, -1029664.1, 5375.013, 0.0, 10.000503, 9.998699 
1.4850697e+3, 2.0438594e+2, -889007.4, -1029239.5, -51480.42, 0.08728907, 0.35070893, -872137.8, 64914.754, 0.0, 10.000777, 9.998928 
1.4850931e+3, 2.1438438e+2, -835809.44, -936476.2, -46270.234, -0.26988217, 0.27086258, -817773.4, 21292.686, 0.0, 10.000402, 9.999071 
1.4851207e+3, 2.243836e+2, -687469.0, -761926.5, 18542.434, -0.31893685, 0.27521554, -683106.9, 57964.43, 0.0, 10.000517, 9.999545 
1.4851533e+3, 2.3438385e+2, -450617.03, -577915.0, -71791.44, 0.0016358905, 0.3115108, -418322.28, 224743.19, 0.0, 10.00139, 9.999714 
1.4851832e+3, 2.4438246e+2, -450355.7, -827777.06, -128256.695, 0.11830563, 0.34045008, -410896.47, 134183.5, 0.0, 10.002007, 9.997034 
1.4852098e+3, 2.54379e+2, -307296.5, -711348.75, -56865.58, -0.016897682, 0.27896148, -299445.88, 147674.22, 0.00000011463164, 10.002334, 9.997 
1.4852375e+3, 2.6437667e+2, -93163.52, -380476.78, 44805.13, -0.09897868, 0.2849681, -86338.51, 262806.1, 0.000005857849, 10.0023775, 9.998572 
1.4852665e+3, 2.7437574e+2, -8536.359, -261541.17, 14003.201, -0.12591909, 0.28969297, -7763.6763, 243386.17, 0.000039275426, 10.00217, 9.998814 
1.4852951e+3, 2.843746e+2, 74737.734, -287932.63, -76246.66, -0.10604329, 0.35797325, 90115.55, 243275.83, 0.0001769937, 10.002573, 9.997765 
1.4853232e+3, 2.9437336e+2, 365913.03, -88550.33, -108571.71, -0.024332566, 0.42614955, 390518.72, 445694.97, 0.00061952777, 10.003855, 9.997847 
1.4853518e+3, 3.0437082e+2, 506387.75, -61530.957, 67668.28, -0.06413835, 0.42654586, 514339.2, 514339.2, 0.0015552216, 10.004775, 9.997264 
1.4853813e+3, 3.1436822e+2, 524398.3, -95035.01, 12348.041, -0.27454498, 0.40919822, 524644.4, 524644.4, 0.0029265212, 10.00505, 9.996893 
1.4948347e+3, 1.2435931e+2, -1875192.9, -1715643.4, -85043.56, 0.122350775, 0.4110937, -1678814.5, 42491.316, 0.014485426, 9.998505, 10.000706 
1.4948633e+3, 1.3435698e+2, -1801036.0, -1712332.1, 19868.93, -0.13937472, 0.17413737, -1708085.0, -84754.305, 0.008627366, 9.99875, 9.999934 
1.4948969e+3, 1.4435667e+2, -1633332.8, -1530966.9, -58188.57, 0.12296708, 0.13852145, -1504654.0, 20680.47, 0.0037456865, 9.998985, 10.000395 
1.4949244e+3, 1.543592e+2, -1451905.6, -1380784.3, -32191.04, -0.08010243, 0.31909296, -1368378.0, 58931.33, 0.0009542572, 9.999527, 10.000485 
1.4949535e+3, 1.6435994e+2, -1409869.5, -1452943.5, -67851.375, -0.12657005, 0.4173548, -1360219.0, -30915.629, 0.00008722728, 9.999769, 9.99919 
1.4949842e+3, 1.7435794e+2, -1350359.9, -1371864.4, -65353.12, 0.058443557, 0.2789563, -1294880.4, -63554.227, 0.0000004647829, 9.999506, 9.999202 
1.4950137e+3, 1.843572e+2, -1193796.5, -1208007.5, -59076.688, 0.098676614, 0.27877107, -1141399.5, -8064.6016, 0.0, 9.999717, 9.999566 
1.4950413e+3, 1.9435814e+2, -977992.4, -1033922.0, -8171.5615, -0.042990033, 0.3826604, -976822.9, 58501.332, 0.0, 10.000452, 9.999726 
1.4950682e+3, 2.0435801e+2, -865667.56, -963209.3, -75280.63, -0.14686371, 0.42280737, -824740.2, 112583.05, 0.0, 10.000694, 9.999423 
1.4950944e+3, 2.1435647e+2, -820698.8, -875981.3, -53592.24, -0.18833098, 0.29365417, -788039.4, 51295.754, 0.0, 10.00028, 9.999543 
1.4951225e+3, 2.2435498e+2, -849154.2, -1075965.0, 33950.89, -0.22037959, 0.30242178, -844181.2, -102830.1, 0.0, 10.000413, 9.997446 
1.4951524e+3, 2.3435365e+2, -634060.94, -921568.1, -28275.12, -0.24640255, 0.4063387, -631306.56, 12065.353, 0.0, 10.001226, 9.997437 
1.4951827e+3, 2.4435242e+2, -340233.34, -557690.56, -120740.54, -0.1643792, 0.48102742, -286480.6, 258905.97, 0.0, 10.001823, 9.998978 
1.495213e+3, 2.5435123e+2, -172951.77, -400631.16, -32188.53, 0.060421005, 0.4208125, -168488.56, 278905.34, 0.00000015644366, 10.002193, 9.999204 
1.4952421e+3, 2.643493e+2, -139006.75, -446670.3, 27073.092, 0.11355388, 0.36663443, -136642.61, 212767.4, 0.000006865855, 10.002251, 9.9981785 
1.4952698e+3, 2.7434644e+2, -72478.02, -358198.53, 17530.16, -0.049166895, 0.237921, -71406.49, 180030.55, 0.00004412312, 10.002018, 9.998222 
1.4952981e+3, 2.84345e+2, 26612.121, -357432.63, -40225.695, -0.10129103, 0.32456172, 30780.21, 184233.55, 0.00019336937, 10.002432, 9.997359 
1.4953274e+3, 2.943452e+2, 316150.56, -156033.78, -39595.566, -0.0043084696, 0.5765489, 319447.88, 374904.84, 0.00066787726, 10.003696, 9.997462 
1.4953576e+3, 3.0434132e+2, 505673.5, -15701.339, 74050.67, 0.020389996, 0.4421177, 515986.9, 515986.9, 0.0016544833, 10.004585, 9.997663 
1.4953886e+3, 3.143366e+2, 519577.13, -30775.797, 58540.785, -0.087021135, 0.16505378, 525735.2, 525735.2, 0.0030810328, 10.004744, 9.997478 
1.504833e+3, 1.2432748e+2, -1922268.3, -1755182.5, -153502.88, 0.105011, 0.33445838, -1663961.1, 57655.5, 0.015336173, 9.998272, 10.000537 
1.5048632e+3, 1.3432623e+2, -1858456.3, -1764125.6, 23161.19, -0.017092269, 0.21608302, -1758745.8, -135112.55, 0.0091627855, 9.998447, 9.99973 
1.5048954e+3, 1.4432639e+2, -1698116.5, -1532409.3, -24597.203, 0.12197378, 0.22624604, -1528835.1, -3201.8567, 0.0040015904, 9.998437, 10.000637 
1.5049233e+3, 1.5432838e+2, -1557889.6, -1394742.3, -31938.006, -0.10262983, 0.32103363, -1388712.8, 38899.258, 0.001031135, 9.998651, 10.000805 
1.5049528e+3, 1.6432904e+2, -1489061.4, -1493673.8, -35062.37, -0.1342454, 0.3983351, -1456229.4, -126622.81, 0.000096309515, 9.999217, 9.999189 
1.5049848e+3, 1.7432763e+2, -1191705.9, -1292890.8, -40719.332, 0.122607395, 0.31484744, -1177354.9, 54270.84, 0.000000575819, 10.0005665, 9.999237 
1.5050144e+3, 1.8432724e+2, -1017207.25, -1048889.3, -46981.887, 0.17365985, 0.3195564, -983467.6, 150163.03, 0.0, 10.000628, 10.000207 
1.5050408e+3, 1.9432834e+2, -1111263.0, -1016537.75, -46447.29, -0.0598003, 0.36896512, -997563.56, 38052.508, 0.0, 9.999202, 10.000437 
1.5050681e+3, 2.0432839e+2, -1099933.5, -1079984.9, -87256.91, -0.1455315, 0.38945082, -1002134.06, -64521.72, 0.0, 9.999118, 9.99938 
1.5050966e+3, 2.14327e+2, -732509.44, -847752.1, -127189.2, -0.043043587, 0.2915975, -650498.0, 189125.14, 0.0, 10.000947, 9.999422 
1.505125e+3, 2.2432545e+2, -708772.2, -1020631.25, -8151.931, -0.049247093, 0.3083372, -708559.25, 33081.273, 0.0, 10.001455, 9.997311 
1.5051535e+3, 2.3432377e+2, -774333.0, -1003194.44, 55228.57, -0.20764504, 0.3911413, -761702.4, -118036.7, 0.0, 10.000335, 9.997296 
1.5051833e+3, 2.4432248e+2, -546422.2, -629623.1, 46421.8, -0.18949464, 0.45433497, -525688.25, 19992.797, 0.0, 10.0003, 9.9992075 
1.5052147e+3, 2.5432166e+2, -219976.28, -389904.1, -28696.295, 0.044747844, 0.4047582, -215261.08, 232422.6, 0.00000020302433, 10.001745, 9.999478 
1.5052445e+3, 2.6432005e+2, -122810.02, -433687.97, -54008.19, 0.12196243, 0.36516774, -113694.57, 236001.98, 0.0000077496, 10.002344, 9.99822 
1.5052721e+3, 2.743174e+2, -84350.305, -361738.2, -43095.066, -0.0005464936, 0.25934505, -77809.29, 173912.48, 0.00004843342, 10.001908, 9.998258 
1.5053008e+3, 2.8431588e+2, -27019.047, -412486.66, 8760.998, -0.052629255, 0.34749988, -26820.027, 126919.47, 0.0002078638, 10.002196, 9.997092 
1.5053308e+3, 2.9431552e+2, 283270.1, -196800.42, -15265.365, -0.011724271, 0.5679366, 283755.03, 339504.56, 0.00070729264, 10.003603, 9.997212 
1.5053621e+3, 3.0431095e+2, 490319.94, -14255.001, 69274.42, 0.035038937, 0.37680873, 499658.0, 499658.0, 0.001719022, 10.004419, 9.997767 
1.5053947e+3, 3.143074e+2, 464323.9, 1697.3818, -4074.0479, 0.095940605, 0.20947579, 464359.78, 464359.78, 0.0031552576, 10.004087, 9.998033 
1.514828e+3, 1.2429492e+2, -1922486.4, -1781688.1, -174251.5, -0.24490754, 0.17265612, -1664152.1, 57785.246, 0.016257107, 9.998373, 10.000316 
1.5148628e+3, 1.3429743e+2, -1870969.5, -1771894.6, 46137.11, 0.08398635, 0.41791615, -1753737.3, -129818.21, 0.009740974, 9.998385, 9.9997015 
1.514893e+3, 1.442985e+2, -1687158.4, -1532729.8, -33501.45, 0.011524643, 0.53188044, -1525775.3, 134.54323, 0.0042781597, 9.998521, 10.000601 
1.5149231e+3, 1.5429714e+2, -1551794.9, -1380210.8, -15456.225, 0.002486777, 0.28703448, -1378829.5, 49088.54, 0.0011151112, 9.998638, 10.000913 
1.5149534e+3, 1.6429713e+2, -1463344.9, -1456274.1, -3297.6199, -0.026806299, 0.27627376, -1454974.9, -125056.54, 0.000106548556, 9.999276, 9.999419 
1.5149842e+3, 1.742984e+2, -1176453.1, -1262464.4, 17913.428, -0.0022839303, 0.43559948, -1172871.4, 59041.47, 0.0000007145684, 10.000565, 9.999451 
1.5150137e+3, 1.8429872e+2, -988641.44, -999227.0, -105141.87, 0.011294319, 0.48421797, -888659.2, 245252.2, 0.0, 10.000665, 10.000534 
1.5150407e+3, 1.9429794e+2, -1093940.9, -970846.2, -93386.17, -0.016677273, 0.31340328, -920549.6, 115364.19, 0.0, 9.999161, 10.000771 
1.5150689e+3, 2.0429714e+2, -1151645.0, -1175081.9, -41670.53, -0.000986965, 0.25941923, -1120076.5, -182157.66, 0.0, 9.999058, 9.998761 
1.5150988e+3, 2.1429624e+2, -800919.1, -956278.7, -49668.58, 0.08506103, 0.27807084, -786397.44, 53530.273, 0.0, 10.000799, 9.998751 
1.515128e+3, 2.2429526e+2, -616221.2, -790871.6, -52872.453, 0.09871344, 0.30883232, -601462.2, 140475.11, 0.0, 10.001288, 9.998972 
1.5151562e+3, 2.3429424e+2, -664510.25, -747558.06, 22713.025, 0.017481295, 0.27815565, -658704.25, -14757.137, 0.0, 10.000215, 9.999111 
1.515185e+3, 2.4429269e+2, -658824.94, -839590.06, 80133.875, -0.06231484, 0.28496635, -628416.56, -82453.195, 0.0, 10.000193, 9.997824 
1.5152147e+3, 2.5429043e+2, -350557.7, -632945.94, 35938.613, -0.13624325, 0.25145003, -346055.7, 101932.6, 0.00000026346208, 10.001618, 9.997874 
1.5152442e+3, 2.6428893e+2, -108737.555, -376423.34, -73216.17, -0.14451292, 0.2886597, -90020.53, 259983.3, 0.0000083363275, 10.002219, 9.998677 
1.5152735e+3, 2.7428862e+2, -57353.77, -279854.16, -45714.203, -0.06779271, 0.350472, -48327.64, 203677.03, 0.00005084747, 10.001805, 9.998868 
1.515303e+3, 2.842873e+2, -56918.047, -459732.1, 44698.918, -0.065041326, 0.44045988, -52017.574, 102001.32, 0.00021983829, 10.002119, 9.996809 
1.5153332e+3, 2.9428428e+2, 234881.89, -263902.8, 55668.402, -0.1431876, 0.42615575, 241019.4, 297073.25, 0.00074040546, 10.00345, 9.996827 
1.5153652e+3, 3.0427957e+2, 444804.2, -46041.42, 54264.563, -0.10975888, 0.25143817, 450731.72, 450731.72, 0.0017585049, 10.004178, 9.997652 
1.515399e+3, 3.1428015e+2, 458263.8, 80972.5, 12198.363, 0.10113207, 0.4916948, 458657.78, 458657.78, 0.0031671263, 10.003743, 9.99872 
1.5248254e+3, 1.24263614e+2, -1874611.9, -1711268.9, -75499.6, -0.34803382, 0.16008358, -1681718.0, 40527.727, 0.017244658, 9.998521, 10.000721 
1.5248625e+3, 1.342667e+2, -1772667.9, -1703836.0, 30982.191, 0.19176304, 0.43821016, -1691944.8, -67725.6, 0.010359608, 9.998971, 9.9998865 
1.5248914e+3, 1.4426754e+2, -1673673.1, -1556995.6, -18130.709, -0.006676565, 0.53671426, -1554243.3, -28031.605, 0.0045741852, 9.998768, 10.000307 
1.5249225e+3, 1.542655e+2, -1551878.9, -1407021.6, -51965.117, 0.089163214, 0.24267061, -1390308.4, 37920.04, 0.0012060112, 9.998756, 10.000668 
1.5249531e+3, 1.6426545e+2, -1550755.5, -1398178.1, -348.4943, 0.08551496, 0.20451748, -1398177.4, -67949.11, 0.000118081814, 9.998279, 10.000291 
1.5249833e+3, 1.74268e+2, -1541539.5, -1325663.8, 51828.02, -0.0032053157, 0.3996195, -1313865.5, -81658.625, 0.0000008766353, 9.997603, 10.000437 
1.5250126e+3, 1.8426892e+2, -1411577.8, -1253906.1, -52385.44, -0.017152527, 0.4756699, -1238088.3, -103888.47, 0.0, 9.997979, 10.000087 
1.5250407e+3, 1.9426775e+2, -1015288.06, -1001371.1, -128315.95, 0.030666824, 0.32426044, -879825.1, 156385.63, 0.0, 9.999981, 10.000179 
1.5250695e+3, 2.0426688e+2, -859745.2, -1007399.7, -49785.367, 0.075821415, 0.28616863, -844527.25, 93691.234, 0.0, 10.00093, 9.999008 
1.5250996e+3, 2.1426642e+2, -822253.25, -930998.1, -4398.4478, 0.11403292, 0.31385309, -822075.6, 18145.941, 0.0, 10.000488, 9.999069 
1.5251292e+3, 2.2426553e+2, -713394.2, -820740.9, -27196.736, 0.14060043, 0.32956243, -706897.0, 35331.457, 0.0, 10.000538, 9.999133 
1.5251581e+3, 2.342642e+2, -501839.0, -652589.4, -93298.9, 0.14354049, 0.2502899, -457272.1, 186967.75, 0.0, 10.001257, 9.999264 
1.525187e+3, 2.4426264e+2, -430544.75, -739803.25, -129.75157, 0.053615782, 0.25224376, -430544.7, 115711.52, 0.0, 10.0018215, 9.997714 
1.5252163e+3, 2.5426075e+2, -264735.94, -606700.7, 41294.46, -0.16346887, 0.27224097, -259820.03, 188459.34, 0.0000003530132, 10.002273, 9.997738 
1.5252459e+3, 2.6425928e+2, -46774.625, -369649.1, -43524.06, -0.21293277, 0.3284704, -41010.41, 309285.4, 0.00000861748, 10.002745, 9.998469 
1.525276e+3, 2.7425846e+2, 144191.75, -201003.95, -101829.95, -0.052390203, 0.3599006, 171991.89, 424293.6, 0.00005158201, 10.003283, 9.998689 
1.5253063e+3, 2.8425694e+2, 176410.7, -305366.6, 19304.703, -0.009793764, 0.42093375, 177183.0, 331499.78, 0.00023167011, 10.003553, 9.997181 
1.525337e+3, 2.9425412e+2, 269670.44, -206385.67, 58584.82, -0.12151858, 0.3925309, 276774.06, 333121.03, 0.0007727995, 10.003506, 9.997207 
1.525369e+3, 3.042497e+2, 319692.6, -175756.78, 71662.305, -0.09675955, 0.25290233, 329849.7, 329849.7, 0.0017910135, 10.003586, 9.997064 
1.5254033e+3, 3.1424984e+2, 437778.8, 48442.625, -60147.117, 0.17101653, 0.52201295, 446858.94, 446858.94, 0.003160406, 10.003643, 9.998573 
1.5348259e+3, 1.2423334e+2, -1808595.8, -1585138.6, 100693.15, -0.19930744, 0.2626962, -1546459.8, 176083.92, 0.018294634, 9.99855, 10.001589 
1.5348616e+3, 1.3423434e+2, -1744160.8, -1640775.4, 40137.125, 0.199986, 0.29036024, -1627022.5, -2491.5903, 0.011016667, 9.99896, 10.000323 
1.5348902e+3, 1.4423384e+2, -1695572.5, -1631030.9, -36904.37, -0.033453345, 0.25730628, -1614277.9, -87742.38, 0.0048880493, 9.998877, 9.999758 
1.5349212e+3, 1.5423353e+2, -1600130.6, -1494757.5, -46833.324, 0.06625442, 0.2019677, -1476951.3, -48410.156, 0.0013030368, 9.998711, 10.00009 
1.5349519e+3, 1.6423427e+2, -1437309.4, -1181584.4, -40070.54, 0.11037714, 0.20360896, -1175452.6, 155081.05, 0.00013086536, 9.998343, 10.001754 
1.5349814e+3, 1.7423657e+2, -1427180.0, -1088831.8, 33357.22, 0.04122884, 0.21261685, -1085574.5, 146931.98, 0.0000010420176, 9.997602, 10.002065 
1.535011e+3, 1.842379e+2, -1493673.5, -1435354.0, 2995.0178, -0.0046188245, 0.30125687, -1435200.6, -300705.44, 0.0, 9.998022, 9.998821 
1.5350404e+3, 1.9423781e+2, -1123836.3, -1217663.1, -45581.07, -0.0024625813, 0.40312523, -1105339.5, -68833.24, 0.0, 9.999939, 9.9987135 
1.5350696e+3, 2.0423765e+2, -802154.9, -859595.3, -69123.39, -0.009780557, 0.4664327, -756022.6, 182488.02, 0.0, 10.000812, 10.000078 
1.5350989e+3, 2.1423748e+2, -755046.8, -757552.44, -13228.408, -0.033472296, 0.39791477, -743012.0, 97493.266, 0.0, 10.000343, 10.000328 
1.5351284e+3, 2.2423626e+2, -822583.5, -1011947.0, -15352.282, -0.0068093427, 0.368897, -821346.9, -78832.4, 0.0, 10.000379, 9.997901 
1.5351589e+3, 2.3423366e+2, -614986.06, -863368.7, -54121.61, 0.099515125, 0.30281025, -603705.5, 40837.617, 0.0, 10.001148, 9.997871 
1.5351892e+3, 2.4423221e+2, -382568.34, -605393.56, 8009.3203, 0.066474296, 0.34478796, -382280.8, 164278.77, 0.0, 10.001674, 9.998706 
1.535219e+3, 2.5423244e+2, -207760.17, -448693.88, 67688.4, -0.13683154, 0.45515588, -190046.05, 258512.56, 0.0000004707298, 10.002109, 9.9988985 
1.5352492e+3, 2.642309e+2, -127758.8, -501117.66, -38876.76, -0.19558741, 0.4834136, -123753.64, 226820.45, 0.000008627056, 10.00258, 9.997649 
1.5352795e+3, 2.7422705e+2, 58346.996, -350254.16, -73670.555, -0.057131547, 0.30758455, 71223.94, 323835.3, 0.00005250251, 10.003158, 9.9977255 
1.53531e+3, 2.8422478e+2, 218945.63, -188886.23, 7672.421, 0.001203521, 0.30768144, 219089.9, 373722.66, 0.00024464625, 10.003421, 9.998051 
1.5353411e+3, 2.9422465e+2, 314382.78, -77153.18, 70055.76, -0.058225963, 0.4410903, 326540.06, 383172.88, 0.0008062846, 10.003344, 9.998176 
1.5353733e+3, 3.04221e+2, 214395.38, -343731.66, 57571.36, -0.040956713, 0.37993857, 220272.03, 220272.03, 0.0018303539, 10.003382, 9.995999 
1.5354067e+3, 3.142169e+2, 340638.56, -74692.84, -26711.072, 0.11291225, 0.33241808, 342349.38, 342349.38, 0.0031781935, 10.003342, 9.997851 
1.5448251e+3, 1.2420256e+2, -1955881.8, -1636368.6, 186901.52, -0.055900536, 0.3521396, -1550250.5, 172595.9, 0.019406972, 9.9974575, 10.001756 
1.5448593e+3, 1.3420193e+2, -1942629.9, -1715544.9, -24865.457, 0.15588468, 0.1998975, -1712854.1, -88006.555, 0.0117135905, 9.997489, 10.000515 
1.5448892e+3, 1.4420168e+2, -1918973.4, -1704062.4, -42004.164, 0.06355568, 0.16317537, -1696144.4, -169295.47, 0.0052204016, 9.997197, 10.000066 
1.5449198e+3, 1.5420295e+2, -1705372.1, -1517785.4, -2116.9822, 0.107953355, 0.2385044, -1517761.5, -88921.72, 0.0014059248, 9.997839, 10.000369 
1.5449503e+3, 1.6420412e+2, -1446682.0, -1211303.6, -2432.4517, 0.13040303, 0.27715775, -1211278.5, 119550.25, 0.00014487762, 9.998401, 10.001509 
1.54498e+3, 1.742053e+2, -1231902.9, -1031623.0, -96411.42, 0.06887859, 0.20080791, -992755.1, 240057.44, 0.000001197513, 9.999089, 10.001739 
1.5450099e+3, 1.8420614e+2, -1299288.0, -1327659.4, -107381.32, 0.031746674, 0.25583225, -1205159.4, -70353.51, 0.0, 9.999315, 9.998927 
1.5450402e+3, 1.9420666e+2, -1226946.8, -1247948.3, -50750.758, 0.03296948, 0.40401277, -1185621.8, -148811.16, 0.0, 9.999168, 9.998871 
1.54507e+3, 2.0420666e+2, -1014681.6, -961218.0, -54574.24, 0.01640521, 0.4754075, -927180.25, 11633.194, 0.0, 9.999365, 10.000076 
1.5450989e+3, 2.1420617e+2, -796732.8, -778720.1, -116993.86, -0.036803387, 0.37849694, -670386.44, 170425.66, 0.0, 10.000081, 10.000308 
1.545129e+3, 2.2420494e+2, -714230.44, -964445.56, -74633.086, -0.013409494, 0.3532739, -693660.3, 49161.754, 0.0, 10.001159, 9.997843 
1.5451609e+3, 2.3420276e+2, -386110.53, -759287.2, -40490.348, 0.10253955, 0.3377832, -381767.78, 263078.97, 0.0, 10.002765, 9.997801 
1.5451916e+3, 2.442013e+2, -216143.56, -555229.7, -16167.56, 0.08711574, 0.39667103, -215374.44, 331489.28, 0.000000000009610117, 10.002932, 9.998456 
1.5452208e+3, 2.5420094e+2, -369336.9, -556761.3, -81660.89, -0.10487604, 0.47757328, -338749.16, 110120.3, 0.0000005675007, 10.001122, 9.998642 
1.545251e+3, 2.6419932e+2, -357493.4, -583098.0, -115794.41, -0.1634992, 0.49925902, -308639.6, 42246.418, 0.000008574752, 10.000888, 9.9979 
1.5452823e+3, 2.7419594e+2, 37676.39, -336037.7, -81178.46, -0.06079443, 0.3490415, 54548.33, 307465.56, 0.000054092365, 10.002895, 9.997962 
1.5453136e+3, 2.8419363e+2, 227174.83, -208204.94, -37942.414, 0.011698268, 0.3416558, 230456.7, 385395.06, 0.00025774646, 10.003598, 9.997813 
1.5453447e+3, 2.941928e+2, 169237.25, -183104.97, -99427.95, 0.012049929, 0.43642703, 195358.45, 252303.9, 0.00084184087, 10.002514, 9.997833 
1.545377e+3, 3.041894e+2, 155882.4, -355234.75, -28443.063, 0.029392157, 0.4157077, 157460.36, 157460.36, 0.0018867792, 10.002896, 9.99616 
1.5454109e+3, 3.141849e+2, 626383.3, 76727.95, -60646.176, 0.11676643, 0.31324074, 632995.2, 632995.2, 0.0032467959, 10.00522, 9.998007 
1.5548232e+3, 1.2417221e+2, -1979567.9, -1704510.8, 111462.12, -0.047175147, 0.53284985, -1665014.1, 58130.465, 0.020587768, 9.99754, 10.00124 
1.5548548e+3, 1.341696e+2, -1948008.9, -1704001.0, -40037.617, -0.061149523, 0.18659604, -1697599.4, -72431.01, 0.012455585, 9.9974, 10.000638 
1.5548879e+3, 1.441711e+2, -1824577.3, -1517034.9, -40785.938, 0.18453753, 0.25673905, -1511717.9, 15434.116, 0.0055746003, 9.997221, 10.001343 
1.554918e+3, 1.5417406e+2, -1620615.3, -1337524.0, 33778.895, 0.117858335, 0.37143964, -1333549.3, 95572.16, 0.001515748, 9.9978285, 10.001608 
1.5549481e+3, 1.6417532e+2, -1572340.5, -1493336.0, 12345.959, 0.046072055, 0.44674397, -1491451.8, -160341.75, 0.00016035176, 9.998481, 9.999541 
1.5549786e+3, 1.7417426e+2, -1390696.3, -1355872.6, -65065.797, 0.0058164434, 0.37142187, -1305929.3, -72804.91, 0.0000013687348, 9.999068, 9.999523 
1.5550092e+3, 1.8417384e+2, -1196827.5, -1119328.9, -122198.25, 0.0073047443, 0.35201558, -1029883.3, 105246.9, 0.0, 9.9993305, 10.000352 
1.5550397e+3, 1.9417435e+2, -1112974.9, -1000004.9, -47467.8, 0.055473626, 0.3283979, -982708.1, 54415.31, 0.0, 9.999121, 10.000595 
1.55507e+3, 2.0417401e+2, -1096446.3, -1120666.1, -41047.76, 0.061047647, 0.32117465, -1065759.4, -126633.36, 0.0, 9.999308, 9.999018 
1.5550998e+3, 2.141726e+2, -899328.56, -972680.06, -79626.9, 0.021058084, 0.26140347, -848337.0, -7196.489, 0.0, 9.999985, 9.999031 
1.5551306e+3, 2.2417165e+2, -670010.06, -839950.25, -25642.867, 0.015661212, 0.28891876, -666225.0, 76925.03, 0.0, 10.001016, 9.998767 
1.5551634e+3, 2.3417139e+2, -333022.4, -613939.56, 30940.203, 0.067378834, 0.35562453, -329655.0, 315496.84, 0.0, 10.002607, 9.998878 
1.555194e+3, 2.4416985e+2, -339161.4, -767520.3, -82051.58, 0.018919632, 0.41107592, -323982.4, 223187.06, 0.0, 10.002743, 9.99709 
1.5552217e+3, 2.5416657e+2, -488917.8, -787466.44, -136643.63, -0.14654563, 0.35556847, -435820.44, 13388.453, 0.0000005355393, 10.001044, 9.997097 
1.5552516e+3, 2.6416475e+2, -290498.5, -428113.03, -54857.18, -0.21397188, 0.38736466, -271307.2, 79921.695, 0.000008556659, 10.000817, 9.998998 
1.5552846e+3, 2.74165e+2, 107347.9, -157321.25, 11333.973, -0.1368233, 0.46546322, 107832.37, 361052.75, 0.000056207, 10.002751, 9.999255 
1.5553166e+3, 2.841633e+2, 110629.1, -414102.7, -78135.445, -0.063343205, 0.50933284, 122016.766, 277251.88, 0.00027237786, 10.003439, 9.996477 
1.5553471e+3, 2.9415882e+2, 57955.527, -400777.2, -122976.05, -0.0056003877, 0.38889876, 88842.96, 146124.67, 0.0008834024, 10.002459, 9.996362 
1.5553798e+3, 3.041553e+2, 206943.44, -209099.03, 41708.61, 0.0096474355, 0.38270262, 211083.56, 211083.56, 0.0019688886, 10.002755, 9.99722 
1.5554154e+3, 3.1415337e+2, 615628.6, 188710.17, 60088.277, 0.012788427, 0.41073844, 623924.8, 623924.8, 0.0033791566, 10.004693, 9.999009 
1.5648223e+3, 1.2414014e+2, -2001831.3, -1747570.0, 76047.125, 0.12394439, 0.5045689, -1726560.9, -3103.292, 0.021849003, 9.997545, 10.000939 
1.5648517e+3, 1.3413846e+2, -1897599.6, -1634378.0, 4573.4517, -0.10415439, 0.21795146, -1634298.6, -8823.964, 0.013250772, 9.997537, 10.001067 
1.5648857e+3, 1.4414054e+2, -1723060.0, -1436465.6, 26081.053, 0.23311034, 0.30634835, -1434111.5, 93340.805, 0.0059556314, 9.997803, 10.001613 
1.5649158e+3, 1.5414275e+2, -1513804.1, -1264345.1, -593.5604, 0.10251781, 0.32557857, -1264343.8, 165082.14, 0.0016345053, 9.998484, 10.001785 
1.5649462e+3, 1.6414352e+2, -1589690.4, -1561186.8, -12116.2, 0.0044692988, 0.36696896, -1556732.5, -225314.27, 0.00017771397, 9.998617, 9.999016 
1.5649775e+3, 1.7414248e+2, -1540034.4, -1494836.1, 16408.676, 0.03338297, 0.35471636, -1489507.4, -256072.45, 0.0000016137079, 9.99832, 9.9989395 
1.5650085e+3, 1.8414196e+2, -1326372.1, -1147925.9, 9176.123, 0.066210546, 0.34212178, -1147455.3, -12013.476, 0.0, 9.998288, 10.000658 
1.5650386e+3, 1.9414224e+2, -1123939.1, -965141.2, -34911.363, 0.05450121, 0.2558752, -957804.94, 79628.74, 0.0, 9.998858, 10.000965 
1.5650694e+3, 2.0414175e+2, -1060572.3, -1146258.8, -13159.099, 0.055349868, 0.23197444, -1058597.0, -119160.05, 0.0, 9.999755, 9.998612 
1.5651008e+3, 2.1414036e+2, -732576.8, -940391.7, -8510.04, 0.0745461, 0.2184468, -732228.9, 109225.21, 0.0, 10.00136, 9.998573 
1.5651326e+3, 2.2413948e+2, -551214.7, -768809.6, 35882.23, 0.0775315, 0.2730725, -545450.3, 198013.98, 0.0, 10.001762, 9.998898 
1.5651648e+3, 2.341394e+2, -626841.25, -730829.3, 7442.1597, 0.05852566, 0.33695924, -626311.4, 19152.637, 0.0, 10.000475, 9.999099 
1.5651953e+3, 2.4413787e+2, -637598.9, -901984.75, -68539.92, -0.0040682405, 0.37577623, -620886.8, -73405.93, 0.0, 10.0006485, 9.99718 
1.5652236e+3, 2.5413442e+2, -211302.42, -641809.06, -27341.807, -0.1378379, 0.29574984, -209572.88, 239947.53, 0.00000039469393, 10.002903, 9.997199 
1.565254e+3, 2.6413244e+2, 103598.41, -290191.38, 81186.44, -0.1866363, 0.3304043, 119679.65, 471221.1, 0.000008163994, 10.003756, 9.998529 
1.5652873e+3, 2.7413252e+2, 49484.195, -241429.47, -5404.153, -0.12165562, 0.43770745, 49584.55, 303121.63, 0.000058093792, 10.002604, 9.998742 
1.5653196e+3, 2.8413033e+2, 8663.285, -474878.28, -92086.336, -0.069789685, 0.4742665, 25606.639, 181163.06, 0.00028837356, 10.002787, 9.996387 
1.5653503e+3, 2.9412535e+2, 411037.9, -238476.36, -67614.67, -0.047785185, 0.3160597, 418001.94, 475608.8, 0.00093038374, 10.004916, 9.996305 
1.5653834e+3, 3.0412194e+2, 550175.75, -36568.45, 108014.87, -0.018830406, 0.3173712, 569428.7, 569428.7, 0.002072118, 10.005059, 9.997298 
1.5654196e+3, 3.1412032e+2, 243234.81, -32595.07, -1112.839, 0.10265865, 0.3699786, 243239.31, 243239.31, 0.0035653296, 10.002242, 9.998681 
1.5748201e+3, 1.241055e+2, -2001446.1, -1760356.4, -108516.24, 0.09819727, 0.16350614, -1718707.4, 5086.5757, 0.023204513, 9.997593, 10.0008335 
1.5748498e+3, 1.3410926e+2, -1852915.3, -1534094.3, 18047.043, -0.05867135, 0.34864092, -1533076.0, 92683.06, 0.014108494, 9.997513, 10.001768 
1.5748824e+3, 1.4411049e+2, -1761969.5, -1548739.1, 35938.453, 0.108711764, 0.35101917, -1542844.9, -15099.803, 0.0063687824, 9.997923, 10.000791 
1.5749133e+3, 1.5410897e+2, -1584896.9, -1409315.1, 29748.094, -0.009778422, 0.100598015, -1404412.0, 25341.36, 0.00176415, 9.998472, 10.000798 
1.5749441e+3, 1.6410863e+2, -1515306.0, -1418731.6, -34084.94, -0.08952559, 0.037230007, -1407913.6, -76159.3, 0.00019721544, 9.998661, 9.999973 
1.5749763e+3, 1.7411e+2, -1463854.4, -1335451.3, 14031.971, 0.067055896, 0.15173578, -1333935.8, -100191.79, 0.0000019795527, 9.998314, 10.000035 
1.5750074e+3, 1.8411069e+2, -1370710.9, -1254866.5, 17538.066, 0.109821945, 0.23471151, -1252269.6, -116530.82, 0.0, 9.998344, 9.9999 
1.5750366e+3, 1.9411045e+2, -1197733.9, -1108682.8, -6110.497, -0.048189398, 0.19229814, -1108265.4, -70525.09, 0.0, 9.998814, 10.000004 
1.5750678e+3, 2.0411e+2, -1058928.9, -1128052.5, 33742.453, -0.09428376, 0.21582146, -1045188.75, -105443.54, 0.0, 9.999686, 9.998771 
1.5751019e+3, 2.1410932e+2, -737070.5, -917129.5, 59727.813, 0.04281801, 0.24810515, -719059.6, 122694.49, 0.0, 10.001218, 9.998801 
1.5751345e+3, 2.241083e+2, -609913.7, -855863.0, -11461.266, 0.08336099, 0.29927412, -609380.75, 134385.52, 0.0, 10.00161, 9.998372 
1.5751646e+3, 2.3410681e+2, -689185.75, -829494.56, -32860.754, -0.006428234, 0.28389654, -681871.0, -36087.992, 0.0, 10.000342, 9.998486 
1.5751953e+3, 2.4410541e+2, -563863.44, -714051.3, -4738.8936, -0.08474057, 0.30619898, -563714.06, -15916.772, 0.0, 10.000496, 9.998542 
1.5752266e+3, 2.5410426e+2, -125624.21, -432823.63, 65991.266, -0.14889301, 0.29740342, -112048.2, 337758.47, 0.00000029448665, 10.002765, 9.998699 
1.5752582e+3, 2.6410216e+2, -54888.613, -585079.9, 40518.066, -0.16347182, 0.32902348, -51810.035, 300017.16, 0.000007127328, 10.003605, 9.996577 
1.5752901e+3, 2.7409858e+2, -122416.26, -570657.4, -33227.53, -0.110658854, 0.29252246, -119966.53, 133899.22, 0.00005845978, 10.002486, 9.996538 
1.575322e+3, 2.8409505e+2, 52122.46, -362935.25, -29719.006, -0.11431811, 0.27287835, 54239.605, 210139.78, 0.00030147994, 10.002684, 9.997208 
1.575354e+3, 2.9409227e+2, 456228.88, -98479.19, 34243.43, -0.1981543, 0.22358376, 458334.8, 516258.03, 0.0009763335, 10.004711, 9.99737 
1.5753871e+3, 3.0408913e+2, 461450.56, -152726.06, 15581.054, -0.16613716, 0.22831279, 461845.6, 461845.6, 0.0021815891, 10.004796, 9.996607 
1.5754229e+3, 3.1408596e+2, 101601.22, -245479.64, -70519.6, 0.17339295, 0.20456558, 115382.16, 115382.16, 0.0037724746, 10.00193, 9.997345 
1.5848167e+3, 1.24074325e+2, -2220333.5, -1873290.9, -33494.633, 0.075382404, 0.082912266, -1870087.8, -145990.4, 0.024665277, 9.996133, 10.000752 
1.5848488e+3, 1.3407893e+2, -1860441.8, -1571910.3, 42035.13, 0.09107338, 0.38319042, -1565911.0, 60143.367, 0.0150364665, 9.997611, 10.0014515 
1.584881e+3, 1.4407924e+2, -1731264.1, -1594756.4, 18627.05, 0.15247254, 0.33220118, -1592260.3, -64209.6, 0.0068181083, 9.998407, 10.000231 
1.5849118e+3, 1.5407717e+2, -1695866.4, -1534973.0, 8815.311, 0.019503817, 0.09175604, -1534491.5, -104425.26, 0.0019058621, 9.998012, 10.000157 
1.5849425e+3, 1.6407669e+2, -1578965.9, -1403575.9, -31966.209, -0.07778996, 0.031789448, -1397931.4, -65863.266, 0.0002187055, 9.998038, 10.00037 
1.5849748e+3, 1.740784e+2, -1314087.1, -1199562.9, -51254.71, 0.06868359, 0.12770288, -1179974.5, 54076.45, 0.000002466339, 9.999092, 10.00058 
1.5850064e+3, 1.84079e+2, -1207342.5, -1264738.4, -50149.438, 0.12224167, 0.21138039, -1178260.4, -42214.38, 0.0, 9.999857, 9.999104 
1.5850362e+3, 1.9407819e+2, -1023047.0, -1123441.5, -91241.234, -0.03129954, 0.20269033, -969106.2, 68951.086, 0.0, 10.000446, 9.999112 
1.5850678e+3, 2.0407756e+2, -894196.8, -1024399.9, -20227.082, -0.08806396, 0.24720214, -891126.94, 48938.45, 0.0, 10.000697, 9.999007 
1.5851025e+3, 2.1407722e+2, -803196.3, -912925.1, -3551.41, 0.0202396, 0.28243732, -803081.44, 38987.15, 0.0, 10.000577, 9.999157 
1.5851352e+3, 2.2407621e+2, -738396.0, -901092.5, -62844.805, 0.047999803, 0.3092264, -716948.3, 27131.234, 0.0, 10.000671, 9.998519 
1.5851651e+3, 2.3407435e+2, -535190.94, -742903.0, -56982.926, -0.049193684, 0.24764284, -520585.5, 125514.69, 0.0, 10.0013485, 9.998608 
1.5851961e+3, 2.4407311e+2, -326061.22, -548994.4, 42138.598, -0.108172685, 0.26146004, -318362.13, 229750.06, 0.0, 10.001937, 9.998964 
1.5852292e+3, 2.540729e+2, -140299.86, -391172.6, 15676.3, -0.12560824, 0.30581054, -139324.1, 310786.22, 0.00000023115544, 10.002465, 9.999119 
1.5852615e+3, 2.6407078e+2, -198313.31, -683037.1, -43709.313, -0.13011934, 0.32363704, -194403.42, 157726.89, 0.0000061293663, 10.00275, 9.996309 
1.5852927e+3, 2.7406588e+2, -94164.69, -590648.2, -14361.145, -0.118546054, 0.19443913, -93749.625, 160431.7, 0.000059474278, 10.00284, 9.99622 
1.585325e+3, 2.840623e+2, 125602.03, -304017.5, 119175.91, -0.10676211, 0.17250639, 156446.77, 312663.4, 0.0003129247, 10.003092, 9.997408 
1.5853588e+3, 2.9406083e+2, 303109.13, -136872.4, 100131.734, -0.111251175, 0.22762215, 324825.4, 383052.3, 0.0010186619, 10.003503, 9.99768 
1.5853919e+3, 3.0405772e+2, 332318.03, -200041.2, 18344.074, -0.087091245, 0.20312491, 332949.38, 332949.38, 0.0022836742, 10.003796, 9.9968 
1.5854256e+3, 3.1405437e+2, 349000.03, -131335.13, -59726.33, 0.17798188, 0.16079168, 356315.16, 356315.16, 0.0039605103, 10.003634, 9.997335 
1.5948114e+3, 1.2404789e+2, -2203555.0, -1870296.0, 74155.31, -0.100157805, 0.34930572, -1854540.1, -130185.03, 0.026239868, 9.996232, 10.000738 
1.5948485e+3, 1.3404758e+2, -1965176.8, -1788292.8, 117137.195, 0.28830034, 0.30013284, -1729959.0, -103599.02, 0.016040104, 9.997607, 9.999962 
1.5948807e+3, 1.4404674e+2, -1741938.9, -1649932.8, -753.9635, 0.26365548, 0.2339257, -1649926.5, -121556.92, 0.0073062, 9.998528, 9.9998045 
1.5949108e+3, 1.5404764e+2, -1715007.1, -1583049.3, 370.67752, 0.10696549, 0.31990802, -1583048.3, -152686.39, 0.002060233, 9.998035, 9.999823 
1.5949409e+3, 1.6404814e+2, -1583820.8, -1427016.3, -12929.235, -0.05363808, 0.38753793, -1425957.4, -93601.43, 0.00024185247, 9.9980955, 10.000182 
1.5949732e+3, 1.7404786e+2, -1328377.9, -1226269.8, -4074.6504, -0.028476369, 0.29989895, -1226107.5, 8247.018, 0.0000030340082, 9.99908, 10.0004015 
1.5950055e+3, 1.8404698e+2, -1258146.0, -1380022.8, -39017.84, 0.012511863, 0.27978903, -1246725.0, -110361.82, 0.0, 9.999894, 9.998294 
1.5950373e+3, 1.9404547e+2, -1095952.8, -1259404.5, -59654.184, 0.020707337, 0.28975636, -1076496.9, -38112.395, 0.0, 10.000382, 9.998208 
1.5950695e+3, 2.0404446e+2, -883038.25, -983074.1, -31580.79, -0.015597146, 0.3326259, -873902.7, 66494.36, 0.0, 10.000618, 9.999329 
1.5951021e+3, 2.1404421e+2, -796210.4, -857111.5, -32.711044, -0.07592533, 0.3287142, -796210.4, 46186.113, 0.0, 10.000406, 9.9996195 
1.5951343e+3, 2.2404347e+2, -710732.2, -806721.75, -49101.152, -0.12208468, 0.3224808, -690065.4, 54336.42, 0.0, 10.000502, 9.999251 
1.5951654e+3, 2.340421e+2, -508127.03, -649870.8, -17696.785, -0.15105611, 0.23239513, -505951.0, 140463.77, 0.0, 10.0011835, 9.999328 
1.5951976e+3, 2.4404103e+2, -392673.47, -642971.7, 57524.21, -0.16977721, 0.25080526, -380086.1, 168338.58, 0.0, 10.001748, 9.998408 
1.5952316e+3, 2.5404045e+2, -214831.19, -498219.3, 48270.13, -0.15571211, 0.3210317, -206834.86, 243595.48, 0.00000009760233, 10.002269, 9.998473 
1.5952641e+3, 2.6403832e+2, -140185.8, -528204.1, -48120.8, -0.16964819, 0.324275, -134307.08, 218142.47, 0.0000054247644, 10.002595, 9.997448 
1.5952946e+3, 2.7403432e+2, -21397.588, -412329.03, 2605.2112, -0.22814701, 0.14737883, -21380.229, 233105.36, 0.00006233866, 10.002716, 9.997505 
1.5953277e+3, 2.8403166e+2, 78951.58, -366507.97, 123538.31, -0.156599, 0.16221611, 110918.22, 267428.7, 0.00032369926, 10.002943, 9.997053 
1.5953644e+3, 2.940305e+2, 240421.14, -220394.4, 133868.73, 0.08277534, 0.30148253, 276487.72, 335010.2, 0.001047844, 10.003294, 9.997213 
1.5953976e+3, 3.0402708e+2, 346782.97, -96164.09, 3284.3884, 0.08701731, 0.23587775, 346807.3, 346807.3, 0.0023506319, 10.003512, 9.997639 
1.5954274e+3, 3.140252e+2, 369794.13, -7272.5957, -27893.523, -0.034516115, 0.24029543, 371846.38, 371846.38, 0.004077839, 10.00333, 9.9983225 
1.6048084e+3, 1.2401547e+2, -1931820.5, -1684871.8, -99380.5, -0.10182328, 0.39319018, -1649845.6, 74829.52, 0.027939666, 9.9978895, 10.001212 
1.6048461e+3, 1.3401464e+2, -1921103.3, -1727440.4, -18022.86, 0.30474716, 0.26138064, -1725777.4, -99094.08, 0.01712635, 9.997761, 10.000296 
1.6048789e+3, 1.4401455e+2, -1833353.4, -1680171.5, -33141.13, 0.26962578, 0.25345543, -1673308.9, -144624.1, 0.007836914, 9.997876, 9.999889 
1.6049096e+3, 1.5401594e+2, -1572764.1, -1498876.8, -31479.662, 0.15421405, 0.37553772, -1487283.9, -56610.266, 0.0022287087, 9.998971, 9.999931 
1.6049401e+3, 1.6401637e+2, -1415589.1, -1376299.6, -4775.43, 0.012256619, 0.44104025, -1375727.5, -43058.336, 0.00026665046, 9.999381, 9.99991 
1.6049719e+3, 1.7401531e+2, -1334742.4, -1264849.6, -24716.617, -0.054526858, 0.30888268, -1256992.3, -22316.805, 0.0000036433328, 9.999175, 10.000099 
1.6050045e+3, 1.840142e+2, -1351373.3, -1424485.6, -12046.888, -0.029629605, 0.28160763, -1349439.4, -212752.83, 0.0, 9.99925, 9.998297 
1.6050379e+3, 1.9401307e+2, -1139906.3, -1276654.4, 15063.499, 0.06928139, 0.3241892, -1138266.6, -99562.71, 0.0, 10.000051, 9.99825 
1.6050707e+3, 2.0401204e+2, -942956.75, -1012223.7, 52624.055, 0.070747495, 0.363201, -914592.06, 26124.516, 0.0, 10.000223, 9.999316 
1.6051023e+3, 2.140113e+2, -907232.8, -907702.5, 23819.418, -0.059535064, 0.31062296, -883647.06, -40926.02, 0.0, 9.999651, 9.999627 
1.6051342e+3, 2.2401054e+2, -824111.75, -829467.8, -3816.0005, -0.12765251, 0.2917865, -822127.8, -77401.78, 0.0, 9.999591, 9.999523 
1.6051663e+3, 2.3400998e+2, -601876.56, -651825.1, -22670.135, -0.122838005, 0.2508559, -593121.75, 53608.082, 0.0, 10.00037, 9.999683 
1.6051994e+3, 2.4400912e+2, -525648.3, -714025.6, 56376.164, -0.10585289, 0.27085567, -510065.5, 38671.73, 0.0, 10.000854, 9.998365 
1.605234e+3, 2.5400788e+2, -414080.53, -604424.25, 71369.6, -0.052681673, 0.28816473, -390293.16, 60456.313, 0.000000007673713, 10.000932, 9.998404 
1.6052668e+3, 2.6400584e+2, -232841.47, -497475.06, 22330.9, -0.09469246, 0.270432, -230970.33, 121796.58, 0.0000049768487, 10.001635, 9.998129 
1.6052969e+3, 2.7400294e+2, 102815.79, -275211.34, 2349.5698, -0.28138432, 0.13605428, 102830.39, 357619.66, 0.00006447964, 10.003223, 9.998219 
1.6053301e+3, 2.8400052e+2, 164042.39, -352940.3, 85255.5, -0.22953515, 0.15384081, 177738.98, 334549.47, 0.00032980586, 10.003634, 9.996814 
1.6053678e+3, 2.9399863e+2, 95546.445, -323730.88, 72210.18, 0.1465385, 0.25021166, 107634.37, 166466.55, 0.0010551694, 10.00245, 9.9969015 
1.6054012e+3, 3.0399477e+2, 228338.4, -168504.52, 5160.153, 0.15876448, 0.16264771, 228405.5, 228405.5, 0.0023622212, 10.002753, 9.997498 
1.6054311e+3, 3.1399366e+2, 644103.0, 150468.72, -134967.7, -0.063891254, 0.25218838, 678595.3, 678595.3, 0.0040958296, 10.005082, 9.998566 
1.6148083e+3, 1.2397693e+2, -1846734.0, -1568156.3, -80158.55, 0.05103773, 0.20987207, -1546737.9, 178320.94, 0.02978273, 9.998108, 10.001943 
1.6148414e+3, 1.3398051e+2, -1765951.3, -1413866.8, -26322.582, 0.038988963, 0.30417806, -1411909.6, 215110.55, 0.018308382, 9.997771, 10.002476 
1.6148749e+3, 1.439832e+2, -1779850.9, -1588800.0, -8126.358, 0.047898, 0.42923093, -1588455.0, -59463.48, 0.008418617, 9.997949, 10.000486 
1.6149081e+3, 1.5398206e+2, -1535349.4, -1427842.5, 17737.086, 0.07406989, 0.25286677, -1424991.6, 6010.0244, 0.0024150687, 9.998999, 10.000406 
1.61494e+3, 1.639812e+2, -1416733.3, -1412245.5, -23527.416, 0.022573816, 0.17635375, -1390855.1, -57845.555, 0.0002938315, 9.999508, 9.99961 
1.614971e+3, 1.739808e+2, -1360612.4, -1325042.4, -26413.908, -0.08506494, 0.15075943, -1310984.0, -75970.305, 0.000004294035, 9.999188, 9.999686 
1.6150033e+3, 1.839807e+2, -1295028.3, -1313785.9, 3254.7979, -0.094560266, 0.21464016, -1294479.6, -157463.58, 0.0, 9.99928, 9.99904 
1.6150378e+3, 1.9398105e+2, -1085683.4, -1153471.8, 53945.6, 0.035080675, 0.31610492, -1055867.8, -16852.535, 0.0, 10.000007, 9.999116 
1.615071e+3, 2.039804e+2, -981388.94, -1069969.9, 21885.64, 0.071536586, 0.3618818, -976276.75, -35253.63, 0.0, 10.000128, 9.998964 
1.6151026e+3, 2.1397847e+2, -958428.6, -988668.6, 9486.835, -0.007286084, 0.23830168, -955698.9, -112656.58, 0.0, 9.999543, 9.999122 
1.6151345e+3, 2.2397742e+2, -863223.56, -870423.06, 10896.185, -0.055918455, 0.2264711, -855347.9, -110295.52, 0.0, 9.999423, 9.99932 
1.6151674e+3, 2.3397782e+2, -634652.6, -683140.0, 18488.775, -0.059004404, 0.29670048, -628407.1, 18640.219, 0.0, 10.0002165, 9.999541 
1.6152012e+3, 2.4397722e+2, -515122.66, -661602.2, 50386.35, -0.021959763, 0.32956472, -499464.47, 49586.934, 0.0, 10.000714, 9.998795 
1.6152364e+3, 2.539752e+2, -397745.53, -543086.9, 86379.94, 0.082500376, 0.2179935, -357533.44, 93534.24, 0.00000000987263, 10.000813, 9.99888 
1.6152695e+3, 2.6397324e+2, -249238.17, -492359.3, 65538.086, -0.008422104, 0.17407918, -232696.55, 120386.266, 0.000004852571, 10.001469, 9.998241 
1.6152991e+3, 2.7397144e+2, 81517.31, -272700.25, 75740.15, -0.37598947, 0.1384175, 97032.75, 352127.75, 0.000064250504, 10.003038, 9.998317 
1.615332e+3, 2.8396896e+2, 124759.27, -398617.78, 35098.305, -0.41603875, 0.15592244, 127102.516, 284219.38, 0.00032947844, 10.003472, 9.996582 
1.6153689e+3, 2.9396543e+2, 63480.703, -371682.88, 42746.35, -0.003984966, 0.108765714, 67639.945, 126793.94, 0.0010457374, 10.002361, 9.996621 
1.6154028e+3, 3.0396074e+2, 136946.27, -315018.34, 65896.92, 0.026558302, -0.00031064995, 146358.11, 146358.11, 0.0023297316, 10.002594, 9.996549 
1.6154358e+3, 3.1396013e+2, 556323.9, 83685.53, 3486.991, -0.13777363, 0.2341933, 556349.6, 556349.6, 0.004027313, 10.004633, 9.998293 
1.624807e+3, 1.2394278e+2, -2050805.4, -1689433.6, 156176.02, 0.18175572, 0.16907352, -1631292.5, 94098.8, 0.03179242, 9.996818, 10.001704 
1.6248384e+3, 1.3394673e+2, -1791956.8, -1413707.4, 38925.305, -0.019392166, 0.28117898, -1409743.3, 217607.55, 0.019603958, 9.997527, 10.002594 
1.6248724e+3, 1.4394994e+2, -1824894.8, -1568138.6, 3528.2832, 0.039918892, 0.43729195, -1568090.1, -38772.73, 0.009062119, 9.997467, 10.00086 
1.6249059e+3, 1.5394853e+2, -1720883.9, -1459264.8, 16712.648, 0.04563908, 0.18619268, -1458201.4, -26872.814, 0.002624408, 9.997484, 10.000918 
1.6249385e+3, 1.6394797e+2, -1667952.1, -1538810.1, -4241.9307, 0.024728304, 0.114290476, -1538670.9, -205336.97, 0.00032476612, 9.9978285, 9.99954 
1.6249703e+3, 1.7394859e+2, -1423322.9, -1367276.1, -11440.865, -0.04037401, 0.20066917, -1365030.6, -129699.15, 0.000005034694, 9.998833, 9.999555 
1.6250032e+3, 1.8394879e+2, -1244542.4, -1247576.8, 42607.23, -0.042423144, 0.2882041, -1203425.3, -66094.016, 0.0, 9.999445, 9.99942 
1.6250376e+3, 1.9394858e+2, -1102711.8, -1102470.5, 46612.754, 0.03821971, 0.28538465, -1055978.3, -16645.73, 0.0, 9.999649, 9.999633 
1.6250709e+3, 2.03948e+2, -1023803.9, -1093419.9, 7613.709, 0.057073675, 0.3102521, -1022980.9, -81642.32, 0.0, 9.999849, 9.998936 
1.6251022e+3, 2.1394704e+2, -879476.1, -962200.1, 3047.5725, -0.013630483, 0.29304597, -879364.0, -36013.28, 0.0, 10.000128, 9.999027 
1.6251346e+3, 2.2394623e+2, -727689.0, -828007.56, 60177.2, -0.029200949, 0.3206023, -699507.7, 45852.13, 0.0, 10.000437, 9.999128 
1.6251688e+3, 2.3394577e+2, -568369.4, -678674.2, 45164.613, 0.0207471, 0.3255417, -552236.25, 95126.91, 0.0, 10.000775, 9.999311 
1.6252032e+3, 2.4394476e+2, -431432.56, -601300.94, 77498.72, 0.07643401, 0.32384664, -401389.06, 147981.28, 0.0, 10.0012045, 9.998968 
1.6252379e+3, 2.53943e+2, -233998.98, -443621.6, 65831.12, 0.109318905, 0.21675013, -215039.75, 236342.88, 0.000000011745934, 10.001838, 9.999072 
1.6252713e+3, 2.63941e+2, -171616.86, -512648.94, 51187.047, 0.001782215, 0.18159091, -164099.66, 189298.78, 0.0000048598445, 10.002256, 9.997717 
1.6253024e+3, 2.7393872e+2, -58145.063, -410446.88, -10673.255, -0.302991, 0.16453944, -57822.004, 197595.95, 0.00006262469, 10.002377, 9.997685 
1.6253358e+3, 2.8393593e+2, 43872.715, -421569.84, -69333.99, -0.34545258, 0.18198647, 53981.41, 211425.47, 0.00032559413, 10.00286, 9.9967165 
1.6253714e+3, 2.9393235e+2, 307253.88, -234195.92, -73815.164, -0.056573726, 0.11007829, 317136.63, 376617.88, 0.0010299457, 10.003952, 9.996801 
1.6254054e+3, 3.039281e+2, 384305.47, -207276.78, 45475.105, -0.052537914, 0.039584674, 387780.75, 387780.75, 0.002274774, 10.004326, 9.996478 
1.6254406e+3, 3.1392765e+2, 432557.53, 37496.465, 7819.5815, -0.05048976, 0.30685136, 432712.25, 432712.25, 0.0039009738, 10.003655, 9.998487 
1.6348028e+3, 1.2391318e+2, -2124001.8, -1848103.6, 35665.586, 0.03503571, 0.24054043, -1843567.6, -117897.4, 0.03398967, 9.996862, 10.000568 
1.6348368e+3, 1.3391332e+2, -1942334.3, -1726283.0, 65329.33, 0.058964048, 0.18426506, -1708065.0, -80390.87, 0.02102759, 9.99755, 10.000405 
1.6348714e+3, 1.4391457e+2, -1789257.5, -1526032.9, -20064.37, 0.15503898, 0.25688878, -1524512.3, 5152.158, 0.009775217, 9.997588, 10.001097 
1.6349028e+3, 1.5391557e+2, -1682075.1, -1376321.3, 24207.488, -0.024722595, 0.18807638, -1374416.5, 57235.72, 0.002860367, 9.99747, 10.001498 
1.6349356e+3, 1.6391693e+2, -1655178.6, -1522142.5, 19521.656, -0.08313681, 0.271184, -1519337.0, -185697.2, 0.00036087315, 9.997863, 9.999642 
1.6349697e+3, 1.7391863e+2, -1422027.9, -1365876.6, 31228.35, 0.0029005546, 0.46693015, -1351958.9, -116329.95, 0.000005927034, 9.998837, 9.999563 
1.6350035e+3, 1.8391845e+2, -1223417.5, -1219955.9, 40746.65, 0.035638176, 0.50574344, -1180903.3, -43270.56, 0.0, 9.999508, 9.999584 
1.6350369e+3, 1.939156e+2, -1093202.6, -1078936.6, 60778.01, 0.00094464596, 0.22366986, -1024874.5, 14781.982, 0.0, 9.999626, 9.999812 
1.6350695e+3, 2.0391467e+2, -1016655.8, -1059528.8, 7695.9087, -0.06094298, 0.19013995, -1015316.2, -73651.32, 0.0, 9.999765, 9.999211 
1.635101e+3, 2.1391675e+2, -876887.3, -932694.2, 24114.514, -0.15558037, 0.45144865, -867911.06, -24262.271, 0.0, 10.000014, 9.99929 
1.635134e+3, 2.239168e+2, -774933.25, -881179.5, 64145.246, -0.1503554, 0.561708, -744769.6, 880.559, 0.0, 10.000243, 9.998855 
1.6351697e+3, 2.3391387e+2, -610356.44, -734521.7, 67795.086, 0.03238885, 0.34888726, -580512.9, 67163.92, 0.0, 10.000641, 9.99899 
1.6352046e+3, 2.4391179e+2, -468021.13, -635631.3, 89734.17, 0.09520847, 0.26239392, -429043.84, 120649.97, 0.0, 10.001027, 9.998817 
1.6352382e+3, 2.539111e+2, -260814.36, -466761.34, 100626.375, -0.042368088, 0.2782491, -219811.44, 231883.64, 0.000000006263202, 10.001704, 9.998974 
1.6352722e+3, 2.6390907e+2, -270557.1, -691087.56, 47750.957, -0.14557524, 0.29889348, -265203.16, 88509.77, 0.000005059976, 10.002125, 9.996565 
1.6353063e+3, 2.7390507e+2, -163620.3, -603887.94, 14504.667, -0.17299011, 0.22719209, -163142.95, 92611.95, 0.000060713708, 10.0022545, 9.996422 
1.6353408e+3, 2.8390163e+2, 39607.95, -391157.56, -36996.16, -0.16032223, 0.23417096, 42762.254, 200552.55, 0.00031822023, 10.002701, 9.996998 
1.6353749e+3, 2.9389915e+2, 309616.97, -181436.98, -11162.441, -0.12724343, 0.23349261, 309870.56, 369685.53, 0.0010069326, 10.003759, 9.997251 
1.6354086e+3, 3.0389652e+2, 386322.06, -137077.22, 14398.933, -0.18664259, 0.27526325, 386717.88, 386717.88, 0.0022051174, 10.004056, 9.997085 
1.6354452e+3, 3.1389576e+2, 428647.72, 122563.49, 25220.01, 0.010506223, 0.43377593, 430711.8, 430711.8, 0.0037443512, 10.003278, 9.999244 
1.6448006e+3, 1.2388141e+2, -1964928.1, -1805731.0, -113951.12, 0.06955584, 0.2697085, -1746330.4, -20350.81, 0.036383986, 9.998118, 10.000262 
1.6448359e+3, 1.3387989e+2, -1972928.3, -1835295.4, 12014.846, 0.2113011, 0.13335356, -1834254.4, -206252.64, 0.022584815, 9.997752, 9.999567 
1.644869e+3, 1.4388114e+2, -1856550.0, -1578985.6, 4932.0786, 0.19751586, 0.26378167, -1578898.0, -48904.703, 0.010560797, 9.997219, 10.00091 
1.6449006e+3, 1.5388273e+2, -1605787.6, -1356134.6, -18041.2, -0.01074624, 0.26376334, -1354837.6, 77139.336, 0.0031241647, 9.998049, 10.00136 
1.644934e+3, 1.6388403e+2, -1519605.6, -1444505.5, -16544.203, -0.06731296, 0.34297392, -1441022.5, -107057.48, 0.0004029895, 9.998741, 9.999752 
1.6449688e+3, 1.7388488e+2, -1336738.5, -1311645.1, -12975.086, 0.012549955, 0.441667, -1306142.6, -70182.4, 0.0000070009137, 9.99936, 9.999689 
1.6450031e+3, 1.8388455e+2, -1196308.1, -1199389.5, -6301.4883, 0.04569148, 0.45867887, -1191361.8, -53396.91, 0.0, 9.999679, 9.999629 
1.6450368e+3, 1.938827e+2, -1064270.8, -1060921.0, -24219.941, 0.008279212, 0.2719472, -1038318.06, 1662.7993, 0.0, 9.99982, 9.999832 
1.6450694e+3, 2.0388207e+2, -967552.56, -998158.25, -60723.773, -0.04646221, 0.2532571, -920233.1, 21753.313, 0.0, 9.999937, 9.999549 
1.645101e+3, 2.1388343e+2, -839270.06, -864440.94, -53984.668, -0.138505, 0.4020135, -796423.25, 47550.98, 0.0, 10.0000725, 9.999718 
1.6451347e+3, 2.238833e+2, -729465.0, -856861.9, 36555.266, -0.12086951, 0.47095755, -719721.1, 26254.225, 0.0, 10.000549, 9.998881 
1.645171e+3, 2.3388094e+2, -477138.06, -674961.4, 44700.152, 0.06967562, 0.32034236, -467506.53, 180489.97, 0.0, 10.0015745, 9.998959 
1.6452064e+3, 2.4387898e+2, -358413.28, -631317.8, 66027.18, 0.120135754, 0.2692409, -343277.9, 206735.6, 0.0, 10.001997, 9.998377 
1.6452394e+3, 2.5387776e+2, -327072.38, -560861.3, 25076.158, -0.08104061, 0.2864998, -324412.97, 127610.08, 0.000000005166704, 10.001519, 9.998422 
1.6452737e+3, 2.6387557e+2, -332224.7, -691359.5, 35330.68, -0.16776177, 0.3133112, -328781.97, 25261.738, 0.000005473011, 10.001574, 9.99682 
1.6453096e+3, 2.7387193e+2, -87304.266, -524658.0, 81568.125, -0.08334959, 0.24037, -72586.76, 183494.28, 0.00005878461, 10.002606, 9.996783 
1.6453446e+3, 2.8386858e+2, 117850.16, -376746.78, 101666.516, -0.056372926, 0.24402371, 137932.72, 296047.78, 0.00030601537, 10.003346, 9.996785 
1.6453782e+3, 2.938661e+2, 232474.8, -253465.38, 47667.023, -0.14567623, 0.27515844, 237106.42, 297247.1, 0.00097375445, 10.003393, 9.996927 
1.6454116e+3, 3.0386373e+2, 325210.6, -135697.45, 39776.81, -0.23029925, 0.34781396, 328618.2, 328618.2, 0.0021281322, 10.003457, 9.997393 
1.6454488e+3, 3.1386125e+2, 459158.44, 158526.84, -26140.873, 0.06947033, 0.29413655, 461414.53, 461414.53, 0.0035925384, 10.003381, 9.999436 
1.654799e+3, 1.2384761e+2, -1891130.9, -1689450.9, -102936.49, 0.051225413, 0.28999078, -1646191.6, 80127.17, 0.03897044, 9.998272, 10.0009985 
1.6548352e+3, 1.3384673e+2, -1933175.3, -1747915.8, -18640.838, 0.34972268, 0.1560632, -1746058.8, -117728.18, 0.024272982, 9.9977255, 10.000181 
1.6548651e+3, 1.4385e+2, -1898703.5, -1671208.1, 10249.274, 0.06034438, 0.4776658, -1670747.3, -140446.44, 0.0114189135, 9.997235, 10.000271 
1.6548991e+3, 1.5385011e+2, -1669468.4, -1492098.9, 22210.09, 0.006884603, 0.424557, -1489360.0, -57058.668, 0.0034161112, 9.998066, 10.00042 
1.6549334e+3, 1.6384932e+2, -1490415.9, -1414115.1, -5209.86, -0.031173965, 0.3405637, -1413761.0, -79452.16, 0.00045137366, 9.998856, 9.999911 
1.6549672e+3, 1.7384739e+2, -1310291.0, -1257992.0, 16114.527, -0.08634867, 0.1252482, -1253425.5, -17100.813, 0.000008273259, 9.999364, 10.000054 
1.6550016e+3, 1.8384717e+2, -1199653.6, -1220743.4, -7845.266, -0.09535739, 0.1384197, -1197055.4, -58728.32, 0.0, 9.999729, 9.999464 
1.6550364e+3, 1.9384977e+2, -1086320.0, -1102866.3, -12491.821, -0.01883357, 0.4229706, -1079610.1, -39303.56, 0.0, 9.999789, 9.999566 
1.65507e+3, 2.0385021e+2, -953790.0, -944178.9, -64137.05, 0.0013703047, 0.50820434, -884667.6, 57635.332, 0.0, 9.999832, 9.999969 
1.6551022e+3, 2.1384726e+2, -819140.8, -795583.3, -41130.598, -0.04732196, 0.17147915, -764578.1, 79747.055, 0.0, 9.999955, 10.000246 
1.655136e+3, 2.2384578e+2, -727382.75, -822857.44, 59779.656, -0.043129798, 0.06313283, -698618.7, 47716.414, 0.0, 10.00042, 9.999179 
1.6551726e+3, 2.3384683e+2, -481084.7, -648809.56, 94197.69, 0.051820572, 0.22848517, -438827.7, 209496.13, 0.0, 10.001425, 9.999214 
1.6552077e+3, 2.4384621e+2, -441340.53, -761203.1, 47196.367, 0.04774684, 0.33232117, -434521.97, 115808.93, 0.0, 10.001814, 9.997573 
1.655241e+3, 2.538431e+2, -413197.8, -703068.5, 19061.877, -0.09239577, 0.24798451, -411949.7, 40415.54, 0.00000000856411, 10.001373, 9.997507 
1.6552755e+3, 2.6384062e+2, -256654.55, -506592.9, 58190.508, -0.15809219, 0.23345673, -243770.78, 110619.3, 0.0000057188686, 10.001445, 9.998157 
1.655312e+3, 2.7383903e+2, 14713.041, -286865.4, 132291.38, -0.111233644, 0.20690979, 64518.926, 320918.78, 0.00005715205, 10.002489, 9.998476 
1.6553475e+3, 2.838365e+2, 48824.516, -481920.56, 91794.47, -0.11868861, 0.2257318, 64252.277, 222674.73, 0.00029400203, 10.003174, 9.99615 
1.655381e+3, 2.938329e+2, 150411.9, -398891.88, 65625.64, -0.22069173, 0.23228972, 158143.42, 218605.39, 0.0009429052, 10.003271, 9.995992 
1.6554144e+3, 3.0382958e+2, 280703.22, -163710.89, 23893.37, -0.31253153, 0.26523387, 281984.13, 281984.13, 0.0020703662, 10.003204, 9.997313 
1.6554515e+3, 3.1382415e+2, 388045.7, 75838.484, 25341.902, -0.03823393, -0.08322232, 390089.34, 390089.34, 0.0034931994, 10.003102, 9.998999 
1.6647968e+3, 1.2381399e+2, -2020455.8, -1702837.9, 30695.768, 0.07231343, 0.30522355, -1699898.5, 26753.62, 0.041736465, 9.997147, 10.0014515 
1.6648328e+3, 1.338131e+2, -1879191.1, -1720282.1, -62306.914, 0.33007446, 0.16600107, -1698765.5, -70103.74, 0.026087236, 9.998063, 10.000216 
1.6648619e+3, 1.4381643e+2, -1764270.4, -1634508.4, -8045.534, -0.025523327, 0.5014287, -1634011.4, -103380.75, 0.012349877, 9.998286, 10.00001 
1.6648977e+3, 1.5381601e+2, -1657626.6, -1514528.5, 38399.59, 0.053678647, 0.4249962, -1504875.4, -72239.08, 0.003737191, 9.998281, 10.000154 
1.6649327e+3, 1.63815e+2, -1540508.1, -1432592.3, 64661.01, 0.06001335, 0.33252725, -1402333.3, -67687.35, 0.00050616945, 9.99851, 9.999939 
1.6649666e+3, 1.7381302e+2, -1296461.0, -1247472.1, 43564.13, -0.080986135, 0.10563068, -1221988.5, 14673.135, 0.000009797576, 9.999438, 10.000091 
1.6650009e+3, 1.838129e+2, -1225707.6, -1216795.1, -3069.2144, -0.116967544, 0.121914625, -1215840.5, -77177.7, 0.0, 9.999492, 9.999596 
1.6650355e+3, 1.9381596e+2, -1251628.5, -1158710.1, -1861.9293, -0.016054263, 0.43622497, -1158672.9, -118034.86, 0.0, 9.998577, 9.999747 
1.6650698e+3, 2.0381644e+2, -1123821.5, -1047536.2, 10629.447, 0.046876367, 0.52061254, -1046082.8, -103448.836, 0.0, 9.998755, 9.999776 
1.6651036e+3, 2.1381296e+2, -727859.0, -778409.8, -32075.225, 0.05812601, 0.15645309, -712297.4, 132363.63, 0.0, 10.000697, 10.000006 
1.665138e+3, 2.2381108e+2, -564462.4, -781008.3, 7548.609, 0.057978056, 0.036676764, -564199.56, 182475.67, 0.0, 10.001702, 9.998837 
1.6651735e+3, 2.3381189e+2, -528177.4, -707612.6, -29096.645, 0.027411332, 0.21071881, -523577.1, 125091.08, 0.0, 10.001262, 9.998873 
1.6652088e+3, 2.4381134e+2, -523054.3, -769471.3, -59378.68, 0.0156004755, 0.32958135, -509492.34, 41182.953, 0.0, 10.0011, 9.997877 
1.6652434e+3, 2.538088e+2, -376206.38, -640221.75, -12966.387, 0.03284561, 0.2647932, -375571.1, 77132.46, 0.0000000057748837, 10.00142, 9.997928 
1.6652787e+3, 2.6380676e+2, -168957.11, -436823.53, 100822.57, 0.0029406184, 0.2666794, -135249.95, 219472.98, 0.0000055479773, 10.001945, 9.998389 
1.6653144e+3, 2.7380556e+2, 80098.1, -246782.88, 53566.473, -0.12747055, 0.26343673, 88652.266, 345380.6, 0.000055344583, 10.002883, 9.998577 
1.66535e+3, 2.8380293e+2, 89185.26, -457263.5, -35589.316, -0.17295347, 0.26046973, 91493.38, 250245.16, 0.00028408016, 10.003425, 9.996193 
1.6653852e+3, 2.937986e+2, 158522.86, -389493.0, -42408.004, -0.111671284, 0.19780089, 161785.17, 222582.11, 0.00092112675, 10.003326, 9.996017 
1.6654192e+3, 3.0379516e+2, 369677.2, -143905.7, 2756.7468, -0.17449231, 0.22595635, 369691.97, 369691.97, 0.0020421273, 10.003915, 9.997104 
1.6654548e+3, 3.1379038e+2, 630858.44, 121359.99, -65976.44, -0.1045713, -0.026435027, 639263.3, 639263.3, 0.0034631195, 10.005108, 9.99834 
1.674794e+3, 1.2378047e+2, -2000392.3, -1657311.4, 159891.36, 0.035970025, 0.30765542, -1594349.5, 132630.63, 0.044670317, 9.997122, 10.001802 
1.6748281e+3, 1.3377918e+2, -1918686.5, -1806499.8, -33246.25, 0.047936607, 0.18043429, -1797387.5, -168393.84, 0.028026333, 9.998085, 9.999614 
1.6748591e+3, 1.437802e+2, -1732734.3, -1592501.4, -19993.414, -0.15774278, 0.30677617, -1589706.5, -58721.918, 0.013357116, 9.99838, 10.000254 
1.6748959e+3, 1.5378046e+2, -1631731.9, -1462626.9, 46320.242, 0.047633618, 0.2605784, -1450770.5, -17788.975, 0.004090086, 9.99828, 10.000515 
1.674932e+3, 1.63781e+2, -1542806.9, -1451482.1, 83258.26, 0.10343672, 0.30970982, -1402186.8, -67210.13, 0.0005678562, 9.998568, 9.999784 
1.6749665e+3, 1.7378178e+2, -1320165.8, -1289238.8, 84946.09, -0.04524414, 0.38672557, -1218360.1, 18610.63, 0.000011659807, 9.999412, 9.999817 
1.6750006e+3, 1.8378192e+2, -1185985.6, -1151074.9, -41028.086, -0.118464895, 0.4251033, -1123943.4, 15026.9375, 0.0, 9.99955, 10.000028 
1.6750337e+3, 1.9378127e+2, -1217698.6, -1085240.5, -30809.994, -0.067877516, 0.31479335, -1078424.8, -37449.33, 0.0, 9.998555, 10.000271 
1.6750681e+3, 2.0378065e+2, -1181598.8, -1156671.8, 60217.246, -0.0005985927, 0.29448235, -1107641.8, -164661.27, 0.0, 9.998706, 9.999052 
1.6751048e+3, 2.1378028e+2, -813941.56, -928870.4, 50263.75, 0.10010006, 0.33417213, -795060.7, 49922.91, 0.0, 10.000566, 9.999042 
1.6751401e+3, 2.2377896e+2, -665304.2, -940744.5, -6393.373, 0.08901638, 0.3661082, -665155.9, 81841.88, 0.0, 10.001491, 9.99784 
1.6751738e+3, 2.3377617e+2, -618775.5, -863869.9, -36058.94, -0.08192029, 0.28105086, -613580.5, 35447.668, 0.0, 10.001125, 9.997865 
1.675209e+3, 2.4377449e+2, -448220.2, -583694.06, -59450.07, -0.077075206, 0.28158057, -425831.63, 125213.73, 0.0, 10.000965, 9.999217 
1.6752467e+3, 2.537748e+2, -276733.22, -406386.16, 10177.178, 0.20163818, 0.3385741, -275939.22, 177099.5, 0.0000000017385277, 10.001302, 9.999589 
1.6752829e+3, 2.6377404e+2, -245974.0, -568923.1, 122977.2, 0.20386718, 0.40813038, -204477.08, 150566.31, 0.0000048816705, 10.001813, 9.997551 
1.6753165e+3, 2.7377146e+2, -22769.133, -432296.5, 106240.46, -0.22068599, 0.38559365, 3151.389, 260218.61, 0.000051549574, 10.002752, 9.997371 
1.6753522e+3, 2.837678e+2, 86063.23, -414207.3, -41571.277, -0.33015418, 0.33653414, 89494.164, 248595.66, 0.0002709475, 10.003209, 9.996595 
1.6753905e+3, 2.937631e+2, 197986.92, -287022.13, -23939.178, 0.050410446, 0.16652912, 199165.66, 260311.28, 0.00089568296, 10.003221, 9.99678 
1.6754255e+3, 3.037602e+2, 299680.6, -222528.08, 33862.52, 0.0343913, 0.2127601, 301867.25, 301867.25, 0.0020176223, 10.003645, 9.996685 
1.675458e+3, 3.1375867e+2, 511416.0, -37122.215, 12264.207, -0.34281498, 0.34917974, 511690.06, 511690.06, 0.003463118, 10.004734, 9.9974165 
1.6847917e+3, 1.23746336e+2, -2071467.0, -1650076.1, 149166.0, 0.14800757, 0.38496682, -1602618.4, 124697.55, 0.04776628, 9.9964695, 10.002158 
1.6848245e+3, 1.3374485e+2, -2121557.5, -1882321.3, -63371.215, -0.050191864, 0.21403982, -1866571.6, -237240.1, 0.030093629, 9.996622, 9.999788 
1.6848576e+3, 1.437456e+2, -1864900.8, -1643760.4, -3084.1929, -0.096167654, 0.29975754, -1643717.4, -112392.96, 0.0144471, 9.997417, 10.000368 
1.6848947e+3, 1.5374549e+2, -1573041.3, -1420743.8, 16749.58, 0.086841665, 0.20235242, -1418923.4, 14399.894, 0.004479329, 9.998627, 10.000638 
1.6849308e+3, 1.6374616e+2, -1485433.1, -1439932.6, 55196.508, 0.11888501, 0.2675513, -1402981.8, -67664.85, 0.0006375465, 9.999038, 9.999637 
1.6849656e+3, 1.7374796e+2, -1434445.5, -1356327.3, 47952.16, -0.03926595, 0.45955873, -1333539.6, -96236.08, 0.00001399049, 9.998691, 9.999694 
1.685e+3, 1.8374817e+2, -1295397.6, -1217133.4, -79799.83, -0.096841276, 0.517008, -1167387.4, -28084.28, 0.0, 9.998865, 9.999899 
1.6850333e+3, 1.9374608e+2, -997935.56, -998418.2, -133988.92, -0.028564433, 0.27892748, -864187.75, 177132.98, 0.0, 10.0001335, 10.000112 
1.6850682e+3, 2.0374507e+2, -887597.3, -1017913.25, -15321.933, 0.038166277, 0.23007517, -885820.06, 57509.52, 0.0, 10.000739, 9.999029 
1.685105e+3, 2.1374615e+2, -851231.5, -941182.6, 23143.725, 0.09593811, 0.4129723, -845626.06, -305.0498, 0.0, 10.0002985, 9.999084 
1.6851409e+3, 2.2374536e+2, -813237.1, -1007010.44, 49501.883, 0.083657995, 0.4970981, -801323.7, -53993.15, 0.0, 10.000435, 9.9979105 
1.6851753e+3, 2.3374175e+2, -562378.56, -827633.75, 81040.695, -0.04600539, 0.32258725, -539578.75, 109789.47, 0.0, 10.001467, 9.997963 
1.6852109e+3, 2.4373962e+2, -264780.6, -511959.03, 73823.445, -0.031416815, 0.28097802, -244410.8, 306977.97, 0.0, 10.002302, 9.999052 
1.6852485e+3, 2.5374004e+2, -66877.38, -336469.06, -12358.038, 0.18428032, 0.36587587, -66312.08, 387068.53, 0.0000000018399801, 10.002858, 9.999321 
1.685285e+3, 2.6373893e+2, -110071.01, -536954.0, 51956.773, 0.20061475, 0.43048036, -103838.25, 251550.39, 0.0000039092515, 10.002896, 9.997247 
1.6853201e+3, 2.7373546e+2, -112626.77, -499578.53, 67797.6, -0.095385924, 0.3499763, -101091.84, 156330.14, 0.000046409757, 10.002273, 9.997122 
1.6853565e+3, 2.837317e+2, -5286.3687, -430463.78, -3773.678, -0.16316216, 0.2921064, -5252.878, 154204.42, 0.00025641202, 10.002458, 9.996852 
1.6853943e+3, 2.9372802e+2, 334881.8, -179519.89, -33393.832, 0.10141402, 0.19612426, 337040.63, 398530.16, 0.00086490717, 10.003981, 9.997156 
1.6854292e+3, 3.0372515e+2, 413779.88, -170222.98, 12826.42, 0.03200913, 0.22322135, 414061.44, 414061.44, 0.0019804847, 10.00441, 9.996698 
1.6854623e+3, 3.137236e+2, 195803.11, -230873.95, -34608.457, -0.26224652, 0.38328943, 198592.03, 198592.03, 0.0034477932, 10.002676, 9.997122 
1.6947894e+3, 1.2371123e+2, -2037805.3, -1609020.8, 48761.715, 0.21830067, 0.4815648, -1603545.4, 124118.164, 0.051028147, 9.99657, 10.002406 
1.6948211e+3, 1.3370997e+2, -2069203.1, -1753278.4, -36899.56, -0.049995538, 0.24415903, -1749025.8, -119348.72, 0.032295942, 9.996533, 10.000717 
1.6948569e+3, 1.4371283e+2, -1861129.6, -1647552.3, 34895.477, 0.06566517, 0.49123973, -1641995.4, -110346.97, 0.015627254, 9.997457, 10.00033 
1.6948934e+3, 1.5371133e+2, -1583570.8, -1450498.9, 70458.84, 0.087297134, 0.27690724, -1420125.3, 13534.176, 0.004910431, 9.998656, 10.000424 
1.694929e+3, 1.6371056e+2, -1475497.1, -1439787.6, 34593.99, 0.0005394559, 0.21146011, -1418712.5, -83046.73, 0.0007170378, 9.99912, 9.9996 
1.6949634e+3, 1.7371161e+2, -1436013.0, -1361141.6, 40991.707, -0.14225139, 0.3302466, -1343063.8, -105404.61, 0.000016975888, 9.998691, 9.999663 
1.6949986e+3, 1.8371172e+2, -1335282.9, -1314383.5, -50999.723, -0.15265267, 0.40836707, -1272773.9, -133113.28, 0.0, 9.99892, 9.9992075 
1.695034e+3, 1.9371039e+2, -1062063.6, -1120052.4, -80085.28, 0.013479548, 0.32632202, -1005885.6, 35788.543, 0.0, 10.000081, 9.999304 
1.6950694e+3, 2.0370977e+2, -863114.2, -935944.25, -36592.594, 0.06946213, 0.33395937, -847904.9, 95775.72, 0.0, 10.000607, 9.999656 
1.6951041e+3, 2.1371055e+2, -808231.6, -829136.8, 14387.498, -0.035978213, 0.40689507, -800900.6, 44772.0, 0.0, 10.000194, 9.999907 
1.69514e+3, 2.2371031e+2, -754262.8, -848182.56, 70275.51, -0.06439441, 0.4468724, -716701.25, 30972.65, 0.0, 10.000282, 9.999072 
1.6951777e+3, 2.3370852e+2, -507936.66, -670319.2, 130294.74, 0.039904725, 0.3339989, -435606.78, 214083.03, 0.0, 10.001277, 9.999133 
1.6952142e+3, 2.4370652e+2, -414685.75, -765378.9, 86419.81, 0.053936206, 0.31060052, -394546.25, 157162.22, 0.0, 10.002049, 9.9974375 
1.6952488e+3, 2.5370452e+2, -230065.3, -638272.9, 19609.58, -0.072619975, 0.35357267, -229125.45, 224603.6, 0.0000000033657745, 10.002702, 9.997323 
1.6952851e+3, 2.6370165e+2, -126248.18, -534897.7, 25946.693, -0.08379418, 0.3520804, -124607.31, 231149.08, 0.0000030031388, 10.002741, 9.997338 
1.6953248e+3, 2.7369764e+2, -97727.07, -446165.8, 57734.125, 0.13147393, 0.17386621, -88410.02, 169382.44, 0.000041455987, 10.002178, 9.997535 
1.6953626e+3, 2.8369445e+2, -20952.32, -429897.9, 30624.875, 0.19030274, 0.14613569, -18671.621, 141149.02, 0.0002433747, 10.002312, 9.996929 
1.695397e+3, 2.9369286e+2, 307850.66, -189133.03, 41345.13, -0.036732502, 0.25609094, 311266.75, 373100.44, 0.0008324831, 10.00377, 9.997197 
1.6954307e+3, 3.0368963e+2, 378617.75, -152698.23, -41930.082, -0.26557586, 0.2341673, 381906.4, 381906.4, 0.0019236974, 10.004042, 9.996985 
1.6954668e+3, 3.1368622e+2, 190340.38, -166613.9, -62748.51, -0.10149165, 0.16547158, 201049.56, 201049.56, 0.00338125, 10.002381, 9.997686 
1.7047861e+3, 1.2367458e+2, -2105708.0, -1668426.3, 27014.842, 0.26411334, 0.43938592, -1666763.6, 61260.406, 0.054460447, 9.996215, 10.002158 
1.7048185e+3, 1.3367444e+2, -1985477.8, -1675093.4, -80947.336, 0.022853604, 0.28794727, -1655251.0, -25223.352, 0.034638863, 9.996931, 10.001067 
1.704855e+3, 1.43678e+2, -1868343.9, -1632939.8, 497.5248, 0.15293294, 0.5757061, -1632938.6, -100945.695, 0.016903277, 9.997361, 10.000468 
1.7048915e+3, 1.5367648e+2, -1743750.3, -1516094.8, 29645.303, 0.09848341, 0.352696, -1512297.6, -78294.26, 0.00538814, 9.99752, 10.000512 
1.7049272e+3, 1.6367522e+2, -1648498.5, -1526929.8, 14494.6455, -0.0045273816, 0.23203792, -1525225.4, -189211.47, 0.0008082668, 9.997935, 9.999576 
1.7049627e+3, 1.7367536e+2, -1382163.9, -1337361.6, 5671.0864, -0.09071803, 0.26410255, -1336654.9, -98640.13, 0.000020835996, 9.99906, 9.999658 
1.7049985e+3, 1.8367532e+2, -1227481.0, -1258500.3, -36066.832, -0.07888071, 0.32954776, -1203730.4, -63713.79, 0.0, 9.999645, 9.999249 
1.7050341e+3, 1.9367497e+2, -1132522.5, -1147410.3, -20584.238, 0.039788254, 0.3396295, -1118077.5, -76057.23, 0.0, 9.999569, 9.999371 
1.7050695e+3, 2.0367454e+2, -981858.4, -1016072.1, 45457.91, 0.08102888, 0.37265986, -950395.06, -6370.0454, 0.0, 9.999892, 9.999439 
1.7051049e+3, 2.1367435e+2, -708036.44, -811186.06, -1801.5043, -0.004834892, 0.37234762, -708005.0, 138022.92, 0.0, 10.001018, 9.999624 
1.7051412e+3, 2.23674e+2, -556944.7, -724728.4, -10625.5, -0.0136679765, 0.40477782, -556274.5, 191756.89, 0.0, 10.001518, 9.999319 
1.7051794e+3, 2.3367351e+2, -534070.44, -645633.1, -38171.652, 0.09982033, 0.39142776, -522260.13, 127774.32, 0.0, 10.000941, 9.999459 
1.7052162e+3, 2.4367194e+2, -578480.25, -867322.94, -27183.627, 0.10438456, 0.40418744, -575944.2, -23895.156, 0.0, 10.001033, 9.997229 
1.705251e+3, 2.5366876e+2, -309365.06, -703196.1, 7711.8184, -0.09276554, 0.3581943, -309214.13, 144867.4, 0.0000000026261497, 10.00229, 9.997071 
1.705288e+3, 2.6366532e+2, -60393.094, -514042.66, 62871.45, -0.099525556, 0.31748557, -51840.94, 304274.16, 0.0000021613648, 10.003237, 9.997242 
1.7053284e+3, 2.7366188e+2, 115512.58, -355815.1, 34188.246, 0.20686457, 0.20903742, 117979.54, 376126.28, 0.000036656253, 10.00369, 9.99743 
1.7053665e+3, 2.836593e+2, 203781.33, -257053.42, 36916.734, 0.29621464, 0.22385532, 206719.92, 366889.2, 0.00022920681, 10.003592, 9.997493 
1.7054002e+3, 2.93658e+2, 186744.38, -176678.06, 61638.64, -0.029462244, 0.30095103, 196914.08, 259091.89, 0.00079222047, 10.002643, 9.997825 
1.7054334e+3, 3.036547e+2, 205329.8, -195657.6, 21529.258, -0.30960497, 0.22123617, 206482.4, 206482.4, 0.001835269, 10.002653, 9.997359 
1.705471e+3, 3.1365144e+2, 478393.9, 34940.58, -60043.1, -0.00039602548, 0.13147563, 486379.88, 486379.88, 0.0032408757, 10.004092, 9.998236 
1.7147805e+3, 1.2363567e+2, -2163571.5, -1776653.0, 26981.125, 0.029897427, 0.1757483, -1774780.6, -46376.47, 0.058051143, 9.99619, 10.001395 
1.7148161e+3, 1.3363887e+2, -2011150.4, -1715209.5, -43690.707, 0.091281146, 0.39412692, -1708894.0, -78516.305, 0.037118543, 9.996891, 10.000805 
1.7148516e+3, 1.4364117e+2, -1829294.4, -1583851.5, -2258.8435, 0.044183493, 0.5605651, -1583830.8, -51473.816, 0.018276531, 9.997473, 10.000763 
1.7148885e+3, 1.5364075e+2, -1722235.5, -1472321.5, 43317.563, 0.026534997, 0.41382337, -1465026.3, -30668.803, 0.005915651, 9.997513, 10.000823 
1.7149256e+3, 1.636401e+2, -1640791.6, -1514115.6, 38568.563, 0.01089692, 0.33389807, -1503296.8, -166935.3, 0.0009130136, 9.997954, 9.999649 
1.7149632e+3, 1.7363936e+2, -1384379.5, -1334972.5, 55496.72, 0.03584028, 0.27258813, -1298929.4, -60560.453, 0.000025810483, 9.999038, 9.999678 
1.7149994e+3, 1.836391e+2, -1169897.3, -1148251.1, -43390.188, 0.030031772, 0.28250483, -1114354.5, 26015.734, 0.0, 9.999675, 9.999995 
1.715033e+3, 1.9363981e+2, -1073039.1, -1019937.94, -16157.406, -0.032145876, 0.311804, -1015408.06, 26951.31, 0.0, 9.999546, 10.000258 
1.7150685e+3, 2.0363946e+2, -1063847.9, -1171183.9, 73330.03, -0.029477302, 0.34638593, -1026644.8, -82282.234, 0.0, 9.9998255, 9.998409 
1.7151071e+3, 2.1363749e+2, -824406.5, -1015894.94, 50255.78, 0.10129144, 0.298152, -812018.4, 34369.58, 0.0, 10.0008545, 9.9983 
1.7151445e+3, 2.2363633e+2, -635835.44, -836048.8, -31396.275, 0.14721633, 0.35242748, -631027.5, 117376.35, 0.0, 10.001287, 9.998671 
1.71518e+3, 2.3363683e+2, -587737.44, -732690.5, -47391.48, 0.0552373, 0.4974784, -573618.4, 76782.3, 0.0, 10.000828, 9.998921 
1.7152163e+3, 2.436359e+2, -528727.25, -727765.44, 2575.0996, 0.0029463805, 0.5572858, -528693.94, 23715.832, 0.0, 10.000882, 9.998257 
1.7152545e+3, 2.5363252e+2, -246208.13, -533407.75, 66962.7, 0.019484766, 0.3674691, -231362.66, 223077.1, 0.0000000000058928205, 10.002123, 9.998317 
1.7152926e+3, 2.6362956e+2, -115843.06, -573149.44, 70832.17, 0.032729033, 0.3146828, -105123.16, 251344.92, 0.0000014626683, 10.003001, 9.996949 
1.7153306e+3, 2.7362782e+2, 48884.285, -442733.88, 62752.17, 0.065350026, 0.42648873, 56767.813, 315256.03, 0.000032258973, 10.003471, 9.996937 
1.715368e+3, 2.8362584e+2, 229891.16, -149599.73, -16.140423, 0.07756404, 0.49475023, 229891.16, 390397.34, 0.00021422045, 10.003353, 9.998351 
1.7154033e+3, 2.9362333e+2, 239456.88, -26345.096, 46010.05, -0.0062927213, 0.3341552, 247195.84, 309718.4, 0.00074489583, 10.0024605, 9.998945 
1.715437e+3, 3.036201e+2, 170221.67, -191931.3, 46759.695, -0.24453951, 0.18860626, 176161.67, 176161.67, 0.0017239801, 10.00235, 9.997523 
1.7154743e+3, 3.1361803e+2, 459346.1, 105709.875, 28829.988, -0.11604676, 0.21003708, 461681.03, 461681.03, 0.003050988, 10.003666, 9.99891 
1.7247762e+3, 1.2359863e+2, -2160946.3, -1728246.3, 74580.98, 0.00865505, 0.18417262, -1715752.1, 13019.329, 0.06177432, 9.99599, 10.001835 
1.724813e+3, 1.3360207e+2, -2039532.6, -1719318.5, -58017.895, 0.1111062, 0.40769964, -1709130.6, -78390.94, 0.039721623, 9.996651, 10.000887 
1.7248483e+3, 1.4360374e+2, -1899059.8, -1629869.0, 6061.857, 0.0022605709, 0.51273036, -1629732.5, -97008.38, 0.019743169, 9.9970455, 10.00065 
1.7248864e+3, 1.5360391e+2, -1645731.8, -1444157.3, -2271.5295, 0.053943913, 0.43426543, -1444131.6, -9410.286, 0.006494274, 9.998059, 10.000761 
1.7249244e+3, 1.6360392e+2, -1551076.4, -1433855.0, -374.39325, 0.08741039, 0.4111607, -1433853.9, -97134.08, 0.001032908, 9.998414, 9.999983 
1.724962e+3, 1.7360336e+2, -1520433.1, -1356369.3, 20434.078, 0.0901276, 0.32933152, -1353862.5, -115139.16, 0.00003215152, 9.99791, 10.000079 
1.7249985e+3, 1.8360303e+2, -1377944.9, -1227845.3, -39945.617, 0.0742042, 0.30153298, -1217876.6, -77153.016, 0.0, 9.998168, 10.000167 
1.7250331e+3, 1.9360352e+2, -973451.94, -954844.3, -85041.66, -0.007978677, 0.29573104, -878599.06, 164114.92, 0.0, 10.000166, 10.000398 
1.725069e+3, 2.03603e+2, -914264.94, -1118703.9, -20042.012, -0.008536057, 0.31258497, -912318.7, 32399.594, 0.0, 10.000934, 9.998242 
1.7251074e+3, 2.1360087e+2, -1003559.2, -1127738.4, 14480.733, 0.12589484, 0.27555954, -1001892.9, -155147.94, 0.0, 9.999731, 9.998082 
1.7251451e+3, 2.2359948e+2, -883997.56, -985490.4, 42083.04, 0.17454797, 0.33184955, -868818.44, -120054.766, 0.0, 9.999732, 9.998383 
1.7251813e+3, 2.335996e+2, -452665.88, -701244.0, 25348.996, 0.061707377, 0.46857944, -450107.25, 200658.36, 0.0, 10.001923, 9.998596 
1.7252184e+3, 2.4359861e+2, -227063.6, -580841.0, 44424.188, 0.030807357, 0.54132134, -221570.48, 331206.13, 0.0, 10.002946, 9.998264 
1.7252573e+3, 2.5359592e+2, -272118.16, -535587.06, 4348.6997, 0.11439814, 0.41127318, -272046.4, 182755.13, 0.0000000000049057277, 10.00191, 9.998393 
1.7252955e+3, 2.6359355e+2, -301522.8, -609415.9, 21901.367, 0.10920306, 0.3966651, -299972.72, 56851.652, 0.0000011502509, 10.001498, 9.997422 
1.7253326e+3, 2.7359217e+2, -110762.73, -462481.47, 61784.87, -0.022550046, 0.49254623, -100224.97, 158615.27, 0.000029351942, 10.002125, 9.997451 
1.7253697e+3, 2.8359047e+2, 102735.64, -180117.27, 3207.378, -0.019531267, 0.5423764, 102772.01, 263627.75, 0.0002033291, 10.002353, 9.998615 
1.7254065e+3, 2.9358795e+2, 168375.94, -41241.457, -55284.96, 0.1145477, 0.3673966, 182063.19, 244935.58, 0.00070474244, 10.001902, 9.999101 
1.7254412e+3, 3.035852e+2, 175593.98, -258046.67, 8592.503, -0.06157767, 0.28950697, 175764.17, 175764.17, 0.0016267638, 10.002656, 9.996941 
1.7254789e+3, 3.135831e+2, 670473.25, 128735.195, -83094.24, -0.08679449, 0.3855397, 682932.1, 682932.1, 0.002882607, 10.00538, 9.998294 
1.734773e+3, 1.23564735e+2, -2021558.4, -1459820.4, 198479.17, 0.054647535, 0.5914119, -1396768.9, 332345.22, 0.06561491, 9.996023, 10.003793 
1.7348085e+3, 1.3356386e+2, -2022282.6, -1669027.9, -46693.117, -0.026359329, 0.312467, -1662960.3, -31844.883, 0.042436883, 9.996592, 10.00126 
1.7348447e+3, 1.4356539e+2, -1934806.8, -1707920.9, 24666.396, -0.08456737, 0.4125519, -1705270.1, -172172.47, 0.021297567, 9.997064, 10.000101 
1.7348848e+3, 1.53566e+2, -1674997.3, -1505693.8, 42510.027, 0.08014032, 0.42281476, -1495619.5, -60524.805, 0.0071235094, 9.998067, 10.00033 
1.7349233e+3, 1.635668e+2, -1492076.3, -1337635.9, -22884.432, 0.11781422, 0.47449303, -1334316.3, 2771.3105, 0.0011691477, 9.99851, 10.000605 
1.7349592e+3, 1.7356737e+2, -1462690.0, -1245251.0, 7169.467, -0.0006699351, 0.4305762, -1245014.9, -5936.978, 0.00004011834, 9.997933, 10.000835 
1.7349958e+3, 1.8356717e+2, -1405249.9, -1294568.8, 8643.239, -0.045172427, 0.39254874, -1293897.9, -152821.55, 0.0, 9.998209, 9.999691 
1.7350337e+3, 1.9356602e+2, -1033963.0, -1060923.4, -2695.5784, 0.027548118, 0.2891328, -1033696.1, 9388.557, 0.0, 10.000078, 9.999712 
1.7350706e+3, 2.0356509e+2, -885427.4, -1031644.0, -61240.953, 0.047699418, 0.27525184, -863166.56, 81925.97, 0.0, 10.000816, 9.998897 
1.7351058e+3, 2.1356459e+2, -956280.06, -1008984.1, -23932.172, -0.014550846, 0.31259853, -947034.7, -99936.13, 0.0, 9.9996395, 9.998941 
1.7351428e+3, 2.2356349e+2, -908138.25, -1001583.06, 96426.1, -0.04141676, 0.35239702, -847711.3, -98600.41, 0.0, 9.999586, 9.998341 
1.7351829e+3, 2.3356168e+2, -486748.47, -735099.1, 117943.93, 0.02293326, 0.30713847, -439662.94, 211468.36, 0.0, 10.001758, 9.998445 
1.735222e+3, 2.4356002e+2, -325561.28, -726092.0, 11312.876, 0.082020365, 0.3577946, -325242.0, 227909.11, 0.0, 10.002698, 9.997386 
1.7352593e+3, 2.5355893e+2, -360285.13, -684604.5, -23447.215, 0.107703455, 0.4880539, -358598.75, 96568.04, 0.000000000000012544113, 10.001773, 9.997432 
1.7352964e+3, 2.6355734e+2, -246784.06, -465763.88, 27735.508, 0.035938967, 0.5589748, -243325.77, 113858.37, 0.0000010511417, 10.001367, 9.998474 
1.7353334e+3, 2.735552e+2, -37427.723, -270499.0, 96828.81, -0.15900998, 0.43522954, -2449.755, 256751.98, 0.000029114979, 10.001957, 9.998848 
1.7353714e+3, 2.8355315e+2, 39048.035, -263798.6, -28068.338, -0.11701098, 0.40011683, 41627.484, 202845.33, 0.00019954717, 10.002141, 9.998146 
1.7354096e+3, 2.935516e+2, 101728.375, -159249.72, -62694.734, 0.22432663, 0.38716686, 116008.19, 179238.61, 0.0006830725, 10.001816, 9.998332 
1.7354454e+3, 3.0354983e+2, 57811.22, -455073.5, 74938.74, 0.08920356, 0.507021, 68536.41, 68536.41, 0.0015752444, 10.002469, 9.995663 
1.735484e+3, 3.135461e+2, 474447.75, -121955.04, 75073.24, -0.1427738, 0.5555365, 483752.56, 483752.56, 0.0028016781, 10.004745, 9.996851 
1.7447694e+3, 1.2352772e+2, -2247071.5, -1521143.5, 217743.22, 0.19070578, 0.7788711, -1460840.4, 268639.34, 0.06957688, 9.9942875, 10.004197 
1.7448036e+3, 1.3352504e+2, -2056845.8, -1657006.3, -116356.68, -0.14554638, 0.29392752, -1625610.6, 5885.583, 0.045260757, 9.996229, 10.001522 
1.7448425e+3, 1.4352648e+2, -1827572.0, -1633104.0, -12652.031, -0.023301305, 0.36289108, -1632284.4, -98806.06, 0.022935338, 9.997712, 10.000295 
1.7448834e+3, 1.5352787e+2, -1706906.6, -1493153.9, 22472.398, 0.13855544, 0.42794523, -1490816.8, -55348.258, 0.0078018596, 9.997741, 10.000561 
1.7449218e+3, 1.63529e+2, -1577008.4, -1357336.8, -23817.943, 0.16526017, 0.48971048, -1354784.0, -17325.33, 0.0013223152, 9.997843, 10.000792 
1.7449576e+3, 1.7352936e+2, -1345745.5, -1170057.0, -59386.965, 0.008589141, 0.41132316, -1151866.3, 87584.02, 0.000049909977, 9.998667, 10.0009985 
1.7449945e+3, 1.8352932e+2, -1256092.8, -1205005.8, -18646.557, -0.035817146, 0.37413186, -1198923.9, -57476.664, 0.0000000000000006446772, 9.999169, 9.999835 
1.7450337e+3, 1.9352883e+2, -1155331.8, -1103413.3, 14823.351, 0.07850359, 0.3220072, -1099479.1, -56028.832, 0.0, 9.999186, 9.999841 
1.7450713e+3, 2.0352806e+2, -1032838.1, -1099793.4, -29508.143, 0.09926643, 0.31704414, -1021689.75, -76233.26, 0.0, 9.999786, 9.998921 
1.745106e+3, 2.1352696e+2, -670760.8, -867281.4, -80143.34, -0.056778718, 0.2914522, -642221.9, 205244.88, 0.0, 10.001586, 9.99897 
1.7451431e+3, 2.235255e+2, -515078.63, -832722.25, 26177.691, -0.10104592, 0.30158278, -512935.72, 236545.88, 0.0, 10.002361, 9.998175 
1.7451845e+3, 2.3352382e+2, -560990.5, -793470.2, 29383.297, 0.053643767, 0.29361907, -557334.2, 94166.445, 0.0, 10.001342, 9.998252 
1.7452244e+3, 2.4352217e+2, -556921.0, -872859.06, -51365.117, 0.14583074, 0.37135318, -548779.9, 4741.476, 0.0, 10.001273, 9.99706 
1.7452613e+3, 2.535206e+2, -217159.66, -659328.3, -70071.05, 0.086510055, 0.49346456, -206321.08, 249223.11, 0.0, 10.002947, 9.997044 
1.7452985e+3, 2.635189e+2, 68447.06, -285839.38, -28672.648, 0.020085264, 0.56056243, 70752.555, 428316.56, 0.0000010008785, 10.003412, 9.998723 
1.7453364e+3, 2.7351704e+2, -16865.12, -224783.92, -59442.79, -0.040318474, 0.43922696, -1070.5953, 258505.94, 0.000030147008, 10.001934, 9.999173 
1.7453748e+3, 2.8351492e+2, 503.3165, -333944.1, -139720.38, 0.023526862, 0.39651325, 51191.414, 212785.06, 0.00019895253, 10.002106, 9.997674 
1.7454126e+3, 2.9351258e+2, 503146.2, -46551.605, -196159.98, 0.18879259, 0.37171426, 565966.75, 629583.94, 0.00067913963, 10.004911, 9.9976225 
1.7454486e+3, 3.03511e+2, 523771.28, -180519.17, -33321.715, 0.01604811, 0.53337294, 525344.3, 525344.3, 0.0015789433, 10.005438, 9.996132 
1.7454888e+3, 3.1350812e+2, 195318.64, -208597.84, 43120.598, -0.01162246, 0.6091088, 199870.73, 199870.73, 0.0028344642, 10.002591, 9.997287 
1.7547648e+3, 1.23486064e+2, -2362782.0, -1722333.3, 124727.12, 0.26595387, 0.6015997, -1698900.1, 30982.555, 0.07366958, 9.994193, 10.002741 
1.7547978e+3, 1.3348567e+2, -2052540.5, -1634139.0, -21915.588, -0.3588718, 0.35458693, -1632994.3, -1112.6251, 0.048192136, 9.99618, 10.001696 
1.7548415e+3, 1.434875e+2, -1747851.6, -1488109.5, -9680.526, 0.08709018, 0.40636057, -1487749.3, 46112.188, 0.024652572, 9.997787, 10.001267 
1.7548813e+3, 1.5348962e+2, -1644113.3, -1366049.8, 29118.963, 0.15208064, 0.45531693, -1363033.1, 72808.69, 0.008527423, 9.997743, 10.001444 
1.7549196e+3, 1.6349036e+2, -1596848.0, -1403925.0, -15025.844, 0.124627925, 0.4447171, -1402761.8, -64927.766, 0.0014925194, 9.997867, 10.000462 
1.7549565e+3, 1.7348924e+2, -1384367.5, -1240769.5, -20165.29, 0.03283831, 0.2643778, -1237991.4, 1849.7815, 0.00006156021, 9.998631, 10.000528 
1.7549942e+3, 1.8348944e+2, -1201429.6, -1092942.6, -23075.775, 0.0018730245, 0.2463677, -1088238.3, 53598.04, 0.0000000010737394, 9.999177, 10.0006 
1.7550328e+3, 1.9349192e+2, -1094511.1, -969751.94, 22748.28, 0.056494243, 0.39506203, -965733.5, 78077.28, 0.0, 9.999152, 10.000776 
1.7550707e+3, 2.0349191e+2, -1085629.5, -1192839.4, 16521.818, 0.03747488, 0.4375957, -1083141.1, -137330.66, 0.0, 9.999711, 9.998321 
1.7551075e+3, 2.1348786e+2, -748941.75, -1000272.94, -4867.187, -0.08590677, 0.20129023, -748847.56, 99003.19, 0.0, 10.0014515, 9.998125 
1.7551455e+3, 2.2348541e+2, -562914.7, -890505.3, -6882.5947, -0.1021571, 0.17330314, -562770.1, 187106.23, 0.0, 10.002186, 9.997862 
1.755186e+3, 2.334861e+2, -597670.7, -837577.1, 1917.1455, 0.061660543, 0.42440453, -597655.4, 54217.49, 0.0, 10.0012045, 9.998015 
1.7552255e+3, 2.4348503e+2, -581731.06, -882112.6, -8405.735, 0.104275376, 0.5729512, -581496.06, -27608.336, 0.0, 10.001084, 9.99709 
1.755263e+3, 2.5348106e+2, -237657.33, -656324.4, 5354.1333, -0.0435635, 0.44090807, -237588.88, 218344.28, 0.0, 10.002752, 9.997155 
1.7553014e+3, 2.6347822e+2, 2934.3755, -384939.44, -78069.1, -0.0447324, 0.418148, 18058.006, 376021.7, 0.00000094846536, 10.003241, 9.99813 
1.755341e+3, 2.734778e+2, -76491.19, -321139.53, -99595.65, 0.20861416, 0.4993133, -41073.496, 218890.42, 0.000030605133, 10.0018215, 9.998562 
1.7553794e+3, 2.8347576e+2, -57290.47, -430993.34, -62659.906, 0.26073927, 0.52167183, -47063.945, 114917.74, 0.00020031627, 10.001996, 9.997064 
1.7554149e+3, 2.9347116e+2, 417959.8, -164970.92, -70914.87, -0.0904217, 0.3317448, 426462.75, 490491.97, 0.00069413544, 10.004659, 9.996929 
1.75545e+3, 3.0346924e+2, 583527.6, 32243.463, -130952.71, -0.3898819, 0.4323238, 613052.94, 613052.94, 0.0016346452, 10.005069, 9.997764 
1.7554928e+3, 3.134699e+2, 251135.88, -7767.6636, -3891.84, 0.09191337, 0.6354861, 251194.36, 251194.36, 0.002957651, 10.002257, 9.998813 
1.7647608e+3, 1.2344398e+2, -2096057.0, -1643771.4, -20099.814, 0.365405, 0.46105945, -1642879.9, 87415.28, 0.07790593, 9.996182, 10.002358 
1.7647943e+3, 1.3344538e+2, -2030994.8, -1590079.1, -17263.72, -0.31068692, 0.374817, -1589404.3, 42873.176, 0.05123237, 9.996148, 10.002035 
1.7648396e+3, 1.4344771e+2, -1943407.6, -1547291.0, -28219.219, 0.19745599, 0.43832538, -1545290.8, -11037.915, 0.026445003, 9.996297, 10.001578 
1.7648791e+3, 1.5344976e+2, -1707587.0, -1375450.1, -70049.05, 0.1835774, 0.4613882, -1361280.9, 74953.05, 0.009296644, 9.997233, 10.001625 
1.7649174e+3, 1.634506e+2, -1566567.1, -1362834.6, -100650.04, 0.12911068, 0.44362488, -1321497.6, 16727.518, 0.0016790463, 9.997977, 10.000676 
1.7649554e+3, 1.7344975e+2, -1412567.0, -1231560.8, -78102.586, 0.07912572, 0.2675243, -1202519.6, 37710.18, 0.000074904594, 9.998338, 10.000727 
1.7649935e+3, 1.8345006e+2, -1274684.3, -1118063.9, -61337.184, 0.060376596, 0.24591862, -1096901.8, 45321.97, 0.000000009428086, 9.998617, 10.000705 
1.7650318e+3, 1.9345258e+2, -1071936.4, -945214.94, -100241.08, 0.054108202, 0.38937202, -889988.75, 154208.95, 0.0, 9.999248, 10.000905 
1.7650703e+3, 2.0345286e+2, -1032631.8, -1159450.3, -67685.15, 0.01190152, 0.452883, -1003294.06, -57099.32, 0.0, 10.0000515, 9.998382 
1.7651087e+3, 2.1344958e+2, -790420.0, -1014494.8, -35735.586, -0.08020755, 0.2946629, -784858.9, 63369.65, 0.0, 10.001157, 9.998165 
1.7651476e+3, 2.2344731e+2, -628753.5, -921348.6, -42094.887, -0.072836064, 0.28062662, -622817.9, 127434.836, 0.0, 10.001734, 9.997861 
1.7651874e+3, 2.334469e+2, -557791.25, -817344.9, -52974.95, 0.07928529, 0.4228476, -547395.44, 104862.73, 0.0, 10.001478, 9.998016 
1.7652267e+3, 2.4344541e+2, -521085.28, -811660.94, 20993.586, 0.121594764, 0.5123127, -519576.34, 34699.15, 0.0, 10.001304, 9.997481 
1.765265e+3, 2.534423e+2, -411027.8, -692460.3, 53212.71, -0.02954765, 0.42190653, -401302.53, 55008.688, 0.0, 10.001333, 9.997604 
1.7653039e+3, 2.634397e+2, -239996.89, -557752.1, -20572.5, -0.023636304, 0.4215048, -238670.5, 119668.48, 0.0000007067664, 10.001831, 9.997614 
1.7653435e+3, 2.734383e+2, 72186.34, -330565.6, -79622.28, 0.22691193, 0.47816184, 87355.96, 347706.7, 0.000029110019, 10.003196, 9.997838 
1.7653824e+3, 2.8343585e+2, 206487.66, -323294.75, 18312.568, 0.27924198, 0.5053253, 207119.89, 369494.66, 0.00020317562, 10.003895, 9.996896 
1.7654194e+3, 2.934318e+2, 252074.98, -262916.56, 12294.903, -0.034715656, 0.39207754, 252368.34, 316786.25, 0.00072233164, 10.003593, 9.996775 
1.7654552e+3, 3.0342954e+2, 445504.22, 4782.6816, -87491.23, -0.30414706, 0.45273867, 462237.5, 462237.5, 0.0017127435, 10.0039425, 9.99812 
1.7654957e+3, 3.1342903e+2, 677120.0, 212460.45, -115386.47, 0.024074642, 0.50782263, 704195.6, 704195.6, 0.0030935316, 10.005097, 9.998988 
1.7747562e+3, 1.2340271e+2, -2016614.0, -1517606.0, -228048.75, 0.241269, 0.47423187, -1429088.5, 301617.38, 0.08231803, 9.996307, 10.00328 
1.7747931e+3, 1.3340428e+2, -1990505.4, -1508161.9, -7653.8623, -0.060120042, 0.35505435, -1508040.4, 124642.52, 0.054393712, 9.996129, 10.002642 
1.774836e+3, 1.4340676e+2, -1971958.3, -1607956.5, -18480.523, 0.18850218, 0.41587642, -1607020.6, -72365.01, 0.02831169, 9.996296, 10.001164 
1.7748758e+3, 1.5340824e+2, -1750133.3, -1459441.8, -23895.488, 0.13150193, 0.4389708, -1457490.6, -20845.17, 0.010105246, 9.997213, 10.001053 
1.774915e+3, 1.6340974e+2, -1515175.8, -1264025.4, -93984.22, 0.075841874, 0.48936284, -1232749.9, 105882.05, 0.0018804772, 9.998007, 10.001342 
1.7749536e+3, 1.7341083e+2, -1354218.9, -1106030.3, -57926.55, 0.06681461, 0.42209837, -1093176.1, 147440.23, 0.00008970714, 9.998321, 10.0015955 
1.7749922e+3, 1.8341123e+2, -1304570.0, -1192591.5, -51585.156, 0.038462725, 0.37998626, -1172450.4, -29841.777, 0.000000028818846, 9.998665, 10.000173 
1.7750305e+3, 1.934108e+2, -1128772.5, -1059288.9, -67994.5, -0.017367832, 0.306007, -1017674.6, 26936.053, 0.0, 9.999223, 10.000136 
1.7750694e+3, 2.0341086e+2, -999506.3, -1069133.6, -38194.844, -0.07762314, 0.36306235, -982639.9, -36030.145, 0.0, 9.9999695, 9.999034 
1.7751093e+3, 2.1341203e+2, -756550.44, -901605.4, 12710.669, -0.11994646, 0.5591871, -755445.1, 93156.03, 0.0, 10.000983, 9.999016 
1.7751491e+3, 2.2341102e+2, -643764.25, -908433.2, -53308.613, -0.103023954, 0.6168283, -633430.5, 117181.59, 0.0, 10.001531, 9.998054 
1.7751884e+3, 2.3340626e+2, -566771.56, -808512.44, -53475.15, 0.029833073, 0.30820197, -555470.7, 97185.7, 0.0, 10.001348, 9.998145 
1.775228e+3, 2.434033e+2, -495603.56, -719562.6, 8677.408, 0.09843246, 0.2119007, -495267.88, 59417.03, 0.0, 10.001136, 9.998192 
1.7752673e+3, 2.5340417e+2, -375114.16, -584350.9, 62043.93, 0.042400163, 0.43843514, -358100.1, 98579.45, 0.0, 10.0012, 9.998405 
1.775306e+3, 2.6340312e+2, -304136.75, -656071.44, 12847.102, -0.011568423, 0.56836003, -303668.4, 55023.574, 0.00000032366296, 10.001677, 9.997017 
1.775344e+3, 2.7339864e+2, -23246.904, -470903.75, -14881.527, -0.053224042, 0.40421697, -22752.74, 237983.67, 0.00002512301, 10.002959, 9.996982 
1.7753835e+3, 2.8339523e+2, 163862.81, -354595.16, 51.59867, -0.009056958, 0.39128667, 163862.83, 326634.88, 0.00020074962, 10.003637, 9.996811 
1.7754254e+3, 2.9339412e+2, 241602.08, -245412.42, 15672.866, 0.19415562, 0.54753447, 242105.92, 306893.47, 0.0007393441, 10.003423, 9.996977 
1.775463e+3, 3.033914e+2, 348469.75, -128550.28, -58643.715, 0.07364237, 0.5815347, 355573.5, 355573.5, 0.0017547982, 10.003662, 9.997333 
1.7754973e+3, 3.1338745e+2, 524973.94, 55501.598, -12978.644, -0.3564442, 0.39329952, 525332.44, 525332.44, 0.0031375017, 10.004472, 9.998178 
1.7847528e+3, 1.23363614e+2, -1980683.3, -1578367.6, -89263.695, 0.23619246, 0.5355541, -1559451.6, 171638.73, 0.08696164, 9.996934, 10.002486 
1.7847918e+3, 1.333649e+2, -1775091.5, -1426237.8, 58082.85, 0.1351156, 0.4127951, -1416821.3, 216250.39, 0.057701517, 9.997712, 10.002467 
1.7848317e+3, 1.4336735e+2, -1826239.6, -1563837.4, 51209.645, 0.08470553, 0.48892367, -1554197.5, -19152.295, 0.030258754, 9.997416, 10.000925 
1.7848729e+3, 1.533678e+2, -1703811.1, -1471082.3, 55776.453, 0.11538284, 0.43448097, -1458405.3, -21360.637, 0.0109521225, 9.997666, 10.000758 
1.7849134e+3, 1.6336906e+2, -1518931.0, -1272948.4, -4945.623, 0.124869496, 0.47957423, -1272849.0, 66184.53, 0.0020959692, 9.997997, 10.001286 
1.7849526e+3, 1.7337127e+2, -1297901.3, -1079822.5, -60992.832, 0.10777641, 0.52322584, -1063923.0, 177085.7, 0.000105867584, 9.99871, 10.001586 
1.7849916e+3, 1.8337189e+2, -1210627.6, -1166501.6, -54747.082, 0.08471701, 0.512452, -1129539.0, 13460.23, 0.0000000562377, 9.999401, 10.000001 
1.7850308e+3, 1.9337013e+2, -979548.94, -1006714.44, -43039.36, 0.03447719, 0.3243541, -947999.9, 97012.19, 0.0, 10.00033, 9.999966 
1.7850702e+3, 2.0336941e+2, -908799.5, -1021254.56, -14766.962, -0.015372613, 0.31151944, -906892.75, 40124.47, 0.0, 10.000562, 9.99909 
1.7851102e+3, 2.1337081e+2, -932928.8, -978386.1, -44529.258, -0.064803444, 0.5230526, -905663.0, -56656.63, 0.0, 9.9997225, 9.999109 
1.78515e+3, 2.2337016e+2, -904114.8, -981805.6, -101871.375, -0.052429814, 0.5930883, -833933.9, -82920.27, 0.0, 9.999533, 9.99851 
1.7851897e+3, 2.3336603e+2, -638493.7, -785395.4, -96854.7, 0.06603142, 0.2990746, -590388.5, 62662.49, 0.0, 10.000623, 9.99865 
1.7852294e+3, 2.4336356e+2, -429822.56, -675475.06, -25758.75, 0.14110203, 0.22132637, -427150.6, 127923.4, 0.0, 10.001557, 9.998281 
1.7852694e+3, 2.533645e+2, -223704.16, -516095.22, -51565.27, 0.10300024, 0.45963335, -214876.75, 242190.36, 0.0, 10.002267, 9.998356 
1.7853087e+3, 2.6336333e+2, -175670.92, -597988.5, -98053.484, 0.061792426, 0.5845424, -154015.38, 205065.08, 0.00000018370703, 10.002565, 9.996992 
1.7853469e+3, 2.7335832e+2, -131387.42, -535112.25, -93074.87, -0.010717389, 0.36957872, -110963.16, 150167.94, 0.000020759246, 10.002231, 9.996907 
1.7853864e+3, 2.8335488e+2, -2420.5383, -384223.13, 765.13354, -0.007361212, 0.34374323, -2419.0051, 160747.84, 0.00019246414, 10.002309, 9.997226 
1.7854282e+3, 2.9335508e+2, 275038.9, -173611.61, 6458.639, 0.14068393, 0.5847007, 275131.88, 340301.16, 0.00073561596, 10.003434, 9.997451 
1.7854671e+3, 3.0335242e+2, 422189.9, -118869.766, -22336.324, 0.09029302, 0.607804, 423110.44, 423110.44, 0.0017390974, 10.004276, 9.997102 
1.7855029e+3, 3.1334734e+2, 428959.8, -37867.96, -15576.315, -0.19848539, 0.3562234, 429478.97, 429478.97, 0.003055312, 10.00397, 9.997792 
1.7947492e+3, 1.2332637e+2, -2167360.0, -1966554.0, 46971.098, 0.14479873, 0.55632156, -1956110.0, -224658.97, 0.09190124, 9.996991, 9.999694 
1.79479e+3, 1.3332754e+2, -1844873.8, -1579392.4, 64491.094, 0.16543669, 0.54909045, -1564555.3, 68885.39, 0.06119029, 9.997769, 10.001337 
1.7948262e+3, 1.433298e+2, -1835554.9, -1593575.6, 34653.023, -0.23020789, 0.68215734, -1588710.9, -53292.53, 0.03230053, 9.99746, 10.000701 
1.79487e+3, 1.5332855e+2, -1707893.4, -1473797.6, 74936.35, 0.05054489, 0.46259978, -1451864.8, -14434.796, 0.011841973, 9.997647, 10.000746 
1.7949122e+3, 1.6332863e+2, -1566191.0, -1383845.0, 6926.783, 0.1821626, 0.42173854, -1383582.3, -44152.914, 0.0023264778, 9.998041, 10.00051 
1.7949516e+3, 1.7333102e+2, -1357124.9, -1208899.8, -29563.326, 0.12702286, 0.5747291, -1203220.9, 38186.4, 0.00012352158, 9.998727, 10.000698 
1.7949912e+3, 1.83332e+2, -1191952.1, -1136109.4, -32161.98, 0.099694856, 0.64181554, -1121439.6, 21956.303, 0.000000085167756, 9.99944, 10.000189 
1.7950322e+3, 1.9333051e+2, -964893.4, -962205.56, -1643.3269, 0.123641536, 0.44509637, -961426.6, 83975.98, 0.0, 10.000267, 10.000303 
1.795072e+3, 2.033286e+2, -956992.44, -1100358.1, -47766.36, 0.09552, 0.31330815, -942535.56, 4881.0586, 0.0, 10.000465, 9.998595 
1.7951106e+3, 2.1332628e+2, -991621.94, -1080094.5, -67192.31, 0.00050489313, 0.21634598, -955411.6, -105970.51, 0.0, 9.999625, 9.998465 
1.79515e+3, 2.2332495e+2, -885816.56, -911830.9, -79576.02, -0.019153913, 0.23433158, -818191.6, -66736.61, 0.0, 9.999394, 9.999058 
1.7951907e+3, 2.3332596e+2, -605686.75, -682594.56, -44776.41, 0.10459916, 0.37649575, -585118.4, 68325.9, 0.0, 10.000475, 9.999425 
1.7952313e+3, 2.4332581e+2, -496327.25, -771554.56, -4632.969, 0.15088671, 0.5085249, -496249.28, 59196.848, 0.0, 10.001371, 9.997714 
1.7952715e+3, 2.5332358e+2, -304753.2, -645081.1, -12503.96, 0.07418162, 0.5071109, -304294.4, 153176.77, 0.0, 10.002104, 9.997546 
1.7953117e+3, 2.6332074e+2, -173199.3, -552600.5, -111090.81, 0.08963968, 0.49784374, -143064.75, 216436.02, 0.00000013255313, 10.002386, 9.997393 
1.7953515e+3, 2.7331728e+2, -104571.18, -440538.78, -93602.38, 0.2218304, 0.36971316, -80253.23, 181281.23, 0.0000188634, 10.002075, 9.997626 
1.7953902e+3, 2.833149e+2, 21096.719, -298317.28, 18713.521, 0.13773164, 0.3756972, 22189.352, 185747.7, 0.00018763484, 10.002137, 9.997904 
1.7954278e+3, 2.9331496e+2, 280893.63, -91364.25, 69869.164, -0.25629845, 0.5376348, 293575.34, 359135.88, 0.0007279235, 10.003141, 9.998153 
1.7954674e+3, 3.0331272e+2, 356557.9, -172093.77, -38944.78, -0.33149078, 0.57008064, 359411.5, 359411.5, 0.0016968419, 10.003902, 9.996923 
1.7955108e+3, 3.1330836e+2, 407459.7, -268.86295, 2857.4556, 0.16370893, 0.39462715, 407479.72, 407479.72, 0.00290833, 10.003647, 9.998189 
1.8047464e+3, 1.2328641e+2, -2258225.0, -2085407.9, 400.00708, 0.18491702, 0.5331222, -2085407.0, -353567.6, 0.097200245, 9.996708, 9.999013 
1.8047883e+3, 1.3328707e+2, -1938821.3, -1676454.6, -62262.707, 0.25027204, 0.5280437, -1662428.8, -28590.867, 0.06490086, 9.997363, 10.000842 
1.8048237e+3, 1.4328982e+2, -1841586.0, -1613013.4, -36547.27, -0.20779903, 0.74310863, -1607312.0, -71499.484, 0.034457777, 9.99749, 10.000546 
1.8048677e+3, 1.532881e+2, -1721551.3, -1493411.9, -22770.035, 0.065349855, 0.4854605, -1491161.5, -53334.152, 0.0127833225, 9.997611, 10.000623 
1.80491e+3, 1.632877e+2, -1590859.5, -1408372.8, -28689.623, 0.17898089, 0.413247, -1403968.6, -64138.215, 0.0025744103, 9.99795, 10.000383 
1.8049504e+3, 1.7329006e+2, -1323954.6, -1198759.6, -22410.05, 0.14507546, 0.5723005, -1194869.1, 46940.36, 0.00014305822, 9.999009, 10.00062 
1.804991e+3, 1.8329109e+2, -1188624.4, -1155409.3, -4524.1255, 0.14959371, 0.6590424, -1154804.1, -11005.817, 0.00000010953618, 9.999536, 10.000011 
1.805032e+3, 1.9328989e+2, -1135178.9, -1064806.8, -36959.617, 0.15532248, 0.50773346, -1048962.8, -3159.3765, 0.0, 9.999187, 10.000114 
1.805072e+3, 2.0328805e+2, -1117901.0, -1152110.9, -69419.2, 0.12654048, 0.385632, -1063510.5, -115693.83, 0.0, 9.999251, 9.99883 
1.805111e+3, 2.132854e+2, -887918.5, -990770.1, -39041.848, 0.06550094, 0.22404556, -874777.44, -24935.422, 0.0, 10.000179, 9.998803 
1.8051508e+3, 2.23284e+2, -665608.25, -821672.7, 8598.984, 0.05407245, 0.21960165, -665135.9, 86719.78, 0.0, 10.00099, 9.9988985 
1.8051918e+3, 2.3328526e+2, -448642.25, -641518.44, -45085.473, 0.104000755, 0.41700163, -438623.75, 215220.69, 0.0, 10.001705, 9.999112 
1.8052326e+3, 2.4328488e+2, -388661.2, -729508.4, -39106.086, 0.11564444, 0.54693747, -384232.03, 171617.16, 0.0, 10.002133, 9.997651 
1.8052733e+3, 2.5328153e+2, -324628.6, -663471.0, -19031.764, 0.073426254, 0.44282183, -323563.0, 134319.83, 0.0, 10.001976, 9.997505 
1.8053143e+3, 2.6327854e+2, -185284.84, -512812.94, -66503.59, 0.121809974, 0.40264535, -172296.55, 187616.33, 0.00000007008213, 10.002115, 9.997793 
1.8053542e+3, 2.7327663e+2, 55072.316, -316276.78, -90572.72, 0.24879825, 0.39106035, 75985.414, 337917.16, 0.000018211349, 10.002967, 9.998057 
1.8053931e+3, 2.8327504e+2, 180452.78, -208976.16, 10388.077, 0.15933813, 0.44203717, 180729.69, 344678.75, 0.00018383289, 10.003162, 9.998029 
1.8054304e+3, 2.9327413e+2, 164361.36, -149892.6, -10655.929, -0.24463195, 0.51234597, 164722.27, 230683.17, 0.00071480655, 10.002321, 9.998158 
1.805471e+3, 3.032718e+2, 214976.53, -224592.42, -62527.24, -0.2725101, 0.53208625, 223697.78, 223697.78, 0.0016441884, 10.002874, 9.997049 
1.8055163e+3, 3.1326842e+2, 693906.6, 163101.6, -81980.66, 0.27816615, 0.45860648, 706279.8, 706279.8, 0.0027680665, 10.00545, 9.998481 
1.8147436e+3, 1.23243585e+2, -2140540.0, -1842537.6, 3704.6704, 0.2001784, 0.48155248, -1842491.5, -110234.42, 0.10291468, 9.996709, 10.000683 
1.814786e+3, 1.3324317e+2, -1921153.9, -1629949.5, -43200.39, 0.266021, 0.33590275, -1623675.9, 10590.6045, 0.06887483, 9.997328, 10.001179 
1.8148243e+3, 1.432472e+2, -1832945.1, -1607100.8, -48913.086, 0.07640684, 0.6518985, -1596962.4, -60732.902, 0.036753505, 9.997526, 10.000578 
1.8148656e+3, 1.5324622e+2, -1728914.8, -1519101.5, -10328.067, 0.07449675, 0.4901722, -1518594.4, -80356.016, 0.01378539, 9.997642, 10.000442 
1.8149063e+3, 1.6324632e+2, -1549398.0, -1331562.1, -7297.375, -0.009156695, 0.45565647, -1331317.9, 8918.584, 0.002842686, 9.997987, 10.000893 
1.8149489e+3, 1.7324834e+2, -1279097.4, -1109636.5, 26856.703, 0.09145157, 0.51708466, -1105482.0, 136733.52, 0.00016504708, 9.999011, 10.001238 
1.8149908e+3, 1.8324919e+2, -1219754.9, -1223038.3, -18913.904, 0.14893663, 0.5681332, -1202411.5, -58205.625, 0.00000012908751, 9.999547, 9.999543 
1.8150301e+3, 1.9324827e+2, -1185410.8, -1166770.9, -42725.32, 0.045010198, 0.5150443, -1132360.8, -86146.39, 0.0, 9.999173, 9.999425 
1.8150699e+3, 2.0324765e+2, -1067230.9, -1027733.56, -49795.316, -0.017851105, 0.51654524, -993913.75, -45695.03, 0.0, 9.999172, 9.99972 
1.8151112e+3, 2.1324784e+2, -823718.44, -825519.4, 4660.2964, 0.05726421, 0.51899964, -819872.4, 30340.06, 0.0, 10.000039, 10.000006 
1.8151522e+3, 2.2324693e+2, -757402.44, -964820.94, 24835.967, 0.0789789, 0.52815247, -754470.06, -2250.7568, 0.0, 10.000782, 9.998019 
1.8151923e+3, 2.3324406e+2, -566543.25, -848178.1, -7526.4097, -0.017234275, 0.44218108, -566342.25, 87907.91, 0.0, 10.001537, 9.997776 
1.815233e+3, 2.4324103e+2, -401167.56, -709485.8, -46407.168, -0.06637345, 0.3775483, -394333.94, 161946.53, 0.0, 10.001931, 9.997885 
1.8152748e+3, 2.5323826e+2, -298145.44, -576539.25, -14014.92, 0.018634679, 0.26780033, -297441.7, 160861.94, 0.0, 10.001838, 9.998164 
1.815316e+3, 2.6323646e+2, -192540.86, -488925.1, -50210.918, 0.06792203, 0.29331842, -184265.61, 176054.28, 0.0000000874347, 10.001941, 9.998045 
1.8153548e+3, 2.7323636e+2, 34125.543, -305509.28, -43703.613, 0.00876048, 0.4395798, 39659.09, 301982.75, 0.00001648955, 10.002743, 9.998232 
1.8153943e+3, 2.8323525e+2, 106958.52, -305076.9, -21790.396, -0.048209067, 0.55859274, 108107.695, 272445.97, 0.00017253889, 10.002907, 9.997496 
1.8154353e+3, 2.932327e+2, 102976.7, -244622.61, -20887.822, -0.013349002, 0.5084365, 104227.38, 170596.25, 0.00068025076, 10.002173, 9.997577 
1.8154775e+3, 3.0322993e+2, 177762.25, -238887.2, 5477.336, 0.051806256, 0.5188742, 177834.23, 177834.23, 0.0015745228, 10.002618, 9.997072 
1.8155181e+3, 3.132257e+2, 629053.7, 206055.92, 20068.791, -0.114475705, 0.33078682, 630003.7, 630003.7, 0.0026626908, 10.004758, 9.999073 
1.824741e+3, 1.2320092e+2, -2069596.3, -1760908.1, -31529.379, 0.28418043, 0.49425665, -1757720.6, -25045.377, 0.10907774, 9.996974, 10.001109 
1.8247831e+3, 1.3319993e+2, -1862788.3, -1552937.1, -39230.313, 0.2566866, 0.23474328, -1548047.4, 86642.836, 0.07313931, 9.997459, 10.001694 
1.8248229e+3, 1.4320578e+2, -1721678.3, -1531896.0, -33169.87, 0.16417964, 0.69117963, -1526265.6, 10369.749, 0.039204508, 9.998221, 10.00075 
1.8248637e+3, 1.532046e+2, -1661661.1, -1486578.1, -15395.034, 0.12296684, 0.5061656, -1485234.8, -46588.246, 0.014855209, 9.998119, 10.000428 
1.8249042e+3, 1.6320428e+2, -1546314.9, -1346891.6, 17675.137, -0.003740255, 0.43924075, -1345337.1, -4688.6743, 0.0031336718, 9.998067, 10.000749 
1.8249479e+3, 1.7320599e+2, -1361886.8, -1163282.4, -17722.646, 0.11478205, 0.48440948, -1161713.4, 80916.195, 0.00019006866, 9.998502, 10.001111 
1.8249904e+3, 1.8320669e+2, -1314082.1, -1270350.4, -88087.35, 0.19536163, 0.52833384, -1201455.6, -56834.324, 0.00000015151502, 9.998915, 9.99952 
1.8250296e+3, 1.932058e+2, -1142546.9, -1143080.9, -85975.13, 0.05384932, 0.48157734, -1056838.4, -10208.344, 0.0, 9.99948, 9.999429 
1.8250692e+3, 2.0320539e+2, -950469.4, -960084.5, -55887.01, -0.02985105, 0.4996983, -899183.56, 49449.266, 0.0, 9.99993, 9.999808 
1.8251109e+3, 2.1320602e+2, -790417.2, -797182.9, -94059.375, 0.026019288, 0.5358639, -699679.9, 150942.97, 0.0, 10.000219, 10.000107 
1.8251525e+3, 2.2320536e+2, -806535.5, -1003844.56, -81713.55, 0.06178865, 0.56835324, -777089.2, -24460.947, 0.0, 10.000487, 9.997903 
1.8251938e+3, 2.332024e+2, -697133.8, -923981.6, -52578.92, 0.030609353, 0.48657775, -685539.6, -30878.299, 0.0, 10.000694, 9.997661 
1.8252352e+3, 2.4319932e+2, -484239.44, -706174.4, -17575.982, 0.019111525, 0.4084666, -482856.16, 73835.734, 0.0, 10.001182, 9.998259 
1.8252769e+3, 2.531966e+2, -210194.86, -479984.16, -13750.049, 0.042496458, 0.2559923, -209495.89, 249216.03, 0.0, 10.002216, 9.998633 
1.8253179e+3, 2.631949e+2, -81769.49, -418055.38, -57914.535, 0.048044953, 0.25850463, -72075.03, 288650.38, 0.00000011582431, 10.002641, 9.998189 
1.8253568e+3, 2.731949e+2, -77857.57, -361337.63, -97016.59, -0.01036763, 0.4164283, -47834.813, 214894.25, 0.000015405387, 10.001966, 9.998231 
1.8253967e+3, 2.8319377e+2, -58369.832, -384512.22, -38515.504, -0.016678346, 0.5327609, -53883.098, 110861.31, 0.00016027999, 10.001783, 9.997487 
1.8254384e+3, 2.9319125e+2, 169644.31, -219439.2, -29652.457, 0.07730859, 0.49984208, 171891.17, 238664.88, 0.00063761644, 10.002665, 9.997515 
1.8254814e+3, 3.0318886e+2, 295120.1, -210479.89, 85778.92, 0.15092775, 0.5612206, 309276.75, 309276.75, 0.0015046576, 10.003525, 9.996835 
1.8255235e+3, 3.131844e+2, 495890.25, 67584.31, -44748.836, 0.02182809, 0.3958253, 500515.6, 500515.6, 0.0026028268, 10.004074, 9.998495 
1.8347381e+3, 1.23158045e+2, -2149047.5, -1937432.0, -180472.03, 0.25216526, 0.5164037, -1834037.9, -100940.09, 0.11569034, 9.997013, 9.9998865 
1.8347795e+3, 1.3315761e+2, -1802529.5, -1436867.8, 13831.961, 0.13314815, 0.23849073, -1436345.3, 198761.42, 0.07769921, 9.99746, 10.002552 
1.8348189e+3, 1.4316586e+2, -1698381.3, -1501895.1, -36119.496, -0.095282, 0.877931, -1495465.8, 41561.64, 0.04181763, 9.99829, 10.000935 
1.8348621e+3, 1.5316322e+2, -1651465.9, -1473103.8, -11667.753, 0.11542312, 0.5359224, -1472343.6, -33292.3, 0.015997248, 9.998142, 10.000513 
1.8349037e+3, 1.6316159e+2, -1593666.0, -1452139.1, 15373.023, 0.110370144, 0.36332032, -1450488.5, -109422.47, 0.0034491862, 9.998098, 10.000011 
1.8349467e+3, 1.7316288e+2, -1423639.9, -1298664.6, 4797.467, 0.13874425, 0.4587304, -1298480.6, -55427.305, 0.00021871291, 9.998522, 10.000178 
1.8349892e+3, 1.8316336e+2, -1286457.0, -1215993.8, -77698.5, 0.17105092, 0.5197315, -1165912.3, -20865.26, 0.00000018976193, 9.998933, 9.999881 
1.8350296e+3, 1.9316238e+2, -1106475.9, -1059350.8, -56974.85, 0.098379016, 0.40272173, -1021258.44, 25793.23, 0.0, 9.999438, 10.000026 
1.8350695e+3, 2.0316127e+2, -1006483.0, -1056626.1, -53035.15, -0.0045879125, 0.34087712, -972891.9, -23832.4, 0.0, 9.999845, 9.999186 
1.8351097e+3, 2.1316022e+2, -872936.0, -939085.6, -75495.69, -0.11657326, 0.29797977, -823587.9, 27482.924, 0.0, 10.000092, 9.999193 
1.8351513e+3, 2.231596e+2, -791314.75, -930878.4, -79572.73, -0.104694486, 0.36586627, -755260.3, -2180.8887, 0.0, 10.000307, 9.998493 
1.8351959e+3, 2.3316006e+2, -652950.75, -795463.94, -32078.338, 0.15929075, 0.5358614, -646063.1, 9016.651, 0.0, 10.000535, 9.998624 
1.8352391e+3, 2.4315934e+2, -481054.97, -648337.9, 7725.4556, 0.26526484, 0.6138041, -480698.94, 76388.695, 0.0, 10.00096, 9.998766 
1.8352793e+3, 2.5315645e+2, -217384.47, -442606.7, 38895.563, 0.056199167, 0.4098161, -210856.47, 248251.31, 0.0, 10.002001, 9.998994 
1.8353195e+3, 2.63154e+2, -124918.91, -463629.03, -79262.97, -0.05343986, 0.32773912, -107287.99, 253839.47, 0.000000090536304, 10.002439, 9.997978 
1.8353596e+3, 2.7315238e+2, -110676.05, -404005.8, -106737.84, 0.060906064, 0.34162045, -75947.555, 187199.17, 0.00001528185, 10.001853, 9.9979925 
1.8353999e+3, 2.831506e+2, -54025.19, -353271.72, -32765.514, 0.104577534, 0.39452404, -50479.594, 114687.266, 0.00015297295, 10.001679, 9.997756 
1.8354401e+3, 2.9314962e+2, 179381.36, -160565.5, 21585.742, -0.04032372, 0.4762913, 180746.52, 247924.22, 0.0006053897, 10.002508, 9.997988 
1.8354827e+3, 3.0314866e+2, 200907.72, -339908.34, 97736.05, -0.07352522, 0.67568064, 218028.53, 218028.53, 0.0014532252, 10.003241, 9.996082 
1.8355301e+3, 3.131451e+2, 298226.56, -230154.42, -19302.615, 0.24510716, 0.6891167, 298930.78, 298930.78, 0.002577536, 10.003616, 9.996652 
1.8447341e+3, 1.2311632e+2, -2283866.8, -1968210.3, -122516.56, 0.21259499, 0.5831321, -1926238.4, -192729.42, 0.12272786, 9.995962, 10.000182 
1.8447767e+3, 1.33115e+2, -1969114.3, -1555529.4, 12535.786, 0.1644294, 0.2510384, -1555149.9, 80375.86, 0.08254445, 9.996563, 10.002095 
1.8448164e+3, 1.4312246e+2, -1863957.6, -1566451.9, -100946.805, -0.0931852, 0.841093, -1535433.5, 2020.1324, 0.04459436, 9.997084, 10.001071 
1.84486e+3, 1.5312092e+2, -1714134.9, -1461088.0, -91194.86, 0.13604477, 0.5764518, -1431647.8, 7819.3413, 0.017215712, 9.997535, 10.000891 
1.8449022e+3, 1.6311987e+2, -1608636.6, -1481099.5, 3821.5034, 0.16323993, 0.44705606, -1480985.1, -139508.56, 0.0037916328, 9.998107, 9.999809 
1.8449457e+3, 1.7312029e+2, -1334902.8, -1291532.0, 22686.373, 0.15305904, 0.4898961, -1281833.9, -38361.09, 0.00025177147, 9.999307, 9.9998455 
1.8449885e+3, 1.8312024e+2, -1135168.8, -1114514.8, -45064.92, 0.17301026, 0.50710595, -1078608.6, 66862.29, 0.00000025167606, 9.999845, 10.000139 
1.845029e+3, 1.9311947e+2, -1099119.9, -1010572.4, -65378.44, 0.13191818, 0.37033463, -975887.2, 71583.72, 0.0, 9.999286, 10.000435 
1.8450695e+3, 2.0311846e+2, -1135011.1, -1142751.1, -27704.041, 0.05428383, 0.30469352, -1110908.1, -161431.25, 0.0, 9.999061, 9.9989805 
1.84511e+3, 2.1311736e+2, -944765.1, -1009387.9, -22782.326, -0.06637763, 0.2898262, -937541.0, -86049.55, 0.0, 9.999763, 9.998871 
1.8451521e+3, 2.2311682e+2, -777210.9, -891122.1, 789.76935, -0.050262142, 0.37404352, -777205.44, -23704.746, 0.0, 10.000282, 9.998765 
1.8451966e+3, 2.331175e+2, -627761.3, -738959.2, -11827.761, 0.20437698, 0.52648306, -626517.1, 28980.91, 0.0, 10.000523, 9.999007 
1.8452401e+3, 2.431172e+2, -496033.13, -619067.25, 26414.771, 0.3179513, 0.60726446, -490601.78, 66899.59, 0.0, 10.000709, 9.9990835 
1.8452813e+3, 2.5311512e+2, -368371.16, -483712.22, 28561.76, 0.12096272, 0.45549834, -361685.9, 97828.414, 0.0, 10.000818, 9.999282 
1.845322e+3, 2.6311296e+2, -293448.25, -542129.44, -67701.88, 0.020085173, 0.3842717, -276211.56, 85319.516, 0.00000009817215, 10.00128, 9.997991 
1.8453623e+3, 2.731108e+2, -16077.445, -367635.9, -103037.44, 0.12075913, 0.35417128, 11895.75, 275449.78, 0.000013983738, 10.002551, 9.997899 
1.845403e+3, 2.831085e+2, 208641.95, -241141.19, -5152.094, 0.15597121, 0.3660592, 208700.95, 374278.9, 0.00014293527, 10.003566, 9.997614 
1.8454431e+3, 2.9310697e+2, 406929.16, -63668.586, -29929.207, -0.05751001, 0.41149783, 408824.94, 476417.84, 0.0005725451, 10.004128, 9.997886 
1.8454854e+3, 3.031054e+2, 377447.66, -208472.5, 68179.39, -0.17031607, 0.53815854, 385276.63, 385276.63, 0.001398743, 10.00426, 9.996501 
1.8455347e+3, 3.1310236e+2, 310866.78, -231683.14, -50025.313, 0.35092017, 0.57446563, 315440.78, 315440.78, 0.002530399, 10.00373, 9.996586 
1.8547288e+3, 1.23075634e+2, -2123405.0, -1674760.9, -70889.07, 0.027994018, 0.6486201, -1663826.4, 70084.016, 0.13014582, 9.996061, 10.002228 
1.8547745e+3, 1.3307214e+2, -2114977.3, -1845276.5, 39075.25, 0.28589195, 0.26428887, -1839729.3, -203783.1, 0.08765755, 9.996531, 10.000074 
1.8548153e+3, 1.4307535e+2, -1859304.8, -1557774.9, -91846.87, 0.07593301, 0.54716593, -1532001.1, 5915.5303, 0.04753598, 9.997086, 10.001135 
1.8548572e+3, 1.5307762e+2, -1666477.1, -1371809.5, -66720.555, 0.090219975, 0.611299, -1357406.1, 82488.695, 0.01851746, 9.997561, 10.001506 
1.8548992e+3, 1.6307908e+2, -1579152.6, -1431459.4, 30415.816, 0.029772358, 0.68448496, -1425440.8, -83560.37, 0.0041650403, 9.998154, 10.000127 
1.8549444e+3, 1.7307818e+2, -1318942.1, -1262652.0, 77417.99, 0.07496912, 0.57166016, -1208421.8, 35466.36, 0.00029041685, 9.999313, 10.000045 
1.8549879e+3, 1.8307725e+2, -1118663.8, -1086978.1, -65195.9, 0.10914022, 0.48174074, -1035727.75, 110166.12, 0.0000003514084, 9.999876, 10.000313 
1.8550278e+3, 1.9307703e+2, -1093625.8, -989739.3, -82510.87, 0.06584843, 0.38492346, -944183.06, 103704.94, 0.0, 9.999242, 10.000602 
1.8550687e+3, 2.0307688e+2, -1133274.5, -1121195.4, -19607.059, 0.04191368, 0.39026722, -1106718.8, -156833.36, 0.0, 9.998982, 9.999167 
1.8551116e+3, 2.1307717e+2, -948941.94, -988959.0, 12196.691, 0.099935696, 0.49391067, -945517.56, -93630.34, 0.0, 9.999635, 9.999075 
1.8551543e+3, 2.230767e+2, -802243.5, -905113.3, 3992.5986, 0.13008991, 0.5708334, -802088.8, -48193.14, 0.0, 10.0001135, 9.998755 
1.855196e+3, 2.3307481e+2, -654679.6, -765264.5, 7249.5894, 0.08794905, 0.4766733, -654206.4, 1709.0209, 0.0, 10.000389, 9.998896 
1.8552387e+3, 2.4307324e+2, -514849.38, -621450.5, 21109.69, 0.083041005, 0.43681878, -510821.34, 47108.8, 0.0, 10.000546, 9.999146 
1.8552825e+3, 2.5307265e+2, -376831.06, -466188.4, 40579.484, 0.15406509, 0.41581827, -361153.47, 98777.61, 0.0, 10.000675, 9.999467 
1.855325e+3, 2.630717e+2, -303224.22, -526720.94, -41269.688, 0.1668008, 0.44267568, -295847.1, 66090.125, 0.00000008466028, 10.001123, 9.998175 
1.8553647e+3, 2.7307e+2, -34731.223, -360931.0, -40478.27, 0.09510573, 0.44398716, -29783.309, 234169.97, 0.000011476472, 10.002361, 9.998035 
1.8554056e+3, 2.8306735e+2, 119734.03, -370429.28, 4573.7773, 0.03933037, 0.44770694, 119776.7, 285755.63, 0.00012751702, 10.003316, 9.996854 
1.8554468e+3, 2.9306334e+2, 313542.44, -192866.98, 8026.679, -0.098541714, 0.33213425, 313669.63, 381687.03, 0.00053064205, 10.003844, 9.997139 
1.8554884e+3, 3.0305955e+2, 403527.53, -67975.234, 38882.18, -0.3102202, 0.22134583, 406712.4, 406712.4, 0.0013241379, 10.003894, 9.99764 
1.8555383e+3, 3.1305838e+2, 332257.84, -69502.055, -33560.387, 0.3079676, 0.30973503, 335041.97, 335041.97, 0.0024250727, 10.003252, 9.99792 
1.8647248e+3, 1.23032935e+2, -1921212.6, -1412335.8, -131589.9, 0.009462894, 0.69029933, -1380322.1, 354012.34, 0.1378835, 9.996589, 10.004065 
1.864771e+3, 1.3302967e+2, -2108827.8, -1913347.6, 5364.951, 0.2744434, 0.3621857, -1913200.5, -276835.66, 0.09301642, 9.996868, 9.999446 
1.8648137e+3, 1.4303155e+2, -1898281.3, -1602808.4, -36522.2, 0.22707385, 0.5624792, -1598361.0, -60013.77, 0.050644647, 9.996956, 10.00087 
1.8648553e+3, 1.5303358e+2, -1661927.9, -1387372.5, -89798.56, 0.14935464, 0.6153575, -1360610.8, 79718.04, 0.01991141, 9.997687, 10.001326 
1.8648973e+3, 1.630351e+2, -1569652.5, -1398603.0, -12561.602, 0.05337106, 0.6956827, -1397685.4, -55371.24, 0.0045744055, 9.998099, 10.000371 
1.8649426e+3, 1.7303489e+2, -1491337.0, -1301590.6, 23392.02, 0.06005148, 0.6163869, -1298749.4, -54434.805, 0.0003360051, 9.997955, 10.000417 
1.8649866e+3, 1.830344e+2, -1384445.1, -1206873.0, -109116.445, 0.088458, 0.5472355, -1154984.4, -8668.347, 0.00000050835786, 9.998016, 10.000387 
1.8650271e+3, 1.9303419e+2, -1142856.8, -1008791.75, -154303.23, 0.09876757, 0.44609204, -907589.75, 140721.9, 0.0, 9.998889, 10.000642 
1.8650685e+3, 2.0303412e+2, -1032049.3, -1034872.0, -62071.91, 0.1258424, 0.44182613, -971372.7, -21064.426, 0.0, 9.999524, 9.999494 
1.8651119e+3, 2.1303451e+2, -893277.3, -920708.1, -32543.432, 0.16914856, 0.51874703, -871677.2, -19370.889, 0.0, 9.99983, 9.999452 
1.8651544e+3, 2.2303396e+2, -785863.6, -898905.94, -16855.068, 0.15270156, 0.56649286, -783404.0, -29090.424, 0.0, 10.000234, 9.998744 
1.8651956e+3, 2.3303182e+2, -581108.8, -743121.56, -34699.715, -0.0024544655, 0.45929006, -573989.7, 82346.7, 0.0, 10.000955, 9.998781 
1.8652382e+3, 2.4303019e+2, -393120.03, -585386.2, -23012.654, -0.03151131, 0.43163547, -390403.97, 167948.75, 0.0, 10.001483, 9.998941 
1.8652834e+3, 2.5302982e+2, -255212.66, -437062.4, -50598.94, 0.15145196, 0.4595696, -242081.84, 218271.45, 0.0, 10.0016365, 9.999206 
1.8653269e+3, 2.630288e+2, -172177.58, -446762.7, -102707.3, 0.22540903, 0.4911468, -138011.58, 224349.06, 0.000000065173005, 10.001958, 9.998318 
1.8653671e+3, 2.730267e+2, 31662.809, -303920.6, -125248.27, 0.105763584, 0.4306657, 73253.98, 337632.84, 0.000009433609, 10.002713, 9.998257 
1.8654089e+3, 2.830241e+2, 80700.055, -382040.34, -59457.844, 0.08068455, 0.42387703, 88217.7, 254620.6, 0.00011541111, 10.003019, 9.996905 
1.8654515e+3, 2.9302076e+2, 112824.32, -282873.38, -37437.945, 0.07020574, 0.36990234, 116335.266, 184771.55, 0.0004954094, 10.00244, 9.997175 
1.8654925e+3, 3.0301687e+2, 218680.55, -113424.88, 51377.836, -0.20072484, 0.23520991, 226447.25, 226447.25, 0.0012496252, 10.002414, 9.998037 
1.865541e+3, 3.1301636e+2, 519217.22, 117797.52, -103468.07, 0.22420035, 0.33268222, 544317.2, 544317.2, 0.0022873392, 10.004075, 9.9988165 
1.8747216e+3, 1.2298858e+2, -1820713.0, -1248627.4, -153943.27, -0.0045485473, 0.737962, -1209833.3, 524944.6, 0.14588223, 9.996664, 10.005369 
1.8747653e+3, 1.3298757e+2, -2040448.0, -1777665.0, 11820.089, 0.013427193, 0.53923166, -1777134.4, -140352.98, 0.0986057, 9.99689, 10.000371 
1.874811e+3, 1.429915e+2, -1935226.8, -1690933.4, -24573.523, 0.23694888, 0.910749, -1688486.0, -149744.63, 0.053927336, 9.996998, 10.000245 
1.8748538e+3, 1.5298878e+2, -1729679.0, -1532829.9, -50169.39, 0.22574247, 0.5874531, -1520781.0, -80012.234, 0.021407956, 9.997703, 10.000314 
1.8748964e+3, 1.6298777e+2, -1548221.4, -1363883.0, -23620.256, 0.13693112, 0.4644048, -1360904.6, -18125.586, 0.0050250688, 9.998141, 10.000591 
1.8749402e+3, 1.7299034e+2, -1459429.3, -1234860.1, 22765.893, 0.018086812, 0.6205359, -1232575.5, 12177.425, 0.00038988978, 9.997941, 10.000889 
1.8749838e+3, 1.8299164e+2, -1376841.5, -1194996.4, -94652.9, -0.010165975, 0.7000824, -1154670.8, -7932.377, 0.000000733184, 9.998036, 10.000461 
1.8750267e+3, 1.929909e+2, -1153043.6, -1018686.44, -113186.62, 0.14739531, 0.55349445, -954243.7, 94498.414, 0.0, 9.998841, 10.000599 
1.8750691e+3, 2.029901e+2, -1005743.2, -969122.8, -60381.5, 0.20836091, 0.45663264, -924336.3, 26409.78, 0.0, 9.99947, 9.999974 
1.8751106e+3, 2.1298952e+2, -873501.44, -850997.44, -13342.935, 0.057349946, 0.38137287, -844795.44, 7951.637, 0.0, 9.9997015, 9.999995 
1.8751524e+3, 2.2298884e+2, -815585.2, -921916.0, -2582.084, -0.083286695, 0.38865352, -815522.56, -60770.324, 0.0, 10.000056, 9.998674 
1.8751952e+3, 2.329884e+2, -621224.25, -783408.1, 3080.1152, -0.15328214, 0.4682626, -621165.75, 35596.26, 0.0, 10.000769, 9.998592 
1.875239e+3, 2.4298772e+2, -459798.56, -674385.2, -20539.535, -0.13040753, 0.56599975, -457850.25, 100921.91, 0.0, 10.001264, 9.998441 
1.8752839e+3, 2.5298664e+2, -321165.03, -531791.8, -30472.87, 0.034656495, 0.5779845, -316844.9, 143936.28, 0.0, 10.001456, 9.998643 
1.8753278e+3, 2.6298457e+2, -200610.31, -465017.8, -86626.336, 0.10608846, 0.54213345, -174757.27, 188041.56, 0.00000004605578, 10.001768, 9.998292 
1.8753695e+3, 2.729812e+2, 8137.3413, -298083.3, -81533.68, 0.050660476, 0.34130305, 28493.188, 293320.94, 0.000008319171, 10.002472, 9.998418 
1.8754126e+3, 2.8297895e+2, 93528.19, -295477.97, -84330.38, 0.12822449, 0.3288391, 111022.89, 277870.53, 0.00010877432, 10.002756, 9.997632 
1.8754567e+3, 2.9297873e+2, 132994.45, -195979.45, -42871.336, 0.32411027, 0.50840557, 138489.58, 207342.47, 0.0004719854, 10.0022545, 9.997865 
1.8754968e+3, 3.0297658e+2, 182506.33, -146644.11, 72958.33, -0.023543043, 0.5226544, 197953.11, 197953.11, 0.0011856594, 10.002239, 9.997891 
1.8755439e+3, 3.1297472e+2, 475322.97, 175174.63, 61490.273, 0.071262404, 0.4995836, 487431.75, 487431.75, 0.0021480734, 10.003458, 9.999505 
1.8847187e+3, 1.2294373e+2, -1996822.3, -1377150.6, -38100.49, 0.108918704, 0.70522577, -1374816.8, 360398.28, 0.15411249, 9.995661, 10.004844 
1.8847619e+3, 1.3294365e+2, -1949238.6, -1717342.9, -2172.1602, -0.047555298, 0.57695574, -1717322.5, -80112.055, 0.10442951, 9.997448, 10.000511 
1.8848085e+3, 1.4294711e+2, -1761010.0, -1649647.0, -76238.586, 0.24101704, 0.91493, -1610921.1, -71745.68, 0.057399224, 9.998382, 9.999861 
1.8848518e+3, 1.529439e+2, -1738519.1, -1573169.1, -80322.875, 0.26108697, 0.5807259, -1540575.3, -99366.42, 0.023018045, 9.997824, 9.999968 
1.884895e+3, 1.6294256e+2, -1628229.4, -1375324.6, -1388.9385, 0.21679662, 0.43568468, -1375317.0, -32094.387, 0.005521801, 9.997465, 10.000842 
1.8849386e+3, 1.7294529e+2, -1425148.8, -1172494.4, 25921.451, 0.068474315, 0.56645334, -1169862.4, 75330.99, 0.0004532519, 9.997968, 10.001312 
1.8849823e+3, 1.8294702e+2, -1330532.1, -1186979.9, -58920.332, 0.030054914, 0.6669786, -1165893.6, -18718.748, 0.0000010252129, 9.998416, 10.000329 
1.885026e+3, 1.9294693e+2, -1136603.8, -1040884.8, -105332.67, 0.20395598, 0.60843265, -973048.56, 76127.62, 0.0, 9.999081, 10.000328 
1.885069e+3, 2.0294636e+2, -978943.5, -946159.7, -71850.086, 0.257609, 0.54892915, -888855.44, 62324.42, 0.0, 9.999615, 10.000059 
1.8851101e+3, 2.1294513e+2, -788708.56, -785990.3, -75116.33, 0.034549676, 0.39218003, -712220.8, 140964.23, 0.0, 10.000194, 10.0001955 
1.8851522e+3, 2.2294433e+2, -754360.8, -861589.5, -64289.2, -0.11456281, 0.3651872, -724263.75, 30926.07, 0.0, 10.00036, 9.998931 
1.8851958e+3, 2.3294473e+2, -745484.25, -817399.94, -47692.13, -0.10330196, 0.5052735, -721713.5, -64522.074, 0.0, 9.999797, 9.998828 
1.8852402e+3, 2.4294434e+2, -686240.0, -800689.6, -2608.6318, -0.041512944, 0.6248773, -686180.6, -126982.02, 0.0, 9.999794, 9.998276 
1.8852854e+3, 2.5294235e+2, -393686.63, -601618.4, -14506.876, 0.06694989, 0.5737033, -392679.4, 68536.87, 0.0, 10.001112, 9.998325 
1.8853295e+3, 2.6293978e+2, -209891.56, -471227.38, -65183.973, 0.12313142, 0.505888, -194535.33, 168703.55, 0.000000017635879, 10.001726, 9.998263 
1.8853714e+3, 2.729368e+2, -204249.58, -391333.97, -93609.375, 0.08095953, 0.34463665, -165455.63, 99808.66, 0.000007223604, 10.00099, 9.998483 
1.8854149e+3, 2.8293502e+2, -100208.734, -348569.72, -46513.547, 0.16405793, 0.36195815, -91783.41, 75496.516, 0.00010058898, 10.001282, 9.997966 
1.8854602e+3, 2.9293525e+2, 387927.8, -47165.863, -61258.34, 0.38434935, 0.55083865, 396388.1, 465668.22, 0.00044319447, 10.003893, 9.998102 
1.885501e+3, 3.029333e+2, 500679.94, -81639.49, -12535.683, 0.06600912, 0.6116515, 500949.66, 500949.66, 0.0011127426, 10.00479, 9.9971285 
1.8855475e+3, 3.1292933e+2, 300677.78, 90067.71, -95911.55, 0.16488288, 0.45796305, 337809.3, 337809.3, 0.0020053494, 10.002252, 9.999502 
1.8947145e+3, 1.2289731e+2, -2175482.8, -1710729.3, 84412.1, 0.071925, 0.445844, -1695872.6, 39782.664, 0.16258536, 9.995733, 10.002131 
1.8947598e+3, 1.3289784e+2, -2006513.0, -1839878.1, 73418.11, 0.0056691747, 0.47323498, -1812146.0, -174494.69, 0.110513955, 9.997443, 9.999687 
1.894806e+3, 1.42898e+2, -1759011.3, -1646791.1, -93712.65, 0.12168429, 0.53567696, -1593674.9, -54021.816, 0.06108175, 9.998399, 9.9998665 
1.894849e+3, 1.5289891e+2, -1720530.9, -1535903.0, -94985.766, 0.16718467, 0.58815706, -1495762.5, -54113.35, 0.024752133, 9.997824, 10.000225 
1.8948922e+3, 1.6289952e+2, -1593580.0, -1317608.5, 1028.7714, 0.1759884, 0.6109661, -1317604.8, 26039.924, 0.0060684755, 9.997522, 10.001213 
1.8949373e+3, 1.7289981e+2, -1396279.9, -1111022.9, 53573.88, 0.13283056, 0.45500875, -1101293.1, 144342.45, 0.0005270964, 9.997959, 10.001741 
1.8949819e+3, 1.8290047e+2, -1344519.6, -1225451.3, -43917.555, 0.11827308, 0.4328997, -1211005.3, -63378.992, 0.0000013718216, 9.998458, 10.000042 
1.8950249e+3, 1.9290237e+2, -1180236.3, -1118956.6, -74955.32, 0.17397854, 0.6218929, -1068620.5, -19007.85, 0.0, 9.999029, 9.999813 
1.8950677e+3, 2.0290303e+2, -1009706.44, -1000099.1, -58949.324, 0.16162676, 0.72962743, -945758.06, 5850.306, 0.0, 9.999558, 9.9997225 
1.8951103e+3, 2.129013e+2, -822855.0, -830752.94, -45665.883, 0.021621259, 0.54637843, -780967.7, 72653.0, 0.0, 10.000069, 9.999953 
1.8951534e+3, 2.2290015e+2, -746636.7, -801383.1, -86940.695, -0.04152369, 0.47801533, -682861.8, 72767.22, 0.0, 10.000167, 9.999438 
1.8951972e+3, 2.3290087e+2, -719442.94, -727017.75, -59301.418, 0.042920943, 0.5807512, -663808.06, -6184.1035, 0.0, 9.999643, 9.999519 
1.8952417e+3, 2.4290028e+2, -708048.5, -811542.1, 19967.598, 0.11507377, 0.63854146, -704329.7, -144699.66, 0.0, 9.999632, 9.998288 
1.8952875e+3, 2.5289702e+2, -429047.25, -635037.5, 46181.875, 0.1561567, 0.47380498, -419167.4, 42490.71, 0.0, 10.000941, 9.998179 
1.8953317e+3, 2.6289424e+2, -239198.31, -492730.28, -87415.68, 0.16498096, 0.40026245, -211980.16, 151702.16, 0.0000000071100716, 10.00155, 9.998202 
1.8953726e+3, 2.7289325e+2, -226712.05, -400951.94, -109468.52, 0.09731813, 0.43536976, -173927.58, 91764.01, 0.0000064443307, 10.00084, 9.998485 
1.8954153e+3, 2.8289208e+2, -125586.6, -370866.63, 12325.029, 0.078246705, 0.51286554, -124968.84, 42733.727, 0.0000894982, 10.001132, 9.997892 
1.895462e+3, 2.9289034e+2, 324371.94, -110889.73, 56651.41, 0.16079016, 0.51307565, 331624.53, 401343.4, 0.00040204253, 10.003588, 9.997818 
1.8955044e+3, 3.0288753e+2, 340154.2, -317419.5, -88648.57, -0.081739046, 0.5691155, 351895.4, 351895.4, 0.0010225481, 10.004396, 9.995686 
1.8955511e+3, 3.128805e+2, 132240.31, -130366.336, -79357.82, 0.27057853, 0.2675264, 154358.72, 154358.72, 0.0018580131, 10.001757, 9.998206 
1.9047114e+3, 1.2284966e+2, -2071487.4, -1849913.6, 94082.836, 0.12853149, 0.32514986, -1815355.0, -79239.61, 0.1713416, 9.997321, 10.000347 
1.9047578e+3, 1.3285032e+2, -2031267.5, -1773953.6, -12447.365, 0.09442712, 0.30301306, -1773353.0, -135239.6, 0.11689223, 9.996978, 10.000343 
1.9048028e+3, 1.428519e+2, -2050519.9, -1757977.3, -84087.12, 0.07595267, 0.4695891, -1735530.0, -195427.81, 0.06499328, 9.996255, 10.000145 
1.9048457e+3, 1.5285411e+2, -1748744.5, -1491748.5, -88909.914, 0.10812384, 0.6021068, -1463988.1, -21902.451, 0.026617203, 9.997366, 10.000754 
1.9048898e+3, 1.6285534e+2, -1540025.4, -1331110.4, 21850.574, 0.16387786, 0.6686752, -1328849.5, 15226.104, 0.0066676727, 9.998058, 10.00086 
1.9049361e+3, 1.7285474e+2, -1388261.4, -1164102.4, -12569.864, 0.22244778, 0.47504526, -1163399.6, 82677.57, 0.0006122247, 9.998273, 10.001213 
1.9049813e+3, 1.8285474e+2, -1342415.4, -1225137.3, -123714.164, 0.2454484, 0.42141014, -1146868.5, 1207.0679, 0.0000017786746, 9.998484, 10.000031 
1.9050238e+3, 1.9285654e+2, -1155544.8, -1094768.3, -127833.945, 0.16854544, 0.59148616, -993760.3, 56302.445, 0.0, 9.999147, 9.999927 
1.9050665e+3, 2.028574e+2, -1022476.44, -999764.5, -69721.266, 0.1058746, 0.7131429, -940480.44, 11576.329, 0.0, 9.999468, 9.999756 
1.9051103e+3, 2.1285644e+2, -942243.1, -891368.94, -63071.773, 0.073293105, 0.6113365, -848798.0, 5264.8887, 0.0, 9.999269, 9.99992 
1.905154e+3, 2.2285555e+2, -864625.2, -872452.94, -91075.28, 0.06962483, 0.5760464, -777379.75, -21310.27, 0.0, 9.99941, 9.99932 
1.9051977e+3, 2.3285535e+2, -609850.1, -692983.44, -140633.45, 0.09522604, 0.59906965, -504769.06, 153303.22, 0.0, 10.000475, 9.999353 
1.905242e+3, 2.4285434e+2, -444777.16, -623549.25, -52162.836, 0.1331439, 0.6051629, -430670.1, 129410.695, 0.0, 10.001196, 9.998809 
1.9052885e+3, 2.5285175e+2, -330662.7, -507231.2, 12035.964, 0.17889136, 0.4380364, -329846.03, 132254.31, 0.0, 10.001273, 9.998891 
1.9053334e+3, 2.6284957e+2, -259930.1, -510411.3, -84492.27, 0.19042125, 0.38378447, -234094.05, 130023.484, 0.000000016068412, 10.001445, 9.998126 
1.9053736e+3, 2.7284876e+2, -69617.67, -366176.28, -156384.56, 0.075008266, 0.46705553, -2390.8655, 263735.6, 0.000006020835, 10.002066, 9.998144 
1.9054165e+3, 2.8284705e+2, 63698.215, -314639.4, 16271.968, 0.026037179, 0.5212689, 64396.77, 232540.63, 0.00007835106, 10.002576, 9.997587 
1.9054648e+3, 2.928439e+2, 224640.78, -191496.27, 19805.115, 0.14289205, 0.41754568, 225581.23, 295755.2, 0.00035541307, 10.003046, 9.997518 
1.9055092e+3, 3.0284125e+2, 210239.94, -391082.3, -126378.125, 0.018663524, 0.5124707, 235720.72, 235720.72, 0.0009231034, 10.003557, 9.995586 
1.9055545e+3, 3.1283408e+2, 445790.63, -23758.133, -74427.82, 0.3492366, 0.20955136, 457305.75, 457305.75, 0.0017128558, 10.00403, 9.997887 
1.9147083e+3, 1.2280243e+2, -2124026.8, -1954946.8, 290923.44, 0.041170686, 0.52207345, -1736528.9, 51.38872, 0.18042894, 9.997321, 9.999616 
1.9147553e+3, 1.3280065e+2, -1885033.8, -1489526.0, -59992.57, 0.12672617, 0.030871736, -1480626.3, 157975.02, 0.12358676, 9.996972, 10.002444 
1.9147983e+3, 1.4280877e+2, -1994808.3, -1654343.8, -71084.805, -0.011234449, 0.71576, -1640098.3, -99574.61, 0.069141634, 9.996306, 10.000831 
1.914842e+3, 1.5280956e+2, -1692404.1, -1374617.0, -36240.266, -0.013314629, 0.6281109, -1370536.6, 71980.99, 0.028615344, 9.9973545, 10.001578 
1.9148871e+3, 1.6281007e+2, -1603488.6, -1477533.0, 24220.223, 0.06694401, 0.610272, -1473036.3, -128521.36, 0.0073205116, 9.998124, 9.99982 
1.9149348e+3, 1.7281018e+2, -1502635.9, -1397636.9, -852.0603, 0.2514073, 0.64056695, -1397630.0, -151112.64, 0.00070924795, 9.99826, 9.999613 
1.9149807e+3, 1.8280993e+2, -1316806.1, -1187076.6, -112761.07, 0.30947152, 0.6506487, -1121854.9, 26667.178, 0.0000023137907, 9.998539, 10.000272 
1.9150224e+3, 1.9280952e+2, -1110792.1, -990126.0, -94589.86, 0.11395688, 0.5336193, -938265.9, 112259.62, 0.0, 9.999091, 10.000677 
1.915065e+3, 2.028095e+2, -1012256.5, -965821.8, -78526.65, -0.0039244373, 0.50736946, -907152.2, 45372.62, 0.0, 9.999401, 10.000024 
1.9151099e+3, 2.1281064e+2, -947557.1, -878859.25, -63781.75, 0.09745434, 0.5985566, -840765.4, 13746.174, 0.0, 9.999161, 10.000057 
1.9151542e+3, 2.2281067e+2, -936507.94, -985436.7, -66674.28, 0.12492583, 0.6721006, -889951.44, -133441.05, 0.0, 9.999249, 9.998625 
1.915197e+3, 2.3280838e+2, -700930.2, -839219.3, -86227.48, -0.015037058, 0.58102536, -659548.06, -1013.9195, 0.0, 10.000296, 9.998436 
1.9152413e+3, 2.4280651e+2, -411270.66, -504653.3, -48649.098, -0.080969945, 0.52201945, -390531.94, 170018.97, 0.0, 10.000974, 9.999737 
1.9152887e+3, 2.528064e+2, -257694.78, -307587.47, 23462.635, 0.047968354, 0.4613004, -248394.73, 214149.38, 0.0, 10.001067, 10.00036 
1.9153342e+3, 2.6280573e+2, -301918.63, -548025.6, -80711.75, 0.09706589, 0.47279572, -277810.5, 86734.58, 0.000000038925435, 10.001224, 9.99798 
1.9153742e+3, 2.7280346e+2, -138340.22, -465389.22, -123502.65, -0.080084175, 0.4660556, -96942.38, 169625.36, 0.0000054500297, 10.001884, 9.997549 
1.9154178e+3, 2.8280017e+2, -2590.1697, -418642.03, 20071.305, -0.12753044, 0.4259335, -1624.1266, 166977.28, 0.00006657065, 10.002427, 9.996948 
1.9154686e+3, 2.9279608e+2, 141256.25, -301011.03, 56029.965, 0.18688752, 0.28889444, 148244.16, 218888.2, 0.00030456812, 10.002779, 9.996894 
1.9155148e+3, 3.0279467e+2, 233895.58, -266044.66, -124256.7, 0.19642074, 0.50385135, 263075.56, 263075.56, 0.00081260083, 10.0032215, 9.9966 
1.9155549e+3, 3.127916e+2, 404062.56, 43451.75, -32672.746, -0.05339978, 0.45766157, 406998.94, 406998.94, 0.0015525435, 10.003413, 9.998615 
1.9247055e+3, 1.2275568e+2, -2361439.5, -2064765.8, 316226.22, 0.14549834, 0.7850356, -1863813.5, -126770.29, 0.18987963, 9.995656, 9.999673 
1.9247517e+3, 1.3275269e+2, -1944775.3, -1364389.4, -146578.72, 0.15000159, 0.01598473, -1329471.1, 309603.0, 0.13060497, 9.995808, 10.004021 
1.9247946e+3, 1.4276333e+2, -1933083.8, -1574209.0, -116793.945, -0.0028640532, 0.8480274, -1539546.9, 1421.934, 0.07352615, 9.996516, 10.001278 
1.9248399e+3, 1.5276276e+2, -1627078.8, -1311505.1, -127820.664, 0.036633383, 0.5920896, -1266228.4, 176745.92, 0.030745408, 9.997665, 10.001879 
1.9248858e+3, 1.6276243e+2, -1601830.9, -1477563.8, -89434.74, 0.13259564, 0.4754993, -1430797.5, -85818.64, 0.008026891, 9.998158, 9.999797 
1.9249323e+3, 1.7276376e+2, -1599362.8, -1461306.1, -37721.883, 0.22468166, 0.6385865, -1451671.6, -204699.77, 0.0008187495, 9.997672, 9.999464 
1.9249779e+3, 1.8276438e+2, -1492025.9, -1256536.0, -43784.508, 0.2524158, 0.7374196, -1248658.8, -99689.24, 0.0000031359323, 9.997276, 10.0004 
1.9250208e+3, 1.9276366e+2, -1295473.4, -1051219.4, -71470.03, 0.12784417, 0.5658997, -1031843.8, 19131.121, 0.0, 9.997703, 10.000919 
1.9250645e+3, 2.0276332e+2, -1148869.1, -1033170.25, -63686.906, 0.059908327, 0.4943016, -1004981.44, -52005.07, 0.0, 9.998472, 10.000011 
1.9251096e+3, 2.1276425e+2, -792466.5, -809749.9, -80609.805, 0.11067929, 0.57113487, -720036.5, 134928.52, 0.0, 10.000265, 9.999995 
1.9251543e+3, 2.2276412e+2, -647234.25, -849260.3, -77380.086, 0.12871228, 0.6331937, -621002.2, 135962.97, 0.0, 10.001267, 9.998582 
1.9251977e+3, 2.327616e+2, -670838.1, -829129.25, -61069.82, 0.03792372, 0.52638316, -650016.0, 8974.72, 0.0, 10.000519, 9.9984 
1.9252422e+3, 2.4275978e+2, -583939.06, -591378.3, 269.55658, -0.00557748, 0.47159263, -583929.3, -22921.816, 0.0, 9.999796, 9.999712 
1.9252887e+3, 2.527603e+2, -493496.34, -433148.28, -48381.74, 0.042512156, 0.4809849, -406302.47, 56693.78, 0.0, 9.999479, 10.000277 
1.925334e+3, 2.6275983e+2, -477708.8, -628909.9, -137435.77, 0.06075218, 0.5176845, -396452.63, -31456.396, 0.000000047147957, 10.000004, 9.9980135 
1.9253765e+3, 2.727568e+2, -59403.855, -417041.88, -152893.6, -0.0612172, 0.42845926, -2951.3433, 264074.6, 0.0000044268, 10.002387, 9.997638 
1.9254212e+3, 2.8275338e+2, 154744.83, -339655.97, -6799.0747, -0.051099483, 0.37294585, 154838.31, 323898.97, 0.000054025306, 10.003519, 9.996949 
1.9254719e+3, 2.927508e+2, 62218.406, -349623.22, 25782.453, 0.28828377, 0.3924324, 63826.184, 134917.14, 0.00025235597, 10.002268, 9.996811 
1.9255182e+3, 3.027494e+2, 80328.14, -289454.63, -61774.563, 0.30559912, 0.5948918, 90375.0, 90375.0, 0.000694764, 10.001929, 9.99707 
1.9255577e+3, 3.1274706e+2, 416582.3, 72253.55, -112644.08, -0.06825002, 0.57862747, 450158.7, 450158.7, 0.001367738, 10.0033245, 9.99889 
1.9347027e+3, 1.22706674e+2, -2266847.3, -1885742.5, 13530.404, 0.23860192, 0.8423133, -1885262.8, -147731.38, 0.1997211, 9.995727, 10.000868 
1.9347465e+3, 1.3270652e+2, -1881598.3, -1243126.3, -118336.79, 0.026428472, 0.28250676, -1221899.0, 417631.72, 0.13795441, 9.995755, 10.005025 
1.9347912e+3, 1.4271578e+2, -1907235.0, -1534466.3, -86442.24, -0.025862658, 0.88795346, -1515396.5, 26040.275, 0.07814733, 9.996564, 10.001542 
1.934839e+3, 1.5271364e+2, -1645498.9, -1353974.4, -79067.164, 0.17902638, 0.4988694, -1333910.8, 109545.56, 0.033007, 9.997677, 10.001578 
1.9348854e+3, 1.6271225e+2, -1519418.5, -1320245.9, -108214.445, 0.25696746, 0.25258958, -1272768.3, 72701.42, 0.008786739, 9.998213, 10.000857 
1.9349286e+3, 1.7271541e+2, -1502259.5, -1259773.9, -50920.66, 0.06676839, 0.4668094, -1249514.8, -2073.6038, 0.00094156526, 9.997667, 10.000855 
1.9349724e+3, 1.8271801e+2, -1479618.0, -1240948.3, -42600.67, -0.034687635, 0.67619437, -1233572.4, -84154.336, 0.0000044945964, 9.997316, 10.000488 
1.9350187e+3, 1.9271894e+2, -1322835.5, -1101215.4, -46764.71, 0.12236835, 0.69458055, -1091751.5, -40340.57, 0.0, 9.997666, 10.000599 
1.9350643e+3, 2.0271885e+2, -1175667.8, -1076743.5, -17821.717, 0.18861036, 0.6795712, -1073630.8, -120218.766, 0.0, 9.998415, 9.9997425 
1.9351092e+3, 2.1271724e+2, -838429.1, -866143.8, -4610.32, 0.040265907, 0.53253126, -837682.4, 17741.438, 0.0, 10.000095, 9.999694 
1.9351542e+3, 2.2271572e+2, -646457.0, -787837.8, -93315.586, -0.019890293, 0.45433488, -600079.3, 157356.48, 0.0, 10.001018, 9.999119 
1.9351995e+3, 2.3271489e+2, -640126.25, -726027.25, -82875.51, 0.14705822, 0.43819135, -589732.75, 69711.195, 0.0, 10.000358, 9.999181 
1.9352445e+3, 2.4271405e+2, -667625.4, -735626.3, -28820.625, 0.22140087, 0.47169036, -657053.9, -95602.08, 0.0, 9.999664, 9.998789 
1.9352885e+3, 2.5271347e+2, -606079.1, -641825.9, -51160.684, 0.07168895, 0.509164, -569759.56, -106303.586, 0.0, 9.999379, 9.99889 
1.9353333e+3, 2.62712e+2, -494340.5, -622602.25, -77137.82, -0.021308, 0.52363974, -458156.8, -92687.5, 0.00000001782158, 9.999835, 9.998135 
1.9353798e+3, 2.727088e+2, -59057.332, -350012.5, -49366.36, 0.019526111, 0.36583412, -50909.51, 216590.33, 0.0000033385966, 10.002125, 9.998214 
1.9354266e+3, 2.827068e+2, 153928.88, -291043.28, -46636.95, 0.11259955, 0.3947249, 158764.28, 328284.94, 0.00004416703, 10.0032835, 9.997406 
1.9354744e+3, 2.9270762e+2, 69013.27, -287974.63, -8159.93, 0.31886947, 0.71047634, 69199.695, 140718.13, 0.00021030295, 10.002071, 9.997327 
1.9355194e+3, 3.0270526e+2, 32096.527, -339468.1, -38673.9, 0.21110053, 0.79050183, 36079.17, 36079.17, 0.0005914213, 10.0017185, 9.996828 
1.9355613e+3, 3.1269968e+2, 330109.78, 34511.563, -64775.707, -0.07057845, 0.48519, 343681.25, 343681.25, 0.0011860685, 10.002789, 9.998854 
1.9446991e+3, 1.22658946e+2, -2195806.8, -1820698.8, 27637.71, 0.32191914, 0.718644, -1818673.4, -80673.1, 0.20999403, 9.996081, 10.001144 
1.9447428e+3, 1.3266076e+2, -1808548.4, -1199513.1, 61704.496, 0.0938353, 0.36055315, -1193324.5, 446652.06, 0.14565058, 9.996138, 10.005227 
1.9447884e+3, 1.4266737e+2, -1858857.8, -1518092.3, 75471.13, 0.0391401, 0.6773687, -1502125.4, 39781.26, 0.083007626, 9.9969, 10.001517 
1.9448365e+3, 1.5266679e+2, -1843464.8, -1497656.8, 35949.707, 0.23126087, 0.47980854, -1493959.0, -50044.703, 0.03539992, 9.996528, 10.001126 
1.9448827e+3, 1.6266614e+2, -1742429.8, -1380876.5, 5854.4243, 0.26782343, 0.31678227, -1380781.8, -34860.316, 0.009600047, 9.996471, 10.001285 
1.944926e+3, 1.7266841e+2, -1403458.6, -1127999.6, -225.84937, 0.03063462, 0.37378693, -1127999.4, 119896.99, 0.0010784023, 9.997984, 10.001601 
1.9449702e+3, 1.8267053e+2, -1236510.3, -1163109.5, -22089.227, -0.06260935, 0.5012757, -1156974.8, -7099.491, 0.0000066792873, 9.999157, 10.000135 
1.9450173e+3, 1.9267187e+2, -1070537.8, -1053204.5, -69035.36, 0.14152488, 0.6227166, -992293.9, 59574.168, 0.0, 9.999728, 9.99993 
1.9450639e+3, 2.0267208e+2, -976405.75, -975972.44, -32373.818, 0.24749108, 0.67597544, -943814.56, 10054.265, 0.0, 9.999771, 9.999775 
1.945109e+3, 2.126702e+2, -985068.5, -910962.6, 1438.3599, 0.093044624, 0.4852981, -910934.7, -55052.23, 0.0, 9.998972, 9.999926 
1.9451544e+3, 2.2266881e+2, -958611.5, -923953.2, -53872.29, 0.027497996, 0.3985313, -884691.5, -126798.21, 0.0, 9.998799, 9.999254 
1.9452e+3, 2.3266892e+2, -631967.75, -712877.9, -104642.19, 0.17709531, 0.46693662, -560232.8, 99661.1, 0.0, 10.000365, 9.999274 
1.9452453e+3, 2.4266842e+2, -435582.34, -663459.44, -65612.07, 0.2605365, 0.54508805, -418041.1, 143858.44, 0.0, 10.001451, 9.998421 
1.9452894e+3, 2.5266644e+2, -334348.56, -572668.44, -56266.258, 0.13645777, 0.4942492, -321732.25, 142185.58, 0.0, 10.001512, 9.998339 
1.9453345e+3, 2.6266414e+2, -254230.28, -490825.3, 7314.096, 0.052375287, 0.45461228, -254004.39, 111934.945, 0.000000002142629, 10.001406, 9.998282 
1.9453816e+3, 2.7266213e+2, -165756.63, -376870.03, 8379.823, 0.06206771, 0.38681084, -165424.52, 102534.63, 0.0000030022966, 10.001243, 9.998475 
1.9454291e+3, 2.8266093e+2, -98035.97, -385244.16, -12851.472, 0.15580262, 0.4710117, -97462.06, 72510.29, 0.00003904193, 10.001439, 9.997651 
1.9454768e+3, 2.926611e+2, 142493.56, -218123.03, -37286.574, 0.3454523, 0.69998777, 146308.52, 218283.45, 0.0001845939, 10.002419, 9.997641 
1.9455212e+3, 3.026574e+2, 214757.73, -260819.81, -15861.966, 0.17768554, 0.6289472, 215286.2, 215286.2, 0.0005147017, 10.003033, 9.996724 
1.9455644e+3, 3.1265396e+2, 425134.56, 53867.18, -85462.695, -0.042694997, 0.5772137, 443862.66, 443862.66, 0.0010261646, 10.003517, 9.9986515 
1.9546944e+3, 1.22614264e+2, -2221779.0, -1934137.1, -215841.56, 0.17214242, 0.5611873, -1818589.5, -80157.664, 0.22070916, 9.996291, 10.000284 
1.954741e+3, 1.3261543e+2, -1837471.0, -1269775.5, 116625.016, 0.28215307, 0.23128527, -1246750.5, 393659.53, 0.15369554, 9.996208, 10.004672 
1.954786e+3, 1.4261806e+2, -1865741.0, -1554201.5, 70248.54, 0.08262928, 0.17991266, -1539094.0, 3284.6804, 0.08810495, 9.997004, 10.001196 
1.9548318e+3, 1.5262228e+2, -1890987.1, -1600650.8, 27359.285, 0.094990715, 0.531628, -1598095.1, -153747.92, 0.037922986, 9.996537, 10.00042 
1.9548771e+3, 1.6262436e+2, -1744527.3, -1398933.5, 37860.098, 0.035022262, 0.68865615, -1394834.5, -48502.895, 0.010466628, 9.996527, 10.001135 
1.954924e+3, 1.7262287e+2, -1399609.1, -1130098.8, 66326.62, 0.031589966, 0.36983868, -1114660.1, 133676.48, 0.0012294218, 9.9980135, 10.001578 
1.9549708e+3, 1.8262187e+2, -1280948.5, -1267188.3, -621.506, 0.06086131, 0.21502495, -1267160.3, -116818.2, 0.000009908067, 9.999215, 9.999389 
1.9550169e+3, 1.9262248e+2, -1147285.4, -1202606.6, -41763.5, 0.10531063, 0.36326417, -1124853.0, -72507.445, 0.0, 9.999687, 9.998924 
1.9550627e+3, 2.0262285e+2, -970567.9, -940457.1, -61342.96, 0.1362574, 0.48496485, -892349.06, 61998.883, 0.0, 9.999671, 10.000066 
1.955109e+3, 2.1262306e+2, -951153.9, -810468.56, -22143.04, 0.17181183, 0.4315055, -807065.7, 49276.25, 0.0, 9.998848, 10.000672 
1.9551545e+3, 2.2262321e+2, -992878.9, -964765.5, -21623.621, 0.15819432, 0.46068138, -953031.25, -194692.14, 0.0, 9.998658, 9.999046 
1.9551991e+3, 2.3262368e+2, -692832.9, -797883.75, -34360.39, 0.050570786, 0.61245084, -682592.44, -22252.152, 0.0, 10.0001955, 9.998768 
1.9552444e+3, 2.4262288e+2, -468986.72, -680461.2, -59235.277, 0.012371856, 0.6897426, -453525.03, 108825.85, 0.0, 10.001223, 9.998414 
1.9552912e+3, 2.5261915e+2, -343002.4, -552638.4, -44877.473, 0.14602593, 0.44757843, -333799.34, 130582.66, 0.0, 10.001361, 9.99854 
1.9553372e+3, 2.6261646e+2, -262395.06, -482890.0, -8270.6875, 0.16529405, 0.34540898, -262085.27, 104319.99, 0.00000003752054, 10.001286, 9.998404 
1.9553821e+3, 2.7261668e+2, -178869.3, -373081.4, 13702.542, -0.023695217, 0.4977684, -177907.3, 90497.664, 0.0000033251551, 10.001109, 9.998567 
1.955429e+3, 2.8261587e+2, -140009.6, -420189.94, -44.773483, -0.02612834, 0.61959773, -140009.6, 30405.55, 0.000036409245, 10.001213, 9.99752 
1.9554788e+3, 2.9261193e+2, 114224.13, -229562.3, 13473.048, 0.28184712, 0.45043203, 114751.336, 187205.33, 0.00016708692, 10.002227, 9.99765 
1.9555233e+3, 3.0260685e+2, 181590.5, -284929.9, -21601.006, 0.049983274, 0.22675209, 182588.53, 182588.53, 0.00045037686, 10.002821, 9.996669 
1.9555685e+3, 3.12609e+2, 337678.06, -12911.84, -3940.6401, -0.028915888, 0.75101656, 337722.34, 337722.34, 0.000871658, 10.003057, 9.9984 
1.9646911e+3, 1.2257033e+2, -1901226.3, -1795027.5, -85252.03, 0.1284714, 0.41491622, -1747690.5, -8834.977, 0.23177752, 9.99862, 10.000078 
1.9647375e+3, 1.3257176e+2, -1720961.4, -1408484.3, 83625.57, 0.25109372, 0.28746852, -1387511.9, 253322.11, 0.1620495, 9.998009, 10.0026655 
1.9647834e+3, 1.4257146e+2, -1972376.1, -1677799.8, -21055.686, 0.14232728, 0.09643711, -1676302.4, -133468.4, 0.093428105, 9.99662, 10.000508 
1.9648287e+3, 1.5257627e+2, -1657059.3, -1503107.5, -41350.21, 0.06428509, 0.53079605, -1492704.1, -47906.67, 0.04057487, 9.998243, 10.000239 
1.9648746e+3, 1.6257872e+2, -1376171.9, -1263250.3, -1773.3363, 0.008931329, 0.7520148, -1263222.4, 83555.95, 0.011385711, 9.999232, 10.000768 
1.9649227e+3, 1.7257634e+2, -1367617.8, -1156184.6, -20391.773, 0.09986112, 0.38233244, -1154236.0, 94555.92, 0.0013940044, 9.998423, 10.001199 
1.9649704e+3, 1.8257473e+2, -1476799.5, -1347871.3, -61283.957, 0.17205411, 0.1853014, -1323389.6, -172586.8, 0.000014255441, 9.997802, 9.99952 
1.9650158e+3, 1.9257562e+2, -1341998.4, -1264538.8, -24488.082, 0.1262897, 0.33520386, -1257446.5, -204643.52, 0.0, 9.998211, 9.99921 
1.9650616e+3, 2.0257622e+2, -1097366.0, -1031772.56, 11677.271, 0.10847813, 0.47002238, -1029755.7, -74952.47, 0.0, 9.9989195, 9.999806 
1.9651082e+3, 2.125762e+2, -768177.7, -771730.44, -47495.367, 0.17070253, 0.43402696, -722425.5, 134375.92, 0.0, 10.000302, 10.000243 
1.9651546e+3, 2.2257623e+2, -642187.94, -802971.75, -74775.945, 0.18719092, 0.48180076, -612787.75, 146013.19, 0.0, 10.001105, 9.99898 
1.9651994e+3, 2.3257664e+2, -613952.0, -761583.6, -70532.766, 0.05175865, 0.62949765, -585671.56, 75130.83, 0.0, 10.000729, 9.998767 
1.9652452e+3, 2.4257573e+2, -533540.9, -702539.1, -50406.277, 0.01109136, 0.6941924, -519648.47, 43165.3, 0.0, 10.000722, 9.998508 
1.9652925e+3, 2.5257227e+2, -281292.28, -513810.34, -59958.62, 0.1463348, 0.46993658, -266741.53, 198101.3, 0.0, 10.001732, 9.998633 
1.9653392e+3, 2.6256981e+2, -132807.03, -447343.4, -46865.33, 0.18286532, 0.39935803, -125972.69, 240891.86, 0.00000006167767, 10.00231, 9.99815 
1.9653839e+3, 2.7256998e+2, -102019.42, -376944.94, -92341.26, 0.020929188, 0.57985103, -73883.516, 194983.56, 0.000003603985, 10.00184, 9.998176 
1.965431e+3, 2.8256863e+2, -54799.508, -376651.4, -51339.363, 0.034961894, 0.67742366, -46808.637, 124074.266, 0.00003430298, 10.00179, 9.9975395 
1.965481e+3, 2.9256436e+2, 249340.25, -149025.67, -36973.957, 0.26719293, 0.46645835, 252742.89, 325666.56, 0.00015136057, 10.0030775, 9.997806 
1.965526e+3, 3.025605e+2, 410937.6, -63097.59, -57336.293, 0.006427485, 0.31642705, 417774.06, 417774.06, 0.0003913985, 10.003911, 9.997678 
1.9655716e+3, 3.1256247e+2, 323076.47, -32747.92, -21393.729, 0.007871918, 0.7293455, 324358.13, 324358.13, 0.0007264296, 10.002961, 9.998338 
1.9746907e+3, 1.2252819e+2, -1862562.8, -1750938.6, 246022.67, 0.15440413, 0.327568, -1554476.8, 184784.16, 0.24301729, 9.998816, 10.000544 
1.9747321e+3, 1.3253008e+2, -1977093.0, -1924672.6, 14631.033, -0.10568397, 0.5452167, -1920865.5, -279620.0, 0.17062773, 9.998105, 9.998769 
1.9747797e+3, 1.4252783e+2, -2036655.5, -1833894.5, -10649.258, 0.0891206, 0.46254167, -1833336.8, -290065.94, 0.09895461, 9.996702, 9.999406 
1.974827e+3, 1.5252857e+2, -1627246.4, -1459927.5, 30796.502, 0.051630504, 0.4757982, -1454439.1, -9172.143, 0.04335473, 9.998312, 10.00051 
1.9748747e+3, 1.6252892e+2, -1392533.8, -1319268.9, -21162.91, 0.0935238, 0.48732215, -1313595.3, 33669.605, 0.012356995, 9.999338, 10.000325 
1.9749218e+3, 1.7252865e+2, -1415531.1, -1256481.6, -49069.797, 0.16239093, 0.40094894, -1242561.0, 6702.945, 0.0015709848, 9.998432, 10.0005045 
1.9749683e+3, 1.8252897e+2, -1403273.6, -1201903.0, -66896.234, 0.17497092, 0.40284854, -1181705.6, -30446.148, 0.000019593592, 9.997828, 10.000513 
1.9750139e+3, 1.9253112e+2, -1238990.0, -1040831.8, 368.31332, 0.10561964, 0.532104, -1040831.1, 12410.754, 0.0, 9.998169, 10.000767 
1.9750601e+3, 2.0253196e+2, -1167346.5, -1154358.3, 49035.645, 0.047444418, 0.6230913, -1111388.5, -156151.83, 0.0, 9.998826, 9.999007 
1.975107e+3, 2.1252972e+2, -902222.7, -1012996.44, 12705.647, 0.015951274, 0.5135955, -900784.0, -43524.453, 0.0, 10.000145, 9.998661 
1.975154e+3, 2.2252798e+2, -676123.94, -826327.25, -84003.79, 0.012474824, 0.48190644, -638545.1, 120732.49, 0.0, 10.000895, 9.998923 
1.9752006e+3, 2.3252784e+2, -602724.8, -706670.25, -76306.24, 0.0963022, 0.53396827, -562373.06, 98906.695, 0.0, 10.0005865, 9.999215 
1.9752473e+3, 2.4252716e+2, -553131.4, -700552.7, -33786.313, 0.14201671, 0.58757687, -545757.06, 17529.906, 0.0, 10.000534, 9.998616 
1.9752935e+3, 2.5252572e+2, -304246.03, -524228.8, -12245.345, 0.062011853, 0.5645606, -303566.5, 161734.77, 0.0, 10.001572, 9.99864 
1.9753397e+3, 2.625241e+2, -215388.1, -567680.94, -64581.77, 0.0018980908, 0.60686326, -203922.23, 163396.5, 0.000000055759365, 10.002089, 9.997427 
1.9753864e+3, 2.725221e+2, -182952.36, -510819.06, -98944.13, 0.09029775, 0.6511745, -155407.03, 113936.69, 0.0000036492006, 10.0017, 9.997315 
1.9754344e+3, 2.825196e+2, -77793.31, -392352.7, -31437.508, 0.19844311, 0.6876246, -74682.17, 96689.25, 0.00003270768, 10.00164, 9.997512 
1.9754834e+3, 2.9251766e+2, 241024.19, -111573.71, 39299.855, 0.18443577, 0.6851545, 245351.38, 318740.53, 0.00013942833, 10.002839, 9.998179 
1.9755289e+3, 3.0251777e+2, 439360.7, 118025.83, -85350.664, -0.11374241, 0.8344103, 460623.9, 460623.9, 0.00034788088, 10.003413, 9.999154 
1.975576e+3, 3.1251436e+2, 267688.66, -44226.883, 44278.38, 0.11919684, 0.54678905, 273852.44, 273852.44, 0.00061963446, 10.002547, 9.998446 
1.9846906e+3, 1.2248198e+2, -1924438.9, -1728021.5, 175263.34, 0.31993723, 0.30929065, -1625326.8, 114384.94, 0.25424254, 9.998062, 10.001034 
1.9847293e+3, 1.324837e+2, -1955322.1, -2081969.4, -281699.66, -0.23935856, 0.62633914, -1729916.5, -88213.22, 0.17932345, 9.998968, 9.997284 
1.9847776e+3, 1.4248101e+2, -1808938.1, -1748734.3, -74533.93, 0.14655347, 0.6092987, -1698453.1, -154717.42, 0.104643695, 9.998369, 9.999192 
1.9848254e+3, 1.5248033e+2, -1579405.3, -1394906.8, -6066.199, 0.07408627, 0.45117447, -1394707.5, 51033.375, 0.046255346, 9.998452, 10.000912 
1.9848739e+3, 1.6248009e+2, -1534518.3, -1405108.4, -68598.516, 0.13191134, 0.38398993, -1375513.3, -27770.922, 0.013380272, 9.998441, 10.000163 
1.9849202e+3, 1.7248106e+2, -1435432.4, -1303287.1, -98109.27, 0.1582062, 0.4524874, -1251076.1, -1341.5369, 0.0017591557, 9.998452, 10.0001745 
1.9849661e+3, 1.8248223e+2, -1272802.5, -1118803.0, -70027.92, 0.14815623, 0.5527742, -1091721.6, 60002.938, 0.0000256483, 9.998631, 10.000695 
1.9850129e+3, 1.9248393e+2, -1001835.56, -889785.25, -95766.28, 0.11958794, 0.603329, -834859.94, 218848.19, 0.0, 9.999624, 10.001106 
1.9850598e+3, 2.0248446e+2, -957971.56, -1049346.1, -65752.78, 0.09162731, 0.6417668, -923591.7, 32112.025, 0.0, 10.000251, 9.9990425 
1.985107e+3, 2.1248238e+2, -894777.94, -1020776.56, -18142.48, 0.0138037065, 0.559155, -892217.6, -34492.44, 0.0, 10.000249, 9.998559 
1.9851542e+3, 2.2248043e+2, -773435.0, -869906.1, -49852.21, -0.0055270544, 0.51461494, -752302.6, 7442.0537, 0.0, 10.0002165, 9.998945 
1.9852012e+3, 2.3247924e+2, -652377.3, -722952.06, -94633.7, 0.1211766, 0.45667332, -586666.0, 75088.71, 0.0, 10.000222, 9.9992695 
1.9852482e+3, 2.4247816e+2, -578307.7, -726007.7, -26823.05, 0.20212993, 0.47119585, -573587.3, -9822.21, 0.0, 10.000445, 9.998469 
1.9852951e+3, 2.5247768e+2, -341912.34, -570952.8, -29597.057, 0.10702358, 0.56714416, -338149.56, 127623.836, 0.0, 10.001444, 9.998379 
1.9853424e+3, 2.6247662e+2, -180910.28, -549427.06, -82648.04, 0.069543876, 0.6821494, -163223.5, 204564.02, 0.00000004684117, 10.002315, 9.997442 
1.9853896e+3, 2.7247417e+2, -24609.545, -429824.84, -90071.41, 0.19559893, 0.6818959, -5490.521, 264324.84, 0.000003631824, 10.002751, 9.997373 
1.9854373e+3, 2.824714e+2, 92396.13, -260668.81, 49383.53, 0.2810043, 0.6655949, 99173.36, 271018.06, 0.000030883682, 10.002613, 9.997939 
1.9854851e+3, 2.9246923e+2, 70802.18, -148046.83, 102461.15, 0.15618087, 0.5949446, 111284.34, 185146.63, 0.00012822116, 10.001497, 9.998564 
1.9855319e+3, 3.0246997e+2, 168428.1, -40635.566, -24636.926, -0.037338864, 0.80455726, 171292.17, 171292.17, 0.00031412422, 10.001644, 9.998913 
1.9855799e+3, 3.124667e+2, 462949.7, 34814.906, -72195.8, 0.20703447, 0.56575567, 474796.16, 474796.16, 0.0005494111, 10.003915, 9.998334 
1.9946888e+3, 1.2243062e+2, -1893129.9, -1672376.3, 248495.44, 0.2989815, 0.3241605, -1510846.8, 229372.25, 0.26535824, 9.998108, 10.001589 
1.9947284e+3, 1.3243186e+2, -1864246.8, -1907043.1, -298812.72, -0.23529463, 0.4962334, -1586067.0, 56147.434, 0.18805622, 9.999052, 9.998487 
1.9947769e+3, 1.4243063e+2, -1730253.1, -1621917.4, -95849.664, 0.20675707, 0.5128561, -1565988.4, -21756.137, 0.11045076, 9.998522, 9.999991 
1.9948237e+3, 1.524314e+2, -1538288.5, -1319210.8, 2369.6572, 0.0471916, 0.44680777, -1319185.1, 127035.8, 0.04926506, 9.998477, 10.001449 
1.9948715e+3, 1.6243216e+2, -1516566.5, -1377932.9, -77552.73, 0.022343807, 0.4416821, -1343234.0, 4977.789, 0.014456319, 9.99848, 10.000332 
1.9949171e+3, 1.7243356e+2, -1429012.9, -1293397.6, -94596.336, 0.0059463917, 0.5410734, -1244816.5, 5387.276, 0.0019582892, 9.998462, 10.000237 
1.9949634e+3, 1.8243442e+2, -1310983.6, -1207042.1, -49422.754, -0.009691676, 0.632305, -1187294.3, -35095.055, 0.000032105352, 9.998673, 10.000069 
1.9950122e+3, 1.9243404e+2, -1067969.5, -1014319.44, -50349.75, 0.09214193, 0.5576533, -984094.7, 70107.14, 0.0, 9.999578, 10.00027 
1.9950607e+3, 2.024337e+2, -917435.3, -945582.6, -68839.1, 0.1499319, 0.53386945, -861245.94, 94957.89, 0.0, 10.000158, 9.999803 
1.995108e+3, 2.1243407e+2, -822233.94, -840314.75, -11226.621, 0.07486208, 0.5691063, -816860.25, 41339.016, 0.0, 10.000116, 9.999863 
1.9951548e+3, 2.2243354e+2, -795765.94, -874203.8, -55623.535, 0.01889419, 0.5809334, -766925.3, -6722.2515, 0.0, 10.000032, 9.999003 
1.9952007e+3, 2.3243089e+2, -697167.1, -784462.2, -82962.02, 0.04626222, 0.40667617, -647071.4, 15155.535, 0.0, 10.000082, 9.998914 
1.9952476e+3, 2.4242865e+2, -641072.3, -813298.25, -9820.168, 0.0836331, 0.34518433, -640514.2, -76265.234, 0.0, 10.000256, 9.997965 
1.9952975e+3, 2.524282e+2, -398441.66, -651433.4, 18641.36, 0.1843963, 0.49358818, -397075.47, 69183.02, 0.0, 10.001285, 9.997902 
1.9953468e+3, 2.6242748e+2, -184418.13, -493809.7, -67677.586, 0.26462853, 0.64994276, -170261.78, 198008.11, 0.000000042002604, 10.0020485, 9.997953 
1.9953929e+3, 2.7242613e+2, -2965.079, -321331.7, -62078.734, 0.24960847, 0.6753845, 8711.481, 278995.75, 0.0000035134383, 10.002491, 9.998237 
1.9954388e+3, 2.8242365e+2, 91716.48, -203618.42, 3547.3594, 0.16582121, 0.6187502, 91759.08, 264065.97, 0.00002820436, 10.0023575, 9.998455 
1.9954857e+3, 2.924192e+2, 75311.02, -116581.23, 73740.68, 0.04857341, 0.26314035, 100374.59, 174717.6, 0.00011358975, 10.00139, 9.998834 
1.9955347e+3, 3.0241776e+2, -10289.231, -340597.38, 18934.033, 0.06325709, 0.32928914, -9207.432, -9207.432, 0.00027761376, 10.001361, 9.996977 
1.9955818e+3, 3.1241995e+2, 346295.4, -87380.984, 38407.734, -0.02882933, 0.8312979, 349670.66, 349670.66, 0.0004898738, 10.003429, 9.997708 
2.0046863e+3, 1.2238062e+2, -2006697.1, -1576997.5, 254066.27, 0.34166178, 0.47152072, -1459116.0, 281600.3, 0.27641812, 9.996494, 10.003219 
2.0047289e+3, 1.3238028e+2, -2007124.6, -1888754.6, -291087.4, -0.011654092, 0.4040495, -1650896.3, -8171.385, 0.1968332, 9.997656, 9.999235 
2.004775e+3, 1.4238146e+2, -1610120.6, -1501051.6, -122963.97, 0.16488568, 0.5814551, -1421071.6, 123646.71, 0.11636926, 9.999082, 10.000619 
2.0048222e+3, 1.5238257e+2, -1582894.5, -1305675.3, -74287.46, 0.086707555, 0.51231277, -1287023.1, 159679.5, 0.05238356, 9.998014, 10.001774 
2.0048697e+3, 1.6238345e+2, -1670575.3, -1431992.8, -111023.62, 0.08343024, 0.49223235, -1388321.9, -39629.844, 0.015589432, 9.997331, 10.000518 
2.0049155e+3, 1.7238504e+2, -1393347.3, -1261952.4, -127862.32, -0.006748849, 0.5969292, -1183896.9, 66785.695, 0.0021699998, 9.998643, 10.000367 
2.004962e+3, 1.823858e+2, -1218203.4, -1190824.8, -65258.164, -0.038346484, 0.6772628, -1137835.5, 14843.749, 0.00003871999, 9.999446, 9.999801 
2.0050117e+3, 1.9238453e+2, -1151229.4, -1104454.0, -54683.19, 0.10996214, 0.5533399, -1068367.1, -13676.845, 0.0, 9.999232, 9.999813 
2.0050606e+3, 2.0238374e+2, -1066335.9, -975690.9, -59914.297, 0.207166, 0.5016419, -945887.8, 10807.879, 0.0, 9.9989605, 10.00017 
2.0051078e+3, 2.1238494e+2, -948648.56, -827253.94, -68287.02, 0.12254881, 0.55848694, -796587.8, 62094.082, 0.0, 9.99893, 10.000524 
2.0051548e+3, 2.2238521e+2, -897500.7, -905677.2, -104906.1, 0.068023056, 0.60417145, -796603.2, -35925.76, 0.0, 9.999269, 9.999155 
2.0052011e+3, 2.3238315e+2, -598797.44, -739773.2, -123964.7, 0.074799225, 0.4933745, -526681.7, 136015.08, 0.0, 10.000787, 9.9988785 
2.0052485e+3, 2.4238116e+2, -403877.22, -680969.75, -21117.62, 0.106373325, 0.45252424, -402277.06, 162439.7, 0.0, 10.001775, 9.998156 
2.0052984e+3, 2.5237986e+2, -414087.78, -631612.7, 34593.082, 0.19143532, 0.4922482, -408718.94, 58013.426, 0.0, 10.0010395, 9.998162 
2.0053479e+3, 2.623787e+2, -392601.13, -559479.8, 3407.1604, 0.27528676, 0.574427, -392531.6, -23785.324, 0.000000029896977, 10.000474, 9.998254 
2.0053947e+3, 2.7237785e+2, -204101.63, -390294.16, -45209.844, 0.26515037, 0.62347835, -193704.69, 77050.69, 0.0000031274246, 10.000975, 9.998496 
2.0054409e+3, 2.823761e+2, 15680.3955, -236746.33, -1155.9462, 0.18940422, 0.6164063, 15685.688, 188456.88, 0.000025154262, 10.001812, 9.998497 
2.0054878e+3, 2.9237196e+2, 291626.56, -41510.215, -9208.931, 0.055332955, 0.3138921, 291880.94, 366685.78, 0.00009776422, 10.003009, 9.998569 
2.0055383e+3, 3.0236882e+2, 299470.88, -299962.78, -2499.0994, 0.17781991, 0.27817208, 299481.28, 299481.28, 0.0002403355, 10.003926, 9.996047 
2.0055863e+3, 3.123693e+2, 373133.4, -57419.168, -26020.795, 0.10149863, 0.7070808, 374700.28, 374700.28, 0.00043342356, 10.003512, 9.997899 
2.014681e+3, 1.2233171e+2, -1782215.1, -1268693.1, 41860.813, 0.11350907, 0.7255857, -1265303.1, 475903.25, 0.28771394, 9.996577, 10.0060005 
2.0147304e+3, 1.3232893e+2, -1984760.8, -1834247.9, -196054.33, 0.36901063, 0.35703477, -1699502.4, -56267.688, 0.20582092, 9.997618, 9.999634 
2.0147717e+3, 1.4233351e+2, -1572419.9, -1442421.5, -134181.52, -0.0938083, 0.8222324, -1358324.9, 186869.08, 0.12247417, 9.999149, 10.001041 
2.0148204e+3, 1.5233383e+2, -1572189.9, -1285324.1, -115753.72, 0.09841963, 0.65613055, -1244442.4, 202744.56, 0.055639356, 9.99802, 10.001925 
2.0148686e+3, 1.6233404e+2, -1644691.4, -1392100.0, -96059.664, 0.2053495, 0.54618853, -1359719.8, -10537.117, 0.016791714, 9.997388, 10.000767 
2.0149148e+3, 1.723355e+2, -1380210.9, -1231888.9, -68600.305, 0.05169218, 0.6215631, -1205025.9, 46145.453, 0.0023981123, 9.998631, 10.000581 
2.0149617e+3, 1.823363e+2, -1206910.9, -1181418.9, -72560.74, -0.033968348, 0.6866234, -1120493.1, 32672.508, 0.000045425786, 9.999497, 9.999846 
2.0150107e+3, 1.9233531e+2, -1159853.5, -1113579.8, -60752.613, 0.087226324, 0.59844136, -1071707.5, -16533.688, 0.0, 9.999193, 9.999771 
2.0150593e+3, 2.0233464e+2, -1077778.1, -977464.5, -72194.77, 0.15283687, 0.556287, -939713.44, 17465.188, 0.0, 9.998868, 10.000202 
2.0151064e+3, 2.123351e+2, -970369.9, -838599.3, -61540.793, 0.08133633, 0.54131526, -814328.4, 44843.777, 0.0, 9.998789, 10.000514 
2.0151538e+3, 2.2233541e+2, -914493.06, -901580.9, -71774.24, 0.03930025, 0.5889598, -835972.94, -74804.77, 0.0, 9.999086, 9.999276 
2.0152025e+3, 2.3233578e+2, -604912.25, -721674.25, -56309.875, 0.119281, 0.7013437, -582181.3, 80985.09, 0.0, 10.000637, 9.999082 
2.0152509e+3, 2.4233526e+2, -390423.94, -586320.94, -34339.707, 0.14853214, 0.766829, -384578.78, 180593.31, 0.0, 10.001497, 9.998935 
2.0152982e+3, 2.5233248e+2, -375645.0, -504625.1, 9113.445, 0.05591896, 0.56231236, -375004.25, 92192.21, 0.0, 10.00085, 9.999121 
2.015346e+3, 2.6232997e+2, -416684.44, -568886.9, -2863.7285, 0.013778878, 0.4503896, -416630.56, -47410.867, 0.0000000091701935, 10.000297, 9.998279 
2.0153946e+3, 2.723293e+2, -243757.11, -434459.8, -12262.82, 0.14912742, 0.54230434, -242971.8, 28256.951, 0.0000023642951, 10.000811, 9.998273 
2.0154428e+3, 2.8232872e+2, -65898.82, -340810.8, 22346.947, 0.19418478, 0.68440485, -64094.137, 109142.086, 0.000021595964, 10.001539, 9.997908 
2.015491e+3, 2.9232672e+2, 201054.28, -181990.77, 50855.07, 0.0589318, 0.664416, 207691.08, 282945.22, 0.000083873885, 10.002786, 9.997716 
2.015542e+3, 3.0232218e+2, 208310.78, -376770.6, -6436.267, 0.13255115, 0.55968446, 208381.58, 208381.58, 0.00020822523, 10.003472, 9.995721 
2.0155911e+3, 3.123174e+2, 329996.4, 49902.49, -121850.414, 0.1954446, 0.44374996, 375585.3, 375585.3, 0.00038320478, 10.002748, 9.998965 
2.0246767e+3, 1.22283384e+2, -1654545.6, -1162047.9, 113504.45, 0.006335624, 0.80149966, -1137147.8, 604533.9, 0.29983783, 9.997349, 10.006743 
2.0247288e+3, 1.3227971e+2, -2331719.8, -2031975.4, -59711.652, 0.5697373, 0.36979517, -2020518.3, -376800.94, 0.21537028, 9.995388, 9.999339 
2.0247683e+3, 1.4228378e+2, -2076583.0, -1646766.5, -21231.715, -0.15349542, 0.7825259, -1645720.3, -100038.95, 0.12892798, 9.995531, 10.001262 
2.0248187e+3, 1.5228477e+2, -1489183.8, -1233588.4, -21373.729, 0.10593072, 0.6691659, -1231813.4, 215854.98, 0.05909158, 9.998514, 10.002064 
2.0248675e+3, 1.6228524e+2, -1254008.0, -1235503.0, -25223.104, 0.24784285, 0.5848019, -1217889.0, 131773.08, 0.018083457, 10.000228, 10.000478 
2.0249139e+3, 1.7228596e+2, -1361223.3, -1281197.9, -73001.36, 0.103965886, 0.6350863, -1237962.6, 13695.39, 0.0026487417, 9.999036, 10.000037 
2.024961e+3, 1.822863e+2, -1400942.4, -1274501.6, -91610.04, 0.032959335, 0.69076335, -1226415.3, -72758.56, 0.000052423693, 9.99816, 9.999848 
2.0250098e+3, 1.9228569e+2, -1170431.1, -1101388.4, -78134.65, 0.104181506, 0.6215216, -1050488.8, 5171.859, 0.0, 9.999033, 9.999934 
2.0250584e+3, 2.0228511e+2, -979309.1, -980075.75, -80772.96, 0.1534665, 0.59500474, -898918.56, 58745.99, 0.0, 9.9997635, 9.999748 
2.0251058e+3, 2.1228488e+2, -822198.6, -845923.4, -138958.16, 0.09680128, 0.5763912, -694597.44, 165069.78, 0.0, 10.000146, 9.999804 
2.0251536e+3, 2.2228467e+2, -755436.94, -813873.06, -156112.33, 0.06675411, 0.61376166, -625832.0, 135837.63, 0.0, 10.000136, 9.999365 
2.0252022e+3, 2.322851e+2, -769784.94, -757033.44, -143334.34, 0.10515227, 0.6999051, -619933.06, 43732.77, 0.0, 9.999325, 9.999462 
2.0252508e+3, 2.4228491e+2, -733163.3, -691458.06, -111904.625, 0.13268028, 0.7541799, -598479.75, -32812.58, 0.0, 9.998904, 9.99945 
2.0252985e+3, 2.5228313e+2, -488937.88, -501538.06, -116128.89, 0.06035152, 0.60044736, -378938.3, 88743.45, 0.0, 9.999834, 9.999624 
2.0253465e+3, 2.6228136e+2, -325575.7, -484912.78, -111985.65, 0.031175325, 0.52027917, -267811.13, 101885.87, 0.000000001074916, 10.000736, 9.998651 
2.0253953e+3, 2.7228042e+2, -188388.88, -371998.38, -104043.21, 0.14742719, 0.5517602, -141438.08, 130268.875, 0.0000018159459, 10.001047, 9.998584 
2.0254445e+3, 2.8227943e+2, -105756.97, -367909.72, -6780.8364, 0.24550156, 0.6375175, -105581.69, 68136.234, 0.000018189116, 10.00128, 9.9978485 
2.025494e+3, 2.9227805e+2, 28939.967, -253708.13, 37710.65, 0.16616406, 0.6950957, 33884.777, 109617.9, 0.000072171526, 10.001573, 9.997794 
2.025544e+3, 3.0227545e+2, 84487.22, -304003.6, 74201.82, 0.10645639, 0.7180885, 98177.35, 98177.35, 0.00017992307, 10.001981, 9.996974 
2.0255925e+3, 3.1227112e+2, 157774.64, 9601.017, -123434.33, 0.16616358, 0.5286345, 227649.23, 227649.23, 0.00033557636, 10.001316, 9.999404 
2.034675e+3, 1.2223518e+2, -1721467.8, -1338608.4, 83508.66, 0.059879743, 0.57744193, -1321186.4, 420958.6, 0.3135409, 9.997514, 10.005023 
2.034723e+3, 1.3223282e+2, -2412368.0, -2206707.8, -92191.2, 0.4352172, 0.44473666, -2171432.0, -527262.0, 0.22593072, 9.995408, 9.998137 
2.0347644e+3, 1.42232e+2, -2069941.9, -1647622.6, 46863.984, -0.12853168, 0.43681172, -1642484.8, -96301.875, 0.13594478, 9.995586, 10.001232 
2.0348166e+3, 1.5223528e+2, -1475656.3, -1206582.5, 96118.65, 0.026743002, 0.54031605, -1175774.4, 272373.06, 0.06282382, 9.998526, 10.00226 
2.0348665e+3, 1.6223702e+2, -1300631.3, -1359061.1, -43782.094, 0.08671972, 0.603573, -1277211.8, 72917.87, 0.019494196, 10.000339, 9.999566 
2.0349126e+3, 1.7223635e+2, -1440718.9, -1460067.9, -118559.63, 0.058606874, 0.63450307, -1331439.6, -79296.94, 0.0029308582, 9.999084, 9.998789 
2.0349596e+3, 1.822358e+2, -1400845.9, -1286736.6, -85408.625, 0.052271377, 0.6813288, -1241078.8, -86926.33, 0.00006041413, 9.998213, 9.9997425 
2.0350088e+3, 1.9223557e+2, -1151594.9, -1051584.9, -34019.992, 0.08112796, 0.6258087, -1041109.7, 15041.334, 0.0, 9.998988, 10.0003 
2.0350577e+3, 2.0223507e+2, -1055351.6, -1118208.6, -70786.375, 0.08727377, 0.6155991, -1009330.4, -51176.082, 0.0, 9.999681, 9.998837 
2.0351058e+3, 2.1223421e+2, -935986.0, -1050669.6, -116839.195, 0.081391074, 0.6633221, -863176.06, -3008.6528, 0.0, 10.00001, 9.9984665 
2.0351535e+3, 2.2223306e+2, -785852.3, -820728.3, -180513.73, 0.038140003, 0.68833774, -621936.25, 140244.7, 0.0, 9.999904, 9.999427 
2.0352e+3, 2.3223133e+2, -754631.94, -689886.56, -160971.8, -0.04050749, 0.51173216, -558064.5, 106128.62, 0.0, 9.999177, 9.999992 
2.035248e+3, 2.4223028e+2, -742901.56, -674173.1, -99261.9, -0.047254346, 0.43747285, -603495.3, -37294.76, 0.0, 9.99874, 9.999652 
2.0352988e+3, 2.5223187e+2, -499606.72, -497601.56, -66413.99, 0.108799145, 0.61047834, -432182.56, 36005.07, 0.0, 9.999711, 9.999719 
2.0353486e+3, 2.6223287e+2, -322757.47, -414773.7, -98083.44, 0.17414995, 0.77689314, -260427.64, 109750.84, 0.000000023664393, 10.000474, 9.999251 
2.0353965e+3, 2.7223092e+2, -157662.58, -277056.38, -81212.26, 0.14742377, 0.6269054, -116566.875, 155625.19, 0.0000019634658, 10.00091, 9.999303 
2.0354459e+3, 2.8222793e+2, -120375.36, -338811.13, -11850.099, 0.22198875, 0.46708372, -119734.375, 54483.824, 0.000016146072, 10.001038, 9.99816 
2.0354968e+3, 2.922262e+2, 36403.914, -172260.67, 68212.04, 0.27773663, 0.44940427, 56723.574, 132963.34, 0.00006227005, 10.001274, 9.998505 
2.0355442e+3, 3.022286e+2, 160636.66, 10586.177, 48547.61, -0.10219893, 0.80292577, 174973.92, 174973.92, 0.00015436458, 10.001346, 9.999418 
2.0355922e+3, 3.1222653e+2, 104464.266, -574.4818, -114316.016, -0.036332563, 0.6009298, 177748.05, 177748.05, 0.00029086007, 10.000935, 9.999492 
2.0446728e+3, 1.2218463e+2, -2057539.3, -1551880.9, 33015.234, 0.19147356, 0.3781444, -1549734.4, 192902.03, 0.3294151, 9.995729, 10.00382 
2.0447177e+3, 1.3218436e+2, -2003854.5, -2051642.8, -209697.55, 0.23659186, 0.51036733, -1816694.1, -172051.44, 0.23787552, 9.998405, 9.997759 
2.0447633e+3, 1.4218207e+2, -1653152.3, -1530315.1, -14682.971, 0.07212707, 0.4127865, -1528584.5, 18086.115, 0.14372098, 9.998803, 10.000502 
2.044815e+3, 1.5218458e+2, -1651925.9, -1370325.5, -43012.79, 0.08544732, 0.5160492, -1363902.1, 84742.5, 0.06692591, 9.997684, 10.00147 
2.044865e+3, 1.6218597e+2, -1748268.3, -1560514.1, -209600.23, 0.074176006, 0.5928661, -1424728.1, -74097.22, 0.021061258, 9.997203, 9.99969 
2.0449118e+3, 1.7218563e+2, -1384109.3, -1383270.5, -190268.16, 0.07719026, 0.6154474, -1193421.3, 59218.14, 0.003256253, 9.999267, 9.999225 
2.0449592e+3, 1.8218522e+2, -1053093.6, -1125052.8, -69013.59, 0.10130008, 0.6540175, -1011243.8, 143402.45, 0.00007088071, 10.000638, 9.9996805 
2.0450084e+3, 1.9218469e+2, -1002777.5, -1003177.5, -73235.03, 0.10377635, 0.588073, -929742.2, 126905.734, 0.0, 10.000128, 10.000073 
2.0450573e+3, 2.0218402e+2, -1059920.8, -1119082.5, -93545.59, 0.09744659, 0.57645357, -991390.44, -32737.25, 0.0, 9.999638, 9.998862 
2.0451054e+3, 2.1218358e+2, -958603.5, -1041121.75, -53764.766, 0.065321036, 0.6565761, -932091.2, -71428.78, 0.0, 9.99978, 9.99864 
2.0451532e+3, 2.2218281e+2, -770048.2, -804412.7, -43928.063, 0.031551495, 0.7035508, -740061.56, 22610.836, 0.0, 9.999968, 9.999511 
2.0452e+3, 2.3218083e+2, -585673.06, -601524.4, -77509.94, 0.003309294, 0.4923168, -515684.63, 149001.75, 0.0, 10.000302, 10.000056 
2.0452482e+3, 2.4217953e+2, -510192.06, -574798.5, -18295.504, 0.042450376, 0.39441267, -505370.84, 61324.62, 0.0, 10.000377, 9.999549 
2.0452985e+3, 2.5218108e+2, -508715.84, -515618.94, -14363.945, 0.13834347, 0.57727015, -497394.56, -28711.451, 0.0, 9.999705, 9.999592 
2.0453481e+3, 2.6218203e+2, -444000.88, -454606.0, -23579.605, 0.13788435, 0.7362283, -425134.97, -54460.516, 0.00000011200642, 9.999547, 9.999428 
2.0453966e+3, 2.7218014e+2, -129235.14, -235034.81, -58171.992, 0.08624899, 0.5706806, -103506.91, 169179.56, 0.000002326167, 10.000986, 9.999552 
2.0454471e+3, 2.821773e+2, 5109.5615, -248133.52, -36597.69, 0.23268768, 0.4017025, 10292.442, 185003.0, 0.000014696717, 10.001755, 9.998444 
2.0454983e+3, 2.9217574e+2, -159201.94, -228887.19, -16839.814, 0.40512416, 0.37814528, -155345.89, -78614.29, 0.00005375532, 9.999776, 9.998836 
2.0455436e+3, 3.0217868e+2, -162416.44, -96207.336, -6708.5024, -0.12556647, 0.74204135, -95534.445, -95534.445, 0.00013253847, 9.998906, 9.999854 
2.0455943e+3, 3.1217661e+2, 493223.4, 266442.56, -284307.72, -0.017449403, 0.51346076, 685918.4, 685918.4, 0.0002538957, 10.00322, 10.000232 
2.0546699e+3, 1.2213381e+2, -2120561.5, -1651015.4, 205655.16, 0.27618608, 0.4261603, -1573678.8, 169457.31, 0.3476065, 9.99576, 10.003021 
2.0547126e+3, 1.3213451e+2, -1951524.4, -1965125.6, -147071.69, -0.14745696, 0.58869356, -1811096.1, -165962.2, 0.2513395, 9.998504, 9.9983015 
2.054765e+3, 1.4213423e+2, -1733535.4, -1733601.9, -54806.668, 0.3059668, 0.7271681, -1678762.0, -131619.23, 0.15236652, 9.99897, 9.999007 
2.0548137e+3, 1.5213275e+2, -1774594.4, -1626690.1, -85139.39, 0.18556245, 0.609888, -1587869.8, -138710.89, 0.071473114, 9.997708, 9.999661 
2.0548628e+3, 1.6213207e+2, -1672898.6, -1415406.9, -173284.8, 0.10309673, 0.5577387, -1328275.3, 22890.984, 0.022826005, 9.99724, 10.000678 
2.0549114e+3, 1.7213364e+2, -1238850.6, -1082971.5, -101275.266, 0.08348664, 0.5830442, -1033117.25, 220031.58, 0.0036400491, 9.999261, 10.001299 
2.0549597e+3, 1.8213439e+2, -1043223.3, -1121037.4, -71441.34, 0.061179113, 0.60406053, -1000781.56, 154358.02, 0.00008593674, 10.000698, 9.999683 
2.0550083e+3, 1.9213285e+2, -1057191.9, -1120206.1, -90341.44, 0.077083975, 0.50446767, -993021.06, 64132.0, 0.0, 10.00013, 9.999277 
2.0550567e+3, 2.0213181e+2, -1007781.6, -995428.3, -102783.59, 0.06557017, 0.4747347, -898635.94, 60526.527, 0.0, 9.999572, 9.999742 
2.0551042e+3, 2.121328e+2, -871257.1, -830662.25, -38796.2, -0.033214282, 0.5526554, -807174.6, 53979.85, 0.0, 9.999646, 10.000151 
2.055152e+3, 2.2213344e+2, -796052.6, -803486.5, -43573.6, -0.074631974, 0.6389833, -756037.75, 7111.255, 0.0, 9.999742, 9.999622 
2.0552017e+3, 2.3213308e+2, -641343.5, -674104.56, -58217.875, 0.13001397, 0.62421465, -597245.56, 67904.766, 0.0, 10.00012, 9.999645 
2.055251e+3, 2.4213225e+2, -575326.9, -644613.44, -46562.266, 0.2650441, 0.6107848, -551933.94, 15222.33, 0.0, 10.000108, 9.999193 
2.0552976e+3, 2.5213054e+2, -553224.75, -572054.3, -33551.645, 0.07187638, 0.49890724, -527792.0, -58620.58, 0.0, 9.999562, 9.99927 
2.0553447e+3, 2.621289e+2, -486862.13, -502233.3, -658.68, -0.15732446, 0.42517915, -486833.94, -115648.2, 0.00000017468948, 9.999372, 9.999184 
2.0553957e+3, 2.72128e+2, -173255.84, -284503.1, 11756.423, -0.121331125, 0.38671318, -172027.02, 101164.63, 0.0000023499456, 10.000795, 9.999309 
2.055448e+3, 2.8212726e+2, -48554.227, -263048.63, -87340.336, 0.1397829, 0.436407, -17489.111, 157708.84, 0.000012296112, 10.001359, 9.998525 
2.0554984e+3, 2.9212648e+2, -177966.13, -245418.66, -89408.17, 0.4201278, 0.46786597, -116134.64, -38923.88, 0.000044415407, 9.999681, 9.998764 
2.0555425e+3, 3.0212504e+2, -317187.16, -344812.22, 49047.348, -0.15976048, 0.47898847, -280044.53, -280044.53, 0.00011238554, 9.998629, 9.998264 
2.0555982e+3, 3.121227e+2, 443686.66, 344303.94, 64668.063, 0.013155511, 0.36047965, 475550.13, 475550.13, 0.00022330374, 10.0024395, 10.001146 
2.0646678e+3, 1.2208109e+2, -1899976.9, -1627023.1, 158951.67, 0.4330908, 0.49970037, -1553996.9, 189657.52, 0.36771804, 9.997647, 10.002332 
2.0647104e+3, 1.3208297e+2, -1936412.1, -1843255.3, -268925.88, -0.15364803, 0.68201923, -1616903.9, 28737.324, 0.26616043, 9.998113, 9.999359 
2.0647646e+3, 1.420829e+2, -1848752.6, -1779494.8, -126108.16, 0.4428512, 0.7722287, -1683347.5, -135700.2, 0.1618756, 9.998124, 9.999103 
2.0648122e+3, 1.5208074e+2, -1671382.6, -1592139.4, -54370.133, 0.2289214, 0.5956707, -1564485.5, -114816.7, 0.07651462, 9.998483, 9.999523 
2.0648606e+3, 1.6207993e+2, -1452726.9, -1296258.5, -18373.123, 0.105984025, 0.5336888, -1294130.0, 57546.33, 0.024829434, 9.9986925, 10.000796 
2.0649107e+3, 1.7208181e+2, -1319049.4, -1093424.0, -74556.72, 0.13497981, 0.5665279, -1071013.1, 182642.92, 0.0041003036, 9.998598, 10.00154 
2.06496e+3, 1.820829e+2, -1341985.6, -1222267.1, -137904.28, 0.1451786, 0.5928238, -1131791.0, 23852.582, 0.000108260756, 9.998475, 10.0000515 
2.065008e+3, 1.9208205e+2, -1200950.4, -1137646.0, -104276.73, 0.098900825, 0.5195572, -1060323.5, -2673.8447, 0.0, 9.998935, 9.999725 
2.065056e+3, 2.0208135e+2, -1050865.0, -1023976.75, -63605.902, 0.06320152, 0.4988859, -972409.7, -12754.766, 0.0, 9.999307, 9.999669 
2.065104e+3, 2.1208155e+2, -910894.7, -882487.5, -137981.42, 0.00646984, 0.522033, -757980.5, 103674.58, 0.0, 9.999517, 9.999855 
2.0651524e+3, 2.2208168e+2, -816925.4, -818932.3, -212455.33, -0.0022076927, 0.58127445, -605471.1, 158184.08, 0.0, 9.999602, 9.999598 
2.0652017e+3, 2.3208207e+2, -739680.94, -710030.25, -213537.8, 0.16902716, 0.6364891, -510803.78, 154846.89, 0.0, 9.999396, 9.99975 
2.0652507e+3, 2.4208176e+2, -650939.9, -667327.94, -144148.83, 0.28682235, 0.66682154, -514752.38, 52899.36, 0.0, 9.999532, 9.999315 
2.0652978e+3, 2.5207934e+2, -388144.2, -475490.84, -120394.11, 0.085295156, 0.47402632, -303746.84, 165924.2, 0.0, 10.00063, 9.9994135 
2.0653452e+3, 2.6207712e+2, -257900.08, -429892.7, -62922.66, -0.11818635, 0.34703708, -237338.3, 134351.61, 0.00000012472299, 10.001111, 9.99884 
2.0653965e+3, 2.720765e+2, -340231.13, -419854.25, -86725.65, -0.057103086, 0.38790536, -284615.75, -10918.498, 0.0000018192295, 9.999896, 9.998804 
2.0654489e+3, 2.820764e+2, -309094.13, -399554.1, -172738.6, 0.20979644, 0.53083104, -175762.16, -61.600193, 0.000008845643, 9.999607, 9.998436 
2.0654988e+3, 2.920759e+2, 68105.65, -137691.86, -234443.56, 0.41824314, 0.60125196, 221238.02, 298947.0, 0.000033872344, 10.001433, 9.998657 
2.0655432e+3, 3.0207276e+2, 159515.44, -176760.5, -23172.193, -0.093517296, 0.47536173, 161104.67, 161104.67, 0.00009226444, 10.002118, 9.997768 
2.0656009e+3, 3.1206933e+2, 123821.11, 162636.22, 104836.45, 0.18167152, 0.30358258, 249846.38, 249846.38, 0.00019349578, 10.0003195, 10.000945 
2.074663e+3, 1.220243e+2, -1915112.6, -1691139.4, 115395.54, 0.12841694, 0.4037244, -1642324.5, 101888.35, 0.38886976, 9.997845, 10.001555 
2.0747116e+3, 1.3202931e+2, -1817705.4, -1628707.1, -237074.14, 0.12933573, 0.77689844, -1467992.3, 178176.4, 0.28190908, 9.99821, 10.001079 
2.074762e+3, 1.4202763e+2, -1715765.5, -1525976.5, -126621.9, 0.35191655, 0.52623004, -1462636.8, 85551.34, 0.17213808, 9.998187, 10.000913 
2.0748095e+3, 1.5202835e+2, -1544895.9, -1350139.8, -29058.84, 0.106589794, 0.4639977, -1345896.5, 104279.336, 0.08207624, 9.998532, 10.001221 
2.074858e+3, 1.6202949e+2, -1487513.1, -1385702.6, -27758.67, -0.045308467, 0.5128736, -1378626.1, -26464.432, 0.027111659, 9.998771, 10.000135 
2.0749094e+3, 1.7203015e+2, -1428429.4, -1323888.9, -75361.7, 0.1458654, 0.5678946, -1284444.5, -30283.273, 0.0046569863, 9.998613, 9.999947 
2.0749597e+3, 1.8203075e+2, -1286077.5, -1122094.9, -134062.05, 0.25603005, 0.62608165, -1046939.1, 109219.55, 0.00014131474, 9.998542, 10.000707 
2.0750068e+3, 1.920321e+2, -1096739.8, -914973.8, -80277.57, 0.09415788, 0.6312384, -884595.9, 173543.58, 0.0000000002137382, 9.998903, 10.001271 
2.0750546e+3, 2.0203242e+2, -1130959.6, -1170652.1, -62348.918, -0.016539508, 0.6415875, -1085374.5, -125241.33, 0.0, 9.99922, 9.998704 
2.0751046e+3, 2.1202968e+2, -1069669.9, -1184324.1, -120365.85, 0.08870145, 0.5579206, -993676.56, -131510.98, 0.0, 9.99939, 9.997848 
2.0751536e+3, 2.2202754e+2, -862095.4, -858817.56, -217146.83, 0.14110447, 0.5248268, -643303.44, 120887.266, 0.0, 9.999382, 9.999421 
2.0752e+3, 2.3202802e+2, -722275.3, -639838.06, -207185.58, 0.050702173, 0.5419587, -469810.78, 196374.0, 0.0, 9.999258, 10.000296 
2.0752476e+3, 2.4202818e+2, -642808.1, -609316.7, -120011.97, 0.0043872627, 0.56645393, -504887.75, 63292.676, 0.0, 9.999359, 9.999793 
2.0752983e+3, 2.5202742e+2, -378077.72, -422375.7, -68028.45, 0.07344582, 0.49306032, -328683.38, 141499.16, 0.0, 10.00049, 9.999844 
2.0753486e+3, 2.620265e+2, -330538.34, -516667.63, -99225.43, 0.099533945, 0.4869151, -287563.6, 84625.26, 0.000000021824269, 10.000846, 9.998369 
2.0753984e+3, 2.7202535e+2, -411130.22, -537219.94, -120320.836, 0.15341388, 0.54799944, -338337.84, -64132.598, 0.00000084431264, 9.999779, 9.998054 
2.0754495e+3, 2.820242e+2, -363832.88, -470290.66, -140384.97, 0.27711263, 0.65072256, -266924.3, -90702.95, 0.000005133315, 9.999428, 9.9980345 
2.075499e+3, 2.920236e+2, 25794.531, -199935.14, -145418.42, 0.28086734, 0.73377717, 97008.45, 175237.78, 0.000023723636, 10.001297, 9.998303 
2.0755456e+3, 3.020216e+2, 91807.03, -171958.95, -79844.13, -0.08849372, 0.7324467, 114093.45, 114093.45, 0.00007269625, 10.0015545, 9.998045 
2.075601e+3, 3.120173e+2, -93123.26, -116531.19, 136883.2, 0.15042281, 0.42393643, 32555.441, 32555.441, 0.00016041892, 9.999663, 9.99931 
2.0846595e+3, 1.21971056e+2, -1964945.4, -1714276.4, 185436.81, 0.029223325, 0.3561213, -1615790.5, 128943.42, 0.40993002, 9.997543, 10.001642 
2.0847102e+3, 1.3197693e+2, -1936756.3, -1642483.6, -89709.1, 0.2171079, 0.7913746, -1617292.4, 29388.537, 0.29801235, 9.997181, 10.001231 
2.0847595e+3, 1.4197475e+2, -1704160.0, -1456764.9, -59502.938, 0.3034474, 0.4508037, -1443197.5, 105507.36, 0.18298064, 9.997961, 10.001543 
2.0848083e+3, 1.5197629e+2, -1543602.0, -1276193.3, -56245.195, 0.16461846, 0.39994, -1264844.5, 185837.84, 0.088167645, 9.998198, 10.001951 
2.0848572e+3, 1.6197807e+2, -1551064.8, -1423536.9, -72468.83, 0.03929275, 0.47006768, -1390773.3, -38112.12, 0.029713616, 9.998357, 10.000083 
2.0849079e+3, 1.7197876e+2, -1420902.3, -1363251.5, -56510.793, 0.14569055, 0.5610946, -1328638.9, -73976.08, 0.005333032, 9.99884, 9.999572 
2.0849583e+3, 1.8197931e+2, -1197338.1, -1096420.3, -53163.758, 0.23645745, 0.6437073, -1073582.0, 83080.805, 0.00018960002, 9.99922, 10.0005665 
2.0850065e+3, 1.9198035e+2, -969933.5, -858789.0, -121024.33, 0.14791822, 0.62082994, -781187.8, 277459.5, 0.000000020895914, 9.999791, 10.001234 
2.0850551e+3, 2.0198044e+2, -998718.94, -1081080.4, -150271.17, 0.090477295, 0.6076442, -884088.0, 76555.055, 0.0, 10.000041, 9.998917 
2.0851044e+3, 2.1197814e+2, -980314.94, -1100993.9, -75055.914, 0.15031192, 0.53833306, -944351.56, -81681.414, 0.0, 9.999853, 9.998184 
2.0851533e+3, 2.2197631e+2, -802750.4, -859348.1, -41463.152, 0.16951409, 0.52041763, -780849.44, -16157.639, 0.0, 9.999899, 9.99918 
2.0851997e+3, 2.319764e+2, -533206.6, -599709.2, -107477.58, 0.03653572, 0.54188496, -453954.22, 212736.88, 0.0, 10.000758, 9.999858 
2.0852473e+3, 2.4197637e+2, -387009.8, -520253.16, -70929.625, -0.02969688, 0.5824109, -356320.34, 212369.98, 0.0, 10.001251, 9.9995 
2.0852989e+3, 2.519758e+2, -363802.66, -444586.66, -82651.03, 0.0722946, 0.5575431, -312201.7, 158489.56, 0.0, 10.000701, 9.999599 
2.0853499e+3, 2.6197502e+2, -374591.75, -525257.06, -119205.82, 0.16350184, 0.5757847, -308910.1, 63786.62, 0.0, 10.000486, 9.998484 
2.0853996e+3, 2.7197352e+2, -162415.38, -388824.4, -102854.25, 0.2345574, 0.58037716, -122668.08, 152046.97, 0.000000115745564, 10.00137, 9.998302 
2.0854504e+3, 2.8197193e+2, 6208.883, -293331.88, -24286.219, 0.31649557, 0.6219517, 8165.1885, 184899.34, 0.0000020138657, 10.001961, 9.998031 
2.0854995e+3, 2.9197115e+2, 69450.93, -183965.94, -42874.195, 0.20433697, 0.6988544, 76508.055, 155251.17, 0.000014504671, 10.001639, 9.99824 
2.0855476e+3, 3.019701e+2, 117138.984, -152059.61, 11989.585, -0.0226398, 0.7878254, 117671.92, 117671.92, 0.000053401804, 10.001642, 9.998159 
2.0856026e+3, 3.1196666e+2, 161337.61, -42052.754, 83029.484, 0.25084347, 0.56166655, 190927.64, 190927.64, 0.00012544218, 10.001519, 9.99896 
2.0946574e+3, 1.2192182e+2, -1852696.3, -1581192.1, -98118.02, -0.00032314775, 0.3785296, -1549445.6, 195766.98, 0.42994058, 9.9976635, 10.002933 
2.0947048e+3, 1.3192596e+2, -2035208.3, -1836621.0, -42941.48, -0.041718293, 0.7176608, -1827733.3, -180556.77, 0.31401625, 9.997191, 9.999813 
2.094756e+3, 1.4192437e+2, -1746228.3, -1546630.3, -59344.547, 0.15691806, 0.56428945, -1530318.9, 18876.691, 0.19429262, 9.998024, 10.000782 
2.094808e+3, 1.5192454e+2, -1555177.5, -1312115.4, -43184.965, 0.30858484, 0.41333246, -1304670.6, 146518.25, 0.094824284, 9.998247, 10.00167 
2.0948578e+3, 1.6192555e+2, -1496120.3, -1339037.1, -66751.164, 0.2458957, 0.40583107, -1314503.5, 38672.54, 0.032688897, 9.998474, 10.000615 
2.094906e+3, 1.7192766e+2, -1356083.3, -1237732.1, -33982.73, 0.051723152, 0.55735564, -1228668.6, 26492.242, 0.0061590113, 9.998871, 10.000423 
2.0949551e+3, 1.8192863e+2, -1250688.6, -1221278.3, -42630.99, -0.030510435, 0.6575564, -1190887.5, -33732.07, 0.00026052183, 9.999278, 9.9996805 
2.0950066e+3, 1.919268e+2, -1087166.3, -1098468.9, -93622.66, 0.16506246, 0.50112885, -999024.5, 60147.97, 0.00000016154512, 9.999774, 9.999598 
2.095057e+3, 2.0192552e+2, -923733.3, -906714.0, -159938.48, 0.27476192, 0.41331136, -755058.94, 206124.84, 0.0, 9.999963, 10.000149 
2.095104e+3, 2.1192677e+2, -831961.8, -757205.25, -76787.3, 0.11648164, 0.4716016, -709182.0, 153988.39, 0.0, 9.999701, 10.000614 
2.0951514e+3, 2.2192757e+2, -851642.2, -910602.06, -29435.445, -0.014340861, 0.56475353, -839462.6, -74299.875, 0.0, 9.999682, 9.998932 
2.0952001e+3, 2.319269e+2, -657205.56, -817298.7, -64964.113, 0.021123871, 0.63396335, -634161.0, 33012.14, 0.0, 10.0005865, 9.998447 
2.0952494e+3, 2.4192598e+2, -489010.72, -676741.25, -84768.484, 0.042568047, 0.71001107, -456399.16, 112785.68, 0.0, 10.001015, 9.998538 
2.0952988e+3, 2.519244e+2, -440697.78, -573134.2, -93355.91, 0.0019704294, 0.66530126, -392459.97, 78738.25, 0.0, 10.000561, 9.998787 
2.0953484e+3, 2.6192254e+2, -376746.06, -468804.28, -105562.62, -0.02914854, 0.61335826, -307613.78, 65600.445, 0.0, 10.000235, 9.998988 
2.0954e+3, 2.719208e+2, -118855.06, -252363.45, -55111.445, 0.102027304, 0.4905859, -99044.87, 176184.42, 0.0, 10.001171, 9.999335 
2.0954514e+3, 2.8191942e+2, -31740.502, -278094.84, -40805.867, 0.20820025, 0.47596213, -25157.379, 152083.97, 0.00000039293647, 10.001568, 9.9983225 
2.0955e+3, 2.9191872e+2, 34494.27, -186723.72, -35498.742, 0.08624058, 0.55468863, 40051.15, 119301.05, 0.000007667558, 10.001342, 9.998365 
2.0955485e+3, 3.0191687e+2, -472.14703, -229577.25, 2395.8125, -0.12167121, 0.5674427, -447.09613, -447.09613, 0.000037309004, 10.000977, 9.997928 
2.0956047e+3, 3.1191567e+2, 129828.65, 100929.53, 41703.42, 0.27771345, 0.5933552, 159514.84, 159514.84, 0.000096027696, 10.000715, 10.000293 
2.1046555e+3, 1.2187216e+2, -1913810.8, -1596758.3, -174596.38, 0.09768205, 0.43082112, -1519457.3, 226242.11, 0.44859928, 9.99723, 10.003173 
2.1047048e+3, 1.3187467e+2, -1773387.0, -1758071.5, -2189.5596, 0.14606434, 0.61155945, -1757764.6, -110088.33, 0.3298663, 9.9991665, 9.999416 
2.1047537e+3, 1.4187258e+2, -1518460.4, -1531803.4, 273.664, 0.035517715, 0.47834736, -1518454.8, 31243.807, 0.20615475, 10.000081, 9.999879 
2.1048065e+3, 1.5187323e+2, -1467658.4, -1358196.0, -58661.098, 0.28598595, 0.45432544, -1332698.6, 118993.555, 0.10215144, 9.999286, 10.000807 
2.1048567e+3, 1.6187422e+2, -1500723.1, -1335451.5, -90530.85, 0.31036705, 0.5000615, -1295512.8, 58170.09, 0.036114734, 9.998425, 10.000661 
2.1049048e+3, 1.7187591e+2, -1367496.0, -1184403.5, -90892.58, 0.09380637, 0.5664469, -1146945.3, 108723.086, 0.007176738, 9.998544, 10.000943 
2.1049541e+3, 1.818767e+2, -1359623.0, -1282374.8, -81067.945, 0.0034521702, 0.6165359, -1231200.0, -73537.56, 0.0003661867, 9.998575, 9.999597 
2.1050057e+3, 1.9187494e+2, -1269753.3, -1224737.4, -60614.535, 0.15654369, 0.50068897, -1182586.8, -122905.5, 0.00000091193453, 9.998703, 9.999238 
2.1050562e+3, 2.0187393e+2, -1062751.4, -949610.06, -83462.37, 0.24602564, 0.45319074, -905353.1, 56338.387, 0.0, 9.998857, 10.000406 
2.1051033e+3, 2.1187572e+2, -869530.3, -719636.4, -147290.1, 0.1067089, 0.51475084, -629321.7, 234349.58, 0.0, 9.999163, 10.001154 
2.1051511e+3, 2.2187681e+2, -859115.8, -910065.8, -134057.81, 0.012752945, 0.6047294, -748133.94, 17524.926, 0.0, 9.999637, 9.99894 
2.1052015e+3, 2.3187535e+2, -593020.1, -812288.5, -103022.47, 0.06084605, 0.61524177, -552210.7, 115464.984, 0.0, 10.001155, 9.998193 
2.1052514e+3, 2.4187367e+2, -359055.4, -631534.0, -98280.58, 0.10911699, 0.6416478, -327305.97, 242387.61, 0.0, 10.001985, 9.998384 
2.1052995e+3, 2.5187206e+2, -473073.63, -595640.3, -105125.36, 0.055618778, 0.60418063, -412673.0, 59034.906, 0.0, 10.000396, 9.9987 
2.1053484e+3, 2.6187027e+2, -502543.3, -545129.25, -22373.285, 0.009263515, 0.5677096, -492950.13, -119226.34, 0.0, 9.999406, 9.9988785 
2.1054001e+3, 2.7186862e+2, -214034.3, -313429.2, -39406.344, 0.068133496, 0.4703151, -200307.02, 75431.164, 0.0, 10.000561, 9.999219 
2.1054524e+3, 2.818674e+2, -51280.75, -243677.36, -101979.54, 0.18562265, 0.46261868, -7286.5435, 170462.27, 0.00000006547354, 10.001259, 9.998697 
2.1055019e+3, 2.918664e+2, -80295.18, -184023.97, -126058.3, 0.20434381, 0.46958172, 4151.1343, 83909.72, 0.000004738257, 10.000321, 9.998867 
2.10555e+3, 3.0186468e+2, -139053.77, -283142.22, 10266.082, 0.014900183, 0.4548431, -138325.98, -138325.98, 0.00002905632, 9.999916, 9.998088 
2.1056043e+3, 3.1186447e+2, 125875.41, 95271.28, -41076.465, 0.19950658, 0.5911277, 154407.45, 154407.45, 0.00007990002, 10.000667, 10.000286 
2.1146545e+3, 1.21820554e+2, -1976091.8, -1691950.1, -68664.266, 0.19847175, 0.3264087, -1676227.0, 69982.375, 0.46656317, 9.99725, 10.001847 
2.1147099e+3, 1.3182311e+2, -1715717.3, -1662832.1, 55441.64, 0.7257306, 0.46747258, -1627850.0, 20329.52, 0.34608045, 9.999271, 10.000063 
2.114752e+3, 1.4181907e+2, -1568061.6, -1699901.1, -2838.4138, -0.19295302, 0.15345457, -1568000.5, -17783.586, 0.21890919, 10.000296, 9.998594 
2.114803e+3, 1.5182227e+2, -1547612.4, -1549573.9, -98406.734, -0.02006399, 0.5242687, -1450181.5, 2011.7777, 0.110347085, 9.999417, 9.999352 
2.1148533e+3, 1.6182415e+2, -1512734.5, -1381254.3, -109509.35, 0.09472523, 0.7660024, -1319267.9, 34913.04, 0.040102176, 9.998517, 10.000297 
2.1149045e+3, 1.7182356e+2, -1352141.0, -1157646.3, -79217.49, 0.18434624, 0.59579355, -1129464.5, 126720.57, 0.008443992, 9.99856, 10.001122 
2.114955e+3, 1.8182336e+2, -1308033.8, -1184458.8, -86726.24, 0.22941102, 0.50945693, -1139760.9, 18424.893, 0.00052604213, 9.998615, 10.000247 
2.1150035e+3, 1.9182459e+2, -1219448.5, -1111620.3, -49395.766, 0.041352056, 0.6141406, -1092413.5, -32237.879, 0.0000034897541, 9.998666, 10.000031 
2.1150514e+3, 2.018254e+2, -1120730.9, -1045076.75, -80922.48, -0.102282844, 0.71702236, -993576.7, -31407.818, 0.0, 9.998752, 9.999803 
2.1151015e+3, 2.11825e+2, -979339.94, -910391.06, -129867.86, 0.02842588, 0.67533857, -810499.75, 53672.383, 0.0, 9.999019, 9.9999075 
2.1151519e+3, 2.218241e+2, -883253.1, -906131.75, -96086.836, 0.120693974, 0.64095175, -797927.06, -31747.615, 0.0, 9.999401, 9.999081 
2.1152027e+3, 2.3182175e+2, -568679.4, -720068.7, -31736.715, 0.07373181, 0.50087506, -562295.4, 105903.14, 0.0, 10.00097, 9.998917 
2.1152529e+3, 2.418195e+2, -362040.34, -571786.94, -130602.09, 0.047382686, 0.40108994, -299416.44, 270800.34, 0.0, 10.001705, 9.998922 
2.1153007e+3, 2.5181857e+2, -458665.53, -541001.4, -163247.47, 0.12910727, 0.38058844, -331475.1, 140747.95, 0.0, 10.00029, 9.999123 
2.1153492e+3, 2.618178e+2, -573700.6, -649216.3, -17441.209, 0.13193919, 0.44278625, -569867.0, -195637.88, 0.0, 9.999226, 9.998246 
2.1154004e+3, 2.7181685e+2, -308853.06, -479971.34, 25295.904, 0.021151118, 0.51576304, -305191.97, -28949.338, 0.0, 10.000423, 9.998142 
2.1154526e+3, 2.8181526e+2, -94356.06, -251773.97, -121239.35, 0.06260265, 0.5358128, -28517.17, 149743.98, 0.00000005479561, 10.000915, 9.998804 
2.1155044e+3, 2.9181346e+2, -56783.902, -111068.445, -140261.52, 0.3949478, 0.39588845, 58937.387, 139212.39, 0.0000044706885, 10.000198, 9.999434 
2.1155512e+3, 3.0181316e+2, -195521.22, -250105.64, -2200.713, 0.1112136, 0.4567789, -195432.64, -195432.64, 0.000027145721, 9.999338, 9.998559 
2.115602e+3, 3.118132e+2, -123204.766, -240234.11, 110698.125, -0.13233541, 0.58511084, -56507.445, -56507.445, 0.00007500409, 9.999934, 9.998319 
2.1246472e+3, 1.21774815e+2, -1795652.9, -2020005.6, 202843.05, -0.4089058, 0.8849672, -1676034.5, 70622.42, 0.48543465, 10.00081, 9.997602 
2.1247117e+3, 1.3177152e+2, -1699132.8, -1660668.5, -65084.47, 0.97471404, 0.43802378, -1612034.1, 36652.805, 0.3637423, 9.999484, 9.999978 
2.12475e+3, 1.4176825e+2, -1894564.8, -1868942.5, -79791.516, -0.2860394, 0.2171755, -1800940.1, -250222.92, 0.23315269, 9.99809, 9.998506 
2.1248013e+3, 1.5177104e+2, -1577317.1, -1562598.6, -93439.87, -0.10449656, 0.55048656, -1476228.6, -23532.629, 0.1197026, 9.99918, 9.9994 
2.1248525e+3, 1.6177237e+2, -1362814.6, -1332881.6, -27635.5, 0.13668577, 0.73741984, -1316420.1, 38267.53, 0.044803485, 9.99964, 10.000099 
2.1249035e+3, 1.7177145e+2, -1363138.9, -1209421.8, -51370.7, 0.25315148, 0.5739843, -1193834.8, 62860.426, 0.01004214, 9.998678, 10.000711 
2.1249539e+3, 1.8177119e+2, -1382782.3, -1200679.0, -58775.844, 0.2894645, 0.50156444, -1183356.4, -24660.059, 0.0007722133, 9.998003, 10.000427 
2.125002e+3, 1.9177276e+2, -1110523.6, -1009326.25, -48561.547, 0.029885314, 0.59898764, -989793.3, 70887.4, 0.000010944595, 9.999188, 10.000481 
2.1250506e+3, 2.0177366e+2, -969690.4, -1029984.9, -98450.69, -0.12989154, 0.69812936, -896874.56, 65797.82, 0.0, 10.000076, 9.99925 
2.1251011e+3, 2.1177225e+2, -899046.6, -984896.3, -163461.39, 0.043143343, 0.6524348, -772968.0, 91720.31, 0.0, 10.000089, 9.998865 
2.125152e+3, 2.2177064e+2, -780718.2, -831707.3, -85158.66, 0.1890252, 0.60903037, -717319.75, 49384.305, 0.0, 9.99998, 9.999322 
2.1252032e+3, 2.3176907e+2, -695670.3, -681826.56, -20187.533, 0.10474408, 0.471384, -667407.2, 1305.2466, 0.0, 9.999679, 9.999799 
2.1252537e+3, 2.4176745e+2, -639927.6, -689543.56, -126182.68, 0.067784905, 0.3696006, -536137.4, 34584.754, 0.0, 9.999732, 9.999065 
2.1253018e+3, 2.51766e+2, -374874.47, -527718.9, -231389.66, 0.16856448, 0.3207194, -207613.4, 265120.44, 0.0, 10.000976, 9.998893 
2.1253504e+3, 2.6176503e+2, -206706.28, -451083.25, -83325.8, 0.21817334, 0.3697044, -180998.81, 193743.77, 0.0, 10.001674, 9.99842 
2.1254016e+3, 2.7176467e+2, -300643.06, -433207.8, 20776.6, 0.12683536, 0.47744995, -297463.06, -20712.83, 0.0, 10.000335, 9.998494 
2.1254537e+3, 2.8176358e+2, -279806.47, -370985.44, -22482.13, 0.16156162, 0.5336583, -274564.4, -95800.3, 0.000000117451826, 9.999741, 9.99857 
2.1255046e+3, 2.9176176e+2, 123314.73, -84823.914, -135084.11, 0.36080652, 0.44101927, 189768.55, 270549.2, 0.0000050467984, 10.001695, 9.998893 
2.1255517e+3, 3.0176085e+2, 309461.1, -62076.117, -98460.33, 0.08988148, 0.5009732, 333940.94, 333940.94, 0.00002697455, 10.002965, 9.998154 
2.125604e+3, 3.1176007e+2, -9883.843, -152181.23, -73022.23, 0.05697057, 0.5827737, 20920.305, 20920.305, 0.00007158717, 10.000496, 9.998695 
2.1347089e+3, 1.3171968e+2, -1765373.9, -1782873.5, -184982.86, 0.7515853, 0.55925345, -1588934.0, 60266.504, 0.38411817, 9.999523, 9.999133 
2.1347475e+3, 1.4172047e+2, -1808136.4, -1704698.8, -78163.29, -0.38488808, 0.73869103, -1662692.9, -111496.0, 0.24951555, 9.998154, 9.999595 
2.134801e+3, 1.5171957e+2, -1448539.1, -1323555.5, -38663.555, -0.04760755, 0.5421237, -1312561.9, 140638.19, 0.13052814, 9.99923, 10.001144 
2.1348545e+3, 1.6171849e+2, -1352301.5, -1341224.5, -50636.11, 0.32898784, 0.37283653, -1295824.9, 59381.656, 0.050404422, 9.999771, 9.999983 
2.134902e+3, 1.7171939e+2, -1434282.5, -1362088.6, -88750.93, 0.21386725, 0.48070383, -1302374.6, -45174.49, 0.012084308, 9.998701, 9.999648 
2.1349497e+3, 1.8172015e+2, -1394874.8, -1241885.8, -46146.36, 0.06048441, 0.59112555, -1229044.4, -69850.26, 0.001155736, 9.998068, 10.000114 
2.1350013e+3, 1.9171955e+2, -1108139.5, -1002145.25, 6539.068, 0.026273623, 0.46983024, -1001743.4, 59452.785, 0.000030850606, 9.99917, 10.000543 
2.1350522e+3, 2.017186e+2, -1025941.2, -1120049.9, -95820.0, 0.02437291, 0.40030363, -966245.44, -3042.0903, 0.0, 9.999961, 9.998688 
2.1351016e+3, 2.1171723e+2, -979203.5, -1121625.0, -157058.19, 0.07650045, 0.44285774, -877966.44, -12744.329, 0.0, 9.999957, 9.9979925 
2.1351513e+3, 2.2171636e+2, -786958.3, -790188.4, -97140.6, 0.100518696, 0.5133277, -691419.3, 75814.39, 0.0, 9.999756, 9.999709 
2.1352026e+3, 2.3171714e+2, -648120.5, -556465.4, -22741.982, 0.06629185, 0.5217874, -551132.8, 118086.414, 0.0, 9.999559, 10.000721 
2.1352531e+3, 2.4171709e+2, -692799.4, -748333.25, -104326.164, 0.04236259, 0.528048, -612608.25, -41394.58, 0.0, 9.999519, 9.99876 
2.135302e+3, 2.5171414e+2, -459376.5, -666728.1, -170585.45, 0.098191746, 0.4062393, -363432.5, 109809.55, 0.0, 10.000816, 9.9980135 
2.1353516e+3, 2.6171166e+2, -198983.47, -370012.2, -111000.56, 0.15449527, 0.3365933, -144377.06, 230889.1, 0.0, 10.001408, 9.999098 
2.1354036e+3, 2.7171168e+2, -218558.53, -238958.19, -24088.613, 0.2704467, 0.3481748, -202599.28, 74665.88, 0.00000000014169585, 10.000233, 9.999878 
2.1354549e+3, 2.8171176e+2, -355682.47, -463831.5, 1389.4584, 0.29108533, 0.4438924, -355664.63, -176399.73, 0.000000256191, 9.999489, 9.998037 
2.1355034e+3, 2.9171076e+2, -22447.023, -346976.2, -26633.584, 0.03813114, 0.5678234, -20275.775, 61004.01, 0.0000052967753, 10.0015, 9.99719 
2.1355516e+3, 3.0170655e+2, 96252.164, -311437.78, -139870.73, -0.27295953, 0.48553884, 139624.9, 139624.9, 0.000025200057, 10.002207, 9.996772 
2.135607e+3, 3.1170264e+2, 16493.14, 123497.17, -36240.047, 0.26655954, 0.30244532, 134615.64, 134615.64, 0.00006359548, 9.999614, 10.000986 
2.144705e+3, 1.3166626e+2, -1968731.0, -1755433.4, -136138.45, 0.54399145, 0.50370055, -1689143.9, -39416.96, 0.40760165, 9.997428, 10.000218 
2.1447478e+3, 1.4167067e+2, -1688601.4, -1560151.0, 21252.975, -0.17269433, 0.93903035, -1556725.9, -5038.927, 0.26811564, 9.9986, 10.000373 
2.1448013e+3, 1.5166806e+2, -1485459.1, -1299118.4, -18489.188, 0.086526945, 0.522221, -1297301.5, 156402.13, 0.14296411, 9.998756, 10.001584 
2.1448545e+3, 1.6166583e+2, -1465061.1, -1408628.4, -101853.016, 0.40615135, 0.21628761, -1331155.6, 24563.262, 0.057087187, 9.9990635, 9.999853 
2.1449012e+3, 1.7166759e+2, -1258553.4, -1316542.6, -124383.016, 0.20142028, 0.4401259, -1159830.3, 97875.43, 0.014719365, 10.000106, 9.999282 
2.1449485e+3, 1.8166874e+2, -1073151.6, -1127133.1, -38052.67, 0.011824596, 0.6299016, -1053489.4, 106207.37, 0.0017550356, 10.000465, 9.999747 
2.1450007e+3, 1.9166717e+2, -1123383.3, -1051525.4, -28263.02, 0.08641247, 0.44958216, -1041741.2, 19966.57, 0.00008036648, 9.999258, 10.000162 
2.1450527e+3, 2.0166546e+2, -1244021.3, -1222390.1, -101257.5, 0.1698094, 0.32917666, -1131372.3, -167650.53, 0.000000018813253, 9.998443, 9.998716 
2.145102e+3, 2.1166424e+2, -982627.7, -1102602.3, -95816.266, 0.13614668, 0.36626315, -929569.7, -63831.7, 0.0, 9.999833, 9.998179 
2.1451513e+3, 2.2166353e+2, -637960.7, -728577.4, -18071.557, 0.10788654, 0.4437147, -634489.7, 133257.83, 0.0, 10.000828, 9.999617 
2.1452026e+3, 2.316645e+2, -571342.9, -545061.25, -51891.355, 0.098208874, 0.49552813, -504672.7, 165060.44, 0.0, 10.000207, 10.000488 
2.1452534e+3, 2.4166472e+2, -650091.3, -711580.9, -126095.89, 0.10987068, 0.539958, -551046.2, 20680.281, 0.0, 9.999739, 9.998911 
2.1453027e+3, 2.51662e+2, -525277.5, -656579.94, -116417.35, 0.136751, 0.40921098, -457275.88, 16476.742, 0.0, 10.000191, 9.998378 
2.1453525e+3, 2.6165938e+2, -299565.6, -429819.63, -33645.492, 0.1692343, 0.30763838, -291388.13, 84389.195, 0.0, 10.000752, 9.999009 
2.1454033e+3, 2.7165896e+2, -58439.04, -195848.1, -90871.125, 0.20175411, 0.30280682, -13223.094, 264558.0, 0.00000000016893417, 10.001473, 9.9995775 
2.1454543e+3, 2.8165925e+2, 9658.159, -288336.75, -89653.98, 0.18499842, 0.43758678, 34551.695, 214330.64, 0.0000002738674, 10.001969, 9.99806 
2.1455039e+3, 2.9165876e+2, -27790.986, -307184.28, -39392.313, -0.025300633, 0.60168, -22343.197, 59445.64, 0.0000047479944, 10.001305, 9.997546 
2.145554e+3, 3.0165413e+2, -66928.26, -380946.63, -19876.553, -0.14173977, 0.43983907, -65675.125, -65675.125, 0.000021563434, 10.000949, 9.996943 
2.1456079e+3, 3.116508e+2, 245457.36, 255554.44, -11749.453, 0.37338582, 0.3196055, 263294.06, 263294.06, 0.000054127435, 10.00104, 10.001211 
2.1546993e+3, 1.3161154e+2, -1733616.5, -1437498.4, -25667.602, 0.1529427, 0.31899258, -1435290.0, 214972.92, 0.43279883, 9.997475, 10.0034895 
2.1547502e+3, 1.4161828e+2, -1622497.9, -1498527.4, -1000.599, 0.15590204, 0.73816234, -1498519.3, 53673.035, 0.28823382, 9.998816, 10.000845 
2.1548013e+3, 1.5161651e+2, -1549736.9, -1433334.0, -10677.086, 0.20322095, 0.48200014, -1432362.8, 21843.56, 0.15688464, 9.998843, 10.000473 
2.154852e+3, 1.6161476e+2, -1460683.4, -1430893.1, -78872.18, 0.22308737, 0.30315796, -1365521.9, -9300.27, 0.06501248, 9.999201, 9.999623 
2.1549004e+3, 1.7161606e+2, -1236033.8, -1277261.5, -80045.8, 0.1123483, 0.46368995, -1173990.1, 84221.445, 0.018139776, 10.00014, 9.99953 
2.1549492e+3, 1.8161683e+2, -1094413.3, -1193622.5, -70022.75, 0.02317044, 0.61493987, -1058205.3, 102000.555, 0.0026903055, 10.000556, 9.999249 
2.1550004e+3, 1.9161557e+2, -1175517.0, -1160439.9, -72658.164, 0.11442778, 0.5374727, -1094930.3, -32714.063, 0.00019736934, 9.999264, 9.999406 
2.1550515e+3, 2.016142e+2, -1218626.3, -1154177.8, -86727.92, 0.18182129, 0.48194993, -1093881.0, -129653.32, 0.0000007869328, 9.998375, 9.999218 
2.1551017e+3, 2.1161306e+2, -919175.25, -946430.06, -31267.04, 0.13018155, 0.42293432, -898695.0, -32457.148, 0.0, 9.999719, 9.999309 
2.1551521e+3, 2.216119e+2, -711001.5, -827979.3, -26314.115, 0.07944012, 0.3991419, -705354.75, 62893.246, 0.0, 10.000605, 9.999039 
2.1552029e+3, 2.3161107e+2, -690304.8, -757624.2, -69848.34, 0.10579959, 0.39573935, -646428.94, 23825.926, 0.0, 10.000055, 9.999101 
2.1552536e+3, 2.4161032e+2, -655640.9, -657538.2, -125060.13, 0.14456469, 0.4150603, -531525.75, 40734.816, 0.0, 9.999468, 9.999407 
2.1553035e+3, 2.5160936e+2, -444351.78, -461705.4, -87552.08, 0.1943596, 0.33532137, -365047.63, 109219.47, 0.0, 10.000072, 9.999775 
2.155353e+3, 2.616079e+2, -379312.06, -554430.2, -18024.576, 0.13385983, 0.27572483, -377476.06, -1195.9637, 0.0, 10.000583, 9.998233 
2.1554016e+3, 2.7160618e+2, -213468.88, -482995.03, -47649.43, -0.1357634, 0.31212902, -205292.97, 73007.9, 0.0, 10.001316, 9.997685 
2.1554519e+3, 2.8160554e+2, -31871.19, -267970.72, -98361.68, -0.26147962, 0.4775792, 3736.9978, 184047.44, 0.000000100631844, 10.001544, 9.998388 
2.1555059e+3, 2.9160556e+2, 43510.242, -84565.84, -41504.098, 0.014715217, 0.55013806, 55783.805, 138093.44, 0.0000031808167, 10.000983, 9.99923 
2.1555576e+3, 3.0160227e+2, -86915.73, -224083.16, -36364.07, 0.09812987, 0.33277202, -77871.664, -77871.664, 0.000016664693, 10.000154, 9.998372 
2.1556064e+3, 3.116043e+2, -50697.07, -195261.39, -7749.8823, 0.059041765, 0.6623294, -50282.797, -50282.797, 0.00004561872, 10.000356, 9.998432 
2.1646959e+3, 1.3156067e+2, -1563585.3, -1356141.5, 59838.94, 0.018584909, 0.4064542, -1340118.1, 310643.88, 0.45757636, 9.998996, 10.003884 
2.1647507e+3, 1.4156462e+2, -1634190.1, -1507610.3, -62444.84, 0.346109, 0.5285874, -1481990.3, 70725.07, 0.3088363, 9.998789, 10.000825 
2.1648005e+3, 1.5156461e+2, -1563970.8, -1494149.1, -78387.4, 0.24619581, 0.48332217, -1443250.0, 11466.1875, 0.17204043, 9.9990225, 9.999933 
2.1648501e+3, 1.6156429e+2, -1470772.5, -1398945.6, -73165.516, 0.14740165, 0.47513893, -1353354.6, 3365.2646, 0.07433442, 9.998955, 9.9999695 
2.1649005e+3, 1.7156485e+2, -1179056.8, -1158451.1, -24140.617, 0.10637332, 0.48703063, -1142506.8, 116206.03, 0.022589553, 10.000116, 10.00038 
2.1649507e+3, 1.8156503e+2, -1048738.6, -1181496.9, -5334.52, 0.10400285, 0.52458555, -1048524.7, 112184.89, 0.00413868, 10.000926, 9.999151 
2.165001e+3, 1.9156389e+2, -974248.8, -1141790.9, -42760.074, 0.16585031, 0.5176305, -963966.6, 98755.04, 0.00045452762, 10.000987, 9.99871 
2.1650513e+3, 2.0156266e+2, -873290.6, -997759.25, -23208.293, 0.21936497, 0.52505434, -869104.0, 95630.02, 0.000007502901, 10.000779, 9.999137 
2.165102e+3, 2.1156178e+2, -794385.06, -858674.25, -28263.256, 0.15513042, 0.4781571, -783726.75, 83013.836, 0.0, 10.000467, 9.999554 
2.1651526e+3, 2.2156078e+2, -808704.1, -869722.75, -73704.41, 0.11225098, 0.45310202, -759444.06, 9304.699, 0.0, 9.999917, 9.999081 
2.1652026e+3, 2.3155934e+2, -852995.4, -842873.6, -67947.12, 0.14027326, 0.3929993, -779799.1, -109037.164, 0.0, 9.99897, 9.999033 
2.1652529e+3, 2.4155816e+2, -787007.2, -745541.56, -7854.445, 0.19195509, 0.38198274, -744103.7, -171330.7, 0.0, 9.998659, 9.999196 
2.1653035e+3, 2.5155762e+2, -382207.2, -453898.4, -59383.824, 0.17459172, 0.36910552, -348688.94, 126089.12, 0.0, 10.000615, 9.999553 
2.1653533e+3, 2.615567e+2, -152228.73, -431440.38, -74354.07, 0.057003718, 0.37636498, -133662.78, 243124.45, 0.0, 10.002087, 9.998349 
2.1654016e+3, 2.715552e+2, -217568.94, -441547.7, -12272.503, -0.22735421, 0.4029275, -216898.5, 61906.02, 0.0, 10.00113, 9.998041 
2.1654524e+3, 2.8155422e+2, -227755.06, -343427.06, 50641.516, -0.267787, 0.5030756, -208717.38, -27902.28, 0.0000000029805467, 10.0001, 9.99857 
2.1655068e+3, 2.915535e+2, -128377.09, -136775.56, -6160.7236, 0.120487824, 0.4954975, -125120.586, -42299.84, 0.000001345268, 9.999683, 9.999494 
2.1655579e+3, 3.0155164e+2, -38874.938, -54011.51, -15091.036, 0.15506846, 0.33105022, -29560.738, -29560.738, 0.000010778314, 9.999819, 9.999707 
2.1656053e+3, 3.1155443e+2, -9260.113, -215119.33, -48610.484, -0.10317878, 0.62809104, 1641.2211, 1641.2211, 0.00003608632, 10.000837, 9.998048 
2.1746956e+3, 1.3151537e+2, -1690414.1, -1609989.6, -32698.418, 0.030196032, 0.8938779, -1598373.1, 52833.832, 0.48078975, 9.999415, 10.00044 
2.1747491e+3, 1.4151034e+2, -1675827.3, -1619596.3, -41862.863, 0.24095528, 0.34796572, -1597283.9, -44033.664, 0.32934, 9.99899, 9.999769 
2.1747984e+3, 1.5151232e+2, -1570840.5, -1515193.6, -74139.8, 0.11559879, 0.5363072, -1463828.4, -8594.953, 0.18832743, 9.999043, 9.999767 
2.1748482e+3, 1.6151418e+2, -1390212.0, -1270412.8, -49732.125, 0.023144467, 0.7273267, -1252458.4, 104757.85, 0.0852701, 9.999085, 10.000846 
2.1749003e+3, 1.7151403e+2, -1065870.3, -937448.44, 29036.059, 0.08755796, 0.52202636, -931188.5, 328020.0, 0.028395085, 10.000177, 10.001913 
2.1749522e+3, 1.8151338e+2, -1030885.0, -1162793.0, 1197.6473, 0.13642189, 0.36619124, -1030874.1, 130333.92, 0.006367479, 10.001008, 9.999239 
2.175002e+3, 1.9151191e+2, -1026592.2, -1250344.4, -38928.52, 0.14941339, 0.38601848, -1020012.9, 43213.15, 0.0009868387, 10.000983, 9.997965 
2.1750516e+3, 2.0151058e+2, -930145.4, -1102904.9, -41720.98, 0.14531305, 0.45393646, -920597.5, 44645.6, 0.000047582707, 10.000717, 9.998448 
2.1751022e+3, 2.1151026e+2, -858344.0, -957655.75, -35444.07, 0.12727815, 0.5244398, -846991.75, 20256.02, 0.00000000032497088, 10.000319, 9.998947 
2.1751523e+3, 2.2150987e+2, -811715.6, -812441.9, -107795.11, 0.099082924, 0.58570063, -704283.0, 64968.906, 0.0, 9.99965, 9.9995985 
2.1752015e+3, 2.3150891e+2, -798264.44, -694889.9, -96900.45, 0.11647676, 0.47197077, -636753.3, 34505.02, 0.0, 9.998829, 10.000113 
2.175251e+3, 2.4150775e+2, -876278.2, -877622.5, 21758.38, 0.12169323, 0.4157797, -855181.56, -281913.06, 0.0, 9.998441, 9.998387 
2.1753025e+3, 2.5150645e+2, -533632.44, -724985.06, 30930.377, -0.001391203, 0.48593348, -528757.06, -53469.15, 0.0, 10.000433, 9.997777 
2.1753533e+3, 2.615056e+2, -151442.34, -339967.06, -77949.086, -0.17841493, 0.59344727, -123387.69, 253912.83, 0.0, 10.001713, 9.999152 
2.1754031e+3, 2.715056e+2, -95280.85, -139366.55, -43063.06, -0.20918322, 0.5728359, -68946.91, 210348.56, 0.0, 10.000927, 10.000212 
2.1754548e+3, 2.8150454e+2, -276962.28, -360653.1, 10110.017, -0.068801045, 0.515483, -275758.3, -94457.34, 0.0, 9.999758, 9.998609 
2.1755071e+3, 2.9150176e+2, -233539.63, -315414.97, -3631.4866, 0.1469502, 0.38683835, -233378.88, -150049.75, 0.00000028754212, 9.999509, 9.998349 
2.175555e+3, 3.015008e+2, -66533.17, 26983.863, -7955.523, -0.16196866, 0.36516115, 27655.814, 27655.814, 0.0000061263827, 9.9992895, 10.000487 
2.175605e+3, 3.1150258e+2, -2223.1436, -30888.846, 96286.086, -0.25937653, 0.3872586, 80791.016, 80791.016, 0.000027574106, 10.000134, 9.999642 
2.1847491e+3, 1.414586e+2, -1774784.0, -1814534.1, 9640.869, 0.37304774, 0.3744355, -1772569.3, -218811.17, 0.34983045, 9.998897, 9.9984665 
2.184799e+3, 1.5146102e+2, -1429831.5, -1452969.3, -73513.4, 0.2511822, 0.6562313, -1366982.3, 88755.3, 0.2059314, 10.000097, 9.999764 
2.184846e+3, 1.6146071e+2, -1350489.0, -1243547.3, -46653.57, -0.10911894, 0.6251165, -1226055.5, 131684.8, 0.09816949, 9.999339, 10.00093 
2.1848996e+3, 1.7146131e+2, -1356341.4, -1072742.4, -88423.17, 0.10119758, 0.49627683, -1047431.8, 212293.73, 0.036017943, 9.998182, 10.001915 
2.1849522e+3, 1.8146133e+2, -1505569.3, -1372413.5, -152930.27, 0.22070609, 0.40280062, -1272197.3, -110478.32, 0.009796201, 9.997638, 9.999432 
2.1850024e+3, 1.9145992e+2, -1134260.9, -1265098.3, -117720.01, 0.176587, 0.39749148, -1065003.6, -1267.1147, 0.0020521113, 10.000072, 9.9983 
2.1850528e+3, 2.0145865e+2, -796183.25, -1039150.94, -90828.36, 0.16288874, 0.44919467, -765982.8, 199770.61, 0.00020967671, 10.001652, 9.998439 
2.1851026e+3, 2.114581e+2, -940733.94, -1024478.4, -109566.76, 0.16284835, 0.51689464, -865311.0, 2450.6296, 0.00000086887735, 9.9998665, 9.998711 
2.1851519e+3, 2.2145768e+2, -969341.1, -886319.5, -114122.39, 0.15778592, 0.5915963, -806392.8, -36625.51, 0.0, 9.998545, 9.999634 
2.1852012e+3, 2.3145752e+2, -570888.7, -552818.94, -148547.69, 0.16027687, 0.54220974, -413031.63, 258734.58, 0.0, 10.000264, 10.000393 
2.185251e+3, 2.4145694e+2, -424730.4, -650505.1, -42621.824, 0.15067264, 0.52164304, -416952.22, 156819.17, 0.0, 10.001494, 9.998477 
2.185302e+3, 2.5145537e+2, -586702.2, -760518.2, 48833.94, -0.040344212, 0.56853193, -573921.94, -98126.945, 0.0, 10.00009, 9.99771 
2.185353e+3, 2.614546e+2, -514009.47, -462670.56, 23108.275, -0.21576217, 0.67214537, -453801.44, -75994.234, 0.0, 9.998969, 9.999647 
2.1854039e+3, 2.7145523e+2, -215721.48, -115879.08, -50946.11, -0.15812601, 0.6542609, -94472.64, 185320.47, 0.0, 9.999724, 10.000975 
2.1854553e+3, 2.8145438e+2, -179297.36, -277387.0, -50681.28, 0.015910305, 0.5465308, -157815.69, 23979.426, 0.0, 10.000238, 9.998964 
2.1855061e+3, 2.9145125e+2, -173762.8, -290639.75, -26635.996, 0.10022269, 0.38178277, -167978.77, -84150.49, 0.000000027227998, 9.999923, 9.998326 
2.1855545e+3, 3.0145177e+2, 41497.746, -1069.8584, 47413.914, -0.15329859, 0.53502715, 72185.85, 72185.85, 0.0000044959556, 10.000317, 9.999834 
2.1856058e+3, 3.1145212e+2, 257558.97, 137572.64, -50622.313, -0.24352963, 0.5121546, 276062.94, 276062.94, 0.000025056477, 10.001621, 10.000138 
2.1947485e+3, 1.4140788e+2, -1800337.9, -1865245.1, 96980.81, 0.36558098, 0.5674216, -1730524.6, -176270.83, 0.371045, 9.998923, 9.998093 
2.1948025e+3, 1.5141025e+2, -1399068.4, -1403465.5, -66975.97, 0.5515611, 0.85274345, -1334254.9, 121977.29, 0.22535217, 10.000178, 10.00012 
2.194843e+3, 1.6140373e+2, -1384339.0, -1325951.5, -100166.31, -0.36555612, 0.17531987, -1250811.4, 107482.4, 0.113554515, 9.999439, 10.000289 
2.1948975e+3, 1.714063e+2, -1476998.5, -1312606.8, -131576.1, 0.066763446, 0.3956761, -1239662.6, 20605.332, 0.046104282, 9.998166, 10.000231 
2.1949501e+3, 1.8140842e+2, -1470589.8, -1310493.9, -109208.05, 0.23728338, 0.61473495, -1255138.5, -92891.5, 0.015073848, 9.997681, 9.999837 
2.1950024e+3, 1.9140787e+2, -1027981.06, -1040472.56, -11291.988, 0.16382541, 0.5636564, -1021322.6, 42930.984, 0.004138987, 10.000059, 9.999847 
2.1950544e+3, 2.0140688e+2, -767873.44, -963603.3, -113320.34, 0.14112507, 0.5224509, -716008.44, 250256.34, 0.00072646124, 10.001581, 9.99899 
2.1951023e+3, 2.1140522e+2, -958470.8, -1028023.44, -183816.86, 0.16087516, 0.46360677, -806169.56, 62113.39, 0.000022642807, 9.999729, 9.998745 
2.1951507e+3, 2.2140414e+2, -1025017.4, -955954.9, -101416.24, 0.16334103, 0.48082602, -883352.25, -113057.27, 0.000000000011542125, 9.998342, 9.999252 
2.1952017e+3, 2.3140517e+2, -626314.8, -639563.06, -64224.777, 0.17455272, 0.59740275, -568373.44, 103912.01, 0.0, 10.000135, 9.999859 
2.1952525e+3, 2.414057e+2, -421767.06, -565744.94, -63723.59, 0.12978363, 0.69916815, -397614.97, 176666.58, 0.0, 10.001165, 9.999212 
2.195302e+3, 2.514042e+2, -512624.7, -569362.25, -5480.23, -0.054880213, 0.62364954, -512100.2, -35799.43, 0.0, 9.999928, 9.999098 
2.195352e+3, 2.614034e+2, -552051.44, -468347.03, 14826.135, -0.21328983, 0.6250191, -465798.56, -87487.69, 0.0, 9.998675, 9.999736 
2.1954033e+3, 2.7140388e+2, -282020.3, -209158.39, -4892.3643, -0.17869712, 0.63286555, -208831.36, 71468.84, 0.0, 9.99955, 10.000403 
2.1954541e+3, 2.8140318e+2, -193351.63, -232673.1, -62172.434, -0.15529741, 0.5659147, -147805.34, 34496.848, 0.0, 9.99994, 9.999407 
2.1955039e+3, 2.9140174e+2, -146447.69, -195319.28, -21208.123, -0.12318023, 0.4804056, -138527.77, -54208.254, 0.000000020729713, 9.999759, 9.99906 
2.1955554e+3, 3.0140343e+2, -176804.42, -323172.47, 81429.12, -0.12567364, 0.7966047, -140505.1, -140505.1, 0.0000055230016, 9.999798, 9.99784 
2.1956071e+3, 3.1140077e+2, -9985.216, -195501.45, 97025.984, -0.27947527, 0.71600294, 31488.219, 31488.219, 0.000029811183, 10.000738, 9.9982395 
2.204744e+3, 1.4135517e+2, -1732475.6, -1862698.9, 229872.61, 0.04921589, 0.4710619, -1558671.1, -3902.5198, 0.39437363, 9.9995165, 9.997831 
2.2048025e+3, 1.5135685e+2, -1537373.9, -1487075.5, -73951.92, 0.608419, 0.7436266, -1434113.5, 22641.18, 0.24751917, 9.999209, 9.999933 
2.2048427e+3, 1.6135126e+2, -1527030.5, -1423828.0, -128881.484, -0.25704235, 0.16898632, -1336601.6, 22206.002, 0.13222682, 9.998555, 10.000018 
2.2048962e+3, 1.713534e+2, -1315048.8, -1310349.9, -72609.54, 0.0874469, 0.40474916, -1240051.8, 20736.842, 0.059555795, 9.999537, 9.999623 
2.2049487e+3, 1.8135522e+2, -1120099.8, -1128485.6, 37038.844, 0.23884644, 0.62847644, -1087017.3, 75755.61, 0.023171267, 10.000033, 9.999966 
2.2050022e+3, 1.9135535e+2, -1147574.6, -1050424.3, 58115.824, 0.18634003, 0.60658944, -1023256.5, 41516.9, 0.008108057, 9.999029, 10.000291 
2.2050548e+3, 2.0135505e+2, -1199476.8, -1122004.6, -110394.17, 0.1869799, 0.59377205, -1043747.75, -76970.06, 0.0021629941, 9.998401, 9.999439 
2.2051023e+3, 2.1135369e+2, -837309.94, -916944.7, -176998.06, 0.17420934, 0.5183041, -695705.9, 173085.33, 0.00023583506, 10.000321, 9.999229 
2.2051504e+3, 2.213525e+2, -555331.7, -748151.06, -50364.81, 0.16681588, 0.5000177, -542968.94, 227834.13, 0.0000019906881, 10.001648, 9.999088 
2.2052014e+3, 2.3135293e+2, -664119.44, -727588.5, -36470.254, 0.15736756, 0.60512054, -647509.8, 25291.807, 0.0, 10.000162, 9.999254 
2.2052522e+3, 2.4135308e+2, -728044.25, -671669.0, -44022.664, 0.13563463, 0.7038916, -647582.94, -72780.37, 0.0, 9.998869, 9.9996 
2.2053023e+3, 2.5135285e+2, -520099.22, -447611.63, -39443.082, 0.0017156352, 0.6637764, -430288.94, 46517.883, 0.0, 9.999389, 10.00017 
2.2053523e+3, 2.613529e+2, -351094.75, -343989.7, 3928.973, -0.10128657, 0.66843915, -342245.3, 36561.51, 0.0, 9.99993, 9.999989 
2.2054036e+3, 2.7135274e+2, -206091.5, -200069.48, 3037.719, -0.13107428, 0.6302095, -198803.34, 82000.76, 0.0, 10.00018, 10.000167 
2.2054541e+3, 2.8135225e+2, -90504.7, -165432.06, -32251.275, -0.15575607, 0.5867459, -78534.87, 104270.88, 0.0, 10.00058, 9.999557 
2.2055039e+3, 2.9135153e+2, 85170.66, -69183.625, -80970.28, -0.14317562, 0.56638706, 119852.8, 204668.38, 0.00000007580395, 10.001294, 9.999188 
2.2055566e+3, 3.0135202e+2, -3717.9905, -305190.88, 44246.54, -0.028043944, 0.7855411, 2641.8154, 2641.8154, 0.0000083740215, 10.001222, 9.997307 
2.2056091e+3, 3.1134868e+2, 50328.543, 75831.0, 136888.02, -0.10640019, 0.6785894, 200560.4, 200560.4, 0.000042885644, 10.00008, 10.000417 
2.2147407e+3, 1.4130421e+2, -1717722.3, -1830095.3, 135170.75, -0.29736254, 0.47239047, -1627525.5, -72259.26, 0.4221777, 9.999537, 9.998035 
2.2147994e+3, 1.5130024e+2, -1605799.0, -1618441.0, -84122.15, 0.35687184, 0.29157236, -1527760.8, -70450.23, 0.27423543, 9.999172, 9.999022 
2.214845e+3, 1.6130318e+2, -1506106.6, -1395475.5, -132120.69, 0.062038507, 0.627469, -1307558.1, 51725.137, 0.15564767, 9.998621, 10.000203 
2.2148958e+3, 1.713028e+2, -1269001.3, -1216877.6, -26909.477, 0.066636376, 0.5470242, -1205478.3, 55807.77, 0.07778218, 9.999538, 10.00028 
2.2149478e+3, 1.8130185e+2, -1124310.0, -1157325.4, 16059.021, 0.11136977, 0.45760837, -1117787.4, 45508.07, 0.035576556, 10.000117, 9.999728 
2.215001e+3, 1.9130231e+2, -1206885.1, -1161293.1, 18467.291, 0.15919629, 0.5329665, -1154751.5, -89455.02, 0.0154146915, 9.99898, 9.999551 
2.215053e+3, 2.0130296e+2, -1190320.1, -1083361.1, -80505.734, 0.17153582, 0.6542425, -1040190.56, -72896.32, 0.005714695, 9.998314, 9.999746 
2.215102e+3, 2.1130331e+2, -790722.1, -786909.44, -88269.01, 0.10331031, 0.6697126, -700526.2, 168762.25, 0.0013616167, 10.000179, 10.000188 
2.2151509e+3, 2.2130294e+2, -609548.7, -792374.25, -72813.99, 0.028482046, 0.67306936, -584093.25, 187197.08, 0.00013056793, 10.001355, 9.998926 
2.2152002e+3, 2.3130062e+2, -740540.3, -849065.06, -93913.43, 0.027968366, 0.56764114, -686340.06, -13023.658, 0.0000045921656, 9.999997, 9.998502 
2.2152503e+3, 2.4129906e+2, -774238.9, -690102.8, -64102.633, 0.033826448, 0.54720145, -655497.06, -80162.26, 0.000000030624218, 9.998553, 9.999618 
2.215302e+3, 2.5130108e+2, -504032.0, -369826.16, -6179.4204, 0.033234894, 0.67976123, -369542.22, 107773.266, 0.0, 9.999207, 10.000788 
2.2153533e+3, 2.6130262e+2, -377000.53, -323050.3, 1420.7985, -0.016302733, 0.7792189, -323012.9, 56287.14, 0.0, 9.999627, 10.000272 
2.2154038e+3, 2.7130163e+2, -235181.28, -202886.89, 14524.93, -0.12505765, 0.64182925, -197315.31, 83991.59, 0.0, 9.999944, 10.000254 
2.2154546e+3, 2.813013e+2, -183665.25, -246800.27, -22638.744, -0.19038397, 0.6131804, -176386.66, 6921.905, 0.0, 10.00012, 9.999204 
2.2155058e+3, 2.9130042e+2, -4526.0215, -197657.19, -41390.0, -0.095492706, 0.63112247, 3970.4905, 89289.375, 0.00000027397763, 10.001058, 9.998408 
2.2155574e+3, 3.012975e+2, -23167.26, -233655.75, -240.10397, -0.09836875, 0.55998296, -23166.986, -23166.986, 0.000015050563, 10.000795, 9.997972 
2.2156084e+3, 3.1129527e+2, 256682.39, 690697.2, 159699.55, -0.22019725, 0.35094413, 743126.56, 743126.56, 0.00007034586, 9.9993305, 10.004984 
2.2247514e+3, 1.4124978e+2, -2002769.1, -1434701.6, 223062.86, 1.0397052, 0.76469636, -1357581.4, 198227.63, 0.45833316, 9.99475, 10.004056 
2.2247972e+3, 1.512467e+2, -1614903.3, -1451936.0, -145969.52, 0.2969638, 0.22070234, -1366247.0, 91595.06, 0.30885017, 9.998337, 10.000757 
2.224845e+3, 1.612536e+2, -1338225.6, -1302896.0, -30761.94, 0.1819829, 0.8468928, -1285087.6, 74687.8, 0.18666483, 9.9997, 10.000361 
2.224895e+3, 1.7125203e+2, -1259318.1, -1225786.8, -12163.357, 0.056416333, 0.6554506, -1221839.3, 39949.9, 0.103338934, 9.999681, 10.000143 
2.2249468e+3, 1.8125007e+2, -1288379.1, -1278009.1, -18408.219, 0.07174152, 0.48380384, -1264069.6, -100261.45, 0.054786276, 9.999141, 9.999382 
2.2249998e+3, 1.9125035e+2, -1118686.0, -1169875.3, -18892.703, 0.12215066, 0.5863762, -1112468.4, -46657.145, 0.028543482, 9.999774, 9.999113 
2.2250518e+3, 2.0125094e+2, -911091.06, -945913.3, -63120.89, 0.15030922, 0.72595966, -863024.0, 104786.28, 0.013685946, 10.000228, 9.9997635 
2.2251017e+3, 2.1125174e+2, -845668.25, -790349.56, -128438.086, 0.0961386, 0.76882046, -686626.4, 183174.4, 0.005262215, 9.999713, 10.000393 
2.225151e+3, 2.2125158e+2, -905093.2, -936442.06, -159891.9, 0.054276314, 0.7794055, -760109.25, 11691.7295, 0.001420654, 9.999307, 9.998932 
2.2252e+3, 2.312487e+2, -797637.75, -880536.8, -172252.69, 0.025508204, 0.6271402, -661917.7, 11913.588, 0.0002619265, 9.999613, 9.998477 
2.2252493e+3, 2.412468e+2, -570346.9, -583825.1, -67542.766, 0.033162132, 0.5762433, -509207.88, 66643.664, 0.000035642544, 9.9999, 9.99971 
2.2253017e+3, 2.512491e+2, -372454.7, -289110.75, -26564.443, 0.078116655, 0.720621, -281363.88, 196463.28, 0.0000011567587, 9.99998, 10.000997 
2.2253536e+3, 2.612505e+2, -381790.4, -349918.44, -51939.574, 0.079156674, 0.79818743, -311525.1, 68287.12, 0.0, 9.999695, 10.000056 
2.2254036e+3, 2.71249e+2, -371803.7, -315813.6, -112425.07, -0.07958022, 0.6555237, -227950.47, 53876.902, 0.0, 9.999235, 9.999818 
2.2254546e+3, 2.812491e+2, -281422.03, -236804.33, -104234.22, -0.13489561, 0.68931353, -152518.34, 31307.813, 0.0, 9.99919, 9.999738 
2.2255075e+3, 2.9124933e+2, 36829.89, -48713.19, -35039.742, 0.008849223, 0.73212445, 49350.195, 135171.42, 0.00000073017384, 10.000817, 9.999534 
2.2255594e+3, 3.0124506e+2, 99154.64, -200452.83, 38415.586, 0.005749198, 0.43577054, 104001.86, 104001.86, 0.00002755439, 10.001717, 9.997779 
2.2256069e+3, 3.112432e+2, 392599.84, 612290.1, -69442.625, -0.3558262, 0.40448922, 632399.75, 632399.75, 0.000118261974, 10.000828, 10.003761 
2.2347957e+3, 1.5119697e+2, -1354340.6, -983073.9, -106643.72, 0.29132134, 0.6583453, -954621.7, 503721.28, 0.35698506, 9.998125, 10.005643 
2.2348432e+3, 1.6120206e+2, -1334028.6, -1293959.0, -9612.164, -0.014967953, 0.78100425, -1291772.5, 68516.51, 0.23053116, 9.999684, 10.00048 
2.234894e+3, 1.7120072e+2, -1347424.3, -1384079.3, -24416.705, -0.034280732, 0.69887435, -1335221.9, -72920.016, 0.14104874, 9.999582, 9.999076 
2.234945e+3, 1.8119965e+2, -1323966.6, -1350231.9, -18391.268, -0.02910716, 0.6960763, -1314500.5, -150187.3, 0.08532412, 9.999132, 9.998889 
2.2349983e+3, 1.9119944e+2, -1129613.9, -1184257.0, 15755.951, -0.015668306, 0.7652716, -1125396.4, -59077.77, 0.05187056, 9.999731, 9.999038 
2.2350508e+3, 2.011992e+2, -953246.56, -1004972.4, -73531.4, -0.0066822777, 0.83764386, -901162.3, 67161.586, 0.030293982, 10.000114, 9.999413 
2.2351013e+3, 2.1119887e+2, -902741.7, -873701.2, -144166.27, 0.065050244, 0.81516385, -743325.75, 127002.85, 0.015773455, 9.999562, 9.999898 
2.2351511e+3, 2.2119819e+2, -944232.4, -941482.3, -165772.44, 0.104324035, 0.8081051, -777079.2, -4742.836, 0.0069356123, 9.998993, 9.999039 
2.2351997e+3, 2.3119693e+2, -775691.56, -801264.0, -147279.03, 0.038161144, 0.75827575, -640644.75, 33703.492, 0.002541045, 9.999462, 9.999087 
2.2352488e+3, 2.4119611e+2, -613807.0, -596526.1, -70281.555, -0.016734144, 0.77449703, -534355.9, 41998.957, 0.00075579167, 9.999581, 9.999769 
2.2353013e+3, 2.5119704e+2, -411434.3, -319909.7, -17501.86, 0.037404463, 0.7836414, -316677.06, 161663.92, 0.00014769337, 9.999769, 10.000883 
2.2353528e+3, 2.611969e+2, -503266.7, -510310.2, -85169.02, 0.027367441, 0.7535629, -421546.63, -41207.047, 0.000007045108, 9.999326, 9.999118 
2.2354026e+3, 2.7119488e+2, -480479.53, -501258.25, -117247.89, -0.10087614, 0.6673257, -373161.6, -90797.42, 0.00000000065814787, 9.999063, 9.998618 
2.2354536e+3, 2.811955e+2, -268631.9, -111701.57, -82874.44, -0.15573657, 0.78997004, -76039.81, 108320.87, 0.0, 9.9988, 10.000765 
2.2355089e+3, 2.9119807e+2, 137470.81, 260053.92, 33955.973, 0.025813462, 0.8489157, 268831.34, 355156.13, 0.0000012574419, 10.000414, 10.001833 
2.2355615e+3, 3.0119357e+2, -99728.08, -431045.75, -6096.8057, 0.009058522, 0.39112556, -99615.93, -99615.93, 0.000044073433, 10.000984, 9.996519 
2.235606e+3, 3.1119445e+2, -211259.58, -429608.34, 50040.4, -0.57737684, 0.98442084, -200337.8, -200337.8, 0.00018419352, 9.999985, 9.996983 
2.2447965e+3, 1.5114705e+2, -1760833.5, -1236085.1, 100156.26, 0.6391087, 0.7739746, -1217618.6, 241219.69, 0.42759266, 9.995527, 10.004449 
2.2448418e+3, 1.6115148e+2, -1515475.6, -1378247.0, 3368.7664, -0.035571482, 0.8831128, -1378164.4, -17372.85, 0.29616648, 9.998438, 10.000369 
2.2448945e+3, 1.7114997e+2, -1223805.6, -1365005.4, -20818.22, 0.03759547, 0.81869066, -1220800.1, 42004.836, 0.19952731, 10.0007, 9.998665 
2.2449473e+3, 1.8114835e+2, -945022.56, -1155589.4, 7756.073, 0.15701728, 0.78625804, -944737.25, 220083.0, 0.13536815, 10.001975, 9.998862 
2.2449985e+3, 1.9114764e+2, -972407.7, -1079385.5, 28397.244, 0.0006934873, 0.79103756, -965337.0, 101491.98, 0.09319166, 10.000767, 9.999273 
2.2450493e+3, 2.0114723e+2, -1039198.9, -1076750.5, -20683.496, -0.10678165, 0.8345036, -1030040.1, -61204.48, 0.06306426, 9.999576, 9.999218 
2.2451006e+3, 2.111472e+2, -961045.94, -956221.8, -104275.914, 0.086337626, 0.8893972, -854330.06, 16510.12, 0.0400799, 9.999346, 9.999462 
2.2451514e+3, 2.211469e+2, -864079.9, -858010.4, -78704.016, 0.2428186, 0.93980795, -782282.6, -9436.713, 0.023131557, 9.999323, 9.999472 
2.2452e+3, 2.3114595e+2, -762461.94, -689819.25, -59060.848, 0.16474734, 0.83374393, -656805.0, 18046.254, 0.011994159, 9.999091, 10.000041 
2.245249e+3, 2.4114491e+2, -709466.8, -693702.6, 46797.773, 0.08952862, 0.78318506, -654127.8, -77270.93, 0.0054928027, 9.999121, 9.999328 
2.2453003e+3, 2.511444e+2, -424902.1, -448859.44, 22808.451, -0.038856007, 0.7469118, -411118.1, 67740.625, 0.002050329, 10.00021, 9.9997835 
2.2453511e+3, 2.611432e+2, -321831.06, -480718.78, -101675.76, -0.14288211, 0.71443594, -272242.8, 108626.06, 0.0004876709, 10.000805, 9.998619 
2.2454023e+3, 2.711421e+2, -294993.84, -402587.0, -87594.05, -0.07326076, 0.72161794, -245995.53, 36889.863, 0.000047167257, 10.000301, 9.998698 
2.245454e+3, 2.8114295e+2, -254902.08, -147152.45, 10873.075, 0.030025406, 0.8675848, -146066.19, 38813.57, 0.00000034188096, 9.999059, 10.000406 
2.2455078e+3, 2.9114386e+2, -60455.574, 77354.984, -53864.66, -0.041320343, 0.85098165, 95910.21, 182770.98, 0.0000013302117, 9.99938, 10.001107 
2.2455606e+3, 3.011398e+2, -77002.79, -320920.0, -160015.4, -0.14646007, 0.42362627, 2232.1238, 2232.1238, 0.0000584347, 10.000652, 9.997452 
2.2456092e+3, 3.1114277e+2, 69532.49, -271421.88, 16041.727, -0.32320046, 1.1353235, 70285.58, 70285.58, 0.00025945, 10.0017395, 9.997223 
2.2548401e+3, 1.6110243e+2, -1692889.9, -1602583.5, 69967.11, -0.10765119, 1.2294261, -1564464.8, -203186.94, 0.39765337, 9.997806, 9.999123 
2.2548969e+3, 1.7109956e+2, -1222364.5, -1328177.8, 34231.28, 0.17197654, 1.01324, -1212256.1, 51044.152, 0.29298013, 10.0006075, 9.998971 
2.2549534e+3, 1.8109581e+2, -975740.4, -1142030.5, -23205.818, 0.50192386, 0.742377, -972562.75, 192769.4, 0.21888196, 10.001801, 9.999059 
2.255e+3, 1.9109446e+2, -980714.75, -1036999.8, -23405.027, 0.067540936, 0.63580465, -972254.06, 95093.57, 0.16615056, 10.000562, 9.999686 
2.2550471e+3, 2.0109448e+2, -1077636.8, -1099985.0, -48305.355, -0.31045985, 0.6818479, -1039229.94, -69878.89, 0.12546477, 9.999337, 9.999155 
2.2550996e+3, 2.1109647e+2, -1009088.1, -1024098.0, -102012.55, 0.034236513, 0.96178156, -914304.8, -42966.344, 0.0914258, 9.999209, 9.999043 
2.2551516e+3, 2.2109765e+2, -872324.44, -809475.4, -86567.375, 0.32354406, 1.1722431, -748805.3, 24525.594, 0.062582165, 9.999039, 9.999951 
2.2552009e+3, 2.3109575e+2, -704051.9, -539209.8, -60242.86, 0.3277885, 0.8650054, -519540.6, 155800.55, 0.039919913, 9.998927, 10.001201 
2.2552493e+3, 2.4109334e+2, -861624.06, -883079.4, 47723.734, 0.19710827, 0.6384495, -823437.1, -246079.78, 0.023601582, 9.998598, 9.99827 
2.2552986e+3, 2.510912e+2, -601654.75, -757774.25, 70671.234, -0.25354308, 0.6147735, -574416.1, -95035.85, 0.012405956, 9.999972, 9.9977665 
2.255348e+3, 2.6108927e+2, -406689.13, -557483.4, -123891.75, -0.55841535, 0.6667806, -337055.6, 44346.54, 0.005154125, 10.000401, 9.998281 
2.2554024e+3, 2.710903e+2, -267049.78, -264764.4, -112218.16, -0.12292739, 0.80151415, -153683.13, 129710.74, 0.0013586987, 9.99997, 9.9998 
2.2554551e+3, 2.8109112e+2, -469238.13, -449078.03, -41613.234, 0.20257193, 0.92096645, -416341.38, -230954.14, 0.00015517221, 9.998493, 9.998581 
2.2555049e+3, 2.9108727e+2, -345119.22, -420403.34, -8810.408, -0.27928302, 0.7484274, -344101.88, -256678.98, 0.0000026982873, 9.999057, 9.997803 
2.2555564e+3, 3.010844e+2, 5132.1426, -25945.613, -108517.234, -0.66492707, 0.5717546, 99217.38, 99217.38, 0.000065484004, 10.000165, 9.999694 
2.2556128e+3, 3.1108588e+2, 354452.56, 484489.28, 14144.531, -0.16311619, 0.6730287, 486010.06, 486010.06, 0.00034262822, 10.001106, 10.002707 
2.2648972e+3, 1.710356e+2, -1044498.9, -940437.9, -263276.75, 0.18478304, 0.42576802, -724099.56, 539834.4, 0.44342524, 10.000288, 10.003707 
2.2649468e+3, 1.810431e+2, -1737975.9, -1332697.3, -111492.97, -0.0014911761, 0.7501377, -1304050.3, -138198.97, 0.3585124, 9.995214, 10.000912 
2.2649968e+3, 1.9104356e+2, -1405952.0, -1120439.4, -40065.938, -0.11257649, 0.7386787, -1114923.5, -47074.785, 0.29413474, 9.997004, 10.000736 
2.2650476e+3, 2.0104392e+2, -953783.44, -963324.44, -90.81372, -0.2060575, 0.7066641, -953782.56, 16065.704, 0.24160613, 9.999799, 9.999913 
2.2650984e+3, 2.1104482e+2, -956285.44, -999314.6, -68971.766, -0.010885208, 0.8682073, -905550.6, -33707.848, 0.1940874, 9.999519, 9.999088 
2.2651497e+3, 2.2104506e+2, -854099.9, -888711.8, -23624.402, 0.21606964, 1.0020096, -842120.9, -68278.77, 0.14888066, 9.999489, 9.9992 
2.2652002e+3, 2.3104368e+2, -597837.56, -625485.3, -160951.22, 0.32322398, 0.8791433, -450117.63, 225732.81, 0.108788945, 10.000353, 9.999971 
2.2652502e+3, 2.4104153e+2, -489439.75, -728892.75, -122296.78, 0.3081482, 0.7700166, -438020.28, 139847.61, 0.07581198, 10.001243, 9.998103 
2.2653e+3, 2.5103927e+2, -414829.38, -668791.7, 7446.0503, -0.13701963, 0.730394, -414611.25, 65282.56, 0.048806984, 10.001176, 9.997865 
2.2653489e+3, 2.6103726e+2, -382888.97, -596183.75, -104402.28, -0.4727797, 0.80040276, -340293.28, 41624.05, 0.026684597, 10.000693, 9.997908 
2.2654025e+3, 2.7103752e+2, -128450.1, -224575.23, -194795.06, -0.12109806, 0.87613004, 24124.135, 308039.22, 0.010897145, 10.000949, 9.999658 
2.2654541e+3, 2.8103736e+2, -287179.38, -379598.6, -142942.5, 0.2207148, 0.9198309, -183162.86, 2753.1235, 0.002788968, 9.999785, 9.998456 
2.2655058e+3, 2.910341e+2, -40149.03, -286481.2, 140839.36, -0.16211514, 0.82704514, 23782.74, 111730.17, 0.0003034348, 10.001214, 9.997691 
2.2655585e+3, 3.010319e+2, 204502.95, -49410.535, 129488.22, -0.53578085, 0.7168401, 258889.02, 258889.02, 0.000074942734, 10.002101, 9.998605 
2.2656155e+3, 3.1102836e+2, 421814.97, 278219.3, -256496.63, -0.06883698, 0.6283543, 616373.0, 616373.0, 0.00045627946, 10.002486, 10.000711 
2.2750503e+3, 2.0099719e+2, -852695.06, -889821.5, 17222.04, 0.028750824, 1.1123822, -845936.5, 124374.36, 0.4526298, 10.000954, 10.000258 
2.2750981e+3, 2.1099286e+2, -702129.25, -817380.44, -55558.316, -0.004577777, 0.6844751, -679708.4, 192639.17, 0.38963944, 10.001845, 9.999404 
2.275149e+3, 2.2098899e+2, -883009.7, -1170696.6, -48145.582, 0.13139258, 0.43370813, -875166.1, -100784.77, 0.32267725, 10.000469, 9.996752 
2.2751994e+3, 2.3098837e+2, -894129.06, -1158490.8, -130860.55, 0.20117426, 0.701122, -840309.25, -163916.39, 0.25840095, 9.999943, 9.996373 
2.2752512e+3, 2.4098802e+2, -647066.4, -844800.7, -102115.984, 0.22350343, 1.0245686, -603798.44, -25396.266, 0.20062341, 10.000279, 9.997729 
2.2753046e+3, 2.509882e+2, -396197.7, -443783.1, 14455.927, 0.18141678, 1.015939, -392150.38, 88253.02, 0.14660953, 10.000476, 9.999748 
2.2753538e+3, 2.6098743e+2, -660662.1, -858866.06, -138835.38, -0.09515328, 1.1374925, -589187.25, -206774.7, 0.09444842, 9.999378, 9.996698 
2.2754033e+3, 2.709844e+2, -283476.94, -429539.47, -190334.45, -0.156304, 0.99041826, -152643.61, 131797.45, 0.04983968, 10.000505, 9.998428 
2.2754517e+3, 2.8098223e+2, -351518.4, -307386.28, -205268.81, -0.05204156, 0.8901432, -123000.9, 63459.145, 0.019500945, 9.998956, 9.999324 
2.2755092e+3, 2.9098403e+2, 47226.78, 23334.5, 187053.3, 0.06025236, 1.0537615, 222715.03, 311153.13, 0.004786881, 10.000719, 10.000031 
2.2755645e+3, 3.0098176e+2, -230235.22, -706195.75, 60019.934, -0.18746419, 0.86947566, -222783.2, -222783.2, 0.0007184054, 10.001136, 9.994516 
2.2756158e+3, 3.1097242e+2, -389835.78, -1090273.6, -20989.3, -0.33762446, 0.9860136, -389207.38, -389207.38, 0.0007782504, 10.001299, 9.991802 
2.2852454e+3, 2.4093586e+2, -435247.6, -52597.973, -63420.438, -0.3457846, 0.9246137, -42360.547, 536556.94, 0.45869297, 9.997194, 10.008198 
2.2852997e+3, 2.5093278e+2, -846386.94, -947830.06, 22252.969, -0.23810908, 0.8137963, -841720.1, -360771.22, 0.36361384, 9.998481, 9.99732 
2.2853525e+3, 2.6093018e+2, -365482.34, -628264.1, -165573.92, -0.29152322, 0.8602724, -285500.84, 97476.65, 0.26167566, 10.001036, 9.997598 
2.2854064e+3, 2.7092835e+2, 205894.53, -171960.36, -81935.95, -0.045456156, 0.7945955, 222896.88, 507891.56, 0.1640845, 10.004355, 9.9985895 
2.2854531e+3, 2.8092724e+2, 172840.38, -197303.14, -197627.58, -0.0024920956, 0.8805637, 258523.52, 445527.34, 0.0825175, 10.003338, 9.998061 
2.28551e+3, 2.909282e+2, 407939.75, 54748.105, 59977.51, -0.06338331, 1.0873516, 417846.97, 506838.3, 0.030766618, 10.003777, 9.998879 
2.2855686e+3, 3.0092454e+2, 150284.27, -305499.63, -201350.1, 0.05724414, 0.7980241, 226491.97, 226491.97, 0.009050315, 10.002682, 9.996572 
2.285617e+3, 3.1092075e+2, -48654.137, -165881.81, 342018.3, -0.27887344, 1.096991, 239736.5, 239736.5, 0.0039658006, 10.000302, 9.99863 
2.2954133e+3, 2.708771e+2, 347623.34, 43824.44, -16102.656, 0.16181132, 1.0511018, 348474.47, 633974.7, 0.434636, 10.00723, 10.000165 
2.2954577e+3, 2.8087357e+2, -882548.75, -1289141.5, -502560.2, 0.043172244, 0.9204041, -543723.25, -356187.8, 0.25417694, 9.998445, 9.992797 
2.2955088e+3, 2.9087067e+2, -26409.875, -586903.6, 128297.29, -0.6158825, 1.0581363, 1561.5242, 91128.52, 0.12176202, 10.002795, 9.994795 
2.2955713e+3, 3.0086407e+2, -333452.53, -43207.598, -306895.06, -0.033340678, 0.6429333, 151147.64, 151147.64, 0.05397266, 9.997389, 10.000845 
2.2956209e+3, 3.108709e+2, 958058.25, 2308225.8, 149701.1, -0.04364015, 0.6687485, 2324624.8, 2324624.8, 0.031368412, 9.998891, 10.016694 
2.3055176e+3, 2.9081702e+2, -234338.63, 324240.16, -47300.215, -0.09715425, 1.0011088, 328217.22, 418315.13, 0.3609511, 9.9953575, 10.006812 
2.3055798e+3, 3.0082682e+2, 1192483.1, 516564.53, 294171.56, -0.18601501, 1.2159729, 1302578.9, 1302578.9, 0.21432976, 10.010546, 9.999398 
2.305614e+3, 3.108153e+2, -682160.9, -2067012.9, -403146.78, -0.9024291, 1.6747925, -573349.6, -573349.6, 0.16612855, 10.002215, 9.985219 
2.3515327e+3, 2.7548617e+2, -788705.75, -162842.95, -393145.53, -0.6216541, -0.60771054, 26708.959, 266905.22, 0.45005205, 9.9936075, 10.004017 
2.3511155e+3, 2.854849e+2, 687713.44, -39292.85, -276471.44, -0.2354708, -0.039621554, 780906.06, 923115.56, 0.35355148, 10.009774, 9.99589 
2.3507251e+3, 2.954794e+2, -822623.8, -133112.78, 833871.7, -0.26311088, -0.39080533, 424461.13, 468726.16, 0.27700073, 9.99342, 10.003047 
2.3503396e+3, 3.0546603e+2, -25728.744, 612483.9, -656110.94, -0.50711954, -0.9468869, 1022973.6, 1022973.6, 0.22279851, 9.998245, 10.006788 
2.3655774e+3, 1.7596869e+2, -2278643.8, -1420476.8, 163028.9, 0.6319031, -0.40850702, -1390549.3, -175057.05, 0.43640998, 9.990724, 10.002385 
2.3651575e+3, 1.8596439e+2, -908891.7, -1255790.5, 72618.09, -1.1182072, 0.07122407, -894303.6, 223238.17, 0.37759894, 10.003236, 9.996712 
2.3647568e+3, 1.959535e+2, -1062578.3, -1349693.0, 167782.3, -0.5406493, -0.025763733, -985319.9, 34326.97, 0.33353588, 10.000638, 9.996705 
2.364368e+3, 2.0594165e+2, -1038941.5, -810029.9, -74985.414, 0.7394375, -0.31651074, -787653.9, 134096.63, 0.30097756, 9.997805, 10.001405 
2.3639615e+3, 2.1592776e+2, -1625422.6, -1024765.06, 132501.61, 0.37355205, -1.1415706, -996834.7, -172969.42, 0.27814174, 9.993008, 10.001356 
2.3635432e+3, 2.2592756e+2, -619658.9, -1233103.8, -172764.83, -0.9533477, -0.16450773, -574349.6, 151518.17, 0.261044, 10.002932, 9.994462 
2.3631391e+3, 2.3591247e+2, -551511.7, -1040625.44, -242713.94, -0.82186687, -0.4448917, -451513.63, 176519.34, 0.24562545, 10.002194, 9.995539 
2.3627523e+3, 2.4590598e+2, -116504.67, -264028.34, -104317.34, 1.5323995, -0.12892263, -62505.34, 467594.4, 0.23008406, 10.002657, 10.000442 
2.3623337e+3, 2.55898e+2, -1546889.8, -664990.0, 136300.31, 0.5681788, -0.18463613, -644404.8, -212234.19, 0.20982926, 9.990336, 10.002443 
2.3619153e+3, 2.6589277e+2, -896553.75, 99047.84, 44524.477, -0.5702114, -0.5032854, 101035.06, 435255.4, 0.1745718, 9.991875, 10.007014 
2.3615256e+3, 2.7588925e+2, -790971.94, -706613.3, 110395.45, -0.08363784, -0.4662501, -630613.7, -394356.88, 0.12478268, 9.996589, 9.99776 
2.3611209e+3, 2.8588122e+2, 558395.94, -38765.18, -626525.0, 0.1793115, -0.24318695, 953849.94, 1092182.9, 0.08184078, 10.00566, 9.997572 
2.360716e+3, 2.958766e+2, -140627.23, 64737.895, 65852.695, -0.030584998, -0.25313708, 84040.11, 124412.86, 0.055237863, 9.998498, 10.001222 
2.3603289e+3, 3.058632e+2, -495326.97, -659203.7, 421749.97, -0.54213846, -0.45274982, -147629.52, -147629.52, 0.039580204, 9.998835, 9.9961815 
2.376374e+3, 1.563926e+2, -1523209.1, -1128012.8, 179272.58, -0.21354276, -0.24203716, -1058808.1, 348510.63, 0.4091622, 9.996392, 10.00445 
2.3759729e+3, 1.6637363e+2, -784127.5, -1432850.5, 195002.28, 0.58512145, -1.236002, -730023.3, 579485.6, 0.31914034, 10.006921, 9.995285 
2.3755701e+3, 1.7637585e+2, -1337604.6, -1694411.3, -48677.965, 0.6379076, 0.19254418, -1331082.9, -119574.125, 0.25440004, 10.000345, 9.995949 
2.3751643e+3, 1.863688e+2, -998693.56, -885502.9, -51320.99, 0.39990208, 0.38631576, -865698.75, 247883.56, 0.20803122, 9.999588, 10.001532 
2.3747593e+3, 1.9635881e+2, -635534.06, -748301.94, 67895.734, 0.23076262, 0.023488265, -603662.8, 412011.7, 0.17323056, 10.002054, 10.000686 
2.374354e+3, 2.063496e+2, -654410.1, -824778.75, 38146.105, 0.0008730617, -0.0664474, -646259.06, 271500.47, 0.14628343, 10.001656, 9.999359 
2.3739493e+3, 2.1634096e+2, -699984.1, -753669.56, -76497.234, -0.042960815, -0.10877448, -645756.75, 174081.45, 0.1255341, 10.000244, 9.99983 
2.3735425e+3, 2.2633116e+2, -722046.1, -803238.1, 4487.971, -0.22460619, -0.23005144, -721798.8, 134.50139, 0.10829949, 9.999741, 9.998977 
2.3731299e+3, 2.3631877e+2, -649976.56, -708985.1, 84813.84, -0.9520463, -0.5207612, -589681.7, 34376.66, 0.09199208, 9.999538, 9.999061 
2.372718e+3, 2.46311e+2, -53013.8, -183831.19, -45849.977, -1.2166559, -0.49690408, -38544.35, 487588.97, 0.07586676, 10.002357, 10.000844 
2.3723152e+3, 2.5630528e+2, 403282.94, -161754.45, -65021.32, -0.81282383, -0.19663233, 410668.7, 838852.8, 0.059159193, 10.006154, 9.998363 
2.3719126e+3, 2.6629758e+2, 690161.25, 244665.4, -142265.72, -0.43074295, -0.14914559, 731716.5, 1061973.9, 0.04041217, 10.006332, 10.000479 
2.3715167e+3, 2.7628735e+2, -272105.0, -583286.4, 103056.99, -0.18544292, -0.3156137, -241069.84, -8712.578, 0.021718519, 10.000865, 9.996451 
2.3711133e+3, 2.8627735e+2, 29098.5, -448279.2, -305519.3, -0.14794582, -0.12989509, 178113.69, 312569.47, 0.009489307, 10.002599, 9.995821 
2.3707125e+3, 2.9626963e+2, 721434.8, 303386.38, 82336.79, -0.0921968, -0.06556048, 737066.94, 773598.6, 0.004343594, 10.005419, 9.999269 
2.370324e+3, 3.0625772e+2, -482959.38, -394157.22, 179436.33, -0.13361889, -0.16203205, -253710.13, -253710.13, 0.0025753889, 9.997594, 9.99824 
2.3867744e+3, 1.4680806e+2, -1779843.1, -1714500.9, 36210.563, 0.51489466, -0.33394802, -1698401.0, -197140.52, 0.3896823, 9.998037, 9.9988 
2.386366e+3, 1.5680608e+2, -1480444.5, -1716111.4, -164528.28, -0.16379005, 0.30379045, -1395906.4, 7365.213, 0.27836236, 10.000123, 9.997268 
2.3859599e+3, 1.6679277e+2, -1411140.6, -1847661.4, -80171.336, -0.30653733, 0.16650268, -1396882.1, -91475.49, 0.19862524, 10.000981, 9.995154 
2.3855554e+3, 1.7677648e+2, -1227112.5, -1705916.3, 53060.258, -0.17699358, -0.2173436, -1221303.0, -13724.402, 0.1461588, 10.00147, 9.9952965 
2.3851496e+3, 1.8676749e+2, -999275.5, -924762.06, 127142.67, -0.28482798, -0.14408953, -829529.9, 280140.9, 0.11113541, 9.999786, 10.000908 
2.3847446e+3, 1.967609e+2, -1353086.9, -1104406.3, -8650.332, -0.42721194, -0.13368951, -1104105.8, -92371.81, 0.08556882, 9.9967575, 10.000391 
2.3843442e+3, 2.0675364e+2, -1253364.1, -1153011.9, -2156.944, -0.17915387, -0.034371603, -1152965.5, -239159.92, 0.065839775, 9.9974785, 9.998976 
2.383943e+3, 2.1674594e+2, -860421.75, -925740.75, -19807.775, 0.099607974, 0.07461733, -854884.5, -39001.348, 0.050802168, 9.999511, 9.998924 
2.3835391e+3, 2.2674005e+2, -555649.44, -402752.75, -46730.25, 0.20634297, 0.20307358, -389601.63, 328336.9, 0.038884565, 9.999616, 10.001827 
2.3831357e+3, 2.3673393e+2, -770555.3, -678082.25, -124057.37, 0.44249535, 0.2636622, -591925.25, 28068.63, 0.028499383, 9.998395, 9.999819 
2.3827265e+3, 2.4672262e+2, -526766.56, -712070.3, -90635.45, 0.2424915, 0.0353321, -489806.88, 32293.594, 0.019239577, 10.000302, 9.9979515 
2.3823187e+3, 2.5670737e+2, -433924.88, -919719.9, 22762.887, -0.17886315, -0.36571068, -432860.6, -8614.508, 0.011432521, 10.00166, 9.995176 
2.3819119e+3, 2.6669708e+2, 216490.88, -230331.08, -167031.64, -0.26182187, -0.30719775, 272027.97, 598372.2, 0.005416997, 10.004064, 9.998062 
2.3815091e+3, 2.7668768e+2, -90751.67, -555743.06, -9108.275, -0.3248818, -0.26674762, -90573.32, 137860.88, 0.001679893, 10.002386, 9.995922 
2.3811045e+3, 2.8667518e+2, 101217.16, -471222.22, -56625.46, -0.5473663, -0.25980487, 106764.76, 237324.95, 0.00032890253, 10.003317, 9.995339 
2.3807085e+3, 2.966678e+2, -105239.99, -403846.1, 194493.14, -0.2674534, 0.010789274, -9351.3125, 23287.063, 0.000101582686, 10.0009575, 9.99663 
2.3803179e+3, 3.066583e+2, -689063.06, -106644.945, -64461.88, 0.17326847, 0.07603066, -99595.64, -99595.64, 0.00014345827, 9.994515, 10.00171 
2.3971568e+3, 1.3721718e+2, -957191.2, -1814845.3, 213954.83, -0.120998755, -0.33828956, -906780.0, 688477.25, 0.42782584, 10.010468, 9.992924 
2.396758e+3, 1.4721024e+2, -1561703.4, -1521933.8, -27925.674, -0.23382154, -0.0019059856, -1507536.6, -10212.721, 0.2998544, 9.999035, 9.999747 
2.39636e+3, 1.5719919e+2, -1358543.5, -1482825.9, -60050.523, -0.037384037, -0.2808474, -1334269.5, 65161.92, 0.19614406, 10.000235, 9.998879 
2.3959568e+3, 1.6719069e+2, -1073784.5, -1163489.3, -94201.805, 0.009927139, -0.31101382, -1014302.25, 287208.22, 0.12585048, 10.001134, 9.999991 
2.3955512e+3, 1.7718253e+2, -1005306.25, -1217745.9, 28586.3, 0.0043109115, -0.3214167, -1001526.9, 202059.27, 0.083471425, 10.001452, 9.998687 
2.3951446e+3, 1.8717329e+2, -1160855.3, -1363441.6, 1571.6382, -0.013600207, -0.22785233, -1160843.1, -55160.06, 0.057587944, 10.000167, 9.997572 
2.3947378e+3, 1.971637e+2, -1424610.4, -1405726.0, -71055.805, -0.06799468, -0.16570514, -1343487.9, -335701.0, 0.03970386, 9.99741, 9.998001 
2.3943354e+3, 2.0715591e+2, -1050803.9, -862828.5, 72989.09, -0.06499622, -0.12552716, -837815.75, 72049.89, 0.026570952, 9.998049, 10.000694 
2.3939341e+3, 2.1714868e+2, -653117.56, -692158.5, 87236.42, -0.044368107, -0.10511439, -583244.3, 228692.05, 0.017417854, 10.000388, 10.000108 
2.3935284e+3, 2.2714163e+2, -506998.78, -582982.5, -96994.14, -0.09828402, -0.023813946, -440821.3, 273182.06, 0.011141793, 10.000816, 9.999948 
2.3931219e+3, 2.3713349e+2, -543868.56, -694100.75, -150733.97, -0.16144201, 0.029493166, -450571.0, 165509.28, 0.0065593217, 10.000498, 9.998663 
2.3927155e+3, 2.4712367e+2, -261322.66, -431984.38, -78768.41, -0.17280693, -0.080741376, -230525.06, 287645.7, 0.0032030866, 10.001483, 9.999283 
2.3923127e+3, 2.5711256e+2, -297261.9, -695905.5, 112325.47, -0.17849769, -0.22092542, -267790.78, 152482.53, 0.0011282732, 10.00194, 9.996533 
2.3919082e+3, 2.6710105e+2, -72316.24, -613511.25, -12720.611, -0.18842334, -0.1768499, -72017.41, 250364.64, 0.00023273825, 10.003156, 9.995829 
2.391505e+3, 2.7708852e+2, 56539.78, -441786.34, 56476.793, -0.3241826, -0.26091763, 62860.297, 287362.3, 0.000018051116, 10.003216, 9.996255 
2.3910998e+3, 2.8707469e+2, 90002.21, -233652.0, 16601.186, -0.5248236, -0.53533375, 90851.51, 217491.28, 0.000004039042, 10.002185, 9.997484 
2.3907019e+3, 2.9706737e+2, -209189.48, -380712.38, 208781.27, -0.1644536, -0.3302283, -69241.734, -40525.9, 0.00001362104, 9.999819, 9.997343 
2.3903018e+3, 3.070592e+2, -455667.97, 100154.266, -281099.75, -0.096968316, -0.04948144, 217529.95, 217529.95, 0.00005414364, 9.995638, 10.002649 
2.4075674e+3, 1.2763426e+2, -1679942.6, -1726781.4, 67578.96, 0.36800128, 0.18854798, -1631840.1, 57323.957, 0.49043512, 10.000273, 9.998936 
2.4071546e+3, 1.3762406e+2, -1335628.3, -1626756.8, 88647.7, -0.20690994, 0.007434834, -1310759.6, 280495.94, 0.36336103, 10.0032425, 9.997722 
2.4067523e+3, 1.476119e+2, -1308928.3, -1601658.9, 211621.88, -0.14332269, -0.18903892, -1197987.1, 295394.5, 0.24041095, 10.00238, 9.997612 
2.406353e+3, 1.5759957e+2, -1554848.1, -1652365.4, 29222.307, 0.078271076, -0.4051159, -1546761.8, -151248.2, 0.14389461, 9.999225, 9.998086 
2.4059497e+3, 1.6759293e+2, -1348069.3, -1095845.4, -98259.55, 0.15427193, -0.3250522, -1062085.0, 235488.47, 0.08188297, 9.998214, 10.001828 
2.4055447e+3, 1.7758754e+2, -1435810.4, -1285418.5, -156404.92, 0.20732188, -0.23533456, -1187072.1, 12543.547, 0.047678713, 9.99774, 10.000038 
2.4051377e+3, 1.8757837e+2, -1336044.4, -1472567.3, -96749.55, 0.15748683, -0.19905365, -1285899.4, -184189.9, 0.028905774, 9.999116, 9.997324 
2.4047302e+3, 1.9756816e+2, -1040321.94, -1291578.3, 18173.8, 0.079601385, -0.15078735, -1039014.2, -35194.633, 0.017015342, 10.000414, 9.997338 
2.4043263e+3, 2.0756018e+2, -855940.75, -771244.5, 152187.67, -0.050762452, -0.0931931, -655622.8, 250279.44, 0.00915297, 9.999462, 10.000631 
2.4039248e+3, 2.1755268e+2, -1098679.5, -973295.0, 11577.207, -0.1085338, -0.08909592, -972234.94, -164257.75, 0.0045936005, 9.997668, 9.9994755 
2.4035186e+3, 2.2754349e+2, -794230.1, -855201.75, -124354.22, -0.2871733, -0.14491297, -696679.44, 13385.113, 0.0022051786, 9.999451, 9.998714 
2.4031106e+3, 2.3753253e+2, -482983.16, -768729.4, -103590.805, -0.5467472, -0.26604414, -449380.25, 162787.72, 0.0009056362, 10.001404, 9.997719 
2.402707e+3, 2.4752495e+2, 18684.557, -166187.95, -72723.016, -0.42766497, -0.19585893, 43862.492, 558098.56, 0.00023937336, 10.002955, 10.00034 
2.4023077e+3, 2.5751784e+2, -222454.02, -616445.6, -10082.601, -0.12118971, -0.07330121, -222196.16, 194102.14, 0.000025130046, 10.002291, 9.996928 
2.4019033e+3, 2.6750538e+2, -234267.83, -792177.25, -32002.277, -0.17869236, -0.084268026, -232438.14, 85977.85, 0.00000030344088, 10.002548, 9.994873 
2.4014986e+3, 2.7749103e+2, -353961.25, -607742.7, 56697.906, -0.41628608, -0.32218564, -341870.28, -121316.805, 0.000000006555133, 10.000274, 9.996563 
2.4010947e+3, 2.874782e+2, -140416.42, -82156.79, 47253.723, -0.39847118, -0.67645115, -55775.7, 66903.66, 0.00000087941476, 9.999546, 9.999774 
2.4006943e+3, 2.9746985e+2, -803482.0, -719694.56, 170986.75, -0.08251775, -0.6679688, -585544.06, -560780.75, 0.0000072209577, 9.99605, 9.9968195 
2.4002859e+3, 3.074639e+2, -490661.13, 29079.984, -164866.5, -0.5343497, -0.14804852, 76965.29, 76965.29, 0.00003484927, 9.995752, 10.00201 
2.4175537e+3, 1.2803374e+2, -1606644.9, -1429930.5, 15472.22, -0.25000972, -0.4570057, -1428586.1, 256645.94, 0.44509998, 9.998979, 10.003017 
2.417155e+3, 1.3802657e+2, -1290224.4, -1499535.9, 97498.56, 0.22475377, -0.6659766, -1251845.9, 335444.84, 0.31930807, 10.002911, 9.998989 
2.4167505e+3, 1.4801694e+2, -1534575.4, -2189620.8, 79344.02, 0.21592207, -0.38196793, -1525101.8, -35700.098, 0.20041417, 10.00231, 9.993491 
2.4163443e+3, 1.5800564e+2, -1712413.1, -2033647.0, -36873.285, -0.004792377, -0.10226034, -1708235.0, -316698.63, 0.110025235, 9.999488, 9.995331 
2.4159397e+3, 1.6799772e+2, -1287596.8, -1075980.1, -113760.29, 0.10980663, -0.057191085, -1026428.25, 267185.34, 0.054970514, 9.99871, 10.001665 
2.4155356e+3, 1.7799069e+2, -1341461.0, -1181771.6, -131792.08, 0.28519872, -0.11797368, -1107524.4, 88149.17, 0.027314784, 9.998132, 10.000564 
2.4151284e+3, 1.8798251e+2, -1116378.8, -1102848.4, -32276.328, 0.10605808, -0.15223996, -1076635.9, 21114.584, 0.013986388, 9.999471, 9.9997 
2.4147205e+3, 1.9797365e+2, -882993.3, -1084335.0, 71772.41, -0.20671046, -0.17951073, -860028.0, 139809.03, 0.006556314, 10.000908, 9.998526 
2.4143168e+3, 2.0796576e+2, -959982.44, -1111094.0, 66907.36, -0.19069298, 0.0097507825, -934616.1, -32694.76, 0.002469395, 9.999984, 9.998055 
2.4139151e+3, 2.1795776e+2, -1111014.5, -1157323.6, -5101.0117, -0.11477725, 0.22411713, -1110459.3, -306451.44, 0.00078321603, 9.998299, 9.997924 
2.4135113e+3, 2.2794601e+2, -673844.0, -728037.75, -17452.078, -0.21197346, -0.070825405, -668710.2, 37406.645, 0.00023610769, 9.999935, 9.999364 
2.413107e+3, 2.3793271e+2, -278271.78, -608713.75, 19900.195, -0.39452073, -0.49234, -277077.66, 331159.44, 0.000047296035, 10.002502, 9.998288 
2.4127048e+3, 2.4792445e+2, -12631.7, -328833.84, -58786.668, -0.20133418, -0.4129056, -2056.095, 508257.25, 0.0000020598873, 10.003359, 9.999045 
2.4123049e+3, 2.5791734e+2, -75705.74, -472791.1, -53009.37, 0.08469919, -0.19374384, -68751.01, 343628.56, 0.0, 10.002956, 9.997581 
2.411898e+3, 2.67906e+2, -162777.77, -475945.47, -69123.31, -0.14544842, -0.26928526, -148199.31, 166287.52, 0.0, 10.001854, 9.997367 
2.4114892e+3, 2.7789384e+2, -229917.78, -279440.6, 24616.18, -0.57589483, -0.50410616, -219763.81, -3161.3872, 0.0, 9.999873, 9.999035 
2.4110857e+3, 2.8788635e+2, -251767.2, -11765.397, -29047.322, -0.33159706, -0.484797, -8299.853, 110375.945, 0.0000001537889, 9.998115, 10.001028 
2.4106863e+3, 2.9788235e+2, -577793.4, -464746.8, 129442.46, 0.20590654, -0.118895076, -380024.8, -359308.56, 0.000003139397, 9.996797, 9.998249 
2.4102786e+3, 3.0786678e+2, 3042.1592, 219620.33, -5203.5405, -0.2576989, -0.6030923, 219745.28, 219745.28, 0.000017282315, 9.9990835, 10.001812 
2.4275467e+3, 1.2843305e+2, -1485320.3, -1473378.3, 48253.14, -0.15888794, -0.8624464, -1430728.1, 250587.03, 0.4141129, 10.001046, 10.001346 
2.4271479e+3, 1.3842966e+2, -1433984.6, -1654843.5, -153556.4, 0.12224921, -0.5406395, -1355273.3, 228072.7, 0.28877336, 10.001701, 9.998387 
2.426744e+3, 1.4842172e+2, -1498853.0, -1909678.5, -128283.63, 0.16403353, -0.2544242, -1462085.9, 23349.643, 0.17287979, 10.001355, 9.995929 
2.4263372e+3, 1.584121e+2, -1442869.4, -1786387.5, 48101.277, 0.08255202, -0.011005786, -1436261.1, -48714.836, 0.08747846, 10.0006895, 9.996524 
2.4259314e+3, 1.684024e+2, -1150613.5, -1163360.0, 28391.58, 0.14763346, -0.08277845, -1127888.6, 161752.88, 0.038149297, 10.000295, 10.000285 
2.4255267e+3, 1.7839319e+2, -1166527.3, -1189474.8, -33462.336, 0.29071993, -0.21849152, -1142626.3, 49100.53, 0.01570925, 9.999717, 9.999738 
2.4251203e+3, 1.8838508e+2, -851497.44, -925487.56, 3368.0044, 0.062933706, -0.25589824, -851344.44, 242457.53, 0.0064830934, 10.001054, 10.000153 
2.4247137e+3, 1.9837692e+2, -727688.75, -1034706.2, -71787.07, -0.22293542, -0.262056, -711732.7, 284145.88, 0.0021827125, 10.002101, 9.998289 
2.4243093e+3, 2.0836836e+2, -828871.94, -1176760.8, -76742.25, -0.20354709, -0.08025747, -812695.25, 85274.38, 0.00044835047, 10.001482, 9.996867 
2.4239062e+3, 2.1835943e+2, -977925.44, -1183810.0, -5456.653, -0.07872225, 0.13937259, -977780.9, -177714.23, 0.000068581576, 9.999675, 9.997073 
2.4235041e+3, 2.2834788e+2, -569577.56, -615809.6, 87685.11, -0.13242985, -0.13307826, -502012.7, 200159.92, 0.0000096515805, 10.000531, 9.999799 
2.423103e+3, 2.3833503e+2, -493446.06, -719500.94, 53400.164, -0.1728211, -0.5597323, -481466.4, 122820.41, 0.00000040342232, 10.001147, 9.998174 
2.4227011e+3, 2.4832624e+2, -356300.88, -559001.75, -10279.308, -0.024290958, -0.49950495, -355780.94, 150588.89, 0.0, 10.001324, 9.998429 
2.4222998e+3, 2.5831845e+2, -555064.6, -707993.9, 9728.41, 0.16474475, -0.31012118, -554448.25, -146002.44, 0.0, 9.999725, 9.997547 
2.4218914e+3, 2.6830807e+2, -261220.3, -322839.53, -59896.86, -0.1460038, -0.4211037, -224673.66, 85871.12, 0.0, 10.000366, 9.999099 
2.421481e+3, 2.7829745e+2, -313294.47, -328142.63, -106676.195, -0.58506685, -0.63089114, -213784.33, -1139.2745, 0.0, 9.999385, 9.998948 
2.4210764e+3, 2.8829306e+2, -101921.12, 47268.51, -206237.83, -0.31476277, -0.2937765, 191987.23, 306674.7, 0.0000000009564638, 9.999346, 10.00077 
2.4206777e+3, 2.9829103e+2, -620692.94, -441551.97, -11963.017, 0.35996607, 0.21314439, -440756.63, -424049.78, 0.0000004799063, 9.99645, 9.998563 
2.4202703e+3, 3.082704e+2, 17484.79, 168988.58, -219628.06, -0.3004721, -0.96133554, 325561.53, 325561.53, 0.0000055147566, 9.999519, 10.001232 
2.4375395e+3, 1.2883645e+2, -1712044.4, -2042681.6, 23825.666, -0.27550367, -0.72989494, -1710336.4, -32971.516, 0.39271495, 10.000903, 9.996498 
2.4371369e+3, 1.388316e+2, -1494782.3, -1757878.0, -121169.92, -0.419427, -0.13039356, -1447481.0, 131942.97, 0.26710206, 10.001446, 9.99769 
2.4367344e+3, 1.4882529e+2, -1140665.3, -1103915.8, -138807.94, -0.14361215, -0.066544354, -982271.6, 499214.03, 0.15331793, 10.001329, 10.001941 
2.4363308e+3, 1.588181e+2, -1275799.4, -1352544.8, 2461.8184, 0.14452767, -0.12799557, -1275720.5, 107833.58, 0.07196278, 10.000416, 9.999644 
2.4359241e+3, 1.688069e+2, -1284009.1, -1483456.1, -18932.443, 0.16318752, -0.29636395, -1282227.9, 3434.6128, 0.027363949, 10.0004635, 9.997976 
2.4355169e+3, 1.7879495e+2, -1263653.4, -1443198.8, -13704.892, 0.086160086, -0.48159963, -1262613.3, -74835.02, 0.009079448, 9.999973, 9.997847 
2.435113e+3, 1.8878613e+2, -916962.3, -1101479.6, 56245.668, 0.011085725, -0.4339834, -901168.94, 188695.67, 0.002868925, 10.001247, 9.998833 
2.43471e+3, 1.9877762e+2, -686133.0, -1061292.1, -52412.895, -0.093795255, -0.34999233, -678948.06, 313000.34, 0.00059867656, 10.002566, 9.997883 
2.4343039e+3, 2.0876691e+2, -713733.06, -1031324.0, -131471.94, -0.12907717, -0.42223647, -666371.2, 227685.23, 0.000045539302, 10.00184, 9.99771 
2.4338982e+3, 2.1875593e+2, -805568.0, -1014833.2, 1836.1307, -0.15493241, -0.48135772, -805551.94, -9384.645, 0.0000022398012, 10.000456, 9.997845 
2.4334978e+3, 2.2874798e+2, -512730.6, -609641.6, 136704.69, -0.08070653, -0.40187863, -416147.8, 282094.1, 0.000000052409952, 10.001001, 9.9996195 
2.4330989e+3, 2.387402e+2, -336260.7, -532586.9, 74166.08, -0.011295748, -0.32050058, -311392.9, 288919.97, 0.0, 10.001716, 9.999182 
2.4326935e+3, 2.4873199e+2, -337507.63, -394959.4, -31528.64, -0.07822908, -0.31802505, -323581.06, 178810.67, 0.0, 10.000735, 9.999869 
2.4322878e+3, 2.5872362e+2, -547779.5, -587412.25, 43397.863, -0.19518735, -0.30839357, -519887.78, -115414.34, 0.0, 9.999193, 9.998634 
2.4318826e+3, 2.6871344e+2, -397678.6, -549635.44, -11531.063, -0.23627639, -0.32739413, -396808.53, -90234.64, 0.0, 10.000016, 9.99776 
2.4314773e+3, 2.7870286e+2, -96498.67, -342819.34, -114152.81, -0.25465676, -0.3776903, -51732.44, 156945.34, 0.0, 10.001269, 9.997955 
2.4310698e+3, 2.886925e+2, 144298.6, -16294.555, -246754.36, -0.26421118, -0.48763278, 323492.38, 434265.53, 0.0, 10.001699, 9.999254 
2.4306655e+3, 2.9868355e+2, 78966.92, -110608.59, -71074.98, -0.11026717, -0.54778385, 102654.36, 115508.77, 0.000000008678429, 10.001162, 9.998581 
2.4302673e+3, 3.0867648e+2, 291362.8, 111998.195, -451793.8, 0.05351306, -0.27254558, 662289.4, 662289.4, 0.0000009202062, 10.001897, 9.999846 
2.4479319e+3, 1.192484e+2, -1725143.6, -2601594.3, 146382.45, 0.12889694, -0.46215492, -1701341.6, 69975.945, 0.4945417, 10.004111, 9.99185 
2.4475305e+3, 1.2923776e+2, -1685490.4, -1760994.3, -51314.652, -0.42541075, -0.49939024, -1659536.8, 13901.647, 0.3775347, 10.000051, 9.9988985 
2.4471313e+3, 1.3923249e+2, -1444620.8, -1520975.6, 3466.3987, -0.29354027, -0.15271716, -1444463.8, 131031.9, 0.25111946, 10.00084, 9.999692 
2.446727e+3, 1.4922614e+2, -1230779.1, -1119390.6, -183147.11, -0.12419846, -0.16412033, -983656.8, 493898.5, 0.13882844, 10.000432, 10.002195 
2.4463223e+3, 1.5921898e+2, -1406907.3, -1390012.0, -281391.1, 0.13096805, -0.26422134, -1116941.8, 262679.4, 0.060861234, 9.999405, 9.999898 
2.4459162e+3, 1.6920882e+2, -1270719.5, -1476203.8, -229834.31, 0.152842, -0.3685652, -1121708.3, 160011.27, 0.02025213, 10.000664, 9.997888 
2.4455097e+3, 1.7919779e+2, -1025739.5, -1363543.6, -128843.6, 0.10939485, -0.4623866, -982206.7, 201621.2, 0.0052852775, 10.001791, 9.997517 
2.4451059e+3, 1.8918885e+2, -1051380.1, -1224451.8, 212.88806, -0.0051708245, -0.3989409, -1051379.9, 34537.84, 0.0012089658, 10.00059, 9.998322 
2.4447028e+3, 1.991801e+2, -1225731.0, -1332441.3, -47799.484, -0.056077126, -0.29178008, -1207451.1, -219445.05, 0.00012403581, 9.998959, 9.997752 
2.4442978e+3, 2.0916912e+2, -813322.9, -996726.0, -115942.23, -0.055341437, -0.4520575, -757200.94, 132913.56, 0.000001917801, 10.000854, 9.998373 
2.4438925e+3, 2.191577e+2, -563633.8, -882141.4, -9910.423, -0.026014514, -0.6217085, -563325.75, 228900.31, 0.000000018702426, 10.002074, 9.99796 
2.4434912e+3, 2.2915083e+2, -583592.9, -644297.8, 133026.58, -0.017384963, -0.45376393, -477499.97, 216789.61, 0.0, 10.000493, 9.999615 
2.4430913e+3, 2.3914473e+2, -922994.9, -816792.0, 71324.414, 0.022041695, -0.21815358, -780972.5, -184627.1, 0.0, 9.997727, 9.999148 
2.4426846e+3, 2.4913672e+2, -661470.9, -467633.44, -93703.92, -0.14751066, -0.25663236, -429742.44, 68681.29, 0.0, 9.99825, 10.000518 
2.4422769e+3, 2.5912818e+2, -738051.4, -721107.8, -59270.48, -0.36048812, -0.326301, -669706.75, -269198.75, 0.0, 9.998144, 9.998214 
2.441874e+3, 2.6911885e+2, -555048.1, -708162.75, 20211.375, -0.27031887, -0.21458913, -552425.1, -249822.08, 0.0, 9.9993515, 9.996975 
2.4414724e+3, 2.7910846e+2, -450503.28, -641767.8, -8240.174, -0.041391015, -0.16460119, -450148.94, -245441.88, 0.0, 9.999454, 9.996796 
2.4410637e+3, 2.8909293e+2, 29916.318, -181188.03, -89967.02, -0.23327912, -0.72090524, 63055.63, 169904.05, 0.0, 10.001445, 9.9982195 
2.4406548e+3, 2.990786e+2, -248643.94, -452625.9, 100383.75, -0.5543305, -1.1836439, -207529.86, -198552.03, 0.0, 9.999792, 9.996907 
2.440262e+3, 3.090805e+2, -364387.8, -267550.13, 41676.395, 0.1251524, 0.035565265, -252083.86, -252083.86, 0.00000009984614, 9.9980545, 9.998922 
2.4579266e+3, 1.19644694e+2, -1525524.9, -1626207.3, -167456.98, -0.09623391, 0.036856595, -1401006.0, 366455.6, 0.48539782, 10.002668, 10.000137 
2.4575222e+3, 1.2963703e+2, -1416018.4, -1187179.0, 19964.105, -0.49852684, -0.34528822, -1185450.4, 484080.84, 0.36593348, 10.000083, 10.004701 
2.4571274e+3, 1.3963354e+2, -1413696.9, -1341771.8, -1826.6509, -0.013124046, -0.31239265, -1341725.4, 229832.08, 0.23856215, 10.000223, 10.001563 
2.4567202e+3, 1.4962561e+2, -1434864.5, -1485169.4, -232092.75, -0.048880868, -0.34616682, -1226565.3, 247070.84, 0.1275105, 10.000202, 9.99949 
2.456312e+3, 1.5961677e+2, -1457096.6, -1512075.8, -255551.05, -0.08279779, -0.3808888, -1227560.9, 148163.9, 0.052560914, 9.999514, 9.998948 
2.4559085e+3, 1.6960903e+2, -1138430.5, -1253770.3, -152683.08, 0.08174537, -0.31715095, -1032889.06, 244912.1, 0.01541553, 10.000888, 9.999304 
2.4555048e+3, 1.7960097e+2, -939216.3, -1203778.0, -108240.53, 0.1718123, -0.23613612, -900575.44, 279305.34, 0.0031067657, 10.001876, 9.998568 
2.4550979e+3, 1.8959264e+2, -1003072.3, -1144256.3, -60174.43, -0.0770473, -0.17371209, -980905.5, 101061.07, 0.00048131414, 10.000671, 9.99883 
2.4546918e+3, 1.9958411e+2, -1161146.1, -1235980.9, -32105.232, -0.31023774, -0.09542592, -1149260.4, -165205.48, 0.000015932997, 9.99911, 9.998321 
2.4542913e+3, 2.0957552e+2, -752842.4, -926841.56, -24181.219, -0.015532055, -0.049397457, -749544.3, 136597.53, 0.0000000054715246, 10.00109, 9.998738 
2.4538906e+3, 2.195665e+2, -349643.3, -658729.94, -4597.4194, 0.2586252, -0.026071234, -349574.94, 438655.88, 0.0, 10.002977, 9.999071 
2.4534841e+3, 2.2955696e+2, -517821.63, -521966.63, 14543.261, -0.01884982, -0.21042222, -505203.94, 185109.11, 0.0, 10.000482, 10.000506 
2.4530776e+3, 2.3954745e+2, -957195.25, -811935.9, 21328.432, -0.32396388, -0.37427196, -808868.94, -216473.64, 0.0, 9.997318, 9.999397 
2.452674e+3, 2.4953808e+2, -816371.44, -706633.0, -64443.61, -0.18687089, -0.43643123, -676864.06, -182374.3, 0.0, 9.99783, 9.999121 
2.4522707e+3, 2.5952908e+2, -581321.75, -580712.5, -70234.25, -0.06601458, -0.4446307, -510782.22, -114199.67, 0.0, 9.998834, 9.998874 
2.4518664e+3, 2.695216e+2, -413074.38, -408696.8, 19734.418, -0.15548125, -0.3135035, -391030.16, -92373.55, 0.0, 9.99922, 9.999152 
2.4514629e+3, 2.7951378e+2, -250089.05, -323475.75, 66793.1, -0.21282138, -0.21004455, -210574.0, -9841.438, 0.0, 9.9997635, 9.998855 
2.4510574e+3, 2.8950146e+2, 165662.03, -48889.08, 46819.45, -0.25707376, -0.53275514, 175433.92, 278275.78, 0.0, 10.00197, 9.998923 
2.4506521e+3, 2.9948887e+2, 333139.03, -116667.51, 117121.875, -0.333521, -0.85060215, 361808.28, 366762.72, 0.0, 10.003334, 9.997552 
2.4502507e+3, 3.0948362e+2, -184588.05, -105695.73, 62803.72, -0.064376265, -0.28228867, -70977.836, -70977.836, 0.000000000000427524, 9.998695, 9.999803 
2.4679168e+3, 1.200469e+2, -1578830.5, -1535407.5, -59464.527, -0.46621567, -0.06772596, -1493814.9, 269707.44, 0.47722325, 10.000831, 10.002215 
2.4675186e+3, 1.3003963e+2, -1540244.3, -1325582.3, 108282.24, -0.041294985, -0.33539534, -1280450.1, 385134.75, 0.3557266, 9.999167, 10.003624 
2.4671176e+3, 1.4003462e+2, -1788510.0, -1563615.5, -106943.164, -0.059093367, -0.33534744, -1520881.5, 46744.92, 0.22774403, 9.997598, 10.000922 
2.4667118e+3, 1.5002611e+2, -1681428.1, -1634138.9, -254557.89, 0.0034524216, -0.3975238, -1402129.8, 67581.01, 0.11809006, 9.998572, 9.999171 
2.4663056e+3, 1.6001713e+2, -1401853.0, -1461700.8, -153323.36, 0.11873127, -0.41406158, -1275560.8, 96240.12, 0.04605504, 9.999756, 9.999176 
2.465901e+3, 1.7001016e+2, -1171161.0, -1179249.0, -54711.758, 0.071710415, -0.3379339, -1120344.0, 153525.19, 0.012013259, 10.000249, 10.000132 
2.4654964e+3, 1.8000323e+2, -1129791.4, -1240995.9, -69430.76, 0.028094571, -0.21888721, -1096442.9, 79494.52, 0.0018483637, 10.000309, 9.9990835 
2.4650899e+3, 1.8999462e+2, -1004935.8, -1137406.4, -80999.805, -0.14349027, -0.21132308, -966538.0, 111487.984, 0.00018026956, 10.000585, 9.998942 
2.4646841e+3, 1.9998598e+2, -995413.44, -1164889.4, -26959.377, -0.2644925, -0.14786091, -991228.25, -11112.607, 0.0000007906511, 10.000328, 9.998234 
2.4642844e+3, 2.0997864e+2, -784394.94, -955126.0, 12985.775, -0.005656525, 0.02288388, -783412.94, 98780.11, 0.0, 10.000944, 9.998638 
2.463885e+3, 2.1997093e+2, -637194.5, -778696.2, -70154.414, 0.28712237, 0.17420442, -608309.44, 175961.78, 0.0, 10.001025, 9.999175 
2.4634764e+3, 2.2996072e+2, -434144.44, -408494.56, -154460.27, -0.036169685, -0.1454971, -266327.72, 420030.25, 0.0, 10.000912, 10.001001 
2.4630673e+3, 2.3995012e+2, -658865.4, -701342.7, -117612.1, -0.36827242, -0.4614765, -560589.6, 27858.666, 0.0, 9.999597, 9.999045 
2.4626645e+3, 2.4994075e+2, -619553.06, -675747.6, -34331.133, -0.1646269, -0.49684623, -603287.25, -112742.734, 0.0, 9.999468, 9.998544 
2.4622633e+3, 2.5993168e+2, -642331.2, -619984.9, 33844.66, 0.09668682, -0.46381336, -595516.75, -202876.81, 0.0, 9.998513, 9.998756 
2.4618587e+3, 2.6992473e+2, -294844.75, -197057.03, 44786.785, -0.07030952, -0.3913268, -179645.03, 115062.49, 0.0, 9.999431, 10.000456 
2.4614541e+3, 2.7991855e+2, -291982.97, -281889.84, 26666.246, -0.2695376, -0.24534571, -259796.84, -63031.477, 0.0, 9.999307, 9.999346 
2.46105e+3, 2.899098e+2, -153676.19, -168531.67, -1482.2098, -0.3289227, -0.28188154, -153529.73, -54689.59, 0.0, 9.999694, 9.999177 
2.4606492e+3, 2.998978e+2, -628288.25, -765967.5, -76382.195, -0.06417161, -0.5011783, -594302.1, -593354.4, 0.0, 9.99771, 9.995779 
2.4602395e+3, 3.098835e+2, -368085.0, -195785.22, -196048.55, -0.3217644, -0.77814645, -67793.02, -67793.02, 0.0, 9.997818, 9.999459 
2.4779104e+3, 1.2045279e+2, -1627036.3, -1582856.1, -141706.86, -0.4205691, -0.1534159, -1461527.9, 298010.34, 0.4678463, 10.000532, 10.001599 
2.4775149e+3, 1.3044359e+2, -1727328.1, -1707006.9, 85616.97, 0.42705166, -0.30590037, -1630949.8, 30673.625, 0.34520847, 9.9994545, 9.999585 
2.4771047e+3, 1.4043503e+2, -1876938.0, -1777732.0, -107213.74, -0.3634953, -0.31581005, -1709202.8, -145496.92, 0.21743059, 9.997807, 9.999257 
2.4767026e+3, 1.5042678e+2, -1562894.3, -1463202.6, -167790.17, 0.015262807, -0.38674936, -1338010.9, 127774.61, 0.109704144, 9.998943, 10.000171 
2.476301e+3, 1.6041864e+2, -1325397.1, -1328614.3, -84686.85, 0.42010707, -0.41427827, -1242303.5, 125560.49, 0.040704507, 9.9999, 10.00001 
2.4758926e+3, 1.7041127e+2, -1113646.8, -1097900.1, -35653.09, -0.002940749, -0.4322934, -1069261.4, 200672.75, 0.00953522, 10.000407, 10.000626 
2.4754846e+3, 1.8040368e+2, -1098049.0, -1196000.8, -59063.273, -0.42763454, -0.41044596, -1070297.4, 101709.45, 0.0011160366, 10.000404, 9.999344 
2.4750818e+3, 1.9039428e+2, -989313.9, -1133810.6, -75062.984, -0.2183745, -0.47871536, -957378.4, 116721.96, 0.00006263998, 10.000713, 9.998906 
2.4746795e+3, 2.0038496e+2, -945883.56, -1130815.3, -6481.1797, -0.036181368, -0.47665197, -945656.7, 30537.822, 0.0000000031066179, 10.0006275, 9.998319 
2.4742764e+3, 2.1037692e+2, -752790.3, -974938.4, 39202.637, -0.13988082, -0.34728834, -746075.2, 132205.56, 0.0, 10.001277, 9.998375 
2.4738735e+3, 2.2036873e+2, -551284.8, -727132.94, -65177.277, -0.22923993, -0.21628037, -529761.56, 250604.89, 0.0, 10.001525, 9.9993 
2.4734692e+3, 2.3036006e+2, -384651.7, -419447.6, -168916.81, -0.07605109, -0.35483316, -232239.22, 450204.88, 0.0, 10.001352, 10.000744 
2.4730642e+3, 2.403517e+2, -335764.22, -387988.16, -150838.84, 0.009523531, -0.4547572, -208793.88, 375724.53, 0.0, 10.001066, 10.000504 
2.472657e+3, 2.5034606e+2, -331264.34, -276692.25, -52622.207, -0.13840176, -0.32045546, -244702.45, 241873.1, 0.0, 10.000274, 10.000924 
2.4722515e+3, 2.603398e+2, -435468.5, -449045.44, 89839.86, -0.24651626, -0.185122, -352161.0, 36479.816, 0.0, 9.999538, 9.999441 
2.4718504e+3, 2.703303e+2, -278295.78, -379631.63, 86910.51, -0.12087685, -0.24237916, -228362.13, 62375.332, 0.0, 10.00029, 9.998816 
2.4714485e+3, 2.803216e+2, -106774.9, -276384.66, -49467.945, -0.10250394, -0.19773416, -93401.65, 99423.33, 0.0, 10.000857, 9.998639 
2.4710417e+3, 2.9031286e+2, -289431.16, -336809.4, -165105.08, -0.29531363, -0.14968574, -146324.42, -51420.246, 0.0, 9.99904, 9.998421 
2.4706404e+3, 3.0030072e+2, -586308.4, -757744.2, -109952.56, 0.055924375, -0.30962852, -532609.2, -532609.2, 0.0, 9.9978485, 9.995823 
2.4702317e+3, 3.1028414e+2, 417052.8, 182312.69, -122846.266, -0.46174648, -0.78151494, 469585.5, 469585.5, 0.0, 10.002851, 9.999768 
2.4879062e+3, 1.20853804e+2, -1673951.1, -1593190.3, -239627.55, -0.06847374, -0.39915735, -1390564.6, 365044.9, 0.45571515, 9.999953, 10.0020275 
2.4875064e+3, 1.3084719e+2, -1643518.6, -1761478.6, 11263.474, 0.3685324, -0.24781862, -1642452.8, 15217.345, 0.33319858, 10.000362, 9.99876 
2.4870954e+3, 1.4083804e+2, -1527278.9, -1571313.1, -20690.826, -0.4000723, -0.26017419, -1519082.4, 40676.805, 0.20679392, 10.000091, 9.999605 
2.4866939e+3, 1.5082972e+2, -1285887.9, -1268288.5, -50073.17, -0.049476717, -0.38643864, -1226247.6, 235588.64, 0.10179194, 10.000592, 10.000849 
2.4862927e+3, 1.608215e+2, -1223863.3, -1272896.5, -9876.294, 0.39165568, -0.45814246, -1221948.6, 141964.42, 0.036105353, 10.000582, 10.000073 
2.4858847e+3, 1.7081419e+2, -1192699.3, -1197035.8, -29168.71, -0.011612411, -0.42108086, -1165618.4, 100366.11, 0.0076701324, 10.00014, 10.000071 
2.485477e+3, 1.8080637e+2, -1241536.3, -1354160.3, -71298.27, -0.3922905, -0.35195723, -1206994.0, -38932.55, 0.000687035, 9.999829, 9.998514 
2.4850751e+3, 1.907962e+2, -942993.5, -1188771.0, -130710.05, -0.17542394, -0.44224608, -886475.56, 183687.69, 0.000019881356, 10.001419, 9.998141 
2.4846736e+3, 2.0078613e+2, -758020.6, -1028225.1, -126018.91, 0.062811464, -0.48089728, -708370.6, 263893.84, 0.0, 10.001899, 9.998383 
2.4842678e+3, 2.107781e+2, -1011235.56, -1004728.94, -30223.207, -0.2155969, -0.43279603, -977584.44, -103236.86, 0.0, 9.999164, 9.999128 
2.4838631e+3, 2.2077015e+2, -1244236.6, -1019845.9, -18595.047, -0.41080177, -0.34635666, -1018315.4, -241886.53, 0.0, 9.996601, 9.999658 
2.4834616e+3, 2.307622e+2, -809139.94, -599959.1, -26224.209, -0.013030447, -0.4497186, -596721.6, 81780.76, 0.0, 9.9983015, 10.000986 
2.4830593e+3, 2.4075493e+2, -593582.5, -462929.78, -10427.096, 0.31298015, -0.45517185, -462102.84, 118466.26, 0.0, 9.999167, 10.000887 
2.4826492e+3, 2.5075087e+2, -450489.5, -206224.36, -62944.58, -0.103766076, -0.26011688, -190958.3, 291651.03, 0.0, 9.998983, 10.001981 
2.482241e+3, 2.607459e+2, -730983.94, -672267.75, 22945.572, -0.41693315, -0.055634905, -664364.6, -279704.47, 0.0, 9.997946, 9.998676 
2.4818425e+3, 2.7073523e+2, -527051.06, -669176.0, 79620.14, -0.13634603, -0.12031164, -491393.13, -204619.67, 0.0, 9.999372, 9.997266 
2.4814424e+3, 2.807244e+2, -391802.25, -587657.56, -59409.133, 0.010605252, -0.12781459, -375190.53, -186303.84, 0.0, 9.99972, 9.997052 
2.4810329e+3, 2.9071468e+2, -183696.98, -319575.0, -168021.73, -0.3057741, -0.1216251, -70398.55, 20581.041, 0.0, 10.000077, 9.997964 
2.4806313e+3, 3.0070427e+2, -495854.7, -703247.1, 45373.08, 0.07242547, -0.07869385, -486362.47, -486362.47, 0.0, 9.998575, 9.995819 
2.4802259e+3, 3.1068957e+2, -11943.931, 68271.984, 77847.62, -0.55818325, -0.49294558, 115736.29, 115736.29, 0.0, 9.9996, 10.0005455 
2.4978992e+3, 1.2125515e+2, -1600751.6, -1472783.6, -121119.53, -0.025980955, -0.4219546, -1399786.3, 351893.7, 0.43991756, 10.0, 10.003059 
2.4974968e+3, 1.3125072e+2, -1574649.6, -1624095.8, 38562.01, 0.12776047, -0.15046734, -1553565.9, 100152.96, 0.31901658, 10.000662, 9.999626 
2.4970877e+3, 1.4124228e+2, -1505174.5, -1505334.0, 650.4562, -0.43509668, -0.17049596, -1504598.9, 51200.984, 0.19536594, 10.000044, 10.000131 
2.4966848e+3, 1.5123352e+2, -1264149.6, -1206145.8, -23427.246, -0.22755314, -0.38757348, -1197865.8, 260012.11, 0.094030365, 10.00053, 10.001317 
2.4962825e+3, 1.6122495e+2, -1271291.8, -1363216.9, -16979.86, 0.044546228, -0.50347286, -1268255.6, 91700.695, 0.032013185, 10.000571, 9.999417 
2.4958774e+3, 1.7121817e+2, -1237851.8, -1349540.4, -40414.324, 0.012200782, -0.3100813, -1224762.0, 37265.203, 0.0062260167, 10.00041, 9.998864 
2.4954724e+3, 1.8121067e+2, -1300755.9, -1520207.5, -25785.908, -0.10401462, -0.086861104, -1297766.8, -133660.13, 0.00043419475, 10.000023, 9.997267 
2.4950697e+3, 1.9119975e+2, -990183.8, -1356808.8, -53760.145, -0.12954418, -0.11782594, -982463.25, 83757.8, 0.0000058323185, 10.001699, 9.996858 
2.494666e+3, 2.011894e+2, -627529.56, -855482.7, -182210.81, -0.15539314, -0.11741579, -526584.2, 441743.44, 0.000000000090419006, 10.002293, 9.999377 
2.4942593e+3, 2.1118271e+2, -841347.25, -683225.94, -155595.77, -0.22093606, -0.12733276, -587756.9, 282633.2, 0.0, 9.999237, 10.001312 
2.4938536e+3, 2.2117601e+2, -1073378.9, -683725.3, -23219.01, -0.25178045, -0.13805531, -682346.6, 90104.914, 0.0, 9.996643, 10.001935 
2.4934529e+3, 2.3116866e+2, -698868.94, -357766.78, 77909.53, 0.0881906, -0.3541405, -340814.34, 333701.66, 0.0, 9.99821, 10.00271 
2.493051e+3, 2.411611e+2, -549882.3, -487271.94, 33470.242, 0.31348968, -0.4852196, -472748.4, 103835.91, 0.0, 9.99961, 10.000504 
2.492641e+3, 2.5115356e+2, -612325.75, -547193.5, -94835.836, 0.016697247, -0.43714002, -479488.06, -828.4083, 0.0, 9.998923, 9.999699 
2.4922332e+3, 2.6114586e+2, -691575.3, -720188.4, 1856.4689, -0.2417078, -0.31399235, -691455.4, -310716.7, 0.0, 9.998426, 9.998121 
2.4918342e+3, 2.7113733e+2, -468254.06, -614060.3, 119624.71, -0.123905584, -0.16376352, -401068.16, -118234.54, 0.0, 9.999596, 9.997563 
2.4914338e+3, 2.8112823e+2, -148767.36, -360010.03, -3359.5713, -0.12246028, -0.037938416, -148713.94, 36217.383, 0.0, 10.000785, 9.998129 
2.4910247e+3, 2.9111832e+2, 128186.23, -70576.46, -85025.68, -0.4710103, -0.120156005, 159594.86, 246621.45, 0.0, 10.001685, 9.998956 
2.4906226e+3, 3.01109e+2, 105626.33, -272798.4, 97988.28, -0.16142358, -0.07527681, 129493.81, 129493.81, 0.0, 10.00199, 9.997151 
2.4902195e+3, 3.110973e+2, -47344.137, 25766.639, 32575.3, -0.3495754, -0.15417863, 38174.98, 38174.98, 0.0, 9.999232, 10.00052 
2.50789e+3, 1.2166228e+2, -1533936.3, -1518793.0, 37809.563, -0.22849168, -0.25047317, -1487804.4, 259885.67, 0.42027465, 10.001236, 10.001869 
2.5074905e+3, 1.3165556e+2, -1497711.1, -1580718.6, 52350.813, 0.2062709, -0.1621122, -1472408.0, 177342.27, 0.30251706, 10.001333, 9.999771 
2.5070822e+3, 1.4164628e+2, -1492225.8, -1558479.9, 17747.086, -0.2046029, -0.23005882, -1487771.4, 64066.668, 0.18302314, 10.00032, 9.999602 
2.506678e+3, 1.5163755e+2, -1310076.1, -1346326.8, -53683.965, -0.13605331, -0.35496265, -1271540.3, 182378.98, 0.08629053, 10.000637, 10.000224 
2.5062746e+3, 1.6162886e+2, -1268134.9, -1478881.1, -91683.125, -0.004080787, -0.3861083, -1233832.4, 122169.21, 0.028287582, 10.001058, 9.998401 
2.5058702e+3, 1.7162049e+2, -1012291.94, -1372016.5, -121353.04, -0.05114718, -0.2662086, -975181.9, 282906.84, 0.0050760456, 10.002451, 9.99776 
2.5054657e+3, 1.8161176e+2, -930579.56, -1325187.1, -89770.67, -0.083834134, -0.09998504, -911117.2, 249062.63, 0.00028139996, 10.002535, 9.997403 
2.5050622e+3, 1.9160168e+2, -1246747.0, -1395293.4, 2504.1946, -0.13528633, -0.109020665, -1246704.8, -184421.33, 0.0000014559199, 9.999669, 9.997565 
2.504658e+3, 2.0159207e+2, -1282294.9, -1087878.8, -38787.742, -0.1508124, -0.082625955, -1080426.0, -116045.16, 0.0, 9.997484, 10.000106 
2.5042513e+3, 2.1158594e+2, -871429.2, -583382.7, -121781.08, -0.09744309, -0.12141764, -538797.0, 327639.56, 0.0, 9.998636, 10.002265 
2.5038454e+3, 2.2158006e+2, -738666.9, -513814.8, -46179.207, -0.024712583, -0.11076427, -504700.2, 263788.88, 0.0, 9.998959, 10.001994 
2.503443e+3, 2.3157352e+2, -647987.94, -335753.1, -68138.74, 0.06427602, -0.26135746, -321531.06, 349018.03, 0.0, 9.9986105, 10.002658 
2.5030404e+3, 2.4156612e+2, -814349.44, -733087.7, -211243.11, 0.15417144, -0.36268187, -558603.44, 14014.16, 0.0, 9.998326, 9.99944 
2.502633e+3, 2.5155628e+2, -476120.3, -616328.9, -225479.6, 0.071680464, -0.46584672, -310098.22, 164615.67, 0.0, 10.000481, 9.99846 
2.5022268e+3, 2.615468e+2, -350906.16, -629066.7, -20556.404, -0.035957422, -0.4257197, -349395.22, 27414.545, 0.0, 10.001137, 9.99744 
2.5018263e+3, 2.7153894e+2, -472098.6, -596898.44, 79777.984, -0.09473573, -0.22615896, -433215.34, -154317.8, 0.0, 9.999523, 9.997716 
2.501425e+3, 2.8153095e+2, -575426.8, -535058.44, -65772.53, -0.18188539, -0.013746153, -486442.75, -305458.0, 0.0, 9.997825, 9.998331 
2.5010172e+3, 2.9152182e+2, -169825.42, -154134.5, -158162.83, -0.5185063, -0.108698085, -3622.6577, 79450.94, 0.0, 9.999435, 9.999436 
2.5006127e+3, 3.0151266e+2, -216529.81, -400369.53, -87390.12, -0.50243205, -0.09367445, -181617.92, -181617.92, 0.0, 9.999809, 9.997289 
2.500212e+3, 3.1150323e+2, -314504.44, -191608.2, -123933.836, -0.2806163, -0.038406, -114725.31, -114725.31, 0.0, 9.998039, 9.999507 
2.517884e+3, 1.22070305e+2, -1609793.9, -1644872.9, 83108.984, -0.2251383, 0.01760934, -1542393.8, 201296.23, 0.39734322, 10.001073, 10.000339 
2.517485e+3, 1.320597e+2, -1521443.8, -1597170.0, 1913.5594, 0.3202217, -0.26372927, -1521395.5, 124390.8, 0.28406283, 10.001177, 9.999608 
2.5170773e+3, 1.4204933e+2, -1610848.1, -1771279.4, -4610.844, 0.034704253, -0.37775603, -1610715.8, -62831.69, 0.16993596, 10.0001335, 9.998189 
2.5166726e+3, 1.5204132e+2, -1400056.6, -1566072.3, -32834.43, 0.026116695, -0.2781311, -1393798.6, 56166.164, 0.078587286, 10.000789, 9.998543 
2.5162682e+3, 1.6203243e+2, -1332207.9, -1648845.6, -40459.332, -0.025710987, -0.16631499, -1327119.8, 24934.367, 0.024857625, 10.001214, 9.997144 
2.515863e+3, 1.7202087e+2, -1051411.8, -1470026.0, -42577.89, -0.26641458, -0.27775368, -1047124.94, 207045.38, 0.0041356636, 10.002538, 9.997035 
2.5154576e+3, 1.8201004e+2, -814751.8, -1077534.6, -159642.55, -0.41655478, -0.32763445, -739383.9, 416893.13, 0.00018434241, 10.002516, 9.999096 
2.5150532e+3, 1.9200175e+2, -1059929.3, -1011054.4, -98219.055, -0.21598533, -0.40523836, -934278.4, 124073.96, 0.00000026313862, 9.999672, 10.000204 
2.5146487e+3, 2.019936e+2, -1216691.3, -977945.94, -33241.53, -0.043907445, -0.42770383, -973404.0, -12976.292, 0.0, 9.997596, 10.0008 
2.514244e+3, 2.119866e+2, -864484.8, -666386.94, -48373.52, 0.11824807, -0.49229476, -655205.7, 207290.61, 0.0, 9.999031, 10.001528 
2.513839e+3, 2.2198018e+2, -731967.4, -752798.75, -50175.07, 0.123562574, -0.40422702, -691138.3, 73423.586, 0.0, 9.999983, 9.99988 
2.513431e+3, 2.3197486e+2, -800637.5, -750435.3, -142342.73, -0.24494617, -0.13546559, -630997.4, 35626.74, 0.0, 9.998971, 9.999664 
2.5130254e+3, 2.4196869e+2, -695950.6, -622648.44, -210838.34, -0.43339887, 0.06635169, -445299.3, 123390.75, 0.0, 9.998853, 9.999947 
2.512625e+3, 2.5195944e+2, -169549.16, -278536.72, -150437.22, -0.08888163, -0.1252382, -64040.03, 406734.4, 0.0, 10.00168, 10.00024 
2.512224e+3, 2.6194972e+2, -24811.072, -411594.25, -85391.44, 0.16580926, -0.24310757, -6797.826, 366068.16, 0.0, 10.003034, 9.998043 
2.5118208e+3, 2.719391e+2, -464755.4, -639264.06, -70245.56, 0.16755344, -0.28585783, -439992.97, -165020.06, 0.0, 9.999683, 9.997395 
2.5114173e+3, 2.819292e+2, -657125.56, -631527.06, -107476.555, 0.041117735, -0.22298008, -536090.3, -359015.75, 0.0, 9.997406, 9.997894 
2.51101e+3, 2.919213e+2, -290779.97, -356820.97, -173784.0, -0.35920686, -0.09085337, -146907.19, -67747.45, 0.0, 9.999064, 9.998287 
2.5106055e+3, 3.0191323e+2, -85639.46, -252516.81, -209276.36, -0.47637203, 0.07278143, 56218.58, 56218.58, 0.0, 10.000221, 9.998132 
2.510204e+3, 3.1190315e+2, 21819.916, 31328.75, -227299.63, -0.20788765, -0.02937828, 253923.69, 253923.69, 0.0, 9.999884, 10.000214 
2.527881e+3, 1.22471064e+2, -1560232.4, -1685092.4, -61131.67, 0.09556575, -0.22549056, -1535286.3, 204470.28, 0.3720952, 10.001825, 9.999493 
2.5274745e+3, 1.3246185e+2, -1560460.0, -1713376.1, -146678.7, -0.01753527, -0.3005226, -1471508.0, 170337.05, 0.26429757, 10.001184, 9.998819 
2.5270697e+3, 1.4245176e+2, -1532825.5, -1699218.5, -113979.58, 0.04684767, -0.36611018, -1474908.5, 69034.25, 0.15642525, 10.000613, 9.998446 
2.5266662e+3, 1.524436e+2, -1339293.4, -1536663.0, -67817.61, 0.08014699, -0.30465397, -1318237.1, 127786.46, 0.071005836, 10.001271, 9.99852 
2.5262624e+3, 1.6243465e+2, -1272747.0, -1607406.3, 20651.207, 0.0800451, -0.18948339, -1271477.5, 76635.95, 0.021693112, 10.001621, 9.997237 
2.5258574e+3, 1.724234e+2, -1202357.8, -1514616.4, 51540.934, -0.20217475, -0.26820624, -1194070.5, 56157.035, 0.00335279, 10.001501, 9.997209 
2.5254515e+3, 1.824129e+2, -999761.56, -1076188.9, -114189.984, -0.35928413, -0.31925407, -917560.75, 234769.2, 0.00011963712, 10.000804, 9.999947 
2.5250444e+3, 1.9240464e+2, -1041598.9, -887570.9, -178817.4, -0.20297533, -0.50230664, -769888.1, 284510.75, 0.00000002568285, 9.999223, 10.00129 
2.5246388e+3, 2.0239678e+2, -1140083.4, -1007136.3, -63157.63, -0.01755872, -0.56244355, -981916.8, -25448.887, 0.0, 9.99837, 10.000239 
2.5242355e+3, 2.1238899e+2, -787811.2, -766682.4, -74412.664, 0.11106994, -0.6218295, -702087.94, 156458.9, 0.0, 10.00009, 10.000343 
2.5238308e+3, 2.2238173e+2, -717697.0, -920961.06, -99635.86, 0.09747927, -0.4923527, -677004.1, 83620.125, 0.0, 10.000912, 9.998244 
2.523421e+3, 2.32376e+2, -692117.5, -879998.2, -99160.13, -0.3920886, -0.12659374, -649465.3, 13229.97, 0.0, 10.000544, 9.997994 
2.5230145e+3, 2.423696e+2, -593908.25, -614726.9, -23847.82, -0.6491601, 0.19480897, -578296.94, -13529.419, 0.0, 9.999812, 9.999529 
2.5226173e+3, 2.5236082e+2, -370161.38, -316184.6, -69881.55, -0.17931971, 0.0068252846, -268261.0, 198586.52, 0.0, 10.000134, 10.000709 
2.5222185e+3, 2.6235119e+2, -428698.63, -600641.44, -186500.69, 0.23182632, -0.12481174, -309307.9, 59627.063, 0.0, 10.000312, 9.998036 
2.521814e+3, 2.7233937e+2, -327882.06, -536253.3, -147778.95, 0.29722005, -0.34168702, -251254.9, 19791.178, 0.0, 10.000545, 9.997638 
2.5214088e+3, 2.823283e+2, -387261.72, -607725.5, -28524.277, 0.18350704, -0.37355438, -383630.97, -210474.98, 0.0, 9.9998255, 9.996869 
2.521002e+3, 2.923206e+2, -361220.1, -507926.63, -35985.457, -0.28202495, -0.117751196, -352868.66, -277622.0, 0.0, 9.9992, 9.997145 
2.5205985e+3, 3.0231357e+2, -349567.03, -368864.88, -114516.836, -0.363333, 0.22450519, -244293.34, -244293.34, 0.0, 9.998472, 9.998143 
2.5201926e+3, 3.122994e+2, -199755.1, 2786.854, -107847.15, -0.5718933, -0.37682685, 49457.82, 49457.82, 0.0, 9.998248, 10.00072 
2.5378722e+3, 1.22870915e+2, -1714199.0, -1868844.6, -105357.4, -0.22390118, -0.46227443, -1660835.1, 74996.23, 0.34545994, 10.000774, 9.998538 
2.537463e+3, 1.3286349e+2, -1631521.5, -1844561.8, -127575.125, -0.515492, -0.27366993, -1571843.1, 66067.67, 0.24384509, 10.000958, 9.997918 
2.5370607e+3, 1.4285378e+2, -1536088.8, -1628968.6, -63673.902, -0.16011754, -0.26649386, -1503718.5, 36290.19, 0.14280653, 10.000333, 9.999015 
2.5366592e+3, 1.5284468e+2, -1280737.9, -1380844.8, -10236.651, 0.027337622, -0.3932829, -1279701.9, 162391.28, 0.06363834, 10.001201, 9.999609 
2.5362572e+3, 1.6283585e+2, -1247313.8, -1522660.1, 24891.988, 0.14815074, -0.34862006, -1245081.6, 99097.11, 0.0187796, 10.001499, 9.997867 
2.5358534e+3, 1.7282715e+2, -1174673.0, -1437575.8, 60939.11, 0.0046504703, -0.2359351, -1161234.6, 85036.195, 0.0026956536, 10.001371, 9.997812 
2.5354466e+3, 1.828184e+2, -987120.56, -1024364.9, -173330.42, -0.1537254, -0.16269721, -831414.8, 316942.7, 0.00007576087, 10.000725, 10.0003195 
2.5350356e+3, 1.9280952e+2, -1032374.2, -889723.5, -232794.44, -0.20273288, -0.40269294, -717572.9, 332859.44, 0.00000000011876218, 9.9993, 10.001239 
2.5346273e+3, 2.0280114e+2, -1160415.5, -1109089.1, -16661.947, -0.24293025, -0.47141817, -1104154.6, -151647.33, 0.0, 9.998625, 9.999397 
2.5342244e+3, 2.127937e+2, -790831.56, -902950.1, 7237.68, -0.27477404, -0.37193665, -790366.3, 64218.16, 0.0, 10.00063, 9.999142 
2.533821e+3, 2.2278558e+2, -538652.94, -752661.94, -104817.42, -0.28387043, -0.27940205, -495868.75, 260798.94, 0.0, 10.001757, 9.998992 
2.5334162e+3, 2.3277608e+2, -504904.34, -673418.44, -88938.8, -0.2262628, -0.37290317, -466648.72, 192114.55, 0.0, 10.00128, 9.999082 
2.5330114e+3, 2.4276689e+2, -555523.4, -756259.44, -12182.394, -0.2243722, -0.34146407, -554786.75, 6070.736, 0.0, 10.000685, 9.998158 
2.532609e+3, 2.527581e+2, -551814.0, -688728.0, -78942.35, -0.21284339, -0.2705047, -515780.53, -52831.543, 0.0, 10.000061, 9.998209 
2.5322068e+3, 2.627495e+2, -315296.03, -358399.0, -162331.98, -0.17331792, -0.20953593, -173091.17, 191942.22, 0.0, 10.000213, 9.999766 
2.5318038e+3, 2.7274072e+2, 49688.754, -69355.44, -67654.25, -0.074007355, -0.35532704, 80277.58, 347387.16, 0.0, 10.001818, 10.000269 
2.5314003e+3, 2.827317e+2, 11134.59, -346478.56, -19353.771, -0.07159803, -0.35567784, 12178.952, 181375.06, 0.0, 10.002218, 9.997503 
2.5309935e+3, 2.92723e+2, -276783.75, -517570.7, -42592.99, -0.29188904, -0.14900464, -269471.5, -198173.2, 0.0, 9.999924, 9.996765 
2.5305915e+3, 3.0271402e+2, -334838.38, -380711.5, -43987.64, -0.1200492, 0.04257708, -308166.47, -308166.47, 0.0, 9.998536, 9.998086 
2.5301903e+3, 3.127016e+2, -45527.73, 35120.004, -32449.32, 0.107897185, -0.2944547, 46554.93, 46554.93, 0.0, 9.999246, 10.000584 
2.5478676e+3, 1.2327584e+2, -1746746.9, -1725119.5, 49489.082, 0.08590183, -0.3502363, -1685276.4, 46582.477, 0.31815657, 9.999659, 10.000092 
2.547457e+3, 1.3326652e+2, -1688412.4, -1923739.3, -96927.195, -0.37526208, -0.31022254, -1653630.5, -19670.613, 0.22319712, 10.00063, 9.997524 
2.547053e+3, 1.432573e+2, -1432745.3, -1605850.0, 1519.5657, -0.18042783, -0.2133188, -1432731.9, 103323.86, 0.12934339, 10.001168, 9.998802 
2.546652e+3, 1.5324856e+2, -1326619.1, -1452159.5, -21099.438, -0.019801758, -0.2618377, -1323167.9, 114971.8, 0.05657354, 10.001006, 9.999242 
2.5462496e+3, 1.6323975e+2, -1408824.3, -1523112.4, -39670.805, 0.12565047, -0.22193024, -1396403.9, -56178.555, 0.016116831, 10.000001, 9.998594 
2.5458455e+3, 1.7323063e+2, -1560781.4, -1546817.4, -12250.415, 0.050871763, -0.24891579, -1539699.0, -297381.3, 0.0021455006, 9.998311, 9.99856 
2.5454387e+3, 1.832221e+2, -1359749.5, -1210668.9, -159348.64, -0.0386125, -0.20575415, -1109288.1, 35112.582, 0.000046550977, 9.998178, 10.000282 
2.5450283e+3, 1.9321397e+2, -742097.7, -786697.44, -230752.78, -0.14721857, -0.35127375, -532569.75, 513900.97, 0.0, 10.001463, 10.00091 
2.5446197e+3, 2.0320584e+2, -633232.4, -935996.94, -3294.3958, -0.24506137, -0.34232467, -633196.56, 315348.34, 0.0, 10.002648, 9.998626 
2.544216e+3, 2.1319772e+2, -822103.7, -1000561.9, 31277.79, -0.37579864, -0.24883276, -816780.56, 33847.348, 0.0, 10.000817, 9.9983635 
2.5438127e+3, 2.2318853e+2, -869555.06, -935283.7, -90224.51, -0.37304935, -0.19977716, -806395.8, -53676.49, 0.0, 9.9995985, 9.99879 
2.5434095e+3, 2.3317692e+2, -751574.1, -770459.06, -155886.39, -0.12505524, -0.5322218, -604844.5, 49985.26, 0.0, 9.999535, 9.999246 
2.543006e+3, 2.4316645e+2, -830933.3, -988284.56, -59841.645, 0.0050494513, -0.6029339, -810761.2, -253828.31, 0.0, 9.999326, 9.997181 
2.5426006e+3, 2.5315782e+2, -719337.8, -894173.1, 16779.332, -0.2366894, -0.42769325, -717742.06, -258715.4, 0.0, 9.999515, 9.997023 
2.5421962e+3, 2.631496e+2, -427316.1, -322958.13, 28899.88, -0.40605348, -0.26636666, -315489.4, 45620.996, 0.0, 9.999143, 10.000504 
2.5417942e+3, 2.731423e+2, -305225.63, -66785.125, -8868.524, -0.35143217, -0.4202151, -66455.72, 196715.3, 0.0, 9.998705, 10.001768 
2.5413913e+3, 2.8313518e+2, -510553.7, -601402.2, -99784.74, -0.2717989, -0.31727746, -446340.53, -281102.0, 0.0, 9.998739, 9.997413 
2.540986e+3, 2.9312658e+2, -282122.44, -507101.88, -80259.82, -0.28484496, -0.12962547, -256425.42, -189087.27, 0.0, 9.999951, 9.996776 
2.5405842e+3, 3.031148e+2, -178930.16, -348309.53, 31006.52, 0.05553813, -0.18207493, -173432.56, -173432.56, 0.0, 9.99993, 9.9976 
2.5401878e+3, 3.1310368e+2, -115176.734, 145323.1, 74838.57, 0.6908364, -0.3936685, 165292.52, 165292.52, 0.0, 9.998331, 10.00174 
2.5578558e+3, 1.2367812e+2, -1765663.3, -1995016.4, 9528.19, -0.35356233, -0.47697866, -1765268.0, -37354.01, 0.29081753, 10.000762, 9.997587 
2.557453e+3, 1.3366944e+2, -1594393.1, -1862627.6, -27556.904, -0.07807545, -0.37666744, -1591591.4, 38417.563, 0.2027681, 10.001361, 9.997574 
2.557046e+3, 1.4366099e+2, -1465629.6, -1691095.8, 15758.952, -0.27106595, -0.16667797, -1464533.5, 67566.195, 0.11625642, 10.001243, 9.998151 
2.5566438e+3, 1.5365371e+2, -1373792.1, -1563740.9, 4237.6113, -0.14565055, -0.004198572, -1373697.6, 60479.09, 0.04988728, 10.001058, 9.998426 
2.5562403e+3, 1.6364482e+2, -1345615.4, -1397943.4, -74775.46, -0.058813095, 0.048537094, -1292558.6, 43706.457, 0.013707004, 10.000057, 9.999423 
2.5558347e+3, 1.7363314e+2, -1454851.0, -1367752.6, -40898.746, -0.0676641, -0.33258182, -1351558.6, -113184.266, 0.0016894786, 9.998496, 9.9997015 
2.555429e+3, 1.8362379e+2, -1300863.3, -1172049.5, -59398.645, -0.09192382, -0.4375791, -1148841.0, -8379.308, 0.000027889511, 9.998554, 10.000349 
2.5550228e+3, 1.936178e+2, -717312.3, -817400.9, -82082.734, -0.08683613, -0.33298543, -671221.25, 371294.94, 0.0, 10.001825, 10.00052 
2.5546166e+3, 2.0361027e+2, -570792.56, -914485.25, -36714.313, -0.10084655, -0.22933497, -566914.4, 377672.53, 0.0, 10.003087, 9.998572 
2.554212e+3, 2.1360013e+2, -770800.25, -988133.4, -21150.203, -0.13858221, -0.32074675, -768761.06, 77924.76, 0.0, 10.001171, 9.9983015 
2.553806e+3, 2.235902e+2, -885107.6, -1028828.2, -100638.87, -0.2038285, -0.3105693, -833306.75, -84522.66, 0.0, 9.999838, 9.9980345 
2.5533995e+3, 2.3358034e+2, -803139.9, -929922.94, -147940.11, -0.2919376, -0.33806482, -705581.8, -54698.51, 0.0, 9.999731, 9.998066 
2.5529948e+3, 2.4357118e+2, -590793.3, -616553.4, -46374.465, -0.29038405, -0.3073767, -555543.5, -2570.3037, 0.0, 9.999812, 9.999513 
2.5525928e+3, 2.5356296e+2, -476981.3, -492698.53, 77800.266, -0.20600729, -0.33480752, -406643.75, 48407.52, 0.0, 9.999878, 9.999636 
2.5521898e+3, 2.6355422e+2, -461054.06, -458309.28, 49382.293, -0.1996992, -0.32724434, -410280.3, -53144.867, 0.0, 9.999347, 9.999507 
2.551785e+3, 2.7354488e+2, -586749.44, -455486.22, -44541.844, -0.23498753, -0.44255674, -441798.97, -182573.27, 0.0, 9.997779, 9.999594 
2.5513816e+3, 2.8353703e+2, -502548.78, -437428.56, -30540.453, -0.27067345, -0.34529766, -425347.0, -264042.47, 0.0, 9.998003, 9.998927 
2.5509778e+3, 2.9353043e+2, 32551.338, -155740.31, 45946.188, -0.35187358, -0.12346125, 43164.707, 106542.35, 0.0, 10.001143, 9.998664 
2.5505772e+3, 3.0352e+2, 357858.56, 174088.44, 36290.78, -0.014563912, -0.26303583, 364765.66, 364765.66, 0.0, 10.002368, 10.000063 
2.550173e+3, 3.1350848e+2, 101335.87, 281825.38, 44742.84, 0.0974398, -0.6345493, 292308.16, 292308.16, 0.0, 9.99947, 10.002209 
2.567855e+3, 1.2408426e+2, -1252627.4, -1674167.8, -84073.63, 0.01120269, -0.2714572, -1236478.1, 487462.4, 0.26403108, 10.005291, 9.99779 
2.567447e+3, 1.340731e+2, -1351898.5, -1693519.8, -70303.99, -0.07107447, -0.4422872, -1337996.0, 288056.4, 0.18292536, 10.003217, 9.997899 
2.5670394e+3, 1.4406396e+2, -1401693.0, -1647999.1, 45312.535, -0.26497722, -0.31930763, -1393621.4, 134525.4, 0.1037245, 10.001632, 9.998281 
2.566637e+3, 1.5405741e+2, -1315101.8, -1580727.4, 40729.75, -0.1442617, -0.068804525, -1308996.8, 121222.59, 0.043632858, 10.001583, 9.998096 
2.566233e+3, 1.6404906e+2, -1166916.3, -1259673.9, -28377.898, -0.037436772, 0.039166298, -1158923.3, 173380.27, 0.011545959, 10.001082, 9.999859 
2.5658262e+3, 1.7403783e+2, -1183725.6, -1203547.3, -56175.33, -0.054671735, -0.33342028, -1136593.5, 97813.48, 0.0013158798, 10.000238, 9.999963 
2.5654203e+3, 1.8402849e+2, -1144722.0, -1165533.0, 4465.7983, -0.080513865, -0.42130157, -1143804.3, -7309.2866, 0.000016496271, 9.999974, 9.999701 
2.5650153e+3, 1.9402216e+2, -970564.94, -1047535.56, -48093.082, -0.10760297, -0.27246216, -947454.25, 91103.54, 0.0, 10.000563, 9.999566 
2.564611e+3, 2.040142e+2, -872977.8, -1047019.44, -83627.71, -0.059260935, -0.1582494, -839308.06, 101326.71, 0.0, 10.001001, 9.998666 
2.5642064e+3, 2.1400325e+2, -788253.94, -981281.56, -76628.01, 0.028325148, -0.3590247, -761533.2, 81205.41, 0.0, 10.001035, 9.998418 
2.5638e+3, 2.2399333e+2, -772238.94, -987030.94, -73002.29, -0.0353085, -0.34015903, -749776.44, -4941.4233, 0.0, 10.000728, 9.997862 
2.5633904e+3, 2.339848e+2, -827037.6, -982629.5, -37720.875, -0.37093014, -0.22213276, -818375.06, -171452.75, 0.0, 9.999782, 9.997665 
2.5629848e+3, 2.4397619e+2, -650604.75, -540425.5, 80561.03, -0.4299542, -0.13483053, -497919.3, 51086.484, 0.0, 9.999005, 10.000403 
2.562585e+3, 2.5396731e+2, -601597.0, -432593.06, 37127.71, -0.14661531, -0.35498682, -424796.34, 26288.15, 0.0, 9.998543, 10.000684 
2.5621828e+3, 2.6395836e+2, -679985.56, -698102.94, -41285.035, 0.005234545, -0.37616783, -646777.06, -293608.5, 0.0, 9.998532, 9.998192 
2.561777e+3, 2.7394846e+2, -453761.2, -575471.25, -34348.926, -0.11072786, -0.4260368, -444736.44, -189465.8, 0.0, 9.999576, 9.997856 
2.561372e+3, 2.8393957e+2, -204046.03, -209092.39, 96041.58, -0.27127934, -0.3507262, -110494.49, 46867.074, 0.0, 9.999749, 9.999632 
2.5609696e+3, 2.9393297e+2, -113049.07, -95230.73, 103623.49, -0.45690548, -0.26927328, -134.1181, 59294.207, 0.0, 9.999626, 9.999785 
2.5605705e+3, 3.0392537e+2, 119481.37, 161980.75, -147354.67, -0.06296474, -0.23933491, 289610.03, 289610.03, 0.0, 10.00041, 10.000854 
2.5601622e+3, 3.1392086e+2, 113842.09, 184287.47, -47241.844, -0.21119775, -0.06923098, 207992.11, 207992.11, 0.0, 10.000257, 10.001039 
2.5778502e+3, 1.2448967e+2, -1405171.8, -1767122.5, -105800.96, -0.2360051, -0.09814556, -1376514.3, 343462.1, 0.23823552, 10.003814, 9.99775 
2.577441e+3, 1.3447663e+2, -1326070.9, -1608005.5, -118005.34, -0.23072538, -0.53628886, -1283198.5, 338898.66, 0.16394834, 10.003066, 9.99855 
2.5770333e+3, 1.4446655e+2, -1368370.8, -1600362.3, 61382.383, -0.28822187, -0.55533934, -1353130.8, 171065.14, 0.09188186, 10.001782, 9.998523 
2.576631e+3, 1.5445988e+2, -1320181.3, -1558577.8, 73447.85, -0.11499301, -0.32885104, -1299369.4, 126899.71, 0.03784501, 10.001455, 9.998315 
2.5762266e+3, 1.6445263e+2, -1183594.0, -1259898.1, -60713.46, -0.0038114311, -0.12379122, -1150040.4, 178302.67, 0.009625426, 10.000986, 9.999872 
2.575819e+3, 1.7444398e+2, -1176820.9, -1221437.6, -64929.86, -0.028255085, -0.22290273, -1130474.0, 99949.914, 0.0010124295, 10.000396, 9.99975 
2.5754118e+3, 1.844353e+2, -1187809.5, -1290957.6, 23613.621, -0.13754967, -0.18383189, -1182660.6, -50151.504, 0.000009793076, 10.000147, 9.998738 
2.5750065e+3, 1.9442672e+2, -1030326.4, -1199564.8, 2819.8599, -0.29887173, -0.13825737, -1030279.44, 4319.3643, 0.0, 10.000674, 9.998465 
2.5746024e+3, 2.0441748e+2, -812142.6, -961316.6, -68587.21, -0.25874197, -0.11566945, -785401.3, 151288.53, 0.0, 10.001138, 9.999196 
2.5742e+3, 2.1440715e+2, -662339.9, -858792.94, -37380.074, 0.025234923, -0.3003161, -655467.8, 183318.45, 0.0, 10.001589, 9.999005 
2.5737938e+3, 2.2439793e+2, -543082.1, -681169.8, -93897.625, 0.010359932, -0.32559073, -495576.38, 245295.11, 0.0, 10.00141, 9.999632 
2.573383e+3, 2.3438992e+2, -615049.2, -697945.4, -25331.701, -0.34527966, -0.31098288, -607921.1, 35024.098, 0.0, 10.000372, 9.999352 
2.572977e+3, 2.4438065e+2, -696116.75, -745032.4, 94359.36, -0.39988795, -0.30736876, -623097.0, -78062.93, 0.0, 9.999434, 9.998801 
2.572576e+3, 2.5436977e+2, -714538.6, -726593.56, 22132.344, -0.087607585, -0.4895544, -697627.7, -250486.73, 0.0, 9.998727, 9.998607 
2.572174e+3, 2.6436064e+2, -488670.13, -469608.8, 10780.691, 0.0043584723, -0.48129478, -464750.0, -115520.81, 0.0, 9.999189, 9.999451 
2.571769e+3, 2.7435306e+2, -127058.62, -279240.25, 68246.11, -0.17204116, -0.40959108, -100937.19, 150363.83, 0.0, 10.001128, 9.999168 
2.5713652e+3, 2.8434438e+2, -25447.291, -222905.55, 88034.055, -0.2878635, -0.34664175, 8101.453, 161487.7, 0.0, 10.001332, 9.998791 
2.570963e+3, 2.943346e+2, -227885.48, -305601.44, 41547.49, -0.2935901, -0.42624804, -209856.4, -154372.89, 0.0, 9.999403, 9.998485 
2.5705633e+3, 3.04324e+2, -196670.4, -299772.6, -131657.52, 0.043554973, -0.50053704, -106831.21, -106831.21, 0.0, 9.999477, 9.998152 
2.5701556e+3, 3.143167e+2, 190378.08, -108599.195, -41352.19, -0.26440454, -0.29077902, 195992.17, 195992.17, 0.0, 10.002023, 9.998219 
2.5878456e+3, 1.2489439e+2, -1603650.8, -1769285.0, -38902.926, -0.12486993, -0.18861203, -1594968.6, 121044.75, 0.21373183, 10.001316, 9.998923 
2.5874364e+3, 1.3488458e+2, -1198210.3, -1552781.3, -74733.664, -0.19763857, -0.31525674, -1183102.1, 435003.06, 0.14603193, 10.003972, 9.998552 
2.5870293e+3, 1.4487424e+2, -1097231.6, -1485428.6, 24027.367, -0.20103912, -0.3516751, -1095750.1, 424454.9, 0.080827504, 10.003892, 9.9983 
2.5866246e+3, 1.54865e+2, -1362791.0, -1620808.5, -18125.207, -0.07496552, -0.3517198, -1361524.0, 60773.824, 0.032553293, 10.001332, 9.9979315 
2.586219e+3, 1.6485631e+2, -1285291.3, -1384963.8, -89278.54, -0.00342454, -0.24830998, -1232881.1, 91502.555, 0.007938516, 10.0005865, 9.999202 
2.585812e+3, 1.7484793e+2, -1061056.6, -1260743.3, -145393.72, -0.018333003, -0.2549257, -984525.3, 241939.1, 0.00076767127, 10.001592, 9.998913 
2.5854054e+3, 1.8483947e+2, -947138.94, -1212440.6, -30342.79, -0.10017426, -0.14215377, -943712.9, 184836.53, 0.000005913737, 10.001965, 9.998398 
2.5849995e+3, 1.9483049e+2, -979781.9, -1216456.1, -16784.838, -0.26066872, -0.12051846, -978597.4, 52046.26, 0.0, 10.001232, 9.998059 
2.584595e+3, 2.0482127e+2, -912514.06, -981403.25, -48745.29, -0.22589931, -0.08704219, -887271.7, 45463.57, 0.0, 10.000334, 9.999439 
2.5841925e+3, 2.1481165e+2, -1013889.0, -1009179.4, -44624.39, 0.02042182, -0.24413554, -966847.7, -132022.33, 0.0, 9.999082, 9.9991865 
2.5837862e+3, 2.2480267e+2, -847304.7, -738375.56, -125738.055, 0.016790677, -0.28996778, -655812.94, 81093.06, 0.0, 9.999043, 10.000361 
2.5833756e+3, 2.3479423e+2, -641665.9, -627748.4, -154145.11, -0.28848663, -0.40594074, -480405.0, 158573.28, 0.0, 9.99993, 10.000035 
2.5829694e+3, 2.4478482e+2, -608377.6, -841330.75, -5853.41, -0.30765992, -0.40170184, -608230.7, -67162.18, 0.0, 10.000699, 9.997503 
2.5825682e+3, 2.5477368e+2, -483020.47, -785861.8, 6769.5757, -0.036686283, -0.5086967, -482869.22, -39684.625, 0.0, 10.001109, 9.99703 
2.582166e+3, 2.647644e+2, -235430.23, -256734.88, 66150.7, -0.005827122, -0.45997587, -179079.67, 166194.66, 0.0, 10.000582, 10.000244 
2.581761e+3, 2.7475774e+2, -346951.97, -284535.13, 72681.586, -0.24358878, -0.41563258, -236645.0, 10685.768, 0.0, 9.999274, 10.000001 
2.5813583e+3, 2.8474924e+2, -383887.56, -515698.63, 37515.316, -0.2535217, -0.3220034, -373958.16, -224547.03, 0.0, 9.999465, 9.997642 
2.580957e+3, 2.9473743e+2, -183487.44, -439620.25, 21025.775, -0.06757901, -0.51667166, -181772.92, -130243.32, 0.0, 10.000455, 9.997027 
2.5805548e+3, 3.0472323e+2, -226055.78, -555253.3, 29689.137, 0.04217778, -0.7581686, -223399.66, -223399.66, 0.0, 10.000395, 9.995932 
2.580152e+3, 3.1471813e+2, -154911.9, -152069.47, -20504.145, -0.017926026, -0.12061683, -132937.36, -132937.36, 0.0, 9.999212, 9.999279 
2.5978407e+3, 1.2530011e+2, -1757191.5, -1870723.3, -112074.15, 0.0068095136, -0.23556551, -1688327.0, 23712.475, 0.19077115, 10.000252, 9.998733 
2.597433e+3, 1.3529424e+2, -1355615.4, -1669309.9, -9828.34, -0.12905356, 0.0572439, -1355307.8, 258792.05, 0.12932457, 10.0028715, 9.998207 
2.5970256e+3, 1.4528355e+2, -1236216.5, -1603043.4, -83575.77, -0.15540025, 0.027144473, -1218072.5, 298130.0, 0.07062259, 10.003076, 9.997855 
2.596618e+3, 1.5527067e+2, -1389912.5, -1692265.1, -92681.32, -0.1255864, -0.2837623, -1363763.9, 54559.098, 0.027766839, 10.001423, 9.997384 
2.5962108e+3, 1.652595e+2, -1297572.3, -1490108.1, -49933.22, -0.11863179, -0.35409147, -1285392.8, 35038.055, 0.0064744665, 10.000944, 9.9983015 
2.595805e+3, 1.7524964e+2, -1105839.9, -1389596.4, -70562.12, -0.09888654, -0.40398845, -1089261.8, 133267.06, 0.0005723583, 10.001729, 9.9979725 
2.5953996e+3, 1.8524107e+2, -904371.8, -1121266.5, -43930.26, -0.077230975, -0.2840879, -895811.94, 228802.97, 0.0000035552432, 10.001959, 9.999025 
2.5949952e+3, 1.9523317e+2, -912093.75, -1115212.0, -13058.406, -0.07245212, -0.20332073, -911257.7, 115437.87, 0.0, 10.001379, 9.998694 
2.594589e+3, 2.052251e+2, -851622.7, -904775.7, -86041.99, -0.09644146, -0.111756094, -788146.25, 140629.06, 0.0, 10.000542, 9.999875 
2.5941825e+3, 2.1521674e+2, -943628.44, -949125.8, -65041.254, -0.110560544, -0.14489834, -881277.8, -50422.754, 0.0, 9.9994, 9.99948 
2.5937757e+3, 2.2520736e+2, -844688.56, -811947.25, -80331.43, -0.13929091, -0.21398307, -746335.4, -13394.55, 0.0, 9.999362, 9.999702 
2.5933686e+3, 2.35197e+2, -593742.0, -694977.9, -99198.375, -0.21798559, -0.4331548, -532993.44, 102038.85, 0.0, 10.000596, 9.999265 
2.5929642e+3, 2.4518818e+2, -383492.8, -623864.5, 14524.453, -0.20910707, -0.38251224, -382618.38, 154499.31, 0.0, 10.001697, 9.998539 
2.592562e+3, 2.5518024e+2, -189340.3, -531442.9, 57247.355, -0.09248413, -0.24783441, -180014.73, 259187.95, 0.0, 10.002545, 9.998118 
2.5921583e+3, 2.651713e+2, -97186.6, -206279.27, -9853.401, -0.09885969, -0.22228539, -96303.77, 244984.06, 0.0, 10.001587, 10.000106 
2.5917527e+3, 2.7516186e+2, -396543.5, -340499.97, -12983.878, -0.195842, -0.3909685, -337638.06, -94269.15, 0.0, 9.9990225, 9.999755 
2.591351e+3, 2.8515244e+2, -408235.0, -538391.06, 108609.29, -0.14995803, -0.37780875, -346698.97, -201238.27, 0.0, 9.999289, 9.9975815 
2.590951e+3, 2.9514208e+2, 54199.305, -330703.7, 85220.14, -0.033707637, -0.39942387, 72223.58, 119794.86, 0.0, 10.002013, 9.997057 
2.590548e+3, 3.0513057e+2, 192799.8, -34627.984, -37858.465, 0.008288319, -0.51517236, 198936.28, 198936.28, 0.0, 10.001842, 9.998849 
2.5901338e+3, 3.1511977e+2, -154420.97, -15301.616, 222306.86, -0.8872419, -0.67714584, 148074.08, 148074.08, 0.0, 9.998553, 10.000559 
2.6078308e+3, 1.25703e+2, -1884915.8, -1959303.6, -193020.17, -0.15417609, -0.15156159, -1725538.6, -17439.52, 0.16949552, 9.999418, 9.998544 
2.6074275e+3, 1.3569674e+2, -1637703.6, -1754008.5, -133113.36, -0.011514559, 0.01735049, -1550594.6, 59564.484, 0.11391175, 10.000374, 9.998871 
2.6070204e+3, 1.4568663e+2, -1439744.9, -1683109.5, -181677.53, -0.052264154, -0.015239226, -1342764.6, 169490.17, 0.061296463, 10.001474, 9.9980755 
2.6066115e+3, 1.5567428e+2, -1152939.6, -1568760.1, -177741.52, -0.16438405, -0.30003396, -1087319.9, 327050.22, 0.023481611, 10.003044, 9.997456 
2.6062045e+3, 1.6566354e+2, -1010743.1, -1373862.0, -106879.9, -0.12438047, -0.3303487, -981620.0, 334853.84, 0.005220199, 10.003006, 9.998134 
2.6057997e+3, 1.7565393e+2, -1176927.4, -1463438.3, -107741.195, 0.047709126, -0.33071753, -1140933.6, 77636.58, 0.00041937284, 10.0013895, 9.99766 
2.605394e+3, 1.8564506e+2, -1038527.9, -1154151.6, -30081.191, 0.034014422, -0.24623291, -1031170.06, 89487.49, 0.0000020172258, 10.0008545, 9.999351 
2.604988e+3, 1.956367e+2, -972249.75, -1130016.3, -38424.363, -0.09303326, -0.24709503, -963389.06, 59349.81, 0.0, 10.000873, 9.998851 
2.6045814e+3, 2.0562841e+2, -797092.94, -929816.6, -133931.33, -0.14005537, -0.16180314, -713984.06, 210836.19, 0.0, 10.0012, 9.999351 
2.6041737e+3, 2.1562003e+2, -740415.1, -915450.2, -184154.9, -0.15861385, -0.16474286, -624039.7, 202862.64, 0.0, 10.001154, 9.998831 
2.6037672e+3, 2.2561064e+2, -594249.4, -736454.06, -136900.66, -0.18112363, -0.19112517, -511087.88, 217900.94, 0.0, 10.0012865, 9.999292 
2.603362e+3, 2.3559998e+2, -584456.3, -757269.8, -123180.57, -0.1734271, -0.42125103, -520398.53, 110685.13, 0.0, 10.000973, 9.998645 
2.602958e+3, 2.4559128e+2, -566578.2, -688982.2, -41875.254, -0.14181407, -0.33775434, -553623.44, -20454.887, 0.0, 10.000395, 9.998709 
2.6025555e+3, 2.5558424e+2, -670807.9, -743602.0, -81378.55, -0.10978204, -0.16091026, -618057.8, -182813.27, 0.0, 9.999222, 9.99825 
2.6021507e+3, 2.655754e+2, -411549.5, -404997.0, -204856.89, -0.13968922, -0.12590754, -203390.16, 133937.64, 0.0, 9.999688, 9.999649 
2.6017445e+3, 2.7556458e+2, -249819.17, -358827.4, -178249.05, -0.16972484, -0.42018372, -117927.42, 121495.04, 0.0, 10.00045, 9.998949 
2.6013434e+3, 2.855548e+2, -280796.0, -461098.25, 81789.0, -0.09473468, -0.4078699, -249223.4, -107702.984, 0.0, 10.000151, 9.997691 
2.600945e+3, 2.9554608e+2, -386668.47, -534110.9, 88083.17, -0.029996565, -0.300734, -345526.88, -301906.8, 0.0, 9.999042, 9.997078 
2.60054e+3, 3.0553785e+2, -53192.504, 122682.32, -193920.19, -0.06328444, -0.22289537, 247672.2, 247672.2, 0.0, 9.9990635, 10.00122 
2.6001292e+3, 3.155286e+2, -127734.25, 366859.16, 108369.27, -0.4087946, -0.51186013, 389561.63, 389561.63, 0.0, 9.997294, 10.003749 
2.6178217e+3, 1.2610537e+2, -1612422.9, -1571974.1, -78060.8, -0.2708194, 0.052324582, -1511560.4, 192604.67, 0.1498842, 10.00029, 10.000909 
2.617421e+3, 1.3609627e+2, -1502608.3, -1585504.1, -51757.414, 0.06477623, -0.18589279, -1477748.1, 128496.45, 0.09979623, 10.0009365, 9.9997425 
2.6170146e+3, 1.4608687e+2, -1379132.8, -1570171.0, -102641.836, -0.0072090724, -0.21781312, -1334440.5, 173891.88, 0.05285716, 10.001574, 9.998781 
2.6166058e+3, 1.5607691e+2, -1151866.8, -1526598.1, -99534.305, -0.27443781, -0.31886315, -1127069.9, 283358.66, 0.019694533, 10.002863, 9.997836 
2.6162e+3, 1.6606802e+2, -1017517.2, -1335814.4, -157351.33, -0.13853493, -0.1979475, -952862.94, 359652.72, 0.004163879, 10.002798, 9.998471 
2.6157957e+3, 1.760597e+2, -1162249.0, -1424542.6, -130276.58, 0.24563248, -0.09867618, -1108540.5, 106058.195, 0.00030229846, 10.001374, 9.9979105 
2.6153877e+3, 1.8605061e+2, -984080.56, -1084652.5, -18690.18, 0.08069965, -0.07011655, -980719.5, 135965.77, 0.0000010444409, 10.00103, 9.99974 
2.6149777e+3, 1.9604093e+2, -925040.4, -1100856.3, -6850.385, -0.43637627, -0.22279327, -924773.9, 94001.555, 0.0, 10.001116, 9.998945 
2.6145715e+3, 2.060307e+2, -844994.06, -1107375.6, -116246.016, -0.45081618, -0.25972733, -800901.75, 119973.19, 0.0, 10.001513, 9.997981 
2.6141673e+3, 2.1602006e+2, -703667.6, -1038129.94, -161760.53, -0.18243046, -0.3371379, -638234.4, 184746.78, 0.0, 10.001971, 9.997594 
2.6137614e+3, 2.260112e+2, -432197.25, -594310.8, -151552.92, -0.15332103, -0.29295135, -341386.38, 383676.53, 0.0, 10.002072, 9.999908 
2.6133546e+3, 2.3600315e+2, -435950.56, -650000.2, -119812.016, -0.2605472, -0.29707232, -382322.88, 244809.08, 0.0, 10.001747, 9.999041 
2.6129502e+3, 2.4599253e+2, -637048.8, -873562.1, -120315.9, -0.19214742, -0.35301608, -586602.9, -57367.695, 0.0, 10.000533, 9.997379 
2.612547e+3, 2.559805e+2, -799246.7, -941135.7, -162268.5, -0.03754341, -0.51746637, -693091.8, -261733.17, 0.0, 9.998864, 9.997086 
2.612143e+3, 2.659713e+2, -380028.47, -361948.25, -165977.33, -0.095721655, -0.49028948, -204765.03, 128682.16, 0.0, 9.999715, 9.99996 
2.611737e+3, 2.7596357e+2, 28688.5, -186733.69, -143407.06, -0.27156243, -0.47874483, 100329.76, 335846.44, 0.0, 10.002099, 9.999369 
2.6113352e+3, 2.8595585e+2, -4426.5874, -127569.03, -40648.406, -0.21613659, -0.3880893, 7780.97, 145376.52, 0.0, 10.001153, 9.999503 
2.6109347e+3, 2.959484e+2, -402973.66, -346462.7, 15411.34, -0.06852403, -0.29634655, -342533.06, -302854.13, 0.0, 9.998038, 9.998858 
2.6105285e+3, 3.0594093e+2, -290005.63, -48618.313, -163129.58, -0.22974057, -0.2104948, 33612.195, 33612.195, 0.0, 9.99755, 10.0008135 
2.6101246e+3, 3.1593338e+2, 95369.49, 537110.3, -382698.25, 0.10783325, -0.27391115, 758101.5, 758101.5, 0.0, 9.998358, 10.004443 
2.627818e+3, 1.2650749e+2, -1085378.3, -1296947.0, -16277.963, -0.1389816, -0.058668394, -1084133.1, 616093.3, 0.13183984, 10.004311, 10.001105 
2.6274157e+3, 1.3649984e+2, -1207980.0, -1433659.6, -53570.344, 0.10485099, -0.15883334, -1195909.4, 406380.97, 0.08692974, 10.003056, 9.999865 
2.6270095e+3, 1.4649113e+2, -1247838.3, -1534705.6, -75474.25, 0.07589445, -0.1132891, -1229193.0, 275180.5, 0.045284748, 10.00252, 9.998632 
2.6266024e+3, 1.5648171e+2, -1228400.3, -1562296.0, -122901.64, -0.067947105, -0.13808598, -1188040.6, 218427.5, 0.01638905, 10.002245, 9.997939 
2.6261947e+3, 1.664727e+2, -1141255.9, -1340607.5, -197644.84, -0.037551876, -0.07182509, -1019575.06, 288980.47, 0.0032885466, 10.001692, 9.99899 
2.6257873e+3, 1.7646386e+2, -1218867.3, -1413136.4, -156396.77, 0.13579051, -0.07103826, -1131895.8, 78744.31, 0.00021471751, 10.000793, 9.998298 
2.6253793e+3, 1.8645431e+2, -1050368.1, -1153104.5, -22835.61, -0.027165284, -0.08956726, -1045521.06, 67208.7, 0.00000047553752, 10.000754, 9.999395 
2.6249707e+3, 1.9644435e+2, -1026448.0, -1199238.9, -82368.7, -0.42496487, -0.24300587, -993475.2, 21347.447, 0.0, 10.000683, 9.998471 
2.6245648e+3, 2.0643385e+2, -933987.3, -1147841.4, -101190.31, -0.4461958, -0.29103547, -893697.25, 23225.527, 0.0, 10.000883, 9.998016 
2.6241606e+3, 2.1642286e+2, -921103.9, -1168935.9, -42294.445, -0.19728738, -0.40523392, -914084.75, -95054.95, 0.0, 10.000612, 9.997355 
2.623755e+3, 2.2641373e+2, -635457.94, -765602.56, -52025.098, -0.1298012, -0.3266992, -617217.5, 103898.555, 0.0, 10.001046, 9.9992075 
2.6233485e+3, 2.3640583e+2, -640043.56, -839141.0, -143358.03, -0.17942928, -0.25654584, -565060.1, 58127.52, 0.0, 10.000812, 9.99818 
2.6229432e+3, 2.4639434e+2, -572780.6, -871389.3, -115468.12, -0.15207434, -0.3458339, -533340.0, -8040.179, 0.0, 10.001166, 9.997062 
2.6225388e+3, 2.563802e+2, -564031.8, -890618.25, -49819.523, -0.03916581, -0.67926604, -556601.1, -129159.97, 0.0, 10.000805, 9.996485 
2.6221344e+3, 2.663709e+2, -344450.53, -327289.44, 54338.76, -0.11225476, -0.63564575, -280857.9, 48674.297, 0.0, 9.999923, 10.000062 
2.6217297e+3, 2.7636462e+2, -526036.1, -454982.56, 39871.41, -0.32289052, -0.4917682, -437106.34, -205515.16, 0.0, 9.998353, 9.999305 
2.621326e+3, 2.863583e+2, -317020.16, -87094.17, 2331.6785, -0.3297636, -0.3356578, -87070.53, 46585.37, 0.0, 9.998263, 10.001143 
2.6209235e+3, 2.9635146e+2, -374762.8, -220355.47, 33321.324, -0.17916037, -0.3540861, -213471.6, -177742.72, 0.0, 9.997813, 9.999827 
2.620517e+3, 3.0634436e+2, -299948.4, -136204.06, -70658.484, -0.30123505, -0.21740408, -109929.695, -109929.695, 0.0, 9.997936, 9.999993 
2.6201108e+3, 3.1633472e+2, -194893.11, 74432.14, -26875.031, -0.33463436, -0.42384285, 77087.72, 77087.72, 0.0, 9.99793, 10.001436 
2.637816e+3, 1.2691045e+2, -1291645.8, -1422609.8, -36554.28, -0.016256703, -0.14867175, -1282133.8, 414143.6, 0.115288235, 10.00285, 10.000747 
2.6374102e+3, 1.3690466e+2, -1290349.9, -1532798.5, -50464.566, 0.03819777, -0.038491968, -1280265.4, 318058.3, 0.07524984, 10.0027, 9.999281 
2.6370043e+3, 1.4689673e+2, -1280357.9, -1572306.5, -57577.445, 0.10520588, 0.13135132, -1269412.9, 230989.86, 0.038529176, 10.002436, 9.998379 
2.6365995e+3, 1.5688738e+2, -1234808.6, -1559861.4, -96595.18, 0.21416517, 0.13175152, -1208270.3, 194230.61, 0.013527696, 10.002226, 9.997939 
2.636189e+3, 1.6687715e+2, -1060710.5, -1207555.8, -207788.19, 0.014571192, 0.028198099, -913754.3, 390843.1, 0.0025719018, 10.001848, 9.999828 
2.6357758e+3, 1.7686655e+2, -1159737.1, -1325636.4, -137972.16, -0.32332614, -0.22038187, -1081699.4, 124993.69, 0.00015054179, 10.000933, 9.998831 
2.63537e+3, 1.8685636e+2, -1105974.5, -1297971.3, -11132.549, -0.2918536, -0.26450342, -1105331.3, 3458.7075, 0.0000001940375, 10.00089, 9.998332 
2.6349667e+3, 1.9684637e+2, -1027442.1, -1253515.5, -56764.695, -0.16440092, -0.31419483, -1013989.6, -3102.4338, 0.0, 10.000877, 9.998012 
2.6345602e+3, 2.0683785e+2, -766591.7, -826544.56, -88962.23, -0.20967449, -0.27226764, -702691.25, 210272.3, 0.0, 10.001009, 10.000146 
2.6341525e+3, 2.1682975e+2, -742984.0, -930332.06, 5671.968, -0.3275063, -0.29056865, -742812.44, 72221.1, 0.0, 10.001139, 9.998744 
2.633748e+3, 2.2681871e+2, -768196.0, -1129053.3, -22907.313, -0.1574261, -0.30142385, -766747.7, -49604.47, 0.0, 10.001384, 9.996567 
2.6333448e+3, 2.368067e+2, -635274.8, -1020936.4, -116131.45, 0.09333532, -0.36971587, -603005.1, 16261.798, 0.0, 10.001575, 9.996578 
2.6329383e+3, 2.467979e+2, -285292.1, -457709.94, -79486.15, -0.015563675, -0.2691544, -254240.5, 267113.94, 0.0, 10.001915, 9.999548 
2.6325306e+3, 2.567901e+2, -193542.05, -448827.94, 24512.473, -0.27657557, -0.20381227, -191209.67, 232220.66, 0.0, 10.002155, 9.99887 
2.6321247e+3, 2.667808e+2, -302198.72, -333254.75, 29852.502, -0.3130602, -0.24255079, -284077.22, 41442.277, 0.0, 10.00027, 9.999877 
2.6317197e+3, 2.7677137e+2, -662268.06, -493742.63, 52198.75, -0.26370543, -0.36847433, -478884.63, -251275.2, 0.0, 9.997218, 9.999602 
2.6313168e+3, 2.867647e+2, -392649.44, -36371.387, 131894.23, -0.22010666, -0.3032528, 7141.572, 136815.84, 0.0, 9.997262, 10.002015 
2.6309144e+3, 2.96759e+2, -162316.89, -20387.977, 139272.92, -0.1820321, -0.26465595, 64957.84, 96688.99, 0.0, 9.998739, 10.0007925 
2.6305082e+3, 3.067494e+2, -200256.28, -221617.67, -21338.879, -0.2386077, -0.35359275, -187074.36, -187074.36, 0.0, 9.999109, 9.998894 
2.6301062e+3, 3.1674284e+2, 78445.94, 560313.9, 2597.9119, 0.2067153, -0.10970131, 560327.9, 560327.9, 0.0, 9.9981, 10.0047655 
2.6478112e+3, 1.2731856e+2, -1537599.5, -1662278.4, 76995.95, 0.072247684, -0.010062539, -1500870.4, 191401.84, 0.10017185, 10.001416, 9.999637 
2.647404e+3, 1.3730875e+2, -1309889.9, -1609878.6, 9357.727, -0.034586992, -0.16507033, -1309598.3, 284761.06, 0.06469282, 10.002867, 9.998626 
2.6469982e+3, 1.4729984e+2, -1176727.6, -1531837.3, 279.15118, 0.028063836, -0.06414075, -1176727.4, 319721.5, 0.032530583, 10.003203, 9.998271 
2.6465937e+3, 1.5729074e+2, -1172579.3, -1537631.6, -52478.207, 0.19550477, -0.016819045, -1165185.0, 233360.1, 0.011066901, 10.002675, 9.9978695 
2.6461825e+3, 1.6728152e+2, -935219.44, -1132633.4, -162027.36, 0.01702648, -0.028241124, -844200.5, 456432.78, 0.0019930317, 10.002622, 9.999972 
2.645769e+3, 1.7727202e+2, -987755.06, -1258007.3, -136547.45, -0.32353076, -0.1667738, -930776.3, 271943.44, 0.00010503105, 10.002163, 9.998717 
2.6453638e+3, 1.8726203e+2, -990577.8, -1240031.4, 44735.316, -0.21665636, -0.18942417, -982797.9, 122017.336, 0.00000008640195, 10.001747, 9.998272 
2.6449618e+3, 1.9725181e+2, -1043059.7, -1294088.6, 40649.773, 0.09585187, -0.23776248, -1036641.25, -29726.686, 0.0, 10.000943, 9.997699 
2.6445547e+3, 2.0724271e+2, -774494.44, -829407.8, -56093.15, -0.03405778, -0.23620453, -739498.7, 169496.52, 0.0, 10.000978, 10.000145 
2.6441452e+3, 2.1723425e+2, -855105.94, -1027447.4, -130975.9, -0.32358262, -0.2990045, -784496.3, 26569.55, 0.0, 10.000572, 9.998369 
2.6437414e+3, 2.2722246e+2, -807220.8, -1233600.4, -60137.652, -0.14495254, -0.3393692, -798901.1, -85716.02, 0.0, 10.001503, 9.995774 
2.64334e+3, 2.3720922e+2, -661421.6, -1102003.5, -11642.555, 0.23457076, -0.46086487, -661114.2, -45788.4, 0.0, 10.00173, 9.995944 
2.6429322e+3, 2.4720253e+2, -309991.28, -330272.22, -29557.99, 0.043668054, -0.19044587, -288882.7, 228511.42, 0.0, 10.001173, 10.000778 
2.6425225e+3, 2.571986e+2, -567128.4, -536211.4, -64993.723, -0.38681766, 0.12929769, -484863.1, -65431.7, 0.0, 9.999233, 9.999689 
2.6421154e+3, 2.671892e+2, -463003.47, -393423.53, -108967.31, -0.40429437, 0.026819905, -313827.22, 7692.969, 0.0, 9.9991665, 9.999964 
2.64171e+3, 2.7717742e+2, -502837.72, -437257.13, -29486.59, -0.21275356, -0.3584774, -425949.1, -202317.38, 0.0, 9.998476, 9.999381 
2.6413077e+3, 2.8717095e+2, -257338.9, 90845.375, 132640.67, -0.100002356, -0.30247235, 135617.63, 261309.86, 0.0, 9.998001, 10.002501 
2.6409054e+3, 2.9716665e+2, -428008.34, -159906.34, 107944.5, -0.1232738, -0.18897456, -121847.83, -94115.9, 0.0, 9.997046, 10.000634 
2.640498e+3, 3.0715442e+2, -401691.2, -396697.28, -29565.717, -0.32169932, -0.50270283, -369523.25, -369523.25, 0.0, 9.998148, 9.9980955 
2.640093e+3, 3.1714082e+2, -6028.385, 468764.34, 200944.66, -0.17416205, -0.93002826, 542391.75, 542391.75, 0.0, 9.997856, 10.004206 
2.6578042e+3, 1.2772796e+2, -1649288.1, -1839824.3, 98452.01, 0.00650703, 0.1950407, -1607556.9, 80695.59, 0.086430125, 10.001227, 9.998432 
2.6573977e+3, 1.3771224e+2, -1437326.4, -1797393.5, 86025.13, -0.18360767, -0.44955, -1417829.5, 172569.14, 0.055199515, 10.002466, 9.997527 
2.6569915e+3, 1.4770176e+2, -1233149.3, -1555200.3, 17594.293, -0.18584736, -0.46643272, -1232190.9, 260312.28, 0.027235242, 10.002812, 9.998281 
2.6565856e+3, 1.5769295e+2, -1207303.5, -1562106.9, -18155.65, -0.09184166, -0.38595238, -1206376.9, 188217.95, 0.0089680515, 10.002476, 9.997788 
2.6561764e+3, 1.6768613e+2, -960471.0, -1164577.8, -143022.11, -0.04998514, -0.13860627, -886825.2, 409838.06, 0.0015322798, 10.002597, 9.999733 
2.655766e+3, 1.7767975e+2, -970395.56, -1244970.5, -108107.11, -0.07755444, 0.06306589, -932940.4, 265785.2, 0.00007382683, 10.002269, 9.998748 
2.6553604e+3, 1.8767074e+2, -914140.6, -1122033.3, 39308.35, 0.041010335, 0.093888626, -906956.5, 193854.33, 0.000000036839044, 10.00191, 9.999008 
2.6549563e+3, 1.9766049e+2, -1003178.5, -1267675.9, 48728.31, 0.18513079, -0.013866508, -994486.94, 8419.97, 0.0, 10.0011635, 9.997771 
2.654548e+3, 2.0764771e+2, -928192.9, -1191866.3, -48672.15, 0.013019064, -0.22425668, -919495.25, -14469.488, 0.0, 10.00118, 9.997544 
2.6541388e+3, 2.176345e+2, -837226.3, -1167699.4, -106842.47, -0.29894188, -0.5081504, -805692.9, 1454.8075, 0.0, 10.0013, 9.997058 
2.6537347e+3, 2.2762425e+2, -563799.25, -844395.9, -22390.646, -0.21706142, -0.49679536, -562023.8, 147224.5, 0.0, 10.001962, 9.998238 
2.6533324e+3, 2.3761494e+2, -386027.9, -771538.5, 38727.605, 0.0039956034, -0.45145494, -382175.9, 229167.48, 0.0, 10.002692, 9.997766 
2.6529247e+3, 2.476077e+2, -378002.94, -519955.84, -78311.89, -0.037519373, -0.22068219, -343289.22, 170130.17, 0.0, 10.001344, 9.999413 
2.6525152e+3, 2.5760144e+2, -605409.8, -612499.3, -105594.88, -0.2157038, 0.013407052, -503300.2, -87815.195, 0.0, 9.999156, 9.999211 
2.6521078e+3, 2.6759198e+2, -359153.06, -232870.97, -80955.414, -0.29520157, -0.14416574, -193344.73, 124227.34, 0.0, 9.999342, 10.001003 
2.6517013e+3, 2.7758133e+2, -150532.94, -134769.33, -11378.649, -0.2592447, -0.50690883, -128809.3, 90858.22, 0.0, 10.00023, 10.000637 
2.6512986e+3, 2.8757516e+2, -111969.875, 114744.72, 62794.68, -0.079224445, -0.45187137, 130975.42, 252700.95, 0.0, 9.999107, 10.002183 
2.6508954e+3, 2.9757097e+2, -374594.25, -94409.94, 41670.45, -0.013636676, -0.27713123, -88343.83, -64577.105, 0.0, 9.997143, 10.001058 
2.6504865e+3, 3.075628e+2, -350633.5, -170775.05, 22416.518, -0.42754546, -0.31441328, -168023.28, -168023.28, 0.0, 9.997566, 9.999958 
2.6500824e+3, 3.175543e+2, -13953.458, 221736.19, 289126.6, -0.32239118, -0.33887717, 416111.8, 416111.8, 0.0, 9.998713, 10.002132 
2.667796e+3, 1.281318e+2, -1371917.6, -1605651.0, 16940.236, -0.22175807, 0.0044051474, -1370696.3, 313592.88, 0.07399981, 10.002767, 9.99931 
2.6673943e+3, 1.3811922e+2, -1456634.4, -1750089.9, 45436.508, 0.06695251, -0.40343252, -1449760.4, 136644.9, 0.046711504, 10.001986, 9.9981 
2.6669866e+3, 1.481094e+2, -1287499.8, -1536680.9, 43224.79, -0.09732333, -0.39934394, -1280214.6, 208287.81, 0.022592498, 10.002182, 9.998753 
2.666578e+3, 1.5810074e+2, -1205187.4, -1540658.0, 5146.7515, -0.2961379, -0.33417588, -1205108.4, 185482.6, 0.0071954923, 10.002353, 9.998036 
2.66617e+3, 1.6809282e+2, -1007051.94, -1256609.9, -102202.9, -0.12957728, -0.16727953, -970538.56, 322131.03, 0.001170623, 10.002544, 9.999154 
2.6657623e+3, 1.7808531e+2, -1033114.1, -1352517.5, -85397.31, 0.1364577, -0.014840626, -1011715.5, 183027.83, 0.00005271245, 10.002181, 9.998064 
2.6653555e+3, 1.8807516e+2, -891118.9, -1193660.6, -10283.763, 0.16986643, -0.027030805, -890769.75, 206071.61, 0.000000014947995, 10.002417, 9.998289 
2.6649496e+3, 1.9806415e+2, -911122.56, -1306568.4, -96013.54, 0.17323136, -0.14893344, -889043.4, 109902.96, 0.0, 10.002184, 9.997017 
2.664542e+3, 2.080517e+2, -701668.1, -1145182.5, -56755.79, 0.007197072, -0.28114888, -694520.4, 206545.53, 0.0, 10.003053, 9.996926 
2.664134e+3, 2.1803866e+2, -620701.0, -1110641.1, 1747.5945, -0.20376623, -0.4859277, -620694.75, 182496.28, 0.0, 10.003076, 9.996564 
2.6637286e+3, 2.2802936e+2, -546805.56, -707315.25, 20201.805, -0.1907462, -0.42746565, -544302.0, 160979.08, 0.0, 10.0016, 9.999308 
2.6633248e+3, 2.380214e+2, -915660.0, -974669.0, -51362.1, -0.06680083, -0.36162138, -885931.2, -278572.6, 0.0, 9.998893, 9.998192 
2.662917e+3, 2.4801275e+2, -697551.4, -752024.9, -145382.0, -0.06188894, -0.2517625, -576876.75, -67429.664, 0.0, 9.9995365, 9.998676 
2.6625076e+3, 2.5800398e+2, -581391.9, -683884.7, -93838.55, -0.110704795, -0.20501503, -525718.4, -114179.92, 0.0, 9.999757, 9.99842 
2.6621e+3, 2.6799494e+2, -205211.61, -100583.266, -40993.613, -0.22495466, -0.3230095, -86435.055, 227184.95, 0.0, 10.000258, 10.001416 
2.661693e+3, 2.779858e+2, -221266.78, -182734.64, -56345.332, -0.30094147, -0.5843639, -142452.6, 73245.79, 0.0, 9.99991, 10.000437 
2.66129e+3, 2.879796e+2, -158678.9, 31689.277, -96903.54, -0.07289592, -0.50599474, 72337.09, 190096.0, 0.0, 9.999171, 10.001519 
2.6608855e+3, 2.979748e+2, -434069.94, -170000.33, -109072.266, 0.050454028, -0.35419968, -130775.24, -110966.09, 0.0, 9.997057, 10.000554 
2.660476e+3, 3.0797037e+2, -255778.61, 72972.8, -67730.484, -0.45936677, -0.12145928, 86380.08, 86380.08, 0.0, 9.99744, 10.001653 
2.6600748e+3, 3.1796286e+2, -426550.1, -340771.88, 92048.83, -0.16585048, -0.19493063, -282110.7, -282110.7, 0.0, 9.997579, 9.998788 
2.6777884e+3, 1.2853411e+2, -1350544.6, -1431408.9, 5958.224, -0.5443906, -0.25083426, -1350108.0, 330233.0, 0.06278203, 10.002238, 10.000809 
2.6773915e+3, 1.3852741e+2, -1431753.6, -1627073.0, 41350.15, 0.38904858, -0.21666053, -1423360.3, 159040.23, 0.039146993, 10.00171, 9.999079 
2.6769823e+3, 1.4851938e+2, -1259578.3, -1440881.5, 47599.31, 0.041279964, -0.11342259, -1247841.4, 236638.22, 0.018543638, 10.00208, 9.9994335 
2.6765698e+3, 1.5851091e+2, -1195481.3, -1508202.6, 8220.095, -0.56045645, -0.08894482, -1195265.3, 191299.17, 0.005710664, 10.002315, 9.99827 
2.6761627e+3, 1.685001e+2, -1043708.6, -1339829.3, -111484.12, -0.27312058, -0.18605988, -1006429.9, 282237.6, 0.0008890518, 10.002594, 9.998538 
2.675757e+3, 1.784886e+2, -1078134.8, -1492226.8, -62151.355, 0.17788203, -0.36119375, -1069007.6, 121768.586, 0.000037964888, 10.002387, 9.996988 
2.6753497e+3, 1.8847542e+2, -995155.75, -1451027.6, 5131.882, 0.11144607, -0.5095856, -995097.94, 97808.89, 0.0000000057994387, 10.002603, 9.996431 
2.674942e+3, 1.9846247e+2, -894866.44, -1350245.1, -59568.54, -0.09376968, -0.65536386, -887203.2, 107833.2, 0.0, 10.002496, 9.996567 
2.674536e+3, 2.0845526e+2, -516625.94, -837586.2, -2287.6812, -0.121374, -0.37620187, -516609.63, 380500.25, 0.0, 10.003379, 9.998884 
2.6741305e+3, 2.1844883e+2, -380542.44, -865153.94, 24873.43, -0.14117609, -0.091978446, -379269.1, 419906.22, 0.0, 10.004103, 9.997765 
2.6737237e+3, 2.2843887e+2, -596168.2, -871369.25, -73734.945, -0.058733534, -0.055624086, -577657.4, 123617.28, 0.0, 10.001827, 9.9980955 
2.6733166e+3, 2.3842815e+2, -919232.4, -1008832.06, -100840.36, 0.03447062, -0.13814117, -853688.2, -250307.52, 0.0, 9.998946, 9.997948 
2.6729083e+3, 2.4841705e+2, -605597.6, -599504.75, -80436.984, -0.06579122, -0.33280262, -522056.53, -16571.537, 0.0, 9.999639, 9.999706 
2.672499e+3, 2.5840628e+2, -333350.56, -490852.13, -18878.926, -0.23881999, -0.56332225, -331119.28, 76466.32, 0.0, 10.001055, 9.999145 
2.6720923e+3, 2.6839852e+2, -154176.67, -226937.27, -30125.906, -0.28687233, -0.49016553, -143322.5, 166335.77, 0.0, 10.001201, 10.000121 
2.6716864e+3, 2.7839142e+2, -153943.97, -265665.1, -88650.02, -0.25875378, -0.40620133, -105022.71, 106702.37, 0.0, 10.000799, 9.999445 
2.6712817e+3, 2.8838432e+2, -198983.81, -158883.47, -190120.75, -0.028664682, -0.28640693, 12241.421, 126040.11, 0.0, 9.999598, 10.00003 
2.6708758e+3, 2.9837728e+2, -292515.97, -154089.33, -204484.38, 0.08976469, -0.2043496, -7422.267, 8450.285, 0.0, 9.998152, 10.00017 
2.6704666e+3, 3.0836838e+2, -113154.91, 215996.4, -140429.66, -0.36367905, -0.4572434, 267766.84, 267766.84, 0.0, 9.998028, 10.002389 
2.6700675e+3, 3.18364e+2, -196564.13, -84549.3, 52048.09, 0.07174896, -0.28129128, -64098.656, -64098.656, 0.0, 9.998339, 10.000227 
2.6877874e+3, 1.2893994e+2, -1340011.0, -1614856.9, 79814.45, -0.09515318, -0.42485428, -1318514.4, 357833.03, 0.0526776, 10.002964, 9.999207 
2.6873848e+3, 1.3893117e+2, -1383636.0, -1720985.0, -9849.776, 0.30981985, -0.43577757, -1383348.6, 195083.13, 0.03242507, 10.002504, 9.998061 
2.6869756e+3, 1.489227e+2, -1238741.0, -1508881.4, -34138.645, -0.032405883, -0.31394762, -1234493.5, 246024.53, 0.015032841, 10.002529, 9.998733 
2.6865652e+3, 1.5891401e+2, -1206761.8, -1552524.6, -170527.6, -0.44926614, -0.26593718, -1136810.6, 245796.31, 0.0044764117, 10.002403, 9.997921 
2.6861578e+3, 1.6890356e+2, -1017505.6, -1317437.1, -264535.9, -0.20519434, -0.33617184, -863384.25, 421323.72, 0.00066900725, 10.002767, 9.998607 
2.6857513e+3, 1.7889234e+2, -1014791.56, -1451081.1, -178707.97, 0.18393709, -0.49863386, -950936.9, 235878.28, 0.000027210404, 10.002779, 9.997093 
2.685344e+3, 1.8888004e+2, -889827.2, -1354512.4, 20927.389, 0.102794595, -0.6003355, -888886.56, 200050.48, 0.000000001728097, 10.003141, 9.9968405 
2.6849365e+3, 1.9886807e+2, -858418.7, -1300460.1, 87049.28, -0.06495785, -0.67328644, -841894.2, 149162.95, 0.0, 10.002629, 9.996852 
2.6845306e+3, 2.0886146e+2, -717851.7, -894553.5, 74449.11, -0.1084461, -0.36233023, -690666.7, 202460.77, 0.0, 10.001804, 9.999266 
2.6841253e+3, 2.1885619e+2, -963481.4, -1142850.1, -32696.396, -0.07361154, 0.007283353, -957707.1, -162522.58, 0.0, 10.000106, 9.997799 
2.683718e+3, 2.2884613e+2, -741318.25, -961171.75, -94558.92, 0.040673487, 0.032767918, -706244.06, -8958.198, 0.0, 10.00094, 9.997898 
2.6833096e+3, 2.3883471e+2, -692872.06, -947567.6, -17044.05, 0.16081408, -0.09101774, -691736.56, -92337.445, 0.0, 10.000773, 9.997482 
2.6829004e+3, 2.4882281e+2, -452938.75, -499338.72, 19432.213, -0.036855526, -0.36586666, -445875.72, 55632.895, 0.0, 10.000666, 9.999829 
2.682491e+3, 2.5881127e+2, -602756.25, -687563.7, -15108.991, -0.2961589, -0.69031316, -600144.9, -196532.28, 0.0, 9.999577, 9.99848 
2.6820844e+3, 2.688037e+2, -471115.1, -493364.75, -29031.227, -0.3103784, -0.51770294, -451150.16, -145464.81, 0.0, 9.999585, 9.999026 
2.6816788e+3, 2.7879697e+2, -572719.6, -634452.44, -60147.17, -0.21183619, -0.29071993, -535981.2, -328228.66, 0.0, 9.998705, 9.997912 
2.681273e+3, 2.887887e+2, -388643.3, -384787.28, -132801.88, -0.027714476, -0.15323472, -253899.42, -144059.63, 0.0, 9.998901, 9.9987955 
2.6808658e+3, 2.9877993e+2, -394296.16, -303450.0, -89405.55, 0.072865024, -0.13073877, -248590.45, -236658.25, 0.0, 9.997963, 9.999222 
2.6804575e+3, 3.0876684e+2, -79713.56, 271594.88, -22753.559, -0.25887352, -0.790736, 273062.44, 273062.44, 0.0, 9.998197, 10.002629 
2.6800594e+3, 3.187682e+2, -342600.78, 61970.875, 200930.19, 0.21195269, -0.099113494, 144803.44, 144803.44, 0.0, 9.996614, 10.002005 
2.6977873e+3, 1.2934604e+2, -1625826.0, -2008197.1, -45839.934, 0.3788371, -0.577312, -1620407.4, 51942.043, 0.04361902, 10.002117, 9.9968 
2.6973757e+3, 1.3933289e+2, -1507120.6, -1991563.5, -22976.7, -0.07586927, -0.8316936, -1506033.3, 68447.88, 0.026486209, 10.002598, 9.996123 
2.6969683e+3, 1.4932276e+2, -1339855.4, -1699572.9, -12241.985, -0.21424827, -0.7320536, -1339439.3, 137147.86, 0.012009438, 10.002455, 9.997454 
2.696562e+3, 1.593133e+2, -1291855.4, -1659805.8, -137611.98, -0.23009919, -0.6421592, -1246083.0, 132604.05, 0.003455713, 10.002118, 9.997307 
2.6961538e+3, 1.6930482e+2, -996923.6, -1254072.3, -219613.44, -0.0852627, -0.5392134, -871015.3, 409758.94, 0.00049606664, 10.002661, 9.999082 
2.6957452e+3, 1.7929658e+2, -902737.9, -1263771.9, -124000.37, 0.05124206, -0.46244138, -864251.5, 318606.06, 0.00001910138, 10.002961, 9.998285 
2.6953393e+3, 1.8928856e+2, -699169.4, -985220.94, 40314.066, 0.11221254, -0.34474558, -693596.4, 391338.16, 0.0000000002885943, 10.003244, 9.999311 
2.6949337e+3, 1.9928029e+2, -729898.6, -1131879.3, 92179.055, 0.11229542, -0.2606854, -709768.9, 277245.5, 0.0, 10.003012, 9.99782 
2.694525e+3, 2.0926933e+2, -787969.8, -1087690.4, 41834.023, -0.03977224, -0.3131773, -782240.25, 106886.78, 0.0, 10.001942, 9.997898 
2.6941168e+3, 2.1925862e+2, -881573.75, -1094656.6, -30512.674, -0.18335229, -0.37114924, -877290.56, -86052.625, 0.0, 10.000582, 9.997898 
2.6937103e+3, 2.2924961e+2, -573504.9, -696842.1, -25125.133, 0.009412291, -0.35698974, -568583.06, 124743.164, 0.0, 10.001269, 9.999568 
2.6933038e+3, 2.392409e+2, -437385.25, -738411.9, 39131.26, 0.20991227, -0.34388667, -432381.63, 163029.38, 0.0, 10.002108, 9.998276 
2.6928943e+3, 2.4923186e+2, -469823.16, -695507.25, 8355.226, 0.046755046, -0.23814176, -469514.25, 27988.66, 0.0, 10.001306, 9.998205 
2.692484e+3, 2.5922233e+2, -547291.56, -722332.9, -31715.332, -0.20451067, -0.19715612, -541722.3, -142123.97, 0.0, 10.000128, 9.997994 
2.6920766e+3, 2.6921177e+2, -451401.1, -448614.28, -24585.73, -0.24916734, -0.328455, -425382.5, -123688.71, 0.0, 9.999486, 9.999422 
2.6916695e+3, 2.792015e+2, -497652.6, -531350.9, -14589.512, -0.22241196, -0.47200137, -492213.9, -288427.44, 0.0, 9.998843, 9.998562 
2.691262e+3, 2.8919268e+2, -332450.72, -323044.75, -35757.734, -0.19179696, -0.42852983, -291682.03, -185806.53, 0.0, 9.999054, 9.999161 
2.6908544e+3, 2.991844e+2, -172083.52, -169172.02, 30669.836, -0.18483761, -0.3712334, -139923.4, -131962.75, 0.0, 9.999281, 9.999507 
2.6904494e+3, 3.0917534e+2, -32187.266, 197683.3, 71032.19, -0.13139659, -0.5682005, 217861.64, 217861.64, 0.0, 9.998828, 10.001867 
2.690047e+3, 3.191728e+2, -324273.63, 78150.81, 63455.016, 0.09480815, -0.17119768, 87919.39, 87919.39, 0.0, 9.996524, 10.002205 
2.7077767e+3, 1.2974776e+2, -1411401.3, -1594490.9, -197933.69, -0.11189947, -0.5901728, -1284867.6, 383557.22, 0.035549812, 10.002246, 9.999625 
2.707373e+3, 1.3973944e+2, -1101590.6, -1629584.3, -94954.41, 0.08962338, -0.5939536, -1085033.3, 485467.97, 0.021269772, 10.004642, 9.997682 
2.706964e+3, 1.4972892e+2, -1239104.6, -1623612.3, -62453.605, -0.09933412, -0.6017433, -1229215.0, 243394.77, 0.009415533, 10.00297, 9.997776 
2.7065554e+3, 1.5971845e+2, -1458172.0, -1699428.0, -82120.89, -0.21707076, -0.6288239, -1432872.1, -58152.582, 0.0026134893, 10.000747, 9.997721 
2.706147e+3, 1.6971076e+2, -1107638.9, -1271065.6, -98919.62, -0.10928553, -0.4828583, -1061047.3, 215752.23, 0.0003600524, 10.00168, 9.999453 
2.7057394e+3, 1.7970362e+2, -948234.94, -1214236.0, -26812.826, 0.016882475, -0.32832697, -945559.1, 233313.45, 0.000012952271, 10.002362, 9.998906 
2.705334e+3, 1.8969597e+2, -797237.25, -922963.06, 29037.525, 0.12451803, -0.26097935, -790854.75, 290088.63, 0.000000000007316074, 10.00215, 10.000248 
2.7049285e+3, 1.9968794e+2, -971850.1, -1243037.0, -4401.691, 0.19723122, -0.22755612, -971778.75, 11239.468, 0.0, 10.00135, 9.997866 
2.7045187e+3, 2.096762e+2, -780853.0, -1145617.1, -21688.758, -0.055870306, -0.33030802, -779567.9, 105572.055, 0.0, 10.002308, 9.997308 
2.704109e+3, 2.196642e+2, -653754.56, -1011443.06, -41532.42, -0.28297803, -0.4692443, -648995.44, 138269.36, 0.0, 10.002318, 9.9976225 
2.7037033e+3, 2.296557e+2, -474162.53, -565276.5, -75553.63, -0.019693106, -0.46543485, -431493.72, 257852.94, 0.0, 10.001653, 10.000239 
2.7032977e+3, 2.3964822e+2, -764404.3, -937544.56, -83303.11, 0.2774548, -0.39429653, -730833.75, -139415.42, 0.0, 10.000085, 9.997875 
2.7028874e+3, 2.496407e+2, -647645.06, -870464.2, -70950.78, 0.10772129, -0.08737882, -626970.9, -133469.72, 0.0, 10.000497, 9.997366 
2.7024767e+3, 2.5963256e+2, -647071.4, -843853.44, -23119.873, -0.107591465, 0.16042152, -644391.5, -248802.47, 0.0, 9.999858, 9.997262 
2.702069e+3, 2.6962006e+2, -294547.13, -332898.6, -6798.4106, -0.1421803, -0.17635885, -293377.66, 4321.5957, 0.0, 10.000468, 9.999711 
2.7016616e+3, 2.7960733e+2, -351422.1, -456355.0, -16274.564, -0.15278682, -0.59918404, -348955.94, -149146.66, 0.0, 9.999935, 9.998539 
2.701252e+3, 2.895981e+2, -296578.97, -271320.28, -53575.047, -0.2752051, -0.61851674, -228906.14, -127007.414, 0.0, 9.999264, 9.999372 
2.700843e+3, 2.995901e+2, -461778.7, -372384.0, 2899.6646, -0.3926356, -0.5440705, -372290.03, -368312.25, 0.0, 9.9976635, 9.998884 
2.700441e+3, 3.0958518e+2, -214381.81, 8275.082, 23249.156, -0.03814094, -0.26858395, 10676.782, 10676.782, 0.0, 9.998099, 10.000888 
2.7000317e+3, 3.1957236e+2, -316660.9, 31241.738, -234540.02, -0.31890193, -0.83342195, 149297.4, 149297.4, 0.0, 9.996967, 10.001647 
2.7177644e+3, 1.3014908e+2, -1084204.1, -946947.2, -10883.894, -0.8373878, -0.43923795, -946089.5, 718423.94, 0.028414832, 10.002448, 10.004077 
2.717373e+3, 1.4014812e+2, -1141195.8, -1367183.1, -55563.71, 0.4014753, -0.10873191, -1128273.3, 438234.16, 0.016713178, 10.003184, 10.000179 
2.7169603e+3, 1.501378e+2, -1255854.3, -1506977.3, -124967.37, 0.03532034, -0.23850141, -1204264.6, 264347.53, 0.0071980846, 10.002375, 9.998827 
2.716546e+3, 1.6012684e+2, -1388548.4, -1574698.1, -75571.695, -0.4427921, -0.41473556, -1361731.6, 8994.141, 0.0019202423, 10.000875, 9.998497 
2.7161393e+3, 1.7011969e+2, -1065384.9, -1202575.5, -26223.56, -0.2618707, -0.2634025, -1060543.1, 212255.1, 0.00025324232, 10.001802, 9.999853 
2.7157336e+3, 1.8011248e+2, -937251.25, -1200027.6, 2976.2625, -0.04604386, -0.13555247, -937217.5, 237652.0, 0.000008369746, 10.002389, 9.998994 
2.7153277e+3, 1.901017e+2, -831940.56, -979001.0, 23332.1, 0.06402589, -0.35818526, -828327.56, 248641.52, 0.0, 10.002091, 9.999889 
2.7149212e+3, 2.0009108e+2, -940625.5, -1217102.8, 26457.875, 0.07564445, -0.5489745, -938116.4, 40951.992, 0.0, 10.00151, 9.997969 
2.7145118e+3, 2.1008243e+2, -710587.6, -1070472.3, 38862.574, -0.21620287, -0.36527428, -706438.9, 174724.6, 0.0, 10.002605, 9.997693 
2.7141023e+3, 2.2007394e+2, -481518.56, -900265.8, -33438.574, -0.48269722, -0.17700617, -478865.2, 304392.0, 0.0, 10.003337, 9.997905 
2.713696e+3, 2.3006517e+2, -460290.63, -639488.44, -124980.72, -0.11440643, -0.14839467, -396110.0, 289233.5, 0.0, 10.002049, 9.999573 
2.71329e+3, 2.4005666e+2, -644125.2, -829337.0, -107582.14, 0.24136716, -0.12133597, -594781.25, -7354.7324, 0.0, 10.000631, 9.99836 
2.7128798e+3, 2.5004834e+2, -533211.8, -681633.6, -51972.34, 0.062103685, 0.009010193, -516822.63, -27308.996, 0.0, 10.000668, 9.9986 
2.712469e+3, 2.6003975e+2, -439554.9, -635107.3, 20513.441, -0.14327139, 0.11206321, -437426.22, -45824.254, 0.0, 10.00076, 9.998258 
2.712064e+3, 2.700282e+2, -176820.1, -313704.5, 39503.7, 0.054312225, -0.12918018, -166237.77, 127466.5, 0.0, 10.001372, 9.999435 
2.7116588e+3, 2.8001648e+2, -96666.71, -325330.97, -36353.805, 0.24593237, -0.41423076, -91026.195, 104780.65, 0.0, 10.001596, 9.998633 
2.711247e+3, 2.9000714e+2, -240497.5, -280832.03, -131656.27, 0.042748276, -0.41476646, -127472.836, -29576.314, 0.0, 9.999798, 9.999061 
2.710834e+3, 2.999985e+2, -442351.25, -388224.3, -32855.06, -0.22755343, -0.36182612, -372721.53, -372721.53, 0.0, 9.997827, 9.998709 
2.7104312e+3, 3.0999154e+2, -271330.4, -130408.89, 24652.361, -0.010682993, -0.19775842, -126220.76, -126220.76, 0.0, 9.998116, 9.999979 
2.710026e+3, 3.1997836e+2, -135150.17, -121064.33, -229827.02, 0.06479349, -0.64701295, 101827.66, 101827.66, 0.0, 9.999147, 9.999581 
2.7277654e+3, 1.3055637e+2, -934815.25, -1102210.0, 133153.08, -0.3288149, -0.44428954, -861239.0, 799283.6, 0.022191023, 10.004359, 10.00211 
2.7273646e+3, 1.4055403e+2, -1656721.1, -1647055.8, -72022.22, 0.2727525, -0.052264035, -1579704.3, -17165.938, 0.012784307, 9.999644, 9.999985 
2.7269533e+3, 1.5054484e+2, -1337489.0, -1422832.9, -71658.945, 0.02162807, -0.15549454, -1296758.9, 167871.52, 0.00532732, 10.001231, 9.999993 
2.7265418e+3, 1.6053513e+2, -1065082.1, -1349564.8, -31080.223, -0.25862595, -0.2924048, -1061726.1, 305002.56, 0.0013580795, 10.002801, 9.999129 
2.7261344e+3, 1.7052773e+2, -963521.1, -1134308.4, -14127.076, -0.17471515, -0.19301775, -962360.44, 306441.28, 0.00016970174, 10.002468, 9.999999 
2.7257276e+3, 1.805201e+2, -1080361.8, -1307351.1, -9848.973, -0.028827118, -0.104414225, -1079935.3, 90940.87, 0.0000049540654, 10.001575, 9.998662 
2.7253208e+3, 1.9050857e+2, -936274.75, -1097180.9, -9696.763, 0.036758225, -0.35450774, -935692.5, 137291.81, 0.0, 10.00163, 9.999307 
2.7249143e+3, 2.004973e+2, -1016634.1, -1287581.4, 6852.0596, 0.07566429, -0.56482774, -1016460.94, -41368.945, 0.0, 10.001156, 9.997641 
2.724506e+3, 2.1048969e+2, -800786.5, -1080871.9, 39059.9, -0.18542036, -0.3018137, -795441.3, 81736.06, 0.0, 10.001883, 9.997939 
2.7240977e+3, 2.2048248e+2, -707955.06, -1022602.8, -67042.95, -0.39162412, -0.009190272, -694265.56, 84993.36, 0.0, 10.001894, 9.997762 
2.7236903e+3, 2.3047355e+2, -467222.94, -652509.75, -146465.47, -0.08421376, 0.008852489, -386560.47, 294786.88, 0.0, 10.002123, 9.999428 
2.7232826e+3, 2.4046455e+2, -589341.6, -801428.94, -67561.12, 0.23898439, 0.0074368315, -569648.44, 13786.901, 0.0, 10.001112, 9.998297 
2.7228722e+3, 2.5045553e+2, -415274.5, -533310.5, -36093.41, 0.07147421, 0.005252131, -405112.6, 80413.49, 0.0, 10.001177, 9.999332 
2.7224624e+3, 2.604465e+2, -510913.66, -681346.5, 4112.533, -0.08186546, 0.006343621, -510814.5, -123198.92, 0.0, 10.0003805, 9.998132 
2.7220583e+3, 2.70436e+2, -358632.7, -426551.8, 34504.6, 0.185063, -0.12759526, -344179.22, -54468.785, 0.0, 10.000278, 9.999176 
2.721654e+3, 2.8042558e+2, -476520.84, -577273.4, -61105.8, 0.47098857, -0.2526898, -447703.13, -255899.06, 0.0, 9.999333, 9.998003 
2.7212405e+3, 2.9041648e+2, -190335.64, -268411.34, -141290.56, 0.26826227, -0.22430182, -82789.12, 11101.759, 0.0, 10.000216, 9.998927 
2.7208263e+3, 3.0040756e+2, -255156.75, -404993.0, 22729.5, -0.07722846, -0.16696404, -251784.67, -251784.67, 0.0, 9.999643, 9.997705 
2.7204219e+3, 3.1039762e+2, -236133.1, -219471.77, 99477.945, 0.038599264, -0.21750714, -127976.27, -127976.27, 0.0, 9.998865, 9.998956 
2.7200216e+3, 3.2038674e+2, -490269.9, -543408.75, 1363.182, 0.5325996, -0.30779716, -490234.97, -490234.97, 0.0, 9.997923, 9.997214 
2.7377683e+3, 1.3096541e+2, -1367569.6, -1785475.0, -103209.94, 0.32580957, -0.46624002, -1343469.6, 313039.2, 0.01685376, 10.0035, 9.99768 
2.737352e+3, 1.4095888e+2, -1628313.0, -1776011.3, -54638.38, -0.18016379, -0.1716876, -1610297.9, -51719.13, 0.009467277, 10.000517, 9.99865 
2.7369455e+3, 1.5095125e+2, -1206766.6, -1215394.0, 56501.145, -0.08250426, -0.18738143, -1154414.8, 306238.6, 0.0037924994, 10.001565, 10.001226 
2.7365395e+3, 1.609432e+2, -1081299.9, -1306132.5, 8252.962, 0.02979039, -0.25410202, -1080997.4, 281734.03, 0.0009170214, 10.002506, 9.999545 
2.73613e+3, 1.7093503e+2, -985138.8, -1143134.4, -12920.267, -0.03199628, -0.23322408, -984089.25, 280720.66, 0.0001065257, 10.002345, 9.99998 
2.7357206e+3, 1.8092681e+2, -1082698.5, -1337520.4, 5001.9624, -0.10025594, -0.18297255, -1082600.4, 84288.96, 0.0000025959862, 10.001697, 9.9983835 
2.735314e+3, 1.9091666e+2, -960573.2, -1182751.1, 10962.201, -0.010668145, -0.23823868, -960033.6, 108955.37, 0.0, 10.001764, 9.998669 
2.734908e+3, 2.0090654e+2, -966981.8, -1265497.0, 36846.19, 0.055764228, -0.273237, -962501.06, 8588.42, 0.0, 10.00148, 9.997629 
2.734502e+3, 2.108975e+2, -749972.44, -1032536.4, 83342.61, 0.0022666955, -0.16819848, -727222.1, 145963.73, 0.0, 10.002096, 9.998178 
2.7340955e+3, 2.2088894e+2, -534845.25, -847705.1, -46282.22, -0.06951342, -0.042360514, -528142.25, 247134.55, 0.0, 10.0026455, 9.998599 
2.7336857e+3, 2.3088e+2, -345416.16, -513617.03, -125744.9, 0.04585578, -0.09880308, -278239.8, 399122.9, 0.0, 10.002567, 10.000182 
2.7332756e+3, 2.4087106e+2, -404179.13, -673651.8, -51424.035, 0.16737597, -0.14733553, -394699.25, 184749.1, 0.0, 10.002165, 9.998666 
2.7328667e+3, 2.5086138e+2, -345546.56, -551203.5, -29763.262, 0.16837642, -0.17813945, -341325.75, 140217.06, 0.0, 10.001817, 9.998928 
2.7324575e+3, 2.6085183e+2, -339902.97, -546222.56, -11430.291, 0.11712046, -0.2009437, -339271.66, 44363.87, 0.0, 10.001269, 9.998628 
2.732049e+3, 2.708422e+2, -337611.44, -384188.7, 3768.8267, 0.019926274, -0.27647522, -337308.44, -51582.203, 0.0, 10.000228, 9.999516 
2.7316403e+3, 2.8083295e+2, -355043.44, -380755.28, -17733.432, 0.008515853, -0.32637277, -345996.2, -158183.5, 0.0, 9.999455, 9.99932 
2.7312315e+3, 2.9082602e+2, 57113.133, -3148.6973, -24301.334, 0.087211855, -0.20138544, 65691.734, 155570.0, 0.0, 10.001165, 10.000353 
2.730821e+3, 3.0081838e+2, 164737.0, -146314.14, 90287.3, 0.058444083, -0.10801723, 189044.69, 189044.69, 0.0, 10.002207, 9.998254 
2.7304152e+3, 3.1080526e+2, -146173.06, -275379.78, 106006.75, 0.19293986, -0.4100878, -86635.266, -86635.266, 0.0, 9.9998255, 9.998139 
2.7300078e+3, 3.2079744e+2, -270994.38, -138833.14, 154206.11, 0.17962104, -0.1726292, -37145.543, -37145.543, 0.0, 9.997953, 10.000026 
2.7477643e+3, 1.3137664e+2, -1251811.5, -1726593.3, -49515.273, 0.3687839, -0.3585512, -1246702.5, 405778.5, 0.012357856, 10.004205, 9.9977455 
2.747347e+3, 1.4136812e+2, -950473.94, -1501484.4, 72075.25, -0.18437304, -0.2147374, -941202.06, 613367.2, 0.006744909, 10.005395, 9.998174 
2.7469394e+3, 1.5135951e+2, -974314.9, -1215951.3, 90861.62, -0.13310193, -0.22869593, -943961.4, 512691.97, 0.0025850076, 10.003591, 10.000252 
2.7465332e+3, 1.6135105e+2, -1215388.6, -1394761.1, -20050.357, 0.013571315, -0.25946787, -1213174.8, 145560.19, 0.0005889778, 10.001645, 9.999349 
2.746124e+3, 1.7134249e+2, -1028591.8, -1165481.9, -29448.924, -0.019975062, -0.2931766, -1022525.3, 238290.31, 0.00006228534, 10.001982, 10.000019 
2.7457148e+3, 1.8133382e+2, -1053440.4, -1398595.9, 25190.535, -0.06282463, -0.26775405, -1051611.6, 111287.45, 0.0000011486238, 10.002216, 9.99771 
2.745308e+3, 1.9132401e+2, -747089.4, -1159606.4, 26919.875, -0.040150505, -0.2250183, -745340.06, 319659.2, 0.0, 10.003596, 9.997923 
2.7449018e+3, 2.0131454e+2, -642805.4, -1055890.3, 32313.754, 0.015072234, -0.16091162, -640292.9, 326802.9, 0.0, 10.003528, 9.9980755 
2.7444962e+3, 2.1130562e+2, -876844.44, -959574.56, 121039.21, 0.07383451, -0.15710339, -790297.2, 78888.52, 0.0, 10.000647, 9.999382 
2.7440897e+3, 2.2129673e+2, -1180605.6, -1121473.5, 88441.95, 0.12813072, -0.14251912, -1057786.6, -286511.3, 0.0, 9.998084, 9.998909 
2.7436793e+3, 2.3128778e+2, -667139.56, -657946.7, -22124.508, 0.08241039, -0.2139908, -639946.2, 33415.965, 0.0, 10.000352, 10.000234 
2.7432686e+3, 2.412788e+2, -552802.0, -822213.2, -13040.373, 0.08103111, -0.24120092, -552172.3, 23276.645, 0.0, 10.001506, 9.997964 
2.7428606e+3, 2.5126866e+2, -421484.5, -642410.3, -16216.217, 0.21265902, -0.28204146, -420300.56, 57246.844, 0.0, 10.001543, 9.998418 
2.7424517e+3, 2.612588e+2, -495383.3, -662729.1, -13090.217, 0.25070393, -0.2911415, -494365.56, -114722.79, 0.0, 10.000461, 9.998198 
2.7420396e+3, 2.712496e+2, -412118.0, -389802.34, -22429.982, -0.07880436, -0.34665108, -375908.2, -94176.09, 0.0, 9.999652, 9.999713 
2.7416283e+3, 2.8124118e+2, -514193.88, -422193.44, -7635.305, -0.29709387, -0.34271368, -421564.1, -237750.33, 0.0, 9.998322, 9.999552 
2.7412224e+3, 2.9123557e+2, -207036.89, -17928.986, -36665.12, -0.03557762, -0.18627177, -11069.028, 74797.664, 0.0, 9.998964, 10.001276 
2.7408153e+3, 3.012286e+2, -359376.2, -446123.94, -46711.234, 0.15198639, -0.08624648, -339006.6, -339006.6, 0.0, 9.998922, 9.997759 
2.7404076e+3, 3.1121352e+2, -263691.63, -395393.3, -62572.633, 0.29086635, -0.5568036, -238703.78, -238703.78, 0.0, 9.999409, 9.997456 
2.739993e+3, 3.212085e+2, 28531.299, 392327.75, 97064.52, -0.3524586, -0.123788446, 416605.38, 416605.38, 0.0, 9.998507, 10.003364 
2.7577582e+3, 1.3178867e+2, -1255657.6, -1549244.8, 41499.336, 0.13280384, -0.20304799, -1249904.3, 398542.3, 0.008684969, 10.003468, 9.999306 
2.757345e+3, 1.4177898e+2, -1149694.1, -1696492.8, 81927.46, -0.118041664, -0.26726377, -1137682.8, 412857.75, 0.0045925975, 10.004489, 9.9972515 
2.7569342e+3, 1.5176874e+2, -1161337.3, -1523078.6, 58465.996, -0.2375691, -0.2677137, -1152122.5, 300519.5, 0.0016782222, 10.003283, 9.998276 
2.7565244e+3, 1.6175891e+2, -1240447.1, -1458815.8, 5076.8257, -0.26905215, -0.2799236, -1240329.1, 114408.93, 0.0003582281, 10.001731, 9.998856 
2.756117e+3, 1.7174998e+2, -1001054.8, -1127022.0, 19272.438, -0.123050444, -0.35582876, -998172.2, 258648.67, 0.000033741435, 10.002088, 10.0002165 
2.7557096e+3, 1.8174095e+2, -1053965.8, -1442694.3, 83515.23, -0.06173137, -0.35777566, -1036782.7, 122124.62, 0.00000040337267, 10.002395, 9.997312 
2.7553028e+3, 1.9173053e+2, -787692.8, -1262463.1, 103832.52, -0.15158194, -0.30408183, -765977.8, 295038.25, 0.0, 10.003658, 9.997189 
2.7548954e+3, 2.0172115e+2, -477823.3, -790735.56, -25127.719, -0.20547336, -0.2330028, -475818.34, 487293.44, 0.0, 10.003824, 9.999764 
2.7544874e+3, 2.1171398e+2, -683610.56, -581445.25, 25703.775, -0.068815395, -0.29211015, -575342.94, 289832.66, 0.0, 10.000688, 10.001991 
2.7540788e+3, 2.2170652e+2, -1096934.3, -1023614.7, 133392.27, 0.011579742, -0.31607565, -921936.4, -154691.39, 0.0, 9.998395, 9.999421 
2.7536696e+3, 2.3169762e+2, -707936.8, -795820.9, 110716.914, -0.08368579, -0.29351512, -632760.7, 36576.063, 0.0, 10.000545, 9.999217 
2.7532604e+3, 2.4168856e+2, -446304.16, -797278.44, 32170.635, -0.13121845, -0.23704742, -443379.75, 128050.05, 0.0, 10.002279, 9.997778 
2.7528527e+3, 2.5167882e+2, -393005.6, -666966.1, -4799.1187, 0.068602875, -0.18716171, -392921.56, 80606.59, 0.0, 10.001856, 9.998126 
2.7524444e+3, 2.616693e+2, -376028.0, -559829.7, -18588.145, 0.21594468, -0.14287846, -374166.97, 1456.6276, 0.0, 10.001022, 9.998641 
2.7520338e+3, 2.716602e+2, -360410.56, -357241.34, -30909.691, 0.16924565, -0.18589988, -327875.66, -50162.926, 0.0, 9.999925, 9.999835 
2.751623e+3, 2.816514e+2, -478541.22, -460116.44, -19872.945, 0.09501564, -0.19787116, -447424.44, -267624.97, 0.0, 9.998761, 9.999079 
2.751213e+3, 2.9164317e+2, -446861.9, -295740.6, -93848.484, 0.04608822, -0.16191664, -250814.94, -168933.7, 0.0, 9.998, 9.99985 
2.7508038e+3, 3.016346e+2, -507882.44, -516670.9, -80101.51, 0.018636202, -0.11142993, -432054.72, -432054.72, 0.0, 9.997806, 9.997847 
2.7503997e+3, 3.1162354e+2, -90319.484, -261498.42, -50707.188, 0.35570282, -0.21863109, -76426.414, -76426.414, 0.0, 10.000254, 9.998044 
2.7499843e+3, 3.216169e+2, 275647.8, 507304.06, -103802.51, -0.38645455, 0.009981787, 547010.9, 547010.9, 0.0, 10.000064, 10.003434 
2.767753e+3, 1.3220271e+2, -1349553.1, -1686431.5, 150931.19, 0.09806475, -0.11872259, -1291824.3, 352561.47, 0.0058226245, 10.003128, 9.99858 
2.76734e+3, 1.4218979e+2, -1323174.1, -1803059.8, 85303.836, -0.16839513, -0.40853792, -1308461.8, 238049.06, 0.00296968, 10.003361, 9.9970875 
2.7669305e+3, 1.5218024e+2, -1173604.6, -1558973.1, 121861.14, -0.08147722, -0.31422687, -1138303.5, 310303.06, 0.0010279784, 10.003336, 9.998009 
2.7665213e+3, 1.621705e+2, -1100573.4, -1505048.0, 153047.8, -0.0115285395, -0.24404034, -1049189.8, 301513.38, 0.0002033788, 10.003152, 9.997883 
2.7661115e+3, 1.7215993e+2, -892591.94, -1217628.8, 101414.016, -0.08933692, -0.34875146, -863545.6, 389258.53, 0.000016580547, 10.003422, 9.998981 
2.7657035e+3, 1.8214984e+2, -951394.1, -1355885.0, 139184.1, -0.13150029, -0.3772807, -908129.06, 246772.48, 0.00000009587778, 10.002971, 9.997633 
2.7652976e+3, 1.9213976e+2, -979648.44, -1255518.8, 241537.5, -0.14193472, -0.36776856, -839435.3, 217567.83, 0.0, 10.001928, 9.998081 
2.7648905e+3, 2.0213047e+2, -893996.4, -999175.1, 124208.01, -0.13277873, -0.31649518, -811703.3, 147392.42, 0.0, 10.001015, 9.999698 
2.7644804e+3, 2.1212325e+2, -540893.7, -526003.7, -67416.945, -0.03180492, -0.3620843, -465621.9, 395539.3, 0.0, 10.001762, 10.001843 
2.7640706e+3, 2.2211593e+2, -692177.44, -892874.4, -20661.742, 0.013146016, -0.35334256, -690072.4, 73157.195, 0.0, 10.001521, 9.998806 
2.7636614e+3, 2.3210704e+2, -560918.7, -781085.9, 31942.033, -0.2002651, -0.30944788, -556378.1, 108944.73, 0.0, 10.001853, 9.998669 
2.763253e+3, 2.4209812e+2, -610302.2, -904438.2, -39840.707, -0.27006206, -0.20015922, -605001.3, -37585.29, 0.0, 10.001362, 9.99746 
2.7628455e+3, 2.5208887e+2, -512419.44, -689132.94, -33210.207, 0.03826224, -0.1480045, -506384.28, -36874.145, 0.0, 10.000939, 9.998389 
2.7624375e+3, 2.6207975e+2, -541518.1, -693610.3, -5634.9375, 0.28433052, -0.06581582, -541309.6, -169706.53, 0.0, 10.0001745, 9.998139 
2.762027e+3, 2.7207077e+2, -279116.78, -349791.7, -61413.797, 0.3227071, -0.07342699, -243599.53, 30094.195, 0.0, 10.000699, 9.999499 
2.761616e+3, 2.8206155e+2, -348739.8, -529633.94, -47366.137, 0.31958154, -0.062411174, -337087.8, -161301.52, 0.0, 10.000291, 9.997865 
2.7612042e+3, 2.9205102e+2, -134997.17, -288291.25, -45125.04, 0.09482543, -0.14932367, -122700.195, -44808.17, 0.0, 10.000783, 9.998553 
2.7607936e+3, 3.020416e+2, -202319.94, -407286.9, 72761.2, -0.07707312, -0.07418615, -179117.08, -179117.08, 0.0, 10.000158, 9.997444 
2.7603918e+3, 3.1203443e+2, -79858.83, -186389.75, 111798.945, 0.34438485, 0.1615898, -9284.826, -9284.826, 0.0, 10.000113, 9.9985895 
2.7599743e+3, 3.2202357e+2, -80186.34, 262587.72, -184828.19, -0.5384062, -0.06384607, 343262.13, 343262.13, 0.0, 9.998161, 10.002589 
2.7777472e+3, 1.3261667e+2, -1647905.5, -1990527.6, 37222.414, 0.0061387965, -0.030288577, -1643908.4, -3584.167, 0.0036891268, 10.001865, 9.99704 
2.7773336e+3, 1.4260037e+2, -1406855.5, -1840747.6, 61207.12, -0.33900702, -0.5960839, -1398386.6, 144096.33, 0.001804215, 10.002835, 9.997051 
2.776928e+3, 1.5259297e+2, -1181557.8, -1496845.8, 110800.4, 0.16367176, -0.35037705, -1146514.5, 298043.72, 0.00058557204, 10.00303, 9.998558 
2.7765208e+3, 1.6258413e+2, -1216335.9, -1719765.9, 148303.98, 0.4157678, -0.17340542, -1175896.0, 170751.78, 0.00010501939, 10.003042, 9.996458 
2.7761072e+3, 1.725714e+2, -1019922.8, -1502712.4, 133812.3, -0.07578194, -0.3018617, -985315.44, 263458.88, 0.0000068884756, 10.003505, 9.996989 
2.7756965e+3, 1.825601e+2, -848451.6, -1161622.3, 130001.96, -0.36136818, -0.36547297, -801519.2, 349365.0, 0.00000000965895, 10.003073, 9.998907 
2.775292e+3, 1.9255137e+2, -818559.94, -924657.9, 233240.92, -0.0667136, -0.43081644, -632411.25, 420551.7, 0.0, 10.001936, 10.000357 
2.7748862e+3, 2.0254262e+2, -997929.6, -1235062.3, 145274.8, 0.1230927, -0.39947322, -928978.6, 26068.063, 0.0, 10.00112, 9.998005 
2.7744758e+3, 2.125334e+2, -748334.56, -1017986.9, -9523.705, 0.1290581, -0.31421858, -747998.6, 109146.46, 0.0, 10.002044, 9.998321 
2.7740648e+3, 2.225244e+2, -555780.8, -879926.6, -14788.966, 0.020730305, -0.2230919, -555107.5, 204131.88, 0.0, 10.002643, 9.99837 
2.7736545e+3, 2.3251535e+2, -438121.97, -676764.0, 34725.594, -0.31024104, -0.20961294, -433171.6, 228159.7, 0.0, 10.002454, 9.999134 
2.7732456e+3, 2.4250658e+2, -382860.72, -573026.3, -61527.613, -0.3803078, -0.18125817, -364689.88, 198728.64, 0.0, 10.001949, 9.999443 
2.7728403e+3, 2.5249794e+2, -344504.66, -411865.6, -33790.063, 0.22008464, -0.23582606, -330476.2, 135023.73, 0.0, 10.001223, 10.000177 
2.7724323e+3, 2.6248926e+2, -431708.78, -648976.7, 42822.043, 0.49553236, -0.20423792, -423573.47, -55987.61, 0.0, 10.0009, 9.998109 
2.7720168e+3, 2.724801e+2, -202409.86, -450868.7, -8082.0723, -0.017461332, -0.10828853, -202147.23, 67537.11, 0.0, 10.001745, 9.998339 
2.7716044e+3, 2.824711e+2, 47074.547, -224774.64, 18102.693, -0.25296792, -0.03040838, 48274.723, 220052.8, 0.0, 10.002441, 9.998924 
2.7711987e+3, 2.9246208e+2, 336938.1, 63238.016, 60753.99, 0.107004635, -0.07667806, 349817.75, 423682.5, 0.0, 10.003365, 9.99977 
2.77079e+3, 3.0245367e+2, 280532.13, -124797.53, 141754.11, 0.11556956, 0.024051068, 325187.47, 325187.47, 0.0, 10.003156, 9.997947 
2.770377e+3, 3.124466e+2, -51992.715, -186087.89, 139198.95, -0.34019884, 0.286648, 35464.48, 35464.48, 0.0, 10.00028, 9.998522 
2.769969e+3, 3.2243478e+2, -52932.145, 226222.6, -166677.05, -0.082151845, 0.015850268, 304045.94, 304045.94, 0.0, 9.998429, 10.002222 
2.7877396e+3, 1.330232e+2, -1581567.5, -1645816.9, -80794.875, -0.045444697, -0.11124247, -1526745.1, 109604.23, 0.0021708824, 10.000914, 9.999871 
2.7873302e+3, 1.430103e+2, -1321191.3, -1693742.1, -68170.836, -0.12548436, -0.55097854, -1309108.9, 229358.84, 0.001007235, 10.00286, 9.998092 
2.7869228e+3, 1.5300345e+2, -1190000.1, -1475120.5, -56833.406, 0.17610721, -0.3098766, -1179089.0, 261449.44, 0.00030058212, 10.002729, 9.998923 
2.786515e+3, 1.6299511e+2, -1211049.8, -1638795.6, 56294.36, 0.37950283, -0.13914046, -1203765.0, 138857.3, 0.000046417692, 10.002715, 9.997185 
2.786104e+3, 1.7298326e+2, -920288.3, -1389611.6, 162255.05, 0.04871724, -0.26210585, -869655.75, 375082.56, 0.0000020738605, 10.003902, 9.997582 
2.7856934e+3, 1.8297234e+2, -726231.44, -1098698.9, 171897.34, -0.20242901, -0.31438395, -659025.44, 487818.16, 0.00000000000031198744, 10.0039015, 9.998931 
2.7852857e+3, 1.9296362e+2, -750298.25, -885064.1, 92648.11, -0.116860025, -0.38710874, -703120.56, 345802.4, 0.0, 10.002414, 10.00037 
2.7848783e+3, 2.0295477e+2, -1063980.1, -1360119.3, 29638.637, 0.024332136, -0.3484052, -1061043.0, -110035.164, 0.0, 10.001117, 9.997139 
2.784469e+3, 2.1294457e+2, -893744.25, -1204096.8, 77401.84, 0.11757785, -0.27192986, -875511.4, -22393.787, 0.0, 10.001601, 9.997239 
2.784059e+3, 2.2293477e+2, -808019.56, -1035758.94, 180674.03, 0.06775117, -0.16283563, -708325.7, 46896.18, 0.0, 10.001088, 9.998037 
2.783648e+3, 2.3292562e+2, -749862.3, -806139.4, 181090.44, -0.29201195, -0.1637102, -594737.3, 62576.586, 0.0, 10.000251, 9.999286 
2.7832386e+3, 2.4291684e+2, -749757.56, -704350.5, 46083.77, -0.34346056, -0.14809793, -675681.25, -116281.42, 0.0, 9.999291, 9.999817 
2.7828336e+3, 2.5290817e+2, -455474.78, -373160.97, -29031.086, 0.29499757, -0.27960017, -363952.28, 97526.87, 0.0, 10.000122, 10.000958 
2.7824247e+3, 2.6289952e+2, -616242.5, -774613.7, 41316.402, 0.514998, -0.27131662, -606111.75, -242548.53, 0.0, 9.999923, 9.997671 
2.7820066e+3, 2.7289033e+2, -501241.56, -638679.7, 69756.47, -0.31967655, -0.15173137, -472040.9, -206376.36, 0.0, 9.999983, 9.997853 
2.7815938e+3, 2.828816e+2, -341800.03, -362214.38, 134070.92, -0.66117924, -0.023735087, -217548.3, -49791.76, 0.0, 9.99964, 9.999312 
2.7811933e+3, 2.9287353e+2, -49303.01, -9340.832, 118995.98, 0.1267395, -0.069679625, 91339.945, 161170.22, 0.0, 10.000318, 10.000688 
2.7807844e+3, 3.02866e+2, -221876.9, -358428.16, 80182.195, 0.1829873, 0.06623557, -184839.92, -184839.92, 0.0, 9.999805, 9.997922 
2.7803615e+3, 3.1285858e+2, -390812.28, -323901.84, 73877.75, -1.0632036, 0.25741425, -276257.28, -276257.28, 0.0, 9.997966, 9.998656 
2.7799678e+3, 3.2284755e+2, -195240.28, 121653.11, -67438.22, 0.79570794, 0.0868418, 135407.66, 135407.66, 0.0, 9.997732, 10.001839 
2.7977327e+3, 1.3342816e+2, -1341039.9, -1065385.9, 88959.01, -0.1046006, -0.1882737, -1039170.25, 593223.56, 0.0011673449, 10.00064, 10.003968 
2.7973276e+3, 1.4342046e+2, -1403268.3, -1665008.9, -45621.91, 0.12608604, -0.3620862, -1395544.3, 138908.64, 0.00050489604, 10.002058, 9.998652 
2.7969152e+3, 1.5341294e+2, -1188134.9, -1419376.8, -35229.367, -0.028141985, -0.23606582, -1182886.9, 253644.64, 0.00013439951, 10.002567, 9.999353 
2.7965063e+3, 1.6340496e+2, -1077551.6, -1360872.0, 101136.375, 0.020447357, -0.12664567, -1045153.9, 293456.47, 0.000016423304, 10.0027485, 9.999063 
2.7961016e+3, 1.7339559e+2, -812364.9, -1083750.0, 219442.86, 0.22645885, -0.21728735, -690050.4, 550645.0, 0.0000003300107, 10.003584, 9.999821 
2.7956927e+3, 1.8338607e+2, -838696.94, -1268926.5, 122035.086, 0.102997035, -0.21703054, -806492.2, 336293.5, 0.0, 10.003609, 9.99791 
2.7952772e+3, 1.9337599e+2, -899674.7, -1175532.3, 54451.48, -0.4165126, -0.23085704, -889315.5, 155572.7, 0.0, 10.002315, 9.998441 
2.7948654e+3, 2.0336646e+2, -919429.0, -1112880.0, 36223.24, -0.57879835, -0.20077279, -912868.75, 34114.28, 0.0, 10.001353, 9.998707 
2.79446e+3, 2.1335694e+2, -718043.7, -880935.5, 131161.33, -0.1576876, -0.25420305, -645098.1, 203976.69, 0.0, 10.001782, 9.999373 
2.7940524e+3, 2.2334778e+2, -687850.75, -929608.2, 188865.97, 0.043583013, -0.21752667, -584492.94, 166672.72, 0.0, 10.001653, 9.998495 
2.7936417e+3, 2.3333889e+2, -746384.94, -837534.9, 186131.55, -0.13906716, -0.16204642, -600330.0, 52926.445, 0.0, 10.00036, 9.999027 
2.7932313e+3, 2.4333003e+2, -737411.75, -790577.3, 93488.484, -0.22189322, -0.10064585, -666800.2, -111453.97, 0.0, 9.999713, 9.999031 
2.792822e+3, 2.5332052e+2, -484318.8, -537003.25, 33119.313, -0.03007547, -0.17568728, -468343.16, -10902.691, 0.0, 10.000482, 9.999705 
2.792412e+3, 2.6331148e+2, -409265.56, -509021.7, 43480.688, 0.021202056, -0.18568829, -392974.22, -33444.813, 0.0, 10.000554, 9.999197 
2.7919984e+3, 2.7330285e+2, -393467.94, -400664.75, 98746.734, -0.2948127, -0.1671119, -298254.06, -36639.047, 0.0, 9.999845, 9.9995775 
2.7915877e+3, 2.8329402e+2, -403586.78, -400552.0, 200503.94, -0.40316126, -0.1353188, -201559.72, -37857.543, 0.0, 9.999225, 9.999237 
2.7911827e+3, 2.9328462e+2, -276574.7, -217554.31, 156348.8, -0.056692187, -0.21283476, -87955.11, -22162.354, 0.0, 9.99914, 9.999829 
2.790772e+3, 3.032758e+2, -266339.97, -206460.97, 59149.043, -0.12458643, -0.22158574, -170105.8, -170105.8, 0.0, 9.998642, 9.999555 
2.7903533e+3, 3.1326777e+2, -309024.06, -104224.67, 73028.3, -0.7786685, -0.23549272, -80851.44, -80851.44, 0.0, 9.997609, 10.000408 
2.789956e+3, 3.2326242e+2, 18852.436, 289374.63, 221891.52, 0.60046023, 0.05839205, 413981.56, 413981.56, 0.0, 9.998766, 10.00254 
2.8077266e+3, 1.3383934e+2, -1390326.3, -1330374.9, 228731.22, -0.010163612, -0.10646498, -1129663.5, 498702.53, 0.0005662871, 10.001236, 10.001904 
2.8073218e+3, 1.4383148e+2, -1527379.0, -1761776.6, 11824.926, 0.21986875, -0.14233153, -1526784.0, 3649.358, 0.00022570654, 10.001348, 9.998328 
2.806911e+3, 1.5382211e+2, -1007153.9, -1335319.8, 2697.3752, 0.057900056, -0.19482458, -1007131.7, 425393.38, 0.00005282333, 10.003805, 9.999333 
2.8065023e+3, 1.6381334e+2, -853787.3, -1210499.8, 22065.127, 0.061827157, -0.18295093, -852427.6, 482181.5, 0.000004777361, 10.004121, 9.999396 
2.8060958e+3, 1.7380485e+2, -1053491.0, -1162483.9, 2202.0518, 0.19951053, -0.24171291, -1053446.5, 183240.0, 0.00000002399446, 10.001729, 10.000159 
2.805686e+3, 1.8379629e+2, -1346613.3, -1493477.1, -92766.62, 0.12346923, -0.20021115, -1301732.5, -162963.92, 0.0, 10.000056, 9.99808 
2.8052706e+3, 1.9378696e+2, -1205353.0, -1317585.9, -45248.055, -0.34329185, -0.17022228, -1189383.0, -148517.86, 0.0, 10.00019, 9.9985 
2.8048587e+3, 2.0377761e+2, -1057059.8, -1106835.6, 55826.258, -0.5092906, -0.14750421, -1020825.06, -77867.56, 0.0, 10.000079, 9.999381 
2.8044528e+3, 2.1376817e+2, -863945.2, -838198.4, 49537.367, -0.13533606, -0.30448702, -799889.0, 45154.133, 0.0, 10.000271, 10.0004015 
2.8040454e+3, 2.2375926e+2, -939023.7, -1044529.5, 59304.42, 0.0661007, -0.3132315, -912404.8, -165277.39, 0.0, 10.000006, 9.998467 
2.8036344e+3, 2.3375052e+2, -802613.94, -868047.9, 45963.59, -0.057968345, -0.26122642, -778912.4, -129695.99, 0.0, 10.00006, 9.998946 
2.803223e+3, 2.437417e+2, -834023.6, -942319.44, 42324.164, -0.16362, -0.15092723, -819445.0, -268137.6, 0.0, 9.999581, 9.998043 
2.802812e+3, 2.5373226e+2, -673215.94, -722493.06, 17214.76, -0.25910395, -0.14524317, -667797.75, -214391.81, 0.0, 9.999681, 9.998784 
2.802401e+3, 2.6372343e+2, -562098.1, -521524.7, 7371.491, -0.2820414, -0.10740402, -520226.94, -164732.69, 0.0, 9.999287, 9.999725 
2.801991e+3, 2.7371493e+2, -346183.1, -253774.9, -16948.273, -0.20025103, -0.20298131, -250764.55, 6806.606, 0.0, 9.99966, 10.000677 
2.8015807e+3, 2.837061e+2, -495180.8, -528135.25, 67840.27, -0.1782058, -0.21496442, -441845.44, -282190.53, 0.0, 9.999027, 9.998445 
2.8011712e+3, 2.9369575e+2, -472766.8, -394644.06, 65292.336, -0.2685737, -0.33447412, -357620.75, -295862.53, 0.0, 9.998225, 9.999039 
2.8007594e+3, 3.03686e+2, -378161.25, -175610.92, -56105.383, -0.40381098, -0.42238927, -161108.4, -161108.4, 0.0, 9.99763, 10.000204 
2.8003472e+3, 3.1367728e+2, -153022.52, 111841.62, -114674.23, -0.35110152, -0.64802927, 154590.69, 154590.69, 0.0, 9.998197, 10.001544 
2.7999395e+3, 3.236773e+2, -42334.86, 326585.4, 200116.75, -0.16152944, 0.055370335, 414287.44, 414287.44, 0.0, 9.998333, 10.002894 
2.81772e+3, 1.3425262e+2, -1673128.0, -1932992.0, 130806.984, -0.015650973, 0.093004525, -1618688.8, 5626.5605, 0.00024922861, 10.001388, 9.997664 
2.8173146e+3, 1.4424255e+2, -1494003.1, -1783406.5, 92052.96, 0.1559811, 0.067653224, -1467204.5, 59209.508, 0.00009135414, 10.001812, 9.997932 
2.8169084e+3, 1.5423128e+2, -1086536.4, -1375178.6, 139518.4, 0.23800442, -0.17808117, -1030123.94, 398392.8, 0.000018191195, 10.003312, 9.999287 
2.8164998e+3, 1.6422102e+2, -986726.94, -1341707.8, -23258.621, 0.18765445, -0.27706742, -985209.5, 345403.72, 0.000001253609, 10.003513, 9.998791 
2.8160864e+3, 1.7421204e+2, -1114834.5, -1272117.3, -32628.008, -0.09278217, -0.30340466, -1108334.5, 124366.81, 0.0000000065346386, 10.001674, 9.999434 
2.8156754e+3, 1.8420409e+2, -1204511.9, -1216588.6, -85155.945, -0.1604837, -0.22718303, -1125180.5, 9598.308, 0.0, 10.000191, 9.999879 
2.8152665e+3, 1.9419679e+2, -1070976.4, -1037978.44, -7309.145, 0.042622942, -0.17931668, -1036431.94, 418.14337, 0.0, 10.000212, 10.000396 
2.814857e+3, 2.0418832e+2, -1003920.94, -1050763.4, 68603.77, 0.12503135, -0.17993835, -954850.56, -15919.996, 0.0, 10.0003, 9.999652 
2.8144476e+3, 2.1417812e+2, -843921.6, -850426.56, 82078.516, 0.10125893, -0.3923178, -765031.2, 75993.62, 0.0, 10.000464, 10.000236 
2.8140372e+3, 2.241684e+2, -827144.8, -947812.75, 57832.188, -0.0041369977, -0.4792536, -803903.94, -60787.613, 0.0, 10.000559, 9.998872 
2.813625e+3, 2.3415895e+2, -687088.94, -786738.6, 66087.305, -0.2229683, -0.51547843, -654148.8, -8939.386, 0.0, 10.000685, 9.999228 
2.8132138e+3, 2.4415031e+2, -670348.06, -838623.44, 30721.945, -0.32125825, -0.40961927, -664914.6, -117616.98, 0.0, 10.000549, 9.998288 
2.8128034e+3, 2.5414246e+2, -613884.2, -705845.8, 18587.764, -0.26225942, -0.2292453, -610269.25, -160886.72, 0.0, 10.000087, 9.998722 
2.8123933e+3, 2.6413402e+2, -481755.22, -531946.7, 19774.39, -0.19744259, -0.12822503, -474900.66, -123431.86, 0.0, 9.999958, 9.999365 
2.8119835e+3, 2.7412438e+2, -290609.13, -327874.1, -27525.824, -0.11366609, -0.24470878, -276002.47, -22442.021, 0.0, 10.000358, 9.999894 
2.8115728e+3, 2.8411564e+2, -304718.2, -347173.3, -8405.369, -0.1347366, -0.24367578, -303114.63, -147468.31, 0.0, 9.99986, 9.9993105 
2.8111607e+3, 2.9410738e+2, -377177.06, -281813.4, 4439.7837, -0.32889757, -0.20915149, -281607.16, -223875.97, 0.0, 9.998503, 9.999723 
2.810749e+3, 3.0409917e+2, -383665.78, -355277.63, -45285.65, -0.41617477, -0.10651108, -322013.7, -322013.7, 0.0, 9.9983, 9.9986515 
2.8103405e+3, 3.1409124e+2, -20282.703, -69317.1, -168754.39, -0.111054145, -0.029170247, 125726.16, 125726.16, 0.0, 10.00008, 9.999426 
2.80993e+3, 3.240816e+2, 42931.26, 171033.34, -89893.484, -0.20726478, -0.122057565, 217360.63, 217360.63, 0.0, 9.999566, 10.001303 
2.827715e+3, 1.346601e+2, -1221719.4, -1722639.0, 111245.3, -0.027143639, -0.078898124, -1198125.1, 422193.78, 0.0001069514, 10.004492, 9.997615 
2.8273103e+3, 1.446516e+2, -960290.94, -1360915.1, 80347.0, 0.1986912, 0.019385062, -944777.7, 577625.5, 0.000035101017, 10.004755, 9.999414 
2.8269023e+3, 1.5464088e+2, -1145468.6, -1275639.1, 160681.05, 0.18934004, -0.28309733, -1037191.56, 387305.7, 0.0000055355054, 10.002365, 10.000428 
2.826493e+3, 1.646315e+2, -1254794.6, -1441858.9, 95292.43, 0.1310868, -0.35265863, -1214801.8, 111783.26, 0.0000002527922, 10.001568, 9.99905 
2.8260797e+3, 1.7462339e+2, -960435.2, -1184890.0, 115079.03, -0.13968676, -0.28522578, -911920.0, 316748.2, 0.0, 10.00273, 9.999537 
2.8256688e+3, 1.8461563e+2, -825673.2, -976033.25, 69126.12, -0.13658708, -0.19941816, -798723.6, 332021.5, 0.0, 10.002511, 10.000429 
2.825261e+3, 1.9460793e+2, -919594.7, -911290.06, 54679.758, 0.2618538, -0.24100706, -860605.2, 172213.47, 0.0, 10.000968, 10.000928 
2.8248516e+3, 2.0459965e+2, -1070354.3, -1101618.6, 133926.28, 0.38357946, -0.23287228, -951150.94, -16253.14, 0.0, 9.999996, 9.99941 
2.8244397e+3, 2.1458998e+2, -908411.44, -907690.8, 117119.375, 0.120101824, -0.37620586, -790931.2, 46059.383, 0.0, 10.000197, 9.999939 
2.824028e+3, 2.2458039e+2, -884928.8, -974954.06, 108093.85, -0.11345464, -0.4263372, -812849.94, -73767.93, 0.0, 10.000222, 9.9988165 
2.8236166e+3, 2.3457049e+2, -737562.44, -784377.9, 94339.44, -0.3054682, -0.53651786, -663770.1, -22593.418, 0.0, 10.000306, 9.999384 
2.8232056e+3, 2.4456157e+2, -724638.2, -898654.8, 51926.496, -0.35753304, -0.4457565, -710321.25, -167054.8, 0.0, 10.000406, 9.997926 
2.822796e+3, 2.545534e+2, -514497.38, -678823.06, 19325.658, -0.20322718, -0.28982082, -512255.16, -66900.9, 0.0, 10.000915, 9.998492 
2.822386e+3, 2.6454487e+2, -524979.25, -619673.94, 34422.117, -0.103861004, -0.1508907, -513788.97, -166346.45, 0.0, 10.000071, 9.998654 
2.8219754e+3, 2.7453482e+2, -608469.6, -535139.06, 25229.836, -0.07060085, -0.27126047, -527297.2, -277756.28, 0.0, 9.998511, 9.999304 
2.8215638e+3, 2.8452638e+2, -586869.0, -452617.0, 38380.07, -0.16190723, -0.20398742, -442419.47, -290793.06, 0.0, 9.997902, 9.9994955 
2.8211507e+3, 2.9451934e+2, -288351.8, -171334.64, 10259.185, -0.3695735, -0.118548736, -170442.0, -116740.984, 0.0, 9.998905, 10.000256 
2.8207397e+3, 3.045125e+2, -393689.16, -580615.06, 57803.88, -0.38098273, 0.1986056, -377258.47, -377258.47, 0.0, 9.999249, 9.9966345 
2.820334e+3, 3.145057e+2, -251833.17, -393179.66, 32105.99, 0.072344474, 0.5671308, -244882.31, -244882.31, 0.0, 9.999466, 9.99748 
2.8199214e+3, 3.2448423e+2, -439650.88, -162651.02, 14201.225, -0.19854304, -0.55656934, -161924.84, -161924.84, 0.0, 9.996876, 10.000241 
2.8377116e+3, 1.3506629e+2, -1198893.1, -1557687.8, 242153.98, -0.10091241, -0.30422506, -1076923.6, 539409.9, 0.000050519382, 10.004039, 9.998946 
2.837307e+3, 1.450602e+2, -1031559.06, -1188004.3, 22830.246, 0.18703234, -0.12786002, -1028295.5, 490096.72, 0.000015386411, 10.003424, 10.001216 
2.836894e+3, 1.5505107e+2, -1144267.6, -1102895.3, 101332.22, -0.07553192, -0.43762526, -1020159.4, 400309.7, 0.0000020566958, 10.001672, 10.001931 
2.836484e+3, 1.6504365e+2, -1274290.9, -1370407.4, 125845.26, -0.119941495, -0.41273478, -1187639.8, 134898.1, 0.00000005936716, 10.001115, 9.999739 
2.836075e+3, 1.7503738e+2, -1006865.0, -1147946.3, 181553.44, -0.081276305, -0.2270011, -882629.75, 341974.44, 0.0, 10.002155, 10.000064 
2.8356645e+3, 1.8502954e+2, -876114.6, -1020498.8, 11629.207, 0.0019590969, -0.16830242, -875184.0, 251498.81, 0.0, 10.002231, 10.000273 
2.8352532e+3, 1.9501983e+2, -949965.8, -969373.0, 27763.635, 0.20020643, -0.37145168, -930258.9, 98517.83, 0.0, 10.000933, 10.000555 
2.8348416e+3, 2.0501181e+2, -1045778.56, -1090067.5, 156821.97, 0.15067647, -0.31374937, -909545.25, 21312.387, 0.0, 10.000175, 9.999401 
2.8344288e+3, 2.150046e+2, -881069.2, -927119.3, 165451.3, -0.1989591, -0.17279571, -737048.5, 95885.51, 0.0, 10.00051, 9.99967 
2.8340182e+3, 2.2499649e+2, -784874.44, -892037.5, 125463.984, -0.34517488, -0.07054829, -702029.5, 32984.69, 0.0, 10.000742, 9.999138 
2.833609e+3, 2.3498718e+2, -673387.2, -758689.6, 127496.56, -0.29307586, -0.109897375, -581596.94, 55504.66, 0.0, 10.000725, 9.999382 
2.8331998e+3, 2.4497703e+2, -615832.7, -841842.3, 94246.0, -0.21846652, -0.14042033, -581690.0, -42487.95, 0.0, 10.001087, 9.998 
2.8327906e+3, 2.5496572e+2, -386524.63, -653610.0, 83659.555, -0.08436627, -0.25969318, -362483.78, 78834.1, 0.0, 10.001872, 9.998236 
2.8323787e+3, 2.6495647e+2, -339450.63, -433166.63, -19764.223, -0.076489426, -0.2219221, -335452.97, 7958.6147, 0.0, 10.000888, 9.999543 
2.8319642e+3, 2.749485e+2, -609118.4, -488401.25, -18427.307, -0.20779812, -0.16481726, -485651.0, -240161.02, 0.0, 9.998276, 9.999748 
2.831552e+3, 2.8494006e+2, -563813.5, -437532.7, 170138.73, -0.27455506, -0.11908322, -319196.1, -171621.02, 0.0, 9.997978, 9.999584 
2.8311428e+3, 2.9493096e+2, -120099.49, -147602.63, 129670.16, -0.3158827, -0.17955187, -3453.7656, 46214.684, 0.0, 10.000222, 9.999817 
2.8307334e+3, 3.0492365e+2, -5940.327, -195557.06, 117165.055, -0.24363507, 0.028966645, 49970.504, 49970.504, 0.0, 10.00096, 9.998483 
2.8303275e+3, 3.1491813e+2, -28378.896, -146485.63, 165315.64, 0.20197098, 0.39477608, 88114.2, 88114.2, 0.0, 10.000278, 9.998829 
2.8299096e+3, 3.2490262e+2, -468161.8, 8901.568, -34614.62, -0.124871954, -0.2570512, 11400.041, 11400.041, 0.0, 9.995718, 10.002057 
2.8477094e+3, 1.354793e+2, -1174232.4, -1638297.1, 221886.8, 0.08317836, -0.33020353, -1085215.3, 527062.6, 0.000026715617, 10.004443, 9.998282 
2.8473008e+3, 1.4547174e+2, -1437423.5, -1467769.1, 85102.445, 0.23377669, -0.20199451, -1366151.9, 148203.39, 0.000008259592, 10.000945, 10.000511 
2.8468877e+3, 1.5546378e+2, -1307733.1, -1277306.8, 24889.535, 0.017604215, -0.29777372, -1263349.3, 153078.7, 0.0000013335809, 10.000905, 10.001124 
2.846477e+3, 1.6545634e+2, -1372261.1, -1260392.6, 40427.098, -0.026817972, -0.315085, -1247312.4, 71183.1, 0.000000073245815, 9.999779, 10.001131 
2.8460675e+3, 1.7544891e+2, -1539377.9, -1274095.9, 110408.2, 0.012363494, -0.37706438, -1234157.5, -13593.205, 0.0, 9.997932, 10.001236 
2.845657e+3, 1.8544115e+2, -1433169.0, -1330295.6, 34986.055, 0.037254762, -0.3506183, -1319525.0, -196884.1, 0.0, 9.998608, 9.999883 
2.8452447e+3, 1.9543232e+2, -903872.4, -1008955.56, 9572.003, 0.078946725, -0.43251935, -903007.56, 121722.65, 0.0, 10.001524, 9.999993 
2.8448325e+3, 2.0542476e+2, -777421.2, -989480.5, 110702.164, -0.019323265, -0.28877681, -730162.7, 196647.6, 0.0, 10.00216, 9.999137 
2.8444204e+3, 2.1541806e+2, -854251.94, -954333.9, 97858.734, -0.28595546, -0.086935155, -794381.94, 34503.027, 0.0, 10.000905, 9.999284 
2.8440106e+3, 2.2541016e+2, -809994.4, -902749.3, 114232.07, -0.33923388, 0.05564573, -733084.25, -2120.0815, 0.0, 10.000576, 9.999166 
2.843603e+3, 2.3540087e+2, -604432.75, -741534.8, 106494.22, -0.18983844, -0.005117411, -546333.6, 86717.51, 0.0, 10.001258, 9.999274 
2.8431937e+3, 2.4539062e+2, -729856.25, -875280.56, 88681.42, -0.08234466, -0.038567908, -687888.6, -152736.64, 0.0, 10.000258, 9.998175 
2.842784e+3, 2.5537884e+2, -937844.56, -902380.1, 97310.98, 0.027048115, -0.24326862, -821198.94, -383926.84, 0.0, 9.998084, 9.998346 
2.8423703e+3, 2.653697e+2, -756977.56, -629145.4, -21038.117, -0.052230712, -0.18617351, -625772.0, -286407.38, 0.0, 9.998086, 9.9995165 
2.8419533e+3, 2.7536255e+2, -405813.38, -391107.72, -67734.83, -0.29427695, -0.080279015, -330327.8, -88891.2, 0.0, 9.999756, 9.999672 
2.8415418e+3, 2.853537e+2, -345442.75, -394439.66, 188861.52, -0.34924936, -0.040522676, -179497.38, -35972.207, 0.0, 9.999815, 9.998973 
2.8411353e+3, 2.9534283e+2, -335819.6, -324004.0, 141492.31, -0.24950056, -0.24558711, -188296.2, -142662.42, 0.0, 9.999112, 9.999132 
2.8407264e+3, 3.0533522e+2, -258115.58, -100080.72, 51301.523, -0.15507999, -0.124125205, -84887.74, -84887.74, 0.0, 9.998435, 10.000303 
2.840319e+3, 3.1533024e+2, -319973.3, -77381.8, 79512.37, 0.22319187, 0.08308651, -53643.5, -53643.5, 0.0, 9.997516, 10.000579 
2.839897e+3, 3.2532412e+2, -231303.08, 316659.34, -356966.88, -0.13278335, 0.15407443, 492668.2, 492668.2, 0.0, 9.996728, 10.003579 
2.8577065e+3, 1.3589424e+2, -1316161.4, -1817173.8, -65609.38, 0.17114075, -0.30374205, -1307712.0, 300490.94, 0.000013313222, 10.004011, 9.997248 
2.8572935e+3, 1.4588483e+2, -1493848.4, -1706121.9, 94821.79, 0.22945328, -0.20744547, -1457660.9, 52644.547, 0.0000038169696, 10.001511, 9.998577 
2.8568825e+3, 1.5587795e+2, -1433911.5, -1543757.6, 71635.45, 0.22285241, -0.0012147578, -1398567.3, 13812.097, 0.0000005153316, 10.000952, 9.999259 
2.8564706e+3, 1.6586925e+2, -1204543.6, -972074.8, -10603.683, 0.17264207, -0.15320048, -971592.1, 342863.75, 0.00000002542409, 10.000047, 10.002974 
2.8560573e+3, 1.758589e+2, -1374905.4, -1027963.7, 78225.94, 0.022676114, -0.68158996, -1011141.5, 205397.31, 0.0, 9.998361, 10.002709 
2.855646e+3, 1.8585157e+2, -1390233.9, -1352206.5, 148836.97, -0.10461438, -0.6504994, -1221173.6, -102564.414, 0.0, 9.9991, 9.999481 
2.8552353e+3, 1.9584577e+2, -915884.4, -1073361.0, 146562.75, -0.1968278, -0.3722337, -828248.56, 192427.4, 0.0, 10.001686, 9.999474 
2.854825e+3, 2.0583835e+2, -779247.9, -1017373.25, 77318.35, -0.20394032, -0.17501205, -756345.6, 166410.92, 0.0, 10.002236, 9.998903 
2.8544146e+3, 2.1582952e+2, -842262.06, -977268.75, 84990.55, -0.17551841, -0.14715356, -801229.25, 23620.574, 0.0, 10.001074, 9.999045 
2.8540057e+3, 2.2581995e+2, -685727.4, -787918.6, 155164.67, -0.13301855, -0.19012925, -573461.9, 153481.78, 0.0, 10.001173, 9.99966 
2.8535974e+3, 2.3580933e+2, -462554.0, -633918.9, 158112.42, -0.0828395, -0.39971882, -368400.34, 260642.42, 0.0, 10.001994, 9.999673 
2.853186e+3, 2.4580118e+2, -581138.94, -661980.1, -4881.794, -0.025033467, -0.31452775, -580845.25, -49720.16, 0.0, 10.000602, 9.999494 
2.852773e+3, 2.5579417e+2, -927097.25, -776958.8, 50259.11, 0.036199097, -0.13716592, -761687.75, -328486.5, 0.0, 9.997558, 9.999487 
2.85236e+3, 2.6578575e+2, -826425.9, -766268.6, 125951.58, -0.04475692, -0.01577029, -666853.94, -331563.8, 0.0, 9.997997, 9.99864 
2.8519467e+3, 2.757764e+2, -232818.33, -409994.13, 67816.83, -0.25360483, 0.0044332915, -209840.39, 27546.762, 0.0, 10.00132, 9.998814 
2.8515354e+3, 2.857667e+2, -121773.45, -340400.88, 119331.914, -0.29254675, 0.015784917, -69255.17, 70230.01, 0.0, 10.001484, 9.99858 
2.8511265e+3, 2.9575625e+2, -329474.97, -352885.22, 72072.36, -0.21068038, -0.070083335, -268163.4, -226575.05, 0.0, 9.99922, 9.998915 
2.8507152e+3, 3.0574855e+2, -242410.38, 91821.52, 22412.438, -0.2230723, -0.046596907, 93317.73, 93317.73, 0.0, 9.997669, 10.00203 
2.8503045e+3, 3.1574288e+2, -329001.06, 58103.45, 38255.734, -0.06295777, -0.03563423, 61847.867, 61847.867, 0.0, 9.996778, 10.001905 
2.8498894e+3, 3.2573682e+2, 87933.05, 70252.16, -317624.56, 0.038679127, 0.16552292, 396840.16, 396840.16, 0.0, 10.000403, 10.0002165 
2.8677022e+3, 1.36307e+2, -992173.94, -1595927.0, -62659.45, 0.05011057, -0.47660387, -985739.5, 618418.9, 0.000005962988, 10.005897, 9.99788 
2.8672892e+3, 1.463006e+2, -954475.8, -1502604.0, 70780.875, 0.23271403, -0.0669522, -945483.3, 560746.7, 0.0000015122073, 10.005449, 9.998084 
2.8668767e+3, 1.5628985e+2, -1237508.5, -1521778.4, 106064.42, 0.27496067, -0.17347187, -1202296.4, 206044.5, 0.0000000966577, 10.00258, 9.998635 
2.866464e+3, 1.6628064e+2, -935946.56, -956711.2, 55709.063, 0.18785626, -0.2877526, -889660.6, 420764.13, 0.00000000026919006, 10.002322, 10.002016 
2.8660494e+3, 1.7627177e+2, -696258.3, -819479.25, -21616.31, -0.06647217, -0.5769092, -692576.25, 519920.8, 0.0, 10.003445, 10.001731 
2.865638e+3, 1.862643e+2, -800406.3, -1074207.0, 35737.293, -0.19551381, -0.51508546, -795818.6, 318750.8, 0.0, 10.003249, 9.999359 
2.865229e+3, 1.9625789e+2, -854235.4, -1056236.1, 21936.055, -0.21021411, -0.30259252, -851880.7, 164760.69, 0.0, 10.002246, 9.999281 
2.8648186e+3, 2.0625004e+2, -825625.25, -1028666.6, -35544.35, -0.19635545, -0.15702249, -819582.7, 99142.05, 0.0, 10.0018635, 9.999013 
2.864408e+3, 2.1624066e+2, -767395.3, -935190.0, -3128.6218, -0.13308467, -0.21167739, -767337.0, 53484.457, 0.0, 10.001528, 9.999141 
2.8639987e+3, 2.2623129e+2, -797709.4, -742225.2, 139520.34, -0.066773504, -0.29116932, -627715.56, 95195.82, 0.0, 10.000004, 10.000507 
2.8635904e+3, 2.3622139e+2, -1022328.6, -825419.7, 161080.72, -0.0049087317, -0.5324195, -735087.8, -110085.24, 0.0, 9.997905, 10.0002775 
2.8631777e+3, 2.462144e+2, -867682.9, -723492.6, -5783.4653, 0.0019477472, -0.3794187, -723261.0, -196187.7, 0.0, 9.998443, 10.000023 
2.8627628e+3, 2.56209e+2, -567982.0, -580572.94, -15835.349, -0.0008619266, -0.12533294, -557236.6, -128102.42, 0.0, 10.000018, 9.999588 
2.8623506e+3, 2.6620084e+2, -543789.56, -712214.6, 188187.75, -0.07136181, 0.06200296, -421831.34, -90608.66, 0.0, 10.000344, 9.997854 
2.8619397e+3, 2.7619037e+2, -460320.72, -622856.75, 169320.48, -0.19393076, 0.024255646, -353775.2, -120441.29, 0.0, 10.000221, 9.99788 
2.861529e+3, 2.8618056e+2, -363948.94, -455623.72, 141091.16, -0.20945466, 0.08299499, -261436.13, -126002.484, 0.0, 9.999938, 9.998483 
2.861118e+3, 2.9617062e+2, -365492.22, -379401.75, 132498.53, -0.159656, 0.05083841, -239766.05, -202234.98, 0.0, 9.999108, 9.998755 
2.8607035e+3, 3.061625e+2, -175739.13, 204616.63, 57902.02, -0.30592975, 0.016139224, 213235.8, 213235.8, 0.0, 9.997879, 10.002655 
2.8602898e+3, 3.16156e+2, -471721.78, -29957.615, 9897.022, -0.37374437, -0.14155364, -29736.0, -29736.0, 0.0, 9.995977, 10.001646 
2.859884e+3, 3.2614723e+2, -225204.64, -408325.47, 3083.0652, 0.2700148, -0.05076437, -225152.75, -225152.75, 0.0, 9.999822, 9.997146 
2.8776976e+3, 1.3672084e+2, -1153813.9, -1552546.1, -3419.9902, -0.16468586, -0.5094543, -1153784.6, 446322.13, 0.0000021473002, 10.004308, 9.998929 
2.8772852e+3, 1.4671701e+2, -1051452.5, -1524124.9, -46160.16, 0.15838261, 0.09996528, -1046986.8, 455161.06, 0.00000043033984, 10.004697, 9.998286 
2.8768697e+3, 1.5670033e+2, -1284337.3, -1575494.3, 39818.348, 0.14902027, -0.61003613, -1278990.0, 125319.56, 0.000000019645139, 10.002409, 9.998347 
2.8764564e+3, 1.666917e+2, -1120547.3, -1320465.5, 97780.99, 0.024075352, -0.5159537, -1080674.5, 225719.94, 0.0, 10.002259, 9.9995365 
2.8760424e+3, 1.7668702e+2, -916279.5, -1184752.8, 49504.67, -0.30858117, -0.1266965, -907442.06, 300999.06, 0.0, 10.003062, 9.999398 
2.8756323e+3, 1.8667856e+2, -819208.06, -1067060.8, 11767.608, -0.28975552, -0.07248783, -818650.6, 291875.1, 0.0, 10.003023, 9.999525 
2.875225e+3, 1.9666797e+2, -859145.44, -1050798.6, 28548.697, -0.06081287, -0.2736886, -854983.2, 157649.27, 0.0, 10.002142, 9.999389 
2.8748134e+3, 2.0665942e+2, -730197.7, -856501.9, -29723.646, -0.12666775, -0.26309597, -723552.3, 191167.16, 0.0, 10.002007, 10.000101 
2.8743994e+3, 2.1665145e+2, -630218.9, -738267.06, 14817.455, -0.36311916, -0.25818568, -628223.7, 188577.11, 0.0, 10.001893, 10.000313 
2.8739884e+3, 2.2664554e+2, -615757.9, -426641.25, 64177.074, -0.29795098, -0.16316804, -406919.34, 311936.56, 0.0, 10.000253, 10.002558 
2.873579e+3, 2.3664017e+2, -921505.0, -605140.0, 136051.72, -0.09218463, -0.12323094, -554679.8, 66222.53, 0.0, 9.9978075, 10.001856 
2.873167e+3, 2.4663149e+2, -853001.06, -786755.44, 125170.305, -0.101080224, -0.17088746, -690399.56, -167413.13, 0.0, 9.998787, 9.999454 
2.8727537e+3, 2.5662106e+2, -353018.72, -529528.5, 94803.37, -0.23348735, -0.32155704, -311749.06, 113341.85, 0.0, 10.001633, 9.999199 
2.8723422e+3, 2.6661277e+2, -249585.17, -463814.94, 167038.47, -0.24505708, -0.1909302, -158267.6, 168911.69, 0.0, 10.001832, 9.998866 
2.8719318e+3, 2.7660507e+2, -321590.16, -440917.34, 185518.52, -0.21016492, -0.013899466, -186377.23, 42886.754, 0.0, 10.000599, 9.998969 
2.8715214e+3, 2.8659663e+2, -231645.14, -210598.66, 218020.75, -0.11799875, 0.04400773, -2847.3433, 128501.516, 0.0, 10.000028, 10.000131 
2.8711107e+3, 2.9658747e+2, -138268.31, -155415.45, 240155.16, -0.026400913, -0.03442162, 93466.266, 126903.38, 0.0, 10.000101, 9.999836 
2.8706947e+3, 3.0657855e+2, -181295.44, -91154.63, 80611.484, -0.24083456, -0.041100916, -43869.453, -43869.453, 0.0, 9.999026, 10.000089 
2.8702778e+3, 3.1657037e+2, -375714.47, -209275.23, 1438.2479, -0.440092, -0.07411369, -209262.81, -209262.81, 0.0, 9.9974985, 9.999716 
2.8698766e+3, 3.2655856e+2, 68534.17, -109576.86, 303056.44, 0.33497912, -0.26635322, 295349.03, 295349.03, 0.0, 10.001035, 9.998644 
2.8876945e+3, 1.3713527e+2, -1519104.5, -1830169.3, 77769.87, 0.09878006, -0.4063345, -1500744.8, 95303.87, 0.0000003382392, 10.00213, 9.998085 
2.8872803e+3, 1.4713004e+2, -1084270.8, -1470004.9, -124230.48, 0.09634357, 0.053636488, -1047723.5, 450381.06, 0.000000039050374, 10.004111, 9.998957 
2.8868654e+3, 1.5711583e+2, -957279.25, -1398391.3, -38242.875, 0.20951818, -0.4548236, -953988.3, 446252.47, 0.0000000006124831, 10.004518, 9.998577 
2.886451e+3, 1.671069e+2, -1019846.56, -1369267.9, 101389.836, 0.022655364, -0.34964246, -992557.94, 309772.2, 0.0, 10.003408, 9.998602 
2.8860354e+3, 1.7710066e+2, -1186557.8, -1405363.6, 113529.31, -0.39005235, -0.023657134, -1138296.9, 66099.05, 0.0, 10.001593, 9.998576 
2.8856254e+3, 1.8709165e+2, -1165008.0, -1196719.4, 133086.6, -0.31827947, -0.0011229399, -1046835.94, 59650.355, 0.0, 10.000509, 9.9998665 
2.8852183e+3, 1.9708078e+2, -1203544.6, -1169462.9, 151910.69, 0.041105215, -0.25517935, -1033640.25, -25046.787, 0.0, 9.999574, 9.999845 
2.884806e+3, 2.0707266e+2, -1121500.9, -907428.75, 163317.05, -0.049447674, -0.26855853, -819197.9, 91473.69, 0.0, 9.998816, 10.001283 
2.8843912e+3, 2.1706566e+2, -1117342.3, -881397.44, 188363.56, -0.35319728, -0.2629962, -777112.5, 35626.016, 0.0, 9.998243, 10.00108 
2.88398e+3, 2.2706026e+2, -744655.6, -484799.97, 128993.65, -0.28900906, -0.12193269, -431641.47, 283148.0, 0.0, 9.999429, 10.002545 
2.8835702e+3, 2.3705572e+2, -514283.9, -424426.03, 35909.145, -0.023615573, -0.010830106, -411839.1, 204991.94, 0.0, 10.000775, 10.001657 
2.8831583e+3, 2.470464e+2, -504744.06, -623571.06, 119358.99, -0.12654573, -0.11310861, -430828.9, 88090.766, 0.0, 10.00122, 9.999416 
2.8827453e+3, 2.5703418e+2, -482965.72, -624226.6, 133672.61, -0.38442087, -0.45334655, -402410.78, 18626.695, 0.0, 10.000943, 9.998882 
2.882334e+3, 2.6702607e+2, -487196.28, -530065.3, 98844.984, -0.34831822, -0.31166267, -407488.5, -84364.984, 0.0, 10.000092, 9.999214 
2.8819242e+3, 2.7701962e+2, -642425.3, -561969.2, 63332.54, -0.15141697, -0.0728742, -527168.5, -301972.13, 0.0, 9.998352, 9.999194 
2.8815135e+3, 2.8701204e+2, -416436.16, -188831.83, 84619.59, -0.03375422, -0.0048548225, -160819.3, -33548.016, 0.0, 9.99833, 10.001076 
2.8811032e+3, 2.9700342e+2, -401500.56, -287504.1, 41788.11, 0.06301263, -0.1565186, -273826.7, -244474.5, 0.0, 9.9983835, 9.999741 
2.8806865e+3, 3.069939e+2, -241741.13, -418830.22, -114236.92, -0.1500931, -0.07770202, -185751.2, -185751.2, 0.0, 9.999995, 9.997361 
2.880269e+3, 3.16984e+2, -45778.652, -326913.4, -66597.555, -0.34797773, -0.0271747, -30800.469, -30800.469, 0.0, 10.001053, 9.997196 
2.879869e+3, 3.269703e+2, -48865.863, 80907.91, 439015.53, 0.2519916, -0.5122578, 459805.84, 459805.84, 0.0, 9.9994335, 10.000608 
2.8976917e+3, 1.3754912e+2, -1615637.4, -2003006.8, 173808.34, 0.3560249, -0.30260253, -1549085.4, 42911.402, 0.0000000028010363, 10.002074, 9.996911 
2.8972748e+3, 1.4754213e+2, -1150787.9, -1409539.0, -83900.11, -0.025974644, -0.025189754, -1125964.6, 368108.53, 0.0, 10.003303, 9.999734 
2.8968623e+3, 1.575343e+2, -1035397.2, -1368782.4, -4034.448, 0.27128464, 0.030013667, -1035348.4, 360800.1, 0.0, 10.003713, 9.999158 
2.8964463e+3, 1.6752398e+2, -1081684.5, -1391105.8, 52053.105, 0.037979886, -0.038130585, -1073162.5, 225087.73, 0.0, 10.002947, 9.998671 
2.8960285e+3, 1.7751288e+2, -1207780.5, -1395921.6, 93318.4, -0.4786879, -0.19602871, -1169346.0, 31014.666, 0.0, 10.001365, 9.99875 
2.8956172e+3, 1.8750425e+2, -1106225.4, -1100477.4, 108791.16, -0.3891224, -0.17945753, -994522.3, 107924.33, 0.0, 10.000593, 10.00049 
2.895209e+3, 1.9749632e+2, -1135704.9, -1038932.9, 136250.08, -0.051044565, -0.18525335, -942732.25, 61792.61, 0.0, 9.999578, 10.000752 
2.894797e+3, 2.0748973e+2, -1007888.6, -693121.2, 142309.55, -0.01067354, -0.17620465, -638321.9, 268258.53, 0.0, 9.998863, 10.002741 
2.8943837e+3, 2.1748328e+2, -1063535.0, -802106.4, 233660.77, -0.13958253, -0.23942593, -665082.8, 143549.17, 0.0, 9.9983225, 10.001601 
2.8939742e+3, 2.2747417e+2, -882949.3, -886741.8, 220843.58, -0.030596474, -0.3072289, -663993.8, 46728.367, 0.0, 9.999884, 9.999578 
2.8935656e+3, 2.3746449e+2, -453203.97, -599739.7, 102101.61, 0.14693202, -0.41022408, -400801.97, 212020.38, 0.0, 10.002, 9.999885 
2.8931525e+3, 2.4745736e+2, -237757.4, -313052.97, 93941.125, -0.08169099, -0.3359758, -174200.98, 340689.63, 0.0, 10.00221, 10.001093 
2.8927374e+3, 2.5745028e+2, -311347.06, -410340.06, 128172.56, -0.47750455, -0.29836613, -223445.92, 193510.11, 0.0, 10.0014715, 10.000121 
2.892326e+3, 2.6744148e+2, -555136.0, -675601.75, 47534.06, -0.31327552, -0.2156877, -538638.94, -219588.81, 0.0, 10.000073, 9.998238 
2.891916e+3, 2.7743196e+2, -663951.0, -665127.3, 15952.52, 0.04413913, -0.15726404, -648575.75, -427421.0, 0.0, 9.99854, 9.998405 
2.8915042e+3, 2.8742328e+2, -509817.7, -366644.2, 41556.223, 0.024983305, -0.110241674, -355456.66, -232216.13, 0.0, 9.998183, 9.999948 
2.8910914e+3, 2.9741457e+2, -435766.72, -398338.9, -12078.227, -0.11645331, -0.14486144, -394779.66, -369457.75, 0.0, 9.998476, 9.998951 
2.890681e+3, 3.0740428e+2, 28106.416, -335504.47, -29046.04, 0.004044478, -0.10562209, 30412.059, 30412.059, 0.0, 10.002001, 9.997016 
2.890272e+3, 3.1739327e+2, 763434.94, 94360.984, -53860.516, 0.31065574, -0.09640613, 767742.94, 767742.94, 0.0, 10.006395, 9.997588 
2.8898576e+3, 3.2738414e+2, 80581.81, 303967.28, -10879.265, -0.04205019, -0.16813226, 304495.88, 304495.88, 0.0, 9.999429, 10.002302 
2.907687e+3, 1.37965e+2, -1193667.8, -1567202.6, 120977.58, 0.37659386, -0.097418725, -1157909.5, 430018.63, 0.00000000011876347, 10.003893, 9.999075 
2.9072687e+3, 1.4795455e+2, -1271166.9, -1495378.1, -25358.713, -0.059202828, -0.21660592, -1268334.5, 221698.81, 0.0, 10.0025835, 9.999517 
2.906855e+3, 1.5794815e+2, -1238693.3, -1433306.4, -9995.987, 0.109622434, -0.0001565541, -1238181.3, 153915.44, 0.0, 10.002161, 9.999473 
2.9064393e+3, 1.6793934e+2, -1182855.5, -1279269.9, 65297.59, -0.021453772, -0.019538324, -1149898.0, 144283.81, 0.0, 10.001588, 10.0000925 
2.906022e+3, 1.7792909e+2, -1255399.6, -1333135.6, 185255.81, -0.33228582, -0.21252587, -1104978.4, 91302.18, 0.0, 10.000681, 9.999525 
2.905611e+3, 1.879206e+2, -1087060.8, -1158028.3, 221906.11, -0.24203128, -0.1561266, -897819.3, 200546.33, 0.0, 10.001016, 9.999875 
2.9052022e+3, 1.9791284e+2, -877859.56, -967813.75, 161427.44, 0.044254232, -0.10009623, -755260.5, 245183.22, 0.0, 10.001594, 10.000234 
2.9047894e+3, 2.0790522e+2, -548798.2, -525928.7, 57023.977, 0.035484996, -0.1563663, -479204.28, 423302.9, 0.0, 10.002248, 10.00223 
2.904376e+3, 2.178974e+2, -549971.56, -659643.56, 14208.293, -0.04386234, -0.33418334, -548160.7, 256408.03, 0.0, 10.0023155, 10.000639 
2.903967e+3, 2.2788729e+2, -820532.44, -1029481.0, 91452.125, 0.04401777, -0.3939606, -786160.2, -79488.336, 0.0, 10.001101, 9.997978 
2.9035586e+3, 2.3787615e+2, -953268.6, -978933.1, 67041.4, 0.18208985, -0.5099398, -897842.4, -289051.34, 0.0, 9.999176, 9.998631 
2.9031447e+3, 2.4787009e+2, -709097.75, -415109.25, 25041.654, -0.08120219, -0.35144693, -412991.47, 97857.13, 0.0, 9.998546, 10.002071 
2.9027292e+3, 2.578655e+2, -850536.25, -629663.25, -6591.0894, -0.46100685, -0.19327363, -629466.75, -216578.34, 0.0, 9.997694, 10.000379 
2.9023182e+3, 2.678563e+2, -741867.7, -794888.3, -10628.596, -0.23482409, -0.14207649, -739816.44, -424831.16, 0.0, 9.998971, 9.997925 
2.9019085e+3, 2.7784514e+2, -536128.25, -691225.06, 40815.2, 0.19864877, -0.23320714, -526043.1, -308937.8, 0.0, 9.999848, 9.997594 
2.9014945e+3, 2.8783563e+2, -339043.28, -349646.06, 135022.66, 0.027201988, -0.1839417, -209217.97, -90020.19, 0.0, 9.99975, 9.99928 
2.90108e+3, 2.9782647e+2, -478416.3, -523444.38, 186755.53, -0.30300993, -0.18020974, -312822.66, -291539.34, 0.0, 9.998762, 9.997912 
2.9006737e+3, 3.078158e+2, -371008.94, -496284.88, 291283.2, 0.010075757, -0.13823856, -135704.94, -135704.94, 0.0, 9.999286, 9.997086 
2.900271e+3, 3.1780505e+2, -363139.8, -639041.9, 144525.22, 0.5621647, -0.07562809, -301295.88, -301295.88, 0.0, 9.99966, 9.995687 
2.899846e+3, 3.2779542e+2, -528090.56, -109079.46, -409227.7, -0.24253431, -0.08963568, 141153.89, 141153.89, 0.0, 9.996003, 10.000904 
2.917682e+3, 1.3838108e+2, -1358786.1, -1281751.1, -33063.31, 0.29034334, 0.113148, -1269506.6, 314349.84, 0.0000000000007792345, 10.001255, 10.002296 
2.9172617e+3, 1.4836706e+2, -1442481.4, -1637311.4, -37316.82, -0.13606898, -0.43309405, -1435578.5, 50411.926, 0.0, 10.001703, 9.998952 
2.916845e+3, 1.5835968e+2, -1309515.6, -1447978.0, 1774.8622, -0.28030536, -0.27016863, -1309492.9, 78572.09, 0.0, 10.001603, 9.999641 
2.9164308e+3, 1.6835406e+2, -1046406.9, -956351.6, 22478.246, -0.17800519, -0.12992108, -951052.75, 339063.22, 0.0, 10.001424, 10.0023775 
2.916017e+3, 1.7834833e+2, -1179552.4, -1178695.1, 156063.92, -0.13349299, -0.08097896, -1023059.25, 169107.78, 0.0, 10.000676, 10.000592 
2.9156065e+3, 1.8833953e+2, -1154256.1, -1335449.8, 227037.17, 0.00851936, -0.010054546, -1000407.3, 93848.63, 0.0, 10.00116, 9.998591 
2.915197e+3, 1.9832978e+2, -990648.0, -1202757.4, 193696.53, 0.16211314, -0.015062271, -875872.56, 120483.48, 0.0, 10.00156, 9.998649 
2.9147834e+3, 2.0831843e+2, -686116.44, -872936.9, 70174.95, 0.0016714063, -0.23042387, -662693.44, 235766.66, 0.0, 10.002449, 9.99978 
2.9143688e+3, 2.1830697e+2, -551263.56, -822011.8, 456.82242, -0.27103934, -0.5255166, -551262.75, 249299.73, 0.0, 10.002937, 9.999252 
2.9139575e+3, 2.2829977e+2, -719057.7, -899790.06, -12548.671, -0.22942424, -0.29537794, -718190.56, -15550.19, 0.0, 10.0014105, 9.998741 
2.9135466e+3, 2.3829313e+2, -892899.44, -874935.0, 11207.699, -0.12754846, -0.017022992, -869554.3, -264837.25, 0.0, 9.999186, 9.999368 
2.9131338e+3, 2.4828511e+2, -796389.4, -497905.16, -9475.076, -0.18293045, -0.069000125, -497604.7, 9188.781, 0.0, 9.998046, 10.001761 
2.9127198e+3, 2.5827697e+2, -838258.6, -566188.2, -19150.43, -0.30682185, -0.23081918, -564846.9, -155979.5, 0.0, 9.997416, 10.000976 
2.9123098e+3, 2.6826948e+2, -586112.0, -497388.0, 74525.555, -0.13271877, -0.16475126, -455020.25, -144077.69, 0.0, 9.998992, 9.999997 
2.9119003e+3, 2.7826172e+2, -183870.45, -264618.9, 136196.08, 0.10083328, -0.106968746, -82190.3, 130832.25, 0.0, 10.001073, 9.999955 
2.911486e+3, 2.8825268e+2, -7547.157, -6530.257, 221722.75, -0.059739474, -0.20353206, 214684.63, 329789.66, 0.0, 10.001185, 10.000964 
2.9110712e+3, 2.9824302e+2, -190227.38, -158461.19, 303742.94, -0.299163, -0.38749844, 129813.66, 147005.25, 0.0, 9.999639, 10.000012 
2.9276708e+3, 1.3879408e+2, -1901068.6, -1498489.8, 158082.08, 0.14644481, -0.037906878, -1443835.0, 135974.67, 0.0, 9.997285, 10.002731 
2.9272547e+3, 1.4878361e+2, -1535248.9, -1586681.1, 21190.238, -0.07740218, -0.30224362, -1527643.1, -45733.805, 0.0, 10.000599, 9.999851 
2.9268393e+3, 1.587768e+2, -1332714.8, -1444411.8, 93983.57, -0.14673327, -0.14328408, -1279238.3, 104739.61, 0.0, 10.001335, 9.999807 
2.926425e+3, 1.687693e+2, -1022419.94, -1086213.8, -7377.3647, -0.11757038, -0.109849535, -1021577.94, 264470.03, 0.0, 10.002168, 10.001143 
2.9260108e+3, 1.7876174e+2, -911143.7, -1113973.6, -51119.027, -0.086934365, -0.14634384, -898988.6, 289128.7, 0.0, 10.00278, 10.00004 
2.9256007e+3, 1.8875353e+2, -847976.5, -1135682.5, 60019.746, 0.06268008, -0.06294042, -835957.56, 254241.31, 0.0, 10.003079, 9.999016 
2.9251918e+3, 1.9874436e+2, -839090.94, -1174614.5, 106736.945, 0.27049622, -0.04748382, -808014.06, 184277.22, 0.0, 10.002776, 9.998279 
2.9247776e+3, 2.0873265e+2, -833813.1, -1072711.6, 99499.625, 0.029500643, -0.2127354, -797800.8, 96602.54, 0.0, 10.002039, 9.998585 
2.924362e+3, 2.1872056e+2, -930970.4, -1085837.4, 89821.84, -0.31806335, -0.46604213, -889812.56, -93294.17, 0.0, 10.000727, 9.998495 
2.9239494e+3, 2.287142e+2, -761488.0, -841071.7, 77594.41, -0.32289863, -0.15973486, -714077.3, -15489.592, 0.0, 10.000811, 9.999424 
2.923537e+3, 2.387091e+2, -711407.75, -777730.8, 86267.68, -0.21752955, 0.21044175, -652147.4, -51499.883, 0.0, 10.00045, 9.999414 
2.923124e+3, 2.486997e+2, -520214.5, -455919.3, 57100.87, -0.20185083, 0.08373173, -422538.47, 80200.33, 0.0, 10.000396, 10.000911 
2.9227114e+3, 2.5868937e+2, -529553.2, -429139.97, 18911.094, -0.17445774, -0.23452891, -425696.47, -20860.738, 0.0, 9.999666, 10.000829 
2.9223013e+3, 2.686834e+2, -430075.94, -185736.8, 125047.81, -0.065347314, -0.14402202, -133085.42, 173806.28, 0.0, 9.999195, 10.001959 
2.9218912e+3, 2.786784e+2, -476675.75, -206779.61, 143795.69, 0.027391968, -0.03438983, -144526.81, 64411.914, 0.0, 9.998314, 10.00165 
2.9214773e+3, 2.886704e+2, -249889.22, 46413.895, 141556.39, -0.14798862, -0.19281645, 103169.875, 214177.7, 0.0, 9.9989, 10.00237 
2.921062e+3, 2.9866117e+2, -314481.34, 19214.992, 108963.195, -0.2819955, -0.5477291, 51643.74, 64731.688, 0.0, 9.997855, 10.002087 
2.9376578e+3, 1.3920718e+2, -1854536.1, -1504992.3, 363771.9, -0.10311874, -0.1639681, -1276186.1, 299575.03, 0.0, 9.9978075, 10.002414 
2.9372478e+3, 1.492018e+2, -1491737.8, -1376804.8, 42853.496, 0.008127817, -0.031812645, -1362585.8, 115226.79, 0.0, 10.000087, 10.001536 
2.9368356e+3, 1.5919657e+2, -1363680.0, -1500574.5, 114420.85, 0.1339173, 0.15861805, -1298796.3, 81068.336, 0.0, 10.001302, 9.999441 
2.9364195e+3, 1.6918431e+2, -1251363.3, -1560198.1, 19825.506, -0.023270993, -0.05060117, -1250095.8, 31888.41, 0.0, 10.002162, 9.997888 
2.9360035e+3, 1.7917123e+2, -1036885.94, -1314786.4, -5707.734, -0.29999667, -0.3507471, -1036768.75, 147342.19, 0.0, 10.002506, 9.998798 
2.9355943e+3, 1.8916392e+2, -744737.94, -890157.44, 62664.79, -0.08346086, -0.26253483, -721460.25, 364719.47, 0.0, 10.002925, 10.000787 
2.9351863e+3, 1.9915731e+2, -762239.94, -994351.3, 95636.27, 0.2099028, -0.14620164, -727912.06, 260330.22, 0.0, 10.002672, 9.999568 
2.9347718e+3, 2.0914866e+2, -818730.4, -1030149.8, 50713.55, 0.04608857, -0.06700758, -807195.0, 83134.77, 0.0, 10.002007, 9.99889 
2.9343554e+3, 2.1913932e+2, -853018.2, -986908.0, 78866.77, -0.25982088, -0.06463441, -816514.6, -24090.191, 0.0, 10.000937, 9.999091 
2.9339433e+3, 2.2913091e+2, -655757.3, -726073.25, 96548.42, -0.18730292, -0.02904238, -588164.7, 106344.05, 0.0, 10.001149, 10.000105 
2.933531e+3, 2.3912281e+2, -562550.56, -702834.1, 106921.68, -0.089524664, 0.0010571912, -504816.97, 91773.48, 0.0, 10.001336, 9.999552 
2.9331174e+3, 2.4911365e+2, -492713.38, -638743.94, 56487.7, -0.16249382, 0.007350293, -473413.5, 25269.154, 0.0, 10.001329, 9.999259 
2.9327035e+3, 2.5910425e+2, -331326.6, -368249.8, -4904.532, -0.25162455, -0.05970195, -330686.22, 70089.75, 0.0, 10.001057, 10.000619 
2.9322922e+3, 2.6909783e+2, -311142.28, -22215.834, 46778.31, -0.09951523, -0.086900555, -14830.997, 288002.9, 0.0, 9.999461, 10.002989 
2.9318812e+3, 2.7909222e+2, -447812.94, -98482.08, 64443.965, 0.035071813, -0.12680939, -86972.76, 117910.53, 0.0, 9.997943, 10.002622 
2.9314676e+3, 2.8908595e+2, -398281.8, -79158.016, 70137.5, -0.0978653, -0.12686358, -64423.418, 42517.99, 0.0, 9.997916, 10.002086 
2.9310507e+3, 2.990793e+2, -56517.6, 195682.53, 53783.645, -0.4822903, -0.20197089, 206673.33, 215677.1, 0.0, 9.999113, 10.00279 
2.9476497e+3, 1.3962181e+2, -1514221.8, -1426605.0, 77440.77, -0.07607465, -0.19794707, -1381440.1, 190261.72, 0.0, 10.000388, 10.001756 
2.94724e+3, 1.4961828e+2, -1469203.0, -1312409.9, 160531.69, 0.06471567, 0.112778574, -1212154.6, 261576.73, 0.0, 9.999981, 10.002054 
2.9468298e+3, 1.5961052e+2, -1042036.2, -1361033.6, 94652.336, 0.15883918, 0.011861644, -1016065.5, 359740.03, 0.0, 10.003552, 9.99934 
2.9464146e+3, 1.695985e+2, -1203329.8, -1635564.6, 21891.877, 0.054890227, -0.10388141, -1202223.8, 75701.91, 0.0, 10.002945, 9.997002 
2.9459983e+3, 1.7958574e+2, -1211841.3, -1430481.4, 115653.28, -0.1588759, -0.2875585, -1162018.1, 18034.693, 0.0, 10.001457, 9.998494 
2.945588e+3, 1.8957801e+2, -951778.25, -940018.6, 167031.9, -0.08535645, -0.2546201, -778763.06, 303361.03, 0.0, 10.001287, 10.001221 
2.9451787e+3, 1.9957125e+2, -977055.0, -1061743.0, 103449.32, 0.1229807, -0.1959216, -907619.0, 76567.016, 0.0, 10.001063, 9.9998665 
2.9447645e+3, 2.0956405e+2, -864054.0, -1019672.56, 51008.95, 0.0016774073, -0.014867007, -848824.56, 37437.02, 0.0, 10.001555, 9.999174 
2.944349e+3, 2.1955626e+2, -823208.4, -988228.1, 64467.035, -0.15963508, 0.12694618, -801009.7, -12666.1, 0.0, 10.00122, 9.998963 
2.943937e+3, 2.2954659e+2, -773213.8, -744217.25, 70721.01, -0.056088652, 0.019868251, -686523.7, 3913.341, 0.0, 10.000285, 10.000321 
2.9435247e+3, 2.3953667e+2, -966593.0, -919963.94, 65523.168, 0.075404614, -0.16576082, -873730.94, -281198.7, 0.0, 9.99876, 9.999255 
2.9431105e+3, 2.4952821e+2, -860092.94, -833748.06, 136836.89, -0.067196004, -0.06304732, -709451.06, -214832.66, 0.0, 9.999019, 9.998967 
2.9426956e+3, 2.5952017e+2, -692056.4, -562394.3, 152458.64, -0.20589517, 0.030231098, -461554.88, -64854.215, 0.0, 9.998795, 10.000348 
2.9422826e+3, 2.6951295e+2, -465851.6, -93515.016, 120218.35, -0.1288651, -0.06070568, -58073.094, 240693.34, 0.0, 9.998404, 10.00302 
2.9418698e+3, 2.7950618e+2, -614131.9, -218140.39, 92407.04, -0.012637735, -0.21820624, -197638.14, 3188.8127, 0.0, 9.997064, 10.002209 
2.941458e+3, 2.8950128e+2, -516642.84, -158880.48, 123778.125, -0.0051224804, -0.043937027, -120231.2, -17354.057, 0.0, 9.997328, 10.001772 
2.941039e+3, 2.9949567e+2, -404210.78, 17462.537, 266428.78, -0.7198949, 0.030082194, 146385.2, 151319.95, 0.0, 9.997033, 10.002485 
2.9576424e+3, 1.4003846e+2, -1633080.8, -1533227.9, -378354.56, -0.021014329, -0.024492882, -1201519.9, 366103.0, 0.0, 9.999798, 10.001325 
2.9572314e+3, 1.5003385e+2, -1443327.1, -1325004.9, 297063.1, 0.015081694, 0.18876682, -1081269.1, 388389.6, 0.0, 10.000293, 10.001804 
2.956823e+3, 1.6002165e+2, -1190020.1, -1455956.5, 107805.08, -0.07311392, -0.32591978, -1151808.8, 219964.39, 0.0, 10.002635, 9.999138 
2.9564098e+3, 1.7001261e+2, -1237551.4, -1588272.9, -58787.03, 0.09707214, -0.18130766, -1227959.9, 45906.844, 0.0, 10.002421, 9.997579 
2.9559943e+3, 1.8000379e+2, -1224866.8, -1406515.3, 87043.3, 0.08967075, -0.017600702, -1189891.3, -13933.169, 0.0, 10.001221, 9.998776 
2.9555812e+3, 1.899946e+2, -985341.25, -1019807.44, 146252.31, -0.06707687, -0.11431572, -855310.2, 222734.11, 0.0, 10.001304, 10.0006695 
2.955169e+3, 1.9998567e+2, -971455.06, -1078401.1, 99600.984, -0.17466274, -0.21753488, -911880.6, 68246.78, 0.0, 10.001126, 9.999741 
2.954756e+3, 2.0997846e+2, -799085.0, -948514.06, 53781.68, -0.17591289, -0.06283911, -781741.25, 100459.77, 0.0, 10.001717, 9.999634 
2.9543424e+3, 2.1997094e+2, -716013.56, -908953.2, 31149.455, -0.20498832, 0.0738935, -711109.25, 73168.76, 0.0, 10.001759, 9.999273 
2.9539293e+3, 2.2996101e+2, -788471.0, -808593.4, -3982.5437, -0.026661333, -0.035400547, -787711.44, -101336.94, 0.0, 10.000411, 9.999831 
2.9535162e+3, 2.3995112e+2, -826587.1, -713406.6, 17493.877, 0.13604529, -0.19895491, -710764.4, -122294.695, 0.0, 9.999038, 10.000554 
2.953103e+3, 2.4994442e+2, -683870.8, -474508.28, 149051.94, 0.11293078, -0.14795254, -397050.44, 93483.03, 0.0, 9.998942, 10.001527 
2.9526883e+3, 2.5993782e+2, -580798.06, -432757.9, 182281.61, 0.027038503, -0.09621785, -310040.72, 82555.95, 0.0, 9.999099, 10.001143 
2.9522723e+3, 2.6992983e+2, -550060.2, -352858.44, 108375.58, -0.1808445, -0.15095487, -304941.75, -10266.401, 0.0, 9.998649, 10.001176 
2.9518566e+3, 2.7992225e+2, -511861.0, -268896.56, 76634.16, -0.32693762, -0.20417579, -246744.78, -49995.063, 0.0, 9.998056, 10.001428 
2.9514495e+3, 2.8991783e+2, -425628.72, -132082.52, 120046.48, 0.23006976, 0.035764948, -89241.53, 9551.755, 0.0, 9.997873, 10.001759 
2.9510328e+3, 2.9990986e+2, -342781.66, -12426.093, 252177.39, -0.26286492, -0.081460714, 123854.47, 124724.77, 0.0, 9.997452, 10.002135 
2.967635e+3, 1.4045446e+2, -1321766.8, -1262974.4, -206191.13, 0.041269325, -0.0034928715, -1084094.5, 479447.63, 0.0, 10.001447, 10.002362 
2.9672262e+3, 1.5044636e+2, -1330989.3, -1519890.0, 282969.4, 0.14441076, 0.019128103, -1127123.5, 338493.78, 0.0, 10.002173, 9.9995575 
2.9668146e+3, 1.6043496e+2, -1531573.0, -1646432.6, 6693.0083, -0.1850645, -0.23982278, -1531184.4, -163454.77, 0.0, 10.00038, 9.998924 
2.966402e+3, 1.704275e+2, -1349116.5, -1465623.3, -106542.69, 0.04340137, -0.06662081, -1285941.8, -16136.993, 0.0, 10.000837, 9.999203 
2.965988e+3, 1.8042004e+2, -1189374.9, -1385037.0, 98127.59, 0.17073758, 0.09976087, -1148642.0, 23238.152, 0.0, 10.001417, 9.998847 
2.965575e+3, 1.904098e+2, -948508.44, -1156064.9, 105444.734, -0.033700254, -0.0011007779, -904339.0, 169641.69, 0.0, 10.002267, 9.999265 
2.9651627e+3, 2.0039949e+2, -817705.8, -1035626.56, -7896.142, -0.13578464, -0.13884561, -817420.06, 158660.38, 0.0, 10.002368, 9.999433 
2.96475e+3, 2.1039239e+2, -781657.44, -812107.56, -20747.367, -0.1146373, -0.054486763, -771148.2, 107000.516, 0.0, 10.0013895, 10.000688 
2.964336e+3, 2.2038516e+2, -957608.6, -948674.9, -15327.065, -0.085195765, 0.0021575163, -937177.0, -156958.69, 0.0, 9.99985, 9.999894 
2.9639214e+3, 2.303759e+2, -838861.94, -774670.94, 35029.887, 0.013847898, -0.095988266, -759256.25, -76950.414, 0.0, 9.999835, 10.000335 
2.9635072e+3, 2.4036692e+2, -750620.44, -619171.44, 127922.586, 0.17035107, -0.21911208, -541076.94, 43313.805, 0.0, 9.999357, 10.00106 
2.9630944e+3, 2.503607e+2, -442891.53, -237259.73, 150248.7, 0.20046656, -0.20890412, -158015.8, 328432.97, 0.0, 10.000113, 10.002572 
2.962681e+3, 2.6035446e+2, -478669.53, -435062.5, 67882.25, 0.17760922, -0.2110248, -385568.13, 2939.142, 0.0, 10.000107, 10.00061 
2.962263e+3, 2.7034643e+2, -374370.2, -407036.34, 33367.723, -0.18899728, -0.17586178, -353552.56, -62963.516, 0.0, 10.00054, 9.999841 
2.961845e+3, 2.8033847e+2, -335839.03, -312461.25, 62748.86, -0.47149512, -0.1523343, -260321.84, -67651.68, 0.0, 9.999946, 10.000184 
2.9614407e+3, 2.9033303e+2, -212491.42, -53488.152, 98524.47, 0.333954, 0.026595302, -6389.704, 88331.65, 0.0, 9.999565, 10.00142 
2.9610255e+3, 3.0032197e+2, -398611.1, -79430.414, 170644.66, 0.06219464, -0.39829555, -5378.5596, -5378.5596, 0.0, 9.997416, 10.001651 
2.9776287e+3, 1.4086898e+2, -1411075.8, -1230065.6, 15607.42, 0.06982245, -0.14440216, -1228729.8, 330742.66, 0.0, 10.000618, 10.00295 
2.9772213e+3, 1.5085782e+2, -1670743.6, -2022851.8, 191786.8, 0.29079276, -0.20111011, -1586457.1, -124869.71, 0.0, 10.001337, 9.996494 
2.9768053e+3, 1.6084965e+2, -1596140.4, -1679370.9, -14368.792, -0.36028352, 0.08577064, -1593729.6, -230051.95, 0.0, 9.999958, 9.998899 
2.9763925e+3, 1.7084287e+2, -1189839.4, -1130302.8, -73071.53, -0.14067705, 0.14395306, -1081168.5, 184571.33, 0.0, 10.000825, 10.001513 
2.97598e+3, 1.8083519e+2, -1185793.5, -1416346.0, 112455.625, -0.0056007607, 0.14543007, -1140026.6, 27785.57, 0.0, 10.001562, 9.998572 
2.97557e+3, 1.9082402e+2, -1069021.3, -1454721.4, 114555.15, 0.010914932, 0.12226989, -1037563.44, 32365.537, 0.0, 10.002406, 9.997181 
2.9751593e+3, 2.008131e+2, -776890.8, -987710.75, -52584.28, 0.04224334, 0.06294139, -764502.8, 207538.3, 0.0, 10.002457, 9.999745 
2.974745e+3, 2.1080549e+2, -677683.56, -594250.7, -94061.29, 0.091768324, -0.030817106, -533070.2, 341038.13, 0.0, 10.001359, 10.002217 
2.9743293e+3, 2.2079858e+2, -755759.7, -612525.8, -59792.996, 0.067374624, -0.10787982, -590846.5, 185321.08, 0.0, 10.000106, 10.002118 
2.973913e+3, 2.3079216e+2, -628071.25, -444223.84, 35466.203, 0.01685501, -0.14453006, -437619.28, 240601.84, 0.0, 10.000159, 10.002517 
2.9734972e+3, 2.407852e+2, -597119.25, -557136.2, 155530.39, -0.02029468, -0.2023821, -420317.75, 159964.8, 0.0, 10.000359, 10.0010395 
2.9730853e+3, 2.507768e+2, -465280.16, -495471.5, 153585.48, 0.016806688, -0.24095368, -326050.25, 156318.75, 0.0, 10.000919, 10.00045 
2.972673e+3, 2.6076874e+2, -285516.16, -384647.0, 17835.953, 0.0501584, -0.25153458, -282404.72, 102046.99, 0.0, 10.0014715, 10.000336 
2.9722583e+3, 2.7076265e+2, -116016.414, -213309.39, 7076.3047, 0.023170944, -0.06495874, -115504.43, 171006.05, 0.0, 10.001906, 10.000589 
2.971842e+3, 2.807555e+2, 18835.275, -115111.24, 40227.617, -0.13245593, 0.0057628476, 29988.059, 218568.11, 0.0, 10.002106, 10.000565 
2.9714274e+3, 2.9074365e+2, -17178.021, -37700.59, 51854.723, -0.21081328, -0.42130068, 25420.945, 116117.16, 0.0, 10.001131, 10.000849 
2.9710117e+3, 3.0074027e+2, -86331.99, 221338.53, -20376.23, -0.3654161, -0.033677105, 222682.13, 222682.13, 0.0, 9.998804, 10.003096 
2.987619e+3, 1.4128076e+2, -1520106.6, -1293634.5, -9092.895, -0.107131496, -0.1567195, -1293270.0, 262163.6, 0.0, 9.999798, 10.002953 
2.9872137e+3, 1.5127003e+2, -1772729.8, -1981850.4, 104129.37, 0.30771586, -0.23797162, -1729723.9, -272179.72, 0.0, 10.000157, 9.997385 
2.9867962e+3, 1.6126545e+2, -1559383.8, -1597370.1, 86689.69, -0.40894458, 0.319047, -1489631.0, -130032.08, 0.0, 9.999887, 9.999535 
2.986386e+3, 1.7125608e+2, -985795.75, -993884.1, 6529.9067, -0.06331287, 0.08825557, -982159.1, 279526.63, 0.0, 10.002067, 10.001881 
2.985976e+3, 1.8124633e+2, -897553.2, -1242512.0, 101809.05, 0.1871063, -0.145928, -869747.25, 294030.53, 0.0, 10.003387, 9.998914 
2.9855636e+3, 1.9123754e+2, -1130696.3, -1398059.6, 209901.66, 0.033889554, 0.010452002, -1015521.5, 50350.984, 0.0, 10.001621, 9.99796 
2.985151e+3, 2.012291e+2, -1107686.6, -1062308.6, 201814.7, -0.04432218, 0.12779753, -881911.56, 86050.84, 0.0, 9.9998255, 10.000509 
2.9847372e+3, 2.1122111e+2, -677636.6, -579765.75, 112472.836, 0.022461329, -0.019552473, -506043.88, 363991.8, 0.0, 10.001242, 10.002403 
2.984322e+3, 2.2121416e+2, -533374.8, -462605.5, 36404.066, 0.12141569, -0.1274155, -447222.72, 324873.28, 0.0, 10.00149, 10.002492 
2.9839054e+3, 2.3120831e+2, -490853.56, -289113.56, -12256.431, 0.05423649, -0.16709737, -288371.7, 385769.72, 0.0, 10.000813, 10.003246 
2.983489e+3, 2.4120143e+2, -723866.5, -693345.56, 57475.555, -0.040427063, -0.24926847, -649139.06, -72938.625, 0.0, 9.999889, 10.000318 
2.9830763e+3, 2.5119266e+2, -561766.5, -640429.56, 158941.0, -0.10956055, -0.24781574, -437362.88, 40931.06, 0.0, 10.000801, 9.9994755 
2.9826647e+3, 2.6118442e+2, -418586.3, -500671.6, 104562.76, -0.0646515, -0.18414861, -347299.66, 33081.145, 0.0, 10.000886, 9.999813 
2.9822516e+3, 2.711789e+2, -190856.88, -141246.23, 97763.72, 0.0591548, -0.0012574028, -65190.02, 217239.6, 0.0, 10.001002, 10.001495 
2.9818362e+3, 2.811715e+2, -293798.84, -307554.3, 118266.92, -0.043304782, -0.013818586, -182209.83, 2287.5483, 0.0, 10.000273, 10.000108 
2.9814154e+3, 2.9115516e+2, -142584.42, -174132.33, 76816.21, -0.67129236, -0.82372874, -79939.32, 6720.6904, 0.0, 10.000739, 10.000062 
2.981002e+3, 3.0116054e+2, 48091.93, 404235.56, -169583.83, -0.4287057, 0.4647405, 472066.7, 472066.7, 0.0, 9.999444, 10.003993 
2.9976094e+3, 1.416892e+2, -1444820.3, -1192047.5, 122224.07, -0.30240893, -0.28483963, -1142615.0, 408814.13, 0.0, 10.000139, 10.003485 
2.997205e+3, 1.5168169e+2, -1599177.0, -1580381.6, 25984.31, 0.2107781, -0.2779387, -1562147.8, -108644.47, 0.0, 10.000039, 10.000193 
2.9967877e+3, 1.6168071e+2, -1595237.6, -1561731.3, 84717.29, -0.47789708, 0.4294436, -1492126.5, -136609.13, 0.0, 9.999426, 10.000004 
2.9963827e+3, 1.7166632e+2, -1155246.3, -1171441.1, 46523.516, 0.20020871, -0.2453619, -1116120.8, 141534.08, 0.0, 10.001324, 10.00102 
2.9959747e+3, 1.8165416e+2, -881221.5, -1002725.0, 54471.387, 0.49608794, -0.72668594, -860377.25, 299394.22, 0.0, 10.0025425, 10.000947 
2.995555e+3, 1.9165038e+2, -943180.0, -936339.56, 131445.64, -0.1534809, -0.37617669, -808269.6, 253542.69, 0.0, 10.001359, 10.001233 
2.9951382e+3, 2.0164628e+2, -1128514.4, -999505.5, 185018.84, -0.5465308, -0.045310512, -868069.1, 95788.125, 0.0, 9.99936, 10.001153 
2.994727e+3, 2.1164046e+2, -745987.8, -675414.94, 169169.72, -0.29313666, 0.06410072, -537890.7, 328028.34, 0.0, 10.001053, 10.001826 
2.9943135e+3, 2.2163276e+2, -515857.44, -612830.6, 21016.385, -0.12928714, -0.011509083, -511498.63, 256497.02, 0.0, 10.00224, 10.0011015 
2.9938975e+3, 2.3162203e+2, -577351.94, -558866.75, -83993.82, 0.009130365, -0.3411087, -483608.5, 186483.97, 0.0, 10.001125, 10.001282 
2.993483e+3, 2.4161363e+2, -560307.3, -537426.2, 41822.582, 0.10675603, -0.46377796, -505507.63, 66660.51, 0.0, 10.000618, 10.001048 
2.99307e+3, 2.5160918e+2, -342031.53, -378748.13, 173688.48, -0.081059344, -0.16119137, -185733.81, 288481.2, 0.0, 10.001591, 10.000933 
2.9926553e+3, 2.6160344e+2, -176928.3, -216778.7, 109515.25, -0.3393802, 0.028671773, -85540.41, 290731.13, 0.0, 10.001719, 10.001418 
2.992238e+3, 2.7159506e+2, -131098.25, -3477.7583, 102950.8, -0.56612945, -0.16443568, 53834.31, 332176.34, 0.0, 10.000894, 10.002554 
2.9918218e+3, 2.815856e+2, -269405.6, -325625.34, 151569.88, -0.68264276, -0.4219446, -143361.03, 37064.844, 0.0, 10.000466, 9.999955 
2.991413e+3, 2.9157177e+2, -165729.78, -346188.13, 122239.125, -0.1812644, -0.85411954, -104025.72, -21462.59, 0.0, 10.001169, 9.998801 
2.991e+3, 3.0156857e+2, 101422.19, 62305.76, -240751.89, 0.18595181, -0.20231299, 323409.0, 323409.0, 0.0, 10.001127, 10.001027 
3.0076063e+3, 1.42104e+2, -1195231.4, -1311851.3, 44244.53, -0.07888631, 0.14760526, -1180345.5, 367020.5, 0.0, 10.002633, 10.001552 
3.007197e+3, 1.5208754e+2, -1219831.4, -1377231.5, -67863.086, 0.15250027, -0.7373844, -1194612.8, 254909.45, 0.0, 10.002526, 10.000366 
3.0067816e+3, 1.620837e+2, -1437307.1, -1531958.9, -115638.69, -0.2991148, -0.3335835, -1359684.8, -8123.081, 0.0, 10.000609, 9.999614 
3.0063725e+3, 1.7207941e+2, -1459796.1, -1400289.5, -142838.98, 0.008484538, 0.019985719, -1284137.9, -30526.297, 0.0, 9.999483, 10.000297 
3.0059648e+3, 1.8207315e+2, -1365067.1, -1128115.9, -149347.16, 0.29026282, 0.081588686, -1055958.3, 99719.016, 0.0, 9.998618, 10.001999 
3.0055463e+3, 1.9206761e+2, -1283002.5, -879748.9, -202099.2, -0.18502681, -0.0009978184, -795898.06, 261830.44, 0.0, 9.997926, 10.003278 
3.0051297e+3, 2.0205972e+2, -1280522.0, -1096689.9, -82679.52, -0.4518525, -0.1999232, -1064975.5, -105169.555, 0.0, 9.998281, 10.001012 
3.0047232e+3, 2.1205683e+2, -964937.9, -694712.0, 32187.549, 0.14540567, 0.104789145, -690930.94, 170911.77, 0.0, 9.999151, 10.002537 
3.004311e+3, 2.2205228e+2, -912501.06, -957491.25, -94800.17, 0.3165334, 0.33663252, -837563.6, -73671.86, 0.0, 10.000139, 9.99971 
3.0038866e+3, 2.3204163e+2, -685855.25, -767161.1, -123480.016, -0.27792233, 0.1202579, -596508.25, 69480.234, 0.0, 10.001045, 9.999794 
3.003469e+3, 2.4203268e+2, -736051.56, -604696.75, 65134.82, -0.4436484, -0.017015561, -577875.1, -9806.081, 0.0, 9.999334, 10.001148 
3.0030632e+3, 2.5202537e+2, -824370.94, -496037.28, 183509.88, 0.087673604, -0.11636623, -413979.38, 56158.05, 0.0, 9.997851, 10.001798 
3.0026522e+3, 2.6201785e+2, -815758.1, -599628.56, 82112.41, 0.18228467, -0.18475698, -571971.4, -199765.52, 0.0, 9.997699, 10.0006485 
3.002235e+3, 2.7200893e+2, -151872.36, -110825.98, -76504.88, -0.07485509, -0.38479674, -52139.332, 222140.17, 0.0, 10.0012665, 10.001503 
3.0018178e+3, 2.8200093e+2, 159551.48, -73578.29, -85093.266, -0.40499297, -0.49254766, 187306.52, 363652.47, 0.0, 10.003264, 10.000271 
3.0014077e+3, 2.919935e+2, -45024.17, -113210.85, 226756.17, 0.05022167, -0.4514191, 150187.34, 228603.89, 0.0, 10.001406, 10.00014 
3.0009848e+3, 3.0198246e+2, -402735.28, -531458.7, -12201.029, -0.51747864, -0.5639645, -401589.0, -401589.0, 0.0, 9.99942, 9.997604 
